# vtk DataFile Version 2.0
Calculation C:\Users\NickSteudtner\Documents\GitHub\TOCHNOG\standsicherheit_phiC at time 1.000000000000e+00 
ASCII
DATASET UNSTRUCTURED_GRID
Field FieldData 1
Time 1 1 double
1.000000000000e+00

POINTS 1283 float
0.0 0.0 0.0 
5.000000000000e+01 -1.000000000000e+01 0.0 
0.0 -2.000000000000e+01 0.0 
5.000000000000e+01 -2.000000000000e+01 0.0 
0.0 -9.999999999991e-01 0.0 
0.0 -1.999999999998e+00 0.0 
0.0 -2.999999999997e+00 0.0 
0.0 -3.999999999994e+00 0.0 
0.0 -4.999999999991e+00 0.0 
0.0 -5.999999999988e+00 0.0 
0.0 -6.999999999985e+00 0.0 
0.0 -7.999999999982e+00 0.0 
0.0 -8.999999999983e+00 0.0 
0.0 -9.999999999985e+00 0.0 
0.0 -1.099999999999e+01 0.0 
0.0 -1.199999999999e+01 0.0 
0.0 -1.299999999999e+01 0.0 
0.0 -1.399999999999e+01 0.0 
0.0 -1.499999999999e+01 0.0 
0.0 -1.599999999999e+01 0.0 
0.0 -1.700000000000e+01 0.0 
0.0 -1.800000000000e+01 0.0 
0.0 -1.900000000000e+01 0.0 
4.900000000001e+01 -2.000000000000e+01 0.0 
4.800000000001e+01 -2.000000000000e+01 0.0 
4.700000000002e+01 -2.000000000000e+01 0.0 
4.600000000003e+01 -2.000000000000e+01 0.0 
4.500000000004e+01 -2.000000000000e+01 0.0 
4.400000000004e+01 -2.000000000000e+01 0.0 
4.300000000005e+01 -2.000000000000e+01 0.0 
4.200000000006e+01 -2.000000000000e+01 0.0 
4.100000000006e+01 -2.000000000000e+01 0.0 
4.000000000007e+01 -2.000000000000e+01 0.0 
3.900000000008e+01 -2.000000000000e+01 0.0 
3.800000000009e+01 -2.000000000000e+01 0.0 
3.700000000009e+01 -2.000000000000e+01 0.0 
3.600000000010e+01 -2.000000000000e+01 0.0 
3.500000000011e+01 -2.000000000000e+01 0.0 
3.400000000011e+01 -2.000000000000e+01 0.0 
3.300000000012e+01 -2.000000000000e+01 0.0 
3.200000000013e+01 -2.000000000000e+01 0.0 
3.100000000013e+01 -2.000000000000e+01 0.0 
3.000000000013e+01 -2.000000000000e+01 0.0 
2.900000000013e+01 -2.000000000000e+01 0.0 
2.800000000013e+01 -2.000000000000e+01 0.0 
2.700000000013e+01 -2.000000000000e+01 0.0 
2.600000000013e+01 -2.000000000000e+01 0.0 
2.500000000013e+01 -2.000000000000e+01 0.0 
2.400000000013e+01 -2.000000000000e+01 0.0 
2.300000000013e+01 -2.000000000000e+01 0.0 
2.200000000013e+01 -2.000000000000e+01 0.0 
2.100000000013e+01 -2.000000000000e+01 0.0 
2.000000000013e+01 -2.000000000000e+01 0.0 
1.900000000013e+01 -2.000000000000e+01 0.0 
1.800000000013e+01 -2.000000000000e+01 0.0 
1.700000000012e+01 -2.000000000000e+01 0.0 
1.600000000011e+01 -2.000000000000e+01 0.0 
1.500000000011e+01 -2.000000000000e+01 0.0 
1.400000000010e+01 -2.000000000000e+01 0.0 
1.300000000009e+01 -2.000000000000e+01 0.0 
1.200000000009e+01 -2.000000000000e+01 0.0 
1.100000000008e+01 -2.000000000000e+01 0.0 
1.000000000007e+01 -2.000000000000e+01 0.0 
9.000000000064e+00 -2.000000000000e+01 0.0 
8.000000000057e+00 -2.000000000000e+01 0.0 
7.000000000050e+00 -2.000000000000e+01 0.0 
6.000000000043e+00 -2.000000000000e+01 0.0 
5.000000000036e+00 -2.000000000000e+01 0.0 
4.000000000028e+00 -2.000000000000e+01 0.0 
3.000000000021e+00 -2.000000000000e+01 0.0 
2.000000000014e+00 -2.000000000000e+01 0.0 
1.000000000007e+00 -2.000000000000e+01 0.0 
5.000000000000e+01 -1.100000000000e+01 0.0 
5.000000000000e+01 -1.200000000000e+01 0.0 
5.000000000000e+01 -1.300000000000e+01 0.0 
5.000000000000e+01 -1.400000000000e+01 0.0 
5.000000000000e+01 -1.500000000000e+01 0.0 
5.000000000000e+01 -1.600000000000e+01 0.0 
5.000000000000e+01 -1.700000000000e+01 0.0 
5.000000000000e+01 -1.800000000000e+01 0.0 
5.000000000000e+01 -1.900000000000e+01 0.0 
2.000000000000e+01 0.0 0.0 
5.000000000000e+01 0.0 0.0 
3.500000000000e+01 -1.000000000000e+01 0.0 
2.150000000000e+01 -1.000000000000e+00 0.0 
2.300000000000e+01 -2.000000000000e+00 0.0 
2.450000000000e+01 -3.000000000000e+00 0.0 
2.600000000000e+01 -4.000000000000e+00 0.0 
2.750000000000e+01 -5.000000000000e+00 0.0 
2.900000000000e+01 -6.000000000000e+00 0.0 
3.050000000000e+01 -7.000000000000e+00 0.0 
3.200000000000e+01 -8.000000000000e+00 0.0 
3.350000000000e+01 -9.000000000000e+00 0.0 
5.000000000000e+01 -1.000000000000e+00 0.0 
5.000000000000e+01 -2.000000000000e+00 0.0 
5.000000000000e+01 -3.000000000000e+00 0.0 
5.000000000000e+01 -4.000000000000e+00 0.0 
5.000000000000e+01 -5.000000000000e+00 0.0 
5.000000000000e+01 -6.000000000000e+00 0.0 
5.000000000000e+01 -7.000000000000e+00 0.0 
5.000000000000e+01 -8.000000000000e+00 0.0 
5.000000000000e+01 -9.000000000000e+00 0.0 
4.900000000000e+01 -1.000000000000e+01 0.0 
4.800000000000e+01 -1.000000000000e+01 0.0 
4.700000000000e+01 -1.000000000000e+01 0.0 
4.600000000000e+01 -1.000000000000e+01 0.0 
4.500000000000e+01 -1.000000000000e+01 0.0 
4.400000000000e+01 -1.000000000000e+01 0.0 
4.300000000000e+01 -1.000000000000e+01 0.0 
4.200000000000e+01 -1.000000000000e+01 0.0 
4.100000000000e+01 -1.000000000000e+01 0.0 
4.000000000000e+01 -1.000000000000e+01 0.0 
3.900000000000e+01 -1.000000000000e+01 0.0 
3.800000000000e+01 -1.000000000000e+01 0.0 
3.700000000000e+01 -1.000000000000e+01 0.0 
3.600000000000e+01 -1.000000000000e+01 0.0 
1.900000000000e+01 0.0 0.0 
1.800000000000e+01 0.0 0.0 
1.700000000000e+01 0.0 0.0 
1.600000000000e+01 0.0 0.0 
1.500000000000e+01 0.0 0.0 
1.400000000000e+01 0.0 0.0 
1.300000000000e+01 0.0 0.0 
1.200000000000e+01 0.0 0.0 
1.100000000000e+01 0.0 0.0 
1.000000000000e+01 0.0 0.0 
9.000000000000e+00 0.0 0.0 
8.000000000000e+00 0.0 0.0 
7.000000000000e+00 0.0 0.0 
6.000000000000e+00 0.0 0.0 
5.000000000000e+00 0.0 0.0 
4.000000000000e+00 0.0 0.0 
3.000000000000e+00 0.0 0.0 
2.000000000000e+00 0.0 0.0 
1.000000000000e+00 0.0 0.0 
2.100000000000e+01 0.0 0.0 
2.199999999999e+01 0.0 0.0 
2.299999999999e+01 0.0 0.0 
2.399999999999e+01 0.0 0.0 
2.499999999998e+01 0.0 0.0 
2.599999999998e+01 0.0 0.0 
2.699999999998e+01 0.0 0.0 
2.799999999997e+01 0.0 0.0 
2.899999999996e+01 0.0 0.0 
2.999999999995e+01 0.0 0.0 
3.099999999993e+01 0.0 0.0 
3.199999999992e+01 0.0 0.0 
3.299999999990e+01 0.0 0.0 
3.399999999989e+01 0.0 0.0 
3.499999999987e+01 0.0 0.0 
3.599999999988e+01 0.0 0.0 
3.699999999989e+01 0.0 0.0 
3.799999999990e+01 0.0 0.0 
3.899999999990e+01 0.0 0.0 
3.999999999991e+01 0.0 0.0 
4.099999999992e+01 0.0 0.0 
4.199999999993e+01 0.0 0.0 
4.299999999994e+01 0.0 0.0 
4.399999999995e+01 0.0 0.0 
4.499999999996e+01 0.0 0.0 
4.599999999997e+01 0.0 0.0 
4.699999999997e+01 0.0 0.0 
4.799999999998e+01 0.0 0.0 
4.899999999999e+01 0.0 0.0 
4.901724137931e+01 -1.000000000000e+00 0.0 
4.803448275862e+01 -1.000000000000e+00 0.0 
4.705172413793e+01 -1.000000000000e+00 0.0 
4.606896551724e+01 -1.000000000000e+00 0.0 
4.508620689655e+01 -1.000000000000e+00 0.0 
4.410344827586e+01 -1.000000000000e+00 0.0 
4.312068965517e+01 -1.000000000000e+00 0.0 
4.213793103448e+01 -1.000000000000e+00 0.0 
4.115517241379e+01 -1.000000000000e+00 0.0 
4.017241379310e+01 -1.000000000000e+00 0.0 
3.918965517241e+01 -1.000000000000e+00 0.0 
3.820689655172e+01 -1.000000000000e+00 0.0 
3.722413793103e+01 -1.000000000000e+00 0.0 
3.624137931034e+01 -1.000000000000e+00 0.0 
3.525862068966e+01 -1.000000000000e+00 0.0 
3.427586206897e+01 -1.000000000000e+00 0.0 
3.329310344828e+01 -1.000000000000e+00 0.0 
3.231034482759e+01 -1.000000000000e+00 0.0 
3.132758620690e+01 -1.000000000000e+00 0.0 
3.034482758621e+01 -1.000000000000e+00 0.0 
2.936206896552e+01 -1.000000000000e+00 0.0 
2.837931034483e+01 -1.000000000000e+00 0.0 
2.739655172414e+01 -1.000000000000e+00 0.0 
2.641379310345e+01 -1.000000000000e+00 0.0 
2.543103448276e+01 -1.000000000000e+00 0.0 
2.444827586207e+01 -1.000000000000e+00 0.0 
2.346551724138e+01 -1.000000000000e+00 0.0 
2.248275862069e+01 -1.000000000000e+00 0.0 
2.400000000000e+01 -2.000000000000e+00 0.0 
2.500000000000e+01 -2.000000000000e+00 0.0 
2.600000000000e+01 -2.000000000000e+00 0.0 
2.700000000000e+01 -2.000000000000e+00 0.0 
2.800000000000e+01 -2.000000000000e+00 0.0 
2.900000000000e+01 -2.000000000000e+00 0.0 
3.000000000000e+01 -2.000000000000e+00 0.0 
3.100000000000e+01 -2.000000000000e+00 0.0 
3.200000000000e+01 -2.000000000000e+00 0.0 
3.300000000000e+01 -2.000000000000e+00 0.0 
3.400000000000e+01 -2.000000000000e+00 0.0 
3.500000000000e+01 -2.000000000000e+00 0.0 
3.600000000000e+01 -2.000000000000e+00 0.0 
3.700000000000e+01 -2.000000000000e+00 0.0 
3.800000000000e+01 -2.000000000000e+00 0.0 
3.900000000000e+01 -2.000000000000e+00 0.0 
4.000000000000e+01 -2.000000000000e+00 0.0 
4.100000000000e+01 -2.000000000000e+00 0.0 
4.200000000000e+01 -2.000000000000e+00 0.0 
4.300000000000e+01 -2.000000000000e+00 0.0 
4.400000000000e+01 -2.000000000000e+00 0.0 
4.500000000000e+01 -2.000000000000e+00 0.0 
4.600000000000e+01 -2.000000000000e+00 0.0 
4.700000000000e+01 -2.000000000000e+00 0.0 
4.800000000000e+01 -2.000000000000e+00 0.0 
4.900000000000e+01 -2.000000000000e+00 0.0 
2.548076923077e+01 -3.000000000000e+00 0.0 
2.646153846153e+01 -3.000000000000e+00 0.0 
2.744230769230e+01 -3.000000000000e+00 0.0 
2.842307692306e+01 -3.000000000000e+00 0.0 
2.940384615383e+01 -3.000000000000e+00 0.0 
3.038461538459e+01 -3.000000000000e+00 0.0 
3.136538461536e+01 -3.000000000000e+00 0.0 
3.234615384612e+01 -3.000000000000e+00 0.0 
3.332692307687e+01 -3.000000000000e+00 0.0 
3.430769230762e+01 -3.000000000000e+00 0.0 
3.528846153837e+01 -3.000000000000e+00 0.0 
3.626923076912e+01 -3.000000000000e+00 0.0 
3.724999999988e+01 -3.000000000000e+00 0.0 
3.823076923065e+01 -3.000000000000e+00 0.0 
3.921153846143e+01 -3.000000000000e+00 0.0 
4.019230769221e+01 -3.000000000000e+00 0.0 
4.117307692299e+01 -3.000000000000e+00 0.0 
4.215384615377e+01 -3.000000000000e+00 0.0 
4.313461538455e+01 -3.000000000000e+00 0.0 
4.411538461533e+01 -3.000000000000e+00 0.0 
4.509615384611e+01 -3.000000000000e+00 0.0 
4.607692307688e+01 -3.000000000000e+00 0.0 
4.705769230766e+01 -3.000000000000e+00 0.0 
4.803846153844e+01 -3.000000000000e+00 0.0 
4.901923076922e+01 -3.000000000000e+00 0.0 
4.900000000000e+01 -4.000000000000e+00 0.0 
4.800000000000e+01 -4.000000000000e+00 0.0 
4.700000000000e+01 -4.000000000000e+00 0.0 
4.600000000000e+01 -4.000000000000e+00 0.0 
4.500000000000e+01 -4.000000000000e+00 0.0 
4.400000000000e+01 -4.000000000000e+00 0.0 
4.300000000000e+01 -4.000000000000e+00 0.0 
4.200000000000e+01 -4.000000000000e+00 0.0 
4.100000000000e+01 -4.000000000000e+00 0.0 
4.000000000000e+01 -4.000000000000e+00 0.0 
3.900000000000e+01 -4.000000000000e+00 0.0 
3.800000000000e+01 -4.000000000000e+00 0.0 
3.700000000000e+01 -4.000000000000e+00 0.0 
3.600000000000e+01 -4.000000000000e+00 0.0 
3.500000000000e+01 -4.000000000000e+00 0.0 
3.400000000000e+01 -4.000000000000e+00 0.0 
3.300000000000e+01 -4.000000000000e+00 0.0 
3.200000000000e+01 -4.000000000000e+00 0.0 
3.100000000000e+01 -4.000000000000e+00 0.0 
3.000000000000e+01 -4.000000000000e+00 0.0 
2.900000000000e+01 -4.000000000000e+00 0.0 
2.800000000000e+01 -4.000000000000e+00 0.0 
2.700000000000e+01 -4.000000000000e+00 0.0 
2.847826086957e+01 -5.000000000000e+00 0.0 
2.945652173913e+01 -5.000000000000e+00 0.0 
3.043478260870e+01 -5.000000000000e+00 0.0 
3.141304347826e+01 -5.000000000000e+00 0.0 
3.239130434783e+01 -5.000000000000e+00 0.0 
3.336956521739e+01 -5.000000000000e+00 0.0 
3.434782608696e+01 -5.000000000000e+00 0.0 
3.532608695652e+01 -5.000000000000e+00 0.0 
3.630434782609e+01 -5.000000000000e+00 0.0 
3.728260869565e+01 -5.000000000000e+00 0.0 
3.826086956522e+01 -5.000000000000e+00 0.0 
3.923913043478e+01 -5.000000000000e+00 0.0 
4.021739130435e+01 -5.000000000000e+00 0.0 
4.119565217391e+01 -5.000000000000e+00 0.0 
4.217391304348e+01 -5.000000000000e+00 0.0 
4.315217391304e+01 -5.000000000000e+00 0.0 
4.413043478261e+01 -5.000000000000e+00 0.0 
4.510869565217e+01 -5.000000000000e+00 0.0 
4.608695652174e+01 -5.000000000000e+00 0.0 
4.706521739130e+01 -5.000000000000e+00 0.0 
4.804347826087e+01 -5.000000000000e+00 0.0 
4.902173913043e+01 -5.000000000000e+00 0.0 
4.900000000001e+01 -6.000000000000e+00 0.0 
4.800000000003e+01 -6.000000000000e+00 0.0 
4.700000000004e+01 -6.000000000000e+00 0.0 
4.600000000006e+01 -6.000000000000e+00 0.0 
4.500000000007e+01 -6.000000000000e+00 0.0 
4.400000000009e+01 -6.000000000000e+00 0.0 
4.300000000010e+01 -6.000000000000e+00 0.0 
4.200000000012e+01 -6.000000000000e+00 0.0 
4.100000000013e+01 -6.000000000000e+00 0.0 
4.000000000014e+01 -6.000000000000e+00 0.0 
3.900000000014e+01 -6.000000000000e+00 0.0 
3.800000000012e+01 -6.000000000000e+00 0.0 
3.700000000010e+01 -6.000000000000e+00 0.0 
3.600000000008e+01 -6.000000000000e+00 0.0 
3.500000000006e+01 -6.000000000000e+00 0.0 
3.400000000005e+01 -6.000000000000e+00 0.0 
3.300000000003e+01 -6.000000000000e+00 0.0 
3.200000000001e+01 -6.000000000000e+00 0.0 
3.100000000000e+01 -6.000000000000e+00 0.0 
3.000000000000e+01 -6.000000000000e+00 0.0 
3.147499999998e+01 -7.000000000000e+00 0.0 
3.244999999998e+01 -7.000000000000e+00 0.0 
3.342499999998e+01 -7.000000000000e+00 0.0 
3.439999999998e+01 -7.000000000000e+00 0.0 
3.537499999998e+01 -7.000000000000e+00 0.0 
3.634999999998e+01 -7.000000000000e+00 0.0 
3.732499999998e+01 -7.000000000000e+00 0.0 
3.829999999998e+01 -7.000000000000e+00 0.0 
3.927499999999e+01 -7.000000000000e+00 0.0 
4.024999999999e+01 -7.000000000000e+00 0.0 
4.122499999999e+01 -7.000000000000e+00 0.0 
4.219999999999e+01 -7.000000000000e+00 0.0 
4.317499999999e+01 -7.000000000000e+00 0.0 
4.414999999999e+01 -7.000000000000e+00 0.0 
4.512499999999e+01 -7.000000000000e+00 0.0 
4.609999999999e+01 -7.000000000000e+00 0.0 
4.707500000000e+01 -7.000000000000e+00 0.0 
4.805000000000e+01 -7.000000000000e+00 0.0 
4.902500000000e+01 -7.000000000000e+00 0.0 
4.900000000000e+01 -8.000000000000e+00 0.0 
4.800000000000e+01 -8.000000000000e+00 0.0 
4.700000000000e+01 -8.000000000000e+00 0.0 
4.600000000000e+01 -8.000000000000e+00 0.0 
4.500000000000e+01 -8.000000000000e+00 0.0 
4.400000000000e+01 -8.000000000000e+00 0.0 
4.300000000000e+01 -8.000000000000e+00 0.0 
4.200000000000e+01 -8.000000000000e+00 0.0 
4.100000000000e+01 -8.000000000000e+00 0.0 
4.000000000000e+01 -8.000000000000e+00 0.0 
3.900000000000e+01 -8.000000000000e+00 0.0 
3.800000000000e+01 -8.000000000000e+00 0.0 
3.700000000000e+01 -8.000000000000e+00 0.0 
3.600000000000e+01 -8.000000000000e+00 0.0 
3.500000000000e+01 -8.000000000000e+00 0.0 
3.400000000000e+01 -8.000000000000e+00 0.0 
3.300000000000e+01 -8.000000000000e+00 0.0 
3.447058823527e+01 -9.000000000000e+00 0.0 
3.544117647055e+01 -9.000000000000e+00 0.0 
3.641176470582e+01 -9.000000000000e+00 0.0 
3.738235294109e+01 -9.000000000000e+00 0.0 
3.835294117637e+01 -9.000000000000e+00 0.0 
3.932352941164e+01 -9.000000000000e+00 0.0 
4.029411764691e+01 -9.000000000000e+00 0.0 
4.126470588219e+01 -9.000000000000e+00 0.0 
4.223529411748e+01 -9.000000000000e+00 0.0 
4.320588235279e+01 -9.000000000000e+00 0.0 
4.417647058811e+01 -9.000000000000e+00 0.0 
4.514705882342e+01 -9.000000000000e+00 0.0 
4.611764705874e+01 -9.000000000000e+00 0.0 
4.708823529405e+01 -9.000000000000e+00 0.0 
4.805882352937e+01 -9.000000000000e+00 0.0 
4.902941176468e+01 -9.000000000000e+00 0.0 
2.075000000000e+01 -5.000000000006e-01 0.0 
2.225000000000e+01 -1.500000000000e+00 0.0 
2.375000000000e+01 -2.500000000000e+00 0.0 
2.525000000000e+01 -3.500000000000e+00 0.0 
2.675000000000e+01 -4.500000000000e+00 0.0 
2.825000000000e+01 -5.500000000000e+00 0.0 
2.975000000000e+01 -6.500000000000e+00 0.0 
3.125000000000e+01 -7.500000000000e+00 0.0 
3.275000000000e+01 -8.500000000000e+00 0.0 
3.425000000000e+01 -9.500000000000e+00 0.0 
2.226951693683e+01 -2.403913980114e+00 0.0 
1.650149491944e+01 -1.913490915758e+01 0.0 
1.050042386896e+01 -8.504605092970e-01 0.0 
1.553146524712e+01 -8.281255032105e-01 0.0 
1.150000000008e+01 -1.913397459621e+01 0.0 
2.530060260647e+01 -4.428336431260e+00 0.0 
8.651114563942e-01 -1.052096295641e+01 0.0 
2.050000000013e+01 -1.913397459622e+01 0.0 
2.819198729811e+01 -6.399519052838e+00 0.0 
2.445670302931e+01 -1.915649188023e+01 0.0 
3.117591465718e+01 -8.394293040695e+00 0.0 
7.465053044742e+00 -1.920411160581e+01 0.0 
6.398295709691e+00 -8.230098819370e-01 0.0 
2.849659607461e+01 -1.914296187762e+01 0.0 
3.418732642882e+01 -1.040265792588e+01 0.0 
8.386450935063e-01 -6.533605142809e+00 0.0 
9.178661865596e-01 -1.329769195597e+01 0.0 
3.149448624493e+01 -1.910466733764e+01 0.0 
3.552916747426e+01 -1.914628590759e+01 0.0 
4.449210346537e+01 -1.914359085008e+01 0.0 
4.140975975145e+01 -1.906941860733e+01 0.0 
3.847475958753e+01 -1.916622382724e+01 0.0 
3.653774794640e+01 -1.088712800241e+01 0.0 
4.047886341787e+01 -1.090139014048e+01 0.0 
4.348006339825e+01 -1.092792621489e+01 0.0 
4.919519968029e+01 -1.451526755068e+01 0.0 
4.500000000032e+00 -1.913397459621e+01 0.0 
1.856136921614e+01 -8.212235170404e-01 0.0 
3.499895312306e+00 -8.661165539723e-01 0.0 
9.076088696565e-01 -1.642306201891e+01 0.0 
4.655174095477e+01 -1.086183387525e+01 0.0 
9.430688970604e-01 -3.496112672958e+00 0.0 
3.353992337063e+01 -1.901202090820e+01 0.0 
2.249746016977e+01 -1.921262287282e+01 0.0 
2.650122741777e+01 -1.916123026018e+01 0.0 
1.863571384842e+01 -1.908325534840e+01 0.0 
1.450089971693e+01 -1.917691901860e+01 0.0 
1.350044695317e+01 -8.659695299584e-01 0.0 
3.849987469880e+01 -1.084154983397e+01 0.0 
9.454419857884e+00 -1.900818879936e+01 0.0 
4.917398660523e+01 -1.645692866081e+01 0.0 
8.500000000000e+00 -8.660254037844e-01 0.0 
8.660319230785e-01 -8.500111697188e+00 0.0 
4.649022621545e+01 -1.930506220113e+01 0.0 
2.667688107845e+01 -5.420288124331e+00 0.0 
2.379251615665e+01 -3.412225477429e+00 0.0 
2.966631491830e+01 -7.389030232731e+00 0.0 
3.267915035995e+01 -9.396934932445e+00 0.0 
2.074836922338e+01 -1.320054020319e+00 0.0 
4.915985743621e+01 -1.261973384855e+01 0.0 
2.527129768623e+00 -1.931592414663e+01 0.0 
1.538676247410e+00 -8.436956619311e-01 0.0 
4.908096641539e+01 -1.842484004551e+01 0.0 
3.478612492673e+01 -1.090889364140e+01 0.0 
3.409757055860e+01 -1.131991530427e+01 0.0 
3.501895309466e+01 -1.177687842717e+01 0.0 
3.407758073088e+01 -1.224293381580e+01 0.0 
3.484541875390e+01 -1.277051428430e+01 0.0 
3.400322025842e+01 -1.319022775640e+01 0.0 
3.321672625034e+01 -1.266779191233e+01 0.0 
3.315244139236e+01 -1.360984106532e+01 0.0 
3.236335186892e+01 -1.308463225210e+01 0.0 
3.478337442841e+01 -1.372341158982e+01 0.0 
3.230105923633e+01 -1.403023731610e+01 0.0 
3.150954055289e+01 -1.350301767700e+01 0.0 
3.144604792090e+01 -1.444931742516e+01 0.0 
3.065653897123e+01 -1.392357262981e+01 0.0 
3.071897610812e+01 -1.297447031198e+01 0.0 
2.986790411740e+01 -1.339226181535e+01 0.0 
2.993181466745e+01 -1.244703272398e+01 0.0 
2.908023061869e+01 -1.286254537734e+01 0.0 
2.901619051372e+01 -1.380881655279e+01 0.0 
2.822986160390e+01 -1.327695262116e+01 0.0 
2.829453476870e+01 -1.233265343811e+01 0.0 
2.744542905518e+01 -1.274510491105e+01 0.0 
2.751120089246e+01 -1.180368086886e+01 0.0 
2.666218649885e+01 -1.221619339205e+01 0.0 
2.672371209234e+01 -1.127125228527e+01 0.0 
2.587763216302e+01 -1.168539979114e+01 0.0 
2.581165585299e+01 -1.262994410089e+01 0.0 
2.502890882577e+01 -1.209827323619e+01 0.0 
2.509631327757e+01 -1.115492410304e+01 0.0 
2.424662989877e+01 -1.156630981079e+01 0.0 
2.431704046904e+01 -1.062389179334e+01 0.0 
2.346445438728e+01 -1.103427680694e+01 0.0 
2.339382552877e+01 -1.197964871788e+01 0.0 
2.260936050780e+01 -1.144513277642e+01 0.0 
2.268075012022e+01 -1.049911928216e+01 0.0 
2.182525737661e+01 -1.090920811464e+01 0.0 
2.189682319817e+01 -9.961716944568e+00 0.0 
2.104174127792e+01 -1.037266986667e+01 0.0 
2.111304367575e+01 -9.424179358711e+00 0.0 
2.025306185381e+01 -9.832727364719e+00 0.0 
2.018141124247e+01 -1.079140628871e+01 0.0 
1.938594498257e+01 -1.025147354112e+01 0.0 
1.946106490453e+01 -9.288010758448e+00 0.0 
1.858929958352e+01 -9.706319802516e+00 0.0 
1.851540991219e+01 -1.067205988724e+01 0.0 
1.771485303178e+01 -1.012504443115e+01 0.0 
1.764134552256e+01 -1.109360378538e+01 0.0 
1.683745148095e+01 -1.054496365337e+01 0.0 
1.691852964353e+01 -9.582555261178e+00 0.0 
1.603603813062e+01 -1.000160132379e+01 0.0 
1.595824239350e+01 -1.096750698862e+01 0.0 
1.515080624291e+01 -1.041639501931e+01 0.0 
1.523171602559e+01 -9.451711491453e+00 0.0 
1.434621060709e+01 -9.871956467464e+00 0.0 
1.426777178765e+01 -1.083749501371e+01 0.0 
1.345775282374e+01 -1.028803175500e+01 0.0 
1.354103873368e+01 -9.324918457162e+00 0.0 
1.265072018622e+01 -9.742612837270e+00 0.0 
1.257285762070e+01 -1.071557782384e+01 0.0 
1.175874815690e+01 -1.015972324288e+01 0.0 
1.184203019714e+01 -9.193604071377e+00 0.0 
1.094927709905e+01 -9.612103238656e+00 0.0 
1.086938022910e+01 -1.058685085646e+01 0.0 
1.005424098961e+01 -1.002939116380e+01 0.0 
9.977974613295e+00 -1.101324897989e+01 0.0 
1.012915646404e+01 -9.051815821181e+00 0.0 
9.237127782494e+00 -9.471239055559e+00 0.0 
9.308426593771e+00 -8.483376461131e+00 0.0 
8.418806073345e+00 -8.910712374517e+00 0.0 
2.253688464062e+01 -1.239459402279e+01 0.0 
8.495126726666e+00 -7.921646665254e+00 0.0 
9.389727383206e+00 -7.512103628377e+00 0.0 
7.601560812974e+00 -8.349460349344e+00 0.0 
7.525680547759e+00 -9.339736686940e+00 0.0 
7.677888324502e+00 -7.359727833346e+00 0.0 
6.782001206724e+00 -7.788454494773e+00 0.0 
6.858778622885e+00 -6.797338062822e+00 0.0 
2.196596590865e+01 -8.979025665442e+00 0.0 
2.816540108272e+01 -1.422634142353e+01 0.0 
5.961601194403e+00 -7.226824010712e+00 0.0 
6.038171749656e+00 -6.234825887079e+00 0.0 
6.936257279557e+00 -5.805287640737e+00 0.0 
6.115068918323e+00 -5.242109758768e+00 0.0 
3.564391741903e+01 -1.329240553876e+01 0.0 
3.558115605778e+01 -1.425902892003e+01 0.0 
3.645445282201e+01 -1.381970786460e+01 0.0 
3.639744204358e+01 -1.479198128612e+01 0.0 
3.727266909778e+01 -1.435399586226e+01 0.0 
5.216667013081e+00 -5.671788584287e+00 0.0 
3.220697293295e+01 -1.499594545107e+01 0.0 
3.551112158269e+01 -1.523479869250e+01 0.0 
2.836056961467e+01 -1.139032434851e+01 0.0 
2.516730388602e+01 -1.021382726837e+01 0.0 
1.844436907403e+01 -1.164097215196e+01 0.0 
5.885434318740e+00 -8.218694781467e+00 0.0 
5.064071066867e+00 -7.656614643901e+00 0.0 
4.988089103470e+00 -8.649722082718e+00 0.0 
1.079421050408e+01 -1.157014985435e+01 0.0 
9.902420005256e+00 -1.199903342656e+01 0.0 
1.071994252214e+01 -1.255727909771e+01 0.0 
9.826974788171e+00 -1.298659581767e+01 0.0 
1.064607883789e+01 -1.354595476388e+01 0.0 
9.751541265343e+00 -1.397556905071e+01 0.0 
8.932296185869e+00 -1.341553353988e+01 0.0 
8.856399248106e+00 -1.440570715508e+01 0.0 
8.036186803543e+00 -1.384470558472e+01 0.0 
1.057112875118e+01 -1.453516759081e+01 0.0 
1.146582585687e+01 -1.410539926903e+01 0.0 
7.959894480382e+00 -1.483563350928e+01 0.0 
7.138792279156e+00 -1.427465094140e+01 0.0 
7.062506792418e+00 -1.526615385482e+01 0.0 
6.240693558277e+00 -1.470508863040e+01 0.0 
6.316957575451e+00 -1.371212581281e+01 0.0 
5.418183007107e+00 -1.414253605022e+01 0.0 
5.494748364428e+00 -1.314886770603e+01 0.0 
1.756825565873e+01 -1.206433872514e+01 0.0 
1.837565773345e+01 -1.261356468266e+01 0.0 
1.749574831391e+01 -1.303769280014e+01 0.0 
1.830539187332e+01 -1.358828364284e+01 0.0 
1.742278925170e+01 -1.401367746928e+01 0.0 
1.823303007798e+01 -1.456432294258e+01 0.0 
1.734941694138e+01 -1.499213734361e+01 0.0 
1.653760041637e+01 -1.443920312098e+01 0.0 
3.056237977307e+01 -1.487132260174e+01 0.0 
1.866469084762e+01 -8.742953000418e+00 0.0 
1.953669694916e+01 -8.326038909849e+00 0.0 
1.874194303780e+01 -7.780688158966e+00 0.0 
1.961032016741e+01 -7.366854697285e+00 0.0 
1.881715755159e+01 -6.821102209649e+00 0.0 
1.968369797150e+01 -6.407747217358e+00 0.0 
1.889237123259e+01 -5.858375520026e+00 0.0 
1.802038875366e+01 -6.276202618170e+00 0.0 
1.809793837984e+01 -5.307629520489e+00 0.0 
1.721985207997e+01 -5.728242054488e+00 0.0 
1.729850893523e+01 -4.756990819347e+00 0.0 
1.641745664240e+01 -5.174636548624e+00 0.0 
2.495978509456e+01 -1.304406404294e+01 0.0 
1.911567814831e+01 -1.413854250293e+01 0.0 
1.904387332608e+01 -1.511463127723e+01 0.0 
1.992115934240e+01 -1.468788025898e+01 0.0 
7.013706899628e+00 -4.812582868662e+00 0.0 
5.342091874585e+00 -1.513658157269e+01 0.0 
1.139098043784e+01 -1.509488509480e+01 0.0 
1.228151810610e+01 -1.465617481983e+01 0.0 
1.646373110164e+01 -1.541993323337e+01 0.0 
5.293328636712e+00 -4.678385108584e+00 0.0 
1.975965862987e+01 -5.448124345648e+00 0.0 
2.054318374236e+01 -5.992561293251e+00 0.0 
3.721453439063e+01 -1.533216152738e+01 0.0 
3.809302733893e+01 -1.489235527381e+01 0.0 
1.220852788900e+01 -1.565304565230e+01 0.0 
4.394120899730e+00 -5.108397613210e+00 0.0 
8.779354620288e+00 -1.539524721159e+01 0.0 
1.817791047702e+01 -4.338570146253e+00 0.0 
4.518860013839e+00 -1.457343189307e+01 0.0 
4.442712140414e+00 -1.556841391069e+01 0.0 
8.115343466391e+00 -1.285760324283e+01 0.0 
1.985334703171e+01 -1.566478400426e+01 0.0 
2.071953850276e+01 -1.522074243119e+01 0.0 
1.634012953883e+01 -6.154777738301e+00 0.0 
1.553479994708e+01 -5.593730508879e+00 0.0 
1.561265946942e+01 -4.617761762647e+00 0.0 
1.470674212978e+01 -5.064576488228e+00 0.0 
1.464498299883e+01 -6.026514471420e+00 0.0 
1.383271561817e+01 -5.467796261169e+00 0.0 
1.389241253067e+01 -4.504338666645e+00 0.0 
1.301868735463e+01 -4.907185188626e+00 0.0 
1.294514184846e+01 -5.888160903592e+00 0.0 
1.212955968622e+01 -5.328262335277e+00 0.0 
1.220721122383e+01 -4.341264976687e+00 0.0 
1.131324345897e+01 -4.766773516508e+00 0.0 
5.266597955397e+00 -1.613148974258e+01 0.0 
1.737805990867e+01 -3.786677807525e+00 0.0 
3.078438094513e+01 -1.203225297748e+01 0.0 
1.131569882285e+01 -1.608511932110e+01 0.0 
1.728478341782e+01 -1.596017432313e+01 0.0 
3.803465906019e+01 -1.587509751228e+01 0.0 
3.891681276677e+01 -1.543395196905e+01 0.0 
3.897340985302e+01 -1.444710288980e+01 0.0 
3.980095968193e+01 -1.499059496613e+01 0.0 
3.974334598189e+01 -1.597921884150e+01 0.0 
4.062964983717e+01 -1.553518690417e+01 0.0 
4.068729602479e+01 -1.454434445295e+01 0.0 
4.151772679790e+01 -1.508974196007e+01 0.0 
4.157505195739e+01 -1.409694289912e+01 0.0 
4.240699932656e+01 -1.464347955968e+01 0.0 
4.234898051011e+01 -1.563721375790e+01 0.0 
4.323934606035e+01 -1.519082036405e+01 0.0 
4.329740528208e+01 -1.419587509788e+01 0.0 
4.413056841369e+01 -1.474359631875e+01 0.0 
4.418850110108e+01 -1.374786684042e+01 0.0 
4.502219770667e+01 -1.429605103525e+01 0.0 
4.496411937907e+01 -1.529215882720e+01 0.0 
4.490027319897e+00 -4.154167794594e+00 0.0 
1.565080385988e+01 -1.486411982419e+01 0.0 
1.557610691279e+01 -1.584855627870e+01 0.0 
4.195350646612e+00 -8.089117689096e+00 0.0 
4.124027797830e+00 -9.082831955007e+00 0.0 
4.917944318925e+00 -9.643530901533e+00 0.0 
4.020105689502e+00 -1.007439673661e+01 0.0 
4.587185899277e+01 -1.484039992728e+01 0.0 
4.580078661551e+01 -1.584043391042e+01 0.0 
2.061956522375e+01 -5.046701343981e+00 0.0 
2.139572955529e+01 -5.579553449826e+00 0.0 
3.715344357292e+01 -1.631485124583e+01 0.0 
3.618886196443e+00 -1.500471207167e+01 0.0 
3.695606940204e+00 -1.400939692294e+01 0.0 
2.438890661143e+01 -9.686110599723e+00 0.0 
2.523267572778e+01 -9.276766000622e+00 0.0 
2.446094171539e+01 -8.751904591412e+00 0.0 
2.529089822738e+01 -8.321495612547e+00 0.0 
2.606882688827e+01 -8.864724051119e+00 0.0 
2.452116646430e+01 -7.792756462004e+00 0.0 
1.235543269617e+01 -1.365845617339e+01 0.0 
4.318116874181e+01 -1.618567469992e+01 0.0 
7.835066111909e+00 -5.376366223896e+00 0.0 
7.905687335704e+00 -4.382539065697e+00 0.0 
3.542640009567e+00 -1.600035116542e+01 0.0 
1.572431503071e+01 -1.388358386695e+01 0.0 
2.574684696680e+01 -1.357896141127e+01 0.0 
2.488842657651e+01 -1.399674354505e+01 0.0 
2.568301775611e+01 -1.453552048595e+01 0.0 
2.481535572009e+01 -1.495542756508e+01 0.0 
2.561729699688e+01 -1.549784648532e+01 0.0 
2.474623061296e+01 -1.592058894178e+01 0.0 
2.394234041695e+01 -1.537572575827e+01 0.0 
2.065825452567e+01 -1.621899055217e+01 0.0 
2.387180528935e+01 -1.634552264687e+01 0.0 
4.585364400844e+01 -1.383912334080e+01 0.0 
1.998744432052e+01 -1.370317155541e+01 0.0 
1.205356951443e+01 -6.313580285498e+00 0.0 
5.396543905849e+00 -3.731818611283e+00 0.0 
1.139652573295e+01 -3.745819399350e+00 0.0 
3.574124306703e+00 -4.551456826011e+00 0.0 
3.494140761930e+00 -5.539787055649e+00 0.0 
1.213651452413e+01 -1.664505033022e+01 0.0 
2.555045568519e+01 -1.646529356744e+01 0.0 
2.641671114986e+01 -1.603899382371e+01 0.0 
2.612920721894e+01 -7.906435260873e+00 0.0 
2.690339829698e+01 -8.456969591431e+00 0.0 
1.978024383368e+01 -1.664410216353e+01 0.0 
3.732829979082e+01 -1.336926601859e+01 0.0 
4.074336584605e+01 -1.355133328401e+01 0.0 
4.163204691081e+01 -1.310280943992e+01 0.0 
3.773826114429e+00 -3.493444309145e+00 0.0 
1.228783001032e+01 -3.374822835872e+00 0.0 
4.057110462520e+01 -1.652588478000e+01 0.0 
2.132535497898e+01 -6.523623360525e+00 0.0 
2.216932532211e+01 -6.110044769206e+00 0.0 
1.825781152128e+01 -3.370146817147e+00 0.0 
1.745679445888e+01 -2.812942552063e+00 0.0 
4.666517057280e+01 -1.539981381543e+01 0.0 
4.660575894464e+01 -1.639014410186e+01 0.0 
4.838230979954e+00 -1.063643436446e+01 0.0 
3.938942630206e+00 -1.106778981745e+01 0.0 
1.302967218620e+01 -1.621373452436e+01 0.0 
1.049548003190e+01 -4.204825123240e+00 0.0 
4.573571907195e+01 -1.683820511148e+01 0.0 
1.483686335807e+01 -1.430849689310e+01 0.0 
1.490982658890e+01 -1.332679386284e+01 0.0 
3.190805600162e+00 -9.510968358545e+00 0.0 
2.146625721848e+01 -4.642437303115e+00 0.0 
2.069866208266e+01 -4.111852942193e+00 0.0 
1.286859345584e+01 -6.873252723348e+00 0.0 
1.041794493184e+01 -5.194814260291e+00 0.0 
2.671081808965e+00 -4.976806516331e+00 0.0 
1.295786792925e+01 -1.720506531799e+01 0.0 
3.968438206511e+01 -1.696869067241e+01 0.0 
2.308550456051e+01 -1.579963151273e+01 0.0 
2.315593682844e+01 -1.482967445235e+01 0.0 
2.299471449450e+01 -1.677069968132e+01 0.0 
1.057344714696e+01 -3.214252277840e+00 0.0 
1.124057603753e+01 -1.707713739755e+01 0.0 
2.718402535754e+00 -1.543629882103e+01 0.0 
2.638549692805e+01 -1.696744916809e+01 0.0 
2.723416349007e+01 -1.658104204545e+01 0.0 
2.210193351704e+01 -7.046769643417e+00 0.0 
2.295180925161e+01 -6.657397605239e+00 0.0 
2.301355235833e+01 -5.709111896800e+00 0.0 
2.379052718281e+01 -6.254965406962e+00 0.0 
3.243528601237e+01 -1.214181853533e+01 0.0 
2.287977995457e+01 -7.583722368300e+00 0.0 
2.999876029544e+01 -1.150837653096e+01 0.0 
3.084435366963e+01 -1.109693775882e+01 0.0 
3.006650579669e+01 -1.057778994262e+01 0.0 
2.683802665066e+01 -9.386863216633e+00 0.0 
2.768641973621e+01 -8.988883915666e+00 0.0 
2.040296980397e+01 -7.903629133404e+00 0.0 
1.925235024054e+01 -1.218872783130e+01 0.0 
5.735667000424e+00 -1.020577277283e+01 0.0 
6.396559909872e+00 -1.272326295703e+01 0.0 
1.161199420714e+01 -1.212812778229e+01 0.0 
4.229046132615e+01 -1.663084237572e+01 0.0 
4.312275399692e+01 -1.718087491556e+01 0.0 
4.335502068163e+01 -1.320039231514e+01 0.0 
4.424630298089e+01 -1.275160688731e+01 0.0 
7.090116643816e+00 -3.818998061530e+00 0.0 
7.989472176569e+00 -3.389238711200e+00 0.0 
9.085824861778e+00 -1.144036167408e+01 0.0 
1.041972423731e+01 -1.651614080893e+01 0.0 
3.797525112640e+01 -1.686052038746e+01 0.0 
3.709114253394e+01 -1.730125999865e+01 0.0 
3.626966748340e+01 -1.675477052919e+01 0.0 
1.385164591440e+01 -1.677597757552e+01 0.0 
1.787152588784e+01 -8.198993896093e+00 0.0 
1.668849729812e+01 -1.248560611628e+01 0.0 
1.659546177905e+01 -3.232482605530e+00 0.0 
2.332214717345e+01 -1.292598167641e+01 0.0 
7.168238450786e+00 -2.824711686516e+00 0.0 
2.894878403906e+01 -1.475427524446e+01 0.0 
2.646763248247e+00 -1.643270107952e+01 0.0 
3.467431944285e+00 -1.699648837348e+01 0.0 
2.059475877282e+01 -1.719473628526e+01 0.0 
3.333868355437e+01 -1.080596971682e+01 0.0 
2.246451062637e+01 -1.334557761546e+01 0.0 
2.167821896388e+01 -1.280847834858e+01 0.0 
3.089653185767e+01 -1.017198487212e+01 0.0 
3.012604365669e+01 -9.657298805968e+00 0.0 
2.929627299435e+01 -1.006100135274e+01 0.0 
2.936201435219e+01 -9.136748899251e+00 0.0 
1.198219052702e+01 -7.291887238230e+00 0.0 
1.116702076035e+01 -6.731976101053e+00 0.0 
2.551388807505e+01 -1.746927036981e+01 0.0 
2.378639090370e+01 -1.728678807149e+01 0.0 
2.718543627188e+01 -1.748668016909e+01 0.0 
2.804681050301e+01 -1.712626668293e+01 0.0 
1.970737034667e+01 -1.762317646822e+01 0.0 
1.889535776135e+01 -1.707158098231e+01 0.0 
2.593777711283e+00 -5.971157087874e+00 0.0 
2.773468281110e+01 -8.067164273938e+00 0.0 
4.051205884347e+01 -1.751819982458e+01 0.0 
3.166903145421e+01 -1.068032992414e+01 0.0 
1.033042452886e+01 -1.748285844336e+01 0.0 
9.519274604626e+00 -1.694349240233e+01 0.0 
1.668308673328e+01 -2.255861778986e+00 0.0 
1.570531902832e+01 -2.676795860126e+00 0.0 
4.655826903379e+01 -1.736656245706e+01 0.0 
2.384148070773e+01 -5.328744256413e+00 0.0 
2.460255123641e+01 -5.852182672816e+00 0.0 
2.306638135119e+01 -4.798935440613e+00 0.0 
8.467720450578e-01 -1.849576263072e+01 0.0 
4.849657322345e+01 -1.084860705506e+01 0.0 
2.565860899507e+00 -1.742859793981e+01 0.0 
2.764418872564e+01 -9.927142821799e+00 0.0 
4.565165880064e+01 -1.785336695404e+01 0.0 
2.162231831329e+01 -1.376528337468e+01 0.0 
2.360646352969e+01 -9.136041963102e+00 0.0 
1.392738739903e+01 -1.578285505772e+01 0.0 
4.756405947478e+01 -1.683706841809e+01 0.0 
4.740895034054e+01 -1.793766756892e+01 0.0 
4.080779328826e+01 -1.257387192544e+01 0.0 
4.168907939671e+01 -1.210739129181e+01 0.0 
3.991197722154e+01 -1.300815793917e+01 0.0 
1.905536506762e+01 -3.940076697685e+00 0.0 
1.923879596617e+01 -2.875000734166e+00 0.0 
4.401386745746e+01 -1.673483229438e+01 0.0 
4.247233362525e+00 -7.094581653070e+00 0.0 
3.286051630211e+00 -7.635300020553e+00 0.0 
9.609533347623e+00 -4.594311677967e+00 0.0 
9.523554636369e+00 -5.595597029530e+00 0.0 
5.660336628893e+00 -1.119290329628e+01 0.0 
6.558070063295e+00 -1.076385809362e+01 0.0 
2.809866407414e+01 -1.518037766799e+01 0.0 
2.888868674504e+01 -1.570360690070e+01 0.0 
2.654431550819e+01 -1.411217777162e+01 0.0 
1.402158265969e+01 -1.375404617952e+01 0.0 
1.409592494026e+01 -1.277071998942e+01 0.0 
1.499355196178e+01 -1.235270737023e+01 0.0 
4.221535326155e+01 -1.759335617494e+01 0.0 
4.305583287033e+01 -1.822663146802e+01 0.0 
1.280748808359e+01 -7.834332838285e+00 0.0 
1.368988389326e+01 -7.420529606172e+00 0.0 
1.110091796060e+01 -7.683966794328e+00 0.0 
3.963446145980e+01 -1.794331310122e+01 0.0 
3.423932362213e+00 -1.796415590455e+01 0.0 
4.280814572302e+00 -1.752272834860e+01 0.0 
8.050136380041e+00 -2.421582378631e+00 0.0 
8.888674091650e+00 -2.984264211327e+00 0.0 
2.152839430898e+01 -3.732609965436e+00 0.0 
2.077799585292e+01 -3.183896021866e+00 0.0 
3.618719395821e+01 -1.770276572576e+01 0.0 
3.538165138340e+01 -1.718709995539e+01 0.0 
3.702925326420e+01 -1.828844288807e+01 0.0 
1.756739438711e+00 -5.353284859169e+00 0.0 
2.233710191104e+01 -1.527265621324e+01 0.0 
1.389483555057e+01 -1.771797164730e+01 0.0 
1.475634224300e+01 -1.728357428390e+01 0.0 
1.298797563052e+01 -1.825968924755e+01 0.0 
2.145331271866e+01 -1.673705379077e+01 0.0 
2.133282821169e+01 -1.769400773673e+01 0.0 
2.292139194136e+01 -1.774915400288e+01 0.0 
1.750750053243e+01 -1.861475593469e+00 0.0 
4.830478841772e+01 -1.752611802221e+01 0.0 
4.341203507805e+01 -1.220326745522e+01 0.0 
1.685254151866e+01 -1.443085301632e+00 0.0 
4.431538535165e+01 -1.171841387375e+01 0.0 
4.511308610496e+01 -1.229557320599e+01 0.0 
4.510133242889e+01 -1.123680627466e+01 0.0 
1.846818030617e+00 -4.410877617069e+00 0.0 
3.995468694584e+01 -1.186571542989e+01 0.0 
3.901387459804e+01 -1.242507616755e+01 0.0 
8.966735877533e+00 -1.837818700423e+00 0.0 
4.049310011091e+01 -1.848269508791e+01 0.0 
7.278862053803e+00 -1.918523922691e+00 0.0 
6.429715522129e+00 -2.316676521184e+00 0.0 
9.443505505022e+00 -1.792198868094e+01 0.0 
8.620386951051e+00 -1.737590365556e+01 0.0 
8.571868171503e+00 -1.834436667826e+01 0.0 
7.758629848526e+00 -1.775677907213e+01 0.0 
7.806648388584e+00 -1.680761266021e+01 0.0 
6.908555145436e+00 -1.723746463044e+01 0.0 
4.251709122090e+01 -1.156937480156e+01 0.0 
6.931136405615e+00 -1.832465719263e+01 0.0 
6.015545461353e+00 -1.768865355295e+01 0.0 
5.960535926343e+00 -1.872011001764e+01 0.0 
3.023253444786e+01 -8.761960642196e+00 0.0 
2.454622702599e+01 -6.749421992767e+00 0.0 
2.537499741604e+01 -6.347634963783e+00 0.0 
2.544077378460e+01 -5.431358513649e+00 0.0 
2.801367161747e+01 -1.820907270221e+01 0.0 
2.884507806914e+01 -1.762032095326e+01 0.0 
1.821474531936e+00 -1.588901260460e+01 0.0 
1.821006262604e+00 -1.489370287756e+01 0.0 
4.599962488908e+01 -1.176478780598e+01 0.0 
4.705457470007e+01 -1.172182804229e+01 0.0 
4.667668314802e+01 -1.263464558483e+01 0.0 
4.759648056504e+01 -1.252380987933e+01 0.0 
4.728041618103e+01 -1.341928568376e+01 0.0 
4.825209352360e+01 -1.330491640804e+01 0.0 
4.778118233428e+01 -1.420151961695e+01 0.0 
2.388192727579e+01 -1.826934810142e+01 0.0 
2.381714684947e+01 -4.385917965223e+00 0.0 
3.172733219247e+01 -9.758744265248e+00 0.0 
1.882012070658e+01 -1.805540597212e+01 0.0 
1.805667505243e+01 -1.742221226236e+01 0.0 
2.852599958080e+01 -8.597196079481e+00 0.0 
2.856486123437e+01 -7.661382718527e+00 0.0 
1.111792842875e+01 -1.818223852980e+01 0.0 
2.203322722466e+01 -7.986646678802e+00 0.0 
3.955703676900e+01 -1.903246763601e+01 0.0 
1.944842206513e+01 -8.038750575182e-01 0.0 
1.909882767783e+01 -1.746322740933e+00 0.0 
2.281147422941e+01 -8.525912918334e+00 0.0 
2.850633001468e+01 -9.533271335986e+00 0.0 
2.532883344309e+01 -7.308951659710e+00 0.0 
2.620475466461e+01 -6.979208585400e+00 0.0 
1.396278270396e+01 -1.475095389807e+01 0.0 
9.791001166724e+00 -2.554159793552e+00 0.0 
2.229293380421e+01 -4.269762271052e+00 0.0 
4.677238984118e+01 -1.430071795514e+01 0.0 
2.228658385918e+01 -3.344747535984e+00 0.0 
8.940223674553e-01 -1.543595733415e+01 0.0 
2.118566862474e+01 -8.435876987696e+00 0.0 
2.678325936437e+01 -1.032621195706e+01 0.0 
2.223400220487e+01 -5.179046761770e+00 0.0 
2.375370625384e+01 -7.251580562134e+00 0.0 
3.156971327386e+01 -1.255534750737e+01 0.0 
3.328226391312e+01 -1.172914813316e+01 0.0 
3.250948774219e+01 -1.120157009348e+01 0.0 
2.032993445717e+01 -8.867880112202e+00 0.0 
2.697226974856e+01 -7.536633082045e+00 0.0 
2.707377810386e+01 -6.590835263295e+00 0.0 
2.914099246827e+01 -1.191678458549e+01 0.0 
3.544824072239e+01 -1.621126558525e+01 0.0 
3.456511855436e+01 -1.665054783843e+01 0.0 
3.448395810225e+01 -1.759117813016e+01 0.0 
3.368378673938e+01 -1.708037781328e+01 0.0 
3.375560452567e+01 -1.610973066913e+01 0.0 
3.288001547988e+01 -1.654324255651e+01 0.0 
3.282475929147e+01 -1.749725654692e+01 0.0 
3.199880906313e+01 -1.697294088625e+01 0.0 
3.197001272932e+01 -1.811667776864e+01 0.0 
3.111884713021e+01 -1.742166785755e+01 0.0 
3.120418962865e+01 -1.642155709385e+01 0.0 
3.034666704371e+01 -1.683123833816e+01 0.0 
3.026224379976e+01 -1.772592851714e+01 0.0 
3.046632362943e+01 -1.582232843075e+01 0.0 
1.961344017324e+01 -1.857459447985e+01 0.0 
2.274975894774e+01 -9.532738811922e+00 0.0 
1.833923246887e+01 -2.396746883672e+00 0.0 
1.988859500848e+01 -2.249244376594e+00 0.0 
2.758045562861e+01 -1.086434261689e+01 0.0 
3.247300178163e+01 -1.909930104252e+01 0.0 
3.461947482503e+01 -1.911879848019e+01 0.0 
2.047161538662e+01 -6.941478180358e+00 0.0 
2.750230940214e+01 -1.915490590764e+01 0.0 
3.165081350803e+01 -1.161860780120e+01 0.0 
1.897456727641e+01 -4.889634688522e+00 0.0 
2.549338539756e+01 -1.914858252089e+01 0.0 
3.462873135081e+01 -1.567482276144e+01 0.0 
3.384432415243e+01 -1.512280684518e+01 0.0 
3.471433767690e+01 -1.469086942990e+01 0.0 
3.651470373046e+01 -1.918207952149e+01 0.0 
3.901742690249e+01 -1.345028556517e+01 0.0 
2.153224102692e+01 -1.920169709333e+01 0.0 
1.918382939341e+01 -1.316226275662e+01 0.0 
2.005389162382e+01 -1.271962165174e+01 0.0 
2.011472087878e+01 -1.175029352900e+01 0.0 
3.210679478412e+01 -1.598038618242e+01 0.0 
1.752175226543e+01 -1.914713022656e+01 0.0 
1.696897240059e+01 -1.832772588765e+01 0.0 
1.599682523337e+01 -1.832599992024e+01 0.0 
1.644507199462e+01 -1.743697981535e+01 0.0 
1.549987712903e+01 -1.915192375101e+01 0.0 
3.050250861901e+01 -1.918943550234e+01 0.0 
2.949944061527e+01 -1.922950455235e+01 0.0 
1.375892575273e+01 -6.447160534926e+00 0.0 
1.457223670180e+01 -7.006709243857e+00 0.0 
1.450818793236e+01 -7.965943451779e+00 0.0 
1.538804712402e+01 -7.553409623699e+00 0.0 
1.545817644768e+01 -6.580929593419e+00 0.0 
1.626506893751e+01 -7.129032608911e+00 0.0 
1.619833811522e+01 -8.086588580887e+00 0.0 
1.714448609609e+01 -6.697429609777e+00 0.0 
2.887616543568e+01 -1.668015232137e+01 0.0 
1.349814589130e+01 -1.918225301544e+01 0.0 
1.153887772210e+01 -1.311384581217e+01 0.0 
1.242708159886e+01 -1.267046795531e+01 0.0 
1.249799674267e+01 -1.169005616014e+01 0.0 
6.631723893693e+00 -9.774184881867e+00 0.0 
7.451471631867e+00 -1.033148796006e+01 0.0 
7.377795355458e+00 -1.132196345268e+01 0.0 
5.810931797536e+00 -9.211654212252e+00 0.0 
2.402683899133e+01 -1.441378562320e+01 0.0 
1.249768692036e+01 -1.917388426624e+01 0.0 
1.580373499437e+01 -1.290751860664e+01 0.0 
8.344650507834e+00 -9.898403995170e+00 0.0 
3.750622115305e+01 -1.086526401533e+01 0.0 
3.699391251667e+01 -1.171695900794e+01 0.0 
3.606517829518e+01 -1.173717504500e+01 0.0 
3.650257641795e+01 -1.270047380221e+01 0.0 
3.808951488918e+01 -1.183518714175e+01 0.0 
4.760380962420e+00 -1.162484888315e+01 0.0 
3.861210370848e+00 -1.205657631736e+01 0.0 
3.038284309476e+00 -1.149851280664e+01 0.0 
2.961598794889e+00 -1.248856794980e+01 0.0 
2.138953225512e+00 -1.193212674534e+01 0.0 
2.227383593457e+00 -1.096258903918e+01 0.0 
2.043265419276e+00 -1.292158472959e+01 0.0 
1.252449446028e+00 -1.225502002753e+01 0.0 
3.949985210740e+01 -1.086594001795e+01 0.0 
1.453499444792e+01 -8.768805922472e-01 0.0 
1.403518950933e+01 -1.749965556633e+00 0.0 
1.300715031023e+01 -1.714737233040e+00 0.0 
1.350929389899e+01 -2.527443911291e+00 0.0 
1.449600910711e+01 -2.595486162864e+00 0.0 
1.395693872901e+01 -3.484211041558e+00 0.0 
1.495105865208e+01 -3.364609636216e+00 0.0 
1.508822528740e+01 -1.766586020494e+00 0.0 
1.250223858430e+01 -8.634590186802e-01 0.0 
1.200279523409e+01 -1.709044504992e+00 0.0 
1.150086239419e+01 -8.592789190668e-01 0.0 
1.101482754194e+01 -1.677730591922e+00 0.0 
1.148018564526e+01 -2.659323866909e+00 0.0 
8.800552119754e+00 -3.989875954728e+00 0.0 
3.452790439430e+00 -1.901136170646e+01 0.0 
8.658451825200e-01 -9.503462241795e+00 0.0 
1.694787786797e+00 -9.000589234502e+00 0.0 
1.703436717094e+00 -8.038819004041e+00 0.0 
2.594197971110e+00 -8.563955242845e+00 0.0 
1.630513735412e+00 -9.907244747511e+00 0.0 
8.566859292791e-01 -7.512203837972e+00 0.0 
1.685461277022e+00 -7.164280248030e+00 0.0 
2.506394468801e+00 -8.623386730818e-01 0.0 
2.007475081581e+00 -1.727729545205e+00 0.0 
9.211534699767e-01 -1.628791366312e+00 0.0 
1.500000000020e+00 -2.598063549486e+00 0.0 
2.482078929963e+00 -2.553580088725e+00 0.0 
2.999795253092e+00 -1.732169015019e+00 0.0 
3.999712607169e+00 -1.728832897453e+00 0.0 
4.499752199340e+00 -8.656478679175e-01 0.0 
4.964377774841e+00 -1.730129617941e+00 0.0 
4.425017908337e+00 -2.597541756243e+00 0.0 
5.446573195014e+00 -8.410144840023e-01 0.0 
4.915722346614e+01 -1.550640962770e+01 0.0 
4.826794919243e+01 -1.600000000000e+01 0.0 
1.053139533193e+01 -1.911782884365e+01 0.0 
4.156049861949e+01 -1.095160998589e+01 0.0 
9.494526624416e+00 -8.650570090219e-01 0.0 
4.555762166964e+01 -1.897098103585e+01 0.0 
4.250656411371e+01 -1.914387356218e+01 0.0 
4.350906466345e+01 -1.917234727395e+01 0.0 
8.759665722424e-01 -1.746422130609e+01 0.0 
1.698936011838e+00 -1.795012186674e+01 0.0 
4.742476811029e+01 -1.900090177972e+01 0.0 
7.749196752349e+00 -6.368049313489e+00 0.0 
3.361572113416e+01 -1.798765193915e+01 0.0 
4.484660149212e+01 -1.728661231383e+01 0.0 
1.984038172228e+01 -4.502575320116e+00 0.0 
1.035080352627e+01 -6.166639575753e+00 0.0 
2.753558010652e+00 -1.444909521181e+01 0.0 
7.217069543032e+00 -1.328635391078e+01 0.0 
4.364336727739e+00 -1.655585677381e+01 0.0 
4.595208426108e+00 -1.357919665443e+01 0.0 
6.164967006980e+00 -1.569873454630e+01 0.0 
1.487855768353e+01 -1.826523774028e+01 0.0 
2.791876456372e+00 -4.019632415181e+00 0.0 
4.246464893515e+01 -1.364898659620e+01 0.0 
4.503855590351e+01 -1.329552780944e+01 0.0 
4.407239109604e+01 -1.573900004093e+01 0.0 
5.141054449252e+00 -6.664290382472e+00 0.0 
3.141083947149e+00 -1.055790764912e+01 0.0 
6.196463198741e+00 -4.256497932609e+00 0.0 
2.599618716181e+01 -1.836893455464e+01 0.0 
2.923057372337e+01 -1.098461757645e+01 0.0 
1.168343877486e+01 -1.114079645041e+01 0.0 
6.706222096238e+00 -8.780364234441e+00 0.0 
8.567858614669e+00 -6.943121440850e+00 0.0 
1.123755132901e+01 -5.753525820030e+00 0.0 
2.353456234423e+01 -1.008536320953e+01 0.0 
9.162073319168e+00 -1.045593739109e+01 0.0 
9.676343469685e+00 -1.496493008366e+01 0.0 
4.490637882905e+01 -1.628778970202e+01 0.0 
7.398129387772e+00 -9.639977982323e-01 0.0 
1.049641705805e+01 -1.552503975272e+01 0.0 
9.010356286268e+00 -1.242805042052e+01 0.0 
3.985573925497e+01 -1.399863651620e+01 0.0 
1.816196318262e+01 -1.554066497931e+01 0.0 
1.306332244168e+01 -3.963646550326e+00 0.0 
4.145850903932e+01 -1.608094559275e+01 0.0 
3.794664933633e+01 -1.779020121986e+01 0.0 
3.819614412903e+01 -1.290749321016e+01 0.0 
6.270014188119e+00 -3.255093186826e+00 0.0 
4.251165370388e+01 -1.263870364997e+01 0.0 
1.207347709171e+01 -1.763942826023e+01 0.0 
3.633240829927e+01 -1.577330481104e+01 0.0 
4.319052668832e+00 -6.101812561904e+00 0.0 
1.676492415806e+01 -1.151547901392e+01 0.0 
2.594059220037e+01 -1.074225223009e+01 0.0 
3.340750911501e+01 -9.898764354137e+00 0.0 
4.397619591281e+01 -1.769773736461e+01 0.0 
2.175611595028e+01 -1.185718747128e+01 0.0 
1.641818733106e+01 -1.640685203215e+01 0.0 
1.661211421753e+01 -1.346121366338e+01 0.0 
3.428853504935e+00 -6.551993389271e+00 0.0 
8.700728832502e+00 -1.638460872825e+01 0.0 
1.931369795309e+01 -1.121629383702e+01 0.0 
4.139798872363e+01 -1.706922153459e+01 0.0 
2.647837478700e+01 -1.507353829290e+01 0.0 
1.779469616424e+01 -9.161615782908e+00 0.0 
3.885879219319e+01 -1.642026488918e+01 0.0 
1.338194936770e+01 -1.125916521471e+01 0.0 
1.897071181111e+01 -1.609204322578e+01 0.0 
2.844308548793e+01 -1.046221003096e+01 0.0 
2.659854702194e+01 -1.316109415760e+01 0.0 
2.979604503271e+01 -1.433296157755e+01 0.0 
2.417694041347e+01 -1.251231397779e+01 0.0 
1.807401327411e+00 -1.388891148480e+01 0.0 
9.599810618782e+00 -1.595439365034e+01 0.0 
1.652144692160e+01 -4.205392788472e+00 0.0 
2.367839450246e+01 -8.188385218643e+00 0.0 
3.814894930468e+01 -1.390748338767e+01 0.0 
2.466448215774e+01 -1.685878545680e+01 0.0 
4.134044524611e+01 -1.806610045954e+01 0.0 
2.600511411958e+01 -9.801774120648e+00 0.0 
7.882158050716e+00 -1.582364037353e+01 0.0 
3.881607873422e+01 -1.737970515013e+01 0.0 
8.270182347708e+00 -1.088622154920e+01 0.0 
8.672520392520e-01 -4.532984309881e+00 0.0 
1.993447205337e+01 -3.579061902667e+00 0.0 
1.794616079549e+01 -7.238038888498e+00 0.0 
2.097277068165e+01 -1.132450168636e+01 0.0 
8.194803300681e+00 -1.187214224265e+01 0.0 
3.522279404911e+01 -1.823342818178e+01 0.0 
6.984481050295e+00 -1.625271465557e+01 0.0 
1.309433007797e+01 -1.521718594215e+01 0.0 
2.150246167611e+01 -1.885399038185e+00 0.0 
3.250689370209e+01 -1.028789870535e+01 0.0 
6.085886272238e+00 -1.668342132851e+01 0.0 
1.588455661727e+01 -1.193498985921e+01 0.0 
1.809323400821e+01 -1.651110084195e+01 0.0 
1.348885082381e+00 -1.136065576512e+01 0.0 
2.497670221995e+01 -1.834631276173e+01 0.0 
2.937062818424e+01 -8.233711194470e+00 0.0 
5.185823744469e+00 -1.711566910207e+01 0.0 
1.477497877209e+01 -1.530177014512e+01 0.0 
2.125346158933e+01 -7.473003997367e+00 0.0 
4.751561118290e+01 -1.084897772632e+01 0.0 
5.056026576843e+00 -1.825750475525e+01 0.0 
1.473948554523e+01 -1.634577436309e+01 0.0 
2.410566630936e+01 -1.345970002612e+01 0.0 
1.507337507513e+01 -1.138527895328e+01 0.0 
3.189857338687e+01 -8.887781229006e+00 0.0 
7.298712468334e+00 -1.230231046246e+01 0.0 
2.738235495295e+01 -1.368931690364e+01 0.0 
3.750141041969e+01 -1.920449893070e+01 0.0 
1.557271965640e+01 -1.683317951731e+01 0.0 
3.393731848929e+01 -1.413034777044e+01 0.0 
6.482156824153e+00 -1.174575135362e+01 0.0 
2.077971718439e+01 -1.421279621836e+01 0.0 
3.455084320178e+00 -2.562590040585e+00 0.0 
3.099056096250e+01 -9.270280416035e+00 0.0 
5.580176125418e+00 -1.217387969259e+01 0.0 
1.707247630389e+01 -7.660651981710e+00 0.0 
1.418658814174e+01 -1.180390575393e+01 0.0 
2.049103025389e+01 -1.811296706038e+01 0.0 
4.680386172316e+00 -1.260396879301e+01 0.0 
1.699679896554e+01 -8.624561788199e+00 0.0 
3.779470168555e+00 -1.303424899720e+01 0.0 
3.036589870126e+01 -7.879832518349e+00 0.0 
3.306993001774e+01 -1.457671062095e+01 0.0 
2.840150110165e+00 -1.346530088269e+01 0.0 
2.732011135052e+01 -1.464591214560e+01 0.0 
5.423639259568e+00 -2.659711955016e+00 0.0 
2.324455961696e+01 -1.387269388211e+01 0.0 
1.752768355571e+00 -1.693128613594e+01 0.0 
1.020244783051e+01 -8.076834012808e+00 0.0 
1.330873875224e+01 -1.222417528206e+01 0.0 
3.297727364880e+01 -1.555480372087e+01 0.0 
2.890929955439e+01 -6.868664170731e+00 0.0 
1.323294664622e+01 -1.320754260334e+01 0.0 
2.726532861246e+01 -1.560593120806e+01 0.0 
2.240020643398e+01 -1.429299177247e+01 0.0 
2.090445823633e+01 -1.228128621332e+01 0.0 
1.315809881502e+01 -1.420739326938e+01 0.0 
2.781328038068e+01 -7.181956082300e+00 0.0 
8.614200829057e+00 -5.936933226306e+00 0.0 
8.714765730069e+00 -4.979270529687e+00 0.0 
1.611881701099e+01 -9.041973294003e+00 0.0 
2.806830314340e+01 -1.614622947108e+01 0.0 
2.084435391396e+00 -3.385085422913e+00 0.0 
3.133211811152e+01 -1.542347619750e+01 0.0 
9.693114650768e+00 -3.590281506442e+00 0.0 
1.531883592202e+01 -8.504584946143e+00 0.0 
2.151589117094e+01 -1.578915763018e+01 0.0 
4.918943882696e+01 -1.355538828056e+01 0.0 
1.443236615188e+01 -8.918701794549e+00 0.0 
8.276250966452e-01 -5.537685192197e+00 0.0 
1.362790867918e+01 -8.374718262212e+00 0.0 
2.083767477370e+01 -1.324843956035e+01 0.0 
1.273834678703e+01 -8.790890389337e+00 0.0 
1.192275845670e+01 -8.242261327467e+00 0.0 
4.477236023583e+01 -1.824312396664e+01 0.0 
1.102989384254e+01 -8.649855800911e+00 0.0 
4.849096516045e+01 -1.917293752213e+01 0.0 
1.588996752238e+00 -1.910230934687e+01 0.0 
4.904245197583e+01 -1.159839008158e+01 0.0 
2.753852929608e+01 -5.782128488093e+00 0.0 
1.756133602833e+01 -8.306130313187e-01 0.0 
2.615423700951e+01 -6.153865090092e+00 0.0 
1.028818761294e+01 -7.122020845892e+00 0.0 
2.970818901196e+01 -1.527821347593e+01 0.0 
4.801461623449e+01 -1.164472570985e+01 0.0 
9.455722100419e+00 -6.546069291118e+00 0.0 
3.089099236677e+01 -1.835339328261e+01 0.0 
2.350000000013e+01 -1.920825896750e+01 0.0 
4.830620531887e+01 -1.506626155470e+01 0.0 
1.725381944701e+01 -1.688794487850e+01 0.0 
2.156246225273e+01 -1.475893794002e+01 0.0 
4.919319648787e+01 -1.742767505896e+01 0.0 
4.437935623576e+01 -1.077662927266e+01 0.0 
1.001520521978e+01 -1.652692675208e+00 0.0 
9.067160240050e-01 -1.441937727541e+01 0.0 
2.603365149390e+01 -4.755996613848e+00 0.0 
2.458344439002e+01 -4.873645517696e+00 0.0 
2.304312390142e+01 -3.836552768096e+00 0.0 
2.546923202198e+00 -6.902480355749e+00 0.0 
1.251534969393e+01 -2.490989965776e+00 0.0 
2.454061833377e+01 -3.933354231935e+00 0.0 
1.788186558740e+01 -1.827424884923e+01 0.0 
4.090785243552e+01 -1.166553231904e+01 0.0 
2.230128851568e+01 -1.623015738726e+01 0.0 
2.302362347568e+01 -2.916239960270e+00 0.0 
3.878119254461e+01 -1.830091164002e+01 0.0 
2.210081359958e+01 -1.829238229150e+01 0.0 
8.443704882233e+00 -1.921993252862e+01 0.0 
2.218405824691e+01 -1.724557581508e+01 0.0 
2.151157503963e+01 -2.790636689331e+00 0.0 
3.741658958955e+01 -1.250400191722e+01 0.0 
2.697247663737e+01 -1.838290202309e+01 0.0 
4.743362342862e+01 -1.585850773010e+01 0.0 
6.671345075358e+00 -1.924977576322e+01 0.0 
3.900825404537e+01 -1.157220003875e+01 0.0 
4.649692961375e+01 -1.836335837481e+01 0.0 
1.578831424832e+01 -3.678284023361e+00 0.0 
4.814208768888e+01 -1.841249298770e+01 0.0 
2.964123298315e+01 -1.625739458193e+01 0.0 
4.580760351902e+01 -1.284294554687e+01 0.0 
3.561520879615e+01 -1.245548941949e+01 0.0 
2.555418095658e+00 -1.841101588290e+01 0.0 
3.288468366144e+01 -1.834258164109e+01 0.0 
2.065894391445e+01 -2.240688571739e+00 0.0 
4.739171429915e+01 -1.496536413446e+01 0.0 
3.478086729185e+00 -8.576434653209e+00 0.0 
1.606010630246e+01 -1.588421807951e+00 0.0 
1.018329200594e+01 -1.834320874317e+01 0.0 
2.957213339430e+01 -1.720496954591e+01 0.0 
4.142712790164e+00 -1.837794506222e+01 0.0 
6.698721532573e-01 -2.499999999997e+00 0.0 
8.037039123140e+00 -1.571229354954e+00 0.0 
1.203541361428e+01 -1.847784298001e+01 0.0 
2.899968332038e+01 -1.848264722179e+01 0.0 
1.469229460948e+01 -4.219485753730e+00 0.0 
4.049590781957e+01 -1.932812501995e+01 0.0 
1.996211678340e+01 -1.506329754720e+00 0.0 
4.250588298353e+01 -1.067383247529e+01 0.0 
5.831497011152e+00 -1.635396227234e+00 0.0 
5.317606125670e+00 -1.923927974868e+01 0.0 
4.208546426993e+01 -1.842830665025e+01 0.0 
2.327553405011e+00 -9.459409929662e+00 0.0 
3.568351902251e+01 -1.096637218582e+01 0.0 
1.682104374890e+00 -6.231413350963e+00 0.0 
2.451812238018e+01 -1.766524914339e+01 0.0 
1.058003429638e+01 -2.391839617098e+00 0.0 
4.399988753123e+01 -1.851998776342e+01 0.0 
1.400000000010e+01 -1.852293523028e+01 0.0 
3.604719565984e+01 -1.850662876800e+01 0.0 
1.951297136734e+01 -1.938092349694e+01 0.0 
1.821365318472e+01 -1.531276353287e+00 0.0 
2.298031859732e+01 -1.854635324722e+01 0.0 
1.552168066204e+01 -1.764280741977e+01 0.0 
4.572957713638e+01 -1.073347898229e+01 0.0 
3.429637429624e+01 -1.838861552790e+01 0.0 
2.427434426052e+00 -7.705577451869e+00 0.0 
4.662792031485e+00 -3.359424455416e+00 0.0 
4.926794919243e+01 -1.926794919243e+01 0.0 
7.320508075690e-01 -7.320508075688e-01 0.0 
4.926794919243e+01 -1.073205080757e+01 0.0 
7.320508075705e-01 -1.926794919243e+01 0.0 
2.917460242467e+00 -3.202866455310e+00 0.0 
4.838200575963e+01 -1.232674147454e+01 0.0 
2.998445708009e+01 -1.854403752148e+01 0.0 
5.949940090766e-01 -1.152762038165e+01 0.0 
4.844763495759e+01 -1.678092548787e+01 0.0 
1.301685480160e+01 -3.170056592566e+00 0.0 
1.650046335855e+01 -6.731535384067e-01 0.0 
4.854881540991e+01 -1.405224059779e+01 0.0 
2.119545114693e+01 -1.846813384545e+01 0.0 
3.797852849897e+01 -1.857978513215e+01 0.0 
4.649823708745e+01 -1.338351810816e+01 0.0 
2.012685900976e+01 -2.889659035009e+00 0.0 
2.953271913273e+01 -1.791558075192e+01 0.0 
2.408509097292e+00 -1.021949208421e+01 0.0 
2.642589566221e+01 -1.773216561448e+01 0.0 
1.730010270775e+01 -1.763165076721e+01 0.0 
2.017406551304e+01 -8.513536440582e-01 0.0 
5.254761581934e-01 -1.249999999999e+01 0.0 
6.640448215642e+00 -1.545337834885e+00 0.0 
7.843361506349e+00 -1.852719839527e+01 0.0 
1.588442191088e+00 -1.066158564320e+01 0.0 
2.131250000000e+01 -4.209183673460e-01 0.0 
4.950862068966e+01 -5.000000000001e-01 0.0 
2.280866189488e+01 -1.416779325160e+00 0.0 
4.950862068966e+01 -1.500000000000e+00 0.0 
2.431250000000e+01 -2.420918367347e+00 0.0 
4.950961538461e+01 -2.500000000000e+00 0.0 
2.580823483239e+01 -3.416278049680e+00 0.0 
4.950961538461e+01 -3.500000000000e+00 0.0 
2.731250000000e+01 -4.420918367347e+00 0.0 
4.951086956522e+01 -4.500000000000e+00 0.0 
2.880770112393e+01 -5.415638864241e+00 0.0 
4.951086956522e+01 -5.500000000000e+00 0.0 
3.031250000000e+01 -6.420918367347e+00 0.0 
4.951250000000e+01 -6.500000000000e+00 0.0 
3.180701530612e+01 -7.414795918363e+00 0.0 
4.951250000000e+01 -7.500000000000e+00 0.0 
3.331250000000e+01 -8.420918367347e+00 0.0 
4.951470588234e+01 -8.500000000000e+00 0.0 
3.480610198624e+01 -9.413633635267e+00 0.0 
4.951470588234e+01 -9.500000000000e+00 0.0 

CELLS 2424 9696 
3 414 884 1160 
3 884 414 1162 
3 894 387 905 
3 1007 772 1196 
3 774 834 1000 
3 864 777 903 
3 394 816 818 
3 414 841 1162 
3 816 394 834 
3 767 1002 1196 
3 386 961 962 
3 841 414 1176 
3 1006 1158 1202 
3 823 954 1044 
3 1158 420 1202 
3 413 1007 1196 
3 822 393 963 
3 777 864 902 
3 401 821 1143 
3 821 401 1081 
3 1002 767 1155 
3 1132 378 1138 
3 859 1132 1138 
3 809 808 1018 
3 508 664 953 
3 961 386 1070 
3 115 83 1223 
3 853 379 1095 
3 506 508 953 
3 1018 808 1228 
3 758 968 970 
3 411 824 1001 
3 894 905 1203 
3 19 399 874 
3 409 828 830 
3 837 66 1194 
3 66 837 1220 
3 856 405 900 
3 820 106 1173 
3 106 820 1234 
3 1096 838 1122 
3 374 860 999 
3 1177 375 1181 
3 83 423 1223 
3 815 422 1172 
3 854 1177 1181 
3 968 758 971 
3 422 815 1198 
3 964 965 971 
3 954 823 1195 
3 416 859 1096 
3 806 821 1081 
3 584 1197 1215 
3 416 1096 1122 
3 906 388 1086 
3 1179 751 1224 
3 806 1081 1150 
3 399 844 874 
3 667 995 1113 
3 1002 413 1196 
3 373 1207 1248 
3 1187 813 1189 
3 633 661 867 
3 1197 970 1215 
3 978 797 1202 
3 859 416 1132 
3 1207 817 1248 
3 387 894 1167 
3 694 655 976 
3 383 842 908 
3 1070 1013 1124 
3 33 32 862 
3 853 1095 1225 
3 4 5 988 
3 985 1179 1224 
3 825 390 1076 
3 906 1086 1235 
3 873 1178 1185 
3 995 667 1237 
3 1178 415 1185 
3 655 668 976 
3 393 822 1183 
3 378 884 1138 
3 884 378 1160 
3 834 774 1046 
3 816 834 1046 
3 845 1070 1175 
3 18 19 874 
3 899 896 1144 
3 774 1000 1183 
3 1001 824 1174 
3 425 952 1223 
3 998 1169 1193 
3 1193 1169 1205 
3 391 33 862 
3 900 405 1230 
3 822 963 1195 
3 999 860 1208 
3 419 851 1148 
3 867 661 868 
3 1000 834 1218 
3 420 978 1202 
3 581 1147 1171 
3 812 1187 1189 
3 702 700 878 
3 965 968 971 
3 1005 1006 1128 
3 771 998 1193 
3 373 964 971 
3 1101 396 1220 
3 546 899 1144 
3 4 988 1239 
3 769 865 901 
3 736 1052 1090 
3 780 982 1206 
3 840 867 868 
3 635 633 867 
3 409 830 1188 
3 851 419 1243 
3 839 635 867 
3 870 800 1145 
3 423 425 1223 
3 998 771 1246 
3 635 839 878 
3 1190 1089 1204 
3 855 1105 1114 
3 982 780 1236 
3 1105 380 1114 
3 390 825 1216 
3 802 1190 1204 
3 961 1070 1124 
3 772 1007 1198 
3 709 766 866 
3 380 838 1114 
3 828 409 1208 
3 1006 763 1158 
3 845 1013 1070 
3 866 766 1066 
3 810 938 1228 
3 742 858 866 
3 792 1003 1004 
3 842 383 1214 
3 1044 954 1191 
3 651 623 872 
3 858 709 866 
3 838 380 1122 
3 766 904 1066 
3 878 704 1073 
3 394 818 1173 
3 865 500 901 
3 824 411 1212 
3 1159 1165 1243 
3 989 401 1143 
3 417 855 1090 
3 938 810 947 
3 839 702 878 
3 874 845 1175 
3 841 375 1177 
3 1147 807 1171 
3 400 846 847 
3 861 500 865 
3 844 399 1128 
3 694 870 1145 
3 1006 765 1128 
3 881 754 909 
3 396 1101 1210 
3 1159 764 1165 
3 700 704 878 
3 1052 417 1090 
3 386 962 1259 
3 375 841 1176 
3 500 861 875 
3 623 674 872 
3 846 400 1234 
3 704 865 1073 
3 855 417 1105 
3 748 937 1142 
3 982 683 1206 
3 379 853 1168 
3 908 842 1192 
3 840 868 1162 
3 683 982 1222 
3 925 1055 1109 
3 858 742 1096 
3 841 840 1162 
3 881 736 1090 
3 865 769 1073 
3 389 1002 1155 
3 512 921 1131 
3 399 1005 1128 
3 854 415 1178 
3 710 875 1099 
3 896 921 1144 
3 81 116 863 
3 742 838 1096 
3 1098 770 1102 
3 994 1126 1219 
3 1009 402 1235 
3 507 432 914 
3 1129 488 1156 
3 618 1098 1102 
3 952 425 1201 
3 953 664 1191 
3 808 810 1228 
3 1139 1030 1166 
3 876 447 904 
3 706 596 909 
3 513 507 914 
3 703 881 909 
3 754 881 1090 
3 652 1112 1152 
3 937 786 1142 
3 863 397 864 
3 868 884 1162 
3 868 661 883 
3 766 876 904 
3 921 891 1131 
3 777 776 1082 
3 770 869 1088 
3 820 846 1234 
3 875 861 1099 
3 566 1088 1137 
3 826 1036 1260 
3 912 513 914 
3 1036 382 1260 
3 994 995 1126 
3 415 854 1181 
3 1139 782 1140 
3 886 513 912 
3 782 781 1140 
3 762 871 877 
3 588 969 1041 
3 800 977 1145 
3 1055 618 1109 
3 754 706 909 
3 797 978 1210 
3 116 397 863 
3 671 701 877 
3 461 500 875 
3 859 858 1096 
3 869 770 1098 
3 837 1101 1220 
3 1123 512 1131 
3 570 552 907 
3 618 1102 1109 
3 1070 386 1175 
3 904 514 1066 
3 913 914 1110 
3 813 1187 1232 
3 461 875 882 
3 701 762 877 
3 431 703 879 
3 862 32 1216 
3 447 876 1051 
3 920 463 1059 
3 847 846 848 
3 976 668 1180 
3 703 880 881 
3 670 570 907 
3 776 910 1011 
3 758 970 1197 
3 513 886 1048 
3 596 879 909 
3 635 878 1073 
3 886 725 1048 
3 921 512 1144 
3 514 885 1027 
3 381 835 1194 
3 711 920 1059 
3 439 705 885 
3 769 901 1032 
3 711 919 920 
3 553 569 910 
3 951 392 952 
3 465 462 882 
3 582 933 934 
3 913 1123 1131 
3 116 117 397 
3 703 429 880 
3 552 550 907 
3 626 671 877 
3 555 553 910 
3 434 431 879 
3 824 870 1174 
3 662 752 883 
3 711 918 919 
3 879 703 909 
3 951 952 953 
3 672 777 902 
3 582 934 936 
3 583 586 933 
3 868 883 884 
3 913 1110 1123 
3 661 662 883 
3 548 465 882 
3 875 710 882 
3 672 776 777 
3 901 457 1032 
3 801 871 873 
3 37 388 906 
3 39 402 905 
3 448 447 1051 
3 569 552 570 
3 625 626 684 
3 440 439 885 
3 569 570 625 
3 582 583 933 
3 514 1027 1066 
3 1003 792 1221 
3 907 710 1099 
3 1112 768 1152 
3 801 684 871 
3 406 57 926 
3 625 570 626 
3 445 514 904 
3 672 576 776 
3 948 641 1056 
3 462 461 882 
3 586 930 933 
3 705 596 706 
3 42 927 928 
3 550 548 710 
3 711 539 918 
3 685 684 801 
3 916 601 1039 
3 1088 869 1137 
3 701 702 760 
3 775 916 1039 
3 404 45 908 
3 678 770 1088 
3 41 387 927 
3 1044 664 1074 
3 899 546 1164 
3 762 760 854 
3 707 706 739 
3 439 596 705 
3 439 437 596 
3 515 1051 1077 
3 379 47 911 
3 506 953 1201 
3 880 736 881 
3 710 548 882 
3 781 977 1140 
3 739 754 855 
3 701 700 702 
3 400 847 1100 
3 586 929 930 
3 550 710 907 
3 890 912 913 
3 671 700 701 
3 705 706 707 
3 539 541 918 
3 714 941 1028 
3 50 403 917 
3 742 740 838 
3 554 556 936 
3 795 1129 1156 
3 761 840 841 
3 760 702 761 
3 896 893 921 
3 445 443 514 
3 752 858 859 
3 707 739 740 
3 54 405 922 
3 405 856 1182 
3 893 891 921 
3 913 912 914 
3 941 481 1028 
3 633 634 661 
3 553 552 569 
3 551 550 552 
3 447 445 904 
3 728 948 1056 
3 496 942 943 
3 889 887 890 
3 556 582 936 
3 630 515 631 
3 885 705 1027 
3 632 631 633 
3 387 40 905 
3 402 38 906 
3 402 1009 1203 
3 714 940 941 
3 725 627 1048 
3 701 760 762 
3 549 548 550 
3 776 576 910 
3 662 709 752 
3 950 951 954 
3 916 1044 1074 
3 926 924 1018 
3 897 896 899 
3 431 429 703 
3 438 437 439 
3 576 555 910 
3 973 975 976 
3 500 459 901 
3 453 451 515 
3 459 457 901 
3 370 1089 1190 
3 847 848 849 
3 977 781 1145 
3 626 670 671 
3 57 56 926 
3 560 562 652 
3 424 736 880 
3 401 989 1211 
3 1051 876 1077 
3 461 459 500 
3 437 434 879 
3 383 43 928 
3 739 706 754 
3 443 440 885 
3 496 943 949 
3 887 886 912 
3 714 939 940 
3 44 383 908 
3 41 40 387 
3 37 36 388 
3 39 38 402 
3 436 434 437 
3 890 887 912 
3 895 893 896 
3 633 631 634 
3 661 634 662 
3 945 942 1029 
3 889 890 891 
3 46 404 911 
3 804 725 886 
3 918 652 919 
3 804 886 887 
3 645 643 946 
3 453 515 630 
3 752 709 858 
3 625 684 685 
3 391 862 1186 
3 632 633 635 
3 1026 745 1095 
3 942 496 1029 
3 587 590 929 
3 406 926 1018 
3 671 699 700 
3 42 41 927 
3 402 906 1235 
3 444 443 445 
3 973 974 975 
3 44 43 383 
3 371 922 923 
3 586 587 929 
3 541 560 918 
3 377 51 917 
3 124 372 974 
3 630 631 632 
3 442 440 443 
3 446 445 447 
3 514 443 885 
3 684 626 877 
3 46 45 404 
3 547 465 548 
3 673 672 902 
3 835 381 1261 
3 974 372 975 
3 741 740 742 
3 968 969 970 
3 855 754 1090 
3 371 55 922 
3 48 47 379 
3 596 437 879 
3 965 967 968 
3 814 673 902 
3 968 967 969 
3 1058 756 1071 
3 950 392 951 
3 426 424 880 
3 50 49 403 
3 408 950 954 
3 388 36 915 
3 648 645 946 
3 775 823 916 
3 761 839 840 
3 560 652 918 
3 776 1011 1082 
3 52 51 377 
3 40 39 905 
3 38 37 906 
3 714 522 939 
3 517 519 945 
3 453 630 1032 
3 522 524 939 
3 54 53 405 
3 626 570 670 
3 933 932 934 
3 930 931 932 
3 665 775 1039 
3 58 406 938 
3 965 966 967 
3 56 55 371 
3 929 794 930 
3 43 42 928 
3 895 896 897 
3 123 124 974 
3 630 769 1032 
3 724 627 725 
3 45 44 908 
3 436 437 438 
3 691 648 692 
3 685 801 802 
3 924 923 925 
3 686 793 794 
3 930 794 931 
3 964 407 965 
3 47 46 911 
3 910 569 1011 
3 678 726 770 
3 775 822 823 
3 1012 744 1031 
3 930 932 933 
3 438 439 440 
3 51 50 917 
3 519 621 945 
3 530 566 636 
3 450 448 451 
3 789 682 790 
3 934 932 935 
3 939 636 940 
3 451 448 1051 
3 787 644 1061 
3 560 561 562 
3 452 451 453 
3 489 491 949 
3 671 670 699 
3 517 945 1029 
3 692 648 946 
3 516 539 711 
3 56 371 926 
3 803 725 804 
3 687 1012 1031 
3 55 54 922 
3 371 923 924 
3 458 457 459 
3 965 407 966 
3 59 938 947 
3 888 887 889 
3 590 686 929 
3 58 57 406 
3 524 530 939 
3 662 708 709 
3 429 426 880 
3 516 711 1059 
3 520 714 1028 
3 682 641 948 
3 914 432 1110 
3 741 866 1066 
3 562 580 581 
3 849 848 850 
3 491 496 949 
3 541 543 560 
3 686 743 793 
3 713 535 1014 
3 122 123 972 
3 700 699 704 
3 686 794 929 
3 942 784 943 
3 456 454 457 
3 530 636 939 
3 665 773 775 
3 590 653 686 
3 59 58 938 
3 442 443 444 
3 712 783 784 
3 444 445 446 
3 712 784 942 
3 972 123 974 
3 428 426 429 
3 981 980 982 
3 382 129 996 
3 621 676 712 
3 530 565 566 
3 1010 680 1035 
3 790 948 1092 
3 790 682 948 
3 424 384 736 
3 408 113 950 
3 805 915 1108 
3 446 447 448 
3 129 130 996 
3 800 720 977 
3 966 972 973 
3 782 1139 1166 
3 698 748 1142 
3 778 1010 1035 
3 575 1058 1071 
3 499 497 1008 
3 537 535 713 
3 678 689 726 
3 595 576 672 
3 412 980 981 
3 385 984 985 
3 374 60 947 
3 60 59 947 
3 980 979 983 
3 712 676 783 
3 520 522 714 
3 726 808 809 
3 720 639 977 
3 573 658 678 
3 994 992 995 
3 621 712 945 
3 943 784 944 
3 398 991 992 
3 412 979 980 
3 724 725 803 
3 130 131 993 
3 114 392 950 
3 114 115 392 
3 641 545 1056 
3 385 10 984 
3 686 653 743 
3 871 684 877 
3 831 829 832 
3 911 404 1026 
3 715 609 1042 
3 761 702 839 
3 824 800 870 
3 707 740 741 
3 110 393 1000 
3 109 110 1000 
3 130 993 996 
3 993 992 994 
3 987 989 990 
3 563 504 638 
3 398 986 991 
3 979 376 983 
3 373 120 964 
3 504 499 1008 
3 852 850 872 
3 112 113 408 
3 748 843 937 
3 524 529 530 
3 849 850 851 
3 10 11 984 
3 987 990 991 
3 30 29 1003 
3 390 30 1003 
3 775 773 822 
3 393 111 963 
3 984 981 985 
3 28 389 1004 
3 638 504 1008 
3 113 114 950 
3 112 408 963 
3 739 855 1114 
3 36 35 915 
3 1003 29 1004 
3 398 992 993 
3 131 398 993 
3 799 720 800 
3 943 944 1080 
3 1005 763 1006 
3 119 120 373 
3 410 997 998 
3 121 407 964 
3 681 641 682 
3 121 122 407 
3 120 121 964 
3 788 682 789 
3 734 797 798 
3 851 850 852 
3 1027 741 1066 
3 986 987 991 
3 536 537 1016 
3 25 24 1007 
3 413 25 1007 
3 111 112 963 
3 617 545 641 
3 29 28 1004 
3 691 692 807 
3 987 988 989 
3 986 421 987 
3 987 421 988 
3 11 12 412 
3 420 69 978 
3 80 79 422 
3 133 421 986 
3 13 376 979 
3 70 69 420 
3 68 396 978 
3 61 374 999 
3 76 395 997 
3 78 77 410 
3 69 68 978 
3 68 67 396 
3 410 77 997 
3 133 134 421 
3 107 108 394 
3 110 111 393 
3 398 132 986 
3 65 64 381 
3 409 62 999 
3 63 62 409 
3 132 133 986 
3 131 132 398 
3 61 60 374 
3 62 61 999 
3 76 75 395 
3 104 105 400 
3 77 76 997 
3 74 73 419 
3 102 103 764 
3 128 129 382 
3 126 127 411 
3 125 126 1001 
3 124 125 372 
3 13 14 376 
3 12 13 979 
3 126 411 1001 
3 16 17 386 
3 372 125 1001 
3 34 33 391 
3 28 27 389 
3 31 30 390 
3 6 7 401 
3 9 10 385 
3 27 26 1002 
3 19 20 399 
3 26 25 413 
3 20 21 1005 
3 21 22 763 
3 412 12 979 
3 389 27 1002 
3 26 413 1002 
3 399 20 1005 
3 21 763 1005 
3 628 629 1013 
3 407 122 972 
3 519 620 621 
3 993 994 996 
3 831 832 833 
3 712 942 945 
3 594 578 1015 
3 563 638 639 
3 1126 827 1219 
3 734 798 1015 
3 621 622 676 
3 412 981 984 
3 578 640 1015 
3 771 772 815 
3 11 412 984 
3 566 565 573 
3 528 526 579 
3 628 577 629 
3 696 628 1013 
3 547 548 549 
3 741 742 866 
3 457 454 1032 
3 536 535 537 
3 640 733 734 
3 844 696 845 
3 687 781 782 
3 759 680 767 
3 675 624 680 
3 820 819 846 
3 534 532 535 
3 577 536 1016 
3 771 759 772 
3 675 759 771 
3 579 526 1038 
3 734 765 797 
3 637 609 715 
3 844 845 874 
3 835 833 836 
3 767 680 1010 
3 614 612 615 
3 530 529 565 
3 574 656 657 
3 593 679 687 
3 799 800 824 
3 966 407 972 
3 675 680 759 
3 734 733 765 
3 973 972 974 
3 892 891 893 
3 818 718 819 
3 564 578 594 
3 640 696 733 
3 743 744 795 
3 733 696 844 
3 818 819 820 
3 560 543 561 
3 835 836 837 
3 806 688 821 
3 830 829 831 
3 623 615 624 
3 657 688 751 
3 687 782 1012 
3 959 957 960 
3 611 613 717 
3 498 502 517 
3 674 624 675 
3 614 623 651 
3 783 676 955 
3 845 696 1013 
3 640 628 696 
3 623 624 674 
3 616 568 654 
3 676 622 677 
3 649 735 811 
3 615 1022 1035 
3 621 620 622 
3 528 579 1014 
3 828 756 829 
3 614 615 623 
3 757 673 814 
3 731 826 827 
3 557 555 576 
3 640 734 1015 
3 613 612 614 
3 961 959 962 
3 717 718 816 
3 678 658 689 
3 955 677 956 
3 578 628 640 
3 657 656 688 
3 831 833 835 
3 676 677 955 
3 751 688 806 
3 677 622 1024 
3 517 518 519 
3 503 499 504 
3 958 959 961 
3 128 382 1036 
3 411 127 1036 
3 629 577 1016 
3 574 616 656 
3 534 535 536 
3 535 532 1014 
3 491 495 496 
3 590 591 653 
3 637 715 716 
3 903 777 1253 
3 519 619 620 
3 726 689 808 
3 656 616 667 
3 717 613 718 
3 816 718 818 
3 719 639 720 
3 755 722 756 
3 608 606 609 
3 574 568 616 
3 791 715 1060 
3 716 715 791 
3 511 568 574 
3 840 839 867 
3 505 504 563 
3 578 577 628 
3 956 957 958 
3 804 887 888 
3 637 716 778 
3 564 536 577 
3 534 536 564 
3 563 639 719 
3 564 577 578 
3 608 609 610 
3 958 957 959 
3 611 612 613 
3 610 609 637 
3 463 464 1059 
3 1022 778 1035 
3 622 683 1024 
3 956 677 957 
3 619 518 779 
3 493 490 494 
3 611 610 612 
3 485 487 520 
3 503 505 511 
3 731 720 799 
3 608 610 611 
3 503 504 505 
3 828 829 830 
3 615 612 1022 
3 564 594 1017 
3 371 924 926 
3 622 620 683 
3 511 505 568 
3 719 720 731 
3 533 532 534 
3 614 651 1021 
3 731 799 826 
3 517 502 518 
3 821 688 1019 
3 611 717 1020 
3 519 518 619 
3 532 528 1014 
3 619 779 780 
3 680 624 1035 
3 502 499 503 
3 527 531 575 
3 687 679 781 
3 531 528 532 
3 960 957 1024 
3 533 534 1017 
3 934 935 1116 
3 688 656 1019 
3 819 718 1021 
3 681 682 788 
3 631 515 1077 
3 613 614 1021 
3 593 687 1031 
3 605 607 665 
3 656 667 1019 
3 832 829 1058 
3 617 641 681 
3 562 561 580 
3 716 791 792 
3 520 521 522 
3 654 568 1025 
3 525 523 526 
3 755 756 828 
3 743 653 744 
3 534 564 1017 
3 612 610 1022 
3 587 589 590 
3 527 526 528 
3 773 666 774 
3 657 751 1057 
3 498 499 502 
3 450 451 452 
3 531 532 533 
3 662 634 708 
3 452 453 454 
3 607 606 608 
3 718 613 1021 
3 665 666 773 
3 957 677 1024 
3 695 597 722 
3 522 523 524 
3 717 816 1046 
3 894 893 895 
3 581 580 649 
3 527 528 531 
3 610 637 1022 
3 491 493 495 
3 495 497 498 
3 563 719 1025 
3 524 525 529 
3 498 517 1029 
3 607 608 1020 
3 665 607 666 
3 467 469 516 
3 1008 497 1030 
3 549 550 551 
3 498 497 499 
3 495 493 497 
3 505 563 1025 
3 573 597 658 
3 486 484 488 
3 637 778 1022 
3 482 484 485 
3 524 523 525 
3 520 487 521 
3 456 457 458 
3 568 505 1025 
3 695 722 755 
3 695 755 860 
3 642 644 787 
3 491 490 493 
3 522 521 523 
3 608 611 1020 
3 496 495 1029 
3 630 632 769 
3 502 503 1023 
3 653 591 1031 
3 489 490 491 
3 503 511 1023 
3 574 657 1049 
3 521 487 721 
3 525 526 527 
3 660 697 698 
3 127 128 1036 
3 478 476 479 
3 482 480 483 
3 489 488 490 
3 666 607 1020 
3 485 486 487 
3 518 502 1023 
3 486 488 489 
3 624 615 1035 
3 779 518 1023 
3 731 827 1045 
3 1025 719 1045 
3 744 653 1031 
3 493 494 1030 
3 478 480 481 
3 485 484 486 
3 593 655 679 
3 654 1025 1045 
3 916 823 1044 
3 1023 511 1049 
3 573 565 597 
3 646 659 660 
3 430 429 431 
3 669 603 690 
3 698 747 748 
3 464 467 1059 
3 644 646 1061 
3 591 592 593 
3 489 949 1033 
3 460 459 461 
3 583 585 586 
3 655 592 668 
3 495 498 1029 
3 482 483 484 
3 481 480 482 
3 779 1023 1049 
3 485 520 1028 
3 478 479 480 
3 474 476 477 
3 497 493 1030 
3 544 542 545 
3 605 606 607 
3 474 472 475 
3 658 597 695 
3 590 589 591 
3 808 689 810 
3 481 482 1028 
3 748 842 843 
3 441 440 442 
3 591 593 1031 
3 433 431 434 
3 723 627 724 
3 481 941 1064 
3 704 861 865 
3 435 434 436 
3 515 451 1051 
3 593 592 655 
3 825 796 862 
3 679 655 694 
3 856 750 857 
3 1010 778 1053 
3 567 545 617 
3 1020 717 1046 
3 604 603 669 
3 477 476 478 
3 516 538 539 
3 753 690 796 
3 527 575 1034 
3 602 604 605 
3 681 788 869 
3 591 589 592 
3 602 600 603 
3 911 1026 1095 
3 695 860 1047 
3 486 489 1033 
3 666 1020 1046 
3 774 666 1046 
3 482 485 1028 
3 529 525 1034 
3 565 529 1037 
3 719 731 1045 
3 551 552 553 
3 470 472 473 
3 474 475 476 
3 454 453 1032 
3 753 796 825 
3 889 891 892 
3 778 716 1053 
3 709 708 766 
3 599 571 627 
3 525 527 1034 
3 791 1060 1076 
3 572 600 601 
3 487 486 1033 
3 470 468 471 
3 602 603 604 
3 669 690 753 
3 609 606 1042 
3 605 604 606 
3 756 722 1071 
3 749 663 750 
3 722 597 1037 
3 526 523 1038 
3 838 740 1114 
3 544 567 598 
3 509 507 513 
3 511 574 1049 
3 473 472 474 
3 790 1092 1104 
3 539 540 541 
3 556 558 582 
3 470 471 472 
3 541 542 543 
3 707 741 1027 
3 721 487 1033 
3 601 916 1074 
3 834 394 1218 
3 85 361 370 
3 523 521 1038 
3 567 617 618 
3 888 889 1009 
3 516 469 538 
3 521 721 1038 
3 605 665 1039 
3 86 362 415 
3 544 545 567 
3 540 538 728 
3 705 707 1027 
3 529 1034 1037 
3 586 585 587 
3 597 565 1037 
3 689 658 1047 
3 543 542 544 
3 606 604 1042 
3 650 648 691 
3 658 695 1047 
3 87 363 375 
3 601 602 1039 
3 811 735 812 
3 604 669 1042 
3 541 540 542 
3 469 468 470 
3 1111 783 1115 
3 595 672 673 
3 715 1042 1060 
3 1049 657 1057 
3 88 364 414 
3 647 645 648 
3 716 792 1053 
3 587 588 589 
3 449 448 450 
3 601 600 602 
3 1080 944 1085 
3 582 558 583 
3 704 699 861 
3 668 592 1041 
3 587 585 588 
3 589 588 1041 
3 539 538 540 
3 915 35 1108 
3 89 365 378 
3 829 756 1058 
3 466 465 547 
3 510 572 1074 
3 557 576 595 
3 810 689 1047 
3 592 589 1041 
3 780 779 1057 
3 561 543 1040 
3 478 481 1064 
3 649 663 735 
3 632 635 1073 
3 509 513 1048 
3 749 750 856 
3 602 605 1039 
3 889 892 1009 
3 600 599 1063 
3 599 627 723 
3 569 625 1011 
3 832 1058 1078 
3 572 599 600 
3 463 920 1084 
3 90 366 416 
3 749 856 900 
3 554 553 555 
3 779 1049 1057 
3 649 580 663 
3 401 7 1081 
3 455 454 456 
3 544 598 1040 
3 723 724 1043 
3 724 803 805 
3 543 544 1040 
3 690 603 1063 
3 464 462 465 
3 646 660 1061 
3 91 367 380 
3 895 897 898 
3 92 368 417 
3 369 92 1052 
3 467 516 1059 
3 83 369 384 
3 737 492 738 
3 458 459 460 
3 470 473 1050 
3 583 558 584 
3 467 468 469 
3 669 753 1060 
3 892 893 894 
3 575 531 1078 
3 735 663 749 
3 477 478 1064 
3 599 723 1063 
3 469 470 1050 
3 833 832 1087 
3 603 600 1063 
3 627 571 1048 
3 545 542 1056 
3 464 466 467 
3 660 659 697 
3 438 440 441 
3 583 584 585 
3 554 555 556 
3 769 632 1073 
3 446 448 449 
3 836 833 1091 
3 572 571 599 
3 467 466 468 
3 642 787 1067 
3 598 567 1055 
3 1042 669 1060 
3 698 697 747 
3 664 510 1074 
3 770 726 1102 
3 538 469 1050 
3 567 618 1055 
3 452 454 455 
3 796 690 1079 
3 748 747 842 
3 540 728 1056 
3 556 555 557 
3 650 691 693 
3 455 492 730 
3 464 465 466 
3 542 540 1056 
3 573 678 1088 
3 556 557 558 
3 728 538 1050 
3 433 434 435 
3 836 1091 1097 
3 435 436 546 
3 647 648 650 
3 430 431 433 
3 427 426 428 
3 441 442 501 
3 750 663 1065 
3 1058 575 1078 
3 510 571 572 
3 724 805 1043 
3 428 429 430 
3 547 549 727 
3 650 693 746 
3 1060 753 1076 
3 456 458 1054 
3 455 456 492 
3 466 547 1062 
3 571 509 1048 
3 708 634 1077 
3 737 738 768 
3 634 631 1077 
3 580 561 1065 
3 746 813 853 
3 471 468 1062 
3 595 673 729 
3 803 804 1086 
3 766 708 876 
3 1104 477 1117 
3 746 693 813 
3 510 509 571 
3 1034 575 1071 
3 460 461 462 
3 729 673 757 
3 1097 798 1101 
3 449 450 559 
3 562 581 1112 
3 697 659 745 
3 757 814 817 
3 1037 1034 1071 
3 670 907 1099 
3 508 510 664 
3 579 1085 1106 
3 468 466 1062 
3 833 1087 1091 
3 730 492 737 
3 547 727 1062 
3 449 559 642 
3 729 757 758 
3 644 645 646 
3 561 1040 1065 
3 843 842 1214 
3 646 647 659 
3 554 936 1083 
3 531 533 1078 
3 753 825 1076 
3 900 377 1118 
3 663 580 1065 
3 463 462 464 
3 642 643 644 
3 1015 798 1097 
3 959 960 1094 
3 646 645 647 
3 572 601 1074 
3 832 1078 1087 
3 722 1037 1071 
3 104 400 1100 
3 764 103 1100 
3 433 435 512 
3 644 643 645 
3 713 1014 1106 
3 441 501 732 
3 738 492 1054 
3 925 1109 1233 
3 460 462 463 
3 34 391 1108 
3 425 424 426 
3 492 456 1054 
3 579 1038 1085 
3 551 553 554 
3 721 1033 1080 
3 642 559 643 
3 444 446 1067 
3 508 509 510 
3 732 501 785 
3 732 785 786 
3 990 989 1143 
3 1033 949 1080 
3 876 708 1077 
3 436 438 1068 
3 546 436 1068 
3 857 750 1093 
3 7 8 1081 
3 584 558 1072 
3 450 452 1069 
3 949 943 1080 
3 92 417 1052 
3 384 369 1052 
3 508 507 509 
3 625 685 1011 
3 1085 944 1106 
3 618 617 1098 
3 558 557 1072 
3 379 911 1095 
3 1063 723 1079 
3 784 783 1111 
3 1078 533 1087 
3 995 992 1113 
3 681 869 1098 
3 559 450 1069 
3 991 990 1113 
3 690 1063 1079 
3 557 595 1072 
3 438 441 1068 
3 446 449 1067 
3 474 477 1104 
3 940 636 1133 
3 723 1043 1079 
3 636 566 1137 
3 455 730 1069 
3 452 455 1069 
3 361 84 1089 
3 595 729 1072 
3 647 650 1075 
3 427 428 432 
3 650 746 1075 
3 699 670 1099 
3 891 890 1131 
3 745 659 1075 
3 736 384 1052 
3 659 647 1075 
3 533 1017 1087 
3 946 643 1103 
3 721 1080 1085 
3 1038 721 1085 
3 804 888 1086 
3 941 940 1130 
3 449 642 1067 
3 920 919 1136 
3 566 573 1088 
3 1054 458 1084 
3 1083 936 1116 
3 948 728 1092 
3 727 549 1083 
3 441 732 1068 
3 727 1083 1116 
3 501 442 1107 
3 750 1065 1093 
3 1065 1040 1093 
3 458 460 1084 
3 506 507 508 
3 1087 1017 1091 
3 1017 594 1091 
3 685 802 1082 
3 501 1107 1125 
3 836 1097 1101 
3 752 859 1138 
3 713 1111 1115 
3 370 361 1089 
3 1091 594 1097 
3 551 554 1083 
3 962 959 1094 
3 1112 581 1171 
3 506 432 507 
3 427 432 506 
3 559 1069 1103 
3 91 380 1105 
3 417 368 1105 
3 594 1015 1097 
3 1133 636 1137 
3 790 1104 1117 
3 617 681 1098 
3 1050 473 1092 
3 549 551 1083 
3 368 91 1105 
3 425 426 427 
3 103 104 1100 
3 1040 598 1093 
3 460 463 1084 
3 749 900 1118 
3 733 844 1128 
3 728 1050 1092 
3 837 836 1101 
3 1116 935 1120 
3 812 735 1118 
3 1069 730 1103 
3 692 946 1127 
3 726 809 1102 
3 490 488 1129 
3 1067 787 1107 
3 1092 473 1104 
3 444 1067 1107 
3 861 699 1099 
3 807 692 1135 
3 473 474 1104 
3 1014 579 1106 
3 442 444 1107 
3 1204 418 1217 
3 919 652 1152 
3 873 370 1190 
3 654 1045 1126 
3 713 1106 1111 
3 660 698 1134 
3 432 428 1110 
3 90 416 1122 
3 35 34 1108 
3 84 360 418 
3 380 367 1122 
3 789 790 1117 
3 783 955 1115 
3 740 739 1114 
3 1146 931 1149 
3 1130 940 1133 
3 643 559 1103 
3 652 562 1112 
3 897 1199 1209 
3 1011 685 1082 
3 944 784 1111 
3 1115 955 1119 
3 1008 1030 1139 
3 423 384 424 
3 428 430 1110 
3 18 874 1175 
3 992 991 1113 
3 817 814 1161 
3 977 639 1140 
3 955 956 1119 
3 471 1120 1141 
3 932 931 1146 
3 936 934 1116 
3 537 713 1115 
3 433 512 1123 
3 1119 956 1121 
3 471 1062 1120 
3 1107 787 1125 
3 823 822 1195 
3 581 649 1147 
3 956 958 1121 
3 537 1115 1119 
3 89 378 1132 
3 475 472 1141 
3 1121 958 1124 
3 395 75 1148 
3 74 419 1148 
3 416 366 1132 
3 1016 537 1119 
3 794 793 1151 
3 873 871 1178 
3 735 749 1118 
3 781 679 1145 
3 1151 793 1153 
3 1136 919 1152 
3 367 90 1122 
3 958 961 1124 
3 9 385 1150 
3 423 424 425 
3 1016 1119 1121 
3 477 1064 1117 
3 1106 944 1111 
3 864 903 1217 
3 1172 410 1246 
3 479 476 1149 
3 1055 925 1170 
3 692 1127 1135 
3 629 1016 1121 
3 629 1121 1124 
3 1120 935 1141 
3 694 976 1226 
3 903 1204 1217 
3 1013 629 1124 
3 1102 809 1109 
3 743 795 1154 
3 787 1061 1125 
3 884 883 1138 
3 785 501 1125 
3 860 374 1213 
3 117 118 1161 
3 24 23 1157 
3 71 70 1158 
3 73 72 1159 
3 483 480 1153 
3 946 1103 1127 
3 1062 727 1120 
3 1045 827 1126 
3 84 418 1089 
3 1010 1053 1155 
3 430 433 1123 
3 83 384 423 
3 48 379 1168 
3 1081 8 1150 
3 403 49 1168 
3 1110 430 1123 
3 488 484 1156 
3 1103 730 1127 
3 483 1153 1154 
3 762 854 1178 
3 1154 795 1156 
3 512 435 1144 
3 765 733 1128 
3 479 1149 1151 
3 785 1125 1134 
3 1161 118 1248 
3 475 1141 1146 
3 890 913 1131 
3 494 490 1129 
3 795 744 1163 
3 730 737 1127 
3 969 588 1215 
3 88 414 1160 
3 378 365 1160 
3 494 1163 1166 
3 789 1117 1130 
3 1054 1084 1136 
3 1125 1061 1134 
3 894 895 1167 
3 366 89 1132 
3 997 395 1169 
3 842 747 1192 
3 727 1116 1120 
3 370 873 1185 
3 883 752 1138 
3 1064 941 1130 
3 732 786 1164 
3 1117 1064 1130 
3 777 1082 1253 
3 788 789 1133 
3 854 760 1177 
3 1084 920 1136 
3 789 1130 1133 
3 1127 737 1135 
3 651 872 1252 
3 1030 494 1166 
3 801 873 1190 
3 788 1133 1137 
3 761 841 1177 
3 1161 814 1231 
3 422 79 1172 
3 78 410 1172 
3 975 372 1174 
3 869 788 1137 
3 638 1139 1140 
3 638 1008 1139 
3 1134 698 1142 
3 737 768 1135 
3 1061 660 1134 
3 475 1146 1149 
3 106 107 1173 
3 409 999 1208 
3 639 638 1140 
3 598 1055 1170 
3 738 1054 1136 
3 821 1019 1143 
3 546 1068 1164 
3 472 471 1141 
3 973 976 1180 
3 935 932 1146 
3 17 18 1175 
3 435 546 1144 
3 679 694 1145 
3 962 1094 1245 
3 786 785 1142 
3 649 811 1147 
3 1129 795 1163 
3 1150 385 1224 
3 738 1136 1152 
3 75 74 1148 
3 967 966 1180 
3 1026 404 1192 
3 905 402 1203 
3 419 1159 1243 
3 862 796 1186 
3 927 387 1167 
3 476 475 1149 
3 479 1151 1153 
3 923 922 1182 
3 397 117 1161 
3 8 9 1150 
3 962 1245 1259 
3 494 1129 1163 
3 931 794 1151 
3 87 375 1176 
3 414 364 1176 
3 822 773 1183 
3 1141 935 1146 
3 1057 751 1179 
3 691 807 1184 
3 381 64 1188 
3 63 409 1188 
3 480 479 1153 
3 408 954 1195 
3 817 1161 1248 
3 86 415 1181 
3 970 969 1215 
3 375 363 1181 
3 768 738 1152 
3 793 743 1154 
3 1149 931 1151 
3 971 758 1207 
3 815 1172 1246 
3 1153 793 1154 
3 767 1010 1155 
3 675 771 1193 
3 1007 24 1157 
3 70 420 1158 
3 419 73 1159 
3 483 1154 1156 
3 365 88 1160 
3 484 483 1156 
3 66 65 1194 
3 85 370 1185 
3 415 362 1185 
3 857 1093 1170 
3 1000 393 1183 
3 772 759 1196 
3 785 1134 1142 
3 811 812 1189 
3 897 899 1199 
3 848 846 1200 
3 1163 1012 1166 
3 744 1012 1163 
3 1169 395 1249 
3 1184 811 1189 
3 392 115 1223 
3 764 1100 1165 
3 847 849 1165 
3 846 819 1200 
3 729 758 1197 
3 1012 782 1166 
3 792 1004 1227 
3 1021 651 1200 
3 377 900 1230 
3 895 898 1167 
3 1068 732 1164 
3 1079 1043 1186 
3 683 620 1206 
3 619 780 1206 
3 860 755 1208 
3 373 971 1207 
3 806 1150 1224 
3 49 48 1168 
3 6 401 1211 
3 1100 847 1165 
3 924 925 1233 
3 799 824 1212 
3 382 996 1219 
3 31 390 1216 
3 109 1000 1218 
3 1076 390 1221 
3 923 1182 1257 
3 394 108 1218 
3 397 1161 1231 
3 1007 1157 1198 
3 654 1126 1237 
3 792 791 1221 
3 67 66 1220 
3 892 894 1203 
3 584 1072 1197 
3 954 951 1191 
3 982 980 1222 
3 807 1147 1184 
3 52 377 1230 
3 998 997 1169 
3 405 53 1230 
3 758 757 1207 
3 835 837 1194 
3 585 584 1215 
3 990 1143 1242 
3 406 1018 1228 
3 915 805 1229 
3 825 862 1216 
3 818 820 1173 
3 425 427 1201 
3 871 762 1178 
3 927 1167 1244 
3 985 981 1236 
3 802 1204 1253 
3 1147 811 1184 
3 105 106 1234 
3 805 803 1229 
3 3 80 1238 
3 23 3 1238 
3 134 0 1239 
3 0 4 1239 
3 72 1 1240 
3 1 102 1240 
3 2 71 1241 
3 22 2 1241 
3 988 421 1239 
3 119 373 1248 
3 1101 798 1210 
3 746 853 1225 
3 667 616 1237 
3 831 835 1261 
3 16 386 1259 
3 376 14 1245 
3 872 850 1252 
3 1041 969 1247 
3 807 1135 1171 
3 1126 995 1237 
3 1024 683 1255 
3 1167 898 1244 
3 79 78 1172 
3 1094 376 1245 
3 849 851 1243 
3 745 1026 1256 
3 1199 937 1209 
3 1164 786 1199 
3 107 394 1173 
3 768 1112 1171 
3 1086 888 1235 
3 751 806 1224 
3 372 1001 1174 
3 697 745 1256 
3 1093 598 1170 
3 969 967 1247 
3 852 1169 1249 
3 978 396 1210 
3 745 1075 1225 
3 1095 745 1225 
3 386 17 1175 
3 863 864 1217 
3 364 87 1176 
3 760 761 1177 
3 951 953 1191 
3 1135 768 1171 
3 1053 792 1227 
3 922 405 1182 
3 966 973 1180 
3 975 1174 1226 
3 363 86 1181 
3 872 674 1205 
3 780 1057 1179 
3 1043 805 1251 
3 1143 1019 1242 
3 856 857 1182 
3 773 774 1183 
3 917 403 1187 
3 693 691 1184 
3 953 952 1201 
3 947 810 1213 
3 805 1108 1251 
3 1157 422 1198 
3 362 85 1185 
3 796 1079 1186 
3 404 908 1192 
3 1182 857 1257 
3 693 1184 1189 
3 64 63 1188 
3 899 1164 1199 
3 81 863 1258 
3 802 801 1190 
3 898 897 1209 
3 664 1044 1191 
3 765 1006 1202 
3 813 693 1189 
3 381 1188 1261 
3 674 675 1193 
3 377 917 1250 
3 1047 860 1213 
3 810 1047 1213 
3 1179 985 1236 
3 65 381 1194 
3 963 408 1195 
3 759 767 1196 
3 976 975 1226 
3 771 815 1246 
3 852 872 1205 
3 988 5 1211 
3 1072 729 1197 
3 786 937 1199 
3 390 1003 1221 
3 815 772 1198 
3 1118 377 1250 
3 819 1021 1200 
3 411 1036 1212 
3 902 864 1231 
3 1036 826 1212 
3 870 694 1226 
3 360 81 1258 
3 683 1222 1255 
3 797 765 1202 
3 1009 892 1203 
3 427 506 1201 
3 620 619 1206 
3 755 828 1208 
3 809 1018 1233 
3 1187 403 1232 
3 1026 1192 1256 
3 937 843 1209 
3 1174 870 1226 
3 757 817 1207 
3 798 797 1210 
3 989 988 1211 
3 5 6 1211 
3 1089 418 1204 
3 826 799 1212 
3 374 947 1213 
3 383 928 1214 
3 1155 1053 1227 
3 403 1168 1232 
3 1109 809 1233 
3 1200 651 1252 
3 32 31 1216 
3 588 585 1215 
3 108 109 1218 
3 967 1180 1247 
3 996 994 1219 
3 396 67 1220 
3 952 392 1223 
3 1113 990 1242 
3 980 983 1222 
3 1214 928 1244 
3 791 1076 1221 
3 388 915 1229 
3 385 985 1224 
3 814 902 1231 
3 1188 830 1261 
3 1157 23 1238 
3 71 1158 1241 
3 1159 72 1240 
3 1018 924 1233 
3 667 1113 1242 
3 1186 1043 1251 
3 382 1219 1260 
3 938 406 1228 
3 1086 388 1229 
3 864 397 1231 
3 1075 746 1225 
3 674 1193 1205 
3 1004 389 1227 
3 53 52 1230 
3 395 1148 1249 
3 928 927 1244 
3 803 1086 1229 
3 1169 852 1205 
3 1214 1244 1254 
3 981 982 1236 
3 400 105 1234 
3 853 813 1232 
3 80 422 1238 
3 421 134 1239 
3 102 764 1240 
3 763 22 1241 
3 616 654 1237 
3 925 923 1257 
3 888 1009 1235 
3 389 1155 1227 
3 1019 667 1242 
3 1204 903 1253 
3 14 15 1245 
3 410 998 1246 
3 118 119 1248 
3 1108 391 1251 
3 851 852 1249 
3 668 1041 1247 
3 850 848 1252 
3 1168 853 1232 
3 1245 15 1259 
3 418 360 1258 
3 780 1179 1236 
3 960 1024 1255 
3 15 16 1259 
3 812 1118 1250 
3 983 376 1262 
3 1094 960 1262 
3 827 826 1260 
3 830 831 1261 
3 747 697 1256 
3 1082 802 1253 
3 422 1157 1238 
3 1158 763 1241 
3 764 1159 1240 
3 1148 851 1249 
3 1255 983 1262 
3 960 1255 1262 
3 376 1094 1262 
3 857 1170 1257 
3 1180 668 1247 
3 1192 747 1256 
3 1165 849 1243 
3 391 1186 1251 
3 1170 925 1257 
3 848 1200 1252 
3 898 1209 1254 
3 1187 812 1250 
3 917 1187 1250 
3 1217 418 1258 
3 1209 843 1254 
3 843 1214 1254 
3 1219 827 1260 
3 1222 983 1255 
3 863 1217 1258 
3 1244 898 1254 
3 163 164 165 
3 162 163 165 
3 162 165 166 
3 161 162 166 
3 161 166 167 
3 160 161 167 
3 160 167 168 
3 159 160 168 
3 159 168 169 
3 158 159 169 
3 158 169 170 
3 157 158 170 
3 157 170 171 
3 156 157 171 
3 156 171 172 
3 155 156 172 
3 155 172 173 
3 154 155 173 
3 154 173 174 
3 153 154 174 
3 153 174 175 
3 152 153 175 
3 152 175 176 
3 136 84 1263 
3 151 152 176 
3 177 151 176 
3 177 150 151 
3 135 136 1263 
3 150 177 178 
3 149 150 178 
3 191 84 136 
3 149 178 179 
3 148 149 179 
3 148 179 180 
3 147 148 180 
3 147 180 181 
3 146 147 181 
3 146 181 182 
3 145 146 182 
3 183 145 182 
3 84 360 1263 
3 144 145 183 
3 144 183 184 
3 143 144 184 
3 143 184 185 
3 142 143 185 
3 141 142 186 
3 142 185 186 
3 140 141 187 
3 141 186 187 
3 139 140 188 
3 140 187 188 
3 139 189 138 
3 189 139 188 
3 190 137 138 
3 191 136 137 
3 189 190 138 
3 190 191 137 
3 360 135 1263 
3 82 93 1264 
3 164 163 1264 
3 163 82 1264 
3 93 164 1264 
3 360 81 135 
3 165 217 164 
3 216 217 165 
3 166 216 165 
3 215 216 166 
3 167 215 166 
3 214 215 167 
3 168 214 167 
3 213 214 168 
3 169 213 168 
3 212 213 169 
3 170 212 169 
3 211 212 170 
3 211 170 171 
3 210 211 171 
3 172 210 171 
3 209 210 172 
3 173 209 172 
3 208 209 173 
3 174 208 173 
3 207 208 174 
3 207 174 175 
3 206 207 175 
3 85 190 1265 
3 206 175 176 
3 205 206 176 
3 205 176 177 
3 85 192 190 
3 204 205 177 
3 204 177 178 
3 203 204 178 
3 203 178 179 
3 202 203 179 
3 190 191 1265 
3 180 202 179 
3 201 202 180 
3 201 180 181 
3 200 201 181 
3 200 181 182 
3 199 200 182 
3 199 182 183 
3 198 199 183 
3 198 183 184 
3 197 198 184 
3 197 184 185 
3 196 197 185 
3 361 85 1265 
3 195 196 186 
3 196 185 186 
3 194 195 187 
3 195 186 187 
3 193 194 188 
3 194 187 188 
3 192 193 189 
3 189 193 188 
3 192 189 190 
3 191 361 1265 
3 94 93 1266 
3 164 217 1266 
3 217 94 1266 
3 93 164 1266 
3 191 84 361 
3 242 241 217 
3 241 216 217 
3 241 240 216 
3 240 215 216 
3 240 239 215 
3 239 214 215 
3 239 238 214 
3 238 213 214 
3 238 237 213 
3 237 212 213 
3 237 236 212 
3 236 211 212 
3 236 235 211 
3 235 210 211 
3 235 234 210 
3 210 234 209 
3 234 233 209 
3 233 208 209 
3 233 232 208 
3 232 207 208 
3 193 86 1267 
3 232 231 207 
3 231 206 207 
3 231 230 206 
3 192 193 1267 
3 230 205 206 
3 230 229 205 
3 218 86 193 
3 229 204 205 
3 229 228 204 
3 228 203 204 
3 228 227 203 
3 227 202 203 
3 227 226 202 
3 226 201 202 
3 226 225 201 
3 201 225 200 
3 86 362 1267 
3 225 224 200 
3 200 224 199 
3 224 223 199 
3 199 223 198 
3 222 197 198 
3 223 222 198 
3 197 221 196 
3 222 221 197 
3 196 220 195 
3 221 220 196 
3 195 219 194 
3 218 193 194 
3 220 219 195 
3 219 218 194 
3 362 192 1267 
3 94 95 1268 
3 242 217 1268 
3 217 94 1268 
3 95 242 1268 
3 192 362 85 
3 241 242 243 
3 241 243 244 
3 240 241 244 
3 245 240 244 
3 239 240 245 
3 246 239 245 
3 238 239 246 
3 247 238 246 
3 237 238 247 
3 248 237 247 
3 236 237 248 
3 249 236 248 
3 235 236 249 
3 250 235 249 
3 234 235 250 
3 251 234 250 
3 233 234 251 
3 233 251 252 
3 232 233 252 
3 219 87 1269 
3 253 232 252 
3 231 232 253 
3 231 253 254 
3 87 219 265 
3 230 231 254 
3 230 254 255 
3 229 230 255 
3 229 255 256 
3 228 229 256 
3 218 219 1269 
3 228 256 257 
3 227 228 257 
3 227 257 258 
3 226 227 258 
3 226 258 259 
3 225 226 259 
3 225 259 260 
3 224 225 260 
3 224 260 261 
3 223 224 261 
3 223 261 262 
3 87 363 1269 
3 222 262 263 
3 222 223 262 
3 221 263 264 
3 221 222 263 
3 220 264 265 
3 220 221 264 
3 219 220 265 
3 363 218 1269 
3 95 96 1270 
3 243 242 1270 
3 96 243 1270 
3 242 95 1270 
3 218 363 86 
3 243 286 287 
3 243 244 286 
3 244 285 286 
3 244 245 285 
3 245 284 285 
3 245 246 284 
3 246 283 284 
3 246 247 283 
3 247 282 283 
3 247 248 282 
3 248 281 282 
3 248 249 281 
3 249 280 281 
3 249 250 280 
3 280 250 279 
3 250 251 279 
3 251 278 279 
3 251 252 278 
3 88 264 1271 
3 252 277 278 
3 252 253 277 
3 253 276 277 
3 264 265 1271 
3 276 253 254 
3 264 88 266 
3 275 276 254 
3 255 275 254 
3 274 275 255 
3 256 274 255 
3 274 256 273 
3 256 257 273 
3 273 257 272 
3 257 258 272 
3 364 88 1271 
3 272 258 271 
3 258 259 271 
3 271 259 270 
3 259 260 270 
3 260 261 269 
3 260 269 270 
3 261 262 268 
3 269 261 268 
3 262 263 267 
3 263 264 266 
3 268 262 267 
3 267 263 266 
3 265 364 1271 
3 97 96 1272 
3 243 287 1272 
3 96 243 1272 
3 287 97 1272 
3 364 265 87 
3 286 287 288 
3 286 288 289 
3 285 286 289 
3 285 289 290 
3 284 285 290 
3 291 284 290 
3 291 283 284 
3 291 292 283 
3 292 282 283 
3 292 293 282 
3 293 281 282 
3 293 294 281 
3 294 280 281 
3 294 295 280 
3 280 295 279 
3 295 296 279 
3 296 278 279 
3 267 89 1273 
3 296 297 278 
3 297 277 278 
3 307 89 267 
3 297 298 277 
3 298 276 277 
3 298 299 276 
3 276 299 275 
3 299 300 275 
3 266 267 1273 
3 275 300 274 
3 300 301 274 
3 274 301 273 
3 301 302 273 
3 273 302 272 
3 302 303 272 
3 272 303 271 
3 303 304 271 
3 271 304 270 
3 304 305 270 
3 89 365 1273 
3 305 306 269 
3 305 269 270 
3 306 307 268 
3 269 306 268 
3 268 307 267 
3 365 266 1273 
3 97 98 1274 
3 288 287 1274 
3 98 288 1274 
3 287 97 1274 
3 365 88 266 
3 325 326 288 
3 289 325 288 
3 324 325 289 
3 290 324 289 
3 323 324 290 
3 291 323 290 
3 322 323 291 
3 292 322 291 
3 321 322 292 
3 321 292 293 
3 320 321 293 
3 294 320 293 
3 319 320 294 
3 295 319 294 
3 318 319 295 
3 296 318 295 
3 90 306 1275 
3 317 318 296 
3 317 296 297 
3 306 307 1275 
3 317 297 316 
3 316 297 298 
3 306 90 308 
3 315 316 298 
3 315 298 299 
3 314 315 299 
3 314 299 300 
3 313 314 300 
3 301 313 300 
3 366 90 1275 
3 312 313 301 
3 312 301 302 
3 311 312 302 
3 311 302 303 
3 310 303 304 
3 310 311 303 
3 304 305 309 
3 310 304 309 
3 305 306 308 
3 305 308 309 
3 307 366 1275 
3 99 98 1276 
3 288 326 1276 
3 98 288 1276 
3 326 99 1276 
3 307 89 366 
3 325 326 327 
3 328 325 327 
3 324 325 328 
3 329 324 328 
3 323 324 329 
3 330 323 329 
3 322 323 330 
3 331 322 330 
3 321 322 331 
3 332 321 331 
3 320 321 332 
3 333 320 332 
3 319 320 333 
3 319 333 334 
3 318 319 334 
3 309 91 1277 
3 335 318 334 
3 91 309 343 
3 318 335 317 
3 335 336 317 
3 317 336 316 
3 336 337 316 
3 337 315 316 
3 315 337 338 
3 308 309 1277 
3 315 338 314 
3 338 339 314 
3 339 313 314 
3 339 340 313 
3 340 312 313 
3 341 312 340 
3 312 341 311 
3 311 341 342 
3 310 342 343 
3 310 311 342 
3 91 367 1277 
3 309 310 343 
3 367 308 1277 
3 99 100 1278 
3 327 326 1278 
3 100 327 1278 
3 326 99 1278 
3 90 308 367 
3 358 359 327 
3 328 358 327 
3 357 358 328 
3 329 357 328 
3 356 357 329 
3 330 356 329 
3 355 356 330 
3 331 355 330 
3 354 355 331 
3 332 354 331 
3 353 354 332 
3 333 353 332 
3 352 353 333 
3 92 342 1279 
3 352 333 334 
3 351 352 334 
3 342 343 1279 
3 335 351 334 
3 351 335 350 
3 342 92 344 
3 335 336 350 
3 336 349 350 
3 336 337 349 
3 337 348 349 
3 337 338 348 
3 368 92 1279 
3 338 347 348 
3 338 339 347 
3 339 340 346 
3 339 346 347 
3 340 341 345 
3 340 345 346 
3 341 342 344 
3 341 344 345 
3 343 368 1279 
3 101 100 1280 
3 327 359 1280 
3 100 327 1280 
3 359 101 1280 
3 91 368 343 
3 358 359 102 
3 358 102 103 
3 357 358 103 
3 357 103 104 
3 356 357 104 
3 356 104 105 
3 355 356 105 
3 355 105 106 
3 354 355 106 
3 354 106 107 
3 353 354 107 
3 353 107 108 
3 345 83 1281 
3 352 353 108 
3 115 83 345 
3 352 108 109 
3 351 352 109 
3 110 351 109 
3 350 351 110 
3 111 350 110 
3 349 350 111 
3 349 111 112 
3 344 345 1281 
3 349 112 348 
3 112 113 348 
3 113 347 348 
3 113 114 347 
3 114 115 346 
3 347 114 346 
3 346 115 345 
3 83 369 1281 
3 369 344 1281 
3 101 1 1282 
3 102 359 1282 
3 1 102 1282 
3 359 101 1282 
3 369 92 344 

CELL_TYPES 2424
5
5
5
5
5
5
5
5
5
5
5
5
5
5
5
5
5
5
5
5
5
5
5
5
5
5
5
5
5
5
5
5
5
5
5
5
5
5
5
5
5
5
5
5
5
5
5
5
5
5
5
5
5
5
5
5
5
5
5
5
5
5
5
5
5
5
5
5
5
5
5
5
5
5
5
5
5
5
5
5
5
5
5
5
5
5
5
5
5
5
5
5
5
5
5
5
5
5
5
5
5
5
5
5
5
5
5
5
5
5
5
5
5
5
5
5
5
5
5
5
5
5
5
5
5
5
5
5
5
5
5
5
5
5
5
5
5
5
5
5
5
5
5
5
5
5
5
5
5
5
5
5
5
5
5
5
5
5
5
5
5
5
5
5
5
5
5
5
5
5
5
5
5
5
5
5
5
5
5
5
5
5
5
5
5
5
5
5
5
5
5
5
5
5
5
5
5
5
5
5
5
5
5
5
5
5
5
5
5
5
5
5
5
5
5
5
5
5
5
5
5
5
5
5
5
5
5
5
5
5
5
5
5
5
5
5
5
5
5
5
5
5
5
5
5
5
5
5
5
5
5
5
5
5
5
5
5
5
5
5
5
5
5
5
5
5
5
5
5
5
5
5
5
5
5
5
5
5
5
5
5
5
5
5
5
5
5
5
5
5
5
5
5
5
5
5
5
5
5
5
5
5
5
5
5
5
5
5
5
5
5
5
5
5
5
5
5
5
5
5
5
5
5
5
5
5
5
5
5
5
5
5
5
5
5
5
5
5
5
5
5
5
5
5
5
5
5
5
5
5
5
5
5
5
5
5
5
5
5
5
5
5
5
5
5
5
5
5
5
5
5
5
5
5
5
5
5
5
5
5
5
5
5
5
5
5
5
5
5
5
5
5
5
5
5
5
5
5
5
5
5
5
5
5
5
5
5
5
5
5
5
5
5
5
5
5
5
5
5
5
5
5
5
5
5
5
5
5
5
5
5
5
5
5
5
5
5
5
5
5
5
5
5
5
5
5
5
5
5
5
5
5
5
5
5
5
5
5
5
5
5
5
5
5
5
5
5
5
5
5
5
5
5
5
5
5
5
5
5
5
5
5
5
5
5
5
5
5
5
5
5
5
5
5
5
5
5
5
5
5
5
5
5
5
5
5
5
5
5
5
5
5
5
5
5
5
5
5
5
5
5
5
5
5
5
5
5
5
5
5
5
5
5
5
5
5
5
5
5
5
5
5
5
5
5
5
5
5
5
5
5
5
5
5
5
5
5
5
5
5
5
5
5
5
5
5
5
5
5
5
5
5
5
5
5
5
5
5
5
5
5
5
5
5
5
5
5
5
5
5
5
5
5
5
5
5
5
5
5
5
5
5
5
5
5
5
5
5
5
5
5
5
5
5
5
5
5
5
5
5
5
5
5
5
5
5
5
5
5
5
5
5
5
5
5
5
5
5
5
5
5
5
5
5
5
5
5
5
5
5
5
5
5
5
5
5
5
5
5
5
5
5
5
5
5
5
5
5
5
5
5
5
5
5
5
5
5
5
5
5
5
5
5
5
5
5
5
5
5
5
5
5
5
5
5
5
5
5
5
5
5
5
5
5
5
5
5
5
5
5
5
5
5
5
5
5
5
5
5
5
5
5
5
5
5
5
5
5
5
5
5
5
5
5
5
5
5
5
5
5
5
5
5
5
5
5
5
5
5
5
5
5
5
5
5
5
5
5
5
5
5
5
5
5
5
5
5
5
5
5
5
5
5
5
5
5
5
5
5
5
5
5
5
5
5
5
5
5
5
5
5
5
5
5
5
5
5
5
5
5
5
5
5
5
5
5
5
5
5
5
5
5
5
5
5
5
5
5
5
5
5
5
5
5
5
5
5
5
5
5
5
5
5
5
5
5
5
5
5
5
5
5
5
5
5
5
5
5
5
5
5
5
5
5
5
5
5
5
5
5
5
5
5
5
5
5
5
5
5
5
5
5
5
5
5
5
5
5
5
5
5
5
5
5
5
5
5
5
5
5
5
5
5
5
5
5
5
5
5
5
5
5
5
5
5
5
5
5
5
5
5
5
5
5
5
5
5
5
5
5
5
5
5
5
5
5
5
5
5
5
5
5
5
5
5
5
5
5
5
5
5
5
5
5
5
5
5
5
5
5
5
5
5
5
5
5
5
5
5
5
5
5
5
5
5
5
5
5
5
5
5
5
5
5
5
5
5
5
5
5
5
5
5
5
5
5
5
5
5
5
5
5
5
5
5
5
5
5
5
5
5
5
5
5
5
5
5
5
5
5
5
5
5
5
5
5
5
5
5
5
5
5
5
5
5
5
5
5
5
5
5
5
5
5
5
5
5
5
5
5
5
5
5
5
5
5
5
5
5
5
5
5
5
5
5
5
5
5
5
5
5
5
5
5
5
5
5
5
5
5
5
5
5
5
5
5
5
5
5
5
5
5
5
5
5
5
5
5
5
5
5
5
5
5
5
5
5
5
5
5
5
5
5
5
5
5
5
5
5
5
5
5
5
5
5
5
5
5
5
5
5
5
5
5
5
5
5
5
5
5
5
5
5
5
5
5
5
5
5
5
5
5
5
5
5
5
5
5
5
5
5
5
5
5
5
5
5
5
5
5
5
5
5
5
5
5
5
5
5
5
5
5
5
5
5
5
5
5
5
5
5
5
5
5
5
5
5
5
5
5
5
5
5
5
5
5
5
5
5
5
5
5
5
5
5
5
5
5
5
5
5
5
5
5
5
5
5
5
5
5
5
5
5
5
5
5
5
5
5
5
5
5
5
5
5
5
5
5
5
5
5
5
5
5
5
5
5
5
5
5
5
5
5
5
5
5
5
5
5
5
5
5
5
5
5
5
5
5
5
5
5
5
5
5
5
5
5
5
5
5
5
5
5
5
5
5
5
5
5
5
5
5
5
5
5
5
5
5
5
5
5
5
5
5
5
5
5
5
5
5
5
5
5
5
5
5
5
5
5
5
5
5
5
5
5
5
5
5
5
5
5
5
5
5
5
5
5
5
5
5
5
5
5
5
5
5
5
5
5
5
5
5
5
5
5
5
5
5
5
5
5
5
5
5
5
5
5
5
5
5
5
5
5
5
5
5
5
5
5
5
5
5
5
5
5
5
5
5
5
5
5
5
5
5
5
5
5
5
5
5
5
5
5
5
5
5
5
5
5
5
5
5
5
5
5
5
5
5
5
5
5
5
5
5
5
5
5
5
5
5
5
5
5
5
5
5
5
5
5
5
5
5
5
5
5
5
5
5
5
5
5
5
5
5
5
5
5
5
5
5
5
5
5
5
5
5
5
5
5
5
5
5
5
5
5
5
5
5
5
5
5
5
5
5
5
5
5
5
5
5
5
5
5
5
5
5
5
5
5
5
5
5
5
5
5
5
5
5
5
5
5
5
5
5
5
5
5
5
5
5
5
5
5
5
5
5
5
5
5
5
5
5
5
5
5
5
5
5
5
5
5
5
5
5
5
5
5
5
5
5
5
5
5
5
5
5
5
5
5
5
5
5
5
5
5
5
5
5
5
5
5
5
5
5
5
5
5
5
5
5
5
5
5
5
5
5
5
5
5
5
5
5
5
5
5
5
5
5
5
5
5
5
5
5
5
5
5
5
5
5
5
5
5
5
5
5
5
5
5
5
5
5
5
5
5
5
5
5
5
5
5
5
5
5
5
5
5
5
5
5
5
5
5
5
5
5
5
5
5
5
5
5
5
5
5
5
5
5
5
5
5
5
5
5
5
5
5
5
5
5
5
5
5
5
5
5
5
5
5
5
5
5
5
5
5
5
5
5
5
5
5
5
5
5
5
5
5
5
5
5
5
5
5
5
5
5
5
5
5
5
5
5
5
5
5
5
5
5
5
5
5
5
5
5
5
5
5
5
5
5
5
5
5
5
5
5
5
5
5
5
5
5
5
5
5
5
5
5
5
5
5
5
5
5
5
5
5
5
5
5
5
5
5
5
5
5
5
5
5
5
5
5
5
5
5
5
5
5
5
5
5
5
5
5
5
5
5
5
5
5
5
5
5
5
5
5
5
5
5
5
5
5
5
5
5
5
5
5
5
5
5
5
5
5
5
5
5
5
5
5
5
5
5
5
5
5
5
5
5
5
5
5
5
5
5
5
5
5
5
5
5
5
5
5
5
5
5
5
5
5
5
5
5
5
5
5
5
5
5
5
5
5
5
5
5
5
5
5
5
5
5
5
5
5
5
5
5
5
5
5
5
5
5
5
5
5
5
5
5
5
5
5
5
5
5
5
5
5
5
5
5
5
5
5
5
5
5
5
5
5
5
5
5
5
5
5
5
5
5
5
5
5
5
5
5
5
5
5
5
5
5
5
5
5
5
5
5
5
5
5
5
5
5
5
5
5
5
5
5
5
5
5
5
5
5
5
5
5
5
5
5
5
5
5
5
5
5
5
5
5
5
5
5
5
5
5
5
5
5
5
5
5
5
5
5
5
5
5
5
5
5
5
5
5
5
5
5
5
5
5
5
5
5
5
5
5
5
5
5
5
5
5
5
5
5
5
5
5
5
5
5
5
5
5
5
5
5
5
5
5
5
5
5
5
5
5
5
5
5
5
5
5
5
5
5
5
5
5
5
5
5
5
5
5
5
5
5
5
5
5
5
5
5
5
5
5
5
5
5
5
5
5
5
5
5
5
5
5
5
5
5
5
5
5
5
5
5
5
5
5
5
5
5
5
5
5
5
5
5
5
5
5
5
5
5
5
5
5
5
5
5
5
5
5
5
5
5
5
5
5
5
5
5
5
5
5
5
5
5
5
5
5
5
5
5
5
5
5
5
5
5
5
5
5
5
5
5
5
5
5
5
5
5
5
5
5
5
5
5
5
5
5
5
5
5
5
5
5
5
5
5
5
5
5
5
5
5
5
5
5
5
5
5
5
5
5
5
5
5
5
5
5
5
5
5
5
5
5
5
5
5
5
5
5
5
5
5
5
5
5
5
5
5
5
5
5
5
5
5
5
5
5
5
5
5
5
5
5
5
5
5
5
5
5
5
5
5
5
5
5
5
5
5
5
5
5
5
5
5
5
5
5
5
5
5
5
5
5
5
5
5
5
5
5
5
5
5
5
5
5
5
5
5
5
5
5
5
5
5
5
5
5
5
5
5
5
5
5
5
5
5
5
5
5
5
5
5
5
5
5
5
5
5
5
5
5
5
5
5
5
5
5
5
5
5
5
5
5
5
5
5
5
5
5
5
5
5
5
5
5
5
5
5
5
5
5
5
5
5
5
5
5
5
5
5
5
5
5
5
5
5
5
5
5
5
5
5
5
5
5
5
5
5
5
5
5
5
5
5
5
5
5
5
5
5
5
5
5
5
5
5
5
5
5
5
5
5
5
5
5
5
5
5
5
5
5
5
5
5
5
5
5
5
5
5
5
5
5
5
5
5
5
5
5
5
5
5
5
5
5
5
5
5
5

POINT_DATA 1283

VECTORS coord float
0.0 0.0 0.0 
5.000000000000e+01 -1.000000000000e+01 0.0 
0.0 -2.000000000000e+01 0.0 
5.000000000000e+01 -2.000000000000e+01 0.0 
0.0 -9.999999999991e-01 0.0 
0.0 -1.999999999998e+00 0.0 
0.0 -2.999999999997e+00 0.0 
0.0 -3.999999999994e+00 0.0 
0.0 -4.999999999991e+00 0.0 
0.0 -5.999999999988e+00 0.0 
0.0 -6.999999999985e+00 0.0 
0.0 -7.999999999982e+00 0.0 
0.0 -8.999999999983e+00 0.0 
0.0 -9.999999999985e+00 0.0 
0.0 -1.099999999999e+01 0.0 
0.0 -1.199999999999e+01 0.0 
0.0 -1.299999999999e+01 0.0 
0.0 -1.399999999999e+01 0.0 
0.0 -1.499999999999e+01 0.0 
0.0 -1.599999999999e+01 0.0 
0.0 -1.700000000000e+01 0.0 
0.0 -1.800000000000e+01 0.0 
0.0 -1.900000000000e+01 0.0 
4.900000000001e+01 -2.000000000000e+01 0.0 
4.800000000001e+01 -2.000000000000e+01 0.0 
4.700000000002e+01 -2.000000000000e+01 0.0 
4.600000000003e+01 -2.000000000000e+01 0.0 
4.500000000004e+01 -2.000000000000e+01 0.0 
4.400000000004e+01 -2.000000000000e+01 0.0 
4.300000000005e+01 -2.000000000000e+01 0.0 
4.200000000006e+01 -2.000000000000e+01 0.0 
4.100000000006e+01 -2.000000000000e+01 0.0 
4.000000000007e+01 -2.000000000000e+01 0.0 
3.900000000008e+01 -2.000000000000e+01 0.0 
3.800000000009e+01 -2.000000000000e+01 0.0 
3.700000000009e+01 -2.000000000000e+01 0.0 
3.600000000010e+01 -2.000000000000e+01 0.0 
3.500000000011e+01 -2.000000000000e+01 0.0 
3.400000000011e+01 -2.000000000000e+01 0.0 
3.300000000012e+01 -2.000000000000e+01 0.0 
3.200000000013e+01 -2.000000000000e+01 0.0 
3.100000000013e+01 -2.000000000000e+01 0.0 
3.000000000013e+01 -2.000000000000e+01 0.0 
2.900000000013e+01 -2.000000000000e+01 0.0 
2.800000000013e+01 -2.000000000000e+01 0.0 
2.700000000013e+01 -2.000000000000e+01 0.0 
2.600000000013e+01 -2.000000000000e+01 0.0 
2.500000000013e+01 -2.000000000000e+01 0.0 
2.400000000013e+01 -2.000000000000e+01 0.0 
2.300000000013e+01 -2.000000000000e+01 0.0 
2.200000000013e+01 -2.000000000000e+01 0.0 
2.100000000013e+01 -2.000000000000e+01 0.0 
2.000000000013e+01 -2.000000000000e+01 0.0 
1.900000000013e+01 -2.000000000000e+01 0.0 
1.800000000013e+01 -2.000000000000e+01 0.0 
1.700000000012e+01 -2.000000000000e+01 0.0 
1.600000000011e+01 -2.000000000000e+01 0.0 
1.500000000011e+01 -2.000000000000e+01 0.0 
1.400000000010e+01 -2.000000000000e+01 0.0 
1.300000000009e+01 -2.000000000000e+01 0.0 
1.200000000009e+01 -2.000000000000e+01 0.0 
1.100000000008e+01 -2.000000000000e+01 0.0 
1.000000000007e+01 -2.000000000000e+01 0.0 
9.000000000064e+00 -2.000000000000e+01 0.0 
8.000000000057e+00 -2.000000000000e+01 0.0 
7.000000000050e+00 -2.000000000000e+01 0.0 
6.000000000043e+00 -2.000000000000e+01 0.0 
5.000000000036e+00 -2.000000000000e+01 0.0 
4.000000000028e+00 -2.000000000000e+01 0.0 
3.000000000021e+00 -2.000000000000e+01 0.0 
2.000000000014e+00 -2.000000000000e+01 0.0 
1.000000000007e+00 -2.000000000000e+01 0.0 
5.000000000000e+01 -1.100000000000e+01 0.0 
5.000000000000e+01 -1.200000000000e+01 0.0 
5.000000000000e+01 -1.300000000000e+01 0.0 
5.000000000000e+01 -1.400000000000e+01 0.0 
5.000000000000e+01 -1.500000000000e+01 0.0 
5.000000000000e+01 -1.600000000000e+01 0.0 
5.000000000000e+01 -1.700000000000e+01 0.0 
5.000000000000e+01 -1.800000000000e+01 0.0 
5.000000000000e+01 -1.900000000000e+01 0.0 
2.000000000000e+01 0.0 0.0 
5.000000000000e+01 0.0 0.0 
3.500000000000e+01 -1.000000000000e+01 0.0 
2.150000000000e+01 -1.000000000000e+00 0.0 
2.300000000000e+01 -2.000000000000e+00 0.0 
2.450000000000e+01 -3.000000000000e+00 0.0 
2.600000000000e+01 -4.000000000000e+00 0.0 
2.750000000000e+01 -5.000000000000e+00 0.0 
2.900000000000e+01 -6.000000000000e+00 0.0 
3.050000000000e+01 -7.000000000000e+00 0.0 
3.200000000000e+01 -8.000000000000e+00 0.0 
3.350000000000e+01 -9.000000000000e+00 0.0 
5.000000000000e+01 -1.000000000000e+00 0.0 
5.000000000000e+01 -2.000000000000e+00 0.0 
5.000000000000e+01 -3.000000000000e+00 0.0 
5.000000000000e+01 -4.000000000000e+00 0.0 
5.000000000000e+01 -5.000000000000e+00 0.0 
5.000000000000e+01 -6.000000000000e+00 0.0 
5.000000000000e+01 -7.000000000000e+00 0.0 
5.000000000000e+01 -8.000000000000e+00 0.0 
5.000000000000e+01 -9.000000000000e+00 0.0 
4.900000000000e+01 -1.000000000000e+01 0.0 
4.800000000000e+01 -1.000000000000e+01 0.0 
4.700000000000e+01 -1.000000000000e+01 0.0 
4.600000000000e+01 -1.000000000000e+01 0.0 
4.500000000000e+01 -1.000000000000e+01 0.0 
4.400000000000e+01 -1.000000000000e+01 0.0 
4.300000000000e+01 -1.000000000000e+01 0.0 
4.200000000000e+01 -1.000000000000e+01 0.0 
4.100000000000e+01 -1.000000000000e+01 0.0 
4.000000000000e+01 -1.000000000000e+01 0.0 
3.900000000000e+01 -1.000000000000e+01 0.0 
3.800000000000e+01 -1.000000000000e+01 0.0 
3.700000000000e+01 -1.000000000000e+01 0.0 
3.600000000000e+01 -1.000000000000e+01 0.0 
1.900000000000e+01 0.0 0.0 
1.800000000000e+01 0.0 0.0 
1.700000000000e+01 0.0 0.0 
1.600000000000e+01 0.0 0.0 
1.500000000000e+01 0.0 0.0 
1.400000000000e+01 0.0 0.0 
1.300000000000e+01 0.0 0.0 
1.200000000000e+01 0.0 0.0 
1.100000000000e+01 0.0 0.0 
1.000000000000e+01 0.0 0.0 
9.000000000000e+00 0.0 0.0 
8.000000000000e+00 0.0 0.0 
7.000000000000e+00 0.0 0.0 
6.000000000000e+00 0.0 0.0 
5.000000000000e+00 0.0 0.0 
4.000000000000e+00 0.0 0.0 
3.000000000000e+00 0.0 0.0 
2.000000000000e+00 0.0 0.0 
1.000000000000e+00 0.0 0.0 
2.100000000000e+01 0.0 0.0 
2.199999999999e+01 0.0 0.0 
2.299999999999e+01 0.0 0.0 
2.399999999999e+01 0.0 0.0 
2.499999999998e+01 0.0 0.0 
2.599999999998e+01 0.0 0.0 
2.699999999998e+01 0.0 0.0 
2.799999999997e+01 0.0 0.0 
2.899999999996e+01 0.0 0.0 
2.999999999995e+01 0.0 0.0 
3.099999999993e+01 0.0 0.0 
3.199999999992e+01 0.0 0.0 
3.299999999990e+01 0.0 0.0 
3.399999999989e+01 0.0 0.0 
3.499999999987e+01 0.0 0.0 
3.599999999988e+01 0.0 0.0 
3.699999999989e+01 0.0 0.0 
3.799999999990e+01 0.0 0.0 
3.899999999990e+01 0.0 0.0 
3.999999999991e+01 0.0 0.0 
4.099999999992e+01 0.0 0.0 
4.199999999993e+01 0.0 0.0 
4.299999999994e+01 0.0 0.0 
4.399999999995e+01 0.0 0.0 
4.499999999996e+01 0.0 0.0 
4.599999999997e+01 0.0 0.0 
4.699999999997e+01 0.0 0.0 
4.799999999998e+01 0.0 0.0 
4.899999999999e+01 0.0 0.0 
4.901724137931e+01 -1.000000000000e+00 0.0 
4.803448275862e+01 -1.000000000000e+00 0.0 
4.705172413793e+01 -1.000000000000e+00 0.0 
4.606896551724e+01 -1.000000000000e+00 0.0 
4.508620689655e+01 -1.000000000000e+00 0.0 
4.410344827586e+01 -1.000000000000e+00 0.0 
4.312068965517e+01 -1.000000000000e+00 0.0 
4.213793103448e+01 -1.000000000000e+00 0.0 
4.115517241379e+01 -1.000000000000e+00 0.0 
4.017241379310e+01 -1.000000000000e+00 0.0 
3.918965517241e+01 -1.000000000000e+00 0.0 
3.820689655172e+01 -1.000000000000e+00 0.0 
3.722413793103e+01 -1.000000000000e+00 0.0 
3.624137931034e+01 -1.000000000000e+00 0.0 
3.525862068966e+01 -1.000000000000e+00 0.0 
3.427586206897e+01 -1.000000000000e+00 0.0 
3.329310344828e+01 -1.000000000000e+00 0.0 
3.231034482759e+01 -1.000000000000e+00 0.0 
3.132758620690e+01 -1.000000000000e+00 0.0 
3.034482758621e+01 -1.000000000000e+00 0.0 
2.936206896552e+01 -1.000000000000e+00 0.0 
2.837931034483e+01 -1.000000000000e+00 0.0 
2.739655172414e+01 -1.000000000000e+00 0.0 
2.641379310345e+01 -1.000000000000e+00 0.0 
2.543103448276e+01 -1.000000000000e+00 0.0 
2.444827586207e+01 -1.000000000000e+00 0.0 
2.346551724138e+01 -1.000000000000e+00 0.0 
2.248275862069e+01 -1.000000000000e+00 0.0 
2.400000000000e+01 -2.000000000000e+00 0.0 
2.500000000000e+01 -2.000000000000e+00 0.0 
2.600000000000e+01 -2.000000000000e+00 0.0 
2.700000000000e+01 -2.000000000000e+00 0.0 
2.800000000000e+01 -2.000000000000e+00 0.0 
2.900000000000e+01 -2.000000000000e+00 0.0 
3.000000000000e+01 -2.000000000000e+00 0.0 
3.100000000000e+01 -2.000000000000e+00 0.0 
3.200000000000e+01 -2.000000000000e+00 0.0 
3.300000000000e+01 -2.000000000000e+00 0.0 
3.400000000000e+01 -2.000000000000e+00 0.0 
3.500000000000e+01 -2.000000000000e+00 0.0 
3.600000000000e+01 -2.000000000000e+00 0.0 
3.700000000000e+01 -2.000000000000e+00 0.0 
3.800000000000e+01 -2.000000000000e+00 0.0 
3.900000000000e+01 -2.000000000000e+00 0.0 
4.000000000000e+01 -2.000000000000e+00 0.0 
4.100000000000e+01 -2.000000000000e+00 0.0 
4.200000000000e+01 -2.000000000000e+00 0.0 
4.300000000000e+01 -2.000000000000e+00 0.0 
4.400000000000e+01 -2.000000000000e+00 0.0 
4.500000000000e+01 -2.000000000000e+00 0.0 
4.600000000000e+01 -2.000000000000e+00 0.0 
4.700000000000e+01 -2.000000000000e+00 0.0 
4.800000000000e+01 -2.000000000000e+00 0.0 
4.900000000000e+01 -2.000000000000e+00 0.0 
2.548076923077e+01 -3.000000000000e+00 0.0 
2.646153846153e+01 -3.000000000000e+00 0.0 
2.744230769230e+01 -3.000000000000e+00 0.0 
2.842307692306e+01 -3.000000000000e+00 0.0 
2.940384615383e+01 -3.000000000000e+00 0.0 
3.038461538459e+01 -3.000000000000e+00 0.0 
3.136538461536e+01 -3.000000000000e+00 0.0 
3.234615384612e+01 -3.000000000000e+00 0.0 
3.332692307687e+01 -3.000000000000e+00 0.0 
3.430769230762e+01 -3.000000000000e+00 0.0 
3.528846153837e+01 -3.000000000000e+00 0.0 
3.626923076912e+01 -3.000000000000e+00 0.0 
3.724999999988e+01 -3.000000000000e+00 0.0 
3.823076923065e+01 -3.000000000000e+00 0.0 
3.921153846143e+01 -3.000000000000e+00 0.0 
4.019230769221e+01 -3.000000000000e+00 0.0 
4.117307692299e+01 -3.000000000000e+00 0.0 
4.215384615377e+01 -3.000000000000e+00 0.0 
4.313461538455e+01 -3.000000000000e+00 0.0 
4.411538461533e+01 -3.000000000000e+00 0.0 
4.509615384611e+01 -3.000000000000e+00 0.0 
4.607692307688e+01 -3.000000000000e+00 0.0 
4.705769230766e+01 -3.000000000000e+00 0.0 
4.803846153844e+01 -3.000000000000e+00 0.0 
4.901923076922e+01 -3.000000000000e+00 0.0 
4.900000000000e+01 -4.000000000000e+00 0.0 
4.800000000000e+01 -4.000000000000e+00 0.0 
4.700000000000e+01 -4.000000000000e+00 0.0 
4.600000000000e+01 -4.000000000000e+00 0.0 
4.500000000000e+01 -4.000000000000e+00 0.0 
4.400000000000e+01 -4.000000000000e+00 0.0 
4.300000000000e+01 -4.000000000000e+00 0.0 
4.200000000000e+01 -4.000000000000e+00 0.0 
4.100000000000e+01 -4.000000000000e+00 0.0 
4.000000000000e+01 -4.000000000000e+00 0.0 
3.900000000000e+01 -4.000000000000e+00 0.0 
3.800000000000e+01 -4.000000000000e+00 0.0 
3.700000000000e+01 -4.000000000000e+00 0.0 
3.600000000000e+01 -4.000000000000e+00 0.0 
3.500000000000e+01 -4.000000000000e+00 0.0 
3.400000000000e+01 -4.000000000000e+00 0.0 
3.300000000000e+01 -4.000000000000e+00 0.0 
3.200000000000e+01 -4.000000000000e+00 0.0 
3.100000000000e+01 -4.000000000000e+00 0.0 
3.000000000000e+01 -4.000000000000e+00 0.0 
2.900000000000e+01 -4.000000000000e+00 0.0 
2.800000000000e+01 -4.000000000000e+00 0.0 
2.700000000000e+01 -4.000000000000e+00 0.0 
2.847826086957e+01 -5.000000000000e+00 0.0 
2.945652173913e+01 -5.000000000000e+00 0.0 
3.043478260870e+01 -5.000000000000e+00 0.0 
3.141304347826e+01 -5.000000000000e+00 0.0 
3.239130434783e+01 -5.000000000000e+00 0.0 
3.336956521739e+01 -5.000000000000e+00 0.0 
3.434782608696e+01 -5.000000000000e+00 0.0 
3.532608695652e+01 -5.000000000000e+00 0.0 
3.630434782609e+01 -5.000000000000e+00 0.0 
3.728260869565e+01 -5.000000000000e+00 0.0 
3.826086956522e+01 -5.000000000000e+00 0.0 
3.923913043478e+01 -5.000000000000e+00 0.0 
4.021739130435e+01 -5.000000000000e+00 0.0 
4.119565217391e+01 -5.000000000000e+00 0.0 
4.217391304348e+01 -5.000000000000e+00 0.0 
4.315217391304e+01 -5.000000000000e+00 0.0 
4.413043478261e+01 -5.000000000000e+00 0.0 
4.510869565217e+01 -5.000000000000e+00 0.0 
4.608695652174e+01 -5.000000000000e+00 0.0 
4.706521739130e+01 -5.000000000000e+00 0.0 
4.804347826087e+01 -5.000000000000e+00 0.0 
4.902173913043e+01 -5.000000000000e+00 0.0 
4.900000000001e+01 -6.000000000000e+00 0.0 
4.800000000003e+01 -6.000000000000e+00 0.0 
4.700000000004e+01 -6.000000000000e+00 0.0 
4.600000000006e+01 -6.000000000000e+00 0.0 
4.500000000007e+01 -6.000000000000e+00 0.0 
4.400000000009e+01 -6.000000000000e+00 0.0 
4.300000000010e+01 -6.000000000000e+00 0.0 
4.200000000012e+01 -6.000000000000e+00 0.0 
4.100000000013e+01 -6.000000000000e+00 0.0 
4.000000000014e+01 -6.000000000000e+00 0.0 
3.900000000014e+01 -6.000000000000e+00 0.0 
3.800000000012e+01 -6.000000000000e+00 0.0 
3.700000000010e+01 -6.000000000000e+00 0.0 
3.600000000008e+01 -6.000000000000e+00 0.0 
3.500000000006e+01 -6.000000000000e+00 0.0 
3.400000000005e+01 -6.000000000000e+00 0.0 
3.300000000003e+01 -6.000000000000e+00 0.0 
3.200000000001e+01 -6.000000000000e+00 0.0 
3.100000000000e+01 -6.000000000000e+00 0.0 
3.000000000000e+01 -6.000000000000e+00 0.0 
3.147499999998e+01 -7.000000000000e+00 0.0 
3.244999999998e+01 -7.000000000000e+00 0.0 
3.342499999998e+01 -7.000000000000e+00 0.0 
3.439999999998e+01 -7.000000000000e+00 0.0 
3.537499999998e+01 -7.000000000000e+00 0.0 
3.634999999998e+01 -7.000000000000e+00 0.0 
3.732499999998e+01 -7.000000000000e+00 0.0 
3.829999999998e+01 -7.000000000000e+00 0.0 
3.927499999999e+01 -7.000000000000e+00 0.0 
4.024999999999e+01 -7.000000000000e+00 0.0 
4.122499999999e+01 -7.000000000000e+00 0.0 
4.219999999999e+01 -7.000000000000e+00 0.0 
4.317499999999e+01 -7.000000000000e+00 0.0 
4.414999999999e+01 -7.000000000000e+00 0.0 
4.512499999999e+01 -7.000000000000e+00 0.0 
4.609999999999e+01 -7.000000000000e+00 0.0 
4.707500000000e+01 -7.000000000000e+00 0.0 
4.805000000000e+01 -7.000000000000e+00 0.0 
4.902500000000e+01 -7.000000000000e+00 0.0 
4.900000000000e+01 -8.000000000000e+00 0.0 
4.800000000000e+01 -8.000000000000e+00 0.0 
4.700000000000e+01 -8.000000000000e+00 0.0 
4.600000000000e+01 -8.000000000000e+00 0.0 
4.500000000000e+01 -8.000000000000e+00 0.0 
4.400000000000e+01 -8.000000000000e+00 0.0 
4.300000000000e+01 -8.000000000000e+00 0.0 
4.200000000000e+01 -8.000000000000e+00 0.0 
4.100000000000e+01 -8.000000000000e+00 0.0 
4.000000000000e+01 -8.000000000000e+00 0.0 
3.900000000000e+01 -8.000000000000e+00 0.0 
3.800000000000e+01 -8.000000000000e+00 0.0 
3.700000000000e+01 -8.000000000000e+00 0.0 
3.600000000000e+01 -8.000000000000e+00 0.0 
3.500000000000e+01 -8.000000000000e+00 0.0 
3.400000000000e+01 -8.000000000000e+00 0.0 
3.300000000000e+01 -8.000000000000e+00 0.0 
3.447058823527e+01 -9.000000000000e+00 0.0 
3.544117647055e+01 -9.000000000000e+00 0.0 
3.641176470582e+01 -9.000000000000e+00 0.0 
3.738235294109e+01 -9.000000000000e+00 0.0 
3.835294117637e+01 -9.000000000000e+00 0.0 
3.932352941164e+01 -9.000000000000e+00 0.0 
4.029411764691e+01 -9.000000000000e+00 0.0 
4.126470588219e+01 -9.000000000000e+00 0.0 
4.223529411748e+01 -9.000000000000e+00 0.0 
4.320588235279e+01 -9.000000000000e+00 0.0 
4.417647058811e+01 -9.000000000000e+00 0.0 
4.514705882342e+01 -9.000000000000e+00 0.0 
4.611764705874e+01 -9.000000000000e+00 0.0 
4.708823529405e+01 -9.000000000000e+00 0.0 
4.805882352937e+01 -9.000000000000e+00 0.0 
4.902941176468e+01 -9.000000000000e+00 0.0 
2.075000000000e+01 -5.000000000006e-01 0.0 
2.225000000000e+01 -1.500000000000e+00 0.0 
2.375000000000e+01 -2.500000000000e+00 0.0 
2.525000000000e+01 -3.500000000000e+00 0.0 
2.675000000000e+01 -4.500000000000e+00 0.0 
2.825000000000e+01 -5.500000000000e+00 0.0 
2.975000000000e+01 -6.500000000000e+00 0.0 
3.125000000000e+01 -7.500000000000e+00 0.0 
3.275000000000e+01 -8.500000000000e+00 0.0 
3.425000000000e+01 -9.500000000000e+00 0.0 
2.226951693683e+01 -2.403913980114e+00 0.0 
1.650149491944e+01 -1.913490915758e+01 0.0 
1.050042386896e+01 -8.504605092970e-01 0.0 
1.553146524712e+01 -8.281255032105e-01 0.0 
1.150000000008e+01 -1.913397459621e+01 0.0 
2.530060260647e+01 -4.428336431260e+00 0.0 
8.651114563942e-01 -1.052096295641e+01 0.0 
2.050000000013e+01 -1.913397459622e+01 0.0 
2.819198729811e+01 -6.399519052838e+00 0.0 
2.445670302931e+01 -1.915649188023e+01 0.0 
3.117591465718e+01 -8.394293040695e+00 0.0 
7.465053044742e+00 -1.920411160581e+01 0.0 
6.398295709691e+00 -8.230098819370e-01 0.0 
2.849659607461e+01 -1.914296187762e+01 0.0 
3.418732642882e+01 -1.040265792588e+01 0.0 
8.386450935063e-01 -6.533605142809e+00 0.0 
9.178661865596e-01 -1.329769195597e+01 0.0 
3.149448624493e+01 -1.910466733764e+01 0.0 
3.552916747426e+01 -1.914628590759e+01 0.0 
4.449210346537e+01 -1.914359085008e+01 0.0 
4.140975975145e+01 -1.906941860733e+01 0.0 
3.847475958753e+01 -1.916622382724e+01 0.0 
3.653774794640e+01 -1.088712800241e+01 0.0 
4.047886341787e+01 -1.090139014048e+01 0.0 
4.348006339825e+01 -1.092792621489e+01 0.0 
4.919519968029e+01 -1.451526755068e+01 0.0 
4.500000000032e+00 -1.913397459621e+01 0.0 
1.856136921614e+01 -8.212235170404e-01 0.0 
3.499895312306e+00 -8.661165539723e-01 0.0 
9.076088696565e-01 -1.642306201891e+01 0.0 
4.655174095477e+01 -1.086183387525e+01 0.0 
9.430688970604e-01 -3.496112672958e+00 0.0 
3.353992337063e+01 -1.901202090820e+01 0.0 
2.249746016977e+01 -1.921262287282e+01 0.0 
2.650122741777e+01 -1.916123026018e+01 0.0 
1.863571384842e+01 -1.908325534840e+01 0.0 
1.450089971693e+01 -1.917691901860e+01 0.0 
1.350044695317e+01 -8.659695299584e-01 0.0 
3.849987469880e+01 -1.084154983397e+01 0.0 
9.454419857884e+00 -1.900818879936e+01 0.0 
4.917398660523e+01 -1.645692866081e+01 0.0 
8.500000000000e+00 -8.660254037844e-01 0.0 
8.660319230785e-01 -8.500111697188e+00 0.0 
4.649022621545e+01 -1.930506220113e+01 0.0 
2.667688107845e+01 -5.420288124331e+00 0.0 
2.379251615665e+01 -3.412225477429e+00 0.0 
2.966631491830e+01 -7.389030232731e+00 0.0 
3.267915035995e+01 -9.396934932445e+00 0.0 
2.074836922338e+01 -1.320054020319e+00 0.0 
4.915985743621e+01 -1.261973384855e+01 0.0 
2.527129768623e+00 -1.931592414663e+01 0.0 
1.538676247410e+00 -8.436956619311e-01 0.0 
4.908096641539e+01 -1.842484004551e+01 0.0 
3.478612492673e+01 -1.090889364140e+01 0.0 
3.409757055860e+01 -1.131991530427e+01 0.0 
3.501895309466e+01 -1.177687842717e+01 0.0 
3.407758073088e+01 -1.224293381580e+01 0.0 
3.484541875390e+01 -1.277051428430e+01 0.0 
3.400322025842e+01 -1.319022775640e+01 0.0 
3.321672625034e+01 -1.266779191233e+01 0.0 
3.315244139236e+01 -1.360984106532e+01 0.0 
3.236335186892e+01 -1.308463225210e+01 0.0 
3.478337442841e+01 -1.372341158982e+01 0.0 
3.230105923633e+01 -1.403023731610e+01 0.0 
3.150954055289e+01 -1.350301767700e+01 0.0 
3.144604792090e+01 -1.444931742516e+01 0.0 
3.065653897123e+01 -1.392357262981e+01 0.0 
3.071897610812e+01 -1.297447031198e+01 0.0 
2.986790411740e+01 -1.339226181535e+01 0.0 
2.993181466745e+01 -1.244703272398e+01 0.0 
2.908023061869e+01 -1.286254537734e+01 0.0 
2.901619051372e+01 -1.380881655279e+01 0.0 
2.822986160390e+01 -1.327695262116e+01 0.0 
2.829453476870e+01 -1.233265343811e+01 0.0 
2.744542905518e+01 -1.274510491105e+01 0.0 
2.751120089246e+01 -1.180368086886e+01 0.0 
2.666218649885e+01 -1.221619339205e+01 0.0 
2.672371209234e+01 -1.127125228527e+01 0.0 
2.587763216302e+01 -1.168539979114e+01 0.0 
2.581165585299e+01 -1.262994410089e+01 0.0 
2.502890882577e+01 -1.209827323619e+01 0.0 
2.509631327757e+01 -1.115492410304e+01 0.0 
2.424662989877e+01 -1.156630981079e+01 0.0 
2.431704046904e+01 -1.062389179334e+01 0.0 
2.346445438728e+01 -1.103427680694e+01 0.0 
2.339382552877e+01 -1.197964871788e+01 0.0 
2.260936050780e+01 -1.144513277642e+01 0.0 
2.268075012022e+01 -1.049911928216e+01 0.0 
2.182525737661e+01 -1.090920811464e+01 0.0 
2.189682319817e+01 -9.961716944568e+00 0.0 
2.104174127792e+01 -1.037266986667e+01 0.0 
2.111304367575e+01 -9.424179358711e+00 0.0 
2.025306185381e+01 -9.832727364719e+00 0.0 
2.018141124247e+01 -1.079140628871e+01 0.0 
1.938594498257e+01 -1.025147354112e+01 0.0 
1.946106490453e+01 -9.288010758448e+00 0.0 
1.858929958352e+01 -9.706319802516e+00 0.0 
1.851540991219e+01 -1.067205988724e+01 0.0 
1.771485303178e+01 -1.012504443115e+01 0.0 
1.764134552256e+01 -1.109360378538e+01 0.0 
1.683745148095e+01 -1.054496365337e+01 0.0 
1.691852964353e+01 -9.582555261178e+00 0.0 
1.603603813062e+01 -1.000160132379e+01 0.0 
1.595824239350e+01 -1.096750698862e+01 0.0 
1.515080624291e+01 -1.041639501931e+01 0.0 
1.523171602559e+01 -9.451711491453e+00 0.0 
1.434621060709e+01 -9.871956467464e+00 0.0 
1.426777178765e+01 -1.083749501371e+01 0.0 
1.345775282374e+01 -1.028803175500e+01 0.0 
1.354103873368e+01 -9.324918457162e+00 0.0 
1.265072018622e+01 -9.742612837270e+00 0.0 
1.257285762070e+01 -1.071557782384e+01 0.0 
1.175874815690e+01 -1.015972324288e+01 0.0 
1.184203019714e+01 -9.193604071377e+00 0.0 
1.094927709905e+01 -9.612103238656e+00 0.0 
1.086938022910e+01 -1.058685085646e+01 0.0 
1.005424098961e+01 -1.002939116380e+01 0.0 
9.977974613295e+00 -1.101324897989e+01 0.0 
1.012915646404e+01 -9.051815821181e+00 0.0 
9.237127782494e+00 -9.471239055559e+00 0.0 
9.308426593771e+00 -8.483376461131e+00 0.0 
8.418806073345e+00 -8.910712374517e+00 0.0 
2.253688464062e+01 -1.239459402279e+01 0.0 
8.495126726666e+00 -7.921646665254e+00 0.0 
9.389727383206e+00 -7.512103628377e+00 0.0 
7.601560812974e+00 -8.349460349344e+00 0.0 
7.525680547759e+00 -9.339736686940e+00 0.0 
7.677888324502e+00 -7.359727833346e+00 0.0 
6.782001206724e+00 -7.788454494773e+00 0.0 
6.858778622885e+00 -6.797338062822e+00 0.0 
2.196596590865e+01 -8.979025665442e+00 0.0 
2.816540108272e+01 -1.422634142353e+01 0.0 
5.961601194403e+00 -7.226824010712e+00 0.0 
6.038171749656e+00 -6.234825887079e+00 0.0 
6.936257279557e+00 -5.805287640737e+00 0.0 
6.115068918323e+00 -5.242109758768e+00 0.0 
3.564391741903e+01 -1.329240553876e+01 0.0 
3.558115605778e+01 -1.425902892003e+01 0.0 
3.645445282201e+01 -1.381970786460e+01 0.0 
3.639744204358e+01 -1.479198128612e+01 0.0 
3.727266909778e+01 -1.435399586226e+01 0.0 
5.216667013081e+00 -5.671788584287e+00 0.0 
3.220697293295e+01 -1.499594545107e+01 0.0 
3.551112158269e+01 -1.523479869250e+01 0.0 
2.836056961467e+01 -1.139032434851e+01 0.0 
2.516730388602e+01 -1.021382726837e+01 0.0 
1.844436907403e+01 -1.164097215196e+01 0.0 
5.885434318740e+00 -8.218694781467e+00 0.0 
5.064071066867e+00 -7.656614643901e+00 0.0 
4.988089103470e+00 -8.649722082718e+00 0.0 
1.079421050408e+01 -1.157014985435e+01 0.0 
9.902420005256e+00 -1.199903342656e+01 0.0 
1.071994252214e+01 -1.255727909771e+01 0.0 
9.826974788171e+00 -1.298659581767e+01 0.0 
1.064607883789e+01 -1.354595476388e+01 0.0 
9.751541265343e+00 -1.397556905071e+01 0.0 
8.932296185869e+00 -1.341553353988e+01 0.0 
8.856399248106e+00 -1.440570715508e+01 0.0 
8.036186803543e+00 -1.384470558472e+01 0.0 
1.057112875118e+01 -1.453516759081e+01 0.0 
1.146582585687e+01 -1.410539926903e+01 0.0 
7.959894480382e+00 -1.483563350928e+01 0.0 
7.138792279156e+00 -1.427465094140e+01 0.0 
7.062506792418e+00 -1.526615385482e+01 0.0 
6.240693558277e+00 -1.470508863040e+01 0.0 
6.316957575451e+00 -1.371212581281e+01 0.0 
5.418183007107e+00 -1.414253605022e+01 0.0 
5.494748364428e+00 -1.314886770603e+01 0.0 
1.756825565873e+01 -1.206433872514e+01 0.0 
1.837565773345e+01 -1.261356468266e+01 0.0 
1.749574831391e+01 -1.303769280014e+01 0.0 
1.830539187332e+01 -1.358828364284e+01 0.0 
1.742278925170e+01 -1.401367746928e+01 0.0 
1.823303007798e+01 -1.456432294258e+01 0.0 
1.734941694138e+01 -1.499213734361e+01 0.0 
1.653760041637e+01 -1.443920312098e+01 0.0 
3.056237977307e+01 -1.487132260174e+01 0.0 
1.866469084762e+01 -8.742953000418e+00 0.0 
1.953669694916e+01 -8.326038909849e+00 0.0 
1.874194303780e+01 -7.780688158966e+00 0.0 
1.961032016741e+01 -7.366854697285e+00 0.0 
1.881715755159e+01 -6.821102209649e+00 0.0 
1.968369797150e+01 -6.407747217358e+00 0.0 
1.889237123259e+01 -5.858375520026e+00 0.0 
1.802038875366e+01 -6.276202618170e+00 0.0 
1.809793837984e+01 -5.307629520489e+00 0.0 
1.721985207997e+01 -5.728242054488e+00 0.0 
1.729850893523e+01 -4.756990819347e+00 0.0 
1.641745664240e+01 -5.174636548624e+00 0.0 
2.495978509456e+01 -1.304406404294e+01 0.0 
1.911567814831e+01 -1.413854250293e+01 0.0 
1.904387332608e+01 -1.511463127723e+01 0.0 
1.992115934240e+01 -1.468788025898e+01 0.0 
7.013706899628e+00 -4.812582868662e+00 0.0 
5.342091874585e+00 -1.513658157269e+01 0.0 
1.139098043784e+01 -1.509488509480e+01 0.0 
1.228151810610e+01 -1.465617481983e+01 0.0 
1.646373110164e+01 -1.541993323337e+01 0.0 
5.293328636712e+00 -4.678385108584e+00 0.0 
1.975965862987e+01 -5.448124345648e+00 0.0 
2.054318374236e+01 -5.992561293251e+00 0.0 
3.721453439063e+01 -1.533216152738e+01 0.0 
3.809302733893e+01 -1.489235527381e+01 0.0 
1.220852788900e+01 -1.565304565230e+01 0.0 
4.394120899730e+00 -5.108397613210e+00 0.0 
8.779354620288e+00 -1.539524721159e+01 0.0 
1.817791047702e+01 -4.338570146253e+00 0.0 
4.518860013839e+00 -1.457343189307e+01 0.0 
4.442712140414e+00 -1.556841391069e+01 0.0 
8.115343466391e+00 -1.285760324283e+01 0.0 
1.985334703171e+01 -1.566478400426e+01 0.0 
2.071953850276e+01 -1.522074243119e+01 0.0 
1.634012953883e+01 -6.154777738301e+00 0.0 
1.553479994708e+01 -5.593730508879e+00 0.0 
1.561265946942e+01 -4.617761762647e+00 0.0 
1.470674212978e+01 -5.064576488228e+00 0.0 
1.464498299883e+01 -6.026514471420e+00 0.0 
1.383271561817e+01 -5.467796261169e+00 0.0 
1.389241253067e+01 -4.504338666645e+00 0.0 
1.301868735463e+01 -4.907185188626e+00 0.0 
1.294514184846e+01 -5.888160903592e+00 0.0 
1.212955968622e+01 -5.328262335277e+00 0.0 
1.220721122383e+01 -4.341264976687e+00 0.0 
1.131324345897e+01 -4.766773516508e+00 0.0 
5.266597955397e+00 -1.613148974258e+01 0.0 
1.737805990867e+01 -3.786677807525e+00 0.0 
3.078438094513e+01 -1.203225297748e+01 0.0 
1.131569882285e+01 -1.608511932110e+01 0.0 
1.728478341782e+01 -1.596017432313e+01 0.0 
3.803465906019e+01 -1.587509751228e+01 0.0 
3.891681276677e+01 -1.543395196905e+01 0.0 
3.897340985302e+01 -1.444710288980e+01 0.0 
3.980095968193e+01 -1.499059496613e+01 0.0 
3.974334598189e+01 -1.597921884150e+01 0.0 
4.062964983717e+01 -1.553518690417e+01 0.0 
4.068729602479e+01 -1.454434445295e+01 0.0 
4.151772679790e+01 -1.508974196007e+01 0.0 
4.157505195739e+01 -1.409694289912e+01 0.0 
4.240699932656e+01 -1.464347955968e+01 0.0 
4.234898051011e+01 -1.563721375790e+01 0.0 
4.323934606035e+01 -1.519082036405e+01 0.0 
4.329740528208e+01 -1.419587509788e+01 0.0 
4.413056841369e+01 -1.474359631875e+01 0.0 
4.418850110108e+01 -1.374786684042e+01 0.0 
4.502219770667e+01 -1.429605103525e+01 0.0 
4.496411937907e+01 -1.529215882720e+01 0.0 
4.490027319897e+00 -4.154167794594e+00 0.0 
1.565080385988e+01 -1.486411982419e+01 0.0 
1.557610691279e+01 -1.584855627870e+01 0.0 
4.195350646612e+00 -8.089117689096e+00 0.0 
4.124027797830e+00 -9.082831955007e+00 0.0 
4.917944318925e+00 -9.643530901533e+00 0.0 
4.020105689502e+00 -1.007439673661e+01 0.0 
4.587185899277e+01 -1.484039992728e+01 0.0 
4.580078661551e+01 -1.584043391042e+01 0.0 
2.061956522375e+01 -5.046701343981e+00 0.0 
2.139572955529e+01 -5.579553449826e+00 0.0 
3.715344357292e+01 -1.631485124583e+01 0.0 
3.618886196443e+00 -1.500471207167e+01 0.0 
3.695606940204e+00 -1.400939692294e+01 0.0 
2.438890661143e+01 -9.686110599723e+00 0.0 
2.523267572778e+01 -9.276766000622e+00 0.0 
2.446094171539e+01 -8.751904591412e+00 0.0 
2.529089822738e+01 -8.321495612547e+00 0.0 
2.606882688827e+01 -8.864724051119e+00 0.0 
2.452116646430e+01 -7.792756462004e+00 0.0 
1.235543269617e+01 -1.365845617339e+01 0.0 
4.318116874181e+01 -1.618567469992e+01 0.0 
7.835066111909e+00 -5.376366223896e+00 0.0 
7.905687335704e+00 -4.382539065697e+00 0.0 
3.542640009567e+00 -1.600035116542e+01 0.0 
1.572431503071e+01 -1.388358386695e+01 0.0 
2.574684696680e+01 -1.357896141127e+01 0.0 
2.488842657651e+01 -1.399674354505e+01 0.0 
2.568301775611e+01 -1.453552048595e+01 0.0 
2.481535572009e+01 -1.495542756508e+01 0.0 
2.561729699688e+01 -1.549784648532e+01 0.0 
2.474623061296e+01 -1.592058894178e+01 0.0 
2.394234041695e+01 -1.537572575827e+01 0.0 
2.065825452567e+01 -1.621899055217e+01 0.0 
2.387180528935e+01 -1.634552264687e+01 0.0 
4.585364400844e+01 -1.383912334080e+01 0.0 
1.998744432052e+01 -1.370317155541e+01 0.0 
1.205356951443e+01 -6.313580285498e+00 0.0 
5.396543905849e+00 -3.731818611283e+00 0.0 
1.139652573295e+01 -3.745819399350e+00 0.0 
3.574124306703e+00 -4.551456826011e+00 0.0 
3.494140761930e+00 -5.539787055649e+00 0.0 
1.213651452413e+01 -1.664505033022e+01 0.0 
2.555045568519e+01 -1.646529356744e+01 0.0 
2.641671114986e+01 -1.603899382371e+01 0.0 
2.612920721894e+01 -7.906435260873e+00 0.0 
2.690339829698e+01 -8.456969591431e+00 0.0 
1.978024383368e+01 -1.664410216353e+01 0.0 
3.732829979082e+01 -1.336926601859e+01 0.0 
4.074336584605e+01 -1.355133328401e+01 0.0 
4.163204691081e+01 -1.310280943992e+01 0.0 
3.773826114429e+00 -3.493444309145e+00 0.0 
1.228783001032e+01 -3.374822835872e+00 0.0 
4.057110462520e+01 -1.652588478000e+01 0.0 
2.132535497898e+01 -6.523623360525e+00 0.0 
2.216932532211e+01 -6.110044769206e+00 0.0 
1.825781152128e+01 -3.370146817147e+00 0.0 
1.745679445888e+01 -2.812942552063e+00 0.0 
4.666517057280e+01 -1.539981381543e+01 0.0 
4.660575894464e+01 -1.639014410186e+01 0.0 
4.838230979954e+00 -1.063643436446e+01 0.0 
3.938942630206e+00 -1.106778981745e+01 0.0 
1.302967218620e+01 -1.621373452436e+01 0.0 
1.049548003190e+01 -4.204825123240e+00 0.0 
4.573571907195e+01 -1.683820511148e+01 0.0 
1.483686335807e+01 -1.430849689310e+01 0.0 
1.490982658890e+01 -1.332679386284e+01 0.0 
3.190805600162e+00 -9.510968358545e+00 0.0 
2.146625721848e+01 -4.642437303115e+00 0.0 
2.069866208266e+01 -4.111852942193e+00 0.0 
1.286859345584e+01 -6.873252723348e+00 0.0 
1.041794493184e+01 -5.194814260291e+00 0.0 
2.671081808965e+00 -4.976806516331e+00 0.0 
1.295786792925e+01 -1.720506531799e+01 0.0 
3.968438206511e+01 -1.696869067241e+01 0.0 
2.308550456051e+01 -1.579963151273e+01 0.0 
2.315593682844e+01 -1.482967445235e+01 0.0 
2.299471449450e+01 -1.677069968132e+01 0.0 
1.057344714696e+01 -3.214252277840e+00 0.0 
1.124057603753e+01 -1.707713739755e+01 0.0 
2.718402535754e+00 -1.543629882103e+01 0.0 
2.638549692805e+01 -1.696744916809e+01 0.0 
2.723416349007e+01 -1.658104204545e+01 0.0 
2.210193351704e+01 -7.046769643417e+00 0.0 
2.295180925161e+01 -6.657397605239e+00 0.0 
2.301355235833e+01 -5.709111896800e+00 0.0 
2.379052718281e+01 -6.254965406962e+00 0.0 
3.243528601237e+01 -1.214181853533e+01 0.0 
2.287977995457e+01 -7.583722368300e+00 0.0 
2.999876029544e+01 -1.150837653096e+01 0.0 
3.084435366963e+01 -1.109693775882e+01 0.0 
3.006650579669e+01 -1.057778994262e+01 0.0 
2.683802665066e+01 -9.386863216633e+00 0.0 
2.768641973621e+01 -8.988883915666e+00 0.0 
2.040296980397e+01 -7.903629133404e+00 0.0 
1.925235024054e+01 -1.218872783130e+01 0.0 
5.735667000424e+00 -1.020577277283e+01 0.0 
6.396559909872e+00 -1.272326295703e+01 0.0 
1.161199420714e+01 -1.212812778229e+01 0.0 
4.229046132615e+01 -1.663084237572e+01 0.0 
4.312275399692e+01 -1.718087491556e+01 0.0 
4.335502068163e+01 -1.320039231514e+01 0.0 
4.424630298089e+01 -1.275160688731e+01 0.0 
7.090116643816e+00 -3.818998061530e+00 0.0 
7.989472176569e+00 -3.389238711200e+00 0.0 
9.085824861778e+00 -1.144036167408e+01 0.0 
1.041972423731e+01 -1.651614080893e+01 0.0 
3.797525112640e+01 -1.686052038746e+01 0.0 
3.709114253394e+01 -1.730125999865e+01 0.0 
3.626966748340e+01 -1.675477052919e+01 0.0 
1.385164591440e+01 -1.677597757552e+01 0.0 
1.787152588784e+01 -8.198993896093e+00 0.0 
1.668849729812e+01 -1.248560611628e+01 0.0 
1.659546177905e+01 -3.232482605530e+00 0.0 
2.332214717345e+01 -1.292598167641e+01 0.0 
7.168238450786e+00 -2.824711686516e+00 0.0 
2.894878403906e+01 -1.475427524446e+01 0.0 
2.646763248247e+00 -1.643270107952e+01 0.0 
3.467431944285e+00 -1.699648837348e+01 0.0 
2.059475877282e+01 -1.719473628526e+01 0.0 
3.333868355437e+01 -1.080596971682e+01 0.0 
2.246451062637e+01 -1.334557761546e+01 0.0 
2.167821896388e+01 -1.280847834858e+01 0.0 
3.089653185767e+01 -1.017198487212e+01 0.0 
3.012604365669e+01 -9.657298805968e+00 0.0 
2.929627299435e+01 -1.006100135274e+01 0.0 
2.936201435219e+01 -9.136748899251e+00 0.0 
1.198219052702e+01 -7.291887238230e+00 0.0 
1.116702076035e+01 -6.731976101053e+00 0.0 
2.551388807505e+01 -1.746927036981e+01 0.0 
2.378639090370e+01 -1.728678807149e+01 0.0 
2.718543627188e+01 -1.748668016909e+01 0.0 
2.804681050301e+01 -1.712626668293e+01 0.0 
1.970737034667e+01 -1.762317646822e+01 0.0 
1.889535776135e+01 -1.707158098231e+01 0.0 
2.593777711283e+00 -5.971157087874e+00 0.0 
2.773468281110e+01 -8.067164273938e+00 0.0 
4.051205884347e+01 -1.751819982458e+01 0.0 
3.166903145421e+01 -1.068032992414e+01 0.0 
1.033042452886e+01 -1.748285844336e+01 0.0 
9.519274604626e+00 -1.694349240233e+01 0.0 
1.668308673328e+01 -2.255861778986e+00 0.0 
1.570531902832e+01 -2.676795860126e+00 0.0 
4.655826903379e+01 -1.736656245706e+01 0.0 
2.384148070773e+01 -5.328744256413e+00 0.0 
2.460255123641e+01 -5.852182672816e+00 0.0 
2.306638135119e+01 -4.798935440613e+00 0.0 
8.467720450578e-01 -1.849576263072e+01 0.0 
4.849657322345e+01 -1.084860705506e+01 0.0 
2.565860899507e+00 -1.742859793981e+01 0.0 
2.764418872564e+01 -9.927142821799e+00 0.0 
4.565165880064e+01 -1.785336695404e+01 0.0 
2.162231831329e+01 -1.376528337468e+01 0.0 
2.360646352969e+01 -9.136041963102e+00 0.0 
1.392738739903e+01 -1.578285505772e+01 0.0 
4.756405947478e+01 -1.683706841809e+01 0.0 
4.740895034054e+01 -1.793766756892e+01 0.0 
4.080779328826e+01 -1.257387192544e+01 0.0 
4.168907939671e+01 -1.210739129181e+01 0.0 
3.991197722154e+01 -1.300815793917e+01 0.0 
1.905536506762e+01 -3.940076697685e+00 0.0 
1.923879596617e+01 -2.875000734166e+00 0.0 
4.401386745746e+01 -1.673483229438e+01 0.0 
4.247233362525e+00 -7.094581653070e+00 0.0 
3.286051630211e+00 -7.635300020553e+00 0.0 
9.609533347623e+00 -4.594311677967e+00 0.0 
9.523554636369e+00 -5.595597029530e+00 0.0 
5.660336628893e+00 -1.119290329628e+01 0.0 
6.558070063295e+00 -1.076385809362e+01 0.0 
2.809866407414e+01 -1.518037766799e+01 0.0 
2.888868674504e+01 -1.570360690070e+01 0.0 
2.654431550819e+01 -1.411217777162e+01 0.0 
1.402158265969e+01 -1.375404617952e+01 0.0 
1.409592494026e+01 -1.277071998942e+01 0.0 
1.499355196178e+01 -1.235270737023e+01 0.0 
4.221535326155e+01 -1.759335617494e+01 0.0 
4.305583287033e+01 -1.822663146802e+01 0.0 
1.280748808359e+01 -7.834332838285e+00 0.0 
1.368988389326e+01 -7.420529606172e+00 0.0 
1.110091796060e+01 -7.683966794328e+00 0.0 
3.963446145980e+01 -1.794331310122e+01 0.0 
3.423932362213e+00 -1.796415590455e+01 0.0 
4.280814572302e+00 -1.752272834860e+01 0.0 
8.050136380041e+00 -2.421582378631e+00 0.0 
8.888674091650e+00 -2.984264211327e+00 0.0 
2.152839430898e+01 -3.732609965436e+00 0.0 
2.077799585292e+01 -3.183896021866e+00 0.0 
3.618719395821e+01 -1.770276572576e+01 0.0 
3.538165138340e+01 -1.718709995539e+01 0.0 
3.702925326420e+01 -1.828844288807e+01 0.0 
1.756739438711e+00 -5.353284859169e+00 0.0 
2.233710191104e+01 -1.527265621324e+01 0.0 
1.389483555057e+01 -1.771797164730e+01 0.0 
1.475634224300e+01 -1.728357428390e+01 0.0 
1.298797563052e+01 -1.825968924755e+01 0.0 
2.145331271866e+01 -1.673705379077e+01 0.0 
2.133282821169e+01 -1.769400773673e+01 0.0 
2.292139194136e+01 -1.774915400288e+01 0.0 
1.750750053243e+01 -1.861475593469e+00 0.0 
4.830478841772e+01 -1.752611802221e+01 0.0 
4.341203507805e+01 -1.220326745522e+01 0.0 
1.685254151866e+01 -1.443085301632e+00 0.0 
4.431538535165e+01 -1.171841387375e+01 0.0 
4.511308610496e+01 -1.229557320599e+01 0.0 
4.510133242889e+01 -1.123680627466e+01 0.0 
1.846818030617e+00 -4.410877617069e+00 0.0 
3.995468694584e+01 -1.186571542989e+01 0.0 
3.901387459804e+01 -1.242507616755e+01 0.0 
8.966735877533e+00 -1.837818700423e+00 0.0 
4.049310011091e+01 -1.848269508791e+01 0.0 
7.278862053803e+00 -1.918523922691e+00 0.0 
6.429715522129e+00 -2.316676521184e+00 0.0 
9.443505505022e+00 -1.792198868094e+01 0.0 
8.620386951051e+00 -1.737590365556e+01 0.0 
8.571868171503e+00 -1.834436667826e+01 0.0 
7.758629848526e+00 -1.775677907213e+01 0.0 
7.806648388584e+00 -1.680761266021e+01 0.0 
6.908555145436e+00 -1.723746463044e+01 0.0 
4.251709122090e+01 -1.156937480156e+01 0.0 
6.931136405615e+00 -1.832465719263e+01 0.0 
6.015545461353e+00 -1.768865355295e+01 0.0 
5.960535926343e+00 -1.872011001764e+01 0.0 
3.023253444786e+01 -8.761960642196e+00 0.0 
2.454622702599e+01 -6.749421992767e+00 0.0 
2.537499741604e+01 -6.347634963783e+00 0.0 
2.544077378460e+01 -5.431358513649e+00 0.0 
2.801367161747e+01 -1.820907270221e+01 0.0 
2.884507806914e+01 -1.762032095326e+01 0.0 
1.821474531936e+00 -1.588901260460e+01 0.0 
1.821006262604e+00 -1.489370287756e+01 0.0 
4.599962488908e+01 -1.176478780598e+01 0.0 
4.705457470007e+01 -1.172182804229e+01 0.0 
4.667668314802e+01 -1.263464558483e+01 0.0 
4.759648056504e+01 -1.252380987933e+01 0.0 
4.728041618103e+01 -1.341928568376e+01 0.0 
4.825209352360e+01 -1.330491640804e+01 0.0 
4.778118233428e+01 -1.420151961695e+01 0.0 
2.388192727579e+01 -1.826934810142e+01 0.0 
2.381714684947e+01 -4.385917965223e+00 0.0 
3.172733219247e+01 -9.758744265248e+00 0.0 
1.882012070658e+01 -1.805540597212e+01 0.0 
1.805667505243e+01 -1.742221226236e+01 0.0 
2.852599958080e+01 -8.597196079481e+00 0.0 
2.856486123437e+01 -7.661382718527e+00 0.0 
1.111792842875e+01 -1.818223852980e+01 0.0 
2.203322722466e+01 -7.986646678802e+00 0.0 
3.955703676900e+01 -1.903246763601e+01 0.0 
1.944842206513e+01 -8.038750575182e-01 0.0 
1.909882767783e+01 -1.746322740933e+00 0.0 
2.281147422941e+01 -8.525912918334e+00 0.0 
2.850633001468e+01 -9.533271335986e+00 0.0 
2.532883344309e+01 -7.308951659710e+00 0.0 
2.620475466461e+01 -6.979208585400e+00 0.0 
1.396278270396e+01 -1.475095389807e+01 0.0 
9.791001166724e+00 -2.554159793552e+00 0.0 
2.229293380421e+01 -4.269762271052e+00 0.0 
4.677238984118e+01 -1.430071795514e+01 0.0 
2.228658385918e+01 -3.344747535984e+00 0.0 
8.940223674553e-01 -1.543595733415e+01 0.0 
2.118566862474e+01 -8.435876987696e+00 0.0 
2.678325936437e+01 -1.032621195706e+01 0.0 
2.223400220487e+01 -5.179046761770e+00 0.0 
2.375370625384e+01 -7.251580562134e+00 0.0 
3.156971327386e+01 -1.255534750737e+01 0.0 
3.328226391312e+01 -1.172914813316e+01 0.0 
3.250948774219e+01 -1.120157009348e+01 0.0 
2.032993445717e+01 -8.867880112202e+00 0.0 
2.697226974856e+01 -7.536633082045e+00 0.0 
2.707377810386e+01 -6.590835263295e+00 0.0 
2.914099246827e+01 -1.191678458549e+01 0.0 
3.544824072239e+01 -1.621126558525e+01 0.0 
3.456511855436e+01 -1.665054783843e+01 0.0 
3.448395810225e+01 -1.759117813016e+01 0.0 
3.368378673938e+01 -1.708037781328e+01 0.0 
3.375560452567e+01 -1.610973066913e+01 0.0 
3.288001547988e+01 -1.654324255651e+01 0.0 
3.282475929147e+01 -1.749725654692e+01 0.0 
3.199880906313e+01 -1.697294088625e+01 0.0 
3.197001272932e+01 -1.811667776864e+01 0.0 
3.111884713021e+01 -1.742166785755e+01 0.0 
3.120418962865e+01 -1.642155709385e+01 0.0 
3.034666704371e+01 -1.683123833816e+01 0.0 
3.026224379976e+01 -1.772592851714e+01 0.0 
3.046632362943e+01 -1.582232843075e+01 0.0 
1.961344017324e+01 -1.857459447985e+01 0.0 
2.274975894774e+01 -9.532738811922e+00 0.0 
1.833923246887e+01 -2.396746883672e+00 0.0 
1.988859500848e+01 -2.249244376594e+00 0.0 
2.758045562861e+01 -1.086434261689e+01 0.0 
3.247300178163e+01 -1.909930104252e+01 0.0 
3.461947482503e+01 -1.911879848019e+01 0.0 
2.047161538662e+01 -6.941478180358e+00 0.0 
2.750230940214e+01 -1.915490590764e+01 0.0 
3.165081350803e+01 -1.161860780120e+01 0.0 
1.897456727641e+01 -4.889634688522e+00 0.0 
2.549338539756e+01 -1.914858252089e+01 0.0 
3.462873135081e+01 -1.567482276144e+01 0.0 
3.384432415243e+01 -1.512280684518e+01 0.0 
3.471433767690e+01 -1.469086942990e+01 0.0 
3.651470373046e+01 -1.918207952149e+01 0.0 
3.901742690249e+01 -1.345028556517e+01 0.0 
2.153224102692e+01 -1.920169709333e+01 0.0 
1.918382939341e+01 -1.316226275662e+01 0.0 
2.005389162382e+01 -1.271962165174e+01 0.0 
2.011472087878e+01 -1.175029352900e+01 0.0 
3.210679478412e+01 -1.598038618242e+01 0.0 
1.752175226543e+01 -1.914713022656e+01 0.0 
1.696897240059e+01 -1.832772588765e+01 0.0 
1.599682523337e+01 -1.832599992024e+01 0.0 
1.644507199462e+01 -1.743697981535e+01 0.0 
1.549987712903e+01 -1.915192375101e+01 0.0 
3.050250861901e+01 -1.918943550234e+01 0.0 
2.949944061527e+01 -1.922950455235e+01 0.0 
1.375892575273e+01 -6.447160534926e+00 0.0 
1.457223670180e+01 -7.006709243857e+00 0.0 
1.450818793236e+01 -7.965943451779e+00 0.0 
1.538804712402e+01 -7.553409623699e+00 0.0 
1.545817644768e+01 -6.580929593419e+00 0.0 
1.626506893751e+01 -7.129032608911e+00 0.0 
1.619833811522e+01 -8.086588580887e+00 0.0 
1.714448609609e+01 -6.697429609777e+00 0.0 
2.887616543568e+01 -1.668015232137e+01 0.0 
1.349814589130e+01 -1.918225301544e+01 0.0 
1.153887772210e+01 -1.311384581217e+01 0.0 
1.242708159886e+01 -1.267046795531e+01 0.0 
1.249799674267e+01 -1.169005616014e+01 0.0 
6.631723893693e+00 -9.774184881867e+00 0.0 
7.451471631867e+00 -1.033148796006e+01 0.0 
7.377795355458e+00 -1.132196345268e+01 0.0 
5.810931797536e+00 -9.211654212252e+00 0.0 
2.402683899133e+01 -1.441378562320e+01 0.0 
1.249768692036e+01 -1.917388426624e+01 0.0 
1.580373499437e+01 -1.290751860664e+01 0.0 
8.344650507834e+00 -9.898403995170e+00 0.0 
3.750622115305e+01 -1.086526401533e+01 0.0 
3.699391251667e+01 -1.171695900794e+01 0.0 
3.606517829518e+01 -1.173717504500e+01 0.0 
3.650257641795e+01 -1.270047380221e+01 0.0 
3.808951488918e+01 -1.183518714175e+01 0.0 
4.760380962420e+00 -1.162484888315e+01 0.0 
3.861210370848e+00 -1.205657631736e+01 0.0 
3.038284309476e+00 -1.149851280664e+01 0.0 
2.961598794889e+00 -1.248856794980e+01 0.0 
2.138953225512e+00 -1.193212674534e+01 0.0 
2.227383593457e+00 -1.096258903918e+01 0.0 
2.043265419276e+00 -1.292158472959e+01 0.0 
1.252449446028e+00 -1.225502002753e+01 0.0 
3.949985210740e+01 -1.086594001795e+01 0.0 
1.453499444792e+01 -8.768805922472e-01 0.0 
1.403518950933e+01 -1.749965556633e+00 0.0 
1.300715031023e+01 -1.714737233040e+00 0.0 
1.350929389899e+01 -2.527443911291e+00 0.0 
1.449600910711e+01 -2.595486162864e+00 0.0 
1.395693872901e+01 -3.484211041558e+00 0.0 
1.495105865208e+01 -3.364609636216e+00 0.0 
1.508822528740e+01 -1.766586020494e+00 0.0 
1.250223858430e+01 -8.634590186802e-01 0.0 
1.200279523409e+01 -1.709044504992e+00 0.0 
1.150086239419e+01 -8.592789190668e-01 0.0 
1.101482754194e+01 -1.677730591922e+00 0.0 
1.148018564526e+01 -2.659323866909e+00 0.0 
8.800552119754e+00 -3.989875954728e+00 0.0 
3.452790439430e+00 -1.901136170646e+01 0.0 
8.658451825200e-01 -9.503462241795e+00 0.0 
1.694787786797e+00 -9.000589234502e+00 0.0 
1.703436717094e+00 -8.038819004041e+00 0.0 
2.594197971110e+00 -8.563955242845e+00 0.0 
1.630513735412e+00 -9.907244747511e+00 0.0 
8.566859292791e-01 -7.512203837972e+00 0.0 
1.685461277022e+00 -7.164280248030e+00 0.0 
2.506394468801e+00 -8.623386730818e-01 0.0 
2.007475081581e+00 -1.727729545205e+00 0.0 
9.211534699767e-01 -1.628791366312e+00 0.0 
1.500000000020e+00 -2.598063549486e+00 0.0 
2.482078929963e+00 -2.553580088725e+00 0.0 
2.999795253092e+00 -1.732169015019e+00 0.0 
3.999712607169e+00 -1.728832897453e+00 0.0 
4.499752199340e+00 -8.656478679175e-01 0.0 
4.964377774841e+00 -1.730129617941e+00 0.0 
4.425017908337e+00 -2.597541756243e+00 0.0 
5.446573195014e+00 -8.410144840023e-01 0.0 
4.915722346614e+01 -1.550640962770e+01 0.0 
4.826794919243e+01 -1.600000000000e+01 0.0 
1.053139533193e+01 -1.911782884365e+01 0.0 
4.156049861949e+01 -1.095160998589e+01 0.0 
9.494526624416e+00 -8.650570090219e-01 0.0 
4.555762166964e+01 -1.897098103585e+01 0.0 
4.250656411371e+01 -1.914387356218e+01 0.0 
4.350906466345e+01 -1.917234727395e+01 0.0 
8.759665722424e-01 -1.746422130609e+01 0.0 
1.698936011838e+00 -1.795012186674e+01 0.0 
4.742476811029e+01 -1.900090177972e+01 0.0 
7.749196752349e+00 -6.368049313489e+00 0.0 
3.361572113416e+01 -1.798765193915e+01 0.0 
4.484660149212e+01 -1.728661231383e+01 0.0 
1.984038172228e+01 -4.502575320116e+00 0.0 
1.035080352627e+01 -6.166639575753e+00 0.0 
2.753558010652e+00 -1.444909521181e+01 0.0 
7.217069543032e+00 -1.328635391078e+01 0.0 
4.364336727739e+00 -1.655585677381e+01 0.0 
4.595208426108e+00 -1.357919665443e+01 0.0 
6.164967006980e+00 -1.569873454630e+01 0.0 
1.487855768353e+01 -1.826523774028e+01 0.0 
2.791876456372e+00 -4.019632415181e+00 0.0 
4.246464893515e+01 -1.364898659620e+01 0.0 
4.503855590351e+01 -1.329552780944e+01 0.0 
4.407239109604e+01 -1.573900004093e+01 0.0 
5.141054449252e+00 -6.664290382472e+00 0.0 
3.141083947149e+00 -1.055790764912e+01 0.0 
6.196463198741e+00 -4.256497932609e+00 0.0 
2.599618716181e+01 -1.836893455464e+01 0.0 
2.923057372337e+01 -1.098461757645e+01 0.0 
1.168343877486e+01 -1.114079645041e+01 0.0 
6.706222096238e+00 -8.780364234441e+00 0.0 
8.567858614669e+00 -6.943121440850e+00 0.0 
1.123755132901e+01 -5.753525820030e+00 0.0 
2.353456234423e+01 -1.008536320953e+01 0.0 
9.162073319168e+00 -1.045593739109e+01 0.0 
9.676343469685e+00 -1.496493008366e+01 0.0 
4.490637882905e+01 -1.628778970202e+01 0.0 
7.398129387772e+00 -9.639977982323e-01 0.0 
1.049641705805e+01 -1.552503975272e+01 0.0 
9.010356286268e+00 -1.242805042052e+01 0.0 
3.985573925497e+01 -1.399863651620e+01 0.0 
1.816196318262e+01 -1.554066497931e+01 0.0 
1.306332244168e+01 -3.963646550326e+00 0.0 
4.145850903932e+01 -1.608094559275e+01 0.0 
3.794664933633e+01 -1.779020121986e+01 0.0 
3.819614412903e+01 -1.290749321016e+01 0.0 
6.270014188119e+00 -3.255093186826e+00 0.0 
4.251165370388e+01 -1.263870364997e+01 0.0 
1.207347709171e+01 -1.763942826023e+01 0.0 
3.633240829927e+01 -1.577330481104e+01 0.0 
4.319052668832e+00 -6.101812561904e+00 0.0 
1.676492415806e+01 -1.151547901392e+01 0.0 
2.594059220037e+01 -1.074225223009e+01 0.0 
3.340750911501e+01 -9.898764354137e+00 0.0 
4.397619591281e+01 -1.769773736461e+01 0.0 
2.175611595028e+01 -1.185718747128e+01 0.0 
1.641818733106e+01 -1.640685203215e+01 0.0 
1.661211421753e+01 -1.346121366338e+01 0.0 
3.428853504935e+00 -6.551993389271e+00 0.0 
8.700728832502e+00 -1.638460872825e+01 0.0 
1.931369795309e+01 -1.121629383702e+01 0.0 
4.139798872363e+01 -1.706922153459e+01 0.0 
2.647837478700e+01 -1.507353829290e+01 0.0 
1.779469616424e+01 -9.161615782908e+00 0.0 
3.885879219319e+01 -1.642026488918e+01 0.0 
1.338194936770e+01 -1.125916521471e+01 0.0 
1.897071181111e+01 -1.609204322578e+01 0.0 
2.844308548793e+01 -1.046221003096e+01 0.0 
2.659854702194e+01 -1.316109415760e+01 0.0 
2.979604503271e+01 -1.433296157755e+01 0.0 
2.417694041347e+01 -1.251231397779e+01 0.0 
1.807401327411e+00 -1.388891148480e+01 0.0 
9.599810618782e+00 -1.595439365034e+01 0.0 
1.652144692160e+01 -4.205392788472e+00 0.0 
2.367839450246e+01 -8.188385218643e+00 0.0 
3.814894930468e+01 -1.390748338767e+01 0.0 
2.466448215774e+01 -1.685878545680e+01 0.0 
4.134044524611e+01 -1.806610045954e+01 0.0 
2.600511411958e+01 -9.801774120648e+00 0.0 
7.882158050716e+00 -1.582364037353e+01 0.0 
3.881607873422e+01 -1.737970515013e+01 0.0 
8.270182347708e+00 -1.088622154920e+01 0.0 
8.672520392520e-01 -4.532984309881e+00 0.0 
1.993447205337e+01 -3.579061902667e+00 0.0 
1.794616079549e+01 -7.238038888498e+00 0.0 
2.097277068165e+01 -1.132450168636e+01 0.0 
8.194803300681e+00 -1.187214224265e+01 0.0 
3.522279404911e+01 -1.823342818178e+01 0.0 
6.984481050295e+00 -1.625271465557e+01 0.0 
1.309433007797e+01 -1.521718594215e+01 0.0 
2.150246167611e+01 -1.885399038185e+00 0.0 
3.250689370209e+01 -1.028789870535e+01 0.0 
6.085886272238e+00 -1.668342132851e+01 0.0 
1.588455661727e+01 -1.193498985921e+01 0.0 
1.809323400821e+01 -1.651110084195e+01 0.0 
1.348885082381e+00 -1.136065576512e+01 0.0 
2.497670221995e+01 -1.834631276173e+01 0.0 
2.937062818424e+01 -8.233711194470e+00 0.0 
5.185823744469e+00 -1.711566910207e+01 0.0 
1.477497877209e+01 -1.530177014512e+01 0.0 
2.125346158933e+01 -7.473003997367e+00 0.0 
4.751561118290e+01 -1.084897772632e+01 0.0 
5.056026576843e+00 -1.825750475525e+01 0.0 
1.473948554523e+01 -1.634577436309e+01 0.0 
2.410566630936e+01 -1.345970002612e+01 0.0 
1.507337507513e+01 -1.138527895328e+01 0.0 
3.189857338687e+01 -8.887781229006e+00 0.0 
7.298712468334e+00 -1.230231046246e+01 0.0 
2.738235495295e+01 -1.368931690364e+01 0.0 
3.750141041969e+01 -1.920449893070e+01 0.0 
1.557271965640e+01 -1.683317951731e+01 0.0 
3.393731848929e+01 -1.413034777044e+01 0.0 
6.482156824153e+00 -1.174575135362e+01 0.0 
2.077971718439e+01 -1.421279621836e+01 0.0 
3.455084320178e+00 -2.562590040585e+00 0.0 
3.099056096250e+01 -9.270280416035e+00 0.0 
5.580176125418e+00 -1.217387969259e+01 0.0 
1.707247630389e+01 -7.660651981710e+00 0.0 
1.418658814174e+01 -1.180390575393e+01 0.0 
2.049103025389e+01 -1.811296706038e+01 0.0 
4.680386172316e+00 -1.260396879301e+01 0.0 
1.699679896554e+01 -8.624561788199e+00 0.0 
3.779470168555e+00 -1.303424899720e+01 0.0 
3.036589870126e+01 -7.879832518349e+00 0.0 
3.306993001774e+01 -1.457671062095e+01 0.0 
2.840150110165e+00 -1.346530088269e+01 0.0 
2.732011135052e+01 -1.464591214560e+01 0.0 
5.423639259568e+00 -2.659711955016e+00 0.0 
2.324455961696e+01 -1.387269388211e+01 0.0 
1.752768355571e+00 -1.693128613594e+01 0.0 
1.020244783051e+01 -8.076834012808e+00 0.0 
1.330873875224e+01 -1.222417528206e+01 0.0 
3.297727364880e+01 -1.555480372087e+01 0.0 
2.890929955439e+01 -6.868664170731e+00 0.0 
1.323294664622e+01 -1.320754260334e+01 0.0 
2.726532861246e+01 -1.560593120806e+01 0.0 
2.240020643398e+01 -1.429299177247e+01 0.0 
2.090445823633e+01 -1.228128621332e+01 0.0 
1.315809881502e+01 -1.420739326938e+01 0.0 
2.781328038068e+01 -7.181956082300e+00 0.0 
8.614200829057e+00 -5.936933226306e+00 0.0 
8.714765730069e+00 -4.979270529687e+00 0.0 
1.611881701099e+01 -9.041973294003e+00 0.0 
2.806830314340e+01 -1.614622947108e+01 0.0 
2.084435391396e+00 -3.385085422913e+00 0.0 
3.133211811152e+01 -1.542347619750e+01 0.0 
9.693114650768e+00 -3.590281506442e+00 0.0 
1.531883592202e+01 -8.504584946143e+00 0.0 
2.151589117094e+01 -1.578915763018e+01 0.0 
4.918943882696e+01 -1.355538828056e+01 0.0 
1.443236615188e+01 -8.918701794549e+00 0.0 
8.276250966452e-01 -5.537685192197e+00 0.0 
1.362790867918e+01 -8.374718262212e+00 0.0 
2.083767477370e+01 -1.324843956035e+01 0.0 
1.273834678703e+01 -8.790890389337e+00 0.0 
1.192275845670e+01 -8.242261327467e+00 0.0 
4.477236023583e+01 -1.824312396664e+01 0.0 
1.102989384254e+01 -8.649855800911e+00 0.0 
4.849096516045e+01 -1.917293752213e+01 0.0 
1.588996752238e+00 -1.910230934687e+01 0.0 
4.904245197583e+01 -1.159839008158e+01 0.0 
2.753852929608e+01 -5.782128488093e+00 0.0 
1.756133602833e+01 -8.306130313187e-01 0.0 
2.615423700951e+01 -6.153865090092e+00 0.0 
1.028818761294e+01 -7.122020845892e+00 0.0 
2.970818901196e+01 -1.527821347593e+01 0.0 
4.801461623449e+01 -1.164472570985e+01 0.0 
9.455722100419e+00 -6.546069291118e+00 0.0 
3.089099236677e+01 -1.835339328261e+01 0.0 
2.350000000013e+01 -1.920825896750e+01 0.0 
4.830620531887e+01 -1.506626155470e+01 0.0 
1.725381944701e+01 -1.688794487850e+01 0.0 
2.156246225273e+01 -1.475893794002e+01 0.0 
4.919319648787e+01 -1.742767505896e+01 0.0 
4.437935623576e+01 -1.077662927266e+01 0.0 
1.001520521978e+01 -1.652692675208e+00 0.0 
9.067160240050e-01 -1.441937727541e+01 0.0 
2.603365149390e+01 -4.755996613848e+00 0.0 
2.458344439002e+01 -4.873645517696e+00 0.0 
2.304312390142e+01 -3.836552768096e+00 0.0 
2.546923202198e+00 -6.902480355749e+00 0.0 
1.251534969393e+01 -2.490989965776e+00 0.0 
2.454061833377e+01 -3.933354231935e+00 0.0 
1.788186558740e+01 -1.827424884923e+01 0.0 
4.090785243552e+01 -1.166553231904e+01 0.0 
2.230128851568e+01 -1.623015738726e+01 0.0 
2.302362347568e+01 -2.916239960270e+00 0.0 
3.878119254461e+01 -1.830091164002e+01 0.0 
2.210081359958e+01 -1.829238229150e+01 0.0 
8.443704882233e+00 -1.921993252862e+01 0.0 
2.218405824691e+01 -1.724557581508e+01 0.0 
2.151157503963e+01 -2.790636689331e+00 0.0 
3.741658958955e+01 -1.250400191722e+01 0.0 
2.697247663737e+01 -1.838290202309e+01 0.0 
4.743362342862e+01 -1.585850773010e+01 0.0 
6.671345075358e+00 -1.924977576322e+01 0.0 
3.900825404537e+01 -1.157220003875e+01 0.0 
4.649692961375e+01 -1.836335837481e+01 0.0 
1.578831424832e+01 -3.678284023361e+00 0.0 
4.814208768888e+01 -1.841249298770e+01 0.0 
2.964123298315e+01 -1.625739458193e+01 0.0 
4.580760351902e+01 -1.284294554687e+01 0.0 
3.561520879615e+01 -1.245548941949e+01 0.0 
2.555418095658e+00 -1.841101588290e+01 0.0 
3.288468366144e+01 -1.834258164109e+01 0.0 
2.065894391445e+01 -2.240688571739e+00 0.0 
4.739171429915e+01 -1.496536413446e+01 0.0 
3.478086729185e+00 -8.576434653209e+00 0.0 
1.606010630246e+01 -1.588421807951e+00 0.0 
1.018329200594e+01 -1.834320874317e+01 0.0 
2.957213339430e+01 -1.720496954591e+01 0.0 
4.142712790164e+00 -1.837794506222e+01 0.0 
6.698721532573e-01 -2.499999999997e+00 0.0 
8.037039123140e+00 -1.571229354954e+00 0.0 
1.203541361428e+01 -1.847784298001e+01 0.0 
2.899968332038e+01 -1.848264722179e+01 0.0 
1.469229460948e+01 -4.219485753730e+00 0.0 
4.049590781957e+01 -1.932812501995e+01 0.0 
1.996211678340e+01 -1.506329754720e+00 0.0 
4.250588298353e+01 -1.067383247529e+01 0.0 
5.831497011152e+00 -1.635396227234e+00 0.0 
5.317606125670e+00 -1.923927974868e+01 0.0 
4.208546426993e+01 -1.842830665025e+01 0.0 
2.327553405011e+00 -9.459409929662e+00 0.0 
3.568351902251e+01 -1.096637218582e+01 0.0 
1.682104374890e+00 -6.231413350963e+00 0.0 
2.451812238018e+01 -1.766524914339e+01 0.0 
1.058003429638e+01 -2.391839617098e+00 0.0 
4.399988753123e+01 -1.851998776342e+01 0.0 
1.400000000010e+01 -1.852293523028e+01 0.0 
3.604719565984e+01 -1.850662876800e+01 0.0 
1.951297136734e+01 -1.938092349694e+01 0.0 
1.821365318472e+01 -1.531276353287e+00 0.0 
2.298031859732e+01 -1.854635324722e+01 0.0 
1.552168066204e+01 -1.764280741977e+01 0.0 
4.572957713638e+01 -1.073347898229e+01 0.0 
3.429637429624e+01 -1.838861552790e+01 0.0 
2.427434426052e+00 -7.705577451869e+00 0.0 
4.662792031485e+00 -3.359424455416e+00 0.0 
4.926794919243e+01 -1.926794919243e+01 0.0 
7.320508075690e-01 -7.320508075688e-01 0.0 
4.926794919243e+01 -1.073205080757e+01 0.0 
7.320508075705e-01 -1.926794919243e+01 0.0 
2.917460242467e+00 -3.202866455310e+00 0.0 
4.838200575963e+01 -1.232674147454e+01 0.0 
2.998445708009e+01 -1.854403752148e+01 0.0 
5.949940090766e-01 -1.152762038165e+01 0.0 
4.844763495759e+01 -1.678092548787e+01 0.0 
1.301685480160e+01 -3.170056592566e+00 0.0 
1.650046335855e+01 -6.731535384067e-01 0.0 
4.854881540991e+01 -1.405224059779e+01 0.0 
2.119545114693e+01 -1.846813384545e+01 0.0 
3.797852849897e+01 -1.857978513215e+01 0.0 
4.649823708745e+01 -1.338351810816e+01 0.0 
2.012685900976e+01 -2.889659035009e+00 0.0 
2.953271913273e+01 -1.791558075192e+01 0.0 
2.408509097292e+00 -1.021949208421e+01 0.0 
2.642589566221e+01 -1.773216561448e+01 0.0 
1.730010270775e+01 -1.763165076721e+01 0.0 
2.017406551304e+01 -8.513536440582e-01 0.0 
5.254761581934e-01 -1.249999999999e+01 0.0 
6.640448215642e+00 -1.545337834885e+00 0.0 
7.843361506349e+00 -1.852719839527e+01 0.0 
1.588442191088e+00 -1.066158564320e+01 0.0 
2.131250000000e+01 -4.209183673460e-01 0.0 
4.950862068966e+01 -5.000000000001e-01 0.0 
2.280866189488e+01 -1.416779325160e+00 0.0 
4.950862068966e+01 -1.500000000000e+00 0.0 
2.431250000000e+01 -2.420918367347e+00 0.0 
4.950961538461e+01 -2.500000000000e+00 0.0 
2.580823483239e+01 -3.416278049680e+00 0.0 
4.950961538461e+01 -3.500000000000e+00 0.0 
2.731250000000e+01 -4.420918367347e+00 0.0 
4.951086956522e+01 -4.500000000000e+00 0.0 
2.880770112393e+01 -5.415638864241e+00 0.0 
4.951086956522e+01 -5.500000000000e+00 0.0 
3.031250000000e+01 -6.420918367347e+00 0.0 
4.951250000000e+01 -6.500000000000e+00 0.0 
3.180701530612e+01 -7.414795918363e+00 0.0 
4.951250000000e+01 -7.500000000000e+00 0.0 
3.331250000000e+01 -8.420918367347e+00 0.0 
4.951470588234e+01 -8.500000000000e+00 0.0 
3.480610198624e+01 -9.413633635267e+00 0.0 
4.951470588234e+01 -9.500000000000e+00 0.0 

SCALARS node_number int
LOOKUP_TABLE default
1
2
3
4
5
6
7
8
9
10
11
12
13
14
15
16
17
18
19
20
21
22
23
24
25
26
27
28
29
30
31
32
33
34
35
36
37
38
39
40
41
42
43
44
45
46
47
48
49
50
51
52
53
54
55
56
57
58
59
60
61
62
63
64
65
66
67
68
69
70
71
72
73
74
75
76
77
78
79
80
81
82
83
84
85
86
87
88
89
90
91
92
93
94
95
96
97
98
99
100
101
102
104
105
106
107
108
109
110
111
112
113
114
115
116
117
118
119
120
121
122
123
124
125
126
127
128
129
130
131
132
133
134
135
136
137
138
139
140
141
142
143
144
145
146
147
148
149
150
151
152
153
154
155
156
157
158
159
160
161
162
163
164
165
166
167
168
169
170
171
172
173
174
175
176
177
178
179
180
181
182
183
184
185
186
187
188
189
190
191
192
193
194
195
196
197
198
199
200
201
202
203
204
205
206
207
208
209
210
211
212
213
214
215
216
217
218
219
220
221
222
223
224
225
226
227
228
229
230
231
232
233
234
235
236
237
238
239
240
241
242
243
244
245
246
247
248
249
250
251
252
253
254
255
256
257
258
259
260
261
262
263
264
265
266
267
268
269
270
271
272
273
274
275
276
277
278
279
280
281
282
283
284
285
286
287
288
289
290
291
292
293
294
295
296
297
298
299
300
301
302
303
304
305
306
307
308
309
310
311
312
313
314
315
316
317
318
319
320
321
322
323
324
325
326
327
328
329
330
331
332
333
334
335
336
337
338
339
340
341
342
343
344
345
346
347
348
349
350
351
352
353
354
355
356
357
358
359
360
361
362
363
364
365
366
367
368
369
370
371
372
373
374
375
376
377
378
379
380
381
382
383
384
385
386
387
388
389
390
391
392
393
394
395
396
397
398
399
400
401
402
403
404
405
406
407
408
409
410
411
412
413
414
415
416
417
418
419
420
421
422
423
424
425
426
427
428
429
430
431
432
433
434
435
436
437
438
439
440
441
442
443
444
445
446
447
448
449
450
451
452
453
454
455
456
457
458
459
460
461
462
463
464
465
466
467
468
469
470
471
472
473
474
475
476
477
478
479
480
481
482
483
484
485
486
487
488
489
490
491
492
493
494
495
496
497
498
499
500
501
502
503
504
505
506
507
508
509
510
511
512
513
514
515
516
517
518
519
520
521
522
523
524
525
526
527
528
529
530
531
532
533
534
535
536
537
538
539
540
541
542
543
544
545
546
547
548
549
550
551
552
553
554
555
556
557
558
559
560
561
562
563
564
565
566
567
568
569
570
571
572
573
574
575
576
577
578
579
580
581
582
583
584
585
586
587
588
589
590
591
592
593
594
595
596
597
598
599
600
601
602
603
604
605
606
607
608
609
610
611
612
613
614
615
616
617
618
619
620
621
622
623
624
625
626
627
628
629
630
631
632
633
634
635
636
637
638
639
640
641
642
643
644
645
646
647
648
649
650
651
652
653
654
655
656
657
658
659
660
661
662
663
664
665
666
667
668
669
670
671
672
673
674
675
676
677
678
679
680
681
682
683
684
685
686
687
688
689
690
691
692
693
694
695
696
697
698
699
700
701
702
703
704
705
706
707
708
709
710
711
712
713
714
715
716
717
718
719
720
721
722
723
724
725
726
727
728
729
730
731
732
733
734
735
736
737
738
739
740
741
742
743
744
745
746
747
748
749
750
751
752
753
754
755
756
757
758
759
760
761
762
763
764
765
766
767
768
769
770
771
772
773
774
775
776
777
778
779
780
781
782
783
784
785
786
787
788
789
790
791
792
793
794
795
796
797
798
799
800
801
802
803
804
805
806
807
808
809
810
811
812
813
814
815
816
817
818
819
820
821
822
823
824
825
826
827
828
829
830
831
832
833
834
835
836
837
838
839
840
841
842
843
844
845
846
847
848
849
850
851
852
853
854
855
856
857
858
859
860
861
862
863
864
865
866
867
868
869
870
871
872
873
874
875
876
877
878
879
880
881
882
883
884
885
886
887
888
889
890
891
892
893
894
895
896
897
898
899
900
901
902
903
904
905
906
907
908
909
910
911
912
913
914
915
916
917
918
919
920
921
922
923
924
925
926
927
928
929
930
931
932
933
934
935
936
937
938
939
940
941
942
943
944
945
946
947
948
949
950
951
952
953
954
955
956
957
958
959
960
961
962
963
964
965
966
967
968
969
970
971
972
973
974
975
976
977
978
979
980
981
982
983
984
985
986
987
988
989
990
991
992
993
994
995
996
997
998
999
1000
1001
1002
1003
1004
1005
1006
1007
1008
1009
1010
1011
1012
1013
1014
1015
1016
1017
1018
1019
1020
1021
1022
1023
1024
1025
1026
1027
1028
1029
1030
1031
1032
1033
1034
1035
1036
1037
1038
1039
1040
1041
1042
1043
1044
1045
1046
1047
1048
1049
1050
1051
1052
1053
1054
1055
1056
1057
1058
1059
1060
1061
1062
1063
1064
1065
1066
1067
1068
1069
1070
1071
1072
1073
1074
1075
1076
1077
1078
1079
1080
1081
1082
1083
1084
1085
1086
1087
1088
1089
1090
1091
1092
1093
1094
1095
1096
1097
1098
1099
1100
1101
1102
1103
1104
1105
1106
1107
1108
1109
1110
1111
1112
1113
1114
1115
1116
1117
1118
1119
1120
1121
1122
1123
1124
1125
1126
1127
1128
1129
1130
1131
1132
1133
1134
1135
1136
1137
1138
1139
1140
1141
1142
1143
1144
1145
1146
1147
1148
1149
1150
1151
1152
1153
1154
1155
1156
1157
1158
1159
1160
1161
1162
1163
1164
1165
1166
1167
1168
1169
1170
1171
1172
1173
1174
1175
1176
1177
1178
1179
1180
1181
1182
1183
1184
1185
1186
1187
1188
1189
1190
1191
1192
1193
1194
1195
1196
1197
1198
1199
1200
1201
1202
1203
1204
1205
1206
1207
1208
1209
1210
1211
1212
1213
1214
1215
1216
1217
1218
1219
1220
1221
1222
1223
1224
1225
1226
1227
1228
1229
1230
1231
1232
1233
1234
1235
1236
1237
1238
1239
1240
1241
1242
1243
1244
1245
1246
1247
1248
1249
1250
1251
1252
1253
1254
1255
1256
1257
1258
1259
1260
1261
1262
1263
1264
1265
1266
1267
1268
1269
1270
1271
1272
1273
1274
1275
1276
1277
1278
1279
1280
1281
1282
1283
1284

VECTORS node_mesh_deformation float
0.0 6.905052574355e-02 0.0 
0.000000000000e+00 6.520519343886e-02 0.0 
0.0 0.000000000000e+00 0.0 
0.000000000000e+00 0.000000000000e+00 0.0 
0.0 6.990598118012e-02 0.0 
0.0 7.003523722688e-02 0.0 
0.0 6.947354637944e-02 0.0 
0.0 6.821373687011e-02 0.0 
0.0 6.627169160953e-02 0.0 
0.0 6.379959983959e-02 0.0 
0.0 6.088680186919e-02 0.0 
0.0 5.760191830097e-02 0.0 
0.0 5.401504157645e-02 0.0 
0.0 5.017357398087e-02 0.0 
0.0 4.609843807614e-02 0.0 
0.0 4.181605800886e-02 0.0 
0.0 3.732844571586e-02 0.0 
0.0 3.263401301378e-02 0.0 
0.0 2.772343939768e-02 0.0 
0.0 2.259215892990e-02 0.0 
0.0 1.724386950360e-02 0.0 
0.0 1.168461458488e-02 0.0 
0.0 5.937570497228e-03 0.0 
0.000000000000e+00 0.000000000000e+00 0.0 
0.000000000000e+00 0.000000000000e+00 0.0 
0.000000000000e+00 0.000000000000e+00 0.0 
0.000000000000e+00 0.000000000000e+00 0.0 
0.000000000000e+00 0.000000000000e+00 0.0 
0.000000000000e+00 0.000000000000e+00 0.0 
0.000000000000e+00 0.000000000000e+00 0.0 
0.000000000000e+00 0.000000000000e+00 0.0 
0.000000000000e+00 0.000000000000e+00 0.0 
0.000000000000e+00 0.000000000000e+00 0.0 
0.000000000000e+00 0.000000000000e+00 0.0 
0.000000000000e+00 0.000000000000e+00 0.0 
0.000000000000e+00 0.000000000000e+00 0.0 
0.000000000000e+00 0.000000000000e+00 0.0 
0.000000000000e+00 0.000000000000e+00 0.0 
0.000000000000e+00 0.000000000000e+00 0.0 
0.000000000000e+00 0.000000000000e+00 0.0 
0.000000000000e+00 0.000000000000e+00 0.0 
0.000000000000e+00 0.000000000000e+00 0.0 
0.000000000000e+00 0.000000000000e+00 0.0 
0.000000000000e+00 0.000000000000e+00 0.0 
0.000000000000e+00 0.000000000000e+00 0.0 
0.000000000000e+00 0.000000000000e+00 0.0 
0.000000000000e+00 0.000000000000e+00 0.0 
0.000000000000e+00 0.000000000000e+00 0.0 
0.000000000000e+00 0.000000000000e+00 0.0 
0.000000000000e+00 0.000000000000e+00 0.0 
0.000000000000e+00 0.000000000000e+00 0.0 
0.000000000000e+00 0.000000000000e+00 0.0 
0.000000000000e+00 0.000000000000e+00 0.0 
0.000000000000e+00 0.000000000000e+00 0.0 
0.000000000000e+00 0.000000000000e+00 0.0 
0.000000000000e+00 0.000000000000e+00 0.0 
0.000000000000e+00 0.000000000000e+00 0.0 
0.000000000000e+00 0.000000000000e+00 0.0 
0.000000000000e+00 0.000000000000e+00 0.0 
0.000000000000e+00 0.000000000000e+00 0.0 
0.000000000000e+00 0.000000000000e+00 0.0 
0.000000000000e+00 0.000000000000e+00 0.0 
0.000000000000e+00 0.000000000000e+00 0.0 
0.000000000000e+00 0.000000000000e+00 0.0 
0.000000000000e+00 0.000000000000e+00 0.0 
0.000000000000e+00 0.000000000000e+00 0.0 
0.000000000000e+00 0.000000000000e+00 0.0 
0.000000000000e+00 0.000000000000e+00 0.0 
0.000000000000e+00 0.000000000000e+00 0.0 
0.000000000000e+00 0.000000000000e+00 0.0 
0.000000000000e+00 0.000000000000e+00 0.0 
0.000000000000e+00 0.000000000000e+00 0.0 
0.000000000000e+00 6.033510522521e-02 0.0 
0.000000000000e+00 5.505818846588e-02 0.0 
0.000000000000e+00 4.938422889745e-02 0.0 
0.000000000000e+00 4.333719013786e-02 0.0 
0.000000000000e+00 3.692605877273e-02 0.0 
0.000000000000e+00 3.017107159090e-02 0.0 
0.000000000000e+00 2.308679607922e-02 0.0 
0.000000000000e+00 1.568704144558e-02 0.0 
0.000000000000e+00 7.990150342209e-03 0.0 
-5.058095531449e-03 -2.480999773320e-02 0.0 
0.000000000000e+00 8.880927247554e-02 0.0 
1.813115222755e-02 5.678404798380e-02 0.0 
1.869630343439e-03 -4.295958175667e-03 0.0 
7.445281172249e-03 1.040815423826e-02 0.0 
1.202485323273e-02 2.278523604933e-02 0.0 
1.577489401413e-02 3.343237715429e-02 0.0 
1.866448864296e-02 4.234793372624e-02 0.0 
2.053126082296e-02 4.927019739557e-02 0.0 
2.131446034609e-02 5.406640925706e-02 0.0 
2.107719670095e-02 5.679399126676e-02 0.0 
1.996728547350e-02 5.761963724078e-02 0.0 
0.000000000000e+00 8.858624906256e-02 0.0 
0.000000000000e+00 8.787839140445e-02 0.0 
0.000000000000e+00 8.671961092314e-02 0.0 
0.000000000000e+00 8.503860670575e-02 0.0 
0.000000000000e+00 8.291299042310e-02 0.0 
0.000000000000e+00 8.027128846045e-02 0.0 
0.000000000000e+00 7.720429894824e-02 0.0 
0.000000000000e+00 7.363513026537e-02 0.0 
0.000000000000e+00 6.965433713312e-02 0.0 
1.032999397857e-03 6.518995766518e-02 0.0 
2.055659212026e-03 6.513882459695e-02 0.0 
3.096220473388e-03 6.504890586045e-02 0.0 
4.155347609412e-03 6.491070275217e-02 0.0 
5.236768767119e-03 6.472908519989e-02 0.0 
6.341570611845e-03 6.447250909802e-02 0.0 
7.482897223703e-03 6.415479003944e-02 0.0 
8.657903466926e-03 6.374067122104e-02 0.0 
9.881989542784e-03 6.323815745345e-02 0.0 
1.115469745262e-02 6.260431187222e-02 0.0 
1.247303441547e-02 6.183141354103e-02 0.0 
1.384275325950e-02 6.088880352438e-02 0.0 
1.524946742372e-02 5.975210032659e-02 0.0 
1.667923644507e-02 5.838904035939e-02 0.0 
-1.178442341512e-03 -3.688131472138e-02 0.0 
3.578133502000e-03 -4.172422658897e-02 0.0 
8.503747038439e-03 -4.181736680255e-02 0.0 
1.378618801376e-02 -3.678820092010e-02 0.0 
1.761001620662e-02 -2.417054989448e-02 0.0 
1.966991492787e-02 -8.953748073175e-03 0.0 
2.015738331103e-02 2.925627429147e-03 0.0 
1.999583903133e-02 1.287898637371e-02 0.0 
1.972835288869e-02 2.163250405179e-02 0.0 
1.925301532143e-02 2.963164285187e-02 0.0 
1.848111979743e-02 3.690407055725e-02 0.0 
1.746623166493e-02 4.339034076158e-02 0.0 
1.614586352611e-02 4.927548241399e-02 0.0 
1.443178982659e-02 5.449225177289e-02 0.0 
1.243219996986e-02 5.895049967611e-02 0.0 
1.023299004844e-02 6.255994935723e-02 0.0 
7.862791442756e-03 6.541383510006e-02 0.0 
5.351456653777e-03 6.749195539869e-02 0.0 
2.687468391166e-03 6.867220349393e-02 0.0 
-8.044137817290e-03 -9.119873585609e-03 0.0 
-8.356432441364e-03 1.723632694779e-03 0.0 
-8.638896505310e-03 1.151518208949e-02 0.0 
-8.672122405549e-03 2.036857542275e-02 0.0 
-8.510463265058e-03 2.857076559009e-02 0.0 
-8.099356444912e-03 3.616128528730e-02 0.0 
-7.486795215609e-03 4.314390938889e-02 0.0 
-6.720826088642e-03 4.953938725483e-02 0.0 
-5.842405517917e-03 5.533502049999e-02 0.0 
-4.903364102276e-03 6.052662185148e-02 0.0 
-3.950852024150e-03 6.512737155666e-02 0.0 
-3.032183372142e-03 6.915497717937e-02 0.0 
-2.114983452856e-03 7.266907503331e-02 0.0 
-1.232321065558e-03 7.567633396618e-02 0.0 
-4.237081616978e-04 7.821700775119e-02 0.0 
2.816419199050e-04 8.033984387061e-02 0.0 
8.646911325059e-04 8.209637379712e-02 0.0 
1.316213946772e-03 8.353930038448e-02 0.0 
1.633594193819e-03 8.471095973773e-02 0.0 
1.821215919747e-03 8.565524470091e-02 0.0 
1.888652650607e-03 8.641259504031e-02 0.0 
1.848726049836e-03 8.702231611387e-02 0.0 
1.742445756960e-03 8.750960570240e-02 0.0 
1.579594190297e-03 8.789225802764e-02 0.0 
1.365639186957e-03 8.818741451603e-02 0.0 
1.121360261017e-03 8.841412639329e-02 0.0 
8.494690024321e-04 8.858233580062e-02 0.0 
5.580408655845e-04 8.870460273191e-02 0.0 
2.515947096100e-04 8.878173014695e-02 0.0 
3.381453703213e-04 8.851707229992e-02 0.0 
6.792258117088e-04 8.841912404665e-02 0.0 
1.021579401915e-03 8.830154932233e-02 0.0 
1.352309068345e-03 8.814631406408e-02 0.0 
1.663593175074e-03 8.793973208201e-02 0.0 
1.949503198190e-03 8.766950556511e-02 0.0 
2.203238106489e-03 8.732282526124e-02 0.0 
2.417133454678e-03 8.688109124533e-02 0.0 
2.582151131598e-03 8.632689861894e-02 0.0 
2.689758675771e-03 8.564167184103e-02 0.0 
2.733155430747e-03 8.478866794342e-02 0.0 
2.702899236802e-03 8.372534508678e-02 0.0 
2.593145219699e-03 8.241257658312e-02 0.0 
2.393864820363e-03 8.080596885558e-02 0.0 
2.114740652800e-03 7.885344483426e-02 0.0 
1.769951149960e-03 7.650318545862e-02 0.0 
1.377950365026e-03 7.370590889654e-02 0.0 
9.590898520031e-04 7.042066456545e-02 0.0 
5.295686924072e-04 6.662478645558e-02 0.0 
1.062323431213e-04 6.229092671538e-02 0.0 
-2.906928580018e-04 5.737594937501e-02 0.0 
-6.276878818987e-04 5.186231037237e-02 0.0 
-8.622994545355e-04 4.573670108602e-02 0.0 
-9.418658838349e-04 3.902141884156e-02 0.0 
-7.945440389321e-04 3.170613726520e-02 0.0 
-4.734604146748e-04 2.386376818014e-02 0.0 
4.335244021547e-06 1.541058224495e-02 0.0 
7.092857478668e-04 6.234099275426e-03 0.0 
6.638859788843e-03 1.943713481907e-02 0.0 
6.061830970044e-03 2.771701905056e-02 0.0 
5.593226581031e-03 3.543836178145e-02 0.0 
5.224985479156e-03 4.258046148535e-02 0.0 
4.954791663693e-03 4.911313041644e-02 0.0 
4.755592205886e-03 5.500570015497e-02 0.0 
4.659517872696e-03 6.025306891848e-02 0.0 
4.620513364276e-03 6.487593285769e-02 0.0 
4.610401849810e-03 6.891103406143e-02 0.0 
4.605310373186e-03 7.239262016387e-02 0.0 
4.589943617816e-03 7.535809811619e-02 0.0 
4.553863344000e-03 7.784512776653e-02 0.0 
4.487062694636e-03 7.990403572874e-02 0.0 
4.381928885010e-03 8.158965170338e-02 0.0 
4.233276792796e-03 8.295744742659e-02 0.0 
4.040118078166e-03 8.406090301236e-02 0.0 
3.804902869653e-03 8.494349818109e-02 0.0 
3.531736572064e-03 8.564775805980e-02 0.0 
3.224137061459e-03 8.620972382341e-02 0.0 
2.884539793463e-03 8.665473363181e-02 0.0 
2.517589510262e-03 8.700314694100e-02 0.0 
2.129846689044e-03 8.727314750785e-02 0.0 
1.726705089098e-03 8.747919298292e-02 0.0 
1.312460028828e-03 8.763464307713e-02 0.0 
8.911396389948e-04 8.775626920153e-02 0.0 
4.639174812553e-04 8.788115918435e-02 0.0 
1.141707663700e-02 3.062201207057e-02 0.0 
1.089307376797e-02 3.789439999537e-02 0.0 
1.038335372892e-02 4.462238500197e-02 0.0 
9.894390234077e-03 5.074861576576e-02 0.0 
9.442687158142e-03 5.627638058154e-02 0.0 
9.014952427851e-03 6.118197704087e-02 0.0 
8.602747071528e-03 6.549292792673e-02 0.0 
8.197723107784e-03 6.923909858379e-02 0.0 
7.810554133300e-03 7.246025821165e-02 0.0 
7.426648889542e-03 7.519499038842e-02 0.0 
7.040901233054e-03 7.748369158170e-02 0.0 
6.650366632286e-03 7.937746126491e-02 0.0 
6.250320695976e-03 8.092695524384e-02 0.0 
5.838195923303e-03 8.218536308104e-02 0.0 
5.412565290683e-03 8.320136453145e-02 0.0 
4.973883267354e-03 8.401653599475e-02 0.0 
4.522319268929e-03 8.466789998064e-02 0.0 
4.057701507556e-03 8.518642770011e-02 0.0 
3.580881784671e-03 8.559661109762e-02 0.0 
3.093920166997e-03 8.591849477797e-02 0.0 
2.599187275614e-03 8.616852532455e-02 0.0 
2.099296576048e-03 8.636008015614e-02 0.0 
1.596743875147e-03 8.650479566350e-02 0.0 
1.090989810571e-03 8.661087195720e-02 0.0 
5.523844567463e-04 8.665728605287e-02 0.0 
6.780152431602e-04 8.505716753765e-02 0.0 
1.307904582525e-03 8.497065462827e-02 0.0 
1.933193591334e-03 8.486684367683e-02 0.0 
2.557831385296e-03 8.472174629159e-02 0.0 
3.183924214895e-03 8.452656067298e-02 0.0 
3.812088568395e-03 8.426986758893e-02 0.0 
4.442638509140e-03 8.393725751704e-02 0.0 
5.075861321991e-03 8.351084718819e-02 0.0 
5.712448001269e-03 8.296828710863e-02 0.0 
6.353903477454e-03 8.228215950729e-02 0.0 
7.001959354767e-03 8.141941534014e-02 0.0 
7.658052536243e-03 8.034117891987e-02 0.0 
8.323828648138e-03 7.900200457610e-02 0.0 
9.001179545031e-03 7.734906697006e-02 0.0 
9.693632346064e-03 7.532330922341e-02 0.0 
1.040473654670e-02 7.287665322079e-02 0.0 
1.111654755877e-02 6.996080973917e-02 0.0 
1.182455255330e-02 6.652843882867e-02 0.0 
1.252851430183e-02 6.254192338913e-02 0.0 
1.322272993537e-02 5.795954410079e-02 0.0 
1.390465198007e-02 5.275585027642e-02 0.0 
1.455945184001e-02 4.692746310495e-02 0.0 
1.516874901515e-02 4.049091117036e-02 0.0 
1.794958413187e-02 4.824636754044e-02 0.0 
1.719283509845e-02 5.354470895874e-02 0.0 
1.635618198468e-02 5.825798435911e-02 0.0 
1.547238948206e-02 6.241023366724e-02 0.0 
1.456008126058e-02 6.602063184537e-02 0.0 
1.363069017003e-02 6.912584693705e-02 0.0 
1.269505780257e-02 7.176578827697e-02 0.0 
1.176017889778e-02 7.398671353261e-02 0.0 
1.083603624774e-02 7.582870385159e-02 0.0 
9.943225119756e-03 7.733475280958e-02 0.0 
9.079345522778e-03 7.855993165596e-02 0.0 
8.242055890321e-03 7.955114997314e-02 0.0 
7.428733554967e-03 8.034792926938e-02 0.0 
6.636497894512e-03 8.098399920916e-02 0.0 
5.862313770876e-03 8.148842977259e-02 0.0 
5.103745551665e-03 8.188618139739e-02 0.0 
4.358799453314e-03 8.219743363704e-02 0.0 
3.625479681439e-03 8.243799456468e-02 0.0 
2.902041593231e-03 8.262081556464e-02 0.0 
2.186683536792e-03 8.275512974007e-02 0.0 
1.476341370108e-03 8.284421659120e-02 0.0 
7.425650521853e-04 8.285994185178e-02 0.0 
8.369964187978e-04 8.029583807953e-02 0.0 
1.664355728586e-03 8.022920347892e-02 0.0 
2.494291380692e-03 8.013699000501e-02 0.0 
3.331004650406e-03 7.999868117899e-02 0.0 
4.179865436839e-03 7.980801415352e-02 0.0 
5.045537538301e-03 7.955509052440e-02 0.0 
5.931687498290e-03 7.922590535696e-02 0.0 
6.841496771401e-03 7.880419257851e-02 0.0 
7.778351116023e-03 7.826766592222e-02 0.0 
8.746023647028e-03 7.758858832013e-02 0.0 
9.748282418478e-03 7.673633273250e-02 0.0 
1.078869215725e-02 7.567544047425e-02 0.0 
1.187067030401e-02 7.436409252390e-02 0.0 
1.299726180544e-02 7.275061170730e-02 0.0 
1.413949635840e-02 7.078785911024e-02 0.0 
1.528479138928e-02 6.843163450886e-02 0.0 
1.642142382957e-02 6.563734523981e-02 0.0 
1.753600830629e-02 6.235734358083e-02 0.0 
1.860749924173e-02 5.856589586787e-02 0.0 
1.959571624384e-02 5.421134068931e-02 0.0 
2.020471566701e-02 5.788786648070e-02 0.0 
1.905830011357e-02 6.122163534595e-02 0.0 
1.784274403771e-02 6.408545720131e-02 0.0 
1.659898226603e-02 6.654228487352e-02 0.0 
1.534303383568e-02 6.861542611387e-02 0.0 
1.408586669461e-02 7.034888444863e-02 0.0 
1.285511654517e-02 7.178351127630e-02 0.0 
1.167013382807e-02 7.296096178009e-02 0.0 
1.052960993557e-02 7.392046707375e-02 0.0 
9.431179758366e-03 7.469656284332e-02 0.0 
8.371216886445e-03 7.531819743549e-02 0.0 
7.347788331010e-03 7.581227796794e-02 0.0 
6.357410013315e-03 7.620395644889e-02 0.0 
5.394679741023e-03 7.651178613152e-02 0.0 
4.459176569185e-03 7.675002326502e-02 0.0 
3.545809810383e-03 7.692963365013e-02 0.0 
2.648080485706e-03 7.705860198528e-02 0.0 
1.760370949334e-03 7.714102988042e-02 0.0 
8.794134582288e-04 7.715541955992e-02 0.0 
9.604610399592e-04 7.365333411573e-02 0.0 
1.924529603848e-03 7.358442004609e-02 0.0 
2.897322944413e-03 7.349514758377e-02 0.0 
3.884862233626e-03 7.335857072433e-02 0.0 
4.892047763377e-03 7.316758141903e-02 0.0 
5.926416991606e-03 7.291253175389e-02 0.0 
6.993052979560e-03 7.258367038374e-02 0.0 
8.099785213055e-03 7.216419064361e-02 0.0 
9.253345178948e-03 7.163560694903e-02 0.0 
1.044964727942e-02 7.097259025175e-02 0.0 
1.168989847773e-02 7.014372471201e-02 0.0 
1.297643836343e-02 6.912153950793e-02 0.0 
1.431004170585e-02 6.786958032014e-02 0.0 
1.568738441230e-02 6.635524838683e-02 0.0 
1.707748892174e-02 6.453045148911e-02 0.0 
1.845041414924e-02 6.236560731416e-02 0.0 
1.977444156712e-02 5.979493044877e-02 0.0 
1.859387535408e-02 5.979447517537e-02 0.0 
1.722069709256e-02 6.163910261346e-02 0.0 
1.581799968429e-02 6.318099690300e-02 0.0 
1.444365252169e-02 6.448808906504e-02 0.0 
1.310573423157e-02 6.557492883279e-02 0.0 
1.180970658506e-02 6.646935946724e-02 0.0 
1.055273219470e-02 6.720189342114e-02 0.0 
9.349919448177e-03 6.779536985382e-02 0.0 
8.192701265266e-03 6.827276125727e-02 0.0 
7.080157484609e-03 6.865898636519e-02 0.0 
6.002759170237e-03 6.896090396574e-02 0.0 
4.958201130449e-03 6.919914197016e-02 0.0 
3.936738373767e-03 6.937453448017e-02 0.0 
2.936422350295e-03 6.950241134757e-02 0.0 
1.952064183165e-03 6.958305225404e-02 0.0 
9.727150134466e-04 6.960168359984e-02 0.0 
-1.340160230900e-03 -1.348479547661e-02 0.0 
4.772396623729e-03 3.368056246456e-03 0.0 
9.800898693069e-03 1.678604362437e-02 0.0 
1.398057697298e-02 2.830699830602e-02 0.0 
1.733696566122e-02 3.812712178053e-02 0.0 
1.972831932960e-02 4.607170436739e-02 0.0 
2.104814655378e-02 5.192956913283e-02 0.0 
2.130465573977e-02 5.567974720015e-02 0.0 
2.061666214978e-02 5.743010950576e-02 0.0 
1.912556424250e-02 5.739551795576e-02 0.0 
1.038751979918e-02 3.134995311750e-03 0.0 
2.623957057537e-04 3.011292219984e-03 0.0 
1.283105700809e-02 2.560763365913e-02 0.0 
8.483115640589e-03 -2.933551553924e-02 0.0 
-1.529273233455e-03 3.567210150930e-03 0.0 
1.784345209203e-02 2.782845559611e-02 0.0 
-1.682102550386e-03 4.787492539930e-02 0.0 
2.069122198819e-03 3.236642256248e-03 0.0 
2.218542736416e-02 4.417156074844e-02 0.0 
3.289518223948e-03 3.802014629901e-03 0.0 
2.251915760077e-02 5.282825725786e-02 0.0 
-1.669677486389e-03 4.007663850604e-03 0.0 
1.109476376942e-02 5.289317163045e-02 0.0 
3.759652063980e-03 4.751290211814e-03 0.0 
1.928639153344e-02 5.358248564392e-02 0.0 
-1.228604299757e-03 6.202235941987e-02 0.0 
-1.531689563689e-03 3.581222402387e-02 0.0 
3.697351533415e-03 5.617186978053e-03 0.0 
2.836628241205e-03 6.024058910029e-03 0.0 
9.951638189847e-04 6.761519180099e-03 0.0 
1.738345660812e-03 7.180868743042e-03 0.0 
2.168441019137e-03 6.215679447312e-03 0.0 
1.582302198695e-02 5.512525383763e-02 0.0 
1.053749732487e-02 5.861995096904e-02 0.0 
6.942179850732e-03 5.984901703805e-02 0.0 
6.850124596909e-04 4.007035535204e-02 0.0 
-1.323811411254e-03 4.829629900200e-03 0.0 
4.582644917718e-03 -3.669401581760e-02 0.0 
6.700544544923e-03 6.472382801703e-02 0.0 
-9.891480041591e-04 2.028881553971e-02 0.0 
3.570759384623e-03 6.083222805256e-02 0.0 
7.940705389864e-05 6.861376579311e-02 0.0 
3.702981130864e-03 6.607763915532e-03 0.0 
2.574656940077e-03 3.205789636141e-03 0.0 
3.587288713707e-03 4.201862531808e-03 0.0 
1.314693254567e-03 3.241163789820e-03 0.0 
-5.863047885786e-04 2.977494105128e-03 0.0 
1.082748731747e-02 -2.920971948574e-03 0.0 
1.312479357718e-02 5.744041865685e-02 0.0 
-2.075178803134e-03 4.508545897576e-03 0.0 
5.155286356029e-04 2.696529212589e-02 0.0 
1.258133783898e-02 4.035046298824e-02 0.0 
-1.629282677198e-03 5.558790888418e-02 0.0 
5.088001793254e-04 5.545106667352e-03 0.0 
2.053648943349e-02 3.648375949485e-02 0.0 
1.437235882889e-02 1.653046869426e-02 0.0 
2.285815009603e-02 4.950328755451e-02 0.0 
2.127716073031e-02 5.410160520517e-02 0.0 
5.408016275918e-03 -1.327042503903e-02 0.0 
8.269164924997e-04 5.158284125683e-02 0.0 
-6.454765463295e-04 3.991061662639e-03 0.0 
3.118385238470e-03 6.889348791913e-02 0.0 
2.844775574502e-04 1.244679171579e-02 0.0 
1.827597314323e-02 5.244093054400e-02 0.0 
1.905544359290e-02 4.942361156650e-02 0.0 
1.749533598601e-02 4.881352778247e-02 0.0 
1.831386120771e-02 4.513930433095e-02 0.0 
1.681560293372e-02 4.370658214397e-02 0.0 
1.729323706753e-02 4.044093626207e-02 0.0 
1.886918013388e-02 4.172523552928e-02 0.0 
1.758275566758e-02 3.713635028980e-02 0.0 
1.920522702324e-02 3.832810979239e-02 0.0 
1.569318498662e-02 3.872661833947e-02 0.0 
1.764934677365e-02 3.382786186106e-02 0.0 
1.929512175308e-02 3.492571226901e-02 0.0 
1.748196741388e-02 3.055358268290e-02 0.0 
1.911794106806e-02 3.155983694056e-02 0.0 
2.089227394843e-02 3.557231984127e-02 0.0 
2.068788669847e-02 3.210860353216e-02 0.0 
2.237177430193e-02 3.571457856134e-02 0.0 
2.214658581487e-02 3.212942772453e-02 0.0 
2.019093601437e-02 2.874918849712e-02 0.0 
2.158392507894e-02 2.868204598022e-02 0.0 
2.338148536901e-02 3.159121614797e-02 0.0 
2.275789986238e-02 2.804674449623e-02 0.0 
2.436458410835e-02 3.046408973567e-02 0.0 
2.365362283966e-02 2.681751423068e-02 0.0 
2.506405580154e-02 2.871604051477e-02 0.0 
2.424549329756e-02 2.499168405093e-02 0.0 
2.254526993645e-02 2.344610984711e-02 0.0 
2.300651365011e-02 2.160650636638e-02 0.0 
2.448523901596e-02 2.259145810817e-02 0.0 
2.309374385339e-02 1.922231936301e-02 0.0 
2.434483293854e-02 1.966272657660e-02 0.0 
2.278064612496e-02 1.637769707876e-02 0.0 
2.127421966929e-02 1.635106650707e-02 0.0 
2.076650892291e-02 1.366634964874e-02 0.0 
2.202396685482e-02 1.310543291211e-02 0.0 
1.971306395180e-02 1.048201080162e-02 0.0 
2.073889773897e-02 9.268759928332e-03 0.0 
1.809558126529e-02 6.833384576090e-03 0.0 
1.893004215134e-02 5.044013917345e-03 0.0 
1.594568239230e-02 2.998072655782e-03 0.0 
1.502636471888e-02 5.235990037646e-03 0.0 
1.258431593325e-02 1.937369701595e-03 0.0 
1.335495217429e-02 -7.336501215320e-04 0.0 
9.777460068900e-03 -1.049200119180e-03 0.0 
9.036481927893e-03 1.859971430317e-03 0.0 
6.122870795796e-03 -3.188262877725e-04 0.0 
5.487083839725e-03 2.670208799071e-03 0.0 
2.572232273394e-03 1.324354967693e-03 0.0 
3.114547960635e-03 -1.773172083045e-03 0.0 
-3.197382154276e-04 7.929326361769e-04 0.0 
-6.611942293961e-04 3.680388056507e-03 0.0 
-3.341892584920e-03 3.952425723373e-03 0.0 
-3.035931835504e-03 1.181520269760e-03 0.0 
-5.727298929092e-03 5.125648230015e-03 0.0 
-5.726824450404e-03 7.231618308728e-03 0.0 
-7.746533414219e-03 8.935924186829e-03 0.0 
-7.726383422721e-03 7.172392767155e-03 0.0 
-9.365405638906e-03 1.141852645824e-02 0.0 
-9.235946240970e-03 1.261445024478e-02 0.0 
-1.058677799761e-02 1.555560100429e-02 0.0 
-1.057803383533e-02 1.468483705546e-02 0.0 
-1.150807030912e-02 1.914516234162e-02 0.0 
-1.138292636448e-02 1.944267260688e-02 0.0 
-1.202574345908e-02 2.324744397674e-02 0.0 
-1.171952050908e-02 2.290050416064e-02 0.0 
-1.198543722194e-02 2.337173242899e-02 0.0 
-1.222983859689e-02 2.752786301749e-02 0.0 
-1.198187336875e-02 2.809046633693e-02 0.0 
-1.199242853822e-02 3.217063978512e-02 0.0 
1.906440466815e-02 1.401564210173e-02 0.0 
-1.148653008211e-02 3.311141702544e-02 0.0 
-1.128496770260e-02 2.845445419253e-02 0.0 
-1.132084323502e-02 3.703943838083e-02 0.0 
-1.162429057169e-02 3.557152124558e-02 0.0 
-1.053231385431e-02 3.832947668403e-02 0.0 
-1.025736204845e-02 4.200704355469e-02 0.0 
-9.185787433199e-03 4.358107841695e-02 0.0 
2.141735215461e-02 7.922074659923e-03 0.0 
1.940327181727e-02 2.553967191412e-02 0.0 
-8.866160646155e-03 4.692078771838e-02 0.0 
-7.541020429622e-03 4.870335627333e-02 0.0 
-7.482415212548e-03 4.495160173907e-02 0.0 
-5.571265427171e-03 5.022659871642e-02 0.0 
1.527094926118e-02 4.199493399260e-02 0.0 
1.406690468921e-02 3.668021517102e-02 0.0 
1.371748445476e-02 3.995926945006e-02 0.0 
1.242936311013e-02 3.435190869489e-02 0.0 
1.215255097349e-02 3.758566771268e-02 0.0 
-5.717211045691e-03 5.354270211440e-02 0.0 
1.575863903141e-02 2.897056374093e-02 0.0 
1.252641386004e-02 3.105221002969e-02 0.0 
2.468549761079e-02 3.431893229413e-02 0.0 
2.544304967201e-02 2.347308042869e-02 0.0 
8.237455396635e-03 4.613400706672e-03 0.0 
-9.630265169267e-03 4.490168841706e-02 0.0 
-8.198219156053e-03 4.945591240860e-02 0.0 
-8.681959609697e-03 4.700774878353e-02 0.0 
-1.091970776573e-02 1.945473930857e-02 0.0 
-1.106378105811e-02 2.223604509472e-02 0.0 
-1.011680115816e-02 1.909836837578e-02 0.0 
-1.011968910761e-02 2.118725472793e-02 0.0 
-9.070080198445e-03 1.829900255741e-02 0.0 
-9.012352452336e-03 1.970429770619e-02 0.0 
-9.797334120956e-03 2.275333146569e-02 0.0 
-8.665780607810e-03 2.062151215574e-02 0.0 
-9.208916738636e-03 2.378015210298e-02 0.0 
-7.953934922538e-03 1.699660737133e-02 0.0 
-7.734528408754e-03 1.582349463491e-02 0.0 
-8.072418159976e-03 2.104857912142e-02 0.0 
-8.404623912432e-03 2.426948007122e-02 0.0 
-7.285907580307e-03 2.098917280030e-02 0.0 
-7.432760041298e-03 2.424362130158e-02 0.0 
-8.423529780908e-03 2.768452693338e-02 0.0 
-7.271244828068e-03 2.763986704661e-02 0.0 
-8.134448273473e-03 3.123228609392e-02 0.0 
4.890284930589e-03 5.395960403428e-03 0.0 
7.396386275413e-03 7.004754899956e-03 0.0 
4.362523860209e-03 7.623548587583e-03 0.0 
6.448284192516e-03 8.665647557258e-03 0.0 
3.847551232884e-03 8.893840738132e-03 0.0 
5.537363406113e-03 9.407741226806e-03 0.0 
3.254912653610e-03 9.355017649836e-03 0.0 
1.565138455724e-03 9.306052448785e-03 0.0 
1.707259062584e-02 2.729054414324e-02 0.0 
1.046993715151e-02 -4.084202266501e-03 0.0 
1.400877347827e-02 -3.487530570455e-03 0.0 
1.102583185888e-02 -7.301217188371e-03 0.0 
1.438002776518e-02 -6.301428388680e-03 0.0 
1.137358489073e-02 -1.059564890673e-02 0.0 
1.450238392466e-02 -9.124407087849e-03 0.0 
1.159672479681e-02 -1.398059234805e-02 0.0 
8.297356492498e-03 -1.409200687361e-02 0.0 
8.593642645572e-03 -1.802530456005e-02 0.0 
5.294169041992e-03 -1.640459018046e-02 0.0 
5.794598041923e-03 -2.069392596006e-02 0.0 
2.595322186448e-03 -1.713589450990e-02 0.0 
2.104521008687e-02 2.042045270474e-02 0.0 
8.080147451675e-03 9.659332479652e-03 0.0 
6.810297770457e-03 9.832699175009e-03 0.0 
9.230009799690e-03 1.048076260486e-02 0.0 
-5.074011751383e-03 4.612069230330e-02 0.0 
-6.333148495554e-03 2.373216560895e-02 0.0 
-6.698558072117e-03 1.463225291571e-02 0.0 
-6.237713004412e-03 1.376561319063e-02 0.0 
1.267509952076e-03 9.410551311623e-03 0.0 
-3.560357062654e-03 5.510950593328e-02 0.0 
1.438289865498e-02 -1.189494571589e-02 0.0 
1.701871772517e-02 -6.041782341942e-03 0.0 
1.079987181217e-02 3.168855019280e-02 0.0 
1.060469959753e-02 3.491784080398e-02 0.0 
-5.322586129919e-03 1.259939298417e-02 0.0 
-3.854790990521e-03 5.796658362469e-02 0.0 
-7.488268255450e-03 1.804467188791e-02 0.0 
8.629089146261e-03 -2.213535521547e-02 0.0 
-6.023822539739e-03 2.709287118407e-02 0.0 
-5.149504154429e-03 2.277528133466e-02 0.0 
-1.024821023918e-02 2.610618960507e-02 0.0 
7.659728494545e-03 1.007625979796e-02 0.0 
9.957091131263e-03 1.105181057162e-02 0.0 
1.895694516435e-03 -1.300504852570e-02 0.0 
-5.966169968268e-04 -1.205735213022e-02 0.0 
3.481718440899e-04 -1.597404773400e-02 0.0 
-2.621319908208e-03 -9.055542810708e-03 0.0 
-3.536887618729e-03 -5.996073723519e-03 0.0 
-5.011862219453e-03 -2.242055508933e-03 0.0 
-3.691111165544e-03 -4.662508601064e-03 0.0 
-5.643868491930e-03 2.961261411560e-03 0.0 
-7.068410094890e-03 4.786661694520e-03 0.0 
-7.263289256414e-03 1.028721604401e-02 0.0 
-5.229523411323e-03 9.219520545280e-03 0.0 
-6.496152665372e-03 1.652075615107e-02 0.0 
-5.309576166035e-03 1.949529515887e-02 0.0 
6.184963898981e-03 -2.514357227202e-02 0.0 
2.227719133733e-02 3.936922102849e-02 0.0 
-5.651043323274e-03 1.285306263584e-02 0.0 
2.631210521354e-03 9.059935385110e-03 0.0 
9.197953164431e-03 2.874358248272e-02 0.0 
9.086492859993e-03 3.198053495577e-02 0.0 
1.025571368307e-02 3.813497240436e-02 0.0 
8.818293798718e-03 3.519012055588e-02 0.0 
7.614479782198e-03 2.879402409816e-02 0.0 
7.430944010011e-03 3.202201581094e-02 0.0 
8.412154360563e-03 3.835809728250e-02 0.0 
7.105563325574e-03 3.520449676706e-02 0.0 
7.885537656612e-03 4.146008166345e-02 0.0 
6.656059218095e-03 3.832377424957e-02 0.0 
5.860771086070e-03 3.184952260267e-02 0.0 
5.485510886885e-03 3.500516934865e-02 0.0 
6.100482154658e-03 4.137388868360e-02 0.0 
4.997849231827e-03 3.809243584438e-02 0.0 
5.454663971612e-03 4.433901993597e-02 0.0 
4.413332324944e-03 4.110079011929e-02 0.0 
3.964173637236e-03 3.464912619040e-02 0.0 
-1.721015137538e-03 5.933956668851e-02 0.0 
-3.778164618797e-04 9.814068668422e-03 0.0 
-3.939989849737e-04 9.501864532199e-03 0.0 
-7.254258585176e-03 5.109673564454e-02 0.0 
-7.518835652424e-03 4.825259726176e-02 0.0 
-8.803181339114e-03 4.429263047246e-02 0.0 
-7.425366730287e-03 4.522366827695e-02 0.0 
3.425398424426e-03 3.773947088992e-02 0.0 
3.011325704946e-03 3.106265052542e-02 0.0 
1.641539368344e-02 -7.975873087914e-03 0.0 
1.869681319341e-02 -1.523029474808e-03 0.0 
9.134496113006e-03 2.549286504811e-02 0.0 
-4.725231420911e-03 2.608830919374e-02 0.0 
-5.435066282868e-03 3.047984370609e-02 0.0 
2.509139105889e-02 2.004586161462e-02 0.0 
2.585532965857e-02 2.428933247993e-02 0.0 
2.532853819727e-02 2.044568480072e-02 0.0 
2.570188358759e-02 2.511009553744e-02 0.0 
2.612021550900e-02 2.890229251111e-02 0.0 
2.497669275961e-02 2.085183668361e-02 0.0 
-7.186332338906e-03 1.428659324020e-02 0.0 
4.694227470253e-03 2.831787831565e-02 0.0 
-7.091008640127e-03 4.042729532040e-02 0.0 
-4.245859164675e-03 4.132384327385e-02 0.0 
-3.956394138664e-03 2.142676043040e-02 0.0 
-4.342220169047e-04 9.364208330492e-03 0.0 
2.039771747265e-02 2.167795058972e-02 0.0 
1.872438247071e-02 1.894405400081e-02 0.0 
1.798020830037e-02 1.959735471827e-02 0.0 
1.625334083883e-02 1.708875460714e-02 0.0 
1.540046089059e-02 1.714339200442e-02 0.0 
1.364244964677e-02 1.482246030581e-02 0.0 
1.433889123387e-02 1.487439222425e-02 0.0 
8.077373427017e-03 1.005565457061e-02 0.0 
1.175165253822e-02 1.273353100347e-02 0.0 
3.807128406216e-03 4.406932615355e-02 0.0 
1.082973976274e-02 1.017135446321e-02 0.0 
-8.707521480533e-03 1.150536554022e-02 0.0 
-8.741725674204e-04 5.611021059456e-02 0.0 
-3.425594311846e-03 1.616597941496e-02 0.0 
-2.139280757272e-03 6.180005793971e-02 0.0 
-3.751989865389e-03 5.998217506218e-02 0.0 
-4.386568426742e-03 1.080411916126e-02 0.0 
1.261837249800e-02 1.427802612461e-02 0.0 
1.426203120381e-02 1.669204079617e-02 0.0 
2.555630337120e-02 3.019131636387e-02 0.0 
2.590690688578e-02 3.377294343487e-02 0.0 
6.048941045357e-03 8.981096937518e-03 0.0 
1.320376256517e-02 4.324287664644e-02 0.0 
9.159057715692e-03 4.439581968333e-02 0.0 
8.451087767760e-03 4.739874572525e-02 0.0 
1.126930942044e-04 6.284547251638e-02 0.0 
-2.222568380137e-03 8.453290295724e-03 0.0 
6.210873948511e-03 2.539022856556e-02 0.0 
1.935619292992e-02 -1.649329575777e-04 0.0 
2.067571137526e-02 4.630806280762e-03 0.0 
8.561063193586e-03 -2.637682268451e-02 0.0 
6.467960531182e-03 -2.995076514252e-02 0.0 
2.552218252106e-03 3.413030621242e-02 0.0 
2.176789170214e-03 2.732661098586e-02 0.0 
-8.592157296817e-03 4.135298303312e-02 0.0 
-7.123407014634e-03 4.187708391752e-02 0.0 
-3.903572018658e-03 1.083479132518e-02 0.0 
-4.767840369965e-03 2.314706584847e-02 0.0 
2.478544838667e-03 2.407932903241e-02 0.0 
-2.257181764126e-03 1.037373891109e-02 0.0 
-2.662165515344e-03 9.671942333926e-03 0.0 
-6.030137952975e-03 4.895513778281e-02 0.0 
1.748111072825e-02 -2.579057810501e-03 0.0 
1.534247706199e-02 -9.623574417109e-03 0.0 
-8.125570470259e-03 6.711494921275e-03 0.0 
-7.532494297628e-03 2.311448824109e-02 0.0 
-2.181465002891e-03 6.335236185828e-02 0.0 
-3.127631646903e-03 8.949707041729e-03 0.0 
6.150367947910e-03 2.210880641720e-02 0.0 
1.232189444485e-02 1.297465493035e-02 0.0 
1.472213231326e-02 1.449953300938e-02 0.0 
9.804315295352e-03 1.089662771872e-02 0.0 
-1.015792242324e-03 2.329422234379e-02 0.0 
-4.529944587031e-03 1.047851145840e-02 0.0 
-3.425994329170e-03 2.469204922050e-02 0.0 
1.143565303632e-02 1.344269871371e-02 0.0 
1.286144136615e-02 1.576369564229e-02 0.0 
2.139195337246e-02 5.523216620689e-03 0.0 
2.243279432253e-02 1.054179650723e-02 0.0 
2.113255312599e-02 1.027630368623e-02 0.0 
2.263599144257e-02 1.605386453701e-02 0.0 
2.043051417554e-02 4.263720619352e-02 0.0 
2.310835471280e-02 1.096751097063e-02 0.0 
2.355935536702e-02 3.911559985450e-02 0.0 
2.316505277200e-02 4.294060695307e-02 0.0 
2.422209746858e-02 4.232868614283e-02 0.0 
2.622029316808e-02 3.211892656619e-02 0.0 
2.593381040446e-02 3.681918427579e-02 0.0 
1.712015272724e-02 -1.606808904257e-03 0.0 
1.066436385302e-02 6.865299810716e-03 0.0 
-9.872583652942e-03 4.014689330553e-02 0.0 
-9.329485126877e-03 3.077519446567e-02 0.0 
-9.715860864794e-03 1.652698487383e-02 0.0 
4.866405978852e-03 2.506810318985e-02 0.0 
3.724186484128e-03 2.132523048153e-02 0.0 
6.544406349860e-03 4.741031571533e-02 0.0 
5.763786757967e-03 5.024031658409e-02 0.0 
-1.863013778298e-03 4.705812652994e-02 0.0 
-5.823965021259e-04 4.198765945454e-02 0.0 
-1.161630795265e-02 2.579792054416e-02 0.0 
-5.658070274249e-03 1.277183598169e-02 0.0 
7.490992990661e-03 2.227885959619e-02 0.0 
7.146458179861e-03 1.900986215206e-02 0.0 
8.877696758645e-03 2.223329583804e-02 0.0 
-2.536322158800e-03 9.276674955558e-03 0.0 
7.379054937470e-03 -6.846626382774e-03 0.0 
1.865588296436e-03 6.663693163960e-03 0.0 
4.166683180124e-03 -2.628751663923e-02 0.0 
1.931969827573e-02 1.611753466883e-02 0.0 
2.158344131311e-03 4.773373630379e-02 0.0 
1.797594982479e-02 2.514272415922e-02 0.0 
-2.794977491507e-03 1.973243031215e-02 0.0 
-3.136043322551e-03 1.648090955554e-02 0.0 
6.180206580343e-03 8.427393673372e-03 0.0 
2.035587189786e-02 5.017846859019e-02 0.0 
1.696385573390e-02 1.408139768005e-02 0.0 
1.650656981841e-02 1.222510871183e-02 0.0 
2.353538819339e-02 4.627203963612e-02 0.0 
2.434701547642e-02 4.533311871117e-02 0.0 
2.504660255456e-02 4.116911683593e-02 0.0 
2.491228548008e-02 4.386479965258e-02 0.0 
-9.709772007913e-03 1.271452061514e-02 0.0 
-9.917376465403e-03 1.760967739957e-02 0.0 
9.503283119290e-03 1.088518609984e-02 0.0 
9.074841429804e-03 1.016146652638e-02 0.0 
9.903594918619e-03 1.208256467988e-02 0.0 
1.120484799441e-02 1.431590460149e-02 0.0 
4.393887159736e-03 7.213143975804e-03 0.0 
4.188019076700e-03 8.016862273188e-03 0.0 
-3.254027087616e-03 6.117944629636e-02 0.0 
2.527145843685e-02 3.871827370673e-02 0.0 
4.746428972062e-03 1.846363684990e-02 0.0 
2.251464662285e-02 4.670333528613e-02 0.0 
-4.397341267905e-03 9.927201347388e-03 0.0 
-5.380364336098e-03 1.233487934410e-02 0.0 
4.907019238857e-03 -3.140597460841e-02 0.0 
2.507280190001e-03 -2.426017097773e-02 0.0 
1.711061384420e-03 2.031252069512e-02 0.0 
2.076903320823e-02 1.634551845553e-02 0.0 
2.214175728417e-02 2.177240745520e-02 0.0 
1.917500099998e-02 1.028363477556e-02 0.0 
-4.582388947405e-04 8.820985280053e-03 0.0 
1.544235452506e-03 6.107242773868e-02 0.0 
-2.110616110592e-03 1.452170509247e-02 0.0 
2.598525293934e-02 3.486197833274e-02 0.0 
1.823256774628e-03 1.666078310742e-02 0.0 
1.444838979881e-02 1.253074812430e-02 0.0 
2.439256439079e-02 1.617004879993e-02 0.0 
-3.055275514647e-03 1.062537970365e-02 0.0 
1.402264030538e-03 2.421539738492e-02 0.0 
1.037289408416e-03 1.611551389081e-02 0.0 
9.650438881231e-03 5.002468755456e-02 0.0 
8.809214667117e-03 5.300091434982e-02 0.0 
1.046350518531e-02 4.710864949247e-02 0.0 
1.106379245363e-02 -2.093559002561e-02 0.0 
1.027966586028e-02 -2.434374063295e-02 0.0 
3.621971830405e-03 2.462133778349e-02 0.0 
-6.590317712453e-03 5.375691933719e-02 0.0 
-5.594594836335e-03 5.491414786652e-02 0.0 
-5.713041605265e-03 2.945706611033e-02 0.0 
-8.314915543528e-03 2.916343750618e-02 0.0 
-9.499006318382e-03 3.741372861615e-02 0.0 
-1.064512868034e-02 3.598542371132e-02 0.0 
1.697851832505e-02 2.212436701753e-02 0.0 
1.548370873401e-02 2.128394780693e-02 0.0 
1.947560263350e-02 2.240578647575e-02 0.0 
-4.281224870352e-03 1.122625401981e-02 0.0 
-4.984875445345e-03 1.037756512857e-02 0.0 
-3.148473017268e-03 8.204237456239e-03 0.0 
3.718099807735e-03 1.821655165712e-02 0.0 
2.516349794128e-03 1.366823342119e-02 0.0 
-8.869370492647e-03 8.451777972111e-03 0.0 
-6.852817572149e-03 2.770343181276e-03 0.0 
-1.082192410579e-02 1.815705697516e-02 0.0 
4.448121741547e-03 1.526154391569e-02 0.0 
-2.267145305690e-03 1.140621081291e-02 0.0 
-3.224868790897e-03 1.341954712863e-02 0.0 
3.840016929985e-03 4.257341071639e-02 0.0 
7.950515320463e-04 3.631293401891e-02 0.0 
1.544990195157e-02 -3.225973311160e-03 0.0 
1.323397737881e-02 -1.080861454600e-02 0.0 
6.694448799202e-03 1.600192283341e-02 0.0 
8.433089940333e-03 1.904007801599e-02 0.0 
4.834937705247e-03 1.226697039723e-02 0.0 
-1.746853513586e-03 6.421359418324e-02 0.0 
1.254756849346e-02 1.281181919670e-02 0.0 
-1.894987664590e-03 7.306725358895e-03 0.0 
-1.236324231762e-03 7.909397996336e-03 0.0 
-2.108444254130e-03 6.186964375495e-03 0.0 
8.157148600244e-03 9.802759507473e-03 0.0 
5.927753829607e-03 7.670437755969e-03 0.0 
7.114057686973e-03 8.285378772037e-03 0.0 
6.268544695995e-03 -3.454584020238e-02 0.0 
7.852701845863e-04 1.920454171134e-02 0.0 
6.818981234829e-03 5.310459841441e-02 0.0 
5.973467743253e-03 -3.560890778646e-02 0.0 
5.913986757612e-03 5.597587551140e-02 0.0 
4.959412837309e-03 5.300103393805e-02 0.0 
5.115126573493e-03 5.867592364133e-02 0.0 
-9.392770157908e-04 6.604924653230e-02 0.0 
1.098217201495e-02 5.338478895761e-02 0.0 
1.188431585049e-02 4.975517244949e-02 0.0 
6.637291836276e-03 3.679647620465e-02 0.0 
3.069328287573e-03 1.147636989998e-02 0.0 
6.354067136129e-03 4.776553686588e-02 0.0 
4.404489001210e-03 5.237101402674e-02 0.0 
-3.932201071853e-03 8.906970741382e-03 0.0 
-4.850638363148e-03 1.150665341209e-02 0.0 
-3.305254836681e-03 7.622655791263e-03 0.0 
-4.225339996273e-03 1.052790736388e-02 0.0 
-5.605491577836e-03 1.436291597729e-02 0.0 
-4.807478423038e-03 1.331250622638e-02 0.0 
7.967465109843e-03 5.621160478537e-02 0.0 
-3.190908921931e-03 8.380582986106e-03 0.0 
-3.885924870855e-03 1.179325640086e-02 0.0 
-2.325769204678e-03 6.748244171959e-03 0.0 
2.388609993303e-02 4.830535285265e-02 0.0 
2.380710680354e-02 2.114506331956e-02 0.0 
2.324983423536e-02 2.683144587346e-02 0.0 
2.103818765683e-02 2.799322318862e-02 0.0 
7.430806623965e-03 9.341672266192e-03 0.0 
9.531354703061e-03 1.266338691894e-02 0.0 
-2.168626688847e-03 2.284888869257e-02 0.0 
-2.530749402950e-03 2.782725747444e-02 0.0 
4.103033044281e-03 5.606452846028e-02 0.0 
3.002305094192e-03 5.642487484527e-02 0.0 
3.283803321551e-03 5.132961213919e-02 0.0 
2.375731646943e-03 5.205287735866e-02 0.0 
2.556020466372e-03 4.679172303041e-02 0.0 
1.649925566085e-03 4.754529700969e-02 0.0 
1.951176100739e-03 4.201236139901e-02 0.0 
6.132139523562e-03 7.069851397564e-03 0.0 
1.807939636239e-02 1.630959835492e-02 0.0 
2.258694330029e-02 5.017372182100e-02 0.0 
2.814095755109e-03 6.050969551310e-03 0.0 
2.696562673691e-03 7.280382907094e-03 0.0 
2.525915587703e-02 4.152933011932e-02 0.0 
2.424502973047e-02 4.368726295113e-02 0.0 
-3.118471254366e-03 7.161257331656e-03 0.0 
2.163995764311e-02 6.619902253715e-03 0.0 
2.250219261420e-03 7.307163839901e-03 0.0 
3.561613284667e-03 -2.984297278068e-02 0.0 
7.743937537757e-03 -2.959627708025e-02 0.0 
2.325438444458e-02 1.159756314627e-02 0.0 
2.562862993944e-02 3.936363905323e-02 0.0 
2.481911517911e-02 2.591185694726e-02 0.0 
2.433201951478e-02 3.158864847075e-02 0.0 
-3.657058441396e-03 1.131726186789e-02 0.0 
2.515599707635e-03 3.006502521770e-02 0.0 
1.740141760602e-02 3.743235519104e-03 0.0 
2.827693691827e-03 4.130439673446e-02 0.0 
1.450217544284e-02 3.277333078300e-03 0.0 
-1.166588534695e-03 2.542344995524e-02 0.0 
1.948087322511e-02 3.191053125599e-03 0.0 
2.593163716886e-02 3.047262587523e-02 0.0 
1.941121597001e-02 4.019242812356e-03 0.0 
2.391939575427e-02 1.611774790508e-02 0.0 
2.080949750270e-02 3.909603747557e-02 0.0 
1.982714241522e-02 4.610245580113e-02 0.0 
2.121458925002e-02 4.673937621980e-02 0.0 
1.667179585050e-02 7.122356442917e-04 0.0 
2.497944651726e-02 3.545722170039e-02 0.0 
2.332006140197e-02 3.741504040583e-02 0.0 
2.365105988132e-02 3.530107801403e-02 0.0 
1.064688959014e-02 2.517177999431e-02 0.0 
1.025947939057e-02 2.193006560523e-02 0.0 
7.843943624501e-03 1.605138770172e-02 0.0 
9.671473742301e-03 1.879460908328e-02 0.0 
1.210593673063e-02 2.454962195639e-02 0.0 
1.156928047203e-02 2.138153622727e-02 0.0 
8.885807553987e-03 1.580785737947e-02 0.0 
1.081656861412e-02 1.830994339648e-02 0.0 
7.215215714940e-03 1.172722888886e-02 0.0 
9.761609577840e-03 1.522834178878e-02 0.0 
1.275075301551e-02 2.060855519728e-02 0.0 
1.185066457836e-02 1.774003275481e-02 0.0 
8.966058276894e-03 1.303724673568e-02 0.0 
1.471264338225e-02 2.279014986488e-02 0.0 
2.699037953377e-03 4.850742170674e-03 0.0 
2.286602185198e-02 1.240193113997e-02 0.0 
8.032043631992e-03 -3.066899020938e-02 0.0 
9.872204608126e-03 -2.121693923984e-02 0.0 
2.545564824998e-02 3.273220928125e-02 0.0 
3.565633296702e-03 5.843652328384e-03 0.0 
3.115463775103e-03 6.074213855669e-03 0.0 
1.721293605326e-02 -3.901389699541e-03 0.0 
3.689073892737e-03 4.465143178521e-03 0.0 
2.187288288453e-02 4.307187982164e-02 0.0 
1.152130730458e-02 -1.745674880774e-02 0.0 
3.508933839267e-03 4.046813360368e-03 0.0 
1.242240695817e-02 2.777011488366e-02 0.0 
1.420339738246e-02 3.016496170837e-02 0.0 
1.423476309876e-02 3.342507264724e-02 0.0 
2.533364251036e-03 5.892623031322e-03 0.0 
1.117428648519e-02 4.404238298682e-02 0.0 
2.266757792327e-03 3.109370533871e-03 0.0 
9.379980115842e-03 8.696825036811e-03 0.0 
1.251833800110e-02 9.060446398747e-03 0.0 
1.391400929367e-02 7.329485888555e-03 0.0 
1.348199462738e-02 2.378611155876e-02 0.0 
7.229008989462e-04 2.944813430179e-03 0.0 
9.249341900208e-04 5.267529647142e-03 0.0 
8.380563424559e-05 5.325059225555e-03 0.0 
7.354016355485e-04 7.259801038330e-03 0.0 
-1.791455024200e-04 3.007769513069e-03 0.0 
3.460457780687e-03 4.904213060129e-03 0.0 
3.361610805335e-03 4.478122157899e-03 0.0 
-6.035885924977e-03 3.082060423187e-04 0.0 
-4.340657429504e-03 -2.926998355639e-03 0.0 
-5.000520000557e-03 -8.757862988151e-05 0.0 
-2.067966211106e-03 -4.944174908291e-03 0.0 
-1.358387196635e-03 -8.362315535304e-03 0.0 
1.248098300906e-03 -9.187186594007e-03 0.0 
6.576346018861e-04 -5.649950632034e-03 0.0 
4.777259329462e-03 -1.239583516664e-02 0.0 
1.261097602679e-02 1.706737765744e-02 0.0 
-9.084867345237e-04 3.090240105248e-03 0.0 
-8.799311368422e-03 1.643633852848e-02 0.0 
-8.152316632007e-03 1.417864848032e-02 0.0 
-8.860116633125e-03 1.357782822063e-02 0.0 
-1.090203761689e-02 3.822480700170e-02 0.0 
-1.152125116493e-02 3.387684784700e-02 0.0 
-1.107122806591e-02 3.192028625998e-02 0.0 
-9.938779802097e-03 4.264338530415e-02 0.0 
1.681311492593e-02 1.655033887776e-02 0.0 
-1.242146310371e-03 3.249210517190e-03 0.0 
-6.163213906820e-04 8.122939727757e-03 0.0 
-1.206774994993e-02 3.105374129832e-02 0.0 
1.447668418918e-02 5.635947335967e-02 0.0 
1.486670313484e-02 5.163550681885e-02 0.0 
1.609923251544e-02 5.044916051086e-02 0.0 
1.483858366265e-02 4.607200784929e-02 0.0 
1.336806004580e-02 5.213177752576e-02 0.0 
-8.148155023430e-03 3.816646579111e-02 0.0 
-6.660520306575e-03 3.828924950706e-02 0.0 
-5.530245186765e-03 4.176688939704e-02 0.0 
-5.093952365187e-03 3.783633358153e-02 0.0 
-3.878199141669e-03 4.107175482953e-02 0.0 
-4.207933720026e-03 4.495610671231e-02 0.0 
-3.468875853522e-03 3.688043018503e-02 0.0 
-2.250329781381e-03 4.033452311690e-02 0.0 
1.179713788026e-02 5.814275951097e-02 0.0 
9.216925240249e-03 -1.664291241409e-02 0.0 
4.085628164905e-03 -9.854757854505e-03 0.0 
5.128745569122e-03 2.121647788089e-03 0.0 
7.451327203096e-04 -3.629753012433e-03 0.0 
9.295297159966e-04 -1.382724117456e-02 0.0 
-1.959784567013e-03 -7.079724866676e-03 0.0 
-1.918383661064e-04 -1.575182747452e-02 0.0 
3.659514494627e-03 -2.183471041642e-02 0.0 
1.181237411748e-02 7.904928119230e-03 0.0 
6.004231869502e-03 1.213158410673e-02 0.0 
1.243474345551e-02 1.722436597857e-02 0.0 
6.834605316353e-03 2.093882280151e-02 0.0 
1.021360937042e-03 1.611770577866e-02 0.0 
-3.316027354728e-03 3.583820063605e-02 0.0 
-1.219750177588e-03 5.638735220021e-03 0.0 
-1.683432029068e-03 5.187705916311e-02 0.0 
-3.238067512043e-03 5.308111263793e-02 0.0 
-3.081037526858e-03 5.644812434737e-02 0.0 
-4.813568687239e-03 5.335725338953e-02 0.0 
-3.155987370187e-03 4.973808358569e-02 0.0 
-1.480985306888e-03 5.897574661483e-02 0.0 
-2.759153995972e-03 5.930905930068e-02 0.0 
4.926458796297e-03 6.722145641590e-02 0.0 
2.653348087755e-03 6.841607652707e-02 0.0 
1.332020209968e-03 6.980072930503e-02 0.0 
1.060410651427e-03 6.888117677732e-02 0.0 
1.768487110104e-03 6.718320730872e-02 0.0 
3.880966781820e-03 6.626986100818e-02 0.0 
5.019847207479e-03 6.332479601692e-02 0.0 
8.356835548123e-03 6.142777131826e-02 0.0 
5.953575983258e-03 5.969017764336e-02 0.0 
2.750122326320e-03 6.142001757742e-02 0.0 
9.814708059045e-03 5.755168237477e-02 0.0 
6.279545624750e-04 3.353986234993e-02 0.0 
1.192692789196e-03 3.013859453927e-02 0.0 
-1.750986912370e-03 3.812825887799e-03 0.0 
9.200846771002e-03 5.897133511289e-02 0.0 
1.278279373189e-02 3.342197821392e-02 0.0 
9.529005286950e-04 8.145820595935e-03 0.0 
1.386069540224e-03 6.671772489565e-03 0.0 
1.141321848792e-03 6.502915552343e-03 0.0 
-7.328656823888e-04 1.464434523334e-02 0.0 
-1.184012541507e-03 1.184193537973e-02 0.0 
5.253502530920e-04 7.959771501412e-03 0.0 
-9.140733109288e-03 3.948546354738e-02 0.0 
7.058591778609e-03 1.319150505260e-02 0.0 
2.657983953746e-03 2.076321152994e-02 0.0 
1.385476990076e-02 -1.451322639566e-02 0.0 
-9.445046895303e-03 2.312903775420e-02 0.0 
-3.960928210506e-03 2.937789208158e-02 0.0 
-9.431700536038e-03 2.717326920176e-02 0.0 
-4.225960420158e-03 1.819269554732e-02 0.0 
-6.819851059110e-03 3.111095756495e-02 0.0 
-6.349691491057e-03 2.045739575844e-02 0.0 
-7.946323727559e-04 5.650260065508e-03 0.0 
-7.725752092029e-04 6.485426713320e-02 0.0 
7.256595995962e-03 4.447948457904e-02 0.0 
4.777751836706e-03 4.722883748037e-02 0.0 
4.388632658497e-03 3.151643881553e-02 0.0 
-7.237735583535e-03 5.164056479601e-02 0.0 
-5.897657011374e-03 4.523806729297e-02 0.0 
-2.920489831792e-03 5.143113890235e-02 0.0 
6.548266936313e-03 7.620295453570e-03 0.0 
2.461368429665e-02 3.835295164153e-02 0.0 
-1.031736842126e-02 1.620220907851e-02 0.0 
-1.079564150469e-02 4.022818325709e-02 0.0 
-1.045229780959e-02 3.391572523343e-02 0.0 
-8.511272785867e-03 1.703777370846e-02 0.0 
2.382922903552e-02 1.628780795135e-02 0.0 
-1.210309527046e-02 2.679520610369e-02 0.0 
-7.858733888208e-03 1.774323966769e-02 0.0 
3.380034173411e-03 2.787316501671e-02 0.0 
1.131510789148e-02 4.732566150227e-02 0.0 
-6.833272665549e-03 1.515564864421e-02 0.0 
-1.081445623377e-02 2.446074641001e-02 0.0 
9.770092132094e-03 4.130851097369e-02 0.0 
4.588463709624e-03 9.380564214508e-03 0.0 
-3.871625304011e-03 1.589008856791e-03 0.0 
6.110443598203e-03 2.864984906866e-02 0.0 
5.589001188170e-03 1.594562712017e-02 0.0 
1.257445401782e-02 4.651033904440e-02 0.0 
5.925041902808e-04 5.236882124600e-02 0.0 
7.685433177265e-03 5.038043258004e-02 0.0 
-3.354269738860e-03 8.364537492302e-03 0.0 
1.081814639449e-02 2.842298528068e-02 0.0 
-5.488409720980e-03 5.603981441166e-02 0.0 
2.137731649167e-03 4.210704189942e-03 0.0 
2.543088832894e-02 2.636576194356e-02 0.0 
2.040165968953e-02 5.399573532415e-02 0.0 
2.720621800925e-03 1.766974799016e-02 0.0 
1.834102679370e-02 1.151296132648e-02 0.0 
9.718369505514e-04 8.746995181831e-03 0.0 
1.770605920566e-03 8.416072423470e-03 0.0 
-4.923894726362e-03 5.763500507175e-02 0.0 
-6.238055985165e-03 1.501211182972e-02 0.0 
1.167117928161e-02 4.509611824217e-03 0.0 
4.899396565605e-03 2.182206703654e-02 0.0 
1.697446140944e-02 1.972421973647e-02 0.0 
6.764716962927e-03 -3.458307179496e-03 0.0 
7.640506624419e-03 2.554469025292e-02 0.0 
-7.511779161289e-03 1.041025486957e-02 0.0 
5.521373930929e-03 9.279556547021e-03 0.0 
2.543619553001e-02 3.693106308476e-02 0.0 
2.175619789951e-02 2.472752581177e-02 0.0 
1.869809040879e-02 2.830449295564e-02 0.0 
2.135409885878e-02 1.862611799377e-02 0.0 
-2.822065547493e-03 3.263142716577e-02 0.0 
-6.667505786588e-03 1.528813082319e-02 0.0 
3.509809417491e-03 -2.161189027813e-02 0.0 
2.445004873400e-02 1.608870133473e-02 0.0 
1.172262086304e-02 4.082284358342e-02 0.0 
1.093530539605e-02 1.217975768397e-02 0.0 
3.451616663895e-03 1.465405956859e-02 0.0 
2.606348823749e-02 2.765151564037e-02 0.0 
-6.889436601298e-03 1.790897362809e-02 0.0 
5.957677919213e-03 1.902715866927e-02 0.0 
-1.176598737352e-02 2.970054375803e-02 0.0 
-5.192941910416e-04 6.693544331254e-02 0.0 
1.304235639565e-02 -1.683461844300e-02 0.0 
7.886603976175e-03 -1.039394560171e-02 0.0 
1.698076139664e-02 8.537631074907e-03 0.0 
-1.113337858370e-02 2.806261909114e-02 0.0 
5.707216625616e-03 1.216096718184e-02 0.0 
-6.108491116061e-03 1.733920156991e-02 0.0 
-4.654186497676e-03 1.206173772059e-02 0.0 
8.091624597967e-03 -4.596608507402e-03 0.0 
2.159954887665e-02 5.034257153737e-02 0.0 
-5.195848216609e-03 1.635202521627e-02 0.0 
-7.984808702783e-04 6.146314578301e-03 0.0 
3.614860258750e-03 8.628587080654e-03 0.0 
-2.547217973373e-03 4.411950552265e-02 0.0 
6.313705458634e-03 7.260142753751e-03 0.0 
2.427054824296e-02 4.615712658359e-02 0.0 
-4.206794288842e-03 1.498615488463e-02 0.0 
-1.934621365454e-03 1.030505357028e-02 0.0 
1.960564795875e-02 1.423174252160e-03 0.0 
2.559946726457e-03 6.099504388454e-02 0.0 
-2.739914240935e-03 9.371007471433e-03 0.0 
-1.599600768216e-03 9.414747631684e-03 0.0 
1.919355609809e-02 1.777761136539e-02 0.0 
-3.381831651227e-03 6.318349810012e-03 0.0 
2.203227890204e-02 5.364158711427e-02 0.0 
-1.034739133097e-02 2.970990382711e-02 0.0 
2.069420923711e-02 2.543151055329e-02 0.0 
2.261952847022e-03 5.843769164851e-03 0.0 
-3.239290740105e-04 8.418730404610e-03 0.0 
1.594659723603e-02 3.557105770585e-02 0.0 
-1.009620022424e-02 3.350534383291e-02 0.0 
1.183826544676e-02 1.135861782526e-02 0.0 
2.381016280016e-03 6.469736774316e-02 0.0 
2.333432251055e-02 4.949742747308e-02 0.0 
-8.894686005784e-03 3.444632686483e-02 0.0 
4.233739237758e-03 -8.640597161941e-03 0.0 
-5.468208524663e-03 8.954983931819e-03 0.0 
4.273157485361e-03 6.275343165825e-03 0.0 
-7.539170592473e-03 3.475938537525e-02 0.0 
3.673943558937e-03 -5.054943005790e-03 0.0 
-6.085086629841e-03 3.450656558543e-02 0.0 
2.285178285130e-02 5.124232653330e-02 0.0 
1.594396672718e-02 3.218291302479e-02 0.0 
-4.526880309175e-03 3.377198817130e-02 0.0 
1.832678191312e-02 2.252791503068e-02 0.0 
2.861585325940e-03 5.719110686629e-02 0.0 
1.706370594669e-02 1.554616936026e-02 0.0 
-1.684049656742e-03 1.740817624943e-02 0.0 
-1.158908824089e-02 2.336605029094e-02 0.0 
-7.058596936311e-03 1.161983183789e-02 0.0 
1.394897604177e-02 2.693253285425e-02 0.0 
2.261504812219e-02 4.705137602886e-02 0.0 
-6.277935818302e-03 1.243904597395e-02 0.0 
1.573893106158e-02 1.932904629190e-02 0.0 
1.478474739942e-02 1.372303104367e-02 0.0 
1.554355564517e-02 9.972168254352e-03 0.0 
-5.436216073928e-03 1.261142616297e-02 0.0 
2.401833402155e-02 4.069548983815e-02 0.0 
-8.756228660644e-03 3.482887330252e-02 0.0 
-6.481577057899e-03 3.529068643112e-02 0.0 
1.599368195464e-04 -2.294157714463e-03 0.0 
1.426521213268e-02 1.842376605269e-02 0.0 
2.528066677669e-04 6.719688221599e-02 0.0 
1.532360128006e-02 2.576376948424e-02 0.0 
-2.198935817384e-03 2.981244400759e-02 0.0 
-2.619756271745e-03 -1.784804057285e-03 0.0 
1.021288575362e-02 1.129851509288e-02 0.0 
7.489538848517e-04 4.606244357642e-02 0.0 
-5.443540048725e-03 2.621365591247e-03 0.0 
-9.066096967162e-04 6.472047139548e-02 0.0 
-7.426533688646e-03 5.024016915778e-03 0.0 
1.371134661457e-02 1.098672688399e-02 0.0 
-9.272444107667e-03 1.003465703777e-02 0.0 
-1.032811703811e-02 1.370549462768e-02 0.0 
1.842550516038e-03 1.367540454391e-02 0.0 
-1.134519939177e-02 1.867931555247e-02 0.0 
2.604154181043e-04 6.613905044556e-03 0.0 
-5.348653571646e-04 5.281767080326e-03 0.0 
9.727452007624e-04 5.721890727383e-02 0.0 
2.105076181303e-02 4.138802535779e-02 0.0 
6.106222248867e-03 -3.946348920899e-02 0.0 
2.267526172530e-02 3.213463096273e-02 0.0 
-1.074945931206e-02 2.318144742157e-02 0.0 
1.642812669959e-02 2.423758634781e-02 0.0 
2.020957720596e-03 5.691629483705e-02 0.0 
-1.007099850533e-02 2.881994717441e-02 0.0 
6.623727784792e-03 9.884360714366e-03 0.0 
2.854265621028e-03 3.387793533605e-03 0.0 
1.348908395336e-03 3.646203302187e-02 0.0 
2.043452757402e-03 8.095514483699e-03 0.0 
1.235261737525e-02 1.224486950571e-02 0.0 
3.890980965267e-04 1.995175249197e-02 0.0 
5.927803753799e-03 6.083265148362e-02 0.0 
7.465336185531e-03 2.905638970311e-02 0.0 
-1.351615997619e-03 3.048420413909e-02 0.0 
1.866481997459e-02 3.280982583012e-02 0.0 
1.956089046029e-02 2.209096342292e-02 0.0 
1.623750069644e-02 9.970765770753e-03 0.0 
-3.952820367356e-03 5.870912723516e-02 0.0 
1.311371230166e-03 6.691139376670e-03 0.0 
1.623702343478e-02 2.234951504861e-02 0.0 
1.720171008891e-03 5.431140484966e-03 0.0 
9.861135768318e-03 5.497159273188e-02 0.0 
1.034409830828e-02 1.138397300609e-02 0.0 
1.246696273897e-02 1.003360815476e-02 0.0 
4.088632869930e-03 1.253708705944e-02 0.0 
5.052283130468e-03 6.306844724481e-03 0.0 
-1.667814038079e-03 3.756550189323e-03 0.0 
7.802067180386e-03 9.196067062739e-03 0.0 
1.247627684574e-02 -4.163476248378e-03 0.0 
1.382775131322e-02 4.800816728025e-02 0.0 
6.669278246623e-03 7.998542956216e-03 0.0 
1.818334995484e-03 3.107749911156e-02 0.0 
-1.497769770900e-03 3.903818316786e-03 0.0 
1.226768249596e-02 5.422647021999e-02 0.0 
1.142988228345e-03 1.285331451077e-02 0.0 
1.762452282350e-03 -2.056268029400e-02 0.0 
5.845263141921e-04 1.251914918701e-02 0.0 
1.375520626278e-02 1.980346603785e-02 0.0 
4.124361053876e-03 5.000908962332e-02 0.0 
1.615510672175e-02 4.628681111040e-02 0.0 
-1.406846062225e-03 9.129080391475e-03 0.0 
6.150480516744e-03 1.069849805033e-02 0.0 
1.032644138825e-02 -1.336358586882e-02 0.0 
2.107510784498e-03 3.706564815604e-02 0.0 
-6.316300722284e-03 5.146543327726e-02 0.0 
5.097792606836e-03 -3.116050437433e-02 0.0 
-3.109696541625e-03 6.953539717134e-03 0.0 
1.084461816800e-02 1.522734101769e-02 0.0 
-2.191611125720e-03 8.985216216001e-03 0.0 
5.199524846274e-04 6.964973601428e-02 0.0 
8.256755651900e-03 4.321160916972e-02 0.0 
-2.314727001282e-03 5.779907997997e-03 0.0 
6.362643105600e-03 8.406478483785e-03 0.0 
-1.795439676066e-03 -1.133556008810e-02 0.0 
1.417412192794e-03 5.152193718633e-03 0.0 
6.917483801654e-03 -2.251097390379e-02 0.0 
8.078804677076e-03 6.074144447102e-02 0.0 
6.984897839538e-03 5.578840517942e-02 0.0 
-1.321134211355e-03 4.146342418231e-03 0.0 
2.589139216219e-03 1.205751285450e-02 0.0 
-4.447392918502e-03 5.058172579578e-02 0.0 
1.700339205721e-02 5.359918806055e-02 0.0 
-2.279615772191e-03 6.206245751978e-02 0.0 
8.376442833658e-03 9.489865468904e-03 0.0 
2.991569760150e-03 2.397302394549e-02 0.0 
1.818361191546e-03 1.152574711580e-02 0.0 
-1.246165290917e-03 5.104077609118e-03 0.0 
4.602228491045e-03 1.052791127613e-02 0.0 
1.173652224903e-03 2.274908717737e-03 0.0 
6.552404395517e-03 -3.497202915440e-02 0.0 
4.801069145447e-03 5.731655822924e-03 0.0 
-3.233503072710e-04 6.979827711213e-03 0.0 
4.451609380617e-03 6.133761049194e-02 0.0 
5.552999029000e-03 1.085628155705e-02 0.0 
-4.210960896128e-03 5.645098842732e-02 0.0 
4.550157082903e-04 5.973114804860e-02 0.0 
1.118895385588e-04 5.870804733917e-03 0.0 
1.566201420320e-03 6.946964361316e-02 0.0 
7.507046200175e-04 6.166853903554e-02 0.0 
-2.072859028106e-04 4.343605190652e-03 0.0 
7.086226024793e-04 6.558234926630e-02 0.0 
1.608958969889e-03 5.320533856457e-02 0.0 
6.045206648263e-03 8.451889442775e-03 0.0 
-1.111434827364e-03 4.376557192879e-02 0.0 
9.009006515797e-04 2.463617415706e-02 0.0 
-1.485209722526e-03 1.516000249410e-03 0.0 
8.194323676598e-03 -3.775858142533e-02 0.0 
1.291063948244e-03 4.298258969604e-02 0.0 
4.005467721065e-03 5.473139863113e-03 0.0 
3.738154891785e-03 1.039712865945e-02 0.0 
3.313628972258e-03 4.691612270437e-02 0.0 
1.173381900863e-02 -1.720430009975e-02 0.0 
8.411736596354e-03 1.160823313197e-02 0.0 
-4.617507866343e-03 4.763033713730e-02 0.0 
8.890527504899e-03 1.050504582892e-02 0.0 
1.630196705882e-03 6.811547531516e-03 0.0 
2.743391088835e-03 -2.107848881407e-02 0.0 
-9.438970046816e-04 3.952641990633e-02 0.0 
7.911351341268e-03 5.156272099279e-02 0.0 
-2.942191856544e-03 7.091772712922e-03 0.0 
-3.047378142695e-03 4.679537999781e-02 0.0 
-3.455532503459e-03 -5.841762737799e-03 0.0 
1.431202276265e-04 8.870667138274e-02 0.0 
3.515229523792e-03 9.033592102928e-03 0.0 
2.053967299886e-04 8.827596104417e-02 0.0 
8.896741369167e-03 2.171748534084e-02 0.0 
2.463008754674e-04 8.735005463697e-02 0.0 
1.321258444324e-02 3.264642084841e-02 0.0 
3.110129846320e-04 8.593751723953e-02 0.0 
1.662007625828e-02 4.196231153609e-02 0.0 
3.410069222127e-04 8.403320536405e-02 0.0 
1.897821403730e-02 4.932100987248e-02 0.0 
4.016048699356e-04 8.165057551771e-02 0.0 
2.025717698294e-02 5.463490709014e-02 0.0 
4.131532489424e-04 7.879540395518e-02 0.0 
2.046948263626e-02 5.787029024286e-02 0.0 
4.638026743891e-04 7.547489031297e-02 0.0 
1.975553581931e-02 5.918790547810e-02 0.0 
4.658307552248e-04 7.169654970493e-02 0.0 
1.826962242679e-02 5.881953443172e-02 0.0 
4.996649698157e-04 6.747199276647e-02 0.0 

VECTORS node_bounda_dof_materi_velocity_x float
1.000000000000e+00 0.0 0.0 
1.000000000000e+00 0.0 0.0 
1.000000000000e+00 0.0 0.0 
1.000000000000e+00 0.0 0.0 
1.000000000000e+00 0.0 0.0 
1.000000000000e+00 0.0 0.0 
1.000000000000e+00 0.0 0.0 
1.000000000000e+00 0.0 0.0 
1.000000000000e+00 0.0 0.0 
1.000000000000e+00 0.0 0.0 
1.000000000000e+00 0.0 0.0 
1.000000000000e+00 0.0 0.0 
1.000000000000e+00 0.0 0.0 
1.000000000000e+00 0.0 0.0 
1.000000000000e+00 0.0 0.0 
1.000000000000e+00 0.0 0.0 
1.000000000000e+00 0.0 0.0 
1.000000000000e+00 0.0 0.0 
1.000000000000e+00 0.0 0.0 
1.000000000000e+00 0.0 0.0 
1.000000000000e+00 0.0 0.0 
1.000000000000e+00 0.0 0.0 
1.000000000000e+00 0.0 0.0 
1.000000000000e+00 0.0 0.0 
1.000000000000e+00 0.0 0.0 
1.000000000000e+00 0.0 0.0 
1.000000000000e+00 0.0 0.0 
1.000000000000e+00 0.0 0.0 
1.000000000000e+00 0.0 0.0 
1.000000000000e+00 0.0 0.0 
1.000000000000e+00 0.0 0.0 
1.000000000000e+00 0.0 0.0 
1.000000000000e+00 0.0 0.0 
1.000000000000e+00 0.0 0.0 
1.000000000000e+00 0.0 0.0 
1.000000000000e+00 0.0 0.0 
1.000000000000e+00 0.0 0.0 
1.000000000000e+00 0.0 0.0 
1.000000000000e+00 0.0 0.0 
1.000000000000e+00 0.0 0.0 
1.000000000000e+00 0.0 0.0 
1.000000000000e+00 0.0 0.0 
1.000000000000e+00 0.0 0.0 
1.000000000000e+00 0.0 0.0 
1.000000000000e+00 0.0 0.0 
1.000000000000e+00 0.0 0.0 
1.000000000000e+00 0.0 0.0 
1.000000000000e+00 0.0 0.0 
1.000000000000e+00 0.0 0.0 
1.000000000000e+00 0.0 0.0 
1.000000000000e+00 0.0 0.0 
1.000000000000e+00 0.0 0.0 
1.000000000000e+00 0.0 0.0 
1.000000000000e+00 0.0 0.0 
1.000000000000e+00 0.0 0.0 
1.000000000000e+00 0.0 0.0 
1.000000000000e+00 0.0 0.0 
1.000000000000e+00 0.0 0.0 
1.000000000000e+00 0.0 0.0 
1.000000000000e+00 0.0 0.0 
1.000000000000e+00 0.0 0.0 
1.000000000000e+00 0.0 0.0 
1.000000000000e+00 0.0 0.0 
1.000000000000e+00 0.0 0.0 
1.000000000000e+00 0.0 0.0 
1.000000000000e+00 0.0 0.0 
1.000000000000e+00 0.0 0.0 
1.000000000000e+00 0.0 0.0 
1.000000000000e+00 0.0 0.0 
1.000000000000e+00 0.0 0.0 
1.000000000000e+00 0.0 0.0 
1.000000000000e+00 0.0 0.0 
1.000000000000e+00 0.0 0.0 
1.000000000000e+00 0.0 0.0 
1.000000000000e+00 0.0 0.0 
1.000000000000e+00 0.0 0.0 
1.000000000000e+00 0.0 0.0 
1.000000000000e+00 0.0 0.0 
1.000000000000e+00 0.0 0.0 
1.000000000000e+00 0.0 0.0 
1.000000000000e+00 0.0 0.0 
0.0 0.0 0.0 
1.000000000000e+00 0.0 0.0 
0.0 0.0 0.0 
0.0 0.0 0.0 
0.0 0.0 0.0 
0.0 0.0 0.0 
0.0 0.0 0.0 
0.0 0.0 0.0 
0.0 0.0 0.0 
0.0 0.0 0.0 
0.0 0.0 0.0 
0.0 0.0 0.0 
1.000000000000e+00 0.0 0.0 
1.000000000000e+00 0.0 0.0 
1.000000000000e+00 0.0 0.0 
1.000000000000e+00 0.0 0.0 
1.000000000000e+00 0.0 0.0 
1.000000000000e+00 0.0 0.0 
1.000000000000e+00 0.0 0.0 
1.000000000000e+00 0.0 0.0 
1.000000000000e+00 0.0 0.0 
0.0 0.0 0.0 
0.0 0.0 0.0 
0.0 0.0 0.0 
0.0 0.0 0.0 
0.0 0.0 0.0 
0.0 0.0 0.0 
0.0 0.0 0.0 
0.0 0.0 0.0 
0.0 0.0 0.0 
0.0 0.0 0.0 
0.0 0.0 0.0 
0.0 0.0 0.0 
0.0 0.0 0.0 
0.0 0.0 0.0 
0.0 0.0 0.0 
0.0 0.0 0.0 
0.0 0.0 0.0 
0.0 0.0 0.0 
0.0 0.0 0.0 
0.0 0.0 0.0 
0.0 0.0 0.0 
0.0 0.0 0.0 
0.0 0.0 0.0 
0.0 0.0 0.0 
0.0 0.0 0.0 
0.0 0.0 0.0 
0.0 0.0 0.0 
0.0 0.0 0.0 
0.0 0.0 0.0 
0.0 0.0 0.0 
0.0 0.0 0.0 
0.0 0.0 0.0 
0.0 0.0 0.0 
0.0 0.0 0.0 
0.0 0.0 0.0 
0.0 0.0 0.0 
0.0 0.0 0.0 
0.0 0.0 0.0 
0.0 0.0 0.0 
0.0 0.0 0.0 
0.0 0.0 0.0 
0.0 0.0 0.0 
0.0 0.0 0.0 
0.0 0.0 0.0 
0.0 0.0 0.0 
0.0 0.0 0.0 
0.0 0.0 0.0 
0.0 0.0 0.0 
0.0 0.0 0.0 
0.0 0.0 0.0 
0.0 0.0 0.0 
0.0 0.0 0.0 
0.0 0.0 0.0 
0.0 0.0 0.0 
0.0 0.0 0.0 
0.0 0.0 0.0 
0.0 0.0 0.0 
0.0 0.0 0.0 
0.0 0.0 0.0 
0.0 0.0 0.0 
0.0 0.0 0.0 
0.0 0.0 0.0 
0.0 0.0 0.0 
0.0 0.0 0.0 
0.0 0.0 0.0 
0.0 0.0 0.0 
0.0 0.0 0.0 
0.0 0.0 0.0 
0.0 0.0 0.0 
0.0 0.0 0.0 
0.0 0.0 0.0 
0.0 0.0 0.0 
0.0 0.0 0.0 
0.0 0.0 0.0 
0.0 0.0 0.0 
0.0 0.0 0.0 
0.0 0.0 0.0 
0.0 0.0 0.0 
0.0 0.0 0.0 
0.0 0.0 0.0 
0.0 0.0 0.0 
0.0 0.0 0.0 
0.0 0.0 0.0 
0.0 0.0 0.0 
0.0 0.0 0.0 
0.0 0.0 0.0 
0.0 0.0 0.0 
0.0 0.0 0.0 
0.0 0.0 0.0 
0.0 0.0 0.0 
0.0 0.0 0.0 
0.0 0.0 0.0 
0.0 0.0 0.0 
0.0 0.0 0.0 
0.0 0.0 0.0 
0.0 0.0 0.0 
0.0 0.0 0.0 
0.0 0.0 0.0 
0.0 0.0 0.0 
0.0 0.0 0.0 
0.0 0.0 0.0 
0.0 0.0 0.0 
0.0 0.0 0.0 
0.0 0.0 0.0 
0.0 0.0 0.0 
0.0 0.0 0.0 
0.0 0.0 0.0 
0.0 0.0 0.0 
0.0 0.0 0.0 
0.0 0.0 0.0 
0.0 0.0 0.0 
0.0 0.0 0.0 
0.0 0.0 0.0 
0.0 0.0 0.0 
0.0 0.0 0.0 
0.0 0.0 0.0 
0.0 0.0 0.0 
0.0 0.0 0.0 
0.0 0.0 0.0 
0.0 0.0 0.0 
0.0 0.0 0.0 
0.0 0.0 0.0 
0.0 0.0 0.0 
0.0 0.0 0.0 
0.0 0.0 0.0 
0.0 0.0 0.0 
0.0 0.0 0.0 
0.0 0.0 0.0 
0.0 0.0 0.0 
0.0 0.0 0.0 
0.0 0.0 0.0 
0.0 0.0 0.0 
0.0 0.0 0.0 
0.0 0.0 0.0 
0.0 0.0 0.0 
0.0 0.0 0.0 
0.0 0.0 0.0 
0.0 0.0 0.0 
0.0 0.0 0.0 
0.0 0.0 0.0 
0.0 0.0 0.0 
0.0 0.0 0.0 
0.0 0.0 0.0 
0.0 0.0 0.0 
0.0 0.0 0.0 
0.0 0.0 0.0 
0.0 0.0 0.0 
0.0 0.0 0.0 
0.0 0.0 0.0 
0.0 0.0 0.0 
0.0 0.0 0.0 
0.0 0.0 0.0 
0.0 0.0 0.0 
0.0 0.0 0.0 
0.0 0.0 0.0 
0.0 0.0 0.0 
0.0 0.0 0.0 
0.0 0.0 0.0 
0.0 0.0 0.0 
0.0 0.0 0.0 
0.0 0.0 0.0 
0.0 0.0 0.0 
0.0 0.0 0.0 
0.0 0.0 0.0 
0.0 0.0 0.0 
0.0 0.0 0.0 
0.0 0.0 0.0 
0.0 0.0 0.0 
0.0 0.0 0.0 
0.0 0.0 0.0 
0.0 0.0 0.0 
0.0 0.0 0.0 
0.0 0.0 0.0 
0.0 0.0 0.0 
0.0 0.0 0.0 
0.0 0.0 0.0 
0.0 0.0 0.0 
0.0 0.0 0.0 
0.0 0.0 0.0 
0.0 0.0 0.0 
0.0 0.0 0.0 
0.0 0.0 0.0 
0.0 0.0 0.0 
0.0 0.0 0.0 
0.0 0.0 0.0 
0.0 0.0 0.0 
0.0 0.0 0.0 
0.0 0.0 0.0 
0.0 0.0 0.0 
0.0 0.0 0.0 
0.0 0.0 0.0 
0.0 0.0 0.0 
0.0 0.0 0.0 
0.0 0.0 0.0 
0.0 0.0 0.0 
0.0 0.0 0.0 
0.0 0.0 0.0 
0.0 0.0 0.0 
0.0 0.0 0.0 
0.0 0.0 0.0 
0.0 0.0 0.0 
0.0 0.0 0.0 
0.0 0.0 0.0 
0.0 0.0 0.0 
0.0 0.0 0.0 
0.0 0.0 0.0 
0.0 0.0 0.0 
0.0 0.0 0.0 
0.0 0.0 0.0 
0.0 0.0 0.0 
0.0 0.0 0.0 
0.0 0.0 0.0 
0.0 0.0 0.0 
0.0 0.0 0.0 
0.0 0.0 0.0 
0.0 0.0 0.0 
0.0 0.0 0.0 
0.0 0.0 0.0 
0.0 0.0 0.0 
0.0 0.0 0.0 
0.0 0.0 0.0 
0.0 0.0 0.0 
0.0 0.0 0.0 
0.0 0.0 0.0 
0.0 0.0 0.0 
0.0 0.0 0.0 
0.0 0.0 0.0 
0.0 0.0 0.0 
0.0 0.0 0.0 
0.0 0.0 0.0 
0.0 0.0 0.0 
0.0 0.0 0.0 
0.0 0.0 0.0 
0.0 0.0 0.0 
0.0 0.0 0.0 
0.0 0.0 0.0 
0.0 0.0 0.0 
0.0 0.0 0.0 
0.0 0.0 0.0 
0.0 0.0 0.0 
0.0 0.0 0.0 
0.0 0.0 0.0 
0.0 0.0 0.0 
0.0 0.0 0.0 
0.0 0.0 0.0 
0.0 0.0 0.0 
0.0 0.0 0.0 
0.0 0.0 0.0 
0.0 0.0 0.0 
0.0 0.0 0.0 
0.0 0.0 0.0 
0.0 0.0 0.0 
0.0 0.0 0.0 
0.0 0.0 0.0 
0.0 0.0 0.0 
0.0 0.0 0.0 
0.0 0.0 0.0 
0.0 0.0 0.0 
0.0 0.0 0.0 
0.0 0.0 0.0 
0.0 0.0 0.0 
0.0 0.0 0.0 
0.0 0.0 0.0 
0.0 0.0 0.0 
0.0 0.0 0.0 
0.0 0.0 0.0 
0.0 0.0 0.0 
0.0 0.0 0.0 
0.0 0.0 0.0 
0.0 0.0 0.0 
0.0 0.0 0.0 
0.0 0.0 0.0 
0.0 0.0 0.0 
0.0 0.0 0.0 
0.0 0.0 0.0 
0.0 0.0 0.0 
0.0 0.0 0.0 
0.0 0.0 0.0 
0.0 0.0 0.0 
0.0 0.0 0.0 
0.0 0.0 0.0 
0.0 0.0 0.0 
0.0 0.0 0.0 
0.0 0.0 0.0 
0.0 0.0 0.0 
0.0 0.0 0.0 
0.0 0.0 0.0 
0.0 0.0 0.0 
0.0 0.0 0.0 
0.0 0.0 0.0 
0.0 0.0 0.0 
0.0 0.0 0.0 
0.0 0.0 0.0 
0.0 0.0 0.0 
0.0 0.0 0.0 
0.0 0.0 0.0 
0.0 0.0 0.0 
0.0 0.0 0.0 
0.0 0.0 0.0 
0.0 0.0 0.0 
0.0 0.0 0.0 
0.0 0.0 0.0 
0.0 0.0 0.0 
0.0 0.0 0.0 
0.0 0.0 0.0 
0.0 0.0 0.0 
0.0 0.0 0.0 
0.0 0.0 0.0 
0.0 0.0 0.0 
0.0 0.0 0.0 
0.0 0.0 0.0 
0.0 0.0 0.0 
0.0 0.0 0.0 
0.0 0.0 0.0 
0.0 0.0 0.0 
0.0 0.0 0.0 
0.0 0.0 0.0 
0.0 0.0 0.0 
0.0 0.0 0.0 
0.0 0.0 0.0 
0.0 0.0 0.0 
0.0 0.0 0.0 
0.0 0.0 0.0 
0.0 0.0 0.0 
0.0 0.0 0.0 
0.0 0.0 0.0 
0.0 0.0 0.0 
0.0 0.0 0.0 
0.0 0.0 0.0 
0.0 0.0 0.0 
0.0 0.0 0.0 
0.0 0.0 0.0 
0.0 0.0 0.0 
0.0 0.0 0.0 
0.0 0.0 0.0 
0.0 0.0 0.0 
0.0 0.0 0.0 
0.0 0.0 0.0 
0.0 0.0 0.0 
0.0 0.0 0.0 
0.0 0.0 0.0 
0.0 0.0 0.0 
0.0 0.0 0.0 
0.0 0.0 0.0 
0.0 0.0 0.0 
0.0 0.0 0.0 
0.0 0.0 0.0 
0.0 0.0 0.0 
0.0 0.0 0.0 
0.0 0.0 0.0 
0.0 0.0 0.0 
0.0 0.0 0.0 
0.0 0.0 0.0 
0.0 0.0 0.0 
0.0 0.0 0.0 
0.0 0.0 0.0 
0.0 0.0 0.0 
0.0 0.0 0.0 
0.0 0.0 0.0 
0.0 0.0 0.0 
0.0 0.0 0.0 
0.0 0.0 0.0 
0.0 0.0 0.0 
0.0 0.0 0.0 
0.0 0.0 0.0 
0.0 0.0 0.0 
0.0 0.0 0.0 
0.0 0.0 0.0 
0.0 0.0 0.0 
0.0 0.0 0.0 
0.0 0.0 0.0 
0.0 0.0 0.0 
0.0 0.0 0.0 
0.0 0.0 0.0 
0.0 0.0 0.0 
0.0 0.0 0.0 
0.0 0.0 0.0 
0.0 0.0 0.0 
0.0 0.0 0.0 
0.0 0.0 0.0 
0.0 0.0 0.0 
0.0 0.0 0.0 
0.0 0.0 0.0 
0.0 0.0 0.0 
0.0 0.0 0.0 
0.0 0.0 0.0 
0.0 0.0 0.0 
0.0 0.0 0.0 
0.0 0.0 0.0 
0.0 0.0 0.0 
0.0 0.0 0.0 
0.0 0.0 0.0 
0.0 0.0 0.0 
0.0 0.0 0.0 
0.0 0.0 0.0 
0.0 0.0 0.0 
0.0 0.0 0.0 
0.0 0.0 0.0 
0.0 0.0 0.0 
0.0 0.0 0.0 
0.0 0.0 0.0 
0.0 0.0 0.0 
0.0 0.0 0.0 
0.0 0.0 0.0 
0.0 0.0 0.0 
0.0 0.0 0.0 
0.0 0.0 0.0 
0.0 0.0 0.0 
0.0 0.0 0.0 
0.0 0.0 0.0 
0.0 0.0 0.0 
0.0 0.0 0.0 
0.0 0.0 0.0 
0.0 0.0 0.0 
0.0 0.0 0.0 
0.0 0.0 0.0 
0.0 0.0 0.0 
0.0 0.0 0.0 
0.0 0.0 0.0 
0.0 0.0 0.0 
0.0 0.0 0.0 
0.0 0.0 0.0 
0.0 0.0 0.0 
0.0 0.0 0.0 
0.0 0.0 0.0 
0.0 0.0 0.0 
0.0 0.0 0.0 
0.0 0.0 0.0 
0.0 0.0 0.0 
0.0 0.0 0.0 
0.0 0.0 0.0 
0.0 0.0 0.0 
0.0 0.0 0.0 
0.0 0.0 0.0 
0.0 0.0 0.0 
0.0 0.0 0.0 
0.0 0.0 0.0 
0.0 0.0 0.0 
0.0 0.0 0.0 
0.0 0.0 0.0 
0.0 0.0 0.0 
0.0 0.0 0.0 
0.0 0.0 0.0 
0.0 0.0 0.0 
0.0 0.0 0.0 
0.0 0.0 0.0 
0.0 0.0 0.0 
0.0 0.0 0.0 
0.0 0.0 0.0 
0.0 0.0 0.0 
0.0 0.0 0.0 
0.0 0.0 0.0 
0.0 0.0 0.0 
0.0 0.0 0.0 
0.0 0.0 0.0 
0.0 0.0 0.0 
0.0 0.0 0.0 
0.0 0.0 0.0 
0.0 0.0 0.0 
0.0 0.0 0.0 
0.0 0.0 0.0 
0.0 0.0 0.0 
0.0 0.0 0.0 
0.0 0.0 0.0 
0.0 0.0 0.0 
0.0 0.0 0.0 
0.0 0.0 0.0 
0.0 0.0 0.0 
0.0 0.0 0.0 
0.0 0.0 0.0 
0.0 0.0 0.0 
0.0 0.0 0.0 
0.0 0.0 0.0 
0.0 0.0 0.0 
0.0 0.0 0.0 
0.0 0.0 0.0 
0.0 0.0 0.0 
0.0 0.0 0.0 
0.0 0.0 0.0 
0.0 0.0 0.0 
0.0 0.0 0.0 
0.0 0.0 0.0 
0.0 0.0 0.0 
0.0 0.0 0.0 
0.0 0.0 0.0 
0.0 0.0 0.0 
0.0 0.0 0.0 
0.0 0.0 0.0 
0.0 0.0 0.0 
0.0 0.0 0.0 
0.0 0.0 0.0 
0.0 0.0 0.0 
0.0 0.0 0.0 
0.0 0.0 0.0 
0.0 0.0 0.0 
0.0 0.0 0.0 
0.0 0.0 0.0 
0.0 0.0 0.0 
0.0 0.0 0.0 
0.0 0.0 0.0 
0.0 0.0 0.0 
0.0 0.0 0.0 
0.0 0.0 0.0 
0.0 0.0 0.0 
0.0 0.0 0.0 
0.0 0.0 0.0 
0.0 0.0 0.0 
0.0 0.0 0.0 
0.0 0.0 0.0 
0.0 0.0 0.0 
0.0 0.0 0.0 
0.0 0.0 0.0 
0.0 0.0 0.0 
0.0 0.0 0.0 
0.0 0.0 0.0 
0.0 0.0 0.0 
0.0 0.0 0.0 
0.0 0.0 0.0 
0.0 0.0 0.0 
0.0 0.0 0.0 
0.0 0.0 0.0 
0.0 0.0 0.0 
0.0 0.0 0.0 
0.0 0.0 0.0 
0.0 0.0 0.0 
0.0 0.0 0.0 
0.0 0.0 0.0 
0.0 0.0 0.0 
0.0 0.0 0.0 
0.0 0.0 0.0 
0.0 0.0 0.0 
0.0 0.0 0.0 
0.0 0.0 0.0 
0.0 0.0 0.0 
0.0 0.0 0.0 
0.0 0.0 0.0 
0.0 0.0 0.0 
0.0 0.0 0.0 
0.0 0.0 0.0 
0.0 0.0 0.0 
0.0 0.0 0.0 
0.0 0.0 0.0 
0.0 0.0 0.0 
0.0 0.0 0.0 
0.0 0.0 0.0 
0.0 0.0 0.0 
0.0 0.0 0.0 
0.0 0.0 0.0 
0.0 0.0 0.0 
0.0 0.0 0.0 
0.0 0.0 0.0 
0.0 0.0 0.0 
0.0 0.0 0.0 
0.0 0.0 0.0 
0.0 0.0 0.0 
0.0 0.0 0.0 
0.0 0.0 0.0 
0.0 0.0 0.0 
0.0 0.0 0.0 
0.0 0.0 0.0 
0.0 0.0 0.0 
0.0 0.0 0.0 
0.0 0.0 0.0 
0.0 0.0 0.0 
0.0 0.0 0.0 
0.0 0.0 0.0 
0.0 0.0 0.0 
0.0 0.0 0.0 
0.0 0.0 0.0 
0.0 0.0 0.0 
0.0 0.0 0.0 
0.0 0.0 0.0 
0.0 0.0 0.0 
0.0 0.0 0.0 
0.0 0.0 0.0 
0.0 0.0 0.0 
0.0 0.0 0.0 
0.0 0.0 0.0 
0.0 0.0 0.0 
0.0 0.0 0.0 
0.0 0.0 0.0 
0.0 0.0 0.0 
0.0 0.0 0.0 
0.0 0.0 0.0 
0.0 0.0 0.0 
0.0 0.0 0.0 
0.0 0.0 0.0 
0.0 0.0 0.0 
0.0 0.0 0.0 
0.0 0.0 0.0 
0.0 0.0 0.0 
0.0 0.0 0.0 
0.0 0.0 0.0 
0.0 0.0 0.0 
0.0 0.0 0.0 
0.0 0.0 0.0 
0.0 0.0 0.0 
0.0 0.0 0.0 
0.0 0.0 0.0 
0.0 0.0 0.0 
0.0 0.0 0.0 
0.0 0.0 0.0 
0.0 0.0 0.0 
0.0 0.0 0.0 
0.0 0.0 0.0 
0.0 0.0 0.0 
0.0 0.0 0.0 
0.0 0.0 0.0 
0.0 0.0 0.0 
0.0 0.0 0.0 
0.0 0.0 0.0 
0.0 0.0 0.0 
0.0 0.0 0.0 
0.0 0.0 0.0 
0.0 0.0 0.0 
0.0 0.0 0.0 
0.0 0.0 0.0 
0.0 0.0 0.0 
0.0 0.0 0.0 
0.0 0.0 0.0 
0.0 0.0 0.0 
0.0 0.0 0.0 
0.0 0.0 0.0 
0.0 0.0 0.0 
0.0 0.0 0.0 
0.0 0.0 0.0 
0.0 0.0 0.0 
0.0 0.0 0.0 
0.0 0.0 0.0 
0.0 0.0 0.0 
0.0 0.0 0.0 
0.0 0.0 0.0 
0.0 0.0 0.0 
0.0 0.0 0.0 
0.0 0.0 0.0 
0.0 0.0 0.0 
0.0 0.0 0.0 
0.0 0.0 0.0 
0.0 0.0 0.0 
0.0 0.0 0.0 
0.0 0.0 0.0 
0.0 0.0 0.0 
0.0 0.0 0.0 
0.0 0.0 0.0 
0.0 0.0 0.0 
0.0 0.0 0.0 
0.0 0.0 0.0 
0.0 0.0 0.0 
0.0 0.0 0.0 
0.0 0.0 0.0 
0.0 0.0 0.0 
0.0 0.0 0.0 
0.0 0.0 0.0 
0.0 0.0 0.0 
0.0 0.0 0.0 
0.0 0.0 0.0 
0.0 0.0 0.0 
0.0 0.0 0.0 
0.0 0.0 0.0 
0.0 0.0 0.0 
0.0 0.0 0.0 
0.0 0.0 0.0 
0.0 0.0 0.0 
0.0 0.0 0.0 
0.0 0.0 0.0 
0.0 0.0 0.0 
0.0 0.0 0.0 
0.0 0.0 0.0 
0.0 0.0 0.0 
0.0 0.0 0.0 
0.0 0.0 0.0 
0.0 0.0 0.0 
0.0 0.0 0.0 
0.0 0.0 0.0 
0.0 0.0 0.0 
0.0 0.0 0.0 
0.0 0.0 0.0 
0.0 0.0 0.0 
0.0 0.0 0.0 
0.0 0.0 0.0 
0.0 0.0 0.0 
0.0 0.0 0.0 
0.0 0.0 0.0 
0.0 0.0 0.0 
0.0 0.0 0.0 
0.0 0.0 0.0 
0.0 0.0 0.0 
0.0 0.0 0.0 
0.0 0.0 0.0 
0.0 0.0 0.0 
0.0 0.0 0.0 
0.0 0.0 0.0 
0.0 0.0 0.0 
0.0 0.0 0.0 
0.0 0.0 0.0 
0.0 0.0 0.0 
0.0 0.0 0.0 
0.0 0.0 0.0 
0.0 0.0 0.0 
0.0 0.0 0.0 
0.0 0.0 0.0 
0.0 0.0 0.0 
0.0 0.0 0.0 
0.0 0.0 0.0 
0.0 0.0 0.0 
0.0 0.0 0.0 
0.0 0.0 0.0 
0.0 0.0 0.0 
0.0 0.0 0.0 
0.0 0.0 0.0 
0.0 0.0 0.0 
0.0 0.0 0.0 
0.0 0.0 0.0 
0.0 0.0 0.0 
0.0 0.0 0.0 
0.0 0.0 0.0 
0.0 0.0 0.0 
0.0 0.0 0.0 
0.0 0.0 0.0 
0.0 0.0 0.0 
0.0 0.0 0.0 
0.0 0.0 0.0 
0.0 0.0 0.0 
0.0 0.0 0.0 
0.0 0.0 0.0 
0.0 0.0 0.0 
0.0 0.0 0.0 
0.0 0.0 0.0 
0.0 0.0 0.0 
0.0 0.0 0.0 
0.0 0.0 0.0 
0.0 0.0 0.0 
0.0 0.0 0.0 
0.0 0.0 0.0 
0.0 0.0 0.0 
0.0 0.0 0.0 
0.0 0.0 0.0 
0.0 0.0 0.0 
0.0 0.0 0.0 
0.0 0.0 0.0 
0.0 0.0 0.0 
0.0 0.0 0.0 
0.0 0.0 0.0 
0.0 0.0 0.0 
0.0 0.0 0.0 
0.0 0.0 0.0 
0.0 0.0 0.0 
0.0 0.0 0.0 
0.0 0.0 0.0 
0.0 0.0 0.0 
0.0 0.0 0.0 
0.0 0.0 0.0 
0.0 0.0 0.0 
0.0 0.0 0.0 
0.0 0.0 0.0 
0.0 0.0 0.0 
0.0 0.0 0.0 
0.0 0.0 0.0 
0.0 0.0 0.0 
0.0 0.0 0.0 
0.0 0.0 0.0 
0.0 0.0 0.0 
0.0 0.0 0.0 
0.0 0.0 0.0 
0.0 0.0 0.0 
0.0 0.0 0.0 
0.0 0.0 0.0 
0.0 0.0 0.0 
0.0 0.0 0.0 
0.0 0.0 0.0 
0.0 0.0 0.0 
0.0 0.0 0.0 
0.0 0.0 0.0 
0.0 0.0 0.0 
0.0 0.0 0.0 
0.0 0.0 0.0 
0.0 0.0 0.0 
0.0 0.0 0.0 
0.0 0.0 0.0 
0.0 0.0 0.0 
0.0 0.0 0.0 
0.0 0.0 0.0 
0.0 0.0 0.0 
0.0 0.0 0.0 
0.0 0.0 0.0 
0.0 0.0 0.0 
0.0 0.0 0.0 
0.0 0.0 0.0 
0.0 0.0 0.0 
0.0 0.0 0.0 
0.0 0.0 0.0 
0.0 0.0 0.0 
0.0 0.0 0.0 
0.0 0.0 0.0 
0.0 0.0 0.0 
0.0 0.0 0.0 
0.0 0.0 0.0 
0.0 0.0 0.0 
0.0 0.0 0.0 
0.0 0.0 0.0 
0.0 0.0 0.0 
0.0 0.0 0.0 
0.0 0.0 0.0 
0.0 0.0 0.0 
0.0 0.0 0.0 
0.0 0.0 0.0 
0.0 0.0 0.0 
0.0 0.0 0.0 
0.0 0.0 0.0 
0.0 0.0 0.0 
0.0 0.0 0.0 
0.0 0.0 0.0 
0.0 0.0 0.0 
0.0 0.0 0.0 
0.0 0.0 0.0 
0.0 0.0 0.0 
0.0 0.0 0.0 
0.0 0.0 0.0 
0.0 0.0 0.0 
0.0 0.0 0.0 
0.0 0.0 0.0 
0.0 0.0 0.0 
0.0 0.0 0.0 
0.0 0.0 0.0 
0.0 0.0 0.0 
0.0 0.0 0.0 
0.0 0.0 0.0 
0.0 0.0 0.0 
0.0 0.0 0.0 
0.0 0.0 0.0 
0.0 0.0 0.0 
0.0 0.0 0.0 
0.0 0.0 0.0 
0.0 0.0 0.0 
0.0 0.0 0.0 
0.0 0.0 0.0 
0.0 0.0 0.0 
0.0 0.0 0.0 
0.0 0.0 0.0 
0.0 0.0 0.0 
0.0 0.0 0.0 
0.0 0.0 0.0 
0.0 0.0 0.0 
0.0 0.0 0.0 
0.0 0.0 0.0 
0.0 0.0 0.0 
0.0 0.0 0.0 
0.0 0.0 0.0 
0.0 0.0 0.0 
0.0 0.0 0.0 
0.0 0.0 0.0 
0.0 0.0 0.0 
0.0 0.0 0.0 
0.0 0.0 0.0 
0.0 0.0 0.0 
0.0 0.0 0.0 
0.0 0.0 0.0 
0.0 0.0 0.0 
0.0 0.0 0.0 
0.0 0.0 0.0 
0.0 0.0 0.0 
0.0 0.0 0.0 
0.0 0.0 0.0 
0.0 0.0 0.0 
0.0 0.0 0.0 
0.0 0.0 0.0 
0.0 0.0 0.0 
0.0 0.0 0.0 
0.0 0.0 0.0 
0.0 0.0 0.0 
0.0 0.0 0.0 
0.0 0.0 0.0 
0.0 0.0 0.0 
0.0 0.0 0.0 
0.0 0.0 0.0 
0.0 0.0 0.0 
0.0 0.0 0.0 
0.0 0.0 0.0 
0.0 0.0 0.0 
0.0 0.0 0.0 
0.0 0.0 0.0 
0.0 0.0 0.0 
0.0 0.0 0.0 
0.0 0.0 0.0 
0.0 0.0 0.0 
0.0 0.0 0.0 
0.0 0.0 0.0 
0.0 0.0 0.0 
0.0 0.0 0.0 
0.0 0.0 0.0 
0.0 0.0 0.0 
0.0 0.0 0.0 
0.0 0.0 0.0 
0.0 0.0 0.0 
0.0 0.0 0.0 
0.0 0.0 0.0 
0.0 0.0 0.0 
0.0 0.0 0.0 
0.0 0.0 0.0 
0.0 0.0 0.0 
0.0 0.0 0.0 
0.0 0.0 0.0 
0.0 0.0 0.0 
0.0 0.0 0.0 
0.0 0.0 0.0 
0.0 0.0 0.0 
0.0 0.0 0.0 
0.0 0.0 0.0 
0.0 0.0 0.0 
0.0 0.0 0.0 
0.0 0.0 0.0 
0.0 0.0 0.0 
0.0 0.0 0.0 
0.0 0.0 0.0 
0.0 0.0 0.0 
0.0 0.0 0.0 
0.0 0.0 0.0 
0.0 0.0 0.0 
0.0 0.0 0.0 
0.0 0.0 0.0 
0.0 0.0 0.0 
0.0 0.0 0.0 
0.0 0.0 0.0 
0.0 0.0 0.0 
0.0 0.0 0.0 
0.0 0.0 0.0 
0.0 0.0 0.0 
0.0 0.0 0.0 
0.0 0.0 0.0 
0.0 0.0 0.0 
0.0 0.0 0.0 
0.0 0.0 0.0 
0.0 0.0 0.0 
0.0 0.0 0.0 
0.0 0.0 0.0 
0.0 0.0 0.0 
0.0 0.0 0.0 
0.0 0.0 0.0 
0.0 0.0 0.0 
0.0 0.0 0.0 
0.0 0.0 0.0 
0.0 0.0 0.0 
0.0 0.0 0.0 
0.0 0.0 0.0 
0.0 0.0 0.0 
0.0 0.0 0.0 
0.0 0.0 0.0 
0.0 0.0 0.0 
0.0 0.0 0.0 
0.0 0.0 0.0 
0.0 0.0 0.0 
0.0 0.0 0.0 
0.0 0.0 0.0 
0.0 0.0 0.0 
0.0 0.0 0.0 
0.0 0.0 0.0 
0.0 0.0 0.0 
0.0 0.0 0.0 
0.0 0.0 0.0 
0.0 0.0 0.0 
0.0 0.0 0.0 
0.0 0.0 0.0 
0.0 0.0 0.0 
0.0 0.0 0.0 
0.0 0.0 0.0 
0.0 0.0 0.0 
0.0 0.0 0.0 
0.0 0.0 0.0 
0.0 0.0 0.0 
0.0 0.0 0.0 
0.0 0.0 0.0 
0.0 0.0 0.0 
0.0 0.0 0.0 
0.0 0.0 0.0 
0.0 0.0 0.0 
0.0 0.0 0.0 
0.0 0.0 0.0 
0.0 0.0 0.0 
0.0 0.0 0.0 
0.0 0.0 0.0 
0.0 0.0 0.0 
0.0 0.0 0.0 
0.0 0.0 0.0 
0.0 0.0 0.0 
0.0 0.0 0.0 
0.0 0.0 0.0 
0.0 0.0 0.0 
0.0 0.0 0.0 
0.0 0.0 0.0 
0.0 0.0 0.0 
0.0 0.0 0.0 
0.0 0.0 0.0 
0.0 0.0 0.0 
0.0 0.0 0.0 
0.0 0.0 0.0 
0.0 0.0 0.0 
0.0 0.0 0.0 
0.0 0.0 0.0 
0.0 0.0 0.0 
0.0 0.0 0.0 
0.0 0.0 0.0 
0.0 0.0 0.0 
0.0 0.0 0.0 
0.0 0.0 0.0 
0.0 0.0 0.0 
0.0 0.0 0.0 
0.0 0.0 0.0 
0.0 0.0 0.0 
0.0 0.0 0.0 
0.0 0.0 0.0 
0.0 0.0 0.0 
0.0 0.0 0.0 
0.0 0.0 0.0 
0.0 0.0 0.0 
0.0 0.0 0.0 
0.0 0.0 0.0 
0.0 0.0 0.0 
0.0 0.0 0.0 
0.0 0.0 0.0 
0.0 0.0 0.0 
0.0 0.0 0.0 
0.0 0.0 0.0 
0.0 0.0 0.0 
0.0 0.0 0.0 
0.0 0.0 0.0 
0.0 0.0 0.0 
0.0 0.0 0.0 
0.0 0.0 0.0 
0.0 0.0 0.0 
0.0 0.0 0.0 
0.0 0.0 0.0 
0.0 0.0 0.0 
0.0 0.0 0.0 
0.0 0.0 0.0 
0.0 0.0 0.0 
0.0 0.0 0.0 
0.0 0.0 0.0 
0.0 0.0 0.0 
0.0 0.0 0.0 
0.0 0.0 0.0 
0.0 0.0 0.0 
0.0 0.0 0.0 
0.0 0.0 0.0 
0.0 0.0 0.0 
0.0 0.0 0.0 
0.0 0.0 0.0 
0.0 0.0 0.0 
0.0 0.0 0.0 
0.0 0.0 0.0 
0.0 0.0 0.0 
0.0 0.0 0.0 
0.0 0.0 0.0 
0.0 0.0 0.0 
0.0 0.0 0.0 
0.0 0.0 0.0 
0.0 0.0 0.0 
0.0 0.0 0.0 
0.0 0.0 0.0 
0.0 0.0 0.0 
0.0 0.0 0.0 
0.0 0.0 0.0 
0.0 0.0 0.0 
0.0 0.0 0.0 
0.0 0.0 0.0 
0.0 0.0 0.0 
0.0 0.0 0.0 
0.0 0.0 0.0 
0.0 0.0 0.0 
0.0 0.0 0.0 
0.0 0.0 0.0 
0.0 0.0 0.0 
0.0 0.0 0.0 
0.0 0.0 0.0 
0.0 0.0 0.0 
0.0 0.0 0.0 
0.0 0.0 0.0 
0.0 0.0 0.0 
0.0 0.0 0.0 
0.0 0.0 0.0 
0.0 0.0 0.0 
0.0 0.0 0.0 
0.0 0.0 0.0 
0.0 0.0 0.0 
0.0 0.0 0.0 
0.0 0.0 0.0 
0.0 0.0 0.0 
0.0 0.0 0.0 
0.0 0.0 0.0 
0.0 0.0 0.0 
0.0 0.0 0.0 
0.0 0.0 0.0 
0.0 0.0 0.0 
0.0 0.0 0.0 
0.0 0.0 0.0 
0.0 0.0 0.0 
0.0 0.0 0.0 
0.0 0.0 0.0 
0.0 0.0 0.0 
0.0 0.0 0.0 
0.0 0.0 0.0 
0.0 0.0 0.0 
0.0 0.0 0.0 
0.0 0.0 0.0 
0.0 0.0 0.0 
0.0 0.0 0.0 
0.0 0.0 0.0 
0.0 0.0 0.0 
0.0 0.0 0.0 
0.0 0.0 0.0 
0.0 0.0 0.0 
0.0 0.0 0.0 
0.0 0.0 0.0 
0.0 0.0 0.0 
0.0 0.0 0.0 
0.0 0.0 0.0 
0.0 0.0 0.0 
0.0 0.0 0.0 
0.0 0.0 0.0 
0.0 0.0 0.0 
0.0 0.0 0.0 
0.0 0.0 0.0 
0.0 0.0 0.0 
0.0 0.0 0.0 
0.0 0.0 0.0 
0.0 0.0 0.0 
0.0 0.0 0.0 
0.0 0.0 0.0 
0.0 0.0 0.0 
0.0 0.0 0.0 
0.0 0.0 0.0 
0.0 0.0 0.0 
0.0 0.0 0.0 
0.0 0.0 0.0 
0.0 0.0 0.0 
0.0 0.0 0.0 
0.0 0.0 0.0 
0.0 0.0 0.0 
0.0 0.0 0.0 
0.0 0.0 0.0 
0.0 0.0 0.0 
0.0 0.0 0.0 
0.0 0.0 0.0 
0.0 0.0 0.0 
0.0 0.0 0.0 
0.0 0.0 0.0 
0.0 0.0 0.0 
0.0 0.0 0.0 
0.0 0.0 0.0 
0.0 0.0 0.0 
0.0 0.0 0.0 
0.0 0.0 0.0 
0.0 0.0 0.0 
0.0 0.0 0.0 
0.0 0.0 0.0 
0.0 0.0 0.0 
0.0 0.0 0.0 
0.0 0.0 0.0 
0.0 0.0 0.0 
0.0 0.0 0.0 
0.0 0.0 0.0 
0.0 0.0 0.0 
0.0 0.0 0.0 
0.0 0.0 0.0 
0.0 0.0 0.0 
0.0 0.0 0.0 
0.0 0.0 0.0 
0.0 0.0 0.0 
0.0 0.0 0.0 
0.0 0.0 0.0 
0.0 0.0 0.0 
0.0 0.0 0.0 
0.0 0.0 0.0 
0.0 0.0 0.0 
0.0 0.0 0.0 
0.0 0.0 0.0 
0.0 0.0 0.0 
0.0 0.0 0.0 
0.0 0.0 0.0 
0.0 0.0 0.0 
0.0 0.0 0.0 
0.0 0.0 0.0 

VECTORS node_bounda_dof_materi_velocity_y float
0.0 0.0 0.0 
0.0 0.0 0.0 
0.0 1.000000000000e+00 0.0 
0.0 1.000000000000e+00 0.0 
0.0 0.0 0.0 
0.0 0.0 0.0 
0.0 0.0 0.0 
0.0 0.0 0.0 
0.0 0.0 0.0 
0.0 0.0 0.0 
0.0 0.0 0.0 
0.0 0.0 0.0 
0.0 0.0 0.0 
0.0 0.0 0.0 
0.0 0.0 0.0 
0.0 0.0 0.0 
0.0 0.0 0.0 
0.0 0.0 0.0 
0.0 0.0 0.0 
0.0 0.0 0.0 
0.0 0.0 0.0 
0.0 0.0 0.0 
0.0 0.0 0.0 
0.0 1.000000000000e+00 0.0 
0.0 1.000000000000e+00 0.0 
0.0 1.000000000000e+00 0.0 
0.0 1.000000000000e+00 0.0 
0.0 1.000000000000e+00 0.0 
0.0 1.000000000000e+00 0.0 
0.0 1.000000000000e+00 0.0 
0.0 1.000000000000e+00 0.0 
0.0 1.000000000000e+00 0.0 
0.0 1.000000000000e+00 0.0 
0.0 1.000000000000e+00 0.0 
0.0 1.000000000000e+00 0.0 
0.0 1.000000000000e+00 0.0 
0.0 1.000000000000e+00 0.0 
0.0 1.000000000000e+00 0.0 
0.0 1.000000000000e+00 0.0 
0.0 1.000000000000e+00 0.0 
0.0 1.000000000000e+00 0.0 
0.0 1.000000000000e+00 0.0 
0.0 1.000000000000e+00 0.0 
0.0 1.000000000000e+00 0.0 
0.0 1.000000000000e+00 0.0 
0.0 1.000000000000e+00 0.0 
0.0 1.000000000000e+00 0.0 
0.0 1.000000000000e+00 0.0 
0.0 1.000000000000e+00 0.0 
0.0 1.000000000000e+00 0.0 
0.0 1.000000000000e+00 0.0 
0.0 1.000000000000e+00 0.0 
0.0 1.000000000000e+00 0.0 
0.0 1.000000000000e+00 0.0 
0.0 1.000000000000e+00 0.0 
0.0 1.000000000000e+00 0.0 
0.0 1.000000000000e+00 0.0 
0.0 1.000000000000e+00 0.0 
0.0 1.000000000000e+00 0.0 
0.0 1.000000000000e+00 0.0 
0.0 1.000000000000e+00 0.0 
0.0 1.000000000000e+00 0.0 
0.0 1.000000000000e+00 0.0 
0.0 1.000000000000e+00 0.0 
0.0 1.000000000000e+00 0.0 
0.0 1.000000000000e+00 0.0 
0.0 1.000000000000e+00 0.0 
0.0 1.000000000000e+00 0.0 
0.0 1.000000000000e+00 0.0 
0.0 1.000000000000e+00 0.0 
0.0 1.000000000000e+00 0.0 
0.0 1.000000000000e+00 0.0 
0.0 0.0 0.0 
0.0 0.0 0.0 
0.0 0.0 0.0 
0.0 0.0 0.0 
0.0 0.0 0.0 
0.0 0.0 0.0 
0.0 0.0 0.0 
0.0 0.0 0.0 
0.0 0.0 0.0 
0.0 0.0 0.0 
0.0 0.0 0.0 
0.0 0.0 0.0 
0.0 0.0 0.0 
0.0 0.0 0.0 
0.0 0.0 0.0 
0.0 0.0 0.0 
0.0 0.0 0.0 
0.0 0.0 0.0 
0.0 0.0 0.0 
0.0 0.0 0.0 
0.0 0.0 0.0 
0.0 0.0 0.0 
0.0 0.0 0.0 
0.0 0.0 0.0 
0.0 0.0 0.0 
0.0 0.0 0.0 
0.0 0.0 0.0 
0.0 0.0 0.0 
0.0 0.0 0.0 
0.0 0.0 0.0 
0.0 0.0 0.0 
0.0 0.0 0.0 
0.0 0.0 0.0 
0.0 0.0 0.0 
0.0 0.0 0.0 
0.0 0.0 0.0 
0.0 0.0 0.0 
0.0 0.0 0.0 
0.0 0.0 0.0 
0.0 0.0 0.0 
0.0 0.0 0.0 
0.0 0.0 0.0 
0.0 0.0 0.0 
0.0 0.0 0.0 
0.0 0.0 0.0 
0.0 0.0 0.0 
0.0 0.0 0.0 
0.0 0.0 0.0 
0.0 0.0 0.0 
0.0 0.0 0.0 
0.0 0.0 0.0 
0.0 0.0 0.0 
0.0 0.0 0.0 
0.0 0.0 0.0 
0.0 0.0 0.0 
0.0 0.0 0.0 
0.0 0.0 0.0 
0.0 0.0 0.0 
0.0 0.0 0.0 
0.0 0.0 0.0 
0.0 0.0 0.0 
0.0 0.0 0.0 
0.0 0.0 0.0 
0.0 0.0 0.0 
0.0 0.0 0.0 
0.0 0.0 0.0 
0.0 0.0 0.0 
0.0 0.0 0.0 
0.0 0.0 0.0 
0.0 0.0 0.0 
0.0 0.0 0.0 
0.0 0.0 0.0 
0.0 0.0 0.0 
0.0 0.0 0.0 
0.0 0.0 0.0 
0.0 0.0 0.0 
0.0 0.0 0.0 
0.0 0.0 0.0 
0.0 0.0 0.0 
0.0 0.0 0.0 
0.0 0.0 0.0 
0.0 0.0 0.0 
0.0 0.0 0.0 
0.0 0.0 0.0 
0.0 0.0 0.0 
0.0 0.0 0.0 
0.0 0.0 0.0 
0.0 0.0 0.0 
0.0 0.0 0.0 
0.0 0.0 0.0 
0.0 0.0 0.0 
0.0 0.0 0.0 
0.0 0.0 0.0 
0.0 0.0 0.0 
0.0 0.0 0.0 
0.0 0.0 0.0 
0.0 0.0 0.0 
0.0 0.0 0.0 
0.0 0.0 0.0 
0.0 0.0 0.0 
0.0 0.0 0.0 
0.0 0.0 0.0 
0.0 0.0 0.0 
0.0 0.0 0.0 
0.0 0.0 0.0 
0.0 0.0 0.0 
0.0 0.0 0.0 
0.0 0.0 0.0 
0.0 0.0 0.0 
0.0 0.0 0.0 
0.0 0.0 0.0 
0.0 0.0 0.0 
0.0 0.0 0.0 
0.0 0.0 0.0 
0.0 0.0 0.0 
0.0 0.0 0.0 
0.0 0.0 0.0 
0.0 0.0 0.0 
0.0 0.0 0.0 
0.0 0.0 0.0 
0.0 0.0 0.0 
0.0 0.0 0.0 
0.0 0.0 0.0 
0.0 0.0 0.0 
0.0 0.0 0.0 
0.0 0.0 0.0 
0.0 0.0 0.0 
0.0 0.0 0.0 
0.0 0.0 0.0 
0.0 0.0 0.0 
0.0 0.0 0.0 
0.0 0.0 0.0 
0.0 0.0 0.0 
0.0 0.0 0.0 
0.0 0.0 0.0 
0.0 0.0 0.0 
0.0 0.0 0.0 
0.0 0.0 0.0 
0.0 0.0 0.0 
0.0 0.0 0.0 
0.0 0.0 0.0 
0.0 0.0 0.0 
0.0 0.0 0.0 
0.0 0.0 0.0 
0.0 0.0 0.0 
0.0 0.0 0.0 
0.0 0.0 0.0 
0.0 0.0 0.0 
0.0 0.0 0.0 
0.0 0.0 0.0 
0.0 0.0 0.0 
0.0 0.0 0.0 
0.0 0.0 0.0 
0.0 0.0 0.0 
0.0 0.0 0.0 
0.0 0.0 0.0 
0.0 0.0 0.0 
0.0 0.0 0.0 
0.0 0.0 0.0 
0.0 0.0 0.0 
0.0 0.0 0.0 
0.0 0.0 0.0 
0.0 0.0 0.0 
0.0 0.0 0.0 
0.0 0.0 0.0 
0.0 0.0 0.0 
0.0 0.0 0.0 
0.0 0.0 0.0 
0.0 0.0 0.0 
0.0 0.0 0.0 
0.0 0.0 0.0 
0.0 0.0 0.0 
0.0 0.0 0.0 
0.0 0.0 0.0 
0.0 0.0 0.0 
0.0 0.0 0.0 
0.0 0.0 0.0 
0.0 0.0 0.0 
0.0 0.0 0.0 
0.0 0.0 0.0 
0.0 0.0 0.0 
0.0 0.0 0.0 
0.0 0.0 0.0 
0.0 0.0 0.0 
0.0 0.0 0.0 
0.0 0.0 0.0 
0.0 0.0 0.0 
0.0 0.0 0.0 
0.0 0.0 0.0 
0.0 0.0 0.0 
0.0 0.0 0.0 
0.0 0.0 0.0 
0.0 0.0 0.0 
0.0 0.0 0.0 
0.0 0.0 0.0 
0.0 0.0 0.0 
0.0 0.0 0.0 
0.0 0.0 0.0 
0.0 0.0 0.0 
0.0 0.0 0.0 
0.0 0.0 0.0 
0.0 0.0 0.0 
0.0 0.0 0.0 
0.0 0.0 0.0 
0.0 0.0 0.0 
0.0 0.0 0.0 
0.0 0.0 0.0 
0.0 0.0 0.0 
0.0 0.0 0.0 
0.0 0.0 0.0 
0.0 0.0 0.0 
0.0 0.0 0.0 
0.0 0.0 0.0 
0.0 0.0 0.0 
0.0 0.0 0.0 
0.0 0.0 0.0 
0.0 0.0 0.0 
0.0 0.0 0.0 
0.0 0.0 0.0 
0.0 0.0 0.0 
0.0 0.0 0.0 
0.0 0.0 0.0 
0.0 0.0 0.0 
0.0 0.0 0.0 
0.0 0.0 0.0 
0.0 0.0 0.0 
0.0 0.0 0.0 
0.0 0.0 0.0 
0.0 0.0 0.0 
0.0 0.0 0.0 
0.0 0.0 0.0 
0.0 0.0 0.0 
0.0 0.0 0.0 
0.0 0.0 0.0 
0.0 0.0 0.0 
0.0 0.0 0.0 
0.0 0.0 0.0 
0.0 0.0 0.0 
0.0 0.0 0.0 
0.0 0.0 0.0 
0.0 0.0 0.0 
0.0 0.0 0.0 
0.0 0.0 0.0 
0.0 0.0 0.0 
0.0 0.0 0.0 
0.0 0.0 0.0 
0.0 0.0 0.0 
0.0 0.0 0.0 
0.0 0.0 0.0 
0.0 0.0 0.0 
0.0 0.0 0.0 
0.0 0.0 0.0 
0.0 0.0 0.0 
0.0 0.0 0.0 
0.0 0.0 0.0 
0.0 0.0 0.0 
0.0 0.0 0.0 
0.0 0.0 0.0 
0.0 0.0 0.0 
0.0 0.0 0.0 
0.0 0.0 0.0 
0.0 0.0 0.0 
0.0 0.0 0.0 
0.0 0.0 0.0 
0.0 0.0 0.0 
0.0 0.0 0.0 
0.0 0.0 0.0 
0.0 0.0 0.0 
0.0 0.0 0.0 
0.0 0.0 0.0 
0.0 0.0 0.0 
0.0 0.0 0.0 
0.0 0.0 0.0 
0.0 0.0 0.0 
0.0 0.0 0.0 
0.0 0.0 0.0 
0.0 0.0 0.0 
0.0 0.0 0.0 
0.0 0.0 0.0 
0.0 0.0 0.0 
0.0 0.0 0.0 
0.0 0.0 0.0 
0.0 0.0 0.0 
0.0 0.0 0.0 
0.0 0.0 0.0 
0.0 0.0 0.0 
0.0 0.0 0.0 
0.0 0.0 0.0 
0.0 0.0 0.0 
0.0 0.0 0.0 
0.0 0.0 0.0 
0.0 0.0 0.0 
0.0 0.0 0.0 
0.0 0.0 0.0 
0.0 0.0 0.0 
0.0 0.0 0.0 
0.0 0.0 0.0 
0.0 0.0 0.0 
0.0 0.0 0.0 
0.0 0.0 0.0 
0.0 0.0 0.0 
0.0 0.0 0.0 
0.0 0.0 0.0 
0.0 0.0 0.0 
0.0 0.0 0.0 
0.0 0.0 0.0 
0.0 0.0 0.0 
0.0 0.0 0.0 
0.0 0.0 0.0 
0.0 0.0 0.0 
0.0 0.0 0.0 
0.0 0.0 0.0 
0.0 0.0 0.0 
0.0 0.0 0.0 
0.0 0.0 0.0 
0.0 0.0 0.0 
0.0 0.0 0.0 
0.0 0.0 0.0 
0.0 0.0 0.0 
0.0 0.0 0.0 
0.0 0.0 0.0 
0.0 0.0 0.0 
0.0 0.0 0.0 
0.0 0.0 0.0 
0.0 0.0 0.0 
0.0 0.0 0.0 
0.0 0.0 0.0 
0.0 0.0 0.0 
0.0 0.0 0.0 
0.0 0.0 0.0 
0.0 0.0 0.0 
0.0 0.0 0.0 
0.0 0.0 0.0 
0.0 0.0 0.0 
0.0 0.0 0.0 
0.0 0.0 0.0 
0.0 0.0 0.0 
0.0 0.0 0.0 
0.0 0.0 0.0 
0.0 0.0 0.0 
0.0 0.0 0.0 
0.0 0.0 0.0 
0.0 0.0 0.0 
0.0 0.0 0.0 
0.0 0.0 0.0 
0.0 0.0 0.0 
0.0 0.0 0.0 
0.0 0.0 0.0 
0.0 0.0 0.0 
0.0 0.0 0.0 
0.0 0.0 0.0 
0.0 0.0 0.0 
0.0 0.0 0.0 
0.0 0.0 0.0 
0.0 0.0 0.0 
0.0 0.0 0.0 
0.0 0.0 0.0 
0.0 0.0 0.0 
0.0 0.0 0.0 
0.0 0.0 0.0 
0.0 0.0 0.0 
0.0 0.0 0.0 
0.0 0.0 0.0 
0.0 0.0 0.0 
0.0 0.0 0.0 
0.0 0.0 0.0 
0.0 0.0 0.0 
0.0 0.0 0.0 
0.0 0.0 0.0 
0.0 0.0 0.0 
0.0 0.0 0.0 
0.0 0.0 0.0 
0.0 0.0 0.0 
0.0 0.0 0.0 
0.0 0.0 0.0 
0.0 0.0 0.0 
0.0 0.0 0.0 
0.0 0.0 0.0 
0.0 0.0 0.0 
0.0 0.0 0.0 
0.0 0.0 0.0 
0.0 0.0 0.0 
0.0 0.0 0.0 
0.0 0.0 0.0 
0.0 0.0 0.0 
0.0 0.0 0.0 
0.0 0.0 0.0 
0.0 0.0 0.0 
0.0 0.0 0.0 
0.0 0.0 0.0 
0.0 0.0 0.0 
0.0 0.0 0.0 
0.0 0.0 0.0 
0.0 0.0 0.0 
0.0 0.0 0.0 
0.0 0.0 0.0 
0.0 0.0 0.0 
0.0 0.0 0.0 
0.0 0.0 0.0 
0.0 0.0 0.0 
0.0 0.0 0.0 
0.0 0.0 0.0 
0.0 0.0 0.0 
0.0 0.0 0.0 
0.0 0.0 0.0 
0.0 0.0 0.0 
0.0 0.0 0.0 
0.0 0.0 0.0 
0.0 0.0 0.0 
0.0 0.0 0.0 
0.0 0.0 0.0 
0.0 0.0 0.0 
0.0 0.0 0.0 
0.0 0.0 0.0 
0.0 0.0 0.0 
0.0 0.0 0.0 
0.0 0.0 0.0 
0.0 0.0 0.0 
0.0 0.0 0.0 
0.0 0.0 0.0 
0.0 0.0 0.0 
0.0 0.0 0.0 
0.0 0.0 0.0 
0.0 0.0 0.0 
0.0 0.0 0.0 
0.0 0.0 0.0 
0.0 0.0 0.0 
0.0 0.0 0.0 
0.0 0.0 0.0 
0.0 0.0 0.0 
0.0 0.0 0.0 
0.0 0.0 0.0 
0.0 0.0 0.0 
0.0 0.0 0.0 
0.0 0.0 0.0 
0.0 0.0 0.0 
0.0 0.0 0.0 
0.0 0.0 0.0 
0.0 0.0 0.0 
0.0 0.0 0.0 
0.0 0.0 0.0 
0.0 0.0 0.0 
0.0 0.0 0.0 
0.0 0.0 0.0 
0.0 0.0 0.0 
0.0 0.0 0.0 
0.0 0.0 0.0 
0.0 0.0 0.0 
0.0 0.0 0.0 
0.0 0.0 0.0 
0.0 0.0 0.0 
0.0 0.0 0.0 
0.0 0.0 0.0 
0.0 0.0 0.0 
0.0 0.0 0.0 
0.0 0.0 0.0 
0.0 0.0 0.0 
0.0 0.0 0.0 
0.0 0.0 0.0 
0.0 0.0 0.0 
0.0 0.0 0.0 
0.0 0.0 0.0 
0.0 0.0 0.0 
0.0 0.0 0.0 
0.0 0.0 0.0 
0.0 0.0 0.0 
0.0 0.0 0.0 
0.0 0.0 0.0 
0.0 0.0 0.0 
0.0 0.0 0.0 
0.0 0.0 0.0 
0.0 0.0 0.0 
0.0 0.0 0.0 
0.0 0.0 0.0 
0.0 0.0 0.0 
0.0 0.0 0.0 
0.0 0.0 0.0 
0.0 0.0 0.0 
0.0 0.0 0.0 
0.0 0.0 0.0 
0.0 0.0 0.0 
0.0 0.0 0.0 
0.0 0.0 0.0 
0.0 0.0 0.0 
0.0 0.0 0.0 
0.0 0.0 0.0 
0.0 0.0 0.0 
0.0 0.0 0.0 
0.0 0.0 0.0 
0.0 0.0 0.0 
0.0 0.0 0.0 
0.0 0.0 0.0 
0.0 0.0 0.0 
0.0 0.0 0.0 
0.0 0.0 0.0 
0.0 0.0 0.0 
0.0 0.0 0.0 
0.0 0.0 0.0 
0.0 0.0 0.0 
0.0 0.0 0.0 
0.0 0.0 0.0 
0.0 0.0 0.0 
0.0 0.0 0.0 
0.0 0.0 0.0 
0.0 0.0 0.0 
0.0 0.0 0.0 
0.0 0.0 0.0 
0.0 0.0 0.0 
0.0 0.0 0.0 
0.0 0.0 0.0 
0.0 0.0 0.0 
0.0 0.0 0.0 
0.0 0.0 0.0 
0.0 0.0 0.0 
0.0 0.0 0.0 
0.0 0.0 0.0 
0.0 0.0 0.0 
0.0 0.0 0.0 
0.0 0.0 0.0 
0.0 0.0 0.0 
0.0 0.0 0.0 
0.0 0.0 0.0 
0.0 0.0 0.0 
0.0 0.0 0.0 
0.0 0.0 0.0 
0.0 0.0 0.0 
0.0 0.0 0.0 
0.0 0.0 0.0 
0.0 0.0 0.0 
0.0 0.0 0.0 
0.0 0.0 0.0 
0.0 0.0 0.0 
0.0 0.0 0.0 
0.0 0.0 0.0 
0.0 0.0 0.0 
0.0 0.0 0.0 
0.0 0.0 0.0 
0.0 0.0 0.0 
0.0 0.0 0.0 
0.0 0.0 0.0 
0.0 0.0 0.0 
0.0 0.0 0.0 
0.0 0.0 0.0 
0.0 0.0 0.0 
0.0 0.0 0.0 
0.0 0.0 0.0 
0.0 0.0 0.0 
0.0 0.0 0.0 
0.0 0.0 0.0 
0.0 0.0 0.0 
0.0 0.0 0.0 
0.0 0.0 0.0 
0.0 0.0 0.0 
0.0 0.0 0.0 
0.0 0.0 0.0 
0.0 0.0 0.0 
0.0 0.0 0.0 
0.0 0.0 0.0 
0.0 0.0 0.0 
0.0 0.0 0.0 
0.0 0.0 0.0 
0.0 0.0 0.0 
0.0 0.0 0.0 
0.0 0.0 0.0 
0.0 0.0 0.0 
0.0 0.0 0.0 
0.0 0.0 0.0 
0.0 0.0 0.0 
0.0 0.0 0.0 
0.0 0.0 0.0 
0.0 0.0 0.0 
0.0 0.0 0.0 
0.0 0.0 0.0 
0.0 0.0 0.0 
0.0 0.0 0.0 
0.0 0.0 0.0 
0.0 0.0 0.0 
0.0 0.0 0.0 
0.0 0.0 0.0 
0.0 0.0 0.0 
0.0 0.0 0.0 
0.0 0.0 0.0 
0.0 0.0 0.0 
0.0 0.0 0.0 
0.0 0.0 0.0 
0.0 0.0 0.0 
0.0 0.0 0.0 
0.0 0.0 0.0 
0.0 0.0 0.0 
0.0 0.0 0.0 
0.0 0.0 0.0 
0.0 0.0 0.0 
0.0 0.0 0.0 
0.0 0.0 0.0 
0.0 0.0 0.0 
0.0 0.0 0.0 
0.0 0.0 0.0 
0.0 0.0 0.0 
0.0 0.0 0.0 
0.0 0.0 0.0 
0.0 0.0 0.0 
0.0 0.0 0.0 
0.0 0.0 0.0 
0.0 0.0 0.0 
0.0 0.0 0.0 
0.0 0.0 0.0 
0.0 0.0 0.0 
0.0 0.0 0.0 
0.0 0.0 0.0 
0.0 0.0 0.0 
0.0 0.0 0.0 
0.0 0.0 0.0 
0.0 0.0 0.0 
0.0 0.0 0.0 
0.0 0.0 0.0 
0.0 0.0 0.0 
0.0 0.0 0.0 
0.0 0.0 0.0 
0.0 0.0 0.0 
0.0 0.0 0.0 
0.0 0.0 0.0 
0.0 0.0 0.0 
0.0 0.0 0.0 
0.0 0.0 0.0 
0.0 0.0 0.0 
0.0 0.0 0.0 
0.0 0.0 0.0 
0.0 0.0 0.0 
0.0 0.0 0.0 
0.0 0.0 0.0 
0.0 0.0 0.0 
0.0 0.0 0.0 
0.0 0.0 0.0 
0.0 0.0 0.0 
0.0 0.0 0.0 
0.0 0.0 0.0 
0.0 0.0 0.0 
0.0 0.0 0.0 
0.0 0.0 0.0 
0.0 0.0 0.0 
0.0 0.0 0.0 
0.0 0.0 0.0 
0.0 0.0 0.0 
0.0 0.0 0.0 
0.0 0.0 0.0 
0.0 0.0 0.0 
0.0 0.0 0.0 
0.0 0.0 0.0 
0.0 0.0 0.0 
0.0 0.0 0.0 
0.0 0.0 0.0 
0.0 0.0 0.0 
0.0 0.0 0.0 
0.0 0.0 0.0 
0.0 0.0 0.0 
0.0 0.0 0.0 
0.0 0.0 0.0 
0.0 0.0 0.0 
0.0 0.0 0.0 
0.0 0.0 0.0 
0.0 0.0 0.0 
0.0 0.0 0.0 
0.0 0.0 0.0 
0.0 0.0 0.0 
0.0 0.0 0.0 
0.0 0.0 0.0 
0.0 0.0 0.0 
0.0 0.0 0.0 
0.0 0.0 0.0 
0.0 0.0 0.0 
0.0 0.0 0.0 
0.0 0.0 0.0 
0.0 0.0 0.0 
0.0 0.0 0.0 
0.0 0.0 0.0 
0.0 0.0 0.0 
0.0 0.0 0.0 
0.0 0.0 0.0 
0.0 0.0 0.0 
0.0 0.0 0.0 
0.0 0.0 0.0 
0.0 0.0 0.0 
0.0 0.0 0.0 
0.0 0.0 0.0 
0.0 0.0 0.0 
0.0 0.0 0.0 
0.0 0.0 0.0 
0.0 0.0 0.0 
0.0 0.0 0.0 
0.0 0.0 0.0 
0.0 0.0 0.0 
0.0 0.0 0.0 
0.0 0.0 0.0 
0.0 0.0 0.0 
0.0 0.0 0.0 
0.0 0.0 0.0 
0.0 0.0 0.0 
0.0 0.0 0.0 
0.0 0.0 0.0 
0.0 0.0 0.0 
0.0 0.0 0.0 
0.0 0.0 0.0 
0.0 0.0 0.0 
0.0 0.0 0.0 
0.0 0.0 0.0 
0.0 0.0 0.0 
0.0 0.0 0.0 
0.0 0.0 0.0 
0.0 0.0 0.0 
0.0 0.0 0.0 
0.0 0.0 0.0 
0.0 0.0 0.0 
0.0 0.0 0.0 
0.0 0.0 0.0 
0.0 0.0 0.0 
0.0 0.0 0.0 
0.0 0.0 0.0 
0.0 0.0 0.0 
0.0 0.0 0.0 
0.0 0.0 0.0 
0.0 0.0 0.0 
0.0 0.0 0.0 
0.0 0.0 0.0 
0.0 0.0 0.0 
0.0 0.0 0.0 
0.0 0.0 0.0 
0.0 0.0 0.0 
0.0 0.0 0.0 
0.0 0.0 0.0 
0.0 0.0 0.0 
0.0 0.0 0.0 
0.0 0.0 0.0 
0.0 0.0 0.0 
0.0 0.0 0.0 
0.0 0.0 0.0 
0.0 0.0 0.0 
0.0 0.0 0.0 
0.0 0.0 0.0 
0.0 0.0 0.0 
0.0 0.0 0.0 
0.0 0.0 0.0 
0.0 0.0 0.0 
0.0 0.0 0.0 
0.0 0.0 0.0 
0.0 0.0 0.0 
0.0 0.0 0.0 
0.0 0.0 0.0 
0.0 0.0 0.0 
0.0 0.0 0.0 
0.0 0.0 0.0 
0.0 0.0 0.0 
0.0 0.0 0.0 
0.0 0.0 0.0 
0.0 0.0 0.0 
0.0 0.0 0.0 
0.0 0.0 0.0 
0.0 0.0 0.0 
0.0 0.0 0.0 
0.0 0.0 0.0 
0.0 0.0 0.0 
0.0 0.0 0.0 
0.0 0.0 0.0 
0.0 0.0 0.0 
0.0 0.0 0.0 
0.0 0.0 0.0 
0.0 0.0 0.0 
0.0 0.0 0.0 
0.0 0.0 0.0 
0.0 0.0 0.0 
0.0 0.0 0.0 
0.0 0.0 0.0 
0.0 0.0 0.0 
0.0 0.0 0.0 
0.0 0.0 0.0 
0.0 0.0 0.0 
0.0 0.0 0.0 
0.0 0.0 0.0 
0.0 0.0 0.0 
0.0 0.0 0.0 
0.0 0.0 0.0 
0.0 0.0 0.0 
0.0 0.0 0.0 
0.0 0.0 0.0 
0.0 0.0 0.0 
0.0 0.0 0.0 
0.0 0.0 0.0 
0.0 0.0 0.0 
0.0 0.0 0.0 
0.0 0.0 0.0 
0.0 0.0 0.0 
0.0 0.0 0.0 
0.0 0.0 0.0 
0.0 0.0 0.0 
0.0 0.0 0.0 
0.0 0.0 0.0 
0.0 0.0 0.0 
0.0 0.0 0.0 
0.0 0.0 0.0 
0.0 0.0 0.0 
0.0 0.0 0.0 
0.0 0.0 0.0 
0.0 0.0 0.0 
0.0 0.0 0.0 
0.0 0.0 0.0 
0.0 0.0 0.0 
0.0 0.0 0.0 
0.0 0.0 0.0 
0.0 0.0 0.0 
0.0 0.0 0.0 
0.0 0.0 0.0 
0.0 0.0 0.0 
0.0 0.0 0.0 
0.0 0.0 0.0 
0.0 0.0 0.0 
0.0 0.0 0.0 
0.0 0.0 0.0 
0.0 0.0 0.0 
0.0 0.0 0.0 
0.0 0.0 0.0 
0.0 0.0 0.0 
0.0 0.0 0.0 
0.0 0.0 0.0 
0.0 0.0 0.0 
0.0 0.0 0.0 
0.0 0.0 0.0 
0.0 0.0 0.0 
0.0 0.0 0.0 
0.0 0.0 0.0 
0.0 0.0 0.0 
0.0 0.0 0.0 
0.0 0.0 0.0 
0.0 0.0 0.0 
0.0 0.0 0.0 
0.0 0.0 0.0 
0.0 0.0 0.0 
0.0 0.0 0.0 
0.0 0.0 0.0 
0.0 0.0 0.0 
0.0 0.0 0.0 
0.0 0.0 0.0 
0.0 0.0 0.0 
0.0 0.0 0.0 
0.0 0.0 0.0 
0.0 0.0 0.0 
0.0 0.0 0.0 
0.0 0.0 0.0 
0.0 0.0 0.0 
0.0 0.0 0.0 
0.0 0.0 0.0 
0.0 0.0 0.0 
0.0 0.0 0.0 
0.0 0.0 0.0 
0.0 0.0 0.0 
0.0 0.0 0.0 
0.0 0.0 0.0 
0.0 0.0 0.0 
0.0 0.0 0.0 
0.0 0.0 0.0 
0.0 0.0 0.0 
0.0 0.0 0.0 
0.0 0.0 0.0 
0.0 0.0 0.0 
0.0 0.0 0.0 
0.0 0.0 0.0 
0.0 0.0 0.0 
0.0 0.0 0.0 
0.0 0.0 0.0 
0.0 0.0 0.0 
0.0 0.0 0.0 
0.0 0.0 0.0 
0.0 0.0 0.0 
0.0 0.0 0.0 
0.0 0.0 0.0 
0.0 0.0 0.0 
0.0 0.0 0.0 
0.0 0.0 0.0 
0.0 0.0 0.0 
0.0 0.0 0.0 
0.0 0.0 0.0 
0.0 0.0 0.0 
0.0 0.0 0.0 
0.0 0.0 0.0 
0.0 0.0 0.0 
0.0 0.0 0.0 
0.0 0.0 0.0 
0.0 0.0 0.0 
0.0 0.0 0.0 
0.0 0.0 0.0 
0.0 0.0 0.0 
0.0 0.0 0.0 
0.0 0.0 0.0 
0.0 0.0 0.0 
0.0 0.0 0.0 
0.0 0.0 0.0 
0.0 0.0 0.0 
0.0 0.0 0.0 
0.0 0.0 0.0 
0.0 0.0 0.0 
0.0 0.0 0.0 
0.0 0.0 0.0 
0.0 0.0 0.0 
0.0 0.0 0.0 
0.0 0.0 0.0 
0.0 0.0 0.0 
0.0 0.0 0.0 
0.0 0.0 0.0 
0.0 0.0 0.0 
0.0 0.0 0.0 
0.0 0.0 0.0 
0.0 0.0 0.0 
0.0 0.0 0.0 
0.0 0.0 0.0 
0.0 0.0 0.0 
0.0 0.0 0.0 
0.0 0.0 0.0 
0.0 0.0 0.0 
0.0 0.0 0.0 
0.0 0.0 0.0 
0.0 0.0 0.0 
0.0 0.0 0.0 
0.0 0.0 0.0 
0.0 0.0 0.0 
0.0 0.0 0.0 
0.0 0.0 0.0 
0.0 0.0 0.0 
0.0 0.0 0.0 
0.0 0.0 0.0 
0.0 0.0 0.0 
0.0 0.0 0.0 
0.0 0.0 0.0 
0.0 0.0 0.0 
0.0 0.0 0.0 
0.0 0.0 0.0 
0.0 0.0 0.0 
0.0 0.0 0.0 
0.0 0.0 0.0 
0.0 0.0 0.0 
0.0 0.0 0.0 
0.0 0.0 0.0 
0.0 0.0 0.0 
0.0 0.0 0.0 
0.0 0.0 0.0 
0.0 0.0 0.0 
0.0 0.0 0.0 
0.0 0.0 0.0 
0.0 0.0 0.0 
0.0 0.0 0.0 
0.0 0.0 0.0 
0.0 0.0 0.0 
0.0 0.0 0.0 
0.0 0.0 0.0 
0.0 0.0 0.0 
0.0 0.0 0.0 
0.0 0.0 0.0 
0.0 0.0 0.0 
0.0 0.0 0.0 
0.0 0.0 0.0 
0.0 0.0 0.0 
0.0 0.0 0.0 
0.0 0.0 0.0 
0.0 0.0 0.0 
0.0 0.0 0.0 
0.0 0.0 0.0 
0.0 0.0 0.0 
0.0 0.0 0.0 
0.0 0.0 0.0 
0.0 0.0 0.0 
0.0 0.0 0.0 
0.0 0.0 0.0 
0.0 0.0 0.0 
0.0 0.0 0.0 
0.0 0.0 0.0 
0.0 0.0 0.0 
0.0 0.0 0.0 
0.0 0.0 0.0 
0.0 0.0 0.0 
0.0 0.0 0.0 
0.0 0.0 0.0 
0.0 0.0 0.0 
0.0 0.0 0.0 
0.0 0.0 0.0 
0.0 0.0 0.0 
0.0 0.0 0.0 
0.0 0.0 0.0 
0.0 0.0 0.0 
0.0 0.0 0.0 
0.0 0.0 0.0 
0.0 0.0 0.0 
0.0 0.0 0.0 
0.0 0.0 0.0 
0.0 0.0 0.0 
0.0 0.0 0.0 
0.0 0.0 0.0 
0.0 0.0 0.0 
0.0 0.0 0.0 
0.0 0.0 0.0 
0.0 0.0 0.0 
0.0 0.0 0.0 
0.0 0.0 0.0 
0.0 0.0 0.0 
0.0 0.0 0.0 
0.0 0.0 0.0 
0.0 0.0 0.0 
0.0 0.0 0.0 
0.0 0.0 0.0 
0.0 0.0 0.0 
0.0 0.0 0.0 
0.0 0.0 0.0 
0.0 0.0 0.0 
0.0 0.0 0.0 
0.0 0.0 0.0 
0.0 0.0 0.0 
0.0 0.0 0.0 
0.0 0.0 0.0 
0.0 0.0 0.0 
0.0 0.0 0.0 
0.0 0.0 0.0 
0.0 0.0 0.0 
0.0 0.0 0.0 
0.0 0.0 0.0 
0.0 0.0 0.0 
0.0 0.0 0.0 
0.0 0.0 0.0 
0.0 0.0 0.0 
0.0 0.0 0.0 
0.0 0.0 0.0 
0.0 0.0 0.0 
0.0 0.0 0.0 
0.0 0.0 0.0 
0.0 0.0 0.0 
0.0 0.0 0.0 
0.0 0.0 0.0 
0.0 0.0 0.0 
0.0 0.0 0.0 
0.0 0.0 0.0 
0.0 0.0 0.0 
0.0 0.0 0.0 
0.0 0.0 0.0 
0.0 0.0 0.0 
0.0 0.0 0.0 
0.0 0.0 0.0 
0.0 0.0 0.0 
0.0 0.0 0.0 
0.0 0.0 0.0 
0.0 0.0 0.0 
0.0 0.0 0.0 
0.0 0.0 0.0 
0.0 0.0 0.0 
0.0 0.0 0.0 
0.0 0.0 0.0 
0.0 0.0 0.0 
0.0 0.0 0.0 
0.0 0.0 0.0 
0.0 0.0 0.0 
0.0 0.0 0.0 
0.0 0.0 0.0 
0.0 0.0 0.0 
0.0 0.0 0.0 
0.0 0.0 0.0 
0.0 0.0 0.0 
0.0 0.0 0.0 
0.0 0.0 0.0 
0.0 0.0 0.0 
0.0 0.0 0.0 
0.0 0.0 0.0 
0.0 0.0 0.0 
0.0 0.0 0.0 
0.0 0.0 0.0 
0.0 0.0 0.0 
0.0 0.0 0.0 
0.0 0.0 0.0 
0.0 0.0 0.0 
0.0 0.0 0.0 
0.0 0.0 0.0 
0.0 0.0 0.0 
0.0 0.0 0.0 
0.0 0.0 0.0 
0.0 0.0 0.0 
0.0 0.0 0.0 
0.0 0.0 0.0 
0.0 0.0 0.0 
0.0 0.0 0.0 
0.0 0.0 0.0 
0.0 0.0 0.0 
0.0 0.0 0.0 
0.0 0.0 0.0 
0.0 0.0 0.0 
0.0 0.0 0.0 
0.0 0.0 0.0 
0.0 0.0 0.0 
0.0 0.0 0.0 
0.0 0.0 0.0 
0.0 0.0 0.0 
0.0 0.0 0.0 
0.0 0.0 0.0 
0.0 0.0 0.0 
0.0 0.0 0.0 
0.0 0.0 0.0 
0.0 0.0 0.0 
0.0 0.0 0.0 
0.0 0.0 0.0 
0.0 0.0 0.0 
0.0 0.0 0.0 
0.0 0.0 0.0 
0.0 0.0 0.0 
0.0 0.0 0.0 
0.0 0.0 0.0 
0.0 0.0 0.0 
0.0 0.0 0.0 
0.0 0.0 0.0 
0.0 0.0 0.0 
0.0 0.0 0.0 
0.0 0.0 0.0 
0.0 0.0 0.0 
0.0 0.0 0.0 
0.0 0.0 0.0 
0.0 0.0 0.0 
0.0 0.0 0.0 
0.0 0.0 0.0 
0.0 0.0 0.0 
0.0 0.0 0.0 
0.0 0.0 0.0 
0.0 0.0 0.0 
0.0 0.0 0.0 
0.0 0.0 0.0 
0.0 0.0 0.0 
0.0 0.0 0.0 
0.0 0.0 0.0 
0.0 0.0 0.0 
0.0 0.0 0.0 
0.0 0.0 0.0 
0.0 0.0 0.0 
0.0 0.0 0.0 
0.0 0.0 0.0 
0.0 0.0 0.0 
0.0 0.0 0.0 
0.0 0.0 0.0 
0.0 0.0 0.0 
0.0 0.0 0.0 
0.0 0.0 0.0 
0.0 0.0 0.0 
0.0 0.0 0.0 
0.0 0.0 0.0 
0.0 0.0 0.0 
0.0 0.0 0.0 
0.0 0.0 0.0 
0.0 0.0 0.0 
0.0 0.0 0.0 
0.0 0.0 0.0 
0.0 0.0 0.0 
0.0 0.0 0.0 
0.0 0.0 0.0 
0.0 0.0 0.0 
0.0 0.0 0.0 
0.0 0.0 0.0 
0.0 0.0 0.0 
0.0 0.0 0.0 
0.0 0.0 0.0 
0.0 0.0 0.0 
0.0 0.0 0.0 
0.0 0.0 0.0 
0.0 0.0 0.0 
0.0 0.0 0.0 
0.0 0.0 0.0 
0.0 0.0 0.0 
0.0 0.0 0.0 
0.0 0.0 0.0 
0.0 0.0 0.0 
0.0 0.0 0.0 
0.0 0.0 0.0 
0.0 0.0 0.0 
0.0 0.0 0.0 
0.0 0.0 0.0 
0.0 0.0 0.0 
0.0 0.0 0.0 
0.0 0.0 0.0 
0.0 0.0 0.0 
0.0 0.0 0.0 
0.0 0.0 0.0 
0.0 0.0 0.0 
0.0 0.0 0.0 
0.0 0.0 0.0 
0.0 0.0 0.0 
0.0 0.0 0.0 
0.0 0.0 0.0 
0.0 0.0 0.0 
0.0 0.0 0.0 
0.0 0.0 0.0 
0.0 0.0 0.0 
0.0 0.0 0.0 
0.0 0.0 0.0 
0.0 0.0 0.0 
0.0 0.0 0.0 
0.0 0.0 0.0 
0.0 0.0 0.0 
0.0 0.0 0.0 
0.0 0.0 0.0 
0.0 0.0 0.0 
0.0 0.0 0.0 
0.0 0.0 0.0 
0.0 0.0 0.0 
0.0 0.0 0.0 
0.0 0.0 0.0 
0.0 0.0 0.0 
0.0 0.0 0.0 
0.0 0.0 0.0 
0.0 0.0 0.0 
0.0 0.0 0.0 
0.0 0.0 0.0 
0.0 0.0 0.0 
0.0 0.0 0.0 

SCALARS node_boundary float
LOOKUP_TABLE default
1.000000000000e+00 
1.000000000000e+00 
1.000000000000e+00 
1.000000000000e+00 
1.000000000000e+00 
1.000000000000e+00 
1.000000000000e+00 
1.000000000000e+00 
1.000000000000e+00 
1.000000000000e+00 
1.000000000000e+00 
1.000000000000e+00 
1.000000000000e+00 
1.000000000000e+00 
1.000000000000e+00 
1.000000000000e+00 
1.000000000000e+00 
1.000000000000e+00 
1.000000000000e+00 
1.000000000000e+00 
1.000000000000e+00 
1.000000000000e+00 
1.000000000000e+00 
1.000000000000e+00 
1.000000000000e+00 
1.000000000000e+00 
1.000000000000e+00 
1.000000000000e+00 
1.000000000000e+00 
1.000000000000e+00 
1.000000000000e+00 
1.000000000000e+00 
1.000000000000e+00 
1.000000000000e+00 
1.000000000000e+00 
1.000000000000e+00 
1.000000000000e+00 
1.000000000000e+00 
1.000000000000e+00 
1.000000000000e+00 
1.000000000000e+00 
1.000000000000e+00 
1.000000000000e+00 
1.000000000000e+00 
1.000000000000e+00 
1.000000000000e+00 
1.000000000000e+00 
1.000000000000e+00 
1.000000000000e+00 
1.000000000000e+00 
1.000000000000e+00 
1.000000000000e+00 
1.000000000000e+00 
1.000000000000e+00 
1.000000000000e+00 
1.000000000000e+00 
1.000000000000e+00 
1.000000000000e+00 
1.000000000000e+00 
1.000000000000e+00 
1.000000000000e+00 
1.000000000000e+00 
1.000000000000e+00 
1.000000000000e+00 
1.000000000000e+00 
1.000000000000e+00 
1.000000000000e+00 
1.000000000000e+00 
1.000000000000e+00 
1.000000000000e+00 
1.000000000000e+00 
1.000000000000e+00 
1.000000000000e+00 
1.000000000000e+00 
1.000000000000e+00 
1.000000000000e+00 
1.000000000000e+00 
1.000000000000e+00 
1.000000000000e+00 
1.000000000000e+00 
1.000000000000e+00 
1.000000000000e+00 
1.000000000000e+00 
0.0
0.0
0.0
0.0
0.0
0.0
0.0
0.0
0.0
0.0
1.000000000000e+00 
1.000000000000e+00 
1.000000000000e+00 
1.000000000000e+00 
1.000000000000e+00 
1.000000000000e+00 
1.000000000000e+00 
1.000000000000e+00 
1.000000000000e+00 
0.0
0.0
0.0
0.0
0.0
0.0
0.0
0.0
0.0
0.0
0.0
0.0
0.0
0.0
1.000000000000e+00 
1.000000000000e+00 
1.000000000000e+00 
1.000000000000e+00 
1.000000000000e+00 
1.000000000000e+00 
1.000000000000e+00 
1.000000000000e+00 
1.000000000000e+00 
1.000000000000e+00 
1.000000000000e+00 
1.000000000000e+00 
1.000000000000e+00 
1.000000000000e+00 
1.000000000000e+00 
1.000000000000e+00 
1.000000000000e+00 
1.000000000000e+00 
1.000000000000e+00 
1.000000000000e+00 
1.000000000000e+00 
1.000000000000e+00 
1.000000000000e+00 
1.000000000000e+00 
1.000000000000e+00 
1.000000000000e+00 
1.000000000000e+00 
1.000000000000e+00 
1.000000000000e+00 
1.000000000000e+00 
1.000000000000e+00 
1.000000000000e+00 
1.000000000000e+00 
1.000000000000e+00 
1.000000000000e+00 
1.000000000000e+00 
1.000000000000e+00 
1.000000000000e+00 
1.000000000000e+00 
1.000000000000e+00 
1.000000000000e+00 
1.000000000000e+00 
1.000000000000e+00 
1.000000000000e+00 
1.000000000000e+00 
1.000000000000e+00 
1.000000000000e+00 
1.000000000000e+00 
0.0
0.0
0.0
0.0
0.0
0.0
0.0
0.0
0.0
0.0
0.0
0.0
0.0
0.0
0.0
0.0
0.0
0.0
0.0
0.0
0.0
0.0
0.0
0.0
0.0
0.0
0.0
0.0
0.0
0.0
0.0
0.0
0.0
0.0
0.0
0.0
0.0
0.0
0.0
0.0
0.0
0.0
0.0
0.0
0.0
0.0
0.0
0.0
0.0
0.0
0.0
0.0
0.0
0.0
0.0
0.0
0.0
0.0
0.0
0.0
0.0
0.0
0.0
0.0
0.0
0.0
0.0
0.0
0.0
0.0
0.0
0.0
0.0
0.0
0.0
0.0
0.0
0.0
0.0
0.0
0.0
0.0
0.0
0.0
0.0
0.0
0.0
0.0
0.0
0.0
0.0
0.0
0.0
0.0
0.0
0.0
0.0
0.0
0.0
0.0
0.0
0.0
0.0
0.0
0.0
0.0
0.0
0.0
0.0
0.0
0.0
0.0
0.0
0.0
0.0
0.0
0.0
0.0
0.0
0.0
0.0
0.0
0.0
0.0
0.0
0.0
0.0
0.0
0.0
0.0
0.0
0.0
0.0
0.0
0.0
0.0
0.0
0.0
0.0
0.0
0.0
0.0
0.0
0.0
0.0
0.0
0.0
0.0
0.0
0.0
0.0
0.0
0.0
0.0
0.0
0.0
0.0
0.0
0.0
0.0
0.0
0.0
0.0
0.0
0.0
0.0
0.0
0.0
0.0
0.0
0.0
0.0
0.0
0.0
0.0
0.0
0.0
0.0
0.0
0.0
0.0
0.0
0.0
0.0
0.0
0.0
0.0
0.0
0.0
0.0
0.0
0.0
0.0
0.0
0.0
0.0
0.0
0.0
0.0
0.0
0.0
0.0
0.0
0.0
0.0
0.0
0.0
0.0
0.0
0.0
0.0
0.0
0.0
0.0
0.0
0.0
0.0
0.0
0.0
0.0
0.0
0.0
0.0
0.0
0.0
0.0
0.0
0.0
0.0
0.0
0.0
0.0
0.0
0.0
0.0
0.0
0.0
0.0
0.0
0.0
0.0
0.0
0.0
0.0
0.0
0.0
0.0
0.0
0.0
0.0
0.0
0.0
0.0
0.0
0.0
0.0
0.0
0.0
0.0
0.0
0.0
0.0
0.0
0.0
0.0
0.0
0.0
0.0
0.0
0.0
0.0
0.0
0.0
0.0
0.0
0.0
0.0
0.0
0.0
0.0
0.0
0.0
0.0
0.0
0.0
0.0
0.0
0.0
0.0
0.0
0.0
0.0
0.0
0.0
0.0
0.0
0.0
0.0
0.0
0.0
0.0
0.0
0.0
0.0
0.0
0.0
0.0
0.0
0.0
0.0
0.0
0.0
0.0
0.0
0.0
0.0
0.0
0.0
0.0
0.0
0.0
0.0
0.0
0.0
0.0
0.0
0.0
0.0
0.0
0.0
0.0
0.0
0.0
0.0
0.0
0.0
0.0
0.0
0.0
0.0
0.0
0.0
0.0
0.0
0.0
0.0
0.0
0.0
0.0
0.0
0.0
0.0
0.0
0.0
0.0
0.0
0.0
0.0
0.0
0.0
0.0
0.0
0.0
0.0
0.0
0.0
0.0
0.0
0.0
0.0
0.0
0.0
0.0
0.0
0.0
0.0
0.0
0.0
0.0
0.0
0.0
0.0
0.0
0.0
0.0
0.0
0.0
0.0
0.0
0.0
0.0
0.0
0.0
0.0
0.0
0.0
0.0
0.0
0.0
0.0
0.0
0.0
0.0
0.0
0.0
0.0
0.0
0.0
0.0
0.0
0.0
0.0
0.0
0.0
0.0
0.0
0.0
0.0
0.0
0.0
0.0
0.0
0.0
0.0
0.0
0.0
0.0
0.0
0.0
0.0
0.0
0.0
0.0
0.0
0.0
0.0
0.0
0.0
0.0
0.0
0.0
0.0
0.0
0.0
0.0
0.0
0.0
0.0
0.0
0.0
0.0
0.0
0.0
0.0
0.0
0.0
0.0
0.0
0.0
0.0
0.0
0.0
0.0
0.0
0.0
0.0
0.0
0.0
0.0
0.0
0.0
0.0
0.0
0.0
0.0
0.0
0.0
0.0
0.0
0.0
0.0
0.0
0.0
0.0
0.0
0.0
0.0
0.0
0.0
0.0
0.0
0.0
0.0
0.0
0.0
0.0
0.0
0.0
0.0
0.0
0.0
0.0
0.0
0.0
0.0
0.0
0.0
0.0
0.0
0.0
0.0
0.0
0.0
0.0
0.0
0.0
0.0
0.0
0.0
0.0
0.0
0.0
0.0
0.0
0.0
0.0
0.0
0.0
0.0
0.0
0.0
0.0
0.0
0.0
0.0
0.0
0.0
0.0
0.0
0.0
0.0
0.0
0.0
0.0
0.0
0.0
0.0
0.0
0.0
0.0
0.0
0.0
0.0
0.0
0.0
0.0
0.0
0.0
0.0
0.0
0.0
0.0
0.0
0.0
0.0
0.0
0.0
0.0
0.0
0.0
0.0
0.0
0.0
0.0
0.0
0.0
0.0
0.0
0.0
0.0
0.0
0.0
0.0
0.0
0.0
0.0
0.0
0.0
0.0
0.0
0.0
0.0
0.0
0.0
0.0
0.0
0.0
0.0
0.0
0.0
0.0
0.0
0.0
0.0
0.0
0.0
0.0
0.0
0.0
0.0
0.0
0.0
0.0
0.0
0.0
0.0
0.0
0.0
0.0
0.0
0.0
0.0
0.0
0.0
0.0
0.0
0.0
0.0
0.0
0.0
0.0
0.0
0.0
0.0
0.0
0.0
0.0
0.0
0.0
0.0
0.0
0.0
0.0
0.0
0.0
0.0
0.0
0.0
0.0
0.0
0.0
0.0
0.0
0.0
0.0
0.0
0.0
0.0
0.0
0.0
0.0
0.0
0.0
0.0
0.0
0.0
0.0
0.0
0.0
0.0
0.0
0.0
0.0
0.0
0.0
0.0
0.0
0.0
0.0
0.0
0.0
0.0
0.0
0.0
0.0
0.0
0.0
0.0
0.0
0.0
0.0
0.0
0.0
0.0
0.0
0.0
0.0
0.0
0.0
0.0
0.0
0.0
0.0
0.0
0.0
0.0
0.0
0.0
0.0
0.0
0.0
0.0
0.0
0.0
0.0
0.0
0.0
0.0
0.0
0.0
0.0
0.0
0.0
0.0
0.0
0.0
0.0
0.0
0.0
0.0
0.0
0.0
0.0
0.0
0.0
0.0
0.0
0.0
0.0
0.0
0.0
0.0
0.0
0.0
0.0
0.0
0.0
0.0
0.0
0.0
0.0
0.0
0.0
0.0
0.0
0.0
0.0
0.0
0.0
0.0
0.0
0.0
0.0
0.0
0.0
0.0
0.0
0.0
0.0
0.0
0.0
0.0
0.0
0.0
0.0
0.0
0.0
0.0
0.0
0.0
0.0
0.0
0.0
0.0
0.0
0.0
0.0
0.0
0.0
0.0
0.0
0.0
0.0
0.0
0.0
0.0
0.0
0.0
0.0
0.0
0.0
0.0
0.0
0.0
0.0
0.0
0.0
0.0
0.0
0.0
0.0
0.0
0.0
0.0
0.0
0.0
0.0
0.0
0.0
0.0
0.0
0.0
0.0
0.0
0.0
0.0
0.0
0.0
0.0
0.0
0.0
0.0
0.0
0.0
0.0
0.0
0.0
0.0
0.0
0.0
0.0
0.0
0.0
0.0
0.0
0.0
0.0
0.0
0.0
0.0
0.0
0.0
0.0
0.0
0.0
0.0
0.0
0.0
0.0
0.0
0.0
0.0
0.0
0.0
0.0
0.0
0.0
0.0
0.0
0.0
0.0
0.0
0.0
0.0
0.0
0.0
0.0
0.0
0.0
0.0
0.0
0.0
0.0
0.0
0.0
0.0
0.0
0.0
0.0
0.0
0.0
0.0
0.0
0.0
0.0
0.0
0.0
0.0
0.0
0.0
0.0
0.0
0.0
0.0
0.0
0.0
0.0
0.0
0.0
0.0
0.0
0.0
0.0
0.0
0.0
0.0
0.0
0.0
0.0
0.0
0.0
0.0
0.0
0.0
0.0
0.0
0.0
0.0
0.0
0.0
0.0
0.0
0.0
0.0
0.0
0.0
0.0
0.0
0.0
0.0
0.0
0.0
0.0
0.0
0.0
0.0
0.0
0.0
0.0
0.0
0.0
0.0
0.0
0.0
0.0
0.0
0.0
0.0
0.0
0.0
0.0
0.0
0.0
0.0
0.0
0.0
0.0
0.0
0.0
0.0
0.0
0.0
0.0
0.0
0.0
0.0
0.0
0.0
0.0
0.0
0.0
0.0
0.0
0.0
0.0
0.0
0.0
0.0
0.0
0.0
0.0
0.0
0.0
0.0
0.0
0.0
0.0
0.0
0.0
0.0
0.0
0.0
0.0
0.0
0.0
0.0
0.0
0.0
0.0
0.0
0.0
0.0
0.0
0.0
0.0
0.0
0.0
0.0
0.0
0.0
0.0
0.0
0.0
0.0
0.0
0.0
0.0
0.0
0.0
0.0
0.0
0.0
0.0
0.0
0.0
0.0
0.0
0.0
0.0
0.0
0.0
0.0
0.0
0.0
0.0
0.0
0.0
0.0
0.0
0.0
0.0
0.0
0.0
0.0
0.0
0.0
0.0
0.0
0.0
0.0
0.0
0.0
0.0
0.0
0.0
0.0
0.0
0.0
0.0
0.0
0.0
0.0
0.0
0.0
0.0
0.0
0.0
0.0
0.0
0.0
0.0
0.0
0.0
0.0
0.0
0.0
0.0
0.0
0.0
0.0
0.0
0.0
0.0
0.0
0.0
0.0
0.0
0.0
0.0
0.0
0.0
0.0
0.0
0.0
0.0
0.0
0.0
0.0
0.0
0.0
0.0
0.0
0.0
0.0
0.0
0.0
0.0
0.0
0.0

VECTORS node_force_edge float
0.0 0.0 0.0 
0.0 0.0 0.0 
0.0 0.0 0.0 
0.0 0.0 0.0 
0.0 0.0 0.0 
0.0 0.0 0.0 
0.0 0.0 0.0 
0.0 0.0 0.0 
0.0 0.0 0.0 
0.0 0.0 0.0 
0.0 0.0 0.0 
0.0 0.0 0.0 
0.0 0.0 0.0 
0.0 0.0 0.0 
0.0 0.0 0.0 
0.0 0.0 0.0 
0.0 0.0 0.0 
0.0 0.0 0.0 
0.0 0.0 0.0 
0.0 0.0 0.0 
0.0 0.0 0.0 
0.0 0.0 0.0 
0.0 0.0 0.0 
0.0 0.0 0.0 
0.0 0.0 0.0 
0.0 0.0 0.0 
0.0 0.0 0.0 
0.0 0.0 0.0 
0.0 0.0 0.0 
0.0 0.0 0.0 
0.0 0.0 0.0 
0.0 0.0 0.0 
0.0 0.0 0.0 
0.0 0.0 0.0 
0.0 0.0 0.0 
0.0 0.0 0.0 
0.0 0.0 0.0 
0.0 0.0 0.0 
0.0 0.0 0.0 
0.0 0.0 0.0 
0.0 0.0 0.0 
0.0 0.0 0.0 
0.0 0.0 0.0 
0.0 0.0 0.0 
0.0 0.0 0.0 
0.0 0.0 0.0 
0.0 0.0 0.0 
0.0 0.0 0.0 
0.0 0.0 0.0 
0.0 0.0 0.0 
0.0 0.0 0.0 
0.0 0.0 0.0 
0.0 0.0 0.0 
0.0 0.0 0.0 
0.0 0.0 0.0 
0.0 0.0 0.0 
0.0 0.0 0.0 
0.0 0.0 0.0 
0.0 0.0 0.0 
0.0 0.0 0.0 
0.0 0.0 0.0 
0.0 0.0 0.0 
0.0 0.0 0.0 
0.0 0.0 0.0 
0.0 0.0 0.0 
0.0 0.0 0.0 
0.0 0.0 0.0 
0.0 0.0 0.0 
0.0 0.0 0.0 
0.0 0.0 0.0 
0.0 0.0 0.0 
0.0 0.0 0.0 
0.0 0.0 0.0 
0.0 0.0 0.0 
0.0 0.0 0.0 
0.0 0.0 0.0 
0.0 0.0 0.0 
0.0 0.0 0.0 
0.0 0.0 0.0 
0.0 0.0 0.0 
0.0 0.0 0.0 
0.0 -1.000000000000e+02 0.0 
0.0 0.0 0.0 
0.0 0.0 0.0 
0.0 0.0 0.0 
0.0 0.0 0.0 
0.0 0.0 0.0 
0.0 0.0 0.0 
0.0 0.0 0.0 
0.0 0.0 0.0 
0.0 0.0 0.0 
0.0 0.0 0.0 
0.0 0.0 0.0 
0.0 0.0 0.0 
0.0 0.0 0.0 
0.0 0.0 0.0 
0.0 0.0 0.0 
0.0 0.0 0.0 
0.0 0.0 0.0 
0.0 0.0 0.0 
0.0 0.0 0.0 
0.0 0.0 0.0 
0.0 0.0 0.0 
0.0 0.0 0.0 
0.0 0.0 0.0 
0.0 0.0 0.0 
0.0 0.0 0.0 
0.0 0.0 0.0 
0.0 0.0 0.0 
0.0 0.0 0.0 
0.0 0.0 0.0 
0.0 0.0 0.0 
0.0 0.0 0.0 
0.0 0.0 0.0 
0.0 0.0 0.0 
0.0 0.0 0.0 
0.0 -1.000000000000e+02 0.0 
0.0 -1.000000000000e+02 0.0 
0.0 -1.000000000000e+02 0.0 
0.0 -1.000000000000e+02 0.0 
0.0 -1.000000000000e+02 0.0 
0.0 0.0 0.0 
0.0 0.0 0.0 
0.0 0.0 0.0 
0.0 0.0 0.0 
0.0 0.0 0.0 
0.0 0.0 0.0 
0.0 0.0 0.0 
0.0 0.0 0.0 
0.0 0.0 0.0 
0.0 0.0 0.0 
0.0 0.0 0.0 
0.0 0.0 0.0 
0.0 0.0 0.0 
0.0 0.0 0.0 
0.0 0.0 0.0 
0.0 0.0 0.0 
0.0 0.0 0.0 
0.0 0.0 0.0 
0.0 0.0 0.0 
0.0 0.0 0.0 
0.0 0.0 0.0 
0.0 0.0 0.0 
0.0 0.0 0.0 
0.0 0.0 0.0 
0.0 0.0 0.0 
0.0 0.0 0.0 
0.0 0.0 0.0 
0.0 0.0 0.0 
0.0 0.0 0.0 
0.0 0.0 0.0 
0.0 0.0 0.0 
0.0 0.0 0.0 
0.0 0.0 0.0 
0.0 0.0 0.0 
0.0 0.0 0.0 
0.0 0.0 0.0 
0.0 0.0 0.0 
0.0 0.0 0.0 
0.0 0.0 0.0 
0.0 0.0 0.0 
0.0 0.0 0.0 
0.0 0.0 0.0 
0.0 0.0 0.0 
0.0 0.0 0.0 
0.0 0.0 0.0 
0.0 0.0 0.0 
0.0 0.0 0.0 
0.0 0.0 0.0 
0.0 0.0 0.0 
0.0 0.0 0.0 
0.0 0.0 0.0 
0.0 0.0 0.0 
0.0 0.0 0.0 
0.0 0.0 0.0 
0.0 0.0 0.0 
0.0 0.0 0.0 
0.0 0.0 0.0 
0.0 0.0 0.0 
0.0 0.0 0.0 
0.0 0.0 0.0 
0.0 0.0 0.0 
0.0 0.0 0.0 
0.0 0.0 0.0 
0.0 0.0 0.0 
0.0 0.0 0.0 
0.0 0.0 0.0 
0.0 0.0 0.0 
0.0 0.0 0.0 
0.0 0.0 0.0 
0.0 0.0 0.0 
0.0 0.0 0.0 
0.0 0.0 0.0 
0.0 0.0 0.0 
0.0 0.0 0.0 
0.0 0.0 0.0 
0.0 0.0 0.0 
0.0 0.0 0.0 
0.0 0.0 0.0 
0.0 0.0 0.0 
0.0 0.0 0.0 
0.0 0.0 0.0 
0.0 0.0 0.0 
0.0 0.0 0.0 
0.0 0.0 0.0 
0.0 0.0 0.0 
0.0 0.0 0.0 
0.0 0.0 0.0 
0.0 0.0 0.0 
0.0 0.0 0.0 
0.0 0.0 0.0 
0.0 0.0 0.0 
0.0 0.0 0.0 
0.0 0.0 0.0 
0.0 0.0 0.0 
0.0 0.0 0.0 
0.0 0.0 0.0 
0.0 0.0 0.0 
0.0 0.0 0.0 
0.0 0.0 0.0 
0.0 0.0 0.0 
0.0 0.0 0.0 
0.0 0.0 0.0 
0.0 0.0 0.0 
0.0 0.0 0.0 
0.0 0.0 0.0 
0.0 0.0 0.0 
0.0 0.0 0.0 
0.0 0.0 0.0 
0.0 0.0 0.0 
0.0 0.0 0.0 
0.0 0.0 0.0 
0.0 0.0 0.0 
0.0 0.0 0.0 
0.0 0.0 0.0 
0.0 0.0 0.0 
0.0 0.0 0.0 
0.0 0.0 0.0 
0.0 0.0 0.0 
0.0 0.0 0.0 
0.0 0.0 0.0 
0.0 0.0 0.0 
0.0 0.0 0.0 
0.0 0.0 0.0 
0.0 0.0 0.0 
0.0 0.0 0.0 
0.0 0.0 0.0 
0.0 0.0 0.0 
0.0 0.0 0.0 
0.0 0.0 0.0 
0.0 0.0 0.0 
0.0 0.0 0.0 
0.0 0.0 0.0 
0.0 0.0 0.0 
0.0 0.0 0.0 
0.0 0.0 0.0 
0.0 0.0 0.0 
0.0 0.0 0.0 
0.0 0.0 0.0 
0.0 0.0 0.0 
0.0 0.0 0.0 
0.0 0.0 0.0 
0.0 0.0 0.0 
0.0 0.0 0.0 
0.0 0.0 0.0 
0.0 0.0 0.0 
0.0 0.0 0.0 
0.0 0.0 0.0 
0.0 0.0 0.0 
0.0 0.0 0.0 
0.0 0.0 0.0 
0.0 0.0 0.0 
0.0 0.0 0.0 
0.0 0.0 0.0 
0.0 0.0 0.0 
0.0 0.0 0.0 
0.0 0.0 0.0 
0.0 0.0 0.0 
0.0 0.0 0.0 
0.0 0.0 0.0 
0.0 0.0 0.0 
0.0 0.0 0.0 
0.0 0.0 0.0 
0.0 0.0 0.0 
0.0 0.0 0.0 
0.0 0.0 0.0 
0.0 0.0 0.0 
0.0 0.0 0.0 
0.0 0.0 0.0 
0.0 0.0 0.0 
0.0 0.0 0.0 
0.0 0.0 0.0 
0.0 0.0 0.0 
0.0 0.0 0.0 
0.0 0.0 0.0 
0.0 0.0 0.0 
0.0 0.0 0.0 
0.0 0.0 0.0 
0.0 0.0 0.0 
0.0 0.0 0.0 
0.0 0.0 0.0 
0.0 0.0 0.0 
0.0 0.0 0.0 
0.0 0.0 0.0 
0.0 0.0 0.0 
0.0 0.0 0.0 
0.0 0.0 0.0 
0.0 0.0 0.0 
0.0 0.0 0.0 
0.0 0.0 0.0 
0.0 0.0 0.0 
0.0 0.0 0.0 
0.0 0.0 0.0 
0.0 0.0 0.0 
0.0 0.0 0.0 
0.0 0.0 0.0 
0.0 0.0 0.0 
0.0 0.0 0.0 
0.0 0.0 0.0 
0.0 0.0 0.0 
0.0 0.0 0.0 
0.0 0.0 0.0 
0.0 0.0 0.0 
0.0 0.0 0.0 
0.0 0.0 0.0 
0.0 0.0 0.0 
0.0 0.0 0.0 
0.0 0.0 0.0 
0.0 0.0 0.0 
0.0 0.0 0.0 
0.0 0.0 0.0 
0.0 0.0 0.0 
0.0 0.0 0.0 
0.0 0.0 0.0 
0.0 0.0 0.0 
0.0 0.0 0.0 
0.0 0.0 0.0 
0.0 0.0 0.0 
0.0 0.0 0.0 
0.0 0.0 0.0 
0.0 0.0 0.0 
0.0 0.0 0.0 
0.0 0.0 0.0 
0.0 0.0 0.0 
0.0 0.0 0.0 
0.0 0.0 0.0 
0.0 0.0 0.0 
0.0 0.0 0.0 
0.0 0.0 0.0 
0.0 0.0 0.0 
0.0 0.0 0.0 
0.0 0.0 0.0 
0.0 0.0 0.0 
0.0 0.0 0.0 
0.0 0.0 0.0 
0.0 0.0 0.0 
0.0 0.0 0.0 
0.0 0.0 0.0 
0.0 0.0 0.0 
0.0 0.0 0.0 
0.0 0.0 0.0 
0.0 0.0 0.0 
0.0 0.0 0.0 
0.0 0.0 0.0 
0.0 0.0 0.0 
0.0 0.0 0.0 
0.0 0.0 0.0 
0.0 0.0 0.0 
0.0 0.0 0.0 
0.0 0.0 0.0 
0.0 0.0 0.0 
0.0 0.0 0.0 
0.0 0.0 0.0 
0.0 0.0 0.0 
0.0 0.0 0.0 
0.0 0.0 0.0 
0.0 0.0 0.0 
0.0 0.0 0.0 
0.0 0.0 0.0 
0.0 0.0 0.0 
0.0 0.0 0.0 
0.0 0.0 0.0 
0.0 0.0 0.0 
0.0 0.0 0.0 
0.0 0.0 0.0 
0.0 0.0 0.0 
0.0 0.0 0.0 
0.0 0.0 0.0 
0.0 0.0 0.0 
0.0 0.0 0.0 
0.0 0.0 0.0 
0.0 0.0 0.0 
0.0 0.0 0.0 
0.0 0.0 0.0 
0.0 0.0 0.0 
0.0 0.0 0.0 
0.0 0.0 0.0 
0.0 0.0 0.0 
0.0 0.0 0.0 
0.0 0.0 0.0 
0.0 0.0 0.0 
0.0 0.0 0.0 
0.0 0.0 0.0 
0.0 0.0 0.0 
0.0 0.0 0.0 
0.0 0.0 0.0 
0.0 0.0 0.0 
0.0 0.0 0.0 
0.0 0.0 0.0 
0.0 0.0 0.0 
0.0 0.0 0.0 
0.0 0.0 0.0 
0.0 0.0 0.0 
0.0 0.0 0.0 
0.0 0.0 0.0 
0.0 0.0 0.0 
0.0 0.0 0.0 
0.0 0.0 0.0 
0.0 0.0 0.0 
0.0 0.0 0.0 
0.0 0.0 0.0 
0.0 0.0 0.0 
0.0 0.0 0.0 
0.0 0.0 0.0 
0.0 0.0 0.0 
0.0 0.0 0.0 
0.0 0.0 0.0 
0.0 0.0 0.0 
0.0 0.0 0.0 
0.0 0.0 0.0 
0.0 0.0 0.0 
0.0 0.0 0.0 
0.0 0.0 0.0 
0.0 0.0 0.0 
0.0 0.0 0.0 
0.0 0.0 0.0 
0.0 0.0 0.0 
0.0 0.0 0.0 
0.0 0.0 0.0 
0.0 0.0 0.0 
0.0 0.0 0.0 
0.0 0.0 0.0 
0.0 0.0 0.0 
0.0 0.0 0.0 
0.0 0.0 0.0 
0.0 0.0 0.0 
0.0 0.0 0.0 
0.0 0.0 0.0 
0.0 0.0 0.0 
0.0 0.0 0.0 
0.0 0.0 0.0 
0.0 0.0 0.0 
0.0 0.0 0.0 
0.0 0.0 0.0 
0.0 0.0 0.0 
0.0 0.0 0.0 
0.0 0.0 0.0 
0.0 0.0 0.0 
0.0 0.0 0.0 
0.0 0.0 0.0 
0.0 0.0 0.0 
0.0 0.0 0.0 
0.0 0.0 0.0 
0.0 0.0 0.0 
0.0 0.0 0.0 
0.0 0.0 0.0 
0.0 0.0 0.0 
0.0 0.0 0.0 
0.0 0.0 0.0 
0.0 0.0 0.0 
0.0 0.0 0.0 
0.0 0.0 0.0 
0.0 0.0 0.0 
0.0 0.0 0.0 
0.0 0.0 0.0 
0.0 0.0 0.0 
0.0 0.0 0.0 
0.0 0.0 0.0 
0.0 0.0 0.0 
0.0 0.0 0.0 
0.0 0.0 0.0 
0.0 0.0 0.0 
0.0 0.0 0.0 
0.0 0.0 0.0 
0.0 0.0 0.0 
0.0 0.0 0.0 
0.0 0.0 0.0 
0.0 0.0 0.0 
0.0 0.0 0.0 
0.0 0.0 0.0 
0.0 0.0 0.0 
0.0 0.0 0.0 
0.0 0.0 0.0 
0.0 0.0 0.0 
0.0 0.0 0.0 
0.0 0.0 0.0 
0.0 0.0 0.0 
0.0 0.0 0.0 
0.0 0.0 0.0 
0.0 0.0 0.0 
0.0 0.0 0.0 
0.0 0.0 0.0 
0.0 0.0 0.0 
0.0 0.0 0.0 
0.0 0.0 0.0 
0.0 0.0 0.0 
0.0 0.0 0.0 
0.0 0.0 0.0 
0.0 0.0 0.0 
0.0 0.0 0.0 
0.0 0.0 0.0 
0.0 0.0 0.0 
0.0 0.0 0.0 
0.0 0.0 0.0 
0.0 0.0 0.0 
0.0 0.0 0.0 
0.0 0.0 0.0 
0.0 0.0 0.0 
0.0 0.0 0.0 
0.0 0.0 0.0 
0.0 0.0 0.0 
0.0 0.0 0.0 
0.0 0.0 0.0 
0.0 0.0 0.0 
0.0 0.0 0.0 
0.0 0.0 0.0 
0.0 0.0 0.0 
0.0 0.0 0.0 
0.0 0.0 0.0 
0.0 0.0 0.0 
0.0 0.0 0.0 
0.0 0.0 0.0 
0.0 0.0 0.0 
0.0 0.0 0.0 
0.0 0.0 0.0 
0.0 0.0 0.0 
0.0 0.0 0.0 
0.0 0.0 0.0 
0.0 0.0 0.0 
0.0 0.0 0.0 
0.0 0.0 0.0 
0.0 0.0 0.0 
0.0 0.0 0.0 
0.0 0.0 0.0 
0.0 0.0 0.0 
0.0 0.0 0.0 
0.0 0.0 0.0 
0.0 0.0 0.0 
0.0 0.0 0.0 
0.0 0.0 0.0 
0.0 0.0 0.0 
0.0 0.0 0.0 
0.0 0.0 0.0 
0.0 0.0 0.0 
0.0 0.0 0.0 
0.0 0.0 0.0 
0.0 0.0 0.0 
0.0 0.0 0.0 
0.0 0.0 0.0 
0.0 0.0 0.0 
0.0 0.0 0.0 
0.0 0.0 0.0 
0.0 0.0 0.0 
0.0 0.0 0.0 
0.0 0.0 0.0 
0.0 0.0 0.0 
0.0 0.0 0.0 
0.0 0.0 0.0 
0.0 0.0 0.0 
0.0 0.0 0.0 
0.0 0.0 0.0 
0.0 0.0 0.0 
0.0 0.0 0.0 
0.0 0.0 0.0 
0.0 0.0 0.0 
0.0 0.0 0.0 
0.0 0.0 0.0 
0.0 0.0 0.0 
0.0 0.0 0.0 
0.0 0.0 0.0 
0.0 0.0 0.0 
0.0 0.0 0.0 
0.0 0.0 0.0 
0.0 0.0 0.0 
0.0 0.0 0.0 
0.0 0.0 0.0 
0.0 0.0 0.0 
0.0 0.0 0.0 
0.0 0.0 0.0 
0.0 0.0 0.0 
0.0 0.0 0.0 
0.0 0.0 0.0 
0.0 0.0 0.0 
0.0 0.0 0.0 
0.0 0.0 0.0 
0.0 0.0 0.0 
0.0 0.0 0.0 
0.0 0.0 0.0 
0.0 0.0 0.0 
0.0 0.0 0.0 
0.0 0.0 0.0 
0.0 0.0 0.0 
0.0 0.0 0.0 
0.0 0.0 0.0 
0.0 0.0 0.0 
0.0 0.0 0.0 
0.0 0.0 0.0 
0.0 0.0 0.0 
0.0 0.0 0.0 
0.0 0.0 0.0 
0.0 0.0 0.0 
0.0 0.0 0.0 
0.0 0.0 0.0 
0.0 0.0 0.0 
0.0 0.0 0.0 
0.0 0.0 0.0 
0.0 0.0 0.0 
0.0 0.0 0.0 
0.0 0.0 0.0 
0.0 0.0 0.0 
0.0 0.0 0.0 
0.0 0.0 0.0 
0.0 0.0 0.0 
0.0 0.0 0.0 
0.0 0.0 0.0 
0.0 0.0 0.0 
0.0 0.0 0.0 
0.0 0.0 0.0 
0.0 0.0 0.0 
0.0 0.0 0.0 
0.0 0.0 0.0 
0.0 0.0 0.0 
0.0 0.0 0.0 
0.0 0.0 0.0 
0.0 0.0 0.0 
0.0 0.0 0.0 
0.0 0.0 0.0 
0.0 0.0 0.0 
0.0 0.0 0.0 
0.0 0.0 0.0 
0.0 0.0 0.0 
0.0 0.0 0.0 
0.0 0.0 0.0 
0.0 0.0 0.0 
0.0 0.0 0.0 
0.0 0.0 0.0 
0.0 0.0 0.0 
0.0 0.0 0.0 
0.0 0.0 0.0 
0.0 0.0 0.0 
0.0 0.0 0.0 
0.0 0.0 0.0 
0.0 0.0 0.0 
0.0 0.0 0.0 
0.0 0.0 0.0 
0.0 0.0 0.0 
0.0 0.0 0.0 
0.0 0.0 0.0 
0.0 0.0 0.0 
0.0 0.0 0.0 
0.0 0.0 0.0 
0.0 0.0 0.0 
0.0 0.0 0.0 
0.0 0.0 0.0 
0.0 0.0 0.0 
0.0 0.0 0.0 
0.0 0.0 0.0 
0.0 0.0 0.0 
0.0 0.0 0.0 
0.0 0.0 0.0 
0.0 0.0 0.0 
0.0 0.0 0.0 
0.0 0.0 0.0 
0.0 0.0 0.0 
0.0 0.0 0.0 
0.0 0.0 0.0 
0.0 0.0 0.0 
0.0 0.0 0.0 
0.0 0.0 0.0 
0.0 0.0 0.0 
0.0 0.0 0.0 
0.0 0.0 0.0 
0.0 0.0 0.0 
0.0 0.0 0.0 
0.0 0.0 0.0 
0.0 0.0 0.0 
0.0 0.0 0.0 
0.0 0.0 0.0 
0.0 0.0 0.0 
0.0 0.0 0.0 
0.0 0.0 0.0 
0.0 0.0 0.0 
0.0 0.0 0.0 
0.0 0.0 0.0 
0.0 0.0 0.0 
0.0 0.0 0.0 
0.0 0.0 0.0 
0.0 0.0 0.0 
0.0 0.0 0.0 
0.0 0.0 0.0 
0.0 0.0 0.0 
0.0 0.0 0.0 
0.0 0.0 0.0 
0.0 0.0 0.0 
0.0 0.0 0.0 
0.0 0.0 0.0 
0.0 0.0 0.0 
0.0 0.0 0.0 
0.0 0.0 0.0 
0.0 0.0 0.0 
0.0 0.0 0.0 
0.0 0.0 0.0 
0.0 0.0 0.0 
0.0 0.0 0.0 
0.0 0.0 0.0 
0.0 0.0 0.0 
0.0 0.0 0.0 
0.0 0.0 0.0 
0.0 0.0 0.0 
0.0 0.0 0.0 
0.0 0.0 0.0 
0.0 0.0 0.0 
0.0 0.0 0.0 
0.0 0.0 0.0 
0.0 0.0 0.0 
0.0 0.0 0.0 
0.0 0.0 0.0 
0.0 0.0 0.0 
0.0 0.0 0.0 
0.0 0.0 0.0 
0.0 0.0 0.0 
0.0 0.0 0.0 
0.0 0.0 0.0 
0.0 0.0 0.0 
0.0 0.0 0.0 
0.0 0.0 0.0 
0.0 0.0 0.0 
0.0 0.0 0.0 
0.0 0.0 0.0 
0.0 0.0 0.0 
0.0 0.0 0.0 
0.0 0.0 0.0 
0.0 0.0 0.0 
0.0 0.0 0.0 
0.0 0.0 0.0 
0.0 0.0 0.0 
0.0 0.0 0.0 
0.0 0.0 0.0 
0.0 0.0 0.0 
0.0 0.0 0.0 
0.0 0.0 0.0 
0.0 0.0 0.0 
0.0 0.0 0.0 
0.0 0.0 0.0 
0.0 0.0 0.0 
0.0 0.0 0.0 
0.0 0.0 0.0 
0.0 0.0 0.0 
0.0 0.0 0.0 
0.0 0.0 0.0 
0.0 0.0 0.0 
0.0 0.0 0.0 
0.0 0.0 0.0 
0.0 0.0 0.0 
0.0 0.0 0.0 
0.0 0.0 0.0 
0.0 0.0 0.0 
0.0 0.0 0.0 
0.0 0.0 0.0 
0.0 0.0 0.0 
0.0 0.0 0.0 
0.0 0.0 0.0 
0.0 0.0 0.0 
0.0 0.0 0.0 
0.0 0.0 0.0 
0.0 0.0 0.0 
0.0 0.0 0.0 
0.0 0.0 0.0 
0.0 0.0 0.0 
0.0 0.0 0.0 
0.0 0.0 0.0 
0.0 0.0 0.0 
0.0 0.0 0.0 
0.0 0.0 0.0 
0.0 0.0 0.0 
0.0 0.0 0.0 
0.0 0.0 0.0 
0.0 0.0 0.0 
0.0 0.0 0.0 
0.0 0.0 0.0 
0.0 0.0 0.0 
0.0 0.0 0.0 
0.0 0.0 0.0 
0.0 0.0 0.0 
0.0 0.0 0.0 
0.0 0.0 0.0 
0.0 0.0 0.0 
0.0 0.0 0.0 
0.0 0.0 0.0 
0.0 0.0 0.0 
0.0 0.0 0.0 
0.0 0.0 0.0 
0.0 0.0 0.0 
0.0 0.0 0.0 
0.0 0.0 0.0 
0.0 0.0 0.0 
0.0 0.0 0.0 
0.0 0.0 0.0 
0.0 0.0 0.0 
0.0 0.0 0.0 
0.0 0.0 0.0 
0.0 0.0 0.0 
0.0 0.0 0.0 
0.0 0.0 0.0 
0.0 0.0 0.0 
0.0 0.0 0.0 
0.0 0.0 0.0 
0.0 0.0 0.0 
0.0 0.0 0.0 
0.0 0.0 0.0 
0.0 0.0 0.0 
0.0 0.0 0.0 
0.0 0.0 0.0 
0.0 0.0 0.0 
0.0 0.0 0.0 
0.0 0.0 0.0 
0.0 0.0 0.0 
0.0 0.0 0.0 
0.0 0.0 0.0 
0.0 0.0 0.0 
0.0 0.0 0.0 
0.0 0.0 0.0 
0.0 0.0 0.0 
0.0 0.0 0.0 
0.0 0.0 0.0 
0.0 0.0 0.0 
0.0 0.0 0.0 
0.0 0.0 0.0 
0.0 0.0 0.0 
0.0 0.0 0.0 
0.0 0.0 0.0 
0.0 0.0 0.0 
0.0 0.0 0.0 
0.0 0.0 0.0 
0.0 0.0 0.0 
0.0 0.0 0.0 
0.0 0.0 0.0 
0.0 0.0 0.0 
0.0 0.0 0.0 
0.0 0.0 0.0 
0.0 0.0 0.0 
0.0 0.0 0.0 
0.0 0.0 0.0 
0.0 0.0 0.0 
0.0 0.0 0.0 
0.0 0.0 0.0 
0.0 0.0 0.0 
0.0 0.0 0.0 
0.0 0.0 0.0 
0.0 0.0 0.0 
0.0 0.0 0.0 
0.0 0.0 0.0 
0.0 0.0 0.0 
0.0 0.0 0.0 
0.0 0.0 0.0 
0.0 0.0 0.0 
0.0 0.0 0.0 
0.0 0.0 0.0 
0.0 0.0 0.0 
0.0 0.0 0.0 
0.0 0.0 0.0 
0.0 0.0 0.0 
0.0 0.0 0.0 
0.0 0.0 0.0 
0.0 0.0 0.0 
0.0 0.0 0.0 
0.0 0.0 0.0 
0.0 0.0 0.0 
0.0 0.0 0.0 
0.0 0.0 0.0 
0.0 0.0 0.0 
0.0 0.0 0.0 
0.0 0.0 0.0 
0.0 0.0 0.0 
0.0 0.0 0.0 
0.0 0.0 0.0 
0.0 0.0 0.0 
0.0 0.0 0.0 
0.0 0.0 0.0 
0.0 0.0 0.0 
0.0 0.0 0.0 
0.0 0.0 0.0 
0.0 0.0 0.0 
0.0 0.0 0.0 
0.0 0.0 0.0 
0.0 0.0 0.0 
0.0 0.0 0.0 
0.0 0.0 0.0 
0.0 0.0 0.0 
0.0 0.0 0.0 
0.0 0.0 0.0 
0.0 0.0 0.0 
0.0 0.0 0.0 
0.0 0.0 0.0 
0.0 0.0 0.0 
0.0 0.0 0.0 
0.0 0.0 0.0 
0.0 0.0 0.0 
0.0 0.0 0.0 
0.0 0.0 0.0 
0.0 0.0 0.0 
0.0 0.0 0.0 
0.0 0.0 0.0 
0.0 0.0 0.0 
0.0 0.0 0.0 
0.0 0.0 0.0 
0.0 0.0 0.0 
0.0 0.0 0.0 
0.0 0.0 0.0 
0.0 0.0 0.0 
0.0 0.0 0.0 
0.0 0.0 0.0 
0.0 0.0 0.0 
0.0 0.0 0.0 
0.0 0.0 0.0 
0.0 0.0 0.0 
0.0 0.0 0.0 
0.0 0.0 0.0 
0.0 0.0 0.0 
0.0 0.0 0.0 
0.0 0.0 0.0 
0.0 0.0 0.0 
0.0 0.0 0.0 
0.0 0.0 0.0 
0.0 0.0 0.0 
0.0 0.0 0.0 
0.0 0.0 0.0 
0.0 0.0 0.0 
0.0 0.0 0.0 
0.0 0.0 0.0 
0.0 0.0 0.0 
0.0 0.0 0.0 
0.0 0.0 0.0 
0.0 0.0 0.0 
0.0 0.0 0.0 
0.0 0.0 0.0 
0.0 0.0 0.0 
0.0 0.0 0.0 
0.0 0.0 0.0 
0.0 0.0 0.0 
0.0 0.0 0.0 
0.0 0.0 0.0 
0.0 0.0 0.0 
0.0 0.0 0.0 
0.0 0.0 0.0 
0.0 0.0 0.0 
0.0 0.0 0.0 
0.0 0.0 0.0 
0.0 0.0 0.0 
0.0 0.0 0.0 
0.0 0.0 0.0 
0.0 0.0 0.0 
0.0 0.0 0.0 
0.0 0.0 0.0 
0.0 0.0 0.0 
0.0 0.0 0.0 
0.0 0.0 0.0 
0.0 0.0 0.0 
0.0 0.0 0.0 
0.0 0.0 0.0 
0.0 0.0 0.0 
0.0 0.0 0.0 
0.0 0.0 0.0 
0.0 0.0 0.0 
0.0 0.0 0.0 
0.0 0.0 0.0 
0.0 0.0 0.0 
0.0 0.0 0.0 
0.0 0.0 0.0 
0.0 0.0 0.0 
0.0 0.0 0.0 
0.0 0.0 0.0 
0.0 0.0 0.0 
0.0 0.0 0.0 
0.0 0.0 0.0 
0.0 0.0 0.0 
0.0 0.0 0.0 
0.0 0.0 0.0 
0.0 0.0 0.0 
0.0 0.0 0.0 
0.0 0.0 0.0 
0.0 0.0 0.0 
0.0 0.0 0.0 
0.0 0.0 0.0 
0.0 0.0 0.0 
0.0 0.0 0.0 
0.0 0.0 0.0 
0.0 0.0 0.0 
0.0 0.0 0.0 
0.0 0.0 0.0 
0.0 0.0 0.0 
0.0 0.0 0.0 
0.0 0.0 0.0 
0.0 0.0 0.0 
0.0 0.0 0.0 
0.0 0.0 0.0 
0.0 0.0 0.0 
0.0 0.0 0.0 
0.0 0.0 0.0 
0.0 0.0 0.0 
0.0 0.0 0.0 
0.0 0.0 0.0 
0.0 0.0 0.0 
0.0 0.0 0.0 
0.0 0.0 0.0 
0.0 0.0 0.0 
0.0 0.0 0.0 
0.0 0.0 0.0 
0.0 0.0 0.0 
0.0 0.0 0.0 
0.0 0.0 0.0 
0.0 0.0 0.0 
0.0 0.0 0.0 
0.0 0.0 0.0 
0.0 0.0 0.0 
0.0 0.0 0.0 
0.0 0.0 0.0 
0.0 0.0 0.0 
0.0 0.0 0.0 
0.0 0.0 0.0 
0.0 0.0 0.0 
0.0 0.0 0.0 
0.0 0.0 0.0 
0.0 0.0 0.0 
0.0 0.0 0.0 
0.0 0.0 0.0 
0.0 0.0 0.0 
0.0 0.0 0.0 
0.0 0.0 0.0 
0.0 0.0 0.0 
0.0 0.0 0.0 
0.0 0.0 0.0 
0.0 0.0 0.0 
0.0 0.0 0.0 
0.0 0.0 0.0 
0.0 0.0 0.0 
0.0 0.0 0.0 
0.0 0.0 0.0 
0.0 0.0 0.0 
0.0 0.0 0.0 
0.0 0.0 0.0 
0.0 0.0 0.0 
0.0 0.0 0.0 
0.0 0.0 0.0 
0.0 0.0 0.0 
0.0 0.0 0.0 
0.0 0.0 0.0 
0.0 0.0 0.0 
0.0 0.0 0.0 
0.0 0.0 0.0 
0.0 0.0 0.0 
0.0 0.0 0.0 
0.0 0.0 0.0 
0.0 0.0 0.0 
0.0 0.0 0.0 
0.0 0.0 0.0 
0.0 0.0 0.0 
0.0 0.0 0.0 
0.0 0.0 0.0 
0.0 0.0 0.0 
0.0 0.0 0.0 
0.0 0.0 0.0 
0.0 0.0 0.0 
0.0 0.0 0.0 
0.0 0.0 0.0 
0.0 0.0 0.0 
0.0 0.0 0.0 
0.0 0.0 0.0 
0.0 0.0 0.0 
0.0 0.0 0.0 
0.0 0.0 0.0 
0.0 0.0 0.0 
0.0 0.0 0.0 
0.0 0.0 0.0 
0.0 0.0 0.0 
0.0 0.0 0.0 
0.0 0.0 0.0 
0.0 0.0 0.0 
0.0 0.0 0.0 
0.0 0.0 0.0 
0.0 0.0 0.0 
0.0 0.0 0.0 
0.0 0.0 0.0 
0.0 0.0 0.0 
0.0 0.0 0.0 
0.0 0.0 0.0 
0.0 0.0 0.0 
0.0 0.0 0.0 
0.0 0.0 0.0 
0.0 0.0 0.0 
0.0 0.0 0.0 
0.0 0.0 0.0 
0.0 0.0 0.0 
0.0 0.0 0.0 
0.0 0.0 0.0 
0.0 0.0 0.0 
0.0 0.0 0.0 
0.0 0.0 0.0 
0.0 0.0 0.0 
0.0 0.0 0.0 
0.0 0.0 0.0 
0.0 0.0 0.0 
0.0 0.0 0.0 
0.0 0.0 0.0 
0.0 0.0 0.0 
0.0 0.0 0.0 
0.0 0.0 0.0 
0.0 0.0 0.0 
0.0 0.0 0.0 
0.0 0.0 0.0 
0.0 0.0 0.0 
0.0 0.0 0.0 
0.0 0.0 0.0 
0.0 0.0 0.0 
0.0 0.0 0.0 
0.0 0.0 0.0 
0.0 0.0 0.0 
0.0 0.0 0.0 
0.0 0.0 0.0 
0.0 0.0 0.0 
0.0 0.0 0.0 
0.0 0.0 0.0 
0.0 0.0 0.0 
0.0 0.0 0.0 
0.0 0.0 0.0 
0.0 0.0 0.0 
0.0 0.0 0.0 
0.0 0.0 0.0 
0.0 0.0 0.0 
0.0 0.0 0.0 
0.0 0.0 0.0 
0.0 0.0 0.0 
0.0 0.0 0.0 
0.0 0.0 0.0 
0.0 0.0 0.0 
0.0 0.0 0.0 
0.0 0.0 0.0 
0.0 0.0 0.0 
0.0 0.0 0.0 
0.0 0.0 0.0 
0.0 0.0 0.0 
0.0 0.0 0.0 
0.0 0.0 0.0 
0.0 0.0 0.0 
0.0 0.0 0.0 
0.0 0.0 0.0 
0.0 0.0 0.0 
0.0 0.0 0.0 
0.0 0.0 0.0 
0.0 0.0 0.0 
0.0 0.0 0.0 
0.0 0.0 0.0 
0.0 0.0 0.0 
0.0 0.0 0.0 
0.0 0.0 0.0 
0.0 0.0 0.0 
0.0 0.0 0.0 
0.0 0.0 0.0 
0.0 0.0 0.0 
0.0 0.0 0.0 
0.0 0.0 0.0 
0.0 0.0 0.0 
0.0 0.0 0.0 
0.0 0.0 0.0 
0.0 0.0 0.0 
0.0 0.0 0.0 
0.0 0.0 0.0 
0.0 0.0 0.0 
0.0 0.0 0.0 
0.0 0.0 0.0 
0.0 0.0 0.0 
0.0 0.0 0.0 
0.0 0.0 0.0 
0.0 0.0 0.0 
0.0 0.0 0.0 
0.0 0.0 0.0 
0.0 0.0 0.0 
0.0 0.0 0.0 
0.0 0.0 0.0 
0.0 0.0 0.0 
0.0 0.0 0.0 
0.0 0.0 0.0 
0.0 0.0 0.0 
0.0 0.0 0.0 
0.0 0.0 0.0 
0.0 0.0 0.0 
0.0 0.0 0.0 
0.0 0.0 0.0 
0.0 0.0 0.0 
0.0 0.0 0.0 
0.0 0.0 0.0 
0.0 0.0 0.0 
0.0 0.0 0.0 
0.0 0.0 0.0 
0.0 0.0 0.0 
0.0 0.0 0.0 
0.0 0.0 0.0 
0.0 0.0 0.0 
0.0 0.0 0.0 
0.0 0.0 0.0 
0.0 0.0 0.0 
0.0 0.0 0.0 
0.0 0.0 0.0 
0.0 0.0 0.0 
0.0 0.0 0.0 
0.0 0.0 0.0 
0.0 0.0 0.0 
0.0 0.0 0.0 
0.0 0.0 0.0 
0.0 0.0 0.0 
0.0 0.0 0.0 
0.0 0.0 0.0 
0.0 0.0 0.0 
0.0 0.0 0.0 
0.0 0.0 0.0 
0.0 0.0 0.0 
0.0 0.0 0.0 
0.0 0.0 0.0 
0.0 0.0 0.0 
0.0 0.0 0.0 
0.0 0.0 0.0 
0.0 0.0 0.0 
0.0 0.0 0.0 
0.0 0.0 0.0 
0.0 0.0 0.0 
0.0 0.0 0.0 
0.0 0.0 0.0 
0.0 0.0 0.0 
0.0 0.0 0.0 
0.0 0.0 0.0 
0.0 0.0 0.0 
0.0 0.0 0.0 
0.0 0.0 0.0 
0.0 0.0 0.0 
0.0 0.0 0.0 
0.0 0.0 0.0 
0.0 0.0 0.0 
0.0 0.0 0.0 
0.0 0.0 0.0 
0.0 0.0 0.0 
0.0 0.0 0.0 
0.0 0.0 0.0 
0.0 0.0 0.0 
0.0 0.0 0.0 
0.0 0.0 0.0 
0.0 0.0 0.0 
0.0 0.0 0.0 
0.0 0.0 0.0 
0.0 0.0 0.0 
0.0 0.0 0.0 
0.0 0.0 0.0 
0.0 0.0 0.0 
0.0 0.0 0.0 
0.0 0.0 0.0 
0.0 0.0 0.0 
0.0 0.0 0.0 
0.0 0.0 0.0 
0.0 0.0 0.0 
0.0 0.0 0.0 
0.0 0.0 0.0 
0.0 0.0 0.0 
0.0 0.0 0.0 
0.0 0.0 0.0 
0.0 0.0 0.0 
0.0 0.0 0.0 
0.0 0.0 0.0 
0.0 0.0 0.0 
0.0 0.0 0.0 
0.0 0.0 0.0 
0.0 0.0 0.0 
0.0 0.0 0.0 
0.0 0.0 0.0 
0.0 0.0 0.0 

VECTORS node_force_gravity float
0.0 -1.962000000000e+01 0.0 
0.0 -1.962000000000e+01 0.0 
0.0 -1.962000000000e+01 0.0 
0.0 -1.962000000000e+01 0.0 
0.0 -1.962000000000e+01 0.0 
0.0 -1.962000000000e+01 0.0 
0.0 -1.962000000000e+01 0.0 
0.0 -1.962000000000e+01 0.0 
0.0 -1.962000000000e+01 0.0 
0.0 -1.962000000000e+01 0.0 
0.0 -1.962000000000e+01 0.0 
0.0 -1.962000000000e+01 0.0 
0.0 -1.962000000000e+01 0.0 
0.0 -1.962000000000e+01 0.0 
0.0 -1.962000000000e+01 0.0 
0.0 -1.962000000000e+01 0.0 
0.0 -1.962000000000e+01 0.0 
0.0 -1.962000000000e+01 0.0 
0.0 -1.962000000000e+01 0.0 
0.0 -1.962000000000e+01 0.0 
0.0 -1.962000000000e+01 0.0 
0.0 -1.962000000000e+01 0.0 
0.0 -1.962000000000e+01 0.0 
0.0 -1.962000000000e+01 0.0 
0.0 -1.962000000000e+01 0.0 
0.0 -1.962000000000e+01 0.0 
0.0 -1.962000000000e+01 0.0 
0.0 -1.962000000000e+01 0.0 
0.0 -1.962000000000e+01 0.0 
0.0 -1.962000000000e+01 0.0 
0.0 -1.962000000000e+01 0.0 
0.0 -1.962000000000e+01 0.0 
0.0 -1.962000000000e+01 0.0 
0.0 -1.962000000000e+01 0.0 
0.0 -1.962000000000e+01 0.0 
0.0 -1.962000000000e+01 0.0 
0.0 -1.962000000000e+01 0.0 
0.0 -1.962000000000e+01 0.0 
0.0 -1.962000000000e+01 0.0 
0.0 -1.962000000000e+01 0.0 
0.0 -1.962000000000e+01 0.0 
0.0 -1.962000000000e+01 0.0 
0.0 -1.962000000000e+01 0.0 
0.0 -1.962000000000e+01 0.0 
0.0 -1.962000000000e+01 0.0 
0.0 -1.962000000000e+01 0.0 
0.0 -1.962000000000e+01 0.0 
0.0 -1.962000000000e+01 0.0 
0.0 -1.962000000000e+01 0.0 
0.0 -1.962000000000e+01 0.0 
0.0 -1.962000000000e+01 0.0 
0.0 -1.962000000000e+01 0.0 
0.0 -1.962000000000e+01 0.0 
0.0 -1.962000000000e+01 0.0 
0.0 -1.962000000000e+01 0.0 
0.0 -1.962000000000e+01 0.0 
0.0 -1.962000000000e+01 0.0 
0.0 -1.962000000000e+01 0.0 
0.0 -1.962000000000e+01 0.0 
0.0 -1.962000000000e+01 0.0 
0.0 -1.962000000000e+01 0.0 
0.0 -1.962000000000e+01 0.0 
0.0 -1.962000000000e+01 0.0 
0.0 -1.962000000000e+01 0.0 
0.0 -1.962000000000e+01 0.0 
0.0 -1.962000000000e+01 0.0 
0.0 -1.962000000000e+01 0.0 
0.0 -1.962000000000e+01 0.0 
0.0 -1.962000000000e+01 0.0 
0.0 -1.962000000000e+01 0.0 
0.0 -1.962000000000e+01 0.0 
0.0 -1.962000000000e+01 0.0 
0.0 -1.962000000000e+01 0.0 
0.0 -1.962000000000e+01 0.0 
0.0 -1.962000000000e+01 0.0 
0.0 -1.962000000000e+01 0.0 
0.0 -1.962000000000e+01 0.0 
0.0 -1.962000000000e+01 0.0 
0.0 -1.962000000000e+01 0.0 
0.0 -1.962000000000e+01 0.0 
0.0 -1.962000000000e+01 0.0 
0.0 -1.962000000000e+01 0.0 
0.0 -1.962000000000e+01 0.0 
0.0 -1.962000000000e+01 0.0 
0.0 -1.962000000000e+01 0.0 
0.0 -1.962000000000e+01 0.0 
0.0 -1.962000000000e+01 0.0 
0.0 -1.962000000000e+01 0.0 
0.0 -1.962000000000e+01 0.0 
0.0 -1.962000000000e+01 0.0 
0.0 -1.962000000000e+01 0.0 
0.0 -1.962000000000e+01 0.0 
0.0 -1.962000000000e+01 0.0 
0.0 -1.962000000000e+01 0.0 
0.0 -1.962000000000e+01 0.0 
0.0 -1.962000000000e+01 0.0 
0.0 -1.962000000000e+01 0.0 
0.0 -1.962000000000e+01 0.0 
0.0 -1.962000000000e+01 0.0 
0.0 -1.962000000000e+01 0.0 
0.0 -1.962000000000e+01 0.0 
0.0 -1.962000000000e+01 0.0 
0.0 -1.962000000000e+01 0.0 
0.0 -1.962000000000e+01 0.0 
0.0 -1.962000000000e+01 0.0 
0.0 -1.962000000000e+01 0.0 
0.0 -1.962000000000e+01 0.0 
0.0 -1.962000000000e+01 0.0 
0.0 -1.962000000000e+01 0.0 
0.0 -1.962000000000e+01 0.0 
0.0 -1.962000000000e+01 0.0 
0.0 -1.962000000000e+01 0.0 
0.0 -1.962000000000e+01 0.0 
0.0 -1.962000000000e+01 0.0 
0.0 -1.962000000000e+01 0.0 
0.0 -1.962000000000e+01 0.0 
0.0 -1.962000000000e+01 0.0 
0.0 -1.962000000000e+01 0.0 
0.0 -1.962000000000e+01 0.0 
0.0 -1.962000000000e+01 0.0 
0.0 -1.962000000000e+01 0.0 
0.0 -1.962000000000e+01 0.0 
0.0 -1.962000000000e+01 0.0 
0.0 -1.962000000000e+01 0.0 
0.0 -1.962000000000e+01 0.0 
0.0 -1.962000000000e+01 0.0 
0.0 -1.962000000000e+01 0.0 
0.0 -1.962000000000e+01 0.0 
0.0 -1.962000000000e+01 0.0 
0.0 -1.962000000000e+01 0.0 
0.0 -1.962000000000e+01 0.0 
0.0 -1.962000000000e+01 0.0 
0.0 -1.962000000000e+01 0.0 
0.0 -1.962000000000e+01 0.0 
0.0 -1.962000000000e+01 0.0 
0.0 -1.962000000000e+01 0.0 
0.0 -1.962000000000e+01 0.0 
0.0 -1.962000000000e+01 0.0 
0.0 -1.962000000000e+01 0.0 
0.0 -1.962000000000e+01 0.0 
0.0 -1.962000000000e+01 0.0 
0.0 -1.962000000000e+01 0.0 
0.0 -1.962000000000e+01 0.0 
0.0 -1.962000000000e+01 0.0 
0.0 -1.962000000000e+01 0.0 
0.0 -1.962000000000e+01 0.0 
0.0 -1.962000000000e+01 0.0 
0.0 -1.962000000000e+01 0.0 
0.0 -1.962000000000e+01 0.0 
0.0 -1.962000000000e+01 0.0 
0.0 -1.962000000000e+01 0.0 
0.0 -1.962000000000e+01 0.0 
0.0 -1.962000000000e+01 0.0 
0.0 -1.962000000000e+01 0.0 
0.0 -1.962000000000e+01 0.0 
0.0 -1.962000000000e+01 0.0 
0.0 -1.962000000000e+01 0.0 
0.0 -1.962000000000e+01 0.0 
0.0 -1.962000000000e+01 0.0 
0.0 -1.962000000000e+01 0.0 
0.0 -1.962000000000e+01 0.0 
0.0 -1.962000000000e+01 0.0 
0.0 -1.962000000000e+01 0.0 
0.0 -1.962000000000e+01 0.0 
0.0 -1.962000000000e+01 0.0 
0.0 -1.962000000000e+01 0.0 
0.0 -1.962000000000e+01 0.0 
0.0 -1.962000000000e+01 0.0 
0.0 -1.962000000000e+01 0.0 
0.0 -1.962000000000e+01 0.0 
0.0 -1.962000000000e+01 0.0 
0.0 -1.962000000000e+01 0.0 
0.0 -1.962000000000e+01 0.0 
0.0 -1.962000000000e+01 0.0 
0.0 -1.962000000000e+01 0.0 
0.0 -1.962000000000e+01 0.0 
0.0 -1.962000000000e+01 0.0 
0.0 -1.962000000000e+01 0.0 
0.0 -1.962000000000e+01 0.0 
0.0 -1.962000000000e+01 0.0 
0.0 -1.962000000000e+01 0.0 
0.0 -1.962000000000e+01 0.0 
0.0 -1.962000000000e+01 0.0 
0.0 -1.962000000000e+01 0.0 
0.0 -1.962000000000e+01 0.0 
0.0 -1.962000000000e+01 0.0 
0.0 -1.962000000000e+01 0.0 
0.0 -1.962000000000e+01 0.0 
0.0 -1.962000000000e+01 0.0 
0.0 -1.962000000000e+01 0.0 
0.0 -1.962000000000e+01 0.0 
0.0 -1.962000000000e+01 0.0 
0.0 -1.962000000000e+01 0.0 
0.0 -1.962000000000e+01 0.0 
0.0 -1.962000000000e+01 0.0 
0.0 -1.962000000000e+01 0.0 
0.0 -1.962000000000e+01 0.0 
0.0 -1.962000000000e+01 0.0 
0.0 -1.962000000000e+01 0.0 
0.0 -1.962000000000e+01 0.0 
0.0 -1.962000000000e+01 0.0 
0.0 -1.962000000000e+01 0.0 
0.0 -1.962000000000e+01 0.0 
0.0 -1.962000000000e+01 0.0 
0.0 -1.962000000000e+01 0.0 
0.0 -1.962000000000e+01 0.0 
0.0 -1.962000000000e+01 0.0 
0.0 -1.962000000000e+01 0.0 
0.0 -1.962000000000e+01 0.0 
0.0 -1.962000000000e+01 0.0 
0.0 -1.962000000000e+01 0.0 
0.0 -1.962000000000e+01 0.0 
0.0 -1.962000000000e+01 0.0 
0.0 -1.962000000000e+01 0.0 
0.0 -1.962000000000e+01 0.0 
0.0 -1.962000000000e+01 0.0 
0.0 -1.962000000000e+01 0.0 
0.0 -1.962000000000e+01 0.0 
0.0 -1.962000000000e+01 0.0 
0.0 -1.962000000000e+01 0.0 
0.0 -1.962000000000e+01 0.0 
0.0 -1.962000000000e+01 0.0 
0.0 -1.962000000000e+01 0.0 
0.0 -1.962000000000e+01 0.0 
0.0 -1.962000000000e+01 0.0 
0.0 -1.962000000000e+01 0.0 
0.0 -1.962000000000e+01 0.0 
0.0 -1.962000000000e+01 0.0 
0.0 -1.962000000000e+01 0.0 
0.0 -1.962000000000e+01 0.0 
0.0 -1.962000000000e+01 0.0 
0.0 -1.962000000000e+01 0.0 
0.0 -1.962000000000e+01 0.0 
0.0 -1.962000000000e+01 0.0 
0.0 -1.962000000000e+01 0.0 
0.0 -1.962000000000e+01 0.0 
0.0 -1.962000000000e+01 0.0 
0.0 -1.962000000000e+01 0.0 
0.0 -1.962000000000e+01 0.0 
0.0 -1.962000000000e+01 0.0 
0.0 -1.962000000000e+01 0.0 
0.0 -1.962000000000e+01 0.0 
0.0 -1.962000000000e+01 0.0 
0.0 -1.962000000000e+01 0.0 
0.0 -1.962000000000e+01 0.0 
0.0 -1.962000000000e+01 0.0 
0.0 -1.962000000000e+01 0.0 
0.0 -1.962000000000e+01 0.0 
0.0 -1.962000000000e+01 0.0 
0.0 -1.962000000000e+01 0.0 
0.0 -1.962000000000e+01 0.0 
0.0 -1.962000000000e+01 0.0 
0.0 -1.962000000000e+01 0.0 
0.0 -1.962000000000e+01 0.0 
0.0 -1.962000000000e+01 0.0 
0.0 -1.962000000000e+01 0.0 
0.0 -1.962000000000e+01 0.0 
0.0 -1.962000000000e+01 0.0 
0.0 -1.962000000000e+01 0.0 
0.0 -1.962000000000e+01 0.0 
0.0 -1.962000000000e+01 0.0 
0.0 -1.962000000000e+01 0.0 
0.0 -1.962000000000e+01 0.0 
0.0 -1.962000000000e+01 0.0 
0.0 -1.962000000000e+01 0.0 
0.0 -1.962000000000e+01 0.0 
0.0 -1.962000000000e+01 0.0 
0.0 -1.962000000000e+01 0.0 
0.0 -1.962000000000e+01 0.0 
0.0 -1.962000000000e+01 0.0 
0.0 -1.962000000000e+01 0.0 
0.0 -1.962000000000e+01 0.0 
0.0 -1.962000000000e+01 0.0 
0.0 -1.962000000000e+01 0.0 
0.0 -1.962000000000e+01 0.0 
0.0 -1.962000000000e+01 0.0 
0.0 -1.962000000000e+01 0.0 
0.0 -1.962000000000e+01 0.0 
0.0 -1.962000000000e+01 0.0 
0.0 -1.962000000000e+01 0.0 
0.0 -1.962000000000e+01 0.0 
0.0 -1.962000000000e+01 0.0 
0.0 -1.962000000000e+01 0.0 
0.0 -1.962000000000e+01 0.0 
0.0 -1.962000000000e+01 0.0 
0.0 -1.962000000000e+01 0.0 
0.0 -1.962000000000e+01 0.0 
0.0 -1.962000000000e+01 0.0 
0.0 -1.962000000000e+01 0.0 
0.0 -1.962000000000e+01 0.0 
0.0 -1.962000000000e+01 0.0 
0.0 -1.962000000000e+01 0.0 
0.0 -1.962000000000e+01 0.0 
0.0 -1.962000000000e+01 0.0 
0.0 -1.962000000000e+01 0.0 
0.0 -1.962000000000e+01 0.0 
0.0 -1.962000000000e+01 0.0 
0.0 -1.962000000000e+01 0.0 
0.0 -1.962000000000e+01 0.0 
0.0 -1.962000000000e+01 0.0 
0.0 -1.962000000000e+01 0.0 
0.0 -1.962000000000e+01 0.0 
0.0 -1.962000000000e+01 0.0 
0.0 -1.962000000000e+01 0.0 
0.0 -1.962000000000e+01 0.0 
0.0 -1.962000000000e+01 0.0 
0.0 -1.962000000000e+01 0.0 
0.0 -1.962000000000e+01 0.0 
0.0 -1.962000000000e+01 0.0 
0.0 -1.962000000000e+01 0.0 
0.0 -1.962000000000e+01 0.0 
0.0 -1.962000000000e+01 0.0 
0.0 -1.962000000000e+01 0.0 
0.0 -1.962000000000e+01 0.0 
0.0 -1.962000000000e+01 0.0 
0.0 -1.962000000000e+01 0.0 
0.0 -1.962000000000e+01 0.0 
0.0 -1.962000000000e+01 0.0 
0.0 -1.962000000000e+01 0.0 
0.0 -1.962000000000e+01 0.0 
0.0 -1.962000000000e+01 0.0 
0.0 -1.962000000000e+01 0.0 
0.0 -1.962000000000e+01 0.0 
0.0 -1.962000000000e+01 0.0 
0.0 -1.962000000000e+01 0.0 
0.0 -1.962000000000e+01 0.0 
0.0 -1.962000000000e+01 0.0 
0.0 -1.962000000000e+01 0.0 
0.0 -1.962000000000e+01 0.0 
0.0 -1.962000000000e+01 0.0 
0.0 -1.962000000000e+01 0.0 
0.0 -1.962000000000e+01 0.0 
0.0 -1.962000000000e+01 0.0 
0.0 -1.962000000000e+01 0.0 
0.0 -1.962000000000e+01 0.0 
0.0 -1.962000000000e+01 0.0 
0.0 -1.962000000000e+01 0.0 
0.0 -1.962000000000e+01 0.0 
0.0 -1.962000000000e+01 0.0 
0.0 -1.962000000000e+01 0.0 
0.0 -1.962000000000e+01 0.0 
0.0 -1.962000000000e+01 0.0 
0.0 -1.962000000000e+01 0.0 
0.0 -1.962000000000e+01 0.0 
0.0 -1.962000000000e+01 0.0 
0.0 -1.962000000000e+01 0.0 
0.0 -1.962000000000e+01 0.0 
0.0 -1.962000000000e+01 0.0 
0.0 -1.962000000000e+01 0.0 
0.0 -1.962000000000e+01 0.0 
0.0 -1.962000000000e+01 0.0 
0.0 -1.962000000000e+01 0.0 
0.0 -1.962000000000e+01 0.0 
0.0 -1.962000000000e+01 0.0 
0.0 -1.962000000000e+01 0.0 
0.0 -1.962000000000e+01 0.0 
0.0 -1.962000000000e+01 0.0 
0.0 -1.962000000000e+01 0.0 
0.0 -1.962000000000e+01 0.0 
0.0 -1.962000000000e+01 0.0 
0.0 -1.962000000000e+01 0.0 
0.0 -1.962000000000e+01 0.0 
0.0 -1.962000000000e+01 0.0 
0.0 -1.962000000000e+01 0.0 
0.0 -1.962000000000e+01 0.0 
0.0 -1.962000000000e+01 0.0 
0.0 -1.962000000000e+01 0.0 
0.0 -1.962000000000e+01 0.0 
0.0 -1.962000000000e+01 0.0 
0.0 -1.962000000000e+01 0.0 
0.0 -1.962000000000e+01 0.0 
0.0 -1.962000000000e+01 0.0 
0.0 -1.962000000000e+01 0.0 
0.0 -1.962000000000e+01 0.0 
0.0 -1.962000000000e+01 0.0 
0.0 -1.962000000000e+01 0.0 
0.0 -1.962000000000e+01 0.0 
0.0 -1.962000000000e+01 0.0 
0.0 -1.962000000000e+01 0.0 
0.0 -1.962000000000e+01 0.0 
0.0 -1.962000000000e+01 0.0 
0.0 -1.962000000000e+01 0.0 
0.0 -1.962000000000e+01 0.0 
0.0 -1.962000000000e+01 0.0 
0.0 -1.962000000000e+01 0.0 
0.0 -1.962000000000e+01 0.0 
0.0 -1.962000000000e+01 0.0 
0.0 -1.962000000000e+01 0.0 
0.0 -1.962000000000e+01 0.0 
0.0 -1.962000000000e+01 0.0 
0.0 -1.962000000000e+01 0.0 
0.0 -1.962000000000e+01 0.0 
0.0 -1.962000000000e+01 0.0 
0.0 -1.962000000000e+01 0.0 
0.0 -1.962000000000e+01 0.0 
0.0 -1.962000000000e+01 0.0 
0.0 -1.962000000000e+01 0.0 
0.0 -1.962000000000e+01 0.0 
0.0 -1.962000000000e+01 0.0 
0.0 -1.962000000000e+01 0.0 
0.0 -1.962000000000e+01 0.0 
0.0 -1.962000000000e+01 0.0 
0.0 -1.962000000000e+01 0.0 
0.0 -1.962000000000e+01 0.0 
0.0 -1.962000000000e+01 0.0 
0.0 -1.962000000000e+01 0.0 
0.0 -1.962000000000e+01 0.0 
0.0 -1.962000000000e+01 0.0 
0.0 -1.962000000000e+01 0.0 
0.0 -1.962000000000e+01 0.0 
0.0 -1.962000000000e+01 0.0 
0.0 -1.962000000000e+01 0.0 
0.0 -1.962000000000e+01 0.0 
0.0 -1.962000000000e+01 0.0 
0.0 -1.962000000000e+01 0.0 
0.0 -1.962000000000e+01 0.0 
0.0 -1.962000000000e+01 0.0 
0.0 -1.962000000000e+01 0.0 
0.0 -1.962000000000e+01 0.0 
0.0 -1.962000000000e+01 0.0 
0.0 -1.962000000000e+01 0.0 
0.0 -1.962000000000e+01 0.0 
0.0 -1.962000000000e+01 0.0 
0.0 -1.962000000000e+01 0.0 
0.0 -1.962000000000e+01 0.0 
0.0 -1.962000000000e+01 0.0 
0.0 -1.962000000000e+01 0.0 
0.0 -1.962000000000e+01 0.0 
0.0 -1.962000000000e+01 0.0 
0.0 -1.962000000000e+01 0.0 
0.0 -1.962000000000e+01 0.0 
0.0 -1.962000000000e+01 0.0 
0.0 -1.962000000000e+01 0.0 
0.0 -1.962000000000e+01 0.0 
0.0 -1.962000000000e+01 0.0 
0.0 -1.962000000000e+01 0.0 
0.0 -1.962000000000e+01 0.0 
0.0 -1.962000000000e+01 0.0 
0.0 -1.962000000000e+01 0.0 
0.0 -1.962000000000e+01 0.0 
0.0 -1.962000000000e+01 0.0 
0.0 -1.962000000000e+01 0.0 
0.0 -1.962000000000e+01 0.0 
0.0 -1.962000000000e+01 0.0 
0.0 -1.962000000000e+01 0.0 
0.0 -1.962000000000e+01 0.0 
0.0 -1.962000000000e+01 0.0 
0.0 -1.962000000000e+01 0.0 
0.0 -1.962000000000e+01 0.0 
0.0 -1.962000000000e+01 0.0 
0.0 -1.962000000000e+01 0.0 
0.0 -1.962000000000e+01 0.0 
0.0 -1.962000000000e+01 0.0 
0.0 -1.962000000000e+01 0.0 
0.0 -1.962000000000e+01 0.0 
0.0 -1.962000000000e+01 0.0 
0.0 -1.962000000000e+01 0.0 
0.0 -1.962000000000e+01 0.0 
0.0 -1.962000000000e+01 0.0 
0.0 -1.962000000000e+01 0.0 
0.0 -1.962000000000e+01 0.0 
0.0 -1.962000000000e+01 0.0 
0.0 -1.962000000000e+01 0.0 
0.0 -1.962000000000e+01 0.0 
0.0 -1.962000000000e+01 0.0 
0.0 -1.962000000000e+01 0.0 
0.0 -1.962000000000e+01 0.0 
0.0 -1.962000000000e+01 0.0 
0.0 -1.962000000000e+01 0.0 
0.0 -1.962000000000e+01 0.0 
0.0 -1.962000000000e+01 0.0 
0.0 -1.962000000000e+01 0.0 
0.0 -1.962000000000e+01 0.0 
0.0 -1.962000000000e+01 0.0 
0.0 -1.962000000000e+01 0.0 
0.0 -1.962000000000e+01 0.0 
0.0 -1.962000000000e+01 0.0 
0.0 -1.962000000000e+01 0.0 
0.0 -1.962000000000e+01 0.0 
0.0 -1.962000000000e+01 0.0 
0.0 -1.962000000000e+01 0.0 
0.0 -1.962000000000e+01 0.0 
0.0 -1.962000000000e+01 0.0 
0.0 -1.962000000000e+01 0.0 
0.0 -1.962000000000e+01 0.0 
0.0 -1.962000000000e+01 0.0 
0.0 -1.962000000000e+01 0.0 
0.0 -1.962000000000e+01 0.0 
0.0 -1.962000000000e+01 0.0 
0.0 -1.962000000000e+01 0.0 
0.0 -1.962000000000e+01 0.0 
0.0 -1.962000000000e+01 0.0 
0.0 -1.962000000000e+01 0.0 
0.0 -1.962000000000e+01 0.0 
0.0 -1.962000000000e+01 0.0 
0.0 -1.962000000000e+01 0.0 
0.0 -1.962000000000e+01 0.0 
0.0 -1.962000000000e+01 0.0 
0.0 -1.962000000000e+01 0.0 
0.0 -1.962000000000e+01 0.0 
0.0 -1.962000000000e+01 0.0 
0.0 -1.962000000000e+01 0.0 
0.0 -1.962000000000e+01 0.0 
0.0 -1.962000000000e+01 0.0 
0.0 -1.962000000000e+01 0.0 
0.0 -1.962000000000e+01 0.0 
0.0 -1.962000000000e+01 0.0 
0.0 -1.962000000000e+01 0.0 
0.0 -1.962000000000e+01 0.0 
0.0 -1.962000000000e+01 0.0 
0.0 -1.962000000000e+01 0.0 
0.0 -1.962000000000e+01 0.0 
0.0 -1.962000000000e+01 0.0 
0.0 -1.962000000000e+01 0.0 
0.0 -1.962000000000e+01 0.0 
0.0 -1.962000000000e+01 0.0 
0.0 -1.962000000000e+01 0.0 
0.0 -1.962000000000e+01 0.0 
0.0 -1.962000000000e+01 0.0 
0.0 -1.962000000000e+01 0.0 
0.0 -1.962000000000e+01 0.0 
0.0 -1.962000000000e+01 0.0 
0.0 -1.962000000000e+01 0.0 
0.0 -1.962000000000e+01 0.0 
0.0 -1.962000000000e+01 0.0 
0.0 -1.962000000000e+01 0.0 
0.0 -1.962000000000e+01 0.0 
0.0 -1.962000000000e+01 0.0 
0.0 -1.962000000000e+01 0.0 
0.0 -1.962000000000e+01 0.0 
0.0 -1.962000000000e+01 0.0 
0.0 -1.962000000000e+01 0.0 
0.0 -1.962000000000e+01 0.0 
0.0 -1.962000000000e+01 0.0 
0.0 -1.962000000000e+01 0.0 
0.0 -1.962000000000e+01 0.0 
0.0 -1.962000000000e+01 0.0 
0.0 -1.962000000000e+01 0.0 
0.0 -1.962000000000e+01 0.0 
0.0 -1.962000000000e+01 0.0 
0.0 -1.962000000000e+01 0.0 
0.0 -1.962000000000e+01 0.0 
0.0 -1.962000000000e+01 0.0 
0.0 -1.962000000000e+01 0.0 
0.0 -1.962000000000e+01 0.0 
0.0 -1.962000000000e+01 0.0 
0.0 -1.962000000000e+01 0.0 
0.0 -1.962000000000e+01 0.0 
0.0 -1.962000000000e+01 0.0 
0.0 -1.962000000000e+01 0.0 
0.0 -1.962000000000e+01 0.0 
0.0 -1.962000000000e+01 0.0 
0.0 -1.962000000000e+01 0.0 
0.0 -1.962000000000e+01 0.0 
0.0 -1.962000000000e+01 0.0 
0.0 -1.962000000000e+01 0.0 
0.0 -1.962000000000e+01 0.0 
0.0 -1.962000000000e+01 0.0 
0.0 -1.962000000000e+01 0.0 
0.0 -1.962000000000e+01 0.0 
0.0 -1.962000000000e+01 0.0 
0.0 -1.962000000000e+01 0.0 
0.0 -1.962000000000e+01 0.0 
0.0 -1.962000000000e+01 0.0 
0.0 -1.962000000000e+01 0.0 
0.0 -1.962000000000e+01 0.0 
0.0 -1.962000000000e+01 0.0 
0.0 -1.962000000000e+01 0.0 
0.0 -1.962000000000e+01 0.0 
0.0 -1.962000000000e+01 0.0 
0.0 -1.962000000000e+01 0.0 
0.0 -1.962000000000e+01 0.0 
0.0 -1.962000000000e+01 0.0 
0.0 -1.962000000000e+01 0.0 
0.0 -1.962000000000e+01 0.0 
0.0 -1.962000000000e+01 0.0 
0.0 -1.962000000000e+01 0.0 
0.0 -1.962000000000e+01 0.0 
0.0 -1.962000000000e+01 0.0 
0.0 -1.962000000000e+01 0.0 
0.0 -1.962000000000e+01 0.0 
0.0 -1.962000000000e+01 0.0 
0.0 -1.962000000000e+01 0.0 
0.0 -1.962000000000e+01 0.0 
0.0 -1.962000000000e+01 0.0 
0.0 -1.962000000000e+01 0.0 
0.0 -1.962000000000e+01 0.0 
0.0 -1.962000000000e+01 0.0 
0.0 -1.962000000000e+01 0.0 
0.0 -1.962000000000e+01 0.0 
0.0 -1.962000000000e+01 0.0 
0.0 -1.962000000000e+01 0.0 
0.0 -1.962000000000e+01 0.0 
0.0 -1.962000000000e+01 0.0 
0.0 -1.962000000000e+01 0.0 
0.0 -1.962000000000e+01 0.0 
0.0 -1.962000000000e+01 0.0 
0.0 -1.962000000000e+01 0.0 
0.0 -1.962000000000e+01 0.0 
0.0 -1.962000000000e+01 0.0 
0.0 -1.962000000000e+01 0.0 
0.0 -1.962000000000e+01 0.0 
0.0 -1.962000000000e+01 0.0 
0.0 -1.962000000000e+01 0.0 
0.0 -1.962000000000e+01 0.0 
0.0 -1.962000000000e+01 0.0 
0.0 -1.962000000000e+01 0.0 
0.0 -1.962000000000e+01 0.0 
0.0 -1.962000000000e+01 0.0 
0.0 -1.962000000000e+01 0.0 
0.0 -1.962000000000e+01 0.0 
0.0 -1.962000000000e+01 0.0 
0.0 -1.962000000000e+01 0.0 
0.0 -1.962000000000e+01 0.0 
0.0 -1.962000000000e+01 0.0 
0.0 -1.962000000000e+01 0.0 
0.0 -1.962000000000e+01 0.0 
0.0 -1.962000000000e+01 0.0 
0.0 -1.962000000000e+01 0.0 
0.0 -1.962000000000e+01 0.0 
0.0 -1.962000000000e+01 0.0 
0.0 -1.962000000000e+01 0.0 
0.0 -1.962000000000e+01 0.0 
0.0 -1.962000000000e+01 0.0 
0.0 -1.962000000000e+01 0.0 
0.0 -1.962000000000e+01 0.0 
0.0 -1.962000000000e+01 0.0 
0.0 -1.962000000000e+01 0.0 
0.0 -1.962000000000e+01 0.0 
0.0 -1.962000000000e+01 0.0 
0.0 -1.962000000000e+01 0.0 
0.0 -1.962000000000e+01 0.0 
0.0 -1.962000000000e+01 0.0 
0.0 -1.962000000000e+01 0.0 
0.0 -1.962000000000e+01 0.0 
0.0 -1.962000000000e+01 0.0 
0.0 -1.962000000000e+01 0.0 
0.0 -1.962000000000e+01 0.0 
0.0 -1.962000000000e+01 0.0 
0.0 -1.962000000000e+01 0.0 
0.0 -1.962000000000e+01 0.0 
0.0 -1.962000000000e+01 0.0 
0.0 -1.962000000000e+01 0.0 
0.0 -1.962000000000e+01 0.0 
0.0 -1.962000000000e+01 0.0 
0.0 -1.962000000000e+01 0.0 
0.0 -1.962000000000e+01 0.0 
0.0 -1.962000000000e+01 0.0 
0.0 -1.962000000000e+01 0.0 
0.0 -1.962000000000e+01 0.0 
0.0 -1.962000000000e+01 0.0 
0.0 -1.962000000000e+01 0.0 
0.0 -1.962000000000e+01 0.0 
0.0 -1.962000000000e+01 0.0 
0.0 -1.962000000000e+01 0.0 
0.0 -1.962000000000e+01 0.0 
0.0 -1.962000000000e+01 0.0 
0.0 -1.962000000000e+01 0.0 
0.0 -1.962000000000e+01 0.0 
0.0 -1.962000000000e+01 0.0 
0.0 -1.962000000000e+01 0.0 
0.0 -1.962000000000e+01 0.0 
0.0 -1.962000000000e+01 0.0 
0.0 -1.962000000000e+01 0.0 
0.0 -1.962000000000e+01 0.0 
0.0 -1.962000000000e+01 0.0 
0.0 -1.962000000000e+01 0.0 
0.0 -1.962000000000e+01 0.0 
0.0 -1.962000000000e+01 0.0 
0.0 -1.962000000000e+01 0.0 
0.0 -1.962000000000e+01 0.0 
0.0 -1.962000000000e+01 0.0 
0.0 -1.962000000000e+01 0.0 
0.0 -1.962000000000e+01 0.0 
0.0 -1.962000000000e+01 0.0 
0.0 -1.962000000000e+01 0.0 
0.0 -1.962000000000e+01 0.0 
0.0 -1.962000000000e+01 0.0 
0.0 -1.962000000000e+01 0.0 
0.0 -1.962000000000e+01 0.0 
0.0 -1.962000000000e+01 0.0 
0.0 -1.962000000000e+01 0.0 
0.0 -1.962000000000e+01 0.0 
0.0 -1.962000000000e+01 0.0 
0.0 -1.962000000000e+01 0.0 
0.0 -1.962000000000e+01 0.0 
0.0 -1.962000000000e+01 0.0 
0.0 -1.962000000000e+01 0.0 
0.0 -1.962000000000e+01 0.0 
0.0 -1.962000000000e+01 0.0 
0.0 -1.962000000000e+01 0.0 
0.0 -1.962000000000e+01 0.0 
0.0 -1.962000000000e+01 0.0 
0.0 -1.962000000000e+01 0.0 
0.0 -1.962000000000e+01 0.0 
0.0 -1.962000000000e+01 0.0 
0.0 -1.962000000000e+01 0.0 
0.0 -1.962000000000e+01 0.0 
0.0 -1.962000000000e+01 0.0 
0.0 -1.962000000000e+01 0.0 
0.0 -1.962000000000e+01 0.0 
0.0 -1.962000000000e+01 0.0 
0.0 -1.962000000000e+01 0.0 
0.0 -1.962000000000e+01 0.0 
0.0 -1.962000000000e+01 0.0 
0.0 -1.962000000000e+01 0.0 
0.0 -1.962000000000e+01 0.0 
0.0 -1.962000000000e+01 0.0 
0.0 -1.962000000000e+01 0.0 
0.0 -1.962000000000e+01 0.0 
0.0 -1.962000000000e+01 0.0 
0.0 -1.962000000000e+01 0.0 
0.0 -1.962000000000e+01 0.0 
0.0 -1.962000000000e+01 0.0 
0.0 -1.962000000000e+01 0.0 
0.0 -1.962000000000e+01 0.0 
0.0 -1.962000000000e+01 0.0 
0.0 -1.962000000000e+01 0.0 
0.0 -1.962000000000e+01 0.0 
0.0 -1.962000000000e+01 0.0 
0.0 -1.962000000000e+01 0.0 
0.0 -1.962000000000e+01 0.0 
0.0 -1.962000000000e+01 0.0 
0.0 -1.962000000000e+01 0.0 
0.0 -1.962000000000e+01 0.0 
0.0 -1.962000000000e+01 0.0 
0.0 -1.962000000000e+01 0.0 
0.0 -1.962000000000e+01 0.0 
0.0 -1.962000000000e+01 0.0 
0.0 -1.962000000000e+01 0.0 
0.0 -1.962000000000e+01 0.0 
0.0 -1.962000000000e+01 0.0 
0.0 -1.962000000000e+01 0.0 
0.0 -1.962000000000e+01 0.0 
0.0 -1.962000000000e+01 0.0 
0.0 -1.962000000000e+01 0.0 
0.0 -1.962000000000e+01 0.0 
0.0 -1.962000000000e+01 0.0 
0.0 -1.962000000000e+01 0.0 
0.0 -1.962000000000e+01 0.0 
0.0 -1.962000000000e+01 0.0 
0.0 -1.962000000000e+01 0.0 
0.0 -1.962000000000e+01 0.0 
0.0 -1.962000000000e+01 0.0 
0.0 -1.962000000000e+01 0.0 
0.0 -1.962000000000e+01 0.0 
0.0 -1.962000000000e+01 0.0 
0.0 -1.962000000000e+01 0.0 
0.0 -1.962000000000e+01 0.0 
0.0 -1.962000000000e+01 0.0 
0.0 -1.962000000000e+01 0.0 
0.0 -1.962000000000e+01 0.0 
0.0 -1.962000000000e+01 0.0 
0.0 -1.962000000000e+01 0.0 
0.0 -1.962000000000e+01 0.0 
0.0 -1.962000000000e+01 0.0 
0.0 -1.962000000000e+01 0.0 
0.0 -1.962000000000e+01 0.0 
0.0 -1.962000000000e+01 0.0 
0.0 -1.962000000000e+01 0.0 
0.0 -1.962000000000e+01 0.0 
0.0 -1.962000000000e+01 0.0 
0.0 -1.962000000000e+01 0.0 
0.0 -1.962000000000e+01 0.0 
0.0 -1.962000000000e+01 0.0 
0.0 -1.962000000000e+01 0.0 
0.0 -1.962000000000e+01 0.0 
0.0 -1.962000000000e+01 0.0 
0.0 -1.962000000000e+01 0.0 
0.0 -1.962000000000e+01 0.0 
0.0 -1.962000000000e+01 0.0 
0.0 -1.962000000000e+01 0.0 
0.0 -1.962000000000e+01 0.0 
0.0 -1.962000000000e+01 0.0 
0.0 -1.962000000000e+01 0.0 
0.0 -1.962000000000e+01 0.0 
0.0 -1.962000000000e+01 0.0 
0.0 -1.962000000000e+01 0.0 
0.0 -1.962000000000e+01 0.0 
0.0 -1.962000000000e+01 0.0 
0.0 -1.962000000000e+01 0.0 
0.0 -1.962000000000e+01 0.0 
0.0 -1.962000000000e+01 0.0 
0.0 -1.962000000000e+01 0.0 
0.0 -1.962000000000e+01 0.0 
0.0 -1.962000000000e+01 0.0 
0.0 -1.962000000000e+01 0.0 
0.0 -1.962000000000e+01 0.0 
0.0 -1.962000000000e+01 0.0 
0.0 -1.962000000000e+01 0.0 
0.0 -1.962000000000e+01 0.0 
0.0 -1.962000000000e+01 0.0 
0.0 -1.962000000000e+01 0.0 
0.0 -1.962000000000e+01 0.0 
0.0 -1.962000000000e+01 0.0 
0.0 -1.962000000000e+01 0.0 
0.0 -1.962000000000e+01 0.0 
0.0 -1.962000000000e+01 0.0 
0.0 -1.962000000000e+01 0.0 
0.0 -1.962000000000e+01 0.0 
0.0 -1.962000000000e+01 0.0 
0.0 -1.962000000000e+01 0.0 
0.0 -1.962000000000e+01 0.0 
0.0 -1.962000000000e+01 0.0 
0.0 -1.962000000000e+01 0.0 
0.0 -1.962000000000e+01 0.0 
0.0 -1.962000000000e+01 0.0 
0.0 -1.962000000000e+01 0.0 
0.0 -1.962000000000e+01 0.0 
0.0 -1.962000000000e+01 0.0 
0.0 -1.962000000000e+01 0.0 
0.0 -1.962000000000e+01 0.0 
0.0 -1.962000000000e+01 0.0 
0.0 -1.962000000000e+01 0.0 
0.0 -1.962000000000e+01 0.0 
0.0 -1.962000000000e+01 0.0 
0.0 -1.962000000000e+01 0.0 
0.0 -1.962000000000e+01 0.0 
0.0 -1.962000000000e+01 0.0 
0.0 -1.962000000000e+01 0.0 
0.0 -1.962000000000e+01 0.0 
0.0 -1.962000000000e+01 0.0 
0.0 -1.962000000000e+01 0.0 
0.0 -1.962000000000e+01 0.0 
0.0 -1.962000000000e+01 0.0 
0.0 -1.962000000000e+01 0.0 
0.0 -1.962000000000e+01 0.0 
0.0 -1.962000000000e+01 0.0 
0.0 -1.962000000000e+01 0.0 
0.0 -1.962000000000e+01 0.0 
0.0 -1.962000000000e+01 0.0 
0.0 -1.962000000000e+01 0.0 
0.0 -1.962000000000e+01 0.0 
0.0 -1.962000000000e+01 0.0 
0.0 -1.962000000000e+01 0.0 
0.0 -1.962000000000e+01 0.0 
0.0 -1.962000000000e+01 0.0 
0.0 -1.962000000000e+01 0.0 
0.0 -1.962000000000e+01 0.0 
0.0 -1.962000000000e+01 0.0 
0.0 -1.962000000000e+01 0.0 
0.0 -1.962000000000e+01 0.0 
0.0 -1.962000000000e+01 0.0 
0.0 -1.962000000000e+01 0.0 
0.0 -1.962000000000e+01 0.0 
0.0 -1.962000000000e+01 0.0 
0.0 -1.962000000000e+01 0.0 
0.0 -1.962000000000e+01 0.0 
0.0 -1.962000000000e+01 0.0 
0.0 -1.962000000000e+01 0.0 
0.0 -1.962000000000e+01 0.0 
0.0 -1.962000000000e+01 0.0 
0.0 -1.962000000000e+01 0.0 
0.0 -1.962000000000e+01 0.0 
0.0 -1.962000000000e+01 0.0 
0.0 -1.962000000000e+01 0.0 
0.0 -1.962000000000e+01 0.0 
0.0 -1.962000000000e+01 0.0 
0.0 -1.962000000000e+01 0.0 
0.0 -1.962000000000e+01 0.0 
0.0 -1.962000000000e+01 0.0 
0.0 -1.962000000000e+01 0.0 
0.0 -1.962000000000e+01 0.0 
0.0 -1.962000000000e+01 0.0 
0.0 -1.962000000000e+01 0.0 
0.0 -1.962000000000e+01 0.0 
0.0 -1.962000000000e+01 0.0 
0.0 -1.962000000000e+01 0.0 
0.0 -1.962000000000e+01 0.0 
0.0 -1.962000000000e+01 0.0 
0.0 -1.962000000000e+01 0.0 
0.0 -1.962000000000e+01 0.0 
0.0 -1.962000000000e+01 0.0 
0.0 -1.962000000000e+01 0.0 
0.0 -1.962000000000e+01 0.0 
0.0 -1.962000000000e+01 0.0 
0.0 -1.962000000000e+01 0.0 
0.0 -1.962000000000e+01 0.0 
0.0 -1.962000000000e+01 0.0 
0.0 -1.962000000000e+01 0.0 
0.0 -1.962000000000e+01 0.0 
0.0 -1.962000000000e+01 0.0 
0.0 -1.962000000000e+01 0.0 
0.0 -1.962000000000e+01 0.0 
0.0 -1.962000000000e+01 0.0 
0.0 -1.962000000000e+01 0.0 
0.0 -1.962000000000e+01 0.0 
0.0 -1.962000000000e+01 0.0 
0.0 -1.962000000000e+01 0.0 
0.0 -1.962000000000e+01 0.0 
0.0 -1.962000000000e+01 0.0 
0.0 -1.962000000000e+01 0.0 
0.0 -1.962000000000e+01 0.0 
0.0 -1.962000000000e+01 0.0 
0.0 -1.962000000000e+01 0.0 
0.0 -1.962000000000e+01 0.0 
0.0 -1.962000000000e+01 0.0 
0.0 -1.962000000000e+01 0.0 
0.0 -1.962000000000e+01 0.0 
0.0 -1.962000000000e+01 0.0 
0.0 -1.962000000000e+01 0.0 
0.0 -1.962000000000e+01 0.0 
0.0 -1.962000000000e+01 0.0 
0.0 -1.962000000000e+01 0.0 
0.0 -1.962000000000e+01 0.0 
0.0 -1.962000000000e+01 0.0 
0.0 -1.962000000000e+01 0.0 
0.0 -1.962000000000e+01 0.0 
0.0 -1.962000000000e+01 0.0 
0.0 -1.962000000000e+01 0.0 
0.0 -1.962000000000e+01 0.0 
0.0 -1.962000000000e+01 0.0 
0.0 -1.962000000000e+01 0.0 
0.0 -1.962000000000e+01 0.0 
0.0 -1.962000000000e+01 0.0 
0.0 -1.962000000000e+01 0.0 
0.0 -1.962000000000e+01 0.0 
0.0 -1.962000000000e+01 0.0 
0.0 -1.962000000000e+01 0.0 
0.0 -1.962000000000e+01 0.0 
0.0 -1.962000000000e+01 0.0 
0.0 -1.962000000000e+01 0.0 
0.0 -1.962000000000e+01 0.0 
0.0 -1.962000000000e+01 0.0 
0.0 -1.962000000000e+01 0.0 
0.0 -1.962000000000e+01 0.0 
0.0 -1.962000000000e+01 0.0 
0.0 -1.962000000000e+01 0.0 
0.0 -1.962000000000e+01 0.0 
0.0 -1.962000000000e+01 0.0 
0.0 -1.962000000000e+01 0.0 
0.0 -1.962000000000e+01 0.0 
0.0 -1.962000000000e+01 0.0 
0.0 -1.962000000000e+01 0.0 
0.0 -1.962000000000e+01 0.0 
0.0 -1.962000000000e+01 0.0 
0.0 -1.962000000000e+01 0.0 
0.0 -1.962000000000e+01 0.0 
0.0 -1.962000000000e+01 0.0 
0.0 -1.962000000000e+01 0.0 
0.0 -1.962000000000e+01 0.0 
0.0 -1.962000000000e+01 0.0 
0.0 -1.962000000000e+01 0.0 
0.0 -1.962000000000e+01 0.0 
0.0 -1.962000000000e+01 0.0 
0.0 -1.962000000000e+01 0.0 
0.0 -1.962000000000e+01 0.0 
0.0 -1.962000000000e+01 0.0 
0.0 -1.962000000000e+01 0.0 
0.0 -1.962000000000e+01 0.0 
0.0 -1.962000000000e+01 0.0 
0.0 -1.962000000000e+01 0.0 
0.0 -1.962000000000e+01 0.0 
0.0 -1.962000000000e+01 0.0 
0.0 -1.962000000000e+01 0.0 
0.0 -1.962000000000e+01 0.0 
0.0 -1.962000000000e+01 0.0 
0.0 -1.962000000000e+01 0.0 
0.0 -1.962000000000e+01 0.0 
0.0 -1.962000000000e+01 0.0 
0.0 -1.962000000000e+01 0.0 
0.0 -1.962000000000e+01 0.0 
0.0 -1.962000000000e+01 0.0 
0.0 -1.962000000000e+01 0.0 
0.0 -1.962000000000e+01 0.0 
0.0 -1.962000000000e+01 0.0 
0.0 -1.962000000000e+01 0.0 
0.0 -1.962000000000e+01 0.0 
0.0 -1.962000000000e+01 0.0 
0.0 -1.962000000000e+01 0.0 
0.0 -1.962000000000e+01 0.0 
0.0 -1.962000000000e+01 0.0 
0.0 -1.962000000000e+01 0.0 
0.0 -1.962000000000e+01 0.0 
0.0 -1.962000000000e+01 0.0 
0.0 -1.962000000000e+01 0.0 
0.0 -1.962000000000e+01 0.0 
0.0 -1.962000000000e+01 0.0 
0.0 -1.962000000000e+01 0.0 
0.0 -1.962000000000e+01 0.0 
0.0 -1.962000000000e+01 0.0 
0.0 -1.962000000000e+01 0.0 
0.0 -1.962000000000e+01 0.0 
0.0 -1.962000000000e+01 0.0 
0.0 -1.962000000000e+01 0.0 
0.0 -1.962000000000e+01 0.0 
0.0 -1.962000000000e+01 0.0 
0.0 -1.962000000000e+01 0.0 
0.0 -1.962000000000e+01 0.0 
0.0 -1.962000000000e+01 0.0 
0.0 -1.962000000000e+01 0.0 
0.0 -1.962000000000e+01 0.0 
0.0 -1.962000000000e+01 0.0 
0.0 -1.962000000000e+01 0.0 
0.0 -1.962000000000e+01 0.0 
0.0 -1.962000000000e+01 0.0 
0.0 -1.962000000000e+01 0.0 
0.0 -1.962000000000e+01 0.0 
0.0 -1.962000000000e+01 0.0 
0.0 -1.962000000000e+01 0.0 
0.0 -1.962000000000e+01 0.0 
0.0 -1.962000000000e+01 0.0 
0.0 -1.962000000000e+01 0.0 
0.0 -1.962000000000e+01 0.0 
0.0 -1.962000000000e+01 0.0 
0.0 -1.962000000000e+01 0.0 
0.0 -1.962000000000e+01 0.0 
0.0 -1.962000000000e+01 0.0 
0.0 -1.962000000000e+01 0.0 
0.0 -1.962000000000e+01 0.0 
0.0 -1.962000000000e+01 0.0 
0.0 -1.962000000000e+01 0.0 
0.0 -1.962000000000e+01 0.0 
0.0 -1.962000000000e+01 0.0 
0.0 -1.962000000000e+01 0.0 
0.0 -1.962000000000e+01 0.0 
0.0 -1.962000000000e+01 0.0 
0.0 -1.962000000000e+01 0.0 
0.0 -1.962000000000e+01 0.0 
0.0 -1.962000000000e+01 0.0 
0.0 -1.962000000000e+01 0.0 
0.0 -1.962000000000e+01 0.0 
0.0 -1.962000000000e+01 0.0 
0.0 -1.962000000000e+01 0.0 
0.0 -1.962000000000e+01 0.0 
0.0 -1.962000000000e+01 0.0 
0.0 -1.962000000000e+01 0.0 
0.0 -1.962000000000e+01 0.0 
0.0 -1.962000000000e+01 0.0 
0.0 -1.962000000000e+01 0.0 
0.0 -1.962000000000e+01 0.0 
0.0 -1.962000000000e+01 0.0 
0.0 -1.962000000000e+01 0.0 
0.0 -1.962000000000e+01 0.0 
0.0 -1.962000000000e+01 0.0 
0.0 -1.962000000000e+01 0.0 
0.0 -1.962000000000e+01 0.0 
0.0 -1.962000000000e+01 0.0 
0.0 -1.962000000000e+01 0.0 
0.0 -1.962000000000e+01 0.0 
0.0 -1.962000000000e+01 0.0 
0.0 -1.962000000000e+01 0.0 
0.0 -1.962000000000e+01 0.0 
0.0 -1.962000000000e+01 0.0 
0.0 -1.962000000000e+01 0.0 
0.0 -1.962000000000e+01 0.0 
0.0 -1.962000000000e+01 0.0 
0.0 -1.962000000000e+01 0.0 
0.0 -1.962000000000e+01 0.0 
0.0 -1.962000000000e+01 0.0 
0.0 -1.962000000000e+01 0.0 
0.0 -1.962000000000e+01 0.0 
0.0 -1.962000000000e+01 0.0 
0.0 -1.962000000000e+01 0.0 
0.0 -1.962000000000e+01 0.0 
0.0 -1.962000000000e+01 0.0 
0.0 -1.962000000000e+01 0.0 
0.0 -1.962000000000e+01 0.0 
0.0 -1.962000000000e+01 0.0 
0.0 -1.962000000000e+01 0.0 
0.0 -1.962000000000e+01 0.0 
0.0 -1.962000000000e+01 0.0 
0.0 -1.962000000000e+01 0.0 
0.0 -1.962000000000e+01 0.0 
0.0 -1.962000000000e+01 0.0 
0.0 -1.962000000000e+01 0.0 
0.0 -1.962000000000e+01 0.0 
0.0 -1.962000000000e+01 0.0 
0.0 -1.962000000000e+01 0.0 
0.0 -1.962000000000e+01 0.0 
0.0 -1.962000000000e+01 0.0 
0.0 -1.962000000000e+01 0.0 
0.0 -1.962000000000e+01 0.0 
0.0 -1.962000000000e+01 0.0 
0.0 -1.962000000000e+01 0.0 
0.0 -1.962000000000e+01 0.0 
0.0 -1.962000000000e+01 0.0 
0.0 -1.962000000000e+01 0.0 
0.0 -1.962000000000e+01 0.0 
0.0 -1.962000000000e+01 0.0 
0.0 -1.962000000000e+01 0.0 
0.0 -1.962000000000e+01 0.0 
0.0 -1.962000000000e+01 0.0 
0.0 -1.962000000000e+01 0.0 
0.0 -1.962000000000e+01 0.0 
0.0 -1.962000000000e+01 0.0 
0.0 -1.962000000000e+01 0.0 
0.0 -1.962000000000e+01 0.0 
0.0 -1.962000000000e+01 0.0 
0.0 -1.962000000000e+01 0.0 
0.0 -1.962000000000e+01 0.0 
0.0 -1.962000000000e+01 0.0 
0.0 -1.962000000000e+01 0.0 
0.0 -1.962000000000e+01 0.0 
0.0 -1.962000000000e+01 0.0 
0.0 -1.962000000000e+01 0.0 
0.0 -1.962000000000e+01 0.0 
0.0 -1.962000000000e+01 0.0 
0.0 -1.962000000000e+01 0.0 
0.0 -1.962000000000e+01 0.0 
0.0 -1.962000000000e+01 0.0 
0.0 -1.962000000000e+01 0.0 
0.0 -1.962000000000e+01 0.0 
0.0 -1.962000000000e+01 0.0 
0.0 -1.962000000000e+01 0.0 
0.0 -1.962000000000e+01 0.0 
0.0 -1.962000000000e+01 0.0 
0.0 -1.962000000000e+01 0.0 
0.0 -1.962000000000e+01 0.0 
0.0 -1.962000000000e+01 0.0 
0.0 -1.962000000000e+01 0.0 
0.0 -1.962000000000e+01 0.0 
0.0 -1.962000000000e+01 0.0 
0.0 -1.962000000000e+01 0.0 
0.0 -1.962000000000e+01 0.0 
0.0 -1.962000000000e+01 0.0 
0.0 -1.962000000000e+01 0.0 
0.0 -1.962000000000e+01 0.0 
0.0 -1.962000000000e+01 0.0 
0.0 -1.962000000000e+01 0.0 
0.0 -1.962000000000e+01 0.0 
0.0 -1.962000000000e+01 0.0 
0.0 -1.962000000000e+01 0.0 
0.0 -1.962000000000e+01 0.0 
0.0 -1.962000000000e+01 0.0 
0.0 -1.962000000000e+01 0.0 
0.0 -1.962000000000e+01 0.0 
0.0 -1.962000000000e+01 0.0 
0.0 -1.962000000000e+01 0.0 
0.0 -1.962000000000e+01 0.0 
0.0 -1.962000000000e+01 0.0 
0.0 -1.962000000000e+01 0.0 
0.0 -1.962000000000e+01 0.0 
0.0 -1.962000000000e+01 0.0 
0.0 -1.962000000000e+01 0.0 
0.0 -1.962000000000e+01 0.0 
0.0 -1.962000000000e+01 0.0 
0.0 -1.962000000000e+01 0.0 
0.0 -1.962000000000e+01 0.0 
0.0 -1.962000000000e+01 0.0 
0.0 -1.962000000000e+01 0.0 
0.0 -1.962000000000e+01 0.0 
0.0 -1.962000000000e+01 0.0 
0.0 -1.962000000000e+01 0.0 
0.0 -1.962000000000e+01 0.0 
0.0 -1.962000000000e+01 0.0 
0.0 -1.962000000000e+01 0.0 
0.0 -1.962000000000e+01 0.0 
0.0 -1.962000000000e+01 0.0 
0.0 -1.962000000000e+01 0.0 
0.0 -1.962000000000e+01 0.0 
0.0 -1.962000000000e+01 0.0 
0.0 -1.962000000000e+01 0.0 
0.0 -1.962000000000e+01 0.0 
0.0 -1.962000000000e+01 0.0 
0.0 -1.962000000000e+01 0.0 
0.0 -1.962000000000e+01 0.0 
0.0 -1.962000000000e+01 0.0 
0.0 -1.962000000000e+01 0.0 
0.0 -1.962000000000e+01 0.0 
0.0 -1.962000000000e+01 0.0 
0.0 -1.962000000000e+01 0.0 
0.0 -1.962000000000e+01 0.0 
0.0 -1.962000000000e+01 0.0 
0.0 -1.962000000000e+01 0.0 
0.0 -1.962000000000e+01 0.0 
0.0 -1.962000000000e+01 0.0 
0.0 -1.962000000000e+01 0.0 
0.0 -1.962000000000e+01 0.0 
0.0 -1.962000000000e+01 0.0 
0.0 -1.962000000000e+01 0.0 
0.0 -1.962000000000e+01 0.0 
0.0 -1.962000000000e+01 0.0 
0.0 -1.962000000000e+01 0.0 
0.0 -1.962000000000e+01 0.0 
0.0 -1.962000000000e+01 0.0 
0.0 -1.962000000000e+01 0.0 
0.0 -1.962000000000e+01 0.0 
0.0 -1.962000000000e+01 0.0 
0.0 -1.962000000000e+01 0.0 
0.0 -1.962000000000e+01 0.0 
0.0 -1.962000000000e+01 0.0 
0.0 -1.962000000000e+01 0.0 
0.0 -1.962000000000e+01 0.0 
0.0 -1.962000000000e+01 0.0 
0.0 -1.962000000000e+01 0.0 
0.0 -1.962000000000e+01 0.0 
0.0 -1.962000000000e+01 0.0 
0.0 -1.962000000000e+01 0.0 
0.0 -1.962000000000e+01 0.0 
0.0 -1.962000000000e+01 0.0 
0.0 -1.962000000000e+01 0.0 
0.0 -1.962000000000e+01 0.0 
0.0 -1.962000000000e+01 0.0 
0.0 -1.962000000000e+01 0.0 
0.0 -1.962000000000e+01 0.0 
0.0 -1.962000000000e+01 0.0 
0.0 -1.962000000000e+01 0.0 
0.0 -1.962000000000e+01 0.0 
0.0 -1.962000000000e+01 0.0 
0.0 -1.962000000000e+01 0.0 
0.0 -1.962000000000e+01 0.0 
0.0 -1.962000000000e+01 0.0 
0.0 -1.962000000000e+01 0.0 
0.0 -1.962000000000e+01 0.0 
0.0 -1.962000000000e+01 0.0 
0.0 -1.962000000000e+01 0.0 
0.0 -1.962000000000e+01 0.0 
0.0 -1.962000000000e+01 0.0 
0.0 -1.962000000000e+01 0.0 
0.0 -1.962000000000e+01 0.0 
0.0 -1.962000000000e+01 0.0 
0.0 -1.962000000000e+01 0.0 
0.0 -1.962000000000e+01 0.0 
0.0 -1.962000000000e+01 0.0 
0.0 -1.962000000000e+01 0.0 
0.0 -1.962000000000e+01 0.0 
0.0 -1.962000000000e+01 0.0 
0.0 -1.962000000000e+01 0.0 
0.0 -1.962000000000e+01 0.0 
0.0 -1.962000000000e+01 0.0 
0.0 -1.962000000000e+01 0.0 
0.0 -1.962000000000e+01 0.0 
0.0 -1.962000000000e+01 0.0 
0.0 -1.962000000000e+01 0.0 
0.0 -1.962000000000e+01 0.0 
0.0 -1.962000000000e+01 0.0 
0.0 -1.962000000000e+01 0.0 
0.0 -1.962000000000e+01 0.0 
0.0 -1.962000000000e+01 0.0 
0.0 -1.962000000000e+01 0.0 
0.0 -1.962000000000e+01 0.0 
0.0 -1.962000000000e+01 0.0 
0.0 -1.962000000000e+01 0.0 
0.0 -1.962000000000e+01 0.0 
0.0 -1.962000000000e+01 0.0 
0.0 -1.962000000000e+01 0.0 
0.0 -1.962000000000e+01 0.0 
0.0 -1.962000000000e+01 0.0 
0.0 -1.962000000000e+01 0.0 
0.0 -1.962000000000e+01 0.0 
0.0 -1.962000000000e+01 0.0 
0.0 -1.962000000000e+01 0.0 
0.0 -1.962000000000e+01 0.0 
0.0 -1.962000000000e+01 0.0 
0.0 -1.962000000000e+01 0.0 
0.0 -1.962000000000e+01 0.0 
0.0 -1.962000000000e+01 0.0 
0.0 -1.962000000000e+01 0.0 
0.0 -1.962000000000e+01 0.0 
0.0 -1.962000000000e+01 0.0 
0.0 -1.962000000000e+01 0.0 
0.0 -1.962000000000e+01 0.0 
0.0 -1.962000000000e+01 0.0 
0.0 -1.962000000000e+01 0.0 
0.0 -1.962000000000e+01 0.0 
0.0 -1.962000000000e+01 0.0 
0.0 -1.962000000000e+01 0.0 
0.0 -1.962000000000e+01 0.0 
0.0 -1.962000000000e+01 0.0 
0.0 -1.962000000000e+01 0.0 
0.0 -1.962000000000e+01 0.0 
0.0 -1.962000000000e+01 0.0 
0.0 -1.962000000000e+01 0.0 
0.0 -1.962000000000e+01 0.0 
0.0 -1.962000000000e+01 0.0 
0.0 -1.962000000000e+01 0.0 
0.0 -1.962000000000e+01 0.0 
0.0 -1.962000000000e+01 0.0 
0.0 -1.962000000000e+01 0.0 
0.0 -1.962000000000e+01 0.0 
0.0 -1.962000000000e+01 0.0 
0.0 -1.962000000000e+01 0.0 
0.0 -1.962000000000e+01 0.0 
0.0 -1.962000000000e+01 0.0 
0.0 -1.962000000000e+01 0.0 
0.0 -1.962000000000e+01 0.0 
0.0 -1.962000000000e+01 0.0 
0.0 -1.962000000000e+01 0.0 
0.0 -1.962000000000e+01 0.0 
0.0 -1.962000000000e+01 0.0 
0.0 -1.962000000000e+01 0.0 
0.0 -1.962000000000e+01 0.0 

VECTORS node_rhside_materi_fixed float
-6.526174691828e+00 0.0 0.0 
8.873251615322e+01 0.0 0.0 
-8.478174870053e+01 -2.019680719930e+02 0.0 
8.284743273137e+01 -1.974025010718e+02 0.0 
-1.194207276748e+01 0.0 0.0 
-1.573649207784e+01 0.0 0.0 
-1.926207803074e+01 0.0 0.0 
-3.111187952556e+01 0.0 0.0 
-4.768365654703e+01 0.0 0.0 
-6.232966173225e+01 0.0 0.0 
-7.534083734613e+01 0.0 0.0 
-8.679857663248e+01 0.0 0.0 
-9.659246664094e+01 0.0 0.0 
-1.051422951876e+02 0.0 0.0 
-1.127332734972e+02 0.0 0.0 
-1.192533119104e+02 0.0 0.0 
-1.248039453148e+02 0.0 0.0 
-1.300593961749e+02 0.0 0.0 
-1.346660810280e+02 0.0 0.0 
-1.406841866607e+02 0.0 0.0 
-1.486789547293e+02 0.0 0.0 
-1.566348934864e+02 0.0 0.0 
-1.650716331952e+02 0.0 0.0 
2.441531442996e-01 -3.937469858292e+02 0.0 
3.402114795952e-01 -3.948927004862e+02 0.0 
1.919717933561e+00 -3.941769974390e+02 0.0 
7.901952042074e-01 -3.944019966099e+02 0.0 
2.079675537753e+00 -3.951477683526e+02 0.0 
2.339948914615e+00 -3.947368760984e+02 0.0 
2.471264005742e+00 -3.954154250065e+02 0.0 
2.924569695626e+00 -3.960468025026e+02 0.0 
3.947919136128e+00 -3.957414553984e+02 0.0 
3.084218796120e+00 -3.963162833024e+02 0.0 
4.211490100443e+00 -3.973784495121e+02 0.0 
4.555101065067e+00 -3.972152646920e+02 0.0 
4.651287717480e+00 -3.982640085367e+02 0.0 
4.875388158969e+00 -3.986063943672e+02 0.0 
5.239304705138e+00 -3.991253477059e+02 0.0 
5.183346738770e+00 -4.001308401814e+02 0.0 
5.878369681284e+00 -4.007141955644e+02 0.0 
5.940380998890e+00 -4.014572016226e+02 0.0 
6.008189470142e+00 -4.020835228163e+02 0.0 
6.040331993485e+00 -4.025323509096e+02 0.0 
5.729332760673e+00 -4.033064002927e+02 0.0 
5.858830018210e+00 -4.041529830546e+02 0.0 
5.574797122173e+00 -4.046135790507e+02 0.0 
5.410814537840e+00 -4.051072714100e+02 0.0 
5.138247959038e+00 -4.057985980738e+02 0.0 
4.733832773766e+00 -4.059835361341e+02 0.0 
4.357373868888e+00 -4.061621301270e+02 0.0 
3.901398227482e+00 -4.064814893462e+02 0.0 
3.490993840958e+00 -4.069148421930e+02 0.0 
3.430359182601e+00 -4.068467820514e+02 0.0 
2.386351464203e+00 -4.067806753905e+02 0.0 
2.169120780386e+00 -4.076343408217e+02 0.0 
1.895109563579e+00 -4.073859682667e+02 0.0 
1.513593165498e+00 -4.077653684303e+02 0.0 
8.686902920946e-01 -4.078334425893e+02 0.0 
5.220002587556e-01 -4.077107547616e+02 0.0 
-5.077138971257e-02 -4.078450956288e+02 0.0 
-5.336223261828e-01 -4.075105077609e+02 0.0 
-8.330657824703e-01 -4.072148857486e+02 0.0 
-1.228367372330e+00 -4.072199789710e+02 0.0 
-1.013396182752e+00 -4.064091960347e+02 0.0 
-1.352302168776e+00 -4.058892591146e+02 0.0 
-1.276111372268e+00 -4.051614472850e+02 0.0 
-1.428911741527e+00 -4.054469847987e+02 0.0 
-1.399810532660e+00 -4.042099346035e+02 0.0 
-1.287017002767e+00 -4.045932591712e+02 0.0 
-2.040623163897e-01 -4.035467223646e+02 0.0 
-8.215503567809e-01 -4.036551441485e+02 0.0 
-1.784720124212e-01 -4.033179823784e+02 0.0 
9.675483459719e+01 0.0 0.0 
1.054457445151e+02 0.0 0.0 
1.136111886236e+02 0.0 0.0 
1.215700487086e+02 0.0 0.0 
1.295621167549e+02 0.0 0.0 
1.378146820009e+02 0.0 0.0 
1.455581636178e+02 0.0 0.0 
1.529201627465e+02 0.0 0.0 
1.614485438125e+02 0.0 0.0 
0.0 0.0 0.0 
3.421180314943e+00 0.0 0.0 
0.0 0.0 0.0 
0.0 0.0 0.0 
0.0 0.0 0.0 
0.0 0.0 0.0 
0.0 0.0 0.0 
0.0 0.0 0.0 
0.0 0.0 0.0 
0.0 0.0 0.0 
0.0 0.0 0.0 
0.0 0.0 0.0 
1.325760228191e+01 0.0 0.0 
2.128043264423e+01 0.0 0.0 
2.926278989100e+01 0.0 0.0 
3.788885677363e+01 0.0 0.0 
4.607343698848e+01 0.0 0.0 
5.470967167754e+01 0.0 0.0 
6.328062884093e+01 0.0 0.0 
7.187959878217e+01 0.0 0.0 
8.041553368436e+01 0.0 0.0 
0.0 0.0 0.0 
0.0 0.0 0.0 
0.0 0.0 0.0 
0.0 0.0 0.0 
0.0 0.0 0.0 
0.0 0.0 0.0 
0.0 0.0 0.0 
0.0 0.0 0.0 
0.0 0.0 0.0 
0.0 0.0 0.0 
0.0 0.0 0.0 
0.0 0.0 0.0 
0.0 0.0 0.0 
0.0 0.0 0.0 
0.0 0.0 0.0 
0.0 0.0 0.0 
0.0 0.0 0.0 
0.0 0.0 0.0 
0.0 0.0 0.0 
0.0 0.0 0.0 
0.0 0.0 0.0 
0.0 0.0 0.0 
0.0 0.0 0.0 
0.0 0.0 0.0 
0.0 0.0 0.0 
0.0 0.0 0.0 
0.0 0.0 0.0 
0.0 0.0 0.0 
0.0 0.0 0.0 
0.0 0.0 0.0 
0.0 0.0 0.0 
0.0 0.0 0.0 
0.0 0.0 0.0 
0.0 0.0 0.0 
0.0 0.0 0.0 
0.0 0.0 0.0 
0.0 0.0 0.0 
0.0 0.0 0.0 
0.0 0.0 0.0 
0.0 0.0 0.0 
0.0 0.0 0.0 
0.0 0.0 0.0 
0.0 0.0 0.0 
0.0 0.0 0.0 
0.0 0.0 0.0 
0.0 0.0 0.0 
0.0 0.0 0.0 
0.0 0.0 0.0 
0.0 0.0 0.0 
0.0 0.0 0.0 
0.0 0.0 0.0 
0.0 0.0 0.0 
0.0 0.0 0.0 
0.0 0.0 0.0 
0.0 0.0 0.0 
0.0 0.0 0.0 
0.0 0.0 0.0 
0.0 0.0 0.0 
0.0 0.0 0.0 
0.0 0.0 0.0 
0.0 0.0 0.0 
0.0 0.0 0.0 
0.0 0.0 0.0 
0.0 0.0 0.0 
0.0 0.0 0.0 
0.0 0.0 0.0 
0.0 0.0 0.0 
0.0 0.0 0.0 
0.0 0.0 0.0 
0.0 0.0 0.0 
0.0 0.0 0.0 
0.0 0.0 0.0 
0.0 0.0 0.0 
0.0 0.0 0.0 
0.0 0.0 0.0 
0.0 0.0 0.0 
0.0 0.0 0.0 
0.0 0.0 0.0 
0.0 0.0 0.0 
0.0 0.0 0.0 
0.0 0.0 0.0 
0.0 0.0 0.0 
0.0 0.0 0.0 
0.0 0.0 0.0 
0.0 0.0 0.0 
0.0 0.0 0.0 
0.0 0.0 0.0 
0.0 0.0 0.0 
0.0 0.0 0.0 
0.0 0.0 0.0 
0.0 0.0 0.0 
0.0 0.0 0.0 
0.0 0.0 0.0 
0.0 0.0 0.0 
0.0 0.0 0.0 
0.0 0.0 0.0 
0.0 0.0 0.0 
0.0 0.0 0.0 
0.0 0.0 0.0 
0.0 0.0 0.0 
0.0 0.0 0.0 
0.0 0.0 0.0 
0.0 0.0 0.0 
0.0 0.0 0.0 
0.0 0.0 0.0 
0.0 0.0 0.0 
0.0 0.0 0.0 
0.0 0.0 0.0 
0.0 0.0 0.0 
0.0 0.0 0.0 
0.0 0.0 0.0 
0.0 0.0 0.0 
0.0 0.0 0.0 
0.0 0.0 0.0 
0.0 0.0 0.0 
0.0 0.0 0.0 
0.0 0.0 0.0 
0.0 0.0 0.0 
0.0 0.0 0.0 
0.0 0.0 0.0 
0.0 0.0 0.0 
0.0 0.0 0.0 
0.0 0.0 0.0 
0.0 0.0 0.0 
0.0 0.0 0.0 
0.0 0.0 0.0 
0.0 0.0 0.0 
0.0 0.0 0.0 
0.0 0.0 0.0 
0.0 0.0 0.0 
0.0 0.0 0.0 
0.0 0.0 0.0 
0.0 0.0 0.0 
0.0 0.0 0.0 
0.0 0.0 0.0 
0.0 0.0 0.0 
0.0 0.0 0.0 
0.0 0.0 0.0 
0.0 0.0 0.0 
0.0 0.0 0.0 
0.0 0.0 0.0 
0.0 0.0 0.0 
0.0 0.0 0.0 
0.0 0.0 0.0 
0.0 0.0 0.0 
0.0 0.0 0.0 
0.0 0.0 0.0 
0.0 0.0 0.0 
0.0 0.0 0.0 
0.0 0.0 0.0 
0.0 0.0 0.0 
0.0 0.0 0.0 
0.0 0.0 0.0 
0.0 0.0 0.0 
0.0 0.0 0.0 
0.0 0.0 0.0 
0.0 0.0 0.0 
0.0 0.0 0.0 
0.0 0.0 0.0 
0.0 0.0 0.0 
0.0 0.0 0.0 
0.0 0.0 0.0 
0.0 0.0 0.0 
0.0 0.0 0.0 
0.0 0.0 0.0 
0.0 0.0 0.0 
0.0 0.0 0.0 
0.0 0.0 0.0 
0.0 0.0 0.0 
0.0 0.0 0.0 
0.0 0.0 0.0 
0.0 0.0 0.0 
0.0 0.0 0.0 
0.0 0.0 0.0 
0.0 0.0 0.0 
0.0 0.0 0.0 
0.0 0.0 0.0 
0.0 0.0 0.0 
0.0 0.0 0.0 
0.0 0.0 0.0 
0.0 0.0 0.0 
0.0 0.0 0.0 
0.0 0.0 0.0 
0.0 0.0 0.0 
0.0 0.0 0.0 
0.0 0.0 0.0 
0.0 0.0 0.0 
0.0 0.0 0.0 
0.0 0.0 0.0 
0.0 0.0 0.0 
0.0 0.0 0.0 
0.0 0.0 0.0 
0.0 0.0 0.0 
0.0 0.0 0.0 
0.0 0.0 0.0 
0.0 0.0 0.0 
0.0 0.0 0.0 
0.0 0.0 0.0 
0.0 0.0 0.0 
0.0 0.0 0.0 
0.0 0.0 0.0 
0.0 0.0 0.0 
0.0 0.0 0.0 
0.0 0.0 0.0 
0.0 0.0 0.0 
0.0 0.0 0.0 
0.0 0.0 0.0 
0.0 0.0 0.0 
0.0 0.0 0.0 
0.0 0.0 0.0 
0.0 0.0 0.0 
0.0 0.0 0.0 
0.0 0.0 0.0 
0.0 0.0 0.0 
0.0 0.0 0.0 
0.0 0.0 0.0 
0.0 0.0 0.0 
0.0 0.0 0.0 
0.0 0.0 0.0 
0.0 0.0 0.0 
0.0 0.0 0.0 
0.0 0.0 0.0 
0.0 0.0 0.0 
0.0 0.0 0.0 
0.0 0.0 0.0 
0.0 0.0 0.0 
0.0 0.0 0.0 
0.0 0.0 0.0 
0.0 0.0 0.0 
0.0 0.0 0.0 
0.0 0.0 0.0 
0.0 0.0 0.0 
0.0 0.0 0.0 
0.0 0.0 0.0 
0.0 0.0 0.0 
0.0 0.0 0.0 
0.0 0.0 0.0 
0.0 0.0 0.0 
0.0 0.0 0.0 
0.0 0.0 0.0 
0.0 0.0 0.0 
0.0 0.0 0.0 
0.0 0.0 0.0 
0.0 0.0 0.0 
0.0 0.0 0.0 
0.0 0.0 0.0 
0.0 0.0 0.0 
0.0 0.0 0.0 
0.0 0.0 0.0 
0.0 0.0 0.0 
0.0 0.0 0.0 
0.0 0.0 0.0 
0.0 0.0 0.0 
0.0 0.0 0.0 
0.0 0.0 0.0 
0.0 0.0 0.0 
0.0 0.0 0.0 
0.0 0.0 0.0 
0.0 0.0 0.0 
0.0 0.0 0.0 
0.0 0.0 0.0 
0.0 0.0 0.0 
0.0 0.0 0.0 
0.0 0.0 0.0 
0.0 0.0 0.0 
0.0 0.0 0.0 
0.0 0.0 0.0 
0.0 0.0 0.0 
0.0 0.0 0.0 
0.0 0.0 0.0 
0.0 0.0 0.0 
0.0 0.0 0.0 
0.0 0.0 0.0 
0.0 0.0 0.0 
0.0 0.0 0.0 
0.0 0.0 0.0 
0.0 0.0 0.0 
0.0 0.0 0.0 
0.0 0.0 0.0 
0.0 0.0 0.0 
0.0 0.0 0.0 
0.0 0.0 0.0 
0.0 0.0 0.0 
0.0 0.0 0.0 
0.0 0.0 0.0 
0.0 0.0 0.0 
0.0 0.0 0.0 
0.0 0.0 0.0 
0.0 0.0 0.0 
0.0 0.0 0.0 
0.0 0.0 0.0 
0.0 0.0 0.0 
0.0 0.0 0.0 
0.0 0.0 0.0 
0.0 0.0 0.0 
0.0 0.0 0.0 
0.0 0.0 0.0 
0.0 0.0 0.0 
0.0 0.0 0.0 
0.0 0.0 0.0 
0.0 0.0 0.0 
0.0 0.0 0.0 
0.0 0.0 0.0 
0.0 0.0 0.0 
0.0 0.0 0.0 
0.0 0.0 0.0 
0.0 0.0 0.0 
0.0 0.0 0.0 
0.0 0.0 0.0 
0.0 0.0 0.0 
0.0 0.0 0.0 
0.0 0.0 0.0 
0.0 0.0 0.0 
0.0 0.0 0.0 
0.0 0.0 0.0 
0.0 0.0 0.0 
0.0 0.0 0.0 
0.0 0.0 0.0 
0.0 0.0 0.0 
0.0 0.0 0.0 
0.0 0.0 0.0 
0.0 0.0 0.0 
0.0 0.0 0.0 
0.0 0.0 0.0 
0.0 0.0 0.0 
0.0 0.0 0.0 
0.0 0.0 0.0 
0.0 0.0 0.0 
0.0 0.0 0.0 
0.0 0.0 0.0 
0.0 0.0 0.0 
0.0 0.0 0.0 
0.0 0.0 0.0 
0.0 0.0 0.0 
0.0 0.0 0.0 
0.0 0.0 0.0 
0.0 0.0 0.0 
0.0 0.0 0.0 
0.0 0.0 0.0 
0.0 0.0 0.0 
0.0 0.0 0.0 
0.0 0.0 0.0 
0.0 0.0 0.0 
0.0 0.0 0.0 
0.0 0.0 0.0 
0.0 0.0 0.0 
0.0 0.0 0.0 
0.0 0.0 0.0 
0.0 0.0 0.0 
0.0 0.0 0.0 
0.0 0.0 0.0 
0.0 0.0 0.0 
0.0 0.0 0.0 
0.0 0.0 0.0 
0.0 0.0 0.0 
0.0 0.0 0.0 
0.0 0.0 0.0 
0.0 0.0 0.0 
0.0 0.0 0.0 
0.0 0.0 0.0 
0.0 0.0 0.0 
0.0 0.0 0.0 
0.0 0.0 0.0 
0.0 0.0 0.0 
0.0 0.0 0.0 
0.0 0.0 0.0 
0.0 0.0 0.0 
0.0 0.0 0.0 
0.0 0.0 0.0 
0.0 0.0 0.0 
0.0 0.0 0.0 
0.0 0.0 0.0 
0.0 0.0 0.0 
0.0 0.0 0.0 
0.0 0.0 0.0 
0.0 0.0 0.0 
0.0 0.0 0.0 
0.0 0.0 0.0 
0.0 0.0 0.0 
0.0 0.0 0.0 
0.0 0.0 0.0 
0.0 0.0 0.0 
0.0 0.0 0.0 
0.0 0.0 0.0 
0.0 0.0 0.0 
0.0 0.0 0.0 
0.0 0.0 0.0 
0.0 0.0 0.0 
0.0 0.0 0.0 
0.0 0.0 0.0 
0.0 0.0 0.0 
0.0 0.0 0.0 
0.0 0.0 0.0 
0.0 0.0 0.0 
0.0 0.0 0.0 
0.0 0.0 0.0 
0.0 0.0 0.0 
0.0 0.0 0.0 
0.0 0.0 0.0 
0.0 0.0 0.0 
0.0 0.0 0.0 
0.0 0.0 0.0 
0.0 0.0 0.0 
0.0 0.0 0.0 
0.0 0.0 0.0 
0.0 0.0 0.0 
0.0 0.0 0.0 
0.0 0.0 0.0 
0.0 0.0 0.0 
0.0 0.0 0.0 
0.0 0.0 0.0 
0.0 0.0 0.0 
0.0 0.0 0.0 
0.0 0.0 0.0 
0.0 0.0 0.0 
0.0 0.0 0.0 
0.0 0.0 0.0 
0.0 0.0 0.0 
0.0 0.0 0.0 
0.0 0.0 0.0 
0.0 0.0 0.0 
0.0 0.0 0.0 
0.0 0.0 0.0 
0.0 0.0 0.0 
0.0 0.0 0.0 
0.0 0.0 0.0 
0.0 0.0 0.0 
0.0 0.0 0.0 
0.0 0.0 0.0 
0.0 0.0 0.0 
0.0 0.0 0.0 
0.0 0.0 0.0 
0.0 0.0 0.0 
0.0 0.0 0.0 
0.0 0.0 0.0 
0.0 0.0 0.0 
0.0 0.0 0.0 
0.0 0.0 0.0 
0.0 0.0 0.0 
0.0 0.0 0.0 
0.0 0.0 0.0 
0.0 0.0 0.0 
0.0 0.0 0.0 
0.0 0.0 0.0 
0.0 0.0 0.0 
0.0 0.0 0.0 
0.0 0.0 0.0 
0.0 0.0 0.0 
0.0 0.0 0.0 
0.0 0.0 0.0 
0.0 0.0 0.0 
0.0 0.0 0.0 
0.0 0.0 0.0 
0.0 0.0 0.0 
0.0 0.0 0.0 
0.0 0.0 0.0 
0.0 0.0 0.0 
0.0 0.0 0.0 
0.0 0.0 0.0 
0.0 0.0 0.0 
0.0 0.0 0.0 
0.0 0.0 0.0 
0.0 0.0 0.0 
0.0 0.0 0.0 
0.0 0.0 0.0 
0.0 0.0 0.0 
0.0 0.0 0.0 
0.0 0.0 0.0 
0.0 0.0 0.0 
0.0 0.0 0.0 
0.0 0.0 0.0 
0.0 0.0 0.0 
0.0 0.0 0.0 
0.0 0.0 0.0 
0.0 0.0 0.0 
0.0 0.0 0.0 
0.0 0.0 0.0 
0.0 0.0 0.0 
0.0 0.0 0.0 
0.0 0.0 0.0 
0.0 0.0 0.0 
0.0 0.0 0.0 
0.0 0.0 0.0 
0.0 0.0 0.0 
0.0 0.0 0.0 
0.0 0.0 0.0 
0.0 0.0 0.0 
0.0 0.0 0.0 
0.0 0.0 0.0 
0.0 0.0 0.0 
0.0 0.0 0.0 
0.0 0.0 0.0 
0.0 0.0 0.0 
0.0 0.0 0.0 
0.0 0.0 0.0 
0.0 0.0 0.0 
0.0 0.0 0.0 
0.0 0.0 0.0 
0.0 0.0 0.0 
0.0 0.0 0.0 
0.0 0.0 0.0 
0.0 0.0 0.0 
0.0 0.0 0.0 
0.0 0.0 0.0 
0.0 0.0 0.0 
0.0 0.0 0.0 
0.0 0.0 0.0 
0.0 0.0 0.0 
0.0 0.0 0.0 
0.0 0.0 0.0 
0.0 0.0 0.0 
0.0 0.0 0.0 
0.0 0.0 0.0 
0.0 0.0 0.0 
0.0 0.0 0.0 
0.0 0.0 0.0 
0.0 0.0 0.0 
0.0 0.0 0.0 
0.0 0.0 0.0 
0.0 0.0 0.0 
0.0 0.0 0.0 
0.0 0.0 0.0 
0.0 0.0 0.0 
0.0 0.0 0.0 
0.0 0.0 0.0 
0.0 0.0 0.0 
0.0 0.0 0.0 
0.0 0.0 0.0 
0.0 0.0 0.0 
0.0 0.0 0.0 
0.0 0.0 0.0 
0.0 0.0 0.0 
0.0 0.0 0.0 
0.0 0.0 0.0 
0.0 0.0 0.0 
0.0 0.0 0.0 
0.0 0.0 0.0 
0.0 0.0 0.0 
0.0 0.0 0.0 
0.0 0.0 0.0 
0.0 0.0 0.0 
0.0 0.0 0.0 
0.0 0.0 0.0 
0.0 0.0 0.0 
0.0 0.0 0.0 
0.0 0.0 0.0 
0.0 0.0 0.0 
0.0 0.0 0.0 
0.0 0.0 0.0 
0.0 0.0 0.0 
0.0 0.0 0.0 
0.0 0.0 0.0 
0.0 0.0 0.0 
0.0 0.0 0.0 
0.0 0.0 0.0 
0.0 0.0 0.0 
0.0 0.0 0.0 
0.0 0.0 0.0 
0.0 0.0 0.0 
0.0 0.0 0.0 
0.0 0.0 0.0 
0.0 0.0 0.0 
0.0 0.0 0.0 
0.0 0.0 0.0 
0.0 0.0 0.0 
0.0 0.0 0.0 
0.0 0.0 0.0 
0.0 0.0 0.0 
0.0 0.0 0.0 
0.0 0.0 0.0 
0.0 0.0 0.0 
0.0 0.0 0.0 
0.0 0.0 0.0 
0.0 0.0 0.0 
0.0 0.0 0.0 
0.0 0.0 0.0 
0.0 0.0 0.0 
0.0 0.0 0.0 
0.0 0.0 0.0 
0.0 0.0 0.0 
0.0 0.0 0.0 
0.0 0.0 0.0 
0.0 0.0 0.0 
0.0 0.0 0.0 
0.0 0.0 0.0 
0.0 0.0 0.0 
0.0 0.0 0.0 
0.0 0.0 0.0 
0.0 0.0 0.0 
0.0 0.0 0.0 
0.0 0.0 0.0 
0.0 0.0 0.0 
0.0 0.0 0.0 
0.0 0.0 0.0 
0.0 0.0 0.0 
0.0 0.0 0.0 
0.0 0.0 0.0 
0.0 0.0 0.0 
0.0 0.0 0.0 
0.0 0.0 0.0 
0.0 0.0 0.0 
0.0 0.0 0.0 
0.0 0.0 0.0 
0.0 0.0 0.0 
0.0 0.0 0.0 
0.0 0.0 0.0 
0.0 0.0 0.0 
0.0 0.0 0.0 
0.0 0.0 0.0 
0.0 0.0 0.0 
0.0 0.0 0.0 
0.0 0.0 0.0 
0.0 0.0 0.0 
0.0 0.0 0.0 
0.0 0.0 0.0 
0.0 0.0 0.0 
0.0 0.0 0.0 
0.0 0.0 0.0 
0.0 0.0 0.0 
0.0 0.0 0.0 
0.0 0.0 0.0 
0.0 0.0 0.0 
0.0 0.0 0.0 
0.0 0.0 0.0 
0.0 0.0 0.0 
0.0 0.0 0.0 
0.0 0.0 0.0 
0.0 0.0 0.0 
0.0 0.0 0.0 
0.0 0.0 0.0 
0.0 0.0 0.0 
0.0 0.0 0.0 
0.0 0.0 0.0 
0.0 0.0 0.0 
0.0 0.0 0.0 
0.0 0.0 0.0 
0.0 0.0 0.0 
0.0 0.0 0.0 
0.0 0.0 0.0 
0.0 0.0 0.0 
0.0 0.0 0.0 
0.0 0.0 0.0 
0.0 0.0 0.0 
0.0 0.0 0.0 
0.0 0.0 0.0 
0.0 0.0 0.0 
0.0 0.0 0.0 
0.0 0.0 0.0 
0.0 0.0 0.0 
0.0 0.0 0.0 
0.0 0.0 0.0 
0.0 0.0 0.0 
0.0 0.0 0.0 
0.0 0.0 0.0 
0.0 0.0 0.0 
0.0 0.0 0.0 
0.0 0.0 0.0 
0.0 0.0 0.0 
0.0 0.0 0.0 
0.0 0.0 0.0 
0.0 0.0 0.0 
0.0 0.0 0.0 
0.0 0.0 0.0 
0.0 0.0 0.0 
0.0 0.0 0.0 
0.0 0.0 0.0 
0.0 0.0 0.0 
0.0 0.0 0.0 
0.0 0.0 0.0 
0.0 0.0 0.0 
0.0 0.0 0.0 
0.0 0.0 0.0 
0.0 0.0 0.0 
0.0 0.0 0.0 
0.0 0.0 0.0 
0.0 0.0 0.0 
0.0 0.0 0.0 
0.0 0.0 0.0 
0.0 0.0 0.0 
0.0 0.0 0.0 
0.0 0.0 0.0 
0.0 0.0 0.0 
0.0 0.0 0.0 
0.0 0.0 0.0 
0.0 0.0 0.0 
0.0 0.0 0.0 
0.0 0.0 0.0 
0.0 0.0 0.0 
0.0 0.0 0.0 
0.0 0.0 0.0 
0.0 0.0 0.0 
0.0 0.0 0.0 
0.0 0.0 0.0 
0.0 0.0 0.0 
0.0 0.0 0.0 
0.0 0.0 0.0 
0.0 0.0 0.0 
0.0 0.0 0.0 
0.0 0.0 0.0 
0.0 0.0 0.0 
0.0 0.0 0.0 
0.0 0.0 0.0 
0.0 0.0 0.0 
0.0 0.0 0.0 
0.0 0.0 0.0 
0.0 0.0 0.0 
0.0 0.0 0.0 
0.0 0.0 0.0 
0.0 0.0 0.0 
0.0 0.0 0.0 
0.0 0.0 0.0 
0.0 0.0 0.0 
0.0 0.0 0.0 
0.0 0.0 0.0 
0.0 0.0 0.0 
0.0 0.0 0.0 
0.0 0.0 0.0 
0.0 0.0 0.0 
0.0 0.0 0.0 
0.0 0.0 0.0 
0.0 0.0 0.0 
0.0 0.0 0.0 
0.0 0.0 0.0 
0.0 0.0 0.0 
0.0 0.0 0.0 
0.0 0.0 0.0 
0.0 0.0 0.0 
0.0 0.0 0.0 
0.0 0.0 0.0 
0.0 0.0 0.0 
0.0 0.0 0.0 
0.0 0.0 0.0 
0.0 0.0 0.0 
0.0 0.0 0.0 
0.0 0.0 0.0 
0.0 0.0 0.0 
0.0 0.0 0.0 
0.0 0.0 0.0 
0.0 0.0 0.0 
0.0 0.0 0.0 
0.0 0.0 0.0 
0.0 0.0 0.0 
0.0 0.0 0.0 
0.0 0.0 0.0 
0.0 0.0 0.0 
0.0 0.0 0.0 
0.0 0.0 0.0 
0.0 0.0 0.0 
0.0 0.0 0.0 
0.0 0.0 0.0 
0.0 0.0 0.0 
0.0 0.0 0.0 
0.0 0.0 0.0 
0.0 0.0 0.0 
0.0 0.0 0.0 
0.0 0.0 0.0 
0.0 0.0 0.0 
0.0 0.0 0.0 
0.0 0.0 0.0 
0.0 0.0 0.0 
0.0 0.0 0.0 
0.0 0.0 0.0 
0.0 0.0 0.0 
0.0 0.0 0.0 
0.0 0.0 0.0 
0.0 0.0 0.0 
0.0 0.0 0.0 
0.0 0.0 0.0 
0.0 0.0 0.0 
0.0 0.0 0.0 
0.0 0.0 0.0 
0.0 0.0 0.0 
0.0 0.0 0.0 
0.0 0.0 0.0 
0.0 0.0 0.0 
0.0 0.0 0.0 
0.0 0.0 0.0 
0.0 0.0 0.0 
0.0 0.0 0.0 
0.0 0.0 0.0 
0.0 0.0 0.0 
0.0 0.0 0.0 
0.0 0.0 0.0 
0.0 0.0 0.0 
0.0 0.0 0.0 
0.0 0.0 0.0 
0.0 0.0 0.0 
0.0 0.0 0.0 
0.0 0.0 0.0 
0.0 0.0 0.0 
0.0 0.0 0.0 
0.0 0.0 0.0 
0.0 0.0 0.0 
0.0 0.0 0.0 
0.0 0.0 0.0 
0.0 0.0 0.0 
0.0 0.0 0.0 
0.0 0.0 0.0 
0.0 0.0 0.0 
0.0 0.0 0.0 
0.0 0.0 0.0 
0.0 0.0 0.0 
0.0 0.0 0.0 
0.0 0.0 0.0 
0.0 0.0 0.0 
0.0 0.0 0.0 
0.0 0.0 0.0 
0.0 0.0 0.0 
0.0 0.0 0.0 
0.0 0.0 0.0 
0.0 0.0 0.0 
0.0 0.0 0.0 
0.0 0.0 0.0 
0.0 0.0 0.0 
0.0 0.0 0.0 
0.0 0.0 0.0 
0.0 0.0 0.0 
0.0 0.0 0.0 
0.0 0.0 0.0 
0.0 0.0 0.0 
0.0 0.0 0.0 
0.0 0.0 0.0 
0.0 0.0 0.0 
0.0 0.0 0.0 
0.0 0.0 0.0 
0.0 0.0 0.0 
0.0 0.0 0.0 
0.0 0.0 0.0 
0.0 0.0 0.0 
0.0 0.0 0.0 
0.0 0.0 0.0 
0.0 0.0 0.0 
0.0 0.0 0.0 
0.0 0.0 0.0 
0.0 0.0 0.0 
0.0 0.0 0.0 
0.0 0.0 0.0 
0.0 0.0 0.0 
0.0 0.0 0.0 
0.0 0.0 0.0 
0.0 0.0 0.0 
0.0 0.0 0.0 
0.0 0.0 0.0 
0.0 0.0 0.0 
0.0 0.0 0.0 
0.0 0.0 0.0 
0.0 0.0 0.0 
0.0 0.0 0.0 
0.0 0.0 0.0 
0.0 0.0 0.0 
0.0 0.0 0.0 
0.0 0.0 0.0 
0.0 0.0 0.0 
0.0 0.0 0.0 
0.0 0.0 0.0 
0.0 0.0 0.0 
0.0 0.0 0.0 
0.0 0.0 0.0 
0.0 0.0 0.0 
0.0 0.0 0.0 
0.0 0.0 0.0 
0.0 0.0 0.0 
0.0 0.0 0.0 
0.0 0.0 0.0 
0.0 0.0 0.0 
0.0 0.0 0.0 
0.0 0.0 0.0 
0.0 0.0 0.0 
0.0 0.0 0.0 
0.0 0.0 0.0 
0.0 0.0 0.0 
0.0 0.0 0.0 
0.0 0.0 0.0 
0.0 0.0 0.0 
0.0 0.0 0.0 
0.0 0.0 0.0 
0.0 0.0 0.0 
0.0 0.0 0.0 
0.0 0.0 0.0 
0.0 0.0 0.0 
0.0 0.0 0.0 
0.0 0.0 0.0 
0.0 0.0 0.0 
0.0 0.0 0.0 
0.0 0.0 0.0 
0.0 0.0 0.0 
0.0 0.0 0.0 
0.0 0.0 0.0 
0.0 0.0 0.0 
0.0 0.0 0.0 
0.0 0.0 0.0 
0.0 0.0 0.0 
0.0 0.0 0.0 
0.0 0.0 0.0 
0.0 0.0 0.0 
0.0 0.0 0.0 
0.0 0.0 0.0 
0.0 0.0 0.0 
0.0 0.0 0.0 
0.0 0.0 0.0 
0.0 0.0 0.0 
0.0 0.0 0.0 
0.0 0.0 0.0 
0.0 0.0 0.0 
0.0 0.0 0.0 
0.0 0.0 0.0 
0.0 0.0 0.0 
0.0 0.0 0.0 
0.0 0.0 0.0 
0.0 0.0 0.0 
0.0 0.0 0.0 
0.0 0.0 0.0 
0.0 0.0 0.0 
0.0 0.0 0.0 
0.0 0.0 0.0 
0.0 0.0 0.0 
0.0 0.0 0.0 
0.0 0.0 0.0 
0.0 0.0 0.0 
0.0 0.0 0.0 
0.0 0.0 0.0 
0.0 0.0 0.0 
0.0 0.0 0.0 
0.0 0.0 0.0 
0.0 0.0 0.0 
0.0 0.0 0.0 
0.0 0.0 0.0 
0.0 0.0 0.0 
0.0 0.0 0.0 
0.0 0.0 0.0 
0.0 0.0 0.0 
0.0 0.0 0.0 
0.0 0.0 0.0 
0.0 0.0 0.0 
0.0 0.0 0.0 
0.0 0.0 0.0 
0.0 0.0 0.0 
0.0 0.0 0.0 
0.0 0.0 0.0 
0.0 0.0 0.0 
0.0 0.0 0.0 
0.0 0.0 0.0 
0.0 0.0 0.0 
0.0 0.0 0.0 
0.0 0.0 0.0 
0.0 0.0 0.0 
0.0 0.0 0.0 
0.0 0.0 0.0 
0.0 0.0 0.0 
0.0 0.0 0.0 
0.0 0.0 0.0 
0.0 0.0 0.0 
0.0 0.0 0.0 
0.0 0.0 0.0 
0.0 0.0 0.0 
0.0 0.0 0.0 
0.0 0.0 0.0 
0.0 0.0 0.0 
0.0 0.0 0.0 
0.0 0.0 0.0 
0.0 0.0 0.0 
0.0 0.0 0.0 
0.0 0.0 0.0 
0.0 0.0 0.0 
0.0 0.0 0.0 
0.0 0.0 0.0 
0.0 0.0 0.0 
0.0 0.0 0.0 
0.0 0.0 0.0 
0.0 0.0 0.0 
0.0 0.0 0.0 
0.0 0.0 0.0 
0.0 0.0 0.0 
0.0 0.0 0.0 
0.0 0.0 0.0 
0.0 0.0 0.0 
0.0 0.0 0.0 
0.0 0.0 0.0 
0.0 0.0 0.0 
0.0 0.0 0.0 
0.0 0.0 0.0 
0.0 0.0 0.0 
0.0 0.0 0.0 
0.0 0.0 0.0 
0.0 0.0 0.0 
0.0 0.0 0.0 
0.0 0.0 0.0 
0.0 0.0 0.0 
0.0 0.0 0.0 
0.0 0.0 0.0 
0.0 0.0 0.0 
0.0 0.0 0.0 
0.0 0.0 0.0 
0.0 0.0 0.0 
0.0 0.0 0.0 
0.0 0.0 0.0 
0.0 0.0 0.0 
0.0 0.0 0.0 
0.0 0.0 0.0 
0.0 0.0 0.0 
0.0 0.0 0.0 
0.0 0.0 0.0 
0.0 0.0 0.0 
0.0 0.0 0.0 
0.0 0.0 0.0 
0.0 0.0 0.0 
0.0 0.0 0.0 
0.0 0.0 0.0 
0.0 0.0 0.0 
0.0 0.0 0.0 
0.0 0.0 0.0 
0.0 0.0 0.0 
0.0 0.0 0.0 
0.0 0.0 0.0 
0.0 0.0 0.0 
0.0 0.0 0.0 
0.0 0.0 0.0 
0.0 0.0 0.0 
0.0 0.0 0.0 
0.0 0.0 0.0 
0.0 0.0 0.0 
0.0 0.0 0.0 
0.0 0.0 0.0 
0.0 0.0 0.0 
0.0 0.0 0.0 
0.0 0.0 0.0 
0.0 0.0 0.0 
0.0 0.0 0.0 
0.0 0.0 0.0 
0.0 0.0 0.0 
0.0 0.0 0.0 
0.0 0.0 0.0 
0.0 0.0 0.0 
0.0 0.0 0.0 
0.0 0.0 0.0 
0.0 0.0 0.0 
0.0 0.0 0.0 
0.0 0.0 0.0 
0.0 0.0 0.0 
0.0 0.0 0.0 
0.0 0.0 0.0 
0.0 0.0 0.0 
0.0 0.0 0.0 
0.0 0.0 0.0 
0.0 0.0 0.0 
0.0 0.0 0.0 
0.0 0.0 0.0 
0.0 0.0 0.0 
0.0 0.0 0.0 
0.0 0.0 0.0 
0.0 0.0 0.0 
0.0 0.0 0.0 
0.0 0.0 0.0 
0.0 0.0 0.0 
0.0 0.0 0.0 
0.0 0.0 0.0 
0.0 0.0 0.0 
0.0 0.0 0.0 
0.0 0.0 0.0 
0.0 0.0 0.0 
0.0 0.0 0.0 
0.0 0.0 0.0 
0.0 0.0 0.0 
0.0 0.0 0.0 
0.0 0.0 0.0 
0.0 0.0 0.0 
0.0 0.0 0.0 
0.0 0.0 0.0 
0.0 0.0 0.0 
0.0 0.0 0.0 
0.0 0.0 0.0 
0.0 0.0 0.0 
0.0 0.0 0.0 
0.0 0.0 0.0 
0.0 0.0 0.0 
0.0 0.0 0.0 
0.0 0.0 0.0 
0.0 0.0 0.0 
0.0 0.0 0.0 
0.0 0.0 0.0 
0.0 0.0 0.0 
0.0 0.0 0.0 
0.0 0.0 0.0 
0.0 0.0 0.0 
0.0 0.0 0.0 
0.0 0.0 0.0 
0.0 0.0 0.0 
0.0 0.0 0.0 
0.0 0.0 0.0 
0.0 0.0 0.0 
0.0 0.0 0.0 
0.0 0.0 0.0 
0.0 0.0 0.0 
0.0 0.0 0.0 
0.0 0.0 0.0 
0.0 0.0 0.0 
0.0 0.0 0.0 
0.0 0.0 0.0 
0.0 0.0 0.0 
0.0 0.0 0.0 
0.0 0.0 0.0 
0.0 0.0 0.0 
0.0 0.0 0.0 
0.0 0.0 0.0 
0.0 0.0 0.0 
0.0 0.0 0.0 
0.0 0.0 0.0 
0.0 0.0 0.0 
0.0 0.0 0.0 
0.0 0.0 0.0 
0.0 0.0 0.0 
0.0 0.0 0.0 
0.0 0.0 0.0 
0.0 0.0 0.0 
0.0 0.0 0.0 
0.0 0.0 0.0 
0.0 0.0 0.0 
0.0 0.0 0.0 
0.0 0.0 0.0 
0.0 0.0 0.0 
0.0 0.0 0.0 
0.0 0.0 0.0 
0.0 0.0 0.0 
0.0 0.0 0.0 
0.0 0.0 0.0 
0.0 0.0 0.0 
0.0 0.0 0.0 
0.0 0.0 0.0 
0.0 0.0 0.0 
0.0 0.0 0.0 
0.0 0.0 0.0 
0.0 0.0 0.0 
0.0 0.0 0.0 
0.0 0.0 0.0 
0.0 0.0 0.0 
0.0 0.0 0.0 
0.0 0.0 0.0 
0.0 0.0 0.0 
0.0 0.0 0.0 
0.0 0.0 0.0 
0.0 0.0 0.0 
0.0 0.0 0.0 
0.0 0.0 0.0 
0.0 0.0 0.0 
0.0 0.0 0.0 
0.0 0.0 0.0 
0.0 0.0 0.0 
0.0 0.0 0.0 
0.0 0.0 0.0 
0.0 0.0 0.0 
0.0 0.0 0.0 
0.0 0.0 0.0 
0.0 0.0 0.0 
0.0 0.0 0.0 
0.0 0.0 0.0 
0.0 0.0 0.0 
0.0 0.0 0.0 
0.0 0.0 0.0 
0.0 0.0 0.0 
0.0 0.0 0.0 
0.0 0.0 0.0 
0.0 0.0 0.0 
0.0 0.0 0.0 
0.0 0.0 0.0 
0.0 0.0 0.0 
0.0 0.0 0.0 
0.0 0.0 0.0 
0.0 0.0 0.0 
0.0 0.0 0.0 
0.0 0.0 0.0 
0.0 0.0 0.0 
0.0 0.0 0.0 
0.0 0.0 0.0 
0.0 0.0 0.0 
0.0 0.0 0.0 
0.0 0.0 0.0 
0.0 0.0 0.0 
0.0 0.0 0.0 
0.0 0.0 0.0 
0.0 0.0 0.0 
0.0 0.0 0.0 

VECTORS node_materi_velocity float
0.0 -1.943695147156e-01 0.0 
0.0 -1.457272545190e-01 0.0 
0.0 0.0 0.0 
0.0 0.0 0.0 
0.0 -1.938597691655e-01 0.0 
0.0 -1.923849768052e-01 0.0 
0.0 -1.899586767714e-01 0.0 
0.0 -1.865746036277e-01 0.0 
0.0 -1.821936958200e-01 0.0 
0.0 -1.768449110530e-01 0.0 
0.0 -1.705321965591e-01 0.0 
0.0 -1.632466618414e-01 0.0 
0.0 -1.549943192773e-01 0.0 
0.0 -1.457696752096e-01 0.0 
0.0 -1.355569550139e-01 0.0 
0.0 -1.243616289587e-01 0.0 
0.0 -1.121993932590e-01 0.0 
0.0 -9.911358138508e-02 0.0 
0.0 -8.502895336378e-02 0.0 
0.0 -6.996823078872e-02 0.0 
0.0 -5.393871902515e-02 0.0 
0.0 -3.692679632968e-02 0.0 
0.0 -1.893215841854e-02 0.0 
0.0 0.0 0.0 
0.0 0.0 0.0 
0.0 0.0 0.0 
0.0 0.0 0.0 
0.0 0.0 0.0 
0.0 0.0 0.0 
0.0 0.0 0.0 
0.0 0.0 0.0 
0.0 0.0 0.0 
0.0 0.0 0.0 
0.0 0.0 0.0 
0.0 0.0 0.0 
0.0 0.0 0.0 
0.0 0.0 0.0 
0.0 0.0 0.0 
0.0 0.0 0.0 
0.0 0.0 0.0 
0.0 0.0 0.0 
0.0 0.0 0.0 
0.0 0.0 0.0 
0.0 0.0 0.0 
0.0 0.0 0.0 
0.0 0.0 0.0 
0.0 0.0 0.0 
0.0 0.0 0.0 
0.0 0.0 0.0 
0.0 0.0 0.0 
0.0 0.0 0.0 
0.0 0.0 0.0 
0.0 0.0 0.0 
0.0 0.0 0.0 
0.0 0.0 0.0 
0.0 0.0 0.0 
0.0 0.0 0.0 
0.0 0.0 0.0 
0.0 0.0 0.0 
0.0 0.0 0.0 
0.0 0.0 0.0 
0.0 0.0 0.0 
0.0 0.0 0.0 
0.0 0.0 0.0 
0.0 0.0 0.0 
0.0 0.0 0.0 
0.0 0.0 0.0 
0.0 0.0 0.0 
0.0 0.0 0.0 
0.0 0.0 0.0 
0.0 0.0 0.0 
0.0 0.0 0.0 
0.0 -1.355229180456e-01 0.0 
0.0 -1.243518830859e-01 0.0 
0.0 -1.121978959670e-01 0.0 
0.0 -9.908903396050e-02 0.0 
0.0 -8.499544130559e-02 0.0 
0.0 -6.993796711901e-02 0.0 
0.0 -5.390906181888e-02 0.0 
0.0 -3.690698523921e-02 0.0 
0.0 -1.893557998302e-02 0.0 
-6.833357669713e-07 -1.943530940974e-01 0.0 
0.0 -1.942938235813e-01 0.0 
1.750362478376e-05 -1.457694657401e-01 0.0 
-6.335773646124e-06 -1.938432226854e-01 0.0 
-7.138101290667e-07 -1.923910233209e-01 0.0 
6.525353341713e-06 -1.899682974725e-01 0.0 
1.267070605358e-05 -1.865813816141e-01 0.0 
2.027932769077e-05 -1.822032493385e-01 0.0 
2.650672219131e-05 -1.768554504160e-01 0.0 
2.601476259307e-05 -1.705391541487e-01 0.0 
2.625982441651e-05 -1.632517271083e-01 0.0 
2.857232938116e-05 -1.549910057931e-01 0.0 
0.0 -1.938523257938e-01 0.0 
0.0 -1.923518258632e-01 0.0 
0.0 -1.899528437599e-01 0.0 
0.0 -1.865124930340e-01 0.0 
0.0 -1.821731322640e-01 0.0 
0.0 -1.767915221764e-01 0.0 
0.0 -1.705104079614e-01 0.0 
0.0 -1.631866716772e-01 0.0 
0.0 -1.549698675590e-01 0.0 
-1.757864982261e-05 -1.457294813370e-01 0.0 
-7.135054151386e-06 -1.457349028090e-01 0.0 
-9.650726524556e-06 -1.457401758426e-01 0.0 
-1.172205932923e-05 -1.457291444822e-01 0.0 
-5.351663229207e-06 -1.457439041262e-01 0.0 
-2.520312504521e-06 -1.457340209012e-01 0.0 
-1.757478936224e-06 -1.457383454205e-01 0.0 
1.572363479553e-05 -1.457335156638e-01 0.0 
1.044993712929e-05 -1.457536648359e-01 0.0 
4.944048367956e-06 -1.457458134042e-01 0.0 
5.173992964384e-06 -1.457431030008e-01 0.0 
5.677206547650e-06 -1.457559523797e-01 0.0 
1.046222586246e-05 -1.457606002850e-01 0.0 
1.626101547194e-05 -1.457565918138e-01 0.0 
4.606276933075e-06 -1.943414597679e-01 0.0 
6.584844251169e-07 -1.943385082340e-01 0.0 
-4.624050100148e-06 -1.943386523612e-01 0.0 
2.477752197649e-05 -1.943380788831e-01 0.0 
2.458708520899e-05 -1.943542047835e-01 0.0 
1.433163858745e-05 -1.943474017305e-01 0.0 
4.133072873098e-06 -1.943315969550e-01 0.0 
-6.445611398287e-07 -1.943303377633e-01 0.0 
-1.365117030507e-06 -1.943285945374e-01 0.0 
-2.086784971017e-06 -1.943346836633e-01 0.0 
6.080456833254e-06 -1.943391401297e-01 0.0 
1.144595594820e-05 -1.943390524715e-01 0.0 
-2.131728644298e-06 -1.943199490951e-01 0.0 
8.632007329657e-06 -1.943246555144e-01 0.0 
1.615402700705e-05 -1.943376097534e-01 0.0 
8.593972585477e-06 -1.943382272804e-01 0.0 
-7.868071957820e-06 -1.943393050203e-01 0.0 
-2.291179569990e-05 -1.943563797662e-01 0.0 
-1.758995557582e-05 -1.943224158052e-01 0.0 
-5.175579598532e-05 -1.942661866185e-01 0.0 
-8.725950958931e-05 -1.943293897515e-01 0.0 
-6.076431467508e-05 -1.943036521971e-01 0.0 
-6.263302757430e-05 -1.943247113844e-01 0.0 
-5.273448971625e-05 -1.943216314355e-01 0.0 
-5.122595100522e-05 -1.943283469483e-01 0.0 
-4.695140747831e-05 -1.943290407028e-01 0.0 
-4.449509844600e-05 -1.943307461482e-01 0.0 
-4.051274596382e-05 -1.943308079767e-01 0.0 
-3.682516911571e-05 -1.943318004888e-01 0.0 
-3.314077593800e-05 -1.943332328611e-01 0.0 
-3.010818887127e-05 -1.943352504707e-01 0.0 
-2.768124520193e-05 -1.943373636549e-01 0.0 
-2.593341103432e-05 -1.943392895811e-01 0.0 
-2.474461457206e-05 -1.943407090405e-01 0.0 
-2.397306932128e-05 -1.943414069250e-01 0.0 
-2.341980682834e-05 -1.943412494193e-01 0.0 
-2.288394536870e-05 -1.943402008828e-01 0.0 
-2.217260370163e-05 -1.943383083524e-01 0.0 
-2.112484047487e-05 -1.943356870502e-01 0.0 
-1.961745215463e-05 -1.943324879562e-01 0.0 
-1.754957845436e-05 -1.943288601245e-01 0.0 
-1.480157404063e-05 -1.943249273931e-01 0.0 
-1.116967799327e-05 -1.943207937560e-01 0.0 
-6.261471868900e-06 -1.943165916109e-01 0.0 
6.809527120440e-07 -1.943126118720e-01 0.0 
1.109060999677e-05 -1.943096203569e-01 0.0 
2.748079622109e-05 -1.943103586296e-01 0.0 
4.784776408377e-05 -1.943511482213e-01 0.0 
4.426227064974e-06 -1.937810585013e-01 0.0 
6.809585066883e-06 -1.938189301155e-01 0.0 
3.711175696683e-06 -1.938224086517e-01 0.0 
-5.819457166404e-07 -1.938264621022e-01 0.0 
-4.726871902422e-06 -1.938310545036e-01 0.0 
-8.414464324046e-06 -1.938356514403e-01 0.0 
-1.159937771272e-05 -1.938400641271e-01 0.0 
-1.430921101810e-05 -1.938442221601e-01 0.0 
-1.658809071292e-05 -1.938480603033e-01 0.0 
-1.848429000413e-05 -1.938514772995e-01 0.0 
-2.005452659008e-05 -1.938543317461e-01 0.0 
-2.137352133608e-05 -1.938564628401e-01 0.0 
-2.254337510501e-05 -1.938577343885e-01 0.0 
-2.369065348123e-05 -1.938580728780e-01 0.0 
-2.495268227451e-05 -1.938574962310e-01 0.0 
-2.645535595202e-05 -1.938560987471e-01 0.0 
-2.831367481282e-05 -1.938541106248e-01 0.0 
-3.058562321047e-05 -1.938517622268e-01 0.0 
-3.333316603672e-05 -1.938495305377e-01 0.0 
-3.644673063486e-05 -1.938474730105e-01 0.0 
-4.008946188384e-05 -1.938465919102e-01 0.0 
-4.363255513471e-05 -1.938455254805e-01 0.0 
-4.787027271785e-05 -1.938465512154e-01 0.0 
-5.024075680262e-05 -1.938425585614e-01 0.0 
-5.583423199146e-05 -1.938439178918e-01 0.0 
-5.581215882264e-05 -1.938307900298e-01 0.0 
-6.937199914261e-05 -1.938439158668e-01 0.0 
-4.189172077580e-05 -1.938122139202e-01 0.0 
-3.751719931987e-05 -1.923589682209e-01 0.0 
-6.128285604790e-05 -1.923877922275e-01 0.0 
-5.023780705336e-05 -1.923771890848e-01 0.0 
-5.173398955950e-05 -1.923863137846e-01 0.0 
-4.514344666876e-05 -1.923825479056e-01 0.0 
-4.220598870687e-05 -1.923842613021e-01 0.0 
-3.774996898571e-05 -1.923846682021e-01 0.0 
-3.475289731174e-05 -1.923870249786e-01 0.0 
-3.170823630424e-05 -1.923894223813e-01 0.0 
-2.926072086436e-05 -1.923921283572e-01 0.0 
-2.707007642787e-05 -1.923945049201e-01 0.0 
-2.523687042848e-05 -1.923962986039e-01 0.0 
-2.360309346635e-05 -1.923972156598e-01 0.0 
-2.209861420975e-05 -1.923971300786e-01 0.0 
-2.059347117500e-05 -1.923959987733e-01 0.0 
-1.898380537121e-05 -1.923938960236e-01 0.0 
-1.718943254024e-05 -1.923909878054e-01 0.0 
-1.517619298200e-05 -1.923874763093e-01 0.0 
-1.294236939514e-05 -1.923835434446e-01 0.0 
-1.051764088728e-05 -1.923793340804e-01 0.0 
-7.974020634107e-06 -1.923749666605e-01 0.0 
-5.449744986404e-06 -1.923705845402e-01 0.0 
-3.190411117311e-06 -1.923664861278e-01 0.0 
-1.609440016621e-06 -1.923635070815e-01 0.0 
-1.314861055031e-06 -1.923653694191e-01 0.0 
-2.555934832716e-06 -1.924114024064e-01 0.0 
-3.022563565903e-05 -1.899405805870e-01 0.0 
-5.770631807609e-05 -1.899703287193e-01 0.0 
-4.514200251843e-05 -1.899495918790e-01 0.0 
-4.486023066974e-05 -1.899583017885e-01 0.0 
-3.889031204946e-05 -1.899540152581e-01 0.0 
-3.650776040185e-05 -1.899585170342e-01 0.0 
-3.314903274164e-05 -1.899598604139e-01 0.0 
-3.065040041318e-05 -1.899633187354e-01 0.0 
-2.818568443435e-05 -1.899659074145e-01 0.0 
-2.612723322995e-05 -1.899685008035e-01 0.0 
-2.426008584255e-05 -1.899701414383e-01 0.0 
-2.259772232532e-05 -1.899709085230e-01 0.0 
-2.099826541060e-05 -1.899705516426e-01 0.0 
-1.935007355866e-05 -1.899691168356e-01 0.0 
-1.756879918989e-05 -1.899667141326e-01 0.0 
-1.564383664976e-05 -1.899635883884e-01 0.0 
-1.359575968657e-05 -1.899599712027e-01 0.0 
-1.147475368550e-05 -1.899560624358e-01 0.0 
-9.368411147496e-06 -1.899520319697e-01 0.0 
-7.417390357604e-06 -1.899480398651e-01 0.0 
-5.814223110553e-06 -1.899442780146e-01 0.0 
-4.773536804400e-06 -1.899410469114e-01 0.0 
-4.419210519006e-06 -1.899387745134e-01 0.0 
-4.308459941181e-06 -1.899357271965e-01 0.0 
-2.468060582792e-06 -1.898898547996e-01 0.0 
-3.047982384414e-06 -1.865753757584e-01 0.0 
-4.255867297112e-06 -1.865366455870e-01 0.0 
-4.726861306217e-06 -1.865360926289e-01 0.0 
-5.201375865241e-06 -1.865381729480e-01 0.0 
-6.053541208593e-06 -1.865410313575e-01 0.0 
-7.369689732670e-06 -1.865443937113e-01 0.0 
-9.071308294345e-06 -1.865481104306e-01 0.0 
-1.100382602241e-05 -1.865520230704e-01 0.0 
-1.303706889641e-05 -1.865559339045e-01 0.0 
-1.507458457998e-05 -1.865596274027e-01 0.0 
-1.705594701575e-05 -1.865628462679e-01 0.0 
-1.892196212876e-05 -1.865653004545e-01 0.0 
-2.060693793446e-05 -1.865666337332e-01 0.0 
-2.229296603947e-05 -1.865666740624e-01 0.0 
-2.403615190967e-05 -1.865653793835e-01 0.0 
-2.627740854878e-05 -1.865631971313e-01 0.0 
-2.831560749414e-05 -1.865598707812e-01 0.0 
-3.148902482167e-05 -1.865571112869e-01 0.0 
-3.299016028284e-05 -1.865525867382e-01 0.0 
-3.796012847501e-05 -1.865531223395e-01 0.0 
-3.597466616877e-05 -1.865436281133e-01 0.0 
-4.787382820681e-05 -1.865593942597e-01 0.0 
-2.289144086136e-05 -1.865364008524e-01 0.0 
-1.301212390645e-05 -1.821607138116e-01 0.0 
-4.079496959496e-05 -1.821917117700e-01 0.0 
-3.201315381109e-05 -1.821755215307e-01 0.0 
-3.374280852869e-05 -1.821872961378e-01 0.0 
-2.942016652373e-05 -1.821860617901e-01 0.0 
-2.761642362616e-05 -1.821921752929e-01 0.0 
-2.464667921773e-05 -1.821941208428e-01 0.0 
-2.272066042332e-05 -1.821971104002e-01 0.0 
-2.098595676676e-05 -1.821979730054e-01 0.0 
-1.940951763346e-05 -1.821976219972e-01 0.0 
-1.750350620582e-05 -1.821956023183e-01 0.0 
-1.548438956579e-05 -1.821927336796e-01 0.0 
-1.348967152175e-05 -1.821892984149e-01 0.0 
-1.154097547287e-05 -1.821855480625e-01 0.0 
-9.669610686416e-06 -1.821817617616e-01 0.0 
-7.955151913394e-06 -1.821781579118e-01 0.0 
-6.607704356825e-06 -1.821749821155e-01 0.0 
-5.718128513855e-06 -1.821722443295e-01 0.0 
-5.225856781429e-06 -1.821698394115e-01 0.0 
-4.834762583816e-06 -1.821674781706e-01 0.0 
-3.983972185588e-06 -1.821624397391e-01 0.0 
-2.097212965451e-06 -1.821122073382e-01 0.0 
-2.363623491798e-06 -1.768551734335e-01 0.0 
-3.736880134498e-06 -1.768194525516e-01 0.0 
-4.314233541378e-06 -1.768207435087e-01 0.0 
-4.604760689840e-06 -1.768230981935e-01 0.0 
-5.025780133172e-06 -1.768252359703e-01 0.0 
-5.800037512955e-06 -1.768275765928e-01 0.0 
-7.133169846520e-06 -1.768304100734e-01 0.0 
-8.775157072540e-06 -1.768340335189e-01 0.0 
-1.047222688820e-05 -1.768379699413e-01 0.0 
-1.230836099684e-05 -1.768418816520e-01 0.0 
-1.448626376127e-05 -1.768453634568e-01 0.0 
-1.687614062934e-05 -1.768483732972e-01 0.0 
-1.903287958019e-05 -1.768508044352e-01 0.0 
-2.025773871042e-05 -1.768506597470e-01 0.0 
-2.278864916786e-05 -1.768488565725e-01 0.0 
-2.465223066920e-05 -1.768437104853e-01 0.0 
-3.089346650872e-05 -1.768427847723e-01 0.0 
-2.952845130951e-05 -1.768321422472e-01 0.0 
-3.992556171908e-05 -1.768433770737e-01 0.0 
-1.394786835652e-05 -1.768182132382e-01 0.0 
-1.250150507773e-05 -1.705074504270e-01 0.0 
-3.881904789160e-05 -1.705371593304e-01 0.0 
-2.607996600958e-05 -1.705213941043e-01 0.0 
-2.463840450128e-05 -1.705362829310e-01 0.0 
-2.000701540680e-05 -1.705370106390e-01 0.0 
-1.952355333455e-05 -1.705417769206e-01 0.0 
-1.688329807562e-05 -1.705385205835e-01 0.0 
-1.400989691135e-05 -1.705351959146e-01 0.0 
-1.122408073698e-05 -1.705320941243e-01 0.0 
-9.258862578921e-06 -1.705288260166e-01 0.0 
-8.092121786989e-06 -1.705249341636e-01 0.0 
-6.477298364404e-06 -1.705207257749e-01 0.0 
-5.079331362123e-06 -1.705174107412e-01 0.0 
-4.446722107692e-06 -1.705155455447e-01 0.0 
-4.306368692135e-06 -1.705138467639e-01 0.0 
-4.310213035799e-06 -1.705120957349e-01 0.0 
-4.503733031367e-06 -1.705095381622e-01 0.0 
-3.753815169043e-06 -1.705028213368e-01 0.0 
-1.840039664343e-06 -1.704500958861e-01 0.0 
-2.847319111235e-06 -1.632493951824e-01 0.0 
-5.075607670335e-06 -1.632160980828e-01 0.0 
-4.391310359148e-06 -1.632202893754e-01 0.0 
-4.488230777220e-06 -1.632217683130e-01 0.0 
-3.565876959219e-06 -1.632234758180e-01 0.0 
-3.107560861318e-06 -1.632244784942e-01 0.0 
-2.878031980710e-06 -1.632254688650e-01 0.0 
-4.727337838140e-06 -1.632286106623e-01 0.0 
-4.471107584612e-06 -1.632350029142e-01 0.0 
-5.246064662694e-06 -1.632379997571e-01 0.0 
-8.415086142320e-06 -1.632400420927e-01 0.0 
-1.162426568399e-05 -1.632437507228e-01 0.0 
-1.510307908188e-05 -1.632479524109e-01 0.0 
-1.998146039404e-05 -1.632543487642e-01 0.0 
-1.731640016753e-05 -1.632412919467e-01 0.0 
-3.193113200653e-05 -1.632441325781e-01 0.0 
-1.017702608981e-05 -1.632164644617e-01 0.0 
-4.734611457955e-06 -1.549639886935e-01 0.0 
-2.473974911705e-05 -1.550130232019e-01 0.0 
-1.124645043743e-05 -1.549942274360e-01 0.0 
-6.920317296493e-06 -1.549917263057e-01 0.0 
-4.936973165860e-06 -1.549869904499e-01 0.0 
-9.828686322715e-07 -1.549820778495e-01 0.0 
1.309104549292e-06 -1.549840173950e-01 0.0 
-6.359917250415e-08 -1.549820166170e-01 0.0 
1.491200965059e-06 -1.549693555429e-01 0.0 
-1.111956970477e-06 -1.549717603217e-01 0.0 
-1.766789162765e-06 -1.549704988223e-01 0.0 
-5.589903030632e-06 -1.549717839067e-01 0.0 
-5.083056180306e-06 -1.549676713865e-01 0.0 
-7.414226212641e-06 -1.549695260717e-01 0.0 
-9.601089131695e-06 -1.549576077784e-01 0.0 
-3.874954214829e-08 -1.548962819005e-01 0.0 
-1.372638438013e-05 -1.942050362100e-01 0.0 
-2.350740366565e-05 -1.932449428444e-01 0.0 
-1.567203327705e-05 -1.913068056495e-01 0.0 
-9.477028812959e-06 -1.883998190177e-01 0.0 
5.927656315192e-06 -1.845140671816e-01 0.0 
1.891585902465e-05 -1.796484935775e-01 0.0 
5.867473082539e-06 -1.738232979321e-01 0.0 
4.914739071465e-06 -1.670235878892e-01 0.0 
8.788575542799e-06 -1.592484013896e-01 0.0 
5.942904354502e-06 -1.505024826754e-01 0.0 
-8.559622553746e-06 -1.915263800594e-01 0.0 
-8.878667905533e-07 -1.644580935388e-02 0.0 
-2.811159838325e-06 -1.939749372455e-01 0.0 
1.171685731128e-05 -1.940215169580e-01 0.0 
7.380236898821e-07 -1.646403846896e-02 0.0 
-3.848748661402e-06 -1.848145812966e-01 0.0 
8.423679725708e-06 -1.405886004890e-01 0.0 
2.875154260414e-06 -1.648138580655e-02 0.0 
1.096099344541e-05 -1.744444971740e-01 0.0 
-3.835500952262e-06 -1.605501706166e-02 0.0 
1.551731850368e-05 -1.601123289614e-01 0.0 
-5.833828835736e-06 -1.516755195895e-02 0.0 
2.432861693608e-05 -1.939923024219e-01 0.0 
-4.589328057058e-06 -1.630037574023e-02 0.0 
6.364372664640e-06 -1.417601017004e-01 0.0 
-6.152244085448e-06 -1.735968164243e-01 0.0 
-1.460420962346e-06 -1.084446989783e-01 0.0 
-1.399206782435e-06 -1.702391604846e-02 0.0 
4.123902130660e-06 -1.623549142020e-02 0.0 
-7.324546335688e-06 -1.627038376502e-02 0.0 
4.518544300650e-06 -1.768080776323e-02 0.0 
-2.990207102318e-06 -1.585216183766e-02 0.0 
1.008838379989e-05 -1.367669961741e-01 0.0 
1.920292923630e-05 -1.365911722159e-01 0.0 
6.910762625154e-07 -1.363441134029e-01 0.0 
-1.281746616620e-05 -9.195647256689e-02 0.0 
1.680029927468e-05 -1.647192494305e-02 0.0 
-1.204641430865e-05 -1.940166182730e-01 0.0 
6.325812821505e-06 -1.939667352429e-01 0.0 
-3.031339188183e-06 -6.330570383905e-02 0.0 
-1.250137459334e-06 -1.370253805956e-01 0.0 
-4.923227124011e-06 -1.884359206446e-01 0.0 
8.420041190879e-07 -1.872921657381e-02 0.0 
-3.112865402448e-06 -1.499748306535e-02 0.0 
7.445088292981e-07 -1.595030677297e-02 0.0 
-2.277891800354e-06 -1.743355336067e-02 0.0 
7.540556494839e-06 -1.565561381337e-02 0.0 
-5.079296137327e-07 -1.939676586397e-01 0.0 
2.195624286948e-05 -1.372214779625e-01 0.0 
-4.210371890819e-07 -1.881801904829e-02 0.0 
4.565919413809e-06 -6.273807517184e-02 0.0 
-1.012587194834e-05 -1.939664081718e-01 0.0 
-3.657110524784e-06 -1.592372087683e-01 0.0 
1.022923374651e-05 -1.325248042630e-02 0.0 
2.309439219320e-06 -1.800732524038e-01 0.0 
-3.362405270516e-06 -1.886811396683e-01 0.0 
1.229537803158e-05 -1.678158095007e-01 0.0 
1.552051235993e-05 -1.514433386513e-01 0.0 
-1.778101699782e-05 -1.934771222912e-01 0.0 
-1.328386035982e-05 -1.169508622353e-01 0.0 
-2.622114106973e-06 -1.304677067241e-02 0.0 
-1.469826404862e-05 -1.940221482672e-01 0.0 
5.935848169938e-06 -2.942055902895e-02 0.0 
2.393289376604e-05 -1.364937789930e-01 0.0 
3.850798125335e-05 -1.320807765986e-01 0.0 
2.596957846978e-05 -1.269685179600e-01 0.0 
2.329822350055e-05 -1.215226230339e-01 0.0 
3.558232139577e-05 -1.151134149018e-01 0.0 
2.320955088722e-05 -1.098158438513e-01 0.0 
2.013742179930e-05 -1.163800883101e-01 0.0 
1.730090224276e-05 -1.043521191675e-01 0.0 
1.647180572776e-05 -1.111652769518e-01 0.0 
1.382981790896e-05 -1.028509047118e-01 0.0 
1.217901166595e-05 -9.870777443405e-02 0.0 
1.245612043299e-05 -1.057610975118e-01 0.0 
8.121953525763e-06 -9.290985342508e-02 0.0 
9.360301610902e-06 -1.001581916229e-01 0.0 
1.186978440983e-05 -1.125615192624e-01 0.0 
8.680055961546e-06 -1.072098247864e-01 0.0 
1.041293407600e-05 -1.190766545878e-01 0.0 
7.660059575108e-06 -1.139661470229e-01 0.0 
5.031234275997e-06 -1.017031421541e-01 0.0 
4.712620084473e-06 -1.087023150144e-01 0.0 
6.758771069928e-06 -1.204524133295e-01 0.0 
4.166221401734e-06 -1.154267800676e-01 0.0 
5.779397963776e-06 -1.266554348201e-01 0.0 
3.908921567670e-06 -1.218404726692e-01 0.0 
4.809851260530e-06 -1.326234449322e-01 0.0 
3.588598536677e-06 -1.280044842329e-01 0.0 
2.626232229286e-06 -1.168463695783e-01 0.0 
2.676152694997e-06 -1.232338617034e-01 0.0 
3.248038933262e-06 -1.338908125391e-01 0.0 
2.550398629277e-06 -1.293496061877e-01 0.0 
2.822714784936e-06 -1.395095608129e-01 0.0 
2.380775690902e-06 -1.351905134206e-01 0.0 
1.970605416654e-06 -1.246209070517e-01 0.0 
2.177369454491e-06 -1.307025664706e-01 0.0 
2.418807005387e-06 -1.407872958344e-01 0.0 
2.000560476226e-06 -1.365227883245e-01 0.0 
2.241823910800e-06 -1.461296501760e-01 0.0 
1.385949355958e-06 -1.420709792738e-01 0.0 
9.903801819349e-07 -1.511938311132e-01 0.0 
7.632742179715e-07 -1.473719323500e-01 0.0 
4.914030407548e-07 -1.377655918458e-01 0.0 
-7.694867526845e-08 -1.432866908851e-01 0.0 
-5.056125600379e-07 -1.524335719947e-01 0.0 
-1.027886870624e-06 -1.485741063020e-01 0.0 
-8.739070165945e-07 -1.390125513838e-01 0.0 
-1.353913563435e-06 -1.445410400037e-01 0.0 
-1.138545091940e-06 -1.345566192278e-01 0.0 
-1.525450591373e-06 -1.403257573170e-01 0.0 
-1.860936413377e-06 -1.497366852255e-01 0.0 
-1.999916965429e-06 -1.457508723395e-01 0.0 
-1.775870379759e-06 -1.359107879828e-01 0.0 
-2.167510100661e-06 -1.416371125782e-01 0.0 
-2.565840305594e-06 -1.509492679081e-01 0.0 
-2.958932390182e-06 -1.470046329856e-01 0.0 
-2.484921034638e-06 -1.372897259786e-01 0.0 
-2.981104688070e-06 -1.429289785495e-01 0.0 
-3.318037520773e-06 -1.521063575543e-01 0.0 
-3.421360561107e-06 -1.482364183631e-01 0.0 
-3.162627621143e-06 -1.385653886687e-01 0.0 
-3.350634549668e-06 -1.442023750352e-01 0.0 
-3.800252453306e-06 -1.532867678229e-01 0.0 
-3.462294322137e-06 -1.494625009247e-01 0.0 
-3.285879778520e-06 -1.398968068953e-01 0.0 
-2.969718502999e-06 -1.454791719160e-01 0.0 
-2.844135633014e-06 -1.354210836873e-01 0.0 
-3.076237801035e-06 -1.545415530608e-01 0.0 
-2.200696581576e-06 -1.507659329199e-01 0.0 
-2.709105519866e-06 -1.593828361402e-01 0.0 
-1.210005499213e-06 -1.557705848237e-01 0.0 
1.522206619216e-06 -1.197062221852e-01 0.0 
-1.676017209420e-06 -1.638571792367e-01 0.0 
-3.292012607566e-06 -1.669303035378e-01 0.0 
3.564614391102e-07 -1.604759073118e-01 0.0 
1.148812463365e-07 -1.519668156247e-01 0.0 
-4.968961889982e-08 -1.680275827099e-01 0.0 
2.249739517931e-06 -1.648738327651e-01 0.0 
9.774972339341e-07 -1.718950289895e-01 0.0 
1.326155914809e-06 -1.551727973252e-01 0.0 
1.661651442801e-06 -9.601544290277e-02 0.0 
4.248927244127e-06 -1.689707672296e-01 0.0 
-7.575927005537e-07 -1.754581155125e-01 0.0 
-2.591557429741e-06 -1.779675211213e-01 0.0 
-4.306668883912e-06 -1.809913463980e-01 0.0 
1.530279765628e-05 -1.085175081289e-01 0.0 
7.443597172139e-06 -9.557752421511e-02 0.0 
8.687421252698e-06 -1.015772902549e-01 0.0 
4.841180850597e-06 -8.805797451550e-02 0.0 
6.555580877530e-06 -9.425987827487e-02 0.0 
-1.822398604776e-06 -1.787189753593e-01 0.0 
6.063616808986e-06 -8.508977980211e-02 0.0 
3.110110669518e-06 -8.159417759680e-02 0.0 
7.657935368388e-06 -1.313139032138e-01 0.0 
3.224436586908e-06 -1.436602941620e-01 0.0 
-1.040098376615e-06 -1.285093052683e-01 0.0 
4.544603106871e-06 -1.615304699619e-01 0.0 
9.783139559053e-06 -1.658653775877e-01 0.0 
5.125552055344e-06 -1.580009242678e-01 0.0 
-3.206270071494e-06 -1.293116530420e-01 0.0 
-3.148481738271e-06 -1.243998762198e-01 0.0 
-3.555216659199e-06 -1.177403380911e-01 0.0 
-3.754839954988e-06 -1.124117208187e-01 0.0 
-4.291833563610e-06 -1.052022149100e-01 0.0 
-4.545785385192e-06 -9.945672581077e-02 0.0 
-4.088020615814e-06 -1.069088673884e-01 0.0 
-5.064494720442e-06 -9.352473759146e-02 0.0 
-4.544113475558e-06 -1.012246981147e-01 0.0 
-5.012766963981e-06 -9.170666584098e-02 0.0 
-4.951631077414e-06 -9.768742298355e-02 0.0 
-5.986204566197e-06 -8.741682750198e-02 0.0 
-5.163751270236e-06 -9.535101610029e-02 0.0 
-6.824353158483e-06 -8.112064069636e-02 0.0 
-5.563276983967e-06 -8.929062408848e-02 0.0 
-4.241166500876e-06 -1.029994820026e-01 0.0 
-4.410084835389e-06 -9.717487331313e-02 0.0 
-3.569068585284e-06 -1.103499624736e-01 0.0 
-1.715562308972e-06 -1.236351472530e-01 0.0 
-1.996572467700e-06 -1.170486509741e-01 0.0 
-2.701726948987e-06 -1.117651453140e-01 0.0 
-2.957792535037e-06 -1.046409741678e-01 0.0 
-3.773282170337e-06 -9.893900980338e-02 0.0 
-4.039606534612e-06 -9.129120332933e-02 0.0 
-5.135974008214e-06 -8.515182109207e-02 0.0 
-4.093616178706e-06 -9.305898428041e-02 0.0 
5.123484874221e-06 -8.689988444007e-02 0.0 
-1.114089589648e-06 -1.572094397643e-01 0.0 
-6.812542524912e-07 -1.606660682782e-01 0.0 
-1.662804936836e-06 -1.649347592176e-01 0.0 
-1.459460414065e-06 -1.679793086129e-01 0.0 
-3.152426880736e-06 -1.717426987941e-01 0.0 
-2.978831374509e-06 -1.743979905867e-01 0.0 
-5.717530654724e-06 -1.776744342954e-01 0.0 
-5.674074918186e-06 -1.752111196928e-01 0.0 
-9.386131899569e-06 -1.806627831790e-01 0.0 
-8.083542271636e-06 -1.784071958251e-01 0.0 
-1.294375419648e-05 -1.833534030937e-01 0.0 
-9.352802621436e-06 -1.813395194271e-01 0.0 
1.985252167966e-06 -1.116814871051e-01 0.0 
-2.572357914204e-06 -9.722595040341e-02 0.0 
-2.607909323052e-06 -8.335220486329e-02 0.0 
-1.863368451255e-06 -8.953021004533e-02 0.0 
-5.569725542071e-06 -1.830865652793e-01 0.0 
-4.991632754234e-06 -8.303601208200e-02 0.0 
-5.905765506167e-06 -8.365051561206e-02 0.0 
-5.255675514813e-06 -8.999090538082e-02 0.0 
-5.657177659735e-06 -7.883337981339e-02 0.0 
-6.453987724036e-06 -1.837104741880e-01 0.0 
-4.853357657221e-06 -1.799264875997e-01 0.0 
-2.988228491895e-06 -1.768970803315e-01 0.0 
4.365135880272e-06 -8.014948439794e-02 0.0 
5.156820128410e-06 -8.660434897629e-02 0.0 
-6.974585199671e-06 -7.531141896922e-02 0.0 
-2.833184268726e-06 -1.816775554082e-01 0.0 
-6.352838770824e-06 -7.919668353750e-02 0.0 
-1.044812168097e-05 -1.852068348862e-01 0.0 
-3.181832340410e-06 -9.116386266314e-02 0.0 
-2.731202408210e-06 -7.659662843828e-02 0.0 
-3.497008535584e-06 -1.140303812025e-01 0.0 
-3.657604010080e-07 -7.512275552285e-02 0.0 
-7.139859819949e-07 -8.178570772221e-02 0.0 
-6.387957743416e-06 -1.759459139966e-01 0.0 
-7.159333348012e-06 -1.791496051220e-01 0.0 
-1.130446941195e-05 -1.839890171878e-01 0.0 
-1.234210544497e-05 -1.819020334753e-01 0.0 
-7.945905062313e-06 -1.767134700887e-01 0.0 
-9.959305301726e-06 -1.798328371711e-01 0.0 
-8.303304394316e-06 -1.845006977527e-01 0.0 
-7.661324923333e-06 -1.826548840583e-01 0.0 
-7.507210869032e-06 -1.775104228806e-01 0.0 
-5.886116864461e-06 -1.805595950598e-01 0.0 
-4.205307082733e-06 -1.851969124750e-01 0.0 
-3.315347189881e-06 -1.833097754034e-01 0.0 
-5.705225951438e-06 -6.792449532915e-02 0.0 
-1.259576770425e-05 -1.873835161097e-01 0.0 
1.242687163768e-05 -1.240095406124e-01 0.0 
-6.483263182119e-06 -6.865136582717e-02 0.0 
-5.273150143771e-06 -7.059591489880e-02 0.0 
3.783968880319e-06 -7.191364586680e-02 0.0 
3.800699341743e-06 -7.862138426563e-02 0.0 
3.306711367487e-06 -9.294661380656e-02 0.0 
3.553491484331e-06 -8.517246288084e-02 0.0 
2.917499536079e-06 -7.029616059360e-02 0.0 
4.731377759653e-06 -7.709284409917e-02 0.0 
4.257140496326e-06 -9.157483767649e-02 0.0 
6.222092585491e-06 -8.371972706586e-02 0.0 
5.041355366314e-06 -9.779794603776e-02 0.0 
6.527521464593e-06 -9.016464264958e-02 0.0 
6.681439841903e-06 -7.554711887537e-02 0.0 
7.275723856980e-06 -8.223139421397e-02 0.0 
6.099339535867e-06 -9.643510560269e-02 0.0 
8.475427690507e-06 -8.873292585093e-02 0.0 
7.500286659280e-06 -1.025149263621e-01 0.0 
1.046682156536e-05 -9.504266089104e-02 0.0 
6.676692397857e-06 -8.072959427646e-02 0.0 
-1.061059918640e-05 -1.859679699218e-01 0.0 
-4.318074685134e-06 -8.701117700951e-02 0.0 
-5.982509496108e-06 -7.232398554003e-02 0.0 
1.964740752939e-05 -1.625572949294e-01 0.0 
-8.089454620430e-06 -1.542611976697e-01 0.0 
-1.627840240821e-06 -1.491627376778e-01 0.0 
7.831528173198e-06 -1.450413951738e-01 0.0 
3.025621727016e-06 -8.734098024847e-02 0.0 
1.036057173518e-05 -7.243780174800e-02 0.0 
-4.860900736594e-06 -1.819686264052e-01 0.0 
-3.604073085461e-06 -1.792166133246e-01 0.0 
3.281558300706e-06 -6.503844451783e-02 0.0 
8.957532599015e-07 -8.496751165499e-02 0.0 
-3.716340419887e-06 -9.899505855018e-02 0.0 
2.835156419174e-06 -1.487625019654e-01 0.0 
2.811540024432e-06 -1.525321755014e-01 0.0 
2.314712609215e-06 -1.571295266207e-01 0.0 
1.821039858426e-06 -1.606983309757e-01 0.0 
3.400164923132e-06 -1.561679194961e-01 0.0 
2.392816567707e-06 -1.648359833777e-01 0.0 
-4.787399046460e-06 -1.037155916294e-01 0.0 
5.356067272545e-06 -6.706826152287e-02 0.0 
-3.921596926822e-06 -1.802965959804e-01 0.0 
-3.474948327041e-06 -1.850096264964e-01 0.0 
-1.976703344953e-06 -6.996968993740e-02 0.0 
-3.261144445648e-06 -1.007047266801e-01 0.0 
1.112337835452e-06 -1.047631064584e-01 0.0 
5.043384628470e-07 -9.916683470230e-02 0.0 
-1.180697672878e-06 -9.169885604501e-02 0.0 
-1.297790802621e-06 -8.568384908824e-02 0.0 
-3.277083808971e-06 -7.765943604713e-02 0.0 
-3.959113406352e-06 -7.120914474680e-02 0.0 
-1.033015271834e-06 -7.948853592501e-02 0.0 
1.214652793508e-06 -6.653696237035e-02 0.0 
-6.510390294654e-06 -6.454160665188e-02 0.0 
1.027656928727e-05 -1.012779379398e-01 0.0 
-1.263345516131e-06 -1.031125027289e-01 0.0 
-6.164199568141e-06 -1.749861461546e-01 0.0 
-1.618944432572e-05 -1.875727302076e-01 0.0 
4.532077286660e-06 -1.875320193108e-01 0.0 
-3.156557787957e-06 -1.842951715757e-01 0.0 
-1.769072920963e-07 -1.794510726574e-01 0.0 
-6.875357980088e-06 -5.974586513154e-02 0.0 
-5.523742603441e-06 -6.263833501074e-02 0.0 
-4.476416469766e-06 -6.936731119748e-02 0.0 
2.643228522631e-06 -1.639794778008e-01 0.0 
5.279546211717e-06 -1.596029864592e-01 0.0 
3.164535032047e-06 -5.974738277297e-02 0.0 
5.386750909342e-06 -1.075257514595e-01 0.0 
3.198053401418e-06 -1.051321046348e-01 0.0 
-2.437377619160e-09 -1.109334076894e-01 0.0 
3.777444656667e-07 -1.884442911970e-01 0.0 
9.808377653639e-06 -1.888167588766e-01 0.0 
3.214694508380e-06 -6.165865526926e-02 0.0 
-1.575591411188e-06 -1.736662420773e-01 0.0 
-2.178617540936e-06 -1.762051339951e-01 0.0 
-1.692399799829e-05 -1.888372501630e-01 0.0 
-1.515272012505e-05 -1.904996462908e-01 0.0 
1.126145685259e-05 -7.912369735988e-02 0.0 
8.804562298036e-06 -6.383780947411e-02 0.0 
3.537136477546e-06 -1.393836151165e-01 0.0 
2.520017655913e-06 -1.348342879762e-01 0.0 
-8.808917247244e-06 -6.662965023947e-02 0.0 
-2.086373894234e-07 -1.857578349440e-01 0.0 
4.944105424557e-06 -5.659871303948e-02 0.0 
-3.946072695585e-06 -9.488333617708e-02 0.0 
-2.962413162796e-06 -1.080644243521e-01 0.0 
2.710889471868e-07 -1.504279163898e-01 0.0 
-7.473870371063e-06 -1.838682893027e-01 0.0 
-1.018562978453e-05 -1.861239028848e-01 0.0 
-5.988958154690e-06 -1.714021984505e-01 0.0 
-4.168737017560e-06 -1.812372013641e-01 0.0 
1.409687222395e-06 -1.823228489118e-01 0.0 
-6.894695106590e-06 -5.053685472767e-02 0.0 
2.064580923922e-06 -5.445588961980e-02 0.0 
-2.419479543163e-06 -7.306578930339e-02 0.0 
-1.059006682374e-06 -8.750068036521e-02 0.0 
-1.276067742201e-05 -5.769707845551e-02 0.0 
-1.334895311187e-06 -1.893267476517e-01 0.0 
-4.635509381422e-06 -5.267130180917e-02 0.0 
8.012993985943e-08 -7.858420179707e-02 0.0 
-4.589833088078e-06 -5.447609584288e-02 0.0 
-2.583803276797e-06 -6.077512867678e-02 0.0 
-2.358803087389e-07 -1.702171671797e-01 0.0 
2.844269115454e-08 -1.728112512577e-01 0.0 
-3.136802172261e-06 -1.785061251197e-01 0.0 
-2.317754608300e-07 -1.753308538357e-01 0.0 
2.060812239034e-05 -1.227207015528e-01 0.0 
2.454796187484e-06 -1.664003819475e-01 0.0 
1.115247645765e-05 -1.300012630930e-01 0.0 
1.435586801062e-05 -1.345214013467e-01 0.0 
1.263933231099e-05 -1.399877993825e-01 0.0 
5.651086289995e-06 -1.515391584263e-01 0.0 
7.701992667473e-06 -1.550927071140e-01 0.0 
-1.578457966068e-07 -1.639953446680e-01 0.0 
-1.126098755804e-06 -1.221657466389e-01 0.0 
-1.756528793011e-07 -1.437428423012e-01 0.0 
-2.775813125830e-06 -1.156997400511e-01 0.0 
-3.517844427852e-06 -1.228872640208e-01 0.0 
4.576886708912e-06 -5.997280077109e-02 0.0 
2.187995120285e-06 -5.093792918503e-02 0.0 
1.985704112345e-07 -1.096858716683e-01 0.0 
-7.555281548524e-07 -1.153402521171e-01 0.0 
-3.345372334224e-06 -1.872534483712e-01 0.0 
-3.827013862511e-06 -1.887604726769e-01 0.0 
-2.535060054660e-06 -1.307611529220e-01 0.0 
-5.548434970754e-06 -6.182379112429e-02 0.0 
2.817737279288e-06 -5.624044650046e-02 0.0 
2.498601595710e-06 -4.892767265393e-02 0.0 
3.036136518153e-06 -5.797103415327e-02 0.0 
-1.167922973543e-05 -5.761537952747e-02 0.0 
-1.960443945901e-06 -1.616881131086e-01 0.0 
-2.267141151833e-06 -1.186121899999e-01 0.0 
-8.859493235075e-06 -1.892765165273e-01 0.0 
1.607336616947e-06 -1.131708073594e-01 0.0 
-7.072330828704e-06 -1.904562244917e-01 0.0 
1.337769414175e-06 -8.858170174200e-02 0.0 
-4.264276762064e-06 -6.315538666552e-02 0.0 
-7.724280659210e-06 -5.399835746241e-02 0.0 
-2.731780141325e-06 -5.069903776683e-02 0.0 
2.033260026530e-05 -1.376171113001e-01 0.0 
1.215998452022e-06 -1.078140799124e-01 0.0 
5.472096654708e-07 -1.146373597285e-01 0.0 
1.439932921191e-05 -1.440799877876e-01 0.0 
1.217813004419e-05 -1.490375129645e-01 0.0 
1.072111108056e-05 -1.451696807144e-01 0.0 
1.005156815082e-05 -1.537905680759e-01 0.0 
-4.634256276205e-06 -1.685188440998e-01 0.0 
-5.050453572888e-06 -1.723320793186e-01 0.0 
-6.831475864565e-06 -4.609712105979e-02 0.0 
-2.014606909642e-05 -4.915623558712e-02 0.0 
1.219993603835e-05 -4.578578645165e-02 0.0 
1.164387425318e-06 -5.183955092715e-02 0.0 
-4.820796748581e-07 -4.344751034715e-02 0.0 
8.606584697965e-06 -5.274458045819e-02 0.0 
2.656483750104e-06 -1.770351443401e-01 0.0 
6.201454386655e-06 -1.627321133229e-01 0.0 
-7.998546410895e-07 -4.524352998872e-02 0.0 
1.642289931584e-05 -1.389290814835e-01 0.0 
-1.098495959502e-05 -4.585399475195e-02 0.0 
-8.703531043079e-06 -5.486675217347e-02 0.0 
-1.466032795174e-05 -1.918711575734e-01 0.0 
-4.337543627407e-06 -1.908820982189e-01 0.0 
-5.308122330329e-06 -4.782746246658e-02 0.0 
-2.847719222765e-06 -1.805446253353e-01 0.0 
-5.026540821373e-07 -1.777028444586e-01 0.0 
-5.592622556344e-06 -1.831513157294e-01 0.0 
2.721486299177e-06 -2.814202906101e-02 0.0 
-6.350655413966e-08 -1.371569866014e-01 0.0 
-6.690976552007e-06 -4.677070395339e-02 0.0 
7.315572684645e-06 -1.464684660180e-01 0.0 
7.237368025794e-06 -3.949491991595e-02 0.0 
1.196194949679e-07 -1.022828348350e-01 0.0 
2.015583827803e-06 -1.537928048198e-01 0.0 
-7.134973262702e-06 -7.332672141068e-02 0.0 
2.461094652687e-06 -5.664988811041e-02 0.0 
-9.884084642345e-07 -3.803168331159e-02 0.0 
-3.809266523613e-06 -1.175382503421e-01 0.0 
-1.583478081865e-05 -1.231219256049e-01 0.0 
2.981550049501e-06 -1.121449252468e-01 0.0 
-8.215075812814e-06 -1.868144442993e-01 0.0 
-5.204847102387e-06 -1.903541898060e-01 0.0 
4.293904342752e-06 -5.828480993249e-02 0.0 
-2.461542217355e-06 -1.699039638905e-01 0.0 
3.498428701047e-06 -1.660656685850e-01 0.0 
-1.733925943182e-06 -1.840902386659e-01 0.0 
-2.974974392380e-06 -1.791332513510e-01 0.0 
2.907516012864e-07 -1.334820602489e-01 0.0 
-8.541539740089e-07 -1.380581550462e-01 0.0 
-1.913128269805e-06 -8.238394856404e-02 0.0 
-1.251823222268e-06 -7.453233109694e-02 0.0 
-2.740317921534e-07 -9.758916236701e-02 0.0 
-4.269572093866e-06 -1.024416377780e-01 0.0 
-3.062863239173e-06 -1.151147419772e-01 0.0 
-2.391280285214e-06 -1.202170630377e-01 0.0 
-2.555303423492e-06 -4.397053501342e-02 0.0 
-1.913046517915e-06 -3.296107700010e-02 0.0 
-4.147628085540e-06 -1.645334720345e-01 0.0 
-4.354360358891e-06 -1.676021452132e-01 0.0 
-3.966222306287e-06 -1.656641572672e-01 0.0 
1.022326490807e-05 -3.792688218113e-02 0.0 
-1.515796477284e-05 -3.756142576958e-02 0.0 
-1.287907837196e-05 -4.517978588399e-02 0.0 
-4.044582092779e-06 -1.914964866744e-01 0.0 
6.418419434672e-06 -1.900204640494e-01 0.0 
-1.203406683647e-05 -1.875687319568e-01 0.0 
-1.717647457609e-05 -1.894103291410e-01 0.0 
-3.039595021121e-07 -4.209817826559e-02 0.0 
4.348347710516e-06 -5.084114486734e-02 0.0 
3.992023969485e-06 -3.186667947628e-02 0.0 
-7.344443119303e-07 -1.804415132271e-01 0.0 
-2.572439719276e-06 -8.102108759056e-02 0.0 
-5.894711409153e-06 -4.183086091989e-02 0.0 
-1.728937720757e-05 -4.921291389952e-02 0.0 
-1.127618336804e-07 -3.237732255728e-02 0.0 
-3.733932123837e-06 -5.825144332697e-02 0.0 
-7.658763749495e-06 -4.224561149262e-02 0.0 
-7.614200862935e-06 -4.129192967578e-02 0.0 
-3.150333589119e-06 -1.926543346894e-01 0.0 
-5.729835292897e-06 -4.511058720151e-02 0.0 
2.369739722352e-07 -1.219956374257e-01 0.0 
-3.641330332948e-06 -1.933193253051e-01 0.0 
-7.724385143699e-06 -1.276155243479e-01 0.0 
-1.532104422982e-05 -1.208773188876e-01 0.0 
-6.330043626066e-06 -1.329769868060e-01 0.0 
7.531308210527e-06 -1.849061748009e-01 0.0 
2.176176603487e-06 -1.259626707527e-01 0.0 
4.558663903637e-06 -1.193460495684e-01 0.0 
5.148144503120e-06 -1.927303817885e-01 0.0 
-5.034133646480e-07 -2.837967394464e-02 0.0 
9.281104314302e-06 -1.925367920739e-01 0.0 
-5.203724927002e-06 -1.917238604690e-01 0.0 
-1.403871978362e-05 -3.828554003259e-02 0.0 
-1.115060528056e-05 -4.765647109327e-02 0.0 
6.678885092744e-06 -3.085333624976e-02 0.0 
-7.826177815055e-06 -4.116195586891e-02 0.0 
-1.171195704783e-05 -5.710042705971e-02 0.0 
-9.806080828506e-06 -4.999151793072e-02 0.0 
-2.787113838313e-06 -1.293131816186e-01 0.0 
-7.968197783140e-06 -3.121679056005e-02 0.0 
-7.361160058016e-06 -4.233882180480e-02 0.0 
4.260639402683e-06 -2.407885450714e-02 0.0 
1.396156264716e-05 -1.570487297383e-01 0.0 
5.991541852928e-06 -1.722060566838e-01 0.0 
1.616108186970e-05 -1.747619866419e-01 0.0 
-4.417373418284e-06 -1.800117757568e-01 0.0 
2.970957028836e-06 -3.327626100564e-02 0.0 
-1.131193354645e-05 -4.350011286541e-02 0.0 
-2.176254122774e-06 -7.168966962190e-02 0.0 
-2.054249409536e-06 -8.657963441742e-02 0.0 
-8.842373220820e-06 -1.270958286504e-01 0.0 
-4.736540741681e-07 -1.275763954864e-01 0.0 
-1.246272715494e-05 -1.167822159833e-01 0.0 
-5.562082669712e-06 -1.181502760158e-01 0.0 
4.976458667319e-06 -1.068653042872e-01 0.0 
5.848213729709e-06 -1.083454639122e-01 0.0 
-5.832694211584e-06 -9.636785671438e-02 0.0 
4.317502062600e-06 -3.218725252755e-02 0.0 
-5.552968403395e-06 -1.849951318906e-01 0.0 
1.440872236626e-05 -1.480798228327e-01 0.0 
1.299448942074e-05 -3.596043680157e-02 0.0 
1.790926869395e-05 -4.687641166108e-02 0.0 
9.191307952900e-06 -1.584372544390e-01 0.0 
8.407766390416e-06 -1.658306951329e-01 0.0 
-6.200529679563e-06 -3.375350230812e-02 0.0 
1.549551635525e-06 -1.633517841169e-01 0.0 
3.393498876678e-06 -1.837784840230e-02 0.0 
-1.042284186940e-05 -1.940488213680e-01 0.0 
-2.555244312918e-05 -1.929023777027e-01 0.0 
2.356132332560e-06 -1.590253133196e-01 0.0 
8.686365791344e-06 -1.501923505567e-01 0.0 
2.320030217753e-06 -1.683866578069e-01 0.0 
-2.007804359723e-06 -1.706860515357e-01 0.0 
-5.794953642816e-06 -8.863434195773e-02 0.0 
1.987644063797e-05 -1.911802214569e-01 0.0 
-7.766203331943e-06 -1.854827258111e-01 0.0 
2.212523211118e-07 -9.498241986562e-02 0.0 
-8.686049779067e-06 -1.889042577160e-01 0.0 
-1.863318406574e-06 -7.858383341668e-02 0.0 
7.272746119063e-07 -1.597691013910e-01 0.0 
5.014681828047e-06 -1.425405129200e-01 0.0 
-5.205797001358e-06 -1.813096334004e-01 0.0 
4.147076840166e-06 -1.687923968479e-01 0.0 
1.556110948577e-05 -1.177594440395e-01 0.0 
2.848113955231e-05 -1.275051279173e-01 0.0 
1.945095881885e-05 -1.333882833650e-01 0.0 
-1.791110930627e-08 -1.561388317949e-01 0.0 
3.718435729829e-06 -1.667544031495e-01 0.0 
-3.809082673653e-06 -1.732488792329e-01 0.0 
9.369909222659e-06 -1.253531344233e-01 0.0 
2.652343631704e-06 -6.667523463655e-02 0.0 
2.368582428441e-06 -5.965733013514e-02 0.0 
-1.088039706956e-09 -4.400538101200e-02 0.0 
-1.282039546895e-06 -5.260173618419e-02 0.0 
1.932207835650e-06 -6.825886754636e-02 0.0 
-1.156688899966e-06 -6.138117891816e-02 0.0 
-4.732839907179e-06 -4.560463485276e-02 0.0 
1.613022136069e-06 -5.438774567229e-02 0.0 
-4.471431813737e-06 -3.491026045646e-02 0.0 
7.210203903557e-06 -4.689497155359e-02 0.0 
1.270587739712e-06 -6.333382631331e-02 0.0 
1.722890356677e-06 -5.671286809236e-02 0.0 
1.537866291496e-06 -4.168012492963e-02 0.0 
2.985989818946e-06 -7.271865636116e-02 0.0 
-3.167659549350e-06 -2.672490895466e-02 0.0 
2.523958763481e-06 -1.501913391075e-01 0.0 
-9.536157395841e-06 -1.915686851941e-01 0.0 
-2.675257613257e-06 -1.918637628055e-01 0.0 
6.533846713244e-06 -1.370004548465e-01 0.0 
-1.422163144070e-05 -1.710309116173e-02 0.0 
1.371310808331e-05 -1.674973783669e-02 0.0 
-1.501912751113e-06 -1.709344009713e-01 0.0 
1.453454233703e-06 -1.608106359518e-02 0.0 
1.558480828762e-05 -1.287628423509e-01 0.0 
-7.557806041792e-06 -1.827359341753e-01 0.0 
-7.101867252286e-07 -1.619434449778e-02 0.0 
3.068474848532e-06 -7.498129438184e-02 0.0 
5.529214147931e-06 -8.323535912168e-02 0.0 
6.112900583781e-06 -8.949708181135e-02 0.0 
1.075201830056e-05 -1.557432115427e-02 0.0 
-1.971621202075e-06 -1.064542564848e-01 0.0 
9.545859113341e-06 -1.520282907603e-02 0.0 
-2.060960653173e-06 -1.101754626510e-01 0.0 
-9.735513452204e-07 -1.157391318719e-01 0.0 
-1.685404588195e-07 -1.272636963034e-01 0.0 
1.184503165583e-06 -7.027616006740e-02 0.0 
-3.595857404854e-06 -1.620536036001e-02 0.0 
-3.760950640011e-06 -3.113555966654e-02 0.0 
9.750580275304e-06 -3.116741777881e-02 0.0 
-1.916031621961e-06 -4.664934239950e-02 0.0 
1.055606789635e-07 -1.614092668522e-02 0.0 
-9.650577233194e-07 -1.542481340490e-02 0.0 
-1.440483794654e-06 -1.467732373356e-02 0.0 
-7.337763744362e-06 -1.741621740908e-01 0.0 
-4.810074525163e-06 -1.705037126113e-01 0.0 
-2.923911834376e-06 -1.635240410690e-01 0.0 
-2.943417861148e-06 -1.666331595886e-01 0.0 
-5.056150360697e-06 -1.733111500961e-01 0.0 
-3.975364066505e-06 -1.696587400436e-01 0.0 
-2.557101220335e-06 -1.625801358531e-01 0.0 
-4.986810586240e-06 -1.725565788051e-01 0.0 
-3.312552569864e-06 -5.916581239131e-02 0.0 
-3.301796069840e-06 -1.556872007348e-02 0.0 
-4.205735978079e-06 -1.107992981424e-01 0.0 
-4.130406689235e-06 -1.163534373339e-01 0.0 
-3.417363693538e-06 -1.279570921269e-01 0.0 
6.590759974663e-07 -1.479331719608e-01 0.0 
-7.003513812914e-07 -1.424892019544e-01 0.0 
-1.614895374136e-06 -1.320695999246e-01 0.0 
2.554063988203e-06 -1.531225435279e-01 0.0 
1.468329298715e-07 -9.341015926020e-02 0.0 
9.215817015378e-06 -1.572181380157e-02 0.0 
-2.649549587771e-06 -1.134083412570e-01 0.0 
-1.272767435247e-06 -1.467458356392e-01 0.0 
9.372545047154e-06 -1.369982951079e-01 0.0 
3.429892568388e-05 -1.276440013672e-01 0.0 
2.238823257566e-05 -1.274131633760e-01 0.0 
1.912627859393e-05 -1.160133360801e-01 0.0 
2.469454840671e-05 -1.263044563519e-01 0.0 
-3.786531598126e-07 -1.286936890937e-01 0.0 
-2.000565020742e-06 -1.237253614781e-01 0.0 
-5.776647705023e-07 -1.301114683278e-01 0.0 
-3.961633760484e-06 -1.185728449376e-01 0.0 
-3.892989106051e-07 -1.251691551516e-01 0.0 
9.642125916159e-07 -1.359505327673e-01 0.0 
-4.242997501480e-06 -1.132297636918e-01 0.0 
6.740510551478e-06 -1.213964407488e-01 0.0 
9.590581790626e-06 -1.369667958249e-01 0.0 
4.829972257555e-06 -1.939765600833e-01 0.0 
-7.529308802203e-06 -1.928494133163e-01 0.0 
-1.414676976510e-06 -1.928958434649e-01 0.0 
-1.402858736081e-05 -1.912309932078e-01 0.0 
-1.077183735715e-06 -1.910691210385e-01 0.0 
-1.453264697625e-05 -1.884678823563e-01 0.0 
-1.658682475341e-05 -1.888411189684e-01 0.0 
-7.736892597252e-06 -1.928459980378e-01 0.0 
-2.771415613362e-06 -1.939676168277e-01 0.0 
1.608633505368e-06 -1.929178187520e-01 0.0 
-2.079692809589e-06 -1.939718555937e-01 0.0 
-6.561964200716e-06 -1.929574046616e-01 0.0 
-2.057098830250e-06 -1.909305786090e-01 0.0 
-2.154289648086e-06 -1.866105313209e-01 0.0 
4.773156114438e-06 -1.876206639731e-02 0.0 
-1.977810623176e-06 -1.504723465314e-01 0.0 
-1.196937476377e-05 -1.549769692901e-01 0.0 
6.403106847297e-06 -1.629449622205e-01 0.0 
7.286443582216e-08 -1.587415450948e-01 0.0 
1.598550128347e-05 -1.466420884688e-01 0.0 
-1.144919002373e-06 -1.669214413709e-01 0.0 
-1.205188578970e-05 -1.694029510414e-01 0.0 
-3.497698733135e-06 -1.939801899691e-01 0.0 
8.155437807566e-06 -1.928969456500e-01 0.0 
3.225246526375e-07 -1.930781170347e-01 0.0 
1.184911686586e-05 -1.911065865450e-01 0.0 
1.840637058630e-05 -1.911571567050e-01 0.0 
8.214764388210e-06 -1.928684109518e-01 0.0 
4.788306321873e-06 -1.928810138847e-01 0.0 
1.368323863328e-05 -1.939752266770e-01 0.0 
5.688962746168e-06 -1.928932884235e-01 0.0 
8.393740502908e-06 -1.910570819162e-01 0.0 
2.266313741026e-05 -1.939984554397e-01 0.0 
5.038943361385e-06 -7.750309637879e-02 0.0 
3.306187025921e-06 -6.996866975614e-02 0.0 
1.256928653856e-05 -1.676239031446e-02 0.0 
9.488063194144e-06 -1.360751481627e-01 0.0 
-5.527752534949e-07 -1.939799830572e-01 0.0 
3.545212696996e-06 -1.952016412372e-02 0.0 
1.249805933789e-05 -1.627560482367e-02 0.0 
-7.679945298399e-06 -1.574815710732e-02 0.0 
1.892231642922e-06 -4.616371993058e-02 0.0 
1.799720346251e-06 -3.781061002812e-02 0.0 
1.764508940552e-05 -1.895482441623e-02 0.0 
-1.121136378123e-06 -1.746403842513e-01 0.0 
3.710281731098e-06 -3.713189413628e-02 0.0 
4.985800189180e-06 -4.916813707482e-02 0.0 
-6.159984370052e-06 -1.844983149143e-01 0.0 
-4.821479829517e-06 -1.758733416386e-01 0.0 
1.691754503775e-06 -9.291986618678e-02 0.0 
-3.813553958706e-06 -1.085845717347e-01 0.0 
-4.559525138852e-06 -6.118822674253e-02 0.0 
-4.272682003045e-06 -1.047616589255e-01 0.0 
-6.867261783171e-06 -7.461376338034e-02 0.0 
4.926778592700e-06 -3.226455703939e-02 0.0 
-6.700317171136e-06 -1.864972226477e-01 0.0 
2.610972692100e-06 -1.038318954053e-01 0.0 
6.540661074573e-06 -1.084514994676e-01 0.0 
6.496552757345e-06 -7.399426609021e-02 0.0 
6.798156896788e-08 -1.727720306832e-01 0.0 
4.983194035684e-06 -1.401936290105e-01 0.0 
-8.899730778396e-06 -1.855368272771e-01 0.0 
-6.121850947762e-06 -3.040012837542e-02 0.0 
1.017895280565e-05 -1.357253726597e-01 0.0 
-3.223453907333e-06 -1.340489846011e-01 0.0 
2.043105901974e-06 -1.568910507902e-01 0.0 
-2.181424781718e-06 -1.709221853341e-01 0.0 
-5.204818192371e-06 -1.782668623341e-01 0.0 
2.450343135833e-06 -1.449271382831e-01 0.0 
-2.291969166327e-06 -1.412333547091e-01 0.0 
-5.202100461588e-06 -8.554536960160e-02 0.0 
6.463745180594e-06 -6.545632398456e-02 0.0 
1.177657519320e-05 -1.938820233302e-01 0.0 
-5.513517594467e-06 -7.725076036865e-02 0.0 
-3.257783445902e-06 -1.193076630980e-01 0.0 
1.410499467250e-06 -9.914478616642e-02 0.0 
-4.010756343710e-06 -7.701077892297e-02 0.0 
-1.115865539233e-05 -1.867180958258e-01 0.0 
5.807201731318e-06 -6.870810476926e-02 0.0 
2.561618352081e-06 -4.058435439407e-02 0.0 
-6.710699170872e-06 -1.134066946280e-01 0.0 
-1.927936286933e-06 -1.891987142686e-01 0.0 
-5.700969718816e-06 -1.167306109524e-01 0.0 
-6.806697383135e-06 -4.318294784746e-02 0.0 
3.208883727437e-06 -7.348272940004e-02 0.0 
-6.029065665423e-07 -1.762683346764e-01 0.0 
-1.510657429622e-06 -1.299240694435e-01 0.0 
3.716679070884e-06 -1.382813122271e-01 0.0 
6.000241239073e-06 -1.467379271384e-01 0.0 
3.182888706528e-07 -4.217426141338e-02 0.0 
1.513696210795e-06 -1.260376948712e-01 0.0 
-4.492987894379e-06 -6.357614334386e-02 0.0 
-3.140288751649e-06 -1.063144473940e-01 0.0 
2.545126815995e-06 -1.735106802113e-01 0.0 
-9.174619880479e-06 -6.391880505500e-02 0.0 
-4.686834878653e-07 -1.332232372937e-01 0.0 
2.169273999435e-06 -5.278858488247e-02 0.0 
-2.376257535666e-06 -8.395894820081e-02 0.0 
-1.427166587315e-06 -1.535686369594e-01 0.0 
1.966728163604e-06 -6.335816324120e-02 0.0 
-3.006310280438e-06 -1.327621395213e-01 0.0 
-2.928346832831e-07 -6.853052345656e-02 0.0 
9.083875677015e-06 -1.411683407119e-01 0.0 
2.131407632289e-06 -1.101907095595e-01 0.0 
5.348252263758e-06 -9.453740032327e-02 0.0 
2.073081797709e-06 -1.182832594377e-01 0.0 
2.031568902324e-06 -1.006378258750e-01 0.0 
-5.927825887198e-06 -7.068034803557e-02 0.0 
-1.718891055593e-05 -1.857532735513e-01 0.0 
3.051999343580e-06 -1.617676116864e-01 0.0 
4.537368069266e-06 -1.003838200807e-01 0.0 
-8.832522395138e-06 -5.626939369702e-02 0.0 
-1.293150369143e-05 -3.576899692696e-02 0.0 
3.798934282305e-06 -1.476687001009e-01 0.0 
-8.134650789343e-06 -7.269950345154e-02 0.0 
4.734197157069e-06 -4.760386399948e-02 0.0 
-1.817575426301e-06 -1.367713690084e-01 0.0 
9.784434717024e-06 -1.843663223192e-01 0.0 
-1.701300521645e-05 -1.881200335627e-01 0.0 
-3.091344841876e-06 -1.688954429634e-01 0.0 
1.163328789189e-06 -1.320370232762e-01 0.0 
-2.480860871893e-06 -1.258702327099e-01 0.0 
-1.665333294843e-06 -3.284596646695e-02 0.0 
-8.390252785004e-06 -6.601314495347e-02 0.0 
-6.008720550141e-06 -8.184814310002e-02 0.0 
-2.048261192130e-05 -1.926070239164e-01 0.0 
1.505858754756e-05 -1.429284431629e-01 0.0 
-7.093734732754e-06 -5.912276543217e-02 0.0 
-1.942549616649e-06 -1.251456883363e-01 0.0 
2.705331423917e-07 -6.189842433859e-02 0.0 
-2.096180465384e-06 -1.316354597956e-01 0.0 
1.013798140313e-05 -3.081107462913e-02 0.0 
1.066012867372e-05 -1.614145756685e-01 0.0 
-4.196698411443e-06 -5.203026523698e-02 0.0 
-5.455018552860e-06 -8.059307015116e-02 0.0 
-6.290616407905e-08 -1.672107549246e-01 0.0 
4.499003864576e-07 -1.371386382903e-01 0.0 
-1.928017861704e-06 -3.241707018355e-02 0.0 
-8.848062559472e-06 -6.453949638048e-02 0.0 
1.454868815082e-06 -1.063295116011e-01 0.0 
-1.897970215879e-06 -1.313743694224e-01 0.0 
1.156945730432e-05 -1.559704610907e-01 0.0 
-2.536221897371e-06 -1.208178810023e-01 0.0 
1.982108031349e-06 -1.032999429706e-01 0.0 
-7.346105844396e-06 -1.515271284825e-02 0.0 
-6.300711571906e-06 -5.668919410912e-02 0.0 
1.175298651086e-05 -9.733990174168e-02 0.0 
-1.387047782038e-06 -1.273206622986e-01 0.0 
-1.357901725025e-06 -9.620013306905e-02 0.0 
5.652462833265e-06 -1.911386250917e-01 0.0 
1.288097855039e-05 -1.525962431855e-01 0.0 
-1.958708134659e-06 -1.223455080998e-01 0.0 
-2.649532859405e-06 -1.658371744796e-01 0.0 
-2.185113348249e-06 -1.266585850094e-01 0.0 
-1.539860536662e-05 -3.494448030522e-02 0.0 
-3.221959679925e-06 -1.171677244430e-01 0.0 
-1.954083960093e-06 -1.582106852063e-01 0.0 
-5.097760341667e-06 -1.118067275223e-01 0.0 
7.164008453767e-06 -1.641775306686e-01 0.0 
8.438243067873e-06 -9.111323232091e-02 0.0 
-5.552257837254e-06 -1.062560837406e-01 0.0 
-1.448618485037e-06 -9.013082262971e-02 0.0 
1.097616806513e-06 -1.909205236394e-01 0.0 
1.070347663664e-06 -1.008454358567e-01 0.0 
-2.860085159013e-06 -5.507083375970e-02 0.0 
-3.507876258808e-06 -1.626554418098e-01 0.0 
-3.481176216854e-06 -1.217512803003e-01 0.0 
3.228142169505e-06 -7.679561938675e-02 0.0 
3.765264361631e-06 -1.714255325961e-01 0.0 
-3.967374550529e-06 -1.096003761690e-01 0.0 
-3.562330936612e-06 -7.602193487011e-02 0.0 
-9.192796249149e-07 -9.509252343670e-02 0.0 
2.580932689409e-07 -1.210634756063e-01 0.0 
-4.952450768533e-06 -9.628285510204e-02 0.0 
1.534948866714e-06 -1.692889215548e-01 0.0 
-2.430941850465e-06 -1.772182449908e-01 0.0 
-3.328608544731e-06 -1.822995953390e-01 0.0 
-2.045080874921e-06 -1.546292681486e-01 0.0 
-3.156775953384e-06 -6.768318289083e-02 0.0 
2.275609187952e-05 -1.887726680931e-01 0.0 
5.697018234412e-06 -7.877284188283e-02 0.0 
1.770612394653e-06 -1.880848081904e-01 0.0 
-2.681371808693e-06 -1.592124912251e-01 0.0 
-2.056096000166e-06 -7.322449810072e-02 0.0 
4.573834881589e-06 -1.050387622111e-01 0.0 
-3.099605756839e-06 -1.557071191089e-01 0.0 
3.044868607496e-06 -1.794380067187e-01 0.0 
-3.590503743282e-06 -1.602784598627e-01 0.0 
-5.830326946745e-07 -1.090671386958e-01 0.0 
-3.977767759740e-06 -1.568061573059e-01 0.0 
-4.555447079853e-06 -1.613464259800e-01 0.0 
1.386995461303e-05 -3.265931105036e-02 0.0 
-3.849320923284e-06 -1.579995989590e-01 0.0 
1.971690673909e-05 -1.574481251151e-02 0.0 
-2.142436208929e-06 -1.709253834432e-02 0.0 
-3.045248204901e-06 -1.289696471579e-01 0.0 
2.711582369880e-05 -1.780965103282e-01 0.0 
4.178741282641e-06 -1.940072625040e-01 0.0 
2.024425383995e-05 -1.759415844424e-01 0.0 
-3.749746368968e-06 -1.697062043072e-01 0.0 
2.636891165694e-06 -8.093746536918e-02 0.0 
-6.298889807521e-06 -1.284394157322e-01 0.0 
-3.592702287944e-06 -1.735291707224e-01 0.0 
-5.977670266696e-06 -3.068225477862e-02 0.0 
6.432542609693e-06 -1.507468236068e-02 0.0 
-1.383237134548e-06 -8.408616507662e-02 0.0 
1.224409753991e-06 -5.578711402372e-02 0.0 
-1.292833946998e-06 -8.851253214116e-02 0.0 
1.185430364145e-06 -4.675721171215e-02 0.0 
-2.258945325634e-07 -1.378781943033e-01 0.0 
-5.997079064915e-06 -1.929952730690e-01 0.0 
-1.964238204820e-06 -9.332882432899e-02 0.0 
2.702651478366e-06 -1.833644803370e-01 0.0 
-1.382575912751e-06 -1.828030079773e-01 0.0 
-6.145462721229e-06 -1.871884682319e-01 0.0 
-4.801584555073e-06 -1.712092691355e-01 0.0 
-8.132099949956e-06 -1.913036574628e-01 0.0 
-8.496136321051e-06 -1.868274833592e-01 0.0 
7.760707539461e-06 -3.209324394172e-02 0.0 
-3.839925908667e-06 -1.282077324992e-01 0.0 
-6.343004764577e-06 -6.636525096102e-02 0.0 
-1.113124679016e-05 -1.902081538702e-01 0.0 
1.378839211062e-05 -3.163426644233e-02 0.0 
-4.357460144195e-06 -3.179854613763e-02 0.0 
-1.334035800346e-05 -1.485175427622e-02 0.0 
-6.769840462958e-06 -4.985802198006e-02 0.0 
-6.439632342333e-06 -1.905566424895e-01 0.0 
4.027359680824e-06 -1.183768230466e-01 0.0 
-2.661485970572e-06 -3.014020122103e-02 0.0 
-3.737341907245e-06 -7.217681832358e-02 0.0 
1.169026071883e-05 -1.430358817417e-02 0.0 
1.442961842977e-05 -1.292540762966e-01 0.0 
2.763326508267e-06 -3.052149266583e-02 0.0 
-2.631494333662e-05 -1.877773531673e-01 0.0 
1.500275655890e-05 -2.961541794833e-02 0.0 
-2.117039455229e-07 -6.593470237228e-02 0.0 
-3.837020260637e-06 -1.141850967366e-01 0.0 
3.414356087200e-05 -1.189641305418e-01 0.0 
-4.353932001252e-06 -2.966795543079e-02 0.0 
9.953075073612e-06 -3.086364999537e-02 0.0 
-6.818971440465e-06 -1.919050471138e-01 0.0 
-5.757316493601e-07 -8.551920768513e-02 0.0 
3.499286587846e-06 -1.585997179216e-01 0.0 
9.913877640926e-06 -1.931280993131e-01 0.0 
-1.550680453649e-05 -3.085573857145e-02 0.0 
-6.379530690046e-06 -5.052549458683e-02 0.0 
-7.547848687038e-06 -3.024151631352e-02 0.0 
7.291557523581e-06 -1.912979780553e-01 0.0 
1.915380782782e-05 -1.931288371682e-01 0.0 
1.097897205990e-06 -2.844012822149e-02 0.0 
5.964882263595e-06 -2.835758616017e-02 0.0 
-1.969387504809e-05 -1.857136557136e-01 0.0 
5.839023830417e-06 -1.282166477914e-02 0.0 
-3.504810471762e-05 -1.932322056121e-01 0.0 
4.781943281555e-06 -1.389536776786e-01 0.0 
1.716132304854e-05 -1.930506225772e-01 0.0 
2.847867685014e-07 -1.449631243633e-02 0.0 
-1.133276097181e-05 -2.933624284231e-02 0.0 
1.128031368626e-05 -1.508459903875e-01 0.0 
1.659254652256e-05 -1.359373914198e-01 0.0 
-4.905721011863e-06 -1.754907805862e-01 0.0 
-1.181774152986e-05 -4.272154470843e-02 0.0 
1.212115877564e-05 -1.915345777555e-01 0.0 
3.697086621247e-06 -2.767921752077e-02 0.0 
-2.500646995615e-09 -2.762861400686e-02 0.0 
6.465412976215e-06 -2.792892950709e-02 0.0 
4.517586363973e-06 -1.183161487290e-02 0.0 
-6.940835959606e-06 -1.931938821600e-01 0.0 
-3.845104896130e-07 -2.720915971259e-02 0.0 
-1.164903192699e-05 -4.310820867944e-02 0.0 
-9.623631317619e-06 -1.383386903489e-01 0.0 
-6.744975882494e-06 -3.004743575612e-02 0.0 
-9.956916465019e-06 -1.654776549919e-01 0.0 
-1.086595450123e-05 -1.888437559148e-01 0.0 
4.182484771154e-06 -1.395654314116e-02 0.0 
-5.907509634169e-06 -1.940714403796e-01 0.0 
2.625537226222e-06 -1.383434981521e-01 0.0 
-6.007161417602e-06 -1.395244854135e-02 0.0 
2.069967872531e-05 -1.893375956205e-01 0.0 
-5.324196704469e-06 -1.204910146390e-01 0.0 
1.167081019164e-06 -2.725129536919e-02 0.0 
1.435729734568e-05 -1.297899887222e-01 0.0 
-1.232187359779e-05 -5.750310675436e-02 0.0 
-2.171609671967e-06 -1.894404862060e-01 0.0 
1.440408680107e-05 -1.941125133474e-01 0.0 
-4.237693998514e-06 -9.838957898548e-02 0.0 
-1.407471068718e-05 -2.862346567460e-02 0.0 
5.915816989766e-06 -2.660683150876e-02 0.0 
-3.676242459275e-06 -1.072936892741e-01 0.0 
9.709956320654e-07 -1.902570801462e-01 0.0 
-2.552411850762e-06 -3.838439668786e-02 0.0 
1.405746761584e-05 -1.436030295481e-01 0.0 
2.068189773512e-06 -4.155796122628e-02 0.0 
1.365870252553e-05 -4.328646686957e-02 0.0 
-1.824137702661e-05 -1.939703695064e-01 0.0 
-8.046354169999e-06 -1.184086025537e-01 0.0 
8.438181127588e-06 -1.931563657994e-01 0.0 
-3.741186318287e-06 -2.755366745410e-02 0.0 
1.929264215966e-05 -1.390890778803e-01 0.0 
-6.510611514035e-05 -1.941972699737e-01 0.0 
3.132765572277e-05 -1.942007215071e-01 0.0 
-5.788083318411e-05 -1.933256846131e-01 0.0 
-1.822814637175e-05 -1.932252558231e-01 0.0 
-5.037361227298e-05 -1.914568940829e-01 0.0 
1.635435178628e-05 -1.912765091957e-01 0.0 
-4.429125929835e-05 -1.886470714564e-01 0.0 
-1.941577784628e-05 -1.883577303664e-01 0.0 
-3.372802825385e-05 -1.848150694740e-01 0.0 
1.656289368430e-05 -1.844680672612e-01 0.0 
-2.459519419177e-05 -1.800593415704e-01 0.0 
-1.904250255044e-05 -1.796079245496e-01 0.0 
-2.906460656872e-05 -1.742791654430e-01 0.0 
1.690967104542e-05 -1.737764538652e-01 0.0 
-2.905564688742e-05 -1.676035028294e-01 0.0 
-1.897742068199e-05 -1.669740015127e-01 0.0 
-2.491402913296e-05 -1.598583050903e-01 0.0 
1.909113122276e-05 -1.591996546305e-01 0.0 
-2.600898829895e-05 -1.512685448203e-01 0.0 
-1.592674916946e-05 -1.504581288267e-01 0.0 

VECTORS node_materi_displacement float
0.0 6.905052574355e-02 0.0 
0.0 6.520519343886e-02 0.0 
0.0 0.0 0.0 
0.0 0.0 0.0 
0.0 6.990598118012e-02 0.0 
0.0 7.003523722688e-02 0.0 
0.0 6.947354637944e-02 0.0 
0.0 6.821373687011e-02 0.0 
0.0 6.627169160953e-02 0.0 
0.0 6.379959983959e-02 0.0 
0.0 6.088680186919e-02 0.0 
0.0 5.760191830097e-02 0.0 
0.0 5.401504157645e-02 0.0 
0.0 5.017357398087e-02 0.0 
0.0 4.609843807614e-02 0.0 
0.0 4.181605800886e-02 0.0 
0.0 3.732844571586e-02 0.0 
0.0 3.263401301378e-02 0.0 
0.0 2.772343939769e-02 0.0 
0.0 2.259215892990e-02 0.0 
0.0 1.724386950360e-02 0.0 
0.0 1.168461458488e-02 0.0 
0.0 5.937570497226e-03 0.0 
0.0 0.0 0.0 
0.0 0.0 0.0 
0.0 0.0 0.0 
0.0 0.0 0.0 
0.0 0.0 0.0 
0.0 0.0 0.0 
0.0 0.0 0.0 
0.0 0.0 0.0 
0.0 0.0 0.0 
0.0 0.0 0.0 
0.0 0.0 0.0 
0.0 0.0 0.0 
0.0 0.0 0.0 
0.0 0.0 0.0 
0.0 0.0 0.0 
0.0 0.0 0.0 
0.0 0.0 0.0 
0.0 0.0 0.0 
0.0 0.0 0.0 
0.0 0.0 0.0 
0.0 0.0 0.0 
0.0 0.0 0.0 
0.0 0.0 0.0 
0.0 0.0 0.0 
0.0 0.0 0.0 
0.0 0.0 0.0 
0.0 0.0 0.0 
0.0 0.0 0.0 
0.0 0.0 0.0 
0.0 0.0 0.0 
0.0 0.0 0.0 
0.0 0.0 0.0 
0.0 0.0 0.0 
0.0 0.0 0.0 
0.0 0.0 0.0 
0.0 0.0 0.0 
0.0 0.0 0.0 
0.0 0.0 0.0 
0.0 0.0 0.0 
0.0 0.0 0.0 
0.0 0.0 0.0 
0.0 0.0 0.0 
0.0 0.0 0.0 
0.0 0.0 0.0 
0.0 0.0 0.0 
0.0 0.0 0.0 
0.0 0.0 0.0 
0.0 0.0 0.0 
0.0 0.0 0.0 
0.0 6.033510522521e-02 0.0 
0.0 5.505818846588e-02 0.0 
0.0 4.938422889745e-02 0.0 
0.0 4.333719013786e-02 0.0 
0.0 3.692605877273e-02 0.0 
0.0 3.017107159090e-02 0.0 
0.0 2.308679607922e-02 0.0 
0.0 1.568704144559e-02 0.0 
0.0 7.990150342211e-03 0.0 
-5.058095531451e-03 -2.480999773320e-02 0.0 
0.0 8.880927247554e-02 0.0 
1.813115222755e-02 5.678404798380e-02 0.0 
1.869630343438e-03 -4.295958175667e-03 0.0 
7.445281172249e-03 1.040815423826e-02 0.0 
1.202485323273e-02 2.278523604933e-02 0.0 
1.577489401413e-02 3.343237715429e-02 0.0 
1.866448864296e-02 4.234793372624e-02 0.0 
2.053126082296e-02 4.927019739557e-02 0.0 
2.131446034609e-02 5.406640925706e-02 0.0 
2.107719670095e-02 5.679399126676e-02 0.0 
1.996728547350e-02 5.761963724078e-02 0.0 
0.0 8.858624906256e-02 0.0 
0.0 8.787839140445e-02 0.0 
0.0 8.671961092314e-02 0.0 
0.0 8.503860670575e-02 0.0 
0.0 8.291299042310e-02 0.0 
0.0 8.027128846045e-02 0.0 
0.0 7.720429894824e-02 0.0 
0.0 7.363513026537e-02 0.0 
0.0 6.965433713312e-02 0.0 
1.032999397855e-03 6.518995766518e-02 0.0 
2.055659212026e-03 6.513882459695e-02 0.0 
3.096220473388e-03 6.504890586045e-02 0.0 
4.155347609413e-03 6.491070275217e-02 0.0 
5.236768767116e-03 6.472908519989e-02 0.0 
6.341570611843e-03 6.447250909802e-02 0.0 
7.482897223706e-03 6.415479003944e-02 0.0 
8.657903466925e-03 6.374067122104e-02 0.0 
9.881989542780e-03 6.323815745345e-02 0.0 
1.115469745262e-02 6.260431187222e-02 0.0 
1.247303441547e-02 6.183141354103e-02 0.0 
1.384275325949e-02 6.088880352438e-02 0.0 
1.524946742372e-02 5.975210032659e-02 0.0 
1.667923644507e-02 5.838904035939e-02 0.0 
-1.178442341512e-03 -3.688131472138e-02 0.0 
3.578133501999e-03 -4.172422658897e-02 0.0 
8.503747038440e-03 -4.181736680255e-02 0.0 
1.378618801376e-02 -3.678820092010e-02 0.0 
1.761001620662e-02 -2.417054989448e-02 0.0 
1.966991492787e-02 -8.953748073175e-03 0.0 
2.015738331103e-02 2.925627429147e-03 0.0 
1.999583903133e-02 1.287898637371e-02 0.0 
1.972835288869e-02 2.163250405179e-02 0.0 
1.925301532143e-02 2.963164285187e-02 0.0 
1.848111979743e-02 3.690407055725e-02 0.0 
1.746623166493e-02 4.339034076158e-02 0.0 
1.614586352611e-02 4.927548241399e-02 0.0 
1.443178982659e-02 5.449225177289e-02 0.0 
1.243219996986e-02 5.895049967611e-02 0.0 
1.023299004844e-02 6.255994935723e-02 0.0 
7.862791442756e-03 6.541383510006e-02 0.0 
5.351456653777e-03 6.749195539869e-02 0.0 
2.687468391166e-03 6.867220349393e-02 0.0 
-8.044137817291e-03 -9.119873585609e-03 0.0 
-8.356432441363e-03 1.723632694779e-03 0.0 
-8.638896505312e-03 1.151518208949e-02 0.0 
-8.672122405550e-03 2.036857542275e-02 0.0 
-8.510463265059e-03 2.857076559009e-02 0.0 
-8.099356444911e-03 3.616128528730e-02 0.0 
-7.486795215608e-03 4.314390938889e-02 0.0 
-6.720826088641e-03 4.953938725483e-02 0.0 
-5.842405517916e-03 5.533502049999e-02 0.0 
-4.903364102275e-03 6.052662185148e-02 0.0 
-3.950852024149e-03 6.512737155666e-02 0.0 
-3.032183372141e-03 6.915497717937e-02 0.0 
-2.114983452854e-03 7.266907503331e-02 0.0 
-1.232321065561e-03 7.567633396618e-02 0.0 
-4.237081616964e-04 7.821700775119e-02 0.0 
2.816419199053e-04 8.033984387061e-02 0.0 
8.646911325083e-04 8.209637379712e-02 0.0 
1.316213946770e-03 8.353930038448e-02 0.0 
1.633594193818e-03 8.471095973773e-02 0.0 
1.821215919745e-03 8.565524470091e-02 0.0 
1.888652650610e-03 8.641259504031e-02 0.0 
1.848726049835e-03 8.702231611387e-02 0.0 
1.742445756961e-03 8.750960570240e-02 0.0 
1.579594190298e-03 8.789225802764e-02 0.0 
1.365639186958e-03 8.818741451603e-02 0.0 
1.121360261019e-03 8.841412639329e-02 0.0 
8.494690024307e-04 8.858233580062e-02 0.0 
5.580408655849e-04 8.870460273191e-02 0.0 
2.515947096121e-04 8.878173014695e-02 0.0 
3.381453703240e-04 8.851707229992e-02 0.0 
6.792258117086e-04 8.841912404665e-02 0.0 
1.021579401917e-03 8.830154932233e-02 0.0 
1.352309068348e-03 8.814631406408e-02 0.0 
1.663593175074e-03 8.793973208201e-02 0.0 
1.949503198188e-03 8.766950556511e-02 0.0 
2.203238106490e-03 8.732282526124e-02 0.0 
2.417133454680e-03 8.688109124533e-02 0.0 
2.582151131599e-03 8.632689861894e-02 0.0 
2.689758675774e-03 8.564167184103e-02 0.0 
2.733155430744e-03 8.478866794342e-02 0.0 
2.702899236805e-03 8.372534508678e-02 0.0 
2.593145219698e-03 8.241257658312e-02 0.0 
2.393864820363e-03 8.080596885558e-02 0.0 
2.114740652801e-03 7.885344483426e-02 0.0 
1.769951149963e-03 7.650318545862e-02 0.0 
1.377950365025e-03 7.370590889654e-02 0.0 
9.590898520022e-04 7.042066456545e-02 0.0 
5.295686924075e-04 6.662478645558e-02 0.0 
1.062323431212e-04 6.229092671538e-02 0.0 
-2.906928580022e-04 5.737594937501e-02 0.0 
-6.276878818992e-04 5.186231037237e-02 0.0 
-8.622994545358e-04 4.573670108602e-02 0.0 
-9.418658838356e-04 3.902141884156e-02 0.0 
-7.945440389333e-04 3.170613726520e-02 0.0 
-4.734604146745e-04 2.386376818014e-02 0.0 
4.335244021923e-06 1.541058224495e-02 0.0 
7.092857478675e-04 6.234099275426e-03 0.0 
6.638859788844e-03 1.943713481907e-02 0.0 
6.061830970044e-03 2.771701905056e-02 0.0 
5.593226581031e-03 3.543836178145e-02 0.0 
5.224985479155e-03 4.258046148535e-02 0.0 
4.954791663693e-03 4.911313041644e-02 0.0 
4.755592205887e-03 5.500570015497e-02 0.0 
4.659517872697e-03 6.025306891848e-02 0.0 
4.620513364277e-03 6.487593285769e-02 0.0 
4.610401849813e-03 6.891103406143e-02 0.0 
4.605310373185e-03 7.239262016387e-02 0.0 
4.589943617819e-03 7.535809811619e-02 0.0 
4.553863344000e-03 7.784512776653e-02 0.0 
4.487062694636e-03 7.990403572874e-02 0.0 
4.381928885008e-03 8.158965170338e-02 0.0 
4.233276792797e-03 8.295744742659e-02 0.0 
4.040118078165e-03 8.406090301236e-02 0.0 
3.804902869657e-03 8.494349818109e-02 0.0 
3.531736572068e-03 8.564775805980e-02 0.0 
3.224137061459e-03 8.620972382341e-02 0.0 
2.884539793461e-03 8.665473363181e-02 0.0 
2.517589510265e-03 8.700314694100e-02 0.0 
2.129846689043e-03 8.727314750785e-02 0.0 
1.726705089101e-03 8.747919298292e-02 0.0 
1.312460028829e-03 8.763464307713e-02 0.0 
8.911396389971e-04 8.775626920152e-02 0.0 
4.639174812525e-04 8.788115918435e-02 0.0 
1.141707663700e-02 3.062201207057e-02 0.0 
1.089307376797e-02 3.789439999537e-02 0.0 
1.038335372892e-02 4.462238500197e-02 0.0 
9.894390234076e-03 5.074861576576e-02 0.0 
9.442687158142e-03 5.627638058154e-02 0.0 
9.014952427852e-03 6.118197704087e-02 0.0 
8.602747071526e-03 6.549292792673e-02 0.0 
8.197723107784e-03 6.923909858379e-02 0.0 
7.810554133300e-03 7.246025821165e-02 0.0 
7.426648889542e-03 7.519499038842e-02 0.0 
7.040901233054e-03 7.748369158170e-02 0.0 
6.650366632288e-03 7.937746126491e-02 0.0 
6.250320695973e-03 8.092695524384e-02 0.0 
5.838195923300e-03 8.218536308104e-02 0.0 
5.412565290680e-03 8.320136453145e-02 0.0 
4.973883267355e-03 8.401653599475e-02 0.0 
4.522319268926e-03 8.466789998064e-02 0.0 
4.057701507553e-03 8.518642770011e-02 0.0 
3.580881784674e-03 8.559661109762e-02 0.0 
3.093920166999e-03 8.591849477797e-02 0.0 
2.599187275612e-03 8.616852532455e-02 0.0 
2.099296576047e-03 8.636008015614e-02 0.0 
1.596743875149e-03 8.650479566350e-02 0.0 
1.090989810572e-03 8.661087195720e-02 0.0 
5.523844567448e-04 8.665728605287e-02 0.0 
6.780152431628e-04 8.505716753765e-02 0.0 
1.307904582525e-03 8.497065462827e-02 0.0 
1.933193591332e-03 8.486684367683e-02 0.0 
2.557831385299e-03 8.472174629159e-02 0.0 
3.183924214893e-03 8.452656067298e-02 0.0 
3.812088568397e-03 8.426986758893e-02 0.0 
4.442638509140e-03 8.393725751704e-02 0.0 
5.075861321988e-03 8.351084718819e-02 0.0 
5.712448001270e-03 8.296828710863e-02 0.0 
6.353903477456e-03 8.228215950729e-02 0.0 
7.001959354765e-03 8.141941534014e-02 0.0 
7.658052536246e-03 8.034117891987e-02 0.0 
8.323828648138e-03 7.900200457610e-02 0.0 
9.001179545028e-03 7.734906697006e-02 0.0 
9.693632346064e-03 7.532330922341e-02 0.0 
1.040473654670e-02 7.287665322079e-02 0.0 
1.111654755877e-02 6.996080973917e-02 0.0 
1.182455255330e-02 6.652843882867e-02 0.0 
1.252851430183e-02 6.254192338913e-02 0.0 
1.322272993537e-02 5.795954410079e-02 0.0 
1.390465198007e-02 5.275585027642e-02 0.0 
1.455945184001e-02 4.692746310495e-02 0.0 
1.516874901515e-02 4.049091117036e-02 0.0 
1.794958413187e-02 4.824636754044e-02 0.0 
1.719283509845e-02 5.354470895874e-02 0.0 
1.635618198468e-02 5.825798435911e-02 0.0 
1.547238948206e-02 6.241023366724e-02 0.0 
1.456008126059e-02 6.602063184537e-02 0.0 
1.363069017003e-02 6.912584693705e-02 0.0 
1.269505780257e-02 7.176578827697e-02 0.0 
1.176017889778e-02 7.398671353261e-02 0.0 
1.083603624774e-02 7.582870385159e-02 0.0 
9.943225119759e-03 7.733475280958e-02 0.0 
9.079345522779e-03 7.855993165596e-02 0.0 
8.242055890324e-03 7.955114997314e-02 0.0 
7.428733554970e-03 8.034792926938e-02 0.0 
6.636497894515e-03 8.098399920916e-02 0.0 
5.862313770878e-03 8.148842977259e-02 0.0 
5.103745551666e-03 8.188618139739e-02 0.0 
4.358799453314e-03 8.219743363704e-02 0.0 
3.625479681441e-03 8.243799456468e-02 0.0 
2.902041593229e-03 8.262081556464e-02 0.0 
2.186683536789e-03 8.275512974007e-02 0.0 
1.476341370106e-03 8.284421659120e-02 0.0 
7.425650521852e-04 8.285994185178e-02 0.0 
8.369964187967e-04 8.029583807953e-02 0.0 
1.664355728584e-03 8.022920347892e-02 0.0 
2.494291380693e-03 8.013699000501e-02 0.0 
3.331004650404e-03 7.999868117899e-02 0.0 
4.179865436837e-03 7.980801415352e-02 0.0 
5.045537538298e-03 7.955509052440e-02 0.0 
5.931687498288e-03 7.922590535696e-02 0.0 
6.841496771401e-03 7.880419257851e-02 0.0 
7.778351116023e-03 7.826766592222e-02 0.0 
8.746023647026e-03 7.758858832013e-02 0.0 
9.748282418481e-03 7.673633273250e-02 0.0 
1.078869215725e-02 7.567544047425e-02 0.0 
1.187067030401e-02 7.436409252390e-02 0.0 
1.299726180544e-02 7.275061170730e-02 0.0 
1.413949635840e-02 7.078785911024e-02 0.0 
1.528479138928e-02 6.843163450886e-02 0.0 
1.642142382957e-02 6.563734523981e-02 0.0 
1.753600830628e-02 6.235734358083e-02 0.0 
1.860749924173e-02 5.856589586787e-02 0.0 
1.959571624384e-02 5.421134068931e-02 0.0 
2.020471566701e-02 5.788786648070e-02 0.0 
1.905830011357e-02 6.122163534595e-02 0.0 
1.784274403771e-02 6.408545720131e-02 0.0 
1.659898226603e-02 6.654228487352e-02 0.0 
1.534303383568e-02 6.861542611387e-02 0.0 
1.408586669461e-02 7.034888444863e-02 0.0 
1.285511654517e-02 7.178351127629e-02 0.0 
1.167013382807e-02 7.296096178009e-02 0.0 
1.052960993557e-02 7.392046707375e-02 0.0 
9.431179758366e-03 7.469656284332e-02 0.0 
8.371216886447e-03 7.531819743549e-02 0.0 
7.347788331011e-03 7.581227796794e-02 0.0 
6.357410013316e-03 7.620395644889e-02 0.0 
5.394679741024e-03 7.651178613152e-02 0.0 
4.459176569188e-03 7.675002326502e-02 0.0 
3.545809810384e-03 7.692963365013e-02 0.0 
2.648080485708e-03 7.705860198528e-02 0.0 
1.760370949336e-03 7.714102988042e-02 0.0 
8.794134582263e-04 7.715541955992e-02 0.0 
9.604610399574e-04 7.365333411573e-02 0.0 
1.924529603849e-03 7.358442004609e-02 0.0 
2.897322944415e-03 7.349514758377e-02 0.0 
3.884862233624e-03 7.335857072433e-02 0.0 
4.892047763374e-03 7.316758141903e-02 0.0 
5.926416991604e-03 7.291253175389e-02 0.0 
6.993052979560e-03 7.258367038374e-02 0.0 
8.099785213055e-03 7.216419064361e-02 0.0 
9.253345178945e-03 7.163560694903e-02 0.0 
1.044964727943e-02 7.097259025175e-02 0.0 
1.168989847773e-02 7.014372471201e-02 0.0 
1.297643836343e-02 6.912153950793e-02 0.0 
1.431004170585e-02 6.786958032014e-02 0.0 
1.568738441230e-02 6.635524838683e-02 0.0 
1.707748892174e-02 6.453045148912e-02 0.0 
1.845041414923e-02 6.236560731417e-02 0.0 
1.977444156711e-02 5.979493044877e-02 0.0 
1.859387535408e-02 5.979447517537e-02 0.0 
1.722069709256e-02 6.163910261346e-02 0.0 
1.581799968430e-02 6.318099690300e-02 0.0 
1.444365252169e-02 6.448808906504e-02 0.0 
1.310573423157e-02 6.557492883279e-02 0.0 
1.180970658506e-02 6.646935946724e-02 0.0 
1.055273219470e-02 6.720189342114e-02 0.0 
9.349919448173e-03 6.779536985382e-02 0.0 
8.192701265266e-03 6.827276125727e-02 0.0 
7.080157484608e-03 6.865898636519e-02 0.0 
6.002759170239e-03 6.896090396574e-02 0.0 
4.958201130448e-03 6.919914197016e-02 0.0 
3.936738373764e-03 6.937453448017e-02 0.0 
2.936422350293e-03 6.950241134757e-02 0.0 
1.952064183166e-03 6.958305225404e-02 0.0 
9.727150134480e-04 6.960168359984e-02 0.0 
-1.340160230899e-03 -1.348479547661e-02 0.0 
4.772396623728e-03 3.368056246456e-03 0.0 
9.800898693070e-03 1.678604362437e-02 0.0 
1.398057697298e-02 2.830699830602e-02 0.0 
1.733696566121e-02 3.812712178053e-02 0.0 
1.972831932960e-02 4.607170436739e-02 0.0 
2.104814655378e-02 5.192956913283e-02 0.0 
2.130465573976e-02 5.567974720015e-02 0.0 
2.061666214978e-02 5.743010950576e-02 0.0 
1.912556424250e-02 5.739551795576e-02 0.0 
1.038751979918e-02 3.134995311750e-03 0.0 
2.623957057543e-04 3.011292219983e-03 0.0 
1.283105700809e-02 2.560763365913e-02 0.0 
8.483115640589e-03 -2.933551553924e-02 0.0 
-1.529273233455e-03 3.567210150929e-03 0.0 
1.784345209203e-02 2.782845559611e-02 0.0 
-1.682102550387e-03 4.787492539930e-02 0.0 
2.069122198817e-03 3.236642256249e-03 0.0 
2.218542736416e-02 4.417156074844e-02 0.0 
3.289518223946e-03 3.802014629901e-03 0.0 
2.251915760077e-02 5.282825725786e-02 0.0 
-1.669677486390e-03 4.007663850604e-03 0.0 
1.109476376942e-02 5.289317163045e-02 0.0 
3.759652063981e-03 4.751290211815e-03 0.0 
1.928639153344e-02 5.358248564392e-02 0.0 
-1.228604299757e-03 6.202235941987e-02 0.0 
-1.531689563689e-03 3.581222402387e-02 0.0 
3.697351533416e-03 5.617186978053e-03 0.0 
2.836628241208e-03 6.024058910027e-03 0.0 
9.951638189816e-04 6.761519180097e-03 0.0 
1.738345660815e-03 7.180868743041e-03 0.0 
2.168441019134e-03 6.215679447312e-03 0.0 
1.582302198696e-02 5.512525383763e-02 0.0 
1.053749732487e-02 5.861995096904e-02 0.0 
6.942179850729e-03 5.984901703805e-02 0.0 
6.850124596911e-04 4.007035535204e-02 0.0 
-1.323811411254e-03 4.829629900200e-03 0.0 
4.582644917718e-03 -3.669401581760e-02 0.0 
6.700544544923e-03 6.472382801703e-02 0.0 
-9.891480041590e-04 2.028881553971e-02 0.0 
3.570759384619e-03 6.083222805256e-02 0.0 
7.940705389859e-05 6.861376579311e-02 0.0 
3.702981130865e-03 6.607763915533e-03 0.0 
2.574656940076e-03 3.205789636141e-03 0.0 
3.587288713708e-03 4.201862531809e-03 0.0 
1.314693254567e-03 3.241163789819e-03 0.0 
-5.863047885785e-04 2.977494105128e-03 0.0 
1.082748731747e-02 -2.920971948574e-03 0.0 
1.312479357718e-02 5.744041865685e-02 0.0 
-2.075178803133e-03 4.508545897574e-03 0.0 
5.155286356063e-04 2.696529212590e-02 0.0 
1.258133783898e-02 4.035046298824e-02 0.0 
-1.629282677198e-03 5.558790888418e-02 0.0 
5.088001793228e-04 5.545106667351e-03 0.0 
2.053648943349e-02 3.648375949485e-02 0.0 
1.437235882889e-02 1.653046869426e-02 0.0 
2.285815009603e-02 4.950328755452e-02 0.0 
2.127716073032e-02 5.410160520517e-02 0.0 
5.408016275918e-03 -1.327042503903e-02 0.0 
8.269164924997e-04 5.158284125684e-02 0.0 
-6.454765463294e-04 3.991061662637e-03 0.0 
3.118385238470e-03 6.889348791913e-02 0.0 
2.844775574507e-04 1.244679171579e-02 0.0 
1.827597314322e-02 5.244093054400e-02 0.0 
1.905544359290e-02 4.942361156650e-02 0.0 
1.749533598601e-02 4.881352778247e-02 0.0 
1.831386120771e-02 4.513930433095e-02 0.0 
1.681560293372e-02 4.370658214397e-02 0.0 
1.729323706754e-02 4.044093626207e-02 0.0 
1.886918013388e-02 4.172523552928e-02 0.0 
1.758275566758e-02 3.713635028980e-02 0.0 
1.920522702324e-02 3.832810979239e-02 0.0 
1.569318498662e-02 3.872661833947e-02 0.0 
1.764934677365e-02 3.382786186107e-02 0.0 
1.929512175308e-02 3.492571226901e-02 0.0 
1.748196741388e-02 3.055358268290e-02 0.0 
1.911794106806e-02 3.155983694055e-02 0.0 
2.089227394843e-02 3.557231984127e-02 0.0 
2.068788669847e-02 3.210860353216e-02 0.0 
2.237177430193e-02 3.571457856134e-02 0.0 
2.214658581487e-02 3.212942772453e-02 0.0 
2.019093601437e-02 2.874918849713e-02 0.0 
2.158392507893e-02 2.868204598022e-02 0.0 
2.338148536902e-02 3.159121614797e-02 0.0 
2.275789986238e-02 2.804674449623e-02 0.0 
2.436458410835e-02 3.046408973567e-02 0.0 
2.365362283967e-02 2.681751423067e-02 0.0 
2.506405580154e-02 2.871604051477e-02 0.0 
2.424549329756e-02 2.499168405093e-02 0.0 
2.254526993645e-02 2.344610984711e-02 0.0 
2.300651365011e-02 2.160650636638e-02 0.0 
2.448523901596e-02 2.259145810817e-02 0.0 
2.309374385339e-02 1.922231936301e-02 0.0 
2.434483293854e-02 1.966272657660e-02 0.0 
2.278064612496e-02 1.637769707876e-02 0.0 
2.127421966929e-02 1.635106650707e-02 0.0 
2.076650892291e-02 1.366634964874e-02 0.0 
2.202396685482e-02 1.310543291211e-02 0.0 
1.971306395180e-02 1.048201080162e-02 0.0 
2.073889773897e-02 9.268759928332e-03 0.0 
1.809558126529e-02 6.833384576091e-03 0.0 
1.893004215134e-02 5.044013917346e-03 0.0 
1.594568239230e-02 2.998072655781e-03 0.0 
1.502636471888e-02 5.235990037646e-03 0.0 
1.258431593325e-02 1.937369701595e-03 0.0 
1.335495217429e-02 -7.336501215316e-04 0.0 
9.777460068899e-03 -1.049200119180e-03 0.0 
9.036481927894e-03 1.859971430317e-03 0.0 
6.122870795797e-03 -3.188262877718e-04 0.0 
5.487083839723e-03 2.670208799071e-03 0.0 
2.572232273395e-03 1.324354967693e-03 0.0 
3.114547960636e-03 -1.773172083045e-03 0.0 
-3.197382154271e-04 7.929326361774e-04 0.0 
-6.611942293967e-04 3.680388056506e-03 0.0 
-3.341892584921e-03 3.952425723372e-03 0.0 
-3.035931835504e-03 1.181520269760e-03 0.0 
-5.727298929091e-03 5.125648230016e-03 0.0 
-5.726824450405e-03 7.231618308729e-03 0.0 
-7.746533414218e-03 8.935924186830e-03 0.0 
-7.726383422721e-03 7.172392767154e-03 0.0 
-9.365405638907e-03 1.141852645825e-02 0.0 
-9.235946240971e-03 1.261445024478e-02 0.0 
-1.058677799761e-02 1.555560100429e-02 0.0 
-1.057803383533e-02 1.468483705546e-02 0.0 
-1.150807030912e-02 1.914516234162e-02 0.0 
-1.138292636448e-02 1.944267260688e-02 0.0 
-1.202574345908e-02 2.324744397674e-02 0.0 
-1.171952050908e-02 2.290050416064e-02 0.0 
-1.198543722194e-02 2.337173242900e-02 0.0 
-1.222983859689e-02 2.752786301749e-02 0.0 
-1.198187336875e-02 2.809046633693e-02 0.0 
-1.199242853822e-02 3.217063978512e-02 0.0 
1.906440466815e-02 1.401564210173e-02 0.0 
-1.148653008211e-02 3.311141702544e-02 0.0 
-1.128496770260e-02 2.845445419253e-02 0.0 
-1.132084323502e-02 3.703943838083e-02 0.0 
-1.162429057169e-02 3.557152124558e-02 0.0 
-1.053231385431e-02 3.832947668403e-02 0.0 
-1.025736204845e-02 4.200704355469e-02 0.0 
-9.185787433199e-03 4.358107841695e-02 0.0 
2.141735215461e-02 7.922074659924e-03 0.0 
1.940327181727e-02 2.553967191412e-02 0.0 
-8.866160646155e-03 4.692078771837e-02 0.0 
-7.541020429622e-03 4.870335627334e-02 0.0 
-7.482415212548e-03 4.495160173907e-02 0.0 
-5.571265427171e-03 5.022659871642e-02 0.0 
1.527094926118e-02 4.199493399260e-02 0.0 
1.406690468921e-02 3.668021517102e-02 0.0 
1.371748445476e-02 3.995926945006e-02 0.0 
1.242936311013e-02 3.435190869490e-02 0.0 
1.215255097349e-02 3.758566771268e-02 0.0 
-5.717211045691e-03 5.354270211440e-02 0.0 
1.575863903141e-02 2.897056374093e-02 0.0 
1.252641386004e-02 3.105221002969e-02 0.0 
2.468549761079e-02 3.431893229413e-02 0.0 
2.544304967201e-02 2.347308042869e-02 0.0 
8.237455396636e-03 4.613400706672e-03 0.0 
-9.630265169266e-03 4.490168841706e-02 0.0 
-8.198219156054e-03 4.945591240860e-02 0.0 
-8.681959609696e-03 4.700774878353e-02 0.0 
-1.091970776573e-02 1.945473930858e-02 0.0 
-1.106378105811e-02 2.223604509472e-02 0.0 
-1.011680115816e-02 1.909836837578e-02 0.0 
-1.011968910761e-02 2.118725472792e-02 0.0 
-9.070080198444e-03 1.829900255741e-02 0.0 
-9.012352452336e-03 1.970429770619e-02 0.0 
-9.797334120955e-03 2.275333146569e-02 0.0 
-8.665780607811e-03 2.062151215574e-02 0.0 
-9.208916738636e-03 2.378015210298e-02 0.0 
-7.953934922539e-03 1.699660737133e-02 0.0 
-7.734528408755e-03 1.582349463491e-02 0.0 
-8.072418159976e-03 2.104857912143e-02 0.0 
-8.404623912433e-03 2.426948007122e-02 0.0 
-7.285907580308e-03 2.098917280030e-02 0.0 
-7.432760041298e-03 2.424362130158e-02 0.0 
-8.423529780908e-03 2.768452693338e-02 0.0 
-7.271244828068e-03 2.763986704661e-02 0.0 
-8.134448273472e-03 3.123228609392e-02 0.0 
4.890284930589e-03 5.395960403427e-03 0.0 
7.396386275413e-03 7.004754899956e-03 0.0 
4.362523860207e-03 7.623548587582e-03 0.0 
6.448284192517e-03 8.665647557258e-03 0.0 
3.847551232884e-03 8.893840738133e-03 0.0 
5.537363406113e-03 9.407741226806e-03 0.0 
3.254912653608e-03 9.355017649837e-03 0.0 
1.565138455723e-03 9.306052448785e-03 0.0 
1.707259062584e-02 2.729054414324e-02 0.0 
1.046993715151e-02 -4.084202266501e-03 0.0 
1.400877347827e-02 -3.487530570456e-03 0.0 
1.102583185888e-02 -7.301217188371e-03 0.0 
1.438002776518e-02 -6.301428388680e-03 0.0 
1.137358489073e-02 -1.059564890673e-02 0.0 
1.450238392466e-02 -9.124407087849e-03 0.0 
1.159672479681e-02 -1.398059234805e-02 0.0 
8.297356492500e-03 -1.409200687361e-02 0.0 
8.593642645572e-03 -1.802530456005e-02 0.0 
5.294169041991e-03 -1.640459018046e-02 0.0 
5.794598041923e-03 -2.069392596006e-02 0.0 
2.595322186447e-03 -1.713589450990e-02 0.0 
2.104521008687e-02 2.042045270474e-02 0.0 
8.080147451675e-03 9.659332479652e-03 0.0 
6.810297770459e-03 9.832699175009e-03 0.0 
9.230009799691e-03 1.048076260486e-02 0.0 
-5.074011751383e-03 4.612069230330e-02 0.0 
-6.333148495554e-03 2.373216560895e-02 0.0 
-6.698558072116e-03 1.463225291571e-02 0.0 
-6.237713004412e-03 1.376561319063e-02 0.0 
1.267509952077e-03 9.410551311624e-03 0.0 
-3.560357062655e-03 5.510950593328e-02 0.0 
1.438289865498e-02 -1.189494571589e-02 0.0 
1.701871772517e-02 -6.041782341942e-03 0.0 
1.079987181217e-02 3.168855019280e-02 0.0 
1.060469959753e-02 3.491784080398e-02 0.0 
-5.322586129919e-03 1.259939298417e-02 0.0 
-3.854790990520e-03 5.796658362469e-02 0.0 
-7.488268255450e-03 1.804467188791e-02 0.0 
8.629089146261e-03 -2.213535521547e-02 0.0 
-6.023822539739e-03 2.709287118407e-02 0.0 
-5.149504154429e-03 2.277528133466e-02 0.0 
-1.024821023918e-02 2.610618960507e-02 0.0 
7.659728494547e-03 1.007625979796e-02 0.0 
9.957091131263e-03 1.105181057162e-02 0.0 
1.895694516433e-03 -1.300504852570e-02 0.0 
-5.966169968262e-04 -1.205735213022e-02 0.0 
3.481718440903e-04 -1.597404773400e-02 0.0 
-2.621319908207e-03 -9.055542810709e-03 0.0 
-3.536887618729e-03 -5.996073723519e-03 0.0 
-5.011862219454e-03 -2.242055508933e-03 0.0 
-3.691111165545e-03 -4.662508601064e-03 0.0 
-5.643868491930e-03 2.961261411560e-03 0.0 
-7.068410094890e-03 4.786661694520e-03 0.0 
-7.263289256415e-03 1.028721604401e-02 0.0 
-5.229523411322e-03 9.219520545280e-03 0.0 
-6.496152665372e-03 1.652075615107e-02 0.0 
-5.309576166036e-03 1.949529515887e-02 0.0 
6.184963898982e-03 -2.514357227202e-02 0.0 
2.227719133733e-02 3.936922102849e-02 0.0 
-5.651043323274e-03 1.285306263584e-02 0.0 
2.631210521352e-03 9.059935385110e-03 0.0 
9.197953164435e-03 2.874358248272e-02 0.0 
9.086492859989e-03 3.198053495577e-02 0.0 
1.025571368307e-02 3.813497240437e-02 0.0 
8.818293798718e-03 3.519012055588e-02 0.0 
7.614479782199e-03 2.879402409816e-02 0.0 
7.430944010008e-03 3.202201581094e-02 0.0 
8.412154360560e-03 3.835809728250e-02 0.0 
7.105563325576e-03 3.520449676706e-02 0.0 
7.885537656610e-03 4.146008166345e-02 0.0 
6.656059218094e-03 3.832377424957e-02 0.0 
5.860771086072e-03 3.184952260267e-02 0.0 
5.485510886887e-03 3.500516934865e-02 0.0 
6.100482154661e-03 4.137388868360e-02 0.0 
4.997849231831e-03 3.809243584438e-02 0.0 
5.454663971613e-03 4.433901993597e-02 0.0 
4.413332324947e-03 4.110079011929e-02 0.0 
3.964173637236e-03 3.464912619040e-02 0.0 
-1.721015137538e-03 5.933956668851e-02 0.0 
-3.778164618800e-04 9.814068668423e-03 0.0 
-3.939989849735e-04 9.501864532199e-03 0.0 
-7.254258585176e-03 5.109673564454e-02 0.0 
-7.518835652424e-03 4.825259726176e-02 0.0 
-8.803181339114e-03 4.429263047246e-02 0.0 
-7.425366730286e-03 4.522366827695e-02 0.0 
3.425398424426e-03 3.773947088992e-02 0.0 
3.011325704945e-03 3.106265052542e-02 0.0 
1.641539368344e-02 -7.975873087914e-03 0.0 
1.869681319341e-02 -1.523029474808e-03 0.0 
9.134496113009e-03 2.549286504811e-02 0.0 
-4.725231420911e-03 2.608830919374e-02 0.0 
-5.435066282868e-03 3.047984370609e-02 0.0 
2.509139105889e-02 2.004586161462e-02 0.0 
2.585532965857e-02 2.428933247993e-02 0.0 
2.532853819727e-02 2.044568480072e-02 0.0 
2.570188358759e-02 2.511009553744e-02 0.0 
2.612021550900e-02 2.890229251112e-02 0.0 
2.497669275961e-02 2.085183668361e-02 0.0 
-7.186332338905e-03 1.428659324020e-02 0.0 
4.694227470252e-03 2.831787831565e-02 0.0 
-7.091008640127e-03 4.042729532040e-02 0.0 
-4.245859164675e-03 4.132384327385e-02 0.0 
-3.956394138664e-03 2.142676043040e-02 0.0 
-4.342220169047e-04 9.364208330492e-03 0.0 
2.039771747265e-02 2.167795058972e-02 0.0 
1.872438247071e-02 1.894405400081e-02 0.0 
1.798020830036e-02 1.959735471827e-02 0.0 
1.625334083883e-02 1.708875460714e-02 0.0 
1.540046089059e-02 1.714339200442e-02 0.0 
1.364244964677e-02 1.482246030581e-02 0.0 
1.433889123386e-02 1.487439222425e-02 0.0 
8.077373427016e-03 1.005565457061e-02 0.0 
1.175165253822e-02 1.273353100347e-02 0.0 
3.807128406217e-03 4.406932615355e-02 0.0 
1.082973976274e-02 1.017135446321e-02 0.0 
-8.707521480533e-03 1.150536554022e-02 0.0 
-8.741725674200e-04 5.611021059456e-02 0.0 
-3.425594311847e-03 1.616597941496e-02 0.0 
-2.139280757272e-03 6.180005793971e-02 0.0 
-3.751989865389e-03 5.998217506218e-02 0.0 
-4.386568426742e-03 1.080411916126e-02 0.0 
1.261837249800e-02 1.427802612461e-02 0.0 
1.426203120381e-02 1.669204079616e-02 0.0 
2.555630337120e-02 3.019131636387e-02 0.0 
2.590690688578e-02 3.377294343487e-02 0.0 
6.048941045358e-03 8.981096937519e-03 0.0 
1.320376256517e-02 4.324287664644e-02 0.0 
9.159057715694e-03 4.439581968333e-02 0.0 
8.451087767759e-03 4.739874572525e-02 0.0 
1.126930942044e-04 6.284547251638e-02 0.0 
-2.222568380137e-03 8.453290295724e-03 0.0 
6.210873948511e-03 2.539022856556e-02 0.0 
1.935619292992e-02 -1.649329575778e-04 0.0 
2.067571137526e-02 4.630806280761e-03 0.0 
8.561063193586e-03 -2.637682268451e-02 0.0 
6.467960531184e-03 -2.995076514252e-02 0.0 
2.552218252108e-03 3.413030621242e-02 0.0 
2.176789170215e-03 2.732661098586e-02 0.0 
-8.592157296816e-03 4.135298303312e-02 0.0 
-7.123407014634e-03 4.187708391752e-02 0.0 
-3.903572018657e-03 1.083479132518e-02 0.0 
-4.767840369966e-03 2.314706584847e-02 0.0 
2.478544838670e-03 2.407932903241e-02 0.0 
-2.257181764126e-03 1.037373891109e-02 0.0 
-2.662165515344e-03 9.671942333926e-03 0.0 
-6.030137952975e-03 4.895513778280e-02 0.0 
1.748111072825e-02 -2.579057810501e-03 0.0 
1.534247706199e-02 -9.623574417109e-03 0.0 
-8.125570470259e-03 6.711494921275e-03 0.0 
-7.532494297628e-03 2.311448824109e-02 0.0 
-2.181465002891e-03 6.335236185828e-02 0.0 
-3.127631646903e-03 8.949707041729e-03 0.0 
6.150367947912e-03 2.210880641720e-02 0.0 
1.232189444485e-02 1.297465493035e-02 0.0 
1.472213231326e-02 1.449953300938e-02 0.0 
9.804315295351e-03 1.089662771871e-02 0.0 
-1.015792242324e-03 2.329422234379e-02 0.0 
-4.529944587031e-03 1.047851145840e-02 0.0 
-3.425994329170e-03 2.469204922050e-02 0.0 
1.143565303632e-02 1.344269871371e-02 0.0 
1.286144136615e-02 1.576369564229e-02 0.0 
2.139195337246e-02 5.523216620688e-03 0.0 
2.243279432253e-02 1.054179650723e-02 0.0 
2.113255312599e-02 1.027630368623e-02 0.0 
2.263599144257e-02 1.605386453701e-02 0.0 
2.043051417554e-02 4.263720619352e-02 0.0 
2.310835471280e-02 1.096751097063e-02 0.0 
2.355935536702e-02 3.911559985450e-02 0.0 
2.316505277200e-02 4.294060695307e-02 0.0 
2.422209746858e-02 4.232868614283e-02 0.0 
2.622029316808e-02 3.211892656619e-02 0.0 
2.593381040446e-02 3.681918427578e-02 0.0 
1.712015272724e-02 -1.606808904257e-03 0.0 
1.066436385302e-02 6.865299810715e-03 0.0 
-9.872583652942e-03 4.014689330553e-02 0.0 
-9.329485126877e-03 3.077519446567e-02 0.0 
-9.715860864795e-03 1.652698487383e-02 0.0 
4.866405978854e-03 2.506810318984e-02 0.0 
3.724186484129e-03 2.132523048153e-02 0.0 
6.544406349859e-03 4.741031571533e-02 0.0 
5.763786757965e-03 5.024031658409e-02 0.0 
-1.863013778298e-03 4.705812652994e-02 0.0 
-5.823965021259e-04 4.198765945454e-02 0.0 
-1.161630795265e-02 2.579792054416e-02 0.0 
-5.658070274248e-03 1.277183598169e-02 0.0 
7.490992990659e-03 2.227885959619e-02 0.0 
7.146458179860e-03 1.900986215206e-02 0.0 
8.877696758644e-03 2.223329583804e-02 0.0 
-2.536322158800e-03 9.276674955558e-03 0.0 
7.379054937468e-03 -6.846626382775e-03 0.0 
1.865588296438e-03 6.663693163960e-03 0.0 
4.166683180122e-03 -2.628751663923e-02 0.0 
1.931969827573e-02 1.611753466884e-02 0.0 
2.158344131311e-03 4.773373630379e-02 0.0 
1.797594982479e-02 2.514272415922e-02 0.0 
-2.794977491507e-03 1.973243031215e-02 0.0 
-3.136043322551e-03 1.648090955554e-02 0.0 
6.180206580344e-03 8.427393673371e-03 0.0 
2.035587189786e-02 5.017846859019e-02 0.0 
1.696385573390e-02 1.408139768005e-02 0.0 
1.650656981841e-02 1.222510871183e-02 0.0 
2.353538819339e-02 4.627203963612e-02 0.0 
2.434701547642e-02 4.533311871117e-02 0.0 
2.504660255456e-02 4.116911683593e-02 0.0 
2.491228548008e-02 4.386479965258e-02 0.0 
-9.709772007912e-03 1.271452061514e-02 0.0 
-9.917376465402e-03 1.760967739958e-02 0.0 
9.503283119290e-03 1.088518609984e-02 0.0 
9.074841429805e-03 1.016146652638e-02 0.0 
9.903594918619e-03 1.208256467988e-02 0.0 
1.120484799442e-02 1.431590460149e-02 0.0 
4.393887159736e-03 7.213143975806e-03 0.0 
4.188019076701e-03 8.016862273187e-03 0.0 
-3.254027087616e-03 6.117944629636e-02 0.0 
2.527145843686e-02 3.871827370673e-02 0.0 
4.746428972059e-03 1.846363684991e-02 0.0 
2.251464662285e-02 4.670333528613e-02 0.0 
-4.397341267906e-03 9.927201347388e-03 0.0 
-5.380364336098e-03 1.233487934409e-02 0.0 
4.907019238856e-03 -3.140597460841e-02 0.0 
2.507280190001e-03 -2.426017097773e-02 0.0 
1.711061384419e-03 2.031252069512e-02 0.0 
2.076903320823e-02 1.634551845553e-02 0.0 
2.214175728417e-02 2.177240745520e-02 0.0 
1.917500099998e-02 1.028363477556e-02 0.0 
-4.582388947405e-04 8.820985280052e-03 0.0 
1.544235452509e-03 6.107242773868e-02 0.0 
-2.110616110592e-03 1.452170509247e-02 0.0 
2.598525293934e-02 3.486197833274e-02 0.0 
1.823256774627e-03 1.666078310742e-02 0.0 
1.444838979881e-02 1.253074812430e-02 0.0 
2.439256439079e-02 1.617004879993e-02 0.0 
-3.055275514647e-03 1.062537970365e-02 0.0 
1.402264030540e-03 2.421539738492e-02 0.0 
1.037289408419e-03 1.611551389081e-02 0.0 
9.650438881228e-03 5.002468755457e-02 0.0 
8.809214667120e-03 5.300091434982e-02 0.0 
1.046350518531e-02 4.710864949247e-02 0.0 
1.106379245363e-02 -2.093559002561e-02 0.0 
1.027966586028e-02 -2.434374063295e-02 0.0 
3.621971830405e-03 2.462133778349e-02 0.0 
-6.590317712453e-03 5.375691933719e-02 0.0 
-5.594594836335e-03 5.491414786652e-02 0.0 
-5.713041605265e-03 2.945706611033e-02 0.0 
-8.314915543528e-03 2.916343750618e-02 0.0 
-9.499006318383e-03 3.741372861615e-02 0.0 
-1.064512868034e-02 3.598542371132e-02 0.0 
1.697851832506e-02 2.212436701753e-02 0.0 
1.548370873401e-02 2.128394780693e-02 0.0 
1.947560263350e-02 2.240578647575e-02 0.0 
-4.281224870352e-03 1.122625401981e-02 0.0 
-4.984875445344e-03 1.037756512857e-02 0.0 
-3.148473017267e-03 8.204237456238e-03 0.0 
3.718099807734e-03 1.821655165712e-02 0.0 
2.516349794125e-03 1.366823342118e-02 0.0 
-8.869370492647e-03 8.451777972110e-03 0.0 
-6.852817572149e-03 2.770343181276e-03 0.0 
-1.082192410579e-02 1.815705697516e-02 0.0 
4.448121741546e-03 1.526154391569e-02 0.0 
-2.267145305691e-03 1.140621081291e-02 0.0 
-3.224868790897e-03 1.341954712863e-02 0.0 
3.840016929985e-03 4.257341071639e-02 0.0 
7.950515320460e-04 3.631293401891e-02 0.0 
1.544990195157e-02 -3.225973311160e-03 0.0 
1.323397737881e-02 -1.080861454600e-02 0.0 
6.694448799203e-03 1.600192283341e-02 0.0 
8.433089940334e-03 1.904007801599e-02 0.0 
4.834937705250e-03 1.226697039723e-02 0.0 
-1.746853513586e-03 6.421359418324e-02 0.0 
1.254756849347e-02 1.281181919670e-02 0.0 
-1.894987664590e-03 7.306725358895e-03 0.0 
-1.236324231761e-03 7.909397996337e-03 0.0 
-2.108444254130e-03 6.186964375495e-03 0.0 
8.157148600245e-03 9.802759507471e-03 0.0 
5.927753829607e-03 7.670437755968e-03 0.0 
7.114057686974e-03 8.285378772037e-03 0.0 
6.268544695994e-03 -3.454584020238e-02 0.0 
7.852701845874e-04 1.920454171134e-02 0.0 
6.818981234832e-03 5.310459841441e-02 0.0 
5.973467743253e-03 -3.560890778646e-02 0.0 
5.913986757615e-03 5.597587551139e-02 0.0 
4.959412837309e-03 5.300103393804e-02 0.0 
5.115126573495e-03 5.867592364133e-02 0.0 
-9.392770157909e-04 6.604924653230e-02 0.0 
1.098217201495e-02 5.338478895761e-02 0.0 
1.188431585049e-02 4.975517244949e-02 0.0 
6.637291836275e-03 3.679647620465e-02 0.0 
3.069328287573e-03 1.147636989999e-02 0.0 
6.354067136129e-03 4.776553686588e-02 0.0 
4.404489001211e-03 5.237101402674e-02 0.0 
-3.932201071854e-03 8.906970741381e-03 0.0 
-4.850638363149e-03 1.150665341209e-02 0.0 
-3.305254836680e-03 7.622655791263e-03 0.0 
-4.225339996273e-03 1.052790736388e-02 0.0 
-5.605491577836e-03 1.436291597730e-02 0.0 
-4.807478423038e-03 1.331250622638e-02 0.0 
7.967465109843e-03 5.621160478537e-02 0.0 
-3.190908921931e-03 8.380582986106e-03 0.0 
-3.885924870855e-03 1.179325640086e-02 0.0 
-2.325769204677e-03 6.748244171960e-03 0.0 
2.388609993303e-02 4.830535285265e-02 0.0 
2.380710680354e-02 2.114506331956e-02 0.0 
2.324983423536e-02 2.683144587346e-02 0.0 
2.103818765683e-02 2.799322318862e-02 0.0 
7.430806623964e-03 9.341672266194e-03 0.0 
9.531354703060e-03 1.266338691894e-02 0.0 
-2.168626688847e-03 2.284888869257e-02 0.0 
-2.530749402950e-03 2.782725747444e-02 0.0 
4.103033044282e-03 5.606452846028e-02 0.0 
3.002305094193e-03 5.642487484527e-02 0.0 
3.283803321552e-03 5.132961213919e-02 0.0 
2.375731646944e-03 5.205287735866e-02 0.0 
2.556020466375e-03 4.679172303041e-02 0.0 
1.649925566087e-03 4.754529700969e-02 0.0 
1.951176100743e-03 4.201236139901e-02 0.0 
6.132139523561e-03 7.069851397564e-03 0.0 
1.807939636239e-02 1.630959835492e-02 0.0 
2.258694330029e-02 5.017372182100e-02 0.0 
2.814095755111e-03 6.050969551312e-03 0.0 
2.696562673691e-03 7.280382907094e-03 0.0 
2.525915587703e-02 4.152933011932e-02 0.0 
2.424502973047e-02 4.368726295113e-02 0.0 
-3.118471254365e-03 7.161257331655e-03 0.0 
2.163995764311e-02 6.619902253715e-03 0.0 
2.250219261418e-03 7.307163839899e-03 0.0 
3.561613284666e-03 -2.984297278068e-02 0.0 
7.743937537756e-03 -2.959627708025e-02 0.0 
2.325438444458e-02 1.159756314627e-02 0.0 
2.562862993944e-02 3.936363905323e-02 0.0 
2.481911517911e-02 2.591185694726e-02 0.0 
2.433201951478e-02 3.158864847075e-02 0.0 
-3.657058441396e-03 1.131726186789e-02 0.0 
2.515599707635e-03 3.006502521770e-02 0.0 
1.740141760602e-02 3.743235519104e-03 0.0 
2.827693691830e-03 4.130439673446e-02 0.0 
1.450217544284e-02 3.277333078300e-03 0.0 
-1.166588534695e-03 2.542344995524e-02 0.0 
1.948087322511e-02 3.191053125600e-03 0.0 
2.593163716886e-02 3.047262587523e-02 0.0 
1.941121597001e-02 4.019242812356e-03 0.0 
2.391939575427e-02 1.611774790508e-02 0.0 
2.080949750270e-02 3.909603747557e-02 0.0 
1.982714241523e-02 4.610245580114e-02 0.0 
2.121458925002e-02 4.673937621980e-02 0.0 
1.667179585050e-02 7.122356442925e-04 0.0 
2.497944651726e-02 3.545722170039e-02 0.0 
2.332006140197e-02 3.741504040583e-02 0.0 
2.365105988132e-02 3.530107801403e-02 0.0 
1.064688959014e-02 2.517177999431e-02 0.0 
1.025947939057e-02 2.193006560523e-02 0.0 
7.843943624498e-03 1.605138770172e-02 0.0 
9.671473742302e-03 1.879460908327e-02 0.0 
1.210593673063e-02 2.454962195639e-02 0.0 
1.156928047203e-02 2.138153622727e-02 0.0 
8.885807553989e-03 1.580785737947e-02 0.0 
1.081656861412e-02 1.830994339648e-02 0.0 
7.215215714939e-03 1.172722888886e-02 0.0 
9.761609577841e-03 1.522834178878e-02 0.0 
1.275075301551e-02 2.060855519728e-02 0.0 
1.185066457836e-02 1.774003275481e-02 0.0 
8.966058276892e-03 1.303724673568e-02 0.0 
1.471264338225e-02 2.279014986488e-02 0.0 
2.699037953379e-03 4.850742170675e-03 0.0 
2.286602185198e-02 1.240193113997e-02 0.0 
8.032043631991e-03 -3.066899020938e-02 0.0 
9.872204608125e-03 -2.121693923984e-02 0.0 
2.545564824998e-02 3.273220928125e-02 0.0 
3.565633296704e-03 5.843652328384e-03 0.0 
3.115463775100e-03 6.074213855669e-03 0.0 
1.721293605325e-02 -3.901389699541e-03 0.0 
3.689073892738e-03 4.465143178522e-03 0.0 
2.187288288453e-02 4.307187982164e-02 0.0 
1.152130730458e-02 -1.745674880774e-02 0.0 
3.508933839269e-03 4.046813360368e-03 0.0 
1.242240695818e-02 2.777011488366e-02 0.0 
1.420339738246e-02 3.016496170837e-02 0.0 
1.423476309876e-02 3.342507264724e-02 0.0 
2.533364251040e-03 5.892623031323e-03 0.0 
1.117428648520e-02 4.404238298682e-02 0.0 
2.266757792328e-03 3.109370533871e-03 0.0 
9.379980115842e-03 8.696825036812e-03 0.0 
1.251833800110e-02 9.060446398747e-03 0.0 
1.391400929367e-02 7.329485888555e-03 0.0 
1.348199462738e-02 2.378611155876e-02 0.0 
7.229008989474e-04 2.944813430178e-03 0.0 
9.249341900210e-04 5.267529647143e-03 0.0 
8.380563424629e-05 5.325059225555e-03 0.0 
7.354016355468e-04 7.259801038330e-03 0.0 
-1.791455024199e-04 3.007769513067e-03 0.0 
3.460457780687e-03 4.904213060128e-03 0.0 
3.361610805336e-03 4.478122157900e-03 0.0 
-6.035885924976e-03 3.082060423190e-04 0.0 
-4.340657429504e-03 -2.926998355640e-03 0.0 
-5.000520000557e-03 -8.757862988116e-05 0.0 
-2.067966211107e-03 -4.944174908291e-03 0.0 
-1.358387196635e-03 -8.362315535304e-03 0.0 
1.248098300907e-03 -9.187186594007e-03 0.0 
6.576346018873e-04 -5.649950632033e-03 0.0 
4.777259329462e-03 -1.239583516664e-02 0.0 
1.261097602679e-02 1.706737765744e-02 0.0 
-9.084867345239e-04 3.090240105248e-03 0.0 
-8.799311368422e-03 1.643633852847e-02 0.0 
-8.152316632007e-03 1.417864848032e-02 0.0 
-8.860116633124e-03 1.357782822063e-02 0.0 
-1.090203761689e-02 3.822480700170e-02 0.0 
-1.152125116493e-02 3.387684784700e-02 0.0 
-1.107122806591e-02 3.192028625998e-02 0.0 
-9.938779802097e-03 4.264338530415e-02 0.0 
1.681311492593e-02 1.655033887776e-02 0.0 
-1.242146310371e-03 3.249210517188e-03 0.0 
-6.163213906822e-04 8.122939727758e-03 0.0 
-1.206774994993e-02 3.105374129832e-02 0.0 
1.447668418918e-02 5.635947335967e-02 0.0 
1.486670313484e-02 5.163550681885e-02 0.0 
1.609923251544e-02 5.044916051086e-02 0.0 
1.483858366265e-02 4.607200784929e-02 0.0 
1.336806004580e-02 5.213177752576e-02 0.0 
-8.148155023430e-03 3.816646579111e-02 0.0 
-6.660520306575e-03 3.828924950706e-02 0.0 
-5.530245186765e-03 4.176688939704e-02 0.0 
-5.093952365187e-03 3.783633358153e-02 0.0 
-3.878199141669e-03 4.107175482953e-02 0.0 
-4.207933720026e-03 4.495610671231e-02 0.0 
-3.468875853521e-03 3.688043018503e-02 0.0 
-2.250329781381e-03 4.033452311690e-02 0.0 
1.179713788026e-02 5.814275951097e-02 0.0 
9.216925240249e-03 -1.664291241409e-02 0.0 
4.085628164905e-03 -9.854757854504e-03 0.0 
5.128745569121e-03 2.121647788089e-03 0.0 
7.451327203103e-04 -3.629753012433e-03 0.0 
9.295297159957e-04 -1.382724117456e-02 0.0 
-1.959784567014e-03 -7.079724866676e-03 0.0 
-1.918383661070e-04 -1.575182747452e-02 0.0 
3.659514494627e-03 -2.183471041642e-02 0.0 
1.181237411748e-02 7.904928119230e-03 0.0 
6.004231869502e-03 1.213158410673e-02 0.0 
1.243474345551e-02 1.722436597857e-02 0.0 
6.834605316353e-03 2.093882280151e-02 0.0 
1.021360937042e-03 1.611770577866e-02 0.0 
-3.316027354729e-03 3.583820063605e-02 0.0 
-1.219750177588e-03 5.638735220022e-03 0.0 
-1.683432029068e-03 5.187705916311e-02 0.0 
-3.238067512043e-03 5.308111263793e-02 0.0 
-3.081037526858e-03 5.644812434737e-02 0.0 
-4.813568687238e-03 5.335725338953e-02 0.0 
-3.155987370187e-03 4.973808358569e-02 0.0 
-1.480985306888e-03 5.897574661483e-02 0.0 
-2.759153995972e-03 5.930905930068e-02 0.0 
4.926458796297e-03 6.722145641590e-02 0.0 
2.653348087754e-03 6.841607652707e-02 0.0 
1.332020209968e-03 6.980072930503e-02 0.0 
1.060410651427e-03 6.888117677732e-02 0.0 
1.768487110104e-03 6.718320730872e-02 0.0 
3.880966781820e-03 6.626986100818e-02 0.0 
5.019847207479e-03 6.332479601692e-02 0.0 
8.356835548123e-03 6.142777131826e-02 0.0 
5.953575983258e-03 5.969017764336e-02 0.0 
2.750122326320e-03 6.142001757742e-02 0.0 
9.814708059045e-03 5.755168237477e-02 0.0 
6.279545624752e-04 3.353986234993e-02 0.0 
1.192692789198e-03 3.013859453927e-02 0.0 
-1.750986912371e-03 3.812825887800e-03 0.0 
9.200846771005e-03 5.897133511289e-02 0.0 
1.278279373189e-02 3.342197821392e-02 0.0 
9.529005286949e-04 8.145820595934e-03 0.0 
1.386069540226e-03 6.671772489566e-03 0.0 
1.141321848792e-03 6.502915552344e-03 0.0 
-7.328656823888e-04 1.464434523334e-02 0.0 
-1.184012541507e-03 1.184193537974e-02 0.0 
5.253502530934e-04 7.959771501413e-03 0.0 
-9.140733109288e-03 3.948546354738e-02 0.0 
7.058591778610e-03 1.319150505260e-02 0.0 
2.657983953744e-03 2.076321152994e-02 0.0 
1.385476990076e-02 -1.451322639566e-02 0.0 
-9.445046895302e-03 2.312903775420e-02 0.0 
-3.960928210506e-03 2.937789208158e-02 0.0 
-9.431700536038e-03 2.717326920176e-02 0.0 
-4.225960420158e-03 1.819269554732e-02 0.0 
-6.819851059109e-03 3.111095756495e-02 0.0 
-6.349691491058e-03 2.045739575844e-02 0.0 
-7.946323727562e-04 5.650260065509e-03 0.0 
-7.725752092031e-04 6.485426713320e-02 0.0 
7.256595995962e-03 4.447948457904e-02 0.0 
4.777751836709e-03 4.722883748037e-02 0.0 
4.388632658496e-03 3.151643881553e-02 0.0 
-7.237735583535e-03 5.164056479601e-02 0.0 
-5.897657011374e-03 4.523806729297e-02 0.0 
-2.920489831792e-03 5.143113890235e-02 0.0 
6.548266936315e-03 7.620295453572e-03 0.0 
2.461368429665e-02 3.835295164153e-02 0.0 
-1.031736842126e-02 1.620220907851e-02 0.0 
-1.079564150469e-02 4.022818325709e-02 0.0 
-1.045229780959e-02 3.391572523343e-02 0.0 
-8.511272785868e-03 1.703777370846e-02 0.0 
2.382922903552e-02 1.628780795135e-02 0.0 
-1.210309527046e-02 2.679520610369e-02 0.0 
-7.858733888209e-03 1.774323966769e-02 0.0 
3.380034173408e-03 2.787316501671e-02 0.0 
1.131510789148e-02 4.732566150227e-02 0.0 
-6.833272665550e-03 1.515564864421e-02 0.0 
-1.081445623377e-02 2.446074641001e-02 0.0 
9.770092132093e-03 4.130851097369e-02 0.0 
4.588463709623e-03 9.380564214508e-03 0.0 
-3.871625304011e-03 1.589008856791e-03 0.0 
6.110443598200e-03 2.864984906866e-02 0.0 
5.589001188171e-03 1.594562712017e-02 0.0 
1.257445401782e-02 4.651033904440e-02 0.0 
5.925041902808e-04 5.236882124600e-02 0.0 
7.685433177262e-03 5.038043258004e-02 0.0 
-3.354269738860e-03 8.364537492301e-03 0.0 
1.081814639449e-02 2.842298528068e-02 0.0 
-5.488409720981e-03 5.603981441166e-02 0.0 
2.137731649167e-03 4.210704189943e-03 0.0 
2.543088832894e-02 2.636576194356e-02 0.0 
2.040165968954e-02 5.399573532415e-02 0.0 
2.720621800928e-03 1.766974799016e-02 0.0 
1.834102679370e-02 1.151296132648e-02 0.0 
9.718369505497e-04 8.746995181831e-03 0.0 
1.770605920566e-03 8.416072423471e-03 0.0 
-4.923894726362e-03 5.763500507175e-02 0.0 
-6.238055985165e-03 1.501211182972e-02 0.0 
1.167117928161e-02 4.509611824217e-03 0.0 
4.899396565608e-03 2.182206703654e-02 0.0 
1.697446140944e-02 1.972421973646e-02 0.0 
6.764716962927e-03 -3.458307179496e-03 0.0 
7.640506624416e-03 2.554469025292e-02 0.0 
-7.511779161290e-03 1.041025486957e-02 0.0 
5.521373930929e-03 9.279556547021e-03 0.0 
2.543619553001e-02 3.693106308476e-02 0.0 
2.175619789951e-02 2.472752581177e-02 0.0 
1.869809040879e-02 2.830449295564e-02 0.0 
2.135409885878e-02 1.862611799377e-02 0.0 
-2.822065547493e-03 3.263142716577e-02 0.0 
-6.667505786588e-03 1.528813082319e-02 0.0 
3.509809417489e-03 -2.161189027813e-02 0.0 
2.445004873399e-02 1.608870133472e-02 0.0 
1.172262086304e-02 4.082284358342e-02 0.0 
1.093530539605e-02 1.217975768397e-02 0.0 
3.451616663892e-03 1.465405956859e-02 0.0 
2.606348823749e-02 2.765151564037e-02 0.0 
-6.889436601299e-03 1.790897362809e-02 0.0 
5.957677919211e-03 1.902715866927e-02 0.0 
-1.176598737352e-02 2.970054375803e-02 0.0 
-5.192941910416e-04 6.693544331254e-02 0.0 
1.304235639565e-02 -1.683461844300e-02 0.0 
7.886603976173e-03 -1.039394560171e-02 0.0 
1.698076139664e-02 8.537631074907e-03 0.0 
-1.113337858370e-02 2.806261909114e-02 0.0 
5.707216625615e-03 1.216096718184e-02 0.0 
-6.108491116061e-03 1.733920156991e-02 0.0 
-4.654186497677e-03 1.206173772059e-02 0.0 
8.091624597966e-03 -4.596608507402e-03 0.0 
2.159954887665e-02 5.034257153737e-02 0.0 
-5.195848216609e-03 1.635202521627e-02 0.0 
-7.984808702787e-04 6.146314578301e-03 0.0 
3.614860258751e-03 8.628587080655e-03 0.0 
-2.547217973373e-03 4.411950552265e-02 0.0 
6.313705458634e-03 7.260142753749e-03 0.0 
2.427054824296e-02 4.615712658359e-02 0.0 
-4.206794288842e-03 1.498615488463e-02 0.0 
-1.934621365454e-03 1.030505357028e-02 0.0 
1.960564795875e-02 1.423174252160e-03 0.0 
2.559946726458e-03 6.099504388453e-02 0.0 
-2.739914240935e-03 9.371007471432e-03 0.0 
-1.599600768216e-03 9.414747631684e-03 0.0 
1.919355609809e-02 1.777761136539e-02 0.0 
-3.381831651227e-03 6.318349810012e-03 0.0 
2.203227890204e-02 5.364158711427e-02 0.0 
-1.034739133097e-02 2.970990382711e-02 0.0 
2.069420923711e-02 2.543151055329e-02 0.0 
2.261952847020e-03 5.843769164851e-03 0.0 
-3.239290740100e-04 8.418730404612e-03 0.0 
1.594659723603e-02 3.557105770585e-02 0.0 
-1.009620022424e-02 3.350534383291e-02 0.0 
1.183826544675e-02 1.135861782526e-02 0.0 
2.381016280016e-03 6.469736774316e-02 0.0 
2.333432251055e-02 4.949742747308e-02 0.0 
-8.894686005784e-03 3.444632686484e-02 0.0 
4.233739237757e-03 -8.640597161941e-03 0.0 
-5.468208524663e-03 8.954983931818e-03 0.0 
4.273157485362e-03 6.275343165824e-03 0.0 
-7.539170592473e-03 3.475938537525e-02 0.0 
3.673943558938e-03 -5.054943005790e-03 0.0 
-6.085086629841e-03 3.450656558543e-02 0.0 
2.285178285130e-02 5.124232653330e-02 0.0 
1.594396672718e-02 3.218291302479e-02 0.0 
-4.526880309175e-03 3.377198817130e-02 0.0 
1.832678191312e-02 2.252791503068e-02 0.0 
2.861585325940e-03 5.719110686629e-02 0.0 
1.706370594669e-02 1.554616936027e-02 0.0 
-1.684049656742e-03 1.740817624943e-02 0.0 
-1.158908824089e-02 2.336605029094e-02 0.0 
-7.058596936311e-03 1.161983183789e-02 0.0 
1.394897604177e-02 2.693253285425e-02 0.0 
2.261504812219e-02 4.705137602886e-02 0.0 
-6.277935818302e-03 1.243904597395e-02 0.0 
1.573893106158e-02 1.932904629190e-02 0.0 
1.478474739942e-02 1.372303104367e-02 0.0 
1.554355564517e-02 9.972168254352e-03 0.0 
-5.436216073928e-03 1.261142616298e-02 0.0 
2.401833402155e-02 4.069548983815e-02 0.0 
-8.756228660645e-03 3.482887330252e-02 0.0 
-6.481577057899e-03 3.529068643112e-02 0.0 
1.599368195478e-04 -2.294157714464e-03 0.0 
1.426521213269e-02 1.842376605269e-02 0.0 
2.528066677669e-04 6.719688221600e-02 0.0 
1.532360128006e-02 2.576376948424e-02 0.0 
-2.198935817384e-03 2.981244400759e-02 0.0 
-2.619756271746e-03 -1.784804057286e-03 0.0 
1.021288575362e-02 1.129851509288e-02 0.0 
7.489538848546e-04 4.606244357642e-02 0.0 
-5.443540048726e-03 2.621365591248e-03 0.0 
-9.066096967161e-04 6.472047139548e-02 0.0 
-7.426533688646e-03 5.024016915778e-03 0.0 
1.371134661457e-02 1.098672688399e-02 0.0 
-9.272444107667e-03 1.003465703777e-02 0.0 
-1.032811703811e-02 1.370549462768e-02 0.0 
1.842550516038e-03 1.367540454391e-02 0.0 
-1.134519939177e-02 1.867931555247e-02 0.0 
2.604154181013e-04 6.613905044555e-03 0.0 
-5.348653571646e-04 5.281767080326e-03 0.0 
9.727452007615e-04 5.721890727383e-02 0.0 
2.105076181303e-02 4.138802535779e-02 0.0 
6.106222248868e-03 -3.946348920899e-02 0.0 
2.267526172530e-02 3.213463096273e-02 0.0 
-1.074945931207e-02 2.318144742157e-02 0.0 
1.642812669959e-02 2.423758634781e-02 0.0 
2.020957720594e-03 5.691629483705e-02 0.0 
-1.007099850533e-02 2.881994717441e-02 0.0 
6.623727784791e-03 9.884360714365e-03 0.0 
2.854265621029e-03 3.387793533606e-03 0.0 
1.348908395339e-03 3.646203302187e-02 0.0 
2.043452757402e-03 8.095514483700e-03 0.0 
1.235261737525e-02 1.224486950571e-02 0.0 
3.890980965256e-04 1.995175249197e-02 0.0 
5.927803753801e-03 6.083265148362e-02 0.0 
7.465336185530e-03 2.905638970311e-02 0.0 
-1.351615997619e-03 3.048420413909e-02 0.0 
1.866481997458e-02 3.280982583012e-02 0.0 
1.956089046029e-02 2.209096342293e-02 0.0 
1.623750069644e-02 9.970765770753e-03 0.0 
-3.952820367356e-03 5.870912723516e-02 0.0 
1.311371230166e-03 6.691139376670e-03 0.0 
1.623702343478e-02 2.234951504861e-02 0.0 
1.720171008891e-03 5.431140484964e-03 0.0 
9.861135768319e-03 5.497159273188e-02 0.0 
1.034409830829e-02 1.138397300609e-02 0.0 
1.246696273896e-02 1.003360815476e-02 0.0 
4.088632869927e-03 1.253708705944e-02 0.0 
5.052283130467e-03 6.306844724482e-03 0.0 
-1.667814038080e-03 3.756550189322e-03 0.0 
7.802067180385e-03 9.196067062739e-03 0.0 
1.247627684574e-02 -4.163476248378e-03 0.0 
1.382775131323e-02 4.800816728025e-02 0.0 
6.669278246624e-03 7.998542956216e-03 0.0 
1.818334995481e-03 3.107749911155e-02 0.0 
-1.497769770900e-03 3.903818316787e-03 0.0 
1.226768249596e-02 5.422647021999e-02 0.0 
1.142988228347e-03 1.285331451077e-02 0.0 
1.762452282350e-03 -2.056268029400e-02 0.0 
5.845263141907e-04 1.251914918702e-02 0.0 
1.375520626277e-02 1.980346603785e-02 0.0 
4.124361053874e-03 5.000908962332e-02 0.0 
1.615510672175e-02 4.628681111040e-02 0.0 
-1.406846062225e-03 9.129080391475e-03 0.0 
6.150480516743e-03 1.069849805034e-02 0.0 
1.032644138825e-02 -1.336358586882e-02 0.0 
2.107510784497e-03 3.706564815604e-02 0.0 
-6.316300722284e-03 5.146543327726e-02 0.0 
5.097792606837e-03 -3.116050437433e-02 0.0 
-3.109696541625e-03 6.953539717135e-03 0.0 
1.084461816800e-02 1.522734101769e-02 0.0 
-2.191611125720e-03 8.985216216000e-03 0.0 
5.199524846274e-04 6.964973601428e-02 0.0 
8.256755651899e-03 4.321160916972e-02 0.0 
-2.314727001282e-03 5.779907997997e-03 0.0 
6.362643105602e-03 8.406478483784e-03 0.0 
-1.795439676066e-03 -1.133556008810e-02 0.0 
1.417412192794e-03 5.152193718633e-03 0.0 
6.917483801656e-03 -2.251097390379e-02 0.0 
8.078804677078e-03 6.074144447102e-02 0.0 
6.984897839537e-03 5.578840517942e-02 0.0 
-1.321134211355e-03 4.146342418229e-03 0.0 
2.589139216222e-03 1.205751285450e-02 0.0 
-4.447392918502e-03 5.058172579578e-02 0.0 
1.700339205721e-02 5.359918806055e-02 0.0 
-2.279615772191e-03 6.206245751978e-02 0.0 
8.376442833658e-03 9.489865468902e-03 0.0 
2.991569760149e-03 2.397302394549e-02 0.0 
1.818361191547e-03 1.152574711580e-02 0.0 
-1.246165290916e-03 5.104077609119e-03 0.0 
4.602228491048e-03 1.052791127613e-02 0.0 
1.173652224904e-03 2.274908717739e-03 0.0 
6.552404395517e-03 -3.497202915440e-02 0.0 
4.801069145446e-03 5.731655822922e-03 0.0 
-3.233503072708e-04 6.979827711213e-03 0.0 
4.451609380619e-03 6.133761049194e-02 0.0 
5.552999028999e-03 1.085628155705e-02 0.0 
-4.210960896128e-03 5.645098842732e-02 0.0 
4.550157082906e-04 5.973114804860e-02 0.0 
1.118895385577e-04 5.870804733917e-03 0.0 
1.566201420320e-03 6.946964361316e-02 0.0 
7.507046200153e-04 6.166853903554e-02 0.0 
-2.072859028106e-04 4.343605190651e-03 0.0 
7.086226024794e-04 6.558234926630e-02 0.0 
1.608958969887e-03 5.320533856457e-02 0.0 
6.045206648262e-03 8.451889442776e-03 0.0 
-1.111434827364e-03 4.376557192879e-02 0.0 
9.009006515800e-04 2.463617415706e-02 0.0 
-1.485209722527e-03 1.516000249410e-03 0.0 
8.194323676598e-03 -3.775858142533e-02 0.0 
1.291063948243e-03 4.298258969604e-02 0.0 
4.005467721066e-03 5.473139863112e-03 0.0 
3.738154891786e-03 1.039712865945e-02 0.0 
3.313628972258e-03 4.691612270437e-02 0.0 
1.173381900863e-02 -1.720430009975e-02 0.0 
8.411736596355e-03 1.160823313197e-02 0.0 
-4.617507866343e-03 4.763033713730e-02 0.0 
8.890527504899e-03 1.050504582892e-02 0.0 
1.630196705884e-03 6.811547531517e-03 0.0 
2.743391088836e-03 -2.107848881407e-02 0.0 
-9.438970046816e-04 3.952641990633e-02 0.0 
7.911351341268e-03 5.156272099279e-02 0.0 
-2.942191856544e-03 7.091772712922e-03 0.0 
-3.047378142695e-03 4.679537999781e-02 0.0 
-3.455532503461e-03 -5.841762737799e-03 0.0 
1.431202276274e-04 8.870667138274e-02 0.0 
3.515229523793e-03 9.033592102928e-03 0.0 
2.053967299916e-04 8.827596104417e-02 0.0 
8.896741369165e-03 2.171748534084e-02 0.0 
2.463008754679e-04 8.735005463697e-02 0.0 
1.321258444324e-02 3.264642084841e-02 0.0 
3.110129846308e-04 8.593751723953e-02 0.0 
1.662007625829e-02 4.196231153609e-02 0.0 
3.410069222145e-04 8.403320536405e-02 0.0 
1.897821403730e-02 4.932100987248e-02 0.0 
4.016048699360e-04 8.165057551771e-02 0.0 
2.025717698295e-02 5.463490709014e-02 0.0 
4.131532489448e-04 7.879540395518e-02 0.0 
2.046948263626e-02 5.787029024286e-02 0.0 
4.638026743900e-04 7.547489031297e-02 0.0 
1.975553581932e-02 5.918790547810e-02 0.0 
4.658307552255e-04 7.169654970493e-02 0.0 
1.826962242678e-02 5.881953443172e-02 0.0 
4.996649698162e-04 6.747199276647e-02 0.0 

TENSORS node_materi_stress float
-1.225422168003e+01 3.640593665508e-02 0.0 
3.640593665508e-02 -8.449980834077e+00 0.0 
0.0 0.0 -4.976992331537e+00 
-8.882743951866e+01 4.904964995763e-01 0.0 
4.904964995763e-01 -1.961593755766e+02 0.0 
0.0 0.0 -8.509604452858e+01 
-1.688580835736e+02 -5.107537709816e-01 0.0 
-5.107537709816e-01 -3.945189090055e+02 0.0 
0.0 0.0 -1.686130977737e+02 
-1.650004544689e+02 5.459880370799e-01 0.0 
5.459880370799e-01 -3.853390003628e+02 0.0 
0.0 0.0 -1.647018364495e+02 
-1.238986845445e+01 -1.202378786469e-01 0.0 
-1.202378786469e-01 -2.069064124071e+01 0.0 
0.0 0.0 -7.703260641536e+00 
-1.574482544716e+01 -4.730495448782e-01 0.0 
-4.730495448782e-01 -4.003684101891e+01 0.0 
0.0 0.0 -1.405674192906e+01 
-1.986870675921e+01 -5.526212939582e-01 0.0 
-5.526212939582e-01 -5.812619519978e+01 0.0 
0.0 0.0 -2.220606823380e+01 
-3.133847195046e+01 -6.830618501183e-01 0.0 
-6.830618501183e-01 -7.890266928796e+01 0.0 
0.0 0.0 -3.191899505186e+01 
-4.797082080881e+01 -6.787485422811e-01 0.0 
-6.787485422811e-01 -9.926910851450e+01 0.0 
0.0 0.0 -4.134244935446e+01 
-6.260268827204e+01 -6.958880646429e-01 0.0 
-6.958880646429e-01 -1.196064077268e+02 0.0 
0.0 0.0 -5.065981117719e+01 
-7.548655090334e+01 -7.396871857806e-01 0.0 
-7.396871857806e-01 -1.400839165567e+02 0.0 
0.0 0.0 -5.989367399666e+01 
-8.678184506376e+01 -7.289480385440e-01 0.0 
-7.289480385440e-01 -1.606447193321e+02 0.0 
0.0 0.0 -6.903384159924e+01 
-9.655215286959e+01 -7.158366980321e-01 0.0 
-7.158366980321e-01 -1.812643501792e+02 0.0 
0.0 0.0 -7.809945766557e+01 
-1.051490459877e+02 -7.370753414633e-01 0.0 
-7.370753414633e-01 -2.020565821433e+02 0.0 
0.0 0.0 -8.710643627145e+01 
-1.126053526535e+02 -8.223165114698e-01 0.0 
-8.223165114698e-01 -2.233398034489e+02 0.0 
0.0 0.0 -9.618643769043e+01 
-1.191899662182e+02 -7.388046394331e-01 0.0 
-7.388046394331e-01 -2.438632186161e+02 0.0 
0.0 0.0 -1.050292438468e+02 
-1.246564116604e+02 -9.137620919449e-01 0.0 
-9.137620919449e-01 -2.623910224272e+02 0.0 
0.0 0.0 -1.129884603323e+02 
-1.297293807621e+02 -4.931681412667e-01 0.0 
-4.931681412667e-01 -2.827295968159e+02 0.0 
0.0 0.0 -1.215699881096e+02 
-1.345063185754e+02 -4.215240081867e-01 0.0 
-4.215240081867e-01 -3.034576874890e+02 0.0 
0.0 0.0 -1.303429742773e+02 
-1.404915506402e+02 -3.982815300666e-01 0.0 
-3.982815300666e-01 -3.234557422690e+02 0.0 
0.0 0.0 -1.387780324196e+02 
-1.485340925585e+02 -3.471671691177e-01 0.0 
-3.471671691177e-01 -3.435437566138e+02 0.0 
0.0 0.0 -1.472233547517e+02 
-1.566324287481e+02 -4.048032568609e-01 0.0 
-4.048032568609e-01 -3.637854641778e+02 0.0 
0.0 0.0 -1.557253678778e+02 
-1.644859554577e+02 -4.922788079120e-01 0.0 
-4.922788079120e-01 -3.831728069869e+02 0.0 
0.0 0.0 -1.638976287334e+02 
-1.654440504278e+02 4.307277872774e-01 0.0 
4.307277872774e-01 -3.864751956665e+02 0.0 
0.0 0.0 -1.651757738283e+02 
-1.648941666179e+02 7.470930039637e-01 0.0 
7.470930039637e-01 -3.854820038086e+02 0.0 
0.0 0.0 -1.647128511279e+02 
-1.650485894432e+02 1.337693902183e+00 0.0 
1.337693902183e+00 -3.858225014523e+02 0.0 
0.0 0.0 -1.648613272686e+02 
-1.650392260462e+02 1.311589757267e+00 0.0 
1.311589757267e+00 -3.859370535811e+02 0.0 
0.0 0.0 -1.648928838882e+02 
-1.648838016670e+02 1.801423037017e+00 0.0 
1.801423037017e+00 -3.854654208729e+02 0.0 
0.0 0.0 -1.647047667620e+02 
-1.652666865772e+02 2.132137281634e+00 0.0 
2.132137281634e+00 -3.863089925681e+02 0.0 
0.0 0.0 -1.650727037436e+02 
-1.656275511839e+02 2.494921938473e+00 0.0 
2.494921938473e+00 -3.868164153064e+02 0.0 
0.0 0.0 -1.653331899471e+02 
-1.654392942124e+02 2.923754774700e+00 0.0 
2.923754774700e+00 -3.867954991438e+02 0.0 
0.0 0.0 -1.652704380069e+02 
-1.659616645586e+02 3.407378618673e+00 0.0 
3.407378618673e+00 -3.878857787400e+02 0.0 
0.0 0.0 -1.657542329896e+02 
-1.660377151341e+02 3.472747699467e+00 0.0 
3.472747699467e+00 -3.882524924229e+02 0.0 
0.0 0.0 -1.658870622671e+02 
-1.659946640823e+02 3.935396303610e+00 0.0 
3.935396303610e+00 -3.880644839716e+02 0.0 
0.0 0.0 -1.658177444162e+02 
-1.664174413372e+02 4.265834055389e+00 0.0 
4.265834055389e+00 -3.891375246386e+02 0.0 
0.0 0.0 -1.662664897927e+02 
-1.669678275621e+02 4.561505072331e+00 0.0 
4.561505072331e+00 -3.901157656358e+02 0.0 
0.0 0.0 -1.667250779594e+02 
-1.668696584605e+02 4.856762903161e+00 0.0 
4.856762903161e+00 -3.903181659914e+02 0.0 
0.0 0.0 -1.667563473356e+02 
-1.671218048580e+02 5.140352722510e+00 0.0 
5.140352722510e+00 -3.906686558507e+02 0.0 
0.0 0.0 -1.669371382126e+02 
-1.669306740194e+02 5.271308593397e+00 0.0 
5.271308593397e+00 -3.906247160018e+02 0.0 
0.0 0.0 -1.668666170064e+02 
-1.671401894297e+02 5.507885231120e+00 0.0 
5.507885231120e+00 -3.911716732727e+02 0.0 
0.0 0.0 -1.670935588107e+02 
-1.678632806417e+02 5.643742140878e+00 0.0 
5.643742140878e+00 -3.925832430622e+02 0.0 
0.0 0.0 -1.677339571112e+02 
-1.682119258817e+02 5.763047557651e+00 0.0 
5.763047557651e+00 -3.936847259012e+02 0.0 
0.0 0.0 -1.681689955349e+02 
-1.686177359324e+02 5.803758300176e+00 0.0 
5.803758300176e+00 -3.947615197797e+02 0.0 
0.0 0.0 -1.686137767136e+02 
-1.688066201383e+02 5.689287282543e+00 0.0 
5.689287282543e+00 -3.953695603745e+02 0.0 
0.0 0.0 -1.688528541538e+02 
-1.690188856919e+02 5.665077040626e+00 0.0 
5.665077040626e+00 -3.958740346181e+02 0.0 
0.0 0.0 -1.690678760930e+02 
-1.691876970645e+02 5.484570614889e+00 0.0 
5.484570614889e+00 -3.964762561574e+02 0.0 
0.0 0.0 -1.692991859666e+02 
-1.693425845160e+02 5.266569880108e+00 0.0 
5.266569880108e+00 -3.969689868510e+02 0.0 
0.0 0.0 -1.694934714101e+02 
-1.695713914469e+02 4.972181799701e+00 0.0 
4.972181799701e+00 -3.976149499637e+02 0.0 
0.0 0.0 -1.697559024232e+02 
-1.698752181860e+02 4.645154748953e+00 0.0 
4.645154748953e+00 -3.982489611300e+02 0.0 
0.0 0.0 -1.700372537948e+02 
-1.699615296529e+02 4.273466503947e+00 0.0 
4.273466503947e+00 -3.986665669889e+02 0.0 
0.0 0.0 -1.701884289926e+02 
-1.701705183996e+02 3.874865312975e+00 0.0 
3.874865312975e+00 -3.989761362010e+02 0.0 
0.0 0.0 -1.703439963802e+02 
-1.700655028011e+02 3.475928185100e+00 0.0 
3.475928185100e+00 -3.989409151307e+02 0.0 
0.0 0.0 -1.703019253795e+02 
-1.704981205255e+02 3.213501509528e+00 0.0 
3.213501509528e+00 -3.997702841216e+02 0.0 
0.0 0.0 -1.706805213942e+02 
-1.704118233867e+02 2.529366098501e+00 0.0 
2.529366098501e+00 -3.997231809508e+02 0.0 
0.0 0.0 -1.706405013013e+02 
-1.700578906396e+02 2.229670198016e+00 0.0 
2.229670198016e+00 -3.989781873972e+02 0.0 
0.0 0.0 -1.703108234110e+02 
-1.701604794870e+02 1.809370618427e+00 0.0 
1.809370618427e+00 -3.991808318565e+02 0.0 
0.0 0.0 -1.704023934030e+02 
-1.703416875708e+02 1.393004545516e+00 0.0 
1.393004545516e+00 -3.996429896030e+02 0.0 
0.0 0.0 -1.705954031521e+02 
-1.704788516639e+02 9.038685323475e-01 0.0 
9.038685323475e-01 -3.999047208332e+02 0.0 
0.0 0.0 -1.707150717491e+02 
-1.704555172240e+02 4.717326513111e-01 0.0 
4.717326513111e-01 -3.999588794309e+02 0.0 
0.0 0.0 -1.707243189965e+02 
-1.705825097862e+02 8.250623500547e-03 0.0 
8.250623500547e-03 -3.999949215214e+02 0.0 
0.0 0.0 -1.707732293923e+02 
-1.703087751493e+02 -3.991070311759e-01 0.0 
-3.991070311759e-01 -3.994647241758e+02 0.0 
0.0 0.0 -1.705320497975e+02 
-1.701842901911e+02 -7.019641004349e-01 0.0 
-7.019641004349e-01 -3.988772186494e+02 0.0 
0.0 0.0 -1.703184526521e+02 
-1.697537617054e+02 -1.002626140531e+00 0.0 
-1.002626140531e+00 -3.979998510001e+02 0.0 
0.0 0.0 -1.699260838116e+02 
-1.697292108738e+02 -1.111075474818e+00 0.0 
-1.111075474818e+00 -3.978203031173e+02 0.0 
0.0 0.0 -1.698648541973e+02 
-1.700891837921e+02 -1.312920170783e+00 0.0 
-1.312920170783e+00 -3.982117566469e+02 0.0 
0.0 0.0 -1.700902821317e+02 
-1.701604235016e+02 -1.245277592543e+00 0.0 
-1.245277592543e+00 -3.980492559740e+02 0.0 
0.0 0.0 -1.700629038427e+02 
-1.686752854387e+02 -1.182358034957e+00 0.0 
-1.182358034957e+00 -3.948710009588e+02 0.0 
0.0 0.0 -1.686638859193e+02 
-1.695995467492e+02 -1.126440944305e+00 0.0 
-1.126440944305e+00 -3.965528831606e+02 0.0 
0.0 0.0 -1.694457289729e+02 
-1.689070672455e+02 -9.575473307090e-01 0.0 
-9.575473307090e-01 -3.952623471545e+02 0.0 
0.0 0.0 -1.688508243200e+02 
-1.690097962496e+02 -6.033607789844e-01 0.0 
-6.033607789844e-01 -3.954244673236e+02 0.0 
0.0 0.0 -1.689302790720e+02 
-1.692885077249e+02 -5.989066561837e-01 0.0 
-5.989066561837e-01 -3.959006780269e+02 0.0 
0.0 0.0 -1.691567557255e+02 
-1.691645380362e+02 -3.012487969983e-01 0.0 
-3.012487969983e-01 -3.956607979063e+02 0.0 
0.0 0.0 -1.690476007827e+02 
-9.751892167468e+01 3.652291572647e-01 0.0 
3.652291572647e-01 -2.160708457924e+02 0.0 
0.0 0.0 -9.367693024013e+01 
-1.056529957932e+02 4.213581152877e-01 0.0 
4.213581152877e-01 -2.359134897036e+02 0.0 
0.0 0.0 -1.020699456490e+02 
-1.138201227745e+02 4.169041054679e-01 0.0 
4.169041054679e-01 -2.555796757212e+02 0.0 
0.0 0.0 -1.104199395487e+02 
-1.216883590237e+02 4.517364665209e-01 0.0 
4.517364665209e-01 -2.748661206499e+02 0.0 
0.0 0.0 -1.185663439021e+02 
-1.296309136201e+02 4.154116785030e-01 0.0 
4.154116785030e-01 -2.946013210246e+02 0.0 
0.0 0.0 -1.268696703934e+02 
-1.377223115195e+02 4.596734099189e-01 0.0 
4.596734099189e-01 -3.144479206983e+02 0.0 
0.0 0.0 -1.352510696653e+02 
-1.453911740191e+02 4.217219596973e-01 0.0 
4.217219596973e-01 -3.340600674483e+02 0.0 
0.0 0.0 -1.434353724402e+02 
-1.529404599429e+02 4.895321759718e-01 0.0 
4.895321759718e-01 -3.535344685560e+02 0.0 
0.0 0.0 -1.515424785497e+02 
-1.607531645493e+02 5.346088417586e-01 0.0 
5.346088417586e-01 -3.735955093773e+02 0.0 
0.0 0.0 -1.599046021780e+02 
-6.291376719796e+01 2.075962861856e+01 0.0 
2.075962861856e+01 -5.296600485358e+01 0.0 
0.0 0.0 -3.501972529633e+01 
-7.247849354615e+00 4.080423658124e-01 0.0 
4.080423658124e-01 -6.937562832923e+00 0.0 
0.0 0.0 -3.946453095668e+00 
-9.370775778850e+01 3.462250030366e+00 0.0 
3.462250030366e+00 -2.001086525894e+02 0.0 
0.0 0.0 -8.724286366230e+01 
-3.472503233174e+01 1.296287707741e+01 0.0 
1.296287707741e+01 -2.655863019271e+01 0.0 
0.0 0.0 -1.637408384598e+01 
-3.583865871153e+01 9.306973856420e+00 0.0 
9.306973856420e+00 -4.454956137538e+01 0.0 
0.0 0.0 -2.076031475954e+01 
-4.070683769230e+01 8.285117124479e+00 0.0 
8.285117124479e+00 -6.250965445793e+01 0.0 
0.0 0.0 -2.760075750720e+01 
-4.629563200746e+01 7.968252060653e+00 0.0 
7.968252060653e+00 -8.022681547056e+01 0.0 
0.0 0.0 -3.488103228363e+01 
-5.396432962146e+01 7.126388511306e+00 0.0 
7.126388511306e+00 -1.000626489952e+02 0.0 
0.0 0.0 -4.271116484264e+01 
-6.298096264405e+01 5.585301096258e+00 0.0 
5.585301096258e+00 -1.209360802417e+02 0.0 
0.0 0.0 -5.036516348654e+01 
-7.182193861649e+01 4.150665864688e+00 0.0 
4.150665864688e+00 -1.414261853583e+02 0.0 
0.0 0.0 -5.911760599472e+01 
-7.982314319214e+01 3.503370859955e+00 0.0 
3.503370859955e+00 -1.609292962293e+02 0.0 
0.0 0.0 -6.894335250233e+01 
-8.694116393423e+01 3.353806240567e+00 0.0 
3.353806240567e+00 -1.800234865984e+02 0.0 
0.0 0.0 -7.810693917314e+01 
-1.330152920492e+01 3.611183723979e-01 0.0 
3.611183723979e-01 -1.970931792789e+01 0.0 
0.0 0.0 -9.210738534197e+00 
-2.139719345926e+01 5.853278721838e-01 0.0 
5.853278721838e-01 -3.916503056449e+01 0.0 
0.0 0.0 -1.716922095488e+01 
-2.926355325064e+01 6.076899246192e-01 0.0 
6.076899246192e-01 -5.853339638784e+01 0.0 
0.0 0.0 -2.561712870462e+01 
-3.795471192550e+01 7.536881264649e-01 0.0 
7.536881264649e-01 -7.801626041632e+01 0.0 
0.0 0.0 -3.419282527487e+01 
-4.606980487961e+01 6.611865853550e-01 0.0 
6.611865853550e-01 -9.753579845950e+01 0.0 
0.0 0.0 -4.268168100173e+01 
-5.471357755122e+01 8.098102037116e-01 0.0 
8.098102037116e-01 -1.171112151139e+02 0.0 
0.0 0.0 -5.114743779955e+01 
-6.328293844522e+01 6.681000866134e-01 0.0 
6.681000866134e-01 -1.366986816946e+02 0.0 
0.0 0.0 -5.959448604193e+01 
-7.186468906556e+01 8.090524388697e-01 0.0 
8.090524388697e-01 -1.562795439747e+02 0.0 
0.0 0.0 -6.804326991207e+01 
-8.038312749975e+01 5.935700500983e-01 0.0 
5.935700500983e-01 -1.757802319074e+02 0.0 
0.0 0.0 -7.644900782216e+01 
-8.794795206387e+01 -1.310140582436e-01 0.0 
-1.310140582436e-01 -1.935444601423e+02 0.0 
0.0 0.0 -8.404772366185e+01 
-8.861420280420e+01 1.765045663181e-01 0.0 
1.765045663181e-01 -1.947708879669e+02 0.0 
0.0 0.0 -8.461552723132e+01 
-8.865132355670e+01 2.832008710512e-01 0.0 
2.832008710512e-01 -1.948581809713e+02 0.0 
0.0 0.0 -8.465285135841e+01 
-8.871137858252e+01 4.447819969114e-01 0.0 
4.447819969114e-01 -1.946951841228e+02 0.0 
0.0 0.0 -8.462196881160e+01 
-9.010224304886e+01 5.608035403622e-01 0.0 
5.608035403622e-01 -1.974668407292e+02 0.0 
0.0 0.0 -8.587072513343e+01 
-8.923598061181e+01 6.937192949600e-01 0.0 
6.937192949600e-01 -1.952286245572e+02 0.0 
0.0 0.0 -8.493938155071e+01 
-8.953122700822e+01 9.124257486820e-01 0.0 
9.124257486820e-01 -1.951920262945e+02 0.0 
0.0 0.0 -8.501697599083e+01 
-8.983570107983e+01 1.051941715644e+00 0.0 
1.051941715644e+00 -1.955641159917e+02 0.0 
0.0 0.0 -8.521994512147e+01 
-9.022770202483e+01 1.341356707875e+00 0.0 
1.341356707875e+00 -1.962093087369e+02 0.0 
0.0 0.0 -8.553110322851e+01 
-9.052210707510e+01 1.588791593061e+00 0.0 
1.588791593061e+00 -1.963925478265e+02 0.0 
0.0 0.0 -8.567439647049e+01 
-9.094570621568e+01 1.945578049326e+00 0.0 
1.945578049326e+00 -1.966654770076e+02 0.0 
0.0 0.0 -8.588335496700e+01 
-9.125501499015e+01 2.316005703317e+00 0.0 
2.316005703317e+00 -1.970016225132e+02 0.0 
0.0 0.0 -8.605408616371e+01 
-9.180344169835e+01 2.630546677261e+00 0.0 
2.630546677261e+00 -1.975893605944e+02 0.0 
0.0 0.0 -8.631991977953e+01 
-9.239121488803e+01 2.957480429795e+00 0.0 
2.957480429795e+00 -1.984829452425e+02 0.0 
0.0 0.0 -8.664066028718e+01 
-9.527751868477e+01 1.100051813537e+01 0.0 
1.100051813537e+01 -9.725441628412e+01 0.0 
0.0 0.0 -5.812071350724e+01 
-1.071946451719e+02 1.111013019773e+00 0.0 
1.111013019773e+00 -1.055050942784e+02 0.0 
0.0 0.0 -6.417699662360e+01 
-1.107585101484e+02 -2.928204148800e+00 0.0 
-2.928204148800e+00 -1.045072339534e+02 0.0 
0.0 0.0 -6.491389357939e+01 
-9.935219151832e+01 -1.047823375633e+01 0.0 
-1.047823375633e+01 -9.532529448670e+01 0.0 
0.0 0.0 -5.873686336631e+01 
-6.398818150620e+01 -2.119548972977e+01 0.0 
-2.119548972977e+01 -5.675381921466e+01 0.0 
0.0 0.0 -3.660149045969e+01 
-3.181746593244e+01 -1.478391225965e+01 0.0 
-1.478391225965e+01 -1.984932527839e+01 0.0 
0.0 0.0 -1.522589642273e+01 
-1.570637224106e+01 -3.551536228080e+00 0.0 
-3.551536228080e+00 -1.079001083304e+01 0.0 
0.0 0.0 -7.380733597805e+00 
-1.036696119281e+01 -4.035791076632e-01 0.0 
-4.035791076632e-01 -9.179331532535e+00 0.0 
0.0 0.0 -5.237307517166e+00 
-8.734428006756e+00 6.273079315362e-01 0.0 
6.273079315362e-01 -8.504266274262e+00 0.0 
0.0 0.0 -4.800910235897e+00 
-8.933907065821e+00 9.072329546443e-01 0.0 
9.072329546443e-01 -7.830146134146e+00 0.0 
0.0 0.0 -4.596921712771e+00 
-9.461459121921e+00 6.557090104174e-01 0.0 
6.557090104174e-01 -7.917931285258e+00 0.0 
0.0 0.0 -4.559796882847e+00 
-1.032027939738e+01 3.268750596210e-01 0.0 
3.268750596210e-01 -8.664809817736e+00 0.0 
0.0 0.0 -4.833732772248e+00 
-1.083604330946e+01 1.677853372251e-01 0.0 
1.677853372251e-01 -8.480090441100e+00 0.0 
0.0 0.0 -4.473796649924e+00 
-1.090138540794e+01 1.673343145221e-01 0.0 
1.673343145221e-01 -7.819525297114e+00 0.0 
0.0 0.0 -4.302006697619e+00 
-1.097595080108e+01 1.652107783191e-01 0.0 
1.652107783191e-01 -7.913985786284e+00 0.0 
0.0 0.0 -4.343346557146e+00 
-1.123774913013e+01 1.512953924735e-01 0.0 
1.512953924735e-01 -8.166363931093e+00 0.0 
0.0 0.0 -4.478780388781e+00 
-1.145870196249e+01 1.624376413037e-01 0.0 
1.624376413037e-01 -8.209109073330e+00 0.0 
0.0 0.0 -4.531688159767e+00 
-1.169658088755e+01 7.329514350678e-02 0.0 
7.329514350678e-02 -7.770418717592e+00 0.0 
0.0 0.0 -4.510867890463e+00 
-1.211814783473e+01 -5.691934769954e-02 0.0 
-5.691934769954e-02 -7.107295704219e+00 0.0 
0.0 0.0 -4.520350816160e+00 
-3.135270459285e+01 7.537056117437e+00 0.0 
7.537056117437e+00 -7.907965199260e+00 0.0 
0.0 0.0 -9.041676821860e+00 
-1.995106516004e+01 2.919348668036e+00 0.0 
2.919348668036e+00 -8.944869891998e+00 0.0 
0.0 0.0 -7.712924726565e+00 
-1.422973549743e+01 9.850679445259e-01 0.0 
9.850679445259e-01 -1.044556198114e+01 0.0 
0.0 0.0 -6.548357841747e+00 
-1.205679537152e+01 -1.571528755429e-01 0.0 
-1.571528755429e-01 -1.020181605845e+01 0.0 
0.0 0.0 -6.220653297651e+00 
-1.120817544432e+01 -5.009144681750e-01 0.0 
-5.009144681750e-01 -9.575663191479e+00 0.0 
0.0 0.0 -6.190707146294e+00 
-1.074044095941e+01 -2.340019225228e-01 0.0 
-2.340019225228e-01 -9.106251089124e+00 0.0 
0.0 0.0 -5.766883431546e+00 
-1.018450886777e+01 1.051684955038e-01 0.0 
1.051684955038e-01 -9.073223904730e+00 0.0 
0.0 0.0 -5.351743485438e+00 
-9.423491951400e+00 5.311613572084e-01 0.0 
5.311613572084e-01 -9.217977432413e+00 0.0 
0.0 0.0 -5.002577344737e+00 
-8.333300871144e+00 7.646276247511e-01 0.0 
7.646276247511e-01 -9.378436177324e+00 0.0 
0.0 0.0 -4.692421055482e+00 
-7.092009186329e+00 8.135514734618e-01 0.0 
8.135514734618e-01 -9.497701719069e+00 0.0 
0.0 0.0 -4.372874046371e+00 
-5.925777639057e+00 6.601168716476e-01 0.0 
6.601168716476e-01 -9.629334840105e+00 0.0 
0.0 0.0 -4.077438113430e+00 
-5.127247865220e+00 3.031797266740e-01 0.0 
3.031797266740e-01 -9.748898355343e+00 0.0 
0.0 0.0 -3.722788830167e+00 
-4.696129304699e+00 4.707300717779e-03 0.0 
4.707300717779e-03 -9.592594978827e+00 0.0 
0.0 0.0 -3.315151129999e+00 
-4.537287878274e+00 -9.953701602501e-02 0.0 
-9.953701602501e-02 -9.443017010324e+00 0.0 
0.0 0.0 -3.219958595999e+00 
-4.524533511737e+00 -8.149335804101e-02 0.0 
-8.149335804101e-02 -9.384725406504e+00 0.0 
0.0 0.0 -3.286279452259e+00 
-4.570935685726e+00 -1.227722896344e-02 0.0 
-1.227722896344e-02 -9.379270206122e+00 0.0 
0.0 0.0 -3.389628150546e+00 
-4.632016694289e+00 6.748371326034e-02 0.0 
6.748371326034e-02 -9.399322573939e+00 0.0 
0.0 0.0 -3.510761713501e+00 
-4.704415200390e+00 1.265324745792e-01 0.0 
1.265324745792e-01 -9.435772302438e+00 0.0 
0.0 0.0 -3.640794528609e+00 
-4.902610449904e+00 1.518074623459e-01 0.0 
1.518074623459e-01 -9.492406611555e+00 0.0 
0.0 0.0 -3.845796065475e+00 
-5.184342076428e+00 1.343897557495e-01 0.0 
1.343897557495e-01 -9.566210406041e+00 0.0 
0.0 0.0 -4.142845337684e+00 
-5.479417816508e+00 5.788534298681e-02 0.0 
5.788534298681e-02 -9.625615358928e+00 0.0 
0.0 0.0 -4.416230156625e+00 
-5.854889231572e+00 -4.285410479243e-02 0.0 
-4.285410479243e-02 -9.637594083852e+00 0.0 
0.0 0.0 -4.603300550183e+00 
-6.284389573866e+00 -1.142860312882e-01 0.0 
-1.142860312882e-01 -9.612073748060e+00 0.0 
0.0 0.0 -4.724494552134e+00 
-6.738490261144e+00 -1.682019169505e-01 0.0 
-1.682019169505e-01 -9.609611790860e+00 0.0 
0.0 0.0 -4.846298296687e+00 
-7.217837453312e+00 -2.149590795089e-01 0.0 
-2.149590795089e-01 -9.611005805899e+00 0.0 
0.0 0.0 -4.923064128803e+00 
-7.669554824715e+00 -2.192335729021e-01 0.0 
-2.192335729021e-01 -9.572746183222e+00 0.0 
0.0 0.0 -4.941200096103e+00 
-8.040857622883e+00 -1.742015473422e-01 0.0 
-1.742015473422e-01 -9.534035054133e+00 0.0 
0.0 0.0 -4.931279922489e+00 
-8.322673544886e+00 -1.426746724898e-01 0.0 
-1.426746724898e-01 -9.552343084354e+00 0.0 
0.0 0.0 -4.898314295900e+00 
-8.177543698175e+00 -1.435353334491e-01 0.0 
-1.435353334491e-01 -9.136895942330e+00 0.0 
0.0 0.0 -4.674759738871e+00 
-1.323133544868e+01 -2.927977629663e-01 0.0 
-2.927977629663e-01 -1.963290316307e+01 0.0 
0.0 0.0 -9.335542009819e+00 
-1.312212992672e+01 -1.140421398404e-01 0.0 
-1.140421398404e-01 -1.953808294901e+01 0.0 
0.0 0.0 -9.571557279202e+00 
-1.291440774194e+01 -2.316921787596e-01 0.0 
-2.316921787596e-01 -1.966049698145e+01 0.0 
0.0 0.0 -9.678671616340e+00 
-1.269024835730e+01 -2.950249795210e-01 0.0 
-2.950249795210e-01 -1.968833217704e+01 0.0 
0.0 0.0 -9.656943809515e+00 
-1.242510962354e+01 -3.326601848396e-01 0.0 
-3.326601848396e-01 -1.971236296357e+01 0.0 
0.0 0.0 -9.610778630733e+00 
-1.210396962729e+01 -3.437172190424e-01 0.0 
-3.437172190424e-01 -1.973026710156e+01 0.0 
0.0 0.0 -9.546538042159e+00 
-1.172498525375e+01 -3.372569758036e-01 0.0 
-3.372569758036e-01 -1.972975024939e+01 0.0 
0.0 0.0 -9.439875640036e+00 
-1.129177311660e+01 -3.174360311899e-01 0.0 
-3.174360311899e-01 -1.974108353006e+01 0.0 
0.0 0.0 -9.313929384880e+00 
-1.080458335609e+01 -2.862043070433e-01 0.0 
-2.862043070433e-01 -1.976156419203e+01 0.0 
0.0 0.0 -9.173366764923e+00 
-1.026973120217e+01 -2.523710060464e-01 0.0 
-2.523710060464e-01 -1.973980372845e+01 0.0 
0.0 0.0 -8.969760553514e+00 
-9.718525787803e+00 -2.259680768344e-01 0.0 
-2.259680768344e-01 -1.971128230881e+01 0.0 
0.0 0.0 -8.748146624792e+00 
-9.196002732880e+00 -1.918235253229e-01 0.0 
-1.918235253229e-01 -1.970248531405e+01 0.0 
0.0 0.0 -8.523930780168e+00 
-8.748055397314e+00 -1.413198829893e-01 0.0 
-1.413198829893e-01 -1.970399798666e+01 0.0 
0.0 0.0 -8.322553506152e+00 
-8.411166312816e+00 -7.983454234125e-02 0.0 
-7.983454234125e-02 -1.970687595607e+01 0.0 
0.0 0.0 -8.120933785080e+00 
-8.224637991969e+00 6.203376316236e-03 0.0 
6.203376316236e-03 -1.973742840050e+01 0.0 
0.0 0.0 -7.974270400775e+00 
-8.226096909804e+00 1.373608972920e-01 0.0 
1.373608972920e-01 -1.980967096993e+01 0.0 
0.0 0.0 -7.900551190653e+00 
-8.444870522196e+00 3.281196136107e-01 0.0 
3.281196136107e-01 -1.993289154864e+01 0.0 
0.0 0.0 -7.920576321976e+00 
-8.867594257045e+00 5.736996360821e-01 0.0 
5.736996360821e-01 -2.011214292200e+01 0.0 
0.0 0.0 -8.103434554735e+00 
-9.414960289114e+00 8.671774810661e-01 0.0 
8.671774810661e-01 -2.012734761500e+01 0.0 
0.0 0.0 -8.357599318455e+00 
-1.007630433891e+01 1.054018430061e+00 0.0 
1.054018430061e+00 -1.992406543924e+01 0.0 
0.0 0.0 -8.504432506458e+00 
-1.084801270383e+01 1.056465489976e+00 0.0 
1.056465489976e+00 -1.970668952741e+01 0.0 
0.0 0.0 -8.676602256736e+00 
-1.174722238820e+01 8.758622494443e-01 0.0 
8.758622494443e-01 -1.947982928427e+01 0.0 
0.0 0.0 -8.892284199709e+00 
-1.252279339586e+01 5.823914535146e-01 0.0 
5.823914535146e-01 -1.928590610313e+01 0.0 
0.0 0.0 -9.139320482109e+00 
-1.341559681025e+01 3.830677242572e-01 0.0 
3.830677242572e-01 -1.938974003318e+01 0.0 
0.0 0.0 -9.583609652676e+00 
-1.476267025846e+01 6.592596025661e-01 0.0 
6.592596025661e-01 -1.968432723824e+01 0.0 
0.0 0.0 -9.864186507747e+00 
-1.684642068146e+01 1.361546849659e+00 0.0 
1.361546849659e+00 -2.047705369109e+01 0.0 
0.0 0.0 -1.015722004540e+01 
-2.116344168855e+01 3.454283080518e+00 0.0 
3.454283080518e+00 -2.246710155047e+01 0.0 
0.0 0.0 -1.141277020274e+01 
-2.387108819152e+01 5.541028500125e+00 0.0 
5.541028500125e+00 -1.945200419685e+01 0.0 
0.0 0.0 -1.120895644243e+01 
-3.007452740884e+01 5.730009057684e+00 0.0 
5.730009057684e+00 -3.972961314670e+01 0.0 
0.0 0.0 -1.798638193364e+01 
-2.837072292450e+01 4.469462913414e+00 0.0 
4.469462913414e+00 -4.192579974359e+01 0.0 
0.0 0.0 -1.866048071685e+01 
-2.437900448774e+01 2.874488010340e+00 0.0 
2.874488010340e+00 -3.962855370057e+01 0.0 
0.0 0.0 -1.761443081002e+01 
-2.206719495549e+01 2.311927361110e+00 0.0 
2.311927361110e+00 -3.886463414307e+01 0.0 
0.0 0.0 -1.733834169385e+01 
-2.040244637881e+01 1.897617276375e+00 0.0 
1.897617276375e+00 -3.876585723753e+01 0.0 
0.0 0.0 -1.736067217735e+01 
-1.932524748646e+01 1.718296502418e+00 0.0 
1.718296502418e+00 -3.895299115985e+01 0.0 
0.0 0.0 -1.726630116699e+01 
-1.875010993751e+01 1.549343742467e+00 0.0 
1.549343742467e+00 -3.932741808503e+01 0.0 
0.0 0.0 -1.716630791468e+01 
-1.847902030320e+01 1.307461623134e+00 0.0 
1.307461623134e+00 -3.969637698117e+01 0.0 
0.0 0.0 -1.712371625962e+01 
-1.833552955583e+01 9.987897542246e-01 0.0 
9.987897542246e-01 -3.987484335299e+01 0.0 
0.0 0.0 -1.707004908076e+01 
-1.819040702771e+01 6.352027256350e-01 0.0 
6.352027256350e-01 -3.979022633918e+01 0.0 
0.0 0.0 -1.695750331600e+01 
-1.815100459579e+01 2.452337502080e-01 0.0 
2.452337502080e-01 -3.964886765560e+01 0.0 
0.0 0.0 -1.687582484370e+01 
-1.822672616712e+01 -1.105793317738e-01 0.0 
-1.105793317738e-01 -3.952417580639e+01 0.0 
0.0 0.0 -1.686478973999e+01 
-1.842016567525e+01 -3.972683501599e-01 0.0 
-3.972683501599e-01 -3.943450518713e+01 0.0 
0.0 0.0 -1.690728469117e+01 
-1.872128614675e+01 -6.125919475997e-01 0.0 
-6.125919475997e-01 -3.937991841013e+01 0.0 
0.0 0.0 -1.698734642467e+01 
-1.908647606088e+01 -7.617021129217e-01 0.0 
-7.617021129217e-01 -3.934457416851e+01 0.0 
0.0 0.0 -1.708738224611e+01 
-1.942404216509e+01 -8.536545983073e-01 0.0 
-8.536545983073e-01 -3.931405529147e+01 0.0 
0.0 0.0 -1.717600211694e+01 
-1.973983751893e+01 -8.912362491882e-01 0.0 
-8.912362491882e-01 -3.931166486697e+01 0.0 
0.0 0.0 -1.726357142887e+01 
-2.006250775488e+01 -8.776826348243e-01 0.0 
-8.776826348243e-01 -3.932820495301e+01 0.0 
0.0 0.0 -1.735965062628e+01 
-2.034548275423e+01 -8.320075470679e-01 0.0 
-8.320075470679e-01 -3.930840979753e+01 0.0 
0.0 0.0 -1.743368743578e+01 
-2.058269572408e+01 -7.813351569219e-01 0.0 
-7.813351569219e-01 -3.927392004372e+01 0.0 
0.0 0.0 -1.748804805163e+01 
-2.077665024869e+01 -7.175658342310e-01 0.0 
-7.175658342310e-01 -3.924664911266e+01 0.0 
0.0 0.0 -1.753120469424e+01 
-2.091874843536e+01 -6.390646949055e-01 0.0 
-6.390646949055e-01 -3.920981319398e+01 0.0 
0.0 0.0 -1.755767284405e+01 
-2.101453308378e+01 -5.559397962603e-01 0.0 
-5.559397962603e-01 -3.916232531607e+01 0.0 
0.0 0.0 -1.756985647447e+01 
-2.107712144127e+01 -4.686073919662e-01 0.0 
-4.686073919662e-01 -3.910707021442e+01 0.0 
0.0 0.0 -1.757246023442e+01 
-2.115252408205e+01 -4.132032976623e-01 0.0 
-4.132032976623e-01 -3.904294166652e+01 0.0 
0.0 0.0 -1.758192172550e+01 
-2.127215303896e+01 -4.204773964027e-01 0.0 
-4.204773964027e-01 -3.906617589516e+01 0.0 
0.0 0.0 -1.738364651074e+01 
-3.647128539639e+01 6.245631992748e+00 0.0 
6.245631992748e+00 -5.830253401690e+01 0.0 
0.0 0.0 -2.545934144533e+01 
-3.543065442842e+01 5.463047453204e+00 0.0 
5.463047453204e+00 -6.082847987702e+01 0.0 
0.0 0.0 -2.619015229589e+01 
-3.232015464438e+01 4.136859556762e+00 0.0 
4.136859556762e+00 -5.929451498903e+01 0.0 
0.0 0.0 -2.532401558113e+01 
-3.067757685900e+01 3.308647078505e+00 0.0 
3.308647078505e+00 -5.894656021996e+01 0.0 
0.0 0.0 -2.521877183402e+01 
-2.970530604986e+01 2.525831576888e+00 0.0 
2.525831576888e+00 -5.919902096273e+01 0.0 
0.0 0.0 -2.531347145537e+01 
-2.909768975589e+01 1.859405958250e+00 0.0 
1.859405958250e+00 -5.953901686404e+01 0.0 
0.0 0.0 -2.542533230613e+01 
-2.878344155870e+01 1.275116107472e+00 0.0 
1.275116107472e+00 -5.985665354279e+01 0.0 
0.0 0.0 -2.553193111249e+01 
-2.870127671764e+01 7.847462320301e-01 0.0 
7.847462320301e-01 -5.985879929372e+01 0.0 
0.0 0.0 -2.550850953397e+01 
-2.876123972231e+01 3.478197825331e-01 0.0 
3.478197825331e-01 -5.970859662051e+01 0.0 
0.0 0.0 -2.551488283539e+01 
-2.884787789214e+01 -4.212512162935e-02 0.0 
-4.212512162935e-02 -5.952746106101e+01 0.0 
0.0 0.0 -2.553250592846e+01 
-2.888000688920e+01 -3.783612035357e-01 0.0 
-3.783612035357e-01 -5.936063390824e+01 0.0 
0.0 0.0 -2.555172065400e+01 
-2.892809464388e+01 -6.608100330039e-01 0.0 
-6.608100330039e-01 -5.922164497212e+01 0.0 
0.0 0.0 -2.556906199781e+01 
-2.899533240277e+01 -8.614457884764e-01 0.0 
-8.614457884764e-01 -5.910283290279e+01 0.0 
0.0 0.0 -2.557819326025e+01 
-2.906883580230e+01 -9.770043793745e-01 0.0 
-9.770043793745e-01 -5.901292758778e+01 0.0 
0.0 0.0 -2.558335688597e+01 
-2.913800625741e+01 -1.029336004160e+00 0.0 
-1.029336004160e+00 -5.894691884037e+01 0.0 
0.0 0.0 -2.558482234946e+01 
-2.920310386073e+01 -1.030201680843e+00 0.0 
-1.030201680843e+00 -5.890733277601e+01 0.0 
0.0 0.0 -2.558727232246e+01 
-2.926603418298e+01 -9.834243870900e-01 0.0 
-9.834243870900e-01 -5.887444739606e+01 0.0 
0.0 0.0 -2.558812970959e+01 
-2.932409075028e+01 -9.097327817826e-01 0.0 
-9.097327817826e-01 -5.883140214697e+01 0.0 
0.0 0.0 -2.558317825173e+01 
-2.936496835675e+01 -8.205883281806e-01 0.0 
-8.205883281806e-01 -5.878776930757e+01 0.0 
0.0 0.0 -2.557281069289e+01 
-2.938921658991e+01 -7.156353225621e-01 0.0 
-7.156353225621e-01 -5.874372179877e+01 0.0 
0.0 0.0 -2.555828343614e+01 
-2.939585988079e+01 -5.992892927920e-01 0.0 
-5.992892927920e-01 -5.869177078818e+01 0.0 
0.0 0.0 -2.553771703475e+01 
-2.937723356206e+01 -4.745753477131e-01 0.0 
-4.745753477131e-01 -5.862780496749e+01 0.0 
0.0 0.0 -2.550734151084e+01 
-2.933260785189e+01 -3.387050887869e-01 0.0 
-3.387050887869e-01 -5.854043344317e+01 0.0 
0.0 0.0 -2.546518838956e+01 
-2.927267316117e+01 -1.819750126503e-01 0.0 
-1.819750126503e-01 -5.848417064860e+01 0.0 
0.0 0.0 -2.548180137719e+01 
-2.925925142351e+01 -4.994252166681e-01 0.0 
-4.994252166681e-01 -5.854250522164e+01 0.0 
0.0 0.0 -2.560413270559e+01 
-3.773051663714e+01 -4.142601345350e-01 0.0 
-4.142601345350e-01 -7.802198870736e+01 0.0 
0.0 0.0 -3.413326131407e+01 
-3.775429014130e+01 -3.283361202113e-01 0.0 
-3.283361202113e-01 -7.799476097741e+01 0.0 
0.0 0.0 -3.398220639020e+01 
-3.780671864985e+01 -3.991697529134e-01 0.0 
-3.991697529134e-01 -7.808576216489e+01 0.0 
0.0 0.0 -3.402368908339e+01 
-3.788997627503e+01 -5.352679511739e-01 0.0 
-5.352679511739e-01 -7.815775961224e+01 0.0 
0.0 0.0 -3.406459947180e+01 
-3.798631152857e+01 -6.703451804111e-01 0.0 
-6.703451804111e-01 -7.822094878074e+01 0.0 
0.0 0.0 -3.410381490971e+01 
-3.809114379534e+01 -7.957179383186e-01 0.0 
-7.957179383186e-01 -7.827980647961e+01 0.0 
0.0 0.0 -3.414166325555e+01 
-3.820392511289e+01 -9.073359319908e-01 0.0 
-9.073359319908e-01 -7.833906852521e+01 0.0 
0.0 0.0 -3.417931684030e+01 
-3.832295943113e+01 -1.001618347821e+00 0.0 
-1.001618347821e+00 -7.840338160310e+01 0.0 
0.0 0.0 -3.421706477016e+01 
-3.845262029797e+01 -1.070974423666e+00 0.0 
-1.070974423666e+00 -7.847170054644e+01 0.0 
0.0 0.0 -3.425443259223e+01 
-3.859814781280e+01 -1.103199995980e+00 0.0 
-1.103199995980e+00 -7.855099103811e+01 0.0 
0.0 0.0 -3.429330201143e+01 
-3.875441213586e+01 -1.089248865615e+00 0.0 
-1.089248865615e+00 -7.865785230672e+01 0.0 
0.0 0.0 -3.433492513355e+01 
-3.891773388445e+01 -1.019746857751e+00 0.0 
-1.019746857751e+00 -7.880322305464e+01 0.0 
0.0 0.0 -3.437877500221e+01 
-3.908465566565e+01 -8.762906058144e-01 0.0 
-8.762906058144e-01 -7.899455614011e+01 0.0 
0.0 0.0 -3.442208609911e+01 
-3.924913595744e+01 -6.389574690539e-01 0.0 
-6.389574690539e-01 -7.922065857358e+01 0.0 
0.0 0.0 -3.445351310406e+01 
-3.933603307332e+01 -3.224686269446e-01 0.0 
-3.224686269446e-01 -7.945719108831e+01 0.0 
0.0 0.0 -3.443670877369e+01 
-3.941908662309e+01 8.767760794239e-02 0.0 
8.767760794239e-02 -7.970522122003e+01 0.0 
0.0 0.0 -3.433273242608e+01 
-3.955327913662e+01 5.996498394046e-01 0.0 
5.996498394046e-01 -7.995171895862e+01 0.0 
0.0 0.0 -3.411852043746e+01 
-3.975190806621e+01 1.245406173974e+00 0.0 
1.245406173974e+00 -8.011229872877e+01 0.0 
0.0 0.0 -3.388740223899e+01 
-4.015007305546e+01 2.037707683535e+00 0.0 
2.037707683535e+00 -8.011308949426e+01 0.0 
0.0 0.0 -3.376892714677e+01 
-4.076080141629e+01 3.016797032747e+00 0.0 
3.016797032747e+00 -7.983251523156e+01 0.0 
0.0 0.0 -3.355059914328e+01 
-4.158299933640e+01 4.061048737779e+00 0.0 
4.061048737779e+00 -7.976598562760e+01 0.0 
0.0 0.0 -3.345290540209e+01 
-4.353551062756e+01 5.478143894397e+00 0.0 
5.478143894397e+00 -8.081198961281e+01 0.0 
0.0 0.0 -3.414854810849e+01 
-4.351494697405e+01 6.438403409406e+00 0.0 
6.438403409406e+00 -7.753232593804e+01 0.0 
0.0 0.0 -3.329159321397e+01 
-5.204080318880e+01 5.585150221076e+00 0.0 
5.585150221076e+00 -9.789647993671e+01 0.0 
0.0 0.0 -4.114267260282e+01 
-5.285797706845e+01 4.509556422069e+00 0.0 
4.509556422069e+00 -1.015725863064e+02 0.0 
0.0 0.0 -4.226895306544e+01 
-5.159661941142e+01 3.114578748188e+00 0.0 
3.114578748188e+00 -1.007131693328e+02 0.0 
0.0 0.0 -4.198239920314e+01 
-5.112571455198e+01 2.175666484764e+00 0.0 
2.175666484764e+00 -1.005318252815e+02 0.0 
0.0 0.0 -4.223819810573e+01 
-5.062672456253e+01 1.388861998245e+00 0.0 
1.388861998245e+00 -1.003140429357e+02 0.0 
0.0 0.0 -4.263545028999e+01 
-5.016755270667e+01 7.581138223325e-01 0.0 
7.581138223325e-01 -9.991769539824e+01 0.0 
0.0 0.0 -4.295042221467e+01 
-4.975654678348e+01 2.339098047945e-01 0.0 
2.339098047945e-01 -9.957616018442e+01 0.0 
0.0 0.0 -4.317239086917e+01 
-4.943841041411e+01 -1.703987870460e-01 0.0 
-1.703987870460e-01 -9.923341503166e+01 0.0 
0.0 0.0 -4.327339229241e+01 
-4.911843200429e+01 -4.641023930499e-01 0.0 
-4.641023930499e-01 -9.893526822999e+01 0.0 
0.0 0.0 -4.328032495796e+01 
-4.873166889993e+01 -6.527947213985e-01 0.0 
-6.527947213985e-01 -9.863744402048e+01 0.0 
0.0 0.0 -4.318729104219e+01 
-4.835864054654e+01 -7.648211231322e-01 0.0 
-7.648211231322e-01 -9.840812669376e+01 0.0 
0.0 0.0 -4.309899804856e+01 
-4.800883657171e+01 -8.189464889877e-01 0.0 
-8.189464889877e-01 -9.823592255130e+01 0.0 
0.0 0.0 -4.301893418618e+01 
-4.768409570863e+01 -8.266160137027e-01 0.0 
-8.266160137027e-01 -9.810557532095e+01 0.0 
0.0 0.0 -4.294561912747e+01 
-4.738683370350e+01 -7.960082533268e-01 0.0 
-7.960082533268e-01 -9.799971437946e+01 0.0 
0.0 0.0 -4.287651388376e+01 
-4.711805872435e+01 -7.324479068047e-01 0.0 
-7.324479068047e-01 -9.790784437656e+01 0.0 
0.0 0.0 -4.281088984322e+01 
-4.687535973998e+01 -6.451982549691e-01 0.0 
-6.451982549691e-01 -9.782900294837e+01 0.0 
0.0 0.0 -4.274981607043e+01 
-4.665745378986e+01 -5.422657852188e-01 0.0 
-5.422657852188e-01 -9.775640639855e+01 0.0 
0.0 0.0 -4.269191600296e+01 
-4.646426094337e+01 -4.263239864294e-01 0.0 
-4.263239864294e-01 -9.768235332569e+01 0.0 
0.0 0.0 -4.263500355106e+01 
-4.629676717695e+01 -3.023569768715e-01 0.0 
-3.023569768715e-01 -9.760506023595e+01 0.0 
0.0 0.0 -4.257942058255e+01 
-4.615334746386e+01 -1.785196267977e-01 0.0 
-1.785196267977e-01 -9.752011510886e+01 0.0 
0.0 0.0 -4.252617109785e+01 
-4.603411624321e+01 -5.962521788681e-02 0.0 
-5.962521788681e-02 -9.747996808532e+01 0.0 
0.0 0.0 -4.254262519041e+01 
-4.606815940579e+01 -4.536610118229e-01 0.0 
-4.536610118229e-01 -9.754107008630e+01 0.0 
0.0 0.0 -4.266620825939e+01 
-5.468767147433e+01 -3.319535986858e-01 0.0 
-3.319535986858e-01 -1.170908469357e+02 0.0 
0.0 0.0 -5.111921701137e+01 
-5.462701965045e+01 -1.316569660578e-01 0.0 
-1.316569660578e-01 -1.170376417677e+02 0.0 
0.0 0.0 -5.106198249018e+01 
-5.470003741377e+01 -1.370153287321e-01 0.0 
-1.370153287321e-01 -1.170911377150e+02 0.0 
0.0 0.0 -5.109557536838e+01 
-5.483917383617e+01 -2.206077702310e-01 0.0 
-2.206077702310e-01 -1.171582316528e+02 0.0 
0.0 0.0 -5.114448677602e+01 
-5.503567686437e+01 -3.055985146406e-01 0.0 
-3.055985146406e-01 -1.172332945570e+02 0.0 
0.0 0.0 -5.120792532869e+01 
-5.529031003741e+01 -3.854968424973e-01 0.0 
-3.854968424973e-01 -1.173173221804e+02 0.0 
0.0 0.0 -5.128138583329e+01 
-5.561326720038e+01 -4.532085441923e-01 0.0 
-4.532085441923e-01 -1.174084923469e+02 0.0 
0.0 0.0 -5.135773231271e+01 
-5.598306766286e+01 -5.006575258471e-01 0.0 
-5.006575258471e-01 -1.175176826938e+02 0.0 
0.0 0.0 -5.144520807353e+01 
-5.639450908813e+01 -5.198564510076e-01 0.0 
-5.198564510076e-01 -1.176521452274e+02 0.0 
0.0 0.0 -5.154352359742e+01 
-5.683972387939e+01 -5.042171099595e-01 0.0 
-5.042171099595e-01 -1.178110210141e+02 0.0 
0.0 0.0 -5.164568289590e+01 
-5.732553972636e+01 -4.451302979509e-01 0.0 
-4.451302979509e-01 -1.180131723047e+02 0.0 
0.0 0.0 -5.175911402435e+01 
-5.785426191744e+01 -3.323507521272e-01 0.0 
-3.323507521272e-01 -1.182777947014e+02 0.0 
0.0 0.0 -5.188941754433e+01 
-5.842971843465e+01 -1.532827676157e-01 0.0 
-1.532827676157e-01 -1.186278500746e+02 0.0 
0.0 0.0 -5.204198393364e+01 
-5.898212352246e+01 1.106913275754e-01 0.0 
1.106913275754e-01 -1.190500923917e+02 0.0 
0.0 0.0 -5.213135113722e+01 
-5.956114522270e+01 4.923713884261e-01 0.0 
4.923713884261e-01 -1.194724857350e+02 0.0 
0.0 0.0 -5.206347437227e+01 
-6.014870055864e+01 9.648226229867e-01 0.0 
9.648226229867e-01 -1.199828519181e+02 0.0 
0.0 0.0 -5.193084812293e+01 
-6.074257371553e+01 1.577636170575e+00 0.0 
1.577636170575e+00 -1.204383919465e+02 0.0 
0.0 0.0 -5.166166787030e+01 
-6.125295457101e+01 2.250355778294e+00 0.0 
2.250355778294e+00 -1.209755794381e+02 0.0 
0.0 0.0 -5.130611247254e+01 
-6.238503647414e+01 3.283906927098e+00 0.0 
3.283906927098e+00 -1.223642722070e+02 0.0 
0.0 0.0 -5.115053902668e+01 
-6.144482737890e+01 4.157254814853e+00 0.0 
4.157254814853e+00 -1.189039519919e+02 0.0 
0.0 0.0 -4.929018617629e+01 
-7.030793254745e+01 3.179589534382e+00 0.0 
3.179589534382e+00 -1.388701855189e+02 0.0 
0.0 0.0 -5.895179206120e+01 
-7.108117812250e+01 2.711330075065e+00 0.0 
2.711330075065e+00 -1.420359473071e+02 0.0 
0.0 0.0 -6.081775075070e+01 
-6.990735594257e+01 1.921152214217e+00 0.0 
1.921152214217e+00 -1.404571857012e+02 0.0 
0.0 0.0 -6.065894613197e+01 
-6.929006835971e+01 1.417180599530e+00 0.0 
1.417180599530e+00 -1.397425830574e+02 0.0 
0.0 0.0 -6.075459359018e+01 
-6.860959713262e+01 9.805545655553e-01 0.0 
9.805545655553e-01 -1.392205943768e+02 0.0 
0.0 0.0 -6.086758296558e+01 
-6.789830424565e+01 6.773281352855e-01 0.0 
6.773281352855e-01 -1.386855069905e+02 0.0 
0.0 0.0 -6.082721116352e+01 
-6.719570198069e+01 4.254889713096e-01 0.0 
4.254889713096e-01 -1.382419235349e+02 0.0 
0.0 0.0 -6.067042406746e+01 
-6.653683886060e+01 2.297799715502e-01 0.0 
2.297799715502e-01 -1.378829481430e+02 0.0 
0.0 0.0 -6.049970090549e+01 
-6.592823621313e+01 9.495018795106e-02 0.0 
9.495018795106e-02 -1.376029885083e+02 0.0 
0.0 0.0 -6.035086701366e+01 
-6.537044089283e+01 1.270525395277e-02 0.0 
1.270525395277e-02 -1.373817603063e+02 0.0 
0.0 0.0 -6.022303503240e+01 
-6.486542353159e+01 -1.797731247104e-02 0.0 
-1.797731247104e-02 -1.372120924891e+02 0.0 
0.0 0.0 -6.010407287610e+01 
-6.444219829457e+01 -3.231430061174e-02 0.0 
-3.231430061174e-02 -1.370787477697e+02 0.0 
0.0 0.0 -5.998500775036e+01 
-6.409224176085e+01 -4.073258659551e-02 0.0 
-4.073258659551e-02 -1.369683468375e+02 0.0 
0.0 0.0 -5.988888141024e+01 
-6.380599505840e+01 -3.418426521907e-02 0.0 
-3.418426521907e-02 -1.368659582271e+02 0.0 
0.0 0.0 -5.979666777452e+01 
-6.359127970580e+01 -1.847517364677e-02 0.0 
-1.847517364677e-02 -1.367776513421e+02 0.0 
0.0 0.0 -5.971067931438e+01 
-6.343657809796e+01 1.947898456713e-04 0.0 
1.947898456713e-04 -1.366997419830e+02 0.0 
0.0 0.0 -5.964089602430e+01 
-6.334057732181e+01 2.333208230313e-02 0.0 
2.333208230313e-02 -1.366463888884e+02 0.0 
0.0 0.0 -5.959608986305e+01 
-6.327370074949e+01 4.506522677851e-02 0.0 
4.506522677851e-02 -1.366431042286e+02 0.0 
0.0 0.0 -5.957504149342e+01 
-6.328507744312e+01 -4.261459215462e-01 0.0 
-4.261459215462e-01 -1.366884245550e+02 0.0 
0.0 0.0 -5.959205059942e+01 
-7.184826789471e+01 -2.827335822389e-01 0.0 
-2.827335822389e-01 -1.563088120729e+02 0.0 
0.0 0.0 -6.804712399028e+01 
-7.193970466462e+01 1.120908092569e-02 0.0 
1.120908092569e-02 -1.562521226689e+02 0.0 
0.0 0.0 -6.805754820005e+01 
-7.203626213003e+01 8.950671800776e-02 0.0 
8.950671800776e-02 -1.562764666163e+02 0.0 
0.0 0.0 -6.809381862391e+01 
-7.216476778497e+01 1.268865118937e-01 0.0 
1.268865118937e-01 -1.563546403303e+02 0.0 
0.0 0.0 -6.815582243459e+01 
-7.236102087943e+01 1.664253757886e-01 0.0 
1.664253757886e-01 -1.564368380107e+02 0.0 
0.0 0.0 -6.823935766705e+01 
-7.257906593376e+01 2.189475833532e-01 0.0 
2.189475833532e-01 -1.565433085708e+02 0.0 
0.0 0.0 -6.833671235138e+01 
-7.284033435373e+01 2.899055031070e-01 0.0 
2.899055031070e-01 -1.566780243636e+02 0.0 
0.0 0.0 -6.845550761519e+01 
-7.315449311904e+01 3.999536142380e-01 0.0 
3.999536142380e-01 -1.568162868073e+02 0.0 
0.0 0.0 -6.859123397791e+01 
-7.357150573883e+01 4.876117297432e-01 0.0 
4.876117297432e-01 -1.569617362209e+02 0.0 
0.0 0.0 -6.873293098756e+01 
-7.405316106512e+01 5.933675822866e-01 0.0 
5.933675822866e-01 -1.572176029165e+02 0.0 
0.0 0.0 -6.888805580225e+01 
-7.468240816215e+01 7.594236069030e-01 0.0 
7.594236069030e-01 -1.575219469037e+02 0.0 
0.0 0.0 -6.904531481777e+01 
-7.537920210818e+01 9.744294930502e-01 0.0 
9.744294930502e-01 -1.578937577082e+02 0.0 
0.0 0.0 -6.923233857267e+01 
-7.610575944451e+01 1.241360717887e+00 0.0 
1.241360717887e+00 -1.583800075372e+02 0.0 
0.0 0.0 -6.943818007516e+01 
-7.693332624906e+01 1.547831162460e+00 0.0 
1.547831162460e+00 -1.588731668956e+02 0.0 
0.0 0.0 -6.956794931236e+01 
-7.764616079678e+01 1.851582421742e+00 0.0 
1.851582421742e+00 -1.596033692864e+02 0.0 
0.0 0.0 -6.963414321788e+01 
-7.886819889150e+01 2.508440946858e+00 0.0 
2.508440946858e+00 -1.613522604052e+02 0.0 
0.0 0.0 -7.003355882749e+01 
-7.827660888003e+01 2.827061078713e+00 0.0 
2.827061078713e+00 -1.582927685535e+02 0.0 
0.0 0.0 -6.843273093363e+01 
-8.535646196834e+01 2.781896184627e+00 0.0 
2.781896184627e+00 -1.773207062389e+02 0.0 
0.0 0.0 -7.737458255155e+01 
-8.577285907160e+01 2.618651919465e+00 0.0 
2.618651919465e+00 -1.802294874318e+02 0.0 
0.0 0.0 -7.870851515684e+01 
-8.457938506374e+01 2.141325634822e+00 0.0 
2.141325634822e+00 -1.785797831025e+02 0.0 
0.0 0.0 -7.812243301128e+01 
-8.392219002234e+01 1.836813289754e+00 0.0 
1.836813289754e+00 -1.779847522370e+02 0.0 
0.0 0.0 -7.792332911652e+01 
-8.328770451656e+01 1.586646995539e+00 0.0 
1.586646995539e+00 -1.775577177953e+02 0.0 
0.0 0.0 -7.772541038496e+01 
-8.274666479642e+01 1.307943437073e+00 0.0 
1.307943437073e+00 -1.772242998956e+02 0.0 
0.0 0.0 -7.754920955004e+01 
-8.227858007085e+01 1.062547451064e+00 0.0 
1.062547451064e+00 -1.768640767097e+02 0.0 
0.0 0.0 -7.734279703418e+01 
-8.190303551663e+01 8.979222026389e-01 0.0 
8.979222026389e-01 -1.766296968536e+02 0.0 
0.0 0.0 -7.715981971107e+01 
-8.165706479800e+01 6.921497315634e-01 0.0 
6.921497315634e-01 -1.765307171225e+02 0.0 
0.0 0.0 -7.705633457615e+01 
-8.130595554334e+01 5.580232734883e-01 0.0 
5.580232734883e-01 -1.763358987255e+02 0.0 
0.0 0.0 -7.689255628064e+01 
-8.106425139736e+01 4.309752620539e-01 0.0 
4.309752620539e-01 -1.761989825737e+02 0.0 
0.0 0.0 -7.677897019133e+01 
-8.086751436021e+01 3.688111782851e-01 0.0 
3.688111782851e-01 -1.760895641305e+02 0.0 
0.0 0.0 -7.668712354720e+01 
-8.067746502168e+01 2.614369450025e-01 0.0 
2.614369450025e-01 -1.760217576855e+02 0.0 
0.0 0.0 -7.660976681214e+01 
-8.054345812484e+01 2.114462237730e-01 0.0 
2.114462237730e-01 -1.758968344392e+02 0.0 
0.0 0.0 -7.653208776922e+01 
-8.047282486963e+01 2.376500681044e-01 0.0 
2.376500681044e-01 -1.759957270838e+02 0.0 
0.0 0.0 -7.654056558602e+01 
-8.036301683807e+01 -4.093968637921e-01 0.0 
-4.093968637921e-01 -1.760599694367e+02 0.0 
0.0 0.0 -7.652689588244e+01 
-4.236144088126e+01 1.876724654083e+01 0.0 
1.876724654083e+01 -2.766433079658e+01 0.0 
0.0 0.0 -1.925384842894e+01 
-3.539859395296e+01 1.131533982796e+01 0.0 
1.131533982796e+01 -3.810409085729e+01 0.0 
0.0 0.0 -1.872433818785e+01 
-3.946900211463e+01 8.934546884088e+00 0.0 
8.934546884088e+00 -5.596019016533e+01 0.0 
0.0 0.0 -2.488431473260e+01 
-4.471047467993e+01 8.430234203956e+00 0.0 
8.430234203956e+00 -7.381180475109e+01 0.0 
0.0 0.0 -3.225292599642e+01 
-5.126331006742e+01 7.968356858574e+00 0.0 
7.968356858574e+00 -9.230353737322e+01 0.0 
0.0 0.0 -3.984470966012e+01 
-5.953773938520e+01 6.447026002586e+00 0.0 
6.447026002586e+00 -1.126765312715e+02 0.0 
0.0 0.0 -4.745879256075e+01 
-6.858206010051e+01 4.721835744838e+00 0.0 
4.721835744838e+00 -1.334909598928e+02 0.0 
0.0 0.0 -5.516660127566e+01 
-7.693050127617e+01 3.707050021902e+00 0.0 
3.707050021902e+00 -1.533122428868e+02 0.0 
0.0 0.0 -6.510244598502e+01 
-8.441393839656e+01 3.352888515147e+00 0.0 
3.352888515147e+00 -1.724787980002e+02 0.0 
0.0 0.0 -7.452127626118e+01 
-9.110592480820e+01 3.336235371975e+00 0.0 
3.336235371975e+00 -1.916306163381e+02 0.0 
0.0 0.0 -8.353624773284e+01 
-4.379549074040e+01 1.582551981506e+01 0.0 
1.582551981506e+01 -6.077141815047e+01 0.0 
0.0 0.0 -2.772885756621e+01 
-1.661004159460e+02 1.619413819540e+00 0.0 
1.619413819540e+00 -3.913176404576e+02 0.0 
0.0 0.0 -1.668254169211e+02 
-1.336009256173e+01 -2.846962600602e-01 0.0 
-2.846962600602e-01 -1.718425871658e+01 0.0 
0.0 0.0 -8.282035110873e+00 
-5.966643685763e+01 -2.115835252291e+01 0.0 
-2.115835252291e+01 -8.594531915379e+01 0.0 
0.0 0.0 -4.450457329995e+01 
-1.662663349986e+02 -6.706985520866e-01 0.0 
-6.706985520866e-01 -3.910922034385e+02 0.0 
0.0 0.0 -1.668075615311e+02 
-5.223377201666e+01 1.030131748117e+01 0.0 
1.030131748117e+01 -9.212675889966e+01 0.0 
0.0 0.0 -4.011273460095e+01 
-1.092974874598e+02 -8.472905249095e-01 0.0 
-8.472905249095e-01 -2.135600752078e+02 0.0 
0.0 0.0 -9.200432023691e+01 
-1.655085414882e+02 3.182654739027e+00 0.0 
3.182654739027e+00 -3.898545767471e+02 0.0 
0.0 0.0 -1.662089354706e+02 
-6.692388803850e+01 7.321513656245e+00 0.0 
7.321513656245e+00 -1.291940710653e+02 0.0 
0.0 0.0 -5.445604998553e+01 
-1.656802415071e+02 4.760435903221e+00 0.0 
4.760435903221e+00 -3.897225454388e+02 0.0 
0.0 0.0 -1.662208360838e+02 
-8.383906079374e+01 4.375048367129e+00 0.0 
4.375048367129e+00 -1.701148637962e+02 0.0 
0.0 0.0 -7.236414119113e+01 
-1.668406087772e+02 -1.345614601001e+00 0.0 
-1.345614601001e+00 -3.903711428686e+02 0.0 
0.0 0.0 -1.667635254937e+02 
-1.173372727687e+01 2.187560326670e-01 0.0 
2.187560326670e-01 -1.618955244903e+01 0.0 
0.0 0.0 -6.615629565433e+00 
-1.652884978863e+02 5.664185895519e+00 0.0 
5.664185895519e+00 -3.875039923816e+02 0.0 
0.0 0.0 -1.654377470804e+02 
-9.717003161172e+01 3.985446508842e+00 0.0 
3.985446508842e+00 -2.087009303713e+02 0.0 
0.0 0.0 -9.077272913486e+01 
-6.990184163655e+01 -8.521980097536e-01 0.0 
-8.521980097536e-01 -1.308961879141e+02 0.0 
0.0 0.0 -5.571400927735e+01 
-1.263050088481e+02 -6.817506327580e-01 0.0 
-6.817506327580e-01 -2.695262313472e+02 0.0 
0.0 0.0 -1.159303651095e+02 
-1.645310587768e+02 5.699403824299e+00 0.0 
5.699403824299e+00 -3.845175153176e+02 0.0 
0.0 0.0 -1.643145722283e+02 
-1.639352720546e+02 4.840706683856e+00 0.0 
4.840706683856e+00 -3.824553689946e+02 0.0 
0.0 0.0 -1.635171923148e+02 
-1.622465271524e+02 2.010517059621e+00 0.0 
2.010517059621e+00 -3.780677501913e+02 0.0 
0.0 0.0 -1.616942832031e+02 
-1.620990034249e+02 2.970150047726e+00 0.0 
2.970150047726e+00 -3.773907641462e+02 0.0 
0.0 0.0 -1.614469302713e+02 
-1.634116587902e+02 4.131654683336e+00 0.0 
4.131654683336e+00 -3.810229265370e+02 0.0 
0.0 0.0 -1.629303755982e+02 
-9.908677504462e+01 3.292047039762e+00 0.0 
3.292047039762e+00 -2.162163481211e+02 0.0 
0.0 0.0 -9.418065372910e+01 
-9.786138209751e+01 1.759106714340e+00 0.0 
1.759106714340e+00 -2.144268417258e+02 0.0 
0.0 0.0 -9.328646714700e+01 
-9.765367855724e+01 1.090389593859e+00 0.0 
1.090389593859e+00 -2.150264034022e+02 0.0 
0.0 0.0 -9.340402458784e+01 
-1.257788394098e+02 3.429394683059e-01 0.0 
3.429394683059e-01 -2.848662335176e+02 0.0 
0.0 0.0 -1.227935218782e+02 
-1.659980079549e+02 -1.012432697647e+00 0.0 
-1.012432697647e+00 -3.877344656079e+02 0.0 
0.0 0.0 -1.657197420689e+02 
-7.280715617312e+01 8.282185422114e+00 0.0 
8.282185422114e+00 -1.077974432140e+02 0.0 
0.0 0.0 -5.500090845326e+01 
-1.187690644801e+01 1.605484558048e-01 0.0 
1.605484558048e-01 -1.718966412924e+01 0.0 
0.0 0.0 -6.628064248562e+00 
-1.441577998790e+02 -2.659261134718e-01 0.0 
-2.659261134718e-01 -3.328255434413e+02 0.0 
0.0 0.0 -1.426950029961e+02 
-9.598339836178e+01 3.748245444286e-01 0.0 
3.748245444286e-01 -2.122947939916e+02 0.0 
0.0 0.0 -9.208345770600e+01 
-2.532597584960e+01 -3.737108457594e-01 0.0 
-3.737108457594e-01 -6.844566192256e+01 0.0 
0.0 0.0 -2.696873967806e+01 
-1.628867375684e+02 5.305081020675e+00 0.0 
5.305081020675e+00 -3.803235350320e+02 0.0 
0.0 0.0 -1.625630817801e+02 
-1.662524460109e+02 3.984034103223e+00 0.0 
3.984034103223e+00 -3.912727916244e+02 0.0 
0.0 0.0 -1.668575712906e+02 
-1.654991170878e+02 5.348957460303e+00 0.0 
5.348957460303e+00 -3.887655924644e+02 0.0 
0.0 0.0 -1.658794128657e+02 
-1.652078489065e+02 2.438307397659e+00 0.0 
2.438307397659e+00 -3.894544554529e+02 0.0 
0.0 0.0 -1.659986913078e+02 
-1.664314965477e+02 7.068455022895e-01 0.0 
7.068455022895e-01 -3.921504841393e+02 0.0 
0.0 0.0 -1.671745942061e+02 
-2.989188652706e+01 -1.250928789221e+01 0.0 
-1.250928789221e+01 -2.567994863143e+01 0.0 
0.0 0.0 -1.453469689532e+01 
-9.827379207311e+01 2.452690716054e+00 0.0 
2.452690716054e+00 -2.145073881939e+02 0.0 
0.0 0.0 -9.343435408011e+01 
-1.648544433216e+02 -1.155427291389e+00 0.0 
-1.155427291389e+00 -3.871836075531e+02 0.0 
0.0 0.0 -1.652114152624e+02 
-1.412499643322e+02 3.765250780318e-01 0.0 
3.765250780318e-01 -3.237952063374e+02 0.0 
0.0 0.0 -1.391135512009e+02 
-1.168370854043e+01 5.246908887866e-01 0.0 
5.246908887866e-01 -1.678351992182e+01 0.0 
0.0 0.0 -7.653428025027e+00 
-9.187349101871e+01 -9.290904317344e-01 0.0 
-9.290904317344e-01 -1.711736508560e+02 0.0 
0.0 0.0 -7.360541094422e+01 
-1.631621575454e+02 1.283553251552e+00 0.0 
1.283553251552e+00 -3.805373113833e+02 0.0 
0.0 0.0 -1.627098406786e+02 
-5.953186589276e+01 9.228476902879e+00 0.0 
9.228476902879e+00 -1.117070766706e+02 0.0 
0.0 0.0 -4.790746852009e+01 
-4.713993604067e+01 1.198607487454e+01 0.0 
1.198607487454e+01 -7.558658917427e+01 0.0 
0.0 0.0 -3.303743638452e+01 
-7.585014455928e+01 5.347832029547e+00 0.0 
5.347832029547e+00 -1.501772071416e+02 0.0 
0.0 0.0 -6.222024942841e+01 
-9.076333239182e+01 4.100619357996e+00 0.0 
4.100619357996e+00 -1.892112331420e+02 0.0 
0.0 0.0 -8.168358729317e+01 
-4.373039035986e+01 2.576190925961e+01 0.0 
2.576190925961e+01 -5.165508924405e+01 0.0 
0.0 0.0 -2.839166074468e+01 
-1.105190059880e+02 1.916862928018e-01 0.0 
1.916862928018e-01 -2.473213145251e+02 0.0 
0.0 0.0 -1.069520961539e+02 
-1.671121491557e+02 -6.031759276302e-01 0.0 
-6.031759276302e-01 -3.903220467103e+02 0.0 
0.0 0.0 -1.668302587598e+02 
-1.194594314589e+01 2.890554782174e-02 0.0 
2.890554782174e-02 -1.632749776329e+01 0.0 
0.0 0.0 -6.435032685827e+00 
-1.564025702522e+02 3.239344607283e-01 0.0 
3.239344607283e-01 -3.624331836452e+02 0.0 
0.0 0.0 -1.552507261692e+02 
-1.001960496796e+02 4.001749029054e+00 0.0 
4.001749029054e+00 -2.176681143678e+02 0.0 
0.0 0.0 -9.477449710428e+01 
-1.033151592354e+02 4.561861896295e+00 0.0 
4.561861896295e+00 -2.263248203819e+02 0.0 
0.0 0.0 -9.830469094671e+01 
-1.065094327060e+02 4.252222971484e+00 0.0 
4.252222971484e+00 -2.351625484831e+02 0.0 
0.0 0.0 -1.021014417928e+02 
-1.100709026666e+02 4.966913488776e+00 0.0 
4.966913488776e+00 -2.453608427956e+02 0.0 
0.0 0.0 -1.062295236387e+02 
-1.139968333217e+02 4.585288910154e+00 0.0 
4.585288910154e+00 -2.551835267367e+02 0.0 
0.0 0.0 -1.103541080175e+02 
-1.172396120873e+02 5.037334279055e+00 0.0 
5.037334279055e+00 -2.643777061179e+02 0.0 
0.0 0.0 -1.140851954615e+02 
-1.132934361570e+02 5.411360310089e+00 0.0 
5.411360310089e+00 -2.545853657065e+02 0.0 
0.0 0.0 -1.099636405590e+02 
-1.205118194008e+02 5.398867081874e+00 0.0 
5.398867081874e+00 -2.736324839314e+02 0.0 
0.0 0.0 -1.178432909997e+02 
-1.163646076821e+02 5.795495280114e+00 0.0 
5.795495280114e+00 -2.637416884544e+02 0.0 
0.0 0.0 -1.136318888409e+02 
-1.214956385106e+02 4.722742328076e+00 0.0 
4.722742328076e+00 -2.744751206207e+02 0.0 
0.0 0.0 -1.183912277394e+02 
-1.236748856902e+02 5.698437684865e+00 0.0 
5.698437684865e+00 -2.828516207583e+02 0.0 
0.0 0.0 -1.215579519345e+02 
-1.193862760354e+02 6.100987664921e+00 0.0 
6.100987664921e+00 -2.729392118010e+02 0.0 
0.0 0.0 -1.172976463509e+02 
-1.267966383876e+02 5.910294742974e+00 0.0 
5.910294742974e+00 -2.920509243308e+02 0.0 
0.0 0.0 -1.252542688155e+02 
-1.223781787942e+02 6.310742438249e+00 0.0 
6.310742438249e+00 -2.821697551708e+02 0.0 
0.0 0.0 -1.209643801895e+02 
-1.153895269416e+02 6.509608443001e+00 0.0 
6.509608443001e+00 -2.631600921552e+02 0.0 
0.0 0.0 -1.129911049364e+02 
-1.181452790584e+02 6.739288661163e+00 0.0 
6.739288661163e+00 -2.724260687013e+02 0.0 
0.0 0.0 -1.166704491178e+02 
-1.120058555033e+02 6.770276926799e+00 0.0 
6.770276926799e+00 -2.535048147714e+02 0.0 
0.0 0.0 -1.085945653165e+02 
-1.145119575203e+02 7.080285264603e+00 0.0 
7.080285264603e+00 -2.628033516263e+02 0.0 
0.0 0.0 -1.122837022623e+02 
-1.209363882885e+02 6.815452726056e+00 0.0 
6.815452726056e+00 -2.816997630683e+02 0.0 
0.0 0.0 -1.203507691705e+02 
-1.169181617537e+02 7.211439592314e+00 0.0 
7.211439592314e+00 -2.720996314964e+02 0.0 
0.0 0.0 -1.159677982070e+02 
-1.112660292064e+02 7.333377492150e+00 0.0 
7.333377492150e+00 -2.532037240441e+02 0.0 
0.0 0.0 -1.077405262737e+02 
-1.134014780479e+02 7.496177093037e+00 0.0 
7.496177093037e+00 -2.625702980080e+02 0.0 
0.0 0.0 -1.114858913494e+02 
-1.081853900803e+02 7.709826746362e+00 0.0 
7.709826746362e+00 -2.436758884084e+02 0.0 
0.0 0.0 -1.030838553399e+02 
-1.101323541858e+02 7.830185999886e+00 0.0 
7.830185999886e+00 -2.531147055356e+02 0.0 
0.0 0.0 -1.068782294295e+02 
-1.048623595598e+02 8.255562526042e+00 0.0 
8.255562526042e+00 -2.341551293933e+02 0.0 
0.0 0.0 -9.851343962083e+01 
-1.067800441989e+02 8.343605622935e+00 0.0 
8.343605622935e+00 -2.437163505044e+02 0.0 
0.0 0.0 -1.026447745538e+02 
-1.119176902318e+02 7.724675688949e+00 0.0 
7.724675688949e+00 -2.625138972389e+02 0.0 
0.0 0.0 -1.107126843927e+02 
-1.083606088573e+02 8.115749091477e+00 0.0 
8.115749091477e+00 -2.531379153625e+02 0.0 
0.0 0.0 -1.067585060789e+02 
-1.029935190903e+02 9.060857721376e+00 0.0 
9.060857721376e+00 -2.343567979567e+02 0.0 
0.0 0.0 -9.898950349461e+01 
-1.045217456175e+02 8.710513988718e+00 0.0 
8.710513988718e+00 -2.437899417663e+02 0.0 
0.0 0.0 -1.032527849914e+02 
-9.869375290564e+01 9.966474844714e+00 0.0 
9.966474844714e+00 -2.250760882731e+02 0.0 
0.0 0.0 -9.574111926081e+01 
-9.992441770096e+01 9.492981804756e+00 0.0 
9.492981804756e+00 -2.344076950783e+02 0.0 
0.0 0.0 -9.999680195300e+01 
-1.057296447627e+02 8.018876066148e+00 0.0 
8.018876066148e+00 -2.527914955627e+02 0.0 
0.0 0.0 -1.073860181504e+02 
-1.011731184838e+02 8.621851440998e+00 0.0 
8.621851440998e+00 -2.430325322327e+02 0.0 
0.0 0.0 -1.040854561891e+02 
-9.505305861012e+01 1.014807443259e+01 0.0 
1.014807443259e+01 -2.245628902715e+02 0.0 
0.0 0.0 -9.633538345284e+01 
-9.653225168867e+01 9.023245055996e+00 0.0 
9.023245055996e+00 -2.332840363321e+02 0.0 
0.0 0.0 -1.004481379074e+02 
-9.028185625761e+01 1.062758067604e+01 0.0 
1.062758067604e+01 -2.152711088421e+02 0.0 
0.0 0.0 -9.230838238518e+01 
-9.180570462399e+01 9.036976120325e+00 0.0 
9.036976120325e+00 -2.243983443348e+02 0.0 
0.0 0.0 -9.624257902537e+01 
-8.558708998491e+01 1.044485137678e+01 0.0 
1.044485137678e+01 -2.069450350582e+02 0.0 
0.0 0.0 -8.743811708495e+01 
-8.728016398338e+01 8.325158269831e+00 0.0 
8.325158269831e+00 -2.162177395808e+02 0.0 
0.0 0.0 -9.124173228699e+01 
-9.338059167972e+01 7.070301925805e+00 0.0 
7.070301925805e+00 -2.331296741528e+02 0.0 
0.0 0.0 -1.002331564058e+02 
-8.911087057873e+01 5.943603962903e+00 0.0 
5.943603962903e+00 -2.248977424417e+02 0.0 
0.0 0.0 -9.527249159231e+01 
-8.294444300504e+01 6.950522968301e+00 0.0 
6.950522968301e+00 -2.083561737555e+02 0.0 
0.0 0.0 -8.630512747008e+01 
-8.510900867739e+01 4.122138980671e+00 0.0 
4.122138980671e+00 -2.166489145352e+02 0.0 
0.0 0.0 -9.026552322305e+01 
-9.115958571865e+01 3.466780364348e+00 0.0 
3.466780364348e+00 -2.329461160143e+02 0.0 
0.0 0.0 -9.949937558994e+01 
-8.752548963533e+01 1.321574828560e+00 0.0 
1.321574828560e+00 -2.241254473507e+02 0.0 
0.0 0.0 -9.449290170667e+01 
-9.352246893435e+01 1.030226894194e+00 0.0 
1.030226894194e+00 -2.403113750094e+02 0.0 
0.0 0.0 -1.037507973137e+02 
-9.026085312818e+01 -1.288646768990e+00 0.0 
-1.288646768990e+00 -2.310231726593e+02 0.0 
0.0 0.0 -9.895907164001e+01 
-8.423015886801e+01 -1.377910836713e+00 0.0 
-1.377910836713e+00 -2.151808050168e+02 0.0 
0.0 0.0 -8.985955279254e+01 
-8.734833506650e+01 -3.989768274343e+00 0.0 
-3.989768274343e+00 -2.212926879913e+02 0.0 
0.0 0.0 -9.429872455783e+01 
-9.346597017931e+01 -3.368294524079e+00 0.0 
-3.368294524079e+00 -2.373648375538e+02 0.0 
0.0 0.0 -1.030882763549e+02 
-9.095951183356e+01 -5.942731852767e+00 0.0 
-5.942731852767e+00 -2.272371494697e+02 0.0 
0.0 0.0 -9.842581216819e+01 
-8.467958473958e+01 -6.924927343666e+00 0.0 
-6.924927343666e+00 -2.110469354424e+02 0.0 
0.0 0.0 -8.978006749860e+01 
-8.860242587155e+01 -8.555278170543e+00 0.0 
-8.555278170543e+00 -2.166828060625e+02 0.0 
0.0 0.0 -9.363428920748e+01 
-9.525474721898e+01 -6.989159132963e+00 0.0 
-6.989159132963e+00 -2.342303236451e+02 0.0 
0.0 0.0 -1.019292297318e+02 
-9.312621539257e+01 -9.221261954176e+00 0.0 
-9.221261954176e+00 -2.231712513201e+02 0.0 
0.0 0.0 -9.689802444622e+01 
-8.616466418661e+01 -1.110374579829e+01 0.0 
-1.110374579829e+01 -2.056071933599e+02 0.0 
0.0 0.0 -8.868577527632e+01 
-9.099179054372e+01 -1.107184959455e+01 0.0 
-1.107184959455e+01 -2.112497926997e+02 0.0 
0.0 0.0 -9.155857042022e+01 
-9.859123604097e+01 -8.602487502409e+00 0.0 
-8.602487502409e+00 -2.297026448910e+02 0.0 
0.0 0.0 -1.000238058413e+02 
-9.650454595800e+01 -9.938100399740e+00 0.0 
-9.938100399740e+00 -2.175364560313e+02 0.0 
0.0 0.0 -9.456126644520e+01 
-8.882919384175e+01 -1.231660740575e+01 0.0 
-1.231660740575e+01 -1.984566386346e+02 0.0 
0.0 0.0 -8.600534371662e+01 
-9.411774051807e+01 -1.081988267685e+01 0.0 
-1.081988267685e+01 -2.049574251125e+02 0.0 
0.0 0.0 -8.890967146946e+01 
-1.017271728203e+02 -8.643381954358e+00 0.0 
-8.643381954358e+00 -2.245182270041e+02 0.0 
0.0 0.0 -9.738999144205e+01 
-9.917029164596e+01 -9.271820248123e+00 0.0 
-9.271820248123e+00 -2.119617310801e+02 0.0 
0.0 0.0 -9.169121093802e+01 
-1.064218249282e+02 -7.453242286410e+00 0.0 
-7.453242286410e+00 -2.316659924979e+02 0.0 
0.0 0.0 -9.984762233984e+01 
-9.126375347313e+01 -1.122044950249e+01 0.0 
-1.122044950249e+01 -1.919490558434e+02 0.0 
0.0 0.0 -8.307820059292e+01 
-9.616297358956e+01 -9.493599693753e+00 0.0 
-9.493599693753e+00 -1.991140801723e+02 0.0 
0.0 0.0 -8.585779663731e+01 
-8.781478635788e+01 -1.108930999776e+01 0.0 
-1.108930999776e+01 -1.786903480099e+02 0.0 
0.0 0.0 -7.708990298441e+01 
-9.263314811860e+01 -9.314796105172e+00 0.0 
-9.314796105172e+00 -1.861507102675e+02 0.0 
0.0 0.0 -7.995456679942e+01 
-1.069646169993e+02 7.189900250446e+00 0.0 
7.189900250446e+00 -2.613174862541e+02 0.0 
0.0 0.0 -1.113517476764e+02 
-8.370611414281e+01 -1.051809200063e+01 0.0 
-1.051809200063e+01 -1.654769502394e+02 0.0 
0.0 0.0 -7.109095251848e+01 
-7.900490748862e+01 -1.248708015918e+01 0.0 
-1.248708015918e+01 -1.582009842312e+02 0.0 
0.0 0.0 -6.826464113955e+01 
-8.848877474045e+01 -8.762936931040e+00 0.0 
-8.762936931040e+00 -1.732661456057e+02 0.0 
0.0 0.0 -7.403309264443e+01 
-9.719545851403e+01 -7.774043406223e+00 0.0 
-7.774043406223e+00 -1.939109156307e+02 0.0 
0.0 0.0 -8.271737558439e+01 
-7.886588078252e+01 -9.590789007811e+00 0.0 
-9.590789007811e+00 -1.524020272421e+02 0.0 
0.0 0.0 -6.508080641620e+01 
-8.365940929214e+01 -7.946545899640e+00 0.0 
-7.946545899640e+00 -1.605069773903e+02 0.0 
0.0 0.0 -6.810949316465e+01 
-7.326297049029e+01 -8.410131043763e+00 0.0 
-8.410131043763e+00 -1.395571510400e+02 0.0 
0.0 0.0 -5.904915564782e+01 
-8.381244977504e+01 1.209918272474e+01 0.0 
1.209918272474e+01 -1.968108758377e+02 0.0 
0.0 0.0 -8.356503461300e+01 
-1.237683179165e+02 6.743135531388e+00 0.0 
6.743135531388e+00 -2.909406302239e+02 0.0 
0.0 0.0 -1.240112354049e+02 
-7.810739750273e+01 -6.944672260982e+00 0.0 
-6.944672260982e+00 -1.478983740557e+02 0.0 
0.0 0.0 -6.218785084859e+01 
-6.689249127589e+01 -7.072657643438e+00 0.0 
-7.072657643438e+00 -1.269492128808e+02 0.0 
0.0 0.0 -5.303884041879e+01 
-6.222556096049e+01 -8.329735485290e+00 0.0 
-8.329735485290e+00 -1.184871337511e+02 0.0 
0.0 0.0 -4.980652808937e+01 
-5.490169611293e+01 -6.636740105935e+00 0.0 
-6.636740105935e+00 -1.060105311624e+02 0.0 
0.0 0.0 -4.373559597603e+01 
-1.182439945977e+02 4.385673793197e+00 0.0 
4.385673793197e+00 -2.652898577792e+02 0.0 
0.0 0.0 -1.146601557130e+02 
-1.256133897309e+02 4.389915387999e+00 0.0 
4.389915387999e+00 -2.846440905872e+02 0.0 
0.0 0.0 -1.226772440954e+02 
-1.219860270142e+02 4.041292019164e+00 0.0 
4.041292019164e+00 -2.748341145449e+02 0.0 
0.0 0.0 -1.186460424677e+02 
-1.296940020461e+02 4.142766635717e+00 0.0 
4.142766635717e+00 -2.947705002560e+02 0.0 
0.0 0.0 -1.269393506906e+02 
-1.261839249763e+02 3.794286018614e+00 0.0 
3.794286018614e+00 -2.853615012049e+02 0.0 
0.0 0.0 -1.230636278544e+02 
-5.969605414695e+01 -5.627443331245e+00 0.0 
-5.627443331245e+00 -1.145833159226e+02 0.0 
0.0 0.0 -4.707096924584e+01 
-1.312382360238e+02 5.573136818276e+00 0.0 
5.573136818276e+00 -3.021777607307e+02 0.0 
0.0 0.0 -1.296247990263e+02 
-1.331781032937e+02 4.460318620815e+00 0.0 
4.460318620815e+00 -3.041477253925e+02 0.0 
0.0 0.0 -1.307977486059e+02 
-1.059236142190e+02 7.370749829234e+00 0.0 
7.370749829234e+00 -2.342740317372e+02 0.0 
0.0 0.0 -9.933817275161e+01 
-9.695753606948e+01 1.004495504238e+01 0.0 
1.004495504238e+01 -2.152597842540e+02 0.0 
0.0 0.0 -9.124408112839e+01 
-9.733855354533e+01 2.741227200859e+00 0.0 
2.741227200859e+00 -2.496070232967e+02 0.0 
0.0 0.0 -1.085224547360e+02 
-8.830746966263e+01 -6.550312938246e+00 0.0 
-6.550312938246e+00 -1.686456199111e+02 0.0 
0.0 0.0 -7.110730879164e+01 
-8.286717240395e+01 -5.688579283574e+00 0.0 
-5.688579283574e+00 -1.562633583155e+02 0.0 
0.0 0.0 -6.532130433808e+01 
-9.270673678583e+01 -5.352746121450e+00 0.0 
-5.352746121450e+00 -1.768709097220e+02 0.0 
0.0 0.0 -7.444914555678e+01 
-1.085876558677e+02 -6.634736795541e+00 0.0 
-6.634736795541e+00 -2.439099257042e+02 0.0 
0.0 0.0 -1.053370469358e+02 
-1.125708841964e+02 -5.831435873177e+00 0.0 
-5.831435873177e+00 -2.511156936191e+02 0.0 
0.0 0.0 -1.074725925270e+02 
-1.141472899045e+02 -4.872529972119e+00 0.0 
-4.872529972119e+00 -2.630717722084e+02 0.0 
0.0 0.0 -1.126420095539e+02 
-1.176826999797e+02 -4.349879223762e+00 0.0 
-4.349879223762e+00 -2.703759578927e+02 0.0 
0.0 0.0 -1.150817244502e+02 
-1.193811708788e+02 -3.393959161144e+00 0.0 
-3.393959161144e+00 -2.820990406181e+02 0.0 
0.0 0.0 -1.199445282132e+02 
-1.230521654709e+02 -3.049767926323e+00 0.0 
-3.049767926323e+00 -2.895299130985e+02 0.0 
0.0 0.0 -1.230066040775e+02 
-1.210588876668e+02 -3.806070403490e+00 0.0 
-3.806070403490e+00 -2.777743964064e+02 0.0 
0.0 0.0 -1.181067060851e+02 
-1.266842900110e+02 -2.681220699978e+00 0.0 
-2.681220699978e+00 -2.970572953179e+02 0.0 
0.0 0.0 -1.264721441453e+02 
-1.243616514030e+02 -3.259179901360e+00 0.0 
-3.259179901360e+00 -2.852927562620e+02 0.0 
0.0 0.0 -1.215810635678e+02 
-1.263533443703e+02 -2.449130284992e+00 0.0 
-2.449130284992e+00 -3.011644753591e+02 0.0 
0.0 0.0 -1.277847987869e+02 
-1.223055136402e+02 -2.613638446177e+00 0.0 
-2.613638446177e+00 -2.936305718223e+02 0.0 
0.0 0.0 -1.245415144470e+02 
-1.302877753053e+02 -2.319135335335e+00 0.0 
-2.319135335335e+00 -3.046708414042e+02 0.0 
0.0 0.0 -1.299257748022e+02 
-1.275571325742e+02 -2.724926726994e+00 0.0 
-2.724926726994e+00 -2.929186471250e+02 0.0 
0.0 0.0 -1.250380686420e+02 
-1.338915346380e+02 -1.987007624728e+00 0.0 
-1.987007624728e+00 -3.123777662800e+02 0.0 
0.0 0.0 -1.333774126800e+02 
-1.306795462837e+02 -2.220427426973e+00 0.0 
-2.220427426973e+00 -3.006735457926e+02 0.0 
0.0 0.0 -1.285272766536e+02 
-1.255246237471e+02 -3.057834114135e+00 0.0 
-3.057834114135e+00 -2.810354890542e+02 0.0 
0.0 0.0 -1.201183019445e+02 
-1.284355511428e+02 -2.434783638110e+00 0.0 
-2.434783638110e+00 -2.888598044070e+02 0.0 
0.0 0.0 -1.236365656569e+02 
-1.234422403219e+02 -3.252365010090e+00 0.0 
-3.252365010090e+00 -2.691648676056e+02 0.0 
0.0 0.0 -1.151735932643e+02 
-9.996201523874e+01 7.581648146514e-01 0.0 
7.581648146514e-01 -2.570979044449e+02 0.0 
0.0 0.0 -1.124514627919e+02 
-1.041077673498e+02 2.112707015145e+00 0.0 
2.112707015145e+00 -2.670984908015e+02 0.0 
0.0 0.0 -1.163927403880e+02 
-1.072701405508e+02 8.416582394533e-01 0.0 
8.416582394533e-01 -2.748581777382e+02 0.0 
0.0 0.0 -1.194711920924e+02 
-1.119317254951e+02 1.974510320350e+00 0.0 
1.974510320350e+00 -2.848199645115e+02 0.0 
0.0 0.0 -1.224241416354e+02 
-1.163939007136e+02 1.226092102327e+00 0.0 
1.226092102327e+00 -2.930598123544e+02 0.0 
0.0 0.0 -1.253547152580e+02 
-1.217439354591e+02 2.075081062431e+00 0.0 
2.075081062431e+00 -3.031324594536e+02 0.0 
0.0 0.0 -1.285588859646e+02 
-1.262540109004e+02 1.572033476555e+00 0.0 
1.572033476555e+00 -3.115173134207e+02 0.0 
0.0 0.0 -1.317697719082e+02 
-1.212005872433e+02 7.473169615672e-01 0.0 
7.473169615672e-01 -3.013865883795e+02 0.0 
0.0 0.0 -1.282456269324e+02 
-1.298652248059e+02 6.043731240917e+00 0.0 
6.043731240917e+00 -3.011725522516e+02 0.0 
0.0 0.0 -1.289113331172e+02 
-7.875871647894e+01 4.888615783865e+00 0.0 
4.888615783865e+00 -2.007409511956e+02 0.0 
0.0 0.0 -8.188709197616e+01 
-7.646122117162e+01 8.057876912888e+00 0.0 
8.057876912888e+00 -1.920764589285e+02 0.0 
0.0 0.0 -7.808392077341e+01 
-7.209372858975e+01 5.658937881539e+00 0.0 
5.658937881539e+00 -1.853233865129e+02 0.0 
0.0 0.0 -7.404513019226e+01 
-6.987383596083e+01 9.234459108683e+00 0.0 
9.234459108683e+00 -1.761332481076e+02 0.0 
0.0 0.0 -7.015938571787e+01 
-6.524638849893e+01 6.710969187144e+00 0.0 
6.710969187144e+00 -1.702949882454e+02 0.0 
0.0 0.0 -6.667229007691e+01 
-6.331409101375e+01 1.076906070540e+01 0.0 
1.076906070540e+01 -1.603618493332e+02 0.0 
0.0 0.0 -6.269717961452e+01 
-5.837935980642e+01 8.146740905212e+00 0.0 
8.146740905212e+00 -1.557299312276e+02 0.0 
0.0 0.0 -6.016353268710e+01 
-6.086672520354e+01 3.035465628605e+00 0.0 
3.035465628605e+00 -1.643773935296e+02 0.0 
0.0 0.0 -6.383850680856e+01 
-5.373052568507e+01 3.870815593636e+00 0.0 
3.870815593636e+00 -1.511837875132e+02 0.0 
0.0 0.0 -5.852952608491e+01 
-5.703799451049e+01 -1.853285805784e+00 0.0 
-1.853285805784e+00 -1.575290376113e+02 0.0 
0.0 0.0 -6.119122975082e+01 
-4.947789816084e+01 -1.910888172377e+00 0.0 
-1.910888172377e+00 -1.453841173077e+02 0.0 
0.0 0.0 -5.674529922815e+01 
-5.378892859074e+01 -7.515742258892e+00 0.0 
-7.515742258892e+00 -1.484070019214e+02 0.0 
0.0 0.0 -5.760634079870e+01 
-1.137321396378e+02 7.376964573649e+00 0.0 
7.376964573649e+00 -2.717536893856e+02 0.0 
0.0 0.0 -1.145826526286e+02 
-1.172363169868e+02 2.817219845453e+00 0.0 
2.817219845453e+00 -2.948176742528e+02 0.0 
0.0 0.0 -1.253054382544e+02 
-1.272920434641e+02 2.637329040068e+00 0.0 
2.637329040068e+00 -3.133359528496e+02 0.0 
0.0 0.0 -1.323121081555e+02 
-1.230484585750e+02 3.251999781189e+00 0.0 
3.251999781189e+00 -3.048520722187e+02 0.0 
0.0 0.0 -1.287655646322e+02 
-5.060973452590e+01 -7.427449709398e+00 0.0 
-7.427449709398e+00 -9.749222427037e+01 0.0 
0.0 0.0 -4.045673973589e+01 
-1.338032096046e+02 -1.773460607251e+00 0.0 
-1.773460607251e+00 -3.085672771682e+02 0.0 
0.0 0.0 -1.320654203324e+02 
-1.303755403340e+02 -1.863518504074e+00 0.0 
-1.863518504074e+00 -3.126729587738e+02 0.0 
0.0 0.0 -1.325145497323e+02 
-1.260698960428e+02 -1.833170211767e+00 0.0 
-1.833170211767e+00 -3.048867376035e+02 0.0 
0.0 0.0 -1.289837550489e+02 
-1.306792345821e+02 1.119901086481e+00 0.0 
1.119901086481e+00 -3.199594575814e+02 0.0 
0.0 0.0 -1.350670732422e+02 
-4.682108061961e+01 -4.844000129059e+00 0.0 
-4.844000129059e+00 -9.393779324229e+01 0.0 
0.0 0.0 -3.796050271088e+01 
-5.680776425741e+01 1.274425827540e+01 0.0 
1.274425827540e+01 -1.447171204282e+02 0.0 
0.0 0.0 -5.589207366001e+01 
-6.196478982570e+01 1.405997960633e+01 0.0 
1.405997960633e+01 -1.489177036395e+02 0.0 
0.0 0.0 -5.861786654330e+01 
-1.338129103874e+02 3.921551246649e+00 0.0 
3.921551246649e+00 -3.049734831412e+02 0.0 
0.0 0.0 -1.312359180586e+02 
-1.302702866438e+02 3.565007643565e+00 0.0 
3.565007643565e+00 -2.955820887923e+02 0.0 
0.0 0.0 -1.273557126308e+02 
-1.347437616148e+02 -1.258486449318e+00 0.0 
-1.258486449318e+00 -3.239880051050e+02 0.0 
0.0 0.0 -1.372195300159e+02 
-5.154432862832e+01 -4.059517703817e+00 0.0 
-4.059517703817e+00 -1.025807167481e+02 0.0 
0.0 0.0 -4.165082487651e+01 
-1.341868035636e+02 -2.011596486300e+00 0.0 
-2.011596486300e+00 -3.163551884959e+02 0.0 
0.0 0.0 -1.347556095571e+02 
-4.637325040870e+01 5.289803116338e+00 0.0 
5.289803116338e+00 -1.392315211251e+02 0.0 
0.0 0.0 -5.435248824020e+01 
-1.311919520385e+02 -1.885037654231e+00 0.0 
-1.885037654231e+00 -2.968179147133e+02 0.0 
0.0 0.0 -1.271729724826e+02 
-1.370221571903e+02 -1.388605233280e+00 0.0 
-1.388605233280e+00 -3.165412492372e+02 0.0 
0.0 0.0 -1.355727349214e+02 
-1.193509929358e+02 -4.406633139454e+00 0.0 
-4.406633139454e+00 -2.658577680730e+02 0.0 
0.0 0.0 -1.131008133721e+02 
-1.327918969347e+02 2.992010268470e+00 0.0 
2.992010268470e+00 -3.236507144580e+02 0.0 
0.0 0.0 -1.365543878470e+02 
-1.286562868066e+02 3.524060923594e+00 0.0 
3.524060923594e+00 -3.150255386519e+02 0.0 
0.0 0.0 -1.328173735942e+02 
-6.095735020062e+01 -6.554652217321e+00 0.0 
-6.554652217321e+00 -1.617539011526e+02 0.0 
0.0 0.0 -6.334922655418e+01 
-5.842079910520e+01 -1.149338043041e+01 0.0 
-1.149338043041e+01 -1.501650958482e+02 0.0 
0.0 0.0 -5.853398710520e+01 
-5.146531926354e+01 -1.320874699337e+01 0.0 
-1.320874699337e+01 -1.359849178610e+02 0.0 
0.0 0.0 -5.209424228860e+01 
-5.689530136367e+01 -1.569561537906e+01 0.0 
-1.569561537906e+01 -1.363939954143e+02 0.0 
0.0 0.0 -5.313446199095e+01 
-6.314704743283e+01 -1.367300151629e+01 0.0 
-1.367300151629e+01 -1.522057181727e+02 0.0 
0.0 0.0 -6.055002330486e+01 
-6.133008418672e+01 -1.637176130731e+01 0.0 
-1.637176130731e+01 -1.377601548792e+02 0.0 
0.0 0.0 -5.507459499076e+01 
-5.571249671062e+01 -1.835583759798e+01 0.0 
-1.835583759798e+01 -1.203328405838e+02 0.0 
0.0 0.0 -4.716194024413e+01 
-5.940270347230e+01 -1.767822579679e+01 0.0 
-1.767822579679e+01 -1.211711850158e+02 0.0 
0.0 0.0 -4.860257073242e+01 
-6.510328691053e+01 -1.641874379825e+01 0.0 
-1.641874379825e+01 -1.398165229139e+02 0.0 
0.0 0.0 -5.747181386563e+01 
-6.241003434051e+01 -1.658591662808e+01 0.0 
-1.658591662808e+01 -1.235993049863e+02 0.0 
0.0 0.0 -5.131719098680e+01 
-5.690275484108e+01 -1.678469448587e+01 0.0 
-1.678469448587e+01 -1.032899894819e+02 0.0 
0.0 0.0 -4.257053248689e+01 
-5.852950627068e+01 -1.504055816098e+01 0.0 
-1.504055816098e+01 -1.066332645507e+02 0.0 
0.0 0.0 -4.511441858510e+01 
-1.411746575466e+02 -1.384738908509e+00 0.0 
-1.384738908509e+00 -3.281291124649e+02 0.0 
0.0 0.0 -1.403911310035e+02 
-4.151163951711e+01 -1.808670279333e+00 0.0 
-1.808670279333e+00 -1.348895462670e+02 0.0 
0.0 0.0 -5.330777069685e+01 
-1.093802212226e+02 6.361764255842e+00 0.0 
6.361764255842e+00 -2.442501630884e+02 0.0 
0.0 0.0 -1.049059074737e+02 
-1.389398148068e+02 -1.375575432216e+00 0.0 
-1.375575432216e+00 -3.317602929578e+02 0.0 
0.0 0.0 -1.408100323294e+02 
-1.356826490970e+02 1.720552850054e+00 0.0 
1.720552850054e+00 -3.299712674031e+02 0.0 
0.0 0.0 -1.393292847639e+02 
-1.379530697113e+02 3.705500174422e+00 0.0 
3.705500174422e+00 -3.152642018705e+02 0.0 
0.0 0.0 -1.355651814746e+02 
-1.343798743311e+02 3.343770847055e+00 0.0 
3.343770847055e+00 -3.059263024222e+02 0.0 
0.0 0.0 -1.316918530260e+02 
-1.266343407409e+02 3.149623542758e+00 0.0 
3.149623542758e+00 -2.861421427036e+02 0.0 
0.0 0.0 -1.234329450333e+02 
-1.307544278875e+02 2.950894008725e+00 0.0 
2.950894008725e+00 -2.966288756522e+02 0.0 
0.0 0.0 -1.278149910619e+02 
-1.385013803506e+02 3.146223671925e+00 0.0 
3.146223671925e+00 -3.164104956902e+02 0.0 
0.0 0.0 -1.360735628122e+02 
-1.348822568509e+02 2.761442271974e+00 0.0 
2.761442271974e+00 -3.071423334140e+02 0.0 
0.0 0.0 -1.322073770795e+02 
-1.270798904203e+02 2.572275245450e+00 0.0 
2.572275245450e+00 -2.873362210598e+02 0.0 
0.0 0.0 -1.239248334440e+02 
-1.312405642127e+02 2.388515990266e+00 0.0 
2.388515990266e+00 -2.978618403197e+02 0.0 
0.0 0.0 -1.283307213597e+02 
-1.233966896055e+02 2.203053298961e+00 0.0 
2.203053298961e+00 -2.780320287403e+02 0.0 
0.0 0.0 -1.200286155037e+02 
-1.275719085115e+02 2.024416846186e+00 0.0 
2.024416846186e+00 -2.886118451440e+02 0.0 
0.0 0.0 -1.244551260966e+02 
-1.354122081576e+02 2.206181540761e+00 0.0 
2.206181540761e+00 -3.084373947470e+02 0.0 
0.0 0.0 -1.327548808714e+02 
-1.317659259013e+02 1.866286557764e+00 0.0 
1.866286557764e+00 -2.992623467695e+02 0.0 
0.0 0.0 -1.289084818012e+02 
-1.238566799596e+02 1.673226057799e+00 0.0 
1.673226057799e+00 -2.794409308787e+02 0.0 
0.0 0.0 -1.205892832515e+02 
-1.280859385052e+02 1.546132486652e+00 0.0 
1.546132486652e+00 -2.901070626786e+02 0.0 
0.0 0.0 -1.250579003551e+02 
-1.201030620507e+02 1.366227044554e+00 0.0 
1.366227044554e+00 -2.702693116935e+02 0.0 
0.0 0.0 -1.167117121233e+02 
-1.243879939863e+02 1.263668075412e+00 0.0 
1.263668075412e+00 -2.808906222061e+02 0.0 
0.0 0.0 -1.211835848577e+02 
-1.323395642644e+02 1.367933957790e+00 0.0 
1.367933957790e+00 -3.008286128952e+02 0.0 
0.0 0.0 -1.295504531479e+02 
-3.755796598403e+01 -3.058583752305e+00 0.0 
-3.058583752305e+00 -8.265708022226e+01 0.0 
0.0 0.0 -3.297942076717e+01 
-1.257649686577e+02 3.337104782673e-01 0.0 
3.337104782673e-01 -3.097116351395e+02 0.0 
0.0 0.0 -1.310179178704e+02 
-1.350797300189e+02 6.681208063428e-01 0.0 
6.681208063428e-01 -3.284872575188e+02 0.0 
0.0 0.0 -1.386700962613e+02 
-8.765356372071e+01 -4.548942284739e+00 0.0 
-4.548942284739e+00 -1.651948090371e+02 0.0 
0.0 0.0 -6.943655088542e+01 
-9.688263021479e+01 -4.274470722242e+00 0.0 
-4.274470722242e+00 -1.849008987328e+02 0.0 
0.0 0.0 -7.845911916482e+01 
-1.012743123157e+02 -4.958330102151e+00 0.0 
-4.958330102151e+00 -1.972310891554e+02 0.0 
0.0 0.0 -8.357317382554e+01 
-1.050754798883e+02 -3.956301337499e+00 0.0 
-3.956301337499e+00 -2.055228044742e+02 0.0 
0.0 0.0 -8.776160027284e+01 
-1.286293720799e+02 1.091742138433e+00 0.0 
1.091742138433e+00 -2.915338860956e+02 0.0 
0.0 0.0 -1.256489774527e+02 
-1.365161219716e+02 1.160526426988e+00 0.0 
1.160526426988e+00 -3.115780681597e+02 0.0 
0.0 0.0 -1.340282570394e+02 
-5.616588323467e+01 1.618558569237e+01 0.0 
1.618558569237e+01 -1.321480702439e+02 0.0 
0.0 0.0 -5.150745594506e+01 
-6.090633380983e+01 1.624411845333e+01 0.0 
1.624411845333e+01 -1.364175726496e+02 0.0 
0.0 0.0 -5.458248383974e+01 
-1.414831817636e+02 4.043010696373e+00 0.0 
4.043010696373e+00 -3.246064636134e+02 0.0 
0.0 0.0 -1.394268936131e+02 
-1.338819053860e+02 -1.382497831489e+00 0.0 
-1.382497831489e+00 -3.049767012949e+02 0.0 
0.0 0.0 -1.307469757840e+02 
-1.290006204380e+02 -1.896287993602e+00 0.0 
-1.896287993602e+00 -2.851443991635e+02 0.0 
0.0 0.0 -1.223183644988e+02 
-9.233333124022e+01 1.122572169267e+01 0.0 
1.122572169267e+01 -2.060994389362e+02 0.0 
0.0 0.0 -8.793015876765e+01 
-9.042418742227e+01 1.099720302915e+01 0.0 
1.099720302915e+01 -1.958156122831e+02 0.0 
0.0 0.0 -8.334822164977e+01 
-8.560648334912e+01 1.237547863173e+01 0.0 
1.237547863173e+01 -1.866835866449e+02 0.0 
0.0 0.0 -7.982648047805e+01 
-8.333456501381e+01 1.179656546458e+01 0.0 
1.179656546458e+01 -1.757003979242e+02 0.0 
0.0 0.0 -7.507216902917e+01 
-8.807644236730e+01 1.027744244776e+01 0.0 
1.027744244776e+01 -1.855970412713e+02 0.0 
0.0 0.0 -7.867462954018e+01 
-7.839743847670e+01 1.343752779812e+01 0.0 
1.343752779812e+01 -1.665067458235e+02 0.0 
0.0 0.0 -7.146152454770e+01 
-1.180878042529e+02 -2.710797405692e+00 0.0 
-2.710797405692e+00 -2.859238342542e+02 0.0 
0.0 0.0 -1.218665996833e+02 
-1.395874219322e+02 2.036169331826e+00 0.0 
2.036169331826e+00 -3.191053875580e+02 0.0 
0.0 0.0 -1.372078428471e+02 
-5.815035127071e+01 -9.484112973298e+00 0.0 
-9.484112973298e+00 -1.101032814351e+02 0.0 
0.0 0.0 -4.661870806739e+01 
-4.734851698931e+01 -7.985768016436e+00 0.0 
-7.985768016436e+00 -8.909974190063e+01 0.0 
0.0 0.0 -3.730460067858e+01 
-1.403868726702e+02 -1.049769011453e+00 0.0 
-1.049769011453e+00 -3.247227495788e+02 0.0 
0.0 0.0 -1.391136491486e+02 
-1.165071212980e+02 -3.045417636940e-01 0.0 
-3.045417636940e-01 -2.911707222188e+02 0.0 
0.0 0.0 -1.248889346978e+02 
-1.177219527882e+02 7.131178203300e+00 0.0 
7.131178203300e+00 -2.811433952054e+02 0.0 
0.0 0.0 -1.189389129230e+02 
-1.201579290717e+02 6.545816105770e+00 0.0 
6.545816105770e+00 -2.901111464157e+02 0.0 
0.0 0.0 -1.225556180481e+02 
-1.249136098549e+02 6.367474145320e+00 0.0 
6.367474145320e+00 -2.996579345285e+02 0.0 
0.0 0.0 -1.269714633150e+02 
-1.280216688139e+02 5.814793434575e+00 0.0 
5.814793434575e+00 -3.085186611075e+02 0.0 
0.0 0.0 -1.305620989764e+02 
-1.331140347104e+02 5.831603467122e+00 0.0 
5.831603467122e+00 -3.183065681559e+02 0.0 
0.0 0.0 -1.350261808599e+02 
-1.364061380228e+02 5.342168995100e+00 0.0 
5.342168995100e+00 -3.270247676815e+02 0.0 
0.0 0.0 -1.386292717113e+02 
-1.312992225844e+02 5.203037134528e+00 0.0 
5.203037134528e+00 -3.172067618061e+02 0.0 
0.0 0.0 -1.341517953171e+02 
-1.381742968287e+02 3.274037993372e+00 0.0 
3.274037993372e+00 -3.339943172808e+02 0.0 
0.0 0.0 -1.412505842328e+02 
-1.398844907878e+02 4.835198419902e+00 0.0 
4.835198419902e+00 -3.356578085636e+02 0.0 
0.0 0.0 -1.422626898054e+02 
-1.206271603837e+02 9.194312615092e-01 0.0 
9.194312615092e-01 -2.714046482938e+02 0.0 
0.0 0.0 -1.172095426033e+02 
-1.134287262778e+02 3.781004677418e+00 0.0 
3.781004677418e+00 -2.863760314475e+02 0.0 
0.0 0.0 -1.220862030671e+02 
-6.810090107987e+01 -1.612599187828e+01 0.0 
-1.612599187828e+01 -1.427179484817e+02 0.0 
0.0 0.0 -6.043410519681e+01 
-3.326673808762e+01 -3.364865468600e+00 0.0 
-3.364865468600e+00 -7.372749360288e+01 0.0 
0.0 0.0 -2.906186651548e+01 
-5.084884887945e+01 -1.320784790680e+01 0.0 
-1.320784790680e+01 -8.444944265206e+01 0.0 
0.0 0.0 -3.541577835943e+01 
-4.246920240476e+01 -2.641583328037e+00 0.0 
-2.641583328037e+00 -9.044502241195e+01 0.0 
0.0 0.0 -3.659015782327e+01 
-5.692165983351e+01 -3.333972430915e+00 0.0 
-3.333972430915e+00 -1.110431199696e+02 0.0 
0.0 0.0 -4.569789865981e+01 
-1.435519579008e+02 -8.513957912401e-01 0.0 
-8.513957912401e-01 -3.430397652560e+02 0.0 
0.0 0.0 -1.455775169470e+02 
-1.414566832123e+02 5.445443979201e+00 0.0 
5.445443979201e+00 -3.369572444221e+02 0.0 
0.0 0.0 -1.431241782903e+02 
-1.380371734023e+02 5.808688701039e+00 0.0 
5.808688701039e+00 -3.279793826911e+02 0.0 
0.0 0.0 -1.394049668280e+02 
-8.072986452486e+01 1.065172158077e+01 0.0 
1.065172158077e+01 -1.654327444374e+02 0.0 
0.0 0.0 -7.040130389610e+01 
-8.535200023806e+01 9.268997531291e+00 0.0 
9.268997531291e+00 -1.757409252328e+02 0.0 
0.0 0.0 -7.410674469146e+01 
-1.422652177150e+02 2.887620844174e+00 0.0 
2.887620844174e+00 -3.424745727119e+02 0.0 
0.0 0.0 -1.450219371281e+02 
-1.186538408151e+02 3.604684130303e+00 0.0 
3.604684130303e+00 -2.656758583881e+02 0.0 
0.0 0.0 -1.148989097610e+02 
-1.192669366932e+02 2.367283694016e+00 0.0 
2.367283694016e+00 -2.675650896306e+02 0.0 
0.0 0.0 -1.156496078971e+02 
-1.154613971811e+02 1.979685271617e+00 0.0 
1.979685271617e+00 -2.581573492517e+02 0.0 
0.0 0.0 -1.116856239299e+02 
-2.713936027124e+01 -1.415448976749e+00 0.0 
-1.415448976749e+00 -6.857078472913e+01 0.0 
0.0 0.0 -2.696382987992e+01 
-5.031455230532e+01 -1.576712287881e+01 0.0 
-1.576712287881e+01 -8.155616109845e+01 0.0 
0.0 0.0 -3.344176452714e+01 
-1.426377666607e+02 2.945209673128e+00 0.0 
2.945209673128e+00 -3.269505122520e+02 0.0 
0.0 0.0 -1.404764836738e+02 
-6.662240019774e+01 1.462626554726e+01 0.0 
1.462626554726e+01 -1.541262815545e+02 0.0 
0.0 0.0 -6.231696953282e+01 
-6.528032327308e+01 1.591731833417e+01 0.0 
1.591731833417e+01 -1.423296499449e+02 0.0 
0.0 0.0 -5.853703891787e+01 
-3.886850942014e+01 7.910651220318e+00 0.0 
7.910651220318e+00 -1.286848914142e+02 0.0 
0.0 0.0 -5.142166982413e+01 
-3.372481882999e+01 -1.593622339884e+00 0.0 
-1.593622339884e+00 -1.271359388611e+02 0.0 
0.0 0.0 -5.054077219786e+01 
-1.328505626869e+02 8.086070652030e-01 0.0 
8.086070652030e-01 -3.020261935184e+02 0.0 
0.0 0.0 -1.300630268616e+02 
-1.406875074935e+02 9.238090241838e-01 0.0 
9.238090241838e-01 -3.219255878587e+02 0.0 
0.0 0.0 -1.383839286057e+02 
-1.088481263802e+02 -4.443363881342e+00 0.0 
-4.443363881342e+00 -2.175470271891e+02 0.0 
0.0 0.0 -9.278556807424e+01 
-1.122541895893e+02 -3.497103704083e+00 0.0 
-3.497103704083e+00 -2.257235036325e+02 0.0 
0.0 0.0 -9.670280992913e+01 
-1.393472648280e+02 -6.216021841714e-01 0.0 
-6.216021841714e-01 -3.351177644015e+02 0.0 
0.0 0.0 -1.419395087688e+02 
-5.224778207235e+01 -1.194725277854e+01 0.0 
-1.194725277854e+01 -9.006368635513e+01 0.0 
0.0 0.0 -3.838560106827e+01 
-1.444144086598e+02 1.288814469317e+00 0.0 
1.288814469317e+00 -3.315098555251e+02 0.0 
0.0 0.0 -1.423772792555e+02 
-1.211645987664e+02 -6.250903484847e-01 0.0 
-6.250903484847e-01 -2.993531998441e+02 0.0 
0.0 0.0 -1.273030428726e+02 
-1.123975354081e+02 -1.447980935198e+00 0.0 
-1.447980935198e+00 -2.808267949972e+02 0.0 
0.0 0.0 -1.214728000015e+02 
-1.006960694956e+02 -3.344993903271e+00 0.0 
-3.344993903271e+00 -1.930943486138e+02 0.0 
0.0 0.0 -8.261700054302e+01 
-5.593054224368e+01 1.805407227066e+01 0.0 
1.805407227066e+01 -1.182938420555e+02 0.0 
0.0 0.0 -4.752458344753e+01 
-5.148756978353e+01 1.882161787077e+01 0.0 
1.882161787077e+01 -1.150223955886e+02 0.0 
0.0 0.0 -4.549558569302e+01 
-7.095533267702e+01 -1.534942081803e+01 0.0 
-1.534942081803e+01 -1.578631910471e+02 0.0 
0.0 0.0 -6.652524256838e+01 
-6.003240231859e+01 -1.398751434143e+01 0.0 
-1.398751434143e+01 -1.112748584233e+02 0.0 
0.0 0.0 -4.780182582622e+01 
-4.807100682283e+01 -2.093019169151e+00 0.0 
-2.093019169151e+00 -9.891581256763e+01 0.0 
0.0 0.0 -4.072710651151e+01 
-1.483226363566e+02 -3.495043390086e-01 0.0 
-3.495043390086e-01 -3.541103720063e+02 0.0 
0.0 0.0 -1.503299025089e+02 
-1.462066832711e+02 3.309712865288e+00 0.0 
3.309712865288e+00 -3.360916413861e+02 0.0 
0.0 0.0 -1.442894973971e+02 
-1.348045016805e+02 4.636755733709e+00 0.0 
4.636755733709e+00 -3.257478716991e+02 0.0 
0.0 0.0 -1.377657120139e+02 
-1.260531952589e+02 5.049772909826e+00 0.0 
5.049772909826e+00 -3.072490174217e+02 0.0 
0.0 0.0 -1.295906638042e+02 
-1.437597141720e+02 4.354317827333e+00 0.0 
4.354317827333e+00 -3.443348466702e+02 0.0 
0.0 0.0 -1.460283682526e+02 
-4.336983800835e+01 -9.043988044051e+00 0.0 
-9.043988044051e+00 -6.848300667200e+01 0.0 
0.0 0.0 -2.891836712516e+01 
-1.477398751622e+02 -1.015171803405e+00 0.0 
-1.015171803405e+00 -3.511165137751e+02 0.0 
0.0 0.0 -1.492569166812e+02 
-1.366376132888e+02 -9.478857455789e-01 0.0 
-9.478857455789e-01 -3.133587877980e+02 0.0 
0.0 0.0 -1.343801788093e+02 
-1.459829247804e+02 5.477862613889e+00 0.0 
5.477862613889e+00 -3.460314742871e+02 0.0 
0.0 0.0 -1.472043197202e+02 
-1.428701847022e+02 5.751117632997e+00 0.0 
5.751117632997e+00 -3.376896192691e+02 0.0 
0.0 0.0 -1.437679411914e+02 
-7.099151963168e+01 1.470345514898e+01 0.0 
1.470345514898e+01 -1.604744298329e+02 0.0 
0.0 0.0 -6.656600563794e+01 
-6.942155444497e+01 1.547173791936e+01 0.0 
1.547173791936e+01 -1.494980120951e+02 0.0 
0.0 0.0 -6.309962560398e+01 
-6.375817907462e+01 1.610984723898e+01 0.0 
1.610984723898e+01 -1.303994637349e+02 0.0 
0.0 0.0 -5.489698889176e+01 
-6.745945396949e+01 1.514163604067e+01 0.0 
1.514163604067e+01 -1.380861103572e+02 0.0 
0.0 0.0 -5.900719617175e+01 
-1.095893129091e+02 5.708571741185e+00 0.0 
5.708571741185e+00 -2.447258287404e+02 0.0 
0.0 0.0 -1.056568691629e+02 
-7.548215223384e+01 1.441955593879e+01 0.0 
1.441955593879e+01 -1.681387629543e+02 0.0 
0.0 0.0 -7.137411040835e+01 
-1.064203886661e+02 6.562491289429e+00 0.0 
6.562491289429e+00 -2.345888615016e+02 0.0 
0.0 0.0 -1.003359785324e+02 
-1.035846932598e+02 6.011547619562e+00 0.0 
6.011547619562e+00 -2.253695582878e+02 0.0 
0.0 0.0 -9.667972968603e+01 
-1.005314073624e+02 6.240273086805e+00 0.0 
6.240273086805e+00 -2.157640880394e+02 0.0 
0.0 0.0 -9.203601145762e+01 
-9.241879643286e+01 9.017354540798e+00 0.0 
9.017354540798e+00 -1.954528078846e+02 0.0 
0.0 0.0 -8.206269139833e+01 
-8.965962696863e+01 8.105348508657e+00 0.0 
8.105348508657e+00 -1.859206638617e+02 0.0 
0.0 0.0 -7.770550997624e+01 
-7.446773209076e+01 1.089951213306e+01 0.0 
1.089951213306e+01 -1.822936516807e+02 0.0 
0.0 0.0 -7.425852234975e+01 
-1.016215558849e+02 3.853825855428e+00 0.0 
3.853825855428e+00 -2.590268444313e+02 0.0 
0.0 0.0 -1.127015190980e+02 
-1.052411675428e+02 -5.423981640515e+00 0.0 
-5.423981640515e+00 -2.095803587757e+02 0.0 
0.0 0.0 -8.882720321277e+01 
-1.204732557428e+02 -4.002971562656e+00 0.0 
-4.002971562656e+00 -2.614139033523e+02 0.0 
0.0 0.0 -1.116165974032e+02 
-1.102523316798e+02 -5.435349397099e+00 0.0 
-5.435349397099e+00 -2.557795576450e+02 0.0 
0.0 0.0 -1.105826199484e+02 
-1.431311790879e+02 2.380710287069e+00 0.0 
2.380710287069e+00 -3.281623371736e+02 0.0 
0.0 0.0 -1.409880548784e+02 
-1.473081364252e+02 2.206295452380e+00 0.0 
2.206295452380e+00 -3.389563422219e+02 0.0 
0.0 0.0 -1.454793435941e+02 
-1.158653114818e+02 1.466931503856e+00 0.0 
1.466931503856e+00 -2.596083057922e+02 0.0 
0.0 0.0 -1.122420851822e+02 
-1.121388496882e+02 1.188908689668e+00 0.0 
1.188908689668e+00 -2.503627286766e+02 0.0 
0.0 0.0 -1.083504735094e+02 
-3.890245247133e+01 -5.502614543001e+00 0.0 
-5.502614543001e+00 -7.665390702318e+01 0.0 
0.0 0.0 -3.122354611444e+01 
-3.656935476688e+01 -5.426575699627e+00 0.0 
-5.426575699627e+00 -6.833628958570e+01 0.0 
0.0 0.0 -2.811684466842e+01 
-1.104912543402e+02 -6.453070224754e+00 0.0 
-6.453070224754e+00 -2.389207529993e+02 0.0 
0.0 0.0 -1.021095395767e+02 
-1.429789324277e+02 -1.439571522998e+00 0.0 
-1.439571522998e+00 -3.394340548019e+02 0.0 
0.0 0.0 -1.443238961689e+02 
-1.455225923134e+02 3.821533496507e+00 0.0 
3.821533496507e+00 -3.347281913507e+02 0.0 
0.0 0.0 -1.436752350992e+02 
-1.490604151628e+02 4.175971949980e+00 0.0 
4.175971949980e+00 -3.440538394687e+02 0.0 
0.0 0.0 -1.475342763894e+02 
-1.449625956676e+02 4.366937656633e+00 0.0 
4.366937656633e+00 -3.338318830101e+02 0.0 
0.0 0.0 -1.432383436033e+02 
-1.440678675454e+02 -1.901114032930e-02 0.0 
-1.901114032930e-02 -3.458212542180e+02 0.0 
0.0 0.0 -1.465667365290e+02 
-7.482843366364e+01 2.003994883405e+00 0.0 
2.003994883405e+00 -1.931747657011e+02 0.0 
0.0 0.0 -7.789996963435e+01 
-1.033384467507e+02 -5.922534234082e-01 0.0 
-5.922534234082e-01 -2.646871357617e+02 0.0 
0.0 0.0 -1.158974174814e+02 
-3.879634888869e+01 -1.103727362751e+01 0.0 
-1.103727362751e+01 -1.261379128823e+02 0.0 
0.0 0.0 -5.039468764333e+01 
-1.114168227023e+02 6.884587668866e+00 0.0 
6.884587668866e+00 -2.710925839039e+02 0.0 
0.0 0.0 -1.147410523139e+02 
-2.747660355883e+01 -2.713937887335e+00 0.0 
-2.713937887335e+00 -5.638297812060e+01 0.0 
0.0 0.0 -2.242080460041e+01 
-1.283845687914e+02 6.384769487444e+00 0.0 
6.384769487444e+00 -3.005200400180e+02 0.0 
0.0 0.0 -1.282713826428e+02 
-1.440542611935e+02 -7.578532229796e-01 0.0 
-7.578532229796e-01 -3.331501046779e+02 0.0 
0.0 0.0 -1.427613097614e+02 
-1.484568012394e+02 -8.988661789231e-01 0.0 
-8.988661789231e-01 -3.443328881155e+02 0.0 
0.0 0.0 -1.474369068065e+02 
-1.473495442792e+02 3.208683267348e+00 0.0 
3.208683267348e+00 -3.526038053510e+02 0.0 
0.0 0.0 -1.495860048890e+02 
-1.004365648559e+02 4.627095133585e+00 0.0 
4.627095133585e+00 -2.171778161549e+02 0.0 
0.0 0.0 -9.415052419895e+01 
-1.131315693268e+02 5.933020074516e+00 0.0 
5.933020074516e+00 -2.793509842123e+02 0.0 
0.0 0.0 -1.183286884914e+02 
-1.084485561220e+02 6.133500583366e+00 0.0 
6.133500583366e+00 -2.694682087718e+02 0.0 
0.0 0.0 -1.151127143400e+02 
-9.743625176658e+01 5.545272294820e+00 0.0 
5.545272294820e+00 -2.066713015191e+02 0.0 
0.0 0.0 -8.846682462425e+01 
-9.415741811628e+01 5.822644239063e+00 0.0 
5.822644239063e+00 -1.970608936090e+02 0.0 
0.0 0.0 -8.371283909445e+01 
-9.725513244901e+01 6.592486751609e+00 0.0 
6.592486751609e+00 -2.060571872035e+02 0.0 
0.0 0.0 -8.718567467699e+01 
-9.062864345949e+01 6.293265414907e+00 0.0 
6.293265414907e+00 -1.872026530007e+02 0.0 
0.0 0.0 -7.863720665244e+01 
-7.416535222731e+01 -1.557302351918e+01 0.0 
-1.557302351918e+01 -1.614365742192e+02 0.0 
0.0 0.0 -6.921143950741e+01 
-7.103433282653e+01 -1.575188671220e+01 0.0 
-1.575188671220e+01 -1.466843321082e+02 0.0 
0.0 0.0 -6.304544333126e+01 
-1.505409044333e+02 5.180068858566e+00 0.0 
5.180068858566e+00 -3.569550908071e+02 0.0 
0.0 0.0 -1.518487985721e+02 
-1.484938904871e+02 4.528980903105e+00 0.0 
4.528980903105e+00 -3.539221993923e+02 0.0 
0.0 0.0 -1.503248269638e+02 
-1.508765612541e+02 5.581341624773e+00 0.0 
5.581341624773e+00 -3.560045587508e+02 0.0 
0.0 0.0 -1.516643360015e+02 
-1.479558680283e+02 5.712516081050e+00 0.0 
5.712516081050e+00 -3.479675952850e+02 0.0 
0.0 0.0 -1.483770389940e+02 
-1.515656101070e+02 2.870713805859e+00 0.0 
2.870713805859e+00 -3.611210208192e+02 0.0 
0.0 0.0 -1.534059892779e+02 
-1.462956793671e+02 2.534232624247e+00 0.0 
2.534232624247e+00 -3.507581946807e+02 0.0 
0.0 0.0 -1.487161622144e+02 
-6.199867854268e+01 -2.525674845129e+00 0.0 
-2.525674845129e+00 -1.188308292124e+02 0.0 
0.0 0.0 -4.966755861008e+01 
-8.234832074605e+01 8.079608096746e+00 0.0 
8.079608096746e+00 -1.664324368460e+02 0.0 
0.0 0.0 -6.975240423120e+01 
-1.504179508197e+02 3.126251897417e+00 0.0 
3.126251897417e+00 -3.466409674945e+02 0.0 
0.0 0.0 -1.487176754942e+02 
-1.005244088266e+02 5.373857490434e+00 0.0 
5.373857490434e+00 -2.161991520688e+02 0.0 
0.0 0.0 -9.305247806995e+01 
-1.514999186962e+02 -1.127584715364e+00 0.0 
-1.127584715364e+00 -3.583619226146e+02 0.0 
0.0 0.0 -1.525585523932e+02 
-1.470004345085e+02 -1.441418624363e+00 0.0 
-1.441418624363e+00 -3.472250408362e+02 0.0 
0.0 0.0 -1.478676426034e+02 
-3.458898683694e+01 -1.263965904404e+01 0.0 
-1.263965904404e+01 -1.209093523631e+02 0.0 
0.0 0.0 -4.876219810169e+01 
-3.930731720811e+01 -2.066589553464e+01 0.0 
-2.066589553464e+01 -1.091816556807e+02 0.0 
0.0 0.0 -4.404754674063e+01 
-1.485649212900e+02 1.064688432635e+00 0.0 
1.064688432635e+00 -3.421390994147e+02 0.0 
0.0 0.0 -1.468112062114e+02 
-6.113433916135e+01 1.493284253437e+01 0.0 
1.493284253437e+01 -1.178331263682e+02 0.0 
0.0 0.0 -5.045810369607e+01 
-6.428865673753e+01 1.363350435178e+01 0.0 
1.363350435178e+01 -1.253649846177e+02 0.0 
0.0 0.0 -5.403251744848e+01 
-5.787500751347e+01 1.625186996789e+01 0.0 
1.625186996789e+01 -1.105712987769e+02 0.0 
0.0 0.0 -4.675231664311e+01 
-1.603488488931e+02 -2.411461515590e-01 0.0 
-2.411461515590e-01 -3.730897911199e+02 0.0 
0.0 0.0 -1.596315920039e+02 
-9.570528367736e+01 2.012070780779e-01 0.0 
2.012070780779e-01 -2.116944519699e+02 0.0 
0.0 0.0 -9.181992069419e+01 
-1.522048194410e+02 -6.748388434290e-01 0.0 
-6.748388434290e-01 -3.529214970467e+02 0.0 
0.0 0.0 -1.511378949463e+02 
-9.647037980161e+01 8.021403282020e+00 0.0 
8.021403282020e+00 -2.053994401658e+02 0.0 
0.0 0.0 -8.600066540313e+01 
-1.523773339048e+02 1.392312606615e+00 0.0 
1.392312606615e+00 -3.517948582130e+02 0.0 
0.0 0.0 -1.508516576353e+02 
-1.155561031881e+02 4.954912973975e+00 0.0 
4.954912973975e+00 -2.874995028157e+02 0.0 
0.0 0.0 -1.217138386861e+02 
-8.702586410022e+01 1.243052603890e+01 0.0 
1.243052603890e+01 -1.968120827230e+02 0.0 
0.0 0.0 -8.410423789234e+01 
-1.349663544753e+02 -3.283287099277e-01 0.0 
-3.283287099277e-01 -3.269417896205e+02 0.0 
0.0 0.0 -1.381724432287e+02 
-1.444252104605e+02 7.971103748128e-01 0.0 
7.971103748128e-01 -3.314299862964e+02 0.0 
0.0 0.0 -1.423565590271e+02 
-1.527377880831e+02 7.751589596464e-01 0.0 
7.751589596464e-01 -3.532425795992e+02 0.0 
0.0 0.0 -1.513941103047e+02 
-1.114313673993e+02 2.097184355012e+00 0.0 
2.097184355012e+00 -2.477095684593e+02 0.0 
0.0 0.0 -1.073422807576e+02 
-1.071935363466e+02 1.828823817904e+00 0.0 
1.828823817904e+00 -2.377302576676e+02 0.0 
0.0 0.0 -1.030771382043e+02 
-1.149254728498e+02 2.520374324392e+00 0.0 
2.520374324392e+00 -2.565758935780e+02 0.0 
0.0 0.0 -1.110504099283e+02 
-4.480863973028e+01 1.288783739177e+01 0.0 
1.288783739177e+01 -1.281587652304e+02 0.0 
0.0 0.0 -4.965760886328e+01 
-3.878012716369e+01 1.816443176749e+01 0.0 
1.816443176749e+01 -1.126420783031e+02 0.0 
0.0 0.0 -4.556734661221e+01 
-1.436946458533e+02 1.834984474317e+00 0.0 
1.834984474317e+00 -3.297294324224e+02 0.0 
0.0 0.0 -1.416272234827e+02 
-7.694471559896e+01 -4.692284241567e+00 0.0 
-4.692284241567e+00 -1.440897930279e+02 0.0 
0.0 0.0 -6.004260519366e+01 
-8.275229359004e+01 -3.700868598858e+00 0.0 
-3.700868598858e+00 -1.544428109482e+02 0.0 
0.0 0.0 -6.519754773951e+01 
-5.340924257654e+01 -1.121258530110e+01 0.0 
-1.121258530110e+01 -9.588357191437e+01 0.0 
0.0 0.0 -4.101080747515e+01 
-6.197079153894e+01 -1.287015204269e+01 0.0 
-1.287015204269e+01 -1.168830302486e+02 0.0 
0.0 0.0 -5.028428156097e+01 
-1.121472387542e+02 -4.760872608352e+00 0.0 
-4.760872608352e+00 -2.296746599046e+02 0.0 
0.0 0.0 -9.785521111255e+01 
-1.086743235287e+02 -5.700633481490e+00 0.0 
-5.700633481490e+00 -2.218987009657e+02 0.0 
0.0 0.0 -9.418054258151e+01 
-1.315345334362e+02 6.283070032791e+00 0.0 
6.283070032791e+00 -3.097911742254e+02 0.0 
0.0 0.0 -1.319977122985e+02 
-1.361836623282e+02 6.046958926267e+00 0.0 
6.046958926267e+00 -3.194650033740e+02 0.0 
0.0 0.0 -1.362945997107e+02 
-1.220814465798e+02 6.845680499393e+00 0.0 
6.845680499393e+00 -2.905822747032e+02 0.0 
0.0 0.0 -1.233291889290e+02 
-1.169895755195e+02 -1.638779654473e+00 0.0 
-1.638779654473e+00 -2.887709622364e+02 0.0 
0.0 0.0 -1.236391196480e+02 
-1.092805511142e+02 -2.672460274481e+00 0.0 
-2.672460274481e+00 -2.701659204156e+02 0.0 
0.0 0.0 -1.176257256463e+02 
-1.043832862611e+02 -2.768921682594e+00 0.0 
-2.768921682594e+00 -2.624199995501e+02 0.0 
0.0 0.0 -1.147985946149e+02 
-1.505465106363e+02 2.563191337271e+00 0.0 
2.563191337271e+00 -3.475068805956e+02 0.0 
0.0 0.0 -1.490160173696e+02 
-1.555973611965e+02 2.336808961465e+00 0.0 
2.336808961465e+00 -3.605053276847e+02 0.0 
0.0 0.0 -1.544308066644e+02 
-7.699001939020e+01 -1.442183821965e+01 0.0 
-1.442183821965e+01 -1.755957729959e+02 0.0 
0.0 0.0 -7.511577240878e+01 
-7.334912705770e+01 -1.353107762874e+01 0.0 
-1.353107762874e+01 -1.718341852523e+02 0.0 
0.0 0.0 -7.213399400387e+01 
-7.821949243258e+01 -1.473765921726e+01 0.0 
-1.473765921726e+01 -1.659597215796e+02 0.0 
0.0 0.0 -7.169050866021e+01 
-1.539211613907e+02 3.474766769273e+00 0.0 
3.474766769273e+00 -3.557740875236e+02 0.0 
0.0 0.0 -1.525085746743e+02 
-1.564423172949e+02 -9.140288674177e-01 0.0 
-9.140288674177e-01 -3.637949538914e+02 0.0 
0.0 0.0 -1.556711813559e+02 
-1.527000110914e+02 -9.702722258629e-01 0.0 
-9.702722258629e-01 -3.554432950728e+02 0.0 
0.0 0.0 -1.520429918493e+02 
-2.556686579402e+01 -2.212050565015e+00 0.0 
-2.212050565015e+00 -4.840468331793e+01 0.0 
0.0 0.0 -1.943663942346e+01 
-3.458598189223e+01 -5.061410123588e+00 0.0 
-5.061410123588e+00 -6.008850086665e+01 0.0 
0.0 0.0 -2.475761005169e+01 
-5.100441332592e+01 1.947593497026e+01 0.0 
1.947593497026e+01 -9.897838966131e+01 0.0 
0.0 0.0 -4.009483104194e+01 
-4.700234528896e+01 2.141213421274e+01 0.0 
2.141213421274e+01 -9.667467728816e+01 0.0 
0.0 0.0 -3.888093758735e+01 
-1.523572316929e+02 4.483701455826e+00 0.0 
4.483701455826e+00 -3.528516908333e+02 0.0 
0.0 0.0 -1.511626767579e+02 
-1.485097316620e+02 4.665870020961e+00 0.0 
4.665870020961e+00 -3.432602473186e+02 0.0 
0.0 0.0 -1.471309936942e+02 
-1.571795890184e+02 4.340396202389e+00 0.0 
4.340396202389e+00 -3.647674303388e+02 0.0 
0.0 0.0 -1.561841058071e+02 
-5.216920832844e+01 -1.487953215855e+00 0.0 
-1.487953215855e+00 -1.054963485679e+02 0.0 
0.0 0.0 -4.397124882322e+01 
-1.297193104856e+02 4.347407823355e+00 0.0 
4.347407823355e+00 -3.159074366196e+02 0.0 
0.0 0.0 -1.332880241316e+02 
-1.528380913692e+02 1.682333901792e-01 0.0 
1.682333901792e-01 -3.640233332126e+02 0.0 
0.0 0.0 -1.546584273745e+02 
-1.485698454803e+02 5.027764829996e-01 0.0 
5.027764829996e-01 -3.557595407944e+02 0.0 
0.0 0.0 -1.508988158824e+02 
-1.581725690074e+02 -1.464559016110e-01 0.0 
-1.464559016110e-01 -3.747674425815e+02 0.0 
0.0 0.0 -1.594820034767e+02 
-1.431663428676e+02 3.605506842505e+00 0.0 
3.605506842505e+00 -3.438703970712e+02 0.0 
0.0 0.0 -1.457110219816e+02 
-1.519531782133e+02 3.548633932172e+00 0.0 
3.548633932172e+00 -3.619789626028e+02 0.0 
0.0 0.0 -1.537796422448e+02 
-1.525697264631e+02 4.178528164003e+00 0.0 
4.178528164003e+00 -3.626897217780e+02 0.0 
0.0 0.0 -1.541778344723e+02 
-3.840978786211e+01 -9.919323251080e-01 0.0 
-9.919323251080e-01 -1.235777653514e+02 0.0 
0.0 0.0 -5.046903848421e+01 
-1.500738249200e+02 6.024086939084e-01 0.0 
6.024086939084e-01 -3.462366702461e+02 0.0 
0.0 0.0 -1.484931485499e+02 
-1.074266234465e+02 1.297377768415e+00 0.0 
1.297377768415e+00 -2.387999143407e+02 0.0 
0.0 0.0 -1.034679613362e+02 
-4.821237497814e+01 -8.430136485076e+00 0.0 
-8.430136485076e+00 -1.173324047909e+02 0.0 
0.0 0.0 -5.110573246462e+01 
-1.037024799883e+02 1.007142229013e+00 0.0 
1.007142229013e+00 -2.297282693402e+02 0.0 
0.0 0.0 -9.962922479856e+01 
-1.081956388331e+02 9.310528398260e-01 0.0 
9.310528398260e-01 -2.410086940970e+02 0.0 
0.0 0.0 -1.043612998790e+02 
-9.929011043988e+01 7.736178046490e-01 0.0 
7.736178046490e-01 -2.194640160053e+02 0.0 
0.0 0.0 -9.522623793356e+01 
-3.722359179955e+01 -1.164055754788e+00 0.0 
-1.164055754788e+00 -8.568701038511e+01 0.0 
0.0 0.0 -3.489620896715e+01 
-1.058481757164e+02 2.300445418914e+00 0.0 
2.300445418914e+00 -2.337069524339e+02 0.0 
0.0 0.0 -1.014665384451e+02 
-1.108526422202e+02 2.812347102778e+00 0.0 
2.812347102778e+00 -2.460795376646e+02 0.0 
0.0 0.0 -1.066796539655e+02 
-2.153564255267e+01 -1.639674987591e+00 0.0 
-1.639674987591e+00 -3.661862095678e+01 0.0 
0.0 0.0 -1.521890526715e+01 
-1.578232334939e+02 3.222631370367e+00 0.0 
3.222631370367e+00 -3.659609845638e+02 0.0 
0.0 0.0 -1.567352654173e+02 
-1.805048815303e+01 -1.173031830903e-01 0.0 
-1.173031830903e-01 -3.767926311122e+01 0.0 
0.0 0.0 -1.498946865382e+01 
-2.018225248075e+01 -4.253811895447e-01 0.0 
-4.253811895447e-01 -4.536289485296e+01 0.0 
0.0 0.0 -1.766408247004e+01 
-1.556581815516e+02 -1.279087563371e+00 0.0 
-1.279087563371e+00 -3.664108378661e+02 0.0 
0.0 0.0 -1.562207058253e+02 
-1.508740090322e+02 -1.405600067845e+00 0.0 
-1.405600067845e+00 -3.548631791823e+02 0.0 
0.0 0.0 -1.513211564644e+02 
-1.590591778540e+02 -1.245282414321e+00 0.0 
-1.245282414321e+00 -3.735513923630e+02 0.0 
0.0 0.0 -1.593831710651e+02 
-1.542574213437e+02 -1.422176802424e+00 0.0 
-1.422176802424e+00 -3.619226991587e+02 0.0 
0.0 0.0 -1.544540361507e+02 
-1.462775911458e+02 -1.526041333470e+00 0.0 
-1.526041333470e+00 -3.432242866748e+02 0.0 
0.0 0.0 -1.464505633462e+02 
-1.502027337473e+02 -1.440778559750e+00 0.0 
-1.440778559750e+00 -3.513704928792e+02 0.0 
0.0 0.0 -1.500719679880e+02 
-1.029844087181e+02 1.465773153425e+00 0.0 
1.465773153425e+00 -2.277531836618e+02 0.0 
0.0 0.0 -9.882127771395e+01 
-1.593694228007e+02 -1.377626270852e+00 0.0 
-1.377626270852e+00 -3.728691530404e+02 0.0 
0.0 0.0 -1.592715727523e+02 
-1.541376266147e+02 -1.288106976038e+00 0.0 
-1.288106976038e+00 -3.598146805262e+02 0.0 
0.0 0.0 -1.537856921422e+02 
-1.631455206686e+02 -1.290835395940e+00 0.0 
-1.290835395940e+00 -3.814404535015e+02 0.0 
0.0 0.0 -1.629757922510e+02 
-8.741116068571e+01 5.340996648367e+00 0.0 
5.340996648367e+00 -1.786479538035e+02 0.0 
0.0 0.0 -7.549582855114e+01 
-7.122184632253e+01 1.386747706493e+01 0.0 
1.386747706493e+01 -1.457953446698e+02 0.0 
0.0 0.0 -6.268922767195e+01 
-6.815800324285e+01 1.236777364567e+01 0.0 
1.236777364567e+01 -1.342902276954e+02 0.0 
0.0 0.0 -5.795593003586e+01 
-6.027814766534e+01 1.140923010964e+01 0.0 
1.140923010964e+01 -1.130781267315e+02 0.0 
0.0 0.0 -4.896461901829e+01 
-1.571099739842e+02 5.579758005063e+00 0.0 
5.579758005063e+00 -3.691070130734e+02 0.0 
0.0 0.0 -1.574650961173e+02 
-1.520514325340e+02 5.603307887469e+00 0.0 
5.603307887469e+00 -3.567872103565e+02 0.0 
0.0 0.0 -1.522515928672e+02 
-1.399371350528e+02 -5.941606033481e-01 0.0 
-5.941606033481e-01 -3.224355538904e+02 0.0 
0.0 0.0 -1.382724357187e+02 
-1.339055134352e+02 -7.813335892776e-01 0.0 
-7.813335892776e-01 -3.023917143294e+02 0.0 
0.0 0.0 -1.297931259882e+02 
-1.037299478473e+02 6.319933158643e-01 0.0 
6.319933158643e-01 -2.306133561708e+02 0.0 
0.0 0.0 -9.990299120544e+01 
-1.031994672789e+02 5.046069662054e-01 0.0 
5.046069662054e-01 -2.294664281093e+02 0.0 
0.0 0.0 -9.939976861647e+01 
-1.106344288258e+02 4.903703780963e-01 0.0 
4.903703780963e-01 -2.474329889974e+02 0.0 
0.0 0.0 -1.070202253470e+02 
-1.095497685531e+02 4.663391666475e-01 0.0 
4.663391666475e-01 -2.449385876184e+02 0.0 
0.0 0.0 -1.059465068514e+02 
-1.169552837571e+02 4.507855574618e-01 0.0 
4.507855574618e-01 -2.630158920541e+02 0.0 
0.0 0.0 -1.135913527434e+02 
-1.158782828805e+02 4.219591400294e-01 0.0 
4.219591400294e-01 -2.602022809605e+02 0.0 
0.0 0.0 -1.124241691523e+02 
-1.233802891117e+02 6.370190534319e-01 0.0 
6.370190534319e-01 -2.786254987793e+02 0.0 
0.0 0.0 -1.202017363673e+02 
-1.575677324505e+02 4.453757146587e+00 0.0 
4.453757146587e+00 -3.729750767644e+02 0.0 
0.0 0.0 -1.587628427645e+02 
-5.442717046334e+01 1.396997954697e+01 0.0 
1.396997954697e+01 -9.705725197018e+01 0.0 
0.0 0.0 -4.178711572554e+01 
-9.419669718281e+01 4.814305790614e+00 0.0 
4.814305790614e+00 -1.977936617881e+02 0.0 
0.0 0.0 -8.501488669980e+01 
-1.554087611804e+02 2.547840751305e+00 0.0 
2.547840751305e+00 -3.692347139401e+02 0.0 
0.0 0.0 -1.569930425362e+02 
-1.495529664743e+02 2.183831886176e+00 0.0 
2.183831886176e+00 -3.577052934461e+02 0.0 
0.0 0.0 -1.517774779761e+02 
-8.659118761478e+01 7.031829077506e+00 0.0 
7.031829077506e+00 -1.767580102748e+02 0.0 
0.0 0.0 -7.365393843205e+01 
-7.917394894970e+01 6.708053684677e+00 0.0 
6.708053684677e+00 -1.579100700889e+02 0.0 
0.0 0.0 -6.565206353359e+01 
-1.575604281676e+02 -8.611172175818e-01 0.0 
-8.611172175818e-01 -3.724502747473e+02 0.0 
0.0 0.0 -1.586032108745e+02 
-7.721437523326e+01 1.344470240658e+01 0.0 
1.344470240658e+01 -1.784411248255e+02 0.0 
0.0 0.0 -7.484565488993e+01 
-1.622143805562e+02 3.667041710129e+00 0.0 
3.667041710129e+00 -3.776652214499e+02 0.0 
0.0 0.0 -1.615638806018e+02 
-6.255825815579e+01 2.143396161054e+01 0.0 
2.143396161054e+01 -8.600062891122e+01 0.0 
0.0 0.0 -4.538287221225e+01 
-4.097066459638e+01 2.109212124974e+01 0.0 
2.109212124974e+01 -1.046474427521e+02 0.0 
0.0 0.0 -4.521276373365e+01 
-8.198604586368e+01 1.314399206767e+01 0.0 
1.314399206767e+01 -1.867566949556e+02 0.0 
0.0 0.0 -7.969860666948e+01 
-9.369949967106e+01 7.202874621763e+00 0.0 
7.202874621763e+00 -1.961204984190e+02 0.0 
0.0 0.0 -8.213824985356e+01 
-7.570058085356e+01 1.232795256249e+01 0.0 
1.232795256249e+01 -1.548223214049e+02 0.0 
0.0 0.0 -6.645353776237e+01 
-7.315087925894e+01 1.089441333010e+01 0.0 
1.089441333010e+01 -1.453785805657e+02 0.0 
0.0 0.0 -6.222713213627e+01 
-1.258014653471e+02 -8.972558705133e-01 0.0 
-8.972558705133e-01 -3.076981993337e+02 0.0 
0.0 0.0 -1.301681919327e+02 
-3.327676427921e+01 -5.108480456782e+00 0.0 
-5.108480456782e+00 -5.321159852424e+01 0.0 
0.0 0.0 -2.209872226196e+01 
-5.473435842660e+01 1.774712798803e+01 0.0 
1.774712798803e+01 -1.042277537553e+02 0.0 
0.0 0.0 -4.331161152561e+01 
-1.244233932976e+02 6.513057898641e-01 0.0 
6.513057898641e-01 -2.809717478976e+02 0.0 
0.0 0.0 -1.212185423585e+02 
-4.976982364962e+01 1.766557296631e+01 0.0 
1.766557296631e+01 -8.350282165503e+01 0.0 
0.0 0.0 -3.557247538130e+01 
-1.368851715539e+02 -3.562446153422e-01 0.0 
-3.562446153422e-01 -3.126953981356e+02 0.0 
0.0 0.0 -1.342040635040e+02 
-7.911793231161e+01 1.179813150165e+01 0.0 
1.179813150165e+01 -1.891248158727e+02 0.0 
0.0 0.0 -7.867537126948e+01 
-9.895217513477e+01 8.653641385492e+00 0.0 
8.653641385492e+00 -2.149340138027e+02 0.0 
0.0 0.0 -9.021634959892e+01 
-5.997768244394e+01 1.708117505116e+01 0.0 
1.708117505116e+01 -1.237350925497e+02 0.0 
0.0 0.0 -5.093570852016e+01 
-7.372657522981e+01 1.484433205837e+01 0.0 
1.484433205837e+01 -1.580487361196e+02 0.0 
0.0 0.0 -6.764284668977e+01 
-1.125454236998e+02 6.155062743606e+00 0.0 
6.155062743606e+00 -2.539103816602e+02 0.0 
0.0 0.0 -1.093141699614e+02 
-1.065141149515e+02 5.202826625905e+00 0.0 
5.202826625905e+00 -2.356383757228e+02 0.0 
0.0 0.0 -1.020164520469e+02 
-1.035369955487e+02 5.268815769003e+00 0.0 
5.268815769003e+00 -2.259854724403e+02 0.0 
0.0 0.0 -9.763335890703e+01 
-8.099238197559e+01 9.585074290289e+00 0.0 
9.585074290289e+00 -1.991606161224e+02 0.0 
0.0 0.0 -8.248669048084e+01 
-7.775988927755e+01 9.339474993912e+00 0.0 
9.339474993912e+00 -1.558951523404e+02 0.0 
0.0 0.0 -6.600591485383e+01 
-6.888893762867e+01 9.202371712327e+00 0.0 
9.202371712327e+00 -1.339899374398e+02 0.0 
0.0 0.0 -5.715607548996e+01 
-1.089790163129e+02 7.009873216841e+00 0.0 
7.009873216841e+00 -2.438589379952e+02 0.0 
0.0 0.0 -1.040154830182e+02 
-1.408174295213e+02 4.535282848446e+00 0.0 
4.535282848446e+00 -3.236908071600e+02 0.0 
0.0 0.0 -1.389524710044e+02 
-1.442291628811e+02 4.803214620622e+00 0.0 
4.803214620622e+00 -3.329547950864e+02 0.0 
0.0 0.0 -1.427551873902e+02 
-1.516908316869e+02 4.931913518242e+00 0.0 
4.931913518242e+00 -3.517953021337e+02 0.0 
0.0 0.0 -1.506458401462e+02 
-1.476588060788e+02 5.068738117825e+00 0.0 
5.068738117825e+00 -3.421609198779e+02 0.0 
0.0 0.0 -1.465459177870e+02 
-1.400324039112e+02 5.029499067478e+00 0.0 
5.029499067478e+00 -3.228842106453e+02 0.0 
0.0 0.0 -1.384749843669e+02 
-1.434440486189e+02 5.284169329368e+00 0.0 
5.284169329368e+00 -3.321084002000e+02 0.0 
0.0 0.0 -1.422657346457e+02 
-1.511017084559e+02 5.248130765035e+00 0.0 
5.248130765035e+00 -3.513198611433e+02 0.0 
0.0 0.0 -1.503264708798e+02 
-1.471464268951e+02 5.437689178007e+00 0.0 
5.437689178007e+00 -3.418752166342e+02 0.0 
0.0 0.0 -1.463064930588e+02 
-1.561916298524e+02 5.532337185539e+00 0.0 
5.532337185539e+00 -3.642875322276e+02 0.0 
0.0 0.0 -1.557437486240e+02 
-1.504610300424e+02 5.631995565038e+00 0.0 
5.631995565038e+00 -3.509172938420e+02 0.0 
0.0 0.0 -1.500134971653e+02 
-1.423817516369e+02 5.596465817916e+00 0.0 
5.596465817916e+00 -3.311041559312e+02 0.0 
0.0 0.0 -1.416457722704e+02 
-1.454520781065e+02 5.685160037448e+00 0.0 
5.685160037448e+00 -3.397762389240e+02 0.0 
0.0 0.0 -1.451684951091e+02 
-1.530131127360e+02 5.685166461945e+00 0.0 
5.685166461945e+00 -3.579767116062e+02 0.0 
0.0 0.0 -1.528969473027e+02 
-1.376227235574e+02 5.831914304078e+00 0.0 
5.831914304078e+00 -3.204687466682e+02 0.0 
0.0 0.0 -1.370274410677e+02 
-1.604440807062e+02 2.870101098687e+00 0.0 
2.870101098687e+00 -3.792841107954e+02 0.0 
0.0 0.0 -1.615184574505e+02 
-8.861151411918e+01 1.167594000167e+01 0.0 
1.167594000167e+01 -2.057734425141e+02 0.0 
0.0 0.0 -8.820012149014e+01 
-3.439861703227e+01 1.022962410791e+01 0.0 
1.022962410791e+01 -1.217501147925e+02 0.0 
0.0 0.0 -4.915935288514e+01 
-4.028592121877e+01 2.568815464251e+01 0.0 
2.568815464251e+01 -9.369993540752e+01 0.0 
0.0 0.0 -4.047973726598e+01 
-1.026222063874e+02 7.887976002202e+00 0.0 
7.887976002202e+00 -2.246450250537e+02 0.0 
0.0 0.0 -9.450661510264e+01 
-1.640181416188e+02 5.531407905550e+00 0.0 
5.531407905550e+00 -3.833429513914e+02 0.0 
0.0 0.0 -1.638083279031e+02 
-1.638978817107e+02 5.130791304154e+00 0.0 
5.130791304154e+00 -3.824829091048e+02 0.0 
0.0 0.0 -1.635142372447e+02 
-6.810146422788e+01 1.234605474794e+01 0.0 
1.234605474794e+01 -1.656121620898e+02 0.0 
0.0 0.0 -6.625931721051e+01 
-1.653041145901e+02 5.571223911504e+00 0.0 
5.571223911504e+00 -3.878934598837e+02 0.0 
0.0 0.0 -1.655592723422e+02 
-1.065535595622e+02 5.862264541834e+00 0.0 
5.862264541834e+00 -2.350291523826e+02 0.0 
0.0 0.0 -1.012336826617e+02 
-5.152136855107e+01 1.000271291195e+01 0.0 
1.000271291195e+01 -1.417247530806e+02 0.0 
0.0 0.0 -5.455160151513e+01 
-1.656101191725e+02 5.135436196227e+00 0.0 
5.135436196227e+00 -3.892843567057e+02 0.0 
0.0 0.0 -1.660683427635e+02 
-1.366265958353e+02 4.746672901989e+00 0.0 
4.746672901989e+00 -3.135179840749e+02 0.0 
0.0 0.0 -1.346433739731e+02 
-1.323286179856e+02 5.029992929972e+00 0.0 
5.029992929972e+00 -3.032074809275e+02 0.0 
0.0 0.0 -1.302608296739e+02 
-1.289937866373e+02 4.719928904842e+00 0.0 
4.719928904842e+00 -2.939072312441e+02 0.0 
0.0 0.0 -1.264703053644e+02 
-1.640324674690e+02 4.700232342959e+00 0.0 
4.700232342959e+00 -3.823531798787e+02 0.0 
0.0 0.0 -1.635156942043e+02 
-1.186955577512e+02 2.947585283650e+00 0.0 
2.947585283650e+00 -2.661692186933e+02 0.0 
0.0 0.0 -1.150594329334e+02 
-1.661734855659e+02 3.698248502310e+00 0.0 
3.698248502310e+00 -3.912116647821e+02 0.0 
0.0 0.0 -1.668155451044e+02 
-1.084971476225e+02 3.207720168760e+00 0.0 
3.207720168760e+00 -2.767523830928e+02 0.0 
0.0 0.0 -1.194318667354e+02 
-1.059912066138e+02 4.577277653594e+00 0.0 
4.577277653594e+00 -2.683140576829e+02 0.0 
0.0 0.0 -1.159910455923e+02 
-9.960172807833e+01 5.727863741332e+00 0.0 
5.727863741332e+00 -2.504995326622e+02 0.0 
0.0 0.0 -1.086211512019e+02 
-1.390221071804e+02 5.483732501455e+00 0.0 
5.483732501455e+00 -3.217966012619e+02 0.0 
0.0 0.0 -1.378456125327e+02 
-1.659029295548e+02 1.992522494582e+00 0.0 
1.992522494582e+00 -3.909548422509e+02 0.0 
0.0 0.0 -1.666573315417e+02 
-1.582682349382e+02 1.735427014806e+00 0.0 
1.735427014806e+00 -3.755992117184e+02 0.0 
0.0 0.0 -1.597602339970e+02 
-1.583671206915e+02 1.348191603009e+00 0.0 
1.348191603009e+00 -3.757727499020e+02 0.0 
0.0 0.0 -1.598419611781e+02 
-1.498503187219e+02 1.442025244724e+00 0.0 
1.442025244724e+00 -3.587393629995e+02 0.0 
0.0 0.0 -1.521769045164e+02 
-1.661756151318e+02 1.103099611848e+00 0.0 
1.103099611848e+00 -3.915667054954e+02 0.0 
0.0 0.0 -1.669226961881e+02 
-1.652371360994e+02 5.745623759055e+00 0.0 
5.745623759055e+00 -3.866443935688e+02 0.0 
0.0 0.0 -1.651644589004e+02 
-1.655904370402e+02 5.761057558324e+00 0.0 
5.761057558324e+00 -3.878564657324e+02 0.0 
0.0 0.0 -1.656340708318e+02 
-6.734886128458e+01 -1.482841673442e+01 0.0 
-1.482841673442e+01 -1.549836327646e+02 0.0 
0.0 0.0 -6.350690651370e+01 
-6.948884383195e+01 -1.210078888773e+01 0.0 
-1.210078888773e+01 -1.683713184855e+02 0.0 
0.0 0.0 -6.872808672729e+01 
-7.576250390394e+01 -1.091226235130e+01 0.0 
-1.091226235130e+01 -1.842973382705e+02 0.0 
0.0 0.0 -7.706339830923e+01 
-7.189421554481e+01 -8.656166634663e+00 0.0 
-8.656166634663e+00 -1.803381035329e+02 0.0 
0.0 0.0 -7.348283204970e+01 
-6.529596294466e+01 -9.900199930391e+00 0.0 
-9.900199930391e+00 -1.651088582299e+02 0.0 
0.0 0.0 -6.570635522965e+01 
-6.791960414084e+01 -5.639627529045e+00 0.0 
-5.639627529045e+00 -1.759833717313e+02 0.0 
0.0 0.0 -7.014400916396e+01 
-7.474477319210e+01 -4.987350964592e+00 0.0 
-4.987350964592e+00 -1.906935053150e+02 0.0 
0.0 0.0 -7.771095904388e+01 
-6.410187684005e+01 -1.728173809902e+00 0.0 
-1.728173809902e+00 -1.708630601496e+02 0.0 
0.0 0.0 -6.700359963031e+01 
-1.442105783263e+02 5.815839038888e+00 0.0 
5.815839038888e+00 -3.384601904856e+02 0.0 
0.0 0.0 -1.444012306436e+02 
-1.665611275891e+02 1.532729253974e-01 0.0 
1.532729253974e-01 -3.922439477280e+02 0.0 
0.0 0.0 -1.672415225951e+02 
-1.156553526238e+02 -3.721768878758e+00 0.0 
-3.721768878758e+00 -2.746905104189e+02 0.0 
0.0 0.0 -1.174803619487e+02 
-1.117215818555e+02 -4.069358116739e+00 0.0 
-4.069358116739e+00 -2.671826880610e+02 0.0 
0.0 0.0 -1.154225738579e+02 
-1.056838885082e+02 -6.120915497049e+00 0.0 
-6.120915497049e+00 -2.484577760880e+02 0.0 
0.0 0.0 -1.081754034558e+02 
-1.013935190234e+02 -6.494872489887e+00 0.0 
-6.494872489887e+00 -2.017340872809e+02 0.0 
0.0 0.0 -8.551406716512e+01 
-1.049129201912e+02 -6.748234725357e+00 0.0 
-6.748234725357e+00 -2.142120639659e+02 0.0 
0.0 0.0 -9.110138388819e+01 
-1.116178263275e+02 -5.762806907994e+00 0.0 
-5.762806907994e+00 -2.341731343695e+02 0.0 
0.0 0.0 -9.952056794739e+01 
-9.732627998295e+01 -6.009238085207e+00 0.0 
-6.009238085207e+00 -1.892612905801e+02 0.0 
0.0 0.0 -7.991335407521e+01 
-1.228696128380e+02 5.779551016235e+00 0.0 
5.779551016235e+00 -2.987744552805e+02 0.0 
0.0 0.0 -1.260843269657e+02 
-1.665146887488e+02 -1.863574193052e-01 0.0 
-1.863574193052e-01 -3.918994077534e+02 0.0 
0.0 0.0 -1.671242289507e+02 
-1.075864334960e+02 -1.245095270682e+00 0.0 
-1.245095270682e+00 -2.728380033732e+02 0.0 
0.0 0.0 -1.189108888164e+02 
-1.007464696673e+02 -7.995324666685e+00 0.0 
-7.995324666685e+00 -2.065730557503e+02 0.0 
0.0 0.0 -8.849015273714e+01 
-9.867674763823e+01 2.946216702919e+00 0.0 
2.946216702919e+00 -2.153909432216e+02 0.0 
0.0 0.0 -9.382030725795e+01 
-1.057066133173e+02 3.350822566812e+00 0.0 
3.350822566812e+00 -2.330439049418e+02 0.0 
0.0 0.0 -1.012251554777e+02 
-1.060562298011e+02 3.927544431331e+00 0.0 
3.927544431331e+00 -2.338934244464e+02 0.0 
0.0 0.0 -1.015848962742e+02 
-1.133948583599e+02 3.909945231260e+00 0.0 
3.909945231260e+00 -2.524133639712e+02 0.0 
0.0 0.0 -1.093424666993e+02 
-1.062144585641e+02 3.090338108810e+00 0.0 
3.090338108810e+00 -2.342413999034e+02 0.0 
0.0 0.0 -1.017367575402e+02 
-1.154021777334e+02 -3.871390972648e+00 0.0 
-3.871390972648e+00 -2.376100329572e+02 0.0 
0.0 0.0 -1.016671108603e+02 
-1.184731673143e+02 -3.009705877850e+00 0.0 
-3.009705877850e+00 -2.456903361858e+02 0.0 
0.0 0.0 -1.054000601745e+02 
-1.154565701357e+02 -2.633905228475e+00 0.0 
-2.633905228475e+00 -2.340549113754e+02 0.0 
0.0 0.0 -1.005546722280e+02 
-1.213744676525e+02 -2.178749727532e+00 0.0 
-2.178749727532e+00 -2.539059687099e+02 0.0 
0.0 0.0 -1.091028473349e+02 
-1.183050221959e+02 -1.726020722935e+00 0.0 
-1.726020722935e+00 -2.419834836477e+02 0.0 
0.0 0.0 -1.041358739334e+02 
-1.124373703752e+02 -2.060836012517e+00 0.0 
-2.060836012517e+00 -2.234791430653e+02 0.0 
0.0 0.0 -9.617672423469e+01 
-1.240222527401e+02 -1.361551529835e+00 0.0 
-1.361551529835e+00 -2.618766582824e+02 0.0 
0.0 0.0 -1.126430396121e+02 
-1.205279617177e+02 -1.022157596486e+00 0.0 
-1.022157596486e+00 -2.487949695635e+02 0.0 
0.0 0.0 -1.071237582955e+02 
-9.804883684188e+01 2.182774397592e+00 0.0 
2.182774397592e+00 -2.142495253334e+02 0.0 
0.0 0.0 -9.328950865259e+01 
-4.279185862643e+01 -2.365087727159e+01 0.0 
-2.365087727159e+01 -4.748790035800e+01 0.0 
0.0 0.0 -2.704642978489e+01 
-4.242037774233e+01 -2.351519141036e+01 0.0 
-2.351519141036e+01 -5.939891201882e+01 0.0 
0.0 0.0 -2.674427664903e+01 
-3.730686878940e+01 -1.438875372916e+01 0.0 
-1.438875372916e+01 -4.489562737882e+01 0.0 
0.0 0.0 -1.936088942267e+01 
-4.670269538828e+01 -2.071809394453e+01 0.0 
-2.071809394453e+01 -7.291210797482e+01 0.0 
0.0 0.0 -2.938026191108e+01 
-4.473056546041e+01 -2.384380015733e+01 0.0 
-2.384380015733e+01 -8.951045322511e+01 0.0 
0.0 0.0 -3.657197933950e+01 
-5.041083852726e+01 -2.069131555329e+01 0.0 
-2.069131555329e+01 -1.004690774285e+02 0.0 
0.0 0.0 -3.962101416116e+01 
-4.605723656651e+01 -2.052686397735e+01 0.0 
-2.052686397735e+01 -1.099635291645e+02 0.0 
0.0 0.0 -4.242005393209e+01 
-4.130312086630e+01 -2.777342769602e+01 0.0 
-2.777342769602e+01 -8.296299357243e+01 0.0 
0.0 0.0 -3.731944171765e+01 
-2.142235372626e+01 -5.331093423116e+00 0.0 
-5.331093423116e+00 -2.022271551131e+01 0.0 
0.0 0.0 -1.077161483855e+01 
-3.141621447291e+01 -8.218952834265e+00 0.0 
-8.218952834265e+00 -3.915943593366e+01 0.0 
0.0 0.0 -1.714120779420e+01 
-1.614456752986e+01 -2.007053594622e+00 0.0 
-2.007053594622e+00 -1.838078745211e+01 0.0 
0.0 0.0 -8.933875521364e+00 
-2.632465886307e+01 -4.519523482530e+00 0.0 
-4.519523482530e+00 -3.604111448723e+01 0.0 
0.0 0.0 -1.538425833639e+01 
-4.064022026011e+01 -9.962017722395e+00 0.0 
-9.962017722395e+00 -5.926287330265e+01 0.0 
0.0 0.0 -2.481265669302e+01 
-4.533241896763e+01 -8.228511916216e+00 0.0 
-8.228511916216e+00 -8.140998178073e+01 0.0 
0.0 0.0 -3.428670005968e+01 
-1.647827244195e+02 -9.251331881086e-01 0.0 
-9.251331881086e-01 -3.847756306248e+02 0.0 
0.0 0.0 -1.644675065133e+02 
-1.008822999437e+02 -9.388062131003e-01 0.0 
-9.388062131003e-01 -1.916006504899e+02 0.0 
0.0 0.0 -8.252861637793e+01 
-9.646702367195e+01 -1.911660922022e+00 0.0 
-1.911660922022e+00 -1.819220089907e+02 0.0 
0.0 0.0 -7.812330297801e+01 
-8.735089344037e+01 -1.926780863711e+00 0.0 
-1.926780863711e+00 -1.621374328426e+02 0.0 
0.0 0.0 -6.944345456286e+01 
-9.225154312566e+01 -2.808938182914e+00 0.0 
-2.808938182914e+00 -1.733286628311e+02 0.0 
0.0 0.0 -7.403229182168e+01 
-1.041365124832e+02 -1.787798148697e+00 0.0 
-1.787798148697e+00 -1.999841935235e+02 0.0 
0.0 0.0 -8.604010402914e+01 
-8.161708223112e+01 -9.580646822008e-01 0.0 
-9.580646822008e-01 -1.509134912972e+02 0.0 
0.0 0.0 -6.464965390113e+01 
-7.720432680151e+01 -1.853138742523e+00 0.0 
-1.853138742523e+00 -1.437920186217e+02 0.0 
0.0 0.0 -6.126898588125e+01 
-1.193282560116e+01 2.067370807911e-01 0.0 
2.067370807911e-01 -1.714255607802e+01 0.0 
0.0 0.0 -6.653427710617e+00 
-1.463940515692e+01 1.571248391063e-01 0.0 
1.571248391063e-01 -3.349223106607e+01 0.0 
0.0 0.0 -1.175181655952e+01 
-1.438032743471e+01 -5.484503368926e-02 0.0 
-5.484503368926e-02 -3.181907134517e+01 0.0 
0.0 0.0 -1.120372007348e+01 
-1.818888141532e+01 -1.388658098128e-01 0.0 
-1.388658098128e-01 -5.008915480976e+01 0.0 
0.0 0.0 -1.842780389949e+01 
-1.845011322197e+01 -5.807372521225e-02 0.0 
-5.807372521225e-02 -4.984050982048e+01 0.0 
0.0 0.0 -1.839905134705e+01 
-1.503599145235e+01 1.240693919401e-01 0.0 
1.240693919401e-01 -3.391060885031e+01 0.0 
0.0 0.0 -1.197137679770e+01 
-1.514823602538e+01 2.564229059280e-02 0.0 
2.564229059280e-02 -3.394860333278e+01 0.0 
0.0 0.0 -1.209366119089e+01 
-1.175424870822e+01 1.579666503656e-01 0.0 
1.579666503656e-01 -1.699519800265e+01 0.0 
0.0 0.0 -6.549832535780e+00 
-1.535543502861e+01 5.283858094580e-02 0.0 
5.283858094580e-02 -3.371559931915e+01 0.0 
0.0 0.0 -1.225012730173e+01 
-1.987487436480e+01 -4.458777770829e-01 0.0 
-4.458777770829e-01 -5.078057359360e+01 0.0 
0.0 0.0 -1.912830954526e+01 
-1.156526688147e+01 1.608422406645e-01 0.0 
1.608422406645e-01 -1.641236620546e+01 0.0 
0.0 0.0 -6.397066466019e+00 
-1.337725272176e+02 3.500721155105e-01 0.0 
3.500721155105e-01 -3.047277041524e+02 0.0 
0.0 0.0 -1.311500694110e+02 
-1.379769346507e+02 5.784489221544e-01 0.0 
5.784489221544e-01 -3.155369497328e+02 0.0 
0.0 0.0 -1.356541653150e+02 
-1.659728131352e+02 -8.596081745988e-01 0.0 
-8.596081745988e-01 -3.901773461535e+02 0.0 
0.0 0.0 -1.664450477866e+02 
-9.830663782475e+01 1.614820553279e+00 0.0 
1.614820553279e+00 -2.157658437000e+02 0.0 
0.0 0.0 -9.382174445742e+01 
-1.222768395163e+01 2.559173047853e-01 0.0 
2.559173047853e-01 -1.687838004195e+01 0.0 
0.0 0.0 -8.047690544641e+00 
-1.609712353230e+02 1.545607383542e+00 0.0 
1.545607383542e+00 -3.746729881829e+02 0.0 
0.0 0.0 -1.602932670518e+02 
-1.626357669817e+02 2.680150241164e+00 0.0 
2.680150241164e+00 -3.786856549002e+02 0.0 
0.0 0.0 -1.619964265646e+02 
-1.626790144780e+02 2.252227488182e+00 0.0 
2.252227488182e+00 -3.787493806120e+02 0.0 
0.0 0.0 -1.620285185270e+02 
-1.523777737516e+02 -2.699914117843e-01 0.0 
-2.699914117843e-01 -3.531499075730e+02 0.0 
0.0 0.0 -1.512583043974e+02 
-1.564370973852e+02 -4.567561096787e-01 0.0 
-4.567561096787e-01 -3.631718807714e+02 0.0 
0.0 0.0 -1.554826934470e+02 
-1.609971132504e+02 8.645266937585e-01 0.0 
8.645266937585e-01 -3.749486629378e+02 0.0 
0.0 0.0 -1.603837328564e+02 
-6.864680926230e+01 -9.942033574734e+00 0.0 
-9.942033574734e+00 -1.312473770538e+02 0.0 
0.0 0.0 -5.589260438524e+01 
-1.552769670519e+02 5.143721412226e+00 0.0 
5.143721412226e+00 -3.608766763209e+02 0.0 
0.0 0.0 -1.544460930118e+02 
-1.478252722873e+02 1.609354063669e+00 0.0 
1.609354063669e+00 -3.404405325066e+02 0.0 
0.0 0.0 -1.460797414382e+02 
-5.083956968405e+01 1.540247297108e+01 0.0 
1.540247297108e+01 -1.292379265054e+02 0.0 
0.0 0.0 -4.956517525404e+01 
-6.721996719998e+01 -1.477392620052e+01 0.0 
-1.477392620052e+01 -1.317695554882e+02 0.0 
0.0 0.0 -5.676937162093e+01 
-1.315702291258e+02 -1.284217064754e+00 0.0 
-1.284217064754e+00 -2.935161852020e+02 0.0 
0.0 0.0 -1.259824033776e+02 
-1.224963780500e+02 -3.720459994603e+00 0.0 
-3.720459994603e+00 -2.733968117302e+02 0.0 
0.0 0.0 -1.166300778137e+02 
-1.447603858561e+02 -1.127235662822e+00 0.0 
-1.127235662822e+00 -3.360646369959e+02 0.0 
0.0 0.0 -1.438475068556e+02 
-1.262884895567e+02 -2.541535566114e+00 0.0 
-2.541535566114e+00 -2.770942549360e+02 0.0 
0.0 0.0 -1.187395059711e+02 
-1.375134242321e+02 -1.676863744458e+00 0.0 
-1.676863744458e+00 -3.201995972876e+02 0.0 
0.0 0.0 -1.368691559453e+02 
-1.578182305744e+02 6.697483244849e-01 0.0 
6.697483244849e-01 -3.746848332074e+02 0.0 
0.0 0.0 -1.593509191345e+02 
-3.282625550265e+01 -1.509238379393e+00 0.0 
-1.509238379393e+00 -7.926206236952e+01 0.0 
0.0 0.0 -3.184197423572e+01 
-1.196354158958e+02 1.812802826780e+00 0.0 
1.812802826780e+00 -2.687177002217e+02 0.0 
0.0 0.0 -1.161059348352e+02 
-1.163749310764e+02 1.056246821429e+00 0.0 
1.056246821429e+00 -2.610399922963e+02 0.0 
0.0 0.0 -1.128244770118e+02 
-1.359676626854e+02 1.692946782070e+00 0.0 
1.692946782070e+00 -3.099575503537e+02 0.0 
0.0 0.0 -1.333775639117e+02 
-7.183561033794e+01 -5.816697956251e+00 0.0 
-5.816697956251e+00 -1.354733758295e+02 0.0 
0.0 0.0 -5.627506547229e+01 
-1.089065896222e+02 -2.964301615990e+00 0.0 
-2.964301615990e+00 -2.146225456896e+02 0.0 
0.0 0.0 -9.209454391207e+01 
-4.222032869498e+01 -5.353535139548e+00 0.0 
-5.353535139548e+00 -8.528823407815e+01 0.0 
0.0 0.0 -3.448262072367e+01 
-1.585388704005e+02 5.202528746286e+00 0.0 
5.202528746286e+00 -3.737784587799e+02 0.0 
0.0 0.0 -1.592951987541e+02 
-1.033613422877e+02 6.859077365439e+00 0.0 
6.859077365439e+00 -2.249549239428e+02 0.0 
0.0 0.0 -9.565718858767e+01 
-1.038965534023e+02 -7.588352394589e+00 0.0 
-7.588352394589e+00 -2.367477788145e+02 0.0 
0.0 0.0 -1.029117005967e+02 
-9.306412304381e+01 -7.268773741649e+00 0.0 
-7.268773741649e+00 -1.812355206655e+02 0.0 
0.0 0.0 -7.691098700832e+01 
-7.423958434659e+01 -1.139533537539e+01 0.0 
-1.139533537539e+01 -1.445473489438e+02 0.0 
0.0 0.0 -6.207763259485e+01 
-6.462592536300e+01 -1.580298045434e+01 0.0 
-1.580298045434e+01 -1.270206075262e+02 0.0 
0.0 0.0 -5.416817092571e+01 
-9.361745023159e+01 1.096038596965e+01 0.0 
1.096038596965e+01 -2.157262913769e+02 0.0 
0.0 0.0 -9.218153187665e+01 
-1.038037537262e+02 -7.900071195867e+00 0.0 
-7.900071195867e+00 -2.191778588200e+02 0.0 
0.0 0.0 -9.421082780924e+01 
-1.303050239874e+02 -2.246883851956e+00 0.0 
-2.246883851956e+00 -3.087231005963e+02 0.0 
0.0 0.0 -1.312690952555e+02 
-1.401399508812e+02 1.505472412975e+00 0.0 
1.505472412975e+00 -3.206928008214e+02 0.0 
0.0 0.0 -1.378498255108e+02 
-1.240968727594e+01 3.038508440719e-01 0.0 
3.038508440719e-01 -1.883282490867e+01 0.0 
0.0 0.0 -8.041032156989e+00 
-1.345129527665e+02 -1.845742553406e+00 0.0 
-1.845742553406e+00 -3.203175244798e+02 0.0 
0.0 0.0 -1.360491431739e+02 
-1.160793482442e+02 -5.109175110795e+00 0.0 
-5.109175110795e+00 -2.584172513043e+02 0.0 
0.0 0.0 -1.100044710954e+02 
-1.229238215927e+02 2.739374265107e+00 0.0 
2.739374265107e+00 -2.768203760673e+02 0.0 
0.0 0.0 -1.195232592980e+02 
-1.315131301362e+02 2.159217429980e+00 0.0 
2.159217429980e+00 -3.217030051080e+02 0.0 
0.0 0.0 -1.357849100791e+02 
-5.480443997707e+01 -1.892176250001e+01 0.0 
-1.892176250001e+01 -1.021131315426e+02 0.0 
0.0 0.0 -4.097141416973e+01 
-1.390266494560e+02 2.558427483013e+00 0.0 
2.558427483013e+00 -3.176735050660e+02 0.0 
0.0 0.0 -1.366100463566e+02 
-1.527120147647e+02 3.935397286002e+00 0.0 
3.935397286002e+00 -3.534007248773e+02 0.0 
0.0 0.0 -1.514338218926e+02 
-1.146103150650e+02 3.276369089447e+00 0.0 
3.276369089447e+00 -2.556756080580e+02 0.0 
0.0 0.0 -1.106857769369e+02 
-2.968480281183e+01 -3.004220472594e+00 0.0 
-3.004220472594e+00 -6.485137810107e+01 0.0 
0.0 0.0 -2.552754903602e+01 
-1.114148165614e+02 1.603939780527e+00 0.0 
1.603939780527e+00 -2.485596764785e+02 0.0 
0.0 0.0 -1.075923479120e+02 
-1.524225113129e+02 -6.033901836308e-01 0.0 
-6.033901836308e-01 -3.620191735690e+02 0.0 
0.0 0.0 -1.539325054646e+02 
-1.373243908843e+02 4.242041600118e+00 0.0 
4.242041600118e+00 -3.143379534835e+02 0.0 
0.0 0.0 -1.350987033103e+02 
-6.484496017876e+01 -4.573491374553e+00 0.0 
-4.573491374553e+00 -1.232457204178e+02 0.0 
0.0 0.0 -5.079952042936e+01 
-9.640381076117e+01 -1.079692159677e+00 0.0 
-1.079692159677e+00 -2.473268067013e+02 0.0 
0.0 0.0 -1.077813379406e+02 
-1.011430832096e+02 9.016977908235e+00 0.0 
9.016977908235e+00 -2.246723846141e+02 0.0 
0.0 0.0 -9.461287411614e+01 
-9.403840808119e+01 4.072835754705e+00 0.0 
4.072835754705e+00 -1.988500718836e+02 0.0 
0.0 0.0 -8.628011860987e+01 
-1.510768793306e+02 1.909728639769e+00 0.0 
1.909728639769e+00 -3.490111643822e+02 0.0 
0.0 0.0 -1.496264131139e+02 
-1.025099499860e+02 7.440311103223e+00 0.0 
7.440311103223e+00 -2.513141296175e+02 0.0 
0.0 0.0 -1.081041189380e+02 
-1.400186201462e+02 1.290137345721e+00 0.0 
1.290137345721e+00 -3.387010223405e+02 0.0 
0.0 0.0 -1.432158927460e+02 
-1.116368320247e+02 9.717781373763e-02 0.0 
9.717781373763e-02 -2.829802023489e+02 0.0 
0.0 0.0 -1.222660048467e+02 
-7.011255643336e+01 -3.651258251619e+00 0.0 
-3.651258251619e+00 -1.318311912452e+02 0.0 
0.0 0.0 -5.498889246183e+01 
-1.424836740926e+02 -1.633842075079e+00 0.0 
-1.633842075079e+00 -3.357053559704e+02 0.0 
0.0 0.0 -1.430567090189e+02 
-9.520687400258e+01 4.899609219031e+00 0.0 
4.899609219031e+00 -2.416364237357e+02 0.0 
0.0 0.0 -1.043864042922e+02 
-1.467549873227e+02 2.735271734411e+00 0.0 
2.735271734411e+00 -3.374586890656e+02 0.0 
0.0 0.0 -1.448641029165e+02 
-1.298932795841e+02 6.236806082726e+00 0.0 
6.236806082726e+00 -3.092840517727e+02 0.0 
0.0 0.0 -1.313531994071e+02 
-8.135323387351e+01 1.644814218172e+00 0.0 
1.644814218172e+00 -2.083447807061e+02 0.0 
0.0 0.0 -8.575773964740e+01 
-1.420372880988e+02 3.498180696518e+00 0.0 
3.498180696518e+00 -3.255578944482e+02 0.0 
0.0 0.0 -1.398785547641e+02 
-1.002944719008e+02 -6.895834207780e+00 0.0 
-6.895834207780e+00 -2.412681634156e+02 0.0 
0.0 0.0 -1.051865701490e+02 
-1.368885670858e+02 2.555793613296e+00 0.0 
2.555793613296e+00 -3.320589006667e+02 0.0 
0.0 0.0 -1.402842403257e+02 
-1.000941518317e+02 7.310201126213e+00 0.0 
7.310201126213e+00 -2.152718043947e+02 0.0 
0.0 0.0 -9.076105716546e+01 
-1.155354367807e+02 7.456413418482e+00 0.0 
7.456413418482e+00 -2.719251003580e+02 0.0 
0.0 0.0 -1.152371060301e+02 
-1.253358436283e+02 6.397842122037e+00 0.0 
6.397842122037e+00 -2.913198267547e+02 0.0 
0.0 0.0 -1.245967011149e+02 
-1.098298281128e+02 7.612992153689e+00 0.0 
7.612992153689e+00 -2.623119116473e+02 0.0 
0.0 0.0 -1.108240672476e+02 
-1.292480400076e+02 -1.100384299181e+00 0.0 
-1.100384299181e+00 -2.821869383270e+02 0.0 
0.0 0.0 -1.212546816811e+02 
-1.385388504251e+02 -1.763924899912e+00 0.0 
-1.763924899912e+00 -3.280056636194e+02 0.0 
0.0 0.0 -1.395633542134e+02 
-4.630872102400e+01 -8.889965468571e+00 0.0 
-8.889965468571e+00 -1.366363802653e+02 0.0 
0.0 0.0 -5.345197507039e+01 
-8.035306994167e+01 1.378713336425e+01 0.0 
1.378713336425e+01 -1.776281699268e+02 0.0 
0.0 0.0 -7.596720993742e+01 
-1.225440392883e+02 3.381018178399e+00 0.0 
3.381018178399e+00 -2.757779809087e+02 0.0 
0.0 0.0 -1.190966060591e+02 
-1.446735556828e+02 5.046259804077e+00 0.0 
5.046259804077e+00 -3.451063759338e+02 0.0 
0.0 0.0 -1.465339794850e+02 
-1.543994616458e+02 2.854223863073e+00 0.0 
2.854223863073e+00 -3.570220147078e+02 0.0 
0.0 0.0 -1.530264429061e+02 
-9.486978865949e+01 9.687051738015e+00 0.0 
9.687051738015e+00 -2.053258481009e+02 0.0 
0.0 0.0 -8.664302826576e+01 
-1.380460446804e+02 -1.791423678699e+00 0.0 
-1.791423678699e+00 -3.240083780158e+02 0.0 
0.0 0.0 -1.382163268088e+02 
-1.494600718209e+02 3.619575107736e+00 0.0 
3.619575107736e+00 -3.447620326226e+02 0.0 
0.0 0.0 -1.478666313330e+02 
-1.079382991087e+02 -6.745743926614e+00 0.0 
-6.745743926614e+00 -2.266077727187e+02 0.0 
0.0 0.0 -9.664353475508e+01 
-4.140426491497e+01 -5.987897042197e-01 0.0 
-5.987897042197e-01 -9.069533848707e+01 0.0 
0.0 0.0 -3.737056493924e+01 
-4.632802432045e+01 1.912448955903e+01 0.0 
1.912448955903e+01 -1.139401287652e+02 0.0 
0.0 0.0 -4.501930967657e+01 
-6.787270793489e+01 2.420377428488e+00 0.0 
2.420377428488e+00 -1.784314899417e+02 0.0 
0.0 0.0 -7.038118835316e+01 
-9.795193992476e+01 7.523681387879e+00 0.0 
7.523681387879e+00 -2.419332867397e+02 0.0 
0.0 0.0 -1.045129384851e+02 
-1.140845581859e+02 -5.580167509428e+00 0.0 
-5.580167509428e+00 -2.463345185187e+02 0.0 
0.0 0.0 -1.047986998757e+02 
-1.567874542039e+02 4.801230233811e+00 0.0 
4.801230233811e+00 -3.644141518289e+02 0.0 
0.0 0.0 -1.559604818098e+02 
-1.418737661729e+02 -1.595566169917e+00 0.0 
-1.595566169917e+00 -3.317670600393e+02 0.0 
0.0 0.0 -1.416922478637e+02 
-1.303799670568e+02 -1.084054698087e+00 0.0 
-1.084054698087e+00 -3.160051290604e+02 0.0 
0.0 0.0 -1.335155288352e+02 
-4.300822965136e+01 1.977549307766e+01 0.0 
1.977549307766e+01 -5.455704366334e+01 0.0 
0.0 0.0 -2.677313337106e+01 
-9.733449707769e+01 4.686648800421e+00 0.0 
4.686648800421e+00 -2.074067525872e+02 0.0 
0.0 0.0 -8.960651837017e+01 
-1.456661661124e+02 -1.392045450122e+00 0.0 
-1.392045450122e+00 -3.397094738969e+02 0.0 
0.0 0.0 -1.452126920028e+02 
-1.000141672694e+02 -2.391885547535e+00 0.0 
-2.391885547535e+00 -2.545392202402e+02 0.0 
0.0 0.0 -1.114176327254e+02 
-1.408138652417e+02 2.157764149431e+00 0.0 
2.157764149431e+00 -3.401049381962e+02 0.0 
0.0 0.0 -1.438756410313e+02 
-1.146535631217e+02 -1.283704303184e+00 0.0 
-1.283704303184e+00 -2.296033332667e+02 0.0 
0.0 0.0 -9.894230471915e+01 
-1.582761445379e+02 4.972796173525e+00 0.0 
4.972796173525e+00 -3.738519504684e+02 0.0 
0.0 0.0 -1.592384285019e+02 
-8.343710997722e+01 5.867355735203e+00 0.0 
5.867355735203e+00 -1.684436680696e+02 0.0 
0.0 0.0 -7.025784588566e+01 
-1.494478744594e+02 -1.201357887625e+00 0.0 
-1.201357887625e+00 -3.480521663462e+02 0.0 
0.0 0.0 -1.488500122417e+02 
-1.303549821908e+02 -6.064645175489e-02 0.0 
-6.064645175489e-02 -3.183120428345e+02 0.0 
0.0 0.0 -1.343680319184e+02 
-7.266511980931e+01 1.316328296969e+01 0.0 
1.316328296969e+01 -1.715921931972e+02 0.0 
0.0 0.0 -7.036798895962e+01 
-9.604127456479e+01 3.035916991616e-01 0.0 
3.035916991616e-01 -2.123548191392e+02 0.0 
0.0 0.0 -9.211882811118e+01 
-1.587201054797e+02 -1.158296821896e+00 0.0 
-1.158296821896e+00 -3.703449400103e+02 0.0 
0.0 0.0 -1.583195136470e+02 
-1.396301597319e+02 3.224223745076e-01 0.0 
3.224223745076e-01 -3.373589528684e+02 0.0 
0.0 0.0 -1.426967337801e+02 
-1.156570383780e+02 6.705867715745e+00 0.0 
6.705867715745e+00 -2.806383420471e+02 0.0 
0.0 0.0 -1.183663021051e+02 
-9.740090497861e+01 -4.628921968794e+00 0.0 
-4.628921968794e+00 -2.445404635469e+02 0.0 
0.0 0.0 -1.066955554892e+02 
-8.743679990877e+01 4.204882993322e+00 0.0 
4.204882993322e+00 -1.796592353346e+02 0.0 
0.0 0.0 -7.712262446492e+01 
-1.173758352395e+02 -4.774499653938e+00 0.0 
-4.774499653938e+00 -2.538519046985e+02 0.0 
0.0 0.0 -1.080325365314e+02 
-1.194254556884e+02 7.150085007375e+00 0.0 
7.150085007375e+00 -2.813529104003e+02 0.0 
0.0 0.0 -1.196332276008e+02 
-1.639168518803e+02 4.354608758255e+00 0.0 
4.354608758255e+00 -3.820456240418e+02 0.0 
0.0 0.0 -1.633887427766e+02 
-1.441313712643e+02 9.305688362556e-01 0.0 
9.305688362556e-01 -3.469041284653e+02 0.0 
0.0 0.0 -1.469106499189e+02 
-1.247231460824e+02 5.053713180649e+00 0.0 
5.053713180649e+00 -2.836025410996e+02 0.0 
0.0 0.0 -1.220977061546e+02 
-1.149731057947e+02 -4.880976381751e+00 0.0 
-4.880976381751e+00 -2.417626357185e+02 0.0 
0.0 0.0 -1.029332154339e+02 
-1.188864828307e+02 4.035956973352e+00 0.0 
4.035956973352e+00 -2.960646735918e+02 0.0 
0.0 0.0 -1.251799401642e+02 
-1.893622439905e+01 -1.005988866626e-01 0.0 
-1.005988866626e-01 -5.009144198749e+01 0.0 
0.0 0.0 -1.862248445578e+01 
-9.089722874193e+01 4.994350036289e+00 0.0 
4.994350036289e+00 -1.883124695143e+02 0.0 
0.0 0.0 -8.038927079563e+01 
-1.181224362811e+02 -4.041864185217e+00 0.0 
-4.041864185217e+00 -2.494989851594e+02 0.0 
0.0 0.0 -1.066322000748e+02 
-7.115684290972e+01 -1.556741557992e+00 0.0 
-1.556741557992e+00 -1.851057845195e+02 0.0 
0.0 0.0 -7.400437206551e+01 
-1.021571729723e+02 -4.823456856524e+00 0.0 
-4.823456856524e+00 -2.520632237958e+02 0.0 
0.0 0.0 -1.101071319335e+02 
-1.562126889985e+02 3.144883644076e+00 0.0 
3.144883644076e+00 -3.707480194962e+02 0.0 
0.0 0.0 -1.576882125484e+02 
-1.211214569215e+02 -3.232203540434e+00 0.0 
-3.232203540434e+00 -2.574218355336e+02 0.0 
0.0 0.0 -1.102839443715e+02 
-7.790366055596e+01 -1.463945497740e+00 0.0 
-1.463945497740e+00 -1.999640795105e+02 0.0 
0.0 0.0 -8.173208758636e+01 
-1.239655532527e+02 -2.459974293405e+00 0.0 
-2.459974293405e+00 -2.654692129462e+02 0.0 
0.0 0.0 -1.139067087731e+02 
-8.000931049478e+01 4.766478481845e+00 0.0 
4.766478481845e+00 -1.602750945866e+02 0.0 
0.0 0.0 -6.738891708553e+01 
-1.280079732997e+02 5.355159777776e+00 0.0 
5.355159777776e+00 -2.929576480133e+02 0.0 
0.0 0.0 -1.258896863939e+02 
-1.266607384144e+02 -1.715474815347e+00 0.0 
-1.715474815347e+00 -2.736043666952e+02 0.0 
0.0 0.0 -1.175247417955e+02 
-1.267458189007e+02 6.547555321665e+00 0.0 
6.547555321665e+00 -3.001158517450e+02 0.0 
0.0 0.0 -1.276585011937e+02 
-2.160506876502e+01 -6.955651121057e-01 0.0 
-6.955651121057e-01 -5.248317998089e+01 0.0 
0.0 0.0 -2.010055956315e+01 
-1.179437044092e+02 5.821862407403e+00 0.0 
5.821862407403e+00 -2.890714388590e+02 0.0 
0.0 0.0 -1.219263306614e+02 
-1.480836307232e+02 -5.186343038284e-01 0.0 
-5.186343038284e-01 -3.426171800453e+02 0.0 
0.0 0.0 -1.468102432306e+02 
-8.291487739334e+01 -1.301925284268e+01 0.0 
-1.301925284268e+01 -1.717977675073e+02 0.0 
0.0 0.0 -7.432297582047e+01 
-1.072789117975e+02 -4.422175792752e+00 0.0 
-4.422175792752e+00 -2.595903279891e+02 0.0 
0.0 0.0 -1.130962658685e+02 
-1.356790752108e+02 5.296540789938e+00 0.0 
5.296540789938e+00 -3.125621108836e+02 0.0 
0.0 0.0 -1.340723558283e+02 
-7.152420813590e+01 6.223807852832e+00 0.0 
6.223807852832e+00 -1.397778280082e+02 0.0 
0.0 0.0 -5.813183674786e+01 
-1.137547385412e+02 -2.699087988327e+00 0.0 
-2.699087988327e+00 -2.780438407447e+02 0.0 
0.0 0.0 -1.197834800151e+02 
-1.347687577821e+02 6.089557471568e+00 0.0 
6.089557471568e+00 -3.189726427780e+02 0.0 
0.0 0.0 -1.357224201680e+02 
-1.208059215867e+02 4.885215908434e+00 0.0 
4.885215908434e+00 -2.973759049425e+02 0.0 
0.0 0.0 -1.253743420362e+02 
-1.040786969951e+02 6.111247969223e+00 0.0 
6.111247969223e+00 -2.598173019072e+02 0.0 
0.0 0.0 -1.121101228762e+02 
-1.215726668899e+02 -1.770309098303e+00 0.0 
-1.770309098303e+00 -2.968530693982e+02 0.0 
0.0 0.0 -1.259964211759e+02 
-7.477763060001e+01 7.817400566204e+00 0.0 
7.817400566204e+00 -1.475348347443e+02 0.0 
0.0 0.0 -6.206464103688e+01 
-6.474068617817e+01 -1.147591231453e+01 0.0 
-1.147591231453e+01 -1.234235600289e+02 0.0 
0.0 0.0 -5.288928616464e+01 
-5.511788918817e+01 -1.046633895658e+01 0.0 
-1.046633895658e+01 -1.024307399054e+02 0.0 
0.0 0.0 -4.367322859959e+01 
-8.116675668386e+01 -4.507016988845e+00 0.0 
-4.507016988845e+00 -2.057427845120e+02 0.0 
0.0 0.0 -8.560852055803e+01 
-1.395805841346e+02 5.941979247675e+00 0.0 
5.941979247675e+00 -3.287771552985e+02 0.0 
0.0 0.0 -1.401073218299e+02 
-2.406086185579e+01 -5.734787361055e-01 0.0 
-5.734787361055e-01 -6.648626884913e+01 0.0 
0.0 0.0 -2.601809519070e+01 
-1.344697832096e+02 5.747881418549e+00 0.0 
5.747881418549e+00 -3.114220665501e+02 0.0 
0.0 0.0 -1.333675549279e+02 
-4.402348666125e+01 -8.288335828761e+00 0.0 
-8.288335828761e+00 -7.451332510102e+01 0.0 
0.0 0.0 -3.140429299541e+01 
-7.839812044435e+01 -7.844731336425e+00 0.0 
-7.844731336425e+00 -1.956088259846e+02 0.0 
0.0 0.0 -8.146938101817e+01 
-1.339848485987e+02 3.759065489642e+00 0.0 
3.759065489642e+00 -3.251636025659e+02 0.0 
0.0 0.0 -1.373445353494e+02 
-1.183680680552e+02 3.767574084822e-01 0.0 
3.767574084822e-01 -2.664227984755e+02 0.0 
0.0 0.0 -1.150372599592e+02 
-8.219694154292e+01 -9.837104271709e+00 0.0 
-9.837104271709e+00 -2.001737351528e+02 0.0 
0.0 0.0 -8.534476280077e+01 
-5.654919010972e+01 -7.572123758780e-01 0.0 
-7.572123758780e-01 -1.108359868058e+02 0.0 
0.0 0.0 -4.662102955087e+01 
-7.969229857427e+01 -1.238151650792e+01 0.0 
-1.238151650792e+01 -1.884085271223e+02 0.0 
0.0 0.0 -8.054432825475e+01 
-1.105123698604e+02 4.961876042910e+00 0.0 
4.961876042910e+00 -2.777930845377e+02 0.0 
0.0 0.0 -1.187336200257e+02 
-8.378095810984e+01 -1.310362693189e+01 0.0 
-1.310362693189e+01 -1.933178974578e+02 0.0 
0.0 0.0 -8.336019595084e+01 
-8.115914821890e+01 -1.436893750369e+01 0.0 
-1.436893750369e+01 -1.799498295191e+02 0.0 
0.0 0.0 -7.764309893214e+01 
-1.553530604195e+02 1.771493892754e+00 0.0 
1.771493892754e+00 -3.600202445309e+02 0.0 
0.0 0.0 -1.542119914851e+02 
-8.622113730642e+01 -1.297488083449e+01 0.0 
-1.297488083449e+01 -1.853258549486e+02 0.0 
0.0 0.0 -8.028493964823e+01 
-1.625105514761e+02 5.735959425280e-01 0.0 
5.735959425280e-01 -3.782749840516e+02 0.0 
0.0 0.0 -1.618356606583e+02 
-1.652955014709e+02 -3.959494679738e-01 0.0 
-3.959494679738e-01 -3.855345702597e+02 0.0 
0.0 0.0 -1.648490215192e+02 
-1.022245200055e+02 2.888914333175e-01 0.0 
2.888914333175e-01 -2.273176511340e+02 0.0 
0.0 0.0 -9.846265134186e+01 
-6.182693198061e+01 7.812113131291e+00 0.0 
7.812113131291e+00 -1.179214742717e+02 0.0 
0.0 0.0 -4.999645332102e+01 
-7.419819644746e+01 2.842485649543e-01 0.0 
2.842485649543e-01 -1.126685974629e+02 0.0 
0.0 0.0 -5.693978673630e+01 
-6.621481564980e+01 1.098038558145e+01 0.0 
1.098038558145e+01 -1.272866972630e+02 0.0 
0.0 0.0 -5.498738479772e+01 
-7.478402586510e+01 -1.433392141818e+01 0.0 
-1.433392141818e+01 -1.518217199312e+02 0.0 
0.0 0.0 -6.561389290697e+01 
-1.329572384608e+02 6.080878094899e+00 0.0 
6.080878094899e+00 -3.102553925131e+02 0.0 
0.0 0.0 -1.325637892922e+02 
-1.026334384176e+02 2.766138887067e-01 0.0 
2.766138887067e-01 -2.281149116915e+02 0.0 
0.0 0.0 -9.882450503273e+01 
-7.039448328220e+01 -1.322795280862e+01 0.0 
-1.322795280862e+01 -1.376019558289e+02 0.0 
0.0 0.0 -5.934105985478e+01 
-1.582821215463e+02 5.618187305437e+00 0.0 
5.618187305437e+00 -3.698748754431e+02 0.0 
0.0 0.0 -1.580470990968e+02 
-1.660439513739e+02 4.489342688414e+00 0.0 
4.489342688414e+00 -3.907319347592e+02 0.0 
0.0 0.0 -1.666327658399e+02 
-1.299359445572e+02 4.936953551600e-01 0.0 
4.936953551600e-01 -2.951158388886e+02 0.0 
0.0 0.0 -1.271155350337e+02 
-1.445332328729e+02 1.748040200190e+00 0.0 
1.748040200190e+00 -3.477452316539e+02 0.0 
0.0 0.0 -1.472835393581e+02 
-1.245410934248e+02 4.139360049391e+00 0.0 
4.139360049391e+00 -3.061774404982e+02 0.0 
0.0 0.0 -1.290429023379e+02 
-1.482830728152e+02 3.498765263770e-01 0.0 
3.498765263770e-01 -3.419255641319e+02 0.0 
0.0 0.0 -1.466625910841e+02 
-9.597994729634e+01 1.047587508032e+00 0.0 
1.047587508032e+00 -2.112608875826e+02 0.0 
0.0 0.0 -9.177225046368e+01 
-2.293483564524e+01 -2.540311398675e+00 0.0 
-2.540311398675e+00 -3.425173200834e+01 0.0 
0.0 0.0 -1.487325794715e+01 
-1.318432670179e+02 -4.895838152435e-01 0.0 
-4.895838152435e-01 -2.922364786399e+02 0.0 
0.0 0.0 -1.255587884551e+02 
-5.387288095413e+01 9.517970490157e+00 0.0 
9.517970490157e+00 -9.758633470172e+01 0.0 
0.0 0.0 -4.227401522324e+01 
-5.717486152192e+01 1.278281756183e+01 0.0 
1.278281756183e+01 -1.046389613353e+02 0.0 
0.0 0.0 -4.534082146883e+01 
-5.187664893512e+01 1.557822000523e+01 0.0 
1.557822000523e+01 -8.971500330080e+01 0.0 
0.0 0.0 -3.838902432995e+01 
-7.412387961700e+01 -2.706439932832e+00 0.0 
-2.706439932832e+00 -1.384454031688e+02 0.0 
0.0 0.0 -5.847427496641e+01 
-4.370556666906e+01 -1.456652819178e+01 0.0 
-1.456652819178e+01 -6.148741047552e+01 0.0 
0.0 0.0 -2.511797179991e+01 
-4.962748989769e+01 1.107599279720e+01 0.0 
1.107599279720e+01 -8.381611534656e+01 0.0 
0.0 0.0 -3.661108999063e+01 
-1.576522141524e+02 2.202295472150e+00 0.0 
2.202295472150e+00 -3.742273266234e+02 0.0 
0.0 0.0 -1.591638622328e+02 
-1.042411626814e+02 2.100115250064e+00 0.0 
2.100115250064e+00 -2.298190339613e+02 0.0 
0.0 0.0 -9.981805899282e+01 
-1.388118356138e+02 4.092374622883e+00 0.0 
4.092374622883e+00 -3.345697422149e+02 0.0 
0.0 0.0 -1.416144733486e+02 
-4.531954850771e+01 1.336348162343e+01 0.0 
1.336348162343e+01 -6.768328413086e+01 0.0 
0.0 0.0 -2.992156561877e+01 
-1.567377724821e+02 3.861049375599e+00 0.0 
3.861049375599e+00 -3.636285045611e+02 0.0 
0.0 0.0 -1.557098831129e+02 
-1.578175160766e+02 3.813117145372e+00 0.0 
3.813117145372e+00 -3.740240846360e+02 0.0 
0.0 0.0 -1.591524802138e+02 
-1.665480699154e+02 -1.185236675061e+00 0.0 
-1.185236675061e+00 -3.905247159450e+02 0.0 
0.0 0.0 -1.667218357581e+02 
-1.479759904527e+02 3.906440817699e+00 0.0 
3.906440817699e+00 -3.534875267832e+02 0.0 
0.0 0.0 -1.500390551708e+02 
-4.717900867208e+01 2.076234428306e+01 0.0 
2.076234428306e+01 -7.833649175211e+01 0.0 
0.0 0.0 -3.325103513249e+01 
-1.117825433205e+02 3.594732937444e+00 0.0 
3.594732937444e+00 -2.480394094633e+02 0.0 
0.0 0.0 -1.075465858351e+02 
-1.583533794636e+02 5.478159678212e+00 0.0 
5.478159678212e+00 -3.729508981290e+02 0.0 
0.0 0.0 -1.589912832778e+02 
-1.363263848011e+02 7.056434881080e-01 0.0 
7.056434881080e-01 -3.108159282088e+02 0.0 
0.0 0.0 -1.337426939030e+02 
-1.670766508300e+02 -1.526650854672e+00 0.0 
-1.526650854672e+00 -3.906755082268e+02 0.0 
0.0 0.0 -1.669256477170e+02 
-1.038383188572e+02 2.532845624057e+00 0.0 
2.532845624057e+00 -2.281454864598e+02 0.0 
0.0 0.0 -9.919514159510e+01 
-1.562353804595e+02 1.114214371278e+00 0.0 
1.114214371278e+00 -3.623244810892e+02 0.0 
0.0 0.0 -1.551679584646e+02 
-4.480663545144e+01 -1.580585241330e+01 0.0 
-1.580585241330e+01 -1.236309615813e+02 0.0 
0.0 0.0 -4.748425718635e+01 
-1.562603859417e+02 5.306796965581e-01 0.0 
5.306796965581e-01 -3.623848944390e+02 0.0 
0.0 0.0 -1.551935841142e+02 
-1.408151988135e+02 5.867126663649e+00 0.0 
5.867126663649e+00 -3.294503685552e+02 0.0 
0.0 0.0 -1.406796702106e+02 
-1.128690986439e+02 7.107759997940e-01 0.0 
7.107759997940e-01 -2.524368057676e+02 0.0 
0.0 0.0 -1.091917713235e+02 
-1.116553526748e+02 4.146889963074e+00 0.0 
4.146889963074e+00 -2.482094129404e+02 0.0 
0.0 0.0 -1.075594296846e+02 
-1.601339953653e+02 -6.718980444612e-01 0.0 
-6.718980444612e-01 -3.727003764901e+02 0.0 
0.0 0.0 -1.594503115566e+02 
-1.578285713036e+02 5.460949146744e+00 0.0 
5.460949146744e+00 -3.681013170202e+02 0.0 
0.0 0.0 -1.573789664971e+02 
-4.393736097428e+01 2.490408069996e+01 0.0 
2.490408069996e+01 -7.813292621010e+01 0.0 
0.0 0.0 -3.430602043017e+01 
-1.297127528404e+02 5.072611789759e-01 0.0 
5.072611789759e-01 -2.941038815210e+02 0.0 
0.0 0.0 -1.267449903084e+02 
-9.234811472058e+01 -3.745045684471e+00 0.0 
-3.745045684471e+00 -1.741609113846e+02 0.0 
0.0 0.0 -7.396449260186e+01 
-4.045748398279e+01 -2.059393993967e+01 0.0 
-2.059393993967e+01 -1.060922903214e+02 0.0 
0.0 0.0 -4.530184752142e+01 
-1.590084131756e+02 -1.164891099778e+00 0.0 
-1.164891099778e+00 -3.748502320938e+02 0.0 
0.0 0.0 -1.597575935808e+02 
-1.483530345293e+02 5.722330765294e+00 0.0 
5.722330765294e+00 -3.476584326674e+02 0.0 
0.0 0.0 -1.484034401590e+02 
-1.595160449822e+02 -1.130175492143e+00 0.0 
-1.130175492143e+00 -3.720570121862e+02 0.0 
0.0 0.0 -1.590719171505e+02 
-1.766460779601e+01 -1.156037220527e-01 0.0 
-1.156037220527e-01 -4.936091082911e+01 0.0 
0.0 0.0 -1.802771408261e+01 
-1.678839722544e+01 -8.576897983883e-02 0.0 
-8.576897983883e-02 -3.114788584894e+01 0.0 
0.0 0.0 -1.288532579849e+01 
-1.601373131482e+02 -5.010337744116e-01 0.0 
-5.010337744116e-01 -3.785890397888e+02 0.0 
0.0 0.0 -1.612179058811e+02 
-1.592186810352e+02 5.643524527167e+00 0.0 
5.643524527167e+00 -3.733209538923e+02 0.0 
0.0 0.0 -1.593618904783e+02 
-5.112197976081e+01 -1.809142292895e+01 0.0 
-1.809142292895e+01 -1.210151371710e+02 0.0 
0.0 0.0 -4.610137328068e+01 
-1.642972870695e+02 3.405301911857e+00 0.0 
3.405301911857e+00 -3.830899493641e+02 0.0 
0.0 0.0 -1.638161709301e+02 
-4.228727760883e+01 2.896162490403e+01 0.0 
2.896162490403e+01 -7.805192166551e+01 0.0 
0.0 0.0 -3.703239240749e+01 
-9.561090123564e+01 1.161247027585e+00 0.0 
1.161247027585e+00 -2.094902424017e+02 0.0 
0.0 0.0 -9.113034309120e+01 
-1.547496876748e+01 1.787631095221e-01 0.0 
1.787631095221e-01 -3.214267635674e+01 0.0 
0.0 0.0 -1.205495608621e+01 
-1.667134089801e+02 -9.591927889463e-01 0.0 
-9.591927889463e-01 -3.895371159574e+02 0.0 
0.0 0.0 -1.664751574813e+02 
-1.569772960276e+02 2.571774626926e+00 0.0 
2.571774626926e+00 -3.642708827348e+02 0.0 
0.0 0.0 -1.559744536287e+02 
-1.004226681047e+02 -2.577766283714e+00 0.0 
-2.577766283714e+00 -1.912256075077e+02 0.0 
0.0 0.0 -8.208458347258e+01 
-9.972528161466e+01 3.621699045405e+00 0.0 
3.621699045405e+00 -2.174325857784e+02 0.0 
0.0 0.0 -9.468531536285e+01 
-6.554451412284e+01 -1.711723305728e+00 0.0 
-1.711723305728e+00 -1.248115231421e+02 0.0 
0.0 0.0 -5.272036101487e+01 
-1.518864453930e+02 4.702439092566e+00 0.0 
4.702439092566e+00 -3.607145871319e+02 0.0 
0.0 0.0 -1.533803097575e+02 
-3.400221332644e+01 -6.235854091551e+00 0.0 
-6.235854091551e+00 -4.975084342726e+01 0.0 
0.0 0.0 -2.100033764063e+01 
-1.574897769508e+02 2.106559754101e+00 0.0 
2.106559754101e+00 -3.656354301275e+02 0.0 
0.0 0.0 -1.565375621235e+02 
-1.603335459938e+02 3.759174224444e-01 0.0 
3.759174224444e-01 -3.798044215155e+02 0.0 
0.0 0.0 -1.616413902528e+02 
-1.588047527355e+02 4.609537452728e+00 0.0 
4.609537452728e+00 -3.693699999544e+02 0.0 
0.0 0.0 -1.580524258070e+02 
-1.679548245945e+02 2.864966734530e+00 0.0 
2.864966734530e+00 -3.950550370170e+02 0.0 
0.0 0.0 -1.685029584834e+02 
-4.742624168062e+01 8.797055975936e+00 0.0 
8.797055975936e+00 -1.184312017758e+02 0.0 
0.0 0.0 -5.128850939022e+01 
-1.600762360439e+02 4.235103837389e+00 0.0 
4.235103837389e+00 -3.786672215821e+02 0.0 
0.0 0.0 -1.612230372878e+02 
-1.517724539622e+02 9.008638089988e-01 0.0 
9.008638089988e-01 -3.625682750834e+02 0.0 
0.0 0.0 -1.539022187137e+02 
-9.557888457763e+01 3.838912723598e-01 0.0 
3.838912723598e-01 -2.109024374152e+02 0.0 
0.0 0.0 -9.154439659786e+01 
-1.580543823066e+02 4.900252241451e+00 0.0 
4.900252241451e+00 -3.678809719565e+02 0.0 
0.0 0.0 -1.573806062789e+02 
-8.316594492348e+01 -2.724559398879e+00 0.0 
-2.724559398879e+00 -1.547646262180e+02 0.0 
0.0 0.0 -6.587036202825e+01 
-2.651958393865e+01 -1.528162842719e+00 0.0 
-1.528162842719e+00 -6.582728390339e+01 0.0 
0.0 0.0 -2.570936268444e+01 
-1.632875548813e+02 3.727870487949e-01 0.0 
3.727870487949e-01 -3.803044308778e+02 0.0 
0.0 0.0 -1.626775957277e+02 
-1.222747395427e+01 -3.095501773230e-05 0.0 
-3.095501773230e-05 -1.407930462426e+01 0.0 
0.0 0.0 -6.055832594612e+00 
-9.472856894576e+01 1.749813958762e-01 0.0 
1.749813958762e-01 -2.095917447896e+02 0.0 
0.0 0.0 -9.089609412061e+01 
-1.669645258366e+02 -3.623971607398e-01 0.0 
-3.623971607398e-01 -3.896937399408e+02 0.0 
0.0 0.0 -1.665974797332e+02 
-2.240963424894e+01 -7.345743260846e-01 0.0 
-7.345743260846e-01 -6.268633781394e+01 0.0 
0.0 0.0 -2.430873705449e+01 
-1.083280022002e+02 3.929613138160e-01 0.0 
3.929613138160e-01 -2.417765336363e+02 0.0 
0.0 0.0 -1.046313607509e+02 
-1.596078751734e+02 5.713941903691e+00 0.0 
5.713941903691e+00 -3.735278606932e+02 0.0 
0.0 0.0 -1.595407207600e+02 
-1.163942904298e+02 -6.147050440779e-01 0.0 
-6.147050440779e-01 -2.347181583940e+02 0.0 
0.0 0.0 -1.011268604985e+02 
-1.439130359190e+02 7.177131861836e-01 0.0 
7.177131861836e-01 -3.306240404433e+02 0.0 
0.0 0.0 -1.419611229087e+02 
-5.030997341954e+01 -1.902805360677e+01 0.0 
-1.902805360677e+01 -8.292638395953e+01 0.0 
0.0 0.0 -3.339823662180e+01 
-7.610448856076e+01 -7.585359018495e+00 0.0 
-7.585359018495e+00 -1.079278451376e+02 0.0 
0.0 0.0 -5.595522302720e+01 
-1.226258989538e+02 5.165129004506e-01 0.0 
5.165129004506e-01 -2.768133130264e+02 0.0 
0.0 0.0 -1.194317635941e+02 
-1.594699521441e+02 3.346288466231e+00 0.0 
3.346288466231e+00 -3.776011845429e+02 0.0 
0.0 0.0 -1.607213410061e+02 
-1.588913810542e+02 4.171847198454e+00 0.0 
4.171847198454e+00 -3.693172996722e+02 0.0 
0.0 0.0 -1.580626042179e+02 
-1.172244226298e+02 5.818752319217e-01 0.0 
5.818752319217e-01 -2.632295620272e+02 0.0 
0.0 0.0 -1.137361953971e+02 
-4.362293849342e+01 2.304755806507e+01 0.0 
2.304755806507e+01 -9.864755855540e+01 0.0 
0.0 0.0 -4.045503711063e+01 
-1.546402612619e+02 5.644074289384e+00 0.0 
5.644074289384e+00 -3.624507157449e+02 0.0 
0.0 0.0 -1.547272931020e+02 
-1.065534451658e+02 -2.365454734534e+00 0.0 
-2.365454734534e+00 -2.068372536359e+02 0.0 
0.0 0.0 -8.894817867372e+01 
-1.528439735955e+02 5.455111158202e+00 0.0 
5.455111158202e+00 -3.613760677953e+02 0.0 
0.0 0.0 -1.538660124172e+02 
-1.518001259511e+02 1.897520500847e+00 0.0 
1.897520500847e+00 -3.626521702284e+02 0.0 
0.0 0.0 -1.539356888538e+02 
-4.976915374304e+01 2.681704393087e+01 0.0 
2.681704393087e+01 -5.763272357985e+01 0.0 
0.0 0.0 -3.305504892256e+01 
-1.217312474389e+02 -5.218453296980e-01 0.0 
-5.218453296980e-01 -2.524300593380e+02 0.0 
0.0 0.0 -1.086743363599e+02 
-1.521971256978e+01 4.149893950371e-01 0.0 
4.149893950371e-01 -3.011202521168e+01 0.0 
0.0 0.0 -1.177204884433e+01 
-1.610586479878e+02 -1.220456755400e+00 0.0 
-1.220456755400e+00 -3.777602576293e+02 0.0 
0.0 0.0 -1.612456716851e+02 
-1.098212173084e+02 -1.593926943253e+00 0.0 
-1.593926943253e+00 -2.153340956566e+02 0.0 
0.0 0.0 -9.273268040550e+01 
-2.738107632296e+01 5.125155063140e+00 0.0 
5.125155063140e+00 -8.786569361499e+00 0.0 
0.0 0.0 -7.222007952294e+00 
-9.030919865133e+00 3.302444031059e-02 0.0 
3.302444031059e-02 -1.033701821802e+01 0.0 
0.0 0.0 -5.459999684380e+00 
-3.011197636942e+01 7.361966217532e+00 0.0 
7.361966217532e+00 -3.109892133463e+01 0.0 
0.0 0.0 -1.524492189090e+01 
-1.747509940359e+01 -1.032734092303e-01 0.0 
-1.032734092303e-01 -2.883811926505e+01 0.0 
0.0 0.0 -1.275518157663e+01 
-3.588958682625e+01 6.910445997562e+00 0.0 
6.910445997562e+00 -5.059379261193e+01 0.0 
0.0 0.0 -2.250403253181e+01 
-2.514551920536e+01 -5.115148939390e-02 0.0 
-5.115148939390e-02 -4.928010817214e+01 0.0 
0.0 0.0 -2.151889518367e+01 
-4.175029104506e+01 7.150584589798e+00 0.0 
7.150584589798e+00 -6.909139038577e+01 0.0 
0.0 0.0 -2.995847312821e+01 
-3.342254986039e+01 -8.387533716995e-02 0.0 
-8.387533716995e-02 -6.779956981653e+01 0.0 
0.0 0.0 -2.971723347081e+01 
-4.894974926557e+01 6.831603437315e+00 0.0 
6.831603437315e+00 -8.871954270656e+01 0.0 
0.0 0.0 -3.783363961017e+01 
-4.195755164952e+01 3.503110310999e-03 0.0 
3.503110310999e-03 -8.829705852649e+01 0.0 
0.0 0.0 -3.867638305280e+01 
-5.760052422412e+01 5.638953484845e+00 0.0 
5.638953484845e+00 -1.092741446500e+02 0.0 
0.0 0.0 -4.551860701552e+01 
-5.016805958657e+01 -6.412406258310e-03 0.0 
-6.412406258310e-03 -1.067988770822e+02 0.0 
0.0 0.0 -4.669008100063e+01 
-6.669850536532e+01 4.187441086795e+00 0.0 
4.187441086795e+00 -1.301709315420e+02 0.0 
0.0 0.0 -5.400267505030e+01 
-5.923386663061e+01 6.265671067097e-03 0.0 
6.265671067097e-03 -1.274347205930e+02 0.0 
0.0 0.0 -5.560057616707e+01 
-7.507847222491e+01 3.451526375645e+00 0.0 
3.451526375645e+00 -1.498988583483e+02 0.0 
0.0 0.0 -6.400692704314e+01 
-6.733421508468e+01 1.249001443592e-02 0.0 
1.249001443592e-02 -1.459537115848e+02 0.0 
0.0 0.0 -6.358637800083e+01 
-8.262775502373e+01 3.209013913198e+00 0.0 
3.209013913198e+00 -1.690566554000e+02 0.0 
0.0 0.0 -7.330157371524e+01 
-7.638348917068e+01 -2.226452632460e-02 0.0 
-2.226452632460e-02 -1.666549494094e+02 0.0 
0.0 0.0 -7.251153157402e+01 
-8.939313570329e+01 3.264630560340e+00 0.0 
3.264630560340e+00 -1.881945129073e+02 0.0 
0.0 0.0 -8.221858166704e+01 
-8.423748321937e+01 -1.130783478350e-01 0.0 
-1.130783478350e-01 -1.851424158399e+02 0.0 
0.0 0.0 -8.041396971779e+01 

TENSORS node_materi_strain_total float
2.413469659383e-03 -2.831364138942e-05 0.0 
-2.831364138942e-05 -9.031516716331e-04 0.0 
0.0 0.0 0.0 
-1.030273260611e-03 -1.140505199762e-05 0.0 
-1.140505199762e-05 4.670885552871e-03 0.0 
0.0 0.0 0.0 
-1.415789045425e-04 -7.181331796611e-05 0.0 
-7.181331796611e-05 5.935522765828e-03 0.0 
0.0 0.0 0.0 
-7.642197604385e-05 3.083147178069e-05 0.0 
3.083147178069e-05 8.004909374693e-03 0.0 
0.0 0.0 0.0 
1.827644779955e-03 -4.200520047898e-05 0.0 
-4.200520047898e-05 -4.813840825947e-04 0.0 
0.0 0.0 0.0 
1.144472801621e-03 -2.384013338831e-05 0.0 
-2.384013338831e-05 2.372096765982e-04 0.0 
0.0 0.0 0.0 
4.102269448792e-04 -4.790000561662e-05 0.0 
-4.790000561662e-05 9.148887042883e-04 0.0 
0.0 0.0 0.0 
-2.493379947097e-04 -6.558264488438e-05 0.0 
-6.558264488438e-05 1.618009210318e-03 0.0 
0.0 0.0 0.0 
-8.393632662311e-04 -9.361387800025e-05 0.0 
-9.361387800025e-05 2.211914699794e-03 0.0 
0.0 0.0 0.0 
-1.276207749498e-03 -1.038412619411e-04 0.0 
-1.038412619411e-04 2.696549620010e-03 0.0 
0.0 0.0 0.0 
-1.595271720656e-03 -1.129257012468e-04 0.0 
-1.129257012468e-04 3.101345404440e-03 0.0 
0.0 0.0 0.0 
-1.804849516630e-03 -1.225102476919e-04 0.0 
-1.225102476919e-04 3.432593929046e-03 0.0 
0.0 0.0 0.0 
-1.912753448957e-03 -1.256871168335e-04 0.0 
-1.256871168335e-04 3.708953834311e-03 0.0 
0.0 0.0 0.0 
-1.944320125716e-03 -1.211374635541e-04 0.0 
-1.211374635541e-04 3.950036550271e-03 0.0 
0.0 0.0 0.0 
-1.909120504042e-03 -1.037479412872e-04 0.0 
-1.037479412872e-04 4.168303865714e-03 0.0 
0.0 0.0 0.0 
-1.833202255551e-03 -7.456667569208e-05 0.0 
-7.456667569208e-05 4.381183808146e-03 0.0 
0.0 0.0 0.0 
-1.722062375780e-03 -8.086447098718e-05 0.0 
-8.086447098718e-05 4.585084873920e-03 0.0 
0.0 0.0 0.0 
-1.572394849338e-03 -9.122150624715e-05 0.0 
-9.122150624715e-05 4.785580336482e-03 0.0 
0.0 0.0 0.0 
-1.393581450388e-03 -7.984560462709e-05 0.0 
-7.984560462709e-05 5.007289900057e-03 0.0 
0.0 0.0 0.0 
-1.191974716564e-03 -7.085991339576e-05 0.0 
-7.085991339576e-05 5.226571521923e-03 0.0 
0.0 0.0 0.0 
-9.594107162927e-04 -6.276162739266e-05 0.0 
-6.276162739266e-05 5.443901524419e-03 0.0 
0.0 0.0 0.0 
-6.878216013840e-04 -6.012619321927e-05 0.0 
-6.012619321927e-05 5.651244186714e-03 0.0 
0.0 0.0 0.0 
-4.018970485457e-04 -5.695485597247e-05 0.0 
-5.695485597247e-05 5.830229225910e-03 0.0 
0.0 0.0 0.0 
-5.502603479024e-05 1.173690358711e-04 0.0 
1.173690358711e-04 8.009231545672e-03 0.0 
0.0 0.0 0.0 
-6.013363271425e-05 2.147042779868e-04 0.0 
2.147042779868e-04 7.981833110671e-03 0.0 
0.0 0.0 0.0 
-5.935584778886e-05 3.081443978796e-04 0.0 
3.081443978796e-04 7.972573494787e-03 0.0 
0.0 0.0 0.0 
-5.692220120294e-05 4.277409524439e-04 0.0 
4.277409524439e-04 7.945138693897e-03 0.0 
0.0 0.0 0.0 
-6.931024349566e-05 5.241954543239e-04 0.0 
5.241954543239e-04 7.905807425981e-03 0.0 
0.0 0.0 0.0 
-6.193162883369e-05 6.404073893870e-04 0.0 
6.404073893870e-04 7.876228672361e-03 0.0 
0.0 0.0 0.0 
-6.715033756381e-05 7.591110858004e-04 0.0 
7.591110858004e-04 7.824669851060e-03 0.0 
0.0 0.0 0.0 
-6.770731736675e-05 8.814260226266e-04 0.0 
8.814260226266e-04 7.755200367500e-03 0.0 
0.0 0.0 0.0 
-6.764517846924e-05 9.959143058844e-04 0.0 
9.959143058844e-04 7.694550423108e-03 0.0 
0.0 0.0 0.0 
-6.023057032663e-05 1.129229366824e-03 0.0 
1.129229366824e-03 7.605845323806e-03 0.0 
0.0 0.0 0.0 
-7.603350868505e-05 1.244068915883e-03 0.0 
1.244068915883e-03 7.504343590984e-03 0.0 
0.0 0.0 0.0 
-6.762814492015e-05 1.375238789867e-03 0.0 
1.375238789867e-03 7.401308078984e-03 0.0 
0.0 0.0 0.0 
-6.916317017473e-05 1.505118570872e-03 0.0 
1.505118570872e-03 7.274496185993e-03 0.0 
0.0 0.0 0.0 
-6.362037999356e-05 1.627144698924e-03 0.0 
1.627144698924e-03 7.128719991504e-03 0.0 
0.0 0.0 0.0 
-6.744258549026e-05 1.743573322312e-03 0.0 
1.743573322312e-03 6.969837290462e-03 0.0 
0.0 0.0 0.0 
-6.062863705040e-05 1.853701602862e-03 0.0 
1.853701602862e-03 6.783696823345e-03 0.0 
0.0 0.0 0.0 
-6.206725687885e-05 1.955589351631e-03 0.0 
1.955589351631e-03 6.589173716650e-03 0.0 
0.0 0.0 0.0 
-5.225732255047e-05 2.054302739666e-03 0.0 
2.054302739666e-03 6.382173335196e-03 0.0 
0.0 0.0 0.0 
-3.990979481775e-05 2.131025024575e-03 0.0 
2.131025024575e-03 6.164074487071e-03 0.0 
0.0 0.0 0.0 
-2.460764530610e-05 2.189137230453e-03 0.0 
2.189137230453e-03 5.932115088322e-03 0.0 
0.0 0.0 0.0 
-6.441145755764e-06 2.223698454572e-03 0.0 
2.223698454572e-03 5.675726046026e-03 0.0 
0.0 0.0 0.0 
6.138264385965e-06 2.225158424879e-03 0.0 
2.225158424879e-03 5.414079149820e-03 0.0 
0.0 0.0 0.0 
2.479223726670e-05 2.198947229937e-03 0.0 
2.198947229937e-03 5.146589699977e-03 0.0 
0.0 0.0 0.0 
4.347951707495e-05 2.135354247914e-03 0.0 
2.135354247914e-03 4.881201050096e-03 0.0 
0.0 0.0 0.0 
6.033623200064e-05 2.039707422663e-03 0.0 
2.039707422663e-03 4.632368794730e-03 0.0 
0.0 0.0 0.0 
8.376489343420e-05 1.910563748334e-03 0.0 
1.910563748334e-03 4.396074392859e-03 0.0 
0.0 0.0 0.0 
8.797787069933e-05 1.746117002155e-03 0.0 
1.746117002155e-03 4.175380855392e-03 0.0 
0.0 0.0 0.0 
1.178266145057e-04 1.550153326546e-03 0.0 
1.550153326546e-03 3.982119875948e-03 0.0 
0.0 0.0 0.0 
1.206405228174e-04 1.325593242575e-03 0.0 
1.325593242575e-03 3.814277097351e-03 0.0 
0.0 0.0 0.0 
1.205734045021e-04 1.085225021868e-03 0.0 
1.085225021868e-03 3.707619934005e-03 0.0 
0.0 0.0 0.0 
1.255386793095e-04 8.378599397951e-04 0.0 
8.378599397951e-04 3.596939003689e-03 0.0 
0.0 0.0 0.0 
1.558708649520e-04 5.762416435042e-04 0.0 
5.762416435042e-04 3.492713561142e-03 0.0 
0.0 0.0 0.0 
1.527191610035e-04 2.824377681420e-04 0.0 
2.824377681420e-04 3.467002872835e-03 0.0 
0.0 0.0 0.0 
1.466695165677e-04 1.402562511286e-05 0.0 
1.402562511286e-05 3.513644389051e-03 0.0 
0.0 0.0 0.0 
1.396804652946e-04 -2.401840758555e-04 0.0 
-2.401840758555e-04 3.581871142110e-03 0.0 
0.0 0.0 0.0 
1.087140192967e-04 -4.777013161984e-04 0.0 
-4.777013161984e-04 3.698120340955e-03 0.0 
0.0 0.0 0.0 
1.075232333648e-04 -6.747775745869e-04 0.0 
-6.747775745869e-04 3.856066949251e-03 0.0 
0.0 0.0 0.0 
7.409614569990e-05 -8.440951308827e-04 0.0 
-8.440951308827e-04 4.026747754992e-03 0.0 
0.0 0.0 0.0 
6.585453154499e-05 -9.689637794460e-04 0.0 
-9.689637794460e-04 4.221985225198e-03 0.0 
0.0 0.0 0.0 
3.107898606573e-05 -1.052047407912e-03 0.0 
-1.052047407912e-03 4.435623099083e-03 0.0 
0.0 0.0 0.0 
1.301275067959e-05 -1.095162950988e-03 0.0 
-1.095162950988e-03 4.670929969934e-03 0.0 
0.0 0.0 0.0 
-1.078731058376e-05 -1.088776695054e-03 0.0 
-1.088776695054e-03 4.922516190640e-03 0.0 
0.0 0.0 0.0 
-3.307575417274e-05 -1.049766835468e-03 0.0 
-1.049766835468e-03 5.123504396704e-03 0.0 
0.0 0.0 0.0 
-7.164031931298e-05 -9.570412713357e-04 0.0 
-9.570412713357e-04 5.297621598966e-03 0.0 
0.0 0.0 0.0 
-6.971950021284e-05 -8.402563932226e-04 0.0 
-8.402563932226e-04 5.510282073827e-03 0.0 
0.0 0.0 0.0 
-8.690756229479e-05 -7.087574463578e-04 0.0 
-7.087574463578e-04 5.640602300211e-03 0.0 
0.0 0.0 0.0 
-8.416904884230e-05 -5.681985369764e-04 0.0 
-5.681985369764e-04 5.764466449459e-03 0.0 
0.0 0.0 0.0 
-9.436284826662e-05 -3.841865549388e-04 0.0 
-3.841865549388e-04 5.861082721605e-03 0.0 
0.0 0.0 0.0 
-1.019634877047e-04 -2.204621021611e-04 0.0 
-2.204621021611e-04 5.910954378731e-03 0.0 
0.0 0.0 0.0 
-1.021094734428e-03 -3.193166001887e-06 0.0 
-3.193166001887e-06 5.089748431797e-03 0.0 
0.0 0.0 0.0 
-1.001513297526e-03 -6.495313010601e-07 0.0 
-6.495313010601e-07 5.492052968007e-03 0.0 
0.0 0.0 0.0 
-9.561787776876e-04 2.205591848707e-06 0.0 
2.205591848707e-06 5.874251443058e-03 0.0 
0.0 0.0 0.0 
-8.885128923786e-04 5.457022011332e-06 0.0 
5.457022011332e-06 6.233695695164e-03 0.0 
0.0 0.0 0.0 
-7.981093432323e-04 1.029454746277e-05 0.0 
1.029454746277e-05 6.584223326149e-03 0.0 
0.0 0.0 0.0 
-6.840339159536e-04 1.361252443360e-05 0.0 
1.361252443360e-05 6.919013815757e-03 0.0 
0.0 0.0 0.0 
-5.506581812275e-04 1.670921583987e-05 0.0 
1.670921583987e-05 7.236673179487e-03 0.0 
0.0 0.0 0.0 
-3.898338948111e-04 2.124443067903e-05 0.0 
2.124443067903e-05 7.539139161688e-03 0.0 
0.0 0.0 0.0 
-2.243511283038e-04 2.222145378687e-05 0.0 
2.222145378687e-05 7.831657752688e-03 0.0 
0.0 0.0 0.0 
-2.487470911512e-03 1.859935911374e-03 0.0 
1.859935911374e-03 -1.144171817241e-03 0.0 
0.0 0.0 0.0 
-2.714284636188e-04 -7.393784341283e-06 0.0 
-7.393784341283e-06 2.005790688602e-04 0.0 
0.0 0.0 0.0 
-1.456548717403e-03 8.452597849035e-04 0.0 
8.452597849035e-04 4.229818930283e-03 0.0 
0.0 0.0 0.0 
-1.386609381031e-03 1.469866558066e-03 0.0 
1.469866558066e-03 6.089296691879e-04 0.0 
0.0 0.0 0.0 
-8.253643258724e-04 1.513436777017e-03 0.0 
1.513436777017e-03 7.085544717711e-04 0.0 
0.0 0.0 0.0 
-6.005438171293e-04 1.547400469768e-03 0.0 
1.547400469768e-03 8.520920501369e-04 0.0 
0.0 0.0 0.0 
-5.707279270019e-04 1.508848032921e-03 0.0 
1.508848032921e-03 1.118299174077e-03 0.0 
0.0 0.0 0.0 
-6.798327100748e-04 1.409720492140e-03 0.0 
1.409720492140e-03 1.480645024445e-03 0.0 
0.0 0.0 0.0 
-8.734590890617e-04 1.276747948412e-03 0.0 
1.276747948412e-03 1.952021675730e-03 0.0 
0.0 0.0 0.0 
-1.081918693206e-03 1.132649440250e-03 0.0 
1.132649440250e-03 2.496320296565e-03 0.0 
0.0 0.0 0.0 
-1.261123807555e-03 9.998972374448e-04 0.0 
9.998972374448e-04 3.073558007311e-03 0.0 
0.0 0.0 0.0 
-1.388086341045e-03 9.042420607751e-04 0.0 
9.042420607751e-04 3.655661178640e-03 0.0 
0.0 0.0 0.0 
-3.493545177253e-04 -1.133987287077e-05 0.0 
-1.133987287077e-05 4.480754370556e-04 0.0 
0.0 0.0 0.0 
-4.620239835218e-04 -3.514858558859e-05 0.0 
-3.514858558859e-05 9.296113619101e-04 0.0 
0.0 0.0 0.0 
-5.657285536794e-04 -2.819334815310e-05 0.0 
-2.819334815310e-05 1.416214873396e-03 0.0 
0.0 0.0 0.0 
-6.718556877131e-04 -4.191032941729e-05 0.0 
-4.191032941729e-05 1.903799423428e-03 0.0 
0.0 0.0 0.0 
-7.590903871049e-04 -3.119692023849e-05 0.0 
-3.119692023849e-05 2.383144484497e-03 0.0 
0.0 0.0 0.0 
-8.356363817021e-04 -3.907118958045e-05 0.0 
-3.907118958045e-05 2.854738636703e-03 0.0 
0.0 0.0 0.0 
-9.007022469533e-04 -2.904865602551e-05 0.0 
-2.904865602551e-05 3.319296369875e-03 0.0 
0.0 0.0 0.0 
-9.580514646600e-04 -3.308181269975e-05 0.0 
-3.308181269975e-05 3.776640680025e-03 0.0 
0.0 0.0 0.0 
-9.984721985944e-04 -1.911960211885e-05 0.0 
-1.911960211885e-05 4.219762675856e-03 0.0 
0.0 0.0 0.0 
-1.022393024705e-03 1.858258046013e-05 0.0 
1.858258046013e-05 4.610283903436e-03 0.0 
0.0 0.0 0.0 
-1.029341960129e-03 2.396691598232e-05 0.0 
2.396691598232e-05 4.635740814735e-03 0.0 
0.0 0.0 0.0 
-1.046439686114e-03 3.802466192422e-05 0.0 
3.802466192422e-05 4.637302159934e-03 0.0 
0.0 0.0 0.0 
-1.067701396296e-03 5.304356179088e-05 0.0 
5.304356179088e-05 4.629892805366e-03 0.0 
0.0 0.0 0.0 
-1.090742377625e-03 8.423940602856e-05 0.0 
8.423940602856e-05 4.680148042944e-03 0.0 
0.0 0.0 0.0 
-1.121240800658e-03 1.046484792049e-04 0.0 
1.046484792049e-04 4.626097809221e-03 0.0 
0.0 0.0 0.0 
-1.158662556965e-03 1.353196121711e-04 0.0 
1.353196121711e-04 4.613058942295e-03 0.0 
0.0 0.0 0.0 
-1.194953111865e-03 1.793627653033e-04 0.0 
1.793627653033e-04 4.602519721790e-03 0.0 
0.0 0.0 0.0 
-1.244865832613e-03 2.319543095150e-04 0.0 
2.319543095150e-04 4.595672327047e-03 0.0 
0.0 0.0 0.0 
-1.293959315643e-03 2.976865749386e-04 0.0 
2.976865749386e-04 4.568072507850e-03 0.0 
0.0 0.0 0.0 
-1.339791424165e-03 3.768360374737e-04 0.0 
3.768360374737e-04 4.529384630910e-03 0.0 
0.0 0.0 0.0 
-1.382151881660e-03 4.697166565029e-04 0.0 
4.697166565029e-04 4.477791339345e-03 0.0 
0.0 0.0 0.0 
-1.413483972057e-03 5.799285170895e-04 0.0 
5.799285170895e-04 4.408339494611e-03 0.0 
0.0 0.0 0.0 
-1.433595293656e-03 7.036418597145e-04 0.0 
7.036418597145e-04 4.326686127054e-03 0.0 
0.0 0.0 0.0 
-3.220256448719e-03 9.533782383987e-04 0.0 
9.533782383987e-04 -3.078605626304e-03 0.0 
0.0 0.0 0.0 
-3.728196207515e-03 9.628779504700e-05 0.0 
9.628779504700e-05 -3.263636980028e-03 0.0 
0.0 0.0 0.0 
-3.973200102651e-03 -2.537776928960e-04 0.0 
-2.537776928960e-04 -3.141808530099e-03 0.0 
0.0 0.0 0.0 
-3.519995106508e-03 -9.081135922152e-04 0.0 
-9.081135922152e-04 -2.881862140937e-03 0.0 
0.0 0.0 0.0 
-2.373513224031e-03 -1.836942443247e-03 0.0 
-1.836942443247e-03 -1.418163614453e-03 0.0 
0.0 0.0 0.0 
-1.329230263017e-03 -1.359117527188e-03 0.0 
-1.359117527188e-03 1.734004110473e-05 0.0 
0.0 0.0 0.0 
-4.289595631615e-04 -3.990887482313e-04 0.0 
-3.990887482313e-04 1.140623743031e-04 0.0 
0.0 0.0 0.0 
-5.144581240720e-05 -1.097273670650e-04 0.0 
-1.097273670650e-04 1.156908753737e-04 0.0 
0.0 0.0 0.0 
1.399476006662e-04 -5.924227744756e-05 0.0 
-5.924227744756e-05 9.981355630876e-05 0.0 
0.0 0.0 0.0 
3.953868825975e-04 -1.113072534262e-04 0.0 
-1.113072534262e-04 1.722857694249e-05 0.0 
0.0 0.0 0.0 
6.609416644182e-04 -1.285046100581e-04 0.0 
-1.285046100581e-04 -1.080668490419e-04 0.0 
0.0 0.0 0.0 
9.837555217206e-04 -1.517073885361e-04 0.0 
-1.517073885361e-04 -2.600720940549e-04 0.0 
0.0 0.0 0.0 
1.339593235372e-03 -1.422459709959e-04 0.0 
-1.422459709959e-04 -4.279510379673e-04 0.0 
0.0 0.0 0.0 
1.656813336447e-03 -1.401194281941e-04 0.0 
-1.401194281941e-04 -5.692532687931e-04 0.0 
0.0 0.0 0.0 
1.879234709059e-03 -1.101641522334e-04 0.0 
-1.101641522334e-04 -6.611722233429e-04 0.0 
0.0 0.0 0.0 
2.074824253893e-03 -8.164307954312e-05 0.0 
-8.164307954312e-05 -7.404938209128e-04 0.0 
0.0 0.0 0.0 
2.225422107731e-03 -6.553381650260e-05 0.0 
-6.553381650260e-05 -8.043073439226e-04 0.0 
0.0 0.0 0.0 
2.358231233279e-03 -3.898320417824e-05 0.0 
-3.898320417824e-05 -8.771549461476e-04 0.0 
0.0 0.0 0.0 
2.461580006813e-03 2.394430225208e-05 0.0 
2.394430225208e-05 -9.182144609806e-04 0.0 
0.0 0.0 0.0 
-1.771932336610e-03 7.301749234972e-04 0.0 
7.301749234972e-04 1.076562381404e-03 0.0 
0.0 0.0 0.0 
-7.565019715953e-04 2.907009944652e-04 0.0 
2.907009944652e-04 4.717385315461e-04 0.0 
0.0 0.0 0.0 
-3.443360069106e-04 1.907469707883e-04 0.0 
1.907469707883e-04 2.979501070280e-04 0.0 
0.0 0.0 0.0 
-1.192482661400e-04 7.592899902170e-05 0.0 
7.592899902170e-05 2.561015460159e-04 0.0 
0.0 0.0 0.0 
8.201643011407e-05 4.183448070668e-05 0.0 
4.183448070668e-05 2.074396853562e-04 0.0 
0.0 0.0 0.0 
2.912538702603e-04 5.908464624143e-05 0.0 
5.908464624143e-05 1.285390680087e-04 0.0 
0.0 0.0 0.0 
4.864975626141e-04 6.567330671363e-05 0.0 
6.567330671363e-05 2.981927172870e-05 0.0 
0.0 0.0 0.0 
6.277057542819e-04 5.681787919912e-05 0.0 
5.681787919912e-05 -4.662875389834e-05 0.0 
0.0 0.0 0.0 
7.201230678969e-04 3.306473445617e-05 0.0 
3.306473445617e-05 -9.845960210512e-05 0.0 
0.0 0.0 0.0 
7.651474316464e-04 5.062119051536e-06 0.0 
5.062119051536e-06 -1.262673343224e-04 0.0 
0.0 0.0 0.0 
7.673146776484e-04 -2.694707447351e-05 0.0 
-2.694707447351e-05 -1.362204276825e-04 0.0 
0.0 0.0 0.0 
7.576417299523e-04 -5.626025572913e-05 0.0 
-5.626025572913e-05 -1.400403927432e-04 0.0 
0.0 0.0 0.0 
7.420237498941e-04 -7.410348752237e-05 0.0 
-7.410348752237e-05 -1.291751143705e-04 0.0 
0.0 0.0 0.0 
6.967177609580e-04 -8.523026919596e-05 0.0 
-8.523026919596e-05 -1.076743062379e-04 0.0 
0.0 0.0 0.0 
6.216004756521e-04 -8.799168511303e-05 0.0 
-8.799168511303e-05 -7.711716006960e-05 0.0 
0.0 0.0 0.0 
5.241401256592e-04 -8.417313102286e-05 0.0 
-8.417313102286e-05 -3.870680844094e-05 0.0 
0.0 0.0 0.0 
4.124495245158e-04 -7.458190182532e-05 0.0 
-7.458190182532e-05 5.097770685802e-06 0.0 
0.0 0.0 0.0 
2.935275291607e-04 -6.024413659300e-05 0.0 
-6.024413659300e-05 5.130232875916e-05 0.0 
0.0 0.0 0.0 
1.785963257768e-04 -4.679976328726e-05 0.0 
-4.679976328726e-05 9.508078355410e-05 0.0 
0.0 0.0 0.0 
7.030011841328e-05 -3.790759676287e-05 0.0 
-3.790759676287e-05 1.362511643781e-04 0.0 
0.0 0.0 0.0 
-2.732842191252e-05 -3.379652567751e-05 0.0 
-3.379652567751e-05 1.727829800024e-04 0.0 
0.0 0.0 0.0 
-1.047065391765e-04 -3.556709300505e-05 0.0 
-3.556709300505e-05 2.025839425241e-04 0.0 
0.0 0.0 0.0 
-1.622599192309e-04 -3.852469243828e-05 0.0 
-3.852469243828e-05 2.274761074044e-04 0.0 
0.0 0.0 0.0 
-2.116643226406e-04 -3.975597510147e-05 0.0 
-3.975597510147e-05 2.484978789540e-04 0.0 
0.0 0.0 0.0 
-2.497199725689e-04 -3.954215273685e-05 0.0 
-3.954215273685e-05 2.639663227397e-04 0.0 
0.0 0.0 0.0 
-2.776384719759e-04 -3.606303982374e-05 0.0 
-3.606303982374e-05 2.763162832612e-04 0.0 
0.0 0.0 0.0 
-2.999504455701e-04 -2.966106647625e-05 0.0 
-2.966106647625e-05 2.851601209850e-04 0.0 
0.0 0.0 0.0 
-3.154113621195e-04 -2.218364854790e-05 0.0 
-2.218364854790e-05 2.882843317953e-04 0.0 
0.0 0.0 0.0 
-3.021511997590e-04 -4.522109434953e-06 0.0 
-4.522109434953e-06 2.498204733927e-04 0.0 
0.0 0.0 0.0 
-3.461755207184e-04 5.054976163556e-06 0.0 
5.054976163556e-06 4.436479328992e-04 0.0 
0.0 0.0 0.0 
-3.540860863933e-04 -1.947750549742e-05 0.0 
-1.947750549742e-05 4.659318397111e-04 0.0 
0.0 0.0 0.0 
-3.470886660546e-04 -3.777308004206e-05 0.0 
-3.777308004206e-05 4.739586870925e-04 0.0 
0.0 0.0 0.0 
-3.321151107050e-04 -5.032282125636e-05 0.0 
-5.032282125636e-05 4.697399161463e-04 0.0 
0.0 0.0 0.0 
-3.104604942587e-04 -5.974669176172e-05 0.0 
-5.974669176172e-05 4.608748355266e-04 0.0 
0.0 0.0 0.0 
-2.833204328779e-04 -6.680029514939e-05 0.0 
-6.680029514939e-05 4.491819197043e-04 0.0 
0.0 0.0 0.0 
-2.469117403363e-04 -7.183273791412e-05 0.0 
-7.183273791412e-05 4.338312538238e-04 0.0 
0.0 0.0 0.0 
-2.028331341588e-04 -7.513641100333e-05 0.0 
-7.513641100333e-05 4.143147242377e-04 0.0 
0.0 0.0 0.0 
-1.503903918001e-04 -7.716911309304e-05 0.0 
-7.716911309304e-05 3.916127597207e-04 0.0 
0.0 0.0 0.0 
-8.550609357945e-05 -7.997404882611e-05 0.0 
-7.997404882611e-05 3.662472580078e-04 0.0 
0.0 0.0 0.0 
-1.238927949367e-05 -8.248069427129e-05 0.0 
-8.248069427129e-05 3.372599599061e-04 0.0 
0.0 0.0 0.0 
6.819243224826e-05 -8.536262828044e-05 0.0 
-8.536262828044e-05 3.046456276355e-04 0.0 
0.0 0.0 0.0 
1.552971446311e-04 -8.875894687098e-05 0.0 
-8.875894687098e-05 2.686894703812e-04 0.0 
0.0 0.0 0.0 
2.419184436532e-04 -8.972291199426e-05 0.0 
-8.972291199426e-05 2.325759231508e-04 0.0 
0.0 0.0 0.0 
3.180447467944e-04 -8.521532498633e-05 0.0 
-8.521532498633e-05 1.993502093513e-04 0.0 
0.0 0.0 0.0 
3.786609160679e-04 -7.380762147960e-05 0.0 
-7.380762147960e-05 1.705250112584e-04 0.0 
0.0 0.0 0.0 
4.195782502459e-04 -5.403636996788e-05 0.0 
-5.403636996788e-05 1.472319565539e-04 0.0 
0.0 0.0 0.0 
4.397732609823e-04 -2.607055255430e-05 0.0 
-2.607055255430e-05 1.290718267031e-04 0.0 
0.0 0.0 0.0 
4.406994966988e-04 1.053133828444e-05 0.0 
1.053133828444e-05 1.240608446453e-04 0.0 
0.0 0.0 0.0 
4.304686295952e-04 5.754844482400e-05 0.0 
5.754844482400e-05 1.318198279823e-04 0.0 
0.0 0.0 0.0 
3.894265198915e-04 1.065020858231e-04 0.0 
1.065020858231e-04 1.520003290977e-04 0.0 
0.0 0.0 0.0 
3.070817796344e-04 1.528844528948e-04 0.0 
1.528844528948e-04 1.908441679409e-04 0.0 
0.0 0.0 0.0 
1.891925174871e-04 1.976833763079e-04 0.0 
1.976833763079e-04 2.497915487550e-04 0.0 
0.0 0.0 0.0 
1.773865220326e-05 2.489212021637e-04 0.0 
2.489212021637e-04 3.238841685467e-04 0.0 
0.0 0.0 0.0 
-1.684572978010e-04 3.084187927059e-04 0.0 
3.084187927059e-04 3.956712244440e-04 0.0 
0.0 0.0 0.0 
-3.401931827088e-04 3.984863047971e-04 0.0 
3.984863047971e-04 4.469665622759e-04 0.0 
0.0 0.0 0.0 
-5.902498815353e-04 6.213614406181e-04 0.0 
6.213614406181e-04 5.254443781611e-04 0.0 
0.0 0.0 0.0 
-8.659638187409e-04 7.987084395311e-04 0.0 
7.987084395311e-04 6.242049652991e-04 0.0 
0.0 0.0 0.0 
-6.709466176753e-04 1.115208781125e-03 0.0 
1.115208781125e-03 7.650826191755e-04 0.0 
0.0 0.0 0.0 
-5.312695017313e-04 9.518240215723e-04 0.0 
9.518240215723e-04 7.454381287970e-04 0.0 
0.0 0.0 0.0 
-3.929791425916e-04 7.065451205640e-04 0.0 
7.065451205640e-04 7.342276118693e-04 0.0 
0.0 0.0 0.0 
-2.859370087869e-04 5.353639556685e-04 0.0 
5.353639556685e-04 7.200126231203e-04 0.0 
0.0 0.0 0.0 
-1.997683326254e-04 3.931282044125e-04 0.0 
3.931282044125e-04 6.961548388030e-04 0.0 
0.0 0.0 0.0 
-1.180333939476e-04 2.678897740582e-04 0.0 
2.678897740582e-04 6.724579815372e-04 0.0 
0.0 0.0 0.0 
-5.039842797749e-05 1.566715107263e-04 0.0 
1.566715107263e-04 6.533053163878e-04 0.0 
0.0 0.0 0.0 
-1.462609288028e-05 6.413435202563e-05 0.0 
6.413435202563e-05 6.450902211091e-04 0.0 
0.0 0.0 0.0 
-1.052495623784e-06 -9.510437254136e-06 0.0 
-9.510437254136e-06 6.492771008772e-04 0.0 
0.0 0.0 0.0 
-1.578007320424e-06 -6.976621000655e-05 0.0 
-6.976621000655e-05 6.652901764429e-04 0.0 
0.0 0.0 0.0 
-1.590814404062e-05 -1.198685322304e-04 0.0 
-1.198685322304e-04 6.857082815980e-04 0.0 
0.0 0.0 0.0 
-4.137245681918e-05 -1.582837579973e-04 0.0 
-1.582837579973e-04 7.071603306450e-04 0.0 
0.0 0.0 0.0 
-7.633999619407e-05 -1.844265822757e-04 0.0 
-1.844265822757e-04 7.292409832469e-04 0.0 
0.0 0.0 0.0 
-1.187808718790e-04 -2.002961930560e-04 0.0 
-2.002961930560e-04 7.517701511979e-04 0.0 
0.0 0.0 0.0 
-1.653579563457e-04 -2.079097092321e-04 0.0 
-2.079097092321e-04 7.745042439700e-04 0.0 
0.0 0.0 0.0 
-2.099895288694e-04 -2.092928587256e-04 0.0 
-2.092928587256e-04 7.956967111393e-04 0.0 
0.0 0.0 0.0 
-2.513674575609e-04 -2.053174245669e-04 0.0 
-2.053174245669e-04 8.135145666332e-04 0.0 
0.0 0.0 0.0 
-2.885742011154e-04 -1.953553594228e-04 0.0 
-1.953553594228e-04 8.289930338224e-04 0.0 
0.0 0.0 0.0 
-3.226723657746e-04 -1.812813213657e-04 0.0 
-1.812813213657e-04 8.448376823850e-04 0.0 
0.0 0.0 0.0 
-3.528186882920e-04 -1.659160004363e-04 0.0 
-1.659160004363e-04 8.601796351755e-04 0.0 
0.0 0.0 0.0 
-3.773470819069e-04 -1.490842724011e-04 0.0 
-1.490842724011e-04 8.729477450773e-04 0.0 
0.0 0.0 0.0 
-3.961880611788e-04 -1.304728586566e-04 0.0 
-1.304728586566e-04 8.832508937776e-04 0.0 
0.0 0.0 0.0 
-4.102018383026e-04 -1.104774971004e-04 0.0 
-1.104774971004e-04 8.912480046413e-04 0.0 
0.0 0.0 0.0 
-4.200115861514e-04 -8.796818809817e-05 0.0 
-8.796818809817e-05 8.970077524169e-04 0.0 
0.0 0.0 0.0 
-4.268526166057e-04 -5.749183476982e-05 0.0 
-5.749183476982e-05 9.024191764265e-04 0.0 
0.0 0.0 0.0 
-4.491849260673e-04 -1.412409296104e-05 0.0 
-1.412409296104e-05 9.224724471483e-04 0.0 
0.0 0.0 0.0 
-5.714163848372e-04 1.246412456152e-03 0.0 
1.246412456152e-03 9.569701600022e-04 0.0 
0.0 0.0 0.0 
-5.293397751051e-04 1.086606195900e-03 0.0 
1.086606195900e-03 1.019867175636e-03 0.0 
0.0 0.0 0.0 
-4.860036864242e-04 8.199616729728e-04 0.0 
8.199616729728e-04 1.067880204730e-03 0.0 
0.0 0.0 0.0 
-4.620368907406e-04 6.100284494342e-04 0.0 
6.100284494342e-04 1.108056444085e-03 0.0 
0.0 0.0 0.0 
-4.285599579085e-04 4.251831078927e-04 0.0 
4.251831078927e-04 1.135143755163e-03 0.0 
0.0 0.0 0.0 
-4.076731903538e-04 2.681125302656e-04 0.0 
2.681125302656e-04 1.156105020584e-03 0.0 
0.0 0.0 0.0 
-3.967633519627e-04 1.395995751857e-04 0.0 
1.395995751857e-04 1.178061110108e-03 0.0 
0.0 0.0 0.0 
-3.880914562275e-04 3.546865389707e-05 0.0 
3.546865389707e-05 1.202339486367e-03 0.0 
0.0 0.0 0.0 
-3.832607347646e-04 -4.857618107073e-05 0.0 
-4.857618107073e-05 1.226882066447e-03 0.0 
0.0 0.0 0.0 
-3.861121236082e-04 -1.153421174828e-04 0.0 
-1.153421174828e-04 1.249521832458e-03 0.0 
0.0 0.0 0.0 
-3.903767343994e-04 -1.666293620527e-04 0.0 
-1.666293620527e-04 1.268028067848e-03 0.0 
0.0 0.0 0.0 
-3.991081565041e-04 -2.046636803972e-04 0.0 
-2.046636803972e-04 1.284397111158e-03 0.0 
0.0 0.0 0.0 
-4.117699089684e-04 -2.288672307404e-04 0.0 
-2.288672307404e-04 1.299786351023e-03 0.0 
0.0 0.0 0.0 
-4.262693099722e-04 -2.404048858700e-04 0.0 
-2.404048858700e-04 1.313307415514e-03 0.0 
0.0 0.0 0.0 
-4.409651686081e-04 -2.421546346104e-04 0.0 
-2.421546346104e-04 1.324752211430e-03 0.0 
0.0 0.0 0.0 
-4.550042376601e-04 -2.355765191928e-04 0.0 
-2.355765191928e-04 1.334272545865e-03 0.0 
0.0 0.0 0.0 
-4.687464009895e-04 -2.221683060115e-04 0.0 
-2.221683060115e-04 1.343529535609e-03 0.0 
0.0 0.0 0.0 
-4.821023610603e-04 -2.042593050853e-04 0.0 
-2.042593050853e-04 1.353015140601e-03 0.0 
0.0 0.0 0.0 
-4.938097086194e-04 -1.834454892146e-04 0.0 
-1.834454892146e-04 1.361726490078e-03 0.0 
0.0 0.0 0.0 
-5.029656694528e-04 -1.601987152029e-04 0.0 
-1.601987152029e-04 1.369113502965e-03 0.0 
0.0 0.0 0.0 
-5.095810763541e-04 -1.346770671685e-04 0.0 
-1.346770671685e-04 1.375277429671e-03 0.0 
0.0 0.0 0.0 
-5.138468601741e-04 -1.067105724169e-04 0.0 
-1.067105724169e-04 1.380581524196e-03 0.0 
0.0 0.0 0.0 
-5.171273952252e-04 -7.580074980537e-05 0.0 
-7.580074980537e-05 1.387040195382e-03 0.0 
0.0 0.0 0.0 
-5.311309342008e-04 -4.312242259552e-05 0.0 
-4.312242259552e-05 1.399449472416e-03 0.0 
0.0 0.0 0.0 
-5.594729088282e-04 -1.000356208023e-06 0.0 
-1.000356208023e-06 1.412179819677e-03 0.0 
0.0 0.0 0.0 
-6.577497560059e-04 -2.071734952819e-05 0.0 
-2.071734952819e-05 1.896243991289e-03 0.0 
0.0 0.0 0.0 
-6.253591759063e-04 -6.669790678555e-05 0.0 
-6.669790678555e-05 1.880665235624e-03 0.0 
0.0 0.0 0.0 
-6.239191971842e-04 -1.024214083641e-04 0.0 
-1.024214083641e-04 1.873545842087e-03 0.0 
0.0 0.0 0.0 
-6.251113692129e-04 -1.340200027370e-04 0.0 
-1.340200027370e-04 1.869031766142e-03 0.0 
0.0 0.0 0.0 
-6.270939448852e-04 -1.635958269817e-04 0.0 
-1.635958269817e-04 1.865108351333e-03 0.0 
0.0 0.0 0.0 
-6.292398215452e-04 -1.908511665582e-04 0.0 
-1.908511665582e-04 1.860981171623e-03 0.0 
0.0 0.0 0.0 
-6.315233211899e-04 -2.153178528947e-04 0.0 
-2.153178528947e-04 1.856471165570e-03 0.0 
0.0 0.0 0.0 
-6.341225188478e-04 -2.360797255237e-04 0.0 
-2.360797255237e-04 1.851506774777e-03 0.0 
0.0 0.0 0.0 
-6.377239004601e-04 -2.517260010848e-04 0.0 
-2.517260010848e-04 1.846355776530e-03 0.0 
0.0 0.0 0.0 
-6.429504172732e-04 -2.603750243540e-04 0.0 
-2.603750243540e-04 1.840944650974e-03 0.0 
0.0 0.0 0.0 
-6.496950862678e-04 -2.599582553287e-04 0.0 
-2.599582553287e-04 1.834213479332e-03 0.0 
0.0 0.0 0.0 
-6.578368597781e-04 -2.483125519864e-04 0.0 
-2.483125519864e-04 1.824967947943e-03 0.0 
0.0 0.0 0.0 
-6.677992278539e-04 -2.224424182418e-04 0.0 
-2.224424182418e-04 1.812498178584e-03 0.0 
0.0 0.0 0.0 
-6.804131151980e-04 -1.791288497661e-04 0.0 
-1.791288497661e-04 1.796994078777e-03 0.0 
0.0 0.0 0.0 
-6.926798884902e-04 -1.175870116863e-04 0.0 
-1.175870116863e-04 1.777455458832e-03 0.0 
0.0 0.0 0.0 
-6.989479034709e-04 -3.467622372033e-05 0.0 
-3.467622372033e-05 1.749339579057e-03 0.0 
0.0 0.0 0.0 
-6.974061270179e-04 7.233092900988e-05 0.0 
7.233092900988e-05 1.710993624138e-03 0.0 
0.0 0.0 0.0 
-6.949134722871e-04 2.055148137405e-04 0.0 
2.055148137405e-04 1.664429198365e-03 0.0 
0.0 0.0 0.0 
-6.866791524087e-04 3.674424088878e-04 0.0 
3.674424088878e-04 1.609398441054e-03 0.0 
0.0 0.0 0.0 
-6.739404079086e-04 5.570403681522e-04 0.0 
5.570403681522e-04 1.542445933750e-03 0.0 
0.0 0.0 0.0 
-6.512615811453e-04 7.768081387665e-04 0.0 
7.768081387665e-04 1.459625561638e-03 0.0 
0.0 0.0 0.0 
-6.364346824066e-04 1.051111842730e-03 0.0 
1.051111842730e-03 1.361487680136e-03 0.0 
0.0 0.0 0.0 
-6.109463316676e-04 1.240226077091e-03 0.0 
1.240226077091e-03 1.247591251885e-03 0.0 
0.0 0.0 0.0 
-7.550396208967e-04 1.142785977661e-03 0.0 
1.142785977661e-03 1.639326394054e-03 0.0 
0.0 0.0 0.0 
-8.202310762399e-04 9.562508011768e-04 0.0 
9.562508011768e-04 1.797972868123e-03 0.0 
0.0 0.0 0.0 
-8.666313530079e-04 6.970730274499e-04 0.0 
6.970730274499e-04 1.928581384176e-03 0.0 
0.0 0.0 0.0 
-9.079134718355e-04 4.942203817398e-04 0.0 
4.942203817398e-04 2.033953623786e-03 0.0 
0.0 0.0 0.0 
-9.313068996709e-04 3.227816126852e-04 0.0 
3.227816126852e-04 2.120879624299e-03 0.0 
0.0 0.0 0.0 
-9.435633833056e-04 1.769148115705e-04 0.0 
1.769148115705e-04 2.189478319989e-03 0.0 
0.0 0.0 0.0 
-9.467592683879e-04 5.714179252007e-05 0.0 
5.714179252007e-05 2.242823656309e-03 0.0 
0.0 0.0 0.0 
-9.392256073087e-04 -3.718556702212e-05 0.0 
-3.718556702212e-05 2.281650107837e-03 0.0 
0.0 0.0 0.0 
-9.197672425974e-04 -1.075818377827e-04 0.0 
-1.075818377827e-04 2.307805194379e-03 0.0 
0.0 0.0 0.0 
-8.898684753147e-04 -1.560279011341e-04 0.0 
-1.560279011341e-04 2.324904421873e-03 0.0 
0.0 0.0 0.0 
-8.624081500673e-04 -1.864096888874e-04 0.0 
-1.864096888874e-04 2.336514010555e-03 0.0 
0.0 0.0 0.0 
-8.374831860471e-04 -2.024670052577e-04 0.0 
-2.024670052577e-04 2.343707423567e-03 0.0 
0.0 0.0 0.0 
-8.152670219947e-04 -2.070534032899e-04 0.0 
-2.070534032899e-04 2.348216028260e-03 0.0 
0.0 0.0 0.0 
-7.959832081954e-04 -2.023264170189e-04 0.0 
-2.023264170189e-04 2.351512905848e-03 0.0 
0.0 0.0 0.0 
-7.794431830035e-04 -1.899694521022e-04 0.0 
-1.899694521022e-04 2.354246390812e-03 0.0 
0.0 0.0 0.0 
-7.650918990722e-04 -1.717780868533e-04 0.0 
-1.717780868533e-04 2.356333760982e-03 0.0 
0.0 0.0 0.0 
-7.526781501284e-04 -1.495076510881e-04 0.0 
-1.495076510881e-04 2.358098719434e-03 0.0 
0.0 0.0 0.0 
-7.422023549986e-04 -1.241173605795e-04 0.0 
-1.241173605795e-04 2.360108217165e-03 0.0 
0.0 0.0 0.0 
-7.338149747187e-04 -9.643595960368e-05 0.0 
-9.643595960368e-05 2.362762367758e-03 0.0 
0.0 0.0 0.0 
-7.283315935887e-04 -6.771206597363e-05 0.0 
-6.771206597363e-05 2.366985808373e-03 0.0 
0.0 0.0 0.0 
-7.349447770215e-04 -4.132231395238e-05 0.0 
-4.132231395238e-05 2.374182671854e-03 0.0 
0.0 0.0 0.0 
-7.555360157095e-04 -2.550088545629e-07 0.0 
-2.550088545629e-07 2.381334008136e-03 0.0 
0.0 0.0 0.0 
-8.310993963163e-04 -1.254259366603e-05 0.0 
-1.254259366603e-05 2.852909621403e-03 0.0 
0.0 0.0 0.0 
-8.251981318931e-04 -4.696829406662e-05 0.0 
-4.696829406662e-05 2.850750915684e-03 0.0 
0.0 0.0 0.0 
-8.308834618557e-04 -7.302845971343e-05 0.0 
-7.302845971343e-05 2.847984983900e-03 0.0 
0.0 0.0 0.0 
-8.412415036324e-04 -9.552574646250e-05 0.0 
-9.552574646250e-05 2.846236446793e-03 0.0 
0.0 0.0 0.0 
-8.563619958820e-04 -1.162561469839e-04 0.0 
-1.162561469839e-04 2.845576923735e-03 0.0 
0.0 0.0 0.0 
-8.754267071558e-04 -1.344388615358e-04 0.0 
-1.344388615358e-04 2.845306764779e-03 0.0 
0.0 0.0 0.0 
-8.971860650899e-04 -1.488681436626e-04 0.0 
-1.488681436626e-04 2.844590950776e-03 0.0 
0.0 0.0 0.0 
-9.223976273439e-04 -1.575274974959e-04 0.0 
-1.575274974959e-04 2.842754297510e-03 0.0 
0.0 0.0 0.0 
-9.510060092926e-04 -1.581754803598e-04 0.0 
-1.581754803598e-04 2.839516641319e-03 0.0 
0.0 0.0 0.0 
-9.829756372515e-04 -1.489762083866e-04 0.0 
-1.489762083866e-04 2.834677745526e-03 0.0 
0.0 0.0 0.0 
-1.018500197333e-03 -1.279937515343e-04 0.0 
-1.279937515343e-04 2.826791795778e-03 0.0 
0.0 0.0 0.0 
-1.057203263609e-03 -9.248011317386e-05 0.0 
-9.248011317386e-05 2.813643719005e-03 0.0 
0.0 0.0 0.0 
-1.098683086192e-03 -3.855429761655e-05 0.0 
-3.855429761655e-05 2.792446543139e-03 0.0 
0.0 0.0 0.0 
-1.128622243005e-03 3.830826464792e-05 0.0 
3.830826464792e-05 2.758298795709e-03 0.0 
0.0 0.0 0.0 
-1.136477565903e-03 1.398202030927e-04 0.0 
1.398202030927e-04 2.707011583058e-03 0.0 
0.0 0.0 0.0 
-1.132655373211e-03 2.665999544748e-04 0.0 
2.665999544748e-04 2.639085718297e-03 0.0 
0.0 0.0 0.0 
-1.116533706697e-03 4.192119677752e-04 0.0 
4.192119677752e-04 2.550408328691e-03 0.0 
0.0 0.0 0.0 
-1.080090564306e-03 6.023346269537e-04 0.0 
6.023346269537e-04 2.440381702712e-03 0.0 
0.0 0.0 0.0 
-1.032957254595e-03 8.386081901786e-04 0.0 
8.386081901786e-04 2.304653065960e-03 0.0 
0.0 0.0 0.0 
-9.626641861097e-04 1.016089114429e-03 0.0 
1.016089114429e-03 2.127602971330e-03 0.0 
0.0 0.0 0.0 
-1.158056777790e-03 8.971850530451e-04 0.0 
8.971850530451e-04 2.661171054992e-03 0.0 
0.0 0.0 0.0 
-1.217105478937e-03 7.442823151223e-04 0.0 
7.442823151223e-04 2.845547130785e-03 0.0 
0.0 0.0 0.0 
-1.250902402867e-03 5.405919701687e-04 0.0 
5.405919701687e-04 2.974315341341e-03 0.0 
0.0 0.0 0.0 
-1.274305154866e-03 3.862605579224e-04 0.0 
3.862605579224e-04 3.077669030119e-03 0.0 
0.0 0.0 0.0 
-1.281241321136e-03 2.602335316655e-04 0.0 
2.602335316655e-04 3.160318658257e-03 0.0 
0.0 0.0 0.0 
-1.267892381824e-03 1.578829405841e-04 0.0 
1.578829405841e-04 3.219990158899e-03 0.0 
0.0 0.0 0.0 
-1.228488493165e-03 7.805863864867e-05 0.0 
7.805863864867e-05 3.260371120204e-03 0.0 
0.0 0.0 0.0 
-1.182869932140e-03 1.860892557656e-05 0.0 
1.860892557656e-05 3.285337011492e-03 0.0 
0.0 0.0 0.0 
-1.139206044430e-03 -2.333994970745e-05 0.0 
-2.333994970745e-05 3.301274395359e-03 0.0 
0.0 0.0 0.0 
-1.098574592128e-03 -5.132086933017e-05 0.0 
-5.132086933017e-05 3.311345055978e-03 0.0 
0.0 0.0 0.0 
-1.060672958542e-03 -6.714675349860e-05 0.0 
-6.714675349860e-05 3.317651174576e-03 0.0 
0.0 0.0 0.0 
-1.024571233369e-03 -7.336864063708e-05 0.0 
-7.336864063708e-05 3.320447575090e-03 0.0 
0.0 0.0 0.0 
-9.931937571331e-04 -7.325752353584e-05 0.0 
-7.325752353584e-05 3.321180896896e-03 0.0 
0.0 0.0 0.0 
-9.656422537969e-04 -6.837719257596e-05 0.0 
-6.837719257596e-05 3.320871895007e-03 0.0 
0.0 0.0 0.0 
-9.414333366775e-04 -5.997101644456e-05 0.0 
-5.997101644456e-05 3.320155939769e-03 0.0 
0.0 0.0 0.0 
-9.232202413532e-04 -4.898303769469e-05 0.0 
-4.898303769469e-05 3.320372754530e-03 0.0 
0.0 0.0 0.0 
-9.108612803351e-04 -3.670028723730e-05 0.0 
-3.670028723730e-05 3.321448141860e-03 0.0 
0.0 0.0 0.0 
-9.032438003089e-04 -2.523567379629e-05 0.0 
-2.523567379629e-05 3.321992809333e-03 0.0 
0.0 0.0 0.0 
-9.022316434194e-04 5.223831291478e-06 0.0 
5.223831291478e-06 3.320999715837e-03 0.0 
0.0 0.0 0.0 
-9.594269327559e-04 3.530727634905e-07 0.0 
3.530727634905e-07 3.777923711184e-03 0.0 
0.0 0.0 0.0 
-9.663970551235e-04 -1.860378875413e-05 0.0 
-1.860378875413e-05 3.779099293198e-03 0.0 
0.0 0.0 0.0 
-9.786736525132e-04 -2.533921647054e-05 0.0 
-2.533921647054e-05 3.778796116852e-03 0.0 
0.0 0.0 0.0 
-9.964420384556e-04 -2.755047178818e-05 0.0 
-2.755047178818e-05 3.778423489035e-03 0.0 
0.0 0.0 0.0 
-1.019801877052e-03 -2.601460417163e-05 0.0 
-2.601460417163e-05 3.778193752429e-03 0.0 
0.0 0.0 0.0 
-1.049912140729e-03 -2.103281104864e-05 0.0 
-2.103281104864e-05 3.778529573199e-03 0.0 
0.0 0.0 0.0 
-1.084794384161e-03 -1.035921074427e-05 0.0 
-1.035921074427e-05 3.777673888388e-03 0.0 
0.0 0.0 0.0 
-1.127090018768e-03 5.894798400391e-06 0.0 
5.894798400391e-06 3.775339241432e-03 0.0 
0.0 0.0 0.0 
-1.171021192916e-03 3.093862988773e-05 0.0 
3.093862988773e-05 3.768161046027e-03 0.0 
0.0 0.0 0.0 
-1.215794362424e-03 6.658927533342e-05 0.0 
6.658927533342e-05 3.755483769178e-03 0.0 
0.0 0.0 0.0 
-1.259775245744e-03 1.144439822091e-04 0.0 
1.144439822091e-04 3.735017008500e-03 0.0 
0.0 0.0 0.0 
-1.305685769036e-03 1.791220970687e-04 0.0 
1.791220970687e-04 3.704388222137e-03 0.0 
0.0 0.0 0.0 
-1.350032331610e-03 2.623978138647e-04 0.0 
2.623978138647e-04 3.660128987937e-03 0.0 
0.0 0.0 0.0 
-1.378250003015e-03 3.651663676296e-04 0.0 
3.651663676296e-04 3.593043225503e-03 0.0 
0.0 0.0 0.0 
-1.371500239024e-03 4.938222552712e-04 0.0 
4.938222552712e-04 3.502522141491e-03 0.0 
0.0 0.0 0.0 
-1.354577306925e-03 6.669805489355e-04 0.0 
6.669805489355e-04 3.393253803775e-03 0.0 
0.0 0.0 0.0 
-1.315368413492e-03 7.969515727966e-04 0.0 
7.969515727966e-04 3.217313081134e-03 0.0 
0.0 0.0 0.0 
-1.417944020156e-03 7.345696585935e-04 0.0 
7.345696585935e-04 3.765210636356e-03 0.0 
0.0 0.0 0.0 
-1.435361048642e-03 6.283137197397e-04 0.0 
6.283137197397e-04 3.928880296131e-03 0.0 
0.0 0.0 0.0 
-1.421584433536e-03 4.872073476718e-04 0.0 
4.872073476718e-04 4.018697417511e-03 0.0 
0.0 0.0 0.0 
-1.388204689439e-03 3.837000695684e-04 0.0 
3.837000695684e-04 4.085294072901e-03 0.0 
0.0 0.0 0.0 
-1.347297281696e-03 2.967503807361e-04 0.0 
2.967503807361e-04 4.134311416389e-03 0.0 
0.0 0.0 0.0 
-1.303219938532e-03 2.256864962454e-04 0.0 
2.256864962454e-04 4.168501293258e-03 0.0 
0.0 0.0 0.0 
-1.256277048749e-03 1.677479086847e-04 0.0 
1.677479086847e-04 4.190430999108e-03 0.0 
0.0 0.0 0.0 
-1.206790013034e-03 1.200829925036e-04 0.0 
1.200829925036e-04 4.204219879457e-03 0.0 
0.0 0.0 0.0 
-1.159803955820e-03 8.526297474000e-05 0.0 
8.526297474000e-05 4.212863430464e-03 0.0 
0.0 0.0 0.0 
-1.120095092185e-03 5.709223643025e-05 0.0 
5.709223643025e-05 4.216679558299e-03 0.0 
0.0 0.0 0.0 
-1.085281199431e-03 3.850622677348e-05 0.0 
3.850622677348e-05 4.219712026616e-03 0.0 
0.0 0.0 0.0 
-1.057643610319e-03 2.299383527371e-05 0.0 
2.299383527371e-05 4.221039768238e-03 0.0 
0.0 0.0 0.0 
-1.035459338790e-03 1.402104198959e-05 0.0 
1.402104198959e-05 4.223631057377e-03 0.0 
0.0 0.0 0.0 
-1.017164377886e-03 7.159920306115e-06 0.0 
7.159920306115e-06 4.223003645266e-03 0.0 
0.0 0.0 0.0 
-1.005525936256e-03 -5.619072981984e-07 0.0 
-5.619072981984e-07 4.225935548350e-03 0.0 
0.0 0.0 0.0 
-1.005055716844e-03 1.872617535782e-05 0.0 
1.872617535782e-05 4.229241215096e-03 0.0 
0.0 0.0 0.0 
-1.995802793878e-03 1.808362961155e-03 0.0 
1.808362961155e-03 4.247431572733e-04 0.0 
0.0 0.0 0.0 
-1.018721854422e-03 1.621863501998e-03 0.0 
1.621863501998e-03 6.790126560725e-04 0.0 
0.0 0.0 0.0 
-6.796005032761e-04 1.622663425179e-03 0.0 
1.622663425179e-03 7.891857585269e-04 0.0 
0.0 0.0 0.0 
-5.637802311458e-04 1.598414013798e-03 0.0 
1.598414013798e-03 9.811072346939e-04 0.0 
0.0 0.0 0.0 
-6.157767526303e-04 1.522781490905e-03 0.0 
1.522781490905e-03 1.288177121504e-03 0.0 
0.0 0.0 0.0 
-7.746134071124e-04 1.387241500152e-03 0.0 
1.387241500152e-03 1.722730447176e-03 0.0 
0.0 0.0 0.0 
-9.858090833471e-04 1.234285008447e-03 0.0 
1.234285008447e-03 2.246317458965e-03 0.0 
0.0 0.0 0.0 
-1.181231201118e-03 1.092042838538e-03 0.0 
1.092042838538e-03 2.812724592920e-03 0.0 
0.0 0.0 0.0 
-1.335408390034e-03 9.725151239991e-04 0.0 
9.725151239991e-04 3.399103705683e-03 0.0 
0.0 0.0 0.0 
-1.433410109737e-03 8.960735718343e-04 0.0 
8.960735718343e-04 3.971012102603e-03 0.0 
0.0 0.0 0.0 
-6.353503270357e-04 2.226721337098e-03 0.0 
2.226721337098e-03 2.107213256406e-04 0.0 
0.0 0.0 0.0 
4.436488631374e-04 1.364566699398e-04 0.0 
1.364566699398e-04 3.155691350472e-03 0.0 
0.0 0.0 0.0 
-1.248048253199e-04 -3.361159197731e-04 0.0 
-3.361159197731e-04 3.121903541162e-04 0.0 
0.0 0.0 0.0 
-1.307676897986e-03 -1.885433531053e-03 0.0 
-1.885433531053e-03 -2.886308954023e-03 0.0 
0.0 0.0 0.0 
2.071423719657e-04 -9.012432345917e-04 0.0 
-9.012432345917e-04 3.871983871084e-03 0.0 
0.0 0.0 0.0 
-4.193210357674e-04 1.881636786380e-03 0.0 
1.881636786380e-03 8.915456223421e-04 0.0 
0.0 0.0 0.0 
-1.916525317740e-03 -2.542270330946e-04 0.0 
-2.542270330946e-04 4.043674655417e-03 0.0 
0.0 0.0 0.0 
4.137095968948e-04 1.195194536562e-03 0.0 
1.195194536562e-03 3.378679174142e-03 0.0 
0.0 0.0 0.0 
-7.324052371623e-04 1.607392145491e-03 0.0 
1.607392145491e-03 1.773906968397e-03 0.0 
0.0 0.0 0.0 
2.163644139924e-04 1.952003469584e-03 0.0 
1.952003469584e-03 4.248362187589e-03 0.0 
0.0 0.0 0.0 
-1.173892775814e-03 1.270691425136e-03 0.0 
1.270691425136e-03 2.979184618640e-03 0.0 
0.0 0.0 0.0 
-6.695049895411e-05 -1.063131424813e-03 0.0 
-1.063131424813e-03 4.896285904319e-03 0.0 
0.0 0.0 0.0 
1.122642384550e-03 -2.457026949470e-04 0.0 
-2.457026949470e-04 -2.312264503053e-04 0.0 
0.0 0.0 0.0 
-3.652092492534e-06 2.195362644915e-03 0.0 
2.195362644915e-03 5.369615463257e-03 0.0 
0.0 0.0 0.0 
-1.420129563201e-03 1.048376086098e-03 0.0 
1.048376086098e-03 4.213682326713e-03 0.0 
0.0 0.0 0.0 
-1.458006854911e-03 -1.900605203386e-04 0.0 
-1.900605203386e-04 2.911251150308e-03 0.0 
0.0 0.0 0.0 
-1.647168717209e-03 -2.389705693333e-04 0.0 
-2.389705693333e-04 4.611995039640e-03 0.0 
0.0 0.0 0.0 
-1.299196409657e-04 2.059087326149e-03 0.0 
2.059087326149e-03 6.127713616233e-03 0.0 
0.0 0.0 0.0 
-1.906606141913e-04 1.653618447820e-03 0.0 
1.653618447820e-03 6.945930848864e-03 0.0 
0.0 0.0 0.0 
-1.872488219307e-04 5.733473128697e-04 0.0 
5.733473128697e-04 7.779230382520e-03 0.0 
0.0 0.0 0.0 
-2.197099768785e-04 9.226950372535e-04 0.0 
9.226950372535e-04 7.588555270541e-03 0.0 
0.0 0.0 0.0 
-2.024767449473e-04 1.288275588870e-03 0.0 
1.288275588870e-03 7.349524717668e-03 0.0 
0.0 0.0 0.0 
-1.395814679101e-03 7.625716315907e-04 0.0 
7.625716315907e-04 4.677939793869e-03 0.0 
0.0 0.0 0.0 
-1.253141220355e-03 3.579082961708e-04 0.0 
3.579082961708e-04 4.932522403581e-03 0.0 
0.0 0.0 0.0 
-1.139491208628e-03 1.896165329656e-04 0.0 
1.896165329656e-04 5.027700219902e-03 0.0 
0.0 0.0 0.0 
-8.450254543392e-04 4.545560947783e-05 0.0 
4.545560947783e-05 6.413760428260e-03 0.0 
0.0 0.0 0.0 
-2.215544897839e-04 -7.899916923394e-04 0.0 
-7.899916923394e-04 5.466008881374e-03 0.0 
0.0 0.0 0.0 
-1.543208135721e-03 7.177894032498e-04 0.0 
7.177894032498e-04 -3.865441527082e-03 0.0 
0.0 0.0 0.0 
1.733263797855e-03 -1.235857873282e-04 0.0 
-1.235857873282e-04 -4.677901564673e-04 0.0 
0.0 0.0 0.0 
-1.068590306337e-03 -1.762141388253e-04 0.0 
-1.762141388253e-04 5.305655905196e-03 0.0 
0.0 0.0 0.0 
-1.056206365393e-03 7.876252943262e-05 0.0 
7.876252943262e-05 5.004474619918e-03 0.0 
0.0 0.0 0.0 
7.584851369331e-05 -8.599453455317e-05 0.0 
-8.599453455317e-05 1.274682405731e-03 0.0 
0.0 0.0 0.0 
-1.973307798117e-04 1.853892891650e-03 0.0 
1.853892891650e-03 6.540447047518e-03 0.0 
0.0 0.0 0.0 
2.992566010360e-04 1.638298314690e-03 0.0 
1.638298314690e-03 3.809124194034e-03 0.0 
0.0 0.0 0.0 
9.774484184381e-05 2.143353788042e-03 0.0 
2.143353788042e-03 4.804307010964e-03 0.0 
0.0 0.0 0.0 
4.813109949670e-04 7.199672387219e-04 0.0 
7.199672387219e-04 3.146609331386e-03 0.0 
0.0 0.0 0.0 
3.582455663876e-04 -3.650371739199e-04 0.0 
-3.650371739199e-04 3.340573102836e-03 0.0 
0.0 0.0 0.0 
-1.018698766459e-03 -1.566107936349e-03 0.0 
-1.566107936349e-03 3.409941659747e-04 0.0 
0.0 0.0 0.0 
-1.337850872637e-03 5.280638337248e-04 0.0 
5.280638337248e-04 4.828634615293e-03 0.0 
0.0 0.0 0.0 
7.097417917484e-05 -1.064578548612e-03 0.0 
-1.064578548612e-03 4.302023201684e-03 0.0 
0.0 0.0 0.0 
-6.270552653901e-04 6.482301279608e-05 0.0 
6.482301279608e-05 7.071416066485e-03 0.0 
0.0 0.0 0.0 
4.464510804829e-04 -2.413407701973e-04 0.0 
-2.413407701973e-04 8.066601345345e-05 0.0 
0.0 0.0 0.0 
-1.857741796154e-03 -2.433215863704e-04 0.0 
-2.433215863704e-04 3.556701368798e-03 0.0 
0.0 0.0 0.0 
-1.570254456498e-04 3.630834027630e-04 0.0 
3.630834027630e-04 7.882336921371e-03 0.0 
0.0 0.0 0.0 
-5.124765933678e-04 1.806766399376e-03 0.0 
1.806766399376e-03 1.269899289279e-03 0.0 
0.0 0.0 0.0 
-4.158329313692e-04 2.045817225432e-03 0.0 
2.045817225432e-03 5.538638642353e-04 0.0 
0.0 0.0 0.0 
-9.645783159893e-04 1.442404268648e-03 0.0 
1.442404268648e-03 2.354859050402e-03 0.0 
0.0 0.0 0.0 
-1.323693353582e-03 1.140321337698e-03 0.0 
1.140321337698e-03 3.606202018071e-03 0.0 
0.0 0.0 0.0 
-1.086722592719e-03 2.656342411345e-03 0.0 
2.656342411345e-03 -6.605495140186e-04 0.0 
0.0 0.0 0.0 
-9.771783390419e-04 3.265781156009e-05 0.0 
3.265781156009e-05 5.715459112605e-03 0.0 
0.0 0.0 0.0 
-2.380059049533e-04 -4.774884853352e-04 0.0 
-4.774884853352e-04 5.763278527167e-03 0.0 
0.0 0.0 0.0 
1.973722231818e-03 -4.337033122300e-05 0.0 
-4.337033122300e-05 -5.951845869018e-04 0.0 
0.0 0.0 0.0 
-3.091027273878e-04 9.291259771627e-05 0.0 
9.291259771627e-05 7.666514315055e-03 0.0 
0.0 0.0 0.0 
-1.422312866939e-03 1.014117443725e-03 0.0 
1.014117443725e-03 4.469581411505e-03 0.0 
0.0 0.0 0.0 
-1.361047158458e-03 1.188454403914e-03 0.0 
1.188454403914e-03 4.471161939200e-03 0.0 
0.0 0.0 0.0 
-1.338472994915e-03 1.099324850317e-03 0.0 
1.099324850317e-03 4.759266057042e-03 0.0 
0.0 0.0 0.0 
-1.255194706748e-03 1.305210273056e-03 0.0 
1.305210273056e-03 4.718934579958e-03 0.0 
0.0 0.0 0.0 
-1.213248432249e-03 1.213867138899e-03 0.0 
1.213867138899e-03 5.014571629791e-03 0.0 
0.0 0.0 0.0 
-1.120409229399e-03 1.383007334574e-03 0.0 
1.383007334574e-03 4.960252570604e-03 0.0 
0.0 0.0 0.0 
-1.146859898339e-03 1.486349319125e-03 0.0 
1.486349319125e-03 4.644537354593e-03 0.0 
0.0 0.0 0.0 
-1.002652379260e-03 1.544969468888e-03 0.0 
1.544969468888e-03 4.879150825634e-03 0.0 
0.0 0.0 0.0 
-1.007338647512e-03 1.659174298249e-03 0.0 
1.659174298249e-03 4.531892285102e-03 0.0 
0.0 0.0 0.0 
-1.087558347886e-03 1.298661135555e-03 0.0 
1.298661135555e-03 5.268094962129e-03 0.0 
0.0 0.0 0.0 
-8.602986745938e-04 1.694304054379e-03 0.0 
1.694304054379e-03 4.767386299427e-03 0.0 
0.0 0.0 0.0 
-8.401195582098e-04 1.814386858560e-03 0.0 
1.814386858560e-03 4.385975446960e-03 0.0 
0.0 0.0 0.0 
-6.965991516471e-04 1.826905245324e-03 0.0 
1.826905245324e-03 4.626805820022e-03 0.0 
0.0 0.0 0.0 
-6.499067586001e-04 1.947290689907e-03 0.0 
1.947290689907e-03 4.211957685578e-03 0.0 
0.0 0.0 0.0 
-7.854700179226e-04 1.942427675095e-03 0.0 
1.942427675095e-03 3.977173278765e-03 0.0 
0.0 0.0 0.0 
-5.717020110298e-04 2.081321803166e-03 0.0 
2.081321803166e-03 3.767805807779e-03 0.0 
0.0 0.0 0.0 
-6.919317821578e-04 2.053138782305e-03 0.0 
2.053138782305e-03 3.536100941090e-03 0.0 
0.0 0.0 0.0 
-4.510465857749e-04 2.199594342662e-03 0.0 
2.199594342662e-03 3.289034798500e-03 0.0 
0.0 0.0 0.0 
-3.387095324864e-04 2.181322347664e-03 0.0 
2.181322347664e-03 3.538089127083e-03 0.0 
0.0 0.0 0.0 
-1.869670305500e-04 2.302243932973e-03 0.0 
2.302243932973e-03 3.018652742648e-03 0.0 
0.0 0.0 0.0 
-2.880739822134e-04 2.296777719914e-03 0.0 
2.296777719914e-03 2.777750339368e-03 0.0 
0.0 0.0 0.0 
2.624169975818e-06 2.399742430520e-03 0.0 
2.399742430520e-03 2.466673108217e-03 0.0 
0.0 0.0 0.0 
-9.535476905470e-05 2.388706107954e-03 0.0 
2.388706107954e-03 2.243078163879e-03 0.0 
0.0 0.0 0.0 
2.253299348092e-04 2.477028443810e-03 0.0 
2.477028443810e-03 1.890861346155e-03 0.0 
0.0 0.0 0.0 
1.323077560978e-04 2.469573416080e-03 0.0 
2.469573416080e-03 1.687451764228e-03 0.0 
0.0 0.0 0.0 
4.835346272693e-04 2.532798867735e-03 0.0 
2.532798867735e-03 1.296387254907e-03 0.0 
0.0 0.0 0.0 
5.583639388918e-04 2.507507677277e-03 0.0 
2.507507677277e-03 1.534261687486e-03 0.0 
0.0 0.0 0.0 
8.447583164427e-04 2.533806102078e-03 0.0 
2.533806102078e-03 9.054221273234e-04 0.0 
0.0 0.0 0.0 
7.775148987789e-04 2.559720062301e-03 0.0 
2.559720062301e-03 6.989042962866e-04 0.0 
0.0 0.0 0.0 
1.161342001257e-03 2.514120851716e-03 0.0 
2.514120851716e-03 2.837712714253e-04 0.0 
0.0 0.0 0.0 
1.090529368675e-03 2.546442975804e-03 0.0 
2.546442975804e-03 1.222235989096e-04 0.0 
0.0 0.0 0.0 
1.511883322576e-03 2.452997249282e-03 0.0 
2.452997249282e-03 -3.171448999387e-04 0.0 
0.0 0.0 0.0 
1.532960224636e-03 2.402374725082e-03 0.0 
2.402374725082e-03 -9.710123107422e-05 0.0 
0.0 0.0 0.0 
1.937136718271e-03 2.310679891680e-03 0.0 
2.310679891680e-03 -7.388869575559e-04 0.0 
0.0 0.0 0.0 
1.951606211823e-03 2.411154581382e-03 0.0 
2.411154581382e-03 -9.547534489766e-04 0.0 
0.0 0.0 0.0 
2.436435002608e-03 2.225784272448e-03 0.0 
2.225784272448e-03 -1.436927177316e-03 0.0 
0.0 0.0 0.0 
2.451916925674e-03 2.373955760621e-03 0.0 
2.373955760621e-03 -1.614197209866e-03 0.0 
0.0 0.0 0.0 
2.942899573193e-03 2.076743766208e-03 0.0 
2.076743766208e-03 -2.077076688715e-03 0.0 
0.0 0.0 0.0 
2.944886309241e-03 2.224570801297e-03 0.0 
2.224570801297e-03 -2.170904231882e-03 0.0 
0.0 0.0 0.0 
3.396373636528e-03 1.808401189045e-03 0.0 
1.808401189045e-03 -2.577695527862e-03 0.0 
0.0 0.0 0.0 
3.319902236751e-03 1.671472585992e-03 0.0 
1.671472585992e-03 -2.432392182079e-03 0.0 
0.0 0.0 0.0 
3.694381463891e-03 1.303773908414e-03 0.0 
1.303773908414e-03 -2.857759738694e-03 0.0 
0.0 0.0 0.0 
3.749074993192e-03 1.437972851884e-03 0.0 
1.437972851884e-03 -2.989385771659e-03 0.0 
0.0 0.0 0.0 
3.943298135074e-03 8.420358388467e-04 0.0 
8.420358388467e-04 -3.157373228356e-03 0.0 
0.0 0.0 0.0 
3.820077888436e-03 7.572042619331e-04 0.0 
7.572042619331e-04 -2.985452314720e-03 0.0 
0.0 0.0 0.0 
3.946285680806e-03 2.438464271919e-04 0.0 
2.438464271919e-04 -3.164020800901e-03 0.0 
0.0 0.0 0.0 
3.768749088097e-03 2.058725129011e-04 0.0 
2.058725129011e-04 -2.938296038457e-03 0.0 
0.0 0.0 0.0 
3.760873115478e-03 -3.229611793187e-04 0.0 
-3.229611793187e-04 -3.008796821692e-03 0.0 
0.0 0.0 0.0 
3.907687031366e-03 -3.297840107037e-04 0.0 
-3.297840107037e-04 -3.217713983784e-03 0.0 
0.0 0.0 0.0 
3.586769518153e-03 -8.735855149076e-04 0.0 
-8.735855149076e-04 -2.926683113174e-03 0.0 
0.0 0.0 0.0 
3.383605895809e-03 -8.094008336910e-04 0.0 
-8.094008336910e-04 -2.623278578269e-03 0.0 
0.0 0.0 0.0 
3.092591981095e-03 -1.296844948874e-03 0.0 
-1.296844948874e-03 -2.427312410890e-03 0.0 
0.0 0.0 0.0 
3.268596254384e-03 -1.423306267972e-03 0.0 
-1.423306267972e-03 -2.715433534174e-03 0.0 
0.0 0.0 0.0 
2.682919496840e-03 -1.737212169514e-03 0.0 
-1.737212169514e-03 -2.094579601443e-03 0.0 
0.0 0.0 0.0 
2.497598457092e-03 -1.569466416585e-03 0.0 
-1.569466416585e-03 -1.752790073875e-03 0.0 
0.0 0.0 0.0 
2.088397426627e-03 -1.907378009030e-03 0.0 
-1.907378009030e-03 -1.394088409263e-03 0.0 
0.0 0.0 0.0 
2.201482582202e-03 -2.095693574510e-03 0.0 
-2.095693574510e-03 -1.669353212601e-03 0.0 
0.0 0.0 0.0 
1.664282340365e-03 -2.191703032870e-03 0.0 
-2.191703032870e-03 -9.840618825700e-04 0.0 
0.0 0.0 0.0 
1.634586662061e-03 -2.048751734489e-03 0.0 
-2.048751734489e-03 -8.121272015971e-04 0.0 
0.0 0.0 0.0 
1.241949381043e-03 -2.270525423752e-03 0.0 
-2.270525423752e-03 -4.246409595350e-04 0.0 
0.0 0.0 0.0 
1.238496888786e-03 -2.408902996523e-03 0.0 
-2.408902996523e-03 -5.485724821285e-04 0.0 
0.0 0.0 0.0 
8.304053790735e-04 -2.419000103319e-03 0.0 
-2.419000103319e-03 2.730448588691e-06 0.0 
0.0 0.0 0.0 
8.063538751181e-04 -2.283683575412e-03 0.0 
-2.283683575412e-03 1.739389803860e-04 0.0 
0.0 0.0 0.0 
4.087940594822e-04 -2.360107303333e-03 0.0 
-2.360107303333e-03 5.872022552852e-04 0.0 
0.0 0.0 0.0 
3.755405530292e-04 -2.231489797650e-03 0.0 
-2.231489797650e-03 8.132194035344e-04 0.0 
0.0 0.0 0.0 
4.127690843989e-04 -2.477561616497e-03 0.0 
-2.477561616497e-03 4.484878698353e-04 0.0 
0.0 0.0 0.0 
1.933021482198e-05 -2.358515976973e-03 0.0 
-2.358515976973e-03 1.004150142708e-03 0.0 
0.0 0.0 0.0 
1.329135410016e-05 -2.437778771523e-03 0.0 
-2.437778771523e-03 8.872161749525e-04 0.0 
0.0 0.0 0.0 
-3.458154592449e-04 -2.273705194563e-03 0.0 
-2.273705194563e-03 1.403391487167e-03 0.0 
0.0 0.0 0.0 
1.886493256278e-03 2.241200538581e-03 0.0 
2.241200538581e-03 -4.318778987074e-04 0.0 
0.0 0.0 0.0 
-3.454376329169e-04 -2.298697831961e-03 0.0 
-2.298697831961e-03 1.288060868641e-03 0.0 
0.0 0.0 0.0 
-1.986379266096e-05 -2.456946070253e-03 0.0 
-2.456946070253e-03 8.147836296556e-04 0.0 
0.0 0.0 0.0 
-6.621707573353e-04 -2.109902987760e-03 0.0 
-2.109902987760e-03 1.755999097534e-03 0.0 
0.0 0.0 0.0 
-6.782776554162e-04 -2.077309462742e-03 0.0 
-2.077309462742e-03 1.913205218809e-03 0.0 
0.0 0.0 0.0 
-6.356273636026e-04 -2.077536099453e-03 0.0 
-2.077536099453e-03 1.620998866574e-03 0.0 
0.0 0.0 0.0 
-9.107663908503e-04 -1.882253545062e-03 0.0 
-1.882253545062e-03 2.040543929690e-03 0.0 
0.0 0.0 0.0 
-8.397986178369e-04 -1.798992678451e-03 0.0 
-1.798992678451e-03 1.870932076725e-03 0.0 
0.0 0.0 0.0 
2.381729973242e-03 2.514946582535e-03 0.0 
2.514946582535e-03 -1.663280313187e-03 0.0 
0.0 0.0 0.0 
-9.262339238664e-05 2.235093726593e-03 0.0 
2.235093726593e-03 3.297802375010e-03 0.0 
0.0 0.0 0.0 
-1.079396404411e-03 -1.607059945067e-03 0.0 
-1.607059945067e-03 2.244148194751e-03 0.0 
0.0 0.0 0.0 
-9.468108263930e-04 -1.482955313606e-03 0.0 
-1.482955313606e-03 2.022396766280e-03 0.0 
0.0 0.0 0.0 
-7.442143299463e-04 -1.647830119521e-03 0.0 
-1.647830119521e-03 1.697067434483e-03 0.0 
0.0 0.0 0.0 
-7.676546304403e-04 -1.294069899516e-03 0.0 
-1.294069899516e-03 1.772174057185e-03 0.0 
0.0 0.0 0.0 
-1.172804757560e-03 1.143658132261e-03 0.0 
1.143658132261e-03 5.294019138996e-03 0.0 
0.0 0.0 0.0 
-1.040013607990e-03 1.227503520621e-03 0.0 
1.227503520621e-03 5.564496821841e-03 0.0 
0.0 0.0 0.0 
-1.116892424363e-03 1.071530003393e-03 0.0 
1.071530003393e-03 5.567107290215e-03 0.0 
0.0 0.0 0.0 
-9.851777467081e-04 1.165401340017e-03 0.0 
1.165401340017e-03 5.852513581198e-03 0.0 
0.0 0.0 0.0 
-1.054837268878e-03 1.017009580263e-03 0.0 
1.017009580263e-03 5.841895754304e-03 0.0 
0.0 0.0 0.0 
-9.474355389916e-04 -1.155340293982e-03 0.0 
-1.155340293982e-03 2.067253594549e-03 0.0 
0.0 0.0 0.0 
-7.168335497658e-04 1.729740384515e-03 0.0 
1.729740384515e-03 5.018537325257e-03 0.0 
0.0 0.0 0.0 
-9.002458877098e-04 1.311583297504e-03 0.0 
1.311583297504e-03 5.836790475609e-03 0.0 
0.0 0.0 0.0 
-3.936417244672e-04 2.250526685068e-03 0.0 
2.250526685068e-03 2.576100967597e-03 0.0 
0.0 0.0 0.0 
6.838267992560e-04 2.569558771903e-03 0.0 
2.569558771903e-03 5.754113171005e-04 0.0 
0.0 0.0 0.0 
3.605806195295e-03 6.849710219546e-04 0.0 
6.849710219546e-04 -2.694034864438e-03 0.0 
0.0 0.0 0.0 
-1.166897691427e-03 -1.666695166664e-03 0.0 
-1.666695166664e-03 2.447399631569e-03 0.0 
0.0 0.0 0.0 
-1.304152466361e-03 -1.402571651161e-03 0.0 
-1.402571651161e-03 2.606050531403e-03 0.0 
0.0 0.0 0.0 
-1.390706297431e-03 -1.436809277369e-03 0.0 
-1.436809277369e-03 2.829677234718e-03 0.0 
0.0 0.0 0.0 
7.529566295865e-04 -2.148514380879e-03 0.0 
-2.148514380879e-03 4.452830828471e-04 0.0 
0.0 0.0 0.0 
3.444456517091e-04 -2.088730625172e-03 0.0 
-2.088730625172e-03 1.119297353000e-03 0.0 
0.0 0.0 0.0 
7.056477422789e-04 -1.994016362140e-03 0.0 
-1.994016362140e-03 8.072025802294e-04 0.0 
0.0 0.0 0.0 
3.353578851741e-04 -1.910236495155e-03 0.0 
-1.910236495155e-03 1.487516729318e-03 0.0 
0.0 0.0 0.0 
6.724331115333e-04 -1.785492838852e-03 0.0 
-1.785492838852e-03 1.243492209854e-03 0.0 
0.0 0.0 0.0 
3.314137305559e-04 -1.688816195789e-03 0.0 
-1.688816195789e-03 1.907292994047e-03 0.0 
0.0 0.0 0.0 
1.240149222242e-05 -1.775332654032e-03 0.0 
-1.775332654032e-03 2.128905918909e-03 0.0 
0.0 0.0 0.0 
3.124300744178e-05 -1.562405601529e-03 0.0 
-1.562405601529e-03 2.526236430617e-03 0.0 
0.0 0.0 0.0 
-2.641376771853e-04 -1.610118047170e-03 0.0 
-1.610118047170e-03 2.721102460292e-03 0.0 
0.0 0.0 0.0 
6.224142155800e-04 -1.538552653598e-03 0.0 
-1.538552653598e-03 1.734216261665e-03 0.0 
0.0 0.0 0.0 
9.760612124276e-04 -1.584973975578e-03 0.0 
-1.584973975578e-03 1.066364498466e-03 0.0 
0.0 0.0 0.0 
-2.220452230656e-04 -1.417864650439e-03 0.0 
-1.417864650439e-03 3.094329222112e-03 0.0 
0.0 0.0 0.0 
-4.940196772155e-04 -1.428416557502e-03 0.0 
-1.428416557502e-03 3.260354944999e-03 0.0 
0.0 0.0 0.0 
-4.265262560124e-04 -1.262569032081e-03 0.0 
-1.262569032081e-03 3.609833082189e-03 0.0 
0.0 0.0 0.0 
-6.813943451115e-04 -1.240437935127e-03 0.0 
-1.240437935127e-03 3.746128113867e-03 0.0 
0.0 0.0 0.0 
-7.760014329707e-04 -1.391977169184e-03 0.0 
-1.391977169184e-03 3.437709630218e-03 0.0 
0.0 0.0 0.0 
-9.387093428328e-04 -1.177930518559e-03 0.0 
-1.177930518559e-03 3.883664400107e-03 0.0 
0.0 0.0 0.0 
-1.041966160509e-03 -1.314911409233e-03 0.0 
-1.314911409233e-03 3.605568507073e-03 0.0 
0.0 0.0 0.0 
3.478689294691e-03 1.733516643988e-04 0.0 
1.733516643988e-04 -2.531953129067e-03 0.0 
0.0 0.0 0.0 
3.251185236762e-03 6.434548695070e-04 0.0 
6.434548695070e-04 -2.125224023056e-03 0.0 
0.0 0.0 0.0 
3.043278602512e-03 1.737726437679e-04 0.0 
1.737726437679e-04 -1.782992502568e-03 0.0 
0.0 0.0 0.0 
2.790828221672e-03 5.974862287611e-04 0.0 
5.974862287611e-04 -1.235554879044e-03 0.0 
0.0 0.0 0.0 
2.580478540168e-03 2.068368199302e-04 0.0 
2.068368199302e-04 -8.722281850130e-04 0.0 
0.0 0.0 0.0 
2.356119645250e-03 5.591944347997e-04 0.0 
5.591944347997e-04 -3.773549621752e-04 0.0 
0.0 0.0 0.0 
2.183143588499e-03 2.439052677986e-04 0.0 
2.439052677986e-04 -6.980044970621e-05 0.0 
0.0 0.0 0.0 
2.336252784099e-03 -1.115620825673e-04 0.0 
-1.115620825673e-04 -4.705171118132e-04 0.0 
0.0 0.0 0.0 
-5.177923772283e-04 1.939674418178e-03 0.0 
1.939674418178e-03 4.462267255585e-03 0.0 
0.0 0.0 0.0 
3.993739642587e-03 9.528636584960e-04 0.0 
9.528636584960e-04 -3.352773065705e-03 0.0 
0.0 0.0 0.0 
3.714313858703e-03 1.581391217406e-03 0.0 
1.581391217406e-03 -3.116942494510e-03 0.0 
0.0 0.0 0.0 
3.953448558523e-03 1.061726418364e-03 0.0 
1.061726418364e-03 -3.517492254587e-03 0.0 
0.0 0.0 0.0 
3.597187199418e-03 1.738644687927e-03 0.0 
1.738644687927e-03 -3.194309077743e-03 0.0 
0.0 0.0 0.0 
3.815416658493e-03 1.216945039206e-03 0.0 
1.216945039206e-03 -3.637441502143e-03 0.0 
0.0 0.0 0.0 
3.386508418684e-03 1.961679195826e-03 0.0 
1.961679195826e-03 -3.229317394606e-03 0.0 
0.0 0.0 0.0 
3.589413833019e-03 1.412032113905e-03 0.0 
1.412032113905e-03 -3.771941826700e-03 0.0 
0.0 0.0 0.0 
3.861091078482e-03 5.160586355790e-04 0.0 
5.160586355790e-04 -3.986305854912e-03 0.0 
0.0 0.0 0.0 
3.584022754529e-03 6.281555514248e-04 0.0 
6.281555514248e-04 -4.213886437353e-03 0.0 
0.0 0.0 0.0 
3.706809238666e-03 -3.381172536884e-04 0.0 
-3.381172536884e-04 -4.158723103835e-03 0.0 
0.0 0.0 0.0 
3.344886541396e-03 -3.000558058975e-04 0.0 
-3.000558058975e-04 -4.405256158766e-03 0.0 
0.0 0.0 0.0 
3.404407724207e-03 -1.257610486440e-03 0.0 
-1.257610486440e-03 -4.080395064560e-03 0.0 
0.0 0.0 0.0 
8.901096231727e-04 2.471965454609e-03 0.0 
2.471965454609e-03 1.193182885057e-03 0.0 
0.0 0.0 0.0 
2.475078801980e-03 9.250465154393e-04 0.0 
9.250465154393e-04 -6.183211558082e-04 0.0 
0.0 0.0 0.0 
2.085770544309e-03 8.431188656820e-04 0.0 
8.431188656820e-04 1.639375868726e-04 0.0 
0.0 0.0 0.0 
2.144153164806e-03 1.167876059843e-03 0.0 
1.167876059843e-03 -4.846132760620e-06 0.0 
0.0 0.0 0.0 
-6.130595709346e-04 -1.416222769365e-03 0.0 
-1.416222769365e-03 1.500074483033e-03 0.0 
0.0 0.0 0.0 
-8.276800815118e-04 -1.052498897440e-03 0.0 
-1.052498897440e-03 4.178403612222e-03 0.0 
0.0 0.0 0.0 
8.624143687651e-04 -1.340092700958e-03 0.0 
-1.340092700958e-03 1.623545512980e-03 0.0 
0.0 0.0 0.0 
1.212969498475e-03 -1.325523646589e-03 0.0 
-1.325523646589e-03 9.736931057070e-04 0.0 
0.0 0.0 0.0 
1.966742220361e-03 -2.998915198779e-05 0.0 
-2.998915198779e-05 3.082261920918e-04 0.0 
0.0 0.0 0.0 
-6.759723860951e-04 -9.467428253232e-04 0.0 
-9.467428253232e-04 1.733085191371e-03 0.0 
0.0 0.0 0.0 
3.075187966020e-03 2.200900763258e-03 0.0 
2.200900763258e-03 -3.237081026361e-03 0.0 
0.0 0.0 0.0 
2.747861842246e-03 2.535956543968e-03 0.0 
2.535956543968e-03 -2.597789599775e-03 0.0 
0.0 0.0 0.0 
-9.190884169989e-04 1.110041839082e-03 0.0 
1.110041839082e-03 6.126771755413e-03 0.0 
0.0 0.0 0.0 
-9.839112016029e-04 9.688195974656e-04 0.0 
9.688195974656e-04 6.102275788676e-03 0.0 
0.0 0.0 0.0 
1.036708199399e-03 -1.111527141029e-03 0.0 
-1.111527141029e-03 1.586245722475e-03 0.0 
0.0 0.0 0.0 
-8.341573159860e-04 -8.340892130255e-04 0.0 
-8.340892130255e-04 2.007767196449e-03 0.0 
0.0 0.0 0.0 
3.434577513832e-05 -1.361465098549e-03 0.0 
-1.361465098549e-03 2.950619000262e-03 0.0 
0.0 0.0 0.0 
3.137509983681e-03 7.810160643496e-04 0.0 
7.810160643496e-04 -4.402249185135e-03 0.0 
0.0 0.0 0.0 
-1.057533040047e-03 -9.670355969617e-04 0.0 
-9.670355969617e-04 4.274600215868e-03 0.0 
0.0 0.0 0.0 
-9.226094816137e-04 -8.649987701099e-04 0.0 
-8.649987701099e-04 4.552723199754e-03 0.0 
0.0 0.0 0.0 
-3.137380347046e-04 -1.798268328027e-03 0.0 
-1.798268328027e-03 2.378199876969e-03 0.0 
0.0 0.0 0.0 
1.798723677652e-03 1.068123499343e-03 0.0 
1.068123499343e-03 7.259227026336e-04 0.0 
0.0 0.0 0.0 
1.822466630898e-03 1.350201825981e-03 0.0 
1.350201825981e-03 6.000507811574e-04 0.0 
0.0 0.0 0.0 
3.597336687464e-03 -1.185556641188e-03 0.0 
-1.185556641188e-03 -3.808671076371e-03 0.0 
0.0 0.0 0.0 
3.170657992952e-03 -2.025812131916e-03 0.0 
-2.025812131916e-03 -3.463424446781e-03 0.0 
0.0 0.0 0.0 
2.998001929548e-03 -2.203862662745e-03 0.0 
-2.203862662745e-03 -3.652229550155e-03 0.0 
0.0 0.0 0.0 
2.526823162165e-03 -2.724666070382e-03 0.0 
-2.724666070382e-03 -2.808991712632e-03 0.0 
0.0 0.0 0.0 
2.725855795746e-03 -2.474050752509e-03 0.0 
-2.474050752509e-03 -2.758541959552e-03 0.0 
0.0 0.0 0.0 
2.028230293030e-03 -2.922650379650e-03 0.0 
-2.922650379650e-03 -2.070062746478e-03 0.0 
0.0 0.0 0.0 
1.717011211846e-03 -3.171813223824e-03 0.0 
-3.171813223824e-03 -1.951438630808e-03 0.0 
0.0 0.0 0.0 
1.261031871712e-03 -3.151746489003e-03 0.0 
-3.151746489003e-03 -1.200338036600e-03 0.0 
0.0 0.0 0.0 
1.536371899359e-03 -2.963995663953e-03 0.0 
-2.963995663953e-03 -1.372400163190e-03 0.0 
0.0 0.0 0.0 
8.096414268838e-04 -2.957022754535e-03 0.0 
-2.957022754535e-03 -5.824071008346e-04 0.0 
0.0 0.0 0.0 
3.947246792182e-04 -2.932982504632e-03 0.0 
-2.932982504632e-03 -2.924162176711e-04 0.0 
0.0 0.0 0.0 
1.397847396749e-04 -2.661233253006e-03 0.0 
-2.661233253006e-03 1.511399476483e-04 0.0 
0.0 0.0 0.0 
-7.055178765754e-04 -9.416649697097e-04 0.0 
-9.416649697097e-04 4.483864899742e-03 0.0 
0.0 0.0 0.0 
2.874771972528e-03 -2.409209063742e-04 0.0 
-2.409209063742e-04 -4.659519115097e-03 0.0 
0.0 0.0 0.0 
-9.028377610023e-04 1.875203920076e-03 0.0 
1.875203920076e-03 3.752305893532e-03 0.0 
0.0 0.0 0.0 
7.261643982504e-04 -1.147283800938e-03 0.0 
-1.147283800938e-03 2.186610723822e-03 0.0 
0.0 0.0 0.0 
1.804626278204e-03 2.738401387984e-04 0.0 
2.738401387984e-04 6.891890106392e-04 0.0 
0.0 0.0 0.0 
-8.419926172540e-04 1.060742459861e-03 0.0 
1.060742459861e-03 6.389913743631e-03 0.0 
0.0 0.0 0.0 
-9.046238125984e-04 9.243759075423e-04 0.0 
9.243759075423e-04 6.351804609138e-03 0.0 
0.0 0.0 0.0 
-1.033639629950e-03 8.315646262361e-04 0.0 
8.315646262361e-04 6.052393237303e-03 0.0 
0.0 0.0 0.0 
-9.548612538667e-04 7.922459920847e-04 0.0 
7.922459920847e-04 6.292570845424e-03 0.0 
0.0 0.0 0.0 
-8.162839335208e-04 8.809714157250e-04 0.0 
8.809714157250e-04 6.590381812407e-03 0.0 
0.0 0.0 0.0 
-8.692353837494e-04 7.529939256995e-04 0.0 
7.529939256995e-04 6.523127506908e-03 0.0 
0.0 0.0 0.0 
-9.935281499034e-04 6.668333323557e-04 0.0 
6.668333323557e-04 6.213370823304e-03 0.0 
0.0 0.0 0.0 
-9.117177052277e-04 6.324282325397e-04 0.0 
6.324282325397e-04 6.437685319113e-03 0.0 
0.0 0.0 0.0 
-1.021104954671e-03 5.501471436806e-04 0.0 
5.501471436806e-04 6.115667914227e-03 0.0 
0.0 0.0 0.0 
-9.447182372972e-04 5.210084747550e-04 0.0 
5.210084747550e-04 6.335399076060e-03 0.0 
0.0 0.0 0.0 
-8.247878404132e-04 5.961056799955e-04 0.0 
5.961056799955e-04 6.654782016019e-03 0.0 
0.0 0.0 0.0 
-8.637831644283e-04 4.884383371133e-04 0.0 
4.884383371133e-04 6.548381348385e-03 0.0 
0.0 0.0 0.0 
-9.697326651160e-04 4.196066207331e-04 0.0 
4.196066207331e-04 6.217575820297e-03 0.0 
0.0 0.0 0.0 
-8.957966014818e-04 3.902602024034e-04 0.0 
3.902602024034e-04 6.428304626612e-03 0.0 
0.0 0.0 0.0 
-9.880120036448e-04 3.286665604140e-04 0.0 
3.286665604140e-04 6.085525731782e-03 0.0 
0.0 0.0 0.0 
-9.215301388217e-04 3.023597527837e-04 0.0 
3.023597527837e-04 6.293814075729e-03 0.0 
0.0 0.0 0.0 
-8.176480514975e-04 3.564042864103e-04 0.0 
3.564042864103e-04 6.632633784385e-03 0.0 
0.0 0.0 0.0 
-4.402691417120e-04 -6.523849934349e-04 0.0 
-6.523849934349e-04 1.581981395816e-03 0.0 
0.0 0.0 0.0 
2.059761314605e-03 -3.746517767532e-04 0.0 
-3.746517767532e-04 -1.099147307658e-05 0.0 
0.0 0.0 0.0 
1.710567007035e-03 -2.620601181715e-04 0.0 
-2.620601181715e-04 7.455012472928e-04 0.0 
0.0 0.0 0.0 
-1.499742791133e-03 -1.188973691600e-03 0.0 
-1.188973691600e-03 2.938443613319e-03 0.0 
0.0 0.0 0.0 
-1.575122230178e-03 -1.195748225197e-03 0.0 
-1.195748225197e-03 3.180143643021e-03 0.0 
0.0 0.0 0.0 
-1.426541506614e-03 -1.424002791925e-03 0.0 
-1.424002791925e-03 3.056892129681e-03 0.0 
0.0 0.0 0.0 
-1.599083237409e-03 -1.171760557176e-03 0.0 
-1.171760557176e-03 3.419949178312e-03 0.0 
0.0 0.0 0.0 
-8.529633579433e-04 2.701465752351e-04 0.0 
2.701465752351e-04 6.495533509953e-03 0.0 
0.0 0.0 0.0 
-7.364455542656e-04 3.167638874923e-04 0.0 
3.167638874923e-04 6.830746506871e-03 0.0 
0.0 0.0 0.0 
2.341001123483e-03 2.769787657145e-03 0.0 
2.769787657145e-03 -2.461628497686e-03 0.0 
0.0 0.0 0.0 
1.961479517856e-03 2.856139060644e-03 0.0 
2.856139060644e-03 -1.819109972846e-03 0.0 
0.0 0.0 0.0 
-7.664537950972e-04 1.200259655883e-03 0.0 
1.200259655883e-03 6.405753346587e-03 0.0 
0.0 0.0 0.0 
-1.131786778880e-03 -7.593916432200e-04 0.0 
-7.593916432200e-04 4.607121596739e-03 0.0 
0.0 0.0 0.0 
-1.275863628698e-03 -8.487438502031e-04 0.0 
-8.487438502031e-04 4.356324440389e-03 0.0 
0.0 0.0 0.0 
9.797103513925e-04 2.573513115207e-03 0.0 
2.573513115207e-03 4.860360960126e-05 0.0 
0.0 0.0 0.0 
5.545427479608e-04 2.563660342566e-03 0.0 
2.563660342566e-03 5.312602336838e-04 0.0 
0.0 0.0 0.0 
8.280720261089e-04 2.590020783535e-03 0.0 
2.590020783535e-03 4.673966384912e-05 0.0 
0.0 0.0 0.0 
3.898958741771e-04 2.524633637098e-03 0.0 
2.524633637098e-03 5.475258105898e-04 0.0 
0.0 0.0 0.0 
1.548354480549e-04 2.465463959825e-03 0.0 
2.465463959825e-03 9.926709401852e-04 0.0 
0.0 0.0 0.0 
6.340114128239e-04 2.567456321139e-03 0.0 
2.567456321139e-03 8.944814365824e-05 0.0 
0.0 0.0 0.0 
1.363084979325e-03 -1.584298048363e-03 0.0 
-1.584298048363e-03 3.668429151777e-04 0.0 
0.0 0.0 0.0 
-7.326928458736e-04 5.558374859475e-04 0.0 
5.558374859475e-04 6.863458650736e-03 0.0 
0.0 0.0 0.0 
-5.703926382434e-04 -1.795447723885e-03 0.0 
-1.795447723885e-03 1.399429800939e-03 0.0 
0.0 0.0 0.0 
-5.124310175841e-04 -1.521496354187e-03 0.0 
-1.521496354187e-03 1.275073152586e-03 0.0 
0.0 0.0 0.0 
-9.696097079981e-04 -6.814831702900e-04 0.0 
-6.814831702900e-04 4.867730920529e-03 0.0 
0.0 0.0 0.0 
2.402432556702e-03 -5.225457431384e-04 0.0 
-5.225457431384e-04 -7.900401372364e-04 0.0 
0.0 0.0 0.0 
6.104157944457e-04 2.424932526895e-03 0.0 
2.424932526895e-03 1.844244323484e-03 0.0 
0.0 0.0 0.0 
8.979257674711e-04 2.331446186886e-03 0.0 
2.331446186886e-03 1.571325962355e-03 0.0 
0.0 0.0 0.0 
6.233547800890e-04 2.274934987451e-03 0.0 
2.274934987451e-03 2.224685507494e-03 0.0 
0.0 0.0 0.0 
8.576139598674e-04 2.157641300116e-03 0.0 
2.157641300116e-03 2.011396894599e-03 0.0 
0.0 0.0 0.0 
5.955606130235e-04 2.134941098021e-03 0.0 
2.134941098021e-03 2.646802667644e-03 0.0 
0.0 0.0 0.0 
7.719544322969e-04 2.022403230038e-03 0.0 
2.022403230038e-03 2.483435740991e-03 0.0 
0.0 0.0 0.0 
1.047558440588e-03 2.001064396684e-03 0.0 
2.001064396684e-03 1.854606299022e-03 0.0 
0.0 0.0 0.0 
1.513981830574e-03 1.253587420822e-03 0.0 
1.253587420822e-03 1.292783781016e-03 0.0 
0.0 0.0 0.0 
9.033570830141e-04 1.880434925145e-03 0.0 
1.880434925145e-03 2.381942681978e-03 0.0 
0.0 0.0 0.0 
-9.432845138197e-04 2.290078269135e-04 0.0 
2.290078269135e-04 6.141628606727e-03 0.0 
0.0 0.0 0.0 
2.507995285460e-03 1.328198812368e-03 0.0 
1.328198812368e-03 -7.873120942257e-04 0.0 
0.0 0.0 0.0 
1.043366925922e-03 -2.839374627381e-03 0.0 
-2.839374627381e-03 -7.330217712380e-04 0.0 
0.0 0.0 0.0 
-3.254303321509e-04 -7.043701089993e-04 0.0 
-7.043701089993e-04 1.344777712830e-03 0.0 
0.0 0.0 0.0 
-1.829598869561e-04 -2.417486215568e-03 0.0 
-2.417486215568e-03 4.300587860287e-04 0.0 
0.0 0.0 0.0 
-6.135524058595e-04 -5.513377615168e-04 0.0 
-5.513377615168e-04 1.833667313720e-03 0.0 
0.0 0.0 0.0 
-1.022419044202e-03 -7.103910109569e-04 0.0 
-7.103910109569e-04 2.287010569827e-03 0.0 
0.0 0.0 0.0 
8.405487010704e-04 -9.538770646559e-04 0.0 
-9.538770646559e-04 2.198261170496e-03 0.0 
0.0 0.0 0.0 
5.270968663586e-04 2.040349128788e-03 0.0 
2.040349128788e-03 3.101590698283e-03 0.0 
0.0 0.0 0.0 
3.695143077299e-04 2.112525436626e-03 0.0 
2.112525436626e-03 3.248873056104e-03 0.0 
0.0 0.0 0.0 
-5.001842961483e-07 2.377133759569e-03 0.0 
2.377133759569e-03 1.005334684631e-03 0.0 
0.0 0.0 0.0 
-2.063434326388e-04 2.287603030065e-03 0.0 
2.287603030065e-03 1.416536524779e-03 0.0 
0.0 0.0 0.0 
1.458091608019e-03 1.005941473164e-03 0.0 
1.005941473164e-03 1.434111909088e-03 0.0 
0.0 0.0 0.0 
-1.172880188604e-03 9.236097865052e-04 0.0 
9.236097865052e-04 5.549653571500e-03 0.0 
0.0 0.0 0.0 
-1.093869273753e-03 5.771844894430e-04 0.0 
5.771844894430e-04 5.890368205495e-03 0.0 
0.0 0.0 0.0 
-1.103609212708e-03 4.652026672302e-04 0.0 
4.652026672302e-04 5.777218713355e-03 0.0 
0.0 0.0 0.0 
-4.612870821030e-05 -3.943746995657e-04 0.0 
-3.943746995657e-04 1.242414253979e-03 0.0 
0.0 0.0 0.0 
-7.158907449197e-05 -2.760443316801e-03 0.0 
-2.760443316801e-03 1.226879703185e-04 0.0 
0.0 0.0 0.0 
-7.210676020937e-04 8.363999300338e-04 0.0 
8.363999300338e-04 6.819141867485e-03 0.0 
0.0 0.0 0.0 
2.359527240881e-03 2.688162031646e-03 0.0 
2.688162031646e-03 -2.021975489167e-03 0.0 
0.0 0.0 0.0 
1.604225262737e-03 2.833527229310e-03 0.0 
2.833527229310e-03 -1.303485252975e-03 0.0 
0.0 0.0 0.0 
2.496638212057e-03 9.904249746108e-04 0.0 
9.904249746108e-04 -4.553404813497e-03 0.0 
0.0 0.0 0.0 
2.256043790920e-03 -1.741560790879e-04 0.0 
-1.741560790879e-04 -4.842495009312e-03 0.0 
0.0 0.0 0.0 
-7.797011810918e-04 2.345220126112e-04 0.0 
2.345220126112e-04 6.689541868223e-03 0.0 
0.0 0.0 0.0 
-6.541725385971e-04 2.696644143635e-04 0.0 
2.696644143635e-04 7.016075450691e-03 0.0 
0.0 0.0 0.0 
-1.419632930443e-03 -1.376146808650e-03 0.0 
-1.376146808650e-03 3.285141698996e-03 0.0 
0.0 0.0 0.0 
-1.571112758405e-03 -1.116806268227e-03 0.0 
-1.116806268227e-03 3.650798327516e-03 0.0 
0.0 0.0 0.0 
1.135230010548e-03 -8.660348199632e-04 0.0 
-8.660348199632e-04 1.635071519240e-03 0.0 
0.0 0.0 0.0 
-2.711357928304e-04 -2.215964653197e-03 0.0 
-2.215964653197e-03 6.786215370955e-04 0.0 
0.0 0.0 0.0 
-5.966572153753e-04 3.608469499904e-04 0.0 
3.608469499904e-04 7.146503896167e-03 0.0 
0.0 0.0 0.0 
2.065529313855e-03 -7.557699039989e-04 0.0 
-7.557699039989e-04 -2.379514539184e-04 0.0 
0.0 0.0 0.0 
2.358698868782e-03 -9.638117060275e-04 0.0 
-9.638117060275e-04 -9.936109832539e-04 0.0 
0.0 0.0 0.0 
-1.736928042626e-03 -9.307428802751e-04 0.0 
-9.307428802751e-04 3.513296890781e-03 0.0 
0.0 0.0 0.0 
1.401793028910e-03 2.966395490232e-03 0.0 
2.966395490232e-03 -1.520595240952e-03 0.0 
0.0 0.0 0.0 
1.702415090363e-03 2.967188466161e-03 0.0 
2.967188466161e-03 -2.206132855493e-03 0.0 
0.0 0.0 0.0 
1.682106838293e-03 -2.748050597935e-03 0.0 
-2.748050597935e-03 -1.432674873378e-03 0.0 
0.0 0.0 0.0 
-5.512894691428e-05 -2.457154259147e-03 0.0 
-2.457154259147e-03 5.230611903117e-04 0.0 
0.0 0.0 0.0 
-8.029973396364e-04 -4.558145812906e-04 0.0 
-4.558145812906e-04 2.101910131483e-03 0.0 
0.0 0.0 0.0 
8.840894102412e-04 -7.446026052369e-04 0.0 
-7.446026052369e-04 2.279087231817e-03 0.0 
0.0 0.0 0.0 
-6.552447037069e-04 9.659318482842e-04 0.0 
9.659318482842e-04 6.874225691442e-03 0.0 
0.0 0.0 0.0 
1.177957914334e-03 1.812680924366e-03 0.0 
1.812680924366e-03 1.767371715456e-03 0.0 
0.0 0.0 0.0 
1.346726759726e-03 1.967948910580e-03 0.0 
1.967948910580e-03 1.204355470127e-03 0.0 
0.0 0.0 0.0 
9.755031572688e-04 1.711297079511e-03 0.0 
1.711297079511e-03 2.340104478435e-03 0.0 
0.0 0.0 0.0 
-4.627384473236e-04 -1.852745175801e-03 0.0 
-1.852745175801e-03 8.174266888756e-04 0.0 
0.0 0.0 0.0 
5.661230295751e-04 -1.016445822191e-03 0.0 
-1.016445822191e-03 2.765380922836e-03 0.0 
0.0 0.0 0.0 
-1.163638555406e-03 -5.582373360380e-04 0.0 
-5.582373360380e-04 4.884513496657e-03 0.0 
0.0 0.0 0.0 
3.146702969924e-04 2.064349242195e-03 0.0 
2.064349242195e-03 3.674342732895e-03 0.0 
0.0 0.0 0.0 
1.808355633825e-04 2.093279538678e-03 0.0 
2.093279538678e-03 3.815364284336e-03 0.0 
0.0 0.0 0.0 
1.971713773896e-03 2.730668011867e-03 0.0 
2.730668011867e-03 -1.513941386122e-03 0.0 
0.0 0.0 0.0 
1.253710870621e-03 2.755713856410e-03 0.0 
2.755713856410e-03 -8.507141551006e-04 0.0 
0.0 0.0 0.0 
8.612061239455e-04 2.756657318818e-03 0.0 
2.756657318818e-03 -5.981015405949e-04 0.0 
0.0 0.0 0.0 
6.198517569609e-04 2.626803947920e-03 0.0 
2.626803947920e-03 -2.081069423214e-04 0.0 
0.0 0.0 0.0 
-1.137277499077e-03 1.588805073639e-03 0.0 
1.588805073639e-03 4.304824246587e-03 0.0 
0.0 0.0 0.0 
1.553202085222e-03 2.708749093498e-03 0.0 
2.708749093498e-03 -1.017645692814e-03 0.0 
0.0 0.0 0.0 
-7.933074296159e-04 1.969506717625e-03 0.0 
1.969506717625e-03 3.323828630288e-03 0.0 
0.0 0.0 0.0 
-9.945300580801e-04 1.764755032573e-03 0.0 
1.764755032573e-03 3.537722263983e-03 0.0 
0.0 0.0 0.0 
-8.871385310367e-04 1.859955759015e-03 0.0 
1.859955759015e-03 3.130514560983e-03 0.0 
0.0 0.0 0.0 
-8.017828801769e-05 2.377936967879e-03 0.0 
2.377936967879e-03 1.452136983449e-03 0.0 
0.0 0.0 0.0 
-4.074925788538e-04 2.180130029237e-03 0.0 
2.180130029237e-03 1.837315991693e-03 0.0 
0.0 0.0 0.0 
3.250326173474e-03 2.117226173389e-03 0.0 
2.117226173389e-03 -2.699594793597e-03 0.0 
0.0 0.0 0.0 
3.284550952229e-03 1.116223988482e-03 0.0 
1.116223988482e-03 -2.226854913795e-03 0.0 
0.0 0.0 0.0 
-1.219198635638e-03 -1.624228259111e-03 0.0 
-1.624228259111e-03 2.868463012608e-03 0.0 
0.0 0.0 0.0 
-8.597695837406e-04 -1.546234086532e-03 0.0 
-1.546234086532e-03 3.147615500860e-03 0.0 
0.0 0.0 0.0 
1.122233895000e-03 -2.003937675078e-03 0.0 
-2.003937675078e-03 1.106951855372e-04 0.0 
0.0 0.0 0.0 
-6.799928911801e-04 6.692129829378e-04 0.0 
6.692129829378e-04 6.957538187120e-03 0.0 
0.0 0.0 0.0 
-5.774278208391e-04 6.212049863317e-04 0.0 
6.212049863317e-04 7.163447095875e-03 0.0 
0.0 0.0 0.0 
-1.050855426880e-03 3.496303912663e-04 0.0 
3.496303912663e-04 5.870227039839e-03 0.0 
0.0 0.0 0.0 
-1.054377014142e-03 2.639979891542e-04 0.0 
2.639979891542e-04 5.724180031633e-03 0.0 
0.0 0.0 0.0 
-4.509748899853e-04 -1.109824176319e-03 0.0 
-1.109824176319e-03 1.268395899693e-03 0.0 
0.0 0.0 0.0 
-4.223674666664e-04 -1.175220421316e-03 0.0 
-1.175220421316e-03 1.114532497585e-03 0.0 
0.0 0.0 0.0 
-1.461466661662e-05 -2.120705135418e-03 0.0 
-2.120705135418e-03 1.453974010994e-03 0.0 
0.0 0.0 0.0 
4.452350815859e-04 -1.153892849996e-03 0.0 
-1.153892849996e-03 2.763919384539e-03 0.0 
0.0 0.0 0.0 
-6.796739876941e-04 1.148961947932e-03 0.0 
1.148961947932e-03 6.666160339819e-03 0.0 
0.0 0.0 0.0 
-5.959606165903e-04 1.290742052867e-03 0.0 
1.290742052867e-03 6.675268805561e-03 0.0 
0.0 0.0 0.0 
-6.799878315083e-04 1.341343179619e-03 0.0 
1.341343179619e-03 6.400792553919e-03 0.0 
0.0 0.0 0.0 
1.159394654678e-03 -6.110301851755e-04 0.0 
-6.110301851755e-04 1.750109502728e-03 0.0 
0.0 0.0 0.0 
4.089980964696e-03 3.473265268476e-04 0.0 
3.473265268476e-04 -3.615494623611e-03 0.0 
0.0 0.0 0.0 
3.155755581651e-03 -2.979816353195e-04 0.0 
-2.979816353195e-04 -2.119559248893e-03 0.0 
0.0 0.0 0.0 
2.555251651986e-03 -1.434629164342e-03 0.0 
-1.434629164342e-03 -4.640620652227e-03 0.0 
0.0 0.0 0.0 
1.526503920048e-03 2.329967918909e-03 0.0 
2.329967918909e-03 2.235592213784e-04 0.0 
0.0 0.0 0.0 
-2.048393826793e-04 -8.091296503062e-04 0.0 
-8.091296503062e-04 9.643983412795e-04 0.0 
0.0 0.0 0.0 
-2.305885276074e-04 2.120942034602e-03 0.0 
2.120942034602e-03 3.814257106985e-03 0.0 
0.0 0.0 0.0 
-9.740269446333e-04 -5.023536105452e-04 0.0 
-5.023536105452e-04 5.132152466326e-03 0.0 
0.0 0.0 0.0 
-7.911035271786e-04 -6.256639069866e-04 0.0 
-6.256639069866e-04 5.129228300368e-03 0.0 
0.0 0.0 0.0 
1.193253110718e-03 1.192850235127e-03 0.0 
1.192850235127e-03 1.966933286842e-03 0.0 
0.0 0.0 0.0 
-1.338876804407e-03 1.254503974374e-03 0.0 
1.254503974374e-03 4.159994810633e-03 0.0 
0.0 0.0 0.0 
1.808428098652e-03 2.121417902979e-03 0.0 
2.121417902979e-03 -1.303265923310e-06 0.0 
0.0 0.0 0.0 
2.201082572109e-03 2.016192095825e-03 0.0 
2.016192095825e-03 -6.967597556175e-04 0.0 
0.0 0.0 0.0 
-1.070847363130e-03 1.631207223465e-03 0.0 
1.631207223465e-03 3.331100197664e-03 0.0 
0.0 0.0 0.0 
-9.647298888620e-04 1.724630314652e-03 0.0 
1.724630314652e-03 2.954226680486e-03 0.0 
0.0 0.0 0.0 
-7.548677783483e-04 1.960062340583e-03 0.0 
1.960062340583e-03 2.711377989937e-03 0.0 
0.0 0.0 0.0 
-8.350574309256e-04 1.828470050182e-03 0.0 
1.828470050182e-03 2.560190791602e-03 0.0 
0.0 0.0 0.0 
1.163909057294e-03 -2.669475773349e-03 0.0 
-2.669475773349e-03 -7.447330477737e-04 0.0 
0.0 0.0 0.0 
6.298306721630e-04 -2.682510833160e-03 0.0 
-2.682510833160e-03 -1.436435290337e-04 0.0 
0.0 0.0 0.0 
4.132362355140e-04 2.004494943478e-03 0.0 
2.004494943478e-03 3.625709945171e-03 0.0 
0.0 0.0 0.0 
7.273446071965e-04 1.827891991418e-03 0.0 
1.827891991418e-03 2.920534323387e-03 0.0 
0.0 0.0 0.0 
1.612600745584e-04 2.083888034424e-03 0.0 
2.083888034424e-03 4.219474979775e-03 0.0 
0.0 0.0 0.0 
4.399898209493e-05 2.083454244927e-03 0.0 
2.083454244927e-03 4.358974311150e-03 0.0 
0.0 0.0 0.0 
1.108265500914e-03 9.677950065197e-04 0.0 
9.677950065197e-04 2.127649271135e-03 0.0 
0.0 0.0 0.0 
1.362191298312e-03 7.615985995801e-04 0.0 
7.615985995801e-04 1.625864627155e-03 0.0 
0.0 0.0 0.0 
-1.201103578145e-03 -5.638843983167e-04 0.0 
-5.638843983167e-04 2.549388533880e-03 0.0 
0.0 0.0 0.0 
-5.130436596841e-04 2.046515475165e-03 0.0 
2.046515475165e-03 1.777394832834e-03 0.0 
0.0 0.0 0.0 
-5.494297999700e-04 9.166021899443e-04 0.0 
9.166021899443e-04 7.101429967369e-03 0.0 
0.0 0.0 0.0 
-1.157489350333e-03 1.544380182535e-03 0.0 
1.544380182535e-03 3.702433502606e-03 0.0 
0.0 0.0 0.0 
3.223335413291e-04 -1.053818755081e-03 0.0 
-1.053818755081e-03 3.293661977659e-03 0.0 
0.0 0.0 0.0 
2.047838092040e-04 -1.139193647812e-03 0.0 
-1.139193647812e-03 3.315521079894e-03 0.0 
0.0 0.0 0.0 
1.686303035436e-03 -1.283016396493e-03 0.0 
-1.283016396493e-03 -4.703996467923e-03 0.0 
0.0 0.0 0.0 
1.865049935356e-03 -2.749700613021e-03 0.0 
-2.749700613021e-03 -3.889958167429e-03 0.0 
0.0 0.0 0.0 
-5.050907811446e-04 3.034161690631e-04 0.0 
3.034161690631e-04 7.329693999739e-03 0.0 
0.0 0.0 0.0 
2.805806383148e-04 2.534395171640e-03 0.0 
2.534395171640e-03 3.382013657412e-05 0.0 
0.0 0.0 0.0 
1.411890656166e-04 2.410988383218e-03 0.0 
2.410988383218e-03 3.612276115105e-04 0.0 
0.0 0.0 0.0 
4.271392028717e-04 2.664874590744e-03 0.0 
2.664874590744e-03 -2.950390111571e-04 0.0 
0.0 0.0 0.0 
-5.256271508371e-04 -1.584124081313e-04 0.0 
-1.584124081313e-04 5.725672793216e-03 0.0 
0.0 0.0 0.0 
-1.029124806546e-03 3.121991351058e-05 0.0 
3.121991351058e-05 4.996610602042e-03 0.0 
0.0 0.0 0.0 
-7.549830526691e-04 -4.677763641633e-04 0.0 
-4.677763641633e-04 5.372722619864e-03 0.0 
0.0 0.0 0.0 
-3.039905946024e-04 2.277405298424e-03 0.0 
2.277405298424e-03 1.931860925528e-03 0.0 
0.0 0.0 0.0 
-4.335345147844e-04 4.051633533997e-04 0.0 
4.051633533997e-04 7.452527686094e-03 0.0 
0.0 0.0 0.0 
2.018894054713e-03 1.839802056782e-03 0.0 
1.839802056782e-03 -1.137207439609e-04 0.0 
0.0 0.0 0.0 
1.329208141048e-03 2.590735221660e-03 0.0 
2.590735221660e-03 -4.966012001599e-04 0.0 
0.0 0.0 0.0 
1.442779574600e-03 -7.430090103509e-04 0.0 
-7.430090103509e-04 1.067509767612e-03 0.0 
0.0 0.0 0.0 
-5.810752370591e-04 1.997506455821e-04 0.0 
1.997506455821e-04 7.180342205284e-03 0.0 
0.0 0.0 0.0 
-4.074852259395e-04 2.382857786322e-04 0.0 
2.382857786322e-04 7.512315253495e-03 0.0 
0.0 0.0 0.0 
-1.167176022926e-03 4.872732123807e-04 0.0 
4.872732123807e-04 5.550776221144e-03 0.0 
0.0 0.0 0.0 
-1.165971777544e-03 3.755274824402e-04 0.0 
3.755274824402e-04 5.413345328375e-03 0.0 
0.0 0.0 0.0 
-1.162487473730e-03 6.038405696511e-04 0.0 
6.038405696511e-04 5.648938731978e-03 0.0 
0.0 0.0 0.0 
2.809051318224e-03 1.916257701419e-03 0.0 
1.916257701419e-03 -4.005260380697e-03 0.0 
0.0 0.0 0.0 
1.879328161469e-03 2.303388115188e-03 0.0 
2.303388115188e-03 -3.817574831979e-03 0.0 
0.0 0.0 0.0 
-6.366202939609e-04 5.097635433134e-04 0.0 
5.097635433134e-04 7.064774750482e-03 0.0 
0.0 0.0 0.0 
-1.364576250034e-03 -1.115010409670e-03 0.0 
-1.115010409670e-03 2.685169027408e-03 0.0 
0.0 0.0 0.0 
-1.567410075253e-03 -9.005734114384e-04 0.0 
-9.005734114384e-04 3.029879496663e-03 0.0 
0.0 0.0 0.0 
-3.486215757832e-04 -2.070655077582e-03 0.0 
-2.070655077582e-03 9.171385657324e-04 0.0 
0.0 0.0 0.0 
-2.168084455213e-04 -2.301878273531e-03 0.0 
-2.301878273531e-03 8.522325559692e-04 0.0 
0.0 0.0 0.0 
-1.191684980248e-03 -1.548093941349e-03 0.0 
-1.548093941349e-03 3.100803603351e-03 0.0 
0.0 0.0 0.0 
-9.631662368668e-04 -1.784954959456e-03 0.0 
-1.784954959456e-03 2.631169727520e-03 0.0 
0.0 0.0 0.0 
-1.699371694700e-05 2.152567497113e-03 0.0 
2.152567497113e-03 3.612754632660e-03 0.0 
0.0 0.0 0.0 
-1.505580664096e-04 2.077798089068e-03 0.0 
2.077798089068e-03 4.127280565188e-03 0.0 
0.0 0.0 0.0 
3.622726296458e-04 2.343024077516e-03 0.0 
2.343024077516e-03 2.471796097937e-03 0.0 
0.0 0.0 0.0 
1.971492093192e-03 -1.157161843691e-03 0.0 
-1.157161843691e-03 -3.590001640100e-04 0.0 
0.0 0.0 0.0 
2.177362684976e-03 -1.360877254089e-03 0.0 
-1.360877254089e-03 -1.006633665712e-03 0.0 
0.0 0.0 0.0 
2.608065074765e-03 -1.098391204861e-03 0.0 
-1.098391204861e-03 -1.597776464658e-03 0.0 
0.0 0.0 0.0 
-5.109365462566e-04 7.370979242647e-04 0.0 
7.370979242647e-04 7.237155885065e-03 0.0 
0.0 0.0 0.0 
-3.834399670076e-04 6.883607532991e-04 0.0 
6.883607532991e-04 7.465497146966e-03 0.0 
0.0 0.0 0.0 
1.725110994907e-03 -2.534068407922e-03 0.0 
-2.534068407922e-03 -1.353748450529e-03 0.0 
0.0 0.0 0.0 
2.293222017758e-03 -2.464376672009e-03 0.0 
-2.464376672009e-03 -2.056575632545e-03 0.0 
0.0 0.0 0.0 
7.428213427925e-04 -2.605713159024e-03 0.0 
-2.605713159024e-03 -1.463905981310e-04 0.0 
0.0 0.0 0.0 
-4.738533841074e-04 1.050802072302e-03 0.0 
1.050802072302e-03 7.148126182633e-03 0.0 
0.0 0.0 0.0 
-5.843999977484e-04 -6.051988322614e-04 0.0 
-6.051988322614e-04 5.376167868142e-03 0.0 
0.0 0.0 0.0 
-5.963559757218e-04 -7.360910232338e-04 0.0 
-7.360910232338e-04 5.111587406327e-03 0.0 
0.0 0.0 0.0 
-2.130123134084e-04 -8.206746755795e-04 0.0 
-8.206746755795e-04 8.357606189117e-04 0.0 
0.0 0.0 0.0 
-4.138024884789e-04 -1.228224426050e-03 0.0 
-1.228224426050e-03 9.928952245928e-04 0.0 
0.0 0.0 0.0 
7.847237876684e-04 3.003596549761e-03 0.0 
3.003596549761e-03 -1.111384613472e-03 0.0 
0.0 0.0 0.0 
1.007477189760e-03 3.127733267263e-03 0.0 
3.127733267263e-03 -1.790256513575e-03 0.0 
0.0 0.0 0.0 
-5.002225751475e-04 1.431013210236e-03 0.0 
1.431013210236e-03 6.654371169674e-03 0.0 
0.0 0.0 0.0 
-5.846380046833e-04 1.485701661000e-03 0.0 
1.485701661000e-03 6.376605853893e-03 0.0 
0.0 0.0 0.0 
-3.948812251396e-04 1.390995893058e-03 0.0 
1.390995893058e-03 6.946106917185e-03 0.0 
0.0 0.0 0.0 
-9.429701523670e-04 -3.161402685247e-04 0.0 
-3.161402685247e-04 2.315149900432e-03 0.0 
0.0 0.0 0.0 
1.471992721171e-03 1.739701606615e-03 0.0 
1.739701606615e-03 1.152481463455e-03 0.0 
0.0 0.0 0.0 
8.615837905169e-04 -5.208680670978e-04 0.0 
-5.208680670978e-04 2.399526148231e-03 0.0 
0.0 0.0 0.0 
1.127813660693e-03 -3.547077958069e-04 0.0 
-3.547077958069e-04 1.933572794811e-03 0.0 
0.0 0.0 0.0 
5.869998026810e-04 -6.772136979739e-04 0.0 
-6.772136979739e-04 2.987354856430e-03 0.0 
0.0 0.0 0.0 
1.240283696849e-03 1.405853656521e-03 0.0 
1.405853656521e-03 1.844791196771e-03 0.0 
0.0 0.0 0.0 
9.201255856096e-04 1.353347072233e-03 0.0 
1.353347072233e-03 2.482558988233e-03 0.0 
0.0 0.0 0.0 
7.191508843207e-04 1.671011801570e-03 0.0 
1.671011801570e-03 2.933920753994e-03 0.0 
0.0 0.0 0.0 
1.134272075614e-03 -8.864577321479e-05 0.0 
-8.864577321479e-05 -4.802157166059e-03 0.0 
0.0 0.0 0.0 
-4.535510775468e-04 1.487853509947e-04 0.0 
1.487853509947e-04 7.421285031390e-03 0.0 
0.0 0.0 0.0 
-1.106530138754e-03 2.723047096093e-04 0.0 
2.723047096093e-04 5.486794801396e-03 0.0 
0.0 0.0 0.0 
2.507576488283e-04 -7.306118287066e-04 0.0 
-7.306118287066e-04 -4.489652872239e-03 0.0 
0.0 0.0 0.0 
-1.093068262496e-03 2.000653028736e-04 0.0 
2.000653028736e-04 5.330103515176e-03 0.0 
0.0 0.0 0.0 
-1.053506612466e-03 1.940029808784e-04 0.0 
1.940029808784e-04 5.561924894119e-03 0.0 
0.0 0.0 0.0 
-1.083246395958e-03 1.383250893031e-04 0.0 
1.383250893031e-04 5.138186982722e-03 0.0 
0.0 0.0 0.0 
-4.439226943689e-04 -2.516677613765e-04 0.0 
-2.516677613765e-04 1.784104453054e-03 0.0 
0.0 0.0 0.0 
-1.237729384408e-03 4.928018413880e-04 0.0 
4.928018413880e-04 5.259680213885e-03 0.0 
0.0 0.0 0.0 
-1.232755583343e-03 6.399692552805e-04 0.0 
6.399692552805e-04 5.406686898538e-03 0.0 
0.0 0.0 0.0 
-1.905330054030e-04 -7.061096722316e-04 0.0 
-7.061096722316e-04 6.445792134846e-04 0.0 
0.0 0.0 0.0 
-3.479934477702e-04 9.896062796849e-04 0.0 
9.896062796849e-04 7.364876941741e-03 0.0 
0.0 0.0 0.0 
1.538302011701e-04 -5.515328605334e-04 0.0 
-5.515328605334e-04 5.424301126223e-04 0.0 
0.0 0.0 0.0 
1.838134065987e-04 -5.702393414104e-04 0.0 
-5.702393414104e-04 6.796278263489e-04 0.0 
0.0 0.0 0.0 
1.472944496893e-04 -1.071475020062e-03 0.0 
-1.071475020062e-03 3.800196971334e-03 0.0 
0.0 0.0 0.0 
1.954791130902e-05 -1.110200066024e-03 0.0 
-1.110200066024e-03 3.822410849373e-03 0.0 
0.0 0.0 0.0 
3.870316493941e-06 -1.074170975350e-03 0.0 
-1.074170975350e-03 4.242760310580e-03 0.0 
0.0 0.0 0.0 
-1.178769096093e-04 -1.062845392332e-03 0.0 
-1.062845392332e-03 4.258941667631e-03 0.0 
0.0 0.0 0.0 
-1.574322938308e-04 -1.130730410243e-03 0.0 
-1.130730410243e-03 3.882408359787e-03 0.0 
0.0 0.0 0.0 
-2.919954024996e-04 -1.041505200438e-03 0.0 
-1.041505200438e-03 4.336331620498e-03 0.0 
0.0 0.0 0.0 
-1.160907612675e-03 2.826564964506e-04 0.0 
2.826564964506e-04 5.253806958419e-03 0.0 
0.0 0.0 0.0 
-1.844793063595e-04 -1.016388067049e-03 0.0 
-1.016388067049e-03 4.705495082889e-03 0.0 
0.0 0.0 0.0 
-3.678529903786e-04 -9.389620297141e-04 0.0 
-9.389620297141e-04 4.745029954314e-03 0.0 
0.0 0.0 0.0 
-2.275297636911e-04 -9.559649239665e-04 0.0 
-9.559649239665e-04 5.092355104936e-03 0.0 
0.0 0.0 0.0 
-1.030521573282e-03 1.557411209048e-03 0.0 
1.557411209048e-03 2.794842821779e-03 0.0 
0.0 0.0 0.0 
4.049345979011e-04 2.517073234451e-03 0.0 
2.517073234451e-03 1.903091197525e-04 0.0 
0.0 0.0 0.0 
-1.117194272389e-05 2.310255836266e-03 0.0 
2.310255836266e-03 6.990557240135e-04 0.0 
0.0 0.0 0.0 
-2.439314233723e-04 2.102546788070e-03 0.0 
2.102546788070e-03 8.413926310015e-04 0.0 
0.0 0.0 0.0 
4.141598680122e-05 2.115419233687e-03 0.0 
2.115419233687e-03 4.812195078783e-03 0.0 
0.0 0.0 0.0 
-5.842425655772e-05 2.079265529339e-03 0.0 
2.079265529339e-03 4.834572690417e-03 0.0 
0.0 0.0 0.0 
-1.142691740179e-03 -3.638122788003e-04 0.0 
-3.638122788003e-04 5.115310592307e-03 0.0 
0.0 0.0 0.0 
-1.330928404109e-03 -3.985837724302e-04 0.0 
-3.985837724302e-04 4.883709013169e-03 0.0 
0.0 0.0 0.0 
-1.053321216531e-03 1.310396495750e-04 0.0 
1.310396495750e-04 5.369403718413e-03 0.0 
0.0 0.0 0.0 
-1.032884103382e-03 9.001069393300e-05 0.0 
9.001069393300e-05 5.355763777366e-03 0.0 
0.0 0.0 0.0 
-1.005866724617e-03 1.380606701614e-04 0.0 
1.380606701614e-04 5.705120852716e-03 0.0 
0.0 0.0 0.0 
-9.958940742842e-04 9.196534485823e-05 0.0 
9.196534485823e-05 5.665969756069e-03 0.0 
0.0 0.0 0.0 
-9.520190147380e-04 1.363494852295e-04 0.0 
1.363494852295e-04 6.004542273276e-03 0.0 
0.0 0.0 0.0 
-9.478656835112e-04 8.100721397364e-05 0.0 
8.100721397364e-05 5.958191088651e-03 0.0 
0.0 0.0 0.0 
-8.860465947045e-04 1.219209314415e-04 0.0 
1.219209314415e-04 6.294300984287e-03 0.0 
0.0 0.0 0.0 
4.816870325377e-04 1.830541737910e-03 0.0 
1.830541737910e-03 3.544062468453e-03 0.0 
0.0 0.0 0.0 
-6.196872759288e-05 2.357241971650e-03 0.0 
2.357241971650e-03 2.844526451561e-04 0.0 
0.0 0.0 0.0 
-1.217130585929e-03 1.388056039640e-03 0.0 
1.388056039640e-03 3.486115195582e-03 0.0 
0.0 0.0 0.0 
9.776150436255e-04 7.346190610741e-04 0.0 
7.346190610741e-04 2.332463707769e-03 0.0 
0.0 0.0 0.0 
1.232637559263e-03 5.247922116219e-04 0.0 
5.247922116219e-04 1.830569703394e-03 0.0 
0.0 0.0 0.0 
-6.787904556230e-04 1.936379898422e-03 0.0 
1.936379898422e-03 2.160950045561e-03 0.0 
0.0 0.0 0.0 
-7.608525674222e-04 1.758660580401e-03 0.0 
1.758660580401e-03 2.076928273484e-03 0.0 
0.0 0.0 0.0 
3.635229291438e-04 -9.498571640468e-04 0.0 
-9.498571640468e-04 3.423990836777e-03 0.0 
0.0 0.0 0.0 
2.224505390020e-03 2.624521797918e-03 0.0 
2.624521797918e-03 -1.628346290678e-03 0.0 
0.0 0.0 0.0 
-2.356714419749e-04 1.144172745296e-03 0.0 
1.144172745296e-03 7.426633073430e-03 0.0 
0.0 0.0 0.0 
-1.488533448440e-03 1.857610006247e-03 0.0 
1.857610006247e-03 -2.813693634052e-03 0.0 
0.0 0.0 0.0 
5.318298568906e-04 1.979086539524e-03 0.0 
1.979086539524e-03 -3.742906965470e-03 0.0 
0.0 0.0 0.0 
1.760649587903e-03 2.644448723377e-03 0.0 
2.644448723377e-03 -1.085862477158e-03 0.0 
0.0 0.0 0.0 
-5.960049250642e-04 2.068321594752e-03 0.0 
2.068321594752e-03 2.275470221897e-03 0.0 
0.0 0.0 0.0 
2.002185804434e-04 2.440182720809e-03 0.0 
2.440182720809e-03 5.978368300729e-04 0.0 
0.0 0.0 0.0 
-1.674636502413e-04 2.246497822826e-03 0.0 
2.246497822826e-03 1.037669161290e-03 0.0 
0.0 0.0 0.0 
1.718996338323e-03 -9.238082139137e-04 0.0 
-9.238082139137e-04 3.575594338316e-04 0.0 
0.0 0.0 0.0 
-4.302652133070e-04 -1.292804207093e-03 0.0 
-1.292804207093e-03 8.883017189384e-04 0.0 
0.0 0.0 0.0 
5.719248474643e-04 2.811318948739e-03 0.0 
2.811318948739e-03 -6.536911605839e-04 0.0 
0.0 0.0 0.0 
-8.910545650846e-04 1.930198366002e-04 0.0 
1.930198366002e-04 6.324019776679e-03 0.0 
0.0 0.0 0.0 
-2.325612478214e-05 2.656539819876e-03 0.0 
2.656539819876e-03 -2.375488610144e-04 0.0 
0.0 0.0 0.0 
-1.280174294725e-03 -1.920774710075e-04 0.0 
-1.920774710075e-04 5.082299388505e-03 0.0 
0.0 0.0 0.0 
2.845381792751e-03 2.367854099627e-03 0.0 
2.367854099627e-03 -2.186180775820e-03 0.0 
0.0 0.0 0.0 
3.104052968171e-05 2.436140618588e-03 0.0 
2.436140618588e-03 1.541536183767e-03 0.0 
0.0 0.0 0.0 
1.116411733720e-03 2.868226230585e-03 0.0 
2.868226230585e-03 -1.013073257461e-03 0.0 
0.0 0.0 0.0 
9.150895558899e-04 2.650097093818e-03 0.0 
2.650097093818e-03 -3.883066091862e-04 0.0 
0.0 0.0 0.0 
-9.756424903518e-04 1.775729179197e-03 0.0 
1.775729179197e-03 4.157591145051e-03 0.0 
0.0 0.0 0.0 
-1.265204661420e-03 1.392387895957e-03 0.0 
1.392387895957e-03 4.410770575835e-03 0.0 
0.0 0.0 0.0 
-1.226992861623e-03 1.467218122685e-03 0.0 
1.467218122685e-03 4.066458112966e-03 0.0 
0.0 0.0 0.0 
3.372292831204e-03 1.965029720144e-03 0.0 
1.965029720144e-03 -2.656351513507e-03 0.0 
0.0 0.0 0.0 
-3.417409163853e-04 2.149741667256e-03 0.0 
2.149741667256e-03 1.418608908030e-03 0.0 
0.0 0.0 0.0 
-4.748109117983e-04 1.933713457310e-03 0.0 
1.933713457310e-03 1.411101744461e-03 0.0 
0.0 0.0 0.0 
-5.554780891246e-04 2.150326661625e-03 0.0 
2.150326661625e-03 3.066866980414e-03 0.0 
0.0 0.0 0.0 
-7.484671797558e-04 1.395010907921e-03 0.0 
1.395010907921e-03 6.108304127653e-03 0.0 
0.0 0.0 0.0 
-6.457441072861e-04 1.533478929674e-03 0.0 
1.533478929674e-03 6.067746729701e-03 0.0 
0.0 0.0 0.0 
-4.823709683065e-04 1.617408682907e-03 0.0 
1.617408682907e-03 6.321368705001e-03 0.0 
0.0 0.0 0.0 
-5.384032213409e-04 1.664773267825e-03 0.0 
1.664773267825e-03 6.006635104740e-03 0.0 
0.0 0.0 0.0 
-6.891782021350e-04 1.589167351712e-03 0.0 
1.589167351712e-03 5.739419310039e-03 0.0 
0.0 0.0 0.0 
-5.685342519816e-04 1.714680137330e-03 0.0 
1.714680137330e-03 5.661059120757e-03 0.0 
0.0 0.0 0.0 
-4.199828585851e-04 1.786934650918e-03 0.0 
1.786934650918e-03 5.939088505050e-03 0.0 
0.0 0.0 0.0 
-4.382480312863e-04 1.833823625913e-03 0.0 
1.833823625913e-03 5.574290432743e-03 0.0 
0.0 0.0 0.0 
-2.879827964020e-04 1.919149306723e-03 0.0 
1.919149306723e-03 5.921514408633e-03 0.0 
0.0 0.0 0.0 
-3.108123468334e-04 1.936413439347e-03 0.0 
1.936413439347e-03 5.461330589439e-03 0.0 
0.0 0.0 0.0 
-4.301605597508e-04 1.883933872288e-03 0.0 
1.883933872288e-03 5.163527448042e-03 0.0 
0.0 0.0 0.0 
-2.931661457227e-04 1.968787531443e-03 0.0 
1.968787531443e-03 5.035537057720e-03 0.0 
0.0 0.0 0.0 
-2.040023357475e-04 2.021916140371e-03 0.0 
2.021916140371e-03 5.317429426615e-03 0.0 
0.0 0.0 0.0 
-3.985517749434e-04 1.946721123898e-03 0.0 
1.946721123898e-03 4.736839729810e-03 0.0 
0.0 0.0 0.0 
6.919429553079e-04 9.542355887079e-04 0.0 
9.542355887079e-04 2.826211375618e-03 0.0 
0.0 0.0 0.0 
1.892519247517e-03 2.535141336589e-03 0.0 
2.535141336589e-03 -1.070112017778e-03 0.0 
0.0 0.0 0.0 
1.605541949996e-03 9.915784544522e-04 0.0 
9.915784544522e-04 -4.540141041443e-03 0.0 
0.0 0.0 0.0 
8.756483044258e-04 3.057439215517e-03 0.0 
3.057439215517e-03 -2.952365166395e-03 0.0 
0.0 0.0 0.0 
-1.981898617158e-04 2.347535521772e-03 0.0 
2.347535521772e-03 2.065201286083e-03 0.0 
0.0 0.0 0.0 
-1.562847841289e-04 1.977738928478e-03 0.0 
1.977738928478e-03 6.342488831710e-03 0.0 
0.0 0.0 0.0 
-1.978912002568e-04 1.755489565302e-03 0.0 
1.755489565302e-03 6.782250970287e-03 0.0 
0.0 0.0 0.0 
3.047716823427e-03 2.307851888095e-03 0.0 
2.307851888095e-03 -2.680703551718e-03 0.0 
0.0 0.0 0.0 
4.522205480303e-05 2.184849367106e-03 0.0 
2.184849367106e-03 5.085915763877e-03 0.0 
0.0 0.0 0.0 
-1.082751471734e-03 1.675970640315e-03 0.0 
1.675970640315e-03 3.930766990213e-03 0.0 
0.0 0.0 0.0 
3.260640844059e-03 1.619008209961e-03 0.0 
1.619008209961e-03 -3.906748643781e-03 0.0 
0.0 0.0 0.0 
1.555475452507e-04 2.062015296499e-03 0.0 
2.062015296499e-03 4.525034947999e-03 0.0 
0.0 0.0 0.0 
-8.010891685012e-04 1.453762391547e-03 0.0 
1.453762391547e-03 5.799262049229e-03 0.0 
0.0 0.0 0.0 
-8.383378376231e-04 1.518934010685e-03 0.0 
1.518934010685e-03 5.471236038489e-03 0.0 
0.0 0.0 0.0 
-9.481289372757e-04 1.376509158261e-03 0.0 
1.376509158261e-03 5.530884062736e-03 0.0 
0.0 0.0 0.0 
-1.996775326964e-04 1.532697066673e-03 0.0 
1.532697066673e-03 7.104495014658e-03 0.0 
0.0 0.0 0.0 
-1.141827947017e-03 7.348598483611e-04 0.0 
7.348598483611e-04 5.737779193976e-03 0.0 
0.0 0.0 0.0 
3.439144317838e-04 1.441539825296e-03 0.0 
1.441539825296e-03 3.620971649862e-03 0.0 
0.0 0.0 0.0 
2.901281498851e-03 1.045696376292e-03 0.0 
1.045696376292e-03 -1.495352995414e-03 0.0 
0.0 0.0 0.0 
2.860021576274e-03 1.473702987118e-03 0.0 
1.473702987118e-03 -1.563089529009e-03 0.0 
0.0 0.0 0.0 
3.141263592941e-03 1.554141543163e-03 0.0 
1.554141543163e-03 -2.112346396111e-03 0.0 
0.0 0.0 0.0 
-5.759319485483e-04 1.773249883882e-03 0.0 
1.773249883882e-03 5.284671327612e-03 0.0 
0.0 0.0 0.0 
4.474859604271e-04 4.131022168818e-04 0.0 
4.131022168818e-04 3.145254801587e-03 0.0 
0.0 0.0 0.0 
8.335135684077e-04 2.466632807757e-04 0.0 
2.466632807757e-04 2.517964539334e-03 0.0 
0.0 0.0 0.0 
8.065540285564e-04 -1.287677471015e-06 0.0 
-1.287677471015e-06 2.556026782230e-03 0.0 
0.0 0.0 0.0 
1.187628143845e-03 8.833496861108e-05 0.0 
8.833496861108e-05 1.870214875814e-03 0.0 
0.0 0.0 0.0 
4.156676146353e-04 -1.213325760583e-04 0.0 
-1.213325760583e-04 3.218352592234e-03 0.0 
0.0 0.0 0.0 
-8.594658762976e-05 2.132147621591e-03 0.0 
2.132147621591e-03 5.908724114265e-03 0.0 
0.0 0.0 0.0 
-4.681306028413e-05 2.178967738105e-03 0.0 
2.178967738105e-03 5.663924529029e-03 0.0 
0.0 0.0 0.0 
2.212550070955e-03 -2.693763847664e-03 0.0 
-2.693763847664e-03 -2.101073761067e-03 0.0 
0.0 0.0 0.0 
2.829580832858e-03 -2.234074862356e-03 0.0 
-2.234074862356e-03 -2.680727692517e-03 0.0 
0.0 0.0 0.0 
2.859506456889e-03 -2.053695584371e-03 0.0 
-2.053695584371e-03 -2.561703695431e-03 0.0 
0.0 0.0 0.0 
3.355184626432e-03 -1.650368849376e-03 0.0 
-1.650368849376e-03 -3.124141763541e-03 0.0 
0.0 0.0 0.0 
3.291078028689e-03 -1.827677773926e-03 0.0 
-1.827677773926e-03 -3.281930744815e-03 0.0 
0.0 0.0 0.0 
3.714794920549e-03 -1.080012187495e-03 0.0 
-1.080012187495e-03 -3.587519886568e-03 0.0 
0.0 0.0 0.0 
3.765553718004e-03 -1.007012471313e-03 0.0 
-1.007012471313e-03 -3.401667110637e-03 0.0 
0.0 0.0 0.0 
3.896585682306e-03 -3.491745017332e-04 0.0 
-3.491745017332e-04 -3.899667799069e-03 0.0 
0.0 0.0 0.0 
-9.361490752900e-05 2.059646160861e-03 0.0 
2.059646160861e-03 4.474440558049e-03 0.0 
0.0 0.0 0.0 
3.163646591879e-04 -5.773922939457e-04 0.0 
-5.773922939457e-04 3.499866834515e-03 0.0 
0.0 0.0 0.0 
1.055083449607e-03 -1.831212291064e-03 0.0 
-1.831212291064e-03 5.435254581260e-04 0.0 
0.0 0.0 0.0 
1.474280672519e-03 -1.798342978156e-03 0.0 
-1.798342978156e-03 -1.706482212234e-04 0.0 
0.0 0.0 0.0 
1.568041664821e-03 -1.926094749480e-03 0.0 
-1.926094749480e-03 -5.600613544521e-04 0.0 
0.0 0.0 0.0 
-9.721452255209e-04 -1.858719284488e-03 0.0 
-1.858719284488e-03 2.407437084984e-03 0.0 
0.0 0.0 0.0 
-6.839655041902e-04 -2.002748326522e-03 0.0 
-2.002748326522e-03 2.115666476697e-03 0.0 
0.0 0.0 0.0 
-6.696482511791e-04 -1.899088127863e-03 0.0 
-1.899088127863e-03 2.358752060993e-03 0.0 
0.0 0.0 0.0 
-1.211529445635e-03 -1.665925879299e-03 0.0 
-1.665925879299e-03 2.650505692414e-03 0.0 
0.0 0.0 0.0 
1.150053090198e-03 2.171941641023e-03 0.0 
2.171941641023e-03 1.352019277411e-03 0.0 
0.0 0.0 0.0 
2.659318433751e-04 -7.595763098114e-04 0.0 
-7.595763098114e-04 3.670176090171e-03 0.0 
0.0 0.0 0.0 
2.748412834716e-03 -6.817160849906e-04 0.0 
-6.817160849906e-04 -1.573899668172e-03 0.0 
0.0 0.0 0.0 
-3.532769138524e-04 -2.195881001371e-03 0.0 
-2.195881001371e-03 1.566534434966e-03 0.0 
0.0 0.0 0.0 
-1.376354933522e-03 6.371023741435e-04 0.0 
6.371023741435e-04 4.768266114911e-03 0.0 
0.0 0.0 0.0 
-1.325819557049e-03 8.022091753764e-04 0.0 
8.022091753764e-04 5.003999940643e-03 0.0 
0.0 0.0 0.0 
-1.350709478502e-03 9.325183341948e-04 0.0 
9.325183341948e-04 4.908235711537e-03 0.0 
0.0 0.0 0.0 
-1.246245729742e-03 9.643987322281e-04 0.0 
9.643987322281e-04 5.244539271802e-03 0.0 
0.0 0.0 0.0 
-1.300466016914e-03 6.783540969782e-04 0.0 
6.783540969782e-04 5.133439905136e-03 0.0 
0.0 0.0 0.0 
-1.369860641353e-03 -1.297181870087e-03 0.0 
-1.297181870087e-03 3.517146650136e-03 0.0 
0.0 0.0 0.0 
-1.499878953634e-03 -1.038478724557e-03 0.0 
-1.038478724557e-03 3.875202483828e-03 0.0 
0.0 0.0 0.0 
-1.677103620613e-03 -8.511055644051e-04 0.0 
-8.511055644051e-04 3.957400454584e-03 0.0 
0.0 0.0 0.0 
-1.585268709193e-03 -7.794496424208e-04 0.0 
-7.794496424208e-04 4.176231647150e-03 0.0 
0.0 0.0 0.0 
-1.738503631570e-03 -5.899746634199e-04 0.0 
-5.899746634199e-04 4.203198421319e-03 0.0 
0.0 0.0 0.0 
-1.806409406767e-03 -6.481015690858e-04 0.0 
-6.481015690858e-04 4.000097764342e-03 0.0 
0.0 0.0 0.0 
-1.636034327294e-03 -5.183272042563e-04 0.0 
-5.183272042563e-04 4.425291688196e-03 0.0 
0.0 0.0 0.0 
-1.769169238318e-03 -3.427302912509e-04 0.0 
-3.427302912509e-04 4.378107310754e-03 0.0 
0.0 0.0 0.0 
-1.303169561271e-03 4.316821224175e-04 0.0 
4.316821224175e-04 4.885723339307e-03 0.0 
0.0 0.0 0.0 
-1.257203023609e-03 -2.340569388800e-03 0.0 
-2.340569388800e-03 -8.613794894947e-04 0.0 
0.0 0.0 0.0 
-5.498465788306e-04 -3.116657899526e-03 0.0 
-3.116657899526e-03 -5.380253741210e-04 0.0 
0.0 0.0 0.0 
-7.727778962621e-04 -2.260712872648e-03 0.0 
-2.260712872648e-03 5.065229646932e-04 0.0 
0.0 0.0 0.0 
-4.681584783824e-05 -3.228001003815e-03 0.0 
-3.228001003815e-03 -4.223984399401e-04 0.0 
0.0 0.0 0.0 
8.201514569333e-04 -3.404396643788e-03 0.0 
-3.404396643788e-03 -2.047442731781e-03 0.0 
0.0 0.0 0.0 
1.087469569610e-03 -3.312046234151e-03 0.0 
-3.312046234151e-03 -1.644585898513e-03 0.0 
0.0 0.0 0.0 
1.998564845149e-03 -3.182775491979e-03 0.0 
-3.182775491979e-03 -3.038449831455e-03 0.0 
0.0 0.0 0.0 
2.475939713248e-04 -3.150798168346e-03 0.0 
-3.150798168346e-03 -2.555118238168e-03 0.0 
0.0 0.0 0.0 
-6.287488513059e-04 -7.859004928746e-04 0.0 
-7.859004928746e-04 4.246742910904e-04 0.0 
0.0 0.0 0.0 
-6.942921171937e-04 -1.486206894467e-03 0.0 
-1.486206894467e-03 6.898709739117e-04 0.0 
0.0 0.0 0.0 
-3.627366247050e-04 -4.550630380780e-04 0.0 
-4.550630380780e-04 3.828509578973e-04 0.0 
0.0 0.0 0.0 
-5.089029913244e-04 -1.053587896517e-03 0.0 
-1.053587896517e-03 6.771004407333e-04 0.0 
0.0 0.0 0.0 
-5.075193036559e-04 -1.952417459833e-03 0.0 
-1.952417459833e-03 7.120904070769e-04 0.0 
0.0 0.0 0.0 
-4.617327004561e-04 -1.627352779498e-03 0.0 
-1.627352779498e-03 1.107752904567e-03 0.0 
0.0 0.0 0.0 
-2.936272503359e-04 -6.223519713297e-04 0.0 
-6.223519713297e-04 5.602443380669e-03 0.0 
0.0 0.0 0.0 
-1.922949168307e-03 -2.516812210875e-04 0.0 
-2.516812210875e-04 3.808537065442e-03 0.0 
0.0 0.0 0.0 
-1.863035346295e-03 -4.913724657002e-04 0.0 
-4.913724657002e-04 3.626015749571e-03 0.0 
0.0 0.0 0.0 
-1.767307089225e-03 -4.672008502473e-04 0.0 
-4.672008502473e-04 3.374167636892e-03 0.0 
0.0 0.0 0.0 
-1.749049468306e-03 -7.425541087125e-04 0.0 
-7.425541087125e-04 3.386824108077e-03 0.0 
0.0 0.0 0.0 
-1.894287243453e-03 -4.804188919334e-04 0.0 
-4.804188919334e-04 3.852045667056e-03 0.0 
0.0 0.0 0.0 
-1.708715909875e-03 -2.208006357684e-04 0.0 
-2.208006357684e-04 3.264452724657e-03 0.0 
0.0 0.0 0.0 
-1.592676655105e-03 -4.257519375648e-04 0.0 
-4.257519375648e-04 3.089374884949e-03 0.0 
0.0 0.0 0.0 
1.857189975823e-03 -9.463200603796e-05 0.0 
-9.463200603796e-05 -5.195642138102e-04 0.0 
0.0 0.0 0.0 
1.280962202751e-03 -1.153597849088e-04 0.0 
-1.153597849088e-04 4.655998151665e-05 0.0 
0.0 0.0 0.0 
1.421685535239e-03 -1.855295937822e-05 0.0 
-1.855295937822e-05 -5.194643269224e-05 0.0 
0.0 0.0 0.0 
6.887973060241e-04 -1.153600267497e-04 0.0 
-1.153600267497e-04 6.479342363631e-04 0.0 
0.0 0.0 0.0 
6.695159902840e-04 -1.848903259804e-04 0.0 
-1.848903259804e-04 6.391306632434e-04 0.0 
0.0 0.0 0.0 
1.199269971966e-03 -1.812520003349e-04 0.0 
-1.812520003349e-04 7.896790260908e-05 0.0 
0.0 0.0 0.0 
1.057335179040e-03 -2.420800240082e-04 0.0 
-2.420800240082e-04 1.311478932305e-04 0.0 
0.0 0.0 0.0 
1.561317595955e-03 -1.613171200113e-04 0.0 
-1.613171200113e-04 -3.942266191345e-04 0.0 
0.0 0.0 0.0 
8.773466128184e-04 -3.158710959238e-04 0.0 
-3.158710959238e-04 2.065818231588e-04 0.0 
0.0 0.0 0.0 
4.162404999980e-04 -3.657632122944e-04 0.0 
-3.657632122944e-04 7.233301631903e-04 0.0 
0.0 0.0 0.0 
1.361401378034e-03 -2.110892187881e-04 0.0 
-2.110892187881e-04 -3.217832148761e-04 0.0 
0.0 0.0 0.0 
-7.443880847692e-04 5.730155694908e-05 0.0 
5.730155694908e-05 6.755855053369e-03 0.0 
0.0 0.0 0.0 
-6.772863358992e-04 1.273607600989e-04 0.0 
1.273607600989e-04 6.931694224907e-03 0.0 
0.0 0.0 0.0 
1.488705701604e-04 -1.006505235177e-03 0.0 
-1.006505235177e-03 4.080968170945e-03 0.0 
0.0 0.0 0.0 
-1.210145587248e-03 2.889396916281e-04 0.0 
2.889396916281e-04 4.995709069073e-03 0.0 
0.0 0.0 0.0 
1.156072973718e-04 -2.960678316052e-04 0.0 
-2.960678316052e-04 2.295250758001e-04 0.0 
0.0 0.0 0.0 
-2.164953208724e-04 4.530970149752e-04 0.0 
4.530970149752e-04 7.773097129166e-03 0.0 
0.0 0.0 0.0 
-2.006776510231e-04 7.939199681527e-04 0.0 
7.939199681527e-04 7.684041691777e-03 0.0 
0.0 0.0 0.0 
-1.856364074039e-04 6.871641122532e-04 0.0 
6.871641122532e-04 7.741931485571e-03 0.0 
0.0 0.0 0.0 
-8.222147553948e-04 -1.630307439885e-04 0.0 
-1.630307439885e-04 5.529408592674e-03 0.0 
0.0 0.0 0.0 
-6.676849264053e-04 -3.119486128866e-04 0.0 
-3.119486128866e-04 5.582031678087e-03 0.0 
0.0 0.0 0.0 
-2.002109594809e-04 2.598211004264e-04 0.0 
2.598211004264e-04 7.826214942019e-03 0.0 
0.0 0.0 0.0 
-6.057232632314e-04 -1.976355069535e-03 0.0 
-1.976355069535e-03 1.507002467994e-03 0.0 
0.0 0.0 0.0 
-3.887152462552e-04 1.755663844893e-03 0.0 
1.755663844893e-03 6.265281761915e-03 0.0 
0.0 0.0 0.0 
-5.362753131417e-04 4.608991620129e-04 0.0 
4.608991620129e-04 7.257948428420e-03 0.0 
0.0 0.0 0.0 
2.688385507287e-03 2.505738054985e-03 0.0 
2.505738054985e-03 -3.212940944508e-03 0.0 
0.0 0.0 0.0 
1.531408438204e-04 -2.561275953444e-03 0.0 
-2.561275953444e-03 4.055686772896e-04 0.0 
0.0 0.0 0.0 
-1.330826189161e-03 -6.177241686338e-04 0.0 
-6.177241686338e-04 4.646807159404e-03 0.0 
0.0 0.0 0.0 
-5.682548680765e-04 -1.602203810082e-03 0.0 
-1.602203810082e-03 2.935734211894e-03 0.0 
0.0 0.0 0.0 
-7.711853785686e-04 -7.812496810383e-04 0.0 
-7.812496810383e-04 4.835961640063e-03 0.0 
0.0 0.0 0.0 
-1.179107302328e-03 -1.080782007778e-03 0.0 
-1.080782007778e-03 4.007254622016e-03 0.0 
0.0 0.0 0.0 
-5.879154570760e-04 -1.103135472067e-03 0.0 
-1.103135472067e-03 4.074045564779e-03 0.0 
0.0 0.0 0.0 
7.624680877507e-04 -2.739449451598e-04 0.0 
-2.739449451598e-04 2.633081299759e-03 0.0 
0.0 0.0 0.0 
-2.780115565283e-04 -3.536848504241e-04 0.0 
-3.536848504241e-04 1.559705856108e-03 0.0 
0.0 0.0 0.0 
-1.039197113755e-03 4.442200021577e-04 0.0 
4.442200021577e-04 5.999231533076e-03 0.0 
0.0 0.0 0.0 
-1.000646689259e-03 2.504894009789e-04 0.0 
2.504894009789e-04 5.939399661025e-03 0.0 
0.0 0.0 0.0 
-7.784732458848e-04 4.513884369587e-04 0.0 
4.513884369587e-04 6.754974832410e-03 0.0 
0.0 0.0 0.0 
-1.158034408030e-03 -1.308171438865e-03 0.0 
-1.308171438865e-03 2.356186253195e-03 0.0 
0.0 0.0 0.0 
-1.725887970101e-03 -9.094629947370e-04 0.0 
-9.094629947370e-04 3.745593681460e-03 0.0 
0.0 0.0 0.0 
-5.326912346683e-04 -1.031806251550e-03 0.0 
-1.031806251550e-03 1.481137848869e-03 0.0 
0.0 0.0 0.0 
2.372496770759e-04 2.048054317806e-03 0.0 
2.048054317806e-03 4.244394484117e-03 0.0 
0.0 0.0 0.0 
-6.607467415158e-04 2.069237435626e-03 0.0 
2.069237435626e-03 2.877976906651e-03 0.0 
0.0 0.0 0.0 
1.196468800180e-03 -2.136032632550e-03 0.0 
-2.136032632550e-03 -2.139455513466e-04 0.0 
0.0 0.0 0.0 
-9.543093254946e-04 -1.897143624435e-03 0.0 
-1.897143624435e-03 2.213016164331e-03 0.0 
0.0 0.0 0.0 
-3.577666653224e-04 -2.256056174639e-03 0.0 
-2.256056174639e-03 1.205690855802e-03 0.0 
0.0 0.0 0.0 
4.341550101676e-04 -2.732206206939e-03 0.0 
-2.732206206939e-03 -4.752285098395e-05 0.0 
0.0 0.0 0.0 
1.448888296155e-03 2.516840834270e-03 0.0 
2.516840834270e-03 -4.467789375539e-04 0.0 
0.0 0.0 0.0 
2.575701419575e-06 -2.247488244955e-03 0.0 
-2.247488244955e-03 1.193672558476e-03 0.0 
0.0 0.0 0.0 
3.076506941730e-04 -1.460112335732e-03 0.0 
-1.460112335732e-03 2.363501800608e-03 0.0 
0.0 0.0 0.0 
-6.892306485144e-04 4.096830608908e-04 0.0 
4.096830608908e-04 6.954444268801e-03 0.0 
0.0 0.0 0.0 
7.343403175631e-04 -2.837846870468e-04 0.0 
-2.837846870468e-04 -2.725010758767e-05 0.0 
0.0 0.0 0.0 
5.440389237853e-04 -1.318603020069e-03 0.0 
-1.318603020069e-03 2.245161204217e-03 0.0 
0.0 0.0 0.0 
-1.111010591790e-05 -1.966250686316e-03 0.0 
-1.966250686316e-03 1.769982788568e-03 0.0 
0.0 0.0 0.0 
-1.070418078361e-03 7.011666365311e-04 0.0 
7.011666365311e-04 5.981489993868e-03 0.0 
0.0 0.0 0.0 
1.969923884611e-03 5.406718961456e-04 0.0 
5.406718961456e-04 3.957375107167e-04 0.0 
0.0 0.0 0.0 
7.235675126037e-04 -3.214599894944e-03 0.0 
-3.214599894944e-03 -8.778282473962e-04 0.0 
0.0 0.0 0.0 
-7.777264583340e-04 7.120293670358e-04 0.0 
7.120293670358e-04 6.744637045718e-03 0.0 
0.0 0.0 0.0 
-5.021782680956e-04 1.232196184778e-03 0.0 
1.232196184778e-03 6.920570703179e-03 0.0 
0.0 0.0 0.0 
-1.206551131089e-03 7.738502303615e-04 0.0 
7.738502303615e-04 5.491132232143e-03 0.0 
0.0 0.0 0.0 
-2.151356131458e-04 -7.578199345849e-04 0.0 
-7.578199345849e-04 1.122250997466e-03 0.0 
0.0 0.0 0.0 
-1.110743696467e-03 3.627700270947e-04 0.0 
3.627700270947e-04 5.641885803211e-03 0.0 
0.0 0.0 0.0 
6.132557331804e-04 -8.548867117162e-04 0.0 
-8.548867117162e-04 2.808961501511e-03 0.0 
0.0 0.0 0.0 
-8.401429620146e-04 1.253090052385e-03 0.0 
1.253090052385e-03 6.129094169179e-03 0.0 
0.0 0.0 0.0 
-1.141706357557e-03 -1.001354800487e-03 0.0 
-1.001354800487e-03 2.370918156575e-03 0.0 
0.0 0.0 0.0 
3.523463760782e-03 -3.125477430271e-04 0.0 
-3.125477430271e-04 -2.671659846694e-03 0.0 
0.0 0.0 0.0 
3.957146332792e-04 2.532417747282e-03 0.0 
2.532417747282e-03 1.125607400957e-03 0.0 
0.0 0.0 0.0 
-1.379124005247e-03 1.089621246023e-03 0.0 
1.089621246023e-03 3.914776741667e-03 0.0 
0.0 0.0 0.0 
-4.717124645571e-04 5.629596268170e-04 0.0 
5.629596268170e-04 7.349479150427e-03 0.0 
0.0 0.0 0.0 
2.342290725053e-03 2.110675441677e-03 0.0 
2.110675441677e-03 -1.130105688873e-03 0.0 
0.0 0.0 0.0 
1.598620363410e-03 3.505421298353e-05 0.0 
3.505421298353e-05 1.065044167112e-03 0.0 
0.0 0.0 0.0 
2.727575253306e-03 -2.189178320869e-04 0.0 
-2.189178320869e-04 -1.300911135685e-03 0.0 
0.0 0.0 0.0 
-1.331533298058e-03 -8.348736949084e-04 0.0 
-8.348736949084e-04 2.665411618759e-03 0.0 
0.0 0.0 0.0 
2.717231960351e-05 -1.207911830719e-03 0.0 
-1.207911830719e-03 3.385867662127e-03 0.0 
0.0 0.0 0.0 
3.547241970450e-03 1.194035971836e-03 0.0 
1.194035971836e-03 -2.648983586190e-03 0.0 
0.0 0.0 0.0 
-6.210352700314e-04 7.897275797779e-04 0.0 
7.897275797779e-04 7.036948950217e-03 0.0 
0.0 0.0 0.0 
3.853831893182e-04 2.210456541780e-03 0.0 
2.210456541780e-03 2.842965887482e-03 0.0 
0.0 0.0 0.0 
4.054858485264e-03 2.941147901504e-04 0.0 
2.941147901504e-04 -3.376507591505e-03 0.0 
0.0 0.0 0.0 
-7.528681790651e-04 1.013758164862e-03 0.0 
1.013758164862e-03 6.638072294782e-03 0.0 
0.0 0.0 0.0 
2.004891291886e-03 -1.770085705041e-03 0.0 
-1.770085705041e-03 -1.148647184398e-03 0.0 
0.0 0.0 0.0 
1.721103070786e-03 7.926855909213e-04 0.0 
7.926855909213e-04 9.055226466948e-04 0.0 
0.0 0.0 0.0 
-4.982161116501e-04 2.172489851446e-03 0.0 
2.172489851446e-03 2.412759613494e-03 0.0 
0.0 0.0 0.0 
3.061713066967e-04 2.447006693668e-03 0.0 
2.447006693668e-03 2.149322535078e-03 0.0 
0.0 0.0 0.0 
-4.436836521531e-04 2.051842957367e-03 0.0 
2.051842957367e-03 4.016402371013e-03 0.0 
0.0 0.0 0.0 
1.199156324068e-03 2.466651595363e-03 0.0 
2.466651595363e-03 5.386064156869e-04 0.0 
0.0 0.0 0.0 
-1.501966197203e-03 -4.440138688146e-04 0.0 
-4.440138688146e-04 4.657863475053e-03 0.0 
0.0 0.0 0.0 
2.633054290994e-04 -1.270698115573e-03 0.0 
-1.270698115573e-03 2.834767178114e-03 0.0 
0.0 0.0 0.0 
3.047651274791e-03 -1.322229791041e-03 0.0 
-1.322229791041e-03 -4.362900195302e-03 0.0 
0.0 0.0 0.0 
1.151748519894e-03 2.640361809764e-03 0.0 
2.640361809764e-03 -4.793967914203e-04 0.0 
0.0 0.0 0.0 
-1.104071850011e-03 8.733593131562e-04 0.0 
8.733593131562e-04 5.803761463407e-03 0.0 
0.0 0.0 0.0 
6.478552339955e-04 1.939237118466e-03 0.0 
1.939237118466e-03 2.970715012849e-03 0.0 
0.0 0.0 0.0 
-4.438668263540e-04 8.631655509880e-04 0.0 
8.631655509880e-04 7.312712353142e-03 0.0 
0.0 0.0 0.0 
2.891590376409e-04 2.511905424245e-03 0.0 
2.511905424245e-03 1.025252235509e-03 0.0 
0.0 0.0 0.0 
-1.900700284116e-04 -1.249542698011e-03 0.0 
-1.249542698011e-03 3.487507756623e-03 0.0 
0.0 0.0 0.0 
-5.819060945516e-04 1.099240508188e-03 0.0 
1.099240508188e-03 6.907555760227e-03 0.0 
0.0 0.0 0.0 
-3.610565568830e-04 -2.090954795407e-03 0.0 
-2.090954795407e-03 1.792042922807e-03 0.0 
0.0 0.0 0.0 
-6.153390128856e-04 -1.232292805415e-04 0.0 
-1.232292805415e-04 1.969773439288e-03 0.0 
0.0 0.0 0.0 
1.989896918132e-03 2.804812076170e-03 0.0 
2.804812076170e-03 -3.052639824288e-03 0.0 
0.0 0.0 0.0 
4.017718139190e-03 4.140976656800e-04 0.0 
4.140976656800e-04 -3.785821812413e-03 0.0 
0.0 0.0 0.0 
2.849753280451e-03 1.933411745503e-03 0.0 
1.933411745503e-03 -1.838781875222e-03 0.0 
0.0 0.0 0.0 
-3.491403006527e-04 -1.961095146148e-03 0.0 
-1.961095146148e-03 2.066090523466e-03 0.0 
0.0 0.0 0.0 
-3.851094516110e-04 1.598459161244e-03 0.0 
1.598459161244e-03 6.642273915568e-03 0.0 
0.0 0.0 0.0 
-3.647675808341e-04 -1.127277280712e-03 0.0 
-1.127277280712e-03 3.972570897260e-03 0.0 
0.0 0.0 0.0 
1.370704113517e-03 -1.038224979265e-03 0.0 
-1.038224979265e-03 9.732620048193e-04 0.0 
0.0 0.0 0.0 
-8.431890590291e-04 2.376559054173e-03 0.0 
2.376559054173e-03 -7.924339087423e-05 0.0 
0.0 0.0 0.0 
-1.283559316735e-03 1.317922384234e-03 0.0 
1.317922384234e-03 3.828491993944e-03 0.0 
0.0 0.0 0.0 
-4.911604812163e-04 -9.979355467562e-04 0.0 
-9.979355467562e-04 4.408428435737e-03 0.0 
0.0 0.0 0.0 
3.091299267960e-03 -7.501116834178e-04 0.0 
-7.501116834178e-04 -2.174148025904e-03 0.0 
0.0 0.0 0.0 
1.597328188848e-03 5.326183234695e-04 0.0 
5.326183234695e-04 1.130959039934e-03 0.0 
0.0 0.0 0.0 
-1.852978179769e-03 -4.046500925990e-04 0.0 
-4.046500925990e-04 4.183885861037e-03 0.0 
0.0 0.0 0.0 
3.471742239980e-04 1.959317768653e-03 0.0 
1.959317768653e-03 3.926036914768e-03 0.0 
0.0 0.0 0.0 
-9.004003220472e-04 1.660316549872e-03 0.0 
1.660316549872e-03 2.435002202899e-03 0.0 
0.0 0.0 0.0 
-5.695259028134e-04 -8.674217719049e-04 0.0 
-8.674217719049e-04 4.797732639436e-03 0.0 
0.0 0.0 0.0 
1.758319146600e-03 -5.815341106134e-04 0.0 
-5.815341106134e-04 5.114266233343e-04 0.0 
0.0 0.0 0.0 
2.651354066533e-03 2.512322155502e-03 0.0 
2.512322155502e-03 -2.147294838243e-03 0.0 
0.0 0.0 0.0 
-1.039059341820e-03 5.373703362788e-05 0.0 
5.373703362788e-05 5.007929213176e-03 0.0 
0.0 0.0 0.0 
-3.848648592861e-04 -8.349533420464e-04 0.0 
-8.349533420464e-04 5.141363029412e-03 0.0 
0.0 0.0 0.0 
1.432402244982e-03 -4.517017935977e-04 0.0 
-4.517017935977e-04 1.240639600027e-03 0.0 
0.0 0.0 0.0 
1.201608294304e-03 2.356867310332e-03 0.0 
2.356867310332e-03 8.967731372761e-04 0.0 
0.0 0.0 0.0 
2.848571969338e-03 -1.175521243589e-03 0.0 
-1.175521243589e-03 -2.021343524708e-03 0.0 
0.0 0.0 0.0 
-1.260120903841e-03 1.200616511980e-03 0.0 
1.200616511980e-03 3.295408838880e-03 0.0 
0.0 0.0 0.0 
-6.295165716392e-04 -1.765515181318e-03 0.0 
-1.765515181318e-03 2.633622249390e-03 0.0 
0.0 0.0 0.0 
8.984631273514e-05 2.352022765515e-03 0.0 
2.352022765515e-03 2.739787909913e-03 0.0 
0.0 0.0 0.0 
-1.945745407264e-04 1.417185113729e-03 0.0 
1.417185113729e-03 7.238019947576e-03 0.0 
0.0 0.0 0.0 
1.349281030595e-03 -1.811616135847e-04 0.0 
-1.811616135847e-04 1.470293778645e-03 0.0 
0.0 0.0 0.0 
-9.834348180607e-04 1.451991252474e-03 0.0 
1.451991252474e-03 5.210985531161e-03 0.0 
0.0 0.0 0.0 
-9.250156839590e-04 -1.679924775725e-03 0.0 
-1.679924775725e-03 2.878603542226e-03 0.0 
0.0 0.0 0.0 
2.130329840547e-03 1.509706343997e-03 0.0 
1.509706343997e-03 -1.084903888400e-04 0.0 
0.0 0.0 0.0 
5.891184916400e-04 -2.510184317769e-04 0.0 
-2.510184317769e-04 6.557555010818e-04 0.0 
0.0 0.0 0.0 
-1.133963058899e-03 1.467503285915e-03 0.0 
1.467503285915e-03 3.149699403752e-03 0.0 
0.0 0.0 0.0 
-1.129614959727e-03 -1.442496954613e-03 0.0 
-1.442496954613e-03 3.345467643753e-03 0.0 
0.0 0.0 0.0 
4.000883590241e-03 -3.448044288748e-04 0.0 
-3.448044288748e-04 -3.698812835071e-03 0.0 
0.0 0.0 0.0 
2.337178335817e-03 -1.453312598139e-03 0.0 
-1.453312598139e-03 -1.419816118678e-03 0.0 
0.0 0.0 0.0 
8.544333335014e-04 1.173206793126e-03 0.0 
1.173206793126e-03 2.632868354008e-03 0.0 
0.0 0.0 0.0 
-1.285786726905e-03 -1.195532020830e-03 0.0 
-1.195532020830e-03 3.755405332851e-03 0.0 
0.0 0.0 0.0 
3.997077594758e-03 -3.428877563246e-04 0.0 
-3.428877563246e-04 -3.477438984017e-03 0.0 
0.0 0.0 0.0 
-1.397155099846e-03 -9.461282265185e-04 0.0 
-9.461282265185e-04 4.108890888497e-03 0.0 
0.0 0.0 0.0 
-1.077264055019e-03 1.355544780742e-03 0.0 
1.355544780742e-03 2.666713207668e-03 0.0 
0.0 0.0 0.0 
-8.593622240125e-04 1.597929398646e-03 0.0 
1.597929398646e-03 5.128375204854e-03 0.0 
0.0 0.0 0.0 
-1.470557301970e-03 -6.950297739192e-04 0.0 
-6.950297739192e-04 4.414417321683e-03 0.0 
0.0 0.0 0.0 
1.541587642350e-04 2.243566176731e-03 0.0 
2.243566176731e-03 3.061179300751e-03 0.0 
0.0 0.0 0.0 
2.133380444566e-04 -5.006386279648e-04 0.0 
-5.006386279648e-04 8.158424938312e-04 0.0 
0.0 0.0 0.0 
1.468685071814e-03 2.165970758169e-03 0.0 
2.165970758169e-03 6.737534011458e-04 0.0 
0.0 0.0 0.0 
-9.242159841390e-04 -3.298157783026e-04 0.0 
-3.298157783026e-04 5.351673957956e-03 0.0 
0.0 0.0 0.0 
3.796179979505e-04 -2.549156549949e-03 0.0 
-2.549156549949e-03 3.705896166042e-04 0.0 
0.0 0.0 0.0 
1.905959192519e-03 -1.668917341497e-03 0.0 
-1.668917341497e-03 -8.418537590556e-04 0.0 
0.0 0.0 0.0 
-7.134226166366e-04 1.653336157946e-03 0.0 
1.653336157946e-03 5.389434738851e-03 0.0 
0.0 0.0 0.0 
-8.520510648293e-04 1.525718300705e-03 0.0 
1.525718300705e-03 2.061433364402e-03 0.0 
0.0 0.0 0.0 
1.766171435382e-03 -1.518621401124e-03 0.0 
-1.518621401124e-03 -3.406325673099e-04 0.0 
0.0 0.0 0.0 
1.857825693901e-04 2.149114101127e-03 0.0 
2.149114101127e-03 3.421591133150e-03 0.0 
0.0 0.0 0.0 
1.670252800056e-03 1.920025325709e-03 0.0 
1.920025325709e-03 5.499241342227e-04 0.0 
0.0 0.0 0.0 
2.665321835981e-03 1.834666603195e-03 0.0 
1.834666603195e-03 -1.425889600101e-03 0.0 
0.0 0.0 0.0 
1.588040593023e-03 -1.268630119536e-03 0.0 
-1.268630119536e-03 3.076171886952e-04 0.0 
0.0 0.0 0.0 
-6.211864780346e-04 1.858247637828e-03 0.0 
1.858247637828e-03 1.752589622490e-03 0.0 
0.0 0.0 0.0 
-3.972123411345e-04 -2.143068324615e-03 0.0 
-2.143068324615e-03 1.170011427268e-03 0.0 
0.0 0.0 0.0 
-4.377497741588e-04 -1.932293566212e-03 0.0 
-1.932293566212e-03 1.144889303622e-03 0.0 
0.0 0.0 0.0 
3.713204470018e-03 -9.450073062981e-04 0.0 
-9.450073062981e-04 -3.157272499365e-03 0.0 
0.0 0.0 0.0 
2.317907198531e-05 2.098011028296e-03 0.0 
2.098011028296e-03 3.971267740173e-03 0.0 
0.0 0.0 0.0 
1.209050815972e-04 -1.899525098634e-04 0.0 
-1.899525098634e-04 1.202045344074e-03 0.0 
0.0 0.0 0.0 
-5.613079075773e-04 1.848360116370e-03 0.0 
1.848360116370e-03 4.884957662386e-03 0.0 
0.0 0.0 0.0 
-4.337308668674e-04 -1.724823324354e-03 0.0 
-1.724823324354e-03 9.535600837311e-04 0.0 
0.0 0.0 0.0 
3.352133700652e-03 -1.542604280406e-03 0.0 
-1.542604280406e-03 -2.940031754382e-03 0.0 
0.0 0.0 0.0 
1.523314726900e-03 1.497761209216e-03 0.0 
1.497761209216e-03 1.196345773298e-03 0.0 
0.0 0.0 0.0 
-9.245091619044e-04 3.553992135943e-05 0.0 
3.553992135943e-05 6.076881181240e-03 0.0 
0.0 0.0 0.0 
2.819068187595e-03 -1.915074841555e-03 0.0 
-1.915074841555e-03 -2.377433864541e-03 0.0 
0.0 0.0 0.0 
-1.095830301040e-03 -1.584853354385e-04 0.0 
-1.584853354385e-04 2.480002849871e-03 0.0 
0.0 0.0 0.0 
2.289542986947e-03 -2.284947234394e-03 0.0 
-2.284947234394e-03 -1.918535711585e-03 0.0 
0.0 0.0 0.0 
2.415383540082e-03 1.712178992788e-03 0.0 
1.712178992788e-03 -8.264050288742e-04 0.0 
0.0 0.0 0.0 
1.700565163363e-03 -2.360000904399e-03 0.0 
-2.360000904399e-03 -1.179160186787e-03 0.0 
0.0 0.0 0.0 
1.211428837606e-03 -2.526716764580e-03 0.0 
-2.526716764580e-03 -6.602889167446e-04 0.0 
0.0 0.0 0.0 
-3.655166713142e-04 5.092952541847e-04 0.0 
5.092952541847e-04 7.537765451815e-03 0.0 
0.0 0.0 0.0 
8.049950097233e-04 -2.532833581059e-03 0.0 
-2.532833581059e-03 -9.192645854435e-05 0.0 
0.0 0.0 0.0 
-1.710332392169e-04 1.497218791389e-04 0.0 
1.497218791389e-04 7.887796962476e-03 0.0 
0.0 0.0 0.0 
-3.262705300986e-04 -3.038418499647e-04 0.0 
-3.038418499647e-04 5.793489832343e-03 0.0 
0.0 0.0 0.0 
-1.015761870451e-03 2.275028227576e-05 0.0 
2.275028227576e-05 5.318513209586e-03 0.0 
0.0 0.0 0.0 
-6.385166900878e-04 1.637994188403e-03 0.0 
1.637994188403e-03 1.542719448121e-03 0.0 
0.0 0.0 0.0 
-1.495728841634e-03 2.463487562937e-05 0.0 
2.463487562937e-05 -4.067381508213e-03 0.0 
0.0 0.0 0.0 
-3.055783341025e-04 2.099892743931e-03 0.0 
2.099892743931e-03 1.062613528249e-03 0.0 
0.0 0.0 0.0 
2.967121731409e-04 -2.576891607448e-03 0.0 
-2.576891607448e-03 3.492624265917e-04 0.0 
0.0 0.0 0.0 
-3.327073551392e-04 2.026013046427e-03 0.0 
2.026013046427e-03 4.290186419655e-03 0.0 
0.0 0.0 0.0 
-1.020973655777e-03 6.093443774220e-05 0.0 
6.093443774220e-05 5.333119085021e-03 0.0 
0.0 0.0 0.0 
-9.872354669301e-05 -2.422011011913e-03 0.0 
-2.422011011913e-03 8.058811443210e-04 0.0 
0.0 0.0 0.0 
-1.897995322197e-04 2.024568895374e-03 0.0 
2.024568895374e-03 5.718733034082e-03 0.0 
0.0 0.0 0.0 
2.523073137786e-04 1.809104701441e-03 0.0 
1.809104701441e-03 4.024868702908e-03 0.0 
0.0 0.0 0.0 
-7.990187397264e-04 1.122358827481e-04 0.0 
1.122358827481e-04 6.589344370414e-03 0.0 
0.0 0.0 0.0 
1.422303096896e-03 3.050356822032e-04 0.0 
3.050356822032e-04 1.409751757759e-03 0.0 
0.0 0.0 0.0 
1.789429575497e-03 1.640027116056e-03 0.0 
1.640027116056e-03 5.347553050462e-04 0.0 
0.0 0.0 0.0 
-4.875950431868e-04 7.346029975552e-05 0.0 
7.346029975552e-05 7.363156666575e-03 0.0 
0.0 0.0 0.0 
-1.112982349536e-03 1.356735140498e-04 0.0 
1.356735140498e-04 4.964230026958e-03 0.0 
0.0 0.0 0.0 
-3.496123851342e-04 -8.198547951655e-04 0.0 
-8.198547951655e-04 6.466197161424e-04 0.0 
0.0 0.0 0.0 
-1.467697411796e-03 -2.093581168155e-04 0.0 
-2.093581168155e-04 4.859026210386e-03 0.0 
0.0 0.0 0.0 
-4.819803488359e-04 1.780403357806e-03 0.0 
1.780403357806e-03 1.092801343486e-03 0.0 
0.0 0.0 0.0 
-1.312384338337e-04 2.237559295680e-03 0.0 
2.237559295680e-03 5.387760825421e-04 0.0 
0.0 0.0 0.0 
-3.126725768489e-05 2.492550939532e-03 0.0 
2.492550939532e-03 4.248449968747e-05 0.0 
0.0 0.0 0.0 
-1.483800492455e-03 -6.329306952565e-04 0.0 
-6.329306952565e-04 2.907486204758e-03 0.0 
0.0 0.0 0.0 
-4.644825596032e-04 -2.554475339514e-03 0.0 
-2.554475339514e-03 4.673360399692e-04 0.0 
0.0 0.0 0.0 
-3.976033261036e-04 1.962738631495e-03 0.0 
1.962738631495e-03 7.121978174222e-04 0.0 
0.0 0.0 0.0 
8.499480916292e-04 4.919795905059e-04 0.0 
4.919795905059e-04 2.479169510981e-03 0.0 
0.0 0.0 0.0 
-1.215054149563e-03 3.965133664943e-04 0.0 
3.965133664943e-04 5.237021426808e-03 0.0 
0.0 0.0 0.0 
1.241112914853e-03 1.612553973521e-03 0.0 
1.612553973521e-03 1.767740136574e-03 0.0 
0.0 0.0 0.0 
-5.068848790035e-04 2.131363051607e-03 0.0 
2.131363051607e-03 4.191590282577e-04 0.0 
0.0 0.0 0.0 
-3.964249623073e-04 1.183344333900e-03 0.0 
1.183344333900e-03 7.153709773608e-03 0.0 
0.0 0.0 0.0 
6.407157429292e-04 1.519207659935e-03 0.0 
1.519207659935e-03 3.105801467538e-03 0.0 
0.0 0.0 0.0 
-1.054781622678e-05 -1.094638567390e-03 0.0 
-1.094638567390e-03 4.659498675191e-03 0.0 
0.0 0.0 0.0 
9.753306727725e-04 1.538000472438e-03 0.0 
1.538000472438e-03 2.391512200164e-03 0.0 
0.0 0.0 0.0 
3.098219543120e-05 2.913056270701e-03 0.0 
2.913056270701e-03 -6.424978862264e-04 0.0 
0.0 0.0 0.0 
-1.259900570572e-03 8.270344891133e-04 0.0 
8.270344891133e-04 5.290964805324e-03 0.0 
0.0 0.0 0.0 
1.374026944434e-04 2.099410933679e-03 0.0 
2.099410933679e-03 4.549431896128e-03 0.0 
0.0 0.0 0.0 
-7.242530164011e-04 1.841883499515e-04 0.0 
1.841883499515e-04 6.847541147193e-03 0.0 
0.0 0.0 0.0 
-1.140987316000e-04 -1.015805933208e-03 0.0 
-1.015805933208e-03 5.083510288991e-03 0.0 
0.0 0.0 0.0 
-1.286519001324e-03 5.522474225330e-04 0.0 
5.522474225330e-04 5.105567065621e-03 0.0 
0.0 0.0 0.0 
-3.218273781697e-04 3.378429071961e-04 0.0 
3.378429071961e-04 7.627237704600e-03 0.0 
0.0 0.0 0.0 
2.735367372698e-03 -2.445016444069e-03 0.0 
-2.445016444069e-03 -3.940284536962e-03 0.0 
0.0 0.0 0.0 
-3.110721251096e-04 1.765614866449e-04 0.0 
1.765614866449e-04 7.658745924783e-03 0.0 
0.0 0.0 0.0 
-2.420663724812e-04 2.017375189742e-03 0.0 
2.017375189742e-03 4.597505893068e-03 0.0 
0.0 0.0 0.0 
-1.009720797367e-03 1.883002115290e-04 0.0 
1.883002115290e-04 5.790509600269e-03 0.0 
0.0 0.0 0.0 
-1.269698781033e-03 1.072787253229e-03 0.0 
1.072787253229e-03 5.049262382564e-03 0.0 
0.0 0.0 0.0 
-4.878228087646e-04 -4.584627178213e-04 0.0 
-4.584627178213e-04 5.591455763587e-03 0.0 
0.0 0.0 0.0 
-2.981304273487e-04 1.853717681070e-03 0.0 
1.853717681070e-03 6.210872168632e-03 0.0 
0.0 0.0 0.0 
1.582712181009e-04 3.188689355344e-03 0.0 
3.188689355344e-03 -1.517831029228e-03 0.0 
0.0 0.0 0.0 
-8.182186912586e-04 1.736280705570e-04 0.0 
1.736280705570e-04 6.563674305578e-03 0.0 
0.0 0.0 0.0 
-1.651162251266e-03 -1.005288071728e-03 0.0 
-1.005288071728e-03 3.227408659946e-03 0.0 
0.0 0.0 0.0 
6.471099126706e-04 -2.010935200942e-03 0.0 
-2.010935200942e-03 -4.031961877642e-03 0.0 
0.0 0.0 0.0 
2.063387466845e-04 -1.013442995006e-03 0.0 
-1.013442995006e-03 3.785969262103e-03 0.0 
0.0 0.0 0.0 
-1.703310958055e-04 2.028809043309e-03 0.0 
2.028809043309e-03 4.912889388921e-03 0.0 
0.0 0.0 0.0 
-4.278441856417e-04 -7.121912650568e-04 0.0 
-7.121912650568e-04 5.353171677057e-03 0.0 
0.0 0.0 0.0 
7.641201310574e-04 -1.667381552872e-05 0.0 
-1.667381552872e-05 6.004610828441e-04 0.0 
0.0 0.0 0.0 
1.335324793435e-04 -4.892335498374e-04 0.0 
-4.892335498374e-04 4.220659094254e-04 0.0 
0.0 0.0 0.0 
4.180633771274e-04 -8.285598704029e-04 0.0 
-8.285598704029e-04 3.352822590522e-03 0.0 
0.0 0.0 0.0 
-5.550299567758e-05 2.119531715984e-03 0.0 
2.119531715984e-03 5.239125804598e-03 0.0 
0.0 0.0 0.0 
2.280810188170e-03 -3.011664024931e-03 0.0 
-3.011664024931e-03 -2.809669071587e-03 0.0 
0.0 0.0 0.0 
-1.714808733956e-04 1.051635233954e-03 0.0 
1.051635233954e-03 7.585057242852e-03 0.0 
0.0 0.0 0.0 
-2.551537384436e-04 2.880044167551e-03 0.0 
2.880044167551e-03 -2.261212991319e-03 0.0 
0.0 0.0 0.0 
-1.176851094970e-03 2.152392802961e-04 0.0 
2.152392802961e-04 4.900520858950e-03 0.0 
0.0 0.0 0.0 
7.143666811277e-04 -3.909699970951e-04 0.0 
-3.909699970951e-04 2.382380286142e-04 0.0 
0.0 0.0 0.0 
-1.634020261820e-04 -8.927570109742e-04 0.0 
-8.927570109742e-04 5.353440130312e-03 0.0 
0.0 0.0 0.0 
-3.531493708490e-04 8.030799669201e-04 0.0 
8.030799669201e-04 7.461629796161e-03 0.0 
0.0 0.0 0.0 
-1.844326066743e-03 -6.785942280965e-04 0.0 
-6.785942280965e-04 3.669453837213e-03 0.0 
0.0 0.0 0.0 
-1.402485528007e-03 8.992160055687e-04 0.0 
8.992160055687e-04 4.579356725376e-03 0.0 
0.0 0.0 0.0 
-1.323674029415e-03 -3.731428229984e-04 0.0 
-3.731428229984e-04 2.744523237090e-03 0.0 
0.0 0.0 0.0 
5.300384435404e-04 1.918579880415e-03 0.0 
1.918579880415e-03 3.379832661974e-03 0.0 
0.0 0.0 0.0 
-5.363163613222e-04 -1.407389761385e-03 0.0 
-1.407389761385e-03 8.425393566422e-04 0.0 
0.0 0.0 0.0 
-3.251133971235e-04 6.018345785056e-04 0.0 
6.018345785056e-04 7.582190411174e-03 0.0 
0.0 0.0 0.0 
5.948652111557e-04 -4.837387179475e-04 0.0 
-4.837387179475e-04 2.965545422744e-03 0.0 
0.0 0.0 0.0 
-3.456640449428e-04 1.523734166489e-03 0.0 
1.523734166489e-03 6.859620975160e-03 0.0 
0.0 0.0 0.0 
3.295688568915e-04 9.653570801578e-04 0.0 
9.653570801578e-04 3.466947263567e-03 0.0 
0.0 0.0 0.0 
3.347298681654e-04 7.624115179144e-04 0.0 
7.624115179144e-04 -4.491927167237e-03 0.0 
0.0 0.0 0.0 
4.849003066701e-04 1.688933201350e-03 0.0 
1.688933201350e-03 3.490619217147e-03 0.0 
0.0 0.0 0.0 
1.050893318888e-03 -1.321915098320e-04 0.0 
-1.321915098320e-04 2.090782360981e-03 0.0 
0.0 0.0 0.0 
-1.075602268714e-03 1.031234668073e-04 0.0 
1.031234668073e-04 4.970001407886e-03 0.0 
0.0 0.0 0.0 
-3.287998166420e-04 1.711981308608e-03 0.0 
1.711981308608e-03 6.513455239100e-03 0.0 
0.0 0.0 0.0 
-1.659475398320e-03 -6.525935644537e-04 0.0 
-6.525935644537e-04 3.184957801335e-03 0.0 
0.0 0.0 0.0 
-4.239714843168e-05 -4.978268026541e-04 0.0 
-4.978268026541e-04 1.162195504898e-03 0.0 
0.0 0.0 0.0 
-1.398695143655e-04 7.191261298207e-05 0.0 
7.191261298207e-05 7.925600466125e-03 0.0 
0.0 0.0 0.0 
2.155406049823e-03 -1.716115171893e-06 0.0 
-1.716115171893e-06 -7.178337317664e-04 0.0 
0.0 0.0 0.0 
-1.028191834913e-03 1.075388847287e-05 0.0 
1.075388847287e-05 4.954310953027e-03 0.0 
0.0 0.0 0.0 
-2.598625537318e-04 -1.354485667782e-04 0.0 
-1.354485667782e-04 5.879013659160e-03 0.0 
0.0 0.0 0.0 
2.083665382013e-04 -2.604786422929e-04 0.0 
-2.604786422929e-04 1.066356156654e-03 0.0 
0.0 0.0 0.0 
-9.963497209268e-04 5.643412048700e-05 0.0 
5.643412048700e-05 5.606536799672e-03 0.0 
0.0 0.0 0.0 
-1.177871462129e-04 2.087061196943e-03 0.0 
2.087061196943e-03 5.522389752893e-03 0.0 
0.0 0.0 0.0 
-1.861236047421e-03 -1.831584457166e-04 0.0 
-1.831584457166e-04 4.279827410863e-03 0.0 
0.0 0.0 0.0 
-5.712128121485e-04 1.216682587737e-04 0.0 
1.216682587737e-04 7.181018200361e-03 0.0 
0.0 0.0 0.0 
1.290026836654e-04 -3.118841258289e-03 0.0 
-3.118841258289e-03 -3.265906166016e-04 0.0 
0.0 0.0 0.0 
-1.746269679575e-03 -6.573977816029e-04 0.0 
-6.573977816029e-04 -3.858174054221e-03 0.0 
0.0 0.0 0.0 
-8.872015832008e-04 7.919493839922e-05 0.0 
7.919493839922e-05 6.268032411525e-03 0.0 
0.0 0.0 0.0 
6.414147559933e-04 1.344020426718e-03 0.0 
1.344020426718e-03 3.030291111181e-03 0.0 
0.0 0.0 0.0 
-3.477105291819e-04 1.302192377414e-03 0.0 
1.302192377414e-03 7.132283639411e-03 0.0 
0.0 0.0 0.0 
-9.667199414455e-04 1.773885889256e-04 0.0 
1.773885889256e-04 6.000297905148e-03 0.0 
0.0 0.0 0.0 
1.213538971239e-03 3.127640659980e-03 0.0 
3.127640659980e-03 -2.598547591084e-03 0.0 
0.0 0.0 0.0 
-1.234963025947e-04 2.070234441053e-03 0.0 
2.070234441053e-03 5.175137222040e-03 0.0 
0.0 0.0 0.0 
-1.837192213383e-03 -6.928050141920e-04 0.0 
-6.928050141920e-04 3.809602262682e-03 0.0 
0.0 0.0 0.0 
2.454275793366e-04 2.063935704513e-03 0.0 
2.063935704513e-03 4.084180305708e-03 0.0 
0.0 0.0 0.0 
1.113936336986e-03 3.311184919189e-04 0.0 
3.311184919189e-04 2.008009203520e-03 0.0 
0.0 0.0 0.0 
-1.422686729653e-03 2.425210454284e-03 0.0 
2.425210454284e-03 -1.432713196153e-03 0.0 
0.0 0.0 0.0 
-1.773861029721e-03 -1.522530420592e-04 0.0 
-1.522530420592e-04 4.456656237845e-03 0.0 
0.0 0.0 0.0 
5.840363589175e-04 -4.212558660804e-04 0.0 
-4.212558660804e-04 2.426383475225e-04 0.0 
0.0 0.0 0.0 
-7.298235255331e-05 -1.063372822815e-03 0.0 
-1.063372822815e-03 4.543402131273e-03 0.0 
0.0 0.0 0.0 
-1.881039267928e-03 -4.851932298146e-04 0.0 
-4.851932298146e-04 3.995126571554e-03 0.0 
0.0 0.0 0.0 
-1.485168218267e-03 6.184387188280e-04 0.0 
6.184387188280e-04 1.186367954165e-03 0.0 
0.0 0.0 0.0 
-2.976085742895e-04 1.458405420516e-06 0.0 
1.458405420516e-06 2.444530552057e-04 0.0 
0.0 0.0 0.0 
-9.770362329966e-04 1.192120252000e-03 0.0 
1.192120252000e-03 8.203824804806e-04 0.0 
0.0 0.0 0.0 
-4.043162452194e-04 -1.303741052953e-05 0.0 
-1.303741052953e-05 6.712348574240e-04 0.0 
0.0 0.0 0.0 
-7.104669436724e-04 1.343621722861e-03 0.0 
1.343621722861e-03 8.721324814929e-04 0.0 
0.0 0.0 0.0 
-5.132734504062e-04 -9.699057304642e-06 0.0 
-9.699057304642e-06 1.192090730708e-03 0.0 
0.0 0.0 0.0 
-6.232412221601e-04 1.400654500082e-03 0.0 
1.400654500082e-03 1.077272909444e-03 0.0 
0.0 0.0 0.0 
-6.209567638038e-04 -1.750796460380e-05 0.0 
-1.750796460380e-05 1.639878577573e-03 0.0 
0.0 0.0 0.0 
-6.915326751609e-04 1.328325257713e-03 0.0 
1.328325257713e-03 1.392888061704e-03 0.0 
0.0 0.0 0.0 
-7.182044748774e-04 -1.153649370187e-05 0.0 
-1.153649370187e-05 2.162131530490e-03 0.0 
0.0 0.0 0.0 
-8.512707687970e-04 1.211226448016e-03 0.0 
1.211226448016e-03 1.818107446563e-03 0.0 
0.0 0.0 0.0 
-7.983683732304e-04 -1.227629308671e-05 0.0 
-1.227629308671e-05 2.602246228948e-03 0.0 
0.0 0.0 0.0 
-1.057629868114e-03 1.068573126274e-03 0.0 
1.068573126274e-03 2.335367373615e-03 0.0 
0.0 0.0 0.0 
-8.691390407999e-04 -1.013163618614e-05 0.0 
-1.013163618614e-05 3.104422769985e-03 0.0 
0.0 0.0 0.0 
-1.239529251399e-03 9.478546686047e-04 0.0 
9.478546686047e-04 2.885192801237e-03 0.0 
0.0 0.0 0.0 
-9.315207029823e-04 -6.937754821621e-06 0.0 
-6.937754821621e-06 3.534859419152e-03 0.0 
0.0 0.0 0.0 
-1.382117428752e-03 8.433209441856e-04 0.0 
8.433209441856e-04 3.456125900961e-03 0.0 
0.0 0.0 0.0 
-9.810151215702e-04 -1.857318460531e-06 0.0 
-1.857318460531e-06 4.017103278807e-03 0.0 
0.0 0.0 0.0 
-1.468573174018e-03 7.842901104396e-04 0.0 
7.842901104396e-04 4.001992182036e-03 0.0 
0.0 0.0 0.0 
-1.017796940134e-03 9.278505495363e-06 0.0 
9.278505495363e-06 4.429202608272e-03 0.0 
0.0 0.0 0.0 

TENSORS node_materi_strain_plasti float
2.934499401238e-03 -6.293764513238e-05 0.0 
-6.293764513238e-05 -1.067748591947e-03 0.0 
0.0 0.0 -1.096634683480e-04 
-1.402797370443e-03 -1.078294972551e-04 0.0 
-1.078294972551e-04 4.900277451411e-03 0.0 
0.0 0.0 -6.959116756397e-04 
-1.452967895051e-03 -5.509598229541e-05 0.0 
-5.509598229541e-05 7.203997768270e-03 0.0 
0.0 0.0 -1.332621093165e-03 
-1.383162840862e-03 -3.297498286580e-05 0.0 
-3.297498286580e-05 8.816768276200e-03 0.0 
0.0 0.0 -1.332621093165e-03 
2.013745495957e-03 -6.316916865917e-05 0.0 
-6.316916865917e-05 -5.120452549012e-04 0.0 
0.0 0.0 -2.200719611176e-04 
9.770148188976e-04 3.431498766894e-05 0.0 
3.431498766894e-05 4.169221136190e-04 0.0 
0.0 0.0 -3.137585542919e-04 
-7.178028314759e-05 -1.232028049948e-08 0.0 
-1.232028049948e-08 1.149279144839e-03 0.0 
0.0 0.0 -2.794359002296e-04 
-6.436375512209e-04 -1.276790241492e-05 0.0 
-1.276790241492e-05 1.873669559697e-03 0.0 
0.0 0.0 -3.439875543896e-04 
-7.879199919424e-04 -6.957800867177e-05 0.0 
-6.957800867177e-05 2.362265819291e-03 0.0 
0.0 0.0 -5.230155850880e-04 
-9.090757292185e-04 -8.706192601079e-05 0.0 
-8.706192601079e-05 2.790274002592e-03 0.0 
0.0 0.0 -6.679173279409e-04 
-1.029732123068e-03 -9.763895695819e-05 0.0 
-9.763895695819e-05 3.189834221624e-03 0.0 
0.0 0.0 -7.858430676574e-04 
-1.146480183378e-03 -1.186695020361e-04 0.0 
-1.186695020361e-04 3.556707151380e-03 0.0 
0.0 0.0 -8.797909670055e-04 
-1.263272361791e-03 -1.272958726748e-04 0.0 
-1.272958726748e-04 3.899470374148e-03 0.0 
0.0 0.0 -9.497524971825e-04 
-1.384672616284e-03 -1.145152012545e-04 0.0 
-1.145152012545e-04 4.236966414279e-03 0.0 
0.0 0.0 -1.004045332643e-03 
-1.526674903082e-03 -6.496102058636e-05 0.0 
-6.496102058636e-05 4.605045077914e-03 0.0 
0.0 0.0 -1.040527029177e-03 
-1.665462947768e-03 -2.107388054909e-05 0.0 
-2.107388054909e-05 4.948618842847e-03 0.0 
0.0 0.0 -1.059523297737e-03 
-1.782894097401e-03 -3.343512703910e-06 0.0 
-3.343512703910e-06 5.233549116132e-03 0.0 
0.0 0.0 -1.072054170059e-03 
-1.938902930101e-03 -9.696053467476e-05 0.0 
-9.696053467476e-05 5.600248017308e-03 0.0 
0.0 0.0 -1.073655443973e-03 
-2.100363589718e-03 -8.662704783515e-05 0.0 
-8.662704783515e-05 5.970821215845e-03 0.0 
0.0 0.0 -1.067605311830e-03 
-2.135124898814e-03 -7.268436157999e-05 0.0 
-7.268436157999e-05 6.300803109141e-03 0.0 
0.0 0.0 -1.091655094700e-03 
-2.004143563035e-03 -6.534761213825e-05 0.0 
-6.534761213825e-05 6.588381292475e-03 0.0 
0.0 0.0 -1.158330123333e-03 
-1.835283495390e-03 -5.008648858264e-05 0.0 
-5.008648858264e-05 6.864752160644e-03 0.0 
0.0 0.0 -1.226073836101e-03 
-1.640741500190e-03 -2.858138524020e-05 0.0 
-2.858138524020e-05 7.123085926045e-03 0.0 
0.0 0.0 -1.289832767750e-03 
-1.368677421570e-03 1.600785886141e-04 0.0 
1.600785886141e-04 8.818553082708e-03 0.0 
0.0 0.0 -1.336902025401e-03 
-1.377365391022e-03 2.999124352866e-04 0.0 
2.999124352866e-04 8.800585598907e-03 0.0 
0.0 0.0 -1.332945767435e-03 
-1.378029629414e-03 3.844218527142e-04 0.0 
3.844218527142e-04 8.780564209488e-03 0.0 
0.0 0.0 -1.334903170087e-03 
-1.378699113984e-03 6.281396802948e-04 0.0 
6.281396802948e-04 8.766528136653e-03 0.0 
0.0 0.0 -1.334459899807e-03 
-1.385861616700e-03 7.361442488981e-04 0.0 
7.361442488981e-04 8.736115872586e-03 0.0 
0.0 0.0 -1.332067731643e-03 
-1.380170718422e-03 9.112443166240e-04 0.0 
9.112443166240e-04 8.705993944759e-03 0.0 
0.0 0.0 -1.335050935171e-03 
-1.376694153872e-03 1.085769035599e-03 0.0 
1.085769035599e-03 8.675777653225e-03 0.0 
0.0 0.0 -1.335055123498e-03 
-1.386603367251e-03 1.256067884305e-03 0.0 
1.256067884305e-03 8.631282104952e-03 0.0 
0.0 0.0 -1.333530254363e-03 
-1.385927681412e-03 1.401216317866e-03 0.0 
1.401216317866e-03 8.584979043230e-03 0.0 
0.0 0.0 -1.336259905589e-03 
-1.382886472311e-03 1.656515799073e-03 0.0 
1.656515799073e-03 8.524207830888e-03 0.0 
0.0 0.0 -1.335712483792e-03 
-1.394014418558e-03 1.806002472474e-03 0.0 
1.806002472474e-03 8.445999086005e-03 0.0 
0.0 0.0 -1.333313947604e-03 
-1.390408237112e-03 2.011066343467e-03 0.0 
2.011066343467e-03 8.361388601017e-03 0.0 
0.0 0.0 -1.335862559377e-03 
-1.384222329824e-03 2.219576262539e-03 0.0 
2.219576262539e-03 8.276324698237e-03 0.0 
0.0 0.0 -1.336097458551e-03 
-1.389035125892e-03 2.412450494632e-03 0.0 
2.412450494632e-03 8.157453667495e-03 0.0 
0.0 0.0 -1.335235043394e-03 
-1.385735689378e-03 2.596152172723e-03 0.0 
2.596152172723e-03 8.026403168300e-03 0.0 
0.0 0.0 -1.334297546486e-03 
-1.387385464636e-03 2.793709716201e-03 0.0 
2.793709716201e-03 7.870413974245e-03 0.0 
0.0 0.0 -1.332308435384e-03 
-1.390045521020e-03 2.956478596536e-03 0.0 
2.956478596536e-03 7.707669454312e-03 0.0 
0.0 0.0 -1.332019584455e-03 
-1.374441407390e-03 3.130356841580e-03 0.0 
3.130356841580e-03 7.548288379511e-03 0.0 
0.0 0.0 -1.333392124151e-03 
-1.370916614240e-03 3.263121805825e-03 0.0 
3.263121805825e-03 7.369253492750e-03 0.0 
0.0 0.0 -1.334727449481e-03 
-1.360841402714e-03 3.372289688876e-03 0.0 
3.372289688876e-03 7.166176364928e-03 0.0 
0.0 0.0 -1.336576889699e-03 
-1.346336485325e-03 3.461253780169e-03 0.0 
3.461253780169e-03 6.951403103377e-03 0.0 
0.0 0.0 -1.335888391555e-03 
-1.332890796825e-03 3.468370162717e-03 0.0 
3.468370162717e-03 6.730314385053e-03 0.0 
0.0 0.0 -1.334783226448e-03 
-1.319924003398e-03 3.447235553293e-03 0.0 
3.447235553293e-03 6.491181615044e-03 0.0 
0.0 0.0 -1.335053869153e-03 
-1.304557536433e-03 3.357836383275e-03 0.0 
3.357836383275e-03 6.252969737423e-03 0.0 
0.0 0.0 -1.334960189349e-03 
-1.290544710403e-03 3.217570000044e-03 0.0 
3.217570000044e-03 6.038359705784e-03 0.0 
0.0 0.0 -1.334889991128e-03 
-1.266052279295e-03 3.015967340183e-03 0.0 
3.015967340183e-03 5.820251815716e-03 0.0 
0.0 0.0 -1.335774086633e-03 
-1.268292395628e-03 2.751499810292e-03 0.0 
2.751499810292e-03 5.611006951901e-03 0.0 
0.0 0.0 -1.336605656894e-03 
-1.233716587758e-03 2.428663332176e-03 0.0 
2.428663332176e-03 5.432453778555e-03 0.0 
0.0 0.0 -1.336508443943e-03 
-1.235192718271e-03 2.048692266400e-03 0.0 
2.048692266400e-03 5.281516895731e-03 0.0 
0.0 0.0 -1.335343284290e-03 
-1.233233161047e-03 1.613443115418e-03 0.0 
1.613443115418e-03 5.176753839955e-03 0.0 
0.0 0.0 -1.337998490269e-03 
-1.231527167288e-03 1.237296422517e-03 0.0 
1.237296422517e-03 5.075978590578e-03 0.0 
0.0 0.0 -1.337247094005e-03 
-1.199833465241e-03 7.660071193524e-04 0.0 
7.660071193524e-04 4.984249579952e-03 0.0 
0.0 0.0 -1.333783489999e-03 
-1.202795443341e-03 2.512512957567e-04 0.0 
2.512512957567e-04 4.957451962835e-03 0.0 
0.0 0.0 -1.334548731617e-03 
-1.209938913942e-03 -2.134028709971e-04 0.0 
-2.134028709971e-04 5.026425426342e-03 0.0 
0.0 0.0 -1.334619746794e-03 
-1.216034057197e-03 -6.370386973179e-04 0.0 
-6.370386973179e-04 5.098251117921e-03 0.0 
0.0 0.0 -1.335242115105e-03 
-1.250273571860e-03 -1.037169625291e-03 0.0 
-1.037169625291e-03 5.212102119693e-03 0.0 
0.0 0.0 -1.335691437541e-03 
-1.244652277412e-03 -1.350985257247e-03 0.0 
-1.350985257247e-03 5.369562904984e-03 0.0 
0.0 0.0 -1.335646478247e-03 
-1.280185566221e-03 -1.619011709695e-03 0.0 
-1.619011709695e-03 5.525208807417e-03 0.0 
0.0 0.0 -1.334931242407e-03 
-1.279873673449e-03 -1.816253781483e-03 0.0 
-1.816253781483e-03 5.699667194469e-03 0.0 
0.0 0.0 -1.334100791702e-03 
-1.316092894892e-03 -1.930306284798e-03 0.0 
-1.930306284798e-03 5.897360744271e-03 0.0 
0.0 0.0 -1.332237298415e-03 
-1.332492949627e-03 -1.997739486340e-03 0.0 
-1.997739486340e-03 6.101236304603e-03 0.0 
0.0 0.0 -1.333749945600e-03 
-1.347535005711e-03 -1.949980560505e-03 0.0 
-1.949980560505e-03 6.326575568891e-03 0.0 
0.0 0.0 -1.336652505695e-03 
-1.361718678089e-03 -1.883685554895e-03 0.0 
-1.883685554895e-03 6.509663460433e-03 0.0 
0.0 0.0 -1.337094627689e-03 
-1.399643089063e-03 -1.709140483279e-03 0.0 
-1.709140483279e-03 6.643034708910e-03 0.0 
0.0 0.0 -1.328990728106e-03 
-1.392288690639e-03 -1.485263022766e-03 0.0 
-1.485263022766e-03 6.836967868930e-03 0.0 
0.0 0.0 -1.335900064369e-03 
-1.414556676199e-03 -1.251540022059e-03 0.0 
-1.251540022059e-03 6.954271934946e-03 0.0 
0.0 0.0 -1.332523500780e-03 
-1.412496609790e-03 -1.031814538929e-03 0.0 
-1.031814538929e-03 7.047562735813e-03 0.0 
0.0 0.0 -1.335219049675e-03 
-1.419510763784e-03 -6.645626228058e-04 0.0 
-6.645626228058e-04 7.146959411296e-03 0.0 
0.0 0.0 -1.336566422126e-03 
-1.427684607805e-03 -3.887077461759e-04 0.0 
-3.887077461759e-04 7.195451913880e-03 0.0 
0.0 0.0 -1.335855682064e-03 
-1.453017564014e-03 -6.969271926299e-05 0.0 
-6.969271926299e-05 5.335351891541e-03 0.0 
0.0 0.0 -7.648954205800e-04 
-1.520880417330e-03 -7.433446925198e-05 0.0 
-7.433446925198e-05 5.819919600560e-03 0.0 
0.0 0.0 -8.298981322982e-04 
-1.557423966696e-03 -6.785219458369e-05 0.0 
-6.785219458369e-05 6.258440284560e-03 0.0 
0.0 0.0 -8.959277352460e-04 
-1.578985001560e-03 -6.738694350763e-05 0.0 
-6.738694350763e-05 6.671688470532e-03 0.0 
0.0 0.0 -9.610467530554e-04 
-1.585789406967e-03 -5.141559601497e-05 0.0 
-5.141559601497e-05 7.089803706817e-03 0.0 
0.0 0.0 -1.026987810050e-03 
-1.562649818793e-03 -5.245167551875e-05 0.0 
-5.245167551875e-05 7.497011482479e-03 0.0 
0.0 0.0 -1.092790196867e-03 
-1.539445803207e-03 -3.968004133447e-05 0.0 
-3.968004133447e-05 7.888080790164e-03 0.0 
0.0 0.0 -1.158290425478e-03 
-1.493157212652e-03 -4.236338247705e-05 0.0 
-4.236338247705e-05 8.249034422054e-03 0.0 
0.0 0.0 -1.224481705251e-03 
-1.439591118906e-03 -4.822262499776e-05 0.0 
-4.822262499776e-05 8.655254164316e-03 0.0 
0.0 0.0 -1.288782062784e-03 
-7.688135355296e-05 1.215361955309e-04 0.0 
1.215361955309e-04 9.296752508865e-05 0.0 
0.0 0.0 -6.894073515298e-06 
-2.814104743850e-05 -8.551491209005e-05 0.0 
-8.551491209005e-05 1.280860976049e-04 0.0 
0.0 0.0 -4.283359292847e-05 
-1.624278093923e-03 1.090396231210e-03 0.0 
1.090396231210e-03 4.601022683819e-03 0.0 
0.0 0.0 -7.280202007920e-04 
5.444071892523e-06 6.928344227160e-04 0.0 
6.928344227160e-04 4.574007872944e-04 0.0 
0.0 0.0 -1.983620825087e-04 
1.260189971784e-04 1.413664752255e-03 0.0 
1.413664752255e-03 7.032628037711e-04 0.0 
0.0 0.0 -3.554064861212e-04 
1.125196749487e-04 1.658713971292e-03 0.0 
1.658713971292e-03 8.740061698570e-04 0.0 
0.0 0.0 -4.227967906310e-04 
-5.064027901580e-05 1.636532375328e-03 0.0 
1.636532375328e-03 1.145388155645e-03 0.0 
0.0 0.0 -4.691776614124e-04 
-2.686288214637e-04 1.584200308986e-03 0.0 
1.584200308986e-03 1.584793069977e-03 0.0 
0.0 0.0 -5.640703922202e-04 
-4.987456418830e-04 1.585377040139e-03 0.0 
1.585377040139e-03 2.175609205872e-03 0.0 
0.0 0.0 -7.186558131380e-04 
-7.693623021415e-04 1.545850130620e-03 0.0 
1.545850130620e-03 2.800183439925e-03 0.0 
0.0 0.0 -7.884857694893e-04 
-1.068442602319e-03 1.392543525831e-03 0.0 
1.392543525831e-03 3.387126047545e-03 0.0 
0.0 0.0 -7.502339878794e-04 
-1.352818007869e-03 1.227157706519e-03 0.0 
1.227157706519e-03 3.981454431592e-03 0.0 
0.0 0.0 -7.303644794522e-04 
-1.076536999727e-04 -8.527359695718e-05 0.0 
-8.527359695718e-05 3.784512774659e-04 0.0 
0.0 0.0 -1.128343737096e-04 
-2.955627832917e-04 -1.717540023557e-04 0.0 
-1.717540023557e-04 9.026184445934e-04 0.0 
0.0 0.0 -1.999630834833e-04 
-4.978355054856e-04 -1.617196165735e-04 0.0 
-1.617196165735e-04 1.420827660146e-03 0.0 
0.0 0.0 -2.481304124614e-04 
-6.523899398366e-04 -2.144599340885e-04 0.0 
-2.144599340885e-04 1.928599373842e-03 0.0 
0.0 0.0 -3.065644285115e-04 
-8.254529843557e-04 -1.769995152719e-04 0.0 
-1.769995152719e-04 2.443834664170e-03 0.0 
0.0 0.0 -3.600000000000e-04 
-9.532376032239e-04 -2.185094811376e-04 0.0 
-2.185094811376e-04 2.944932670617e-03 0.0 
0.0 0.0 -4.266666666667e-04 
-1.074369705335e-03 -1.739013270640e-04 0.0 
-1.739013270640e-04 3.441659993103e-03 0.0 
0.0 0.0 -4.933333333333e-04 
-1.186861804691e-03 -2.063993814702e-04 0.0 
-2.063993814702e-04 3.930451098783e-03 0.0 
0.0 0.0 -5.600000000000e-04 
-1.284181826536e-03 -1.411246795881e-04 0.0 
-1.411246795881e-04 4.401802096581e-03 0.0 
0.0 0.0 -6.266666666667e-04 
-1.371869470260e-03 5.987426434916e-05 0.0 
5.987426434916e-05 4.821720366173e-03 0.0 
0.0 0.0 -6.874962403976e-04 
-1.373883297749e-03 1.733970713616e-05 0.0 
1.733970713616e-05 4.853900323376e-03 0.0 
0.0 0.0 -6.910932206029e-04 
-1.391096625977e-03 2.696117286623e-05 0.0 
2.696117286623e-05 4.858420634372e-03 0.0 
0.0 0.0 -6.911911970487e-04 
-1.403621533613e-03 2.899157745045e-05 0.0 
2.899157745045e-05 4.851539021186e-03 0.0 
0.0 0.0 -6.903356507966e-04 
-1.422086472761e-03 7.127286506100e-05 0.0 
7.127286506100e-05 4.925418991949e-03 0.0 
0.0 0.0 -6.980756478071e-04 
-1.440013737492e-03 8.905228061672e-05 0.0 
8.905228061672e-05 4.855137559965e-03 0.0 
0.0 0.0 -6.911448554634e-04 
-1.457810866496e-03 1.124854279040e-04 0.0 
1.124854279040e-04 4.842862400746e-03 0.0 
0.0 0.0 -6.903833977050e-04 
-1.485479761852e-03 1.763889665616e-04 0.0 
1.763889665616e-04 4.844524201239e-03 0.0 
0.0 0.0 -6.905588330458e-04 
-1.530071715646e-03 2.314067896651e-04 0.0 
2.314067896651e-04 4.843027902445e-03 0.0 
0.0 0.0 -6.922444453805e-04 
-1.565434249602e-03 3.199826070801e-04 0.0 
3.199826070801e-04 4.827774349685e-03 0.0 
0.0 0.0 -6.916098530255e-04 
-1.592220907441e-03 4.164385463974e-04 0.0 
4.164385463974e-04 4.800836260159e-03 0.0 
0.0 0.0 -6.911665914957e-04 
-1.624093306590e-03 5.379923244308e-04 0.0 
5.379923244308e-04 4.762121973516e-03 0.0 
0.0 0.0 -6.926885898885e-04 
-1.636272666442e-03 7.038956101205e-04 0.0 
7.038956101205e-04 4.710840836171e-03 0.0 
0.0 0.0 -6.980272606831e-04 
-1.642234561257e-03 8.946537782645e-04 0.0 
8.946537782645e-04 4.660104212790e-03 0.0 
0.0 0.0 -7.070206663417e-04 
0.0 0.0 0.0 
0.0 0.0 0.0 
0.0 0.0 0.0 
0.0 0.0 0.0 
0.0 0.0 0.0 
0.0 0.0 0.0 
0.0 0.0 0.0 
0.0 0.0 0.0 
0.0 0.0 0.0 
0.0 0.0 0.0 
0.0 0.0 0.0 
0.0 0.0 0.0 
0.0 0.0 0.0 
0.0 0.0 0.0 
0.0 0.0 0.0 
6.460969664659e-05 -1.556902627030e-04 0.0 
-1.556902627030e-04 3.828112054754e-05 0.0 
0.0 0.0 -4.409606451177e-05 
2.290958672754e-04 -1.825778835954e-04 0.0 
-1.825778835954e-04 1.295802149225e-05 0.0 
0.0 0.0 -6.349991864517e-05 
3.258301092639e-04 -1.495010221350e-04 0.0 
-1.495010221350e-04 5.825232736603e-05 0.0 
0.0 0.0 -6.729406355132e-05 
4.308097979006e-04 -2.272179296947e-04 0.0 
-2.272179296947e-04 4.144525422736e-05 0.0 
0.0 0.0 -5.004267624003e-05 
7.170242557017e-04 -3.798682189908e-04 0.0 
-3.798682189908e-04 -8.718929718944e-05 0.0 
0.0 0.0 -5.423469082676e-05 
1.016505377143e-03 -3.706654485886e-04 0.0 
-3.706654485886e-04 -2.196691987021e-04 0.0 
0.0 0.0 -6.924701466199e-05 
1.374691841568e-03 -3.600731207399e-04 0.0 
-3.600731207399e-04 -3.650587174241e-04 0.0 
0.0 0.0 -8.456438766380e-05 
1.776444192994e-03 -3.135747337774e-04 0.0 
-3.135747337774e-04 -5.394471043759e-04 0.0 
0.0 0.0 -1.145437528706e-04 
2.116489510919e-03 -3.092434709054e-04 0.0 
-3.092434709054e-04 -6.971504040322e-04 0.0 
0.0 0.0 -1.122699804219e-04 
2.340534228900e-03 -2.489648393755e-04 0.0 
-2.489648393755e-04 -7.939335318199e-04 0.0 
0.0 0.0 -1.135261812993e-04 
2.545448873624e-03 -1.895106937816e-04 0.0 
-1.895106937816e-04 -8.695809182027e-04 0.0 
0.0 0.0 -1.151526711856e-04 
2.708912883130e-03 -1.592234908312e-04 0.0 
-1.592234908312e-04 -9.353356256089e-04 0.0 
0.0 0.0 -1.168504208365e-04 
2.867102977547e-03 -9.067089989766e-05 0.0 
-9.067089989766e-05 -1.037120165575e-03 0.0 
0.0 0.0 -1.138900488129e-04 
3.013559206580e-03 5.775462477208e-05 0.0 
5.775462477208e-05 -1.103986210354e-03 0.0 
0.0 0.0 -1.064965418423e-04 
-3.438810591486e-05 1.539267866387e-04 0.0 
1.539267866387e-04 6.048671420549e-04 0.0 
0.0 0.0 -1.960781761233e-04 
2.135140537323e-04 7.538155313753e-05 0.0 
7.538155313753e-05 1.381960916934e-04 0.0 
0.0 0.0 -9.062281224024e-05 
2.348050001640e-04 2.107488311921e-04 0.0 
2.107488311921e-04 1.639442241720e-04 0.0 
0.0 0.0 -8.657838975107e-05 
3.264590752097e-04 1.790978298042e-04 0.0 
1.790978298042e-04 1.558588283810e-04 0.0 
0.0 0.0 -6.009163838563e-05 
4.842710900168e-04 1.704941358970e-04 0.0 
1.704941358970e-04 8.302476482772e-05 0.0 
0.0 0.0 -3.259259259259e-05 
6.801909475111e-04 1.587296257202e-04 0.0 
1.587296257202e-04 -9.338828683520e-06 0.0 
0.0 0.0 -4.210457516387e-05 
8.473358430323e-04 1.131174075399e-04 0.0 
1.131174075399e-04 -9.083899650157e-05 0.0 
0.0 0.0 -5.800138605035e-05 
9.418978258693e-04 2.156778981547e-05 0.0 
2.156778981547e-05 -1.354331258084e-04 0.0 
0.0 0.0 -6.895386099009e-05 
9.646296850207e-04 -6.640598604452e-05 0.0 
-6.640598604452e-05 -1.485597769642e-04 0.0 
0.0 0.0 -7.103630023350e-05 
9.309068991299e-04 -1.308913506303e-04 0.0 
-1.308913506303e-04 -1.371996991866e-04 0.0 
0.0 0.0 -6.989891131282e-05 
8.586014315519e-04 -1.683144066993e-04 0.0 
-1.683144066993e-04 -1.091439015400e-04 0.0 
0.0 0.0 -6.890267165088e-05 
8.003948809605e-04 -1.650716640817e-04 0.0 
-1.650716640817e-04 -8.192938444291e-05 0.0 
0.0 0.0 -7.896663202973e-05 
7.673144850679e-04 -1.490229071692e-04 0.0 
-1.490229071692e-04 -6.470920595746e-05 0.0 
0.0 0.0 -9.439403996689e-05 
7.163144777536e-04 -1.532074556142e-04 0.0 
-1.532074556142e-04 -4.809958318324e-05 0.0 
0.0 0.0 -9.457182100165e-05 
6.401863162963e-04 -1.618578548323e-04 0.0 
-1.618578548323e-04 -2.249987373074e-05 0.0 
0.0 0.0 -8.872951117720e-05 
5.438615746112e-04 -1.662182090254e-04 0.0 
-1.662182090254e-04 1.255178042695e-05 0.0 
0.0 0.0 -8.265853743020e-05 
4.334193220900e-04 -1.608609806158e-04 0.0 
-1.608609806158e-04 5.404889264446e-05 0.0 
0.0 0.0 -7.620563409412e-05 
3.159942429361e-04 -1.424205687797e-04 0.0 
-1.424205687797e-04 9.863480619359e-05 0.0 
0.0 0.0 -6.971374444560e-05 
2.090433392669e-04 -1.199128200478e-04 0.0 
-1.199128200478e-04 1.381249458687e-04 0.0 
0.0 0.0 -6.114356649380e-05 
1.121121790043e-04 -9.910941785566e-05 0.0 
-9.910941785566e-05 1.726399616838e-04 0.0 
0.0 0.0 -4.845099010005e-05 
2.749955924733e-05 -7.762651080607e-05 0.0 
-7.762651080607e-05 2.017628963201e-04 0.0 
0.0 0.0 -3.731494936335e-05 
-2.882811271533e-05 -6.370614117942e-05 0.0 
-6.370614117942e-05 2.211116043310e-04 0.0 
0.0 0.0 -3.259259259259e-05 
-5.966160994002e-05 -5.723980611994e-05 0.0 
-5.723980611994e-05 2.332885266069e-04 0.0 
0.0 0.0 -3.259259259259e-05 
-8.117946994484e-05 -5.035695126485e-05 0.0 
-5.035695126485e-05 2.426280790399e-04 0.0 
0.0 0.0 -3.350511755725e-05 
-8.884183733844e-05 -4.182473169216e-05 0.0 
-4.182473169216e-05 2.470671966759e-04 0.0 
0.0 0.0 -3.800221956031e-05 
-8.624337221102e-05 -3.412559367778e-05 0.0 
-3.412559367778e-05 2.474694489115e-04 0.0 
0.0 0.0 -4.506231004815e-05 
-8.282919987327e-05 -2.912719807984e-05 0.0 
-2.912719807984e-05 2.465048922049e-04 0.0 
0.0 0.0 -5.237548833737e-05 
-7.920923636187e-05 -1.963702053091e-05 0.0 
-1.963702053091e-05 2.458726324550e-04 0.0 
0.0 0.0 -6.057567582112e-05 
-6.099251128247e-05 1.583523892795e-05 0.0 
1.583523892795e-05 2.130119119183e-04 0.0 
0.0 0.0 -6.241592132982e-05 
-1.101220609311e-04 6.086156457461e-05 0.0 
6.086156457461e-05 3.678372612670e-04 0.0 
0.0 0.0 -1.015819715802e-04 
-1.281368958426e-04 -1.918770675584e-05 0.0 
-1.918770675584e-05 3.812636255264e-04 0.0 
0.0 0.0 -8.176710556782e-05 
-1.395781885481e-04 -3.538618243246e-05 0.0 
-3.538618243246e-05 3.994635653572e-04 0.0 
0.0 0.0 -7.291998671178e-05 
-1.396707399495e-04 -4.950797939575e-05 0.0 
-4.950797939575e-05 4.020182179458e-04 0.0 
0.0 0.0 -7.044202338567e-05 
-1.352493512419e-04 -6.183228481790e-05 0.0 
-6.183228481790e-05 4.009812680123e-04 0.0 
0.0 0.0 -6.869754302670e-05 
-1.285918939332e-04 -7.402293899810e-05 0.0 
-7.402293899810e-05 3.981895730859e-04 0.0 
0.0 0.0 -6.691553176629e-05 
-1.153052412083e-04 -8.520760002228e-05 0.0 
-8.520760002228e-05 3.925173859072e-04 0.0 
0.0 0.0 -6.643633406028e-05 
-9.781518468387e-05 -9.525057660041e-05 0.0 
-9.525057660041e-05 3.849395762119e-04 0.0 
0.0 0.0 -6.639517394125e-05 
-7.545012053347e-05 -1.047294796319e-04 0.0 
-1.047294796319e-04 3.761580367695e-04 0.0 
0.0 0.0 -6.643183330088e-05 
-4.171529907378e-05 -1.162037899375e-04 0.0 
-1.162037899375e-04 3.641110047908e-04 0.0 
0.0 0.0 -6.887332837824e-05 
-3.428056455577e-07 -1.257935885580e-04 0.0 
-1.257935885580e-04 3.486786655750e-04 0.0 
0.0 0.0 -7.205305361283e-05 
5.006429255601e-05 -1.374758455049e-04 0.0 
-1.374758455049e-04 3.304126449776e-04 0.0 
0.0 0.0 -7.637437559394e-05 
1.113031412625e-04 -1.530224473572e-04 0.0 
-1.530224473572e-04 3.075438247560e-04 0.0 
0.0 0.0 -8.087083393604e-05 
1.794400030181e-04 -1.656078366494e-04 0.0 
-1.656078366494e-04 2.823923182641e-04 0.0 
0.0 0.0 -8.763192637237e-05 
2.454533035669e-04 -1.715059018675e-04 0.0 
-1.715059018675e-04 2.578672681963e-04 0.0 
0.0 0.0 -9.428996779769e-05 
3.061962668432e-04 -1.714244651565e-04 0.0 
-1.714244651565e-04 2.353034472445e-04 0.0 
0.0 0.0 -1.006786115511e-04 
3.588335943132e-04 -1.649468062949e-04 0.0 
-1.649468062949e-04 2.154491229133e-04 0.0 
0.0 0.0 -1.061834866184e-04 
3.999679952505e-04 -1.515823753628e-04 0.0 
-1.515823753628e-04 1.971274452677e-04 0.0 
0.0 0.0 -1.060324399320e-04 
4.319979106374e-04 -1.292480868159e-04 0.0 
-1.292480868159e-04 1.770994934937e-04 0.0 
0.0 0.0 -1.003395368519e-04 
4.669856266087e-04 -6.759963822928e-05 0.0 
-6.759963822928e-05 1.551427870240e-04 0.0 
0.0 0.0 -9.971189513241e-05 
4.782948644641e-04 2.988348671700e-05 0.0 
2.988348671700e-05 1.419539983804e-04 0.0 
0.0 0.0 -9.932056084245e-05 
4.561210025013e-04 1.539527825526e-04 0.0 
1.539527825526e-04 1.433759884673e-04 0.0 
0.0 0.0 -9.838875346864e-05 
3.888742121733e-04 2.944189006733e-04 0.0 
2.944189006733e-04 1.689430114040e-04 0.0 
0.0 0.0 -9.355262450586e-05 
2.659781125029e-04 4.314439987894e-04 0.0 
4.314439987894e-04 2.232160415001e-04 0.0 
0.0 0.0 -8.386609335686e-05 
1.580837778431e-04 5.025659209671e-04 0.0 
5.025659209671e-04 2.820892383357e-04 0.0 
0.0 0.0 -9.799418275072e-05 
1.035493879919e-04 5.609711556534e-04 0.0 
5.609711556534e-04 3.386973271448e-04 0.0 
0.0 0.0 -1.359881510911e-04 
7.373591136653e-05 6.439804806130e-04 0.0 
6.439804806130e-04 4.013465259075e-04 0.0 
0.0 0.0 -1.810724025350e-04 
5.358003809218e-05 6.369719390404e-04 0.0 
6.369719390404e-04 3.984050149860e-04 0.0 
0.0 0.0 -1.778408947547e-04 
5.436183858624e-05 1.237215992251e-03 0.0 
1.237215992251e-03 6.977434040104e-04 0.0 
0.0 0.0 -3.223308182557e-04 
1.238058645572e-05 1.128941138153e-03 0.0 
1.128941138153e-03 6.957857395565e-04 0.0 
0.0 0.0 -2.979042364755e-04 
-4.590520028754e-05 9.148456526690e-04 0.0 
9.148456526690e-04 6.695958192856e-04 0.0 
0.0 0.0 -2.391891097651e-04 
-7.218352849248e-05 6.699938354114e-04 0.0 
6.699938354114e-04 6.562108330051e-04 0.0 
0.0 0.0 -1.960804690482e-04 
-9.546916233556e-05 4.573360809201e-04 0.0 
4.573360809201e-04 6.586162835152e-04 0.0 
0.0 0.0 -1.593212605036e-04 
-8.740274138734e-05 2.379414876973e-04 0.0 
2.379414876973e-04 6.708264191252e-04 0.0 
0.0 0.0 -1.478113617937e-04 
-6.359895213776e-05 4.479010609160e-05 0.0 
4.479010609160e-05 6.901381650126e-04 0.0 
0.0 0.0 -1.504633661387e-04 
-5.242660414935e-05 -9.835797729197e-05 0.0 
-9.835797729197e-05 7.127939552638e-04 0.0 
0.0 0.0 -1.552601950460e-04 
-5.091504057704e-05 -1.921444319072e-04 0.0 
-1.921444319072e-04 7.328217516783e-04 0.0 
0.0 0.0 -1.595375194591e-04 
-5.717213191030e-05 -2.496342257898e-04 0.0 
-2.496342257898e-04 7.483470588474e-04 0.0 
0.0 0.0 -1.624457796042e-04 
-6.966835430716e-05 -2.822442478303e-04 0.0 
-2.822442478303e-04 7.617628698482e-04 0.0 
0.0 0.0 -1.642757887814e-04 
-8.737002327193e-05 -2.974004318204e-04 0.0 
-2.974004318204e-04 7.736083995955e-04 0.0 
0.0 0.0 -1.640320568042e-04 
-1.084980820765e-04 -2.999933171904e-04 0.0 
-2.999933171904e-04 7.849923217272e-04 0.0 
0.0 0.0 -1.632744378363e-04 
-1.313737587918e-04 -2.944097818614e-04 0.0 
-2.944097818614e-04 7.962587271117e-04 0.0 
0.0 0.0 -1.628676628263e-04 
-1.548986805792e-04 -2.837910522243e-04 0.0 
-2.837910522243e-04 8.073320223973e-04 0.0 
0.0 0.0 -1.627955215139e-04 
-1.781878660315e-04 -2.706189204112e-04 0.0 
-2.706189204112e-04 8.179661782632e-04 0.0 
0.0 0.0 -1.630284746683e-04 
-2.002163488824e-04 -2.561538992744e-04 0.0 
-2.561538992744e-04 8.275573788089e-04 0.0 
0.0 0.0 -1.634586191270e-04 
-2.181641290422e-04 -2.385790621428e-04 0.0 
-2.385790621428e-04 8.357635297330e-04 0.0 
0.0 0.0 -1.638375457389e-04 
-2.344821268255e-04 -2.183480012397e-04 0.0 
-2.183480012397e-04 8.431482650870e-04 0.0 
0.0 0.0 -1.641653553167e-04 
-2.492116685935e-04 -1.964005736727e-04 0.0 
-1.964005736727e-04 8.503594292429e-04 0.0 
0.0 0.0 -1.645957785809e-04 
-2.611274747989e-04 -1.737904668688e-04 0.0 
-1.737904668688e-04 8.565672537291e-04 0.0 
0.0 0.0 -1.650523409442e-04 
-2.702878862490e-04 -1.501745035295e-04 0.0 
-1.501745035295e-04 8.610433477885e-04 0.0 
0.0 0.0 -1.653930429837e-04 
-2.772099351950e-04 -1.245920961823e-04 0.0 
-1.245920961823e-04 8.637152345476e-04 0.0 
0.0 0.0 -1.655467363655e-04 
-2.817940990438e-04 -9.471109492220e-05 0.0 
-9.471109492220e-05 8.644874665313e-04 0.0 
0.0 0.0 -1.655198174858e-04 
-2.825149456426e-04 -4.336176461150e-05 0.0 
-4.336176461150e-05 8.639263713768e-04 0.0 
0.0 0.0 -1.651145332713e-04 
-2.933711715883e-04 4.463456278771e-05 0.0 
4.463456278771e-05 8.871015158317e-04 0.0 
0.0 0.0 -1.811901446329e-04 
-7.207297653063e-06 1.410248700228e-03 0.0 
1.410248700228e-03 9.175792043273e-04 0.0 
0.0 0.0 -3.901593885747e-04 
-1.103118252382e-04 1.226284166577e-03 0.0 
1.226284166577e-03 1.005680539646e-03 0.0 
0.0 0.0 -3.818155682853e-04 
-2.236973215356e-04 9.228676894401e-04 0.0 
9.228676894401e-04 1.067964466156e-03 0.0 
0.0 0.0 -3.440256872597e-04 
-3.001717412203e-04 6.465580719275e-04 0.0 
6.465580719275e-04 1.119900151555e-03 0.0 
0.0 0.0 -3.112312859776e-04 
-3.384560696130e-04 4.125554091249e-04 0.0 
4.125554091249e-04 1.181369602573e-03 0.0 
0.0 0.0 -2.905217765605e-04 
-3.671141900312e-04 2.139280277678e-04 0.0 
2.139280277678e-04 1.234912370280e-03 0.0 
0.0 0.0 -2.777119786568e-04 
-3.856389411553e-04 5.817902507628e-05 0.0 
5.817902507628e-05 1.282197226204e-03 0.0 
0.0 0.0 -2.706731611972e-04 
-3.820191849387e-04 -6.508537242442e-05 0.0 
-6.508537242442e-05 1.308730380916e-03 0.0 
0.0 0.0 -2.706342179627e-04 
-3.703143423952e-04 -1.574411244472e-04 0.0 
-1.574411244472e-04 1.321932723327e-03 0.0 
0.0 0.0 -2.684045378307e-04 
-3.641196039215e-04 -2.233825472164e-04 0.0 
-2.233825472164e-04 1.330411560113e-03 0.0 
0.0 0.0 -2.653397171659e-04 
-3.632900330305e-04 -2.676761154925e-04 0.0 
-2.676761154925e-04 1.336769110866e-03 0.0 
0.0 0.0 -2.613647723489e-04 
-3.663826529774e-04 -2.947869550737e-04 0.0 
-2.947869550737e-04 1.342563643132e-03 0.0 
0.0 0.0 -2.583906591326e-04 
-3.723682720447e-04 -3.084171914783e-04 0.0 
-3.084171914783e-04 1.348504697948e-03 0.0 
0.0 0.0 -2.567504220945e-04 
-3.802726126276e-04 -3.114623459817e-04 0.0 
-3.114623459817e-04 1.354458734268e-03 0.0 
0.0 0.0 -2.560781420700e-04 
-3.890662419112e-04 -3.058910284997e-04 0.0 
-3.058910284997e-04 1.360090228651e-03 0.0 
0.0 0.0 -2.560436786581e-04 
-3.980227489140e-04 -2.925847470395e-04 0.0 
-2.925847470395e-04 1.365620540601e-03 0.0 
0.0 0.0 -2.563905779039e-04 
-4.069289975706e-04 -2.738763849274e-04 0.0 
-2.738763849274e-04 1.371409417496e-03 0.0 
0.0 0.0 -2.569343176084e-04 
-4.154545856821e-04 -2.508315946617e-04 0.0 
-2.508315946617e-04 1.376963237025e-03 0.0 
0.0 0.0 -2.575646411629e-04 
-4.233567515120e-04 -2.246556682113e-04 0.0 
-2.246556682113e-04 1.382155529590e-03 0.0 
0.0 0.0 -2.582007070939e-04 
-4.297246681568e-04 -1.963539744950e-04 0.0 
-1.963539744950e-04 1.386411622362e-03 0.0 
0.0 0.0 -2.587732053644e-04 
-4.344468407600e-04 -1.654773235865e-04 0.0 
-1.654773235865e-04 1.389390610572e-03 0.0 
0.0 0.0 -2.592381443959e-04 
-4.380675522698e-04 -1.311614178969e-04 0.0 
-1.311614178969e-04 1.391410353904e-03 0.0 
0.0 0.0 -2.596113365351e-04 
-4.417326417539e-04 -9.289261755435e-05 0.0 
-9.289261755435e-05 1.393779833431e-03 0.0 
0.0 0.0 -2.597815999307e-04 
-4.589388306385e-04 -5.470250966499e-05 0.0 
-5.470250966499e-05 1.403304691556e-03 0.0 
0.0 0.0 -2.563501177162e-04 
-4.917889058055e-04 8.456632513977e-05 0.0 
8.456632513977e-05 1.417745818538e-03 0.0 
0.0 0.0 -2.490929525304e-04 
-6.521536472921e-04 3.037039092969e-05 0.0 
3.037039092969e-05 1.927101012756e-03 0.0 
0.0 0.0 -3.061660192852e-04 
-6.146125138384e-04 -7.648421940114e-05 0.0 
-7.648421940114e-05 1.912252703488e-03 0.0 
0.0 0.0 -3.161672630275e-04 
-6.123269788261e-04 -1.356533928898e-04 0.0 
-1.356533928898e-04 1.909321831748e-03 0.0 
0.0 0.0 -3.162703440688e-04 
-6.102267992251e-04 -1.752602272705e-04 0.0 
-1.752602272705e-04 1.907124225355e-03 0.0 
0.0 0.0 -3.166480862921e-04 
-6.078351167893e-04 -2.109984893587e-04 0.0 
-2.109984893587e-04 1.904702407949e-03 0.0 
0.0 0.0 -3.172242122056e-04 
-6.049262965588e-04 -2.437778904745e-04 0.0 
-2.437778904745e-04 1.901645462579e-03 0.0 
0.0 0.0 -3.179747884623e-04 
-6.016293543077e-04 -2.733641442443e-04 0.0 
-2.733641442443e-04 1.898077561520e-03 0.0 
0.0 0.0 -3.189054167417e-04 
-5.983341509043e-04 -2.985456040918e-04 0.0 
-2.985456040918e-04 1.894265064291e-03 0.0 
0.0 0.0 -3.200558360071e-04 
-5.954052100357e-04 -3.178164354008e-04 0.0 
-3.178164354008e-04 1.890328088488e-03 0.0 
0.0 0.0 -3.215242440727e-04 
-5.932930907438e-04 -3.295287160715e-04 0.0 
-3.295287160715e-04 1.886515057030e-03 0.0 
0.0 0.0 -3.234293095895e-04 
-5.925898260158e-04 -3.311133739508e-04 0.0 
-3.311133739508e-04 1.882950221058e-03 0.0 
0.0 0.0 -3.259169466148e-04 
-5.936278952851e-04 -3.198689819626e-04 0.0 
-3.198689819626e-04 1.879252640520e-03 0.0 
0.0 0.0 -3.291674719681e-04 
-5.971550282615e-04 -2.929944648091e-04 0.0 
-2.929944648091e-04 1.875333752629e-03 0.0 
0.0 0.0 -3.334451628410e-04 
-6.039541515878e-04 -2.475050715629e-04 0.0 
-2.475050715629e-04 1.870985002452e-03 0.0 
0.0 0.0 -3.391616836831e-04 
-6.148223475090e-04 -1.792794613688e-04 0.0 
-1.792794613688e-04 1.865813361112e-03 0.0 
0.0 0.0 -3.467505649865e-04 
-6.184345348540e-04 -8.454989948401e-05 0.0 
-8.454989948401e-05 1.854651279409e-03 0.0 
0.0 0.0 -3.603039951237e-04 
-6.085923058314e-04 4.072255252298e-05 0.0 
4.072255252298e-05 1.834338896564e-03 0.0 
0.0 0.0 -3.821985994076e-04 
-5.914469538950e-04 1.951592239921e-04 0.0 
1.951592239921e-04 1.799129574179e-03 0.0 
0.0 0.0 -4.047906533002e-04 
-5.543146148656e-04 3.816821526295e-04 0.0 
3.816821526295e-04 1.738557736627e-03 0.0 
0.0 0.0 -4.206681078764e-04 
-4.908826009862e-04 5.911692506281e-04 0.0 
5.911692506281e-04 1.645052271329e-03 0.0 
0.0 0.0 -4.418263900718e-04 
-4.101061126456e-04 8.497011629847e-04 0.0 
8.497011629847e-04 1.543306508708e-03 0.0 
0.0 0.0 -4.634526724741e-04 
-3.026172258989e-04 1.152678743765e-03 0.0 
1.152678743765e-03 1.424524180282e-03 0.0 
0.0 0.0 -4.797192951453e-04 
-1.851017191588e-04 1.364462229885e-03 0.0 
1.364462229885e-03 1.258853605899e-03 0.0 
0.0 0.0 -4.601793800314e-04 
-3.917368210583e-04 1.317479250336e-03 0.0 
1.317479250336e-03 1.747874473266e-03 0.0 
0.0 0.0 -5.812018509462e-04 
-5.091690360286e-04 1.130845155862e-03 0.0 
1.130845155862e-03 1.963327675715e-03 0.0 
0.0 0.0 -6.066533733830e-04 
-6.141014296330e-04 8.542857385472e-04 0.0 
8.542857385472e-04 2.104545634073e-03 0.0 
0.0 0.0 -5.807024946757e-04 
-6.882663027808e-04 6.113252394538e-04 0.0 
6.113252394538e-04 2.202130389397e-03 0.0 
0.0 0.0 -5.506042562872e-04 
-7.485151266818e-04 4.048271456746e-04 0.0 
4.048271456746e-04 2.276572322960e-03 0.0 
0.0 0.0 -5.097853306316e-04 
-7.897555551191e-04 2.224232272700e-04 0.0 
2.224232272700e-04 2.321631848111e-03 0.0 
0.0 0.0 -4.716768144535e-04 
-8.179605038944e-04 7.373921887575e-05 0.0 
7.373921887575e-05 2.355988915550e-03 0.0 
0.0 0.0 -4.418280814132e-04 
-8.268010595159e-04 -4.483534428960e-05 0.0 
-4.483534428960e-05 2.376308389151e-03 0.0 
0.0 0.0 -4.218770227552e-04 
-8.228503060703e-04 -1.347192607701e-04 0.0 
-1.347192607701e-04 2.388847937133e-03 0.0 
0.0 0.0 -4.090523408212e-04 
-8.109185832396e-04 -1.989047172259e-04 0.0 
-1.989047172259e-04 2.395688157729e-03 0.0 
0.0 0.0 -4.015628555955e-04 
-8.019746084778e-04 -2.402503830985e-04 0.0 
-2.402503830985e-04 2.401236351570e-03 0.0 
0.0 0.0 -3.954021415690e-04 
-7.953245493492e-04 -2.629832857574e-04 0.0 
-2.629832857574e-04 2.405546845163e-03 0.0 
0.0 0.0 -3.902995700482e-04 
-7.906845303877e-04 -2.708266975381e-04 0.0 
-2.708266975381e-04 2.409326752935e-03 0.0 
0.0 0.0 -3.860854787602e-04 
-7.877188598931e-04 -2.666780701279e-04 0.0 
-2.666780701279e-04 2.412893579400e-03 0.0 
0.0 0.0 -3.826300360752e-04 
-7.859472857759e-04 -2.529812670249e-04 0.0 
-2.529812670249e-04 2.416190377898e-03 0.0 
0.0 0.0 -3.797920724705e-04 
-7.849776301162e-04 -2.317218095120e-04 0.0 
-2.317218095120e-04 2.419097107999e-03 0.0 
0.0 0.0 -3.774328490719e-04 
-7.844810121678e-04 -2.050225660717e-04 0.0 
-2.050225660717e-04 2.421538416815e-03 0.0 
0.0 0.0 -3.754828035711e-04 
-7.842654296420e-04 -1.743385635113e-04 0.0 
-1.743385635113e-04 2.423613148989e-03 0.0 
0.0 0.0 -3.739320486442e-04 
-7.843867792918e-04 -1.404633765496e-04 0.0 
-1.404633765496e-04 2.425575961632e-03 0.0 
0.0 0.0 -3.727418427549e-04 
-7.857008201318e-04 -1.044807299690e-04 0.0 
-1.044807299690e-04 2.428069777729e-03 0.0 
0.0 0.0 -3.717245115980e-04 
-7.997888929887e-04 -7.230959013771e-05 0.0 
-7.230959013771e-05 2.434645715537e-03 0.0 
0.0 0.0 -3.674400072102e-04 
-8.218042889041e-04 7.812455767352e-05 0.0 
7.812455767352e-05 2.442717993920e-03 0.0 
0.0 0.0 -3.611040392158e-04 
-9.494559103031e-04 3.245343644015e-05 0.0 
3.245343644015e-05 2.942828314072e-03 0.0 
0.0 0.0 -4.276225674433e-04 
-9.453893070207e-04 -7.111604734988e-05 0.0 
-7.111604734988e-05 2.939480324051e-03 0.0 
0.0 0.0 -4.291610623509e-04 
-9.479485626056e-04 -1.223075957800e-04 0.0 
-1.223075957800e-04 2.938148575924e-03 0.0 
0.0 0.0 -4.294518113500e-04 
-9.513509497972e-04 -1.528128127516e-04 0.0 
-1.528128127516e-04 2.937112011401e-03 0.0 
0.0 0.0 -4.303156580442e-04 
-9.561412693041e-04 -1.795418847633e-04 0.0 
-1.795418847633e-04 2.936257850339e-03 0.0 
0.0 0.0 -4.315177398476e-04 
-9.613801982685e-04 -2.020582703720e-04 0.0 
-2.020582703720e-04 2.935027659389e-03 0.0 
0.0 0.0 -4.333935888026e-04 
-9.649594115909e-04 -2.191801396652e-04 0.0 
-2.191801396652e-04 2.932403783643e-03 0.0 
0.0 0.0 -4.365863700986e-04 
-9.694509318337e-04 -2.282743571783e-04 0.0 
-2.282743571783e-04 2.928700962369e-03 0.0 
0.0 0.0 -4.403344688981e-04 
-9.752854465798e-04 -2.262425092116e-04 0.0 
-2.262425092116e-04 2.924232336100e-03 0.0 
0.0 0.0 -4.446981798157e-04 
-9.827947901593e-04 -2.105547843802e-04 0.0 
-2.105547843802e-04 2.919037677629e-03 0.0 
0.0 0.0 -4.499693714774e-04 
-9.922432754887e-04 -1.788315847570e-04 0.0 
-1.788315847570e-04 2.912643541075e-03 0.0 
0.0 0.0 -4.561666389974e-04 
-1.003596714027e-03 -1.273527626457e-04 0.0 
-1.273527626457e-04 2.903956443196e-03 0.0 
0.0 0.0 -4.633466294216e-04 
-1.016765204047e-03 -5.053958217971e-05 0.0 
-5.053958217971e-05 2.891535834080e-03 0.0 
0.0 0.0 -4.716857746087e-04 
-1.020109545419e-03 5.743003251611e-05 0.0 
5.743003251611e-05 2.872702128626e-03 0.0 
0.0 0.0 -4.852209091340e-04 
-9.964537532025e-04 1.942960321916e-04 0.0 
1.942960321916e-04 2.839351573495e-03 0.0 
0.0 0.0 -5.097743276704e-04 
-9.610160034558e-04 3.659639876319e-04 0.0 
3.659639876319e-04 2.796351539205e-03 0.0 
0.0 0.0 -5.405745080065e-04 
-9.090299886647e-04 5.649669993174e-04 0.0 
5.649669993174e-04 2.731549626740e-03 0.0 
0.0 0.0 -5.795081218868e-04 
-8.421940977849e-04 8.146075856698e-04 0.0 
8.146075856698e-04 2.654238991049e-03 0.0 
0.0 0.0 -6.241631820133e-04 
-7.469235452296e-04 1.108005846327e-03 0.0 
1.108005846327e-03 2.554144737090e-03 0.0 
0.0 0.0 -6.876227360811e-04 
-6.222319269350e-04 1.311587394284e-03 0.0 
1.311587394284e-03 2.351737594925e-03 0.0 
0.0 0.0 -7.129699783845e-04 
-8.859289441425e-04 1.243241253464e-03 0.0 
1.243241253464e-03 2.913195279952e-03 0.0 
0.0 0.0 -7.120710084939e-04 
-1.004734523472e-03 1.018600750567e-03 0.0 
1.018600750567e-03 3.106427625498e-03 0.0 
0.0 0.0 -6.771260834247e-04 
-1.079401310026e-03 7.481842232065e-04 0.0 
7.481842232065e-04 3.193468346598e-03 0.0 
0.0 0.0 -6.300277574108e-04 
-1.131577463836e-03 5.268764785930e-04 0.0 
5.268764785930e-04 3.259614661613e-03 0.0 
0.0 0.0 -5.970134556630e-04 
-1.175698392474e-03 3.505042719681e-04 0.0 
3.505042719681e-04 3.318814681410e-03 0.0 
0.0 0.0 -5.654316324824e-04 
-1.198259795194e-03 1.983623377187e-04 0.0 
1.983623377187e-04 3.357846983414e-03 0.0 
0.0 0.0 -5.431954804876e-04 
-1.193688646499e-03 8.236585560367e-05 0.0 
8.236585560367e-05 3.385843501569e-03 0.0 
0.0 0.0 -5.307242391481e-04 
-1.181400322402e-03 -2.610677248912e-06 0.0 
-2.610677248912e-06 3.403469425701e-03 0.0 
0.0 0.0 -5.217490130384e-04 
-1.169734073994e-03 -6.313793199308e-05 0.0 
-6.313793199308e-05 3.415891564710e-03 0.0 
0.0 0.0 -5.139000268513e-04 
-1.159307772713e-03 -1.048439826788e-04 0.0 
-1.048439826788e-04 3.424926224559e-03 0.0 
0.0 0.0 -5.068416884887e-04 
-1.149301363739e-03 -1.311774395022e-04 0.0 
-1.311774395022e-04 3.432400745694e-03 0.0 
0.0 0.0 -5.012787953396e-04 
-1.136366457465e-03 -1.411361358348e-04 0.0 
-1.411361358348e-04 3.437153305501e-03 0.0 
0.0 0.0 -4.980850712606e-04 
-1.124188871364e-03 -1.394547320618e-04 0.0 
-1.394547320618e-04 3.439448222641e-03 0.0 
0.0 0.0 -4.952863446172e-04 
-1.111828436603e-03 -1.308291125140e-04 0.0 
-1.308291125140e-04 3.439882520158e-03 0.0 
0.0 0.0 -4.936612140760e-04 
-1.098447969421e-03 -1.167396694570e-04 0.0 
-1.167396694570e-04 3.439293515508e-03 0.0 
0.0 0.0 -4.933333333333e-04 
-1.087594461636e-03 -9.799983896262e-05 0.0 
-9.799983896262e-05 3.438806070953e-03 0.0 
0.0 0.0 -4.933333333333e-04 
-1.079672367243e-03 -7.744480207381e-05 0.0 
-7.744480207381e-05 3.439140724054e-03 0.0 
0.0 0.0 -4.933333333333e-04 
-1.076026664782e-03 -5.828265356752e-05 0.0 
-5.828265356752e-05 3.441224913047e-03 0.0 
0.0 0.0 -4.933333333333e-04 
-1.075502650299e-03 8.431295565096e-05 0.0 
8.431295565096e-05 3.442685458650e-03 0.0 
0.0 0.0 -4.933333333333e-04 
-1.189994461039e-03 4.971329978173e-05 0.0 
4.971329978173e-05 3.933936678343e-03 0.0 
0.0 0.0 -5.600000000000e-04 
-1.189943494860e-03 -3.915048486870e-05 0.0 
-3.915048486870e-05 3.929295747162e-03 0.0 
0.0 0.0 -5.600000000000e-04 
-1.196995215316e-03 -6.619293072910e-05 0.0 
-6.619293072910e-05 3.927958942862e-03 0.0 
0.0 0.0 -5.600000000000e-04 
-1.209000108090e-03 -7.709460563794e-05 0.0 
-7.709460563794e-05 3.928987706667e-03 0.0 
0.0 0.0 -5.600000000000e-04 
-1.222591065312e-03 -8.087627347994e-05 0.0 
-8.087627347994e-05 3.928642048882e-03 0.0 
0.0 0.0 -5.600000000000e-04 
-1.242241496923e-03 -8.001653654516e-05 0.0 
-8.001653654516e-05 3.929767912219e-03 0.0 
0.0 0.0 -5.600000000000e-04 
-1.264776066821e-03 -7.096870869374e-05 0.0 
-7.096870869374e-05 3.930292006580e-03 0.0 
0.0 0.0 -5.600000000000e-04 
-1.291607559870e-03 -5.753569633380e-05 0.0 
-5.753569633380e-05 3.928177153315e-03 0.0 
0.0 0.0 -5.600000000000e-04 
-1.313480821163e-03 -2.264210671336e-05 0.0 
-2.264210671336e-05 3.919521392894e-03 0.0 
0.0 0.0 -5.618027733580e-04 
-1.334363465792e-03 3.032816973716e-05 0.0 
3.032816973716e-05 3.911166292933e-03 0.0 
0.0 0.0 -5.662115594836e-04 
-1.345626602697e-03 9.725453922173e-05 0.0 
9.725453922173e-05 3.895259009147e-03 0.0 
0.0 0.0 -5.743994467985e-04 
-1.356260887442e-03 1.893430820086e-04 0.0 
1.893430820086e-04 3.871741255735e-03 0.0 
0.0 0.0 -5.833032914833e-04 
-1.366012120890e-03 3.096264366290e-04 0.0 
3.096264366290e-04 3.841250700024e-03 0.0 
0.0 0.0 -5.938366679572e-04 
-1.351517243904e-03 4.620420004327e-04 0.0 
4.620420004327e-04 3.787895507316e-03 0.0 
0.0 0.0 -6.115999087365e-04 
-1.313173102658e-03 6.667035574404e-04 0.0 
6.667035574404e-04 3.730474013625e-03 0.0 
0.0 0.0 -6.360477204719e-04 
-1.260419596383e-03 8.991646670823e-04 0.0 
8.991646670823e-04 3.667954377089e-03 0.0 
0.0 0.0 -6.715110950050e-04 
-1.156777947287e-03 1.103879225283e-03 0.0 
1.103879225283e-03 3.481215616997e-03 0.0 
0.0 0.0 -6.945456224821e-04 
-1.413371839818e-03 9.869439785182e-04 0.0 
9.869439785182e-04 4.044630377487e-03 0.0 
0.0 0.0 -6.871907024512e-04 
-1.498556740945e-03 8.027277734388e-04 0.0 
8.027277734388e-04 4.217784539438e-03 0.0 
0.0 0.0 -6.754388315825e-04 
-1.517003084896e-03 6.032515853078e-04 0.0 
6.032515853078e-04 4.269979929512e-03 0.0 
0.0 0.0 -6.550211625735e-04 
-1.511553648353e-03 4.490191689128e-04 0.0 
4.490191689128e-04 4.314033839254e-03 0.0 
0.0 0.0 -6.432502374181e-04 
-1.500446210863e-03 3.184819489120e-04 0.0 
3.184819489120e-04 4.351230304708e-03 0.0 
0.0 0.0 -6.352144205724e-04 
-1.482245807683e-03 2.246627967315e-04 0.0 
2.246627967315e-04 4.377537132701e-03 0.0 
0.0 0.0 -6.294719905043e-04 
-1.455175852238e-03 1.513209258517e-04 0.0 
1.513209258517e-04 4.388941904323e-03 0.0 
0.0 0.0 -6.266666666667e-04 
-1.422377976552e-03 8.452613654984e-05 0.0 
8.452613654984e-05 4.398275898476e-03 0.0 
0.0 0.0 -6.266666666667e-04 
-1.387740669927e-03 5.055332934235e-05 0.0 
5.055332934235e-05 4.407309917814e-03 0.0 
0.0 0.0 -6.266666666667e-04 
-1.364267156085e-03 1.746043878918e-05 0.0 
1.746043878918e-05 4.408435903517e-03 0.0 
0.0 0.0 -6.266666666667e-04 
-1.340556828241e-03 2.310074790946e-06 0.0 
2.310074790946e-06 4.409446433091e-03 0.0 
0.0 0.0 -6.266666666667e-04 
-1.322009739859e-03 -1.793960035533e-05 0.0 
-1.793960035533e-05 4.409251285455e-03 0.0 
0.0 0.0 -6.266666666667e-04 
-1.309592160630e-03 -1.727365315460e-05 0.0 
-1.727365315460e-05 4.412670266398e-03 0.0 
0.0 0.0 -6.266666666667e-04 
-1.296178947065e-03 -2.233083817508e-05 0.0 
-2.233083817508e-05 4.407948356665e-03 0.0 
0.0 0.0 -6.266666666667e-04 
-1.291396798343e-03 -4.231649306782e-05 0.0 
-4.231649306782e-05 4.418716211488e-03 0.0 
0.0 0.0 -6.266666666667e-04 
-1.299258567356e-03 1.084144737729e-04 0.0 
1.084144737729e-04 4.428774256468e-03 0.0 
0.0 0.0 -6.266666666667e-04 
-1.477912532059e-04 3.637365219002e-04 0.0 
3.637365219002e-04 5.086330208846e-04 0.0 
0.0 0.0 -1.546464718623e-04 
9.938551455077e-05 1.282401433816e-03 0.0 
1.282401433816e-03 6.636023459020e-04 0.0 
0.0 0.0 -3.269947973369e-04 
1.625585485922e-04 1.696672057115e-03 0.0 
1.696672057115e-03 8.217515565251e-04 0.0 
0.0 0.0 -4.218471879074e-04 
5.652740135924e-05 1.735587432243e-03 0.0 
1.735587432243e-03 1.015281301015e-03 0.0 
0.0 0.0 -4.593465867320e-04 
-1.456114155099e-04 1.664381126323e-03 0.0 
1.664381126323e-03 1.357653711262e-03 0.0 
0.0 0.0 -5.194466981793e-04 
-3.792282684864e-04 1.656998493189e-03 0.0 
1.656998493189e-03 1.899294413969e-03 0.0 
0.0 0.0 -6.514569194927e-04 
-6.251830612815e-04 1.650118487789e-03 0.0 
1.650118487789e-03 2.533700233250e-03 0.0 
0.0 0.0 -8.020470760878e-04 
-9.259280155328e-04 1.541530339945e-03 0.0 
1.541530339945e-03 3.121438131384e-03 0.0 
0.0 0.0 -7.697949396469e-04 
-1.219707571260e-03 1.363862905373e-03 0.0 
1.363862905373e-03 3.712475698443e-03 0.0 
0.0 0.0 -7.416632329583e-04 
-1.501649114425e-03 1.213866345860e-03 0.0 
1.213866345860e-03 4.312722460883e-03 0.0 
0.0 0.0 -7.242776845527e-04 
3.539823178863e-04 1.710352572919e-03 0.0 
1.710352572919e-03 5.866051080763e-04 0.0 
0.0 0.0 -4.031088968411e-04 
-9.225734973571e-04 -7.785055507497e-06 0.0 
-7.785055507497e-06 4.710905526494e-03 0.0 
0.0 0.0 -1.303388942653e-03 
2.002003524453e-04 -6.228844878024e-04 0.0 
-6.228844878024e-04 2.361800845582e-04 0.0 
0.0 0.0 -1.150931346421e-04 
6.351277012353e-06 -1.034192914689e-04 0.0 
-1.034192914689e-04 -6.351277012351e-06 0.0 
0.0 0.0 0.0 
-1.143124804619e-03 -1.686232053488e-03 0.0 
-1.686232053488e-03 5.409600557008e-03 0.0 
0.0 0.0 -1.303360877099e-03 
1.234786051763e-04 1.977711876023e-03 0.0 
1.977711876023e-03 1.061132021132e-03 0.0 
0.0 0.0 -5.076902684178e-04 
-1.444704152341e-03 -3.615903752048e-04 0.0 
-3.615903752048e-04 4.407515592965e-03 0.0 
0.0 0.0 -1.026919993916e-03 
-9.479894819801e-04 1.838728918359e-03 0.0 
1.838728918359e-03 4.893992345869e-03 0.0 
0.0 0.0 -1.300998267065e-03 
-3.669420938573e-04 1.945721923899e-03 0.0 
1.945721923899e-03 2.035468676857e-03 0.0 
0.0 0.0 -7.150828212858e-04 
-1.134501767780e-03 3.078864715943e-03 0.0 
3.078864715943e-03 5.708971873236e-03 0.0 
0.0 0.0 -1.304014651794e-03 
-9.933335184060e-04 1.783041133304e-03 0.0 
1.783041133304e-03 3.368272424712e-03 0.0 
0.0 0.0 -8.139337748180e-04 
-1.367928456590e-03 -1.893022985453e-03 0.0 
-1.893022985453e-03 6.315060285992e-03 0.0 
0.0 0.0 -1.307658508868e-03 
1.393566666495e-03 -5.293231022229e-04 0.0 
-5.293231022229e-04 -2.919979710108e-04 0.0 
0.0 0.0 -1.726441863791e-04 
-1.321068622768e-03 3.408933067941e-03 0.0 
3.408933067941e-03 6.699280987615e-03 0.0 
0.0 0.0 -1.304481600125e-03 
-1.625241511018e-03 1.405941443998e-03 0.0 
1.405941443998e-03 4.657250357868e-03 0.0 
0.0 0.0 -7.595448291451e-04 
-9.674687493222e-04 -2.324067189866e-04 0.0 
-2.324067189866e-04 3.002016490702e-03 0.0 
0.0 0.0 -7.390740322083e-04 
-1.821851265128e-03 -3.597710289885e-04 0.0 
-3.597710289885e-04 5.333319395799e-03 0.0 
0.0 0.0 -1.073818338595e-03 
-1.412437544610e-03 3.130277989420e-03 0.0 
3.130277989420e-03 7.340714354146e-03 0.0 
0.0 0.0 -1.301280071178e-03 
-1.458721797288e-03 2.468181070438e-03 0.0 
2.468181070438e-03 8.007112846752e-03 0.0 
0.0 0.0 -1.304294760550e-03 
-1.442626291436e-03 7.982050020717e-04 0.0 
7.982050020717e-04 8.632923623264e-03 0.0 
0.0 0.0 -1.303238611779e-03 
-1.460924372811e-03 1.330564066234e-03 0.0 
1.330564066234e-03 8.482170570322e-03 0.0 
0.0 0.0 -1.297727402575e-03 
-1.466071718827e-03 1.860397699296e-03 0.0 
1.860397699296e-03 8.323259225048e-03 0.0 
0.0 0.0 -1.305306183856e-03 
-1.723504189141e-03 9.545217762893e-04 0.0 
9.545217762893e-04 5.069531762335e-03 0.0 
0.0 0.0 -7.528866907182e-04 
-1.609633540750e-03 4.109047618561e-04 0.0 
4.109047618561e-04 5.236232241604e-03 0.0 
0.0 0.0 -7.529849494387e-04 
-1.529214909887e-03 1.902322029956e-04 0.0 
1.902322029956e-04 5.302594416650e-03 0.0 
0.0 0.0 -7.580270452736e-04 
-1.581306103182e-03 3.146837778263e-05 0.0 
3.146837778263e-05 6.876614414943e-03 0.0 
0.0 0.0 -9.950081682429e-04 
-1.500312298629e-03 -1.404495050420e-03 0.0 
-1.404495050420e-03 6.813712989149e-03 0.0 
0.0 0.0 -1.302874185639e-03 
0.0 0.0 0.0 
0.0 0.0 0.0 
0.0 0.0 0.0 
1.991019007460e-03 -2.749999736625e-04 0.0 
-2.749999736625e-04 -4.994877663417e-04 0.0 
0.0 0.0 -1.971444476807e-04 
-2.064700972320e-03 -3.063344179821e-04 0.0 
-3.063344179821e-04 6.409893202118e-03 0.0 
0.0 0.0 -1.122886395833e-03 
-1.468245391393e-03 9.255547116428e-05 0.0 
9.255547116428e-05 5.268982738319e-03 0.0 
0.0 0.0 -7.500338828344e-04 
-3.768246537726e-04 -1.072125225081e-04 0.0 
-1.072125225081e-04 1.532862867376e-03 0.0 
0.0 0.0 -3.103003023327e-04 
-1.462480749969e-03 2.788238406384e-03 0.0 
2.788238406384e-03 7.654884390723e-03 0.0 
0.0 0.0 -1.293200138473e-03 
-1.060495443339e-03 2.586030718155e-03 0.0 
2.586030718155e-03 5.302800007763e-03 0.0 
0.0 0.0 -1.307307853467e-03 
-1.239947575843e-03 3.359554949631e-03 0.0 
3.359554949631e-03 6.201507605709e-03 0.0 
0.0 0.0 -1.304733450272e-03 
-8.851569131084e-04 1.017294528516e-03 0.0 
1.017294528516e-03 4.688446957818e-03 0.0 
0.0 0.0 -1.297928233296e-03 
-1.011734799512e-03 -8.525942349034e-04 0.0 
-8.525942349034e-04 4.907050266684e-03 0.0 
0.0 0.0 -1.305578568836e-03 
1.120011211769e-04 -9.639393047147e-04 0.0 
-9.639393047147e-04 3.552641554252e-04 0.0 
0.0 0.0 -2.002565471152e-04 
-1.668530992619e-03 6.309946100002e-04 0.0 
6.309946100002e-04 5.166924460567e-03 0.0 
0.0 0.0 -7.500980793755e-04 
-1.253144254253e-03 -1.928883033382e-03 0.0 
-1.928883033382e-03 5.781747753778e-03 0.0 
0.0 0.0 -1.293180865222e-03 
-1.565497950727e-03 6.438167873332e-05 0.0 
6.438167873332e-05 7.693447317596e-03 0.0 
0.0 0.0 -1.123598490052e-03 
6.785802533228e-04 -5.736279611176e-04 0.0 
-5.736279611176e-04 1.838174080768e-07 0.0 
0.0 0.0 -1.171618051616e-04 
-1.195500737651e-03 -3.256008312402e-04 0.0 
-3.256008312402e-04 3.719620558921e-03 0.0 
0.0 0.0 -9.209925479532e-04 
-1.429805954471e-03 5.036842419237e-04 0.0 
5.036842419237e-04 8.739646127293e-03 0.0 
0.0 0.0 -1.311981303940e-03 
-9.905702435700e-05 2.013930135586e-03 0.0 
2.013930135586e-03 1.485122832027e-03 0.0 
0.0 0.0 -5.940282032871e-04 
3.261360612195e-04 2.014048139277e-03 0.0 
2.014048139277e-03 7.944417754282e-04 0.0 
0.0 0.0 -4.802476442776e-04 
-6.470413752911e-04 1.957850985508e-03 0.0 
1.957850985508e-03 2.728601734132e-03 0.0 
0.0 0.0 -8.637206373099e-04 
-1.316804590616e-03 1.569868653343e-03 0.0 
1.569868653343e-03 4.005894671503e-03 0.0 
0.0 0.0 -7.800224789174e-04 
1.392281865373e-04 8.472872176913e-04 0.0 
8.472872176913e-04 1.020519840480e-04 0.0 
0.0 0.0 -1.034057873937e-04 
-1.536524951872e-03 3.208999903453e-05 0.0 
3.208999903453e-05 6.068754859848e-03 0.0 
0.0 0.0 -8.684787984471e-04 
-1.527482046669e-03 -8.504264765478e-04 0.0 
-8.504264765478e-04 7.084540485198e-03 0.0 
0.0 0.0 -1.313906642692e-03 
2.259445629762e-03 -9.175095740177e-05 0.0 
-9.175095740177e-05 -6.502150918460e-04 0.0 
0.0 0.0 -1.918888419282e-04 
-1.463207116020e-03 1.296765555730e-04 0.0 
1.296765555730e-04 8.413961701398e-03 0.0 
0.0 0.0 -1.253930875827e-03 
-1.717988966153e-03 1.334598389081e-03 0.0 
1.334598389081e-03 4.909530889206e-03 0.0 
0.0 0.0 -7.655439890770e-04 
-1.720228455065e-03 1.586186079137e-03 0.0 
1.586186079137e-03 4.967329360851e-03 0.0 
0.0 0.0 -7.934218816250e-04 
-1.768015179977e-03 1.461597718910e-03 0.0 
1.461597718910e-03 5.276074626724e-03 0.0 
0.0 0.0 -8.115680642089e-04 
-1.765114281844e-03 1.749488874724e-03 0.0 
1.749488874724e-03 5.323901634960e-03 0.0 
0.0 0.0 -8.428390908522e-04 
-1.776011419960e-03 1.632950866705e-03 0.0 
1.632950866705e-03 5.614599388379e-03 0.0 
0.0 0.0 -8.784658474099e-04 
-1.753067371520e-03 1.892876727445e-03 0.0 
1.892876727445e-03 5.647697331923e-03 0.0 
0.0 0.0 -9.060409163497e-04 
-1.729403370927e-03 2.034729517834e-03 0.0 
2.034729517834e-03 5.329326258993e-03 0.0 
0.0 0.0 -8.711257577414e-04 
-1.705524146156e-03 2.154135310252e-03 0.0 
2.154135310252e-03 5.649528349792e-03 0.0 
0.0 0.0 -9.341442283280e-04 
-1.669480427723e-03 2.313796081278e-03 0.0 
2.313796081278e-03 5.302391134739e-03 0.0 
0.0 0.0 -8.989774131092e-04 
-1.760017773414e-03 1.778713600910e-03 0.0 
1.778713600910e-03 5.960915318729e-03 0.0 
0.0 0.0 -9.415083590319e-04 
-1.639128685698e-03 2.400878910049e-03 0.0 
2.400878910049e-03 5.620671151866e-03 0.0 
0.0 0.0 -9.622976032585e-04 
-1.585968914987e-03 2.571269188534e-03 0.0 
2.571269188534e-03 5.245482773901e-03 0.0 
0.0 0.0 -9.268639294333e-04 
-1.553264337981e-03 2.629359401866e-03 0.0 
2.629359401866e-03 5.564461608518e-03 0.0 
0.0 0.0 -9.903372159162e-04 
-1.482148429882e-03 2.800719357184e-03 0.0 
2.800719357184e-03 5.162964478957e-03 0.0 
0.0 0.0 -9.547708836903e-04 
-1.480872876733e-03 2.756523220070e-03 0.0 
2.756523220070e-03 4.843370134984e-03 0.0 
0.0 0.0 -9.032660992691e-04 
-1.370066982921e-03 2.994500238396e-03 0.0 
2.994500238396e-03 4.734217419357e-03 0.0 
0.0 0.0 -9.261835667445e-04 
-1.296697830142e-03 2.932762897298e-03 0.0 
2.932762897298e-03 4.406716792506e-03 0.0 
0.0 0.0 -9.004111975071e-04 
-1.176154479742e-03 3.171939239460e-03 0.0 
3.171939239460e-03 4.268382598936e-03 0.0 
0.0 0.0 -9.182233496599e-04 
-1.237826052231e-03 3.181299556145e-03 0.0 
3.181299556145e-03 4.604885530242e-03 0.0 
0.0 0.0 -9.498701766430e-04 
-1.038924370446e-03 3.354505003279e-03 0.0 
3.354505003279e-03 4.108768898160e-03 0.0 
0.0 0.0 -9.343221806050e-04 
-9.113966935237e-04 3.322436674522e-03 0.0 
3.322436674522e-03 3.767445704006e-03 0.0 
0.0 0.0 -9.288662988139e-04 
-7.681433481646e-04 3.500147498246e-03 0.0 
3.500147498246e-03 3.577220508926e-03 0.0 
0.0 0.0 -9.367850320061e-04 
-6.050859616232e-04 3.441042246538e-03 0.0 
3.441042246538e-03 3.246213294712e-03 0.0 
0.0 0.0 -9.518642033955e-04 
-4.467796431526e-04 3.596824647640e-03 0.0 
3.596824647640e-03 3.023253834938e-03 0.0 
0.0 0.0 -9.541337235040e-04 
-2.817347476968e-04 3.508182660979e-03 0.0 
3.508182660979e-03 2.709346421897e-03 0.0 
0.0 0.0 -9.642822318347e-04 
-1.040481770833e-04 3.619372760828e-03 0.0 
3.619372760828e-03 2.449228749823e-03 0.0 
0.0 0.0 -9.459728402633e-04 
-2.870166289118e-04 3.676071568470e-03 0.0 
3.676071568470e-03 2.794184702227e-03 0.0 
0.0 0.0 -9.498144071847e-04 
6.429436302438e-05 3.660882361634e-03 0.0 
3.660882361634e-03 2.186835241716e-03 0.0 
0.0 0.0 -9.193128608805e-04 
2.331588354861e-04 3.548891452897e-03 0.0 
3.548891452897e-03 1.871725410986e-03 0.0 
0.0 0.0 -8.913707482552e-04 
4.174760030635e-04 3.518419278721e-03 0.0 
3.518419278721e-03 1.585153718146e-03 0.0 
0.0 0.0 -8.538425857873e-04 
5.455280992742e-04 3.365363645192e-03 0.0 
3.365363645192e-03 1.323229666394e-03 0.0 
0.0 0.0 -8.008961852862e-04 
7.498486656370e-04 3.260544319073e-03 0.0 
3.260544319073e-03 1.013594496255e-03 0.0 
0.0 0.0 -7.557613550964e-04 
5.794043773309e-04 3.414810932032e-03 0.0 
3.414810932032e-03 1.312272080423e-03 0.0 
0.0 0.0 -8.100034870355e-04 
9.766186802750e-04 3.126905533587e-03 0.0 
3.126905533587e-03 6.756506724320e-04 0.0 
0.0 0.0 -7.081154368744e-04 
1.170764685342e-03 3.063309594450e-03 0.0 
3.063309594450e-03 3.918842971428e-04 0.0 
0.0 0.0 -6.697067067790e-04 
1.469956798013e-03 2.887539401857e-03 0.0 
2.887539401857e-03 -6.720200421091e-06 0.0 
0.0 0.0 -6.271013989681e-04 
1.655398318796e-03 2.905797537394e-03 0.0 
2.905797537394e-03 -2.066635196578e-04 0.0 
0.0 0.0 -6.208863424878e-04 
1.958892900495e-03 2.587078338226e-03 0.0 
2.587078338226e-03 -5.601119320347e-04 0.0 
0.0 0.0 -5.994775579116e-04 
2.135455672651e-03 2.638700697284e-03 0.0 
2.638700697284e-03 -6.211030008372e-04 0.0 
0.0 0.0 -6.490082879202e-04 
2.410352153471e-03 2.173774944653e-03 0.0 
2.173774944653e-03 -9.107525055140e-04 0.0 
0.0 0.0 -6.426855634101e-04 
2.158594858366e-03 2.117426171510e-03 0.0 
2.117426171510e-03 -8.346185089651e-04 0.0 
0.0 0.0 -5.674184354577e-04 
2.548284906519e-03 1.577323129924e-03 0.0 
1.577323129924e-03 -1.120076299841e-03 0.0 
0.0 0.0 -6.120894028618e-04 
2.766282761562e-03 1.671188389262e-03 0.0 
1.671188389262e-03 -1.152705968468e-03 0.0 
0.0 0.0 -6.915329113260e-04 
2.831831315373e-03 9.695675877105e-04 0.0 
9.695675877105e-04 -1.281170566415e-03 0.0 
0.0 0.0 -6.645688924106e-04 
2.536993124922e-03 9.134999273791e-04 0.0 
9.134999273791e-04 -1.229619517363e-03 0.0 
0.0 0.0 -5.603029746683e-04 
2.733867997822e-03 2.586198841001e-04 0.0 
2.586198841001e-04 -1.313858956396e-03 0.0 
0.0 0.0 -6.085753034686e-04 
2.382754168972e-03 2.331723641419e-04 0.0 
2.331723641419e-04 -1.217161318829e-03 0.0 
0.0 0.0 -4.995397929185e-04 
2.475502276821e-03 -4.225569186791e-04 0.0 
-4.225569186791e-04 -1.235276730126e-03 0.0 
0.0 0.0 -5.315252342980e-04 
2.783353977069e-03 -4.207301430438e-04 0.0 
-4.207301430438e-04 -1.298298732893e-03 0.0 
0.0 0.0 -6.364522475042e-04 
2.431423533239e-03 -1.055611195596e-03 0.0 
-1.055611195596e-03 -1.141139443354e-03 0.0 
0.0 0.0 -5.529788956651e-04 
2.074488083004e-03 -1.034963949875e-03 0.0 
-1.034963949875e-03 -9.657239908617e-04 0.0 
0.0 0.0 -4.751846109182e-04 
1.948746609120e-03 -1.563616376602e-03 0.0 
-1.563616376602e-03 -7.896259199600e-04 0.0 
0.0 0.0 -4.967660096401e-04 
2.266914827687e-03 -1.646291796375e-03 0.0 
-1.646291796375e-03 -9.610891233280e-04 0.0 
0.0 0.0 -5.596395875825e-04 
1.725234701887e-03 -1.991509456133e-03 0.0 
-1.991509456133e-03 -5.081914327056e-04 0.0 
0.0 0.0 -5.215899725061e-04 
1.402225958191e-03 -1.927478583456e-03 0.0 
-1.927478583456e-03 -1.960854800127e-04 0.0 
0.0 0.0 -5.169173477906e-04 
1.209383151701e-03 -2.216403946003e-03 0.0 
-2.216403946003e-03 7.890654783241e-05 0.0 
0.0 0.0 -5.521241569428e-04 
1.437995882087e-03 -2.266737877318e-03 0.0 
-2.266737877318e-03 -1.663516021812e-04 0.0 
0.0 0.0 -5.449904056737e-04 
1.024600490131e-03 -2.464285469351e-03 0.0 
-2.464285469351e-03 3.533750076132e-04 0.0 
0.0 0.0 -5.905609276045e-04 
8.985317602796e-04 -2.606405635227e-03 0.0 
-2.606405635227e-03 5.292322287010e-04 0.0 
0.0 0.0 -6.118988524203e-04 
7.560704768117e-04 -2.818446778216e-03 0.0 
-2.818446778216e-03 7.706212678723e-04 0.0 
0.0 0.0 -6.542964620075e-04 
8.580312086144e-04 -2.682927376050e-03 0.0 
-2.682927376050e-03 6.007672926437e-04 0.0 
0.0 0.0 -6.251993576820e-04 
5.867828103229e-04 -2.962553875983e-03 0.0 
-2.962553875983e-03 1.034857146591e-03 0.0 
0.0 0.0 -6.949885529632e-04 
4.441790608849e-04 -3.069180945402e-03 0.0 
-3.069180945402e-03 1.277969962145e-03 0.0 
0.0 0.0 -7.380638670128e-04 
2.783519300776e-04 -3.113099096991e-03 0.0 
-3.113099096991e-03 1.538449359472e-03 0.0 
0.0 0.0 -7.786291240925e-04 
1.058234640361e-04 -3.171084265656e-03 0.0 
-3.171084265656e-03 1.852966267041e-03 0.0 
0.0 0.0 -8.394813133188e-04 
3.929316153892e-04 -3.010245319228e-03 0.0 
-3.010245319228e-03 1.308656505855e-03 0.0 
0.0 0.0 -7.292520519616e-04 
9.932532998196e-05 -3.071474673695e-03 0.0 
-3.071474673695e-03 1.797955184989e-03 0.0 
0.0 0.0 -8.131202207017e-04 
1.861203807317e-04 -2.953410476768e-03 0.0 
-2.953410476768e-03 1.579421639320e-03 0.0 
0.0 0.0 -7.566608657364e-04 
-8.642223961803e-05 -2.932845730897e-03 0.0 
-2.932845730897e-03 2.045062282812e-03 0.0 
0.0 0.0 -8.394171613687e-04 
7.378179429990e-04 3.236151700417e-03 0.0 
3.236151700417e-03 1.055249139964e-03 0.0 
0.0 0.0 -7.684573212697e-04 
-2.470987176264e-05 -2.774259717146e-03 0.0 
-2.774259717146e-03 1.827411113102e-03 0.0 
0.0 0.0 -7.725862462883e-04 
2.168591650758e-04 -2.749464912916e-03 0.0 
-2.749464912916e-03 1.402707795240e-03 0.0 
0.0 0.0 -6.941001258497e-04 
-2.655633051019e-04 -2.700896907473e-03 0.0 
-2.700896907473e-03 2.263406073752e-03 0.0 
0.0 0.0 -8.562183294215e-04 
-3.538412369767e-04 -2.807118068406e-03 0.0 
-2.807118068406e-03 2.524613030834e-03 0.0 
0.0 0.0 -9.303307687962e-04 
-2.182790499822e-04 -2.492668770886e-03 0.0 
-2.492668770886e-03 2.032114690057e-03 0.0 
0.0 0.0 -7.773581314605e-04 
-4.250446102995e-04 -2.387105800852e-03 0.0 
-2.387105800852e-03 2.436232383686e-03 0.0 
0.0 0.0 -8.619376171656e-04 
-3.808762253420e-04 -2.140229309317e-03 0.0 
-2.140229309317e-03 2.184406533220e-03 0.0 
0.0 0.0 -7.729415605190e-04 
1.763159166294e-03 2.932701492782e-03 0.0 
2.932701492782e-03 -2.697944395366e-04 0.0 
0.0 0.0 -6.400134543247e-04 
-1.088844513542e-03 3.301377294412e-03 0.0 
3.301377294412e-03 4.460583281383e-03 0.0 
0.0 0.0 -9.751682721562e-04 
-5.557439599788e-04 -2.010376698230e-03 0.0 
-2.010376698230e-03 2.553174357475e-03 0.0 
0.0 0.0 -8.560415989269e-04 
-5.027177784437e-04 -1.739983302349e-03 0.0 
-1.739983302349e-03 2.268016728775e-03 0.0 
0.0 0.0 -7.565566929991e-04 
-3.487326511454e-04 -1.851839421592e-03 0.0 
-1.851839421592e-03 1.937346492323e-03 0.0 
0.0 0.0 -6.808345033620e-04 
-4.519877827048e-04 -1.437771514004e-03 0.0 
-1.437771514004e-03 1.973465387895e-03 0.0 
0.0 0.0 -6.520618307959e-04 
-1.774841257907e-03 1.527132807035e-03 0.0 
1.527132807035e-03 5.918357799879e-03 0.0 
0.0 0.0 -9.126358703463e-04 
-1.762808846704e-03 1.694088373988e-03 0.0 
1.694088373988e-03 6.266633471383e-03 0.0 
0.0 0.0 -9.772611937912e-04 
-1.774288393461e-03 1.442569390130e-03 0.0 
1.442569390130e-03 6.194015386497e-03 0.0 
0.0 0.0 -9.468612964576e-04 
-1.759396418391e-03 1.612723129842e-03 0.0 
1.612723129842e-03 6.563174828670e-03 0.0 
0.0 0.0 -1.012955122490e-03 
-1.767929614200e-03 1.376342917300e-03 0.0 
1.376342917300e-03 6.485124768915e-03 0.0 
0.0 0.0 -9.835180958883e-04 
-5.788967960072e-04 -1.335257077215e-03 0.0 
-1.335257077215e-03 2.277225899990e-03 0.0 
0.0 0.0 -7.256352817785e-04 
-1.603689512328e-03 2.493470387195e-03 0.0 
2.493470387195e-03 5.946173640174e-03 0.0 
0.0 0.0 -1.026687169009e-03 
-1.736212695290e-03 1.850044700733e-03 0.0 
1.850044700733e-03 6.615422803056e-03 0.0 
0.0 0.0 -1.042264213861e-03 
-7.638319934371e-04 3.223456733069e-03 0.0 
3.223456733069e-03 3.455847564200e-03 0.0 
0.0 0.0 -9.409285294772e-04 
3.366430025168e-04 3.397992003127e-03 0.0 
3.397992003127e-03 1.628840077963e-03 0.0 
0.0 0.0 -8.423498916340e-04 
2.156368313925e-03 8.947959957603e-04 0.0 
8.947959957603e-04 -1.035979942615e-03 0.0 
0.0 0.0 -4.801664448473e-04 
-6.227154585167e-04 -2.198002757365e-03 0.0 
-2.198002757365e-03 2.831211668969e-03 0.0 
0.0 0.0 -9.464983759082e-04 
-7.218347779198e-04 -1.819122893170e-03 0.0 
-1.819122893170e-03 2.913297155100e-03 0.0 
0.0 0.0 -9.383242106009e-04 
-8.133368797394e-04 -1.945809227020e-03 0.0 
-1.945809227020e-03 3.204453228297e-03 0.0 
0.0 0.0 -1.004955155493e-03 
2.358180408842e-04 -3.147007717197e-03 0.0 
-3.147007717197e-03 1.628184027877e-03 0.0 
0.0 0.0 -7.988580294692e-04 
-1.225410220003e-04 -3.166679032327e-03 0.0 
-3.166679032327e-03 2.260222165472e-03 0.0 
0.0 0.0 -9.088386183890e-04 
-3.596074933625e-05 -3.143460862446e-03 0.0 
-3.143460862446e-03 2.089404171616e-03 0.0 
0.0 0.0 -8.720661220001e-04 
-3.940691537939e-04 -3.066493924859e-03 0.0 
-3.066493924859e-03 2.736277962959e-03 0.0 
0.0 0.0 -9.548449181928e-04 
-3.127433245065e-04 -2.982699423106e-03 0.0 
-2.982699423106e-03 2.620883950583e-03 0.0 
0.0 0.0 -9.363521337227e-04 
-6.475470341843e-04 -2.849005951016e-03 0.0 
-2.849005951016e-03 3.244198139691e-03 0.0 
0.0 0.0 -9.829094188347e-04 
-7.290342086422e-04 -2.890946438125e-03 0.0 
-2.890946438125e-03 3.342200867435e-03 0.0 
0.0 0.0 -9.972914379494e-04 
-9.540874880885e-04 -2.660066281729e-03 0.0 
-2.660066281729e-03 3.821872870679e-03 0.0 
0.0 0.0 -1.003716470558e-03 
-1.033871380646e-03 -2.655311578103e-03 0.0 
-2.655311578103e-03 3.899288306138e-03 0.0 
0.0 0.0 -1.010717982506e-03 
-5.020318707035e-04 -2.652589391131e-03 0.0 
-2.652589391131e-03 3.162848563043e-03 0.0 
0.0 0.0 -1.000386703517e-03 
-1.738328040713e-04 -2.716917287151e-03 0.0 
-2.716917287151e-03 2.542650585114e-03 0.0 
0.0 0.0 -9.561072799058e-04 
-1.217140716833e-03 -2.433745842754e-03 0.0 
-2.433745842754e-03 4.355239653684e-03 0.0 
0.0 0.0 -1.026468870702e-03 
-1.301004518180e-03 -2.384512482324e-03 0.0 
-2.384512482324e-03 4.413129634354e-03 0.0 
0.0 0.0 -1.025303715086e-03 
-1.433223260983e-03 -2.180723409209e-03 0.0 
-2.180723409209e-03 4.841898264917e-03 0.0 
0.0 0.0 -1.051254241329e-03 
-1.533782143048e-03 -2.096001782913e-03 0.0 
-2.096001782913e-03 4.882119290392e-03 0.0 
0.0 0.0 -1.038917832539e-03 
-1.344970022650e-03 -2.253929758585e-03 0.0 
-2.253929758585e-03 4.461736113479e-03 0.0 
0.0 0.0 -1.037516479237e-03 
-1.569102967331e-03 -1.933831873179e-03 0.0 
-1.933831873179e-03 4.899834166201e-03 0.0 
0.0 0.0 -1.046305699947e-03 
-1.376153231101e-03 -2.066079550050e-03 0.0 
-2.066079550050e-03 4.500968763913e-03 0.0 
0.0 0.0 -1.050803148915e-03 
1.947540486422e-03 2.152880942579e-04 0.0 
2.152880942579e-04 -9.005037723215e-04 0.0 
0.0 0.0 -4.487300203286e-04 
1.680967532914e-03 9.207071897223e-04 0.0 
9.207071897223e-04 -5.014207716637e-04 0.0 
0.0 0.0 -5.055200405360e-04 
1.438850481880e-03 2.016578593639e-04 0.0 
2.016578593639e-04 -1.625086232559e-04 0.0 
0.0 0.0 -5.470036536960e-04 
1.202172879279e-03 8.527240019949e-04 0.0 
8.527240019949e-04 3.828898779410e-04 0.0 
0.0 0.0 -6.793126102372e-04 
1.037530362003e-03 2.011510087903e-04 0.0 
2.011510087903e-04 7.506062236288e-04 0.0 
0.0 0.0 -7.663442509849e-04 
8.675854264309e-04 7.587081521114e-04 0.0 
7.587081521114e-04 1.231843798103e-03 0.0 
0.0 0.0 -8.979051750036e-04 
7.349701041776e-04 2.153247329944e-04 0.0 
2.153247329944e-04 1.546423059999e-03 0.0 
0.0 0.0 -9.701408636527e-04 
8.610381847209e-04 -3.526591051395e-04 0.0 
-3.526591051395e-04 1.156465632251e-03 0.0 
0.0 0.0 -8.646444929881e-04 
-1.453224264520e-03 2.831768754596e-03 0.0 
2.831768754596e-03 5.484804576212e-03 0.0 
0.0 0.0 -1.018102500310e-03 
3.008867090267e-03 1.058367247789e-03 0.0 
1.058367247789e-03 -1.343458179845e-03 0.0 
0.0 0.0 -7.137466758949e-04 
2.853497805066e-03 1.766083769912e-03 0.0 
1.766083769912e-03 -1.173072932721e-03 0.0 
0.0 0.0 -7.201820881480e-04 
3.053541270561e-03 1.142570270594e-03 0.0 
1.142570270594e-03 -1.348374367158e-03 0.0 
0.0 0.0 -7.307858157443e-04 
2.838618046953e-03 1.876649797015e-03 0.0 
1.876649797015e-03 -1.126367864291e-03 0.0 
0.0 0.0 -7.338215068551e-04 
2.971080593981e-03 1.270655419308e-03 0.0 
1.270655419308e-03 -1.289312095888e-03 0.0 
0.0 0.0 -7.207579277541e-04 
2.719217330289e-03 2.056721202716e-03 0.0 
2.056721202716e-03 -1.037451596634e-03 0.0 
0.0 0.0 -7.207567429950e-04 
2.772942118414e-03 1.411962470906e-03 0.0 
1.411962470906e-03 -1.228640855760e-03 0.0 
0.0 0.0 -6.618433982802e-04 
2.936188635973e-03 5.059698955333e-04 0.0 
5.059698955333e-04 -1.379043216914e-03 0.0 
0.0 0.0 -6.673480367399e-04 
2.617932977065e-03 5.853697332861e-04 0.0 
5.853697332861e-04 -1.334188021617e-03 0.0 
0.0 0.0 -5.501764094776e-04 
2.753067280877e-03 -3.549983010408e-04 0.0 
-3.549983010408e-04 -1.367545839080e-03 0.0 
0.0 0.0 -5.937949036274e-04 
2.283697930113e-03 -2.688909952497e-04 0.0 
-2.688909952497e-04 -1.277221164065e-03 0.0 
0.0 0.0 -4.313471854492e-04 
2.525026440165e-03 -1.212492314672e-03 0.0 
-1.212492314672e-03 -1.245102357231e-03 0.0 
0.0 0.0 -5.485388926860e-04 
-1.241644147846e-04 3.665257049786e-03 0.0 
3.665257049786e-03 2.568141902724e-03 0.0 
0.0 0.0 -9.405629120884e-04 
9.458807958305e-04 1.361774924333e-03 0.0 
1.361774924333e-03 9.904922510770e-04 0.0 
0.0 0.0 -8.298741629604e-04 
6.513001348098e-04 1.229100697752e-03 0.0 
1.229100697752e-03 1.753882193068e-03 0.0 
0.0 0.0 -9.993981362447e-04 
6.963768604448e-04 1.772072157614e-03 0.0 
1.772072157614e-03 1.581186938205e-03 0.0 
0.0 0.0 -9.522937794042e-04 
-3.189420848090e-04 -1.545020922433e-03 0.0 
-1.545020922433e-03 1.685829119162e-03 0.0 
0.0 0.0 -5.858087290083e-04 
-1.729227017080e-03 -1.797597956290e-03 0.0 
-1.797597956290e-03 5.304685395965e-03 0.0 
0.0 0.0 -1.052155339158e-03 
-3.558894212413e-04 -2.357175527876e-03 0.0 
-2.357175527876e-03 3.123019306479e-03 0.0 
0.0 0.0 -1.032922975483e-03 
-3.685387661375e-05 -2.333297789804e-03 0.0 
-2.333297789804e-03 2.519376975604e-03 0.0 
0.0 0.0 -9.972889278909e-04 
5.502284084495e-04 -2.540944922989e-04 0.0 
-2.540944922989e-04 1.932880194956e-03 0.0 
0.0 0.0 -1.036234461364e-03 
-5.051250462252e-04 -1.053858961610e-03 0.0 
-1.053858961610e-03 1.923683454344e-03 0.0 
0.0 0.0 -5.970694122200e-04 
2.486914527932e-03 2.192796758779e-03 0.0 
2.192796758779e-03 -9.291035182538e-04 0.0 
0.0 0.0 -6.676332898623e-04 
2.328692636026e-03 2.634849956172e-03 0.0 
2.634849956172e-03 -6.738088910714e-04 0.0 
0.0 0.0 -7.092358906949e-04 
-1.744623678677e-03 1.540348128746e-03 0.0 
1.540348128746e-03 6.846449706807e-03 0.0 
0.0 0.0 -1.048874596840e-03 
-1.750773001735e-03 1.319704536713e-03 0.0 
1.319704536713e-03 6.756146718387e-03 0.0 
0.0 0.0 -1.019458214591e-03 
-2.480160767706e-04 -2.004916630844e-03 0.0 
-2.004916630844e-03 3.137306023889e-03 0.0 
0.0 0.0 -1.070157681403e-03 
-6.234076530390e-04 -9.645286907226e-04 0.0 
-9.645286907226e-04 2.209865459266e-03 0.0 
0.0 0.0 -6.466873288763e-04 
-1.068414060457e-03 -2.374253472806e-03 0.0 
-2.374253472806e-03 4.293485734694e-03 0.0 
0.0 0.0 -1.053463316161e-03 
2.067995625182e-03 6.451329218673e-04 0.0 
6.451329218673e-04 -1.186041327943e-03 0.0 
0.0 0.0 -3.779804131024e-04 
-1.762784595192e-03 -1.607331333857e-03 0.0 
-1.607331333857e-03 5.293267446583e-03 0.0 
0.0 0.0 -1.053563116650e-03 
-1.867913240625e-03 -1.489305966451e-03 0.0 
-1.489305966451e-03 5.673891533939e-03 0.0 
0.0 0.0 -1.070920355653e-03 
-7.933761041048e-04 -2.832720245216e-03 0.0 
-2.832720245216e-03 3.452224715287e-03 0.0 
0.0 0.0 -1.021320298254e-03 
4.031722277788e-04 1.617631885485e-03 0.0 
1.617631885485e-03 2.296315845658e-03 0.0 
0.0 0.0 -1.069468904140e-03 
4.279180701410e-04 2.089566425205e-03 0.0 
2.089566425205e-03 2.165414708705e-03 0.0 
0.0 0.0 -1.033921039166e-03 
2.748961671600e-03 -1.234973564708e-03 0.0 
-1.234973564708e-03 -1.253110519415e-03 0.0 
0.0 0.0 -6.410790652217e-04 
2.518060065866e-03 -2.059438322562e-03 0.0 
-2.059438322562e-03 -1.018220698221e-03 0.0 
0.0 0.0 -6.427883004194e-04 
2.357888963389e-03 -2.118209179973e-03 0.0 
-2.118209179973e-03 -9.914742540871e-04 0.0 
0.0 0.0 -5.856063039867e-04 
2.191323313200e-03 -2.728758808394e-03 0.0 
-2.728758808394e-03 -6.479650369089e-04 0.0 
0.0 0.0 -6.614392612675e-04 
2.278763046571e-03 -2.578114575528e-03 0.0 
-2.578114575528e-03 -7.103706415061e-04 0.0 
0.0 0.0 -6.721681735992e-04 
1.895457018917e-03 -3.007528799367e-03 0.0 
-3.007528799367e-03 -3.206537863592e-04 0.0 
0.0 0.0 -6.749156710960e-04 
1.780393766489e-03 -3.161947930664e-03 0.0 
-3.161947930664e-03 -1.991738640969e-04 0.0 
0.0 0.0 -6.776656724536e-04 
1.498218282607e-03 -3.239267173229e-03 0.0 
-3.239267173229e-03 1.323736015907e-04 0.0 
0.0 0.0 -6.988250932278e-04 
1.538218957511e-03 -3.082075736210e-03 0.0 
-3.082075736210e-03 7.246781046902e-07 0.0 
0.0 0.0 -6.595472724067e-04 
1.116756184221e-03 -3.039153293536e-03 0.0 
-3.039153293536e-03 4.098621490744e-04 0.0 
0.0 0.0 -6.542649999838e-04 
9.813252680918e-04 -2.956617965048e-03 0.0 
-2.956617965048e-03 5.482338783846e-04 0.0 
0.0 0.0 -6.555253484899e-04 
6.892512545273e-04 -2.715436424775e-03 0.0 
-2.715436424775e-03 7.414890539001e-04 0.0 
0.0 0.0 -6.131744178975e-04 
-1.739487401810e-03 -1.643308528611e-03 0.0 
-1.643308528611e-03 5.674904400731e-03 0.0 
0.0 0.0 -1.101875158976e-03 
1.625849311047e-03 -1.683389643306e-04 0.0 
-1.683389643306e-04 -1.097136295050e-03 0.0 
0.0 0.0 -2.265912925700e-04 
-1.396148361601e-03 2.647702035806e-03 0.0 
2.647702035806e-03 4.519072400057e-03 0.0 
0.0 0.0 -8.810844588398e-04 
-5.349333944456e-04 -2.056134526959e-03 0.0 
-2.056134526959e-03 3.696128141265e-03 0.0 
0.0 0.0 -1.099012274073e-03 
4.001314244547e-04 2.494511169208e-04 0.0 
2.494511169208e-04 2.291122324032e-03 0.0 
0.0 0.0 -1.088453095952e-03 
-1.720074879915e-03 1.479198222822e-03 0.0 
1.479198222822e-03 7.120039440071e-03 0.0 
0.0 0.0 -1.085032576515e-03 
-1.727265597861e-03 1.269164868262e-03 0.0 
1.269164868262e-03 7.020339379643e-03 0.0 
0.0 0.0 -1.055603631703e-03 
-1.745923234167e-03 1.117194505061e-03 0.0 
1.117194505061e-03 6.644193117880e-03 0.0 
0.0 0.0 -9.897378988699e-04 
-1.726111739886e-03 1.073003689324e-03 0.0 
1.073003689324e-03 6.905750690588e-03 0.0 
0.0 0.0 -1.026001677571e-03 
-1.697815529865e-03 1.216597394983e-03 0.0 
1.216597394983e-03 7.279055033116e-03 0.0 
0.0 0.0 -1.091942449670e-03 
-1.699755368788e-03 1.027337857590e-03 0.0 
1.027337857590e-03 7.158023142695e-03 0.0 
0.0 0.0 -1.062342898562e-03 
-1.716352618538e-03 8.878056221667e-04 0.0 
8.878056221667e-04 6.774679391188e-03 0.0 
0.0 0.0 -9.962627399151e-04 
-1.692178280540e-03 8.508470267666e-04 0.0 
8.508470267666e-04 7.019991579685e-03 0.0 
0.0 0.0 -1.032646955902e-03 
-1.695660932446e-03 7.184317155414e-04 0.0 
7.184317155414e-04 6.625583462411e-03 0.0 
0.0 0.0 -9.664557332607e-04 
-1.677486126932e-03 6.911180295046e-04 0.0 
6.911180295046e-04 6.868534941944e-03 0.0 
0.0 0.0 -1.002889032254e-03 
-1.663620555798e-03 8.098065595925e-04 0.0 
8.098065595925e-04 7.259384762552e-03 0.0 
0.0 0.0 -1.069134413525e-03 
-1.655525420696e-03 6.533870042141e-04 0.0 
6.533870042141e-04 7.107625883104e-03 0.0 
0.0 0.0 -1.039387411609e-03 
-1.659615819212e-03 5.491873914478e-04 0.0 
5.491873914478e-04 6.708579784798e-03 0.0 
0.0 0.0 -9.730575354659e-04 
-1.642941155605e-03 5.125241071205e-04 0.0 
5.125241071205e-04 6.945188648216e-03 0.0 
0.0 0.0 -1.009574527126e-03 
-1.637255380195e-03 4.205204331053e-04 0.0 
4.205204331053e-04 6.536272510904e-03 0.0 
0.0 0.0 -9.431603702596e-04 
-1.623420800787e-03 3.856837058294e-04 0.0 
3.856837058294e-04 6.767271635738e-03 0.0 
0.0 0.0 -9.796061197752e-04 
-1.622026920778e-03 4.757000201370e-04 0.0 
4.757000201370e-04 7.177981971167e-03 0.0 
0.0 0.0 -1.046101832713e-03 
-5.260638759536e-04 -7.746154698035e-04 0.0 
-7.746154698035e-04 1.804698088172e-03 0.0 
0.0 0.0 -4.826019863697e-04 
6.384355500235e-04 -8.071467030727e-04 0.0 
-8.071467030727e-04 1.625869863801e-03 0.0 
0.0 0.0 -9.660701661439e-04 
3.155700960172e-04 -6.399278427758e-04 0.0 
-6.399278427758e-04 2.369342842803e-03 0.0 
0.0 0.0 -1.083831836677e-03 
-8.892645420983e-04 -1.589464053846e-03 0.0 
-1.589464053846e-03 3.243112049151e-03 0.0 
0.0 0.0 -9.683295300233e-04 
-9.893521759344e-04 -1.650588191873e-03 0.0 
-1.650588191873e-03 3.517832807879e-03 0.0 
0.0 0.0 -1.010934236754e-03 
-9.339052402119e-04 -1.988561699477e-03 0.0 
-1.988561699477e-03 3.508091553521e-03 0.0 
0.0 0.0 -1.041462402745e-03 
-1.131758993546e-03 -1.657762215853e-03 0.0 
-1.657762215853e-03 3.856452720899e-03 0.0 
0.0 0.0 -1.033211989474e-03 
-1.610140258144e-03 3.510578464752e-04 0.0 
3.510578464752e-04 7.002203508451e-03 0.0 
0.0 0.0 -1.015477767897e-03 
-1.603569950634e-03 4.323698609735e-04 0.0 
4.323698609735e-04 7.406712470395e-03 0.0 
0.0 0.0 -1.082739357160e-03 
2.075859047304e-03 2.734073794279e-03 0.0 
2.734073794279e-03 -5.151566843200e-04 0.0 
0.0 0.0 -6.688724412789e-04 
1.829803788864e-03 2.896630922712e-03 0.0 
2.896630922712e-03 -2.437374272620e-04 0.0 
0.0 0.0 -6.797427264007e-04 
-1.702624885041e-03 1.699730791061e-03 0.0 
1.699730791061e-03 7.199957864770e-03 0.0 
0.0 0.0 -1.114382729655e-03 
-1.921178658721e-03 -1.279150328982e-03 0.0 
-1.279150328982e-03 5.641022297000e-03 0.0 
0.0 0.0 -1.061085778683e-03 
-1.759404772593e-03 -1.368797781515e-03 0.0 
-1.368797781515e-03 5.258990087990e-03 0.0 
0.0 0.0 -1.062669991958e-03 
6.091469494368e-04 3.201234470351e-03 0.0 
3.201234470351e-03 1.145920310691e-03 0.0 
0.0 0.0 -7.521716829121e-04 
3.812479400786e-04 3.221138826746e-03 0.0 
3.221138826746e-03 1.454024134529e-03 0.0 
0.0 0.0 -7.865451748317e-04 
6.223231318809e-04 3.034958604236e-03 0.0 
3.034958604236e-03 1.026602646357e-03 0.0 
0.0 0.0 -7.066824763876e-04 
3.755190555598e-04 3.004529260336e-03 0.0 
3.004529260336e-03 1.328866931440e-03 0.0 
0.0 0.0 -7.304511372856e-04 
1.504650344152e-04 3.149504562038e-03 0.0 
3.149504562038e-03 1.760988080228e-03 0.0 
0.0 0.0 -8.191941919899e-04 
5.829936888595e-04 2.805741157272e-03 0.0 
2.805741157272e-03 9.386435949221e-04 0.0 
0.0 0.0 -6.521302644778e-04 
1.691581229929e-04 -2.698724546406e-03 0.0 
-2.698724546406e-03 1.880405331260e-03 0.0 
0.0 0.0 -8.664312523603e-04 
-1.632170864774e-03 7.587389543785e-04 0.0 
7.587389543785e-04 7.494664304375e-03 0.0 
0.0 0.0 -1.105708206284e-03 
-1.867627977739e-04 -1.946982532398e-03 0.0 
-1.946982532398e-03 1.623581017794e-03 0.0 
0.0 0.0 -6.157792371515e-04 
-1.766459924498e-04 -1.658792918857e-03 0.0 
-1.658792918857e-03 1.424250676640e-03 0.0 
0.0 0.0 -5.346877217957e-04 
-1.953846352874e-03 -1.181006378595e-03 0.0 
-1.181006378595e-03 5.993034579258e-03 0.0 
0.0 0.0 -1.094582683422e-03 
9.227653006670e-04 -9.923042472365e-04 0.0 
-9.923042472365e-04 8.348026981178e-04 0.0 
0.0 0.0 -7.532434280506e-04 
-4.484070588213e-04 3.613794165219e-03 0.0 
3.613794165219e-03 3.179623750880e-03 0.0 
0.0 0.0 -9.533529749162e-04 
-2.780489895403e-04 3.528284248772e-03 0.0 
3.528284248772e-03 2.993445099109e-03 0.0 
0.0 0.0 -9.681750457242e-04 
-5.507055311170e-04 3.446174456380e-03 0.0 
3.446174456380e-03 3.597530854088e-03 0.0 
0.0 0.0 -9.957130113267e-04 
-3.863084581791e-04 3.307385071573e-03 0.0 
3.307385071573e-03 3.448440357162e-03 0.0 
0.0 0.0 -1.023751803962e-03 
-6.300320690614e-04 3.259070928407e-03 0.0 
3.259070928407e-03 4.039542678780e-03 0.0 
0.0 0.0 -1.059873349132e-03 
-5.085717340789e-04 3.118830500926e-03 0.0 
3.118830500926e-03 3.927747937877e-03 0.0 
0.0 0.0 -1.087854580038e-03 
-2.514557000785e-04 3.100269023384e-03 0.0 
3.100269023384e-03 3.340960341130e-03 0.0 
0.0 0.0 -1.051791170495e-03 
1.399069373120e-04 1.939674922792e-03 0.0 
1.939674922792e-03 2.839420856551e-03 0.0 
0.0 0.0 -1.107463318235e-03 
-4.186704419438e-04 2.922768790841e-03 0.0 
2.922768790841e-03 3.866682433006e-03 0.0 
0.0 0.0 -1.115916943430e-03 
-1.595806012880e-03 2.986475684988e-04 0.0 
2.986475684988e-04 6.569860539438e-03 0.0 
0.0 0.0 -9.487150400336e-04 
9.874874757951e-04 2.001023480651e-03 0.0 
2.001023480651e-03 8.096298849095e-04 0.0 
0.0 0.0 -7.701931545877e-04 
1.099587361542e-03 -2.883577329194e-03 0.0 
-2.883577329194e-03 3.196281228081e-04 0.0 
0.0 0.0 -6.082352075787e-04 
-4.120182269500e-04 -8.254968701079e-04 0.0 
-8.254968701079e-04 1.533206618467e-03 0.0 
0.0 0.0 -4.510100977179e-04 
5.592980566656e-04 -2.545612127290e-03 0.0 
-2.545612127290e-03 8.296765578219e-04 0.0 
0.0 0.0 -5.952748347803e-04 
-6.262840441887e-04 -6.448010795071e-04 0.0 
-6.448010795071e-04 2.035833554771e-03 0.0 
0.0 0.0 -5.222488353909e-04 
-7.319508735308e-04 -8.428934672220e-04 0.0 
-8.428934672220e-04 2.464651158961e-03 0.0 
0.0 0.0 -6.822577977165e-04 
-4.713603530403e-04 -1.760178858830e-03 0.0 
-1.760178858830e-03 3.749274242464e-03 0.0 
0.0 0.0 -1.136360603439e-03 
-7.414846696447e-04 3.136821301181e-03 0.0 
3.136821301181e-03 4.510208953631e-03 0.0 
0.0 0.0 -1.124065295910e-03 
-8.446432131550e-04 3.218211498406e-03 0.0 
3.218211498406e-03 4.600039828402e-03 0.0 
0.0 0.0 -1.095615423988e-03 
1.374965702112e-04 2.907969111804e-03 0.0 
2.907969111804e-03 1.629175485309e-03 0.0 
0.0 0.0 -7.571451666514e-04 
-7.702727876907e-05 2.968579821374e-03 0.0 
2.968579821374e-03 2.049330152496e-03 0.0 
0.0 0.0 -8.452726601685e-04 
8.289727363508e-05 1.511362000005e-03 0.0 
1.511362000005e-03 2.985439199539e-03 0.0 
0.0 0.0 -1.136278651916e-03 
-1.765237675762e-03 1.222407657091e-03 0.0 
1.222407657091e-03 6.114667953270e-03 0.0 
0.0 0.0 -9.177848451843e-04 
-1.710580504207e-03 7.440398052567e-04 0.0 
7.440398052567e-04 6.380060456859e-03 0.0 
0.0 0.0 -9.302130594432e-04 
-1.676565589941e-03 5.872598873801e-04 0.0 
5.872598873801e-04 6.215440748447e-03 0.0 
0.0 0.0 -9.001900590098e-04 
-3.803857748505e-04 -5.434049098283e-04 0.0 
-5.434049098283e-04 1.471759670645e-03 0.0 
0.0 0.0 -3.494697005546e-04 
7.568627899495e-04 -2.787918667943e-03 0.0 
-2.787918667943e-03 7.221354992753e-04 0.0 
0.0 0.0 -6.338564096678e-04 
-1.662120244785e-03 1.162296850059e-03 0.0 
1.162296850059e-03 7.529797322482e-03 0.0 
0.0 0.0 -1.128363834889e-03 
2.037234962576e-03 2.841104701767e-03 0.0 
2.841104701767e-03 -4.145658898484e-04 0.0 
0.0 0.0 -6.954296025976e-04 
1.531315725723e-03 2.908052614029e-03 0.0 
2.908052614029e-03 2.448474694820e-06 0.0 
0.0 0.0 -6.573275144647e-04 
1.261589428094e-03 6.096704043663e-04 0.0 
6.096704043663e-04 -9.183369249884e-04 0.0 
0.0 0.0 -1.471082156167e-04 
7.631106832774e-04 -7.208428592914e-05 0.0 
-7.208428592914e-05 -6.801595576128e-04 0.0 
0.0 0.0 -3.555048242768e-05 
-1.589929625905e-03 3.288854672539e-04 0.0 
3.288854672539e-04 7.214274616426e-03 0.0 
0.0 0.0 -1.051814883004e-03 
-1.572388470156e-03 3.792019312018e-04 0.0 
3.792019312018e-04 7.619653826889e-03 0.0 
0.0 0.0 -1.117859435171e-03 
-1.078769339999e-03 -1.982110544533e-03 0.0 
-1.982110544533e-03 3.829235274235e-03 0.0 
0.0 0.0 -1.051224796075e-03 
-1.274189695606e-03 -1.627447894412e-03 0.0 
-1.627447894412e-03 4.185605639052e-03 0.0 
0.0 0.0 -1.050863174419e-03 
-1.969895269108e-04 -1.624325261337e-03 0.0 
-1.624325261337e-03 3.218036131210e-03 0.0 
0.0 0.0 -1.107558395918e-03 
3.636511301315e-04 -2.361072158115e-03 0.0 
-2.361072158115e-03 9.584204304499e-04 0.0 
0.0 0.0 -5.666020973920e-04 
-1.569287665322e-03 4.982993919659e-04 0.0 
4.982993919659e-04 7.796117196338e-03 0.0 
0.0 0.0 -1.149181664990e-03 
6.559202405712e-04 -1.403190814261e-03 0.0 
-1.403190814261e-03 1.391837788957e-03 0.0 
0.0 0.0 -8.776105840836e-04 
9.173022590222e-04 -1.676640049954e-03 0.0 
-1.676640049954e-03 6.107363237665e-04 0.0 
0.0 0.0 -6.548736783380e-04 
-1.171879392758e-03 -1.281686817317e-03 0.0 
-1.281686817317e-03 3.846852730435e-03 0.0 
0.0 0.0 -1.001803992689e-03 
1.504150752549e-03 2.803418453549e-03 0.0 
2.803418453549e-03 -4.311377337536e-05 0.0 
0.0 0.0 -6.261587053603e-04 
1.650316852641e-03 2.671963168056e-03 0.0 
2.671963168056e-03 -3.170419596538e-04 0.0 
0.0 0.0 -5.714035255658e-04 
1.466801754994e-03 -2.835534920743e-03 0.0 
-2.835534920743e-03 -6.856056088169e-05 0.0 
0.0 0.0 -5.992462260482e-04 
4.198225928608e-04 -2.489806032447e-03 0.0 
-2.489806032447e-03 9.452515050113e-04 0.0 
0.0 0.0 -5.850317562309e-04 
-7.228005656972e-04 -5.488391732617e-04 0.0 
-5.488391732617e-04 2.276834511977e-03 0.0 
0.0 0.0 -5.562745863746e-04 
-4.637036380639e-04 -1.428624458379e-03 0.0 
-1.428624458379e-03 3.853108176796e-03 0.0 
0.0 0.0 -1.173829981771e-03 
-1.646663843551e-03 1.358180133252e-03 0.0 
1.358180133252e-03 7.637691352308e-03 0.0 
0.0 0.0 -1.157575248917e-03 
-1.588531343900e-04 2.821657521555e-03 0.0 
2.821657521555e-03 3.283406077172e-03 0.0 
0.0 0.0 -1.080172819833e-03 
2.446831455112e-05 3.060603850123e-03 0.0 
3.060603850123e-03 2.728589719442e-03 0.0 
0.0 0.0 -1.015677837919e-03 
-3.660685555016e-04 2.667845735617e-03 0.0 
2.667845735617e-03 3.843962247037e-03 0.0 
0.0 0.0 -1.144955025780e-03 
2.673047132891e-04 -2.137865757300e-03 0.0 
-2.137865757300e-03 9.516698016607e-04 0.0 
0.0 0.0 -5.224176492642e-04 
-7.311483308604e-04 -1.856928531792e-03 0.0 
-1.856928531792e-03 4.285424001286e-03 0.0 
0.0 0.0 -1.165794428787e-03 
-2.038713827362e-03 -9.521744761757e-04 0.0 
-9.521744761757e-04 5.942161280998e-03 0.0 
0.0 0.0 -1.070719593515e-03 
-9.487823984943e-04 3.179202297983e-03 0.0 
3.179202297983e-03 5.046317585578e-03 0.0 
0.0 0.0 -1.157598467365e-03 
-1.028189826122e-03 3.189698687636e-03 0.0 
3.189698687636e-03 5.131498804919e-03 0.0 
0.0 0.0 -1.131219827106e-03 
1.693489723556e-03 2.912737131245e-03 0.0 
2.912737131245e-03 -1.493629984725e-04 0.0 
0.0 0.0 -6.617685964645e-04 
1.185947765099e-03 2.829659806798e-03 0.0 
2.829659806798e-03 2.506006467406e-04 0.0 
0.0 0.0 -6.156636050741e-04 
1.024663306531e-03 2.720941116212e-03 0.0 
2.720941116212e-03 3.858661710823e-04 0.0 
0.0 0.0 -6.045126332627e-04 
7.581467413336e-04 2.629057648791e-03 0.0 
2.629057648791e-03 6.283993164515e-04 0.0 
0.0 0.0 -5.942340247651e-04 
-1.648477658061e-03 2.188124378807e-03 0.0 
2.188124378807e-03 4.981950326516e-03 0.0 
0.0 0.0 -8.520119503206e-04 
1.288363213325e-03 2.918108490938e-03 0.0 
2.918108490938e-03 1.603315013667e-04 0.0 
0.0 0.0 -6.208691634391e-04 
-1.164374950017e-03 2.801514945082e-03 0.0 
2.801514945082e-03 4.086272555253e-03 0.0 
0.0 0.0 -8.983830653277e-04 
-1.269722602642e-03 2.487508477755e-03 0.0 
2.487508477755e-03 4.199128990551e-03 0.0 
0.0 0.0 -8.736227209573e-04 
-1.046332524412e-03 2.638264182984e-03 0.0 
2.638264182984e-03 3.789437134256e-03 0.0 
0.0 0.0 -8.954616384525e-04 
-9.535589006009e-05 3.192865815352e-03 0.0 
3.192865815352e-03 2.227004452414e-03 0.0 
0.0 0.0 -9.127067050351e-04 
-3.022280285659e-04 2.955332983640e-03 0.0 
2.955332983640e-03 2.491438051520e-03 0.0 
0.0 0.0 -9.307589223859e-04 
2.556968385694e-03 2.345203577048e-03 0.0 
2.345203577048e-03 -8.968266888023e-04 0.0 
0.0 0.0 -7.114892986678e-04 
1.812389688023e-03 1.564451495357e-03 0.0 
1.564451495357e-03 -6.179615212951e-04 0.0 
0.0 0.0 -5.118977857407e-04 
-8.515674767651e-04 -2.308299700533e-03 0.0 
-2.308299700533e-03 3.434983390257e-03 0.0 
0.0 0.0 -1.054912416397e-03 
-1.137266829401e-03 -2.398619768870e-03 0.0 
-2.398619768870e-03 4.055285407119e-03 0.0 
0.0 0.0 -1.045074301760e-03 
3.367977982503e-04 -3.065748121326e-03 0.0 
-3.065748121326e-03 1.429094799845e-03 0.0 
0.0 0.0 -7.568111134693e-04 
-1.629365191565e-03 9.257695161170e-04 0.0 
9.257695161170e-04 7.634439739813e-03 0.0 
0.0 0.0 -1.135109731873e-03 
-1.590870954180e-03 8.599854275843e-04 0.0 
8.599854275843e-04 7.870981141839e-03 0.0 
0.0 0.0 -1.171938512032e-03 
-1.643416432560e-03 4.449926551975e-04 0.0 
4.449926551975e-04 6.296597502974e-03 0.0 
0.0 0.0 -9.065739516476e-04 
-1.602464872442e-03 3.219184720994e-04 0.0 
3.219184720994e-04 6.108782366366e-03 0.0 
0.0 0.0 -8.764137937918e-04 
-2.696764371388e-04 -1.265861831851e-03 0.0 
-1.265861831851e-03 1.411045974668e-03 0.0 
0.0 0.0 -4.842067647502e-04 
-1.400634450087e-04 -1.409834388031e-03 0.0 
-1.409834388031e-03 1.204297259864e-03 0.0 
0.0 0.0 -4.502468535423e-04 
-2.319199994023e-04 -3.122878098546e-03 0.0 
-3.122878098546e-03 2.451044877422e-03 0.0 
0.0 0.0 -9.437206122825e-04 
-7.988578011231e-04 -2.058259969339e-03 0.0 
-2.058259969339e-03 4.234722114073e-03 0.0 
0.0 0.0 -1.127529358476e-03 
-1.669665556383e-03 1.635524756470e-03 0.0 
1.635524756470e-03 7.469407833496e-03 0.0 
0.0 0.0 -1.150095860580e-03 
-1.643068085807e-03 1.857648967737e-03 0.0 
1.857648967737e-03 7.542411325100e-03 0.0 
0.0 0.0 -1.179372829571e-03 
-1.673921977860e-03 1.925750498755e-03 0.0 
1.925750498755e-03 7.258395415596e-03 0.0 
0.0 0.0 -1.143369325255e-03 
-2.014473825755e-04 -1.218765106027e-03 0.0 
-1.218765106027e-03 3.345673547677e-03 0.0 
0.0 0.0 -1.144273392007e-03 
3.110341159347e-03 3.472939405717e-04 0.0 
3.472939405717e-04 -1.445647776500e-03 0.0 
0.0 0.0 -7.134400212203e-04 
1.600864292633e-03 -4.933060105816e-04 0.0 
-4.933060105816e-04 -5.124875882504e-04 0.0 
0.0 0.0 -4.664471590211e-04 
1.395368066446e-03 -9.561308999161e-04 0.0 
-9.561308999161e-04 -1.034414870566e-03 0.0 
0.0 0.0 -1.546942268056e-04 
3.758232775366e-04 3.466607308548e-03 0.0 
3.466607308548e-03 1.708095271688e-03 0.0 
0.0 0.0 -8.625807428358e-04 
-1.387284875597e-04 -1.147843400141e-03 0.0 
-1.147843400141e-03 1.071097091449e-03 0.0 
0.0 0.0 -3.720583479433e-04 
-1.231098641636e-03 3.135190691380e-03 0.0 
3.135190691380e-03 4.944666622865e-03 0.0 
0.0 0.0 -1.010319580236e-03 
-1.984786992954e-03 -8.733459957740e-04 0.0 
-8.733459957740e-04 6.259759611652e-03 0.0 
0.0 0.0 -1.122815839103e-03 
-1.861926426933e-03 -1.095524342960e-03 0.0 
-1.095524342960e-03 6.311220838631e-03 0.0 
0.0 0.0 -1.159213750608e-03 
-1.725327838232e-04 1.829528703914e-03 0.0 
1.829528703914e-03 3.501045676607e-03 0.0 
0.0 0.0 -1.171959308352e-03 
-1.590101240846e-03 1.706978125594e-03 0.0 
1.706978125594e-03 4.660773429978e-03 0.0 
0.0 0.0 -7.960146267056e-04 
5.073336669335e-04 3.214445659709e-03 0.0 
3.214445659709e-03 1.538412133141e-03 0.0 
0.0 0.0 -8.506774374544e-04 
8.851619009454e-04 2.969244090533e-03 0.0 
2.969244090533e-03 8.376787810317e-04 0.0 
0.0 0.0 -7.383602922759e-04 
-1.156062255108e-03 2.301233915827e-03 0.0 
2.301233915827e-03 3.896290621430e-03 0.0 
0.0 0.0 -8.625652443140e-04 
-9.471297243856e-04 2.440002294532e-03 0.0 
2.440002294532e-03 3.517004994648e-03 0.0 
0.0 0.0 -8.875966840820e-04 
-8.066787093543e-04 2.777426977554e-03 0.0 
2.777426977554e-03 3.370899001042e-03 0.0 
0.0 0.0 -9.244972712473e-04 
-7.192390311965e-04 2.566107428446e-03 0.0 
2.566107428446e-03 3.124935059627e-03 0.0 
0.0 0.0 -9.234394568817e-04 
1.009712769882e-03 -2.639627470040e-03 0.0 
-2.639627470040e-03 3.518698063256e-04 0.0 
0.0 0.0 -5.835353898034e-04 
7.225051380104e-04 -2.634694636205e-03 0.0 
-2.634694636205e-03 6.767854285005e-04 0.0 
0.0 0.0 -5.996959570761e-04 
-8.921567267479e-04 3.111111284804e-03 0.0 
3.111111284804e-03 5.059665355678e-03 0.0 
0.0 0.0 -1.192042136895e-03 
-6.099967263224e-04 2.870760626298e-03 0.0 
2.870760626298e-03 4.411064189710e-03 0.0 
0.0 0.0 -1.178660172201e-03 
-1.100042912757e-03 3.200343520554e-03 0.0 
3.200343520554e-03 5.573219155758e-03 0.0 
0.0 0.0 -1.193029175878e-03 
-1.160667669830e-03 3.176739035806e-03 0.0 
3.176739035806e-03 5.649176834465e-03 0.0 
0.0 0.0 -1.168165168231e-03 
-2.521445186915e-04 1.437999620024e-03 0.0 
1.437999620024e-03 3.663538457504e-03 0.0 
0.0 0.0 -1.200910491468e-03 
-1.175265126893e-05 1.083930210957e-03 0.0 
1.083930210957e-03 3.184478001405e-03 0.0 
0.0 0.0 -1.164168769488e-03 
-8.338945190871e-04 -6.899851568111e-04 0.0 
-6.899851568111e-04 2.693161182237e-03 0.0 
0.0 0.0 -7.014880017679e-04 
-2.848117966112e-04 2.692565546894e-03 0.0 
2.692565546894e-03 2.299445011333e-03 0.0 
0.0 0.0 -8.634142348809e-04 
-1.596224494799e-03 1.291320717670e-03 0.0 
1.291320717670e-03 7.883322151599e-03 0.0 
0.0 0.0 -1.194151889699e-03 
-1.353314944435e-03 2.157291733394e-03 0.0 
2.157291733394e-03 4.270289119183e-03 0.0 
0.0 0.0 -8.433929263471e-04 
-9.622501338421e-04 -1.912189492832e-03 0.0 
-1.912189492832e-03 4.776924830183e-03 0.0 
0.0 0.0 -1.192835421428e-03 
-1.026421419571e-03 -2.028541400734e-03 0.0 
-2.028541400734e-03 4.755168212354e-03 0.0 
0.0 0.0 -1.156047193884e-03 
4.478208592864e-04 -3.751585586859e-04 0.0 
-3.751585586859e-04 -4.241673929217e-04 0.0 
0.0 0.0 -1.013719987055e-05 
1.244125017972e-03 -1.917312666705e-03 0.0 
-1.917312666705e-03 -7.538799606522e-04 0.0 
0.0 0.0 -2.101050245656e-04 
-1.537691014338e-03 4.222863431362e-04 0.0 
4.222863431362e-04 8.020533850651e-03 0.0 
0.0 0.0 -1.184588873336e-03 
6.358527835684e-04 2.480430970654e-03 0.0 
2.480430970654e-03 6.941509382628e-04 0.0 
0.0 0.0 -5.700015950705e-04 
4.499471129459e-04 2.458836012126e-03 0.0 
2.458836012126e-03 9.036367217386e-04 0.0 
0.0 0.0 -5.801073577219e-04 
8.196974528425e-04 2.512758387053e-03 0.0 
2.512758387053e-03 5.135885621210e-04 0.0 
0.0 0.0 -5.714082921272e-04 
-1.721775180469e-03 -2.750261499923e-04 0.0 
-2.750261499923e-04 6.955705942823e-03 0.0 
0.0 0.0 -1.258310293365e-03 
-1.440319018305e-03 2.756393348766e-05 0.0 
2.756393348766e-05 5.261443928406e-03 0.0 
0.0 0.0 -7.479256703001e-04 
-1.851935248777e-03 -8.185806621322e-04 0.0 
-8.185806621322e-04 6.555435669483e-03 0.0 
0.0 0.0 -1.189418985649e-03 
-3.624356194934e-04 3.164434027964e-03 0.0 
3.164434027964e-03 2.710514095153e-03 0.0 
0.0 0.0 -9.658202727595e-04 
-1.517819935298e-03 5.689925216528e-04 0.0 
5.689925216528e-04 8.183121975380e-03 0.0 
0.0 0.0 -1.216510697198e-03 
6.201224625516e-04 2.820752531408e-03 0.0 
2.820752531408e-03 1.452084294343e-03 0.0 
0.0 0.0 -8.651011823288e-04 
9.038760669871e-04 3.026845929911e-03 0.0 
3.026845929911e-03 6.793831834175e-04 0.0 
0.0 0.0 -6.785396787449e-04 
8.674105580954e-05 -1.429107710981e-03 0.0 
-1.429107710981e-03 2.679701546003e-03 0.0 
0.0 0.0 -1.078177493492e-03 
-1.550932841916e-03 2.613354928632e-04 0.0 
2.613354928632e-04 7.825402361396e-03 0.0 
0.0 0.0 -1.149140729088e-03 
-1.512659112896e-03 3.422106709257e-04 0.0 
3.422106709257e-04 8.249752470507e-03 0.0 
0.0 0.0 -1.221625961084e-03 
-1.676659295308e-03 6.110344698925e-04 0.0 
6.110344698925e-04 5.968416883272e-03 0.0 
0.0 0.0 -8.638707813346e-04 
-1.641988205188e-03 4.340588364437e-04 0.0 
4.340588364437e-04 5.771155948817e-03 0.0 
0.0 0.0 -8.327709333130e-04 
-1.719162707249e-03 7.708162564075e-04 0.0 
7.708162564075e-04 6.112617701018e-03 0.0 
0.0 0.0 -8.925140200429e-04 
1.977927820577e-03 1.598623588264e-03 0.0 
1.598623588264e-03 -1.019208972965e-03 0.0 
0.0 0.0 -4.108795061196e-04 
1.108521086627e-03 1.458274724011e-03 0.0 
1.458274724011e-03 -6.824978449185e-04 0.0 
0.0 0.0 -1.825813893037e-04 
-1.599533954581e-03 7.014631110784e-04 0.0 
7.014631110784e-04 7.724369133548e-03 0.0 
0.0 0.0 -1.142090266074e-03 
-7.915237200633e-04 -1.416691550801e-03 0.0 
-1.416691550801e-03 2.916147842675e-03 0.0 
0.0 0.0 -8.917970384883e-04 
-9.526528541598e-04 -1.159662932408e-03 0.0 
-1.159662932408e-03 3.237497577102e-03 0.0 
0.0 0.0 -9.066540859529e-04 
1.679025679155e-04 -2.197795369639e-03 0.0 
-2.197795369639e-03 1.134113528401e-03 0.0 
0.0 0.0 -5.580068984213e-04 
1.993437938488e-04 -2.372930192997e-03 0.0 
-2.372930192997e-03 1.192906332053e-03 0.0 
0.0 0.0 -5.966786253865e-04 
-1.011942446972e-03 -2.270969963916e-03 0.0 
-2.270969963916e-03 3.766401779748e-03 0.0 
0.0 0.0 -1.058899862332e-03 
-7.573046355122e-04 -2.581800115454e-03 0.0 
-2.581800115454e-03 3.322201121737e-03 0.0 
0.0 0.0 -1.050266080739e-03 
-1.095827954621e-03 3.216069521876e-03 0.0 
3.216069521876e-03 4.826499025112e-03 0.0 
0.0 0.0 -1.038692069610e-03 
-1.234301998555e-03 3.107456630916e-03 0.0 
3.107456630916e-03 5.310904523361e-03 0.0 
0.0 0.0 -1.074129358999e-03 
-7.180889207275e-04 3.499463535137e-03 0.0 
3.499463535137e-03 3.763199671929e-03 0.0 
0.0 0.0 -9.722238801078e-04 
6.053063119579e-04 -2.030268547273e-03 0.0 
-2.030268547273e-03 1.237774920504e-03 0.0 
0.0 0.0 -7.898919567692e-04 
8.551862749054e-04 -2.258528060602e-03 0.0 
-2.258528060602e-03 5.423122765455e-04 0.0 
0.0 0.0 -5.989279506218e-04 
1.198969096751e-03 -1.716835984739e-03 0.0 
-1.716835984739e-03 -1.728528183354e-05 0.0 
0.0 0.0 -5.064359206787e-04 
-1.578160803348e-03 1.029909350069e-03 0.0 
1.029909350069e-03 7.988225935028e-03 0.0 
0.0 0.0 -1.199867006878e-03 
-1.525066789097e-03 9.716746199443e-04 0.0 
9.716746199443e-04 8.273760627129e-03 0.0 
0.0 0.0 -1.242728214876e-03 
1.321351467926e-03 -2.568351524438e-03 0.0 
-2.568351524438e-03 -2.315153931352e-07 0.0 
0.0 0.0 -5.661942653711e-04 
1.809254267051e-03 -2.583366555036e-03 0.0 
-2.583366555036e-03 -4.342692756295e-04 0.0 
0.0 0.0 -5.892792820379e-04 
6.921033763950e-04 -2.656898720389e-03 0.0 
-2.656898720389e-03 7.465441525006e-04 0.0 
0.0 0.0 -6.165632266696e-04 
-1.574485567314e-03 1.499311237931e-03 0.0 
1.499311237931e-03 7.988348182121e-03 0.0 
0.0 0.0 -1.223056365294e-03 
-1.741572698048e-03 -1.051965994170e-03 0.0 
-1.051965994170e-03 6.624165410999e-03 0.0 
0.0 0.0 -1.224004481682e-03 
-1.735235085971e-03 -1.304001527318e-03 0.0 
-1.304001527318e-03 6.344789461694e-03 0.0 
0.0 0.0 -1.195820777905e-03 
-2.679240954609e-05 -1.257927253223e-03 0.0 
-1.257927253223e-03 9.029103496679e-04 0.0 
0.0 0.0 -3.450663815859e-04 
-3.035170911773e-06 -1.579137764012e-03 0.0 
-1.579137764012e-03 1.039327180488e-03 0.0 
0.0 0.0 -4.410249086127e-04 
1.155100538592e-03 2.631364371344e-03 0.0 
2.631364371344e-03 1.868470155697e-04 0.0 
0.0 0.0 -5.751203803551e-04 
1.215808673203e-03 2.544029937651e-03 0.0 
2.544029937651e-03 -5.958635491021e-05 0.0 
0.0 0.0 -4.955238506970e-04 
-1.603953202991e-03 2.084851501461e-03 0.0 
2.084851501461e-03 7.579130278610e-03 0.0 
0.0 0.0 -1.207258722210e-03 
-1.637778905667e-03 2.162652518366e-03 0.0 
2.162652518366e-03 7.304299819900e-03 0.0 
0.0 0.0 -1.172631524865e-03 
-1.556077565275e-03 2.029656444368e-03 0.0 
2.029656444368e-03 7.905393318382e-03 0.0 
0.0 0.0 -1.247471551777e-03 
-8.078621275666e-04 -3.743686463011e-04 0.0 
-3.743686463011e-04 2.476609172107e-03 0.0 
0.0 0.0 -5.753817989848e-04 
1.173818397494e-04 2.725852523849e-03 0.0 
2.725852523849e-03 2.691650762888e-03 0.0 
0.0 0.0 -1.045322365442e-03 
-5.040778805934e-04 -1.070896588493e-03 0.0 
-1.070896588493e-03 3.980562278462e-03 0.0 
0.0 0.0 -1.207899217314e-03 
-2.520428194526e-04 -7.965635153337e-04 0.0 
-7.965635153337e-04 3.542662319704e-03 0.0 
0.0 0.0 -1.178012378629e-03 
-7.711086010594e-04 -1.329041706335e-03 0.0 
-1.329041706335e-03 4.567355749165e-03 0.0 
0.0 0.0 -1.244624083072e-03 
-1.223572839919e-04 2.186752793674e-03 0.0 
2.186752793674e-03 3.375840631155e-03 0.0 
0.0 0.0 -1.142102124289e-03 
-4.435966474857e-04 2.091597596222e-03 0.0 
2.091597596222e-03 3.997165180884e-03 0.0 
0.0 0.0 -1.205428683694e-03 
-6.295415077105e-04 2.617745388046e-03 0.0 
2.617745388046e-03 4.421095216534e-03 0.0 
0.0 0.0 -1.209323031234e-03 
8.913702169857e-05 -5.356610077544e-06 0.0 
-5.356610077544e-06 -8.913702169857e-05 0.0 
0.0 0.0 0.0 
-1.516551893121e-03 1.931531950452e-04 0.0 
1.931531950452e-04 8.105824831205e-03 0.0 
0.0 0.0 -1.199992767657e-03 
-1.600603275175e-03 3.197306060267e-04 0.0 
3.197306060267e-04 5.842030124630e-03 0.0 
0.0 0.0 -8.371571859873e-04 
0.0 0.0 0.0 
0.0 0.0 0.0 
0.0 0.0 0.0 
-1.547068004807e-03 2.255592860515e-04 0.0 
2.255592860515e-04 5.653808019545e-03 0.0 
0.0 0.0 -8.070151920887e-04 
-1.566358775821e-03 2.266234695203e-04 0.0 
2.266234695203e-04 5.919104175052e-03 0.0 
0.0 0.0 -8.451615393777e-04 
-1.505853756260e-03 1.425564258005e-04 0.0 
1.425564258005e-04 5.404792730384e-03 0.0 
0.0 0.0 -7.748096441827e-04 
-6.628775469822e-04 -3.015658585898e-04 0.0 
-3.015658585898e-04 2.010090265861e-03 0.0 
0.0 0.0 -4.206613647546e-04 
-1.675398106948e-03 5.868598101642e-04 0.0 
5.868598101642e-04 5.623434088204e-03 0.0 
0.0 0.0 -8.174106193842e-04 
-1.726757844430e-03 7.924650127462e-04 0.0 
7.924650127462e-04 5.855419414792e-03 0.0 
0.0 0.0 -8.556612431672e-04 
8.558548932515e-05 -1.128009013281e-03 0.0 
-1.128009013281e-03 6.309628739441e-04 0.0 
0.0 0.0 -2.713320700168e-04 
-1.513004436039e-03 1.420623121839e-03 0.0 
1.420623121839e-03 8.214217499082e-03 0.0 
0.0 0.0 -1.259301554906e-03 
1.749391661274e-04 -1.082733169331e-03 0.0 
-1.082733169331e-03 5.892299780132e-04 0.0 
0.0 0.0 -2.441793916413e-04 
1.147662153238e-04 -1.066745943300e-03 0.0 
-1.066745943300e-03 7.910181080930e-04 0.0 
0.0 0.0 -2.872885922025e-04 
-1.122672355991e-03 -1.921241529141e-03 0.0 
-1.921241529141e-03 5.266335920734e-03 0.0 
0.0 0.0 -1.221214701962e-03 
-1.203549749022e-03 -1.976762786956e-03 0.0 
-1.976762786956e-03 5.228557791274e-03 0.0 
0.0 0.0 -1.184344882880e-03 
-1.271935696370e-03 -1.932492998885e-03 0.0 
-1.932492998885e-03 5.682500405781e-03 0.0 
0.0 0.0 -1.247726601234e-03 
-1.345935677545e-03 -1.879180138911e-03 0.0 
-1.879180138911e-03 5.631962343118e-03 0.0 
0.0 0.0 -1.211018817991e-03 
-1.319489507466e-03 -1.996946989352e-03 0.0 
-1.996946989352e-03 5.223869660522e-03 0.0 
0.0 0.0 -1.147066289601e-03 
-1.457152980048e-03 -1.833275450520e-03 0.0 
-1.833275450520e-03 5.658001904065e-03 0.0 
0.0 0.0 -1.176490610025e-03 
-1.598701855115e-03 3.112456463076e-04 0.0 
3.112456463076e-04 5.594187128056e-03 0.0 
0.0 0.0 -7.985989294648e-04 
-1.425017338431e-03 -1.793987580484e-03 0.0 
-1.793987580484e-03 6.077694866820e-03 0.0 
0.0 0.0 -1.249018369598e-03 
-1.544794874514e-03 -1.654652183582e-03 0.0 
-1.654652183582e-03 6.043342076509e-03 0.0 
0.0 0.0 -1.207442871744e-03 
-1.490747382805e-03 -1.688185045970e-03 0.0 
-1.688185045970e-03 6.481641932430e-03 0.0 
0.0 0.0 -1.277927415301e-03 
-8.701201880038e-04 2.189049665711e-03 0.0 
2.189049665711e-03 3.268695103799e-03 0.0 
0.0 0.0 -8.722607330507e-04 
5.310970710450e-04 2.630450444314e-03 0.0 
2.630450444314e-03 9.000089298474e-04 0.0 
0.0 0.0 -6.133311432396e-04 
2.617133158352e-04 2.476764240616e-03 0.0 
2.476764240616e-03 1.164640329384e-03 0.0 
0.0 0.0 -6.112944193795e-04 
1.728571300418e-04 2.227493690469e-03 0.0 
2.227493690469e-03 1.142483149507e-03 0.0 
0.0 0.0 -5.637172626637e-04 
-1.229541831672e-03 3.263680413163e-03 0.0 
3.263680413163e-03 6.138633277811e-03 0.0 
0.0 0.0 -1.240180566941e-03 
-1.276361500880e-03 3.187291024850e-03 0.0 
3.187291024850e-03 6.099399323178e-03 0.0 
0.0 0.0 -1.200590015451e-03 
-2.088598425736e-03 -6.246367196868e-04 0.0 
-6.246367196868e-04 6.194373546362e-03 0.0 
0.0 0.0 -1.090180627845e-03 
-2.041663287848e-03 -6.617363893855e-04 0.0 
-6.617363893855e-04 5.852171557009e-03 0.0 
0.0 0.0 -1.067141795818e-03 
-1.532469855713e-03 1.525337910669e-04 0.0 
1.525337910669e-04 5.692847008020e-03 0.0 
0.0 0.0 -8.108182148135e-04 
-1.511312180107e-03 9.255618039040e-05 0.0 
9.255618039040e-05 5.666580148835e-03 0.0 
0.0 0.0 -8.077352941366e-04 
-1.560488436606e-03 1.911238081195e-04 0.0 
1.911238081195e-04 6.070956180256e-03 0.0 
0.0 0.0 -8.678526801547e-04 
-1.544526745633e-03 1.030985674976e-04 0.0 
1.030985674976e-04 6.005801825662e-03 0.0 
0.0 0.0 -8.609153521579e-04 
-1.580530064686e-03 1.945628071657e-04 0.0 
1.945628071657e-04 6.420611350931e-03 0.0 
0.0 0.0 -9.200517378055e-04 
-1.559403933791e-03 8.887484367551e-05 0.0 
8.887484367551e-05 6.359767284502e-03 0.0 
0.0 0.0 -9.108947733944e-04 
-1.583263469338e-03 1.334252269549e-04 0.0 
1.334252269549e-04 6.753346818615e-03 0.0 
0.0 0.0 -9.726914458129e-04 
-8.669769815257e-04 2.889098903744e-03 0.0 
2.889098903744e-03 5.024560399167e-03 0.0 
0.0 0.0 -1.245087786853e-03 
4.982055672495e-04 2.293020821825e-03 0.0 
2.293020821825e-03 7.508210362061e-04 0.0 
0.0 0.0 -5.352971157667e-04 
-1.245162061090e-03 1.941632408908e-03 0.0 
1.941632408908e-03 3.965163190857e-03 0.0 
0.0 0.0 -8.237883836899e-04 
-3.879507205886e-04 1.027612391922e-03 0.0 
1.027612391922e-03 3.877749242080e-03 0.0 
0.0 0.0 -1.228261380050e-03 
-1.475502455479e-04 6.710535629733e-04 0.0 
6.710535629733e-04 3.400758398957e-03 0.0 
0.0 0.0 -1.187396807988e-03 
-4.877113708209e-04 2.653909423409e-03 0.0 
2.653909423409e-03 2.711925927626e-03 0.0 
0.0 0.0 -9.301491777014e-04 
-4.673273112926e-04 2.354591855457e-03 0.0 
2.354591855457e-03 2.518811343451e-03 0.0 
0.0 0.0 -8.783714799336e-04 
-9.656459474725e-04 -1.750454010380e-03 0.0 
-1.750454010380e-03 4.960948450779e-03 0.0 
0.0 0.0 -1.238794375355e-03 
1.773029984471e-03 2.918628512030e-03 0.0 
2.918628512030e-03 -2.405794798709e-04 0.0 
0.0 0.0 -6.567645019713e-04 
-1.474754496101e-03 1.652724927503e-03 0.0 
1.652724927503e-03 8.365646577830e-03 0.0 
0.0 0.0 -1.295459716840e-03 
0.0 0.0 0.0 
0.0 0.0 0.0 
0.0 0.0 0.0 
1.498393906149e-04 3.022053957605e-04 0.0 
3.022053957605e-04 -1.163750170629e-04 0.0 
0.0 0.0 -1.434187437942e-05 
1.327025876230e-03 3.010605488358e-03 0.0 
3.010605488358e-03 1.473338213913e-04 0.0 
0.0 0.0 -6.318684418375e-04 
-5.499021132442e-04 2.888144921732e-03 0.0 
2.888144921732e-03 2.938437648155e-03 0.0 
0.0 0.0 -9.558721723632e-04 
3.323415439528e-04 2.743520330787e-03 0.0 
2.743520330787e-03 1.229329144075e-03 0.0 
0.0 0.0 -6.692874377263e-04 
9.209566797494e-05 2.604630668434e-03 0.0 
2.604630668434e-03 1.511290340994e-03 0.0 
0.0 0.0 -6.871654324154e-04 
3.645468755337e-04 -1.692092076938e-03 0.0 
-1.692092076938e-03 1.976975662064e-03 0.0 
0.0 0.0 -9.759998253719e-04 
1.091376312940e-04 -1.700138468344e-03 0.0 
-1.700138468344e-03 9.084482070208e-04 0.0 
0.0 0.0 -4.293607968937e-04 
9.860679807434e-04 2.546469046220e-03 0.0 
2.546469046220e-03 3.575313038065e-04 0.0 
0.0 0.0 -5.758282648071e-04 
-1.592993118431e-03 2.731466696240e-04 0.0 
2.731466696240e-04 6.800272037187e-03 0.0 
0.0 0.0 -9.796923013958e-04 
6.911227834126e-04 2.251046992259e-03 0.0 
2.251046992259e-03 5.130124139505e-04 0.0 
0.0 0.0 -5.160579417270e-04 
-2.121618955622e-03 -3.224058753556e-04 0.0 
-3.224058753556e-04 6.099005119318e-03 0.0 
0.0 0.0 -1.073807358551e-03 
2.201373567652e-03 2.690698738968e-03 0.0 
2.690698738968e-03 -6.091920316776e-04 0.0 
0.0 0.0 -6.823635154174e-04 
-1.638384935320e-04 3.372316730358e-03 0.0 
3.372316730358e-03 2.445531910937e-03 0.0 
0.0 0.0 -9.519839029876e-04 
1.275974649949e-03 2.775715452302e-03 0.0 
2.775715452302e-03 1.801999389927e-04 0.0 
0.0 0.0 -6.240748238320e-04 
8.350192799097e-04 2.727176630851e-03 0.0 
2.727176630851e-03 5.820764688072e-04 0.0 
0.0 0.0 -6.073267494501e-04 
-1.574296698924e-03 2.484580816168e-03 0.0 
2.484580816168e-03 4.927078130058e-03 0.0 
0.0 0.0 -8.786961992330e-04 
-1.699341285066e-03 1.882952510091e-03 0.0 
1.882952510091e-03 5.001649373791e-03 0.0 
0.0 0.0 -8.239340753773e-04 
-1.544077067517e-03 2.021174845409e-03 0.0 
2.021174845409e-03 4.648313902463e-03 0.0 
0.0 0.0 -8.287327148421e-04 
2.547623254183e-03 2.268646563305e-03 0.0 
2.268646563305e-03 -9.255766277510e-04 0.0 
0.0 0.0 -6.951628398994e-04 
-9.793607364304e-05 2.680641002234e-03 0.0 
2.680641002234e-03 1.905972935152e-03 0.0 
0.0 0.0 -7.748729406467e-04 
-1.401926105552e-04 2.272349151151e-03 0.0 
2.272349151151e-03 1.732062029039e-03 0.0 
0.0 0.0 -6.822297507788e-04 
-1.042335079289e-03 3.085608632330e-03 0.0 
3.085608632330e-03 3.939330989580e-03 0.0 
0.0 0.0 -9.170298757010e-04 
-1.694312562690e-03 2.003906122110e-03 0.0 
2.003906122110e-03 6.960974899569e-03 0.0 
0.0 0.0 -1.107475121065e-03 
-1.654341182746e-03 2.234400658440e-03 0.0 
2.234400658440e-03 6.989596744706e-03 0.0 
0.0 0.0 -1.136341617999e-03 
-1.591073595122e-03 2.379952355984e-03 0.0 
2.379952355984e-03 7.311228899108e-03 0.0 
0.0 0.0 -1.199268560344e-03 
-1.606550985090e-03 2.450965261895e-03 0.0 
2.450965261895e-03 7.002228799418e-03 0.0 
0.0 0.0 -1.164598082371e-03 
-1.654615127137e-03 2.306554865062e-03 0.0 
2.306554865062e-03 6.662432923767e-03 0.0 
0.0 0.0 -1.100413285504e-03 
-1.595489437176e-03 2.513437590904e-03 0.0 
2.513437590904e-03 6.653696588520e-03 0.0 
0.0 0.0 -1.129075729544e-03 
-1.546389988990e-03 2.664193302564e-03 0.0 
2.664193302564e-03 6.994860909819e-03 0.0 
0.0 0.0 -1.193594387005e-03 
-1.524710140769e-03 2.725114460972e-03 0.0 
2.725114460972e-03 6.640657221836e-03 0.0 
0.0 0.0 -1.159256375294e-03 
-1.483453285402e-03 2.879360167952e-03 0.0 
2.879360167952e-03 7.061959584516e-03 0.0 
0.0 0.0 -1.234286862126e-03 
-1.459335345335e-03 2.896614314087e-03 0.0 
2.896614314087e-03 6.597331098230e-03 0.0 
0.0 0.0 -1.187309181180e-03 
-1.487240193726e-03 2.797813669470e-03 0.0 
2.797813669470e-03 6.237817525026e-03 0.0 
0.0 0.0 -1.120864512401e-03 
-1.416348664038e-03 2.952147323061e-03 0.0 
2.952147323061e-03 6.179572228468e-03 0.0 
0.0 0.0 -1.147759711419e-03 
-1.401702611885e-03 3.058403427338e-03 0.0 
3.058403427338e-03 6.528924407833e-03 0.0 
0.0 0.0 -1.207767947030e-03 
-1.429554607918e-03 2.882577101757e-03 0.0 
2.882577101757e-03 5.825437132677e-03 0.0 
0.0 0.0 -1.082593982084e-03 
-6.657140394303e-04 1.410986986977e-03 0.0 
1.410986986977e-03 4.342280522210e-03 0.0 
0.0 0.0 -1.264544343569e-03 
1.285034861164e-03 3.046453072889e-03 0.0 
3.046453072889e-03 2.156214386420e-04 0.0 
0.0 0.0 -6.431384142027e-04 
3.221685064304e-04 2.100220635338e-04 0.0 
2.100220635338e-04 -3.125792772457e-04 0.0 
0.0 0.0 -4.109669650582e-06 
7.277286052914e-04 1.662264959666e-03 0.0 
1.662264959666e-03 -4.217765524128e-04 0.0 
0.0 0.0 -1.311223083766e-04 
-4.639929809661e-04 3.327821869830e-03 0.0 
3.327821869830e-03 2.959449472573e-03 0.0 
0.0 0.0 -9.691543639280e-04 
-1.437907230863e-03 2.996700486661e-03 0.0 
2.996700486661e-03 7.518201304671e-03 0.0 
0.0 0.0 -1.299806302097e-03 
-1.466395687024e-03 2.621641971218e-03 0.0 
2.621641971218e-03 7.881651097987e-03 0.0 
0.0 0.0 -1.301753673823e-03 
2.487482228611e-03 2.475720953215e-03 0.0 
2.475720953215e-03 -8.077451105291e-04 0.0 
0.0 0.0 -7.198873363210e-04 
-1.280305576935e-03 3.404019922885e-03 0.0 
3.404019922885e-03 6.453749912264e-03 0.0 
0.0 0.0 -1.303413959896e-03 
-1.478986277362e-03 2.335815426712e-03 0.0 
2.335815426712e-03 4.599949913439e-03 0.0 
0.0 0.0 -8.572908036711e-04 
2.443469762099e-03 1.504212848516e-03 0.0 
1.504212848516e-03 -1.149517681368e-03 0.0 
0.0 0.0 -5.545508917418e-04 
-1.188451958700e-03 3.233888318984e-03 0.0 
3.233888318984e-03 5.957074391346e-03 0.0 
0.0 0.0 -1.304286792737e-03 
-1.700650587437e-03 2.084768146748e-03 0.0 
2.084768146748e-03 6.648225866754e-03 0.0 
0.0 0.0 -1.071440646998e-03 
-1.693986595116e-03 2.166002580174e-03 0.0 
2.166002580174e-03 6.318613390721e-03 0.0 
0.0 0.0 -1.034857077839e-03 
-1.735485188954e-03 1.934897306350e-03 0.0 
1.934897306350e-03 6.303939504401e-03 0.0 
0.0 0.0 -1.006057961993e-03 
-1.460757887231e-03 2.250687193900e-03 0.0 
2.250687193900e-03 8.134933915156e-03 0.0 
0.0 0.0 -1.305867370806e-03 
-1.749991994699e-03 9.588049142227e-04 0.0 
9.588049142227e-04 6.254499179949e-03 0.0 
0.0 0.0 -9.232948652302e-04 
-1.017747060708e-03 2.242049910193e-03 0.0 
2.242049910193e-03 5.131073367086e-03 0.0 
0.0 0.0 -1.306016332489e-03 
1.333415972402e-03 1.535387923333e-03 0.0 
1.535387923333e-03 1.136937242501e-04 0.0 
0.0 0.0 -6.201898699939e-04 
1.391903311676e-03 2.154011180947e-03 0.0 
2.154011180947e-03 1.151631227136e-05 0.0 
0.0 0.0 -6.014655531204e-04 
1.815463505361e-03 2.115453371163e-03 0.0 
2.115453371163e-03 -5.458577548768e-04 0.0 
0.0 0.0 -5.441167502075e-04 
-1.566214445404e-03 2.595986134179e-03 0.0 
2.595986134179e-03 6.282321888988e-03 0.0 
0.0 0.0 -1.092245366321e-03 
-9.205735445318e-04 4.808338680360e-04 0.0 
4.808338680360e-04 4.693547071086e-03 0.0 
0.0 0.0 -1.302677999426e-03 
-5.441937307524e-04 1.925192123183e-04 0.0 
1.925192123183e-04 4.093065944914e-03 0.0 
0.0 0.0 -1.248400714067e-03 
-5.696920249624e-04 -2.362618994637e-04 0.0 
-2.362618994637e-04 4.138723512730e-03 0.0 
0.0 0.0 -1.248426544684e-03 
-2.031241474020e-04 -7.328110519664e-05 0.0 
-7.328110519664e-05 3.471353297543e-03 0.0 
0.0 0.0 -1.189114855724e-03 
-9.524782035086e-04 -4.338690848369e-04 0.0 
-4.338690848369e-04 4.786583626593e-03 0.0 
0.0 0.0 -1.303398793257e-03 
-1.386313891139e-03 3.268387124946e-03 0.0 
3.268387124946e-03 7.156994535034e-03 0.0 
0.0 0.0 -1.306665994082e-03 
-1.359095365040e-03 3.359352166101e-03 0.0 
3.359352166101e-03 6.950855487648e-03 0.0 
0.0 0.0 -1.308500709484e-03 
1.902852668699e-03 -2.817268794694e-03 0.0 
-2.817268794694e-03 -4.032967653229e-04 0.0 
0.0 0.0 -6.426668157327e-04 
2.253407391376e-03 -2.370679650838e-03 0.0 
-2.370679650838e-03 -7.551607023087e-04 0.0 
0.0 0.0 -6.421057238860e-04 
2.152188401618e-03 -2.215932361183e-03 0.0 
-2.215932361183e-03 -7.648493634962e-04 0.0 
0.0 0.0 -5.945738734806e-04 
2.568498674833e-03 -1.800335482077e-03 0.0 
-1.800335482077e-03 -1.054151680982e-03 0.0 
0.0 0.0 -6.490058545078e-04 
2.589267859695e-03 -1.939320893250e-03 0.0 
-1.939320893250e-03 -1.034701238564e-03 0.0 
0.0 0.0 -6.662428376277e-04 
2.845251393852e-03 -1.182488936622e-03 0.0 
-1.182488936622e-03 -1.266140625123e-03 0.0 
0.0 0.0 -6.767617580267e-04 
2.841382791890e-03 -1.149550775431e-03 0.0 
-1.149550775431e-03 -1.284812658761e-03 0.0 
0.0 0.0 -6.671014856266e-04 
2.966198092938e-03 -3.987988764167e-04 0.0 
-3.987988764167e-04 -1.382086548665e-03 0.0 
0.0 0.0 -6.789049475453e-04 
-1.248651035025e-03 3.111213554981e-03 0.0 
3.111213554981e-03 5.700369437698e-03 0.0 
0.0 0.0 -1.138512926666e-03 
-1.048382069547e-03 -1.181351894960e-03 0.0 
-1.181351894960e-03 5.065835417687e-03 0.0 
0.0 0.0 -1.305779161548e-03 
4.789526992596e-05 -3.017317976477e-03 0.0 
-3.017317976477e-03 1.955725826502e-03 0.0 
0.0 0.0 -8.490207048509e-04 
4.255875009583e-04 -2.891330549410e-03 0.0 
-2.891330549410e-03 1.272940405536e-03 0.0 
0.0 0.0 -7.279405313547e-04 
7.016485745697e-04 -2.791230812805e-03 0.0 
-2.791230812805e-03 8.160956132734e-04 0.0 
0.0 0.0 -6.504617947899e-04 
-6.090620729236e-04 -2.591660670729e-03 0.0 
-2.591660670729e-03 2.996920806010e-03 0.0 
0.0 0.0 -1.013136008453e-03 
-4.847718747428e-04 -2.835802633982e-03 0.0 
-2.835802633982e-03 2.833935359093e-03 0.0 
0.0 0.0 -9.978061834832e-04 
-6.569091499038e-04 -2.799289725008e-03 0.0 
-2.799289725008e-03 3.183472627718e-03 0.0 
0.0 0.0 -1.035689958333e-03 
-7.207313198164e-04 -2.290250490495e-03 0.0 
-2.290250490495e-03 3.125345330795e-03 0.0 
0.0 0.0 -1.018322119518e-03 
-1.167877884792e-04 3.342094439232e-03 0.0 
3.342094439232e-03 2.837618912037e-03 0.0 
0.0 0.0 -9.882323209451e-04 
-1.091898030697e-03 -1.486850666943e-03 0.0 
-1.486850666943e-03 5.227315460995e-03 0.0 
0.0 0.0 -1.305003056577e-03 
1.225364256890e-03 -1.147615656396e-03 0.0 
-1.147615656396e-03 3.835923769499e-05 0.0 
0.0 0.0 -5.415957833937e-04 
-1.980397502487e-04 -3.005905727183e-03 0.0 
-3.005905727183e-03 2.314319347710e-03 0.0 
0.0 0.0 -9.069769703405e-04 
-1.707142071172e-03 7.635271864477e-04 0.0 
7.635271864477e-04 5.127553643252e-03 0.0 
0.0 0.0 -7.516786372745e-04 
-1.746908817975e-03 1.023609105839e-03 0.0 
1.023609105839e-03 5.442206395915e-03 0.0 
0.0 0.0 -8.094822736869e-04 
-1.772933357879e-03 1.184262300292e-03 0.0 
1.184262300292e-03 5.385289162601e-03 0.0 
0.0 0.0 -8.097394517040e-04 
-1.768350599280e-03 1.251073624371e-03 0.0 
1.251073624371e-03 5.764313646979e-03 0.0 
0.0 0.0 -8.733121467894e-04 
-1.727990335715e-03 8.210495884293e-04 0.0 
8.210495884293e-04 5.545557871090e-03 0.0 
0.0 0.0 -8.155917408702e-04 
-1.236784994223e-03 -1.923322638249e-03 0.0 
-1.923322638249e-03 4.168389852977e-03 0.0 
0.0 0.0 -1.057296815204e-03 
-1.427088068768e-03 -1.555275096953e-03 0.0 
-1.555275096953e-03 4.526520888732e-03 0.0 
0.0 0.0 -1.060211733922e-03 
-1.439309846138e-03 -1.245667555875e-03 0.0 
-1.245667555875e-03 4.501167157264e-03 0.0 
0.0 0.0 -1.053704044192e-03 
-1.586214255689e-03 -1.181249332069e-03 0.0 
-1.181249332069e-03 4.840144294026e-03 0.0 
0.0 0.0 -1.064485974018e-03 
-1.568580492753e-03 -8.807724015312e-04 0.0 
-8.807724015312e-04 4.760936091880e-03 0.0 
0.0 0.0 -1.058069710598e-03 
-1.437909822652e-03 -9.389915626686e-04 0.0 
-9.389915626686e-04 4.447516747931e-03 0.0 
0.0 0.0 -1.040756414728e-03 
-1.718221607956e-03 -8.006521433412e-04 0.0 
-8.006521433412e-04 5.111220650433e-03 0.0 
0.0 0.0 -1.068385751750e-03 
-1.669418493281e-03 -5.082865991109e-04 0.0 
-5.082865991109e-04 4.972394175886e-03 0.0 
0.0 0.0 -1.061946884890e-03 
-1.641647603362e-03 4.850166825857e-04 0.0 
4.850166825857e-04 5.202247326036e-03 0.0 
0.0 0.0 -7.509531518293e-04 
4.681733094658e-05 -5.816533838581e-04 0.0 
-5.816533838581e-04 9.454411860111e-05 0.0 
0.0 0.0 -6.058347837758e-05 
4.397814964137e-04 -2.157349287924e-03 0.0 
-2.157349287924e-03 4.211423268834e-04 0.0 
0.0 0.0 -3.689673528416e-04 
3.155046189534e-04 -2.027375098909e-03 0.0 
-2.027375098909e-03 7.742453397045e-04 0.0 
0.0 0.0 -4.670356965677e-04 
8.520514226530e-04 -2.864865723911e-03 0.0 
-2.864865723911e-03 5.535726049248e-04 0.0 
0.0 0.0 -6.024102975334e-04 
1.107532573262e-03 -2.675867926973e-03 0.0 
-2.675867926973e-03 -1.282410957994e-04 0.0 
0.0 0.0 -4.196963474839e-04 
1.414391538560e-03 -3.037597772400e-03 0.0 
-3.037597772400e-03 4.732794591136e-06 0.0 
0.0 0.0 -6.081961427792e-04 
1.798568626031e-03 -2.807561227883e-03 0.0 
-2.807561227883e-03 -5.963916264621e-04 0.0 
0.0 0.0 -5.152187141009e-04 
4.798167785024e-04 -1.487535536050e-03 0.0 
-1.487535536050e-03 -2.160815451901e-04 0.0 
0.0 0.0 -1.130293857052e-04 
1.221925142391e-04 -6.477447924089e-04 0.0 
-6.477447924089e-04 3.263707583015e-04 0.0 
0.0 0.0 -1.721226713898e-04 
1.600896537738e-04 -1.547795297662e-03 0.0 
-1.547795297662e-03 7.330764534416e-04 0.0 
0.0 0.0 -3.827854745209e-04 
1.103966075786e-04 -5.622367864216e-04 0.0 
-5.622367864216e-04 3.103757836854e-04 0.0 
0.0 0.0 -1.517934084529e-04 
1.053013884946e-04 -1.323791722729e-03 0.0 
-1.323791722729e-03 6.739471651028e-04 0.0 
0.0 0.0 -3.339636658274e-04 
3.430982234410e-04 -2.178085181117e-03 0.0 
-2.178085181117e-03 8.728126235658e-04 0.0 
0.0 0.0 -5.211046487172e-04 
-1.935346954464e-05 -1.828430160185e-03 0.0 
-1.828430160185e-03 1.220825087692e-03 0.0 
0.0 0.0 -5.149164077774e-04 
-1.561183168720e-03 -1.084347523387e-03 0.0 
-1.084347523387e-03 6.914233553436e-03 0.0 
0.0 0.0 -1.294874803588e-03 
-1.312931512090e-03 -3.406360319044e-04 0.0 
-3.406360319044e-04 4.053324067572e-03 0.0 
0.0 0.0 -9.806349194848e-04 
-1.232619789514e-03 -6.513903715833e-04 0.0 
-6.513903715833e-04 3.864959534980e-03 0.0 
0.0 0.0 -9.593735700280e-04 
-1.113036939270e-03 -6.004263507847e-04 0.0 
-6.004263507847e-04 3.522372894904e-03 0.0 
0.0 0.0 -8.977078860960e-04 
-1.116965318077e-03 -9.982255990531e-04 0.0 
-9.982255990531e-04 3.625196753216e-03 0.0 
0.0 0.0 -9.469176294500e-04 
-1.332244483269e-03 -6.509527714259e-04 0.0 
-6.509527714259e-04 4.142116544653e-03 0.0 
0.0 0.0 -1.006312639172e-03 
-1.080865388107e-03 -2.755367266220e-04 0.0 
-2.755367266220e-04 3.371661966390e-03 0.0 
0.0 0.0 -8.426599334973e-04 
-1.024104142748e-03 -5.302931597588e-04 0.0 
-5.302931597588e-04 3.225767958481e-03 0.0 
0.0 0.0 -8.124903673991e-04 
2.119334771273e-03 -2.250984394130e-04 0.0 
-2.250984394130e-04 -5.528535054759e-04 0.0 
0.0 0.0 -1.954030217304e-04 
1.237953986699e-03 -2.579545419294e-04 0.0 
-2.579545419294e-04 1.543244489082e-04 0.0 
0.0 0.0 -2.932658944931e-04 
1.411332111426e-03 -2.759944625030e-05 0.0 
-2.759944625030e-05 3.743876493098e-05 0.0 
0.0 0.0 -2.856593951198e-04 
3.600465984566e-04 -2.066499797985e-04 0.0 
-2.066499797985e-04 8.608267290585e-04 0.0 
0.0 0.0 -3.080440922735e-04 
3.653305054747e-04 -3.597145395908e-04 0.0 
-3.597145395908e-04 8.532226922973e-04 0.0 
0.0 0.0 -3.086108473030e-04 
1.169231949576e-03 -3.840093619394e-04 0.0 
-3.840093619394e-04 1.923594400946e-04 0.0 
0.0 0.0 -2.956379591255e-04 
1.031256041784e-03 -4.886047117192e-04 0.0 
-4.886047117192e-04 2.379226924498e-04 0.0 
0.0 0.0 -2.908089562448e-04 
1.816529586793e-03 -3.500151260859e-04 0.0 
-3.500151260859e-04 -4.323507490206e-04 0.0 
0.0 0.0 -1.958374107737e-04 
8.667756449627e-04 -6.409008792115e-04 0.0 
-6.409008792115e-04 2.928477416533e-04 0.0 
0.0 0.0 -2.796976375194e-04 
1.702636575089e-04 -6.542409432277e-04 0.0 
-6.542409432277e-04 9.095668014512e-04 0.0 
0.0 0.0 -3.106791268491e-04 
1.620102908946e-03 -4.500577592913e-04 0.0 
-4.500577592913e-04 -3.726586433767e-04 0.0 
0.0 0.0 -1.892091717599e-04 
-1.577535716708e-03 5.392394720966e-05 0.0 
5.392394720966e-05 7.299934411769e-03 0.0 
0.0 0.0 -1.060427308513e-03 
-1.573061893325e-03 1.544570403577e-04 0.0 
1.544570403577e-04 7.509050943264e-03 0.0 
0.0 0.0 -1.097082233180e-03 
-1.192953449252e-03 -1.864011720090e-03 0.0 
-1.864011720090e-03 5.605209134645e-03 0.0 
0.0 0.0 -1.300897016293e-03 
-1.579855819088e-03 2.979771540211e-04 0.0 
2.979771540211e-04 5.293250471981e-03 0.0 
0.0 0.0 -7.584009903415e-04 
3.744709763724e-04 -6.364946627065e-04 0.0 
-6.364946627065e-04 1.401291707387e-04 0.0 
0.0 0.0 -1.034024162715e-04 
-1.449845600680e-03 6.382887501364e-04 0.0 
6.382887501364e-04 8.609834207447e-03 0.0 
0.0 0.0 -1.292107529982e-03 
-1.448440923656e-03 1.123280561170e-03 0.0 
1.123280561170e-03 8.566022624529e-03 0.0 
0.0 0.0 -1.303172775453e-03 
-1.434083243244e-03 9.839421265548e-04 0.0 
9.839421265548e-04 8.603548743914e-03 0.0 
0.0 0.0 -1.304823151597e-03 
-1.916252571144e-03 -2.792629766010e-04 0.0 
-2.792629766010e-04 6.698528630947e-03 0.0 
0.0 0.0 -1.191058493115e-03 
-1.809292576517e-03 -5.447261667623e-04 0.0 
-5.447261667623e-04 6.787910699568e-03 0.0 
0.0 0.0 -1.224322658093e-03 
-1.441620689681e-03 3.697909072679e-04 0.0 
3.697909072679e-04 8.644537781625e-03 0.0 
0.0 0.0 -1.294569364341e-03 
-1.966831809583e-04 -2.229424319449e-03 0.0 
-2.229424319449e-03 1.821439975238e-03 0.0 
0.0 0.0 -6.963243404055e-04 
-1.542446802675e-03 2.619749311667e-03 0.0 
2.619749311667e-03 7.342230023592e-03 0.0 
0.0 0.0 -1.225740639889e-03 
-1.563624804990e-03 6.428436196565e-04 0.0 
6.428436196565e-04 7.948413338163e-03 0.0 
0.0 0.0 -1.178628832109e-03 
2.201456429693e-03 2.341714128316e-03 0.0 
2.341714128316e-03 -8.075777083502e-04 0.0 
0.0 0.0 -5.973765948613e-04 
4.529977292289e-04 -2.561738032130e-03 0.0 
-2.561738032130e-03 9.606788663604e-04 0.0 
0.0 0.0 -6.058613981097e-04 
-1.912750157524e-03 -1.012850712710e-03 0.0 
-1.012850712710e-03 5.577288917285e-03 0.0 
0.0 0.0 -1.066202199875e-03 
-1.088098720313e-03 -2.559527887766e-03 0.0 
-2.559527887766e-03 3.979421504262e-03 0.0 
0.0 0.0 -1.028256539386e-03 
-1.822459650115e-03 -1.367111847188e-03 0.0 
-1.367111847188e-03 6.015979930005e-03 0.0 
0.0 0.0 -1.130390451587e-03 
-1.582105737625e-03 -1.721031184097e-03 0.0 
-1.721031184097e-03 4.901863080820e-03 0.0 
0.0 0.0 -1.057243679378e-03 
-1.608185598285e-03 -1.915614561762e-03 0.0 
-1.915614561762e-03 5.282640092044e-03 0.0 
0.0 0.0 -1.076106726067e-03 
-6.144948469041e-04 -6.639795998970e-04 0.0 
-6.639795998970e-04 4.224201553889e-03 0.0 
0.0 0.0 -1.244129926109e-03 
-5.789303246957e-04 -4.457683817534e-04 0.0 
-4.457683817534e-04 1.808907778624e-03 0.0 
0.0 0.0 -3.862231446352e-04 
-1.669791442216e-03 5.742208476735e-04 0.0 
5.742208476735e-04 6.461493581352e-03 0.0 
0.0 0.0 -9.364826870394e-04 
-1.605975857622e-03 3.178960195767e-04 0.0 
3.178960195767e-04 6.348918363535e-03 0.0 
0.0 0.0 -9.130351872960e-04 
-1.629937813867e-03 6.093327650254e-04 0.0 
6.093327650254e-04 7.342083193620e-03 0.0 
0.0 0.0 -1.075939795031e-03 
-6.482537929307e-04 -1.608115231979e-03 0.0 
-1.608115231979e-03 2.605453652753e-03 0.0 
0.0 0.0 -8.387999399238e-04 
-1.303549504287e-03 -1.305113709369e-03 0.0 
-1.305113709369e-03 4.181114019267e-03 0.0 
0.0 0.0 -1.034705495726e-03 
-3.971862798800e-04 -1.135666412244e-03 0.0 
-1.135666412244e-03 1.660229728604e-03 0.0 
0.0 0.0 -5.350964027253e-04 
-1.079760018860e-03 3.194336986256e-03 0.0 
3.194336986256e-03 5.659153012299e-03 0.0 
0.0 0.0 -1.251461238623e-03 
-9.146057249504e-04 2.949568127909e-03 0.0 
2.949568127909e-03 3.641380823932e-03 0.0 
0.0 0.0 -9.215523041033e-04 
5.869540678773e-04 -2.956750850037e-03 0.0 
-2.956750850037e-03 1.034406097070e-03 0.0 
0.0 0.0 -6.948686421203e-04 
-4.983222250127e-04 -2.534366466985e-03 0.0 
-2.534366466985e-03 2.700875388843e-03 0.0 
0.0 0.0 -9.439513559275e-04 
-3.730260252315e-06 -2.536920884211e-03 0.0 
-2.536920884211e-03 1.637062224885e-03 0.0 
0.0 0.0 -6.999994134141e-04 
7.353476243331e-04 -2.725229135126e-03 0.0 
-2.725229135126e-03 6.766599510438e-04 0.0 
0.0 0.0 -6.051461037329e-04 
8.595376325540e-04 3.133881433802e-03 0.0 
3.133881433802e-03 8.059885165152e-04 0.0 
0.0 0.0 -7.137969210297e-04 
-4.203429083409e-05 -3.125630815959e-03 0.0 
-3.125630815959e-03 2.086027069296e-03 0.0 
0.0 0.0 -8.759969050552e-04 
-8.028650656472e-04 -2.530764803792e-03 0.0 
-2.530764803792e-03 3.746131268308e-03 0.0 
0.0 0.0 -1.026962916580e-03 
-1.603305794962e-03 5.584175701992e-04 0.0 
5.584175701992e-04 7.571764629350e-03 0.0 
0.0 0.0 -1.112552678551e-03 
9.600606219979e-04 -6.202368537327e-04 0.0 
-6.202368537327e-04 -7.835338607429e-05 0.0 
0.0 0.0 -1.528964725408e-04 
-6.507698434307e-04 -2.317277330880e-03 0.0 
-2.317277330880e-03 3.698342537328e-03 0.0 
0.0 0.0 -1.061672265243e-03 
-4.694800132291e-04 -3.046911020093e-03 0.0 
-3.046911020093e-03 2.876301697078e-03 0.0 
0.0 0.0 -9.848592602066e-04 
-1.735611780566e-03 9.275084004437e-04 0.0 
9.275084004437e-04 6.521846032081e-03 0.0 
0.0 0.0 -9.599091010803e-04 
5.517342203791e-04 7.070794377615e-04 0.0 
7.070794377615e-04 1.993016539601e-03 0.0 
0.0 0.0 -1.047968735850e-03 
1.251262826807e-03 -3.149427623220e-03 0.0 
-3.149427623220e-03 3.147933255355e-04 0.0 
0.0 0.0 -6.711669224326e-04 
-1.667035138543e-03 9.805979703494e-04 0.0 
9.805979703494e-04 7.401003517057e-03 0.0 
0.0 0.0 -1.098747615487e-03 
-1.603855099599e-03 1.782256839983e-03 0.0 
1.782256839983e-03 7.796685969376e-03 0.0 
0.0 0.0 -1.212453547082e-03 
-1.753933973529e-03 9.797964852189e-04 0.0 
9.797964852189e-04 5.978451539688e-03 0.0 
0.0 0.0 -8.875094802107e-04 
-2.613102227183e-04 -9.949083205869e-04 0.0 
-9.949083205869e-04 1.295268273910e-03 0.0 
0.0 0.0 -4.064699368096e-04 
-1.648709990180e-03 4.475238255647e-04 0.0 
4.475238255647e-04 6.036264205668e-03 0.0 
0.0 0.0 -8.692469099983e-04 
-7.203164161434e-04 -1.605185791603e-03 0.0 
-1.605185791603e-03 4.351922217429e-03 0.0 
0.0 0.0 -1.202705989510e-03 
-1.725470359675e-03 1.770892894084e-03 0.0 
1.770892894084e-03 6.914744693878e-03 0.0 
0.0 0.0 -1.078220320736e-03 
-7.065492097226e-04 -1.209971096051e-03 0.0 
-1.209971096051e-03 2.577314578998e-03 0.0 
0.0 0.0 -7.821142971127e-04 
2.080536798912e-03 -4.379488450435e-04 0.0 
-4.379488450435e-04 -1.014496050842e-03 0.0 
0.0 0.0 -4.568746063161e-04 
3.673244141799e-05 3.501892657137e-03 0.0 
3.501892657137e-03 2.162557991526e-03 0.0 
0.0 0.0 -9.249336466263e-04 
-1.472424715948e-03 1.473284294565e-03 0.0 
1.473284294565e-03 4.326140179341e-03 0.0 
0.0 0.0 -7.656857982150e-04 
-1.552562983666e-03 7.948996227407e-04 0.0 
7.948996227407e-04 8.084351316505e-03 0.0 
0.0 0.0 -1.206557591227e-03 
1.197294541337e-03 2.931696958795e-03 0.0 
2.931696958795e-03 3.430979437177e-04 0.0 
0.0 0.0 -6.601682078804e-04 
2.014691518502e-04 -1.535153806247e-04 0.0 
-1.535153806247e-04 2.672995857900e-03 0.0 
0.0 0.0 -1.120054252910e-03 
1.167692333485e-03 -4.546798185550e-04 0.0 
-4.546798185550e-04 3.225795309946e-04 0.0 
0.0 0.0 -6.386879419198e-04 
-8.300689796229e-04 -1.036862626203e-03 0.0 
-1.036862626203e-03 2.843866615447e-03 0.0 
0.0 0.0 -8.092532257643e-04 
-1.141410086144e-03 -2.132624368424e-03 0.0 
-2.132624368424e-03 4.763879094691e-03 0.0 
0.0 0.0 -1.118919378802e-03 
2.226178382358e-03 1.538806345707e-03 0.0 
1.538806345707e-03 -1.000001690931e-03 0.0 
0.0 0.0 -5.255042963258e-04 
-1.621773390463e-03 1.105341392258e-03 0.0 
1.105341392258e-03 7.770539650855e-03 0.0 
0.0 0.0 -1.164614768972e-03 
-7.726765049569e-04 3.339866695887e-03 0.0 
3.339866695887e-03 4.168840091130e-03 0.0 
0.0 0.0 -1.031533309622e-03 
2.985503110291e-03 3.031284491510e-04 0.0 
3.031284491510e-04 -1.381029514076e-03 0.0 
0.0 0.0 -6.876315412354e-04 
-1.686948173027e-03 1.421165008995e-03 0.0 
1.421165008995e-03 7.380565372555e-03 0.0 
0.0 0.0 -1.121170216299e-03 
1.011452247809e-03 -2.344893480733e-03 0.0 
-2.344893480733e-03 3.172812092828e-04 0.0 
0.0 0.0 -5.694571958966e-04 
3.273818053523e-04 1.142366955538e-03 0.0 
1.142366955538e-03 2.480645691333e-03 0.0 
0.0 0.0 -1.099429584637e-03 
-6.433175181119e-04 3.077878174349e-03 0.0 
3.077878174349e-03 3.183682229986e-03 0.0 
0.0 0.0 -9.539696108702e-04 
-6.121546724542e-04 3.601568394799e-03 0.0 
3.601568394799e-03 3.377991454684e-03 0.0 
0.0 0.0 -9.441813108648e-04 
-1.362049427310e-03 2.994726613582e-03 0.0 
2.994726613582e-03 5.058459491364e-03 0.0 
0.0 0.0 -9.824247929831e-04 
2.242703281786e-04 3.613717884088e-03 0.0 
3.613717884088e-03 1.934819861174e-03 0.0 
0.0 0.0 -8.887186042024e-04 
-1.881029170096e-03 -6.972944591045e-04 0.0 
-6.972944591045e-04 5.485539571048e-03 0.0 
0.0 0.0 -1.071820694527e-03 
-9.158007506096e-04 -2.235649248494e-03 0.0 
-2.235649248494e-03 4.248678740424e-03 0.0 
0.0 0.0 -1.090315851396e-03 
2.052665481287e-03 -1.103532234197e-03 0.0 
-1.103532234197e-03 -1.175556670273e-03 0.0 
0.0 0.0 -3.759037761492e-04 
8.914746630086e-04 2.890953836391e-03 0.0 
2.890953836391e-03 6.027493594732e-04 0.0 
0.0 0.0 -6.403817239208e-04 
-1.758945777430e-03 1.160675475390e-03 0.0 
1.160675475390e-03 6.378359981790e-03 0.0 
0.0 0.0 -9.536514739466e-04 
-6.639671926482e-04 3.003789204226e-03 0.0 
3.003789204226e-03 4.418789612070e-03 0.0 
0.0 0.0 -1.150585697120e-03 
-1.554201493046e-03 1.231598965710e-03 0.0 
1.231598965710e-03 8.128380504732e-03 0.0 
0.0 0.0 -1.229329624135e-03 
1.209824795641e-04 3.344721880567e-03 0.0 
3.344721880567e-03 1.935063257791e-03 0.0 
0.0 0.0 -8.811624588665e-04 
-1.286404788732e-03 -2.188571958382e-03 0.0 
-2.188571958382e-03 4.794074532598e-03 0.0 
0.0 0.0 -1.081576975854e-03 
-1.629163603093e-03 1.571087997701e-03 0.0 
1.571087997701e-03 7.723510960528e-03 0.0 
0.0 0.0 -1.185355684152e-03 
-3.559661832873e-04 -3.012647310201e-03 0.0 
-3.012647310201e-03 2.646809915025e-03 0.0 
0.0 0.0 -9.737892037141e-04 
-7.230165557545e-04 -1.426683456850e-04 0.0 
-1.426683456850e-04 2.147619513236e-03 0.0 
0.0 0.0 -4.572648740992e-04 
1.660426463556e-03 2.294712628775e-03 0.0 
2.294712628775e-03 -6.270108860030e-04 0.0 
0.0 0.0 -4.428923903797e-04 
3.083725212360e-03 4.086632437554e-04 0.0 
4.086632437554e-04 -1.411678867675e-03 0.0 
0.0 0.0 -7.165912905795e-04 
1.695879907660e-03 2.562718717107e-03 0.0 
2.562718717107e-03 -3.302884133479e-04 0.0 
0.0 0.0 -5.852534975623e-04 
-5.576706971117e-04 -2.954961257328e-03 0.0 
-2.954961257328e-03 3.029681223364e-03 0.0 
0.0 0.0 -1.013304783341e-03 
-1.555713883054e-03 2.364705081961e-03 0.0 
2.364705081961e-03 7.663070105557e-03 0.0 
0.0 0.0 -1.242275372262e-03 
-1.459222448555e-03 -1.977989758638e-03 0.0 
-1.977989758638e-03 5.249777589170e-03 0.0 
0.0 0.0 -1.110186454522e-03 
5.809827755289e-05 -1.888547144195e-03 0.0 
-1.888547144195e-03 2.563693945277e-03 0.0 
0.0 0.0 -1.040857148505e-03 
2.721524112917e-04 1.325365974884e-03 0.0 
1.325365974884e-03 4.084814057533e-04 0.0 
0.0 0.0 -2.917002073050e-04 
-1.420828704055e-03 1.823492309729e-03 0.0 
1.823492309729e-03 4.313202363895e-03 0.0 
0.0 0.0 -8.070275419711e-04 
-1.590933393314e-03 -1.754583215491e-03 0.0 
-1.754583215491e-03 5.664446844218e-03 0.0 
0.0 0.0 -1.139074001596e-03 
1.644076570115e-03 -1.085629871930e-03 0.0 
-1.085629871930e-03 -5.732577340253e-04 0.0 
0.0 0.0 -4.589223583244e-04 
2.052489302078e-04 6.912241943710e-04 0.0 
6.912241943710e-04 2.710009798059e-03 0.0 
0.0 0.0 -1.126725356868e-03 
-1.535445043143e-03 -5.867914393128e-04 0.0 
-5.867914393128e-04 4.647107690583e-03 0.0 
0.0 0.0 -1.044109258258e-03 
-9.859779036616e-04 3.056684200562e-03 0.0 
3.056684200562e-03 5.375983574251e-03 0.0 
0.0 0.0 -1.249754184115e-03 
-6.610476002560e-04 2.303624772309e-03 0.0 
2.303624772309e-03 2.903406990762e-03 0.0 
0.0 0.0 -9.028501661438e-04 
-1.686501264746e-03 -1.526608176621e-03 0.0 
-1.526608176621e-03 6.045524770636e-03 0.0 
0.0 0.0 -1.168790087466e-03 
3.742641179637e-04 -1.152556169589e-03 0.0 
-1.152556169589e-03 2.146769681943e-03 0.0 
0.0 0.0 -1.036257385577e-03 
2.158291477526e-03 2.743008596258e-03 0.0 
2.743008596258e-03 -5.432811980168e-04 0.0 
0.0 0.0 -6.921472626470e-04 
-1.448920855555e-03 5.485150606776e-05 0.0 
5.485150606776e-05 5.277752212934e-03 0.0 
0.0 0.0 -7.498068730476e-04 
-1.593954056461e-03 -1.469135234964e-03 0.0 
-1.469135234964e-03 6.450266463409e-03 0.0 
0.0 0.0 -1.243807156011e-03 
5.209000563453e-05 -9.592901321100e-04 0.0 
-9.592901321100e-04 2.854437082012e-03 0.0 
0.0 0.0 -1.114542488500e-03 
3.461661553032e-05 3.551384216602e-03 0.0 
3.551384216602e-03 2.362376837699e-03 0.0 
0.0 0.0 -9.321888224300e-04 
1.558216832635e-03 -1.548696012587e-03 0.0 
-1.548696012587e-03 -4.269730613691e-04 0.0 
0.0 0.0 -4.848187591140e-04 
-1.159109189925e-03 1.672386638450e-03 0.0 
1.672386638450e-03 3.686907530899e-03 0.0 
0.0 0.0 -7.928834912169e-04 
-8.622534806161e-04 -2.703450422620e-03 0.0 
-2.703450422620e-03 3.567462389003e-03 0.0 
0.0 0.0 -1.042489463686e-03 
-8.810352068874e-04 3.464697463085e-03 0.0 
3.464697463085e-03 3.935493660585e-03 0.0 
0.0 0.0 -9.528746205426e-04 
-1.455694182561e-03 2.079571376027e-03 0.0 
2.079571376027e-03 8.238502292373e-03 0.0 
0.0 0.0 -1.306889097489e-03 
-4.021262128289e-05 -5.236218254538e-04 0.0 
-5.236218254538e-04 3.069008893941e-03 0.0 
0.0 0.0 -1.148622835147e-03 
-1.725562695568e-03 2.028005553636e-03 0.0 
2.028005553636e-03 5.979413828880e-03 0.0 
0.0 0.0 -9.696660045843e-04 
-9.371362615476e-04 -2.513813645279e-03 0.0 
-2.513813645279e-03 3.674904326905e-03 0.0 
0.0 0.0 -1.055577742195e-03 
6.828857261752e-04 2.319846812613e-03 0.0 
2.319846812613e-03 1.471382999158e-03 0.0 
0.0 0.0 -9.020111454724e-04 
3.069126660921e-04 -4.845997231989e-04 0.0 
-4.845997231989e-04 8.592191971431e-04 0.0 
0.0 0.0 -3.093966206321e-04 
-1.066278201586e-03 2.069319232208e-03 0.0 
2.069319232208e-03 3.624795843977e-03 0.0 
0.0 0.0 -8.430048313659e-04 
-1.188974335056e-03 -2.184404117123e-03 0.0 
-2.184404117123e-03 4.121734009211e-03 0.0 
0.0 0.0 -1.055179846540e-03 
3.051680346467e-03 -4.197736543643e-04 0.0 
-4.197736543643e-04 -1.412706451387e-03 0.0 
0.0 0.0 -7.024173836058e-04 
1.117277129867e-03 -2.070559341147e-03 0.0 
-2.070559341147e-03 1.215006496444e-04 0.0 
0.0 0.0 -5.309047626477e-04 
-5.077233341081e-04 1.801300421280e-03 0.0 
1.801300421280e-03 4.164826850224e-03 0.0 
0.0 0.0 -1.234277959947e-03 
-1.405357231203e-03 -1.830815427985e-03 0.0 
-1.830815427985e-03 4.525691195773e-03 0.0 
0.0 0.0 -1.058821591963e-03 
2.981871888689e-03 -4.320249597075e-04 0.0 
-4.320249597075e-04 -1.387251596233e-03 0.0 
0.0 0.0 -6.834086967669e-04 
-1.589234832291e-03 -1.465860908847e-03 0.0 
-1.465860908847e-03 4.884351969089e-03 0.0 
0.0 0.0 -1.063846254002e-03 
-8.219124233661e-04 1.884899957964e-03 0.0 
1.884899957964e-03 3.049244611375e-03 0.0 
0.0 0.0 -8.384157971481e-04 
-1.674104129450e-03 2.267631102477e-03 0.0 
2.267631102477e-03 5.977690423385e-03 0.0 
0.0 0.0 -9.983267706061e-04 
-1.746776969671e-03 -1.092710579845e-03 0.0 
-1.092710579845e-03 5.203384673320e-03 0.0 
0.0 0.0 -1.068006041337e-03 
-9.280916248974e-04 3.352222764373e-03 0.0 
3.352222764373e-03 4.310032082870e-03 0.0 
0.0 0.0 -1.003151257071e-03 
2.463563334715e-05 -8.807126364979e-04 0.0 
-8.807126364979e-04 9.974910621111e-04 0.0 
0.0 0.0 -3.190932086048e-04 
1.865633619246e-04 3.322818699054e-03 0.0 
3.322818699054e-03 2.196662702388e-03 0.0 
0.0 0.0 -9.369607680273e-04 
-1.969274810505e-03 -5.697349439415e-04 0.0 
-5.697349439415e-04 6.492408088354e-03 0.0 
0.0 0.0 -1.155419075730e-03 
4.460939102830e-04 -2.841642607167e-03 0.0 
-2.841642607167e-03 1.136269056788e-03 0.0 
0.0 0.0 -6.781555573162e-04 
7.887889646567e-04 -2.571324212251e-03 0.0 
-2.571324212251e-03 6.415432993246e-04 0.0 
0.0 0.0 -6.129995417062e-04 
-1.637827184878e-03 2.388605245637e-03 0.0 
2.388605245637e-03 6.314063370822e-03 0.0 
0.0 0.0 -1.063653581392e-03 
-4.992814516217e-04 1.972643240252e-03 0.0 
1.972643240252e-03 2.384387457051e-03 0.0 
0.0 0.0 -8.079025737556e-04 
5.124750958276e-04 -2.569400884271e-03 0.0 
-2.569400884271e-03 1.193670865080e-03 0.0 
0.0 0.0 -7.312054118175e-04 
-9.641562230990e-04 3.242704907183e-03 0.0 
3.242704907183e-03 4.707911026065e-03 0.0 
0.0 0.0 -1.067288052377e-03 
3.154663455590e-04 2.993279893955e-03 0.0 
2.993279893955e-03 2.102244501383e-03 0.0 
0.0 0.0 -9.588566822092e-04 
1.346446614896e-03 2.610050225058e-03 0.0 
2.610050225058e-03 1.067961116776e-04 0.0 
0.0 0.0 -6.228183113887e-04 
2.887356895726e-04 -2.230406662033e-03 0.0 
-2.230406662033e-03 1.886206335840e-03 0.0 
0.0 0.0 -9.159128653295e-04 
-3.070381522363e-04 2.361479177514e-03 0.0 
2.361479177514e-03 2.144874392585e-03 0.0 
0.0 0.0 -7.876441030066e-04 
-4.603323552836e-06 -2.296978514711e-03 0.0 
-2.296978514711e-03 1.485132063043e-03 0.0 
0.0 0.0 -6.345123169243e-04 
-1.725456702673e-05 -2.050421713285e-03 0.0 
-2.050421713285e-03 1.350463780520e-03 0.0 
0.0 0.0 -5.713753772113e-04 
2.694499012180e-03 -1.108798334530e-03 0.0 
-1.108798334530e-03 -1.215742971782e-03 0.0 
0.0 0.0 -6.337525887422e-04 
-1.125553493016e-03 3.166078986994e-03 0.0 
3.166078986994e-03 5.226172467772e-03 0.0 
0.0 0.0 -1.103081964739e-03 
-3.505794759798e-04 -2.805020388018e-04 0.0 
-2.805020388018e-04 1.476517852756e-03 0.0 
0.0 0.0 -3.018576685516e-04 
-1.520679869667e-03 2.700420786858e-03 0.0 
2.700420786858e-03 5.894437551981e-03 0.0 
0.0 0.0 -1.054898413167e-03 
1.434637815246e-04 -2.013001771722e-03 0.0 
-2.013001771722e-03 1.061630091320e-03 0.0 
0.0 0.0 -5.164688026476e-04 
2.470206604480e-03 -1.725455129164e-03 0.0 
-1.725455129164e-03 -1.033453851675e-03 0.0 
0.0 0.0 -6.157511797736e-04 
1.550603106910e-04 2.343951066894e-03 0.0 
2.343951066894e-03 2.741523029304e-03 0.0 
0.0 0.0 -1.077081564483e-03 
-1.567382262079e-03 5.775225248615e-06 0.0 
5.775225248615e-06 6.502023960398e-03 0.0 
0.0 0.0 -9.315431351609e-04 
1.994050342792e-03 -2.125051609346e-03 0.0 
-2.125051609346e-03 -7.055681148420e-04 0.0 
0.0 0.0 -5.522066691216e-04 
-8.473530892992e-04 -1.857205257249e-04 0.0 
-1.857205257249e-04 2.593065685554e-03 0.0 
0.0 0.0 -6.119633700263e-04 
1.664939330105e-03 -2.423764940749e-03 0.0 
-2.423764940749e-03 -3.798301328600e-04 0.0 
0.0 0.0 -5.507610845334e-04 
9.691114688175e-04 2.564299471471e-03 0.0 
2.564299471471e-03 7.430038862534e-04 0.0 
0.0 0.0 -7.337637236018e-04 
1.166584806499e-03 -2.448706473937e-03 0.0 
-2.448706473937e-03 1.644568183363e-04 0.0 
0.0 0.0 -5.704464106438e-04 
9.207629563978e-04 -2.562817695187e-03 0.0 
-2.562817695187e-03 4.684807333005e-04 0.0 
0.0 0.0 -5.953901527278e-04 
-1.509599202053e-03 7.115315669588e-04 0.0 
7.115315669588e-04 8.319494978419e-03 0.0 
0.0 0.0 -1.242975171717e-03 
6.644834369663e-04 -2.816687817472e-03 0.0 
-2.816687817472e-03 8.638079814567e-04 0.0 
0.0 0.0 -6.549820364670e-04 
-1.417913046649e-03 2.000204615730e-04 0.0 
2.000204615730e-04 8.717353493565e-03 0.0 
0.0 0.0 -1.305370344976e-03 
-1.585981038622e-03 -5.390524588140e-04 0.0 
-5.390524588140e-04 7.088561262435e-03 0.0 
0.0 0.0 -1.298405437673e-03 
-1.489518803289e-03 -4.573950556845e-06 0.0 
-4.573950556845e-06 5.635615486584e-03 0.0 
0.0 0.0 -7.997855503562e-04 
-2.605550091072e-04 1.921888767382e-03 0.0 
1.921888767382e-03 1.771030104647e-03 0.0 
0.0 0.0 -6.473464695169e-04 
0.0 0.0 0.0 
0.0 0.0 0.0 
0.0 0.0 0.0 
5.300339532942e-05 2.296518653744e-03 0.0 
2.296518653744e-03 1.380741919417e-03 0.0 
0.0 0.0 -6.144622777483e-04 
4.589079226346e-04 -2.669236835745e-03 0.0 
-2.669236835745e-03 1.017039993413e-03 0.0 
0.0 0.0 -6.325491068774e-04 
-1.344360499523e-03 2.998007223071e-03 0.0 
2.998007223071e-03 5.396263019476e-03 0.0 
0.0 0.0 -1.045752072333e-03 
-1.493847809746e-03 7.392246810856e-05 0.0 
7.392246810856e-05 5.643210332918e-03 0.0 
0.0 0.0 -8.029817139903e-04 
2.189770723719e-04 -2.551176870332e-03 0.0 
-2.551176870332e-03 1.274969331798e-03 0.0 
0.0 0.0 -6.402627446442e-04 
-1.419524211431e-03 3.075318657805e-03 0.0 
3.075318657805e-03 6.922500903080e-03 0.0 
0.0 0.0 -1.250093291501e-03 
-1.105460999237e-03 2.840056670224e-03 0.0 
2.840056670224e-03 5.499135179184e-03 0.0 
0.0 0.0 -1.306737725957e-03 
-1.583352928322e-03 1.388979039351e-04 0.0 
1.388979039351e-04 7.093261842357e-03 0.0 
0.0 0.0 -1.028769680629e-03 
3.110761131384e-05 3.070777297068e-04 0.0 
3.070777297068e-04 2.990066827201e-03 0.0 
0.0 0.0 -1.152835590205e-03 
4.038330844269e-04 2.562565156884e-03 0.0 
2.562565156884e-03 2.099896012322e-03 0.0 
0.0 0.0 -9.954397186036e-04 
-1.532870607185e-03 8.627533493903e-05 0.0 
8.627533493903e-05 8.032571934377e-03 0.0 
0.0 0.0 -1.185717314024e-03 
-1.493423908883e-03 8.976519337403e-05 0.0 
8.976519337403e-05 5.235057922781e-03 0.0 
0.0 0.0 -7.451086181774e-04 
8.476467916489e-05 -1.199388947894e-03 0.0 
-1.199388947894e-03 6.043361303539e-04 0.0 
0.0 0.0 -2.642930028689e-04 
-1.995343437528e-03 -3.338550389889e-04 0.0 
-3.338550389889e-04 5.735331553200e-03 0.0 
0.0 0.0 -1.072300834510e-03 
-4.728391316331e-06 1.911025163986e-03 0.0 
1.911025163986e-03 1.236688893795e-03 0.0 
0.0 0.0 -5.279830724910e-04 
3.550394143264e-04 2.259430213976e-03 0.0 
2.259430213976e-03 9.034181507030e-04 0.0 
0.0 0.0 -5.393389564412e-04 
6.085214745978e-04 2.284877078157e-03 0.0 
2.284877078157e-03 6.261355702317e-04 0.0 
0.0 0.0 -5.291387334984e-04 
-9.396181000691e-04 -7.967451354887e-04 0.0 
-7.967451354887e-04 3.058992386408e-03 0.0 
0.0 0.0 -8.121166773320e-04 
5.494964702923e-04 -2.584085792452e-03 0.0 
-2.584085792452e-03 8.433772001581e-04 0.0 
0.0 0.0 -5.969458587645e-04 
2.401282782028e-04 2.005638511475e-03 0.0 
2.005638511475e-03 9.040366262875e-04 0.0 
0.0 0.0 -4.903563876387e-04 
-5.261734606055e-04 6.022279658391e-04 0.0 
6.022279658391e-04 4.033101031005e-03 0.0 
0.0 0.0 -1.245112051941e-03 
-1.636730137181e-03 4.290067563108e-04 0.0 
4.290067563108e-04 5.580276288558e-03 0.0 
0.0 0.0 -8.050116406322e-04 
-1.121915910908e-04 2.515763012409e-03 0.0 
2.515763012409e-03 3.291467473346e-03 0.0 
0.0 0.0 -1.110409235593e-03 
3.679053624996e-04 1.946389288486e-03 0.0 
1.946389288486e-03 7.047317248665e-04 0.0 
0.0 0.0 -4.597016088712e-04 
-1.554707372438e-03 1.697440109364e-03 0.0 
1.697440109364e-03 8.056864122716e-03 0.0 
0.0 0.0 -1.247366155457e-03 
-7.215899275846e-04 2.377475014672e-03 0.0 
2.377475014672e-03 4.622150950018e-03 0.0 
0.0 0.0 -1.246608778627e-03 
-1.331856878630e-03 -1.983836111103e-03 0.0 
-1.983836111103e-03 6.114923973583e-03 0.0 
0.0 0.0 -1.306249356034e-03 
-3.798399904625e-04 2.398884536475e-03 0.0 
2.398884536475e-03 3.901175645834e-03 0.0 
0.0 0.0 -1.176371721005e-03 
7.581050863864e-04 2.227306199006e-03 0.0 
2.227306199006e-03 3.618205949459e-04 0.0 
0.0 0.0 -4.799681491424e-04 
-1.753134334940e-03 1.030981935736e-03 0.0 
1.030981935736e-03 5.768775069705e-03 0.0 
0.0 0.0 -8.603500797662e-04 
-1.168709675212e-03 3.249274189801e-03 0.0 
3.249274189801e-03 5.927681969270e-03 0.0 
0.0 0.0 -1.250827372426e-03 
-1.580586288305e-03 2.460651619642e-04 0.0 
2.460651619642e-04 7.417010690682e-03 0.0 
0.0 0.0 -1.080253149739e-03 
-1.410996846028e-03 -1.766992384939e-03 0.0 
-1.766992384939e-03 6.482040820837e-03 0.0 
0.0 0.0 -1.309985050881e-03 
-1.682012249170e-03 6.654682702296e-04 0.0 
6.654682702296e-04 5.457303072723e-03 0.0 
0.0 0.0 -7.979019438933e-04 
-1.482092413582e-03 4.825553233706e-04 0.0 
4.825553233706e-04 8.388620482460e-03 0.0 
0.0 0.0 -1.252774941638e-03 
2.053124764649e-03 -2.150351803165e-03 0.0 
-2.150351803165e-03 -1.002699963371e-03 0.0 
0.0 0.0 -4.501820576904e-04 
-1.472782165905e-03 2.611384925530e-04 0.0 
2.611384925530e-04 8.403666031078e-03 0.0 
0.0 0.0 -1.254166199180e-03 
-1.340636802885e-03 3.017781757784e-03 0.0 
3.017781757784e-03 5.759872352408e-03 0.0 
0.0 0.0 -1.110316242656e-03 
-1.575034003637e-03 2.533992497604e-04 0.0 
2.533992497604e-04 6.175537215494e-03 0.0 
0.0 0.0 -8.840149073763e-04 
-1.771751416511e-03 1.426780246192e-03 0.0 
1.426780246192e-03 5.587137473215e-03 0.0 
0.0 0.0 -8.570326279659e-04 
-1.684907386527e-03 -8.004631079360e-04 0.0 
-8.004631079360e-04 6.831074281255e-03 0.0 
0.0 0.0 -1.256337174517e-03 
-1.508670120193e-03 2.760870843371e-03 0.0 
2.760870843371e-03 7.327066348949e-03 0.0 
0.0 0.0 -1.249505442739e-03 
6.883790236625e-04 2.060671389361e-03 0.0 
2.060671389361e-03 2.237385116845e-05 0.0 
0.0 0.0 -3.046083749275e-04 
-1.585370214117e-03 2.593308700915e-04 0.0 
2.593308700915e-04 7.073771685170e-03 0.0 
0.0 0.0 -1.024357608964e-03 
-1.028891659838e-03 -1.361434891480e-03 0.0 
-1.361434891480e-03 3.507211596145e-03 0.0 
0.0 0.0 -9.709766588611e-04 
2.096603589134e-04 -4.522541456736e-04 0.0 
-4.522541456736e-04 -1.685826935135e-04 0.0 
0.0 0.0 -1.760471374282e-05 
-1.108111334259e-03 -1.824971532717e-03 0.0 
-1.824971532717e-03 5.280702358381e-03 0.0 
0.0 0.0 -1.249521112489e-03 
-1.346888651128e-03 3.065747420634e-03 0.0 
3.065747420634e-03 6.117675129117e-03 0.0 
0.0 0.0 -1.172189067419e-03 
-1.641216111045e-03 -1.228485444809e-03 0.0 
-1.228485444809e-03 6.632464522082e-03 0.0 
0.0 0.0 -1.251863004148e-03 
4.253395517685e-04 -1.330965256832e-05 0.0 
-1.330965256832e-05 8.162616228349e-04 0.0 
0.0 0.0 -3.073113677837e-04 
2.659967583917e-04 -9.636004765028e-04 0.0 
-9.636004765028e-04 4.197455964224e-04 0.0 
0.0 0.0 -2.058019112872e-04 
-9.341108583894e-04 -1.570273886574e-03 0.0 
-1.570273886574e-03 4.919000747850e-03 0.0 
0.0 0.0 -1.258522865334e-03 
-1.325021295734e-03 3.260852513925e-03 0.0 
3.260852513925e-03 6.529415890564e-03 0.0 
0.0 0.0 -1.257106814994e-03 
2.069780564081e-03 -2.887481408844e-03 0.0 
-2.887481408844e-03 -5.620999085580e-04 0.0 
0.0 0.0 -6.461488523668e-04 
-1.444494309143e-03 1.513018136519e-03 0.0 
1.513018136519e-03 8.529509024149e-03 0.0 
0.0 0.0 -1.314710167832e-03 
1.606042082751e-04 7.400733517384e-04 0.0 
7.400733517384e-04 -6.805152101560e-05 0.0 
0.0 0.0 -3.966543739692e-05 
-1.527500430813e-03 2.291957424775e-04 0.0 
2.291957424775e-04 5.159544215479e-03 0.0 
0.0 0.0 -7.389643750272e-04 
7.522855132365e-04 -8.129255998406e-04 0.0 
-8.129255998406e-04 2.933811725579e-04 0.0 
0.0 0.0 -2.584822669346e-04 
-1.451285018422e-03 -1.619253938531e-03 0.0 
-1.619253938531e-03 6.712702821616e-03 0.0 
0.0 0.0 -1.308531455474e-03 
-1.521082113150e-03 1.160385665173e-03 0.0 
1.160385665173e-03 8.292813149207e-03 0.0 
0.0 0.0 -1.254845750201e-03 
-1.245470008181e-03 -9.103756336826e-04 0.0 
-9.103756336826e-04 3.950697369425e-03 0.0 
0.0 0.0 -9.904446095582e-04 
-1.723966937065e-03 1.170670843267e-03 0.0 
1.170670843267e-03 5.001993590100e-03 0.0 
0.0 0.0 -7.582784842146e-04 
-9.206532372436e-04 -4.495869396707e-04 0.0 
-4.495869396707e-04 2.876332750162e-03 0.0 
0.0 0.0 -7.084058105195e-04 
-8.029287135569e-04 3.022070318119e-03 0.0 
3.022070318119e-03 4.846485263972e-03 0.0 
0.0 0.0 -1.203498912175e-03 
1.578052768763e-04 -1.733898146901e-03 0.0 
-1.733898146901e-03 8.518457615679e-04 0.0 
0.0 0.0 -4.327075879046e-04 
-1.502885003929e-03 8.385321329672e-04 0.0 
8.385321329672e-04 8.406515819115e-03 0.0 
0.0 0.0 -1.260296891839e-03 
-7.798982579111e-04 -1.032636455785e-03 0.0 
-1.032636455785e-03 4.559837266151e-03 0.0 
0.0 0.0 -1.261416966621e-03 
-1.541080814648e-03 2.248481841172e-03 0.0 
2.248481841172e-03 7.871819285488e-03 0.0 
0.0 0.0 -1.260618436842e-03 
-1.035661708301e-03 1.434119926330e-03 0.0 
1.434119926330e-03 4.999968609048e-03 0.0 
0.0 0.0 -1.317725628150e-03 
0.0 0.0 0.0 
0.0 0.0 0.0 
0.0 0.0 0.0 
-8.775793509473e-04 2.643781737553e-03 0.0 
2.643781737553e-03 4.999185491909e-03 0.0 
0.0 0.0 -1.263090216482e-03 
-3.359262024726e-04 -4.205327465571e-04 0.0 
-4.205327465571e-04 3.690481845722e-03 0.0 
0.0 0.0 -1.202239909569e-03 
-1.469921091904e-03 1.397057797389e-04 0.0 
1.397057797389e-04 5.245389338611e-03 0.0 
0.0 0.0 -7.439744481034e-04 
-1.522980262771e-03 2.574585562032e-03 0.0 
2.574585562032e-03 7.567445771786e-03 0.0 
0.0 0.0 -1.252574368527e-03 
-1.039501310576e-03 -8.329301664350e-04 0.0 
-8.329301664350e-04 3.357758752277e-03 0.0 
0.0 0.0 -8.789764298429e-04 
-3.276933337434e-04 -7.307720459036e-04 0.0 
-7.307720459036e-04 1.390604940151e-03 0.0 
0.0 0.0 -3.555153606766e-04 
-1.400496614823e-03 7.920880417302e-05 0.0 
7.920880417302e-05 8.744396333073e-03 0.0 
0.0 0.0 -1.313490227100e-03 
2.520733888645e-03 -3.426864807379e-06 0.0 
-3.426864807379e-06 -8.047604136628e-04 0.0 
0.0 0.0 -1.695477456824e-04 
-1.436285120339e-03 -8.822331672806e-06 0.0 
-8.822331672806e-06 5.224558560537e-03 0.0 
0.0 0.0 -7.402411036050e-04 
-1.541544735514e-03 -2.080816256948e-04 0.0 
-2.080816256948e-04 7.171789726740e-03 0.0 
0.0 0.0 -1.313492844077e-03 
-2.510837729256e-04 -3.936310680644e-04 0.0 
-3.936310680644e-04 1.321735893226e-03 0.0 
0.0 0.0 -2.948614013126e-04 
-1.524937947447e-03 4.475494657923e-05 0.0 
4.475494657923e-05 5.953624986698e-03 0.0 
0.0 0.0 -8.489638187885e-04 
-1.372178966628e-03 3.183705797245e-03 0.0 
3.183705797245e-03 6.771642373061e-03 0.0 
0.0 0.0 -1.260211869575e-03 
-1.590513358799e-03 -2.597680171264e-04 0.0 
-2.597680171264e-04 4.769333481416e-03 0.0 
0.0 0.0 -1.052454572086e-03 
-1.550492385742e-03 1.189328986090e-04 0.0 
1.189328986090e-04 7.800235903878e-03 0.0 
0.0 0.0 -1.148445367820e-03 
9.452528930191e-04 -2.939486558072e-03 0.0 
-2.939486558072e-03 5.700922820308e-04 0.0 
0.0 0.0 -6.494336464500e-04 
0.0 0.0 0.0 
0.0 0.0 0.0 
0.0 0.0 0.0 
-1.577256117848e-03 6.886097405366e-05 0.0 
6.886097405366e-05 6.718118974100e-03 0.0 
0.0 0.0 -9.668795991591e-04 
-7.257532866393e-04 2.108017519290e-03 0.0 
2.108017519290e-03 4.551210106726e-03 0.0 
0.0 0.0 -1.258714341260e-03 
-1.539880904137e-03 1.881264573762e-03 0.0 
1.881264573762e-03 8.091722768049e-03 0.0 
0.0 0.0 -1.263997700767e-03 
-1.584367033562e-03 2.539188043181e-04 0.0 
2.539188043181e-04 6.423614681133e-03 0.0 
0.0 0.0 -9.199601189493e-04 
1.149887053528e-03 2.260371255349e-03 0.0 
2.260371255349e-03 -3.607458547944e-04 0.0 
0.0 0.0 -3.382033708860e-04 
-1.352077778871e-03 3.162162671945e-03 0.0 
3.162162671945e-03 6.429958482634e-03 0.0 
0.0 0.0 -1.221038716794e-03 
-1.328731786449e-03 -9.755978743980e-04 0.0 
-9.755978743980e-04 4.177204897338e-03 0.0 
0.0 0.0 -1.017329335709e-03 
-1.052088232510e-03 3.182318808270e-03 0.0 
3.182318808270e-03 5.489904176315e-03 0.0 
0.0 0.0 -1.208939113964e-03 
-2.749523466846e-04 3.333334303576e-04 0.0 
3.333334303576e-04 3.590145673266e-03 0.0 
0.0 0.0 -1.203806565432e-03 
2.586902145536e-05 2.021332938852e-04 0.0 
2.021332938852e-04 -2.586902145536e-05 0.0 
0.0 0.0 0.0 
-1.710135402111e-03 -2.140528936374e-04 0.0 
-2.140528936374e-04 5.062773823412e-03 0.0 
0.0 0.0 -1.067873332563e-03 
6.585939474405e-04 -9.144432273007e-04 0.0 
-9.144432273007e-04 2.765533765623e-04 0.0 
0.0 0.0 -2.242399343496e-04 
-1.352905233575e-03 -1.915199808028e-03 0.0 
-1.915199808028e-03 5.962667998270e-03 0.0 
0.0 0.0 -1.263714160583e-03 
-1.428737268169e-03 -6.941057894653e-04 0.0 
-6.941057894653e-04 4.390777467220e-03 0.0 
0.0 0.0 -1.028704531826e-03 
-5.955084508657e-06 3.485172267117e-04 0.0 
3.485172267117e-04 7.157918451410e-04 0.0 
0.0 0.0 -2.679061250327e-04 
-4.482094132867e-05 -2.807425479470e-06 0.0 
-2.807425479470e-06 1.771025454168e-04 0.0 
0.0 0.0 -5.669211603779e-05 
1.095689767295e-05 1.108166359628e-03 0.0 
1.108166359628e-03 6.901745919773e-04 0.0 
0.0 0.0 -3.004849241358e-04 
-1.711756351469e-04 -8.174096792477e-06 0.0 
-8.174096792477e-06 5.891705221559e-04 0.0 
0.0 0.0 -1.759189349307e-04 
6.086193370581e-05 1.489432806145e-03 0.0 
1.489432806145e-03 8.462272208416e-04 0.0 
0.0 0.0 -3.887524948060e-04 
-4.195522371654e-04 -1.053185644767e-05 0.0 
-1.053185644767e-05 1.210809654404e-03 0.0 
0.0 0.0 -2.205862019721e-04 
-4.680304609505e-05 1.561874337933e-03 0.0 
1.561874337933e-03 1.086348258463e-03 0.0 
0.0 0.0 -4.455193767289e-04 
-5.764561721916e-04 -2.047753743147e-05 0.0 
-2.047753743147e-05 1.630387565384e-03 0.0 
0.0 0.0 -2.766268288173e-04 
-2.519667786206e-04 1.472505919625e-03 0.0 
1.472505919625e-03 1.474237417008e-03 0.0 
0.0 0.0 -5.238302735944e-04 
-7.605031964952e-04 -2.368019319099e-05 0.0 
-2.368019319099e-05 2.235923404876e-03 0.0 
0.0 0.0 -3.266666666667e-04 
-4.663272730380e-04 1.445034291992e-03 0.0 
1.445034291992e-03 2.011357929561e-03 0.0 
0.0 0.0 -6.621559956526e-04 
-8.902768957816e-04 -2.344110242198e-05 0.0 
-2.344110242198e-05 2.651675222682e-03 0.0 
0.0 0.0 -3.933333333333e-04 
-7.205553837693e-04 1.411323130837e-03 0.0 
1.411323130837e-03 2.635120153819e-03 0.0 
0.0 0.0 -7.632308096241e-04 
-1.014253867293e-03 -2.134932202391e-05 0.0 
-2.134932202391e-05 3.236715286896e-03 0.0 
0.0 0.0 -4.600000000000e-04 
-1.004964497974e-03 1.297444765431e-03 0.0 
1.297444765431e-03 3.201027753380e-03 0.0 
0.0 0.0 -7.249691623289e-04 
-1.133374822382e-03 -1.604044547880e-05 0.0 
-1.604044547880e-05 3.646694996426e-03 0.0 
0.0 0.0 -5.266666666667e-04 
-1.280118750972e-03 1.130412810083e-03 0.0 
1.130412810083e-03 3.777030638565e-03 0.0 
0.0 0.0 -7.062703689559e-04 
-1.238778796526e-03 1.445476418683e-07 0.0 
1.445476418683e-07 4.216199491205e-03 0.0 
0.0 0.0 -5.933333333333e-04 
-1.543151210513e-03 1.002710923754e-03 0.0 
1.002710923754e-03 4.354039341919e-03 0.0 
0.0 0.0 -6.963727196364e-04 
-1.346425769997e-03 3.815725794878e-05 0.0 
3.815725794878e-05 4.612334605524e-03 0.0 
0.0 0.0 -6.600000000000e-04 

SCALARS node_materi_plasti_kappa_shear float
LOOKUP_TABLE default
2.115083374134e-03
3.458023789683e-03
4.967886194112e-03
5.876066285134e-03
1.429593561868e-03
9.260891180627e-04
9.750663137551e-04
1.375519170543e-03
1.749514182145e-03
2.072909783402e-03
2.372334959694e-03
2.646556194044e-03
2.900020015941e-03
3.146970300908e-03
3.414657029732e-03
3.664527045737e-03
3.866039465253e-03
4.132559423194e-03
4.398804352871e-03
4.605615939913e-03
4.743184926543e-03
4.864835234233e-03
4.967891461667e-03
5.874817732443e-03
5.871659258457e-03
5.865996944230e-03
5.879052454379e-03
5.875406408010e-03
5.881746665879e-03
5.893121739855e-03
5.904403498293e-03
5.911667380715e-03
5.942687471040e-03
5.945547502063e-03
5.964504727329e-03
5.990682248078e-03
6.003086871528e-03
6.009687630856e-03
6.018022142948e-03
6.013722829184e-03
6.018405848819e-03
6.000999157977e-03
5.961878918865e-03
5.908140669358e-03
5.805875616932e-03
5.680054112450e-03
5.512945864727e-03
5.326235031303e-03
5.099814575695e-03
4.848871496600e-03
4.578436030419e-03
4.312126051031e-03
4.068983510437e-03
3.878948019144e-03
3.696536407386e-03
3.610414615740e-03
3.648906839705e-03
3.740049181565e-03
3.899047133921e-03
4.078094335185e-03
4.265058537564e-03
4.435125269455e-03
4.594665148187e-03
4.735181100800e-03
4.838272090162e-03
4.913247143246e-03
4.935696440883e-03
4.963163630604e-03
4.970148499816e-03
4.972729571996e-03
4.968771048834e-03
4.969260551934e-03
3.740141790492e-03
4.058111443788e-03
4.339280484927e-03
4.600412294281e-03
4.861219744615e-03
5.105119180278e-03
5.341101545075e-03
5.553418984263e-03
5.788796962491e-03
1.485179454721e-04
1.347849068021e-04
3.540835783254e-03
7.834550565873e-04
1.513636101498e-03
1.784235768949e-03
1.840933129406e-03
1.969885892913e-03
2.264787004423e-03
2.585388498505e-03
2.853460972533e-03
3.168094353423e-03
3.141818857313e-04
7.006075451316e-04
1.073162065766e-03
1.425508647058e-03
1.788727031060e-03
2.132257304510e-03
2.471218391375e-03
2.803483841189e-03
3.120103201879e-03
3.399382940078e-03
3.415840330809e-03
3.424362395235e-03
3.424497136894e-03
3.479931295206e-03
3.440294557840e-03
3.439848037433e-03
3.453307638175e-03
3.471621284897e-03
3.481974088033e-03
3.486271779339e-03
3.492543524408e-03
3.498742868845e-03
3.518045244631e-03
0.0
0.0
0.0
0.0
0.0
1.744449562148e-04
3.008916063010e-04
4.050478665291e-04
5.046139784359e-04
6.936516565606e-04
8.134086808571e-04
1.035447660179e-03
1.317664285716e-03
1.556461179225e-03
1.698703308833e-03
1.829256340020e-03
1.936274606327e-03
2.057713747761e-03
2.160946537055e-03
8.723754398235e-04
4.514271536514e-04
3.997374942547e-04
4.387337015267e-04
4.500200097101e-04
5.100447272740e-04
5.871444418934e-04
6.263768603285e-04
6.373498437459e-04
6.206952457261e-04
5.800967259374e-04
5.545421708741e-04
5.426540962168e-04
5.093273806814e-04
4.620436670938e-04
4.056967305798e-04
3.435569672471e-04
2.792791043078e-04
2.267037208221e-04
1.880773443596e-04
1.629207584079e-04
1.607133808203e-04
1.729663124628e-04
1.833022678123e-04
1.870448381763e-04
1.858775511617e-04
1.847258096626e-04
1.839964184944e-04
1.776095534577e-04
2.956682524045e-04
2.834838165443e-04
2.967735006607e-04
2.998002209058e-04
2.997314609735e-04
2.985298558526e-04
2.939334864366e-04
2.875209344215e-04
2.803097765503e-04
2.800272247835e-04
2.819436291456e-04
2.898235336509e-04
3.083770380630e-04
3.329570510895e-04
3.566496254922e-04
3.777736115790e-04
3.938552647334e-04
4.011997661088e-04
3.966069049923e-04
4.004401173095e-04
4.098003843591e-04
4.439805517309e-04
5.047882444681e-04
5.800901170287e-04
6.187286213714e-04
6.713306371354e-04
7.568410043183e-04
7.258424093845e-04
1.341162963010e-03
1.239637879317e-03
1.037213649238e-03
8.234381554657e-04
6.661650329679e-04
5.497446307388e-04
5.065387119101e-04
5.249937947800e-04
5.577060797673e-04
5.843089488966e-04
6.033578137451e-04
6.151691409072e-04
6.223820782987e-04
6.273397188621e-04
6.314818003346e-04
6.356986257852e-04
6.398751866702e-04
6.421201757300e-04
6.434425535180e-04
6.446771351534e-04
6.452961021515e-04
6.447590108196e-04
6.430279944283e-04
6.398152572366e-04
6.346431878843e-04
6.686432679190e-04
1.563870472058e-03
1.433586595887e-03
1.215581025695e-03
1.053934217202e-03
9.665331633179e-04
9.372721168748e-04
9.463783281201e-04
9.597821557420e-04
9.713586319383e-04
9.843440652321e-04
9.960037638130e-04
1.005780416461e-03
1.013612701808e-03
1.019402592161e-03
1.023075051701e-03
1.024793432580e-03
1.025558461645e-03
1.025467437108e-03
1.024903837299e-03
1.023642744672e-03
1.021487590643e-03
1.018892149847e-03
1.017159784258e-03
1.024600024253e-03
1.056810334543e-03
1.410851678505e-03
1.383808697431e-03
1.385640841373e-03
1.388300151033e-03
1.391340236521e-03
1.394303612492e-03
1.397058219780e-03
1.399443294630e-03
1.401100902235e-03
1.401729103204e-03
1.400842359017e-03
1.397743389106e-03
1.392458267867e-03
1.385645250372e-03
1.378903873205e-03
1.369303763539e-03
1.359280357406e-03
1.354090439141e-03
1.352799741769e-03
1.365002351761e-03
1.433161107644e-03
1.567418573326e-03
1.651544285612e-03
1.850937220206e-03
1.850833601174e-03
1.786344784286e-03
1.749796523466e-03
1.737769871441e-03
1.733448498837e-03
1.741846356920e-03
1.749852201886e-03
1.756263397866e-03
1.759477367312e-03
1.762640434647e-03
1.764403705946e-03
1.764817381730e-03
1.764122728998e-03
1.762502703657e-03
1.760185883725e-03
1.757507986054e-03
1.754840510804e-03
1.752603729670e-03
1.751629968430e-03
1.757828555964e-03
1.777885292437e-03
2.120050012342e-03
2.111449579431e-03
2.113835223347e-03
2.116675236187e-03
2.120310449716e-03
2.123984102461e-03
2.126249522508e-03
2.127631391968e-03
2.128064366183e-03
2.127554982720e-03
2.126046799571e-03
2.123459660332e-03
2.120356283497e-03
2.114885182925e-03
2.101970331483e-03
2.096356667345e-03
2.097335722453e-03
2.128284095306e-03
2.196494271365e-03
2.186295543855e-03
2.483010702437e-03
2.506754027907e-03
2.468879242947e-03
2.457348499547e-03
2.466578465204e-03
2.474302737319e-03
2.478559870350e-03
2.480374252064e-03
2.482060617048e-03
2.483166610535e-03
2.483757347614e-03
2.481626238939e-03
2.477865116003e-03
2.472879665190e-03
2.467009561395e-03
2.462065239057e-03
2.458696764635e-03
2.458241881530e-03
2.465987666585e-03
2.800073416758e-03
2.792133891103e-03
2.794251622192e-03
2.799303906405e-03
2.804006642559e-03
2.811538170580e-03
2.819615238005e-03
2.827588526175e-03
2.830423737218e-03
2.834223597871e-03
2.832548011680e-03
2.829858727631e-03
2.829414630415e-03
2.819420454677e-03
2.821018701118e-03
2.841223476047e-03
2.785918999873e-03
3.125502671646e-03
3.195441658547e-03
3.182187427784e-03
3.176497158046e-03
3.175725551500e-03
3.174775535585e-03
3.166739352413e-03
3.157972763163e-03
3.150169453340e-03
3.142150136721e-03
3.134434164911e-03
3.127916890668e-03
3.125563909718e-03
3.118279613313e-03
3.123246277339e-03
3.139058430584e-03
5.674476711186e-04
1.380116394788e-03
1.809387465819e-03
1.892591139138e-03
1.942252885145e-03
2.173629989805e-03
2.503079452047e-03
2.766578717886e-03
3.045897946307e-03
3.384322342055e-03
1.792071878644e-03
3.375143360344e-03
7.233637867985e-04
1.036141330496e-04
4.185730067683e-03
2.132887875458e-03
3.290669112102e-03
3.943090107724e-03
2.459850990970e-03
5.049081016827e-03
3.049657566422e-03
4.807738799367e-03
1.182564866658e-03
5.746835578075e-03
3.688122146157e-03
2.243660734344e-03
3.956138881533e-03
5.918594875086e-03
5.957497874511e-03
5.833020523938e-03
5.849817635203e-03
5.907569221224e-03
3.796891756948e-03
3.753148626160e-03
3.750719424971e-03
4.728883318265e-03
4.949356106529e-03
0.0
1.446675358332e-03
4.662329876841e-03
3.701848086155e-03
1.172285973879e-03
5.916122430582e-03
4.554740200655e-03
5.468890302383e-03
3.503959695460e-03
3.612570973627e-03
1.012610592318e-03
3.764133124860e-03
4.509011244357e-03
5.226961181745e-03
8.281022762432e-04
2.786147332295e-03
5.862108365073e-03
2.293034409321e-03
2.118172696952e-03
2.814022264942e-03
3.328976841209e-03
8.681955548670e-04
4.215679675405e-03
4.988678889666e-03
1.603073179023e-03
5.647207016451e-03
3.826980774528e-03
3.959485929510e-03
4.093805969592e-03
4.237157459642e-03
4.355175514086e-03
4.475551541186e-03
4.360600218784e-03
4.584917723766e-03
4.472803770017e-03
4.603457862675e-03
4.678779703983e-03
4.566901197709e-03
4.755547519284e-03
4.640471696753e-03
4.457539912409e-03
4.538567241607e-03
4.334573614265e-03
4.420847848507e-03
4.584491396975e-03
4.467742894371e-03
4.290813753397e-03
4.341561214995e-03
4.161369484108e-03
4.203844918484e-03
4.020961676830e-03
4.033609205764e-03
4.190038035743e-03
3.995998885876e-03
3.816070395907e-03
3.728966813226e-03
3.537030536043e-03
3.407128807489e-03
3.586398617854e-03
3.288807272957e-03
3.252863900070e-03
3.170185754012e-03
3.233111113295e-03
3.074120756272e-03
3.162643393987e-03
2.933378461355e-03
2.797468942969e-03
2.619962109437e-03
2.778421306725e-03
2.482787310082e-03
2.288870685994e-03
2.245276885126e-03
2.009188259652e-03
2.106063465321e-03
2.298880449605e-03
2.277186157407e-03
2.045146607384e-03
2.269833337431e-03
2.492081268530e-03
2.449252250951e-03
2.235847836527e-03
2.412279828812e-03
2.543747264894e-03
2.600115002725e-03
2.727482019444e-03
2.938942653524e-03
2.800953391654e-03
3.099410076939e-03
3.236731448007e-03
3.326718393122e-03
3.458435113975e-03
3.182252973246e-03
3.349632840797e-03
3.182734544931e-03
3.297058188961e-03
3.395874895856e-03
3.084763359842e-03
2.947638229530e-03
3.173599872694e-03
3.367971322397e-03
2.907366739478e-03
2.989778207621e-03
2.681037591212e-03
3.273090083598e-03
4.583977419968e-03
2.763122244056e-03
2.422279070482e-03
2.341976270933e-03
2.055104190934e-03
4.487857016271e-03
4.743988105410e-03
4.617567667593e-03
4.883368050274e-03
4.763228887328e-03
2.160659489003e-03
4.890919826071e-03
4.994559216402e-03
4.077898647515e-03
3.620014606063e-03
2.026865546520e-03
3.041451028518e-03
2.832922892333e-03
3.077663964185e-03
3.380542676541e-03
3.577929148800e-03
3.502531489785e-03
3.663458989421e-03
3.546277218968e-03
3.702657791091e-03
3.786178392521e-03
3.850978684801e-03
3.897450996605e-03
3.504687425170e-03
3.291824593051e-03
3.999992240266e-03
4.016767369501e-03
4.146857594668e-03
4.147424783067e-03
3.977096144328e-03
4.088166746606e-03
3.903561376438e-03
1.647610095171e-03
1.670364952503e-03
1.200482357020e-03
1.361632881091e-03
1.080278838397e-03
1.418148903541e-03
1.352867822665e-03
1.212666352796e-03
4.813044669928e-03
2.629702736151e-03
2.873791510621e-03
2.692884768804e-03
2.922961960319e-03
2.693279210870e-03
2.967619989366e-03
2.640231682294e-03
2.442231823403e-03
2.256451765602e-03
2.304389301660e-03
1.970174595809e-03
2.413972446824e-03
4.105974986965e-03
1.752978929950e-03
1.881015725757e-03
2.212471553438e-03
1.986920103444e-03
4.283844059937e-03
3.257008008793e-03
2.972866264147e-03
1.546774196166e-03
1.779410363677e-03
2.938187575973e-03
3.188246772319e-03
5.018824155785e-03
4.900262887059e-03
3.011629305590e-03
1.908912131208e-03
3.906913380700e-03
1.895281348439e-03
4.211749337744e-03
4.409990212532e-03
3.799088406628e-03
2.355436507833e-03
2.649299599465e-03
2.548634680734e-03
2.876527123569e-03
2.844168383616e-03
3.212913817799e-03
3.129285464298e-03
3.337589162415e-03
3.439166685576e-03
3.438974933722e-03
3.303340296455e-03
3.181680302338e-03
3.085186834318e-03
2.829834518630e-03
4.432489689449e-03
1.483659745450e-03
4.217722169449e-03
3.341461549786e-03
1.739764648709e-03
5.152372939050e-03
5.035369681437e-03
4.778294671962e-03
4.917428704147e-03
5.167012334313e-03
5.050565403691e-03
4.795745429522e-03
4.929418857156e-03
4.668419815856e-03
4.805864584515e-03
5.058823087727e-03
4.939281816885e-03
4.682797093272e-03
4.818002280012e-03
4.556116505805e-03
4.690388347301e-03
4.950293242362e-03
1.552403935002e-03
1.574322739071e-03
1.877343647282e-03
2.891197733424e-03
3.092514519054e-03
3.276732472821e-03
3.305456961863e-03
4.827759947093e-03
5.081593595751e-03
3.163419766099e-03
3.211991907021e-03
5.265451275810e-03
4.339993450943e-03
4.108622684801e-03
3.351327486416e-03
3.414147971325e-03
3.173366515349e-03
3.179934844101e-03
3.412464276917e-03
2.933374923412e-03
3.048978120525e-03
5.184623155997e-03
2.285735175407e-03
1.964820094476e-03
4.525309975274e-03
1.417417973454e-03
4.266164728390e-03
4.121971091758e-03
4.284403972733e-03
4.105296115865e-03
4.321717176209e-03
4.160575813867e-03
3.892235684062e-03
2.811745021311e-03
3.984494120428e-03
4.554222149543e-03
2.269911801835e-03
3.028107761873e-03
1.410044382037e-03
2.660796390279e-03
1.642549087339e-03
2.019881341573e-03
3.191265930906e-03
4.449437667659e-03
4.556738233615e-03
3.151991049237e-03
3.330144195961e-03
2.615443417616e-03
4.499456307731e-03
4.528967056282e-03
4.393751219098e-03
1.261306655149e-03
2.904934706402e-03
5.293699107592e-03
3.240583809678e-03
3.137492166912e-03
1.326987575174e-03
7.734678318549e-04
4.951662652887e-03
5.199111337284e-03
3.458302994746e-03
3.498814191065e-03
2.813032372855e-03
2.488302007795e-03
5.318301846901e-03
1.850643022250e-03
1.900800904807e-03
3.131639576739e-03
3.027700141336e-03
2.957799237182e-03
3.061527549215e-03
2.613926403272e-03
1.775348210848e-03
3.082947151770e-03
5.403046930315e-03
3.649594930354e-03
3.629629087466e-03
3.791790756931e-03
2.266631384106e-03
3.561658471125e-03
4.464949176004e-03
4.749074667132e-03
4.803902692703e-03
3.195369272568e-03
2.992485238832e-03
2.855378574955e-03
2.741778446605e-03
4.234794425954e-03
3.108532495677e-03
4.079034698662e-03
3.940552543924e-03
3.815579800974e-03
3.588995439569e-03
3.476421980838e-03
3.087431809056e-03
2.199698414150e-03
3.435465997500e-03
3.826462726601e-03
3.261674752205e-03
5.297684949133e-03
5.419151855637e-03
4.414057560104e-03
4.275097580202e-03
1.647451024479e-03
1.675335589964e-03
3.606226530559e-03
3.650868628108e-03
5.391618930748e-03
5.502109459712e-03
5.372609048885e-03
2.675369016162e-03
2.527778908692e-03
1.410070067518e-03
1.620197969852e-03
3.704561518482e-03
1.421863687494e-03
4.706685273956e-03
4.622442071867e-03
4.666940698599e-03
3.076866095470e-03
3.811195532018e-03
3.440349836705e-03
3.147617514471e-03
3.657267983904e-03
3.541815125300e-03
3.706500821150e-03
3.438152628286e-03
2.775184890772e-03
2.746720812631e-03
4.705097558488e-03
4.212391869045e-03
5.032584068110e-03
5.060540397521e-03
2.962566848859e-03
2.515241370603e-03
2.118397082965e-03
3.180431248684e-03
5.518846616804e-03
3.789817242396e-03
3.891070071717e-03
3.945571653991e-03
5.986403847300e-04
2.213189616717e-03
5.440739059520e-03
2.585939956196e-03
2.577091143894e-03
2.623503978078e-03
4.897871729883e-03
3.686454329978e-03
4.752961752010e-03
3.733356492718e-03
5.550112872523e-03
3.071330919958e-03
3.165660564610e-03
2.415063932661e-03
5.310812901883e-03
5.569340241546e-03
4.247537830652e-03
4.096212274891e-03
4.376310335557e-03
2.295285634796e-03
1.760148970824e-03
5.307204263575e-03
2.597022010623e-03
2.677083653507e-03
2.361042937549e-03
2.540509620076e-03
3.590752619766e-03
3.561980325172e-03
4.687546968051e-03
4.862462070621e-03
4.404636295064e-03
2.304172143242e-03
2.399216396593e-03
1.964677543140e-03
5.518361070662e-03
5.664420780412e-03
2.775557848670e-03
2.950132041529e-03
2.770175388850e-03
5.630497223971e-03
4.810959073252e-03
4.708255592783e-03
1.439105625328e-03
1.764440458605e-03
2.782344288704e-03
2.711314613078e-03
5.598196232205e-03
5.483018715217e-03
5.749000539319e-03
1.876891076347e-03
3.340823531716e-03
3.019076182411e-03
2.638636300014e-03
3.496239648933e-03
3.233921457243e-03
3.509435497577e-03
4.060457021751e-03
9.830298147037e-05
5.472024458089e-03
4.113394862956e-03
0.0
3.974022231900e-03
4.142147385998e-03
3.808811843470e-03
1.512139063608e-03
4.035840610883e-03
4.228908811524e-03
1.229665042051e-03
5.727754258707e-03
1.213722886229e-03
1.289130077108e-03
4.190343840825e-03
4.208177283858e-03
4.453725484854e-03
4.415818037714e-03
4.236650972425e-03
4.433395698974e-03
3.960847876624e-03
4.646929544121e-03
4.602784854752e-03
4.854292446809e-03
3.246379902709e-03
2.751258169961e-03
2.634703286177e-03
2.390161293581e-03
5.366413333148e-03
5.305369359066e-03
4.571502884887e-03
4.361148070353e-03
3.986570332512e-03
3.958169901241e-03
4.225562744729e-03
4.178369498049e-03
4.446132963819e-03
4.399693690965e-03
4.649688467265e-03
4.553994310106e-03
2.395247212063e-03
3.489844342941e-03
2.935834930029e-03
2.507685734421e-03
3.320342588166e-03
3.002197588997e-03
3.920773109245e-03
3.240450602112e-03
5.870937815019e-03
0.0
3.323452107101e-04
3.218749665586e-03
3.600131537244e-03
2.907036869022e-03
2.836905823125e-03
2.270773315379e-03
1.834790987996e-03
2.673096930044e-03
4.690114924130e-03
2.348836148975e-03
4.492676789655e-03
3.205482778443e-03
3.817317219374e-03
2.948492527326e-03
2.849084286571e-03
4.354187352303e-03
4.105094102283e-03
3.949385469094e-03
3.043885708512e-03
3.025811206364e-03
2.606730506197e-03
4.199509327046e-03
5.239720060421e-03
5.342311723545e-03
5.568723597318e-03
5.436074129988e-03
5.195127512814e-03
5.275945829576e-03
5.522846822360e-03
5.362101483362e-03
5.654790167380e-03
5.418798555265e-03
5.183358795615e-03
5.228039527145e-03
5.462723589554e-03
5.010149217662e-03
3.394314338742e-03
3.254416177728e-03
3.998143781563e-04
1.780285334436e-03
3.960367887196e-03
5.943039136803e-03
5.959345631699e-03
3.141346465330e-03
5.620347987340e-03
4.084459886071e-03
2.498622170437e-03
5.268940025093e-03
5.099701809653e-03
4.951938385870e-03
4.853275658761e-03
5.939990338712e-03
4.510478805277e-03
4.274617599746e-03
1.914060081792e-03
2.484209945367e-03
2.639018446471e-03
5.114013007791e-03
3.400229055208e-03
2.914794698409e-03
2.950236209628e-03
2.471629201444e-03
3.451405133461e-03
5.898428211788e-03
5.845499826008e-03
3.178797580669e-03
2.960279401288e-03
2.804058035340e-03
2.729987471253e-03
2.829725808593e-03
2.578048860295e-03
2.561856093753e-03
2.441038645177e-03
5.056780879738e-03
3.797514540817e-03
3.350528560521e-03
3.070190277767e-03
2.914035417259e-03
3.410817836896e-03
3.523130452731e-03
3.651707279838e-03
3.259955241283e-03
3.906281668705e-03
3.999951674760e-03
1.514180247365e-03
3.455226154399e-03
3.780489020667e-03
4.041242521720e-03
4.062468817485e-03
4.304541709678e-03
4.049230948442e-03
3.629888373411e-03
3.687995609435e-03
3.556481715217e-03
3.766062809759e-03
3.630392003192e-03
3.425625743275e-03
3.859887208052e-03
3.712754465682e-03
3.753295504860e-03
5.944650398120e-04
2.225590346816e-03
2.127823725117e-03
2.979469021594e-03
2.824219377905e-03
3.230470095965e-03
3.141720754719e-03
1.550829825203e-03
7.467435189644e-04
1.647650571366e-03
6.781160949691e-04
1.418844655901e-03
2.293180220520e-03
2.042650195457e-03
4.943618431220e-03
3.031335723016e-03
2.945155604069e-03
2.688743593994e-03
2.875725181900e-03
3.142994710358e-03
2.523324995075e-03
2.457510238830e-03
1.510421340239e-03
1.007815092101e-03
1.077602730068e-03
9.323160320547e-04
9.716390507349e-04
1.014619391924e-03
1.008787792094e-03
1.356424777816e-03
1.016122513265e-03
1.104929402575e-03
1.269761046994e-03
4.987755442147e-03
5.116267723268e-03
4.373987183766e-03
3.768398534654e-03
7.723067608076e-04
5.801414033109e-03
5.849888523554e-03
5.842497446698e-03
4.794097655678e-03
4.842845514710e-03
5.795857190057e-03
2.602280117318e-03
5.684608119029e-03
5.426766964233e-03
2.915293754372e-03
2.687040126660e-03
4.231633519162e-03
3.882386612765e-03
4.556515040671e-03
3.998756045770e-03
4.293387971553e-03
3.074535552154e-03
1.408470089399e-03
4.539066931421e-03
4.423048734156e-03
5.069081138622e-03
2.521812465648e-03
3.361884437641e-03
1.678049688451e-03
5.074061553586e-03
3.958676471230e-03
3.095099427902e-03
3.226856089264e-03
2.810734054587e-03
2.838974017310e-03
3.275246495708e-03
3.484344474013e-03
3.705978157807e-03
5.196157012198e-03
1.018518931270e-03
3.521375643282e-03
3.706077620756e-03
4.658000838490e-03
1.709680317594e-03
3.305261692782e-03
5.177694957922e-03
5.612493104205e-03
4.353675085413e-03
1.412398444283e-03
4.259060800003e-03
3.477784717748e-03
5.132413977016e-03
2.272689532028e-03
1.816489196477e-03
3.846604393139e-03
3.494167407997e-03
5.528278511331e-03
3.146089818610e-03
1.957139825605e-03
1.112448474457e-03
2.360079505855e-03
4.023485214536e-03
2.432815649017e-03
5.414327495685e-03
4.449676466395e-03
2.421354826549e-03
5.279237453520e-03
2.481134471885e-03
2.154599998102e-03
3.850201562972e-03
4.337013816297e-03
4.689567346140e-03
3.889632788579e-03
4.106706360112e-03
3.777078850776e-03
2.080073589128e-03
3.024091218619e-03
4.636084587167e-03
4.310138882828e-03
5.639613987774e-03
3.640972516567e-03
4.095996415080e-03
5.509310551577e-03
3.587895264237e-03
1.596224348258e-03
2.654907617398e-03
2.518196502036e-03
2.963465931010e-03
3.699806971781e-03
5.746687556824e-03
4.270512341206e-03
2.658558888212e-03
1.385837139963e-03
3.642720607827e-03
4.434127154033e-03
1.755325851135e-03
2.085706409627e-03
3.490851329931e-03
4.839928513279e-03
3.143753996542e-03
4.591157827227e-03
1.995758212990e-03
3.213796841356e-03
3.698867822439e-03
4.783484472751e-03
2.274372036269e-03
3.942041855717e-03
2.018129477521e-03
3.179171001688e-03
3.766024258519e-03
4.461967294443e-03
5.932012927013e-03
2.263421662545e-03
4.710985723028e-03
3.694491554536e-03
2.635139483983e-03
1.025903351167e-03
3.364049018946e-03
3.741140459926e-03
2.496086040746e-03
2.247981960543e-03
3.447314890979e-03
3.806063609485e-03
2.443637327429e-03
3.889607978100e-03
2.932212877137e-03
4.809565923031e-03
3.991122142150e-03
4.535682597544e-03
1.253579093275e-03
3.692076032167e-03
4.710605835282e-03
2.989317964917e-03
2.692080032987e-03
5.041460301469e-03
2.649271473601e-03
2.763935828314e-03
4.635607043239e-03
3.377136231024e-03
2.886852932384e-03
2.656221383019e-03
2.841982051278e-03
2.546121946089e-03
2.280710634061e-03
2.448224017802e-03
4.844932991548e-03
1.159538546380e-03
4.958406181658e-03
2.170695742773e-03
2.635116820677e-03
3.060192089563e-03
4.490482294088e-03
2.676098572190e-03
1.933023820066e-03
2.768539009112e-03
2.773761821372e-03
2.620450107336e-03
2.685714993396e-03
5.648300186419e-03
2.938653539912e-03
5.823614188444e-03
4.963188208300e-03
3.932121989893e-03
2.324149862710e-03
0.0
2.514548860694e-03
2.801591293186e-03
4.851561224056e-03
3.937231005468e-03
2.729494295402e-03
5.675085357910e-03
4.803426685540e-03
4.862248751244e-03
2.171293786245e-03
3.009255413908e-03
5.428982077181e-03
3.693412385958e-03
1.283308417236e-03
4.241990484630e-03
2.118254558368e-03
2.377043969348e-03
2.382468483149e-03
2.413239708947e-03
2.697664909012e-03
2.126804265286e-03
2.932528478253e-03
3.975655703172e-03
3.423996743188e-03
2.040734890307e-03
5.723862858495e-03
4.029709976472e-03
4.729446121623e-03
3.643538952676e-03
2.324384274866e-03
4.240145590124e-03
5.248251932663e-03
5.065638731077e-03
4.865415511008e-03
3.950525462167e-03
5.659251463191e-03
2.734727135404e-03
5.648629554702e-03
5.043134290996e-03
4.301884988432e-03
4.260018092810e-03
4.871863521837e-03
5.738997361023e-03
2.142169266280e-03
4.855264715639e-03
2.941329875457e-03
4.982839675412e-04
4.155649936064e-03
5.251942821195e-03
4.831609780295e-03
9.013000089023e-04
1.077083856090e-03
3.817677234665e-03
5.571067232882e-03
3.300048357497e-03
5.920327576545e-03
7.577862853329e-04
3.663422898644e-03
1.060195543772e-03
4.951255767581e-03
5.712619248510e-03
3.070814862917e-03
3.822820158157e-03
2.186156026243e-03
4.538463984820e-03
1.851321241038e-03
5.716697476405e-03
3.395600169627e-03
5.810236312995e-03
3.850312672381e-03
0.0
4.395921499424e-03
2.651166453379e-03
3.693193394849e-03
5.779881690989e-03
2.632058365002e-03
1.305216945228e-03
5.834411797515e-03
1.794472957361e-03
3.663155821034e-03
4.974463401011e-03
1.126337765141e-03
4.139350774126e-03
5.652422135997e-03
3.542221846802e-03
5.289169342971e-03
3.063748398770e-03
0.0
4.627165150353e-03
3.844266386451e-03
5.798941796910e-03
4.453871606854e-03
2.441774290393e-03
5.465528199286e-03
3.248665564556e-03
4.976193501889e-03
2.571640358639e-03
2.037835828463e-04
3.751244995351e-03
1.075195837059e-03
4.615840899057e-03
3.326084611542e-03
9.520211284600e-04
1.653456614730e-04
1.219292879992e-03
4.743111202536e-04
1.615523002105e-03
9.197396003492e-04
1.752819851871e-03
1.220797268804e-03
1.828874842648e-03
1.638630534890e-03
2.076700773459e-03
1.933797938159e-03
2.408370959842e-03
2.324628182171e-03
2.687439418483e-03
2.614478323154e-03
2.992334186830e-03
2.991431796678e-03
3.343927869160e-03
3.270124677663e-03

SCALARS node_materi_plasti_phimob float
LOOKUP_TABLE default
-4.779509289736e+01
1.702080211796e+01
2.056575949084e+01
2.048970083429e+01
-3.095377302984e+01
-5.029457397558e+00
5.838518802385e+00
1.022517523157e+01
1.164719590533e+01
1.347109305114e+01
1.480618197974e+01
1.583881066343e+01
1.666333794071e+01
1.735841121601e+01
1.796988560570e+01
1.843875772233e+01
1.880127144660e+01
1.917578273206e+01
1.950136744402e+01
1.978073011937e+01
2.003318960660e+01
2.026064533194e+01
2.045157681669e+01
2.050102503769e+01
2.049904338134e+01
2.050210686922e+01
2.050603283385e+01
2.050101683217e+01
2.050782845573e+01
2.050683818902e+01
2.051664097046e+01
2.052477620510e+01
2.053252141732e+01
2.053146216211e+01
2.054356802566e+01
2.054756510101e+01
2.055976362628e+01
2.055990378779e+01
2.056873437208e+01
2.057574702038e+01
2.058208030472e+01
2.059854549425e+01
2.061546705803e+01
2.062946040103e+01
2.063354964268e+01
2.064941750379e+01
2.065921214146e+01
2.066824455178e+01
2.066506625890e+01
2.067878534013e+01
2.066653860153e+01
2.067689203911e+01
2.066981974578e+01
2.067558523195e+01
2.067387157896e+01
2.067137969142e+01
2.067602033346e+01
2.067313762099e+01
2.067991284134e+01
2.066333977274e+01
2.066651755608e+01
2.064350543384e+01
2.064561167551e+01
2.063665931750e+01
2.061142452045e+01
2.060323686249e+01
2.058490086338e+01
2.058801581049e+01
2.058414401428e+01
2.058363849250e+01
2.058383393957e+01
2.058277849939e+01
1.761975006498e+01
1.815303946949e+01
1.859337966057e+01
1.897127812024e+01
1.931410992310e+01
1.960878421476e+01
1.988283942159e+01
2.012824693632e+01
2.035261181367e+01
1.276286994886e+01
1.747704650053e+01
1.704069514988e+01
-1.844515866580e+00
-8.658999326949e-01
4.512806141037e+00
8.464948253304e+00
1.157916899466e+01
1.411103624260e+01
1.547461513763e+01
1.595693588878e+01
1.647044460699e+01
-3.376481557335e+01
-8.709057242725e+00
1.669454472734e+00
7.067276709252e+00
1.033644607835e+01
1.255478827606e+01
1.412959691887e+01
1.531422162067e+01
1.622360324394e+01
1.690835054529e+01
1.693698631422e+01
1.694021800989e+01
1.692458662382e+01
1.699831013936e+01
1.691700140431e+01
1.689029780355e+01
1.689048027373e+01
1.690204030954e+01
1.689144772720e+01
1.687732979007e+01
1.688346616150e+01
1.690203010466e+01
1.695241818693e+01
9.374460958075e+00
8.088957004377e+00
8.675480804870e+00
9.745645734279e+00
1.083039945851e+01
-2.891388720022e+00
-3.590946807731e+01
-5.107948325610e+01
-5.559951696826e+01
-5.527225278388e+01
-5.344039892669e+01
-5.191770495281e+01
-5.153471796510e+01
-5.126862718992e+01
-5.066162031322e+01
-5.024241912202e+01
-4.973057406087e+01
-4.904263698807e+01
-4.845271825005e+01
-7.920638225180e+00
-2.866622208859e+01
-4.265365341815e+01
-4.799697261945e+01
-5.003271246788e+01
-5.052379067664e+01
-5.124584746443e+01
-5.242897640586e+01
-5.402206568323e+01
-5.505292294929e+01
-5.529734278234e+01
-5.517729598167e+01
-5.565343743235e+01
-5.608566584813e+01
-5.626203964208e+01
-5.629499481551e+01
-5.625159655423e+01
-5.616663568956e+01
-5.610204244462e+01
-5.599341264020e+01
-5.589226353648e+01
-5.590840825386e+01
-5.600432472597e+01
-5.599185659500e+01
-5.588158742020e+01
-5.580994942829e+01
-5.573990611277e+01
-5.557974757798e+01
-1.687785688317e+01
-3.374370139599e+01
-3.564111356628e+01
-3.559496723013e+01
-3.569200674443e+01
-3.582217156301e+01
-3.591931148804e+01
-3.596656182926e+01
-3.591605044591e+01
-3.581269617269e+01
-3.576211644127e+01
-3.568638253353e+01
-3.555278243120e+01
-3.541283293415e+01
-3.528103234571e+01
-3.514401859418e+01
-3.503210040844e+01
-3.487542153716e+01
-3.459341366522e+01
-3.461025411486e+01
-3.494787369513e+01
-3.515578972891e+01
-3.519241240054e+01
-3.509679842508e+01
-3.475508034668e+01
-3.381818627412e+01
-3.138054049764e+01
-2.469972261833e+01
-2.010499246842e+01
-6.012218148733e+00
-6.257514969489e+00
-8.574172115744e+00
-9.521976397306e+00
-9.815398513615e+00
-9.570512364192e+00
-9.125726117536e+00
-8.721073926400e+00
-8.520508876649e+00
-8.561028477877e+00
-8.659855976385e+00
-8.756977555719e+00
-8.871951934111e+00
-8.998015211381e+00
-9.094168906931e+00
-9.180868329027e+00
-9.237809246993e+00
-9.286749234473e+00
-9.370366351938e+00
-9.457889510371e+00
-9.528307407820e+00
-9.599545524468e+00
-9.672949200833e+00
-9.747405738859e+00
-9.849390722180e+00
-9.661275279040e+00
2.756493291747e+00
3.268944292925e+00
2.529883285741e+00
2.192456511813e+00
2.173144461234e+00
2.264152340048e+00
2.375671293502e+00
2.386633154374e+00
2.285080812891e+00
2.157923296400e+00
2.039752250960e+00
1.944944351249e+00
1.870503065111e+00
1.814885975955e+00
1.774233133993e+00
1.747929868037e+00
1.723843302585e+00
1.694615792766e+00
1.668395912680e+00
1.644550998077e+00
1.619636116568e+00
1.594396881679e+00
1.565455960988e+00
1.580660820631e+00
1.749096266588e+00
6.995624265860e+00
7.071986724008e+00
7.094626346078e+00
7.106213789287e+00
7.114797989633e+00
7.122317481318e+00
7.130172554308e+00
7.140103610763e+00
7.151375837947e+00
7.165650345810e+00
7.189708027659e+00
7.228502989960e+00
7.286634528787e+00
7.366211453182e+00
7.478472644749e+00
7.649779808823e+00
7.889944292769e+00
8.104292897499e+00
8.194246985472e+00
8.254624884418e+00
8.371687358136e+00
8.616477791458e+00
7.944314215335e+00
1.150947046678e+01
1.202775542894e+01
1.179933938671e+01
1.158182998924e+01
1.129043741217e+01
1.098372192589e+01
1.075052110936e+01
1.058233110355e+01
1.047769825879e+01
1.042228555881e+01
1.038771033895e+01
1.036835789090e+01
1.035971636217e+01
1.035706016682e+01
1.035715619484e+01
1.035931269106e+01
1.036204342818e+01
1.036383573900e+01
1.036395376788e+01
1.036098079608e+01
1.035278228187e+01
1.036361575942e+01
1.252492312903e+01
1.253541409185e+01
1.253709207067e+01
1.253489676574e+01
1.252862256007e+01
1.252046755595e+01
1.251297677882e+01
1.250570580607e+01
1.250067569140e+01
1.250060312811e+01
1.250762206332e+01
1.252469012858e+01
1.255586224173e+01
1.263418571737e+01
1.278208282931e+01
1.298464114578e+01
1.323608718921e+01
1.355369070328e+01
1.402632597031e+01
1.397609867043e+01
1.493197820163e+01
1.490050027525e+01
1.458749389389e+01
1.437994364734e+01
1.421272393419e+01
1.410193948230e+01
1.405766740420e+01
1.403899127796e+01
1.403061236593e+01
1.402810529985e+01
1.403412715781e+01
1.404846240262e+01
1.405955916538e+01
1.407107669126e+01
1.408354024050e+01
1.409217777710e+01
1.409717034011e+01
1.411041960766e+01
1.413545995028e+01
1.530128938521e+01
1.528632894525e+01
1.527910113580e+01
1.527334254606e+01
1.526102699236e+01
1.524875861069e+01
1.523492036990e+01
1.521613957322e+01
1.519700244123e+01
1.519536300214e+01
1.520281957798e+01
1.521405660525e+01
1.524201832130e+01
1.529845631429e+01
1.542347708523e+01
1.563943363272e+01
1.560449986022e+01
1.622343760682e+01
1.630226726532e+01
1.619207092067e+01
1.614792428887e+01
1.613276497293e+01
1.612726639085e+01
1.612702624414e+01
1.614218342864e+01
1.615684638024e+01
1.617325668239e+01
1.618454220204e+01
1.619397540678e+01
1.620598384385e+01
1.620859493678e+01
1.622627278805e+01
1.625210449659e+01
1.029096984315e+01
-9.719325430736e-01
3.182762274338e+00
7.352186483581e+00
1.047900595550e+01
1.317644809105e+01
1.523384352877e+01
1.578869118756e+01
1.627310223851e+01
1.677508183646e+01
7.230710112033e+00
2.071610920767e+01
-3.818928512782e+01
1.383584804586e+01
2.067214915804e+01
1.060945230290e+01
1.770637427239e+01
2.070775455579e+01
1.458828244584e+01
2.068400859460e+01
1.656010556421e+01
2.054765036388e+01
-3.862963039387e+01
2.059069838359e+01
1.736143923551e+01
1.427822411268e+01
1.895266572427e+01
2.050320855651e+01
2.046732163927e+01
2.041282114140e+01
2.040208881953e+01
2.044838622323e+01
1.751898974147e+01
1.749284587539e+01
1.754152471708e+01
1.914722254035e+01
2.050917304726e+01
1.060021100462e+01
-3.658406852161e+01
1.990626050197e+01
1.750402555778e+01
8.497912140799e+00
2.045748773691e+01
2.070292988520e+01
2.064750880441e+01
2.072038765961e+01
2.072418743399e+01
-5.897211325799e+00
1.746916650361e+01
2.060212134667e+01
1.975061028703e+01
-3.840371886884e+01
1.630652512335e+01
2.043967704527e+01
1.288755891768e+01
8.625632502070e+00
1.623304765721e+01
1.693615684335e+01
1.503287071968e+01
1.840801448858e+01
2.052977934944e+01
-3.723062510716e+01
2.023067108368e+01
1.757839228770e+01
1.785802385289e+01
1.806660433270e+01
1.836076813921e+01
1.857900240199e+01
1.880305329320e+01
1.860406985828e+01
1.901197228844e+01
1.883677343737e+01
1.898204700255e+01
1.921227830071e+01
1.905843152845e+01
1.940116065899e+01
1.926829487348e+01
1.891883803150e+01
1.914206456239e+01
1.880263248779e+01
1.904055092816e+01
1.936024896006e+01
1.928873967070e+01
1.896895184021e+01
1.923588731623e+01
1.892977447987e+01
1.918954055020e+01
1.886977684274e+01
1.904745642366e+01
1.947742799529e+01
1.926801183316e+01
1.878889842169e+01
1.897971006900e+01
1.843635615877e+01
1.880095529956e+01
1.949451309736e+01
1.944902037739e+01
1.873792030040e+01
1.941540983239e+01
1.878151643134e+01
1.949643064273e+01
1.889959192921e+01
1.958555597569e+01
2.011332574524e+01
2.014226699529e+01
1.964347334644e+01
2.008354859189e+01
2.056602313835e+01
2.037344419886e+01
2.083804667075e+01
2.053163037018e+01
2.008272157008e+01
2.008800738629e+01
2.051526496729e+01
1.995310317437e+01
1.952825292444e+01
1.929955538878e+01
1.976743606198e+01
1.900351135832e+01
1.859476010841e+01
1.814267064401e+01
1.844626012637e+01
1.778152269490e+01
1.741121571612e+01
1.745753120792e+01
1.790935479704e+01
1.767625796604e+01
1.821104706893e+01
1.714176233805e+01
1.739939482750e+01
1.676858386980e+01
1.707433787779e+01
2.014649414983e+01
1.632693512954e+01
1.600552611880e+01
1.670590151629e+01
1.745330275998e+01
1.581863694132e+01
1.628981748542e+01
1.525514897736e+01
1.807111557420e+01
1.964891012454e+01
1.582027324901e+01
1.460991545999e+01
1.387497351184e+01
1.295093164045e+01
1.877509822750e+01
1.916005943767e+01
1.896218492082e+01
1.932705476647e+01
1.915210496568e+01
1.385180390341e+01
1.953407649539e+01
1.949137869576e+01
1.866722548025e+01
1.826962204162e+01
2.100204843057e+01
1.675923673335e+01
1.635851475241e+01
1.711115776311e+01
1.841230728775e+01
1.876914518704e+01
1.902672841592e+01
1.928449031921e+01
1.966730119757e+01
1.970968981111e+01
1.941455450053e+01
1.971595890149e+01
1.945724163102e+01
2.006665879353e+01
2.014179579042e+01
1.973353120825e+01
1.951621666341e+01
1.977122309906e+01
1.958664907857e+01
1.930543057605e+01
1.938720229740e+01
1.908473608120e+01
2.120819566788e+01
2.134290601930e+01
2.144010585636e+01
2.144164873404e+01
2.130529016627e+01
2.117796894809e+01
2.106074783552e+01
2.111456504003e+01
1.957832304671e+01
1.968320004025e+01
1.922449231010e+01
1.940780508651e+01
1.886389741447e+01
1.924752530864e+01
1.860413030407e+01
1.922254836390e+01
1.959607530861e+01
1.990414482653e+01
1.974791683657e+01
2.048338277297e+01
1.957796407353e+01
1.985601434576e+01
2.131261627569e+01
2.103261069257e+01
2.108789274537e+01
1.188910789928e+01
1.965984425618e+01
2.036884686584e+01
2.047523681483e+01
2.097322588239e+01
1.172730894563e+01
1.836099497117e+01
1.780238382640e+01
1.948396965504e+01
1.932271461574e+01
2.056996100880e+01
1.272516234246e+01
1.998839570265e+01
2.076349005915e+01
1.947485512938e+01
1.974256472402e+01
1.917820273149e+01
2.091571976762e+01
2.093101496753e+01
1.925595487882e+01
1.856745790048e+01
1.886744770859e+01
1.753548464922e+01
1.773467867612e+01
1.700453926952e+01
1.662998366849e+01
1.612435058268e+01
1.650651934385e+01
1.538497740592e+01
1.411200191877e+01
1.351891632522e+01
1.990606865477e+01
2.203116705803e+01
1.855086906490e+01
2.048624044183e+01
2.092592478372e+01
1.963286175780e+01
1.948544623133e+01
1.915439211574e+01
1.933341932854e+01
1.964212911070e+01
1.950090811705e+01
1.917489547433e+01
1.935187699106e+01
1.900590540599e+01
1.919625233409e+01
1.951812541436e+01
1.937492903527e+01
1.903678090273e+01
1.922564550701e+01
1.886905345099e+01
1.906527520577e+01
1.940168415194e+01
1.025754224025e+01
2.098500695644e+01
2.090380522379e+01
1.663196428429e+01
1.720310882672e+01
1.766669086347e+01
1.771817634480e+01
1.925031292401e+01
1.957115336846e+01
1.730543607918e+01
1.689239210940e+01
1.977423356378e+01
1.957013219804e+01
1.927453856251e+01
1.789948822469e+01
1.764970769917e+01
1.729726352895e+01
1.690617737879e+01
1.739378079990e+01
1.651972151142e+01
2.023885062888e+01
1.967654408614e+01
1.305982738781e+01
1.061716094699e+01
1.983375692914e+01
2.108980602892e+01
1.994113020966e+01
2.029572016956e+01
2.026593767620e+01
2.048460889414e+01
2.041215915388e+01
2.057079460765e+01
2.064465957275e+01
2.083033074910e+01
2.068167821454e+01
1.888597855361e+01
2.129220629120e+01
1.595173120610e+01
8.342988969123e+00
1.102356635617e+01
1.103450466153e+01
1.334779262846e+01
2.062746678613e+01
2.052083801386e+01
2.036449877199e+01
1.654417184623e+01
1.712591013386e+01
2.081651320450e+01
1.876135694701e+01
1.880281440462e+01
1.861067909841e+01
7.466684876126e+00
1.185564202159e+01
1.979001128102e+01
1.743769318485e+01
1.656736853048e+01
2.255019587638e+01
2.467570215989e+01
1.941786975267e+01
1.971535755971e+01
1.808526917842e+01
1.817279611132e+01
2.070076885819e+01
1.112046318217e+01
1.984875908383e+01
2.092483634043e+01
2.092540893175e+01
1.727174795830e+01
1.588883887319e+01
1.630493948702e+01
1.670045863203e+01
1.340456368963e+01
1.187748991140e+01
2.071654731039e+01
1.991333386553e+01
2.074365680405e+01
2.073782387990e+01
2.072344413722e+01
7.081879365293e+00
2.057319997805e+01
1.967060016975e+01
2.049226460668e+01
2.033844136481e+01
1.713661428344e+01
1.629710175171e+01
1.540874063598e+01
1.540881909957e+01
1.842524266421e+01
1.689559805435e+01
1.845061019577e+01
1.815751158847e+01
1.805781316611e+01
1.790981564085e+01
1.767710105938e+01
1.853869561924e+01
2.105675549734e+01
1.803668416854e+01
1.900638149124e+01
1.881662676321e+01
1.980411669516e+01
1.994825221623e+01
1.865177340283e+01
1.845075034464e+01
8.607047535807e+00
6.480994328863e+00
1.856263011227e+01
2.042582403859e+01
1.990517951296e+01
2.003023428155e+01
1.990652585880e+01
2.076851845451e+01
1.966799962322e+01
2.125087266213e+01
2.251498568867e+01
2.020195826195e+01
2.770501485168e+00
1.967827538844e+01
1.992302073523e+01
2.006322152970e+01
2.077282613727e+01
1.767751331603e+01
2.067378625226e+01
2.066977424890e+01
1.771212761928e+01
1.761176991929e+01
1.799387024351e+01
1.756324063959e+01
1.646261425529e+01
1.577664549123e+01
2.060392510427e+01
2.069746176779e+01
2.047704712933e+01
2.031824182342e+01
2.074407168292e+01
2.079836567001e+01
1.373226019015e+01
1.684750976779e+01
2.004121899766e+01
1.783786125581e+01
2.052654014053e+01
2.038106105670e+01
2.430279344445e+01
2.142202896394e+01
1.998636238846e+01
1.408479251408e+01
1.431176153387e+01
1.401187436544e+01
2.035740937174e+01
1.748959464670e+01
2.014623821126e+01
1.825588652629e+01
2.010240463656e+01
2.096689688848e+01
1.763109074465e+01
2.078840950176e+01
1.984418660366e+01
2.012912338191e+01
1.836849172077e+01
1.814299942450e+01
1.857137264813e+01
2.007496903170e+01
2.138836583673e+01
1.982689254802e+01
1.572734206113e+01
1.597712252300e+01
1.158064131990e+01
1.366877024177e+01
1.841390863086e+01
1.833113164743e+01
1.993718509218e+01
1.995042101845e+01
1.995631523668e+01
2.075114312060e+01
2.049509585897e+01
2.076992291705e+01
2.006099613926e+01
2.021337730443e+01
1.717363547232e+01
1.752166006496e+01
1.642550201705e+01
2.015390704074e+01
2.027055574880e+01
2.020014238833e+01
-1.127944720233e+00
3.926548260579e+00
1.458040473090e+01
1.543170138509e+01
2.014440102342e+01
2.003455380751e+01
2.027030721682e+01
1.240929951397e+01
2.081617033530e+01
2.075225380713e+01
2.080809409209e+01
2.071816933883e+01
2.078064747467e+01
2.075213175513e+01
2.071187690868e+01
2.134136291878e+01
2.004156837237e+01
1.818132216236e+01
1.738042026994e+01
1.795478665709e+01
1.824467177945e+01
1.768766234812e+01
1.054552608731e+01
1.802021804051e+01
1.832819055938e+01
-1.056298669681e+01
2.027193048312e+01
-8.577571279415e+00
-2.592700086322e+00
2.048028820641e+01
2.035049671785e+01
2.048542877998e+01
2.035553496754e+01
2.017256343771e+01
2.020049479954e+01
1.789651523313e+01
2.040411931561e+01
2.026326284512e+01
2.046547292873e+01
1.708364604455e+01
1.556935108893e+01
1.473482463251e+01
1.304043229879e+01
2.048729275221e+01
2.034489777570e+01
1.978117434822e+01
1.950504694682e+01
1.799905708264e+01
1.797549616368e+01
1.840554773144e+01
1.835292976769e+01
1.873858721730e+01
1.867682967934e+01
1.902930359594e+01
2.069944062789e+01
1.207007496355e+01
1.733471309868e+01
2.074550992385e+01
2.080382115193e+01
1.738139635083e+01
1.659544087495e+01
2.063930101885e+01
1.752992849307e+01
2.040628387296e+01
1.306903628622e+01
2.057336784267e+01
1.738969412798e+01
1.795229136238e+01
1.595114368753e+01
1.546124819832e+01
2.079000951011e+01
1.327380908429e+00
1.414330558288e+01
1.906476810808e+01
1.181917966599e+01
1.964148809748e+01
1.825645507179e+01
1.846918065999e+01
1.560338121571e+01
1.631422865039e+01
1.867974469532e+01
1.815900191636e+01
1.798916502865e+01
1.903112858182e+01
1.617041165794e+01
1.474245357573e+01
1.872117774846e+01
1.978026419101e+01
1.991746524055e+01
2.014657743163e+01
2.004455580355e+01
1.979683483015e+01
1.993267111769e+01
2.016243450491e+01
2.006303531411e+01
2.030784600591e+01
2.018356314350e+01
1.995654834276e+01
2.008935924772e+01
2.028837829635e+01
1.984772958234e+01
2.070905623053e+01
1.802849608764e+01
2.409474942969e+01
2.031345880869e+01
1.864626382102e+01
2.049163364253e+01
2.047104269601e+01
1.818213891866e+01
2.061585192549e+01
1.827871153985e+01
1.943548519018e+01
2.066617217965e+01
1.964750881328e+01
1.950723367992e+01
1.933706087827e+01
2.045926953928e+01
1.877807193714e+01
2.070842133962e+01
2.137938238629e+01
2.107073449892e+01
2.060935047939e+01
1.981595049199e+01
2.072129630741e+01
2.076912221441e+01
2.076513758152e+01
2.083290418501e+01
2.072153267434e+01
2.053789135995e+01
2.057152244296e+01
1.720440375907e+01
1.801207486851e+01
1.843957391531e+01
1.884196005345e+01
1.860635653770e+01
1.924662006868e+01
1.938852949156e+01
1.955545951084e+01
2.017042614518e+01
2.071075926538e+01
1.960409670548e+01
1.964624907660e+01
1.893574929719e+01
1.782045109010e+01
1.809819007838e+01
1.858923275849e+01
1.750471816560e+01
2.057811845017e+01
2.069268640053e+01
2.115634254963e+01
1.773794169240e+01
1.749463809572e+01
1.800188363729e+01
1.802840294209e+01
1.847630656876e+01
1.802771534514e+01
1.848058298418e+01
1.858115562075e+01
1.829299593074e+01
1.869966010473e+01
1.842072169207e+01
1.799836394415e+01
1.882008686920e+01
1.854478867173e+01
1.746931252054e+01
1.301643655690e+01
1.308903107720e+01
3.800949501092e+00
1.286504025990e+01
1.671781522798e+01
1.570471079596e+01
1.784400180031e+01
2.046001957997e+01
-2.398831208057e+01
-4.284501010347e+00
-3.340907642521e+01
-9.474770666844e+00
5.151364897322e+00
9.327668204946e+00
2.048231153580e+01
1.704358698908e+01
1.677712079417e+01
1.600164316582e+01
1.656978269973e+01
1.735171844535e+01
1.541024182486e+01
1.513347512758e+01
-3.646472417200e+01
-1.156995238107e+01
-1.356339436910e+01
1.367635138314e+00
1.199171428295e+00
-1.121098420011e+01
-1.131559007966e+01
-3.692766719925e+01
-1.189786738959e+01
8.894211495924e-01
-3.793216704438e+01
1.946859171336e+01
1.963476453107e+01
2.065036853393e+01
1.753884064474e+01
-3.871777723345e+01
2.037351696747e+01
2.041362557559e+01
2.041247137404e+01
2.014433932929e+01
2.025159393630e+01
2.037990218653e+01
1.466759736825e+01
2.024944368149e+01
1.996949840410e+01
1.821953809070e+01
1.484930898657e+01
1.938231983832e+01
1.923337224117e+01
1.998385645071e+01
1.917686773295e+01
1.983715791350e+01
2.076881535615e+01
9.801793373355e+00
1.882982575651e+01
1.868514279650e+01
1.954254400761e+01
1.529079618900e+01
1.784579993605e+01
1.039298970354e+01
2.061327259736e+01
1.837480178349e+01
1.821016890835e+01
1.712776485222e+01
1.537716072748e+01
1.489969731992e+01
1.818293239990e+01
1.798812127806e+01
2.001631677677e+01
1.970210639989e+01
-3.481509324060e+01
2.028658518649e+01
1.903373546961e+01
1.898465145707e+01
2.097669340728e+01
1.497770182190e+01
1.965710662525e+01
2.014203428889e+01
1.855294294428e+01
5.928236299580e+00
1.841093058375e+01
2.066340325280e+01
1.963623903032e+01
1.449619218168e+01
2.095109007655e+01
1.864010083106e+01
1.712879179640e+01
2.008091294108e+01
2.005838505038e+01
2.088789739669e+01
2.131172870837e+01
1.486016660188e+01
2.019595153313e+01
2.062726737157e+01
1.992866073772e+01
2.020249195348e+01
1.995012835145e+01
1.977562456885e+01
1.938386512831e+01
2.089137416248e+01
1.834696623856e+01
1.954706036023e+01
1.946304132656e+01
1.964449064269e+01
1.918505471573e+01
2.023232168024e+01
2.060511624543e+01
1.703985152307e+01
1.896553499373e+01
2.063606449352e+01
2.016738306490e+01
1.810131688359e+01
1.997009844015e+01
2.003091898007e+01
1.834107444217e+01
1.081001837602e+01
1.798656752783e+01
1.956177687307e+01
2.005812180606e+01
1.881978789931e+01
2.028016464799e+01
1.999300105314e+01
2.067102861295e+01
8.429032223800e+00
1.749602107161e+01
2.005727411645e+01
2.091271529203e+01
2.086902308340e+01
1.811034967486e+01
2.065820475933e+01
1.698791672312e+01
2.013174506432e+01
2.088423011702e+01
1.782123591401e+01
1.750399873229e+01
2.035467995843e+01
2.084126550094e+01
2.028093472979e+01
2.041763003800e+01
1.672614503672e+01
1.895288477767e+01
1.962052341822e+01
2.045458683523e+01
2.084808415149e+01
1.917491791375e+01
1.870045959362e+01
2.110354815233e+01
1.005418287517e+00
1.718875325024e+01
1.875754843495e+01
1.955667855888e+01
2.015530405074e+01
2.073622755228e+01
1.884501817489e+01
1.974722303945e+01
1.894883794522e+01
1.639563575693e+01
1.936144858821e+01
1.905805423540e+01
1.995164738115e+01
1.233739583215e+00
2.063596348002e+01
2.002641605168e+01
1.652950642147e+01
1.980932382907e+01
1.966837099399e+01
1.555976361956e+01
2.034731836574e+01
2.016820062056e+01
2.084635246087e+01
2.061374394875e+01
2.060273286836e+01
1.582029599003e+01
1.410239203400e+01
1.225160140663e+01
1.968997319629e+01
2.015801884813e+01
8.138842717932e+00
1.969708368607e+01
8.075354918712e+00
1.916181830332e+01
2.083418395192e+01
1.880516746818e+01
1.884643184661e+01
1.277964082033e+01
1.802784758513e+01
2.106613301447e+01
1.771805033584e+01
1.697834008167e+01
2.021026011222e+01
1.696873134857e+01
2.040464210935e+01
2.047955052868e+01
1.792617620771e+01
1.359977490358e+01
1.069215426671e+01
1.415600520974e+01
1.579212115027e+01
1.974643430615e+01
1.794214171719e+01
1.502925903605e+01
2.037489845929e+01
2.069962218785e+01
1.931551211917e+01
2.085045608386e+01
2.092406667658e+01
1.999349443845e+01
1.744405910920e+01
-1.217948519336e+01
1.933772513043e+01
1.127433471828e+01
1.245997398095e+01
1.179551726599e+01
1.501164138972e+01
8.618018898371e+00
9.605864116600e+00
2.076515023910e+01
1.792516835104e+01
2.077280126434e+01
7.701646851708e+00
2.025650878216e+01
2.073401585265e+01
2.058859519343e+01
2.074382409444e+01
1.237267483173e+01
1.836987824670e+01
2.058298777692e+01
1.955301385381e+01
2.054213553403e+01
1.786232178282e+01
2.023613017601e+01
1.979364099764e+01
2.023708356603e+01
2.000486742553e+01
1.850359217866e+01
1.839111410262e+01
2.035616629822e+01
2.034308334429e+01
1.543641306033e+01
1.929024385783e+01
1.676038542387e+01
2.073710480121e+01
2.059257316104e+01
2.022521365724e+01
2.036765468294e+01
1.409456251565e+00
-1.521120800999e+01
2.069585235826e+01
2.047566444913e+01
1.740625955405e+01
2.046376901049e+01
2.031608334067e+01
1.736138403514e+01
-1.379468434441e+01
2.052668452405e+01
2.026148681294e+01
1.712866713580e+01
1.756044176383e+01
1.399087460522e+01
2.067405150792e+01
3.348050926579e-01
2.027679734541e+01
2.075621313195e+01
2.033030957411e+01
2.071130240963e+01
1.777567605805e+01
2.073029535903e+01
2.081440488335e+01
1.745179993578e+01
2.032343816300e+01
1.579573421187e+01
6.647455437780e+00
2.042643413046e+01
-4.070117282897e+01
1.743696179496e+01
2.051917500916e+01
6.930533668193e+00
1.827633896014e+01
2.043357610300e+01
1.822989697771e+01
1.984544153118e+01
1.339803483041e+01
1.094192083658e+01
1.899908609880e+01
2.073884202378e+01
2.032332795921e+01
1.873285592994e+01
1.783625058859e+01
2.037004170875e+01
1.757295981124e+01
2.057696153629e+01
2.081923125386e+01
1.592639305378e+01
1.862176892030e+01
-1.575527537845e+01
2.048988398412e+01
1.777196047392e+01
-1.465349211701e+01
-1.362786497945e+01
-7.883829921819e+00
-1.789149129854e+01
5.236876783531e-01
-1.885965503998e+00
6.261472918884e+00
4.785151017276e+00
1.012348379145e+01
9.045916340158e+00
1.305526143109e+01
1.153621847773e+01
1.490004791911e+01
1.347382397426e+01
1.547618803150e+01
1.474945601962e+01
1.604737811445e+01
1.583890376631e+01
1.660853901050e+01
1.662503660121e+01

SCALARS node_materi_stress_average_a_sig float
LOOKUP_TABLE default
-8.560398281883e+00
-1.233609532079e+02
-2.439966967843e+02
-2.383470970937e+02
-1.359459011223e+01
-2.327946946504e+01
-3.340032339760e+01
-4.738671209676e+01
-6.286079289259e+01
-7.762296905866e+01
-9.182138048558e+01
-1.054868019984e+02
-1.186386535715e+02
-1.314373548008e+02
-1.440438645976e+02
-1.560274762270e+02
-1.666786314733e+02
-1.780096552292e+02
-1.894356601139e+02
-2.009084417762e+02
-2.131004013080e+02
-2.253810869346e+02
-2.371854637260e+02
-2.390316733075e+02
-2.383630071848e+02
-2.385774727214e+02
-2.386230545052e+02
-2.383513297673e+02
-2.388827942963e+02
-2.392590521458e+02
-2.391684104544e+02
-2.398672254294e+02
-2.400590899414e+02
-2.399589641567e+02
-2.406071519229e+02
-2.412695570524e+02
-2.413147239291e+02
-2.415758663071e+02
-2.414740023425e+02
-2.418018071710e+02
-2.427268269383e+02
-2.433552157726e+02
-2.439976774752e+02
-2.443430115555e+02
-2.446535988010e+02
-2.449877130628e+02
-2.452683475924e+02
-2.456474146112e+02
-2.460538110370e+02
-2.462721752115e+02
-2.464968836603e+02
-2.464361144371e+02
-2.469829753471e+02
-2.469251685463e+02
-2.464489671493e+02
-2.465812349155e+02
-2.468600267753e+02
-2.470328814154e+02
-2.470462385504e+02
-2.471168869000e+02
-2.467685163742e+02
-2.464599871642e+02
-2.458932321723e+02
-2.458047893961e+02
-2.461304075235e+02
-2.460908611061e+02
-2.440700574389e+02
-2.451993862943e+02
-2.443400795734e+02
-2.444548475484e+02
-2.447819804925e+02
-2.446243122417e+02
-1.357555659024e+02
-1.478788103819e+02
-1.599399126815e+02
-1.717069411919e+02
-1.837006350127e+02
-1.958071006277e+02
-2.076288713025e+02
-2.193391356829e+02
-2.314177587015e+02
-5.029983244929e+01
-6.043955094402e+00
-1.270197580134e+02
-2.588591545681e+01
-3.371617828215e+01
-4.360574988581e+01
-5.380115992055e+01
-6.557938115311e+01
-7.809406879077e+01
-9.078857665651e+01
-1.032319306412e+02
-1.150238632353e+02
-1.407386188900e+01
-2.591048165954e+01
-3.780469278103e+01
-5.005459920556e+01
-6.209576144695e+01
-7.432407682157e+01
-8.652536872723e+01
-9.872916765077e+01
-1.108707890765e+02
-1.218467119560e+02
-1.226668726675e+02
-1.227207852955e+02
-1.226761771723e+02
-1.244799363038e+02
-1.231346622399e+02
-1.232467430979e+02
-1.235399207310e+02
-1.239893713301e+02
-1.241963504574e+02
-1.244981793968e+02
-1.247702412223e+02
-1.252375740241e+02
-1.258382734726e+02
-8.355088282537e+01
-9.229224535795e+01
-9.339321256042e+01
-8.447144979044e+01
-5.244783039352e+01
-2.229756254452e+01
-1.129237222397e+01
-8.261200080837e+00
-7.346534838971e+00
-7.120324970913e+00
-7.313062430009e+00
-7.939607329121e+00
-7.929976800160e+00
-7.674305800890e+00
-7.744427714836e+00
-7.960964483334e+00
-8.066499731864e+00
-7.992622498536e+00
-7.915264785035e+00
-1.610078220466e+01
-1.220295325953e+01
-1.040788510677e+01
-9.493088242541e+00
-8.991515260697e+00
-8.537858493359e+00
-8.203158752645e+00
-7.881348909517e+00
-7.468052701317e+00
-6.987528317256e+00
-6.544183530864e+00
-6.199645016910e+00
-5.867958471175e+00
-5.733421161533e+00
-5.731846123500e+00
-5.779944680798e+00
-5.847366993910e+00
-5.926994010479e+00
-6.080271042312e+00
-6.297799273384e+00
-6.507087777354e+00
-6.698594621869e+00
-6.873652624687e+00
-7.064800116230e+00
-7.250635796004e+00
-7.394500368013e+00
-7.502057533168e+00
-7.591110308380e+00
-7.329733126459e+00
-1.406659354052e+01
-1.407725671831e+01
-1.408452544658e+01
-1.401184144795e+01
-1.391608373928e+01
-1.379359159033e+01
-1.363153704772e+01
-1.344892867718e+01
-1.324650477102e+01
-1.299309849471e+01
-1.272598490714e+01
-1.247413960903e+01
-1.225820229671e+01
-1.207965868465e+01
-1.197877893108e+01
-1.197877302346e+01
-1.209944613094e+01
-1.236105724459e+01
-1.263330240752e+01
-1.283493409487e+01
-1.307710149599e+01
-1.337311195739e+01
-1.364933999370e+01
-1.412964883204e+01
-1.477039466815e+01
-1.582689813931e+01
-1.834777114725e+01
-1.817734961027e+01
-2.926350749639e+01
-2.965233446165e+01
-2.720732966611e+01
-2.609005693080e+01
-2.550965859790e+01
-2.518151327110e+01
-2.508127864574e+01
-2.509970451466e+01
-2.509347399653e+01
-2.497937889430e+01
-2.489189903169e+01
-2.487189723784e+01
-2.492065185119e+01
-2.502951699385e+01
-2.517281082517e+01
-2.530469985784e+01
-2.543835793826e+01
-2.558345444473e+01
-2.569585999585e+01
-2.578155460648e+01
-2.585150135186e+01
-2.589541149113e+01
-2.591557162477e+01
-2.591888396337e+01
-2.592579582469e+01
-2.590732514828e+01
-4.007772028621e+01
-4.081642886711e+01
-3.897956173818e+01
-3.828096963766e+01
-3.807259948932e+01
-3.802067964202e+01
-3.805734207133e+01
-3.802286184844e+01
-3.799490639273e+01
-3.796928162720e+01
-3.793078715048e+01
-3.790626720460e+01
-3.789211952194e+01
-3.788837342535e+01
-3.788991581575e+01
-3.789923631973e+01
-3.790953709621e+01
-3.791289038299e+01
-3.790851611907e+01
-3.789707394161e+01
-3.787511590124e+01
-3.783746001346e+01
-3.777940989487e+01
-3.774621506232e+01
-3.780196311691e+01
-4.996192221952e+01
-4.991041916964e+01
-4.997205663271e+01
-5.003744511969e+01
-5.010369173967e+01
-5.017087117684e+01
-5.024077015946e+01
-5.031446860147e+01
-5.039291781221e+01
-5.048081362078e+01
-5.058239652538e+01
-5.069991064710e+01
-5.083376596829e+01
-5.097443587836e+01
-5.107664431177e+01
-5.115234675640e+01
-5.120783951090e+01
-5.125053634466e+01
-5.134402989883e+01
-5.138130526371e+01
-5.160063012203e+01
-5.283201611629e+01
-5.144628870869e+01
-6.369331857611e+01
-6.556650548008e+01
-6.476406264913e+01
-6.463191264640e+01
-6.452540592940e+01
-6.434522343986e+01
-6.416836594569e+01
-6.398173924606e+01
-6.377800839741e+01
-6.351880132086e+01
-6.328858842962e+01
-6.308789776973e+01
-6.291176338569e+01
-6.275435398891e+01
-6.261226431471e+01
-6.248472625293e+01
-6.236859206379e+01
-6.226053927337e+01
-6.216041599849e+01
-6.206654455686e+01
-6.201890317298e+01
-6.209181258383e+01
-7.429924514048e+01
-7.424221463611e+01
-7.429558349905e+01
-7.438063075499e+01
-7.449229891668e+01
-7.462967268369e+01
-7.479316395334e+01
-7.498198614340e+01
-7.519672597098e+01
-7.543214259648e+01
-7.569927535179e+01
-7.600715805439e+01
-7.636651748096e+01
-7.672118901711e+01
-7.703236844334e+01
-7.735413353323e+01
-7.761421117744e+01
-7.784488216055e+01
-7.863328256927e+01
-7.654632184903e+01
-8.937663670919e+01
-9.131162539345e+01
-9.034116259192e+01
-8.992908166909e+01
-8.956592482499e+01
-8.913700746654e+01
-8.870268319435e+01
-8.830649596968e+01
-8.796069724503e+01
-8.765841207717e+01
-8.739386296559e+01
-8.716865127153e+01
-8.698315666953e+01
-8.682287368668e+01
-8.669320345410e+01
-8.659240536843e+01
-8.652768535774e+01
-8.649728215716e+01
-8.652185086583e+01
-9.873473465262e+01
-9.874979184451e+01
-9.880218245676e+01
-9.889174351663e+01
-9.901240551908e+01
-9.915302895199e+01
-9.932462211082e+01
-9.952067130143e+01
-9.975539098244e+01
-1.000529399280e+02
-1.004165566279e+02
-1.008350994630e+02
-1.013079823523e+02
-1.017914808190e+02
-1.022945577670e+02
-1.034180060414e+02
-1.016673694557e+02
-1.133505835863e+02
-1.149036205534e+02
-1.137605337258e+02
-1.132767571253e+02
-1.128569442323e+02
-1.125067247473e+02
-1.121618179383e+02
-1.118975173604e+02
-1.117480388322e+02
-1.115114701831e+02
-1.113474013875e+02
-1.112147340126e+02
-1.111029965064e+02
-1.109907934444e+02
-1.110030391798e+02
-1.109832940524e+02
-2.975987336893e+01
-3.074234099937e+01
-4.010450233752e+01
-5.025840180915e+01
-6.113718570025e+01
-7.322435440582e+01
-8.574654042300e+01
-9.844839671602e+01
-1.104713375526e+02
-1.220909296264e+02
-4.409858881903e+01
-2.414144911082e+02
-1.294212879639e+01
-6.337210977046e+01
-2.413886999894e+02
-6.149108850576e+01
-1.382872943015e+02
-2.405240179020e+02
-8.352466969646e+01
-2.405412076765e+02
-1.087726885937e+02
-2.413250923799e+02
-1.151296976378e+01
-2.394100791161e+02
-1.322145637060e+02
-8.550401294266e+01
-1.705872017683e+02
-2.377877154409e+02
-2.366359444547e+02
-2.340028535156e+02
-2.336455659475e+02
-2.357883203085e+02
-1.364945922983e+02
-1.351915636568e+02
-1.353613688491e+02
-1.778128649352e+02
-2.398174052106e+02
-7.853516928012e+01
-1.189821160860e+01
-2.065594487721e+02
-1.334538833531e+02
-4.024679248340e+01
-2.352577847935e+02
-2.414609363086e+02
-2.400480408060e+02
-2.402203318891e+02
-2.419188582977e+02
-2.336884401794e+01
-1.354051781157e+02
-2.390831553790e+02
-2.013862406235e+02
-1.204021882909e+01
-1.122175176063e+02
-2.354697698691e+02
-7.304880369448e+01
-5.192132053315e+01
-9.608253370975e+01
-1.205527176090e+02
-4.125904678286e+01
-1.549308055557e+02
-2.414214848753e+02
-1.156949119834e+01
-2.246954933555e+02
-1.375462203839e+02
-1.426482235213e+02
-1.479244743273e+02
-1.538870897003e+02
-1.598448226920e+02
-1.652341712222e+02
-1.592808141408e+02
-1.706625314439e+02
-1.645793949925e+02
-1.714539956235e+02
-1.760281527943e+02
-1.698743780625e+02
-1.813672771780e+02
-1.751707713848e+02
-1.638469080111e+02
-1.690805989592e+02
-1.580350785304e+02
-1.631996704696e+02
-1.743289735091e+02
-1.683285304857e+02
-1.574034265081e+02
-1.624858891351e+02
-1.516483779429e+02
-1.567084297170e+02
-1.458436428580e+02
-1.510470564191e+02
-1.617147572878e+02
-1.560856767662e+02
-1.454466068472e+02
-1.505214907917e+02
-1.398369868132e+02
-1.447763049108e+02
-1.553023861586e+02
-1.494303689685e+02
-1.386504441115e+02
-1.434214753094e+02
-1.326204491616e+02
-1.374822093280e+02
-1.266567473760e+02
-1.315798786171e+02
-1.422478074128e+02
-1.364270348709e+02
-1.258685814102e+02
-1.306744821452e+02
-1.412016924410e+02
-1.353812795642e+02
-1.458615470858e+02
-1.400810324758e+02
-1.297568388925e+02
-1.343132492052e+02
-1.446396946960e+02
-1.388741578238e+02
-1.285021958935e+02
-1.329731737139e+02
-1.438047668653e+02
-1.377318303863e+02
-1.268192109409e+02
-1.312667178879e+02
-1.427725622578e+02
-1.362007561448e+02
-1.244303920643e+02
-1.293282790334e+02
-1.412117970888e+02
-1.342744112214e+02
-1.459784799220e+02
-1.220970033032e+02
-1.270449501330e+02
-1.145316791174e+02
-1.195794750619e+02
-1.598779503099e+02
-1.067580056336e+02
-1.018235109531e+02
-1.119293376635e+02
-1.246079165764e+02
-9.878290481360e+01
-1.040919599490e+02
-9.062309239271e+01
-1.213961200753e+02
-1.795733945151e+02
-9.606454080234e+01
-8.229351485848e+01
-7.683974093366e+01
-6.821594108379e+01
-1.660646693633e+02
-1.776449081379e+02
-1.718220613423e+02
-1.838012843309e+02
-1.782030180118e+02
-7.378344643846e+01
-1.876802652603e+02
-1.893745257640e+02
-1.465119395693e+02
-1.344871338173e+02
-1.518226771927e+02
-1.093534661218e+02
-1.014839450192e+02
-1.146755973549e+02
-1.526115428359e+02
-1.570530567808e+02
-1.632870238889e+02
-1.677134607742e+02
-1.738082465700e+02
-1.785295608823e+02
-1.723133300528e+02
-1.834045764914e+02
-1.770784904109e+02
-1.851008728388e+02
-1.801591999698e+02
-1.882947971706e+02
-1.818379494471e+02
-1.932155711994e+02
-1.866267895766e+02
-1.755594715820e+02
-1.803106404022e+02
-1.692602337306e+02
-1.565037941585e+02
-1.625329995131e+02
-1.671998367938e+02
-1.730586105473e+02
-1.782694761086e+02
-1.844784269591e+02
-1.898470320764e+02
-1.836109341851e+02
-1.866497033916e+02
-1.204622532169e+02
-1.155405336245e+02
-1.104874150983e+02
-1.053888232621e+02
-1.007378889404e+02
-9.545770665382e+01
-9.142427457370e+01
-9.636087518057e+01
-8.781461309440e+01
-9.191942062421e+01
-8.386910489890e+01
-8.660075710363e+01
-1.666894938840e+02
-1.791198098313e+02
-1.909800348231e+02
-1.855553651419e+02
-6.285289951072e+01
-1.914786357017e+02
-1.918543496134e+02
-1.866467962317e+02
-1.952352551352e+02
-5.957312552426e+01
-8.580565278189e+01
-8.983345333617e+01
-1.900074371957e+02
-1.844026960223e+02
-1.986504322452e+02
-6.525862341763e+01
-1.950992005389e+02
-7.998575325799e+01
-1.850609464115e+02
-1.963787137830e+02
-1.661031914603e+02
-1.976656664133e+02
-1.921663996843e+02
-9.535349263579e+01
-8.903996068619e+01
-7.984815980439e+01
-8.214125292297e+01
-9.196759630346e+01
-8.472161135221e+01
-7.440242584617e+01
-7.639215307352e+01
-8.746387456335e+01
-7.910884343785e+01
-6.758775893663e+01
-7.009239646883e+01
-2.032316336717e+02
-7.656965216034e+01
-1.528454305949e+02
-2.038367133647e+02
-2.016610670880e+02
-1.962608176855e+02
-1.906660099264e+02
-1.787364761593e+02
-1.850660982005e+02
-1.969951462844e+02
-1.914106557814e+02
-1.794469816414e+02
-1.858110419640e+02
-1.738191112832e+02
-1.802129599174e+02
-1.922014945920e+02
-1.866455848240e+02
-1.746289646966e+02
-1.810836338463e+02
-1.690280286225e+02
-1.754874003501e+02
-1.875728767691e+02
-5.106482232449e+01
-1.888315072225e+02
-2.007456945997e+02
-1.074283078811e+02
-1.200808827041e+02
-1.273595250989e+02
-1.327866282118e+02
-1.819374118761e+02
-1.940408157235e+02
-7.994046980787e+01
-8.396879676638e+01
-2.018388463301e+02
-1.898685274883e+02
-1.788211280334e+02
-1.287876429814e+02
-1.231960071184e+02
-1.173721834907e+02
-1.113690439891e+02
-1.174493710596e+02
-1.054552362826e+02
-1.752927460635e+02
-1.986335507791e+02
-7.162411359107e+01
-5.791761985617e+01
-2.014077571325e+02
-1.775222594049e+02
-1.726014203055e+02
-1.776082311785e+02
-1.838476692328e+02
-1.890341429659e+02
-1.954822612421e+02
-2.006867258052e+02
-1.942192599025e+02
-2.044730661141e+02
-2.059349963856e+02
-1.697471170936e+02
-1.739636535974e+02
-9.041765158614e+01
-4.535203273533e+01
-5.690468996364e+01
-5.650146087999e+01
-7.122089282098e+01
-2.107230800346e+02
-2.071793686416e+02
-2.018071743071e+02
-1.055213042861e+02
-1.117332233874e+02
-2.099205758517e+02
-1.664095363214e+02
-1.674938780736e+02
-1.617681234542e+02
-4.089132496010e+01
-5.510415931030e+01
-2.033549208621e+02
-9.435521709502e+01
-8.871567071193e+01
-7.299169021948e+01
-7.046717662965e+01
-1.883132610223e+02
-2.003323413193e+02
-1.397269072145e+02
-1.448935010503e+02
-2.054681793328e+02
-6.023235649858e+01
-2.061005144801e+02
-1.826069471610e+02
-1.715657101356e+02
-1.254691395508e+02
-7.391632258224e+01
-7.066851702173e+01
-9.844792209751e+01
-7.303636218938e+01
-6.257130863399e+01
-2.175876369572e+02
-2.088626073514e+02
-1.994393617978e+02
-1.876309588283e+02
-2.113743096983e+02
-4.692373726850e+01
-2.160377685395e+02
-1.947921932987e+02
-2.130729062625e+02
-2.081092483875e+02
-9.934398503418e+01
-9.400639738136e+01
-8.301821056709e+01
-8.818425349947e+01
-1.533240036041e+02
-1.049983418655e+02
-1.471150762334e+02
-1.418779937446e+02
-1.361105022865e+02
-1.233114319053e+02
-1.177619336022e+02
-1.103399687071e+02
-1.577833064714e+02
-1.345495765104e+02
-1.645012521661e+02
-1.588715030910e+02
-2.040938570466e+02
-2.105812740804e+02
-1.625719008188e+02
-1.569506839580e+02
-4.892663520298e+01
-4.434082967367e+01
-1.505071823054e+02
-2.089122944662e+02
-2.079753395878e+02
-2.135495103403e+02
-2.073442740936e+02
-2.121519527642e+02
-1.153010563330e+02
-1.613076666646e+02
-7.177631647143e+01
-1.657501529734e+02
-3.542679542662e+01
-1.857253304841e+02
-2.066552252110e+02
-2.134088653871e+02
-2.165131181731e+02
-1.372549684032e+02
-1.702704140102e+02
-1.643431597446e+02
-1.308581259700e+02
-1.249770502732e+02
-1.301659981098e+02
-1.188228343709e+02
-1.016044553180e+02
-9.358803608866e+01
-2.197815979375e+02
-2.175803056144e+02
-2.195151520021e+02
-2.147668341025e+02
-2.220308734014e+02
-2.152566787541e+02
-7.683235545504e+01
-1.061777206077e+02
-2.152588646028e+02
-1.365920129885e+02
-2.208067979014e+02
-2.140310393160e+02
-6.808684576723e+01
-6.417883987649e+01
-2.125050756387e+02
-7.647518974188e+01
-8.122871960123e+01
-7.173287431116e+01
-2.310234106723e+02
-1.330732187805e+02
-2.187547371447e+02
-1.292901617902e+02
-2.183412832510e+02
-1.749231482300e+02
-1.226473949052e+02
-2.000268624415e+02
-2.060705852613e+02
-2.191248259956e+02
-1.554944055387e+02
-1.493336440728e+02
-1.608505921187e+02
-7.420833794131e+01
-6.566318402632e+01
-2.050171005862e+02
-9.369237127350e+01
-1.007975507592e+02
-6.343454065535e+01
-7.637936778282e+01
-1.465590365904e+02
-1.415845223587e+02
-1.911078066533e+02
-1.973144218043e+02
-1.786643034040e+02
-1.764665524680e+02
-1.656907323921e+02
-1.605339601420e+02
-2.156898028672e+02
-2.235111651819e+02
-1.092338549316e+02
-1.057724354380e+02
-1.052899075575e+02
-2.207346078628e+02
-2.253028175141e+02
-2.200620993378e+02
-3.113606284514e+01
-3.981069760352e+01
-6.335921134306e+01
-6.085265338816e+01
-2.187905330947e+02
-2.129669908916e+02
-2.260437083881e+02
-6.721226857319e+01
-1.929715904123e+02
-2.238399506521e+02
-2.184094007190e+02
-2.308073383552e+02
-2.109159206401e+02
-2.225705943537e+02
-2.231457609045e+02
-7.081886389925e+01
-2.149345479053e+02
-1.498981663745e+02
-7.221683741123e+01
-1.443533247090e+02
-1.511885442697e+02
-1.379934547929e+02
-5.260227038393e+01
-1.470072221985e+02
-1.545372779501e+02
-2.445772292553e+01
-2.268398278250e+02
-2.357307330602e+01
-2.773640993458e+01
-2.260965750810e+02
-2.190194482263e+02
-2.306645804273e+02
-2.235447188843e+02
-2.119841470556e+02
-2.172150648715e+02
-1.431862900313e+02
-2.305033828645e+02
-2.225793330944e+02
-2.358539221404e+02
-1.138516476801e+02
-9.323547288808e+01
-8.680138699137e+01
-7.410696447170e+01
-2.278940277250e+02
-2.203634119193e+02
-2.002150415540e+02
-1.886967845843e+02
-1.447487650745e+02
-1.440218880016e+02
-1.550292143901e+02
-1.534782876743e+02
-1.645208428515e+02
-1.628349109978e+02
-1.740691747528e+02
-2.297685506598e+02
-6.442384605302e+01
-1.256684152236e+02
-2.272121725522e+02
-2.196785792988e+02
-1.123343787739e+02
-1.009120275240e+02
-2.295379712631e+02
-1.101670516496e+02
-2.338144942027e+02
-6.464725309309e+01
-6.361029036072e+01
-1.161471158296e+02
-1.239860826479e+02
-9.899214667362e+01
-9.358553065363e+01
-1.878892855378e+02
-3.619569502181e+01
-6.742457456918e+01
-1.755378945179e+02
-5.628170689532e+01
-1.945948777312e+02
-1.156393731513e+02
-1.347008461788e+02
-7.821616117126e+01
-9.980605267973e+01
-1.585899917738e+02
-1.480563142404e+02
-1.423852756320e+02
-1.208798961929e+02
-9.988698549059e+01
-8.667831685280e+01
-1.522844791088e+02
-2.011535692286e+02
-2.066463817859e+02
-2.180439913223e+02
-2.121218812479e+02
-2.004638663078e+02
-2.059393944882e+02
-2.175826801596e+02
-2.117760455293e+02
-2.254076369013e+02
-2.171306070165e+02
-2.050438932795e+02
-2.101322707132e+02
-2.212955905483e+02
-1.983729704311e+02
-2.337488829840e+02
-1.275283593745e+02
-6.843602823665e+01
-5.815519796409e+01
-1.405912821812e+02
-2.370564736378e+02
-2.366316760201e+02
-9.999098117605e+01
-2.395856156053e+02
-1.476054648689e+02
-8.259924104893e+01
-2.403209395472e+02
-1.949293179611e+02
-1.885989761957e+02
-1.831237744153e+02
-2.366337805174e+02
-1.666414031260e+02
-2.414002318174e+02
-1.682271324836e+02
-1.634321032963e+02
-1.529074706475e+02
-1.995547736583e+02
-2.411717011158e+02
-2.312092268845e+02
-2.313272772572e+02
-2.202555287460e+02
-2.415550056051e+02
-2.390153295229e+02
-2.396936578681e+02
-9.527980018763e+01
-1.021960830149e+02
-1.123744134945e+02
-1.085717170425e+02
-9.870372546807e+01
-1.046823283454e+02
-1.143830791837e+02
-1.006561788733e+02
-2.090239998185e+02
-2.420155326374e+02
-1.692754083305e+02
-1.647756145915e+02
-1.541056893507e+02
-1.295472244898e+02
-1.367421226818e+02
-1.484371762148e+02
-1.221669748794e+02
-1.825761316947e+02
-2.418461084843e+02
-1.664451085619e+02
-1.319365593849e+02
-1.359626660393e+02
-1.466585579123e+02
-1.471781835072e+02
-1.583835630102e+02
-1.473975386692e+02
-1.515597738503e+02
-1.565211878916e+02
-1.500220512464e+02
-1.614610945658e+02
-1.548081265924e+02
-1.440310792250e+02
-1.661806502115e+02
-1.588155631923e+02
-1.351959569426e+02
-3.910872958978e+01
-4.285452213673e+01
-3.385446186363e+01
-4.966502175806e+01
-5.693766600834e+01
-6.350031003899e+01
-6.614693988771e+01
-5.386185205213e+01
-1.747222802537e+01
-2.923895273359e+01
-1.448641016778e+01
-2.591667722890e+01
-4.157191675193e+01
-5.367636693601e+01
-2.380086205192e+02
-1.250038556039e+02
-1.188374452136e+02
-1.063105936153e+02
-1.132041659261e+02
-1.300536033453e+02
-9.906007580980e+01
-9.408844376815e+01
-1.190960312993e+01
-1.996115092750e+01
-1.913437295112e+01
-2.890194670819e+01
-2.889655812983e+01
-2.030599236679e+01
-2.039683351635e+01
-1.176642641555e+01
-2.044038721650e+01
-2.992791916788e+01
-1.145823318432e+01
-1.898834335937e+02
-1.963893498995e+02
-2.408650690251e+02
-1.359647419941e+02
-1.238458484607e+01
-2.319791635192e+02
-2.344392828155e+02
-2.344856378723e+02
-2.189286619073e+02
-2.250305572012e+02
-2.321098363482e+02
-8.526226356712e+01
-2.235332454616e+02
-2.114485154107e+02
-7.654755714784e+01
-8.525296476969e+01
-1.836896059018e+02
-1.708410891980e+02
-2.082241765692e+02
-1.740407501546e+02
-1.981940591550e+02
-2.306179943055e+02
-4.797676403596e+01
-1.681530169842e+02
-1.634131334615e+02
-1.931009256503e+02
-8.786135054656e+01
-1.385412264079e+02
-5.399706116560e+01
-2.305375093115e+02
-1.413244849394e+02
-1.478520109378e+02
-1.170702102392e+02
-9.362152196175e+01
-8.193823460497e+01
-1.338417578284e+02
-1.390641467851e+02
-1.900990732797e+02
-1.995608590711e+02
-1.309451478053e+01
-1.969598734734e+02
-1.615003568813e+02
-1.730891523193e+02
-1.963336817744e+02
-6.596299522979e+01
-1.977700669595e+02
-2.191821871782e+02
-1.603239000200e+02
-4.002124331631e+01
-1.558556136507e+02
-2.227913967822e+02
-1.955870158927e+02
-7.963006700865e+01
-1.505039851344e+02
-1.401427806466e+02
-1.263895328582e+02
-2.165714856089e+02
-1.539760661805e+02
-2.073118450776e+02
-1.722943464068e+02
-8.564421338012e+01
-2.070819130273e+02
-1.470765673435e+02
-2.096925931016e+02
-1.901768435880e+02
-1.251519180757e+02
-2.024912457704e+02
-1.489164018218e+02
-2.030772360261e+02
-1.353756711306e+02
-1.675658810563e+02
-1.804174571659e+02
-1.609886023359e+02
-1.775632200053e+02
-2.020359560860e+02
-7.879902545324e+01
-1.113161499353e+02
-1.724728754187e+02
-2.121046370338e+02
-2.214826397532e+02
-1.289462216754e+02
-2.000902498350e+02
-2.140295785922e+02
-1.437298688608e+02
-5.649005611376e+01
-6.842915425408e+01
-1.055617954099e+02
-1.481327217165e+02
-1.550725921934e+02
-2.257206959476e+02
-2.051110246920e+02
-1.933002083174e+02
-4.144613556192e+01
-1.314492560117e+02
-2.101961106707e+02
-1.553236734117e+02
-2.082648148231e+02
-1.477330670358e+02
-2.304555078361e+02
-1.073795413108e+02
-2.154500176824e+02
-1.943450189812e+02
-1.048751006554e+02
-1.335049739384e+02
-2.291281863790e+02
-2.065619487935e+02
-1.715538941767e+02
-1.495456413382e+02
-1.147395532361e+02
-1.597534254898e+02
-1.734705312298e+02
-2.364504062329e+02
-2.126487165495e+02
-1.768077977789e+02
-1.532229856490e+02
-1.800436988622e+02
-2.921671694744e+01
-1.198663230173e+02
-1.580845405051e+02
-1.100889998316e+02
-1.547758429005e+02
-2.282163070144e+02
-1.629424122755e+02
-1.198666092176e+02
-1.677804916573e+02
-1.025577740556e+02
-1.822851025690e+02
-1.725966156350e+02
-1.848400572798e+02
-3.139626943635e+01
-1.763138246432e+02
-2.125036846664e+02
-1.096785402404e+02
-1.599885018850e+02
-1.941045139742e+02
-8.981129096399e+01
-1.705273531003e+02
-1.964879402427e+02
-1.811853895218e+02
-1.586687072595e+02
-1.814740524880e+02
-9.479236879372e+01
-8.035117745723e+01
-6.707395256439e+01
-1.241726872513e+02
-2.028216870877e+02
-3.885507529854e+01
-1.930864682292e+02
-4.998036825256e+01
-1.184921091490e+02
-1.988309955047e+02
-1.666093754966e+02
-1.225718131655e+02
-7.133540215547e+01
-1.162150513171e+02
-1.690130248079e+02
-1.201530171728e+02
-1.129173588901e+02
-2.231950988119e+02
-1.172773106344e+02
-2.342070653953e+02
-2.385596977499e+02
-1.426682741605e+02
-7.658161985777e+01
-8.126886021556e+01
-8.282963257019e+01
-9.740654623443e+01
-1.919254734220e+02
-1.431909517139e+02
-8.911249965529e+01
-2.287346986954e+02
-2.411362173243e+02
-1.840557728265e+02
-2.131873346283e+02
-1.865871454203e+02
-2.122904093438e+02
-1.330043617809e+02
-2.401994186691e+01
-1.832128447043e+02
-6.457774362636e+01
-6.905154810870e+01
-5.999355885529e+01
-9.034785258407e+01
-4.343698298150e+01
-5.668489841163e+01
-2.303478010029e+02
-1.446260852118e+02
-2.049986837258e+02
-4.764146608578e+01
-2.253587200520e+02
-2.303313603088e+02
-2.412648738728e+02
-2.171675241356e+02
-5.292217851889e+01
-1.557895128730e+02
-2.300985202901e+02
-1.936283356376e+02
-2.415592689246e+02
-1.437263156374e+02
-2.245759400044e+02
-7.197395140638e+01
-2.246129548316e+02
-2.036484125265e+02
-1.581658919117e+02
-1.558080650999e+02
-2.307615611374e+02
-2.277696182737e+02
-5.212543587151e+01
-1.835205415566e+02
-1.134911729024e+02
-6.395054060854e+01
-2.312054129501e+02
-2.148049691186e+02
-2.302149914396e+02
-2.835107756925e+01
-2.027386962429e+01
-2.333147529394e+02
-2.306338418019e+02
-7.274616340415e+01
-2.370678024546e+02
-5.245719722727e+01
-1.320771622428e+02
-1.989086707015e+01
-2.409085608063e+02
-2.257408774637e+02
-1.245776196950e+02
-1.372810609186e+02
-8.102546609326e+01
-2.219937807608e+02
-3.491779813144e+01
-2.265542564006e+02
-2.339264525874e+02
-2.287423928323e+02
-2.438376066983e+02
-7.238198428222e+01
-2.333221649713e+02
-2.227476492531e+02
-1.326752395302e+02
-2.277719868473e+02
-1.012669777232e+02
-3.935207684216e+01
-2.354231938290e+02
-1.078753705772e+01
-1.317388026187e+02
-2.410852485036e+02
-3.646823637246e+01
-1.515786321958e+02
-2.308921522088e+02
-1.507464364408e+02
-2.054993997570e+02
-5.554486466696e+01
-7.999585224184e+01
-1.729569918581e+02
-2.325974925644e+02
-2.287570949815e+02
-1.647300600180e+02
-6.090851138648e+01
-2.239394233696e+02
-1.341129591584e+02
-2.226953512694e+02
-2.227959950111e+02
-4.681897541515e+01
-1.609452143789e+02
-1.903459554193e+01
-2.333548591007e+02
-1.392959977902e+02
-1.446321787892e+01
-8.275979255845e+00
-2.548527319831e+01
-1.968946674842e+01
-3.632913732333e+01
-3.198150752039e+01
-4.693338485301e+01
-4.364645104924e+01
-5.850097719410e+01
-5.631033107627e+01
-7.079775862987e+01
-6.788567255646e+01
-8.362403731922e+01
-8.075638779689e+01
-9.632808587210e+01
-9.229143489009e+01
-1.083286613797e+02
-1.051833233847e+02
-1.199354100925e+02
-1.165979562590e+02

SCALARS node_materi_stress_size_dev_sd_sig float
LOOKUP_TABLE default
5.147812379928e+00
8.920122351720e+01
1.843528039000e+02
1.800293593618e+02
9.302793834001e+00
2.056906942030e+01
3.033802093887e+01
3.861327475149e+01
4.484681954022e+01
5.211715994416e+01
6.013793945098e+01
6.871791841188e+01
7.780901386033e+01
8.743264463844e+01
9.781570257701e+01
1.080464305528e+02
1.175203520229e+02
1.283868121060e+02
1.396801924860e+02
1.500951252233e+02
1.597632732578e+02
1.695122313322e+02
1.787990892862e+02
1.805818248536e+02
1.801863798542e+02
1.803475647533e+02
1.804316289596e+02
1.801952829000e+02
1.805847079316e+02
1.807546838386e+02
1.808528321939e+02
1.813490561274e+02
1.815655752335e+02
1.814768796235e+02
1.820118498950e+02
1.824128143394e+02
1.826204296651e+02
1.827453237267e+02
1.828236268042e+02
1.831057345783e+02
1.837093633793e+02
1.842956016271e+02
1.848295740629e+02
1.851439027368e+02
1.853796582931e+02
1.856968908677e+02
1.859438378309e+02
1.862542882929e+02
1.865159875744e+02
1.867421397045e+02
1.868286056598e+02
1.868442224239e+02
1.871806945248e+02
1.871728357019e+02
1.868360762541e+02
1.869131680355e+02
1.871306060075e+02
1.872334392866e+02
1.872802573742e+02
1.872366377815e+02
1.870148157610e+02
1.866748863329e+02
1.862972372383e+02
1.861868760005e+02
1.862701066895e+02
1.861186096118e+02
1.847002513689e+02
1.853762959196e+02
1.848462378659e+02
1.849012449730e+02
1.850838112165e+02
1.849816702857e+02
9.840459089637e+01
1.078514318606e+02
1.171604653989e+02
1.263645760510e+02
1.358403496854e+02
1.453166969002e+02
1.548532831974e+02
1.643594764743e+02
1.741341460573e+02
3.551937303079e+01
2.642046169053e+00
8.976553650535e+01
2.247509370582e+01
2.151652938469e+01
2.755371867008e+01
3.520803221004e+01
4.414217174999e+01
5.380638706146e+01
6.293971091831e+01
7.125455165243e+01
7.999340192908e+01
7.501042878357e+00
1.652718043694e+01
2.553244034365e+01
3.436558938338e+01
4.348112650661e+01
5.247646202224e+01
6.151208870777e+01
7.054558438630e+01
7.955059366575e+01
8.785494216398e+01
8.835462944486e+01
8.839604107520e+01
8.825453722837e+01
8.944391650392e+01
8.835441120046e+01
8.818185717025e+01
8.828415950051e+01
8.853364634040e+01
8.851686301692e+01
8.850176560192e+01
8.860198225739e+01
8.877525323999e+01
8.916221354890e+01
3.484274856948e+01
3.449053215105e+01
3.540191238538e+01
3.494421443942e+01
3.607388671324e+01
2.416110534240e+01
7.762956847645e+00
3.840165836549e+00
3.245585405309e+00
3.436078196132e+00
3.663584919685e+00
4.006703073390e+00
4.555143537153e+00
4.675845835768e+00
4.700365266683e+00
4.790709051334e+00
4.906632065135e+00
5.089404854676e+00
5.463420214964e+00
2.152182115109e+01
1.038527297526e+01
5.607551014084e+00
4.222927169789e+00
3.687976122108e+00
3.600313355160e+00
3.582659835725e+00
3.607820875101e+00
3.643029132908e+00
3.804212890385e+00
4.105718691147e+00
4.479496330445e+00
4.665079886567e+00
4.639951023033e+00
4.560176474328e+00
4.486731723974e+00
4.422928569719e+00
4.366343213051e+00
4.250708534722e+00
4.074585370246e+00
3.893546820251e+00
3.707220902319e+00
3.534286944592e+00
3.400129214296e+00
3.329027935085e+00
3.306844225051e+00
3.329989198803e+00
3.416647663973e+00
3.327868489180e+00
7.364493773517e+00
7.145644055281e+00
7.209684078050e+00
7.287548848069e+00
7.387613575070e+00
7.508174571624e+00
7.656412599136e+00
7.845016457614e+00
8.072376260031e+00
8.321621918802e+00
8.588626822042e+00
8.869774818525e+00
9.126350789506e+00
9.344331411417e+00
9.504019218891e+00
9.595580754275e+00
9.612339352837e+00
9.543019770387e+00
9.289998387297e+00
8.879244058882e+00
8.397434520577e+00
7.845227858743e+00
7.352456755957e+00
7.009877582181e+00
7.006205672845e+00
7.649590982916e+00
9.841507245795e+00
1.200032917743e+01
1.740794902744e+01
1.769331863656e+01
1.645707449504e+01
1.632959819651e+01
1.659573141991e+01
1.710278107719e+01
1.762055276868e+01
1.799810009303e+01
1.818046210747e+01
1.818265090244e+01
1.809932333914e+01
1.797180547048e+01
1.781678861934e+01
1.763958169802e+01
1.744754660826e+01
1.727360280527e+01
1.712768281717e+01
1.698736653358e+01
1.683971547444e+01
1.670554635447e+01
1.659642236076e+01
1.650379232150e+01
1.642454753174e+01
1.635459861176e+01
1.627284078084e+01
1.635991667031e+01
2.523614562579e+01
2.651615532496e+01
2.603355878971e+01
2.602678463244e+01
2.630384538942e+01
2.661233061676e+01
2.685801506461e+01
2.686151113793e+01
2.669715132149e+01
2.650720742423e+01
2.635683131797e+01
2.623038093540e+01
2.611827216413e+01
2.602601659100e+01
2.595241198289e+01
2.589729570702e+01
2.584548187845e+01
2.578814926005e+01
2.573813864379e+01
2.569506533491e+01
2.565464108979e+01
2.561827747384e+01
2.557807766590e+01
2.554106080607e+01
2.554278621670e+01
3.446540791577e+01
3.450254047592e+01
3.454048331246e+01
3.455456421578e+01
3.455873016460e+01
3.455768942110e+01
3.455454831764e+01
3.455309269129e+01
3.455044749627e+01
3.454854902177e+01
3.456133222055e+01
3.459877300699e+01
3.466916068475e+01
3.477195964268e+01
3.493412106136e+01
3.515467016541e+01
3.542320382851e+01
3.563425710255e+01
3.563919474075e+01
3.547397158530e+01
3.543958695476e+01
3.575466443727e+01
3.399833180427e+01
4.331924285704e+01
4.518177395388e+01
4.476745719491e+01
4.452152978511e+01
4.423830823732e+01
4.387817340374e+01
4.361596979804e+01
4.339450154402e+01
4.326108999328e+01
4.319954794215e+01
4.318651148373e+01
4.320724914503e+01
4.324927474566e+01
4.329886712498e+01
4.334761550088e+01
4.339550045278e+01
4.343842716329e+01
4.347128335472e+01
4.349225655235e+01
4.349799351738e+01
4.350095461361e+01
4.348761937200e+01
5.247160276108e+01
5.247439649155e+01
5.247592601084e+01
5.245767245760e+01
5.241852424764e+01
5.236111230288e+01
5.228350510151e+01
5.219890441653e+01
5.211526137256e+01
5.203798136521e+01
5.197679907921e+01
5.194439991046e+01
5.195650985320e+01
5.206817778273e+01
5.225263368348e+01
5.254940305485e+01
5.288738020613e+01
5.338523773101e+01
5.434403590002e+01
5.291206321393e+01
6.131164329274e+01
6.266423894588e+01
6.178650218381e+01
6.133939474201e+01
6.107595008379e+01
6.089744192577e+01
6.085109865838e+01
6.086925356983e+01
6.092706440878e+01
6.100709184237e+01
6.110744525573e+01
6.120834878413e+01
6.129124155699e+01
6.135556336019e+01
6.140202026592e+01
6.142736666333e+01
6.143971311230e+01
6.147153250670e+01
6.149967559172e+01
7.056589693499e+01
7.047916639720e+01
7.044662846999e+01
7.043468454618e+01
7.039103365568e+01
7.035311613668e+01
7.031287626112e+01
7.024893541601e+01
7.015005585548e+01
7.011234818675e+01
7.006126074334e+01
7.003089826961e+01
7.007948593025e+01
7.013839376082e+01
7.046561391501e+01
7.131743634998e+01
6.981467789561e+01
7.864857265435e+01
8.024880359448e+01
7.957587134607e+01
7.940672439578e+01
7.937121395604e+01
7.936923208769e+01
7.933481219781e+01
7.936147786902e+01
7.941495206498e+01
7.945861583384e+01
7.948675783045e+01
7.951179315846e+01
7.956178801689e+01
7.954449196206e+01
7.964871943804e+01
7.975057142235e+01
3.127277486774e+01
2.182618324308e+01
2.535967396878e+01
3.243265549236e+01
4.061026784677e+01
4.990781658130e+01
5.961437007224e+01
6.791537609923e+01
7.641206600781e+01
8.546673610457e+01
3.235641145868e+01
1.836081128184e+02
6.328422951075e+00
4.212620905130e+01
1.833514509176e+02
4.115228436476e+01
9.300510704694e+01
1.829478821024e+02
5.756278267582e+01
1.828334677405e+02
7.581828720198e+01
1.825533129737e+02
6.782242174499e+00
1.815540907300e+02
9.395465254968e+01
5.650463785722e+01
1.214007559500e+02
1.798873011052e+02
1.787229955475e+02
1.764660832162e+02
1.761019000184e+02
1.779716079243e+02
9.781128609636e+01
9.712876902487e+01
9.762778433360e+01
1.311309531065e+02
1.811664259480e+02
3.975099285972e+01
7.471675079784e+00
1.546476683150e+02
9.660082577747e+01
3.455999150116e+01
1.778270170255e+02
1.835682873851e+02
1.822982727872e+02
1.828071083289e+02
1.839988789714e+02
2.094989285497e+01
9.700247894991e+01
1.813928048192e+02
1.499283095467e+02
6.513105208607e+00
7.336433918806e+01
1.776802879181e+02
4.979544139051e+01
3.502627071009e+01
6.737533804007e+01
8.453306262379e+01
4.008873655762e+01
1.131832325550e+02
1.823673033899e+02
7.010326513013e+00
1.686961180020e+02
9.836666838971e+01
1.027464493664e+02
1.070588640233e+02
1.122848601265e+02
1.169738740317e+02
1.216547796546e+02
1.169980586757e+02
1.263569259137e+02
1.217400923039e+02
1.263703112555e+02
1.310880049819e+02
1.265312815801e+02
1.358210485912e+02
1.313538128504e+02
1.219929876489e+02
1.269344427621e+02
1.173422240993e+02
1.224094906024e+02
1.318552310014e+02
1.275034251496e+02
1.178147569209e+02
1.230428926326e+02
1.132938202595e+02
1.186135460872e+02
1.088799384577e+02
1.141454284521e+02
1.239385620816e+02
1.194224420204e+02
1.096802055087e+02
1.148958535337e+02
1.053640208559e+02
1.105934680797e+02
1.199423453654e+02
1.153037768315e+02
1.061989247388e+02
1.108306130790e+02
1.023456968541e+02
1.072604241498e+02
9.944454082367e+01
1.043638577043e+02
1.118603044585e+02
1.087668827815e+02
1.015311330356e+02
1.055210093671e+02
1.126249176024e+02
1.088166187202e+02
1.159119798719e+02
1.115654965272e+02
1.047163945958e+02
1.067900960582e+02
1.138679646831e+02
1.086762733213e+02
1.016334971375e+02
1.032956882711e+02
1.112885574872e+02
1.054846841493e+02
9.778079362811e+01
9.920317893660e+01
1.071647825105e+02
1.006114504457e+02
9.234290699701e+01
9.395399575796e+01
1.028044919846e+02
9.619189740202e+01
1.055757378765e+02
8.720242243300e+01
8.957842632696e+01
8.048577107306e+01
8.307525564398e+01
1.246915472992e+02
7.397772200806e+01
7.167398581254e+01
7.682035871136e+01
8.619766505717e+01
6.776057880676e+01
7.086025979779e+01
6.192164418103e+01
9.393555840263e+01
1.367295178159e+02
6.521727020559e+01
5.645532607384e+01
5.308147669360e+01
4.788611587316e+01
1.217100950787e+02
1.312101015816e+02
1.263149495835e+02
1.360491433541e+02
1.313699818079e+02
5.138070305238e+01
1.404561711031e+02
1.407194121578e+02
1.080907820227e+02
1.000222755948e+02
1.200842870260e+02
7.420967064770e+01
6.870098102110e+01
7.762962657061e+01
1.122337505631e+02
1.155537842353e+02
1.224095994067e+02
1.258991974052e+02
1.327160152983e+02
1.360155156403e+02
1.292918590111e+02
1.392473020809e+02
1.326295643593e+02
1.421940953562e+02
1.390316165725e+02
1.425689230050e+02
1.361117386113e+02
1.459707904478e+02
1.397217614879e+02
1.293100933778e+02
1.330329018806e+02
1.225836237960e+02
1.235228938874e+02
1.283950945158e+02
1.321413151474e+02
1.371085086349e+02
1.407422702866e+02
1.454304054826e+02
1.490826630827e+02
1.443349934658e+02
1.405230681981e+02
9.858851108989e+01
9.443408881806e+01
9.201404820108e+01
8.762278076777e+01
8.572266857782e+01
8.093798386545e+01
7.960625997820e+01
8.343988254191e+01
7.787785326346e+01
8.045139389613e+01
7.556358695718e+01
7.648710302467e+01
1.291004595786e+02
1.418711477428e+02
1.499432144109e+02
1.462362818695e+02
4.429108149143e+01
1.434309074834e+02
1.480031674060e+02
1.448516203451e+02
1.527950422451e+02
4.309964241145e+01
7.437131848359e+01
7.508255424299e+01
1.409250338073e+02
1.362752802047e+02
1.535268479662e+02
4.659729661758e+01
1.485354393205e+02
7.316344488503e+01
1.369292254352e+02
1.471851189884e+02
1.224125505670e+02
1.543804745300e+02
1.505823607672e+02
8.186763001588e+01
7.660695279185e+01
7.124705730078e+01
7.010575398918e+01
7.629037421319e+01
6.910329484429e+01
6.224816505521e+01
6.075445103678e+01
6.840664931288e+01
5.983989138365e+01
5.077531029582e+01
5.045068511584e+01
1.529810846934e+02
7.195784880533e+01
1.123529773258e+02
1.566914056233e+02
1.571872476934e+02
1.458527361397e+02
1.412564224223e+02
1.316393958240e+02
1.367154551045e+02
1.463310736186e+02
1.418081818133e+02
1.322056820472e+02
1.372906250558e+02
1.276944677605e+02
1.328101320345e+02
1.424059054091e+02
1.379668480145e+02
1.284105123965e+02
1.335609509190e+02
1.240329789880e+02
1.291243067722e+02
1.387368902102e+02
3.906785822016e+01
1.480946570640e+02
1.564742741834e+02
7.219950494192e+01
8.067655667259e+01
8.676916746335e+01
9.009448851140e+01
1.342531411919e+02
1.439732507950e+02
6.799446415515e+01
6.836702015842e+01
1.504747082124e+02
1.410091273923e+02
1.303321720229e+02
9.605934785123e+01
9.042854735181e+01
8.677047349262e+01
8.074797926835e+01
8.498003366482e+01
7.730535546452e+01
1.355754144527e+02
1.475849530092e+02
4.967248465921e+01
4.045333375442e+01
1.510393843409e+02
1.393171652714e+02
1.333209974980e+02
1.381083950327e+02
1.421310421977e+02
1.465799292242e+02
1.506604092080e+02
1.549241748035e+02
1.508214182838e+02
1.587129552914e+02
1.590333241866e+02
1.245347792302e+02
1.379162136435e+02
6.820899274087e+01
3.520277376688e+01
4.007560887242e+01
4.194622225855e+01
4.963800776018e+01
1.620649838067e+02
1.591356074338e+02
1.547499803264e+02
7.526173608877e+01
7.987825336043e+01
1.624078803035e+02
1.217117138732e+02
1.226340966930e+02
1.181155824357e+02
3.395955148009e+01
4.109881274872e+01
1.514380711994e+02
7.613142501131e+01
6.957834534992e+01
6.968892819158e+01
7.045204274843e+01
1.392879728981e+02
1.489353433208e+02
9.618963802880e+01
9.972771003818e+01
1.588006769683e+02
4.142965230990e+01
1.536120153685e+02
1.430529726962e+02
1.339863818043e+02
8.393782035974e+01
6.034298198341e+01
6.064122649740e+01
7.600186553379e+01
5.156906540672e+01
4.491227386417e+01
1.672122742002e+02
1.558992843198e+02
1.548487742961e+02
1.466968887442e+02
1.629670216668e+02
3.106787875998e+01
1.654467073614e+02
1.452287883883e+02
1.630267802452e+02
1.589124364803e+02
7.776614106170e+01
7.153818348224e+01
6.265612044711e+01
6.503500281913e+01
1.122690878956e+02
8.002721008303e+01
1.076203385560e+02
1.027247715761e+02
9.813770160921e+01
8.957017926663e+01
8.468330751285e+01
8.946294961624e+01
1.243642541400e+02
9.294071065577e+01
1.189931119899e+02
1.189365257079e+02
1.519970844955e+02
1.572629800727e+02
1.188905525925e+02
1.144496310720e+02
3.525964745886e+01
3.095627651567e+01
1.088294538538e+02
1.598716487617e+02
1.553394436257e+02
1.599472160280e+02
1.550428960826e+02
1.637203289842e+02
9.544223946301e+01
1.269272915780e+02
6.887436602752e+01
1.294058034925e+02
2.619644744850e+01
1.408839060143e+02
1.549303596515e+02
1.603551857727e+02
1.667456292665e+02
9.820422374532e+01
1.339095316684e+02
1.291292339505e+02
9.339797525401e+01
8.897455643285e+01
9.368472461470e+01
8.464518327276e+01
7.659720900260e+01
6.897086358863e+01
1.681647175818e+02
1.671118412880e+02
1.673518756247e+02
1.633371315466e+02
1.704032838778e+02
1.660023050027e+02
5.229334587841e+01
7.520528527864e+01
1.609747738321e+02
9.793679825333e+01
1.684791433666e+02
1.631425587076e+02
6.786227026027e+01
6.247618354200e+01
1.587805877988e+02
5.539574854760e+01
5.784767854272e+01
5.341103353686e+01
1.739961442442e+02
9.633055825477e+01
1.643245543818e+02
9.419355956386e+01
1.634620014499e+02
1.381239102984e+02
9.254137066052e+01
1.554556310119e+02
1.535443895787e+02
1.642664366975e+02
1.130159771356e+02
1.083332982166e+02
1.173252429744e+02
6.862887047817e+01
6.319375837842e+01
1.527698269349e+02
6.321966395131e+01
6.706860904193e+01
4.367738750456e+01
5.348260366366e+01
1.025171844199e+02
9.922489715414e+01
1.456285473826e+02
1.498475373331e+02
1.374152595713e+02
1.376441066527e+02
1.281471904712e+02
1.250628670630e+02
1.614866064903e+02
1.678174681514e+02
8.380687018316e+01
8.314535814199e+01
7.731073996013e+01
1.654649126231e+02
1.696233356009e+02
1.658137537464e+02
2.181476684797e+01
2.676412055651e+01
5.216533690908e+01
5.361682300412e+01
1.643152812723e+02
1.597153410002e+02
1.700134704062e+02
4.729204426891e+01
1.507116491588e+02
1.716938686607e+02
1.682284431600e+02
1.763169521664e+02
1.629250633256e+02
1.708183049262e+02
1.710116625418e+02
6.519151130262e+01
1.608177417394e+02
1.089333882158e+02
5.656360836329e+01
1.046118833165e+02
1.100480520903e+02
9.982801718599e+01
4.058717086029e+01
1.062800465995e+02
1.122252354794e+02
1.572128539549e+01
1.704505996519e+02
1.741233259764e+01
2.166960877083e+01
1.718591541296e+02
1.663860879208e+02
1.750089011453e+02
1.694897124890e+02
1.607502221924e+02
1.643188319441e+02
1.036354285909e+02
1.743726448508e+02
1.680883435732e+02
1.783157426773e+02
8.016159923045e+01
6.756350208042e+01
6.116166925353e+01
5.101437307690e+01
1.731299838306e+02
1.672722132356e+02
1.496959322067e+02
1.392820246989e+02
1.052008252623e+02
1.046846801718e+02
1.132020251680e+02
1.120464474701e+02
1.206564399744e+02
1.192766894663e+02
1.280777128397e+02
1.755065518099e+02
4.547103387437e+01
8.883459174418e+01
1.739823018359e+02
1.690830363950e+02
8.005114547717e+01
7.109558316383e+01
1.750369003220e+02
8.576916150738e+01
1.762573503694e+02
4.183630421111e+01
5.852200162987e+01
8.846871899444e+01
8.930652250688e+01
7.086764669102e+01
6.573294940898e+01
1.467733219088e+02
2.343029907685e+01
5.221945685606e+01
1.291527393862e+02
4.285336531154e+01
1.446563077448e+02
9.153499430245e+01
9.921678347335e+01
6.109313708779e+01
7.448173955010e+01
1.170895178368e+02
1.075647690271e+02
1.027445213216e+02
9.683320941838e+01
7.034843050497e+01
5.996483537120e+01
1.126473135806e+02
1.502196346553e+02
1.548481544901e+02
1.639613163561e+02
1.594278232433e+02
1.501063475044e+02
1.547076795326e+02
1.639629123182e+02
1.595248606170e+02
1.702725808726e+02
1.640483320504e+02
1.545952664924e+02
1.589843389744e+02
1.675924886833e+02
1.497640393817e+02
1.782913511769e+02
9.724288830077e+01
6.768912629197e+01
5.670029894179e+01
1.037059269187e+02
1.793343673647e+02
1.787780661012e+02
8.225421548626e+01
1.818101609818e+02
1.074580594650e+02
7.381354175635e+01
1.825869652291e+02
1.454026684340e+02
1.405539169404e+02
1.358572813545e+02
1.785932051362e+02
1.219945340057e+02
1.835558726235e+02
1.332177090634e+02
1.288108608199e+02
1.199691947762e+02
1.499180820913e+02
1.834685501807e+02
1.768610698399e+02
1.769221994827e+02
1.696276035871e+02
1.837334424609e+02
1.809904358035e+02
1.816444520807e+02
7.611810317199e+01
8.283652722974e+01
8.943356061826e+01
8.875100922048e+01
8.252620561925e+01
8.770315255488e+01
9.375003025632e+01
8.604471183530e+01
1.587395896531e+02
1.839922376210e+02
1.292202928304e+02
1.255817704397e+02
1.158943891824e+02
8.959274508802e+01
9.585845979981e+01
1.056672773290e+02
8.352423407657e+01
1.425659469144e+02
1.837777031093e+02
1.305618407810e+02
9.251415551118e+01
9.742910097367e+01
1.059534804905e+02
1.063961800958e+02
1.153307915765e+02
1.064984020235e+02
1.059776957934e+02
1.096826113629e+02
1.035238647188e+02
1.135952127805e+02
1.072644162474e+02
9.802392906090e+01
1.174948502356e+02
1.106181101962e+02
9.692808996119e+01
3.671516049643e+01
4.048918104545e+01
2.753111983508e+01
4.265152647361e+01
5.255296924280e+01
5.444727612132e+01
6.106684110078e+01
5.311286170438e+01
1.117622502076e+01
1.961158483159e+01
7.536765190263e+00
1.595163664197e+01
2.816370703506e+01
3.674439900638e+01
1.797570424406e+02
8.260079417339e+01
7.839035795202e+01
6.958963370894e+01
7.486109482619e+01
8.663465592888e+01
6.464478041183e+01
6.196372988574e+01
7.422748569081e+00
1.669891178965e+01
1.569725431855e+01
2.595021753496e+01
2.565115430937e+01
1.680342531790e+01
1.673744982069e+01
7.389381519339e+00
1.640652115551e+01
2.555241844516e+01
7.086750962655e+00
1.406680257332e+02
1.459369475289e+02
1.828737911979e+02
9.781408986091e+01
6.257671505336e+00
1.747778562077e+02
1.767062380849e+02
1.767155845806e+02
1.643891315708e+02
1.691904566230e+02
1.749459302264e+02
5.874494810451e+01
1.683689042434e+02
1.580035258837e+02
6.811532076112e+01
6.112965796436e+01
1.345798150037e+02
1.257831654894e+02
1.565813940981e+02
1.263782008665e+02
1.494451681634e+02
1.764509926284e+02
3.838222040877e+01
1.232180360111e+02
1.196036768902e+02
1.431512925162e+02
5.990901982002e+01
9.402897066369e+01
3.944569675732e+01
1.755886472239e+02
1.030283765211e+02
1.094044673275e+02
8.007441937633e+01
6.499095054353e+01
6.002317234810e+01
1.014835272528e+02
9.898557797794e+01
1.453205129223e+02
1.483798375783e+02
7.688922495059e+00
1.511081022459e+02
1.189957396032e+02
1.271260808216e+02
1.536054990598e+02
5.264970110889e+01
1.469056254617e+02
1.644801367499e+02
1.169063408342e+02
3.084631989263e+01
1.135936432030e+02
1.705239834865e+02
1.455717845068e+02
5.471707840380e+01
1.188656539836e+02
1.044117546877e+02
8.910143704624e+01
1.622305422029e+02
1.197431071597e+02
1.609444439474e+02
1.357701977717e+02
5.780035783680e+01
1.575483677357e+02
1.162002318868e+02
1.565343861957e+02
1.461459946270e+02
1.019641567030e+02
1.508141393450e+02
1.135796776527e+02
1.580292193886e+02
9.861804893054e+01
1.282478486473e+02
1.361291346629e+02
1.245633536379e+02
1.282714006826e+02
1.543026198423e+02
7.212014578980e+01
8.358058368919e+01
1.266361804392e+02
1.630547573363e+02
1.660530608648e+02
9.472216601930e+01
1.517892836577e+02
1.601996690991e+02
1.022639545244e+02
4.199826757527e+01
6.196145390666e+01
8.933001322362e+01
1.154666787966e+02
1.122430350447e+02
1.700007577091e+02
1.551377938225e+02
1.503063956883e+02
3.423117432123e+01
9.342431220215e+01
1.586333674915e+02
1.218279477126e+02
1.615138579946e+02
1.009000909456e+02
1.757661231244e+02
7.582176200052e+01
1.624132383352e+02
1.518545163786e+02
8.382086910789e+01
9.661171906767e+01
1.729624837911e+02
1.602082840026e+02
1.339504853645e+02
1.167136387528e+02
8.006497908060e+01
1.156331526568e+02
1.325148316945e+02
1.784236975788e+02
1.644456370801e+02
1.310045888610e+02
1.089909711511e+02
1.422802922607e+02
2.556757076639e+01
8.445358553728e+01
1.123992310178e+02
9.192485016073e+01
1.194796389265e+02
1.746247484341e+02
1.160567199578e+02
9.815814699038e+01
1.199054732852e+02
7.156821524285e+01
1.357653030597e+02
1.239010394877e+02
1.414882349888e+02
2.586669847680e+01
1.383731844151e+02
1.593600678982e+02
7.851184541100e+01
1.222162743933e+02
1.452780123094e+02
6.254703518445e+01
1.318045359117e+02
1.502610185281e+02
1.425079636800e+02
1.243121229129e+02
1.413666477793e+02
6.614896164610e+01
5.582531843743e+01
4.647291950070e+01
1.001549409071e+02
1.544924688112e+02
3.387915911635e+01
1.451607883699e+02
3.346362209327e+01
9.512243669861e+01
1.548347386880e+02
1.222698251561e+02
9.608110675065e+01
4.889657665711e+01
9.013774904344e+01
1.335390841554e+02
9.150490783894e+01
8.461171437347e+01
1.675965636639e+02
8.544132993801e+01
1.764489544949e+02
1.800078691281e+02
1.037088148493e+02
5.249298696258e+01
4.034852161081e+01
5.717351868183e+01
6.996059582621e+01
1.451791520367e+02
1.040457855209e+02
6.275259035104e+01
1.730432891317e+02
1.833270295376e+02
1.360366576909e+02
1.648291080480e+02
1.466190975290e+02
1.587748967662e+02
9.590189248042e+01
1.422797159623e+01
1.336018557311e+02
4.339125481932e+01
4.792201030710e+01
4.360465887608e+01
6.005968910556e+01
3.295214299115e+01
3.787113630079e+01
1.762464739785e+02
1.044287348683e+02
1.588093550337e+02
3.283635068870e+01
1.694347769648e+02
1.760720571988e+02
1.828129518178e+02
1.670549710739e+02
4.390871302362e+01
1.131365591181e+02
1.751297425022e+02
1.435399992119e+02
1.826421418022e+02
1.035060614891e+02
1.687158661734e+02
6.712603682942e+01
1.687388315999e+02
1.542985863369e+02
1.154914696937e+02
1.133569376325e+02
1.738421052604e+02
1.720442487067e+02
4.797282732888e+01
1.354545349981e+02
7.561914616499e+01
5.936198494675e+01
1.759367661362e+02
1.629127237956e+02
1.737279237551e+02
2.573348581012e+01
1.360139842806e+01
1.779269893508e+02
1.749374943449e+02
6.451389892616e+01
1.789050278240e+02
5.171066835776e+01
9.487840723517e+01
1.520106581992e+01
1.820371928837e+02
1.697043736517e+02
8.273067055955e+01
9.836327792358e+01
5.444187388988e+01
1.700309820668e+02
2.218839758294e+01
1.703663343282e+02
1.786664786243e+02
1.723570842649e+02
1.852474915955e+02
5.781894664621e+01
1.781131887519e+02
1.712559551417e+02
9.585236056068e+01
1.717382994373e+02
6.676385723862e+01
3.250236416002e+01
1.774438593997e+02
5.941227070756e+00
9.538881525436e+01
1.820083943551e+02
3.215533796135e+01
1.105017355185e+02
1.748791540501e+02
1.034126591121e+02
1.532553384615e+02
4.462912128909e+01
3.857934854737e+01
1.272196446757e+02
1.776577730108e+02
1.722524564924e+02
1.206647788970e+02
5.660168890534e+01
1.698286845903e+02
8.999665531110e+01
1.700251465560e+02
1.713158080919e+02
4.187354850511e+01
1.124277607814e+02
1.379680387301e+01
1.768682424988e+02
9.393497082375e+01
1.743745839320e+01
3.570677680971e+00
1.631506407304e+01
1.169217290522e+01
2.214307217640e+01
2.134112955329e+01
3.013720323169e+01
2.969744895101e+01
3.904955967013e+01
3.924422451375e+01
4.855131693661e+01
4.772215920776e+01
5.801363134721e+01
5.722674730619e+01
6.625599686472e+01
6.577600902675e+01
7.480587046547e+01
7.533683181825e+01
8.388092997701e+01
8.399315216153e+01

SCALARS node_materi_strain_total_average_a_ept float
LOOKUP_TABLE default
5.034393292500e-04
1.213537430753e-03
1.931314620428e-03
2.642829132883e-03
4.487535657869e-04
4.605608260731e-04
4.417052163892e-04
4.562237385359e-04
4.575171445209e-04
4.734472901707e-04
5.020245612613e-04
5.425814708051e-04
5.987334617846e-04
6.685721415184e-04
7.530611205571e-04
8.493271841984e-04
9.543408327134e-04
1.071061829048e-03
1.204569483223e-03
1.344865601786e-03
1.494830269376e-03
1.654474195110e-03
1.809444059121e-03
2.651401836961e-03
2.640566492652e-03
2.637739215666e-03
2.629405497565e-03
2.612165727495e-03
2.604765681176e-03
2.585839837832e-03
2.562497683378e-03
2.542301748213e-03
2.515204917826e-03
2.476103360766e-03
2.444559978021e-03
2.401777671939e-03
2.355033203837e-03
2.300798234991e-03
2.241022728765e-03
2.175702153257e-03
2.109972004215e-03
2.041388230751e-03
1.969169147672e-03
1.889761633423e-03
1.806739138069e-03
1.723793979081e-03
1.641560189057e-03
1.564235008910e-03
1.493279762098e-03
1.421119575364e-03
1.366648830151e-03
1.311639206723e-03
1.276064446169e-03
1.240825894333e-03
1.216194808698e-03
1.206574011280e-03
1.220104635206e-03
1.240517202468e-03
1.268944786751e-03
1.321196727539e-03
1.366947966897e-03
1.429279918914e-03
1.488900695049e-03
1.561314240205e-03
1.637242960019e-03
1.696809547510e-03
1.741993759884e-03
1.813520857871e-03
1.851231579305e-03
1.893432466872e-03
1.922239957779e-03
1.936330297009e-03
1.356217899123e-03
1.496846556827e-03
1.639357555123e-03
1.781727600928e-03
1.928704660972e-03
2.078326633268e-03
2.228671666086e-03
2.383101755626e-03
2.535768874795e-03
-1.210547576251e-03
-2.361646491953e-05
9.244234042935e-04
-2.592265706145e-04
-3.893661803374e-05
8.384941100254e-05
1.825237490250e-04
2.669374381235e-04
3.595208622228e-04
4.714672011198e-04
6.041447332517e-04
7.558582791983e-04
3.290697311009e-05
1.558624594627e-04
2.834954399055e-04
4.106479119050e-04
5.413513657974e-04
6.730340850003e-04
8.061980409741e-04
9.395297384548e-04
1.073763492420e-03
1.195963626244e-03
1.202132951536e-03
1.196954157940e-03
1.187397136357e-03
1.196468555106e-03
1.168285669521e-03
1.151465461777e-03
1.135855536642e-03
1.116935498145e-03
1.091371064069e-03
1.063197735582e-03
1.031879819228e-03
9.982851741849e-04
9.643636111325e-04
-2.099620691674e-03
-2.330611062514e-03
-2.371669544250e-03
-2.133952415815e-03
-1.263892279495e-03
-4.372967406373e-04
-1.049657296195e-04
2.141502098882e-05
7.992038565833e-05
1.375384865133e-04
1.842916051254e-04
2.412278092219e-04
3.038807324682e-04
3.625200225512e-04
4.060208285719e-04
4.447768109933e-04
4.737049212693e-04
4.936920957105e-04
5.144551819443e-04
-2.317899850690e-04
-9.492114668304e-05
-1.546196662752e-05
4.561775995863e-05
9.648537182342e-05
1.399309794230e-04
1.721056114476e-04
1.936923334612e-04
2.072211552639e-04
2.129600324413e-04
2.103647499886e-04
2.058671124030e-04
2.042828785079e-04
1.963478182400e-04
1.814944385275e-04
1.618111057394e-04
1.391824317339e-04
1.149432859733e-04
9.122570311031e-05
6.885042759713e-05
4.848485269662e-05
3.262580111587e-05
2.173872939114e-05
1.227785210448e-05
4.748783390284e-06
-4.407295715665e-07
-4.930108195035e-06
-9.042343441420e-06
-1.744357545543e-05
3.249080406027e-05
3.728191777260e-05
4.229000701264e-05
4.587493514708e-05
5.013811375596e-05
5.528716227545e-05
6.230650449584e-05
7.049386335965e-05
8.040745597353e-05
9.358038814279e-05
1.082902268041e-04
1.242793532946e-04
1.413288716708e-04
1.581647889347e-04
1.724649853819e-04
1.830619757755e-04
1.889367355999e-04
1.896150292285e-04
1.882534471147e-04
1.874294858592e-04
1.804756163298e-04
1.659753158584e-04
1.463280220807e-04
1.138742735833e-04
7.573797554767e-05
3.559112652237e-05
-2.160183445807e-05
-8.058628448059e-05
3.137866716671e-05
7.138954235523e-05
1.137494897592e-04
1.446918714445e-04
1.654621687258e-04
1.848081958632e-04
2.009689628034e-04
2.101547094096e-04
2.160748684178e-04
2.212373897075e-04
2.232667125191e-04
2.219292912753e-04
2.176336623509e-04
2.109964264397e-04
2.030487625415e-04
1.952357274233e-04
1.873823696907e-04
1.801396109024e-04
1.740551055368e-04
1.691203156278e-04
1.652002210568e-04
1.623542775330e-04
1.603487221129e-04
1.589987220885e-04
1.585221866069e-04
1.577625070270e-04
1.285179250550e-04
1.635091335101e-04
1.939588394354e-04
2.153398511149e-04
2.355279324181e-04
2.494772767433e-04
2.604325860484e-04
2.714160100465e-04
2.812071105607e-04
2.878032362831e-04
2.925504444827e-04
2.950963182179e-04
2.960054806848e-04
2.956793685140e-04
2.945956809407e-04
2.930894360682e-04
2.915943782066e-04
2.903042598468e-04
2.893055938195e-04
2.887159445040e-04
2.885654511056e-04
2.889115546740e-04
2.899709333857e-04
2.894395127385e-04
2.842356369496e-04
4.128314117611e-04
4.184353532391e-04
4.165422149676e-04
4.146401323097e-04
4.126714688158e-04
4.105804500259e-04
4.083159481267e-04
4.057947519764e-04
4.028772920232e-04
3.993314112335e-04
3.948394643547e-04
3.890436960551e-04
3.815663169100e-04
3.721936545264e-04
3.615918567805e-04
3.501305585286e-04
3.378624990399e-04
3.231719086928e-04
3.075730962150e-04
2.895018419471e-04
2.694546601641e-04
2.416843325763e-04
2.122149734058e-04
2.947622577191e-04
3.259139306276e-04
3.539833437225e-04
3.753467173169e-04
3.965242415427e-04
4.153049788944e-04
4.320214626402e-04
4.474748335095e-04
4.626793172605e-04
4.783453155193e-04
4.913686201624e-04
5.020747458400e-04
5.109830020883e-04
5.185098992174e-04
5.249344026027e-04
5.304139539700e-04
5.351401897686e-04
5.393019540554e-04
5.429824643465e-04
5.462180715947e-04
5.464126316110e-04
5.419326641423e-04
6.739367416956e-04
6.751842612635e-04
6.723671740149e-04
6.683316477203e-04
6.630716426176e-04
6.566266858744e-04
6.491349618954e-04
6.401188900552e-04
6.295035440089e-04
6.172340360914e-04
6.027638661485e-04
5.854801517986e-04
5.645878189824e-04
5.432255175679e-04
5.235113390517e-04
5.021434483617e-04
4.779582073312e-04
4.534303794688e-04
4.238986037883e-04
3.883129284069e-04
5.010380924005e-04
5.428138839491e-04
5.744709794913e-04
6.011212917510e-04
6.263591123738e-04
6.506992590250e-04
6.772942090132e-04
7.008223597840e-04
7.206894503097e-04
7.375901546166e-04
7.523260720115e-04
7.652921139068e-04
7.759957132544e-04
7.850765470702e-04
7.929075343639e-04
7.990508377256e-04
8.035289538417e-04
8.062496696749e-04
8.062560241391e-04
9.394989261428e-04
9.375674126915e-04
9.333741547795e-04
9.273271501932e-04
9.194639584590e-04
9.095391441565e-04
8.976265014090e-04
8.827497408881e-04
8.657132843704e-04
8.465631355845e-04
8.250805875854e-04
7.995674843670e-04
7.700322187757e-04
7.382644074958e-04
7.103406341555e-04
6.795588322834e-04
6.339815558807e-04
7.824222054000e-04
8.311730824962e-04
8.657043279918e-04
8.990297944872e-04
9.290047115642e-04
9.550937849088e-04
9.780513167862e-04
9.991432888076e-04
1.017686491548e-03
1.032194822038e-03
1.044810275728e-03
1.054465385973e-03
1.062723906196e-03
1.068613089127e-03
1.073469870698e-03
1.074728499417e-03
-5.236865455348e-04
-1.132363994498e-04
3.652841841693e-05
1.391090011827e-04
2.241334562913e-04
3.160390133545e-04
4.201694585392e-04
5.438311306004e-04
6.878984385497e-04
8.458673309553e-04
-1.415430004650e-04
1.199780071203e-03
6.246184293207e-05
-1.397995284003e-03
1.359708747683e-03
1.574081955249e-04
7.090497792258e-04
1.264129590346e-03
3.471672437449e-04
1.488242200527e-03
6.017639476087e-04
1.609778468455e-03
2.971386447481e-04
1.788654456922e-03
9.311842545039e-04
4.844147651321e-04
9.882754408103e-04
1.999264658423e-03
2.251756744891e-03
2.530660520196e-03
2.456281764554e-03
2.382349324240e-03
1.094041704923e-03
1.226460394408e-03
1.296069670425e-03
1.856244991307e-03
1.748151463863e-03
-1.802883220934e-03
4.218245471294e-04
1.412355199620e-03
1.316089418175e-03
4.501769731414e-04
2.114372089236e-03
1.369460265023e-03
1.634017284269e-03
1.209306775451e-03
1.232939556408e-03
-2.259015334947e-04
1.163594580885e-03
1.457665793620e-03
2.148120267032e-03
1.757056979788e-04
5.663198575482e-04
2.575103825240e-03
2.524742319705e-04
4.601031095536e-05
4.634269114708e-04
7.608362214963e-04
-5.824240355790e-04
1.579426924521e-03
1.841757540738e-03
4.595125483055e-04
2.452470529223e-03
1.015756181522e-03
1.036704926914e-03
1.140264354043e-03
1.154579957737e-03
1.267107732514e-03
1.279947780402e-03
1.165892485418e-03
1.292166148792e-03
1.174851212530e-03
1.393512204748e-03
1.302362541611e-03
1.181951962917e-03
1.310068889458e-03
1.187350308993e-03
1.063901086947e-03
1.065367932250e-03
9.480563863107e-04
9.459960709083e-04
1.066459864866e-03
9.438952373659e-04
8.298921190514e-04
8.230990927310e-04
7.159077982747e-04
7.053970936548e-04
6.065865067754e-04
5.933072940589e-04
6.975418754594e-04
5.833934812554e-04
4.921397316885e-04
4.817044242274e-04
4.042509891948e-04
3.982461408793e-04
4.786196645207e-04
3.994165869051e-04
3.322842542821e-04
3.331692750973e-04
2.792399052692e-04
2.886076281591e-04
2.579940257863e-04
2.728927028886e-04
2.958366848905e-04
2.788739083989e-04
2.532297405112e-04
2.619749689059e-04
2.782085245722e-04
2.607549599686e-04
2.768176832133e-04
2.506920979286e-04
2.299910158605e-04
2.200288016598e-04
2.534424391801e-04
2.217598567350e-04
1.843875734036e-04
1.961132984657e-04
2.482694610723e-04
2.314363391214e-04
1.773764565337e-04
2.267401525982e-04
2.741531534878e-04
2.724361405028e-04
2.299748022190e-04
2.777119425540e-04
3.267642851680e-04
3.319987715891e-04
3.962533188546e-04
2.870856514114e-04
3.411601191765e-04
3.001691763509e-04
3.525253426408e-04
4.848717858569e-04
3.142077452413e-04
2.649732789982e-04
3.646094467328e-04
4.116425211309e-04
3.284571676572e-04
3.765925129465e-04
3.437111529625e-04
2.394832200185e-04
1.068392994208e-03
3.882505967803e-04
3.585286466291e-04
3.176177015123e-04
3.348398089149e-04
1.373738127145e-03
1.508161071284e-03
1.483404955284e-03
1.622445278163e-03
1.595686161809e-03
3.732726851859e-04
1.433901258497e-03
1.645514862633e-03
7.274864143765e-04
4.197460387855e-04
3.039237769524e-04
4.268339800472e-04
4.339660216808e-04
4.796569790955e-04
3.994132374779e-04
4.879143349031e-04
5.042834408361e-04
6.076248714974e-04
6.386417737957e-04
7.462355748678e-04
7.137691370437e-04
8.524931460197e-04
8.189882610357e-04
7.855434924151e-04
6.808085702979e-04
9.574279996820e-04
9.221117559280e-04
1.061102275392e-03
1.021577922919e-03
8.872360657492e-04
9.816516857581e-04
8.545341155213e-04
3.155787218749e-04
3.753204045685e-04
4.200953666482e-04
5.184244475428e-04
5.694167850516e-04
6.595882276917e-04
7.044477129309e-04
6.219118907621e-04
1.314824959452e-03
2.136555256275e-04
1.991237880644e-04
1.453187679786e-04
1.342927072250e-04
5.932505211673e-05
5.239700802597e-05
-6.084266456020e-05
-4.173825880993e-05
-2.099545609414e-04
-1.506379550563e-04
-3.534565391234e-04
-2.253291134509e-04
6.944308360767e-04
6.189192153907e-04
7.499027103938e-04
7.131023440152e-04
2.956716373662e-04
1.116907843570e-03
8.286532939149e-04
7.288875347274e-04
7.583228041508e-04
3.523709350921e-04
-5.396435344697e-05
5.002408082379e-05
1.735894446138e-03
1.706121529024e-03
8.743179739580e-04
3.912032934876e-04
9.949882584668e-04
-4.215797338179e-04
1.072355725274e-03
1.210037906047e-03
6.881539474215e-04
8.415487934287e-04
8.075058040186e-04
-7.044479630265e-05
-9.758881794304e-05
-2.180758735358e-04
-9.405618348921e-05
-1.089538793519e-05
-1.394415114944e-05
-7.814247298718e-05
2.023127837072e-05
5.465724538995e-05
7.574477534972e-05
3.410282051570e-05
9.697489577441e-05
1.259449007722e-03
-5.949157141898e-04
9.498227108432e-04
9.709250406909e-04
8.312717629476e-04
1.849307042126e-03
1.815726932180e-03
1.672917869118e-03
1.779236530519e-03
1.924699292962e-03
1.884630707719e-03
1.739947557800e-03
1.841989204629e-03
1.698187653185e-03
1.796893612921e-03
1.943331391869e-03
1.894866061319e-03
1.749281051727e-03
1.844169341710e-03
1.699171242712e-03
1.790761312302e-03
1.938328577629e-03
3.805707513680e-04
6.829232805096e-04
8.186894181094e-04
4.795669407288e-04
5.350071376145e-04
5.434502076891e-04
6.069553136341e-04
1.880856717337e-03
2.031433650868e-03
-4.020912473416e-05
4.745651500342e-05
1.879766517163e-03
1.158444939286e-03
1.026820270564e-03
3.427713203313e-04
3.619343272148e-04
2.916038966527e-04
3.124738949223e-04
3.825021294134e-04
2.411531854940e-04
5.766426315009e-04
2.043588601621e-03
2.763457208986e-04
2.542140450007e-04
1.299373737510e-03
5.374641398220e-04
8.182200393098e-04
8.230839099421e-04
9.493467625276e-04
9.563369514888e-04
1.080787760223e-03
1.085130057763e-03
9.673882465368e-04
9.355885371966e-04
1.095099921664e-03
1.732781364302e-03
5.735610637447e-04
1.034483848945e-04
3.397824602263e-04
8.236629969088e-05
4.067049692869e-04
4.215305085419e-04
1.012936623856e-03
1.209562521547e-03
1.206129121278e-03
3.349448334451e-04
4.033976973802e-04
9.640678390357e-04
1.458924460965e-03
1.598832977247e-03
1.557869833549e-03
3.987618485897e-04
1.703296527550e-05
2.032691421797e-03
1.125172505712e-04
1.002466699207e-04
-6.855888671469e-04
-8.621504061307e-04
1.969946895710e-03
2.120634304031e-03
6.218362561844e-04
6.932285230371e-04
9.234338432624e-04
1.358285814217e-04
2.183282226931e-03
6.091926199787e-04
4.550292951759e-04
5.921229493848e-04
-3.960073734736e-05
-1.679059217102e-04
8.314398830516e-05
1.559774144658e-04
4.329709306154e-04
1.054392214019e-03
2.072993662578e-03
9.817765432634e-04
8.503607432844e-04
1.105202545235e-03
1.182294138506e-04
1.110501317470e-03
1.240291647084e-03
1.329671009963e-03
1.332066615906e-03
1.525907959248e-04
1.343322385066e-04
8.770152778351e-05
1.372482715465e-04
1.055848915837e-03
1.785187974694e-04
8.435070668907e-04
8.477307353011e-04
7.477920099820e-04
4.573195651438e-04
4.766078042796e-04
1.835771266255e-04
3.525653461449e-04
5.497547923232e-04
7.626153057065e-04
4.109763601791e-04
2.092515098647e-03
2.195339758345e-03
1.606457204320e-03
1.556601005830e-03
2.724736699026e-04
2.307216769730e-04
4.797864481259e-04
1.069718155375e-03
1.995495450708e-03
2.026436062990e-03
1.906934907470e-03
9.698347191354e-04
1.581621136950e-04
3.453987775859e-04
-6.951230000802e-04
5.833543804753e-04
2.531863195334e-04
1.194556193126e-03
1.386041840564e-03
1.446041591063e-03
1.053395465853e-03
9.403726687419e-04
6.023749442429e-04
5.014409388306e-04
7.534176115114e-04
6.631655972079e-04
6.521700705294e-04
5.750444535587e-04
1.397253365069e-04
1.620623810431e-04
1.346315393562e-03
1.215959643528e-03
1.460245018111e-03
1.467657764415e-03
1.078638257350e-03
9.960186418222e-04
4.494283185782e-04
4.214503910500e-04
2.184000055800e-03
8.483147174243e-04
1.205331839663e-03
1.173434963033e-03
-1.005897810829e-03
-6.749694106911e-04
2.274867739531e-03
1.048002582963e-04
1.674722257090e-04
4.403339723820e-05
1.733348547460e-03
1.322495265165e-03
1.539246522398e-03
5.426234436418e-04
2.339664390436e-03
6.350577702506e-04
2.775356469629e-04
8.367631140705e-04
2.199755656075e-03
2.368276675852e-03
1.461200066073e-03
1.415791183610e-03
1.495483752750e-03
-3.987363541576e-04
-6.460822235032e-04
2.142718152174e-03
4.401975924578e-04
4.874898071368e-04
1.895056633164e-04
2.118080368160e-04
6.363728743678e-04
5.560011635511e-04
1.198586971904e-03
1.325574166260e-03
9.446895758611e-04
5.374973097274e-04
3.902430064213e-04
3.367628700356e-04
2.242073112936e-03
2.360685726653e-03
1.237875147928e-04
7.888212840418e-05
1.988102482205e-04
2.224757599509e-03
1.597255956798e-03
1.505077143535e-03
2.075827685011e-04
1.930309120380e-04
-1.088869419345e-04
-2.609264412717e-04
2.051382864842e-03
1.930655949736e-03
2.183741897348e-03
4.573932493550e-04
8.748247282087e-04
1.087036646249e-03
1.020462151835e-03
1.191451553037e-03
1.028358297873e-03
1.134228191281e-03
1.217690546105e-03
-1.222628363482e-03
2.322577984614e-03
1.460088220881e-03
-1.412965074470e-03
1.412345084227e-03
1.502806093884e-03
1.351646862255e-03
4.467272528951e-04
1.340650276492e-03
1.391310438398e-03
1.513487360272e-04
2.338961164657e-03
2.320867712641e-04
2.878137443159e-04
1.315830473674e-03
1.280652920227e-03
1.415543542358e-03
1.380354919341e-03
1.241658688652e-03
1.348112072666e-03
1.364299781915e-03
1.507005258843e-03
1.459058987978e-03
1.621608447082e-03
5.881070828322e-04
1.984145725512e-04
2.292945937632e-04
1.991537358764e-04
1.617870355195e-03
1.592049477953e-03
1.324206284043e-03
1.184260203020e-03
1.438694167294e-03
1.440959891328e-03
1.566418042700e-03
1.556691893928e-03
1.684174419513e-03
1.670108468380e-03
1.802751463194e-03
1.341916500330e-03
7.416130585440e-05
7.563282032179e-04
1.103359583798e-03
1.021069087552e-03
4.940531966461e-04
4.386919020207e-04
1.262504588640e-03
1.987196997805e-04
2.396987210485e-03
-1.434075694164e-03
-1.070359036193e-03
2.249290369148e-04
5.598217656109e-04
2.660184701721e-04
2.900685036828e-04
6.921852573850e-04
1.526788352105e-04
-2.725543770653e-05
1.810988403865e-03
-8.693499526551e-05
1.267375031260e-03
2.197336723104e-04
5.241922378163e-04
3.444615875277e-05
1.755943155679e-04
1.060649551566e-03
1.048521971472e-03
9.464884171142e-04
2.386471058989e-04
3.589559972149e-04
3.120969442209e-04
8.371296304299e-04
1.786612315966e-03
1.807334207472e-03
1.946332578898e-03
1.822743961133e-03
1.683413702635e-03
1.697508289592e-03
1.839701882155e-03
1.712014133819e-03
1.877843870744e-03
1.716839414202e-03
1.577788962764e-03
1.580790303999e-03
1.704475696956e-03
1.446095984956e-03
1.172718110309e-03
2.741357432463e-04
-9.781996971491e-04
-6.922389539896e-04
6.223371414556e-04
2.062068015861e-03
2.194786590010e-03
1.223377572361e-04
1.710379272893e-03
9.493385061597e-04
-2.153692665740e-04
1.560194164416e-03
1.666057626909e-03
1.544299400289e-03
1.527585041820e-03
2.301605827321e-03
1.531983748986e-03
1.321628693882e-03
4.686428344792e-04
4.323106824216e-04
3.429723989435e-04
1.569579793021e-03
1.197580254005e-03
1.117159369247e-03
1.120860270262e-03
1.019281006553e-03
1.211340068957e-03
1.940925842212e-03
1.872370489582e-03
3.715876996266e-05
4.961771344701e-05
9.926758715275e-05
7.701428763025e-05
3.049094624810e-06
4.242501132687e-05
1.212955357889e-04
-1.027372254449e-06
1.460275216840e-03
1.272077164568e-03
5.328696359109e-04
4.345441504319e-04
3.359934367897e-04
4.784306198210e-04
4.772336575022e-04
5.630346032713e-04
4.796587489261e-04
8.340241225364e-04
1.312035977849e-03
3.915043888479e-04
4.044191737046e-04
1.130637060463e-03
1.226060127864e-03
1.185842077679e-03
1.332764514020e-03
1.277657962741e-03
7.157620029278e-04
7.917745100647e-04
7.600989446571e-04
8.636543126525e-04
8.215649299162e-04
7.312294525248e-04
9.297524536340e-04
8.696460241456e-04
1.194184592679e-03
-7.061941710346e-04
-3.626239843172e-04
-8.875164385632e-05
-1.564047625928e-04
-4.090970916158e-04
-1.857054429675e-04
-3.466283287686e-04
-7.691747556143e-04
-6.802485340518e-05
-1.473714427337e-06
6.704777730750e-06
5.606581646964e-05
6.819036780701e-05
2.153400680371e-04
1.769605376778e-03
6.285292990451e-04
5.876601344255e-04
5.356201825556e-04
5.459248799239e-04
6.525861412009e-04
5.185789382604e-04
4.988994099479e-04
4.458752540041e-04
4.425073947560e-04
4.565797008490e-04
4.455771807957e-04
4.362155511758e-04
4.260792915250e-04
3.961610240901e-04
3.890303256070e-04
3.613094786591e-04
3.798568877294e-04
3.465393877191e-04
2.003822322866e-03
2.084802629669e-03
1.409946247035e-03
1.261854493941e-03
1.150441243906e-04
2.518867269431e-03
2.494454680251e-03
2.518765026056e-03
1.569064612426e-03
1.638115583894e-03
2.542001327513e-03
3.004264015874e-04
1.958855505220e-03
2.240557705093e-03
-1.748518124071e-04
1.862365070367e-04
1.105326990081e-03
7.891597812725e-04
1.354925420498e-03
9.427157732294e-04
1.162043369234e-03
1.131849795837e-03
4.272314331934e-04
1.653344806440e-03
1.646250990588e-03
1.992167195508e-03
3.993839483884e-04
6.732352371195e-04
3.161488714001e-04
1.493881387064e-03
7.390767217119e-04
3.275077496111e-04
4.195689462789e-04
2.826413968264e-04
1.288773863945e-04
3.340364528672e-04
3.987494199653e-04
8.903841649271e-04
2.088404540096e-03
2.356967366585e-04
9.297333760009e-04
5.862908942167e-04
1.637023971836e-03
7.885537984424e-04
-5.142024493085e-05
1.988970195795e-03
2.139464145028e-03
1.428193700351e-03
3.023717947735e-04
1.510380702248e-03
1.140739078230e-03
1.762983735721e-03
4.097372663391e-04
2.839346380294e-04
5.071073447453e-04
8.452175788065e-04
2.292588895290e-03
4.040616787265e-04
8.878881768404e-04
4.755547058739e-04
4.446261069003e-04
1.137679993910e-03
2.994194614202e-04
2.138637893395e-03
1.076116358933e-03
2.261169645862e-04
1.961734705239e-03
2.854147024960e-04
8.755419058268e-04
6.381811672812e-04
8.184979472582e-04
1.190906239620e-03
5.792542465849e-04
1.051965759283e-03
1.032690869071e-03
-4.384163068370e-04
2.241172428246e-04
1.566563204465e-03
1.206190082281e-03
2.289615175596e-03
4.381370910499e-04
1.099145909404e-03
2.108549888558e-03
4.769954553081e-04
4.514781421342e-04
-3.542476353855e-04
7.729877559240e-05
3.369904684095e-04
5.723167409378e-04
2.085721487986e-03
1.202601105475e-03
7.813220394456e-04
-3.074774833011e-04
8.483108924027e-04
1.305755984840e-03
3.057170806853e-04
9.094290762609e-04
7.769692270893e-04
1.424403712922e-03
5.115339602841e-04
1.409402245541e-03
7.565819233114e-04
1.680197427636e-04
1.322956623786e-03
1.585499390042e-03
8.910139483364e-04
6.994604771933e-04
2.757428148767e-04
6.784293116798e-04
6.680352259170e-04
9.432114075494e-04
2.347815135617e-03
9.398582697465e-04
1.409183571034e-03
6.511959527558e-04
6.739464839024e-04
4.149579975739e-04
6.719121149510e-04
7.386175613420e-04
1.006902517234e-04
3.057874057129e-04
1.162433895837e-03
8.232062019820e-04
1.732128702468e-04
9.039119295501e-04
5.298163842162e-04
1.423004326947e-03
9.812866732375e-04
1.071779354995e-03
3.430601794293e-04
7.141461576532e-04
1.475819324606e-03
2.500692048516e-04
3.547018111545e-04
1.558670707405e-03
4.031274331909e-04
4.751796226906e-04
1.202457900847e-03
7.400589780930e-04
4.131440786267e-04
6.318859272394e-04
3.771343814851e-04
2.575996953780e-04
2.357131764879e-04
1.853106568842e-04
1.331482270719e-03
4.409834752237e-04
1.441216584936e-03
1.732764056212e-04
1.373673154233e-04
9.065535000659e-04
1.717457339778e-03
1.472114410178e-04
4.613908496102e-04
1.236690917871e-04
5.296595037359e-04
1.738016588588e-04
1.837133069539e-04
2.390749593500e-03
2.376895170597e-04
2.572254574420e-03
1.822406434082e-03
1.434250446378e-03
3.014009193445e-04
-1.854370116616e-03
2.523450647156e-04
2.153248665775e-04
1.319159688172e-03
1.437381809748e-03
2.357191992093e-04
1.842977833954e-03
1.425725338896e-03
1.930108543563e-03
9.440182848850e-04
7.747282935144e-04
2.291853874463e-03
1.283749225808e-03
9.900244366939e-05
1.130442932863e-03
2.036069982167e-04
1.358458829028e-04
3.739080667525e-06
4.745619041010e-04
9.511601220042e-07
1.048648304395e-04
1.109705867537e-03
1.340655759082e-03
1.002951017142e-03
-2.924195024859e-05
2.252428270433e-03
1.248839070156e-03
1.549650286322e-03
1.122280957645e-03
-2.038385635984e-04
1.343688078250e-03
1.562278196857e-03
2.041096043597e-03
1.656470519130e-03
1.273016021433e-03
2.435136775477e-03
-4.016390547549e-04
2.449224599891e-03
1.451813173529e-03
1.593596267634e-03
1.259854533844e-03
1.701210984941e-03
1.970913913761e-03
-4.531866037091e-04
1.915151871440e-03
5.254154695601e-04
-1.128283988324e-03
1.330769336262e-03
1.580852764372e-03
1.641775830472e-03
4.548604046338e-04
1.851994629230e-04
1.256961989216e-03
1.727874269640e-03
-1.762862944724e-04
2.471192123152e-03
-8.387889099209e-04
1.241223254660e-03
3.175349032473e-04
1.730012701377e-03
2.369493475104e-03
6.083759234899e-04
1.058957065790e-03
4.736164025584e-04
1.303290368505e-03
1.020743317733e-04
2.419025671350e-03
1.186803544633e-03
2.171318976739e-03
1.265505373486e-03
-1.385732433024e-03
1.325173174606e-03
1.047225226623e-03
1.298133046391e-03
2.061551807486e-03
5.084941343383e-04
3.732661188220e-04
2.595243650587e-03
4.791907726856e-04
1.308706372705e-03
1.873050368476e-03
4.249075649518e-04
1.536729026248e-03
1.801534202227e-03
8.061971211472e-04
2.203268462737e-03
-6.586264431206e-05
-1.868147911265e-03
1.793610276108e-03
1.223901955725e-03
2.261524370076e-03
1.677859321234e-03
-4.616695399483e-04
1.683880306482e-03
6.574700164332e-04
1.443202628348e-03
1.040648513502e-03
-9.517999752685e-04
8.942650693749e-04
2.755582354800e-04
1.490139926240e-03
7.046957678755e-04
-9.960008803390e-05
-1.771850636128e-05
-5.221791750534e-05
8.897287073486e-05
5.388851260681e-05
2.262724267673e-04
1.513438957613e-04
3.396406045898e-04
2.337851288478e-04
4.813090185374e-04
3.222788925887e-04
6.012926185724e-04
4.259125018334e-04
7.450945763951e-04
5.485545166127e-04
8.677795720566e-04
6.913361574030e-04
1.012029385746e-03
8.444730026728e-04
1.137135222713e-03

SCALARS node_materi_strain_total_size_dev_sd_ept float
LOOKUP_TABLE default
2.425235780003e-03
4.296612119153e-03
4.906206366013e-03
6.567547342649e-03
1.723776569625e-03
8.549118695532e-04
6.516024969713e-04
1.436768982157e-03
2.233082765053e-03
2.872141201039e-03
3.381220730452e-03
3.766565600597e-03
4.046123271657e-03
4.251064801276e-03
4.397695115926e-03
4.516907399019e-03
4.611863070117e-03
4.685010898666e-03
4.761807337923e-03
4.829275866292e-03
4.884757739247e-03
4.919861293225e-03
4.933286771135e-03
6.564188730890e-03
6.548869941296e-03
6.548461855791e-03
6.538583473136e-03
6.525789404472e-03
6.519558582699e-03
6.505594801887e-03
6.480922585225e-03
6.465638263649e-03
6.436152686278e-03
6.404928196422e-03
6.374862966833e-03
6.336263423550e-03
6.283259650768e-03
6.227540338208e-03
6.150454379562e-03
6.071958700282e-03
5.984917812713e-03
5.880318414735e-03
5.756939915301e-03
5.602676162170e-03
5.424207943225e-03
5.219611191275e-03
4.986314282628e-03
4.737383282162e-03
4.465796788273e-03
4.180986967367e-03
3.882515346299e-03
3.593948604920e-03
3.351326424679e-03
3.120705371154e-03
2.906899236649e-03
2.799198405623e-03
2.810984936559e-03
2.889297406428e-03
3.051826874793e-03
3.248812203649e-03
3.469804125377e-03
3.684936147756e-03
3.903696944990e-03
4.111376098601e-03
4.308184985139e-03
4.451732719367e-03
4.560499550799e-03
4.681191861989e-03
4.748415144910e-03
4.809012113807e-03
4.855035969874e-03
4.878407551640e-03
4.629277803132e-03
4.944090076874e-03
5.230548539094e-03
5.488607929728e-03
5.729701761872e-03
5.948335935268e-03
6.145916477580e-03
6.320915320071e-03
6.488128606223e-03
3.165294230988e-03
3.351738318771e-04
4.344899845322e-03
2.532370642281e-03
2.399939433668e-03
2.419611124684e-03
2.455529153853e-03
2.532851978779e-03
2.728685452597e-03
3.049771897298e-03
3.455692184938e-03
3.900254419581e-03
5.655340441948e-04
1.003610966894e-03
1.444366331820e-03
1.890359790761e-03
2.319128810932e-03
2.737142547129e-03
3.143376327098e-03
3.540468593180e-03
3.917291255104e-03
4.243784726626e-03
4.267952166895e-03
4.278364327684e-03
4.283898343967e-03
4.337405466774e-03
4.311054426137e-03
4.322246683367e-03
4.336466226297e-03
4.362896510479e-03
4.375566173977e-03
4.382146587967e-03
4.382681678321e-03
4.371991347417e-03
4.356103823153e-03
2.905254409172e-03
2.876468703801e-03
2.985236481246e-03
2.946790933040e-03
3.098579845528e-03
2.210852631101e-03
6.946270775066e-04
1.968131882093e-04
1.319301622005e-04
3.530661613736e-04
6.161647588746e-04
9.522972835564e-04
1.319503490327e-03
1.647447821305e-03
1.870397108056e-03
2.067142649513e-03
2.221444162245e-03
2.366959879989e-03
2.471770252841e-03
2.281197451527e-03
9.678928346031e-04
5.285765303406e-04
2.917115639859e-04
1.591536505821e-04
2.226905089632e-04
3.966535129683e-04
5.386048062515e-04
6.337477873149e-04
6.821945145765e-04
6.899421171263e-04
6.876183035717e-04
6.731074401246e-04
6.291902693540e-04
5.558764137440e-04
4.602638574734e-04
3.509277273015e-04
2.375145770852e-04
1.426571131974e-04
1.102692798882e-04
1.607260660112e-04
2.265842462070e-04
2.821776880212e-04
3.305477567299e-04
3.675565195934e-04
3.950117877625e-04
4.159004739435e-04
4.281718345639e-04
3.909394843393e-04
5.599510050290e-04
5.822871783719e-04
5.853167144772e-04
5.742014274050e-04
5.553279891352e-04
5.308384053570e-04
4.978438985015e-04
4.573628507385e-04
4.104776371796e-04
3.577263980669e-04
3.038479636155e-04
2.563135772863e-04
2.283549561985e-04
2.316639676477e-04
2.572620388021e-04
2.877897459511e-04
3.105990107699e-04
3.218040195779e-04
3.217310626674e-04
3.223568187736e-04
3.157976547430e-04
3.079360506200e-04
3.348303912451e-04
4.361617746181e-04
5.983052394920e-04
7.932798968300e-04
1.181214154678e-03
1.547873725176e-03
1.876152490250e-03
1.623137031537e-03
1.285736352472e-03
1.053850116249e-03
8.668940700452e-04
7.121792424208e-04
5.977241759197e-04
5.404504977534e-04
5.307331834536e-04
5.527297796230e-04
5.913051426969e-04
6.357177664143e-04
6.808474882092e-04
7.252212832998e-04
7.680928147897e-04
8.065264360157e-04
8.390265675733e-04
8.657257731740e-04
8.903417663314e-04
9.130395536372e-04
9.311323683034e-04
9.444928377558e-04
9.538678999764e-04
9.595142853312e-04
9.632166409878e-04
9.891685739486e-04
2.073607007732e-03
1.897775011206e-03
1.615048578519e-03
1.430532360867e-03
1.291261442170e-03
1.208233492206e-03
1.175053115296e-03
1.173776519685e-03
1.191476130447e-03
1.220042163809e-03
1.248624273553e-03
1.277298787602e-03
1.304186221774e-03
1.326571537338e-03
1.344000219514e-03
1.356687297472e-03
1.366905435530e-03
1.376112893191e-03
1.383603403179e-03
1.388777453562e-03
1.391950662943e-03
1.393703187168e-03
1.396618533178e-03
1.411719620594e-03
1.436973934455e-03
1.875618593840e-03
1.847054036673e-03
1.843883734471e-03
1.845044002475e-03
1.847839263467e-03
1.851030278487e-03
1.854147973832e-03
1.856784273244e-03
1.858903722279e-03
1.860015060595e-03
1.858468394693e-03
1.852703591979e-03
1.842087987138e-03
1.827769040859e-03
1.809574738444e-03
1.784193877233e-03
1.755529780338e-03
1.739074960997e-03
1.745828118565e-03
1.789549978621e-03
1.882469854876e-03
2.071988433884e-03
2.207024062338e-03
2.368278081458e-03
2.327156413288e-03
2.250863177917e-03
2.242125400798e-03
2.258792694942e-03
2.286764132270e-03
2.318019370483e-03
2.343103990209e-03
2.356452386011e-03
2.357815337008e-03
2.355464565728e-03
2.349487433335e-03
2.341198447566e-03
2.332062740448e-03
2.322825036144e-03
2.313584435831e-03
2.304936870205e-03
2.297660892722e-03
2.292431098738e-03
2.290675889297e-03
2.298826213508e-03
2.315278260168e-03
2.732684019850e-03
2.728465396788e-03
2.730534610197e-03
2.736237917457e-03
2.745669840053e-03
2.757682778434e-03
2.770710263589e-03
2.784320855012e-03
2.797942461069e-03
2.811244080440e-03
2.823275841023e-03
2.832492513017e-03
2.837526541175e-03
2.828365883560e-03
2.799357065587e-03
2.762858766972e-03
2.723485884897e-03
2.689028664893e-03
2.691817928213e-03
2.658181732811e-03
3.046258592637e-03
3.130887384075e-03
3.163184662460e-03
3.210958470876e-03
3.253868330735e-03
3.279559907070e-03
3.282561162377e-03
3.274119301392e-03
3.261765273630e-03
3.247309989655e-03
3.231543015074e-03
3.213855654382e-03
3.197014494440e-03
3.181347266807e-03
3.167146691151e-03
3.156986347012e-03
3.150778239461e-03
3.146846624316e-03
3.145309094258e-03
3.541925064068e-03
3.546703959719e-03
3.553142893863e-03
3.562455883942e-03
3.574892376824e-03
3.591476247006e-03
3.609794105114e-03
3.631232088491e-03
3.650186875830e-03
3.666152630189e-03
3.677132938265e-03
3.684230230716e-03
3.684832136789e-03
3.666213664956e-03
3.622518964378e-03
3.585160602119e-03
3.485077230769e-03
3.928104889710e-03
4.026583154849e-03
4.049350723749e-03
4.060348223307e-03
4.061368386093e-03
4.054632118373e-03
4.040355129000e-03
4.020669701163e-03
4.000105706624e-03
3.980608007316e-03
3.963821992926e-03
3.949829415781e-03
3.939985054281e-03
3.929718041504e-03
3.925888639388e-03
3.928383324770e-03
3.143444917019e-03
2.592540722057e-03
2.519273945462e-03
2.516390337642e-03
2.554525557680e-03
2.667782245556e-03
2.921481390964e-03
3.287032858473e-03
3.716070521088e-03
4.157285500090e-03
3.210069481861e-03
2.423641145256e-03
5.720860417881e-04
3.359664418562e-03
3.333649975689e-03
2.824440776404e-03
4.318029876327e-03
3.106370500960e-03
2.913590070228e-03
4.367085456552e-03
3.520869081769e-03
4.297026265511e-03
1.081506865863e-03
5.373468483914e-03
4.400995252784e-03
3.157442043472e-03
4.600849036200e-03
5.835602538371e-03
6.208058428724e-03
6.480448575719e-03
6.421620941079e-03
6.352090481526e-03
4.626409900100e-03
4.652281330676e-03
4.648518990292e-03
5.614052624549e-03
4.691099296466e-03
2.932986375574e-03
1.649172541434e-03
4.834224968173e-03
4.580007763081e-03
1.018518743576e-03
6.023165009383e-03
3.786919608631e-03
4.926338739394e-03
2.604274865764e-03
2.644589376189e-03
2.430291716255e-03
4.647730950087e-03
3.795356009204e-03
6.046756609314e-03
4.792690588835e-04
3.906095935025e-03
6.521201753895e-03
2.865808157233e-03
2.973897711846e-03
3.161097770797e-03
3.952329354704e-03
3.835615777806e-03
5.112701361292e-03
4.853020109494e-03
1.902664123268e-03
6.390963671508e-03
4.578396925122e-03
4.630800673534e-03
4.791507614685e-03
4.822016217220e-03
4.974752379070e-03
4.976951076594e-03
4.819498687508e-03
4.957439442320e-03
4.787240481084e-03
5.146165600302e-03
4.911310805220e-03
4.726050096066e-03
4.839308477424e-03
4.638690131188e-03
4.537098678220e-03
4.447693581849e-03
4.326326899423e-03
4.244160432206e-03
4.328639885381e-03
4.132198040712e-03
4.035231910148e-03
3.945824910634e-03
3.861962453820e-03
3.795354377866e-03
3.736140112888e-03
3.699800700539e-03
3.712307195410e-03
3.654135835706e-03
3.670248722003e-03
3.657147964668e-03
3.699010676292e-03
3.734295530945e-03
3.635240568246e-03
3.807667907692e-03
4.002051387485e-03
4.192398024066e-03
4.433388813924e-03
4.620687364514e-03
4.804469617585e-03
4.949453156912e-03
4.718407121909e-03
4.998158257099e-03
5.189908143450e-03
5.170180068433e-03
4.941703879871e-03
5.049667416349e-03
4.763605377502e-03
4.818411892704e-03
5.067793267474e-03
4.776133886767e-03
4.409981810232e-03
4.321116990114e-03
4.691151871972e-03
4.183987535786e-03
3.748574073647e-03
3.663383641642e-03
4.040141284987e-03
3.631956026077e-03
3.391269914324e-03
3.436664845085e-03
3.644416054189e-03
3.487310106593e-03
3.284898475120e-03
3.364738100530e-03
3.207865312194e-03
3.521489500164e-03
3.432887372581e-03
3.521726178407e-03
3.472138284985e-03
3.617462244099e-03
3.471350152804e-03
3.539322308286e-03
3.467933683332e-03
3.498927735679e-03
3.367539105474e-03
3.413737834261e-03
3.213095983388e-03
4.573510145793e-03
4.177436625556e-03
3.303689675837e-03
2.999870659575e-03
2.926078952923e-03
2.596685432886e-03
5.133862889138e-03
5.313674201581e-03
5.285358510132e-03
5.481042321989e-03
5.447054402125e-03
2.724480945428e-03
5.051272350740e-03
5.495080501471e-03
3.915773394056e-03
3.670888397722e-03
4.573939634940e-03
3.515764354512e-03
3.444088845704e-03
3.657836328306e-03
3.085264331751e-03
3.063148613089e-03
2.887700102257e-03
2.918142202260e-03
2.674101451876e-03
2.789480115124e-03
3.050837119632e-03
3.014106080456e-03
3.262959124540e-03
2.505585420284e-03
2.392407325758e-03
3.300735164491e-03
3.521909604332e-03
3.608762465631e-03
3.800563416532e-03
3.732782219154e-03
3.980972860951e-03
3.918305259080e-03
4.274739485254e-03
3.936020161514e-03
3.459994281632e-03
3.036940217669e-03
2.555877152341e-03
2.239179200445e-03
1.844241808804e-03
2.131673619633e-03
4.745346950566e-03
5.373080663396e-03
5.328611777104e-03
5.494877669966e-03
5.397687777176e-03
5.544342795219e-03
5.439215412193e-03
5.575661458570e-03
5.596969311083e-03
5.590972549788e-03
5.585336494806e-03
5.513603195490e-03
5.590211487827e-03
3.604234231808e-03
2.659055331061e-03
2.027794593657e-03
2.408265019125e-03
2.524910732217e-03
4.076416260528e-03
2.216158077832e-03
2.083162986619e-03
1.496568280911e-03
2.209224088729e-03
5.441935913135e-03
5.210940363176e-03
5.639720990068e-03
5.599153673830e-03
1.941295648402e-03
2.378915114714e-03
3.073190791775e-03
5.469053899475e-03
4.220314967309e-03
4.322310415914e-03
3.286508269023e-03
1.979781084686e-03
2.317614858404e-03
5.499364354352e-03
5.497966884431e-03
5.647844391379e-03
5.394102374604e-03
5.223154380770e-03
5.047976333265e-03
5.182539893412e-03
4.785059741695e-03
4.669635871191e-03
4.297147030290e-03
4.176433712463e-03
3.765434306929e-03
4.197336099779e-03
5.387925753319e-03
4.384199525451e-03
2.261197719504e-03
1.344840551137e-03
5.790551678614e-03
5.743005728288e-03
5.539576847407e-03
5.680358033448e-03
5.876927008148e-03
5.812509235656e-03
5.603584214334e-03
5.735519130007e-03
5.513424453882e-03
5.646786138494e-03
5.860671627894e-03
5.773474819061e-03
5.547144973900e-03
5.676907282333e-03
5.437305015466e-03
5.569890306271e-03
5.800265016365e-03
1.764429687684e-03
1.767572564872e-03
1.268229283833e-03
3.608468211711e-03
3.820373457462e-03
3.814336597720e-03
3.986725590113e-03
5.696717865551e-03
5.917935500047e-03
5.184447717065e-03
4.844054840452e-03
5.822525857673e-03
4.431013205069e-03
4.345462377166e-03
3.722318854914e-03
3.652598311839e-03
3.721451960896e-03
3.592552505403e-03
3.567558135312e-03
3.663218637659e-03
2.452554754532e-03
5.977712853618e-03
2.915804471419e-03
2.514840961534e-03
4.527545647931e-03
2.464822632667e-03
3.677769431139e-03
3.480548410830e-03
3.603425780671e-03
3.368725283746e-03
3.601652015580e-03
3.378028218967e-03
3.120567350910e-03
2.116699316920e-03
3.156587470638e-03
5.450383749529e-03
3.074281700564e-03
4.209266836806e-03
1.600078166240e-03
3.447687842978e-03
1.962269663059e-03
2.598462029057e-03
2.068940644314e-03
3.719491984169e-03
3.905509189273e-03
3.460587200999e-03
3.468028182959e-03
1.848854836173e-03
5.243570446511e-03
5.374985654555e-03
5.267462495801e-03
1.174627944438e-03
3.906328401258e-03
6.002021387237e-03
4.906139368280e-03
4.505576259738e-03
5.245806395006e-03
5.135196414272e-03
5.815998037443e-03
6.025564262248e-03
3.928744421450e-03
4.104818979426e-03
1.704126896685e-03
3.209313366845e-03
6.114636127026e-03
2.086159531696e-03
2.790597457639e-03
4.005110475984e-03
4.676701116861e-03
5.028824604993e-03
4.468206140890e-03
3.504120353900e-03
2.217199430149e-03
1.936359974805e-03
6.054623437870e-03
2.862019628330e-03
2.973289543912e-03
2.936043727627e-03
2.775915714197e-03
2.516845570071e-03
4.606605531611e-03
4.101074556490e-03
4.246191254481e-03
4.585075512557e-03
4.174839851625e-03
4.034184665287e-03
3.764466947330e-03
4.639942265668e-03
4.245830412716e-03
4.159395911339e-03
4.192534711218e-03
3.978495742135e-03
3.577272042910e-03
3.516567807765e-03
5.168812623601e-03
4.226838390559e-03
3.752874797830e-03
3.699137800298e-03
2.965887732957e-03
6.052236088931e-03
6.161301687959e-03
5.297757185878e-03
5.171877582174e-03
2.013181614278e-03
2.005783030578e-03
3.227762297396e-03
2.658482887820e-03
5.966059942703e-03
5.993920538757e-03
5.841380795355e-03
1.527107351795e-03
5.474118315748e-03
3.777699017126e-03
5.543591323817e-03
3.495252058152e-03
1.445370187243e-03
4.395182030352e-03
4.693516781174e-03
4.630834649150e-03
2.193065636402e-03
4.426376181140e-03
3.344050688058e-03
3.564543552184e-03
3.982675271944e-03
3.779879978865e-03
3.785380736777e-03
3.598121020820e-03
4.012847356443e-03
3.838001593671e-03
3.989340964732e-03
3.362328897091e-03
4.485332324128e-03
4.606744859091e-03
2.034211572111e-03
1.637957987319e-03
2.823474011005e-03
3.356476734964e-03
6.172757172007e-03
4.202273450689e-03
2.968956304992e-03
3.082092136319e-03
5.022745427294e-03
5.689036967020e-03
6.215994198294e-03
3.590715497763e-03
3.419357961436e-03
3.803523664354e-03
4.908799268439e-03
4.558528662050e-03
4.771366433571e-03
3.648880115734e-03
6.295581577086e-03
3.106237871344e-03
3.899505982266e-03
1.491575427710e-03
6.120293164353e-03
6.315717034645e-03
5.122789278649e-03
4.993239988588e-03
5.223190387792e-03
5.549774332503e-03
5.240675417925e-03
6.087883226126e-03
3.313212295346e-03
3.542043211325e-03
3.070857838324e-03
3.352015135771e-03
3.822744364392e-03
3.646293990865e-03
4.243765579509e-03
4.518867311865e-03
3.813558165203e-03
2.413917807709e-03
3.000220756558e-03
3.380472134355e-03
6.216384208500e-03
6.333233266899e-03
4.195912076970e-03
4.649301898957e-03
3.746214001410e-03
6.219322777688e-03
4.724781030098e-03
4.557615015257e-03
1.400575626922e-03
2.015529982158e-03
4.456296954995e-03
4.856048973322e-03
6.000163408584e-03
5.851087546316e-03
6.161808631663e-03
2.412752650983e-03
2.692980605138e-03
1.870217484653e-03
1.462283706026e-03
2.434630194163e-03
2.392037802595e-03
2.610250189063e-03
3.203329372526e-03
4.458535902031e-03
6.256384640875e-03
5.008198579538e-03
3.911270726391e-03
4.868336271148e-03
5.034369926422e-03
4.704445574529e-03
1.705307499185e-03
4.928477229280e-03
5.075808963556e-03
1.174839396408e-03
6.317351897350e-03
8.744588853573e-04
9.473736905393e-04
3.400747065974e-03
3.486556967723e-03
3.781193732146e-03
3.833486747084e-03
3.609686028350e-03
3.950478568691e-03
4.850365114780e-03
4.174758848689e-03
4.245864468533e-03
4.463490373340e-03
3.561821252807e-03
3.571190263346e-03
3.317474904712e-03
3.080562198580e-03
4.925080747569e-03
4.941592066826e-03
4.740917502885e-03
4.661792091469e-03
4.874915582347e-03
4.851614456525e-03
5.122235533006e-03
5.083509080874e-03
5.337482557743e-03
5.295642345535e-03
5.539250342933e-03
3.753924293922e-03
3.343865003031e-03
3.971360989068e-03
1.955311059114e-03
1.514413509443e-03
3.449250660757e-03
3.240516934374e-03
2.979692253491e-03
4.610606972064e-03
6.371188218566e-03
3.296105925827e-03
4.323049526852e-03
4.255986745384e-03
3.626112768837e-03
3.477669089749e-03
3.308456904340e-03
1.830923018714e-03
2.060815628154e-03
4.069300929029e-03
5.569800776656e-03
3.761476419929e-03
4.766936374594e-03
4.893281245247e-03
3.663676710746e-03
4.326959254516e-03
3.865449526301e-03
4.600971443116e-03
4.651336693851e-03
4.433906870341e-03
5.097096093006e-03
3.314433335570e-03
3.066420632818e-03
4.106054119469e-03
5.673424239278e-03
5.669063438603e-03
5.836075241776e-03
5.652017049978e-03
5.474044324957e-03
5.441183173851e-03
5.628669444906e-03
5.403481855639e-03
5.651074437396e-03
5.345981426808e-03
5.145601369237e-03
5.069332755003e-03
5.270412717508e-03
4.889003949535e-03
2.482253736395e-03
4.165957369994e-03
4.720855573893e-03
5.171218892456e-03
3.763545013998e-03
5.942904891251e-03
6.144128241810e-03
5.204057115581e-03
5.161349235806e-03
4.420102290383e-03
5.567556653014e-03
4.658468953787e-03
5.492976452263e-03
5.300657814204e-03
5.317765860087e-03
6.270556033851e-03
5.316483472315e-03
3.485065242983e-03
3.490214666797e-03
3.795509939721e-03
4.336746007154e-03
5.211289357888e-03
2.476203331822e-03
1.847279261330e-03
1.847923805877e-03
1.344235512166e-03
2.481528132793e-03
5.719347433059e-03
5.573214475488e-03
4.880417377370e-03
5.016734384025e-03
4.810911758194e-03
5.142680887692e-03
5.318180911209e-03
5.384928341563e-03
5.266378675002e-03
5.534856043429e-03
4.702813577804e-03
2.856812426691e-03
2.695078435320e-03
2.846790015950e-03
3.139017454972e-03
3.600528689063e-03
3.504653945649e-03
3.503453668437e-03
3.654228310811e-03
3.240131248864e-03
3.087152312007e-03
3.240459821863e-03
3.425194425719e-03
4.648386067060e-03
4.855432186171e-03
4.841044358706e-03
5.058623001601e-03
4.905763556604e-03
4.009395791008e-03
4.188434870518e-03
4.264880427249e-03
4.351019975345e-03
4.400057414479e-03
4.301148546625e-03
4.494866199558e-03
4.501539614558e-03
4.654354073245e-03
3.432627794193e-03
4.429946616699e-03
3.324419650551e-03
4.576811748111e-03
5.248087449500e-03
5.071793945152e-03
5.755528202372e-03
4.966900519131e-03
1.340548544026e-03
2.318529459693e-03
8.319751137994e-04
1.711172710589e-03
2.893884359744e-03
2.568609290534e-03
4.780556785524e-03
4.140558865366e-03
4.008210500585e-03
3.752901266825e-03
3.839065363706e-03
4.196495989535e-03
3.587073340213e-03
3.420041471739e-03
1.772173181521e-03
1.040292926758e-03
1.182870046919e-03
5.703150908430e-04
5.951945143929e-04
9.826282524704e-04
8.840431300322e-04
1.480249947261e-03
7.876094267192e-04
7.288033810904e-04
1.298386238506e-03
5.844343107217e-03
5.958215934389e-03
3.569134905998e-03
4.670300144991e-03
4.490586573924e-04
6.468726771965e-03
6.455886741321e-03
6.471771107504e-03
4.890568807591e-03
4.873318857995e-03
6.483781806030e-03
3.190477670130e-03
5.835942211880e-03
6.191119946070e-03
5.478698119096e-03
3.633752190197e-03
4.523476335129e-03
3.493886600181e-03
4.437846923362e-03
4.137441727137e-03
3.914878441546e-03
1.954818278237e-03
1.487473911521e-03
5.409688096589e-03
5.317219671790e-03
5.893811858086e-03
3.136360910698e-03
4.159647837982e-03
2.075313767519e-03
4.445804778394e-03
3.955265005016e-03
3.206368214228e-03
3.532469446965e-03
3.394349403824e-03
3.882115707513e-03
3.825326551858e-03
3.324193787033e-03
2.750689712338e-03
6.007554729355e-03
7.310314032600e-04
2.494181745830e-03
3.135926496465e-03
5.465138997363e-03
1.660243719457e-03
4.685456778330e-03
5.936408985425e-03
6.119736617096e-03
5.165924451993e-03
1.476491325082e-03
5.146268703018e-03
2.413328190939e-03
5.664606776538e-03
2.902846069411e-03
4.416568663261e-03
3.671292389377e-03
4.178376552197e-03
6.253264106546e-03
3.896609914816e-03
1.152096999468e-03
2.923940790264e-03
3.111004832741e-03
3.240369243827e-03
4.709833054289e-03
6.118035511332e-03
3.811709883018e-03
5.278475274694e-03
5.927985860158e-03
3.370608490419e-03
1.655036872543e-03
3.779844831322e-03
3.831343769169e-03
4.526995606113e-03
3.590293372390e-03
4.585411144604e-03
2.852232601272e-03
5.589546768141e-03
3.917739309095e-03
5.391268304687e-03
3.521570920949e-03
6.279799065193e-03
3.630179125677e-03
3.420114864451e-03
6.093574712399e-03
3.376890521496e-03
1.917686855458e-03
5.351239767134e-03
5.549732812725e-03
4.317138725126e-03
3.331632931358e-03
6.027234279763e-03
3.757277578291e-03
1.774964372602e-03
3.424862912876e-03
4.197596952840e-03
4.068443747484e-03
3.889472596325e-03
1.384451702171e-03
4.410767380880e-03
4.138281071036e-03
3.386481593343e-03
4.346055133685e-03
1.520644151642e-03
4.917253993098e-03
4.573197128085e-03
4.520465018053e-03
1.271736710516e-03
3.448184553100e-03
3.838722443439e-03
3.734941114998e-03
3.496788782324e-03
3.988682621145e-03
6.317191747404e-03
1.182354199842e-03
5.136212265012e-03
3.676158098670e-03
2.783143958676e-03
6.217121209394e-04
3.762872927782e-03
3.872093869602e-03
5.467691514663e-03
3.379644594867e-03
2.522126635053e-03
4.072088529712e-03
5.311717906449e-03
4.263117828477e-03
3.332378171580e-03
5.105944423552e-03
4.441506640364e-03
4.001953155310e-03
9.269947720694e-04
3.234783444488e-03
4.814355428944e-03
3.618043794505e-03
3.087803144013e-03
5.266275383441e-03
3.023837961430e-03
2.677765296570e-03
4.079395650699e-03
2.970200935804e-03
3.918806022461e-03
2.153487066395e-03
3.152288147877e-03
3.242393446614e-03
2.967023951650e-03
5.043740137106e-03
4.388196687877e-03
9.738047461948e-04
4.977894377737e-03
2.637680071653e-03
4.958148208518e-03
2.402663210002e-03
5.379288903888e-03
4.568298030885e-03
2.600547795913e-03
4.395323874397e-03
3.396839583266e-03
3.915472909958e-03
3.817182830507e-03
6.350056920925e-03
3.649310951204e-03
6.514748328637e-03
4.887956730876e-03
4.811254208611e-03
2.807349148052e-03
2.909629747417e-03
3.138565055190e-03
3.653993524200e-03
4.637381219982e-03
4.826362293822e-03
3.496394545596e-03
5.545086826410e-03
4.087892913456e-03
5.736473393584e-03
1.234069725010e-03
2.658343006164e-03
6.221481761468e-03
4.579856750104e-03
1.362081200185e-03
4.692358615300e-03
2.764385037725e-03
3.203979413994e-03
3.525388064351e-03
3.283399984740e-03
3.672170043541e-03
2.887388111980e-03
1.912704817858e-03
4.881098454012e-03
2.616905589536e-03
3.084716877134e-03
6.238030503336e-03
3.161282362834e-03
4.111357235425e-03
2.760968632119e-03
4.154624727067e-03
5.053032471335e-03
4.712655633687e-03
5.914642314901e-03
4.437018709050e-03
4.844604345170e-03
6.380981913299e-03
5.871996758213e-03
6.389006143556e-03
4.797080091613e-03
5.196326035394e-03
4.964597692117e-03
4.820826519417e-03
5.820897556447e-03
4.695551738422e-03
5.727842138028e-03
3.786228652057e-03
4.576474004262e-03
3.334281221075e-03
4.990024119233e-03
4.665581080071e-03
5.694691877838e-04
7.561567061866e-04
2.837139210805e-03
5.242108420664e-03
5.580622297877e-03
6.438478148544e-03
4.433598530565e-03
4.568460745215e-03
7.551866963206e-04
4.615324449214e-03
6.344053166072e-03
4.083753979352e-03
4.603312103508e-03
2.981619421970e-03
3.737701129803e-03
2.219851837442e-03
6.384721158837e-03
2.321814507583e-03
6.137877229045e-03
3.031114645348e-03
3.961216136226e-03
3.585566861137e-03
1.490186167360e-03
4.563294305134e-03
5.970341774839e-03
3.601926243092e-03
1.195899734217e-03
6.529868318716e-03
2.114756488652e-03
4.523767196821e-03
4.913458021736e-03
8.801085143309e-04
5.034652815442e-03
5.430076871358e-03
4.460757214760e-03
6.112261205510e-03
4.423192404623e-03
2.886066294783e-03
5.516954519481e-03
2.951787751668e-03
6.248064105894e-03
5.343727174278e-03
5.210564491629e-03
5.182921881127e-03
4.189451245283e-03
4.360266410615e-03
1.497793727353e-03
3.622461393795e-03
4.544843199694e-03
7.260081419777e-04
4.030856220646e-03
4.298881437648e-03
2.085273585048e-03
3.839148045853e-04
2.112285130516e-03
7.685175944216e-04
2.206196975848e-03
1.237384521970e-03
2.324628502636e-03
1.652069880026e-03
2.404845964797e-03
2.120358811680e-03
2.579287609395e-03
2.514899693972e-03
2.883056430667e-03
2.954242868119e-03
3.279465053615e-03
3.332256598928e-03
3.720698618856e-03
3.745251111444e-03
4.154932802160e-03
4.095691515922e-03


CELL_DATA 2424

SCALARS element_number int
LOOKUP_TABLE default
407
408
409
410
411
412
413
414
415
416
417
418
419
420
421
422
423
424
425
426
427
428
429
430
431
432
433
434
435
436
437
438
439
440
441
442
443
444
445
446
447
448
449
450
451
452
453
454
455
456
457
458
459
460
461
462
463
464
465
466
467
468
469
470
471
472
473
474
475
476
477
478
479
480
481
482
483
484
485
486
487
488
489
490
491
492
493
494
495
496
497
498
499
500
501
502
503
504
505
506
507
508
509
510
511
512
513
514
515
516
517
518
519
520
521
522
523
524
525
526
527
528
529
530
531
532
533
534
535
536
537
538
539
540
541
542
543
544
545
546
547
548
549
550
551
552
553
554
555
556
557
558
559
560
561
562
563
564
565
566
567
568
569
570
571
572
573
574
575
576
577
578
579
580
581
582
583
584
585
586
587
588
589
590
591
592
593
594
595
596
597
598
599
600
601
602
603
604
605
606
607
608
609
610
611
612
613
614
615
616
617
618
619
620
621
622
623
624
625
626
627
628
629
630
631
632
633
634
635
636
637
638
639
640
641
642
643
644
645
646
647
648
649
650
651
652
653
654
655
656
657
658
659
660
661
662
663
664
665
666
667
668
669
670
671
672
673
674
675
676
677
678
679
680
681
682
683
684
685
686
687
688
689
690
691
692
693
694
695
696
697
698
699
700
701
702
703
704
705
706
707
708
709
710
711
712
713
714
715
716
717
718
719
720
721
722
723
724
725
726
727
728
729
730
731
732
733
734
735
736
737
738
739
740
741
742
743
744
745
746
747
748
749
750
751
752
753
754
755
756
757
758
759
760
761
762
763
764
765
766
767
768
769
770
771
772
773
774
775
776
777
778
779
780
781
782
783
784
785
786
787
788
789
790
791
792
793
794
795
796
797
798
799
800
801
802
803
804
805
806
807
808
809
810
811
812
813
814
815
816
817
818
819
820
821
822
823
824
825
826
827
828
829
830
831
832
833
834
835
836
837
838
839
840
841
842
843
844
845
846
847
848
849
850
851
852
853
854
855
856
857
858
859
860
861
862
863
864
865
866
867
868
869
870
871
872
873
874
875
876
877
878
879
880
881
882
883
884
885
886
887
888
889
890
891
892
893
894
895
896
897
898
899
900
901
902
903
904
905
906
907
908
909
910
911
912
913
914
915
916
917
918
919
920
921
922
923
924
925
926
927
928
929
930
931
932
933
934
935
936
937
938
939
940
941
942
943
944
945
946
947
948
949
950
951
952
953
954
955
956
957
958
959
960
961
962
963
964
965
966
967
968
969
970
971
972
973
974
975
976
977
978
979
980
981
982
983
984
985
986
987
988
989
990
991
992
993
994
995
996
997
998
999
1000
1001
1002
1003
1004
1005
1006
1007
1008
1009
1010
1011
1012
1013
1014
1015
1016
1017
1018
1019
1020
1021
1022
1023
1024
1025
1026
1027
1028
1029
1030
1031
1032
1033
1034
1035
1036
1037
1038
1039
1040
1041
1042
1043
1044
1045
1046
1047
1048
1049
1050
1051
1052
1053
1054
1055
1056
1057
1058
1059
1060
1061
1062
1063
1064
1065
1066
1067
1068
1069
1070
1071
1072
1073
1074
1075
1076
1077
1078
1079
1080
1081
1082
1083
1084
1085
1086
1087
1088
1089
1090
1091
1092
1093
1094
1095
1096
1097
1098
1099
1100
1101
1102
1103
1104
1105
1106
1107
1108
1109
1110
1111
1112
1113
1114
1115
1116
1117
1118
1119
1120
1121
1122
1123
1124
1125
1126
1127
1128
1129
1130
1131
1132
1133
1134
1135
1136
1137
1138
1139
1140
1141
1142
1143
1144
1145
1146
1147
1148
1149
1150
1151
1152
1153
1154
1155
1156
1157
1158
1159
1160
1161
1162
1163
1164
1165
1166
1167
1168
1169
1170
1171
1172
1173
1174
1175
1176
1177
1178
1179
1180
1181
1182
1183
1184
1185
1186
1187
1188
1189
1190
1191
1192
1193
1194
1195
1196
1197
1198
1199
1200
1201
1202
1203
1204
1205
1206
1207
1208
1209
1210
1211
1212
1213
1214
1215
1216
1217
1218
1219
1220
1221
1222
1223
1224
1225
1226
1227
1228
1229
1230
1231
1232
1233
1234
1235
1236
1237
1238
1239
1240
1241
1242
1243
1244
1245
1246
1247
1248
1249
1250
1251
1252
1253
1254
1255
1256
1257
1258
1259
1260
1261
1262
1263
1264
1265
1266
1267
1268
1269
1270
1271
1272
1273
1274
1275
1276
1277
1278
1279
1280
1281
1282
1283
1284
1285
1286
1287
1288
1289
1290
1291
1292
1293
1294
1295
1296
1297
1298
1299
1300
1301
1302
1303
1304
1305
1306
1307
1308
1309
1310
1311
1312
1313
1314
1315
1316
1317
1318
1319
1320
1321
1322
1323
1324
1325
1326
1327
1328
1329
1330
1331
1332
1333
1334
1335
1336
1337
1338
1339
1340
1341
1342
1343
1344
1345
1346
1347
1348
1349
1350
1351
1352
1353
1354
1355
1356
1357
1358
1359
1360
1361
1362
1363
1364
1365
1366
1367
1368
1369
1370
1371
1372
1373
1374
1375
1376
1377
1378
1379
1380
1381
1382
1383
1384
1385
1386
1387
1388
1389
1390
1391
1392
1393
1394
1395
1396
1397
1398
1399
1400
1401
1402
1403
1404
1405
1406
1407
1408
1409
1410
1411
1412
1413
1414
1415
1416
1417
1418
1419
1420
1421
1422
1423
1424
1425
1426
1427
1428
1429
1430
1431
1432
1433
1434
1435
1436
1437
1438
1439
1440
1441
1442
1443
1444
1445
1446
1447
1448
1449
1450
1451
1452
1453
1454
1455
1456
1457
1458
1459
1460
1461
1462
1463
1464
1465
1466
1467
1468
1469
1470
1471
1472
1473
1474
1475
1476
1477
1478
1479
1480
1481
1482
1483
1484
1485
1486
1487
1488
1489
1490
1491
1492
1493
1494
1495
1496
1497
1498
1499
1500
1501
1502
1503
1504
1505
1506
1507
1508
1509
1510
1511
1512
1513
1514
1515
1516
1517
1518
1519
1520
1521
1522
1523
1524
1525
1526
1527
1528
1529
1530
1531
1532
1533
1534
1535
1536
1537
1538
1539
1540
1541
1542
1543
1544
1545
1546
1547
1548
1549
1550
1551
1552
1553
1554
1555
1556
1557
1558
1559
1560
1561
1562
1563
1564
1565
1566
1567
1568
1569
1570
1571
1572
1573
1574
1575
1576
1577
1578
1579
1580
1581
1582
1583
1584
1585
1586
1587
1588
1589
1590
1591
1592
1593
1594
1595
1596
1597
1598
1599
1600
1601
1602
1603
1604
1605
1606
1607
1608
1609
1610
1611
1612
1613
1614
1615
1616
1617
1618
1619
1620
1621
1622
1623
1624
1625
1626
1627
1628
1629
1630
1631
1632
1633
1634
1635
1636
1637
1638
1639
1640
1641
1642
1643
1644
1645
1646
1647
1648
1649
1650
1651
1652
1653
1654
1655
1656
1657
1658
1659
1660
1661
1662
1663
1664
1665
1666
1667
1668
1669
1670
1671
1672
1673
1674
1675
1676
1677
1678
1679
1680
1681
1682
1683
1684
1685
1686
1687
1688
1689
1690
1691
1692
1693
1694
1695
1696
1697
1698
1699
1700
1701
1702
1703
1704
1705
1706
1707
1708
1709
1710
1711
1712
1713
1714
1715
1716
1717
1718
1719
1720
1721
1722
1723
1724
1725
1726
1727
1728
1729
1730
1731
1732
1733
1734
1735
1736
1737
1738
1739
1740
1741
1742
1743
1744
1745
1746
1747
1748
1749
1750
1751
1752
1753
1754
1755
1756
1757
1758
1759
1760
1761
1762
1763
1764
1765
1766
1767
1768
1769
1770
1771
1772
1773
1774
1775
1776
1777
1778
1779
1780
1781
1782
1783
1784
1785
1786
1787
1788
1789
1790
1791
1792
1793
1794
1795
1796
1797
1798
1799
1800
1801
1802
1803
1804
1805
1806
1807
1808
1809
1810
1811
1812
1813
1814
1815
1816
1817
1818
1819
1820
1821
1822
1823
1824
1825
1826
1827
1828
1829
1830
1831
1832
1833
1834
1835
1836
1837
1838
1839
1840
1841
1842
1843
1844
1845
1846
1847
1848
1849
1850
1851
1852
1853
1854
1855
1856
1857
1858
1859
1860
1861
1862
1863
1864
1865
1866
1867
1868
1869
1870
1871
1872
1873
1874
1875
1876
1877
1878
1879
1880
1881
1882
1883
1884
1885
1886
1887
1888
1889
1890
1891
1892
1893
1894
1895
1896
1897
1898
1899
1900
1901
1902
1903
1904
1905
1906
1907
1908
1909
1910
1911
1912
1913
1914
1915
1916
1917
1918
1919
1920
1921
1922
1923
1924
1925
1926
1927
1928
1929
1930
1931
1932
1933
1934
1935
1936
1937
1938
1939
1940
1941
1942
1943
1944
1945
1946
1947
1948
1949
1950
1951
1952
1953
1954
1955
1956
1957
1958
1959
1960
1961
1962
1963
1964
1965
1966
1967
1968
1969
1970
1971
1972
1973
1974
1975
1976
1977
1978
1979
1980
1981
1982
1983
1984
1985
1986
1987
1988
1989
1990
1991
1992
1993
1994
1995
1996
1997
1998
1999
2000
2001
2002
2003
2004
2005
2006
2007
2008
2009
2010
2011
2012
2013
2014
2015
2016
2017
2018
2019
2020
2021
2022
2023
2024
2025
2026
2027
2028
2029
2030
2031
2032
2033
2034
2035
2036
2037
2038
2039
2040
2041
2042
2043
2044
2045
2046
2047
2048
2049
2050
2051
2052
2053
2054
2055
2056
2057
2058
2059
2060
2061
2062
2063
2064
2065
2066
2067
2068
2069
2070
2071
2072
2073
2074
2075
2076
2077
2078
2079
2080
2081
2082
2083
2084
2085
2086
2087
2088
2089
2090
2091
2092
2093
2094
2095
2096
2097
2098
2099
2100
2101
2102
2103
2104
2105
2106
2107
2108
2109
2110
2111
2112
2113
2114
2115
2116
2117
2118
2119
2120
2121
2122
2123
2124
2125
2126
2127
2128
2129
2130
2131
2132
2133
2134
2135
2136
2137
2138
2139
2140
2141
2142
2143
2144
2145
2146
2147
2148
2149
2150
2151
2152
2153
2154
2155
2156
2157
2158
2159
2160
2161
2162
2163
2164
2165
2166
2167
2168
2169
2170
2171
2172
2173
2174
2175
2176
2177
2178
2179
2180
2181
2182
2183
2184
2185
2186
2187
2188
2189
2190
2191
2192
2193
2194
2195
2196
2197
2198
2199
2200
2201
2202
2203
2204
2205
2206
2207
2208
2209
2210
2211
2212
2213
2214
2215
2216
2217
2218
2219
2220
2221
2222
2223
2224
2225
2226
2227
2228
2229
2230
2231
2232
2233
2234
2235
2236
2237
2238
2239
2240
2241
2242
2243
2244
2245
2246
2247
2248
2249
2250
2251
2252
2253
2254
2255
2256
2257
2258
2259
2260
2261
2262
2263
2264
2265
2266
2267
2268
2269
2270
2271
2272
2273
2274
2275
2276
2277
2278
2279
2280
2281
2282
2283
2284
2285
2286
2287
2288
2289
2290
2291
2292
2293
2294
2295
2296
2297
2298
2299
2300
2301
2302
2303
2304
2305
2306
2307
2308
2309
2310
2311
2312
2313
2314
2315
2316
2317
2318
2319
2320
2321
2322
2323
2324
2325
2326
2327
2328
2329
2330
2331
2332
2333
2334
2335
2336
2337
2338
2339
2340
2341
2342
2343
2344
2345
2346
2347
2348
2349
2350
2351
2352
2353
2354
2355
2356
2357
2358
2359
2360
2361
2362
2363
2364
2365
2366
2367
2368
2369
2370
2371
2372
2373
2374
2375
2376
2377
2378
2379
2380
2381
2382
2383
2384
2385
2386
2387
2388
2389
2390
2391
2392
2393
2394
2395
2396
2397
2398
2399
2400
2401
2402
2403
2404
2405
2406
2407
2408
2409
2410
2411
2412
2413
2414
2415
2416
2417
2418
2419
2420
2421
2422
2423
2424
2425
2426
2427
2428
2429
2430
2431
2432
2433
2434
2435
2436
2437
2438
2439
2440
2441
2442
2443
2444
2445
2446
2447
2448
2449
2450
2451
2452
2453
2454
2455
2456
2457
2458
2459
2460
2461
2462
2463
2464
2465
2466
2467
2468
2469
2470
2471
2472
2473
2474
2475
2476
2477
2478
2479
2480
2481
2482
2483
2484
2485
2486
2487
2488
2489
2490
2491
2492
2493
2494
2495
2496
2497
2498
2499
2500
2501
2502
2503
2504
2505
2506
2507
2508
2509
2510
2511
2512
2513
2514
2515
2516
2517
2518
2519
2520
2521
2522
2523
2524
2525
2526
2527
2528
2529
2530
2531
2532
2533
2534
2535
2536
2537
2538
2539
2540
2541
2542
2543
2544
2545
2546
2547
2548
2549
2550
2551
2552
2553
2554
2555
2556
2557
2558
2559
2560
2561
2562
2563
2564
2565
2566
2567
2568
2569
2570
2571
2572
2573
2574
2575
2576
2577
2578
2579
2580
2581
2582
2583
2584
2585
2586
2587
2588
2589
2590
2591
2592
2593
2594
2595
2596
2597
2598
2599
2600
2601
2602
2603
2604
2605
2606
2607
2608
2609
2610
2611
2612
2613
2614
2615
2616
2617
2618
2619
2620
2621
2622
2623
2624
2625
2626
2627
2628
2629
2630
2631
2632
2633
2634
2635
2636
2637
2638
2639
2640
2641
2642
2643
2644
2645
2646
2647
2648
2649
2650
2651
2652
2653
2654
2655
2656
2657
2658
2659
2660
2661
2662
2663
2664
2665
2666
2667
2668
2669
2670
2671
2672
2673
2674
2675
2676
2677
2678
2679
2680
2681
2682
2683
2684
2685
2686
2687
2688
2689
2690
2691
2692
2693
2694
2695
2696
2697
2698
2699
2700
2701
2702
2703
2704
2705
2706
2707
2708
2709
2710
2711
2712
2713
2714
2715
2716
2717
2718
2719
2720
2721
2722
2723
2724
2725
2726
2727
2728
2729
2730
2731
2732
2733
2734
2735
2736
2737
2738
2739
2740
2741
2742
2743
2744
2745
2746
2747
2748
2749
2750
2751
2752
2753
2754
2755
2756
2757
2758
2759
2760
2761
2762
2763
2764
2765
2766
2767
2768
2769
2770
2771
2772
2773
2774
2775
2776
2777
2778
2779
2780
2781
2782
2783
2784
2785
2786
2787
2788
2789
2790
2791
2792
2793
2794
2795
2796
2797
2798
2799
2800
2801
2802
2803
2804
2805
2806
2807
2808
2809
2810
2811
2812
2813
2814
2815
2816
2817
2818
2819
2820
2821
2822
2823
2824
2825
2826
2827
2828
2829
2830

SCALARS element_group int
LOOKUP_TABLE default
0
0
0
0
0
0
0
0
0
0
0
0
0
0
0
0
0
0
0
0
0
0
0
0
0
0
0
0
0
0
0
0
0
0
0
0
0
0
0
0
0
0
0
0
0
0
0
0
0
0
0
0
0
0
0
0
0
0
0
0
0
0
0
0
0
0
0
0
0
0
0
0
0
0
0
0
0
0
0
0
0
0
0
0
0
0
0
0
0
0
0
0
0
0
0
0
0
0
0
0
0
0
0
0
0
0
0
0
0
0
0
0
0
0
0
0
0
0
0
0
0
0
0
0
0
0
0
0
0
0
0
0
0
0
0
0
0
0
0
0
0
0
0
0
0
0
0
0
0
0
0
0
0
0
0
0
0
0
0
0
0
0
0
0
0
0
0
0
0
0
0
0
0
0
0
0
0
0
0
0
0
0
0
0
0
0
0
0
0
0
0
0
0
0
0
0
0
0
0
0
0
0
0
0
0
0
0
0
0
0
0
0
0
0
0
0
0
0
0
0
0
0
0
0
0
0
0
0
0
0
0
0
0
0
0
0
0
0
0
0
0
0
0
0
0
0
0
0
0
0
0
0
0
0
0
0
0
0
0
0
0
0
0
0
0
0
0
0
0
0
0
0
0
0
0
0
0
0
0
0
0
0
0
0
0
0
0
0
0
0
0
0
0
0
0
0
0
0
0
0
0
0
0
0
0
0
0
0
0
0
0
0
0
0
0
0
0
0
0
0
0
0
0
0
0
0
0
0
0
0
0
0
0
0
0
0
0
0
0
0
0
0
0
0
0
0
0
0
0
0
0
0
0
0
0
0
0
0
0
0
0
0
0
0
0
0
0
0
0
0
0
0
0
0
0
0
0
0
0
0
0
0
0
0
0
0
0
0
0
0
0
0
0
0
0
0
0
0
0
0
0
0
0
0
0
0
0
0
0
0
0
0
0
0
0
0
0
0
0
0
0
0
0
0
0
0
0
0
0
0
0
0
0
0
0
0
0
0
0
0
0
0
0
0
0
0
0
0
0
0
0
0
0
0
0
0
0
0
0
0
0
0
0
0
0
0
0
0
0
0
0
0
0
0
0
0
0
0
0
0
0
0
0
0
0
0
0
0
0
0
0
0
0
0
0
0
0
0
0
0
0
0
0
0
0
0
0
0
0
0
0
0
0
0
0
0
0
0
0
0
0
0
0
0
0
0
0
0
0
0
0
0
0
0
0
0
0
0
0
0
0
0
0
0
0
0
0
0
0
0
0
0
0
0
0
0
0
0
0
0
0
0
0
0
0
0
0
0
0
0
0
0
0
0
0
0
0
0
0
0
0
0
0
0
0
0
0
0
0
0
0
0
0
0
0
0
0
0
0
0
0
0
0
0
0
0
0
0
0
0
0
0
0
0
0
0
0
0
0
0
0
0
0
0
0
0
0
0
0
0
0
0
0
0
0
0
0
0
0
0
0
0
0
0
0
0
0
0
0
0
0
0
0
0
0
0
0
0
0
0
0
0
0
0
0
0
0
0
0
0
0
0
0
0
0
0
0
0
0
0
0
0
0
0
0
0
0
0
0
0
0
0
0
0
0
0
0
0
0
0
0
0
0
0
0
0
0
0
0
0
0
0
0
0
0
0
0
0
0
0
0
0
0
0
0
0
0
0
0
0
0
0
0
0
0
0
0
0
0
0
0
0
0
0
0
0
0
0
0
0
0
0
0
0
0
0
0
0
0
0
0
0
0
0
0
0
0
0
0
0
0
0
0
0
0
0
0
0
0
0
0
0
0
0
0
0
0
0
0
0
0
0
0
0
0
0
0
0
0
0
0
0
0
0
0
0
0
0
0
0
0
0
0
0
0
0
0
0
0
0
0
0
0
0
0
0
0
0
0
0
0
0
0
0
0
0
0
0
0
0
0
0
0
0
0
0
0
0
0
0
0
0
0
0
0
0
0
0
0
0
0
0
0
0
0
0
0
0
0
0
0
0
0
0
0
0
0
0
0
0
0
0
0
0
0
0
0
0
0
0
0
0
0
0
0
0
0
0
0
0
0
0
0
0
0
0
0
0
0
0
0
0
0
0
0
0
0
0
0
0
0
0
0
0
0
0
0
0
0
0
0
0
0
0
0
0
0
0
0
0
0
0
0
0
0
0
0
0
0
0
0
0
0
0
0
0
0
0
0
0
0
0
0
0
0
0
0
0
0
0
0
0
0
0
0
0
0
0
0
0
0
0
0
0
0
0
0
0
0
0
0
0
0
0
0
0
0
0
0
0
0
0
0
0
0
0
0
0
0
0
0
0
0
0
0
0
0
0
0
0
0
0
0
0
0
0
0
0
0
0
0
0
0
0
0
0
0
0
0
0
0
0
0
0
0
0
0
0
0
0
0
0
0
0
0
0
0
0
0
0
0
0
0
0
0
0
0
0
0
0
0
0
0
0
0
0
0
0
0
0
0
0
0
0
0
0
0
0
0
0
0
0
0
0
0
0
0
0
0
0
0
0
0
0
0
0
0
0
0
0
0
0
0
0
0
0
0
0
0
0
0
0
0
0
0
0
0
0
0
0
0
0
0
0
0
0
0
0
0
0
0
0
0
0
0
0
0
0
0
0
0
0
0
0
0
0
0
0
0
0
0
0
0
0
0
0
0
0
0
0
0
0
0
0
0
0
0
0
0
0
0
0
0
0
0
0
0
0
0
0
0
0
0
0
0
0
0
0
0
0
0
0
0
0
0
0
0
0
0
0
0
0
0
0
0
0
0
0
0
0
0
0
0
0
0
0
0
0
0
0
0
0
0
0
0
0
0
0
0
0
0
0
0
0
0
0
0
0
0
0
0
0
0
0
0
0
0
0
0
0
0
0
0
0
0
0
0
0
0
0
0
0
0
0
0
0
0
0
0
0
0
0
0
0
0
0
0
0
0
0
0
0
0
0
0
0
0
0
0
0
0
0
0
0
0
0
0
0
0
0
0
0
0
0
0
0
0
0
0
0
0
0
0
0
0
0
0
0
0
0
0
0
0
0
0
0
0
0
0
0
0
0
0
0
0
0
0
0
0
0
0
0
0
0
0
0
0
0
0
0
0
0
0
0
0
0
0
0
0
0
0
0
0
0
0
0
0
0
0
0
0
0
0
0
0
0
0
0
0
0
0
0
0
0
0
0
0
0
0
0
0
0
0
0
0
0
0
0
0
0
0
0
0
0
0
0
0
0
0
0
0
0
0
0
0
0
0
0
0
0
0
0
0
0
0
0
0
0
0
0
0
0
0
0
0
0
0
0
0
0
0
0
0
0
0
0
0
0
0
0
0
0
0
0
0
0
0
0
0
0
0
0
0
0
0
0
0
0
0
0
0
0
0
0
0
0
0
0
0
0
0
0
0
0
0
0
0
0
0
0
0
0
0
0
0
0
0
0
0
0
0
0
0
0
0
0
0
0
0
0
0
0
0
0
0
0
0
0
0
0
0
0
0
0
0
0
0
0
0
0
0
0
0
0
0
0
0
0
0
0
0
0
0
0
0
0
0
0
0
0
0
0
0
0
0
0
0
0
0
0
0
0
0
0
0
0
0
0
0
0
0
0
0
0
0
0
0
0
0
0
0
0
0
0
0
0
0
0
0
0
0
0
0
0
0
0
0
0
0
0
0
0
0
0
0
0
0
0
0
0
0
0
0
0
0
0
0
0
0
0
0
0
0
0
0
0
0
0
0
0
0
0
0
0
0
0
0
0
0
0
0
0
0
0
0
0
0
0
0
0
0
0
0
0
0
0
0
0
0
0
0
0
0
0
0
0
0
0
0
0
0
0
0
0
0
0
0
0
0
0
0
0
0
0
0
0
0
0
0
0
0
0
0
0
0
0
0
0
0
0
0
0
0
0
0
0
0
0
0
0
0
0
0
0
0
0
0
0
0
0
0
0
0
0
0
0
0
0
0
0
0
0
0
0
0
0
0
0
0
0
0
0
0
0
0
0
0
0
0
0
0
0
0
0
0
0
0
0
0
0
0
0
0
0
0
0
0
0
0
0
0
0
0
0
0
0
0
0
0
0
0
0
0
0
0
0
0
0
0
0
0
0
0
0
0
0
0
0
0
0
0
0
0
0
0
0
0
0
0
0
0
0
0
0
0
0
0
0
0
0
0
0
0
0
0
0
0
0
0
0
0
0
0
0
0
0
0
0
0
0
0
0
0
0
0
0
0
0
0
0
0
0
0
0
0
0
0
0
0
0
0
0
0
0
0
0
0
0
0
0
0
0
0
0
0
0
0
0
0
0
0
0
0
0
0
0
0
0
0
0
0
0
0
0
0
0
0
0
0
0
0
0
0
0
0
0
0
0
0
0
0
0
0
0
0
0
0
0
0
0
0
0
0
0
0
0
0
0
0
0
0
0
0
0
0
0
0
0
0
0
0
0
0
0
0
0
0
0
0
0
0
0
0
0
0
0
0
0
0
0
0
0
0
0
0
0
0
0
0
0
0
0
0
0
0
0
0
0
0
0
0
0
0
0
0
0
0
0
0
0
0
0
0
0
0
0
0
0
0
0
0
0
0
0
0
0
0
0
0
0
0
0
0
0
0
0
0
0
0
0
0
0
0
0
0
0
0
0
0
0
0
0
0
0
0
0
0
0
0
0
0
0
0
0
0
0
0
0
0
0
0
0
0
0
0
0
0
0
0
0
0
0
0
0
0
0
0
0
0
0
0
0
0
0
0
0
0
0
0
0
0
0
0
0
0
0
0
0
0
0
0
0
0
0
0
0
0
0
0
0
0
0
0
0
0
0
0
0
0
0
0
0
0
0
0
0
0
0
0
0
0
0
0
0
0
0
0
0
0
0
0
0
0
0
0
0
0
0
0
0
0
0
0
0
0
0
0
0
0
0
0
0
0
0
0
0
0
0
0
0
0
0
0
0
0
0
0
0
0
0
0
0
0
0
0
0
0
0
0
0
0
0
0
0
0
0
0
0
0
0
0
0
0
0
0
0
0
0
0
0
0
0
0
0
0
0
0
0
0
0
0
0
0
0
0
0
0
0
0
0
0
0
0
0
0
0
0
0
0
0
0
0
0
0
0
0
0
0
0
0
0
0
0
0
0
0
0
0
0
0
0
0
0
0
0
0
0
0
0
0
0
0
0
0
0
0
0
0
0
0
0
0
0
0
0
0
0
0
0
0
0
0
0
0
0
0
0
0
0
0
0
0
0
0
0
0
0
0
0
0
0
0
0
0
0
0
0
0
0
0
0
0
0
0
0
0
0
0
0
0
0
0
0
0
0
0
0
0
0
0
0
0
0
0
0
0
0
0
0
0
0
0
0
0
0
0
0
0
0
0
0
0
0
0
0
0
0
0
0
0
0
0
0
0
0
0
0
0
0
0
0
0
0
0
0
0
0
0
0
0
0
0
0
0
0
0
0
0
0
0
0
0
0
0
0
0
0
0
0
0
0
0
0
0
0
0
0
0
0
0
0
0
0
0


VECTORS element_materi_velocity float
8.538726748157e-06 -1.771395473217e-01 0.0 
6.248203461873e-06 -1.764212386931e-01 0.0 
-6.697423345622e-06 -2.301242255555e-02 0.0 
6.473335816518e-06 -2.916933346455e-02 0.0 
-3.044610487607e-06 -1.295034184620e-01 0.0 
-1.114418261494e-05 -1.917067767714e-01 0.0 
-2.265444969649e-06 -1.286517583922e-01 0.0 
6.045439880330e-06 -1.786755375343e-01 0.0 
-6.196878678542e-07 -1.292176441491e-01 0.0 
4.515302410352e-06 -2.984552556850e-02 0.0 
3.456973625505e-07 -1.143569678063e-01 0.0 
1.982390931341e-07 -1.811498361659e-01 0.0 
-1.565549287977e-06 -2.819036793441e-02 0.0 
7.514171046493e-06 -1.196857335161e-01 0.0 
-3.039494105718e-06 -1.993575481584e-02 0.0 
1.021254988677e-05 -2.090959916945e-02 0.0 
1.032322921014e-05 -1.331735462645e-01 0.0 
-1.343114920913e-05 -1.916084175676e-01 0.0 
8.454724322012e-06 -1.873715878462e-01 0.0 
4.130838601180e-06 -1.859028059215e-01 0.0 
8.217511778606e-06 -3.055813169668e-02 0.0 
5.420402224585e-06 -1.717196504417e-01 0.0 
4.569326539587e-06 -1.688483830946e-01 0.0 
-6.085770008009e-06 -4.110277728626e-02 0.0 
1.106681691866e-05 -1.083721259315e-01 0.0 
-1.223949853834e-06 -1.074374295150e-01 0.0 
1.678572892609e-05 -1.424878163245e-01 0.0 
3.539994171157e-06 -2.635111473944e-02 0.0 
1.437216583430e-05 -1.087027114879e-01 0.0 
-3.234778211496e-07 -3.390801065538e-02 0.0 
-7.333850705512e-06 -1.902641127419e-01 0.0 
-1.843500899571e-06 -1.935589243392e-01 0.0 
-2.913329393607e-06 -2.762566720452e-02 0.0 
-1.631552531586e-06 -7.061925601482e-02 0.0 
-2.593623959987e-06 -2.931896511021e-02 0.0 
5.316966707171e-06 -1.279414756043e-02 0.0 
1.515142057061e-06 -1.285838898116e-02 0.0 
2.516312690345e-06 -2.670629970563e-02 0.0 
-3.969200462612e-06 -1.388663617452e-01 0.0 
-7.101779390964e-06 -1.390198604270e-01 0.0 
1.059523325822e-05 -1.608802786918e-01 0.0 
2.368926849625e-06 -2.232664369718e-02 0.0 
-4.575820298401e-06 -1.848150242110e-01 0.0 
1.934302169078e-05 -1.394002120510e-01 0.0 
4.638144137287e-07 -4.042945264754e-02 0.0 
-5.143893545732e-06 -1.848752077424e-01 0.0 
-4.383873320125e-06 -1.915990724317e-01 0.0 
5.069589811981e-06 -3.471552139293e-02 0.0 
-3.478743047300e-06 -1.932239904791e-01 0.0 
1.456094358004e-05 -1.249681940723e-01 0.0 
1.045442436524e-05 -1.650203601007e-01 0.0 
5.527099538540e-06 -1.832380034490e-01 0.0 
-1.910442926555e-05 -1.858266753562e-01 0.0 
1.003983838636e-05 -1.644693052793e-01 0.0 
5.390558973044e-06 -2.194373190795e-02 0.0 
-2.350273938944e-06 -1.745783980206e-01 0.0 
4.031619670863e-06 -1.814152807550e-01 0.0 
-2.356970572510e-06 -7.119306895921e-02 0.0 
4.807982600613e-06 -1.902133327350e-01 0.0 
5.512590983925e-06 -2.109804573862e-02 0.0 
1.201160725109e-05 -1.937540432062e-01 0.0 
-6.247167156696e-06 -4.098283259782e-02 0.0 
2.261432866270e-06 -1.643548221945e-01 0.0 
-2.086521437938e-05 -1.874440426164e-01 0.0 
-4.912913553217e-06 -2.866381586589e-02 0.0 
8.156136261211e-06 -1.683573457432e-01 0.0 
6.892211369684e-06 -1.935199793219e-01 0.0 
-3.949436287623e-06 -2.753881042785e-02 0.0 
3.800277150741e-07 -1.892631151905e-01 0.0 
-5.497226483975e-08 -2.188590011368e-02 0.0 
-6.096448103850e-07 -9.993792526747e-02 0.0 
1.131166292226e-06 -6.125949467434e-03 0.0 
8.792473119566e-07 -3.523995728837e-02 0.0 
1.075082175458e-07 -1.931076210018e-01 0.0 
-7.253063785545e-06 -1.720343335877e-01 0.0 
-2.972124251808e-06 -2.727649287828e-02 0.0 
1.767599635326e-06 -2.654771335325e-02 0.0 
-8.654253096820e-06 -1.887669599394e-01 0.0 
-6.981565108842e-07 -1.894483763427e-01 0.0 
-6.879704927303e-06 -1.886925872568e-01 0.0 
4.094452036683e-06 -1.890931189321e-01 0.0 
5.846393310372e-06 -1.302538584893e-01 0.0 
2.895619879491e-06 -1.723274326539e-01 0.0 
1.142257815685e-05 -1.752632955784e-01 0.0 
-8.107621458594e-06 -1.230552393920e-01 0.0 
-2.750369861631e-06 -1.226798099989e-01 0.0 
-6.623062373438e-07 -9.351542820713e-02 0.0 
-6.211061355246e-07 -7.786033918973e-02 0.0 
3.317865264357e-06 -7.160844151910e-02 0.0 
-3.395547844392e-06 -1.291349354223e-01 0.0 
-4.672366050966e-07 -1.932352126382e-01 0.0 
2.165011918933e-05 -1.301063575852e-01 0.0 
-6.047973386239e-07 -7.541055105211e-02 0.0 
-1.898770230384e-06 -8.059406369511e-02 0.0 
1.344305914535e-07 -1.141000341332e-02 0.0 
-3.093216619104e-07 -1.866335906274e-02 0.0 
8.732125607960e-06 -1.307278476248e-01 0.0 
-3.046015892498e-06 -2.712387706468e-02 0.0 
-9.539372495092e-07 -1.101116961195e-01 0.0 
9.851514602203e-07 -1.676840623811e-01 0.0 
3.827630879128e-06 -1.347806691533e-01 0.0 
-7.342966645959e-07 -2.049226416683e-02 0.0 
-1.354305309720e-06 -8.117424598803e-02 0.0 
-6.262021452216e-06 -4.130072653677e-02 0.0 
1.314581356830e-06 -1.723115006471e-01 0.0 
-5.447795045056e-06 -1.922548441309e-01 0.0 
2.772889433865e-07 -4.634838790613e-02 0.0 
6.766465904543e-07 -6.626512539671e-02 0.0 
2.936645657195e-06 -1.936146916930e-01 0.0 
5.052356060493e-06 -2.112843585431e-02 0.0 
4.602164309193e-06 -7.946379422802e-02 0.0 
-1.861661660510e-06 -1.936697755266e-01 0.0 
2.298558307948e-06 -1.543364857490e-01 0.0 
1.379714301731e-05 -1.424278272005e-01 0.0 
2.356859908238e-06 -1.611356438671e-01 0.0 
5.491102575911e-06 -1.712782319948e-01 0.0 
2.177962214629e-06 -1.646403240534e-01 0.0 
-2.360836699934e-06 -2.150770319142e-02 0.0 
-4.253281111529e-06 -1.152624469288e-01 0.0 
3.568129546129e-06 -1.684762326228e-01 0.0 
9.355157489100e-06 -1.897618312322e-01 0.0 
2.216500625279e-05 -1.331332294576e-01 0.0 
-2.184863973059e-06 -6.137388820697e-02 0.0 
4.177145086934e-06 -1.686114789698e-01 0.0 
-1.124707190137e-05 -1.916895711732e-01 0.0 
1.295305274032e-05 -1.522155090363e-01 0.0 
-2.128541109383e-06 -1.634282895572e-01 0.0 
1.332258478613e-05 -1.562263444125e-01 0.0 
3.284718255473e-06 -1.962738216234e-02 0.0 
-1.014502611963e-05 -1.906240062481e-01 0.0 
-2.587895478803e-06 -1.067078911025e-01 0.0 
1.055314583340e-05 -2.886730855872e-02 0.0 
7.901310381154e-06 -1.505845078962e-01 0.0 
1.411995323374e-05 -1.565857672951e-01 0.0 
-9.988853836398e-06 -2.931976588411e-02 0.0 
7.929234788329e-07 -2.768172581115e-02 0.0 
5.563579988543e-07 -9.337910882639e-02 0.0 
8.361938051001e-06 -1.459430524289e-01 0.0 
-1.139019516839e-06 -2.519155221254e-02 0.0 
9.309747298354e-06 -1.541400576905e-01 0.0 
9.683558405261e-07 -2.166161297703e-02 0.0 
1.448837078458e-06 -2.597807430201e-02 0.0 
7.337069638888e-06 -1.193626580089e-01 0.0 
4.507814445132e-06 -9.453377935130e-02 0.0 
8.526555470572e-06 -1.545741040366e-01 0.0 
1.221429653487e-05 -1.604461964561e-01 0.0 
7.644431691635e-06 -1.415457538588e-01 0.0 
3.217957457077e-06 -1.656534634939e-01 0.0 
-2.419734471249e-06 -1.339459440180e-01 0.0 
2.068749003617e-06 -1.547964832508e-01 0.0 
4.725360127532e-06 -1.932752090428e-01 0.0 
-4.889444905631e-06 -1.259666925097e-01 0.0 
9.893993873790e-06 -1.894383917609e-01 0.0 
1.499594075792e-05 -1.474838682156e-01 0.0 
1.933753037286e-06 -2.122261881078e-02 0.0 
3.302281077421e-06 -1.721097691225e-01 0.0 
-1.960602006977e-06 -8.616409738770e-02 0.0 
-3.216232664146e-06 -1.825431216769e-01 0.0 
-1.973789888813e-06 -8.091937261082e-02 0.0 
-3.522054918107e-06 -1.305658682441e-01 0.0 
1.743946627631e-06 -1.591832982539e-01 0.0 
-2.689226156657e-06 -6.335540240688e-02 0.0 
6.770719240480e-06 -1.895305924330e-01 0.0 
-2.583780454923e-06 -4.655071591374e-02 0.0 
1.715288880743e-05 -1.336934023998e-01 0.0 
2.441477575313e-06 -2.637683714671e-02 0.0 
-3.135881522187e-06 -1.315220164971e-01 0.0 
2.210105239601e-06 -1.693346766844e-01 0.0 
1.219311371552e-05 -1.470365696509e-01 0.0 
-9.220881936224e-07 -1.160832474269e-01 0.0 
-1.854490200440e-06 -1.827302791301e-01 0.0 
1.200994054080e-06 -1.594312276111e-01 0.0 
4.836110300239e-06 -8.714903249132e-02 0.0 
-6.572047332591e-06 -1.341532998650e-01 0.0 
2.620975954541e-06 -1.623977689845e-01 0.0 
1.383289734350e-05 -1.518312075249e-01 0.0 
-1.768313699310e-06 -5.956284873643e-02 0.0 
1.281079990285e-06 -1.559230598021e-01 0.0 
2.304847906677e-06 -2.110565064996e-02 0.0 
5.876417639890e-07 -2.649917527395e-02 0.0 
1.146584378331e-05 -1.737965408733e-01 0.0 
3.874755689755e-06 -1.533384839574e-01 0.0 
-4.236577029415e-06 -5.563822661749e-02 0.0 
9.967668259145e-06 -1.578807993945e-01 0.0 
1.066265409712e-05 -1.769051156137e-01 0.0 
1.828071554390e-05 -1.379779459427e-01 0.0 
2.474571834648e-06 -1.581952432753e-01 0.0 
3.363540324778e-06 -2.281661964637e-02 0.0 
3.492087381358e-06 -7.738718641875e-02 0.0 
-1.333064234758e-06 -5.484675250978e-02 0.0 
-5.020278798380e-06 -1.869549132636e-01 0.0 
1.688408837401e-07 -1.636584003279e-01 0.0 
2.717369713236e-06 -7.079427608785e-02 0.0 
-2.166633567765e-06 -1.942477917444e-01 0.0 
1.155775315723e-05 -1.574179578276e-01 0.0 
-7.146018125012e-06 -7.281976264744e-02 0.0 
7.982634200408e-06 -1.922881448800e-01 0.0 
-7.308966774361e-07 -2.863618215540e-02 0.0 
9.128771888294e-06 -9.597517024609e-02 0.0 
-3.477811661042e-06 -1.583988646099e-01 0.0 
-6.761863536147e-06 -7.248551735722e-02 0.0 
2.750045730581e-05 -1.244486039593e-01 0.0 
9.513463061365e-06 -1.139719701954e-01 0.0 
-2.003324629943e-06 -3.394559916134e-02 0.0 
-2.735022973376e-06 -1.738898670158e-01 0.0 
5.452793267274e-06 -1.373881375663e-01 0.0 
1.412251597864e-05 -1.290979281033e-01 0.0 
5.555536141813e-06 -8.888959454108e-02 0.0 
1.854796316560e-05 -1.282906090896e-01 0.0 
1.697748189408e-05 -1.384152693371e-01 0.0 
-1.068093311943e-06 -1.027932581646e-01 0.0 
-2.573717248505e-06 -6.712710879303e-02 0.0 
-1.600723310241e-05 -1.936559391145e-01 0.0 
4.809122268859e-06 -1.732921717370e-01 0.0 
1.451286630912e-06 -1.671399774953e-01 0.0 
6.288033741979e-06 -1.420031445948e-01 0.0 
1.085318811707e-06 -6.948431945744e-02 0.0 
-1.014430937722e-05 -1.884295558893e-01 0.0 
-6.312882485220e-06 -8.126973548947e-02 0.0 
-8.265349388168e-06 -1.328038352685e-01 0.0 
7.379733611175e-07 -1.634438801442e-01 0.0 
-5.405615611162e-06 -8.937396786096e-02 0.0 
9.831953545029e-06 -1.931917270679e-01 0.0 
4.097162033944e-06 -8.202418459666e-02 0.0 
1.484779108562e-05 -1.936768971838e-01 0.0 
5.060106685197e-06 -1.916236313264e-01 0.0 
-5.803836664988e-06 -1.868345849727e-01 0.0 
-2.911508262525e-06 -1.795503638936e-01 0.0 
2.943643049918e-06 -7.441690220506e-02 0.0 
-2.679169626764e-06 -1.818410284520e-01 0.0 
-6.188207629882e-06 -1.833145583136e-01 0.0 
-1.133153558763e-05 -1.865622253116e-01 0.0 
2.011580727080e-06 -1.882386011869e-01 0.0 
-5.592069654131e-06 -6.419644099767e-02 0.0 
1.545452520469e-05 -1.340711083937e-01 0.0 
-5.977552448479e-06 -2.885500282680e-02 0.0 
-5.954326414990e-06 -1.941356331363e-01 0.0 
-3.507072238185e-06 -1.786736308384e-01 0.0 
1.014603569550e-06 -1.553785766098e-01 0.0 
9.419734339011e-06 -1.618941750801e-01 0.0 
-6.128315152793e-06 -8.085137783986e-02 0.0 
8.724694364933e-07 -2.366407904234e-02 0.0 
5.910000682121e-06 -8.433287716992e-02 0.0 
-2.489657539173e-06 -1.740764906298e-01 0.0 
-7.043761209162e-06 -6.451755867654e-02 0.0 
-4.643634216138e-07 -1.008037830608e-01 0.0 
7.758552586216e-06 -1.364942329241e-01 0.0 
7.798367080857e-06 -9.002411422490e-02 0.0 
-4.118723832248e-06 -3.343321184200e-02 0.0 
5.665812281783e-07 -1.557005880997e-01 0.0 
-4.645073909988e-06 -1.809890247498e-01 0.0 
1.754701253462e-05 -1.172151408480e-01 0.0 
3.077507569032e-06 -1.039983772715e-02 0.0 
4.513737386487e-06 -1.378150900265e-01 0.0 
-4.860696864332e-08 -1.327508418143e-01 0.0 
-7.259584816643e-06 -1.238181467067e-01 0.0 
-1.269403755221e-07 -1.903503316495e-01 0.0 
2.284674025383e-05 -1.278713709450e-01 0.0 
-2.021910884732e-06 -1.738325744600e-01 0.0 
-7.310955408219e-06 -1.846828977963e-01 0.0 
-1.574643723915e-05 -1.891668567849e-01 0.0 
2.990446009553e-06 -7.391738054446e-02 0.0 
1.452426313702e-05 -1.235106090009e-01 0.0 
3.197297583818e-06 -1.651319973040e-01 0.0 
2.965787959098e-06 -6.604299939662e-02 0.0 
4.315046069660e-06 -7.804626058411e-02 0.0 
9.068932465567e-06 -1.307974700989e-01 0.0 
-7.039219666817e-07 -2.022931023106e-02 0.0 
-5.877742341629e-07 -1.275508934120e-01 0.0 
1.031177325210e-05 -1.248103507014e-01 0.0 
2.329961909039e-06 -1.496370940701e-01 0.0 
-7.560635199479e-07 -1.217228582714e-01 0.0 
-6.042898117912e-06 -1.801122853568e-01 0.0 
2.225851401981e-05 -1.306080536391e-01 0.0 
7.991684954247e-08 -1.519814453799e-01 0.0 
-5.139824056873e-06 -1.729719347121e-01 0.0 
5.731866461770e-06 -8.371473694311e-02 0.0 
-2.260550983485e-06 -1.942321954249e-01 0.0 
2.307556124731e-05 -1.222019725934e-01 0.0 
-1.980068179896e-06 -1.711039000570e-01 0.0 
-3.662829209252e-06 -1.789104602400e-01 0.0 
-7.553822865361e-06 -1.803577172166e-01 0.0 
1.482967854884e-05 -1.115619395010e-01 0.0 
6.342502025393e-06 -1.923019587715e-01 0.0 
5.066478776067e-06 -1.630298343105e-01 0.0 
-1.386870251399e-06 -1.160267803873e-01 0.0 
1.725134672124e-05 -1.230809959811e-01 0.0 
2.527114561782e-05 -1.236901669411e-01 0.0 
-1.055500083217e-05 -1.902533750543e-01 0.0 
-5.116710798720e-06 -1.727204109484e-01 0.0 
-6.720462923674e-06 -1.763914084356e-01 0.0 
-6.994837678489e-07 -1.702297779727e-01 0.0 
8.573481242221e-06 -9.056283106142e-02 0.0 
3.880403488059e-06 -1.634456224698e-01 0.0 
-4.015926406118e-07 -1.564128240226e-01 0.0 
1.838392353311e-07 -1.599677592846e-01 0.0 
-1.011464030450e-05 -1.886686280894e-01 0.0 
2.464369634901e-06 -1.453019244083e-01 0.0 
-9.495439982492e-06 -1.873185718280e-01 0.0 
5.945670071325e-06 -1.099507641896e-02 0.0 
-4.459875773869e-06 -1.194410257851e-02 0.0 
4.038376289364e-06 -1.329697471307e-01 0.0 
-3.606805841208e-06 -1.770738528393e-01 0.0 
-5.312948064373e-06 -1.816845096775e-01 0.0 
9.147634291255e-06 -1.194653120113e-01 0.0 
-4.234162295237e-06 -1.795973981121e-01 0.0 
-6.201147150709e-06 -1.761355564049e-01 0.0 
8.973587950353e-06 -1.360692055285e-01 0.0 
-2.492493839441e-07 -2.619097488869e-02 0.0 
-5.742215705998e-07 -1.673801668546e-01 0.0 
-6.071049749104e-07 -1.025167022000e-01 0.0 
-9.091380179824e-06 -1.856399156902e-01 0.0 
2.548705724601e-06 -1.059884683286e-02 0.0 
-3.817734104650e-06 -1.793607733538e-01 0.0 
6.657060015136e-06 -1.316565976268e-01 0.0 
-1.186239849736e-05 -1.869528431162e-01 0.0 
-3.016994261689e-06 -1.068091717771e-01 0.0 
5.785810968667e-07 -1.515681984194e-01 0.0 
-5.937376649391e-06 -1.735094442654e-01 0.0 
1.264507203531e-05 -1.295107350173e-01 0.0 
-8.018471726579e-07 -1.003404571282e-02 0.0 
-7.661868210544e-07 -1.642135738530e-01 0.0 
-1.727877292226e-06 -1.164632867547e-01 0.0 
-9.897855664020e-06 -1.858536413814e-01 0.0 
9.151965442205e-07 -9.951521881926e-02 0.0 
-5.585374987163e-06 -8.892178005326e-02 0.0 
-2.072098951952e-06 -1.781272014302e-01 0.0 
8.068094382254e-07 -1.059146559660e-01 0.0 
7.326543543337e-07 -1.067712345605e-02 0.0 
-7.317537020029e-06 -7.393483825005e-02 0.0 
-7.880881685848e-07 -1.081624315112e-02 0.0 
1.071139935912e-06 -1.071054220561e-01 0.0 
3.582121952954e-06 -8.018533539014e-02 0.0 
-4.664436727501e-06 -1.828970243184e-01 0.0 
1.379817651117e-05 -1.395297295056e-01 0.0 
1.133076072377e-05 -1.243624860977e-01 0.0 
1.156986337450e-05 -1.185492381542e-01 0.0 
3.580016646699e-06 -1.432034354967e-01 0.0 
-1.515229225830e-06 -1.074978718648e-02 0.0 
2.285754570740e-05 -1.144983249169e-01 0.0 
2.275489954548e-05 -1.328368408608e-01 0.0 
-2.856703861347e-07 -1.602667482470e-01 0.0 
-2.405608045333e-06 -1.843334551086e-01 0.0 
1.507698363133e-05 -1.436962973680e-01 0.0 
-1.113378313979e-06 -1.755494100710e-01 0.0 
-4.246303823481e-07 -1.339134714574e-01 0.0 
-6.697914443946e-06 -1.737931189303e-01 0.0 
-1.039739653929e-06 -1.676363514174e-01 0.0 
3.509965610704e-06 -7.549184034996e-02 0.0 
-1.762325674014e-06 -1.758408367909e-01 0.0 
1.271589225975e-05 -1.348368212741e-01 0.0 
-2.338441885304e-06 -1.106216959310e-01 0.0 
-3.386220676241e-06 -1.282977802496e-01 0.0 
2.144331236964e-06 -1.006677071379e-02 0.0 
1.206375361406e-05 -1.532922702596e-01 0.0 
-6.248142592021e-06 -1.753916314410e-01 0.0 
-3.774473162793e-06 -1.621063993454e-01 0.0 
3.747018123094e-06 -1.774922022858e-01 0.0 
-1.194049588577e-06 -1.778594412099e-01 0.0 
1.356037680455e-06 -6.266591068433e-02 0.0 
6.732034800697e-06 -1.261405837878e-01 0.0 
7.933509576657e-06 -1.623333542982e-01 0.0 
1.307226385569e-05 -1.443684333782e-01 0.0 
-1.957916401736e-06 -1.121297124023e-02 0.0 
6.159101719949e-06 -2.849574470132e-02 0.0 
5.469454672284e-07 -6.201502821928e-02 0.0 
4.903529860081e-06 -8.257124510495e-02 0.0 
-3.267815074005e-06 -1.335238217989e-01 0.0 
2.621477768063e-06 -1.602819094242e-01 0.0 
-4.516573228818e-06 -1.773329708273e-01 0.0 
-2.530239556437e-06 -1.713733326646e-01 0.0 
5.707698645850e-06 -1.320931115330e-01 0.0 
-2.685659830418e-06 -1.127783262170e-01 0.0 
2.453528750381e-08 -1.474630631800e-01 0.0 
1.006250239065e-06 -6.017264462190e-02 0.0 
-6.486103533764e-06 -1.756365628756e-01 0.0 
2.957044343505e-06 -1.483183238763e-01 0.0 
1.023377949532e-05 -1.303599233920e-01 0.0 
2.315764164024e-06 -1.567866776993e-01 0.0 
-5.206946074377e-06 -1.137566907006e-02 0.0 
4.851704067468e-06 -1.182631813683e-02 0.0 
4.835120307933e-06 -2.890825356849e-02 0.0 
-3.688538270209e-06 -1.223992644939e-01 0.0 
3.175526182099e-06 -6.549740269038e-02 0.0 
-3.859047983790e-06 -1.807340220615e-01 0.0 
-1.267839867797e-06 -1.645267120362e-01 0.0 
-8.740334511859e-06 -1.849190711203e-01 0.0 
6.394331088615e-06 -1.591426022987e-01 0.0 
2.278867304592e-05 -1.303155842757e-01 0.0 
-1.381650767894e-06 -1.067482570645e-01 0.0 
4.927639848989e-06 -2.652430050114e-02 0.0 
1.993155971779e-06 -6.425511692228e-02 0.0 
1.907244997246e-05 -1.167553556049e-01 0.0 
1.032092481579e-05 -1.129493328789e-01 0.0 
-9.130686540778e-06 -1.828685174135e-01 0.0 
-2.336809841866e-06 -1.922686006742e-01 0.0 
2.030646196364e-06 -1.504979288696e-01 0.0 
3.098396768369e-06 -1.390202225047e-01 0.0 
2.394863226556e-06 -1.457027617059e-01 0.0 
-1.182728893913e-05 -1.915633488218e-01 0.0 
-6.166154632940e-06 -1.208362958285e-01 0.0 
-7.058677322050e-07 -1.862618593924e-01 0.0 
-2.452760679195e-06 -1.763626631323e-01 0.0 
3.518689298783e-08 -5.380308895072e-03 0.0 
-1.899690627196e-06 -9.662288772588e-02 0.0 
2.910724035698e-05 -1.324010052720e-01 0.0 
4.739149088478e-06 -1.902801617483e-01 0.0 
4.176765060412e-06 -1.428301750827e-01 0.0 
1.519453335848e-06 -1.508320928715e-01 0.0 
1.329567144286e-05 -1.120273536046e-01 0.0 
-2.009937283904e-06 -1.032589982460e-02 0.0 
1.505936551279e-05 -1.391768235393e-01 0.0 
7.929579955899e-06 -1.199238982586e-01 0.0 
-6.194125234007e-07 -1.470672844061e-01 0.0 
2.696466969559e-06 -6.710461971784e-02 0.0 
-3.951329031722e-06 -1.166799998324e-01 0.0 
-1.045291274452e-06 -1.079381311180e-02 0.0 
-4.664022608117e-07 -5.674638682818e-03 0.0 
1.374634043553e-06 -5.411830473400e-03 0.0 
2.806680396960e-07 -6.243072191270e-03 0.0 
1.122873548457e-05 -1.061602694657e-01 0.0 
2.456421704208e-06 -6.763249735445e-02 0.0 
3.364604593113e-06 -5.487218117973e-02 0.0 
2.677581601997e-06 -1.564661419911e-01 0.0 
3.774313219160e-06 -1.599167945853e-01 0.0 
1.752081962548e-06 -1.526489220930e-01 0.0 
-1.688402037373e-07 -6.074726088290e-02 0.0 
1.144070135650e-08 -1.071488375692e-02 0.0 
3.345609286791e-06 -5.849580455239e-02 0.0 
-1.432619171508e-06 -1.096756990839e-01 0.0 
3.123091256887e-06 -5.905790321301e-02 0.0 
-2.155398033009e-07 -9.275361435024e-02 0.0 
2.960769263673e-06 -1.439774523134e-01 0.0 
7.698251669009e-06 -1.587540249586e-01 0.0 
-7.506800297396e-06 -1.839869395309e-01 0.0 
4.730561294993e-06 -2.195475889410e-02 0.0 
2.176189678449e-06 -1.608879469914e-01 0.0 
-9.384484697316e-07 -3.576944135478e-02 0.0 
9.390210485921e-07 -1.522636794586e-01 0.0 
-8.268093305040e-06 -1.771684780475e-01 0.0 
4.190965255501e-06 -2.135369917933e-02 0.0 
-7.953517195067e-07 -1.730778508109e-01 0.0 
-3.216859077731e-07 -5.141604468301e-03 0.0 
2.603378773303e-06 -2.184213005554e-02 0.0 
5.568130145146e-06 -1.208448760724e-01 0.0 
-2.344341168312e-06 -1.932823596691e-01 0.0 
-1.529776019019e-06 -5.433458580077e-03 0.0 
-2.748224945139e-06 -2.126224312681e-02 0.0 
-8.414324702800e-06 -1.769028271169e-01 0.0 
-2.530370367471e-06 -1.040141290741e-01 0.0 
4.140337791252e-06 -1.056140496086e-02 0.0 
-2.085323226140e-06 -1.940917957922e-01 0.0 
2.653803017607e-06 -1.528080680292e-01 0.0 
6.377150243170e-06 -1.143736251223e-01 0.0 
4.832723597325e-06 -1.270397841405e-01 0.0 
7.928871886992e-06 -1.257064836555e-01 0.0 
-5.427913485961e-06 -1.814648453425e-01 0.0 
2.481696097660e-07 -5.316768924323e-03 0.0 
-7.669854673922e-07 -1.567696933457e-01 0.0 
-1.387095850639e-05 -1.903018605493e-01 0.0 
-5.847737645721e-06 -2.464600332437e-02 0.0 
-3.817605616210e-06 -1.936347325003e-01 0.0 
1.098360309186e-05 -1.493325872516e-01 0.0 
-1.073221848846e-05 -1.894593741210e-01 0.0 
1.529673640989e-05 -1.433124491597e-01 0.0 
-1.494574731802e-06 -1.088372323796e-02 0.0 
-1.278500317421e-06 -5.351672353887e-03 0.0 
1.328592184443e-05 -1.181101679714e-01 0.0 
-7.545026632909e-06 -1.917165091875e-01 0.0 
-9.279737036669e-06 -1.915742220581e-01 0.0 
-9.879472690926e-06 -1.902559988675e-01 0.0 
-7.935325603586e-06 -6.315530175468e-02 0.0 
1.791995151031e-05 -1.338030975497e-01 0.0 
3.009578143540e-05 -1.270361758499e-01 0.0 
-1.037621800816e-06 -4.999161021782e-03 0.0 
1.867444544112e-05 -1.335080764741e-01 0.0 
4.958640143738e-06 -1.060327085816e-02 0.0 
-7.279910481945e-07 -8.619418142448e-02 0.0 
1.856197583688e-06 -1.126484104333e-01 0.0 
7.216656546832e-06 -1.748902959281e-01 0.0 
-1.965554694502e-06 -1.035046385944e-01 0.0 
-1.046268846644e-05 -1.864775975921e-01 0.0 
9.583847534713e-07 -5.493795268850e-03 0.0 
-4.740543813565e-06 -5.701030387242e-03 0.0 
4.571036027772e-06 -5.583245945562e-03 0.0 
-3.759599021710e-06 -1.171423000848e-01 0.0 
4.074739716806e-06 -1.575513125859e-01 0.0 
2.702738113314e-06 -1.443997336871e-01 0.0 
-4.017595400296e-06 -1.112472837145e-01 0.0 
-7.592972667846e-07 -5.811184453557e-03 0.0 
-2.722630996181e-06 -1.765933119111e-01 0.0 
-3.991644096117e-06 -1.698676832428e-01 0.0 
-3.559134740229e-06 -1.668869710896e-01 0.0 
2.530034306056e-06 -1.054739386826e-01 0.0 
1.412920141666e-06 -1.040811129562e-02 0.0 
-7.657524379841e-06 -1.923254166630e-01 0.0 
-2.959555968511e-07 -5.481936451294e-03 0.0 
-5.500732876139e-06 -1.707560106384e-01 0.0 
-4.801612648847e-07 -4.892441244519e-03 0.0 
3.401227333315e-06 -5.564722198642e-02 0.0 
-1.363123659975e-06 -1.942102626315e-01 0.0 
2.433694460937e-06 -1.491608150228e-01 0.0 
2.938765471523e-06 -5.731238377501e-02 0.0 
4.844847445676e-07 -5.360354531726e-03 0.0 
9.970047327425e-06 -1.066431785572e-01 0.0 
-1.503833832457e-06 -8.001833519787e-02 0.0 
-1.313205706570e-05 -1.877009879942e-01 0.0 
1.357866004444e-06 -3.631743994828e-02 0.0 
-4.830315533040e-06 -1.678459385661e-01 0.0 
-4.029448906143e-06 -1.672099662978e-01 0.0 
-1.069088719460e-06 -1.935978773464e-01 0.0 
-2.367289084095e-07 -5.398114832593e-03 0.0 
-6.190382689688e-06 -1.823869122297e-01 0.0 
-9.207706748458e-06 -6.585725039254e-02 0.0 
3.238796852208e-06 -1.191512151893e-01 0.0 
-5.025583864925e-06 -1.754907610971e-01 0.0 
-4.269880915670e-06 -1.701493407653e-01 0.0 
8.917683204217e-06 -1.134175421324e-01 0.0 
3.181953037780e-06 -5.067609692009e-03 0.0 
2.017258600909e-06 -1.534287351578e-01 0.0 
-4.998235212895e-06 -9.713130666460e-02 0.0 
3.170930054979e-06 -1.283763861584e-01 0.0 
-2.805518895728e-06 -1.144654097890e-01 0.0 
-3.158627715996e-06 -1.662906784951e-01 0.0 
-4.374513904591e-06 -1.102894423686e-01 0.0 
3.517772180275e-06 -1.333922029997e-01 0.0 
-1.276995666899e-06 -9.108232220428e-02 0.0 
-2.347878562837e-06 -9.003612177068e-02 0.0 
2.873717449158e-06 -1.342499931799e-01 0.0 
-1.561156505345e-06 -1.510941177942e-01 0.0 
-1.330029753621e-06 -1.733628477507e-01 0.0 
3.047257665683e-06 -1.571813547600e-01 0.0 
-6.483963414455e-07 -8.679979185014e-02 0.0 
-1.387589866707e-06 -1.225745676271e-01 0.0 
-2.607687038633e-07 -1.086224534637e-02 0.0 
2.360174908852e-06 -5.030345242873e-02 0.0 
-4.731678346483e-06 -1.784591351123e-01 0.0 
-1.198619134951e-06 -5.401786786669e-03 0.0 
1.700587614913e-06 -2.624959559974e-02 0.0 
2.220397130805e-06 -1.411465781116e-01 0.0 
-3.150638464149e-06 -1.932376384736e-01 0.0 
1.971340315179e-06 -1.043017795835e-02 0.0 
3.618182806129e-07 -5.208814911044e-02 0.0 
-6.944644256028e-06 -1.743582651406e-01 0.0 
2.513518831613e-06 -5.218537937791e-03 0.0 
-4.483066873034e-06 -1.045629786787e-01 0.0 
6.210875056395e-06 -1.554116173332e-01 0.0 
2.397226161739e-05 -1.218026130871e-01 0.0 
-8.782935400948e-07 -1.279660964003e-01 0.0 
-3.315856135560e-06 -1.287493005546e-01 0.0 
-2.957702398738e-06 -1.073924974298e-01 0.0 
1.056523500120e-05 -9.656262942161e-02 0.0 
9.497117516307e-06 -1.455101239943e-01 0.0 
-9.810382780860e-07 -8.214622443013e-02 0.0 
-4.349450385778e-06 -1.139325987621e-01 0.0 
-7.892972293748e-07 -1.514944120292e-01 0.0 
-3.189918994618e-06 -9.771937596686e-02 0.0 
-4.923614172145e-06 -1.681515048616e-01 0.0 
-3.610177861804e-06 -1.090945979295e-01 0.0 
2.390320399691e-07 -1.942098505154e-01 0.0 
7.491195232999e-07 -1.698096001283e-01 0.0 
-5.893694085981e-06 -1.710555059182e-01 0.0 
-2.984764526113e-07 -1.428268429871e-01 0.0 
2.325650716927e-06 -1.355601252418e-01 0.0 
-4.648255367317e-06 -1.040674375851e-01 0.0 
7.901123091020e-07 -1.116050934079e-01 0.0 
-6.553456197288e-06 -1.746329224952e-01 0.0 
-1.100598689947e-06 -5.189573357826e-03 0.0 
5.212537518712e-06 -1.148605028038e-01 0.0 
-2.463517506745e-07 -1.384276858654e-01 0.0 
4.618180311060e-06 -1.213075625190e-01 0.0 
-1.235769519479e-07 -1.432447231027e-01 0.0 
-1.831889854260e-06 -1.940899367283e-01 0.0 
2.221506539569e-05 -1.159061850651e-01 0.0 
-1.831134493549e-06 -1.588878255351e-01 0.0 
1.854125389200e-05 -1.941051377920e-01 0.0 
5.778811191414e-07 -1.440963983652e-01 0.0 
-5.371024032798e-06 -9.044294799214e-02 0.0 
5.464550264777e-06 -5.707439136629e-02 0.0 
-2.327793163211e-06 -1.195903642103e-01 0.0 
-2.667747678594e-06 -1.138966095489e-01 0.0 
2.173498472776e-05 -1.371526631997e-01 0.0 
1.233533148809e-05 -1.399919084834e-01 0.0 
2.465978808548e-06 -2.086457115960e-02 0.0 
4.102457121626e-06 -1.274894672781e-01 0.0 
1.581639058232e-05 -1.942202402358e-01 0.0 
1.457053080252e-07 -1.884638226824e-01 0.0 
-8.591530281680e-07 -1.932604263482e-01 0.0 
-2.999539510263e-06 -1.766268890214e-01 0.0 
-1.525397268288e-06 -6.009928749825e-02 0.0 
5.247816570842e-06 -5.763642366396e-02 0.0 
-7.151761512834e-06 -7.126527887603e-02 0.0 
-6.444292102950e-08 -1.715209986503e-01 0.0 
-3.528682737330e-06 -1.096830615091e-01 0.0 
-9.127614029754e-06 -5.826062816487e-02 0.0 
-1.332262912784e-05 -1.871425337196e-01 0.0 
-3.074459480418e-06 -1.590530467596e-01 0.0 
-6.449682959173e-06 -1.699737362789e-01 0.0 
3.317946901753e-06 -1.072861742351e-02 0.0 
3.071939005126e-06 -5.240604600525e-03 0.0 
6.794386321769e-07 -1.506971347635e-01 0.0 
1.217411733177e-06 -1.388695058889e-01 0.0 
-3.426443719515e-06 -1.233130850513e-01 0.0 
-1.162110611739e-05 -4.955305144896e-02 0.0 
-3.152083945879e-06 -1.867935434981e-01 0.0 
-7.552953475668e-06 -6.722897811341e-02 0.0 
6.290336523650e-06 -1.922771280748e-01 0.0 
2.501902893604e-07 -1.486760411690e-01 0.0 
-1.056466909812e-06 -1.375389856417e-01 0.0 
6.442961177196e-06 -1.932387200265e-01 0.0 
-5.868098637243e-06 -1.548955081966e-01 0.0 
1.743592870584e-06 -4.966562835760e-02 0.0 
1.281041274193e-05 -1.942170212369e-01 0.0 
9.974384903166e-06 -1.398419638557e-01 0.0 
1.227054171143e-05 -1.427613960910e-01 0.0 
-3.498349792001e-06 -1.000260527849e-01 0.0 
-2.432387695940e-06 -1.703501514514e-01 0.0 
-5.595804666345e-06 -1.716357295683e-01 0.0 
-6.815290234788e-06 -1.835535495047e-01 0.0 
-1.022958004782e-05 -4.863961800730e-02 0.0 
-2.029176281231e-06 -2.084825988206e-02 0.0 
5.688509427377e-06 -6.807600813857e-02 0.0 
1.752370769987e-06 -1.750799183260e-01 0.0 
1.048100152526e-05 -1.913103557650e-01 0.0 
1.184619114525e-05 -1.447316643538e-01 0.0 
1.304697651991e-05 -1.394733284048e-01 0.0 
1.188721170632e-05 -1.425207762208e-01 0.0 
1.750013435020e-05 -1.941037639567e-01 0.0 
8.053502567108e-06 -1.932498429951e-01 0.0 
1.280364175324e-05 -1.917202296333e-01 0.0 
-4.027626632878e-06 -1.804502274603e-01 0.0 
3.680959492193e-06 -1.936051120546e-01 0.0 
7.477123462002e-06 -1.459010118297e-01 0.0 
1.371130492594e-05 -1.941174272749e-01 0.0 
-9.117321913099e-07 -1.748343114541e-01 0.0 
-2.116610743846e-07 -9.940519362240e-02 0.0 
1.093581412717e-05 -1.429068444477e-01 0.0 
-4.486699563665e-06 -5.150182539462e-02 0.0 
-4.752077201669e-06 -9.819876791152e-02 0.0 
1.754196575772e-06 -1.111203480717e-01 0.0 
-3.816396674575e-07 -1.669000999238e-01 0.0 
1.159219092736e-05 -1.923075044356e-01 0.0 
4.166019779297e-06 -5.425201607891e-03 0.0 
5.672201212847e-06 -1.131880419563e-02 0.0 
4.494867097917e-07 -1.185486154472e-01 0.0 
1.124585313163e-05 -1.397679271484e-01 0.0 
-2.264565981591e-06 -1.664231182109e-01 0.0 
-5.001497211362e-06 -1.067284695744e-02 0.0 
-2.544763578229e-06 -1.776348337844e-01 0.0 
8.503992485753e-06 -1.428382825909e-01 0.0 
1.224027254150e-05 -1.399771255961e-01 0.0 
1.389634337619e-05 -1.482520179353e-01 0.0 
3.584006100185e-06 -5.191440384756e-03 0.0 
1.606038013164e-06 -1.067458731033e-02 0.0 
8.265785925553e-06 -1.936076586015e-01 0.0 
9.534341346755e-06 -1.940933964001e-01 0.0 
-4.843921735391e-07 -1.900924744669e-01 0.0 
-1.377607393909e-06 -1.371100569625e-01 0.0 
2.137812762783e-06 -3.737211967324e-02 0.0 
2.036048816559e-05 -1.942379335415e-01 0.0 
4.303683267038e-06 -7.006994710226e-02 0.0 
6.217893743758e-06 -1.940972068178e-01 0.0 
-3.389876768009e-06 -1.012174957364e-01 0.0 
5.985593948940e-06 -1.942155524417e-01 0.0 
1.458289868467e-05 -1.942260555324e-01 0.0 
-3.431616165278e-06 -1.085402680358e-01 0.0 
-1.192044126800e-05 -4.557985637199e-02 0.0 
1.663992728481e-06 -1.038595416379e-01 0.0 
9.994646521077e-06 -1.406877980287e-01 0.0 
4.290834487547e-06 -1.932485155236e-01 0.0 
-4.083945141240e-06 -1.040954982374e-01 0.0 
5.881696468507e-06 -6.318274805409e-03 0.0 
9.291441050678e-06 -1.073576828084e-02 0.0 
6.569541040989e-06 -1.428185707433e-01 0.0 
-3.890945103162e-06 -9.359162932336e-02 0.0 
-2.559981766133e-06 -5.249385702439e-03 0.0 
-2.016975314938e-06 -8.052918575305e-02 0.0 
6.775693108689e-06 -1.923605497432e-01 0.0 
-3.346841658064e-06 -1.936330946287e-01 0.0 
-2.073433862807e-06 -1.933324036506e-01 0.0 
-1.219036841595e-06 -1.591593966290e-01 0.0 
7.170140024881e-07 -1.060294568990e-02 0.0 
1.978616056646e-06 -2.842104141706e-02 0.0 
-1.370258616055e-05 -1.941195726675e-01 0.0 
2.148623034177e-06 -1.456102074100e-01 0.0 
-8.740380356578e-07 -4.348923557468e-03 0.0 
7.191151796373e-06 -1.174466378012e-02 0.0 
4.435770076146e-06 -1.107547626114e-02 0.0 
-2.592840934939e-06 -8.481833675043e-02 0.0 
1.521973137936e-06 -6.219503470324e-02 0.0 
1.591052038146e-06 -6.254022132436e-03 0.0 
5.600099758227e-06 -5.490641647684e-03 0.0 
3.201620925065e-06 -7.005971288988e-02 0.0 
-1.840000510812e-05 -1.942336479462e-01 0.0 
-1.195571726076e-06 -1.426054932415e-01 0.0 
1.153230491118e-05 -1.426968834854e-01 0.0 
-1.679985956483e-06 -1.940954100774e-01 0.0 
-1.944609611912e-06 -5.055850652984e-03 0.0 
4.049416449825e-06 -1.186013645425e-02 0.0 
-1.403457296940e-07 -6.272673016098e-03 0.0 
-1.142585546362e-05 -1.942252915852e-01 0.0 
2.350571149721e-06 -1.942147558479e-01 0.0 
2.460078966274e-07 -5.488012822985e-03 0.0 
4.189762179519e-06 -5.587463438153e-03 0.0 
-4.272488722068e-06 -9.201364927766e-02 0.0 
-7.540974437708e-06 -1.428315669735e-01 0.0 
1.679647787128e-06 -7.747883493447e-02 0.0 
-4.427953453275e-06 -1.178335470961e-01 0.0 
-8.259070176045e-06 -1.428737902491e-01 0.0 
1.027629854048e-05 -1.942123023438e-01 0.0 
2.466846944371e-06 -1.942148669243e-01 0.0 
1.146965536247e-06 -1.942179356167e-01 0.0 
-2.087687279950e-06 -1.942127384821e-01 0.0 
2.807893241903e-06 -1.406384102375e-01 0.0 
-6.592702077254e-07 -1.504121136728e-01 0.0 
-1.532730122860e-06 -1.940951771196e-01 0.0 
-4.868069874488e-07 -1.065858912075e-01 0.0 
-1.816906687612e-06 -1.940965346553e-01 0.0 
-9.967357007725e-07 -5.284053945887e-03 0.0 
-2.441515445229e-06 -5.423461255005e-03 0.0 
1.506181433550e-06 -5.893602587742e-03 0.0 
-1.641075708004e-06 -1.883230670146e-01 0.0 
-2.050748028483e-06 -1.736579746788e-01 0.0 
1.181737565665e-06 -6.506721374574e-03 0.0 
-1.010446396061e-06 -6.240421788431e-02 0.0 
3.409744582171e-06 -4.417493475434e-03 0.0 
6.307438809741e-07 -4.567641176180e-02 0.0 
9.071620997257e-07 -2.800032793641e-02 0.0 
-1.878307049320e-06 -1.549012915257e-01 0.0 
-1.259777879564e-06 -1.193018262958e-02 0.0 
4.591482147836e-06 -1.092421485001e-02 0.0 
-3.797025150868e-07 -5.446938093159e-02 0.0 
1.537905980700e-06 -3.707751510709e-02 0.0 
-3.762775520702e-07 -9.229414546398e-02 0.0 
2.845758820012e-07 -1.940889574741e-01 0.0 
-1.530580935302e-06 -1.538082865384e-01 0.0 
1.401177959657e-05 -1.936223235134e-01 0.0 
-9.781405230465e-06 -4.941796695311e-02 0.0 
1.012495702123e-06 -1.482661859300e-01 0.0 
-4.331984499500e-06 -6.856978350332e-02 0.0 
-4.322090265311e-06 -1.827975959187e-01 0.0 
4.351738309351e-06 -1.918983355619e-01 0.0 
-8.387628056672e-06 -5.345545669631e-02 0.0 
3.246941469974e-06 -1.445292493227e-01 0.0 
5.336924400467e-07 -1.630345374532e-01 0.0 
-3.089143630672e-06 -6.925151503940e-02 0.0 
-1.419049701481e-06 -4.659738620784e-02 0.0 
-1.600676509052e-06 -1.631351039935e-01 0.0 
-6.045342073550e-06 -8.298427998736e-02 0.0 
-4.043047542319e-06 -1.073879822352e-01 0.0 
-2.000806500132e-06 -9.170881095610e-02 0.0 
8.892125678452e-07 -8.549052654628e-02 0.0 
-1.152716259658e-06 -1.609367557533e-01 0.0 
9.819681674242e-06 -1.497175331157e-01 0.0 
2.416641944041e-06 -1.403016491794e-01 0.0 
-4.073439973850e-06 -1.035081059298e-01 0.0 
-4.655086922076e-06 -6.237447802178e-02 0.0 
-1.383457864150e-06 -7.895116861213e-02 0.0 
-2.959212451041e-06 -1.814868971270e-01 0.0 
2.291117040007e-06 -4.797369847400e-02 0.0 
8.036413152592e-06 -6.429144142053e-02 0.0 
-1.016448702557e-05 -1.269833781147e-01 0.0 
-4.989398251693e-06 -9.588037406380e-02 0.0 
-3.954866392948e-06 -9.770013163392e-02 0.0 
-1.278478713959e-06 -4.750301129619e-02 0.0 
1.985844873464e-06 -5.610505335037e-02 0.0 
-3.614270865766e-06 -1.134156372297e-01 0.0 
-9.857740661351e-06 -4.611016239512e-02 0.0 
5.538131274453e-06 -6.752939372311e-02 0.0 
-2.031273979628e-06 -7.895104581867e-02 0.0 
-8.378479556554e-06 -4.118237676519e-02 0.0 
5.722424546510e-06 -4.842059001008e-02 0.0 
8.539647217908e-06 -8.816839367281e-02 0.0 
-5.290054515854e-06 -9.101486814553e-02 0.0 
-2.055549782927e-06 -1.818079332138e-01 0.0 
-2.564240532288e-06 -1.834349372372e-01 0.0 
2.507327281671e-06 -1.914157775041e-01 0.0 
-1.564674067868e-06 -1.936103729774e-01 0.0 
2.813515130755e-06 -5.608799499339e-02 0.0 
-6.226511324427e-06 -5.464148269377e-02 0.0 
-1.080824972528e-06 -1.936190970578e-01 0.0 
-1.425502223692e-06 -5.379118648107e-02 0.0 
-7.933652509458e-06 -1.212776984509e-01 0.0 
-4.476020371294e-06 -7.585237861648e-02 0.0 
-2.053616722386e-06 -7.056975946666e-02 0.0 
-4.550310718460e-06 -1.688383602285e-01 0.0 
-2.120133648326e-06 -7.114308602816e-02 0.0 
-9.791824333196e-06 -1.271566100138e-01 0.0 
-3.073291257289e-06 -9.062311953201e-02 0.0 
-3.689572812824e-06 -3.254482229066e-02 0.0 
2.735517040330e-06 -1.825568456466e-01 0.0 
-4.099299334290e-06 -3.989058773731e-02 0.0 
6.687628620019e-06 -8.016945875764e-02 0.0 
1.296421226801e-06 -1.796030219697e-01 0.0 
-3.988397079819e-06 -1.787479314512e-01 0.0 
-9.170298304735e-10 -1.304103854155e-01 0.0 
4.599398868794e-06 -1.028786345444e-01 0.0 
3.681089956310e-06 -1.651250233189e-01 0.0 
1.014219696194e-05 -7.179976952733e-02 0.0 
7.923004193215e-06 -9.455385969311e-02 0.0 
1.149744973007e-06 -1.338531214864e-01 0.0 
-9.412165530068e-08 -8.602790080042e-02 0.0 
-3.336067150641e-07 -7.784046779649e-02 0.0 
8.215883438263e-06 -7.963415978545e-02 0.0 
-1.108467707872e-05 -1.857503914391e-01 0.0 
4.629560768886e-06 -1.397530994222e-01 0.0 
-1.750353157218e-06 -5.849581448805e-02 0.0 
6.545663445265e-06 -7.339339478374e-02 0.0 
-6.285888960176e-07 -1.494884435071e-01 0.0 
-3.951558656616e-06 -1.079465503506e-01 0.0 
-1.129761870242e-05 -4.693625443311e-02 0.0 
6.723045230078e-06 -8.770441180532e-02 0.0 
-1.098779388863e-05 -1.916750461845e-01 0.0 
-9.983171471347e-07 -1.915722923449e-01 0.0 
-1.092600259234e-05 -1.830743403863e-01 0.0 
-4.753503047672e-06 -6.171875804745e-02 0.0 
8.814178638383e-06 -9.543017103469e-02 0.0 
7.027380464642e-07 -1.199317865307e-01 0.0 
-1.066612571276e-07 -1.156739204037e-01 0.0 
-7.526323444641e-06 -5.897079003289e-02 0.0 
4.693315845282e-08 -1.290844461827e-01 0.0 
-1.270717497754e-06 -7.717794334356e-02 0.0 
-6.412592858862e-07 -1.820230310483e-01 0.0 
-8.533485475567e-06 -4.079008811989e-02 0.0 
1.892833657882e-06 -1.343038640621e-01 0.0 
1.110575553523e-06 -1.799331688263e-01 0.0 
5.111579954932e-06 -1.400231040535e-01 0.0 
6.484431573756e-06 -1.617989239392e-01 0.0 
-7.905509654535e-07 -1.751068885411e-01 0.0 
-2.864643390856e-06 -1.189905879270e-01 0.0 
1.132448782833e-05 -1.940647582824e-01 0.0 
4.365553064352e-06 -1.940624946578e-01 0.0 
-3.723618254447e-06 -9.830686004627e-02 0.0 
-5.533447081027e-06 -1.839802323019e-01 0.0 
-4.738176106744e-06 -9.648832646808e-02 0.0 
-4.406157243273e-06 -1.023116899459e-01 0.0 
-2.462209379223e-07 -1.560711025867e-01 0.0 
-6.519175767211e-06 -1.776853880316e-01 0.0 
4.040316367248e-06 -5.932633049300e-02 0.0 
-2.303036361193e-06 -1.908250109192e-01 0.0 
5.561168321436e-06 -1.582731389556e-01 0.0 
-8.156212083724e-06 -4.999436505834e-02 0.0 
-4.463137502896e-06 -1.862358108982e-01 0.0 
2.314442971887e-06 -1.091803500492e-01 0.0 
-2.747646442105e-06 -1.216504712969e-01 0.0 
-3.549111507925e-06 -1.870078491815e-01 0.0 
-8.412308536285e-06 -5.418151268324e-02 0.0 
6.477017963996e-06 -8.314382953027e-02 0.0 
-6.632590393053e-06 -1.837853331727e-01 0.0 
1.396952428285e-06 -5.224397355566e-02 0.0 
1.403192801902e-06 -5.162708832318e-02 0.0 
-3.703190199180e-06 -1.813690016518e-01 0.0 
8.157551313462e-06 -1.717849003775e-01 0.0 
-4.155983951908e-06 -1.806818109329e-01 0.0 
-1.672427162906e-06 -8.424266758547e-02 0.0 
-2.179954517243e-06 -1.241365582478e-01 0.0 
2.238614033083e-06 -5.150128533816e-02 0.0 
3.945988911861e-06 -5.876366688013e-02 0.0 
-4.194516643344e-06 -9.045824935276e-02 0.0 
-4.988331524530e-06 -8.983383649453e-02 0.0 
-4.130015401112e-06 -1.851165467156e-01 0.0 
-3.634889167618e-06 -8.359883439447e-02 0.0 
6.828228387825e-06 -8.264771857964e-02 0.0 
-1.642865813864e-06 -1.246178228057e-01 0.0 
7.358351295218e-06 -9.589431927191e-02 0.0 
6.437743657143e-06 -7.494892487074e-02 0.0 
-1.807637412632e-08 -1.380918400082e-01 0.0 
5.751400760230e-06 -6.591180000242e-02 0.0 
4.361937052023e-06 -1.452209801914e-01 0.0 
-1.940404511039e-08 -1.295570392607e-01 0.0 
8.989668290364e-06 -1.661088788025e-01 0.0 
-2.559045112284e-06 -1.633901063049e-01 0.0 
7.283497027785e-06 -8.913314188920e-02 0.0 
-3.112095161009e-06 -1.348765145415e-01 0.0 
-2.295553396414e-06 -1.783894790899e-01 0.0 
-4.981308927998e-06 -1.902377279477e-01 0.0 
6.634194952480e-06 -8.961038082208e-02 0.0 
-2.551939671402e-06 -1.781389943440e-01 0.0 
-6.170146657146e-06 -3.893178245854e-02 0.0 
7.216224281903e-06 -8.115226207253e-02 0.0 
-5.854706829614e-06 -7.519142359716e-02 0.0 
2.989424721238e-06 -2.125138460597e-02 0.0 
4.387499985009e-09 -1.499101697444e-01 0.0 
-4.194351737575e-06 -1.811402653151e-01 0.0 
-4.748239008479e-06 -1.888233818466e-01 0.0 
-5.850460470895e-06 -8.858742696171e-02 0.0 
9.094683975734e-06 -1.015906994328e-01 0.0 
-6.119362023937e-07 -1.914965010800e-01 0.0 
6.192223303350e-06 -1.654555382598e-01 0.0 
7.468927539285e-07 -1.845754154535e-01 0.0 
2.969627546400e-06 -1.033176242254e-01 0.0 
1.151869971460e-05 -1.621411989283e-01 0.0 
-4.507139568167e-06 -1.017200953165e-01 0.0 
6.894764671028e-06 -1.661756424683e-01 0.0 
7.256140780112e-06 -6.483094625734e-02 0.0 
1.489610592502e-06 -1.721079705772e-01 0.0 
-5.801179352488e-06 -8.671274954365e-02 0.0 
-2.037100116722e-06 -1.836950916580e-01 0.0 
-5.231356437331e-06 -9.466418057232e-02 0.0 
1.789913952266e-06 -1.354185433685e-01 0.0 
-6.418297308540e-06 -8.167500938839e-02 0.0 
-3.060666048748e-06 -1.660253501254e-01 0.0 
-2.815729245566e-06 -1.843717477117e-01 0.0 
-3.178637103368e-06 -1.148896901574e-01 0.0 
-3.726019317416e-06 -1.017964661024e-01 0.0 
3.278303631215e-06 -1.479537232547e-01 0.0 
8.169256433071e-06 -1.020030289069e-01 0.0 
-4.229634133271e-06 -1.809379463672e-01 0.0 
4.165516421353e-06 -9.816829611634e-02 0.0 
-3.159710164475e-06 -1.864122284735e-01 0.0 
-1.067906073629e-05 -5.622523440266e-02 0.0 
-3.841763942122e-06 -9.419974662224e-02 0.0 
-1.612346058438e-06 -8.266839014382e-02 0.0 
-7.601182737072e-07 -4.262318039951e-02 0.0 
-3.303322822988e-06 -1.238172891176e-01 0.0 
-1.051438760939e-05 -1.856066772242e-01 0.0 
-4.129548651998e-06 -1.062591046726e-01 0.0 
-1.124240347391e-05 -4.633542898600e-02 0.0 
-5.282969805745e-06 -1.719456898577e-01 0.0 
-5.807390507124e-06 -8.231346651694e-02 0.0 
7.415901434944e-06 -8.165286205170e-02 0.0 
-8.375947031363e-06 -1.799993813700e-01 0.0 
-4.565542937271e-06 -1.005527676982e-01 0.0 
-6.548828239962e-06 -1.171978612121e-01 0.0 
1.674901091334e-06 -1.766656324029e-01 0.0 
2.492054665331e-06 -1.685798763281e-01 0.0 
2.824863419179e-06 -1.288247601434e-01 0.0 
-5.991436331639e-06 -8.796282809954e-02 0.0 
4.776932474948e-06 -1.557700214605e-01 0.0 
2.584629701705e-06 -1.346832268070e-01 0.0 
5.930323138799e-06 -9.056077191773e-02 0.0 
4.428473193000e-06 -1.087688926489e-01 0.0 
-2.045501666048e-07 -1.112012542221e-01 0.0 
2.308515640365e-06 -1.350464617715e-01 0.0 
-5.555735844765e-06 -6.104881958688e-02 0.0 
-3.867296725933e-06 -1.117847579399e-01 0.0 
-1.755141778449e-06 -1.161373733488e-01 0.0 
1.450598075296e-06 -4.539765922745e-02 0.0 
4.496880350170e-08 -7.448180853847e-02 0.0 
-5.198270920732e-06 -9.405542106937e-02 0.0 
6.376114628957e-06 -7.443130727568e-02 0.0 
-8.431870898411e-07 -1.600345571241e-01 0.0 
8.521704460470e-07 -1.644591075956e-01 0.0 
-5.938276218230e-06 -1.852922803092e-01 0.0 
-4.616795304261e-06 -9.878853552060e-02 0.0 
2.945816175592e-06 -1.610984511724e-01 0.0 
4.726616507669e-06 -9.726482803087e-02 0.0 
2.745657130038e-06 -1.046211527873e-01 0.0 
-1.017516828383e-06 -1.340261586266e-01 0.0 
-1.117416926247e-06 -1.711967174318e-01 0.0 
-2.091564077213e-06 -1.682189222082e-01 0.0 
1.059182377655e-06 -1.682654814882e-01 0.0 
-4.564151297365e-07 -1.641202230861e-01 0.0 
-6.258708401460e-06 -1.832049129848e-01 0.0 
-6.777735453959e-06 -6.790288330931e-02 0.0 
-3.169416875391e-06 -1.498277419672e-01 0.0 
5.382174790881e-06 -6.644911251519e-02 0.0 
-3.366269550108e-06 -1.445205609517e-01 0.0 
-4.197486301263e-06 -1.056902205132e-01 0.0 
-3.066295814260e-06 -1.297108709830e-01 0.0 
2.198912312035e-06 -1.360042168765e-01 0.0 
-6.553462462115e-06 -1.834128826210e-01 0.0 
-7.056301315733e-06 -5.344969589514e-02 0.0 
-7.273666218669e-06 -4.409293295641e-02 0.0 
-1.141305431932e-07 -9.801704162348e-02 0.0 
-1.865042742833e-06 -1.596702000669e-01 0.0 
-3.486179450819e-06 -1.181839783765e-01 0.0 
5.079277897520e-06 -9.681054788584e-02 0.0 
8.381495291401e-07 -1.564445912422e-01 0.0 
2.388484285397e-06 -1.532282778020e-01 0.0 
1.186438704180e-06 -1.724003044751e-01 0.0 
-5.751711541658e-06 -1.779375345161e-01 0.0 
-2.039935866885e-06 -1.553064512946e-01 0.0 
-8.373365787874e-07 -1.756497071850e-01 0.0 
-1.204332709122e-06 -1.791323209140e-01 0.0 
-2.842559141982e-06 -1.301940376097e-01 0.0 
-4.566100240482e-06 -9.996344359687e-02 0.0 
-3.883350944880e-06 -6.153951190571e-02 0.0 
7.030267499033e-06 -1.941803416323e-01 0.0 
-3.086024866342e-06 -1.473466563631e-01 0.0 
-3.524082521360e-06 -1.485751870737e-01 0.0 
-2.662013300826e-06 -1.548967740403e-01 0.0 
2.549963560265e-06 -1.041877497108e-01 0.0 
-3.033244638177e-06 -1.402656874995e-01 0.0 
4.700016124049e-06 -1.692027251668e-01 0.0 
-2.748884295203e-06 -1.502622192989e-01 0.0 
7.833669771211e-06 -7.287457333634e-02 0.0 
2.463192970222e-06 -1.695137907205e-01 0.0 
-4.734664014213e-06 -1.904595997431e-01 0.0 
-4.724346466518e-06 -1.873296633056e-01 0.0 
-5.473157111133e-06 -1.751950292691e-01 0.0 
-2.383151532901e-06 -1.672365560362e-01 0.0 
-3.188364290107e-06 -1.432435951937e-01 0.0 
-3.239297534552e-06 -1.449461599120e-01 0.0 
3.360309024516e-07 -1.855332098861e-01 0.0 
-9.005703797018e-06 -1.874360905844e-01 0.0 
-1.374552156437e-06 -1.130690002270e-01 0.0 
-7.857745341169e-07 -1.759197802396e-01 0.0 
-6.454537962652e-06 -7.587110013615e-02 0.0 
-4.425747627393e-06 -6.988836075178e-02 0.0 
1.797004325661e-05 -1.106324948098e-01 0.0 
2.732258322794e-06 -6.213690182755e-02 0.0 
3.593506728956e-06 -5.280015535186e-02 0.0 
-4.731797265761e-07 -1.385074931875e-01 0.0 
-2.278013005839e-06 -8.443908009765e-02 0.0 
-4.468923712359e-06 -1.830220943127e-01 0.0 
-1.921811061050e-06 -1.462483744227e-01 0.0 
1.539384482898e-06 -1.464648201877e-01 0.0 
-9.149114618431e-06 -1.792550362287e-01 0.0 
3.378382619189e-06 -1.871818968875e-01 0.0 
1.549768953005e-06 -1.607469302890e-01 0.0 
-3.537727108371e-06 -1.489838812609e-01 0.0 
-3.311540910639e-06 -1.436680606890e-01 0.0 
-9.988224049764e-07 -1.729814430833e-01 0.0 
-3.238534585782e-06 -1.344191481795e-01 0.0 
-3.240167589984e-06 -1.477572514890e-01 0.0 
-2.537121175160e-06 -1.419771571808e-01 0.0 
-1.302377203346e-06 -1.676023157603e-01 0.0 
-4.334290785753e-06 -9.238327172529e-02 0.0 
5.173529482710e-06 -9.103083692670e-02 0.0 
-2.244422457228e-06 -1.461124176086e-01 0.0 
-5.998043514543e-06 -6.035617758929e-02 0.0 
-7.018217552275e-06 -1.802416339995e-01 0.0 
-4.300722783141e-06 -4.158167940161e-02 0.0 
-3.245572026048e-06 -1.389389161016e-01 0.0 
-2.392196364098e-06 -4.287197493273e-02 0.0 
5.801304645193e-06 -1.081238680638e-01 0.0 
-4.802094082238e-06 -1.807120775991e-01 0.0 
1.370231260890e-05 -1.052113829659e-01 0.0 
2.865965725235e-06 -5.673552122408e-02 0.0 
-3.195433865040e-06 -1.330948734390e-01 0.0 
2.120160051856e-06 -1.629258264614e-01 0.0 
9.979458523219e-06 -9.960971418659e-02 0.0 
3.396384863685e-06 -1.386108063094e-01 0.0 
-9.961923286516e-07 -1.853462357297e-01 0.0 
4.371116806699e-06 -2.822813484269e-02 0.0 
9.961815286830e-07 -1.875388673022e-01 0.0 
1.317011427088e-05 -4.519380964028e-02 0.0 
3.199331134195e-06 -4.987573614023e-02 0.0 
-4.689622841192e-06 -8.630118036777e-02 0.0 
-9.638088718273e-07 -1.100827926753e-01 0.0 
3.621190601371e-06 -6.968255332068e-02 0.0 
-2.808319370963e-06 -1.424077791712e-01 0.0 
-1.584077717762e-06 -1.230643678318e-01 0.0 
3.829330396967e-06 -4.587543392988e-02 0.0 
-5.539811317618e-06 -8.608893024352e-02 0.0 
4.180669913437e-06 -8.461338155216e-02 0.0 
-4.670199477422e-06 -9.531977197095e-02 0.0 
-5.917582956842e-06 -1.828037971977e-01 0.0 
3.423896787384e-06 -7.803000258002e-02 0.0 
1.101981243381e-06 -2.580184916744e-02 0.0 
-5.880912148040e-06 -4.320258398825e-02 0.0 
-2.487461416967e-06 -1.458261531817e-01 0.0 
-1.030811468112e-06 -1.104986380157e-01 0.0 
-7.179395971696e-06 -1.169286480822e-01 0.0 
-3.286656078507e-06 -1.393827221772e-01 0.0 
-4.920217603587e-06 -9.223625375112e-02 0.0 
-5.477350021538e-06 -8.420264727390e-02 0.0 
-4.115213149954e-06 -1.889694623772e-01 0.0 
-3.949596303323e-06 -1.746050412254e-01 0.0 
-1.767079312187e-06 -1.406624725464e-01 0.0 
-2.564094265479e-06 -1.465303378240e-01 0.0 
2.551277870557e-06 -1.398757375055e-01 0.0 
2.973332300777e-06 -3.718336203816e-02 0.0 
-2.390522784680e-06 -5.319584998504e-02 0.0 
2.266729444563e-06 -5.046566684363e-02 0.0 
6.889550547371e-06 -1.510334438528e-01 0.0 
3.810221020432e-06 -7.236719159419e-02 0.0 
-4.937460189074e-06 -9.284227766794e-02 0.0 
-4.439177705161e-06 -4.417603894095e-02 0.0 
4.088076945880e-06 -8.605744901616e-02 0.0 
-2.701941100780e-06 -1.407112034375e-01 0.0 
-1.580100189395e-06 -1.448678275154e-01 0.0 
3.734122926688e-06 -7.752048919120e-02 0.0 
1.493140263737e-06 -5.378602495926e-02 0.0 
6.236911386237e-06 -7.599165023683e-02 0.0 
5.070203613824e-06 -8.412913628051e-02 0.0 
-6.726597300344e-06 -6.245696377778e-02 0.0 
3.763013351718e-06 -5.197982452610e-02 0.0 
-5.848405249113e-06 -6.924197244004e-02 0.0 
-3.700214672234e-06 -1.128760837684e-01 0.0 
1.300689041391e-05 -1.528941619628e-01 0.0 
-5.355433937240e-06 -7.819370526809e-02 0.0 
5.131629564085e-06 -8.840989210914e-02 0.0 
-1.752829813348e-06 -1.788882884813e-01 0.0 
-1.981099148616e-06 -1.410995909668e-01 0.0 
-2.077266705914e-06 -1.255790402654e-01 0.0 
-2.552030650575e-06 -1.111515901520e-01 0.0 
-7.941434212162e-06 -1.785642097496e-01 0.0 
-1.795434656726e-06 -1.452711049607e-01 0.0 
-3.590227079996e-06 -9.829039576684e-02 0.0 
1.117979873240e-05 -1.402942842522e-01 0.0 
-2.557054951333e-06 -1.358051971061e-01 0.0 
1.957486078226e-06 -9.992823012401e-02 0.0 
8.953019019189e-07 -1.348703242333e-01 0.0 
-1.092694544949e-05 -1.923874487415e-01 0.0 
-3.387035046387e-06 -1.187064200455e-01 0.0 
-5.319253946992e-06 -7.938951412098e-02 0.0 
8.090513814986e-07 -4.457967044415e-02 0.0 
-1.298068592509e-06 -1.289003572497e-01 0.0 
-2.980441746278e-06 -1.248228974133e-01 0.0 
2.955231121665e-06 -9.861724282589e-02 0.0 
-4.169695068619e-06 -1.899854142634e-01 0.0 
-4.962255948885e-06 -8.568139506196e-02 0.0 
-2.228143469931e-06 -1.180041608556e-01 0.0 
1.132358719143e-05 -1.352381450451e-01 0.0 
-5.242795006679e-06 -8.483426527041e-02 0.0 
-1.008243860300e-05 -1.794827802450e-01 0.0 
-5.967515427584e-06 -7.651754726929e-02 0.0 
-6.858916823271e-06 -5.115522256889e-02 0.0 
-4.316287571055e-06 -9.179401140826e-02 0.0 
5.586890692154e-06 -7.650689197810e-02 0.0 
-3.320961703217e-06 -7.236531062676e-02 0.0 
-6.105854914882e-06 -5.186670492939e-02 0.0 
-2.183571402592e-07 -1.865985939761e-01 0.0 
2.756900773022e-06 -9.242128761794e-02 0.0 
-4.708158671552e-06 -5.039869752881e-02 0.0 
4.584424666450e-06 -6.915320137923e-02 0.0 
-3.144267218121e-06 -1.051150430951e-01 0.0 
-1.339303082249e-06 -1.398078055162e-01 0.0 
-1.018334771804e-06 -1.277160768825e-01 0.0 
-1.489082860919e-05 -1.889068041878e-01 0.0 
4.184454146555e-06 -6.048983014094e-02 0.0 
5.884376524522e-07 -1.764100291817e-01 0.0 
9.505474408427e-06 -1.822635229746e-01 0.0 
-2.096639826936e-06 -7.879384325335e-02 0.0 
1.977458243410e-07 -4.202442253284e-02 0.0 
-8.641311539791e-06 -1.823294729940e-01 0.0 
2.963661153653e-06 -1.226949051715e-01 0.0 
3.553634064520e-06 -8.558015365101e-02 0.0 
-1.971110557443e-06 -1.315704005476e-01 0.0 
-7.633364570955e-06 -1.788116795152e-01 0.0 
1.256155838090e-06 -1.666564444147e-01 0.0 
-1.851861607142e-06 -1.869105890591e-01 0.0 
-1.020157171367e-05 -1.820785227997e-01 0.0 
-9.041094903326e-06 -1.846245592123e-01 0.0 
-2.137953908553e-06 -1.174829811804e-01 0.0 
1.135304152053e-06 -1.024234466751e-02 0.0 
1.879452488712e-05 -1.769828137225e-01 0.0 
-9.676252068039e-06 -5.548067610725e-02 0.0 
-8.825296734365e-07 -1.527390393537e-01 0.0 
5.416589691735e-06 -9.374934911061e-02 0.0 
-1.199588119390e-05 -1.853145846965e-01 0.0 
-4.604718107802e-06 -4.203237504414e-02 0.0 
-7.675095799465e-06 -1.848566307864e-01 0.0 
1.194004433229e-06 -1.698267708956e-01 0.0 
-3.552757400458e-06 -8.388472903853e-02 0.0 
-3.050014196550e-06 -1.380855022465e-01 0.0 
5.491358947434e-07 -5.899446097005e-02 0.0 
2.586509506834e-06 -1.612443738949e-01 0.0 
3.720058415851e-06 -8.104496050411e-02 0.0 
7.039664814616e-06 -4.405084253563e-02 0.0 
3.073710482636e-06 -9.196402890792e-02 0.0 
-7.681992409919e-07 -4.511275505774e-02 0.0 
3.183798795222e-06 -7.129773112454e-02 0.0 
3.294421486771e-06 -6.439751229503e-02 0.0 
-5.291414254622e-06 -1.821311429731e-01 0.0 
-9.673742572552e-06 -6.457291185542e-02 0.0 
4.247162783491e-06 -7.904645970291e-02 0.0 
4.953971237082e-07 -1.323554371418e-01 0.0 
1.472587123573e-05 -1.707260871938e-01 0.0 
3.114916732177e-06 -3.537761870113e-02 0.0 
-6.925912490826e-06 -1.778494457224e-01 0.0 
-1.731073226339e-07 -1.732276595927e-01 0.0 
1.337809141516e-06 -6.713570022205e-02 0.0 
1.620402531004e-06 -1.864589488638e-01 0.0 
2.176250187349e-06 -1.301713289810e-01 0.0 
-4.806626831898e-06 -7.758617163795e-02 0.0 
2.625985742359e-06 -4.858415784949e-02 0.0 
2.062222021028e-06 -4.096417679860e-02 0.0 
-4.395445628845e-06 -8.448460111479e-02 0.0 
2.316269541202e-06 -6.270340448487e-02 0.0 
6.023766088841e-08 -1.476973984099e-01 0.0 
-3.376585938135e-06 -7.699523181514e-02 0.0 
1.556396066388e-05 -1.634625479863e-01 0.0 
3.490320183910e-06 -4.842932152519e-02 0.0 
1.762713909463e-05 -1.552275819447e-01 0.0 
1.350515832491e-05 -1.507438052023e-01 0.0 
-7.942296270250e-07 -1.335816979819e-01 0.0 
9.936967267634e-06 -1.460106833720e-01 0.0 
1.095138245569e-06 -1.140525539420e-01 0.0 
1.876111247661e-06 -1.415744725914e-01 0.0 
-1.603992800251e-06 -1.353868715811e-01 0.0 
-9.272201793798e-06 -1.814927139123e-01 0.0 
-1.122121890656e-06 -1.393700702051e-01 0.0 
1.528037955575e-06 -5.323025671348e-02 0.0 
-2.530416528282e-06 -4.496754699384e-02 0.0 
-6.824564708788e-06 -7.977100483034e-02 0.0 
-1.644159471201e-08 -5.129797696232e-02 0.0 
-2.824112001049e-06 -1.376602813498e-01 0.0 
2.856144774403e-06 -6.383741853615e-02 0.0 
-1.391551037645e-06 -1.349354819961e-01 0.0 
-9.969430220448e-06 -5.770169664797e-02 0.0 
2.894975680475e-06 -7.075856936681e-02 0.0 
3.618525969472e-06 -7.289021943860e-02 0.0 
-3.669062366897e-06 -9.943748049261e-02 0.0 
-6.595808541624e-07 -1.436244495236e-01 0.0 
-4.863330720428e-06 -6.216058068370e-02 0.0 
7.123783270884e-06 -1.076263713211e-01 0.0 
-1.026863606831e-05 -1.816802185950e-01 0.0 
-7.714583029797e-06 -1.780936995657e-01 0.0 
2.460765260200e-06 -1.575633143756e-01 0.0 
3.374584111211e-06 -1.222304421601e-01 0.0 
-8.086991873092e-06 -5.048436838923e-02 0.0 
4.435308296334e-06 -7.955582641368e-02 0.0 
-1.085235816884e-06 -1.440425658965e-01 0.0 
9.899045585292e-07 -1.041809927950e-01 0.0 
-5.141105232628e-06 -7.100181268535e-02 0.0 
3.730390079711e-06 -6.105178164033e-02 0.0 
1.675433224491e-06 -5.367900365710e-02 0.0 
5.493233285380e-06 -1.007231499384e-01 0.0 
-9.220755185868e-06 -6.516053243954e-02 0.0 
-1.454921610178e-06 -1.293719453081e-01 0.0 
-5.377558350074e-06 -7.157783623243e-02 0.0 
2.300593245611e-06 -1.297203422200e-01 0.0 
5.674014329687e-06 -4.666221193347e-02 0.0 
5.445093497500e-06 -4.363386612814e-02 0.0 
-2.703052284156e-06 -1.122305942360e-01 0.0 
-1.013780945589e-05 -1.808077940326e-01 0.0 
-7.230182419944e-06 -6.510149147026e-02 0.0 
1.700049550939e-06 -1.191659788654e-01 0.0 
-5.368160353102e-07 -1.480981230606e-01 0.0 
-3.205099290325e-06 -1.056728675038e-01 0.0 
-7.264074332352e-06 -7.459640410290e-02 0.0 
-1.012669969652e-05 -1.810333727820e-01 0.0 
-1.831120296809e-06 -1.240571355655e-01 0.0 
1.091902854157e-05 -9.912624179031e-02 0.0 
-6.217197734071e-06 -5.116395082465e-02 0.0 
7.535246670295e-06 -9.332264316269e-02 0.0 
-3.834172990947e-06 -7.174642910790e-02 0.0 
1.531723987882e-05 -1.047417235178e-01 0.0 
2.736336526118e-05 -1.154839605957e-01 0.0 
3.801835267757e-06 -1.021403000238e-01 0.0 
3.826095015577e-06 -6.034082889591e-02 0.0 
-7.887369813549e-06 -7.193833068135e-02 0.0 
5.359178962071e-06 -8.700457054970e-02 0.0 
3.017414639092e-06 -4.045956884143e-02 0.0 
2.021595830976e-05 -1.101826837763e-01 0.0 
-1.579112824128e-06 -1.612774373635e-01 0.0 
-1.313904560436e-05 -5.713164023150e-02 0.0 
-3.854028111027e-06 -4.460037059938e-02 0.0 
1.897208713837e-06 -1.310876832221e-01 0.0 
1.890060496787e-06 -1.250098985692e-01 0.0 
-1.189714349196e-06 -1.531173943419e-01 0.0 
4.138400152769e-06 -8.056339610449e-02 0.0 
4.283395165144e-06 -1.517919260077e-01 0.0 
6.276092041535e-07 -1.082447581587e-01 0.0 
3.336879743290e-06 -1.521229316994e-01 0.0 
-1.088834802448e-06 -7.566849461423e-02 0.0 
-7.814255965584e-06 -4.087847259682e-02 0.0 
-1.547338854709e-06 -1.492821207296e-01 0.0 
-1.220266035479e-05 -1.890532263093e-01 0.0 
7.930183045204e-07 -4.192842986663e-02 0.0 
5.993780267562e-06 -1.468493791214e-01 0.0 
-2.189334866255e-06 -1.317742268034e-01 0.0 
-1.350698246046e-05 -4.938174790614e-02 0.0 
5.253965869466e-06 -8.748911239611e-02 0.0 
-5.827588373204e-06 -7.847413372489e-02 0.0 
1.046534585288e-06 -1.468789142457e-01 0.0 
-1.289084710395e-05 -1.905491067971e-01 0.0 
-6.334598215034e-06 -4.320904043484e-02 0.0 
2.429212364083e-06 -1.172539061289e-01 0.0 
-1.311752052758e-06 -8.917201694553e-02 0.0 
-5.648350518695e-06 -5.440385063780e-02 0.0 
-7.150663957935e-06 -1.926149391893e-01 0.0 
-5.547814647751e-06 -7.782549266861e-02 0.0 
-1.046803442127e-06 -1.706037993244e-01 0.0 
6.876584346524e-06 -1.011209733298e-01 0.0 
-2.838030434949e-06 -1.202394983049e-01 0.0 
-1.269655673791e-06 -1.488945944217e-01 0.0 
-8.430022782088e-06 -5.837580943879e-02 0.0 
1.448513896062e-06 -1.135637031523e-01 0.0 
-1.500566707621e-06 -1.574887299441e-01 0.0 
1.907940744235e-06 -1.110969877139e-01 0.0 
-9.285788271407e-06 -1.906765907732e-01 0.0 
-1.918524094824e-06 -8.501404706013e-02 0.0 
-2.303833450015e-06 -7.629783574761e-02 0.0 
-7.920314180061e-07 -3.504465334374e-02 0.0 
-4.253313272922e-06 -7.050230526822e-02 0.0 
-4.584076782101e-06 -1.722210471538e-01 0.0 
-6.981736171341e-06 -8.041232388329e-02 0.0 
-4.744923899055e-06 -3.646406695344e-02 0.0 
-5.230370218518e-06 -2.605025835548e-02 0.0 
8.353133159188e-07 -6.780022058413e-02 0.0 
3.925761944859e-07 -1.428080716936e-01 0.0 
1.453262084736e-07 -9.854293240191e-02 0.0 
-7.211767307417e-06 -5.279942595450e-02 0.0 
-5.070889281244e-07 -1.309183825715e-01 0.0 
-2.844662672648e-06 -7.818414329405e-02 0.0 
4.333633188388e-06 -9.331159428784e-02 0.0 
-9.412286874060e-06 -6.527102515491e-02 0.0 
-5.663259484140e-06 -6.991829984284e-02 0.0 
-3.483654532477e-06 -1.399680649095e-01 0.0 
-2.249553439689e-06 -1.400101759002e-01 0.0 
8.788194000232e-06 -9.223580255375e-02 0.0 
-6.580500042174e-07 -9.218317994518e-02 0.0 
-3.041862993969e-06 -1.150340642627e-01 0.0 
2.676885044324e-06 -9.543342893295e-02 0.0 
1.194370831827e-06 -1.201270922616e-01 0.0 
-6.621925040285e-06 -4.881558172935e-02 0.0 
8.802088715613e-07 -1.424028344899e-01 0.0 
-3.445437648905e-06 -1.033495822864e-02 0.0 
2.925859440789e-05 -1.268573058642e-01 0.0 
1.737757428167e-06 -1.254821611756e-01 0.0 
-3.078550951126e-06 -1.197360923368e-01 0.0 
-4.848010817882e-06 -1.748760842608e-01 0.0 
-2.214868215762e-06 -1.362552922132e-01 0.0 
1.200642822088e-06 -1.052038094219e-01 0.0 
3.402183533898e-06 -1.158193207654e-01 0.0 
6.694727660275e-06 -9.463171434843e-02 0.0 
3.620975290569e-07 -8.899369773627e-02 0.0 
-6.090606926327e-07 -8.183266046766e-02 0.0 
1.767052644389e-05 -1.903454704477e-01 0.0 
-1.794104009292e-06 -1.415835197856e-01 0.0 
4.821567466782e-06 -1.472494571491e-01 0.0 
7.796203278735e-06 -1.006351389109e-01 0.0 
6.610679582960e-06 -9.386515879542e-02 0.0 
8.928795511435e-06 -5.383980548595e-02 0.0 
3.261478239008e-06 -1.843782072556e-01 0.0 
-1.261539419644e-05 -1.836939367221e-01 0.0 
2.433211040661e-06 -1.236222424429e-01 0.0 
-1.263564747613e-06 -1.420021355340e-01 0.0 
1.669769432672e-05 -1.510574238610e-01 0.0 
6.102506086071e-06 -1.463335038381e-01 0.0 
6.990733091812e-06 -9.507092966184e-02 0.0 
-7.068838297059e-06 -1.841969480681e-01 0.0 
-2.210659381133e-06 -1.262525712123e-01 0.0 
-5.251867578034e-06 -7.997607756690e-02 0.0 
-1.316182245795e-05 -1.834820653574e-01 0.0 
1.864097908547e-06 -2.102014539619e-02 0.0 
3.172887533320e-06 -5.573415791371e-02 0.0 
-6.501500515868e-07 -1.329536258646e-01 0.0 
-7.783085577610e-06 -7.327776303379e-02 0.0 
6.278169886015e-06 -1.916922402975e-01 0.0 
-5.065348297087e-06 -8.803691609532e-02 0.0 
2.244828886891e-06 -1.177328694154e-01 0.0 
1.075786593592e-05 -1.917213975828e-01 0.0 
2.921835414865e-06 -5.513930562016e-02 0.0 
-1.424281081889e-05 -1.854967309182e-01 0.0 
6.353180833767e-06 -1.011501224213e-01 0.0 
2.888853809748e-06 -1.162925172690e-01 0.0 
-2.183467117059e-06 -1.367670693264e-01 0.0 
-4.295060095408e-06 -1.098898017108e-01 0.0 
3.371184262813e-06 -4.814288829800e-02 0.0 
-4.998508443268e-06 -9.666311737077e-02 0.0 
1.883674610437e-06 -1.186916579496e-01 0.0 
2.198028614547e-06 -1.240845908924e-01 0.0 
-1.677526307769e-05 -1.932317298154e-01 0.0 
-1.288139049842e-05 -1.874711020627e-01 0.0 
-6.434008698715e-06 -6.400671503190e-02 0.0 
2.420723006398e-05 -1.092600544883e-01 0.0 
-1.182966059540e-05 -5.665574531200e-02 0.0 
-6.247926280019e-07 -1.703647213939e-01 0.0 
1.334553701729e-06 -6.881188861709e-02 0.0 
-7.062580287715e-06 -5.500161658918e-02 0.0 
1.089907138967e-05 -1.420383800463e-01 0.0 
-6.105126134977e-06 -6.337229115152e-02 0.0 
-7.360622575553e-06 -7.391584967672e-02 0.0 
7.020134026003e-07 -9.963550185452e-02 0.0 
-2.277832117618e-06 -1.311342515468e-01 0.0 
-2.757901457485e-06 -1.253130162433e-01 0.0 
8.939754586554e-07 -4.256416411543e-02 0.0 
-3.676315533209e-06 -1.220206032537e-01 0.0 
1.956659232342e-06 -1.106000618654e-01 0.0 
-2.946661783663e-07 -1.213554345939e-01 0.0 
-6.079660421541e-06 -8.238348915002e-02 0.0 
1.559195158737e-06 -1.315325021573e-01 0.0 
-3.575896095840e-06 -1.690963987494e-01 0.0 
-2.286413452084e-06 -1.190554065311e-01 0.0 
-2.238197908204e-06 -1.651727717632e-01 0.0 
3.905751984643e-06 -9.494074807312e-02 0.0 
-2.567107215727e-06 -1.654735768505e-01 0.0 
2.785459852874e-06 -1.026725669626e-01 0.0 
2.861427719025e-06 -6.105784275111e-02 0.0 
-1.344352628200e-06 -6.914657557271e-02 0.0 
1.516612873791e-06 -1.368769302915e-01 0.0 
1.047793869371e-05 -1.018907741996e-01 0.0 
-7.450416433643e-06 -6.658322458866e-02 0.0 
-6.555407489121e-06 -6.722034138055e-02 0.0 
-1.479170319236e-05 -1.878847551962e-01 0.0 
7.317136630374e-07 -9.648206950103e-02 0.0 
-4.495292110388e-06 -4.226205240845e-02 0.0 
5.381389881262e-06 -1.659505766702e-01 0.0 
-2.040523014176e-06 -1.217886368165e-01 0.0 
-1.751654604690e-05 -1.924594489401e-01 0.0 
-5.665219698545e-06 -5.969250866610e-02 0.0 
-3.972615546933e-06 -1.719497538168e-01 0.0 
1.418343725163e-06 -1.260670185653e-01 0.0 
-1.121573884673e-06 -8.883279097747e-02 0.0 
1.219207091246e-05 -1.023153123519e-01 0.0 
2.157164565367e-05 -1.088272759142e-01 0.0 
1.837734260253e-06 -1.120980860480e-01 0.0 
1.778220007483e-05 -1.597781723868e-01 0.0 
1.195951506902e-05 -1.555540670439e-01 0.0 
-4.820483167244e-06 -6.038099576955e-02 0.0 
-4.569074788507e-06 -1.031996076335e-01 0.0 
-2.158121283114e-06 -1.260833391565e-01 0.0 
-4.573055311193e-06 -8.749586111259e-02 0.0 
-1.743025808677e-06 -1.303268485875e-01 0.0 
-2.635525553149e-06 -1.685243003250e-01 0.0 
1.553928575454e-05 -1.594901965295e-01 0.0 
2.828337445537e-05 -1.212015186319e-01 0.0 
-5.445293429828e-06 -1.428712389806e-01 0.0 
-3.004457781696e-06 -6.983503938679e-02 0.0 
1.013560395301e-06 -1.372911981319e-01 0.0 
-6.349448196942e-06 -3.503896653568e-02 0.0 
-3.100205347951e-06 -6.330529668237e-02 0.0 
-1.906782732701e-06 -1.245606492599e-01 0.0 
-1.676179505679e-06 -3.294491549850e-02 0.0 
-2.386906013278e-06 -1.622093318463e-01 0.0 
-8.596383085812e-06 -4.262970985489e-02 0.0 
1.711762409913e-06 -1.125945261328e-01 0.0 
5.272463705375e-08 -9.391875849405e-02 0.0 
-1.260555650083e-05 -5.712259660249e-02 0.0 
-3.097739859903e-06 -1.588599436703e-01 0.0 
1.279827957161e-06 -1.036932716324e-01 0.0 
-1.872130070762e-06 -1.308102819138e-01 0.0 
2.759912355124e-06 -1.096391441993e-01 0.0 
4.169217209024e-07 -1.669265687404e-01 0.0 
-1.516908675522e-06 -8.787143046416e-02 0.0 
-1.947116898766e-06 -1.363074233278e-01 0.0 
-3.282261463887e-06 -1.144776113132e-01 0.0 
3.620316505852e-06 -1.091430126842e-01 0.0 
-1.988269771864e-05 -1.928714583390e-01 0.0 
-9.399765186751e-07 -1.093062577655e-01 0.0 
-7.895101558382e-06 -1.903290934216e-01 0.0 
-5.673254602048e-06 -1.892306560385e-01 0.0 
-2.233027601746e-06 -1.212794277840e-01 0.0 
-3.540850227725e-06 -6.872145824812e-02 0.0 
1.626411843568e-05 -1.033355501016e-01 0.0 
1.515804969281e-05 -1.675108314393e-01 0.0 
-2.448701948132e-06 -5.050904282751e-03 0.0 
-1.261439167469e-05 -1.938417937289e-01 0.0 
9.198688676303e-06 -1.637711491731e-01 0.0 
-2.546418957545e-06 -1.206634633414e-01 0.0 
-6.822032310618e-07 -1.281737524808e-01 0.0 
1.315281260216e-05 -1.485712479792e-01 0.0 
-2.901629799969e-06 -1.594812171343e-01 0.0 
-3.859652485539e-06 -1.159016979344e-01 0.0 
1.314819815299e-06 -1.057259444695e-01 0.0 
-1.494871897470e-06 -9.628094861442e-02 0.0 
-1.622781426297e-06 -5.772435501716e-02 0.0 
-1.111953979034e-05 -1.862474171206e-01 0.0 
-1.285365710061e-06 -1.324828057565e-01 0.0 
-1.853106991466e-06 -1.227356405455e-01 0.0 
-1.911167670102e-06 -1.742602715254e-01 0.0 
2.293508256134e-05 -1.367782190973e-01 0.0 
1.742114654694e-05 -1.038359549201e-01 0.0 
-1.275852203798e-06 -8.564720370315e-02 0.0 
6.218511181116e-06 -1.922960166427e-01 0.0 
-8.709742131419e-07 -1.933269741662e-01 0.0 
-2.985948839953e-06 -1.846399177188e-01 0.0 
-1.867059286827e-06 -1.231955916716e-01 0.0 
-1.953367082797e-06 -1.541922128601e-01 0.0 
-2.849567168072e-06 -1.631232306276e-01 0.0 
-3.870569170716e-06 -1.693508311094e-01 0.0 
-2.767863281925e-06 -1.161317368749e-01 0.0 
8.893623847602e-06 -9.163692885236e-02 0.0 
-3.440095014112e-06 -1.175666044811e-01 0.0 
-1.747395653595e-06 -1.538386691304e-01 0.0 
8.648591805262e-08 -9.700664265578e-02 0.0 
7.054819645631e-06 -1.248542655392e-01 0.0 
-5.184763962175e-07 -7.384905606443e-02 0.0 
-3.686653040964e-06 -1.180349779793e-01 0.0 
-2.916578799956e-06 -1.166210650055e-01 0.0 
1.374432666612e-05 -1.742418267287e-01 0.0 
-2.203612715315e-06 -1.504431361321e-01 0.0 
-4.870550646468e-06 -1.122118854002e-01 0.0 
-2.747877094872e-06 -9.869475624615e-02 0.0 
-2.903341826079e-06 -1.113958401378e-01 0.0 
7.309371825252e-06 -1.710215466763e-01 0.0 
-3.687903422752e-06 -1.107597819474e-01 0.0 
-4.030830729238e-06 -1.641380257035e-01 0.0 
-7.532571944080e-06 -1.871918172530e-01 0.0 
-6.204155060933e-06 -4.303034280640e-02 0.0 
-5.731697931741e-08 -1.859776272668e-01 0.0 
-3.905299862854e-06 -1.605393630677e-01 0.0 
-4.328302569847e-07 -1.152899153913e-01 0.0 
1.269783670610e-05 -1.672467575688e-01 0.0 
-4.585629699739e-06 -1.126862307900e-01 0.0 
-1.035791825984e-06 -1.766265780653e-01 0.0 
2.947015116305e-05 -1.318476911839e-01 0.0 
-4.197467341546e-06 -1.112453702969e-01 0.0 
-2.558781554441e-06 -1.322368168364e-01 0.0 
-1.846055017848e-06 -1.267360477418e-01 0.0 
-2.109193515335e-05 -1.926661153734e-01 0.0 
-2.190174606611e-06 -5.566613121278e-02 0.0 
-3.125525222598e-06 -1.516060365496e-01 0.0 
-1.728203254116e-06 -5.533753325569e-02 0.0 
-3.026462145417e-07 -9.447954655288e-02 0.0 
-4.362260921533e-06 -1.051878149993e-01 0.0 
-4.788786199603e-06 -1.056859566044e-01 0.0 
-2.185422018450e-06 -1.584733630693e-01 0.0 
2.909721544735e-06 -1.905973013387e-01 0.0 
-1.484744459045e-05 -1.923336718438e-01 0.0 
-2.525614584455e-06 -9.939033615920e-02 0.0 
-1.081271711298e-05 -5.681386812970e-02 0.0 
-4.385308554115e-06 -1.651764757823e-01 0.0 
-1.366302604286e-06 -9.055964439918e-02 0.0 
4.814339742969e-07 -1.697640679791e-01 0.0 
-5.666984373471e-07 -8.951007136551e-02 0.0 
-1.454869594564e-06 -2.621922299952e-02 0.0 
7.105853586986e-08 -1.942281410331e-01 0.0 
6.572302246365e-06 -5.248270837171e-03 0.0 
-7.141454029763e-07 -5.697512781438e-03 0.0 
-1.015082734967e-06 -1.296148160965e-01 0.0 
-3.733126924718e-06 -1.527764478306e-01 0.0 
8.906831362060e-07 -1.001950355727e-01 0.0 
-1.780564831103e-06 -1.578224784248e-01 0.0 
-2.011348135807e-06 -1.906143661256e-01 0.0 
-1.486646752175e-05 -1.933091229644e-01 0.0 
6.391347890953e-06 -4.133390317952e-02 0.0 
1.263938565886e-05 -9.805770864081e-02 0.0 
1.593363040481e-05 -1.413411154778e-01 0.0 
8.656805524770e-07 -1.037656647412e-02 0.0 
4.276434441507e-06 -1.819993416193e-01 0.0 
1.106559069081e-06 -1.002405514201e-02 0.0 
1.249737727383e-05 -9.760175107668e-02 0.0 
-3.462617682152e-06 -1.540012176482e-01 0.0 
1.377517698565e-06 -1.067819182724e-01 0.0 
-4.111155764300e-06 -1.571464503696e-01 0.0 
-5.763684560323e-06 -1.851116386173e-01 0.0 
-4.123663436475e-06 -1.616700607354e-01 0.0 
6.627529523053e-06 -8.559082503667e-02 0.0 
-4.605112824361e-06 -5.499897479287e-02 0.0 
-3.336049006965e-06 -1.560306455086e-01 0.0 
-2.308025897152e-06 -8.284556868795e-02 0.0 
4.652925994522e-06 -1.941528094042e-01 0.0 
-2.430764329736e-06 -1.549303424273e-01 0.0 
3.563188051028e-06 -7.609661535160e-02 0.0 
-3.169664795413e-06 -1.629895271626e-01 0.0 
-4.255474082714e-06 -1.692341469643e-01 0.0 
1.297894244211e-06 -1.072767743762e-01 0.0 
-1.417660880622e-05 -1.862274119409e-01 0.0 
1.656819686963e-05 -1.801243373568e-01 0.0 
1.899755872295e-05 -1.773965003599e-01 0.0 
-3.544820421493e-06 -1.700552261891e-01 0.0 
-2.909717601425e-06 -1.211748690956e-01 0.0 
9.783727563083e-07 -1.263793979179e-01 0.0 
-2.462402319105e-06 -8.337056856688e-02 0.0 
-1.079632725625e-06 -3.749582892956e-02 0.0 
1.204648654516e-05 -1.740347603147e-01 0.0 
-3.053919979789e-06 -8.451524467410e-02 0.0 
4.169802365537e-06 -3.640074955944e-02 0.0 
-2.188020255133e-06 -1.619119909315e-01 0.0 
-9.458973040992e-06 -1.902129305485e-01 0.0 
3.818279661066e-06 -1.662584793424e-01 0.0 
-3.301616730277e-06 -1.274901706495e-01 0.0 
9.076124525336e-07 -8.135049940271e-02 0.0 
-2.890866615180e-06 -1.270573349437e-01 0.0 
-7.082285562258e-06 -1.895771011716e-01 0.0 
-3.766603294523e-06 -1.090522519747e-01 0.0 
-3.261087846304e-06 -1.827809217344e-01 0.0 
4.176271997702e-07 -1.267880650620e-01 0.0 
-3.503804668852e-06 -1.154887994821e-01 0.0 
4.556888302569e-07 -1.012506797353e-01 0.0 
2.273859716368e-06 -1.011846823598e-01 0.0 
-3.022046559076e-06 -1.704605531981e-01 0.0 
-9.053249652622e-06 -1.890098773874e-01 0.0 
-4.396465804309e-06 -1.027749563497e-01 0.0 
-2.100867804391e-06 -1.801725427309e-01 0.0 
-1.970809422028e-06 -1.932851597845e-01 0.0 
2.373759511361e-06 -3.769491866010e-02 0.0 
1.917116592651e-06 -5.446811623429e-02 0.0 
-5.123401034652e-06 -1.933092049920e-01 0.0 
-5.005658835072e-06 -9.578627827927e-02 0.0 
-3.227049107339e-06 -1.799381454367e-01 0.0 
-2.491225051803e-06 -1.773850750742e-01 0.0 
-3.100970055598e-06 -6.816008214591e-02 0.0 
1.387794406916e-07 -1.017298127280e-01 0.0 
-3.471668314015e-06 -7.644939808947e-02 0.0 
-2.782272623709e-06 -1.552896260807e-01 0.0 
-2.699290088764e-06 -1.431187064436e-01 0.0 
-1.119518395671e-06 -2.214538264473e-02 0.0 
-3.575051266198e-06 -1.825352726053e-01 0.0 
-2.847242761386e-06 -6.331972408880e-02 0.0 
7.729997150688e-07 -1.205795100687e-01 0.0 
7.862360972970e-06 -1.867253551806e-01 0.0 
4.369542767891e-06 -8.745825004417e-02 0.0 
-1.968644751243e-06 -1.500389419045e-01 0.0 
-2.860188424946e-06 -1.917173516079e-01 0.0 
-2.727296963392e-06 -1.628085955556e-01 0.0 
-6.547460682732e-07 -9.249045302595e-02 0.0 
6.314152211465e-06 -8.619419324933e-02 0.0 
7.569323134735e-08 -1.877231302620e-01 0.0 
6.333875810592e-06 -1.276072964222e-01 0.0 
-2.107242481819e-06 -7.486648751727e-02 0.0 
-1.525125110165e-06 -6.600430126601e-02 0.0 
-3.741281644687e-06 -1.660086011281e-01 0.0 
-2.671032163272e-06 -1.761752012431e-01 0.0 
7.409007991239e-08 -1.149226580102e-01 0.0 
1.524611627196e-06 -1.054418973795e-01 0.0 
-7.858454762425e-06 -1.918101647118e-01 0.0 
-2.679609363012e-06 -2.549687878981e-02 0.0 
-1.142184082665e-06 -2.223198591030e-02 0.0 
-7.217768423065e-06 -1.221371746774e-01 0.0 
9.135051965121e-06 -2.931299900859e-02 0.0 
-2.780644924150e-06 -2.104366141066e-02 0.0 
-2.874792817538e-06 -1.512203400009e-01 0.0 
-3.628769674599e-06 -1.563969915743e-01 0.0 
1.346331648655e-07 -2.647805465609e-02 0.0 
-2.403062866963e-06 -1.941207963370e-01 0.0 
1.014956202499e-06 -1.794922045306e-01 0.0 
4.350484575720e-06 -1.231983440082e-01 0.0 
-3.516545078447e-06 -1.664306498849e-01 0.0 
-3.622925312183e-06 -1.638015487150e-01 0.0 
3.841536290183e-06 -1.849201477492e-01 0.0 
3.646582337626e-06 -1.826505999741e-01 0.0 
-1.824338609598e-06 -1.239028845313e-01 0.0 
-2.427851301317e-06 -1.588072984089e-01 0.0 
1.333420036753e-07 -1.739183645623e-01 0.0 
-3.778308009005e-06 -7.348404261833e-02 0.0 
-6.391395613067e-06 -1.000643541172e-02 0.0 
-4.587131730849e-06 -1.122325777484e-02 0.0 
-3.572388613874e-06 -1.523829777411e-01 0.0 
2.036013656865e-05 -1.309266702037e-01 0.0 
4.980499250256e-06 -1.938130337188e-01 0.0 
-1.777729416618e-06 -1.884923068333e-01 0.0 
-1.693778225925e-05 -1.876742190128e-01 0.0 
-7.273971265137e-06 -1.866806278912e-01 0.0 
2.793215525471e-08 -1.086624444198e-01 0.0 
-4.445777147199e-06 -1.647995807048e-01 0.0 
-3.204673778166e-06 -1.598365400135e-01 0.0 
-7.201861945777e-07 -1.922853985233e-01 0.0 
-5.622092842179e-06 -4.979030188934e-02 0.0 
-4.226947641711e-06 -1.608953517735e-01 0.0 
8.697707609334e-06 -4.044078934704e-02 0.0 
2.509438347826e-06 -6.422150530270e-02 0.0 
1.245399871487e-05 -1.156654564258e-02 0.0 
-1.588183438634e-06 -1.004643633891e-02 0.0 
-5.443036188242e-06 -1.234241308264e-01 0.0 
-4.068340152148e-06 -1.575442642540e-01 0.0 
2.210367013807e-05 -1.799827510814e-01 0.0 
-3.703955899576e-06 -1.535829559022e-01 0.0 
3.896753572944e-06 -4.767862724722e-03 0.0 
-6.801559824325e-06 -1.913751857502e-01 0.0 
-1.005522844591e-05 -1.900653663960e-01 0.0 
6.468070530110e-06 -5.485398334113e-02 0.0 
8.283688840591e-06 -1.336246842926e-01 0.0 
-1.177734762099e-06 -3.879354614800e-02 0.0 
-2.877411719934e-06 -7.536302210833e-02 0.0 
-6.054178778763e-06 -5.011835893322e-02 0.0 
1.499058743367e-06 -6.512207560860e-02 0.0 
-8.380706878799e-06 -1.193543804568e-01 0.0 
-4.054642828810e-06 -1.730362388894e-01 0.0 
-4.540559923791e-06 -1.726372084215e-01 0.0 
-6.146132433088e-06 -9.147740554299e-02 0.0 
-5.615592450457e-06 -5.815823875602e-02 0.0 
1.431398193146e-05 -1.394869931359e-01 0.0 
-1.970831991734e-06 -1.342450135413e-01 0.0 
-4.111542183801e-06 -1.247220290781e-01 0.0 
-9.333479237094e-06 -1.207194147582e-01 0.0 
-1.317066006637e-05 -1.893119893045e-01 0.0 
-3.796385503280e-06 -1.761785879040e-01 0.0 
-1.965301731689e-06 -2.546281720940e-02 0.0 
4.326736700401e-06 -1.079715113813e-01 0.0 
1.408360358345e-06 -1.834596987804e-02 0.0 
9.234666427855e-07 -3.975245042061e-02 0.0 
3.107637614542e-06 -8.801885581148e-02 0.0 
7.028069206589e-06 -3.994082827863e-02 0.0 
-1.439693028466e-06 -1.544296106604e-01 0.0 
8.881707606095e-06 -1.624075604787e-01 0.0 
-1.089743127036e-05 -3.682107854384e-02 0.0 
4.631280784985e-06 -1.933318714363e-01 0.0 
-8.650989054324e-07 -1.784567668440e-01 0.0 
2.144180869898e-06 -5.024894120228e-03 0.0 
7.894434665235e-07 -1.898975251571e-01 0.0 
-2.107547831744e-06 -1.310514831696e-01 0.0 
-1.271494424548e-06 -4.030832295258e-02 0.0 
6.752456746052e-06 -1.924519018770e-01 0.0 
2.138435913163e-05 -1.936804601463e-01 0.0 
3.452522710356e-06 -1.016749084745e-02 0.0 
9.997880423742e-06 -1.402541138350e-01 0.0 
-6.581906787529e-06 -2.759534917750e-02 0.0 
5.886153141661e-06 -3.550509015928e-02 0.0 
1.238513535949e-06 -1.403453788340e-01 0.0 
-4.936169661871e-06 -1.937392543123e-01 0.0 
1.745491756784e-05 -2.143835162536e-02 0.0 
-8.652594006813e-06 -1.891123365872e-01 0.0 
-5.267036971072e-06 -3.542261828528e-02 0.0 
9.492892283381e-08 -4.832104145444e-03 0.0 
2.496011175655e-07 -3.712618176820e-02 0.0 
-1.826944110150e-05 -1.858398813021e-01 0.0 
2.100694459047e-05 -1.241084269219e-01 0.0 
-2.053988805627e-07 -1.548548349242e-01 0.0 
-3.657180161340e-06 -7.353694555077e-02 0.0 
2.464246874796e-06 -9.437666893150e-03 0.0 
2.320631084253e-06 -7.718597707051e-02 0.0 
7.465648545398e-07 -9.755056077857e-03 0.0 
-3.027997979407e-06 -1.919604517018e-01 0.0 
2.660900779458e-06 -2.319974441379e-02 0.0 
-1.444681663500e-05 -1.838682354589e-01 0.0 
2.062071373038e-05 -1.897558068062e-01 0.0 
4.154944813514e-06 -2.518292828654e-02 0.0 
7.069818415418e-06 -2.512331004588e-02 0.0 
2.909703114149e-06 -1.985972904203e-02 0.0 
-4.760107767443e-06 -1.328235684858e-01 0.0 
3.189848691252e-05 -1.203486878012e-01 0.0 
-6.501429536506e-06 -1.852741699241e-01 0.0 
-1.925215656950e-06 -2.445278785090e-02 0.0 
-5.201898469140e-06 -1.659418560846e-01 0.0 
-7.674816794830e-06 -1.905241521337e-01 0.0 
-4.044344296193e-06 -6.594706412957e-02 0.0 
-8.899117958687e-06 -1.432705796524e-01 0.0 
3.384492481196e-06 -3.396459574966e-02 0.0 
1.394161590385e-06 -1.096404104139e-02 0.0 
1.394161590385e-06 -4.652181047052e-03 0.0 
-7.832488403329e-06 -1.942544569668e-01 0.0 
-1.969169878056e-06 -1.941002414202e-01 0.0 
8.751790754072e-07 -1.398645569056e-01 0.0 
-4.984370865463e-06 -1.432667446694e-01 0.0 
-2.002387139201e-06 -4.650816180449e-03 0.0 
-2.002387139201e-06 -1.096153565329e-02 0.0 
-6.761083010051e-06 -1.937239018938e-01 0.0 
1.696615536295e-05 -1.941573697295e-01 0.0 
-7.451648306899e-06 -3.594612412702e-02 0.0 
-9.215436187893e-06 -4.135501094103e-02 0.0 
-7.032936407319e-06 -1.877520056779e-01 0.0 
-6.511853972161e-06 -3.331080462769e-02 0.0 
-3.168925044115e-06 -1.130175649303e-01 0.0 
7.593659023797e-06 -1.353118480750e-01 0.0 
5.071561763851e-07 -1.030471378090e-01 0.0 
-9.287637346851e-06 -1.882088214627e-01 0.0 
-1.594851097063e-06 -8.820871438948e-02 0.0 
-4.581990639353e-07 -1.902737871568e-01 0.0 
6.437250199569e-06 -1.447415249828e-01 0.0 
-1.090907652012e-06 -3.320455835915e-02 0.0 
3.951434547149e-07 -4.585775292342e-02 0.0 
6.894932202002e-06 -1.340046830022e-01 0.0 
-1.679355214824e-06 -1.156622515223e-01 0.0 
-3.628379012938e-06 -3.935173688716e-02 0.0 
-3.301262401811e-06 -5.854200311681e-02 0.0 
3.911213326345e-07 -7.380149961280e-02 0.0 
-6.850435915229e-07 -1.399854428691e-01 0.0 
-8.437053923517e-07 -9.566516668175e-02 0.0 
-2.803799072348e-06 -3.563292774502e-02 0.0 
-9.945605245633e-07 -1.776558127178e-01 0.0 
-3.120338052245e-06 -1.936500644572e-01 0.0 
-3.117706393044e-06 -4.737705937632e-02 0.0 
-1.259402415796e-06 -6.276048442037e-02 0.0 
-1.024428133634e-05 -1.897131205900e-01 0.0 
-3.817875114882e-06 -9.294786692549e-02 0.0 
4.675202234027e-06 -2.182516921796e-02 0.0 
-9.160579929855e-06 -4.836268648841e-02 0.0 
-2.837078663765e-06 -3.987658013245e-02 0.0 
-1.141553055722e-06 -1.002957015641e-01 0.0 
-2.367446323873e-05 -1.933944682276e-01 0.0 
7.100337949047e-06 -1.848199763775e-01 0.0 
-1.577649739218e-06 -1.803501592571e-01 0.0 
1.915085465288e-05 -1.206780534980e-01 0.0 
-6.974980256485e-07 -9.529596347097e-02 0.0 
7.007763246617e-07 -3.427151864475e-02 0.0 
6.289861114178e-07 -2.191071922080e-02 0.0 
-2.646047807032e-06 -1.923724398932e-01 0.0 
-1.459614966626e-07 -1.924957518287e-01 0.0 
-3.815937264099e-06 -1.883985332831e-01 0.0 
3.635659174780e-06 -8.654177497021e-02 0.0 
4.139903206563e-07 -1.702618726439e-01 0.0 
4.156486437111e-06 -3.301928845970e-02 0.0 
1.225181781123e-05 -1.882024954538e-01 0.0 
1.288815521805e-05 -3.831003080146e-02 0.0 
-7.827991083644e-06 -1.229559694821e-01 0.0 
6.918445222325e-07 -2.066628609300e-02 0.0 
-7.174387243251e-06 -6.570937290664e-02 0.0 
2.521935734720e-05 -1.207968766659e-01 0.0 
3.400317462563e-06 -2.551308819345e-02 0.0 
8.539117049518e-07 -2.454207461110e-02 0.0 
1.355183715598e-05 -2.492692982960e-02 0.0 
-9.172363398761e-06 -1.913019942802e-01 0.0 
9.581951391918e-06 -3.905500420765e-02 0.0 
-1.545076358569e-07 -2.072385719639e-02 0.0 
1.310955958631e-05 -4.075204082412e-02 0.0 
-8.624507549850e-06 -5.797345046553e-02 0.0 
-4.446786001155e-06 -4.950584758739e-03 0.0 
1.803725679706e-06 -7.319694136754e-02 0.0 
-9.782518220993e-06 -1.941240949906e-01 0.0 
-1.188339125163e-05 -1.891785678624e-01 0.0 
-1.039591347291e-06 -4.963949586961e-02 0.0 
9.011371397651e-07 -1.131030897114e-01 0.0 
-3.081729402336e-06 -3.808308980410e-02 0.0 
-9.048239582636e-06 -4.961567670378e-02 0.0 
-7.638457719163e-06 -1.919099122976e-02 0.0 
5.442892414460e-06 -7.171277505252e-02 0.0 
-5.512324378072e-07 -2.010256018573e-02 0.0 
-3.969776618903e-06 -3.512552612569e-02 0.0 
-1.940520670275e-06 -3.466679954208e-02 0.0 
-8.936795603263e-06 -1.686966250563e-01 0.0 
1.952143961032e-06 -9.823713377706e-03 0.0 
1.532548102996e-05 -1.344807833614e-01 0.0 
1.564190734577e-06 -3.928129168279e-02 0.0 
1.167365248226e-06 -1.918075203420e-01 0.0 
-5.196871412665e-06 -5.308786068876e-02 0.0 
-2.062391179944e-06 -9.228982808838e-02 0.0 
2.538027392073e-06 -1.922536906318e-01 0.0 
-1.745444904254e-05 -1.876023810820e-01 0.0 
-1.592026579218e-06 -6.654428195351e-02 0.0 
1.894614222244e-06 -2.109755180974e-02 0.0 
2.761504267256e-06 -3.758589615381e-02 0.0 
-8.866053931126e-06 -2.668311059546e-02 0.0 
-4.205801138629e-06 -1.145046383639e-01 0.0 
6.934837024225e-06 -1.936590895567e-01 0.0 
-1.400981216154e-05 -1.925549816856e-01 0.0 
1.340382911177e-05 -1.931825508574e-01 0.0 
1.022090136748e-05 -1.906805156214e-01 0.0 
-1.088369905790e-05 -1.941761666046e-01 0.0 
8.536290083093e-06 -1.482923121085e-01 0.0 
-8.734291108698e-06 -3.800002838458e-02 0.0 
2.976838965844e-06 -3.786672632814e-02 0.0 
2.834289330802e-05 -1.141983511908e-01 0.0 
5.019079832270e-06 -1.584727368402e-01 0.0 
-1.351016130504e-05 -3.833175778533e-02 0.0 
-8.003876847287e-06 -4.152855987278e-02 0.0 
-2.618278678752e-06 -2.466839630519e-02 0.0 
-2.238382381607e-06 -3.403276360758e-02 0.0 
-7.001338935453e-06 -5.106380661451e-02 0.0 
8.666840116234e-06 -1.919033574271e-01 0.0 
-2.795926881253e-06 -1.927728607305e-01 0.0 
-1.186163061061e-05 -3.766090932236e-02 0.0 
6.487733014028e-06 -1.918275605450e-01 0.0 
2.430519174527e-06 -1.912138772106e-01 0.0 
-1.502753345319e-05 -1.926630644405e-01 0.0 
8.130110016446e-06 -1.923873719722e-01 0.0 
3.683912637083e-06 -2.020866016401e-02 0.0 
-2.164319603899e-08 -1.977842854465e-02 0.0 
5.961776701642e-06 -3.417092999484e-02 0.0 
9.783889058771e-07 -1.909377504621e-02 0.0 
-1.174637356882e-05 -4.967010556269e-02 0.0 
9.211021891181e-07 -1.075855746501e-01 0.0 
1.946341276806e-06 -4.273888259713e-03 0.0 
-1.344642829579e-05 -1.840387956472e-01 0.0 
6.249366380286e-06 -1.434751795876e-01 0.0 
-8.110765660911e-06 -1.906583789589e-01 0.0 
1.517114106832e-05 -1.933141221468e-01 0.0 
5.695028681061e-06 -1.032274579313e-02 0.0 
1.635638763270e-05 -1.333725169899e-01 0.0 
1.491950404829e-05 -1.905444591391e-01 0.0 
5.098813401988e-06 -1.508216827155e-01 0.0 
1.897159829368e-06 -2.342873508764e-02 0.0 
-8.939856028909e-06 -3.635859159423e-02 0.0 
7.113777802477e-06 -1.991291402719e-02 0.0 
-7.703283629003e-06 -1.728301826840e-01 0.0 
-6.542442314855e-06 -1.924723006812e-01 0.0 
-3.467553076336e-06 -2.441958599336e-02 0.0 
7.966463836750e-06 -9.900451884224e-03 0.0 
-2.716532542177e-06 -1.034832896189e-02 0.0 
-1.399036595599e-07 -1.342786877852e-01 0.0 
1.009442313672e-06 -3.551339449921e-02 0.0 
8.909962008082e-06 -1.896401706364e-01 0.0 
7.421942484155e-06 -3.294181744839e-02 0.0 
1.664270703740e-05 -1.933997635995e-01 0.0 
1.412086592668e-06 -1.961764929790e-02 0.0 
2.974660604011e-06 -2.567012913141e-02 0.0 
-1.484656446581e-05 -1.933709593785e-01 0.0 
-1.359877767381e-05 -4.938239133085e-02 0.0 
2.316127765328e-06 -7.893990778953e-02 0.0 
-3.769135004280e-06 -1.989925279770e-02 0.0 
1.505862121324e-06 -3.943871624300e-03 0.0 
-4.160441761043e-06 -9.846160458781e-02 0.0 
-4.128201662698e-07 -1.911781083588e-02 0.0 
1.498706726420e-06 -3.429102474655e-02 0.0 
-2.597220998497e-06 -8.865774315871e-02 0.0 
1.526517143999e-06 -3.133109273907e-02 0.0 
-1.160315060633e-06 -1.623880541024e-01 0.0 
-7.531942702063e-06 -1.403644051422e-01 0.0 
-1.227069763316e-06 -3.356278063864e-02 0.0 
3.372777647031e-06 -2.077089405104e-02 0.0 
-1.273190975287e-05 -1.941386681507e-01 0.0 
-5.005539716843e-06 -1.404099886968e-01 0.0 
-1.095225039475e-06 -2.034221200697e-02 0.0 
-1.255533267112e-05 -1.874614853480e-01 0.0 
2.660573421187e-06 -4.035712297854e-02 0.0 
-1.011927397034e-06 -3.706157030147e-02 0.0 
3.414164966195e-06 -2.553630411205e-02 0.0 
4.792368673282e-06 -1.880930364884e-01 0.0 
-2.841077807219e-06 -1.913419633552e-01 0.0 
4.785765781894e-06 -1.299028575649e-01 0.0 
-1.483255719352e-06 -6.340328389411e-02 0.0 
1.151918622581e-05 -1.942630815306e-01 0.0 
-1.473498652316e-06 -1.920390206489e-02 0.0 
-1.407391493463e-06 -1.010342998707e-01 0.0 
-1.173962470220e-06 -1.883251136361e-01 0.0 
-3.720836982299e-06 -1.103137365149e-01 0.0 
3.455178060893e-06 -2.482369820027e-02 0.0 
2.103647725228e-06 -1.241867400782e-01 0.0 
-1.658292613485e-05 -1.938841760025e-01 0.0 
-3.753357439682e-06 -1.675841975708e-01 0.0 
6.668291414378e-06 -1.399157304420e-01 0.0 
-2.682118056666e-06 -1.183232082571e-01 0.0 
-1.237735993443e-05 -3.527118582415e-02 0.0 
1.456727438961e-05 -1.421065889460e-01 0.0 
6.053558095296e-06 -1.355583568144e-01 0.0 
4.171853504963e-06 -1.924723394474e-01 0.0 
-1.629493013533e-06 -3.318965319092e-02 0.0 
3.226097574593e-06 -4.727328117360e-02 0.0 
-1.107282805349e-05 -1.892624809500e-01 0.0 
9.945079893396e-06 -1.970730489387e-02 0.0 
-1.809370442451e-06 -1.972900531556e-02 0.0 
-1.610725109398e-07 -1.348233773038e-01 0.0 
2.061451537594e-06 -1.039246017029e-01 0.0 
1.644520368632e-05 -1.431113986324e-01 0.0 
1.143810745570e-05 -1.395475467319e-01 0.0 
8.540047139994e-06 -1.371043793883e-01 0.0 
1.093079365782e-05 -4.864999751812e-02 0.0 
-1.651106560946e-07 -1.898536341818e-01 0.0 
3.868879947095e-06 -3.916131629965e-02 0.0 
-5.728389727234e-06 -1.223602354623e-01 0.0 
5.571333999355e-06 -2.469775326292e-02 0.0 
4.322360219188e-06 -4.857430776426e-02 0.0 
-6.658663291617e-06 -1.127536673313e-01 0.0 
-2.464692083104e-06 -4.353000540144e-02 0.0 
-8.696978193622e-06 -3.422254110161e-02 0.0 
-2.962103906010e-06 -2.520828029608e-02 0.0 
-2.369016624735e-05 -1.935598991366e-01 0.0 
-6.747958695752e-06 -4.413666804670e-02 0.0 
-2.633154377872e-06 -3.674736523781e-02 0.0 
6.798593083043e-06 -1.926436162819e-01 0.0 
1.377442752852e-05 -1.470303694681e-01 0.0 
-2.123744120454e-05 -1.937504654955e-01 0.0 
5.084515329945e-08 -3.577193899556e-02 0.0 
1.969452540521e-05 -1.939837122794e-01 0.0 
2.737938179058e-05 -1.941601456555e-01 0.0 
1.266718566155e-05 -1.939838991323e-01 0.0 
1.409419397151e-05 -1.941474625461e-01 0.0 
4.739946658938e-06 -1.939861637036e-01 0.0 
3.729872330724e-06 -1.941495647771e-01 0.0 
-1.542621635673e-06 -1.939900428260e-01 0.0 
-3.435797019759e-06 -1.941534193288e-01 0.0 
-6.467602698456e-06 -1.939944325183e-01 0.0 
-8.615204728738e-06 -1.941576789357e-01 0.0 
-1.039450667668e-05 -1.939988364411e-01 0.0 
-1.252354324887e-05 -1.941619284254e-01 0.0 
-1.357005425715e-05 -1.940030712268e-01 0.0 
-1.555345450436e-05 -1.941660032259e-01 0.0 
-1.614896006179e-05 -1.940070475293e-01 0.0 
-1.791837377397e-05 -1.941698027947e-01 0.0 
-1.822994429056e-05 -1.940106751863e-01 0.0 
-1.974219421121e-05 -1.941732174353e-01 0.0 
-1.988788568969e-05 -1.940138320319e-01 0.0 
-2.111732358886e-05 -1.941761090496e-01 0.0 
-2.120021720926e-05 -1.940163676462e-01 0.0 
-2.214335680214e-05 -1.941783240251e-01 0.0 
-2.226694726993e-05 -1.940181327038e-01 0.0 
-5.290046612526e-05 -1.941232941369e-01 0.0 
-2.294904243402e-05 -1.941797282302e-01 0.0 
-2.321794513819e-05 -1.940190188953e-01 0.0 
-2.369450987695e-05 -1.941802430741e-01 0.0 
-6.804047357166e-05 -1.942642821146e-01 0.0 
-2.420546835901e-05 -1.940189920113e-01 0.0 
-2.455678872262e-05 -1.941798707321e-01 0.0 
-4.516233467041e-05 -1.939949421190e-01 0.0 
-2.538421759953e-05 -1.940181013395e-01 0.0 
-2.571112718613e-05 -1.941786991229e-01 0.0 
-2.690081393305e-05 -1.940164996510e-01 0.0 
-2.730944368302e-05 -1.941769212870e-01 0.0 
-2.886018107507e-05 -1.940144121688e-01 0.0 
-2.945835242789e-05 -1.941747921175e-01 0.0 
-3.134232603949e-05 -1.940121810784e-01 0.0 
-3.219404361533e-05 -1.941726712898e-01 0.0 
-3.430689086986e-05 -1.940100788031e-01 0.0 
-2.838942438887e-05 -1.940818429564e-01 0.0 
-3.547089189619e-05 -1.941708354534e-01 0.0 
-3.778712054480e-05 -1.940086218032e-01 0.0 
-3.914245898779e-05 -1.941697334586e-01 0.0 
-4.141158766079e-05 -1.940076417891e-01 0.0 
-4.288013318151e-05 -1.941690265351e-01 0.0 
-4.643892621405e-05 -1.941687793555e-01 0.0 
-4.533264209952e-05 -1.940076076147e-01 0.0 
-4.947270509539e-05 -1.941666487375e-01 0.0 
-4.835414566626e-05 -1.940060501599e-01 0.0 
-5.326489090431e-05 -1.941646320919e-01 0.0 
-5.243364659977e-05 -1.940049411338e-01 0.0 
-5.705989203773e-05 -1.941590442833e-01 0.0 
-5.479362684345e-05 -1.939987797857e-01 0.0 
-6.425644713066e-05 -1.941574264827e-01 0.0 
-6.330518168006e-05 -1.941484186229e-01 0.0 
-6.260572851318e-05 -1.939998057603e-01 0.0 
-5.734267819783e-05 -1.939865939947e-01 0.0 
-4.352943183527e-05 -1.942228309341e-01 0.0 
1.044255190759e-05 -1.941156236274e-01 0.0 
2.786721562384e-05 -1.941109760766e-01 0.0 
2.639180660218e-05 -1.942818977699e-01 0.0 
1.191796092925e-05 -1.939447019341e-01 0.0 
-2.205517204414e-05 -1.942747723086e-01 0.0 
2.893292433047e-06 -1.933371303411e-01 0.0 
9.795963930451e-07 -1.928652339803e-01 0.0 
3.068633236178e-06 -1.933355693954e-01 0.0 
2.622915416770e-07 -1.928504283841e-01 0.0 
5.065966544739e-07 -1.933374592785e-01 0.0 
-1.793932283524e-06 -1.928521517705e-01 0.0 
-2.833076245458e-06 -1.933413342445e-01 0.0 
-4.455676002046e-06 -1.928560417239e-01 0.0 
-6.197027070957e-06 -1.933457634947e-01 0.0 
-7.279409981519e-06 -1.928604008804e-01 0.0 
-9.329287556958e-06 -1.933502274093e-01 0.0 
-1.003034641137e-05 -1.928647882893e-01 0.0 
-1.214207653937e-05 -1.933545401225e-01 0.0 
-1.258974043351e-05 -1.928690332283e-01 0.0 
-1.461322370872e-05 -1.933586086360e-01 0.0 
-1.490221769669e-05 -1.928730266857e-01 0.0 
-1.674952456635e-05 -1.933623379707e-01 0.0 
-1.694997184212e-05 -1.928766471381e-01 0.0 
-1.857608304482e-05 -1.933655989503e-01 0.0 
-1.874258816718e-05 -1.928797385250e-01 0.0 
-2.013728443246e-05 -1.933682302033e-01 0.0 
-2.031693262743e-05 -1.928821192123e-01 0.0 
-4.265554748526e-05 -1.931868746002e-01 0.0 
-2.150345587203e-05 -1.933700653339e-01 0.0 
-2.174515349659e-05 -1.928836210801e-01 0.0 
-2.277754759866e-05 -1.933709791150e-01 0.0 
-3.586766953052e-05 -1.928646358028e-01 0.0 
-2.313078705244e-05 -1.928841395388e-01 0.0 
-2.408214307403e-05 -1.933709282563e-01 0.0 
-2.459754872311e-05 -1.928836701649e-01 0.0 
-2.554830288500e-05 -1.933699645273e-01 0.0 
-2.625410093612e-05 -1.928823007570e-01 0.0 
-5.638151770084e-05 -1.936606048000e-01 0.0 
-2.727970239757e-05 -1.933682380973e-01 0.0 
-2.821482403502e-05 -1.928802479674e-01 0.0 
-2.938667296255e-05 -1.933660004029e-01 0.0 
-3.051819345969e-05 -1.928777709885e-01 0.0 
-3.187567518381e-05 -1.933635717153e-01 0.0 
-3.326476655090e-05 -1.928753259659e-01 0.0 
-3.484426466111e-05 -1.933613428422e-01 0.0 
-3.631653231077e-05 -1.928730553970e-01 0.0 
-3.809538716814e-05 -1.933595777076e-01 0.0 
-4.001513985881e-05 -1.928718404715e-01 0.0 
-4.197600190847e-05 -1.933587928976e-01 0.0 
-4.366066350345e-05 -1.928707782294e-01 0.0 
-2.736734899294e-05 -1.929872169261e-01 0.0 
-4.824923631537e-05 -1.928718043019e-01 0.0 
-4.554875817377e-05 -1.933582082005e-01 0.0 
-5.073751780516e-05 -1.928686871436e-01 0.0 
-4.994833969333e-05 -1.933584745205e-01 0.0 
-5.578496503091e-05 -1.928696330680e-01 0.0 
-5.210426528248e-05 -1.933545551793e-01 0.0 
-5.153740473014e-05 -1.928591834928e-01 0.0 
-5.764308228733e-05 -1.933541667164e-01 0.0 
-5.423378576171e-05 -1.933445580392e-01 0.0 
-4.109331920852e-05 -1.934609471259e-01 0.0 
-6.076048790582e-06 -1.931431358267e-01 0.0 
-5.452618046496e-06 -1.931392389103e-01 0.0 
-6.928027068154e-06 -1.926628280309e-01 0.0 
-4.600639768924e-06 -1.936195467061e-01 0.0 
-2.391163269586e-05 -1.936334598166e-01 0.0 
-3.110818452230e-06 -1.907456614675e-01 0.0 
-2.726418609643e-06 -1.915708330073e-01 0.0 
-3.347510505073e-06 -1.907466237097e-01 0.0 
-2.447837196886e-06 -1.915558836714e-01 0.0 
-3.600729113342e-06 -1.907477761688e-01 0.0 
-3.191129312777e-06 -1.915570133736e-01 0.0 
-4.592723677421e-06 -1.907506036846e-01 0.0 
-4.818126404756e-06 -1.915604495609e-01 0.0 
-6.227119484853e-06 -1.907543008066e-01 0.0 
-6.947051992705e-06 -1.915645303553e-01 0.0 
-8.253274046402e-06 -1.907583461651e-01 0.0 
-9.286690889629e-06 -1.915687775702e-01 0.0 
-1.045360190676e-05 -1.907624761620e-01 0.0 
-1.164492132264e-05 -1.915729799869e-01 0.0 
-1.267096092240e-05 -1.907665256944e-01 0.0 
-1.390477402124e-05 -1.915769969855e-01 0.0 
-1.480526310611e-05 -1.907703453002e-01 0.0 
-1.600315405733e-05 -1.915806841677e-01 0.0 
-1.680068945997e-05 -1.907737634421e-01 0.0 
-1.791401236712e-05 -1.915838659872e-01 0.0 
-3.504370499306e-05 -1.912709945943e-01 0.0 
-1.863422603992e-05 -1.907765756639e-01 0.0 
-1.964245003496e-05 -1.915863372108e-01 0.0 
-2.031393671475e-05 -1.907785557505e-01 0.0 
-4.972455588025e-05 -1.920678848438e-01 0.0 
-2.123011693178e-05 -1.915878934982e-01 0.0 
-2.189820064856e-05 -1.907795300814e-01 0.0 
-2.832771278841e-05 -1.907655567623e-01 0.0 
-2.276647666714e-05 -1.915884180871e-01 0.0 
-2.348696721141e-05 -1.907794218737e-01 0.0 
-2.436668324579e-05 -1.915878852340e-01 0.0 
-2.520806316699e-05 -1.907783136152e-01 0.0 
-2.614472669543e-05 -1.915864347758e-01 0.0 
-2.712766469739e-05 -1.907763043794e-01 0.0 
-2.817216057553e-05 -1.915841802306e-01 0.0 
-2.936560190396e-05 -1.907737848357e-01 0.0 
-3.053978586060e-05 -1.915816231580e-01 0.0 
-1.984009740277e-05 -1.909106657350e-01 0.0 
-3.183588981969e-05 -1.907708671769e-01 0.0 
-3.320338878588e-05 -1.915787692579e-01 0.0 
-3.480323015175e-05 -1.907684674756e-01 0.0 
-3.633687556644e-05 -1.915767367383e-01 0.0 
-3.961542324735e-05 -1.915743149207e-01 0.0 
-3.771601381234e-05 -1.907657334981e-01 0.0 
-4.406988868179e-05 -1.915750369987e-01 0.0 
-4.198551047536e-05 -1.907655261162e-01 0.0 
-4.733981291556e-05 -1.915728178564e-01 0.0 
-4.504855995231e-05 -1.907634805244e-01 0.0 
-5.322603822965e-05 -1.915779438629e-01 0.0 
-4.724876625343e-05 -1.915685206331e-01 0.0 
-5.152743671801e-05 -1.907687447943e-01 0.0 
-4.605658692950e-05 -1.907626994637e-01 0.0 
-3.452094828997e-05 -1.917075559844e-01 0.0 
5.451450595427e-06 -1.911937262729e-01 0.0 
3.776785456925e-06 -1.911925888006e-01 0.0 
4.599472317855e-06 -1.920132458218e-01 0.0 
4.628763734497e-06 -1.903730692517e-01 0.0 
-1.796768090866e-05 -1.920189323971e-01 0.0 
-3.274834302796e-06 -1.888003192515e-01 0.0 
-3.870769874236e-06 -1.876825828473e-01 0.0 
-4.327845919100e-06 -1.888037157656e-01 0.0 
-4.467313040778e-06 -1.876705042431e-01 0.0 
-4.639869543208e-06 -1.888053046846e-01 0.0 
-4.900591325286e-06 -1.876717708294e-01 0.0 
-5.263045260065e-06 -1.888078326247e-01 0.0 
-5.689713394796e-06 -1.876744941067e-01 0.0 
-6.428384892250e-06 -1.888111164124e-01 0.0 
-6.946873766289e-06 -1.876778216446e-01 0.0 
-8.051830412590e-06 -1.888148218487e-01 0.0 
-8.603136391504e-06 -1.876815120372e-01 0.0 
-9.971491042446e-06 -1.888187349454e-01 0.0 
-1.051662933409e-05 -1.876853986456e-01 0.0 
-1.202477979816e-05 -1.888226855696e-01 0.0 
-1.254555153513e-05 -1.876893093925e-01 0.0 
-1.409222174425e-05 -1.888264978319e-01 0.0 
-1.458516337538e-05 -1.876930498985e-01 0.0 
-1.609574013988e-05 -1.888299766412e-01 0.0 
-2.977562377362e-05 -1.883995939299e-01 0.0 
-1.656644359521e-05 -1.876963959344e-01 0.0 
-1.799160658810e-05 -1.888328924120e-01 0.0 
-1.844266090106e-05 -1.876990878526e-01 0.0 
-2.264235096129e-05 -1.876960370619e-01 0.0 
-1.975676703267e-05 -1.888349896442e-01 0.0 
-2.017572182461e-05 -1.877008286101e-01 0.0 
-2.140097522346e-05 -1.888360312996e-01 0.0 
-2.183254209975e-05 -1.877014054395e-01 0.0 
-2.305025806912e-05 -1.888359080079e-01 0.0 
-4.407440434449e-05 -1.895193269209e-01 0.0 
-2.352973459723e-05 -1.877007316281e-01 0.0 
-2.480782366072e-05 -1.888346738751e-01 0.0 
-2.548026456280e-05 -1.876990257728e-01 0.0 
-2.686344207102e-05 -1.888325351164e-01 0.0 
-2.759290015909e-05 -1.876963251090e-01 0.0 
-2.905056411389e-05 -1.888296989770e-01 0.0 
-3.015167757633e-05 -1.876934336012e-01 0.0 
-3.176281932550e-05 -1.888267634787e-01 0.0 
-3.254273928205e-05 -1.876898528130e-01 0.0 
-3.421565114211e-05 -1.888236547288e-01 0.0 
-3.581934971990e-05 -1.876880753706e-01 0.0 
-1.369919401924e-05 -1.878760906960e-01 0.0 
-3.760836889774e-05 -1.876835885703e-01 0.0 
-3.778606697544e-05 -1.888218848773e-01 0.0 
-4.290290834844e-05 -1.876871080538e-01 0.0 
-3.990840296265e-05 -1.888186483866e-01 0.0 
-3.863575719553e-05 -1.876817956637e-01 0.0 
-4.595868713166e-05 -1.888224293090e-01 0.0 
-4.191325381863e-05 -1.888187738169e-01 0.0 
-2.799797459011e-05 -1.889958236870e-01 0.0 
-6.471925948759e-06 -1.882743557201e-01 0.0 
-8.310606937827e-06 -1.882743203081e-01 0.0 
-7.487920076897e-06 -1.871485330529e-01 0.0 
-7.294612809689e-06 -1.894001429753e-01 0.0 
-1.105910371009e-05 -1.894362323591e-01 0.0 
-3.043055845151e-06 -1.836166742786e-01 0.0 
-3.762607289038e-06 -1.850914870282e-01 0.0 
-4.358200688839e-06 -1.836221878322e-01 0.0 
-4.605830395715e-06 -1.850800721288e-01 0.0 
-4.929160223821e-06 -1.836244700703e-01 0.0 
-5.051364650963e-06 -1.850813683295e-01 0.0 
-5.381787053509e-06 -1.836267522296e-01 0.0 
-5.657681862563e-06 -1.850838162117e-01 0.0 
-6.126458026425e-06 -1.836294192675e-01 0.0 
-6.676978432696e-06 -1.850868023948e-01 0.0 
-7.310848667630e-06 -1.836325112462e-01 0.0 
-8.132049980136e-06 -1.850902206846e-01 0.0 
-8.898690298052e-06 -1.836360100347e-01 0.0 
-9.914915001059e-06 -1.850939650875e-01 0.0 
-1.073813739390e-05 -1.836397776315e-01 0.0 
-1.186062346390e-05 -1.850978350124e-01 0.0 
-1.268923863034e-05 -1.836435934606e-01 0.0 
-1.386710833271e-05 -1.851016199074e-01 0.0 
-2.044084292330e-05 -1.845259043574e-01 0.0 
-1.468288188917e-05 -1.836472198324e-01 0.0 
-1.587164038717e-05 -1.851050691167e-01 0.0 
-1.668128092912e-05 -1.836503940886e-01 0.0 
-3.483109910734e-05 -1.859702881953e-01 0.0 
-1.782713845011e-05 -1.851079163469e-01 0.0 
-1.353554147416e-05 -1.836411191366e-01 0.0 
-1.861166198934e-05 -1.836528415900e-01 0.0 
-1.964613923222e-05 -1.851098520616e-01 0.0 
-2.033413744489e-05 -1.836540762453e-01 0.0 
-2.129528691356e-05 -1.851104269337e-01 0.0 
-2.199986107652e-05 -1.836539191560e-01 0.0 
-2.301659279082e-05 -1.851097212820e-01 0.0 
-2.380116385024e-05 -1.836522035422e-01 0.0 
-2.498674655873e-05 -1.851075657859e-01 0.0 
-2.507014749298e-06 -1.838441286647e-01 0.0 
-2.618017046422e-05 -1.836498310890e-01 0.0 
-2.740314655636e-05 -1.851050810684e-01 0.0 
-2.845073254801e-05 -1.836460359547e-01 0.0 
-2.974159961318e-05 -1.851010146194e-01 0.0 
-3.274066454440e-05 -1.850989980543e-01 0.0 
-3.155066662470e-05 -1.836434897383e-01 0.0 
-3.432114752298e-05 -1.850937435362e-01 0.0 
-3.291537420754e-05 -1.836384681356e-01 0.0 
-3.824325474625e-05 -1.850961540743e-01 0.0 
-3.228687276067e-05 -1.850879120615e-01 0.0 
-3.692275062702e-05 -1.836401185468e-01 0.0 
-2.992725322339e-05 -1.836320178983e-01 0.0 
-1.689727093334e-05 -1.852885125026e-01 0.0 
5.520964561432e-06 -1.843845641864e-01 0.0 
3.805899444810e-06 -1.843852167859e-01 0.0 
4.504970433294e-06 -1.858519786845e-01 0.0 
4.821893572948e-06 -1.829178022878e-01 0.0 
-1.431026164194e-06 -1.858772832160e-01 0.0 
-2.814936214279e-06 -1.803766068369e-01 0.0 
-3.361491937295e-06 -1.786123552414e-01 0.0 
-4.185204967967e-06 -1.803831234871e-01 0.0 
-4.295292086564e-06 -1.786025580770e-01 0.0 
-4.791617635541e-06 -1.803860203636e-01 0.0 
-4.714950337549e-06 -1.786045603712e-01 0.0 
-5.182915328375e-06 -1.803883939781e-01 0.0 
-5.116223112289e-06 -1.786068594978e-01 0.0 
-5.783871001284e-06 -1.803908208051e-01 0.0 
-5.811174000984e-06 -1.786092648929e-01 0.0 
-6.787631261058e-06 -1.803935722067e-01 0.0 
-6.962786424290e-06 -1.786120481927e-01 0.0 
-8.252644148777e-06 -1.803967765823e-01 0.0 
-8.525979201825e-06 -1.786154017846e-01 0.0 
-9.995247743943e-06 -1.804004477810e-01 0.0 
-1.026278647787e-05 -1.786191838409e-01 0.0 
-1.183429129427e-05 -1.804042721396e-01 0.0 
-1.296114719848e-05 -1.797021679188e-01 0.0 
-1.209008646893e-05 -1.786230500027e-01 0.0 
-1.376080736146e-05 -1.804079712489e-01 0.0 
-9.412038586725e-06 -1.786217918081e-01 0.0 
-1.409300477463e-05 -1.786266595961e-01 0.0 
-1.582471984429e-05 -1.804112331516e-01 0.0 
-1.628863686547e-05 -1.786297796908e-01 0.0 
-1.792972148954e-05 -1.804138658709e-01 0.0 
-1.843951261433e-05 -1.786322665765e-01 0.0 
-2.613409589773e-05 -1.814705890507e-01 0.0 
-1.980945132680e-05 -1.804154664793e-01 0.0 
-2.009219168579e-05 -1.786331457292e-01 0.0 
-2.132145196683e-05 -1.804152477176e-01 0.0 
-2.192234943387e-05 -1.786322089066e-01 0.0 
-2.338532960297e-05 -1.804133626052e-01 0.0 
-2.402918635160e-05 -1.786288959669e-01 0.0 
-2.563844450436e-05 -1.804100022070e-01 0.0 
-2.772070693469e-05 -1.786262235169e-01 0.0 
-2.931001888620e-05 -1.804070072851e-01 0.0 
-2.994736144732e-05 -1.786203296032e-01 0.0 
6.942462341394e-06 -1.788544285213e-01 0.0 
-3.439894051909e-05 -1.786209384862e-01 0.0 
-3.089714212064e-05 -1.804018333917e-01 0.0 
-2.862886129556e-05 -1.786123706142e-01 0.0 
-3.522717468629e-05 -1.804020649140e-01 0.0 
-2.891866392086e-05 -1.803951488463e-01 0.0 
-6.230486357857e-06 -1.806228496532e-01 0.0 
-6.347500850145e-06 -1.795241929967e-01 0.0 
-7.834446335895e-06 -1.795251017738e-01 0.0 
-7.135375347411e-06 -1.777515400532e-01 0.0 
-7.046571838629e-06 -1.812977547173e-01 0.0 
8.727687602989e-06 -1.813374855759e-01 0.0 
-2.652492775061e-06 -1.726026968855e-01 0.0 
-3.284772931780e-06 -1.747258157740e-01 0.0 
-3.998142778303e-06 -1.726106040169e-01 0.0 
-4.184948902414e-06 -1.747165780742e-01 0.0 
-4.376059869514e-06 -1.726141258019e-01 0.0 
-4.409735755672e-06 -1.747186458124e-01 0.0 
-4.407114139258e-06 -1.726163468974e-01 0.0 
-4.645636505049e-06 -1.747207269759e-01 0.0 
-4.592956977666e-06 -1.726182094263e-01 0.0 
-5.090846584606e-06 -1.747227860359e-01 0.0 
-5.108696994256e-06 -1.726201776262e-01 0.0 
-6.004179573866e-06 -1.747251324691e-01 0.0 
-6.229933191016e-06 -1.726228488631e-01 0.0 
-7.461875094488e-06 -1.747283897891e-01 0.0 
-7.781525741311e-06 -1.726265644858e-01 0.0 
-9.113168582576e-06 -1.747323125413e-01 0.0 
-1.432513523158e-05 -1.738872322218e-01 0.0 
-9.274403751369e-06 -1.726305767072e-01 0.0 
-1.067981682132e-05 -1.747362258700e-01 0.0 
-2.764601221477e-05 -1.759802519183e-01 0.0 
-1.093043477091e-05 -1.726342672643e-01 0.0 
-1.267290183170e-05 -1.747397797444e-01 0.0 
-8.804101401247e-06 -1.726299938831e-01 0.0 
-1.324008046987e-05 -1.726375511652e-01 0.0 
-1.512410043398e-05 -1.747429775562e-01 0.0 
-1.592311187210e-05 -1.726406965984e-01 0.0 
-1.759743942838e-05 -1.747458994386e-01 0.0 
-1.847991033012e-05 -1.726437006465e-01 0.0 
-1.960472387505e-05 -1.747477470343e-01 0.0 
9.392097022958e-07 -1.728805391746e-01 0.0 
-1.992943581726e-05 -1.726431491022e-01 0.0 
-2.101780109503e-05 -1.747455089862e-01 0.0 
-2.247802302531e-05 -1.726407167142e-01 0.0 
-2.402642811278e-05 -1.747429499963e-01 0.0 
-2.720855439583e-05 -1.747359631207e-01 0.0 
-2.512353372669e-05 -1.726337958402e-01 0.0 
-3.308032190328e-05 -1.747373621167e-01 0.0 
-3.193082680330e-05 -1.726337794024e-01 0.0 
-2.731850603544e-05 -1.747276565826e-01 0.0 
-2.694966809295e-05 -1.726255840016e-01 0.0 
-1.238166728090e-05 -1.749735588711e-01 0.0 
5.636557015141e-06 -1.736927946677e-01 0.0 
4.235335963095e-06 -1.736939077283e-01 0.0 
4.848682517876e-06 -1.758077164917e-01 0.0 
5.023210460360e-06 -1.715789859043e-01 0.0 
6.142108972443e-06 -1.758323205288e-01 0.0 
-2.813724648207e-06 -1.680674374684e-01 0.0 
-3.892247316871e-06 -1.656561048673e-01 0.0 
-4.444385290248e-06 -1.680761525272e-01 0.0 
-4.656883686950e-06 -1.656486418734e-01 0.0 
-4.401752142105e-06 -1.680806410908e-01 0.0 
-4.396584724055e-06 -1.656513844745e-01 0.0 
-4.368270835051e-06 -1.680825702706e-01 0.0 
-4.120158809525e-06 -1.656530302983e-01 0.0 
-4.106322586349e-06 -1.680842893755e-01 0.0 
-3.706719976076e-06 -1.656544999523e-01 0.0 
-4.211204777044e-06 -1.680858115933e-01 0.0 
-3.688308068050e-06 -1.656557860335e-01 0.0 
-4.811553902412e-06 -1.680878684604e-01 0.0 
-4.694222727751e-06 -1.656582684341e-01 0.0 
-6.432252663178e-06 -1.680914235336e-01 0.0 
-1.387162345417e-05 -1.671307964227e-01 0.0 
-5.763522403247e-06 -1.656628492467e-01 0.0 
-7.578749854967e-06 -1.656684503002e-01 0.0 
-7.274030650174e-06 -1.680962543648e-01 0.0 
-6.325344942076e-06 -1.656672762293e-01 0.0 
-8.576335992866e-06 -1.680996399660e-01 0.0 
-8.295077180665e-06 -1.656700453247e-01 0.0 
-1.121635459688e-05 -1.681024440438e-01 0.0 
-1.134974957922e-05 -1.656729962433e-01 0.0 
-2.679206661892e-05 -1.695493708623e-01 0.0 
-1.417248689032e-05 -1.681058224070e-01 0.0 
-1.453688094716e-05 -1.656767412391e-01 0.0 
-1.716997683068e-05 -1.681094166384e-01 0.0 
-1.820269760349e-05 -1.656813593652e-01 0.0 
-1.983734304513e-05 -1.681110454412e-01 0.0 
-1.910162532279e-05 -1.656775504499e-01 0.0 
-2.065394002520e-05 -1.681048618389e-01 0.0 
-2.462864555845e-05 -1.656739024853e-01 0.0 
-2.272937470197e-05 -1.656606637147e-01 0.0 
-2.754983417246e-05 -1.681006032045e-01 0.0 
7.063055335153e-07 -1.659596059423e-01 0.0 
-2.502534666366e-05 -1.680916726321e-01 0.0 
-1.221413763123e-05 -1.683781803819e-01 0.0 
-6.325806893997e-06 -1.668903603838e-01 0.0 
-7.888259819189e-06 -1.668911641937e-01 0.0 
-7.274913264408e-06 -1.644700227908e-01 0.0 
-6.939153448778e-06 -1.693115017867e-01 0.0 
6.142665528934e-06 -1.693567308216e-01 0.0 
-4.162385928359e-06 -1.577010949538e-01 0.0 
-5.841338637755e-06 -1.604743670145e-01 0.0 
-7.363641004890e-06 -1.577144106443e-01 0.0 
-5.627048080708e-06 -1.604686378433e-01 0.0 
-5.629530917365e-06 -1.577191622779e-01 0.0 
-4.654199105558e-06 -1.604699096917e-01 0.0 
-5.053729996053e-06 -1.577204078688e-01 0.0 
-4.548003589024e-06 -1.604723426792e-01 0.0 
-3.640856384205e-06 -1.577219195157e-01 0.0 
-2.813408994434e-06 -1.604728177115e-01 0.0 
-1.995435664854e-06 -1.577222458794e-01 0.0 
-2.365849937502e-06 -1.604739025603e-01 0.0 
-8.329293287094e-07 -1.577221949099e-01 0.0 
-9.424277252777e-06 -1.593644811539e-01 0.0 
-2.038056284597e-06 -1.604744783567e-01 0.0 
-1.099912015195e-06 -1.577266609407e-01 0.0 
-2.234072907643e-05 -1.621063007100e-01 0.0 
-3.087348198419e-06 -1.604818767311e-01 0.0 
-1.075200735942e-06 -1.577336789754e-01 0.0 
-2.697804694441e-06 -1.577330423549e-01 0.0 
-2.802689232672e-06 -1.604856733554e-01 0.0 
-1.639942915225e-06 -1.577346983339e-01 0.0 
-4.881339812428e-06 -1.604867065664e-01 0.0 
-4.778309313484e-06 -1.577363701307e-01 0.0 
-8.325441664056e-06 -1.604902610884e-01 0.0 
4.148958596998e-06 -1.580325707577e-01 0.0 
-7.827185382113e-06 -1.577408224928e-01 0.0 
-1.121588735412e-05 -1.604944764798e-01 0.0 
-1.544366330445e-05 -1.604988428704e-01 0.0 
-1.108994893860e-05 -1.577446353842e-01 0.0 
-2.067920322621e-05 -1.605028879709e-01 0.0 
-1.865588664951e-05 -1.577538664674e-01 0.0 
-1.799404787734e-05 -1.604831377394e-01 0.0 
-1.559692024751e-05 -1.577394346140e-01 0.0 
-8.767493226656e-06 -1.607743903139e-01 0.0 
6.363710407586e-06 -1.591187312889e-01 0.0 
5.401687523124e-06 -1.591151105711e-01 0.0 
5.414604037174e-06 -1.618785738300e-01 0.0 
6.350793893536e-06 -1.563552680300e-01 0.0 
8.290457956500e-06 -1.619055309865e-01 0.0 
-9.072829498818e-06 -1.518611236720e-01 0.0 
-1.143826436856e-05 -1.488073306415e-01 0.0 
-8.050123165241e-06 -1.518873455530e-01 0.0 
-8.066668962861e-06 -1.488148682411e-01 0.0 
-7.382669639168e-06 -1.518924577669e-01 0.0 
-8.818614011366e-06 -1.488123305704e-01 0.0 
-7.465006180058e-06 -1.518895332585e-01 0.0 
-7.554541863024e-06 -1.488149441717e-01 0.0 
-4.236118474201e-06 -1.518953956184e-01 0.0 
-3.212921632164e-06 -1.488161412832e-01 0.0 
-1.799686212588e-06 -1.518920933484e-01 0.0 
-1.796582803741e-06 -1.488147088812e-01 0.0 
-1.108170421075e-05 -1.506836779207e-01 0.0 
-4.594116472142e-07 -1.518931537617e-01 0.0 
3.008297046218e-06 -1.488463602519e-01 0.0 
5.152452274787e-06 -1.488137388757e-01 0.0 
5.717078862694e-06 -1.518949626079e-01 0.0 
8.703324250770e-06 -1.488230657056e-01 0.0 
3.898480835359e-06 -1.519065662827e-01 0.0 
5.567696682179e-06 -1.488278318784e-01 0.0 
1.756761428325e-06 -1.519039695496e-01 0.0 
3.045057566690e-06 -1.488236647515e-01 0.0 
-1.849444962465e-05 -1.537485189052e-01 0.0 
-2.486162779158e-07 -1.519040571001e-01 0.0 
1.971408782058e-06 -1.488286819435e-01 0.0 
-2.060027971568e-06 -1.519115563784e-01 0.0 
3.073038371204e-06 -1.488360929902e-01 0.0 
5.158930298989e-06 -1.488371398450e-01 0.0 
-2.568180623823e-06 -1.519155180089e-01 0.0 
-6.575061360847e-06 -1.519212808173e-01 0.0 
-8.541530535614e-07 -1.491801644119e-01 0.0 
-8.266898467467e-06 -1.522450053964e-01 0.0 
-5.308916389820e-06 -1.503850836349e-01 0.0 
-1.118138284474e-05 -1.503612973547e-01 0.0 
-1.116846633069e-05 -1.473049548942e-01 0.0 
-5.321832903869e-06 -1.534414260954e-01 0.0 
9.926874092567e-06 -1.534858257207e-01 0.0 

VECTORS element_materi_displacement float
0.0 0.0 0.0 
0.0 0.0 0.0 
0.0 0.0 0.0 
0.0 0.0 0.0 
0.0 0.0 0.0 
0.0 0.0 0.0 
0.0 0.0 0.0 
0.0 0.0 0.0 
0.0 0.0 0.0 
0.0 0.0 0.0 
0.0 0.0 0.0 
0.0 0.0 0.0 
0.0 0.0 0.0 
0.0 0.0 0.0 
0.0 0.0 0.0 
0.0 0.0 0.0 
0.0 0.0 0.0 
0.0 0.0 0.0 
0.0 0.0 0.0 
0.0 0.0 0.0 
0.0 0.0 0.0 
0.0 0.0 0.0 
0.0 0.0 0.0 
0.0 0.0 0.0 
0.0 0.0 0.0 
0.0 0.0 0.0 
0.0 0.0 0.0 
0.0 0.0 0.0 
0.0 0.0 0.0 
0.0 0.0 0.0 
0.0 0.0 0.0 
0.0 0.0 0.0 
0.0 0.0 0.0 
0.0 0.0 0.0 
0.0 0.0 0.0 
0.0 0.0 0.0 
0.0 0.0 0.0 
0.0 0.0 0.0 
0.0 0.0 0.0 
0.0 0.0 0.0 
0.0 0.0 0.0 
0.0 0.0 0.0 
0.0 0.0 0.0 
0.0 0.0 0.0 
0.0 0.0 0.0 
0.0 0.0 0.0 
0.0 0.0 0.0 
0.0 0.0 0.0 
0.0 0.0 0.0 
0.0 0.0 0.0 
0.0 0.0 0.0 
0.0 0.0 0.0 
0.0 0.0 0.0 
0.0 0.0 0.0 
0.0 0.0 0.0 
0.0 0.0 0.0 
0.0 0.0 0.0 
0.0 0.0 0.0 
0.0 0.0 0.0 
0.0 0.0 0.0 
0.0 0.0 0.0 
0.0 0.0 0.0 
0.0 0.0 0.0 
0.0 0.0 0.0 
0.0 0.0 0.0 
0.0 0.0 0.0 
0.0 0.0 0.0 
0.0 0.0 0.0 
0.0 0.0 0.0 
0.0 0.0 0.0 
0.0 0.0 0.0 
0.0 0.0 0.0 
0.0 0.0 0.0 
0.0 0.0 0.0 
0.0 0.0 0.0 
0.0 0.0 0.0 
0.0 0.0 0.0 
0.0 0.0 0.0 
0.0 0.0 0.0 
0.0 0.0 0.0 
0.0 0.0 0.0 
0.0 0.0 0.0 
0.0 0.0 0.0 
0.0 0.0 0.0 
0.0 0.0 0.0 
0.0 0.0 0.0 
0.0 0.0 0.0 
0.0 0.0 0.0 
0.0 0.0 0.0 
0.0 0.0 0.0 
0.0 0.0 0.0 
0.0 0.0 0.0 
0.0 0.0 0.0 
0.0 0.0 0.0 
0.0 0.0 0.0 
0.0 0.0 0.0 
0.0 0.0 0.0 
0.0 0.0 0.0 
0.0 0.0 0.0 
0.0 0.0 0.0 
0.0 0.0 0.0 
0.0 0.0 0.0 
0.0 0.0 0.0 
0.0 0.0 0.0 
0.0 0.0 0.0 
0.0 0.0 0.0 
0.0 0.0 0.0 
0.0 0.0 0.0 
0.0 0.0 0.0 
0.0 0.0 0.0 
0.0 0.0 0.0 
0.0 0.0 0.0 
0.0 0.0 0.0 
0.0 0.0 0.0 
0.0 0.0 0.0 
0.0 0.0 0.0 
0.0 0.0 0.0 
0.0 0.0 0.0 
0.0 0.0 0.0 
0.0 0.0 0.0 
0.0 0.0 0.0 
0.0 0.0 0.0 
0.0 0.0 0.0 
0.0 0.0 0.0 
0.0 0.0 0.0 
0.0 0.0 0.0 
0.0 0.0 0.0 
0.0 0.0 0.0 
0.0 0.0 0.0 
0.0 0.0 0.0 
0.0 0.0 0.0 
0.0 0.0 0.0 
0.0 0.0 0.0 
0.0 0.0 0.0 
0.0 0.0 0.0 
0.0 0.0 0.0 
0.0 0.0 0.0 
0.0 0.0 0.0 
0.0 0.0 0.0 
0.0 0.0 0.0 
0.0 0.0 0.0 
0.0 0.0 0.0 
0.0 0.0 0.0 
0.0 0.0 0.0 
0.0 0.0 0.0 
0.0 0.0 0.0 
0.0 0.0 0.0 
0.0 0.0 0.0 
0.0 0.0 0.0 
0.0 0.0 0.0 
0.0 0.0 0.0 
0.0 0.0 0.0 
0.0 0.0 0.0 
0.0 0.0 0.0 
0.0 0.0 0.0 
0.0 0.0 0.0 
0.0 0.0 0.0 
0.0 0.0 0.0 
0.0 0.0 0.0 
0.0 0.0 0.0 
0.0 0.0 0.0 
0.0 0.0 0.0 
0.0 0.0 0.0 
0.0 0.0 0.0 
0.0 0.0 0.0 
0.0 0.0 0.0 
0.0 0.0 0.0 
0.0 0.0 0.0 
0.0 0.0 0.0 
0.0 0.0 0.0 
0.0 0.0 0.0 
0.0 0.0 0.0 
0.0 0.0 0.0 
0.0 0.0 0.0 
0.0 0.0 0.0 
0.0 0.0 0.0 
0.0 0.0 0.0 
0.0 0.0 0.0 
0.0 0.0 0.0 
0.0 0.0 0.0 
0.0 0.0 0.0 
0.0 0.0 0.0 
0.0 0.0 0.0 
0.0 0.0 0.0 
0.0 0.0 0.0 
0.0 0.0 0.0 
0.0 0.0 0.0 
0.0 0.0 0.0 
0.0 0.0 0.0 
0.0 0.0 0.0 
0.0 0.0 0.0 
0.0 0.0 0.0 
0.0 0.0 0.0 
0.0 0.0 0.0 
0.0 0.0 0.0 
0.0 0.0 0.0 
0.0 0.0 0.0 
0.0 0.0 0.0 
0.0 0.0 0.0 
0.0 0.0 0.0 
0.0 0.0 0.0 
0.0 0.0 0.0 
0.0 0.0 0.0 
0.0 0.0 0.0 
0.0 0.0 0.0 
0.0 0.0 0.0 
0.0 0.0 0.0 
0.0 0.0 0.0 
0.0 0.0 0.0 
0.0 0.0 0.0 
0.0 0.0 0.0 
0.0 0.0 0.0 
0.0 0.0 0.0 
0.0 0.0 0.0 
0.0 0.0 0.0 
0.0 0.0 0.0 
0.0 0.0 0.0 
0.0 0.0 0.0 
0.0 0.0 0.0 
0.0 0.0 0.0 
0.0 0.0 0.0 
0.0 0.0 0.0 
0.0 0.0 0.0 
0.0 0.0 0.0 
0.0 0.0 0.0 
0.0 0.0 0.0 
0.0 0.0 0.0 
0.0 0.0 0.0 
0.0 0.0 0.0 
0.0 0.0 0.0 
0.0 0.0 0.0 
0.0 0.0 0.0 
0.0 0.0 0.0 
0.0 0.0 0.0 
0.0 0.0 0.0 
0.0 0.0 0.0 
0.0 0.0 0.0 
0.0 0.0 0.0 
0.0 0.0 0.0 
0.0 0.0 0.0 
0.0 0.0 0.0 
0.0 0.0 0.0 
0.0 0.0 0.0 
0.0 0.0 0.0 
0.0 0.0 0.0 
0.0 0.0 0.0 
0.0 0.0 0.0 
0.0 0.0 0.0 
0.0 0.0 0.0 
0.0 0.0 0.0 
0.0 0.0 0.0 
0.0 0.0 0.0 
0.0 0.0 0.0 
0.0 0.0 0.0 
0.0 0.0 0.0 
0.0 0.0 0.0 
0.0 0.0 0.0 
0.0 0.0 0.0 
0.0 0.0 0.0 
0.0 0.0 0.0 
0.0 0.0 0.0 
0.0 0.0 0.0 
0.0 0.0 0.0 
0.0 0.0 0.0 
0.0 0.0 0.0 
0.0 0.0 0.0 
0.0 0.0 0.0 
0.0 0.0 0.0 
0.0 0.0 0.0 
0.0 0.0 0.0 
0.0 0.0 0.0 
0.0 0.0 0.0 
0.0 0.0 0.0 
0.0 0.0 0.0 
0.0 0.0 0.0 
0.0 0.0 0.0 
0.0 0.0 0.0 
0.0 0.0 0.0 
0.0 0.0 0.0 
0.0 0.0 0.0 
0.0 0.0 0.0 
0.0 0.0 0.0 
0.0 0.0 0.0 
0.0 0.0 0.0 
0.0 0.0 0.0 
0.0 0.0 0.0 
0.0 0.0 0.0 
0.0 0.0 0.0 
0.0 0.0 0.0 
0.0 0.0 0.0 
0.0 0.0 0.0 
0.0 0.0 0.0 
0.0 0.0 0.0 
0.0 0.0 0.0 
0.0 0.0 0.0 
0.0 0.0 0.0 
0.0 0.0 0.0 
0.0 0.0 0.0 
0.0 0.0 0.0 
0.0 0.0 0.0 
0.0 0.0 0.0 
0.0 0.0 0.0 
0.0 0.0 0.0 
0.0 0.0 0.0 
0.0 0.0 0.0 
0.0 0.0 0.0 
0.0 0.0 0.0 
0.0 0.0 0.0 
0.0 0.0 0.0 
0.0 0.0 0.0 
0.0 0.0 0.0 
0.0 0.0 0.0 
0.0 0.0 0.0 
0.0 0.0 0.0 
0.0 0.0 0.0 
0.0 0.0 0.0 
0.0 0.0 0.0 
0.0 0.0 0.0 
0.0 0.0 0.0 
0.0 0.0 0.0 
0.0 0.0 0.0 
0.0 0.0 0.0 
0.0 0.0 0.0 
0.0 0.0 0.0 
0.0 0.0 0.0 
0.0 0.0 0.0 
0.0 0.0 0.0 
0.0 0.0 0.0 
0.0 0.0 0.0 
0.0 0.0 0.0 
0.0 0.0 0.0 
0.0 0.0 0.0 
0.0 0.0 0.0 
0.0 0.0 0.0 
0.0 0.0 0.0 
0.0 0.0 0.0 
0.0 0.0 0.0 
0.0 0.0 0.0 
0.0 0.0 0.0 
0.0 0.0 0.0 
0.0 0.0 0.0 
0.0 0.0 0.0 
0.0 0.0 0.0 
0.0 0.0 0.0 
0.0 0.0 0.0 
0.0 0.0 0.0 
0.0 0.0 0.0 
0.0 0.0 0.0 
0.0 0.0 0.0 
0.0 0.0 0.0 
0.0 0.0 0.0 
0.0 0.0 0.0 
0.0 0.0 0.0 
0.0 0.0 0.0 
0.0 0.0 0.0 
0.0 0.0 0.0 
0.0 0.0 0.0 
0.0 0.0 0.0 
0.0 0.0 0.0 
0.0 0.0 0.0 
0.0 0.0 0.0 
0.0 0.0 0.0 
0.0 0.0 0.0 
0.0 0.0 0.0 
0.0 0.0 0.0 
0.0 0.0 0.0 
0.0 0.0 0.0 
0.0 0.0 0.0 
0.0 0.0 0.0 
0.0 0.0 0.0 
0.0 0.0 0.0 
0.0 0.0 0.0 
0.0 0.0 0.0 
0.0 0.0 0.0 
0.0 0.0 0.0 
0.0 0.0 0.0 
0.0 0.0 0.0 
0.0 0.0 0.0 
0.0 0.0 0.0 
0.0 0.0 0.0 
0.0 0.0 0.0 
0.0 0.0 0.0 
0.0 0.0 0.0 
0.0 0.0 0.0 
0.0 0.0 0.0 
0.0 0.0 0.0 
0.0 0.0 0.0 
0.0 0.0 0.0 
0.0 0.0 0.0 
0.0 0.0 0.0 
0.0 0.0 0.0 
0.0 0.0 0.0 
0.0 0.0 0.0 
0.0 0.0 0.0 
0.0 0.0 0.0 
0.0 0.0 0.0 
0.0 0.0 0.0 
0.0 0.0 0.0 
0.0 0.0 0.0 
0.0 0.0 0.0 
0.0 0.0 0.0 
0.0 0.0 0.0 
0.0 0.0 0.0 
0.0 0.0 0.0 
0.0 0.0 0.0 
0.0 0.0 0.0 
0.0 0.0 0.0 
0.0 0.0 0.0 
0.0 0.0 0.0 
0.0 0.0 0.0 
0.0 0.0 0.0 
0.0 0.0 0.0 
0.0 0.0 0.0 
0.0 0.0 0.0 
0.0 0.0 0.0 
0.0 0.0 0.0 
0.0 0.0 0.0 
0.0 0.0 0.0 
0.0 0.0 0.0 
0.0 0.0 0.0 
0.0 0.0 0.0 
0.0 0.0 0.0 
0.0 0.0 0.0 
0.0 0.0 0.0 
0.0 0.0 0.0 
0.0 0.0 0.0 
0.0 0.0 0.0 
0.0 0.0 0.0 
0.0 0.0 0.0 
0.0 0.0 0.0 
0.0 0.0 0.0 
0.0 0.0 0.0 
0.0 0.0 0.0 
0.0 0.0 0.0 
0.0 0.0 0.0 
0.0 0.0 0.0 
0.0 0.0 0.0 
0.0 0.0 0.0 
0.0 0.0 0.0 
0.0 0.0 0.0 
0.0 0.0 0.0 
0.0 0.0 0.0 
0.0 0.0 0.0 
0.0 0.0 0.0 
0.0 0.0 0.0 
0.0 0.0 0.0 
0.0 0.0 0.0 
0.0 0.0 0.0 
0.0 0.0 0.0 
0.0 0.0 0.0 
0.0 0.0 0.0 
0.0 0.0 0.0 
0.0 0.0 0.0 
0.0 0.0 0.0 
0.0 0.0 0.0 
0.0 0.0 0.0 
0.0 0.0 0.0 
0.0 0.0 0.0 
0.0 0.0 0.0 
0.0 0.0 0.0 
0.0 0.0 0.0 
0.0 0.0 0.0 
0.0 0.0 0.0 
0.0 0.0 0.0 
0.0 0.0 0.0 
0.0 0.0 0.0 
0.0 0.0 0.0 
0.0 0.0 0.0 
0.0 0.0 0.0 
0.0 0.0 0.0 
0.0 0.0 0.0 
0.0 0.0 0.0 
0.0 0.0 0.0 
0.0 0.0 0.0 
0.0 0.0 0.0 
0.0 0.0 0.0 
0.0 0.0 0.0 
0.0 0.0 0.0 
0.0 0.0 0.0 
0.0 0.0 0.0 
0.0 0.0 0.0 
0.0 0.0 0.0 
0.0 0.0 0.0 
0.0 0.0 0.0 
0.0 0.0 0.0 
0.0 0.0 0.0 
0.0 0.0 0.0 
0.0 0.0 0.0 
0.0 0.0 0.0 
0.0 0.0 0.0 
0.0 0.0 0.0 
0.0 0.0 0.0 
0.0 0.0 0.0 
0.0 0.0 0.0 
0.0 0.0 0.0 
0.0 0.0 0.0 
0.0 0.0 0.0 
0.0 0.0 0.0 
0.0 0.0 0.0 
0.0 0.0 0.0 
0.0 0.0 0.0 
0.0 0.0 0.0 
0.0 0.0 0.0 
0.0 0.0 0.0 
0.0 0.0 0.0 
0.0 0.0 0.0 
0.0 0.0 0.0 
0.0 0.0 0.0 
0.0 0.0 0.0 
0.0 0.0 0.0 
0.0 0.0 0.0 
0.0 0.0 0.0 
0.0 0.0 0.0 
0.0 0.0 0.0 
0.0 0.0 0.0 
0.0 0.0 0.0 
0.0 0.0 0.0 
0.0 0.0 0.0 
0.0 0.0 0.0 
0.0 0.0 0.0 
0.0 0.0 0.0 
0.0 0.0 0.0 
0.0 0.0 0.0 
0.0 0.0 0.0 
0.0 0.0 0.0 
0.0 0.0 0.0 
0.0 0.0 0.0 
0.0 0.0 0.0 
0.0 0.0 0.0 
0.0 0.0 0.0 
0.0 0.0 0.0 
0.0 0.0 0.0 
0.0 0.0 0.0 
0.0 0.0 0.0 
0.0 0.0 0.0 
0.0 0.0 0.0 
0.0 0.0 0.0 
0.0 0.0 0.0 
0.0 0.0 0.0 
0.0 0.0 0.0 
0.0 0.0 0.0 
0.0 0.0 0.0 
0.0 0.0 0.0 
0.0 0.0 0.0 
0.0 0.0 0.0 
0.0 0.0 0.0 
0.0 0.0 0.0 
0.0 0.0 0.0 
0.0 0.0 0.0 
0.0 0.0 0.0 
0.0 0.0 0.0 
0.0 0.0 0.0 
0.0 0.0 0.0 
0.0 0.0 0.0 
0.0 0.0 0.0 
0.0 0.0 0.0 
0.0 0.0 0.0 
0.0 0.0 0.0 
0.0 0.0 0.0 
0.0 0.0 0.0 
0.0 0.0 0.0 
0.0 0.0 0.0 
0.0 0.0 0.0 
0.0 0.0 0.0 
0.0 0.0 0.0 
0.0 0.0 0.0 
0.0 0.0 0.0 
0.0 0.0 0.0 
0.0 0.0 0.0 
0.0 0.0 0.0 
0.0 0.0 0.0 
0.0 0.0 0.0 
0.0 0.0 0.0 
0.0 0.0 0.0 
0.0 0.0 0.0 
0.0 0.0 0.0 
0.0 0.0 0.0 
0.0 0.0 0.0 
0.0 0.0 0.0 
0.0 0.0 0.0 
0.0 0.0 0.0 
0.0 0.0 0.0 
0.0 0.0 0.0 
0.0 0.0 0.0 
0.0 0.0 0.0 
0.0 0.0 0.0 
0.0 0.0 0.0 
0.0 0.0 0.0 
0.0 0.0 0.0 
0.0 0.0 0.0 
0.0 0.0 0.0 
0.0 0.0 0.0 
0.0 0.0 0.0 
0.0 0.0 0.0 
0.0 0.0 0.0 
0.0 0.0 0.0 
0.0 0.0 0.0 
0.0 0.0 0.0 
0.0 0.0 0.0 
0.0 0.0 0.0 
0.0 0.0 0.0 
0.0 0.0 0.0 
0.0 0.0 0.0 
0.0 0.0 0.0 
0.0 0.0 0.0 
0.0 0.0 0.0 
0.0 0.0 0.0 
0.0 0.0 0.0 
0.0 0.0 0.0 
0.0 0.0 0.0 
0.0 0.0 0.0 
0.0 0.0 0.0 
0.0 0.0 0.0 
0.0 0.0 0.0 
0.0 0.0 0.0 
0.0 0.0 0.0 
0.0 0.0 0.0 
0.0 0.0 0.0 
0.0 0.0 0.0 
0.0 0.0 0.0 
0.0 0.0 0.0 
0.0 0.0 0.0 
0.0 0.0 0.0 
0.0 0.0 0.0 
0.0 0.0 0.0 
0.0 0.0 0.0 
0.0 0.0 0.0 
0.0 0.0 0.0 
0.0 0.0 0.0 
0.0 0.0 0.0 
0.0 0.0 0.0 
0.0 0.0 0.0 
0.0 0.0 0.0 
0.0 0.0 0.0 
0.0 0.0 0.0 
0.0 0.0 0.0 
0.0 0.0 0.0 
0.0 0.0 0.0 
0.0 0.0 0.0 
0.0 0.0 0.0 
0.0 0.0 0.0 
0.0 0.0 0.0 
0.0 0.0 0.0 
0.0 0.0 0.0 
0.0 0.0 0.0 
0.0 0.0 0.0 
0.0 0.0 0.0 
0.0 0.0 0.0 
0.0 0.0 0.0 
0.0 0.0 0.0 
0.0 0.0 0.0 
0.0 0.0 0.0 
0.0 0.0 0.0 
0.0 0.0 0.0 
0.0 0.0 0.0 
0.0 0.0 0.0 
0.0 0.0 0.0 
0.0 0.0 0.0 
0.0 0.0 0.0 
0.0 0.0 0.0 
0.0 0.0 0.0 
0.0 0.0 0.0 
0.0 0.0 0.0 
0.0 0.0 0.0 
0.0 0.0 0.0 
0.0 0.0 0.0 
0.0 0.0 0.0 
0.0 0.0 0.0 
0.0 0.0 0.0 
0.0 0.0 0.0 
0.0 0.0 0.0 
0.0 0.0 0.0 
0.0 0.0 0.0 
0.0 0.0 0.0 
0.0 0.0 0.0 
0.0 0.0 0.0 
0.0 0.0 0.0 
0.0 0.0 0.0 
0.0 0.0 0.0 
0.0 0.0 0.0 
0.0 0.0 0.0 
0.0 0.0 0.0 
0.0 0.0 0.0 
0.0 0.0 0.0 
0.0 0.0 0.0 
0.0 0.0 0.0 
0.0 0.0 0.0 
0.0 0.0 0.0 
0.0 0.0 0.0 
0.0 0.0 0.0 
0.0 0.0 0.0 
0.0 0.0 0.0 
0.0 0.0 0.0 
0.0 0.0 0.0 
0.0 0.0 0.0 
0.0 0.0 0.0 
0.0 0.0 0.0 
0.0 0.0 0.0 
0.0 0.0 0.0 
0.0 0.0 0.0 
0.0 0.0 0.0 
0.0 0.0 0.0 
0.0 0.0 0.0 
0.0 0.0 0.0 
0.0 0.0 0.0 
0.0 0.0 0.0 
0.0 0.0 0.0 
0.0 0.0 0.0 
0.0 0.0 0.0 
0.0 0.0 0.0 
0.0 0.0 0.0 
0.0 0.0 0.0 
0.0 0.0 0.0 
0.0 0.0 0.0 
0.0 0.0 0.0 
0.0 0.0 0.0 
0.0 0.0 0.0 
0.0 0.0 0.0 
0.0 0.0 0.0 
0.0 0.0 0.0 
0.0 0.0 0.0 
0.0 0.0 0.0 
0.0 0.0 0.0 
0.0 0.0 0.0 
0.0 0.0 0.0 
0.0 0.0 0.0 
0.0 0.0 0.0 
0.0 0.0 0.0 
0.0 0.0 0.0 
0.0 0.0 0.0 
0.0 0.0 0.0 
0.0 0.0 0.0 
0.0 0.0 0.0 
0.0 0.0 0.0 
0.0 0.0 0.0 
0.0 0.0 0.0 
0.0 0.0 0.0 
0.0 0.0 0.0 
0.0 0.0 0.0 
0.0 0.0 0.0 
0.0 0.0 0.0 
0.0 0.0 0.0 
0.0 0.0 0.0 
0.0 0.0 0.0 
0.0 0.0 0.0 
0.0 0.0 0.0 
0.0 0.0 0.0 
0.0 0.0 0.0 
0.0 0.0 0.0 
0.0 0.0 0.0 
0.0 0.0 0.0 
0.0 0.0 0.0 
0.0 0.0 0.0 
0.0 0.0 0.0 
0.0 0.0 0.0 
0.0 0.0 0.0 
0.0 0.0 0.0 
0.0 0.0 0.0 
0.0 0.0 0.0 
0.0 0.0 0.0 
0.0 0.0 0.0 
0.0 0.0 0.0 
0.0 0.0 0.0 
0.0 0.0 0.0 
0.0 0.0 0.0 
0.0 0.0 0.0 
0.0 0.0 0.0 
0.0 0.0 0.0 
0.0 0.0 0.0 
0.0 0.0 0.0 
0.0 0.0 0.0 
0.0 0.0 0.0 
0.0 0.0 0.0 
0.0 0.0 0.0 
0.0 0.0 0.0 
0.0 0.0 0.0 
0.0 0.0 0.0 
0.0 0.0 0.0 
0.0 0.0 0.0 
0.0 0.0 0.0 
0.0 0.0 0.0 
0.0 0.0 0.0 
0.0 0.0 0.0 
0.0 0.0 0.0 
0.0 0.0 0.0 
0.0 0.0 0.0 
0.0 0.0 0.0 
0.0 0.0 0.0 
0.0 0.0 0.0 
0.0 0.0 0.0 
0.0 0.0 0.0 
0.0 0.0 0.0 
0.0 0.0 0.0 
0.0 0.0 0.0 
0.0 0.0 0.0 
0.0 0.0 0.0 
0.0 0.0 0.0 
0.0 0.0 0.0 
0.0 0.0 0.0 
0.0 0.0 0.0 
0.0 0.0 0.0 
0.0 0.0 0.0 
0.0 0.0 0.0 
0.0 0.0 0.0 
0.0 0.0 0.0 
0.0 0.0 0.0 
0.0 0.0 0.0 
0.0 0.0 0.0 
0.0 0.0 0.0 
0.0 0.0 0.0 
0.0 0.0 0.0 
0.0 0.0 0.0 
0.0 0.0 0.0 
0.0 0.0 0.0 
0.0 0.0 0.0 
0.0 0.0 0.0 
0.0 0.0 0.0 
0.0 0.0 0.0 
0.0 0.0 0.0 
0.0 0.0 0.0 
0.0 0.0 0.0 
0.0 0.0 0.0 
0.0 0.0 0.0 
0.0 0.0 0.0 
0.0 0.0 0.0 
0.0 0.0 0.0 
0.0 0.0 0.0 
0.0 0.0 0.0 
0.0 0.0 0.0 
0.0 0.0 0.0 
0.0 0.0 0.0 
0.0 0.0 0.0 
0.0 0.0 0.0 
0.0 0.0 0.0 
0.0 0.0 0.0 
0.0 0.0 0.0 
0.0 0.0 0.0 
0.0 0.0 0.0 
0.0 0.0 0.0 
0.0 0.0 0.0 
0.0 0.0 0.0 
0.0 0.0 0.0 
0.0 0.0 0.0 
0.0 0.0 0.0 
0.0 0.0 0.0 
0.0 0.0 0.0 
0.0 0.0 0.0 
0.0 0.0 0.0 
0.0 0.0 0.0 
0.0 0.0 0.0 
0.0 0.0 0.0 
0.0 0.0 0.0 
0.0 0.0 0.0 
0.0 0.0 0.0 
0.0 0.0 0.0 
0.0 0.0 0.0 
0.0 0.0 0.0 
0.0 0.0 0.0 
0.0 0.0 0.0 
0.0 0.0 0.0 
0.0 0.0 0.0 
0.0 0.0 0.0 
0.0 0.0 0.0 
0.0 0.0 0.0 
0.0 0.0 0.0 
0.0 0.0 0.0 
0.0 0.0 0.0 
0.0 0.0 0.0 
0.0 0.0 0.0 
0.0 0.0 0.0 
0.0 0.0 0.0 
0.0 0.0 0.0 
0.0 0.0 0.0 
0.0 0.0 0.0 
0.0 0.0 0.0 
0.0 0.0 0.0 
0.0 0.0 0.0 
0.0 0.0 0.0 
0.0 0.0 0.0 
0.0 0.0 0.0 
0.0 0.0 0.0 
0.0 0.0 0.0 
0.0 0.0 0.0 
0.0 0.0 0.0 
0.0 0.0 0.0 
0.0 0.0 0.0 
0.0 0.0 0.0 
0.0 0.0 0.0 
0.0 0.0 0.0 
0.0 0.0 0.0 
0.0 0.0 0.0 
0.0 0.0 0.0 
0.0 0.0 0.0 
0.0 0.0 0.0 
0.0 0.0 0.0 
0.0 0.0 0.0 
0.0 0.0 0.0 
0.0 0.0 0.0 
0.0 0.0 0.0 
0.0 0.0 0.0 
0.0 0.0 0.0 
0.0 0.0 0.0 
0.0 0.0 0.0 
0.0 0.0 0.0 
0.0 0.0 0.0 
0.0 0.0 0.0 
0.0 0.0 0.0 
0.0 0.0 0.0 
0.0 0.0 0.0 
0.0 0.0 0.0 
0.0 0.0 0.0 
0.0 0.0 0.0 
0.0 0.0 0.0 
0.0 0.0 0.0 
0.0 0.0 0.0 
0.0 0.0 0.0 
0.0 0.0 0.0 
0.0 0.0 0.0 
0.0 0.0 0.0 
0.0 0.0 0.0 
0.0 0.0 0.0 
0.0 0.0 0.0 
0.0 0.0 0.0 
0.0 0.0 0.0 
0.0 0.0 0.0 
0.0 0.0 0.0 
0.0 0.0 0.0 
0.0 0.0 0.0 
0.0 0.0 0.0 
0.0 0.0 0.0 
0.0 0.0 0.0 
0.0 0.0 0.0 
0.0 0.0 0.0 
0.0 0.0 0.0 
0.0 0.0 0.0 
0.0 0.0 0.0 
0.0 0.0 0.0 
0.0 0.0 0.0 
0.0 0.0 0.0 
0.0 0.0 0.0 
0.0 0.0 0.0 
0.0 0.0 0.0 
0.0 0.0 0.0 
0.0 0.0 0.0 
0.0 0.0 0.0 
0.0 0.0 0.0 
0.0 0.0 0.0 
0.0 0.0 0.0 
0.0 0.0 0.0 
0.0 0.0 0.0 
0.0 0.0 0.0 
0.0 0.0 0.0 
0.0 0.0 0.0 
0.0 0.0 0.0 
0.0 0.0 0.0 
0.0 0.0 0.0 
0.0 0.0 0.0 
0.0 0.0 0.0 
0.0 0.0 0.0 
0.0 0.0 0.0 
0.0 0.0 0.0 
0.0 0.0 0.0 
0.0 0.0 0.0 
0.0 0.0 0.0 
0.0 0.0 0.0 
0.0 0.0 0.0 
0.0 0.0 0.0 
0.0 0.0 0.0 
0.0 0.0 0.0 
0.0 0.0 0.0 
0.0 0.0 0.0 
0.0 0.0 0.0 
0.0 0.0 0.0 
0.0 0.0 0.0 
0.0 0.0 0.0 
0.0 0.0 0.0 
0.0 0.0 0.0 
0.0 0.0 0.0 
0.0 0.0 0.0 
0.0 0.0 0.0 
0.0 0.0 0.0 
0.0 0.0 0.0 
0.0 0.0 0.0 
0.0 0.0 0.0 
0.0 0.0 0.0 
0.0 0.0 0.0 
0.0 0.0 0.0 
0.0 0.0 0.0 
0.0 0.0 0.0 
0.0 0.0 0.0 
0.0 0.0 0.0 
0.0 0.0 0.0 
0.0 0.0 0.0 
0.0 0.0 0.0 
0.0 0.0 0.0 
0.0 0.0 0.0 
0.0 0.0 0.0 
0.0 0.0 0.0 
0.0 0.0 0.0 
0.0 0.0 0.0 
0.0 0.0 0.0 
0.0 0.0 0.0 
0.0 0.0 0.0 
0.0 0.0 0.0 
0.0 0.0 0.0 
0.0 0.0 0.0 
0.0 0.0 0.0 
0.0 0.0 0.0 
0.0 0.0 0.0 
0.0 0.0 0.0 
0.0 0.0 0.0 
0.0 0.0 0.0 
0.0 0.0 0.0 
0.0 0.0 0.0 
0.0 0.0 0.0 
0.0 0.0 0.0 
0.0 0.0 0.0 
0.0 0.0 0.0 
0.0 0.0 0.0 
0.0 0.0 0.0 
0.0 0.0 0.0 
0.0 0.0 0.0 
0.0 0.0 0.0 
0.0 0.0 0.0 
0.0 0.0 0.0 
0.0 0.0 0.0 
0.0 0.0 0.0 
0.0 0.0 0.0 
0.0 0.0 0.0 
0.0 0.0 0.0 
0.0 0.0 0.0 
0.0 0.0 0.0 
0.0 0.0 0.0 
0.0 0.0 0.0 
0.0 0.0 0.0 
0.0 0.0 0.0 
0.0 0.0 0.0 
0.0 0.0 0.0 
0.0 0.0 0.0 
0.0 0.0 0.0 
0.0 0.0 0.0 
0.0 0.0 0.0 
0.0 0.0 0.0 
0.0 0.0 0.0 
0.0 0.0 0.0 
0.0 0.0 0.0 
0.0 0.0 0.0 
0.0 0.0 0.0 
0.0 0.0 0.0 
0.0 0.0 0.0 
0.0 0.0 0.0 
0.0 0.0 0.0 
0.0 0.0 0.0 
0.0 0.0 0.0 
0.0 0.0 0.0 
0.0 0.0 0.0 
0.0 0.0 0.0 
0.0 0.0 0.0 
0.0 0.0 0.0 
0.0 0.0 0.0 
0.0 0.0 0.0 
0.0 0.0 0.0 
0.0 0.0 0.0 
0.0 0.0 0.0 
0.0 0.0 0.0 
0.0 0.0 0.0 
0.0 0.0 0.0 
0.0 0.0 0.0 
0.0 0.0 0.0 
0.0 0.0 0.0 
0.0 0.0 0.0 
0.0 0.0 0.0 
0.0 0.0 0.0 
0.0 0.0 0.0 
0.0 0.0 0.0 
0.0 0.0 0.0 
0.0 0.0 0.0 
0.0 0.0 0.0 
0.0 0.0 0.0 
0.0 0.0 0.0 
0.0 0.0 0.0 
0.0 0.0 0.0 
0.0 0.0 0.0 
0.0 0.0 0.0 
0.0 0.0 0.0 
0.0 0.0 0.0 
0.0 0.0 0.0 
0.0 0.0 0.0 
0.0 0.0 0.0 
0.0 0.0 0.0 
0.0 0.0 0.0 
0.0 0.0 0.0 
0.0 0.0 0.0 
0.0 0.0 0.0 
0.0 0.0 0.0 
0.0 0.0 0.0 
0.0 0.0 0.0 
0.0 0.0 0.0 
0.0 0.0 0.0 
0.0 0.0 0.0 
0.0 0.0 0.0 
0.0 0.0 0.0 
0.0 0.0 0.0 
0.0 0.0 0.0 
0.0 0.0 0.0 
0.0 0.0 0.0 
0.0 0.0 0.0 
0.0 0.0 0.0 
0.0 0.0 0.0 
0.0 0.0 0.0 
0.0 0.0 0.0 
0.0 0.0 0.0 
0.0 0.0 0.0 
0.0 0.0 0.0 
0.0 0.0 0.0 
0.0 0.0 0.0 
0.0 0.0 0.0 
0.0 0.0 0.0 
0.0 0.0 0.0 
0.0 0.0 0.0 
0.0 0.0 0.0 
0.0 0.0 0.0 
0.0 0.0 0.0 
0.0 0.0 0.0 
0.0 0.0 0.0 
0.0 0.0 0.0 
0.0 0.0 0.0 
0.0 0.0 0.0 
0.0 0.0 0.0 
0.0 0.0 0.0 
0.0 0.0 0.0 
0.0 0.0 0.0 
0.0 0.0 0.0 
0.0 0.0 0.0 
0.0 0.0 0.0 
0.0 0.0 0.0 
0.0 0.0 0.0 
0.0 0.0 0.0 
0.0 0.0 0.0 
0.0 0.0 0.0 
0.0 0.0 0.0 
0.0 0.0 0.0 
0.0 0.0 0.0 
0.0 0.0 0.0 
0.0 0.0 0.0 
0.0 0.0 0.0 
0.0 0.0 0.0 
0.0 0.0 0.0 
0.0 0.0 0.0 
0.0 0.0 0.0 
0.0 0.0 0.0 
0.0 0.0 0.0 
0.0 0.0 0.0 
0.0 0.0 0.0 
0.0 0.0 0.0 
0.0 0.0 0.0 
0.0 0.0 0.0 
0.0 0.0 0.0 
0.0 0.0 0.0 
0.0 0.0 0.0 
0.0 0.0 0.0 
0.0 0.0 0.0 
0.0 0.0 0.0 
0.0 0.0 0.0 
0.0 0.0 0.0 
0.0 0.0 0.0 
0.0 0.0 0.0 
0.0 0.0 0.0 
0.0 0.0 0.0 
0.0 0.0 0.0 
0.0 0.0 0.0 
0.0 0.0 0.0 
0.0 0.0 0.0 
0.0 0.0 0.0 
0.0 0.0 0.0 
0.0 0.0 0.0 
0.0 0.0 0.0 
0.0 0.0 0.0 
0.0 0.0 0.0 
0.0 0.0 0.0 
0.0 0.0 0.0 
0.0 0.0 0.0 
0.0 0.0 0.0 
0.0 0.0 0.0 
0.0 0.0 0.0 
0.0 0.0 0.0 
0.0 0.0 0.0 
0.0 0.0 0.0 
0.0 0.0 0.0 
0.0 0.0 0.0 
0.0 0.0 0.0 
0.0 0.0 0.0 
0.0 0.0 0.0 
0.0 0.0 0.0 
0.0 0.0 0.0 
0.0 0.0 0.0 
0.0 0.0 0.0 
0.0 0.0 0.0 
0.0 0.0 0.0 
0.0 0.0 0.0 
0.0 0.0 0.0 
0.0 0.0 0.0 
0.0 0.0 0.0 
0.0 0.0 0.0 
0.0 0.0 0.0 
0.0 0.0 0.0 
0.0 0.0 0.0 
0.0 0.0 0.0 
0.0 0.0 0.0 
0.0 0.0 0.0 
0.0 0.0 0.0 
0.0 0.0 0.0 
0.0 0.0 0.0 
0.0 0.0 0.0 
0.0 0.0 0.0 
0.0 0.0 0.0 
0.0 0.0 0.0 
0.0 0.0 0.0 
0.0 0.0 0.0 
0.0 0.0 0.0 
0.0 0.0 0.0 
0.0 0.0 0.0 
0.0 0.0 0.0 
0.0 0.0 0.0 
0.0 0.0 0.0 
0.0 0.0 0.0 
0.0 0.0 0.0 
0.0 0.0 0.0 
0.0 0.0 0.0 
0.0 0.0 0.0 
0.0 0.0 0.0 
0.0 0.0 0.0 
0.0 0.0 0.0 
0.0 0.0 0.0 
0.0 0.0 0.0 
0.0 0.0 0.0 
0.0 0.0 0.0 
0.0 0.0 0.0 
0.0 0.0 0.0 
0.0 0.0 0.0 
0.0 0.0 0.0 
0.0 0.0 0.0 
0.0 0.0 0.0 
0.0 0.0 0.0 
0.0 0.0 0.0 
0.0 0.0 0.0 
0.0 0.0 0.0 
0.0 0.0 0.0 
0.0 0.0 0.0 
0.0 0.0 0.0 
0.0 0.0 0.0 
0.0 0.0 0.0 
0.0 0.0 0.0 
0.0 0.0 0.0 
0.0 0.0 0.0 
0.0 0.0 0.0 
0.0 0.0 0.0 
0.0 0.0 0.0 
0.0 0.0 0.0 
0.0 0.0 0.0 
0.0 0.0 0.0 
0.0 0.0 0.0 
0.0 0.0 0.0 
0.0 0.0 0.0 
0.0 0.0 0.0 
0.0 0.0 0.0 
0.0 0.0 0.0 
0.0 0.0 0.0 
0.0 0.0 0.0 
0.0 0.0 0.0 
0.0 0.0 0.0 
0.0 0.0 0.0 
0.0 0.0 0.0 
0.0 0.0 0.0 
0.0 0.0 0.0 
0.0 0.0 0.0 
0.0 0.0 0.0 
0.0 0.0 0.0 
0.0 0.0 0.0 
0.0 0.0 0.0 
0.0 0.0 0.0 
0.0 0.0 0.0 
0.0 0.0 0.0 
0.0 0.0 0.0 
0.0 0.0 0.0 
0.0 0.0 0.0 
0.0 0.0 0.0 
0.0 0.0 0.0 
0.0 0.0 0.0 
0.0 0.0 0.0 
0.0 0.0 0.0 
0.0 0.0 0.0 
0.0 0.0 0.0 
0.0 0.0 0.0 
0.0 0.0 0.0 
0.0 0.0 0.0 
0.0 0.0 0.0 
0.0 0.0 0.0 
0.0 0.0 0.0 
0.0 0.0 0.0 
0.0 0.0 0.0 
0.0 0.0 0.0 
0.0 0.0 0.0 
0.0 0.0 0.0 
0.0 0.0 0.0 
0.0 0.0 0.0 
0.0 0.0 0.0 
0.0 0.0 0.0 
0.0 0.0 0.0 
0.0 0.0 0.0 
0.0 0.0 0.0 
0.0 0.0 0.0 
0.0 0.0 0.0 
0.0 0.0 0.0 
0.0 0.0 0.0 
0.0 0.0 0.0 
0.0 0.0 0.0 
0.0 0.0 0.0 
0.0 0.0 0.0 
0.0 0.0 0.0 
0.0 0.0 0.0 
0.0 0.0 0.0 
0.0 0.0 0.0 
0.0 0.0 0.0 
0.0 0.0 0.0 
0.0 0.0 0.0 
0.0 0.0 0.0 
0.0 0.0 0.0 
0.0 0.0 0.0 
0.0 0.0 0.0 
0.0 0.0 0.0 
0.0 0.0 0.0 
0.0 0.0 0.0 
0.0 0.0 0.0 
0.0 0.0 0.0 
0.0 0.0 0.0 
0.0 0.0 0.0 
0.0 0.0 0.0 
0.0 0.0 0.0 
0.0 0.0 0.0 
0.0 0.0 0.0 
0.0 0.0 0.0 
0.0 0.0 0.0 
0.0 0.0 0.0 
0.0 0.0 0.0 
0.0 0.0 0.0 
0.0 0.0 0.0 
0.0 0.0 0.0 
0.0 0.0 0.0 
0.0 0.0 0.0 
0.0 0.0 0.0 
0.0 0.0 0.0 
0.0 0.0 0.0 
0.0 0.0 0.0 
0.0 0.0 0.0 
0.0 0.0 0.0 
0.0 0.0 0.0 
0.0 0.0 0.0 
0.0 0.0 0.0 
0.0 0.0 0.0 
0.0 0.0 0.0 
0.0 0.0 0.0 
0.0 0.0 0.0 
0.0 0.0 0.0 
0.0 0.0 0.0 
0.0 0.0 0.0 
0.0 0.0 0.0 
0.0 0.0 0.0 
0.0 0.0 0.0 
0.0 0.0 0.0 
0.0 0.0 0.0 
0.0 0.0 0.0 
0.0 0.0 0.0 
0.0 0.0 0.0 
0.0 0.0 0.0 
0.0 0.0 0.0 
0.0 0.0 0.0 
0.0 0.0 0.0 
0.0 0.0 0.0 
0.0 0.0 0.0 
0.0 0.0 0.0 
0.0 0.0 0.0 
0.0 0.0 0.0 
0.0 0.0 0.0 
0.0 0.0 0.0 
0.0 0.0 0.0 
0.0 0.0 0.0 
0.0 0.0 0.0 
0.0 0.0 0.0 
0.0 0.0 0.0 
0.0 0.0 0.0 
0.0 0.0 0.0 
0.0 0.0 0.0 
0.0 0.0 0.0 
0.0 0.0 0.0 
0.0 0.0 0.0 
0.0 0.0 0.0 
0.0 0.0 0.0 
0.0 0.0 0.0 
0.0 0.0 0.0 
0.0 0.0 0.0 
0.0 0.0 0.0 
0.0 0.0 0.0 
0.0 0.0 0.0 
0.0 0.0 0.0 
0.0 0.0 0.0 
0.0 0.0 0.0 
0.0 0.0 0.0 
0.0 0.0 0.0 
0.0 0.0 0.0 
0.0 0.0 0.0 
0.0 0.0 0.0 
0.0 0.0 0.0 
0.0 0.0 0.0 
0.0 0.0 0.0 
0.0 0.0 0.0 
0.0 0.0 0.0 
0.0 0.0 0.0 
0.0 0.0 0.0 
0.0 0.0 0.0 
0.0 0.0 0.0 
0.0 0.0 0.0 
0.0 0.0 0.0 
0.0 0.0 0.0 
0.0 0.0 0.0 
0.0 0.0 0.0 
0.0 0.0 0.0 
0.0 0.0 0.0 
0.0 0.0 0.0 
0.0 0.0 0.0 
0.0 0.0 0.0 
0.0 0.0 0.0 
0.0 0.0 0.0 
0.0 0.0 0.0 
0.0 0.0 0.0 
0.0 0.0 0.0 
0.0 0.0 0.0 
0.0 0.0 0.0 
0.0 0.0 0.0 
0.0 0.0 0.0 
0.0 0.0 0.0 
0.0 0.0 0.0 
0.0 0.0 0.0 
0.0 0.0 0.0 
0.0 0.0 0.0 
0.0 0.0 0.0 
0.0 0.0 0.0 
0.0 0.0 0.0 
0.0 0.0 0.0 
0.0 0.0 0.0 
0.0 0.0 0.0 
0.0 0.0 0.0 
0.0 0.0 0.0 
0.0 0.0 0.0 
0.0 0.0 0.0 
0.0 0.0 0.0 
0.0 0.0 0.0 
0.0 0.0 0.0 
0.0 0.0 0.0 
0.0 0.0 0.0 
0.0 0.0 0.0 
0.0 0.0 0.0 
0.0 0.0 0.0 
0.0 0.0 0.0 
0.0 0.0 0.0 
0.0 0.0 0.0 
0.0 0.0 0.0 
0.0 0.0 0.0 
0.0 0.0 0.0 
0.0 0.0 0.0 
0.0 0.0 0.0 
0.0 0.0 0.0 
0.0 0.0 0.0 
0.0 0.0 0.0 
0.0 0.0 0.0 
0.0 0.0 0.0 
0.0 0.0 0.0 
0.0 0.0 0.0 
0.0 0.0 0.0 
0.0 0.0 0.0 
0.0 0.0 0.0 
0.0 0.0 0.0 
0.0 0.0 0.0 
0.0 0.0 0.0 
0.0 0.0 0.0 
0.0 0.0 0.0 
0.0 0.0 0.0 
0.0 0.0 0.0 
0.0 0.0 0.0 
0.0 0.0 0.0 
0.0 0.0 0.0 
0.0 0.0 0.0 
0.0 0.0 0.0 
0.0 0.0 0.0 
0.0 0.0 0.0 
0.0 0.0 0.0 
0.0 0.0 0.0 
0.0 0.0 0.0 
0.0 0.0 0.0 
0.0 0.0 0.0 
0.0 0.0 0.0 
0.0 0.0 0.0 
0.0 0.0 0.0 
0.0 0.0 0.0 
0.0 0.0 0.0 
0.0 0.0 0.0 
0.0 0.0 0.0 
0.0 0.0 0.0 
0.0 0.0 0.0 
0.0 0.0 0.0 
0.0 0.0 0.0 
0.0 0.0 0.0 
0.0 0.0 0.0 
0.0 0.0 0.0 
0.0 0.0 0.0 
0.0 0.0 0.0 
0.0 0.0 0.0 
0.0 0.0 0.0 
0.0 0.0 0.0 
0.0 0.0 0.0 
0.0 0.0 0.0 
0.0 0.0 0.0 
0.0 0.0 0.0 
0.0 0.0 0.0 
0.0 0.0 0.0 
0.0 0.0 0.0 
0.0 0.0 0.0 
0.0 0.0 0.0 
0.0 0.0 0.0 
0.0 0.0 0.0 
0.0 0.0 0.0 
0.0 0.0 0.0 
0.0 0.0 0.0 
0.0 0.0 0.0 
0.0 0.0 0.0 
0.0 0.0 0.0 
0.0 0.0 0.0 
0.0 0.0 0.0 
0.0 0.0 0.0 
0.0 0.0 0.0 
0.0 0.0 0.0 
0.0 0.0 0.0 
0.0 0.0 0.0 
0.0 0.0 0.0 
0.0 0.0 0.0 
0.0 0.0 0.0 
0.0 0.0 0.0 
0.0 0.0 0.0 
0.0 0.0 0.0 
0.0 0.0 0.0 
0.0 0.0 0.0 
0.0 0.0 0.0 
0.0 0.0 0.0 
0.0 0.0 0.0 
0.0 0.0 0.0 
0.0 0.0 0.0 
0.0 0.0 0.0 
0.0 0.0 0.0 
0.0 0.0 0.0 
0.0 0.0 0.0 
0.0 0.0 0.0 
0.0 0.0 0.0 
0.0 0.0 0.0 
0.0 0.0 0.0 
0.0 0.0 0.0 
0.0 0.0 0.0 
0.0 0.0 0.0 
0.0 0.0 0.0 
0.0 0.0 0.0 
0.0 0.0 0.0 
0.0 0.0 0.0 
0.0 0.0 0.0 
0.0 0.0 0.0 
0.0 0.0 0.0 
0.0 0.0 0.0 
0.0 0.0 0.0 
0.0 0.0 0.0 
0.0 0.0 0.0 
0.0 0.0 0.0 
0.0 0.0 0.0 
0.0 0.0 0.0 
0.0 0.0 0.0 
0.0 0.0 0.0 
0.0 0.0 0.0 
0.0 0.0 0.0 
0.0 0.0 0.0 
0.0 0.0 0.0 
0.0 0.0 0.0 
0.0 0.0 0.0 
0.0 0.0 0.0 
0.0 0.0 0.0 
0.0 0.0 0.0 
0.0 0.0 0.0 
0.0 0.0 0.0 
0.0 0.0 0.0 
0.0 0.0 0.0 
0.0 0.0 0.0 
0.0 0.0 0.0 
0.0 0.0 0.0 
0.0 0.0 0.0 
0.0 0.0 0.0 
0.0 0.0 0.0 
0.0 0.0 0.0 
0.0 0.0 0.0 
0.0 0.0 0.0 
0.0 0.0 0.0 
0.0 0.0 0.0 
0.0 0.0 0.0 
0.0 0.0 0.0 
0.0 0.0 0.0 
0.0 0.0 0.0 
0.0 0.0 0.0 
0.0 0.0 0.0 
0.0 0.0 0.0 
0.0 0.0 0.0 
0.0 0.0 0.0 
0.0 0.0 0.0 
0.0 0.0 0.0 
0.0 0.0 0.0 
0.0 0.0 0.0 
0.0 0.0 0.0 
0.0 0.0 0.0 
0.0 0.0 0.0 
0.0 0.0 0.0 
0.0 0.0 0.0 
0.0 0.0 0.0 
0.0 0.0 0.0 
0.0 0.0 0.0 
0.0 0.0 0.0 
0.0 0.0 0.0 
0.0 0.0 0.0 
0.0 0.0 0.0 
0.0 0.0 0.0 
0.0 0.0 0.0 
0.0 0.0 0.0 
0.0 0.0 0.0 
0.0 0.0 0.0 
0.0 0.0 0.0 
0.0 0.0 0.0 
0.0 0.0 0.0 
0.0 0.0 0.0 
0.0 0.0 0.0 
0.0 0.0 0.0 
0.0 0.0 0.0 
0.0 0.0 0.0 
0.0 0.0 0.0 
0.0 0.0 0.0 
0.0 0.0 0.0 
0.0 0.0 0.0 
0.0 0.0 0.0 
0.0 0.0 0.0 
0.0 0.0 0.0 
0.0 0.0 0.0 
0.0 0.0 0.0 
0.0 0.0 0.0 
0.0 0.0 0.0 
0.0 0.0 0.0 
0.0 0.0 0.0 
0.0 0.0 0.0 
0.0 0.0 0.0 
0.0 0.0 0.0 
0.0 0.0 0.0 
0.0 0.0 0.0 
0.0 0.0 0.0 
0.0 0.0 0.0 
0.0 0.0 0.0 
0.0 0.0 0.0 
0.0 0.0 0.0 
0.0 0.0 0.0 
0.0 0.0 0.0 
0.0 0.0 0.0 
0.0 0.0 0.0 
0.0 0.0 0.0 
0.0 0.0 0.0 
0.0 0.0 0.0 
0.0 0.0 0.0 
0.0 0.0 0.0 
0.0 0.0 0.0 
0.0 0.0 0.0 
0.0 0.0 0.0 
0.0 0.0 0.0 
0.0 0.0 0.0 
0.0 0.0 0.0 
0.0 0.0 0.0 
0.0 0.0 0.0 
0.0 0.0 0.0 
0.0 0.0 0.0 
0.0 0.0 0.0 
0.0 0.0 0.0 
0.0 0.0 0.0 
0.0 0.0 0.0 
0.0 0.0 0.0 
0.0 0.0 0.0 
0.0 0.0 0.0 
0.0 0.0 0.0 
0.0 0.0 0.0 
0.0 0.0 0.0 
0.0 0.0 0.0 
0.0 0.0 0.0 
0.0 0.0 0.0 
0.0 0.0 0.0 
0.0 0.0 0.0 
0.0 0.0 0.0 
0.0 0.0 0.0 
0.0 0.0 0.0 
0.0 0.0 0.0 
0.0 0.0 0.0 
0.0 0.0 0.0 
0.0 0.0 0.0 
0.0 0.0 0.0 
0.0 0.0 0.0 
0.0 0.0 0.0 
0.0 0.0 0.0 
0.0 0.0 0.0 
0.0 0.0 0.0 
0.0 0.0 0.0 
0.0 0.0 0.0 
0.0 0.0 0.0 
0.0 0.0 0.0 
0.0 0.0 0.0 
0.0 0.0 0.0 
0.0 0.0 0.0 
0.0 0.0 0.0 
0.0 0.0 0.0 
0.0 0.0 0.0 
0.0 0.0 0.0 
0.0 0.0 0.0 
0.0 0.0 0.0 
0.0 0.0 0.0 
0.0 0.0 0.0 
0.0 0.0 0.0 
0.0 0.0 0.0 
0.0 0.0 0.0 
0.0 0.0 0.0 
0.0 0.0 0.0 
0.0 0.0 0.0 
0.0 0.0 0.0 
0.0 0.0 0.0 
0.0 0.0 0.0 
0.0 0.0 0.0 
0.0 0.0 0.0 
0.0 0.0 0.0 
0.0 0.0 0.0 
0.0 0.0 0.0 
0.0 0.0 0.0 
0.0 0.0 0.0 
0.0 0.0 0.0 
0.0 0.0 0.0 
0.0 0.0 0.0 
0.0 0.0 0.0 
0.0 0.0 0.0 
0.0 0.0 0.0 
0.0 0.0 0.0 
0.0 0.0 0.0 
0.0 0.0 0.0 
0.0 0.0 0.0 
0.0 0.0 0.0 
0.0 0.0 0.0 
0.0 0.0 0.0 
0.0 0.0 0.0 
0.0 0.0 0.0 
0.0 0.0 0.0 
0.0 0.0 0.0 
0.0 0.0 0.0 
0.0 0.0 0.0 
0.0 0.0 0.0 
0.0 0.0 0.0 
0.0 0.0 0.0 
0.0 0.0 0.0 
0.0 0.0 0.0 
0.0 0.0 0.0 
0.0 0.0 0.0 
0.0 0.0 0.0 
0.0 0.0 0.0 
0.0 0.0 0.0 
0.0 0.0 0.0 
0.0 0.0 0.0 
0.0 0.0 0.0 
0.0 0.0 0.0 
0.0 0.0 0.0 
0.0 0.0 0.0 
0.0 0.0 0.0 
0.0 0.0 0.0 
0.0 0.0 0.0 
0.0 0.0 0.0 
0.0 0.0 0.0 
0.0 0.0 0.0 
0.0 0.0 0.0 
0.0 0.0 0.0 
0.0 0.0 0.0 
0.0 0.0 0.0 
0.0 0.0 0.0 
0.0 0.0 0.0 
0.0 0.0 0.0 
0.0 0.0 0.0 
0.0 0.0 0.0 
0.0 0.0 0.0 
0.0 0.0 0.0 
0.0 0.0 0.0 
0.0 0.0 0.0 
0.0 0.0 0.0 
0.0 0.0 0.0 
0.0 0.0 0.0 
0.0 0.0 0.0 
0.0 0.0 0.0 
0.0 0.0 0.0 
0.0 0.0 0.0 
0.0 0.0 0.0 
0.0 0.0 0.0 
0.0 0.0 0.0 
0.0 0.0 0.0 
0.0 0.0 0.0 
0.0 0.0 0.0 
0.0 0.0 0.0 
0.0 0.0 0.0 
0.0 0.0 0.0 
0.0 0.0 0.0 
0.0 0.0 0.0 
0.0 0.0 0.0 
0.0 0.0 0.0 
0.0 0.0 0.0 
0.0 0.0 0.0 
0.0 0.0 0.0 
0.0 0.0 0.0 
0.0 0.0 0.0 
0.0 0.0 0.0 
0.0 0.0 0.0 
0.0 0.0 0.0 
0.0 0.0 0.0 
0.0 0.0 0.0 
0.0 0.0 0.0 
0.0 0.0 0.0 
0.0 0.0 0.0 
0.0 0.0 0.0 
0.0 0.0 0.0 
0.0 0.0 0.0 
0.0 0.0 0.0 
0.0 0.0 0.0 
0.0 0.0 0.0 
0.0 0.0 0.0 
0.0 0.0 0.0 
0.0 0.0 0.0 
0.0 0.0 0.0 
0.0 0.0 0.0 
0.0 0.0 0.0 
0.0 0.0 0.0 
0.0 0.0 0.0 
0.0 0.0 0.0 
0.0 0.0 0.0 
0.0 0.0 0.0 
0.0 0.0 0.0 
0.0 0.0 0.0 
0.0 0.0 0.0 
0.0 0.0 0.0 
0.0 0.0 0.0 
0.0 0.0 0.0 
0.0 0.0 0.0 
0.0 0.0 0.0 
0.0 0.0 0.0 
0.0 0.0 0.0 
0.0 0.0 0.0 
0.0 0.0 0.0 
0.0 0.0 0.0 
0.0 0.0 0.0 
0.0 0.0 0.0 
0.0 0.0 0.0 
0.0 0.0 0.0 
0.0 0.0 0.0 
0.0 0.0 0.0 
0.0 0.0 0.0 
0.0 0.0 0.0 
0.0 0.0 0.0 
0.0 0.0 0.0 
0.0 0.0 0.0 
0.0 0.0 0.0 
0.0 0.0 0.0 
0.0 0.0 0.0 
0.0 0.0 0.0 
0.0 0.0 0.0 
0.0 0.0 0.0 
0.0 0.0 0.0 
0.0 0.0 0.0 
0.0 0.0 0.0 
0.0 0.0 0.0 
0.0 0.0 0.0 
0.0 0.0 0.0 
0.0 0.0 0.0 
0.0 0.0 0.0 
0.0 0.0 0.0 
0.0 0.0 0.0 
0.0 0.0 0.0 
0.0 0.0 0.0 
0.0 0.0 0.0 
0.0 0.0 0.0 
0.0 0.0 0.0 
0.0 0.0 0.0 
0.0 0.0 0.0 
0.0 0.0 0.0 
0.0 0.0 0.0 
0.0 0.0 0.0 
0.0 0.0 0.0 
0.0 0.0 0.0 
0.0 0.0 0.0 
0.0 0.0 0.0 
0.0 0.0 0.0 
0.0 0.0 0.0 
0.0 0.0 0.0 
0.0 0.0 0.0 
0.0 0.0 0.0 
0.0 0.0 0.0 
0.0 0.0 0.0 
0.0 0.0 0.0 
0.0 0.0 0.0 
0.0 0.0 0.0 
0.0 0.0 0.0 
0.0 0.0 0.0 
0.0 0.0 0.0 
0.0 0.0 0.0 
0.0 0.0 0.0 
0.0 0.0 0.0 
0.0 0.0 0.0 
0.0 0.0 0.0 
0.0 0.0 0.0 
0.0 0.0 0.0 
0.0 0.0 0.0 
0.0 0.0 0.0 
0.0 0.0 0.0 
0.0 0.0 0.0 
0.0 0.0 0.0 
0.0 0.0 0.0 
0.0 0.0 0.0 
0.0 0.0 0.0 
0.0 0.0 0.0 
0.0 0.0 0.0 
0.0 0.0 0.0 
0.0 0.0 0.0 
0.0 0.0 0.0 
0.0 0.0 0.0 
0.0 0.0 0.0 
0.0 0.0 0.0 
0.0 0.0 0.0 
0.0 0.0 0.0 
0.0 0.0 0.0 
0.0 0.0 0.0 
0.0 0.0 0.0 
0.0 0.0 0.0 
0.0 0.0 0.0 
0.0 0.0 0.0 
0.0 0.0 0.0 
0.0 0.0 0.0 
0.0 0.0 0.0 
0.0 0.0 0.0 
0.0 0.0 0.0 
0.0 0.0 0.0 
0.0 0.0 0.0 
0.0 0.0 0.0 
0.0 0.0 0.0 
0.0 0.0 0.0 
0.0 0.0 0.0 
0.0 0.0 0.0 
0.0 0.0 0.0 
0.0 0.0 0.0 
0.0 0.0 0.0 
0.0 0.0 0.0 
0.0 0.0 0.0 
0.0 0.0 0.0 
0.0 0.0 0.0 
0.0 0.0 0.0 
0.0 0.0 0.0 
0.0 0.0 0.0 
0.0 0.0 0.0 
0.0 0.0 0.0 
0.0 0.0 0.0 
0.0 0.0 0.0 
0.0 0.0 0.0 
0.0 0.0 0.0 
0.0 0.0 0.0 
0.0 0.0 0.0 
0.0 0.0 0.0 
0.0 0.0 0.0 
0.0 0.0 0.0 
0.0 0.0 0.0 
0.0 0.0 0.0 
0.0 0.0 0.0 
0.0 0.0 0.0 
0.0 0.0 0.0 
0.0 0.0 0.0 
0.0 0.0 0.0 
0.0 0.0 0.0 
0.0 0.0 0.0 
0.0 0.0 0.0 
0.0 0.0 0.0 
0.0 0.0 0.0 
0.0 0.0 0.0 
0.0 0.0 0.0 
0.0 0.0 0.0 
0.0 0.0 0.0 
0.0 0.0 0.0 
0.0 0.0 0.0 
0.0 0.0 0.0 
0.0 0.0 0.0 
0.0 0.0 0.0 
0.0 0.0 0.0 
0.0 0.0 0.0 
0.0 0.0 0.0 
0.0 0.0 0.0 
0.0 0.0 0.0 
0.0 0.0 0.0 
0.0 0.0 0.0 
0.0 0.0 0.0 
0.0 0.0 0.0 
0.0 0.0 0.0 
0.0 0.0 0.0 
0.0 0.0 0.0 
0.0 0.0 0.0 
0.0 0.0 0.0 
0.0 0.0 0.0 
0.0 0.0 0.0 
0.0 0.0 0.0 
0.0 0.0 0.0 
0.0 0.0 0.0 
0.0 0.0 0.0 
0.0 0.0 0.0 
0.0 0.0 0.0 
0.0 0.0 0.0 
0.0 0.0 0.0 
0.0 0.0 0.0 
0.0 0.0 0.0 
0.0 0.0 0.0 
0.0 0.0 0.0 
0.0 0.0 0.0 
0.0 0.0 0.0 
0.0 0.0 0.0 
0.0 0.0 0.0 
0.0 0.0 0.0 
0.0 0.0 0.0 
0.0 0.0 0.0 
0.0 0.0 0.0 
0.0 0.0 0.0 
0.0 0.0 0.0 
0.0 0.0 0.0 
0.0 0.0 0.0 
0.0 0.0 0.0 
0.0 0.0 0.0 
0.0 0.0 0.0 
0.0 0.0 0.0 
0.0 0.0 0.0 
0.0 0.0 0.0 
0.0 0.0 0.0 
0.0 0.0 0.0 
0.0 0.0 0.0 
0.0 0.0 0.0 
0.0 0.0 0.0 
0.0 0.0 0.0 
0.0 0.0 0.0 
0.0 0.0 0.0 
0.0 0.0 0.0 
0.0 0.0 0.0 
0.0 0.0 0.0 
0.0 0.0 0.0 
0.0 0.0 0.0 
0.0 0.0 0.0 
0.0 0.0 0.0 
0.0 0.0 0.0 
0.0 0.0 0.0 
0.0 0.0 0.0 
0.0 0.0 0.0 
0.0 0.0 0.0 
0.0 0.0 0.0 
0.0 0.0 0.0 
0.0 0.0 0.0 
0.0 0.0 0.0 
0.0 0.0 0.0 
0.0 0.0 0.0 
0.0 0.0 0.0 
0.0 0.0 0.0 
0.0 0.0 0.0 
0.0 0.0 0.0 
0.0 0.0 0.0 
0.0 0.0 0.0 
0.0 0.0 0.0 
0.0 0.0 0.0 
0.0 0.0 0.0 
0.0 0.0 0.0 
0.0 0.0 0.0 
0.0 0.0 0.0 
0.0 0.0 0.0 
0.0 0.0 0.0 
0.0 0.0 0.0 
0.0 0.0 0.0 
0.0 0.0 0.0 
0.0 0.0 0.0 
0.0 0.0 0.0 
0.0 0.0 0.0 
0.0 0.0 0.0 
0.0 0.0 0.0 
0.0 0.0 0.0 
0.0 0.0 0.0 
0.0 0.0 0.0 
0.0 0.0 0.0 
0.0 0.0 0.0 
0.0 0.0 0.0 
0.0 0.0 0.0 
0.0 0.0 0.0 
0.0 0.0 0.0 
0.0 0.0 0.0 
0.0 0.0 0.0 
0.0 0.0 0.0 
0.0 0.0 0.0 
0.0 0.0 0.0 
0.0 0.0 0.0 
0.0 0.0 0.0 
0.0 0.0 0.0 
0.0 0.0 0.0 
0.0 0.0 0.0 
0.0 0.0 0.0 
0.0 0.0 0.0 
0.0 0.0 0.0 
0.0 0.0 0.0 
0.0 0.0 0.0 
0.0 0.0 0.0 
0.0 0.0 0.0 
0.0 0.0 0.0 
0.0 0.0 0.0 
0.0 0.0 0.0 
0.0 0.0 0.0 
0.0 0.0 0.0 
0.0 0.0 0.0 
0.0 0.0 0.0 
0.0 0.0 0.0 
0.0 0.0 0.0 
0.0 0.0 0.0 
0.0 0.0 0.0 
0.0 0.0 0.0 
0.0 0.0 0.0 
0.0 0.0 0.0 
0.0 0.0 0.0 
0.0 0.0 0.0 
0.0 0.0 0.0 
0.0 0.0 0.0 
0.0 0.0 0.0 
0.0 0.0 0.0 
0.0 0.0 0.0 
0.0 0.0 0.0 
0.0 0.0 0.0 
0.0 0.0 0.0 
0.0 0.0 0.0 
0.0 0.0 0.0 
0.0 0.0 0.0 
0.0 0.0 0.0 
0.0 0.0 0.0 
0.0 0.0 0.0 
0.0 0.0 0.0 
0.0 0.0 0.0 
0.0 0.0 0.0 
0.0 0.0 0.0 
0.0 0.0 0.0 
0.0 0.0 0.0 
0.0 0.0 0.0 
0.0 0.0 0.0 
0.0 0.0 0.0 
0.0 0.0 0.0 
0.0 0.0 0.0 
0.0 0.0 0.0 
0.0 0.0 0.0 
0.0 0.0 0.0 
0.0 0.0 0.0 
0.0 0.0 0.0 
0.0 0.0 0.0 
0.0 0.0 0.0 
0.0 0.0 0.0 
0.0 0.0 0.0 
0.0 0.0 0.0 
0.0 0.0 0.0 
0.0 0.0 0.0 
0.0 0.0 0.0 
0.0 0.0 0.0 
0.0 0.0 0.0 
0.0 0.0 0.0 
0.0 0.0 0.0 
0.0 0.0 0.0 
0.0 0.0 0.0 
0.0 0.0 0.0 
0.0 0.0 0.0 
0.0 0.0 0.0 
0.0 0.0 0.0 
0.0 0.0 0.0 
0.0 0.0 0.0 
0.0 0.0 0.0 
0.0 0.0 0.0 
0.0 0.0 0.0 
0.0 0.0 0.0 
0.0 0.0 0.0 
0.0 0.0 0.0 
0.0 0.0 0.0 
0.0 0.0 0.0 
0.0 0.0 0.0 
0.0 0.0 0.0 
0.0 0.0 0.0 
0.0 0.0 0.0 
0.0 0.0 0.0 
0.0 0.0 0.0 
0.0 0.0 0.0 
0.0 0.0 0.0 
0.0 0.0 0.0 
0.0 0.0 0.0 
0.0 0.0 0.0 
0.0 0.0 0.0 
0.0 0.0 0.0 
0.0 0.0 0.0 
0.0 0.0 0.0 
0.0 0.0 0.0 
0.0 0.0 0.0 
0.0 0.0 0.0 
0.0 0.0 0.0 
0.0 0.0 0.0 
0.0 0.0 0.0 
0.0 0.0 0.0 
0.0 0.0 0.0 
0.0 0.0 0.0 
0.0 0.0 0.0 
0.0 0.0 0.0 
0.0 0.0 0.0 
0.0 0.0 0.0 
0.0 0.0 0.0 
0.0 0.0 0.0 
0.0 0.0 0.0 
0.0 0.0 0.0 
0.0 0.0 0.0 
0.0 0.0 0.0 
0.0 0.0 0.0 
0.0 0.0 0.0 
0.0 0.0 0.0 
0.0 0.0 0.0 
0.0 0.0 0.0 
0.0 0.0 0.0 
0.0 0.0 0.0 
0.0 0.0 0.0 
0.0 0.0 0.0 
0.0 0.0 0.0 
0.0 0.0 0.0 
0.0 0.0 0.0 
0.0 0.0 0.0 
0.0 0.0 0.0 
0.0 0.0 0.0 
0.0 0.0 0.0 
0.0 0.0 0.0 
0.0 0.0 0.0 
0.0 0.0 0.0 
0.0 0.0 0.0 
0.0 0.0 0.0 
0.0 0.0 0.0 
0.0 0.0 0.0 
0.0 0.0 0.0 
0.0 0.0 0.0 
0.0 0.0 0.0 
0.0 0.0 0.0 
0.0 0.0 0.0 
0.0 0.0 0.0 
0.0 0.0 0.0 
0.0 0.0 0.0 
0.0 0.0 0.0 
0.0 0.0 0.0 
0.0 0.0 0.0 
0.0 0.0 0.0 
0.0 0.0 0.0 
0.0 0.0 0.0 
0.0 0.0 0.0 
0.0 0.0 0.0 
0.0 0.0 0.0 
0.0 0.0 0.0 
0.0 0.0 0.0 
0.0 0.0 0.0 
0.0 0.0 0.0 
0.0 0.0 0.0 
0.0 0.0 0.0 
0.0 0.0 0.0 
0.0 0.0 0.0 
0.0 0.0 0.0 
0.0 0.0 0.0 
0.0 0.0 0.0 
0.0 0.0 0.0 
0.0 0.0 0.0 
0.0 0.0 0.0 
0.0 0.0 0.0 
0.0 0.0 0.0 
0.0 0.0 0.0 
0.0 0.0 0.0 
0.0 0.0 0.0 
0.0 0.0 0.0 
0.0 0.0 0.0 
0.0 0.0 0.0 
0.0 0.0 0.0 
0.0 0.0 0.0 
0.0 0.0 0.0 
0.0 0.0 0.0 
0.0 0.0 0.0 
0.0 0.0 0.0 
0.0 0.0 0.0 
0.0 0.0 0.0 
0.0 0.0 0.0 
0.0 0.0 0.0 
0.0 0.0 0.0 
0.0 0.0 0.0 
0.0 0.0 0.0 
0.0 0.0 0.0 
0.0 0.0 0.0 
0.0 0.0 0.0 
0.0 0.0 0.0 
0.0 0.0 0.0 
0.0 0.0 0.0 
0.0 0.0 0.0 
0.0 0.0 0.0 
0.0 0.0 0.0 
0.0 0.0 0.0 
0.0 0.0 0.0 
0.0 0.0 0.0 
0.0 0.0 0.0 
0.0 0.0 0.0 
0.0 0.0 0.0 
0.0 0.0 0.0 
0.0 0.0 0.0 
0.0 0.0 0.0 
0.0 0.0 0.0 
0.0 0.0 0.0 
0.0 0.0 0.0 
0.0 0.0 0.0 
0.0 0.0 0.0 
0.0 0.0 0.0 
0.0 0.0 0.0 
0.0 0.0 0.0 
0.0 0.0 0.0 
0.0 0.0 0.0 
0.0 0.0 0.0 
0.0 0.0 0.0 
0.0 0.0 0.0 
0.0 0.0 0.0 
0.0 0.0 0.0 
0.0 0.0 0.0 
0.0 0.0 0.0 
0.0 0.0 0.0 
0.0 0.0 0.0 
0.0 0.0 0.0 
0.0 0.0 0.0 
0.0 0.0 0.0 
0.0 0.0 0.0 
0.0 0.0 0.0 
0.0 0.0 0.0 
0.0 0.0 0.0 
0.0 0.0 0.0 
0.0 0.0 0.0 
0.0 0.0 0.0 
0.0 0.0 0.0 
0.0 0.0 0.0 
0.0 0.0 0.0 
0.0 0.0 0.0 
0.0 0.0 0.0 
0.0 0.0 0.0 
0.0 0.0 0.0 
0.0 0.0 0.0 
0.0 0.0 0.0 
0.0 0.0 0.0 
0.0 0.0 0.0 
0.0 0.0 0.0 
0.0 0.0 0.0 
0.0 0.0 0.0 
0.0 0.0 0.0 
0.0 0.0 0.0 
0.0 0.0 0.0 
0.0 0.0 0.0 
0.0 0.0 0.0 
0.0 0.0 0.0 
0.0 0.0 0.0 
0.0 0.0 0.0 
0.0 0.0 0.0 
0.0 0.0 0.0 
0.0 0.0 0.0 
0.0 0.0 0.0 
0.0 0.0 0.0 
0.0 0.0 0.0 
0.0 0.0 0.0 
0.0 0.0 0.0 
0.0 0.0 0.0 
0.0 0.0 0.0 
0.0 0.0 0.0 
0.0 0.0 0.0 
0.0 0.0 0.0 
0.0 0.0 0.0 
0.0 0.0 0.0 
0.0 0.0 0.0 
0.0 0.0 0.0 
0.0 0.0 0.0 
0.0 0.0 0.0 
0.0 0.0 0.0 
0.0 0.0 0.0 
0.0 0.0 0.0 
0.0 0.0 0.0 
0.0 0.0 0.0 
0.0 0.0 0.0 
0.0 0.0 0.0 
0.0 0.0 0.0 
0.0 0.0 0.0 
0.0 0.0 0.0 
0.0 0.0 0.0 
0.0 0.0 0.0 
0.0 0.0 0.0 
0.0 0.0 0.0 
0.0 0.0 0.0 
0.0 0.0 0.0 
0.0 0.0 0.0 
0.0 0.0 0.0 
0.0 0.0 0.0 
0.0 0.0 0.0 
0.0 0.0 0.0 
0.0 0.0 0.0 
0.0 0.0 0.0 
0.0 0.0 0.0 
0.0 0.0 0.0 
0.0 0.0 0.0 
0.0 0.0 0.0 
0.0 0.0 0.0 
0.0 0.0 0.0 
0.0 0.0 0.0 
0.0 0.0 0.0 

TENSORS element_materi_stress float
-6.375010119658e+01 8.037712467310e+00 0.0 
8.037712467310e+00 -1.237804498867e+02 0.0 
0.0 0.0 -5.191920538986e+01 
-6.458137869917e+01 1.049449616243e+01 0.0 
1.049449616243e+01 -1.222146517583e+02 0.0 
0.0 0.0 -5.309485951266e+01 
-1.605196708081e+02 5.559884123875e+00 0.0 
5.559884123875e+00 -3.745960677744e+02 0.0 
0.0 0.0 -1.601347215748e+02 
-1.568734425606e+02 1.610905766033e+00 0.0 
1.610905766033e+00 -3.637516146600e+02 0.0 
0.0 0.0 -1.557875171662e+02 
-1.027503230996e+02 6.336913971741e-01 0.0 
6.336913971741e-01 -2.272653277327e+02 0.0 
0.0 0.0 -9.860469524967e+01 
-3.896201519771e+01 2.409153454006e+01 0.0 
2.409153454006e+01 -9.971406112176e+01 0.0 
0.0 0.0 -4.238711536990e+01 
-1.025967919894e+02 5.000577154984e-03 0.0 
5.000577154984e-03 -2.271449344643e+02 0.0 
0.0 0.0 -9.852251793612e+01 
-6.341103235430e+01 1.055526557909e+01 0.0 
1.055526557909e+01 -1.192778974244e+02 0.0 
0.0 0.0 -5.097880417136e+01 
-1.029917902727e+02 2.415566842442e+00 0.0 
2.415566842442e+00 -2.276811284373e+02 0.0 
0.0 0.0 -9.880187561301e+01 
-1.562814127295e+02 5.194671829051e-01 0.0 
5.194671829051e-01 -3.622978542028e+02 0.0 
0.0 0.0 -1.551737800797e+02 
-1.229650221007e+02 -1.542577328264e+00 0.0 
-1.542577328264e+00 -2.585286589644e+02 0.0 
0.0 0.0 -1.112681894974e+02 
-5.627794629773e+01 9.875577287824e+00 0.0 
9.875577287824e+00 -1.054488835624e+02 0.0 
0.0 0.0 -4.567884131207e+01 
-1.606718314860e+02 -1.382238402065e+00 0.0 
-1.382238402065e+00 -3.736291235580e+02 0.0 
0.0 0.0 -1.598902865132e+02 
-1.105035580092e+02 2.236544028505e+00 0.0 
2.236544028505e+00 -2.455303567985e+02 0.0 
0.0 0.0 -1.064101744423e+02 
-1.637734029750e+02 1.455476344739e-01 0.0 
1.455476344739e-01 -3.820644162770e+02 0.0 
0.0 0.0 -1.633513457756e+02 
-1.595779249064e+02 3.318972378833e-01 0.0 
3.318972378833e-01 -3.718699760125e+02 0.0 
0.0 0.0 -1.590343702757e+02 
-1.016714440493e+02 2.134569714114e+00 0.0 
2.134569714114e+00 -2.235806895859e+02 0.0 
0.0 0.0 -9.717564009055e+01 
-3.108652089819e+01 1.580649418954e+01 0.0 
1.580649418954e+01 -1.156075532701e+02 0.0 
0.0 0.0 -4.634757903676e+01 
-2.602688071553e+01 6.931317767243e-03 0.0 
6.931317767243e-03 -7.656908598167e+01 0.0 
0.0 0.0 -3.037879000916e+01 
-3.701530119451e+01 -1.647610545199e+00 0.0 
-1.647610545199e+00 -7.943405931898e+01 0.0 
0.0 0.0 -3.235469818944e+01 
-1.569843764495e+02 2.453274295933e+00 0.0 
2.453274295933e+00 -3.630613567620e+02 0.0 
0.0 0.0 -1.556137199635e+02 
-7.047421490150e+01 6.505534474439e+00 0.0 
6.505534474439e+00 -1.382447665960e+02 0.0 
0.0 0.0 -5.787187334503e+01 
-7.576894709503e+01 7.487170563489e+00 0.0 
7.487170563489e+00 -1.487963818858e+02 0.0 
0.0 0.0 -6.218137188470e+01 
-1.531255403092e+02 1.195207250569e+00 0.0 
1.195207250569e+00 -3.648477839457e+02 0.0 
0.0 0.0 -1.549919972765e+02 
-1.177420640091e+02 2.926283417369e+00 0.0 
2.926283417369e+00 -2.640479829228e+02 0.0 
0.0 0.0 -1.141370140796e+02 
-1.276438073582e+02 -5.089001142446e-01 0.0 
-5.089001142446e-01 -2.726528293476e+02 0.0 
0.0 0.0 -1.172577057161e+02 
-9.584578581193e+01 3.666662300045e+00 0.0 
3.666662300045e+00 -2.084255368390e+02 0.0 
0.0 0.0 -9.088139679527e+01 
-1.611374445211e+02 4.733152810633e+00 0.0 
4.733152810633e+00 -3.811295566132e+02 0.0 
0.0 0.0 -1.622801003403e+02 
-1.180442765978e+02 5.071161413391e+00 0.0 
5.071161413391e+00 -2.644407496775e+02 0.0 
0.0 0.0 -1.143455078826e+02 
-1.568254867824e+02 -2.391868136534e-01 0.0 
-2.391868136534e-01 -3.726513451063e+02 0.0 
0.0 0.0 -1.584430495666e+02 
-4.322818283326e+01 -2.263863967636e+01 0.0 
-2.263863967636e+01 -1.006848031163e+02 0.0 
0.0 0.0 -3.959754520716e+01 
-1.444633364328e+01 1.080756192143e+00 0.0 
1.080756192143e+00 -2.477167926497e+01 0.0 
0.0 0.0 -1.136540387248e+01 
-1.604337822607e+02 5.350021659291e+00 0.0 
5.350021659291e+00 -3.749257102521e+02 0.0 
0.0 0.0 -1.602078477538e+02 
-1.400586496609e+02 5.245782896047e-01 0.0 
5.245782896047e-01 -3.225541782538e+02 0.0 
0.0 0.0 -1.383838483744e+02 
-1.604350863266e+02 -3.437925894788e-01 0.0 
-3.437925894788e-01 -3.765508489138e+02 0.0 
0.0 0.0 -1.606957805721e+02 
-1.676877800252e+02 -2.848017377655e+00 0.0 
-2.848017377655e+00 -3.925140843997e+02 0.0 
0.0 0.0 -1.676605593275e+02 
-1.675222125561e+02 3.972783913379e-01 0.0 
3.972783913379e-01 -3.921572380302e+02 0.0 
0.0 0.0 -1.675038351759e+02 
-1.603079714283e+02 1.821407127700e+00 0.0 
1.821407127700e+00 -3.789505687455e+02 0.0 
0.0 0.0 -1.613775620521e+02 
-9.469064441204e+01 1.990675123840e+00 0.0 
1.990675123840e+00 -2.079409299606e+02 0.0 
0.0 0.0 -9.038947231179e+01 
-9.465971623077e+01 -8.195490880510e-01 0.0 
-8.195490880510e-01 -2.085875820798e+02 0.0 
0.0 0.0 -9.057418949316e+01 
-8.407806492466e+01 5.929106133626e+00 0.0 
5.929106133626e+00 -1.695189121945e+02 0.0 
0.0 0.0 -7.120923056741e+01 
-1.627178057642e+02 -7.220615066168e-01 0.0 
-7.220615066168e-01 -3.823506555627e+02 0.0 
0.0 0.0 -1.631205383981e+02 
-5.198362916584e+01 1.125689904908e+01 0.0 
1.125689904908e+01 -9.339712827456e+01 0.0 
0.0 0.0 -4.041876314525e+01 
-9.712099293523e+01 3.378308898182e+00 0.0 
3.378308898182e+00 -2.093926664656e+02 0.0 
0.0 0.0 -9.124352801367e+01 
-1.525985308991e+02 7.357778186462e-01 0.0 
7.357778186462e-01 -3.524401284707e+02 0.0 
0.0 0.0 -1.511115978110e+02 
-5.462686674985e+01 1.274262271968e+01 0.0 
1.274262271968e+01 -9.459623131426e+01 0.0 
0.0 0.0 -4.128477218801e+01 
-3.930949606181e+01 -2.441924625017e+01 0.0 
-2.441924625017e+01 -9.590669867105e+01 0.0 
0.0 0.0 -3.973341072194e+01 
-1.529003365088e+02 2.490578639402e-01 0.0 
2.490578639402e-01 -3.540646872179e+02 0.0 
0.0 0.0 -1.516895071180e+02 
-3.478055858512e+01 -2.616963792262e+01 0.0 
-2.616963792262e+01 -5.790833090853e+01 0.0 
0.0 0.0 -2.814544759859e+01 
-1.075178716362e+02 3.483398738562e+00 0.0 
3.483398738562e+00 -2.365650548195e+02 0.0 
0.0 0.0 -1.028248779367e+02 
-8.010379882023e+01 6.578538901737e+00 0.0 
6.578538901737e+00 -1.595353512951e+02 0.0 
0.0 0.0 -6.570824244641e+01 
-4.082584670199e+01 -2.098987599745e-01 0.0 
-2.098987599745e-01 -9.648626049300e+01 0.0 
0.0 0.0 -3.973297101503e+01 
-5.073310223105e+01 -1.653155765318e+01 0.0 
-1.653155765318e+01 -1.290459701010e+02 0.0 
0.0 0.0 -4.941555914788e+01 
-7.932379226005e+01 4.588693866469e+00 0.0 
4.588693866469e+00 -1.589907442812e+02 0.0 
0.0 0.0 -6.634404917686e+01 
-1.604488496794e+02 4.864794703951e+00 0.0 
4.864794703951e+00 -3.737619170242e+02 0.0 
0.0 0.0 -1.598632300111e+02 
-6.659806221827e+01 -1.406094212200e+00 0.0 
-1.406094212200e+00 -1.291997609096e+02 0.0 
0.0 0.0 -5.441463105661e+01 
-5.201160598402e+01 -1.928452802963e+00 0.0 
-1.928452802963e+00 -9.997904166315e+01 0.0 
0.0 0.0 -4.181187643234e+01 
-1.398561531447e+02 -1.144791798693e+00 0.0 
-1.144791798693e+00 -3.225330798208e+02 0.0 
0.0 0.0 -1.383167698897e+02 
-2.178843270329e+01 -3.886591485716e-02 0.0 
-3.886591485716e-02 -5.892560820022e+01 0.0 
0.0 0.0 -2.241565441107e+01 
-1.599004183300e+02 2.073062416983e+00 0.0 
2.073062416983e+00 -3.720435870852e+02 0.0 
0.0 0.0 -1.591832016246e+02 
-5.703101527198e+01 -2.508216612126e+01 0.0 
-2.508216612126e+01 -9.467573562497e+01 0.0 
0.0 0.0 -4.654192555227e+01 
-1.526975942343e+02 3.010659207959e+00 0.0 
3.010659207959e+00 -3.631845039049e+02 0.0 
0.0 0.0 -1.543646294418e+02 
-7.994672669726e+01 1.211842783655e+01 0.0 
1.211842783655e+01 -1.650818401986e+02 0.0 
0.0 0.0 -7.120183882327e+01 
-4.447277484116e+01 -1.775851558520e+01 0.0 
-1.775851558520e+01 -1.140420942228e+02 0.0 
0.0 0.0 -4.057079158784e+01 
-1.605029457769e+02 -6.879225083677e-02 0.0 
-6.879225083677e-02 -3.737120331948e+02 0.0 
0.0 0.0 -1.598644936915e+02 
-7.496345965533e+01 5.373003171269e+00 0.0 
5.373003171269e+00 -1.484207982036e+02 0.0 
0.0 0.0 -6.144112421283e+01 
-4.440556681687e+01 -9.111117924926e+00 0.0 
-9.111117924926e+00 -1.199368304057e+02 0.0 
0.0 0.0 -5.053760604942e+01 
-1.607355437267e+02 5.989027585589e+00 0.0 
5.989027585589e+00 -3.752984524738e+02 0.0 
0.0 0.0 -1.604101988602e+02 
-4.479823824078e+01 -9.564632723747e+00 0.0 
-9.564632723747e+00 -7.147241107004e+01 0.0 
0.0 0.0 -2.927851661309e+01 
-1.616333451675e+02 5.514781801144e+00 0.0 
5.514781801144e+00 -3.789866034109e+02 0.0 
0.0 0.0 -1.617859845735e+02 
-1.302137737768e+02 -7.216375825798e-01 0.0 
-7.216375825798e-01 -2.838463761130e+02 0.0 
0.0 0.0 -1.219516827864e+02 
-1.654990289658e+02 3.708195552560e+00 0.0 
3.708195552560e+00 -3.874977342536e+02 0.0 
0.0 0.0 -1.654990289658e+02 
-1.551294521576e+02 4.764018472953e+00 0.0 
4.764018472953e+00 -3.669920315338e+02 0.0 
0.0 0.0 -1.562364451074e+02 
-1.333708843208e+01 -6.435807527843e-01 0.0 
-6.435807527843e-01 -2.976957826820e+01 0.0 
0.0 0.0 -1.015681181189e+01 
-7.350460516170e+01 -2.978176033600e+00 0.0 
-2.978176033600e+00 -1.342672707207e+02 0.0 
0.0 0.0 -5.692258915342e+01 
-1.583634337853e+02 3.692038693913e+00 0.0 
3.692038693913e+00 -3.669536505507e+02 0.0 
0.0 0.0 -1.571951253008e+02 
-1.608220937100e+02 5.131672341797e+00 0.0 
5.131672341797e+00 -3.743939359431e+02 0.0 
0.0 0.0 -1.601648088959e+02 
-5.013954099717e+01 1.601725078166e+01 0.0 
1.601725078166e+01 -7.891705918793e+01 0.0 
0.0 0.0 -3.465737032859e+01 
-2.377247633740e+01 -1.949780064847e+00 0.0 
-1.949780064847e+00 -5.863498480557e+01 0.0 
0.0 0.0 -2.281012080749e+01 
-4.701296992607e+01 1.323308455008e+01 0.0 
1.323308455008e+01 -7.787222747367e+01 0.0 
0.0 0.0 -3.315881416251e+01 
-4.675196799805e+01 -1.321865382089e+01 0.0 
-1.321865382089e+01 -7.246387976630e+01 0.0 
0.0 0.0 -3.020420535224e+01 
-1.013012428968e+02 1.789658631538e+00 0.0 
1.789658631538e+00 -2.229109398052e+02 0.0 
0.0 0.0 -9.686365481061e+01 
-7.169425350416e+01 8.587024991362e+00 0.0 
8.587024991362e+00 -1.389356229881e+02 0.0 
0.0 0.0 -5.870966145409e+01 
-6.506058511372e+01 8.145571914407e+00 0.0 
8.145571914407e+00 -1.254827300313e+02 0.0 
0.0 0.0 -5.388176347822e+01 
-1.072276386852e+02 2.571626848971e+00 0.0 
2.571626848971e+00 -2.381626812322e+02 0.0 
0.0 0.0 -1.032170959752e+02 
-1.068970306993e+02 5.282150014524e-01 0.0 
5.282150014524e-01 -2.379913110000e+02 0.0 
0.0 0.0 -1.030665025098e+02 
-1.321668613027e+02 -4.207352193135e-02 0.0 
-4.207352193135e-02 -2.921377131434e+02 0.0 
0.0 0.0 -1.254840285575e+02 
-1.367320777012e+02 -8.883678795458e-01 0.0 
-8.883678795458e-01 -3.139517314913e+02 0.0 
0.0 0.0 -1.347866763983e+02 
-1.384742673089e+02 6.572145818724e+00 0.0 
6.572145818724e+00 -3.216551675278e+02 0.0 
0.0 0.0 -1.376388304510e+02 
-1.028293557121e+02 2.902351431030e+00 0.0 
2.902351431030e+00 -2.265734403589e+02 0.0 
0.0 0.0 -9.842083882131e+01 
-1.843204547203e+01 -2.230958121236e+00 0.0 
-2.230958121236e+00 -2.664870733605e+01 0.0 
0.0 0.0 -1.250209755857e+01 
-1.029495297919e+02 3.823366611511e+00 0.0 
3.823366611511e+00 -2.266045422296e+02 0.0 
0.0 0.0 -9.846622160646e+01 
-1.338759860801e+02 9.255747201295e-01 0.0 
9.255747201295e-01 -3.057323327827e+02 0.0 
0.0 0.0 -1.314824956588e+02 
-1.330081125307e+02 1.873811468171e-01 0.0 
1.873811468171e-01 -3.023119708157e+02 0.0 
0.0 0.0 -1.301960250039e+02 
-1.666082204794e+02 4.069834235728e+00 0.0 
4.069834235728e+00 -3.883166511240e+02 0.0 
0.0 0.0 -1.660774614810e+02 
-1.646550824628e+02 3.429508556679e+00 0.0 
3.429508556679e+00 -3.881489354936e+02 0.0 
0.0 0.0 -1.654412053869e+02 
-1.015244721166e+02 2.677368991683e+00 0.0 
2.677368991683e+00 -2.227707353894e+02 0.0 
0.0 0.0 -9.688856225180e+01 
-1.616549790897e+02 -9.284262145433e-01 0.0 
-9.284262145433e-01 -3.818607085399e+02 0.0 
0.0 0.0 -1.626547062889e+02 
-1.145545788813e+02 8.318770781088e-01 0.0 
8.318770781088e-01 -2.569217231040e+02 0.0 
0.0 0.0 -1.110428905956e+02 
-7.680339913576e+01 1.078826268464e+01 0.0 
1.078826268464e+01 -1.554801605685e+02 0.0 
0.0 0.0 -6.576925329510e+01 
-9.928964526370e+01 2.114921821040e+00 0.0 
2.114921821040e+00 -2.177965970119e+02 0.0 
0.0 0.0 -9.472587268269e+01 
-1.635788097591e+02 -1.450072340821e+00 0.0 
-1.450072340821e+00 -3.818385986075e+02 0.0 
0.0 0.0 -1.632252225100e+02 
-1.290551242801e+02 4.719181841892e+00 0.0 
4.719181841892e+00 -3.158950743292e+02 0.0 
0.0 0.0 -1.330850595828e+02 
-1.526534208677e+02 4.645044797965e+00 0.0 
4.645044797965e+00 -3.635381542617e+02 0.0 
0.0 0.0 -1.544574725388e+02 
-6.928645027666e+01 1.529708674781e+01 0.0 
1.529708674781e+01 -1.479224907212e+02 0.0 
0.0 0.0 -6.233896857216e+01 
-5.018890915174e+01 -2.919728521773e+01 0.0 
-2.919728521773e+01 -7.898008307614e+01 0.0 
0.0 0.0 -3.650325679012e+01 
-1.522630820500e+02 4.024675005960e-01 0.0 
4.024675005960e-01 -3.528360938122e+02 0.0 
0.0 0.0 -1.511297527587e+02 
-1.404554324090e+02 4.009238987998e-01 0.0 
4.009238987998e-01 -3.213500465329e+02 0.0 
0.0 0.0 -1.381416436826e+02 
-4.994168454929e+01 -3.692600113087e+01 0.0 
-3.692600113087e+01 -7.231290641404e+01 0.0 
0.0 0.0 -3.783357466098e+01 
-1.630861107149e+02 -7.297741201195e-01 0.0 
-7.297741201195e-01 -3.803412685693e+02 0.0 
0.0 0.0 -1.626282137853e+02 
-1.336820698690e+02 5.109835614030e+00 0.0 
5.109835614030e+00 -3.104158069954e+02 0.0 
0.0 0.0 -1.328293630593e+02 
-1.318517445073e+01 2.120580782767e-01 0.0 
2.120580782767e-01 -2.147184214075e+01 0.0 
0.0 0.0 -8.231620140588e+00 
-8.739373995545e+01 1.307220271887e+01 0.0 
1.307220271887e+01 -1.972802013523e+02 0.0 
0.0 0.0 -8.588620802928e+01 
-9.780397220280e+01 5.170196181203e+00 0.0 
5.170196181203e+00 -2.080507475059e+02 0.0 
0.0 0.0 -9.021608990057e+01 
-8.963173475710e+01 -3.087156203793e+00 0.0 
-3.087156203793e+00 -1.652649040064e+02 0.0 
0.0 0.0 -7.034556728935e+01 
-7.178929196736e+01 1.256904721106e+01 0.0 
1.256904721106e+01 -1.434827178065e+02 0.0 
0.0 0.0 -6.258322923336e+01 
-7.892047241586e+01 1.207576398703e+01 0.0 
1.207576398703e+01 -1.648027303103e+02 0.0 
0.0 0.0 -7.024952460033e+01 
-1.629834505926e+02 -1.631011908650e+00 0.0 
-1.631011908650e+00 -3.826437241301e+02 0.0 
0.0 0.0 -1.632881524168e+02 
-1.120679851608e+02 -4.692845707317e-01 0.0 
-4.692845707317e-01 -2.503572455859e+02 0.0 
0.0 0.0 -1.083275692240e+02 
-7.518448498801e+01 1.398322119249e+01 0.0 
1.398322119249e+01 -1.561769272274e+02 0.0 
0.0 0.0 -6.750785659894e+01 
-3.595121305361e+01 -4.038436412112e+00 0.0 
-4.038436412112e+00 -6.288667367232e+01 0.0 
0.0 0.0 -2.466716550186e+01 
-1.031327540248e+02 3.693036347198e+00 0.0 
3.693036347198e+00 -2.261129088485e+02 0.0 
0.0 0.0 -9.837369886198e+01 
-1.410133325056e+02 9.109196245506e-01 0.0 
9.109196245506e-01 -3.228851612373e+02 0.0 
0.0 0.0 -1.387695481229e+02 
-7.400803062012e+01 1.362082627575e+01 0.0 
1.362082627575e+01 -1.556352349493e+02 0.0 
0.0 0.0 -6.651837294449e+01 
-4.691409074464e+01 2.379917311458e+01 0.0 
2.379917311458e+01 -6.736530040834e+01 0.0 
0.0 0.0 -3.152739687923e+01 
-9.148081923738e+01 5.368901749514e+00 0.0 
5.368901749514e+00 -1.890294107839e+02 0.0 
0.0 0.0 -8.110913823893e+01 
-8.581486148679e+01 -3.480305295590e+00 0.0 
-3.480305295590e+00 -1.629366137832e+02 0.0 
0.0 0.0 -6.912138185501e+01 
-8.688078006405e+01 3.747739783603e+00 0.0 
3.747739783603e+00 -1.788333001026e+02 0.0 
0.0 0.0 -7.639529641192e+01 
-1.609846335899e+02 2.593814203193e+00 0.0 
2.593814203193e+00 -3.750326875701e+02 0.0 
0.0 0.0 -1.604051963480e+02 
-4.698476307342e+01 2.251187901725e+01 0.0 
2.251187901725e+01 -8.640344040288e+01 0.0 
0.0 0.0 -3.505009634163e+01 
-1.257038937688e+02 -1.975032940532e+00 0.0 
-1.975032940532e+00 -2.712588195946e+02 0.0 
0.0 0.0 -1.166080400813e+02 
-1.566116417504e+02 -1.068322348849e-01 0.0 
-1.068322348849e-01 -3.637124823837e+02 0.0 
0.0 0.0 -1.556972372402e+02 
-9.391528857318e+01 7.532648965163e+00 0.0 
7.532648965163e+00 -1.956848870624e+02 0.0 
0.0 0.0 -8.191010074893e+01 
-8.803800546577e+01 5.615485742040e+00 0.0 
5.615485742040e+00 -1.795872437489e+02 0.0 
0.0 0.0 -7.641068102301e+01 
-1.600468324049e+02 -2.137989811009e+00 0.0 
-2.137989811009e+00 -3.764359984562e+02 0.0 
0.0 0.0 -1.605448492583e+02 
-1.609159525170e+02 6.762918273799e-01 0.0 
6.762918273799e-01 -3.742953252799e+02 0.0 
0.0 0.0 -1.601633833391e+02 
-1.309478273005e+02 -1.663403186341e+00 0.0 
-1.663403186341e+00 -2.921057834077e+02 0.0 
0.0 0.0 -1.254106611194e+02 
-9.644469710493e+01 7.772617329374e+00 0.0 
7.772617329374e+00 -2.058219732801e+02 0.0 
0.0 0.0 -8.649146854790e+01 
-1.621823821301e+02 -1.642910185270e-01 0.0 
-1.642910185270e-01 -3.841764889226e+02 0.0 
0.0 0.0 -1.635076613158e+02 
-9.069426086526e+01 6.354879111049e+00 0.0 
6.354879111049e+00 -1.865252373811e+02 0.0 
0.0 0.0 -7.767558885265e+01 
-1.592479260803e+02 2.385728421229e+00 0.0 
2.385728421229e+00 -3.699205099872e+02 0.0 
0.0 0.0 -1.583505308203e+02 
-1.614071744691e+02 5.414148348437e+00 0.0 
5.414148348437e+00 -3.791133605435e+02 0.0 
0.0 0.0 -1.617561605038e+02 
-1.103219274286e+02 4.258848625767e+00 0.0 
4.258848625767e+00 -2.448769813429e+02 0.0 
0.0 0.0 -1.061596726314e+02 
-1.246851375662e+02 1.777992783900e-01 0.0 
1.777992783900e-01 -2.815810683468e+02 0.0 
0.0 0.0 -1.214798617739e+02 
-8.982120934633e+01 7.805236853551e+00 0.0 
7.805236853551e+00 -1.863521961161e+02 0.0 
0.0 0.0 -7.742356771866e+01 
-8.349077032849e+01 4.064089758243e+00 0.0 
4.064089758243e+00 -1.693072664147e+02 0.0 
0.0 0.0 -7.158725505551e+01 
-1.004923447449e+02 7.543012748318e+00 0.0 
7.543012748318e+00 -2.149772997336e+02 0.0 
0.0 0.0 -8.991229252942e+01 
-7.539545031474e+01 1.415270660532e+01 0.0 
1.415270660532e+01 -1.676997768528e+02 0.0 
0.0 0.0 -7.049198536053e+01 
-9.996146143002e+01 1.782483937842e+00 0.0 
1.782483937842e+00 -2.203305762284e+02 0.0 
0.0 0.0 -9.568761129752e+01 
-8.299175013996e+01 1.186648854208e+01 0.0 
1.186648854208e+01 -1.941485819967e+02 0.0 
0.0 0.0 -8.206718836293e+01 
-1.391098579858e+01 3.251847977032e-01 0.0 
3.251847977032e-01 -2.576064526015e+01 0.0 
0.0 0.0 -1.068679911462e+01 
-1.055152569173e+02 3.176584545614e-01 0.0 
3.176584545614e-01 -2.349980016315e+02 0.0 
0.0 0.0 -1.017539775646e+02 
-2.083049257853e+01 -7.151816975007e-01 0.0 
-7.151816975007e-01 -5.954244409159e+01 0.0 
0.0 0.0 -2.306737514510e+01 
-9.466212422164e+01 5.280176281285e+00 0.0 
5.280176281285e+00 -1.986640049194e+02 0.0 
0.0 0.0 -8.573247659573e+01 
-1.632211474389e+02 -3.488982102731e-02 0.0 
-3.488982102731e-02 -3.840879673478e+02 0.0 
0.0 0.0 -1.637927344360e+02 
-7.133200380505e+01 1.540728950082e+01 0.0 
1.540728950082e+01 -1.486456895612e+02 0.0 
0.0 0.0 -6.418978696347e+01 
-1.338405904724e+02 -1.301197808030e+00 0.0 
-1.301197808030e+00 -3.024435181997e+02 0.0 
0.0 0.0 -1.298653703518e+02 
-5.744834462885e+01 1.185732115820e+01 0.0 
1.185732115820e+01 -1.028224578580e+02 0.0 
0.0 0.0 -4.483723380056e+01 
-1.296837570890e+02 3.060769913956e+00 0.0 
3.060769913956e+00 -3.159490553101e+02 0.0 
0.0 0.0 -1.332898437197e+02 
-9.972960359508e+01 4.700362801941e-01 0.0 
4.700362801941e-01 -2.215181078862e+02 0.0 
0.0 0.0 -9.597431344437e+01 
-8.278702164756e+01 1.372582209790e+01 0.0 
1.372582209790e+01 -1.890252768929e+02 0.0 
0.0 0.0 -8.096976926174e+01 
-1.439630918383e+02 4.353532757072e-01 0.0 
4.353532757072e-01 -3.324971264410e+02 0.0 
0.0 0.0 -1.425380654838e+02 
-4.133308800433e+01 -8.729380521457e+00 0.0 
-8.729380521457e+00 -6.407102604795e+01 0.0 
0.0 0.0 -2.809644858032e+01 
-1.521522537118e+02 -1.399997069167e+00 0.0 
-1.399997069167e+00 -3.525164170669e+02 0.0 
0.0 0.0 -1.510006012336e+02 
-1.034840697561e+02 4.778957737247e+00 0.0 
4.778957737247e+00 -2.255121612774e+02 0.0 
0.0 0.0 -9.712156633612e+01 
-1.625570508978e+02 -1.162554705565e+00 0.0 
-1.162554705565e+00 -3.793766329408e+02 0.0 
0.0 0.0 -1.621801051516e+02 
-9.922619455114e+01 1.071603119417e-01 0.0 
1.071603119417e-01 -2.203300114026e+02 0.0 
0.0 0.0 -9.546686178611e+01 
-7.417574122900e+01 1.549566806512e+01 0.0 
1.549566806512e+01 -1.594706605608e+02 0.0 
0.0 0.0 -6.907951876001e+01 
-9.353702751584e+01 3.514245811101e+00 0.0 
3.514245811101e+00 -1.978592688544e+02 0.0 
0.0 0.0 -8.557731631900e+01 
-1.237398599439e+02 -2.548296283628e-01 0.0 
-2.548296283628e-01 -2.598678645491e+02 0.0 
0.0 0.0 -1.117360139391e+02 
-5.606147616963e+01 1.035274406260e+01 0.0 
1.035274406260e+01 -1.023192084060e+02 0.0 
0.0 0.0 -4.426831177847e+01 
-7.825474542670e+01 1.193412238844e+01 0.0 
1.193412238844e+01 -1.856056951691e+02 0.0 
0.0 0.0 -7.711242124526e+01 
-1.288860621667e+02 1.823492245768e+00 0.0 
1.823492245768e+00 -2.921897240819e+02 0.0 
0.0 0.0 -1.259227358746e+02 
-9.939562244014e+01 -4.914852257648e-02 0.0 
-4.914852257648e-02 -2.204162654907e+02 0.0 
0.0 0.0 -9.554356637927e+01 
-8.065599468373e+01 1.430265261410e+01 0.0 
1.430265261410e+01 -1.779906555679e+02 0.0 
0.0 0.0 -7.747345186173e+01 
-9.036226135242e+01 3.665655783199e+00 0.0 
3.665655783199e+00 -1.882401553489e+02 0.0 
0.0 0.0 -8.095185546727e+01 
-1.439549265640e+02 4.978277062357e+00 0.0 
4.978277062357e+00 -3.384349613794e+02 0.0 
0.0 0.0 -1.443169663830e+02 
-9.530458474944e+01 -3.195194773657e+00 0.0 
-3.195194773657e+00 -1.827418171378e+02 0.0 
0.0 0.0 -7.784520423493e+01 
-1.624684606055e+02 4.303461233224e+00 0.0 
4.303461233224e+00 -3.821137444820e+02 0.0 
0.0 0.0 -1.629746615263e+02 
-1.612085622246e+02 5.757797468448e+00 0.0 
5.757797468448e+00 -3.793495753164e+02 0.0 
0.0 0.0 -1.617674412623e+02 
-6.961042782198e+01 1.073602807192e+01 0.0 
1.073602807192e+01 -1.362412994662e+02 0.0 
0.0 0.0 -5.777640239880e+01 
-9.809787207807e+01 -3.103691490588e+00 0.0 
-3.103691490588e+00 -1.835200999105e+02 0.0 
0.0 0.0 -7.876325440377e+01 
-1.448111635734e+02 2.086728196968e+00 0.0 
2.086728196968e+00 -3.483516209225e+02 0.0 
0.0 0.0 -1.475488353488e+02 
-8.689404257761e+01 6.904328058425e+00 0.0 
6.904328058425e+00 -1.776275786931e+02 0.0 
0.0 0.0 -7.414380893768e+01 
-6.373754010402e+01 1.218982126091e+01 0.0 
1.218982126091e+01 -1.229186422173e+02 0.0 
0.0 0.0 -5.411729418443e+01 
-1.002310348394e+02 4.126718564185e+00 0.0 
4.126718564185e+00 -2.166263603624e+02 0.0 
0.0 0.0 -9.361573365317e+01 
-8.178484572575e+01 1.271682046019e+01 0.0 
1.271682046019e+01 -1.866361012432e+02 0.0 
0.0 0.0 -7.835149359240e+01 
-1.582347830945e+02 1.248939032966e+00 0.0 
1.248939032966e+00 -3.686340243262e+02 0.0 
0.0 0.0 -1.576606422262e+02 
-1.349863223507e+02 4.644857773414e+00 0.0 
4.644857773414e+00 -3.116201313567e+02 0.0 
0.0 0.0 -1.335819361122e+02 
-1.481671432933e+02 -1.236205590590e+00 0.0 
-1.236205590590e+00 -3.426607261670e+02 0.0 
0.0 0.0 -1.468483608381e+02 
-5.228392845164e+01 1.430259220364e+01 0.0 
1.430259220364e+01 -8.666335837735e+01 0.0 
0.0 0.0 -3.780003355865e+01 
-7.379680765611e+01 1.153972186852e+01 0.0 
1.153972186852e+01 -1.784649923263e+02 0.0 
0.0 0.0 -7.246588105219e+01 
-1.383828577039e+02 4.807653786791e+00 0.0 
4.807653786791e+00 -3.209664651789e+02 0.0 
0.0 0.0 -1.374047968648e+02 
-9.851532238010e+01 2.313830378750e+01 0.0 
2.313830378750e+01 -7.975846066294e+01 0.0 
0.0 0.0 -5.375009326542e+01 
-8.730843494566e+01 5.277741227454e+00 0.0 
5.277741227454e+00 -1.779445993862e+02 0.0 
0.0 0.0 -7.461025958378e+01 
-1.354456930639e+02 9.495578810422e-01 0.0 
9.495578810422e-01 -3.282609360733e+02 0.0 
0.0 0.0 -1.387119887412e+02 
-1.902537591038e+01 5.545213218111e-01 0.0 
5.545213218111e-01 -4.202053777423e+01 0.0 
0.0 0.0 -1.581592029363e+01 
-1.590791628838e+02 4.272491491903e+00 0.0 
4.272491491903e+00 -3.701605627415e+02 0.0 
0.0 0.0 -1.583719176876e+02 
-1.250694878490e+02 3.832420362585e+00 0.0 
3.832420362585e+00 -2.839206143227e+02 0.0 
0.0 0.0 -1.222970306515e+02 
-8.544398337724e+01 -1.134900126798e+01 0.0 
-1.134900126798e+01 -1.811989865122e+02 0.0 
0.0 0.0 -7.773376841454e+01 
-1.347307290935e+02 -6.199015564676e-01 0.0 
-6.199015564676e-01 -3.278026730596e+02 0.0 
0.0 0.0 -1.383600206459e+02 
-1.095446235399e+02 4.289477417623e+00 0.0 
4.289477417623e+00 -2.419171282684e+02 0.0 
0.0 0.0 -1.050385255425e+02 
-1.156307339220e+02 4.291546008317e+00 0.0 
4.291546008317e+00 -2.568300393014e+02 0.0 
0.0 0.0 -1.113382319670e+02 
-1.570566813085e+02 7.936655942716e-01 0.0 
7.936655942716e-01 -3.723588083136e+02 0.0 
0.0 0.0 -1.584246468866e+02 
-6.903416526737e+01 -1.209883539461e+01 0.0 
-1.209883539461e+01 -1.338964889164e+02 0.0 
0.0 0.0 -5.726526974079e+01 
-1.031895344565e+02 8.346478587473e+00 0.0 
8.346478587473e+00 -2.245662633662e+02 0.0 
0.0 0.0 -9.407172872806e+01 
-1.066299742111e+02 5.400186080684e+00 0.0 
5.400186080684e+00 -2.346316556691e+02 0.0 
0.0 0.0 -1.007358070835e+02 
-1.295646479662e+02 5.294008922729e+00 0.0 
5.294008922729e+00 -2.946569073185e+02 0.0 
0.0 0.0 -1.268664665854e+02 
-1.067582464852e+02 6.402329211210e+00 0.0 
6.402329211210e+00 -2.355521174113e+02 0.0 
0.0 0.0 -1.017774192643e+02 
-1.007407914775e+02 5.848224819920e+00 0.0 
5.848224819920e+00 -2.165779434461e+02 0.0 
0.0 0.0 -9.356888839549e+01 
-1.129746810820e+02 5.172639089960e+00 0.0 
5.172639089960e+00 -2.863809995171e+02 0.0 
0.0 0.0 -1.201626508498e+02 
-1.399189166656e+02 6.757296917517e+00 0.0 
6.757296917517e+00 -3.288496852545e+02 0.0 
0.0 0.0 -1.402305805760e+02 
-6.014038011146e+01 2.160523726686e+01 0.0 
2.160523726686e+01 -9.534980391914e+01 0.0 
0.0 0.0 -4.777086231434e+01 
-6.973369926954e+01 1.092631683292e+01 0.0 
1.092631683292e+01 -1.357809954490e+02 0.0 
0.0 0.0 -5.896956372136e+01 
-7.711444318579e+01 1.057667343596e+01 0.0 
1.057667343596e+01 -1.550721388449e+02 0.0 
0.0 0.0 -6.672648427888e+01 
-9.873407988347e+01 8.191296688874e+00 0.0 
8.191296688874e+00 -2.150782615326e+02 0.0 
0.0 0.0 -9.015267500107e+01 
-1.397066862139e+02 6.170209138683e+00 0.0 
6.170209138683e+00 -3.227315343147e+02 0.0 
0.0 0.0 -1.383314661586e+02 
-4.437350384425e+01 1.679633743975e+01 0.0 
1.679633743975e+01 -1.226594532391e+02 0.0 
0.0 0.0 -4.815334098662e+01 
-1.309004503578e+02 1.160602603675e-01 0.0 
1.160602603675e-01 -3.176591788833e+02 0.0 
0.0 0.0 -1.341678887723e+02 
-9.918423825291e+01 1.590451167971e+00 0.0 
1.590451167971e+00 -2.190740727270e+02 0.0 
0.0 0.0 -9.507749329396e+01 
-7.798314124973e+01 1.352205171488e+01 0.0 
1.352205171488e+01 -1.821379102517e+02 0.0 
0.0 0.0 -7.643493092292e+01 
-1.266508054178e+02 -7.488137204865e-01 0.0 
-7.488137204865e-01 -3.069048067753e+02 0.0 
0.0 0.0 -1.296666836579e+02 
-1.496229157776e+01 1.099824169815e+00 0.0 
1.099824169815e+00 -2.830232289996e+01 0.0 
0.0 0.0 -1.111356322913e+01 
-1.326505197795e+02 3.858926101101e+00 0.0 
3.858926101101e+00 -3.034557670970e+02 0.0 
0.0 0.0 -1.304318860630e+02 
-1.425415709957e+01 3.754301472482e-01 0.0 
3.754301472482e-01 -2.388880377681e+01 0.0 
0.0 0.0 -9.812990520056e+00 
-1.648072949006e+01 -4.649948125783e-01 0.0 
-4.649948125783e-01 -4.269978093757e+01 0.0 
0.0 0.0 -1.574827691517e+01 
-4.949071290482e+01 1.199693928241e+01 0.0 
1.199693928241e+01 -8.561187600094e+01 0.0 
0.0 0.0 -3.677911228055e+01 
-6.040009713797e+01 -1.172937111367e+01 0.0 
-1.172937111367e+01 -1.131189422386e+02 0.0 
0.0 0.0 -4.846093780867e+01 
-1.371506417945e+02 5.330758580494e+00 0.0 
5.330758580494e+00 -3.141479267997e+02 0.0 
0.0 0.0 -1.349895705782e+02 
-5.680504300828e+01 -1.162258431900e+01 0.0 
-1.162258431900e+01 -1.057093630529e+02 0.0 
0.0 0.0 -4.522605414830e+01 
-5.858673626718e+01 1.730128164738e+01 0.0 
1.730128164738e+01 -1.146607437957e+02 0.0 
0.0 0.0 -4.807869226585e+01 
-5.596502125805e+01 -2.034011935405e+01 0.0 
-2.034011935405e+01 -1.120129986069e+02 0.0 
0.0 0.0 -4.456169782955e+01 
-4.265919044427e+01 -8.623968841924e+00 0.0 
-8.623968841924e+00 -7.124476925394e+01 0.0 
0.0 0.0 -3.084619328742e+01 
-1.395564996350e+02 1.224222376295e-01 0.0 
1.224222376295e-01 -3.377261790978e+02 0.0 
0.0 0.0 -1.427848036198e+02 
-1.037170570750e+02 6.507532756317e+00 0.0 
6.507532756317e+00 -2.256258243692e+02 0.0 
0.0 0.0 -9.717309269310e+01 
-1.605152378268e+02 -1.882019938764e+00 0.0 
-1.882019938764e+00 -3.738601043820e+02 0.0 
0.0 0.0 -1.599126026626e+02 
-6.417505761162e+01 7.738795401430e+00 0.0 
7.738795401430e+00 -1.085307393683e+02 0.0 
0.0 0.0 -5.235343861883e+01 
-6.442830018257e+01 1.692795784149e+01 0.0 
1.692795784149e+01 -1.340660132620e+02 0.0 
0.0 0.0 -5.608152973861e+01 
-8.453586418395e+01 1.234404267259e+01 0.0 
1.234404267259e+01 -2.000907860764e+02 0.0 
0.0 0.0 -8.494183693378e+01 
-8.291452633511e+01 5.925726223506e+00 0.0 
5.925726223506e+00 -1.670448225675e+02 0.0 
0.0 0.0 -6.953148460184e+01 
-1.298327778333e+02 -1.298992283440e+00 0.0 
-1.298992283440e+00 -3.170638815144e+02 0.0 
0.0 0.0 -1.336689978043e+02 
-1.632404733393e+02 -1.983672694343e+00 0.0 
-1.983672694343e+00 -3.813826716064e+02 0.0 
0.0 0.0 -1.629869434837e+02 
-1.319203407436e+02 6.195041584889e+00 0.0 
6.195041584889e+00 -3.030404863260e+02 0.0 
0.0 0.0 -1.300882481209e+02 
-6.299028472034e+01 1.196958736837e+01 0.0 
1.196958736837e+01 -1.553599216881e+02 0.0 
0.0 0.0 -5.997788127378e+01 
-1.398450976067e+02 1.489587295095e+00 0.0 
1.489587295095e+00 -3.378632991070e+02 0.0 
0.0 0.0 -1.429125190141e+02 
-1.288120765388e+02 -1.691258449459e+00 0.0 
-1.691258449459e+00 -2.811201083558e+02 0.0 
0.0 0.0 -1.208159718259e+02 
-1.023812550403e+02 7.781700214011e+00 0.0 
7.781700214011e+00 -2.249375734868e+02 0.0 
0.0 0.0 -9.524731384187e+01 
-1.283294827831e+02 4.108966582647e+00 0.0 
4.108966582647e+00 -2.929662051406e+02 0.0 
0.0 0.0 -1.259887063771e+02 
-1.566726397030e+02 4.758424587048e+00 0.0 
4.758424587048e+00 -3.711755924318e+02 0.0 
0.0 0.0 -1.579544696404e+02 
-8.045919189679e+01 1.006381522724e+01 0.0 
1.006381522724e+01 -1.958991675805e+02 0.0 
0.0 0.0 -8.088303193857e+01 
-5.979708933439e+01 1.661429253265e+01 0.0 
1.661429253265e+01 -1.201133172134e+02 0.0 
0.0 0.0 -4.989372558187e+01 
-1.127738725830e+02 6.719972843423e+00 0.0 
6.719972843423e+00 -2.543855738984e+02 0.0 
0.0 0.0 -1.097478339444e+02 
-1.665183874603e+02 3.272105881315e+00 0.0 
3.272105881315e+00 -3.883697087373e+02 0.0 
0.0 0.0 -1.660664288593e+02 
-1.008352539018e+02 8.362409605999e+00 0.0 
8.362409605999e+00 -2.244745765091e+02 0.0 
0.0 0.0 -9.396621602589e+01 
-9.498180452594e+01 5.571025972125e+00 0.0 
5.571025972125e+00 -2.389842064282e+02 0.0 
0.0 0.0 -1.030553481480e+02 
-1.071993895083e+02 8.298594850786e-01 0.0 
8.298594850786e-01 -2.389048113395e+02 0.0 
0.0 0.0 -1.034312602543e+02 
-4.693107899702e+01 -1.389901455673e+01 0.0 
-1.389901455673e+01 -6.977856725612e+01 0.0 
0.0 0.0 -2.859429432767e+01 
-1.061007005584e+02 4.627986387761e+00 0.0 
4.627986387761e+00 -2.349844863576e+02 0.0 
0.0 0.0 -1.014868759266e+02 
-6.709668609939e+01 1.443219682800e+01 0.0 
1.443219682800e+01 -1.592097423204e+02 0.0 
0.0 0.0 -6.463507499715e+01 
-5.083814707612e+01 1.388075307279e+01 0.0 
1.388075307279e+01 -1.371913311014e+02 0.0 
0.0 0.0 -5.381863127477e+01 
-4.550009568418e+01 -1.969136527307e+01 0.0 
-1.969136527307e+01 -1.196611662356e+02 0.0 
0.0 0.0 -4.629029338577e+01 
-1.368252104700e+02 3.658101549431e+00 0.0 
3.658101549431e+00 -3.137012606895e+02 0.0 
0.0 0.0 -1.347579413479e+02 
-1.094422208241e+02 6.871616534092e+00 0.0 
6.871616534092e+00 -2.447061915029e+02 0.0 
0.0 0.0 -1.054348546061e+02 
-7.816177513331e+01 1.509241515540e+01 0.0 
1.509241515540e+01 -1.689185640723e+02 0.0 
0.0 0.0 -7.323844753799e+01 
-1.413433438361e+02 5.134808223738e+00 0.0 
5.134808223738e+00 -3.243616961080e+02 0.0 
0.0 0.0 -1.393115119832e+02 
-1.351676411831e+02 6.402485706531e+00 0.0 
6.402485706531e+00 -3.122096031060e+02 0.0 
0.0 0.0 -1.338131732867e+02 
-1.056826588922e+02 7.519484798041e+00 0.0 
7.519484798041e+00 -2.346054715171e+02 0.0 
0.0 0.0 -1.000032084251e+02 
-1.636130977271e+02 -1.528932820063e+00 0.0 
-1.528932820063e+00 -3.821134880789e+02 0.0 
0.0 0.0 -1.633179757418e+02 
-9.954180944961e+01 5.098596238926e+00 0.0 
5.098596238926e+00 -2.528320550777e+02 0.0 
0.0 0.0 -1.101618461019e+02 
-1.087982911776e+02 7.354639708563e+00 0.0 
7.354639708563e+00 -2.442249520478e+02 0.0 
0.0 0.0 -1.045937125596e+02 
-8.824363835872e+01 1.073915189892e+01 0.0 
1.073915189892e+01 -2.052681650276e+02 0.0 
0.0 0.0 -8.643104769319e+01 
-1.014886369673e+02 4.372206240575e+00 0.0 
4.372206240575e+00 -2.566769257377e+02 0.0 
0.0 0.0 -1.113189921189e+02 
-5.702252464651e+01 1.121866320472e+01 0.0 
1.121866320472e+01 -1.506102281864e+02 0.0 
0.0 0.0 -5.888287614243e+01 
-1.017594275185e+02 3.245190752077e+00 0.0 
3.245190752077e+00 -2.245509371205e+02 0.0 
0.0 0.0 -9.749310939172e+01 
-8.254155982968e+01 7.740091909980e+00 0.0 
7.740091909980e+00 -2.054499431135e+02 0.0 
0.0 0.0 -8.472838445109e+01 
-6.551941761664e+01 -8.170484461146e+00 0.0 
-8.170484461146e+00 -1.692638839727e+02 0.0 
0.0 0.0 -6.751669268764e+01 
-1.317207125619e+02 4.428403786642e+00 0.0 
4.428403786642e+00 -3.024763918982e+02 0.0 
0.0 0.0 -1.298591313380e+02 
-1.231421760626e+02 2.124455217181e+00 0.0 
2.124455217181e+00 -1.034740488211e+02 0.0 
0.0 0.0 -6.825860863746e+01 
-1.098484618656e+02 6.310560582496e+00 0.0 
6.310560582496e+00 -2.452848691131e+02 0.0 
0.0 0.0 -1.061399992936e+02 
-6.839036601745e+01 1.142130878028e+01 0.0 
1.142130878028e+01 -1.701710195347e+02 0.0 
0.0 0.0 -6.842770971347e+01 
-6.053295500957e+01 1.616396377826e+01 0.0 
1.616396377826e+01 -1.316147490064e+02 0.0 
0.0 0.0 -5.278308335509e+01 
-5.300178994707e+01 6.589024372832e+00 0.0 
6.589024372832e+00 -1.472949162818e+02 0.0 
0.0 0.0 -5.592272388662e+01 
-1.158464942531e+02 5.339196250565e+00 0.0 
5.339196250565e+00 -2.632809807297e+02 0.0 
0.0 0.0 -1.133382424949e+02 
-2.451650795993e+01 -1.177790549589e+00 0.0 
-1.177790549589e+00 -4.194525878341e+01 0.0 
0.0 0.0 -1.610185365690e+01 
-8.198479283551e+01 8.740974312277e+00 0.0 
8.740974312277e+00 -1.657231505222e+02 0.0 
0.0 0.0 -7.039977315859e+01 
-1.058186080070e+02 3.679173562500e+00 0.0 
3.679173562500e+00 -2.694446082992e+02 0.0 
0.0 0.0 -1.177012527837e+02 
-1.092897890220e+02 5.212964931452e+00 0.0 
5.212964931452e+00 -2.441469640658e+02 0.0 
0.0 0.0 -1.051593559874e+02 
-1.093670469436e+02 3.914381424093e+00 0.0 
3.914381424093e+00 -2.422208700086e+02 0.0 
0.0 0.0 -1.050763750857e+02 
-3.880956614765e+01 1.588990693479e+01 0.0 
1.588990693479e+01 -1.258407024493e+02 0.0 
0.0 0.0 -5.190584178887e+01 
-6.368314062064e+01 -3.965593915994e+00 0.0 
-3.965593915994e+00 -1.690330260227e+02 0.0 
0.0 0.0 -6.616169248984e+01 
-6.386993693913e+01 -1.249277657625e+01 0.0 
-1.249277657625e+01 -1.583476860465e+02 0.0 
0.0 0.0 -6.323540501234e+01 
-7.385401417322e+01 9.770151744096e+00 0.0 
9.770151744096e+00 -1.462141712590e+02 0.0 
0.0 0.0 -6.153785989011e+01 
-1.285629412181e+02 5.965648903653e+00 0.0 
5.965648903653e+00 -2.935635219123e+02 0.0 
0.0 0.0 -1.262379389391e+02 
-8.138885878101e+01 9.693845809663e+00 0.0 
9.693845809663e+00 -1.659497400545e+02 0.0 
0.0 0.0 -6.964154480205e+01 
-8.128443126449e+01 8.811012123138e+00 0.0 
8.811012123138e+00 -2.019946813493e+02 0.0 
0.0 0.0 -8.381836435341e+01 
-7.967784345640e+01 1.138503513826e+01 0.0 
1.138503513826e+01 -1.925503438323e+02 0.0 
0.0 0.0 -8.021412552419e+01 
-3.798948950973e+01 1.177168157515e+01 0.0 
1.177168157515e+01 -1.203741831737e+02 0.0 
0.0 0.0 -4.753544046761e+01 
-9.412238851761e+01 1.174571626213e+01 0.0 
1.174571626213e+01 -2.166747197070e+02 0.0 
0.0 0.0 -9.413416594807e+01 
-5.124409175831e+01 1.857145279635e+01 0.0 
1.857145279635e+01 -9.356386852777e+01 0.0 
0.0 0.0 -3.861190705399e+01 
-1.677796334793e+02 5.239233256882e+00 0.0 
5.239233256882e+00 -3.909724783313e+02 0.0 
0.0 0.0 -1.672256335432e+02 
-1.672964532091e+02 5.746785592272e+00 0.0 
5.746785592272e+00 -3.912254179644e+02 0.0 
0.0 0.0 -1.671565613520e+02 
-1.055436915914e+02 8.917967347537e+00 0.0 
8.917967347537e+00 -2.343927661501e+02 0.0 
0.0 0.0 -9.877338463844e+01 
-6.224428144909e+01 1.315047256803e+01 0.0 
1.315047256803e+01 -1.543957230317e+02 0.0 
0.0 0.0 -6.114271863191e+01 
-5.583784356550e+01 1.662785734486e+01 0.0 
1.662785734486e+01 -1.255740157447e+02 0.0 
0.0 0.0 -4.845867549342e+01 
-1.123723436112e+02 6.430653597963e+00 0.0 
6.430653597963e+00 -2.531682887112e+02 0.0 
0.0 0.0 -1.080705347469e+02 
-5.655740625141e+01 1.403016169186e+01 0.0 
1.403016169186e+01 -1.387435823638e+02 0.0 
0.0 0.0 -5.272274525224e+01 
-6.028142372671e+01 -8.859263791220e+00 0.0 
-8.859263791220e+00 -1.575118861805e+02 0.0 
0.0 0.0 -6.125622519823e+01 
-1.037425822818e+02 6.815038754687e+00 0.0 
6.815038754687e+00 -2.245911915655e+02 0.0 
0.0 0.0 -9.496652776177e+01 
-1.596819749540e+02 2.745684024463e+00 0.0 
2.745684024463e+00 -3.706840933438e+02 0.0 
0.0 0.0 -1.587098204893e+02 
-7.317248598821e+01 1.281928663217e+01 0.0 
1.281928663217e+01 -1.757736949043e+02 0.0 
0.0 0.0 -7.228768577503e+01 
-1.149919240160e+02 3.751249158639e+00 0.0 
3.751249158639e+00 -2.869951247020e+02 0.0 
0.0 0.0 -1.231469350598e+02 
-5.496920908386e+01 1.858628492095e+01 0.0 
1.858628492095e+01 -1.092743241094e+02 0.0 
0.0 0.0 -4.503603412646e+01 
-1.696522674858e+02 8.912354495693e-01 0.0 
8.912354495693e-01 -3.995508249859e+02 0.0 
0.0 0.0 -1.703609277415e+02 
-6.132448180096e+01 1.611935993232e+01 0.0 
1.611935993232e+01 -1.423924751871e+02 0.0 
0.0 0.0 -5.715653772387e+01 
-1.065019512149e+02 7.482984633377e+00 0.0 
7.482984633377e+00 -2.340753748704e+02 0.0 
0.0 0.0 -9.864684974585e+01 
-4.535921810009e+01 1.108344390117e+01 0.0 
1.108344390117e+01 -1.360666464533e+02 0.0 
0.0 0.0 -5.398717243312e+01 
-1.109440093830e+02 -1.319610060295e+00 0.0 
-1.319610060295e+00 -2.814465367283e+02 0.0 
0.0 0.0 -1.216843284545e+02 
-8.604181800411e+01 1.029751982832e+01 0.0 
1.029751982832e+01 -2.100765192110e+02 0.0 
0.0 0.0 -8.876578721186e+01 
-6.463243268634e+01 -1.151939272861e+01 0.0 
-1.151939272861e+01 -1.594693917558e+02 0.0 
0.0 0.0 -6.272096541789e+01 
-1.064109688362e+02 6.990087374298e+00 0.0 
6.990087374298e+00 -2.349835944574e+02 0.0 
0.0 0.0 -1.008984950644e+02 
-1.686277819077e+02 5.974742754608e+00 0.0 
5.974742754608e+00 -3.947585655971e+02 0.0 
0.0 0.0 -1.686159042514e+02 
-7.480766782562e+01 9.969255407232e+00 0.0 
9.969255407232e+00 -1.858211853220e+02 0.0 
0.0 0.0 -7.593393695047e+01 
-1.042183164547e+02 3.470890999501e+00 0.0 
3.470890999501e+00 -2.668953540162e+02 0.0 
0.0 0.0 -1.156342962657e+02 
-5.206029475508e+01 1.910472911055e+01 0.0 
1.910472911055e+01 -1.074376778171e+02 0.0 
0.0 0.0 -4.240674410144e+01 
-1.224120838287e+02 2.114535544263e+00 0.0 
2.114535544263e+00 -2.759176317840e+02 0.0 
0.0 0.0 -1.190989146838e+02 
-1.252369179250e+02 -2.059386071812e+00 0.0 
-2.059386071812e+00 -3.060665949941e+02 0.0 
0.0 0.0 -1.289910538757e+02 
-6.429131156221e+01 1.513441141505e+01 0.0 
1.513441141505e+01 -1.280693814368e+02 0.0 
0.0 0.0 -5.410402540060e+01 
-1.192307706383e+02 3.501327352368e+00 0.0 
3.501327352368e+00 -2.671734867093e+02 0.0 
0.0 0.0 -1.155212772043e+02 
-1.687974725931e+02 5.551577088380e+00 0.0 
5.551577088380e+00 -3.963089917379e+02 0.0 
0.0 0.0 -1.691319392993e+02 
-1.343873479462e+02 -1.454688741308e+00 0.0 
-1.454688741308e+00 -3.253346519886e+02 0.0 
0.0 0.0 -1.375165999805e+02 
-1.683541833516e+02 5.935239066632e+00 0.0 
5.935239066632e+00 -3.937304576853e+02 0.0 
0.0 0.0 -1.682253923111e+02 
-1.189680805211e+02 4.217454602653e+00 0.0 
4.217454602653e+00 -2.660425634060e+02 0.0 
0.0 0.0 -1.151031931781e+02 
-1.335557774785e+02 6.730945745165e+00 0.0 
6.730945745165e+00 -3.108326207897e+02 0.0 
0.0 0.0 -1.329165194805e+02 
-5.835641682316e+01 1.486603815258e+01 0.0 
1.486603815258e+01 -1.078334541148e+02 0.0 
0.0 0.0 -4.599705143697e+01 
-1.006968394942e+02 6.619724857927e+00 0.0 
6.619724857927e+00 -2.161661728278e+02 0.0 
0.0 0.0 -9.265192799011e+01 
-1.096110968267e+02 5.946411124483e+00 0.0 
5.946411124483e+00 -2.438458325419e+02 0.0 
0.0 0.0 -1.043787734808e+02 
-1.118760177667e+02 7.254410051489e+00 0.0 
7.254410051489e+00 -2.538872831841e+02 0.0 
0.0 0.0 -1.091143644421e+02 
-9.692746577456e+01 8.895445863456e+00 0.0 
8.895445863456e+00 -2.148436369955e+02 0.0 
0.0 0.0 -8.967694714870e+01 
-1.689200985380e+02 5.091744775118e+00 0.0 
5.091744775118e+00 -3.973253396847e+02 0.0 
0.0 0.0 -1.694736314668e+02 
-1.149421766907e+02 3.627156964619e+00 0.0 
3.627156964619e+00 -2.564280205428e+02 0.0 
0.0 0.0 -1.110110591701e+02 
-1.039071301758e+02 5.828677893694e+00 0.0 
5.828677893694e+00 -2.266597657873e+02 0.0 
0.0 0.0 -9.822966986651e+01 
-7.594944740210e+01 9.212971514798e+00 0.0 
9.212971514798e+00 -1.889930416476e+02 0.0 
0.0 0.0 -7.651044940594e+01 
-5.187747068540e+01 -1.073390737104e+01 0.0 
-1.073390737104e+01 -9.237868047179e+01 0.0 
0.0 0.0 -3.980832723762e+01 
-9.777734465723e+01 6.011458110621e+00 0.0 
6.011458110621e+00 -2.069704824049e+02 0.0 
0.0 0.0 -8.900519128263e+01 
-6.796589911014e+01 1.611425381154e+01 0.0 
1.611425381154e+01 -1.404707738425e+02 0.0 
0.0 0.0 -6.035381213136e+01 
-9.986997726574e+01 6.067766611141e-01 0.0 
6.067766611141e-01 -2.212647216704e+02 0.0 
0.0 0.0 -9.594040968083e+01 
-6.830476346081e+01 -1.419926702585e+01 0.0 
-1.419926702585e+01 -1.614417729983e+02 0.0 
0.0 0.0 -6.647720198185e+01 
-6.940214021615e+01 1.047080223736e+01 0.0 
1.047080223736e+01 -1.721586520517e+02 0.0 
0.0 0.0 -6.813905539069e+01 
-1.360565620907e+02 4.122481776529e+00 0.0 
4.122481776529e+00 -3.128128133853e+02 0.0 
0.0 0.0 -1.342608126428e+02 
-6.477306226444e+01 1.549273789809e+01 0.0 
1.549273789809e+01 -1.390323438930e+02 0.0 
0.0 0.0 -5.732949579401e+01 
-1.036581621576e+02 5.635114274479e+00 0.0 
5.635114274479e+00 -2.249637919232e+02 0.0 
0.0 0.0 -9.610153092986e+01 
-1.081669107883e+02 1.535380944641e+00 0.0 
1.535380944641e+00 -2.758166749854e+02 0.0 
0.0 0.0 -1.208193148119e+02 
-1.054531649748e+02 -5.262011161700e+00 0.0 
-5.262011161700e+00 -2.449994868436e+02 0.0 
0.0 0.0 -1.059485460237e+02 
-1.695639966324e+02 3.889823270008e+00 0.0 
3.889823270008e+00 -3.987174386153e+02 0.0 
0.0 0.0 -1.700844305743e+02 
-9.094762272773e+01 6.461311783451e+00 0.0 
6.461311783451e+00 -1.879352370919e+02 0.0 
0.0 0.0 -7.952811327239e+01 
-6.062827789412e+01 7.057372963533e-01 0.0 
7.057372963533e-01 -1.650852268116e+02 0.0 
0.0 0.0 -6.434689791246e+01 
-8.393428960572e+01 -1.487173966815e+01 0.0 
-1.487173966815e+01 -1.761094952211e+02 0.0 
0.0 0.0 -7.687513980678e+01 
-6.470607421776e+01 1.192177220784e+01 0.0 
1.192177220784e+01 -1.242774533892e+02 0.0 
0.0 0.0 -5.311112223004e+01 
-6.417918588687e+01 1.549322247054e+01 0.0 
1.549322247054e+01 -1.279153635937e+02 0.0 
0.0 0.0 -5.528476660667e+01 
-1.430212748077e+02 6.300357216322e+00 0.0 
6.300357216322e+00 -3.319273067388e+02 0.0 
0.0 0.0 -1.420845744639e+02 
-1.077474024312e+02 7.754624377811e+00 0.0 
7.754624377811e+00 -2.438582891124e+02 0.0 
0.0 0.0 -1.037411026130e+02 
-8.278182038290e+01 7.814414541601e+00 0.0 
7.814414541601e+00 -1.668425429471e+02 0.0 
0.0 0.0 -6.915504551164e+01 
-9.736846670078e+01 5.188082729521e+00 0.0 
5.188082729521e+00 -2.062144449363e+02 0.0 
0.0 0.0 -8.783522682232e+01 
-1.691730157247e+02 2.216805213357e+00 0.0 
2.216805213357e+00 -3.985996977389e+02 0.0 
0.0 0.0 -1.699318140391e+02 
-1.599497574577e+02 3.036701936888e+00 0.0 
3.036701936888e+00 -3.794382679301e+02 0.0 
0.0 0.0 -1.614164076163e+02 
-1.428678608229e+02 4.576831386991e+00 0.0 
4.576831386991e+00 -3.313245668766e+02 0.0 
0.0 0.0 -1.418577283098e+02 
-1.329785107957e+02 5.619539654595e+00 0.0 
5.619539654595e+00 -3.040333761843e+02 0.0 
0.0 0.0 -1.307035660940e+02 
-1.041648215495e+02 -8.722531123896e+00 0.0 
-8.722531123896e+00 -2.406441592147e+02 0.0 
0.0 0.0 -1.053393100801e+02 
-8.405734134385e+01 1.031201996191e+01 0.0 
1.031201996191e+01 -1.755972909897e+02 0.0 
0.0 0.0 -7.398690372367e+01 
-5.785878107375e+01 1.024661560539e+01 0.0 
1.024661560539e+01 -1.508085807549e+02 0.0 
0.0 0.0 -5.730382701456e+01 
-6.493982842816e+01 8.473898601895e+00 0.0 
8.473898601895e+00 -1.666561872757e+02 0.0 
0.0 0.0 -6.437179372864e+01 
-1.044340729843e+02 7.982383141161e+00 0.0 
7.982383141161e+00 -2.342353773326e+02 0.0 
0.0 0.0 -9.900883076959e+01 
-1.075285389124e+02 2.107683752885e-01 0.0 
2.107683752885e-01 -2.748866712063e+02 0.0 
0.0 0.0 -1.197008269401e+02 
-1.028645558332e+02 -6.937555466967e+00 0.0 
-6.937555466967e+00 -2.043892455916e+02 0.0 
0.0 0.0 -8.761358790800e+01 
-1.437627017701e+02 4.179063815705e+00 0.0 
4.179063815705e+00 -3.324796053129e+02 0.0 
0.0 0.0 -1.424726921249e+02 
-6.096120835986e+01 -4.331433253488e+00 0.0 
-4.331433253488e+00 -1.639058583837e+02 0.0 
0.0 0.0 -6.401376687594e+01 
-9.270939995476e+01 9.645688847115e+00 0.0 
9.645688847115e+00 -2.051936332672e+02 0.0 
0.0 0.0 -8.639829443174e+01 
-1.066781004122e+02 6.294729085548e+00 0.0 
6.294729085548e+00 -2.341319489573e+02 0.0 
0.0 0.0 -9.971581463817e+01 
-8.633490380590e+01 1.064052555128e+01 0.0 
1.064052555128e+01 -1.856685380010e+02 0.0 
0.0 0.0 -7.845257712638e+01 
-1.683093245666e+02 5.863808724099e+00 0.0 
5.863808724099e+00 -3.927618553503e+02 0.0 
0.0 0.0 -1.679213539751e+02 
-1.671459009684e+02 5.228497543574e+00 0.0 
5.228497543574e+00 -3.906998654624e+02 0.0 
0.0 0.0 -1.669537299292e+02 
-1.594451056194e+02 6.215013758292e+00 0.0 
6.215013758292e+00 -3.707273965073e+02 0.0 
0.0 0.0 -1.586517506380e+02 
-1.110869285137e+02 -6.186970381202e+00 0.0 
-6.186970381202e+00 -2.592448036974e+02 0.0 
0.0 0.0 -1.130960942104e+02 
-1.409643175790e+02 3.451980571721e+00 0.0 
3.451980571721e+00 -3.238926241725e+02 0.0 
0.0 0.0 -1.390570825255e+02 
-6.129341199396e+01 1.637542993506e+01 0.0 
1.637542993506e+01 -1.206449527616e+02 0.0 
0.0 0.0 -5.161934470411e+01 
-7.168933537650e+01 7.318707074548e+00 0.0 
7.318707074548e+00 -1.826198084731e+02 0.0 
0.0 0.0 -7.235154103802e+01 
-4.576031738117e+01 8.214453825754e+00 0.0 
8.214453825754e+00 -1.338121453200e+02 0.0 
0.0 0.0 -5.097354663527e+01 
-8.570220842134e+01 8.666524555515e+00 0.0 
8.666524555515e+00 -1.761619473728e+02 0.0 
0.0 0.0 -7.332014719308e+01 
-1.022000480549e+02 3.066034929449e+00 0.0 
3.066034929449e+00 -2.243308518963e+02 0.0 
0.0 0.0 -9.755926998537e+01 
-1.183057833600e+02 2.295455472578e+00 0.0 
2.295455472578e+00 -2.655005100849e+02 0.0 
0.0 0.0 -1.147418880335e+02 
-1.613485425523e+02 1.093259786512e+00 0.0 
1.093259786512e+00 -3.829298752155e+02 0.0 
0.0 0.0 -1.628835253303e+02 
-1.415207556077e+02 4.818987068947e+00 0.0 
4.818987068947e+00 -3.298061795015e+02 0.0 
0.0 0.0 -1.409980805328e+02 
-1.127648069402e+02 4.977616490769e+00 0.0 
4.977616490769e+00 -2.540009615960e+02 0.0 
0.0 0.0 -1.096297305609e+02 
-1.151979674137e+02 6.109674292648e+00 0.0 
6.109674292648e+00 -2.627874906637e+02 0.0 
0.0 0.0 -1.126216693587e+02 
-5.156975922866e+01 7.690192116325e+00 0.0 
7.690192116325e+00 -1.465309711943e+02 0.0 
0.0 0.0 -5.721389739077e+01 
-3.500159418043e+01 -8.323083990681e+00 0.0 
-8.323083990681e+00 -4.710509229328e+01 0.0 
0.0 0.0 -1.986797337400e+01 
-8.948552583376e+01 1.236908476595e+01 0.0 
1.236908476595e+01 -2.078423891447e+02 0.0 
0.0 0.0 -9.026640092948e+01 
-9.874586493858e+01 8.668616793197e+00 0.0 
8.668616793197e+00 -2.243720134692e+02 0.0 
0.0 0.0 -9.407358195291e+01 
-8.943204190957e+01 1.026299582207e+01 0.0 
1.026299582207e+01 -2.134265978559e+02 0.0 
0.0 0.0 -9.041571797792e+01 
-4.321995842568e+01 1.866968447233e+01 0.0 
1.866968447233e+01 -6.680629965562e+01 0.0 
0.0 0.0 -2.933381653074e+01 
-1.064570728753e+02 1.764889592975e-01 0.0 
1.764889592975e-01 -2.378646853283e+02 0.0 
0.0 0.0 -1.028965274611e+02 
-4.720839558138e+01 -8.423610657646e+00 0.0 
-8.423610657646e+00 -8.446325923440e+01 0.0 
0.0 0.0 -3.518305719149e+01 
-6.584277017371e+01 1.622035292979e+01 0.0 
1.622035292979e+01 -1.468069662354e+02 0.0 
0.0 0.0 -6.031920824561e+01 
-1.709118329231e+02 1.122039992474e+00 0.0 
1.122039992474e+00 -4.001276101540e+02 0.0 
0.0 0.0 -1.709118329231e+02 
-1.175353926825e+02 4.220107878480e+00 0.0 
4.220107878480e+00 -2.955044815972e+02 0.0 
0.0 0.0 -1.239543348697e+02 
-1.028767796815e+02 4.060030933064e+00 0.0 
4.060030933064e+00 -2.261177011173e+02 0.0 
0.0 0.0 -9.790165237793e+01 
-2.049375869185e+01 -5.600838330641e-01 0.0 
-5.600838330641e-01 -5.845374328381e+01 0.0 
0.0 0.0 -2.189441165308e+01 
-9.935243959980e+01 9.553553977877e+00 0.0 
9.553553977877e+00 -2.151540960462e+02 0.0 
0.0 0.0 -9.130189274595e+01 
-8.481979141829e+01 1.035553588149e+01 0.0 
1.035553588149e+01 -2.041525257464e+02 0.0 
0.0 0.0 -8.603259094480e+01 
-1.156091166458e+02 7.078751532096e+00 0.0 
7.078751532096e+00 -2.634961585896e+02 0.0 
0.0 0.0 -1.133315825706e+02 
-1.686457864340e+02 5.709478693962e+00 0.0 
5.709478693962e+00 -3.953025085016e+02 0.0 
0.0 0.0 -1.687844884807e+02 
-1.003951577849e+02 4.916640373665e+00 0.0 
4.916640373665e+00 -2.158463104802e+02 0.0 
0.0 0.0 -9.251752435526e+01 
-1.108568683304e+02 7.589065913459e+00 0.0 
7.589065913459e+00 -2.534466768671e+02 0.0 
0.0 0.0 -1.082855936175e+02 
-9.955940593111e+01 -7.378258192630e+00 0.0 
-7.378258192630e+00 -2.038133277964e+02 0.0 
0.0 0.0 -8.613945701375e+01 
-1.403359975970e+02 3.940758448424e+00 0.0 
3.940758448424e+00 -3.231200633886e+02 0.0 
0.0 0.0 -1.386368182957e+02 
-1.104492194832e+02 -3.404887517759e+00 0.0 
-3.404887517759e+00 -2.640543166957e+02 0.0 
0.0 0.0 -1.131367259530e+02 
-1.688464014753e+02 5.808393866907e+00 0.0 
5.808393866907e+00 -3.957981741200e+02 0.0 
0.0 0.0 -1.689933726786e+02 
-1.679131840026e+02 5.639407525416e+00 0.0 
5.639407525416e+00 -3.931307626727e+02 0.0 
0.0 0.0 -1.679131840026e+02 
-1.666964417291e+02 4.945256602002e+00 0.0 
4.945256602002e+00 -3.902916973678e+02 0.0 
0.0 0.0 -1.666964417291e+02 
-1.667567817243e+02 5.348859927969e+00 0.0 
5.348859927969e+00 -3.904324906900e+02 0.0 
0.0 0.0 -1.667567817243e+02 
-1.189028228379e+02 5.596946165393e+00 0.0 
5.596946165393e+00 -2.726086268466e+02 0.0 
0.0 0.0 -1.170534349054e+02 
-1.405873429547e+02 5.607572850791e+00 0.0 
5.607572850791e+00 -3.235379575949e+02 0.0 
0.0 0.0 -1.388375901649e+02 
-1.464364594912e+02 4.693063649312e+00 0.0 
4.693063649312e+00 -3.409239186398e+02 0.0 
0.0 0.0 -1.458081134393e+02 
-8.782186635396e+01 1.192790527452e+01 0.0 
1.192790527452e+01 -1.858980099704e+02 0.0 
0.0 0.0 -8.001174729118e+01 
-8.506841800548e+01 1.042109975591e+01 0.0 
1.042109975591e+01 -1.754152959679e+02 0.0 
0.0 0.0 -7.508179845364e+01 
-9.863102386766e+01 -6.247474671838e+00 0.0 
-6.247474671838e+00 -1.917989998720e+02 0.0 
0.0 0.0 -8.169591238582e+01 
-1.440474272569e+02 5.927143505841e+00 0.0 
5.927143505841e+00 -3.329707661728e+02 0.0 
0.0 0.0 -1.427054580289e+02 
-1.688146715390e+02 5.366341892735e+00 0.0 
5.366341892735e+00 -3.967431025324e+02 0.0 
0.0 0.0 -1.692673322214e+02 
-1.444666197166e+02 3.749649925757e+00 0.0 
3.749649925757e+00 -3.331788339527e+02 0.0 
0.0 0.0 -1.428936361008e+02 
-1.084275477104e+02 4.563279440680e+00 0.0 
4.563279440680e+00 -2.767679301821e+02 0.0 
0.0 0.0 -1.178272635669e+02 
-1.447827637136e+02 5.397620362834e+00 0.0 
5.397620362834e+00 -3.336350620218e+02 0.0 
0.0 0.0 -1.431253477206e+02 
-1.232734345867e+02 6.758415780485e+00 0.0 
6.758415780485e+00 -2.991607823950e+02 0.0 
0.0 0.0 -1.263302650945e+02 
-9.687273568166e+01 1.175435348421e+01 0.0 
1.175435348421e+01 -2.161608360385e+02 0.0 
0.0 0.0 -9.300447377625e+01 
-8.644126618147e+01 7.386389676905e+00 0.0 
7.386389676905e+00 -1.761556839439e+02 0.0 
0.0 0.0 -7.399413496982e+01 
-5.619489218771e+01 1.852600774039e+01 0.0 
1.852600774039e+01 -1.255213026413e+02 0.0 
0.0 0.0 -5.046882678435e+01 
-1.594896390956e+02 3.405513141219e+00 0.0 
3.405513141219e+00 -3.717731046436e+02 0.0 
0.0 0.0 -1.589788231218e+02 
-8.292607946600e+01 1.370475017621e+01 0.0 
1.370475017621e+01 -1.771539780754e+02 0.0 
0.0 0.0 -7.653042261022e+01 
-1.552417780513e+02 5.091163125891e+00 0.0 
5.091163125891e+00 -3.660148729850e+02 0.0 
0.0 0.0 -1.559769953109e+02 
-9.613873561092e+01 -7.367303870981e+00 0.0 
-7.367303870981e+00 -1.912576463747e+02 0.0 
0.0 0.0 -8.060183547673e+01 
-6.675192701023e+01 -1.668480929561e+01 0.0 
-1.668480929561e+01 -1.476958753754e+02 0.0 
0.0 0.0 -6.100845462174e+01 
-1.629465164544e+02 6.507478394426e-01 0.0 
6.507478394426e-01 -3.839255604954e+02 0.0 
0.0 0.0 -1.636616230849e+02 
-7.007075963467e+01 1.612870248249e+01 0.0 
1.612870248249e+01 -1.526991402329e+02 0.0 
0.0 0.0 -6.428012420228e+01 
-1.683684102910e+02 5.714496080905e+00 0.0 
5.714496080905e+00 -3.941929573456e+02 0.0 
0.0 0.0 -1.683684102910e+02 
-1.603014730614e+02 5.083981670071e+00 0.0 
5.083981670071e+00 -3.743274660149e+02 0.0 
0.0 0.0 -1.599886817229e+02 
-1.119895411957e+02 7.309077977533e+00 0.0 
7.309077977533e+00 -2.530496860339e+02 0.0 
0.0 0.0 -1.071844639925e+02 
-2.331287525891e+01 -4.257790386901e+00 0.0 
-4.257790386901e+00 -2.794045948719e+01 0.0 
0.0 0.0 -1.303369971858e+01 
-1.689170583823e+02 5.636347088653e+00 0.0 
5.636347088653e+00 -3.954731362254e+02 0.0 
0.0 0.0 -1.689170583823e+02 
-1.628021135827e+02 1.823549606140e+00 0.0 
1.823549606140e+00 -3.836167772627e+02 0.0 
0.0 0.0 -1.635256672536e+02 
-6.215031150271e+01 -1.455255945776e+01 0.0 
-1.455255945776e+01 -1.455272443914e+02 0.0 
0.0 0.0 -5.750689817039e+01 
-1.116048669255e+02 3.597792257080e+00 0.0 
3.597792257080e+00 -2.854596368322e+02 0.0 
0.0 0.0 -1.210401424249e+02 
-1.692370660773e+02 3.451075295555e+00 0.0 
3.451075295555e+00 -3.985840466316e+02 0.0 
0.0 0.0 -1.699463338127e+02 
-1.008372944587e+01 -4.478040997798e-01 0.0 
-4.478040997798e-01 -9.206648952544e+00 0.0 
0.0 0.0 -6.357026662313e+00 
-9.004931454532e+01 1.301953044526e+01 0.0 
1.301953044526e+01 -1.968633473380e+02 0.0 
0.0 0.0 -8.498886960654e+01 
-1.148217961418e+02 6.813217068166e+00 0.0 
6.813217068166e+00 -2.625224222242e+02 0.0 
0.0 0.0 -1.117668107074e+02 
-1.089564815737e+02 7.983880258218e+00 0.0 
7.983880258218e+00 -2.436755768419e+02 0.0 
0.0 0.0 -1.024125922112e+02 
-1.094858354537e+02 6.870666197476e+00 0.0 
6.870666197476e+00 -2.435762898707e+02 0.0 
0.0 0.0 -1.034240341221e+02 
-6.032435367626e+01 1.767507748534e+01 0.0 
1.767507748534e+01 -1.287124524779e+02 0.0 
0.0 0.0 -5.270515683960e+01 
-1.694724213824e+02 5.351644589967e+00 0.0 
5.351644589967e+00 -3.967689832255e+02 0.0 
0.0 0.0 -1.694724213824e+02 
-7.836613857109e+01 6.359061614340e+00 0.0 
6.359061614340e+00 -1.985564521516e+02 0.0 
0.0 0.0 -8.051238365178e+01 
-3.199866750915e+01 3.004889321128e+00 0.0 
3.004889321128e+00 -1.232490392536e+02 0.0 
0.0 0.0 -4.943425744646e+01 
-1.630799090514e+02 -1.599421478298e+00 0.0 
-1.599421478298e+00 -3.822206985151e+02 0.0 
0.0 0.0 -1.631901822700e+02 
-1.806692474961e+01 -1.752514277592e+00 0.0 
-1.752514277592e+00 -2.603411912597e+01 0.0 
0.0 0.0 -1.041371571987e+01 
-9.407074370804e+01 5.598038523249e+00 0.0 
5.598038523249e+00 -1.964735596458e+02 0.0 
0.0 0.0 -8.292874751743e+01 
-4.395075519866e+01 -2.096287295375e+01 0.0 
-2.096287295375e+01 -1.004124438479e+02 0.0 
0.0 0.0 -4.001113553283e+01 
-9.703203220893e+01 4.180331144833e+00 0.0 
4.180331144833e+00 -2.066621904353e+02 0.0 
0.0 0.0 -8.892860535708e+01 
-1.693153194534e+02 1.862841246066e+00 0.0 
1.862841246066e+00 -3.988215512189e+02 0.0 
0.0 0.0 -1.700410612017e+02 
-1.700534151762e+02 4.743077466360e+00 0.0 
4.743077466360e+00 -3.981246354110e+02 0.0 
0.0 0.0 -1.700534151762e+02 
-1.123110488709e+02 5.707874370007e+00 0.0 
5.707874370007e+00 -2.534464211750e+02 0.0 
0.0 0.0 -1.088731501652e+02 
-4.074345941254e+01 -2.203851027433e+01 0.0 
-2.203851027433e+01 -7.146350521028e+01 0.0 
0.0 0.0 -2.731597265829e+01 
-3.078704221416e+01 6.259625150776e+00 0.0 
6.259625150776e+00 -1.261726805435e+02 0.0 
0.0 0.0 -4.944497183704e+01 
-5.096259010446e+01 -2.380624657165e+01 0.0 
-2.380624657165e+01 -8.961518542901e+01 0.0 
0.0 0.0 -3.627055512666e+01 
-1.431851081330e+02 -8.254729136079e-01 0.0 
-8.254729136079e-01 -3.380355607368e+02 0.0 
0.0 0.0 -1.439662006609e+02 
-1.027763701399e+02 3.234197418161e+00 0.0 
3.234197418161e+00 -2.247184283529e+02 0.0 
0.0 0.0 -9.784843954786e+01 
-1.066750152914e+02 5.835318562706e+00 0.0 
5.835318562706e+00 -2.359226053176e+02 0.0 
0.0 0.0 -1.023792861827e+02 
-1.704478390356e+02 4.025824087995e+00 0.0 
4.025824087995e+00 -3.990449577497e+02 0.0 
0.0 0.0 -1.704478390356e+02 
-1.022632848694e+02 3.099142693027e+00 0.0 
3.099142693027e+00 -2.242685378621e+02 0.0 
0.0 0.0 -9.755954681945e+01 
-1.672673732734e+02 4.880471170703e+00 0.0 
4.880471170703e+00 -3.904907597218e+02 0.0 
0.0 0.0 -1.669274398986e+02 
-1.275386679110e+02 4.828525646167e+00 0.0 
4.828525646167e+00 -3.080546367586e+02 0.0 
0.0 0.0 -1.302779914009e+02 
-1.144550589275e+02 1.937827649437e+00 0.0 
1.937827649437e+00 -2.559528949475e+02 0.0 
0.0 0.0 -1.107223861625e+02 
-6.754557542888e+01 1.435698065914e+01 0.0 
1.435698065914e+01 -1.349117009748e+02 0.0 
0.0 0.0 -5.873800814531e+01 
-1.127466358489e+02 2.399803808156e+00 0.0 
2.399803808156e+00 -2.861300942416e+02 0.0 
0.0 0.0 -1.235689305594e+02 
-4.453116247029e+01 1.558035453603e+01 0.0 
1.558035453603e+01 -1.188488320949e+02 0.0 
0.0 0.0 -4.347752138232e+01 
-1.704597227953e+02 3.267760678821e+00 0.0 
3.267760678821e+00 -3.990726865224e+02 0.0 
0.0 0.0 -1.704597227953e+02 
-1.673673333558e+02 5.428010173119e+00 0.0 
5.428010173119e+00 -3.918571111635e+02 0.0 
0.0 0.0 -1.673673333558e+02 
-1.668893393656e+02 5.236568308647e+00 0.0 
5.236568308647e+00 -3.907417918531e+02 0.0 
0.0 0.0 -1.668893393656e+02 
-1.156051288642e+02 -5.375105823297e+00 0.0 
-5.375105823297e+00 -2.663243598844e+02 0.0 
0.0 0.0 -1.152056392156e+02 
-9.380134601184e+01 -5.386427977954e+00 0.0 
-5.386427977954e+00 -1.792947484392e+02 0.0 
0.0 0.0 -7.576227954291e+01 
-9.457214225374e+01 9.189791572650e+00 0.0 
9.189791572650e+00 -2.148616697769e+02 0.0 
0.0 0.0 -9.075599502981e+01 
-1.137747122442e+02 -3.481534673490e+00 0.0 
-3.481534673490e+00 -2.717376170833e+02 0.0 
0.0 0.0 -1.152536987983e+02 
-1.704948019107e+02 2.474023561315e+00 0.0 
2.474023561315e+00 -3.991545377916e+02 0.0 
0.0 0.0 -1.704948019107e+02 
-6.157559863300e+01 1.465809924940e+01 0.0 
1.465809924940e+01 -1.434047772459e+02 0.0 
0.0 0.0 -5.607224138085e+01 
-6.741014636358e+01 -7.534137093670e+00 0.0 
-7.534137093670e+00 -1.724458350637e+02 0.0 
0.0 0.0 -6.852865259399e+01 
-7.114936373790e+01 -1.017007842450e+01 0.0 
-1.017007842450e+01 -1.756266736013e+02 0.0 
0.0 0.0 -7.134449594187e+01 
-1.187473996886e+02 1.784458508731e+00 0.0 
1.784458508731e+00 -2.666886980147e+02 0.0 
0.0 0.0 -1.152308293110e+02 
-1.695145610150e+02 5.113602195954e-01 0.0 
5.113602195954e-01 -3.995553267599e+02 0.0 
0.0 0.0 -1.703209663325e+02 
-4.954949667497e+01 -2.382360069669e+01 0.0 
-2.382360069669e+01 -6.414522458796e+01 0.0 
0.0 0.0 -2.838139124744e+01 
-1.706602647241e+02 1.567088789839e+00 0.0 
1.567088789839e+00 -3.995406176896e+02 0.0 
0.0 0.0 -1.706602647241e+02 
-6.854151609508e+01 -1.303589693816e+01 0.0 
-1.303589693816e+01 -1.626085451216e+02 0.0 
0.0 0.0 -6.616186045213e+01 
-1.688570155985e+02 5.722036065014e+00 0.0 
5.722036065014e+00 -3.953330363964e+02 0.0 
0.0 0.0 -1.688570155985e+02 
-1.464548949019e+02 6.386587367398e+00 0.0 
6.386587367398e+00 -3.413458980008e+02 0.0 
0.0 0.0 -1.459402378708e+02 
-7.650969615973e+00 8.150274310381e-01 0.0 
8.150274310381e-01 -9.178805756516e+00 0.0 
0.0 0.0 -3.766925323733e+00 
-9.158814652084e+01 1.331510553959e+01 0.0 
1.331510553959e+01 -2.076254125662e+02 0.0 
0.0 0.0 -8.969418750825e+01 
-1.455478884670e+02 4.961000723411e+00 0.0 
4.961000723411e+00 -3.346822537670e+02 0.0 
0.0 0.0 -1.436690426702e+02 
-1.692931972181e+02 5.550490166318e+00 0.0 
5.550490166318e+00 -3.963507935088e+02 0.0 
0.0 0.0 -1.692931972181e+02 
-1.184401881147e+02 7.309994246371e+00 0.0 
7.309994246371e+00 -2.727345724724e+02 0.0 
0.0 0.0 -1.169524281761e+02 
-1.307760104340e+02 4.127875720835e+00 0.0 
4.127875720835e+00 -3.164768634866e+02 0.0 
0.0 0.0 -1.337758621762e+02 
-5.105232958489e+01 2.009828706259e+01 0.0 
2.009828706259e+01 -1.068458627767e+02 0.0 
0.0 0.0 -4.367956255726e+01 
-1.552238897646e+02 1.442830158675e+00 0.0 
1.442830158675e+00 -3.681103519431e+02 0.0 
0.0 0.0 -1.566002725123e+02 
-7.171217196534e+01 -1.375917587534e+01 0.0 
-1.375917587534e+01 -1.649627890208e+02 0.0 
0.0 0.0 -6.911323015594e+01 
-7.424256667606e+01 -1.285495327783e+01 0.0 
-1.285495327783e+01 -1.774670610761e+02 0.0 
0.0 0.0 -7.468380610218e+01 
-4.686515426245e+01 -2.648986659362e+01 0.0 
-2.648986659362e+01 -4.860856731539e+01 0.0 
0.0 0.0 -2.606619778105e+01 
-1.697406606265e+02 5.081723157623e+00 0.0 
5.081723157623e+00 -3.973948747952e+02 0.0 
0.0 0.0 -1.697406606265e+02 
-5.093567302686e+01 1.242319087928e+01 0.0 
1.242319087928e+01 -1.349089263998e+02 0.0 
0.0 0.0 -5.049793376091e+01 
-1.399473675396e+02 5.205440251309e-01 0.0 
5.205440251309e-01 -3.369510148154e+02 0.0 
0.0 0.0 -1.426695147065e+02 
-1.109398862585e+02 3.452682073293e+00 0.0 
3.452682073293e+00 -2.460173247871e+02 0.0 
0.0 0.0 -1.066871633137e+02 
-6.891233406307e+01 -1.707639793506e+01 0.0 
-1.707639793506e+01 -1.371904042582e+02 0.0 
0.0 0.0 -5.953939990312e+01 
-7.006242033554e+01 -1.082514493145e+01 0.0 
-1.082514493145e+01 -1.736144663601e+02 0.0 
0.0 0.0 -7.098019046783e+01 
-1.141794162242e+02 7.525872785650e+00 0.0 
7.525872785650e+00 -2.631150414797e+02 0.0 
0.0 0.0 -1.127883373112e+02 
-1.704997195306e+02 3.708948580923e+00 0.0 
3.708948580923e+00 -3.991660122381e+02 0.0 
0.0 0.0 -1.704997195306e+02 
-9.649669042033e+01 -6.007570307231e+00 0.0 
-6.007570307231e+00 -1.868578591862e+02 0.0 
0.0 0.0 -7.877652187246e+01 
-1.226272801588e+02 -1.556950180742e+00 0.0 
-1.556950180742e+00 -2.958499928095e+02 0.0 
0.0 0.0 -1.257237716207e+02 
-1.075181024246e+02 9.169715019707e+00 0.0 
9.169715019707e+00 -2.441565516646e+02 0.0 
0.0 0.0 -1.034048512892e+02 
-1.090844027746e+02 -1.710406456285e+00 0.0 
-1.710406456285e+00 -2.724976157975e+02 0.0 
0.0 0.0 -1.193358092676e+02 
-7.225436118462e+01 -7.012130290768e+00 0.0 
-7.012130290768e+00 -1.838918760842e+02 0.0 
0.0 0.0 -7.477014288732e+01 
-1.165213731516e+02 -3.639584072138e+00 0.0 
-3.639584072138e+00 -2.775298331395e+02 0.0 
0.0 0.0 -1.198789792929e+02 
-1.026617560363e+02 8.207530542034e+00 0.0 
8.207530542034e+00 -2.339958339226e+02 0.0 
0.0 0.0 -9.790358241779e+01 
-1.253436026176e+02 7.231757164000e+00 0.0 
7.231757164000e+00 -2.998301338894e+02 0.0 
0.0 0.0 -1.271521209521e+02 
-1.226586565987e+02 1.956081461646e+00 0.0 
1.956081461646e+00 -3.039750192522e+02 0.0 
0.0 0.0 -1.294770728135e+02 
-1.033013237939e+02 1.039996610135e+01 0.0 
1.039996610135e+01 -2.351383363917e+02 0.0 
0.0 0.0 -1.006814346663e+02 
-9.507073970797e+01 -8.420338722240e+00 0.0 
-8.420338722240e+00 -1.960987976366e+02 0.0 
0.0 0.0 -8.341253832278e+01 
-6.603409237351e+01 1.457019507494e+01 0.0 
1.457019507494e+01 -1.497586870394e+02 0.0 
0.0 0.0 -6.042879217165e+01 
-9.219599643018e+01 -7.076684173119e+00 0.0 
-7.076684173119e+00 -1.786691545047e+02 0.0 
0.0 0.0 -7.506893190817e+01 
-1.265008576395e+02 6.068350766924e+00 0.0 
6.068350766924e+00 -3.079286192697e+02 0.0 
0.0 0.0 -1.299288430728e+02 
-1.012972040860e+02 2.682487481789e+00 0.0 
2.682487481789e+00 -2.601668712330e+02 0.0 
0.0 0.0 -1.137619444526e+02 
-1.694529650651e+02 1.489884854235e+00 0.0 
1.489884854235e+00 -3.992607409653e+02 0.0 
0.0 0.0 -1.702141118091e+02 
-1.490215274937e+02 5.234804978990e+00 0.0 
5.234804978990e+00 -3.437576592813e+02 0.0 
0.0 0.0 -1.474337560325e+02 
-6.299340375462e+01 -1.426056782365e+01 0.0 
-1.426056782365e+01 -1.215615352898e+02 0.0 
0.0 0.0 -5.172251204223e+01 
-1.705058542833e+02 1.998181819376e+00 0.0 
1.998181819376e+00 -3.991803266611e+02 0.0 
0.0 0.0 -1.705058542833e+02 
-1.616302665410e+02 1.601688672108e+00 0.0 
1.601688672108e+00 -3.830605344532e+02 0.0 
0.0 0.0 -1.630072402983e+02 
-9.582947483671e+01 1.086427922628e+01 0.0 
1.086427922628e+01 -2.264044770064e+02 0.0 
0.0 0.0 -9.854959855948e+01 
-3.239468836717e+01 -1.337224775717e+01 0.0 
-1.337224775717e+01 -3.528776101463e+01 0.0 
0.0 0.0 -1.405339381871e+01 
-1.699149521348e+02 -3.804435619943e-02 0.0 
-3.804435619943e-02 -3.997087510424e+02 0.0 
0.0 0.0 -1.704871109532e+02 
-1.481507499460e+02 5.601703638511e+00 0.0 
5.601703638511e+00 -3.427481629214e+02 0.0 
0.0 0.0 -1.468696738602e+02 
-6.594711370080e+01 -1.510134866068e+01 0.0 
-1.510134866068e+01 -1.477922061573e+02 0.0 
0.0 0.0 -6.008818681981e+01 
-1.708724545828e+02 6.983301549988e-01 0.0 
6.983301549988e-01 -4.000357273598e+02 0.0 
0.0 0.0 -1.708724545828e+02 
-1.203968911463e+02 -2.994915745314e+00 0.0 
-2.994915745314e+00 -2.848999922706e+02 0.0 
0.0 0.0 -1.215726081447e+02 
-8.964837195538e+01 8.807367217451e+00 0.0 
8.807367217451e+00 -1.855392424917e+02 0.0 
0.0 0.0 -7.861722952225e+01 
-1.096766021363e+02 4.554385395711e+00 0.0 
4.554385395711e+00 -2.448608266438e+02 0.0 
0.0 0.0 -1.059612286340e+02 
-9.736476034477e+01 3.819600609280e+00 0.0 
3.819600609280e+00 -2.481452522240e+02 0.0 
0.0 0.0 -1.076307828649e+02 
-1.095771007267e+02 -7.583820314454e+00 0.0 
-7.583820314454e+00 -2.474855682868e+02 0.0 
0.0 0.0 -1.079946823750e+02 
-1.129099337318e+02 -2.018989623675e-01 0.0 
-2.018989623675e-01 -2.825390035963e+02 0.0 
0.0 0.0 -1.225207643125e+02 
-1.253700706501e+02 5.605711805395e+00 0.0 
5.605711805395e+00 -2.844105174016e+02 0.0 
0.0 0.0 -1.225341764155e+02 
-9.746478620401e+01 6.588571685623e+00 0.0 
6.588571685623e+00 -2.056289908687e+02 0.0 
0.0 0.0 -8.639205150251e+01 
-1.282969214645e+02 2.311496131433e+00 0.0 
2.311496131433e+00 -3.142453054011e+02 0.0 
0.0 0.0 -1.324922946349e+02 
-1.136274591568e+02 6.465146220643e-01 0.0 
6.465146220643e-01 -2.546837229574e+02 0.0 
0.0 0.0 -1.100933546343e+02 
-9.861314860670e+01 -8.634975152969e+00 0.0 
-8.634975152969e+00 -1.967078788688e+02 0.0 
0.0 0.0 -8.514019371770e+01 
-1.166683280129e+02 1.292381791420e+00 0.0 
1.292381791420e+00 -2.937426061921e+02 0.0 
0.0 0.0 -1.261691527246e+02 
-7.654073112290e+01 -1.617806664040e+01 0.0 
-1.617806664040e+01 -1.690052256260e+02 0.0 
0.0 0.0 -7.296095345713e+01 
-1.209346882329e+02 -3.981848332919e+00 0.0 
-3.981848332919e+00 -2.707883766267e+02 0.0 
0.0 0.0 -1.157054498667e+02 
-8.941010027256e+00 -1.062530031288e+00 0.0 
-1.062530031288e+00 -8.856458290892e+00 0.0 
0.0 0.0 -4.167260902897e+00 
-7.025741415493e+01 1.430197851109e+01 0.0 
1.430197851109e+01 -1.573926633204e+02 0.0 
0.0 0.0 -6.521583416407e+01 
-7.239753593787e+01 -1.539661902848e+01 0.0 
-1.539661902848e+01 -1.648361525437e+02 0.0 
0.0 0.0 -6.979883703626e+01 
-1.036900898906e+02 -6.472538588739e+00 0.0 
-6.472538588739e+00 -2.116044385563e+02 0.0 
0.0 0.0 -8.925972923595e+01 
-9.996313904101e+01 1.077868294011e+01 0.0 
1.077868294011e+01 -2.359143091927e+02 0.0 
0.0 0.0 -1.019853529685e+02 
-1.171847908530e+02 -3.434585440551e+00 0.0 
-3.434585440551e+00 -2.835969434400e+02 0.0 
0.0 0.0 -1.198345202879e+02 
-1.157595088664e+02 3.084315376267e+00 0.0 
3.084315376267e+00 -2.580512412070e+02 0.0 
0.0 0.0 -1.117432250220e+02 
-7.031324577060e+01 -1.677406377415e+01 0.0 
-1.677406377415e+01 -1.502825717754e+02 0.0 
0.0 0.0 -6.396072485222e+01 
-1.709795360741e+02 2.055075793391e-01 0.0 
2.055075793391e-01 -4.002855841730e+02 0.0 
0.0 0.0 -1.709795360741e+02 
-1.126947316859e+02 7.663613418457e+00 0.0 
7.663613418457e+00 -2.627689801564e+02 0.0 
0.0 0.0 -1.120411525898e+02 
-1.074700312665e+02 -5.669631759033e+00 0.0 
-5.669631759033e+00 -2.193679260769e+02 0.0 
0.0 0.0 -9.328346680972e+01 
-1.094828910817e+02 7.746010090073e+00 0.0 
7.746010090073e+00 -2.531610262592e+02 0.0 
0.0 0.0 -1.075092927076e+02 
-1.066808194520e+02 -5.588678416998e+00 0.0 
-5.588678416998e+00 -2.121399627009e+02 0.0 
0.0 0.0 -8.992657928560e+01 
-1.450890393520e+01 -9.632347227395e-01 0.0 
-9.632347227395e-01 -9.502730550199e+00 0.0 
0.0 0.0 -7.777736324868e+00 
-1.138249021342e+02 5.834915377564e+00 0.0 
5.834915377564e+00 -2.551830870605e+02 0.0 
0.0 0.0 -1.103023967584e+02 
-9.234438616468e+01 -3.133233729365e+00 0.0 
-3.133233729365e+00 -1.717583801853e+02 0.0 
0.0 0.0 -7.360916055753e+01 
-8.307580959505e+00 -1.249622376356e-01 0.0 
-1.249622376356e-01 -8.910128841821e+00 0.0 
0.0 0.0 -3.441803389352e+00 
-1.042395491247e+02 -5.506917542346e+00 0.0 
-5.506917542346e+00 -2.070625372121e+02 0.0 
0.0 0.0 -8.808603982043e+01 
-1.254186567388e+02 -2.818496486889e+00 0.0 
-2.818496486889e+00 -3.027164187913e+02 0.0 
0.0 0.0 -1.280405226590e+02 
-1.438358134702e+02 7.240260096440e-01 0.0 
7.240260096440e-01 -3.303743169844e+02 0.0 
0.0 0.0 -1.418630391364e+02 
-1.038444035739e+02 -1.717340795195e+00 0.0 
-1.717340795195e+00 -2.653690139713e+02 0.0 
0.0 0.0 -1.160170804297e+02 
-1.072304373558e+02 -2.218235881364e+00 0.0 
-2.218235881364e+00 -2.708314856639e+02 0.0 
0.0 0.0 -1.181180878548e+02 
-1.009820449877e+02 5.131990556145e+00 0.0 
5.131990556145e+00 -2.178323515108e+02 0.0 
0.0 0.0 -9.473680444759e+01 
-9.433563325355e+01 2.547327179292e+00 0.0 
2.547327179292e+00 -2.058385022414e+02 0.0 
0.0 0.0 -8.965224064849e+01 
-1.606029040248e+02 4.441393790744e+00 0.0 
4.441393790744e+00 -3.735991036955e+02 0.0 
0.0 0.0 -1.598606023161e+02 
-1.062151228508e+02 7.940256215865e+00 0.0 
7.940256215865e+00 -2.435862161598e+02 0.0 
0.0 0.0 -1.028478853518e+02 
-1.227804480822e+01 3.580826560503e-01 0.0 
3.580826560503e-01 -7.087380482569e+00 0.0 
0.0 0.0 -4.732350209449e+00 
-3.779095076598e+01 -4.751794532076e+00 0.0 
-4.751794532076e+00 -7.039762703068e+01 0.0 
0.0 0.0 -2.809581569337e+01 
-2.822590540362e+01 -7.416096195282e+00 0.0 
-7.416096195282e+00 -2.984542323426e+01 0.0 
0.0 0.0 -1.381248200659e+01 
-6.651430771927e+01 -1.309170032804e+01 0.0 
-1.309170032804e+01 -1.268785729256e+02 0.0 
0.0 0.0 -5.494624348339e+01 
-1.434376958178e+02 6.620535416079e+00 0.0 
6.620535416079e+00 -3.383164166321e+02 0.0 
0.0 0.0 -1.441262337350e+02 
-1.442487409624e+02 2.409436583339e+00 0.0 
2.409436583339e+00 -3.308387143902e+02 0.0 
0.0 0.0 -1.421262366058e+02 
-1.378194067240e+02 -2.559972179315e+00 0.0 
-2.559972179315e+00 -3.256719119609e+02 0.0 
0.0 0.0 -1.386473956055e+02 
-7.402349584566e+01 -8.961917524141e+00 0.0 
-8.961917524141e+00 -1.419844184758e+02 0.0 
0.0 0.0 -6.061340120025e+01 
-1.250399978493e+02 -3.047397940446e+00 0.0 
-3.047397940446e+00 -2.715801130774e+02 0.0 
0.0 0.0 -1.160574735834e+02 
-1.435587519151e+02 -1.105581497359e+00 0.0 
-1.105581497359e+00 -3.443481678945e+02 0.0 
0.0 0.0 -1.459720759429e+02 
-4.077204628386e+01 1.717770042675e+00 0.0 
1.717770042675e+00 -1.328517100773e+02 0.0 
0.0 0.0 -5.209637820304e+01 
-9.199746438374e+01 -6.020685992130e-01 0.0 
-6.020685992130e-01 -1.720488748271e+02 0.0 
0.0 0.0 -7.387542330934e+01 
-7.703450523653e+01 -2.164508047395e+00 0.0 
-2.164508047395e+00 -1.405835555636e+02 0.0 
0.0 0.0 -6.009141015272e+01 
-1.695251522751e+02 -5.167717896751e-01 0.0 
-5.167717896751e-01 -3.991247684577e+02 0.0 
0.0 0.0 -1.701949762198e+02 
-1.708530411495e+02 -1.427113526380e-01 0.0 
-1.427113526380e-01 -3.999904293489e+02 0.0 
0.0 0.0 -1.708530411495e+02 
-1.009262530905e+02 -7.956274120901e-01 0.0 
-7.956274120901e-01 -1.914963124485e+02 0.0 
0.0 0.0 -8.239347925112e+01 
-1.102239822460e+02 -4.441390743608e+00 0.0 
-4.441390743608e+00 -2.199647451859e+02 0.0 
0.0 0.0 -9.349065461893e+01 
-1.093424475159e+02 -4.799301184180e+00 0.0 
-4.799301184180e+00 -2.525688104620e+02 0.0 
0.0 0.0 -1.081140319126e+02 
-1.484895874382e+02 -5.011589806828e-01 0.0 
-5.011589806828e-01 -3.551708283773e+02 0.0 
0.0 0.0 -1.506981247446e+02 
-4.427046624233e+01 -8.437145288537e+00 0.0 
-8.437145288537e+00 -7.887450051244e+01 0.0 
0.0 0.0 -3.375890968267e+01 
-1.387074247854e+02 -1.699208681022e+00 0.0 
-1.699208681022e+00 -3.332317967544e+02 0.0 
0.0 0.0 -1.411817664619e+02 
-1.875600405902e+01 4.109021382733e-03 0.0 
4.109021382733e-03 -4.275818027009e+01 0.0 
0.0 0.0 -1.566292848060e+01 
-1.024767336817e+02 -4.981587457303e+00 0.0 
-4.981587457303e+00 -1.997327508888e+02 0.0 
0.0 0.0 -8.418972004330e+01 
-1.102702646376e+02 -5.983596041438e+00 0.0 
-5.983596041438e+00 -2.245536157864e+02 0.0 
0.0 0.0 -9.557817611982e+01 
-1.178335664875e+01 3.067134021741e-02 0.0 
3.067134021741e-02 -2.545225601491e+01 0.0 
0.0 0.0 -8.586585769914e+00 
-9.661902871271e+01 -2.107899963800e+00 0.0 
-2.107899963800e+00 -1.812724590369e+02 0.0 
0.0 0.0 -7.806417059099e+01 
-1.484318769129e+02 3.669381516185e+00 0.0 
3.669381516185e+00 -3.431182307789e+02 0.0 
0.0 0.0 -1.470650323075e+02 
-1.240577413197e+01 2.649871747026e-01 0.0 
2.649871747026e-01 -7.423071888060e+00 0.0 
0.0 0.0 -4.863203019364e+00 
-9.498998356566e+01 2.854794203430e+00 0.0 
2.854794203430e+00 -2.065897045274e+02 0.0 
0.0 0.0 -9.007390642793e+01 
-9.569224191948e+01 3.249279749415e+00 0.0 
3.249279749415e+00 -2.073791584385e+02 0.0 
0.0 0.0 -9.052142010741e+01 
-1.170543795248e+02 1.085261853022e+00 0.0 
1.085261853022e+00 -2.925660839371e+02 0.0 
0.0 0.0 -1.253181914145e+02 
-7.544994703858e+01 4.008972736803e-01 0.0 
4.008972736803e-01 -1.404283797391e+02 0.0 
0.0 0.0 -6.003445016948e+01 
-6.882119756461e+01 -1.488725092916e+01 0.0 
-1.488725092916e+01 -1.503002011595e+02 0.0 
0.0 0.0 -6.322952308892e+01 
-5.619666019367e+01 1.780447702187e+01 0.0 
1.780447702187e+01 -1.132432795426e+02 0.0 
0.0 0.0 -4.607206333993e+01 
-1.500588088078e+02 -2.124694033041e+00 0.0 
-2.124694033041e+00 -3.523833566331e+02 0.0 
0.0 0.0 -1.503326496323e+02 
-1.622269361546e+02 5.180786775650e+00 0.0 
5.180786775650e+00 -3.813515776277e+02 0.0 
0.0 0.0 -1.626735541347e+02 
-1.395631243035e+02 3.133059244891e+00 0.0 
3.133059244891e+00 -3.185778340044e+02 0.0 
0.0 0.0 -1.370422874924e+02 
-6.770187317602e+01 1.340355229826e+01 0.0 
1.340355229826e+01 -1.354929629875e+02 0.0 
0.0 0.0 -5.777181735622e+01 
-3.109258796335e+01 -5.888803214498e+00 0.0 
-5.888803214498e+00 -4.901272435736e+01 0.0 
0.0 0.0 -2.126929111150e+01 
-9.743950929603e+01 6.833771129809e+00 0.0 
6.833771129809e+00 -2.065129843659e+02 0.0 
0.0 0.0 -8.792649111174e+01 
-9.424322452753e+01 1.475248944263e+00 0.0 
1.475248944263e+00 -2.057508668380e+02 0.0 
0.0 0.0 -8.959822740966e+01 
-9.407474534142e+01 1.537536789037e+00 0.0 
1.537536789037e+00 -2.056115795904e+02 0.0 
0.0 0.0 -8.950589747955e+01 
-8.244033463045e+00 -1.274374957955e-01 0.0 
-1.274374957955e-01 -9.231504988225e+00 0.0 
0.0 0.0 -3.434486442625e+00 
-1.184294544015e+01 -7.965869323415e-04 0.0 
-7.965869323415e-04 -2.534404906436e+01 0.0 
0.0 0.0 -8.518608654064e+00 
-1.504657812532e+01 8.207461696270e-02 0.0 
8.207461696270e-02 -4.164503207883e+01 0.0 
0.0 0.0 -1.481256356737e+01 
-5.787129233149e+01 -9.288193816688e+00 0.0 
-9.288193816688e+00 -1.080440432316e+02 0.0 
0.0 0.0 -4.569086089393e+01 
-1.476784685117e+01 3.398528596159e-01 0.0 
3.398528596159e-01 -2.576152645545e+01 0.0 
0.0 0.0 -9.553809500237e+00 
-1.046878784656e+02 -1.959702498710e+00 0.0 
-1.959702498710e+00 -2.018360591597e+02 0.0 
0.0 0.0 -8.687094508633e+01 
-4.691494168761e+01 -1.395132996893e+01 0.0 
-1.395132996893e+01 -6.000402459311e+01 0.0 
0.0 0.0 -3.264402524937e+01 
-6.817330166016e+01 -9.596646372021e+00 0.0 
-9.596646372021e+00 -1.289003127838e+02 0.0 
0.0 0.0 -5.457114778099e+01 
-1.205184833930e+02 3.539344488895e-01 0.0 
3.539344488895e-01 -2.717333395352e+02 0.0 
0.0 0.0 -1.172755468785e+02 
-9.520034934698e+01 2.373272048840e+00 0.0 
2.373272048840e+00 -2.062636846450e+02 0.0 
0.0 0.0 -9.003921019758e+01 
-1.481869448642e+02 6.541854194759e+00 0.0 
6.541854194759e+00 -3.478023385036e+02 0.0 
0.0 0.0 -1.483967850104e+02 
-1.213183127875e+02 -3.364018681555e+00 0.0 
-3.364018681555e+00 -2.910983240709e+02 0.0 
0.0 0.0 -1.233249910575e+02 
-1.131121541306e+02 1.321882471906e-01 0.0 
1.321882471906e-01 -2.539703127780e+02 0.0 
0.0 0.0 -1.097247400726e+02 
-8.152220116898e+01 -1.290977815251e+00 0.0 
-1.290977815251e+00 -1.502139449620e+02 0.0 
0.0 0.0 -6.441773064477e+01 
-1.789236817636e+01 2.295101609107e-01 0.0 
2.295101609107e-01 -4.247013382774e+01 0.0 
0.0 0.0 -1.487887753534e+01 
-1.651074730213e+02 2.756971253815e+00 0.0 
2.756971253815e+00 -3.865841037163e+02 0.0 
0.0 0.0 -1.651074730213e+02 
-1.660294400954e+02 2.946804492632e+00 0.0 
2.946804492632e+00 -3.870467981672e+02 0.0 
0.0 0.0 -1.655228714788e+02 
-1.104202127193e+02 1.361634986257e+00 0.0 
1.361634986257e+00 -2.455717158025e+02 0.0 
0.0 0.0 -1.063975785565e+02 
-9.395951007513e+01 1.792419127851e+00 0.0 
1.792419127851e+00 -2.054582493542e+02 0.0 
0.0 0.0 -8.942532782880e+01 
-8.170004302511e+01 -8.020637522318e-01 0.0 
-8.020637522318e-01 -1.527230093632e+02 0.0 
0.0 0.0 -6.534610946810e+01 
-1.659436219533e+02 2.274394353007e+00 0.0 
2.274394353007e+00 -3.865952895546e+02 0.0 
0.0 0.0 -1.653616734524e+02 
-6.278939888705e+01 -8.800443479208e+00 0.0 
-8.800443479208e+00 -1.205408441131e+02 0.0 
0.0 0.0 -5.096419381321e+01 
-9.549516594590e+01 2.875803794154e+00 0.0 
2.875803794154e+00 -2.065996344494e+02 0.0 
0.0 0.0 -9.022844011859e+01 
-9.465443985950e+01 2.084799480867e+00 0.0 
2.084799480867e+00 -2.056380046438e+02 0.0 
0.0 0.0 -8.968773335100e+01 
-9.386560141928e+01 4.379311674229e+00 0.0 
4.379311674229e+00 -1.971957268362e+02 0.0 
0.0 0.0 -8.436205325714e+01 
-1.666451603790e+02 4.744560936778e+00 0.0 
4.744560936778e+00 -3.901720408844e+02 0.0 
0.0 0.0 -1.666451603790e+02 
-1.666577072033e+02 2.496889089287e+00 0.0 
2.496889089287e+00 -3.872577044397e+02 0.0 
0.0 0.0 -1.657746234929e+02 
-1.470087057404e+01 3.319903555187e-01 0.0 
3.319903555187e-01 -2.555128743709e+01 0.0 
0.0 0.0 -9.444077997771e+00 
-8.641743128358e+00 -1.452815861484e-04 0.0 
-1.452815861484e-04 -9.345816607465e+00 0.0 
0.0 0.0 -3.627763427191e+00 
-3.399415099909e+01 -6.034359589223e+00 0.0 
-6.034359589223e+00 -5.839748523966e+01 0.0 
0.0 0.0 -2.509117086880e+01 
-1.066125683722e+02 -6.361626444349e+00 0.0 
-6.361626444349e+00 -2.239415094704e+02 0.0 
0.0 0.0 -9.457642905305e+01 
-1.564585632620e+02 -1.219775057992e+00 0.0 
-1.219775057992e+00 -3.632407547316e+02 0.0 
0.0 0.0 -1.555097953981e+02 
-9.607438074856e+01 -2.336832136626e+01 0.0 
-2.336832136626e+01 -7.618310052199e+01 0.0 
0.0 0.0 -5.195328621557e+01 
-1.375109266351e+02 1.150797656415e+00 0.0 
1.150797656415e+00 -3.141920262296e+02 0.0 
0.0 0.0 -1.351108858594e+02 
-2.927359059168e+01 -1.210161015939e+01 0.0 
-1.210161015939e+01 -1.201924038807e+01 0.0 
0.0 0.0 -1.238217350522e+01 
-1.158495782457e+02 -1.545540971624e+00 0.0 
-1.545540971624e+00 -2.895964936025e+02 0.0 
0.0 0.0 -1.238476769239e+02 
-1.720358512321e+01 -5.983308765440e+00 0.0 
-5.983308765440e+00 -1.345440291821e+01 0.0 
0.0 0.0 -8.088355848819e+00 
-4.897522208243e+01 -2.626681785412e+01 0.0 
-2.626681785412e+01 -3.407433252888e+01 0.0 
0.0 0.0 -2.520715991414e+01 
-1.117931573514e+02 -2.551720471434e+00 0.0 
-2.551720471434e+00 -2.789612611624e+02 0.0 
0.0 0.0 -1.199410236074e+02 
-1.523177150311e+02 -1.695145072534e+00 0.0 
-1.695145072534e+00 -3.539050372309e+02 0.0 
0.0 0.0 -1.514668256786e+02 
-1.202772656416e+02 8.957762202181e-01 0.0 
8.957762202181e-01 -2.705256304793e+02 0.0 
0.0 0.0 -1.168408688363e+02 
-1.000392456144e+02 7.360266025264e+00 0.0 
7.360266025264e+00 -2.156737974337e+02 0.0 
0.0 0.0 -9.155668880931e+01 
-1.167442639523e+01 1.528578323186e-01 0.0 
1.528578323186e-01 -2.535929486215e+01 0.0 
0.0 0.0 -8.612733483619e+00 
-1.277012943661e+02 -2.205465821872e+00 0.0 
-2.205465821872e+00 -2.793503958479e+02 0.0 
0.0 0.0 -1.195997512035e+02 
-1.642985399469e+02 1.011626768186e+00 0.0 
1.011626768186e+00 -3.846965932094e+02 0.0 
0.0 0.0 -1.642985399469e+02 
-1.656217707028e+02 1.664355851460e+00 0.0 
1.664355851460e+00 -3.859115098943e+02 0.0 
0.0 0.0 -1.650599841791e+02 
-9.477747081009e+01 1.965255810502e+00 0.0 
1.965255810502e+00 -2.058816941315e+02 0.0 
0.0 0.0 -8.979774948247e+01 
-1.205999068926e+02 -5.147380142051e-01 0.0 
-5.147380142051e-01 -3.000809853357e+02 0.0 
0.0 0.0 -1.277747529106e+02 
-1.651174733271e+02 2.230905472319e+00 0.0 
2.230905472319e+00 -3.866074377633e+02 0.0 
0.0 0.0 -1.651174733271e+02 
-1.299656428809e+02 5.490852497885e+00 0.0 
5.490852497885e+00 -3.164164735828e+02 0.0 
0.0 0.0 -1.335146349391e+02 
-1.707240959073e+01 1.334237851140e-02 0.0 
1.334237851140e-02 -4.124968555360e+01 0.0 
0.0 0.0 -1.418377481356e+01 
-1.468805922065e+01 2.640633189758e-01 0.0 
2.640633189758e-01 -2.554920390627e+01 0.0 
0.0 0.0 -9.502926328465e+00 
-1.146258943321e+01 2.009007269585e-01 0.0 
2.009007269585e-01 -2.468003616780e+01 0.0 
0.0 0.0 -8.520023628751e+00 
-9.194941077041e+01 -1.212085385332e+00 0.0 
-1.212085385332e+00 -1.708662604195e+02 0.0 
0.0 0.0 -7.356459985294e+01 
-1.692402198862e+02 -3.389118512740e-01 0.0 
-3.389118512740e-01 -3.954320079582e+02 0.0 
0.0 0.0 -1.690016683533e+02 
-1.572122649030e+02 9.996994012424e-01 0.0 
9.996994012424e-01 -3.643353667920e+02 0.0 
0.0 0.0 -1.560642895085e+02 
-8.756245382488e+00 1.853798342288e-01 0.0 
1.853798342288e-01 -9.288187321992e+00 0.0 
0.0 0.0 -3.601407191866e+00 
-1.053535915550e+02 1.658173047619e-01 0.0 
1.658173047619e-01 -2.020722821762e+02 0.0 
0.0 0.0 -8.710933019536e+01 
-1.692484820545e+02 -6.670465174837e-01 0.0 
-6.670465174837e-01 -3.962464581272e+02 0.0 
0.0 0.0 -1.692484820545e+02 
-1.691001229712e+02 -1.168990712623e+00 0.0 
-1.168990712623e+00 -3.953378576777e+02 0.0 
0.0 0.0 -1.689313941947e+02 
-1.697111883093e+02 -8.071287111866e-01 0.0 
-8.071287111866e-01 -3.986677306657e+02 0.0 
0.0 0.0 -1.701136756925e+02 
-1.296397015299e+02 -6.971968102914e-01 0.0 
-6.971968102914e-01 -2.946219841443e+02 0.0 
0.0 0.0 -1.268785057023e+02 
-1.416880301235e+02 9.193286989874e-01 0.0 
9.193286989874e-01 -3.244526410186e+02 0.0 
0.0 0.0 -1.394422013426e+02 
-1.685406868080e+02 -8.041239681954e-01 0.0 
-8.041239681954e-01 -3.945949358854e+02 0.0 
0.0 0.0 -1.685406868080e+02 
-1.690803919574e+02 -8.995273113086e-01 0.0 
-8.995273113086e-01 -3.958542479005e+02 0.0 
0.0 0.0 -1.690803919574e+02 
-1.376717292822e+02 -5.046603164034e-01 0.0 
-5.046603164034e-01 -3.143443270323e+02 0.0 
0.0 0.0 -1.352048168944e+02 
-1.332501287843e+01 -1.918858665571e-01 0.0 
-1.918858665571e-01 -6.422839871299e+00 0.0 
0.0 0.0 -4.892280796480e+00 
-9.325227290040e+01 9.287782783245e-01 0.0 
9.287782783245e-01 -2.044124178179e+02 0.0 
0.0 0.0 -8.889940721549e+01 
-9.446545919317e+01 1.561385850122e+00 0.0 
1.561385850122e+00 -2.059414079687e+02 0.0 
0.0 0.0 -8.972206014856e+01 
-8.701891355680e+00 7.187717675861e-02 0.0 
7.187717675861e-02 -9.296894962750e+00 0.0 
0.0 0.0 -3.610774076472e+00 
-1.700486652403e+02 -1.299181132787e+00 0.0 
-1.299181132787e+00 -3.981135522275e+02 0.0 
0.0 0.0 -1.700486652403e+02 
-1.691435361063e+02 -1.188136463782e+00 0.0 
-1.188136463782e+00 -3.977248053106e+02 0.0 
0.0 0.0 -1.696605024251e+02 
-1.698241987692e+02 -1.058816318909e+00 0.0 
-1.058816318909e+00 -3.975897971282e+02 0.0 
0.0 0.0 -1.698241987692e+02 
-1.300848440174e+01 2.263914628486e-01 0.0 
2.263914628486e-01 -7.600228959485e+00 0.0 
0.0 0.0 -5.038915683043e+00 
-1.266573013006e+01 1.890442843040e-01 0.0 
1.890442843040e-01 -7.730203297755e+00 0.0 
0.0 0.0 -4.945374719787e+00 
-1.705481320233e+02 -5.378379512147e-01 0.0 
-5.378379512147e-01 -3.992789747209e+02 0.0 
0.0 0.0 -1.705481320233e+02 
-1.702935502406e+02 -7.609256389033e-01 0.0 
-7.609256389033e-01 -3.986849505614e+02 0.0 
0.0 0.0 -1.702935502406e+02 
-1.254458641777e+02 9.790799986275e-01 0.0 
9.790799986275e-01 -2.846351848856e+02 0.0 
0.0 0.0 -1.226243147190e+02 
-9.247769749539e+01 2.877091869645e-01 0.0 
2.877091869645e-01 -2.036765445685e+02 0.0 
0.0 0.0 -8.844627261917e+01 
-1.338071751528e+02 9.643518471728e-01 0.0 
9.643518471728e-01 -3.045467940440e+02 0.0 
0.0 0.0 -1.311061907590e+02 
-1.092949583381e+02 9.468524135413e-01 0.0 
9.468524135413e-01 -2.450419844218e+02 0.0 
0.0 0.0 -1.059010828280e+02 
-9.253025773773e+01 1.134873963626e-01 0.0 
1.134873963626e-01 -2.036707923296e+02 0.0 
0.0 0.0 -8.846031502021e+01 
-1.211853045609e+01 2.688825251516e-01 0.0 
2.688825251516e-01 -7.461066566951e+00 0.0 
0.0 0.0 -4.731866494055e+00 
-1.124518602733e+01 7.359890514383e-01 0.0 
7.359890514383e-01 -7.553307319722e+00 0.0 
0.0 0.0 -5.239548004116e+00 
-1.006140426586e+01 1.153902216337e+00 0.0 
1.153902216337e+00 -6.744523841061e+00 0.0 
0.0 0.0 -4.641778432075e+00 
-8.468584958421e+00 1.514700463350e+00 0.0 
1.514700463350e+00 -7.127344113726e+00 0.0 
0.0 0.0 -4.278778721644e+00 
-1.090657438976e+02 -1.202371510442e+00 0.0 
-1.202371510442e+00 -2.124929268330e+02 0.0 
0.0 0.0 -9.159625441558e+01 
-1.010278025104e+02 -1.174671818710e+00 0.0 
-1.174671818710e+00 -1.916045374206e+02 0.0 
0.0 0.0 -8.261372420342e+01 
-7.077787072576e+00 7.723576347643e-02 0.0 
7.723576347643e-02 -9.455962694989e+00 0.0 
0.0 0.0 -3.798064212351e+00 
-1.273977485288e+02 -1.049595688222e+00 0.0 
-1.049595688222e+00 -2.730631756972e+02 0.0 
0.0 0.0 -1.174889935391e+02 
-8.271731973187e+00 5.309618424527e-02 0.0 
5.309618424527e-02 -9.618570447652e+00 0.0 
0.0 0.0 -4.870207984594e+00 
-1.658767428016e+02 4.028159122543e+00 0.0 
4.028159122543e+00 -3.883790665371e+02 0.0 
0.0 0.0 -1.658767428016e+02 
-1.647389644513e+02 1.891112019577e+00 0.0 
1.891112019577e+00 -3.857242503865e+02 0.0 
0.0 0.0 -1.647389644513e+02 
-1.651809695206e+02 3.067488577653e+00 0.0 
3.067488577653e+00 -3.867555955480e+02 0.0 
0.0 0.0 -1.651809695206e+02 
-2.310644791129e+01 -1.502415056072e+00 0.0 
-1.502415056072e+00 -6.839500159748e+01 0.0 
0.0 0.0 -2.705043485263e+01 
-6.948750450245e+01 -1.328981015772e+00 0.0 
-1.328981015772e+00 -1.296094249691e+02 0.0 
0.0 0.0 -5.522884117574e+01 
-1.644070043509e+02 1.586318520364e+00 0.0 
1.586318520364e+00 -3.849496768188e+02 0.0 
0.0 0.0 -1.644070043509e+02 
-1.446839245583e+02 -8.310550002586e-01 0.0 
-8.310550002586e-01 -3.338613170619e+02 0.0 
0.0 0.0 -1.431635724861e+02 
-1.652254576799e+02 1.337099086904e+00 0.0 
1.337099086904e+00 -3.868594012531e+02 0.0 
0.0 0.0 -1.652254576799e+02 
-1.527005163389e+02 -8.670106504930e-01 0.0 
-8.670106504930e-01 -3.539231198762e+02 0.0 
0.0 0.0 -1.515870908645e+02 
-1.607372691184e+02 -9.914103044647e-01 0.0 
-9.914103044647e-01 -3.740413547099e+02 0.0 
0.0 0.0 -1.600335871485e+02 
-9.667924532792e+01 2.392471099461e-01 0.0 
2.392471099461e-01 -1.813222526976e+02 0.0 
0.0 0.0 -7.812004894034e+01 
-1.655054361989e+02 1.926838571110e+00 0.0 
1.926838571110e+00 -3.857223354134e+02 0.0 
0.0 0.0 -1.649683314837e+02 
-1.654852161078e+02 1.011351664532e+00 0.0 
1.011351664532e+00 -3.860020826715e+02 0.0 
0.0 0.0 -1.650461896338e+02 
-1.482178367783e+02 6.565641433986e-01 0.0 
6.565641433986e-01 -3.428468329034e+02 0.0 
0.0 0.0 -1.469194009045e+02 
-1.564595007870e+02 6.440111843750e-01 0.0 
6.440111843750e-01 -3.633919179474e+02 0.0 
0.0 0.0 -1.555554256203e+02 
-1.326427502356e+02 -8.348466490595e-01 0.0 
-8.348466490595e-01 -2.953244024833e+02 0.0 
0.0 0.0 -1.267233636378e+02 
-2.097452157272e+01 -3.608769887512e+00 0.0 
-3.608769887512e+00 -1.005917129002e+01 0.0 
0.0 0.0 -9.886584041699e+00 
-9.775125917622e+01 -4.242214337420e+00 0.0 
-4.242214337420e+00 -1.873804497922e+02 0.0 
0.0 0.0 -7.907531374295e+01 
-1.469012551174e+01 4.792017362862e-01 0.0 
4.792017362862e-01 -2.507545803072e+01 0.0 
0.0 0.0 -9.410855673665e+00 
-1.505713475901e+02 -7.515999159858e-01 0.0 
-7.515999159858e-01 -3.528006338547e+02 0.0 
0.0 0.0 -1.506115944335e+02 
-1.003558894860e+02 -6.355683923800e+00 0.0 
-6.355683923800e+00 -1.992142305897e+02 0.0 
0.0 0.0 -8.398675869860e+01 
-1.404545052799e+02 -2.011625808617e+00 0.0 
-2.011625808617e+00 -3.259835750927e+02 0.0 
0.0 0.0 -1.395314241118e+02 
-5.084840557328e+01 -7.651101020400e+00 0.0 
-7.651101020400e+00 -9.910288685658e+01 0.0 
0.0 0.0 -4.111198727873e+01 
-1.724308783436e+01 -8.714604658578e-01 0.0 
-8.714604658578e-01 -4.148833866210e+01 0.0 
0.0 0.0 -1.572254416550e+01 
-1.490180924475e+02 -2.732276398022e-01 0.0 
-2.732276398022e-01 -3.459710597345e+02 0.0 
0.0 0.0 -1.480967456546e+02 
-1.061862829018e+02 -3.853914481854e+00 0.0 
-3.853914481854e+00 -2.077491272865e+02 0.0 
0.0 0.0 -8.844544222846e+01 
-8.712187366561e+01 -2.207954836958e+00 0.0 
-2.207954836958e+00 -1.606781055404e+02 0.0 
0.0 0.0 -6.888902867167e+01 
-1.410292040276e+02 -3.880092279025e-01 0.0 
-3.880092279025e-01 -3.265961074014e+02 0.0 
0.0 0.0 -1.398875934287e+02 
-1.485366292751e+02 -5.568521948463e-02 0.0 
-5.568521948463e-02 -3.423022273700e+02 0.0 
0.0 0.0 -1.468516569935e+02 
-8.687392325189e+01 3.162190849509e-01 0.0 
3.162190849509e-01 -1.608539526146e+02 0.0 
0.0 0.0 -6.911919430002e+01 
-1.310065745858e+02 -8.691240077875e-01 0.0 
-8.691240077875e-01 -3.148903880395e+02 0.0 
0.0 0.0 -1.333690887876e+02 
-1.191771767335e+02 -3.930816401615e+00 0.0 
-3.930816401615e+00 -2.750562765229e+02 0.0 
0.0 0.0 -1.172045662615e+02 
-1.301161913378e+02 -2.387987971968e+00 0.0 
-2.387987971968e+00 -2.946195192130e+02 0.0 
0.0 0.0 -1.263066290207e+02 
-1.329420833053e+02 -1.876467153821e+00 0.0 
-1.876467153821e+00 -3.032056254954e+02 0.0 
0.0 0.0 -1.300546888394e+02 
-7.667030658991e+01 6.676253743273e+00 0.0 
6.676253743273e+00 -1.944735846277e+02 0.0 
0.0 0.0 -7.937684924086e+01 
-9.385675593264e+01 7.163293785815e+00 0.0 
7.163293785815e+00 -1.967097058058e+02 0.0 
0.0 0.0 -8.293672175072e+01 
-9.486939947853e+01 8.998965034540e+00 0.0 
8.998965034540e+00 -2.236653660296e+02 0.0 
0.0 0.0 -9.454710680245e+01 
-1.241127358728e+02 -3.442640293360e+00 0.0 
-3.442640293360e+00 -2.785978629699e+02 0.0 
0.0 0.0 -1.192037663892e+02 
-1.446948332042e+02 -6.339836158786e-02 0.0 
-6.339836158786e-02 -3.349197045707e+02 0.0 
0.0 0.0 -1.434843613325e+02 
-1.354967712820e+02 -1.537584996685e+00 0.0 
-1.537584996685e+00 -3.120596325835e+02 0.0 
0.0 0.0 -1.338669211597e+02 
-5.852343739553e+01 -1.273300297603e+01 0.0 
-1.273300297603e+01 -1.069946744690e+02 0.0 
0.0 0.0 -4.602285320462e+01 
-1.483491981481e+02 4.081078250110e-01 0.0 
4.081078250110e-01 -3.413639140617e+02 0.0 
0.0 0.0 -1.465139336629e+02 
-1.402308002808e+02 3.410826422662e-01 0.0 
3.410826422662e-01 -3.212838340708e+02 0.0 
0.0 0.0 -1.380543903055e+02 
-1.037522534108e+02 -1.523981537752e-01 0.0 
-1.523981537752e-01 -2.306842076933e+02 0.0 
0.0 0.0 -9.993093833123e+01 
-1.258785293030e+02 -3.094319460063e+00 0.0 
-3.094319460063e+00 -2.904165232755e+02 0.0 
0.0 0.0 -1.241030865779e+02 
-1.272007891813e+02 -2.896512140706e+00 0.0 
-2.896512140706e+00 -2.865655502580e+02 0.0 
0.0 0.0 -1.227467481661e+02 
-1.488983661125e+02 1.689248621215e+00 0.0 
1.689248621215e+00 -3.431599919182e+02 0.0 
0.0 0.0 -1.472175074092e+02 
-1.445086613502e+02 2.435228839100e-01 0.0 
2.435228839100e-01 -3.319746812346e+02 0.0 
0.0 0.0 -1.425450027755e+02 
-1.212375345996e+02 -4.509840272440e+00 0.0 
-4.509840272440e+00 -2.686378326809e+02 0.0 
0.0 0.0 -1.139813372938e+02 
-1.526808987526e+02 -3.258546860729e-02 0.0 
-3.258546860729e-02 -3.542738073778e+02 0.0 
0.0 0.0 -1.516864118391e+02 
-1.390520804107e+02 1.447102899282e+00 0.0 
1.447102899282e+00 -3.180761465036e+02 0.0 
0.0 0.0 -1.367384680743e+02 
-1.363738783079e+02 1.453758810738e-01 0.0 
1.453758810738e-01 -3.120979636585e+02 0.0 
0.0 0.0 -1.339053268045e+02 
-1.546822386833e+02 -4.553092663647e-01 0.0 
-4.553092663647e-01 -3.616473601829e+02 0.0 
0.0 0.0 -1.544988796598e+02 
-1.485310925465e+02 2.236796206697e+00 0.0 
2.236796206697e+00 -3.418747632719e+02 0.0 
0.0 0.0 -1.467217567455e+02 
-1.285978285996e+02 2.183802265019e+00 0.0 
2.183802265019e+00 -2.910951202702e+02 0.0 
0.0 0.0 -1.255078846609e+02 
-1.268871501568e+02 -1.512864142013e+00 0.0 
-1.512864142013e+00 -3.036217595514e+02 0.0 
0.0 0.0 -1.287526729124e+02 
-5.188257852639e+01 -4.497559328112e+00 0.0 
-4.497559328112e+00 -1.002337414337e+02 0.0 
0.0 0.0 -4.071692956690e+01 
-5.689117377694e+01 -1.376866884995e+01 0.0 
-1.376866884995e+01 -1.010965216606e+02 0.0 
0.0 0.0 -4.333649415275e+01 
-2.602779812707e+01 -1.031098151698e+00 0.0 
-1.031098151698e+00 -4.859172564595e+01 0.0 
0.0 0.0 -1.857602384719e+01 
-3.263977924513e+01 -1.349992419012e+01 0.0 
-1.349992419012e+01 -3.465054886227e+01 0.0 
0.0 0.0 -1.673147637641e+01 
-1.448542178983e+02 1.897297641808e+00 0.0 
1.897297641808e+00 -3.323521546993e+02 0.0 
0.0 0.0 -1.427619117793e+02 
-1.478529110854e+02 -1.516780971364e+00 0.0 
-1.516780971364e+00 -3.426059343215e+02 0.0 
0.0 0.0 -1.467376536221e+02 
-2.324400217361e+01 -5.436005511756e+00 0.0 
-5.436005511756e+00 -2.842196084024e+01 0.0 
0.0 0.0 -1.225414937881e+01 
-1.474769702235e+02 6.092158618141e+00 0.0 
6.092158618141e+00 -3.419551461834e+02 0.0 
0.0 0.0 -1.464296349221e+02 
-1.078863232090e+02 1.693193839048e-01 0.0 
1.693193839048e-01 -2.399266863439e+02 0.0 
0.0 0.0 -1.039439028659e+02 
-1.376224219099e+02 -7.091916925167e-01 0.0 
-7.091916925167e-01 -3.187638377027e+02 0.0 
0.0 0.0 -1.365158778838e+02 
-1.395790362265e+02 -1.679787379517e+00 0.0 
-1.679787379517e+00 -3.227747321263e+02 0.0 
0.0 0.0 -1.383061305059e+02 
-7.244185050286e+01 -1.446546246480e+01 0.0 
-1.446546246480e+01 -1.553139457701e+02 0.0 
0.0 0.0 -6.617031163333e+01 
-1.402425731992e+02 2.627131410792e-02 0.0 
2.627131410792e-02 -3.234075402642e+02 0.0 
0.0 0.0 -1.386950340390e+02 
-1.041282540780e+02 1.999518745333e+00 0.0 
1.999518745333e+00 -2.307770549793e+02 0.0 
0.0 0.0 -1.000715927172e+02 
-1.222040218526e+02 3.437151875938e+00 0.0 
3.437151875938e+00 -3.040942074013e+02 0.0 
0.0 0.0 -1.276229961345e+02 
-1.583404582182e+02 -2.138457118240e+00 0.0 
-2.138457118240e+00 -3.697806499240e+02 0.0 
0.0 0.0 -1.580363324427e+02 
-4.836557708453e+01 -2.607864899229e+00 0.0 
-2.607864899229e+00 -9.629092330805e+01 0.0 
0.0 0.0 -3.982224211903e+01 
-1.551288365490e+02 -6.912910146146e-01 0.0 
-6.912910146146e-01 -3.645408922089e+02 0.0 
0.0 0.0 -1.555009186274e+02 
-1.328714566583e+02 1.927251046793e+00 0.0 
1.927251046793e+00 -3.019186076725e+02 0.0 
0.0 0.0 -1.300370192992e+02 
-5.719077037392e+01 -3.841956602563e+00 0.0 
-3.841956602563e+00 -1.086513905534e+02 0.0 
0.0 0.0 -4.502019845502e+01 
-6.383672458395e+01 -1.491141878462e+01 0.0 
-1.491141878462e+01 -1.210704063864e+02 0.0 
0.0 0.0 -5.254755296818e+01 
-1.147260168670e+02 -2.895465578148e+00 0.0 
-2.895465578148e+00 -2.319400587006e+02 0.0 
0.0 0.0 -9.979152527498e+01 
-1.195783382345e+02 7.131821387346e-01 0.0 
7.131821387346e-01 -2.692744857764e+02 0.0 
0.0 0.0 -1.162558472033e+02 
-8.310124557792e+01 -7.793771245061e+00 0.0 
-7.793771245061e+00 -1.579349651538e+02 0.0 
0.0 0.0 -6.653479613339e+01 
-1.370778748206e+02 1.801214341336e+00 0.0 
1.801214341336e+00 -3.126498774967e+02 0.0 
0.0 0.0 -1.345183256952e+02 
-1.247717807060e+02 1.962336888128e+00 0.0 
1.962336888128e+00 -2.815254106058e+02 0.0 
0.0 0.0 -1.214891573935e+02 
-1.110130230101e+02 -4.858178336963e+00 0.0 
-4.858178336963e+00 -2.273143256402e+02 0.0 
0.0 0.0 -9.716194052706e+01 
-1.346071519459e+02 -2.891179037524e-01 0.0 
-2.891179037524e-01 -3.035056749835e+02 0.0 
0.0 0.0 -1.302264479361e+02 
-1.369580637741e+02 -3.306283538064e-01 0.0 
-3.306283538064e-01 -3.151995213351e+02 0.0 
0.0 0.0 -1.351318503758e+02 
-1.322797866877e+02 1.869969516457e-01 0.0 
1.869969516457e-01 -3.013133422704e+02 0.0 
0.0 0.0 -1.296779386874e+02 
-3.791962187085e+01 -2.858231097957e+00 0.0 
-2.858231097957e+00 -8.412557809550e+01 0.0 
0.0 0.0 -3.328818356892e+01 
-1.079208749412e+02 -4.585351648176e+00 0.0 
-4.585351648176e+00 -2.152624224904e+02 0.0 
0.0 0.0 -9.210165907820e+01 
-1.429223630405e+02 2.458404914804e+00 0.0 
2.458404914804e+00 -3.433592624221e+02 0.0 
0.0 0.0 -1.454844876388e+02 
-1.365023050039e+02 2.280955524093e+00 0.0 
2.280955524093e+00 -3.110092270321e+02 0.0 
0.0 0.0 -1.338534596108e+02 
-1.004953585894e+02 -5.157776486752e+00 0.0 
-5.157776486752e+00 -1.946038105665e+02 0.0 
0.0 0.0 -8.286600524562e+01 
-1.243241936943e+02 -3.596979697051e+00 0.0 
-3.596979697051e+00 -2.760550697093e+02 0.0 
0.0 0.0 -1.175685533187e+02 
-1.515784712385e+02 -5.406993349528e-01 0.0 
-5.406993349528e-01 -3.571360152865e+02 0.0 
0.0 0.0 -1.522143459575e+02 
-1.282820086947e+02 4.725764198736e-01 0.0 
4.725764198736e-01 -2.906751635962e+02 0.0 
0.0 0.0 -1.252871516873e+02 
-3.056787465376e+01 -9.842202417299e+00 0.0 
-9.842202417299e+00 -1.238290325639e+02 0.0 
0.0 0.0 -4.862916547346e+01 
-2.039427909941e+01 1.006135015776e+00 0.0 
1.006135015776e+00 -4.638742226806e+01 0.0 
0.0 0.0 -1.801250575284e+01 
-4.898802480038e+01 8.142597494751e-01 0.0 
8.142597494751e-01 -1.443438209120e+02 0.0 
0.0 0.0 -5.611930800765e+01 
-1.441763569156e+02 -1.812059559643e+00 0.0 
-1.812059559643e+00 -3.343217854576e+02 0.0 
0.0 0.0 -1.431494427120e+02 
-1.238676721404e+02 6.132142644948e-01 0.0 
6.132142644948e-01 -2.799586119948e+02 0.0 
0.0 0.0 -1.207478852406e+02 
-1.220353975120e+02 -5.799841625811e-01 0.0 
-5.799841625811e-01 -2.526683763184e+02 0.0 
0.0 0.0 -1.088008050537e+02 
-1.116885703503e+02 5.737454227583e-01 0.0 
5.737454227583e-01 -2.495412748793e+02 0.0 
0.0 0.0 -1.079689535689e+02 
-1.441309169122e+02 1.921854536428e-01 0.0 
1.921854536428e-01 -3.448601024216e+02 0.0 
0.0 0.0 -1.462973058001e+02 
-1.143678228020e+02 -4.069857532565e+00 0.0 
-4.069857532565e+00 -2.353645496189e+02 0.0 
0.0 0.0 -1.009234975839e+02 
-1.358837418735e+02 -2.024731186260e+00 0.0 
-2.024731186260e+00 -3.145246465819e+02 0.0 
0.0 0.0 -1.347225165366e+02 
-4.805970055331e+01 -1.602792026712e+00 0.0 
-1.602792026712e+00 -1.012039434532e+02 0.0 
0.0 0.0 -4.149140759782e+01 
-1.544261072412e+02 -2.326168879024e+00 0.0 
-2.326168879024e+00 -3.616487237984e+02 0.0 
0.0 0.0 -1.544224493119e+02 
-1.135050460575e+02 -3.414430535105e+00 0.0 
-3.414430535105e+00 -2.279290053193e+02 0.0 
0.0 0.0 -9.742767217235e+01 
-5.361908699905e+01 -9.200085593677e-01 0.0 
-9.200085593677e-01 -1.094736772676e+02 0.0 
0.0 0.0 -4.554674050074e+01 
-1.097882294618e+02 -2.822952364639e+00 0.0 
-2.822952364639e+00 -2.159290981137e+02 0.0 
0.0 0.0 -9.243045905595e+01 
-8.772581540465e+01 -6.591077650527e+00 0.0 
-6.591077650527e+00 -1.661293953290e+02 0.0 
0.0 0.0 -6.958610863575e+01 
-6.732066431210e+01 -7.272706448265e+00 0.0 
-7.272706448265e+00 -1.292119656215e+02 0.0 
0.0 0.0 -5.423515072875e+01 
-1.205892021184e+02 -2.482133442013e+00 0.0 
-2.482133442013e+00 -2.517711085439e+02 0.0 
0.0 0.0 -1.082899477802e+02 
-8.975630519420e+00 -3.048683022699e-02 0.0 
-3.048683022699e-02 -9.528862753206e+00 0.0 
0.0 0.0 -3.919804792647e+00 
-8.301683211945e+00 -2.032418932573e-02 0.0 
-2.032418932573e-02 -9.990780130341e+00 0.0 
0.0 0.0 -4.491931649559e+00 
-1.302171158084e+02 -1.465542909596e+00 0.0 
-1.465542909596e+00 -2.872830128720e+02 0.0 
0.0 0.0 -1.231512884730e+02 
-4.208663387286e+01 -2.126401937809e+00 0.0 
-2.126401937809e+00 -9.291092056489e+01 0.0 
0.0 0.0 -3.741272648396e+01 
-1.299530292835e+02 -2.009655619170e+00 0.0 
-2.009655619170e+00 -2.912390336197e+02 0.0 
0.0 0.0 -1.245595467454e+02 
-1.272287619413e+02 -2.771143038853e+00 0.0 
-2.771143038853e+00 -2.835910247559e+02 0.0 
0.0 0.0 -1.210804885047e+02 
-9.163307677239e+01 -8.475718892088e+00 0.0 
-8.475718892088e+00 -1.834218198466e+02 0.0 
0.0 0.0 -7.775264111228e+01 
-6.322538870243e+01 -1.586405026917e+01 0.0 
-1.586405026917e+01 -1.322563975334e+02 0.0 
0.0 0.0 -5.408544287703e+01 
-1.437401558209e+02 2.974752949823e+00 0.0 
2.974752949823e+00 -3.292896649252e+02 0.0 
0.0 0.0 -1.415089462238e+02 
-3.855847570313e+01 2.195627043024e+01 0.0 
2.195627043024e+01 -1.004909700288e+02 0.0 
0.0 0.0 -4.138674685262e+01 
-9.221903253817e+01 -5.492889147570e+00 0.0 
-5.492889147570e+00 -1.745626698053e+02 0.0 
0.0 0.0 -7.365266831772e+01 
-1.486513889525e+02 6.900307318216e-01 0.0 
6.900307318216e-01 -3.550837102759e+02 0.0 
0.0 0.0 -1.507205297685e+02 
-3.721879782113e+01 -3.544546142727e+00 0.0 
-3.544546142727e+00 -7.930754887063e+01 0.0 
0.0 0.0 -3.166205062302e+01 
-1.163657367895e+02 2.121744091127e+00 0.0 
2.121744091127e+00 -2.606359579058e+02 0.0 
0.0 0.0 -1.127005084086e+02 
-1.083164929685e+02 2.053521697270e+00 0.0 
2.053521697270e+00 -2.404701154334e+02 0.0 
0.0 0.0 -1.042359825206e+02 
-3.924248984751e+01 -5.396514520283e+00 0.0 
-5.396514520283e+00 -7.808619522732e+01 0.0 
0.0 0.0 -3.137361221211e+01 
-1.476101219075e+02 -6.015118167360e-01 0.0 
-6.015118167360e-01 -3.492568256479e+02 0.0 
0.0 0.0 -1.486600842666e+02 
-1.317656216856e+02 2.983234068672e+00 0.0 
2.983234068672e+00 -2.987717089656e+02 0.0 
0.0 0.0 -1.287611991954e+02 
-4.707763948290e+01 -5.047535610785e+00 0.0 
-5.047535610785e+00 -9.197537490865e+01 0.0 
0.0 0.0 -3.723109274385e+01 
-1.472125670369e+02 3.242081568832e+00 0.0 
3.242081568832e+00 -3.381649397061e+02 0.0 
0.0 0.0 -1.452132520229e+02 
-1.465782975824e+02 1.717224060959e+00 0.0 
1.717224060959e+00 -3.375554112883e+02 0.0 
0.0 0.0 -1.448401126612e+02 
-5.146038314633e+01 -3.848992201678e+00 0.0 
-3.848992201678e+00 -1.046504540459e+02 0.0 
0.0 0.0 -4.180969871699e+01 
-7.155910991709e+01 1.243299246314e+01 0.0 
1.243299246314e+01 -1.439095523182e+02 0.0 
0.0 0.0 -6.140952402325e+01 
-5.508537557489e+01 -6.711289791089e+00 0.0 
-6.711289791089e+00 -1.079478375465e+02 0.0 
0.0 0.0 -4.452586548542e+01 
-1.347486017900e+02 -8.403256740181e-01 0.0 
-8.403256740181e-01 -3.069864926605e+02 0.0 
0.0 0.0 -1.315428062939e+02 
-1.175702906807e+02 -3.268844178521e+00 0.0 
-3.268844178521e+00 -2.436077129953e+02 0.0 
0.0 0.0 -1.046538236339e+02 
-1.477554213052e+02 4.092568607467e+00 0.0 
4.092568607467e+00 -3.422079192786e+02 0.0 
0.0 0.0 -1.465890021751e+02 
-1.432104564525e+02 1.262642213283e+00 0.0 
1.262642213283e+00 -3.287765901044e+02 0.0 
0.0 0.0 -1.411961139671e+02 
-1.324745458522e+02 -1.362109418730e+00 0.0 
-1.362109418730e+00 -2.990600772923e+02 0.0 
0.0 0.0 -1.280541716687e+02 
-1.291709123009e+02 -2.692318534824e+00 0.0 
-2.692318534824e+00 -2.983459064544e+02 0.0 
0.0 0.0 -1.276554097682e+02 
-4.712244361082e+01 -7.994889054942e+00 0.0 
-7.994889054942e+00 -8.746080460531e+01 0.0 
0.0 0.0 -3.684316607265e+01 
-1.323944682610e+02 -2.357747810368e+00 0.0 
-2.357747810368e+00 -3.063928359839e+02 0.0 
0.0 0.0 -1.312361912735e+02 
-1.312409925994e+02 1.256827887133e+00 0.0 
1.256827887133e+00 -2.982599211426e+02 0.0 
0.0 0.0 -1.284502741226e+02 
-1.193491815349e+02 -1.546186165250e+00 0.0 
-1.546186165250e+00 -2.442769578642e+02 0.0 
0.0 0.0 -1.050228417315e+02 
-1.243685398763e+02 2.318231449471e+00 0.0 
2.318231449471e+00 -2.804557234912e+02 0.0 
0.0 0.0 -1.210472790102e+02 
-1.359558585133e+02 2.811867108571e+00 0.0 
2.811867108571e+00 -3.094298667515e+02 0.0 
0.0 0.0 -1.332157175794e+02 
-9.352638383865e+01 6.402143500953e+00 0.0 
6.402143500953e+00 -2.354167655324e+02 0.0 
0.0 0.0 -1.014709561977e+02 
-1.396160324688e+02 9.118027808886e-01 0.0 
9.118027808886e-01 -3.196317990743e+02 0.0 
0.0 0.0 -1.373743494629e+02 
-1.044736276015e+02 -4.214139768456e+00 0.0 
-4.214139768456e+00 -2.041025218442e+02 0.0 
0.0 0.0 -8.739613005685e+01 
-1.165467704418e+02 -2.431170620343e+00 0.0 
-2.431170620343e+00 -2.360011518221e+02 0.0 
0.0 0.0 -1.012335039821e+02 
-8.257970832791e+01 -5.968395195815e+00 0.0 
-5.968395195815e+00 -1.539625031513e+02 0.0 
0.0 0.0 -6.416308319525e+01 
-8.495725246262e+01 -1.185825588227e+01 0.0 
-1.185825588227e+01 -1.687159356889e+02 0.0 
0.0 0.0 -7.335874690669e+01 
-1.275599321712e+02 9.172753734835e-01 0.0 
9.172753734835e-01 -2.890887013629e+02 0.0 
0.0 0.0 -1.245945900602e+02 
-1.076079290533e+02 -8.566593586605e+00 0.0 
-8.566593586605e+00 -2.351475782113e+02 0.0 
0.0 0.0 -1.025983012613e+02 
-5.978200701764e+01 -5.567853540688e+00 0.0 
-5.567853540688e+00 -1.167638077454e+02 0.0 
0.0 0.0 -4.787187135529e+01 
-2.812203443139e+01 -1.763459280086e+00 0.0 
-1.763459280086e+00 -5.814490997647e+01 0.0 
0.0 0.0 -2.245674761780e+01 
-1.281072036498e+02 2.633399568991e+00 0.0 
2.633399568991e+00 -2.896082638918e+02 0.0 
0.0 0.0 -1.249146402625e+02 
-6.211333299723e+01 -8.309133004470e+00 0.0 
-8.309133004470e+00 -1.162777992103e+02 0.0 
0.0 0.0 -4.885194983396e+01 
-1.551067078286e+02 -2.094862112250e+00 0.0 
-2.094862112250e+00 -3.643303313851e+02 0.0 
0.0 0.0 -1.554311117641e+02 
-1.318323028630e+02 7.619814015491e-01 0.0 
7.619814015491e-01 -2.997809614149e+02 0.0 
0.0 0.0 -1.290839792834e+02 
-1.366045844685e+02 -2.361421097181e+00 0.0 
-2.361421097181e+00 -3.179733267879e+02 0.0 
0.0 0.0 -1.359733733769e+02 
-1.627415663097e+02 1.371429748854e+00 0.0 
1.371429748854e+00 -3.836056211562e+02 0.0 
0.0 0.0 -1.635041562398e+02 
-1.015885058339e+02 -3.103673275113e+00 0.0 
-3.103673275113e+00 -1.954898465438e+02 0.0 
0.0 0.0 -8.332990597195e+01 
-5.511964530346e+01 -6.863485337348e+00 0.0 
-6.863485337348e+00 -1.036921041553e+02 0.0 
0.0 0.0 -4.311373393551e+01 
-3.599603631499e+01 -6.176180987554e+00 0.0 
-6.176180987554e+00 -6.611701952764e+01 0.0 
0.0 0.0 -2.792481193578e+01 
-1.317856436922e+02 -1.702605456541e+00 0.0 
-1.702605456541e+00 -3.030829478829e+02 0.0 
0.0 0.0 -1.294403119002e+02 
-1.202243163260e+02 2.953198300320e-01 0.0 
2.953198300320e-01 -2.709265017263e+02 0.0 
0.0 0.0 -1.169452454157e+02 
-2.418629044796e+01 -3.251804377941e+00 0.0 
-3.251804377941e+00 -4.698385785811e+01 0.0 
0.0 0.0 -1.893528057360e+01 
-8.363167069550e+01 -5.641674864681e+00 0.0 
-5.641674864681e+00 -1.586936203859e+02 0.0 
0.0 0.0 -6.677003397412e+01 
-3.832151752713e+01 -3.223155857424e-01 0.0 
-3.223155857424e-01 -8.948253891188e+01 0.0 
0.0 0.0 -3.651623596981e+01 
-1.201944685284e+02 2.416283953276e+00 0.0 
2.416283953276e+00 -2.698188883028e+02 0.0 
0.0 0.0 -1.166040070493e+02 
-8.824627716378e+01 -4.396297307997e+00 0.0 
-4.396297307997e+00 -1.670003357801e+02 0.0 
0.0 0.0 -6.984198122886e+01 
-1.225469865170e+02 -3.519911591521e+00 0.0 
-3.519911591521e+00 -2.826894742781e+02 0.0 
0.0 0.0 -1.206430218040e+02 
-8.252620355070e+01 -3.387508581158e+00 0.0 
-3.387508581158e+00 -1.548384935115e+02 0.0 
0.0 0.0 -6.495901545932e+01 
-1.406853296151e+02 2.125576490475e+00 0.0 
2.125576490475e+00 -3.218101500626e+02 0.0 
0.0 0.0 -1.383486439033e+02 
-7.295590131119e+01 -8.310189107081e+00 0.0 
-8.310189107081e+00 -1.370611905311e+02 0.0 
0.0 0.0 -5.774840341232e+01 
-1.307823923005e+02 -1.504953946349e+00 0.0 
-1.504953946349e+00 -3.071099524730e+02 0.0 
0.0 0.0 -1.309257750675e+02 
-5.568202219424e+01 -1.254999499401e+01 0.0 
-1.254999499401e+01 -1.000886317441e+02 0.0 
0.0 0.0 -4.279359109058e+01 
-1.289434105035e+02 -2.305719759394e+00 0.0 
-2.305719759394e+00 -2.954346660275e+02 0.0 
0.0 0.0 -1.259844900599e+02 
-1.131507674583e+02 -2.002905304922e+00 0.0 
-2.002905304922e+00 -2.246487924394e+02 0.0 
0.0 0.0 -9.652627104341e+01 
-1.327368382874e+02 -2.665690401351e+00 0.0 
-2.665690401351e+00 -3.100891847354e+02 0.0 
0.0 0.0 -1.324478069068e+02 
-7.078091088045e+01 -3.497875274569e+00 0.0 
-3.497875274569e+00 -1.833284625476e+02 0.0 
0.0 0.0 -7.325385549453e+01 
-4.286938839901e+01 -3.263177341293e+00 0.0 
-3.263177341293e+00 -8.839240191165e+01 0.0 
0.0 0.0 -3.596581442666e+01 
-1.127222469994e+02 1.838890004373e+00 0.0 
1.838890004373e+00 -2.514741715474e+02 0.0 
0.0 0.0 -1.088589255640e+02 
-1.175177029896e+02 -4.600828681164e-01 0.0 
-4.600828681164e-01 -2.905349101608e+02 0.0 
0.0 0.0 -1.250734380427e+02 
-9.495185771379e+01 1.114066515379e+01 0.0 
1.114066515379e+01 -2.058151876926e+02 0.0 
0.0 0.0 -8.825596774065e+01 
-1.205843574512e+02 2.054758784925e+00 0.0 
2.054758784925e+00 -2.711629250436e+02 0.0 
0.0 0.0 -1.171241847484e+02 
-6.226765220627e+01 -1.570143262030e+01 0.0 
-1.570143262030e+01 -1.168373809901e+02 0.0 
0.0 0.0 -5.038795149894e+01 
-1.228993723884e+02 1.609997752740e+00 0.0 
1.609997752740e+00 -2.771843741061e+02 0.0 
0.0 0.0 -1.196251239483e+02 
-3.269811525584e+01 -8.150231915701e-01 0.0 
-8.150231915701e-01 -8.062157823755e+01 0.0 
0.0 0.0 -3.229201824128e+01 
-1.470428834594e+02 -7.316719726205e-01 0.0 
-7.316719726205e-01 -3.457217694431e+02 0.0 
0.0 0.0 -1.474293958707e+02 
-1.216849200103e+02 6.692755733059e-01 0.0 
6.692755733059e-01 -3.007952301131e+02 0.0 
0.0 0.0 -1.281878941710e+02 
-1.277798828784e+02 3.837231188086e+00 0.0 
3.837231188086e+00 -3.143289808435e+02 0.0 
0.0 0.0 -1.322326591166e+02 
-1.515083473288e+02 3.142712722935e+00 0.0 
3.142712722935e+00 -3.494600910029e+02 0.0 
0.0 0.0 -1.498905314995e+02 
-1.141196600582e+02 -6.510830946076e+00 0.0 
-6.510830946076e+00 -2.543621683640e+02 0.0 
0.0 0.0 -1.101104600115e+02 
-4.277521584500e+01 -5.681163427943e+00 0.0 
-5.681163427943e+00 -8.338232095246e+01 0.0 
0.0 0.0 -3.416032967957e+01 
-1.227857448150e+02 -3.725515786824e+00 0.0 
-3.725515786824e+00 -2.805950864576e+02 0.0 
0.0 0.0 -1.190654679312e+02 
-1.509836621285e+02 -2.092773837239e+00 0.0 
-2.092773837239e+00 -3.565397494047e+02 0.0 
0.0 0.0 -1.518570234599e+02 
-7.309439486055e+01 -1.715184590163e+01 0.0 
-1.715184590163e+01 -1.536118331753e+02 0.0 
0.0 0.0 -6.646861197270e+01 
-1.345523248349e+02 -1.157975089889e+00 0.0 
-1.157975089889e+00 -3.108676787880e+02 0.0 
0.0 0.0 -1.329574980232e+02 
-1.322893553805e+02 2.482290165893e+00 0.0 
2.482290165893e+00 -3.002632575376e+02 0.0 
0.0 0.0 -1.293657838754e+02 
-5.971596098009e+01 -1.649997567306e+01 0.0 
-1.649997567306e+01 -1.291048701973e+02 0.0 
0.0 0.0 -5.096079838450e+01 
-1.259604416124e+02 -2.970244557340e+00 0.0 
-2.970244557340e+00 -2.879453121848e+02 0.0 
0.0 0.0 -1.225477185010e+02 
-1.118372694582e+02 2.739827384377e+00 0.0 
2.739827384377e+00 -2.485238259916e+02 0.0 
0.0 0.0 -1.077083286349e+02 
-6.248566944289e+01 -2.154451235388e+00 0.0 
-2.154451235388e+00 -1.218524331388e+02 0.0 
0.0 0.0 -5.073669350728e+01 
-7.884875133384e+01 -7.148943082500e+00 0.0 
-7.148943082500e+00 -1.503952889671e+02 0.0 
0.0 0.0 -6.369752920600e+01 
-1.041961749951e+02 7.754357759462e+00 0.0 
7.754357759462e+00 -2.433046542307e+02 0.0 
0.0 0.0 -1.018183489215e+02 
-1.289594634882e+02 -2.955861055594e+00 0.0 
-2.955861055594e+00 -3.022972465299e+02 0.0 
0.0 0.0 -1.289770130054e+02 
-8.831935142963e+01 9.284173536924e+00 0.0 
9.284173536924e+00 -1.856561749878e+02 0.0 
0.0 0.0 -7.757997501917e+01 
-1.003614645059e+02 8.012535606827e+00 0.0 
8.012535606827e+00 -2.336612588077e+02 0.0 
0.0 0.0 -9.840454186150e+01 
-1.270665972615e+02 1.425747548853e+00 0.0 
1.425747548853e+00 -2.876890108702e+02 0.0 
0.0 0.0 -1.240266824395e+02 
-1.158537278122e+02 3.762315385732e-01 0.0 
3.762315385732e-01 -2.601281659494e+02 0.0 
0.0 0.0 -1.123945681285e+02 
-1.150234103971e+02 1.390120213574e+00 0.0 
1.390120213574e+00 -2.574187349152e+02 0.0 
0.0 0.0 -1.113326435937e+02 
-1.113963938316e+02 -3.658859523669e+00 0.0 
-3.658859523669e+00 -2.238547944307e+02 0.0 
0.0 0.0 -9.610006770220e+01 
-1.436672747817e+02 -5.120946250855e-01 0.0 
-5.120946250855e-01 -3.416296997961e+02 0.0 
0.0 0.0 -1.451890923733e+02 
-1.193876522157e+02 -4.543238758944e+00 0.0 
-4.543238758944e+00 -2.733880093575e+02 0.0 
0.0 0.0 -1.168752267289e+02 
-1.120690643990e+02 2.208217069413e+00 0.0 
2.208217069413e+00 -2.499707218295e+02 0.0 
0.0 0.0 -1.082119358685e+02 
-1.516623490500e+02 6.519347321080e+00 0.0 
6.519347321080e+00 -3.526880618779e+02 0.0 
0.0 0.0 -1.509051232783e+02 
-1.332592772738e+02 4.143384005239e+00 0.0 
4.143384005239e+00 -3.246228497579e+02 0.0 
0.0 0.0 -1.369646381095e+02 
-1.252176993573e+02 -3.231407401240e+00 0.0 
-3.231407401240e+00 -2.945757388495e+02 0.0 
0.0 0.0 -1.255380314620e+02 
-1.354422130938e+02 1.096059242513e+00 0.0 
1.096059242513e+00 -3.089240699305e+02 0.0 
0.0 0.0 -1.329098849073e+02 
-8.971095436751e+01 -9.758680196310e+00 0.0 
-9.758680196310e+00 -1.759601581974e+02 0.0 
0.0 0.0 -7.621092126542e+01 
-8.469559633810e+01 -8.495446469456e+00 0.0 
-8.495446469456e+00 -1.631101324248e+02 0.0 
0.0 0.0 -6.995262808857e+01 
-4.199505234967e+01 -5.315138709893e+00 0.0 
-5.315138709893e+00 -8.681706236109e+01 0.0 
0.0 0.0 -3.467838105908e+01 
-1.239177032043e+02 -2.432467494028e+00 0.0 
-2.432467494028e+00 -2.921578569335e+02 0.0 
0.0 0.0 -1.239993852496e+02 
-8.938874385570e+01 -6.812241718134e+00 0.0 
-6.812241718134e+00 -1.711518356543e+02 0.0 
0.0 0.0 -7.292170255551e+01 
-1.239194385751e+02 2.806308140625e+00 0.0 
2.806308140625e+00 -2.789426435469e+02 0.0 
0.0 0.0 -1.204586246366e+02 
-1.197478081276e+02 2.989755659587e+00 0.0 
2.989755659587e+00 -2.683592964304e+02 0.0 
0.0 0.0 -1.160321313674e+02 
-9.342417038655e+01 2.665766751742e+00 0.0 
2.665766751742e+00 -2.399382346258e+02 0.0 
0.0 0.0 -1.033777414359e+02 
-7.341653987199e+01 -1.063483974347e+01 0.0 
-1.063483974347e+01 -1.417147203245e+02 0.0 
0.0 0.0 -6.034774113966e+01 
-7.001367790110e+01 7.752782550783e+00 0.0 
7.752782550783e+00 -1.793726359887e+02 0.0 
0.0 0.0 -7.173227748595e+01 
-7.825570847876e+01 -9.170383728569e+00 0.0 
-9.170383728569e+00 -1.497897298609e+02 0.0 
0.0 0.0 -6.342930155858e+01 
-8.286278246628e+01 -9.738838012564e+00 0.0 
-9.738838012564e+00 -1.625692755779e+02 0.0 
0.0 0.0 -6.910482567663e+01 
-5.073583771523e+01 -7.604085863374e+00 0.0 
-7.604085863374e+00 -9.558071102112e+01 0.0 
0.0 0.0 -3.989017762554e+01 
-1.395755594012e+02 -3.655401515672e-01 0.0 
-3.655401515672e-01 -3.338773547407e+02 0.0 
0.0 0.0 -1.416358742426e+02 
-9.347784311961e+01 -9.140223480707e+00 0.0 
-9.140223480707e+00 -2.014064186738e+02 0.0 
0.0 0.0 -8.633296410583e+01 
-1.401237673022e+02 2.624591577481e+00 0.0 
2.624591577481e+00 -3.201359871326e+02 0.0 
0.0 0.0 -1.376779263304e+02 
-9.617969683972e+01 -8.454773835207e+00 0.0 
-8.454773835207e+00 -2.137499180607e+02 0.0 
0.0 0.0 -9.209821789215e+01 
-1.174917536746e+02 -3.547579613536e+00 0.0 
-3.547579613536e+00 -2.793124439930e+02 0.0 
0.0 0.0 -1.186412593003e+02 
-1.075223479160e+02 -5.856611653566e+00 0.0 
-5.856611653566e+00 -2.406872426365e+02 0.0 
0.0 0.0 -1.027447704791e+02 
-9.610190787731e+01 8.237807310386e+00 0.0 
8.237807310386e+00 -2.312918718371e+02 0.0 
0.0 0.0 -9.838035846062e+01 
-4.657397806912e+01 -4.764593098644e+00 0.0 
-4.764593098644e+00 -9.580092729590e+01 0.0 
0.0 0.0 -3.815997762044e+01 
-1.467972051994e+02 -1.930843978124e+00 0.0 
-1.930843978124e+00 -3.485619828762e+02 0.0 
0.0 0.0 -1.482077564227e+02 
-1.525840878599e+02 -1.333096993119e-01 0.0 
-1.333096993119e-01 -3.616337505663e+02 0.0 
0.0 0.0 -1.538653515279e+02 
-1.215182628151e+02 6.027887182222e+00 0.0 
6.027887182222e+00 -2.905317408384e+02 0.0 
0.0 0.0 -1.232150010960e+02 
-8.687991892434e+01 -9.880720780568e+00 0.0 
-9.880720780568e+00 -1.755326855429e+02 0.0 
0.0 0.0 -7.475848347895e+01 
-1.126541385284e+02 -4.525168446726e+00 0.0 
-4.525168446726e+00 -2.600496680990e+02 0.0 
0.0 0.0 -1.102930006563e+02 
-1.233315972974e+02 1.040983862838e+00 0.0 
1.040983862838e+00 -2.783995224471e+02 0.0 
0.0 0.0 -1.201193359234e+02 
-9.436382832988e+01 -7.850448861703e+00 0.0 
-7.850448861703e+00 -1.838755753061e+02 0.0 
0.0 0.0 -7.905653827787e+01 
-8.820824848500e+01 1.042986026717e+01 0.0 
1.042986026717e+01 -1.958917346305e+02 0.0 
0.0 0.0 -8.273913225330e+01 
-7.228320060911e+01 -5.736000239169e+00 0.0 
-5.736000239169e+00 -1.378853761852e+02 0.0 
0.0 0.0 -5.745254957726e+01 
-6.730548232829e+01 -1.675122909243e+01 0.0 
-1.675122909243e+01 -1.340296656969e+02 0.0 
0.0 0.0 -5.755669339874e+01 
-9.389105033267e+01 -1.071834288686e+01 0.0 
-1.071834288686e+01 -1.891829215130e+02 0.0 
0.0 0.0 -8.245262289938e+01 
-6.689984140807e+01 -7.240063520957e+00 0.0 
-7.240063520957e+00 -1.244951379912e+02 0.0 
0.0 0.0 -5.207311760517e+01 
-5.680940694001e+01 -2.908727928221e+00 0.0 
-2.908727928221e+00 -1.134990999607e+02 0.0 
0.0 0.0 -4.640125285079e+01 
-1.120856160907e+02 -7.196885068999e+00 0.0 
-7.196885068999e+00 -2.420585229018e+02 0.0 
0.0 0.0 -1.047292109758e+02 
-1.213228732875e+02 -3.430405733475e+00 0.0 
-3.430405733475e+00 -2.868971047379e+02 0.0 
0.0 0.0 -1.220659934076e+02 
-1.423971120577e+02 4.951821589440e+00 0.0 
4.951821589440e+00 -3.372782995952e+02 0.0 
0.0 0.0 -1.435026234959e+02 
-1.141396895286e+01 2.649603167506e-01 0.0 
2.649603167506e-01 -8.450342003144e+00 0.0 
0.0 0.0 -4.769718663069e+00 
-8.737306977492e+01 -9.220099392634e+00 0.0 
-9.220099392634e+00 -2.114883087055e+02 0.0 
0.0 0.0 -9.104309720495e+01 
-9.136636268890e+01 -9.508462908189e+00 0.0 
-9.508462908189e+00 -2.068602025557e+02 0.0 
0.0 0.0 -8.919927420806e+01 
-9.040788425987e+01 -9.614182809598e+00 0.0 
-9.614182809598e+00 -1.885902892721e+02 0.0 
0.0 0.0 -8.051043153190e+01 
-1.191604201080e+02 1.211244956662e+00 0.0 
1.211244956662e+00 -2.678173994233e+02 0.0 
0.0 0.0 -1.156933458594e+02 
-1.009374461109e+02 -7.426117228133e+00 0.0 
-7.426117228133e+00 -2.210937743105e+02 0.0 
0.0 0.0 -9.482856633407e+01 
-7.782361548879e+01 -7.037455027398e+00 0.0 
-7.037455027398e+00 -1.454198031111e+02 0.0 
0.0 0.0 -6.092379278842e+01 
-9.728877687763e+01 -1.108415783805e+01 0.0 
-1.108415783805e+01 -2.025334813768e+02 0.0 
0.0 0.0 -8.854247255383e+01 
-1.359514837670e+02 5.810370894106e-01 0.0 
5.810370894106e-01 -3.104925973850e+02 0.0 
0.0 0.0 -1.335332243456e+02 
-7.719594734308e+01 -4.496575655026e+00 0.0 
-4.496575655026e+00 -1.463744921358e+02 0.0 
0.0 0.0 -6.064282620609e+01 
-2.594170390851e+01 -3.740416156273e+00 0.0 
-3.740416156273e+00 -5.444942915653e+01 0.0 
0.0 0.0 -2.160553971639e+01 
-3.883941555424e+01 -5.775062447403e+00 0.0 
-5.775062447403e+00 -7.522713048092e+01 0.0 
0.0 0.0 -3.093136340096e+01 
-6.584569725275e+01 -1.532751130312e+01 0.0 
-1.532751130312e+01 -1.358270215500e+02 0.0 
0.0 0.0 -5.730363499123e+01 
-7.788461494180e+01 -1.132874856338e+01 0.0 
-1.132874856338e+01 -1.548397596406e+02 0.0 
0.0 0.0 -6.607579694969e+01 
-9.366925006800e+01 -8.305623686533e+00 0.0 
-8.305623686533e+00 -2.189568094418e+02 0.0 
0.0 0.0 -9.482718712211e+01 
-1.000292205573e+02 -1.086477094264e+01 0.0 
-1.086477094264e+01 -2.155926770008e+02 0.0 
0.0 0.0 -9.438443941350e+01 
-5.480262541635e+01 -1.318866913079e+01 0.0 
-1.318866913079e+01 -9.525284768566e+01 0.0 
0.0 0.0 -4.020561603393e+01 
-3.240247263660e+01 -2.981167290034e+00 0.0 
-2.981167290034e+00 -7.492125235738e+01 0.0 
0.0 0.0 -2.907549495640e+01 
-1.147392730662e+02 3.871772631132e+00 0.0 
3.871772631132e+00 -2.560555523162e+02 0.0 
0.0 0.0 -1.108384476147e+02 
-6.496511820479e+01 -4.316376170503e+00 0.0 
-4.316376170503e+00 -1.256836820233e+02 0.0 
0.0 0.0 -5.122414496551e+01 
-1.340687302225e+02 -2.259545940247e+00 0.0 
-2.259545940247e+00 -3.218629493742e+02 0.0 
0.0 0.0 -1.363795038790e+02 
-1.376226285294e+02 4.915456067426e+00 0.0 
4.915456067426e+00 -3.276828681090e+02 0.0 
0.0 0.0 -1.391916489915e+02 
-1.169246397894e+02 6.251313096955e+00 0.0 
6.251313096955e+00 -2.643016529790e+02 0.0 
0.0 0.0 -1.139678878305e+02 
-1.421062492408e+02 2.366430229603e+00 0.0 
2.366430229603e+00 -3.260440464961e+02 0.0 
0.0 0.0 -1.400450887211e+02 
-1.472220113744e+02 4.930836494323e+00 0.0 
4.930836494323e+00 -3.468833517479e+02 0.0 
0.0 0.0 -1.478316089367e+02 
-9.083168324937e+01 4.751306068907e+00 0.0 
4.751306068907e+00 -2.313975796421e+02 0.0 
0.0 0.0 -9.864325070116e+01 
-1.294509064160e+02 5.384857241032e+00 0.0 
5.384857241032e+00 -3.090572784590e+02 0.0 
0.0 0.0 -1.311524554625e+02 
-6.153338520825e+01 -1.687442205982e+01 0.0 
-1.687442205982e+01 -1.143491223467e+02 0.0 
0.0 0.0 -4.814910698992e+01 
-1.021646319775e+02 -9.041183282600e+00 0.0 
-9.041183282600e+00 -2.096137111278e+02 0.0 
0.0 0.0 -9.110932925487e+01 
-9.103497031578e+01 1.096680226029e+01 0.0 
1.096680226029e+01 -2.179318376994e+02 0.0 
0.0 0.0 -9.409713281983e+01 
-5.742226607982e+01 -1.339559366507e+01 0.0 
-1.339559366507e+01 -1.430481005954e+02 0.0 
0.0 0.0 -5.473853121225e+01 
-5.436720501556e+01 -1.600415425478e+01 0.0 
-1.600415425478e+01 -9.239154549879e+01 0.0 
0.0 0.0 -3.835281132123e+01 
-8.766641016853e+01 -8.258489154122e+00 0.0 
-8.258489154122e+00 -1.706599122812e+02 0.0 
0.0 0.0 -7.212100144581e+01 
-9.430053189184e+01 -1.270578321588e+01 0.0 
-1.270578321588e+01 -2.088670117293e+02 0.0 
0.0 0.0 -9.143897947818e+01 
-9.635290110116e+01 -1.148909376004e+01 0.0 
-1.148909376004e+01 -2.215923315652e+02 0.0 
0.0 0.0 -9.690349756687e+01 
-7.184593897379e+01 -6.073717124453e+00 0.0 
-6.073717124453e+00 -1.329817635301e+02 0.0 
0.0 0.0 -5.533396169131e+01 
-1.033564499363e+02 -6.491263088368e+00 0.0 
-6.491263088368e+00 -2.332081862646e+02 0.0 
0.0 0.0 -1.004600355753e+02 
-9.078994121031e+01 -1.202541073988e+01 0.0 
-1.202541073988e+01 -2.165968193566e+02 0.0 
0.0 0.0 -9.413146549534e+01 
-8.994710816426e+01 -7.034166745692e+00 0.0 
-7.034166745692e+00 -2.226099476839e+02 0.0 
0.0 0.0 -9.635610404737e+01 
-7.994116169432e+01 -1.054330856867e+01 0.0 
-1.054330856867e+01 -1.552438867885e+02 0.0 
0.0 0.0 -6.703694083350e+01 
-1.217136431931e+02 2.124661377327e+00 0.0 
2.124661377327e+00 -3.025398486955e+02 0.0 
0.0 0.0 -1.282005669613e+02 
-1.275865011722e+02 3.175265735298e+00 0.0 
3.175265735298e+00 -2.881994480648e+02 0.0 
0.0 0.0 -1.243357847711e+02 
-8.678812581518e+01 -5.557865137503e+00 0.0 
-5.557865137503e+00 -2.181847528483e+02 0.0 
0.0 0.0 -9.332903341375e+01 
-1.428738788093e+02 -1.854757859482e+00 0.0 
-1.854757859482e+00 -3.410021771608e+02 0.0 
0.0 0.0 -1.447628167910e+02 
-6.466608529906e+01 -1.758821511682e+01 0.0 
-1.758821511682e+01 -1.317672164446e+02 0.0 
0.0 0.0 -5.472727563850e+01 
-1.528798634245e+02 -9.291574412511e-01 0.0 
-9.291574412511e-01 -3.640275232569e+02 0.0 
0.0 0.0 -1.546722160044e+02 
-9.857548880216e+01 -7.413715633928e+00 0.0 
-7.413715633928e+00 -2.258320441004e+02 0.0 
0.0 0.0 -9.775724134998e+01 
-1.526037565887e+02 4.720935360323e+00 0.0 
4.720935360323e+00 -3.581657812764e+02 0.0 
0.0 0.0 -1.528308613595e+02 
-1.168861763965e+02 7.797072962668e+00 0.0 
7.797072962668e+00 -2.723451405386e+02 0.0 
0.0 0.0 -1.163693950805e+02 
-6.043098257297e+01 -1.570074395148e+01 0.0 
-1.570074395148e+01 -1.166776373723e+02 0.0 
0.0 0.0 -4.849883371999e+01 
-1.199241031655e+02 6.590681153274e+00 0.0 
6.590681153274e+00 -2.733941364161e+02 0.0 
0.0 0.0 -1.175954718745e+02 
-1.450995990163e+02 3.255572007560e+00 0.0 
3.255572007560e+00 -3.341833108556e+02 0.0 
0.0 0.0 -1.433848729616e+02 
-1.006425571774e+02 -6.021761734678e+00 0.0 
-6.021761734678e+00 -2.375135154758e+02 0.0 
0.0 0.0 -1.032252569748e+02 
-7.630292302963e+01 1.317996597291e+01 0.0 
1.317996597291e+01 -1.754593526807e+02 0.0 
0.0 0.0 -7.344352890878e+01 
-1.229154855033e+02 6.840247264294e+00 0.0 
6.840247264294e+00 -2.825456686193e+02 0.0 
0.0 0.0 -1.212383462368e+02 
-1.015378923535e+02 1.016496011250e+01 0.0 
1.016496011250e+01 -2.251733980613e+02 0.0 
0.0 0.0 -9.605522172007e+01 
-5.525121844330e+01 -1.500941235355e+01 0.0 
-1.500941235355e+01 -9.558607724871e+01 0.0 
0.0 0.0 -4.010850911510e+01 
-1.577315037077e+02 2.662534973255e+00 0.0 
2.662534973255e+00 -3.659488148168e+02 0.0 
0.0 0.0 -1.567040955573e+02 
-4.912183816264e+01 -1.226156515707e+01 0.0 
-1.226156515707e+01 -7.952989464285e+01 0.0 
0.0 0.0 -3.434501172096e+01 
-1.509218846958e+02 3.272958097196e+00 0.0 
3.272958097196e+00 -3.603618239468e+02 0.0 
0.0 0.0 -1.529851125928e+02 
-1.472423503019e+02 1.078852082718e+00 0.0 
1.078852082718e+00 -3.393013744304e+02 0.0 
0.0 0.0 -1.455631174197e+02 
-1.262820968137e+02 1.648750119686e+00 0.0 
1.648750119686e+00 -3.109425237346e+02 0.0 
0.0 0.0 -1.312819180457e+02 
-1.152956905894e+02 7.684163478272e-01 0.0 
7.684163478272e-01 -2.584085060597e+02 0.0 
0.0 0.0 -1.117112589947e+02 
-1.390338082973e+02 3.725451683329e+00 0.0 
3.725451683329e+00 -3.173082997397e+02 0.0 
0.0 0.0 -1.365026324111e+02 
-9.389356100233e+01 -8.988581287730e+00 0.0 
-8.988581287730e+00 -2.280415555286e+02 0.0 
0.0 0.0 -9.936451481467e+01 
-9.996178620272e+01 2.292365028851e+00 0.0 
2.292365028851e+00 -2.569706548390e+02 0.0 
0.0 0.0 -1.120409009593e+02 
-1.499153979102e+02 2.522059412450e+00 0.0 
2.522059412450e+00 -3.457135097900e+02 0.0 
0.0 0.0 -1.482886723101e+02 
-1.294307195436e+02 -2.996715338121e+00 0.0 
-2.996715338121e+00 -3.062454799149e+02 0.0 
0.0 0.0 -1.303028598375e+02 
-1.312724448979e+02 3.538078348321e+00 0.0 
3.538078348321e+00 -2.975021382921e+02 0.0 
0.0 0.0 -1.282323749570e+02 
-1.205323127546e+02 -1.829835229493e+00 0.0 
-1.829835229493e+00 -2.977397639306e+02 0.0 
0.0 0.0 -1.258449376762e+02 
-5.729888193205e+01 -1.673683927876e+01 0.0 
-1.673683927876e+01 -1.125157905237e+02 0.0 
0.0 0.0 -4.488579329663e+01 
-1.349220165144e+02 3.923066288719e+00 0.0 
3.923066288719e+00 -3.067858562707e+02 0.0 
0.0 0.0 -1.321123618355e+02 
-1.617588748412e+02 5.135240865870e+00 0.0 
5.135240865870e+00 -3.812422379274e+02 0.0 
0.0 0.0 -1.625003338306e+02 
-1.521737747133e+02 -1.685885605614e+00 0.0 
-1.685885605614e+00 -3.609671233702e+02 0.0 
0.0 0.0 -1.535422694250e+02 
-9.815475838170e+01 -8.083392623164e+00 0.0 
-8.083392623164e+00 -2.086652801072e+02 0.0 
0.0 0.0 -8.911938526106e+01 
-1.159108802763e+02 2.633579699452e+00 0.0 
2.633579699452e+00 -2.589192415506e+02 0.0 
0.0 0.0 -1.120490365481e+02 
-1.110885947196e+02 9.135837160480e-01 0.0 
9.135837160480e-01 -2.479055971992e+02 0.0 
0.0 0.0 -1.072982575756e+02 
-1.022522944242e+02 -1.005677304519e+01 0.0 
-1.005677304519e+01 -2.283172281767e+02 0.0 
0.0 0.0 -9.997038817597e+01 
-1.254033038792e+02 -3.209041706732e+00 0.0 
-3.209041706732e+00 -2.986468027213e+02 0.0 
0.0 0.0 -1.268150319801e+02 
-1.296763481816e+02 -2.785934632760e+00 0.0 
-2.785934632760e+00 -3.103172066372e+02 0.0 
0.0 0.0 -1.315980664456e+02 
-3.021927715074e+01 -2.357901537934e+00 0.0 
-2.357901537934e+00 -6.621522993679e+01 0.0 
0.0 0.0 -2.558994200608e+01 
-6.346100439373e+01 9.352481308452e+00 0.0 
9.352481308452e+00 -1.647796637140e+02 0.0 
0.0 0.0 -6.495914732476e+01 
-8.986174649462e+01 -3.060098820630e+00 0.0 
-3.060098820630e+00 -2.289831705629e+02 0.0 
0.0 0.0 -9.843730248289e+01 
-8.915680555188e+01 -7.476325035801e+00 0.0 
-7.476325035801e+00 -2.205445907926e+02 0.0 
0.0 0.0 -9.561805423536e+01 
-9.830898626010e+01 1.177358551005e+01 0.0 
1.177358551005e+01 -2.262624151543e+02 0.0 
0.0 0.0 -9.752668827812e+01 
-1.544865745061e+02 3.985412132182e+00 0.0 
3.985412132182e+00 -3.564713005826e+02 0.0 
0.0 0.0 -1.528873625266e+02 
-1.471484562659e+02 4.532857746315e+00 0.0 
4.532857746315e+00 -3.415568432913e+02 0.0 
0.0 0.0 -1.462115898672e+02 
-1.477265276323e+02 2.722581608193e+00 0.0 
2.722581608193e+00 -3.396921294025e+02 0.0 
0.0 0.0 -1.458255971104e+02 
-9.242941733407e+01 8.433923783356e+00 0.0 
8.433923783356e+00 -1.956300261836e+02 0.0 
0.0 0.0 -8.096787970470e+01 
-1.374348397451e+02 3.125430970733e+00 0.0 
3.125430970733e+00 -3.145326347278e+02 0.0 
0.0 0.0 -1.351902423419e+02 
-1.273916139651e+02 -1.953597223345e+00 0.0 
-1.953597223345e+00 -2.995701837476e+02 0.0 
0.0 0.0 -1.274524865964e+02 
-1.503015984903e+02 1.938139313591e+00 0.0 
1.938139313591e+00 -3.471254320390e+02 0.0 
0.0 0.0 -1.488281091588e+02 
-1.307827588805e+02 4.133167907180e+00 0.0 
4.133167907180e+00 -2.962935165939e+02 0.0 
0.0 0.0 -1.277228826423e+02 
-1.051337048287e+02 -9.032259376034e+00 0.0 
-9.032259376034e+00 -2.224787550117e+02 0.0 
0.0 0.0 -9.693943795985e+01 
-8.739158853343e+01 -4.401487757349e-01 0.0 
-4.401487757349e-01 -2.236024524487e+02 0.0 
0.0 0.0 -9.438238331719e+01 
-1.343600628709e+02 2.182620965697e+00 0.0 
2.182620965697e+00 -3.062563643946e+02 0.0 
0.0 0.0 -1.317849281797e+02 
-1.467976679265e+02 3.910412362072e+00 0.0 
3.910412362072e+00 -3.371329336968e+02 0.0 
0.0 0.0 -1.447791804870e+02 
-1.348955714331e+02 1.604998036016e+00 0.0 
1.604998036016e+00 -3.075088911142e+02 0.0 
0.0 0.0 -1.323213387642e+02 
-1.307275831061e+02 1.797823086815e+00 0.0 
1.797823086815e+00 -2.969804385522e+02 0.0 
0.0 0.0 -1.279124064975e+02 
-1.423168973336e+02 -2.337671904051e+00 0.0 
-2.337671904051e+00 -3.373153838040e+02 0.0 
0.0 0.0 -1.434896843413e+02 
-1.469549101073e+02 3.643046819354e+00 0.0 
3.643046819354e+00 -3.520432166323e+02 0.0 
0.0 0.0 -1.492994380219e+02 
-1.382576635078e+02 -2.326368202164e+00 0.0 
-2.326368202164e+00 -3.295605464259e+02 0.0 
0.0 0.0 -1.399454629801e+02 
-1.158695549530e+02 -4.269599669248e+00 0.0 
-4.269599669248e+00 -2.675147658543e+02 0.0 
0.0 0.0 -1.137751531154e+02 
-9.060406572195e+01 4.698245245389e+00 0.0 
4.698245245389e+00 -1.875944639845e+02 0.0 
0.0 0.0 -7.962943180475e+01 
-1.311380868731e+02 2.368408571255e+00 0.0 
2.368408571255e+00 -3.209440452588e+02 0.0 
0.0 0.0 -1.352246396396e+02 
-1.292094603498e+02 3.580854247144e+00 0.0 
3.580854247144e+00 -2.941540916340e+02 0.0 
0.0 0.0 -1.266090655951e+02 
-5.994932980140e+01 -5.927889216298e+00 0.0 
-5.927889216298e+00 -1.122147095745e+02 0.0 
0.0 0.0 -4.633324889656e+01 
-9.130813929678e+01 -4.559481495214e+00 0.0 
-4.559481495214e+00 -2.301392075472e+02 0.0 
0.0 0.0 -9.970432799287e+01 
-9.992915197418e+01 -3.513487538101e+00 0.0 
-3.513487538101e+00 -2.504790889249e+02 0.0 
0.0 0.0 -1.099822204212e+02 
-1.072923167020e+02 2.378543643563e+00 0.0 
2.378543643563e+00 -2.761274320931e+02 0.0 
0.0 0.0 -1.189121820238e+02 
-5.644191296309e+01 -4.459598746288e+00 0.0 
-4.459598746288e+00 -1.557211920398e+02 0.0 
0.0 0.0 -6.039182508119e+01 
-8.753022372597e+01 -2.238499916045e+00 0.0 
-2.238499916045e+00 -2.231330227136e+02 0.0 
0.0 0.0 -9.456688649143e+01 
-1.168546938578e+02 2.688936836129e+00 0.0 
2.688936836129e+00 -2.941181606532e+02 0.0 
0.0 0.0 -1.247976956100e+02 
-1.006597539389e+02 6.010979359890e+00 0.0 
6.010979359890e+00 -2.153440851012e+02 0.0 
0.0 0.0 -9.137334737025e+01 
-1.052439055697e+02 -6.640986805119e+00 0.0 
-6.640986805119e+00 -2.285300819158e+02 0.0 
0.0 0.0 -9.724544702888e+01 
-1.230303766867e+02 3.964593052123e+00 0.0 
3.964593052123e+00 -2.764152363181e+02 0.0 
0.0 0.0 -1.194336839014e+02 
-9.875002428805e+01 5.306170094683e-01 0.0 
5.306170094683e-01 -2.176220565564e+02 0.0 
0.0 0.0 -9.451162425335e+01 
-3.520438940546e+01 1.027731728391e+01 0.0 
1.027731728391e+01 -4.731476673622e+01 0.0 
0.0 0.0 -2.070685248966e+01 
-1.179073556914e+02 -5.488173067293e+00 0.0 
-5.488173067293e+00 -2.613957735946e+02 0.0 
0.0 0.0 -1.118402389691e+02 
-1.301274527295e+02 -8.112233539308e-02 0.0 
-8.112233539308e-02 -3.187656059690e+02 0.0 
0.0 0.0 -1.342679176095e+02 
-1.513540070886e+02 4.252041806509e+00 0.0 
4.252041806509e+00 -3.513971961707e+02 0.0 
0.0 0.0 -1.504253609778e+02 
-9.698859764481e+01 1.232160409495e+00 0.0 
1.232160409495e+00 -2.493784433485e+02 0.0 
0.0 0.0 -1.089671169634e+02 
-1.111361868936e+02 -5.410946056400e+00 0.0 
-5.410946056400e+00 -2.481407861187e+02 0.0 
0.0 0.0 -1.051178740704e+02 
-1.234241206909e+02 3.345054653196e+00 0.0 
3.345054653196e+00 -2.776881931103e+02 0.0 
0.0 0.0 -1.199336941403e+02 
-3.996157836575e+01 8.718878229738e+00 0.0 
8.718878229738e+00 -6.382675160434e+01 0.0 
0.0 0.0 -2.723020983693e+01 
-1.257279597864e+02 3.288157170481e-01 0.0 
3.288157170481e-01 -3.104228640237e+02 0.0 
0.0 0.0 -1.315835088209e+02 
-1.031466929741e+02 1.205309353481e+00 0.0 
1.205309353481e+00 -2.655377027090e+02 0.0 
0.0 0.0 -1.163429456688e+02 
-1.033657125867e+02 7.153966169205e+00 0.0 
7.153966169205e+00 -2.253830490821e+02 0.0 
0.0 0.0 -9.632754452143e+01 
-1.309172480126e+02 -1.390455052864e+00 0.0 
-1.390455052864e+00 -3.111449022402e+02 0.0 
0.0 0.0 -1.322186450758e+02 
-6.250257392816e+01 -1.587841964421e+01 0.0 
-1.587841964421e+01 -1.454001132488e+02 0.0 
0.0 0.0 -5.862113803447e+01 
-1.351957821184e+02 -9.351458147472e-01 0.0 
-9.351458147472e-01 -3.226290302492e+02 0.0 
0.0 0.0 -1.369474437103e+02 
-1.476809378872e+02 -1.406914456201e+00 0.0 
-1.406914456201e+00 -3.523628115769e+02 0.0 
0.0 0.0 -1.496131248392e+02 
-1.212164987504e+02 7.515056990925e-01 0.0 
7.515056990925e-01 -3.020341648396e+02 0.0 
0.0 0.0 -1.289440067920e+02 
-1.354015106176e+02 3.344027465940e+00 0.0 
3.344027465940e+00 -3.080215443514e+02 0.0 
0.0 0.0 -1.326269164907e+02 
-1.352698936110e+02 5.669065102818e+00 0.0 
5.669065102818e+00 -3.265088325097e+02 0.0 
0.0 0.0 -1.381336178362e+02 
-1.483430296096e+02 2.586094718938e-02 0.0 
2.586094718938e-02 -3.529043488813e+02 0.0 
0.0 0.0 -1.499742135473e+02 
-4.607473311272e+01 8.454912202123e+00 0.0 
8.454912202123e+00 -8.148300977060e+01 0.0 
0.0 0.0 -3.521388488701e+01 
-1.271592344433e+02 3.723437635756e+00 0.0 
3.723437635756e+00 -2.869915125524e+02 0.0 
0.0 0.0 -1.238452240987e+02 
-1.477223960041e+02 4.272573040719e+00 0.0 
4.272573040719e+00 -3.534171211273e+02 0.0 
0.0 0.0 -1.499418551394e+02 
-1.384981313156e+02 1.980652081744e+00 0.0 
1.980652081744e+00 -3.167852151539e+02 0.0 
0.0 0.0 -1.361850039408e+02 
-1.110032366843e+02 3.540264492665e-01 0.0 
3.540264492665e-01 -2.836552763130e+02 0.0 
0.0 0.0 -1.228063622172e+02 
-9.020758805443e+01 5.240141260776e-01 0.0 
5.240141260776e-01 -2.315182326602e+02 0.0 
0.0 0.0 -9.879639989191e+01 
-1.136358910633e+02 -4.940785650633e+00 0.0 
-4.940785650633e+00 -2.392938238584e+02 0.0 
0.0 0.0 -1.022003456716e+02 
-3.828206897034e+01 3.996215546991e+00 0.0 
3.996215546991e+00 -1.337270670779e+02 0.0 
0.0 0.0 -5.357092860569e+01 
-1.426408493731e+02 1.770040998625e+00 0.0 
1.770040998625e+00 -3.273100266139e+02 0.0 
0.0 0.0 -1.405852627961e+02 
-6.510183316453e+01 -4.998347464492e+00 0.0 
-4.998347464492e+00 -1.208181112780e+02 0.0 
0.0 0.0 -4.982090998105e+01 
-5.352267381721e+01 7.874449631600e+00 0.0 
7.874449631600e+00 -1.000907282499e+02 0.0 
0.0 0.0 -4.323485277152e+01 
-1.317560274755e+02 6.202419928854e+00 0.0 
6.202419928854e+00 -3.177531766448e+02 0.0 
0.0 0.0 -1.344527612361e+02 
-1.510850337341e+02 1.417859159086e+00 0.0 
1.417859159086e+00 -3.489641666082e+02 0.0 
0.0 0.0 -1.496147601027e+02 
-6.113629678052e+01 -1.833476788953e+01 0.0 
-1.833476788953e+01 -1.304840829227e+02 0.0 
0.0 0.0 -5.288208869774e+01 
-1.076927187893e+02 7.585910469013e+00 0.0 
7.585910469013e+00 -2.528884315848e+02 0.0 
0.0 0.0 -1.067028134213e+02 
-1.302434883321e+02 2.370728917530e+00 0.0 
2.370728917530e+00 -2.957746481703e+02 0.0 
0.0 0.0 -1.274054409507e+02 
-1.133239104112e+02 -6.143106236722e+00 0.0 
-6.143106236722e+00 -2.368705152373e+02 0.0 
0.0 0.0 -1.011394046954e+02 
-5.885699791677e+01 -9.541539135788e+00 0.0 
-9.541539135788e+00 -1.550875603159e+02 0.0 
0.0 0.0 -6.075515699226e+01 
-7.610538999098e+01 1.508436386423e+01 0.0 
1.508436386423e+01 -1.708194687433e+02 0.0 
0.0 0.0 -7.254034339501e+01 
-5.307613949587e+01 -1.706243675540e+01 0.0 
-1.706243675540e+01 -9.178725677482e+01 0.0 
0.0 0.0 -3.745528899237e+01 
-5.572343491859e+01 -1.628003588366e+01 0.0 
-1.628003588366e+01 -1.283487431393e+02 0.0 
0.0 0.0 -4.946819203574e+01 
-5.370929689063e+01 -1.788865460967e+01 0.0 
-1.788865460967e+01 -1.100450055079e+02 0.0 
0.0 0.0 -4.168778317107e+01 
-1.037100698653e+02 3.165739925245e-01 0.0 
3.165739925245e-01 -2.666139576426e+02 0.0 
0.0 0.0 -1.171878038149e+02 
-1.678195299828e+02 4.640949460934e+00 0.0 
4.640949460934e+00 -3.904847405994e+02 0.0 
0.0 0.0 -1.670912811747e+02 
-6.220454743440e+01 5.901958945947e+00 0.0 
5.901958945947e+00 -1.206180358153e+02 0.0 
0.0 0.0 -5.064698237773e+01 
-1.463283463100e+02 -2.250381939590e+00 0.0 
-2.250381939590e+00 -3.450667101371e+02 0.0 
0.0 0.0 -1.470185169341e+02 
-8.303025955996e+01 5.812863667909e+00 0.0 
5.812863667909e+00 -2.105659818830e+02 0.0 
0.0 0.0 -8.724182933081e+01 
-1.266651991357e+02 4.378119578998e+00 0.0 
4.378119578998e+00 -2.859580655316e+02 0.0 
0.0 0.0 -1.233869794002e+02 
-4.579013665802e+01 2.218699062625e+00 0.0 
2.218699062625e+00 -1.417838327936e+02 0.0 
0.0 0.0 -5.572462677135e+01 
-1.530339590479e+02 4.624111752953e-01 0.0 
4.624111752953e-01 -3.639799166122e+02 0.0 
0.0 0.0 -1.547041626980e+02 
-5.988969895148e+01 -1.902090221288e+01 0.0 
-1.902090221288e+01 -1.131101444988e+02 0.0 
0.0 0.0 -4.647168520609e+01 
-7.712236141027e+01 -5.011618549598e+00 0.0 
-5.011618549598e+00 -1.421045496981e+02 0.0 
0.0 0.0 -5.947314041904e+01 
-1.267756348056e+02 1.410070801735e+00 0.0 
1.410070801735e+00 -3.122572259241e+02 0.0 
0.0 0.0 -1.324316163707e+02 
-9.814239754771e+01 -9.662199075374e+00 0.0 
-9.662199075374e+00 -2.336770095482e+02 0.0 
0.0 0.0 -1.020903419538e+02 
-1.428029989593e+02 3.980175766235e+00 0.0 
3.980175766235e+00 -3.435919708469e+02 0.0 
0.0 0.0 -1.455184909418e+02 
-8.118378823692e+01 1.214819000181e+01 0.0 
1.214819000181e+01 -1.763530403064e+02 0.0 
0.0 0.0 -7.472452299424e+01 
-1.336681394023e+02 5.039262323992e+00 0.0 
5.039262323992e+00 -3.047703988161e+02 0.0 
0.0 0.0 -1.311315614655e+02 
-1.511459576074e+02 1.773764960891e+00 0.0 
1.773764960891e+00 -3.601283901602e+02 0.0 
0.0 0.0 -1.529823043303e+02 
-1.265693202666e+02 1.967431896330e+00 0.0 
1.967431896330e+00 -2.864627342330e+02 0.0 
0.0 0.0 -1.235096163499e+02 
-1.514894941453e+02 5.919618194068e+00 0.0 
5.919618194068e+00 -3.518129453983e+02 0.0 
0.0 0.0 -1.505907318631e+02 
-1.384794598086e+02 4.287037441814e+00 0.0 
4.287037441814e+00 -3.160159734791e+02 0.0 
0.0 0.0 -1.359486299863e+02 
-1.420127008858e+02 4.632656470449e+00 0.0 
4.632656470449e+00 -3.253395513620e+02 0.0 
0.0 0.0 -1.398056756743e+02 
-5.622791909684e+01 1.539644570315e+01 0.0 
1.539644570315e+01 -1.388356818329e+02 0.0 
0.0 0.0 -5.480234115799e+01 
-1.417457744407e+02 -2.394802734692e+00 0.0 
-2.394802734692e+00 -3.333114404821e+02 0.0 
0.0 0.0 -1.421171644768e+02 
-1.338852211999e+02 2.770148968582e+00 0.0 
2.770148968582e+00 -3.051779103709e+02 0.0 
0.0 0.0 -1.313189394712e+02 
-9.808109586692e+01 7.480228077697e+00 0.0 
7.480228077697e+00 -2.446814094090e+02 0.0 
0.0 0.0 -1.064583989839e+02 
-7.120856577565e+01 3.856361595624e+00 0.0 
3.856361595624e+00 -1.414802614378e+02 0.0 
0.0 0.0 -5.845548108210e+01 
-1.562174089818e+02 3.606292880447e+00 0.0 
3.606292880447e+00 -3.706119852049e+02 0.0 
0.0 0.0 -1.576488182560e+02 
-5.851444706084e+01 6.050645148877e+00 0.0 
6.050645148877e+00 -1.592704680002e+02 0.0 
0.0 0.0 -6.204605150831e+01 
-7.039813398801e+01 -3.215890343352e+00 0.0 
-3.215890343352e+00 -1.342769561404e+02 0.0 
0.0 0.0 -5.568360419094e+01 
-1.376982694677e+02 2.152442334016e+00 0.0 
2.152442334016e+00 -3.329635681159e+02 0.0 
0.0 0.0 -1.407985512751e+02 
-3.051312461084e+01 8.668072855719e-01 0.0 
8.668072855719e-01 -7.957329344887e+01 0.0 
0.0 0.0 -3.218901713190e+01 
-1.013924729913e+02 7.291592561466e+00 0.0 
7.291592561466e+00 -2.422964510013e+02 0.0 
0.0 0.0 -1.024666869579e+02 
-1.309834413246e+02 9.883701243347e-01 0.0 
9.883701243347e-01 -3.206145659952e+02 0.0 
0.0 0.0 -1.352780610791e+02 
-1.494222867221e+02 4.669145784012e+00 0.0 
4.669145784012e+00 -3.444518136332e+02 0.0 
0.0 0.0 -1.477622301066e+02 
-1.530867518411e+02 5.017098118845e+00 0.0 
5.017098118845e+00 -3.541477814387e+02 0.0 
0.0 0.0 -1.517703599839e+02 
-1.267444354750e+02 2.870439370272e+00 0.0 
2.870439370272e+00 -3.125483917114e+02 0.0 
0.0 0.0 -1.313878481559e+02 
-1.426198439295e+02 4.101297305697e+00 0.0 
4.101297305697e+00 -3.265584975914e+02 0.0 
0.0 0.0 -1.403535024563e+02 
-8.764941194121e+01 7.630452122696e+00 0.0 
7.630452122696e+00 -2.188639549834e+02 0.0 
0.0 0.0 -9.230930207474e+01 
-1.335694313851e+02 6.737834809625e+00 0.0 
6.737834809625e+00 -3.186671435459e+02 0.0 
0.0 0.0 -1.352709724793e+02 
-7.940812844999e+01 3.000269246916e+00 0.0 
3.000269246916e+00 -1.610135627069e+02 0.0 
0.0 0.0 -6.843672915553e+01 
-1.492362593413e+02 4.888151438353e+00 0.0 
4.888151438353e+00 -3.489643370327e+02 0.0 
0.0 0.0 -1.490601789122e+02 
-8.654507151050e+01 2.751977739327e+00 0.0 
2.751977739327e+00 -1.799858391670e+02 0.0 
0.0 0.0 -7.761773793608e+01 
-9.004173366158e+01 2.883845823964e+00 0.0 
2.883845823964e+00 -1.896369892618e+02 0.0 
0.0 0.0 -8.237126167507e+01 
-9.499480260715e+01 3.754982923996e+00 0.0 
3.754982923996e+00 -2.430426835099e+02 0.0 
0.0 0.0 -1.053562417396e+02 
-9.302754310724e+01 2.692367816874e+00 0.0 
2.692367816874e+00 -1.991276644552e+02 0.0 
0.0 0.0 -8.657256541159e+01 
-1.082272642818e+02 5.810783596948e+00 0.0 
5.810783596948e+00 -2.693629348674e+02 0.0 
0.0 0.0 -1.133464817309e+02 
-9.108933323151e+01 8.946786100147e+00 0.0 
8.946786100147e+00 -2.218688255998e+02 0.0 
0.0 0.0 -9.448885307960e+01 
-9.334963410037e+01 -1.781818536263e+00 0.0 
-1.781818536263e+00 -2.396131149132e+02 0.0 
0.0 0.0 -1.039111413842e+02 
-5.282686761936e+01 -1.015756544120e+01 0.0 
-1.015756544120e+01 -1.433031835054e+02 0.0 
0.0 0.0 -5.486224733223e+01 
-9.106908538171e+01 1.930877689271e+00 0.0 
1.930877689271e+00 -2.333500704344e+02 0.0 
0.0 0.0 -9.975847189071e+01 
-1.462300334910e+02 2.170524611156e+00 0.0 
2.170524611156e+00 -3.365950592668e+02 0.0 
0.0 0.0 -1.444475278273e+02 
-1.514136469751e+02 4.444376876196e+00 0.0 
4.444376876196e+00 -3.524322994888e+02 0.0 
0.0 0.0 -1.507537839391e+02 
-1.334267617435e+02 -2.743305958764e+00 0.0 
-2.743305958764e+00 -3.139213796756e+02 0.0 
0.0 0.0 -1.338044424258e+02 
-1.469789008838e+02 2.121818027647e+00 0.0 
2.121818027647e+00 -3.517291151743e+02 0.0 
0.0 0.0 -1.492124048174e+02 
-9.488907275213e+01 -7.125657542902e+00 0.0 
-7.125657542902e+00 -2.302670053398e+02 0.0 
0.0 0.0 -9.993154008645e+01 
-1.415833778983e+02 2.910562427728e+00 0.0 
2.910562427728e+00 -3.248597418314e+02 0.0 
0.0 0.0 -1.395329359189e+02 
-9.322433786025e+01 -7.353286913436e-01 0.0 
-7.353286913436e-01 -2.392890426573e+02 0.0 
0.0 0.0 -1.036603162725e+02 
-1.456793399704e+02 -2.276014765622e+00 0.0 
-2.276014765622e+00 -3.411353894951e+02 0.0 
0.0 0.0 -1.456444188397e+02 
-1.379663012509e+02 2.578475558506e+00 0.0 
2.578475558506e+00 -3.155099096487e+02 0.0 
0.0 0.0 -1.356428632699e+02 
-1.378397448885e+02 4.831423434365e+00 0.0 
4.831423434365e+00 -3.150084067956e+02 0.0 
0.0 0.0 -1.354544455052e+02 
-1.158255372493e+02 -1.888492834744e-01 0.0 
-1.888492834744e-01 -2.917672245505e+02 0.0 
0.0 0.0 -1.253148234414e+02 
-8.930888472816e+01 4.747965303488e+00 0.0 
4.747965303488e+00 -2.265527750910e+02 0.0 
0.0 0.0 -9.593876016336e+01 
-1.417879295085e+02 6.315548891374e+00 0.0 
6.315548891374e+00 -3.371488410648e+02 0.0 
0.0 0.0 -1.432810311720e+02 
-1.179551444176e+02 6.325829259711e+00 0.0 
6.325829259711e+00 -2.722225399368e+02 0.0 
0.0 0.0 -1.164215421102e+02 
-5.726730234943e+01 -1.451354397291e+01 0.0 
-1.451354397291e+01 -1.436921584453e+02 0.0 
0.0 0.0 -5.635635688386e+01 
-5.670514826502e+01 6.927509452637e-01 0.0 
6.927509452637e-01 -1.569644289641e+02 0.0 
0.0 0.0 -6.042546363117e+01 
-8.493656555557e+01 1.431001534868e+01 0.0 
1.431001534868e+01 -1.881708815182e+02 0.0 
0.0 0.0 -8.152335827761e+01 
-1.110488735013e+02 8.240254143455e+00 0.0 
8.240254143455e+00 -2.532783035444e+02 0.0 
0.0 0.0 -1.062361302045e+02 
-1.495368100249e+02 -2.139638430161e+00 0.0 
-2.139638430161e+00 -3.492348073075e+02 0.0 
0.0 0.0 -1.492314851997e+02 
-1.343228187303e+02 4.507164767228e+00 0.0 
4.507164767228e+00 -3.056593994521e+02 0.0 
0.0 0.0 -1.315946654547e+02 
-8.732888795896e+01 2.949783448687e+00 0.0 
2.949783448687e+00 -2.233953527823e+02 0.0 
0.0 0.0 -9.392178760890e+01 
-1.176451879932e+02 7.757110930452e+00 0.0 
7.757110930452e+00 -2.812084003596e+02 0.0 
0.0 0.0 -1.192560765059e+02 
-1.352988247967e+02 5.466310924128e-01 0.0 
5.466310924128e-01 -3.292078837245e+02 0.0 
0.0 0.0 -1.389520125564e+02 
-1.431607096929e+02 3.517787070863e+00 0.0 
3.517787070863e+00 -3.278375191585e+02 0.0 
0.0 0.0 -1.408994686554e+02 
-1.465022650705e+02 6.212052714676e+00 0.0 
6.212052714676e+00 -3.467737936636e+02 0.0 
0.0 0.0 -1.475828176202e+02 
-1.221166937522e+02 2.839208164346e+00 0.0 
2.839208164346e+00 -2.752911993088e+02 0.0 
0.0 0.0 -1.188223679183e+02 
-1.392844901110e+02 -8.024534013584e-01 0.0 
-8.024534013584e-01 -3.363810744481e+02 0.0 
0.0 0.0 -1.422996693677e+02 
-9.622103427835e+01 5.638710799197e-01 0.0 
5.638710799197e-01 -2.483942263299e+02 0.0 
0.0 0.0 -1.079447374276e+02 
-1.355009864930e+02 1.907923353876e+00 0.0 
1.907923353876e+00 -3.294738227777e+02 0.0 
0.0 0.0 -1.390924427812e+02 
-1.046510439289e+02 1.010252917555e+01 0.0 
1.010252917555e+01 -2.446463702843e+02 0.0 
0.0 0.0 -1.050504348495e+02 
-1.502066968296e+02 4.184188182693e+00 0.0 
4.184188182693e+00 -3.460812442607e+02 0.0 
0.0 0.0 -1.484863823271e+02 
-1.523298729607e+02 6.482657958458e+00 0.0 
6.482657958458e+00 -3.582027221708e+02 0.0 
0.0 0.0 -1.527597785395e+02 
-1.067187325323e+02 -8.307755377397e-01 0.0 
-8.307755377397e-01 -2.729704985969e+02 0.0 
0.0 0.0 -1.195130223035e+02 
-5.360398480845e+01 1.388021229041e+00 0.0 
1.388021229041e+00 -1.526981197270e+02 0.0 
0.0 0.0 -5.944971208494e+01 
-1.394206483074e+02 3.782320417898e+00 0.0 
3.782320417898e+00 -3.349176065350e+02 0.0 
0.0 0.0 -1.419014764527e+02 
-1.067902021361e+02 5.977137077276e+00 0.0 
5.977137077276e+00 -2.609100042327e+02 0.0 
0.0 0.0 -1.097901465255e+02 
-8.479485686378e+01 5.349656371740e+00 0.0 
5.349656371740e+00 -2.147060290524e+02 0.0 
0.0 0.0 -8.922050095865e+01 
-1.117497945466e+02 1.626271535624e+00 0.0 
1.626271535624e+00 -2.842441990744e+02 0.0 
0.0 0.0 -1.220648365259e+02 
-1.353517798695e+02 -1.828636641127e-01 0.0 
-1.828636641127e-01 -3.259808525344e+02 0.0 
0.0 0.0 -1.379997897212e+02 
-5.388743477241e+01 -5.115192305587e+00 0.0 
-5.115192305587e+00 -1.507993997417e+02 0.0 
0.0 0.0 -5.851971291920e+01 
-9.974391046711e+01 -1.061290976363e+00 0.0 
-1.061290976363e+00 -2.556924418002e+02 0.0 
0.0 0.0 -1.122252719175e+02 
-1.231196338069e+02 5.160103623902e+00 0.0 
5.160103623902e+00 -2.823096996048e+02 0.0 
0.0 0.0 -1.212288000235e+02 
-1.500836419070e+02 -4.776389869719e-01 0.0 
-4.776389869719e-01 -3.497999519263e+02 0.0 
0.0 0.0 -1.495650781500e+02 
-1.262336262363e+02 5.357730054278e+00 0.0 
5.357730054278e+00 -2.914976303368e+02 0.0 
0.0 0.0 -1.249193769719e+02 
-1.359538784353e+02 4.321985641573e+00 0.0 
4.321985641573e+00 -3.265184421669e+02 0.0 
0.0 0.0 -1.383416961807e+02 
-1.199537293612e+02 4.894191845698e+00 0.0 
4.894191845698e+00 -2.730868251069e+02 0.0 
0.0 0.0 -1.175121663404e+02 
-1.131938378258e+02 4.071615439690e+00 0.0 
4.071615439690e+00 -2.545192947241e+02 0.0 
0.0 0.0 -1.099139397650e+02 
-1.204143705235e+02 6.210507617019e+00 0.0 
6.210507617019e+00 -2.815505089909e+02 0.0 
0.0 0.0 -1.201807696311e+02 
-1.417341995912e+02 1.751558785902e+00 0.0 
1.751558785902e+00 -3.413472632282e+02 0.0 
0.0 0.0 -1.445244388458e+02 
-1.387805254886e+02 -1.040750710651e+00 0.0 
-1.040750710651e+00 -3.264247430624e+02 0.0 
0.0 0.0 -1.391615805653e+02 
-1.297876196425e+02 3.010166439704e+00 0.0 
3.010166439704e+00 -2.949433300023e+02 0.0 
0.0 0.0 -1.270192848934e+02 
-1.527740880172e+02 3.483633549867e+00 0.0 
3.483633549867e+00 -3.537396463389e+02 0.0 
0.0 0.0 -1.515541203068e+02 
-1.167212040763e+02 4.539370917042e+00 0.0 
4.539370917042e+00 -2.638807968466e+02 0.0 
0.0 0.0 -1.137806002769e+02 
-7.451253666626e+01 3.834957331153e+00 0.0 
3.834957331153e+00 -1.919714207092e+02 0.0 
0.0 0.0 -7.691072843110e+01 
-1.440781618175e+02 5.393867374878e+00 0.0 
5.393867374878e+00 -3.450241002158e+02 0.0 
0.0 0.0 -1.463306786100e+02 
-1.509841658521e+02 3.773056843397e+00 0.0 
3.773056843397e+00 -3.477191576091e+02 0.0 
0.0 0.0 -1.492109970384e+02 
-1.015869695335e+02 9.523384915788e+00 0.0 
9.523384915788e+00 -2.449787026014e+02 0.0 
0.0 0.0 -1.062158107296e+02 
-1.056902581354e+02 9.326196649602e+00 0.0 
9.326196649602e+00 -2.537934745736e+02 0.0 
0.0 0.0 -1.092010749737e+02 
-8.116503772589e+01 3.348654027952e+00 0.0 
3.348654027952e+00 -2.071905708830e+02 0.0 
0.0 0.0 -8.467251528804e+01 
-1.333055891298e+02 3.336673497457e+00 0.0 
3.336673497457e+00 -3.042933343193e+02 0.0 
0.0 0.0 -1.308796770347e+02 
-9.251389491102e+01 1.011055325433e+01 0.0 
1.011055325433e+01 -1.955605182823e+02 0.0 
0.0 0.0 -8.340547905128e+01 
-1.126979274243e+02 5.458072455047e+00 0.0 
5.458072455047e+00 -2.790461045486e+02 0.0 
0.0 0.0 -1.198031476355e+02 
-9.067778215987e+01 9.608902902945e+00 0.0 
9.608902902945e+00 -1.954549574295e+02 0.0 
0.0 0.0 -8.198187370217e+01 
-1.322950032432e+02 1.830824620151e+00 0.0 
1.830824620151e+00 -3.225712803557e+02 0.0 
0.0 0.0 -1.360598850797e+02 
-1.527791025030e+02 5.107000466192e+00 0.0 
5.107000466192e+00 -3.629895393743e+02 0.0 
0.0 0.0 -1.543305925632e+02 
-8.412966265590e+01 4.410114188127e-01 0.0 
4.410114188127e-01 -2.154037982590e+02 0.0 
0.0 0.0 -8.950062154278e+01 
-3.776694855434e+01 -7.143198456316e+00 0.0 
-7.143198456316e+00 -1.286447494948e+02 0.0 
0.0 0.0 -5.135640158566e+01 
-1.522164278392e+02 3.888524897235e+00 0.0 
3.888524897235e+00 -3.528863700284e+02 0.0 
0.0 0.0 -1.511308393603e+02 
-9.680645116916e+01 8.654920177034e+00 0.0 
8.654920177034e+00 -2.052041932028e+02 0.0 
0.0 0.0 -8.656957588675e+01 
-9.726454949348e+01 -5.268249023553e+00 0.0 
-5.268249023553e+00 -2.402080399326e+02 0.0 
0.0 0.0 -1.049015448466e+02 
-1.484415413242e+02 3.494422226374e+00 0.0 
3.494422226374e+00 -3.535835801480e+02 0.0 
0.0 0.0 -1.502075364417e+02 
-1.301868501879e+02 4.718448370404e+00 0.0 
4.718448370404e+00 -2.954037935500e+02 0.0 
0.0 0.0 -1.272771931214e+02 
-1.348810155815e+02 -1.223880784600e+00 0.0 
-1.223880784600e+00 -3.187576638883e+02 0.0 
0.0 0.0 -1.356916038409e+02 
-8.663090409056e+01 8.641392390769e+00 0.0 
8.641392390769e+00 -2.135193740354e+02 0.0 
0.0 0.0 -8.990832266089e+01 
-3.294631107818e+01 -5.837063184585e+00 0.0 
-5.837063184585e+00 -1.271930642328e+02 0.0 
0.0 0.0 -5.080890823883e+01 
-1.539886297451e+02 -2.182796396845e-01 0.0 
-2.182796396845e-01 -3.590684702385e+02 0.0 
0.0 0.0 -1.535171299951e+02 
-1.127486549215e+02 8.163904064620e+00 0.0 
8.163904064620e+00 -2.627617948544e+02 0.0 
0.0 0.0 -1.102301318252e+02 
-1.233331333849e+02 4.496264553759e+00 0.0 
4.496264553759e+00 -3.053596822045e+02 0.0 
0.0 0.0 -1.282078446768e+02 
-1.460149617043e+02 4.604350021359e+00 0.0 
4.604350021359e+00 -3.465866491432e+02 0.0 
0.0 0.0 -1.473804832542e+02 
-3.764573698743e+01 -2.352248789174e+00 0.0 
-2.352248789174e+00 -1.254019344857e+02 0.0 
0.0 0.0 -5.076777566665e+01 
-1.338062429424e+02 -2.707613006073e+00 0.0 
-2.707613006073e+00 -3.179735710654e+02 0.0 
0.0 0.0 -1.351339442023e+02 
-6.755682232578e+01 1.296314664143e+01 0.0 
1.296314664143e+01 -1.609999420394e+02 0.0 
0.0 0.0 -6.408849611295e+01 
-1.226422046810e+02 4.575473413090e+00 0.0 
4.575473413090e+00 -2.757956809899e+02 0.0 
0.0 0.0 -1.191313657013e+02 
-1.191891998624e+02 -4.925952880959e+00 0.0 
-4.925952880959e+00 -2.565383897827e+02 0.0 
0.0 0.0 -1.088348920778e+02 
-8.502612522757e+01 2.523911064247e+00 0.0 
2.523911064247e+00 -2.174827775194e+02 0.0 
0.0 0.0 -9.059774598851e+01 
-1.463205589739e+02 -6.959401013447e-01 0.0 
-6.959401013447e-01 -3.417560426367e+02 0.0 
0.0 0.0 -1.460229804832e+02 
-1.116331917781e+02 7.424247791651e+00 0.0 
7.424247791651e+00 -2.713786037163e+02 0.0 
0.0 0.0 -1.161556725329e+02 
-7.880801976055e+01 3.299904318563e+00 0.0 
3.299904318563e+00 -2.016876969190e+02 0.0 
0.0 0.0 -8.260824591437e+01 
-1.129035283994e+02 7.360363797978e+00 0.0 
7.360363797978e+00 -2.716849652929e+02 0.0 
0.0 0.0 -1.149765481077e+02 
-3.866375334419e+01 -1.836447993607e+01 0.0 
-1.836447993607e+01 -1.197608493630e+02 0.0 
0.0 0.0 -4.933674623869e+01 
-1.284870769661e+02 6.748015576157e+00 0.0 
6.748015576157e+00 -3.089144043291e+02 0.0 
0.0 0.0 -1.308204443886e+02 
-1.320390614062e+02 3.352614292854e+00 0.0 
3.352614292854e+00 -3.227890033210e+02 0.0 
0.0 0.0 -1.360484194182e+02 
-1.557629795159e+02 6.206583874325e+00 0.0 
6.206583874325e+00 -3.653763485048e+02 0.0 
0.0 0.0 -1.559417984062e+02 
-1.369256674414e+02 6.312074785769e+00 0.0 
6.312074785769e+00 -3.276631512513e+02 0.0 
0.0 0.0 -1.389766456078e+02 
-6.380250555228e+01 5.232705309145e-01 0.0 
5.232705309145e-01 -1.705971968624e+02 0.0 
0.0 0.0 -6.631079940910e+01 
-1.343969244390e+02 -1.173563890668e+00 0.0 
-1.173563890668e+00 -3.146860648699e+02 0.0 
0.0 0.0 -1.343248967927e+02 
-1.540938652321e+02 2.396046023246e+00 0.0 
2.396046023246e+00 -3.562138440215e+02 0.0 
0.0 0.0 -1.526923127761e+02 
-1.608063174720e+02 3.900681808073e+00 0.0 
3.900681808073e+00 -3.801271873530e+02 0.0 
0.0 0.0 -1.618800514475e+02 
-1.374220272806e+02 3.676683331894e+00 0.0 
3.676683331894e+00 -3.331723022741e+02 0.0 
0.0 0.0 -1.407782988664e+02 
-8.855400285119e+01 6.780100409631e+00 0.0 
6.780100409631e+00 -2.224493503488e+02 0.0 
0.0 0.0 -9.405217945831e+01 
-1.202355018948e+02 7.352326355448e+00 0.0 
7.352326355448e+00 -2.902396463783e+02 0.0 
0.0 0.0 -1.227425444819e+02 
-1.483687410469e+02 -1.791699441018e+00 0.0 
-1.791699441018e+00 -3.453207562926e+02 0.0 
0.0 0.0 -1.477068492018e+02 
-1.157577386171e+02 -9.813571156736e-01 0.0 
-9.813571156736e-01 -2.326402869501e+02 0.0 
0.0 0.0 -1.001293998281e+02 
-1.326284975246e+02 4.891382322724e+00 0.0 
4.891382322724e+00 -3.178545632409e+02 0.0 
0.0 0.0 -1.347449182296e+02 
-1.261781022739e+02 2.591278199698e+00 0.0 
2.591278199698e+00 -2.854603108029e+02 0.0 
0.0 0.0 -1.230915239231e+02 
-1.425673926061e+02 -8.774645788603e-01 0.0 
-8.774645788603e-01 -3.339931301405e+02 0.0 
0.0 0.0 -1.425681568240e+02 
-1.392244318364e+02 -9.289386118251e-01 0.0 
-9.289386118251e-01 -3.302798902612e+02 0.0 
0.0 0.0 -1.404512966293e+02 
-9.238574565035e+01 3.802966383990e-01 0.0 
3.802966383990e-01 -2.038157415009e+02 0.0 
0.0 0.0 -8.846044614538e+01 
-9.233067004949e+01 7.782789095635e-02 0.0 
7.782789095635e-02 -2.037205118630e+02 0.0 
0.0 0.0 -8.841535457374e+01 
-1.273992215868e+02 6.508519930151e+00 0.0 
6.508519930151e+00 -2.926671909311e+02 0.0 
0.0 0.0 -1.256199237554e+02 
-1.244463084195e+02 5.460001353061e+00 0.0 
5.460001353061e+00 -2.993744032766e+02 0.0 
0.0 0.0 -1.267462135088e+02 
-1.222318491181e+02 -3.956094132944e+00 0.0 
-3.956094132944e+00 -2.640471003191e+02 0.0 
0.0 0.0 -1.125209165136e+02 
-1.242461850029e+02 7.388468461323e+00 0.0 
7.388468461323e+00 -2.911235061644e+02 0.0 
0.0 0.0 -1.242109073502e+02 
-1.071428223403e+02 8.027592118560e+00 0.0 
8.027592118560e+00 -2.625395159443e+02 0.0 
0.0 0.0 -1.133536572511e+02 
-1.482748142112e+02 5.195111937106e-01 0.0 
5.195111937106e-01 -3.552183608517e+02 0.0 
0.0 0.0 -1.506479525189e+02 
-9.226328718352e+01 8.861392957592e+00 0.0 
8.861392957592e+00 -2.269472957927e+02 0.0 
0.0 0.0 -9.768641786507e+01 
-1.669367888855e+02 4.470338224343e+00 0.0 
4.470338224343e+00 -3.893429919552e+02 0.0 
0.0 0.0 -1.664839342522e+02 
-1.065405894365e+02 4.154209666400e+00 0.0 
4.154209666400e+00 -2.357610025046e+02 0.0 
0.0 0.0 -1.022904775823e+02 
-1.023039633243e+02 6.573444268638e+00 0.0 
6.573444268638e+00 -2.499203841902e+02 0.0 
0.0 0.0 -1.062634530440e+02 
-1.144660639286e+02 -4.979426410329e+00 0.0 
-4.979426410329e+00 -2.556492150502e+02 0.0 
0.0 0.0 -1.087534944064e+02 
-6.041761171663e+01 5.423015791005e+00 0.0 
5.423015791005e+00 -1.616157304281e+02 0.0 
0.0 0.0 -6.186657024588e+01 
-1.095352663019e+02 -7.461246056634e+00 0.0 
-7.461246056634e+00 -2.295449522796e+02 0.0 
0.0 0.0 -9.915289323557e+01 
-1.178918078370e+02 6.831038850361e+00 0.0 
6.831038850361e+00 -2.811829874623e+02 0.0 
0.0 0.0 -1.186251718204e+02 
-1.141158181177e+02 7.531435736420e+00 0.0 
7.531435736420e+00 -2.625298531524e+02 0.0 
0.0 0.0 -1.109511288302e+02 
-1.257049824583e+02 3.244300145144e+00 0.0 
3.244300145144e+00 -2.847769378469e+02 0.0 
0.0 0.0 -1.227445760915e+02 
-1.279645854997e+02 5.710329549380e+00 0.0 
5.710329549380e+00 -3.003676525860e+02 0.0 
0.0 0.0 -1.280996714257e+02 
-1.319291475607e+02 6.997340015356e+00 0.0 
6.997340015356e+00 -3.099231435114e+02 0.0 
0.0 0.0 -1.321556873216e+02 
-2.105398237131e+01 5.245971797435e-01 0.0 
5.245971797435e-01 -5.878616351300e+01 0.0 
0.0 0.0 -2.222440419818e+01 
-1.025902552976e+02 -7.141359031652e+00 0.0 
-7.141359031652e+00 -2.162343724778e+02 0.0 
0.0 0.0 -9.169847411522e+01 
-9.479529179789e+01 8.813189275695e+00 0.0 
8.813189275695e+00 -2.051266921592e+02 0.0 
0.0 0.0 -8.523600920581e+01 
-1.218419507318e+02 5.767372424519e+00 0.0 
5.767372424519e+00 -2.817940509639e+02 0.0 
0.0 0.0 -1.206908005087e+02 
-1.259349993412e+02 6.992164474640e+00 0.0 
6.992164474640e+00 -2.918379817855e+02 0.0 
0.0 0.0 -1.249318943380e+02 
-1.455086930566e+02 1.477885859516e+00 0.0 
1.477885859516e+00 -3.490787156782e+02 0.0 
0.0 0.0 -1.479762226204e+02 
-4.039584332925e+01 -1.413577779855e+00 0.0 
-1.413577779855e+00 -8.873971281751e+01 0.0 
0.0 0.0 -3.651753317106e+01 
-5.179556346481e+01 -1.111010347412e+01 0.0 
-1.111010347412e+01 -1.415367193280e+02 0.0 
0.0 0.0 -5.486083708558e+01 
-1.090846047019e+02 9.045886607375e+00 0.0 
9.045886607375e+00 -2.536915593428e+02 0.0 
0.0 0.0 -1.078596315295e+02 
-1.064806364827e+02 -7.355833618020e+00 0.0 
-7.355833618020e+00 -2.169702465943e+02 0.0 
0.0 0.0 -9.344092399855e+01 
-9.140991640185e+01 4.790989396464e+00 0.0 
4.790989396464e+00 -1.899989011459e+02 0.0 
0.0 0.0 -8.235606939874e+01 
-9.461937145702e+01 4.632780642279e+00 0.0 
4.632780642279e+00 -1.997745538880e+02 0.0 
0.0 0.0 -8.695677941791e+01 
-1.260889907486e+02 4.937061230160e+00 0.0 
4.937061230160e+00 -2.852244453698e+02 0.0 
0.0 0.0 -1.229940308355e+02 
-5.085275650559e+01 1.641368174162e+01 0.0 
1.641368174162e+01 -1.218213636935e+02 0.0 
0.0 0.0 -4.543560925849e+01 
-1.125816237279e+02 -5.424162167191e+00 0.0 
-5.424162167191e+00 -2.436988162623e+02 0.0 
0.0 0.0 -1.036525959246e+02 
-1.307176145557e+02 1.189815843317e+00 0.0 
1.189815843317e+00 -3.192919651017e+02 0.0 
0.0 0.0 -1.346028738972e+02 
-4.892479480801e+01 -4.710454450365e+00 0.0 
-4.710454450365e+00 -1.439939565978e+02 0.0 
0.0 0.0 -5.624826538173e+01 
-1.621994733359e+02 4.956779710365e+00 0.0 
4.956779710365e+00 -3.816490076668e+02 0.0 
0.0 0.0 -1.627545443008e+02 
-1.459805019154e+02 4.337821746151e+00 0.0 
4.337821746151e+00 -3.353836276573e+02 0.0 
0.0 0.0 -1.440092388718e+02 
-1.136978362786e+02 -4.845180066518e+00 0.0 
-4.845180066518e+00 -2.321669222965e+02 0.0 
0.0 0.0 -9.856763207329e+01 
-1.373588893645e+02 -2.518654198559e+00 0.0 
-2.518654198559e+00 -3.217135098640e+02 0.0 
0.0 0.0 -1.373217197685e+02 
-1.558852348321e+01 -3.513286178069e-01 0.0 
-3.513286178069e-01 -4.213035033442e+01 0.0 
0.0 0.0 -1.518831028967e+01 
-1.262252576541e+02 3.253597221260e-01 0.0 
3.253597221260e-01 -3.090593006749e+02 0.0 
0.0 0.0 -1.308721598334e+02 
-1.089233973113e+02 6.974720628687e+00 0.0 
6.974720628687e+00 -2.620245004979e+02 0.0 
0.0 0.0 -1.105352594866e+02 
-1.588023469550e+01 -1.476840725990e-01 0.0 
-1.476840725990e-01 -4.196494506577e+01 0.0 
0.0 0.0 -1.503479854377e+01 
-1.455942437898e+02 2.773889699215e+00 0.0 
2.773889699215e+00 -3.350196164816e+02 0.0 
0.0 0.0 -1.437841580814e+02 
-4.567301311777e+01 -6.060662319448e+00 0.0 
-6.060662319448e+00 -1.386855740741e+02 0.0 
0.0 0.0 -5.441017020400e+01 
-1.212570074486e+02 7.396988958078e+00 0.0 
7.396988958078e+00 -2.819027166915e+02 0.0 
0.0 0.0 -1.205479172420e+02 
-1.109749379895e+02 7.539279555288e+00 0.0 
7.539279555288e+00 -2.624572572560e+02 0.0 
0.0 0.0 -1.113123472719e+02 
-9.569923343952e+01 -6.263137606819e+00 0.0 
-6.263137606819e+00 -2.388425839339e+02 0.0 
0.0 0.0 -1.039745244933e+02 
-1.130756705966e+02 -3.261855306398e+00 0.0 
-3.261855306398e+00 -2.758377955492e+02 0.0 
0.0 0.0 -1.175766304290e+02 
-1.490370874422e+02 3.123442543141e+00 0.0 
3.123442543141e+00 -3.441511027649e+02 0.0 
0.0 0.0 -1.475564570621e+02 
-1.209635585312e+02 -2.831000623530e+00 0.0 
-2.831000623530e+00 -2.948741300185e+02 0.0 
0.0 0.0 -1.243513065649e+02 
-1.103180296051e+02 8.467992251254e+00 0.0 
8.467992251254e+00 -2.628052017437e+02 0.0 
0.0 0.0 -1.121054474755e+02 
-1.055358617791e+02 6.947808681744e+00 0.0 
6.947808681744e+00 -2.522974715406e+02 0.0 
0.0 0.0 -1.057023181201e+02 
-3.370552957597e+01 1.221494995245e+01 0.0 
1.221494995245e+01 -3.881650025832e+01 0.0 
0.0 0.0 -1.848961807810e+01 
-4.078562351831e+01 -5.580845552528e+00 0.0 
-5.580845552528e+00 -1.336443440846e+02 0.0 
0.0 0.0 -5.268811881137e+01 
-1.402924170464e+02 5.787170625252e+00 0.0 
5.787170625252e+00 -3.362114832280e+02 0.0 
0.0 0.0 -1.425511700823e+02 
-1.178125656983e+02 5.640886983141e+00 0.0 
5.640886983141e+00 -2.650216713857e+02 0.0 
0.0 0.0 -1.144502711252e+02 
-1.442919455091e+02 4.056781356991e+00 0.0 
4.056781356991e+00 -3.447663867261e+02 0.0 
0.0 0.0 -1.463174996706e+02 
-7.162843158105e+01 1.491360256001e+01 0.0 
1.491360256001e+01 -1.645775744465e+02 0.0 
0.0 0.0 -6.835800428872e+01 
-1.394168909305e+02 4.405815580235e+00 0.0 
4.405815580235e+00 -3.221115443613e+02 0.0 
0.0 0.0 -1.380585305875e+02 
-1.455085718771e+02 5.987253442848e+00 0.0 
5.987253442848e+00 -3.465141674076e+02 0.0 
0.0 0.0 -1.472068217854e+02 
-9.681842724804e+01 3.444956673217e+00 0.0 
3.444956673217e+00 -2.077799706457e+02 0.0 
0.0 0.0 -9.020319494793e+01 
-1.408803402134e+02 4.537980666431e+00 0.0 
4.537980666431e+00 -3.361477895569e+02 0.0 
0.0 0.0 -1.427084389311e+02 
-1.381114485569e+02 -9.056707456574e-01 0.0 
-9.056707456574e-01 -3.223976437981e+02 0.0 
0.0 0.0 -1.377527277065e+02 
-1.195136108299e+02 5.605451212739e+00 0.0 
5.605451212739e+00 -2.898481243890e+02 0.0 
0.0 0.0 -1.223551597463e+02 
-1.090871577863e+02 -6.011292172307e+00 0.0 
-6.011292172307e+00 -2.360850402526e+02 0.0 
0.0 0.0 -9.985308343266e+01 
-1.158593933987e+02 -5.997065189062e+00 0.0 
-5.997065189062e+00 -2.491651345273e+02 0.0 
0.0 0.0 -1.065587287171e+02 
-1.528156299040e+02 5.632051353485e+00 0.0 
5.632051353485e+00 -3.538956393486e+02 0.0 
0.0 0.0 -1.516133807758e+02 
-1.071142848022e+02 -3.701765469036e+00 0.0 
-3.701765469036e+00 -2.562156921509e+02 0.0 
0.0 0.0 -1.111420791047e+02 
-1.161374277895e+02 7.458342103340e+00 0.0 
7.458342103340e+00 -2.720126309009e+02 0.0 
0.0 0.0 -1.148181355260e+02 
-1.040450524767e+02 6.034325135921e+00 0.0 
6.034325135921e+00 -2.618713163219e+02 0.0 
0.0 0.0 -1.139034684530e+02 
-1.297525008243e+02 -2.174636251169e+00 0.0 
-2.174636251169e+00 -3.140846891868e+02 0.0 
0.0 0.0 -1.327511570033e+02 
-9.764706754248e+01 7.088650407057e+00 0.0 
7.088650407057e+00 -2.393366254728e+02 0.0 
0.0 0.0 -1.024550966704e+02 
-6.766648043426e+01 3.565206209238e-01 0.0 
3.565206209238e-01 -1.786199061205e+02 0.0 
0.0 0.0 -7.055542226408e+01 
-1.030612780192e+02 -2.224254300161e+00 0.0 
-2.224254300161e+00 -2.619553090732e+02 0.0 
0.0 0.0 -1.154242449067e+02 
-7.216266718311e+01 3.924663777962e+00 0.0 
3.924663777962e+00 -1.868884673241e+02 0.0 
0.0 0.0 -7.483069142590e+01 
-1.248594459422e+02 5.773849097538e+00 0.0 
5.773849097538e+00 -2.910541660875e+02 0.0 
0.0 0.0 -1.243740836089e+02 
-7.095838588571e+01 4.541727703994e-01 0.0 
4.541727703994e-01 -1.851376572774e+02 0.0 
0.0 0.0 -7.348626534368e+01 
-1.194819341089e+02 7.801971698792e+00 0.0 
7.801971698792e+00 -2.814743208004e+02 0.0 
0.0 0.0 -1.198868764728e+02 
-1.415084311444e+02 3.286181222627e+00 0.0 
3.286181222627e+00 -3.415897584385e+02 0.0 
0.0 0.0 -1.445294568749e+02 
-1.363326798491e+02 1.436899426349e+00 0.0 
1.436899426349e+00 -3.308837963827e+02 0.0 
0.0 0.0 -1.397649428695e+02 
-9.693875711047e+01 9.478562376316e+00 0.0 
9.478562376316e+00 -2.358237154754e+02 0.0 
0.0 0.0 -1.025991099450e+02 
-1.216936435903e+02 3.493472495832e+00 0.0 
3.493472495832e+00 -2.747188904625e+02 0.0 
0.0 0.0 -1.185237602158e+02 
-1.412049675657e+02 -2.299652629457e+00 0.0 
-2.299652629457e+00 -3.296066443014e+02 0.0 
0.0 0.0 -1.408434835601e+02 
-1.418703816794e+02 -6.707725032158e-01 0.0 
-6.707725032158e-01 -3.302631053149e+02 0.0 
0.0 0.0 -1.412400460983e+02 
-4.711338573931e+01 2.006658967584e+01 0.0 
2.006658967584e+01 -1.046867426931e+02 0.0 
0.0 0.0 -4.162375676685e+01 
-1.232886454969e+02 6.052877420656e+00 0.0 
6.052877420656e+00 -2.907614206163e+02 0.0 
0.0 0.0 -1.238150198339e+02 
-1.537501821151e+02 -2.165106908550e+00 0.0 
-2.165106908550e+00 -3.583329897286e+02 0.0 
0.0 0.0 -1.532249515531e+02 
-7.851114140961e+01 7.069468706458e+00 0.0 
7.069468706458e+00 -1.568205236339e+02 0.0 
0.0 0.0 -6.589511254410e+01 
-1.197274578471e+02 -4.011710988932e+00 0.0 
-4.011710988932e+00 -2.519384306437e+02 0.0 
0.0 0.0 -1.074388650962e+02 
-4.463178185879e+01 1.719697152950e+01 0.0 
1.719697152950e+01 -4.921529715980e+01 0.0 
0.0 0.0 -2.571389125847e+01 
-1.449806365233e+02 -2.068630049579e+00 0.0 
-2.068630049579e+00 -3.375962918945e+02 0.0 
0.0 0.0 -1.443730785253e+02 
-6.513236073233e+01 4.817374059214e+00 0.0 
4.817374059214e+00 -1.727313101113e+02 0.0 
0.0 0.0 -6.803525814446e+01 
-1.173725965262e+02 -1.870997873941e+00 0.0 
-1.870997873941e+00 -2.386041135091e+02 0.0 
0.0 0.0 -1.027807239322e+02 
-1.242458649278e+02 2.896892450982e+00 0.0 
2.896892450982e+00 -3.054749487893e+02 0.0 
0.0 0.0 -1.290635732800e+02 
-1.220541078818e+02 5.201675069544e+00 0.0 
5.201675069544e+00 -2.751895944156e+02 0.0 
0.0 0.0 -1.187731106892e+02 
-1.177822461788e+02 3.843363740918e+00 0.0 
3.843363740918e+00 -2.646737766979e+02 0.0 
0.0 0.0 -1.143368068630e+02 
-1.143385384950e+02 7.664097017722e+00 0.0 
7.664097017722e+00 -2.720069536129e+02 0.0 
0.0 0.0 -1.145944508949e+02 
-8.457476912248e+01 4.899346921018e+00 0.0 
4.899346921018e+00 -1.707557101209e+02 0.0 
0.0 0.0 -7.308112142373e+01 
-8.806359334871e+01 4.600671136600e+00 0.0 
4.600671136600e+00 -1.805192294164e+02 0.0 
0.0 0.0 -7.786606804219e+01 
-1.455154154189e+02 -4.867922999470e-01 0.0 
-4.867922999470e-01 -3.381945379966e+02 0.0 
0.0 0.0 -1.447129860247e+02 
-1.181541522259e+02 -1.540808810791e+00 0.0 
-1.540808810791e+00 -2.878543105685e+02 0.0 
0.0 0.0 -1.238343899044e+02 
-1.012886140424e+02 -4.530597730980e+00 0.0 
-4.530597730980e+00 -2.561513595125e+02 0.0 
0.0 0.0 -1.116065243950e+02 
-1.251778209442e+02 -9.097183171061e-01 0.0 
-9.097183171061e-01 -3.083935005828e+02 0.0 
0.0 0.0 -1.299921505883e+02 
-9.605242026206e+01 -2.610308379057e+00 0.0 
-2.610308379057e+00 -2.438918233226e+02 0.0 
0.0 0.0 -1.067683674902e+02 
-6.751384782163e+01 4.446262811516e+00 0.0 
4.446262811516e+00 -1.766144019546e+02 0.0 
0.0 0.0 -6.906869353175e+01 
-8.325857632756e+01 2.946982585997e+00 0.0 
2.946982585997e+00 -1.705776062351e+02 0.0 
0.0 0.0 -7.333226720551e+01 
-1.105144691756e+02 5.351036490587e+00 0.0 
5.351036490587e+00 -2.459182405228e+02 0.0 
0.0 0.0 -1.065298129095e+02 
-9.255294090636e+01 2.557759426991e-01 0.0 
2.557759426991e-01 -2.040842434603e+02 0.0 
0.0 0.0 -8.859115531000e+01 
-1.362035279568e+02 2.896910564333e+00 0.0 
2.896910564333e+00 -3.311250473135e+02 0.0 
0.0 0.0 -1.397985725811e+02 
-9.287697581210e+01 7.326920636833e+00 0.0 
7.326920636833e+00 -2.302990174060e+02 0.0 
0.0 0.0 -9.867563778184e+01 
-1.561204873184e+02 2.159655446575e+00 0.0 
2.159655446575e+00 -3.701614487315e+02 0.0 
0.0 0.0 -1.574845808150e+02 
-1.436903425447e+02 -1.489587295600e+00 0.0 
-1.489587295600e+00 -3.320179805741e+02 0.0 
0.0 0.0 -1.423124969356e+02 
-9.983152759885e+01 -8.532774549551e-01 0.0 
-8.532774549551e-01 -2.570801911844e+02 0.0 
0.0 0.0 -1.121781931518e+02 
-1.584324287395e+02 -3.524911459381e-01 0.0 
-3.524911459381e-01 -3.700923240876e+02 0.0 
0.0 0.0 -1.581574258482e+02 
-7.493999608293e+01 -3.117978073966e+00 0.0 
-3.117978073966e+00 -1.925089663751e+02 0.0 
0.0 0.0 -7.802951720103e+01 
-1.516946110439e+02 2.499423154441e+00 0.0 
2.499423154441e+00 -3.614733935234e+02 0.0 
0.0 0.0 -1.535504013702e+02 
-1.107785367843e+02 6.577447735350e+00 0.0 
6.577447735350e+00 -2.710457831461e+02 0.0 
0.0 0.0 -1.141472959791e+02 
-1.223206531869e+02 4.745050485869e+00 0.0 
4.745050485869e+00 -2.981237526487e+02 0.0 
0.0 0.0 -1.257333217507e+02 
-1.444756193161e+02 1.084552280472e+00 0.0 
1.084552280472e+00 -3.469927294971e+02 0.0 
0.0 0.0 -1.470405046440e+02 
-8.893995089867e+01 -1.284640789707e+01 0.0 
-1.284640789707e+01 -1.821773518162e+02 0.0 
0.0 0.0 -7.958603980216e+01 
-1.194233242534e+02 6.707641638432e+00 0.0 
6.707641638432e+00 -2.813666343006e+02 0.0 
0.0 0.0 -1.194174228311e+02 
-9.736622218824e+01 -3.432644817740e+00 0.0 
-3.432644817740e+00 -2.484598949648e+02 0.0 
0.0 0.0 -1.081356899529e+02 
-1.149159245406e+02 7.744670546960e+00 0.0 
7.744670546960e+00 -2.719758261787e+02 0.0 
0.0 0.0 -1.156675252158e+02 
-7.185303005497e+01 1.322188840110e+01 0.0 
1.322188840110e+01 -1.675990452150e+02 0.0 
0.0 0.0 -6.857293560589e+01 
-1.256312754751e+02 3.901088974768e+00 0.0 
3.901088974768e+00 -3.066046881808e+02 0.0 
0.0 0.0 -1.292707890968e+02 
-9.285765873377e+01 -4.765415095571e+00 0.0 
-4.765415095571e+00 -2.331018140124e+02 0.0 
0.0 0.0 -1.015728288265e+02 
-1.177117887966e+02 -4.496783174328e+00 0.0 
-4.496783174328e+00 -2.632098246922e+02 0.0 
0.0 0.0 -1.122620368745e+02 
-1.172099616655e+02 6.982254788779e+00 0.0 
6.982254788779e+00 -2.719364162678e+02 0.0 
0.0 0.0 -1.155617847606e+02 
-4.482761061563e+01 2.845519835381e+01 0.0 
2.845519835381e+01 -6.498341389501e+01 0.0 
0.0 0.0 -3.189971039204e+01 
-1.102013359019e+02 3.639380373499e+00 0.0 
3.639380373499e+00 -2.777737191334e+02 0.0 
0.0 0.0 -1.207748568753e+02 
-4.925468501531e+01 1.909847316307e+01 0.0 
1.909847316307e+01 -7.269530530891e+01 0.0 
0.0 0.0 -3.276016263085e+01 
-2.786153990964e+01 -3.813031826974e+00 0.0 
-3.813031826974e+00 -6.323772932151e+01 0.0 
0.0 0.0 -2.448415651449e+01 
-1.158588587633e+02 -4.823831026160e+00 0.0 
-4.823831026160e+00 -2.512022880520e+02 0.0 
0.0 0.0 -1.072156478708e+02 
-1.384984008536e+02 6.674179553036e+00 0.0 
6.674179553036e+00 -3.283717728894e+02 0.0 
0.0 0.0 -1.396610521229e+02 
-1.208853528054e+02 4.212396006874e+00 0.0 
4.212396006874e+00 -2.736345495005e+02 0.0 
0.0 0.0 -1.179559706918e+02 
-7.684771713549e+01 5.611665356265e+00 0.0 
5.611665356265e+00 -1.512977917059e+02 0.0 
0.0 0.0 -6.311967991481e+01 
-1.664387923244e+02 4.299004819280e+00 0.0 
4.299004819280e+00 -3.896905154236e+02 0.0 
0.0 0.0 -1.664387923244e+02 
-3.686385282440e+01 2.128661828625e+01 0.0 
2.128661828625e+01 -3.603763195535e+01 0.0 
0.0 0.0 -2.229474894207e+01 
-8.064191133166e+01 4.923358750950e+00 0.0 
4.923358750950e+00 -1.611920996836e+02 0.0 
0.0 0.0 -6.827376407710e+01 
-1.049227078455e+02 -2.923461693642e+00 0.0 
-2.923461693642e+00 -2.591914334303e+02 0.0 
0.0 0.0 -1.137318453213e+02 
-1.168426686605e+02 -3.810069093358e+00 0.0 
-3.810069093358e+00 -2.399402163697e+02 0.0 
0.0 0.0 -1.024272269747e+02 
-9.451410054312e+01 6.156416022956e+00 0.0 
6.156416022956e+00 -1.976346716296e+02 0.0 
0.0 0.0 -8.442902403804e+01 
-7.762435305454e+01 -9.335758949667e+00 0.0 
-9.335758949667e+00 -1.916025777101e+02 0.0 
0.0 0.0 -7.995253910054e+01 
-1.120820145858e+02 -4.221085953901e+00 0.0 
-4.221085953901e+00 -2.702136871335e+02 0.0 
0.0 0.0 -1.177049341575e+02 
-1.155869108625e+02 7.267663082526e+00 0.0 
7.267663082526e+00 -2.808609345931e+02 0.0 
0.0 0.0 -1.185343536367e+02 
-1.186867644409e+02 2.690817473730e+00 0.0 
2.690817473730e+00 -2.956989640135e+02 0.0 
0.0 0.0 -1.262291816816e+02 
-1.446506354030e+02 4.910529093331e+00 0.0 
4.910529093331e+00 -3.386801177388e+02 0.0 
0.0 0.0 -1.445992259425e+02 
-5.165175992858e+01 1.872041189363e+01 0.0 
1.872041189363e+01 -1.238214239101e+02 0.0 
0.0 0.0 -4.935901468974e+01 
-1.102368996471e+02 -5.644176016214e+00 0.0 
-5.644176016214e+00 -2.315593403774e+02 0.0 
0.0 0.0 -9.846767196466e+01 
-1.169043634733e+02 -4.223395651646e+00 0.0 
-4.223395651646e+00 -2.472201795897e+02 0.0 
0.0 0.0 -1.058755207068e+02 
-6.952179268746e+01 -1.080494093577e+01 0.0 
-1.080494093577e+01 -1.336884517043e+02 0.0 
0.0 0.0 -5.743009109629e+01 
-9.966282744741e+01 3.262805124103e+00 0.0 
3.262805124103e+00 -2.171713070444e+02 0.0 
0.0 0.0 -9.443169702814e+01 
-1.209998099836e+02 5.924820950020e+00 0.0 
5.924820950020e+00 -2.740268371897e+02 0.0 
0.0 0.0 -1.181079941520e+02 
-1.344496800362e+02 5.269356235367e-01 0.0 
5.269356235367e-01 -3.025919173898e+02 0.0 
0.0 0.0 -1.299663892056e+02 
-1.821771594708e+01 1.392082311771e-01 0.0 
1.392082311771e-01 -4.245549687583e+01 0.0 
0.0 0.0 -1.516145595333e+01 
-4.760554625674e+01 -8.962069530110e+00 0.0 
-8.962069530110e+00 -1.195096707140e+02 0.0 
0.0 0.0 -5.151295640004e+01 
-4.818804008641e+01 -8.400644806067e+00 0.0 
-8.400644806067e+00 -9.110105418115e+01 0.0 
0.0 0.0 -3.802789726552e+01 
-1.197801423968e+02 -2.852414686254e+00 0.0 
-2.852414686254e+00 -2.478919212054e+02 0.0 
0.0 0.0 -1.061868071968e+02 
-8.123911896962e+01 -2.748114572765e+00 0.0 
-2.748114572765e+00 -2.076440472629e+02 0.0 
0.0 0.0 -8.582437784179e+01 
-7.636793921669e+01 -9.645434094444e+00 0.0 
-9.645434094444e+00 -1.888527088519e+02 0.0 
0.0 0.0 -7.881578322132e+01 
-6.786964817912e+01 -3.657544138121e+00 0.0 
-3.657544138121e+00 -1.779371466966e+02 0.0 
0.0 0.0 -7.063301883042e+01 
-1.190466826459e+02 -4.196946954535e+00 0.0 
-4.196946954535e+00 -2.589271113948e+02 0.0 
0.0 0.0 -1.107612314883e+02 
-1.273723120804e+02 4.758358709941e+00 0.0 
4.758358709941e+00 -2.921666964775e+02 0.0 
0.0 0.0 -1.254617025674e+02 
-1.200463529904e+02 -3.495186190783e+00 0.0 
-3.495186190783e+00 -2.552850432877e+02 0.0 
0.0 0.0 -1.095165224847e+02 
-8.118720138080e+01 -1.326118755138e-01 0.0 
-1.326118755138e-01 -2.080430567791e+02 0.0 
0.0 0.0 -8.567157571895e+01 
-1.222329440651e+02 7.611093950632e+00 0.0 
7.611093950632e+00 -2.906028442379e+02 0.0 
0.0 0.0 -1.234507364909e+02 
-1.069602054239e+02 1.891857495738e+00 0.0 
1.891857495738e+00 -2.363560423189e+02 0.0 
0.0 0.0 -1.025948743228e+02 
-1.337473995087e+02 2.577146558259e+00 0.0 
2.577146558259e+00 -3.245553714293e+02 0.0 
0.0 0.0 -1.370908312814e+02 
-1.225276245744e+02 -1.940762058633e+00 0.0 
-1.940762058633e+00 -2.559916381857e+02 0.0 
0.0 0.0 -1.098862061654e+02 
-1.225775539964e+02 -3.068276772198e+00 0.0 
-3.068276772198e+00 -2.596741491001e+02 0.0 
0.0 0.0 -1.110900105112e+02 
-6.829655051697e+01 7.160726189721e+00 0.0 
7.160726189721e+00 -1.306209752560e+02 0.0 
0.0 0.0 -5.478911626385e+01 
-8.469861712408e+01 -5.373562977635e+00 0.0 
-5.373562977635e+00 -2.140575216382e+02 0.0 
0.0 0.0 -9.054332512293e+01 
-1.230143134242e+02 -2.753891329402e+00 0.0 
-2.753891329402e+00 -2.634082377451e+02 0.0 
0.0 0.0 -1.131307151545e+02 
-1.218798381778e+02 -5.322720945253e-01 0.0 
-5.322720945253e-01 -2.752626804573e+02 0.0 
0.0 0.0 -1.187427555905e+02 
-1.144260352699e+02 -6.045415925981e-01 0.0 
-6.045415925981e-01 -2.569965461349e+02 0.0 
0.0 0.0 -1.110267744215e+02 
-7.265353370891e+01 6.078729285919e+00 0.0 
6.078729285919e+00 -1.413382959258e+02 0.0 
0.0 0.0 -5.825291973748e+01 
-1.221751772009e+02 -3.553462278129e+00 0.0 
-3.553462278129e+00 -2.668595732437e+02 0.0 
0.0 0.0 -1.143293264103e+02 
-7.859359298046e+01 -1.431099220198e+01 0.0 
-1.431099220198e+01 -1.823346324652e+02 0.0 
0.0 0.0 -7.823265322659e+01 
-5.260706357366e+01 1.756221495636e+01 0.0 
1.756221495636e+01 -9.466204999003e+01 0.0 
0.0 0.0 -3.979284206009e+01 
-1.519759957435e+02 3.919704700243e+00 0.0 
3.919704700243e+00 -3.620519690119e+02 0.0 
0.0 0.0 -1.538083894266e+02 
-5.035908659441e+01 -1.121241148888e+01 0.0 
-1.121241148888e+01 -8.566682251401e+01 0.0 
0.0 0.0 -3.703096197832e+01 
-7.793342405030e+01 -1.268610986495e+01 0.0 
-1.268610986495e+01 -1.815843789827e+02 0.0 
0.0 0.0 -7.768758948078e+01 
-1.059660586192e+02 5.175301168389e+00 0.0 
5.175301168389e+00 -2.673498464234e+02 0.0 
0.0 0.0 -1.144204397561e+02 
-7.567360698831e+01 3.481957025518e+00 0.0 
3.481957025518e+00 -1.513437532396e+02 0.0 
0.0 0.0 -6.379952372151e+01 
-1.251961935823e+02 -1.080681191373e+00 0.0 
-1.080681191373e+00 -2.643801569254e+02 0.0 
0.0 0.0 -1.136335495442e+02 
-6.246780888572e+01 6.039790459334e-01 0.0 
6.039790459334e-01 -1.201018486661e+02 0.0 
0.0 0.0 -5.085807115917e+01 
-1.031536985678e+02 4.926816535354e+00 0.0 
4.926816535354e+00 -2.251439547969e+02 0.0 
0.0 0.0 -9.808822806162e+01 
-1.252451514712e+02 -2.200485663591e+00 0.0 
-2.200485663591e+00 -2.676001467753e+02 0.0 
0.0 0.0 -1.147054789192e+02 
-9.983495846218e+01 -7.255162591081e+00 0.0 
-7.255162591081e+00 -2.454128094519e+02 0.0 
0.0 0.0 -1.070471501024e+02 
-1.166816911690e+02 -5.020174542048e+00 0.0 
-5.020174542048e+00 -2.444150090830e+02 0.0 
0.0 0.0 -1.037091299267e+02 
-3.798769171212e+01 2.852972940755e+01 0.0 
2.852972940755e+01 -8.839089223059e+01 0.0 
0.0 0.0 -3.974754080690e+01 
-1.446622356886e+02 1.096322844029e+00 0.0 
1.096322844029e+00 -3.330833503074e+02 0.0 
0.0 0.0 -1.429236757988e+02 
-8.723976459599e+01 -1.055699804308e+01 0.0 
-1.055699804308e+01 -2.109086834205e+02 0.0 
0.0 0.0 -9.137286589512e+01 
-1.447110240948e+02 6.478654719771e-01 0.0 
6.478654719771e-01 -3.484160824056e+02 0.0 
0.0 0.0 -1.475381319501e+02 
-1.211247319372e+02 5.965419012674e+00 0.0 
5.965419012674e+00 -2.979437073614e+02 0.0 
0.0 0.0 -1.253205317896e+02 
-1.251914093119e+02 -2.927744582791e+00 0.0 
-2.927744582791e+00 -2.749068506193e+02 0.0 
0.0 0.0 -1.179044426545e+02 
-1.277684677437e+02 -1.441775935228e+00 0.0 
-1.441775935228e+00 -2.756233610638e+02 0.0 
0.0 0.0 -1.182968872606e+02 
-7.752665441620e+01 -3.295239566550e+00 0.0 
-3.295239566550e+00 -1.982250546687e+02 0.0 
0.0 0.0 -8.130316806537e+01 
-4.187010190908e+01 -1.005617359904e+01 0.0 
-1.005617359904e+01 -5.932132582756e+01 0.0 
0.0 0.0 -2.621784264513e+01 
-3.817545432573e+01 2.625384790937e+01 0.0 
2.625384790937e+01 -8.570979787392e+01 0.0 
0.0 0.0 -3.832706160527e+01 
-1.280677881905e+02 -2.319829912968e+00 0.0 
-2.319829912968e+00 -2.831092487293e+02 0.0 
0.0 0.0 -1.215275759462e+02 
-1.439993291998e+02 -1.668082517375e-01 0.0 
-1.668082517375e-01 -3.468530050256e+02 0.0 
0.0 0.0 -1.468557002676e+02 
-7.921117226974e+01 -1.664621366772e+01 0.0 
-1.664621366772e+01 -1.716395636403e+02 0.0 
0.0 0.0 -7.458083293724e+01 
-1.263253577345e+02 5.738592130619e+00 0.0 
5.738592130619e+00 -2.999538945930e+02 0.0 
0.0 0.0 -1.274837756983e+02 
-7.354853144432e+01 8.455327873761e+00 0.0 
8.455327873761e+00 -1.455209407059e+02 0.0 
0.0 0.0 -6.197961498340e+01 
-1.272141868669e+02 7.294658441157e+00 0.0 
7.294658441157e+00 -3.003663721856e+02 0.0 
0.0 0.0 -1.278741677157e+02 
-1.618093596274e+02 -1.103628513312e+00 0.0 
-1.103628513312e+00 -3.825598276466e+02 0.0 
0.0 0.0 -1.629107561822e+02 
-1.262076668959e+02 -2.014518174480e+00 0.0 
-2.014518174480e+00 -1.041149782437e+02 0.0 
0.0 0.0 -6.937366455232e+01 
-1.648580397624e+02 6.935877052921e-01 0.0 
6.935877052921e-01 -3.860020927790e+02 0.0 
0.0 0.0 -1.648580397624e+02 
-1.688972100165e+02 -4.242768880213e-01 0.0 
-4.242768880213e-01 -3.954268233719e+02 0.0 
0.0 0.0 -1.688972100165e+02 
-1.012615610305e+02 8.331887890215e-01 0.0 
8.331887890215e-01 -2.251421393475e+02 0.0 
0.0 0.0 -9.752111011339e+01 
-8.862305233189e+01 -1.410718747772e+01 0.0 
-1.410718747772e+01 -2.031403875046e+02 0.0 
0.0 0.0 -8.848473639808e+01 
-1.180704528740e+02 6.671512205226e+00 0.0 
6.671512205226e+00 -2.895308162222e+02 0.0 
0.0 0.0 -1.218803807289e+02 
-7.780335649037e+01 3.880163549732e-01 0.0 
3.880163549732e-01 -2.002607838773e+02 0.0 
0.0 0.0 -8.149573343172e+01 
-2.284440771125e+01 6.422564230516e-01 0.0 
6.422564230516e-01 -5.505749735332e+01 0.0 
0.0 0.0 -2.147879762178e+01 
-4.817629206625e+01 2.316198897852e+01 0.0 
2.316198897852e+01 -4.179283570157e+01 0.0 
0.0 0.0 -2.562241415348e+01 
-1.516764050038e+02 2.367859712162e+00 0.0 
2.367859712162e+00 -3.503518543998e+02 0.0 
0.0 0.0 -1.502084778211e+02 
-1.242803141401e+02 6.278770846224e+00 0.0 
6.278770846224e+00 -2.834851760132e+02 0.0 
0.0 0.0 -1.219296470460e+02 
-9.790997542288e+01 4.747778240431e+00 0.0 
4.747778240431e+00 -2.105197346835e+02 0.0 
0.0 0.0 -9.173533355600e+01 
-1.693025568658e+02 4.734399423625e+00 0.0 
4.734399423625e+00 -3.979929887749e+02 0.0 
0.0 0.0 -1.697886636922e+02 
-4.766386766924e+01 7.399943771020e-01 0.0 
7.399943771020e-01 -9.995966318092e+01 0.0 
0.0 0.0 -4.161729369567e+01 
-1.691670674071e+02 4.336588066971e+00 0.0 
4.336588066971e+00 -3.983254840129e+02 0.0 
0.0 0.0 -1.698477654260e+02 
-1.241912190542e+02 4.504734835307e+00 0.0 
4.504734835307e+00 -2.830136154529e+02 0.0 
0.0 0.0 -1.217614503521e+02 
-9.202408230576e+01 -1.328872372155e+01 0.0 
-1.328872372155e+01 -1.957878074093e+02 0.0 
0.0 0.0 -8.576352714922e+01 
-1.156541804224e+02 6.449035040905e+00 0.0 
6.449035040905e+00 -2.805374403192e+02 0.0 
0.0 0.0 -1.186861716445e+02 
-8.335412066589e+01 -1.209592713503e+01 0.0 
-1.209592713503e+01 -1.878536788460e+02 0.0 
0.0 0.0 -8.068025078243e+01 
-5.441400097924e+01 1.569712095442e+01 0.0 
1.569712095442e+01 -1.002130682093e+02 0.0 
0.0 0.0 -4.264695556254e+01 
-8.059337307783e+01 -1.285753665162e+01 0.0 
-1.285753665162e+01 -1.748402893773e+02 0.0 
0.0 0.0 -7.510838108583e+01 
-1.305835781983e+02 4.929557204732e+00 0.0 
4.929557204732e+00 -3.013624561868e+02 0.0 
0.0 0.0 -1.291838103155e+02 
-1.482658709012e+02 1.761633560829e-01 0.0 
1.761633560829e-01 -3.431747362106e+02 0.0 
0.0 0.0 -1.470321821335e+02 
-8.108748710647e+01 -1.057481272428e+01 0.0 
-1.057481272428e+01 -1.942593452002e+02 0.0 
0.0 0.0 -8.310042819589e+01 
-1.310909379685e+02 5.517606131180e+00 0.0 
5.517606131180e+00 -3.095420896302e+02 0.0 
0.0 0.0 -1.317899082796e+02 
-7.727761557825e+01 -3.023052588772e+00 0.0 
-3.023052588772e+00 -1.128149001362e+02 0.0 
0.0 0.0 -5.752901023756e+01 
-8.078733749298e+01 -6.225275908541e+00 0.0 
-6.225275908541e+00 -2.026620198863e+02 0.0 
0.0 0.0 -8.431743704584e+01 
-1.363234984644e+02 5.934916875766e+00 0.0 
5.934916875766e+00 -3.133925770446e+02 0.0 
0.0 0.0 -1.345148226527e+02 
-8.181266126912e+01 -1.161794973020e+01 0.0 
-1.161794973020e+01 -1.679429042262e+02 0.0 
0.0 0.0 -7.187309328737e+01 
-7.610097571315e+01 -1.650387976825e+01 0.0 
-1.650387976825e+01 -1.565768746084e+02 0.0 
0.0 0.0 -6.830785111972e+01 
-1.133267954876e+02 6.411666116762e+00 0.0 
6.411666116762e+00 -2.798784702653e+02 0.0 
0.0 0.0 -1.175615797259e+02 
-4.993539631133e+01 -1.856943882847e+01 0.0 
-1.856943882847e+01 -1.101107632450e+02 0.0 
0.0 0.0 -4.136883122214e+01 
-5.886632253832e+01 8.364554214042e+00 0.0 
8.364554214042e+00 -1.095612858281e+02 0.0 
0.0 0.0 -4.673283599906e+01 
-6.381317676023e+01 7.628265421594e+00 0.0 
7.628265421594e+00 -1.212622957053e+02 0.0 
0.0 0.0 -5.083690299423e+01 
-7.341259885851e+01 -1.280689232313e+01 0.0 
-1.280689232313e+01 -1.477268131353e+02 0.0 
0.0 0.0 -6.320097565079e+01 
-1.070159365566e+02 -4.483498909024e+00 0.0 
-4.483498909024e+00 -2.628060589150e+02 0.0 
0.0 0.0 -1.148317295003e+02 
-1.026957740331e+02 7.956926046621e+00 0.0 
7.956926046621e+00 -2.535076696765e+02 0.0 
0.0 0.0 -1.100605341239e+02 
-1.303228412722e+02 7.070503855748e+00 0.0 
7.070503855748e+00 -3.094684892068e+02 0.0 
0.0 0.0 -1.315373991437e+02 
-1.542180659075e+02 4.970100739471e+00 0.0 
4.970100739471e+00 -3.601992875821e+02 0.0 
0.0 0.0 -1.539252060469e+02 
-6.698854293763e+01 4.737683432155e+00 0.0 
4.737683432155e+00 -1.312457501821e+02 0.0 
0.0 0.0 -5.425461504325e+01 
-1.299101156799e+02 1.261123987954e+00 0.0 
1.261123987954e+00 -2.949520702085e+02 0.0 
0.0 0.0 -1.270586557665e+02 
-1.548241269630e+02 4.961401224304e+00 0.0 
4.961401224304e+00 -3.645547002908e+02 0.0 
0.0 0.0 -1.554136481761e+02 
-7.472563599582e+01 1.222547473808e-01 0.0 
1.222547473808e-01 -1.931025680998e+02 0.0 
0.0 0.0 -7.806815325930e+01 
-4.540767035242e+01 1.521190798322e+01 0.0 
1.521190798322e+01 -7.179681790794e+01 0.0 
0.0 0.0 -3.062718643790e+01 
-7.866869524546e+01 8.799876787718e+00 0.0 
8.799876787718e+00 -1.568907726558e+02 0.0 
0.0 0.0 -6.575021200996e+01 
-1.056415740314e+02 -6.830453111781e+00 0.0 
-6.830453111781e+00 -2.521289991456e+02 0.0 
0.0 0.0 -1.103011343410e+02 
-1.324429813533e+02 5.388053200524e+00 0.0 
5.388053200524e+00 -3.098501000552e+02 0.0 
0.0 0.0 -1.322879244226e+02 
-1.026162714339e+02 -4.479771190864e+00 0.0 
-4.479771190864e+00 -2.486096415323e+02 0.0 
0.0 0.0 -1.085239974355e+02 
-4.168131884518e+01 2.083879726290e+01 0.0 
2.083879726290e+01 -1.038076248387e+02 0.0 
0.0 0.0 -4.125536178312e+01 
-1.136637127824e+02 -1.549193994594e+00 0.0 
-1.549193994594e+00 -2.799712641314e+02 0.0 
0.0 0.0 -1.218402255093e+02 
-5.739109687130e+01 1.421456396912e+01 0.0 
1.421456396912e+01 -1.074255238044e+02 0.0 
0.0 0.0 -4.621476932650e+01 
-9.947196918348e+01 5.810800782749e+00 0.0 
5.810800782749e+00 -2.479512829985e+02 0.0 
0.0 0.0 -1.068288534055e+02 
-1.092033893749e+02 -2.816480121906e+00 0.0 
-2.816480121906e+00 -2.675678890572e+02 0.0 
0.0 0.0 -1.160737206719e+02 
-1.171654125469e+02 4.688491582982e+00 0.0 
4.688491582982e+00 -2.884144463372e+02 0.0 
0.0 0.0 -1.223759983290e+02 
-1.204246466588e+02 1.475854079268e+00 0.0 
1.475854079268e+00 -2.705888465253e+02 0.0 
0.0 0.0 -1.169040479552e+02 
-7.563923161658e+01 -1.296133904647e+01 0.0 
-1.296133904647e+01 -1.479007862886e+02 0.0 
0.0 0.0 -6.430995580915e+01 
-4.996589020088e+01 1.953213811721e+01 0.0 
1.953213811721e+01 -8.938182900759e+01 0.0 
0.0 0.0 -3.698538377636e+01 
-1.163494916815e+02 -2.805103742372e+00 0.0 
-2.805103742372e+00 -2.868180980282e+02 0.0 
0.0 0.0 -1.216709794182e+02 
-6.030461988507e+01 1.311210921102e+01 0.0 
1.311210921102e+01 -1.144823442630e+02 0.0 
0.0 0.0 -4.976072565107e+01 
-4.627007228271e+01 8.566928197883e+00 0.0 
8.566928197883e+00 -1.220214842356e+02 0.0 
0.0 0.0 -5.189525528151e+01 
-1.521800720073e+02 -4.360397730841e-01 0.0 
-4.360397730841e-01 -3.518862626274e+02 0.0 
0.0 0.0 -1.508199003904e+02 
-1.450564490154e+02 -5.590997196523e-01 0.0 
-5.590997196523e-01 -3.333457850777e+02 0.0 
0.0 0.0 -1.431206702279e+02 
-2.019278296044e+01 -2.477127424331e+00 0.0 
-2.477127424331e+00 -2.708803299263e+01 0.0 
0.0 0.0 -1.266389036904e+01 
-1.220810755577e+02 -6.367416208283e-01 0.0 
-6.367416208283e-01 -2.986004760049e+02 0.0 
0.0 0.0 -1.274641136341e+02 
-5.901742763544e+01 -1.027721272131e+01 0.0 
-1.027721272131e+01 -1.123033894671e+02 0.0 
0.0 0.0 -4.780412357764e+01 
-6.395632662151e+01 -1.085341339380e+01 0.0 
-1.085341339380e+01 -1.206555149214e+02 0.0 
0.0 0.0 -5.142905128106e+01 
-1.391636230390e+02 5.117280030426e+00 0.0 
5.117280030426e+00 -3.285140810863e+02 0.0 
0.0 0.0 -1.399033112376e+02 
-1.157388244423e+02 5.804858903708e+00 0.0 
5.804858903708e+00 -2.880253455392e+02 0.0 
0.0 0.0 -1.207292509945e+02 
-1.343475380794e+02 5.257291295333e+00 0.0 
5.257291295333e+00 -3.187273709422e+02 0.0 
0.0 0.0 -1.355224727065e+02 
-8.264237631343e+01 -8.861036484194e+00 0.0 
-8.861036484194e+00 -2.043289772449e+02 0.0 
0.0 0.0 -8.682145612630e+01 
-9.304767452397e+01 6.661118605127e-01 0.0 
6.661118605127e-01 -2.042520509618e+02 0.0 
0.0 0.0 -8.878991764573e+01 
-1.623158193012e+02 -7.509705125610e-01 0.0 
-7.509705125610e-01 -3.817752262805e+02 0.0 
0.0 0.0 -1.628273136745e+02 
-5.441925657550e+01 -1.003431340839e+01 0.0 
-1.003431340839e+01 -9.997301002098e+01 0.0 
0.0 0.0 -4.271203155980e+01 
-1.402332222844e+02 2.429253721465e+00 0.0 
2.429253721465e+00 -3.390305451151e+02 0.0 
0.0 0.0 -1.433791302198e+02 
-1.036831031424e+02 5.471868862673e+00 0.0 
5.471868862673e+00 -2.576018798201e+02 0.0 
0.0 0.0 -1.102761618089e+02 
-3.278642757359e+01 -2.203576056352e+00 0.0 
-2.203576056352e+00 -7.585919429706e+01 0.0 
0.0 0.0 -3.057231650041e+01 
-1.292565909164e+02 5.406101176901e+00 0.0 
5.406101176901e+00 -3.005283732960e+02 0.0 
0.0 0.0 -1.285354892637e+02 
-8.390315794236e+01 -3.149101299031e+00 0.0 
-3.149101299031e+00 -2.132584526375e+02 0.0 
0.0 0.0 -8.921147184312e+01 
-3.684428741224e+01 -9.256901610048e+00 0.0 
-9.256901610048e+00 -4.881948442760e+01 0.0 
0.0 0.0 -2.057548562999e+01 
-7.412106243052e+01 -6.750074973154e+00 0.0 
-6.750074973154e+00 -1.875970612360e+02 0.0 
0.0 0.0 -7.645772718589e+01 
-1.323371979887e+02 -9.031397685511e-01 0.0 
-9.031397685511e-01 -2.938294135858e+02 0.0 
0.0 0.0 -1.262758572281e+02 
-1.305282849941e+02 6.665610380486e+00 0.0 
6.665610380486e+00 -3.019229003059e+02 0.0 
0.0 0.0 -1.293353555900e+02 
-4.662994628952e+01 -8.702207050547e+00 0.0 
-8.702207050547e+00 -7.874739988352e+01 0.0 
0.0 0.0 -3.260193143306e+01 
-1.180722118524e+02 -4.775498901292e-01 0.0 
-4.775498901292e-01 -2.393729189059e+02 0.0 
0.0 0.0 -1.032668515084e+02 
-1.358191372411e+02 5.278002095989e+00 0.0 
5.278002095989e+00 -3.193357345260e+02 0.0 
0.0 0.0 -1.361464615301e+02 
-1.386154727221e+02 4.332674381677e+00 0.0 
4.332674381677e+00 -3.348728811129e+02 0.0 
0.0 0.0 -1.416465061505e+02 
-7.703529342620e+01 -1.308112308305e+01 0.0 
-1.308112308305e+01 -1.612781608605e+02 0.0 
0.0 0.0 -6.910053537838e+01 
-6.509171770347e+01 -2.124420977057e+00 0.0 
-2.124420977057e+00 -1.202738029311e+02 0.0 
0.0 0.0 -5.096495755211e+01 
-1.086102245157e+02 6.218265818984e+00 0.0 
6.218265818984e+00 -2.706218162027e+02 0.0 
0.0 0.0 -1.171712797098e+02 
-1.177393747156e+02 9.084014954606e-01 0.0 
9.084014954606e-01 -2.647004966068e+02 0.0 
0.0 0.0 -1.143319613967e+02 
-3.916272063684e+01 -1.359681422479e+01 0.0 
-1.359681422479e+01 -5.262061125445e+01 0.0 
0.0 0.0 -1.988313642966e+01 
-1.616374919956e+02 5.399091337259e+00 0.0 
5.399091337259e+00 -3.808542784548e+02 0.0 
0.0 0.0 -1.623475311351e+02 
-1.601822855124e+02 5.239937160643e+00 0.0 
5.239937160643e+00 -3.746915458437e+02 0.0 
0.0 0.0 -1.600621494068e+02 
-1.063680102667e+02 9.611812851906e-01 0.0 
9.611812851906e-01 -2.370540425626e+02 0.0 
0.0 0.0 -1.026266158488e+02 
-1.583744940425e+02 4.545165990414e+00 0.0 
4.545165990414e+00 -3.666049267329e+02 0.0 
0.0 0.0 -1.570938262326e+02 
-1.613544462051e+02 5.209055920185e+00 0.0 
5.209055920185e+00 -3.775874959493e+02 0.0 
0.0 0.0 -1.612825826463e+02 
-8.400424613995e+01 -8.055498518321e+00 0.0 
-8.055498518321e+00 -2.065037502442e+02 0.0 
0.0 0.0 -8.805109904742e+01 
-8.534848656990e+01 -1.324983489491e+01 0.0 
-1.324983489491e+01 -2.000377977026e+02 0.0 
0.0 0.0 -8.666153313580e+01 
-1.612741460772e+02 2.183572188441e+00 0.0 
2.183572188441e+00 -3.828050646579e+02 0.0 
0.0 0.0 -1.628237632205e+02 
-7.223409255711e+01 3.223102016618e+00 0.0 
3.223102016618e+00 -1.089262557703e+02 0.0 
0.0 0.0 -5.489871668102e+01 
-5.585275142794e+01 -1.362662224090e+00 0.0 
-1.362662224090e+00 -1.091079495451e+02 0.0 
0.0 0.0 -4.589252119666e+01 
-1.189826823712e+02 -1.407006695638e+00 0.0 
-1.407006695638e+00 -2.437278851342e+02 0.0 
0.0 0.0 -1.048899658421e+02 
-8.032308578309e+01 -1.434929540964e+01 0.0 
-1.434929540964e+01 -1.620797064074e+02 0.0 
0.0 0.0 -7.076927823359e+01 
-7.460737869136e+01 -1.182882845066e+01 0.0 
-1.182882845066e+01 -1.787959312864e+02 0.0 
0.0 0.0 -7.481357705010e+01 
-5.162477585948e+01 9.490544514413e+00 0.0 
9.490544514413e+00 -8.981321925037e+01 0.0 
0.0 0.0 -3.919942805565e+01 
-5.631360634599e+01 9.397282977862e+00 0.0 
9.397282977862e+00 -1.015756399843e+02 0.0 
0.0 0.0 -4.371288048409e+01 
-1.081197665502e+02 2.795346039773e+00 0.0 
2.795346039773e+00 -2.387412193483e+02 0.0 
0.0 0.0 -1.036582957696e+02 
-7.884565415790e+01 -6.250807608549e+00 0.0 
-6.250807608549e+00 -1.986096109784e+02 0.0 
0.0 0.0 -8.245134342912e+01 
-7.011273800887e+01 -4.041755861852e+00 0.0 
-4.041755861852e+00 -1.286531395778e+02 0.0 
0.0 0.0 -5.395488253788e+01 
-1.343544378656e+02 3.485608520674e+00 0.0 
3.485608520674e+00 -3.250125919642e+02 0.0 
0.0 0.0 -1.374101089489e+02 
-1.700876320339e+02 -1.342442709348e+00 0.0 
-1.342442709348e+00 -3.982154581418e+02 0.0 
0.0 0.0 -1.700909270527e+02 
-1.692321797501e+02 -9.772734353323e-01 0.0 
-9.772734353323e-01 -3.975648526524e+02 0.0 
0.0 0.0 -1.696391097208e+02 
-8.514923586207e+01 -1.099531899493e+01 0.0 
-1.099531899493e+01 -2.003522057740e+02 0.0 
0.0 0.0 -8.580526173084e+01 
-1.014833609686e+02 2.169369633761e+00 0.0 
2.169369633761e+00 -2.228678208755e+02 0.0 
0.0 0.0 -9.690535455324e+01 
-7.593053989106e+01 -2.294375732819e-01 0.0 
-2.294375732819e-01 -1.103468217204e+02 0.0 
0.0 0.0 -5.686549244056e+01 
-4.790572752142e+01 1.143671271346e+01 0.0 
1.143671271346e+01 -7.387010245598e+01 0.0 
0.0 0.0 -3.310958341637e+01 
-5.313437427530e+01 -2.158292639836e+01 0.0 
-2.158292639836e+01 -1.150171384001e+02 0.0 
0.0 0.0 -4.563050394685e+01 
-5.020967316344e+01 1.039548390063e+01 0.0 
1.039548390063e+01 -8.292552983845e+01 0.0 
0.0 0.0 -3.673878593877e+01 
-1.103299950276e+02 5.814420647986e+00 0.0 
5.814420647986e+00 -2.776370012475e+02 0.0 
0.0 0.0 -1.167255579036e+02 
-7.488276704321e+01 -1.410930151139e+01 0.0 
-1.410930151139e+01 -1.687486759438e+02 0.0 
0.0 0.0 -7.185840395515e+01 
-8.058342204712e+01 -1.163852091072e+01 0.0 
-1.163852091072e+01 -1.934390770970e+02 0.0 
0.0 0.0 -8.277018843935e+01 
-3.875342379669e+01 -2.662543732416e+01 0.0 
-2.662543732416e+01 -9.337475405389e+01 0.0 
0.0 0.0 -4.006463034784e+01 
-1.457721063626e+02 3.573610885665e-01 0.0 
3.573610885665e-01 -3.364160820598e+02 0.0 
0.0 0.0 -1.442564565267e+02 
-8.227742917900e+01 -1.548738322381e+01 0.0 
-1.548738322381e+01 -1.869389359370e+02 0.0 
0.0 0.0 -8.084180417709e+01 
-1.514172314393e+02 8.391537874544e-01 0.0 
8.391537874544e-01 -3.499021715630e+02 0.0 
0.0 0.0 -1.499958209007e+02 
-1.403569617814e+02 1.323341745742e+00 0.0 
1.323341745742e+00 -3.209552955289e+02 0.0 
0.0 0.0 -1.379936771931e+02 
-1.655259201443e+02 5.360645384134e-01 0.0 
5.360645384134e-01 -3.857473254374e+02 0.0 
0.0 0.0 -1.649819736745e+02 
-1.697198311036e+02 -7.053965630462e-01 0.0 
-7.053965630462e-01 -3.960287525817e+02 0.0 
0.0 0.0 -1.693245751056e+02 
-1.064024680110e+02 -5.159668566998e-01 0.0 
-5.159668566998e-01 -2.375563453415e+02 0.0 
0.0 0.0 -1.027876440057e+02 
-8.663602707773e+01 -1.501726283254e+01 0.0 
-1.501726283254e+01 -1.896778333703e+02 0.0 
0.0 0.0 -8.278892065509e+01 
-5.764447429422e+01 6.884461639103e+00 0.0 
6.884461639103e+00 -1.095206099070e+02 0.0 
0.0 0.0 -4.661155874375e+01 
-8.869506839424e+01 -1.046502086512e+01 0.0 
-1.046502086512e+01 -1.943407178014e+02 0.0 
0.0 0.0 -8.343990077791e+01 
-1.699362241636e+02 -1.149625713923e+00 0.0 
-1.149625713923e+00 -3.978511897150e+02 0.0 
0.0 0.0 -1.699362241636e+02 
-4.505445938477e+01 1.449876445832e+01 0.0 
1.449876445832e+01 -5.680002213435e+01 0.0 
0.0 0.0 -2.723123604966e+01 
-4.618469907430e+01 1.222824226791e+01 0.0 
1.222824226791e+01 -6.567521913332e+01 0.0 
0.0 0.0 -3.014686505210e+01 
-1.450910680966e+02 2.754964797238e+00 0.0 
2.754964797238e+00 -3.490467943522e+02 0.0 
0.0 0.0 -1.478413587346e+02 
-1.015274118432e+02 1.801358018151e+00 0.0 
1.801358018151e+00 -2.229188968030e+02 0.0 
0.0 0.0 -9.693389259384e+01 
-1.520783921148e+02 2.528772821743e-01 0.0 
2.528772821743e-01 -3.517147651578e+02 0.0 
0.0 0.0 -1.507379471818e+02 
-1.351892054802e+02 6.900483963683e+00 0.0 
6.900483963683e+00 -3.192120529131e+02 0.0 
0.0 0.0 -1.359203775180e+02 
-1.476631426608e+02 2.795758291521e+00 0.0 
2.795758291521e+00 -3.528576160054e+02 0.0 
0.0 0.0 -1.497562275999e+02 
-1.415587056543e+02 6.688259056822e+00 0.0 
6.688259056822e+00 -3.304592624358e+02 0.0 
0.0 0.0 -1.412053904270e+02 
-1.082169153194e+02 -4.634778688362e-02 0.0 
-4.634778688362e-02 -2.412931236573e+02 0.0 
0.0 0.0 -1.044530116930e+02 
-7.202145684284e+01 -1.527611502472e+01 0.0 
-1.527611502472e+01 -1.416828512886e+02 0.0 
0.0 0.0 -6.182186669189e+01 
-6.981074456679e+01 -1.398622290033e+01 0.0 
-1.398622290033e+01 -1.415859132871e+02 0.0 
0.0 0.0 -6.048285036745e+01 
-1.258274559019e+02 -4.015379280432e-01 0.0 
-4.015379280432e-01 -2.844581015704e+02 0.0 
0.0 0.0 -1.226856672417e+02 
-1.432642283551e+02 4.796697806041e+00 0.0 
4.796697806041e+00 -3.440159555210e+02 0.0 
0.0 0.0 -1.457840551628e+02 
-9.569795820311e+01 3.088954359349e+00 0.0 
3.088954359349e+00 -2.077265300375e+02 0.0 
0.0 0.0 -9.056564714843e+01 
-9.958071958744e+01 2.439844215258e-01 0.0 
2.439844215258e-01 -2.206368801539e+02 0.0 
0.0 0.0 -9.566527992240e+01 
-1.064131664996e+02 6.875917712731e-01 0.0 
6.875917712731e-01 -2.366394262452e+02 0.0 
0.0 0.0 -1.025157778234e+02 
-1.086316124048e+02 1.781500741042e+00 0.0 
1.781500741042e+00 -2.424029044015e+02 0.0 
0.0 0.0 -1.049103550419e+02 
-3.746050871718e+01 -1.497594895340e+01 0.0 
-1.497594895340e+01 -1.170788514212e+02 0.0 
0.0 0.0 -4.612444005691e+01 
-6.574513938862e+01 -1.313283473476e+01 0.0 
-1.313283473476e+01 -1.275262224189e+02 0.0 
0.0 0.0 -5.450204775269e+01 
-1.596615682257e+02 1.939761112983e+00 0.0 
1.939761112983e+00 -3.706890877177e+02 0.0 
0.0 0.0 -1.587051967830e+02 
-1.168117949730e+02 1.822794452595e+00 0.0 
1.822794452595e+00 -2.617610498946e+02 0.0 
0.0 0.0 -1.131718534603e+02 
-1.645572165742e+02 2.303060772651e+00 0.0 
2.303060772651e+00 -3.877045392440e+02 0.0 
0.0 0.0 -1.652785267455e+02 
-1.547581515623e+02 6.334722874612e+00 0.0 
6.334722874612e+00 -3.613822599186e+02 0.0 
0.0 0.0 -1.544421234443e+02 
-1.288650673894e+02 7.050576600546e+00 0.0 
7.050576600546e+00 -3.008016717036e+02 0.0 
0.0 0.0 -1.285000217279e+02 
-1.531295996003e+02 4.348868550577e+00 0.0 
4.348868550577e+00 -3.541118756128e+02 0.0 
0.0 0.0 -1.517724425639e+02 
-9.645409335268e+01 -4.394313969013e+00 0.0 
-4.394313969013e+00 -1.819929838043e+02 0.0 
0.0 0.0 -7.762913437363e+01 
-8.756262894526e+01 -4.792606358310e+00 0.0 
-4.792606358310e+00 -1.654292200901e+02 0.0 
0.0 0.0 -6.980086977429e+01 
-1.552261056993e+02 -1.542661265481e+00 0.0 
-1.542661265481e+00 -3.667071434424e+02 0.0 
0.0 0.0 -1.561799747425e+02 
-3.484465305315e+01 -2.330295833055e+01 0.0 
-2.330295833055e+01 -9.929518831090e+01 0.0 
0.0 0.0 -4.163633018643e+01 
-5.620738898793e+01 -4.717116741928e-01 0.0 
-4.717116741928e-01 -1.155936148486e+02 0.0 
0.0 0.0 -4.858145726926e+01 
-1.702696825161e+02 4.457987356874e+00 0.0 
4.457987356874e+00 -3.986292592042e+02 0.0 
0.0 0.0 -1.702696825161e+02 
-1.929582524461e+01 9.355766081809e-01 0.0 
9.355766081809e-01 -5.715200573551e+01 0.0 
0.0 0.0 -2.184645076507e+01 
-9.952759392937e+01 2.568886402751e-01 0.0 
2.568886402751e-01 -2.206068161865e+02 0.0 
0.0 0.0 -9.564032303475e+01 
-1.538535973241e+02 1.514029697819e+00 0.0 
1.514029697819e+00 -3.679573382016e+02 0.0 
0.0 0.0 -1.561432806577e+02 
-2.232323890443e+01 -2.555015865965e+00 0.0 
-2.555015865965e+00 -3.959960604957e+01 0.0 
0.0 0.0 -1.603086770878e+01 
-1.453438678600e+01 6.351779793765e-01 0.0 
6.351779793765e-01 -2.377413505152e+01 0.0 
0.0 0.0 -9.018729287799e+00 
-1.666082951790e+02 3.716705613838e+00 0.0 
3.716705613838e+00 -3.880117063944e+02 0.0 
0.0 0.0 -1.659860004720e+02 
-9.343175898574e+01 8.386354722583e-01 0.0 
8.386354722583e-01 -2.044441975651e+02 0.0 
0.0 0.0 -8.896278696524e+01 
-1.584361712681e+02 2.025374587295e+00 0.0 
2.025374587295e+00 -3.673141910464e+02 0.0 
0.0 0.0 -1.573251086944e+02 
-1.550363215845e+02 1.783127451922e+00 0.0 
1.783127451922e+00 -3.683118854238e+02 0.0 
0.0 0.0 -1.566044621025e+02 
-9.314900915925e+01 1.204622926394e+00 0.0 
1.204622926394e+00 -2.039330781410e+02 0.0 
0.0 0.0 -8.872462619008e+01 
-7.386184167049e+01 4.428787606823e+00 0.0 
4.428787606823e+00 -1.109460714203e+02 0.0 
0.0 0.0 -5.650341156111e+01 
-1.584705527411e+02 1.003668929219e+00 0.0 
1.003668929219e+00 -3.689511389670e+02 0.0 
0.0 0.0 -1.578265075124e+02 
-2.491726038362e+01 -1.041840150403e+00 0.0 
-1.041840150403e+00 -6.334383880380e+01 0.0 
0.0 0.0 -2.450965506391e+01 
-1.534607181328e+02 2.038302640312e+00 0.0 
2.038302640312e+00 -3.559295965571e+02 0.0 
0.0 0.0 -1.524170944070e+02 
-1.695549250101e+02 -1.129067439588e+00 0.0 
-1.129067439588e+00 -3.969614916902e+02 0.0 
0.0 0.0 -1.695549250101e+02 
-1.543583502386e+02 5.893601993274e+00 0.0 
5.893601993274e+00 -3.598728461441e+02 0.0 
0.0 0.0 -1.538693589148e+02 
-4.551838311514e+01 -1.155562133280e+01 0.0 
-1.155562133280e+01 -1.314520688103e+02 0.0 
0.0 0.0 -5.045094801115e+01 
-1.092111589819e+02 3.319028112598e+00 0.0 
3.319028112598e+00 -2.412501957286e+02 0.0 
0.0 0.0 -1.047384064132e+02 
-9.681340284068e+01 -1.855823521129e+00 0.0 
-1.855823521129e+00 -1.842344058648e+02 0.0 
0.0 0.0 -7.887726242812e+01 
-1.339968835695e+02 4.887687621804e+00 0.0 
4.887687621804e+00 -3.250096869758e+02 0.0 
0.0 0.0 -1.373019711636e+02 
-1.698211556859e+02 3.478189609132e+00 0.0 
3.478189609132e+00 -3.994067052865e+02 0.0 
0.0 0.0 -1.703683582917e+02 
-1.340955150257e+02 -7.398367178400e-02 0.0 
-7.398367178400e-02 -3.057090232556e+02 0.0 
0.0 0.0 -1.315413614844e+02 
-1.695271851541e+02 2.219520493556e+00 0.0 
2.219520493556e+00 -3.991835445048e+02 0.0 
0.0 0.0 -1.702132188977e+02 
-3.223576001946e+01 -1.794615132925e+01 0.0 
-1.794615132925e+01 -1.178044669042e+02 0.0 
0.0 0.0 -4.718576122610e+01 
-1.636497711330e+02 -8.196524307992e-01 0.0 
-8.196524307992e-01 -3.827157529610e+02 0.0 
0.0 0.0 -1.635096572282e+02 
-5.065069680146e+01 -1.538409008601e+01 0.0 
-1.538409008601e+01 -1.268794069762e+02 0.0 
0.0 0.0 -4.661950527087e+01 
-1.962364741908e+01 -1.016610583134e+00 0.0 
-1.016610583134e+00 -5.714277676203e+01 0.0 
0.0 0.0 -2.190353745948e+01 
-1.620489930064e+02 1.049404400927e+00 0.0 
1.049404400927e+00 -3.841858971131e+02 0.0 
0.0 0.0 -1.634704670359e+02 
-1.612176234406e+02 4.840803670346e+00 0.0 
4.840803670346e+00 -3.744345347768e+02 0.0 
0.0 0.0 -1.602956474652e+02 
-1.612793901422e+02 4.005942196414e+00 0.0 
4.005942196414e+00 -3.751456098411e+02 0.0 
0.0 0.0 -1.605274999950e+02 
-9.932555625480e+01 3.300903257617e-02 0.0 
3.300903257617e-02 -2.197202485921e+02 0.0 
0.0 0.0 -9.531374145406e+01 
-1.097303644053e+02 3.527617731713e+00 0.0 
3.527617731713e+00 -2.446800622109e+02 0.0 
0.0 0.0 -1.059231279849e+02 
-5.480238968291e+01 1.665705658524e+01 0.0 
1.665705658524e+01 -9.996225656654e+01 0.0 
0.0 0.0 -4.227813030732e+01 
-1.622081059910e+02 6.070987638868e+00 0.0 
6.070987638868e+00 -3.790485558395e+02 0.0 
0.0 0.0 -1.619769985491e+02 
-8.318763360018e+01 -3.008201998218e+00 0.0 
-3.008201998218e+00 -1.527718082105e+02 0.0 
0.0 0.0 -6.527679338742e+01 
-4.151191366851e+01 2.208888516081e+01 0.0 
2.208888516081e+01 -8.492854631157e+01 0.0 
0.0 0.0 -3.283599277146e+01 
-1.388104544227e+02 2.976932620265e+00 0.0 
2.976932620265e+00 -3.346995462383e+02 0.0 
0.0 0.0 -1.416530001983e+02 
-9.261310224039e+01 6.444257819796e-01 0.0 
6.444257819796e-01 -2.033568839460e+02 0.0 
0.0 0.0 -8.839099585592e+01 
-1.554532304192e+02 3.878223867955e+00 0.0 
3.878223867955e+00 -3.611663892715e+02 0.0 
0.0 0.0 -1.545858859072e+02 
-1.649280174618e+02 7.933580547714e-01 0.0 
7.933580547714e-01 -3.841745872815e+02 0.0 
0.0 0.0 -1.643307814230e+02 
-1.650728914760e+02 2.986180193884e-01 0.0 
2.986180193884e-01 -3.865034134441e+02 0.0 
0.0 0.0 -1.650728914760e+02 
-1.386110087952e+01 2.002834743283e-03 0.0 
2.002834743283e-03 -6.069458354969e+00 0.0 
0.0 0.0 -5.232634690941e+00 
-1.064734248055e+01 7.080903856687e-02 0.0 
7.080903856687e-02 -1.083050331318e+01 0.0 
0.0 0.0 -4.721349972133e+00 
-9.313343092903e+01 7.123529613669e-01 0.0 
7.123529613669e-01 -2.055537950778e+02 0.0 
0.0 0.0 -8.920616780205e+01 
-9.178378059695e+01 -5.237415107274e-02 0.0 
-5.237415107274e-02 -2.030798098477e+02 0.0 
0.0 0.0 -8.805907713339e+01 
-1.690117497304e+02 -2.449857998897e-01 0.0 
-2.449857998897e-01 -3.956940827042e+02 0.0 
0.0 0.0 -1.690117497304e+02 
-1.687044174169e+02 -7.765217420735e-01 0.0 
-7.765217420735e-01 -3.933437353068e+02 0.0 
0.0 0.0 -1.682144458171e+02 
-1.427542221434e+01 -3.041497153907e-01 0.0 
-3.041497153907e-01 -2.319513042601e+01 0.0 
0.0 0.0 -8.657421208341e+00 
-7.319194583519e+01 -4.319338219582e+00 0.0 
-4.319338219582e+00 -1.132009594577e+02 0.0 
0.0 0.0 -5.641829793508e+01 
-1.559858628064e+02 -1.496198539069e+00 0.0 
-1.496198539069e+00 -3.638202229009e+02 0.0 
0.0 0.0 -1.555418257122e+02 
-1.530448710362e+02 3.683382201496e+00 0.0 
3.683382201496e+00 -3.634984793573e+02 0.0 
0.0 0.0 -1.545630051181e+02 
-2.732078497641e+01 -9.610287062674e-01 0.0 
-9.610287062674e-01 -7.426881680723e+01 0.0 
0.0 0.0 -2.942909187365e+01 
-1.577943775509e+02 -7.754419031756e-01 0.0 
-7.754419031756e-01 -3.699573978227e+02 0.0 
0.0 0.0 -1.579255326121e+02 
-1.241233516974e+02 -1.983242537265e-01 0.0 
-1.983242537265e-01 -2.601547813517e+02 0.0 
0.0 0.0 -1.120005676872e+02 
-1.129907585903e+02 2.027698235684e-01 0.0 
2.027698235684e-01 -2.243365933202e+02 0.0 
0.0 0.0 -9.662046144660e+01 
-1.205464443227e+02 3.153320506772e-01 0.0 
3.153320506772e-01 -2.716623602445e+02 0.0 
0.0 0.0 -1.172626413702e+02 
-5.099103927135e+01 -1.967839824911e+01 0.0 
-1.967839824911e+01 -9.208808113577e+01 0.0 
0.0 0.0 -3.651667993526e+01 
-1.246838660337e+02 5.258439411044e+00 0.0 
5.258439411044e+00 -3.064521237036e+02 0.0 
0.0 0.0 -1.289407969212e+02 
-2.286308011580e+01 1.255937262095e-01 0.0 
1.255937262095e-01 -5.953453701372e+01 0.0 
0.0 0.0 -2.294456636755e+01 
-1.061369683989e+02 -2.141166412811e+00 0.0 
-2.141166412811e+00 -2.048380299290e+02 0.0 
0.0 0.0 -8.794685064329e+01 
-1.564184158854e+02 5.135229073896e+00 0.0 
5.135229073896e+00 -3.657332008955e+02 0.0 
0.0 0.0 -1.562454850343e+02 
-1.494290429183e+02 9.049368997569e-01 0.0 
9.049368997569e-01 -3.443817762487e+02 0.0 
0.0 0.0 -1.477432457501e+02 
-1.131983258652e+02 -1.283395917856e+00 0.0 
-1.283395917856e+00 -2.232370073882e+02 0.0 
0.0 0.0 -9.637197242396e+01 
-1.121510596356e+02 1.108851667396e+00 0.0 
1.108851667396e+00 -2.509950438720e+02 0.0 
0.0 0.0 -1.085438310523e+02 
-1.546202009004e+02 4.985788363096e+00 0.0 
4.985788363096e+00 -3.660988632175e+02 0.0 
0.0 0.0 -1.558157192354e+02 
-1.447452952494e+02 6.671597982747e+00 0.0 
6.671597982747e+00 -3.390880315003e+02 0.0 
0.0 0.0 -1.447499980249e+02 
-1.366782482012e+02 6.838279325478e+00 0.0 
6.838279325478e+00 -3.198761464748e+02 0.0 
0.0 0.0 -1.365663184028e+02 
-9.287439986087e+01 7.656575853908e-01 0.0 
7.656575853908e-01 -2.040606321702e+02 0.0 
0.0 0.0 -8.868050960931e+01 
-1.190865291330e+02 5.207879113038e+00 0.0 
5.207879113038e+00 -2.964783223244e+02 0.0 
0.0 0.0 -1.242694554372e+02 
-1.544984821907e+02 4.416123643117e+00 0.0 
4.416123643117e+00 -3.596500243291e+02 0.0 
0.0 0.0 -1.538445519559e+02 
-6.198574421311e+01 -2.789782599405e+00 0.0 
-2.789782599405e+00 -1.151545738270e+02 0.0 
0.0 0.0 -4.833220560295e+01 
-1.507680128283e+01 1.401471593745e+00 0.0 
1.401471593745e+00 -2.403083666696e+01 0.0 
0.0 0.0 -1.110859120778e+01 
-1.494706354610e+02 5.965564061090e+00 0.0 
5.965564061090e+00 -3.540597686603e+02 0.0 
0.0 0.0 -1.506591212364e+02 
-1.402387913466e+02 1.093743026525e+00 0.0 
1.093743026525e+00 -3.389055170118e+02 0.0 
0.0 0.0 -1.433432925075e+02 
-4.793669327168e+01 -1.989920651761e+01 0.0 
-1.989920651761e+01 -8.402693133508e+01 0.0 
0.0 0.0 -3.298769553480e+01 
-1.263470411618e+02 1.081357436159e+00 0.0 
1.081357436159e+00 -2.856950728178e+02 0.0 
0.0 0.0 -1.232126341939e+02 
-1.620010479082e+02 -7.630212542456e-01 0.0 
-7.630212542456e-01 -3.786538766681e+02 0.0 
0.0 0.0 -1.617964773729e+02 
-1.487403387182e+02 4.469940940238e+00 0.0 
4.469940940238e+00 -3.533273181517e+02 0.0 
0.0 0.0 -1.502202970610e+02 
-1.541898443205e+02 5.156422055440e+00 0.0 
5.156422055440e+00 -3.660839960843e+02 0.0 
0.0 0.0 -1.556821521214e+02 
-1.294531957687e+02 4.732310329731e-01 0.0 
4.732310329731e-01 -2.812962011647e+02 0.0 
0.0 0.0 -1.209451135617e+02 
-3.920120458316e+01 2.700066270647e+01 0.0 
2.700066270647e+01 -9.881312506578e+01 0.0 
0.0 0.0 -4.275647474574e+01 
-4.908660009781e+01 8.473703608089e+00 0.0 
8.473703608089e+00 -8.877472230563e+01 0.0 
0.0 0.0 -3.851061448591e+01 
-6.129461183059e+01 1.351338926389e+01 0.0 
1.351338926389e+01 -1.151100824979e+02 0.0 
0.0 0.0 -4.952866470157e+01 
-1.089256282648e+02 3.326102764495e+00 0.0 
3.326102764495e+00 -2.411921465441e+02 0.0 
0.0 0.0 -1.046353324427e+02 
-1.204914190851e+02 3.692997565430e+00 0.0 
3.692997565430e+00 -2.968151185327e+02 0.0 
0.0 0.0 -1.256086850862e+02 
-1.545359599200e+02 2.687614649248e+00 0.0 
2.687614649248e+00 -3.578897485760e+02 0.0 
0.0 0.0 -1.533277125488e+02 
-1.623471282075e+02 1.870184894116e+00 0.0 
1.870184894116e+00 -3.827056359661e+02 0.0 
0.0 0.0 -1.631158292521e+02 
-4.186862240864e+01 -1.462383931092e+01 0.0 
-1.462383931092e+01 -5.282419531936e+01 0.0 
0.0 0.0 -2.330345665720e+01 
-2.908950294590e+01 -4.890961060046e+00 0.0 
-4.890961060046e+00 -4.219963054670e+01 0.0 
0.0 0.0 -1.737599192776e+01 
-4.354832988076e+01 8.627299117948e+00 0.0 
8.627299117948e+00 -7.249582419519e+01 0.0 
0.0 0.0 -3.133552297483e+01 
-1.285978364409e+02 -3.567005646908e-01 0.0 
-3.567005646908e-01 -2.914582936687e+02 0.0 
0.0 0.0 -1.256168390329e+02 
-7.545460258561e+01 -2.485486055031e+00 0.0 
-2.485486055031e+00 -1.432819576380e+02 0.0 
0.0 0.0 -6.026412413480e+01 
-1.561332084002e+02 4.665761091295e+00 0.0 
4.665761091295e+00 -3.619737143653e+02 0.0 
0.0 0.0 -1.550320768296e+02 
-2.404374047670e+01 -3.703257715677e-02 0.0 
-3.703257715677e-02 -7.101794844945e+01 0.0 
0.0 0.0 -2.796214783187e+01 
-1.539095869116e+02 1.775919504710e+00 0.0 
1.775919504710e+00 -3.659172476532e+02 0.0 
0.0 0.0 -1.555480503694e+02 
-1.074280364049e+02 1.211862129826e+00 0.0 
1.211862129826e+00 -2.379506734910e+02 0.0 
0.0 0.0 -1.032136129688e+02 
-1.630420288036e+02 3.820159436078e+00 0.0 
3.820159436078e+00 -3.834905398803e+02 0.0 
0.0 0.0 -1.635597706052e+02 
-1.390403769844e+02 5.264812142145e+00 0.0 
5.264812142145e+00 -3.351548621161e+02 0.0 
0.0 0.0 -1.418585717301e+02 
-1.091120820915e+02 4.212984626538e+00 0.0 
4.212984626538e+00 -2.417337388013e+02 0.0 
0.0 0.0 -1.048537462678e+02 
-1.622874675022e+02 -4.896435577698e-02 0.0 
-4.896435577698e-02 -3.839132667464e+02 0.0 
0.0 0.0 -1.634602202746e+02 
-1.609893169858e+02 4.055859327672e+00 0.0 
4.055859327672e+00 -3.743108424846e+02 0.0 
0.0 0.0 -1.601900478411e+02 
-1.598911420235e+02 2.470643816903e-01 0.0 
2.470643816903e-01 -3.703817675209e+02 0.0 
0.0 0.0 -1.586818728633e+02 
-3.811795131152e+01 8.991639699360e+00 0.0 
8.991639699360e+00 -5.503835894796e+01 0.0 
0.0 0.0 -2.370792168188e+01 
-1.528123013478e+02 2.949239924640e+00 0.0 
2.949239924640e+00 -3.538247289584e+02 0.0 
0.0 0.0 -1.515911090919e+02 
-1.620457088623e+02 5.244303077826e+00 0.0 
5.244303077826e+00 -3.805666212083e+02 0.0 
0.0 0.0 -1.623836990212e+02 
-1.533963446762e+02 2.564266856824e+00 0.0 
2.564266856824e+00 -3.661858581096e+02 0.0 
0.0 0.0 -1.554746608357e+02 
-1.434046324855e+02 3.142509026372e+00 0.0 
3.142509026372e+00 -3.435258104740e+02 0.0 
0.0 0.0 -1.456791328879e+02 
-1.701312541020e+02 -1.297136670214e+00 0.0 
-1.297136670214e+00 -3.983062595713e+02 0.0 
0.0 0.0 -1.701312541020e+02 
-1.369447654260e+02 5.071312520781e+00 0.0 
5.071312520781e+00 -3.196434427591e+02 0.0 
0.0 0.0 -1.365764624555e+02 
-5.764961901532e+01 1.401795950201e+01 0.0 
1.401795950201e+01 -6.534691417149e+01 0.0 
0.0 0.0 -3.745070285657e+01 
-4.673466457254e+01 2.096271781390e+01 0.0 
2.096271781390e+01 -8.736677572934e+01 0.0 
0.0 0.0 -3.384935463613e+01 
-1.492912177307e+02 6.418446199838e+00 0.0 
6.418446199838e+00 -3.494016388344e+02 0.0 
0.0 0.0 -1.492078569695e+02 
-1.148232680052e+02 2.778139176045e+00 0.0 
2.778139176045e+00 -2.560476843996e+02 0.0 
0.0 0.0 -1.108612857215e+02 
-1.561609012845e+02 1.827145431761e-01 0.0 
1.827145431761e-01 -3.625135701797e+02 0.0 
0.0 0.0 -1.552023414393e+02 
-1.481729241129e+02 5.047975776333e+00 0.0 
5.047975776333e+00 -3.538031205320e+02 0.0 
0.0 0.0 -1.501928133935e+02 
-1.637179675096e+02 -1.016683534593e+00 0.0 
-1.016683534593e+00 -3.833806342690e+02 0.0 
0.0 0.0 -1.637295805336e+02 
-1.370965288297e+02 -6.360510995833e-02 0.0 
-6.360510995833e-02 -3.123376841222e+02 0.0 
0.0 0.0 -1.344302638856e+02 
-1.630121521463e+02 3.544861417477e+00 0.0 
3.544861417477e+00 -3.839803915042e+02 0.0 
0.0 0.0 -1.636977630952e+02 
-1.567568844194e+02 8.815228180692e-02 0.0 
8.815228180692e-02 -3.710727141029e+02 0.0 
0.0 0.0 -1.579488795567e+02 
-1.565464821998e+02 -1.103965444261e+00 0.0 
-1.103965444261e+00 -3.708281268707e+02 0.0 
0.0 0.0 -1.578123827212e+02 
-7.791960733302e+01 -1.665728285784e+00 0.0 
-1.665728285784e+00 -1.480263522568e+02 0.0 
0.0 0.0 -6.287068767097e+01 
-1.704963811008e+02 -1.287025930918e+00 0.0 
-1.287025930918e+00 -3.981830259794e+02 0.0 
0.0 0.0 -1.702038221241e+02 
-1.017056841407e+02 2.442233260538e+00 0.0 
2.442233260538e+00 -2.221677788957e+02 0.0 
0.0 0.0 -9.676203891092e+01 
-1.527006921158e+02 1.897076341691e+00 0.0 
1.897076341691e+00 -3.522690894166e+02 0.0 
0.0 0.0 -1.510909344597e+02 
-3.228427308316e+01 -5.415663755628e+00 0.0 
-5.415663755628e+00 -4.587935247765e+01 0.0 
0.0 0.0 -1.895027890906e+01 
-1.472070897898e+02 1.067501068957e+00 0.0 
1.067501068957e+00 -3.373825002530e+02 0.0 
0.0 0.0 -1.449768770129e+02 
-1.273051425347e+02 7.694289907475e-01 0.0 
7.694289907475e-01 -2.875886028804e+02 0.0 
0.0 0.0 -1.240681236245e+02 
-1.669354078766e+01 3.154575521333e-01 0.0 
3.154575521333e-01 -4.150936652217e+01 0.0 
0.0 0.0 -1.429209489161e+01 
-4.515494811995e+01 -1.432210568216e+01 0.0 
-1.432210568216e+01 -1.305056186972e+02 0.0 
0.0 0.0 -5.205351092852e+01 
-1.403135429474e+02 5.022782002736e+00 0.0 
5.022782002736e+00 -3.289552104224e+02 0.0 
0.0 0.0 -1.403806260109e+02 
-1.590900805361e+02 2.748824165560e+00 0.0 
2.748824165560e+00 -3.706207197470e+02 0.0 
0.0 0.0 -1.585132400849e+02 
-1.534282566848e+02 1.260439542825e+00 0.0 
1.260439542825e+00 -3.548143961053e+02 0.0 
0.0 0.0 -1.520727958370e+02 
-1.606661596662e+02 2.332953591478e+00 0.0 
2.332953591478e+00 -3.801064806883e+02 0.0 
0.0 0.0 -1.618317921063e+02 
-1.120531428968e+02 -5.051368192136e-02 0.0 
-5.051368192136e-02 -2.507871396163e+02 0.0 
0.0 0.0 -1.084520847539e+02 
-1.512027548885e+01 9.493037172850e-01 0.0 
9.493037172850e-01 -2.316874486075e+01 0.0 
0.0 0.0 -1.033882129704e+01 
-3.612745064662e+01 2.003845561393e+01 0.0 
2.003845561393e+01 -1.150989236728e+02 0.0 
0.0 0.0 -4.725936095512e+01 
-1.383980408117e+01 -5.117514230422e-01 0.0 
-5.117514230422e-01 -2.849991793645e+01 0.0 
0.0 0.0 -1.184039494742e+01 
-3.646581544375e+01 -4.949969212444e+00 0.0 
-4.949969212444e+00 -5.775598256010e+01 0.0 
0.0 0.0 -2.297045175837e+01 
-4.441532305073e+01 2.690698963289e+01 0.0 
2.690698963289e+01 -5.084134833213e+01 0.0 
0.0 0.0 -2.902745262954e+01 
-1.028168344548e+02 -3.262777633256e+00 0.0 
-3.262777633256e+00 -1.989751411270e+02 0.0 
0.0 0.0 -8.540852411671e+01 
-1.561160809106e+02 -1.458547450694e+00 0.0 
-1.458547450694e+00 -3.624445171236e+02 0.0 
0.0 0.0 -1.551681794102e+02 
-1.547233328871e+02 4.606171162218e+00 0.0 
4.606171162218e+00 -3.602890863539e+02 0.0 
0.0 0.0 -1.541037257723e+02 
-1.149475166466e+02 5.077213074877e+00 0.0 
5.077213074877e+00 -2.562881148787e+02 0.0 
0.0 0.0 -1.109706894576e+02 
-9.278753179841e+01 -3.255957117584e+00 0.0 
-3.255957117584e+00 -1.753756318845e+02 0.0 
0.0 0.0 -7.420168733708e+01 
-1.557983293827e+02 -4.644076952939e-01 0.0 
-4.644076952939e-01 -3.674720837501e+02 0.0 
0.0 0.0 -1.565811239398e+02 
-1.530276732588e+02 -1.271057464915e-01 0.0 
-1.271057464915e-01 -3.652805921333e+02 0.0 
0.0 0.0 -1.550924796176e+02 
-1.619980427664e+02 3.660787829994e+00 0.0 
3.660787829994e+00 -3.834283891202e+02 0.0 
0.0 0.0 -1.632279295660e+02 
-1.557479404602e+02 5.423102009949e+00 0.0 
5.423102009949e+00 -3.671089224672e+02 0.0 
0.0 0.0 -1.564570588782e+02 
-1.481438436672e+02 4.923226073211e+00 0.0 
4.923226073211e+00 -3.476309158533e+02 0.0 
0.0 0.0 -1.483324278562e+02 
-3.030137325030e+01 -5.866502830594e+00 0.0 
-5.866502830594e+00 -4.359792572432e+01 0.0 
0.0 0.0 -1.948712296283e+01 
-3.547448493860e+01 -2.149580860789e+01 0.0 
-2.149580860789e+01 -1.114667666289e+02 0.0 
0.0 0.0 -4.584483176643e+01 
-1.565210254717e+02 -3.470830230692e-01 0.0 
-3.470830230692e-01 -3.645742240393e+02 0.0 
0.0 0.0 -1.559285748533e+02 
-1.463606713421e+01 -1.779435035297e-01 0.0 
-1.779435035297e-01 -4.085786033770e+01 0.0 
0.0 0.0 -1.438429401962e+01 
-1.720384712175e+01 -1.091025433984e+00 0.0 
-1.091025433984e+00 -4.883157826635e+01 0.0 
0.0 0.0 -1.772131908370e+01 
-4.140172523685e+01 2.361019041859e+01 0.0 
2.361019041859e+01 -6.334602879640e+01 0.0 
0.0 0.0 -2.995166332636e+01 
-1.874768185417e+01 1.363433874825e+00 0.0 
1.363433874825e+00 -3.871051513780e+01 0.0 
0.0 0.0 -1.552974592460e+01 
-1.632863719922e+02 -3.367628405146e-01 0.0 
-3.367628405146e-01 -3.845712635774e+02 0.0 
0.0 0.0 -1.639572906709e+02 
-1.622812213897e+02 5.901965574013e+00 0.0 
5.901965574013e+00 -3.803501714881e+02 0.0 
0.0 0.0 -1.623894178633e+02 
-1.541949993916e+02 1.183604627207e+00 0.0 
1.183604627207e+00 -3.578677128766e+02 0.0 
0.0 0.0 -1.532188136804e+02 
-1.632957014200e+02 4.171021928291e+00 0.0 
4.171021928291e+00 -3.846299403679e+02 0.0 
0.0 0.0 -1.639776925364e+02 
-1.483013233598e+02 1.531972345868e+00 0.0 
1.531972345868e+00 -3.554123057876e+02 0.0 
0.0 0.0 -1.507140887442e+02 
-1.168452860724e+02 -2.175169593576e-01 0.0 
-2.175169593576e-01 -2.620450126641e+02 0.0 
0.0 0.0 -1.132670896210e+02 
-1.660957289762e+02 3.437941664527e+00 0.0 
3.437941664527e+00 -3.888900342778e+02 0.0 
0.0 0.0 -1.660957289762e+02 
-5.780553410456e+01 -1.872200902247e+01 0.0 
-1.872200902247e+01 -1.309954500807e+02 0.0 
0.0 0.0 -5.300304850850e+01 
-9.343406848145e+01 1.117437908765e+00 0.0 
1.117437908765e+00 -2.036552827341e+02 0.0 
0.0 0.0 -8.872680536466e+01 
-5.186121222921e+01 -2.114418538211e+01 0.0 
-2.114418538211e+01 -7.560119003215e+01 0.0 
0.0 0.0 -3.144282046961e+01 
-1.133742976032e+01 -2.550091942947e-01 0.0 
-2.550091942947e-01 -2.439558983792e+01 0.0 
0.0 0.0 -8.344173793222e+00 
-1.701633232802e+02 -1.350728082020e+00 0.0 
-1.350728082020e+00 -3.968429098911e+02 0.0 
0.0 0.0 -1.697018699514e+02 
-1.036046689210e+02 4.079865756141e+00 0.0 
4.079865756141e+00 -2.263333302499e+02 0.0 
0.0 0.0 -9.858139975127e+01 
-2.120386854427e+01 -2.032965315763e-02 0.0 
-2.032965315763e-02 -5.703400767550e+01 0.0 
0.0 0.0 -2.154012677814e+01 
-1.001016068394e+02 -2.975312306536e+00 0.0 
-2.975312306536e+00 -1.907216215819e+02 0.0 
0.0 0.0 -8.192032173093e+01 
-1.626209280613e+02 5.688901169218e+00 0.0 
5.688901169218e+00 -3.808461834156e+02 0.0 
0.0 0.0 -1.626401334431e+02 
-1.542175352469e+02 3.300687716999e+00 0.0 
3.300687716999e+00 -3.568058129799e+02 0.0 
0.0 0.0 -1.529070044680e+02 
-1.606422137134e+02 4.653215028250e+00 0.0 
4.653215028250e+00 -3.749378995946e+02 0.0 
0.0 0.0 -1.602740339924e+02 
-6.987956645254e+01 -5.001543379114e-01 0.0 
-5.001543379114e-01 -1.343801156154e+02 0.0 
0.0 0.0 -5.710632545487e+01 
-3.758245477784e+01 3.783734372765e-01 0.0 
3.783734372765e-01 -1.245317895658e+02 0.0 
0.0 0.0 -5.056410624657e+01 
-1.631359355042e+02 -8.468717922301e-01 0.0 
-8.468717922301e-01 -3.830373669055e+02 0.0 
0.0 0.0 -1.634519907229e+02 
-1.664012200448e+02 2.999776371518e-01 0.0 
2.999776371518e-01 -3.869200807765e+02 0.0 
0.0 0.0 -1.655963902464e+02 
-1.695846543616e+02 -2.344837030840e-01 0.0 
-2.344837030840e-01 -3.958614876428e+02 0.0 
0.0 0.0 -1.692338426013e+02 
-9.816177306448e+01 -4.498542785943e-01 0.0 
-4.498542785943e-01 -2.175166029520e+02 0.0 
0.0 0.0 -9.430351280494e+01 
-1.554048616573e+02 1.065911554088e+00 0.0 
1.065911554088e+00 -3.689727784427e+02 0.0 
0.0 0.0 -1.569132920300e+02 
-2.093857102098e+01 -1.845932927322e-01 0.0 
-1.845932927322e-01 -5.803824377320e+01 0.0 
0.0 0.0 -2.239456075868e+01 
-1.557758184061e+02 3.321532197118e+00 0.0 
3.321532197118e+00 -3.619761965490e+02 0.0 
0.0 0.0 -1.549256044865e+02 
-1.221207784061e+01 1.884946120881e-01 0.0 
1.884946120881e-01 -2.357431770386e+01 0.0 
0.0 0.0 -8.768582908687e+00 
-1.635541867416e+02 4.399949492037e-01 0.0 
4.399949492037e-01 -3.856495681220e+02 0.0 
0.0 0.0 -1.643611264591e+02 
-1.607771204531e+02 4.461269341345e+00 0.0 
4.461269341345e+00 -3.742774619278e+02 0.0 
0.0 0.0 -1.601163747143e+02 
-4.328938902543e+01 1.057273502376e+01 0.0 
1.057273502376e+01 -1.195577399847e+02 0.0 
0.0 0.0 -5.022041290679e+01 
-1.483277207325e+02 5.438431792702e+00 0.0 
5.438431792702e+00 -3.536711105325e+02 0.0 
0.0 0.0 -1.501996493795e+02 
-1.331652871756e+02 1.460244527119e+00 0.0 
1.460244527119e+00 -3.022082394707e+02 0.0 
0.0 0.0 -1.302120579939e+02 
-1.594457900784e+02 2.185686480266e+00 0.0 
2.185686480266e+00 -3.714262542093e+02 0.0 
0.0 0.0 -1.588616132863e+02 
-1.712134830954e+02 2.894554240631e+00 0.0 
2.894554240631e+00 -4.008314605560e+02 0.0 
0.0 0.0 -1.712134830954e+02 
-1.219700609913e+02 1.448439656114e+00 0.0 
1.448439656114e+00 -2.752673798398e+02 0.0 
0.0 0.0 -1.187712322494e+02 
-1.625098888499e+02 5.569221093131e+00 0.0 
5.569221093131e+00 -3.805483289958e+02 0.0 
0.0 0.0 -1.625174653537e+02 
-1.559335756510e+02 5.214175355744e+00 0.0 
5.214175355744e+00 -3.620337142013e+02 0.0 
0.0 0.0 -1.549901869557e+02 
-1.264873855204e+02 4.759517948873e-01 0.0 
4.759517948873e-01 -2.869523007696e+02 0.0 
0.0 0.0 -1.236319058870e+02 
-1.572156038446e+02 5.658674439756e+00 0.0 
5.658674439756e+00 -3.681268677676e+02 0.0 
0.0 0.0 -1.572027414837e+02 
-8.775395980289e+01 -1.807162266278e+00 0.0 
-1.807162266278e+00 -1.628444189294e+02 0.0 
0.0 0.0 -6.966421198307e+01 
-9.204174372395e+01 5.532770224764e-01 0.0 
5.532770224764e-01 -2.030773828327e+02 0.0 
0.0 0.0 -8.813573796700e+01 
-1.566545569015e+02 3.652686720111e+00 0.0 
3.652686720111e+00 -3.714019942769e+02 0.0 
0.0 0.0 -1.580169653535e+02 
-1.601192112832e+02 -1.892309307379e-01 0.0 
-1.892309307379e-01 -3.722765740584e+02 0.0 
0.0 0.0 -1.593187356025e+02 
-9.168329746224e+00 1.912498871515e-02 0.0 
1.912498871515e-02 -8.829588886391e+00 0.0 
0.0 0.0 -3.436136961060e+00 
-9.192748394077e+01 -1.040898801204e-01 0.0 
-1.040898801204e-01 -2.031821013702e+02 0.0 
0.0 0.0 -8.813287559330e+01 
-1.640161798377e+02 2.910956228023e-01 0.0 
2.910956228023e-01 -3.821333309440e+02 0.0 
0.0 0.0 -1.634448532345e+02 
-3.372431788003e+01 -3.813759018287e+00 0.0 
-3.813759018287e+00 -7.335424208664e+01 0.0 
0.0 0.0 -2.885337930960e+01 
-1.536426720795e+02 1.577794011551e+00 0.0 
1.577794011551e+00 -3.676906565698e+02 0.0 
0.0 0.0 -1.559999985948e+02 
-1.555706996870e+02 5.596992060365e+00 0.0 
5.596992060365e+00 -3.608728707540e+02 0.0 
0.0 0.0 -1.545330711323e+02 
-1.596105671383e+02 2.536131900799e+00 0.0 
2.536131900799e+00 -3.703043472580e+02 0.0 
0.0 0.0 -1.585744743189e+02 
-2.623834378364e+01 -2.414305524243e+00 0.0 
-2.414305524243e+00 -7.019871240954e+01 0.0 
0.0 0.0 -2.774331244426e+01 
-4.774596915518e+01 2.760939092534e+01 0.0 
2.760939092534e+01 -9.419395578256e+01 0.0 
0.0 0.0 -4.055022169522e+01 
-1.157595554727e+02 -1.467347847536e+00 0.0 
-1.467347847536e+00 -2.331898901936e+02 0.0 
0.0 0.0 -1.003425972091e+02 
-1.409104152484e+02 1.564613048151e-01 0.0 
1.564613048151e-01 -3.233531083589e+02 0.0 
0.0 0.0 -1.388790570822e+02 
-1.287902479712e+02 -3.747041683147e+00 0.0 
-3.747041683147e+00 -9.659182348039e+01 0.0 
0.0 0.0 -6.783900594828e+01 
-1.607137790789e+02 4.220106926559e+00 0.0 
4.220106926559e+00 -3.748455500926e+02 0.0 
0.0 0.0 -1.602677987514e+02 
-1.193464164187e+02 2.456654296903e-01 0.0 
2.456654296903e-01 -2.692580461937e+02 0.0 
0.0 0.0 -1.161813387837e+02 
-5.519544399504e+01 -1.954006381892e+01 0.0 
-1.954006381892e+01 -9.363530273123e+01 0.0 
0.0 0.0 -3.913534988403e+01 
-1.136498958979e+02 3.609677557314e-01 0.0 
3.609677557314e-01 -2.555199863302e+02 0.0 
0.0 0.0 -1.103509646684e+02 
-1.617602394287e+02 4.932598121501e+00 0.0 
4.932598121501e+00 -3.827001917135e+02 0.0 
0.0 0.0 -1.629381293427e+02 
-1.193622084268e+02 7.443002631231e-01 0.0 
7.443002631231e-01 -2.444446554221e+02 0.0 
0.0 0.0 -1.052693145609e+02 
-5.324912223284e+01 2.962995947249e+01 0.0 
2.962995947249e+01 -4.156105446792e+01 0.0 
0.0 0.0 -2.933352223169e+01 
-8.115366239453e+01 -3.661399148527e+00 0.0 
-3.661399148527e+00 -1.472439379100e+02 0.0 
0.0 0.0 -6.241873524475e+01 
-1.084935509808e+02 -2.945786321444e+00 0.0 
-2.945786321444e+00 -2.143620373805e+02 0.0 
0.0 0.0 -9.216748497070e+01 
-1.224481347550e+02 -1.493366333886e+00 0.0 
-1.493366333886e+00 -2.539551102327e+02 0.0 
0.0 0.0 -1.094758197705e+02 
-1.560125627467e+02 4.056883163644e+00 0.0 
4.056883163644e+00 -3.705676376692e+02 0.0 
0.0 0.0 -1.575740601248e+02 
-1.079958878238e+02 -7.289381221248e-01 0.0 
-7.289381221248e-01 -2.087332611118e+02 0.0 
0.0 0.0 -8.984586377708e+01 
-1.117302798481e+02 -1.963712267941e+00 0.0 
-1.963712267941e+00 -2.215532763816e+02 0.0 
0.0 0.0 -9.548946630870e+01 
-1.617258185774e+01 -4.096563579751e-01 0.0 
-4.096563579751e-01 -3.719154256692e+01 0.0 
0.0 0.0 -1.450532149532e+01 
-1.575650503228e+02 -1.863865068705e+00 0.0 
-1.863865068705e+00 -3.702051906344e+02 0.0 
0.0 0.0 -1.579310722872e+02 
-1.497246448801e+02 4.817838405392e+00 0.0 
4.817838405392e+00 -3.543414935953e+02 0.0 
0.0 0.0 -1.508198415426e+02 
-4.861701509511e+01 2.274444654604e+01 0.0 
2.274444654604e+01 -1.098166958154e+02 0.0 
0.0 0.0 -4.624686245074e+01 
-1.599164341407e+02 6.612124634010e-01 0.0 
6.612124634010e-01 -3.716474988288e+02 0.0 
0.0 0.0 -1.590691798908e+02 
-1.635056278366e+02 -8.470901814539e-01 0.0 
-8.470901814539e-01 -3.814360631063e+02 0.0 
0.0 0.0 -1.630825072829e+02 
-9.863637619757e+01 7.688723278016e-01 0.0 
7.688723278016e-01 -2.186264147004e+02 0.0 
0.0 0.0 -9.477883726939e+01 
-1.196385202954e+02 2.086399083334e-01 0.0 
2.086399083334e-01 -2.693879647102e+02 0.0 
0.0 0.0 -1.163079455017e+02 
-1.068238243693e+02 -2.575982085660e+00 0.0 
-2.575982085660e+00 -2.084411377849e+02 0.0 
0.0 0.0 -8.975645964600e+01 
-1.107658684798e+02 -1.575789486974e+00 0.0 
-1.575789486974e+00 -2.157304065396e+02 0.0 
0.0 0.0 -9.295619798222e+01 
-1.117902260209e+02 -1.125212753564e+00 0.0 
-1.125212753564e+00 -2.222123964652e+02 0.0 
0.0 0.0 -9.561541431349e+01 
-1.484902214092e+02 1.256996201570e+00 0.0 
1.256996201570e+00 -3.556413209364e+02 0.0 
0.0 0.0 -1.508394627037e+02 
-4.556547833040e+01 -1.487841406610e+01 0.0 
-1.487841406610e+01 -6.928041456344e+01 0.0 
0.0 0.0 -2.690863728531e+01 
-1.546564462759e+02 6.083262951485e+00 0.0 
6.083262951485e+00 -3.652712910362e+02 0.0 
0.0 0.0 -1.555783211936e+02 
-1.055376990206e+02 4.639973266333e-02 0.0 
4.639973266333e-02 -2.354783345295e+02 0.0 
0.0 0.0 -1.019048100650e+02 
-1.608447824002e+02 4.595976449626e+00 0.0 
4.595976449626e+00 -3.734801948696e+02 0.0 
0.0 0.0 -1.598974931810e+02 
-1.484350700060e+02 2.305417982366e+00 0.0 
2.305417982366e+00 -3.554311301023e+02 0.0 
0.0 0.0 -1.507598600325e+02 
-1.146558401971e+02 9.747392332898e-01 0.0 
9.747392332898e-01 -2.563316043718e+02 0.0 
0.0 0.0 -1.108962333707e+02 
-1.517003234885e+02 5.173811177690e+00 0.0 
5.173811177690e+00 -3.555148057106e+02 0.0 
0.0 0.0 -1.517645387597e+02 
-1.559729359565e+02 3.022121144739e+00 0.0 
3.022121144739e+00 -3.700198530301e+02 0.0 
0.0 0.0 -1.573978366960e+02 
-1.616859502049e+02 3.774623013819e+00 0.0 
3.774623013819e+00 -3.833315598228e+02 0.0 
0.0 0.0 -1.631052530083e+02 
-3.786373918323e+01 2.842750004797e+01 0.0 
2.842750004797e+01 -6.220957064807e+01 0.0 
0.0 0.0 -3.124790542242e+01 
-1.515868916373e+02 6.236374064945e+00 0.0 
6.236374064945e+00 -3.556350863668e+02 0.0 
0.0 0.0 -1.517665934012e+02 
-1.560241789308e+02 4.990873757251e+00 0.0 
4.990873757251e+00 -3.661127916343e+02 0.0 
0.0 0.0 -1.562410911695e+02 
-1.849745447322e+01 8.208544040093e-01 0.0 
8.208544040093e-01 -3.760313911084e+01 0.0 
0.0 0.0 -1.465978606843e+01 
-1.042836243108e+02 -1.691226467061e+00 0.0 
-1.691226467061e+00 -1.986767690541e+02 0.0 
0.0 0.0 -8.545355468339e+01 
-5.566796523310e+01 3.510281099898e+01 0.0 
3.510281099898e+01 -6.820473027966e+01 0.0 
0.0 0.0 -3.821566147259e+01 
-1.566743084080e+02 6.160638007278e+00 0.0 
6.160638007278e+00 -3.668640272453e+02 0.0 
0.0 0.0 -1.566615006960e+02 
-1.138190106070e+01 1.369141822180e-01 0.0 
1.369141822180e-01 -1.169860355242e+01 0.0 
0.0 0.0 -7.364928822526e+00 
-7.030255445622e+00 -2.103116740093e-01 0.0 
-2.103116740093e-01 -9.104635635717e+00 0.0 
0.0 0.0 -3.712691192271e+00 
-1.119466535593e+01 -7.823027316041e-02 0.0 
-7.823027316041e-02 -1.050021001038e+01 0.0 
0.0 0.0 -7.175129276558e+00 
-6.743099833109e+00 -1.394820702997e-01 0.0 
-1.394820702997e-01 -9.052183606967e+00 0.0 
0.0 0.0 -3.807122418870e+00 
-1.096143587001e+01 -1.820685012411e-01 0.0 
-1.820685012411e-01 -1.041092527135e+01 0.0 
0.0 0.0 -7.078375009075e+00 
-6.418037165530e+00 -2.010540704860e-01 0.0 
-2.010540704860e-01 -9.138996284080e+00 0.0 
0.0 0.0 -3.908342339520e+00 
-1.061942249917e+01 -2.456946847241e-01 0.0 
-2.456946847241e-01 -1.037392137566e+01 0.0 
0.0 0.0 -6.964669829115e+00 
-5.971204809442e+00 -2.109519634962e-01 0.0 
-2.109519634962e-01 -9.205320889932e+00 0.0 
0.0 0.0 -3.950588119674e+00 
-1.019259659639e+01 -2.773066253765e-01 0.0 
-2.773066253765e-01 -1.037104207582e+01 0.0 
0.0 0.0 -6.835758268331e+00 
-5.489710954102e+00 -1.566186496541e-01 0.0 
-1.566186496541e-01 -9.256654451940e+00 0.0 
0.0 0.0 -3.982845998403e+00 
-9.636578417946e+00 -2.530126797453e-01 0.0 
-2.530126797453e-01 -1.033288134575e+01 0.0 
0.0 0.0 -6.657504595776e+00 
-5.089181411384e+00 -9.497442145195e-02 0.0 
-9.497442145195e-02 -9.239299574887e+00 0.0 
0.0 0.0 -3.898544295881e+00 
-8.975656625545e+00 -2.167872913532e-01 0.0 
-2.167872913532e-01 -1.034990356462e+01 0.0 
0.0 0.0 -6.464334723715e+00 
-4.788330684671e+00 -3.109638105939e-02 0.0 
-3.109638105939e-02 -9.247018104678e+00 0.0 
0.0 0.0 -3.810604636805e+00 
-8.161965313888e+00 -1.595335183615e-01 0.0 
-1.595335183615e-01 -1.036418182240e+01 0.0 
0.0 0.0 -6.224510807554e+00 
-4.614371696157e+00 6.206758504363e-02 0.0 
6.206758504363e-02 -9.301582324476e+00 0.0 
0.0 0.0 -3.774786206190e+00 
-7.199736093197e+00 -7.638949349252e-02 0.0 
-7.638949349252e-02 -1.036580061729e+01 0.0 
0.0 0.0 -5.936327679813e+00 
-4.624145660170e+00 1.879779374093e-01 0.0 
1.879779374093e-01 -9.209463135017e+00 0.0 
0.0 0.0 -3.537576583872e+00 
-6.145816795038e+00 -4.723467430100e-02 0.0 
-4.723467430100e-02 -1.041962844507e+01 0.0 
0.0 0.0 -5.636300238700e+00 
-4.783063774075e+00 2.624260041402e-01 0.0 
2.624260041402e-01 -9.069539638032e+00 0.0 
0.0 0.0 -3.254659190481e+00 
-4.941688637614e+00 -6.775776179292e-02 0.0 
-6.775776179292e-02 -1.049250015118e+01 0.0 
0.0 0.0 -5.296923303305e+00 
-4.983078938024e+00 2.607541446905e-01 0.0 
2.607541446905e-01 -8.915180045454e+00 0.0 
0.0 0.0 -2.985805702641e+00 
-3.965858832848e+00 -6.882676207748e-02 0.0 
-6.882676207748e-02 -1.056784228855e+01 0.0 
0.0 0.0 -4.918527950181e+00 
-2.406814764528e+01 3.994085692030e+00 0.0 
3.994085692030e+00 -1.060669695306e+01 0.0 
0.0 0.0 -9.104512782279e+00 
-5.164307830297e+00 1.876700411247e-01 0.0 
1.876700411247e-01 -8.824294573309e+00 0.0 
0.0 0.0 -3.018049933005e+00 
-3.455391474565e+00 -5.008363404778e-02 0.0 
-5.008363404778e-02 -1.060401423795e+01 0.0 
0.0 0.0 -4.477303585478e+00 
-5.276350778005e+00 6.486473270405e-02 0.0 
6.486473270405e-02 -8.769658910562e+00 0.0 
0.0 0.0 -3.036931622019e+00 
-1.689061481267e+01 7.018842590317e-01 0.0 
7.018842590317e-01 -2.910926716620e+00 0.0 
0.0 0.0 -4.766804690335e+00 
-3.157358858565e+00 -2.784039698114e-02 0.0 
-2.784039698114e-02 -1.064254591686e+01 0.0 
0.0 0.0 -4.092464153378e+00 
-5.279097420607e+00 -7.385602261321e-02 0.0 
-7.385602261321e-02 -8.725605790945e+00 0.0 
0.0 0.0 -3.039488676240e+00 
-2.498177460834e+01 5.593685449190e+00 0.0 
5.593685449190e+00 -1.213127888308e+01 0.0 
0.0 0.0 -1.115375771000e+01 
-3.102038773098e+00 2.148963925661e-02 0.0 
2.148963925661e-02 -1.069519218001e+01 0.0 
0.0 0.0 -3.785882038929e+00 
-5.192464341505e+00 -1.921136907664e-01 0.0 
-1.921136907664e-01 -8.733378248562e+00 0.0 
0.0 0.0 -3.033467641607e+00 
-3.322629605487e+00 1.082235043227e-01 0.0 
1.082235043227e-01 -1.075451150880e+01 0.0 
0.0 0.0 -3.575279702730e+00 
-5.096769687830e+00 -2.147208616313e-01 0.0 
-2.147208616313e-01 -8.841161273607e+00 0.0 
0.0 0.0 -3.051128443661e+00 
-3.817184982710e+00 2.356120976881e-01 0.0 
2.356120976881e-01 -1.082395770413e+01 0.0 
0.0 0.0 -3.502453652633e+00 
-5.174433243558e+00 -6.769333903457e-03 0.0 
-6.769333903457e-03 -9.112665958739e+00 0.0 
0.0 0.0 -3.391871293703e+00 
-4.480062093285e+00 3.927416440564e-01 0.0 
3.927416440564e-01 -1.092437653776e+01 0.0 
0.0 0.0 -3.695424948294e+00 
-5.727248258816e+00 5.235668698691e-01 0.0 
5.235668698691e-01 -9.209652569533e+00 0.0 
0.0 0.0 -4.081070248505e+00 
-5.054588050593e+00 6.487465246622e-01 0.0 
6.487465246622e-01 -1.068042678674e+01 0.0 
0.0 0.0 -3.753217560245e+00 
-4.247284821370e+01 1.287062776007e+01 0.0 
1.287062776007e+01 -1.673298114290e+01 0.0 
0.0 0.0 -1.250914099510e+01 
-6.995496607761e+00 8.080372204117e-01 0.0 
8.080372204117e-01 -8.997925164038e+00 0.0 
0.0 0.0 -4.398026531540e+00 
-5.684496857481e+00 7.733555170329e-01 0.0 
7.733555170329e-01 -1.064086340949e+01 0.0 
0.0 0.0 -3.885490404346e+00 
-8.596034093745e+00 8.592616829407e-01 0.0 
8.592616829407e-01 -8.854316583682e+00 0.0 
0.0 0.0 -4.835105203228e+00 
-6.269410635160e+00 7.392637539787e-01 0.0 
7.392637539787e-01 -1.057491478001e+01 0.0 
0.0 0.0 -3.989997447378e+00 
-1.013445788453e+01 6.953574373339e-01 0.0 
6.953574373339e-01 -8.706077168276e+00 0.0 
0.0 0.0 -5.252160515841e+00 
-1.128686064079e+01 2.760801774710e-01 0.0 
2.760801774710e-01 -8.421900043482e+00 0.0 
0.0 0.0 -5.512628205281e+00 
-6.849157328887e+00 6.220464568201e-01 0.0 
6.220464568201e-01 -1.052595508548e+01 0.0 
0.0 0.0 -4.242943313090e+00 
-1.170424277342e+01 -3.726701474704e-01 0.0 
-3.726701474704e-01 -8.255969866603e+00 0.0 
0.0 0.0 -5.588063792007e+00 
-7.562423189094e+00 4.120954565108e-01 0.0 
4.120954565108e-01 -1.054180180410e+01 0.0 
0.0 0.0 -4.954538459027e+00 
-1.170288057850e+01 -9.801221267175e-01 0.0 
-9.801221267175e-01 -8.471682628258e+00 0.0 
0.0 0.0 -5.652368962029e+00 
-8.814199526296e+00 6.507865066195e-01 0.0 
6.507865066195e-01 -1.059110077251e+01 0.0 
0.0 0.0 -6.060217540601e+00 
-1.129086843540e+01 -1.233443184412e+00 0.0 
-1.233443184412e+00 -1.023840787134e+01 0.0 
0.0 0.0 -6.058782892023e+00 
-1.063077731904e+01 7.108219066047e-01 0.0 
7.108219066047e-01 -1.001689907484e+01 0.0 
0.0 0.0 -6.860969584831e+00 
-1.151677328062e+01 -3.046514376441e-01 0.0 
-3.046514376441e-01 -1.010868092992e+01 0.0 
0.0 0.0 -4.850179202476e+00 
-1.386372357387e+01 1.387739271892e+00 0.0 
1.387739271892e+00 -1.013057701524e+01 0.0 
0.0 0.0 -5.826623723649e+00 
-1.336274439853e+01 1.066635995428e+00 0.0 
1.066635995428e+00 -1.025835937409e+01 0.0 
0.0 0.0 -7.752997798455e+00 
-1.730870963779e+01 1.872115999330e+00 0.0 
1.872115999330e+00 -1.109742799825e+01 0.0 
0.0 0.0 -8.968270599117e+00 
-2.609269462019e+01 2.934022541430e+00 0.0 
2.934022541430e+00 -4.895672633414e+00 0.0 
0.0 0.0 -2.507573341464e+00 
-9.227139062568e+00 5.561535488621e-01 0.0 
5.561535488621e-01 -9.599749925950e+00 0.0 
0.0 0.0 -5.590528117150e+00 
-9.029458639713e+00 -7.606750247680e-01 0.0 
-7.606750247680e-01 -1.146896884129e+01 0.0 
0.0 0.0 -5.319040866503e+00 
-5.268559646661e+00 2.599311827627e-01 0.0 
2.599311827627e-01 -4.275375739896e+00 0.0 
0.0 0.0 -2.302378074185e+00 
-1.259852211159e+01 7.668805438559e-02 0.0 
7.668805438559e-02 -1.600397836495e+01 0.0 
0.0 0.0 -8.628051679680e+00 
-5.107480434569e+01 1.897526155185e+01 0.0 
1.897526155185e+01 -1.591729624775e+01 0.0 
0.0 0.0 -1.985065243378e+01 
-1.485922118566e+01 1.369708121354e-01 0.0 
1.369708121354e-01 -2.739311276284e+01 0.0 
0.0 0.0 -1.181630456649e+01 
-1.959465965991e+01 -4.623557343482e-01 0.0 
-4.623557343482e-01 -2.931560953752e+01 0.0 
0.0 0.0 -1.466480587217e+01 
-1.467207685252e+01 -2.072401518776e-01 0.0 
-2.072401518776e-01 -2.921632619517e+01 0.0 
0.0 0.0 -1.269548394520e+01 
-1.947252958623e+01 -5.523038980285e-01 0.0 
-5.523038980285e-01 -2.946336782183e+01 0.0 
0.0 0.0 -1.459584585862e+01 
-1.444263895381e+01 -2.308281779504e-01 0.0 
-2.308281779504e-01 -2.931996898303e+01 0.0 
0.0 0.0 -1.272007318972e+01 
-1.938204131944e+01 -6.701486471787e-01 0.0 
-6.701486471787e-01 -2.954039298847e+01 0.0 
0.0 0.0 -1.457109174102e+01 
-1.431791433582e+01 -2.403557955456e-01 0.0 
-2.403557955456e-01 -2.934578815963e+01 0.0 
0.0 0.0 -1.269911074864e+01 
-1.924031485704e+01 -7.686120678754e-01 0.0 
-7.686120678754e-01 -2.960744717554e+01 0.0 
0.0 0.0 -1.454058599418e+01 
-1.420920464339e+01 -2.530399720198e-01 0.0 
-2.530399720198e-01 -2.937065810483e+01 0.0 
0.0 0.0 -1.267395882446e+01 
-1.903944705211e+01 -8.555635331704e-01 0.0 
-8.555635331704e-01 -2.966704402821e+01 0.0 
0.0 0.0 -1.449727975520e+01 
-1.405628009978e+01 -2.667618542881e-01 0.0 
-2.667618542881e-01 -2.938332260280e+01 0.0 
0.0 0.0 -1.263188081077e+01 
-1.875067380723e+01 -9.316784997470e-01 0.0 
-9.316784997470e-01 -2.970643417743e+01 0.0 
0.0 0.0 -1.442452899664e+01 
-1.384154116059e+01 -2.603271082360e-01 0.0 
-2.603271082360e-01 -2.936666023083e+01 0.0 
0.0 0.0 -1.256246041743e+01 
-1.836501900904e+01 -9.846013459035e-01 0.0 
-9.846013459035e-01 -2.975383632631e+01 0.0 
0.0 0.0 -1.432675761256e+01 
-1.361812590589e+01 -2.522705422257e-01 0.0 
-2.522705422257e-01 -2.936490113152e+01 0.0 
0.0 0.0 -1.249490811122e+01 
-1.790880156037e+01 -1.019170810467e+00 0.0 
-1.019170810467e+00 -2.981864849181e+01 0.0 
0.0 0.0 -1.420603668524e+01 
-1.332449956702e+01 -2.719290627562e-01 0.0 
-2.719290627562e-01 -2.935427076472e+01 0.0 
0.0 0.0 -1.240363109952e+01 
-1.738328728492e+01 -1.047350665026e+00 0.0 
-1.047350665026e+00 -2.981314871304e+01 0.0 
0.0 0.0 -1.403950396670e+01 
-1.294090181270e+01 -2.593000781118e-01 0.0 
-2.593000781118e-01 -2.927651069557e+01 0.0 
0.0 0.0 -1.226522375248e+01 
-1.680065324521e+01 -1.035178040129e+00 0.0 
-1.035178040129e+00 -2.976521296896e+01 0.0 
0.0 0.0 -1.385277353892e+01 
-1.269903046218e+01 -2.087639108117e-01 0.0 
-2.087639108117e-01 -2.924430195405e+01 0.0 
0.0 0.0 -1.218299972487e+01 
-1.618673690599e+01 -9.538900738900e-01 0.0 
-9.538900738900e-01 -2.975910783605e+01 0.0 
0.0 0.0 -1.366864733113e+01 
-2.980002079078e+01 7.168918455822e+00 0.0 
7.168918455822e+00 -3.391267145116e+01 0.0 
0.0 0.0 -1.645003245071e+01 
-1.239962262063e+01 -1.124567880560e-01 0.0 
-1.124567880560e-01 -2.923597960898e+01 0.0 
0.0 0.0 -1.209068066888e+01 
-1.555952307463e+01 -8.188746578958e-01 0.0 
-8.188746578958e-01 -2.978184192106e+01 0.0 
0.0 0.0 -1.348466574705e+01 
-1.194362855091e+01 1.465250301677e-02 0.0 
1.465250301677e-02 -2.921001529012e+01 0.0 
0.0 0.0 -1.194609315231e+01 
-2.916728731665e+01 5.834623178558e+00 0.0 
5.834623178558e+00 -3.380001805322e+01 0.0 
0.0 0.0 -1.672845088056e+01 
-1.494565318653e+01 -6.458272445347e-01 0.0 
-6.458272445347e-01 -2.976861162220e+01 0.0 
0.0 0.0 -1.329230276118e+01 
-1.168861502832e+01 1.652267857953e-01 0.0 
1.652267857953e-01 -2.924640975872e+01 0.0 
0.0 0.0 -1.188050743611e+01 
-1.441922854841e+01 -4.086432187930e-01 0.0 
-4.086432187930e-01 -2.974835748353e+01 0.0 
0.0 0.0 -1.312689552127e+01 
-1.170148932282e+01 3.608434712329e-01 0.0 
3.608434712329e-01 -2.936645927293e+01 0.0 
0.0 0.0 -1.192038457872e+01 
-1.400903015398e+01 -9.203376281494e-02 0.0 
-9.203376281494e-02 -2.973209050871e+01 0.0 
0.0 0.0 -1.300669617318e+01 
-2.460480319758e+01 5.694329635756e+00 0.0 
5.694329635756e+00 -2.699751935266e+01 0.0 
0.0 0.0 -1.253838207282e+01 
-1.202892926193e+01 6.177562225213e-01 0.0 
6.177562225213e-01 -2.957639410056e+01 0.0 
0.0 0.0 -1.208159700875e+01 
-1.374097547362e+01 2.993986349816e-01 0.0 
2.993986349816e-01 -2.974240104114e+01 0.0 
0.0 0.0 -1.295650178852e+01 
-1.266273412159e+01 9.224480837815e-01 0.0 
9.224480837815e-01 -2.985892366361e+01 0.0 
0.0 0.0 -1.235649733556e+01 
-1.361512510188e+01 7.198655071130e-01 0.0 
7.198655071130e-01 -2.981786265687e+01 0.0 
0.0 0.0 -1.299703099517e+01 
-1.345602599925e+01 1.178299817757e+00 0.0 
1.178299817757e+00 -3.013507101091e+01 0.0 
0.0 0.0 -1.267732910305e+01 
-1.359331016038e+01 1.131889584192e+00 0.0 
1.131889584192e+00 -2.972754060415e+01 0.0 
0.0 0.0 -1.305889044467e+01 
-1.417852717236e+01 1.327820445860e+00 0.0 
1.327820445860e+00 -3.008701818088e+01 0.0 
0.0 0.0 -1.287966360597e+01 
-1.379944477720e+01 1.411250946804e+00 0.0 
1.411250946804e+00 -2.939582924128e+01 0.0 
0.0 0.0 -1.316391621033e+01 
-1.474527256807e+01 1.354899925597e+00 0.0 
1.354899925597e+00 -2.974232985298e+01 0.0 
0.0 0.0 -1.294628072632e+01 
-1.454382476785e+01 1.542304727659e+00 0.0 
1.542304727659e+00 -2.909371913788e+01 0.0 
0.0 0.0 -1.342783054882e+01 
-1.524903730069e+01 1.069707332651e+00 0.0 
1.069707332651e+00 -2.933399340042e+01 0.0 
0.0 0.0 -1.297490921033e+01 
-1.630741565282e+01 1.692167804974e+00 0.0 
1.692167804974e+00 -2.890573786626e+01 0.0 
0.0 0.0 -1.394184883194e+01 
-3.638234474601e+01 9.504499557295e+00 0.0 
9.504499557295e+00 -3.692275905753e+01 0.0 
0.0 0.0 -1.866896275186e+01 
-1.753550911557e+01 2.010556065189e+00 0.0 
2.010556065189e+00 -2.874059614924e+01 0.0 
0.0 0.0 -1.410941482407e+01 
-1.567385552709e+01 4.366307109082e-01 0.0 
4.366307109082e-01 -2.883229740515e+01 0.0 
0.0 0.0 -1.295184587967e+01 
-1.931264791078e+01 2.539458820571e+00 0.0 
2.539458820571e+00 -2.912451494319e+01 0.0 
0.0 0.0 -1.442130204205e+01 
-1.622895457375e+01 -2.630601458114e-01 0.0 
-2.630601458114e-01 -2.865288613131e+01 0.0 
0.0 0.0 -1.306455221152e+01 
-2.160573665899e+01 3.377514931813e+00 0.0 
3.377514931813e+00 -3.049135112838e+01 0.0 
0.0 0.0 -1.500210926406e+01 
-1.687111288817e+01 -6.682041448760e-01 0.0 
-6.682041448760e-01 -2.917216668136e+01 0.0 
0.0 0.0 -1.341298387086e+01 
-2.445906615811e+01 3.912496101999e+00 0.0 
3.912496101999e+00 -3.189085898825e+01 0.0 
0.0 0.0 -1.547302175790e+01 
-1.895131457973e+01 8.647605419529e-01 0.0 
8.647605419529e-01 -2.936276314407e+01 0.0 
0.0 0.0 -1.219646982410e+01 
-2.238375319791e+01 2.848009736379e+00 0.0 
2.848009736379e+00 -3.109503369395e+01 0.0 
0.0 0.0 -1.260107841508e+01 
-2.966073674330e+01 7.080117221255e+00 0.0 
7.080117221255e+00 -2.656273547716e+01 0.0 
0.0 0.0 -1.332231028820e+01 
-1.753375146597e+01 1.006620046257e+00 0.0 
1.006620046257e+00 -2.985751114363e+01 0.0 
0.0 0.0 -1.264527035687e+01 
-1.767220551485e+01 -1.151696441856e+00 0.0 
-1.151696441856e+00 -2.785672317986e+01 0.0 
0.0 0.0 -1.290582214063e+01 
-2.084773645401e+01 -7.302908140916e-02 0.0 
-7.302908140916e-02 -3.426221045966e+01 0.0 
0.0 0.0 -1.549052982594e+01 
-1.384670417953e+01 -1.949881599130e-01 0.0 
-1.949881599130e-01 -2.337603227703e+01 0.0 
0.0 0.0 -9.979103983089e+00 
-3.280678138823e+01 1.161818342333e+01 0.0 
1.161818342333e+01 -2.979248645471e+01 0.0 
0.0 0.0 -1.544439426080e+01 
-2.716681161321e+01 1.233298673521e-01 0.0 
1.233298673521e-01 -5.061871810547e+01 0.0 
0.0 0.0 -2.217298698971e+01 
-2.304812059490e+01 -5.186094412403e-01 0.0 
-5.186094412403e-01 -4.871018237636e+01 0.0 
0.0 0.0 -2.112749089138e+01 
-2.713744592502e+01 -3.437469485686e-01 0.0 
-3.437469485686e-01 -4.887104810216e+01 0.0 
0.0 0.0 -2.130647543370e+01 
-2.299031187373e+01 -3.949636119105e-01 0.0 
-3.949636119105e-01 -4.868111596609e+01 0.0 
0.0 0.0 -2.110142835195e+01 
-2.717836893150e+01 -4.807003906706e-01 0.0 
-4.807003906706e-01 -4.890637604471e+01 0.0 
0.0 0.0 -2.132791102562e+01 
-2.299683798288e+01 -4.826996260584e-01 0.0 
-4.826996260584e-01 -4.873119948241e+01 0.0 
0.0 0.0 -2.111841123959e+01 
-2.717374959054e+01 -5.993457502255e-01 0.0 
-5.993457502255e-01 -4.897602872206e+01 0.0 
0.0 0.0 -2.136510838783e+01 
-2.297634041694e+01 -5.744768906779e-01 0.0 
-5.744768906779e-01 -4.877309536829e+01 0.0 
0.0 0.0 -2.112483073557e+01 
-2.712663112726e+01 -7.134531263010e-01 0.0 
-7.134531263010e-01 -4.903649619293e+01 0.0 
0.0 0.0 -2.139197451201e+01 
-2.292055251539e+01 -6.692425793886e-01 0.0 
-6.692425793886e-01 -4.880413829410e+01 0.0 
0.0 0.0 -2.111740724285e+01 
-2.704101411515e+01 -8.202426482254e-01 0.0 
-8.202426482254e-01 -4.909085621888e+01 0.0 
0.0 0.0 -2.141212138288e+01 
-2.285193390248e+01 -7.619058905664e-01 0.0 
-7.619058905664e-01 -4.882809935452e+01 0.0 
0.0 0.0 -2.110400997710e+01 
-2.692082141251e+01 -9.115585409299e-01 0.0 
-9.115585409299e-01 -4.913125448259e+01 0.0 
0.0 0.0 -2.142350508305e+01 
-2.276618505264e+01 -8.379395561487e-01 0.0 
-8.379395561487e-01 -4.885723569067e+01 0.0 
0.0 0.0 -2.108702622299e+01 
-2.677385075091e+01 -9.890079041623e-01 0.0 
-9.890079041623e-01 -4.917633430546e+01 0.0 
0.0 0.0 -2.143127085687e+01 
-2.264091424653e+01 -9.090551234996e-01 0.0 
-9.090551234996e-01 -4.887950283945e+01 0.0 
0.0 0.0 -2.105612512579e+01 
-2.660893881285e+01 -1.048569015126e+00 0.0 
-1.048569015126e+00 -4.921816066554e+01 0.0 
0.0 0.0 -2.143437589011e+01 
-2.250860505763e+01 -9.700211320706e-01 0.0 
-9.700211320706e-01 -4.888549824351e+01 0.0 
0.0 0.0 -2.101823099034e+01 
-2.642980616961e+01 -1.065112534107e+00 0.0 
-1.065112534107e+00 -4.921852253678e+01 0.0 
0.0 0.0 -2.141963604851e+01 
-2.237577154350e+01 -9.704550456846e-01 0.0 
-9.704550456846e-01 -4.891109604398e+01 0.0 
0.0 0.0 -2.098606027625e+01 
-3.602894304284e+01 6.978281641254e+00 0.0 
6.978281641254e+00 -5.278205616974e+01 0.0 
0.0 0.0 -2.354148311435e+01 
-2.624310780149e+01 -1.034800697154e+00 0.0 
-1.034800697154e+00 -4.923264977688e+01 0.0 
0.0 0.0 -2.140225697019e+01 
-2.223895303218e+01 -9.188398221745e-01 0.0 
-9.188398221745e-01 -4.897196316888e+01 0.0 
0.0 0.0 -2.096327486032e+01 
-2.606211738726e+01 -9.531300017833e-01 0.0 
-9.531300017833e-01 -4.926470353025e+01 0.0 
0.0 0.0 -2.137929918214e+01 
-3.212377835144e+01 5.868035603151e+00 0.0 
5.868035603151e+00 -4.643063621888e+01 0.0 
0.0 0.0 -2.008250220068e+01 
-2.207190334460e+01 -8.130213337307e-01 0.0 
-8.130213337307e-01 -4.905384894582e+01 0.0 
0.0 0.0 -2.093772568713e+01 
-2.590327082930e+01 -7.994075974819e-01 0.0 
-7.994075974819e-01 -4.929142404736e+01 0.0 
0.0 0.0 -2.134003924172e+01 
-3.506552223864e+01 6.328138760029e+00 0.0 
6.328138760029e+00 -5.261689344411e+01 0.0 
0.0 0.0 -2.392452183663e+01 
-2.190373789450e+01 -6.130733549716e-01 0.0 
-6.130733549716e-01 -4.917376863424e+01 0.0 
0.0 0.0 -2.092325195862e+01 
-2.579350568853e+01 -5.646593067535e-01 0.0 
-5.646593067535e-01 -4.933751186081e+01 0.0 
0.0 0.0 -2.128996282929e+01 
-2.177025370523e+01 -3.166337617019e-01 0.0 
-3.166337617019e-01 -4.933237176329e+01 0.0 
0.0 0.0 -2.093078764056e+01 
-2.577484413623e+01 -2.669458530839e-01 0.0 
-2.669458530839e-01 -4.941289364911e+01 0.0 
0.0 0.0 -2.123245653717e+01 
-2.168551113607e+01 5.993713451806e-02 0.0 
5.993713451806e-02 -4.955288216078e+01 0.0 
0.0 0.0 -2.097151798906e+01 
-2.581993280479e+01 9.652637950762e-02 0.0 
9.652637950762e-02 -4.950878136038e+01 0.0 
0.0 0.0 -2.121794445077e+01 
-2.162164874434e+01 4.898178925344e-01 0.0 
4.898178925344e-01 -4.978065676201e+01 0.0 
0.0 0.0 -2.102069165190e+01 
-2.597738973969e+01 4.906834369033e-01 0.0 
4.906834369033e-01 -4.960637628915e+01 0.0 
0.0 0.0 -2.137638614263e+01 
-2.152456898512e+01 8.890027984965e-01 0.0 
8.890027984965e-01 -4.993513762231e+01 0.0 
0.0 0.0 -2.103791198223e+01 
-4.023650450727e+01 7.751631381500e+00 0.0 
7.751631381500e+00 -5.605967938046e+01 0.0 
0.0 0.0 -2.518765347706e+01 
-2.641367036490e+01 8.943437064541e-01 0.0 
8.943437064541e-01 -4.967183000517e+01 0.0 
0.0 0.0 -2.163750347684e+01 
-2.141047672342e+01 1.179337111335e+00 0.0 
1.179337111335e+00 -4.996161821855e+01 0.0 
0.0 0.0 -2.101162848259e+01 
-2.659534839008e+01 1.379029335053e+00 0.0 
1.379029335053e+00 -4.935835928508e+01 0.0 
0.0 0.0 -2.174472552832e+01 
-2.129701459575e+01 1.415442315560e+00 0.0 
1.415442315560e+00 -4.964789635707e+01 0.0 
0.0 0.0 -2.088347328585e+01 
-2.120133522679e+01 1.579477331382e+00 0.0 
1.579477331382e+00 -4.928157770270e+01 0.0 
0.0 0.0 -2.074487387885e+01 
-2.691376768939e+01 1.992687207801e+00 0.0 
1.992687207801e+00 -4.880315621826e+01 0.0 
0.0 0.0 -2.183147283793e+01 
-2.118175174577e+01 1.544943787025e+00 0.0 
1.544943787025e+00 -4.867538681502e+01 0.0 
0.0 0.0 -2.055714156824e+01 
-2.746812022481e+01 2.881178030815e+00 0.0 
2.881178030815e+00 -4.842753203684e+01 0.0 
0.0 0.0 -2.195120296375e+01 
-2.313370731839e+01 1.906031117604e+00 0.0 
1.906031117604e+00 -4.883254876725e+01 0.0 
0.0 0.0 -2.033890639946e+01 
-2.858243891323e+01 3.795374172547e+00 0.0 
3.795374172547e+00 -4.860857642227e+01 0.0 
0.0 0.0 -2.226487556071e+01 
-2.643709432847e+01 2.903937914948e+00 0.0 
2.903937914948e+00 -4.835455109296e+01 0.0 
0.0 0.0 -1.951859384006e+01 
-3.036069944171e+01 3.957012813700e+00 0.0 
3.957012813700e+00 -4.990603911171e+01 0.0 
0.0 0.0 -2.040325702024e+01 
-2.975525648600e+01 4.774640394157e+00 0.0 
4.774640394157e+00 -4.948270777448e+01 0.0 
0.0 0.0 -2.257728084592e+01 
-3.168673569830e+01 5.137207725885e+00 0.0 
5.137207725885e+00 -5.072269924583e+01 0.0 
0.0 0.0 -2.292833882283e+01 
-3.516912140344e+01 7.043835364345e+00 0.0 
7.043835364345e+00 -4.710279867866e+01 0.0 
0.0 0.0 -2.120449133516e+01 
-2.533686965110e+01 1.372084677063e+00 0.0 
1.372084677063e+00 -4.840096071077e+01 0.0 
0.0 0.0 -2.135711894482e+01 
-2.511805302313e+01 -1.454064998680e+00 0.0 
-1.454064998680e+00 -5.023341079565e+01 0.0 
0.0 0.0 -2.170726710773e+01 
-2.187041626596e+01 3.563584682477e-02 0.0 
3.563584682477e-02 -4.413943994391e+01 0.0 
0.0 0.0 -1.918396469187e+01 
-2.825673788123e+01 -1.582614827831e-01 0.0 
-1.582614827831e-01 -5.434662123824e+01 0.0 
0.0 0.0 -2.382722999025e+01 
-3.714415802551e+01 8.873054361672e+00 0.0 
8.873054361672e+00 -4.805833324723e+01 0.0 
0.0 0.0 -2.182874701248e+01 
-3.136929526934e+01 2.023747883977e-01 0.0 
2.023747883977e-01 -6.635135494360e+01 0.0 
0.0 0.0 -2.891619506388e+01 
-3.522124959428e+01 -4.579856444646e-01 0.0 
-4.579856444646e-01 -6.833312073548e+01 0.0 
0.0 0.0 -2.985354520481e+01 
-3.169311597027e+01 -9.721269737851e-02 0.0 
-9.721269737851e-02 -6.802059962852e+01 0.0 
0.0 0.0 -2.951411467963e+01 
-3.519082048099e+01 -4.448335997132e-01 0.0 
-4.448335997132e-01 -6.853803094075e+01 0.0 
0.0 0.0 -2.993189667445e+01 
-3.180558392982e+01 -2.707732844799e-01 0.0 
-2.707732844799e-01 -6.822542997679e+01 0.0 
0.0 0.0 -2.960930417198e+01 
-3.523632637834e+01 -6.006664987704e-01 0.0 
-6.006664987704e-01 -6.861459224565e+01 0.0 
0.0 0.0 -2.996759287223e+01 
-3.187253455930e+01 -4.132665360737e-01 0.0 
-4.132665360737e-01 -6.831320333332e+01 0.0 
0.0 0.0 -2.965572136779e+01 
-3.531950788311e+01 -7.577400834581e-01 0.0 
-7.577400834581e-01 -6.867948924646e+01 0.0 
0.0 0.0 -3.000505493323e+01 
-3.190639570760e+01 -5.374533700156e-01 0.0 
-5.374533700156e-01 -6.837231186604e+01 0.0 
0.0 0.0 -2.968361227209e+01 
-3.541905343169e+01 -9.066209408366e-01 0.0 
-9.066209408366e-01 -6.873883298130e+01 0.0 
0.0 0.0 -3.004218084247e+01 
-3.192165264239e+01 -6.467992706052e-01 0.0 
-6.467992706052e-01 -6.841969523938e+01 0.0 
0.0 0.0 -2.970240436453e+01 
-3.552865932579e+01 -1.044170812464e+00 0.0 
-1.044170812464e+00 -6.879410688256e+01 0.0 
0.0 0.0 -3.007832362686e+01 
-3.192572874217e+01 -7.388528062932e-01 0.0 
-7.388528062932e-01 -6.846260366750e+01 0.0 
0.0 0.0 -2.971649972290e+01 
-3.564632931570e+01 -1.166684124203e+00 0.0 
-1.166684124203e+00 -6.885371407691e+01 0.0 
0.0 0.0 -3.011509765864e+01 
-3.191162922776e+01 -8.143537589581e-01 0.0 
-8.143537589581e-01 -6.850727065866e+01 0.0 
0.0 0.0 -2.972566996593e+01 
-3.577403541021e+01 -1.271109118805e+00 0.0 
-1.271109118805e+00 -6.891116814588e+01 0.0 
0.0 0.0 -3.014901109552e+01 
-3.188683664963e+01 -8.684514019898e-01 0.0 
-8.684514019898e-01 -6.855424776140e+01 0.0 
0.0 0.0 -2.973232532331e+01 
-3.592026679151e+01 -1.348550446960e+00 0.0 
-1.348550446960e+00 -6.895847313341e+01 0.0 
0.0 0.0 -3.017708648293e+01 
-3.186416968316e+01 -8.805055548071e-01 0.0 
-8.805055548071e-01 -6.860909431539e+01 0.0 
0.0 0.0 -2.974197919956e+01 
-4.218680520579e+01 7.248173450676e+00 0.0 
7.248173450676e+00 -7.139314118169e+01 0.0 
0.0 0.0 -3.086297689013e+01 
-3.609312800196e+01 -1.382865422375e+00 0.0 
-1.382865422375e+00 -6.902128042411e+01 0.0 
0.0 0.0 -3.020572431533e+01 
-3.182205434471e+01 -8.422767708297e-01 0.0 
-8.422767708297e-01 -6.868886994510e+01 0.0 
0.0 0.0 -2.975327728694e+01 
-3.629525226996e+01 -1.364776324951e+00 0.0 
-1.364776324951e+00 -6.911154195720e+01 0.0 
0.0 0.0 -3.023422287830e+01 
-4.160607011275e+01 6.905036570831e+00 0.0 
6.905036570831e+00 -7.118151987897e+01 0.0 
0.0 0.0 -3.149086262336e+01 
-3.175152997817e+01 -7.482026593549e-01 0.0 
-7.482026593549e-01 -6.880783714837e+01 0.0 
0.0 0.0 -2.976781013796e+01 
-3.652845036527e+01 -1.280074011419e+00 0.0 
-1.280074011419e+00 -6.922258156859e+01 0.0 
0.0 0.0 -3.025488790605e+01 
-3.165472251199e+01 -5.748391270889e-01 0.0 
-5.748391270889e-01 -6.897660217635e+01 0.0 
0.0 0.0 -2.978939740650e+01 
-3.680039844439e+01 -1.099725140977e+00 0.0 
-1.099725140977e+00 -6.935868051973e+01 0.0 
0.0 0.0 -3.026027602410e+01 
-3.151293249457e+01 -3.131556707510e-01 0.0 
-3.131556707510e-01 -6.919188259423e+01 0.0 
0.0 0.0 -2.981144452664e+01 
-3.858550534124e+01 6.405332932908e+00 0.0 
6.405332932908e+00 -6.492222961480e+01 0.0 
0.0 0.0 -2.761788133899e+01 
-3.713537658416e+01 -8.050274525849e-01 0.0 
-8.050274525849e-01 -6.950422432204e+01 0.0 
0.0 0.0 -3.024225799441e+01 
-3.129312872650e+01 -3.745176338786e-03 0.0 
-3.745176338786e-03 -6.938491925993e+01 0.0 
0.0 0.0 -2.980341439593e+01 
-3.755993551349e+01 -4.646496778197e-01 0.0 
-4.646496778197e-01 -6.968620996663e+01 0.0 
0.0 0.0 -3.019780369632e+01 
-3.095391503576e+01 3.261264634406e-01 0.0 
3.261264634406e-01 -6.961907996922e+01 0.0 
0.0 0.0 -2.977189850149e+01 
-3.769629604304e+01 -1.524104735173e-02 0.0 
-1.524104735173e-02 -6.981137481236e+01 0.0 
0.0 0.0 -2.997530631666e+01 
-3.049825596623e+01 6.990055701646e-01 0.0 
6.990055701646e-01 -6.992531052994e+01 0.0 
0.0 0.0 -2.972706994885e+01 
-3.779227206200e+01 6.203093453167e-01 0.0 
6.203093453167e-01 -6.983462827401e+01 0.0 
0.0 0.0 -2.961788078436e+01 
-3.000150318788e+01 1.115132534845e+00 0.0 
1.115132534845e+00 -7.017951304176e+01 0.0 
0.0 0.0 -2.965430486889e+01 
-3.795619289053e+01 1.450891993493e+00 0.0 
1.450891993493e+00 -6.978684551097e+01 0.0 
0.0 0.0 -2.982639512128e+01 
-3.032345779536e+01 1.631961963653e+00 0.0 
1.631961963653e+00 -7.018175519524e+01 0.0 
0.0 0.0 -2.931702919701e+01 
-3.812142892027e+01 2.518005660745e+00 0.0 
2.518005660745e+00 -6.948501153323e+01 0.0 
0.0 0.0 -3.003986512063e+01 
-4.530086226416e+01 7.457610279068e+00 0.0 
7.457610279068e+00 -7.431912201734e+01 0.0 
0.0 0.0 -3.234731252462e+01 
-3.843851430365e+01 3.566566613231e+00 0.0 
3.566566613231e+00 -6.933600413331e+01 0.0 
0.0 0.0 -3.028777367263e+01 
-3.133512114448e+01 2.219309266688e+00 0.0 
2.219309266688e+00 -6.975792259538e+01 0.0 
0.0 0.0 -2.873542786704e+01 
-3.882896171942e+01 4.874666144380e+00 0.0 
4.874666144380e+00 -6.927381845520e+01 0.0 
0.0 0.0 -3.060467608049e+01 
-3.287497771005e+01 2.915771011412e+00 0.0 
2.915771011412e+00 -6.958793308988e+01 0.0 
0.0 0.0 -2.833007751204e+01 
-3.956320048156e+01 5.638159148395e+00 0.0 
5.638159148395e+00 -6.999463211925e+01 0.0 
0.0 0.0 -3.082324165180e+01 
-3.512921084070e+01 3.839949324850e+00 0.0 
3.839949324850e+00 -6.910611450052e+01 0.0 
0.0 0.0 -2.760465731891e+01 
-3.775711382640e+01 4.867003183020e+00 0.0 
4.867003183020e+00 -6.974251035042e+01 0.0 
0.0 0.0 -2.833513170997e+01 
-4.092799136907e+01 7.491221696541e+00 0.0 
7.491221696541e+00 -6.573106872925e+01 0.0 
0.0 0.0 -2.900572175911e+01 
-3.341752099275e+01 1.382546016614e+00 0.0 
1.382546016614e+00 -6.861314075820e+01 0.0 
0.0 0.0 -2.984562251960e+01 
-3.360152627665e+01 -1.544319961879e+00 0.0 
-1.544319961879e+00 -6.693206340274e+01 0.0 
0.0 0.0 -2.956257371814e+01 
-3.662806769464e+01 -8.117890997979e-03 0.0 
-8.117890997979e-03 -7.288021226102e+01 0.0 
0.0 0.0 -3.202219428169e+01 
-3.004308447749e+01 -1.656095124165e-01 0.0 
-1.656095124165e-01 -6.277286284414e+01 0.0 
0.0 0.0 -2.743854336383e+01 
-4.220125828941e+01 8.154878027426e+00 0.0 
8.154878027426e+00 -6.591627395569e+01 0.0 
0.0 0.0 -2.887632789420e+01 
-4.280689214976e+01 2.603108685130e-01 0.0 
2.603108685130e-01 -8.949992155770e+01 0.0 
0.0 0.0 -3.919268058281e+01 
-4.078266220027e+01 -4.505568615821e-01 0.0 
-4.505568615821e-01 -8.763084033021e+01 0.0 
0.0 0.0 -3.812405075915e+01 
-4.289896437522e+01 -1.869543297148e-01 0.0 
-1.869543297148e-01 -8.785114144468e+01 0.0 
0.0 0.0 -3.836950271968e+01 
-4.073892822679e+01 -3.324735884147e-01 0.0 
-3.324735884147e-01 -8.759483278484e+01 0.0 
0.0 0.0 -3.810012830349e+01 
-4.309358321938e+01 -3.069774136196e-01 0.0 
-3.069774136196e-01 -8.789157663784e+01 0.0 
0.0 0.0 -3.840565845802e+01 
-4.077506966380e+01 -4.392941324828e-01 0.0 
-4.392941324828e-01 -8.765011040344e+01 0.0 
0.0 0.0 -3.812755402017e+01 
-4.330034831037e+01 -4.353871292035e-01 0.0 
-4.353871292035e-01 -8.797942281755e+01 0.0 
0.0 0.0 -3.846793049270e+01 
-4.083607085525e+01 -5.652533270550e-01 0.0 
-5.652533270550e-01 -8.770973962702e+01 0.0 
0.0 0.0 -3.816374314468e+01 
-4.353209026211e+01 -5.671844033530e-01 0.0 
-5.671844033530e-01 -8.805503594213e+01 0.0 
0.0 0.0 -3.852578804984e+01 
-4.090475103167e+01 -6.878189577483e-01 0.0 
-6.878189577483e-01 -8.777028302146e+01 0.0 
0.0 0.0 -3.820251021594e+01 
-4.379612518789e+01 -6.909469621042e-01 0.0 
-6.909469621042e-01 -8.812461528864e+01 0.0 
0.0 0.0 -3.858218249842e+01 
-4.097662115263e+01 -7.979506861536e-01 0.0 
-7.979506861536e-01 -8.783130546431e+01 0.0 
0.0 0.0 -3.824237798508e+01 
-4.409786850709e+01 -8.041406760245e-01 0.0 
-8.041406760245e-01 -8.819200508934e+01 0.0 
0.0 0.0 -3.863889616697e+01 
-4.104834363392e+01 -8.922164868065e-01 0.0 
-8.922164868065e-01 -8.790067597061e+01 0.0 
0.0 0.0 -3.828470588136e+01 
-4.443783860925e+01 -9.007523914121e-01 0.0 
-9.007523914121e-01 -8.826383462585e+01 0.0 
0.0 0.0 -3.869694206034e+01 
-4.111958038995e+01 -9.645942067394e-01 0.0 
-9.645942067394e-01 -8.798362614071e+01 0.0 
0.0 0.0 -3.833096195920e+01 
-4.482241230952e+01 -9.701298069259e-01 0.0 
-9.701298069259e-01 -8.834021154377e+01 0.0 
0.0 0.0 -3.875469065529e+01 
-4.119259023698e+01 -1.003011560576e+00 0.0 
-1.003011560576e+00 -8.808247655348e+01 0.0 
0.0 0.0 -3.838252003714e+01 
-4.954696494035e+01 6.842966671181e+00 0.0 
6.842966671181e+00 -9.141988685748e+01 0.0 
0.0 0.0 -3.869352205019e+01 
-4.526126354560e+01 -1.005680959590e+00 0.0 
-1.005680959590e+00 -8.842405990811e+01 0.0 
0.0 0.0 -3.881209288009e+01 
-4.125746861763e+01 -9.985860315718e-01 0.0 
-9.985860315718e-01 -8.821056189420e+01 0.0 
0.0 0.0 -3.844040915355e+01 
-4.575757554725e+01 -1.000862754553e+00 0.0 
-1.000862754553e+00 -8.853124339308e+01 0.0 
0.0 0.0 -3.887053408911e+01 
-4.578462937792e+01 6.166525943555e+00 0.0 
6.166525943555e+00 -8.470112415853e+01 0.0 
0.0 0.0 -3.557327269003e+01 
-4.130099403367e+01 -9.461258894106e-01 0.0 
-9.461258894106e-01 -8.838361622663e+01 0.0 
0.0 0.0 -3.850538307809e+01 
-4.995374933980e+01 6.323156159112e+00 0.0 
6.323156159112e+00 -9.095614165308e+01 0.0 
0.0 0.0 -3.944950574262e+01 
-4.631716236697e+01 -9.434104152174e-01 0.0 
-9.434104152174e-01 -8.867677793359e+01 0.0 
0.0 0.0 -3.893134667700e+01 
-4.131301429266e+01 -8.358918461544e-01 0.0 
-8.358918461544e-01 -8.861698349348e+01 0.0 
0.0 0.0 -3.857899933584e+01 
-4.694478177984e+01 -8.134798963796e-01 0.0 
-8.134798963796e-01 -8.887097491280e+01 0.0 
0.0 0.0 -3.899253169135e+01 
-4.126656659976e+01 -6.537336128678e-01 0.0 
-6.537336128678e-01 -8.892151416969e+01 0.0 
0.0 0.0 -3.865642423083e+01 
-4.764757084351e+01 -5.736436950298e-01 0.0 
-5.736436950298e-01 -8.910582795619e+01 0.0 
0.0 0.0 -3.903853805102e+01 
-4.113197077828e+01 -3.884592421130e-01 0.0 
-3.884592421130e-01 -8.924182187959e+01 0.0 
0.0 0.0 -3.871213779736e+01 
-4.799456569896e+01 -2.679436438632e-01 0.0 
-2.679436438632e-01 -8.925109175068e+01 0.0 
0.0 0.0 -3.889180861127e+01 
-4.090122113853e+01 -4.986568947776e-03 0.0 
-4.986568947776e-03 -8.967487935101e+01 0.0 
0.0 0.0 -3.877283014686e+01 
-5.227831209781e+01 7.011009323255e+00 0.0 
7.011009323255e+00 -9.380596457842e+01 0.0 
0.0 0.0 -4.008285961049e+01 
-4.824444989307e+01 2.254014285129e-01 0.0 
2.254014285129e-01 -8.942900712689e+01 0.0 
0.0 0.0 -3.864180198278e+01 
-4.115870211464e+01 4.594150498201e-01 0.0 
4.594150498201e-01 -9.001077609409e+01 0.0 
0.0 0.0 -3.863675391237e+01 
-4.850426238237e+01 8.343778103572e-01 0.0 
8.343778103572e-01 -8.971684410991e+01 0.0 
0.0 0.0 -3.834474455757e+01 
-4.166988625143e+01 1.000032308120e+00 0.0 
1.000032308120e+00 -9.041137993139e+01 0.0 
0.0 0.0 -3.840936710493e+01 
-4.237614228905e+01 1.634353142736e+00 0.0 
1.634353142736e+00 -9.048616626789e+01 0.0 
0.0 0.0 -3.795216473074e+01 
-4.871545171636e+01 1.651717719336e+00 0.0 
1.651717719336e+00 -8.997525934659e+01 0.0 
0.0 0.0 -3.786430082375e+01 
-4.323522413884e+01 2.442984185270e+00 0.0 
2.442984185270e+00 -9.058022392491e+01 0.0 
0.0 0.0 -3.730458035556e+01 
-4.888799229867e+01 2.548049155315e+00 0.0 
2.548049155315e+00 -9.015853453332e+01 0.0 
0.0 0.0 -3.817352835540e+01 
-4.450380300831e+01 3.493480004933e+00 0.0 
3.493480004933e+00 -8.984441498637e+01 0.0 
0.0 0.0 -3.641344524437e+01 
-4.594185769319e+01 4.661583869308e+00 0.0 
4.661583869308e+00 -9.023220954562e+01 0.0 
0.0 0.0 -3.629096122539e+01 
-4.893071698215e+01 3.860436465617e+00 0.0 
3.860436465617e+00 -8.999151421614e+01 0.0 
0.0 0.0 -3.852250259944e+01 
-4.890988158379e+01 4.854224783407e+00 0.0 
4.854224783407e+00 -9.032153355521e+01 0.0 
0.0 0.0 -3.879049867762e+01 
-4.818909064621e+01 7.305911811267e+00 0.0 
7.305911811267e+00 -8.495119523180e+01 0.0 
0.0 0.0 -3.698490408997e+01 
-4.214432517997e+01 1.492203417502e+00 0.0 
1.492203417502e+00 -8.734358986309e+01 0.0 
0.0 0.0 -3.844637451292e+01 
-4.180550607752e+01 -1.463907337009e+00 0.0 
-1.463907337009e+00 -8.932029764519e+01 0.0 
0.0 0.0 -3.893774111681e+01 
-3.962893383465e+01 1.481209627418e-01 0.0 
1.481209627418e-01 -8.322809878295e+01 0.0 
0.0 0.0 -3.645710978528e+01 
-4.425144150596e+01 -1.624046019910e-01 0.0 
-1.624046019910e-01 -9.329624781474e+01 0.0 
0.0 0.0 -4.086430679621e+01 
-4.818957739948e+01 7.747783799368e+00 0.0 
7.747783799368e+00 -8.462297388928e+01 0.0 
0.0 0.0 -3.654214651871e+01 
-4.933853195017e+01 2.793587670514e-01 0.0 
2.793587670514e-01 -1.055128591793e+02 0.0 
0.0 0.0 -4.605541733885e+01 
-5.076891464313e+01 -3.143497512893e-01 0.0 
-3.143497512893e-01 -1.073357864221e+02 0.0 
0.0 0.0 -4.691670222638e+01 
-4.960873214072e+01 5.443999970092e-02 0.0 
5.443999970092e-02 -1.070492595779e+02 0.0 
0.0 0.0 -4.659739751558e+01 
-5.083334413090e+01 -2.034827464094e-01 0.0 
-2.034827464094e-01 -1.075108036643e+02 0.0 
0.0 0.0 -4.699345682018e+01 
-4.974653269016e+01 -9.566968232843e-02 0.0 
-9.566968232843e-02 -1.072230765436e+02 0.0 
0.0 0.0 -4.669088277013e+01 
-5.099676784729e+01 -3.140840572839e-01 0.0 
-3.140840572839e-01 -1.075724285501e+02 0.0 
0.0 0.0 -4.702988341609e+01 
-4.986830133072e+01 -2.227294463108e-01 0.0 
-2.227294463108e-01 -1.073137464633e+02 0.0 
0.0 0.0 -4.675461433819e+01 
-5.125928992573e+01 -4.350696564475e-01 0.0 
-4.350696564475e-01 -1.076402206178e+02 0.0 
0.0 0.0 -4.708231944219e+01 
-4.998946497605e+01 -3.323199562069e-01 0.0 
-3.323199562069e-01 -1.073959544864e+02 0.0 
0.0 0.0 -4.681562583874e+01 
-5.160839493087e+01 -5.505461650591e-01 0.0 
-5.505461650591e-01 -1.077161180105e+02 0.0 
0.0 0.0 -4.714829101698e+01 
-5.011389635058e+01 -4.247782668416e-01 0.0 
-4.247782668416e-01 -1.074764316422e+02 0.0 
0.0 0.0 -4.687709839783e+01 
-5.202492005658e+01 -6.531883352911e-01 0.0 
-6.531883352911e-01 -1.077928320608e+02 0.0 
0.0 0.0 -4.721847477526e+01 
-5.024272718510e+01 -5.001846033995e-01 0.0 
-5.001846033995e-01 -1.075568281449e+02 0.0 
0.0 0.0 -4.693986659900e+01 
-5.250516061006e+01 -7.450809878489e-01 0.0 
-7.450809878489e-01 -1.078810524236e+02 0.0 
0.0 0.0 -4.729620320991e+01 
-5.037641380066e+01 -5.523122953366e-01 0.0 
-5.523122953366e-01 -1.076526700050e+02 0.0 
0.0 0.0 -4.700872514171e+01 
-5.305233133378e+01 -8.159196661057e-01 0.0 
-8.159196661057e-01 -1.079865063813e+02 0.0 
0.0 0.0 -4.738260447864e+01 
-5.051242577784e+01 -5.723411534409e-01 0.0 
-5.723411534409e-01 -1.077714375801e+02 0.0 
0.0 0.0 -4.708515900738e+01 
-5.826206616028e+01 5.772806504600e+00 0.0 
5.772806504600e+00 -1.121253314053e+02 0.0 
0.0 0.0 -4.628533629633e+01 
-5.367161932741e+01 -8.515591465728e-01 0.0 
-8.515591465728e-01 -1.081065657366e+02 0.0 
0.0 0.0 -4.747336308750e+01 
-5.064426305444e+01 -5.569734551113e-01 0.0 
-5.569734551113e-01 -1.079087006037e+02 0.0 
0.0 0.0 -4.716588909744e+01 
-5.964337812265e+01 4.716018230278e+00 0.0 
4.716018230278e+00 -1.121057372369e+02 0.0 
0.0 0.0 -4.729258119668e+01 
-5.436993248206e+01 -8.523162686173e-01 0.0 
-8.523162686173e-01 -1.082554361037e+02 0.0 
0.0 0.0 -4.757026502041e+01 
-5.076251618330e+01 -4.992594644831e-01 0.0 
-4.992594644831e-01 -1.080855334050e+02 0.0 
0.0 0.0 -4.725441487649e+01 
-5.515626072434e+01 -8.071913031268e-01 0.0 
-8.071913031268e-01 -1.084518145684e+02 0.0 
0.0 0.0 -4.767917685277e+01 
-5.085733442371e+01 -3.920769120022e-01 0.0 
-3.920769120022e-01 -1.083197746359e+02 0.0 
0.0 0.0 -4.735313271787e+01 
-5.604448595620e+01 -7.025276557757e-01 0.0 
-7.025276557757e-01 -1.087137403475e+02 0.0 
0.0 0.0 -4.780584161712e+01 
-5.451360323633e+01 5.099659366757e+00 0.0 
5.099659366757e+00 -1.053969268859e+02 0.0 
0.0 0.0 -4.330479949779e+01 
-5.091323458017e+01 -2.293816028615e-01 0.0 
-2.293816028615e-01 -1.086264127996e+02 0.0 
0.0 0.0 -4.746189421394e+01 
-5.703882935212e+01 -5.200548127323e-01 0.0 
-5.200548127323e-01 -1.090587750106e+02 0.0 
0.0 0.0 -4.795424754025e+01 
-5.089960887035e+01 5.679261571884e-03 0.0 
5.679261571884e-03 -1.090281045310e+02 0.0 
0.0 0.0 -4.757831402039e+01 
-5.758757795572e+01 -1.572309315710e-01 0.0 
-1.572309315710e-01 -1.093587359628e+02 0.0 
0.0 0.0 -4.788587007576e+01 
-5.136916833786e+01 3.592055287293e-01 0.0 
3.592055287293e-01 -1.094149081098e+02 0.0 
0.0 0.0 -4.753368519862e+01 
-5.804315219820e+01 3.023852107392e-01 0.0 
3.023852107392e-01 -1.097921128448e+02 0.0 
0.0 0.0 -4.778289431389e+01 
-5.198672343424e+01 7.893968735967e-01 0.0 
7.893968735967e-01 -1.098949619233e+02 0.0 
0.0 0.0 -4.741132496159e+01 
-5.842820447233e+01 9.293373432990e-01 0.0 
9.293373432990e-01 -1.101810606649e+02 0.0 
0.0 0.0 -4.751809569948e+01 
-5.268297394337e+01 1.310754428409e+00 0.0 
1.310754428409e+00 -1.102735224702e+02 0.0 
0.0 0.0 -4.714981217423e+01 
-5.877977633092e+01 1.583442003367e+00 0.0 
1.583442003367e+00 -1.107426356259e+02 0.0 
0.0 0.0 -4.728418482679e+01 
-6.063851054270e+01 5.695192861002e+00 0.0 
5.695192861002e+00 -1.141861782210e+02 0.0 
0.0 0.0 -4.763704077532e+01 
-5.900474295502e+01 2.544280414268e+00 0.0 
2.544280414268e+00 -1.110419074583e+02 0.0 
0.0 0.0 -4.664233522661e+01 
-5.340799675076e+01 1.952847719881e+00 0.0 
1.952847719881e+00 -1.107646161300e+02 0.0 
0.0 0.0 -4.676029225265e+01 
-5.892143136119e+01 3.342982326985e+00 0.0 
3.342982326985e+00 -1.115616295111e+02 0.0 
0.0 0.0 -4.658370871738e+01 
-5.436196130205e+01 2.722750757051e+00 0.0 
2.722750757051e+00 -1.107644679528e+02 0.0 
0.0 0.0 -4.603656724524e+01 
-5.524239038561e+01 3.770269598891e+00 0.0 
3.770269598891e+00 -1.112226458588e+02 0.0 
0.0 0.0 -4.527350794583e+01 
-5.698791695714e+01 5.988155207021e+00 0.0 
5.988155207021e+00 -1.053881420877e+02 0.0 
0.0 0.0 -4.484725149265e+01 
-4.998927028352e+01 1.479287456846e+00 0.0 
1.479287456846e+00 -1.077073792450e+02 0.0 
0.0 0.0 -4.690899485856e+01 
-5.031240220235e+01 -1.470983836566e+00 0.0 
-1.470983836566e+00 -1.058211174057e+02 0.0 
0.0 0.0 -4.644005588242e+01 
-5.247638331143e+01 1.303866856232e-01 0.0 
1.303866856232e-01 -1.118710347628e+02 0.0 
0.0 0.0 -4.890422542228e+01 
-4.789418254899e+01 -1.643399309367e-01 0.0 
-1.643399309367e-01 -1.017959769152e+02 0.0 
0.0 0.0 -4.450704783924e+01 
-5.593781032251e+01 6.584121940849e+00 0.0 
6.584121940849e+00 -1.050839258928e+02 0.0 
0.0 0.0 -4.417301898084e+01 
-5.983406576097e+01 3.218821377061e-01 0.0 
3.218821377061e-01 -1.286301547775e+02 0.0 
0.0 0.0 -5.613926616155e+01 
-5.871287505969e+01 -2.955229528664e-01 0.0 
-2.955229528664e-01 -1.267638422395e+02 0.0 
0.0 0.0 -5.524301518976e+01 
-5.916396109655e+01 5.358064185204e-02 0.0 
5.358064185204e-02 -1.269063178220e+02 0.0 
0.0 0.0 -5.542108367556e+01 
-5.867429083169e+01 -8.460698733468e-02 0.0 
-8.460698733468e-02 -1.266598408804e+02 0.0 
0.0 0.0 -5.520023951361e+01 
-5.922158655620e+01 -4.105225184116e-03 0.0 
-4.105225184116e-03 -1.268745849614e+02 0.0 
0.0 0.0 -5.542885145529e+01 
-5.872770242636e+01 -1.201432738521e-01 0.0 
-1.201432738521e-01 -1.267060916903e+02 0.0 
0.0 0.0 -5.523013823499e+01 
-5.935080609544e+01 -5.632184537693e-02 0.0 
-5.632184537693e-02 -1.269497144871e+02 0.0 
0.0 0.0 -5.549015617475e+01 
-5.883217539144e+01 -1.752983421147e-01 0.0 
-1.752983421147e-01 -1.267671881082e+02 0.0 
0.0 0.0 -5.527980904990e+01 
-5.954953885050e+01 -1.068110729644e-01 0.0 
-1.068110729644e-01 -1.270407932248e+02 0.0 
0.0 0.0 -5.557709962259e+01 
-5.897519711163e+01 -2.335458950510e-01 0.0 
-2.335458950510e-01 -1.268394928942e+02 0.0 
0.0 0.0 -5.534440700176e+01 
-5.987514253437e+01 -1.632691166368e-01 0.0 
-1.632691166368e-01 -1.271370080573e+02 0.0 
0.0 0.0 -5.567413591066e+01 
-5.914430924041e+01 -2.876532761043e-01 0.0 
-2.876532761043e-01 -1.269420504172e+02 0.0 
0.0 0.0 -5.542590789728e+01 
-6.043653496116e+01 -2.152970455555e-01 0.0 
-2.152970455555e-01 -1.272252171484e+02 0.0 
0.0 0.0 -5.575226388416e+01 
-5.932595114897e+01 -3.178470169547e-01 0.0 
-3.178470169547e-01 -1.270529738866e+02 0.0 
0.0 0.0 -5.551367751067e+01 
-6.111280642035e+01 -2.471028389241e-01 0.0 
-2.471028389241e-01 -1.273369219955e+02 0.0 
0.0 0.0 -5.585352386003e+01 
-5.952574266333e+01 -3.256823499129e-01 0.0 
-3.256823499129e-01 -1.271959714707e+02 0.0 
0.0 0.0 -5.561651424022e+01 
-6.724951587932e+01 4.494340106461e+00 0.0 
4.494340106461e+00 -1.330967826172e+02 0.0 
0.0 0.0 -5.516330946180e+01 
-6.187012684349e+01 -2.512232907301e-01 0.0 
-2.512232907301e-01 -1.274768271015e+02 0.0 
0.0 0.0 -5.597038926767e+01 
-5.973480858295e+01 -3.024130992829e-01 0.0 
-3.024130992829e-01 -1.273755630941e+02 0.0 
0.0 0.0 -5.573311150311e+01 
-6.373593019477e+01 3.709905595489e+00 0.0 
3.709905595489e+00 -1.263560453150e+02 0.0 
0.0 0.0 -5.246127140088e+01 
-6.267824990565e+01 -2.261031136411e-01 0.0 
-2.261031136411e-01 -1.276258252981e+02 0.0 
0.0 0.0 -5.607141711519e+01 
-5.993946992385e+01 -2.359375765317e-01 0.0 
-2.359375765317e-01 -1.275940352487e+02 0.0 
0.0 0.0 -5.586005155175e+01 
-6.886595350212e+01 3.331240773403e+00 0.0 
3.331240773403e+00 -1.322815301295e+02 0.0 
0.0 0.0 -5.580778985982e+01 
-6.358296669058e+01 -1.550379006816e-01 0.0 
-1.550379006816e-01 -1.278176320875e+02 0.0 
0.0 0.0 -5.618577341403e+01 
-6.014209235403e+01 -1.210392742649e-01 0.0 
-1.210392742649e-01 -1.278745824148e+02 0.0 
0.0 0.0 -5.600500243064e+01 
-6.458268184289e+01 -2.226840988398e-02 0.0 
-2.226840988398e-02 -1.280731911109e+02 0.0 
0.0 0.0 -5.632043724723e+01 
-6.034271620347e+01 5.099904229031e-02 0.0 
5.099904229031e-02 -1.282336651310e+02 0.0 
0.0 0.0 -5.617291440034e+01 
-6.568674249391e+01 1.830417334431e-01 0.0 
1.830417334431e-01 -1.284100595683e+02 0.0 
0.0 0.0 -5.647398094643e+01 
-6.055230202200e+01 2.982266899421e-01 0.0 
2.982266899421e-01 -1.287244475905e+02 0.0 
0.0 0.0 -5.638302488376e+01 
-6.951588397172e+01 4.253887017853e+00 0.0 
4.253887017853e+00 -1.347037977815e+02 0.0 
0.0 0.0 -5.590654399419e+01 
-6.655238730879e+01 4.467825531819e-01 0.0 
4.467825531819e-01 -1.288420049561e+02 0.0 
0.0 0.0 -5.655975848022e+01 
-6.126203562577e+01 5.907452050601e-01 0.0 
5.907452050601e-01 -1.292884862989e+02 0.0 
0.0 0.0 -5.642689182296e+01 
-6.703987471469e+01 8.632178127370e-01 0.0 
8.632178127370e-01 -1.292603353711e+02 0.0 
0.0 0.0 -5.642958697927e+01 
-6.206506250396e+01 9.959055048619e-01 0.0 
9.959055048619e-01 -1.297203358229e+02 0.0 
0.0 0.0 -5.632191784310e+01 
-6.284704569564e+01 1.491320539981e+00 0.0 
1.491320539981e+00 -1.304506399662e+02 0.0 
0.0 0.0 -5.620077938472e+01 
-6.752201504749e+01 1.280590265442e+00 0.0 
1.280590265442e+00 -1.298580002865e+02 0.0 
0.0 0.0 -5.635007653479e+01 
-6.379515972177e+01 2.128110424932e+00 0.0 
2.128110424932e+00 -1.306085869655e+02 0.0 
0.0 0.0 -5.578785181484e+01 
-6.792228212913e+01 2.022852283460e+00 0.0 
2.022852283460e+00 -1.303739059862e+02 0.0 
0.0 0.0 -5.602928332173e+01 
-6.455572012452e+01 2.841848516027e+00 0.0 
2.841848516027e+00 -1.314475424651e+02 0.0 
0.0 0.0 -5.535879127503e+01 
-6.797433154306e+01 2.451605591291e+00 0.0 
2.451605591291e+00 -1.312481879839e+02 0.0 
0.0 0.0 -5.600321943929e+01 
-6.629269141548e+01 4.291631627377e+00 0.0 
4.291631627377e+00 -1.265271004544e+02 0.0 
0.0 0.0 -5.247957534431e+01 
-5.941948928158e+01 1.486642636387e+00 0.0 
1.486642636387e+00 -1.265122489790e+02 0.0 
0.0 0.0 -5.537952147816e+01 
-5.908903153859e+01 -1.449323875137e+00 0.0 
-1.449323875137e+00 -1.284377832299e+02 0.0 
0.0 0.0 -5.585804443056e+01 
-5.696916732834e+01 1.429240359906e-01 0.0 
1.429240359906e-01 -1.223541974690e+02 0.0 
0.0 0.0 -5.339700943919e+01 
-6.145777837395e+01 -1.551801129723e-01 0.0 
-1.551801129723e-01 -1.324346526940e+02 0.0 
0.0 0.0 -5.776772932039e+01 
-6.483314279368e+01 5.112721510100e+00 0.0 
5.112721510100e+00 -1.256505535753e+02 0.0 
0.0 0.0 -5.165047245266e+01 
-6.673861910313e+01 3.209315448125e-01 0.0 
3.209315448125e-01 -1.447407792426e+02 0.0 
0.0 0.0 -6.304381950371e+01 
-6.767536758496e+01 -2.220128024708e-01 0.0 
-2.220128024708e-01 -1.464200522793e+02 0.0 
0.0 0.0 -6.382862595926e+01 
-6.751731589167e+01 9.153279163764e-02 0.0 
9.153279163764e-02 -1.463974790106e+02 0.0 
0.0 0.0 -6.377443847068e+01 
-6.784108993410e+01 9.774556345350e-04 0.0 
9.774556345350e-04 -1.465570485440e+02 0.0 
0.0 0.0 -6.391944154344e+01 
-6.762521962064e+01 8.261381721338e-02 0.0 
8.261381721338e-02 -1.464830621118e+02 0.0 
0.0 0.0 -6.383248451974e+01 
-6.793513254729e+01 2.862685773808e-03 0.0 
2.862685773808e-03 -1.466161152522e+02 0.0 
0.0 0.0 -6.396537433986e+01 
-6.775902134185e+01 9.626258050000e-02 0.0 
9.626258050000e-02 -1.465688833954e+02 0.0 
0.0 0.0 -6.389837142116e+01 
-6.809993687066e+01 1.963272672918e-02 0.0 
1.963272672918e-02 -1.466829936657e+02 0.0 
0.0 0.0 -6.403487916091e+01 
-6.795619968488e+01 1.116849113462e-01 0.0 
1.116849113462e-01 -1.466563351717e+02 0.0 
0.0 0.0 -6.398376045697e+01 
-6.829233738915e+01 4.151148205987e-02 0.0 
4.151148205987e-02 -1.467600796044e+02 0.0 
0.0 0.0 -6.411572509808e+01 
-6.818755477984e+01 1.453240999317e-01 0.0 
1.453240999317e-01 -1.467620404103e+02 0.0 
0.0 0.0 -6.408487855704e+01 
-6.854161229811e+01 7.377324048228e-02 0.0 
7.377324048228e-02 -1.468741591945e+02 0.0 
0.0 0.0 -6.422473144780e+01 
-6.836829675122e+01 2.027265783095e-01 0.0 
2.027265783095e-01 -1.468696057972e+02 0.0 
0.0 0.0 -6.417137076453e+01 
-6.881029713626e+01 1.220242379720e-01 0.0 
1.220242379720e-01 -1.469950146310e+02 0.0 
0.0 0.0 -6.434159353017e+01 
-6.859930334946e+01 2.616102814822e-01 0.0 
2.616102814822e-01 -1.469927531592e+02 0.0 
0.0 0.0 -6.427761695258e+01 
-7.561261571196e+01 3.953809048023e+00 0.0 
3.953809048023e+00 -1.528023516358e+02 0.0 
0.0 0.0 -6.507102156808e+01 
-6.924752444376e+01 1.532454334127e-01 0.0 
1.532454334127e-01 -1.471656912598e+02 0.0 
0.0 0.0 -6.452396471108e+01 
-7.714117973974e+01 2.764836669423e+00 0.0 
2.764836669423e+00 -1.518967001304e+02 0.0 
0.0 0.0 -6.551183960070e+01 
-6.883703746915e+01 3.012888898459e-01 0.0 
3.012888898459e-01 -1.471043899477e+02 0.0 
0.0 0.0 -6.438242822505e+01 
-7.003485214239e+01 1.667576702667e-01 0.0 
1.667576702667e-01 -1.473548078614e+02 0.0 
0.0 0.0 -6.465464839892e+01 
-6.906757041332e+01 3.879244672582e-01 0.0 
3.879244672582e-01 -1.473531485349e+02 0.0 
0.0 0.0 -6.452621568448e+01 
-7.100022422992e+01 2.697093630266e-01 0.0 
2.697093630266e-01 -1.475791020607e+02 0.0 
0.0 0.0 -6.477700713588e+01 
-6.930093611543e+01 5.291458882761e-01 0.0 
5.291458882761e-01 -1.476481878199e+02 0.0 
0.0 0.0 -6.468473718061e+01 
-7.207332728892e+01 4.269791870448e-01 0.0 
4.269791870448e-01 -1.478749019015e+02 0.0 
0.0 0.0 -6.493778844195e+01 
-7.223423936341e+01 3.040790524221e+00 0.0 
3.040790524221e+00 -1.462484206629e+02 0.0 
0.0 0.0 -6.242294157725e+01 
-6.953902887175e+01 7.209003388106e-01 0.0 
7.209003388106e-01 -1.480091935232e+02 0.0 
0.0 0.0 -6.486446671849e+01 
-7.325428534242e+01 6.504134951975e-01 0.0 
6.504134951975e-01 -1.482517995424e+02 0.0 
0.0 0.0 -6.511802825324e+01 
-6.976875712970e+01 9.698476280003e-01 0.0 
9.698476280003e-01 -1.484736323337e+02 0.0 
0.0 0.0 -6.507271683903e+01 
-7.453769541695e+01 9.514367419030e-01 0.0 
9.514367419030e-01 -1.487606807003e+02 0.0 
0.0 0.0 -6.531628206896e+01 
-7.029194110252e+01 1.214633465243e+00 0.0 
1.214633465243e+00 -1.489022167939e+02 0.0 
0.0 0.0 -6.515750376271e+01 
-7.541109657524e+01 1.187382078353e+00 0.0 
1.187382078353e+00 -1.494341693680e+02 0.0 
0.0 0.0 -6.548597570216e+01 
-7.110024746872e+01 1.580566278757e+00 0.0 
1.580566278757e+00 -1.495963534726e+02 0.0 
0.0 0.0 -6.514578104616e+01 
-7.594096442311e+01 1.746508115921e+00 0.0 
1.746508115921e+00 -1.499059030428e+02 0.0 
0.0 0.0 -6.524760126087e+01 
-7.619210813441e+01 2.078548592853e+00 0.0 
2.078548592853e+00 -1.508725198346e+02 0.0 
0.0 0.0 -6.544284174068e+01 
-7.207224600028e+01 2.036295619461e+00 0.0 
2.036295619461e+00 -1.501145703484e+02 0.0 
0.0 0.0 -6.503259787690e+01 
-7.764201013546e+01 3.424663306679e+00 0.0 
3.424663306679e+00 -1.543286098191e+02 0.0 
0.0 0.0 -6.598664874016e+01 
-7.288843864844e+01 2.617305984106e+00 0.0 
2.617305984106e+00 -1.510734777854e+02 0.0 
0.0 0.0 -6.489809793301e+01 
-7.482502368880e+01 3.386842623658e+00 0.0 
3.386842623658e+00 -1.462160512753e+02 0.0 
0.0 0.0 -6.254709628706e+01 
-6.714545142227e+01 1.493004467986e+00 0.0 
1.493004467986e+00 -1.468935743099e+02 0.0 
0.0 0.0 -6.381170771966e+01 
-6.748193517900e+01 -1.443118578740e+00 0.0 
-1.443118578740e+00 -1.449329265903e+02 0.0 
0.0 0.0 -6.332445853080e+01 
-6.960043903439e+01 1.521408134440e-01 0.0 
1.521408134440e-01 -1.510340946435e+02 0.0 
0.0 0.0 -6.579036010336e+01 
-6.510903470307e+01 -1.520666449473e-01 0.0 
-1.520666449473e-01 -1.409542507953e+02 0.0 
0.0 0.0 -6.141898564952e+01 
-7.339232706281e+01 4.025209177692e+00 0.0 
4.025209177692e+00 -1.457793805967e+02 0.0 
0.0 0.0 -6.157091392879e+01 
-7.685037326878e+01 4.102890674996e-01 0.0 
4.102890674996e-01 -1.679003564756e+02 0.0 
0.0 0.0 -7.302521892331e+01 
-7.610099067384e+01 -1.371241165680e-01 0.0 
-1.371241165680e-01 -1.660798394866e+02 0.0 
0.0 0.0 -7.225424904814e+01 
-7.636142652335e+01 2.094089055995e-01 0.0 
2.094089055995e-01 -1.661323907753e+02 0.0 
0.0 0.0 -7.234814518960e+01 
-7.614203737983e+01 1.244722517212e-01 0.0 
1.244722517212e-01 -1.659259259174e+02 0.0 
0.0 0.0 -7.222038898916e+01 
-7.641059477729e+01 1.704535726635e-01 0.0 
1.704535726635e-01 -1.660276786816e+02 0.0 
0.0 0.0 -7.233148203768e+01 
-7.626349852103e+01 1.556605250401e-01 0.0 
1.556605250401e-01 -1.660489691910e+02 0.0 
0.0 0.0 -7.229374031360e+01 
-7.651349408964e+01 2.535005041494e-01 0.0 
2.535005041494e-01 -1.661201850519e+02 0.0 
0.0 0.0 -7.239010374246e+01 
-7.641752333933e+01 2.334000491698e-01 0.0 
2.334000491698e-01 -1.660906954259e+02 0.0 
0.0 0.0 -7.235246562957e+01 
-7.676542946011e+01 3.000433795048e-01 0.0 
3.000433795048e-01 -1.662053352579e+02 0.0 
0.0 0.0 -7.249122941539e+01 
-7.663469853247e+01 2.922797059214e-01 0.0 
2.922797059214e-01 -1.662255889389e+02 0.0 
0.0 0.0 -7.245808624141e+01 
-7.693640062637e+01 3.778169216855e-01 0.0 
3.778169216855e-01 -1.663034048324e+02 0.0 
0.0 0.0 -7.257194163764e+01 
-7.688179197663e+01 3.829800500384e-01 0.0 
3.829800500384e-01 -1.663345784444e+02 0.0 
0.0 0.0 -7.256491112632e+01 
-7.724343359259e+01 4.581393371045e-01 0.0 
4.581393371045e-01 -1.664317932769e+02 0.0 
0.0 0.0 -7.270256806085e+01 
-8.314113030785e+01 3.719362606653e+00 0.0 
3.719362606653e+00 -1.720426770627e+02 0.0 
0.0 0.0 -7.435311749927e+01 
-7.719657436754e+01 4.997895747353e-01 0.0 
4.997895747353e-01 -1.665629948373e+02 0.0 
0.0 0.0 -7.272787076145e+01 
-7.748709874242e+01 6.672263420477e-01 0.0 
6.672263420477e-01 -1.665587578245e+02 0.0 
0.0 0.0 -7.281375697007e+01 
-7.987822345226e+01 2.832681658812e+00 0.0 
2.832681658812e+00 -1.655243643118e+02 0.0 
0.0 0.0 -7.172543280103e+01 
-7.758616067481e+01 6.958258157777e-01 0.0 
6.958258157777e-01 -1.666225091323e+02 0.0 
0.0 0.0 -7.286260094213e+01 
-7.787355277502e+01 7.695011886022e-01 0.0 
7.695011886022e-01 -1.666712836515e+02 0.0 
0.0 0.0 -7.296345092796e+01 
-8.439987651228e+01 2.665389390479e+00 0.0 
2.665389390479e+00 -1.707341941552e+02 0.0 
0.0 0.0 -7.445437454504e+01 
-7.784990692785e+01 8.390513805537e-01 0.0 
8.390513805537e-01 -1.668517354728e+02 0.0 
0.0 0.0 -7.301049272021e+01 
-7.827394814463e+01 8.955357678423e-01 0.0 
8.955357678423e-01 -1.669530768813e+02 0.0 
0.0 0.0 -7.316810750779e+01 
-7.809246453263e+01 1.001226844772e+00 0.0 
1.001226844772e+00 -1.672137466880e+02 0.0 
0.0 0.0 -7.319186336620e+01 
-7.926906723925e+01 1.099573482855e+00 0.0 
1.099573482855e+00 -1.672459284395e+02 0.0 
0.0 0.0 -7.330201955825e+01 
-7.835842956673e+01 1.229906875443e+00 0.0 
1.229906875443e+00 -1.675698145124e+02 0.0 
0.0 0.0 -7.337847322373e+01 
-8.505668588728e+01 3.148706061872e+00 0.0 
3.148706061872e+00 -1.734005639239e+02 0.0 
0.0 0.0 -7.529341085690e+01 
-8.042911995608e+01 1.331543534076e+00 0.0 
1.331543534076e+00 -1.676214145432e+02 0.0 
0.0 0.0 -7.349834164367e+01 
-7.862102162320e+01 1.486833527729e+00 0.0 
1.486833527729e+00 -1.680354222266e+02 0.0 
0.0 0.0 -7.359693315495e+01 
-7.882825727931e+01 1.789468400330e+00 0.0 
1.789468400330e+00 -1.686661854146e+02 0.0 
0.0 0.0 -7.384833280817e+01 
-8.162453987550e+01 1.600164514164e+00 0.0 
1.600164514164e+00 -1.680923250056e+02 0.0 
0.0 0.0 -7.367678732659e+01 
-7.966899731823e+01 2.101765664909e+00 0.0 
2.101765664909e+00 -1.689064994682e+02 0.0 
0.0 0.0 -7.383377327085e+01 
-8.286196980214e+01 2.042300624025e+00 0.0 
2.042300624025e+00 -1.685692496288e+02 0.0 
0.0 0.0 -7.376582826130e+01 
-8.045284341032e+01 2.480300643825e+00 0.0 
2.480300643825e+00 -1.702715940810e+02 0.0 
0.0 0.0 -7.397894606866e+01 
-8.330281558504e+01 2.012971748687e+00 0.0 
2.012971748687e+00 -1.695056962859e+02 0.0 
0.0 0.0 -7.411278195856e+01 
-8.243498044753e+01 3.135305325457e+00 0.0 
3.135305325457e+00 -1.652590163018e+02 0.0 
0.0 0.0 -7.183433370376e+01 
-7.659584107709e+01 1.459886294147e+00 0.0 
1.459886294147e+00 -1.656177123489e+02 0.0 
0.0 0.0 -7.226406602779e+01 
-7.622139358506e+01 -1.474152765791e+00 0.0 
-1.474152765791e+00 -1.677896532688e+02 0.0 
0.0 0.0 -7.280331405616e+01 
-7.411702472851e+01 1.311781799014e-01 0.0 
1.311781799014e-01 -1.615727945964e+02 0.0 
0.0 0.0 -7.030694579747e+01 
-7.859969729205e+01 -2.059698135559e-01 0.0 
-2.059698135559e-01 -1.716396374234e+02 0.0 
0.0 0.0 -7.467180041464e+01 
-8.112472285777e+01 3.533688241627e+00 0.0 
3.533688241627e+00 -1.651305329568e+02 0.0 
0.0 0.0 -7.118383982262e+01 
-8.394925055370e+01 5.677729084452e-01 0.0 
5.677729084452e-01 -1.844644034737e+02 0.0 
0.0 0.0 -8.012409620823e+01 
-8.483193037036e+01 1.307824298222e-01 0.0 
1.307824298222e-01 -1.857080284724e+02 0.0 
0.0 0.0 -8.076198765284e+01 
-8.474297782776e+01 2.447712138278e-01 0.0 
2.447712138278e-01 -1.856893438189e+02 0.0 
0.0 0.0 -8.072969649400e+01 
-8.469643993349e+01 2.363825242408e-01 0.0 
2.363825242408e-01 -1.857524078569e+02 0.0 
0.0 0.0 -8.073465433712e+01 
-8.490727230735e+01 2.831888745849e-01 0.0 
2.831888745849e-01 -1.858532595851e+02 0.0 
0.0 0.0 -8.082815956773e+01 
-8.488784504728e+01 2.558520594189e-01 0.0 
2.558520594189e-01 -1.859668888562e+02 0.0 
0.0 0.0 -8.085642017106e+01 
-8.508208538751e+01 4.499661341583e-01 0.0 
4.499661341583e-01 -1.861135647469e+02 0.0 
0.0 0.0 -8.095869504034e+01 
-8.516579760061e+01 4.774617964705e-01 0.0 
4.774617964705e-01 -1.859798397865e+02 0.0 
0.0 0.0 -8.094369121614e+01 
-8.526075628403e+01 4.984952062579e-01 0.0 
4.984952062579e-01 -1.860277645137e+02 0.0 
0.0 0.0 -8.098655623932e+01 
-8.527801005019e+01 4.680041015257e-01 0.0 
4.680041015257e-01 -1.861228338563e+02 0.0 
0.0 0.0 -8.102025317195e+01 
-8.551021343100e+01 6.492122574281e-01 0.0 
6.492122574281e-01 -1.863089680432e+02 0.0 
0.0 0.0 -8.114575444227e+01 
-8.545331290443e+01 6.845516865781e-01 0.0 
6.845516865781e-01 -1.862148444940e+02 0.0 
0.0 0.0 -8.110044721952e+01 
-8.989037946046e+01 3.868206439146e+00 0.0 
3.868206439146e+00 -1.911548520086e+02 0.0 
0.0 0.0 -8.320979029111e+01 
-8.581058072900e+01 7.954393880955e-01 0.0 
7.954393880955e-01 -1.864218032618e+02 0.0 
0.0 0.0 -8.126971519725e+01 
-9.046696747317e+01 2.708453375232e+00 0.0 
2.708453375232e+00 -1.895644254927e+02 0.0 
0.0 0.0 -8.279168562750e+01 
-8.608811787476e+01 7.437243039351e-01 0.0 
7.437243039351e-01 -1.865147313185e+02 0.0 
0.0 0.0 -8.138085475797e+01 
-8.611658348167e+01 9.885794434624e-01 0.0 
9.885794434624e-01 -1.866942222161e+02 0.0 
0.0 0.0 -8.144324170932e+01 
-8.586893231396e+01 1.085736376405e+00 0.0 
1.085736376405e+00 -1.864646825263e+02 0.0 
0.0 0.0 -8.130008445209e+01 
-8.648588511188e+01 1.180664049538e+00 0.0 
1.180664049538e+00 -1.867667257709e+02 0.0 
0.0 0.0 -8.157578326483e+01 
-8.622796566102e+01 1.207568237882e+00 0.0 
1.207568237882e+00 -1.867205897270e+02 0.0 
0.0 0.0 -8.148456661641e+01 
-8.696022180470e+01 1.482964081968e+00 0.0 
1.482964081968e+00 -1.872210487548e+02 0.0 
0.0 0.0 -8.185438116786e+01 
-8.674201490647e+01 1.523156450041e+00 0.0 
1.523156450041e+00 -1.871322970230e+02 0.0 
0.0 0.0 -8.176229357885e+01 
-8.672899598766e+01 2.898270518692e+00 0.0 
2.898270518692e+00 -1.847439506694e+02 0.0 
0.0 0.0 -8.065025878546e+01 
-8.714227215086e+01 1.845203994961e+00 0.0 
1.845203994961e+00 -1.875797015867e+02 0.0 
0.0 0.0 -8.201659212127e+01 
-8.715769022020e+01 1.881780510747e+00 0.0 
1.881780510747e+00 -1.874974800158e+02 0.0 
0.0 0.0 -8.199655107081e+01 
-8.736964796625e+01 2.131873575153e+00 0.0 
2.131873575153e+00 -1.878319676738e+02 0.0 
0.0 0.0 -8.216048469202e+01 
-8.797160320805e+01 2.085977111720e+00 0.0 
2.085977111720e+00 -1.879784660537e+02 0.0 
0.0 0.0 -8.224759025476e+01 
-8.915444804603e+01 2.332937729163e+00 0.0 
2.332937729163e+00 -1.886402821783e+02 0.0 
0.0 0.0 -8.248832414140e+01 
-8.751720750499e+01 2.384487475686e+00 0.0 
2.384487475686e+00 -1.883489179188e+02 0.0 
0.0 0.0 -8.235983762712e+01 
-8.748988787448e+01 2.698595065566e+00 0.0 
2.698595065566e+00 -1.891617384691e+02 0.0 
0.0 0.0 -8.259548790307e+01 
-9.169266030861e+01 3.173973142649e+00 0.0 
3.173973142649e+00 -1.925756881814e+02 0.0 
0.0 0.0 -8.426574594094e+01 
-8.926050705643e+01 3.118072140872e+00 0.0 
3.118072140872e+00 -1.843035607696e+02 0.0 
0.0 0.0 -8.074853165065e+01 
-8.410376837348e+01 1.338413086651e+00 0.0 
1.338413086651e+00 -1.857457598506e+02 0.0 
0.0 0.0 -8.055485846723e+01 
-8.432418307241e+01 -1.536271212502e+00 0.0 
-1.536271212502e+00 -1.844479479720e+02 0.0 
0.0 0.0 -8.023163931331e+01 
-8.628877817520e+01 -3.640589863993e-02 0.0 
-3.640589863993e-02 -1.902581375303e+02 0.0 
0.0 0.0 -8.256407471164e+01 
-8.223320325640e+01 -2.180493668487e-01 0.0 
-2.180493668487e-01 -1.801178180069e+02 0.0 
0.0 0.0 -7.830530637898e+01 
-8.799373325830e+01 3.516372665210e+00 0.0 
3.516372665210e+00 -1.843652414723e+02 0.0 
0.0 0.0 -8.030260230089e+01 

TENSORS element_materi_strain_total float
-4.684797218395e-04 1.855146140114e-03 0.0 
1.855146140114e-03 1.322624117806e-03 0.0 
0.0 0.0 0.0 
-5.111885148408e-04 1.921699874778e-03 0.0 
1.921699874778e-03 1.372666977387e-03 0.0 
0.0 0.0 0.0 
-1.545451054232e-04 1.916528709231e-03 0.0 
1.916528709231e-03 6.088997813847e-03 0.0 
0.0 0.0 0.0 
-3.382854325298e-04 2.365182060123e-04 0.0 
2.365182060123e-04 7.670641292422e-03 0.0 
0.0 0.0 0.0 
-1.153388191687e-03 3.482405336277e-04 0.0 
3.482405336277e-04 5.219763016593e-03 0.0 
0.0 0.0 0.0 
1.372540405509e-03 3.112798399467e-03 0.0 
3.112798399467e-03 -3.624166120193e-03 0.0 
0.0 0.0 0.0 
-1.084723722031e-03 2.522836668217e-04 0.0 
2.522836668217e-04 5.269649619127e-03 0.0 
0.0 0.0 0.0 
-3.821970312512e-04 2.108101183375e-03 0.0 
2.108101183375e-03 1.041584177818e-03 0.0 
0.0 0.0 0.0 
-1.170650784748e-03 2.115395426637e-04 0.0 
2.115395426637e-04 5.274240793200e-03 0.0 
0.0 0.0 0.0 
-3.187479772973e-04 4.467532789338e-04 0.0 
4.467532789338e-04 7.611477456891e-03 0.0 
0.0 0.0 0.0 
-1.670095805889e-03 -3.568632903479e-04 0.0 
-3.568632903479e-04 4.517053064764e-03 0.0 
0.0 0.0 0.0 
-3.773635402183e-04 1.837940350111e-03 0.0 
1.837940350111e-03 1.110752611527e-03 0.0 
0.0 0.0 0.0 
-5.358409318545e-04 -3.053788287052e-04 0.0 
-3.053788287052e-04 5.703060904737e-03 0.0 
0.0 0.0 0.0 
-1.209621800684e-03 7.233372458888e-04 0.0 
7.233372458888e-04 5.324605246676e-03 0.0 
0.0 0.0 0.0 
-3.073016123568e-04 -4.570643767490e-04 0.0 
-4.570643767490e-04 5.680518896158e-03 0.0 
0.0 0.0 0.0 
-2.019419570278e-04 3.665029641553e-04 0.0 
3.665029641553e-04 7.760208710172e-03 0.0 
0.0 0.0 0.0 
-1.278184870636e-03 4.522264074110e-04 0.0 
4.522264074110e-04 5.064209979030e-03 0.0 
0.0 0.0 0.0 
1.396195503050e-03 1.402749642261e-03 0.0 
1.402749642261e-03 -4.048659016512e-03 0.0 
0.0 0.0 0.0 
3.977393288457e-05 -1.142258448612e-04 0.0 
-1.142258448612e-04 1.438759344802e-03 0.0 
0.0 0.0 0.0 
-5.053262554924e-04 -2.511348735511e-04 0.0 
-2.511348735511e-04 1.700289459395e-03 0.0 
0.0 0.0 0.0 
-3.813590751346e-04 4.147982648596e-04 0.0 
4.147982648596e-04 7.617298176490e-03 0.0 
0.0 0.0 0.0 
-7.088018972863e-04 1.628449957999e-03 0.0 
1.628449957999e-03 1.898476117455e-03 0.0 
0.0 0.0 0.0 
-7.908147529087e-04 1.761891013266e-03 0.0 
1.761891013266e-03 1.968553664907e-03 0.0 
0.0 0.0 0.0 
9.328614581170e-04 -3.837136935881e-04 0.0 
-3.837136935881e-04 2.247350931185e-03 0.0 
0.0 0.0 0.0 
-1.129242451710e-03 1.006983921134e-03 0.0 
1.006983921134e-03 5.420098984926e-03 0.0 
0.0 0.0 0.0 
-1.630754843343e-03 -4.179257585733e-04 0.0 
-4.179257585733e-04 4.530242029092e-03 0.0 
0.0 0.0 0.0 
-1.451915782478e-03 8.725251662380e-04 0.0 
8.725251662380e-04 4.430904371796e-03 0.0 
0.0 0.0 0.0 
4.097761288715e-04 1.961581146302e-03 0.0 
1.961581146302e-03 3.977323516030e-03 0.0 
0.0 0.0 0.0 
-1.230525922872e-03 1.033893974903e-03 0.0 
1.033893974903e-03 5.417972133245e-03 0.0 
0.0 0.0 0.0 
7.226773698461e-04 -4.429359846736e-04 0.0 
-4.429359846736e-04 2.713566089854e-03 0.0 
0.0 0.0 0.0 
1.460811001885e-03 -3.243551123957e-03 0.0 
-3.243551123957e-03 -2.709724623759e-03 0.0 
0.0 0.0 0.0 
1.965168440976e-04 -3.779802187289e-04 0.0 
-3.779802187289e-04 3.110496225291e-04 0.0 
0.0 0.0 0.0 
-2.824668532497e-04 1.987445442354e-03 0.0 
1.987445442354e-03 6.195118799107e-03 0.0 
0.0 0.0 0.0 
-1.181208413362e-03 -1.549490141431e-04 0.0 
-1.549490141431e-04 5.200144671698e-03 0.0 
0.0 0.0 0.0 
1.086589943786e-04 -1.097490941363e-03 0.0 
-1.097490941363e-03 4.044481096681e-03 0.0 
0.0 0.0 0.0 
-1.936560510586e-04 -9.488277990207e-04 0.0 
-9.488277990207e-04 5.270221160592e-03 0.0 
0.0 0.0 0.0 
-9.290522619332e-05 -1.012778239162e-03 0.0 
-1.012778239162e-03 5.266181683117e-03 0.0 
0.0 0.0 0.0 
7.245864562655e-04 7.879497927558e-04 0.0 
7.879497927558e-04 2.689338474156e-03 0.0 
0.0 0.0 0.0 
-1.121507482760e-03 7.298913305957e-05 0.0 
7.298913305957e-05 4.905617642494e-03 0.0 
0.0 0.0 0.0 
-1.065031842053e-03 1.536525212908e-04 0.0 
1.536525212908e-04 4.918456160675e-03 0.0 
0.0 0.0 0.0 
-1.065901892503e-03 1.568592971033e-03 0.0 
1.568592971033e-03 2.702219383558e-03 0.0 
0.0 0.0 0.0 
2.024207764115e-04 -8.902204548513e-04 0.0 
-8.902204548513e-04 3.699263482639e-03 0.0 
0.0 0.0 0.0 
-1.943214598578e-04 2.035228176489e-03 0.0 
2.035228176489e-03 6.217642475650e-04 0.0 
0.0 0.0 0.0 
-1.407083132776e-03 8.724062522961e-04 0.0 
8.724062522961e-04 4.408307317090e-03 0.0 
0.0 0.0 0.0 
-4.633390712342e-04 8.212348139739e-05 0.0 
8.212348139739e-05 7.525489766047e-03 0.0 
0.0 0.0 0.0 
-3.260255290739e-04 2.200115327124e-03 0.0 
2.200115327124e-03 6.370571960330e-04 0.0 
0.0 0.0 0.0 
1.456162682220e-03 -3.299182820971e-03 0.0 
-3.299182820971e-03 -3.336311341488e-03 0.0 
0.0 0.0 0.0 
-3.158412246407e-04 1.532600615908e-04 0.0 
1.532600615908e-04 7.538347027453e-03 0.0 
0.0 0.0 0.0 
-3.090976853507e-04 -2.671091552149e-03 0.0 
-2.671091552149e-03 -1.250980164505e-03 0.0 
0.0 0.0 0.0 
-1.323874632558e-03 6.092926537403e-04 0.0 
6.092926537403e-04 5.247736861208e-03 0.0 
0.0 0.0 0.0 
-9.258156568530e-04 1.680152031236e-03 0.0 
1.680152031236e-03 2.313266341208e-03 0.0 
0.0 0.0 0.0 
-5.420214559221e-04 -1.262936706286e-04 0.0 
-1.262936706286e-04 2.058836976682e-03 0.0 
0.0 0.0 0.0 
2.757425971973e-03 -2.814069868218e-03 0.0 
-2.814069868218e-03 -3.646871028569e-03 0.0 
0.0 0.0 0.0 
-9.491035146075e-04 1.443537684841e-03 0.0 
1.443537684841e-03 2.481777194814e-03 0.0 
0.0 0.0 0.0 
-2.136647108001e-04 1.611212610742e-03 0.0 
1.611212610742e-03 6.772924636700e-03 0.0 
0.0 0.0 0.0 
-1.301706747800e-03 -4.675514873992e-04 0.0 
-4.675514873992e-04 2.740570735511e-03 0.0 
0.0 0.0 0.0 
-9.885983016572e-04 -2.831781156977e-04 0.0 
-2.831781156977e-04 2.243689009191e-03 0.0 
0.0 0.0 0.0 
-1.176139312893e-03 -2.162400316923e-04 0.0 
-2.162400316923e-04 5.198456493068e-03 0.0 
0.0 0.0 0.0 
4.742102485169e-04 -3.746867982831e-04 0.0 
-3.746867982831e-04 8.428448882238e-04 0.0 
0.0 0.0 0.0 
-2.343511242459e-04 3.332603471908e-04 0.0 
3.332603471908e-04 7.760683619022e-03 0.0 
0.0 0.0 0.0 
-9.090544423743e-04 -2.173787730509e-03 0.0 
-2.173787730509e-03 -3.279016627536e-03 0.0 
0.0 0.0 0.0 
8.165966346687e-04 1.589164996480e-03 0.0 
1.589164996480e-03 2.711014277393e-03 0.0 
0.0 0.0 0.0 
2.628750940679e-04 2.447348043662e-03 0.0 
2.447348043662e-03 5.754153213382e-04 0.0 
0.0 0.0 0.0 
2.727616287786e-03 -2.924411449718e-03 0.0 
-2.924411449718e-03 -3.077694949108e-03 0.0 
0.0 0.0 0.0 
-4.692837301539e-04 -6.109732185676e-04 0.0 
-6.109732185676e-04 5.501735236135e-03 0.0 
0.0 0.0 0.0 
-8.410714223022e-04 1.524757587614e-03 0.0 
1.524757587614e-03 2.184111960252e-03 0.0 
0.0 0.0 0.0 
5.314434001547e-04 -7.896302201603e-04 0.0 
-7.896302201603e-04 -4.944364145899e-03 0.0 
0.0 0.0 0.0 
-2.604615300980e-04 2.039321735353e-03 0.0 
2.039321735353e-03 5.995331720972e-03 0.0 
0.0 0.0 0.0 
-2.709838952282e-04 -2.081864364372e-03 0.0 
-2.081864364372e-03 5.929372961835e-04 0.0 
0.0 0.0 0.0 
2.361479097668e-05 2.085291525277e-03 0.0 
2.085291525277e-03 5.032895497313e-03 0.0 
0.0 0.0 0.0 
-1.467781261735e-03 -6.004971838649e-04 0.0 
-6.004971838649e-04 4.532924541010e-03 0.0 
0.0 0.0 0.0 
0.0 1.162865111887e-03 0.0 
1.162865111887e-03 7.552371488373e-03 0.0 
0.0 0.0 0.0 
3.975912961258e-04 1.860230189081e-03 0.0 
1.860230189081e-03 3.559408747039e-03 0.0 
0.0 0.0 0.0 
1.446035056462e-03 -1.012464086721e-04 0.0 
-1.012464086721e-04 -1.292560467575e-04 0.0 
0.0 0.0 0.0 
-1.540164508965e-03 -5.415726500966e-04 0.0 
-5.415726500966e-04 2.945817041465e-03 0.0 
0.0 0.0 0.0 
-3.756203754277e-04 8.834553918067e-04 0.0 
8.834553918067e-04 7.454365595590e-03 0.0 
0.0 0.0 0.0 
-3.656326112346e-04 1.733114310828e-03 0.0 
1.733114310828e-03 6.677355445213e-03 0.0 
0.0 0.0 0.0 
-3.747518201616e-04 2.455523521441e-03 0.0 
2.455523521441e-03 2.593230543855e-04 0.0 
0.0 0.0 0.0 
-6.596615470356e-05 -3.366157573725e-04 0.0 
-3.366157573725e-04 1.072886085965e-03 0.0 
0.0 0.0 0.0 
-1.670202990910e-04 2.255412662026e-03 0.0 
2.255412662026e-03 2.507495269894e-04 0.0 
0.0 0.0 0.0 
-3.656253783698e-04 -2.399795684392e-03 0.0 
-2.399795684392e-03 6.424597029320e-04 0.0 
0.0 0.0 0.0 
-1.218361964853e-03 3.966790721534e-04 0.0 
3.966790721534e-04 5.106921846931e-03 0.0 
0.0 0.0 0.0 
-6.693225212956e-04 1.870240054167e-03 0.0 
1.870240054167e-03 1.655170091923e-03 0.0 
0.0 0.0 0.0 
-5.928857105606e-04 1.651799626794e-03 0.0 
1.651799626794e-03 1.597430862853e-03 0.0 
0.0 0.0 0.0 
-1.191903793923e-03 3.026204393519e-04 0.0 
3.026204393519e-04 5.451408413033e-03 0.0 
0.0 0.0 0.0 
-1.092554709617e-03 3.293156794979e-04 0.0 
3.293156794979e-04 5.451134354575e-03 0.0 
0.0 0.0 0.0 
-1.450269674854e-03 -3.690598911230e-04 0.0 
-3.690598911230e-04 4.775458118539e-03 0.0 
0.0 0.0 0.0 
-1.304876228114e-03 -3.521728941441e-05 0.0 
-3.521728941441e-05 5.131280467781e-03 0.0 
0.0 0.0 0.0 
-5.121099282428e-04 1.882370926380e-03 0.0 
1.882370926380e-03 5.021403762944e-03 0.0 
0.0 0.0 0.0 
-1.232394077279e-03 3.138514064427e-04 0.0 
3.138514064427e-04 5.213089252338e-03 0.0 
0.0 0.0 0.0 
-3.602271022759e-04 -4.869947530698e-04 0.0 
-4.869947530698e-04 5.932406881142e-04 0.0 
0.0 0.0 0.0 
-1.353501651620e-03 9.425679605977e-04 0.0 
9.425679605977e-04 4.771125635694e-03 0.0 
0.0 0.0 0.0 
-7.165266192264e-04 1.098187428463e-04 0.0 
1.098187428463e-04 6.771231717475e-03 0.0 
0.0 0.0 0.0 
-7.979436846808e-04 1.832087625645e-04 0.0 
1.832087625645e-04 6.708333835644e-03 0.0 
0.0 0.0 0.0 
-2.281005260552e-04 1.268968052318e-03 0.0 
1.268968052318e-03 7.505805511643e-03 0.0 
0.0 0.0 0.0 
4.616162106639e-04 9.087310546061e-04 0.0 
9.087310546061e-04 3.196610683187e-03 0.0 
0.0 0.0 0.0 
-1.287057811410e-03 4.562835514092e-04 0.0 
4.562835514092e-04 5.069737880974e-03 0.0 
0.0 0.0 0.0 
2.716777144935e-04 -1.036901693620e-03 0.0 
-1.036901693620e-03 3.855956738112e-03 0.0 
0.0 0.0 0.0 
-9.469294984010e-04 2.397124660696e-05 0.0 
2.397124660696e-05 5.899866934390e-03 0.0 
0.0 0.0 0.0 
-6.090565840655e-05 2.392668584801e-03 0.0 
2.392668584801e-03 1.009932435500e-03 0.0 
0.0 0.0 0.0 
-1.218911181687e-03 2.468992339553e-04 0.0 
2.468992339553e-04 5.063023454195e-03 0.0 
0.0 0.0 0.0 
-3.471322210830e-04 -4.598058230893e-04 0.0 
-4.598058230893e-04 5.680729221244e-03 0.0 
0.0 0.0 0.0 
1.747311681212e-03 1.466631266000e-03 0.0 
1.466631266000e-03 8.763152762581e-04 0.0 
0.0 0.0 0.0 
8.538306416901e-04 1.455994200017e-03 0.0 
1.455994200017e-03 2.731958960114e-03 0.0 
0.0 0.0 0.0 
8.756870478082e-04 2.700909399344e-03 0.0 
2.700909399344e-03 -3.124488541810e-04 0.0 
0.0 0.0 0.0 
-3.487374298021e-04 -3.928919506801e-03 0.0 
-3.928919506801e-03 -1.515150299430e-03 0.0 
0.0 0.0 0.0 
-8.126188227529e-04 -3.109920135160e-04 0.0 
-3.109920135160e-04 5.472535373523e-03 0.0 
0.0 0.0 0.0 
-6.934461633300e-04 1.990592495519e-04 0.0 
1.990592495519e-04 7.021156293067e-03 0.0 
0.0 0.0 0.0 
-1.011261861579e-03 -3.510511305749e-03 0.0 
-3.510511305749e-03 -2.023412024953e-03 0.0 
0.0 0.0 0.0 
-1.893499664765e-04 -8.256063640562e-04 0.0 
-8.256063640562e-04 5.280182630901e-03 0.0 
0.0 0.0 0.0 
-4.588746719545e-04 1.921806796966e-03 0.0 
1.921806796966e-03 4.599351005178e-03 0.0 
0.0 0.0 0.0 
1.897428355804e-03 1.166956969866e-04 0.0 
1.166956969866e-04 -4.594407644529e-04 0.0 
0.0 0.0 0.0 
1.650101037519e-03 2.596101266517e-03 0.0 
2.596101266517e-03 -1.099736394572e-03 0.0 
0.0 0.0 0.0 
-1.397702097229e-03 1.235302884954e-03 0.0 
1.235302884954e-03 4.032160575647e-03 0.0 
0.0 0.0 0.0 
-1.694190902419e-03 -8.367407733748e-04 0.0 
-8.367407733748e-04 3.237019563188e-03 0.0 
0.0 0.0 0.0 
5.951307339269e-05 2.299114154055e-03 0.0 
2.299114154055e-03 6.572497030668e-04 0.0 
0.0 0.0 0.0 
3.346488423241e-04 2.519617586705e-03 0.0 
2.519617586705e-03 5.698993829832e-04 0.0 
0.0 0.0 0.0 
-1.160730085981e-05 -1.027604662036e-03 0.0 
-1.027604662036e-03 4.442887961059e-03 0.0 
0.0 0.0 0.0 
-9.725121981313e-04 8.823820705497e-05 0.0 
8.823820705497e-05 5.774482245808e-03 0.0 
0.0 0.0 0.0 
4.833530368875e-04 2.526506917043e-03 0.0 
2.526506917043e-03 1.324706891084e-04 0.0 
0.0 0.0 0.0 
-2.744623100457e-04 -1.398152915378e-03 0.0 
-1.398152915378e-03 9.402764193762e-04 0.0 
0.0 0.0 0.0 
-1.384262932305e-03 1.056829418631e-03 0.0 
1.056829418631e-03 4.604431537197e-03 0.0 
0.0 0.0 0.0 
-5.826490426613e-04 1.338431921517e-04 0.0 
1.338431921517e-04 7.052490669544e-03 0.0 
0.0 0.0 0.0 
5.773969108123e-04 2.562889148206e-03 0.0 
2.562889148206e-03 1.306686517439e-04 0.0 
0.0 0.0 0.0 
-6.066848612080e-04 2.850196695848e-03 0.0 
2.850196695848e-03 -3.722612703084e-04 0.0 
0.0 0.0 0.0 
-1.270943287999e-03 1.380221672584e-03 0.0 
1.380221672584e-03 3.362829787136e-03 0.0 
0.0 0.0 0.0 
-1.642805552146e-03 -8.346981329878e-04 0.0 
-8.346981329878e-04 3.205455395718e-03 0.0 
0.0 0.0 0.0 
-1.143909809791e-03 1.281798130036e-03 0.0 
1.281798130036e-03 3.114243010323e-03 0.0 
0.0 0.0 0.0 
-2.017711809337e-04 1.027709699634e-03 0.0 
1.027709699634e-03 7.480765417115e-03 0.0 
0.0 0.0 0.0 
5.803793021284e-04 3.417593783525e-03 0.0 
3.417593783525e-03 -1.466231125956e-03 0.0 
0.0 0.0 0.0 
-1.529452780640e-03 -5.352714700143e-04 0.0 
-5.352714700143e-04 4.581444275210e-03 0.0 
0.0 0.0 0.0 
-3.086992223212e-04 2.700410394072e-04 0.0 
2.700410394072e-04 7.671632184775e-03 0.0 
0.0 0.0 0.0 
-3.967583321348e-04 2.160570412457e-03 0.0 
2.160570412457e-03 1.889839281292e-03 0.0 
0.0 0.0 0.0 
-1.183944110308e-03 1.465053648030e-03 0.0 
1.465053648030e-03 3.038483881941e-03 0.0 
0.0 0.0 0.0 
1.391679732439e-04 -1.022540237501e-03 0.0 
-1.022540237501e-03 4.045984255191e-03 0.0 
0.0 0.0 0.0 
-5.228813118032e-04 -3.103399024848e-04 0.0 
-3.103399024848e-04 5.703889663055e-03 0.0 
0.0 0.0 0.0 
-1.386441716439e-03 -4.607464532846e-04 0.0 
-4.607464532846e-04 4.772963533749e-03 0.0 
0.0 0.0 0.0 
-5.246044699827e-04 2.198616820149e-03 0.0 
2.198616820149e-03 2.335821852605e-03 0.0 
0.0 0.0 0.0 
6.000116173761e-04 -5.994251300542e-04 0.0 
-5.994251300542e-04 3.229476479609e-03 0.0 
0.0 0.0 0.0 
-6.606872672963e-04 1.924276815614e-03 0.0 
1.924276815614e-03 2.224715433743e-03 0.0 
0.0 0.0 0.0 
-2.056401461658e-04 7.014038884012e-04 0.0 
7.014038884012e-04 7.599326916141e-03 0.0 
0.0 0.0 0.0 
8.606457588378e-06 2.210193885776e-03 0.0 
2.210193885776e-03 5.166085577635e-03 0.0 
0.0 0.0 0.0 
-1.291094621834e-03 7.233550403337e-04 0.0 
7.233550403337e-04 5.325414401180e-03 0.0 
0.0 0.0 0.0 
-8.825793239311e-04 2.667222790971e-04 0.0 
2.667222790971e-04 6.324845848399e-03 0.0 
0.0 0.0 0.0 
-6.255530940967e-04 2.097031533128e-03 0.0 
2.097031533128e-03 2.217439798551e-03 0.0 
0.0 0.0 0.0 
-1.054121147453e-03 1.351275070985e-03 0.0 
1.351275070985e-03 2.767660385382e-03 0.0 
0.0 0.0 0.0 
-2.953427493938e-04 2.258996117260e-03 0.0 
2.258996117260e-03 2.005035178883e-03 0.0 
0.0 0.0 0.0 
1.179359807892e-03 2.702766844314e-03 0.0 
2.702766844314e-03 -4.567167550944e-04 0.0 
0.0 0.0 0.0 
-1.143506781623e-03 1.605666010929e-04 0.0 
1.605666010929e-04 5.141451790192e-03 0.0 
0.0 0.0 0.0 
2.032755668924e-03 2.599268580953e-03 0.0 
2.599268580953e-03 -1.101562438445e-03 0.0 
0.0 0.0 0.0 
1.390835648030e-05 -3.314500151398e-04 0.0 
-3.314500151398e-04 3.978675967660e-04 0.0 
0.0 0.0 0.0 
-1.022233649456e-03 5.069591269027e-05 0.0 
5.069591269027e-05 5.466994684788e-03 0.0 
0.0 0.0 0.0 
4.859298470739e-05 -1.448385812701e-04 0.0 
-1.448385812701e-04 1.136167035607e-03 0.0 
0.0 0.0 0.0 
-1.336783108596e-03 1.309839787834e-03 0.0 
1.309839787834e-03 3.692592888829e-03 0.0 
0.0 0.0 0.0 
3.241257770732e-04 -6.264327400210e-04 0.0 
-6.264327400210e-04 3.283972393724e-03 0.0 
0.0 0.0 0.0 
6.904320987151e-04 2.611912472529e-03 0.0 
2.611912472529e-03 -3.056198217769e-04 0.0 
0.0 0.0 0.0 
-1.375187405170e-03 -2.430622768661e-04 0.0 
-2.430622768661e-04 4.982226867387e-03 0.0 
0.0 0.0 0.0 
-3.837361574481e-04 2.108320181520e-03 0.0 
2.108320181520e-03 8.776091705349e-04 0.0 
0.0 0.0 0.0 
1.581634690435e-03 1.653754264092e-03 0.0 
1.653754264092e-03 8.597360453670e-04 0.0 
0.0 0.0 0.0 
-1.045419466129e-03 8.976912955867e-05 0.0 
8.976912955867e-05 5.200752305359e-03 0.0 
0.0 0.0 0.0 
2.129845398541e-03 2.660293914175e-03 0.0 
2.660293914175e-03 -1.667371078756e-03 0.0 
0.0 0.0 0.0 
-1.059778889771e-03 -3.270965556798e-04 0.0 
-3.270965556798e-04 5.237124536123e-03 0.0 
0.0 0.0 0.0 
-6.248232309007e-04 -1.607465203707e-03 0.0 
-1.607465203707e-03 9.829526249336e-04 0.0 
0.0 0.0 0.0 
-7.989851806212e-04 -3.252511541371e-04 0.0 
-3.252511541371e-04 5.474004135443e-03 0.0 
0.0 0.0 0.0 
-1.109293356592e-03 1.559833299073e-03 0.0 
1.559833299073e-03 3.823467162043e-03 0.0 
0.0 0.0 0.0 
-4.226382423622e-04 -8.161325861238e-04 0.0 
-8.161325861238e-04 5.362050422935e-03 0.0 
0.0 0.0 0.0 
-1.020685898319e-03 3.991440810382e-05 0.0 
3.991440810382e-05 5.183728998658e-03 0.0 
0.0 0.0 0.0 
1.241916797360e-03 2.713401249351e-03 0.0 
2.713401249351e-03 -9.457691292198e-04 0.0 
0.0 0.0 0.0 
-1.280722236261e-03 1.161340494914e-03 0.0 
1.161340494914e-03 3.747918316140e-03 0.0 
0.0 0.0 0.0 
-1.754553873433e-03 -2.593144441352e-04 0.0 
-2.593144441352e-04 4.463144810851e-03 0.0 
0.0 0.0 0.0 
-3.234092068727e-04 1.969774151886e-03 0.0 
1.969774151886e-03 8.377077054751e-04 0.0 
0.0 0.0 0.0 
2.519016378041e-03 2.485647666521e-03 0.0 
2.485647666521e-03 -1.645484571856e-03 0.0 
0.0 0.0 0.0 
-8.644696204176e-04 1.924162603327e-04 0.0 
1.924162603327e-04 6.522401248387e-03 0.0 
0.0 0.0 0.0 
-1.062028267260e-03 1.256302471255e-04 0.0 
1.256302471255e-04 5.163107017355e-03 0.0 
0.0 0.0 0.0 
1.481365837692e-03 2.668287514255e-03 0.0 
2.668287514255e-03 -1.074616080423e-03 0.0 
0.0 0.0 0.0 
-1.225603968488e-03 1.214200022937e-03 0.0 
1.214200022937e-03 3.426360622047e-03 0.0 
0.0 0.0 0.0 
1.591787250232e-05 2.098999327084e-03 0.0 
2.098999327084e-03 4.167946823082e-03 0.0 
0.0 0.0 0.0 
-1.697094642525e-03 -9.389195828284e-04 0.0 
-9.389195828284e-04 3.329648545551e-03 0.0 
0.0 0.0 0.0 
2.720327663988e-04 1.803112703510e-03 0.0 
1.803112703510e-03 3.829801980185e-03 0.0 
0.0 0.0 0.0 
7.797233813522e-05 2.192833011125e-03 0.0 
2.192833011125e-03 4.900722771888e-03 0.0 
0.0 0.0 0.0 
-2.346195463729e-04 2.259906094084e-03 0.0 
2.259906094084e-03 1.061915633936e-03 0.0 
0.0 0.0 0.0 
-1.825426225578e-03 -7.674001637777e-04 0.0 
-7.674001637777e-04 3.596692151289e-03 0.0 
0.0 0.0 0.0 
1.398462980384e-03 -3.464546940413e-05 0.0 
-3.464546940413e-05 1.434947683078e-03 0.0 
0.0 0.0 0.0 
-8.682040129359e-04 1.851193267210e-03 0.0 
1.851193267210e-03 2.496446340605e-03 0.0 
0.0 0.0 0.0 
-1.396310952769e-04 2.102276320711e-03 0.0 
2.102276320711e-03 7.935485488633e-04 0.0 
0.0 0.0 0.0 
-1.234943140064e-03 1.340397121591e-03 0.0 
1.340397121591e-03 3.950069569306e-03 0.0 
0.0 0.0 0.0 
1.396873009763e-03 2.663699023516e-03 0.0 
2.663699023516e-03 -4.936553418918e-04 0.0 
0.0 0.0 0.0 
-2.023117353334e-04 5.311576937316e-04 0.0 
5.311576937316e-04 7.659967907055e-03 0.0 
0.0 0.0 0.0 
-6.253026062948e-04 1.735257356633e-03 0.0 
1.735257356633e-03 5.155040318897e-03 0.0 
0.0 0.0 0.0 
-9.528196590487e-04 -1.814451759820e-04 0.0 
-1.814451759820e-04 5.425760075739e-03 0.0 
0.0 0.0 0.0 
-3.284257262837e-04 2.343812224764e-03 0.0 
2.343812224764e-03 4.419344629059e-04 0.0 
0.0 0.0 0.0 
2.962415198413e-03 2.289667654247e-03 0.0 
2.289667654247e-03 -2.164024222515e-03 0.0 
0.0 0.0 0.0 
-4.798802803208e-04 1.850852070620e-03 0.0 
1.850852070620e-03 5.028954096774e-03 0.0 
0.0 0.0 0.0 
-3.879653189939e-03 2.005319661583e-03 0.0 
2.005319661583e-03 -2.021827935613e-03 0.0 
0.0 0.0 0.0 
-8.764626273382e-04 1.661193504522e-03 0.0 
1.661193504522e-03 2.500071804573e-03 0.0 
0.0 0.0 0.0 
1.533901797101e-03 -6.259815748196e-04 0.0 
-6.259815748196e-04 8.826606792338e-04 0.0 
0.0 0.0 0.0 
7.836751062902e-04 -4.172678322308e-04 0.0 
-4.172678322308e-04 4.414706734481e-04 0.0 
0.0 0.0 0.0 
-2.704729481358e-04 1.818114864125e-03 0.0 
1.818114864125e-03 6.401928674957e-03 0.0 
0.0 0.0 0.0 
-9.794809094406e-04 1.320210927783e-03 0.0 
1.320210927783e-03 5.404014572721e-03 0.0 
0.0 0.0 0.0 
5.477560864804e-04 -2.511159374616e-03 0.0 
-2.511159374616e-03 3.991735857265e-04 0.0 
0.0 0.0 0.0 
1.665401995716e-03 -3.942574585335e-04 0.0 
-3.942574585335e-04 8.667527447750e-04 0.0 
0.0 0.0 0.0 
-1.363890560490e-03 1.076384547279e-03 0.0 
1.076384547279e-03 4.932534275420e-03 0.0 
0.0 0.0 0.0 
-1.289220616489e-03 9.040686638683e-04 0.0 
9.040686638683e-04 5.409834489903e-03 0.0 
0.0 0.0 0.0 
6.649692262046e-04 -5.450027189668e-04 0.0 
-5.450027189668e-04 2.687882046314e-03 0.0 
0.0 0.0 0.0 
-3.311806980865e-04 -2.286780569265e-03 0.0 
-2.286780569265e-03 1.196515793449e-03 0.0 
0.0 0.0 0.0 
2.169955092013e-05 2.419478297971e-03 0.0 
2.419478297971e-03 1.611596660354e-03 0.0 
0.0 0.0 0.0 
-9.488725802790e-04 1.769002280301e-03 0.0 
1.769002280301e-03 3.656287118696e-03 0.0 
0.0 0.0 0.0 
-1.016511191446e-03 1.283119161247e-03 0.0 
1.283119161247e-03 5.702119785273e-03 0.0 
0.0 0.0 0.0 
-1.218342863353e-03 1.584002754647e-03 0.0 
1.584002754647e-03 4.186244500517e-03 0.0 
0.0 0.0 0.0 
-1.287809561275e-03 1.455373228816e-03 0.0 
1.455373228816e-03 3.950722861756e-03 0.0 
0.0 0.0 0.0 
2.428451507662e-03 1.500157208273e-03 0.0 
1.500157208273e-03 -4.579935216016e-04 0.0 
0.0 0.0 0.0 
-1.025881048144e-04 2.053943820393e-03 0.0 
2.053943820393e-03 4.302907685741e-03 0.0 
0.0 0.0 0.0 
-1.072024875750e-03 1.872453896462e-03 0.0 
1.872453896462e-03 -3.149542114607e-03 0.0 
0.0 0.0 0.0 
-2.602554827706e-04 2.107480246707e-03 0.0 
2.107480246707e-03 1.043352303242e-03 0.0 
0.0 0.0 0.0 
-1.089642166945e-04 2.240320423252e-03 0.0 
2.240320423252e-03 1.035077146488e-03 0.0 
0.0 0.0 0.0 
-2.061610396508e-04 2.377894018827e-03 0.0 
2.377894018827e-03 1.988451751770e-03 0.0 
0.0 0.0 0.0 
-6.729647784663e-04 1.693293480388e-03 0.0 
1.693293480388e-03 5.526103605852e-03 0.0 
0.0 0.0 0.0 
2.747290473792e-03 2.612347496511e-03 0.0 
2.612347496511e-03 -4.308008058950e-03 0.0 
0.0 0.0 0.0 
1.488661248050e-03 -9.371384427722e-04 0.0 
-9.371384427722e-04 7.130272000668e-04 0.0 
0.0 0.0 0.0 
-1.096834459764e-03 8.340062589223e-05 0.0 
8.340062589223e-05 5.143377895730e-03 0.0 
0.0 0.0 0.0 
2.574818182767e-03 2.580782260104e-03 0.0 
2.580782260104e-03 -2.203095841111e-03 0.0 
0.0 0.0 0.0 
1.354632951517e-03 -1.254340547334e-03 0.0 
-1.254340547334e-03 6.484730307954e-04 0.0 
0.0 0.0 0.0 
5.580786415880e-04 -3.331871916014e-04 0.0 
-3.331871916014e-04 2.631284896888e-04 0.0 
0.0 0.0 0.0 
-8.369542737534e-04 1.403515170901e-03 0.0 
1.403515170901e-03 5.669548554536e-03 0.0 
0.0 0.0 0.0 
8.836104542191e-04 -4.343695358834e-04 0.0 
-4.343695358834e-04 -2.609799438524e-05 0.0 
0.0 0.0 0.0 
3.288071556120e-04 -3.538958391761e-04 0.0 
-3.538958391761e-04 6.151159916876e-04 0.0 
0.0 0.0 0.0 
-1.624318826881e-04 2.133740728081e-03 0.0 
2.133740728081e-03 4.312002345543e-04 0.0 
0.0 0.0 0.0 
-4.229289527449e-04 -2.127321808993e-03 0.0 
-2.127321808993e-03 1.183099404833e-03 0.0 
0.0 0.0 0.0 
-8.699221936940e-04 1.360539989366e-03 0.0 
1.360539989366e-03 5.974481284884e-03 0.0 
0.0 0.0 0.0 
-2.689915192788e-04 -2.139589388485e-03 0.0 
-2.139589388485e-03 8.858128201683e-04 0.0 
0.0 0.0 0.0 
7.476974417571e-04 2.819747946249e-03 0.0 
2.819747946249e-03 -8.154373434502e-04 0.0 
0.0 0.0 0.0 
1.272061658963e-03 -3.554431518973e-03 0.0 
-3.554431518973e-03 -1.817604478945e-03 0.0 
0.0 0.0 0.0 
-6.023064008109e-04 -1.552903095824e-03 0.0 
-1.552903095824e-03 1.107116117004e-03 0.0 
0.0 0.0 0.0 
1.571212838269e-03 -1.216474438520e-04 0.0 
-1.216474438520e-04 1.100622885044e-03 0.0 
0.0 0.0 0.0 
-1.145445294601e-03 1.669754713486e-03 0.0 
1.669754713486e-03 3.819212242438e-03 0.0 
0.0 0.0 0.0 
-4.782874253609e-04 -6.070900683360e-04 0.0 
-6.070900683360e-04 5.501956091167e-03 0.0 
0.0 0.0 0.0 
-1.024540312708e-03 6.706956014573e-04 0.0 
6.706956014573e-04 -4.399226476749e-03 0.0 
0.0 0.0 0.0 
1.226637210085e-03 2.897254985395e-03 0.0 
2.897254985395e-03 -1.159713400292e-03 0.0 
0.0 0.0 0.0 
2.730035467671e-03 2.441614078538e-03 0.0 
2.441614078538e-03 -2.207519849528e-03 0.0 
0.0 0.0 0.0 
-7.169142280450e-04 1.757229840391e-03 0.0 
1.757229840391e-03 2.116232152638e-03 0.0 
0.0 0.0 0.0 
1.685994637324e-03 -7.072805118380e-04 0.0 
-7.072805118380e-04 6.970262829851e-04 0.0 
0.0 0.0 0.0 
-3.255964376015e-04 -8.689341466230e-04 0.0 
-8.689341466230e-04 5.266766361954e-03 0.0 
0.0 0.0 0.0 
-8.135813003544e-04 1.642591306716e-03 0.0 
1.642591306716e-03 5.257287911848e-03 0.0 
0.0 0.0 0.0 
3.141028029368e-03 2.205717069010e-03 0.0 
2.205717069010e-03 -2.621635732633e-03 0.0 
0.0 0.0 0.0 
1.486369338618e-03 -3.135259564016e-04 0.0 
-3.135259564016e-04 1.101944072721e-03 0.0 
0.0 0.0 0.0 
-1.547096906208e-03 -2.805824560275e-04 0.0 
-2.805824560275e-04 4.754148352716e-03 0.0 
0.0 0.0 0.0 
-4.168870227867e-04 2.277564102764e-03 0.0 
2.277564102764e-03 2.484673557437e-03 0.0 
0.0 0.0 0.0 
-8.767607518984e-04 1.466152014311e-03 0.0 
1.466152014311e-03 5.344691484173e-03 0.0 
0.0 0.0 0.0 
5.642354753965e-04 1.610021414064e-03 0.0 
1.610021414064e-03 3.223839316716e-03 0.0 
0.0 0.0 0.0 
3.116912126900e-03 2.159797592449e-03 0.0 
2.159797592449e-03 -2.168190663152e-03 0.0 
0.0 0.0 0.0 
7.173805821630e-04 2.767320194125e-03 0.0 
2.767320194125e-03 -4.404415149014e-04 0.0 
0.0 0.0 0.0 
-1.098782590007e-03 1.681592542297e-03 0.0 
1.681592542297e-03 4.419415130417e-03 0.0 
0.0 0.0 0.0 
-1.806917109799e-04 1.170004581230e-03 0.0 
1.170004581230e-03 7.596782906675e-03 0.0 
0.0 0.0 0.0 
1.455182901982e-04 2.495920022179e-03 0.0 
2.495920022179e-03 1.601471831578e-03 0.0 
0.0 0.0 0.0 
3.414964885412e-03 1.447961068847e-03 0.0 
1.447961068847e-03 -2.320503856243e-03 0.0 
0.0 0.0 0.0 
-1.048511733508e-03 1.209560658980e-04 0.0 
1.209560658980e-04 5.533790053631e-03 0.0 
0.0 0.0 0.0 
-3.862152547514e-04 -2.533989714842e-03 0.0 
-2.533989714842e-03 3.657420344059e-04 0.0 
0.0 0.0 0.0 
-1.163415392953e-03 1.484962756133e-03 0.0 
1.484962756133e-03 4.201534326154e-03 0.0 
0.0 0.0 0.0 
2.710671730056e-03 2.640758116909e-03 0.0 
2.640758116909e-03 -2.684810267690e-03 0.0 
0.0 0.0 0.0 
3.025593431651e-03 2.248734329725e-03 0.0 
2.248734329725e-03 -4.109235943929e-03 0.0 
0.0 0.0 0.0 
2.696514982353e-03 -3.195209877835e-03 0.0 
-3.195209877835e-03 -4.301735143786e-03 0.0 
0.0 0.0 0.0 
-7.847748406168e-04 1.346186703425e-03 0.0 
1.346186703425e-03 5.975976785846e-03 0.0 
0.0 0.0 0.0 
-1.052078460249e-03 1.785162424073e-03 0.0 
1.785162424073e-03 4.041400277454e-03 0.0 
0.0 0.0 0.0 
9.257446727517e-04 2.608703449164e-03 0.0 
2.608703449164e-03 -4.399537465888e-04 0.0 
0.0 0.0 0.0 
-8.113250010739e-04 1.300153291915e-03 0.0 
1.300153291915e-03 6.270053512270e-03 0.0 
0.0 0.0 0.0 
-6.660039352286e-04 1.764718137190e-03 0.0 
1.764718137190e-03 5.149465851971e-03 0.0 
0.0 0.0 0.0 
-5.905737553579e-04 2.172693627608e-03 0.0 
2.172693627608e-03 2.961058132044e-03 0.0 
0.0 0.0 0.0 
-1.131201858265e-04 -9.742075421832e-04 0.0 
-9.742075421832e-04 4.881246902408e-03 0.0 
0.0 0.0 0.0 
3.349313754774e-03 1.326284521109e-03 0.0 
1.326284521109e-03 -2.537820487577e-03 0.0 
0.0 0.0 0.0 
-7.342386807052e-04 2.067559291193e-03 0.0 
2.067559291193e-03 3.422337206158e-03 0.0 
0.0 0.0 0.0 
1.561876587957e-03 2.546444585880e-03 0.0 
2.546444585880e-03 -4.737940458592e-04 0.0 
0.0 0.0 0.0 
3.136312684588e-03 1.368410381136e-03 0.0 
1.368410381136e-03 -1.879474465541e-03 0.0 
0.0 0.0 0.0 
3.385208295613e-03 1.954308990009e-03 0.0 
1.954308990009e-03 -3.950940673419e-03 0.0 
0.0 0.0 0.0 
-1.336203326818e-03 7.948616376846e-04 0.0 
7.948616376846e-04 4.849528556686e-03 0.0 
0.0 0.0 0.0 
3.591907844126e-03 1.694312257073e-03 0.0 
1.694312257073e-03 -2.601942282629e-03 0.0 
0.0 0.0 0.0 
3.498695753265e-03 -1.552909908718e-03 0.0 
-1.552909908718e-03 -3.649021153371e-03 0.0 
0.0 0.0 0.0 
-7.586139815066e-04 1.608638379436e-03 0.0 
1.608638379436e-03 5.263227463825e-03 0.0 
0.0 0.0 0.0 
-4.756575843511e-03 1.841194521557e-04 0.0 
1.841194521557e-04 -2.814762466550e-03 0.0 
0.0 0.0 0.0 
-1.252236396318e-03 1.495642342624e-03 0.0 
1.495642342624e-03 4.531852488304e-03 0.0 
0.0 0.0 0.0 
3.352805636480e-03 2.138885908693e-03 0.0 
2.138885908693e-03 -3.280480500109e-03 0.0 
0.0 0.0 0.0 
1.552690604409e-03 2.848529273649e-03 0.0 
2.848529273649e-03 -1.154516984688e-03 0.0 
0.0 0.0 0.0 
3.519183485772e-03 1.041298453277e-03 0.0 
1.041298453277e-03 -3.796970350376e-03 0.0 
0.0 0.0 0.0 
-9.168667380517e-04 1.771749481471e-03 0.0 
1.771749481471e-03 4.280774431041e-03 0.0 
0.0 0.0 0.0 
-1.879814264396e-04 -9.886037642706e-04 0.0 
-9.886037642706e-04 7.501044387048e-04 0.0 
0.0 0.0 0.0 
-3.024829011821e-04 2.145450893552e-03 0.0 
2.145450893552e-03 1.435248975193e-03 0.0 
0.0 0.0 0.0 
3.044890702085e-03 1.265545818314e-03 0.0 
1.265545818314e-03 -1.981688531447e-03 0.0 
0.0 0.0 0.0 
-1.022476275331e-03 1.688068370309e-03 0.0 
1.688068370309e-03 4.057990640130e-03 0.0 
0.0 0.0 0.0 
-1.342325904755e-03 9.330579819129e-04 0.0 
9.330579819129e-04 5.073782947681e-03 0.0 
0.0 0.0 0.0 
2.115550756370e-03 1.883586319215e-03 0.0 
1.883586319215e-03 -4.784829432570e-03 0.0 
0.0 0.0 0.0 
3.831725158890e-03 -7.118285659412e-04 0.0 
-7.118285659412e-04 -3.780598677987e-03 0.0 
0.0 0.0 0.0 
3.043957070425e-03 -2.325893920109e-03 0.0 
-2.325893920109e-03 -3.340336628641e-03 0.0 
0.0 0.0 0.0 
-3.995500705958e-04 2.179497434053e-03 0.0 
2.179497434053e-03 1.418487745506e-03 0.0 
0.0 0.0 0.0 
-9.464819878732e-04 1.502005473062e-03 0.0 
1.502005473062e-03 5.338584622389e-03 0.0 
0.0 0.0 0.0 
-2.504230295708e-04 2.319580676879e-03 0.0 
2.319580676879e-03 1.408896167898e-03 0.0 
0.0 0.0 0.0 
3.626652630648e-03 1.781672205802e-03 0.0 
1.781672205802e-03 -3.111883262702e-03 0.0 
0.0 0.0 0.0 
3.169093402715e-03 2.249615345904e-03 0.0 
2.249615345904e-03 -2.728769506757e-03 0.0 
0.0 0.0 0.0 
2.325686137202e-03 1.450977269765e-03 0.0 
1.450977269765e-03 -3.895472880513e-03 0.0 
0.0 0.0 0.0 
1.752754527468e-03 2.486233119636e-03 0.0 
2.486233119636e-03 -1.029772905261e-03 0.0 
0.0 0.0 0.0 
3.521544913390e-04 2.836154097405e-03 0.0 
2.836154097405e-03 -4.432324311435e-04 0.0 
0.0 0.0 0.0 
-2.023277564708e-04 1.801638132861e-03 0.0 
1.801638132861e-03 6.960112216843e-03 0.0 
0.0 0.0 0.0 
-1.862017706366e-04 2.013379921812e-03 0.0 
2.013379921812e-03 6.591451060782e-03 0.0 
0.0 0.0 0.0 
3.641605990825e-04 2.522950800179e-03 0.0 
2.522950800179e-03 1.202344760757e-03 0.0 
0.0 0.0 0.0 
3.106659242335e-03 2.404433964095e-03 0.0 
2.404433964095e-03 -3.297088147020e-03 0.0 
0.0 0.0 0.0 
1.948089261810e-03 2.862895425929e-03 0.0 
2.862895425929e-03 -1.666484437050e-03 0.0 
0.0 0.0 0.0 
-5.283021176299e-04 2.140837194713e-03 0.0 
2.140837194713e-03 3.182842270797e-03 0.0 
0.0 0.0 0.0 
2.765646684181e-03 2.433425377906e-03 0.0 
2.433425377906e-03 -2.507355593997e-03 0.0 
0.0 0.0 0.0 
3.446016842471e-03 -1.543029610242e-03 0.0 
-1.543029610242e-03 -3.464286067517e-03 0.0 
0.0 0.0 0.0 
-4.796135647777e-04 2.159798681063e-03 0.0 
2.159798681063e-03 2.506109720860e-03 0.0 
0.0 0.0 0.0 
-3.781844463452e-04 7.719713211295e-04 0.0 
7.719713211295e-04 7.576684819118e-03 0.0 
0.0 0.0 0.0 
2.981291535971e-03 2.416318341088e-03 0.0 
2.416318341088e-03 -2.737929387169e-03 0.0 
0.0 0.0 0.0 
2.134243881129e-03 1.731282253128e-03 0.0 
1.731282253128e-03 -4.847119622846e-04 0.0 
0.0 0.0 0.0 
9.389524493806e-04 2.962431984721e-03 0.0 
2.962431984721e-03 -1.272523088739e-03 0.0 
0.0 0.0 0.0 
4.190413958838e-04 -2.587687758375e-04 0.0 
-2.587687758375e-04 3.581535944976e-03 0.0 
0.0 0.0 0.0 
2.370056072238e-03 2.858880064597e-03 0.0 
2.858880064597e-03 -2.573489790500e-03 0.0 
0.0 0.0 0.0 
-1.944211131276e-04 2.332207352288e-03 0.0 
2.332207352288e-03 2.157391643807e-03 0.0 
0.0 0.0 0.0 
2.915893931230e-03 1.588109123501e-03 0.0 
1.588109123501e-03 -4.667468891083e-03 0.0 
0.0 0.0 0.0 
2.675816415198e-03 -4.429399566855e-04 0.0 
-4.429399566855e-04 -1.232520746816e-03 0.0 
0.0 0.0 0.0 
3.235191893971e-03 2.068606954761e-03 0.0 
2.068606954761e-03 -2.659320523988e-03 0.0 
0.0 0.0 0.0 
3.082059242366e-03 -2.105143634799e-03 0.0 
-2.105143634799e-03 -2.774733971750e-03 0.0 
0.0 0.0 0.0 
-9.580755411646e-04 1.881047979030e-03 0.0 
1.881047979030e-03 3.641956140590e-03 0.0 
0.0 0.0 0.0 
-7.382293591829e-05 2.251353741700e-03 0.0 
2.251353741700e-03 5.933974410425e-03 0.0 
0.0 0.0 0.0 
3.535268281073e-03 1.928639794486e-03 0.0 
1.928639794486e-03 -3.220825569365e-03 0.0 
0.0 0.0 0.0 
3.197354213566e-03 9.367154134864e-04 0.0 
9.367154134864e-04 -1.936155307455e-03 0.0 
0.0 0.0 0.0 
1.186931194884e-03 2.990379441701e-03 0.0 
2.990379441701e-03 -1.277497098763e-03 0.0 
0.0 0.0 0.0 
-1.042154826053e-03 7.827705767986e-04 0.0 
7.827705767986e-04 5.899865017685e-03 0.0 
0.0 0.0 0.0 
1.618812146950e-03 -1.033248341646e-03 0.0 
-1.033248341646e-03 6.194954037615e-04 0.0 
0.0 0.0 0.0 
4.995970689445e-04 2.664553791612e-03 0.0 
2.664553791612e-03 -9.067910687288e-05 0.0 
0.0 0.0 0.0 
-1.173510918270e-03 6.577896686225e-04 0.0 
6.577896686225e-04 5.824730898300e-03 0.0 
0.0 0.0 0.0 
7.437671180011e-05 2.275777945495e-03 0.0 
2.275777945495e-03 5.146610058587e-03 0.0 
0.0 0.0 0.0 
1.348466706988e-03 -8.457052287737e-04 0.0 
-8.457052287737e-04 1.286391082255e-03 0.0 
0.0 0.0 0.0 
-1.197293844533e-04 2.193685593921e-03 0.0 
2.193685593921e-03 6.168001362138e-03 0.0 
0.0 0.0 0.0 
-1.208752185917e-03 8.333258629796e-04 0.0 
8.333258629796e-04 5.651788493579e-03 0.0 
0.0 0.0 0.0 
-4.492070355165e-04 1.956759219016e-03 0.0 
1.956759219016e-03 4.592191652196e-03 0.0 
0.0 0.0 0.0 
1.085151929061e-04 2.542392805827e-03 0.0 
2.542392805827e-03 1.666927776134e-04 0.0 
0.0 0.0 0.0 
-1.052101434844e-03 1.767252660694e-03 0.0 
1.767252660694e-03 3.428279132418e-03 0.0 
0.0 0.0 0.0 
-7.525776918412e-04 1.966735109556e-03 0.0 
1.966735109556e-03 3.436812195018e-03 0.0 
0.0 0.0 0.0 
-8.549027490546e-04 1.968314663144e-03 0.0 
1.968314663144e-03 3.862636648942e-03 0.0 
0.0 0.0 0.0 
4.240384554617e-04 2.554584312367e-03 0.0 
2.554584312367e-03 1.060761638416e-03 0.0 
0.0 0.0 0.0 
1.810086960019e-04 2.108576795500e-03 0.0 
2.108576795500e-03 4.636692192598e-03 0.0 
0.0 0.0 0.0 
-1.203359996026e-03 1.100058229208e-03 0.0 
1.100058229208e-03 5.168851752402e-03 0.0 
0.0 0.0 0.0 
-1.348152855501e-03 1.378739575849e-03 0.0 
1.378739575849e-03 4.286710258018e-03 0.0 
0.0 0.0 0.0 
3.493999088860e-03 1.836173964875e-03 0.0 
1.836173964875e-03 -2.668002841816e-03 0.0 
0.0 0.0 0.0 
-5.376584599521e-04 -1.886773934727e-03 0.0 
-1.886773934727e-03 1.162028234301e-03 0.0 
0.0 0.0 0.0 
-1.218980766810e-03 1.535266481821e-03 0.0 
1.535266481821e-03 3.581264066096e-03 0.0 
0.0 0.0 0.0 
9.292028668875e-04 2.745486090699e-03 0.0 
2.745486090699e-03 -7.307048963774e-04 0.0 
0.0 0.0 0.0 
-1.049335014465e-03 7.362126017358e-05 0.0 
7.362126017358e-05 5.183207767548e-03 0.0 
0.0 0.0 0.0 
2.519849281130e-03 -2.600543957402e-03 0.0 
-2.600543957402e-03 -2.698103873028e-03 0.0 
0.0 0.0 0.0 
3.359889533810e-03 1.982941939734e-03 0.0 
1.982941939734e-03 -2.678017233961e-03 0.0 
0.0 0.0 0.0 
-7.287718921850e-04 1.542595714734e-03 0.0 
1.542595714734e-03 5.609335123264e-03 0.0 
0.0 0.0 0.0 
1.230354753804e-03 2.793250691892e-03 0.0 
2.793250691892e-03 -7.382015114468e-04 0.0 
0.0 0.0 0.0 
-8.426741318619e-04 1.860699977210e-03 0.0 
1.860699977210e-03 3.238152018440e-03 0.0 
0.0 0.0 0.0 
2.969482285776e-03 8.258639943964e-04 0.0 
8.258639943964e-04 -1.768352913894e-03 0.0 
0.0 0.0 0.0 
1.314087099054e-03 -1.993879109983e-03 0.0 
-1.993879109983e-03 -9.134885862405e-05 0.0 
0.0 0.0 0.0 
3.534798435172e-04 1.595766660180e-03 0.0 
1.595766660180e-03 3.979904537468e-03 0.0 
0.0 0.0 0.0 
-1.008842459369e-03 1.737584206361e-03 0.0 
1.737584206361e-03 2.859386339441e-03 0.0 
0.0 0.0 0.0 
3.908497328226e-03 1.420481315366e-04 0.0 
1.420481315366e-04 -4.140453955988e-03 0.0 
0.0 0.0 0.0 
6.374632077988e-04 -2.625532393066e-03 0.0 
-2.625532393066e-03 -1.181894105201e-04 0.0 
0.0 0.0 0.0 
-1.086771174089e-04 2.316308619154e-03 0.0 
2.316308619154e-03 7.626597324042e-04 0.0 
0.0 0.0 0.0 
4.021489477413e-04 2.520760893999e-03 0.0 
2.520760893999e-03 -7.456344834966e-05 0.0 
0.0 0.0 0.0 
-5.306382122139e-04 1.806575118518e-03 0.0 
1.806575118518e-03 5.422593474765e-03 0.0 
0.0 0.0 0.0 
-3.060654833636e-04 2.322764345859e-03 0.0 
2.322764345859e-03 2.667588149460e-03 0.0 
0.0 0.0 0.0 
-7.213449279759e-04 1.952628784160e-03 0.0 
1.952628784160e-03 2.100011074344e-03 0.0 
0.0 0.0 0.0 
-9.228666688208e-04 1.726773202067e-03 0.0 
1.726773202067e-03 3.053206448817e-03 0.0 
0.0 0.0 0.0 
4.676125948559e-04 5.878755502538e-04 0.0 
5.878755502538e-04 3.489797488580e-03 0.0 
0.0 0.0 0.0 
8.617223845260e-04 6.640917323990e-04 0.0 
6.640917323990e-04 2.729367176787e-03 0.0 
0.0 0.0 0.0 
-4.808018787651e-04 1.788803139945e-03 0.0 
1.788803139945e-03 5.425870617412e-03 0.0 
0.0 0.0 0.0 
-9.180612127744e-04 1.428010377639e-03 0.0 
1.428010377639e-03 5.665900202402e-03 0.0 
0.0 0.0 0.0 
1.453648227751e-03 -2.097153560466e-03 0.0 
-2.097153560466e-03 -7.046027067236e-04 0.0 
0.0 0.0 0.0 
1.214853323750e-04 2.486450061488e-03 0.0 
2.486450061488e-03 9.942358378974e-04 0.0 
0.0 0.0 0.0 
3.398670788995e-03 1.761804126434e-03 0.0 
1.761804126434e-03 -3.197180812028e-03 0.0 
0.0 0.0 0.0 
3.684281532949e-03 1.532525129507e-03 0.0 
1.532525129507e-03 -3.189639812235e-03 0.0 
0.0 0.0 0.0 
-9.802679625592e-05 2.419073241525e-03 0.0 
2.419073241525e-03 2.144058924246e-03 0.0 
0.0 0.0 0.0 
2.865737609477e-03 -4.752612842747e-04 0.0 
-4.752612842747e-04 -1.731717640429e-03 0.0 
0.0 0.0 0.0 
-7.860194594855e-04 -1.993440336929e-03 0.0 
-1.993440336929e-03 2.003718156792e-03 0.0 
0.0 0.0 0.0 
-5.768412942503e-04 1.620851765224e-03 0.0 
1.620851765224e-03 5.877924909062e-03 0.0 
0.0 0.0 0.0 
3.745754644505e-03 -8.448260726603e-04 0.0 
-8.448260726603e-04 -3.985987195107e-03 0.0 
0.0 0.0 0.0 
7.161801322169e-04 2.578985166429e-03 0.0 
2.578985166429e-03 5.384510384336e-04 0.0 
0.0 0.0 0.0 
-6.272991699453e-04 2.059827383309e-03 0.0 
2.059827383309e-03 2.983090192497e-03 0.0 
0.0 0.0 0.0 
5.505405196886e-04 2.574600158762e-03 0.0 
2.574600158762e-03 5.335219948799e-04 0.0 
0.0 0.0 0.0 
-1.567719676514e-04 2.118745995496e-03 0.0 
2.118745995496e-03 6.384756969738e-03 0.0 
0.0 0.0 0.0 
-1.818859111512e-04 1.919350575462e-03 0.0 
1.919350575462e-03 6.769824623901e-03 0.0 
0.0 0.0 0.0 
-3.611956090620e-04 1.801538092435e-03 0.0 
1.801538092435e-03 6.404878582536e-03 0.0 
0.0 0.0 0.0 
1.371865229687e-03 -1.979499179136e-03 0.0 
-1.979499179136e-03 -3.858590889442e-04 0.0 
0.0 0.0 0.0 
-7.163669967852e-04 1.294960543480e-03 0.0 
1.294960543480e-03 6.270329367127e-03 0.0 
0.0 0.0 0.0 
5.640642617888e-04 2.672078159183e-03 0.0 
2.672078159183e-03 -4.288688136789e-04 0.0 
0.0 0.0 0.0 
3.817800084917e-03 1.370094848607e-03 0.0 
1.370094848607e-03 -3.136746665331e-03 0.0 
0.0 0.0 0.0 
3.113881588875e-03 1.203110496888e-03 0.0 
1.203110496888e-03 -3.931931128299e-03 0.0 
0.0 0.0 0.0 
-4.382095895262e-04 2.206320046271e-03 0.0 
2.206320046271e-03 1.792895725836e-03 0.0 
0.0 0.0 0.0 
-1.330898192216e-03 6.650169247863e-04 0.0 
6.650169247863e-04 4.952604292606e-03 0.0 
0.0 0.0 0.0 
-1.107326071872e-03 8.176215459501e-04 0.0 
8.176215459501e-04 5.653044917066e-03 0.0 
0.0 0.0 0.0 
7.774174681670e-04 -1.416838323328e-04 0.0 
-1.416838323328e-04 2.886306734531e-03 0.0 
0.0 0.0 0.0 
-3.239520874818e-04 1.943076393891e-03 0.0 
1.943076393891e-03 4.885610604064e-03 0.0 
0.0 0.0 0.0 
-1.068411476501e-03 1.598561675827e-03 0.0 
1.598561675827e-03 4.431908394001e-03 0.0 
0.0 0.0 0.0 
-6.561449690874e-04 2.049166971878e-03 0.0 
2.049166971878e-03 3.661268697458e-03 0.0 
0.0 0.0 0.0 
3.458328818361e-03 1.265741361204e-03 0.0 
1.265741361204e-03 -4.470724468897e-03 0.0 
0.0 0.0 0.0 
-6.627373982034e-04 -1.642194261892e-03 0.0 
-1.642194261892e-03 6.957504462362e-04 0.0 
0.0 0.0 0.0 
2.225402499540e-03 2.528250914790e-03 0.0 
2.528250914790e-03 -1.688623392572e-03 0.0 
0.0 0.0 0.0 
8.310069797710e-04 2.568392537758e-03 0.0 
2.568392537758e-03 6.213601765355e-04 0.0 
0.0 0.0 0.0 
2.132225163693e-03 2.454549551761e-03 0.0 
2.454549551761e-03 -1.027182929957e-03 0.0 
0.0 0.0 0.0 
-2.830119950423e-04 2.488252345225e-03 0.0 
2.488252345225e-03 -3.795817314971e-04 0.0 
0.0 0.0 0.0 
-9.999753783945e-04 1.126351745952e-04 0.0 
1.126351745952e-04 5.532361199116e-03 0.0 
0.0 0.0 0.0 
-3.275803233738e-04 -1.824872120353e-03 0.0 
-1.824872120353e-03 9.514077533581e-04 0.0 
0.0 0.0 0.0 
1.977984865333e-03 2.891791990372e-03 0.0 
2.891791990372e-03 -1.932741357885e-03 0.0 
0.0 0.0 0.0 
0.0 -1.056187475084e-04 0.0 
-1.056187475084e-04 3.546579115555e-03 0.0 
0.0 0.0 0.0 
2.424212683438e-03 1.115769368111e-03 0.0 
1.115769368111e-03 -3.660550498563e-04 0.0 
0.0 0.0 0.0 
-1.273038102926e-03 1.283330526456e-03 0.0 
1.283330526456e-03 4.298091469069e-03 0.0 
0.0 0.0 0.0 
7.268482003533e-04 -9.412467981004e-05 0.0 
-9.412467981004e-05 8.124128738585e-04 0.0 
0.0 0.0 0.0 
2.713405074830e-04 2.499948201824e-03 0.0 
2.499948201824e-03 1.068977012283e-03 0.0 
0.0 0.0 0.0 
2.653324426737e-03 2.374604340236e-03 0.0 
2.374604340236e-03 -1.669120547961e-03 0.0 
0.0 0.0 0.0 
-9.131313350474e-04 1.846841192680e-03 0.0 
1.846841192680e-03 4.271223410772e-03 0.0 
0.0 0.0 0.0 
-1.932343726729e-05 2.296236456879e-03 0.0 
2.296236456879e-03 5.671325422827e-03 0.0 
0.0 0.0 0.0 
-1.020011365731e-03 1.640772584717e-03 0.0 
1.640772584717e-03 3.442446931317e-03 0.0 
0.0 0.0 0.0 
-4.781654037195e-04 2.222910472096e-03 0.0 
2.222910472096e-03 3.172089479018e-03 0.0 
0.0 0.0 0.0 
-5.826193242998e-04 -2.099887559397e-03 0.0 
-2.099887559397e-03 2.018509398213e-03 0.0 
0.0 0.0 0.0 
-6.862205532671e-04 1.489118696831e-03 0.0 
1.489118696831e-03 5.938613542116e-03 0.0 
0.0 0.0 0.0 
1.238443483519e-03 -1.854479827803e-03 0.0 
-1.854479827803e-03 2.912901144219e-04 0.0 
0.0 0.0 0.0 
1.841479315789e-05 2.299435972455e-03 0.0 
2.299435972455e-03 5.414783358467e-03 0.0 
0.0 0.0 0.0 
0.0 2.064792053763e-03 0.0 
2.064792053763e-03 6.273854639983e-03 0.0 
0.0 0.0 0.0 
0.0 1.661345564295e-03 0.0 
1.661345564295e-03 7.056295501709e-03 0.0 
0.0 0.0 0.0 
0.0 1.874017963342e-03 0.0 
1.874017963342e-03 6.688161693300e-03 0.0 
0.0 0.0 0.0 
-7.379312726663e-04 1.920995048655e-03 0.0 
1.920995048655e-03 4.101092473423e-03 0.0 
0.0 0.0 0.0 
-7.666048853334e-04 1.498794399808e-03 0.0 
1.498794399808e-03 5.937693588170e-03 0.0 
0.0 0.0 0.0 
-3.400399890815e-04 1.905519820292e-03 0.0 
1.905519820292e-03 5.311930464492e-03 0.0 
0.0 0.0 0.0 
4.082085963648e-04 2.532853531283e-03 0.0 
2.532853531283e-03 5.391395280847e-04 0.0 
0.0 0.0 0.0 
3.293137245208e-05 2.376434767331e-03 0.0 
2.376434767331e-03 1.008451198668e-03 0.0 
0.0 0.0 0.0 
-1.046438302730e-03 -1.810356555516e-03 0.0 
-1.810356555516e-03 2.301151931370e-03 0.0 
0.0 0.0 0.0 
-6.527781078439e-04 1.632525806005e-03 0.0 
1.632525806005e-03 5.876613107059e-03 0.0 
0.0 0.0 0.0 
1.304385512249e-04 2.206997562929e-03 0.0 
2.206997562929e-03 4.881018246333e-03 0.0 
0.0 0.0 0.0 
-6.245500601569e-04 1.433224873726e-03 0.0 
1.433224873726e-03 6.245661308325e-03 0.0 
0.0 0.0 0.0 
2.830912465055e-03 1.276732528688e-03 0.0 
1.276732528688e-03 -1.198930254150e-03 0.0 
0.0 0.0 0.0 
-7.140104297261e-04 1.440841892260e-03 0.0 
1.440841892260e-03 6.245038332479e-03 0.0 
0.0 0.0 0.0 
1.007864936623e-03 2.206389681246e-03 0.0 
2.206389681246e-03 1.789518987118e-03 0.0 
0.0 0.0 0.0 
9.425162270669e-04 2.586313078481e-03 0.0 
2.586313078481e-03 6.762711726616e-05 0.0 
0.0 0.0 0.0 
-4.800392033880e-04 2.035919150026e-03 0.0 
2.035919150026e-03 1.810855473487e-03 0.0 
0.0 0.0 0.0 
1.882720703482e-03 3.106161104948e-03 0.0 
3.106161104948e-03 -2.398736519725e-03 0.0 
0.0 0.0 0.0 
-2.077829307608e-04 1.201573847873e-03 0.0 
1.201573847873e-03 7.266220772848e-03 0.0 
0.0 0.0 0.0 
6.616168602422e-04 2.586932440689e-03 0.0 
2.586932440689e-03 7.294279835524e-05 0.0 
0.0 0.0 0.0 
3.066085702967e-04 1.943981651482e-03 0.0 
1.943981651482e-03 3.864362209695e-03 0.0 
0.0 0.0 0.0 
-8.924693088743e-04 -1.961489824914e-03 0.0 
-1.961489824914e-03 2.322945074296e-03 0.0 
0.0 0.0 0.0 
1.889252851395e-03 -3.014944540410e-03 0.0 
-3.014944540410e-03 -2.081621530767e-03 0.0 
0.0 0.0 0.0 
4.176221022001e-04 -2.225021188782e-04 0.0 
-2.225021188782e-04 2.949707663007e-03 0.0 
0.0 0.0 0.0 
1.628695380912e-03 2.837952111080e-03 0.0 
2.837952111080e-03 -1.424479918887e-03 0.0 
0.0 0.0 0.0 
0.0 2.134597426043e-03 0.0 
2.134597426043e-03 6.050367459091e-03 0.0 
0.0 0.0 0.0 
-2.238362118843e-04 1.699885492140e-03 0.0 
1.699885492140e-03 6.620184746231e-03 0.0 
0.0 0.0 0.0 
-9.792397835540e-05 2.371697684872e-03 0.0 
2.371697684872e-03 2.356072280723e-03 0.0 
0.0 0.0 0.0 
-6.120950909374e-04 -8.425758028893e-04 0.0 
-8.425758028893e-04 7.414957814640e-04 0.0 
0.0 0.0 0.0 
0.0 2.193398383218e-03 0.0 
2.193398383218e-03 5.543849319801e-03 0.0 
0.0 0.0 0.0 
4.580163442520e-04 2.620429309740e-04 0.0 
2.620429309740e-04 2.813417567983e-03 0.0 
0.0 0.0 0.0 
2.410180032138e-03 -2.616416437348e-03 0.0 
-2.616416437348e-03 -2.144632665821e-03 0.0 
0.0 0.0 0.0 
2.786014591730e-03 8.342773897767e-04 0.0 
8.342773897767e-04 -1.023004213243e-03 0.0 
0.0 0.0 0.0 
3.619215684521e-04 1.362436069707e-03 0.0 
1.362436069707e-03 3.810502897001e-03 0.0 
0.0 0.0 0.0 
-3.229809079085e-04 -3.880968864758e-05 0.0 
-3.880968864758e-05 2.469574585962e-04 0.0 
0.0 0.0 0.0 
8.126356729456e-04 2.600058756709e-03 0.0 
2.600058756709e-03 4.175140934626e-05 0.0 
0.0 0.0 0.0 
-2.751886805794e-04 2.281609872077e-03 0.0 
2.281609872077e-03 2.899909870845e-03 0.0 
0.0 0.0 0.0 
1.158406458097e-04 2.456188169162e-03 0.0 
2.456188169162e-03 1.785994230447e-03 0.0 
0.0 0.0 0.0 
-3.742894073897e-04 2.238132000829e-03 0.0 
2.238132000829e-03 2.679784601971e-03 0.0 
0.0 0.0 0.0 
1.526947008046e-03 3.002212938027e-03 0.0 
3.002212938027e-03 -1.685069200140e-03 0.0 
0.0 0.0 0.0 
0.0 2.138422825351e-03 0.0 
2.138422825351e-03 5.009554270151e-03 0.0 
0.0 0.0 0.0 
3.879130664650e-03 1.253912072385e-03 0.0 
1.253912072385e-03 -3.030456932759e-03 0.0 
0.0 0.0 0.0 
2.112108092994e-03 2.988112454825e-04 0.0 
2.988112454825e-04 -4.519685359771e-03 0.0 
0.0 0.0 0.0 
-1.287625894409e-04 -1.082424012996e-03 0.0 
-1.082424012996e-03 4.755615820994e-03 0.0 
0.0 0.0 0.0 
-3.340788482843e-04 -6.675029804027e-04 0.0 
-6.675029804027e-04 4.355194099499e-04 0.0 
0.0 0.0 0.0 
-8.000929725892e-04 1.819932360303e-03 0.0 
1.819932360303e-03 2.651419132728e-03 0.0 
0.0 0.0 0.0 
1.496475597485e-03 -3.040700953283e-03 0.0 
-3.040700953283e-03 -2.482177513033e-03 0.0 
0.0 0.0 0.0 
-1.163395756988e-03 1.405280787295e-03 0.0 
1.405280787295e-03 3.597487751984e-03 0.0 
0.0 0.0 0.0 
4.581574830105e-04 2.718504423531e-04 0.0 
2.718504423531e-04 3.467282567337e-03 0.0 
0.0 0.0 0.0 
0.0 1.949903117028e-03 0.0 
1.949903117028e-03 4.507383557788e-03 0.0 
0.0 0.0 0.0 
-8.505195434247e-04 1.880961064351e-03 0.0 
1.880961064351e-03 3.874742980491e-03 0.0 
0.0 0.0 0.0 
4.616320154214e-04 -3.208702728722e-03 0.0 
-3.208702728722e-03 -9.708068351865e-04 0.0 
0.0 0.0 0.0 
1.919555326869e-03 5.948650019830e-04 0.0 
5.948650019830e-04 -4.909488505679e-03 0.0 
0.0 0.0 0.0 
3.945648743904e-04 -3.705322728997e-03 0.0 
-3.705322728997e-03 -1.270485777788e-03 0.0 
0.0 0.0 0.0 
1.509178994106e-04 -1.240405452967e-03 0.0 
-1.240405452967e-03 3.080837694152e-03 0.0 
0.0 0.0 0.0 
-1.398822642742e-03 7.742412426643e-04 0.0 
7.742412426643e-04 4.845780393830e-03 0.0 
0.0 0.0 0.0 
-1.364620026836e-03 1.297924002347e-03 0.0 
1.297924002347e-03 4.603448210253e-03 0.0 
0.0 0.0 0.0 
0.0 1.634957919913e-03 0.0 
1.634957919913e-03 4.071479251156e-03 0.0 
0.0 0.0 0.0 
-1.368167182299e-03 6.450576038559e-04 0.0 
6.450576038559e-04 4.942076651528e-03 0.0 
0.0 0.0 0.0 
-1.908611399807e-04 1.671426824161e-03 0.0 
1.671426824161e-03 7.125468463506e-03 0.0 
0.0 0.0 0.0 
9.967676480009e-04 2.128599319088e-03 0.0 
2.128599319088e-03 1.586544924499e-03 0.0 
0.0 0.0 0.0 
-1.134924439760e-03 6.805559136779e-04 0.0 
6.805559136779e-04 5.574644857000e-03 0.0 
0.0 0.0 0.0 
2.345559349282e-04 2.428088791004e-03 0.0 
2.428088791004e-03 2.769072773694e-04 0.0 
0.0 0.0 0.0 
2.579034734897e-03 1.135043113094e-03 0.0 
1.135043113094e-03 -1.063986752294e-03 0.0 
0.0 0.0 0.0 
2.725962346595e-03 2.394267492124e-03 0.0 
2.394267492124e-03 -3.119445381409e-03 0.0 
0.0 0.0 0.0 
0.0 1.194608258473e-03 0.0 
1.194608258473e-03 3.737352555832e-03 0.0 
0.0 0.0 0.0 
0.0 1.979370169740e-03 0.0 
1.979370169740e-03 6.487908395868e-03 0.0 
0.0 0.0 0.0 
0.0 1.767736269781e-03 0.0 
1.767736269781e-03 6.893104152834e-03 0.0 
0.0 0.0 0.0 
9.299698583649e-04 -2.016953790675e-03 0.0 
-2.016953790675e-03 3.170906470344e-04 0.0 
0.0 0.0 0.0 
-1.251122010418e-03 -1.581721259165e-03 0.0 
-1.581721259165e-03 2.542026714901e-03 0.0 
0.0 0.0 0.0 
1.146371502415e-03 2.536180877877e-03 0.0 
2.536180877877e-03 7.411360032639e-05 0.0 
0.0 0.0 0.0 
8.462908759825e-04 -1.846262765502e-03 0.0 
-1.846262765502e-03 1.000569795845e-03 0.0 
0.0 0.0 0.0 
0.0 7.170444094079e-04 0.0 
7.170444094079e-04 3.535514261432e-03 0.0 
0.0 0.0 0.0 
2.393109295301e-03 2.672524671292e-03 0.0 
2.672524671292e-03 -1.902358066812e-03 0.0 
0.0 0.0 0.0 
3.551924377761e-03 -1.388550407339e-03 0.0 
-1.388550407339e-03 -3.280455085263e-03 0.0 
0.0 0.0 0.0 
3.107738984190e-03 -1.892499502722e-03 0.0 
-1.892499502722e-03 -2.675286362617e-03 0.0 
0.0 0.0 0.0 
-1.071851622010e-03 6.518278386346e-04 0.0 
6.518278386346e-04 5.825080176815e-03 0.0 
0.0 0.0 0.0 
3.261420578902e-04 -5.214576885401e-04 0.0 
-5.214576885401e-04 3.697894145294e-03 0.0 
0.0 0.0 0.0 
-8.477833333900e-04 -3.391984590628e-03 0.0 
-3.391984590628e-03 -1.237579629797e-04 0.0 
0.0 0.0 0.0 
0.0 1.516578912219e-04 0.0 
1.516578912219e-04 3.480897117754e-03 0.0 
0.0 0.0 0.0 
2.537921986033e-03 -2.396382322639e-03 0.0 
-2.396382322639e-03 -2.142783134444e-03 0.0 
0.0 0.0 0.0 
0.0 2.181460523617e-03 0.0 
2.181460523617e-03 5.812003395449e-03 0.0 
0.0 0.0 0.0 
-3.943428611642e-04 1.915208904025e-03 0.0 
1.915208904025e-03 5.310672285214e-03 0.0 
0.0 0.0 0.0 
2.674861426439e-04 -5.477268403316e-05 0.0 
-5.477268403316e-05 2.773284764590e-05 0.0 
0.0 0.0 0.0 
1.244067261201e-03 2.559721494031e-03 0.0 
2.559721494031e-03 -4.739821128023e-04 0.0 
0.0 0.0 0.0 
-7.357871862471e-04 1.246067143850e-03 0.0 
1.246067143850e-03 6.545155811734e-03 0.0 
0.0 0.0 0.0 
0.0 2.182640918965e-03 0.0 
2.182640918965e-03 5.283604771193e-03 0.0 
0.0 0.0 0.0 
-7.001902382551e-04 1.988287109865e-03 0.0 
1.988287109865e-03 4.092075461501e-03 0.0 
0.0 0.0 0.0 
1.171844569897e-03 1.941252014673e-03 0.0 
1.941252014673e-03 1.463695390934e-03 0.0 
0.0 0.0 0.0 
1.215511641615e-03 3.127650904466e-03 0.0 
3.127650904466e-03 -2.014967282797e-03 0.0 
0.0 0.0 0.0 
8.657538672370e-04 1.205784275837e-04 0.0 
1.205784275837e-04 2.204127871255e-03 0.0 
0.0 0.0 0.0 
1.981461503257e-03 -2.556661280447e-03 0.0 
-2.556661280447e-03 -1.444457071456e-03 0.0 
0.0 0.0 0.0 
2.606100617580e-03 -2.359340594226e-03 0.0 
-2.359340594226e-03 -2.610707250914e-03 0.0 
0.0 0.0 0.0 
-1.485823430853e-03 -3.268922742619e-03 0.0 
-3.268922742619e-03 -1.808896808860e-04 0.0 
0.0 0.0 0.0 
0.0 2.060642355461e-03 0.0 
2.060642355461e-03 4.753030633804e-03 0.0 
0.0 0.0 0.0 
3.061649444083e-03 2.000855628660e-03 0.0 
2.000855628660e-03 -3.180689297766e-03 0.0 
0.0 0.0 0.0 
1.241194060107e-03 -7.679679351544e-04 0.0 
-7.679679351544e-04 1.428112372772e-03 0.0 
0.0 0.0 0.0 
-1.256757781988e-03 5.530798314551e-04 0.0 
5.530798314551e-04 5.470990814481e-03 0.0 
0.0 0.0 0.0 
3.968636577214e-04 -2.708843137209e-03 0.0 
-2.708843137209e-03 -9.244351441196e-05 0.0 
0.0 0.0 0.0 
3.123814885848e-03 -2.050539162346e-03 0.0 
-2.050539162346e-03 -3.182751562347e-03 0.0 
0.0 0.0 0.0 
-6.254244846287e-04 2.126219463346e-03 0.0 
2.126219463346e-03 3.650708628166e-03 0.0 
0.0 0.0 0.0 
0.0 1.419735399545e-03 0.0 
1.419735399545e-03 3.894975839219e-03 0.0 
0.0 0.0 0.0 
-1.377705222708e-03 -1.530466774659e-03 0.0 
-1.530466774659e-03 2.963551705066e-03 0.0 
0.0 0.0 0.0 
1.136192984730e-03 -1.550925777965e-03 0.0 
-1.550925777965e-03 6.752939512282e-04 0.0 
0.0 0.0 0.0 
7.223791536040e-04 2.560943221596e-03 0.0 
2.560943221596e-03 7.864458143110e-04 0.0 
0.0 0.0 0.0 
2.373329991320e-03 -1.247227655770e-03 0.0 
-1.247227655770e-03 -1.352790146906e-03 0.0 
0.0 0.0 0.0 
3.604209283141e-03 -1.395744837131e-03 0.0 
-1.395744837131e-03 -3.474021333069e-03 0.0 
0.0 0.0 0.0 
1.262190037494e-03 -1.825004252951e-03 0.0 
-1.825004252951e-03 7.789855477025e-05 0.0 
0.0 0.0 0.0 
5.227947825723e-04 2.553524257132e-03 0.0 
2.553524257132e-03 1.197555968738e-03 0.0 
0.0 0.0 0.0 
4.734060137284e-04 2.262407175599e-03 0.0 
2.262407175599e-03 2.655207759191e-03 0.0 
0.0 0.0 0.0 
2.204212781186e-03 9.972711286109e-04 0.0 
9.972711286109e-04 -2.405648245591e-04 0.0 
0.0 0.0 0.0 
1.032261220819e-03 2.564822172389e-03 0.0 
2.564822172389e-03 1.774880827292e-04 0.0 
0.0 0.0 0.0 
-2.262470226211e-04 -2.283046800638e-03 0.0 
-2.283046800638e-03 1.480638758009e-03 0.0 
0.0 0.0 0.0 
2.008988761878e-03 2.732384323469e-03 0.0 
2.732384323469e-03 -1.411258344648e-03 0.0 
0.0 0.0 0.0 
-1.148255491676e-03 -1.769338746078e-03 0.0 
-1.769338746078e-03 2.569601788689e-03 0.0 
0.0 0.0 0.0 
1.223998624164e-03 2.027044001263e-03 0.0 
2.027044001263e-03 1.602633176438e-03 0.0 
0.0 0.0 0.0 
3.425846141358e-03 8.458768418746e-04 0.0 
8.458768418746e-04 -2.534265184567e-03 0.0 
0.0 0.0 0.0 
4.400085497032e-04 -3.962268375005e-06 0.0 
-3.962268375005e-06 3.513456933843e-03 0.0 
0.0 0.0 0.0 
-6.479913734091e-04 1.386317152905e-03 0.0 
1.386317152905e-03 6.537260195808e-03 0.0 
0.0 0.0 0.0 
1.407191162817e-04 -2.566090472319e-03 0.0 
-2.566090472319e-03 4.748938782149e-04 0.0 
0.0 0.0 0.0 
0.0 4.238049708510e-04 0.0 
4.238049708510e-04 3.452828933414e-03 0.0 
0.0 0.0 0.0 
8.657946300010e-04 1.326107368824e-04 0.0 
1.326107368824e-04 2.826564754419e-03 0.0 
0.0 0.0 0.0 
2.264239579050e-03 2.365150131153e-03 0.0 
2.365150131153e-03 -1.568916851471e-03 0.0 
0.0 0.0 0.0 
-7.692696090090e-04 -2.230326276240e-03 0.0 
-2.230326276240e-03 8.134326982612e-04 0.0 
0.0 0.0 0.0 
3.225697000944e-04 -7.170519589233e-04 0.0 
-7.170519589233e-04 3.856114511920e-03 0.0 
0.0 0.0 0.0 
-6.109560326460e-04 1.576356322479e-03 0.0 
1.576356322479e-03 6.203819453896e-03 0.0 
0.0 0.0 0.0 
1.904313890277e-03 -2.786696353484e-03 0.0 
-2.786696353484e-03 -1.448979504884e-03 0.0 
0.0 0.0 0.0 
0.0 -3.561647042205e-04 0.0 
-3.561647042205e-04 3.617498365798e-03 0.0 
0.0 0.0 0.0 
8.534512248435e-04 -1.805197579038e-03 0.0 
-1.805197579038e-03 8.003095520990e-04 0.0 
0.0 0.0 0.0 
-1.857090999733e-04 2.271158691835e-03 0.0 
2.271158691835e-03 1.436616426542e-03 0.0 
0.0 0.0 0.0 
-1.189765193984e-03 1.413728172333e-03 0.0 
1.413728172333e-03 4.542986703211e-03 0.0 
0.0 0.0 0.0 
3.553588217005e-03 9.545109549730e-04 0.0 
9.545109549730e-04 -2.491725506180e-03 0.0 
0.0 0.0 0.0 
1.006703576258e-03 -2.153808953794e-03 0.0 
-2.153808953794e-03 -6.659389125230e-05 0.0 
0.0 0.0 0.0 
2.470438834336e-03 -7.845169809100e-04 0.0 
-7.845169809100e-04 -1.175574491969e-03 0.0 
0.0 0.0 0.0 
-1.061005284342e-03 1.358047297685e-03 0.0 
1.358047297685e-03 5.399029777311e-03 0.0 
0.0 0.0 0.0 
-5.723711408492e-04 2.052793840082e-03 0.0 
2.052793840082e-03 2.355899266671e-03 0.0 
0.0 0.0 0.0 
1.895700133336e-03 1.211763543937e-03 0.0 
1.211763543937e-03 3.482802504093e-04 0.0 
0.0 0.0 0.0 
-1.005767837964e-03 1.177509272241e-04 0.0 
1.177509272241e-04 5.846374544763e-03 0.0 
0.0 0.0 0.0 
-4.656157754742e-04 -2.201310286188e-03 0.0 
-2.201310286188e-03 1.469714567686e-03 0.0 
0.0 0.0 0.0 
2.520805004468e-03 7.111891580871e-04 0.0 
7.111891580871e-04 -8.104274482478e-04 0.0 
0.0 0.0 0.0 
1.465726637369e-03 -2.709800255391e-03 0.0 
-2.709800255391e-03 -1.422899143579e-03 0.0 
0.0 0.0 0.0 
-7.138705386512e-04 -1.493054803703e-03 0.0 
-1.493054803703e-03 3.296731031717e-03 0.0 
0.0 0.0 0.0 
1.615442796965e-04 -1.909290745243e-04 0.0 
-1.909290745243e-04 -2.884057067876e-05 0.0 
0.0 0.0 0.0 
1.616408376952e-03 2.743283596095e-03 0.0 
2.743283596095e-03 -9.526806204911e-04 0.0 
0.0 0.0 0.0 
2.013782384757e-03 -2.747599474700e-03 0.0 
-2.747599474700e-03 -2.090321857457e-03 0.0 
0.0 0.0 0.0 
-8.869748871252e-04 -1.888961441715e-03 0.0 
-1.888961441715e-03 2.529505624149e-03 0.0 
0.0 0.0 0.0 
1.781385023947e-03 2.390255093214e-03 0.0 
2.390255093214e-03 -8.635183965560e-04 0.0 
0.0 0.0 0.0 
1.200155217435e-03 -1.639375530417e-03 0.0 
-1.639375530417e-03 7.739940845854e-04 0.0 
0.0 0.0 0.0 
-1.189342337525e-03 5.299070777813e-04 0.0 
5.299070777813e-04 5.727107062004e-03 0.0 
0.0 0.0 0.0 
1.377459420553e-03 -2.945798894550e-03 0.0 
-2.945798894550e-03 -1.421071452018e-03 0.0 
0.0 0.0 0.0 
0.0 -5.554815558344e-04 0.0 
-5.554815558344e-04 3.778968511774e-03 0.0 
0.0 0.0 0.0 
-1.968109398726e-04 2.343551943751e-03 0.0 
2.343551943751e-03 2.891057654188e-03 0.0 
0.0 0.0 0.0 
-1.137295190719e-03 -1.658122996712e-03 0.0 
-1.658122996712e-03 2.999611459718e-03 0.0 
0.0 0.0 0.0 
8.468110964666e-06 2.430305854018e-03 0.0 
2.430305854018e-03 2.347363754589e-03 0.0 
0.0 0.0 0.0 
-1.061903940524e-03 -1.767868640255e-03 0.0 
-1.767868640255e-03 2.512450474278e-03 0.0 
0.0 0.0 0.0 
-5.833678595620e-04 -8.348034263743e-05 0.0 
-8.348034263743e-05 3.481803491538e-04 0.0 
0.0 0.0 0.0 
-1.224242166841e-03 1.376398959026e-03 0.0 
1.376398959026e-03 4.835807886516e-03 0.0 
0.0 0.0 0.0 
-1.838996382323e-03 -6.094093594216e-04 0.0 
-6.094093594216e-04 3.513425805465e-03 0.0 
0.0 0.0 0.0 
1.256776453084e-03 -1.119792879691e-04 0.0 
-1.119792879691e-04 -4.220191441011e-04 0.0 
0.0 0.0 0.0 
-1.377854148301e-03 -1.488691903748e-03 0.0 
-1.488691903748e-03 3.191509409747e-03 0.0 
0.0 0.0 0.0 
1.073262636625e-03 -1.377515713635e-03 0.0 
-1.377515713635e-03 1.326957393663e-03 0.0 
0.0 0.0 0.0 
-5.840243015346e-04 4.509481331092e-04 0.0 
4.509481331092e-04 7.109713912443e-03 0.0 
0.0 0.0 0.0 
2.835758412676e-03 -9.173954308322e-04 0.0 
-9.173954308322e-04 -1.915130495845e-03 0.0 
0.0 0.0 0.0 
2.628794096074e-03 -8.972125414955e-04 0.0 
-8.972125414955e-04 -1.414846976593e-03 0.0 
0.0 0.0 0.0 
-1.447180762785e-03 1.170145725180e-03 0.0 
1.170145725180e-03 4.343522808381e-03 0.0 
0.0 0.0 0.0 
-1.361584004812e-03 5.102927996441e-04 0.0 
5.102927996441e-04 4.677525853481e-03 0.0 
0.0 0.0 0.0 
-2.137520681486e-04 1.404849045611e-03 0.0 
1.404849045611e-03 7.069066841988e-03 0.0 
0.0 0.0 0.0 
2.446542468320e-04 2.503829965462e-03 0.0 
2.503829965462e-03 1.779244177989e-03 0.0 
0.0 0.0 0.0 
1.999589856734e-03 -1.420878727900e-04 0.0 
-1.420878727900e-04 -7.040505487423e-04 0.0 
0.0 0.0 0.0 
-3.220317790489e-04 -1.337568272369e-03 0.0 
-1.337568272369e-03 1.067224199794e-03 0.0 
0.0 0.0 0.0 
-8.299788526950e-04 -1.301253245200e-03 0.0 
-1.301253245200e-03 8.852514456295e-04 0.0 
0.0 0.0 0.0 
-2.139407518749e-04 -2.339097894678e-03 0.0 
-2.339097894678e-03 8.282057748437e-04 0.0 
0.0 0.0 0.0 
5.576092260551e-05 2.068581951505e-03 0.0 
2.068581951505e-03 4.169261793243e-03 0.0 
0.0 0.0 0.0 
-6.527298620417e-04 4.211954106691e-04 0.0 
4.211954106691e-04 7.113521269248e-03 0.0 
0.0 0.0 0.0 
1.320325595673e-04 -1.239844722964e-03 0.0 
-1.239844722964e-03 3.160974645490e-03 0.0 
0.0 0.0 0.0 
-6.484194504651e-04 -1.948570284578e-03 0.0 
-1.948570284578e-03 1.550174503637e-03 0.0 
0.0 0.0 0.0 
-9.280324559301e-04 -1.450815626973e-03 0.0 
-1.450815626973e-03 3.291318403934e-03 0.0 
0.0 0.0 0.0 
1.074729946733e-03 -7.136825257585e-04 0.0 
-7.136825257585e-04 1.942623511502e-03 0.0 
0.0 0.0 0.0 
2.845280686922e-03 1.970801728803e-04 0.0 
1.970801728803e-04 -4.437450848992e-03 0.0 
0.0 0.0 0.0 
-1.832654073035e-03 -3.629857328758e-04 0.0 
-3.629857328758e-04 3.508993255265e-03 0.0 
0.0 0.0 0.0 
-1.637829986987e-03 -3.350611294805e-04 0.0 
-3.350611294805e-04 3.096688398057e-03 0.0 
0.0 0.0 0.0 
2.222884370997e-04 -8.975598706517e-04 0.0 
-8.975598706517e-04 4.028065959154e-03 0.0 
0.0 0.0 0.0 
0.0 -7.517992090030e-04 0.0 
-7.517992090030e-04 3.933117824061e-03 0.0 
0.0 0.0 0.0 
-1.902335675662e-03 -3.876115705375e-04 0.0 
-3.876115705375e-04 3.745308893865e-03 0.0 
0.0 0.0 0.0 
-1.292482888006e-03 -1.527014073578e-03 0.0 
-1.527014073578e-03 2.980504717448e-03 0.0 
0.0 0.0 0.0 
8.723341231178e-04 -2.025005189078e-03 0.0 
-2.025005189078e-03 5.995921905877e-04 0.0 
0.0 0.0 0.0 
1.082808334949e-03 -4.890386773997e-04 0.0 
-4.890386773997e-04 2.075349846865e-03 0.0 
0.0 0.0 0.0 
-6.015446855986e-04 -1.465675278528e-03 0.0 
-1.465675278528e-03 1.230929892968e-03 0.0 
0.0 0.0 0.0 
1.032630740422e-03 -9.443155444825e-04 0.0 
-9.443155444825e-04 1.872907636917e-03 0.0 
0.0 0.0 0.0 
9.720822844248e-04 -3.393056064804e-04 0.0 
-3.393056064804e-04 3.482558778358e-04 0.0 
0.0 0.0 0.0 
-1.286590191895e-03 -1.573473032774e-03 0.0 
-1.573473032774e-03 2.751850765437e-03 0.0 
0.0 0.0 0.0 
-7.891818896509e-04 -1.917826338989e-03 0.0 
-1.917826338989e-03 2.231260014551e-03 0.0 
0.0 0.0 0.0 
1.130289982814e-03 -1.710217485577e-04 0.0 
-1.710217485577e-04 -8.455048599498e-05 0.0 
0.0 0.0 0.0 
-1.908399211148e-03 -3.684476869986e-04 0.0 
-3.684476869986e-04 3.698605132290e-03 0.0 
0.0 0.0 0.0 
-5.439063713775e-04 1.387336071839e-03 0.0 
1.387336071839e-03 6.536295128251e-03 0.0 
0.0 0.0 0.0 
2.199209921421e-03 -8.623479072448e-05 0.0 
-8.623479072448e-05 -7.758956065964e-04 0.0 
0.0 0.0 0.0 
-1.391943414833e-03 6.245926560446e-04 0.0 
6.245926560446e-04 4.605667981815e-03 0.0 
0.0 0.0 0.0 
-1.429769021349e-03 7.307670175018e-04 0.0 
7.307670175018e-04 4.505290340403e-03 0.0 
0.0 0.0 0.0 
2.473171814279e-03 -3.186252183426e-04 0.0 
-3.186252183426e-04 -8.598070157504e-04 0.0 
0.0 0.0 0.0 
-1.592090243621e-03 -7.247301050955e-05 0.0 
-7.247301050955e-05 3.106354674687e-03 0.0 
0.0 0.0 0.0 
1.349897193547e-03 -2.741747329036e-03 0.0 
-2.741747329036e-03 -7.683202108738e-04 0.0 
0.0 0.0 0.0 
9.271175558574e-04 2.874292046066e-03 0.0 
2.874292046066e-03 -8.232611012953e-04 0.0 
0.0 0.0 0.0 
-8.484386448415e-05 -1.057320175190e-03 0.0 
-1.057320175190e-03 4.074032161297e-03 0.0 
0.0 0.0 0.0 
1.256498376612e-04 2.013486402243e-03 0.0 
2.013486402243e-03 4.448241036989e-03 0.0 
0.0 0.0 0.0 
-8.026178804641e-04 6.230677304055e-04 0.0 
6.230677304055e-04 6.813235051315e-03 0.0 
0.0 0.0 0.0 
3.220425116688e-04 2.517201039338e-03 0.0 
2.517201039338e-03 2.653744736292e-04 0.0 
0.0 0.0 0.0 
-5.397760155824e-04 -1.115781416387e-03 0.0 
-1.115781416387e-03 9.232106773327e-04 0.0 
0.0 0.0 0.0 
-9.386727137894e-04 1.869073339707e-03 0.0 
1.869073339707e-03 3.034864476218e-03 0.0 
0.0 0.0 0.0 
-1.236345406633e-03 2.678014245775e-04 0.0 
2.678014245775e-04 4.806583836769e-03 0.0 
0.0 0.0 0.0 
-1.224086075855e-03 2.486529893665e-04 0.0 
2.486529893665e-04 4.779773942077e-03 0.0 
0.0 0.0 0.0 
1.438904349022e-03 -1.021697931858e-04 0.0 
-1.021697931858e-04 -5.035705146899e-04 0.0 
0.0 0.0 0.0 
9.723698661117e-04 -2.325799197974e-04 0.0 
-2.325799197974e-04 -1.504867881230e-05 0.0 
0.0 0.0 0.0 
6.554052714081e-04 -1.514440881185e-04 0.0 
-1.514440881185e-04 4.865781236281e-04 0.0 
0.0 0.0 0.0 
-7.502219246861e-04 -1.663714789876e-03 0.0 
-1.663714789876e-03 1.631132148286e-03 0.0 
0.0 0.0 0.0 
1.794131660314e-03 -1.477916963580e-04 0.0 
-1.477916963580e-04 -3.327340703313e-04 0.0 
0.0 0.0 0.0 
-1.925699986479e-03 -3.599639304656e-04 0.0 
-3.599639304656e-04 3.933817437568e-03 0.0 
0.0 0.0 0.0 
-1.236812757981e-03 -1.209115263974e-03 0.0 
-1.209115263974e-03 -1.878642626658e-03 0.0 
0.0 0.0 0.0 
-8.076218763496e-04 -1.845819078072e-03 0.0 
-1.845819078072e-03 1.808845546743e-03 0.0 
0.0 0.0 0.0 
-8.889520898859e-04 1.495739674055e-04 0.0 
1.495739674055e-04 6.170707887471e-03 0.0 
0.0 0.0 0.0 
-1.369718844022e-03 4.910732302299e-04 0.0 
4.910732302299e-04 4.657563470971e-03 0.0 
0.0 0.0 0.0 
-6.772190156867e-05 2.045106889444e-03 0.0 
2.045106889444e-03 4.657394609603e-03 0.0 
0.0 0.0 0.0 
8.169503844420e-04 -1.603618443530e-03 0.0 
-1.603618443530e-03 1.469422074267e-03 0.0 
0.0 0.0 0.0 
-9.482005700188e-04 1.104929532061e-04 0.0 
1.104929532061e-04 5.844326400090e-03 0.0 
0.0 0.0 0.0 
-1.728737751224e-03 -1.333775165216e-04 0.0 
-1.333775165216e-04 3.284883568226e-03 0.0 
0.0 0.0 0.0 
1.245114302181e-03 -1.873510995053e-04 0.0 
-1.873510995053e-04 2.505487618798e-04 0.0 
0.0 0.0 0.0 
0.0 8.095004890609e-04 0.0 
8.095004890609e-04 7.792975657379e-03 0.0 
0.0 0.0 0.0 
-2.031219521003e-04 9.007670373916e-04 0.0 
9.007670373916e-04 7.756085226691e-03 0.0 
0.0 0.0 0.0 
-1.148537742824e-03 5.498830877350e-04 0.0 
5.498830877350e-04 5.471078583272e-03 0.0 
0.0 0.0 0.0 
-1.286601625044e-03 3.306960949062e-04 0.0 
3.306960949062e-04 4.770960119552e-03 0.0 
0.0 0.0 0.0 
-1.682235856731e-03 -3.146831649554e-04 0.0 
-3.146831649554e-04 3.251573789086e-03 0.0 
0.0 0.0 0.0 
-1.857948865011e-04 6.507194036472e-04 0.0 
6.507194036472e-04 7.876430653249e-03 0.0 
0.0 0.0 0.0 
-5.746262324433e-04 -1.803359286483e-03 0.0 
-1.803359286483e-03 1.445316171527e-03 0.0 
0.0 0.0 0.0 
-1.406714164230e-03 6.034130178656e-04 0.0 
6.034130178656e-04 4.585941516205e-03 0.0 
0.0 0.0 0.0 
-1.327335719654e-03 4.160581371616e-04 0.0 
4.160581371616e-04 4.731756089839e-03 0.0 
0.0 0.0 0.0 
-1.087076626691e-03 1.483527485371e-03 0.0 
1.483527485371e-03 3.256156057402e-03 0.0 
0.0 0.0 0.0 
0.0 1.548661708315e-03 0.0 
1.548661708315e-03 7.204396009297e-03 0.0 
0.0 0.0 0.0 
-2.014510126914e-04 7.783395709701e-04 0.0 
7.783395709701e-04 7.823975799247e-03 0.0 
0.0 0.0 0.0 
1.655165375213e-03 -1.946612360966e-04 0.0 
-1.946612360966e-04 -2.881160690564e-04 0.0 
0.0 0.0 0.0 
1.655064234578e-03 -8.670666843442e-05 0.0 
-8.670666843442e-05 -5.950802073501e-04 0.0 
0.0 0.0 0.0 
-5.417394930197e-04 -1.085279036399e-03 0.0 
-1.085279036399e-03 1.030051864182e-03 0.0 
0.0 0.0 0.0 
-5.776680167241e-04 -1.996730084965e-03 0.0 
-1.996730084965e-03 2.241828160450e-03 0.0 
0.0 0.0 0.0 
-6.937888785364e-04 -1.587661524962e-04 0.0 
-1.587661524962e-04 5.647307406022e-03 0.0 
0.0 0.0 0.0 
-3.823828192859e-03 -2.025254518409e-03 0.0 
-2.025254518409e-03 -1.860680983407e-03 0.0 
0.0 0.0 0.0 
-6.939129431939e-04 4.588850659054e-05 0.0 
4.588850659054e-05 6.916569673751e-03 0.0 
0.0 0.0 0.0 
-1.440323684639e-03 -1.107317920954e-03 0.0 
-1.107317920954e-03 6.808147933290e-04 0.0 
0.0 0.0 0.0 
2.334756449825e-03 -7.053402697083e-04 0.0 
-7.053402697083e-04 -6.535881507344e-04 0.0 
0.0 0.0 0.0 
-4.874683831594e-04 -6.935771132519e-04 0.0 
-6.935771132519e-04 -1.136274367202e-04 0.0 
0.0 0.0 0.0 
-2.059898721252e-03 -2.276457547357e-03 0.0 
-2.276457547357e-03 -5.151672332947e-04 0.0 
0.0 0.0 0.0 
2.248741715859e-03 -1.135342611126e-03 0.0 
-1.135342611126e-03 -7.583628019572e-04 0.0 
0.0 0.0 0.0 
-6.706407886021e-04 -6.140647203888e-04 0.0 
-6.140647203888e-04 5.260457232698e-03 0.0 
0.0 0.0 0.0 
-9.517986154346e-04 1.081731491782e-04 0.0 
1.081731491782e-04 6.143456367624e-03 0.0 
0.0 0.0 0.0 
-7.004777221103e-04 2.087169547361e-03 0.0 
2.087169547361e-03 2.789018104506e-03 0.0 
0.0 0.0 0.0 
1.245658012391e-03 -1.274437953758e-04 0.0 
-1.274437953758e-04 -1.331735905844e-04 0.0 
0.0 0.0 0.0 
-1.085859533425e-03 -1.220353438052e-03 0.0 
-1.220353438052e-03 3.742884830464e-03 0.0 
0.0 0.0 0.0 
0.0 2.629122154519e-04 0.0 
2.629122154519e-04 7.966955940747e-03 0.0 
0.0 0.0 0.0 
-1.780675433666e-04 2.954449206255e-04 0.0 
2.954449206255e-04 7.971479668978e-03 0.0 
0.0 0.0 0.0 
-1.318336962852e-03 3.962206426697e-04 0.0 
3.962206426697e-04 4.705855839000e-03 0.0 
0.0 0.0 0.0 
2.301211159319e-03 -2.981177793847e-04 0.0 
-2.981177793847e-04 -4.313370198772e-04 0.0 
0.0 0.0 0.0 
0.0 6.894931973703e-04 0.0 
6.894931973703e-04 7.857058096555e-03 0.0 
0.0 0.0 0.0 
1.370805558145e-03 1.817582212477e-03 0.0 
1.817582212477e-03 1.480606585160e-03 0.0 
0.0 0.0 0.0 
1.313283725024e-03 -9.602826673187e-05 0.0 
-9.602826673187e-05 1.982866517285e-04 0.0 
0.0 0.0 0.0 
1.897911816470e-03 -1.013187044137e-04 0.0 
-1.013187044137e-04 -3.800938683890e-04 0.0 
0.0 0.0 0.0 
1.328400089034e-03 -2.857275530772e-05 0.0 
-2.857275530772e-05 -1.427861891631e-04 0.0 
0.0 0.0 0.0 
-1.881319422276e-03 -1.271144888293e-04 0.0 
-1.271144888293e-04 3.586876724510e-03 0.0 
0.0 0.0 0.0 
-2.525071465269e-04 -6.159244068753e-04 0.0 
-6.159244068753e-04 5.755623740007e-03 0.0 
0.0 0.0 0.0 
-3.095398930064e-04 -1.615710096375e-05 0.0 
-1.615710096375e-05 7.696891103375e-03 0.0 
0.0 0.0 0.0 
1.899370648249e-03 -6.662417004287e-05 0.0 
-6.662417004287e-05 -7.089673705806e-04 0.0 
0.0 0.0 0.0 
-1.944319211955e-03 -1.441172768523e-04 0.0 
-1.441172768523e-04 3.933506150507e-03 0.0 
0.0 0.0 0.0 
0.0 -4.717872609791e-04 0.0 
-4.717872609791e-04 5.834238473642e-03 0.0 
0.0 0.0 0.0 
-2.607226868844e-04 -7.450855213603e-04 0.0 
-7.450855213603e-04 5.641493520012e-03 0.0 
0.0 0.0 0.0 
1.975635946350e-04 -1.031534645044e-03 0.0 
-1.031534645044e-03 4.224803071242e-03 0.0 
0.0 0.0 0.0 
-7.980676481980e-04 7.415428304694e-05 0.0 
7.415428304694e-05 6.586551431480e-03 0.0 
0.0 0.0 0.0 
-6.241165565506e-04 -1.890348119829e-05 0.0 
-1.890348119829e-05 7.084275511675e-03 0.0 
0.0 0.0 0.0 
0.0 -6.168839430748e-04 0.0 
-6.168839430748e-04 5.703537134728e-03 0.0 
0.0 0.0 0.0 
0.0 -7.643028746383e-04 0.0 
-7.643028746383e-04 5.576776245893e-03 0.0 
0.0 0.0 0.0 
-6.828830945572e-04 8.026495358126e-05 0.0 
8.026495358126e-05 6.917778753760e-03 0.0 
0.0 0.0 0.0 
2.663988262611e-03 4.942632493532e-06 0.0 
4.942632493532e-06 -1.015835542165e-03 0.0 
0.0 0.0 0.0 
-1.141326611863e-03 1.549843511151e-04 0.0 
1.549843511151e-04 4.804582757547e-03 0.0 
0.0 0.0 0.0 
-1.272707909838e-03 3.212199688020e-04 0.0 
3.212199688020e-04 4.756970563609e-03 0.0 
0.0 0.0 0.0 
1.794732928534e-03 -6.934559505197e-05 0.0 
-6.934559505197e-05 -6.557544572788e-04 0.0 
0.0 0.0 0.0 
0.0 -1.048939460968e-03 0.0 
-1.048939460968e-03 5.035459594396e-03 0.0 
0.0 0.0 0.0 
9.323695819718e-05 -1.117555678939e-03 0.0 
-1.117555678939e-03 4.439005876180e-03 0.0 
0.0 0.0 0.0 
0.0 -1.046156164495e-03 0.0 
-1.046156164495e-03 4.545770298477e-03 0.0 
0.0 0.0 0.0 
2.511334788978e-03 -5.526807498539e-05 0.0 
-5.526807498539e-05 -9.066619256971e-04 0.0 
0.0 0.0 0.0 
2.370198605680e-03 -7.198777947045e-05 0.0 
-7.198777947045e-05 -8.505056487919e-04 0.0 
0.0 0.0 0.0 
0.0 -8.829263129933e-04 0.0 
-8.829263129933e-04 4.119059481761e-03 0.0 
0.0 0.0 0.0 
0.0 -9.924303803013e-04 0.0 
-9.924303803013e-04 4.322093122591e-03 0.0 
0.0 0.0 0.0 
-8.511582847459e-04 -2.274674157645e-05 0.0 
-2.274674157645e-05 6.411131365129e-03 0.0 
0.0 0.0 0.0 
-1.059127136025e-03 6.923174601660e-05 0.0 
6.923174601660e-05 4.820797991174e-03 0.0 
0.0 0.0 0.0 
-7.451020967529e-04 -2.052389908218e-05 0.0 
-2.052389908218e-05 6.754987181836e-03 0.0 
0.0 0.0 0.0 
-9.842573488615e-04 -2.439918685528e-05 0.0 
-2.439918685528e-05 5.673959568430e-03 0.0 
0.0 0.0 0.0 
-1.022659814171e-03 2.768664322736e-05 0.0 
2.768664322736e-05 4.821770154255e-03 0.0 
0.0 0.0 0.0 
1.714073699523e-03 -1.662911238232e-04 0.0 
-1.662911238232e-04 -5.816901135359e-04 0.0 
0.0 0.0 0.0 
1.014888132496e-03 -1.298673685396e-04 0.0 
-1.298673685396e-04 -2.347013470281e-04 0.0 
0.0 0.0 0.0 
7.718955239964e-04 -1.219663002121e-04 0.0 
-1.219663002121e-04 -1.321494189752e-04 0.0 
0.0 0.0 0.0 
4.753375672633e-04 -8.414445966193e-05 0.0 
-8.414445966193e-05 2.475036268423e-05 0.0 
0.0 0.0 0.0 
-1.944376690372e-03 -1.015208685140e-04 0.0 
-1.015208685140e-04 4.075135904724e-03 0.0 
0.0 0.0 0.0 
-1.944264474821e-03 -1.177742452959e-04 0.0 
-1.177742452959e-04 3.841467595582e-03 0.0 
0.0 0.0 0.0 
1.960413367625e-04 -1.336801614227e-04 0.0 
-1.336801614227e-04 4.265021887773e-05 0.0 
0.0 0.0 0.0 
-1.668750397517e-03 -6.467546165908e-05 0.0 
-6.467546165908e-05 4.694432702077e-03 0.0 
0.0 0.0 0.0 
-6.107244346720e-05 -1.278110004047e-04 0.0 
-1.278110004047e-04 1.590847871185e-04 0.0 
0.0 0.0 0.0 
0.0 1.300373583444e-03 0.0 
1.300373583444e-03 7.454853772937e-03 0.0 
0.0 0.0 0.0 
0.0 5.810095671434e-04 0.0 
5.810095671434e-04 7.895197267281e-03 0.0 
0.0 0.0 0.0 
0.0 9.340105414274e-04 0.0 
9.340105414274e-04 7.716540218431e-03 0.0 
0.0 0.0 0.0 
8.420069217219e-05 -1.244729435813e-04 0.0 
-1.244729435813e-04 1.259809509331e-03 0.0 
0.0 0.0 0.0 
-1.464987167123e-03 -1.329265767091e-04 0.0 
-1.329265767091e-04 2.912797970408e-03 0.0 
0.0 0.0 0.0 
0.0 4.630140754879e-04 0.0 
4.630140754879e-04 7.916103473009e-03 0.0 
0.0 0.0 0.0 
-1.089839508216e-03 -2.241343662981e-05 0.0 
-2.241343662981e-05 5.348289426289e-03 0.0 
0.0 0.0 0.0 
0.0 3.660760575615e-04 0.0 
3.660760575615e-04 7.979284874637e-03 0.0 
0.0 0.0 0.0 
-8.366365859290e-04 -1.073082672344e-05 0.0 
-1.073082672344e-05 5.559254918709e-03 0.0 
0.0 0.0 0.0 
-5.411596868543e-04 -8.538076545961e-06 0.0 
-8.538076545961e-06 5.747044087647e-03 0.0 
0.0 0.0 0.0 
-1.912676449775e-03 -1.321726163753e-04 0.0 
-1.321726163753e-04 3.698517182840e-03 0.0 
0.0 0.0 0.0 
-2.079307304870e-04 5.285627203402e-04 0.0 
5.285627203402e-04 7.906121537652e-03 0.0 
0.0 0.0 0.0 
-1.707666036088e-04 4.541327242822e-04 0.0 
4.541327242822e-04 7.940027734045e-03 0.0 
0.0 0.0 0.0 
-9.517560547331e-04 -1.551406188247e-04 0.0 
-1.551406188247e-04 5.424160228260e-03 0.0 
0.0 0.0 0.0 
-6.856685313688e-04 -1.611096763884e-04 0.0 
-1.611096763884e-04 5.647433553788e-03 0.0 
0.0 0.0 0.0 
-1.277925376474e-03 -7.687580608477e-04 0.0 
-7.687580608477e-04 4.483339646751e-03 0.0 
0.0 0.0 0.0 
-9.609545860215e-04 -3.127600569177e-04 0.0 
-3.127600569177e-04 4.846551303082e-04 0.0 
0.0 0.0 0.0 
-1.458866887547e-03 -1.344121446063e-03 0.0 
-1.344121446063e-03 2.937650869223e-03 0.0 
0.0 0.0 0.0 
1.447191829388e-03 -2.655503118288e-04 0.0 
-2.655503118288e-04 -1.876486383020e-04 0.0 
0.0 0.0 0.0 
-1.973870983691e-04 -1.113644982445e-03 0.0 
-1.113644982445e-03 4.080019170217e-03 0.0 
0.0 0.0 0.0 
-1.159065454386e-03 -1.730198907600e-03 0.0 
-1.730198907600e-03 2.774851249019e-03 0.0 
0.0 0.0 0.0 
-7.906140598565e-04 -8.201301777607e-04 0.0 
-8.201301777607e-04 4.701797650145e-03 0.0 
0.0 0.0 0.0 
-4.678149999248e-04 -1.561411173875e-03 0.0 
-1.561411173875e-03 1.329817834600e-03 0.0 
0.0 0.0 0.0 
1.863604297045e-04 -5.260539290556e-04 0.0 
-5.260539290556e-04 6.228033061628e-04 0.0 
0.0 0.0 0.0 
-7.378434418752e-04 -7.556543315442e-04 0.0 
-7.556543315442e-04 4.983310713254e-03 0.0 
0.0 0.0 0.0 
-1.490003575407e-03 -1.324584725418e-03 0.0 
-1.324584725418e-03 3.165882198042e-03 0.0 
0.0 0.0 0.0 
-1.806910244297e-03 -3.621702554188e-04 0.0 
-3.621702554188e-04 3.421194423484e-03 0.0 
0.0 0.0 0.0 
-9.114515711499e-04 -8.103408940600e-04 0.0 
-8.103408940600e-04 4.701004926029e-03 0.0 
0.0 0.0 0.0 
-4.636876391025e-04 2.344190596538e-04 0.0 
2.344190596538e-04 7.349392332300e-03 0.0 
0.0 0.0 0.0 
-1.804491376391e-03 -1.070387377247e-04 0.0 
-1.070387377247e-04 3.426021494401e-03 0.0 
0.0 0.0 0.0 
1.006017206040e-03 -1.299565381379e-03 0.0 
-1.299565381379e-03 1.287578943578e-03 0.0 
0.0 0.0 0.0 
-1.584712597983e-04 -1.702715418856e-03 0.0 
-1.702715418856e-03 2.546102805054e-03 0.0 
0.0 0.0 0.0 
-1.143392431989e-03 -8.307527037906e-04 0.0 
-8.307527037906e-04 4.492097628901e-03 0.0 
0.0 0.0 0.0 
-1.203657033100e-03 -6.179866420087e-04 0.0 
-6.179866420087e-04 4.772826309807e-03 0.0 
0.0 0.0 0.0 
3.933032402068e-03 1.317854418283e-03 0.0 
1.317854418283e-03 -3.533739695085e-03 0.0 
0.0 0.0 0.0 
-7.960552460252e-04 1.976640147082e-03 0.0 
1.976640147082e-03 2.629105698519e-03 0.0 
0.0 0.0 0.0 
1.637483991266e-03 2.448660528496e-03 0.0 
2.448660528496e-03 -3.838497882259e-04 0.0 
0.0 0.0 0.0 
-8.992339408939e-04 -1.272737107282e-03 0.0 
-1.272737107282e-03 3.749849458917e-03 0.0 
0.0 0.0 0.0 
-9.329593610062e-04 -6.385267428112e-04 0.0 
-6.385267428112e-04 5.004588554022e-03 0.0 
0.0 0.0 0.0 
-1.217932482785e-03 -4.169670192703e-04 0.0 
-4.169670192703e-04 5.001607820411e-03 0.0 
0.0 0.0 0.0 
-3.012019486494e-04 -2.273064799794e-03 0.0 
-2.273064799794e-03 9.089729437077e-04 0.0 
0.0 0.0 0.0 
-4.922405392492e-04 3.975535564297e-04 0.0 
3.975535564297e-04 7.298734031292e-03 0.0 
0.0 0.0 0.0 
-6.434277381565e-04 3.541736175641e-04 0.0 
3.541736175641e-04 6.990285419164e-03 0.0 
0.0 0.0 0.0 
-1.047075516893e-03 1.901617303610e-04 0.0 
1.901617303610e-04 5.362623004629e-03 0.0 
0.0 0.0 0.0 
-6.269968759958e-04 -1.322023920267e-03 0.0 
-1.322023920267e-03 3.595430043946e-03 0.0 
0.0 0.0 0.0 
-1.041783245972e-03 -1.049754633515e-03 0.0 
-1.049754633515e-03 4.147268540263e-03 0.0 
0.0 0.0 0.0 
-5.201910202596e-04 2.057135220211e-04 0.0 
2.057135220211e-04 7.358605616763e-03 0.0 
0.0 0.0 0.0 
-5.727873771499e-04 3.030591583572e-04 0.0 
3.030591583572e-04 7.178562632574e-03 0.0 
0.0 0.0 0.0 
-1.437771253541e-04 -1.896088203382e-03 0.0 
-1.896088203382e-03 1.948303440811e-03 0.0 
0.0 0.0 0.0 
-7.225817857305e-04 -6.066689955793e-04 0.0 
-6.066689955793e-04 5.259897273340e-03 0.0 
0.0 0.0 0.0 
-7.144981310315e-04 6.437652795631e-04 0.0 
6.437652795631e-04 6.810491462867e-03 0.0 
0.0 0.0 0.0 
-1.258438074761e-03 -3.485411941346e-04 0.0 
-3.485411941346e-04 5.001672214793e-03 0.0 
0.0 0.0 0.0 
-2.777887062561e-04 -1.038636848663e-03 0.0 
-1.038636848663e-03 4.524242339869e-03 0.0 
0.0 0.0 0.0 
-5.503444019698e-04 3.685828856997e-04 0.0 
3.685828856997e-04 7.303930249321e-03 0.0 
0.0 0.0 0.0 
-9.084799351380e-04 3.152896603243e-04 0.0 
3.152896603243e-04 6.469486198970e-03 0.0 
0.0 0.0 0.0 
7.763548264905e-04 -1.533210808882e-03 0.0 
-1.533210808882e-03 1.352209934954e-03 0.0 
0.0 0.0 0.0 
-9.325518561822e-04 -7.699986230482e-04 0.0 
-7.699986230482e-04 2.102138358276e-03 0.0 
0.0 0.0 0.0 
-1.845138624875e-04 -2.430312047181e-03 0.0 
-2.430312047181e-03 6.334335811478e-04 0.0 
0.0 0.0 0.0 
-2.024989323658e-04 -8.796618199445e-04 0.0 
-8.796618199445e-04 8.894920698668e-04 0.0 
0.0 0.0 0.0 
-9.683529050718e-04 -1.783743508110e-03 0.0 
-1.783743508110e-03 3.615794915559e-04 0.0 
0.0 0.0 0.0 
-6.076879722916e-04 2.701481306862e-04 0.0 
2.701481306862e-04 7.181846568713e-03 0.0 
0.0 0.0 0.0 
-8.407574834299e-04 -4.835246924628e-04 0.0 
-4.835246924628e-04 5.260477294003e-03 0.0 
0.0 0.0 0.0 
-5.913831841817e-04 -1.043236729858e-03 0.0 
-1.043236729858e-03 4.972199005737e-04 0.0 
0.0 0.0 0.0 
-5.324580952806e-04 1.749482492339e-03 0.0 
1.749482492339e-03 5.804390110920e-03 0.0 
0.0 0.0 0.0 
-1.041108012322e-03 2.444907857905e-04 0.0 
2.444907857905e-04 5.532974575319e-03 0.0 
0.0 0.0 0.0 
-8.531735029949e-04 -9.909701238472e-04 0.0 
-9.909701238472e-04 4.335790436105e-03 0.0 
0.0 0.0 0.0 
-1.026387633409e-03 -5.443820729891e-04 0.0 
-5.443820729891e-04 5.015579767333e-03 0.0 
0.0 0.0 0.0 
8.660076397256e-04 -2.609318785847e-03 0.0 
-2.609318785847e-03 -1.508201918161e-04 0.0 
0.0 0.0 0.0 
-1.122963837315e-03 -5.135783845079e-04 0.0 
-5.135783845079e-04 5.011649555693e-03 0.0 
0.0 0.0 0.0 
-1.099074578363e-03 1.424243138400e-04 0.0 
1.424243138400e-04 5.361569519352e-03 0.0 
0.0 0.0 0.0 
2.336193016164e-03 7.567289349565e-04 0.0 
7.567289349565e-04 -2.058886466488e-04 0.0 
0.0 0.0 0.0 
-2.811844440027e-04 -9.077567491742e-04 0.0 
-9.077567491742e-04 4.908109857413e-03 0.0 
0.0 0.0 0.0 
-8.620943936188e-04 -4.380227181258e-04 0.0 
-4.380227181258e-04 2.121353542372e-03 0.0 
0.0 0.0 0.0 
-2.080596284848e-05 -1.122929633414e-03 0.0 
-1.122929633414e-03 4.043099924426e-03 0.0 
0.0 0.0 0.0 
-8.289200932997e-04 2.788167408095e-04 0.0 
2.788167408095e-04 6.670576440166e-03 0.0 
0.0 0.0 0.0 
-1.111251364168e-03 -6.518211240733e-04 0.0 
-6.518211240733e-04 2.377185189085e-03 0.0 
0.0 0.0 0.0 
-7.291325467396e-06 -2.501926403441e-03 0.0 
-2.501926403441e-03 4.667344269953e-04 0.0 
0.0 0.0 0.0 
-1.749951535748e-03 -6.962645955507e-04 0.0 
-6.962645955507e-04 4.116945106026e-03 0.0 
0.0 0.0 0.0 
-9.773868279875e-04 3.948617769676e-04 0.0 
3.948617769676e-04 6.047195411101e-03 0.0 
0.0 0.0 0.0 
-1.110027150568e-03 -1.755368982333e-03 0.0 
-1.755368982333e-03 2.370944122720e-03 0.0 
0.0 0.0 0.0 
-7.472330727694e-04 2.361509926708e-04 0.0 
2.361509926708e-04 6.867225029110e-03 0.0 
0.0 0.0 0.0 
-9.293200657696e-04 2.297641291527e-04 0.0 
2.297641291527e-04 6.323516649129e-03 0.0 
0.0 0.0 0.0 
-1.335919114629e-03 -1.410696668831e-03 0.0 
-1.410696668831e-03 3.418994124248e-03 0.0 
0.0 0.0 0.0 
-1.297301070643e-03 -5.531257999024e-04 0.0 
-5.531257999024e-04 4.768325524134e-03 0.0 
0.0 0.0 0.0 
-1.113589275185e-03 -7.033840975498e-04 0.0 
-7.033840975498e-04 4.737092002565e-03 0.0 
0.0 0.0 0.0 
-7.701041977125e-04 3.099075675239e-04 0.0 
3.099075675239e-04 6.665860116885e-03 0.0 
0.0 0.0 0.0 
-4.087428024518e-04 -6.947843665103e-04 0.0 
-6.947843665103e-04 1.523016023872e-03 0.0 
0.0 0.0 0.0 
-1.548103912943e-03 -1.232934699326e-03 0.0 
-1.232934699326e-03 3.555809708346e-03 0.0 
0.0 0.0 0.0 
1.311651725482e-03 1.298474601020e-03 0.0 
1.298474601020e-03 1.620711554570e-03 0.0 
0.0 0.0 0.0 
-7.930362291614e-04 3.692578771800e-04 0.0 
3.692578771800e-04 6.799559099835e-03 0.0 
0.0 0.0 0.0 
-1.568229013825e-03 -1.282678868887e-03 0.0 
-1.282678868887e-03 3.330907830570e-03 0.0 
0.0 0.0 0.0 
-4.226102997312e-04 -1.711841442528e-03 0.0 
-1.711841442528e-03 2.549265022814e-03 0.0 
0.0 0.0 0.0 
1.273829234156e-04 -1.141628085326e-03 0.0 
-1.141628085326e-03 3.564677939145e-03 0.0 
0.0 0.0 0.0 
-8.423868465294e-04 3.432524744948e-04 0.0 
3.432524744948e-04 6.466000756751e-03 0.0 
0.0 0.0 0.0 
1.797599241679e-03 -9.214248619810e-04 0.0 
-9.214248619810e-04 -4.747528318058e-03 0.0 
0.0 0.0 0.0 
1.325343031735e-04 -5.782510953064e-04 0.0 
-5.782510953064e-04 7.395194428643e-04 0.0 
0.0 0.0 0.0 
3.336823530528e-03 7.779798439192e-05 0.0 
7.779798439192e-05 -4.273825750103e-03 0.0 
0.0 0.0 0.0 
-8.418383024279e-04 -6.555439591335e-04 0.0 
-6.555439591335e-04 5.006638734890e-03 0.0 
0.0 0.0 0.0 
-9.124856807630e-04 3.718843450755e-04 0.0 
3.718843450755e-04 6.259882157955e-03 0.0 
0.0 0.0 0.0 
-1.747144302056e-03 -4.909772950407e-04 0.0 
-4.909772950407e-04 4.307276114242e-03 0.0 
0.0 0.0 0.0 
-1.044567781429e-03 3.218413206255e-04 0.0 
3.218413206255e-04 5.693057024851e-03 0.0 
0.0 0.0 0.0 
9.520626215844e-04 -8.838367381126e-04 0.0 
-8.838367381126e-04 1.967916359307e-03 0.0 
0.0 0.0 0.0 
-1.485762421226e-03 -1.151890391707e-03 0.0 
-1.151890391707e-03 3.782012045862e-03 0.0 
0.0 0.0 0.0 
-9.914321048103e-04 -7.367212551962e-04 0.0 
-7.367212551962e-04 4.741481538334e-03 0.0 
0.0 0.0 0.0 
-7.504786781756e-04 -4.976532846735e-04 0.0 
-4.976532846735e-04 2.056865197416e-03 0.0 
0.0 0.0 0.0 
-2.264312754171e-04 -1.001259982335e-03 0.0 
-1.001259982335e-03 4.525772837745e-03 0.0 
0.0 0.0 0.0 
-1.473433943371e-03 -1.272958780996e-03 0.0 
-1.272958780996e-03 3.398150036145e-03 0.0 
0.0 0.0 0.0 
-9.498667340602e-04 -3.750460993961e-04 0.0 
-3.750460993961e-04 2.333174967805e-03 0.0 
0.0 0.0 0.0 
-1.644680240003e-03 -1.063496051484e-03 0.0 
-1.063496051484e-03 3.528767144458e-03 0.0 
0.0 0.0 0.0 
-1.340006257159e-03 -1.538095758746e-03 0.0 
-1.538095758746e-03 2.745623617920e-03 0.0 
0.0 0.0 0.0 
-7.852988474013e-04 -1.623818768131e-03 0.0 
-1.623818768131e-03 1.774033153658e-03 0.0 
0.0 0.0 0.0 
-1.649759691458e-03 -6.281483161919e-04 0.0 
-6.281483161919e-04 4.332896221150e-03 0.0 
0.0 0.0 0.0 
9.843378677705e-04 -9.611518881646e-05 0.0 
-9.611518881646e-05 -2.942503142276e-04 0.0 
0.0 0.0 0.0 
6.160102938442e-04 -1.609231967209e-04 0.0 
-1.609231967209e-04 -1.376022489984e-04 0.0 
0.0 0.0 0.0 
-1.200540490981e-03 -9.932377786340e-04 0.0 
-9.932377786340e-04 4.139524729149e-03 0.0 
0.0 0.0 0.0 
-5.366853362456e-04 -5.856872773911e-04 0.0 
-5.856872773911e-04 1.786736504892e-03 0.0 
0.0 0.0 0.0 
-8.349440120725e-04 -1.302461185094e-03 0.0 
-1.302461185094e-03 3.593651697580e-03 0.0 
0.0 0.0 0.0 
-6.529307742806e-04 -1.510770371785e-03 0.0 
-1.510770371785e-03 3.099277145216e-03 0.0 
0.0 0.0 0.0 
-5.807634544194e-04 -2.170848576675e-03 0.0 
-2.170848576675e-03 1.841904847087e-03 0.0 
0.0 0.0 0.0 
1.182575347497e-03 -2.918352242696e-03 0.0 
-2.918352242696e-03 -6.801510927895e-04 0.0 
0.0 0.0 0.0 
-7.010267926072e-04 5.784079273155e-04 0.0 
5.784079273155e-04 7.018099721499e-03 0.0 
0.0 0.0 0.0 
1.599283866201e-03 2.836536454457e-03 0.0 
2.836536454457e-03 -3.294915238948e-03 0.0 
0.0 0.0 0.0 
-1.534787137652e-03 -1.303115413607e-03 0.0 
-1.303115413607e-03 3.076204919877e-03 0.0 
0.0 0.0 0.0 
9.671492959147e-04 -6.304444153300e-04 0.0 
-6.304444153300e-04 2.062626310599e-03 0.0 
0.0 0.0 0.0 
-5.082112086890e-04 -5.841879028027e-04 0.0 
-5.841879028027e-04 1.628489332691e-03 0.0 
0.0 0.0 0.0 
-1.063133527451e-03 2.851698671919e-04 0.0 
2.851698671919e-04 5.911941156701e-03 0.0 
0.0 0.0 0.0 
-1.120041984721e-03 2.133042383211e-04 0.0 
2.133042383211e-04 5.537497913613e-03 0.0 
0.0 0.0 0.0 
-3.526906335931e-04 -1.244757941713e-03 0.0 
-1.244757941713e-03 1.191890582403e-03 0.0 
0.0 0.0 0.0 
3.247692206028e-04 -1.143594748609e-03 0.0 
-1.143594748609e-03 3.030608022107e-03 0.0 
0.0 0.0 0.0 
-9.344677912868e-04 5.501372183519e-04 0.0 
5.501372183519e-04 6.500745445967e-03 0.0 
0.0 0.0 0.0 
-7.793645548629e-04 -8.730544301524e-04 0.0 
-8.730544301524e-04 1.846952555219e-03 0.0 
0.0 0.0 0.0 
-6.478065236202e-04 6.948909462187e-04 0.0 
6.948909462187e-04 7.106984336095e-03 0.0 
0.0 0.0 0.0 
-5.553103699468e-04 7.167136236884e-04 0.0 
7.167136236884e-04 7.103015321647e-03 0.0 
0.0 0.0 0.0 
-7.380851410866e-04 -9.270419737386e-04 0.0 
-9.270419737386e-04 1.892235508465e-03 0.0 
0.0 0.0 0.0 
1.218270943946e-04 2.455841038588e-03 0.0 
2.455841038588e-03 6.420534484413e-04 0.0 
0.0 0.0 0.0 
-6.297603392094e-04 -1.427744350665e-03 0.0 
-1.427744350665e-03 1.593578653077e-03 0.0 
0.0 0.0 0.0 
-1.060724451720e-03 -8.987470999269e-04 0.0 
-8.987470999269e-04 4.415892454076e-03 0.0 
0.0 0.0 0.0 
-1.588867767090e-03 -8.873759846355e-04 0.0 
-8.873759846355e-04 4.082901502554e-03 0.0 
0.0 0.0 0.0 
-5.198314484935e-04 1.574910501440e-03 0.0 
1.574910501440e-03 6.203390552483e-03 0.0 
0.0 0.0 0.0 
-6.208359240294e-04 5.992554092470e-04 0.0 
5.992554092470e-04 7.015376094391e-03 0.0 
0.0 0.0 0.0 
-9.704964204676e-04 -1.096638296035e-03 0.0 
-1.096638296035e-03 4.032445748983e-03 0.0 
0.0 0.0 0.0 
-7.999389041664e-04 -1.125638451376e-03 0.0 
-1.125638451376e-03 4.035886124436e-03 0.0 
0.0 0.0 0.0 
-6.538912813585e-04 -1.387596283410e-03 0.0 
-1.387596283410e-03 1.409304978047e-03 0.0 
0.0 0.0 0.0 
-9.282611991511e-04 -9.330830698683e-04 0.0 
-9.330830698683e-04 4.420372193839e-03 0.0 
0.0 0.0 0.0 
-8.475152783262e-04 5.679907173761e-04 0.0 
5.679907173761e-04 6.498364304815e-03 0.0 
0.0 0.0 0.0 
-1.687520943136e-03 -7.477265811313e-04 0.0 
-7.477265811313e-04 4.061860049596e-03 0.0 
0.0 0.0 0.0 
-9.841884307896e-04 3.473830143810e-04 0.0 
3.473830143810e-04 6.262975906342e-03 0.0 
0.0 0.0 0.0 
-8.450116856694e-04 5.120929501925e-04 0.0 
5.120929501925e-04 6.711388868307e-03 0.0 
0.0 0.0 0.0 
3.532801079950e-03 1.453009448340e-03 0.0 
1.453009448340e-03 -2.832578013336e-03 0.0 
0.0 0.0 0.0 
-6.766052746933e-04 4.951625380007e-04 0.0 
4.951625380007e-04 6.913339295381e-03 0.0 
0.0 0.0 0.0 
-1.713113547404e-03 -1.033656968988e-03 0.0 
-1.033656968988e-03 3.646452378220e-03 0.0 
0.0 0.0 0.0 
-1.605363122833e-03 -1.008932194436e-03 0.0 
-1.008932194436e-03 3.760274220729e-03 0.0 
0.0 0.0 0.0 
-1.456814308225e-03 -1.281374433777e-03 0.0 
-1.281374433777e-03 2.847282843096e-03 0.0 
0.0 0.0 0.0 
-1.072765055397e-04 -2.432479700011e-03 0.0 
-2.432479700011e-03 8.427886500086e-04 0.0 
0.0 0.0 0.0 
-8.832121326497e-04 4.645973374346e-04 0.0 
4.645973374346e-04 6.385928654519e-03 0.0 
0.0 0.0 0.0 
6.258253315272e-04 -2.269572928829e-03 0.0 
-2.269572928829e-03 2.950597369134e-04 0.0 
0.0 0.0 0.0 
-8.167973693104e-04 -1.273871831469e-03 0.0 
-1.273871831469e-03 1.890371197639e-03 0.0 
0.0 0.0 0.0 
-1.876217201250e-04 -8.634474666743e-04 0.0 
-8.634474666743e-04 1.000846004347e-03 0.0 
0.0 0.0 0.0 
-9.629209005010e-04 4.441472981323e-04 0.0 
4.441472981323e-04 6.388586770519e-03 0.0 
0.0 0.0 0.0 
-9.177567595882e-04 -1.522524443900e-03 0.0 
-1.522524443900e-03 1.929498933607e-03 0.0 
0.0 0.0 0.0 
5.531653245483e-05 -1.040058254715e-03 0.0 
-1.040058254715e-03 4.034605362077e-03 0.0 
0.0 0.0 0.0 
-8.062953202516e-04 4.339499357208e-04 0.0 
4.339499357208e-04 6.594161370759e-03 0.0 
0.0 0.0 0.0 
-6.873142172354e-04 -9.971552485685e-04 0.0 
-9.971552485685e-04 4.335774106587e-03 0.0 
0.0 0.0 0.0 
4.399161718576e-04 4.540286582113e-06 0.0 
4.540286582113e-06 2.832529161495e-03 0.0 
0.0 0.0 0.0 
-1.630369134875e-03 -1.093212028953e-03 0.0 
-1.093212028953e-03 3.291875810233e-03 0.0 
0.0 0.0 0.0 
-9.095277864523e-04 -1.187221059693e-03 0.0 
-1.187221059693e-03 1.933412898239e-03 0.0 
0.0 0.0 0.0 
-5.285764886128e-04 -1.054594532214e-03 0.0 
-1.054594532214e-03 1.166252441818e-03 0.0 
0.0 0.0 0.0 
-5.620925438586e-04 -1.350759527851e-03 0.0 
-1.350759527851e-03 3.432788594287e-03 0.0 
0.0 0.0 0.0 
-9.376856743966e-04 2.928932304736e-04 0.0 
2.928932304736e-04 6.121470952536e-03 0.0 
0.0 0.0 0.0 
-2.219909484791e-04 -7.785080923692e-04 0.0 
-7.785080923692e-04 7.936958256600e-04 0.0 
0.0 0.0 0.0 
-1.155590454801e-03 -1.542641454860e-03 0.0 
-1.542641454860e-03 2.338541630208e-03 0.0 
0.0 0.0 0.0 
-4.568380295698e-04 -2.449887848432e-04 0.0 
-2.449887848432e-04 1.823970052868e-03 0.0 
0.0 0.0 0.0 
-1.055328727796e-03 3.753475225920e-04 0.0 
3.753475225920e-04 6.049715342157e-03 0.0 
0.0 0.0 0.0 
-1.381750269103e-03 -1.323335011972e-03 0.0 
-1.323335011972e-03 2.713005581318e-03 0.0 
0.0 0.0 0.0 
-4.140622382486e-04 -1.518221737050e-03 0.0 
-1.518221737050e-03 3.098959009086e-03 0.0 
0.0 0.0 0.0 
-1.454167803828e-03 -1.023567346655e-03 0.0 
-1.023567346655e-03 2.820377204893e-03 0.0 
0.0 0.0 0.0 
-7.022183390504e-04 3.236753764534e-04 0.0 
3.236753764534e-04 6.994513196072e-03 0.0 
0.0 0.0 0.0 
-1.033934789229e-03 -1.671434100728e-03 0.0 
-1.671434100728e-03 2.164247979745e-03 0.0 
0.0 0.0 0.0 
-9.474467392090e-05 -1.487336048115e-03 0.0 
-1.487336048115e-03 2.743609137958e-03 0.0 
0.0 0.0 0.0 
-1.665605423988e-04 -2.292813882209e-03 0.0 
-2.292813882209e-03 6.117859808057e-04 0.0 
0.0 0.0 0.0 
-3.600482215012e-04 -1.528306796000e-03 0.0 
-1.528306796000e-03 2.905745203935e-03 0.0 
0.0 0.0 0.0 
-1.761585444819e-03 -7.957085392674e-04 0.0 
-7.957085392674e-04 3.842645039045e-03 0.0 
0.0 0.0 0.0 
-5.374974895203e-04 -1.170236331230e-03 0.0 
-1.170236331230e-03 3.908859159575e-03 0.0 
0.0 0.0 0.0 
3.923780211272e-03 -6.675396832770e-04 0.0 
-6.675396832770e-04 -3.577068661614e-03 0.0 
0.0 0.0 0.0 
-6.874548382262e-04 -5.273554766317e-04 0.0 
-5.273554766317e-04 1.898911839350e-03 0.0 
0.0 0.0 0.0 
-1.065355854388e-03 2.075560413097e-04 0.0 
2.075560413097e-04 5.760977499757e-03 0.0 
0.0 0.0 0.0 
2.096132125276e-03 -1.013230177155e-03 0.0 
-1.013230177155e-03 -6.065033313638e-04 0.0 
0.0 0.0 0.0 
5.427838361425e-04 2.561498646370e-03 0.0 
2.561498646370e-03 5.417347379832e-04 0.0 
0.0 0.0 0.0 
-9.988226303338e-04 2.610746771815e-04 0.0 
2.610746771815e-04 6.122527739034e-03 0.0 
0.0 0.0 0.0 
1.880748812357e-04 -2.678717949940e-03 0.0 
-2.678717949940e-03 4.254633099898e-05 0.0 
0.0 0.0 0.0 
-1.000742772427e-03 6.256022730264e-04 0.0 
6.256022730264e-04 6.055228337147e-03 0.0 
0.0 0.0 0.0 
-2.659325176386e-04 -3.431440045533e-04 0.0 
-3.431440045533e-04 1.528862649697e-03 0.0 
0.0 0.0 0.0 
-4.713620871377e-05 -1.190244037471e-03 0.0 
-1.190244037471e-03 3.616049612625e-03 0.0 
0.0 0.0 0.0 
2.159200667257e-03 -5.857342537994e-04 0.0 
-5.857342537994e-04 -3.874133982710e-04 0.0 
0.0 0.0 0.0 
2.045329346805e-03 1.010749577999e-03 0.0 
1.010749577999e-03 3.754662492366e-04 0.0 
0.0 0.0 0.0 
-5.338499727178e-04 6.448044527813e-04 0.0 
6.448044527813e-04 7.315540401189e-03 0.0 
0.0 0.0 0.0 
5.734770297443e-04 -2.136266727646e-03 0.0 
-2.136266727646e-03 6.180256925441e-04 0.0 
0.0 0.0 0.0 
-6.502764455252e-04 -9.515599054472e-04 0.0 
-9.515599054472e-04 1.581886393136e-03 0.0 
0.0 0.0 0.0 
1.832092720808e-04 -1.848362185074e-03 0.0 
-1.848362185074e-03 1.694988438696e-03 0.0 
0.0 0.0 0.0 
2.166305533420e-04 -1.052133059161e-03 0.0 
-1.052133059161e-03 3.550282849363e-03 0.0 
0.0 0.0 0.0 
9.126158735908e-04 -2.784517080062e-03 0.0 
-2.784517080062e-03 -7.597512682985e-04 0.0 
0.0 0.0 0.0 
-7.268962450555e-04 -1.171508194944e-03 0.0 
-1.171508194944e-03 3.910153063380e-03 0.0 
0.0 0.0 0.0 
-8.801181092989e-04 4.084569214841e-04 0.0 
4.084569214841e-04 6.597393471129e-03 0.0 
0.0 0.0 0.0 
1.689263221523e-03 -2.985649053552e-03 0.0 
-2.985649053552e-03 -1.313745091316e-03 0.0 
0.0 0.0 0.0 
-1.134909451468e-04 -1.697016090555e-03 0.0 
-1.697016090555e-03 2.326200610725e-03 0.0 
0.0 0.0 0.0 
-1.180787194470e-03 4.190217470070e-04 0.0 
4.190217470070e-04 5.604428896233e-03 0.0 
0.0 0.0 0.0 
-1.143089785886e-03 -6.435385267130e-04 0.0 
-6.435385267130e-04 2.481313365295e-03 0.0 
0.0 0.0 0.0 
-9.074797172153e-04 -1.751938900116e-03 0.0 
-1.751938900116e-03 1.948773094536e-03 0.0 
0.0 0.0 0.0 
9.102120910292e-04 2.543059294918e-03 0.0 
2.543059294918e-03 7.880425414375e-04 0.0 
0.0 0.0 0.0 
-3.479874094083e-04 -1.340416992056e-03 0.0 
-1.340416992056e-03 3.429929673526e-03 0.0 
0.0 0.0 0.0 
-9.416734803225e-05 2.406673104524e-03 0.0 
2.406673104524e-03 1.417110654539e-03 0.0 
0.0 0.0 0.0 
1.240244375351e-03 2.499144788618e-03 0.0 
2.499144788618e-03 1.861409901018e-04 0.0 
0.0 0.0 0.0 
-9.265748754186e-04 5.975602229429e-04 0.0 
5.975602229429e-04 6.280402651919e-03 0.0 
0.0 0.0 0.0 
-9.920549245438e-04 3.116256816867e-04 0.0 
3.116256816867e-04 5.908632019556e-03 0.0 
0.0 0.0 0.0 
-1.086519702185e-03 5.316178170604e-04 0.0 
5.316178170604e-04 5.726434826175e-03 0.0 
0.0 0.0 0.0 
-1.669332910052e-03 -9.706254914100e-04 0.0 
-9.706254914100e-04 3.879776809555e-03 0.0 
0.0 0.0 0.0 
5.723536184143e-04 -1.137207676381e-03 0.0 
-1.137207676381e-03 2.477029317058e-03 0.0 
0.0 0.0 0.0 
5.313199174342e-04 -1.964010435675e-03 0.0 
-1.964010435675e-03 1.019921611090e-03 0.0 
0.0 0.0 0.0 
-1.126641849979e-03 3.055438097261e-04 0.0 
3.055438097261e-04 5.695189103013e-03 0.0 
0.0 0.0 0.0 
-4.120976833469e-04 1.866777886908e-03 0.0 
1.866777886908e-03 5.740982398197e-03 0.0 
0.0 0.0 0.0 
1.741770036081e-03 1.205375575512e-03 0.0 
1.205375575512e-03 9.589411820321e-04 0.0 
0.0 0.0 0.0 
-1.161430986860e-04 -1.502606798028e-03 0.0 
-1.502606798028e-03 2.900342110140e-03 0.0 
0.0 0.0 0.0 
-7.639208801246e-04 5.333447980598e-04 0.0 
5.333447980598e-04 6.708626021021e-03 0.0 
0.0 0.0 0.0 
-4.468166250295e-04 -2.245711615299e-03 0.0 
-2.245711615299e-03 1.339885043499e-03 0.0 
0.0 0.0 0.0 
-7.145402112143e-04 -2.029042021086e-03 0.0 
-2.029042021086e-03 1.682069256002e-03 0.0 
0.0 0.0 0.0 
-4.144209385388e-04 -1.150607523388e-03 0.0 
-1.150607523388e-03 1.371438392938e-03 0.0 
0.0 0.0 0.0 
4.953825141822e-04 -1.726170256036e-03 0.0 
-1.726170256036e-03 1.489838963805e-03 0.0 
0.0 0.0 0.0 
-9.963847839422e-04 -1.813004798800e-03 0.0 
-1.813004798800e-03 2.117659914975e-03 0.0 
0.0 0.0 0.0 
-1.041471607279e-03 4.749126168356e-04 0.0 
4.749126168356e-04 6.173242445995e-03 0.0 
0.0 0.0 0.0 
-1.116068160865e-03 5.039149041754e-04 0.0 
5.039149041754e-04 5.952212320385e-03 0.0 
0.0 0.0 0.0 
3.797356069700e-03 5.030270911669e-04 0.0 
5.030270911669e-04 -2.875487206906e-03 0.0 
0.0 0.0 0.0 
-5.867235839770e-04 -2.125710910802e-03 0.0 
-2.125710910802e-03 1.575330730502e-03 0.0 
0.0 0.0 0.0 
3.833078127280e-03 1.478780506534e-03 0.0 
1.478780506534e-03 -3.660144685457e-03 0.0 
0.0 0.0 0.0 
-8.560370263615e-04 -1.952374939082e-03 0.0 
-1.952374939082e-03 1.979518182028e-03 0.0 
0.0 0.0 0.0 
-5.885961876039e-04 -2.185143892195e-03 0.0 
-2.185143892195e-03 1.705397161957e-03 0.0 
0.0 0.0 0.0 
-7.622479418903e-04 -1.306262494974e-03 0.0 
-1.306262494974e-03 1.665174891250e-03 0.0 
0.0 0.0 0.0 
8.545291182687e-04 -1.103875010681e-03 0.0 
-1.103875010681e-03 1.897012254992e-03 0.0 
0.0 0.0 0.0 
5.798778409840e-04 -2.408937304033e-03 0.0 
-2.408937304033e-03 4.961065410769e-04 0.0 
0.0 0.0 0.0 
-7.508636617792e-04 4.681585513069e-04 0.0 
4.681585513069e-04 6.916769736334e-03 0.0 
0.0 0.0 0.0 
9.960530526061e-04 -2.303569599568e-03 0.0 
-2.303569599568e-03 5.519896560302e-05 0.0 
0.0 0.0 0.0 
4.912037523157e-04 -1.767697553332e-03 0.0 
-1.767697553332e-03 1.680891262016e-03 0.0 
0.0 0.0 0.0 
4.998896343078e-04 -2.139112058039e-03 0.0 
-2.139112058039e-03 9.480219070810e-04 0.0 
0.0 0.0 0.0 
2.141548985513e-03 2.322079064034e-03 0.0 
2.322079064034e-03 -8.552798223888e-04 0.0 
0.0 0.0 0.0 
-5.698375861914e-04 -1.046795216398e-03 0.0 
-1.046795216398e-03 1.621007769296e-03 0.0 
0.0 0.0 0.0 
4.543637558980e-04 -1.041204391026e-03 0.0 
-1.041204391026e-03 3.010585752242e-03 0.0 
0.0 0.0 0.0 
4.457140496719e-04 -1.048595846086e-03 0.0 
-1.048595846086e-03 3.087276659939e-03 0.0 
0.0 0.0 0.0 
5.107520066618e-04 2.379570150634e-03 0.0 
2.379570150634e-03 2.023883056873e-03 0.0 
0.0 0.0 0.0 
-2.428349115390e-04 -2.353615151087e-03 0.0 
-2.353615151087e-03 1.355323087653e-03 0.0 
0.0 0.0 0.0 
4.804946490296e-04 -1.975599264265e-03 0.0 
-1.975599264265e-03 1.288015544274e-03 0.0 
0.0 0.0 0.0 
-9.553589709718e-04 4.913027748914e-04 0.0 
4.913027748914e-04 6.171052837143e-03 0.0 
0.0 0.0 0.0 
-7.621786099438e-04 -2.036880192353e-03 0.0 
-2.036880192353e-03 1.822439268780e-03 0.0 
0.0 0.0 0.0 
1.016491312510e-03 2.579819317713e-03 0.0 
2.579819317713e-03 4.366060503735e-05 0.0 
0.0 0.0 0.0 
-1.015056605161e-03 -1.439364004873e-03 0.0 
-1.439364004873e-03 2.128309354557e-03 0.0 
0.0 0.0 0.0 
7.270071487699e-04 -2.917553594231e-03 0.0 
-2.917553594231e-03 -6.775646161656e-04 0.0 
0.0 0.0 0.0 
-1.126149663864e-04 -2.387698737492e-03 0.0 
-2.387698737492e-03 9.328826190707e-04 0.0 
0.0 0.0 0.0 
-1.112020587668e-03 -1.366718732532e-03 0.0 
-1.366718732532e-03 2.247919978475e-03 0.0 
0.0 0.0 0.0 
-9.363793246732e-04 -7.865916918019e-04 0.0 
-7.865916918019e-04 2.188031067475e-03 0.0 
0.0 0.0 0.0 
2.104933175995e-04 -2.193850094994e-03 0.0 
-2.193850094994e-03 9.581126154787e-04 0.0 
0.0 0.0 0.0 
1.681597908127e-04 -1.646817462829e-03 0.0 
-1.646817462829e-03 2.316850381481e-03 0.0 
0.0 0.0 0.0 
2.985588858087e-04 2.096644421150e-03 0.0 
2.096644421150e-03 3.460758794377e-03 0.0 
0.0 0.0 0.0 
1.320368138822e-03 -1.643316003479e-04 0.0 
-1.643316003479e-04 -4.079126861384e-04 0.0 
0.0 0.0 0.0 
2.358454933077e-03 -1.879485725900e-03 0.0 
-1.879485725900e-03 -1.521841370534e-03 0.0 
0.0 0.0 0.0 
1.422400008567e-03 -2.253664110188e-03 0.0 
-2.253664110188e-03 -5.225465994269e-04 0.0 
0.0 0.0 0.0 
1.614389988931e-04 -2.430342399873e-03 0.0 
-2.430342399873e-03 9.376106134891e-04 0.0 
0.0 0.0 0.0 
-1.022992240081e-03 5.125393516406e-04 0.0 
5.125393516406e-04 5.950917489908e-03 0.0 
0.0 0.0 0.0 
5.467561415797e-04 -2.278629080135e-03 0.0 
-2.278629080135e-03 6.784875413561e-04 0.0 
0.0 0.0 0.0 
-1.254289709489e-03 -1.481612227489e-03 0.0 
-1.481612227489e-03 2.514072986742e-03 0.0 
0.0 0.0 0.0 
2.641141343827e-04 -2.437185405490e-03 0.0 
-2.437185405490e-03 5.022904750123e-04 0.0 
0.0 0.0 0.0 
-7.267698846048e-04 3.978590299323e-04 0.0 
3.978590299323e-04 6.796018839828e-03 0.0 
0.0 0.0 0.0 
-1.236463799388e-03 -1.248371020125e-03 0.0 
-1.248371020125e-03 2.477776529136e-03 0.0 
0.0 0.0 0.0 
-2.211350127626e-04 -7.599266774851e-04 0.0 
-7.599266774851e-04 9.586951086114e-04 0.0 
0.0 0.0 0.0 
-5.540235685386e-04 -1.001338739400e-03 0.0 
-1.001338739400e-03 1.344107778577e-03 0.0 
0.0 0.0 0.0 
7.106465715716e-04 -2.728278623711e-03 0.0 
-2.728278623711e-03 -9.127198728209e-05 0.0 
0.0 0.0 0.0 
-2.676538457956e-04 -2.350862084196e-03 0.0 
-2.350862084196e-03 1.251467903409e-03 0.0 
0.0 0.0 0.0 
1.817722260293e-03 -1.992486962453e-03 0.0 
-1.992486962453e-03 -9.325411748675e-04 0.0 
0.0 0.0 0.0 
6.635984963947e-04 -2.400153680487e-03 0.0 
-2.400153680487e-03 7.326593777490e-05 0.0 
0.0 0.0 0.0 
-4.426931212786e-05 -2.443915058251e-03 0.0 
-2.443915058251e-03 2.968480373413e-04 0.0 
0.0 0.0 0.0 
-2.453409273253e-04 -7.342736296912e-04 0.0 
-7.342736296912e-04 1.303211868015e-03 0.0 
0.0 0.0 0.0 
-1.249991767453e-03 6.837902108626e-04 0.0 
6.837902108626e-04 5.574668651877e-03 0.0 
0.0 0.0 0.0 
-1.026304666567e-03 -1.115026884439e-03 0.0 
-1.115026884439e-03 2.209072800112e-03 0.0 
0.0 0.0 0.0 
9.134205040608e-04 -1.162489594570e-03 0.0 
-1.162489594570e-03 1.887790187328e-03 0.0 
0.0 0.0 0.0 
4.992197092337e-04 2.108585971948e-03 0.0 
2.108585971948e-03 2.866714676241e-03 0.0 
0.0 0.0 0.0 
-1.097387545693e-03 1.548550210823e-03 0.0 
1.548550210823e-03 4.758124730849e-03 0.0 
0.0 0.0 0.0 
-6.912533408420e-04 9.287890622801e-04 0.0 
9.287890622801e-04 6.736285568328e-03 0.0 
0.0 0.0 0.0 
1.474255943836e-04 2.085340234650e-03 0.0 
2.085340234650e-03 4.015581427149e-03 0.0 
0.0 0.0 0.0 
3.754021171954e-03 1.046987359017e-03 0.0 
1.046987359017e-03 -2.773011491498e-03 0.0 
0.0 0.0 0.0 
5.246241351444e-04 2.223086060499e-03 0.0 
2.223086060499e-03 2.427018089308e-03 0.0 
0.0 0.0 0.0 
4.530482656084e-04 -2.962561467034e-03 0.0 
-2.962561467034e-03 -4.562958653281e-04 0.0 
0.0 0.0 0.0 
-1.245548728807e-04 -2.294534890917e-03 0.0 
-2.294534890917e-03 1.084737440277e-03 0.0 
0.0 0.0 0.0 
2.768503409760e-03 2.283596363695e-03 0.0 
2.283596363695e-03 -2.179391047925e-03 0.0 
0.0 0.0 0.0 
2.933014057578e-03 -2.335558709227e-03 0.0 
-2.335558709227e-03 -2.831609394969e-03 0.0 
0.0 0.0 0.0 
5.662758748870e-05 -2.758002334305e-03 0.0 
-2.758002334305e-03 -7.355115483620e-05 0.0 
0.0 0.0 0.0 
-8.801294558010e-04 -1.991791628952e-03 0.0 
-1.991791628952e-03 2.144299007878e-03 0.0 
0.0 0.0 0.0 
1.081210689856e-03 -2.425197249230e-03 0.0 
-2.425197249230e-03 -4.904380313961e-04 0.0 
0.0 0.0 0.0 
1.487168719778e-03 -2.236687840356e-03 0.0 
-2.236687840356e-03 -8.913393793014e-04 0.0 
0.0 0.0 0.0 
-1.304071079905e-03 -1.197935763731e-03 0.0 
-1.197935763731e-03 2.559965870147e-03 0.0 
0.0 0.0 0.0 
9.395100825640e-04 -2.167320427886e-03 0.0 
-2.167320427886e-03 2.775928612087e-04 0.0 
0.0 0.0 0.0 
1.908554088627e-03 -2.109822651579e-03 0.0 
-2.109822651579e-03 -1.478639889789e-03 0.0 
0.0 0.0 0.0 
2.809930094440e-03 -1.504961985585e-03 0.0 
-1.504961985585e-03 -1.955198280467e-03 0.0 
0.0 0.0 0.0 
-4.194477219936e-04 -2.224374548976e-03 0.0 
-2.224374548976e-03 1.233503365318e-03 0.0 
0.0 0.0 0.0 
2.372818906317e-03 8.985576137699e-05 0.0 
8.985576137699e-05 -4.527293658378e-04 0.0 
0.0 0.0 0.0 
-1.018780071955e-03 5.863534934630e-04 0.0 
5.863534934630e-04 6.282004240005e-03 0.0 
0.0 0.0 0.0 
3.398934176312e-03 -1.141037770559e-03 0.0 
-1.141037770559e-03 -2.678253538224e-03 0.0 
0.0 0.0 0.0 
7.317807053213e-04 -1.003243658658e-03 0.0 
-1.003243658658e-03 2.455825615132e-03 0.0 
0.0 0.0 0.0 
1.175366664911e-03 -3.132532899027e-03 0.0 
-3.132532899027e-03 -1.288832307363e-03 0.0 
0.0 0.0 0.0 
7.990370580702e-04 -6.340729126287e-04 0.0 
-6.340729126287e-04 2.610381664565e-03 0.0 
0.0 0.0 0.0 
1.398483669416e-03 -2.121178007604e-03 0.0 
-2.121178007604e-03 -3.627495521482e-04 0.0 
0.0 0.0 0.0 
5.962323370801e-05 2.121131944734e-03 0.0 
2.121131944734e-03 4.570616571309e-03 0.0 
0.0 0.0 0.0 
-3.572691920501e-04 2.241466185596e-03 0.0 
2.241466185596e-03 3.410281683969e-03 0.0 
0.0 0.0 0.0 
4.416186854252e-04 -2.793753464225e-03 0.0 
-2.793753464225e-03 5.870280274212e-05 0.0 
0.0 0.0 0.0 
-9.419645504017e-04 1.707726687502e-03 0.0 
1.707726687502e-03 4.646602519292e-03 0.0 
0.0 0.0 0.0 
-6.350146507492e-04 1.245171436122e-03 0.0 
1.245171436122e-03 6.544866963151e-03 0.0 
0.0 0.0 0.0 
1.780006623208e-03 -1.872295240756e-03 0.0 
-1.872295240756e-03 -7.410766267330e-04 0.0 
0.0 0.0 0.0 
1.872956574978e-03 2.679042040849e-03 0.0 
2.679042040849e-03 -1.078233528862e-03 0.0 
0.0 0.0 0.0 
-7.621656679122e-04 1.846127975134e-03 0.0 
1.846127975134e-03 4.504492652308e-03 0.0 
0.0 0.0 0.0 
6.464351648774e-04 2.567578890013e-03 0.0 
2.567578890013e-03 6.225331939687e-04 0.0 
0.0 0.0 0.0 
-1.525021960447e-05 -2.658139531405e-03 0.0 
-2.658139531405e-03 3.316047989879e-04 0.0 
0.0 0.0 0.0 
-3.236701960263e-04 1.106383581200e-03 0.0 
1.106383581200e-03 7.291050691552e-03 0.0 
0.0 0.0 0.0 
-4.582581038948e-04 -2.163200320682e-03 0.0 
-2.163200320682e-03 7.900540355639e-04 0.0 
0.0 0.0 0.0 
1.233938269773e-03 6.731482860230e-04 0.0 
6.731482860230e-04 1.994837608861e-03 0.0 
0.0 0.0 0.0 
-5.237856107030e-04 5.516687488613e-04 0.0 
5.516687488613e-04 7.213650528002e-03 0.0 
0.0 0.0 0.0 
2.122158050952e-03 -1.988574740231e-04 0.0 
-1.988574740231e-04 -6.577731190793e-05 0.0 
0.0 0.0 0.0 
-1.038073846636e-03 4.150180504945e-04 0.0 
4.150180504945e-04 5.824264201213e-03 0.0 
0.0 0.0 0.0 
-8.492074302214e-04 7.894583489026e-04 0.0 
7.894583489026e-04 6.676492764217e-03 0.0 
0.0 0.0 0.0 
2.362866228005e-03 -1.794425928169e-03 0.0 
-1.794425928169e-03 -1.905216619321e-03 0.0 
0.0 0.0 0.0 
3.522858697918e-03 4.606201056933e-04 0.0 
4.606201056933e-04 -2.480314445007e-03 0.0 
0.0 0.0 0.0 
-5.190125580330e-04 1.012442193564e-03 0.0 
1.012442193564e-03 7.012660251438e-03 0.0 
0.0 0.0 0.0 
1.639799819224e-04 -1.424777879769e-03 0.0 
-1.424777879769e-03 2.732299305284e-03 0.0 
0.0 0.0 0.0 
-9.856782569303e-04 7.065032364838e-04 0.0 
7.065032364838e-04 6.373383167803e-03 0.0 
0.0 0.0 0.0 
1.977515029939e-03 -9.038873369237e-04 0.0 
-9.038873369237e-04 -2.847195788591e-05 0.0 
0.0 0.0 0.0 
8.782324490908e-04 -3.017382859997e-03 0.0 
-3.017382859997e-03 -4.503015261040e-04 0.0 
0.0 0.0 0.0 
-9.414551682635e-04 8.350285879590e-04 0.0 
8.350285879590e-04 6.446530044929e-03 0.0 
0.0 0.0 0.0 
3.121139742366e-04 2.072804980818e-03 0.0 
2.072804980818e-03 4.294179115787e-03 0.0 
0.0 0.0 0.0 
5.109958008187e-04 -9.049415249406e-04 0.0 
-9.049415249406e-04 3.054586148413e-03 0.0 
0.0 0.0 0.0 
1.538450175442e-04 -2.318287627427e-03 0.0 
-2.318287627427e-03 1.086740950387e-03 0.0 
0.0 0.0 0.0 
-1.121957289767e-03 3.961996964922e-04 0.0 
3.961996964922e-04 5.826196882041e-03 0.0 
0.0 0.0 0.0 
-1.093330688879e-03 4.279224870055e-04 0.0 
4.279224870055e-04 5.603121865390e-03 0.0 
0.0 0.0 0.0 
1.066380146037e-03 -2.282855735566e-03 0.0 
-2.282855735566e-03 -3.359711605403e-04 0.0 
0.0 0.0 0.0 
4.708300642748e-04 -1.527970387586e-03 0.0 
-1.527970387586e-03 2.123071880172e-03 0.0 
0.0 0.0 0.0 
7.211541789269e-04 -1.360823221267e-03 0.0 
-1.360823221267e-03 1.975656903874e-03 0.0 
0.0 0.0 0.0 
-2.022464292699e-04 -8.200500377877e-04 0.0 
-8.200500377877e-04 1.127381224376e-03 0.0 
0.0 0.0 0.0 
3.635605281976e-03 1.726708977217e-03 0.0 
1.726708977217e-03 -3.789879363610e-03 0.0 
0.0 0.0 0.0 
3.649004705001e-03 -6.167407989048e-04 0.0 
-6.167407989048e-04 -2.885228234724e-03 0.0 
0.0 0.0 0.0 
3.008591914279e-03 -1.577120096566e-03 0.0 
-1.577120096566e-03 -2.602357626901e-03 0.0 
0.0 0.0 0.0 
1.350775906625e-03 2.523804399703e-03 0.0 
2.523804399703e-03 -3.933883735016e-04 0.0 
0.0 0.0 0.0 
-5.072191713498e-04 9.447918748434e-04 0.0 
9.447918748434e-04 7.241713135774e-03 0.0 
0.0 0.0 0.0 
-4.634668178374e-04 1.749941585728e-03 0.0 
1.749941585728e-03 5.804105485502e-03 0.0 
0.0 0.0 0.0 
-5.949014305185e-04 5.231406017952e-04 0.0 
5.231406017952e-04 7.215991579536e-03 0.0 
0.0 0.0 0.0 
-3.186861540038e-04 2.309780341705e-03 0.0 
2.309780341705e-03 1.876249244448e-03 0.0 
0.0 0.0 0.0 
-7.984738374146e-04 1.152161389336e-03 0.0 
1.152161389336e-03 6.270011635631e-03 0.0 
0.0 0.0 0.0 
1.796969896692e-04 -1.615879329881e-03 0.0 
-1.615879329881e-03 2.138117038115e-03 0.0 
0.0 0.0 0.0 
-4.956107976353e-04 8.367586310723e-04 0.0 
8.367586310723e-04 7.179332051213e-03 0.0 
0.0 0.0 0.0 
-1.025355598157e-03 8.793565220907e-04 0.0 
8.793565220907e-04 6.206910567326e-03 0.0 
0.0 0.0 0.0 
2.445727260076e-04 -2.317450722424e-03 0.0 
-2.317450722424e-03 6.863220861035e-04 0.0 
0.0 0.0 0.0 
3.935765554808e-03 -5.722733756652e-05 0.0 
-5.722733756652e-05 -3.189335079043e-03 0.0 
0.0 0.0 0.0 
-8.416964893198e-04 8.397910516283e-04 0.0 
8.397910516283e-04 6.445636166579e-03 0.0 
0.0 0.0 0.0 
-6.892127217626e-04 8.691252149045e-04 0.0 
8.691252149045e-04 6.967057325786e-03 0.0 
0.0 0.0 0.0 
-8.046162757011e-04 6.795801840841e-04 0.0 
6.795801840841e-04 6.594466962843e-03 0.0 
0.0 0.0 0.0 
-8.890393056714e-04 7.147122924261e-04 0.0 
7.147122924261e-04 6.372100876319e-03 0.0 
0.0 0.0 0.0 
3.216282104228e-04 -1.148380330776e-03 0.0 
-1.148380330776e-03 3.064719877933e-03 0.0 
0.0 0.0 0.0 
1.334359745655e-03 9.082768757269e-04 0.0 
9.082768757269e-04 1.788959270388e-03 0.0 
0.0 0.0 0.0 
6.006255829896e-04 -1.169935379325e-03 0.0 
-1.169935379325e-03 2.490927253942e-03 0.0 
0.0 0.0 0.0 
1.387792207401e-04 -1.860996563495e-03 0.0 
-1.860996563495e-03 1.940989836686e-03 0.0 
0.0 0.0 0.0 
-9.938572027227e-04 1.560767853355e-03 0.0 
1.560767853355e-03 2.901235135777e-03 0.0 
0.0 0.0 0.0 
1.997117991802e-03 1.470108725794e-04 0.0 
1.470108725794e-04 3.193093859160e-04 0.0 
0.0 0.0 0.0 
-9.316686425442e-04 1.259086025245e-03 0.0 
1.259086025245e-03 5.705132611274e-03 0.0 
0.0 0.0 0.0 
-1.081877682865e-03 -1.062161282020e-03 0.0 
-1.062161282020e-03 2.230509184365e-03 0.0 
0.0 0.0 0.0 
3.375723509101e-03 -1.085900294343e-03 0.0 
-1.085900294343e-03 -2.807881608654e-03 0.0 
0.0 0.0 0.0 
2.861228032551e-03 -9.646122890692e-04 0.0 
-9.646122890692e-04 -1.829582677509e-03 0.0 
0.0 0.0 0.0 
3.086316810047e-03 4.362730474395e-04 0.0 
4.362730474395e-04 -1.712790151067e-03 0.0 
0.0 0.0 0.0 
3.656915624707e-03 -7.340156019692e-04 0.0 
-7.340156019692e-04 -4.065170006285e-03 0.0 
0.0 0.0 0.0 
3.775018967507e-03 -5.957568224071e-04 0.0 
-5.957568224071e-04 -3.097457314713e-03 0.0 
0.0 0.0 0.0 
2.589368591050e-03 4.266084707080e-04 0.0 
4.266084707080e-04 -7.686077071409e-04 0.0 
0.0 0.0 0.0 
-7.215368747265e-04 1.954764808964e-03 0.0 
1.954764808964e-03 2.807961260977e-03 0.0 
0.0 0.0 0.0 
1.257061671536e-04 -2.190323901479e-03 0.0 
-2.190323901479e-03 1.313312534274e-03 0.0 
0.0 0.0 0.0 
-1.143059658694e-03 7.866311742547e-04 0.0 
7.866311742547e-04 5.899720821926e-03 0.0 
0.0 0.0 0.0 
-1.138037014386e-03 2.573235496072e-04 0.0 
2.573235496072e-04 5.063271718920e-03 0.0 
0.0 0.0 0.0 
-5.859283802371e-04 1.736813406414e-03 0.0 
1.736813406414e-03 4.672367367351e-04 0.0 
0.0 0.0 0.0 
1.871404994442e-04 -2.044752969091e-03 0.0 
-2.044752969091e-03 1.300293683146e-03 0.0 
0.0 0.0 0.0 
1.934815563081e-03 -1.980627574289e-04 0.0 
-1.980627574289e-04 3.373048212278e-04 0.0 
0.0 0.0 0.0 
-4.251238327244e-04 1.701205135875e-03 0.0 
1.701205135875e-03 6.138951280311e-03 0.0 
0.0 0.0 0.0 
3.656425332181e-03 4.103286592885e-04 0.0 
4.103286592885e-04 -2.844154681660e-03 0.0 
0.0 0.0 0.0 
1.151787801295e-04 -2.042802636997e-03 0.0 
-2.042802636997e-03 1.603314675477e-03 0.0 
0.0 0.0 0.0 
-1.098691047506e-03 6.202370259801e-04 0.0 
6.202370259801e-04 6.056146510446e-03 0.0 
0.0 0.0 0.0 
-3.876569624891e-04 1.709401741058e-03 0.0 
1.709401741058e-03 6.739121578239e-04 0.0 
0.0 0.0 0.0 
2.176514596545e-03 6.394005432691e-05 0.0 
6.394005432691e-05 -1.056738951588e-04 0.0 
0.0 0.0 0.0 
3.296035982461e-03 -3.060961728123e-05 0.0 
-3.060961728123e-05 -2.261908538556e-03 0.0 
0.0 0.0 0.0 
-8.449793621770e-04 1.981170565450e-03 0.0 
1.981170565450e-03 3.220624029025e-03 0.0 
0.0 0.0 0.0 
4.538133251637e-04 -1.479522804288e-03 0.0 
-1.479522804288e-03 1.995097812919e-03 0.0 
0.0 0.0 0.0 
2.366075090843e-03 -2.860747856171e-03 0.0 
-2.860747856171e-03 -2.761835223104e-03 0.0 
0.0 0.0 0.0 
6.842768604478e-04 -1.306951486014e-03 0.0 
-1.306951486014e-03 1.911079714481e-03 0.0 
0.0 0.0 0.0 
7.907587735001e-04 -8.245095999472e-04 0.0 
-8.245095999472e-04 2.488923112400e-03 0.0 
0.0 0.0 0.0 
2.376104516113e-03 3.631106850951e-04 0.0 
3.631106850951e-04 -4.937292766409e-04 0.0 
0.0 0.0 0.0 
-8.968279113337e-04 6.662259839699e-04 0.0 
6.662259839699e-04 6.596391737625e-03 0.0 
0.0 0.0 0.0 
1.072748099323e-03 1.878397890322e-03 0.0 
1.878397890322e-03 2.122657319171e-03 0.0 
0.0 0.0 0.0 
6.815302473262e-04 -9.634818360539e-04 0.0 
-9.634818360539e-04 2.506982044230e-03 0.0 
0.0 0.0 0.0 
-3.960165093903e-04 1.632748127396e-03 0.0 
1.632748127396e-03 9.214749552287e-04 0.0 
0.0 0.0 0.0 
-1.068062611396e-03 7.467830363965e-04 0.0 
7.467830363965e-04 6.141755551860e-03 0.0 
0.0 0.0 0.0 
1.137039817382e-03 1.315214620579e-03 0.0 
1.315214620579e-03 2.172348620019e-03 0.0 
0.0 0.0 0.0 
-7.529629090198e-04 8.012726407861e-04 0.0 
8.012726407861e-04 6.674760328903e-03 0.0 
0.0 0.0 0.0 
2.792982046962e-03 3.507053121589e-04 0.0 
3.507053121589e-04 -1.330146840670e-03 0.0 
0.0 0.0 0.0 
3.873291063849e-03 -2.413059605658e-05 0.0 
-2.413059605658e-05 -3.054891219990e-03 0.0 
0.0 0.0 0.0 
-1.081631294990e-03 -1.553364800155e-03 0.0 
-1.553364800155e-03 3.235696348042e-03 0.0 
0.0 0.0 0.0 
2.665309667622e-03 5.239857168197e-04 0.0 
5.239857168197e-04 -5.015521468056e-03 0.0 
0.0 0.0 0.0 
-6.586976494106e-04 7.584323904355e-04 0.0 
7.584323904355e-04 6.893403229298e-03 0.0 
0.0 0.0 0.0 
-1.260763256124e-03 -9.127428154315e-04 0.0 
-9.127428154315e-04 2.516530241415e-03 0.0 
0.0 0.0 0.0 
-5.201857013082e-04 1.519956444121e-03 0.0 
1.519956444121e-03 1.271232214119e-03 0.0 
0.0 0.0 0.0 
9.223800343947e-04 2.047642639802e-03 0.0 
2.047642639802e-03 2.243804550432e-03 0.0 
0.0 0.0 0.0 
-4.586424352149e-04 6.649079031630e-04 0.0 
6.649079031630e-04 7.312659456985e-03 0.0 
0.0 0.0 0.0 
1.650065966818e-03 -3.260604199512e-03 0.0 
-3.260604199512e-03 -2.029591430744e-03 0.0 
0.0 0.0 0.0 
6.047053981895e-04 2.531323599329e-03 0.0 
2.531323599329e-03 1.405474645987e-03 0.0 
0.0 0.0 0.0 
-9.240375523606e-04 8.777783672863e-04 0.0 
8.777783672863e-04 6.206758333271e-03 0.0 
0.0 0.0 0.0 
-4.832757248284e-04 -2.015617938070e-03 0.0 
-2.015617938070e-03 1.923292787545e-03 0.0 
0.0 0.0 0.0 
3.404912100943e-03 -1.726730087598e-03 0.0 
-1.726730087598e-03 -3.906963357962e-03 0.0 
0.0 0.0 0.0 
1.927205116458e-03 2.745713316125e-03 0.0 
2.745713316125e-03 -1.597858042793e-03 0.0 
0.0 0.0 0.0 
2.219095401519e-04 -2.898773058322e-03 0.0 
-2.898773058322e-03 -5.121562467769e-05 0.0 
0.0 0.0 0.0 
2.164544595462e-03 -2.797540190907e-03 0.0 
-2.797540190907e-03 -2.088950537116e-03 0.0 
0.0 0.0 0.0 
1.399482475355e-03 -3.211274145197e-03 0.0 
-3.211274145197e-03 -1.064819930005e-03 0.0 
0.0 0.0 0.0 
3.305253271906e-03 3.553798141519e-04 0.0 
3.553798141519e-04 -2.319466136348e-03 0.0 
0.0 0.0 0.0 
-2.074895105242e-04 1.544978223941e-03 0.0 
1.544978223941e-03 7.273069531984e-03 0.0 
0.0 0.0 0.0 
-7.195281495382e-04 1.376946921538e-03 0.0 
1.376946921538e-03 1.761617524761e-03 0.0 
0.0 0.0 0.0 
8.737404803005e-05 -1.109020210031e-03 0.0 
-1.109020210031e-03 3.602000096665e-03 0.0 
0.0 0.0 0.0 
3.905474880762e-03 1.179971419768e-03 0.0 
1.179971419768e-03 -3.302762231642e-03 0.0 
0.0 0.0 0.0 
-1.100874163497e-03 9.278645114313e-04 0.0 
9.278645114313e-04 5.958337416532e-03 0.0 
0.0 0.0 0.0 
3.154851346171e-03 3.542572472320e-04 0.0 
3.542572472320e-04 -4.632094023434e-03 0.0 
0.0 0.0 0.0 
7.207987656450e-04 -7.810694396444e-04 0.0 
-7.810694396444e-04 2.602052432526e-03 0.0 
0.0 0.0 0.0 
7.737804525736e-04 -3.303035776731e-03 0.0 
-3.303035776731e-03 -1.054737934068e-03 0.0 
0.0 0.0 0.0 
-1.495098373650e-03 -1.005143528236e-03 0.0 
-1.005143528236e-03 2.884211941240e-03 0.0 
0.0 0.0 0.0 
2.124545606190e-03 6.673367644000e-04 0.0 
6.673367644000e-04 -9.827213812819e-06 0.0 
0.0 0.0 0.0 
1.870490471917e-03 -1.972708795298e-03 0.0 
-1.972708795298e-03 -1.240453769809e-03 0.0 
0.0 0.0 0.0 
1.413396311436e-03 1.140886600211e-03 0.0 
1.140886600211e-03 1.640790490697e-03 0.0 
0.0 0.0 0.0 
8.213081539252e-04 2.600088385029e-03 0.0 
2.600088385029e-03 7.066108634746e-05 0.0 
0.0 0.0 0.0 
-9.616441842045e-04 1.217052734839e-03 0.0 
1.217052734839e-03 5.993483831842e-03 0.0 
0.0 0.0 0.0 
1.142803922290e-03 8.292770490094e-04 0.0 
8.292770490094e-04 1.971490998513e-03 0.0 
0.0 0.0 0.0 
-9.682374449302e-04 7.475916727546e-04 0.0 
7.475916727546e-04 6.141361808101e-03 0.0 
0.0 0.0 0.0 
-5.012532427432e-04 1.707758991643e-03 0.0 
1.707758991643e-03 6.138396392612e-03 0.0 
0.0 0.0 0.0 
-8.855408156010e-04 9.683740544104e-04 0.0 
9.683740544104e-04 6.500530376672e-03 0.0 
0.0 0.0 0.0 
-8.169951118433e-04 1.104711277091e-03 0.0 
1.104711277091e-03 6.534553807129e-03 0.0 
0.0 0.0 0.0 
2.733293340913e-03 2.650576492444e-03 0.0 
2.650576492444e-03 -3.289231633935e-03 0.0 
0.0 0.0 0.0 
-9.354938047523e-05 -1.156740414861e-03 0.0 
-1.156740414861e-03 3.681770796276e-03 0.0 
0.0 0.0 0.0 
-8.679663950383e-04 1.013346773803e-03 0.0 
1.013346773803e-03 6.250391717455e-03 0.0 
0.0 0.0 0.0 
3.105626462237e-03 1.762263209720e-03 0.0 
1.762263209720e-03 -2.362726802514e-03 0.0 
0.0 0.0 0.0 
-9.430234404338e-04 1.222854855706e-03 0.0 
1.222854855706e-03 2.315628436574e-03 0.0 
0.0 0.0 0.0 
9.588477385489e-04 8.960148975537e-04 0.0 
8.960148975537e-04 2.472636492432e-03 0.0 
0.0 0.0 0.0 
3.782285303018e-03 1.079717995767e-03 0.0 
1.079717995767e-03 -4.233571268042e-03 0.0 
0.0 0.0 0.0 
-1.240842135210e-03 -9.336703654955e-04 0.0 
-9.336703654955e-04 2.521399775934e-03 0.0 
0.0 0.0 0.0 
1.570651308161e-03 1.117777152401e-03 0.0 
1.117777152401e-03 1.065441547376e-03 0.0 
0.0 0.0 0.0 
-2.334335059629e-04 6.794601365234e-05 0.0 
6.794601365234e-05 1.652172861029e-03 0.0 
0.0 0.0 0.0 
1.649018104555e-03 2.372558154941e-03 0.0 
2.372558154941e-03 -2.164942888458e-04 0.0 
0.0 0.0 0.0 
1.986604382700e-03 3.693216378621e-04 0.0 
3.693216378621e-04 2.896699340440e-04 0.0 
0.0 0.0 0.0 
-6.400033123680e-04 1.185872277836e-03 0.0 
1.185872277836e-03 6.802845001382e-03 0.0 
0.0 0.0 0.0 
-5.554641946987e-04 1.339228279577e-03 0.0 
1.339228279577e-03 6.811498689041e-03 0.0 
0.0 0.0 0.0 
2.189701137516e-03 4.301925955514e-04 0.0 
4.301925955514e-04 2.435051944039e-05 0.0 
0.0 0.0 0.0 
-7.907038263084e-04 9.203903038755e-04 0.0 
9.203903038755e-04 6.737639715218e-03 0.0 
0.0 0.0 0.0 
3.626776021862e-03 1.589689755188e-03 0.0 
1.589689755188e-03 -2.979887916847e-03 0.0 
0.0 0.0 0.0 
4.579431640990e-04 2.138467474437e-03 0.0 
2.138467474437e-03 3.045077467127e-03 0.0 
0.0 0.0 0.0 
-1.145392728511e-03 1.079585859980e-03 0.0 
1.079585859980e-03 2.905025969435e-03 0.0 
0.0 0.0 0.0 
-2.239753035023e-04 1.980050929988e-03 0.0 
1.980050929988e-03 5.188877741981e-03 0.0 
0.0 0.0 0.0 
-1.288891935325e-03 9.778488058719e-04 0.0 
9.778488058719e-04 3.506367773193e-03 0.0 
0.0 0.0 0.0 
-1.351757403512e-03 9.458253673597e-04 0.0 
9.458253673597e-04 3.802005137033e-03 0.0 
0.0 0.0 0.0 
3.678762713608e-03 9.354624787311e-04 0.0 
9.354624787311e-04 -2.938262162305e-03 0.0 
0.0 0.0 0.0 
-1.380750800877e-03 9.150187076505e-04 0.0 
9.150187076505e-04 4.091449323992e-03 0.0 
0.0 0.0 0.0 
1.987070920638e-03 2.128423465571e-03 0.0 
2.128423465571e-03 -2.365177034948e-04 0.0 
0.0 0.0 0.0 
2.667806475265e-03 2.237583262090e-03 0.0 
2.237583262090e-03 -1.551948489312e-03 0.0 
0.0 0.0 0.0 
3.591479614165e-03 -5.588432121893e-04 0.0 
-5.588432121893e-04 -2.877112380726e-03 0.0 
0.0 0.0 0.0 
3.280922688151e-03 -1.646708966808e-03 0.0 
-1.646708966808e-03 -3.694051278781e-03 0.0 
0.0 0.0 0.0 
3.886468645158e-03 4.720825501719e-04 0.0 
4.720825501719e-04 -3.130285979228e-03 0.0 
0.0 0.0 0.0 
-5.931330866414e-04 8.861570407954e-04 0.0 
8.861570407954e-04 6.964690253350e-03 0.0 
0.0 0.0 0.0 
-3.334523290300e-04 1.885783297476e-03 0.0 
1.885783297476e-03 5.739975530672e-03 0.0 
0.0 0.0 0.0 
-9.947852655345e-05 -1.304442837214e-03 0.0 
-1.304442837214e-03 3.289392474261e-03 0.0 
0.0 0.0 0.0 
1.241465182186e-03 1.056521419006e-03 0.0 
1.056521419006e-03 1.767405922486e-03 0.0 
0.0 0.0 0.0 
2.212296577843e-03 -1.695337990782e-03 0.0 
-1.695337990782e-03 -1.285837631256e-03 0.0 
0.0 0.0 0.0 
-7.154049785011e-04 1.107972911257e-03 0.0 
1.107972911257e-03 6.533791312098e-03 0.0 
0.0 0.0 0.0 
3.740678787539e-03 -8.506830878777e-05 0.0 
-8.506830878777e-05 -2.948756700958e-03 0.0 
0.0 0.0 0.0 
-2.660379198846e-04 -1.059178609143e-03 0.0 
-1.059178609143e-03 4.152100255322e-03 0.0 
0.0 0.0 0.0 
-7.833873461700e-04 9.723711397043e-04 0.0 
9.723711397043e-04 6.499706615172e-03 0.0 
0.0 0.0 0.0 
-8.960849875435e-04 1.158486145419e-03 0.0 
1.158486145419e-03 6.269602494751e-03 0.0 
0.0 0.0 0.0 
2.571642177185e-03 -7.567839357151e-06 0.0 
-7.567839357151e-06 -9.077780623468e-04 0.0 
0.0 0.0 0.0 
3.846974884707e-03 1.038249623893e-03 0.0 
1.038249623893e-03 -3.135065925766e-03 0.0 
0.0 0.0 0.0 
4.060561630381e-04 2.056436527345e-03 0.0 
2.056436527345e-03 3.463340833286e-03 0.0 
0.0 0.0 0.0 
-4.419296360417e-04 2.184522868146e-03 0.0 
2.184522868146e-03 3.418376858203e-03 0.0 
0.0 0.0 0.0 
2.915125198143e-03 -2.576951497513e-03 0.0 
-2.576951497513e-03 -3.543299952817e-03 0.0 
0.0 0.0 0.0 
3.755059608344e-03 5.435189194326e-05 0.0 
5.435189194326e-05 -4.069203123919e-03 0.0 
0.0 0.0 0.0 
1.105839637342e-03 2.598625642305e-03 0.0 
2.598625642305e-03 -4.820999108714e-04 0.0 
0.0 0.0 0.0 
4.425135833355e-04 2.524221362714e-03 0.0 
2.524221362714e-03 1.407258161663e-03 0.0 
0.0 0.0 0.0 
-3.872675275434e-04 -9.438349417819e-04 0.0 
-9.438349417819e-04 4.577841435250e-03 0.0 
0.0 0.0 0.0 
-9.675745651258e-04 1.017888353268e-03 0.0 
1.017888353268e-03 6.250203612803e-03 0.0 
0.0 0.0 0.0 
3.956883845490e-03 5.474164686190e-04 0.0 
5.474164686190e-04 -3.060601122615e-03 0.0 
0.0 0.0 0.0 
4.305976106227e-04 2.412399509283e-03 0.0 
2.412399509283e-03 2.301367499077e-03 0.0 
0.0 0.0 0.0 
1.803289651883e-03 1.156437533497e-04 0.0 
1.156437533497e-04 6.716631107531e-04 0.0 
0.0 0.0 0.0 
-7.506361240749e-04 7.435972725340e-04 0.0 
7.435972725340e-04 6.895564964325e-03 0.0 
0.0 0.0 0.0 
1.978180682045e-04 2.080888797084e-03 0.0 
2.080888797084e-03 4.015914558778e-03 0.0 
0.0 0.0 0.0 
-1.065251487050e-03 9.586447037317e-04 0.0 
9.586447037317e-04 5.700327999590e-03 0.0 
0.0 0.0 0.0 
1.358458998029e-03 -5.739803687475e-04 0.0 
-5.739803687475e-04 1.397840988358e-03 0.0 
0.0 0.0 0.0 
3.658274630155e-03 -4.100431837667e-05 0.0 
-4.100431837667e-05 -2.776200442001e-03 0.0 
0.0 0.0 0.0 
1.766557467900e-03 -1.096093607307e-04 0.0 
-1.096093607307e-04 6.925310417205e-04 0.0 
0.0 0.0 0.0 
1.412392533715e-03 2.483560530720e-03 0.0 
2.483560530720e-03 -2.317595426045e-04 0.0 
0.0 0.0 0.0 
-6.198582253545e-04 1.003673158918e-03 0.0 
1.003673158918e-03 7.013823131496e-03 0.0 
0.0 0.0 0.0 
5.298817093879e-05 2.081565122146e-03 0.0 
2.081565122146e-03 4.573044642512e-03 0.0 
0.0 0.0 0.0 
2.999128500318e-03 -8.742122346086e-05 0.0 
-8.742122346086e-05 -1.793265491323e-03 0.0 
0.0 0.0 0.0 
3.652455781150e-03 2.500256219660e-04 0.0 
2.500256219660e-04 -4.439023662782e-03 0.0 
0.0 0.0 0.0 
1.009183559382e-03 1.802686169253e-03 0.0 
1.802686169253e-03 2.036427609683e-03 0.0 
0.0 0.0 0.0 
1.638744056048e-03 2.323130192291e-03 0.0 
2.323130192291e-03 4.188841721131e-05 0.0 
0.0 0.0 0.0 
3.864507917105e-03 1.128279401087e-03 0.0 
1.128279401087e-03 -2.909382003374e-03 0.0 
0.0 0.0 0.0 
2.779955003380e-03 1.830852959927e-05 0.0 
1.830852959927e-05 -1.280377857442e-03 0.0 
0.0 0.0 0.0 
1.162295987451e-03 -1.040700947497e-03 0.0 
-1.040700947497e-03 1.312478152685e-03 0.0 
0.0 0.0 0.0 
3.522172445066e-03 -8.962874929466e-04 0.0 
-8.962874929466e-04 -4.252500678930e-03 0.0 
0.0 0.0 0.0 
3.433287853528e-03 -1.146046570832e-04 0.0 
-1.146046570832e-04 -2.509674530829e-03 0.0 
0.0 0.0 0.0 
-7.686577851794e-04 1.792880765917e-03 0.0 
1.792880765917e-03 4.511667194922e-03 0.0 
0.0 0.0 0.0 
-4.895167969781e-04 -9.761018398174e-04 0.0 
-9.761018398174e-04 4.582857826612e-03 0.0 
0.0 0.0 0.0 
-5.956191870700e-04 1.917708601537e-03 0.0 
1.917708601537e-03 4.343899820075e-03 0.0 
0.0 0.0 0.0 
8.976116677495e-04 1.983450514958e-03 0.0 
1.983450514958e-03 2.108302432662e-03 0.0 
0.0 0.0 0.0 
-9.206189844185e-04 1.646865191573e-03 0.0 
1.646865191573e-03 4.654528505013e-03 0.0 
0.0 0.0 0.0 
-1.149008957000e-03 1.315317551772e-03 0.0 
1.315317551772e-03 4.844933816757e-03 0.0 
0.0 0.0 0.0 
-2.083427902012e-04 2.266579374912e-03 0.0 
2.266579374912e-03 3.159017301637e-03 0.0 
0.0 0.0 0.0 
1.501212347547e-03 8.653398926428e-04 0.0 
8.653398926428e-04 1.251764708138e-03 0.0 
0.0 0.0 0.0 
-6.660500019784e-05 -1.311216146019e-03 0.0 
-1.311216146019e-03 3.173573127555e-03 0.0 
0.0 0.0 0.0 
-9.425289547624e-04 1.058393343611e-03 0.0 
1.058393343611e-03 5.988462286187e-03 0.0 
0.0 0.0 0.0 
-4.655879841013e-04 1.340777107976e-03 0.0 
1.340777107976e-03 6.810951239808e-03 0.0 
0.0 0.0 0.0 
-1.049116610698e-03 1.485214554116e-03 0.0 
1.485214554116e-03 4.766543924679e-03 0.0 
0.0 0.0 0.0 
4.069051420501e-03 6.894681609925e-04 0.0 
6.894681609925e-04 -3.433720610429e-03 0.0 
0.0 0.0 0.0 
8.803733681511e-04 1.784526091449e-03 0.0 
1.784526091449e-03 2.659502266987e-03 0.0 
0.0 0.0 0.0 
-5.803274388062e-04 8.185291976118e-04 0.0 
8.185291976118e-04 7.181718867024e-03 0.0 
0.0 0.0 0.0 
2.221967381766e-03 2.222769793033e-03 0.0 
2.222769793033e-03 -1.318020511688e-03 0.0 
0.0 0.0 0.0 
1.776323379012e-03 2.335994080633e-03 0.0 
2.335994080633e-03 -5.980214730964e-04 0.0 
0.0 0.0 0.0 
4.066120055503e-03 6.142044316488e-04 0.0 
6.142044316488e-04 -3.215194366835e-03 0.0 
0.0 0.0 0.0 
-8.706617618635e-04 1.201700895235e-03 0.0 
1.201700895235e-03 5.995119023237e-03 0.0 
0.0 0.0 0.0 
1.636470047635e-04 2.456406498479e-03 0.0 
2.456406498479e-03 1.004125728547e-03 0.0 
0.0 0.0 0.0 
1.972232979649e-03 2.048128633779e-03 0.0 
2.048128633779e-03 -4.398141463104e-04 0.0 
0.0 0.0 0.0 
2.969077304062e-04 2.533965795843e-03 0.0 
2.533965795843e-03 9.929626933749e-04 0.0 
0.0 0.0 0.0 
1.851426488401e-03 9.162282472094e-04 0.0 
9.162282472094e-04 5.170974713045e-04 0.0 
0.0 0.0 0.0 
6.330291691818e-04 1.759713827237e-03 0.0 
1.759713827237e-03 3.191502778952e-03 0.0 
0.0 0.0 0.0 
4.005477748658e-03 -1.915621008014e-05 0.0 
-1.915621008014e-05 -3.227777684622e-03 0.0 
0.0 0.0 0.0 
2.633939685931e-03 -9.232352176751e-04 0.0 
-9.232352176751e-04 -4.781276801118e-03 0.0 
0.0 0.0 0.0 
-4.471875322947e-04 1.535727283969e-03 0.0 
1.535727283969e-03 6.514041120047e-03 0.0 
0.0 0.0 0.0 
-8.239082244876e-05 2.358574080144e-03 0.0 
2.358574080144e-03 1.495768244170e-03 0.0 
0.0 0.0 0.0 
2.581436764003e-03 -1.351945002162e-03 0.0 
-1.351945002162e-03 -1.596820127846e-03 0.0 
0.0 0.0 0.0 
8.303839702957e-04 1.730308917299e-03 0.0 
1.730308917299e-03 2.610796551218e-03 0.0 
0.0 0.0 0.0 
-1.039206395284e-03 1.071620907627e-03 0.0 
1.071620907627e-03 5.987231479870e-03 0.0 
0.0 0.0 0.0 
1.708903100124e-04 -1.401172957212e-03 0.0 
-1.401172957212e-03 2.603865311024e-03 0.0 
0.0 0.0 0.0 
3.165350530407e-03 2.019205478100e-03 0.0 
2.019205478100e-03 -2.141882758740e-03 0.0 
0.0 0.0 0.0 
2.407750730426e-03 -6.179383591564e-04 0.0 
-6.179383591564e-04 -5.081469603194e-03 0.0 
0.0 0.0 0.0 
-5.344935152952e-04 -8.653312027146e-04 0.0 
-8.653312027146e-04 4.975254011574e-03 0.0 
0.0 0.0 0.0 
7.805358677646e-04 2.533605622623e-03 0.0 
2.533605622623e-03 1.031083208442e-03 0.0 
0.0 0.0 0.0 
2.073716349556e-03 1.312878189231e-03 0.0 
1.312878189231e-03 2.516563951698e-04 0.0 
0.0 0.0 0.0 
4.398573885767e-04 2.048243585739e-03 0.0 
2.048243585739e-03 3.342622651386e-03 0.0 
0.0 0.0 0.0 
1.137243352199e-03 -2.038615617284e-04 0.0 
-2.038615617284e-04 -4.861949436252e-03 0.0 
0.0 0.0 0.0 
4.066934939955e-04 -1.311350655658e-03 0.0 
-1.311350655658e-03 2.588559456136e-03 0.0 
0.0 0.0 0.0 
2.740614474875e-03 2.462489953138e-03 0.0 
2.462489953138e-03 -2.081348188749e-03 0.0 
0.0 0.0 0.0 
-1.172294051684e-03 9.769640911636e-04 0.0 
9.769640911636e-04 5.698599778520e-03 0.0 
0.0 0.0 0.0 
-4.638910212982e-04 -1.882280140532e-03 0.0 
-1.882280140532e-03 2.219428224012e-03 0.0 
0.0 0.0 0.0 
4.019827226876e-03 5.440936880638e-04 0.0 
5.440936880638e-04 -3.321233719906e-03 0.0 
0.0 0.0 0.0 
-3.970598875271e-04 -1.092475838263e-03 0.0 
-1.092475838263e-03 4.158013684585e-03 0.0 
0.0 0.0 0.0 
1.730684049474e-03 2.289091967225e-03 0.0 
2.289091967225e-03 -2.594878950382e-04 0.0 
0.0 0.0 0.0 
4.109628432040e-03 6.617714478989e-04 0.0 
6.617714478989e-04 -3.600764557480e-03 0.0 
0.0 0.0 0.0 
6.835177522486e-04 2.476576113756e-03 0.0 
2.476576113756e-03 1.676242679263e-03 0.0 
0.0 0.0 0.0 
2.213452492529e-03 -2.347764165523e-03 0.0 
-2.347764165523e-03 -4.769496556248e-03 0.0 
0.0 0.0 0.0 
7.165861390546e-04 2.172784278277e-03 0.0 
2.172784278277e-03 2.432993359125e-03 0.0 
0.0 0.0 0.0 
1.952916027106e-03 7.103985409157e-04 0.0 
7.103985409157e-04 5.473424857154e-04 0.0 
0.0 0.0 0.0 
-6.711494239076e-05 2.052917709486e-03 0.0 
2.052917709486e-03 5.016011765314e-03 0.0 
0.0 0.0 0.0 
6.442057937950e-04 2.050418320469e-03 0.0 
2.050418320469e-03 2.874060240771e-03 0.0 
0.0 0.0 0.0 
3.960435032011e-03 1.526941778181e-05 0.0 
1.526941778181e-05 -3.837780015172e-03 0.0 
0.0 0.0 0.0 
-3.138694083235e-04 -1.344078431224e-03 0.0 
-1.344078431224e-03 3.296956732850e-03 0.0 
0.0 0.0 0.0 
-4.076738232272e-04 9.685676179464e-04 0.0 
9.685676179464e-04 7.240739970842e-03 0.0 
0.0 0.0 0.0 
6.551505839352e-04 1.110982833521e-03 0.0 
1.110982833521e-03 2.976684082742e-03 0.0 
0.0 0.0 0.0 
1.687464753130e-03 9.468468989994e-04 0.0 
9.468468989994e-04 1.090309515443e-03 0.0 
0.0 0.0 0.0 
3.541207707770e-03 1.566427862957e-03 0.0 
1.566427862957e-03 -2.516633081346e-03 0.0 
0.0 0.0 0.0 
7.434601216274e-04 2.337634859911e-03 0.0 
2.337634859911e-03 2.028443407340e-03 0.0 
0.0 0.0 0.0 
-6.443203904147e-04 -7.444630319354e-04 0.0 
-7.444630319354e-04 4.980679330650e-03 0.0 
0.0 0.0 0.0 
-1.811150676985e-03 -5.375930803901e-04 0.0 
-5.375930803901e-04 4.088509748344e-03 0.0 
0.0 0.0 0.0 
7.307847368145e-04 2.116304482496e-03 0.0 
2.116304482496e-03 2.234952173293e-03 0.0 
0.0 0.0 0.0 
-9.991675330373e-04 9.160680805900e-04 0.0 
9.160680805900e-04 5.959349131751e-03 0.0 
0.0 0.0 0.0 
-2.556392910581e-04 -1.207254242350e-03 0.0 
-1.207254242350e-03 3.690478162985e-03 0.0 
0.0 0.0 0.0 
3.976701011881e-04 -1.283034573858e-03 0.0 
-1.283034573858e-03 2.509646083951e-03 0.0 
0.0 0.0 0.0 
-1.048632691686e-03 4.959308040827e-05 0.0 
4.959308040827e-05 4.838387975224e-03 0.0 
0.0 0.0 0.0 
-1.035422407233e-03 3.691499506819e-05 0.0 
3.691499506819e-05 4.836940438135e-03 0.0 
0.0 0.0 0.0 
-8.021736400038e-04 1.734301362290e-03 0.0 
1.734301362290e-03 4.890203995374e-03 0.0 
0.0 0.0 0.0 
7.713002643173e-04 2.274127399789e-03 0.0 
2.274127399789e-03 1.780567373127e-03 0.0 
0.0 0.0 0.0 
-7.220637132935e-04 -1.675133586768e-03 0.0 
-1.675133586768e-03 2.783494291196e-03 0.0 
0.0 0.0 0.0 
-2.320252864966e-04 2.164317512803e-03 0.0 
2.164317512803e-03 3.674109540152e-03 0.0 
0.0 0.0 0.0 
2.133559697662e-03 2.150140361539e-03 0.0 
2.150140361539e-03 -9.571414850654e-04 0.0 
0.0 0.0 0.0 
1.163093729698e-03 -8.415686484911e-05 0.0 
-8.415686484911e-05 1.783182757490e-03 0.0 
0.0 0.0 0.0 
3.217807821029e-03 1.912164826192e-03 0.0 
1.912164826192e-03 -2.566506603621e-03 0.0 
0.0 0.0 0.0 
-2.028844347605e-04 1.403627005798e-03 0.0 
1.403627005798e-03 7.403047447317e-03 0.0 
0.0 0.0 0.0 
-1.281000569309e-03 1.226820139048e-03 0.0 
1.226820139048e-03 4.606488785692e-03 0.0 
0.0 0.0 0.0 
2.052577434835e-03 2.220423164224e-03 0.0 
2.220423164224e-03 -5.819872527607e-04 0.0 
0.0 0.0 0.0 
-2.096868577917e-04 -1.892483844211e-03 0.0 
-1.892483844211e-03 2.219420997790e-03 0.0 
0.0 0.0 0.0 
3.815529842738e-03 9.083541407257e-04 0.0 
9.083541407257e-04 -3.663108492722e-03 0.0 
0.0 0.0 0.0 
-1.448197893247e-04 -2.187470053532e-03 0.0 
-2.187470053532e-03 1.314493400231e-03 0.0 
0.0 0.0 0.0 
7.925911055557e-04 2.449629449323e-03 0.0 
2.449629449323e-03 1.360788535515e-03 0.0 
0.0 0.0 0.0 
2.031681600583e-04 2.462091024731e-03 0.0 
2.462091024731e-03 2.014537085514e-03 0.0 
0.0 0.0 0.0 
-1.008868560994e-03 1.108569924014e-03 0.0 
1.108569924014e-03 5.718415565127e-03 0.0 
0.0 0.0 0.0 
-1.042763295060e-04 2.184437277953e-03 0.0 
2.184437277953e-03 3.452534567269e-03 0.0 
0.0 0.0 0.0 
-1.472370718534e-04 2.098661825323e-03 0.0 
2.098661825323e-03 3.965800179280e-03 0.0 
0.0 0.0 0.0 
6.525680953109e-04 -1.278649706776e-04 0.0 
-1.278649706776e-04 8.283190256400e-04 0.0 
0.0 0.0 0.0 
-2.392950399827e-04 -2.176862273948e-03 0.0 
-2.176862273948e-03 1.676428939586e-03 0.0 
0.0 0.0 0.0 
3.623669158848e-05 2.465029090585e-03 0.0 
2.465029090585e-03 1.482951602449e-03 0.0 
0.0 0.0 0.0 
-5.379760282949e-04 2.042808599260e-03 0.0 
2.042808599260e-03 3.896539127891e-03 0.0 
0.0 0.0 0.0 
-5.655581574024e-04 1.967816804991e-03 0.0 
1.967816804991e-03 4.333646578270e-03 0.0 
0.0 0.0 0.0 
1.380112928301e-03 6.082181322808e-04 0.0 
6.082181322808e-04 1.469145539397e-03 0.0 
0.0 0.0 0.0 
-5.987811703383e-04 -1.402210047241e-04 0.0 
-1.402210047241e-04 1.942045260592e-03 0.0 
0.0 0.0 0.0 
3.206966825005e-03 -1.859521061502e-03 0.0 
-1.859521061502e-03 -4.154699575734e-03 0.0 
0.0 0.0 0.0 
1.084667390084e-03 2.534755571478e-03 0.0 
2.534755571478e-03 3.863577464231e-04 0.0 
0.0 0.0 0.0 
-4.813294478558e-04 -2.119644197137e-03 0.0 
-2.119644197137e-03 1.669177506025e-03 0.0 
0.0 0.0 0.0 
-1.433376732668e-03 1.061301328253e-03 0.0 
1.061301328253e-03 3.779102489144e-03 0.0 
0.0 0.0 0.0 
-1.478941693877e-03 1.014849388442e-03 0.0 
1.014849388442e-03 4.078059748660e-03 0.0 
0.0 0.0 0.0 
-1.099016935359e-03 1.134377553139e-03 0.0 
1.134377553139e-03 5.715698975836e-03 0.0 
0.0 0.0 0.0 
2.346200678276e-03 2.706787477043e-03 0.0 
2.706787477043e-03 -2.334473010909e-03 0.0 
0.0 0.0 0.0 
-5.437417247406e-04 -1.866404828566e-03 0.0 
-1.866404828566e-03 2.499790290944e-03 0.0 
0.0 0.0 0.0 
1.839044838627e-03 -4.352577320824e-04 0.0 
-4.352577320824e-04 3.738519182677e-04 0.0 
0.0 0.0 0.0 
3.354556661371e-03 -6.823997078165e-04 0.0 
-6.823997078165e-04 -4.408985489668e-03 0.0 
0.0 0.0 0.0 
1.840742123795e-04 1.909583682041e-03 0.0 
1.909583682041e-03 4.137048462481e-03 0.0 
0.0 0.0 0.0 
-7.207445578695e-04 1.052269423764e-03 0.0 
1.052269423764e-03 6.778877593150e-03 0.0 
0.0 0.0 0.0 
-1.048234313590e-03 -1.691758254395e-03 0.0 
-1.691758254395e-03 2.750448029204e-03 0.0 
0.0 0.0 0.0 
-3.112785638613e-04 -1.173524116401e-03 0.0 
-1.173524116401e-03 3.792875245811e-03 0.0 
0.0 0.0 0.0 
4.832240073496e-04 -2.549293659265e-04 0.0 
-2.549293659265e-04 5.480495622676e-04 0.0 
0.0 0.0 0.0 
1.823434002434e-03 -7.945467226062e-04 0.0 
-7.945467226062e-04 1.408459626433e-04 0.0 
0.0 0.0 0.0 
9.660499979844e-04 2.499149302525e-03 0.0 
2.499149302525e-03 1.035128807341e-03 0.0 
0.0 0.0 0.0 
6.495463157710e-04 -1.939213950219e-04 0.0 
-1.939213950219e-04 4.954196475422e-04 0.0 
0.0 0.0 0.0 
-6.214275499407e-04 1.061171156163e-03 0.0 
1.061171156163e-03 6.777888156383e-03 0.0 
0.0 0.0 0.0 
3.048459484090e-03 -9.037284882117e-04 0.0 
-9.037284882117e-04 -4.425107347679e-03 0.0 
0.0 0.0 0.0 
-4.685467098713e-04 2.096925806499e-03 0.0 
2.096925806499e-03 3.887866073456e-03 0.0 
0.0 0.0 0.0 
3.373348618549e-04 2.485534286774e-03 0.0 
2.485534286774e-03 2.010770666729e-03 0.0 
0.0 0.0 0.0 
2.787410264260e-03 -1.415798200272e-03 0.0 
-1.415798200272e-03 -2.230119855433e-03 0.0 
0.0 0.0 0.0 
1.597118506929e-03 -1.611082481553e-03 0.0 
-1.611082481553e-03 4.510990324413e-05 0.0 
0.0 0.0 0.0 
-5.498813148335e-04 1.197774361523e-03 0.0 
1.197774361523e-03 6.802027362005e-03 0.0 
0.0 0.0 0.0 
1.456355571790e-03 -1.352578091652e-03 0.0 
-1.352578091652e-03 6.441481556259e-04 0.0 
0.0 0.0 0.0 
1.433008877946e-03 2.439622639733e-03 0.0 
2.439622639733e-03 2.542169042541e-05 0.0 
0.0 0.0 0.0 
1.288274396543e-03 2.459382752174e-03 0.0 
2.459382752174e-03 3.963578104647e-04 0.0 
0.0 0.0 0.0 
-8.160464789497e-04 1.717428185433e-03 0.0 
1.717428185433e-03 3.686591305585e-04 0.0 
0.0 0.0 0.0 
2.900790964431e-03 -6.938848692904e-04 0.0 
-6.938848692904e-04 -4.665664201305e-03 0.0 
0.0 0.0 0.0 
7.937202274457e-04 1.940748088831e-03 0.0 
1.940748088831e-03 2.723977155429e-03 0.0 
0.0 0.0 0.0 
-1.192845744383e-03 1.285661126410e-03 0.0 
1.285661126410e-03 5.140458141675e-03 0.0 
0.0 0.0 0.0 
7.665055760340e-04 1.892800796059e-03 0.0 
1.892800796059e-03 2.640789307938e-03 0.0 
0.0 0.0 0.0 
2.325794317841e-03 2.729023134698e-03 0.0 
2.729023134698e-03 -2.119336709218e-03 0.0 
0.0 0.0 0.0 
-6.087358336963e-04 1.674034319578e-03 0.0 
1.674034319578e-03 5.529271797800e-03 0.0 
0.0 0.0 0.0 
5.302180099263e-04 1.982555033553e-03 0.0 
1.982555033553e-03 3.347287894651e-03 0.0 
0.0 0.0 0.0 
-1.332243867939e-03 1.119108012217e-03 0.0 
1.119108012217e-03 4.049414183377e-03 0.0 
0.0 0.0 0.0 
6.430241335817e-04 1.995855333674e-03 0.0 
1.995855333674e-03 2.715517893362e-03 0.0 
0.0 0.0 0.0 
-4.864321211024e-04 -1.196398793724e-03 0.0 
-1.196398793724e-03 3.797589087088e-03 0.0 
0.0 0.0 0.0 
1.052733314798e-03 2.326721611815e-03 0.0 
2.326721611815e-03 1.100815048602e-03 0.0 
0.0 0.0 0.0 
-2.399513225820e-04 -2.049404224792e-03 0.0 
-2.049404224792e-03 1.927036743007e-03 0.0 
0.0 0.0 0.0 
-1.542951526755e-04 -2.060379900717e-03 0.0 
-2.060379900717e-03 1.607574097498e-03 0.0 
0.0 0.0 0.0 
-5.542571840196e-04 1.543188261697e-03 0.0 
1.543188261697e-03 6.514243614214e-03 0.0 
0.0 0.0 0.0 
1.667008557992e-03 -1.766552015486e-03 0.0 
-1.766552015486e-03 -4.182090421538e-04 0.0 
0.0 0.0 0.0 
5.015761699578e-04 2.493785078467e-03 0.0 
2.493785078467e-03 1.674740762835e-03 0.0 
0.0 0.0 0.0 
2.908766755668e-03 1.658022367290e-03 0.0 
1.658022367290e-03 -1.914927017711e-03 0.0 
0.0 0.0 0.0 
1.251355640149e-03 -1.118216367567e-03 0.0 
-1.118216367567e-03 1.259707159352e-03 0.0 
0.0 0.0 0.0 
2.592123855464e-03 2.086219817104e-03 0.0 
2.086219817104e-03 -1.300070891755e-03 0.0 
0.0 0.0 0.0 
4.054667191238e-03 6.778980144612e-05 0.0 
6.778980144612e-05 -3.889232542056e-03 0.0 
0.0 0.0 0.0 
3.013931640534e-03 -5.729703157457e-04 0.0 
-5.729703157457e-04 -1.973607657380e-03 0.0 
0.0 0.0 0.0 
4.088463506911e-03 7.554693302318e-04 0.0 
7.554693302318e-04 -3.792443486016e-03 0.0 
0.0 0.0 0.0 
-3.241435802576e-04 2.134122338026e-03 0.0 
2.134122338026e-03 3.678883305080e-03 0.0 
0.0 0.0 0.0 
4.078737938963e-03 -9.244036633686e-06 0.0 
-9.244036633686e-06 -3.673598172399e-03 0.0 
0.0 0.0 0.0 
-7.009641314382e-05 2.301309720369e-03 0.0 
2.301309720369e-03 3.153663825060e-03 0.0 
0.0 0.0 0.0 
1.580720576305e-03 6.853313617978e-04 0.0 
6.853313617978e-04 1.278989637631e-03 0.0 
0.0 0.0 0.0 
1.752878232223e-03 6.319686039627e-04 0.0 
6.319686039627e-04 7.476320619360e-04 0.0 
0.0 0.0 0.0 
2.730923738590e-03 2.120903567276e-03 0.0 
2.120903567276e-03 -2.027326497280e-03 0.0 
0.0 0.0 0.0 
-1.061406623560e-03 1.168390556003e-03 0.0 
1.168390556003e-03 5.431858303638e-03 0.0 
0.0 0.0 0.0 
-4.721577015713e-04 -1.034832084389e-03 0.0 
-1.034832084389e-03 4.244368947769e-03 0.0 
0.0 0.0 0.0 
-6.171949679712e-04 -1.048682179547e-03 0.0 
-1.048682179547e-03 4.247529024273e-03 0.0 
0.0 0.0 0.0 
1.345512521714e-03 2.838944958895e-03 0.0 
2.838944958895e-03 -1.966552821663e-03 0.0 
0.0 0.0 0.0 
4.659763428072e-05 2.298400695148e-03 0.0 
2.298400695148e-03 2.897075609775e-03 0.0 
0.0 0.0 0.0 
-4.640142027978e-04 -8.255824684275e-04 0.0 
-8.255824684275e-04 4.965306486437e-03 0.0 
0.0 0.0 0.0 
-5.691544164487e-04 1.875304225737e-03 0.0 
1.875304225737e-03 1.779394447558e-03 0.0 
0.0 0.0 0.0 
-1.001409969333e-03 -1.584161901740e-03 0.0 
-1.584161901740e-03 3.009392194038e-03 0.0 
0.0 0.0 0.0 
-1.223937570271e-03 2.083661773546e-03 0.0 
2.083661773546e-03 4.825121874519e-04 0.0 
0.0 0.0 0.0 
-5.837660057069e-04 -8.916863967383e-04 0.0 
-8.916863967383e-04 4.639959695931e-03 0.0 
0.0 0.0 0.0 
3.944739356555e-03 8.966102357203e-04 0.0 
8.966102357203e-04 -3.973718273629e-03 0.0 
0.0 0.0 0.0 
-1.785494640042e-03 -4.391381122147e-04 0.0 
-4.391381122147e-04 4.311703288556e-03 0.0 
0.0 0.0 0.0 
1.880954633764e-03 1.522442640276e-03 0.0 
1.522442640276e-03 2.273197328226e-04 0.0 
0.0 0.0 0.0 
-1.151997345590e-03 1.199836900307e-03 0.0 
1.199836900307e-03 5.428156682307e-03 0.0 
0.0 0.0 0.0 
-1.117045739321e-03 1.235434820837e-03 0.0 
1.235434820837e-03 5.146677383661e-03 0.0 
0.0 0.0 0.0 
1.098358153577e-03 2.478658120195e-03 0.0 
2.478658120195e-03 6.880316573552e-04 0.0 
0.0 0.0 0.0 
-1.306453232214e-03 1.183400826973e-03 0.0 
1.183400826973e-03 3.174623012391e-03 0.0 
0.0 0.0 0.0 
-1.376782140154e-03 1.117397586376e-03 0.0 
1.117397586376e-03 3.484870019072e-03 0.0 
0.0 0.0 0.0 
-7.010445056876e-04 -9.013656917959e-04 0.0 
-9.013656917959e-04 4.642338485412e-03 0.0 
0.0 0.0 0.0 
1.526497557572e-03 -1.526822155640e-03 0.0 
-1.526822155640e-03 -1.538715838789e-05 0.0 
0.0 0.0 0.0 
2.566578984343e-03 -1.294594520975e-03 0.0 
-1.294594520975e-03 -1.773122632756e-03 0.0 
0.0 0.0 0.0 
2.002137608396e-03 -5.318806638007e-04 0.0 
-5.318806638007e-04 1.074221521011e-04 0.0 
0.0 0.0 0.0 
3.390649775715e-03 -5.687432476541e-04 0.0 
-5.687432476541e-04 -2.471033390804e-03 0.0 
0.0 0.0 0.0 
3.979265809462e-03 7.586912455337e-04 0.0 
7.586912455337e-04 -3.548158385206e-03 0.0 
0.0 0.0 0.0 
-1.237032984399e-03 1.026680832972e-03 0.0 
1.026680832972e-03 3.209526582312e-03 0.0 
0.0 0.0 0.0 
-1.322531326519e-03 1.201072813810e-03 0.0 
1.201072813810e-03 4.879942077320e-03 0.0 
0.0 0.0 0.0 
-1.040561261362e-03 4.481138090153e-05 0.0 
4.481138090153e-05 4.829602656074e-03 0.0 
0.0 0.0 0.0 
1.812897921928e-03 4.348132341819e-04 0.0 
4.348132341819e-04 7.752572769775e-04 0.0 
0.0 0.0 0.0 
3.107005464106e-03 1.887009099893e-03 0.0 
1.887009099893e-03 -1.995404735414e-03 0.0 
0.0 0.0 0.0 
9.035649200748e-04 1.013377178899e-03 0.0 
1.013377178899e-03 2.450001794472e-03 0.0 
0.0 0.0 0.0 
-1.020897843546e-03 -3.604504875166e-04 0.0 
-3.604504875166e-04 5.241352933758e-03 0.0 
0.0 0.0 0.0 
3.326411903588e-03 -5.070227140714e-04 0.0 
-5.070227140714e-04 -2.447181634843e-03 0.0 
0.0 0.0 0.0 
-3.073462646936e-04 -9.418593304204e-04 0.0 
-9.418593304204e-04 4.911821780301e-03 0.0 
0.0 0.0 0.0 
3.959497293227e-03 -7.013847031962e-04 0.0 
-7.013847031962e-04 -3.588584301336e-03 0.0 
0.0 0.0 0.0 
9.874141310908e-04 1.242701551022e-03 0.0 
1.242701551022e-03 2.284941984758e-03 0.0 
0.0 0.0 0.0 
1.324579128273e-03 2.388341186075e-03 0.0 
2.388341186075e-03 7.003407821120e-04 0.0 
0.0 0.0 0.0 
1.289508173910e-03 2.122368841036e-03 0.0 
2.122368841036e-03 9.161295047635e-04 0.0 
0.0 0.0 0.0 
1.232027292337e-03 -4.910671886628e-04 0.0 
-4.910671886628e-04 1.594103986271e-03 0.0 
0.0 0.0 0.0 
2.634952286562e-04 -2.541017034588e-03 0.0 
-2.541017034588e-03 4.052688189922e-04 0.0 
0.0 0.0 0.0 
2.514132031737e-04 2.416368688143e-03 0.0 
2.416368688143e-03 2.301497442212e-03 0.0 
0.0 0.0 0.0 
3.119815842695e-03 -9.699261031343e-04 0.0 
-9.699261031343e-04 -2.408352299043e-03 0.0 
0.0 0.0 0.0 
1.129378345130e-04 2.411861574611e-03 0.0 
2.411861574611e-03 2.593021754099e-03 0.0 
0.0 0.0 0.0 
2.323190689335e-03 2.595651589735e-03 0.0 
2.595651589735e-03 -1.578034680693e-03 0.0 
0.0 0.0 0.0 
1.471545185771e-03 1.901502808626e-03 0.0 
1.901502808626e-03 8.261502160616e-04 0.0 
0.0 0.0 0.0 
3.174961928176e-03 -1.056251345921e-03 0.0 
-1.056251345921e-03 -2.290063555660e-03 0.0 
0.0 0.0 0.0 
-4.839916442539e-04 -1.704200918656e-03 0.0 
-1.704200918656e-03 2.786678771334e-03 0.0 
0.0 0.0 0.0 
-1.409416745313e-05 2.378946501134e-03 0.0 
2.378946501134e-03 2.597986120188e-03 0.0 
0.0 0.0 0.0 
-6.695264836361e-04 3.363772788001e-03 0.0 
3.363772788001e-03 -1.064901072536e-03 0.0 
0.0 0.0 0.0 
2.563612627191e-03 1.582666104872e-03 0.0 
1.582666104872e-03 -1.239047170489e-03 0.0 
0.0 0.0 0.0 
-5.195822220825e-04 2.617331929336e-03 0.0 
2.617331929336e-03 2.317458979362e-05 0.0 
0.0 0.0 0.0 
-2.257592494854e-04 -7.055087271839e-04 0.0 
-7.055087271839e-04 1.132067126137e-03 0.0 
0.0 0.0 0.0 
-7.947963747100e-04 -1.652314121467e-03 0.0 
-1.652314121467e-03 3.019743569607e-03 0.0 
0.0 0.0 0.0 
2.383389803402e-04 2.102711506507e-03 0.0 
2.102711506507e-03 3.616016636115e-03 0.0 
0.0 0.0 0.0 
-1.022975064241e-03 1.392775740308e-03 0.0 
1.392775740308e-03 5.090233215101e-03 0.0 
0.0 0.0 0.0 
-1.115640416564e-03 1.351391418568e-03 0.0 
1.351391418568e-03 2.557447064571e-03 0.0 
0.0 0.0 0.0 
0.0 1.421715780359e-03 0.0 
1.421715780359e-03 7.346023016697e-03 0.0 
0.0 0.0 0.0 
-1.204643138546e-03 1.917486628596e-03 0.0 
1.917486628596e-03 -2.853959313776e-04 0.0 
0.0 0.0 0.0 
-1.209535626607e-03 1.263035014815e-03 0.0 
1.263035014815e-03 2.875071452369e-03 0.0 
0.0 0.0 0.0 
2.382700931623e-03 -1.269304791024e-03 0.0 
-1.269304791024e-03 -1.301185858338e-03 0.0 
0.0 0.0 0.0 
-1.254547079551e-03 -1.447606854421e-03 0.0 
-1.447606854421e-03 3.219566941445e-03 0.0 
0.0 0.0 0.0 
-1.124047315881e-03 1.633650926117e-03 0.0 
1.633650926117e-03 3.225248549932e-03 0.0 
0.0 0.0 0.0 
3.082814730166e-03 -1.781605380003e-03 0.0 
-1.781605380003e-03 -2.542219470610e-03 0.0 
0.0 0.0 0.0 
1.709058219493e-03 -1.753440112006e-03 0.0 
-1.753440112006e-03 -6.341197686784e-04 0.0 
0.0 0.0 0.0 
1.019604861905e-03 2.394174119232e-03 0.0 
2.394174119232e-03 1.367822422429e-03 0.0 
0.0 0.0 0.0 
2.221747694516e-03 1.358824551172e-03 0.0 
1.358824551172e-03 -3.978598169639e-04 0.0 
0.0 0.0 0.0 
-1.899060147370e-04 2.016337987097e-03 0.0 
2.016337987097e-03 4.760228357203e-03 0.0 
0.0 0.0 0.0 
2.237613802205e-03 3.033206909915e-03 0.0 
3.033206909915e-03 -3.244570399103e-03 0.0 
0.0 0.0 0.0 
-8.554071995914e-04 -1.785192084670e-03 0.0 
-1.785192084670e-03 2.763742763220e-03 0.0 
0.0 0.0 0.0 
-1.258324913810e-03 -1.306048158404e-03 0.0 
-1.306048158404e-03 3.650731605430e-03 0.0 
0.0 0.0 0.0 
-4.049009227721e-04 -2.134222054083e-03 0.0 
-2.134222054083e-03 1.182619336783e-03 0.0 
0.0 0.0 0.0 
-1.361885473007e-03 1.082289165856e-03 0.0 
1.082289165856e-03 4.359900054442e-03 0.0 
0.0 0.0 0.0 
-1.084266833229e-03 1.442676075813e-03 0.0 
1.442676075813e-03 5.083538438894e-03 0.0 
0.0 0.0 0.0 
-1.385196334048e-03 -1.544550197943e-04 0.0 
-1.544550197943e-04 4.980015616306e-03 0.0 
0.0 0.0 0.0 
1.130879558325e-03 -2.599822671907e-04 0.0 
-2.599822671907e-04 2.782971531432e-04 0.0 
0.0 0.0 0.0 
3.386422124194e-04 -7.767126926095e-04 0.0 
-7.767126926095e-04 -4.698442772914e-03 0.0 
0.0 0.0 0.0 
-3.792745539520e-04 -1.696323975186e-03 0.0 
-1.696323975186e-03 1.127811229980e-03 0.0 
0.0 0.0 0.0 
-1.411176375531e-03 -1.193890366166e-03 0.0 
-1.193890366166e-03 3.633425147688e-03 0.0 
0.0 0.0 0.0 
3.875283641500e-03 -6.548893660190e-04 0.0 
-6.548893660190e-04 -3.296821393175e-03 0.0 
0.0 0.0 0.0 
3.169104766676e-03 -1.876415688944e-03 0.0 
-1.876415688944e-03 -3.023041367626e-03 0.0 
0.0 0.0 0.0 
3.878434738964e-03 -7.634997225620e-04 0.0 
-7.634997225620e-04 -3.763954408104e-03 0.0 
0.0 0.0 0.0 
-9.984444505257e-04 -1.421924478541e-03 0.0 
-1.421924478541e-03 3.485013514668e-03 0.0 
0.0 0.0 0.0 
-7.729717728218e-04 1.687830451655e-03 0.0 
1.687830451655e-03 4.898981876690e-03 0.0 
0.0 0.0 0.0 
-1.388338587802e-03 -1.052469625166e-03 0.0 
-1.052469625166e-03 4.005553080599e-03 0.0 
0.0 0.0 0.0 
4.044277126531e-03 -1.766710425093e-05 0.0 
-1.766710425093e-05 -3.402073229767e-03 0.0 
0.0 0.0 0.0 
2.123197850403e-04 2.305249413684e-03 0.0 
2.305249413684e-03 2.895482708144e-03 0.0 
0.0 0.0 0.0 
-1.221363077617e-03 5.897596760583e-04 0.0 
5.897596760583e-04 5.247474959990e-03 0.0 
0.0 0.0 0.0 
1.595346951442e-03 1.382119740928e-03 0.0 
1.382119740928e-03 9.377918502524e-04 0.0 
0.0 0.0 0.0 
-1.519765447321e-03 -9.363137852321e-04 0.0 
-9.363137852321e-04 3.987048905535e-03 0.0 
0.0 0.0 0.0 
-1.183332050152e-03 -1.341875534421e-03 0.0 
-1.341875534421e-03 3.472405258895e-03 0.0 
0.0 0.0 0.0 
-9.079814061125e-04 1.508925957036e-03 0.0 
1.508925957036e-03 1.998613360998e-03 0.0 
0.0 0.0 0.0 
3.511636601804e-03 -1.168070179334e-03 0.0 
-1.168070179334e-03 -2.998458781339e-03 0.0 
0.0 0.0 0.0 
-1.476699865773e-03 -7.963560919646e-04 0.0 
-7.963560919646e-04 4.309844779350e-03 0.0 
0.0 0.0 0.0 
-8.903861156321e-04 6.173740704967e-05 0.0 
6.173740704967e-05 6.242916960770e-03 0.0 
0.0 0.0 0.0 
-9.602847074436e-04 5.363556184063e-05 0.0 
5.363556184063e-05 5.901756001150e-03 0.0 
0.0 0.0 0.0 
-1.012815445176e-03 1.431732033924e-03 0.0 
1.431732033924e-03 2.276923304993e-03 0.0 
0.0 0.0 0.0 
-1.156894532128e-03 -1.181762270127e-03 0.0 
-1.181762270127e-03 3.891939575561e-03 0.0 
0.0 0.0 0.0 
2.066288770763e-03 -2.515730295285e-03 0.0 
-2.515730295285e-03 -2.004742056599e-03 0.0 
0.0 0.0 0.0 
2.574165608114e-04 2.712848789884e-03 0.0 
2.712848789884e-03 -4.449208736304e-04 0.0 
0.0 0.0 0.0 
1.068551496731e-03 1.103302618924e-03 0.0 
1.103302618924e-03 2.315401148521e-03 0.0 
0.0 0.0 0.0 
-4.897366610465e-04 -2.006816339924e-03 0.0 
-2.006816339924e-03 9.828236620537e-04 0.0 
0.0 0.0 0.0 
1.943667448079e-03 -2.373849652992e-03 0.0 
-2.373849652992e-03 -1.291292917923e-03 0.0 
0.0 0.0 0.0 
2.675634223055e-03 1.690840722409e-03 0.0 
1.690840722409e-03 -1.164469734717e-03 0.0 
0.0 0.0 0.0 
-1.069281732380e-03 1.155436524209e-03 0.0 
1.155436524209e-03 2.616103765312e-03 0.0 
0.0 0.0 0.0 
-1.588998540378e-03 -6.807770953695e-04 0.0 
-6.807770953695e-04 4.282838424714e-03 0.0 
0.0 0.0 0.0 
-1.268200840958e-03 -4.447061213758e-05 0.0 
-4.447061213758e-05 2.704759119674e-03 0.0 
0.0 0.0 0.0 
-1.438558015884e-03 1.070216864598e-03 0.0 
1.070216864598e-03 4.615520307366e-03 0.0 
0.0 0.0 0.0 
-1.316653902010e-03 -1.097146170697e-03 0.0 
-1.097146170697e-03 3.878377328935e-03 0.0 
0.0 0.0 0.0 
2.231650814002e-03 -1.654329392539e-03 0.0 
-1.654329392539e-03 -1.543547928928e-03 0.0 
0.0 0.0 0.0 
-7.686149515390e-04 -1.812757491922e-03 0.0 
-1.812757491922e-03 2.492598349247e-03 0.0 
0.0 0.0 0.0 
1.525202548804e-04 2.472576548654e-03 0.0 
2.472576548654e-03 -2.626320249182e-03 0.0 
0.0 0.0 0.0 
-5.835030597534e-04 5.134653347425e-05 0.0 
5.134653347425e-05 7.224577166975e-03 0.0 
0.0 0.0 0.0 
2.529709181545e-03 -2.003748351778e-03 0.0 
-2.003748351778e-03 -2.258647837595e-03 0.0 
0.0 0.0 0.0 
1.436119970906e-03 1.596658939496e-04 0.0 
1.596658939496e-04 1.445064456500e-03 0.0 
0.0 0.0 0.0 
1.552658446471e-03 1.997943585405e-03 0.0 
1.997943585405e-03 9.369179474046e-04 0.0 
0.0 0.0 0.0 
-1.272912109450e-03 -9.424377556449e-04 0.0 
-9.424377556449e-04 4.243532727722e-03 0.0 
0.0 0.0 0.0 
-1.408560686722e-03 -8.520459304070e-04 0.0 
-8.520459304070e-04 4.228988508839e-03 0.0 
0.0 0.0 0.0 
3.909403017530e-03 -6.698796230776e-04 0.0 
-6.698796230776e-04 -3.384714064486e-03 0.0 
0.0 0.0 0.0 
-7.390508438562e-04 -1.791325363920e-03 0.0 
-1.791325363920e-03 8.931491723894e-04 0.0 
0.0 0.0 0.0 
6.345205285738e-04 3.092564708643e-03 0.0 
3.092564708643e-03 -2.753753865488e-03 0.0 
0.0 0.0 0.0 
-1.351850676573e-03 -7.052308718946e-04 0.0 
-7.052308718946e-04 4.550463400973e-03 0.0 
0.0 0.0 0.0 
1.318254048089e-03 -3.113982144212e-04 0.0 
-3.113982144212e-04 1.600535128804e-03 0.0 
0.0 0.0 0.0 
1.000348276233e-03 -2.643624921599e-03 0.0 
-2.643624921599e-03 -6.753037954894e-04 0.0 
0.0 0.0 0.0 
2.951471586481e-04 2.282149527754e-03 0.0 
2.282149527754e-03 2.653338122128e-03 0.0 
0.0 0.0 0.0 
-4.219943606849e-04 1.950130824557e-03 0.0 
1.950130824557e-03 1.467980112509e-03 0.0 
0.0 0.0 0.0 
1.240283074710e-05 2.195517778373e-03 0.0 
2.195517778373e-03 3.450413406169e-03 0.0 
0.0 0.0 0.0 
3.882589278610e-04 -9.228674020338e-04 0.0 
-9.228674020338e-04 3.643101828946e-03 0.0 
0.0 0.0 0.0 
-4.925613536440e-03 -1.745915751216e-04 0.0 
-1.745915751216e-04 -2.770958977542e-03 0.0 
0.0 0.0 0.0 
0.0 1.574339454804e-04 0.0 
1.574339454804e-04 7.996862657282e-03 0.0 
0.0 0.0 0.0 
0.0 -2.979118448542e-04 0.0 
-2.979118448542e-04 5.883727386389e-03 0.0 
0.0 0.0 0.0 
-1.015870928883e-03 -2.164732090736e-05 0.0 
-2.164732090736e-05 5.276916759325e-03 0.0 
0.0 0.0 0.0 
1.473693735074e-03 -2.384243032593e-03 0.0 
-2.384243032593e-03 -1.018525648517e-03 0.0 
0.0 0.0 0.0 
1.329445843696e-03 2.220526391690e-03 0.0 
2.220526391690e-03 1.116474023044e-03 0.0 
0.0 0.0 0.0 
4.083820321973e-03 -1.855751237781e-05 0.0 
-1.855751237781e-05 -3.492001990421e-03 0.0 
0.0 0.0 0.0 
1.576915085071e-04 -5.258217959619e-04 0.0 
-5.258217959619e-04 8.680428790815e-04 0.0 
0.0 0.0 0.0 
-1.713254864041e-03 2.374679059460e-03 0.0 
2.374679059460e-03 3.723207769879e-04 0.0 
0.0 0.0 0.0 
-4.926980653887e-04 4.734027638920e-04 0.0 
4.734027638920e-04 7.405707260172e-03 0.0 
0.0 0.0 0.0 
-9.554053147373e-04 1.596219867339e-03 0.0 
1.596219867339e-03 5.002333705271e-03 0.0 
0.0 0.0 0.0 
-1.519774780724e-03 9.888455172452e-04 0.0 
9.888455172452e-04 4.359747841427e-03 0.0 
0.0 0.0 0.0 
2.512946803026e-04 1.979263373124e-03 0.0 
1.979263373124e-03 4.401923416455e-03 0.0 
0.0 0.0 0.0 
-8.238733879410e-04 -6.494032299973e-06 0.0 
-6.494032299973e-06 2.221607068841e-03 0.0 
0.0 0.0 0.0 
2.639336120980e-04 1.800868331700e-03 0.0 
1.800868331700e-03 4.175747110686e-03 0.0 
0.0 0.0 0.0 
-9.091189867817e-04 1.550290913666e-03 0.0 
1.550290913666e-03 5.009835649101e-03 0.0 
0.0 0.0 0.0 
6.599322169973e-04 -2.536728180381e-03 0.0 
-2.536728180381e-03 -4.952281528536e-05 0.0 
0.0 0.0 0.0 
1.384928463574e-03 2.332782432986e-03 0.0 
2.332782432986e-03 4.071548901139e-04 0.0 
0.0 0.0 0.0 
1.391644569967e-03 -2.384139770385e-03 0.0 
-2.384139770385e-03 -6.125379864156e-04 0.0 
0.0 0.0 0.0 
2.169671529748e-04 2.525269610968e-03 0.0 
2.525269610968e-03 -1.294070472802e-04 0.0 
0.0 0.0 0.0 
9.227862178143e-04 -2.517407721548e-03 0.0 
-2.517407721548e-03 -1.356334841719e-04 0.0 
0.0 0.0 0.0 
-6.209680438913e-04 1.813743692607e-03 0.0 
1.813743692607e-03 4.760243996762e-03 0.0 
0.0 0.0 0.0 
-9.001955090938e-04 -4.736592829838e-04 0.0 
-4.736592829838e-04 5.259266693150e-03 0.0 
0.0 0.0 0.0 
2.522454949584e-03 -2.083854442632e-03 0.0 
-2.083854442632e-03 -1.872181446857e-03 0.0 
0.0 0.0 0.0 
1.142754562642e-04 2.195757351408e-03 0.0 
2.195757351408e-03 3.234942000628e-03 0.0 
0.0 0.0 0.0 
-1.711545796193e-03 -2.619978910269e-04 0.0 
-2.619978910269e-04 -4.357022337735e-03 0.0 
0.0 0.0 0.0 
3.550487368204e-03 -1.234134962034e-03 0.0 
-1.234134962034e-03 -2.894502122812e-03 0.0 
0.0 0.0 0.0 
-8.013371995013e-04 1.566202104927e-03 0.0 
1.566202104927e-03 5.605677334882e-03 0.0 
0.0 0.0 0.0 
1.175402805167e-04 -2.481519606089e-03 0.0 
-2.481519606089e-03 8.494232605019e-04 0.0 
0.0 0.0 0.0 
5.417978384452e-04 -2.682854225729e-03 0.0 
-2.682854225729e-03 -1.390449711964e-04 0.0 
0.0 0.0 0.0 
1.647078944971e-03 2.206839095143e-03 0.0 
2.206839095143e-03 4.260374434457e-04 0.0 
0.0 0.0 0.0 
1.806232482060e-03 -3.044300608076e-03 0.0 
-3.044300608076e-03 -1.884276356467e-03 0.0 
0.0 0.0 0.0 
-6.988456572131e-04 1.626406968026e-03 0.0 
1.626406968026e-03 1.539537673959e-03 0.0 
0.0 0.0 0.0 
-7.959117381804e-04 1.607990355410e-03 0.0 
1.607990355410e-03 1.732133852391e-03 0.0 
0.0 0.0 0.0 
5.197222664943e-05 -2.482258165727e-03 0.0 
-2.482258165727e-03 8.031007781493e-04 0.0 
0.0 0.0 0.0 
2.147433507824e-03 -1.571048462319e-03 0.0 
-1.571048462319e-03 -1.242524818076e-03 0.0 
0.0 0.0 0.0 
2.630243147338e-03 1.982167068146e-03 0.0 
1.982167068146e-03 -1.688536577291e-03 0.0 
0.0 0.0 0.0 
2.442097204296e-04 2.184322294018e-03 0.0 
2.184322294018e-03 3.235823957662e-03 0.0 
0.0 0.0 0.0 
-2.014695691460e-04 1.946108168746e-03 0.0 
1.946108168746e-03 5.619381671659e-03 0.0 
0.0 0.0 0.0 
-8.508214651909e-04 1.298553254391e-03 0.0 
1.298553254391e-03 2.041921777808e-03 0.0 
0.0 0.0 0.0 
-8.015086283037e-04 3.140799546538e-05 0.0 
3.140799546538e-05 6.589832183378e-03 0.0 
0.0 0.0 0.0 
1.342218586522e-04 2.064001437263e-03 0.0 
2.064001437263e-03 4.425988725513e-03 0.0 
0.0 0.0 0.0 
4.110184167785e-03 5.051770974146e-06 0.0 
5.051770974146e-06 -3.700438924918e-03 0.0 
0.0 0.0 0.0 
-2.163915691576e-04 2.390402013170e-03 0.0 
2.390402013170e-03 1.484170500876e-05 0.0 
0.0 0.0 0.0 
-5.670309195835e-04 2.063469751243e-03 0.0 
2.063469751243e-03 1.745963300586e-03 0.0 
0.0 0.0 0.0 
1.821634251235e-03 -1.847189391055e-03 0.0 
-1.847189391055e-03 -1.019271803534e-03 0.0 
0.0 0.0 0.0 
-2.174560860390e-04 2.092015070178e-03 0.0 
2.092015070178e-03 3.966923125842e-03 0.0 
0.0 0.0 0.0 
2.113269013108e-03 -1.578653419815e-03 0.0 
-1.578653419815e-03 -1.061695346126e-03 0.0 
0.0 0.0 0.0 
1.598749988161e-03 2.824721224638e-03 0.0 
2.824721224638e-03 -2.766973076167e-03 0.0 
0.0 0.0 0.0 
1.934618357768e-03 -1.445719355994e-03 0.0 
-1.445719355994e-03 -7.096365932292e-04 0.0 
0.0 0.0 0.0 
1.195884266074e-04 2.398121133138e-03 0.0 
2.398121133138e-03 1.592382471101e-04 0.0 
0.0 0.0 0.0 
2.932597014969e-03 1.761907710879e-03 0.0 
1.761907710879e-03 -1.658625747078e-03 0.0 
0.0 0.0 0.0 
1.977351605462e-03 -1.496620648302e-03 0.0 
-1.496620648302e-03 -6.753017757650e-04 0.0 
0.0 0.0 0.0 
1.608490558262e-03 2.115364202751e-03 0.0 
2.115364202751e-03 2.398065981029e-04 0.0 
0.0 0.0 0.0 
-9.412200719645e-04 1.621822845026e-04 0.0 
1.621822845026e-04 6.141008991866e-03 0.0 
0.0 0.0 0.0 
-1.366932193096e-04 -2.414386880515e-03 0.0 
-2.414386880515e-03 7.947080053479e-04 0.0 
0.0 0.0 0.0 
3.616178105585e-04 2.926978568023e-03 0.0 
2.926978568023e-03 -8.344792105003e-04 0.0 
0.0 0.0 0.0 
1.852384365067e-03 -1.278043653249e-03 0.0 
-1.278043653249e-03 -5.446001104292e-05 0.0 
0.0 0.0 0.0 
7.494184869783e-06 2.275106709733e-03 0.0 
2.275106709733e-03 4.658864703870e-04 0.0 
0.0 0.0 0.0 
4.875158598960e-04 7.424671104832e-04 0.0 
7.424671104832e-04 -4.857523293464e-03 0.0 
0.0 0.0 0.0 
-3.776905932062e-04 9.826346125126e-05 0.0 
9.826346125126e-05 7.520771748055e-03 0.0 
0.0 0.0 0.0 
-5.455867889113e-04 8.740419696832e-05 0.0 
8.740419696832e-05 7.225989393151e-03 0.0 
0.0 0.0 0.0 
-4.565239446402e-04 -5.704528337288e-04 0.0 
-5.704528337288e-04 6.035555492117e-04 0.0 
0.0 0.0 0.0 
1.719560965244e-03 -1.166747927696e-03 0.0 
-1.166747927696e-03 3.433711418976e-06 0.0 
0.0 0.0 0.0 
-3.982752079476e-04 -1.970538817478e-03 0.0 
-1.970538817478e-03 1.149899734933e-03 0.0 
0.0 0.0 0.0 
-6.120475133813e-04 -2.000448803192e-03 0.0 
-2.000448803192e-03 1.479728518769e-03 0.0 
0.0 0.0 0.0 
1.471109289524e-04 2.125510321171e-03 0.0 
2.125510321171e-03 3.614652496354e-03 0.0 
0.0 0.0 0.0 
1.905011138918e-03 1.940660053407e-03 0.0 
1.940660053407e-03 2.621561077549e-04 0.0 
0.0 0.0 0.0 
3.169689438596e-04 2.172306718370e-03 0.0 
2.172306718370e-03 3.041329929476e-03 0.0 
0.0 0.0 0.0 
3.113962836012e-03 -1.755943670254e-03 0.0 
-1.755943670254e-03 -2.794813261929e-03 0.0 
0.0 0.0 0.0 
-1.104801844727e-03 1.248458609333e-04 0.0 
1.248458609333e-04 4.812066052819e-03 0.0 
0.0 0.0 0.0 
1.283243772252e-04 -9.703885583065e-04 0.0 
-9.703885583065e-04 3.944686734906e-03 0.0 
0.0 0.0 0.0 
-6.193699510775e-04 -1.773213472407e-03 0.0 
-1.773213472407e-03 1.360684397520e-03 0.0 
0.0 0.0 0.0 
1.616079271117e-03 2.009179045888e-04 0.0 
2.009179045888e-04 1.045435825573e-03 0.0 
0.0 0.0 0.0 
2.423272833254e-03 2.002332446016e-03 0.0 
2.002332446016e-03 -9.348774146806e-04 0.0 
0.0 0.0 0.0 
-3.370299644947e-04 -3.353406762494e-04 0.0 
-3.353406762494e-04 1.561417342205e-03 0.0 
0.0 0.0 0.0 
-4.074846256005e-04 2.017286012098e-03 0.0 
2.017286012098e-03 4.154187217098e-03 0.0 
0.0 0.0 0.0 
3.810299149193e-03 -6.340072238982e-04 0.0 
-6.340072238982e-04 -3.092819201388e-03 0.0 
0.0 0.0 0.0 
-6.287611900293e-04 -1.831117781723e-03 0.0 
-1.831117781723e-03 8.932727287798e-04 0.0 
0.0 0.0 0.0 
3.574315460977e-03 -1.298463497773e-03 0.0 
-1.298463497773e-03 -3.109294870325e-03 0.0 
0.0 0.0 0.0 
-1.490671789001e-03 -4.986450467253e-05 0.0 
-4.986450467253e-05 4.910573616084e-03 0.0 
0.0 0.0 0.0 
-6.300105858259e-04 1.856669074458e-03 0.0 
1.856669074458e-03 4.750327260690e-03 0.0 
0.0 0.0 0.0 
-2.834762750270e-04 -1.958730270938e-03 0.0 
-1.958730270938e-03 7.567839256604e-04 0.0 
0.0 0.0 0.0 
-1.875772631258e-03 -3.044686780700e-04 0.0 
-3.044686780700e-04 4.283711191596e-03 0.0 
0.0 0.0 0.0 
-3.091857382875e-05 2.126954334331e-03 0.0 
2.126954334331e-03 3.786055863952e-03 0.0 
0.0 0.0 0.0 
1.451074650840e-03 1.376890854858e-03 0.0 
1.376890854858e-03 1.533026061169e-03 0.0 
0.0 0.0 0.0 
4.885248767381e-04 -2.555540906354e-03 0.0 
-2.555540906354e-03 3.406482644082e-04 0.0 
0.0 0.0 0.0 
-1.356530534664e-03 -3.055711008455e-04 0.0 
-3.055711008455e-04 2.698991705942e-03 0.0 
0.0 0.0 0.0 
2.421417041602e-03 1.912729304429e-03 0.0 
1.912729304429e-03 -1.193901109128e-03 0.0 
0.0 0.0 0.0 
-9.239942767577e-04 -2.261959943923e-05 0.0 
-2.261959943923e-05 6.047038759593e-03 0.0 
0.0 0.0 0.0 
-3.804856902916e-04 -2.600106070470e-03 0.0 
-2.600106070470e-03 6.763965749050e-04 0.0 
0.0 0.0 0.0 
1.790502556285e-04 2.152321162913e-03 0.0 
2.152321162913e-03 4.603540327908e-03 0.0 
0.0 0.0 0.0 
-1.577230078122e-04 1.850963332236e-03 0.0 
1.850963332236e-03 6.306699950922e-03 0.0 
0.0 0.0 0.0 
-9.946746665805e-04 1.040312685380e-05 0.0 
1.040312685380e-05 5.517407349582e-03 0.0 
0.0 0.0 0.0 
-4.374487903455e-04 1.092684529885e-03 0.0 
1.092684529885e-03 7.293573303345e-03 0.0 
0.0 0.0 0.0 
-8.800985816859e-05 2.021449869131e-03 0.0 
2.021449869131e-03 5.855339190723e-03 0.0 
0.0 0.0 0.0 
3.027964629693e-03 -1.663530929083e-03 0.0 
-1.663530929083e-03 -2.324215873838e-03 0.0 
0.0 0.0 0.0 
2.013567110533e-03 -2.323936675122e-03 0.0 
-2.323936675122e-03 -1.824030127315e-03 0.0 
0.0 0.0 0.0 
8.241060599143e-04 4.075910393689e-04 0.0 
4.075910393689e-04 2.843186678396e-03 0.0 
0.0 0.0 0.0 
-1.502399242595e-03 2.793355081069e-04 0.0 
2.793355081069e-04 -4.205189495992e-03 0.0 
0.0 0.0 0.0 
-1.095435240414e-03 -1.341265969766e-04 0.0 
-1.341265969766e-04 2.472091769948e-03 0.0 
0.0 0.0 0.0 
-1.781954177228e-03 -2.056199276968e-04 0.0 
-2.056199276968e-04 4.385755394517e-03 0.0 
0.0 0.0 0.0 
2.229283075130e-04 -2.580169984983e-03 0.0 
-2.580169984983e-03 3.472131805164e-04 0.0 
0.0 0.0 0.0 
2.553776844155e-03 -2.210546064755e-03 0.0 
-2.210546064755e-03 -2.046442424400e-03 0.0 
0.0 0.0 0.0 
-6.001262927693e-04 1.729767127507e-03 0.0 
1.729767127507e-03 1.148824371862e-03 0.0 
0.0 0.0 0.0 
-6.290759869038e-04 1.778113835107e-03 0.0 
1.778113835107e-03 1.230897252337e-03 0.0 
0.0 0.0 0.0 
-1.253842441528e-03 4.517012634936e-04 0.0 
4.517012634936e-04 5.387347432515e-03 0.0 
0.0 0.0 0.0 
3.622117041875e-03 -1.309062483425e-03 0.0 
-1.309062483425e-03 -3.276319432990e-03 0.0 
0.0 0.0 0.0 
-1.427810308619e-03 -7.481196996929e-04 0.0 
-7.481196996929e-04 2.769120464666e-03 0.0 
0.0 0.0 0.0 
1.285018063028e-03 1.744138430689e-03 0.0 
1.744138430689e-03 1.445026094451e-03 0.0 
0.0 0.0 0.0 
-3.236193175127e-05 -1.148371533367e-03 0.0 
-1.148371533367e-03 4.916415555496e-03 0.0 
0.0 0.0 0.0 
3.903825203877e-05 -1.170313597641e-03 0.0 
-1.170313597641e-03 4.651346189296e-03 0.0 
0.0 0.0 0.0 
1.876155229849e-03 -2.173313600050e-03 0.0 
-2.173313600050e-03 -1.060778603517e-03 0.0 
0.0 0.0 0.0 
-1.278799107002e-03 5.672933305099e-04 0.0 
5.672933305099e-04 4.991065498488e-03 0.0 
0.0 0.0 0.0 
-1.652304112376e-03 -1.988458968443e-05 0.0 
-1.988458968443e-05 -3.783735774751e-03 0.0 
0.0 0.0 0.0 
-6.715490894788e-04 1.907393353960e-03 0.0 
1.907393353960e-03 8.305168197866e-04 0.0 
0.0 0.0 0.0 
1.611406356236e-03 -3.510004055100e-03 0.0 
-3.510004055100e-03 -2.620916927588e-03 0.0 
0.0 0.0 0.0 
-6.183165882662e-04 1.813982953479e-03 0.0 
1.813982953479e-03 9.418932833869e-04 0.0 
0.0 0.0 0.0 
2.268941959852e-03 1.855398363614e-03 0.0 
1.855398363614e-03 -4.183066750256e-04 0.0 
0.0 0.0 0.0 
1.388858723301e-03 -2.527846268161e-03 0.0 
-2.527846268161e-03 -6.913036765848e-04 0.0 
0.0 0.0 0.0 
2.637502798566e-03 -2.201766275577e-03 0.0 
-2.201766275577e-03 -2.472525296417e-03 0.0 
0.0 0.0 0.0 
1.109886104242e-03 -3.475494102428e-03 0.0 
-3.475494102428e-03 -3.416215301433e-03 0.0 
0.0 0.0 0.0 
-4.731795477948e-04 1.399971936923e-04 0.0 
1.399971936923e-04 7.282357291591e-03 0.0 
0.0 0.0 0.0 
1.504662886676e-03 -2.520522695255e-03 0.0 
-2.520522695255e-03 -1.267795837032e-03 0.0 
0.0 0.0 0.0 
-4.140696372122e-04 4.995970298461e-04 0.0 
4.995970298461e-04 7.401167351336e-03 0.0 
0.0 0.0 0.0 
-6.503621557521e-04 1.819433301488e-04 0.0 
1.819433301488e-04 7.015827918650e-03 0.0 
0.0 0.0 0.0 
-1.804008981428e-04 2.237666730282e-04 0.0 
2.237666730282e-04 7.981680733984e-03 0.0 
0.0 0.0 0.0 
-2.830885447999e-04 -3.828605589832e-04 0.0 
-3.828605589832e-04 5.865282304783e-03 0.0 
0.0 0.0 0.0 
-1.004411614834e-03 4.409791385945e-05 0.0 
4.409791385945e-05 5.525282576267e-03 0.0 
0.0 0.0 0.0 
1.060272351647e-03 -2.566759210530e-03 0.0 
-2.566759210530e-03 -5.791587207741e-04 0.0 
0.0 0.0 0.0 
-6.364606226456e-04 1.448627851669e-03 0.0 
1.448627851669e-03 1.521870733597e-03 0.0 
0.0 0.0 0.0 
1.001759977602e-03 -2.439414606212e-03 0.0 
-2.439414606212e-03 -6.822790624117e-05 0.0 
0.0 0.0 0.0 
0.0 -9.982147319835e-04 0.0 
-9.982147319835e-04 5.203535323675e-03 0.0 
0.0 0.0 0.0 
-9.832502254234e-04 2.043866554897e-03 0.0 
2.043866554897e-03 6.561444663515e-04 0.0 
0.0 0.0 0.0 
-7.779136281846e-04 1.925142642701e-03 0.0 
1.925142642701e-03 6.948699833516e-04 0.0 
0.0 0.0 0.0 
1.445591024539e-03 4.600451783654e-04 0.0 
4.600451783654e-04 1.480931193093e-03 0.0 
0.0 0.0 0.0 
-1.226645545129e-03 3.788268091748e-04 0.0 
3.788268091748e-04 5.089488075592e-03 0.0 
0.0 0.0 0.0 
-3.931923200740e-04 3.403275422552e-04 0.0 
3.403275422552e-04 7.477856297859e-03 0.0 
0.0 0.0 0.0 
5.379138649486e-05 2.114076415288e-03 0.0 
2.114076415288e-03 3.786781778664e-03 0.0 
0.0 0.0 0.0 
1.043837415183e-03 1.430302162826e-03 0.0 
1.430302162826e-03 2.144846045316e-03 0.0 
0.0 0.0 0.0 
-3.577500966846e-04 1.962488822152e-03 0.0 
1.962488822152e-03 4.881481381475e-03 0.0 
0.0 0.0 0.0 
-1.005355941964e-03 1.701509800706e-04 0.0 
1.701509800706e-04 5.584226918365e-03 0.0 
0.0 0.0 0.0 
1.239973375762e-04 -2.579273215494e-03 0.0 
-2.579273215494e-03 3.721865488697e-04 0.0 
0.0 0.0 0.0 
3.510524519235e-04 -2.581253146402e-03 0.0 
-2.581253146402e-03 3.714707588029e-04 0.0 
0.0 0.0 0.0 
-8.353051713297e-04 1.144668996667e-04 0.0 
1.144668996667e-04 6.409789988691e-03 0.0 
0.0 0.0 0.0 
1.162788935540e-03 1.494309005024e-03 0.0 
1.494309005024e-03 2.083170768771e-03 0.0 
0.0 0.0 0.0 
-1.392998763920e-03 7.445063270465e-04 0.0 
7.445063270465e-04 4.508436162404e-03 0.0 
0.0 0.0 0.0 
-1.035434217240e-03 5.247861013113e-05 0.0 
5.247861013113e-05 5.173921777793e-03 0.0 
0.0 0.0 0.0 
-1.029092568862e-03 7.807965828800e-05 0.0 
7.807965828800e-05 5.498956674260e-03 0.0 
0.0 0.0 0.0 
-1.068023130203e-03 1.372087681192e-04 0.0 
1.372087681192e-04 5.597948833821e-03 0.0 
0.0 0.0 0.0 
2.455513280226e-03 -1.942562849214e-03 0.0 
-1.942562849214e-03 -4.092461542885e-03 0.0 
0.0 0.0 0.0 
-8.649617511269e-05 -2.430269345798e-03 0.0 
-2.430269345798e-03 8.405699652667e-04 0.0 
0.0 0.0 0.0 
-3.378641608373e-04 6.959006569822e-04 0.0 
6.959006569822e-04 7.624421048120e-03 0.0 
0.0 0.0 0.0 
-1.009558469265e-03 1.876105293721e-04 0.0 
1.876105293721e-04 5.967333823433e-03 0.0 
0.0 0.0 0.0 
4.478918223589e-04 1.008357774912e-03 0.0 
1.008357774912e-03 3.171996726719e-03 0.0 
0.0 0.0 0.0 
-2.929486747596e-04 2.004814926123e-03 0.0 
2.004814926123e-03 5.596138975089e-03 0.0 
0.0 0.0 0.0 
-3.583928114919e-04 2.052098183329e-03 0.0 
2.052098183329e-03 4.147291924285e-03 0.0 
0.0 0.0 0.0 
-5.436135557764e-04 1.135717853354e-03 0.0 
1.135717853354e-03 7.036781736135e-03 0.0 
0.0 0.0 0.0 
-1.693588483398e-03 -1.048330058845e-03 0.0 
-1.048330058845e-03 3.396584060261e-03 0.0 
0.0 0.0 0.0 
-1.606044504219e-03 -1.099418408761e-03 0.0 
-1.099418408761e-03 3.126152762769e-03 0.0 
0.0 0.0 0.0 
2.559139471590e-04 -9.623849432946e-04 0.0 
-9.623849432946e-04 3.522068256760e-03 0.0 
0.0 0.0 0.0 
5.886120182181e-04 -2.019589721981e-03 0.0 
-2.019589721981e-03 -3.788640297198e-03 0.0 
0.0 0.0 0.0 
-1.042343500607e-03 -1.770715546738e-04 0.0 
-1.770715546738e-04 2.538878425627e-03 0.0 
0.0 0.0 0.0 
0.0 1.802524754851e-03 0.0 
1.802524754851e-03 4.278916204335e-03 0.0 
0.0 0.0 0.0 
3.702835471910e-04 5.888916754914e-05 0.0 
5.888916754914e-05 9.231657560935e-04 0.0 
0.0 0.0 0.0 
-1.024970458932e-03 6.500287508459e-05 0.0 
6.500287508459e-05 5.185514664285e-03 0.0 
0.0 0.0 0.0 
1.107710439963e-03 -1.525103082664e-05 0.0 
-1.525103082664e-05 2.279588756119e-03 0.0 
0.0 0.0 0.0 
-2.536727617349e-04 -7.622957180806e-04 0.0 
-7.622957180806e-04 6.470894010788e-04 0.0 
0.0 0.0 0.0 
1.265992344891e-03 -3.581209809255e-04 0.0 
-3.581209809255e-04 -1.507561565169e-04 0.0 
0.0 0.0 0.0 
-2.029355354077e-04 9.989139688710e-04 0.0 
9.989139688710e-04 7.698729474524e-03 0.0 
0.0 0.0 0.0 
-1.179248632467e-03 2.183054442522e-04 0.0 
2.183054442522e-04 4.798241905944e-03 0.0 
0.0 0.0 0.0 
-3.388524454442e-04 9.124711196808e-04 0.0 
9.124711196808e-04 7.458199229350e-03 0.0 
0.0 0.0 0.0 
8.350340235881e-04 3.333295714116e-04 0.0 
3.333295714116e-04 2.194061028198e-03 0.0 
0.0 0.0 0.0 
-1.173052403093e-03 1.579742556709e-04 0.0 
1.579742556709e-04 4.816167884496e-03 0.0 
0.0 0.0 0.0 
-1.504397276146e-03 3.838282592580e-04 0.0 
3.838282592580e-04 -3.798797905096e-03 0.0 
0.0 0.0 0.0 
-1.940816629784e-04 1.635616843042e-04 0.0 
1.635616843042e-04 7.760906063055e-03 0.0 
0.0 0.0 0.0 
-4.249409822021e-05 -4.407763656173e-04 0.0 
-4.407763656173e-04 1.118568907139e-03 0.0 
0.0 0.0 0.0 
-3.679255360360e-04 7.702085440173e-04 0.0 
7.702085440173e-04 7.356144795415e-03 0.0 
0.0 0.0 0.0 
0.0 -8.683443151762e-04 0.0 
-8.683443151762e-04 5.450548228482e-03 0.0 
0.0 0.0 0.0 
-3.713865045204e-04 1.792079906993e-03 0.0 
1.792079906993e-03 6.070812925978e-03 0.0 
0.0 0.0 0.0 
3.055070955473e-03 -1.711455094234e-03 0.0 
-1.711455094234e-03 -4.069589348813e-03 0.0 
0.0 0.0 0.0 
-1.300806581804e-03 8.151258797321e-04 0.0 
8.151258797321e-04 5.150576384266e-03 0.0 
0.0 0.0 0.0 
-1.815655817177e-03 -6.341935039958e-04 0.0 
-6.341935039958e-04 3.516494417211e-03 0.0 
0.0 0.0 0.0 
1.429210750805e-03 1.587240434602e-03 0.0 
1.587240434602e-03 1.456561275960e-03 0.0 
0.0 0.0 0.0 
3.617202135064e-04 1.113161161293e-03 0.0 
1.113161161293e-03 3.710826158293e-03 0.0 
0.0 0.0 0.0 
-7.448540976093e-04 1.326175020925e-04 0.0 
1.326175020925e-04 6.769411096006e-03 0.0 
0.0 0.0 0.0 
3.766160379284e-04 8.486297641404e-04 0.0 
8.486297641404e-04 3.580621661745e-03 0.0 
0.0 0.0 0.0 
1.663009004038e-03 -1.744139351221e-03 0.0 
-1.744139351221e-03 -4.603762662408e-03 0.0 
0.0 0.0 0.0 
-1.644901585968e-04 -1.055633279398e-03 0.0 
-1.055633279398e-03 4.931029786238e-03 0.0 
0.0 0.0 0.0 
2.772499938543e-03 -2.614469488197e-03 0.0 
-2.614469488197e-03 -2.804866116218e-03 0.0 
0.0 0.0 0.0 
1.657958603696e-04 -2.085222869584e-04 0.0 
-2.085222869584e-04 1.016785775426e-03 0.0 
0.0 0.0 0.0 
6.613290396580e-04 -3.868250657422e-04 0.0 
-3.868250657422e-04 3.044027533171e-03 0.0 
0.0 0.0 0.0 
-3.844241677132e-04 1.505112804461e-03 0.0 
1.505112804461e-03 7.010188716478e-03 0.0 
0.0 0.0 0.0 
-2.720059396565e-04 1.006729512679e-03 0.0 
1.006729512679e-03 7.480626839575e-03 0.0 
0.0 0.0 0.0 
-1.069954495914e-03 1.873222113752e-04 0.0 
1.873222113752e-04 5.137477673454e-03 0.0 
0.0 0.0 0.0 
-1.225565908275e-03 1.121382208257e-03 0.0 
1.121382208257e-03 4.904819780607e-03 0.0 
0.0 0.0 0.0 
2.082105856407e-04 2.662438828108e-03 0.0 
2.662438828108e-03 -1.227721252455e-04 0.0 
0.0 0.0 0.0 
-1.745893477729e-04 2.113828949839e-03 0.0 
2.113828949839e-03 5.788181702994e-03 0.0 
0.0 0.0 0.0 
-1.713869222992e-03 -5.774393442110e-04 0.0 
-5.774393442110e-04 3.240785669931e-03 0.0 
0.0 0.0 0.0 
9.660321585454e-04 3.078841279501e-03 0.0 
3.078841279501e-03 -1.557890073707e-03 0.0 
0.0 0.0 0.0 
1.335309636666e-03 1.519930694818e-03 0.0 
1.519930694818e-03 1.514644130779e-03 0.0 
0.0 0.0 0.0 
-1.081421157703e-03 8.820422641493e-05 0.0 
8.820422641493e-05 4.804471302821e-03 0.0 
0.0 0.0 0.0 
-3.550252534495e-04 1.466420094960e-03 0.0 
1.466420094960e-03 6.762905314469e-03 0.0 
0.0 0.0 0.0 
-1.528439520877e-04 -1.475903248228e-05 0.0 
-1.475903248228e-05 7.990150342211e-03 0.0 
0.0 0.0 0.0 
0.0 7.642197604367e-05 0.0 
7.642197604367e-05 8.019668407175e-03 0.0 
0.0 0.0 0.0 
2.687468391166e-03 8.483760697258e-05 0.0 
8.483760697258e-05 -9.508479066925e-04 0.0 
0.0 0.0 0.0 
2.139470927600e-03 -1.414648897514e-04 0.0 
-1.414648897514e-04 -8.554554365736e-04 0.0 
0.0 0.0 0.0 
-1.025481581679e-03 -1.946422715365e-05 0.0 
-1.946422715365e-05 4.870088213651e-03 0.0 
0.0 0.0 0.0 
-1.032999397855e-03 1.137679492964e-05 0.0 
1.137679492964e-05 4.815923985660e-03 0.0 
0.0 0.0 0.0 
0.0 -1.415789045428e-04 0.0 
-1.415789045428e-04 5.933475034438e-03 0.0 
0.0 0.0 0.0 
-2.831578090851e-04 -2.047731389382e-06 0.0 
-2.047731389382e-06 5.937570497217e-03 0.0 
0.0 0.0 0.0 
2.019379207883e-03 -5.070165735736e-05 0.0 
-5.070165735736e-05 -5.354646170290e-04 0.0 
0.0 0.0 0.0 
-1.453716151343e-03 -3.743426456971e-04 0.0 
-3.743426456971e-04 -4.487461164384e-03 0.0 
0.0 0.0 0.0 
-4.506153857758e-04 -7.012272959594e-04 0.0 
-7.012272959594e-04 5.228159511785e-03 0.0 
0.0 0.0 0.0 
6.260563025129e-04 1.901480792118e-03 0.0 
1.901480792118e-03 3.219137299542e-03 0.0 
0.0 0.0 0.0 
-2.864247812506e-05 -4.772783242072e-04 0.0 
-4.772783242072e-04 1.296777999542e-03 0.0 
0.0 0.0 0.0 
-9.957778497638e-05 -1.054798054596e-03 0.0 
-1.054798054596e-03 4.412448035555e-03 0.0 
0.0 0.0 0.0 
-1.701166832579e-03 -1.343080221801e-04 0.0 
-1.343080221801e-04 4.573209626695e-03 0.0 
0.0 0.0 0.0 
-1.915008320463e-03 -1.480457445553e-04 0.0 
-1.480457445553e-04 4.147395625143e-03 0.0 
0.0 0.0 0.0 
-9.574467018004e-04 1.830152780617e-04 0.0 
1.830152780617e-04 6.154912758455e-03 0.0 
0.0 0.0 0.0 
5.100673129579e-04 -3.160217278429e-03 0.0 
-3.160217278429e-03 -6.399093085039e-04 0.0 
0.0 0.0 0.0 
1.693742078844e-03 1.733991489206e-03 0.0 
1.733991489206e-03 8.468085637292e-04 0.0 
0.0 0.0 0.0 
3.050854587880e-04 -5.351459065277e-04 0.0 
-5.351459065277e-04 9.128285731621e-04 0.0 
0.0 0.0 0.0 
-1.767151442463e-03 -8.165778879922e-04 0.0 
-8.165778879922e-04 3.625955051801e-03 0.0 
0.0 0.0 0.0 
-1.213182133734e-04 2.021889723050e-03 0.0 
2.021889723050e-03 5.458024943056e-03 0.0 
0.0 0.0 0.0 
-4.822711982206e-04 -1.837306825042e-05 0.0 
-1.837306825042e-05 7.399754633634e-03 0.0 
0.0 0.0 0.0 
-1.891344286167e-03 -2.607262260236e-04 0.0 
-2.607262260236e-04 4.206163122472e-03 0.0 
0.0 0.0 0.0 
-9.989029486133e-04 5.339819368058e-05 0.0 
5.339819368058e-05 5.784202007842e-03 0.0 
0.0 0.0 0.0 
3.251886008599e-04 2.101603239258e-03 0.0 
2.101603239258e-03 4.028020543345e-03 0.0 
0.0 0.0 0.0 
-2.101767317635e-04 2.016386260032e-03 0.0 
2.016386260032e-03 4.760329110408e-03 0.0 
0.0 0.0 0.0 
-2.742867424074e-04 2.024095208952e-03 0.0 
2.024095208952e-03 4.439524625504e-03 0.0 
0.0 0.0 0.0 
-1.125141142654e-03 1.326437637880e-04 0.0 
1.326437637880e-04 4.824536975832e-03 0.0 
0.0 0.0 0.0 
2.042864976656e-03 1.632653221904e-03 0.0 
1.632653221904e-03 2.106468398175e-04 0.0 
0.0 0.0 0.0 
-3.276916291883e-04 1.639987522000e-03 0.0 
1.639987522000e-03 6.437122272644e-03 0.0 
0.0 0.0 0.0 
-1.272896528337e-03 -4.972294526260e-04 0.0 
-4.972294526260e-04 2.594966480915e-03 0.0 
0.0 0.0 0.0 
-4.951037488266e-05 -5.279745557929e-04 0.0 
-5.279745557929e-04 4.032745571365e-04 0.0 
0.0 0.0 0.0 
2.919557168788e-04 2.022414197783e-03 0.0 
2.022414197783e-03 3.878536789517e-03 0.0 
0.0 0.0 0.0 
1.611768449792e-03 3.753334302286e-04 0.0 
3.753334302286e-04 1.033798530572e-03 0.0 
0.0 0.0 0.0 
5.214787051802e-04 -3.169346496201e-03 0.0 
-3.169346496201e-03 -7.967309272638e-04 0.0 
0.0 0.0 0.0 
-8.902599128695e-04 8.501723102609e-05 0.0 
8.501723102609e-05 6.427027764027e-03 0.0 
0.0 0.0 0.0 
-2.474575423421e-04 -7.007008180044e-04 0.0 
-7.007008180044e-04 5.432028721394e-03 0.0 
0.0 0.0 0.0 
5.259441999821e-04 1.924941934335e-03 0.0 
1.924941934335e-03 3.195240090028e-03 0.0 
0.0 0.0 0.0 
4.728811620776e-04 2.007724962195e-03 0.0 
2.007724962195e-03 3.723899437575e-03 0.0 
0.0 0.0 0.0 
-1.557762361495e-03 -1.591245524099e-04 0.0 
-1.591245524099e-04 4.751734691286e-03 0.0 
0.0 0.0 0.0 
3.081234140905e-04 2.340057434561e-03 0.0 
2.340057434561e-03 -3.686357290154e-03 0.0 
0.0 0.0 0.0 
-4.799267174154e-04 1.586421324421e-03 0.0 
1.586421324421e-03 1.135824776229e-03 0.0 
0.0 0.0 0.0 
-1.043006809942e-05 2.408464246078e-03 0.0 
2.408464246078e-03 4.711011636227e-04 0.0 
0.0 0.0 0.0 
-1.245860693962e-03 8.309513854781e-04 0.0 
8.309513854781e-04 5.151727068789e-03 0.0 
0.0 0.0 0.0 
1.790069392071e-03 1.830689814858e-03 0.0 
1.830689814858e-03 1.877053722830e-04 0.0 
0.0 0.0 0.0 
-4.019730717361e-04 5.693285066193e-04 0.0 
5.693285066193e-04 7.473702591796e-03 0.0 
0.0 0.0 0.0 
4.770232805296e-04 5.254483674901e-04 0.0 
5.254483674901e-04 2.805015573811e-03 0.0 
0.0 0.0 0.0 
-8.407969871155e-04 -2.256863545242e-03 0.0 
-2.256863545242e-03 4.262355407871e-04 0.0 
0.0 0.0 0.0 
-4.887215007283e-04 -1.212166452501e-03 0.0 
-1.212166452501e-03 6.849599889267e-04 0.0 
0.0 0.0 0.0 
-4.129754072569e-04 1.685971249836e-03 0.0 
1.685971249836e-03 8.107551232073e-04 0.0 
0.0 0.0 0.0 
-8.091607202341e-04 2.375572405424e-04 0.0 
2.375572405424e-04 6.513067696631e-03 0.0 
0.0 0.0 0.0 
-1.421595928857e-03 -7.660272338817e-04 0.0 
-7.660272338817e-04 2.819893924001e-03 0.0 
0.0 0.0 0.0 
-4.414382815581e-04 1.257768583518e-03 0.0 
1.257768583518e-03 7.034759102459e-03 0.0 
0.0 0.0 0.0 
1.557295808057e-04 -2.089226991636e-04 0.0 
-2.089226991636e-04 1.230823540763e-03 0.0 
0.0 0.0 0.0 
9.437914903498e-04 5.572326087037e-04 0.0 
5.572326087037e-04 2.137111495866e-03 0.0 
0.0 0.0 0.0 
-1.144026719024e-03 4.415082812068e-04 0.0 
4.415082812068e-04 5.388260526663e-03 0.0 
0.0 0.0 0.0 
3.511836573205e-04 1.491225890782e-03 0.0 
1.491225890782e-03 3.429620453294e-03 0.0 
0.0 0.0 0.0 
1.158147636232e-03 1.692028828781e-03 0.0 
1.692028828781e-03 2.055817293336e-03 0.0 
0.0 0.0 0.0 
-1.283184522383e-03 9.417769690922e-04 0.0 
9.417769690922e-04 5.069507525666e-03 0.0 
0.0 0.0 0.0 
4.942846501963e-04 -7.822633582931e-04 0.0 
-7.822633582931e-04 3.402176449407e-03 0.0 
0.0 0.0 0.0 
-3.484766263080e-04 1.422815335300e-03 0.0 
1.422815335300e-03 7.123378516050e-03 0.0 
0.0 0.0 0.0 
-3.158827942578e-04 1.532493454785e-04 0.0 
1.532493454785e-04 7.777080551775e-03 0.0 
0.0 0.0 0.0 
-5.219817320026e-04 1.717830915404e-03 0.0 
1.717830915404e-03 6.390254334594e-04 0.0 
0.0 0.0 0.0 
-4.359113635353e-04 1.144837095404e-03 0.0 
1.144837095404e-03 7.035936582193e-03 0.0 
0.0 0.0 0.0 
7.695369474825e-05 2.073116829319e-03 0.0 
2.073116829319e-03 4.736878125814e-03 0.0 
0.0 0.0 0.0 
1.158011310868e-03 4.641842236621e-04 0.0 
4.641842236621e-04 2.166275112830e-03 0.0 
0.0 0.0 0.0 
1.076202466844e-03 1.637676447213e-03 0.0 
1.637676447213e-03 2.051221256149e-03 0.0 
0.0 0.0 0.0 
0.0 -1.069019090826e-03 0.0 
-1.069019090826e-03 4.815673422029e-03 0.0 
0.0 0.0 0.0 
-2.894168297799e-04 2.013824584986e-03 0.0 
2.013824584986e-03 4.440999973005e-03 0.0 
0.0 0.0 0.0 
-1.750572733758e-03 1.214889823508e-03 0.0 
1.214889823508e-03 -1.939494466838e-03 0.0 
0.0 0.0 0.0 
6.531751382330e-04 3.177984302252e-03 0.0 
3.177984302252e-03 -8.256085688899e-04 0.0 
0.0 0.0 0.0 
-2.690705107664e-04 1.995562151504e-03 0.0 
1.995562151504e-03 5.186351976384e-03 0.0 
0.0 0.0 0.0 
-1.172520338774e-03 8.616714761540e-04 0.0 
8.616714761540e-04 5.417271682480e-03 0.0 
0.0 0.0 0.0 
-6.419944328637e-04 -4.609636259803e-04 0.0 
-4.609636259803e-04 5.491392585740e-03 0.0 
0.0 0.0 0.0 
8.987279427084e-04 1.620556023070e-03 0.0 
1.620556023070e-03 2.626861893238e-03 0.0 
0.0 0.0 0.0 
-2.823102418770e-05 -1.022699685913e-03 0.0 
-1.022699685913e-03 4.657459280577e-03 0.0 
0.0 0.0 0.0 
-7.035369154631e-04 2.725112567538e-04 0.0 
2.725112567538e-04 6.862705135934e-03 0.0 
0.0 0.0 0.0 
3.577422397691e-04 1.312658354952e-03 0.0 
1.312658354952e-03 3.264020733883e-03 0.0 
0.0 0.0 0.0 
4.696792875911e-04 -8.830882835018e-04 0.0 
-8.830882835018e-04 3.105682742629e-03 0.0 
0.0 0.0 0.0 
5.057715242014e-04 -7.722295862093e-04 0.0 
-7.722295862093e-04 3.095542528865e-03 0.0 
0.0 0.0 0.0 
-1.553557998841e-03 -5.358946442958e-04 0.0 
-5.358946442958e-04 3.053469378075e-03 0.0 
0.0 0.0 0.0 
-9.922726251821e-05 -1.102146313452e-03 0.0 
-1.102146313452e-03 5.131518272041e-03 0.0 
0.0 0.0 0.0 
-1.321500378032e-03 5.386079009474e-04 0.0 
5.386079009474e-04 4.971820127448e-03 0.0 
0.0 0.0 0.0 
-4.444454578433e-04 3.036951046292e-04 0.0 
3.036951046292e-04 7.482558851233e-03 0.0 
0.0 0.0 0.0 
-4.992611651528e-04 -1.386635047688e-03 0.0 
-1.386635047688e-03 9.013214686115e-04 0.0 
0.0 0.0 0.0 
-5.844032611586e-04 1.402170071900e-04 0.0 
1.402170071900e-04 7.286359974094e-03 0.0 
0.0 0.0 0.0 
-8.935534273588e-04 1.596715462596e-04 0.0 
1.596715462596e-04 6.441194005546e-03 0.0 
0.0 0.0 0.0 
1.211186753127e-03 1.078422493249e-04 0.0 
1.078422493249e-04 2.791942291120e-04 0.0 
0.0 0.0 0.0 
2.720062758375e-03 -2.082389525195e-03 0.0 
-2.082389525195e-03 -4.453355208613e-03 0.0 
0.0 0.0 0.0 
-1.308618195146e-04 2.071118275230e-03 0.0 
2.071118275230e-03 4.302471910810e-03 0.0 
0.0 0.0 0.0 
-2.156683488360e-04 8.015375019629e-04 0.0 
8.015375019629e-04 7.555201732088e-03 0.0 
0.0 0.0 0.0 
-4.208557213498e-04 1.426953024438e-04 0.0 
1.426953024438e-04 7.545763796855e-03 0.0 
0.0 0.0 0.0 
7.115407502418e-04 1.264157303074e-03 0.0 
1.264157303074e-03 2.979371064523e-03 0.0 
0.0 0.0 0.0 
-1.000402582630e-03 2.421762458499e-04 0.0 
2.421762458499e-04 5.755455931833e-03 0.0 
0.0 0.0 0.0 
6.413415192172e-04 -3.141436606320e-04 0.0 
-3.141436606320e-04 1.047322385743e-04 0.0 
0.0 0.0 0.0 
9.647655600700e-04 1.736666153207e-03 0.0 
1.736666153207e-03 -4.240173264140e-03 0.0 
0.0 0.0 0.0 
1.366353074808e-04 -4.834224353253e-04 0.0 
-4.834224353253e-04 3.072517623728e-04 0.0 
0.0 0.0 0.0 
-3.998383350349e-04 -1.513885531185e-03 0.0 
-1.513885531185e-03 8.886830785226e-04 0.0 
0.0 0.0 0.0 
-1.333615436503e-03 2.331939101517e-03 0.0 
2.331939101517e-03 -1.500146574829e-03 0.0 
0.0 0.0 0.0 
-1.831752822142e-03 -8.171034705412e-04 0.0 
-8.171034705412e-04 3.705870238110e-03 0.0 
0.0 0.0 0.0 
-6.253839242755e-04 -4.565904338363e-04 0.0 
-4.565904338363e-04 5.491297737507e-03 0.0 
0.0 0.0 0.0 
-3.178801620991e-04 1.836561631332e-03 0.0 
1.836561631332e-03 6.076850584619e-03 0.0 
0.0 0.0 0.0 
-1.272492917993e-03 1.124334312309e-03 0.0 
1.124334312309e-03 5.170598578726e-03 0.0 
0.0 0.0 0.0 
-1.564892723771e-03 -1.103031534830e-03 0.0 
-1.103031534830e-03 3.047638367963e-03 0.0 
0.0 0.0 0.0 
2.366097213009e-04 -1.074999542308e-03 0.0 
-1.074999542308e-03 3.561150325545e-03 0.0 
0.0 0.0 0.0 
1.042637582154e-03 -2.314332681890e-04 0.0 
-2.314332681890e-04 2.283566731008e-03 0.0 
0.0 0.0 0.0 
5.617511204088e-04 1.649479915954e-03 0.0 
1.649479915954e-03 3.526923556785e-03 0.0 
0.0 0.0 0.0 
1.748868237728e-04 2.004128470122e-03 0.0 
2.004128470122e-03 4.228023670977e-03 0.0 
0.0 0.0 0.0 
-6.625876001509e-05 2.072322392983e-03 0.0 
2.072322392983e-03 4.655593208649e-03 0.0 
0.0 0.0 0.0 
-5.547099618387e-04 -1.132936411630e-03 0.0 
-1.132936411630e-03 8.445830747605e-04 0.0 
0.0 0.0 0.0 
8.987633917452e-04 -1.862970079350e-03 0.0 
-1.862970079350e-03 -4.159772231380e-03 0.0 
0.0 0.0 0.0 
-5.402223323675e-04 -7.358055568601e-04 0.0 
-7.358055568601e-04 5.241663638002e-03 0.0 
0.0 0.0 0.0 
7.360855593412e-04 -7.785957388992e-05 0.0 
-7.785957388992e-05 4.258417077163e-04 0.0 
0.0 0.0 0.0 
7.761965952744e-04 -7.811624081767e-05 0.0 
-7.811624081767e-05 5.616908474400e-04 0.0 
0.0 0.0 0.0 
-4.161985846625e-04 2.745136265525e-03 0.0 
2.745136265525e-03 -9.471094384381e-04 0.0 
0.0 0.0 0.0 
1.294499752742e-04 -5.548559200096e-04 0.0 
-5.548559200096e-04 6.533885483349e-04 0.0 
0.0 0.0 0.0 
2.323224957872e-04 -7.823507219764e-04 0.0 
-7.823507219764e-04 3.517609402762e-03 0.0 
0.0 0.0 0.0 
-5.322515941086e-05 2.087619645887e-03 0.0 
2.087619645887e-03 5.388753603501e-03 0.0 
0.0 0.0 0.0 
-3.582741737813e-04 5.953092365712e-04 0.0 
5.953092365712e-04 7.475163486073e-03 0.0 
0.0 0.0 0.0 
2.651913728717e-04 1.657491169612e-03 0.0 
1.657491169612e-03 3.671070254814e-03 0.0 
0.0 0.0 0.0 
1.158293248512e-03 -2.215957325803e-04 0.0 
-2.215957325803e-04 1.800530144730e-03 0.0 
0.0 0.0 0.0 
-9.593434775912e-04 2.348745088832e-04 0.0 
2.348745088832e-04 5.971595374997e-03 0.0 
0.0 0.0 0.0 
0.0 1.054818407355e-03 0.0 
1.054818407355e-03 7.668381576370e-03 0.0 
0.0 0.0 0.0 
2.009680092420e-03 -3.162728680277e-03 0.0 
-3.162728680277e-03 -2.823389051571e-03 0.0 
0.0 0.0 0.0 
-1.175006243219e-03 1.956939179950e-04 0.0 
1.956939179950e-04 4.761899331194e-03 0.0 
0.0 0.0 0.0 
-4.303016583398e-04 -3.292543407871e-03 0.0 
-3.292543407871e-03 -4.900571132704e-05 0.0 
0.0 0.0 0.0 
7.599534350837e-04 -2.866270660292e-04 0.0 
-2.866270660292e-04 3.734571309555e-05 0.0 
0.0 0.0 0.0 
-2.091585006385e-04 -8.881219898533e-04 0.0 
-8.881219898533e-04 5.503521747106e-03 0.0 
0.0 0.0 0.0 
-1.425150904944e-03 9.064609086024e-04 0.0 
9.064609086024e-04 4.752935328078e-03 0.0 
0.0 0.0 0.0 
6.486660966640e-04 -2.402381156010e-04 0.0 
-2.402381156010e-04 7.571326453437e-04 0.0 
0.0 0.0 0.0 
-1.880170918422e-03 -5.855869403719e-04 0.0 
-5.855869403719e-04 3.773266993330e-03 0.0 
0.0 0.0 0.0 
-7.497882964280e-05 2.179165911634e-03 0.0 
2.179165911634e-03 5.521009781755e-03 0.0 
0.0 0.0 0.0 
-4.651160775836e-04 7.592113478099e-04 0.0 
7.592113478099e-04 7.361918404833e-03 0.0 
0.0 0.0 0.0 
-2.015383098117e-04 1.521153793549e-03 0.0 
1.521153793549e-03 6.944780524694e-03 0.0 
0.0 0.0 0.0 
-1.428402356116e-03 -2.498606923495e-04 0.0 
-2.498606923495e-04 2.947915033080e-03 0.0 
0.0 0.0 0.0 
1.125076460623e-03 3.279236456396e-05 0.0 
3.279236456396e-05 -4.738010669988e-03 0.0 
0.0 0.0 0.0 
-3.012489260068e-05 -1.129822834558e-03 0.0 
-1.129822834558e-03 4.473209642689e-03 0.0 
0.0 0.0 0.0 
-1.650781043707e-04 1.182511860892e-04 0.0 
1.182511860892e-04 8.011163572558e-03 0.0 
0.0 0.0 0.0 
-3.058904631140e-04 -2.218955570864e-04 0.0 
-2.218955570864e-04 5.915660715365e-03 0.0 
0.0 0.0 0.0 
-1.021931692722e-03 3.153205005535e-05 0.0 
3.153205005535e-05 5.122240322414e-03 0.0 
0.0 0.0 0.0 
7.827315941134e-04 -1.085206527148e-04 0.0 
-1.085206527148e-04 2.307043415560e-03 0.0 
0.0 0.0 0.0 
1.481847232134e-04 -1.823526486381e-04 0.0 
-1.823526486381e-04 1.012789109970e-03 0.0 
0.0 0.0 0.0 
-3.725451599361e-04 1.275266924462e-03 0.0 
1.275266924462e-03 7.036059777285e-03 0.0 
0.0 0.0 0.0 
6.310634878106e-04 -3.073400522642e-04 0.0 
-3.073400522642e-04 8.745502093510e-05 0.0 
0.0 0.0 0.0 
3.253388026936e-04 -4.445046903009e-04 0.0 
-4.445046903009e-04 3.152774964772e-03 0.0 
0.0 0.0 0.0 
-3.355717680843e-04 1.654933761311e-03 0.0 
1.654933761311e-03 6.816003749729e-03 0.0 
0.0 0.0 0.0 
6.006887363843e-04 9.163037020596e-04 0.0 
9.163037020596e-04 -4.825130703498e-03 0.0 
0.0 0.0 0.0 
6.277192570034e-04 1.898521524347e-03 0.0 
1.898521524347e-03 3.201477735685e-03 0.0 
0.0 0.0 0.0 
-7.837025599540e-04 1.585887578437e-04 0.0 
1.585887578437e-04 6.705991982391e-03 0.0 
0.0 0.0 0.0 
-1.830682382277e-04 6.071279561479e-04 0.0 
6.071279561479e-04 7.670376400116e-03 0.0 
0.0 0.0 0.0 
0.0 9.479056458370e-04 0.0 
9.479056458370e-04 3.674681087891e-03 0.0 
0.0 0.0 0.0 
-8.937268778259e-04 1.371381321477e-05 0.0 
1.371381321477e-05 6.242340640109e-03 0.0 
0.0 0.0 0.0 
-5.952799946551e-05 2.077970148913e-03 0.0 
2.077970148913e-03 5.656480560217e-03 0.0 
0.0 0.0 0.0 
-4.517607256553e-04 1.471050378164e-03 0.0 
1.471050378164e-03 6.764226570430e-03 0.0 
0.0 0.0 0.0 
-8.067330640656e-04 1.291140455750e-04 0.0 
1.291140455750e-04 6.449784007680e-03 0.0 
0.0 0.0 0.0 
-9.170703181027e-05 2.037878854317e-03 0.0 
2.037878854317e-03 5.292683199395e-03 0.0 
0.0 0.0 0.0 
-1.729176755972e-03 -5.765172446012e-04 0.0 
-5.765172446012e-04 3.309032878120e-03 0.0 
0.0 0.0 0.0 
-1.072695616790e-03 6.472971331310e-05 0.0 
6.472971331310e-05 4.820594662847e-03 0.0 
0.0 0.0 0.0 
5.719321136728e-04 1.716305631268e-03 0.0 
1.716305631268e-03 3.239509706447e-03 0.0 
0.0 0.0 0.0 
-2.106695398173e-04 9.758049480664e-05 0.0 
9.758049480664e-05 7.807931812477e-03 0.0 
0.0 0.0 0.0 
2.033283366663e-03 -1.794733270987e-05 0.0 
-1.794733270987e-05 -7.879599340841e-04 0.0 
0.0 0.0 0.0 
-1.030021859949e-03 2.606893925799e-05 0.0 
2.606893925799e-05 4.826280467342e-03 0.0 
0.0 0.0 0.0 
-3.813736496977e-04 -1.602787599821e-04 0.0 
-1.602787599821e-04 5.806073092866e-03 0.0 
0.0 0.0 0.0 
-3.799684698976e-04 -6.993176595457e-04 0.0 
-6.993176595457e-04 1.409915958681e-03 0.0 
0.0 0.0 0.0 
1.152376485454e-03 2.238269784335e-04 0.0 
2.238269784335e-04 2.226429335754e-03 0.0 
0.0 0.0 0.0 
-4.563656827670e-04 1.668804353949e-03 0.0 
1.668804353949e-03 6.430685056456e-03 0.0 
0.0 0.0 0.0 
-3.443873410350e-04 5.415065362076e-04 0.0 
5.415065362076e-04 7.667288529765e-03 0.0 
0.0 0.0 0.0 
-7.654357004616e-05 -4.623574611032e-04 0.0 
-4.623574611032e-04 1.314249711767e-03 0.0 
0.0 0.0 0.0 
6.193764669649e-04 3.772719966365e-03 0.0 
3.772719966365e-03 -2.462670358162e-03 0.0 
0.0 0.0 0.0 
-1.867976501291e-03 -6.167721079237e-05 0.0 
-6.167721079237e-05 4.282380067274e-03 0.0 
0.0 0.0 0.0 
-6.323291493745e-04 1.429373673604e-04 0.0 
1.429373673604e-04 7.059305899601e-03 0.0 
0.0 0.0 0.0 
-5.282440975320e-03 -3.247436125394e-04 0.0 
-3.247436125394e-04 -2.297444275021e-03 0.0 
0.0 0.0 0.0 
-1.948446046172e-04 1.305125291364e-03 0.0 
1.305125291364e-03 7.213534331420e-03 0.0 
0.0 0.0 0.0 
-8.849824586128e-04 9.997564920480e-05 0.0 
9.997564920480e-05 6.133635873374e-03 0.0 
0.0 0.0 0.0 
1.641036356206e-04 -3.159867592011e-03 0.0 
-3.159867592011e-03 -6.386822081778e-04 0.0 
0.0 0.0 0.0 
-9.599482733240e-04 1.490906363015e-04 0.0 
1.490906363015e-04 5.867475681255e-03 0.0 
0.0 0.0 0.0 
4.613914510005e-04 1.811367875851e-03 0.0 
1.811367875851e-03 3.791753250975e-03 0.0 
0.0 0.0 0.0 
-1.835360368119e-03 -1.184128871615e-04 0.0 
-1.184128871615e-04 4.373559064175e-03 0.0 
0.0 0.0 0.0 
-2.072685333433e-03 2.567929820949e-03 0.0 
2.567929820949e-03 -2.879794685424e-04 0.0 
0.0 0.0 0.0 
-1.657967461649e-03 -7.384184561728e-04 0.0 
-7.384184561728e-04 3.116045684832e-03 0.0 
0.0 0.0 0.0 
-1.799464235867e-03 -7.767130292796e-04 0.0 
-7.767130292796e-04 3.949965665680e-03 0.0 
0.0 0.0 0.0 
-1.796269897243e-03 -4.360992912236e-05 0.0 
-4.360992912236e-05 4.487612292989e-03 0.0 
0.0 0.0 0.0 
8.003781189352e-04 1.304719273318e-03 0.0 
1.304719273318e-03 2.790810049034e-03 0.0 
0.0 0.0 0.0 
-1.894929266050e-03 -3.822430546344e-04 0.0 
-3.822430546344e-04 3.941527808141e-03 0.0 
0.0 0.0 0.0 
-1.854107381468e-03 -5.030023282789e-04 0.0 
-5.030023282789e-04 4.145051275885e-03 0.0 
0.0 0.0 0.0 
1.882739279835e-04 -5.809724285883e-04 0.0 
-5.809724285883e-04 4.975966068128e-04 0.0 
0.0 0.0 0.0 
-7.821547156084e-05 -1.027119526015e-03 0.0 
-1.027119526015e-03 4.418277876547e-03 0.0 
0.0 0.0 0.0 
2.537755594476e-04 2.081467924070e-03 0.0 
2.081467924070e-03 3.884882770027e-03 0.0 
0.0 0.0 0.0 
1.284252376324e-03 3.125384374938e-03 0.0 
3.125384374938e-03 -2.910289208438e-03 0.0 
0.0 0.0 0.0 
-1.707559755518e-04 8.206844045309e-05 0.0 
8.206844045309e-05 7.799088196204e-03 0.0 
0.0 0.0 0.0 
-3.288908467620e-04 -1.514418808902e-04 0.0 
-1.514418808902e-04 5.802288955916e-03 0.0 
0.0 0.0 0.0 
-1.030524642363e-03 4.255885275019e-06 0.0 
4.255885275019e-06 5.137021776069e-03 0.0 
0.0 0.0 0.0 
-9.317334953663e-04 8.280109888378e-05 0.0 
8.280109888378e-05 6.127367791426e-03 0.0 
0.0 0.0 0.0 
-1.893963063710e-03 -5.784207937950e-04 0.0 
-5.784207937950e-04 3.963407483307e-03 0.0 
0.0 0.0 0.0 
-1.862197165718e-03 -5.793278417479e-04 0.0 
-5.793278417479e-04 3.857469751072e-03 0.0 
0.0 0.0 0.0 
-1.899999462694e-03 -3.829721306167e-04 0.0 
-3.829721306167e-04 4.068176539368e-03 0.0 
0.0 0.0 0.0 
1.234380331748e-03 3.859248406963e-04 0.0 
3.859248406963e-04 1.735117270315e-03 0.0 
0.0 0.0 0.0 
-1.203345770918e-04 -2.812231516935e-03 0.0 
-2.812231516935e-03 4.913750722646e-04 0.0 
0.0 0.0 0.0 
1.813311957237e-04 2.110064691330e-03 0.0 
2.110064691330e-03 4.401437754671e-03 0.0 
0.0 0.0 0.0 
-9.934251418531e-04 7.943516215537e-05 0.0 
7.943516215537e-05 5.489597710341e-03 0.0 
0.0 0.0 0.0 
-3.812479734899e-04 1.249985752424e-03 0.0 
1.249985752424e-03 7.253686469842e-03 0.0 
0.0 0.0 0.0 
1.189879533273e-03 2.483268453907e-04 0.0 
2.483268453907e-04 1.718163270502e-03 0.0 
0.0 0.0 0.0 
-1.015641182547e-03 1.577802368791e-04 0.0 
1.577802368791e-04 5.866496719166e-03 0.0 
0.0 0.0 0.0 
-1.320998568706e-04 2.037545517658e-03 0.0 
2.037545517658e-03 5.057224593242e-03 0.0 
0.0 0.0 0.0 
6.982533893765e-04 1.371150625634e-03 0.0 
1.371150625634e-03 2.770448270159e-03 0.0 
0.0 0.0 0.0 
6.391592816437e-04 1.467416576613e-03 0.0 
1.467416576613e-03 3.346805438304e-03 0.0 
0.0 0.0 0.0 
-4.440271519929e-04 2.969049905537e-03 0.0 
2.969049905537e-03 -1.750231950205e-03 0.0 
0.0 0.0 0.0 
-1.544747006806e-04 2.034699950582e-03 0.0 
2.034699950582e-03 5.057609087638e-03 0.0 
0.0 0.0 0.0 
-5.459846839917e-05 2.149414288804e-03 0.0 
2.149414288804e-03 5.050210899987e-03 0.0 
0.0 0.0 0.0 
6.591552829862e-04 -4.504101220650e-04 0.0 
-4.504101220650e-04 3.911096145608e-04 0.0 
0.0 0.0 0.0 
-1.868624550396e-03 -5.886870617958e-04 0.0 
-5.886870617958e-04 3.754945386125e-03 0.0 
0.0 0.0 0.0 
-1.512532992577e-03 3.042243619912e-03 0.0 
3.042243619912e-03 -1.685713520349e-03 0.0 
0.0 0.0 0.0 
-1.846014552127e-04 2.091633593902e-03 0.0 
2.091633593902e-03 5.417958329939e-03 0.0 
0.0 0.0 0.0 
-3.470643087773e-04 3.566057783564e-06 0.0 
3.566057783564e-06 2.663762374335e-04 0.0 
0.0 0.0 0.0 
-3.064461559702e-04 -2.731231995961e-05 0.0 
-2.731231995961e-05 2.881382512911e-04 0.0 
0.0 0.0 0.0 
-3.483597935452e-04 -6.779957007236e-06 0.0 
-6.779957007236e-06 2.896041141800e-04 0.0 
0.0 0.0 0.0 
-2.914281368432e-04 -3.245866867686e-05 0.0 
-3.245866867686e-05 2.871106299147e-04 0.0 
0.0 0.0 0.0 
-3.365319412811e-04 -1.577927010756e-05 0.0 
-1.577927010756e-05 2.889567550473e-04 0.0 
0.0 0.0 0.0 
-2.718912585860e-04 -4.074526064433e-05 0.0 
-4.074526064433e-05 2.794129779931e-04 0.0 
0.0 0.0 0.0 
-3.167452314050e-04 -2.129353934275e-05 0.0 
-2.129353934275e-05 2.823093104110e-04 0.0 
0.0 0.0 0.0 
-2.442789259366e-04 -4.615031948414e-05 0.0 
-4.615031948414e-05 2.672265613795e-04 0.0 
0.0 0.0 0.0 
-2.909259884318e-04 -2.403324086597e-05 0.0 
-2.403324086597e-05 2.713865144617e-04 0.0 
0.0 0.0 0.0 
-2.139550033382e-04 -4.844289786046e-05 0.0 
-4.844289786046e-05 2.532858923781e-04 0.0 
0.0 0.0 0.0 
-2.581863979214e-04 -2.192776557793e-05 0.0 
-2.192776557793e-05 2.592451261132e-04 0.0 
0.0 0.0 0.0 
-1.628515666621e-04 -4.889726186601e-05 0.0 
-4.889726186601e-05 2.329626183708e-04 0.0 
0.0 0.0 0.0 
-2.176478981586e-04 -1.878823191728e-05 0.0 
-1.878823191728e-05 2.410284782330e-04 0.0 
0.0 0.0 0.0 
-1.062802928722e-04 -4.788858353155e-05 0.0 
-4.788858353155e-05 2.084372256093e-04 0.0 
0.0 0.0 0.0 
-1.679127238823e-04 -1.382623825800e-05 0.0 
-1.382623825800e-05 2.190062898242e-04 0.0 
0.0 0.0 0.0 
-3.992660077490e-05 -4.498645722561e-05 0.0 
-4.498645722561e-05 1.803083121388e-04 0.0 
0.0 0.0 0.0 
-1.094953958266e-04 -6.620422769352e-06 0.0 
-6.620422769352e-06 1.938901231964e-04 0.0 
0.0 0.0 0.0 
6.743673086396e-05 -4.978269703757e-05 0.0 
-4.978269703757e-05 1.441505046720e-04 0.0 
0.0 0.0 0.0 
-4.415810154923e-05 -4.093671772753e-06 0.0 
-4.093671772753e-06 1.632226665587e-04 0.0 
0.0 0.0 0.0 
1.876217259251e-04 -5.984642147829e-05 0.0 
-5.984642147829e-05 1.013803219037e-04 0.0 
0.0 0.0 0.0 
3.078700435988e-05 -5.872339355387e-06 0.0 
-5.872339355387e-06 1.274944509619e-04 0.0 
0.0 0.0 0.0 
3.173802470455e-04 -7.468052902811e-05 0.0 
-7.468052902811e-05 5.636757779670e-05 0.0 
0.0 0.0 0.0 
1.116795261784e-04 -1.388982555529e-05 0.0 
-1.388982555529e-05 9.032761439332e-05 0.0 
0.0 0.0 0.0 
-1.250547680059e-03 4.734090462251e-04 0.0 
4.734090462251e-04 7.457873518988e-04 0.0 
0.0 0.0 0.0 
4.515228142581e-04 -9.216205519561e-05 0.0 
-9.216205519561e-05 7.211794087469e-06 0.0 
0.0 0.0 0.0 
2.027765466914e-04 -2.410517175252e-05 0.0 
-2.410517175252e-05 5.021652046810e-05 0.0 
0.0 0.0 0.0 
5.830492125980e-04 -1.074784785278e-04 0.0 
-1.074784785278e-04 -4.213500249817e-05 0.0 
0.0 0.0 0.0 
-3.122946240739e-04 -1.448813278943e-04 0.0 
-1.448813278943e-04 2.624852546884e-04 0.0 
0.0 0.0 0.0 
2.840210827830e-04 -2.844362931586e-05 0.0 
-2.844362931586e-05 1.344231875255e-05 0.0 
0.0 0.0 0.0 
7.053500815966e-04 -1.165972852249e-04 0.0 
-1.165972852249e-04 -8.742774157722e-05 0.0 
0.0 0.0 0.0 
-1.180701518300e-03 5.395416377266e-04 0.0 
5.395416377266e-04 6.621932199589e-04 0.0 
0.0 0.0 0.0 
3.508384414836e-04 -2.811136924634e-05 0.0 
-2.811136924634e-05 -1.794777338948e-05 0.0 
0.0 0.0 0.0 
8.086129038760e-04 -1.192664008678e-04 0.0 
-1.192664008678e-04 -1.259759652421e-04 0.0 
0.0 0.0 0.0 
3.988779916917e-04 -2.294265897147e-05 0.0 
-2.294265897147e-05 -4.165105363674e-05 0.0 
0.0 0.0 0.0 
8.826623873064e-04 -1.134817477486e-04 0.0 
-1.134817477486e-04 -1.553958998348e-04 0.0 
0.0 0.0 0.0 
4.262089430758e-04 -1.256515519244e-05 0.0 
-1.256515519244e-05 -5.702415011399e-05 0.0 
0.0 0.0 0.0 
9.171999193001e-04 -9.626355962612e-05 0.0 
-9.626355962612e-05 -1.751052931626e-04 0.0 
0.0 0.0 0.0 
4.370566185350e-04 3.418749746067e-06 0.0 
3.418749746067e-06 -6.698903526758e-05 0.0 
0.0 0.0 0.0 
9.186686520219e-04 -7.593595730733e-05 0.0 
-7.593595730733e-05 -1.780268497995e-04 0.0 
0.0 0.0 0.0 
4.307633027825e-04 3.529188356431e-05 0.0 
3.529188356431e-05 -5.279498520860e-05 0.0 
0.0 0.0 0.0 
-2.360370469026e-03 1.697416117484e-03 0.0 
1.697416117484e-03 1.654779028867e-03 0.0 
0.0 0.0 0.0 
9.525120781408e-04 -4.019714967750e-05 0.0 
-4.019714967750e-05 -1.778394480394e-04 0.0 
0.0 0.0 0.0 
4.038888011431e-04 6.544028401437e-05 0.0 
6.544028401437e-05 -3.975141085966e-05 0.0 
0.0 0.0 0.0 
9.390414156552e-04 -1.005677718227e-05 0.0 
-1.005677718227e-05 -1.612111440681e-04 0.0 
0.0 0.0 0.0 
3.429072172987e-04 9.140645649625e-05 0.0 
9.140645649625e-05 -9.588189609055e-06 0.0 
0.0 0.0 0.0 
8.784205707368e-04 1.784452405453e-05 0.0 
1.784452405453e-05 -1.245794726382e-04 0.0 
0.0 0.0 0.0 
7.659691269699e-04 3.736424142051e-05 0.0 
3.736424142051e-05 -5.665392255338e-05 0.0 
0.0 0.0 0.0 
2.387275651390e-04 1.152448721223e-04 0.0 
1.152448721223e-04 4.134713349657e-05 0.0 
0.0 0.0 0.0 
6.125612293042e-04 3.930357633879e-05 0.0 
3.930357633879e-05 2.922814309159e-05 0.0 
0.0 0.0 0.0 
8.096233156829e-05 1.203521023816e-04 0.0 
1.203521023816e-04 1.168835946479e-04 0.0 
0.0 0.0 0.0 
4.111068201493e-04 2.590084334836e-05 0.0 
2.590084334836e-05 1.364040565834e-04 0.0 
0.0 0.0 0.0 
-1.499064386725e-04 1.120495190371e-04 0.0 
1.120495190371e-04 2.199850043512e-04 0.0 
0.0 0.0 0.0 
1.616591404914e-04 3.799803353259e-05 0.0 
3.799803353259e-05 1.816511108412e-04 0.0 
0.0 0.0 0.0 
-3.267166702985e-04 6.160456523908e-05 0.0 
6.160456523908e-05 3.042638886439e-04 0.0 
0.0 0.0 0.0 
-3.322590023791e-05 9.734717726210e-05 0.0 
9.734717726210e-05 2.260070859841e-04 0.0 
0.0 0.0 0.0 
-2.824640639492e-04 2.947346218035e-04 0.0 
2.947346218035e-04 2.164882996385e-04 0.0 
0.0 0.0 0.0 
-4.861780386736e-04 9.244178627040e-05 0.0 
9.244178627040e-05 3.606464412225e-04 0.0 
0.0 0.0 0.0 
-7.173180565446e-04 1.801591132992e-04 0.0 
1.801591132992e-04 4.513549354614e-04 0.0 
0.0 0.0 0.0 
-2.017460099908e-03 4.478110394971e-04 0.0 
4.478110394971e-04 2.082420181206e-03 0.0 
0.0 0.0 0.0 
-2.912622176277e-04 -9.066940245966e-06 0.0 
-9.066940245966e-06 2.230234129792e-04 0.0 
0.0 0.0 0.0 
-3.034996246787e-04 1.137845287284e-05 0.0 
1.137845287284e-05 2.666326801051e-04 0.0 
0.0 0.0 0.0 
-2.515947096099e-04 -5.720628436600e-06 0.0 
-5.720628436600e-06 1.781347247412e-04 0.0 
0.0 0.0 0.0 
-3.440777452419e-04 9.242737491792e-06 0.0 
9.242737491792e-06 3.100214029974e-04 0.0 
0.0 0.0 0.0 
-2.986042285849e-03 1.887595058889e-03 0.0 
1.887595058889e-03 8.847817083166e-04 0.0 
0.0 0.0 0.0 
-3.470643087773e-04 -1.006079993053e-05 0.0 
-1.006079993053e-05 6.341947251585e-04 0.0 
0.0 0.0 0.0 
-4.272221577446e-04 -3.614602295798e-05 0.0 
-3.614602295798e-05 6.585482939976e-04 0.0 
0.0 0.0 0.0 
-3.483597935452e-04 -4.013199091271e-05 0.0 
-4.013199091271e-05 6.587294162059e-04 0.0 
0.0 0.0 0.0 
-4.213203898316e-04 -7.373103428097e-05 0.0 
-7.373103428097e-05 6.606152387614e-04 0.0 
0.0 0.0 0.0 
-3.365319412811e-04 -5.775755926705e-05 0.0 
-5.775755926705e-05 6.587359684458e-04 0.0 
0.0 0.0 0.0 
-4.142450602720e-04 -9.518865084518e-05 0.0 
-9.518865084518e-05 6.564003850129e-04 0.0 
0.0 0.0 0.0 
-3.167452314050e-04 -7.117264733127e-05 0.0 
-7.117264733127e-05 6.526240999678e-04 0.0 
0.0 0.0 0.0 
-4.031415999420e-04 -1.127272263491e-04 0.0 
-1.127272263491e-04 6.488220332077e-04 0.0 
0.0 0.0 0.0 
-2.909259884318e-04 -8.310317719710e-05 0.0 
-8.310317719710e-05 6.428804937320e-04 0.0 
0.0 0.0 0.0 
-3.877428212227e-04 -1.289872094460e-04 0.0 
-1.289872094460e-04 6.384275309916e-04 0.0 
0.0 0.0 0.0 
-2.581863979214e-04 -9.430747994892e-05 0.0 
-9.430747994892e-05 6.298659605490e-04 0.0 
0.0 0.0 0.0 
-3.669502831956e-04 -1.443006373205e-04 0.0 
-1.443006373205e-04 6.260417472874e-04 0.0 
0.0 0.0 0.0 
-2.176478981586e-04 -1.027750508541e-04 0.0 
-1.027750508541e-04 6.138435923893e-04 0.0 
0.0 0.0 0.0 
-3.395972679986e-04 -1.575763979482e-04 0.0 
-1.575763979482e-04 6.099867586955e-04 0.0 
0.0 0.0 0.0 
-1.679127238823e-04 -1.099639635109e-04 0.0 
-1.099639635109e-04 5.935860006749e-04 0.0 
0.0 0.0 0.0 
-3.075995106080e-04 -1.699443591594e-04 0.0 
-1.699443591594e-04 5.919389751285e-04 0.0 
0.0 0.0 0.0 
-1.094953958266e-04 -1.176732376349e-04 0.0 
-1.176732376349e-04 5.709468573614e-04 0.0 
0.0 0.0 0.0 
-2.731662975890e-04 -1.818933388283e-04 0.0 
-1.818933388283e-04 5.767495429190e-04 0.0 
0.0 0.0 0.0 
-4.415810154923e-05 -1.197809249138e-04 0.0 
-1.197809249138e-04 5.485238533396e-04 0.0 
0.0 0.0 0.0 
-2.352152085084e-04 -1.898788488834e-04 0.0 
-1.898788488834e-04 5.603761921595e-04 0.0 
0.0 0.0 0.0 
3.078700435988e-05 -1.154119592241e-04 0.0 
-1.154119592241e-04 5.225622745133e-04 0.0 
0.0 0.0 0.0 
-1.931587146325e-04 -1.934790491148e-04 0.0 
-1.934790491148e-04 5.395965045165e-04 0.0 
0.0 0.0 0.0 
-8.851096966681e-04 1.122249748344e-03 0.0 
1.122249748344e-03 6.854950202035e-04 0.0 
0.0 0.0 0.0 
1.116795261784e-04 -1.088420674049e-04 0.0 
-1.088420674049e-04 4.915253436315e-04 0.0 
0.0 0.0 0.0 
-1.486520922109e-04 -1.938346848556e-04 0.0 
-1.938346848556e-04 5.163499762553e-04 0.0 
0.0 0.0 0.0 
2.027765466914e-04 -9.971987646193e-05 0.0 
-9.971987646193e-05 4.565055734516e-04 0.0 
0.0 0.0 0.0 
-8.064213834048e-04 9.817188551898e-04 0.0 
9.817188551898e-04 7.992818742439e-04 0.0 
0.0 0.0 0.0 
-1.051338096275e-04 -1.911023865816e-04 0.0 
-1.911023865816e-04 4.950603053726e-04 0.0 
0.0 0.0 0.0 
2.840210827830e-04 -8.748792932587e-05 0.0 
-8.748792932587e-05 4.223658233584e-04 0.0 
0.0 0.0 0.0 
-6.680064936360e-05 -1.814693494913e-04 0.0 
-1.814693494913e-04 4.758408706098e-04 0.0 
0.0 0.0 0.0 
3.508384414836e-04 -6.918238731375e-05 0.0 
-6.918238731375e-05 3.898277583538e-04 0.0 
0.0 0.0 0.0 
-3.608027381918e-05 -1.615048192656e-04 0.0 
-1.615048192656e-04 4.590101975110e-04 0.0 
0.0 0.0 0.0 
-7.173180565446e-04 1.022058844604e-03 0.0 
1.022058844604e-03 5.845311274513e-04 0.0 
0.0 0.0 0.0 
3.988779916917e-04 -4.183809321259e-05 0.0 
-4.183809321259e-05 3.598869039541e-04 0.0 
0.0 0.0 0.0 
-1.536675536618e-05 -1.286890034266e-04 0.0 
-1.286890034266e-04 4.440969190629e-04 0.0 
0.0 0.0 0.0 
4.262089430758e-04 -4.701561255548e-06 0.0 
-4.701561255548e-06 3.334790198919e-04 0.0 
0.0 0.0 0.0 
-5.091476627861e-06 -8.407289096676e-05 0.0 
-8.407289096676e-05 4.291382653336e-04 0.0 
0.0 0.0 0.0 
4.370566185350e-04 3.776110196900e-05 0.0 
3.776110196900e-05 3.109321535373e-04 0.0 
0.0 0.0 0.0 
-1.011151446384e-05 -2.626553772951e-05 0.0 
-2.626553772951e-05 4.270101001174e-04 0.0 
0.0 0.0 0.0 
4.307633027825e-04 8.891778946411e-05 0.0 
8.891778946411e-05 3.042336844929e-04 0.0 
0.0 0.0 0.0 
-3.900450842087e-05 4.151412005942e-05 0.0 
4.151412005942e-05 4.437667833757e-04 0.0 
0.0 0.0 0.0 
4.038888011431e-04 1.543237415193e-04 0.0 
1.543237415193e-04 3.133043441330e-04 0.0 
0.0 0.0 0.0 
-9.607433318937e-05 1.179346170249e-04 0.0 
1.179346170249e-04 4.703398401411e-04 0.0 
0.0 0.0 0.0 
3.429072172987e-04 2.199641930663e-04 0.0 
2.199641930663e-04 3.389085348491e-04 0.0 
0.0 0.0 0.0 
-1.991994578060e-04 1.928243039880e-04 0.0 
1.928243039880e-04 5.140672964854e-04 0.0 
0.0 0.0 0.0 
-1.188437479966e-03 1.437521226840e-03 0.0 
1.437521226840e-03 9.250056724048e-04 0.0 
0.0 0.0 0.0 
-2.701938154617e-04 2.762649103833e-04 0.0 
2.762649103833e-04 5.656984728286e-04 0.0 
0.0 0.0 0.0 
2.387275651390e-04 2.800223676414e-04 0.0 
2.800223676414e-04 3.849097050619e-04 0.0 
0.0 0.0 0.0 
-3.682411018762e-04 3.796914336980e-04 0.0 
3.796914336980e-04 6.277054584991e-04 0.0 
0.0 0.0 0.0 
8.096233156829e-05 3.568517638982e-04 0.0 
3.568517638982e-04 4.465643090483e-04 0.0 
0.0 0.0 0.0 
-4.686043890134e-04 5.334761861764e-04 0.0 
5.334761861764e-04 6.609532444257e-04 0.0 
0.0 0.0 0.0 
-1.499064386725e-04 4.852788176282e-04 0.0 
4.852788176282e-04 5.029385016422e-04 0.0 
0.0 0.0 0.0 
-5.770288188000e-04 7.131160595770e-04 0.0 
7.131160595770e-04 7.149611193691e-04 0.0 
0.0 0.0 0.0 
-3.267166702985e-04 6.322028248064e-04 0.0 
6.322028248064e-04 5.494826510177e-04 0.0 
0.0 0.0 0.0 
-4.861780386736e-04 8.535545593571e-04 0.0 
8.535545593571e-04 5.707941625610e-04 0.0 
0.0 0.0 0.0 
-1.117279698808e-03 1.186651188212e-03 0.0 
1.186651188212e-03 1.086498101863e-03 0.0 
0.0 0.0 0.0 
-4.180003627898e-04 -4.440643892573e-05 0.0 
-4.440643892573e-05 7.078576581103e-04 0.0 
0.0 0.0 0.0 
-3.912693915934e-04 1.733225856684e-05 0.0 
1.733225856684e-05 6.332632775654e-04 0.0 
0.0 0.0 0.0 
-4.639174812525e-04 -2.394661195607e-05 0.0 
-2.394661195607e-05 7.924192198847e-04 0.0 
0.0 0.0 0.0 
-3.440777452419e-04 -1.128849803169e-06 0.0 
-1.128849803169e-06 5.513992741355e-04 0.0 
0.0 0.0 0.0 
-1.180701518300e-03 1.569105231541e-03 0.0 
1.569105231541e-03 7.441641074222e-04 0.0 
0.0 0.0 0.0 
-5.491662431123e-04 -2.585184439988e-05 0.0 
-2.585184439988e-05 1.224783211788e-03 0.0 
0.0 0.0 0.0 
-4.272221577446e-04 -4.569590509424e-05 0.0 
-4.569590509424e-05 1.150200705198e-03 0.0 
0.0 0.0 0.0 
-5.156708109366e-04 -5.576372163178e-05 0.0 
-5.576372163178e-05 1.149557098975e-03 0.0 
0.0 0.0 0.0 
-4.213203898316e-04 -9.348233374121e-05 0.0 
-9.348233374121e-05 1.136864305421e-03 0.0 
0.0 0.0 0.0 
-5.124066754203e-04 -8.314635177907e-05 0.0 
-8.314635177907e-05 1.138360090532e-03 0.0 
0.0 0.0 0.0 
-4.142450602720e-04 -1.245031986755e-04 0.0 
-1.245031986755e-04 1.131070526329e-03 0.0 
0.0 0.0 0.0 
-5.096924779826e-04 -1.082438959711e-04 0.0 
-1.082438959711e-04 1.134136735132e-03 0.0 
0.0 0.0 0.0 
-4.031415999420e-04 -1.510293634300e-04 0.0 
-1.510293634300e-04 1.124434248199e-03 0.0 
0.0 0.0 0.0 
-5.044335363115e-04 -1.314553524402e-04 0.0 
-1.314553524402e-04 1.129134981970e-03 0.0 
0.0 0.0 0.0 
-3.877428212227e-04 -1.755348230771e-04 0.0 
-1.755348230771e-04 1.115806074566e-03 0.0 
0.0 0.0 0.0 
-4.965098846836e-04 -1.527125668589e-04 0.0 
-1.527125668589e-04 1.122520831280e-03 0.0 
0.0 0.0 0.0 
-3.669502831956e-04 -1.986629177551e-04 0.0 
-1.986629177551e-04 1.105024325790e-03 0.0 
0.0 0.0 0.0 
-4.861691292052e-04 -1.717808131369e-04 0.0 
-1.717808131369e-04 1.114422216175e-03 0.0 
0.0 0.0 0.0 
-3.395972679986e-04 -2.204001856029e-04 0.0 
-2.204001856029e-04 1.091759170715e-03 0.0 
0.0 0.0 0.0 
-4.737279135520e-04 -1.888753669423e-04 0.0 
-1.888753669423e-04 1.104633804746e-03 0.0 
0.0 0.0 0.0 
-3.075995106080e-04 -2.409276550306e-04 0.0 
-2.409276550306e-04 1.077121384349e-03 0.0 
0.0 0.0 0.0 
-4.604181944715e-04 -2.030673162505e-04 0.0 
-2.030673162505e-04 1.094804664845e-03 0.0 
0.0 0.0 0.0 
-2.731662975890e-04 -2.586262496332e-04 0.0 
-2.586262496332e-04 1.062396778331e-03 0.0 
0.0 0.0 0.0 
-4.472836316215e-04 -2.119206315929e-04 0.0 
-2.119206315929e-04 1.086799728081e-03 0.0 
0.0 0.0 0.0 
-2.352152085084e-04 -2.698045535494e-04 0.0 
-2.698045535494e-04 1.046241304969e-03 0.0 
0.0 0.0 0.0 
-6.812096423144e-04 1.301285982460e-03 0.0 
1.301285982460e-03 8.192882980049e-04 0.0 
0.0 0.0 0.0 
-4.339763312942e-04 -2.141634252307e-04 0.0 
-2.141634252307e-04 1.078676048534e-03 0.0 
0.0 0.0 0.0 
-1.931587146325e-04 -2.730193163509e-04 0.0 
-2.730193163509e-04 1.026727942144e-03 0.0 
0.0 0.0 0.0 
-4.202056505656e-04 -2.094035822701e-04 0.0 
-2.094035822701e-04 1.068180307097e-03 0.0 
0.0 0.0 0.0 
-5.770288188000e-04 1.243652389110e-03 0.0 
1.243652389110e-03 7.296267504397e-04 0.0 
0.0 0.0 0.0 
-1.486520922109e-04 -2.688795553961e-04 0.0 
-2.688795553961e-04 1.004645390176e-03 0.0 
0.0 0.0 0.0 
-4.078899742883e-04 -1.952440453252e-04 0.0 
-1.952440453252e-04 1.057665512807e-03 0.0 
0.0 0.0 0.0 
-6.196937838796e-04 1.168631462728e-03 0.0 
1.168631462728e-03 9.365638531282e-04 0.0 
0.0 0.0 0.0 
-1.051338096275e-04 -2.529966097156e-04 0.0 
-2.529966097156e-04 9.803941491253e-04 0.0 
0.0 0.0 0.0 
-3.981921419652e-04 -1.698035460771e-04 0.0 
-1.698035460771e-04 1.046432808038e-03 0.0 
0.0 0.0 0.0 
-6.680064936360e-05 -2.236996724631e-04 0.0 
-2.236996724631e-04 9.553519429766e-04 0.0 
0.0 0.0 0.0 
-3.933113360332e-04 -1.334576974027e-04 0.0 
-1.334576974027e-04 1.034583594421e-03 0.0 
0.0 0.0 0.0 
-3.608027381918e-05 -1.803886220471e-04 0.0 
-1.803886220471e-04 9.283476199979e-04 0.0 
0.0 0.0 0.0 
-3.914327975647e-04 -8.439587806031e-05 0.0 
-8.439587806031e-05 1.021062920291e-03 0.0 
0.0 0.0 0.0 
-1.536675536618e-05 -1.223947773704e-04 0.0 
-1.223947773704e-04 9.018451287715e-04 0.0 
0.0 0.0 0.0 
-3.947605230102e-04 -2.499023214628e-05 0.0 
-2.499023214628e-05 1.006081828010e-03 0.0 
0.0 0.0 0.0 
-5.091476627861e-06 -5.374879487365e-05 0.0 
-5.374879487365e-05 8.770998975880e-04 0.0 
0.0 0.0 0.0 
-8.110280506064e-04 1.484394428391e-03 0.0 
1.484394428391e-03 9.514751680872e-04 0.0 
0.0 0.0 0.0 
-4.129656100943e-04 4.467704574200e-05 0.0 
4.467704574200e-05 9.941133564739e-04 0.0 
0.0 0.0 0.0 
-1.011151446384e-05 2.458645233410e-05 0.0 
2.458645233410e-05 8.573688322131e-04 0.0 
0.0 0.0 0.0 
-4.202878142947e-04 1.298394630039e-04 0.0 
1.298394630039e-04 9.890454569481e-04 0.0 
0.0 0.0 0.0 
-3.900450842087e-05 1.262138250217e-04 0.0 
1.262138250217e-04 8.491164695075e-04 0.0 
0.0 0.0 0.0 
-9.607433318937e-05 2.607372806565e-04 0.0 
2.607372806565e-04 8.484492662832e-04 0.0 
0.0 0.0 0.0 
-4.361216857875e-04 2.393054800760e-04 0.0 
2.393054800760e-04 9.948551948864e-04 0.0 
0.0 0.0 0.0 
-1.991994578060e-04 4.343472372356e-04 0.0 
4.343472372356e-04 8.575249245779e-04 0.0 
0.0 0.0 0.0 
-4.605599989933e-04 3.815310123780e-04 0.0 
3.815310123780e-04 1.005458026886e-03 0.0 
0.0 0.0 0.0 
-2.701938154617e-04 6.273959391629e-04 0.0 
6.273959391629e-04 8.475262028198e-04 0.0 
0.0 0.0 0.0 
-4.985510143563e-04 5.479144680638e-04 0.0 
5.479144680638e-04 1.007202431044e-03 0.0 
0.0 0.0 0.0 
-3.682411018762e-04 8.361475426662e-04 0.0 
8.361475426662e-04 8.403154955143e-04 0.0 
0.0 0.0 0.0 
-4.686043890134e-04 1.070403246148e-03 0.0 
1.070403246148e-03 8.071909851937e-04 0.0 
0.0 0.0 0.0 
-5.197145496141e-04 7.358321442025e-04 0.0 
7.358321442025e-04 9.922658000117e-04 0.0 
0.0 0.0 0.0 
-5.342774350977e-04 9.342734970670e-04 0.0 
9.342734970670e-04 9.662619859405e-04 0.0 
0.0 0.0 0.0 
-7.726012629690e-04 1.345154091484e-03 0.0 
1.345154091484e-03 9.881397094396e-04 0.0 
0.0 0.0 0.0 
-5.022606087924e-04 -5.205452166819e-05 0.0 
-5.205452166819e-05 1.158780481313e-03 0.0 
0.0 0.0 0.0 
-5.237001870614e-04 3.156295188788e-05 0.0 
3.156295188788e-05 1.226982055262e-03 0.0 
0.0 0.0 0.0 
-4.639174812525e-04 -2.018676980436e-05 0.0 
-2.018676980436e-05 1.059388088332e-03 0.0 
0.0 0.0 0.0 
-5.632155245185e-04 1.882110366110e-06 0.0 
1.882110366110e-06 1.323212297925e-03 0.0 
0.0 0.0 0.0 
-8.064213834048e-04 1.554056732032e-03 0.0 
1.554056732032e-03 7.876920989995e-04 0.0 
0.0 0.0 0.0 
-5.491662431123e-04 -3.387286057744e-05 0.0 
-3.387286057744e-05 1.599208434917e-03 0.0 
0.0 0.0 0.0 
-6.298893393626e-04 -5.308767476691e-05 0.0 
-5.308767476691e-05 1.636889909342e-03 0.0 
0.0 0.0 0.0 
-5.156708109366e-04 -4.446252910290e-05 0.0 
-4.446252910290e-05 1.636057474279e-03 0.0 
0.0 0.0 0.0 
-6.252890088061e-04 -9.828219943440e-05 0.0 
-9.828219943440e-05 1.631962893319e-03 0.0 
0.0 0.0 0.0 
-5.124066754203e-04 -7.966736314288e-05 0.0 
-7.966736314288e-05 1.629439309768e-03 0.0 
0.0 0.0 0.0 
-6.246377939670e-04 -1.326941814806e-04 0.0 
-1.326941814806e-04 1.627172527224e-03 0.0 
0.0 0.0 0.0 
-5.096924779826e-04 -1.120084434523e-04 0.0 
-1.120084434523e-04 1.623309956193e-03 0.0 
0.0 0.0 0.0 
-6.260928295941e-04 -1.646750435426e-04 0.0 
-1.646750435426e-04 1.623196803634e-03 0.0 
0.0 0.0 0.0 
-5.044335363115e-04 -1.406503041750e-04 0.0 
-1.406503041750e-04 1.617451852897e-03 0.0 
0.0 0.0 0.0 
-6.281643535039e-04 -1.944974075257e-04 0.0 
-1.944974075257e-04 1.619008756287e-03 0.0 
0.0 0.0 0.0 
-4.965098846836e-04 -1.663418371405e-04 0.0 
-1.663418371405e-04 1.610758520790e-03 0.0 
0.0 0.0 0.0 
-6.305499407432e-04 -2.221324649168e-04 0.0 
-2.221324649168e-04 1.614579147842e-03 0.0 
0.0 0.0 0.0 
-4.861691292052e-04 -1.890423354796e-04 0.0 
-1.890423354796e-04 1.603053898591e-03 0.0 
0.0 0.0 0.0 
-6.332228128487e-04 -2.471652956705e-04 0.0 
-2.471652956705e-04 1.609978922898e-03 0.0 
0.0 0.0 0.0 
-4.737279135520e-04 -2.082918336799e-04 0.0 
-2.082918336799e-04 1.594242830478e-03 0.0 
0.0 0.0 0.0 
-6.365866792820e-04 -2.686950945605e-04 0.0 
-2.686950945605e-04 1.605708242908e-03 0.0 
0.0 0.0 0.0 
-4.604181944715e-04 -2.231525696053e-04 0.0 
-2.231525696053e-04 1.584666286328e-03 0.0 
0.0 0.0 0.0 
-6.414554761854e-04 -2.852678932416e-04 0.0 
-2.852678932416e-04 1.602428871885e-03 0.0 
0.0 0.0 0.0 
-4.472836316215e-04 -2.314244548334e-04 0.0 
-2.314244548334e-04 1.574538945718e-03 0.0 
0.0 0.0 0.0 
-6.230083554607e-04 1.378835217419e-03 0.0 
1.378835217419e-03 1.068815904330e-03 0.0 
0.0 0.0 0.0 
-6.480558773090e-04 -2.947805768602e-04 0.0 
-2.947805768602e-04 1.599445617587e-03 0.0 
0.0 0.0 0.0 
-4.339763312942e-04 -2.308341655954e-04 0.0 
-2.308341655954e-04 1.562811623692e-03 0.0 
0.0 0.0 0.0 
-6.560931814814e-04 -2.951070369778e-04 0.0 
-2.951070369778e-04 1.595360371997e-03 0.0 
0.0 0.0 0.0 
-6.061449989755e-04 1.228236500102e-03 0.0 
1.228236500102e-03 1.204237910647e-03 0.0 
0.0 0.0 0.0 
-4.202056505656e-04 -2.199017887949e-04 0.0 
-2.199017887949e-04 1.548088199621e-03 0.0 
0.0 0.0 0.0 
-6.657761118917e-04 -2.839447902526e-04 0.0 
-2.839447902526e-04 1.590157081961e-03 0.0 
0.0 0.0 0.0 
-4.078899742883e-04 -1.958296224037e-04 0.0 
-1.958296224037e-04 1.529981614474e-03 0.0 
0.0 0.0 0.0 
-6.773508968900e-04 -2.577558018805e-04 0.0 
-2.577558018805e-04 1.583372631864e-03 0.0 
0.0 0.0 0.0 
-3.981921419652e-04 -1.563524569812e-04 0.0 
-1.563524569812e-04 1.508535950638e-03 0.0 
0.0 0.0 0.0 
-5.342774350977e-04 1.340726100775e-03 0.0 
1.340726100775e-03 9.698886180252e-04 0.0 
0.0 0.0 0.0 
-6.924528010359e-04 -2.136136830631e-04 0.0 
-2.136136830631e-04 1.576029162317e-03 0.0 
0.0 0.0 0.0 
-3.933113360332e-04 -1.028491163290e-04 0.0 
-1.028491163290e-04 1.487234948695e-03 0.0 
0.0 0.0 0.0 
-7.111042006341e-04 -1.563151810411e-04 0.0 
-1.563151810411e-04 1.565519936234e-03 0.0 
0.0 0.0 0.0 
-3.914327975647e-04 -3.464621001641e-05 0.0 
-3.464621001641e-05 1.460381975108e-03 0.0 
0.0 0.0 0.0 
-7.118110120716e-04 -7.872124881605e-05 0.0 
-7.872124881605e-05 1.546191949809e-03 0.0 
0.0 0.0 0.0 
-3.947605230102e-04 5.369125998506e-05 0.0 
5.369125998506e-05 1.425728596692e-03 0.0 
0.0 0.0 0.0 
-7.080049945279e-04 2.531005845658e-05 0.0 
2.531005845658e-05 1.522531363151e-03 0.0 
0.0 0.0 0.0 
-4.129656100943e-04 1.678725862187e-04 0.0 
1.678725862187e-04 1.388481876287e-03 0.0 
0.0 0.0 0.0 
-7.039617485345e-04 1.589825009746e-04 0.0 
1.589825009746e-04 1.494393127112e-03 0.0 
0.0 0.0 0.0 
-4.202878142947e-04 3.116394028411e-04 0.0 
3.116394028411e-04 1.344964011613e-03 0.0 
0.0 0.0 0.0 
-6.942156335373e-04 3.208038968483e-04 0.0 
3.208038968483e-04 1.459979367746e-03 0.0 
0.0 0.0 0.0 
-6.837276160270e-04 1.493341321881e-03 0.0 
1.493341321881e-03 1.150604528615e-03 0.0 
0.0 0.0 0.0 
-6.819220447000e-04 5.085602987019e-04 0.0 
5.085602987019e-04 1.419038568456e-03 0.0 
0.0 0.0 0.0 
-4.361216857875e-04 4.808731138025e-04 0.0 
4.808731138025e-04 1.298669622801e-03 0.0 
0.0 0.0 0.0 
-6.547998599388e-04 7.201781377542e-04 0.0 
7.201781377542e-04 1.355296549897e-03 0.0 
0.0 0.0 0.0 
-4.605599989933e-04 6.800914617416e-04 0.0 
6.800914617416e-04 1.244391851663e-03 0.0 
0.0 0.0 0.0 
-6.092971751428e-04 9.603267379101e-04 0.0 
9.603267379101e-04 1.284537399083e-03 0.0 
0.0 0.0 0.0 
-4.985510143563e-04 8.961083794320e-04 0.0 
8.961083794320e-04 1.178464880444e-03 0.0 
0.0 0.0 0.0 
-5.197145496141e-04 1.152192369065e-03 0.0 
1.152192369065e-03 1.097284514980e-03 0.0 
0.0 0.0 0.0 
-6.519514820550e-04 1.389715360254e-03 0.0 
1.389715360254e-03 1.119782586806e-03 0.0 
0.0 0.0 0.0 
-6.342225568879e-04 -5.955368832246e-05 0.0 
-5.955368832246e-05 1.681004217390e-03 0.0 
0.0 0.0 0.0 
-6.083737306460e-04 2.332479846305e-05 0.0 
2.332479846305e-05 1.597030421215e-03 0.0 
0.0 0.0 0.0 
-6.780152431628e-04 -3.075567556793e-05 0.0 
-3.075567556793e-05 1.779617174732e-03 0.0 
0.0 0.0 0.0 
-5.632155245185e-04 -3.047292987851e-06 0.0 
-3.047292987851e-06 1.501862496955e-03 0.0 
0.0 0.0 0.0 
-6.196937838796e-04 1.574725069940e-03 0.0 
1.574725069940e-03 9.421329309200e-04 0.0 
0.0 0.0 0.0 
-7.500824583194e-04 -3.239061929912e-05 0.0 
-3.239061929912e-05 2.197575136103e-03 0.0 
0.0 0.0 0.0 
-6.298893393626e-04 -5.465518560855e-05 0.0 
-5.465518560855e-05 2.130199467918e-03 0.0 
0.0 0.0 0.0 
-7.261275481640e-04 -5.447049580869e-05 0.0 
-5.447049580869e-05 2.130397452681e-03 0.0 
0.0 0.0 0.0 
-6.252890088061e-04 -9.522935599185e-05 0.0 
-9.522935599185e-05 2.118484216203e-03 0.0 
0.0 0.0 0.0 
-7.312549021387e-04 -8.194077383441e-05 0.0 
-8.194077383441e-05 2.120668215123e-03 0.0 
0.0 0.0 0.0 
-6.246377939670e-04 -1.267145763002e-04 0.0 
-1.267145763002e-04 2.113547890885e-03 0.0 
0.0 0.0 0.0 
-7.395144901726e-04 -1.108160634607e-04 0.0 
-1.108160634607e-04 2.117181482503e-03 0.0 
0.0 0.0 0.0 
-6.260928295941e-04 -1.572117081857e-04 0.0 
-1.572117081857e-04 2.109781936412e-03 0.0 
0.0 0.0 0.0 
-7.496157668034e-04 -1.385643575839e-04 0.0 
-1.385643575839e-04 2.115295100262e-03 0.0 
0.0 0.0 0.0 
-6.281643535039e-04 -1.859761408771e-04 0.0 
-1.859761408771e-04 2.105915658504e-03 0.0 
0.0 0.0 0.0 
-7.615004560931e-04 -1.639340376409e-04 0.0 
-1.639340376409e-04 2.113934250507e-03 0.0 
0.0 0.0 0.0 
-6.305499407432e-04 -2.122251112481e-04 0.0 
-2.122251112481e-04 2.101690695808e-03 0.0 
0.0 0.0 0.0 
-7.754252907503e-04 -1.862579967465e-04 0.0 
-1.862579967465e-04 2.112948594621e-03 0.0 
0.0 0.0 0.0 
-6.332228128487e-04 -2.350839133067e-04 0.0 
-2.350839133067e-04 2.096575733659e-03 0.0 
0.0 0.0 0.0 
-7.913882152731e-04 -2.042225252379e-04 0.0 
-2.042225252379e-04 2.112093960206e-03 0.0 
0.0 0.0 0.0 
-6.365866792820e-04 -2.530196906867e-04 0.0 
-2.530196906867e-04 2.090440958513e-03 0.0 
0.0 0.0 0.0 
-8.098408973540e-04 -2.161460990012e-04 0.0 
-2.161460990012e-04 2.111501887425e-03 0.0 
0.0 0.0 0.0 
-6.414554761854e-04 -2.640746594133e-04 0.0 
-2.640746594133e-04 2.083388412118e-03 0.0 
0.0 0.0 0.0 
-6.975064143218e-04 1.305593676722e-03 0.0 
1.305593676722e-03 1.395793904093e-03 0.0 
0.0 0.0 0.0 
-8.313961650289e-04 -2.205414357218e-04 0.0 
-2.205414357218e-04 2.111292303744e-03 0.0 
0.0 0.0 0.0 
-6.480558773090e-04 -2.661611260538e-04 0.0 
-2.661611260538e-04 2.074573754789e-03 0.0 
0.0 0.0 0.0 
-8.558960687316e-04 -2.157609718527e-04 0.0 
-2.157609718527e-04 2.110563177858e-03 0.0 
0.0 0.0 0.0 
-6.092971751428e-04 1.268096624070e-03 0.0 
1.268096624070e-03 1.282961628013e-03 0.0 
0.0 0.0 0.0 
-6.560931814814e-04 -2.571056546322e-04 0.0 
-2.571056546322e-04 2.062526330067e-03 0.0 
0.0 0.0 0.0 
-7.307912780052e-04 1.144934478618e-03 0.0 
1.144934478618e-03 1.564774318118e-03 0.0 
0.0 0.0 0.0 
-8.830769213570e-04 -1.996279180459e-04 0.0 
-1.996279180459e-04 2.107961622946e-03 0.0 
0.0 0.0 0.0 
-6.657761118917e-04 -2.341881232148e-04 0.0 
-2.341881232148e-04 2.045714081068e-03 0.0 
0.0 0.0 0.0 
-9.126513752716e-04 -1.689014868808e-04 0.0 
-1.689014868808e-04 2.102332576610e-03 0.0 
0.0 0.0 0.0 
-6.773508968900e-04 -1.940346848185e-04 0.0 
-1.940346848185e-04 2.023431085526e-03 0.0 
0.0 0.0 0.0 
-9.446791533708e-04 -1.197221561070e-04 0.0 
-1.197221561070e-04 2.093426773262e-03 0.0 
0.0 0.0 0.0 
-6.924528010359e-04 -1.332943157463e-04 0.0 
-1.332943157463e-04 1.997168869055e-03 0.0 
0.0 0.0 0.0 
-9.556539915678e-04 -5.394685154964e-05 0.0 
-5.394685154964e-05 2.076904109348e-03 0.0 
0.0 0.0 0.0 
-7.111042006341e-04 -4.550292238849e-05 0.0 
-4.550292238849e-05 1.961875727342e-03 0.0 
0.0 0.0 0.0 
-7.442480190242e-04 1.419693110379e-03 0.0 
1.419693110379e-03 1.474582427753e-03 0.0 
0.0 0.0 0.0 
-9.564241978490e-04 3.780808047007e-05 0.0 
3.780808047007e-05 2.049510753569e-03 0.0 
0.0 0.0 0.0 
-7.118110120716e-04 6.932013946999e-05 0.0 
6.932013946999e-05 1.912557132278e-03 0.0 
0.0 0.0 0.0 
-9.500442258983e-04 1.544869796784e-04 0.0 
1.544869796784e-04 2.008044058971e-03 0.0 
0.0 0.0 0.0 
-7.080049945279e-04 2.098983852853e-04 0.0 
2.098983852853e-04 1.850908643925e-03 0.0 
0.0 0.0 0.0 
-7.039617485345e-04 3.759367250690e-04 0.0 
3.759367250690e-04 1.778293925172e-03 0.0 
0.0 0.0 0.0 
-9.325817375033e-04 2.950886264387e-04 0.0 
2.950886264387e-04 1.951966254546e-03 0.0 
0.0 0.0 0.0 
-6.942156335373e-04 5.735471774372e-04 0.0 
5.735471774372e-04 1.693898562697e-03 0.0 
0.0 0.0 0.0 
-9.034323360140e-04 4.637447501566e-04 0.0 
4.637447501566e-04 1.884861651983e-03 0.0 
0.0 0.0 0.0 
-6.819220447000e-04 8.020992340946e-04 0.0 
8.020992340946e-04 1.586740672286e-03 0.0 
0.0 0.0 0.0 
-6.547998599388e-04 1.062544864607e-03 0.0 
1.062544864607e-03 1.468585081301e-03 0.0 
0.0 0.0 0.0 
-8.552454051893e-04 6.563584880285e-04 0.0 
6.563584880285e-04 1.796348808514e-03 0.0 
0.0 0.0 0.0 
-7.735656786011e-04 8.873748357000e-04 0.0 
8.873748357000e-04 1.683700646224e-03 0.0 
0.0 0.0 0.0 
-7.150790921547e-04 1.319917619682e-03 0.0 
1.319917619682e-03 1.418214286958e-03 0.0 
0.0 0.0 0.0 
-6.971697076387e-04 -5.868250628956e-05 0.0 
-5.868250628956e-05 2.125616282647e-03 0.0 
0.0 0.0 0.0 
-7.385664509189e-04 3.434786862063e-05 0.0 
3.434786862063e-05 2.200471367144e-03 0.0 
0.0 0.0 0.0 
-6.780152431628e-04 -1.864944748922e-05 0.0 
-1.864944748922e-05 2.028960018943e-03 0.0 
0.0 0.0 0.0 
-7.590664977892e-04 -3.161889649349e-06 0.0 
-3.161889649349e-06 2.293478453226e-03 0.0 
0.0 0.0 0.0 
-6.061449989755e-04 1.512586611717e-03 0.0 
1.512586611717e-03 1.198311771628e-03 0.0 
0.0 0.0 0.0 
-7.500824583194e-04 -3.102525770088e-05 0.0 
-3.102525770088e-05 2.563754322019e-03 0.0 
0.0 0.0 0.0 
-8.273593097995e-04 -4.270380699306e-05 0.0 
-4.270380699306e-05 2.612115955731e-03 0.0 
0.0 0.0 0.0 
-7.261275481640e-04 -3.268851830398e-05 0.0 
-3.268851830398e-05 2.611053696674e-03 0.0 
0.0 0.0 0.0 
-8.299356521208e-04 -8.063406592496e-05 0.0 
-8.063406592496e-05 2.612125812853e-03 0.0 
0.0 0.0 0.0 
-7.312549021387e-04 -6.130918597787e-05 0.0 
-6.130918597787e-05 2.609185456704e-03 0.0 
0.0 0.0 0.0 
-8.367132697228e-04 -1.089482777855e-04 0.0 
-1.089482777855e-04 2.610107531223e-03 0.0 
0.0 0.0 0.0 
-7.395144901726e-04 -8.888688026347e-05 0.0 
-8.888688026347e-05 2.605883630111e-03 0.0 
0.0 0.0 0.0 
-8.488607864455e-04 -1.357256266011e-04 0.0 
-1.357256266011e-04 2.609255734488e-03 0.0 
0.0 0.0 0.0 
-7.496157668034e-04 -1.134995273823e-04 0.0 
-1.134995273823e-04 2.603251419213e-03 0.0 
0.0 0.0 0.0 
-8.656721014736e-04 -1.604503517841e-04 0.0 
-1.604503517841e-04 2.609353074076e-03 0.0 
0.0 0.0 0.0 
-7.615004560931e-04 -1.346214912605e-04 0.0 
-1.346214912605e-04 2.600842814044e-03 0.0 
0.0 0.0 0.0 
-8.861499600030e-04 -1.819539361563e-04 0.0 
-1.819539361563e-04 2.610182645415e-03 0.0 
0.0 0.0 0.0 
-7.754252907503e-04 -1.516759480675e-04 0.0 
-1.516759480675e-04 2.598403565499e-03 0.0 
0.0 0.0 0.0 
-9.098092731257e-04 -1.996212612454e-04 0.0 
-1.996212612454e-04 2.610895841353e-03 0.0 
0.0 0.0 0.0 
-7.913882152731e-04 -1.629550680092e-04 0.0 
-1.629550680092e-04 2.594560649531e-03 0.0 
0.0 0.0 0.0 
-9.368543446363e-04 -2.110144880835e-04 0.0 
-2.110144880835e-04 2.611360680343e-03 0.0 
0.0 0.0 0.0 
-8.098408973540e-04 -1.666006310950e-04 0.0 
-1.666006310950e-04 2.589119299068e-03 0.0 
0.0 0.0 0.0 
-8.665287422820e-04 1.193788528681e-03 0.0 
1.193788528681e-03 1.841061888340e-03 0.0 
0.0 0.0 0.0 
-9.676725310170e-04 -2.139244482003e-04 0.0 
-2.139244482003e-04 2.611715383670e-03 0.0 
0.0 0.0 0.0 
-8.313961650289e-04 -1.610331463079e-04 0.0 
-1.610331463079e-04 2.582278883533e-03 0.0 
0.0 0.0 0.0 
-9.355445791162e-04 1.014907003754e-03 0.0 
1.014907003754e-03 2.018772233426e-03 0.0 
0.0 0.0 0.0 
-1.002258771452e-03 -2.071501824418e-04 0.0 
-2.071501824418e-04 2.611016991552e-03 0.0 
0.0 0.0 0.0 
-8.558960687316e-04 -1.441551691679e-04 0.0 
-1.441551691679e-04 2.572519429925e-03 0.0 
0.0 0.0 0.0 
-1.040409738745e-03 -1.885215700858e-04 0.0 
-1.885215700858e-04 2.607736679698e-03 0.0 
0.0 0.0 0.0 
-8.830769213570e-04 -1.132868495396e-04 0.0 
-1.132868495396e-04 2.557776822833e-03 0.0 
0.0 0.0 0.0 
-1.081978146739e-03 -1.551604006329e-04 0.0 
-1.551604006329e-04 2.600061952027e-03 0.0 
0.0 0.0 0.0 
-7.735656786011e-04 1.164064306533e-03 0.0 
1.164064306533e-03 1.707331225083e-03 0.0 
0.0 0.0 0.0 
-9.126513752716e-04 -6.500262849073e-05 0.0 
-6.500262849073e-05 2.535579475751e-03 0.0 
0.0 0.0 0.0 
-1.126591501409e-03 -1.024345334395e-04 0.0 
-1.024345334395e-04 2.587032765470e-03 0.0 
0.0 0.0 0.0 
-9.446791533708e-04 4.604463040392e-06 0.0 
4.604463040392e-06 2.505028489655e-03 0.0 
0.0 0.0 0.0 
-1.142234552939e-03 -2.204853733491e-05 0.0 
-2.204853733491e-05 2.558826401731e-03 0.0 
0.0 0.0 0.0 
-9.556539915678e-04 1.012939955648e-04 0.0 
1.012939955648e-04 2.458546003971e-03 0.0 
0.0 0.0 0.0 
-1.145295030859e-03 8.242725178309e-05 0.0 
8.242725178309e-05 2.514597385141e-03 0.0 
0.0 0.0 0.0 
-9.564241978490e-04 2.207712012406e-04 0.0 
2.207712012406e-04 2.395507958480e-03 0.0 
0.0 0.0 0.0 
-1.136632440268e-03 2.118077121578e-04 0.0 
2.118077121578e-04 2.455829576165e-03 0.0 
0.0 0.0 0.0 
-9.500442258983e-04 3.672947564059e-04 0.0 
3.672947564059e-04 2.315420440470e-03 0.0 
0.0 0.0 0.0 
-1.114584476694e-03 3.701081824838e-04 0.0 
3.701081824838e-04 2.379809354559e-03 0.0 
0.0 0.0 0.0 
-8.982647020761e-04 1.292086491784e-03 0.0 
1.292086491784e-03 1.909193478710e-03 0.0 
0.0 0.0 0.0 
-1.071490935444e-03 5.494551480850e-04 0.0 
5.494551480850e-04 2.278305048395e-03 0.0 
0.0 0.0 0.0 
-9.325817375033e-04 5.398127458190e-04 0.0 
5.398127458190e-04 2.219128993324e-03 0.0 
0.0 0.0 0.0 
-9.882170021037e-04 7.723402427599e-04 0.0 
7.723402427599e-04 2.153358809576e-03 0.0 
0.0 0.0 0.0 
-9.034323360140e-04 7.412842948705e-04 0.0 
7.412842948705e-04 2.091165869298e-03 0.0 
0.0 0.0 0.0 
-8.552454051893e-04 9.751632114468e-04 0.0 
9.751632114468e-04 1.951854602985e-03 0.0 
0.0 0.0 0.0 
-8.667239522288e-04 1.194966465066e-03 0.0 
1.194966465066e-03 1.814843194119e-03 0.0 
0.0 0.0 0.0 
-8.210588452024e-04 -5.973465540032e-05 0.0 
-5.973465540032e-05 2.641701962651e-03 0.0 
0.0 0.0 0.0 
-7.763517311210e-04 3.390847451608e-05 0.0 
3.390847451608e-05 2.560943530862e-03 0.0 
0.0 0.0 0.0 
-8.369964188087e-04 -2.007036184785e-05 0.0 
-2.007036184785e-05 2.734558182812e-03 0.0 
0.0 0.0 0.0 
-7.590664977892e-04 -3.208629614742e-06 0.0 
-3.208629614742e-06 2.471781239464e-03 0.0 
0.0 0.0 0.0 
-7.307912780052e-04 1.402830915443e-03 0.0 
1.402830915443e-03 1.596723899478e-03 0.0 
0.0 0.0 0.0 
-9.035461447270e-04 -2.512352369765e-05 0.0 
-2.512352369765e-05 3.140787485753e-03 0.0 
0.0 0.0 0.0 
-8.273593097995e-04 -3.537429280232e-05 0.0 
-3.537429280232e-05 3.091505328527e-03 0.0 
0.0 0.0 0.0 
-9.104713193540e-04 -2.849867788745e-05 0.0 
-2.849867788745e-05 3.092400670042e-03 0.0 
0.0 0.0 0.0 
-8.299356521208e-04 -6.191040248794e-05 0.0 
-6.191040248794e-05 3.085304030274e-03 0.0 
0.0 0.0 0.0 
-9.207480253083e-04 -4.528499566637e-05 0.0 
-4.528499566637e-05 3.088308660894e-03 0.0 
0.0 0.0 0.0 
-8.367132697228e-04 -8.008383043793e-05 0.0 
-8.008383043793e-05 3.082878411454e-03 0.0 
0.0 0.0 0.0 
-9.367864192849e-04 -6.213401112557e-05 0.0 
-6.213401112557e-05 3.087469106809e-03 0.0 
0.0 0.0 0.0 
-8.488607864455e-04 -9.737585256139e-05 0.0 
-9.737585256139e-05 3.081824266674e-03 0.0 
0.0 0.0 0.0 
-9.594904326503e-04 -7.745082920425e-05 0.0 
-7.745082920425e-05 3.088534110730e-03 0.0 
0.0 0.0 0.0 
-8.656721014736e-04 -1.130346943699e-04 0.0 
-1.130346943699e-04 3.081242937229e-03 0.0 
0.0 0.0 0.0 
-9.874156638882e-04 -9.076590039984e-05 0.0 
-9.076590039984e-05 3.090662805567e-03 0.0 
0.0 0.0 0.0 
-8.861499600030e-04 -1.258067952440e-04 0.0 
-1.258067952440e-04 3.079556312343e-03 0.0 
0.0 0.0 0.0 
-1.015772633532e-03 -1.008806034339e-04 0.0 
-1.008806034339e-04 3.092250173843e-03 0.0 
0.0 0.0 0.0 
-9.098092731257e-04 -1.332703178286e-04 0.0 
-1.332703178286e-04 3.076257166203e-03 0.0 
0.0 0.0 0.0 
-1.049670313267e-03 -1.047381790399e-04 0.0 
-1.047381790399e-04 3.093264463310e-03 0.0 
0.0 0.0 0.0 
-9.368543446363e-04 -1.335656707689e-04 0.0 
-1.335656707689e-04 3.070186984317e-03 0.0 
0.0 0.0 0.0 
-1.069652900187e-03 1.049045801427e-03 0.0 
1.049045801427e-03 2.364373482227e-03 0.0 
0.0 0.0 0.0 
-1.087141407095e-03 -9.994932308905e-05 0.0 
-9.994932308905e-05 3.092922623290e-03 0.0 
0.0 0.0 0.0 
-9.676725310170e-04 -1.239983209221e-04 0.0 
-1.239983209221e-04 3.061794877227e-03 0.0 
0.0 0.0 0.0 
-9.882170021037e-04 1.024704278708e-03 0.0 
1.024704278708e-03 2.226636243886e-03 0.0 
0.0 0.0 0.0 
-1.126595053541e-03 -8.540460672386e-05 0.0 
-8.540460672386e-05 3.091024391959e-03 0.0 
0.0 0.0 0.0 
-1.002258771452e-03 -1.023465457235e-04 0.0 
-1.023465457235e-04 3.050235945213e-03 0.0 
0.0 0.0 0.0 
-1.138199670869e-03 8.907910187231e-04 0.0 
8.907910187231e-04 2.539764957603e-03 0.0 
0.0 0.0 0.0 
-1.169768094869e-03 -5.945287475049e-05 0.0 
-5.945287475049e-05 3.086495356803e-03 0.0 
0.0 0.0 0.0 
-1.040409738745e-03 -6.633616703598e-05 0.0 
-6.633616703598e-05 3.032746371476e-03 0.0 
0.0 0.0 0.0 
-1.215366889330e-03 -1.920509754872e-05 0.0 
-1.920509754872e-05 3.076771156693e-03 0.0 
0.0 0.0 0.0 
-1.081978146739e-03 -1.237059420018e-05 0.0 
-1.237059420018e-05 3.006769331303e-03 0.0 
0.0 0.0 0.0 
-1.262307845583e-03 3.835792005515e-05 0.0 
3.835792005515e-05 3.058790189983e-03 0.0 
0.0 0.0 0.0 
-1.126591501409e-03 6.528445100893e-05 0.0 
6.528445100893e-05 2.966445544301e-03 0.0 
0.0 0.0 0.0 
-1.099433021138e-03 1.143149956755e-03 0.0 
1.143149956755e-03 2.428435296304e-03 0.0 
0.0 0.0 0.0 
-1.289402195964e-03 1.190051633690e-04 0.0 
1.190051633690e-04 3.023994353013e-03 0.0 
0.0 0.0 0.0 
-1.142234552939e-03 1.654385812437e-04 0.0 
1.654385812437e-04 2.908465220085e-03 0.0 
0.0 0.0 0.0 
-1.288152236252e-03 2.198520711410e-04 0.0 
2.198520711410e-04 2.969795011705e-03 0.0 
0.0 0.0 0.0 
-1.145295030859e-03 2.919578561587e-04 0.0 
2.919578561587e-04 2.831839475715e-03 0.0 
0.0 0.0 0.0 
-1.136632440268e-03 4.449501368984e-04 0.0 
4.449501368984e-04 2.739460977687e-03 0.0 
0.0 0.0 0.0 
-1.275653099165e-03 3.476855686101e-04 0.0 
3.476855686101e-04 2.897278936591e-03 0.0 
0.0 0.0 0.0 
-1.114584476694e-03 6.280734185812e-04 0.0 
6.280734185812e-04 2.611708981291e-03 0.0 
0.0 0.0 0.0 
-1.246724180363e-03 4.930376001240e-04 0.0 
4.930376001240e-04 2.800220641974e-03 0.0 
0.0 0.0 0.0 
-1.071490935444e-03 8.426365466770e-04 0.0 
8.426365466770e-04 2.478967050733e-03 0.0 
0.0 0.0 0.0 
-1.175810824054e-03 6.839217200764e-04 0.0 
6.839217200764e-04 2.674370787972e-03 0.0 
0.0 0.0 0.0 
-1.073216549029e-03 1.057392468207e-03 0.0 
1.057392468207e-03 2.322024472041e-03 0.0 
0.0 0.0 0.0 
-8.474938439883e-04 -5.908743675817e-05 0.0 
-5.908743675817e-05 3.066989512212e-03 0.0 
0.0 0.0 0.0 
-8.901033791462e-04 3.744032351285e-05 0.0 
3.744032351285e-05 3.143907276383e-03 0.0 
0.0 0.0 0.0 
-8.369964188087e-04 -1.739230431544e-05 0.0 
-1.739230431544e-05 2.975704889137e-03 0.0 
0.0 0.0 0.0 
-9.019625212565e-04 -1.487127183797e-06 0.0 
-1.487127183797e-06 3.231089402210e-03 0.0 
0.0 0.0 0.0 
-9.355445791162e-04 1.252027481700e-03 0.0 
1.252027481700e-03 2.092971466068e-03 0.0 
0.0 0.0 0.0 
-9.035461447270e-04 -2.185014123793e-05 0.0 
-2.185014123793e-05 3.501716478041e-03 0.0 
0.0 0.0 0.0 
-9.640685638918e-04 -2.352057833664e-05 0.0 
-2.352057833664e-05 3.553164130850e-03 0.0 
0.0 0.0 0.0 
-9.104713193540e-04 -1.704682881573e-05 0.0 
-1.704682881573e-05 3.552382762787e-03 0.0 
0.0 0.0 0.0 
-9.727933405653e-04 -4.350524792829e-05 0.0 
-4.350524792829e-05 3.556758966828e-03 0.0 
0.0 0.0 0.0 
-9.207480253083e-04 -2.395557063801e-05 0.0 
-2.395557063801e-05 3.553533760336e-03 0.0 
0.0 0.0 0.0 
-9.875392892099e-04 -5.186081744143e-05 0.0 
-5.186081744143e-05 3.557405239851e-03 0.0 
0.0 0.0 0.0 
-9.367864192849e-04 -3.057900085881e-05 0.0 
-3.057900085881e-05 3.552641347835e-03 0.0 
0.0 0.0 0.0 
-1.007185529749e-03 -5.799184883645e-05 0.0 
-5.799184883645e-05 3.558568182824e-03 0.0 
0.0 0.0 0.0 
-9.594904326503e-04 -3.429455608087e-05 0.0 
-3.429455608087e-05 3.551898623743e-03 0.0 
0.0 0.0 0.0 
-1.034369228231e-03 -6.076610060613e-05 0.0 
-6.076610060613e-05 3.560996927858e-03 0.0 
0.0 0.0 0.0 
-9.874156638882e-04 -3.395107479473e-05 0.0 
-3.395107479473e-05 3.551895964917e-03 0.0 
0.0 0.0 0.0 
-1.066635987956e-03 -6.006014910766e-05 0.0 
-6.006014910766e-05 3.562735325370e-03 0.0 
0.0 0.0 0.0 
-1.015772633532e-03 -2.808061823489e-05 0.0 
-2.808061823489e-05 3.549984799336e-03 0.0 
0.0 0.0 0.0 
-1.106732233495e-03 -5.558534760968e-05 0.0 
-5.558534760968e-05 3.564191376314e-03 0.0 
0.0 0.0 0.0 
-1.049670313267e-03 -1.765677767549e-05 0.0 
-1.765677767549e-05 3.546737471532e-03 0.0 
0.0 0.0 0.0 
-1.257328733196e-03 9.332012111661e-04 0.0 
9.332012111661e-04 2.933868593354e-03 0.0 
0.0 0.0 0.0 
-1.153559965891e-03 -4.699680280445e-05 0.0 
-4.699680280445e-05 3.563659155191e-03 0.0 
0.0 0.0 0.0 
-1.302755133837e-03 7.841412024108e-04 0.0 
7.841412024108e-04 3.077221447356e-03 0.0 
0.0 0.0 0.0 
-1.087141407095e-03 2.623238609949e-08 0.0 
2.623238609949e-08 3.539136349817e-03 0.0 
0.0 0.0 0.0 
-1.196302100480e-03 -2.818764933708e-05 0.0 
-2.818764933708e-05 3.558218417263e-03 0.0 
0.0 0.0 0.0 
-1.126595053541e-03 2.958845170499e-05 0.0 
2.958845170499e-05 3.524973676311e-03 0.0 
0.0 0.0 0.0 
-1.240251198306e-03 4.823038546208e-06 0.0 
4.823038546208e-06 3.548804338324e-03 0.0 
0.0 0.0 0.0 
-1.169768094869e-03 7.275283870200e-05 0.0 
7.275283870200e-05 3.506112663543e-03 0.0 
0.0 0.0 0.0 
-1.286539885699e-03 5.092131720607e-05 0.0 
5.092131720607e-05 3.532766710958e-03 0.0 
0.0 0.0 0.0 
-1.175810824054e-03 9.198943373912e-04 0.0 
9.198943373912e-04 2.779245314552e-03 0.0 
0.0 0.0 0.0 
-1.215366889330e-03 1.329735368865e-04 0.0 
1.329735368865e-04 3.477129809480e-03 0.0 
0.0 0.0 0.0 
-1.333603342423e-03 1.152275566799e-04 0.0 
1.152275566799e-04 3.507044220143e-03 0.0 
0.0 0.0 0.0 
-1.262307845583e-03 2.133685100195e-04 0.0 
2.133685100195e-04 3.435722013623e-03 0.0 
0.0 0.0 0.0 
-1.377342706442e-03 1.974420814285e-04 0.0 
1.974420814285e-04 3.463619885170e-03 0.0 
0.0 0.0 0.0 
-1.289402195964e-03 3.138395176235e-04 0.0 
3.138395176235e-04 3.371368967305e-03 0.0 
0.0 0.0 0.0 
-1.390104509441e-03 3.058155013364e-04 0.0 
3.058155013364e-04 3.400675788150e-03 0.0 
0.0 0.0 0.0 
-1.288152236252e-03 4.374503552796e-04 0.0 
4.374503552796e-04 3.287612609282e-03 0.0 
0.0 0.0 0.0 
-1.372925227499e-03 4.312911913560e-04 0.0 
4.312911913560e-04 3.310739889425e-03 0.0 
0.0 0.0 0.0 
-1.324027417879e-03 6.008454942843e-04 0.0 
6.008454942843e-04 3.197989084809e-03 0.0 
0.0 0.0 0.0 
-1.275653099165e-03 5.893263049891e-04 0.0 
5.893263049891e-04 3.168748257993e-03 0.0 
0.0 0.0 0.0 
-1.276148706894e-03 1.008332936819e-03 0.0 
1.008332936819e-03 2.985468151313e-03 0.0 
0.0 0.0 0.0 
-1.246724180363e-03 7.677067161064e-04 0.0 
7.677067161064e-04 3.042194148993e-03 0.0 
0.0 0.0 0.0 
-1.248828741450e-03 9.299901890428e-04 0.0 
9.299901890428e-04 2.842189145726e-03 0.0 
0.0 0.0 0.0 
-9.513901013117e-04 -5.659046786764e-05 0.0 
-5.659046786764e-05 3.569168682871e-03 0.0 
0.0 0.0 0.0 
-9.122691494035e-04 4.139304864784e-05 0.0 
4.139304864784e-05 3.498559770425e-03 0.0 
0.0 0.0 0.0 
-9.604610399574e-04 -1.352400777424e-05 0.0 
-1.352400777424e-05 3.661771341103e-03 0.0 
0.0 0.0 0.0 
-9.019625212565e-04 9.704077075555e-07 0.0 
9.704077075555e-07 3.409937882209e-03 0.0 
0.0 0.0 0.0 
-1.138199670869e-03 1.115876506360e-03 0.0 
1.115876506360e-03 2.652489073364e-03 0.0 
0.0 0.0 0.0 
-1.009026417264e-03 -1.136764450167e-05 0.0 
-1.136764450167e-05 4.052215102134e-03 0.0 
0.0 0.0 0.0 
-9.640685638918e-04 -7.665212576188e-06 0.0 
-7.665212576188e-06 4.005421560847e-03 0.0 
0.0 0.0 0.0 
-1.014187202473e-03 -2.054039854681e-06 0.0 
-2.054039854681e-06 4.006255119708e-03 0.0 
0.0 0.0 0.0 
-9.727933405653e-04 -1.783082501322e-05 0.0 
-1.783082501322e-05 4.000613218167e-03 0.0 
0.0 0.0 0.0 
-1.030628630220e-03 8.573489295549e-07 0.0 
8.573489295549e-07 4.004361405959e-03 0.0 
0.0 0.0 0.0 
-9.875392892099e-04 -1.574018673186e-05 0.0 
-1.574018673186e-05 4.000104109969e-03 0.0 
0.0 0.0 0.0 
-1.052416173531e-03 2.508813514383e-06 0.0 
2.508813514383e-06 4.005295942332e-03 0.0 
0.0 0.0 0.0 
-1.007185529749e-03 -1.163979037492e-05 0.0 
-1.163979037492e-05 3.996526111401e-03 0.0 
0.0 0.0 0.0 
-1.076211313701e-03 1.051880062933e-05 0.0 
1.051880062933e-05 4.004536116186e-03 0.0 
0.0 0.0 0.0 
-1.034369228231e-03 -1.914129760743e-06 0.0 
-1.914129760743e-06 3.996636552560e-03 0.0 
0.0 0.0 0.0 
-1.110046748114e-03 1.941691881612e-05 0.0 
1.941691881612e-05 4.006521897305e-03 0.0 
0.0 0.0 0.0 
-1.066635987956e-03 1.107766916133e-05 0.0 
1.107766916133e-05 3.992390771182e-03 0.0 
0.0 0.0 0.0 
-1.146257228533e-03 3.741512944560e-05 0.0 
3.741512944560e-05 4.006610556536e-03 0.0 
0.0 0.0 0.0 
-1.397454150637e-03 8.277569066190e-04 0.0 
8.277569066190e-04 3.509141042295e-03 0.0 
0.0 0.0 0.0 
-1.106732233495e-03 3.307805187971e-05 0.0 
3.307805187971e-05 3.990130501589e-03 0.0 
0.0 0.0 0.0 
-1.192285400571e-03 5.920200814991e-05 0.0 
5.920200814991e-05 4.007160635573e-03 0.0 
0.0 0.0 0.0 
-1.324027417879e-03 8.163011431423e-04 0.0 
8.163011431423e-04 3.350676997038e-03 0.0 
0.0 0.0 0.0 
-1.153559965891e-03 6.332765846234e-05 0.0 
6.332765846234e-05 3.980156308394e-03 0.0 
0.0 0.0 0.0 
-1.239261617658e-03 9.342322900998e-05 0.0 
9.342322900998e-05 4.002094304024e-03 0.0 
0.0 0.0 0.0 
-1.415028607918e-03 7.156925470884e-04 0.0 
7.156925470884e-04 3.625599016146e-03 0.0 
0.0 0.0 0.0 
-1.196302100480e-03 1.040391116095e-04 0.0 
1.040391116095e-04 3.965701741471e-03 0.0 
0.0 0.0 0.0 
-1.295064523431e-03 1.353728535088e-04 0.0 
1.353728535088e-04 3.992676816529e-03 0.0 
0.0 0.0 0.0 
-1.240251198306e-03 1.538998459681e-04 0.0 
1.538998459681e-04 3.942527625167e-03 0.0 
0.0 0.0 0.0 
-1.335301211585e-03 1.848586352102e-04 0.0 
1.848586352102e-04 3.972508789477e-03 0.0 
0.0 0.0 0.0 
-1.286539885699e-03 2.194082176222e-04 0.0 
2.194082176222e-04 3.907381923532e-03 0.0 
0.0 0.0 0.0 
-1.415066949335e-03 9.004486379391e-04 0.0 
9.004486379391e-04 3.558061050915e-03 0.0 
0.0 0.0 0.0 
-1.378461268643e-03 2.519813481604e-04 0.0 
2.519813481604e-04 3.941825136029e-03 0.0 
0.0 0.0 0.0 
-1.333603342423e-03 3.042206058571e-04 0.0 
3.042206058571e-04 3.860181532682e-03 0.0 
0.0 0.0 0.0 
-1.377342706442e-03 4.082877734890e-04 0.0 
4.082877734890e-04 3.797799926865e-03 0.0 
0.0 0.0 0.0 
-1.415994046349e-03 3.358403557145e-04 0.0 
3.358403557145e-04 3.896406349140e-03 0.0 
0.0 0.0 0.0 
-1.390104509441e-03 5.341536628631e-04 0.0 
5.341536628631e-04 3.696406330458e-03 0.0 
0.0 0.0 0.0 
-1.445203390363e-03 4.314596690370e-04 0.0 
4.314596690370e-04 3.828388455068e-03 0.0 
0.0 0.0 0.0 
-1.372925227499e-03 6.876502550693e-04 0.0 
6.876502550693e-04 3.589882338722e-03 0.0 
0.0 0.0 0.0 
-1.414789724014e-03 5.665725657226e-04 0.0 
5.665725657226e-04 3.729815892907e-03 0.0 
0.0 0.0 0.0 
-1.391921197156e-03 8.287770890419e-04 0.0 
8.287770890419e-04 3.406624513595e-03 0.0 
0.0 0.0 0.0 
-9.598936774137e-04 -5.338618767770e-05 0.0 
-5.338618767770e-05 3.980793132248e-03 0.0 
0.0 0.0 0.0 
-1.001514542954e-03 4.818570536617e-05 0.0 
4.818570536617e-05 4.055711742198e-03 0.0 
0.0 0.0 0.0 
-9.604610399574e-04 -8.826587479423e-06 0.0 
-8.826587479423e-06 3.894829563877e-03 0.0 
0.0 0.0 0.0 
-1.002191225955e-03 6.597795948822e-06 0.0 
6.597795948822e-06 4.137078676905e-03 0.0 
0.0 0.0 0.0 
-1.302755133837e-03 9.839377917938e-04 0.0 
9.839377917938e-04 3.229172295014e-03 0.0 
0.0 0.0 0.0 
-1.009026417264e-03 -5.705602414315e-06 0.0 
-5.705602414315e-06 4.411161348424e-03 0.0 
0.0 0.0 0.0 
-1.022659814171e-03 3.847249492298e-06 0.0 
3.847249492298e-06 4.441219829552e-03 0.0 
0.0 0.0 0.0 
-1.014187202473e-03 1.957380606536e-05 0.0 
1.957380606536e-05 4.439340329432e-03 0.0 
0.0 0.0 0.0 
-1.040561261362e-03 1.096742113917e-05 0.0 
1.096742113917e-05 4.445571480963e-03 0.0 
0.0 0.0 0.0 
-1.030628630220e-03 3.144581057050e-05 0.0 
3.144581057050e-05 4.441880317364e-03 0.0 
0.0 0.0 0.0 
-1.059127136025e-03 2.209853250926e-05 0.0 
2.209853250926e-05 4.447572538802e-03 0.0 
0.0 0.0 0.0 
-1.052416173531e-03 4.295593314567e-05 0.0 
4.295593314567e-05 4.442572029833e-03 0.0 
0.0 0.0 0.0 
-1.081421157703e-03 3.104121934571e-05 0.0 
3.104121934571e-05 4.443348306717e-03 0.0 
0.0 0.0 0.0 
-1.076211313701e-03 6.257803538210e-05 0.0 
6.257803538210e-05 4.433960102959e-03 0.0 
0.0 0.0 0.0 
-1.104801844727e-03 5.636484577343e-05 0.0 
5.636484577343e-05 4.443116732123e-03 0.0 
0.0 0.0 0.0 
-1.110046748114e-03 8.407288980063e-05 0.0 
8.407288980063e-05 4.433500758565e-03 0.0 
0.0 0.0 0.0 
-1.141326611863e-03 7.497916381884e-05 0.0 
7.497916381884e-05 4.438783578440e-03 0.0 
0.0 0.0 0.0 
-1.485520819821e-03 7.688085102665e-04 0.0 
7.688085102665e-04 4.064159634153e-03 0.0 
0.0 0.0 0.0 
-1.146257228533e-03 1.155916475390e-04 0.0 
1.155916475390e-04 4.422269787765e-03 0.0 
0.0 0.0 0.0 
-1.451915782478e-03 6.675441605223e-04 0.0 
6.675441605223e-04 4.146969758140e-03 0.0 
0.0 0.0 0.0 
-1.175006243219e-03 1.126943368881e-04 0.0 
1.126943368881e-04 4.434650314326e-03 0.0 
0.0 0.0 0.0 
-1.192285400571e-03 1.535966745378e-04 0.0 
1.535966745378e-04 4.416358786994e-03 0.0 
0.0 0.0 0.0 
-1.224086075855e-03 1.472332287801e-04 0.0 
1.472332287801e-04 4.424194050204e-03 0.0 
0.0 0.0 0.0 
-1.239261617658e-03 2.037151560816e-04 0.0 
2.037151560816e-04 4.395355191552e-03 0.0 
0.0 0.0 0.0 
-1.272707909838e-03 2.031030894825e-04 0.0 
2.031030894825e-04 4.411156378069e-03 0.0 
0.0 0.0 0.0 
-1.295064523431e-03 2.668340124161e-04 0.0 
2.668340124161e-04 4.375601563003e-03 0.0 
0.0 0.0 0.0 
-1.318336962852e-03 2.680456413553e-04 0.0 
2.680456413553e-04 4.387890583868e-03 0.0 
0.0 0.0 0.0 
-1.414789724014e-03 7.684247962329e-04 0.0 
7.684247962329e-04 3.898602429814e-03 0.0 
0.0 0.0 0.0 
-1.335301211585e-03 3.451079890141e-04 0.0 
3.451079890141e-04 4.339802381505e-03 0.0 
0.0 0.0 0.0 
-1.369718844022e-03 3.445105844112e-04 0.0 
3.445105844112e-04 4.353439420276e-03 0.0 
0.0 0.0 0.0 
-1.378461268643e-03 4.346355099984e-04 0.0 
4.346355099984e-04 4.290910847514e-03 0.0 
0.0 0.0 0.0 
-1.406714164230e-03 4.343747968682e-04 0.0 
4.343747968682e-04 4.301366927624e-03 0.0 
0.0 0.0 0.0 
-1.429769021349e-03 5.452758134448e-04 0.0 
5.452758134448e-04 4.230696557204e-03 0.0 
0.0 0.0 0.0 
-1.415994046349e-03 5.411478008121e-04 0.0 
5.411478008121e-04 4.221073644416e-03 0.0 
0.0 0.0 0.0 
-1.445203390363e-03 6.612326735336e-04 0.0 
6.612326735336e-04 4.137819572375e-03 0.0 
0.0 0.0 0.0 
-1.498879922666e-03 8.316701801057e-04 0.0 
8.316701801057e-04 4.107194265384e-03 0.0 
0.0 0.0 0.0 
-1.475102229571e-03 7.682569551534e-04 0.0 
7.682569551534e-04 3.938012398794e-03 0.0 
0.0 0.0 0.0 
-1.029612665054e-03 -4.350710110171e-05 0.0 
-4.350710110171e-05 4.449143694258e-03 0.0 
0.0 0.0 0.0 
-1.006384471671e-03 6.082971339271e-05 0.0 
6.082971339271e-05 4.407245220901e-03 0.0 
0.0 0.0 0.0 
-1.032999397855e-03 5.974325335255e-06 0.0 
5.974325335255e-06 4.548386317915e-03 0.0 
0.0 0.0 0.0 
-1.002191225955e-03 1.381708435519e-05 0.0 
1.381708435519e-05 4.312035200013e-03 0.0 
0.0 0.0 0.0 
-1.415028607918e-03 9.008208322943e-04 0.0 
9.008208322943e-04 3.809351741752e-03 0.0 
0.0 0.0 0.0 

TENSORS element_materi_strain_plasti float
-1.278716781713e-04 2.317088785895e-03 0.0 
2.317088785895e-03 1.725589617193e-03 0.0 
0.0 0.0 -6.847362595807e-04 
-1.156199042648e-04 2.024353748068e-03 0.0 
2.024353748068e-03 1.515455915080e-03 0.0 
0.0 0.0 -5.999297189210e-04 
-1.399419419615e-03 2.869344170324e-03 0.0 
2.869344170324e-03 7.127002349296e-03 0.0 
0.0 0.0 -1.278236581085e-03 
-1.499770292198e-03 1.938127459123e-04 0.0 
1.938127459123e-04 8.462485561252e-03 0.0 
0.0 0.0 -1.255598393855e-03 
-1.590286579790e-03 5.866412250785e-04 0.0 
5.866412250785e-04 5.570411940462e-03 0.0 
0.0 0.0 -7.961861350945e-04 
9.753052699299e-04 2.049730811989e-03 0.0 
2.049730811989e-03 -7.410546550660e-04 0.0 
0.0 0.0 -1.003931206560e-04 
-1.532722360608e-03 5.037005669365e-04 0.0 
5.037005669365e-04 5.548158926813e-03 0.0 
0.0 0.0 -8.011023898636e-04 
6.217083316276e-05 2.386622999709e-03 0.0 
2.386622999709e-03 1.415043626867e-03 0.0 
0.0 0.0 -6.330919114413e-04 
-1.605315258057e-03 4.380832637377e-06 0.0 
4.380832637377e-06 5.621376957900e-03 0.0 
0.0 0.0 -7.977904104816e-04 
-1.475813289088e-03 8.034655794974e-04 0.0 
8.034655794974e-04 8.366055234102e-03 0.0 
0.0 0.0 -1.253060141438e-03 
-1.723349006480e-03 -4.463465104632e-04 0.0 
-4.463465104632e-04 5.097851564140e-03 0.0 
0.0 0.0 -1.066978692879e-03 
5.108532101027e-06 1.964113970332e-03 0.0 
1.964113970332e-03 1.245831196254e-03 0.0 
0.0 0.0 -5.361170264378e-04 
-1.727294747470e-03 -3.711696677191e-04 0.0 
-3.711696677191e-04 6.945132129710e-03 0.0 
0.0 0.0 -1.259187713256e-03 
-1.707478703098e-03 1.059006860170e-03 0.0 
1.059006860170e-03 5.791719022601e-03 0.0 
0.0 0.0 -8.526168115438e-04 
-1.560262196776e-03 -9.393570101401e-04 0.0 
-9.393570101401e-04 6.928774089182e-03 0.0 
0.0 0.0 -1.289538875031e-03 
-1.440818830272e-03 6.754770737443e-04 0.0 
6.754770737443e-04 8.548838696717e-03 0.0 
0.0 0.0 -1.285984941237e-03 
-1.662616207287e-03 5.344607310422e-04 0.0 
5.344607310422e-04 5.529033418926e-03 0.0 
0.0 0.0 -7.740676797406e-04 
7.357046437425e-05 6.570695833459e-05 0.0 
6.570695833459e-05 -7.357046437425e-05 0.0 
0.0 0.0 0.0 
-6.149932217399e-04 -2.296531181353e-04 0.0 
-2.296531181353e-04 1.902161440616e-03 0.0 
0.0 0.0 -2.776016825098e-04 
-5.498585393581e-04 -2.166839192677e-04 0.0 
-2.166839192677e-04 1.738279106343e-03 0.0 
0.0 0.0 -4.484512109716e-04 
-1.512957112042e-03 4.043623184242e-04 0.0 
4.043623184242e-04 8.437324312554e-03 0.0 
0.0 0.0 -1.250388265701e-03 
-3.873012428043e-04 2.129273940428e-03 0.0 
2.129273940428e-03 2.185606563766e-03 0.0 
0.0 0.0 -7.707022804121e-04 
-4.415956435739e-04 2.226005795527e-03 0.0 
2.226005795527e-03 2.374460708771e-03 0.0 
0.0 0.0 -8.283707422273e-04 
-4.392711161920e-04 -9.745966439417e-04 0.0 
-9.745966439417e-04 3.836297522503e-03 0.0 
0.0 0.0 -1.210372970477e-03 
-1.729903628601e-03 1.506745383258e-03 0.0 
1.506745383258e-03 5.975665893657e-03 0.0 
0.0 0.0 -9.130988374533e-04 
-1.810671457854e-03 -7.476421640110e-04 0.0 
-7.476421640110e-04 5.330964071115e-03 0.0 
0.0 0.0 -1.080045423496e-03 
-1.736477005164e-03 1.109495533801e-03 0.0 
1.109495533801e-03 4.957414051106e-03 0.0 
0.0 0.0 -7.148082707961e-04 
-9.553018808659e-04 3.102749138761e-03 0.0 
3.102749138761e-03 5.566273317297e-03 0.0 
0.0 0.0 -1.266047838742e-03 
-1.821356794347e-03 1.188786638151e-03 0.0 
1.188786638151e-03 6.013421513739e-03 0.0 
0.0 0.0 -9.113908267906e-04 
-6.554257296263e-04 -8.444129216472e-04 0.0 
-8.444129216472e-04 4.294151155513e-03 0.0 
0.0 0.0 -1.237914324842e-03 
1.345111965206e-03 -2.563071370678e-03 0.0 
-2.563071370678e-03 -3.409519374557e-04 0.0 
0.0 0.0 -4.303542976074e-04 
3.575551772738e-04 -9.432915107626e-04 0.0 
-9.432915107626e-04 3.359353657627e-04 0.0 
0.0 0.0 -1.059755802940e-04 
-1.524187206040e-03 3.047553797097e-03 0.0 
3.047553797097e-03 7.492448074924e-03 0.0 
0.0 0.0 -1.261301343383e-03 
-2.126259398598e-03 -4.008249318176e-04 0.0 
-4.008249318176e-04 6.245433906960e-03 0.0 
0.0 0.0 -1.090200430068e-03 
-1.168924377092e-03 -2.135391167217e-03 0.0 
-2.135391167217e-03 5.528728836968e-03 0.0 
0.0 0.0 -1.254989870190e-03 
-1.506183274607e-03 -1.403999252581e-03 0.0 
-1.403999252581e-03 6.695784423920e-03 0.0 
0.0 0.0 -1.314886350686e-03 
-1.405965625827e-03 -2.094418066157e-03 0.0 
-2.094418066157e-03 6.677666447639e-03 0.0 
0.0 0.0 -1.314653105918e-03 
-6.328504155879e-04 1.260189016710e-03 0.0 
1.260189016710e-03 4.185986138576e-03 0.0 
0.0 0.0 -1.264739017786e-03 
-1.486815579568e-03 -1.990720886798e-04 0.0 
-1.990720886798e-04 5.107008468447e-03 0.0 
0.0 0.0 -7.380763454961e-04 
-1.448070308282e-03 4.493602178438e-04 0.0 
4.493602178438e-04 5.173305882684e-03 0.0 
0.0 0.0 -7.371174501546e-04 
-8.280494050984e-04 2.109474212237e-03 0.0 
2.109474212237e-03 3.158688487348e-03 0.0 
0.0 0.0 -8.774464902234e-04 
-1.113239206738e-03 -1.655283581889e-03 0.0 
-1.655283581889e-03 5.115282801902e-03 0.0 
0.0 0.0 -1.280756488215e-03 
3.008174076713e-04 2.119260517804e-03 0.0 
2.119260517804e-03 8.825314744810e-04 0.0 
0.0 0.0 -5.071495209224e-04 
-1.653413400617e-03 1.159238962241e-03 0.0 
1.159238962241e-03 4.683778627350e-03 0.0 
0.0 0.0 -7.557105610435e-04 
-1.547330050851e-03 3.671214089611e-05 0.0 
3.671214089611e-05 8.340609894927e-03 0.0 
0.0 0.0 -1.212858513926e-03 
3.049695683184e-04 2.191509382836e-03 0.0 
2.191509382836e-03 9.207765491606e-04 0.0 
0.0 0.0 -5.253197646338e-04 
1.207574275293e-03 -2.365696291912e-03 0.0 
-2.365696291912e-03 -7.132596237324e-04 0.0 
0.0 0.0 -2.118491363831e-04 
-1.445646034229e-03 2.633500934319e-04 0.0 
2.633500934319e-04 8.137788974429e-03 0.0 
0.0 0.0 -1.234743356787e-03 
1.908988241954e-04 -8.061125310431e-04 0.0 
-8.061125310431e-04 -1.579045808258e-05 0.0 
0.0 0.0 -7.504644261978e-05 
-1.740092141895e-03 6.147961927965e-04 0.0 
6.147961927965e-04 5.664008038323e-03 0.0 
0.0 0.0 -8.229436299569e-04 
-6.078592580179e-04 2.220023986171e-03 0.0 
2.220023986171e-03 2.788765867991e-03 0.0 
0.0 0.0 -9.296584868968e-04 
-8.623973456416e-04 -2.162048895284e-04 0.0 
-2.162048895284e-04 2.432076766193e-03 0.0 
0.0 0.0 -4.150917825895e-04 
2.292279279293e-03 -2.762669743217e-03 0.0 
-2.762669743217e-03 -9.405005062222e-04 0.0 
0.0 0.0 -5.793337598876e-04 
-6.898259874441e-04 2.091701766161e-03 0.0 
2.091701766161e-03 2.855891423984e-03 0.0 
0.0 0.0 -8.656335400463e-04 
-1.445100174427e-03 2.379194139466e-03 0.0 
2.379194139466e-03 7.706829156199e-03 0.0 
0.0 0.0 -1.282189168212e-03 
-9.586804568965e-04 -6.913799780171e-04 0.0 
-6.913799780171e-04 2.989840683449e-03 0.0 
0.0 0.0 -7.128710764410e-04 
-6.997308059935e-04 -2.320910788817e-04 0.0 
-2.320910788817e-04 2.233925226019e-03 0.0 
0.0 0.0 -5.951090654820e-04 
-2.130460140960e-03 -2.340494849444e-04 0.0 
-2.340494849444e-04 6.282260078053e-03 0.0 
0.0 0.0 -1.087734043503e-03 
1.076454852669e-04 -7.426368379909e-04 0.0 
-7.426368379909e-04 1.194913348537e-03 0.0 
0.0 0.0 -3.122055485762e-04 
-1.457512378927e-03 3.071898754378e-04 0.0 
3.071898754378e-04 8.560769857503e-03 0.0 
0.0 0.0 -1.285320035817e-03 
0.0 0.0 0.0 
0.0 0.0 0.0 
0.0 0.0 0.0 
-5.387044635242e-04 2.656482396914e-03 0.0 
2.656482396914e-03 4.203857407929e-03 0.0 
0.0 0.0 -1.210824713543e-03 
3.439414593790e-04 2.794168595655e-03 0.0 
2.794168595655e-03 1.235314347192e-03 0.0 
0.0 0.0 -6.768239171020e-04 
2.349935129578e-03 -2.770680198001e-03 0.0 
-2.770680198001e-03 -6.796113691984e-04 0.0 
0.0 0.0 -7.158530401625e-04 
-1.671429738175e-03 -1.210022446990e-03 0.0 
-1.210022446990e-03 6.777156017205e-03 0.0 
0.0 0.0 -1.257478522087e-03 
-5.278364963199e-04 2.118194625541e-03 0.0 
2.118194625541e-03 2.531471725177e-03 0.0 
0.0 0.0 -8.587008123673e-04 
0.0 0.0 0.0 
0.0 0.0 0.0 
0.0 0.0 0.0 
-1.493925828084e-03 3.040545355870e-03 0.0 
3.040545355870e-03 7.302395090943e-03 0.0 
0.0 0.0 -1.261660853087e-03 
4.867824217369e-04 -2.505859056628e-03 0.0 
-2.505859056628e-03 8.835287678333e-04 0.0 
0.0 0.0 -5.872762241015e-04 
-1.271990412820e-03 3.214687538356e-03 0.0 
3.214687538356e-03 6.250345422673e-03 0.0 
0.0 0.0 -1.282376455277e-03 
-1.831786578585e-03 -1.075910520083e-03 0.0 
-1.075910520083e-03 5.407233681497e-03 0.0 
0.0 0.0 -1.080053202689e-03 
-1.338499280800e-03 1.682976327997e-03 0.0 
1.682976327997e-03 8.399936015446e-03 0.0 
0.0 0.0 -1.338499280800e-03 
-9.312572041143e-04 2.894697176184e-03 0.0 
2.894697176184e-03 4.910832013066e-03 0.0 
0.0 0.0 -1.232909111256e-03 
1.433784453303e-03 -9.093882019497e-05 0.0 
-9.093882019497e-05 -5.456392549777e-05 0.0 
0.0 0.0 -2.878745769087e-04 
-9.147252279940e-04 -5.669281210358e-04 0.0 
-5.669281210358e-04 2.973437083954e-03 0.0 
0.0 0.0 -8.116687730804e-04 
-1.536993954654e-03 1.126957410002e-03 0.0 
1.126957410002e-03 8.303326713538e-03 0.0 
0.0 0.0 -1.262626981217e-03 
-1.574019976009e-03 2.576738749078e-03 0.0 
2.576738749078e-03 7.875617774672e-03 0.0 
0.0 0.0 -1.265352048664e-03 
4.720058723338e-04 2.134723574062e-03 0.0 
2.134723574062e-03 6.830651359346e-04 0.0 
0.0 0.0 -4.950304321150e-04 
-3.200456338227e-04 -3.352696368382e-04 0.0 
-3.352696368382e-04 1.110105412521e-03 0.0 
0.0 0.0 -3.374836250442e-04 
5.206675697946e-04 2.217090668705e-03 0.0 
2.217090668705e-03 6.763455683265e-04 0.0 
0.0 0.0 -5.130056306233e-04 
4.804782057485e-04 -2.508358039830e-03 0.0 
-2.508358039830e-03 8.916054330170e-04 0.0 
0.0 0.0 -5.880358451852e-04 
-1.625607394925e-03 4.831506481737e-04 0.0 
4.831506481737e-04 5.291976980867e-03 0.0 
0.0 0.0 -7.918363975426e-04 
-2.908848742719e-04 2.252062443166e-03 0.0 
2.252062443166e-03 2.033636756898e-03 0.0 
0.0 0.0 -7.468936639825e-04 
-2.599695243754e-04 1.891700121758e-03 0.0 
1.891700121758e-03 1.743771242898e-03 0.0 
0.0 0.0 -6.359150222241e-04 
-1.678000531135e-03 1.594922248822e-04 0.0 
1.594922248822e-04 5.821879659601e-03 0.0 
0.0 0.0 -8.336771054075e-04 
-1.596383286677e-03 5.670740920774e-04 0.0 
5.670740920774e-04 5.789976808295e-03 0.0 
0.0 0.0 -8.358076868167e-04 
-1.951624680642e-03 -7.308270384445e-04 0.0 
-7.308270384445e-04 5.657668243585e-03 0.0 
0.0 0.0 -1.080533843704e-03 
-2.196082702137e-03 8.354918695911e-05 0.0 
8.354918695911e-05 6.184278536814e-03 0.0 
0.0 0.0 -1.059807920279e-03 
-1.525646772161e-03 2.625569910847e-03 0.0 
2.625569910847e-03 6.112973773832e-03 0.0 
0.0 0.0 -1.085941371602e-03 
-1.648645582224e-03 1.246285648401e-04 0.0 
1.246285648401e-04 5.489793155500e-03 0.0 
0.0 0.0 -7.983229688164e-04 
-1.123057724715e-05 -5.872900984588e-04 0.0 
-5.872900984588e-04 3.960725969021e-04 0.0 
0.0 0.0 -1.649322941379e-04 
-1.757846623502e-03 1.222419041867e-03 0.0 
1.222419041867e-03 5.122536551657e-03 0.0 
0.0 0.0 -7.928983479555e-04 
-1.578530100158e-03 5.920453420347e-05 0.0 
5.920453420347e-05 7.247400490716e-03 0.0 
0.0 0.0 -1.069439317440e-03 
-1.600676841679e-03 3.339381263473e-04 0.0 
3.339381263473e-04 7.321452075562e-03 0.0 
0.0 0.0 -1.046447409317e-03 
-1.502072334268e-03 1.832498170444e-03 0.0 
1.832498170444e-03 8.633609047693e-03 0.0 
0.0 0.0 -1.319970921405e-03 
-9.007094055422e-04 1.223013959388e-03 0.0 
1.223013959388e-03 4.725884480151e-03 0.0 
0.0 0.0 -1.294194962782e-03 
-1.674253522828e-03 4.484898109266e-04 0.0 
4.484898109266e-04 5.280548957068e-03 0.0 
0.0 0.0 -7.889745663688e-04 
-1.078149223135e-03 -1.912876176720e-03 0.0 
-1.912876176720e-03 5.515902141362e-03 0.0 
0.0 0.0 -1.263183913703e-03 
-1.546584036688e-03 -9.624953365827e-05 0.0 
-9.624953365827e-05 6.233353762451e-03 0.0 
0.0 0.0 -9.040008563810e-04 
1.411194399049e-04 2.915371637598e-03 0.0 
2.915371637598e-03 1.618838156256e-03 0.0 
0.0 0.0 -7.542675412120e-04 
-1.587713497171e-03 1.272120189302e-04 0.0 
1.272120189302e-04 5.375209747655e-03 0.0 
0.0 0.0 -7.643292725053e-04 
-1.604005809179e-03 -6.682657737697e-04 0.0 
-6.682657737697e-04 6.948639054056e-03 0.0 
0.0 0.0 -1.287517816355e-03 
3.542986660605e-04 2.115271012738e-03 0.0 
2.115271012738e-03 2.453989176071e-03 0.0 
0.0 0.0 -1.043751955586e-03 
-5.121197440995e-04 2.106847301720e-03 0.0 
2.106847301720e-03 4.264562002622e-03 0.0 
0.0 0.0 -1.209599240962e-03 
8.414669120651e-04 2.750323762399e-03 0.0 
2.750323762399e-03 6.433152604662e-04 0.0 
0.0 0.0 -6.363352167991e-04 
5.516999887664e-04 -2.796976242529e-03 0.0 
-2.796976242529e-03 1.148224010342e-04 0.0 
0.0 0.0 -2.856524527717e-04 
-1.904299824368e-03 -6.917450604687e-04 0.0 
-6.917450604687e-04 6.641778035438e-03 0.0 
0.0 0.0 -1.189902873528e-03 
-1.601708388107e-03 3.286250233117e-04 0.0 
3.286250233117e-04 7.722816405099e-03 0.0 
0.0 0.0 -1.108790581071e-03 
3.810766207411e-05 -6.205157488134e-04 0.0 
-6.205157488134e-04 -3.810766207411e-05 0.0 
0.0 0.0 0.0 
-1.434793545909e-03 -1.524718547292e-03 0.0 
-1.524718547292e-03 6.503522325473e-03 0.0 
0.0 0.0 -1.285127980003e-03 
-1.436465131336e-03 2.957908754166e-03 0.0 
2.957908754166e-03 5.615958785865e-03 0.0 
0.0 0.0 -1.051491716222e-03 
2.107685358584e-03 1.966346604052e-04 0.0 
1.966346604052e-04 -5.019158565474e-04 0.0 
0.0 0.0 -2.190510374322e-04 
1.208695653732e-03 2.926354061763e-03 0.0 
2.926354061763e-03 1.261066979529e-04 0.0 
0.0 0.0 -5.720581507223e-04 
-1.531499204645e-03 1.574438431832e-03 0.0 
1.574438431832e-03 4.499656748010e-03 0.0 
0.0 0.0 -7.914135736088e-04 
-9.815222315618e-04 -1.138374471426e-03 0.0 
-1.138374471426e-03 3.347141370850e-03 0.0 
0.0 0.0 -9.587991763485e-04 
2.655737035557e-04 2.419593458192e-03 0.0 
2.419593458192e-03 1.115288623384e-03 0.0 
0.0 0.0 -5.917981401168e-04 
3.744529332960e-04 2.946102748991e-03 0.0 
2.946102748991e-03 1.286129190467e-03 0.0 
0.0 0.0 -7.116780530414e-04 
-1.321847859093e-03 -1.772500593240e-03 0.0 
-1.772500593240e-03 5.826707907603e-03 0.0 
0.0 0.0 -1.283833066805e-03 
-1.525040410968e-03 2.578190730368e-04 0.0 
2.578190730368e-04 6.156621214154e-03 0.0 
0.0 0.0 -8.766975940251e-04 
5.363756903500e-04 2.629255494055e-03 0.0 
2.629255494055e-03 8.922896369145e-04 0.0 
0.0 0.0 -6.122851402562e-04 
1.683483209039e-04 -2.096310185990e-03 0.0 
-2.096310185990e-03 1.080312045122e-03 0.0 
0.0 0.0 -5.351401568681e-04 
-1.746303579404e-03 1.473532537081e-03 0.0 
1.473532537081e-03 5.178940412439e-03 0.0 
0.0 0.0 -7.744920945421e-04 
-1.517476482960e-03 1.097936493812e-04 0.0 
1.097936493812e-04 7.545801257606e-03 0.0 
0.0 0.0 -1.129288753466e-03 
5.838877050126e-04 2.764835075281e-03 0.0 
2.764835075281e-03 9.155423273699e-04 0.0 
0.0 0.0 -6.426128710211e-04 
3.893622582553e-04 1.575203385168e-03 0.0 
1.575203385168e-03 3.980592224466e-04 0.0 
0.0 0.0 -3.374663488722e-04 
-1.195366450636e-03 1.829833708586e-03 0.0 
1.829833708586e-03 3.827762851113e-03 0.0 
0.0 0.0 -8.233021825037e-04 
-1.094193203907e-03 -1.066143348073e-03 0.0 
-1.066143348073e-03 3.532112380788e-03 0.0 
0.0 0.0 -8.981558865158e-04 
-1.046482062160e-03 1.913988030913e-03 0.0 
1.913988030913e-03 3.510208918747e-03 0.0 
0.0 0.0 -8.113141688877e-04 
-1.442225258082e-03 1.605824937381e-03 0.0 
1.605824937381e-03 8.359073722744e-03 0.0 
0.0 0.0 -1.290671971449e-03 
1.101065632512e-03 2.933128537393e-03 0.0 
2.933128537393e-03 9.745442457705e-05 0.0 
0.0 0.0 -5.136514530381e-04 
-1.801548102835e-03 -7.282038970032e-04 0.0 
-7.282038970032e-04 5.288878918754e-03 0.0 
0.0 0.0 -1.060402641786e-03 
-1.486141105577e-03 5.585996661944e-04 0.0 
5.585996661944e-04 8.452622925900e-03 0.0 
0.0 0.0 -1.256690274141e-03 
-3.198454740031e-04 3.015481670953e-03 0.0 
3.015481670953e-03 2.568097898378e-03 0.0 
0.0 0.0 -9.635367533037e-04 
-1.021958554670e-03 1.956756434106e-03 0.0 
1.956756434106e-03 3.500404682426e-03 0.0 
0.0 0.0 -8.457158960689e-04 
-1.158957625686e-03 -1.674495574427e-03 0.0 
-1.674495574427e-03 5.533719249484e-03 0.0 
0.0 0.0 -1.254964138299e-03 
-1.718729624033e-03 -7.379037217155e-04 0.0 
-7.379037217155e-04 6.953664324138e-03 0.0 
0.0 0.0 -1.261070974318e-03 
-1.967620110819e-03 -6.331696876036e-04 0.0 
-6.331696876036e-04 5.669647458342e-03 0.0 
0.0 0.0 -1.061066130071e-03 
-6.061740370739e-04 3.049979969874e-03 0.0 
3.049979969874e-03 3.089302566165e-03 0.0 
0.0 0.0 -9.441827087005e-04 
-7.851765230129e-04 -1.170373150230e-03 0.0 
-1.170373150230e-03 4.916146318737e-03 0.0 
0.0 0.0 -1.270330610962e-03 
-5.043578746139e-04 2.747041251980e-03 0.0 
2.747041251980e-03 2.809200300211e-03 0.0 
0.0 0.0 -9.719555150774e-04 
-1.411040385942e-03 9.892815171228e-04 0.0 
9.892815171228e-04 8.317615504874e-03 0.0 
0.0 0.0 -1.283174495648e-03 
-1.289076372121e-03 3.481935391156e-03 0.0 
3.481935391156e-03 6.606253020577e-03 0.0 
0.0 0.0 -1.267437373369e-03 
-1.784736589840e-03 7.085096522011e-04 0.0 
7.085096522011e-04 5.733057783552e-03 0.0 
0.0 0.0 -8.543707170918e-04 
-1.586571893561e-03 5.026260166066e-04 0.0 
5.026260166066e-04 6.801986481939e-03 0.0 
0.0 0.0 -9.817831382938e-04 
-5.156399995052e-04 2.841155344974e-03 0.0 
2.841155344974e-03 2.858892473080e-03 0.0 
0.0 0.0 -9.645491798066e-04 
-8.623176927628e-04 1.998107917208e-03 0.0 
1.998107917208e-03 3.164246376073e-03 0.0 
0.0 0.0 -8.398345356346e-04 
-3.881715109885e-04 3.210536691478e-03 0.0 
3.210536691478e-03 2.805390491743e-03 0.0 
0.0 0.0 -1.009766620266e-03 
9.302504035183e-04 2.952397877038e-03 0.0 
2.952397877038e-03 6.425944529841e-04 0.0 
0.0 0.0 -6.740763670724e-04 
-1.542505755946e-03 1.216931962656e-05 0.0 
1.216931962656e-05 5.518918282905e-03 0.0 
0.0 0.0 -7.693993191400e-04 
1.440386328935e-03 3.141679147944e-03 0.0 
3.141679147944e-03 1.287757348394e-04 0.0 
0.0 0.0 -6.724980273319e-04 
1.173568897977e-04 -7.192653952147e-04 0.0 
-7.192653952147e-04 2.932653952173e-04 0.0 
0.0 0.0 -1.759809792922e-04 
-1.513364044801e-03 4.633102658988e-05 0.0 
4.633102658988e-05 5.921965621168e-03 0.0 
0.0 0.0 -8.171079392438e-04 
-4.255541535768e-04 -1.657123349734e-04 0.0 
-1.657123349734e-04 1.278602330907e-03 0.0 
0.0 0.0 -2.802839825148e-04 
-1.368206188634e-03 1.704449020245e-03 0.0 
1.704449020245e-03 4.168743630605e-03 0.0 
0.0 0.0 -8.053258742841e-04 
-1.010207907769e-03 -1.246817911064e-03 0.0 
-1.246817911064e-03 4.735746548095e-03 0.0 
0.0 0.0 -1.284796145094e-03 
7.390568671829e-04 2.553228098249e-03 0.0 
2.553228098249e-03 5.918003010214e-04 0.0 
0.0 0.0 -5.703673578019e-04 
-2.093082199977e-03 -2.605836003403e-04 0.0 
-2.605836003403e-04 5.949086090445e-03 0.0 
0.0 0.0 -1.062413871926e-03 
1.655520854684e-04 2.161371362285e-03 0.0 
2.161371362285e-03 1.103022204114e-03 0.0 
0.0 0.0 -5.436746955351e-04 
2.242015872536e-04 2.776975076431e-03 0.0 
2.776975076431e-03 2.408189383906e-03 0.0 
0.0 0.0 -1.044905595188e-03 
-1.509926535812e-03 9.806530388370e-05 0.0 
9.806530388370e-05 5.368363465218e-03 0.0 
0.0 0.0 -7.899655494116e-04 
1.682599579449e-03 2.941445331381e-03 0.0 
2.941445331381e-03 -2.715371857708e-04 0.0 
0.0 0.0 -6.047410258623e-04 
-2.057240178145e-03 -7.296543458156e-04 0.0 
-7.296543458156e-04 6.353419805029e-03 0.0 
0.0 0.0 -1.120963572432e-03 
7.939550842650e-05 -1.701837783695e-03 0.0 
-1.701837783695e-03 9.541700722220e-04 0.0 
0.0 0.0 -4.429566774208e-04 
-1.888286542342e-03 -4.078361496187e-04 0.0 
-4.078361496187e-04 6.637817436663e-03 0.0 
0.0 0.0 -1.189111243166e-03 
-1.407485654430e-03 2.291313923690e-03 0.0 
2.291313923690e-03 4.423118315057e-03 0.0 
0.0 0.0 -8.496092609019e-04 
-1.655956820216e-03 -1.430755689950e-03 0.0 
-1.430755689950e-03 6.808595235967e-03 0.0 
0.0 0.0 -1.265987209193e-03 
-1.479137566383e-03 6.125436213776e-05 0.0 
6.125436213776e-05 5.372221524286e-03 0.0 
0.0 0.0 -7.842605076999e-04 
1.138347058752e-03 2.740886700746e-03 0.0 
2.740886700746e-03 1.338850972854e-04 0.0 
0.0 0.0 -5.452423525874e-04 
-1.371065394049e-03 1.713545049238e-03 0.0 
1.713545049238e-03 4.152463321133e-03 0.0 
0.0 0.0 -7.801847948469e-04 
-1.782923268792e-03 -4.744584193542e-04 0.0 
-4.744584193542e-04 5.239530130494e-03 0.0 
0.0 0.0 -1.068702715777e-03 
1.574789883305e-04 2.145072666255e-03 0.0 
2.145072666255e-03 1.105288466408e-03 0.0 
0.0 0.0 -5.411860520308e-04 
1.917158204157e-03 2.902714119045e-03 0.0 
2.902714119045e-03 -2.818191306246e-04 0.0 
0.0 0.0 -7.008596029424e-04 
-1.624113157274e-03 6.876053139899e-05 0.0 
6.876053139899e-05 7.048361475913e-03 0.0 
0.0 0.0 -1.016465148841e-03 
-1.496185645618e-03 2.597795714976e-04 0.0 
2.597795714976e-04 5.580042956141e-03 0.0 
0.0 0.0 -7.680022369673e-04 
1.209193990119e-03 2.857448575399e-03 0.0 
2.857448575399e-03 6.945453600021e-05 0.0 
0.0 0.0 -5.479922254795e-04 
-1.208481437465e-03 1.793019710120e-03 0.0 
1.793019710120e-03 3.824789842828e-03 0.0 
0.0 0.0 -7.984459790235e-04 
-1.152184433486e-03 3.335097296693e-03 0.0 
3.335097296693e-03 5.424015752646e-03 0.0 
0.0 0.0 -1.136725521675e-03 
-1.147448492342e-03 -1.324005404889e-03 0.0 
-1.324005404889e-03 3.757906895843e-03 0.0 
0.0 0.0 -9.635001610743e-04 
-1.057040178935e-03 2.860292126594e-03 0.0 
2.860292126594e-03 5.175691718835e-03 0.0 
0.0 0.0 -1.285202198870e-03 
-1.235950081423e-03 3.387647794385e-03 0.0 
3.387647794385e-03 6.387700415222e-03 0.0 
0.0 0.0 -1.265486236287e-03 
9.281696803103e-05 2.658900655702e-03 0.0 
2.658900655702e-03 1.536267417270e-03 0.0 
0.0 0.0 -6.981790222718e-04 
-1.143109251794e-03 -9.968271358534e-04 0.0 
-9.968271358534e-04 3.727905850470e-03 0.0 
0.0 0.0 -9.933498913217e-04 
8.375618411630e-06 -4.309904929494e-04 0.0 
-4.309904929494e-04 3.045007785971e-03 0.0 
0.0 0.0 -1.152822474774e-03 
-6.877546197814e-04 2.505636337626e-03 0.0 
2.505636337626e-03 3.038701524841e-03 0.0 
0.0 0.0 -9.245708556394e-04 
1.703115487888e-04 2.091650289530e-03 0.0 
2.091650289530e-03 1.051916456575e-03 0.0 
0.0 0.0 -5.238120022987e-04 
-1.475392442541e-03 1.965496358724e-03 0.0 
1.965496358724e-03 4.467421796523e-03 0.0 
0.0 0.0 -8.137754052845e-04 
9.749921592096e-04 3.123149167265e-03 0.0 
3.123149167265e-03 7.036965901566e-04 0.0 
0.0 0.0 -7.194380354427e-04 
-1.431612767918e-03 8.458326217491e-04 0.0 
8.458326217491e-04 8.384155646033e-03 0.0 
0.0 0.0 -1.279059907835e-03 
-1.564281029058e-03 2.665406032541e-03 0.0 
2.665406032541e-03 6.081997352065e-03 0.0 
0.0 0.0 -1.060691896764e-03 
-1.994493389840e-03 -1.486147162618e-04 0.0 
-1.486147162618e-04 6.559276794178e-03 0.0 
0.0 0.0 -1.155968210243e-03 
4.093528604226e-04 2.208508467563e-03 0.0 
2.208508467563e-03 7.981291822907e-04 0.0 
0.0 0.0 -5.174923040200e-04 
2.334418016396e-03 2.579116851284e-03 0.0 
2.579116851284e-03 -5.999483228990e-04 0.0 
0.0 0.0 -7.433441543560e-04 
-1.484568773685e-03 2.868377484862e-03 0.0 
2.868377484862e-03 6.031945958818e-03 0.0 
0.0 0.0 -1.089453766084e-03 
0.0 0.0 0.0 
0.0 0.0 0.0 
0.0 0.0 0.0 
-6.877179378264e-04 2.407578529618e-03 0.0 
2.407578529618e-03 2.994584755227e-03 0.0 
0.0 0.0 -9.117638418509e-04 
1.701472924961e-04 -1.416553182353e-03 0.0 
-1.416553182353e-03 2.527445138619e-03 0.0 
0.0 0.0 -1.080675545910e-03 
7.614101656211e-04 -9.306526935755e-04 0.0 
-9.306526935755e-04 6.714955075901e-04 0.0 
0.0 0.0 -3.004177607877e-04 
-1.466695883915e-03 2.895664536321e-03 0.0 
2.895664536321e-03 7.498365973997e-03 0.0 
0.0 0.0 -1.257517519450e-03 
-1.714163728762e-03 1.976135659385e-03 0.0 
1.976135659385e-03 6.108584287411e-03 0.0 
0.0 0.0 -9.749624431058e-04 
4.925108656531e-04 -3.055158529449e-03 0.0 
-3.055158529449e-03 1.195571453177e-03 0.0 
0.0 0.0 -7.234638509273e-04 
2.687278214662e-04 -6.810653139458e-04 0.0 
-6.810653139458e-04 2.481884598028e-03 0.0 
0.0 0.0 -1.082135573042e-03 
-1.799351909415e-03 1.409259675503e-03 0.0 
1.409259675503e-03 5.578155389814e-03 0.0 
0.0 0.0 -8.259898420369e-04 
-1.801064707900e-03 1.064269352962e-03 0.0 
1.064269352962e-03 5.991738140388e-03 0.0 
0.0 0.0 -8.838609275114e-04 
-6.913788155709e-04 -1.227574140941e-03 0.0 
-1.227574140941e-03 4.246435019945e-03 0.0 
0.0 0.0 -1.237791025003e-03 
1.617016974439e-05 -2.476429670131e-03 0.0 
-2.476429670131e-03 1.553276678470e-03 0.0 
0.0 0.0 -6.726200778060e-04 
-1.931314796257e-04 3.392233640780e-03 0.0 
3.392233640780e-03 2.538226820427e-03 0.0 
0.0 0.0 -1.005040860343e-03 
-1.319730188756e-03 2.601972306617e-03 0.0 
2.601972306617e-03 4.340655659079e-03 0.0 
0.0 0.0 -8.816854262052e-04 
-1.791217628275e-03 1.648610109221e-03 0.0 
1.648610109221e-03 6.470941124492e-03 0.0 
0.0 0.0 -1.008548823165e-03 
-1.624650418518e-03 2.058268446018e-03 0.0 
2.058268446018e-03 4.841940123608e-03 0.0 
0.0 0.0 -8.379792476443e-04 
-1.489577849007e-03 1.897054155513e-03 0.0 
1.897054155513e-03 4.494677002446e-03 0.0 
0.0 0.0 -8.233332215064e-04 
9.144592983676e-04 2.103723640953e-03 0.0 
2.103723640953e-03 1.164621970286e-03 0.0 
0.0 0.0 -8.910348294228e-04 
-1.234709836901e-03 2.936622841749e-03 0.0 
2.936622841749e-03 5.525011386670e-03 0.0 
0.0 0.0 -1.105110859848e-03 
0.0 0.0 0.0 
0.0 0.0 0.0 
0.0 0.0 0.0 
5.533753092924e-05 2.321065575708e-03 0.0 
2.321065575708e-03 1.385026181291e-03 0.0 
0.0 0.0 -6.172987338087e-04 
9.775337925356e-05 2.647350784272e-03 0.0 
2.647350784272e-03 1.520581698043e-03 0.0 
0.0 0.0 -6.935721759841e-04 
-4.200121646643e-04 3.335963278249e-03 0.0 
3.335963278249e-03 2.868206010904e-03 0.0 
0.0 0.0 -9.575728814879e-04 
-1.648855317221e-03 2.317084043405e-03 0.0 
2.317084043405e-03 6.523041636329e-03 0.0 
0.0 0.0 -1.095076276885e-03 
2.058287304795e-03 2.313329836799e-03 0.0 
2.313329836799e-03 -1.214980310369e-03 0.0 
0.0 0.0 -3.614172833254e-04 
1.621278099486e-04 -1.894393997341e-03 0.0 
-1.894393997341e-03 2.355296152545e-03 0.0 
0.0 0.0 -1.043355442177e-03 
-1.517251520276e-03 -1.088769506638e-04 0.0 
-1.088769506638e-04 5.367725382565e-03 0.0 
0.0 0.0 -7.763349569542e-04 
2.071225716726e-03 2.817742222964e-03 0.0 
2.817742222964e-03 -5.830940965428e-04 0.0 
0.0 0.0 -6.377706943641e-04 
8.701785889744e-05 -2.378886716450e-03 0.0 
-2.378886716450e-03 2.268431335651e-03 0.0 
0.0 0.0 -1.006238978475e-03 
6.688501451719e-04 -8.570105726374e-04 0.0 
-8.570105726374e-04 2.508766139633e-04 0.0 
0.0 0.0 -2.227849532966e-04 
-1.684683593515e-03 2.138149817611e-03 0.0 
2.138149817611e-03 6.451465524737e-03 0.0 
0.0 0.0 -1.040010908530e-03 
1.085799585697e-03 -9.338136306232e-04 0.0 
-9.338136306232e-04 4.841625588176e-05 0.0 
0.0 0.0 -1.827119720807e-04 
1.032861128012e-04 -6.271925775052e-04 0.0 
-6.271925775052e-04 6.433353347809e-04 0.0 
0.0 0.0 -2.890002659678e-04 
4.284292636794e-04 2.188011980544e-03 0.0 
2.188011980544e-03 7.634628543711e-04 0.0 
0.0 0.0 -5.108109077359e-04 
5.217682496460e-06 -2.221552624950e-03 0.0 
-2.221552624950e-03 1.410136832977e-03 0.0 
0.0 0.0 -6.065805066316e-04 
-1.756426844714e-03 1.797081824779e-03 0.0 
1.797081824779e-03 6.815040634103e-03 0.0 
0.0 0.0 -1.073797489760e-03 
1.622101319788e-04 -2.264597495009e-03 0.0 
-2.264597495009e-03 1.173181540105e-03 0.0 
0.0 0.0 -5.723107166073e-04 
1.082074594484e-03 2.640607073619e-03 0.0 
2.640607073619e-03 2.626720583109e-04 0.0 
0.0 0.0 -5.763199940550e-04 
1.605964786137e-03 -3.583242349909e-03 0.0 
-3.583242349909e-03 -7.906667844752e-05 0.0 
0.0 0.0 -6.543849032956e-04 
-3.494454807525e-05 -1.610984925714e-03 0.0 
-1.610984925714e-03 1.099950761190e-03 0.0 
0.0 0.0 -4.564312341920e-04 
1.739023189569e-04 -2.645147422265e-04 0.0 
-2.645147422265e-04 2.696870324371e-03 0.0 
0.0 0.0 -1.117524173959e-03 
-1.429083730494e-03 2.211537082543e-03 0.0 
2.211537082543e-03 4.453302943283e-03 0.0 
0.0 0.0 -8.507820156577e-04 
-1.682802659426e-03 -8.879633472863e-04 0.0 
-8.879633472863e-04 6.796328964063e-03 0.0 
0.0 0.0 -1.256743614961e-03 
0.0 0.0 0.0 
0.0 0.0 0.0 
0.0 0.0 0.0 
1.341168508293e-03 2.860330611598e-03 0.0 
2.860330611598e-03 7.949426344501e-05 0.0 
0.0 0.0 -6.088554736019e-04 
2.068683241690e-03 2.743594093827e-03 0.0 
2.743594093827e-03 -6.076247593681e-04 0.0 
0.0 0.0 -6.261679209952e-04 
-4.650783933680e-04 2.487333802040e-03 0.0 
2.487333802040e-03 2.583809885183e-03 0.0 
0.0 0.0 -9.080277822064e-04 
3.082871487027e-04 -1.189402361213e-03 0.0 
-1.189402361213e-03 2.304624928689e-03 0.0 
0.0 0.0 -1.045235091131e-03 
-1.579554839483e-03 -1.394031692893e-03 0.0 
-1.394031692893e-03 6.678028948098e-03 0.0 
0.0 0.0 -1.275930989368e-03 
-1.684299046229e-03 2.211375405385e-03 0.0 
2.211375405385e-03 6.180161065170e-03 0.0 
0.0 0.0 -1.029499106509e-03 
2.603806802799e-03 2.336705660835e-03 0.0 
2.336705660835e-03 -7.411156882784e-04 0.0 
0.0 0.0 -7.982961919374e-04 
1.043592575535e-04 -8.852470439530e-04 0.0 
-8.852470439530e-04 2.718008520162e-03 0.0 
0.0 0.0 -1.116166892424e-03 
-1.922924089839e-03 -2.680134474821e-04 0.0 
-2.680134474821e-04 5.558845052998e-03 0.0 
0.0 0.0 -1.068822925414e-03 
-7.222094777076e-04 3.206300168432e-03 0.0 
3.206300168432e-03 3.349356457826e-03 0.0 
0.0 0.0 -9.235973587808e-04 
-1.677093997722e-03 2.220083154297e-03 0.0 
2.220083154297e-03 6.117933896180e-03 0.0 
0.0 0.0 -1.003200534345e-03 
-7.865873312168e-04 2.395249233040e-03 0.0 
2.395249233040e-03 4.693437656803e-03 0.0 
0.0 0.0 -1.239730878702e-03 
2.351260119446e-03 2.575200545511e-03 0.0 
2.575200545511e-03 -6.504486438349e-04 0.0 
0.0 0.0 -7.289192038335e-04 
9.551102574568e-04 2.654829682591e-03 0.0 
2.654829682591e-03 4.928673923672e-04 0.0 
0.0 0.0 -6.205618499245e-04 
-1.702788092325e-03 2.198389791733e-03 0.0 
2.198389791733e-03 5.173682012494e-03 0.0 
0.0 0.0 -8.662621843288e-04 
-1.465090691244e-03 1.772844143032e-03 0.0 
1.772844143032e-03 8.679771669805e-03 0.0 
0.0 0.0 -1.323568725688e-03 
-2.196076664333e-04 3.542355712652e-03 0.0 
3.542355712652e-03 2.609169075547e-03 0.0 
0.0 0.0 -9.604425725471e-04 
2.156116458846e-03 1.930277635860e-03 0.0 
1.930277635860e-03 -8.514533959833e-04 0.0 
0.0 0.0 -5.591413126556e-04 
-1.551301896676e-03 9.806982104899e-05 0.0 
9.806982104899e-05 6.010438701821e-03 0.0 
0.0 0.0 -8.293613651800e-04 
5.856186318512e-04 -2.658816906517e-03 0.0 
-2.658816906517e-03 8.548743103244e-04 0.0 
0.0 0.0 -6.173541180753e-04 
-1.598852307231e-03 2.167741205054e-03 0.0 
2.167741205054e-03 4.803959338789e-03 0.0 
0.0 0.0 -8.353017157004e-04 
2.274495282906e-03 2.779935450298e-03 0.0 
2.779935450298e-03 -7.589577722122e-04 0.0 
0.0 0.0 -6.495160760114e-04 
2.298330951285e-03 2.091471460167e-03 0.0 
2.091471460167e-03 -1.204105301713e-03 0.0 
0.0 0.0 -4.689538498166e-04 
2.194832401766e-03 -2.977249775004e-03 0.0 
-2.977249775004e-03 -1.184035248941e-03 0.0 
0.0 0.0 -4.331987797821e-04 
-1.681597496447e-03 2.058302471615e-03 0.0 
2.058302471615e-03 6.767260745606e-03 0.0 
0.0 0.0 -1.075985979751e-03 
-1.563333733845e-03 2.379244648904e-03 0.0 
2.379244648904e-03 4.793451180047e-03 0.0 
0.0 0.0 -8.585603458244e-04 
7.771067329277e-04 2.601388271392e-03 0.0 
2.601388271392e-03 5.653213737160e-04 0.0 
0.0 0.0 -5.753263314187e-04 
-1.744996038836e-03 1.710273158382e-03 0.0 
1.710273158382e-03 7.117718959599e-03 0.0 
0.0 0.0 -1.109763131677e-03 
-1.606390224900e-03 2.419672085247e-03 0.0 
2.419672085247e-03 6.148327333334e-03 0.0 
0.0 0.0 -1.057773507355e-03 
-9.992751282894e-04 3.042009890222e-03 0.0 
3.042009890222e-03 3.819168416919e-03 0.0 
0.0 0.0 -9.009204134091e-04 
-1.375955048470e-03 -1.683400062222e-03 0.0 
-1.683400062222e-03 6.152421885777e-03 0.0 
0.0 0.0 -1.288412101370e-03 
1.944327134549e-03 1.768812360803e-03 0.0 
1.768812360803e-03 -8.136324325899e-04 0.0 
0.0 0.0 -4.845834436969e-04 
-1.254552424136e-03 2.860314366234e-03 0.0 
2.860314366234e-03 4.275922517579e-03 0.0 
0.0 0.0 -8.847105569873e-04 
9.718205800213e-04 3.231436175948e-03 0.0 
3.231436175948e-03 7.715228841926e-04 0.0 
0.0 0.0 -7.471471989488e-04 
1.727666947234e-03 1.978971680572e-03 0.0 
1.978971680572e-03 -4.287431573860e-04 0.0 
0.0 0.0 -5.566816242204e-04 
2.636933750934e-03 1.964049691199e-03 0.0 
1.964049691199e-03 -1.267164226969e-03 0.0 
0.0 0.0 -5.870440816995e-04 
-1.756261579278e-03 1.027223545009e-03 0.0 
1.027223545009e-03 5.150592098184e-03 0.0 
0.0 0.0 -7.898058234521e-04 
2.669142654027e-03 2.047008583083e-03 0.0 
2.047008583083e-03 -9.582484116816e-04 0.0 
0.0 0.0 -7.332403895767e-04 
2.689606729154e-03 -1.689602510838e-03 0.0 
-1.689602510838e-03 -1.205625742808e-03 0.0 
0.0 0.0 -6.359918512911e-04 
-1.629595190705e-03 2.449686769187e-03 0.0 
2.449686769187e-03 6.117601231972e-03 0.0 
0.0 0.0 -1.032318248600e-03 
0.0 0.0 0.0 
0.0 0.0 0.0 
0.0 0.0 0.0 
-1.769475386321e-03 1.897454184282e-03 0.0 
1.897454184282e-03 5.196794091963e-03 0.0 
0.0 0.0 -8.386390795737e-04 
2.679831450569e-03 2.298078295471e-03 0.0 
2.298078295471e-03 -1.117110075304e-03 0.0 
0.0 0.0 -6.697377322564e-04 
1.525405513799e-03 2.895304825734e-03 0.0 
2.895304825734e-03 1.054559655311e-04 0.0 
0.0 0.0 -6.989406339984e-04 
2.631491351563e-03 9.404993485972e-04 0.0 
9.404993485972e-04 -1.150887457296e-03 0.0 
0.0 0.0 -6.345445261146e-04 
-1.595995973144e-03 2.618038279511e-03 0.0 
2.618038279511e-03 5.071323653385e-03 0.0 
0.0 0.0 -8.965110541436e-04 
1.511841627677e-04 -1.773057166612e-03 0.0 
-1.773057166612e-03 8.535234281834e-04 0.0 
0.0 0.0 -3.901044503889e-04 
-9.397222903950e-05 2.775799572976e-03 0.0 
2.775799572976e-03 1.950195750929e-03 0.0 
0.0 0.0 -7.955243665241e-04 
1.510533742235e-03 1.893368219128e-03 0.0 
1.893368219128e-03 -3.333023352097e-04 0.0 
0.0 0.0 -5.045277458680e-04 
-1.529633938128e-03 2.472556152499e-03 0.0 
2.472556152499e-03 4.747231259560e-03 0.0 
0.0 0.0 -8.651285257930e-04 
-1.800570073848e-03 1.187623183650e-03 0.0 
1.187623183650e-03 5.684872286068e-03 0.0 
0.0 0.0 -8.301023967811e-04 
9.558821828944e-04 1.012922103067e-03 0.0 
1.012922103067e-03 -8.983468077863e-04 0.0 
0.0 0.0 -2.465801790349e-05 
2.929345942082e-03 -7.362875197769e-04 0.0 
-7.362875197769e-04 -1.325012703078e-03 0.0 
0.0 0.0 -6.875713881444e-04 
2.465820499106e-03 -2.486373233668e-03 0.0 
-2.486373233668e-03 -9.885187097241e-04 0.0 
0.0 0.0 -6.331293383067e-04 
-1.000270138248e-04 2.665501899130e-03 0.0 
2.665501899130e-03 1.891739969722e-03 0.0 
0.0 0.0 -7.678769810987e-04 
-1.745645462288e-03 1.969965136157e-03 0.0 
1.969965136157e-03 6.177510406470e-03 0.0 
0.0 0.0 -1.000663671924e-03 
-6.743676206496e-05 2.958894746749e-03 0.0 
2.958894746749e-03 2.016036742517e-03 0.0 
0.0 0.0 -8.351142773366e-04 
2.740866472437e-03 2.036102310260e-03 0.0 
2.036102310260e-03 -1.186449683482e-03 0.0 
0.0 0.0 -6.661786238380e-04 
2.465496107494e-03 2.525824601177e-03 0.0 
2.525824601177e-03 -9.322172367962e-04 0.0 
0.0 0.0 -6.571195160133e-04 
1.273787981714e-03 8.615297331710e-04 0.0 
8.615297331710e-04 -7.497623681705e-04 0.0 
0.0 0.0 -2.245824058045e-04 
1.142131131016e-03 2.936542087170e-03 0.0 
2.936542087170e-03 2.802751358821e-04 0.0 
0.0 0.0 -6.096026858133e-04 
8.727535464249e-04 2.453256376776e-03 0.0 
2.453256376776e-03 4.670237874706e-04 0.0 
0.0 0.0 -5.741902859552e-04 
-1.475760748405e-03 2.695142501196e-03 0.0 
2.695142501196e-03 8.197923622284e-03 0.0 
0.0 0.0 -1.321446319728e-03 
-1.492107186378e-03 3.030650340964e-03 0.0 
3.030650340964e-03 7.905007360297e-03 0.0 
0.0 0.0 -1.318029376683e-03 
-1.178085073700e-05 3.500120593452e-03 0.0 
3.500120593452e-03 2.258084084144e-03 0.0 
0.0 0.0 -9.627013857460e-04 
2.548877331085e-03 2.529452683065e-03 0.0 
2.529452683065e-03 -1.024625724028e-03 0.0 
0.0 0.0 -6.532506887387e-04 
1.850654072594e-03 2.843628912083e-03 0.0 
2.843628912083e-03 -1.310735320691e-04 0.0 
0.0 0.0 -7.369630887965e-04 
-1.088841516862e-03 3.167027765780e-03 0.0 
3.167027765780e-03 4.070335559596e-03 0.0 
0.0 0.0 -9.333628341409e-04 
2.340427504556e-03 2.434956062557e-03 0.0 
2.434956062557e-03 -5.727957500432e-04 0.0 
0.0 0.0 -7.575564662197e-04 
2.682095355776e-03 -1.550453496673e-03 0.0 
-1.550453496673e-03 -1.096738406614e-03 0.0 
0.0 0.0 -6.794386924979e-04 
-6.843102871119e-04 3.138323977980e-03 0.0 
3.138323977980e-03 3.288670793621e-03 0.0 
0.0 0.0 -9.652881140700e-04 
-1.560571318974e-03 1.068024078019e-03 0.0 
1.068024078019e-03 8.561491499252e-03 0.0 
0.0 0.0 -1.266640259566e-03 
2.402271625794e-03 2.610626999267e-03 0.0 
2.610626999267e-03 -8.722989033853e-04 0.0 
0.0 0.0 -6.557025953181e-04 
6.813860835502e-04 2.812347985425e-03 0.0 
2.812347985425e-03 1.059490988612e-03 0.0 
0.0 0.0 -7.460901737839e-04 
1.236363456041e-03 2.703241249809e-03 0.0 
2.703241249809e-03 7.838624202410e-05 0.0 
0.0 0.0 -5.634641563138e-04 
-9.652389989341e-04 -6.720183629338e-04 0.0 
-6.720183629338e-04 5.271242622276e-03 0.0 
0.0 0.0 -1.322863172658e-03 
2.098067576592e-03 2.923737740925e-03 0.0 
2.923737740925e-03 -6.205768400508e-04 0.0 
0.0 0.0 -6.332103156605e-04 
-5.055876985533e-04 3.367364034790e-03 0.0 
3.367364034790e-03 3.063510178626e-03 0.0 
0.0 0.0 -9.919420460789e-04 
1.879903345484e-03 1.255087970799e-03 0.0 
1.255087970799e-03 -1.207356077200e-03 0.0 
0.0 0.0 -2.882345435504e-04 
1.114970489587e-03 -6.571475029199e-04 0.0 
-6.571475029199e-04 3.550721468189e-04 0.0 
0.0 0.0 -6.300182727452e-04 
2.369471702773e-03 2.352310472614e-03 0.0 
2.352310472614e-03 -9.003050297678e-04 0.0 
0.0 0.0 -6.296428598595e-04 
2.511210871122e-03 -2.213592529972e-03 0.0 
-2.213592529972e-03 -7.926901794877e-04 0.0 
0.0 0.0 -7.365088678433e-04 
-1.351376459572e-03 2.550480813182e-03 0.0 
2.550480813182e-03 4.385207787700e-03 0.0 
0.0 0.0 -8.710486452961e-04 
-1.397658873592e-03 3.467085405935e-03 0.0 
3.467085405935e-03 7.331557043367e-03 0.0 
0.0 0.0 -1.324865334549e-03 
2.762976518654e-03 2.129275318385e-03 0.0 
2.129275318385e-03 -1.188719051590e-03 0.0 
0.0 0.0 -6.746817715991e-04 
1.650992187785e-03 1.271809720393e-03 0.0 
1.271809720393e-03 -3.513789338484e-04 0.0 
0.0 0.0 -5.569771088299e-04 
1.383242402169e-03 2.669272504238e-03 0.0 
2.669272504238e-03 1.108605796806e-04 0.0 
0.0 0.0 -6.403298493639e-04 
-1.712702943967e-03 1.199021659258e-03 0.0 
1.199021659258e-03 6.429834953111e-03 0.0 
0.0 0.0 -9.576894438039e-04 
2.851085176734e-04 -1.709536430844e-03 0.0 
-1.709536430844e-03 2.195876444368e-03 0.0 
0.0 0.0 -1.008345180213e-03 
7.579314461175e-04 2.705809604616e-03 0.0 
2.705809604616e-03 6.993839864940e-04 0.0 
0.0 0.0 -6.245637568335e-04 
-1.777734376669e-03 7.086825961678e-04 0.0 
7.086825961678e-04 6.354608604567e-03 0.0 
0.0 0.0 -9.257128893455e-04 
-1.277191206466e-03 3.589282529004e-03 0.0 
3.589282529004e-03 6.665823351058e-03 0.0 
0.0 0.0 -1.322580803729e-03 
1.403185707486e-06 -1.439264409054e-03 0.0 
-1.439264409054e-03 2.848558759865e-03 0.0 
0.0 0.0 -1.075861678316e-03 
-1.430658668499e-03 3.358596416292e-03 0.0 
3.358596416292e-03 7.549163922134e-03 0.0 
0.0 0.0 -1.322091174222e-03 
-1.793445118784e-03 9.356262614995e-04 0.0 
9.356262614995e-04 6.204769543778e-03 0.0 
0.0 0.0 -9.196498359204e-04 
-1.442068331431e-03 2.746821175537e-03 0.0 
2.746821175537e-03 5.682562585269e-03 0.0 
0.0 0.0 -1.048263655743e-03 
5.998084775859e-04 2.508005665207e-03 0.0 
2.508005665207e-03 7.531788584781e-04 0.0 
0.0 0.0 -5.798517154560e-04 
-1.223045542115e-03 2.387086346015e-03 0.0 
2.387086346015e-03 4.064515837256e-03 0.0 
0.0 0.0 -8.681697709544e-04 
-1.209389184573e-03 2.902758957536e-03 0.0 
2.902758957536e-03 4.217242041572e-03 0.0 
0.0 0.0 -9.102795160361e-04 
-1.488840206319e-03 2.679198250696e-03 0.0 
2.679198250696e-03 4.716368235080e-03 0.0 
0.0 0.0 -8.732807453983e-04 
1.119499660130e-04 3.567291341735e-03 0.0 
3.567291341735e-03 2.082472498151e-03 0.0 
0.0 0.0 -9.404667703562e-04 
-1.189299144518e-03 3.334584496646e-03 0.0 
3.334584496646e-03 6.217817091132e-03 0.0 
0.0 0.0 -1.322334986692e-03 
-1.743738005580e-03 1.571409251216e-03 0.0 
1.571409251216e-03 5.783273679231e-03 0.0 
0.0 0.0 -8.810748613436e-04 
-1.668503733379e-03 1.747174983457e-03 0.0 
1.747174983457e-03 4.858766838357e-03 0.0 
0.0 0.0 -8.123974380148e-04 
2.689502468919e-03 2.075432867186e-03 0.0 
2.075432867186e-03 -9.257907609435e-04 0.0 
0.0 0.0 -7.558764462751e-04 
-2.431074983303e-05 -1.913003925140e-03 0.0 
-1.913003925140e-03 1.267148434552e-03 0.0 
0.0 0.0 -5.326447220222e-04 
-1.300250353668e-03 2.028546891134e-03 0.0 
2.028546891134e-03 4.120204910714e-03 0.0 
0.0 0.0 -8.415228793236e-04 
1.029960534553e-03 2.697834854064e-03 0.0 
2.697834854064e-03 2.742713854926e-04 0.0 
0.0 0.0 -5.589565371624e-04 
-1.478386704748e-03 4.206789908739e-05 0.0 
4.206789908739e-05 5.616715806328e-03 0.0 
0.0 0.0 -7.696142143080e-04 
2.082223251132e-03 -2.739881630323e-03 0.0 
-2.739881630323e-03 -6.915223042800e-04 0.0 
0.0 0.0 -5.960146915079e-04 
2.687145576905e-03 2.150944824992e-03 0.0 
2.150944824992e-03 -8.619858571997e-04 0.0 
0.0 0.0 -7.822113084450e-04 
-1.642192723937e-03 2.370627921536e-03 0.0 
2.370627921536e-03 6.463774212935e-03 0.0 
0.0 0.0 -1.069052450572e-03 
1.210732016110e-03 2.901093481449e-03 0.0 
2.901093481449e-03 3.403089247521e-04 0.0 
0.0 0.0 -6.647318317980e-04 
-1.090838761359e-03 2.744646813510e-03 0.0 
2.744646813510e-03 3.916911857046e-03 0.0 
0.0 0.0 -9.030726692333e-04 
1.373131851669e-03 1.385595291722e-03 0.0 
1.385595291722e-03 -2.069114301952e-04 0.0 
0.0 0.0 -4.998087520603e-04 
5.484712090762e-04 -3.075676285272e-03 0.0 
-3.075676285272e-03 1.137788810983e-03 0.0 
0.0 0.0 -7.226828657397e-04 
-1.016387097360e-03 2.517297286892e-03 0.0 
2.517297286892e-03 5.594754578216e-03 0.0 
0.0 0.0 -1.324762665914e-03 
-9.072903591933e-04 2.355207703591e-03 0.0 
2.355207703591e-03 3.405907050817e-03 0.0 
0.0 0.0 -8.881387192877e-04 
2.946142820410e-03 1.617684650386e-04 0.0 
1.617684650386e-04 -1.452636572549e-03 0.0 
0.0 0.0 -6.400741062262e-04 
6.309307785542e-04 -2.673296576986e-03 0.0 
-2.673296576986e-03 8.118285156915e-04 0.0 
0.0 0.0 -6.183254118196e-04 
2.654857369397e-04 2.566176722282e-03 0.0 
2.566176722282e-03 1.206224560431e-03 0.0 
0.0 0.0 -6.307329845874e-04 
6.292944620548e-04 2.356029893105e-03 0.0 
2.356029893105e-03 6.393485700988e-04 0.0 
0.0 0.0 -5.437041566372e-04 
-1.573343830476e-03 2.521088319541e-03 0.0 
2.521088319541e-03 6.487888532466e-03 0.0 
0.0 0.0 -1.123886314723e-03 
-8.643744592464e-04 3.301393799564e-03 0.0 
3.301393799564e-03 3.642299074364e-03 0.0 
0.0 0.0 -9.055216267950e-04 
-4.630807398905e-04 2.550759047776e-03 0.0 
2.550759047776e-03 2.616100997212e-03 0.0 
0.0 0.0 -9.227229674235e-04 
-9.883417377340e-04 2.554278731018e-03 0.0 
2.554278731018e-03 3.636783780997e-03 0.0 
0.0 0.0 -8.916891917129e-04 
-9.188251607233e-04 7.915048635257e-04 0.0 
7.915048635257e-04 5.164894119245e-03 0.0 
0.0 0.0 -1.320675234999e-03 
-5.234519663279e-04 8.018217957374e-04 0.0 
8.018217957374e-04 4.358356351167e-03 0.0 
0.0 0.0 -1.258064670439e-03 
-1.519847497081e-03 2.784288839478e-03 0.0 
2.784288839478e-03 6.420730520918e-03 0.0 
0.0 0.0 -1.126590436115e-03 
-1.758421539440e-03 1.881967215149e-03 0.0 
1.881967215149e-03 6.509172932200e-03 0.0 
0.0 0.0 -1.037522200811e-03 
7.328240466091e-04 -2.682401726123e-03 0.0 
-2.682401726123e-03 7.115913620792e-04 0.0 
0.0 0.0 -6.190351751521e-04 
1.760096404851e-04 3.185483329578e-03 0.0 
3.185483329578e-03 1.733233248228e-03 0.0 
0.0 0.0 -8.182469523055e-04 
2.700024770010e-03 1.747528214601e-03 0.0 
1.747528214601e-03 -9.576266826323e-04 0.0 
0.0 0.0 -7.467420374474e-04 
2.935361494200e-03 1.596241168019e-03 0.0 
1.596241168019e-03 -1.073012164550e-03 0.0 
0.0 0.0 -7.981497127072e-04 
-5.548455542571e-04 3.454533405249e-03 0.0 
3.454533405249e-03 3.132006875912e-03 0.0 
0.0 0.0 -9.270064166112e-04 
1.279127165458e-03 -9.870557535994e-04 0.0 
-9.870557535994e-04 -3.854326390959e-05 0.0 
0.0 0.0 -5.316788149495e-04 
-4.227815079073e-04 -2.784371059583e-03 0.0 
-2.784371059583e-03 2.659310912429e-03 0.0 
0.0 0.0 -9.585126019377e-04 
-1.599277265462e-03 2.517332469059e-03 0.0 
2.517332469059e-03 6.812542085539e-03 0.0 
0.0 0.0 -1.134236807130e-03 
2.838543821024e-03 -9.388703813827e-04 0.0 
-9.388703813827e-04 -1.339013732820e-03 0.0 
0.0 0.0 -6.426557520871e-04 
4.165970448057e-04 3.486050932692e-03 0.0 
3.486050932692e-03 1.558675942698e-03 0.0 
0.0 0.0 -8.465455660731e-04 
-9.570428297717e-04 3.028568391790e-03 0.0 
3.028568391790e-03 3.758744006407e-03 0.0 
0.0 0.0 -9.331417602438e-04 
4.382192218767e-04 3.304842555304e-03 0.0 
3.304842555304e-03 1.417845423766e-03 0.0 
0.0 0.0 -7.954562767039e-04 
-1.443236035943e-03 3.221098478814e-03 0.0 
3.221098478814e-03 7.736365815094e-03 0.0 
0.0 0.0 -1.320088186226e-03 
-1.483693740833e-03 2.932428243371e-03 0.0 
2.932428243371e-03 8.049345893719e-03 0.0 
0.0 0.0 -1.318462653075e-03 
-1.548932721531e-03 2.525807133433e-03 0.0 
2.525807133433e-03 7.540510939249e-03 0.0 
0.0 0.0 -1.256494544188e-03 
5.199835747165e-04 -2.886590158864e-03 0.0 
-2.886590158864e-03 1.061442334883e-03 0.0 
0.0 0.0 -6.777539612569e-04 
-1.663138327388e-03 1.991577787862e-03 0.0 
1.991577787862e-03 7.067165816428e-03 0.0 
0.0 0.0 -1.112065035246e-03 
8.530770766536e-04 2.505748462956e-03 0.0 
2.505748462956e-03 4.288710739428e-04 0.0 
0.0 0.0 -5.494063502556e-04 
2.976026969438e-03 1.471613804293e-03 0.0 
1.471613804293e-03 -1.145802400427e-03 0.0 
0.0 0.0 -7.843819581477e-04 
2.176227096681e-03 9.823823306462e-04 0.0 
9.823823306462e-04 -1.042597419615e-03 0.0 
0.0 0.0 -4.858412901716e-04 
-2.813268701102e-04 2.910442502919e-03 0.0 
2.910442502919e-03 2.419195128745e-03 0.0 
0.0 0.0 -9.162292537005e-04 
-1.720195429854e-03 7.985877951349e-04 0.0 
7.985877951349e-04 5.205169340213e-03 0.0 
0.0 0.0 -7.914980036671e-04 
-1.719905413863e-03 1.237364143320e-03 0.0 
1.237364143320e-03 6.165155044144e-03 0.0 
0.0 0.0 -9.214502702889e-04 
-6.210179595173e-04 -4.728660276610e-04 0.0 
-4.728660276610e-04 4.588006840987e-03 0.0 
0.0 0.0 -1.265403586923e-03 
-1.395878555712e-03 3.050861695832e-03 0.0 
3.050861695832e-03 5.954496201824e-03 0.0 
0.0 0.0 -1.117224974728e-03 
-1.665465805844e-03 2.334336493253e-03 0.0 
2.334336493253e-03 5.128095132681e-03 0.0 
0.0 0.0 -8.687609488834e-04 
-1.346991783092e-03 3.039323733030e-03 0.0 
3.039323733030e-03 4.548648496958e-03 0.0 
0.0 0.0 -9.141259787764e-04 
2.498396854009e-03 1.198516088911e-03 0.0 
1.198516088911e-03 -1.399925765526e-03 0.0 
0.0 0.0 -4.707733236356e-04 
1.968831457284e-04 -1.841720632066e-03 0.0 
-1.841720632066e-03 8.576900148433e-04 0.0 
0.0 0.0 -4.519599259593e-04 
1.596184388708e-03 2.912527136814e-03 0.0 
2.912527136814e-03 -2.859190939001e-04 0.0 
0.0 0.0 -5.615422692032e-04 
3.342051080177e-04 3.634224831363e-03 0.0 
3.634224831363e-03 1.769838707620e-03 0.0 
0.0 0.0 -9.017330638447e-04 
1.350991084574e-03 3.130179827696e-03 0.0 
3.130179827696e-03 2.729672728851e-04 0.0 
0.0 0.0 -6.959821531966e-04 
5.181840272175e-04 1.740426048580e-03 0.0 
1.740426048580e-03 4.204450595975e-04 0.0 
0.0 0.0 -4.022696086350e-04 
-1.537623298193e-03 1.946789295788e-04 0.0 
1.946789295788e-04 5.729068901156e-03 0.0 
0.0 0.0 -8.462285223656e-04 
1.561759615532e-04 -2.189651726713e-03 0.0 
-2.189651726713e-03 1.146850025796e-03 0.0 
0.0 0.0 -5.584397088639e-04 
1.820241129970e-03 2.972056139581e-03 0.0 
2.972056139581e-03 -3.351854464419e-04 0.0 
0.0 0.0 -6.364524357979e-04 
-1.341153861134e-03 -4.057244270456e-04 0.0 
-4.057244270456e-04 4.982459086358e-03 0.0 
0.0 0.0 -1.341153861134e-03 
9.256271036625e-04 1.500053370618e-03 0.0 
1.500053370618e-03 1.273019829082e-03 0.0 
0.0 0.0 -9.422772568906e-04 
-1.647307264160e-03 1.862922357847e-03 0.0 
1.862922357847e-03 4.824359254377e-03 0.0 
0.0 0.0 -8.054468608743e-04 
2.951539872400e-04 -9.116816188897e-05 0.0 
-9.116816188897e-05 1.187821972232e-03 0.0 
0.0 0.0 -3.103042898065e-04 
7.971140923122e-05 3.343947047482e-03 0.0 
3.343947047482e-03 1.995422628245e-03 0.0 
0.0 0.0 -8.893431589182e-04 
1.873943254827e-03 2.954249127679e-03 0.0 
2.954249127679e-03 -3.006422023954e-04 0.0 
0.0 0.0 -6.742718796133e-04 
-1.609808059559e-03 2.466698786463e-03 0.0 
2.466698786463e-03 5.115271177997e-03 0.0 
0.0 0.0 -8.940630110299e-04 
-1.355176868643e-03 3.602829940139e-03 0.0 
3.602829940139e-03 7.115897601981e-03 0.0 
0.0 0.0 -1.323832587333e-03 
-1.204260933556e-03 2.429327504665e-03 0.0 
2.429327504665e-03 4.034179858945e-03 0.0 
0.0 0.0 -8.669777983973e-04 
-1.147063666963e-03 3.130382852526e-03 0.0 
3.130382852526e-03 4.139734973133e-03 0.0 
0.0 0.0 -8.917420716958e-04 
-4.014841504774e-04 -2.920877032072e-03 0.0 
-2.920877032072e-03 2.692647303736e-03 0.0 
0.0 0.0 -9.819270656821e-04 
-1.644216929044e-03 2.295172595936e-03 0.0 
2.295172595936e-03 6.800207970354e-03 0.0 
0.0 0.0 -1.105258581891e-03 
2.154052283226e-04 -3.118779152528e-03 0.0 
-3.118779152528e-03 1.628210503259e-03 0.0 
0.0 0.0 -7.901210278209e-04 
-1.316497550801e-03 3.592083674646e-03 0.0 
3.592083674646e-03 6.907418394644e-03 0.0 
0.0 0.0 -1.322174839672e-03 
-1.340103718614e-03 3.152086803121e-03 0.0 
3.152086803121e-03 7.377926064128e-03 0.0 
0.0 0.0 -1.340103718614e-03 
-1.341028575724e-03 2.465513317577e-03 0.0 
2.465513317577e-03 8.006817596930e-03 0.0 
0.0 0.0 -1.341028575724e-03 
-1.338044909071e-03 2.820900205836e-03 0.0 
2.820900205836e-03 7.687427743330e-03 0.0 
0.0 0.0 -1.338044909071e-03 
-1.502118998928e-03 2.871852761975e-03 0.0 
2.871852761975e-03 4.986656915824e-03 0.0 
0.0 0.0 -9.244680137507e-04 
-1.717961893973e-03 2.025609505479e-03 0.0 
2.025609505479e-03 6.849693926195e-03 0.0 
0.0 0.0 -1.103002250422e-03 
-1.441498127645e-03 2.997575274703e-03 0.0 
2.997575274703e-03 6.385826432379e-03 0.0 
0.0 0.0 -1.155914796392e-03 
3.567381933021e-04 2.998203481649e-03 0.0 
2.998203481649e-03 1.342739046541e-03 0.0 
0.0 0.0 -7.283473885043e-04 
1.335922643098e-04 2.946545576970e-03 0.0 
2.946545576970e-03 1.651048719616e-03 0.0 
0.0 0.0 -7.648461359682e-04 
-5.579616973433e-04 -2.537817501247e-03 0.0 
-2.537817501247e-03 2.842838828880e-03 0.0 
0.0 0.0 -9.792330563728e-04 
-1.668326353393e-03 2.237680070997e-03 0.0 
2.237680070997e-03 6.867008378533e-03 0.0 
0.0 0.0 -1.131852245309e-03 
-1.231232325275e-03 3.483829197783e-03 0.0 
3.483829197783e-03 6.428087696954e-03 0.0 
0.0 0.0 -1.322440284024e-03 
-1.629405615007e-03 2.216510426988e-03 0.0 
2.216510426988e-03 7.107180567101e-03 0.0 
0.0 0.0 -1.141180801552e-03 
1.287843860462e-03 1.762496620991e-03 0.0 
1.762496620991e-03 4.118181214961e-04 0.0 
0.0 0.0 -7.284265636965e-04 
-1.709232452093e-03 1.946096254963e-03 0.0 
1.946096254963e-03 7.158440520652e-03 0.0 
0.0 0.0 -1.138864741757e-03 
-2.474149681312e-04 3.241320627208e-03 0.0 
3.241320627208e-03 3.249866169459e-03 0.0 
0.0 0.0 -9.903545940741e-04 
5.390850837396e-04 3.135204886366e-03 0.0 
3.135204886366e-03 1.184502769340e-03 0.0 
0.0 0.0 -7.386805084625e-04 
-2.903565977667e-04 2.791530756056e-03 0.0 
2.791530756056e-03 2.364850385229e-03 0.0 
0.0 0.0 -8.890687660554e-04 
1.802555558832e-03 3.001147534895e-03 0.0 
3.001147534895e-03 -4.575658841899e-04 0.0 
0.0 0.0 -5.764241462752e-04 
-1.445725615323e-03 1.812858751269e-03 0.0 
1.812858751269e-03 8.104070872614e-03 0.0 
0.0 0.0 -1.282213402295e-03 
5.637528850199e-04 2.798374850836e-03 0.0 
2.798374850836e-03 9.579403324455e-04 0.0 
0.0 0.0 -6.521542360566e-04 
-9.878773185600e-04 3.005495027809e-03 0.0 
3.005495027809e-03 5.183572772416e-03 0.0 
0.0 0.0 -1.230767059693e-03 
-5.402829230253e-04 -2.645980312191e-03 0.0 
-2.645980312191e-03 2.860421160958e-03 0.0 
0.0 0.0 -9.943449591140e-04 
1.769669881029e-03 -3.137855469582e-03 0.0 
-3.137855469582e-03 -3.291852005029e-04 0.0 
0.0 0.0 -6.173505773685e-04 
-9.286667060019e-04 -5.578005299265e-04 0.0 
-5.578005299265e-04 4.405534968834e-03 0.0 
0.0 0.0 -1.284312900220e-03 
1.520178245233e-03 2.880262458528e-03 0.0 
2.880262458528e-03 -9.597643010145e-05 0.0 
0.0 0.0 -6.103722064851e-04 
-1.341987455608e-03 3.278682198062e-03 0.0 
3.278682198062e-03 7.180670491988e-03 0.0 
0.0 0.0 -1.341987455608e-03 
-1.479381738464e-03 2.518547494800e-03 0.0 
2.518547494800e-03 7.585721855360e-03 0.0 
0.0 0.0 -1.282654109251e-03 
-6.562251040144e-04 3.476488520305e-03 0.0 
3.476488520305e-03 3.368345711390e-03 0.0 
0.0 0.0 -9.747411499392e-04 
2.825665296399e-05 -9.471346053823e-04 0.0 
-9.471346053823e-04 5.562669983103e-04 0.0 
0.0 0.0 -2.505101362604e-04 
-1.340954708392e-03 3.409829937737e-03 0.0 
3.409829937737e-03 6.752010148723e-03 0.0 
0.0 0.0 -1.340954708391e-03 
-8.893530910468e-04 2.080039302171e-04 0.0 
2.080039302171e-04 4.249386795326e-03 0.0 
0.0 0.0 -1.284661450484e-03 
2.094151919582e-03 -2.710389235349e-03 0.0 
-2.710389235349e-03 -4.177516275291e-04 0.0 
0.0 0.0 -7.184572680229e-04 
1.187697048236e-03 1.044937454993e-03 0.0 
1.044937454993e-03 6.336881744863e-04 0.0 
0.0 0.0 -7.805936668811e-04 
-1.022563228378e-03 2.126685754851e-03 0.0 
2.126685754851e-03 5.450229037892e-03 0.0 
0.0 0.0 -1.323014926434e-03 
0.0 0.0 0.0 
0.0 0.0 0.0 
0.0 0.0 0.0 
5.629949439262e-04 2.943398902906e-03 0.0 
2.943398902906e-03 1.042834511407e-03 0.0 
0.0 0.0 -6.882126237144e-04 
-9.611236283513e-04 3.382262119005e-03 0.0 
3.382262119005e-03 3.900518768528e-03 0.0 
0.0 0.0 -9.507003520820e-04 
-3.264045535916e-04 3.528503760233e-03 0.0 
3.528503760233e-03 2.824189618732e-03 0.0 
0.0 0.0 -1.009382277479e-03 
-8.072349097140e-04 3.285348527428e-03 0.0 
3.285348527428e-03 3.572080463846e-03 0.0 
0.0 0.0 -9.583016177293e-04 
1.577973122007e-03 2.940745778594e-03 0.0 
2.940745778594e-03 -1.562631387263e-04 0.0 
0.0 0.0 -6.093042785491e-04 
-1.341360672448e-03 3.349227255108e-03 0.0 
3.349227255108e-03 6.276206882279e-03 0.0 
0.0 0.0 -1.341360672448e-03 
2.936452016240e-03 1.405586798284e-03 0.0 
1.405586798284e-03 -1.170886952934e-03 0.0 
0.0 0.0 -7.566707414170e-04 
6.010236317608e-04 7.677500863631e-05 0.0 
7.677500863631e-05 -6.010236317608e-04 0.0 
0.0 0.0 0.0 
-1.410674428243e-03 -1.887614969753e-03 0.0 
-1.887614969753e-03 6.271959657533e-03 0.0 
0.0 0.0 -1.272354826527e-03 
6.614899321087e-05 -1.031236819356e-03 0.0 
-1.031236819356e-03 5.476349804252e-04 0.0 
0.0 0.0 -2.630502744155e-04 
-7.579795143834e-04 2.669538043242e-03 0.0 
2.669538043242e-03 3.232540244350e-03 0.0 
0.0 0.0 -9.235262116470e-04 
1.408180871100e-03 -2.447837261249e-03 0.0 
-2.447837261249e-03 -4.054811993359e-04 0.0 
0.0 0.0 -4.297284307560e-04 
-1.289231145457e-03 2.085970842819e-03 0.0 
2.085970842819e-03 4.096251684655e-03 0.0 
0.0 0.0 -8.281323822960e-04 
-9.265632325981e-04 2.208084020548e-04 0.0 
2.208084020548e-04 5.136068338207e-03 0.0 
0.0 0.0 -1.321823097425e-03 
-1.341255375116e-03 3.077672806554e-03 0.0 
3.077672806554e-03 5.842647393183e-03 0.0 
0.0 0.0 -1.341255375116e-03 
-1.444220396543e-03 2.772557237900e-03 0.0 
2.772557237900e-03 4.661509496866e-03 0.0 
0.0 0.0 -8.916520742786e-04 
1.049542071535e-03 -2.597397009894e-03 0.0 
-2.597397009894e-03 2.940040078369e-04 0.0 
0.0 0.0 -5.758054625880e-04 
3.025347595527e-04 1.047283111649e-04 0.0 
1.047283111649e-04 -3.025347595527e-04 0.0 
0.0 0.0 0.0 
1.083086267670e-03 -3.284229385575e-03 0.0 
-3.284229385575e-03 2.814197768567e-04 0.0 
0.0 0.0 -5.847883047970e-04 
-1.038610003698e-03 -2.337728934242e-03 0.0 
-2.337728934242e-03 4.541183857773e-03 0.0 
0.0 0.0 -1.121833217354e-03 
-1.742165347554e-03 9.878882661806e-04 0.0 
9.878882661806e-04 5.401825771171e-03 0.0 
0.0 0.0 -7.704300227928e-04 
-1.803256776378e-03 1.584392787159e-03 0.0 
1.584392787159e-03 5.170803389825e-03 0.0 
0.0 0.0 -8.109332722942e-04 
-1.342502730507e-03 2.572106331239e-03 0.0 
2.572106331239e-03 5.434857979280e-03 0.0 
0.0 0.0 -1.342502730507e-03 
-1.732554351108e-03 7.529304742537e-04 0.0 
7.529304742537e-04 5.461566678014e-03 0.0 
0.0 0.0 -7.720444664677e-04 
-1.484252812585e-03 2.496905312066e-03 0.0 
2.496905312066e-03 8.327686936920e-03 0.0 
0.0 0.0 -1.322852565091e-03 
-2.616390310425e-04 3.420254192840e-03 0.0 
3.420254192840e-03 3.046539849901e-03 0.0 
0.0 0.0 -1.020998643257e-03 
-1.702171015059e-03 1.025221701453e-03 0.0 
1.025221701453e-03 6.037527275999e-03 0.0 
0.0 0.0 -8.907448815977e-04 
4.435059004645e-04 2.367634267758e-03 0.0 
2.367634267758e-03 8.500300084059e-04 0.0 
0.0 0.0 -5.543725323730e-04 
9.902971440261e-04 1.854120232773e-03 0.0 
1.854120232773e-03 5.282487487715e-04 0.0 
0.0 0.0 -6.508053826275e-04 
2.181030243503e-03 2.087940198003e-03 0.0 
2.087940198003e-03 -6.964523607222e-04 0.0 
0.0 0.0 -6.362476640488e-04 
-1.340754991027e-03 1.822804665951e-03 0.0 
1.822804665951e-03 5.126572871134e-03 0.0 
0.0 0.0 -1.340754991027e-03 
-1.339984467612e-03 3.017885242806e-03 0.0 
3.017885242806e-03 7.530573259310e-03 0.0 
0.0 0.0 -1.339984467612e-03 
-1.340417744004e-03 2.627800699396e-03 0.0 
2.627800699396e-03 7.874468285687e-03 0.0 
0.0 0.0 -1.340417744004e-03 
1.663950741528e-04 -3.102222571978e-03 0.0 
-3.102222571978e-03 1.696065106834e-03 0.0 
0.0 0.0 -7.981972204228e-04 
-6.783966376360e-04 -2.229795002151e-03 0.0 
-2.229795002151e-03 2.989937542639e-03 0.0 
0.0 0.0 -9.906603878584e-04 
6.633751209167e-04 3.479464549828e-03 0.0 
3.479464549828e-03 1.235326207863e-03 0.0 
0.0 0.0 -8.137291409057e-04 
-1.800452847873e-04 -3.089059520932e-03 0.0 
-3.089059520932e-03 2.334973482046e-03 0.0 
0.0 0.0 -8.981573260837e-04 
-1.339627896631e-03 1.005258068188e-03 0.0 
1.005258068188e-03 4.944567484942e-03 0.0 
0.0 0.0 -1.339627896631e-03 
2.106481318219e-03 2.804312139354e-03 0.0 
2.804312139354e-03 -3.247815718152e-04 0.0 
0.0 0.0 -7.635856056017e-04 
2.753925008266e-03 -1.471183718442e-03 0.0 
-1.471183718442e-03 -1.118113294929e-03 0.0 
0.0 0.0 -7.010621628588e-04 
2.411027346534e-03 -2.022185411865e-03 0.0 
-2.022185411865e-03 -8.248269265831e-04 0.0 
0.0 0.0 -6.798001799788e-04 
-1.695040583491e-03 9.943495357559e-04 0.0 
9.943495357559e-04 6.306677945551e-03 0.0 
0.0 0.0 -9.279583942086e-04 
-1.067283559268e-03 -1.131551148477e-03 0.0 
-1.131551148477e-03 5.382018527302e-03 0.0 
0.0 0.0 -1.323537156312e-03 
4.718253126561e-04 -2.654545060497e-03 0.0 
-2.654545060497e-03 7.297491663584e-04 0.0 
0.0 0.0 -5.149604910062e-04 
-1.340775759057e-03 3.168705887179e-05 0.0 
3.168705887179e-05 4.893000414627e-03 0.0 
0.0 0.0 -1.340775759057e-03 
2.068072739009e-03 -2.533209175997e-03 0.0 
-2.533209175997e-03 -4.905385770438e-04 0.0 
0.0 0.0 -6.760860694135e-04 
-1.342877878941e-03 3.371101462632e-03 0.0 
3.371101462632e-03 6.986301559429e-03 0.0 
0.0 0.0 -1.342877878941e-03 
-1.502505102679e-03 2.723409331035e-03 0.0 
2.723409331035e-03 6.453774250835e-03 0.0 
0.0 0.0 -1.152765850879e-03 
4.995410750134e-04 -2.508167894462e-04 0.0 
-2.508167894462e-04 1.439641133543e-04 0.0 
0.0 0.0 -1.045622396246e-04 
7.611624550475e-04 2.811491361200e-03 0.0 
2.811491361200e-03 7.486160262995e-04 0.0 
0.0 0.0 -6.470479205773e-04 
-1.718973478826e-03 1.632227495642e-03 0.0 
1.632227495642e-03 7.402026443868e-03 0.0 
0.0 0.0 -1.146019594970e-03 
-1.341220131281e-03 3.403196875767e-03 0.0 
3.403196875767e-03 6.531514611794e-03 0.0 
0.0 0.0 -1.341220131281e-03 
-1.493257815958e-03 2.709508550359e-03 0.0 
2.709508550359e-03 5.031766487179e-03 0.0 
0.0 0.0 -9.220067723808e-04 
-1.371432860580e-04 3.167005571068e-03 0.0 
3.167005571068e-03 2.958438968348e-03 0.0 
0.0 0.0 -1.049000704964e-03 
1.363417131051e-03 2.771598718083e-03 0.0 
2.771598718083e-03 -2.175926074803e-04 0.0 
0.0 0.0 -4.910676529589e-04 
-4.822149847462e-04 -8.933705669700e-06 0.0 
-8.933705669700e-06 3.680115228026e-03 0.0 
0.0 0.0 -1.228682347183e-03 
1.589016691459e-03 -2.728398742501e-03 0.0 
-2.728398742501e-03 -1.477483424757e-04 0.0 
0.0 0.0 -6.176864352786e-04 
2.014961445712e-03 -2.490489286961e-03 0.0 
-2.490489286961e-03 -7.248651286365e-04 0.0 
0.0 0.0 -5.528984216039e-04 
6.740675851827e-05 -1.946268609011e-03 0.0 
-1.946268609011e-03 5.144006658537e-04 0.0 
0.0 0.0 -2.493460390166e-04 
-1.341079611575e-03 3.240452696934e-03 0.0 
3.240452696934e-03 6.054614633037e-03 0.0 
0.0 0.0 -1.341079611575e-03 
2.419438568119e-03 1.848358171578e-03 0.0 
1.848358171578e-03 -8.324259170898e-04 0.0 
0.0 0.0 -6.801482790127e-04 
-1.052268534162e-04 -1.626163501332e-03 0.0 
-1.626163501332e-03 3.065488155398e-03 0.0 
0.0 0.0 -1.110501492391e-03 
-1.743720672030e-03 5.076947702062e-04 0.0 
5.076947702062e-04 5.915487175230e-03 0.0 
0.0 0.0 -8.555322119248e-04 
6.419311454372e-04 -2.457777299007e-03 0.0 
-2.457777299007e-03 6.816602911272e-04 0.0 
0.0 0.0 -5.672534728133e-04 
2.432948694747e-03 -2.224719869907e-03 0.0 
-2.224719869907e-03 -1.006521097821e-03 0.0 
0.0 0.0 -6.113261129685e-04 
-1.391571865871e-03 2.947954310513e-03 0.0 
2.947954310513e-03 4.611783904251e-03 0.0 
0.0 0.0 -8.867075537039e-04 
-1.342259935407e-03 2.196586378398e-03 0.0 
2.196586378398e-03 5.267748778168e-03 0.0 
0.0 0.0 -1.342259935407e-03 
-8.685003091139e-04 -2.019621362732e-03 0.0 
-2.019621362732e-03 3.358195832711e-03 0.0 
0.0 0.0 -1.026543027222e-03 
-6.279763244927e-05 -2.831980191268e-03 0.0 
-2.831980191268e-03 2.234263021353e-03 0.0 
0.0 0.0 -9.306280238158e-04 
1.626113199364e-04 3.532469173109e-03 0.0 
3.532469173109e-03 1.975304410449e-03 0.0 
0.0 0.0 -9.162495987365e-04 
9.545056478258e-04 -2.197984859117e-03 0.0 
-2.197984859117e-03 2.830222850847e-04 0.0 
0.0 0.0 -5.303691141045e-04 
2.741947853495e-03 -1.576053757195e-03 0.0 
-1.576053757195e-03 -1.238751484203e-03 0.0 
0.0 0.0 -6.442270154112e-04 
2.055993336022e-04 -3.019147266732e-03 0.0 
-3.019147266732e-03 1.580796400243e-03 0.0 
0.0 0.0 -7.655981716482e-04 
-1.735594457478e-05 3.684409886977e-03 0.0 
3.684409886977e-03 2.338058889169e-03 0.0 
0.0 0.0 -9.525257740877e-04 
-6.815819430518e-04 3.271309776104e-03 0.0 
3.271309776104e-03 3.991806398053e-03 0.0 
0.0 0.0 -9.982497011217e-04 
7.359468455794e-04 1.655488137203e-03 0.0 
1.655488137203e-03 1.311171725172e-03 0.0 
0.0 0.0 -8.773365303219e-04 
4.616179257589e-04 3.326983553877e-03 0.0 
3.326983553877e-03 1.399682897410e-03 0.0 
0.0 0.0 -7.977003527865e-04 
-1.068767707281e-04 -3.106568222755e-03 0.0 
-3.106568222755e-03 2.185893574205e-03 0.0 
0.0 0.0 -8.910072014901e-04 
1.770168940932e-03 2.939268167283e-03 0.0 
2.939268167283e-03 -7.940642901587e-05 0.0 
0.0 0.0 -7.246125051071e-04 
-6.590777518814e-04 -2.312052235482e-03 0.0 
-2.312052235482e-03 2.981136073477e-03 0.0 
0.0 0.0 -9.951678521122e-04 
-9.129757635956e-05 3.002240536259e-03 0.0 
3.002240536259e-03 3.121089298537e-03 0.0 
0.0 0.0 -1.018204129641e-03 
1.890566440799e-03 1.226789186906e-03 0.0 
1.226789186906e-03 -8.288946358717e-04 0.0 
0.0 0.0 -4.550022021117e-04 
-9.478871216341e-04 -2.661712448175e-04 0.0 
-2.661712448175e-04 5.203816778040e-03 0.0 
0.0 0.0 -1.321929620191e-03 
-1.684709762555e-03 1.865268109453e-03 0.0 
1.865268109453e-03 7.458111656375e-03 0.0 
0.0 0.0 -1.174325249119e-03 
4.942655387039e-04 -2.660349188538e-03 0.0 
-2.660349188538e-03 9.600175774831e-04 0.0 
0.0 0.0 -6.232641926516e-04 
-1.341047338368e-03 5.012584263435e-04 0.0 
5.012584263435e-04 4.843287135669e-03 0.0 
0.0 0.0 -1.341047338368e-03 
-5.199572059754e-04 -1.240456273397e-05 0.0 
-1.240456273397e-05 4.514719369705e-03 0.0 
0.0 0.0 -1.266414110344e-03 
1.456677627038e-03 2.847158529750e-03 0.0 
2.847158529750e-03 -1.224358696167e-04 0.0 
0.0 0.0 -5.718178960378e-04 
3.073160228107e-04 -2.142796274570e-03 0.0 
-2.142796274570e-03 8.896681783000e-04 0.0 
0.0 0.0 -5.129932290474e-04 
-1.050487114865e-03 -1.427509562772e-03 0.0 
-1.427509562772e-03 5.540080609798e-03 0.0 
0.0 0.0 -1.323469717371e-03 
-1.667087300368e-03 2.181750680949e-03 0.0 
2.181750680949e-03 7.186411773731e-03 0.0 
0.0 0.0 -1.167157861819e-03 
1.716323073858e-03 -2.955825605783e-03 0.0 
-2.955825605783e-03 -9.287262183540e-05 0.0 
0.0 0.0 -6.957644794382e-04 
-1.341709311524e-03 -8.333733019742e-04 0.0 
-8.333733019742e-04 5.041051645130e-03 0.0 
0.0 0.0 -1.341709311524e-03 
-1.554347035982e-04 -3.091276428888e-03 0.0 
-3.091276428888e-03 2.271745765848e-03 0.0 
0.0 0.0 -9.069904552498e-04 
-8.856300375338e-05 3.015707065978e-03 0.0 
3.015707065978e-03 2.092630915718e-03 0.0 
0.0 0.0 -8.588862479847e-04 
-1.708652242928e-03 2.038029542744e-03 0.0 
2.038029542744e-03 5.155213329433e-03 0.0 
0.0 0.0 -8.408860858065e-04 
2.150251675539e-03 1.246957804337e-03 0.0 
1.246957804337e-03 -9.518176328647e-04 0.0 
0.0 0.0 -5.136145897175e-04 
4.280369650893e-04 -2.993089053083e-03 0.0 
-2.993089053083e-03 1.242185283195e-03 0.0 
0.0 0.0 -7.158095349792e-04 
1.005063584136e-03 -1.534038141676e-03 0.0 
-1.534038141676e-03 4.706218155617e-04 0.0 
0.0 0.0 -6.324365998706e-04 
-1.787330646013e-03 1.744437882435e-03 0.0 
1.744437882435e-03 6.165539261386e-03 0.0 
0.0 0.0 -9.721028620036e-04 
-5.830614128886e-04 2.963568587990e-03 0.0 
2.963568587990e-03 3.036456168777e-03 0.0 
0.0 0.0 -9.703272795031e-04 
5.013338592635e-04 2.022867758426e-03 0.0 
2.022867758426e-03 1.903789761340e-03 0.0 
0.0 0.0 -1.030767265973e-03 
-1.583428582628e-03 1.234393199571e-04 0.0 
1.234393199571e-04 6.348909220080e-03 0.0 
0.0 0.0 -8.839498032872e-04 
-1.538973880155e-04 -2.905891545860e-03 0.0 
-2.905891545860e-03 2.151085361499e-03 0.0 
0.0 0.0 -8.559377029216e-04 
9.606550472545e-04 1.198365472328e-03 0.0 
1.198365472328e-03 7.584169667693e-04 0.0 
0.0 0.0 -7.367451488674e-04 
1.240241290569e-03 -2.615402293113e-03 0.0 
-2.615402293113e-03 9.801779930622e-06 0.0 
0.0 0.0 -5.357327444998e-04 
-1.264139912559e-03 -2.295922563033e-03 0.0 
-2.295922563033e-03 4.258611210865e-03 0.0 
0.0 0.0 -1.003470032316e-03 
4.779492527782e-04 -1.976862769587e-04 0.0 
-1.976862769587e-04 3.079286874380e-05 0.0 
0.0 0.0 -9.731995102935e-05 
1.375001823881e-03 3.007557583602e-03 0.0 
3.007557583602e-03 2.077996425490e-04 0.0 
0.0 0.0 -6.783434856127e-04 
1.686675147585e-03 -2.826451651131e-03 0.0 
-2.826451651131e-03 -3.979102607463e-04 0.0 
0.0 0.0 -5.523278086452e-04 
-6.775751599431e-04 -2.656016194715e-03 0.0 
-2.656016194715e-03 3.173617743200e-03 0.0 
0.0 0.0 -1.041231529553e-03 
9.547448531119e-04 2.912205143476e-03 0.0 
2.912205143476e-03 5.651456179381e-04 0.0 
0.0 0.0 -6.513816304500e-04 
3.545197186364e-05 -2.683422917804e-03 0.0 
-2.683422917804e-03 2.222563700784e-03 0.0 
0.0 0.0 -9.350600278798e-04 
-1.737561363205e-03 5.251994903431e-04 0.0 
5.251994903431e-04 6.205644374021e-03 0.0 
0.0 0.0 -8.962969588583e-04 
1.356254452431e-03 -2.984093401581e-03 0.0 
-2.984093401581e-03 -2.215529665072e-05 0.0 
0.0 0.0 -5.717567810488e-04 
-1.341827844788e-03 -1.146584425421e-03 0.0 
-1.146584425421e-03 5.213236186647e-03 0.0 
0.0 0.0 -1.341827844788e-03 
-1.032358392854e-03 3.358744228303e-03 0.0 
3.358744228303e-03 3.981695232776e-03 0.0 
0.0 0.0 -8.921909746423e-04 
-9.403772787457e-04 -2.333509821859e-03 0.0 
-2.333509821859e-03 3.602948163807e-03 0.0 
0.0 0.0 -1.032584340947e-03 
-7.230784000767e-04 3.517969959091e-03 0.0 
3.517969959091e-03 3.446928309249e-03 0.0 
0.0 0.0 -9.025917034692e-04 
-6.743760556383e-04 -2.567033021564e-03 0.0 
-2.567033021564e-03 3.158224002336e-03 0.0 
0.0 0.0 -1.064506262870e-03 
0.0 0.0 0.0 
0.0 0.0 0.0 
0.0 0.0 0.0 
-1.792312889487e-03 1.741412585942e-03 0.0 
1.741412585942e-03 5.511837739733e-03 0.0 
0.0 0.0 -8.733545218784e-04 
-1.159018419121e-03 -6.757248724201e-04 0.0 
-6.757248724201e-04 3.679422689167e-03 0.0 
0.0 0.0 -9.437415894182e-04 
1.526598219851e-03 -2.022984547481e-04 0.0 
-2.022984547481e-04 -5.806947110268e-04 0.0 
0.0 0.0 -1.518789559795e-04 
-1.008983259281e-03 -2.022851433489e-03 0.0 
-2.022851433489e-03 3.664714944016e-03 0.0 
0.0 0.0 -1.031099917346e-03 
-1.552203916554e-04 -2.266492036209e-03 0.0 
-2.266492036209e-03 2.794636645768e-03 0.0 
0.0 0.0 -1.001254648526e-03 
-1.559997350991e-03 7.763984245468e-04 0.0 
7.763984245468e-04 7.736769108545e-03 0.0 
0.0 0.0 -1.146946825052e-03 
1.304436411006e-03 -1.537118457164e-03 0.0 
-1.537118457164e-03 -1.929375046108e-04 0.0 
0.0 0.0 -4.763566741695e-04 
1.141009119650e-03 -1.409930863555e-03 0.0 
-1.409930863555e-03 1.287642799873e-04 0.0 
0.0 0.0 -5.441885998444e-04 
-1.689284059370e-03 1.450746420627e-03 0.0 
1.450746420627e-03 4.831311448006e-03 0.0 
0.0 0.0 -7.833574767318e-04 
-1.686952509024e-03 5.790488882109e-04 0.0 
5.790488882109e-04 4.855993105087e-03 0.0 
0.0 0.0 -7.312625299844e-04 
-1.435530838734e-03 2.039856500826e-03 0.0 
2.039856500826e-03 7.934174766789e-03 0.0 
0.0 0.0 -1.286111585339e-03 
-3.846383815358e-04 3.631348853507e-03 0.0 
3.631348853507e-03 2.894402056622e-03 0.0 
0.0 0.0 -9.211198782815e-04 
2.563042352686e-03 -3.462434059620e-04 0.0 
-3.462434059620e-04 -8.334153675030e-04 0.0 
0.0 0.0 -9.050770260813e-05 
-2.801224181589e-06 -1.851492159178e-03 0.0 
-1.851492159178e-03 1.218501688618e-03 0.0 
0.0 0.0 -5.210144847585e-04 
8.331805258011e-05 -1.317049816552e-03 0.0 
-1.317049816552e-03 7.003703442878e-04 0.0 
0.0 0.0 -3.358664558005e-04 
1.821034446314e-04 -2.408967732496e-03 0.0 
-2.408967732496e-03 1.233113086777e-03 0.0 
0.0 0.0 -6.065213706036e-04 
-1.138435434649e-03 2.989604430891e-03 0.0 
2.989604430891e-03 5.462421315605e-03 0.0 
0.0 0.0 -1.134523071099e-03 
-1.613429135808e-03 4.247551468927e-04 0.0 
4.247551468927e-04 7.790174225159e-03 0.0 
0.0 0.0 -1.144649651339e-03 
-1.027154245499e-03 -2.035960934847e-03 0.0 
-2.035960934847e-03 4.492443968240e-03 0.0 
0.0 0.0 -1.087427768671e-03 
-2.215897922679e-04 -2.343741531637e-03 0.0 
-2.343741531637e-03 1.937473062545e-03 0.0 
0.0 0.0 -7.353785444044e-04 
-1.224434476437e-03 -2.373415610936e-03 0.0 
-2.373415610936e-03 4.259607832395e-03 0.0 
0.0 0.0 -1.074887456883e-03 
-2.765309671832e-04 -1.235730925308e-03 0.0 
-1.235730925308e-03 3.492398506195e-03 0.0 
0.0 0.0 -1.142106164841e-03 
1.609002123108e-03 9.641353836346e-05 0.0 
9.641353836346e-05 -1.014383706755e-03 0.0 
0.0 0.0 -2.548364641514e-04 
-1.185520630974e-03 -6.216129085547e-04 0.0 
-6.216129085547e-04 3.715832065426e-03 0.0 
0.0 0.0 -9.234434510542e-04 
-9.870309350746e-04 -2.949408640791e-04 0.0 
-2.949408640791e-04 3.127712701104e-03 0.0 
0.0 0.0 -8.176025220169e-04 
-1.158159835052e-03 -1.705545964426e-03 0.0 
-1.705545964426e-03 5.701758529228e-03 0.0 
0.0 0.0 -1.322396863610e-03 
-1.341641872583e-03 -1.478861783549e-03 0.0 
-1.478861783549e-03 5.355371918508e-03 0.0 
0.0 0.0 -1.341641872583e-03 
-1.283076775259e-03 -6.373143896461e-04 0.0 
-6.373143896461e-04 4.006265140635e-03 0.0 
0.0 0.0 -9.869148323457e-04 
-9.252167440016e-04 -2.284187084932e-03 0.0 
-2.284187084932e-03 3.604049524323e-03 0.0 
0.0 0.0 -1.082955583678e-03 
1.424947381447e-04 -3.218131506232e-03 0.0 
-3.218131506232e-03 1.808876759913e-03 0.0 
0.0 0.0 -8.363020705961e-04 
-2.858765317582e-04 -8.912097981478e-04 0.0 
-8.912097981478e-04 3.661087959600e-03 0.0 
0.0 0.0 -1.177278300149e-03 
-1.642185562706e-04 -1.468912040377e-03 0.0 
-1.468912040377e-03 1.269461247680e-03 0.0 
0.0 0.0 -4.736754391754e-04 
-2.865195494759e-04 -1.594101584254e-03 0.0 
-1.594101584254e-03 3.398007437901e-03 0.0 
0.0 0.0 -1.104707344597e-03 
9.194713961983e-04 -6.793234433339e-04 0.0 
-6.793234433339e-04 6.261768049846e-04 0.0 
0.0 0.0 -3.206774383567e-04 
-7.790564292393e-04 -2.283470906283e-03 0.0 
-2.283470906283e-03 3.292851518803e-03 0.0 
0.0 0.0 -1.077340752670e-03 
-5.608514076299e-04 -2.798496030794e-03 0.0 
-2.798496030794e-03 2.999147072071e-03 0.0 
0.0 0.0 -1.044983856189e-03 
1.138912068891e-03 -3.473598627530e-04 0.0 
-3.473598627530e-04 -1.413469007123e-04 0.0 
0.0 0.0 -2.684313900889e-04 
-1.253955737825e-03 -3.715260469387e-04 0.0 
-3.715260469387e-04 3.888476539148e-03 0.0 
0.0 0.0 -9.536442305595e-04 
-1.602308644549e-03 2.138646014206e-03 0.0 
2.138646014206e-03 7.398169050205e-03 0.0 
0.0 0.0 -1.176862138969e-03 
2.761299412783e-03 -2.184006917307e-04 0.0 
-2.184006917307e-04 -8.957163604378e-04 0.0 
0.0 0.0 -9.160000506328e-05 
-1.698158774402e-03 7.543543168281e-04 0.0 
7.543543168281e-04 4.798515189366e-03 0.0 
0.0 0.0 -7.322753781719e-04 
-1.694678419912e-03 8.983255451051e-04 0.0 
8.983255451051e-04 4.996965617242e-03 0.0 
0.0 0.0 -7.130472889423e-04 
9.905782610910e-04 -8.253624912090e-04 0.0 
-8.253624912090e-04 7.976802919736e-04 0.0 
0.0 0.0 -7.663965227419e-04 
-1.039035016572e-03 -2.144348817903e-04 0.0 
-2.144348817903e-04 3.210973696896e-03 0.0 
0.0 0.0 -7.829545016062e-04 
1.212299874062e-03 -2.903037830351e-03 0.0 
-2.903037830351e-03 2.395213764874e-04 0.0 
0.0 0.0 -6.222091073784e-04 
1.174115903652e-03 2.662474741674e-03 0.0 
2.662474741674e-03 2.969730930284e-04 0.0 
0.0 0.0 -6.304667128631e-04 
-1.289472189001e-03 -1.746360051319e-03 0.0 
-1.746360051319e-03 5.399223758463e-03 0.0 
0.0 0.0 -1.180895453064e-03 
-1.199251439186e-03 3.128969763373e-03 0.0 
3.128969763373e-03 5.740281679720e-03 0.0 
0.0 0.0 -1.286194385238e-03 
-1.685234284086e-03 7.030718583631e-04 0.0 
7.030718583631e-04 7.477737434154e-03 0.0 
0.0 0.0 -1.101088927253e-03 
5.511702260285e-04 2.711119680311e-03 0.0 
2.711119680311e-03 9.222763951361e-04 0.0 
0.0 0.0 -6.314771233563e-04 
-3.649363196540e-05 -1.210836942261e-03 0.0 
-1.210836942261e-03 8.486569891216e-04 0.0 
0.0 0.0 -3.480700102098e-04 
-1.004741383637e-03 2.553626350246e-03 0.0 
2.553626350246e-03 3.669626505377e-03 0.0 
0.0 0.0 -8.905302458185e-04 
-1.568290103670e-03 2.798930321494e-04 0.0 
2.798930321494e-04 4.936656992355e-03 0.0 
0.0 0.0 -7.345111139194e-04 
-1.542599483069e-03 2.307996019665e-04 0.0 
2.307996019665e-04 5.186209951631e-03 0.0 
0.0 0.0 -7.144802219086e-04 
1.697260921232e-03 -1.822504204338e-04 0.0 
-1.822504204338e-04 -6.526688675189e-04 0.0 
0.0 0.0 -1.584708362264e-04 
9.885439547911e-04 -4.650217645265e-04 0.0 
-4.650217645265e-04 -7.811083121429e-05 0.0 
0.0 0.0 -2.719350994485e-04 
3.764836072069e-04 -3.171144431772e-04 0.0 
-3.171144431772e-04 5.254813268562e-04 0.0 
0.0 0.0 -2.992029258896e-04 
-3.222613347251e-04 -1.717475984859e-03 0.0 
-1.717475984859e-03 1.786840537745e-03 0.0 
0.0 0.0 -6.276768012942e-04 
1.995445303676e-03 -3.544912217161e-04 0.0 
-3.544912217161e-04 -1.783707534186e-04 0.0 
0.0 0.0 -2.505695937184e-04 
-1.385796394707e-03 -3.802460944882e-04 0.0 
-3.802460944882e-04 4.246303149623e-03 0.0 
0.0 0.0 -1.004230634435e-03 
0.0 0.0 0.0 
0.0 0.0 0.0 
0.0 0.0 0.0 
-3.537348662354e-04 -2.028219451660e-03 0.0 
-2.028219451660e-03 2.045322960423e-03 0.0 
0.0 0.0 -7.249663260806e-04 
-1.566153664312e-03 2.377992970035e-04 0.0 
2.377992970035e-04 6.488131571459e-03 0.0 
0.0 0.0 -9.582560723523e-04 
-1.634454558496e-03 5.707793053276e-04 0.0 
5.707793053276e-04 5.108535752511e-03 0.0 
0.0 0.0 -7.120344407548e-04 
-1.255391157734e-03 2.956292385131e-03 0.0 
2.956292385131e-03 5.913112370001e-03 0.0 
0.0 0.0 -1.169483110168e-03 
-3.211066572615e-04 -2.624140315591e-03 0.0 
-2.624140315591e-03 2.858415319154e-03 0.0 
0.0 0.0 -9.641449249716e-04 
-1.553469395463e-03 1.980732768992e-04 0.0 
1.980732768992e-04 6.108450087988e-03 0.0 
0.0 0.0 -8.988447104697e-04 
-1.086829048493e-03 -4.298554506639e-05 0.0 
-4.298554506639e-05 3.376551179836e-03 0.0 
0.0 0.0 -8.404787427002e-04 
1.157325761144e-03 -4.144839602351e-04 0.0 
-4.144839602351e-04 5.556060787113e-04 0.0 
0.0 0.0 -3.489577299251e-04 
-1.340974968048e-03 1.141125960794e-03 0.0 
1.141125960794e-03 8.560634098268e-03 0.0 
0.0 0.0 -1.340974968048e-03 
-1.479514720207e-03 1.290754629394e-03 0.0 
1.290754629394e-03 8.817356864728e-03 0.0 
0.0 0.0 -1.320295381545e-03 
-1.658748233041e-03 8.637494445187e-04 0.0 
8.637494445187e-04 5.855760830743e-03 0.0 
0.0 0.0 -8.588387843224e-04 
-1.626246500550e-03 3.507062076516e-04 0.0 
3.507062076516e-04 4.917310602464e-03 0.0 
0.0 0.0 -7.326073368542e-04 
-1.101733211462e-03 -4.903419461906e-04 0.0 
-4.903419461906e-04 3.425201513199e-03 0.0 
0.0 0.0 -8.368382630048e-04 
-1.457935752510e-03 9.072104527732e-04 0.0 
9.072104527732e-04 8.880607743519e-03 0.0 
0.0 0.0 -1.322576402756e-03 
-2.087604691238e-04 -2.081308369903e-03 0.0 
-2.081308369903e-03 1.746392936312e-03 0.0 
0.0 0.0 -6.589853430805e-04 
-1.662826015092e-03 7.083533780780e-04 0.0 
7.083533780780e-04 5.042251775661e-03 0.0 
0.0 0.0 -7.125614225629e-04 
-1.628165374516e-03 4.707510309731e-04 0.0 
4.707510309731e-04 4.889560536843e-03 0.0 
0.0 0.0 -7.312775522649e-04 
-1.109436790681e-03 2.207974280543e-03 0.0 
2.207974280543e-03 3.753226225228e-03 0.0 
0.0 0.0 -8.460010047089e-04 
-1.341823989366e-03 2.274932854254e-03 0.0 
2.274932854254e-03 8.137856468635e-03 0.0 
0.0 0.0 -1.341823989366e-03 
-1.447499776368e-03 1.123885033130e-03 0.0 
1.123885033130e-03 8.849685221172e-03 0.0 
0.0 0.0 -1.322582685247e-03 
1.858413942134e-03 -4.468674671497e-04 0.0 
-4.468674671497e-04 -1.442261551490e-04 0.0 
0.0 0.0 -2.523401230232e-04 
1.933225188622e-03 -1.733881547272e-04 0.0 
-1.733881547272e-04 -7.561870514403e-04 0.0 
0.0 0.0 -1.563839533901e-04 
-1.406822219416e-04 -1.124602410666e-03 0.0 
-1.124602410666e-03 1.005262349108e-03 0.0 
0.0 0.0 -3.705343402142e-04 
-5.636260726475e-04 -2.890778252910e-03 0.0 
-2.890778252910e-03 3.024028366260e-03 0.0 
0.0 0.0 -1.029090130247e-03 
-1.836231348186e-03 -1.061046282737e-04 0.0 
-1.061046282737e-04 6.851957631603e-03 0.0 
0.0 0.0 -1.224669017856e-03 
0.0 0.0 0.0 
0.0 0.0 0.0 
0.0 0.0 0.0 
-1.578428037932e-03 -1.076945805976e-04 0.0 
-1.076945805976e-04 7.488341038297e-03 0.0 
0.0 0.0 -1.092518628634e-03 
-1.550925910831e-05 -1.170234142814e-04 0.0 
-1.170234142814e-04 1.067621659097e-04 0.0 
0.0 0.0 -3.910838862915e-05 
8.665365973905e-04 -1.142786771002e-03 0.0 
-1.142786771002e-03 9.419164366956e-04 0.0 
0.0 0.0 -7.750513003226e-04 
2.093383490481e-04 -3.500473738276e-04 0.0 
-3.500473738276e-04 8.081195732959e-06 0.0 
0.0 0.0 -9.317980490615e-05 
0.0 0.0 0.0 
0.0 0.0 0.0 
0.0 0.0 0.0 
8.379829542950e-04 -1.828387007204e-03 0.0 
-1.828387007204e-03 8.061078686980e-04 0.0 
0.0 0.0 -7.046103527113e-04 
-1.789860880868e-03 -9.343042948716e-04 0.0 
-9.343042948716e-04 6.450275194502e-03 0.0 
0.0 0.0 -1.192963836147e-03 
-1.590104708056e-03 6.107842018535e-05 0.0 
6.107842018535e-05 6.703688956183e-03 0.0 
0.0 0.0 -9.361271490834e-04 
-8.759783829009e-04 2.898559650342e-03 0.0 
2.898559650342e-03 3.532916901786e-03 0.0 
0.0 0.0 -9.106555839008e-04 
1.248462822196e-03 -2.813829483536e-04 0.0 
-2.813829483536e-04 -1.929931588244e-04 0.0 
0.0 0.0 -2.625419092021e-04 
-1.459678414727e-03 -2.058426133646e-03 0.0 
-2.058426133646e-03 4.704925736718e-03 0.0 
0.0 0.0 -1.075952622059e-03 
-1.337797817327e-03 3.504757910850e-04 0.0 
3.504757910850e-04 8.685617780919e-03 0.0 
0.0 0.0 -1.337797817327e-03 
-1.451734133111e-03 3.024014936646e-04 0.0 
3.024014936646e-04 8.945645325804e-03 0.0 
0.0 0.0 -1.322354755130e-03 
-1.599337559302e-03 4.517969448523e-04 0.0 
4.517969448523e-04 5.137060814106e-03 0.0 
0.0 0.0 -7.125764448434e-04 
8.243811469618e-04 -5.070143029738e-04 0.0 
-5.070143029738e-04 1.170642242664e-03 0.0 
0.0 0.0 -8.550100241253e-04 
-1.341607717199e-03 9.922961128721e-04 0.0 
9.922961128721e-04 8.617013640237e-03 0.0 
0.0 0.0 -1.341607717199e-03 
1.651597580357e-05 2.683416658655e-03 0.0 
2.683416658655e-03 3.024822145470e-03 0.0 
0.0 0.0 -1.046710270629e-03 
1.210451057929e-03 -1.943692124057e-04 0.0 
-1.943692124057e-04 4.706046126820e-04 0.0 
0.0 0.0 -3.531810144492e-04 
2.099767295814e-03 -2.484083841165e-04 0.0 
-2.484083841165e-04 -2.289154150212e-04 0.0 
0.0 0.0 -2.475227046456e-04 
1.335233375907e-03 -9.196830328825e-05 0.0 
-9.196830328825e-05 -2.038367509550e-04 0.0 
0.0 0.0 -2.481890828467e-04 
-1.206645058523e-03 -4.413417753443e-05 0.0 
-4.413417753443e-05 3.734312456454e-03 0.0 
0.0 0.0 -9.186759157619e-04 
-1.554661254855e-03 -1.173104092863e-03 0.0 
-1.173104092863e-03 7.206653129246e-03 0.0 
0.0 0.0 -1.322828574513e-03 
-1.468378470940e-03 -2.055954314762e-04 0.0 
-2.055954314762e-04 8.477100898234e-03 0.0 
0.0 0.0 -1.258329778789e-03 
2.187416576026e-03 -1.653808446854e-04 0.0 
-1.653808446854e-04 -8.676741714944e-04 0.0 
0.0 0.0 -1.587067154099e-04 
-1.371588137901e-03 -3.169762198632e-04 0.0 
-3.169762198632e-04 4.214800910036e-03 0.0 
0.0 0.0 -1.008438243783e-03 
-1.344798314369e-03 -8.279531255943e-04 0.0 
-8.279531255943e-04 7.026886665436e-03 0.0 
0.0 0.0 -1.344798314369e-03 
-1.564884777426e-03 -1.287545985866e-03 0.0 
-1.287545985866e-03 7.147060172158e-03 0.0 
0.0 0.0 -1.318785251170e-03 
-1.158469832793e-03 -1.923166980148e-03 0.0 
-1.923166980148e-03 5.883371209853e-03 0.0 
0.0 0.0 -1.321151187552e-03 
-1.585912391543e-03 2.691560132111e-04 0.0 
2.691560132111e-04 7.090908885405e-03 0.0 
0.0 0.0 -1.027148381742e-03 
-1.555187588006e-03 -1.971572702211e-04 0.0 
-1.971572702211e-04 7.705246922455e-03 0.0 
0.0 0.0 -1.125709525796e-03 
-1.338030260144e-03 -1.094386398329e-03 0.0 
-1.094386398329e-03 6.909148412757e-03 0.0 
0.0 0.0 -1.338030260144e-03 
-1.340754991027e-03 -1.372687681983e-03 0.0 
-1.372687681983e-03 6.806607219922e-03 0.0 
0.0 0.0 -1.340754991027e-03 
-1.561602649575e-03 2.480043620058e-04 0.0 
2.480043620058e-04 7.494608831512e-03 0.0 
0.0 0.0 -1.092518628634e-03 
3.307271248664e-03 4.314548185695e-05 0.0 
4.314548185695e-05 -1.214475185733e-03 0.0 
0.0 0.0 -8.755379438333e-05 
-1.478032168390e-03 1.489804673206e-04 0.0 
1.489804673206e-04 5.167022187345e-03 0.0 
0.0 0.0 -7.139539158865e-04 
-1.574977551316e-03 3.717997235828e-04 0.0 
3.717997235828e-04 5.188881553203e-03 0.0 
0.0 0.0 -7.133642253441e-04 
2.078295521971e-03 -1.511499007421e-04 0.0 
-1.511499007421e-04 -8.199563945998e-04 0.0 
0.0 0.0 -1.576675707606e-04 
-1.342313591240e-03 -1.872687525586e-03 0.0 
-1.872687525586e-03 6.355359522584e-03 0.0 
0.0 0.0 -1.342313591240e-03 
-1.269922737054e-03 -2.029167704155e-03 0.0 
-2.029167704155e-03 6.094262192879e-03 0.0 
0.0 0.0 -1.318355947622e-03 
-1.337959751097e-03 -1.908784167046e-03 0.0 
-1.908784167046e-03 5.900685640896e-03 0.0 
0.0 0.0 -1.337959751097e-03 
3.106621107953e-03 -1.497773368645e-04 0.0 
-1.497773368645e-04 -1.029211139497e-03 0.0 
0.0 0.0 -9.540963664560e-05 
2.941822019467e-03 -1.767432348869e-04 0.0 
-1.767432348869e-04 -9.568393427299e-04 0.0 
0.0 0.0 -9.747405510327e-05 
-1.340754991027e-03 -1.672627381109e-03 0.0 
-1.672627381109e-03 5.518495974516e-03 0.0 
0.0 0.0 -1.340754991027e-03 
-1.340396196526e-03 -1.852966983193e-03 0.0 
-1.852966983193e-03 5.697134399037e-03 0.0 
0.0 0.0 -1.340396196526e-03 
-1.600296610560e-03 -2.152006829150e-04 0.0 
-2.152006829150e-04 6.887323541576e-03 0.0 
0.0 0.0 -9.936726122374e-04 
-1.422222177314e-03 8.859389962602e-05 0.0 
8.859389962602e-05 5.179295465595e-03 0.0 
0.0 0.0 -7.124851972278e-04 
-1.571159218797e-03 -2.082021183410e-04 0.0 
-2.082021183410e-04 7.291178693471e-03 0.0 
0.0 0.0 -1.060142436171e-03 
-1.552782223510e-03 -2.129194587244e-04 0.0 
-2.129194587244e-04 6.002253842572e-03 0.0 
0.0 0.0 -8.626607521899e-04 
-1.382122713210e-03 3.570213775188e-05 0.0 
3.570213775188e-05 5.182667103943e-03 0.0 
0.0 0.0 -7.121912678902e-04 
2.259827960221e-03 -3.791885520061e-04 0.0 
-3.791885520061e-04 -6.773411335669e-04 0.0 
0.0 0.0 -9.442328267794e-05 
1.489465085535e-03 -3.873061726619e-04 0.0 
-3.873061726619e-04 -3.302723319640e-04 0.0 
0.0 0.0 -4.591167563965e-05 
1.195706273835e-03 -4.439423179226e-04 0.0 
-4.439423179226e-04 -2.457069974477e-04 0.0 
0.0 0.0 -4.589015575604e-05 
7.928883186884e-04 -4.308369996379e-04 0.0 
-4.308369996379e-04 -1.962835067220e-05 0.0 
0.0 0.0 -4.556578909549e-05 
-1.455576565641e-03 5.369324781881e-06 0.0 
5.369324781881e-06 4.421569252006e-03 0.0 
0.0 0.0 -1.025222297049e-03 
-1.326853145310e-03 -3.193870868211e-05 0.0 
-3.193870868211e-05 4.074529080795e-03 0.0 
0.0 0.0 -9.784754570978e-04 
3.643447720584e-04 -2.807478551813e-04 0.0 
-2.807478551813e-04 -8.302826669459e-05 0.0 
0.0 0.0 -1.159392125903e-04 
-1.882114812679e-03 5.257899597366e-05 0.0 
5.257899597366e-05 5.463849854237e-03 0.0 
0.0 0.0 -1.072123180932e-03 
1.624781745822e-04 -2.648253394118e-04 0.0 
-2.648253394118e-04 3.767456551543e-06 0.0 
0.0 0.0 -7.124812762874e-05 
-1.341471640605e-03 1.902532918980e-03 0.0 
1.902532918980e-03 8.304452194875e-03 0.0 
0.0 0.0 -1.341471640605e-03 
-1.340968685557e-03 8.342263842268e-04 0.0 
8.342263842268e-04 8.620360450522e-03 0.0 
0.0 0.0 -1.340968685557e-03 
-1.339320413496e-03 1.336323062728e-03 0.0 
1.336323062728e-03 8.515855351859e-03 0.0 
0.0 0.0 -1.339320413496e-03 
-5.175251243654e-04 1.147272255642e-05 0.0 
1.147272255642e-05 1.550881351190e-03 0.0 
0.0 0.0 -2.599136149544e-04 
-9.633323041400e-04 -3.549644401783e-05 0.0 
-3.549644401783e-05 2.981977788141e-03 0.0 
0.0 0.0 -7.340959586659e-04 
-1.337132911908e-03 6.510662741128e-04 0.0 
6.510662741128e-04 8.656607653519e-03 0.0 
0.0 0.0 -1.337132911908e-03 
-2.083032595708e-03 9.922266011855e-05 0.0 
9.922266011855e-05 6.472696883650e-03 0.0 
0.0 0.0 -1.124956933753e-03 
-1.344556937803e-03 5.003882733929e-04 0.0 
5.003882733929e-04 8.710429521741e-03 0.0 
0.0 0.0 -1.344556937803e-03 
-1.932677962729e-03 1.288201926386e-04 0.0 
1.288201926386e-04 6.746175248938e-03 0.0 
0.0 0.0 -1.192538251246e-03 
-1.740079752366e-03 1.547682996820e-04 0.0 
1.547682996820e-04 7.002368902305e-03 0.0 
0.0 0.0 -1.259905836238e-03 
-1.256318881540e-03 -3.058147318078e-04 0.0 
-3.058147318078e-04 3.889569585195e-03 0.0 
0.0 0.0 -9.521061186879e-04 
-1.479483252636e-03 7.231400883548e-04 0.0 
7.231400883548e-04 8.931379513718e-03 0.0 
0.0 0.0 -1.318101597465e-03 
-1.454407492241e-03 7.329644933787e-04 0.0 
7.329644933787e-04 8.932547234701e-03 0.0 
0.0 0.0 -1.321689849711e-03 
-1.996720130669e-03 -4.240856891719e-04 0.0 
-4.240856891719e-04 6.546271744836e-03 0.0 
0.0 0.0 -1.157495185000e-03 
-1.833092771074e-03 -4.338479580684e-04 0.0 
-4.338479580684e-04 6.845712330688e-03 0.0 
0.0 0.0 -1.225777420818e-03 
-1.841879665554e-03 -1.392809369192e-03 0.0 
-1.392809369192e-03 5.462425115064e-03 0.0 
0.0 0.0 -1.076967794221e-03 
0.0 0.0 0.0 
0.0 0.0 0.0 
0.0 0.0 0.0 
-8.795889895974e-04 -1.952925740306e-03 0.0 
-1.952925740306e-03 3.376145193665e-03 0.0 
0.0 0.0 -1.039304039601e-03 
1.660434101197e-03 -6.141622579472e-04 0.0 
-6.141622579472e-04 -6.719522836332e-05 0.0 
0.0 0.0 -2.442944474907e-04 
-1.378694188408e-03 -2.097012646119e-03 0.0 
-2.097012646119e-03 5.460269496084e-03 0.0 
0.0 0.0 -1.177819030284e-03 
-7.813950936845e-04 -2.358745935075e-03 0.0 
-2.358745935075e-03 3.287112188259e-03 0.0 
0.0 0.0 -1.040987640873e-03 
-1.809630590335e-03 -1.291578548695e-03 0.0 
-1.291578548695e-03 5.821414157847e-03 0.0 
0.0 0.0 -1.099016898379e-03 
-2.060296257065e-04 -1.796631504213e-03 0.0 
-1.796631504213e-03 1.564117229874e-03 0.0 
0.0 0.0 -5.820375446434e-04 
4.475341314438e-05 -9.010547106959e-04 0.0 
-9.010547106959e-04 6.723802247933e-04 0.0 
0.0 0.0 -2.733874678612e-04 
-1.819661686397e-03 -1.463949205523e-03 0.0 
-1.463949205523e-03 6.215728401457e-03 0.0 
0.0 0.0 -1.161668299909e-03 
-1.009350816753e-03 -1.981157607315e-03 0.0 
-1.981157607315e-03 3.679610224835e-03 0.0 
0.0 0.0 -1.056886766371e-03 
-1.124597673924e-03 -3.416283390981e-04 0.0 
-3.416283390981e-04 3.530274889455e-03 0.0 
0.0 0.0 -8.978673291013e-04 
-1.908614693689e-03 -1.553426855284e-03 0.0 
-1.553426855284e-03 5.883638228136e-03 0.0 
0.0 0.0 -1.096102707776e-03 
-1.506564574904e-03 4.784902240182e-04 0.0 
4.784902240182e-04 7.990398295391e-03 0.0 
0.0 0.0 -1.188907866872e-03 
-1.145966443117e-03 -2.688887835076e-04 0.0 
-2.688887835076e-04 3.559257817850e-03 0.0 
0.0 0.0 -8.802182425544e-04 
-2.343808151550e-04 -2.448482601409e-03 0.0 
-2.448482601409e-03 2.867036480139e-03 0.0 
0.0 0.0 -1.035646790376e-03 
-9.500506080825e-04 -2.724089328098e-03 0.0 
-2.724089328098e-03 3.674446532369e-03 0.0 
0.0 0.0 -9.625389225288e-04 
-1.856114660532e-03 -1.247587492440e-03 0.0 
-1.247587492440e-03 5.444374226428e-03 0.0 
0.0 0.0 -1.042884296030e-03 
-2.003615679542e-03 -9.107189773551e-04 0.0 
-9.107189773551e-04 5.760788445208e-03 0.0 
0.0 0.0 -1.050199500156e-03 
3.015162384708e-03 1.478491521065e-03 0.0 
1.478491521065e-03 -1.420788746949e-03 0.0 
0.0 0.0 -6.833029876111e-04 
-7.703338813803e-04 2.711642704622e-03 0.0 
2.711642704622e-03 3.268676482316e-03 0.0 
0.0 0.0 -9.206815977879e-04 
8.952220710028e-04 3.337500451005e-03 0.0 
3.337500451005e-03 9.018971507738e-04 0.0 
0.0 0.0 -7.701939521900e-04 
-1.492273682533e-03 -1.948749897048e-03 0.0 
-1.948749897048e-03 4.700056634630e-03 0.0 
0.0 0.0 -1.018483763552e-03 
-1.953152701418e-03 -1.266064436280e-03 0.0 
-1.266064436280e-03 6.190905664489e-03 0.0 
0.0 0.0 -1.125100902632e-03 
-2.130434678919e-03 -5.674193057818e-04 0.0 
-5.674193057818e-04 6.039060582820e-03 0.0 
0.0 0.0 -1.053755873404e-03 
1.981272582958e-04 -2.339075750409e-03 0.0 
-2.339075750409e-03 1.164667172993e-03 0.0 
0.0 0.0 -5.840547562666e-04 
-1.516698384373e-03 7.243684231909e-04 0.0 
7.243684231909e-04 7.963201592157e-03 0.0 
0.0 0.0 -1.183514100502e-03 
-1.571889609711e-03 6.492262438020e-04 0.0 
6.492262438020e-04 7.577660240319e-03 0.0 
0.0 0.0 -1.117084069417e-03 
-1.526943038589e-03 4.067391407097e-04 0.0 
4.067391407097e-04 5.686565415721e-03 0.0 
0.0 0.0 -8.110481619253e-04 
-1.474195239190e-03 -2.107699134124e-03 0.0 
-2.107699134124e-03 4.674985602820e-03 0.0 
0.0 0.0 -1.001070066037e-03 
-1.687869148980e-03 -1.597447162641e-03 0.0 
-1.597447162641e-03 5.094192157887e-03 0.0 
0.0 0.0 -1.032102790996e-03 
-1.559878786953e-03 1.186239496982e-04 0.0 
1.186239496982e-04 8.091883647163e-03 0.0 
0.0 0.0 -1.185362187646e-03 
-1.553576411269e-03 5.639076835034e-04 0.0 
5.639076835034e-04 7.828849217298e-03 0.0 
0.0 0.0 -1.150972777267e-03 
-5.736846005059e-04 -3.010470759541e-03 0.0 
-3.010470759541e-03 3.112745496219e-03 0.0 
0.0 0.0 -1.058777908313e-03 
-1.827264969184e-03 -1.207689843267e-03 0.0 
-1.207689843267e-03 6.491929530035e-03 0.0 
0.0 0.0 -1.190872049285e-03 
-1.617401302618e-03 1.036699389917e-03 0.0 
1.036699389917e-03 7.425262889637e-03 0.0 
0.0 0.0 -1.103416240745e-03 
-2.113993614968e-03 -7.222808743220e-04 0.0 
-7.222808743220e-04 6.023476369147e-03 0.0 
0.0 0.0 -1.069496670503e-03 
-1.471914821471e-03 -1.998353424490e-03 0.0 
-1.998353424490e-03 5.883536090439e-03 0.0 
0.0 0.0 -1.210017230578e-03 
-1.575272729869e-03 3.494544289054e-04 0.0 
3.494544289054e-04 8.019533452472e-03 0.0 
0.0 0.0 -1.181737430652e-03 
-1.652502708926e-03 2.520535947120e-04 0.0 
2.520535947120e-04 7.001595806507e-03 0.0 
0.0 0.0 -1.011817915138e-03 
-3.838894113269e-04 -2.804191833148e-03 0.0 
-2.804191833148e-03 2.874279057775e-03 0.0 
0.0 0.0 -9.985655989919e-04 
-6.304965187655e-04 -7.604202958905e-04 0.0 
-7.604202958905e-04 2.203620271365e-03 0.0 
0.0 0.0 -6.656342390725e-04 
4.047615641515e-04 -2.474054827037e-03 0.0 
-2.474054827037e-03 9.613198754716e-04 0.0 
0.0 0.0 -5.854634741242e-04 
2.836227978939e-05 -1.580599960261e-03 0.0 
-1.580599960261e-03 9.832792497712e-04 0.0 
0.0 0.0 -4.149592254337e-04 
1.034548557929e-04 -1.227500156599e-03 0.0 
-1.227500156599e-03 6.126727267546e-04 0.0 
0.0 0.0 -3.069118210918e-04 
-1.577352812428e-03 2.114313367924e-04 0.0 
2.114313367924e-04 7.845695102100e-03 0.0 
0.0 0.0 -1.150998037120e-03 
-1.900941556448e-03 -7.041406832224e-04 0.0 
-7.041406832224e-04 6.386638876857e-03 0.0 
0.0 0.0 -1.156839719840e-03 
6.843292428348e-05 -1.144232504345e-03 0.0 
-1.144232504345e-03 6.143886100226e-04 0.0 
0.0 0.0 -2.926378004169e-04 
-1.601987702258e-03 2.442990824200e-03 0.0 
2.442990824200e-03 6.852419756780e-03 0.0 
0.0 0.0 -1.160298666437e-03 
-1.543111448516e-03 4.596328783708e-04 0.0 
4.596328783708e-04 5.853297686999e-03 0.0 
0.0 0.0 -8.436798659344e-04 
-1.824750470194e-03 -1.859013687658e-03 0.0 
-1.859013687658e-03 5.532595994557e-03 0.0 
0.0 0.0 -1.067477449466e-03 
-2.006499161308e-03 -7.976010001953e-04 0.0 
-7.976010001953e-04 6.083504909474e-03 0.0 
0.0 0.0 -1.090430023688e-03 
7.833829666557e-04 -2.711290744461e-03 0.0 
-2.711290744461e-03 6.776524641225e-04 0.0 
0.0 0.0 -6.261580417621e-04 
-2.076799610215e-03 -1.031710463461e-03 0.0 
-1.031710463461e-03 6.135351760274e-03 0.0 
0.0 0.0 -1.087955833448e-03 
-1.557514890525e-03 -6.173462151110e-05 0.0 
-6.173462151110e-05 5.695796094032e-03 0.0 
0.0 0.0 -8.100176300978e-04 
8.750615862245e-04 9.176848780839e-04 0.0 
9.176848780839e-04 1.438408062181e-03 0.0 
0.0 0.0 -9.914869921737e-04 
-1.497791782641e-03 -1.444847597853e-03 0.0 
-1.444847597853e-03 6.204442023908e-03 0.0 
0.0 0.0 -1.242964905849e-03 
-6.875629852487e-04 -4.240155203853e-04 0.0 
-4.240155203853e-04 2.190912803371e-03 0.0 
0.0 0.0 -5.658909553065e-04 
-1.268098618658e-03 -2.126035490962e-03 0.0 
-2.126035490962e-03 5.495926708526e-03 0.0 
0.0 0.0 -1.215045542354e-03 
-1.631557581403e-03 2.235766335083e-04 0.0 
2.235766335083e-04 7.237605270102e-03 0.0 
0.0 0.0 -1.048288725887e-03 
-7.383595785151e-04 -6.377031037024e-04 0.0 
-6.377031037024e-04 2.446869421887e-03 0.0 
0.0 0.0 -6.818911139857e-04 
3.993077738021e-04 -2.419206884214e-03 0.0 
-2.419206884214e-03 9.348823657586e-04 0.0 
0.0 0.0 -5.717957740974e-04 
-1.500476059484e-03 -8.906484908892e-04 0.0 
-8.906484908892e-04 4.589149281530e-03 0.0 
0.0 0.0 -1.044847128380e-03 
-1.630418366467e-03 6.661053165545e-04 0.0 
6.661053165545e-04 6.481746764143e-03 0.0 
0.0 0.0 -9.409807611877e-04 
-5.756498552716e-04 -2.159817615522e-03 0.0 
-2.159817615522e-03 2.678873720584e-03 0.0 
0.0 0.0 -9.013816565627e-04 
-1.610525300296e-03 1.600914995101e-04 0.0 
1.600914995101e-04 7.460282061065e-03 0.0 
0.0 0.0 -1.085119818393e-03 
-1.626505474320e-03 1.193898643633e-04 0.0 
1.193898643633e-04 6.796479922044e-03 0.0 
0.0 0.0 -9.816794289629e-04 
-1.168002604940e-03 -1.979309092588e-03 0.0 
-1.979309092588e-03 4.001814082530e-03 0.0 
0.0 0.0 -1.032510638845e-03 
-1.993224441762e-03 -1.056137829821e-03 0.0 
-1.056137829821e-03 5.774090597717e-03 0.0 
0.0 0.0 -1.075584385303e-03 
-2.021709392423e-03 -1.349459280440e-03 0.0 
-1.349459280440e-03 5.860171390496e-03 0.0 
0.0 0.0 -1.066391945090e-03 
-1.595291763312e-03 5.874023300959e-04 0.0 
5.874023300959e-04 7.178060268656e-03 0.0 
0.0 0.0 -1.050681058959e-03 
-5.082515002275e-04 -8.941420093747e-04 0.0 
-8.941420093747e-04 1.798316205834e-03 0.0 
0.0 0.0 -5.009000172756e-04 
-1.206852124203e-03 -1.671075112969e-03 0.0 
-1.671075112969e-03 4.019505130445e-03 0.0 
0.0 0.0 -1.029746919386e-03 
-5.152753143588e-05 2.170825683475e-03 0.0 
2.170825683475e-03 3.140726951459e-03 0.0 
0.0 0.0 -1.141128458404e-03 
-1.641668485544e-03 3.431501301840e-04 0.0 
3.431501301840e-04 7.404941610079e-03 0.0 
0.0 0.0 -1.078198857115e-03 
-1.057951637287e-03 -1.671343146736e-03 0.0 
-1.671343146736e-03 3.677031607098e-03 0.0 
0.0 0.0 -1.017599913258e-03 
-8.954401304147e-04 -2.800206404235e-03 0.0 
-2.800206404235e-03 3.674164100142e-03 0.0 
0.0 0.0 -1.058318663232e-03 
-1.115312546428e-03 -2.189534952593e-03 0.0 
-2.189534952593e-03 5.045014028914e-03 0.0 
0.0 0.0 -1.187586327529e-03 
-1.596801678993e-03 6.045917028781e-04 0.0 
6.045917028781e-04 6.950727632054e-03 0.0 
0.0 0.0 -1.013969106439e-03 
2.322873706387e-04 -1.368679716301e-04 0.0 
-1.368679716301e-04 -2.322873706387e-04 0.0 
0.0 0.0 0.0 
4.726741315202e-05 -1.330898926681e-03 0.0 
-1.330898926681e-03 8.674614564573e-04 0.0 
0.0 0.0 -2.916872467244e-04 
2.273358372470e-03 1.445761220817e-05 0.0 
1.445761220817e-05 -1.234043607805e-03 0.0 
0.0 0.0 -4.454206134279e-04 
-1.880676767284e-03 -9.969975945957e-04 0.0 
-9.969975945957e-04 6.131847364448e-03 0.0 
0.0 0.0 -1.127837695838e-03 
-1.619604464873e-03 6.374782176385e-04 0.0 
6.374782176385e-04 6.719807393941e-03 0.0 
0.0 0.0 -9.775003154318e-04 
-1.665473239862e-03 -8.814240019008e-04 0.0 
-8.814240019008e-04 4.990171794499e-03 0.0 
0.0 0.0 -1.065326950858e-03 
-1.596762474986e-03 5.442334346395e-04 0.0 
5.442334346395e-04 6.065464133813e-03 0.0 
0.0 0.0 -8.745614812816e-04 
-3.748877525410e-04 -1.800985621523e-03 0.0 
-1.800985621523e-03 3.574605346147e-03 0.0 
0.0 0.0 -1.139196670502e-03 
-1.359206623324e-03 -1.598338811102e-03 0.0 
-1.598338811102e-03 4.356288718259e-03 0.0 
0.0 0.0 -1.038619054332e-03 
-1.952425401121e-03 -1.122489104774e-03 0.0 
-1.122489104774e-03 5.808139918506e-03 0.0 
0.0 0.0 -1.061632825506e-03 
-7.352512267089e-04 -7.174892847169e-04 0.0 
-7.174892847169e-04 2.324934696345e-03 0.0 
0.0 0.0 -5.540246046759e-04 
-1.437645385880e-03 -1.599317358972e-03 0.0 
-1.599317358972e-03 5.870614125847e-03 0.0 
0.0 0.0 -1.211531131004e-03 
-1.154210490817e-03 -1.954082935906e-03 0.0 
-1.954082935906e-03 4.005717739264e-03 0.0 
0.0 0.0 -1.074148950826e-03 
-8.379192553434e-04 -5.906240485017e-04 0.0 
-5.906240485017e-04 2.576604047046e-03 0.0 
0.0 0.0 -5.876558844704e-04 
-1.197102623790e-03 -1.637680359765e-03 0.0 
-1.637680359765e-03 4.017415051808e-03 0.0 
0.0 0.0 -1.056762485630e-03 
-7.509293429896e-04 -1.933738058068e-03 0.0 
-1.933738058068e-03 3.044668356527e-03 0.0 
0.0 0.0 -9.830310058020e-04 
-3.848069222800e-04 -1.987035085230e-03 0.0 
-1.987035085230e-03 2.096507399408e-03 0.0 
0.0 0.0 -7.335859187690e-04 
-1.641529108376e-03 -8.260601691015e-04 0.0 
-8.260601691015e-04 4.922455749526e-03 0.0 
0.0 0.0 -1.057704792895e-03 
1.274028603033e-03 -1.869459937269e-04 0.0 
-1.869459937269e-04 -4.728594485301e-04 0.0 
0.0 0.0 -1.484808277242e-04 
8.391344234421e-04 -3.183235339587e-04 0.0 
-3.183235339587e-04 -2.967630892776e-04 0.0 
0.0 0.0 -1.070543391422e-04 
-1.665019363331e-03 -1.732448119605e-03 0.0 
-1.732448119605e-03 5.107282910853e-03 0.0 
0.0 0.0 -1.076850574752e-03 
-6.443609575616e-04 -8.027982188953e-04 0.0 
-8.027982188953e-04 2.093114862673e-03 0.0 
0.0 0.0 -5.127475950200e-04 
-1.433152566994e-03 -2.256582062865e-03 0.0 
-2.256582062865e-03 4.678524487026e-03 0.0 
0.0 0.0 -1.065643708224e-03 
-1.181624258185e-03 -2.541209283503e-03 0.0 
-2.541209283503e-03 4.198630913141e-03 0.0 
0.0 0.0 -1.061543848411e-03 
-2.864899867882e-04 -2.872572545388e-03 0.0 
-2.872572545388e-03 2.406784440249e-03 0.0 
0.0 0.0 -9.086976229117e-04 
1.281208818910e-03 -3.086935772070e-03 0.0 
-3.086935772070e-03 3.369465702636e-04 0.0 
0.0 0.0 -6.934951667886e-04 
-1.645375116221e-03 6.411920099951e-04 0.0 
6.411920099951e-04 7.711017833911e-03 0.0 
0.0 0.0 -1.137719822027e-03 
1.154207816654e-03 1.867319367673e-03 0.0 
1.867319367673e-03 -6.876363112737e-04 0.0 
0.0 0.0 -1.999592165914e-04 
-9.249733248304e-04 -1.654130041636e-03 0.0 
-1.654130041636e-03 3.362873241434e-03 0.0 
0.0 0.0 -9.992710862841e-04 
-3.877098979375e-04 -1.380494157509e-03 0.0 
-1.380494157509e-03 3.663297430763e-03 0.0 
0.0 0.0 -1.175533656463e-03 
-5.174404311479e-04 -5.539878075327e-04 0.0 
-5.539878075327e-04 1.742776399261e-03 0.0 
0.0 0.0 -4.908139796285e-04 
-1.654366313170e-03 2.025707585884e-04 0.0 
2.025707585884e-04 6.355277344232e-03 0.0 
0.0 0.0 -9.088859120638e-04 
-1.608026372927e-03 7.066471578212e-05 0.0 
7.066471578212e-05 5.908321987661e-03 0.0 
0.0 0.0 -8.416286270284e-04 
-1.832935889570e-04 -1.554120033244e-03 0.0 
-1.554120033244e-03 1.379295739965e-03 0.0 
0.0 0.0 -5.125723504322e-04 
-9.249495539582e-04 -2.182927448984e-03 0.0 
-2.182927448984e-03 4.540217093715e-03 0.0 
0.0 0.0 -1.158722036769e-03 
-1.708983070523e-03 5.831805314674e-04 0.0 
5.831805314674e-04 7.093076428562e-03 0.0 
0.0 0.0 -1.034898561726e-03 
-5.347835094169e-04 -8.712026877687e-04 0.0 
-8.712026877687e-04 1.955284966163e-03 0.0 
0.0 0.0 -6.087863386054e-04 
-1.641053002078e-03 8.278210871732e-04 0.0 
8.278210871732e-04 7.844844353227e-03 0.0 
0.0 0.0 -1.166520446339e-03 
-1.573669309360e-03 1.135775076811e-03 0.0 
1.135775076811e-03 7.785651679837e-03 0.0 
0.0 0.0 -1.169001632583e-03 
-5.801197933913e-04 -1.186925299187e-03 0.0 
-1.186925299187e-03 2.194197512368e-03 0.0 
0.0 0.0 -6.784273028472e-04 
3.325860372313e-04 2.756630050232e-03 0.0 
2.756630050232e-03 1.228114910237e-03 0.0 
0.0 0.0 -6.688718346291e-04 
-3.593200341485e-04 -1.692198470874e-03 0.0 
-1.692198470874e-03 1.863660251544e-03 0.0 
0.0 0.0 -6.447172360267e-04 
-1.851327153153e-03 -1.651837749691e-03 0.0 
-1.651837749691e-03 5.510234686298e-03 0.0 
0.0 0.0 -1.068438311093e-03 
-1.517049278155e-03 -1.208152311661e-03 0.0 
-1.208152311661e-03 4.665351215207e-03 0.0 
0.0 0.0 -1.047608655120e-03 
-1.588271255534e-03 2.440442444252e-03 0.0 
2.440442444252e-03 7.130284191767e-03 0.0 
0.0 0.0 -1.169529464977e-03 
-1.586290284398e-03 9.796528348583e-04 0.0 
9.796528348583e-04 7.658587432112e-03 0.0 
0.0 0.0 -1.140030709108e-03 
-1.655646109898e-03 -1.957177626158e-03 0.0 
-1.957177626158e-03 5.116194479746e-03 0.0 
0.0 0.0 -1.068248785331e-03 
-1.685997880852e-03 -1.784608356716e-03 0.0 
-1.784608356716e-03 5.105111501202e-03 0.0 
0.0 0.0 -1.017402529519e-03 
-2.876771207717e-04 -1.389411797297e-03 0.0 
-1.389411797297e-03 1.511875759344e-03 0.0 
0.0 0.0 -5.246565593881e-04 
-1.860731135260e-03 -1.457489852606e-03 0.0 
-1.457489852606e-03 5.487326218288e-03 0.0 
0.0 0.0 -1.032853941699e-03 
-1.642797758815e-03 9.181312676492e-04 0.0 
9.181312676492e-04 7.041840567815e-03 0.0 
0.0 0.0 -1.037144748481e-03 
-1.515109443870e-03 -1.227447560286e-03 0.0 
-1.227447560286e-03 4.684685552436e-03 0.0 
0.0 0.0 -1.069204617036e-03 
-1.671620005891e-03 2.929392441870e-04 0.0 
2.929392441870e-04 6.771202525829e-03 0.0 
0.0 0.0 -9.752741834902e-04 
-1.678948556331e-03 5.367956015661e-04 0.0 
5.367956015661e-04 7.330127940856e-03 0.0 
0.0 0.0 -1.071415751597e-03 
2.313268375330e-03 1.796314023182e-03 0.0 
1.796314023182e-03 -1.074261141593e-03 0.0 
0.0 0.0 -5.310031001729e-04 
-1.592584348350e-03 8.322792606474e-04 0.0 
8.322792606474e-04 7.512035850087e-03 0.0 
0.0 0.0 -1.110258267496e-03 
-1.248028584087e-03 -1.336863044777e-03 0.0 
-1.336863044777e-03 4.037984938667e-03 0.0 
0.0 0.0 -1.014964823884e-03 
-1.349668852610e-03 -1.596461481346e-03 0.0 
-1.596461481346e-03 4.366516516387e-03 0.0 
0.0 0.0 -1.071455489612e-03 
-8.215746796524e-04 -1.528227033612e-03 0.0 
-1.528227033612e-03 3.070718427055e-03 0.0 
0.0 0.0 -9.608678829247e-04 
1.835549677296e-04 -2.809528380429e-03 0.0 
-2.809528380429e-03 1.483313829287e-03 0.0 
0.0 0.0 -7.143723415785e-04 
-1.633555633710e-03 7.702002767988e-04 0.0 
7.702002767988e-04 6.885994191198e-03 0.0 
0.0 0.0 -1.007339817349e-03 
3.076530191659e-04 -3.054269635980e-03 0.0 
-3.054269635980e-03 1.447807107602e-03 0.0 
0.0 0.0 -7.523400543291e-04 
-5.051265774841e-04 -1.582649049219e-03 0.0 
-1.582649049219e-03 2.186388830496e-03 0.0 
0.0 0.0 -7.205409655765e-04 
-1.167533049478e-04 -1.421228658134e-03 0.0 
-1.421228658134e-03 1.178987498042e-03 0.0 
0.0 0.0 -4.201231086673e-04 
-1.691347074083e-03 4.318386709728e-04 0.0 
4.318386709728e-04 6.937090811669e-03 0.0 
0.0 0.0 -1.005115000480e-03 
-4.635122803593e-04 -1.604799167025e-03 0.0 
-1.604799167025e-03 2.085354868508e-03 0.0 
0.0 0.0 -6.950753949209e-04 
-1.191515342284e-03 -1.717007076640e-03 0.0 
-1.717007076640e-03 5.423834924642e-03 0.0 
0.0 0.0 -1.218716866995e-03 
-1.611990725284e-03 7.358230951730e-04 0.0 
7.358230951730e-04 7.120198208464e-03 0.0 
0.0 0.0 -1.043883448597e-03 
-1.702982719558e-03 -1.584997506959e-03 0.0 
-1.584997506959e-03 5.470541578607e-03 0.0 
0.0 0.0 -1.070373463590e-03 
-9.109045738307e-04 -2.286339166372e-04 0.0 
-2.286339166372e-04 4.268441463060e-03 0.0 
0.0 0.0 -1.284729618418e-03 
-1.071268175159e-03 -1.648454023553e-03 0.0 
-1.648454023553e-03 3.707169372543e-03 0.0 
0.0 0.0 -1.023311028316e-03 
-5.174967158518e-04 -1.184771327579e-03 0.0 
-1.184771327579e-03 2.030619627748e-03 0.0 
0.0 0.0 -6.484812479557e-04 
-2.326317737538e-04 -1.038651026586e-03 0.0 
-1.038651026586e-03 1.174275035768e-03 0.0 
0.0 0.0 -4.035613980062e-04 
-1.410090236189e-03 -2.406400776569e-03 0.0 
-2.406400776569e-03 4.648410275236e-03 0.0 
0.0 0.0 -1.051259780966e-03 
-1.600848466290e-03 5.345976904083e-04 0.0 
5.345976904083e-04 6.550294708413e-03 0.0 
0.0 0.0 -9.473489374553e-04 
-8.717253142324e-05 -9.933700925620e-04 0.0 
-9.933700925620e-04 8.344671106644e-04 0.0 
0.0 0.0 -3.202691053891e-04 
-6.027995719924e-04 -2.107392599842e-03 0.0 
-2.107392599842e-03 2.722751826872e-03 0.0 
0.0 0.0 -9.085509663768e-04 
-7.199860598078e-04 -4.341095348245e-04 0.0 
-4.341095348245e-04 2.121552428607e-03 0.0 
0.0 0.0 -4.196057652059e-04 
-1.682938822042e-03 3.318724932828e-04 0.0 
3.318724932828e-04 6.532037136807e-03 0.0 
0.0 0.0 -9.387834224271e-04 
-7.776326742692e-04 -1.884645157224e-03 0.0 
-1.884645157224e-03 3.094899202807e-03 0.0 
0.0 0.0 -9.909213861921e-04 
-1.231039957355e-03 -2.426325464904e-03 0.0 
-2.426325464904e-03 4.199347214172e-03 0.0 
0.0 0.0 -9.819879942351e-04 
-8.554599545912e-04 -1.459966539243e-03 0.0 
-1.459966539243e-03 3.093994812612e-03 0.0 
0.0 0.0 -9.237817853494e-04 
-1.614515104562e-03 2.789174945577e-04 0.0 
2.789174945577e-04 7.633843682432e-03 0.0 
0.0 0.0 -1.114809527198e-03 
-5.165996464755e-04 -1.902435422896e-03 0.0 
-1.902435422896e-03 2.384778332934e-03 0.0 
0.0 0.0 -8.006480084822e-04 
-1.128557246388e-03 -2.713813412197e-03 0.0 
-2.713813412197e-03 4.096504171839e-03 0.0 
0.0 0.0 -1.021386065992e-03 
3.769531236008e-04 -2.410295298791e-03 0.0 
-2.410295298791e-03 9.611755011410e-04 0.0 
0.0 0.0 -5.734836963179e-04 
-1.146759310470e-03 -2.656955500371e-03 0.0 
-2.656955500371e-03 4.139056916818e-03 0.0 
0.0 0.0 -1.043150860743e-03 
-1.375457983811e-03 -1.244246825682e-03 0.0 
-1.244246825682e-03 4.353109699875e-03 0.0 
0.0 0.0 -1.054662228279e-03 
-1.554003148348e-03 -1.878419659560e-03 0.0 
-1.878419659560e-03 5.069341272683e-03 0.0 
0.0 0.0 -1.041555045145e-03 
3.002499616426e-03 -7.287809856288e-04 0.0 
-7.287809856288e-04 -1.352929250409e-03 0.0 
0.0 0.0 -7.069587282928e-04 
-6.177242885591e-04 -4.890935474393e-04 0.0 
-4.890935474393e-04 2.000133674606e-03 0.0 
0.0 0.0 -5.285791946032e-04 
-1.609261505607e-03 9.637114852809e-05 0.0 
9.637114852809e-05 6.165456359686e-03 0.0 
0.0 0.0 -8.787268422831e-04 
6.987156508361e-04 -1.946712657170e-03 0.0 
-1.946712657170e-03 1.033985256572e-03 0.0 
0.0 0.0 -7.425861031749e-04 
3.405430775163e-04 3.191948666083e-03 0.0 
3.191948666083e-03 1.485409776068e-03 0.0 
0.0 0.0 -7.825512229649e-04 
-1.644262011324e-03 1.659911649759e-04 0.0 
1.659911649759e-04 6.584724351472e-03 0.0 
0.0 0.0 -9.453210152248e-04 
6.455202986104e-04 -2.635854245695e-03 0.0 
-2.635854245695e-03 6.894465372206e-04 0.0 
0.0 0.0 -5.721286439276e-04 
-1.681255032869e-03 9.721382689111e-04 0.0 
9.721382689111e-04 6.557103597372e-03 0.0 
0.0 0.0 -9.642804585795e-04 
-6.124308423891e-04 -5.450173225678e-04 0.0 
-5.450173225678e-04 1.850421424375e-03 0.0 
0.0 0.0 -3.816933993452e-04 
-1.231036729784e-03 -2.253664933021e-03 0.0 
-2.253664933021e-03 5.042416419642e-03 0.0 
0.0 0.0 -1.150402778756e-03 
7.350617248358e-04 -1.287476273638e-03 0.0 
-1.287476273638e-03 1.272883254993e-03 0.0 
0.0 0.0 -8.605478484981e-04 
6.223710608225e-04 1.356379083397e-03 0.0 
1.356379083397e-03 1.985099964088e-03 0.0 
0.0 0.0 -1.037051012011e-03 
-1.598102879927e-03 7.448720335872e-04 0.0 
7.448720335872e-04 8.095744984387e-03 0.0 
0.0 0.0 -1.204463612412e-03 
8.919152436734e-05 -3.143989424638e-03 0.0 
-3.143989424638e-03 1.851557330956e-03 0.0 
0.0 0.0 -8.317495094241e-04 
-4.309306607764e-04 -9.183848167176e-04 0.0 
-9.183848167176e-04 1.661245254261e-03 0.0 
0.0 0.0 -5.272776829218e-04 
-5.215676815475e-04 -3.050968300431e-03 0.0 
-3.050968300431e-03 3.002352665044e-03 0.0 
0.0 0.0 -1.027200950222e-03 
-1.049023862644e-03 -1.741518653201e-03 0.0 
-1.741518653201e-03 4.976635689622e-03 0.0 
0.0 0.0 -1.189963100592e-03 
9.320234363391e-04 -2.596047537173e-03 0.0 
-2.596047537173e-03 3.625727901238e-04 0.0 
0.0 0.0 -5.548269541984e-04 
-1.645253786717e-03 -2.142300707641e-03 0.0 
-2.142300707641e-03 5.116342603387e-03 0.0 
0.0 0.0 -1.056575865346e-03 
-1.668373394945e-03 3.866502142135e-04 0.0 
3.866502142135e-04 7.172333763355e-03 0.0 
0.0 0.0 -1.041631482750e-03 
1.707610751817e-03 -3.111302323773e-03 0.0 
-3.111302323773e-03 2.006678016111e-05 0.0 
0.0 0.0 -7.404332279907e-04 
-8.518987020310e-04 -2.879189791171e-03 0.0 
-2.879189791171e-03 3.589652711545e-03 0.0 
0.0 0.0 -1.034177093206e-03 
-1.689258382171e-03 3.631400807220e-04 0.0 
3.631400807220e-04 6.026727173804e-03 0.0 
0.0 0.0 -8.663127257150e-04 
-8.305596344540e-04 -9.136388392921e-04 0.0 
-9.136388392921e-04 2.720781083118e-03 0.0 
0.0 0.0 -7.057144296542e-04 
-4.174774710502e-04 -2.264727665933e-03 0.0 
-2.264727665933e-03 2.338052704739e-03 0.0 
0.0 0.0 -8.231036715810e-04 
1.803968687695e-04 3.742029911528e-03 0.0 
3.742029911528e-03 2.055326787370e-03 0.0 
0.0 0.0 -9.358934819731e-04 
-1.362318107691e-03 -2.168484734475e-03 0.0 
-2.168484734475e-03 4.618346883937e-03 0.0 
0.0 0.0 -1.012809740122e-03 
-6.445707195622e-05 3.204089462648e-03 0.0 
3.204089462648e-03 2.166873657449e-03 0.0 
0.0 0.0 -9.010356794969e-04 
5.513709198924e-04 3.609450072054e-03 0.0 
3.609450072054e-03 1.451733722049e-03 0.0 
0.0 0.0 -8.584734179747e-04 
-1.663785911262e-03 9.479908707512e-04 0.0 
9.479908707512e-04 6.801753296704e-03 0.0 
0.0 0.0 -1.000670320419e-03 
-1.603261119446e-03 5.580378966873e-04 0.0 
5.580378966873e-04 6.304876685805e-03 0.0 
0.0 0.0 -9.110000341593e-04 
-1.665053571431e-03 8.222814637678e-04 0.0 
8.222814637678e-04 6.156291516455e-03 0.0 
0.0 0.0 -8.984003255416e-04 
-1.378097458895e-03 -1.307048665384e-03 0.0 
-1.307048665384e-03 4.348190678149e-03 0.0 
0.0 0.0 -1.034446146726e-03 
-6.901682956972e-04 -2.185652284413e-03 0.0 
-2.185652284413e-03 4.019713840668e-03 0.0 
0.0 0.0 -1.130631056169e-03 
-1.834308716731e-04 -3.140526153133e-03 0.0 
-3.140526153133e-03 2.359250978041e-03 0.0 
0.0 0.0 -9.324943313007e-04 
-1.664409897791e-03 2.283299940873e-04 0.0 
2.283299940873e-04 6.118881933301e-03 0.0 
0.0 0.0 -8.720525204519e-04 
-1.540055594527e-03 2.603535571495e-03 0.0 
2.603535571495e-03 6.865325717395e-03 0.0 
0.0 0.0 -1.193584144721e-03 
3.472050528190e-04 1.692564590117e-03 0.0 
1.692564590117e-03 2.541247573186e-03 0.0 
0.0 0.0 -1.073433710836e-03 
-1.128039575521e-03 -2.445102979842e-03 0.0 
-2.445102979842e-03 4.119062361786e-03 0.0 
0.0 0.0 -9.841343610905e-04 
-1.618130106290e-03 8.767059940841e-04 0.0 
8.767059940841e-04 7.278368023729e-03 0.0 
0.0 0.0 -1.073677668998e-03 
-6.910390954277e-05 -2.799918663238e-03 0.0 
-2.799918663238e-03 1.917780934052e-03 0.0 
0.0 0.0 -7.922901533612e-04 
-2.515921695526e-04 -2.585539987467e-03 0.0 
-2.585539987467e-03 2.152735873912e-03 0.0 
0.0 0.0 -8.147758732969e-04 
-3.310614028043e-04 -1.379924337061e-03 0.0 
-1.379924337061e-03 1.616149347076e-03 0.0 
0.0 0.0 -5.507519761165e-04 
-5.011752582021e-04 -3.030712813107e-03 0.0 
-3.030712813107e-03 2.924383664169e-03 0.0 
0.0 0.0 -9.894786617912e-04 
-4.694395913292e-04 -2.445221033123e-03 0.0 
-2.445221033123e-03 2.569902493715e-03 0.0 
0.0 0.0 -9.001983867369e-04 
-1.710187933828e-03 4.633984892961e-04 0.0 
4.633984892961e-04 6.694041267773e-03 0.0 
0.0 0.0 -9.686535345556e-04 
-1.726289188827e-03 4.896054940225e-04 0.0 
4.896054940225e-04 6.449117765340e-03 0.0 
0.0 0.0 -9.322463471790e-04 
2.416944889244e-03 5.439879453653e-04 0.0 
5.439879453653e-04 -1.208818724836e-03 0.0 
0.0 0.0 -5.177683561747e-04 
-1.928901237433e-04 -2.408049599402e-03 0.0 
-2.408049599402e-03 1.916746904624e-03 0.0 
0.0 0.0 -7.387957632348e-04 
2.990366271950e-03 1.613745370932e-03 0.0 
1.613745370932e-03 -1.371577636674e-03 0.0 
0.0 0.0 -6.937665579755e-04 
-3.910486537431e-04 -2.315216698545e-03 0.0 
-2.315216698545e-03 2.304304739270e-03 0.0 
0.0 0.0 -8.199668937971e-04 
-2.230223782308e-04 -2.682222528879e-03 0.0 
-2.682222528879e-03 2.152181418268e-03 0.0 
0.0 0.0 -8.267824457303e-04 
-4.073029906979e-04 -1.294483440297e-03 0.0 
-1.294483440297e-03 1.772331589387e-03 0.0 
0.0 0.0 -5.850122565809e-04 
-4.258807302887e-04 -2.144389728424e-03 0.0 
-2.144389728424e-03 3.478718025925e-03 0.0 
0.0 0.0 -1.101849228969e-03 
4.193172772845e-04 -3.233569204744e-03 0.0 
-3.233569204744e-03 1.400177349689e-03 0.0 
0.0 0.0 -7.797834115600e-04 
-1.646879822787e-03 4.813878958504e-04 0.0 
4.813878958504e-04 7.564621706005e-03 0.0 
0.0 0.0 -1.107989045227e-03 
6.164328486864e-04 -3.141645067701e-03 0.0 
-3.141645067701e-03 1.094713369857e-03 0.0 
0.0 0.0 -7.333483793757e-04 
-5.352671715167e-04 -2.920481306985e-03 0.0 
-2.920481306985e-03 2.976534494236e-03 0.0 
0.0 0.0 -9.268471029391e-04 
3.090740504693e-05 -3.263078096127e-03 0.0 
-3.263078096127e-03 2.029516789361e-03 0.0 
0.0 0.0 -8.830389404604e-04 
1.224821345307e-03 3.216271527602e-03 0.0 
3.216271527602e-03 4.534564749945e-04 0.0 
0.0 0.0 -7.192619229864e-04 
-4.591680976874e-04 -1.267727629031e-03 0.0 
-1.267727629031e-03 1.902437159688e-03 0.0 
0.0 0.0 -6.185438837147e-04 
-8.295759423418e-04 -1.747729159177e-03 0.0 
-1.747729159177e-03 4.457598420488e-03 0.0 
0.0 0.0 -1.161691925552e-03 
-8.640451209017e-04 -2.074084677624e-03 0.0 
-2.074084677624e-03 4.658509439049e-03 0.0 
0.0 0.0 -1.198716319349e-03 
-6.013355258858e-04 3.714306523016e-03 0.0 
3.714306523016e-03 3.360817493125e-03 0.0 
0.0 0.0 -9.650368815299e-04 
-1.923559704036e-05 -2.994572033542e-03 0.0 
-2.994572033542e-03 1.948727475502e-03 0.0 
0.0 0.0 -8.269250907692e-04 
-2.503696762219e-04 -3.166835997765e-03 0.0 
-3.166835997765e-03 2.485701371906e-03 0.0 
0.0 0.0 -9.354962741733e-04 
-1.647815013080e-03 8.021683468908e-04 0.0 
8.021683468908e-04 6.643407279142e-03 0.0 
0.0 0.0 -9.708520278613e-04 
-3.181114656463e-04 -2.713015915343e-03 0.0 
-2.713015915343e-03 2.377429006136e-03 0.0 
0.0 0.0 -8.825646602100e-04 
7.116670481849e-04 3.351796189116e-03 0.0 
3.351796189116e-03 1.105566406541e-03 0.0 
0.0 0.0 -7.788143377395e-04 
-5.501781971430e-04 -1.884487968291e-03 0.0 
-1.884487968291e-03 2.464549120431e-03 0.0 
0.0 0.0 -8.204446814089e-04 
9.957483789486e-04 -2.931560812442e-03 0.0 
-2.931560812442e-03 3.486105119444e-04 0.0 
0.0 0.0 -5.761538103827e-04 
1.170702144068e-04 -2.917551374595e-03 0.0 
-2.917551374595e-03 1.660101911363e-03 0.0 
0.0 0.0 -7.616451967584e-04 
-5.960830469200e-04 -1.478493121431e-03 0.0 
-1.478493121431e-03 2.390521820873e-03 0.0 
0.0 0.0 -7.690451888369e-04 
-7.193147455851e-04 -1.069003876046e-03 0.0 
-1.069003876046e-03 2.479314286133e-03 0.0 
0.0 0.0 -6.849754419779e-04 
-1.850126680382e-05 -3.140240111362e-03 0.0 
-3.140240111362e-03 2.040450553655e-03 0.0 
0.0 0.0 -8.665496943648e-04 
-8.517286139436e-04 -2.699031265188e-03 0.0 
-2.699031265188e-03 3.572094775893e-03 0.0 
0.0 0.0 -9.554846610150e-04 
-9.258628841067e-04 3.334973100130e-03 0.0 
3.334973100130e-03 4.800766489173e-03 0.0 
0.0 0.0 -1.128610778606e-03 
1.795476015728e-03 -3.745896555992e-04 0.0 
-3.745896555992e-04 -4.681407310308e-04 0.0 
0.0 0.0 -1.007271482096e-04 
1.477477984760e-03 -2.160820890410e-03 0.0 
-2.160820890410e-03 -1.640262078733e-04 0.0 
0.0 0.0 -5.629079043802e-04 
9.457248714060e-04 -2.859194649623e-03 0.0 
-2.859194649623e-03 6.047505636496e-04 0.0 
0.0 0.0 -6.644894721667e-04 
2.064739481844e-04 -3.194226446081e-03 0.0 
-3.194226446081e-03 1.689929388459e-03 0.0 
0.0 0.0 -8.127442871328e-04 
-1.656928892650e-03 8.151295774597e-04 0.0 
8.151295774597e-04 6.399838907814e-03 0.0 
0.0 0.0 -9.344164207832e-04 
2.545948249673e-04 -3.270064507394e-03 0.0 
-3.270064507394e-03 1.662466157556e-03 0.0 
0.0 0.0 -8.215975639385e-04 
-6.717590179400e-04 -1.743398916895e-03 0.0 
-1.743398916895e-03 2.730040439290e-03 0.0 
0.0 0.0 -8.821206091502e-04 
2.940147133768e-04 -2.953116785718e-03 0.0 
-2.953116785718e-03 1.404914365559e-03 0.0 
0.0 0.0 -7.281124624012e-04 
-1.597640344519e-03 6.950049643667e-04 0.0 
6.950049643667e-04 7.352823299798e-03 0.0 
0.0 0.0 -1.080452943103e-03 
-7.063133806754e-04 -1.717335593378e-03 0.0 
-1.717335593378e-03 2.816704678048e-03 0.0 
0.0 0.0 -9.044534131596e-04 
-1.993759384210e-04 -8.715145545495e-04 0.0 
-8.715145545495e-04 1.025473523807e-03 0.0 
0.0 0.0 -3.540418223084e-04 
-3.396899465816e-04 -1.001666654583e-03 0.0 
-1.001666654583e-03 1.438762041900e-03 0.0 
0.0 0.0 -4.710308979937e-04 
8.199892085620e-04 -2.799788621547e-03 0.0 
-2.799788621547e-03 6.522727846800e-04 0.0 
0.0 0.0 -6.309694256751e-04 
9.078868863824e-06 -2.738074417405e-03 0.0 
-2.738074417405e-03 1.733216879781e-03 0.0 
0.0 0.0 -7.466981779906e-04 
1.103409613190e-03 -2.545332485906e-03 0.0 
-2.545332485906e-03 3.291592924430e-04 0.0 
0.0 0.0 -6.139581024141e-04 
4.609298661722e-04 -2.917080397583e-03 0.0 
-2.917080397583e-03 1.153463791195e-03 0.0 
0.0 0.0 -6.918829960147e-04 
6.174604848126e-04 -2.601794133831e-03 0.0 
-2.601794133831e-03 7.903429974379e-04 0.0 
0.0 0.0 -6.033443495359e-04 
-4.149645807323e-04 -9.518115957765e-04 0.0 
-9.518115957765e-04 1.570452979312e-03 0.0 
0.0 0.0 -4.579617190245e-04 
-1.800428115941e-03 6.964731656622e-04 0.0 
6.964731656622e-04 6.067707299324e-03 0.0 
0.0 0.0 -8.885078876198e-04 
-6.431842488821e-04 -1.481881899324e-03 0.0 
-1.481881899324e-03 2.527966751562e-03 0.0 
0.0 0.0 -8.077639297199e-04 
-3.542476587942e-04 -1.933324559496e-03 0.0 
-1.933324559496e-03 3.366073220136e-03 0.0 
0.0 0.0 -1.067401112627e-03 
-7.301428169590e-04 3.365159558875e-03 0.0 
3.365159558875e-03 4.241956460408e-03 0.0 
0.0 0.0 -1.093380752811e-03 
-1.742519381031e-03 2.013539484841e-03 0.0 
2.013539484841e-03 5.514346305573e-03 0.0 
0.0 0.0 -9.013836717722e-04 
-1.638703746775e-03 1.447396884762e-03 0.0 
1.447396884762e-03 7.437681461836e-03 0.0 
0.0 0.0 -1.126084317643e-03 
-1.069717058735e-03 3.316002143618e-03 0.0 
3.316002143618e-03 5.313047036020e-03 0.0 
0.0 0.0 -1.164310864388e-03 
2.494431731371e-03 1.270414999422e-03 0.0 
1.270414999422e-03 -1.135062232485e-03 0.0 
0.0 0.0 -5.825869280942e-04 
-6.518857880869e-04 3.512796865886e-03 0.0 
3.512796865886e-03 3.785510000148e-03 0.0 
0.0 0.0 -1.029042339204e-03 
9.845026743479e-04 -3.000223110364e-03 0.0 
-3.000223110364e-03 4.820355227438e-04 0.0 
0.0 0.0 -6.285163701822e-04 
9.169108146697e-06 -3.021931346183e-03 0.0 
-3.021931346183e-03 1.914436153364e-03 0.0 
0.0 0.0 -8.244022549332e-04 
1.935620549985e-03 2.666280335606e-03 0.0 
2.666280335606e-03 -6.114645168814e-04 0.0 
0.0 0.0 -5.674954427585e-04 
2.434658683002e-03 -2.349214516508e-03 0.0 
-2.349214516508e-03 -7.291186468832e-04 0.0 
0.0 0.0 -7.309457297651e-04 
8.115117363057e-04 -2.741951264447e-03 0.0 
-2.741951264447e-03 6.655581968644e-04 0.0 
0.0 0.0 -6.330299713586e-04 
-4.450599208505e-04 -2.552111804523e-03 0.0 
-2.552111804523e-03 2.573524769895e-03 0.0 
0.0 0.0 -9.121992210190e-04 
7.181167573208e-04 -2.648058741041e-03 0.0 
-2.648058741041e-03 7.077719066917e-04 0.0 
0.0 0.0 -6.110951417196e-04 
8.603807904587e-04 -2.481932762305e-03 0.0 
-2.481932762305e-03 4.907815371097e-04 0.0 
0.0 0.0 -5.790695689579e-04 
-7.220048660239e-04 -1.343093892557e-03 0.0 
-1.343093892557e-03 2.702939106315e-03 0.0 
0.0 0.0 -8.489718172674e-04 
4.166245934909e-04 -3.209488587121e-03 0.0 
-3.209488587121e-03 1.389160896237e-03 0.0 
0.0 0.0 -7.739080670262e-04 
1.094305293400e-03 -2.135240774913e-03 0.0 
-2.135240774913e-03 1.298780956037e-04 0.0 
0.0 0.0 -5.246500238586e-04 
1.735397459642e-03 -1.790668401916e-03 0.0 
-1.790668401916e-03 -5.241960348096e-04 0.0 
0.0 0.0 -5.190863249281e-04 
-2.953118235534e-05 -2.621242279383e-03 0.0 
-2.621242279383e-03 1.729246141722e-03 0.0 
0.0 0.0 -7.284492682998e-04 
9.068086297483e-04 -1.885631159827e-04 0.0 
-1.885631159827e-04 1.202081875786e-03 0.0 
0.0 0.0 -9.038102166577e-04 
-1.735518635242e-03 6.223275928078e-04 0.0 
6.223275928078e-04 6.851645939463e-03 0.0 
0.0 0.0 -9.984673180476e-04 
2.290762220203e-03 -1.318712250617e-03 0.0 
-1.318712250617e-03 -1.027744525883e-03 0.0 
0.0 0.0 -5.412932975660e-04 
-5.654229652914e-04 -1.684995955007e-03 0.0 
-1.684995955007e-03 3.940963543082e-03 0.0 
0.0 0.0 -1.133495712197e-03 
1.398246767020e-03 -3.216441844472e-03 0.0 
-3.216441844472e-03 9.154783719246e-05 0.0 
0.0 0.0 -6.384834018056e-04 
-5.648051924757e-04 -1.107091868774e-03 0.0 
-1.107091868774e-03 4.182104582450e-03 0.0 
0.0 0.0 -1.208505026952e-03 
7.869283801720e-04 -2.957311971993e-03 0.0 
-2.957311971993e-03 8.055017795032e-04 0.0 
0.0 0.0 -6.824700684322e-04 
-1.163518298392e-03 3.423968427013e-03 0.0 
3.423968427013e-03 5.864548636599e-03 0.0 
0.0 0.0 -1.203459118631e-03 
-1.226888468028e-03 3.131439724330e-03 0.0 
3.131439724330e-03 4.473148429932e-03 0.0 
0.0 0.0 -9.144069900286e-04 
8.146311757364e-04 -2.866044643526e-03 0.0 
-2.866044643526e-03 7.279520038073e-04 0.0 
0.0 0.0 -6.611070769473e-04 
-1.669436221743e-03 2.273068641771e-03 0.0 
2.273068641771e-03 5.485810747731e-03 0.0 
0.0 0.0 -9.292863832265e-04 
-1.634774651159e-03 1.926043724267e-03 0.0 
1.926043724267e-03 7.350223961808e-03 0.0 
0.0 0.0 -1.148369591821e-03 
9.266283371582e-04 -2.700818447501e-03 0.0 
-2.700818447501e-03 5.423083712425e-04 0.0 
0.0 0.0 -6.295443036003e-04 
1.446287545932e-03 3.073556646394e-03 0.0 
3.073556646394e-03 1.275065551695e-04 0.0 
0.0 0.0 -6.744831861864e-04 
-1.574055992192e-03 2.506613091125e-03 0.0 
2.506613091125e-03 5.429733742182e-03 0.0 
0.0 0.0 -9.572423940436e-04 
2.774777350088e-04 3.373231360525e-03 0.0 
3.373231360525e-03 1.692140773898e-03 0.0 
0.0 0.0 -8.441222181028e-04 
6.686313295052e-04 -2.714647588195e-03 0.0 
-2.714647588195e-03 7.978373867195e-04 0.0 
0.0 0.0 -6.284865926677e-04 
-1.493705396886e-03 1.751261100369e-03 0.0 
1.751261100369e-03 8.145178326217e-03 0.0 
0.0 0.0 -1.259077240559e-03 
2.909241618845e-04 -2.201062680806e-03 0.0 
-2.201062680806e-03 9.491865650592e-04 0.0 
0.0 0.0 -5.314760258330e-04 
-1.393014638960e-04 7.789838351986e-04 0.0 
7.789838351986e-04 3.592179503210e-03 0.0 
0.0 0.0 -1.194426649262e-03 
-1.554233915862e-03 9.163364700516e-04 0.0 
9.163364700516e-04 7.887220632938e-03 0.0 
0.0 0.0 -1.175981821618e-03 
7.026255322913e-04 -6.834983021250e-04 0.0 
-6.834983021250e-04 1.598542050998e-03 0.0 
0.0 0.0 -9.862146785524e-04 
-1.631602720906e-03 6.968439340323e-04 0.0 
6.968439340323e-04 6.226177705545e-03 0.0 
0.0 0.0 -9.041796124736e-04 
-1.724067531766e-03 9.331717393615e-04 0.0 
9.331717393615e-04 7.373782435820e-03 0.0 
0.0 0.0 -1.094228678348e-03 
1.385482593825e-03 -2.030831099799e-03 0.0 
-2.030831099799e-03 -2.112692183438e-04 0.0 
0.0 0.0 -5.032343037776e-04 
1.999660538583e-03 5.238969397191e-04 0.0 
5.238969397191e-04 -8.881969286874e-04 0.0 
0.0 0.0 -4.763415470983e-04 
-1.569811974871e-03 1.587727422304e-03 0.0 
1.587727422304e-03 7.784527269149e-03 0.0 
0.0 0.0 -1.191782302182e-03 
-9.330696091187e-04 -2.330125100931e-03 0.0 
-2.330125100931e-03 4.026828994110e-03 0.0 
0.0 0.0 -1.021464098896e-03 
-1.750430558126e-03 7.997395592586e-04 0.0 
7.997395592586e-04 6.994945578504e-03 0.0 
0.0 0.0 -1.028225029406e-03 
5.898974709842e-04 -1.490603234069e-03 0.0 
-1.490603234069e-03 1.573546015772e-03 0.0 
0.0 0.0 -9.271900657525e-04 
1.226199290364e-03 -3.133713578343e-03 0.0 
-3.133713578343e-03 4.720804484946e-04 0.0 
0.0 0.0 -7.278341737966e-04 
-1.755813224466e-03 9.900590192067e-04 0.0 
9.900590192067e-04 7.121505765451e-03 0.0 
0.0 0.0 -1.057861461704e-03 
-1.020230912339e-03 3.255501544884e-03 0.0 
3.255501544884e-03 5.845285965923e-03 0.0 
0.0 0.0 -1.268085107495e-03 
-8.098027228146e-04 -1.517662878241e-03 0.0 
-1.517662878241e-03 4.547334409745e-03 0.0 
0.0 0.0 -1.202195648613e-03 
7.610076650519e-05 -3.235453866840e-03 0.0 
-3.235453866840e-03 1.932455716982e-03 0.0 
0.0 0.0 -8.608099214947e-04 
-1.689275270792e-03 3.359122450795e-04 0.0 
3.359122450795e-04 6.273459191033e-03 0.0 
0.0 0.0 -9.020111041354e-04 
-1.632588233776e-03 6.974904632293e-04 0.0 
6.974904632293e-04 5.987209936235e-03 0.0 
0.0 0.0 -8.677534307045e-04 
6.088392128265e-04 -2.822537476632e-03 0.0 
-2.822537476632e-03 9.202084504230e-04 0.0 
0.0 0.0 -6.553061413926e-04 
-6.443122983676e-04 -2.499706879338e-03 0.0 
-2.499706879338e-03 3.462729029903e-03 0.0 
0.0 0.0 -9.927925938929e-04 
-4.755079025855e-04 -2.238751106190e-03 0.0 
-2.238751106190e-03 3.389731406328e-03 0.0 
0.0 0.0 -1.030113165296e-03 
-2.437047899643e-04 -1.231397142334e-03 0.0 
-1.231397142334e-03 1.345917923955e-03 0.0 
0.0 0.0 -4.426674065645e-04 
2.847402133071e-03 1.832321194303e-03 0.0 
1.832321194303e-03 -1.311219245011e-03 0.0 
0.0 0.0 -6.583640948828e-04 
2.391065633377e-03 -7.030644689003e-04 0.0 
-7.030644689003e-04 -1.190042454993e-03 0.0 
0.0 0.0 -5.147242193072e-04 
1.968235762107e-03 -1.858343853594e-03 0.0 
-1.858343853594e-03 -8.473461408074e-04 0.0 
0.0 0.0 -4.803812662710e-04 
7.235144373202e-04 3.006853977664e-03 0.0 
3.006853977664e-03 8.982936940798e-04 0.0 
0.0 0.0 -6.950606277429e-04 
-1.594047644543e-03 1.198778980109e-03 0.0 
1.198778980109e-03 8.076345274144e-03 0.0 
0.0 0.0 -1.225426844749e-03 
-1.544957883650e-03 2.714187828761e-03 0.0 
2.714187828761e-03 6.803087963728e-03 0.0 
0.0 0.0 -1.162686153705e-03 
-1.603786220280e-03 5.743670581703e-04 0.0 
5.743670581703e-04 7.933574954986e-03 0.0 
0.0 0.0 -1.173632101657e-03 
-3.176362262569e-04 3.157680560962e-03 0.0 
3.157680560962e-03 2.644961507973e-03 0.0 
0.0 0.0 -9.922833334649e-04 
-1.686655624371e-03 1.762581410411e-03 0.0 
1.762581410411e-03 7.001695775819e-03 0.0 
0.0 0.0 -1.082713561900e-03 
-8.312311815285e-04 -2.893135141048e-03 0.0 
-2.893135141048e-03 3.527094208899e-03 0.0 
0.0 0.0 -1.005652543148e-03 
-1.566323459329e-03 1.337573114455e-03 0.0 
1.337573114455e-03 7.933955714899e-03 0.0 
0.0 0.0 -1.198415070424e-03 
-1.781797660459e-03 1.042297273604e-03 0.0 
1.042297273604e-03 6.860193468522e-03 0.0 
0.0 0.0 -1.021631336281e-03 
1.651541321597e-04 -3.069309819670e-03 0.0 
-3.069309819670e-03 1.677218775847e-03 0.0 
0.0 0.0 -7.895883891459e-04 
2.729895556258e-03 -3.816222067231e-05 0.0 
-3.816222067231e-05 -1.329892949249e-03 0.0 
0.0 0.0 -6.000011172896e-04 
-1.678629276342e-03 1.301261135869e-03 0.0 
1.301261135869e-03 7.071604861536e-03 0.0 
0.0 0.0 -1.060111126929e-03 
-1.674561038714e-03 1.060445620383e-03 0.0 
1.060445620383e-03 7.740408073351e-03 0.0 
0.0 0.0 -1.160283895044e-03 
-1.648358362413e-03 1.080960708592e-03 0.0 
1.080960708592e-03 7.188263314287e-03 0.0 
0.0 0.0 -1.066842251349e-03 
-1.675485628863e-03 1.117801916471e-03 0.0 
1.117801916471e-03 6.945334177936e-03 0.0 
0.0 0.0 -1.030428295937e-03 
-9.047694827226e-04 -1.891564198184e-03 0.0 
-1.891564198184e-03 4.463027696646e-03 0.0 
0.0 0.0 -1.124756152480e-03 
-3.636288725447e-05 1.185092302766e-03 0.0 
1.185092302766e-03 3.361330425582e-03 0.0 
0.0 0.0 -1.167530213646e-03 
-6.417903686716e-04 -1.936633603608e-03 0.0 
-1.936633603608e-03 3.924941189051e-03 0.0 
0.0 0.0 -1.096139997395e-03 
-6.252750457425e-04 -2.981929184320e-03 0.0 
-2.981929184320e-03 3.101913023538e-03 0.0 
0.0 0.0 -9.455690924112e-04 
-9.133871784712e-04 2.307173197510e-03 0.0 
2.307173197510e-03 3.388339270904e-03 0.0 
0.0 0.0 -8.706649152390e-04 
5.857890875911e-04 -1.165024071922e-04 0.0 
-1.165024071922e-04 1.961403903997e-03 0.0 
0.0 0.0 -1.057160997780e-03 
-1.717096850446e-03 1.897490647652e-03 0.0 
1.897490647652e-03 6.421227655064e-03 0.0 
0.0 0.0 -1.010795753303e-03 
-6.313703935137e-04 -1.096821766549e-03 0.0 
-1.096821766549e-03 2.333660856895e-03 0.0 
0.0 0.0 -7.295530557346e-04 
2.168606455157e-03 -1.381490462849e-03 0.0 
-1.381490462849e-03 -1.049895932277e-03 0.0 
0.0 0.0 -4.794473669488e-04 
1.521212506514e-03 -1.320220071534e-03 0.0 
-1.320220071534e-03 -4.274634539344e-04 0.0 
0.0 0.0 -4.687495939627e-04 
1.466355838383e-03 4.602651966615e-04 0.0 
4.602651966615e-04 -3.624189179881e-05 0.0 
0.0 0.0 -6.129059771076e-04 
2.718390450017e-03 -6.950340879152e-04 0.0 
-6.950340879152e-04 -1.327258381844e-03 0.0 
0.0 0.0 -5.961994577885e-04 
2.586833026508e-03 -8.035069926998e-04 0.0 
-8.035069926998e-04 -1.237368745637e-03 0.0 
0.0 0.0 -5.783418346592e-04 
1.064335855090e-03 3.871345564871e-04 0.0 
3.871345564871e-04 8.878223967010e-04 0.0 
0.0 0.0 -8.366392507678e-04 
-8.479776809358e-04 2.867626528881e-03 0.0 
2.867626528881e-03 3.485177703647e-03 0.0 
0.0 0.0 -9.312627088267e-04 
-1.048673303190e-04 -3.229543423404e-03 0.0 
-3.229543423404e-03 2.260338218225e-03 0.0 
0.0 0.0 -9.237732376742e-04 
-1.787010102696e-03 8.860662194747e-04 0.0 
8.860662194747e-04 6.472161902549e-03 0.0 
0.0 0.0 -9.556638187253e-04 
-1.534511977861e-03 4.226734842399e-04 0.0 
4.226734842399e-04 5.386267654424e-03 0.0 
0.0 0.0 -7.638029664831e-04 
2.694004404959e-04 1.692225150283e-03 0.0 
1.692225150283e-03 6.665564429896e-04 0.0 
0.0 0.0 -4.011243786367e-04 
-2.485044760616e-04 -3.138222606519e-03 0.0 
-3.138222606519e-03 2.491915244985e-03 0.0 
0.0 0.0 -9.614617581102e-04 
5.241395104488e-04 -3.820643100564e-04 0.0 
-3.820643100564e-04 1.948070463321e-03 0.0 
0.0 0.0 -1.051835763028e-03 
-1.541512456067e-03 2.665389691955e-03 0.0 
2.665389691955e-03 7.146978989113e-03 0.0 
0.0 0.0 -1.196871286280e-03 
2.182111420875e-03 6.070828475979e-04 0.0 
6.070828475979e-04 -1.164368423359e-03 0.0 
0.0 0.0 -4.361755703639e-04 
-3.379696423289e-04 -3.147707957552e-03 0.0 
-3.147707957552e-03 2.662191701970e-03 0.0 
0.0 0.0 -9.747355338013e-04 
-1.758283285419e-03 6.606645787396e-04 0.0 
6.606645787396e-04 6.605527542412e-03 0.0 
0.0 0.0 -9.620958722924e-04 
2.572595780151e-04 1.907531255629e-03 0.0 
1.907531255629e-03 8.125007966372e-04 0.0 
0.0 0.0 -4.584687319938e-04 
7.215561543483e-04 7.088538436549e-05 0.0 
7.088538436549e-05 1.489224739350e-03 0.0 
0.0 0.0 -9.474775258707e-04 
1.699588376700e-03 -2.701395224992e-04 0.0 
-2.701395224992e-04 -6.431195081869e-04 0.0 
0.0 0.0 -4.527723722201e-04 
-1.123050040693e-03 2.722320328238e-03 0.0 
2.722320328238e-03 3.963607121214e-03 0.0 
0.0 0.0 -8.880452441696e-04 
-6.861996964777e-04 -2.718033399413e-03 0.0 
-2.718033399413e-03 3.467552900927e-03 0.0 
0.0 0.0 -1.027225276160e-03 
2.084513055480e-03 -2.969236307345e-03 0.0 
-2.969236307345e-03 -6.426223811324e-04 0.0 
0.0 0.0 -6.179531461491e-04 
-5.320903479306e-04 -2.451811030805e-03 0.0 
-2.451811030805e-03 3.446359028726e-03 0.0 
0.0 0.0 -1.064556537081e-03 
-5.475761825290e-04 -1.405154027486e-03 0.0 
-1.405154027486e-03 4.014926747039e-03 0.0 
0.0 0.0 -1.170878753521e-03 
8.694157167214e-04 5.959603823475e-04 0.0 
5.959603823475e-04 1.083517633446e-03 0.0 
0.0 0.0 -8.369714357860e-04 
-1.720938074938e-03 7.528205405103e-04 0.0 
7.528205405103e-04 7.239876321155e-03 0.0 
0.0 0.0 -1.064574987933e-03 
-2.581275539260e-04 2.774157829489e-03 0.0 
2.774157829489e-03 3.637568838645e-03 0.0 
0.0 0.0 -1.082686220397e-03 
-6.278749381159e-04 -1.931446236287e-03 0.0 
-1.931446236287e-03 4.088424354687e-03 0.0 
0.0 0.0 -1.168035910845e-03 
7.662032872175e-05 1.799978139758e-03 0.0 
1.799978139758e-03 1.016865245771e-03 0.0 
0.0 0.0 -4.686366747828e-04 
-1.772766923136e-03 8.481702159287e-04 0.0 
8.481702159287e-04 6.740907635403e-03 0.0 
0.0 0.0 -9.919185416031e-04 
-2.292199257427e-04 1.889849914101e-03 0.0 
1.889849914101e-03 3.718845686110e-03 0.0 
0.0 0.0 -1.173906618061e-03 
-1.648981142695e-03 1.259232254070e-03 0.0 
1.259232254070e-03 7.322595481216e-03 0.0 
0.0 0.0 -1.096489272820e-03 
1.160861635041e-03 6.400460397782e-04 0.0 
6.400460397782e-04 2.605650516831e-04 0.0 
0.0 0.0 -6.091828657389e-04 
2.574979574883e-03 -1.390903072999e-04 0.0 
-1.390903072999e-04 -1.282434716650e-03 0.0 
0.0 0.0 -5.539477963855e-04 
-1.116067155649e-03 -2.250326754200e-03 0.0 
-2.250326754200e-03 3.947993630682e-03 0.0 
0.0 0.0 -1.025516461270e-03 
1.249937303602e-03 3.552940721610e-04 0.0 
3.552940721610e-04 -1.039148958258e-03 0.0 
0.0 0.0 -9.033786229012e-05 
-1.613458135024e-03 1.210057674443e-03 0.0 
1.210057674443e-03 7.562124248112e-03 0.0 
0.0 0.0 -1.132911322290e-03 
-7.377235371559e-04 -9.591054036843e-04 0.0 
-9.591054036843e-04 2.612387194917e-03 0.0 
0.0 0.0 -8.013069569330e-04 
-1.500810255742e-04 1.675008285432e-03 0.0 
1.675008285432e-03 1.366929482546e-03 0.0 
0.0 0.0 -5.215064815592e-04 
-3.658200529699e-04 3.020199158602e-03 0.0 
3.020199158602e-03 3.713742958922e-03 0.0 
0.0 0.0 -1.054483161448e-03 
-1.538001914897e-03 1.084053552084e-03 0.0 
1.084053552084e-03 8.041309965801e-03 0.0 
0.0 0.0 -1.206783194404e-03 
1.727844094968e-03 -3.343181964838e-03 0.0 
-3.343181964838e-03 -2.401420928011e-04 0.0 
0.0 0.0 -6.375865723573e-04 
-2.167964077171e-04 3.747756050696e-03 0.0 
3.747756050696e-03 2.648111889763e-03 0.0 
0.0 0.0 -9.072936044704e-04 
-1.701887886532e-03 1.344630388867e-03 0.0 
1.344630388867e-03 6.812020791196e-03 0.0 
0.0 0.0 -1.023814440555e-03 
-4.458873681724e-04 -2.966430795108e-03 0.0 
-2.966430795108e-03 2.822625691825e-03 0.0 
0.0 0.0 -1.018602138708e-03 
2.635787731545e-03 -1.799593391660e-03 0.0 
-1.799593391660e-03 -1.225014149329e-03 0.0 
0.0 0.0 -6.046172495213e-04 
1.631098457746e-03 2.876803562451e-03 0.0 
2.876803562451e-03 -2.192512757881e-04 0.0 
0.0 0.0 -6.050773636963e-04 
9.159182720240e-04 -2.840057079041e-03 0.0 
-2.840057079041e-03 6.236111220924e-04 0.0 
0.0 0.0 -6.597983117642e-04 
1.988952410622e-03 -2.773207495313e-03 0.0 
-2.773207495313e-03 -3.142881963505e-04 0.0 
0.0 0.0 -7.177132346876e-04 
1.648220485470e-03 -3.321848158051e-03 0.0 
-3.321848158051e-03 2.024080431041e-04 0.0 
0.0 0.0 -7.931265122462e-04 
1.705098340266e-03 6.558868029328e-04 0.0 
6.558868029328e-04 -6.969008095806e-04 0.0 
0.0 0.0 -4.320846560080e-04 
-1.468520801646e-03 2.285525207987e-03 0.0 
2.285525207987e-03 8.442456052557e-03 0.0 
0.0 0.0 -1.324146187826e-03 
-3.956257745020e-04 1.730887625779e-03 0.0 
1.730887625779e-03 1.977050055323e-03 0.0 
0.0 0.0 -6.777532632091e-04 
-1.125863067977e-03 -1.827974217199e-03 0.0 
-1.827974217199e-03 4.964930907455e-03 0.0 
0.0 0.0 -1.153422328581e-03 
2.868285214674e-03 1.352379803766e-03 0.0 
1.352379803766e-03 -1.299848991907e-03 0.0 
0.0 0.0 -6.721869526143e-04 
-1.802402553613e-03 1.096854962503e-03 0.0 
1.096854962503e-03 6.595527473872e-03 0.0 
0.0 0.0 -9.856407671940e-04 
1.971085959338e-03 3.239399902758e-04 0.0 
3.239399902758e-04 -1.217941390756e-03 0.0 
0.0 0.0 -3.227762436777e-04 
-6.307118357170e-04 -1.642290149673e-03 0.0 
-1.642290149673e-03 4.191316448183e-03 0.0 
0.0 0.0 -1.206759618350e-03 
1.281188306004e-03 -3.309115169896e-03 0.0 
-3.309115169896e-03 2.482805933930e-04 0.0 
0.0 0.0 -6.554866711701e-04 
-8.580919722624e-04 -1.141606507875e-03 0.0 
-1.141606507875e-03 3.004910753851e-03 0.0 
0.0 0.0 -8.925927511852e-04 
6.775973206905e-04 1.090261256499e-03 0.0 
1.090261256499e-03 1.554850184539e-03 0.0 
0.0 0.0 -9.567632165269e-04 
9.810193940895e-04 -2.270636417532e-03 0.0 
-2.270636417532e-03 2.960510298287e-04 0.0 
0.0 0.0 -5.473158959649e-04 
3.899080625909e-05 1.591876067608e-03 0.0 
1.591876067608e-03 3.206945282166e-03 0.0 
0.0 0.0 -1.139062866688e-03 
6.623861865506e-04 3.094490503078e-03 0.0 
3.094490503078e-03 1.014638708619e-03 0.0 
0.0 0.0 -7.187249550728e-04 
-1.786253758345e-03 1.560633333520e-03 0.0 
1.560633333520e-03 6.766601134335e-03 0.0 
0.0 0.0 -1.044446328659e-03 
-2.152386475275e-04 1.351101504798e-03 0.0 
1.351101504798e-03 3.486323150058e-03 0.0 
0.0 0.0 -1.198892520503e-03 
-1.697142570711e-03 1.154161816812e-03 0.0 
1.154161816812e-03 6.693519511439e-03 0.0 
0.0 0.0 -9.940794652285e-04 
-1.618144651602e-03 2.389450829648e-03 0.0 
2.389450829648e-03 7.197343605865e-03 0.0 
0.0 0.0 -1.194784139986e-03 
-1.753520328123e-03 1.193661618907e-03 0.0 
1.193661618907e-03 7.230580119665e-03 0.0 
0.0 0.0 -1.087318097122e-03 
-1.742396685637e-03 1.406428765971e-03 0.0 
1.406428765971e-03 7.327343743658e-03 0.0 
0.0 0.0 -1.116677092124e-03 
2.275785242891e-03 2.632435729676e-03 0.0 
2.632435729676e-03 -9.199828087608e-04 0.0 
0.0 0.0 -5.810581860556e-04 
-1.241644556097e-03 -1.898381689041e-03 0.0 
-1.898381689041e-03 4.975895501890e-03 0.0 
0.0 0.0 -1.115908039155e-03 
-1.698919862003e-03 1.546534393052e-03 0.0 
1.546534393052e-03 6.917732160494e-03 0.0 
0.0 0.0 -1.053364550114e-03 
1.868987763194e-03 2.227953552638e-03 0.0 
2.227953552638e-03 -6.775743179747e-04 0.0 
0.0 0.0 -5.106057622367e-04 
-6.587012442941e-04 1.777273701504e-03 0.0 
1.777273701504e-03 2.655555522869e-03 0.0 
0.0 0.0 -8.209451439681e-04 
-3.975005523331e-04 1.166939029163e-03 0.0 
1.166939029163e-03 4.024011475053e-03 0.0 
0.0 0.0 -1.232292820449e-03 
2.869313435600e-03 1.110657499061e-03 0.0 
1.110657499061e-03 -1.453214644336e-03 0.0 
0.0 0.0 -6.068994819702e-04 
-7.856974671747e-04 -1.309919738143e-03 0.0 
-1.309919738143e-03 2.807619278170e-03 0.0 
0.0 0.0 -8.201145810434e-04 
1.968962910781e-04 1.862464300239e-03 0.0 
1.862464300239e-03 2.595514694035e-03 0.0 
0.0 0.0 -1.105063927110e-03 
-7.017846764740e-04 -1.435456886112e-05 0.0 
-1.435456886112e-05 1.960630528106e-03 0.0 
0.0 0.0 -3.231071520192e-04 
7.474966936510e-04 3.481240265895e-03 0.0 
3.481240265895e-03 1.138823329650e-03 0.0 
0.0 0.0 -8.084228671290e-04 
5.678040040528e-04 5.673257875062e-04 0.0 
5.673257875062e-04 1.874262662432e-03 0.0 
0.0 0.0 -1.046599999922e-03 
-1.677286885825e-03 1.562425953110e-03 0.0 
1.562425953110e-03 7.659770185164e-03 0.0 
0.0 0.0 -1.181155146799e-03 
-1.652320647354e-03 1.808826218554e-03 0.0 
1.808826218554e-03 7.744329424571e-03 0.0 
0.0 0.0 -1.210943746944e-03 
7.584470326039e-04 3.628423669224e-04 0.0 
3.628423669224e-04 1.668047544981e-03 0.0 
0.0 0.0 -1.028825005900e-03 
-1.718024774256e-03 1.129889074764e-03 0.0 
1.129889074764e-03 7.489751701523e-03 0.0 
0.0 0.0 -1.123737208958e-03 
2.593889195352e-03 1.856767809109e-03 0.0 
1.856767809109e-03 -1.126153271608e-03 0.0 
0.0 0.0 -6.290296816045e-04 
-7.519765885532e-04 3.109043581873e-03 0.0 
3.109043581873e-03 4.411738950076e-03 0.0 
0.0 0.0 -1.062452857821e-03 
-9.715076255527e-04 1.639125050494e-03 0.0 
1.639125050494e-03 3.248586274010e-03 0.0 
0.0 0.0 -7.769695025612e-04 
-1.390466882155e-03 3.112822277327e-03 0.0 
3.112822277327e-03 6.316045090648e-03 0.0 
0.0 0.0 -1.181751882508e-03 
-1.269001708520e-03 1.478688136927e-03 0.0 
1.478688136927e-03 3.854232216412e-03 0.0 
0.0 0.0 -7.538120163098e-04 
-1.420223830458e-03 1.391784125232e-03 0.0 
1.391784125232e-03 4.161040048690e-03 0.0 
0.0 0.0 -7.332406657776e-04 
2.298674918512e-03 1.220061250636e-03 0.0 
1.220061250636e-03 -1.173783310071e-03 0.0 
0.0 0.0 -4.820964036177e-04 
-1.557422700527e-03 1.363360327043e-03 0.0 
1.363360327043e-03 4.471575651466e-03 0.0 
0.0 0.0 -7.361032999402e-04 
6.913968744153e-04 3.249644441005e-03 0.0 
3.249644441005e-03 1.296623038176e-03 0.0 
0.0 0.0 -8.520085339679e-04 
1.718973007646e-03 2.924390266821e-03 0.0 
2.924390266821e-03 -1.924867080382e-04 0.0 
0.0 0.0 -6.542084141176e-04 
2.210348991445e-03 -8.088378780929e-04 0.0 
-8.088378780929e-04 -1.123482344713e-03 0.0 
0.0 0.0 -4.657999914567e-04 
2.497491272241e-03 -1.532773257142e-03 0.0 
-1.532773257142e-03 -1.081083643723e-03 0.0 
0.0 0.0 -6.070318407937e-04 
2.586887755130e-03 6.094796342036e-04 0.0 
6.094796342036e-04 -1.311719394663e-03 0.0 
0.0 0.0 -5.465007259145e-04 
-1.601167176657e-03 1.396089815657e-03 0.0 
1.396089815657e-03 7.688892179250e-03 0.0 
0.0 0.0 -1.162517914204e-03 
-1.471528092625e-03 3.001207936412e-03 0.0 
3.001207936412e-03 6.831752371077e-03 0.0 
0.0 0.0 -1.195263893373e-03 
-1.182311321110e-03 -2.133379308242e-03 0.0 
-2.133379308242e-03 4.544787139884e-03 0.0 
0.0 0.0 -1.050100468764e-03 
-1.223721568856e-04 1.745261046552e-03 0.0 
1.745261046552e-03 3.281782845900e-03 0.0 
0.0 0.0 -1.170266998156e-03 
1.214604030940e-03 -2.155562007462e-03 0.0 
-2.155562007462e-03 9.364629533618e-05 0.0 
0.0 0.0 -5.606787112612e-04 
-1.656719624483e-03 1.711448335042e-03 0.0 
1.711448335042e-03 7.275839845738e-03 0.0 
0.0 0.0 -1.119019617531e-03 
2.359890878457e-03 -4.267964440931e-05 0.0 
-4.267964440931e-05 -1.248439169515e-03 0.0 
0.0 0.0 -4.763364466896e-04 
-1.407406798469e-03 -1.723847992245e-03 0.0 
-1.723847992245e-03 5.419782439974e-03 0.0 
0.0 0.0 -1.144395376583e-03 
-1.671654625585e-03 1.497806515934e-03 0.0 
1.497806515934e-03 7.180003972529e-03 0.0 
0.0 0.0 -1.089631904438e-03 
-1.769810542863e-03 1.479525562214e-03 0.0 
1.479525562214e-03 7.051291447038e-03 0.0 
0.0 0.0 -1.080451501872e-03 
1.020279383885e-03 1.759819708792e-05 0.0 
1.759819708792e-05 6.806225927368e-04 0.0 
0.0 0.0 -7.289579899807e-04 
2.670406423032e-03 1.253518595181e-03 0.0 
1.253518595181e-03 -1.265788156022e-03 0.0 
0.0 0.0 -6.019792572901e-04 
-8.493845713370e-04 3.018177913519e-03 0.0 
3.018177913519e-03 4.847344094450e-03 0.0 
0.0 0.0 -1.126038590206e-03 
-1.241437732376e-03 3.272568664608e-03 0.0 
3.272568664608e-03 4.414773958175e-03 0.0 
0.0 0.0 -9.324202963083e-04 
2.392506853527e-03 -2.638222039722e-03 0.0 
-2.638222039722e-03 -9.888506330534e-04 0.0 
0.0 0.0 -6.015669516317e-04 
2.802892214258e-03 -1.137304662585e-05 0.0 
-1.137304662585e-05 -1.333498735436e-03 0.0 
0.0 0.0 -6.297400623524e-04 
7.949185057269e-04 2.716848624173e-03 0.0 
2.716848624173e-03 6.207904953631e-04 0.0 
0.0 0.0 -6.067324290386e-04 
-1.563287978713e-04 3.620132007229e-03 0.0 
3.620132007229e-03 2.581411168791e-03 0.0 
0.0 0.0 -1.015946800258e-03 
-1.534351365184e-03 -1.516799222336e-03 0.0 
-1.516799222336e-03 5.828494836448e-03 0.0 
0.0 0.0 -1.173545322487e-03 
-1.782237154873e-03 1.254534813549e-03 0.0 
1.254534813549e-03 6.967044995053e-03 0.0 
0.0 0.0 -1.051102540299e-03 
2.754613032243e-03 5.835371394657e-04 0.0 
5.835371394657e-04 -1.282545286099e-03 0.0 
0.0 0.0 -6.308861769187e-04 
-6.435068013720e-04 3.480233123954e-03 0.0 
3.480233123954e-03 3.600985193807e-03 0.0 
0.0 0.0 -9.344940742331e-04 
3.980809440766e-04 1.365381173478e-04 0.0 
1.365381173478e-04 2.266784517746e-03 0.0 
0.0 0.0 -1.088599101970e-03 
-1.685240832100e-03 8.774447861184e-04 0.0 
8.774447861184e-04 7.615424303421e-03 0.0 
0.0 0.0 -1.130578931274e-03 
-1.056611405718e-03 3.085021790290e-03 0.0 
3.085021790290e-03 5.374856941272e-03 0.0 
0.0 0.0 -1.160781586281e-03 
-1.731537587415e-03 1.425159992310e-03 0.0 
1.425159992310e-03 6.282505969900e-03 0.0 
0.0 0.0 -9.517943393003e-04 
-1.629224858150e-05 -1.008868814593e-03 0.0 
-1.008868814593e-03 2.976796140904e-03 0.0 
0.0 0.0 -1.113435711030e-03 
2.175710495241e-03 -1.797462906061e-04 0.0 
-1.797462906061e-04 -1.087187483949e-03 0.0 
0.0 0.0 -4.665098619825e-04 
3.691792219411e-04 -5.499254361333e-04 0.0 
-5.499254361333e-04 2.333255494325e-03 0.0 
0.0 0.0 -1.086118700983e-03 
6.267430188437e-04 3.216016004345e-03 0.0 
3.216016004345e-03 1.125673463038e-03 0.0 
0.0 0.0 -7.510356350920e-04 
-1.659468944553e-03 1.282087032836e-03 0.0 
1.282087032836e-03 7.843512833905e-03 0.0 
0.0 0.0 -1.188704642750e-03 
-1.184759635984e-03 3.039469531493e-03 0.0 
3.039469531493e-03 5.917915895918e-03 0.0 
0.0 0.0 -1.200489323427e-03 
1.397717749359e-03 -3.084135371350e-05 0.0 
-3.084135371350e-05 -2.483823730722e-04 0.0 
0.0 0.0 -4.925723041230e-04 
2.632145634489e-03 2.594608975648e-04 0.0 
2.594608975648e-04 -1.433557919304e-03 0.0 
0.0 0.0 -5.136804493649e-04 
-3.195071874589e-04 2.949770132737e-03 0.0 
2.949770132737e-03 3.519559910753e-03 0.0 
0.0 0.0 -1.113685640909e-03 
5.151939740245e-04 3.610223291188e-03 0.0 
3.610223291188e-03 1.499767463066e-03 0.0 
0.0 0.0 -8.635549016102e-04 
2.789061016644e-03 1.329285031073e-03 0.0 
1.329285031073e-03 -1.174648499198e-03 0.0 
0.0 0.0 -6.918910789057e-04 
1.203480951529e-03 -2.452700069764e-04 0.0 
-2.452700069764e-04 3.890277914199e-04 0.0 
0.0 0.0 -6.825037469782e-04 
-1.401752245561e-04 -2.049705526548e-03 0.0 
-2.049705526548e-03 2.929158581755e-03 0.0 
0.0 0.0 -1.072977024862e-03 
2.580288745065e-03 -9.059416529247e-04 0.0 
-9.059416529247e-04 -1.319309692526e-03 0.0 
0.0 0.0 -5.404195939453e-04 
1.923073746863e-03 -4.525221159699e-05 0.0 
-4.525221159699e-05 -9.232494801660e-04 0.0 
0.0 0.0 -4.284961142987e-04 
-1.564398244357e-03 2.691343570358e-03 0.0 
2.691343570358e-03 5.384100406286e-03 0.0 
0.0 0.0 -9.596127204057e-04 
-1.615413359891e-03 -1.869412921893e-03 0.0 
-1.869412921893e-03 5.891470981236e-03 0.0 
0.0 0.0 -1.170838755190e-03 
-1.469366754309e-03 2.906743993666e-03 0.0 
2.906743993666e-03 5.300260062947e-03 0.0 
0.0 0.0 -9.876491701490e-04 
-3.947067001148e-04 3.217756852044e-03 0.0 
3.217756852044e-03 3.568382132428e-03 0.0 
0.0 0.0 -1.085374163265e-03 
-1.640677092253e-03 2.445403796559e-03 0.0 
2.445403796559e-03 5.441088956569e-03 0.0 
0.0 0.0 -9.316602363005e-04 
-1.740388366318e-03 1.924888427331e-03 0.0 
1.924888427331e-03 5.465143202308e-03 0.0 
0.0 0.0 -8.756372412555e-04 
-1.133390563237e-03 3.456670762875e-03 0.0 
3.456670762875e-03 4.264491800942e-03 0.0 
0.0 0.0 -9.452931837154e-04 
1.258865816682e-04 1.427076262396e-03 0.0 
1.427076262396e-03 2.787339061218e-03 0.0 
0.0 0.0 -1.133505030480e-03 
-1.184151913809e-03 -2.442035502192e-03 0.0 
-2.442035502192e-03 4.566403913145e-03 0.0 
0.0 0.0 -1.084522140297e-03 
-1.719906891250e-03 1.595024504340e-03 0.0 
1.595024504340e-03 6.646342255881e-03 0.0 
0.0 0.0 -1.017300281410e-03 
-1.572744207127e-03 2.077724400643e-03 0.0 
2.077724400643e-03 7.699948884985e-03 0.0 
0.0 0.0 -1.212886757924e-03 
-1.697994519952e-03 2.183604815945e-03 0.0 
2.183604815945e-03 5.469670954577e-03 0.0 
0.0 0.0 -9.037302385344e-04 
3.109518991990e-03 7.142103845853e-04 0.0 
7.142103845853e-04 -1.355577660133e-03 0.0 
0.0 0.0 -7.516891422245e-04 
-4.615783183021e-04 2.634115171252e-03 0.0 
2.634115171252e-03 4.171995570701e-03 0.0 
0.0 0.0 -1.146733564437e-03 
-1.623397737588e-03 9.830618757014e-04 0.0 
9.830618757014e-04 7.977997106224e-03 0.0 
0.0 0.0 -1.196744929305e-03 
1.210285564886e-03 2.794819533997e-03 0.0 
2.794819533997e-03 2.142507881916e-04 0.0 
0.0 0.0 -6.105155798904e-04 
7.664634744893e-04 3.055447408668e-03 0.0 
3.055447408668e-03 8.799111198642e-04 0.0 
0.0 0.0 -7.055891118658e-04 
3.026285545234e-03 6.479754984525e-04 0.0 
6.479754984525e-04 -1.309294928286e-03 0.0 
0.0 0.0 -7.358531215491e-04 
-1.707025994169e-03 1.825045050910e-03 0.0 
1.825045050910e-03 6.718430060264e-03 0.0 
0.0 0.0 -1.046609947212e-03 
1.285120213061e-04 3.160317099540e-03 0.0 
3.160317099540e-03 1.795393702842e-03 0.0 
0.0 0.0 -8.245310246350e-04 
6.213466678406e-04 3.150191375349e-03 0.0 
3.150191375349e-03 1.093887972575e-03 0.0 
0.0 0.0 -7.351005601782e-04 
1.723951590445e-04 3.402388421843e-03 0.0 
3.402388421843e-03 1.876640106691e-03 0.0 
0.0 0.0 -8.781579710297e-04 
4.568820957443e-04 1.515113560259e-03 0.0 
1.515113560259e-03 2.072520192967e-03 0.0 
0.0 0.0 -1.068254633495e-03 
-7.126619732765e-04 2.634214240334e-03 0.0 
2.634214240334e-03 4.664743447894e-03 0.0 
0.0 0.0 -1.211228670573e-03 
2.874495408011e-03 -1.147543994212e-04 0.0 
-1.147543994212e-04 -1.321663854737e-03 0.0 
0.0 0.0 -6.654992371173e-04 
1.333222057608e-03 -6.083160362555e-04 0.0 
-6.083160362555e-04 -1.046303648964e-03 0.0 
0.0 0.0 -1.229650322759e-04 
-1.560287505520e-03 2.397443585750e-03 0.0 
2.397443585750e-03 7.445606798374e-03 0.0 
0.0 0.0 -1.207184308065e-03 
-1.227743039735e-04 3.216961996269e-03 0.0 
3.216961996269e-03 2.287126095753e-03 0.0 
0.0 0.0 -9.275793393341e-04 
1.407399929741e-03 -1.790726840241e-03 0.0 
-1.790726840241e-03 -2.123508212015e-04 0.0 
0.0 0.0 -5.121639036598e-04 
-5.005943122338e-04 2.854917982027e-03 0.0 
2.854917982027e-03 4.092431792890e-03 0.0 
0.0 0.0 -1.177925372349e-03 
-1.802105864534e-03 1.325377431051e-03 0.0 
1.325377431051e-03 6.693893706785e-03 0.0 
0.0 0.0 -1.015069748350e-03 
-9.552400268193e-04 -2.590206578427e-03 0.0 
-2.590206578427e-03 4.033946220946e-03 0.0 
0.0 0.0 -1.055879354346e-03 
2.213755167184e-03 2.540569608467e-03 0.0 
2.540569608467e-03 -6.561328527755e-04 0.0 
0.0 0.0 -6.675524204610e-04 
8.596589765025e-04 -2.241190996513e-04 0.0 
-2.241190996513e-04 -8.596589765025e-04 0.0 
0.0 0.0 0.0 
-1.695761363760e-03 -1.692827267884e-03 0.0 
-1.692827267884e-03 6.306533924159e-03 0.0 
0.0 0.0 -1.202131160132e-03 
-2.109701725840e-06 3.652134540712e-03 0.0 
3.652134540712e-03 2.337584034461e-03 0.0 
0.0 0.0 -1.000917571172e-03 
6.440987285096e-04 1.846403855810e-03 0.0 
1.846403855810e-03 1.851485320469e-03 0.0 
0.0 0.0 -1.007142642412e-03 
-8.363103258721e-04 3.298399834443e-03 0.0 
3.298399834443e-03 4.744308506763e-03 0.0 
0.0 0.0 -1.157822513452e-03 
0.0 0.0 0.0 
0.0 0.0 0.0 
0.0 0.0 0.0 
-7.671375815713e-04 -2.153381723597e-03 0.0 
-2.153381723597e-03 3.958636255064e-03 0.0 
0.0 0.0 -1.058763633038e-03 
2.277342632696e-03 2.678034488429e-03 0.0 
2.678034488429e-03 -4.950023667951e-04 0.0 
0.0 0.0 -7.638601139576e-04 
-1.817865112225e-03 1.160846124058e-03 0.0 
1.160846124058e-03 6.325027627169e-03 0.0 
0.0 0.0 -9.498437721210e-04 
-6.483445776371e-04 -2.910728448364e-03 0.0 
-2.910728448364e-03 3.240421631363e-03 0.0 
0.0 0.0 -1.081826897668e-03 
2.882336660409e-03 6.507094583248e-04 0.0 
6.507094583248e-04 -1.354897536976e-03 0.0 
0.0 0.0 -6.546167671857e-04 
-1.512905320875e-03 -2.064322058959e-03 0.0 
-2.064322058959e-03 5.485314435598e-03 0.0 
0.0 0.0 -1.141635569211e-03 
5.629634582603e-04 3.291314317230e-03 0.0 
3.291314317230e-03 1.247171813043e-03 0.0 
0.0 0.0 -7.757722591300e-04 
3.097498388755e-03 7.515594805802e-04 0.0 
7.515594805802e-04 -1.504351798864e-03 0.0 
0.0 0.0 -6.827771099535e-04 
-3.950988348044e-04 3.677355835862e-03 0.0 
3.677355835862e-03 3.018937195948e-03 0.0 
0.0 0.0 -8.989548790023e-04 
1.227636575782e-03 -1.512351808794e-03 0.0 
-1.512351808794e-03 -1.085715777594e-03 0.0 
0.0 0.0 -6.082319922330e-05 
-5.120566939223e-04 3.175912523353e-03 0.0 
3.175912523353e-03 3.844622698218e-03 0.0 
0.0 0.0 -1.026417656363e-03 
5.399418997976e-04 8.396772710701e-04 0.0 
8.396772710701e-04 2.161243029461e-03 0.0 
0.0 0.0 -1.065496432940e-03 
-1.316213487934e-03 3.030027547422e-03 0.0 
3.030027547422e-03 6.243260056489e-03 0.0 
0.0 0.0 -1.233600908384e-03 
-6.242951805066e-04 3.006743678072e-03 0.0 
3.006743678072e-03 4.303063931573e-03 0.0 
0.0 0.0 -1.090749533212e-03 
3.026627229701e-03 -6.016138979488e-05 0.0 
-6.016138979488e-05 -1.354975115356e-03 0.0 
0.0 0.0 -7.164223347191e-04 
-1.354858739815e-03 -2.484739121398e-03 0.0 
-2.484739121398e-03 4.613680447839e-03 0.0 
0.0 0.0 -1.047231727503e-03 
-1.514361396418e-03 1.521820591863e-03 0.0 
1.521820591863e-03 8.031763007479e-03 0.0 
0.0 0.0 -1.228155452712e-03 
-7.050516080877e-04 1.545847486976e-03 0.0 
1.545847486976e-03 4.498069063216e-03 0.0 
0.0 0.0 -1.267145247477e-03 
2.943450069451e-04 1.256402020470e-03 0.0 
1.256402020470e-03 2.679722888331e-03 0.0 
0.0 0.0 -1.102242875413e-03 
2.428652697383e-03 1.957638321578e-03 0.0 
1.957638321578e-03 -9.445444981417e-04 0.0 
0.0 0.0 -6.360463711034e-04 
-4.362885790871e-04 3.400866484877e-03 0.0 
3.400866484877e-03 3.416922100764e-03 0.0 
0.0 0.0 -9.624716764950e-04 
-1.751273191057e-03 -1.178364827428e-03 0.0 
-1.178364827428e-03 6.153449964232e-03 0.0 
0.0 0.0 -1.164316760544e-03 
-1.510592316959e-03 -9.050842607301e-04 0.0 
-9.050842607301e-04 4.622892738446e-03 0.0 
0.0 0.0 -1.053897668350e-03 
-5.098353463404e-04 3.384769362386e-03 0.0 
3.384769362386e-03 3.650364032255e-03 0.0 
0.0 0.0 -1.057196955382e-03 
-1.719373888211e-03 1.382981273232e-03 0.0 
1.382981273232e-03 6.550039956498e-03 0.0 
0.0 0.0 -9.877098122506e-04 
-1.368682583039e-03 -2.262414624365e-03 0.0 
-2.262414624365e-03 5.045630347078e-03 0.0 
0.0 0.0 -1.112977059762e-03 
-8.018931633473e-04 -2.405053121667e-03 0.0 
-2.405053121667e-03 4.002834443873e-03 0.0 
0.0 0.0 -1.093234982489e-03 
-1.439791436846e-03 3.326807682738e-05 0.0 
3.326807682738e-05 4.943594407770e-03 0.0 
0.0 0.0 -7.313513689239e-04 
-1.427152505588e-03 6.033982237060e-05 0.0 
6.033982237060e-05 4.941916582327e-03 0.0 
0.0 0.0 -7.310574395863e-04 
-1.640756721107e-03 2.340459270020e-03 0.0 
2.340459270020e-03 5.815255979654e-03 0.0 
0.0 0.0 -9.927888931629e-04 
-4.210846566685e-04 3.601854565047e-03 0.0 
3.601854565047e-03 3.185506434217e-03 0.0 
0.0 0.0 -9.930598132463e-04 
-9.560102716365e-04 -2.664544190492e-03 0.0 
-2.664544190492e-03 3.772312719303e-03 0.0 
0.0 0.0 -1.075560717398e-03 
-1.206510850392e-03 3.047967158976e-03 0.0 
3.047967158976e-03 4.800933324251e-03 0.0 
0.0 0.0 -9.775429604617e-04 
9.349897265997e-04 2.908831422528e-03 0.0 
2.908831422528e-03 6.057047016785e-04 0.0 
0.0 0.0 -6.602976121192e-04 
-2.228664070200e-04 -2.583623366081e-04 0.0 
-2.583623366081e-04 3.335250712245e-03 0.0 
0.0 0.0 -1.180288150054e-03 
2.187201504106e-03 2.288354873068e-03 0.0 
2.288354873068e-03 -8.791309691096e-04 0.0 
0.0 0.0 -5.606016578557e-04 
-1.487430872272e-03 2.032395386043e-03 0.0 
2.032395386043e-03 8.531052034659e-03 0.0 
0.0 0.0 -1.323793839065e-03 
-1.724651487443e-03 1.733577269253e-03 0.0 
1.733577269253e-03 5.152685708698e-03 0.0 
0.0 0.0 -8.119939454945e-04 
9.559001502051e-04 3.301449321883e-03 0.0 
3.301449321883e-03 8.023167039533e-04 0.0 
0.0 0.0 -7.535215089250e-04 
-6.923989162598e-04 -2.921867110632e-03 0.0 
-2.921867110632e-03 3.238107663680e-03 0.0 
0.0 0.0 -9.778014170610e-04 
2.952487269304e-03 8.767188776773e-04 0.0 
8.767188776773e-04 -1.231732878316e-03 0.0 
0.0 0.0 -7.374661675664e-04 
-1.449260709310e-04 -3.081657457247e-03 0.0 
-3.081657457247e-03 2.244720614764e-03 0.0 
0.0 0.0 -8.999119473571e-04 
-2.467797576170e-04 3.715212164584e-03 0.0 
3.715212164584e-03 2.738719973416e-03 0.0 
0.0 0.0 -9.758126512751e-04 
-5.058945486498e-04 3.618733188483e-03 0.0 
3.618733188483e-03 3.154888480052e-03 0.0 
0.0 0.0 -9.833357802921e-04 
-1.733759676165e-03 1.654794489536e-03 0.0 
1.654794489536e-03 6.367451579884e-03 0.0 
0.0 0.0 -9.814596669550e-04 
-1.124005872780e-03 3.379084100680e-03 0.0 
3.379084100680e-03 4.616783585522e-03 0.0 
0.0 0.0 -1.008022096355e-03 
-1.207720735867e-03 2.984451381318e-03 0.0 
2.984451381318e-03 5.147076662744e-03 0.0 
0.0 0.0 -1.040850218070e-03 
2.462504755941e-04 -3.466601191775e-04 0.0 
-3.466601191775e-04 1.225957598323e-03 0.0 
0.0 0.0 -3.048810613884e-04 
-2.528363505661e-04 -3.115888982409e-03 0.0 
-3.115888982409e-03 2.486992936593e-03 0.0 
0.0 0.0 -9.574956797260e-04 
-1.072167557266e-04 3.402438706717e-03 0.0 
3.402438706717e-03 2.375040834749e-03 0.0 
0.0 0.0 -9.719246052952e-04 
-1.390405142798e-03 3.085939311603e-03 0.0 
3.085939311603e-03 4.874750960273e-03 0.0 
0.0 0.0 -9.521954671713e-04 
-1.463685875107e-03 2.723658434378e-03 0.0 
2.723658434378e-03 5.354618705334e-03 0.0 
0.0 0.0 -9.850634846466e-04 
6.151608619459e-06 9.602693822456e-04 0.0 
9.602693822456e-04 3.003172333009e-03 0.0 
0.0 0.0 -1.160108757481e-03 
-7.116028528234e-04 -3.542186094007e-05 0.0 
-3.542186094007e-05 2.109496799795e-03 0.0 
0.0 0.0 -4.489418961951e-04 
2.420991236615e-03 -1.793290854156e-03 0.0 
-1.793290854156e-03 -1.206914640352e-03 0.0 
0.0 0.0 -5.203185412556e-04 
3.220195077698e-04 3.501557464345e-03 0.0 
3.501557464345e-03 1.705209014718e-03 0.0 
0.0 0.0 -8.688122239235e-04 
-2.823129498517e-04 -2.964277233818e-03 0.0 
-2.964277233818e-03 2.454860756862e-03 0.0 
0.0 0.0 -9.310919172903e-04 
-1.415275034250e-03 1.292164494452e-03 0.0 
1.292164494452e-03 4.167269738145e-03 0.0 
0.0 0.0 -7.665650418521e-04 
-1.567864091306e-03 1.226683465556e-03 0.0 
1.226683465556e-03 4.493286725470e-03 0.0 
0.0 0.0 -7.530137074853e-04 
-1.810136366687e-03 1.412997826384e-03 0.0 
1.412997826384e-03 6.411444835685e-03 0.0 
0.0 0.0 -9.793492904611e-04 
2.087664328359e-03 2.568536785539e-03 0.0 
2.568536785539e-03 -3.889452908062e-04 0.0 
0.0 0.0 -7.280224446656e-04 
-7.741376345699e-04 -2.792621548151e-03 0.0 
-2.792621548151e-03 3.378364177398e-03 0.0 
0.0 0.0 -1.004244986112e-03 
4.531124457367e-04 -1.076750210340e-03 0.0 
-1.076750210340e-03 2.037967656610e-03 0.0 
0.0 0.0 -1.049209916622e-03 
2.297209205504e-03 -5.483206442365e-04 0.0 
-5.483206442365e-04 -1.311033635610e-03 0.0 
0.0 0.0 -4.226466728115e-04 
-1.149618319309e-03 2.959992214286e-03 0.0 
2.959992214286e-03 5.456359281312e-03 0.0 
0.0 0.0 -1.285586381397e-03 
-1.702357103576e-03 1.352649744862e-03 0.0 
1.352649744862e-03 7.576949821791e-03 0.0 
0.0 0.0 -1.152455342817e-03 
-8.320143767109e-04 -2.543685297260e-03 0.0 
-2.543685297260e-03 3.497707295059e-03 0.0 
0.0 0.0 -1.095064427584e-03 
-1.386779618523e-03 -1.910481505052e-03 0.0 
-1.910481505052e-03 5.018049845752e-03 0.0 
0.0 0.0 -1.078722419643e-03 
2.229975894309e-04 -4.489617714331e-04 0.0 
-4.489617714331e-04 5.979694486616e-04 0.0 
0.0 0.0 -2.949115613585e-04 
4.540170595140e-04 -1.645489130381e-03 0.0 
-1.645489130381e-03 1.801582255490e-03 0.0 
0.0 0.0 -9.666854207159e-04 
-6.035540888641e-05 3.789347029411e-03 0.0 
3.789347029411e-03 2.399475313532e-03 0.0 
0.0 0.0 -8.867106850074e-04 
4.160484422948e-04 -3.622442174599e-04 0.0 
-3.622442174599e-04 5.441875866839e-04 0.0 
0.0 0.0 -3.067690066256e-04 
-1.619412582140e-03 1.641534764462e-03 0.0 
1.641534764462e-03 7.530266774085e-03 0.0 
0.0 0.0 -1.154859126927e-03 
1.948099663815e-03 -7.569421743857e-04 0.0 
-7.569421743857e-04 -1.147440738389e-03 0.0 
0.0 0.0 -3.431395394681e-04 
-1.356737557429e-03 2.911706860265e-03 0.0 
2.911706860265e-03 4.923580709307e-03 0.0 
0.0 0.0 -9.496453321265e-04 
-5.843331771905e-04 3.664260117298e-03 0.0 
3.664260117298e-03 3.237703376181e-03 0.0 
0.0 0.0 -8.924259012440e-04 
1.585702125321e-03 -1.745985882028e-03 0.0 
-1.745985882028e-03 -4.551642142343e-04 0.0 
0.0 0.0 -4.845162476086e-04 
3.886198775371e-04 -2.656776709997e-03 0.0 
-2.656776709997e-03 1.521016158266e-03 0.0 
0.0 0.0 -8.184154439158e-04 
-1.604458387616e-03 1.854152015569e-03 0.0 
1.854152015569e-03 7.626319442818e-03 0.0 
0.0 0.0 -1.182898372388e-03 
1.911502030331e-04 -2.214449408558e-03 0.0 
-2.214449408558e-03 2.167051973238e-03 0.0 
0.0 0.0 -9.716005391689e-04 
4.578213256305e-04 3.411459955915e-03 0.0 
3.411459955915e-03 1.456160682634e-03 0.0 
0.0 0.0 -8.202780035418e-04 
3.627077773465e-04 3.714478666179e-03 0.0 
3.714478666179e-03 1.773296424289e-03 0.0 
0.0 0.0 -9.111404029742e-04 
1.874131474266e-04 1.317598379107e-03 0.0 
1.317598379107e-03 5.481764939296e-04 0.0 
0.0 0.0 -3.152527034384e-04 
1.643748758810e-03 -4.204231761426e-04 0.0 
-4.204231761426e-04 -1.117599327178e-03 0.0 
0.0 0.0 -2.254926135565e-04 
-5.203694144565e-04 2.878386602619e-03 0.0 
2.878386602619e-03 4.197902991695e-03 0.0 
0.0 0.0 -1.118331045454e-03 
-1.809983628728e-03 1.593568509076e-03 0.0 
1.593568509076e-03 5.817131701425e-03 0.0 
0.0 0.0 -9.085367473448e-04 
-5.577334774043e-04 3.082426156906e-03 0.0 
3.082426156906e-03 4.104685153811e-03 0.0 
0.0 0.0 -1.148691026115e-03 
1.974680470733e-03 2.873021825660e-03 0.0 
2.873021825660e-03 -4.940617528099e-04 0.0 
0.0 0.0 -6.345508791099e-04 
-1.588961869452e-03 2.584393938582e-03 0.0 
2.584393938582e-03 6.455891274831e-03 0.0 
0.0 0.0 -1.097950598811e-03 
-7.723714131083e-04 2.927319470345e-03 0.0 
2.927319470345e-03 4.791549148204e-03 0.0 
0.0 0.0 -1.155407764312e-03 
-1.528620740983e-03 1.641090201076e-03 0.0 
1.641090201076e-03 4.483124494598e-03 0.0 
0.0 0.0 -7.696970057192e-04 
-6.364037100851e-04 3.205127351833e-03 0.0 
3.205127351833e-03 4.133031580390e-03 0.0 
0.0 0.0 -1.120992621467e-03 
-1.531289715330e-03 -2.235814658200e-03 0.0 
-2.235814658200e-03 5.083560864057e-03 0.0 
0.0 0.0 -1.075946734593e-03 
-1.542078502361e-04 3.681831680089e-03 0.0 
3.681831680089e-03 2.560354402538e-03 0.0 
0.0 0.0 -9.606735922745e-04 
-4.462082875552e-04 -3.056851139717e-03 0.0 
-3.056851139717e-03 2.847631123845e-03 0.0 
0.0 0.0 -1.006543408955e-03 
-3.390473984761e-04 -3.081268501996e-03 0.0 
-3.081268501996e-03 2.650937052075e-03 0.0 
0.0 0.0 -9.908098515424e-04 
-1.654766843293e-03 2.110154288789e-03 0.0 
2.110154288789e-03 7.526175185133e-03 0.0 
0.0 0.0 -1.204704583718e-03 
6.478121330843e-04 -2.891464683005e-03 0.0 
-2.891464683005e-03 9.158033438756e-04 0.0 
0.0 0.0 -6.701209186971e-04 
-3.674328541616e-04 3.694790859021e-03 0.0 
3.694790859021e-03 2.941360548218e-03 0.0 
0.0 0.0 -9.833476869619e-04 
1.512914527637e-03 2.270095044354e-03 0.0 
2.270095044354e-03 -2.495167818894e-04 0.0 
0.0 0.0 -5.414561767490e-04 
-4.689248235342e-05 -1.859495784931e-03 0.0 
-1.859495784931e-03 2.784842397477e-03 0.0 
0.0 0.0 -1.038364586984e-03 
1.508518420493e-03 2.943740230317e-03 0.0 
2.943740230317e-03 4.760392635737e-05 0.0 
0.0 0.0 -6.669095772216e-04 
3.102345530720e-03 7.378269526544e-05 0.0 
7.378269526544e-05 -1.464469892876e-03 0.0 
0.0 0.0 -7.019467019332e-04 
1.507578771505e-03 -7.604032194635e-04 0.0 
-7.604032194635e-04 -4.928220476776e-04 0.0 
0.0 0.0 -4.348957387830e-04 
3.148975456484e-03 8.306636056168e-04 0.0 
8.306636056168e-04 -1.496370463473e-03 0.0 
0.0 0.0 -7.082592827190e-04 
-1.261991141926e-03 3.267444165813e-03 0.0 
3.267444165813e-03 4.752384958846e-03 0.0 
0.0 0.0 -9.799122972177e-04 
3.123536661893e-03 -9.721135346994e-05 0.0 
-9.721135346994e-05 -1.405927083563e-03 0.0 
0.0 0.0 -7.361183907127e-04 
-1.047249439091e-03 3.250277679615e-03 0.0 
3.250277679615e-03 4.315763371752e-03 0.0 
0.0 0.0 -9.420580210740e-04 
1.883489007768e-04 8.010579783403e-04 0.0 
8.010579783403e-04 2.876523535355e-03 0.0 
0.0 0.0 -1.130549445556e-03 
3.588863471818e-04 1.014874640691e-03 0.0 
1.014874640691e-03 2.306525440664e-03 0.0 
0.0 0.0 -1.096529089934e-03 
1.700464822711e-03 2.598856322658e-03 0.0 
2.598856322658e-03 -4.407098144151e-04 0.0 
0.0 0.0 -5.398950035552e-04 
-1.732708782740e-03 1.731245879395e-03 0.0 
1.731245879395e-03 6.071080868846e-03 0.0 
0.0 0.0 -9.460253849645e-04 
-1.548270655095e-03 -1.671057713006e-03 0.0 
-1.671057713006e-03 5.446327602559e-03 0.0 
0.0 0.0 -1.107441567342e-03 
-1.667313564664e-03 -1.981097125204e-03 0.0 
-1.981097125204e-03 5.509726630970e-03 0.0 
0.0 0.0 -1.104747680386e-03 
1.318532451431e-03 2.199681040646e-03 0.0 
2.199681040646e-03 -1.454539841179e-04 0.0 
0.0 0.0 -5.027479145627e-04 
-9.715008187727e-04 3.547635970715e-03 0.0 
3.547635970715e-03 4.097719530490e-03 0.0 
0.0 0.0 -9.724793438395e-04 
-1.624312607657e-03 -1.275879739373e-03 0.0 
-1.275879739373e-03 6.206545711786e-03 0.0 
0.0 0.0 -1.205818386895e-03 
-2.985133365854e-04 2.525233875689e-03 0.0 
2.525233875689e-03 2.218258876373e-03 0.0 
0.0 0.0 -8.227480884806e-04 
-1.021411894397e-03 -2.472960565398e-03 0.0 
-2.472960565398e-03 3.861949643739e-03 0.0 
0.0 0.0 -1.085013296808e-03 
1.242793848756e-04 1.186515148645e-03 0.0 
1.186515148645e-03 5.554989300674e-04 0.0 
0.0 0.0 -2.913335635470e-04 
-1.667346094177e-03 -1.424810251550e-03 0.0 
-1.424810251550e-03 5.825346578498e-03 0.0 
0.0 0.0 -1.136235114959e-03 
3.019668846566e-03 9.582089678435e-04 0.0 
9.582089678435e-04 -1.448201355488e-03 0.0 
0.0 0.0 -6.734860676048e-04 
-1.578302787965e-03 -5.539699262797e-04 0.0 
-5.539699262797e-04 4.756261434844e-03 0.0 
0.0 0.0 -1.057437106069e-03 
4.911868189057e-04 2.542757255714e-03 0.0 
2.542757255714e-03 1.777357060087e-03 0.0 
0.0 0.0 -9.722330909969e-04 
-1.811529723315e-03 1.498050121893e-03 0.0 
1.498050121893e-03 6.116522056800e-03 0.0 
0.0 0.0 -9.438854677472e-04 
-1.729248363348e-03 1.804686593249e-03 0.0 
1.804686593249e-03 5.771244996451e-03 0.0 
0.0 0.0 -9.108073647308e-04 
1.218753398279e-04 3.628872757319e-03 0.0 
3.628872757319e-03 2.104833384723e-03 0.0 
0.0 0.0 -9.543037390934e-04 
-1.106695794268e-03 1.517581520969e-03 0.0 
1.517581520969e-03 3.539684992285e-03 0.0 
0.0 0.0 -7.963586959451e-04 
-1.268797780777e-03 1.437345509075e-03 0.0 
1.437345509075e-03 3.867869279896e-03 0.0 
0.0 0.0 -7.758011671882e-04 
-1.764900971931e-03 -1.718354051601e-03 0.0 
-1.718354051601e-03 5.889801463908e-03 0.0 
0.0 0.0 -1.133400347077e-03 
2.569249843707e-04 -2.786570784076e-03 0.0 
-2.786570784076e-03 1.556740733674e-03 0.0 
0.0 0.0 -7.772853077335e-04 
1.174175751745e-03 -1.803885435246e-03 0.0 
-1.803885435246e-03 -1.174563587326e-05 0.0 
0.0 0.0 -4.981843353734e-04 
5.912929398665e-04 -9.060768193030e-04 0.0 
-9.060768193030e-04 1.727113514221e-03 0.0 
0.0 0.0 -9.936027660373e-04 
2.016096735556e-03 -6.850330429382e-04 0.0 
-6.850330429382e-04 -9.758089702168e-04 0.0 
0.0 0.0 -4.458376137168e-04 
3.081197548797e-03 7.466969370712e-04 0.0 
7.466969370712e-04 -1.300129295292e-03 0.0 
0.0 0.0 -7.633149657881e-04 
-1.128831614242e-03 1.542551351037e-03 0.0 
1.542551351037e-03 3.551129300523e-03 0.0 
0.0 0.0 -7.520787537531e-04 
-1.821423928511e-03 1.474632635918e-03 0.0 
1.474632635918e-03 5.487726439764e-03 0.0 
0.0 0.0 -8.442294783838e-04 
-1.409406014707e-03 4.528826506854e-05 0.0 
4.528826506854e-05 5.214877225355e-03 0.0 
0.0 0.0 -7.121995050294e-04 
4.077287179479e-04 3.674953038794e-04 0.0 
3.674953038794e-04 2.393170375530e-03 0.0 
0.0 0.0 -1.093598669875e-03 
1.997342351340e-03 2.504018622736e-03 0.0 
2.504018622736e-03 -5.807467309884e-04 0.0 
0.0 0.0 -6.071124087219e-04 
-4.482284720357e-04 1.652414080391e-03 0.0 
1.652414080391e-03 3.958656300163e-03 0.0 
0.0 0.0 -1.233571955743e-03 
-2.022662331208e-03 -4.627058437959e-04 0.0 
-4.627058437959e-04 6.332672682848e-03 0.0 
0.0 0.0 -1.121177773779e-03 
1.798099945912e-03 -8.661440026173e-04 0.0 
-8.661440026173e-04 -7.288088564904e-04 0.0 
0.0 0.0 -4.582676097521e-04 
-1.524985310237e-03 -1.822620195545e-03 0.0 
-1.822620195545e-03 6.245562815238e-03 0.0 
0.0 0.0 -1.241472629463e-03 
3.003131752772e-03 -8.623198735716e-04 0.0 
-8.623198735716e-04 -1.396381984480e-03 0.0 
0.0 0.0 -6.886070435536e-04 
-3.779034990216e-04 2.052169755275e-03 0.0 
2.052169755275e-03 3.788846745744e-03 0.0 
0.0 0.0 -1.204482468497e-03 
1.415534273829e-04 3.636591431357e-03 0.0 
3.636591431357e-03 2.169944347150e-03 0.0 
0.0 0.0 -8.910665706739e-04 
8.940143763444e-06 3.422262264522e-03 0.0 
3.422262264522e-03 2.416052284656e-03 0.0 
0.0 0.0 -9.848034212814e-04 
-1.370477965762e-04 -1.170123439274e-03 0.0 
-1.170123439274e-03 3.214973093205e-03 0.0 
0.0 0.0 -1.146785027167e-03 
3.884013163081e-04 -2.855323367017e-03 0.0 
-2.855323367017e-03 1.211719834243e-03 0.0 
0.0 0.0 -6.857662073788e-04 
-7.129927410741e-04 3.670079492291e-03 0.0 
3.670079492291e-03 3.538541594785e-03 0.0 
0.0 0.0 -9.649174008510e-04 
1.717035050200e-03 -1.344860437860e-03 0.0 
-1.344860437860e-03 -6.217055712218e-04 0.0 
0.0 0.0 -4.694269195620e-04 
-8.587679122771e-04 3.481313587749e-03 0.0 
3.481313587749e-03 3.794469535060e-03 0.0 
0.0 0.0 -9.065670216064e-04 
1.889810402813e-03 2.899509189946e-03 0.0 
2.899509189946e-03 -2.152817456685e-04 0.0 
0.0 0.0 -7.176551387762e-04 
1.428912843794e-04 3.126816861625e-03 0.0 
3.126816861625e-03 2.356543378173e-03 0.0 
0.0 0.0 -1.013229387512e-03 
1.943775632291e-03 -1.286497408609e-03 0.0 
-1.286497408609e-03 -8.334086717492e-04 0.0 
0.0 0.0 -4.758715545177e-04 
-1.000337791729e-03 -2.628959420428e-03 0.0 
-2.628959420428e-03 3.773462867951e-03 0.0 
0.0 0.0 -9.886579807222e-04 
-8.325357311160e-04 3.547635505547e-03 0.0 
3.547635505547e-03 3.716995785029e-03 0.0 
0.0 0.0 -9.612835620876e-04 
2.687167972919e-04 1.795311194676e-03 0.0 
1.795311194676e-03 1.563575924244e-04 0.0 
0.0 0.0 -1.821747384498e-04 
1.057813883420e-03 2.534506278338e-03 0.0 
2.534506278338e-03 3.175156107454e-04 0.0 
0.0 0.0 -5.894269260710e-04 
4.651919044669e-04 1.924261843739e-03 0.0 
1.924261843739e-03 5.725607713308e-04 0.0 
0.0 0.0 -4.447511467704e-04 
-3.371303889653e-04 -7.500919376923e-04 0.0 
-7.500919376923e-04 1.299829984783e-03 0.0 
0.0 0.0 -4.040777003935e-04 
-1.056371726126e-03 -2.468497531733e-03 0.0 
-2.468497531733e-03 3.865104933196e-03 0.0 
0.0 0.0 -1.010653628765e-03 
-9.607789536056e-04 3.048565223821e-03 0.0 
3.048565223821e-03 4.940644900743e-03 0.0 
0.0 0.0 -1.098354823938e-03 
-1.707850550320e-03 2.055402839425e-03 0.0 
2.055402839425e-03 5.786469608898e-03 0.0 
0.0 0.0 -9.387552692591e-04 
-7.756723233026e-04 1.730094175383e-03 0.0 
1.730094175383e-03 2.916527936956e-03 0.0 
0.0 0.0 -8.497951325312e-04 
-1.342322198460e-03 2.098270725376e-03 0.0 
2.098270725376e-03 8.248661573518e-03 0.0 
0.0 0.0 -1.342322198460e-03 
2.363156468028e-05 1.452927542418e-04 0.0 
1.452927542418e-04 5.659069066156e-05 0.0 
0.0 0.0 -3.438096657507e-05 
-9.510393810218e-04 1.672687846132e-03 0.0 
1.672687846132e-03 3.246503304730e-03 0.0 
0.0 0.0 -8.134098498104e-04 
1.098475143763e-03 -2.031876221816e-03 0.0 
-2.031876221816e-03 1.166483383452e-04 0.0 
0.0 0.0 -5.207672066180e-04 
-1.089976521784e-03 -2.234801732660e-03 0.0 
-2.234801732660e-03 3.943897982090e-03 0.0 
0.0 0.0 -1.084767721667e-03 
-1.111038172895e-03 2.200189741588e-03 0.0 
2.200189741588e-03 3.768833115442e-03 0.0 
0.0 0.0 -8.610308207870e-04 
2.262464148868e-03 -1.945012542063e-03 0.0 
-1.945012542063e-03 -8.191237484730e-04 0.0 
0.0 0.0 -6.185744573122e-04 
5.761048584873e-04 -2.775225325336e-03 0.0 
-2.775225325336e-03 9.303736926873e-04 0.0 
0.0 0.0 -6.456336647891e-04 
-1.625181255020e-04 3.528619970826e-03 0.0 
3.528619970826e-03 2.809301514261e-03 0.0 
0.0 0.0 -9.266779469803e-04 
7.488835648315e-04 2.251240740231e-03 0.0 
2.251240740231e-03 1.162555029076e-03 0.0 
0.0 0.0 -8.191879688175e-04 
-1.329752805185e-03 3.181517598016e-03 0.0 
3.181517598016e-03 5.907007101231e-03 0.0 
0.0 0.0 -1.144302277022e-03 
1.946489244002e-03 2.821542424935e-03 0.0 
2.821542424935e-03 -8.035545710095e-04 0.0 
0.0 0.0 -4.898291455683e-04 
-8.586335344055e-04 -2.592060326530e-03 0.0 
-2.592060326530e-03 3.501562453949e-03 0.0 
0.0 0.0 -1.023226067289e-03 
-1.335563518602e-03 -1.880041070522e-03 0.0 
-1.880041070522e-03 4.351195601973e-03 0.0 
0.0 0.0 -1.033071644556e-03 
-2.022124363338e-05 -2.395587679301e-03 0.0 
-2.395587679301e-03 1.567846091858e-03 0.0 
0.0 0.0 -6.632677920962e-04 
-1.674900766220e-03 1.599025443535e-03 0.0 
1.599025443535e-03 4.804084785627e-03 0.0 
0.0 0.0 -7.663799295492e-04 
-1.769874274313e-03 1.858383186956e-03 0.0 
1.858383186956e-03 5.835930784600e-03 0.0 
0.0 0.0 -9.362314798257e-04 
-2.069835677089e-03 -4.002455476683e-04 0.0 
-4.002455476683e-04 5.909495734486e-03 0.0 
0.0 0.0 -1.073191215027e-03 
1.059197299257e-03 -5.440939611188e-04 0.0 
-5.440939611188e-04 5.670737881280e-04 0.0 
0.0 0.0 -3.365581251930e-04 
0.0 0.0 0.0 
0.0 0.0 0.0 
0.0 0.0 0.0 
-4.602170046064e-05 -1.936536183988e-03 0.0 
-1.936536183988e-03 1.323038368316e-03 0.0 
0.0 0.0 -5.472928576524e-04 
-1.313750205869e-03 -1.893362186714e-03 0.0 
-1.893362186714e-03 4.351424993746e-03 0.0 
0.0 0.0 -1.080662880999e-03 
2.816321063082e-03 -8.334388727588e-04 0.0 
-8.334388727588e-04 -1.272649618703e-03 0.0 
0.0 0.0 -6.615734761625e-04 
2.373065583622e-03 -2.080956134851e-03 0.0 
-2.080956134851e-03 -1.010649277428e-03 0.0 
0.0 0.0 -5.838927026542e-04 
2.954183213689e-03 -8.930251278497e-04 0.0 
-8.930251278497e-04 -1.356411275311e-03 0.0 
0.0 0.0 -6.847594021618e-04 
-1.301232695251e-03 -2.116378151629e-03 0.0 
-2.116378151629e-03 4.314126103213e-03 0.0 
0.0 0.0 -1.020860678390e-03 
-1.603005468093e-03 2.550878726920e-03 0.0 
2.550878726920e-03 5.754736739264e-03 0.0 
0.0 0.0 -9.956198530692e-04 
-1.518941795168e-03 -1.499106977263e-03 0.0 
-1.499106977263e-03 4.706029179031e-03 0.0 
0.0 0.0 -1.043188517862e-03 
2.974270505683e-03 -1.234815007946e-05 0.0 
-1.234815007946e-05 -1.384428534307e-03 0.0 
0.0 0.0 -6.813608448753e-04 
-8.631645989931e-04 3.291242542591e-03 0.0 
3.291242542591e-03 4.149472146392e-03 0.0 
0.0 0.0 -9.699423737970e-04 
-1.666656418554e-03 8.515973861887e-04 0.0 
8.515973861887e-04 5.656067677278e-03 0.0 
0.0 0.0 -8.236220363599e-04 
2.293852952879e-04 2.317534078424e-03 0.0 
2.317534078424e-03 2.464619361077e-03 0.0 
0.0 0.0 -1.076197569190e-03 
-1.503911657480e-03 -1.536228813635e-03 0.0 
-1.536228813635e-03 4.713514709764e-03 0.0 
0.0 0.0 -1.079735805607e-03 
-1.269594224654e-03 -2.151916428327e-03 0.0 
-2.151916428327e-03 4.311241093571e-03 0.0 
0.0 0.0 -1.081849276551e-03 
-4.912617181252e-04 1.776659374520e-03 0.0 
1.776659374520e-03 2.250419150674e-03 0.0 
0.0 0.0 -7.539246139495e-04 
2.432965561316e-03 -1.404722775878e-03 0.0 
-1.404722775878e-03 -1.097996306609e-03 0.0 
0.0 0.0 -5.721296805886e-04 
-1.672927313923e-03 -1.115371020166e-03 0.0 
-1.115371020166e-03 5.017856732658e-03 0.0 
0.0 0.0 -1.052805964859e-03 
-1.580075754320e-03 2.157353104837e-04 0.0 
2.157353104837e-04 6.692661968395e-03 0.0 
0.0 0.0 -9.615701295831e-04 
-1.562907036777e-03 2.120583330649e-04 0.0 
2.120583330649e-04 6.337987109484e-03 0.0 
0.0 0.0 -8.972249362023e-04 
-6.223529423683e-04 1.809817658288e-03 0.0 
1.809817658288e-03 2.623397927817e-03 0.0 
0.0 0.0 -8.575907080495e-04 
-1.509705893005e-03 -1.747591078712e-03 0.0 
-1.747591078712e-03 4.715855182949e-03 0.0 
0.0 0.0 -1.032785096058e-03 
1.569414128809e-03 -2.550888608895e-03 0.0 
-2.550888608895e-03 -3.370499251341e-04 0.0 
0.0 0.0 -5.281560872893e-04 
8.209882341614e-04 2.381580320664e-03 0.0 
2.381580320664e-03 4.553315452111e-04 0.0 
0.0 0.0 -5.469941911596e-04 
-2.931643961127e-04 1.527189756473e-03 0.0 
1.527189756473e-03 3.869126548266e-03 0.0 
0.0 0.0 -1.202908440308e-03 
1.382596818972e-04 -2.070148021774e-03 0.0 
-2.070148021774e-03 1.091658495820e-03 0.0 
0.0 0.0 -5.271077904503e-04 
1.398235426833e-03 -2.548773596058e-03 0.0 
-2.548773596058e-03 -7.584749764511e-05 0.0 
0.0 0.0 -5.667376839375e-04 
1.254646909069e-03 2.484629242297e-03 0.0 
2.484629242297e-03 3.513264158718e-04 0.0 
0.0 0.0 -6.882742821176e-04 
-8.245697505670e-04 1.707333830662e-03 0.0 
1.707333830662e-03 2.953610139157e-03 0.0 
0.0 0.0 -7.843752346429e-04 
-1.666758732331e-03 -1.174236117568e-03 0.0 
-1.174236117568e-03 5.037001804565e-03 0.0 
0.0 0.0 -1.079856008588e-03 
-9.244628747481e-04 -1.936309255703e-04 0.0 
-1.936309255703e-04 2.822852214519e-03 0.0 
0.0 0.0 -6.624393034254e-04 
-1.781970376818e-03 1.286452196401e-03 0.0 
1.286452196401e-03 5.020731578576e-03 0.0 
0.0 0.0 -7.824198048058e-04 
-1.484587749919e-03 -1.812874826371e-03 0.0 
-1.812874826371e-03 4.718401123365e-03 0.0 
0.0 0.0 -1.081372135754e-03 
1.084769609676e-03 -2.051097269290e-03 0.0 
-2.051097269290e-03 1.328211131768e-04 0.0 
0.0 0.0 -5.218245955084e-04 
-7.383188819978e-04 -2.755351396555e-03 0.0 
-2.755351396555e-03 3.375108004806e-03 0.0 
0.0 0.0 -1.093992571453e-03 
0.0 0.0 0.0 
0.0 0.0 0.0 
0.0 0.0 0.0 
-1.585395185030e-03 -8.733622601649e-05 0.0 
-8.733622601649e-05 7.915806537563e-03 0.0 
0.0 0.0 -1.152567315725e-03 
1.675271907871e-03 -2.177617042757e-03 0.0 
-2.177617042757e-03 -5.173898653476e-04 0.0 
0.0 0.0 -4.962351610816e-04 
3.706447397786e-05 2.070351060898e-04 0.0 
2.070351060898e-04 3.044600736775e-03 0.0 
0.0 0.0 -1.154039482800e-03 
2.069033457779e-04 2.961881208612e-03 0.0 
2.961881208612e-03 2.494592241471e-03 0.0 
0.0 0.0 -9.821191134873e-04 
-1.685773855788e-03 -1.377399783606e-03 0.0 
-1.377399783606e-03 5.070521373149e-03 0.0 
0.0 0.0 -1.044398856648e-03 
-1.669266621470e-03 -1.454184032041e-03 0.0 
-1.454184032041e-03 5.079788696568e-03 0.0 
0.0 0.0 -1.081576243284e-03 
2.914990553637e-03 -7.685843879532e-04 0.0 
-7.685843879532e-04 -1.358389786941e-03 0.0 
0.0 0.0 -6.671146142982e-04 
1.578300081431e-04 -1.839580637340e-03 0.0 
-1.839580637340e-03 9.146826550122e-04 0.0 
0.0 0.0 -4.596482842094e-04 
5.655633450819e-04 1.634462446329e-03 0.0 
1.634462446329e-03 -4.353216112412e-04 0.0 
0.0 0.0 -5.581788593170e-05 
-1.838374468884e-03 -1.008357892208e-03 0.0 
-1.008357892208e-03 5.389548205880e-03 0.0 
0.0 0.0 -1.053342186814e-03 
-7.735429255109e-05 -5.938829985412e-04 0.0 
-5.938829985412e-04 3.207515001155e-03 0.0 
0.0 0.0 -1.148056181429e-03 
8.407270435530e-04 -2.401906140793e-03 0.0 
-2.401906140793e-03 4.680800088293e-04 0.0 
0.0 0.0 -5.609173081639e-04 
-8.059519139880e-04 3.569609752867e-03 0.0 
3.569609752867e-03 3.937575205409e-03 0.0 
0.0 0.0 -1.000702849114e-03 
-1.423128099077e-04 2.434671484328e-03 0.0 
2.434671484328e-03 1.829214520191e-03 0.0 
0.0 0.0 -7.229578758357e-04 
-1.050409536978e-03 3.126628093613e-03 0.0 
3.126628093613e-03 4.667808075339e-03 0.0 
0.0 0.0 -1.005614027492e-03 
-9.737300203529e-04 -1.654439195094e-03 0.0 
-1.654439195094e-03 5.294537233988e-03 0.0 
0.0 0.0 -1.266534580134e-03 
0.0 0.0 0.0 
0.0 0.0 0.0 
0.0 0.0 0.0 
-1.341620833825e-03 1.946460220436e-04 0.0 
1.946460220436e-04 8.726655578502e-03 0.0 
0.0 0.0 -1.341620833825e-03 
-1.340051318819e-03 -5.222823624513e-04 0.0 
-5.222823624513e-04 7.102242080382e-03 0.0 
0.0 0.0 -1.340051318819e-03 
-1.487218295656e-03 -1.877140319118e-04 0.0 
-1.877140319118e-04 5.546795712007e-03 0.0 
0.0 0.0 -7.955197795907e-04 
9.332368058577e-04 -2.323240235713e-03 0.0 
-2.323240235713e-03 3.557999178189e-04 0.0 
0.0 0.0 -5.524443101471e-04 
4.489255113100e-05 3.284657334475e-03 0.0 
3.284657334475e-03 2.631811467132e-03 0.0 
0.0 0.0 -9.543595451431e-04 
3.058132153657e-03 -1.043711929510e-04 0.0 
-1.043711929510e-04 -1.411540431284e-03 0.0 
0.0 0.0 -7.056821667315e-04 
-3.299569164523e-05 -1.162968038586e-03 0.0 
-1.162968038586e-03 1.091173189700e-03 0.0 
0.0 0.0 -3.090400745732e-04 
5.673843086382e-05 7.346133626421e-04 0.0 
7.346133626421e-04 3.741725256079e-04 0.0 
0.0 0.0 -1.846761242021e-04 
-1.574977123889e-03 5.363765110094e-04 0.0 
5.363765110094e-04 8.165141429638e-03 0.0 
0.0 0.0 -1.209499414335e-03 
-1.716498366635e-03 2.104119454666e-03 0.0 
2.104119454666e-03 5.843034081691e-03 0.0 
0.0 0.0 -9.648175333861e-04 
-1.733356707705e-03 1.154742806149e-03 0.0 
1.154742806149e-03 4.860119042041e-03 0.0 
0.0 0.0 -7.487175554447e-04 
-1.114495707937e-03 3.137897512820e-03 0.0 
3.137897512820e-03 5.995042437661e-03 0.0 
0.0 0.0 -1.323661129950e-03 
-8.127251142362e-04 -1.412537566310e-04 0.0 
-1.412537566310e-04 2.411308652960e-03 0.0 
0.0 0.0 -5.128881373376e-04 
-1.119968701545e-03 2.850061398458e-03 0.0 
2.850061398458e-03 5.775097260118e-03 0.0 
0.0 0.0 -1.324908485340e-03 
-1.665581242751e-03 2.319761122546e-03 0.0 
2.319761122546e-03 5.793099015745e-03 0.0 
0.0 0.0 -9.670422101491e-04 
5.568715715285e-04 -2.770077582360e-03 0.0 
-2.770077582360e-03 9.496266440003e-04 0.0 
0.0 0.0 -6.456420923695e-04 
2.161043505782e-04 3.547732125549e-03 0.0 
3.547732125549e-03 1.898015910390e-03 0.0 
0.0 0.0 -9.060515404150e-04 
9.950905598312e-04 -2.671652170698e-03 0.0 
-2.671652170698e-03 4.709180402517e-04 0.0 
0.0 0.0 -6.282894000355e-04 
6.980021611784e-04 2.329704923171e-03 0.0 
2.329704923171e-03 5.591408928334e-04 0.0 
0.0 0.0 -5.387755945765e-04 
7.505691487916e-04 -2.806175756815e-03 0.0 
-2.806175756815e-03 7.604579484207e-04 0.0 
0.0 0.0 -6.475830416624e-04 
-1.523404584578e-03 2.773030803061e-03 0.0 
2.773030803061e-03 5.696563371559e-03 0.0 
0.0 0.0 -1.023749757194e-03 
-1.948666597127e-03 -9.778535476886e-04 0.0 
-9.778535476886e-04 6.429483775968e-03 0.0 
0.0 0.0 -1.155390781228e-03 
1.789573321784e-03 -2.334741346390e-03 0.0 
-2.334741346390e-03 -4.865776105569e-04 0.0 
0.0 0.0 -5.584267333832e-04 
-9.825735489597e-04 3.435129640079e-03 0.0 
3.435129640079e-03 4.478995622056e-03 0.0 
0.0 0.0 -1.036271578259e-03 
0.0 0.0 0.0 
0.0 0.0 0.0 
0.0 0.0 0.0 
2.596759179503e-03 -1.389222099922e-03 0.0 
-1.389222099922e-03 -1.085257982110e-03 0.0 
0.0 0.0 -6.477862274541e-04 
-1.710970656604e-03 2.103685284721e-03 0.0 
2.103685284721e-03 6.525687664567e-03 0.0 
0.0 0.0 -1.066385360782e-03 
2.404574348015e-04 -2.949261258943e-03 0.0 
-2.949261258943e-03 1.482737397066e-03 0.0 
0.0 0.0 -7.385120708004e-04 
6.388802882870e-04 -2.505035958296e-03 0.0 
-2.505035958296e-03 7.105369687538e-04 0.0 
0.0 0.0 -5.783216815889e-04 
3.613031293431e-04 3.302322730047e-03 0.0 
3.302322730047e-03 1.977511413847e-03 0.0 
0.0 0.0 -9.187611816440e-04 
1.834377336541e-03 -2.869898485884e-03 0.0 
-2.869898485884e-03 -1.676988345135e-04 0.0 
0.0 0.0 -7.142907865831e-04 
-2.603602936992e-04 1.802957872284e-03 0.0 
1.802957872284e-03 1.690888390106e-03 0.0 
0.0 0.0 -6.130834698885e-04 
-3.766094290651e-04 1.893748037744e-03 0.0 
1.893748037744e-03 2.022328291586e-03 0.0 
0.0 0.0 -7.053080839374e-04 
2.569187355972e-04 -2.744654995445e-03 0.0 
-2.744654995445e-03 1.329889881086e-03 0.0 
0.0 0.0 -6.800608357214e-04 
9.113223760588e-04 -2.364957113740e-03 0.0 
-2.364957113740e-03 3.924099138829e-04 0.0 
0.0 0.0 -5.587424099750e-04 
1.417197887517e-03 2.585133621544e-03 0.0 
2.585133621544e-03 -7.607709962934e-05 0.0 
0.0 0.0 -5.747660519518e-04 
-8.949493316928e-04 3.143090586373e-03 0.0 
3.143090586373e-03 4.528621917534e-03 0.0 
0.0 0.0 -1.033897369924e-03 
-1.400349245868e-03 3.030732209316e-03 0.0 
3.030732209316e-03 6.703483299750e-03 0.0 
0.0 0.0 -1.224260864640e-03 
-5.253406665386e-04 1.775908047208e-03 0.0 
1.775908047208e-03 2.340968666104e-03 0.0 
0.0 0.0 -7.781262855279e-04 
-1.583002963210e-03 -1.557788336479e-04 0.0 
-1.557788336479e-04 7.086569384723e-03 0.0 
0.0 0.0 -1.028620860735e-03 
-1.145284533028e-03 3.268026662313e-03 0.0 
3.268026662313e-03 5.700409497196e-03 0.0 
0.0 0.0 -1.228414553209e-03 
3.124385303303e-03 -1.108728093105e-05 0.0 
-1.108728093105e-05 -1.500119221682e-03 0.0 
0.0 0.0 -6.961140349804e-04 
5.697530012785e-04 2.144073309248e-03 0.0 
2.144073309248e-03 5.848519704173e-04 0.0 
0.0 0.0 -4.948307021553e-04 
-2.816210062748e-04 2.601627525948e-03 0.0 
2.601627525948e-03 2.228068929511e-03 0.0 
0.0 0.0 -8.341919671012e-04 
8.341721467740e-04 -2.510433576068e-03 0.0 
-2.510433576068e-03 5.276394565767e-04 0.0 
0.0 0.0 -5.836335442932e-04 
-1.247042165843e-03 3.250100918931e-03 0.0 
3.250100918931e-03 5.099970820779e-03 0.0 
0.0 0.0 -1.043024347135e-03 
1.027519968218e-03 -2.380813166548e-03 0.0 
-2.380813166548e-03 3.112209895361e-04 0.0 
0.0 0.0 -5.737461247516e-04 
1.268606586028e-03 2.037384257040e-03 0.0 
2.037384257040e-03 -4.121339973903e-04 0.0 
0.0 0.0 -3.670596808449e-04 
5.930292221715e-04 -2.622911752925e-03 0.0 
-2.622911752925e-03 8.838728538733e-04 0.0 
0.0 0.0 -6.329580325907e-04 
5.486710723125e-04 2.332384511628e-03 0.0 
2.332384511628e-03 7.102378801027e-04 0.0 
0.0 0.0 -5.395324081779e-04 
1.682768200706e-03 2.516609952748e-03 0.0 
2.516609952748e-03 -2.542264434373e-04 0.0 
0.0 0.0 -6.122321816867e-04 
7.358023053180e-04 -2.505051408807e-03 0.0 
-2.505051408807e-03 7.718123993888e-04 0.0 
0.0 0.0 -6.461205877315e-04 
2.812366509539e-04 3.418056531118e-03 0.0 
3.418056531118e-03 1.761992896829e-03 0.0 
0.0 0.0 -8.756698061928e-04 
-1.585509504414e-03 6.854986193214e-05 0.0 
6.854986193214e-05 6.515313053331e-03 0.0 
0.0 0.0 -9.494079867578e-04 
1.950119496099e-04 -2.582141659643e-03 0.0 
-2.582141659643e-03 1.322040652856e-03 0.0 
0.0 0.0 -6.501654010570e-04 
9.460441418101e-04 2.468386529063e-03 0.0 
2.468386529063e-03 3.152412733386e-04 0.0 
0.0 0.0 -5.405508922066e-04 
5.243693270813e-04 -2.069869324487e-03 0.0 
-2.069869324487e-03 1.498209352588e-03 0.0 
0.0 0.0 -8.668194341442e-04 
3.838921855015e-04 2.277447822888e-03 0.0 
2.277447822888e-03 8.700555358996e-04 0.0 
0.0 0.0 -5.374061663147e-04 
0.0 0.0 0.0 
0.0 0.0 0.0 
0.0 0.0 0.0 
-1.483198277618e-03 2.721071498371e-04 0.0 
2.721071498371e-04 8.165740664983e-03 0.0 
0.0 0.0 -1.223389224544e-03 
-1.535254932215e-03 2.717190120097e-04 0.0 
2.717190120097e-04 7.854733745092e-03 0.0 
0.0 0.0 -1.157435638217e-03 
1.714590457336e-06 -7.115369139069e-04 0.0 
-7.115369139069e-04 4.515715516867e-04 0.0 
0.0 0.0 -1.942654894903e-04 
3.878432463794e-04 -2.223127307783e-03 0.0 
-2.223127307783e-03 1.630928175518e-03 0.0 
0.0 0.0 -8.651877522419e-04 
-2.798740380973e-05 -2.159694096595e-03 0.0 
-2.159694096595e-03 1.431561792510e-03 0.0 
0.0 0.0 -6.015318808715e-04 
-1.829025907462e-04 -2.119639284792e-03 0.0 
-2.119639284792e-03 1.714857895665e-03 0.0 
0.0 0.0 -6.565522735367e-04 
-1.017733219917e-03 3.364025437069e-03 0.0 
3.364025437069e-03 4.897256146699e-03 0.0 
0.0 0.0 -1.100737838324e-03 
5.257552207879e-04 2.875144563505e-03 0.0 
2.875144563505e-03 1.853285664374e-03 0.0 
0.0 0.0 -9.467522836136e-04 
-8.497134643687e-04 3.433349612216e-03 0.0 
3.433349612216e-03 4.357788075562e-03 0.0 
0.0 0.0 -1.064854740548e-03 
2.203223739880e-03 -1.975974349915e-03 0.0 
-1.975974349915e-03 -9.232686555068e-04 0.0 
0.0 0.0 -5.485521790173e-04 
-1.446388010227e-03 1.342323327112e-04 0.0 
1.342323327112e-04 5.217166277606e-03 0.0 
0.0 0.0 -7.105917616147e-04 
-1.197543499266e-03 -1.810608894436e-03 0.0 
-1.810608894436e-03 5.325302062837e-03 0.0 
0.0 0.0 -1.281538364137e-03 
-1.726353625323e-04 -1.807145954026e-03 0.0 
-1.807145954026e-03 1.497715714659e-03 0.0 
0.0 0.0 -5.678915794828e-04 
2.222123337372e-04 -1.923483587620e-05 0.0 
-1.923483587620e-05 2.651456288210e-03 0.0 
0.0 0.0 -1.121221582973e-03 
1.156875498320e-03 3.056207622502e-03 0.0 
3.056207622502e-03 4.647886417546e-04 0.0 
0.0 0.0 -6.949989171746e-04 
-5.424671300971e-04 -2.887281693977e-04 0.0 
-2.887281693977e-04 1.675559050033e-03 0.0 
0.0 0.0 -3.973267919445e-04 
-1.360155763593e-03 3.097514486866e-03 0.0 
3.097514486866e-03 5.194571229381e-03 0.0 
0.0 0.0 -1.015166614560e-03 
2.718308302872e-03 -7.221702226311e-04 0.0 
-7.221702226311e-04 -1.243788694723e-03 0.0 
0.0 0.0 -6.319369749211e-04 
2.871950510200e-04 -2.057705951039e-03 0.0 
-2.057705951039e-03 8.654869691646e-04 0.0 
0.0 0.0 -4.940065800791e-04 
2.698077562336e-03 -1.426914000199e-03 0.0 
-1.426914000199e-03 -1.126048004927e-03 0.0 
0.0 0.0 -6.737269531753e-04 
-2.035172389928e-03 5.681521720379e-05 0.0 
5.681521720379e-05 5.818689376235e-03 0.0 
0.0 0.0 -1.069816800183e-03 
-1.547603731344e-03 2.557965682965e-03 0.0 
2.557965682965e-03 5.760856088478e-03 0.0 
0.0 0.0 -1.020980360542e-03 
3.535477644423e-04 -2.409077986448e-03 0.0 
-2.409077986448e-03 9.968391477695e-04 0.0 
0.0 0.0 -5.787372480908e-04 
-1.638049386592e-03 -5.261620418510e-04 0.0 
-5.261620418510e-04 4.881654597217e-03 0.0 
0.0 0.0 -1.045407985144e-03 
-1.131069213092e-03 3.339054972024e-03 0.0 
3.339054972024e-03 5.004170711216e-03 0.0 
0.0 0.0 -1.071782534217e-03 
7.849170986353e-05 2.002784816892e-03 0.0 
2.002784816892e-03 3.087471277383e-03 0.0 
0.0 0.0 -1.109893377180e-03 
5.081300325286e-04 -2.843687144981e-03 0.0 
-2.843687144981e-03 1.050709009186e-03 0.0 
0.0 0.0 -6.680738750205e-04 
-8.485846460072e-04 -2.429092323345e-04 0.0 
-2.429092323345e-04 2.701937249489e-03 0.0 
0.0 0.0 -7.163733244607e-04 
1.054276666128e-03 2.747625866901e-03 0.0 
2.747625866901e-03 4.044819373952e-04 0.0 
0.0 0.0 -6.251822586527e-04 
-1.556582639800e-03 -2.026954580916e-04 0.0 
-2.026954580916e-04 6.435079901625e-03 0.0 
0.0 0.0 -9.278975173457e-04 
6.306613738133e-04 -2.843431008643e-03 0.0 
-2.843431008643e-03 9.087558385051e-04 0.0 
0.0 0.0 -6.597502338507e-04 
-1.151665732863e-03 3.368799827368e-03 0.0 
3.368799827368e-03 6.118948746046e-03 0.0 
0.0 0.0 -1.269179263065e-03 
-1.428509069589e-03 2.793670889960e-03 0.0 
2.793670889960e-03 7.317810969107e-03 0.0 
0.0 0.0 -1.281197857596e-03 
-1.509195270466e-03 -1.457985023921e-04 0.0 
-1.457985023921e-04 5.771603983327e-03 0.0 
0.0 0.0 -8.387747867703e-04 
-1.581495188537e-03 1.397540288099e-03 0.0 
1.397540288099e-03 8.227342162666e-03 0.0 
0.0 0.0 -1.255037608383e-03 
-1.367281596907e-03 3.139996712098e-03 0.0 
3.139996712098e-03 6.951432883282e-03 0.0 
0.0 0.0 -1.285499913836e-03 
2.109542503114e-03 -1.930775448323e-03 0.0 
-1.930775448323e-03 -7.849211290521e-04 0.0 
0.0 0.0 -5.676948745980e-04 
1.380801218232e-03 -2.351235301793e-03 0.0 
-2.351235301793e-03 -1.698746639675e-04 0.0 
0.0 0.0 -5.189685232560e-04 
-5.757297583633e-04 4.366962327414e-04 0.0 
4.366962327414e-04 4.537400147681e-03 0.0 
0.0 0.0 -1.265535665854e-03 
0.0 0.0 0.0 
0.0 0.0 0.0 
0.0 0.0 0.0 
-8.394320087675e-04 -3.205840844428e-05 0.0 
-3.205840844428e-05 2.565992005118e-03 0.0 
0.0 0.0 -6.072167217314e-04 
-1.628413269992e-03 -1.673586948164e-04 0.0 
-1.673586948164e-04 4.868895534124e-03 0.0 
0.0 0.0 -1.067827858613e-03 
4.161330338528e-04 -2.673128765629e-03 0.0 
-2.673128765629e-03 1.065048131365e-03 0.0 
0.0 0.0 -6.347919279505e-04 
1.927385449734e-03 -2.370761864729e-03 0.0 
-2.370761864729e-03 -5.075034197406e-04 0.0 
0.0 0.0 -6.085208699972e-04 
-3.171269370445e-05 1.814506539183e-03 0.0 
1.814506539183e-03 1.218095740662e-03 0.0 
0.0 0.0 -5.084498772674e-04 
-1.067456340534e-04 1.927365287384e-03 0.0 
1.927365287384e-03 1.436121596143e-03 0.0 
0.0 0.0 -5.697325551813e-04 
-1.696184299969e-03 4.188758800933e-04 0.0 
4.188758800933e-04 5.835163577314e-03 0.0 
0.0 0.0 -8.290026594306e-04 
2.687649412673e-03 -1.534651648036e-03 0.0 
-1.534651648036e-03 -1.236375441606e-03 0.0 
0.0 0.0 -6.219745590288e-04 
-8.374689021838e-04 -7.956683833314e-04 0.0 
-7.956683833314e-04 2.821114433129e-03 0.0 
0.0 0.0 -8.100060677168e-04 
-5.763887782378e-05 2.884104717794e-03 0.0 
2.884104717794e-03 2.960925031656e-03 0.0 
0.0 0.0 -1.077832113627e-03 
-1.357626258592e-03 -2.064052997114e-03 0.0 
-2.064052997114e-03 6.484172296954e-03 0.0 
0.0 0.0 -1.324978758543e-03 
-1.316853930481e-03 -2.171233133158e-03 0.0 
-2.171233133158e-03 6.262828385778e-03 0.0 
0.0 0.0 -1.320624918399e-03 
1.210545566472e-03 -2.440771907645e-03 0.0 
-2.440771907645e-03 2.098806390541e-04 0.0 
0.0 0.0 -6.087540880828e-04 
-1.669792706879e-03 7.585625911679e-04 0.0 
7.585625911679e-04 5.225921064138e-03 0.0 
0.0 0.0 -7.877541558771e-04 
0.0 0.0 0.0 
0.0 0.0 0.0 
0.0 0.0 0.0 
1.526705898496e-04 1.832423170921e-03 0.0 
1.832423170921e-03 9.162592996274e-04 0.0 
0.0 0.0 -4.581128097759e-04 
1.694782762505e-03 -3.278967534484e-03 0.0 
-3.278967534484e-03 -3.718783773796e-04 0.0 
0.0 0.0 -5.669590221966e-04 
7.211551457005e-05 1.826082030850e-03 0.0 
1.826082030850e-03 1.040988995356e-03 0.0 
0.0 0.0 -4.770447899684e-04 
8.520859723696e-04 2.702963814911e-03 0.0 
2.702963814911e-03 1.160586394610e-03 0.0 
0.0 0.0 -8.625738715628e-04 
1.049602008115e-03 -2.610080274348e-03 0.0 
-2.610080274348e-03 3.535904184599e-04 0.0 
0.0 0.0 -6.013681828177e-04 
1.924226435236e-03 -2.386188926630e-03 0.0 
-2.386188926630e-03 -7.021276801158e-04 0.0 
0.0 0.0 -5.237566093371e-04 
8.906199206854e-04 -2.335912402002e-03 0.0 
-2.335912402002e-03 -6.441539282859e-04 0.0 
0.0 0.0 -1.056282824569e-04 
-1.518150307999e-03 2.180517986998e-04 0.0 
2.180517986998e-04 7.814279060755e-03 0.0 
0.0 0.0 -1.176327079312e-03 
1.081599261770e-03 -2.356565631716e-03 0.0 
-2.356565631716e-03 1.958644745057e-04 0.0 
0.0 0.0 -5.474844584040e-04 
-1.503838573524e-03 8.537407365334e-04 0.0 
8.537407365334e-04 8.091641180223e-03 0.0 
0.0 0.0 -1.212957849656e-03 
-1.563004608103e-03 1.345074243690e-04 0.0 
1.345074243690e-04 7.574721874408e-03 0.0 
0.0 0.0 -1.117460450001e-03 
-1.452677521913e-03 3.546154927313e-04 0.0 
3.546154927313e-04 8.989483437301e-03 0.0 
0.0 0.0 -1.319418651152e-03 
-1.573682658163e-03 -6.434523803718e-04 0.0 
-6.434523803718e-04 7.311749488072e-03 0.0 
0.0 0.0 -1.324849633189e-03 
-1.522640732825e-03 1.776300828802e-04 0.0 
1.776300828802e-04 5.910709247101e-03 0.0 
0.0 0.0 -8.315138651140e-04 
8.069897163257e-04 -2.530526196753e-03 0.0 
-2.530526196753e-03 5.619735093356e-04 0.0 
0.0 0.0 -5.866985252834e-04 
-2.779641202251e-04 1.703949019227e-03 0.0 
1.703949019227e-03 1.672572981451e-03 0.0 
0.0 0.0 -5.976895119538e-04 
7.490285409449e-04 -3.064892262470e-03 0.0 
-3.064892262470e-03 9.033898181147e-04 0.0 
0.0 0.0 -7.081792967398e-04 
-1.343328350294e-03 -1.797161006887e-03 0.0 
-1.797161006887e-03 6.496235434020e-03 0.0 
0.0 0.0 -1.343328350294e-03 
1.770851489837e-04 1.574613937019e-03 0.0 
1.574613937019e-03 7.197174740553e-04 0.0 
0.0 0.0 -3.843439813024e-04 
1.884365055557e-04 1.730723292298e-03 0.0 
1.730723292298e-03 7.999529513160e-04 0.0 
0.0 0.0 -4.235954815164e-04 
5.120454739848e-05 4.425631252095e-04 0.0 
4.425631252095e-04 3.081010907522e-03 0.0 
0.0 0.0 -1.156027955174e-03 
-1.600063486753e-03 4.454182285367e-04 0.0 
4.454182285367e-04 5.553533901810e-03 0.0 
0.0 0.0 -7.715229432315e-04 
-1.496300168116e-03 6.368230222668e-04 0.0 
6.368230222668e-04 8.172597464420e-03 0.0 
0.0 0.0 -1.219279742240e-03 
-1.079188820050e-03 3.032068943539e-03 0.0 
3.032068943539e-03 5.044159493797e-03 0.0 
0.0 0.0 -1.069611963270e-03 
-3.125996649260e-04 2.376006221788e-03 0.0 
2.376006221788e-03 3.643123644996e-03 0.0 
0.0 0.0 -1.175036385391e-03 
-1.440706362563e-03 2.765679407787e-03 0.0 
2.765679407787e-03 6.040073424197e-03 0.0 
0.0 0.0 -1.113576918908e-03 
-1.533426048517e-03 3.483355765343e-04 0.0 
3.483355765343e-04 5.830518730214e-03 0.0 
0.0 0.0 -8.542750875040e-04 
4.145616627609e-04 -2.510686493370e-03 0.0 
-2.510686493370e-03 9.700386978898e-04 0.0 
0.0 0.0 -5.934001545646e-04 
5.188237827814e-04 -2.738227656747e-03 0.0 
-2.738227656747e-03 9.760172721955e-04 0.0 
0.0 0.0 -6.406461664186e-04 
-1.559322814184e-03 2.985337068608e-04 0.0 
2.985337068608e-04 6.828450389527e-03 0.0 
0.0 0.0 -9.963059934037e-04 
-1.981024320875e-04 2.157190390334e-03 0.0 
2.157190390334e-03 3.614846179737e-03 0.0 
0.0 0.0 -1.142506377625e-03 
-1.686833987170e-03 9.535938984725e-04 0.0 
9.535938984725e-04 4.721621554871e-03 0.0 
0.0 0.0 -7.386355146563e-04 
-1.463703012742e-03 6.266658719779e-05 0.0 
6.266658719779e-05 5.604963867248e-03 0.0 
0.0 0.0 -7.676068998053e-04 
-1.515549186513e-03 3.697674288865e-05 0.0 
3.697674288865e-05 5.930448629907e-03 0.0 
0.0 0.0 -8.242303029217e-04 
-1.592254304502e-03 -3.437592554212e-05 0.0 
-3.437592554212e-05 6.006274404460e-03 0.0 
0.0 0.0 -8.467401457521e-04 
1.475757754276e-03 -1.289294546505e-03 0.0 
-1.289294546505e-03 -9.417009757612e-04 0.0 
0.0 0.0 -2.288814765064e-04 
2.490964718879e-04 -2.584180670905e-03 0.0 
-2.584180670905e-03 1.241456993708e-03 0.0 
0.0 0.0 -6.388086281126e-04 
-1.524289002589e-03 1.055576054381e-03 0.0 
1.055576054381e-03 8.572679794113e-03 0.0 
0.0 0.0 -1.269310366786e-03 
-1.609154575879e-03 5.927002029432e-05 0.0 
5.927002029432e-05 6.380922986421e-03 0.0 
0.0 0.0 -9.150577043801e-04 
-9.099437829954e-04 1.617518349232e-03 0.0 
1.617518349232e-03 4.661075676102e-03 0.0 
0.0 0.0 -1.295322057178e-03 
-1.481137119135e-03 2.911611220647e-03 0.0 
2.911611220647e-03 6.859531798370e-03 0.0 
0.0 0.0 -1.215577547940e-03 
-1.339321083005e-03 2.882096422564e-03 0.0 
2.882096422564e-03 5.250850385045e-03 0.0 
0.0 0.0 -1.012565562176e-03 
-1.640900346179e-03 1.517631824607e-03 0.0 
1.517631824607e-03 7.910833663920e-03 0.0 
0.0 0.0 -1.214907066889e-03 
-1.059540956040e-03 -1.334979029727e-03 0.0 
-1.334979029727e-03 3.594823103032e-03 0.0 
0.0 0.0 -9.974489174931e-04 
-1.013156646554e-03 -1.368118382081e-03 0.0 
-1.368118382081e-03 3.447232281497e-03 0.0 
0.0 0.0 -9.464646038184e-04 
-1.053605941392e-03 -1.657375267239e-03 0.0 
-1.657375267239e-03 4.938505543447e-03 0.0 
0.0 0.0 -1.226851238141e-03 
0.0 0.0 0.0 
0.0 0.0 0.0 
0.0 0.0 0.0 
-9.591830860426e-04 -2.723797524876e-04 0.0 
-2.723797524876e-04 2.822378765221e-03 0.0 
0.0 0.0 -5.777536677209e-04 
-1.342405754833e-03 2.832331701177e-03 0.0 
2.832331701177e-03 5.623065616304e-03 0.0 
0.0 0.0 -1.342405754833e-03 
-1.232108481340e-04 -4.438827698639e-05 0.0 
-4.438827698639e-05 1.111663342237e-03 0.0 
0.0 0.0 -2.724401835525e-04 
-1.475085458698e-03 8.547838585484e-05 0.0 
8.547838585484e-05 5.344445388578e-03 0.0 
0.0 0.0 -7.870118106326e-04 
-3.041907190684e-04 -2.929338759418e-04 0.0 
-2.929338759418e-04 3.995006628254e-03 0.0 
0.0 0.0 -1.213461936786e-03 
-7.635875139996e-06 -1.081722019394e-03 0.0 
-1.081722019394e-03 7.060070926500e-04 0.0 
0.0 0.0 -2.993019503614e-04 
1.505773719545e-03 -8.263394782763e-04 0.0 
-8.263394782763e-04 -6.336254798977e-05 0.0 
0.0 0.0 -2.382422751898e-04 
-1.473393185853e-03 1.353598964677e-03 0.0 
1.353598964677e-03 8.746165970417e-03 0.0 
0.0 0.0 -1.324389858384e-03 
-1.521392000938e-03 2.912474066464e-04 0.0 
2.912474066464e-04 4.940937614450e-03 0.0 
0.0 0.0 -7.294542769151e-04 
-1.503978704987e-03 1.473877310897e-03 0.0 
1.473877310897e-03 8.344062810088e-03 0.0 
0.0 0.0 -1.261418349269e-03 
-5.327298325037e-04 3.575837178235e-04 0.0 
3.575837178235e-04 3.642687559217e-03 0.0 
0.0 0.0 -1.231858344535e-03 
-1.518533849991e-03 1.071472041001e-04 0.0 
1.071472041001e-04 4.942575461076e-03 0.0 
0.0 0.0 -7.289279708929e-04 
0.0 0.0 0.0 
0.0 0.0 0.0 
0.0 0.0 0.0 
-1.422405127371e-03 1.531540875437e-04 0.0 
1.531540875437e-04 8.427070743481e-03 0.0 
0.0 0.0 -1.284140717545e-03 
-3.551011727049e-04 -7.009671051649e-04 0.0 
-7.009671051649e-04 1.319322733909e-03 0.0 
0.0 0.0 -3.479328688591e-04 
-1.509662464093e-03 1.187111297047e-03 0.0 
1.187111297047e-03 8.089981201651e-03 0.0 
0.0 0.0 -1.232184317627e-03 
-1.343095105526e-03 -1.540983607491e-03 0.0 
-1.540983607491e-03 6.702452530061e-03 0.0 
0.0 0.0 -1.343095105526e-03 
-1.554707611052e-03 2.562602135152e-03 0.0 
2.562602135152e-03 7.111310188225e-03 0.0 
0.0 0.0 -1.225700354592e-03 
2.173759747286e-03 -1.419935824116e-03 0.0 
-1.419935824116e-03 -1.114841162711e-03 0.0 
0.0 0.0 -4.538222505322e-04 
-1.741082427331e-03 1.054953553281e-03 0.0 
1.054953553281e-03 5.737463170789e-03 0.0 
0.0 0.0 -8.279144014868e-04 
-1.224194647146e-03 -9.467109309958e-04 0.0 
-9.467109309958e-04 3.877522353974e-03 0.0 
0.0 0.0 -9.630043323905e-04 
6.517046530341e-05 2.327281681424e-03 0.0 
2.327281681424e-03 2.984838930141e-03 0.0 
0.0 0.0 -1.077599360682e-03 
-1.012701747737e-03 1.623436123670e-03 0.0 
1.623436123670e-03 5.329514602195e-03 0.0 
0.0 0.0 -1.326997735404e-03 
-1.585109039191e-03 2.780588406276e-04 0.0 
2.780588406276e-04 7.347999637207e-03 0.0 
0.0 0.0 -1.061614915164e-03 
-1.008710860855e-03 1.312542642731e-03 0.0 
1.312542642731e-03 5.209194240256e-03 0.0 
0.0 0.0 -1.325870641008e-03 
3.673422327950e-04 -3.776124720398e-04 0.0 
-3.776124720398e-04 -3.673422327950e-04 0.0 
0.0 0.0 0.0 
-1.430003464036e-03 -1.969193470792e-03 0.0 
-1.969193470792e-03 6.388366935774e-03 0.0 
0.0 0.0 -1.277656510522e-03 
2.370305391374e-03 -2.562363361486e-03 0.0 
-2.562363361486e-03 -6.166549384612e-04 0.0 
0.0 0.0 -7.515644798196e-04 
-3.100324176095e-04 -2.408320728402e-04 0.0 
-2.408320728402e-04 1.151728361162e-03 0.0 
0.0 0.0 -2.782378078114e-04 
-7.322007537650e-04 -9.555468943118e-04 0.0 
-9.555468943118e-04 4.734669521016e-03 0.0 
0.0 0.0 -1.270335377537e-03 
-1.575122942683e-03 2.171152972729e-03 0.0 
2.171152972729e-03 8.127111917130e-03 0.0 
0.0 0.0 -1.270603359501e-03 
-1.496692965649e-03 1.319095711312e-03 0.0 
1.319095711312e-03 8.369617950368e-03 0.0 
0.0 0.0 -1.289850838753e-03 
-1.498527200318e-03 3.689228571039e-04 0.0 
3.689228571039e-04 5.398355138859e-03 0.0 
0.0 0.0 -7.762633204682e-04 
-1.744558354744e-03 1.631310676350e-03 0.0 
1.631310676350e-03 5.391746306119e-03 0.0 
0.0 0.0 -8.489529362435e-04 
7.301121496963e-04 2.437654514774e-03 0.0 
2.437654514774e-03 5.848010967936e-04 0.0 
0.0 0.0 -5.635342484957e-04 
-1.427601509624e-03 3.175353375607e-03 0.0 
3.175353375607e-03 7.125136039489e-03 0.0 
0.0 0.0 -1.273041473476e-03 
-1.038080719471e-03 -6.334570087308e-04 0.0 
-6.334570087308e-04 3.329140480764e-03 0.0 
0.0 0.0 -8.764843149172e-04 
1.193441318594e-03 2.328942464463e-03 0.0 
2.328942464463e-03 3.040131158427e-05 0.0 
0.0 0.0 -5.245039843621e-04 
-2.118585962266e-05 2.523859735457e-03 0.0 
2.523859735457e-03 3.050030047244e-03 0.0 
0.0 0.0 -1.110141529071e-03 
-1.425138137322e-03 6.470798395339e-05 0.0 
6.470798395339e-05 5.179988142805e-03 0.0 
0.0 0.0 -7.096328662732e-04 
-1.517585115342e-03 2.260614719474e-03 0.0 
2.260614719474e-03 7.684999531697e-03 0.0 
0.0 0.0 -1.237729719596e-03 
-1.422593477448e-03 -1.670334611249e-04 0.0 
-1.670334611249e-04 8.888807101193e-03 0.0 
0.0 0.0 -1.321509982054e-03 
-1.343732204276e-03 1.010834953933e-04 0.0 
1.010834953933e-04 8.744729451207e-03 0.0 
0.0 0.0 -1.343732204276e-03 
3.369232126492e-03 1.693280559230e-04 0.0 
1.693280559230e-04 -1.155841201236e-03 0.0 
0.0 0.0 -6.603666768414e-05 
2.499766675984e-03 -2.952033461878e-04 0.0 
-2.952033461878e-04 -9.796559826583e-04 0.0 
0.0 0.0 -1.532902690118e-04 
-1.416942128620e-03 -1.624029676109e-04 0.0 
-1.624029676109e-04 5.054688992973e-03 0.0 
0.0 0.0 -7.318233512793e-04 
-1.419792893404e-03 3.183177604522e-05 0.0 
3.183177604522e-05 5.196638347434e-03 0.0 
0.0 0.0 -7.096011290571e-04 
-1.343732204276e-03 -2.406936037715e-04 0.0 
-2.406936037715e-04 7.113693032304e-03 0.0 
0.0 0.0 -1.343732204276e-03 
-1.562203585825e-03 1.305016391806e-04 0.0 
1.305016391806e-04 7.294302504235e-03 0.0 
0.0 0.0 -1.321509982054e-03 
2.262811037578e-03 -4.868403071367e-05 0.0 
-4.868403071367e-05 -4.447467837794e-04 0.0 
0.0 0.0 -2.434615908245e-04 
0.0 0.0 0.0 
0.0 0.0 0.0 
0.0 0.0 0.0 
-1.642313907969e-03 -1.143113511814e-03 0.0 
-1.143113511814e-03 6.403076283141e-03 0.0 
0.0 0.0 -1.230181737024e-03 
-7.148794360533e-04 3.164508669310e-03 0.0 
3.164508669310e-03 4.742447412984e-03 0.0 
0.0 0.0 -1.209364118140e-03 
-5.258157990741e-04 -7.879783393280e-04 0.0 
-7.879783393280e-04 1.688623542397e-03 0.0 
0.0 0.0 -3.144533898553e-04 
-1.351136438279e-03 -1.975186179308e-03 0.0 
-1.975186179308e-03 5.772523348463e-03 0.0 
0.0 0.0 -1.240191881334e-03 
-1.731554632553e-03 -2.342398403810e-04 0.0 
-2.342398403810e-04 5.123990276158e-03 0.0 
0.0 0.0 -1.081029080859e-03 
-1.535845139517e-03 -3.312382585291e-04 0.0 
-3.312382585291e-04 4.629162629476e-03 0.0 
0.0 0.0 -1.039595904837e-03 
-1.612928706957e-03 3.113730006726e-04 0.0 
3.113730006726e-04 6.721792739589e-03 0.0 
0.0 0.0 -9.400782610458e-04 
1.101421061084e-03 -2.909512193680e-03 0.0 
-2.909512193680e-03 4.457906368086e-04 0.0 
0.0 0.0 -6.630907276683e-04 
3.131506035800e-04 2.556520147165e-03 0.0 
2.556520147165e-03 2.414585707981e-03 0.0 
0.0 0.0 -1.011657465016e-03 
-1.177300482134e-05 -1.092061392265e-03 0.0 
-1.092061392265e-03 1.284900459222e-03 0.0 
0.0 0.0 -3.097963217911e-04 
-1.220126007134e-03 -1.262020264430e-03 0.0 
-1.262020264430e-03 3.977099482089e-03 0.0 
0.0 0.0 -1.029451436826e-03 
-1.346849968967e-03 3.153673073291e-03 0.0 
3.153673073291e-03 6.593026306646e-03 0.0 
0.0 0.0 -1.240519096027e-03 
-1.527894889398e-03 -1.936018657920e-04 0.0 
-1.936018657920e-04 8.104261702945e-03 0.0 
0.0 0.0 -1.191726112421e-03 
-1.479396360357e-03 -2.989971596189e-04 0.0 
-2.989971596189e-04 4.503238817139e-03 0.0 
0.0 0.0 -1.046336039097e-03 
-1.560842421660e-03 -8.540456832086e-05 0.0 
-8.540456832086e-05 6.232717148515e-03 0.0 
0.0 0.0 -8.745659502648e-04 
-9.955423334814e-04 3.339003162247e-03 0.0 
3.339003162247e-03 5.559555520798e-03 0.0 
0.0 0.0 -1.217119345309e-03 
-1.351529115626e-03 2.876362203055e-03 0.0 
2.876362203055e-03 5.976398005188e-03 0.0 
0.0 0.0 -1.140944809983e-03 
-1.341013158963e-03 2.862888668155e-03 0.0 
2.862888668155e-03 5.603065071307e-03 0.0 
0.0 0.0 -1.076426999079e-03 
-1.492882998354e-03 1.325735461083e-04 0.0 
1.325735461083e-04 4.933841446090e-03 0.0 
0.0 0.0 -7.312123441678e-04 
6.172998628868e-04 2.362607397547e-03 0.0 
2.362607397547e-03 1.812787626421e-03 0.0 
0.0 0.0 -9.763781674015e-04 
-1.502422605285e-03 2.514513612527e-03 0.0 
2.514513612527e-03 7.380594194812e-03 0.0 
0.0 0.0 -1.231404929774e-03 
-8.003792871297e-04 -5.108965880218e-04 0.0 
-5.108965880218e-04 2.603757424793e-03 0.0 
0.0 0.0 -7.107894383394e-04 
1.779720377328e-04 -1.298870854502e-03 0.0 
-1.298870854502e-03 4.337348693579e-04 0.0 
0.0 0.0 -1.164291272224e-04 
-9.970216092610e-04 3.010797291644e-03 0.0 
3.010797291644e-03 5.249606407737e-03 0.0 
0.0 0.0 -1.185975225609e-03 
2.191734593223e-04 5.610847358595e-04 0.0 
5.610847358595e-04 2.599656196276e-03 0.0 
0.0 0.0 -1.123538223191e-03 
1.172927684885e-03 -2.889497196016e-03 0.0 
-2.889497196016e-03 3.300442381492e-04 0.0 
0.0 0.0 -6.441308241577e-04 
-1.607945126080e-03 -1.740082688204e-05 0.0 
-1.740082688204e-05 7.004832338719e-03 0.0 
0.0 0.0 -9.893338170986e-04 
-1.512467681835e-03 -1.269144618606e-03 0.0 
-1.269144618606e-03 6.614649124568e-03 0.0 
0.0 0.0 -1.282739585886e-03 
-7.843923001707e-04 3.075094105696e-03 0.0 
3.075094105696e-03 4.595487038338e-03 0.0 
0.0 0.0 -1.182073443778e-03 
-8.715817867822e-04 3.121670101447e-03 0.0 
3.121670101447e-03 5.293578095492e-03 0.0 
0.0 0.0 -1.215129606110e-03 
-1.899421587696e-03 -4.002758172017e-04 0.0 
-4.002758172017e-04 5.518204821451e-03 0.0 
0.0 0.0 -1.079026350805e-03 
0.0 0.0 0.0 
0.0 0.0 0.0 
0.0 0.0 0.0 
-4.777114925537e-05 1.704067356774e-03 0.0 
1.704067356774e-03 1.178107469511e-03 0.0 
0.0 0.0 -4.844298515380e-04 
4.263341666864e-04 2.474607686413e-03 0.0 
2.474607686413e-03 9.338852604604e-04 0.0 
0.0 0.0 -5.829511830629e-04 
-1.721178049984e-03 1.085378291777e-03 0.0 
1.085378291777e-03 5.473315709064e-03 0.0 
0.0 0.0 -8.471429939415e-04 
4.228609678746e-04 3.021260051708e-03 0.0 
3.021260051708e-03 1.732467119469e-03 0.0 
0.0 0.0 -9.237120374330e-04 
-1.533799557255e-03 6.728038073689e-04 0.0 
6.728038073689e-04 8.237501439824e-03 0.0 
0.0 0.0 -1.236541257690e-03 
-8.719226860915e-04 7.267313533335e-04 0.0 
7.267313533335e-04 4.230245890387e-03 0.0 
0.0 0.0 -1.282325209426e-03 
2.964520960670e-04 -1.978928276592e-03 0.0 
-1.978928276592e-03 8.042557840210e-04 0.0 
0.0 0.0 -4.717319486092e-04 
1.319048487483e-04 -1.576566321261e-03 0.0 
-1.576566321261e-03 7.886992305850e-04 0.0 
0.0 0.0 -3.945446054286e-04 
1.817673251283e-04 1.876543985894e-03 0.0 
1.876543985894e-03 9.002005847285e-04 0.0 
0.0 0.0 -4.637005327958e-04 
-1.570049742763e-03 5.369425789645e-04 0.0 
5.369425789645e-04 6.963270594615e-03 0.0 
0.0 0.0 -1.019242131223e-03 
-9.308723645065e-04 -1.101236884891e-03 0.0 
-1.101236884891e-03 3.096386949501e-03 0.0 
0.0 0.0 -8.257845680531e-04 
-1.587305306336e-03 1.706805244546e-03 0.0 
1.706805244546e-03 7.938189703079e-03 0.0 
0.0 0.0 -1.241298427557e-03 
-4.566804084497e-04 -4.114264182866e-04 0.0 
-4.114264182866e-04 1.625098335496e-03 0.0 
0.0 0.0 -2.728146851408e-04 
-4.193612778590e-04 8.066391699243e-04 0.0 
8.066391699243e-04 3.619638834416e-03 0.0 
0.0 0.0 -1.221152601860e-03 
-1.613149922033e-03 6.729604599103e-04 0.0 
6.729604599103e-04 5.730913827298e-03 0.0 
0.0 0.0 -8.343732341398e-04 
-9.805029045404e-04 2.320290812643e-03 0.0 
2.320290812643e-03 4.821535310315e-03 0.0 
0.0 0.0 -1.286815605725e-03 
-1.972178768770e-04 2.471490219589e-03 0.0 
2.471490219589e-03 3.599121568157e-03 0.0 
0.0 0.0 -1.111121968474e-03 
-1.760642934702e-03 1.153303269584e-03 0.0 
1.153303269584e-03 5.427908306702e-03 0.0 
0.0 0.0 -8.465141837044e-04 
-8.764965121591e-04 -1.556039561585e-03 0.0 
-1.556039561585e-03 5.086777567782e-03 0.0 
0.0 0.0 -1.269142588751e-03 
-1.551933899349e-03 2.142615053803e-03 0.0 
2.142615053803e-03 8.208999000424e-03 0.0 
0.0 0.0 -1.272727265576e-03 
-1.482418812719e-03 2.636741981307e-04 0.0 
2.636741981307e-04 8.672320582664e-03 0.0 
0.0 0.0 -1.271339345674e-03 
2.794840770511e-04 1.877110949586e-03 0.0 
1.877110949586e-03 7.644572491491e-04 0.0 
0.0 0.0 -4.474034255144e-04 
-1.548384254494e-03 1.778472603870e-03 0.0 
1.778472603870e-03 7.853183226648e-03 0.0 
0.0 0.0 -1.218309553141e-03 
-1.238984078820e-03 3.237221125149e-03 0.0 
3.237221125149e-03 5.979697278194e-03 0.0 
0.0 0.0 -1.286645293131e-03 
-2.338452424878e-04 4.838955254747e-04 0.0 
4.838955254747e-04 3.810277403162e-03 0.0 
0.0 0.0 -1.211735819529e-03 
-2.641749654371e-04 2.730651329854e-03 0.0 
2.730651329854e-03 3.539043083142e-03 0.0 
0.0 0.0 -1.143254064081e-03 
-1.342665167303e-03 -1.913201158816e-03 0.0 
-1.913201158816e-03 6.140194887135e-03 0.0 
0.0 0.0 -1.342665167303e-03 
-1.336562494305e-03 3.148621666370e-03 0.0 
3.148621666370e-03 5.546558025077e-03 0.0 
0.0 0.0 -1.079065255302e-03 
0.0 0.0 0.0 
0.0 0.0 0.0 
0.0 0.0 0.0 
1.128782554056e-03 2.722430850094e-03 0.0 
2.722430850094e-03 3.671628183846e-04 0.0 
0.0 0.0 -6.411194453319e-04 
-1.438782275937e-03 2.878593628370e-03 0.0 
2.878593628370e-03 6.406037302073e-03 0.0 
0.0 0.0 -1.176936364471e-03 
-1.717609899646e-03 1.241798828460e-03 0.0 
1.241798828460e-03 5.908300544731e-03 0.0 
0.0 0.0 -8.884613587993e-04 
-1.780913372705e-03 -9.535977727778e-04 0.0 
-9.535977727778e-04 6.697114639858e-03 0.0 
0.0 0.0 -1.221994126432e-03 
-4.533386727007e-04 2.366129578243e-03 0.0 
2.366129578243e-03 4.141621556580e-03 0.0 
0.0 0.0 -1.177009544428e-03 
-1.321487320261e-03 -1.869174225829e-03 0.0 
-1.869174225829e-03 5.949052928407e-03 0.0 
0.0 0.0 -1.292249833993e-03 
-1.557982079132e-03 5.560473992337e-04 0.0 
5.560473992337e-04 7.430714466144e-03 0.0 
0.0 0.0 -1.085521458831e-03 
-9.906508321286e-04 2.010874064209e-03 0.0 
2.010874064209e-03 4.656220140669e-03 0.0 
0.0 0.0 -1.288973456333e-03 
-8.669493969727e-04 -1.781456295850e-03 0.0 
-1.781456295850e-03 4.656567585957e-03 0.0 
0.0 0.0 -1.233322439334e-03 
-8.389834207113e-04 -1.353105162080e-03 0.0 
-1.353105162080e-03 4.612963758963e-03 0.0 
0.0 0.0 -1.235043566395e-03 
-1.060688043098e-03 -7.830630523890e-04 0.0 
-7.830630523890e-04 3.332470677800e-03 0.0 
0.0 0.0 -8.113697483009e-04 
-1.399514092732e-03 -1.981208132211e-03 0.0 
-1.981208132211e-03 6.677395424695e-03 0.0 
0.0 0.0 -1.325641941534e-03 
-1.659266455691e-03 6.538953700681e-04 0.0 
6.538953700681e-04 5.459969626810e-03 0.0 
0.0 0.0 -7.662153309038e-04 
-1.522339522893e-03 2.785636433653e-04 0.0 
2.785636433653e-04 8.220976080768e-03 0.0 
0.0 0.0 -1.217406395242e-03 
2.069000998586e-04 -1.834555044401e-03 0.0 
-1.834555044401e-03 8.418202147660e-04 0.0 
0.0 0.0 -4.494515634106e-04 
-1.554320641115e-03 9.540049576088e-05 0.0 
9.540049576088e-05 8.023345832809e-03 0.0 
0.0 0.0 -1.163202487293e-03 
-1.605625159736e-03 1.859754007895e-04 0.0 
1.859754007895e-04 7.063048343461e-03 0.0 
0.0 0.0 -9.926133712568e-04 
1.071864880333e-03 1.610051896133e-04 0.0 
1.610051896133e-04 5.200375252643e-04 0.0 
0.0 0.0 -3.474471837849e-04 
1.832184275694e-03 -1.682280732148e-03 0.0 
-1.682280732148e-03 -1.155510517394e-03 0.0 
0.0 0.0 -2.900030392716e-04 
-1.244256880666e-03 3.271621003319e-03 0.0 
3.271621003319e-03 5.486132487448e-03 0.0 
0.0 0.0 -1.107581195644e-03 
-1.451044372397e-03 1.126612148562e-03 0.0 
1.126612148562e-03 8.289352558878e-03 0.0 
0.0 0.0 -1.285368862661e-03 
-1.527299749628e-03 6.691441746447e-05 0.0 
6.691441746447e-05 8.328526928916e-03 0.0 
0.0 0.0 -1.223917301752e-03 
-6.542601835067e-04 2.123935983625e-03 0.0 
2.123935983625e-03 4.536265029875e-03 0.0 
0.0 0.0 -1.264779455601e-03 
-1.569067467187e-03 4.931081965661e-04 0.0 
4.931081965661e-04 6.107235089411e-03 0.0 
0.0 0.0 -8.807565902733e-04 
9.036251718301e-04 -7.928332989266e-04 0.0 
-7.928332989266e-04 8.196583140466e-05 0.0 
0.0 0.0 -1.521090440113e-04 
0.0 0.0 0.0 
0.0 0.0 0.0 
0.0 0.0 0.0 
1.535104090838e-04 -8.781412906566e-04 0.0 
-8.781412906566e-04 3.080308650687e-04 0.0 
0.0 0.0 -1.564070233212e-04 
2.353484151011e-04 -2.169776398881e-03 0.0 
-2.169776398881e-03 1.011611602068e-03 0.0 
0.0 0.0 -5.344114359296e-04 
0.0 0.0 0.0 
0.0 0.0 0.0 
0.0 0.0 0.0 
-1.313634282752e-03 -1.068658817985e-03 0.0 
-1.068658817985e-03 4.125079470398e-03 0.0 
0.0 0.0 -9.906016899089e-04 
-1.765538454854e-03 -6.603659762189e-04 0.0 
-6.603659762189e-04 6.689629757519e-03 0.0 
0.0 0.0 -1.222305993939e-03 
-1.487013992754e-03 2.874720261212e-03 0.0 
2.874720261212e-03 7.173251573241e-03 0.0 
0.0 0.0 -1.222833113937e-03 
-1.810465878115e-03 1.368618358307e-03 0.0 
1.368618358307e-03 5.754603684206e-03 0.0 
0.0 0.0 -8.826313165011e-04 
-9.427899726930e-04 -1.641697169279e-03 0.0 
-1.641697169279e-03 3.388954329502e-03 0.0 
0.0 0.0 -9.886704355714e-04 
-1.052300381815e-03 -2.069501750766e-03 0.0 
-2.069501750766e-03 5.090082794775e-03 0.0 
0.0 0.0 -1.221067908166e-03 
-3.450149565899e-04 -4.408348736528e-04 0.0 
-4.408348736528e-04 3.924699322023e-03 0.0 
0.0 0.0 -1.208702654310e-03 
-8.170914780341e-04 2.664423274710e-03 0.0 
2.664423274710e-03 5.146096323449e-03 0.0 
0.0 0.0 -1.272252409145e-03 
-1.123992376730e-03 3.068252591852e-03 0.0 
3.068252591852e-03 5.507273388894e-03 0.0 
0.0 0.0 -1.237422270938e-03 
-1.253834785736e-03 3.291285599942e-03 0.0 
3.291285599942e-03 5.877546624236e-03 0.0 
0.0 0.0 -1.171232062679e-03 
5.704301253037e-05 -1.249012332624e-03 0.0 
-1.249012332624e-03 7.024151054082e-04 0.0 
0.0 0.0 -3.254820505451e-04 
0.0 0.0 0.0 
0.0 0.0 0.0 
0.0 0.0 0.0 
-1.712539485778e-03 -1.411450056388e-03 0.0 
-1.411450056388e-03 6.539673002672e-03 0.0 
0.0 0.0 -1.223662873675e-03 
4.574946163465e-04 -1.248756071680e-04 0.0 
-1.248756071680e-04 4.764925333501e-04 0.0 
0.0 0.0 -3.004112795925e-04 
4.253951230566e-04 3.287859358848e-05 0.0 
3.287859358848e-05 7.852927410903e-04 0.0 
0.0 0.0 -3.059539021820e-04 
3.569372191111e-04 1.397839525162e-03 0.0 
1.397839525162e-03 1.545362028711e-04 0.0 
0.0 0.0 -2.192028951352e-04 
1.631271963867e-04 -1.346040378322e-03 0.0 
-1.346040378322e-03 7.094587977712e-04 0.0 
0.0 0.0 -2.452105594499e-04 
-1.114394941751e-03 -1.506329218264e-03 0.0 
-1.506329218264e-03 4.944157592562e-03 0.0 
0.0 0.0 -1.288571152055e-03 
-1.352715823829e-03 3.152231925611e-03 0.0 
3.152231925611e-03 6.563761337094e-03 0.0 
0.0 0.0 -1.290113636706e-03 
-1.510579169811e-03 9.854603377599e-04 0.0 
9.854603377599e-04 8.241359475843e-03 0.0 
0.0 0.0 -1.236907757659e-03 
-1.086519748050e-03 2.592005204986e-03 0.0 
2.592005204986e-03 5.044458595201e-03 0.0 
0.0 0.0 -1.292605224168e-03 
-2.276922230483e-04 -7.087333384445e-04 0.0 
-7.087333384445e-04 3.411401019740e-03 0.0 
0.0 0.0 -1.176879138244e-03 
-1.566246162816e-03 5.074519573883e-04 0.0 
5.074519573883e-04 6.374166084480e-03 0.0 
0.0 0.0 -9.170130443517e-04 
-1.345069444888e-03 1.513726926191e-03 0.0 
1.513726926191e-03 8.492915807412e-03 0.0 
0.0 0.0 -1.345069444888e-03 
1.877003485193e-03 -3.080309129991e-03 0.0 
-3.080309129991e-03 -5.962554255729e-04 0.0 
0.0 0.0 -5.488920255517e-04 
-1.475350828104e-03 1.976985984706e-04 0.0 
1.976985984706e-04 5.152730599786e-03 0.0 
0.0 0.0 -7.083073883397e-04 
7.042658253586e-04 -2.920094682842e-03 0.0 
-2.920094682842e-03 7.774626018425e-04 0.0 
0.0 0.0 -6.350264688005e-04 
7.675081391674e-04 -5.290525383807e-04 0.0 
-5.290525383807e-04 -3.861513785839e-05 0.0 
0.0 0.0 -2.518608130650e-04 
-1.493015975364e-03 -1.542117778823e-03 0.0 
-1.542117778823e-03 7.001843856808e-03 0.0 
0.0 0.0 -1.323850096553e-03 
-1.762927026530e-03 1.105745086140e-03 0.0 
1.105745086140e-03 5.347670343178e-03 0.0 
0.0 0.0 -7.731261162940e-04 
3.059071642176e-04 -4.769524246547e-04 0.0 
-4.769524246547e-04 1.116375202047e-03 0.0 
0.0 0.0 -3.136165521777e-04 
-1.289952526759e-03 -6.554530809443e-04 0.0 
-6.554530809443e-04 4.022238421528e-03 0.0 
0.0 0.0 -9.854929843998e-04 
-1.353447502636e-03 3.372255620603e-03 0.0 
3.372255620603e-03 6.903608554072e-03 0.0 
0.0 0.0 -1.276804206569e-03 
-1.580153705301e-03 9.463034913401e-04 0.0 
9.463034913401e-04 8.179177676168e-03 0.0 
0.0 0.0 -1.228616961883e-03 
-1.459295938370e-03 2.235750315535e-03 0.0 
2.235750315535e-03 7.840317348904e-03 0.0 
0.0 0.0 -1.289666537713e-03 
-1.042366719392e-03 -4.130279661277e-04 0.0 
-4.130279661277e-04 3.166645294064e-03 0.0 
0.0 0.0 -7.209785830746e-04 
0.0 0.0 0.0 
0.0 0.0 0.0 
0.0 0.0 0.0 
-1.330660736049e-03 -2.112854558462e-03 0.0 
-2.112854558462e-03 6.026587435622e-03 0.0 
0.0 0.0 -1.273144391159e-03 
-1.420679226607e-03 1.845062484055e-04 0.0 
1.845062484055e-04 8.984274218415e-03 0.0 
0.0 0.0 -1.325353038101e-03 
-1.599270300318e-03 -4.031472723049e-04 0.0 
-4.031472723049e-04 7.370420628954e-03 0.0 
0.0 0.0 -1.323783523096e-03 
-1.454892267765e-03 1.410388417337e-04 0.0 
1.410388417337e-04 5.404570969644e-03 0.0 
0.0 0.0 -7.673431308700e-04 
-5.798667066363e-04 -4.017993081382e-04 0.0 
-4.017993081382e-04 3.786051546347e-03 0.0 
0.0 0.0 -1.231867668451e-03 
-2.703199839151e-04 -3.327091265360e-04 0.0 
-3.327091265360e-04 1.134795808800e-03 0.0 
0.0 0.0 -2.923189298614e-04 
-1.540435464510e-03 1.974801601423e-03 0.0 
1.974801601423e-03 7.945053936292e-03 0.0 
0.0 0.0 -1.241575510934e-03 
7.093719106213e-04 -6.473525039570e-04 0.0 
-6.473525039570e-04 -6.146240833120e-06 0.0 
0.0 0.0 -2.201278046225e-04 
-1.035309467580e-03 -9.652751717972e-04 0.0 
-9.652751717972e-04 4.607784315543e-03 0.0 
0.0 0.0 -1.290713494763e-03 
-1.546892534215e-03 2.536580836788e-03 0.0 
2.536580836788e-03 7.963102419275e-03 0.0 
0.0 0.0 -1.268585396830e-03 
0.0 0.0 0.0 
0.0 0.0 0.0 
0.0 0.0 0.0 
-7.125328406643e-04 2.854381537959e-03 0.0 
2.854381537959e-03 4.690081759982e-03 0.0 
0.0 0.0 -1.178018281593e-03 
-1.581615712652e-03 6.406846432010e-05 0.0 
6.406846432010e-05 7.204958832163e-03 0.0 
0.0 0.0 -1.053859681778e-03 
-1.422126824857e-03 8.354035890497e-04 0.0 
8.354035890497e-04 8.383690559568e-03 0.0 
0.0 0.0 -1.289687241943e-03 
-1.346242744377e-03 1.394088556631e-03 0.0 
1.394088556631e-03 5.074174046536e-03 0.0 
0.0 0.0 -1.346242744377e-03 
-1.579226085277e-03 -2.236352472968e-04 0.0 
-2.236352472968e-04 6.673772320033e-03 0.0 
0.0 0.0 -9.627310317561e-04 
-1.352695242601e-03 3.190608641684e-03 0.0 
3.190608641684e-03 6.804006829943e-03 0.0 
0.0 0.0 -1.292510612804e-03 
-1.606507542629e-03 2.038310361331e-03 0.0 
2.038310361331e-03 7.743565210436e-03 0.0 
0.0 0.0 -1.236507170568e-03 
-1.568883613753e-03 1.757297800362e-04 0.0 
1.757297800362e-04 6.816128580048e-03 0.0 
0.0 0.0 -1.009625451247e-03 
-1.338198193755e-03 3.094920805743e-03 0.0 
3.094920805743e-03 6.452958212167e-03 0.0 
0.0 0.0 -1.247605899893e-03 
-1.069270980668e-03 -8.397930297141e-04 0.0 
-8.397930297141e-04 3.454365731416e-03 0.0 
0.0 0.0 -9.078723690805e-04 
-1.462959848022e-03 3.355807606363e-05 0.0 
3.355807606363e-05 4.925884328863e-03 0.0 
0.0 0.0 -7.287847301676e-04 
-7.853622933110e-04 2.799478897718e-03 0.0 
2.799478897718e-03 4.730479437110e-03 0.0 
0.0 0.0 -1.239219007812e-03 
-1.427801408329e-03 2.279610176079e-04 0.0 
2.279610176079e-04 8.599854493521e-03 0.0 
0.0 0.0 -1.286506427510e-03 
2.364174244584e-03 -3.920966346370e-05 0.0 
-3.920966346370e-05 -9.416422440926e-04 0.0 
0.0 0.0 -1.658991634594e-04 
-1.429614866782e-03 7.018012440351e-05 0.0 
7.018012440351e-05 4.945453144079e-03 0.0 
0.0 0.0 -7.284590636140e-04 
-1.619941162379e-03 -3.710140945832e-04 0.0 
-3.710140945832e-04 7.072586371596e-03 0.0 
0.0 0.0 -1.288082484959e-03 
-4.257310582937e-04 -7.375837559217e-04 0.0 
-7.375837559217e-04 1.550072552707e-03 0.0 
0.0 0.0 -4.679105978332e-04 
-2.651775118790e-04 1.741696615314e-04 0.0 
1.741696615314e-04 3.934086569527e-03 0.0 
0.0 0.0 -1.213252366005e-03 
-1.592381110183e-03 2.367463417435e-03 0.0 
2.367463417435e-03 7.496929060090e-03 0.0 
0.0 0.0 -1.225943235494e-03 
-1.523630465134e-03 6.434168762766e-04 0.0 
6.434168762766e-04 8.597347826225e-03 0.0 
0.0 0.0 -1.269037835114e-03 
-5.242932188711e-04 -5.062352980044e-04 0.0 
-5.062352980044e-04 1.580681758625e-03 0.0 
0.0 0.0 -3.173190315717e-04 
9.435665947915e-04 2.759812172338e-03 0.0 
2.759812172338e-03 -2.448701844830e-04 0.0 
0.0 0.0 -2.994413187036e-04 
-1.588603004087e-03 1.309858719882e-04 0.0 
1.309858719882e-04 4.764403352260e-03 0.0 
0.0 0.0 -1.056762885644e-03 
-1.577119311605e-03 2.587547752196e-04 0.0 
2.587547752196e-04 7.701946830658e-03 0.0 
0.0 0.0 -1.120841203304e-03 
0.0 0.0 0.0 
0.0 0.0 0.0 
0.0 0.0 0.0 
-1.448426484907e-03 1.878765382125e-03 0.0 
1.878765382125e-03 8.065670326291e-03 0.0 
0.0 0.0 -1.292233508669e-03 
-1.560868544091e-03 1.573692905966e-04 0.0 
1.573692905966e-04 6.444251121821e-03 0.0 
0.0 0.0 -9.501928138396e-04 
9.548640501235e-04 -2.932790788742e-03 0.0 
-2.932790788742e-03 4.477362362625e-04 0.0 
0.0 0.0 -6.011144084512e-04 
-1.577095330701e-03 2.356135282763e-04 0.0 
2.356135282763e-04 6.152695530289e-03 0.0 
0.0 0.0 -9.030544305944e-04 
-9.123359041244e-04 2.767752077309e-03 0.0 
2.767752077309e-03 5.381455446983e-03 0.0 
0.0 0.0 -1.271643562581e-03 
-1.672772992247e-03 -3.658378199310e-04 0.0 
-3.658378199310e-04 4.968645958279e-03 0.0 
0.0 0.0 -1.058796759180e-03 
0.0 0.0 0.0 
0.0 0.0 0.0 
0.0 0.0 0.0 
-9.352736057356e-04 -8.421943932676e-04 0.0 
-8.421943932676e-04 3.140704490616e-03 0.0 
0.0 0.0 -9.009998304000e-04 
-1.402484368002e-03 -1.042823096176e-03 0.0 
-1.042823096176e-03 4.352884265014e-03 0.0 
0.0 0.0 -1.017945853013e-03 
-1.735012846972e-03 1.716303062956e-04 0.0 
1.716303062956e-04 5.112807218002e-03 0.0 
0.0 0.0 -1.063010248388e-03 
-5.677318458841e-04 1.906245464939e-03 0.0 
1.906245464939e-03 4.337997414081e-03 0.0 
0.0 0.0 -1.232780192057e-03 
-1.357670205510e-03 -6.381368347671e-04 0.0 
-6.381368347671e-04 4.227863364473e-03 0.0 
0.0 0.0 -1.035743023508e-03 
-1.479273144233e-03 -6.656278634480e-04 0.0 
-6.656278634480e-04 4.508927527854e-03 0.0 
0.0 0.0 -1.032702936181e-03 
1.040523643933e-04 -1.090937755128e-03 0.0 
-1.090937755128e-03 5.650850241542e-04 0.0 
0.0 0.0 -2.287174616664e-04 
-1.350567245042e-03 -1.731169106789e-03 0.0 
-1.731169106789e-03 5.793216621325e-03 0.0 
0.0 0.0 -1.240629869904e-03 
-1.027503594671e-03 3.327843857872e-03 0.0 
3.327843857872e-03 5.261023074075e-03 0.0 
0.0 0.0 -1.186362110037e-03 
1.189612951575e-03 2.308398015229e-03 0.0 
2.308398015229e-03 -4.894900924091e-04 0.0 
0.0 0.0 -3.000526539282e-04 
-1.387676757457e-03 4.952672058335e-05 0.0 
4.952672058335e-05 8.504316401028e-03 0.0 
0.0 0.0 -1.290349483557e-03 
-1.582576424774e-03 -1.560547969950e-04 0.0 
-1.560547969950e-04 7.007946096611e-03 0.0 
0.0 0.0 -1.290356026000e-03 
-1.460183445125e-03 -1.247594329356e-04 0.0 
-1.247594329356e-04 5.521441348557e-03 0.0 
0.0 0.0 -7.639788432047e-04 
-1.578918019610e-03 1.294379469898e-04 0.0 
1.294379469898e-04 6.639288700401e-03 0.0 
0.0 0.0 -9.358343396975e-04 
-1.420511664925e-03 -7.103380260756e-04 0.0 
-7.103380260756e-04 4.349288440906e-03 0.0 
0.0 0.0 -1.005720210571e-03 
-1.359175063422e-03 -8.855188390870e-04 0.0 
-8.855188390870e-04 4.258136974865e-03 0.0 
0.0 0.0 -1.040482674164e-03 
-1.527056262754e-03 -5.709073839489e-04 0.0 
-5.709073839489e-04 4.609671028000e-03 0.0 
0.0 0.0 -1.028873814706e-03 
-1.501496450629e-04 5.539703397871e-04 0.0 
5.539703397871e-04 3.298271412421e-03 0.0 
0.0 0.0 -1.180929064624e-03 
7.927858436439e-04 -3.045537929079e-03 0.0 
-3.045537929079e-03 8.494276970912e-04 0.0 
0.0 0.0 -7.038058031722e-04 
-1.116381248406e-03 3.165697137737e-03 0.0 
3.165697137737e-03 5.872062490069e-03 0.0 
0.0 0.0 -1.217816617926e-03 
-1.516247589342e-03 1.508277039824e-04 0.0 
1.508277039824e-04 5.685216966324e-03 0.0 
0.0 0.0 -8.376728236383e-04 
-1.571303365585e-03 1.703335586913e-03 0.0 
1.703335586913e-03 8.300700874157e-03 0.0 
0.0 0.0 -1.272153791098e-03 
-1.928595014899e-04 9.704790717136e-05 0.0 
9.704790717136e-05 3.265405422004e-03 0.0 
0.0 0.0 -1.181257232468e-03 
-1.580055462922e-03 1.466056733213e-04 0.0 
1.466056733213e-04 6.354105997974e-03 0.0 
0.0 0.0 -8.902468719969e-04 
-1.338698042931e-03 3.178297097849e-03 0.0 
3.178297097849e-03 6.247787653213e-03 0.0 
0.0 0.0 -1.201032862555e-03 
-6.620052052400e-04 2.218466919512e-03 0.0 
2.218466919512e-03 4.229615591751e-03 0.0 
0.0 0.0 -1.236767197193e-03 
-7.541183664370e-04 2.280565164163e-03 0.0 
2.280565164163e-03 4.995952357256e-03 0.0 
0.0 0.0 -1.270271405117e-03 
1.293451072768e-04 1.010666469426e-03 0.0 
1.010666469426e-03 -1.293451072768e-04 0.0 
0.0 0.0 0.0 
-1.368734881355e-03 2.988428396573e-03 0.0 
2.988428396573e-03 6.291274088760e-03 0.0 
0.0 0.0 -1.198686027802e-03 
-1.300476394130e-03 3.433743793017e-03 0.0 
3.433743793017e-03 6.406654162985e-03 0.0 
0.0 0.0 -1.227078865044e-03 
7.248957313196e-04 -1.043101674158e-03 0.0 
-1.043101674158e-03 5.245352296454e-04 0.0 
0.0 0.0 -2.668574800815e-04 
-1.256459332456e-03 -8.842282026345e-04 0.0 
-8.842282026345e-04 4.000740750754e-03 0.0 
0.0 0.0 -1.019774149770e-03 
0.0 0.0 0.0 
0.0 0.0 0.0 
0.0 0.0 0.0 
-1.414281382184e-03 3.115423266543e-03 0.0 
3.115423266543e-03 6.751118296047e-03 0.0 
0.0 0.0 -1.230789928679e-03 
-1.398599667363e-05 -1.659967601733e-05 0.0 
-1.659967601733e-05 4.912432104112e-05 0.0 
0.0 0.0 -1.505928187178e-05 
-1.163312183774e-04 -1.817061642429e-05 0.0 
-1.817061642429e-05 3.691439164700e-04 0.0 
0.0 0.0 -9.740729769764e-05 
0.0 0.0 0.0 
0.0 0.0 0.0 
0.0 0.0 0.0 
-1.212964907083e-04 -4.074044516843e-05 0.0 
-4.074044516843e-05 3.684739808951e-04 0.0 
0.0 0.0 -8.431972976572e-05 
0.0 0.0 0.0 
0.0 0.0 0.0 
0.0 0.0 0.0 
-1.271911089116e-04 -4.664114907109e-05 0.0 
-4.664114907109e-05 3.710406957196e-04 0.0 
0.0 0.0 -7.280673524639e-05 
0.0 0.0 0.0 
0.0 0.0 0.0 
0.0 0.0 0.0 
-1.315390077215e-04 -5.573563196226e-05 0.0 
-5.573563196226e-05 3.713676510148e-04 0.0 
0.0 0.0 -6.238019489807e-05 
0.0 0.0 0.0 
0.0 0.0 0.0 
0.0 0.0 0.0 
-1.349865042938e-04 -6.973856311421e-05 0.0 
-6.973856311421e-05 3.698339390128e-04 0.0 
0.0 0.0 -5.162646378287e-05 
0.0 0.0 0.0 
0.0 0.0 0.0 
0.0 0.0 0.0 
-1.085519055407e-04 -8.133229068035e-05 0.0 
-8.133229068035e-05 3.580502981069e-04 0.0 
0.0 0.0 -4.888888888889e-05 
0.0 0.0 0.0 
0.0 0.0 0.0 
0.0 0.0 0.0 
-7.043292427934e-05 -9.038712767948e-05 0.0 
-9.038712767948e-05 3.418152817138e-04 0.0 
0.0 0.0 -4.888888888889e-05 
0.0 0.0 0.0 
0.0 0.0 0.0 
0.0 0.0 0.0 
-1.605141386664e-05 -1.007312958588e-04 0.0 
-1.007312958588e-04 3.215195312791e-04 0.0 
0.0 0.0 -4.888888888889e-05 
0.0 0.0 0.0 
0.0 0.0 0.0 
0.0 0.0 0.0 
9.855009160864e-05 -1.321482365594e-04 0.0 
-1.321482365594e-04 2.837691576812e-04 0.0 
0.0 0.0 -6.305595920117e-05 
0.0 0.0 0.0 
0.0 0.0 0.0 
0.0 0.0 0.0 
2.377864454044e-04 -1.651800170076e-04 0.0 
-1.651800170076e-04 2.341507273702e-04 0.0 
0.0 0.0 -8.229701109900e-05 
0.0 0.0 0.0 
0.0 0.0 0.0 
0.0 0.0 0.0 
3.893435723963e-04 -1.945584431359e-04 0.0 
-1.945584431359e-04 1.802241102359e-04 0.0 
0.0 0.0 -1.011336883824e-04 
2.189826581585e-05 -1.584967901715e-05 0.0 
-1.584967901715e-05 -5.059524252671e-06 0.0 
0.0 0.0 -7.216603527077e-06 
-7.180466213235e-05 2.545099058316e-04 0.0 
2.545099058316e-04 3.473837814883e-04 0.0 
0.0 0.0 -1.181053368668e-04 
5.367408905961e-04 -2.168535841862e-04 0.0 
-2.168535841862e-04 1.207398325976e-04 0.0 
0.0 0.0 -1.007909414273e-04 
8.706517741616e-05 -3.952918027010e-05 0.0 
-3.952918027010e-05 -2.372532042523e-05 0.0 
0.0 0.0 -2.714565299611e-05 
6.764518982578e-04 -2.262001773910e-04 0.0 
-2.262001773910e-04 6.513216576106e-05 0.0 
0.0 0.0 -1.006803078589e-04 
6.508379938016e-04 -4.114225940208e-04 0.0 
-4.114225940208e-04 -1.075537352157e-04 0.0 
0.0 0.0 -8.759759272668e-05 
1.553670275048e-04 -5.206158982165e-05 0.0 
-5.206158982165e-05 -4.427330258457e-05 0.0 
0.0 0.0 -4.761159639440e-05 
7.997657980711e-04 -2.203928598635e-04 0.0 
-2.203928598635e-04 1.679647810438e-05 0.0 
0.0 0.0 -9.968370803728e-05 
-2.539505404919e-05 1.095111309269e-04 0.0 
1.095111309269e-04 1.260122769083e-04 0.0 
0.0 0.0 -4.312166693960e-05 
2.235750975338e-04 -5.994760929716e-05 0.0 
-5.994760929716e-05 -6.491559985190e-05 0.0 
0.0 0.0 -6.799692757793e-05 
8.972180532841e-04 -2.052330953362e-04 0.0 
-2.052330953362e-04 -1.938049944468e-05 0.0 
0.0 0.0 -9.850789791640e-05 
2.893463633824e-04 -6.464405869221e-05 0.0 
-6.464405869221e-05 -8.486402810310e-05 0.0 
0.0 0.0 -8.763528654828e-05 
9.623790165942e-04 -1.897452128144e-04 0.0 
-1.897452128144e-04 -4.005422200193e-05 0.0 
0.0 0.0 -9.757227854025e-05 
3.497152703433e-04 -6.596974065082e-05 0.0 
-6.596974065082e-05 -1.040419647675e-04 0.0 
0.0 0.0 -1.037703880058e-04 
9.898491682662e-04 -1.913537680423e-04 0.0 
-1.913537680423e-04 -5.003143110298e-05 0.0 
0.0 0.0 -8.183945335459e-05 
3.988869505885e-04 -6.123771881097e-05 0.0 
-6.123771881097e-05 -1.244292291376e-04 0.0 
0.0 0.0 -1.061715538457e-04 
1.012448524027e-03 -2.426235053920e-04 0.0 
-2.426235053920e-04 -7.132749308814e-05 0.0 
0.0 0.0 -4.888888888889e-05 
4.346185081045e-04 -4.186563047949e-05 0.0 
-4.186563047949e-05 -1.391448671980e-04 0.0 
0.0 0.0 -1.089302371749e-04 
-1.563767723695e-04 1.163923423223e-03 0.0 
1.163923423223e-03 1.073052273265e-03 0.0 
0.0 0.0 -3.928609289554e-04 
1.128737262524e-03 -2.204540842264e-04 0.0 
-2.204540842264e-04 -1.169593443340e-04 0.0 
0.0 0.0 -4.888888888889e-05 
4.478837375873e-04 -3.167721590286e-06 0.0 
-3.167721590286e-06 -1.439824843527e-04 0.0 
0.0 0.0 -1.119189561607e-04 
1.216099697278e-03 -1.690522460743e-04 0.0 
-1.690522460743e-04 -1.506572688732e-04 0.0 
0.0 0.0 -4.888888888889e-05 
4.251252373171e-04 5.467386230285e-05 0.0 
5.467386230285e-05 -1.320042548144e-04 0.0 
0.0 0.0 -1.153311229227e-04 
1.252664120467e-03 -8.483957436215e-05 0.0 
-8.483957436215e-05 -1.630178072050e-04 0.0 
0.0 0.0 -4.888888888889e-05 
1.217513715825e-03 2.687458541271e-05 0.0 
2.687458541271e-05 -1.422948076870e-04 0.0 
0.0 0.0 -4.888888888889e-05 
3.555156413156e-04 1.226683583958e-04 0.0 
1.226683583958e-04 -1.009867625332e-04 0.0 
0.0 0.0 -1.090838051925e-04 
1.093741185471e-03 1.432033115724e-04 0.0 
1.432033115724e-04 -7.733110822118e-05 0.0 
0.0 0.0 -4.888888888889e-05 
2.307526278008e-04 1.692743256347e-04 0.0 
1.692743256347e-04 -5.289107359652e-05 0.0 
0.0 0.0 -7.622638037328e-05 
8.865956046883e-04 2.216895219944e-04 0.0 
2.216895219944e-04 4.296679654558e-05 0.0 
0.0 0.0 -4.888888888889e-05 
6.023605237387e-05 1.112960435936e-04 0.0 
1.112960435936e-04 6.347825625040e-06 0.0 
0.0 0.0 -2.853594771382e-05 
5.662176653621e-04 2.897928856966e-04 0.0 
2.897928856966e-04 2.061074979376e-04 0.0 
0.0 0.0 -4.888888888889e-05 
0.0 0.0 0.0 
0.0 0.0 0.0 
0.0 0.0 0.0 
4.131595602670e-04 2.475006037158e-04 0.0 
2.475006037158e-04 2.614689872055e-04 0.0 
0.0 0.0 -1.313860262680e-04 
3.004179373090e-04 3.489277698124e-04 0.0 
3.489277698124e-04 1.869420435929e-04 0.0 
0.0 0.0 -1.136666524279e-04 
0.0 0.0 0.0 
0.0 0.0 0.0 
0.0 0.0 0.0 
-9.162497083837e-06 3.581812004793e-05 0.0 
3.581812004793e-05 4.342164171765e-05 0.0 
0.0 0.0 -1.468249055735e-05 
-4.464768973343e-04 3.870581718130e-04 0.0 
3.870581718130e-04 1.550285061026e-03 0.0 
0.0 0.0 -4.730606415821e-04 
-1.325850765181e-05 -1.145338289614e-04 0.0 
-1.145338289614e-04 9.998673111482e-05 0.0 
0.0 0.0 -3.716923862700e-05 
-7.062924285370e-05 1.546072433721e-04 0.0 
1.546072433721e-04 2.775939460668e-04 0.0 
0.0 0.0 -8.869915851992e-05 
-4.302358722519e-05 -5.649599521873e-05 0.0 
-5.649599521873e-05 1.561854640950e-04 0.0 
0.0 0.0 -4.849794722994e-05 
-5.237242758400e-05 5.192878890082e-06 0.0 
5.192878890082e-06 1.746440403907e-04 0.0 
0.0 0.0 -5.240211977429e-05 
-3.075254142118e-04 4.861447821238e-04 0.0 
4.861447821238e-04 3.718701003546e-04 0.0 
0.0 0.0 -2.757629406119e-05 
-2.295267985421e-04 -4.386320729786e-05 0.0 
-4.386320729786e-05 6.824472831937e-04 0.0 
0.0 0.0 -1.461819300928e-04 
-1.116309330554e-04 7.849614704405e-06 0.0 
7.849614704405e-06 3.721773969683e-04 0.0 
0.0 0.0 -1.116627702484e-04 
-2.973464284068e-04 -4.434235549996e-05 0.0 
-4.434235549996e-05 8.146888354853e-04 0.0 
0.0 0.0 -1.202913534963e-04 
-1.154471354694e-04 -5.172939290367e-05 0.0 
-5.172939290367e-05 3.879166957640e-04 0.0 
0.0 0.0 -1.167726686977e-04 
-3.033790767041e-04 -7.550490102270e-05 0.0 
-7.550490102270e-05 8.257018799991e-04 0.0 
0.0 0.0 -1.161361683110e-04 
-1.154497780104e-04 -7.421820284604e-05 0.0 
-7.421820284604e-05 3.911417008130e-04 0.0 
0.0 0.0 -1.181536812011e-04 
-2.920044760709e-04 -1.006836234346e-04 0.0 
-1.006836234346e-04 8.242250311429e-04 0.0 
0.0 0.0 -1.155555555556e-04 
-1.145257173118e-04 -9.222836093307e-05 0.0 
-9.222836093307e-05 3.914782723309e-04 0.0 
0.0 0.0 -1.186939521510e-04 
-2.734269063474e-04 -1.223460925774e-04 0.0 
-1.223460925774e-04 8.188166535855e-04 0.0 
0.0 0.0 -1.155555555556e-04 
-1.128439378614e-04 -1.096767398091e-04 0.0 
-1.096767398091e-04 3.899403745036e-04 0.0 
0.0 0.0 -1.187556157038e-04 
-2.502940150965e-04 -1.423762384879e-04 0.0 
-1.423762384879e-04 8.105464714135e-04 0.0 
0.0 0.0 -1.155555555556e-04 
-1.106357373058e-04 -1.271103346848e-04 0.0 
-1.271103346848e-04 3.874110808164e-04 0.0 
0.0 0.0 -1.186180043617e-04 
-2.223497893067e-04 -1.604267362806e-04 0.0 
-1.604267362806e-04 7.990964651067e-04 0.0 
0.0 0.0 -1.155555555556e-04 
-1.079856572841e-04 -1.444885626064e-04 0.0 
-1.444885626064e-04 3.841847591282e-04 0.0 
0.0 0.0 -1.183710436475e-04 
-1.861227372331e-04 -1.762010330361e-04 0.0 
-1.762010330361e-04 7.845409513226e-04 0.0 
0.0 0.0 -1.155555555556e-04 
-1.052842212357e-04 -1.632324445045e-04 0.0 
-1.632324445045e-04 3.819965541147e-04 0.0 
0.0 0.0 -1.185909998053e-04 
-1.452423508655e-04 -1.882121043921e-04 0.0 
-1.882121043921e-04 7.688911839004e-04 0.0 
0.0 0.0 -1.155555555556e-04 
-1.024446433001e-04 -1.822458957187e-04 0.0 
-1.822458957187e-04 3.802814098668e-04 0.0 
0.0 0.0 -1.190728999572e-04 
-1.011548918858e-04 -1.946165029548e-04 0.0 
-1.946165029548e-04 7.517242772962e-04 0.0 
0.0 0.0 -1.155555555556e-04 
-9.864250009621e-05 -2.003268374778e-04 0.0 
-2.003268374778e-04 3.760996321856e-04 0.0 
0.0 0.0 -1.189101994669e-04 
-4.004588729569e-05 -1.946381739076e-04 0.0 
-1.946381739076e-04 7.300973565981e-04 0.0 
0.0 0.0 -1.155555555556e-04 
-9.370913535490e-05 -2.216171520887e-04 0.0 
-2.216171520887e-04 3.708737866220e-04 0.0 
0.0 0.0 -1.187848505431e-04 
-3.846373656791e-06 1.001886964346e-03 0.0 
1.001886964346e-03 6.472295954014e-04 0.0 
0.0 0.0 -2.757356664620e-04 
2.289893977445e-05 -1.981916248802e-04 0.0 
-1.981916248802e-04 7.063401406621e-04 0.0 
0.0 0.0 -1.155555555556e-04 
-8.779181837580e-05 -2.457310956759e-04 0.0 
-2.457310956759e-04 3.653667723365e-04 0.0 
0.0 0.0 -1.189606945546e-04 
8.700739234811e-05 -2.019795201134e-04 0.0 
-2.019795201134e-04 6.816010476175e-04 0.0 
0.0 0.0 -1.155555555556e-04 
1.638394791837e-05 9.521030260962e-04 0.0 
9.521030260962e-04 5.791460916257e-04 0.0 
0.0 0.0 -2.552271598046e-04 
-8.108632930407e-05 -2.702613841105e-04 0.0 
-2.702613841105e-04 3.593197390093e-04 0.0 
0.0 0.0 -1.192428898737e-04 
1.518348518855e-04 -2.036151681896e-04 0.0 
-2.036151681896e-04 6.562995802065e-04 0.0 
0.0 0.0 -1.155555555556e-04 
-7.413491734353e-05 -2.921072077251e-04 0.0 
-2.921072077251e-04 3.525866658961e-04 0.0 
0.0 0.0 -1.193364636654e-04 
2.163119637496e-04 -2.009109763079e-04 0.0 
-2.009109763079e-04 6.307097874071e-04 0.0 
0.0 0.0 -1.155555555556e-04 
-6.803177496926e-05 -3.070571196433e-04 0.0 
-3.070571196433e-04 3.452794826598e-04 0.0 
0.0 0.0 -1.188204461531e-04 
5.635569867006e-05 1.057100552343e-03 0.0 
1.057100552343e-03 5.785040332820e-04 0.0 
0.0 0.0 -2.720827422652e-04 
2.787578980788e-04 -1.907539316622e-04 0.0 
-1.907539316622e-04 6.049915408001e-04 0.0 
0.0 0.0 -1.155555555556e-04 
-6.439089149572e-05 -3.092737702501e-04 0.0 
-3.092737702501e-04 3.374185543406e-04 0.0 
0.0 0.0 -1.170118555049e-04 
3.371939089763e-04 -1.692941236999e-04 0.0 
-1.692941236999e-04 5.792448572116e-04 0.0 
0.0 0.0 -1.155555555556e-04 
-6.482545398807e-05 -2.929224698331e-04 0.0 
-2.929224698331e-04 3.291970982952e-04 0.0 
0.0 0.0 -1.133021332745e-04 
3.889881273168e-04 -1.287164311399e-04 0.0 
-1.287164311399e-04 5.528253411075e-04 0.0 
0.0 0.0 -1.155555555556e-04 
-7.073056919242e-05 -2.487252700523e-04 0.0 
-2.487252700523e-04 3.202465727375e-04 0.0 
0.0 0.0 -1.069354300907e-04 
4.277759229804e-04 -5.231996502078e-05 0.0 
-5.231996502078e-05 5.244266365408e-04 0.0 
0.0 0.0 -1.155555555556e-04 
-8.134754341726e-05 -1.615885906605e-04 0.0 
-1.615885906605e-04 3.086659574880e-04 0.0 
0.0 0.0 -9.742217745888e-05 
4.442458718728e-04 7.379816260177e-05 0.0 
7.379816260177e-05 4.978508239998e-04 0.0 
0.0 0.0 -1.155555555556e-04 
-8.802812017768e-05 -3.146358541115e-05 0.0 
-3.146358541115e-05 2.949324541107e-04 0.0 
0.0 0.0 -8.867328597129e-05 
4.244427629073e-04 2.545124484731e-04 0.0 
2.545124484731e-04 4.855847202122e-04 0.0 
0.0 0.0 -1.155555555556e-04 
-8.010125935951e-05 9.233952178043e-05 0.0 
9.233952178043e-05 2.805756423184e-04 0.0 
0.0 0.0 -8.591759269666e-05 
1.595597079951e-05 1.227595863750e-03 0.0 
1.227595863750e-03 7.558321140103e-04 0.0 
0.0 0.0 -3.307663220613e-04 
-6.927120500074e-05 2.040334361338e-04 0.0 
2.040334361338e-04 2.932841817626e-04 0.0 
0.0 0.0 -9.600556146937e-05 
3.590795123597e-04 4.843620787254e-04 0.0 
4.843620787254e-04 4.901043928255e-04 0.0 
0.0 0.0 -1.155555555556e-04 
-6.275869197349e-05 3.192100051638e-04 0.0 
3.192100051638e-04 3.391052334330e-04 0.0 
0.0 0.0 -1.184342320541e-04 
2.396549807396e-04 7.593006197371e-04 0.0 
7.593006197371e-04 5.264421376526e-04 0.0 
0.0 0.0 -1.155555555556e-04 
-4.920226404040e-05 4.815164508385e-04 0.0 
4.815164508385e-04 4.059975123012e-04 0.0 
0.0 0.0 -1.529122492546e-04 
3.424252060556e-05 1.086379687035e-03 0.0 
1.086379687035e-03 5.976232341077e-04 0.0 
0.0 0.0 -1.155555555556e-04 
-4.813134293096e-06 7.480661281408e-04 0.0 
7.480661281408e-04 4.868210713766e-04 0.0 
0.0 0.0 -2.065748301787e-04 
1.663075343115e-05 1.114513822341e-03 0.0 
1.114513822341e-03 6.396000614345e-04 0.0 
0.0 0.0 -2.420724550914e-04 
4.326104345093e-05 1.213454097742e-03 0.0 
1.213454097742e-03 6.996553321202e-04 0.0 
0.0 0.0 -3.183927323876e-04 
-2.463770512099e-05 1.146082058073e-03 0.0 
1.146082058073e-03 7.791326252153e-04 0.0 
0.0 0.0 -3.233549657547e-04 
-1.991392284018e-04 -2.632936858693e-04 0.0 
-2.632936858693e-04 6.947779645619e-04 0.0 
0.0 0.0 -2.048072284006e-04 
-1.283732636798e-04 2.342919003887e-04 0.0 
2.342919003887e-04 4.788176031134e-04 0.0 
0.0 0.0 -1.501904311858e-04 
-1.913454122527e-04 -3.523484980121e-05 0.0 
-3.523484980121e-05 6.386901471519e-04 0.0 
0.0 0.0 -1.917191720997e-04 
-1.658446362532e-04 3.154024811191e-05 0.0 
3.154024811191e-05 5.443963737963e-04 0.0 
0.0 0.0 -1.569589080365e-04 
2.390184882806e-05 1.124392003039e-03 0.0 
1.124392003039e-03 6.764174691999e-04 0.0 
0.0 0.0 -3.001368505834e-04 
-3.716573485794e-04 -7.308086580746e-05 0.0 
-7.308086580746e-05 1.123679557872e-03 0.0 
0.0 0.0 -2.552892395041e-04 
-4.429898056613e-04 -1.499507040161e-06 0.0 
-1.499507040161e-06 1.336256189452e-03 0.0 
0.0 0.0 -1.822222222222e-04 
-2.878359977638e-04 -5.194463884500e-05 0.0 
-5.194463884500e-05 9.498596563893e-04 0.0 
0.0 0.0 -2.775159627411e-04 
-4.398393734989e-04 -1.185043080846e-04 0.0 
-1.185043080846e-04 1.322659454202e-03 0.0 
0.0 0.0 -1.822222222222e-04 
-2.829789325043e-04 -8.297130250857e-05 0.0 
-8.297130250857e-05 9.397706721473e-04 0.0 
0.0 0.0 -2.776119422606e-04 
-4.336702980756e-04 -1.653384621676e-04 0.0 
-1.653384621676e-04 1.319734396262e-03 0.0 
0.0 0.0 -1.822222222222e-04 
-2.827096919224e-04 -1.126011952365e-04 0.0 
-1.126011952365e-04 9.395392681461e-04 0.0 
0.0 0.0 -2.764327848408e-04 
-4.248996497787e-04 -2.024827324758e-04 0.0 
-2.024827324758e-04 1.316172738590e-03 0.0 
0.0 0.0 -1.822222222222e-04 
-2.823386530371e-04 -1.392454963216e-04 0.0 
-1.392454963216e-04 9.389737264907e-04 0.0 
0.0 0.0 -2.749086900475e-04 
-4.136924531575e-04 -2.350675990601e-04 0.0 
-2.350675990601e-04 1.310878321230e-03 0.0 
0.0 0.0 -1.822222222222e-04 
-2.816129401536e-04 -1.632497413587e-04 0.0 
-1.632497413587e-04 9.372929803555e-04 0.0 
0.0 0.0 -2.729404255995e-04 
-3.976857652183e-04 -2.652621478120e-04 0.0 
-2.652621478120e-04 1.303334294056e-03 0.0 
0.0 0.0 -1.822222222222e-04 
-2.803206707951e-04 -1.855581458460e-04 0.0 
-1.855581458460e-04 9.340637628811e-04 0.0 
0.0 0.0 -2.705856234763e-04 
-3.762923916513e-04 -2.955575148066e-04 0.0 
-2.955575148066e-04 1.294066213469e-03 0.0 
0.0 0.0 -1.822222222222e-04 
-2.787344111822e-04 -2.063226971631e-04 0.0 
-2.063226971631e-04 9.300647707320e-04 0.0 
0.0 0.0 -2.680300884472e-04 
-3.524733423667e-04 -3.242857553213e-04 0.0 
-3.242857553213e-04 1.284036341755e-03 0.0 
0.0 0.0 -1.822222222222e-04 
-2.773174491727e-04 -2.243826698792e-04 0.0 
-2.243826698792e-04 9.262601929332e-04 0.0 
0.0 0.0 -2.653613746712e-04 
-3.262227673129e-04 -3.491155030409e-04 0.0 
-3.491155030409e-04 1.273115495828e-03 0.0 
0.0 0.0 -1.822222222222e-04 
-2.758375031311e-04 -2.392217572740e-04 0.0 
-2.392217572740e-04 9.221568306150e-04 0.0 
0.0 0.0 -2.627686153381e-04 
-2.969957875683e-04 -3.713968991802e-04 0.0 
-3.713968991802e-04 1.261966627062e-03 0.0 
0.0 0.0 -1.822222222222e-04 
2.933981114106e-05 1.393003147103e-03 0.0 
1.393003147103e-03 8.379533607805e-04 0.0 
0.0 0.0 -3.716970736807e-04 
-2.749117239138e-04 -2.489613962881e-04 0.0 
-2.489613962881e-04 9.190565160033e-04 0.0 
0.0 0.0 -2.604757979997e-04 
-2.648221619599e-04 -3.867730635248e-04 0.0 
-3.867730635248e-04 1.249703151108e-03 0.0 
0.0 0.0 -1.822222222222e-04 
-2.733889901072e-04 -2.535979642310e-04 0.0 
-2.535979642310e-04 9.147766555041e-04 0.0 
0.0 0.0 -2.590275839856e-04 
9.160656140805e-05 1.470178607007e-03 0.0 
1.470178607007e-03 7.832578397036e-04 0.0 
0.0 0.0 -3.749418861907e-04 
-2.325789174517e-04 -3.968354129455e-04 0.0 
-3.968354129455e-04 1.236931628151e-03 0.0 
0.0 0.0 -1.822222222222e-04 
-2.714122958939e-04 -2.519241070870e-04 0.0 
-2.519241070870e-04 9.100053589880e-04 0.0 
0.0 0.0 -2.590023925297e-04 
9.401615303878e-06 1.240385540384e-03 0.0 
1.240385540384e-03 7.756669790078e-04 0.0 
0.0 0.0 -3.364579689907e-04 
-2.023805840735e-04 -3.997271712360e-04 0.0 
-3.997271712360e-04 1.224327816568e-03 0.0 
0.0 0.0 -1.822222222222e-04 
-2.689523676428e-04 -2.417328123169e-04 0.0 
-2.417328123169e-04 9.050420061807e-04 0.0 
0.0 0.0 -2.610672734790e-04 
-1.762691459807e-04 -3.925161595645e-04 0.0 
-3.925161595645e-04 1.212378122502e-03 0.0 
0.0 0.0 -1.822222222222e-04 
-2.656731751211e-04 -2.206447802709e-04 0.0 
-2.206447802709e-04 8.997416020046e-04 0.0 
0.0 0.0 -2.660354310065e-04 
-1.564230899666e-04 -3.711663474107e-04 0.0 
-3.711663474107e-04 1.200954737103e-03 0.0 
0.0 0.0 -1.822222222222e-04 
-2.624162379129e-04 -1.855229952353e-04 0.0 
-1.855229952353e-04 8.920019103165e-04 0.0 
0.0 0.0 -2.698224310301e-04 
-1.455060295773e-04 -3.296913227801e-04 0.0 
-3.296913227801e-04 1.189930993869e-03 0.0 
0.0 0.0 -1.822222222222e-04 
-2.603675667777e-04 -1.350322600225e-04 0.0 
-1.350322600225e-04 8.772091740842e-04 0.0 
0.0 0.0 -2.643606888456e-04 
-1.451367585993e-04 -2.615914081533e-04 0.0 
-2.615914081533e-04 1.177081675284e-03 0.0 
0.0 0.0 -1.822222222222e-04 
7.043851789786e-05 1.625172750656e-03 0.0 
1.625172750656e-03 9.160182528122e-04 0.0 
0.0 0.0 -4.227671874472e-04 
-2.560186998521e-04 -6.566548430138e-05 0.0 
-6.566548430138e-05 8.556563244280e-04 0.0 
0.0 0.0 -2.569875533897e-04 
-1.577668891472e-04 -1.552455279631e-04 0.0 
-1.552455279631e-04 1.161923498218e-03 0.0 
0.0 0.0 -1.822222222222e-04 
-2.471040623352e-04 2.064717459865e-05 0.0 
2.064717459865e-05 8.239123753631e-04 0.0 
0.0 0.0 -2.472035627263e-04 
-1.853864837844e-04 7.084315346313e-06 0.0 
7.084315346313e-06 1.137588691235e-03 0.0 
0.0 0.0 -1.822222222222e-04 
-2.387365719232e-04 2.476984905401e-04 0.0 
2.476984905401e-04 1.117185819906e-03 0.0 
0.0 0.0 -1.822222222222e-04 
-2.323408653968e-04 1.332118441331e-04 0.0 
1.332118441331e-04 7.846052433356e-04 0.0 
0.0 0.0 -2.366847334023e-04 
-3.272887979754e-04 6.009042180535e-04 0.0 
6.009042180535e-04 1.089995068188e-03 0.0 
0.0 0.0 -1.822222222222e-04 
-2.147044617955e-04 2.636578327482e-04 0.0 
2.636578327482e-04 7.566848100157e-04 0.0 
0.0 0.0 -2.322772920944e-04 
-2.669313197925e-04 9.244131512745e-04 0.0 
9.244131512745e-04 1.055799401835e-03 0.0 
0.0 0.0 -2.389535839710e-04 
-1.883019042449e-04 4.379640795527e-04 0.0 
4.379640795527e-04 7.419390141610e-04 0.0 
0.0 0.0 -2.372730471069e-04 
-1.187866008610e-04 1.168945846741e-03 0.0 
1.168945846741e-03 9.670606938968e-04 0.0 
0.0 0.0 -3.501488746467e-04 
-6.299237760595e-06 1.454924271255e-03 0.0 
1.454924271255e-03 9.412033522910e-04 0.0 
0.0 0.0 -4.006731919416e-04 
-1.550083340667e-04 6.440599534177e-04 0.0 
6.440599534177e-04 7.555733494499e-04 0.0 
0.0 0.0 -2.573850065928e-04 
-7.262692769530e-05 9.780976549805e-04 0.0 
9.780976549805e-04 7.665848896840e-04 0.0 
0.0 0.0 -2.974105551380e-04 
5.206284437628e-05 1.469376719814e-03 0.0 
1.469376719814e-03 8.476794300700e-04 0.0 
0.0 0.0 -3.856038319056e-04 
-3.749642251641e-04 -3.419370540272e-04 0.0 
-3.419370540272e-04 1.118298090113e-03 0.0 
0.0 0.0 -2.176153442492e-04 
-4.546435435873e-04 3.151638368803e-04 0.0 
3.151638368803e-04 1.306036372355e-03 0.0 
0.0 0.0 -2.265448025268e-04 
-4.168022673484e-04 -4.655041972502e-05 0.0 
-4.655041972502e-05 1.158707576547e-03 0.0 
0.0 0.0 -1.857105891838e-04 
-4.317989125620e-04 3.119621108129e-05 0.0 
3.119621108129e-05 1.260196578601e-03 0.0 
0.0 0.0 -2.524740719286e-04 
1.276697686569e-04 1.570117374708e-03 0.0 
1.570117374708e-03 7.899006591661e-04 0.0 
0.0 0.0 -3.932444690670e-04 
-5.854531141948e-04 -1.028240178105e-04 0.0 
-1.028240178105e-04 1.705811180048e-03 0.0 
0.0 0.0 -2.488888888889e-04 
-4.899837963276e-04 -2.679117115997e-05 0.0 
-2.679117115997e-05 1.468713173503e-03 0.0 
0.0 0.0 -3.252955040521e-04 
-5.757129213041e-04 -7.207485732686e-05 0.0 
-7.207485732686e-05 1.835508392071e-03 0.0 
0.0 0.0 -2.488888888889e-04 
-4.930773068220e-04 -1.194599082518e-04 0.0 
-1.194599082518e-04 1.476488390705e-03 0.0 
0.0 0.0 -3.235616945828e-04 
-5.709513186301e-04 -1.124006903092e-04 0.0 
-1.124006903092e-04 1.838392435074e-03 0.0 
0.0 0.0 -2.488888888889e-04 
-4.916375155464e-04 -1.612728365077e-04 0.0 
-1.612728365077e-04 1.475178069701e-03 0.0 
0.0 0.0 -3.236232921091e-04 
-5.664575569402e-04 -1.523840206518e-04 0.0 
-1.523840206518e-04 1.835847282095e-03 0.0 
0.0 0.0 -2.488888888889e-04 
-4.895942987583e-04 -1.980084726191e-04 0.0 
-1.980084726191e-04 1.473115941516e-03 0.0 
0.0 0.0 -3.240873914873e-04 
-5.606811941233e-04 -1.881420242139e-04 0.0 
-1.881420242139e-04 1.832694706595e-03 0.0 
0.0 0.0 -2.488888888889e-04 
-4.869588456447e-04 -2.318471853064e-04 0.0 
-2.318471853064e-04 1.470150714002e-03 0.0 
0.0 0.0 -3.247901165394e-04 
-5.530639228246e-04 -2.205718007095e-04 0.0 
-2.205718007095e-04 1.828479285499e-03 0.0 
0.0 0.0 -2.488888888889e-04 
-4.838657069898e-04 -2.632753223399e-04 0.0 
-2.632753223399e-04 1.466491058738e-03 0.0 
0.0 0.0 -3.256781934875e-04 
-5.435915030907e-04 -2.500168512017e-04 0.0 
-2.500168512017e-04 1.823271796012e-03 0.0 
0.0 0.0 -2.488888888889e-04 
-4.806215376242e-04 -2.921053431457e-04 0.0 
-2.921053431457e-04 1.462775766317e-03 0.0 
0.0 0.0 -3.267721350539e-04 
-5.331669997488e-04 -2.754290158070e-04 0.0 
-2.754290158070e-04 1.817537112737e-03 0.0 
0.0 0.0 -2.488888888889e-04 
-4.772990145405e-04 -3.170646085282e-04 0.0 
-3.170646085282e-04 1.459102966964e-03 0.0 
0.0 0.0 -3.282144425317e-04 
-5.225827684125e-04 -2.957735628658e-04 0.0 
-2.957735628658e-04 1.811455119852e-03 0.0 
0.0 0.0 -2.488888888889e-04 
-4.739266601893e-04 -3.367870423434e-04 0.0 
-3.367870423434e-04 1.455491126401e-03 0.0 
0.0 0.0 -3.302134774139e-04 
-5.122493452654e-04 -3.102279468335e-04 0.0 
-3.102279468335e-04 1.805244477979e-03 0.0 
0.0 0.0 -2.488888888889e-04 
-8.714988205991e-05 1.501320370054e-03 0.0 
1.501320370054e-03 1.126743170179e-03 0.0 
0.0 0.0 -4.455399806226e-04 
-4.708318830785e-04 -3.498644805087e-04 0.0 
-3.498644805087e-04 1.452665043960e-03 0.0 
0.0 0.0 -3.330176586107e-04 
-5.035712085099e-04 -3.156736909137e-04 0.0 
-3.156736909137e-04 1.799451876288e-03 0.0 
0.0 0.0 -2.488888888889e-04 
-4.677694379717e-04 -3.536528442975e-04 0.0 
-3.536528442975e-04 1.449984777290e-03 0.0 
0.0 0.0 -3.369654704346e-04 
-1.302990859497e-04 1.259599994593e-03 0.0 
1.259599994593e-03 1.065511692301e-03 0.0 
0.0 0.0 -4.008054027219e-04 
-4.971721533030e-04 -3.101151166350e-04 0.0 
-3.101151166350e-04 1.793779429412e-03 0.0 
0.0 0.0 -2.488888888889e-04 
-4.645399214775e-04 -3.460100851926e-04 0.0 
-3.460100851926e-04 1.447106865552e-03 0.0 
0.0 0.0 -3.424725560515e-04 
-4.951173540351e-04 -2.920204627786e-04 0.0 
-2.920204627786e-04 1.788428250083e-03 0.0 
0.0 0.0 -2.488888888889e-04 
-4.608145759185e-04 -3.248925793250e-04 0.0 
-3.248925793250e-04 1.443848954921e-03 0.0 
0.0 0.0 -3.502742887869e-04 
-4.996187403003e-04 -2.584245976988e-04 0.0 
-2.584245976988e-04 1.783729472052e-03 0.0 
0.0 0.0 -2.488888888889e-04 
-2.196325475023e-05 1.571194493179e-03 0.0 
1.571194493179e-03 1.044460798840e-03 0.0 
0.0 0.0 -4.382132331813e-04 
-4.561351195322e-04 -2.876892743448e-04 0.0 
-2.876892743448e-04 1.439869203326e-03 0.0 
0.0 0.0 -3.610859296079e-04 
-5.130916496060e-04 -2.050490687592e-04 0.0 
-2.050490687592e-04 1.779854259130e-03 0.0 
0.0 0.0 -2.488888888889e-04 
-4.492332174386e-04 -2.320910845934e-04 0.0 
-2.320910845934e-04 1.433890260924e-03 0.0 
0.0 0.0 -3.761804409589e-04 
-5.378802534838e-04 -1.258210070292e-04 0.0 
-1.258210070292e-04 1.776026591200e-03 0.0 
0.0 0.0 -2.488888888889e-04 
-4.389026762269e-04 -1.548007160911e-04 0.0 
-1.548007160911e-04 1.424629334549e-03 0.0 
0.0 0.0 -3.962441071082e-04 
-5.768132903928e-04 -1.377844552508e-05 0.0 
-1.377844552508e-05 1.771798335942e-03 0.0 
0.0 0.0 -2.488888888889e-04 
-4.220148160061e-04 -5.690016960840e-05 0.0 
-5.690016960840e-05 1.407747968935e-03 0.0 
0.0 0.0 -4.224570655411e-04 
-6.317639780045e-04 1.424555330642e-04 0.0 
1.424555330642e-04 1.762888806825e-03 0.0 
0.0 0.0 -2.488888888889e-04 
-4.102581462551e-04 6.647705641044e-05 0.0 
6.647705641044e-05 1.368975512052e-03 0.0 
0.0 0.0 -4.108788710558e-04 
-6.109218713376e-04 3.404053986489e-04 0.0 
3.404053986489e-04 1.719826840337e-03 0.0 
0.0 0.0 -2.778578689002e-04 
-3.877290163741e-04 2.051534791676e-04 0.0 
2.051534791676e-04 1.306865366921e-03 0.0 
0.0 0.0 -3.939155788059e-04 
-3.958277924855e-05 1.694030195389e-03 0.0 
1.694030195389e-03 1.156073774095e-03 0.0 
0.0 0.0 -4.784961406483e-04 
-3.562744250199e-04 3.989157177770e-04 0.0 
3.989157177770e-04 1.244690862262e-03 0.0 
0.0 0.0 -3.807499016752e-04 
-5.392028409591e-04 5.770659547124e-04 0.0 
5.770659547124e-04 1.636675704485e-03 0.0 
0.0 0.0 -3.283879058836e-04 
-3.082167471355e-04 5.954141438158e-04 0.0 
5.954141438158e-04 1.162656135356e-03 0.0 
0.0 0.0 -3.661883092374e-04 
-4.494772525837e-04 8.547826148384e-04 0.0 
8.547826148384e-04 1.548375175436e-03 0.0 
0.0 0.0 -3.828086040851e-04 
-2.325523962378e-04 9.433725567651e-04 0.0 
9.433725567651e-04 1.120895142144e-03 0.0 
0.0 0.0 -3.807183196739e-04 
-3.130412835871e-04 1.126625542557e-03 0.0 
1.126625542557e-03 1.419750706176e-03 0.0 
0.0 0.0 -4.666182411194e-04 
-1.863486912845e-04 1.460770853074e-03 0.0 
1.460770853074e-03 1.313829183170e-03 0.0 
0.0 0.0 -4.832059250939e-04 
-3.851626832152e-05 1.480952293108e-03 0.0 
1.480952293108e-03 1.018115290736e-03 0.0 
0.0 0.0 -4.198281524634e-04 
-6.088964229271e-04 -3.587486861913e-04 0.0 
-3.587486861913e-04 1.723284064356e-03 0.0 
0.0 0.0 -2.842384003790e-04 
-5.314980546204e-04 3.143317236518e-04 0.0 
3.143317236518e-04 1.529219314835e-03 0.0 
0.0 0.0 -2.731668790454e-04 
-5.897477499297e-04 -6.010425002954e-05 0.0 
-6.010425002954e-05 1.687514974829e-03 0.0 
0.0 0.0 -3.109082025560e-04 
-5.756824612893e-04 2.261106284316e-05 0.0 
2.261106284316e-05 1.581531907516e-03 0.0 
0.0 0.0 -2.381938332887e-04 
8.676028730539e-05 1.735937948459e-03 0.0 
1.735937948459e-03 9.594439154052e-04 0.0 
0.0 0.0 -4.483732297331e-04 
-7.812528022569e-04 -1.099017891405e-04 0.0 
-1.099017891405e-04 2.168689563076e-03 0.0 
0.0 0.0 -3.444020130729e-04 
-7.150319033539e-04 -3.121384854287e-05 0.0 
-3.121384854287e-05 2.349676786299e-03 0.0 
0.0 0.0 -3.155555555556e-04 
-7.017205842140e-04 -7.653557446682e-05 0.0 
-7.653557446682e-05 2.006215318206e-03 0.0 
0.0 0.0 -3.681463795304e-04 
-7.121485710088e-04 -1.328299566585e-04 0.0 
-1.328299566585e-04 2.336914160142e-03 0.0 
0.0 0.0 -3.155555555556e-04 
-6.954051672081e-04 -1.106721293081e-04 0.0 
-1.106721293081e-04 1.994566268542e-03 0.0 
0.0 0.0 -3.704370777208e-04 
-7.107419937415e-04 -1.772848363033e-04 0.0 
-1.772848363033e-04 2.334391666324e-03 0.0 
0.0 0.0 -3.155555555556e-04 
-6.928827801307e-04 -1.461650245261e-04 0.0 
-1.461650245261e-04 1.991555205390e-03 0.0 
0.0 0.0 -3.721778341564e-04 
-7.100466502334e-04 -2.164461730152e-04 0.0 
-2.164461730152e-04 2.332657187103e-03 0.0 
0.0 0.0 -3.155555555556e-04 
-6.902040069466e-04 -1.788167519200e-04 0.0 
-1.788167519200e-04 1.988917707943e-03 0.0 
0.0 0.0 -3.744677652069e-04 
-7.095257050295e-04 -2.527303290778e-04 0.0 
-2.527303290778e-04 2.330678190538e-03 0.0 
0.0 0.0 -3.155555555556e-04 
-6.870058437527e-04 -2.081039351838e-04 0.0 
-2.081039351838e-04 1.985786893802e-03 0.0 
0.0 0.0 -3.773804207472e-04 
-7.091377551114e-04 -2.861387702296e-04 0.0 
-2.861387702296e-04 2.328286632896e-03 0.0 
0.0 0.0 -3.155555555556e-04 
-6.832965265146e-04 -2.331316096487e-04 0.0 
-2.331316096487e-04 1.982124751540e-03 0.0 
0.0 0.0 -3.809821719086e-04 
-7.092630965154e-04 -3.155169689002e-04 0.0 
-3.155169689002e-04 2.325515363616e-03 0.0 
0.0 0.0 -3.155555555556e-04 
-6.791922861579e-04 -2.523146359644e-04 0.0 
-2.523146359644e-04 1.978098432982e-03 0.0 
0.0 0.0 -3.853484384570e-04 
-7.104619708388e-04 -3.388430522053e-04 0.0 
-3.388430522053e-04 2.322560743132e-03 0.0 
0.0 0.0 -3.155555555556e-04 
-6.746892318115e-04 -2.641363648019e-04 0.0 
-2.641363648019e-04 1.973751708825e-03 0.0 
0.0 0.0 -3.907175444907e-04 
-7.134716144215e-04 -3.542939816601e-04 0.0 
-3.542939816601e-04 2.319606865757e-03 0.0 
0.0 0.0 -3.155555555556e-04 
-2.948862268374e-04 1.425073130439e-03 0.0 
1.425073130439e-03 1.550246462717e-03 0.0 
0.0 0.0 -5.380115296628e-04 
-6.698127621974e-04 -2.667648384482e-04 0.0 
-2.667648384482e-04 1.969206946882e-03 0.0 
0.0 0.0 -3.973447215126e-04 
-7.194662793108e-04 -3.592340066351e-04 0.0 
-3.592340066351e-04 2.316875881201e-03 0.0 
0.0 0.0 -3.155555555556e-04 
-6.645376930034e-04 -2.580390662495e-04 0.0 
-2.580390662495e-04 1.964528322448e-03 0.0 
0.0 0.0 -4.055185506436e-04 
-2.384968950829e-04 1.467328751257e-03 0.0 
1.467328751257e-03 1.438259482937e-03 0.0 
0.0 0.0 -5.141839662233e-04 
-7.293624542203e-04 -3.502161551000e-04 0.0 
-3.502161551000e-04 2.314195425162e-03 0.0 
0.0 0.0 -3.155555555556e-04 
-3.197653810432e-04 1.193855222990e-03 0.0 
1.193855222990e-03 1.484896437785e-03 0.0 
0.0 0.0 -4.993418814610e-04 
-6.585397002155e-04 -2.357313641208e-04 0.0 
-2.357313641208e-04 1.959221082084e-03 0.0 
0.0 0.0 -4.155668053223e-04 
-7.443837045228e-04 -3.234883264296e-04 0.0 
-3.234883264296e-04 2.311228263619e-03 0.0 
0.0 0.0 -3.155555555556e-04 
-6.513804998095e-04 -1.967997917224e-04 0.0 
-1.967997917224e-04 1.952762412484e-03 0.0 
0.0 0.0 -4.279241322075e-04 
-7.666941138057e-04 -2.747555434067e-04 0.0 
-2.747555434067e-04 2.308627769116e-03 0.0 
0.0 0.0 -3.155555555556e-04 
-6.421728617253e-04 -1.400127384089e-04 0.0 
-1.400127384089e-04 1.944537570229e-03 0.0 
0.0 0.0 -4.436098837037e-04 
-7.982894982450e-04 -1.992556961930e-04 0.0 
-1.992556961930e-04 2.305297045070e-03 0.0 
0.0 0.0 -3.155555555556e-04 
-6.299853966539e-04 -6.145013816298e-05 0.0 
-6.145013816298e-05 1.933693850967e-03 0.0 
0.0 0.0 -4.632370193522e-04 
-8.421992035785e-04 -9.014150615938e-05 0.0 
-9.014150615938e-05 2.302275547257e-03 0.0 
0.0 0.0 -3.155555555556e-04 
-2.461574377786e-04 1.624144604727e-03 0.0 
1.624144604727e-03 1.550137584529e-03 0.0 
0.0 0.0 -5.588486343218e-04 
-6.126548316156e-04 3.654657999790e-05 0.0 
3.654657999790e-05 1.918163968956e-03 0.0 
0.0 0.0 -4.884601193253e-04 
-8.297370267805e-04 5.900833697116e-05 0.0 
5.900833697116e-05 2.272921973566e-03 0.0 
0.0 0.0 -3.364948589054e-04 
-5.887696182011e-04 1.643484722283e-04 0.0 
1.643484722283e-04 1.896631305277e-03 0.0 
0.0 0.0 -5.192169371186e-04 
-7.953164073812e-04 2.464578371630e-04 0.0 
2.464578371630e-04 2.232304461113e-03 0.0 
0.0 0.0 -3.698897388832e-04 
-7.365411047928e-04 4.685855720639e-04 0.0 
4.685855720639e-04 2.159694424858e-03 0.0 
0.0 0.0 -4.159907446451e-04 
-5.527872709303e-04 3.038795148593e-04 0.0 
3.038795148593e-04 1.863166271294e-03 0.0 
0.0 0.0 -5.606386107870e-04 
-6.584523321126e-04 7.236437627609e-04 0.0 
7.236437627609e-04 2.077339623358e-03 0.0 
0.0 0.0 -4.782258264602e-04 
-5.219852183216e-04 4.858276467253e-04 0.0 
4.858276467253e-04 1.798644652234e-03 0.0 
0.0 0.0 -5.471397573912e-04 
-5.290479376496e-04 9.986619340008e-04 0.0 
9.986619340008e-04 1.913578928546e-03 0.0 
0.0 0.0 -5.482902324912e-04 
-4.113616513683e-04 1.317081858533e-03 0.0 
1.317081858533e-03 1.794964894860e-03 0.0 
0.0 0.0 -5.929728186394e-04 
-4.745890538018e-04 6.435746553500e-04 0.0 
6.435746553500e-04 1.691163142403e-03 0.0 
0.0 0.0 -5.213888951147e-04 
-4.062586621164e-04 9.333507089429e-04 0.0 
9.333507089429e-04 1.595573055787e-03 0.0 
0.0 0.0 -5.097061687162e-04 
-2.283265547836e-04 1.373477192078e-03 0.0 
1.373477192078e-03 1.358306137847e-03 0.0 
0.0 0.0 -4.842769641699e-04 
-7.033473164944e-04 -3.760136049461e-04 0.0 
-3.760136049461e-04 2.136708279662e-03 0.0 
0.0 0.0 -3.266666666667e-04 
-8.166934876578e-04 3.224396756561e-04 0.0 
3.224396756561e-04 2.340292932936e-03 0.0 
0.0 0.0 -3.266666666667e-04 
-7.075682699953e-04 -6.297319518701e-05 0.0 
-6.297319518701e-05 2.166890176519e-03 0.0 
0.0 0.0 -3.044444444444e-04 
-8.144037118333e-04 2.182635171307e-05 0.0 
2.182635171307e-05 2.299802230387e-03 0.0 
0.0 0.0 -3.488888888889e-04 
-9.458669161434e-05 1.682224031544e-03 0.0 
1.682224031544e-03 1.256319996994e-03 0.0 
0.0 0.0 -4.978857023056e-04 
-8.477680808939e-04 -1.104727016907e-04 0.0 
-1.104727016907e-04 2.712288170416e-03 0.0 
0.0 0.0 -3.822222222222e-04 
-9.055925510058e-04 -3.092032376263e-05 0.0 
-3.092032376263e-05 2.525233824261e-03 0.0 
0.0 0.0 -4.120916506577e-04 
-8.473674362076e-04 -7.481330322279e-05 0.0 
-7.481330322279e-05 2.845770630963e-03 0.0 
0.0 0.0 -3.822222222222e-04 
-9.089090308611e-04 -1.259977891390e-04 0.0 
-1.259977891390e-04 2.534087815895e-03 0.0 
0.0 0.0 -4.117636123367e-04 
-8.486541312913e-04 -1.060356270188e-04 0.0 
-1.060356270188e-04 2.850864472627e-03 0.0 
0.0 0.0 -3.822222222222e-04 
-9.067527636706e-04 -1.634553189751e-04 0.0 
-1.634553189751e-04 2.532180853737e-03 0.0 
0.0 0.0 -4.138361446519e-04 
-8.518838397088e-04 -1.391673231664e-04 0.0 
-1.391673231664e-04 2.849897303172e-03 0.0 
0.0 0.0 -3.822222222222e-04 
-9.038033703738e-04 -1.960391794180e-04 0.0 
-1.960391794180e-04 2.529549366092e-03 0.0 
0.0 0.0 -4.169466925021e-04 
-8.567719304589e-04 -1.693969290221e-04 0.0 
-1.693969290221e-04 2.849102124234e-03 0.0 
0.0 0.0 -3.822222222222e-04 
-9.001783977425e-04 -2.254727016246e-04 0.0 
-2.254727016246e-04 2.526405000261e-03 0.0 
0.0 0.0 -4.210486354725e-04 
-8.632001890766e-04 -1.956147496017e-04 0.0 
-1.956147496017e-04 2.848340584109e-03 0.0 
0.0 0.0 -3.822222222222e-04 
-8.958258707308e-04 -2.506885608621e-04 0.0 
-2.506885608621e-04 2.522614663946e-03 0.0 
0.0 0.0 -4.262345017756e-04 
-8.713995955112e-04 -2.166532315458e-04 0.0 
-2.166532315458e-04 2.847429121701e-03 0.0 
0.0 0.0 -3.822222222222e-04 
-8.907881229033e-04 -2.700951512637e-04 0.0 
-2.700951512637e-04 2.518049837640e-03 0.0 
0.0 0.0 -4.324218244576e-04 
-8.817440870532e-04 -2.301760048267e-04 0.0 
-2.301760048267e-04 2.845924759909e-03 0.0 
0.0 0.0 -3.822222222222e-04 
-8.851922506948e-04 -2.806029007086e-04 0.0 
-2.806029007086e-04 2.512873500627e-03 0.0 
0.0 0.0 -4.397142335037e-04 
-8.950333328024e-04 -2.339954622603e-04 0.0 
-2.339954622603e-04 2.844152330925e-03 0.0 
0.0 0.0 -3.822222222222e-04 
-5.153963270574e-04 1.386957263231e-03 0.0 
1.386957263231e-03 2.118048286245e-03 0.0 
0.0 0.0 -6.868508396518e-04 
-8.789409301159e-04 -2.802453109947e-04 0.0 
-2.802453109947e-04 2.507031228923e-03 0.0 
0.0 0.0 -4.484506065581e-04 
-9.121593109776e-04 -2.255242270632e-04 0.0 
-2.255242270632e-04 2.842211436296e-03 0.0 
0.0 0.0 -3.822222222222e-04 
-5.250635173879e-04 1.212370847594e-03 0.0 
1.212370847594e-03 2.064879973941e-03 0.0 
0.0 0.0 -6.599213385227e-04 
-8.718884062418e-04 -2.665655449899e-04 0.0 
-2.665655449899e-04 2.500353226196e-03 0.0 
0.0 0.0 -4.589341481330e-04 
-9.340828443643e-04 -2.017720311588e-04 0.0 
-2.017720311588e-04 2.840105257953e-03 0.0 
0.0 0.0 -3.822222222222e-04 
-8.637232966567e-04 -2.371299809629e-04 0.0 
-2.371299809629e-04 2.492260010494e-03 0.0 
0.0 0.0 -4.713274934483e-04 
-9.616016624064e-04 -1.586137009988e-04 0.0 
-1.586137009988e-04 2.837108011281e-03 0.0 
0.0 0.0 -3.822222222222e-04 
-8.538485000622e-04 -1.885493409314e-04 0.0 
-1.885493409314e-04 2.481749201505e-03 0.0 
0.0 0.0 -4.858861960434e-04 
-4.559297430570e-04 1.444187656161e-03 0.0 
1.444187656161e-03 1.981448427249e-03 0.0 
0.0 0.0 -6.537937217965e-04 
-9.957574324210e-04 -9.024577915214e-05 0.0 
-9.024577915214e-05 2.832059975401e-03 0.0 
0.0 0.0 -3.822222222222e-04 
-8.420411067301e-04 -1.147262326721e-04 0.0 
-1.147262326721e-04 2.468867339442e-03 0.0 
0.0 0.0 -5.027800290162e-04 
-1.039055821930e-03 8.224520741657e-06 0.0 
8.224520741657e-06 2.826232556126e-03 0.0 
0.0 0.0 -3.822222222222e-04 
-8.257325877732e-04 -1.684371319750e-05 0.0 
-1.684371319750e-05 2.451050949731e-03 0.0 
0.0 0.0 -5.243127177637e-04 
-1.025570190768e-03 1.403256994831e-04 0.0 
1.403256994831e-04 2.797038362784e-03 0.0 
0.0 0.0 -4.023247379336e-04 
-8.050294719308e-04 1.124410670381e-04 0.0 
1.124410670381e-04 2.428661755662e-03 0.0 
0.0 0.0 -5.489567910448e-04 
-9.923239288200e-04 3.047136110578e-04 0.0 
3.047136110578e-04 2.756100007675e-03 0.0 
0.0 0.0 -4.324342652679e-04 
-7.731797138455e-04 2.625302848105e-04 0.0 
2.625302848105e-04 2.393418728170e-03 0.0 
0.0 0.0 -5.820900338912e-04 
-9.418682114520e-04 5.073920785542e-04 0.0 
5.073920785542e-04 2.692555105023e-03 0.0 
0.0 0.0 -4.713646722125e-04 
-7.342469081316e-04 4.657530843841e-04 0.0 
4.657530843841e-04 2.352483617576e-03 0.0 
0.0 0.0 -6.159470284615e-04 
-4.680647983613e-04 1.597006220995e-03 0.0 
1.597006220995e-03 2.093451131542e-03 0.0 
0.0 0.0 -6.965941427916e-04 
-6.693040365848e-04 6.579016910303e-04 0.0 
6.579016910303e-04 2.279268426426e-03 0.0 
0.0 0.0 -6.692217709364e-04 
-8.781023439948e-04 7.411318868586e-04 0.0 
7.411318868586e-04 2.622293177478e-03 0.0 
0.0 0.0 -5.216549963272e-04 
-6.008061203709e-04 9.652302155092e-04 0.0 
9.652302155092e-04 2.191809086520e-03 0.0 
0.0 0.0 -6.818584140638e-04 
-7.708778420605e-04 1.010625125185e-03 0.0 
1.010625125185e-03 2.489715384094e-03 0.0 
0.0 0.0 -5.889796576362e-04 
-6.578980111303e-04 1.296813025753e-03 0.0 
1.296813025753e-03 2.378601915831e-03 0.0 
0.0 0.0 -6.666224173880e-04 
-4.259182236764e-04 1.351986027582e-03 0.0 
1.351986027582e-03 1.852483873207e-03 0.0 
0.0 0.0 -6.113852783704e-04 
-9.474349750393e-04 -3.758791366539e-04 0.0 
-3.758791366539e-04 2.750895276144e-03 0.0 
0.0 0.0 -3.933333333333e-04 
-8.340817167273e-04 3.227874807035e-04 0.0 
3.227874807035e-04 2.547302196216e-03 0.0 
0.0 0.0 -3.933333333333e-04 
-9.429649573043e-04 -6.274108253705e-05 0.0 
-6.274108253705e-05 2.720570547882e-03 0.0 
0.0 0.0 -4.155555555556e-04 
-8.366259340555e-04 2.206832879955e-05 0.0 
2.206832879955e-05 2.587932870487e-03 0.0 
0.0 0.0 -3.711111111111e-04 
-3.311872650881e-04 1.664414027805e-03 0.0 
1.664414027805e-03 1.777880150707e-03 0.0 
0.0 0.0 -6.200112366940e-04 
-1.054441290555e-03 -1.060399512644e-04 0.0 
-1.060399512644e-04 3.174442276916e-03 0.0 
0.0 0.0 -4.711111111111e-04 
-9.755270099610e-04 -1.952460710779e-05 0.0 
-1.952460710779e-05 3.352199228394e-03 0.0 
0.0 0.0 -4.488888888889e-04 
-1.057199720646e-03 -6.628466702925e-05 0.0 
-6.628466702925e-05 3.038898740510e-03 0.0 
0.0 0.0 -4.711111111111e-04 
-9.777400934430e-04 -1.091555938379e-04 0.0 
-1.091555938379e-04 3.340691704280e-03 0.0 
0.0 0.0 -4.488888888889e-04 
-1.063155427674e-03 -8.985841896749e-05 0.0 
-8.985841896749e-05 3.031383342538e-03 0.0 
0.0 0.0 -4.711111111111e-04 
-9.824799286931e-04 -1.393428267415e-04 0.0 
-1.393428267415e-04 3.339683266468e-03 0.0 
0.0 0.0 -4.488888888889e-04 
-1.073307870603e-03 -1.145055690525e-04 0.0 
-1.145055690525e-04 3.031741938321e-03 0.0 
0.0 0.0 -4.711111111111e-04 
-9.898779257340e-04 -1.643666591562e-04 0.0 
-1.643666591562e-04 3.339619340617e-03 0.0 
0.0 0.0 -4.488888888889e-04 
-1.086323477342e-03 -1.363877390947e-04 0.0 
-1.363877390947e-04 3.033165334032e-03 0.0 
0.0 0.0 -4.711111111111e-04 
-9.998925141734e-04 -1.855881002644e-04 0.0 
-1.855881002644e-04 3.339705936799e-03 0.0 
0.0 0.0 -4.488888888889e-04 
-1.096406818734e-03 -1.532318205826e-04 0.0 
-1.532318205826e-04 3.033255551597e-03 0.0 
0.0 0.0 -4.730783955673e-04 
-1.012777399154e-03 -2.017536892965e-04 0.0 
-2.017536892965e-04 3.339844219624e-03 0.0 
0.0 0.0 -4.488888888889e-04 
-1.090664367884e-03 -1.644430523049e-04 0.0 
-1.644430523049e-04 3.027933117942e-03 0.0 
0.0 0.0 -4.808618943584e-04 
-1.028301113362e-03 -2.114471527184e-04 0.0 
-2.114471527184e-04 3.338551741007e-03 0.0 
0.0 0.0 -4.488888888889e-04 
-1.083736580133e-03 -1.666451993329e-04 0.0 
-1.666451993329e-04 3.020843768517e-03 0.0 
0.0 0.0 -4.898707554272e-04 
-1.046943436856e-03 -2.106797342195e-04 0.0 
-2.106797342195e-04 3.335962166517e-03 0.0 
0.0 0.0 -4.488888888889e-04 
-7.831296468648e-04 1.319072651067e-03 0.0 
1.319072651067e-03 2.747172324488e-03 0.0 
0.0 0.0 -7.609479695289e-04 
-1.075855056023e-03 -1.563532757849e-04 0.0 
-1.563532757849e-04 3.012345218943e-03 0.0 
0.0 0.0 -5.000242388326e-04 
-1.069747672987e-03 -1.955783713019e-04 0.0 
-1.955783713019e-04 3.333029570668e-03 0.0 
0.0 0.0 -4.488888888889e-04 
-7.248550649329e-04 1.406358254198e-03 0.0 
1.406358254198e-03 2.595476185353e-03 0.0 
0.0 0.0 -7.137751583000e-04 
-1.066434352541e-03 -1.316180070833e-04 0.0 
-1.316180070833e-04 3.002197182527e-03 0.0 
0.0 0.0 -5.124314741735e-04 
-1.097598068092e-03 -1.637972448482e-04 0.0 
-1.637972448482e-04 3.329403421166e-03 0.0 
0.0 0.0 -4.488888888889e-04 
-7.533669482919e-04 1.204166970056e-03 0.0 
1.204166970056e-03 2.642836543444e-03 0.0 
0.0 0.0 -7.468747930895e-04 
-1.055416203304e-03 -9.203251338284e-05 0.0 
-9.203251338284e-05 2.990073804986e-03 0.0 
0.0 0.0 -5.267381924031e-04 
-1.130750834273e-03 -1.116921931994e-04 0.0 
-1.116921931994e-04 3.323665525655e-03 0.0 
0.0 0.0 -4.488888888889e-04 
-1.042171778077e-03 -3.455033738422e-05 0.0 
-3.455033738422e-05 2.974699293394e-03 0.0 
0.0 0.0 -5.428660870381e-04 
-1.169484212689e-03 -3.358102239734e-05 0.0 
-3.358102239734e-05 3.314256616847e-03 0.0 
0.0 0.0 -4.488888888889e-04 
-1.025316934061e-03 4.498860631349e-05 0.0 
4.498860631349e-05 2.954024136839e-03 0.0 
0.0 0.0 -5.614484225926e-04 
-1.214143038317e-03 7.887627576123e-05 0.0 
7.887627576123e-05 3.298257734444e-03 0.0 
0.0 0.0 -4.488888888889e-04 
-7.199346667002e-04 1.548959497082e-03 0.0 
1.548959497082e-03 2.702620874801e-03 0.0 
0.0 0.0 -7.999777769487e-04 
-1.005056088549e-03 1.605680175197e-04 0.0 
1.605680175197e-04 2.928996212084e-03 0.0 
0.0 0.0 -5.816817243943e-04 
-1.194628629214e-03 2.284813269436e-04 0.0 
2.284813269436e-04 3.262807979926e-03 0.0 
0.0 0.0 -4.714398725188e-04 
-9.770701467258e-04 2.900797214075e-04 0.0 
2.900797214075e-04 2.895539247012e-03 0.0 
0.0 0.0 -6.084761808760e-04 
-1.150691492803e-03 4.112920914748e-04 0.0 
4.112920914748e-04 3.201011145854e-03 0.0 
0.0 0.0 -5.031356658855e-04 
-1.102080003132e-03 6.314047135334e-04 0.0 
6.314047135334e-04 3.144102696047e-03 0.0 
0.0 0.0 -5.414573098104e-04 
-9.427914102034e-04 4.734021578769e-04 0.0 
4.734021578769e-04 2.854814901825e-03 0.0 
0.0 0.0 -6.353729821390e-04 
-1.011724826405e-03 8.872743635075e-04 0.0 
8.872743635075e-04 3.016176770478e-03 0.0 
0.0 0.0 -5.911070349773e-04 
-8.910802690226e-04 6.354474711150e-04 0.0 
6.354474711150e-04 2.790560843145e-03 0.0 
0.0 0.0 -6.750826519681e-04 
-9.261251575016e-04 1.192686017243e-03 0.0 
1.192686017243e-03 2.932735209306e-03 0.0 
0.0 0.0 -6.517013890130e-04 
-8.336613140921e-04 9.428984709957e-04 0.0 
9.428984709957e-04 2.722476745029e-03 0.0 
0.0 0.0 -6.953468723645e-04 
-6.543021565792e-04 1.370902121002e-03 0.0 
1.370902121002e-03 2.495211230633e-03 0.0 
0.0 0.0 -7.782223337189e-04 
-9.573633010252e-04 -3.758595971567e-04 0.0 
-3.758595971567e-04 3.138492562280e-03 0.0 
0.0 0.0 -4.600000000000e-04 
-1.070084496450e-03 3.260967853827e-04 0.0 
3.260967853827e-04 3.340817972329e-03 0.0 
0.0 0.0 -4.600000000000e-04 
-9.651871795266e-04 -5.955810820259e-05 0.0 
-5.955810820259e-05 3.169772296161e-03 0.0 
0.0 0.0 -4.377777777778e-04 
-1.064380492171e-03 2.392363188093e-05 0.0 
2.392363188093e-05 3.297778316814e-03 0.0 
0.0 0.0 -4.822222222222e-04 
-5.704666912088e-04 1.617849901649e-03 0.0 
1.617849901649e-03 2.384447177274e-03 0.0 
0.0 0.0 -7.774202083136e-04 
-1.098885735000e-03 -9.932841691003e-05 0.0 
-9.932841691003e-05 3.711008544298e-03 0.0 
0.0 0.0 -5.155555555556e-04 
-1.168462067443e-03 -8.558937578339e-06 0.0 
-8.558937578339e-06 3.528865523027e-03 0.0 
0.0 0.0 -5.377777777778e-04 
-1.101644165090e-03 -4.995934151532e-05 0.0 
-4.995934151532e-05 3.841935165134e-03 0.0 
0.0 0.0 -5.155555555556e-04 
-1.170694924485e-03 -8.717992149991e-05 0.0 
-8.717992149991e-05 3.536462684656e-03 0.0 
0.0 0.0 -5.377777777778e-04 
-1.107599872119e-03 -6.223086959302e-05 0.0 
-6.223086959302e-05 3.845472707205e-03 0.0 
0.0 0.0 -5.155555555556e-04 
-1.181271355677e-03 -1.042178337503e-04 0.0 
-1.042178337503e-04 3.538247230035e-03 0.0 
0.0 0.0 -5.377777777778e-04 
-1.117752315047e-03 -7.784351567095e-05 0.0 
-7.784351567095e-05 3.846307941154e-03 0.0 
0.0 0.0 -5.155555555556e-04 
-1.192658306015e-03 -1.193867036393e-04 0.0 
-1.193867036393e-04 3.539182551016e-03 0.0 
0.0 0.0 -5.377777777778e-04 
-1.130767921787e-03 -8.794783012842e-05 0.0 
-8.794783012842e-05 3.845743987908e-03 0.0 
0.0 0.0 -5.155555555556e-04 
-1.210173940783e-03 -1.287275247693e-04 0.0 
-1.287275247693e-04 3.541285429521e-03 0.0 
0.0 0.0 -5.377777777778e-04 
-1.147405946802e-03 -9.309166024428e-05 0.0 
-9.309166024428e-05 3.846138881089e-03 0.0 
0.0 0.0 -5.155555555556e-04 
-1.230284092040e-03 -1.329076598989e-04 0.0 
-1.329076598989e-04 3.543463507866e-03 0.0 
0.0 0.0 -5.377777777778e-04 
-1.167594603574e-03 -9.130051004344e-05 0.0 
-9.130051004344e-05 3.846054057724e-03 0.0 
0.0 0.0 -5.155555555556e-04 
-1.257222365411e-03 -1.323215631345e-04 0.0 
-1.323215631345e-04 3.545265649495e-03 0.0 
0.0 0.0 -5.377777777778e-04 
-1.190679714427e-03 -8.065933747456e-05 0.0 
-8.065933747456e-05 3.844271498324e-03 0.0 
0.0 0.0 -5.155555555556e-04 
-1.072061725773e-03 1.181075520675e-03 0.0 
1.181075520675e-03 3.333527226650e-03 0.0 
0.0 0.0 -7.283378183804e-04 
-1.281962566836e-03 -1.205561474005e-04 0.0 
-1.205561474005e-04 3.543719900527e-03 0.0 
0.0 0.0 -5.377777777778e-04 
-1.019291723586e-03 1.089044048788e-03 0.0 
1.089044048788e-03 3.195052180348e-03 0.0 
0.0 0.0 -7.244127351333e-04 
-1.216630828162e-03 -5.217094280109e-05 0.0 
-5.217094280109e-05 3.837261921334e-03 0.0 
0.0 0.0 -5.155555555556e-04 
-1.278612193971e-03 -8.527996152039e-05 0.0 
-8.527996152039e-05 3.532526708308e-03 0.0 
0.0 0.0 -5.485944179258e-04 
-1.248566532597e-03 -8.063337581444e-06 0.0 
-8.063337581444e-06 3.832196745573e-03 0.0 
0.0 0.0 -5.155555555556e-04 
-1.265136211354e-03 -3.710354583219e-05 0.0 
-3.710354583219e-05 3.516310959499e-03 0.0 
0.0 0.0 -5.642304945314e-04 
-1.285253076073e-03 5.378705676948e-05 0.0 
5.378705676948e-05 3.825167274507e-03 0.0 
0.0 0.0 -5.155555555556e-04 
-1.249016317751e-03 2.783290865771e-05 0.0 
2.783290865771e-05 3.495315634217e-03 0.0 
0.0 0.0 -5.808897987891e-04 
-1.009506465037e-03 1.312718317251e-03 0.0 
1.312718317251e-03 3.173615454217e-03 0.0 
0.0 0.0 -6.840081157839e-04 
-1.325793724936e-03 1.409910150458e-04 0.0 
1.409910150458e-04 3.811895021444e-03 0.0 
0.0 0.0 -5.155555555556e-04 
-1.228491986619e-03 1.177167741922e-04 0.0 
1.177167741922e-04 3.467495695501e-03 0.0 
0.0 0.0 -6.000309252581e-04 
-1.370873242614e-03 2.586300978522e-04 0.0 
2.586300978522e-04 3.792690245387e-03 0.0 
0.0 0.0 -5.155555555556e-04 
-1.200813378474e-03 2.299684609271e-04 0.0 
2.299684609271e-04 3.428363493249e-03 0.0 
0.0 0.0 -6.226598288582e-04 
-1.373356089150e-03 4.171425679384e-04 0.0 
4.171425679384e-04 3.744750078480e-03 0.0 
0.0 0.0 -5.289384626357e-04 
-1.172212083606e-03 4.058181090915e-04 0.0 
4.058181090915e-04 3.389456744915e-03 0.0 
0.0 0.0 -6.422847164987e-04 
-1.331867317601e-03 6.009358889080e-04 0.0 
6.009358889080e-04 3.691337826045e-03 0.0 
0.0 0.0 -5.597688379707e-04 
-1.124375463142e-03 5.598543092856e-04 0.0 
5.598543092856e-04 3.325139889709e-03 0.0 
0.0 0.0 -6.782083763712e-04 
-1.081971884868e-03 8.414092324740e-04 0.0 
8.414092324740e-04 3.267902520726e-03 0.0 
0.0 0.0 -6.895475544463e-04 
-1.262668952542e-03 8.256947026051e-04 0.0 
8.256947026051e-04 3.589844959231e-03 0.0 
0.0 0.0 -5.971186907353e-04 
-1.015537556123e-03 1.423057567146e-03 0.0 
1.423057567146e-03 3.272421342693e-03 0.0 
0.0 0.0 -7.495201701545e-04 
-1.195815340391e-03 1.081747061634e-03 0.0 
1.081747061634e-03 3.513584158614e-03 0.0 
0.0 0.0 -6.415873553655e-04 
-9.227522449622e-04 1.272927656652e-03 0.0 
1.272927656652e-03 3.024546989958e-03 0.0 
0.0 0.0 -7.380105449967e-04 
-1.189132313752e-03 -3.719683768529e-04 0.0 
-3.719683768529e-04 3.742930454027e-03 0.0 
0.0 0.0 -5.266666666667e-04 
-1.078621173226e-03 3.329266509439e-04 0.0 
3.329266509439e-04 3.544627002251e-03 0.0 
0.0 0.0 -5.266666666667e-04 
-1.179143088157e-03 -5.341908987877e-05 0.0 
-5.341908987877e-05 3.711783890135e-03 0.0 
0.0 0.0 -5.488888888889e-04 
-1.086602714393e-03 2.829903387263e-05 0.0 
2.829903387263e-05 3.587438639290e-03 0.0 
0.0 0.0 -5.044444444444e-04 
-8.701615349701e-04 1.534050088586e-03 0.0 
1.534050088586e-03 2.982960737759e-03 0.0 
0.0 0.0 -7.564843357160e-04 
-1.281957485101e-03 -9.385206070326e-05 0.0 
-9.385206070326e-05 4.159171467776e-03 0.0 
0.0 0.0 -6.044444444444e-04 
-1.212906511887e-03 8.437755052735e-06 0.0 
8.437755052735e-06 4.332528287739e-03 0.0 
0.0 0.0 -5.822222222222e-04 
-1.270813931325e-03 -4.040562334661e-05 0.0 
-4.040562334661e-05 4.018667514915e-03 0.0 
0.0 0.0 -6.044444444444e-04 
-1.215139368930e-03 -5.723684032478e-05 0.0 
-5.723684032478e-05 4.317315307501e-03 0.0 
0.0 0.0 -5.822222222222e-04 
-1.281549970565e-03 -2.783058806924e-05 0.0 
-2.783058806924e-05 4.009142892880e-03 0.0 
0.0 0.0 -6.044444444444e-04 
-1.225715800122e-03 -5.846153113734e-05 0.0 
-5.846153113734e-05 4.321112834897e-03 0.0 
0.0 0.0 -5.822222222222e-04 
-1.299500121220e-03 -3.892246035712e-05 0.0 
-3.892246035712e-05 4.013014100261e-03 0.0 
0.0 0.0 -6.044444444444e-04 
-1.237102750459e-03 -6.373558927260e-05 0.0 
-6.373558927260e-05 4.316061582639e-03 0.0 
0.0 0.0 -5.822222222222e-04 
-1.310225087603e-03 -3.096991785550e-05 0.0 
-3.096991785550e-05 4.010869733645e-03 0.0 
0.0 0.0 -6.044444444444e-04 
-1.254618385227e-03 -5.449007521454e-05 0.0 
-5.449007521454e-05 4.318709008563e-03 0.0 
0.0 0.0 -5.822222222222e-04 
-1.336238080201e-03 -2.665442879324e-05 0.0 
-2.665442879324e-05 4.014359818630e-03 0.0 
0.0 0.0 -6.044444444444e-04 
-1.274728536484e-03 -4.422787035067e-05 0.0 
-4.422787035067e-05 4.314650827642e-03 0.0 
0.0 0.0 -5.822222222222e-04 
-1.357159993559e-03 -4.580559540248e-06 0.0 
-4.580559540248e-06 4.014254519705e-03 0.0 
0.0 0.0 -6.044444444444e-04 
-1.347537318405e-03 1.010824294751e-03 0.0 
1.010824294751e-03 3.920037731601e-03 0.0 
0.0 0.0 -7.117109445114e-04 
-1.301666809856e-03 -2.047408919469e-05 0.0 
-2.047408919469e-05 4.318063477050e-03 0.0 
0.0 0.0 -5.822222222222e-04 
-1.391706891411e-03 2.751450344882e-06 0.0 
2.751450344882e-06 4.016171820733e-03 0.0 
0.0 0.0 -6.044444444444e-04 
-1.286495538148e-03 1.141604132091e-03 0.0 
1.141604132091e-03 3.755942445139e-03 0.0 
0.0 0.0 -6.690433100420e-04 
-1.326407011280e-03 6.045508856538e-06 0.0 
6.045508856538e-06 4.301570573764e-03 0.0 
0.0 0.0 -5.822222222222e-04 
-1.418163902024e-03 5.346625199558e-05 0.0 
5.346625199558e-05 4.007884251177e-03 0.0 
0.0 0.0 -6.044444444444e-04 
-1.269919325548e-03 9.693842664938e-04 0.0 
9.693842664938e-04 3.741904716454e-03 0.0 
0.0 0.0 -7.168342214570e-04 
-1.359108424707e-03 6.264265058965e-05 0.0 
6.264265058965e-05 4.294165002255e-03 0.0 
0.0 0.0 -5.822222222222e-04 
-1.457002779349e-03 1.155195072583e-04 0.0 
1.155195072583e-04 4.005151940014e-03 0.0 
0.0 0.0 -6.044444444444e-04 
-1.397754652771e-03 1.342537055091e-04 0.0 
1.342537055091e-04 4.286646401950e-03 0.0 
0.0 0.0 -5.822222222222e-04 
-1.439433466702e-03 1.791245333921e-04 0.0 
1.791245333921e-04 3.981926727275e-03 0.0 
0.0 0.0 -6.212763874705e-04 
-1.437165891528e-03 2.256325768342e-04 0.0 
2.256325768342e-04 4.266187057435e-03 0.0 
0.0 0.0 -5.822222222222e-04 
-1.294521127295e-03 1.255121558487e-03 0.0 
1.255121558487e-03 3.846810996671e-03 0.0 
0.0 0.0 -7.256046805931e-04 
-1.416692839753e-03 2.731618170809e-04 0.0 
2.731618170809e-04 3.949147984694e-03 0.0 
0.0 0.0 -6.388990248527e-04 
-1.480404564063e-03 3.507234002411e-04 0.0 
3.507234002411e-04 4.240406141116e-03 0.0 
0.0 0.0 -5.822222222222e-04 
-1.527971474499e-03 5.064010242542e-04 0.0 
5.064010242542e-04 4.210902708310e-03 0.0 
0.0 0.0 -5.822222222222e-04 
-1.387518079071e-03 3.943188623073e-04 0.0 
3.943188623073e-04 3.907645916582e-03 0.0 
0.0 0.0 -6.603292536270e-04 
-1.489199031895e-03 7.040012771420e-04 0.0 
7.040012771420e-04 4.109006438777e-03 0.0 
0.0 0.0 -6.048139398938e-04 
-1.345551405801e-03 5.089205632429e-04 0.0 
5.089205632429e-04 3.844893580165e-03 0.0 
0.0 0.0 -6.886802823100e-04 
-1.449968692027e-03 9.453817318756e-04 0.0 
9.453817318756e-04 4.074908376766e-03 0.0 
0.0 0.0 -6.381145674715e-04 
-1.311416027678e-03 7.842300283395e-04 0.0 
7.842300283395e-04 3.792994805538e-03 0.0 
0.0 0.0 -6.930958846255e-04 
-1.191921020040e-03 1.114101255005e-03 0.0 
1.114101255005e-03 3.585331380848e-03 0.0 
0.0 0.0 -7.187225406772e-04 
-1.177806506474e-03 -3.598193330075e-04 0.0 
-3.598193330075e-04 4.111442480075e-03 0.0 
0.0 0.0 -5.933333333333e-04 
-1.298614317116e-03 3.518912234694e-04 0.0 
3.518912234694e-04 4.327861140627e-03 0.0 
0.0 0.0 -5.933333333333e-04 
-1.201365310379e-03 -4.039072614176e-05 0.0 
-4.039072614176e-05 4.155647570895e-03 0.0 
0.0 0.0 -5.711111111111e-04 
-1.277329052135e-03 4.889702624734e-05 0.0 
4.889702624734e-05 4.269846773222e-03 0.0 
0.0 0.0 -6.155555555556e-04 
-1.165172176686e-03 1.355369621706e-03 0.0 
1.355369621706e-03 3.569481016305e-03 0.0 
0.0 0.0 -7.239602392282e-04 
-1.326401929546e-03 -1.098251756258e-04 0.0 
-1.098251756258e-04 4.716210200324e-03 0.0 
0.0 0.0 -6.488888888889e-04 
-1.341042556431e-03 -1.497445551792e-05 0.0 
-1.497445551792e-05 4.487654478362e-03 0.0 
0.0 0.0 -6.711111111111e-04 
-1.315258375770e-03 -3.279398266088e-06 0.0 
-3.279398266088e-06 4.798065319814e-03 0.0 
0.0 0.0 -6.488888888889e-04 
-1.368317620788e-03 -1.903812859008e-05 0.0 
-1.903812859008e-05 4.498221230458e-03 0.0 
0.0 0.0 -6.711111111111e-04 
-1.325994415009e-03 1.380554954630e-05 0.0 
1.380554954630e-05 4.806277874424e-03 0.0 
0.0 0.0 -6.488888888889e-04 
-1.380848091197e-03 -1.506252807686e-07 0.0 
-1.506252807686e-07 4.508257602630e-03 0.0 
0.0 0.0 -6.711111111111e-04 
-1.343944565664e-03 7.917736370567e-06 0.0 
7.917736370567e-06 4.818216293294e-03 0.0 
0.0 0.0 -6.488888888889e-04 
-1.386616382160e-03 -2.067760603014e-05 0.0 
-2.067760603014e-05 4.497592293928e-03 0.0 
0.0 0.0 -6.711111111111e-04 
-1.354669532048e-03 3.875023501283e-05 0.0 
3.875023501283e-05 4.799753708961e-03 0.0 
0.0 0.0 -6.488888888889e-04 
-1.406907359723e-03 3.160898061574e-05 0.0 
3.160898061574e-05 4.503118169212e-03 0.0 
0.0 0.0 -6.711111111111e-04 
-1.380682524645e-03 5.561565498039e-05 0.0 
5.561565498039e-05 4.809868159537e-03 0.0 
0.0 0.0 -6.488888888889e-04 
-1.435189363615e-03 3.130270196416e-05 0.0 
3.130270196416e-05 4.499809120004e-03 0.0 
0.0 0.0 -6.711111111111e-04 
-1.611535782568e-03 8.671279044143e-04 0.0 
8.671279044143e-04 4.506015908724e-03 0.0 
0.0 0.0 -7.049993574243e-04 
-1.401604438003e-03 9.330713447470e-05 0.0 
9.330713447470e-05 4.797672975585e-03 0.0 
0.0 0.0 -6.488888888889e-04 
-1.512351284449e-03 8.656230693377e-04 0.0 
8.656230693377e-04 4.297202840087e-03 0.0 
0.0 0.0 -7.256265952625e-04 
-1.438154550875e-03 9.647646109404e-05 0.0 
9.647646109404e-05 4.497364060681e-03 0.0 
0.0 0.0 -6.711111111111e-04 
-1.436151335856e-03 1.358395788754e-04 0.0 
1.358395788754e-04 4.800332653133e-03 0.0 
0.0 0.0 -6.488888888889e-04 
-1.499230372271e-03 1.062721523167e-04 0.0 
1.062721523167e-04 4.489570327750e-03 0.0 
0.0 0.0 -6.711111111111e-04 
-1.462608346469e-03 2.027818769099e-04 0.0 
2.027818769099e-04 4.774125764298e-03 0.0 
0.0 0.0 -6.488888888889e-04 
-1.532724437083e-03 1.968943510655e-04 0.0 
1.968943510655e-04 4.482722825432e-03 0.0 
0.0 0.0 -6.711111111111e-04 
-1.501447223794e-03 2.766209172912e-04 0.0 
2.766209172912e-04 4.769601642763e-03 0.0 
0.0 0.0 -6.488888888889e-04 
-1.557872225570e-03 2.720774980370e-04 0.0 
2.720774980370e-04 4.471068660141e-03 0.0 
0.0 0.0 -6.711111111111e-04 
-1.549932705829e-03 1.034482702559e-03 0.0 
1.034482702559e-03 4.338594692453e-03 0.0 
0.0 0.0 -6.619668726724e-04 
-1.539964497909e-03 3.703806189017e-04 0.0 
3.703806189017e-04 4.750827424066e-03 0.0 
0.0 0.0 -6.488888888889e-04 
-1.593531228853e-03 3.628458802930e-04 0.0 
3.628458802930e-04 4.447964373288e-03 0.0 
0.0 0.0 -6.711111111111e-04 
-1.575889340432e-03 4.997462669703e-04 0.0 
4.997462669703e-04 4.711328261492e-03 0.0 
0.0 0.0 -6.488888888889e-04 
-1.590906187641e-03 5.071802277050e-04 0.0 
5.071802277050e-04 4.406658573059e-03 0.0 
0.0 0.0 -6.802731460288e-04 
-1.553155722451e-03 6.861757538348e-04 0.0 
6.861757538348e-04 4.351637703117e-03 0.0 
0.0 0.0 -7.011174395038e-04 
-1.617910879156e-03 6.689844391721e-04 0.0 
6.689844391721e-04 4.669016158580e-03 0.0 
0.0 0.0 -6.488888888889e-04 
-1.669910948397e-03 8.547088690357e-04 0.0 
8.547088690357e-04 4.635783510319e-03 0.0 
0.0 0.0 -6.488888888889e-04 
-1.565389776433e-03 1.113185015486e-03 0.0 
1.113185015486e-03 4.431052665958e-03 0.0 
0.0 0.0 -7.101757656324e-04 
-1.445746577220e-03 9.960480725557e-04 0.0 
9.960480725557e-04 4.140494100543e-03 0.0 
0.0 0.0 -7.083488828164e-04 
-1.382040473179e-03 -3.190058038896e-04 0.0 
-3.190058038896e-04 4.672355147485e-03 0.0 
0.0 0.0 -6.600000000000e-04 
-1.311697345882e-03 3.879464369525e-04 0.0 
3.879464369525e-04 4.545991971317e-03 0.0 
0.0 0.0 -6.600000000000e-04 
-1.392413986569e-03 1.825900643476e-05 0.0 
1.825900643476e-05 4.677427317752e-03 0.0 
0.0 0.0 -6.822222222222e-04 
-1.299551274357e-03 6.542939229750e-05 0.0 
6.542939229750e-05 4.553563985542e-03 0.0 
0.0 0.0 -6.377777777778e-04 
-1.453247710607e-03 1.192137069286e-03 0.0 
1.192137069286e-03 4.178885573169e-03 0.0 
0.0 0.0 -7.047837856643e-04 

SCALARS element_materi_plasti_kappa_shear float
LOOKUP_TABLE default
2.638449368411e-03
2.307880314974e-03
5.668059790692e-03
5.685840565928e-03
3.968724762264e-03
2.227775623383e-03
3.926609063437e-03
2.603981897009e-03
3.959861142706e-03
5.676159459017e-03
3.789460879762e-03
2.166184027025e-03
4.891618303360e-03
4.239593676265e-03
4.915486508882e-03
5.763080812267e-03
3.957109970888e-03
9.864085158709e-05
1.385502992053e-03
1.310811347843e-03
5.684919687706e-03
2.668003560693e-03
2.830444855211e-03
2.887992383095e-03
4.492952651090e-03
3.999825579596e-03
3.772973464484e-03
4.950933107395e-03
4.446798420902e-03
3.154878546998e-03
2.756846244609e-03
9.905717093618e-04
5.968283596401e-03
4.581378283715e-03
4.439297578914e-03
4.887177070447e-03
5.091662130986e-03
3.236750732307e-03
3.615750744496e-03
3.662711387174e-03
3.132788783305e-03
4.003574433579e-03
2.231218125306e-03
3.619781891395e-03
5.614862315127e-03
2.308537538977e-03
2.567928975721e-03
5.479464518158e-03
8.195853011297e-04
4.082692105509e-03
3.028705324844e-03
1.800022130003e-03
3.293726347817e-03
2.963783223813e-03
5.752538416863e-03
2.317662380795e-03
1.680471960424e-03
4.591779384906e-03
1.282089538117e-03
5.743217870912e-03
0.0
3.970806248155e-03
2.953445704213e-03
3.287038662097e-03
4.914099357777e-03
2.824966036789e-03
0.0
5.862902570517e-03
2.620748184046e-03
5.405750626230e-03
4.123083578977e-03
5.868967824668e-03
4.513723255217e-03
9.779064778028e-04
2.287061364591e-03
5.715984257660e-03
5.955190373470e-03
2.225229681788e-03
8.958780141002e-04
2.309523210765e-03
2.623606725785e-03
3.807044789785e-03
2.701030844542e-03
2.283651859930e-03
4.111166650998e-03
4.102179279090e-03
4.228241446566e-03
4.546798255785e-03
5.028716670228e-03
3.901152697752e-03
6.549433232100e-04
3.920650833441e-03
4.955587413478e-03
5.010029682247e-03
6.082587846612e-03
3.583046306489e-03
3.812238424463e-03
4.309414704673e-03
4.319293153851e-03
3.152072117772e-03
3.806820599516e-03
4.894923453038e-03
2.752080048091e-03
3.649256563451e-03
2.864912835823e-03
2.832888651383e-03
4.791522079347e-03
5.257296183677e-03
6.216847982975e-04
4.789762209254e-03
4.946970942302e-03
1.455853485302e-03
3.116660414769e-03
3.646713869330e-03
2.740266031466e-03
2.565730635348e-03
3.111248311779e-03
4.481696809263e-03
4.267994674223e-03
2.744319843462e-03
2.256121814009e-03
4.028535080126e-03
5.125478964429e-03
2.884095006377e-03
1.634010763882e-03
3.343960081378e-03
2.825136596843e-03
3.200895695618e-03
5.840634446843e-03
3.049581698772e-03
3.964814282569e-03
5.700506446746e-03
3.554006587530e-03
3.223480759992e-03
4.236959910874e-03
4.935732901856e-03
4.220142662913e-03
3.782725374417e-03
3.633905000164e-03
3.434454553281e-03
5.667308756995e-03
5.731127569311e-03
4.159105326719e-03
4.705255006089e-03
3.527054415499e-03
3.060528253236e-03
3.807578355912e-03
3.078773552032e-03
3.873095872756e-03
3.370616847933e-03
7.627933793163e-04
4.106841682748e-03
9.591787070335e-04
3.491582586837e-03
3.620903548599e-03
2.658320563693e-03
4.383820681644e-03
2.313821533156e-03
3.280595579104e-03
3.781797064791e-03
3.239934934191e-03
4.666843953081e-03
1.844128017672e-03
4.751176865938e-03
3.949884846235e-03
4.988018486650e-03
3.771577015596e-03
2.896598297230e-03
3.483459645253e-03
3.893786270809e-03
2.298745108616e-03
3.272701774280e-03
4.841674106423e-03
3.900979634001e-03
3.037833255544e-03
3.320787467051e-03
5.050201609921e-03
3.079663805871e-03
4.649906474496e-03
5.561012058297e-03
2.890227526471e-03
2.943961554453e-03
2.210045688094e-03
3.349611072642e-03
2.235768342795e-03
3.804052174663e-03
3.255583921612e-03
5.686869579948e-03
5.039238049397e-03
4.717478710770e-03
2.309621426061e-03
3.143595662693e-03
5.111000880600e-03
0.0
3.256985193650e-03
2.315875762829e-03
1.186781807755e-03
5.879212306885e-03
4.749545806609e-03
3.205712272384e-03
1.923895110586e-03
4.248611553850e-03
4.390119912627e-03
3.260852054242e-03
2.726046229142e-03
3.866905638561e-03
4.085059299403e-03
4.849847065370e-03
4.084848891733e-03
3.788784052669e-03
2.384045379571e-03
4.854751456170e-03
0.0
2.534886222220e-03
2.875294506275e-03
3.926615174907e-03
5.120800106263e-03
2.883704576322e-03
2.560806566150e-03
3.780927287153e-03
3.250336732161e-03
2.904934106925e-03
9.744138873205e-04
5.002746784696e-03
1.187677453753e-03
9.712234474307e-04
2.285555067131e-03
2.450408811608e-03
5.091607850684e-03
2.428262004319e-03
2.774880105579e-03
3.779138720656e-03
1.803156298713e-03
1.957999132830e-03
3.924614645831e-03
4.859013116494e-03
0.0
3.040676180201e-03
3.206874618957e-03
3.130650380996e-03
2.062644621155e-03
4.885442700903e-03
4.892149880117e-03
3.059373875750e-03
2.149562808967e-03
4.104130610049e-03
4.011618650566e-03
4.856263363195e-03
4.079661242982e-03
3.170623979729e-03
2.775910294640e-03
4.348640566437e-03
6.080884502444e-03
4.012120085899e-03
2.651654117440e-03
4.174160396721e-03
2.772644652466e-03
4.114504492513e-03
3.290795862291e-03
2.811701725688e-03
3.471873507376e-03
5.142731837040e-03
4.219310466071e-03
2.711805464269e-03
5.231202940207e-03
4.958047196859e-03
4.103438709337e-03
4.637764333399e-03
2.438306330947e-03
4.211956383520e-03
3.365372856234e-03
2.450675261700e-03
2.887962119562e-03
3.878533253387e-03
2.940597055344e-03
2.728683675051e-03
4.958207544710e-03
0.0
4.231308200600e-03
3.120397780434e-03
3.113605546756e-03
2.278736831083e-03
4.503373325418e-03
1.884659263120e-03
3.120901491325e-03
2.297614029118e-03
4.243041167150e-03
4.240307436026e-03
1.373936041198e-03
2.435310679187e-03
3.155120820171e-03
3.003223930663e-03
4.798301013803e-03
3.306297059748e-03
2.985321424422e-03
3.188763902837e-03
1.370686704752e-03
3.117506418936e-03
2.564683140303e-03
6.161779301333e-03
6.171298087031e-03
3.871585823704e-03
3.224089549692e-03
3.155590452933e-03
4.317766949050e-03
3.003359536048e-03
2.608662778043e-03
3.938150114373e-03
5.859163444552e-03
3.214653691530e-03
2.969191311487e-03
2.861811173678e-03
3.768586856653e-03
3.337633072254e-03
4.030230270756e-03
2.035757012657e-03
1.094219009940e-03
3.031075150381e-03
2.930652641427e-03
4.078338297131e-03
6.100030670434e-03
3.051206385844e-03
1.821620188347e-03
2.861790791984e-03
4.656042724998e-03
2.349687270255e-03
2.816498775574e-03
4.525435709533e-03
5.833892866330e-03
2.486522419677e-03
6.151276113808e-03
4.485990906698e-03
4.856089461195e-03
2.611916462935e-03
3.799226166888e-03
4.210806094155e-03
4.343507042611e-03
3.883342781648e-03
5.453648402860e-03
4.408884898377e-03
3.954238356753e-03
2.946932738359e-03
2.126147916000e-03
3.626304909236e-03
2.828752624356e-03
3.908082809323e-03
3.189022324685e-03
2.979438473071e-03
5.107150669262e-03
3.057133034874e-03
3.948493172095e-03
1.767047002602e-03
3.219295742043e-03
4.649421512783e-03
3.423567528206e-03
2.373751734207e-03
2.784414744251e-03
2.725624955031e-03
2.452240531365e-03
5.184269692729e-03
4.210892199139e-03
3.195156139089e-03
3.675464466287e-03
3.719198240263e-03
3.156300643646e-03
5.270722120896e-03
4.951030620452e-03
2.791959147438e-03
3.435291521076e-03
2.714045320190e-03
2.771808396209e-03
4.119259232477e-03
1.360400106286e-03
3.400766620885e-03
5.356429761657e-03
2.456112603846e-03
3.687823897699e-03
4.067889866897e-03
3.485977458347e-03
6.171877983723e-03
6.194847258956e-03
5.749913356992e-03
3.020677987419e-03
5.279204517925e-03
2.613300540084e-03
2.741755212613e-03
2.004260055719e-03
3.406978849626e-03
3.842950909138e-03
4.513278632072e-03
3.244307823644e-03
5.163355495152e-03
4.386423237292e-03
4.476099206042e-03
2.391474383936e-03
1.955161698588e-03
3.217570021580e-03
3.872368428503e-03
3.338770506916e-03
1.812371568338e-03
4.015486225801e-03
2.355558185554e-03
3.278219706871e-03
3.673414290175e-03
1.915648292058e-03
3.981389866811e-03
1.053059668761e-03
3.652003582868e-03
3.330842304649e-03
4.441446771420e-03
6.067281547840e-03
3.807583682193e-03
4.322942112553e-03
3.526145110671e-03
5.255189385440e-03
3.347041718801e-03
5.955073764805e-03
5.938883086238e-03
5.933478345373e-03
5.925413924026e-03
4.598269985990e-03
5.190485547386e-03
5.356291838170e-03
3.172127365247e-03
3.189545386338e-03
3.291257441844e-03
5.278332870253e-03
5.650465782490e-03
5.386391458906e-03
2.086314033400e-03
5.331196890249e-03
3.953887606243e-03
3.284431480345e-03
3.285128967487e-03
3.301125392640e-03
5.759722545495e-03
2.921518703947e-03
4.716770599090e-03
3.382244159206e-03
3.419989620685e-03
3.235774226863e-03
3.108654577361e-03
5.912838273886e-03
5.757913193712e-03
4.236288878953e-03
1.032336198831e-03
5.784372647958e-03
3.094301216638e-03
3.133163714027e-03
1.473651489525e-03
4.377992282328e-03
0.0
3.076087156915e-03
4.393331777553e-03
4.078214650418e-03
4.173061940919e-03
3.172673925433e-03
5.528089032988e-03
2.695300704482e-03
6.061028079687e-04
4.784301089445e-03
1.109397696731e-03
3.558631343330e-03
2.671343080510e-03
3.641731318210e-03
3.626491229388e-03
5.164773912347e-03
4.369311817321e-03
2.723039152115e-03
3.202065681838e-04
3.393270163090e-03
4.000013488580e-03
3.998607249003e-03
4.091967694103e-03
4.682585152391e-03
3.977798602140e-03
6.148717226547e-03
4.046693637694e-03
4.375476627736e-03
2.475463655856e-03
2.038113747758e-03
2.665603733635e-03
4.155084444682e-03
5.944456476497e-03
5.933805245861e-03
3.347496143322e-03
3.141954240646e-03
3.636565096111e-03
3.524861024850e-03
3.764870203374e-03
3.214228737877e-03
2.609429685079e-03
2.752166065871e-03
4.525635562498e-03
3.964553113648e-03
2.737089484301e-03
3.599211839311e-03
2.982464518279e-03
5.872767812274e-03
5.256518196814e-03
6.948896764315e-04
2.926992632798e-03
5.363068251323e-03
5.678180438031e-03
4.516604651069e-03
3.800290162266e-03
2.959233318371e-03
2.645089123397e-03
2.991327947613e-03
2.961565605678e-03
1.984606166548e-03
5.360282778703e-03
2.617597906633e-03
2.719354908298e-03
4.219904639673e-03
2.558238552366e-03
2.945805251787e-03
4.447306010212e-03
4.403301426083e-03
3.203880338452e-03
3.270240138624e-03
3.822758874253e-03
2.320351021533e-03
2.695647363228e-03
3.241179321446e-03
4.055854335950e-03
4.302137120783e-03
2.006945487216e-03
3.504931263533e-03
3.493889225164e-03
3.226663955409e-03
3.195012242961e-03
3.705694372684e-03
2.015330950654e-03
3.674094389629e-03
5.465741692551e-03
2.782005441388e-03
3.605540778520e-03
3.144508273296e-03
3.122849437202e-03
2.256333325417e-03
4.140151503650e-03
5.431033007288e-03
3.225301536712e-03
3.778146397866e-03
3.509424093333e-03
3.382045560242e-03
4.257156002915e-03
2.174643724136e-03
3.150567633663e-03
1.746587665763e-03
4.710220312248e-03
3.696882214136e-03
2.499260062840e-03
4.393497597306e-03
3.304371545067e-03
1.515148851358e-03
2.794723090240e-03
3.870525163770e-03
5.202539231559e-04
3.198860063348e-03
3.122843769625e-03
3.536839909767e-03
3.054969112373e-03
3.133169061378e-03
4.394974799046e-03
3.171453652514e-03
3.954441890249e-03
4.408365611267e-03
3.531054572272e-03
4.293331672903e-03
3.469160005882e-03
0.0
4.342827187450e-03
2.815733446126e-03
1.169868182888e-03
3.377528405656e-03
3.017950135559e-03
5.309388747160e-03
1.836141118027e-03
1.645439494872e-03
3.818624685672e-03
3.581263554169e-03
5.741565943865e-03
4.177684629919e-03
1.850928756814e-03
2.067405024286e-03
1.416744999512e-03
2.579714406710e-03
4.842819569639e-03
5.316030625827e-03
3.796388360631e-03
2.739477237490e-03
3.923275296672e-03
2.756654641122e-03
1.368956117904e-03
2.826459377296e-03
2.346887089609e-03
4.356557030682e-03
4.139689611657e-03
3.039564492647e-03
3.507425817395e-03
3.484969287982e-03
2.724837710706e-03
1.738579034053e-03
2.880004918018e-03
1.059860394561e-03
3.342988300000e-03
3.564932177344e-03
9.012381607526e-04
2.910014888118e-03
5.510045432400e-03
1.959702749170e-03
3.585704259986e-03
3.723526099815e-03
1.268716263999e-03
2.392889037010e-03
3.063515298583e-03
2.813209111348e-03
4.210048530920e-03
5.103573185464e-03
5.177892081959e-03
2.829945348819e-03
1.363451425510e-03
3.691969532227e-03
3.550626997966e-03
3.676511325993e-03
1.285478420515e-03
8.537344141222e-04
7.845181071081e-04
2.162938812804e-03
1.377340432524e-03
3.170219899797e-03
0.0
2.524870915773e-03
4.491269867148e-03
3.700282617022e-03
5.066161758073e-03
3.327949804502e-03
4.251884330892e-03
2.509212341416e-03
1.018037242248e-03
5.829475890602e-03
6.039028528119e-03
4.216434674855e-03
3.565489033798e-03
2.587498848121e-03
5.999263223227e-03
2.442752516004e-03
3.696609549568e-03
3.563907472710e-03
3.514699694935e-03
5.927065042664e-03
6.015277257663e-03
1.330400211541e-03
1.449907591737e-03
1.344592241943e-03
3.643608196866e-03
4.850396606121e-03
0.0
5.101358492196e-03
1.409139728971e-04
1.499124232117e-03
3.824208957472e-04
0.0
2.029814193675e-03
4.688865864911e-03
4.611649624508e-03
3.864254668426e-03
9.306078872588e-04
4.020589784949e-03
5.797624803762e-03
5.973591106953e-03
3.688007304244e-03
1.196237126604e-03
5.834612071299e-03
3.414725027011e-03
9.671159728271e-04
1.409744689688e-03
9.368666534769e-04
2.773625038877e-03
5.128733981852e-03
5.686078140094e-03
1.614169892137e-03
3.141780048589e-03
4.903795419048e-03
5.124707089311e-03
4.540751789241e-03
4.863760003675e-03
5.230664655895e-03
4.885659315087e-03
4.900079095049e-03
5.104618843216e-03
2.371313285604e-03
3.639130252575e-03
3.700407251155e-03
1.543007074285e-03
4.822691056272e-03
4.723797952646e-03
4.594502443142e-03
2.187658065542e-03
2.078158679153e-03
4.298928970353e-03
4.465695048772e-03
4.739825188448e-03
3.625004239622e-03
4.980074041723e-03
4.182381661481e-03
3.612530889479e-03
1.648586597975e-03
1.078919747717e-03
9.715320649564e-04
8.189522588763e-04
3.276017880373e-03
3.023112973762e-03
3.897742298982e-04
4.028126407989e-03
2.904706458492e-04
5.885086834910e-03
5.811364703112e-03
5.844706076157e-03
1.127270833140e-03
2.214903500655e-03
5.806505327903e-03
4.688671280238e-03
5.826774921974e-03
4.813055851057e-03
4.917144813202e-03
2.903322035183e-03
6.008349193016e-03
6.003877113261e-03
4.727827648335e-03
4.864305038441e-03
4.249335747198e-03
0.0
3.175859147544e-03
1.259325279811e-03
4.420798695160e-03
3.384638883793e-03
4.409067033902e-03
2.131043982543e-03
1.108023222196e-03
4.695482135487e-03
3.365831542969e-03
2.646631452456e-03
4.556588175848e-03
5.414895944389e-03
2.656831201839e-03
3.200576911771e-03
3.816886599349e-03
4.190899904542e-03
4.331300515814e-03
2.822232598008e-03
3.605666078604e-03
3.473782743791e-03
3.959311659394e-03
4.657481856823e-03
4.474738788930e-03
2.497721918515e-03
5.428170056435e-03
5.196932708230e-03
3.994972095663e-03
4.018877418988e-03
4.067532001752e-03
5.468828346424e-03
5.334434594670e-03
3.777218885507e-03
4.785229386991e-03
5.183640898652e-03
4.486085823949e-03
4.626918442455e-03
5.440760853048e-03
4.828731435924e-03
3.492214324912e-03
1.813629337524e-03
2.595415623828e-03
1.751915947168e-03
1.311389193297e-03
5.325791288567e-03
4.638904880307e-03
1.232072997821e-03
5.349220756651e-03
4.109200150890e-03
4.453473742339e-03
4.501290464753e-03
2.822661026846e-03
4.600361826760e-03
3.989940508894e-03
1.568365711787e-03
4.607579259789e-03
1.682217231393e-03
4.433060704539e-03
4.965853579252e-03
1.931234771425e-03
2.536905363929e-03
3.506959235330e-03
4.546823231474e-03
2.929878446617e-03
5.094658413771e-03
4.689487714453e-03
3.549548679273e-03
4.373859018118e-03
4.508144441649e-03
4.950601638813e-03
1.602271484754e-03
3.405781233643e-03
3.108775469077e-03
5.079843116042e-03
3.194307102305e-03
3.880531337843e-03
4.194530845224e-03
4.813687637528e-03
2.696113206384e-04
1.541456333067e-03
1.874707634932e-03
4.535680067079e-03
4.684102630711e-03
3.785681380179e-03
4.265606377495e-03
3.105476038775e-03
3.587079011170e-03
4.392674845493e-03
1.860767443432e-03
4.452816754116e-03
3.543702289538e-03
1.992785431315e-03
3.392397121739e-03
2.975423009005e-03
2.515877789845e-03
3.725661475431e-03
9.890849693237e-04
7.121019429699e-04
4.132428392348e-03
1.740140079302e-03
4.103577769620e-03
3.987009557526e-03
3.370047699069e-03
3.248806400505e-03
5.300420175180e-03
2.104285098992e-03
2.995450123017e-03
2.940527097191e-03
1.410651741479e-03
4.429529881649e-03
4.136718757980e-03
1.859816294009e-03
3.894261520894e-03
4.933477745413e-03
1.699722713993e-03
5.408694418047e-03
5.411197824938e-03
2.017061567542e-03
2.915404601559e-03
2.179306637539e-03
4.367605250964e-03
3.647788208579e-03
5.489535749250e-03
5.304729192866e-03
4.231498250214e-03
4.146491013704e-03
1.780674243216e-03
4.280532226645e-03
4.934868325194e-03
3.669316609231e-03
4.695546322833e-03
5.063717161736e-03
2.645489529404e-03
5.190164349716e-03
3.272404207533e-03
3.596661715040e-03
2.751844944681e-03
3.019000093276e-03
4.810385432176e-03
3.246422704326e-03
2.264566458407e-03
1.689403800147e-03
4.815225778648e-03
2.226110953632e-03
4.194754128453e-03
4.940895878954e-03
4.276223362944e-03
3.112253213804e-03
3.202020562987e-03
1.919623832173e-03
1.352217145348e-03
4.164633130640e-03
4.560658305418e-03
1.177128837243e-03
2.915068821861e-03
1.620327168500e-03
4.555465457416e-03
2.973416926449e-03
3.909810264466e-03
2.724408296497e-03
5.208767427969e-03
2.593619795372e-03
4.035142549939e-03
2.532928249258e-03
4.024142569854e-03
3.450900747862e-03
4.136123601672e-03
2.485244761370e-03
1.564757219021e-03
4.294495704809e-03
2.163488820880e-03
3.387401299419e-03
4.565662359773e-03
2.738581822716e-03
4.665942928302e-03
1.465348703278e-03
4.246327033609e-03
1.699623542300e-03
2.032350589391e-03
5.536974569683e-03
3.426908671018e-03
1.540384123315e-03
3.758577465195e-03
3.927524684088e-03
2.715033437352e-03
4.314845763778e-03
4.948351979472e-03
3.360890771607e-03
3.891846381777e-03
4.252820554628e-03
2.212724349773e-03
2.843833598180e-03
4.035789724436e-03
3.996131275531e-03
3.575096828484e-03
3.792627721388e-03
4.802343365754e-03
4.415034608388e-03
4.389129640424e-03
3.467263775260e-03
3.595494986515e-03
3.583279255749e-03
4.289394557029e-03
5.421975200704e-03
2.486182053314e-03
3.861488826342e-03
5.063142224082e-03
3.131891392016e-03
3.028041098227e-03
1.823938140991e-03
3.705908196928e-03
3.091369410019e-03
4.675935954995e-03
4.534875968551e-03
2.056161555857e-03
2.786655864968e-03
2.873165513745e-03
2.868546210609e-03
3.110365765296e-03
1.843618803568e-03
3.272992134604e-03
3.412916071715e-03
5.192089283469e-03
3.281566540745e-03
3.626240938450e-03
3.586985508785e-03
3.409305181201e-03
1.897398460282e-03
3.604818096321e-03
3.888630237913e-03
4.421922450971e-03
3.317485446496e-03
3.647674555787e-03
4.673336337086e-03
3.224252799485e-03
3.496064654626e-03
2.622358304585e-03
3.055333394029e-03
3.164663825952e-03
2.311141121049e-03
2.125313783725e-03
3.477924834306e-03
3.736945563828e-03
4.738585916755e-03
1.315321289851e-03
2.446620192041e-03
2.982448329977e-03
3.433203482513e-03
4.531582693643e-03
3.499304588405e-03
2.673974497719e-03
3.139905464341e-03
5.072747806473e-03
2.707809154280e-03
1.166214898562e-03
1.463299212712e-03
2.914504388254e-03
3.018723201689e-03
2.686713935682e-03
3.062407380188e-03
2.712109552951e-03
1.499659389839e-03
4.359635542217e-03
2.393958649680e-03
3.066798902882e-03
4.495652146628e-03
4.450791082476e-03
5.300178894970e-03
4.977951589195e-03
2.397146190700e-03
4.416844529747e-03
3.119400395624e-03
3.332129797491e-03
3.122426360325e-03
2.988793531740e-03
2.855846187293e-03
3.177000482072e-03
2.756193394154e-03
2.592075865469e-03
2.421633066575e-03
3.387402253471e-03
2.293172573691e-03
2.277057048855e-03
2.911114260278e-03
1.155684839829e-03
4.799837983891e-03
2.295247612437e-03
3.251041652364e-03
3.393599796704e-03
3.145369302234e-03
3.078086569887e-03
5.318104494318e-03
4.480500477960e-03
2.985180505105e-03
4.544225245269e-03
5.407567982517e-03
2.819844426375e-03
3.291868619470e-03
4.617460502529e-03
3.604719748764e-03
2.828319211558e-03
5.770682299556e-03
2.324148480044e-03
2.632797394299e-03
5.423157329672e-03
1.479799231385e-03
4.397525855562e-03
5.165585481732e-03
2.315901153844e-03
1.693562376470e-03
5.527898528543e-03
3.711930513200e-03
4.919552001560e-03
1.951673982838e-03
3.287761322063e-03
5.034502267977e-03
5.186304779390e-03
3.552693579741e-03
3.534005249318e-03
4.400555289825e-03
4.253543167516e-03
2.943285220908e-03
3.519756308427e-03
3.287722794547e-03
1.604761110599e-03
2.916005013921e-03
2.089170602373e-03
2.495795305071e-03
3.131259226377e-03
5.609482615871e-03
5.438909998859e-03
5.417054799902e-03
3.703317504642e-03
5.161557093516e-03
3.868518273720e-03
5.545650970965e-03
4.897334775276e-03
3.311771604762e-03
2.197730088428e-03
5.053606803532e-03
5.398699092692e-03
5.059342313408e-03
4.930251969398e-03
3.686756924755e-03
2.638215958256e-03
3.385656639266e-03
3.735595459470e-03
3.380928897864e-03
1.515738106098e-03
4.891642251277e-03
2.057605305164e-03
2.303129579541e-03
1.798145096306e-03
1.202338881616e-03
2.291547627481e-03
2.255519192117e-03
1.119365171026e-03
3.821601090175e-03
3.628201443265e-03
4.633003595104e-03
3.816334825167e-03
1.776186669795e-03
3.629386261877e-03
1.548469868943e-03
5.595449219484e-03
1.931840670526e-03
3.698695061029e-03
4.663243438870e-03
2.011134684472e-03
1.247841792705e-03
1.362382450494e-03
3.956724378172e-03
3.694573121702e-03
3.378959753737e-03
3.476784983087e-03
3.160808567775e-03
1.209468731440e-03
5.051259765074e-03
3.748618971867e-03
3.477272273897e-03
1.950538792296e-03
4.782003339930e-03
3.210604208947e-03
5.183136400848e-03
1.092245890419e-03
2.105066893939e-03
3.669072015162e-03
1.206486766565e-03
5.304264296023e-03
2.175618363556e-03
1.951041802013e-03
3.970362899570e-03
5.544534571255e-03
3.589900622387e-03
4.195224401096e-03
4.919263556773e-03
3.618574329088e-03
2.771490720799e-03
3.147261186436e-03
2.962169357453e-03
3.142630492045e-03
3.544072557654e-03
1.522290315328e-03
6.123405621243e-03
2.263220382989e-03
3.970342460405e-03
2.658927723359e-03
4.758938700212e-03
1.696532885482e-03
3.388847263524e-03
3.457624531915e-03
2.514428578240e-03
1.677345446119e-03
2.396212171814e-03
2.754267880200e-03
3.227262210638e-03
4.988779509347e-03
2.815825285194e-03
4.795644255112e-03
5.516289922385e-03
5.146103467286e-03
5.257081820144e-03
3.182071023712e-03
4.029201795451e-03
5.042361025696e-03
2.756595180964e-03
2.647290714061e-03
3.056301189697e-03
2.572569436643e-03
2.462008023465e-03
2.644345930535e-03
1.440401882729e-03
3.630426804566e-03
1.569273956402e-03
5.480811851792e-03
5.602378623591e-03
1.419199509514e-03
5.275547562051e-03
2.804242796236e-03
4.372719245337e-03
2.891727352859e-03
5.381895938701e-03
3.185020396507e-03
3.346610583280e-03
2.289654001474e-03
3.542499471540e-03
3.433320806315e-03
3.266208049096e-03
2.035076047681e-03
2.493404353718e-03
2.201070291381e-03
5.424319885087e-03
5.590129291020e-03
3.903582702292e-03
2.909258766392e-03
2.335058945798e-03
5.293513921389e-03
1.953817967391e-03
4.234737884749e-03
5.172652995614e-03
5.124227989435e-03
9.277188622566e-04
2.506898590902e-03
4.525242961084e-03
4.563239763712e-03
3.241690536946e-03
2.241320889606e-03
2.833288907621e-03
4.078547169666e-03
4.419169055791e-03
5.013620306272e-03
2.282293485652e-03
4.307804809555e-03
1.686847443505e-03
5.290274890223e-03
4.851002717086e-03
4.643175649224e-03
2.345179317856e-03
1.807172178817e-03
1.801948734361e-03
3.359707236442e-03
5.507142592636e-03
5.108003363980e-03
1.046447068849e-03
2.179901417413e-03
3.852336584430e-03
3.800392508022e-03
2.586138136504e-03
9.771895354137e-04
2.930181311238e-03
2.283701537404e-03
1.568412579387e-03
4.696631355627e-03
4.607881037575e-03
4.766072203043e-03
4.081754060291e-03
4.603369163212e-03
4.379957173958e-03
4.618906992019e-03
2.458376662123e-03
4.098638148539e-03
4.907202475208e-03
5.648784616651e-03
4.495095601971e-03
2.548434779706e-03
3.912793135380e-03
5.512760513766e-03
3.001262042829e-03
3.180884923332e-03
2.468543689254e-03
5.028337068141e-03
3.427253910037e-03
3.290153938343e-03
3.675470650321e-03
2.182285102727e-03
4.189801390205e-03
2.291578316535e-03
1.349449754861e-03
5.636015473331e-03
3.625895958899e-03
2.103450277768e-03
4.046287823861e-03
4.878000002137e-03
3.895798009600e-03
3.114017949884e-03
8.889497729122e-04
4.793301523209e-03
4.034143798685e-03
2.338495865229e-03
4.679004096828e-03
0.0
3.545292720195e-03
3.183419108901e-03
4.620052298239e-03
3.760015126243e-03
2.393922234819e-03
4.445933361572e-03
3.448409215898e-03
2.584776922099e-03
4.250432662385e-03
1.906468634271e-03
4.153126910283e-03
1.818802017300e-03
5.293743423829e-03
4.239353654533e-03
2.394815569185e-03
4.179465517636e-03
5.639919064862e-03
3.534684727708e-03
2.288195308190e-03
2.779857412875e-03
4.157293753941e-03
4.559059439739e-03
3.534808419225e-03
4.252606570727e-03
4.782120039690e-03
4.278791894662e-03
3.738223600894e-03
3.499074933205e-03
3.494139593801e-03
4.747419654542e-03
4.255099070675e-03
3.839964885527e-03
4.569340265878e-03
3.056246348132e-03
2.393304954355e-03
2.930480403413e-03
6.086851266750e-03
4.117844399000e-03
3.455995573439e-03
3.753400023371e-03
2.472071372363e-03
3.491628202087e-03
4.204348122106e-03
4.268597776756e-03
4.772004198945e-03
4.710233733702e-03
4.692963440339e-03
1.106720622824e-03
3.608330547153e-03
3.820362875112e-03
4.664326353529e-03
4.680096484355e-03
2.352584026882e-03
1.558884795758e-03
2.654480659437e-03
3.731003145245e-03
3.466490700851e-03
3.315280051285e-03
3.510786059953e-03
4.741445271794e-03
3.000739119005e-03
3.725942709322e-03
1.882186228005e-03
1.989209782105e-03
4.859365221654e-03
5.378791863780e-03
3.622412790060e-03
4.086298431898e-03
8.788451117360e-04
2.150327118180e-03
4.157073371539e-03
8.318441689136e-04
5.408814910997e-03
1.796994317519e-03
4.563827465076e-03
4.326693611244e-03
2.179157756358e-03
2.902957421488e-03
5.531946144864e-03
2.724274636976e-03
3.597238446451e-03
3.949741788311e-03
1.387126890400e-03
1.483538630366e-03
4.094562523505e-03
4.462003929120e-03
4.216899447097e-03
3.250175486718e-03
5.197689124532e-03
4.432557972304e-03
3.662154238880e-03
4.324815174578e-03
4.318493610634e-03
4.118093824424e-03
3.698739609380e-03
3.642170033284e-03
5.589231027012e-03
3.013506558343e-03
4.255186571382e-03
2.631728022376e-03
2.719221655027e-03
3.230635052549e-03
2.472264286779e-03
1.402294089302e-03
2.643957478186e-03
4.711133417206e-03
2.471516709082e-03
4.468472658716e-03
2.193648896864e-03
1.986292001410e-03
2.990854761195e-03
4.632153164590e-03
4.258818863725e-03
4.455822626565e-03
2.409857783535e-03
4.599243387348e-03
4.586353591898e-03
3.003262797050e-03
3.764237663719e-03
1.259809435264e-03
4.417137978971e-03
2.598861938414e-03
3.559924899756e-03
2.891071441809e-03
4.599295072822e-03
4.492928374407e-03
3.946747793921e-03
3.008453656814e-03
3.177730900320e-03
4.583213391973e-03
3.022048143241e-03
1.998492614778e-03
1.639620437187e-03
1.813972294795e-03
2.527763030566e-03
3.023198208948e-03
4.233192300425e-03
3.640278608643e-03
1.787168974819e-03
3.020737013717e-03
3.250114505745e-03
4.609207531696e-03
1.720484110792e-03
4.768807741004e-03
2.542365269620e-03
3.372604860332e-03
3.955992186008e-03
3.843149938690e-03
2.565660421796e-03
3.009689123217e-03
4.457896627465e-03
1.960918397589e-03
4.405903501378e-03
3.240600366134e-03
3.564971743916e-03
2.068612722327e-03
3.806478467456e-03
4.436879848710e-03
1.816133218611e-03
2.713220334332e-03
2.003794310318e-03
1.222241799405e-03
3.754040591865e-03
4.602132618812e-03
4.606753680845e-03
2.762317310720e-03
5.921576080326e-03
1.524180144643e-04
2.912859680010e-03
2.189495913324e-03
3.665001844436e-03
3.520328983887e-03
2.638881836419e-03
2.895778659108e-03
4.043104173156e-03
2.482129023893e-03
5.209900433282e-03
3.214049017557e-03
3.647482495706e-03
3.710983494359e-03
2.656638786889e-03
3.855170451250e-03
4.566671673770e-03
4.366198307929e-03
1.028648459849e-03
0.0
2.165054714133e-03
3.723014921691e-03
2.395137752120e-03
2.817631679997e-03
2.513976997857e-03
3.806732758052e-03
4.815158278389e-03
3.775227130307e-03
2.362468453277e-03
4.403407743042e-03
4.096150277746e-03
2.928708125507e-03
3.798202669823e-03
3.830814983830e-03
2.434166470534e-03
2.429201062824e-03
3.861528244714e-03
4.613156150105e-03
4.387204249011e-03
2.657070979426e-03
3.880643775732e-03
2.837716406776e-03
2.485420115051e-03
3.105685387870e-03
2.225639351650e-03
2.780093807568e-03
2.725707991279e-03
2.761000011738e-03
3.893879650775e-03
2.100922071665e-03
3.891918480221e-03
3.915697350990e-03
2.204461836540e-03
3.709703770702e-03
0.0
5.365652246451e-03
2.578069340872e-03
2.173697461019e-03
3.448943280228e-03
3.975644968851e-03
4.011347503912e-03
2.443864926479e-03
1.964861984032e-03
1.711666579155e-03
4.092079591951e-03
2.346058795579e-03
2.509223878502e-03
4.534649018568e-03
2.777991002642e-03
4.537667482143e-03
4.058891197805e-03
0.0
5.816180050420e-03
4.902062641942e-03
3.881412651745e-03
2.440978645024e-03
3.770170632493e-03
2.426839343308e-03
1.518214254580e-03
7.862673379893e-04
5.546974744787e-03
4.665874526858e-03
3.739497969649e-03
5.215858982210e-03
1.786753972791e-03
4.945218504881e-03
4.727704294311e-03
2.892091425302e-03
3.818142524302e-03
2.797163094051e-03
2.426438530921e-03
2.920765910813e-03
4.893505897122e-03
4.727405870860e-03
2.743689612102e-03
4.673515583297e-03
0.0
2.485522009972e-03
5.040677103797e-03
3.152365298128e-03
2.607652291814e-03
3.607194230213e-03
3.172614263735e-03
2.188759691854e-03
2.409032827129e-03
2.923122928886e-03
2.479690312005e-03
2.876821812237e-03
4.465612370866e-03
5.532694685970e-03
2.480976938953e-03
4.855765288150e-03
5.147151796070e-03
2.491148219768e-03
2.231684133508e-03
3.071159247528e-03
2.618928641937e-03
4.855263855775e-03
2.512300808846e-03
2.262013899534e-03
2.743671721339e-03
2.429414246353e-03
2.905151765398e-03
2.632275217683e-03
3.664855587075e-03
4.505149016415e-03
2.765225984553e-03
2.582205512883e-03
2.386883807025e-03
2.387003191431e-03
0.0
5.504082384171e-03
5.322543550804e-03
7.848135277644e-04
2.549500333694e-03
2.400638059405e-03
2.463285382783e-03
4.810923744731e-03
3.198165242386e-03
4.606096513073e-03
2.664651155853e-03
3.655834997024e-03
4.200689173686e-03
2.113752298900e-03
1.912300493824e-03
3.255578082472e-03
1.273953511854e-03
4.816843425833e-03
2.290848895150e-03
2.168710725122e-03
2.559244781557e-03
4.283416494899e-03
4.812195502839e-03
2.539570789041e-03
3.643462494389e-03
4.855540140174e-03
2.948190669232e-03
2.976334480875e-03
2.027418807040e-03
2.926129920543e-03
4.448255544290e-03
2.964508539853e-03
5.409142776678e-03
5.734258886474e-03
4.026664295728e-03
5.743896818908e-03
5.718569705540e-03
2.582070465025e-03
2.595631204153e-03
3.199953522585e-03
0.0
1.902903777885e-03
3.604210869195e-03
2.807391870644e-03
2.804874001203e-03
2.021751019950e-03
2.194943763957e-03
4.142001498770e-03
2.644769460266e-03
2.249798190126e-03
3.567736017228e-03
4.967219196927e-03
4.886134841971e-03
2.605300666506e-03
3.828525680062e-03
0.0
1.957535475967e-03
3.521502279004e-03
1.981252673420e-03
2.924275991023e-03
2.745952613107e-03
2.849229022871e-03
2.462891224688e-03
5.296655538006e-03
2.503533226713e-03
5.524289484905e-03
5.153625615526e-03
6.001172921191e-03
5.100455085510e-03
4.110540018138e-03
2.637651237191e-03
2.100855566225e-03
3.191285649529e-03
4.869911819268e-03
1.668585154639e-03
1.835666317314e-03
2.227285640186e-03
3.938213713365e-03
5.540832376998e-03
4.655361428653e-03
3.499491474384e-03
5.052024159388e-03
4.084593475503e-03
2.632811007746e-03
2.862235179152e-03
4.698107313135e-03
3.316215251475e-03
3.587892556505e-03
3.896233695222e-03
4.114095616366e-03
4.188562373750e-03
1.799506149793e-03
2.750045215379e-03
5.853261315327e-03
4.426727944562e-03
3.704988570506e-03
5.563415471233e-03
4.701176930839e-03
5.605287308872e-03
2.984653430048e-03
2.899269361477e-03
3.882189993689e-03
0.0
2.099672330588e-03
4.918810832529e-03
9.297763855901e-04
3.755397294441e-03
2.797405890751e-03
1.199320246670e-03
1.287155906031e-03
6.012085979982e-03
3.536739645719e-03
5.807206894268e-03
2.659927490576e-03
3.526193540084e-03
0.0
5.649183673557e-03
1.226889212049e-03
5.591486415216e-03
4.894034742833e-03
5.539486036353e-03
2.262943268428e-03
4.213950339262e-03
3.025007021002e-03
3.131326445098e-03
4.091554630855e-03
5.020955983920e-03
3.911662398283e-03
5.268125805587e-04
4.885085777727e-03
3.118765135349e-03
9.712620635747e-04
3.457233058136e-03
5.927711436663e-03
5.789822867449e-03
3.808569037443e-03
4.215889140078e-03
2.538577934307e-03
5.833806765854e-03
2.555830622428e-03
2.490656388983e-03
3.320251670345e-03
3.625198829927e-03
5.701509361268e-03
5.926679449314e-03
5.825453120953e-03
2.375146025770e-03
1.855020722498e-03
3.558870854792e-03
3.632521599668e-03
4.888825416704e-03
5.046946971520e-03
1.549964253441e-03
0.0
4.672705056340e-03
4.574124372469e-03
1.492817307624e-03
4.534041151919e-03
3.791507055834e-03
3.441092852532e-03
4.640515334488e-03
3.044493888229e-03
3.085586377938e-03
1.541679909506e-03
3.205964040354e-03
5.539122948349e-03
5.470096428524e-03
3.349468659419e-03
4.316012489498e-03
5.096328403816e-03
5.066889044331e-03
4.866255092984e-03
3.513811278074e-03
2.745903881908e-03
5.643353601341e-03
2.006177374357e-03
1.336548591570e-03
4.740994586223e-03
1.967258917603e-03
3.030928276529e-03
4.804010908766e-03
4.798192704978e-03
4.457553134226e-03
4.812474116929e-03
4.086135366692e-03
0.0
1.909648872290e-03
2.592269180864e-03
4.073105943506e-03
3.300295154597e-03
5.598216389854e-03
3.155889343856e-03
2.080876808324e-03
1.684831239890e-03
1.996726710914e-03
4.805748266782e-03
2.545899529970e-03
5.665640345273e-03
1.260613380941e-03
2.717034335032e-03
4.089865816188e-03
4.150741350700e-03
3.513862819322e-03
4.079622705219e-03
3.886731369533e-03
5.955413447924e-03
5.808855366257e-03
1.973720843828e-03
5.623880488313e-03
5.288178170346e-03
2.706065533822e-03
3.694588255657e-03
4.724906017287e-03
5.013738577707e-03
0.0
2.864341795003e-03
5.304542939534e-03
4.364446428508e-03
4.836626331640e-03
3.730875922936e-03
4.587318565965e-03
5.089225402943e-03
3.906899070662e-03
3.750017617315e-03
3.537069004234e-03
2.588839608145e-03
5.047138554196e-03
3.933020823055e-03
5.546377694027e-03
1.946527573604e-03
5.421130664064e-03
4.841192871563e-03
9.322091538505e-04
2.293274876912e-03
5.049998438284e-03
5.689077263393e-03
5.605137768792e-03
3.830427027326e-03
4.275713481985e-03
1.034452648196e-03
0.0
9.165803274728e-04
2.306330849804e-03
0.0
3.232809435929e-03
4.778427176324e-03
5.703044928894e-03
4.347082166528e-03
3.002796748421e-03
4.148995897399e-03
2.783709893463e-03
4.463871432644e-03
4.932249577077e-03
5.252682971647e-03
1.354054557860e-03
0.0
4.840119537013e-03
7.233031137748e-04
8.681517225348e-04
1.435436843906e-03
1.472272678795e-03
3.855676984439e-03
5.537407312308e-03
5.639733232519e-03
4.436603250530e-03
2.523558595448e-03
4.438054910322e-03
5.878210086007e-03
3.406643456978e-03
3.631025882734e-03
3.027978513677e-03
7.658097359086e-04
5.095377053932e-03
4.007087122991e-03
1.117452099742e-03
3.054154399225e-03
5.821463871987e-03
5.616162225123e-03
5.771476761292e-03
2.378943900085e-03
0.0
4.729401298327e-03
5.982820025955e-03
5.116893597155e-03
3.780141864939e-03
2.757852932878e-03
1.016540728646e-03
5.742488357776e-03
8.130160899770e-04
3.471132188594e-03
5.976997195660e-03
0.0
4.334445045259e-03
4.928068088589e-03
5.685262055675e-03
3.960311455775e-03
4.602685966077e-03
5.674047741207e-03
5.673486810091e-03
4.691284669015e-03
5.438753250395e-03
2.700307817537e-03
3.496149835990e-03
4.345309502369e-03
5.753633298066e-03
1.736380299792e-03
3.496568385412e-03
4.939582600280e-03
1.368820282863e-03
2.744988563960e-03
5.663738979535e-03
5.807014388648e-03
1.265820552801e-03
2.857699370651e-03
3.526860356291e-03
5.236929301907e-03
0.0
5.763265201970e-03
4.458722862593e-03
3.044071100787e-03
4.287981028573e-03
4.654162068594e-03
3.688235848984e-03
0.0
2.490177180056e-03
3.382376733098e-03
3.778484931935e-03
3.590372836895e-03
3.200278276933e-03
3.401617339723e-03
1.200485253478e-03
4.444142389629e-03
4.959617724818e-03
2.494216693804e-03
5.683473093287e-03
4.880068419397e-03
3.847676400356e-03
4.572298701193e-03
3.295609289569e-03
3.277091984412e-03
3.455826167072e-03
2.410347476307e-03
3.171270214627e-03
5.151777217512e-03
3.979240728433e-03
5.867901631608e-03
2.336872728529e-03
4.397657744471e-03
5.380026001316e-03
3.734283041451e-03
4.159349955921e-03
1.018917914231e-03
5.297615537063e-03
5.603907969465e-03
1.200386500765e-03
3.098141903975e-03
0.0
5.607338238193e-03
4.032553882536e-05
2.758726461825e-04
0.0
2.761166093008e-04
0.0
2.780608196871e-04
0.0
2.795718337981e-04
0.0
2.815626807308e-04
0.0
2.683441227062e-04
0.0
2.505548146823e-04
0.0
2.315853277786e-04
0.0
2.571769474452e-04
0.0
3.070550856334e-04
0.0
3.730560768329e-04
2.268011244428e-05
3.751292216749e-04
4.421011236462e-04
7.605445793120e-05
5.125153201639e-04
7.747590618060e-04
1.273644260723e-04
5.772104455033e-04
1.436435579337e-04
1.778636734735e-04
6.310568823046e-04
2.262849926158e-04
6.706402671239e-04
2.700793045838e-04
6.872427169426e-04
3.032539114347e-04
6.731298842451e-04
3.255966214232e-04
1.409900754583e-03
7.415636721437e-04
3.328595692885e-04
7.876624957462e-04
3.216363704994e-04
8.027506649922e-04
7.835210735952e-04
2.928588423981e-04
7.373721718284e-04
2.405400802565e-04
6.728160898589e-04
1.199459201346e-04
6.772439392714e-04
0.0
6.389571653087e-04
5.121767731911e-04
0.0
4.807854426436e-05
1.248295475776e-03
1.359632027757e-04
2.606334179945e-04
1.336066108284e-04
1.311794142933e-04
5.940717818882e-04
5.060983685170e-04
2.794463297702e-04
5.991600159705e-04
2.955626946391e-04
6.098016840537e-04
3.025100751634e-04
6.084287465306e-04
3.075086811000e-04
6.028795044126e-04
3.119221448479e-04
5.948148051243e-04
3.165233029276e-04
5.839186878612e-04
3.214974282658e-04
5.691546757199e-04
3.286529347592e-04
5.524657210440e-04
3.371293191797e-04
5.333913610324e-04
3.443860856938e-04
5.068292425138e-04
3.537693778991e-04
1.108478951506e-03
4.826063922157e-04
3.658779237797e-04
4.609422183607e-04
1.042884907419e-03
3.791839730116e-04
4.416819109976e-04
3.913237479882e-04
4.244535489181e-04
3.988522861640e-04
1.140816814256e-03
4.081302859983e-04
3.967846569188e-04
3.912120811599e-04
3.804012727987e-04
3.750093097331e-04
3.434734198305e-04
3.591782832869e-04
2.810521107916e-04
3.623904469228e-04
2.235144755803e-04
4.307389481175e-04
2.293463436759e-04
1.347236606608e-03
2.981849249588e-04
5.865521407022e-04
4.052379768244e-04
8.270724048977e-04
5.659050676491e-04
1.150372148230e-03
8.287367337132e-04
1.203332502355e-03
1.318670647473e-03
1.280639147596e-03
5.808492322467e-04
4.270370811875e-04
4.806224739709e-04
4.087356936095e-04
1.229699619066e-03
8.349824172224e-04
9.608595302771e-04
7.135168088298e-04
9.593137478188e-04
7.092802986552e-04
9.624230430895e-04
7.128106490750e-04
9.644867716114e-04
7.166479265062e-04
9.651090364397e-04
7.199970625834e-04
9.634102609860e-04
7.225643478717e-04
9.601487830080e-04
7.248167203394e-04
9.563847790158e-04
7.269559298801e-04
9.511323705013e-04
7.283282029075e-04
9.448837807064e-04
1.523192220102e-03
7.290354009140e-04
9.352878669841e-04
7.275108027621e-04
1.581456415713e-03
9.238384383672e-04
7.237950145432e-04
1.364730809377e-03
9.104007451099e-04
7.174891789998e-04
8.942129136848e-04
7.082057774208e-04
8.739665712671e-04
6.939121706395e-04
8.485009114828e-04
6.716498102687e-04
8.173049607505e-04
1.760573875558e-03
6.454546759328e-04
7.845928395579e-04
6.187249533601e-04
7.629411618528e-04
8.060508583654e-04
6.032832179478e-04
9.844448501867e-04
6.243723085069e-04
1.194014423098e-03
7.044475151864e-04
1.364199414334e-03
1.610111406310e-03
8.519197886821e-04
1.127455882083e-03
1.596869497048e-03
8.888927016387e-04
1.008034169737e-03
8.520657726702e-04
9.299657573510e-04
1.678359576692e-03
1.241467986912e-03
1.086768128404e-03
1.310005273874e-03
1.098007961969e-03
1.312834614401e-03
1.102144291194e-03
1.313860002669e-03
1.106406192376e-03
1.314714001623e-03
1.110623534650e-03
1.314764906232e-03
1.114799593633e-03
1.313886852486e-03
1.119143839422e-03
1.312244079523e-03
1.123206879264e-03
1.309742381847e-03
1.126395466191e-03
1.306206244155e-03
1.712592149956e-03
1.128563011930e-03
1.301433669595e-03
1.128310248528e-03
1.481709361190e-03
1.294837564183e-03
1.124738951981e-03
1.286955439009e-03
1.117450346623e-03
1.278591774483e-03
1.747415205584e-03
1.106337564751e-03
1.271185373539e-03
1.091714577932e-03
1.267079920595e-03
1.075014028548e-03
1.271994950096e-03
1.058072799069e-03
1.294215738336e-03
1.029568648787e-03
1.305713112747e-03
1.001405006552e-03
1.893519129201e-03
1.013290767454e-03
1.331565248789e-03
1.051292941268e-03
1.420636578844e-03
1.254878948603e-03
1.538411109220e-03
1.749814369381e-03
1.657752922744e-03
1.313190695872e-03
1.165812567833e-03
1.243586703310e-03
1.160599108200e-03
1.875756606251e-03
1.595885243391e-03
1.666399810320e-03
1.478565083579e-03
1.663105926442e-03
1.472428907928e-03
1.665323346302e-03
1.473345293829e-03
1.668721779825e-03
1.475060790659e-03
1.672515119995e-03
1.476713251565e-03
1.676405268876e-03
1.477962616502e-03
1.680151147762e-03
1.478478685457e-03
1.683435136354e-03
1.477847663574e-03
1.685977886182e-03
1.826172981962e-03
1.475703873381e-03
1.687528137387e-03
1.471717033979e-03
1.808216096976e-03
1.687502052684e-03
1.621624466811e-03
1.465420332610e-03
1.685651184651e-03
1.456682442406e-03
1.683271242531e-03
1.446338352429e-03
1.681882221415e-03
1.435745486961e-03
1.686558014631e-03
1.983235935084e-03
1.427137084354e-03
1.668318955175e-03
1.424806453412e-03
1.657474958136e-03
1.655421471966e-03
1.429789018552e-03
1.692626940467e-03
1.432063270095e-03
1.732606417606e-03
1.871333468443e-03
1.418519729700e-03
1.509806472248e-03
1.697874356569e-03
1.587678473644e-03
1.729314272462e-03
1.557578715406e-03
1.679950678048e-03
1.916772580957e-03
1.938210228367e-03
1.855070982470e-03
2.012839987660e-03
1.865237882432e-03
2.017602022539e-03
1.866750885935e-03
2.020171921487e-03
1.868036742157e-03
2.023706536869e-03
1.869204362041e-03
2.027847855192e-03
1.869894456575e-03
2.032291853640e-03
1.869637544109e-03
2.036494374470e-03
1.867953593694e-03
2.040526920442e-03
2.096576136937e-03
1.864413530055e-03
2.044434416743e-03
1.956595450656e-03
1.858595784876e-03
2.048442989312e-03
1.850082569554e-03
2.052677629743e-03
1.838558006539e-03
2.059066600854e-03
2.057874607925e-03
1.825142622328e-03
2.068271119575e-03
1.811199211737e-03
2.055676819201e-03
1.801129383856e-03
2.044831352514e-03
1.794948757603e-03
2.040648389966e-03
1.809928005653e-03
2.224878849609e-03
1.825042548851e-03
2.063972402928e-03
1.899703936827e-03
2.092490428407e-03
2.182664400219e-03
1.926281506436e-03
2.029719175036e-03
1.866391534843e-03
1.981521245243e-03
1.857559797512e-03
2.117510806444e-03
2.294241220172e-03
2.361395076424e-03
2.216154836749e-03
2.357998710852e-03
2.214786627200e-03
2.360635211121e-03
2.219711824722e-03
2.364744831697e-03
2.226366150586e-03
2.369804074944e-03
2.231513212677e-03
2.375640653335e-03
2.228923351831e-03
2.381109275559e-03
2.224559756434e-03
2.386033807545e-03
2.422469400763e-03
2.218422108439e-03
2.391036236924e-03
2.374971160047e-03
2.210476424915e-03
2.396373502810e-03
2.299438040081e-03
2.200919367465e-03
2.401866583409e-03
2.189558096147e-03
2.408015076602e-03
2.176427520762e-03
2.416119866827e-03
2.529299764460e-03
2.165470136003e-03
2.403108141081e-03
2.157002805424e-03
2.383705627598e-03
2.391643415084e-03
2.161881467416e-03
2.385265248373e-03
2.161580518042e-03
2.461344384578e-03
2.224151981452e-03
2.306743514097e-03
2.266428057819e-03
2.412209071277e-03
2.251360739942e-03
2.368514859645e-03
2.397094801283e-03
2.626734283379e-03
2.549531866633e-03
2.701394005823e-03
2.556134915907e-03
2.705711491278e-03
2.561480290484e-03
2.710065989537e-03
2.566655120162e-03
2.714513451666e-03
2.574446997273e-03
2.720634103997e-03
2.582981102361e-03
2.727498271816e-03
2.593510788275e-03
2.734155989720e-03
2.720163723611e-03
2.600860379507e-03
2.592487705640e-03
2.738512044037e-03
2.594197665573e-03
2.746355183321e-03
2.582395027498e-03
2.755844196279e-03
2.568241209878e-03
2.671612935326e-03
2.765816059205e-03
2.551965904305e-03
2.779576565079e-03
2.532839083947e-03
2.775383251297e-03
2.527604753952e-03
2.770901703469e-03
2.513452816674e-03
2.549007397530e-03
2.757146576703e-03
2.792368389522e-03
2.792016082909e-03
2.565612625474e-03
2.702582909373e-03
2.546878826374e-03
2.661103818204e-03
2.547347738664e-03
2.675904247711e-03
2.966754512287e-03
3.036028368872e-03
2.881134676313e-03
3.028579513069e-03
2.879228433618e-03
3.034375088800e-03
2.887788164751e-03
3.035458784700e-03
2.890186158662e-03
3.042779342889e-03
2.901207661542e-03
3.047179815419e-03
2.908355221936e-03
3.047821965847e-03
3.058166228224e-03
2.921616972915e-03
2.977904379741e-03
3.057220798405e-03
2.926740671622e-03
2.913842577925e-03
3.065010864165e-03
2.940817269049e-03
3.076565577618e-03
2.928097216781e-03
3.084144842026e-03
3.085339738652e-03
2.912475768239e-03
3.096508582135e-03
3.118274552756e-03
2.897323094266e-03
3.090734832649e-03
2.871686253460e-03
3.129388617912e-03
2.894029482055e-03
2.858270663078e-03
2.922028373713e-03
3.085335394846e-03
2.928220263468e-03
3.030143154684e-03
2.945827770339e-03
3.312321515307e-03
3.189480759148e-03
3.353757832105e-03
3.204854301679e-03
3.362122923095e-03
3.214839365167e-03
3.375029482880e-03
3.210761067781e-03
3.368277685235e-03
3.220984354806e-03
3.383169786334e-03
3.228836678226e-03
3.413512167486e-03
3.384151656869e-03
3.268396400584e-03
3.229750214111e-03
3.398976425987e-03
3.246842334506e-03
3.396439375541e-03
3.258900424221e-03
3.412527509879e-03
3.266513004898e-03
3.338906532064e-03
3.424132635284e-03
3.274787641877e-03
3.430715204795e-03
3.271602579017e-03
3.264657004864e-03
3.450357719823e-03
3.490825941533e-03
3.429189117639e-03
3.194103659451e-03
3.322189248393e-03
3.233743975656e-03
3.318513455877e-03
3.206052030725e-03
3.282745160465e-03

SCALARS element_materi_plasti_phimob float
LOOKUP_TABLE default
1.436626804738e+01
1.365359007445e+01
2.040521554245e+01
2.025062497965e+01
1.789175965821e+01
2.092055422799e+01
1.789591040012e+01
1.380754013000e+01
1.790325144109e+01
2.023473721132e+01
1.874952445931e+01
1.220653620306e+01
2.035978151764e+01
1.832755236607e+01
2.045470228116e+01
2.035990784408e+01
1.776391881731e+01
2.550413236850e+01
1.191898972558e+01
9.008124735854e+00
2.022578511188e+01
1.534469156841e+01
1.605110213497e+01
2.077036514640e+01
1.874657757416e+01
1.901409991607e+01
1.729560893291e+01
2.075245721895e+01
1.875812883080e+01
2.077169433232e+01
1.806705996407e+01
-2.291528811739e+01
2.041792553123e+01
1.977398983453e+01
2.049537575021e+01
2.056814769627e+01
2.056205521261e+01
2.069945384507e+01
1.734511519082e+01
1.738523519062e+01
1.687819893329e+01
2.057454883056e+01
1.113934027081e+01
1.733625599675e+01
2.011325998975e+01
1.141208961291e+01
2.015634407877e+01
2.014874468906e+01
1.803436845897e+01
1.807239774219e+01
1.690766422727e+01
1.158920037510e+01
1.832639581607e+01
1.651990359255e+01
2.038194621212e+01
1.442969380529e+01
1.174261857193e+01
1.978475324458e+01
5.159727919441e+00
2.035115045743e+01
1.274057162620e+01
2.071922470483e+01
1.629623490600e+01
1.824149337010e+01
2.036949038085e+01
1.617132031389e+01
1.737132028688e+01
2.041695731187e+01
8.647076794994e+00
2.052353421661e+01
1.921722380148e+01
2.054052072445e+01
2.063485468128e+01
-1.375799056205e+01
1.467397044705e+01
2.027840766974e+01
2.038350299421e+01
1.045219365591e+01
4.229892617732e+00
9.966252909428e+00
9.718440152602e+00
1.775113599498e+01
1.527832033344e+01
1.397192244787e+01
1.817386631286e+01
1.818230878775e+01
1.934618437371e+01
1.965225368729e+01
1.984958906943e+01
1.785471264177e+01
-1.987151544352e+01
1.785413761822e+01
1.950407568239e+01
1.942261279855e+01
2.050390075087e+01
2.071509591213e+01
1.773034414723e+01
2.070358108301e+01
1.861408079748e+01
1.626211872864e+01
1.760078191930e+01
2.045808139794e+01
2.094548212822e+01
2.076858979380e+01
1.625360051784e+01
1.632921536265e+01
2.014224507131e+01
1.970981969710e+01
2.401970133972e+01
2.043819133359e+01
1.970342340501e+01
-2.699571095339e+01
1.722506800874e+01
1.743802882600e+01
1.632305675458e+01
1.505152193288e+01
1.655843570631e+01
2.055743384128e+01
1.845992222791e+01
1.596569607991e+01
5.839122955969e+00
1.781112475243e+01
1.973413787769e+01
1.617915909888e+01
1.129724045206e+01
1.710524060473e+01
1.630076584050e+01
1.681401013241e+01
2.038727182405e+01
1.428715833447e+01
1.900420431552e+01
2.026117047160e+01
1.796514366681e+01
1.697181176738e+01
2.055253110332e+01
2.036700536865e+01
1.935928372747e+01
1.818072998465e+01
2.079240892825e+01
1.775567069044e+01
2.032065966182e+01
2.056714518915e+01
1.831840422436e+01
1.907902065809e+01
1.783899976939e+01
1.667387120348e+01
1.854301480015e+01
1.709832067697e+01
1.770029638046e+01
1.788501906753e+01
-2.082061890830e+01
1.811994766562e+01
6.374730517228e+00
1.727912246080e+01
2.062499899696e+01
1.573985041463e+01
1.949970024351e+01
1.210036716121e+01
2.081041375297e+01
1.778538576383e+01
1.737979875218e+01
1.990772114450e+01
5.474682047040e+00
2.013851713087e+01
1.805556962001e+01
2.043580035575e+01
1.775317295391e+01
1.614256010139e+01
1.717647236421e+01
1.879623413864e+01
1.199208313050e+01
1.797707725039e+01
1.926640646652e+01
1.774528056452e+01
1.666124191609e+01
1.699816684056e+01
2.020150046918e+01
1.702422957580e+01
2.061438951619e+01
2.061990446490e+01
1.516513616270e+01
1.687304383982e+01
2.085254393425e+01
1.738339106430e+01
1.355177212165e+01
1.774171830224e+01
1.774632276748e+01
2.032978603491e+01
1.967192365545e+01
2.002609242360e+01
1.092976538881e+01
1.819750644380e+01
1.982056372343e+01
1.059587726781e+01
1.725152396437e+01
2.081549900170e+01
-3.686847377495e+00
2.034033817744e+01
1.916366289404e+01
1.700245442263e+01
2.090632934709e+01
1.821941711329e+01
1.855221450866e+01
2.071295807021e+01
1.493451499047e+01
1.876007185237e+01
1.834934461304e+01
1.933992884219e+01
1.822466985552e+01
1.776784037271e+01
2.141069333611e+01
2.011916796269e+01
1.065533567409e+01
1.460198755990e+01
1.583146094260e+01
1.850336384699e+01
1.981778021100e+01
1.994905912834e+01
2.071975495452e+01
1.768399850822e+01
1.768639089031e+01
2.054717893893e+01
-1.682745716675e+01
1.949540753074e+01
-2.346926427051e+01
-2.942421446848e+00
1.049643761520e+01
1.337872663581e+01
1.964706389547e+01
1.273201345896e+01
1.467425261094e+01
1.609217965198e+01
7.165101902730e+00
2.088404749378e+01
1.807884424926e+01
2.037445861851e+01
9.918269816067e+00
1.585789264398e+01
1.836798580847e+01
1.698681855696e+01
2.087154809615e+01
2.046157476819e+01
1.953463782493e+01
1.839673436890e+01
2.084709751357e+01
1.916933216012e+01
1.849618090144e+01
1.933885589979e+01
2.070825054135e+01
1.873661986874e+01
1.514577366958e+01
1.864737323610e+01
2.050752597898e+01
1.877411522754e+01
2.038165841727e+01
1.820988259337e+01
9.991143652249e+00
1.820384365384e+01
1.755436628483e+01
1.938398518236e+01
1.971979694099e+01
1.964105388213e+01
1.849253822547e+01
1.647188109265e+01
1.978054391575e+01
1.969349358306e+01
1.855170150675e+01
2.046430034430e+01
2.088160828514e+01
1.863752006418e+01
1.817914405589e+01
2.083581411404e+01
1.908467447314e+01
1.782043256639e+01
1.938317227224e+01
1.905941148286e+01
1.951410908763e+01
7.609235790348e+00
1.839159975710e+01
1.854392198501e+01
1.656791033563e+01
1.952239302187e+01
1.884998055686e+01
-3.951920772707e+00
1.653734717569e+01
2.121981881750e+01
1.847130267576e+01
1.824494869975e+01
2.328842247829e+01
1.941423753521e+01
1.814896357594e+01
1.585526386317e+01
1.936010317982e+01
1.687237846228e+01
1.931066140246e+01
1.857315016905e+01
2.138649051051e+01
1.804207355682e+01
1.362790339091e+01
2.052699847359e+01
2.055869948673e+01
1.885018133052e+01
1.810315683897e+01
1.707319219620e+01
1.888307153246e+01
1.797779882709e+01
1.887143747308e+01
1.850767129874e+01
2.032302123425e+01
1.807451366515e+01
2.101572775377e+01
1.483831831573e+01
2.077063487531e+01
1.712057306344e+01
1.881884508095e+01
2.112725342367e+01
2.130579401044e+01
1.920385829365e+01
1.814352639353e+01
1.837358851160e+01
2.061571282288e+01
1.889638173222e+01
2.131143801717e+01
1.567704073235e+01
1.897920895294e+01
2.075226913191e+01
1.512181044204e+01
1.879666431000e+01
2.069646613852e+01
2.075546991605e+01
2.058245334934e+01
1.876600881455e+01
1.973588289176e+01
1.346673091699e+01
1.796256107730e+01
1.862565196099e+01
1.873848241166e+01
1.861196672175e+01
2.074584874865e+01
1.857447724916e+01
1.794134836758e+01
1.897930948479e+01
1.102656580856e+01
1.762214031148e+01
1.551399488588e+01
1.775978419438e+01
1.741077068720e+01
1.851131222040e+01
1.965332034250e+01
1.630885291934e+01
1.825090220186e+01
2.134041757944e+01
1.855194732425e+01
2.073838117063e+01
1.742273427175e+01
1.973834243764e+01
1.657122878720e+01
1.430374583610e+01
1.462902913864e+01
1.995637350547e+01
1.879942820877e+01
1.713409761716e+01
1.782051457927e+01
2.077848794261e+01
2.079852676164e+01
1.993556827355e+01
1.950791479230e+01
1.845137930874e+01
1.718906967869e+01
1.865867488140e+01
1.882287720475e+01
1.875610644420e+01
2.138216306163e+01
1.764595017261e+01
1.992563114788e+01
1.949066255659e+01
1.815443516888e+01
1.854599446575e+01
1.749291126275e+01
2.055392335922e+01
2.054824312559e+01
2.034687695270e+01
1.895623087297e+01
1.977758853147e+01
1.450411925505e+01
1.918182274690e+01
1.998669996240e+01
1.744637420768e+01
1.777318527031e+01
1.877454043650e+01
2.083109211013e+01
1.995678082983e+01
1.861266680693e+01
1.895842018469e+01
2.008259874685e+01
1.192891390718e+00
1.810551079137e+01
1.873697707413e+01
1.873416104552e+01
9.848397069452e+00
1.820684148162e+01
1.023075172709e+01
1.683764045622e+01
2.062509985792e+01
2.132775815256e+01
1.793279650327e+01
5.915349232559e+00
1.823539395809e+01
1.871130177524e+01
1.889166481106e+01
2.064895040598e+01
1.792982887774e+01
1.887925303676e+01
1.797872629972e+01
1.978628511406e+01
1.957767633166e+01
2.065549765244e+01
2.060216087216e+01
2.057313779076e+01
2.057838489162e+01
1.907431870431e+01
1.979506120462e+01
2.006757674949e+01
1.710782031260e+01
1.681376835917e+01
1.739593388523e+01
1.993522110093e+01
2.072290231373e+01
1.991052258100e+01
2.141763980635e+01
1.991611575767e+01
2.055448736002e+01
1.797595694687e+01
1.718940040672e+01
1.637002396072e+01
2.036543305413e+01
1.679259240639e+01
2.054447919254e+01
1.765801534464e+01
1.679849946835e+01
2.065586414631e+01
1.655751986571e+01
2.061102226126e+01
2.040599027153e+01
1.908196299209e+01
-1.532040706404e+01
2.061976470717e+01
2.065835494322e+01
1.752465685031e+01
2.159058154793e+01
2.077453749766e+01
-5.444658970151e+01
1.741277321673e+01
1.912397576569e+01
1.909738299011e+01
1.882952588483e+01
1.609336302974e+01
2.062639980442e+01
1.953274192409e+01
2.439735059370e+01
2.051095791045e+01
-1.950109811669e+01
1.775116887988e+01
1.674713820740e+01
1.757294410367e+01
2.077163806177e+01
2.063055060048e+01
1.872560866665e+01
1.392074886527e+01
2.619430211613e+01
1.508638488973e+01
2.026987865891e+01
1.775357037077e+01
1.811955783863e+01
2.063134249259e+01
1.776500914743e+01
2.053588969686e+01
2.051815416960e+01
1.857644373372e+01
1.476391697026e+01
2.139639854937e+01
1.861632598291e+01
2.062624647828e+01
2.059015668277e+01
2.057957509903e+01
1.878288906727e+01
1.712441803792e+01
1.832853238073e+01
1.968665303947e+01
2.062248711962e+01
1.766167357519e+01
1.890921436740e+01
1.841988083375e+01
1.879892772860e+01
2.079094312360e+01
1.264392788159e+01
2.062186133784e+01
1.757679173979e+01
2.061966608994e+01
2.008840617893e+01
-5.597425758362e+01
1.770127003237e+01
1.990903627599e+01
2.062538656844e+01
1.912453341064e+01
2.066183199185e+01
1.501470787156e+01
2.068291912832e+01
1.703428920202e+01
1.801589362345e+01
1.453999831169e+01
2.062833430623e+01
1.855255975444e+01
2.074888378784e+01
1.832840207085e+01
1.522941425862e+01
1.850558593336e+01
1.897264877278e+01
2.062989214138e+01
1.746958980588e+01
2.028940513859e+01
1.893623261317e+01
2.078374448421e+01
1.918659434470e+01
1.971524456705e+01
1.900289765997e+01
2.021746172155e+01
2.106792507593e+01
1.850123145107e+01
1.761354041449e+01
1.727439496202e+01
1.727704603419e+01
2.073041070613e+01
2.124853456376e+01
2.078109980461e+01
2.002897724763e+01
1.445522729239e+01
2.062063967465e+01
2.079829584684e+01
1.882446661421e+01
3.065927583066e+00
2.074200832124e+01
2.004260619509e+01
1.704324168200e+01
2.062367812974e+01
1.966057215783e+01
1.736794968373e+01
1.836486537773e+01
2.084331918639e+01
1.824336488094e+01
2.098496100905e+01
1.917659531059e+01
1.815824909621e+01
2.091537759227e+01
1.856766909324e+01
1.722103439161e+01
2.130927439491e+01
1.663328110335e+01
1.915446952675e+01
-5.471645744003e+01
1.700608222007e+01
1.687246212674e+01
1.822922339938e+01
1.898755619130e+01
2.020154506963e+01
1.859514157046e+01
1.625003424068e+01
2.062511727067e+01
1.909956515310e+01
1.822595080357e+01
1.902492116310e+01
1.811165012360e+01
-4.254773474464e+01
1.860618627052e+01
1.644567403823e+01
-5.783563975946e+01
1.788240696443e+01
2.040483369910e+01
1.984250272445e+01
2.121285042189e+01
2.102821613525e+01
1.762879449781e+01
1.723979064088e+01
2.036854972529e+01
1.898080321169e+01
-4.773488682153e+01
7.677530483458e+00
-8.024532803884e+00
1.429907091930e+01
2.030696920723e+01
1.983893382255e+01
2.016286592748e+01
1.524822480719e+01
1.916024908243e+01
2.073540597208e+01
2.172782089877e+01
1.639059360233e+01
1.488629915145e+01
2.075883050564e+01
2.062289372631e+01
1.707720144308e+01
1.823877588925e+01
1.878765210215e+01
2.077330610776e+01
8.740425856707e+00
2.065640314005e+01
-2.814437742438e+00
1.787938761523e+01
1.833654906568e+01
-1.956950419814e+01
1.669710603677e+01
2.003248660098e+01
-4.744692143005e+01
1.723819532408e+01
1.723621690492e+01
2.111148875673e+01
1.485655025800e+01
1.636944343739e+01
1.528109500439e+01
2.028973046240e+01
2.060392560060e+01
1.966449491475e+01
1.519462919841e+01
-3.928372976328e-01
1.786540905875e+01
1.723584030373e+01
1.724063653443e+01
-5.680305268807e+01
-1.970509526396e+01
-3.169335912671e+00
1.293234793553e+01
-1.985545292991e+01
1.740654126889e+01
3.548519264723e+00
1.465270048820e+01
1.891103972083e+01
1.719637988980e+01
2.027867010632e+01
2.010143855604e+01
1.856729518825e+01
1.536959965878e+01
-2.379126217861e+00
2.052701032410e+01
2.049269111497e+01
1.833265647513e+01
1.724104039531e+01
1.555618964635e+01
2.048295210151e+01
1.398964584357e+01
1.719807782082e+01
1.719775552212e+01
1.743066427083e+01
2.057026339122e+01
2.046898943140e+01
-2.013381056541e+01
-5.653840932187e+01
3.216894654929e+00
1.851622723994e+01
2.025499338831e+01
1.060442757542e+01
1.961456427518e+01
-3.822195690606e-01
2.107295223433e+01
-2.663019812640e+01
1.833825153540e+01
2.087136747101e+01
2.017391477628e+01
1.887287086300e+01
1.819595135018e+01
-1.975914069832e+01
1.923740028782e+01
2.050512159715e+01
2.047793128218e+01
1.720319908706e+01
2.110775321447e+01
2.052451481157e+01
2.083040845862e+01
-2.991751107281e+00
-2.019529008943e+01
-2.092507026083e+01
1.627905054006e+01
2.057318087678e+01
2.025111445324e+01
-5.652866574587e+01
1.736970990369e+01
2.059507857319e+01
2.057732988972e+01
2.069903926101e+01
1.931764395331e+01
1.975274048263e+01
2.058265602753e+01
2.059244612558e+01
1.961064065686e+01
-4.481475715007e+01
1.722649484854e+01
1.723064790282e+01
-5.666530750019e+01
2.061041706646e+01
2.071726708642e+01
2.060591933589e+01
-4.578448806827e+01
-4.674192661413e+01
2.061782843629e+01
2.061364860421e+01
1.916171431121e+01
1.724016501051e+01
1.946297150477e+01
1.838305337214e+01
1.723535134747e+01
-4.823535498876e+01
-5.068059521769e+01
-5.341844690440e+01
-5.637770361964e+01
1.767414878864e+01
1.703137495572e+01
-5.622215465797e+01
1.900994128085e+01
-5.602060782759e+01
2.054996501100e+01
2.051601845411e+01
2.053022147231e+01
9.969524699083e+00
1.419239602243e+01
2.050870285887e+01
1.991594683630e+01
2.052326772833e+01
2.015456245518e+01
2.036829043162e+01
1.667958832636e+01
2.047832918354e+01
2.048612791434e+01
2.002905952832e+01
2.025908310901e+01
1.941762085669e+01
-2.638174866551e+01
1.743202957437e+01
-2.093871392616e+01
2.023306874212e+01
1.788193361514e+01
1.987401763448e+01
1.218757373915e+01
-4.132374384066e+00
2.008870267833e+01
1.786212117728e+01
1.592503044316e+01
1.986241072877e+01
1.999481365787e+01
1.586778179144e+01
2.044871064763e+01
1.929302843674e+01
1.943316692985e+01
1.953742492309e+01
1.944603657017e+01
1.781495496680e+01
1.860288508894e+01
1.924551176292e+01
1.995054485932e+01
1.964935216819e+01
1.290306856803e+01
1.997388788953e+01
1.971967466114e+01
1.801051496051e+01
1.945538729682e+01
1.933903079194e+01
2.000539041590e+01
1.986116407080e+01
1.929569718547e+01
2.016613815012e+01
1.967060332135e+01
1.964450448510e+01
2.029309762772e+01
1.998333167706e+01
1.924015642856e+01
2.019298012134e+01
1.251988515745e+01
1.262246646104e+01
5.347686402141e-02
4.049725114281e-01
1.985737139092e+01
2.004077632969e+01
-1.266437134078e+01
2.005397469404e+01
1.821462348253e+01
1.977299496086e+01
1.980903273023e+01
1.628621449668e+01
1.979384995232e+01
1.799206847318e+01
2.118375993343e+01
2.035950792591e+01
1.152139501319e+01
2.041873273419e+01
1.941740099267e+01
1.302103383067e+01
1.406277178794e+01
1.821633166069e+01
1.886101319028e+01
1.635033230983e+01
1.958311817221e+01
1.907386370393e+01
1.828571619394e+01
1.953125668294e+01
1.970268456171e+01
1.942605440767e+01
1.054516983563e+01
1.795620001344e+01
2.077037502695e+01
1.955574060761e+01
1.747461004367e+01
1.932079774360e+01
2.041453249371e+01
1.923913131517e+01
2.630571414176e+01
-1.402515584726e+00
2.035342358853e+01
1.995925238449e+01
1.906047750490e+01
1.862448673824e+01
1.844516721301e+01
2.067694736408e+01
1.838508319910e+01
1.971861631035e+01
1.231753732823e+01
2.031130070957e+01
1.828639483219e+01
1.293473409511e+01
1.794564220584e+01
1.682255513572e+01
1.471235190791e+01
1.864063924659e+01
-5.602514232596e+01
-5.472886306014e+01
1.932617224328e+01
1.158902336532e+01
1.944308584502e+01
1.937387994237e+01
1.727741575527e+01
1.615954173796e+01
1.981436043472e+01
2.008196204542e+01
1.697694289429e+01
2.073930450264e+01
9.494073087097e+00
1.867399175694e+01
1.821677944088e+01
9.319123470957e+00
2.044253429851e+01
1.936207368481e+01
1.151685155746e+01
1.993188992218e+01
1.994126251908e+01
1.336984052793e+01
1.557285477146e+01
1.321783079122e+01
1.961127960654e+01
1.851018206000e+01
2.003909202399e+01
1.982150686714e+01
1.952341210160e+01
1.953477299513e+01
1.036243857179e+01
1.961606910310e+01
1.936829135789e+01
1.849697559246e+01
1.905414961886e+01
1.952914142991e+01
2.034001712363e+01
1.969478926770e+01
1.762010930588e+01
1.837923244432e+01
1.634016195257e+01
1.625048849304e+01
1.921800778316e+01
1.800810074730e+01
1.413587229137e+01
4.171662036967e+00
1.921026715007e+01
1.374496410463e+01
2.041032867680e+01
1.939278975049e+01
1.980342104940e+01
2.066540525173e+01
1.745037532268e+01
1.260827336672e+01
5.760329470161e+00
1.964348224963e+01
1.889369257575e+01
-1.285550015920e+00
1.634196438997e+01
1.074643354626e+01
1.885003785977e+01
1.684141113047e+01
1.937372185464e+01
1.616139028978e+01
1.971578615990e+01
1.522126458161e+01
1.977092814043e+01
1.236027864954e+01
1.957689688188e+01
1.807102985400e+01
1.973477075784e+01
1.941567124868e+01
1.072380565494e+01
1.847358124579e+01
2.081121225667e+01
1.777234624961e+01
1.888432970631e+01
1.402356937882e+01
1.900258489432e+01
9.562703376123e+00
2.024800743184e+01
2.095588694847e+01
2.103732431765e+01
2.007786534747e+01
1.856116684595e+01
9.954261387009e+00
1.948430247635e+01
2.047043406609e+01
1.604971635645e+01
1.970839532697e+01
1.938829195611e+01
1.680932165009e+01
1.951964256311e+01
1.838996569256e+01
1.411192724496e+01
1.581521496606e+01
1.919000164334e+01
1.967393175512e+01
1.771764291462e+01
1.883174981516e+01
1.919092436534e+01
1.868035892866e+01
1.860768530621e+01
1.808422397301e+01
2.048843010595e+01
1.918831274585e+01
1.844451569130e+01
2.018471276427e+01
2.092374530024e+01
1.965936230617e+01
1.953557453451e+01
1.653543000424e+01
1.619530127026e+01
1.100526406825e+01
1.967136547025e+01
1.663910449250e+01
1.901874763220e+01
1.881492252838e+01
2.083559479259e+01
1.539187190526e+01
1.922706859755e+01
1.588113711317e+01
1.643077271122e+01
1.162919228976e+01
2.055245463592e+01
1.760219788572e+01
1.968807792923e+01
1.780232311014e+01
1.969546521601e+01
1.862603703169e+01
1.923637930558e+01
1.236945699903e+01
2.052819342387e+01
2.060545177419e+01
2.004906417377e+01
1.692008357504e+01
1.915369669484e+01
1.902720981425e+01
1.693867459604e+01
1.782396160256e+01
1.540074705024e+01
1.526946480858e+01
1.687852312611e+01
1.444429282418e+01
1.377511032514e+01
1.834122579364e+01
1.967905310090e+01
2.037557374794e+01
-5.034365658059e+01
1.896058911566e+01
1.761845398850e+01
1.731576823469e+01
1.882252305839e+01
1.808334445409e+01
1.579211619633e+01
1.721534720278e+01
1.956488581716e+01
1.601287970942e+01
2.512595008361e+00
8.328641637513e+00
1.561218665556e+01
1.606032215288e+01
1.824797174440e+01
1.751851201528e+01
1.228418580701e+01
9.071121839704e+00
1.857154424019e+01
1.497228128883e+01
2.051069889289e+01
2.040045410061e+01
1.883457520004e+01
1.978804377616e+01
2.034368060417e+01
2.048810127897e+01
2.025115319189e+01
1.456140052965e+01
1.749835257314e+01
1.896412476973e+01
1.802304266552e+01
1.296476383718e+01
1.685781476070e+01
1.739444389993e+01
1.810711535315e+01
1.512246006498e+01
1.824752211849e+01
1.892745689446e+01
1.965989655498e+01
1.576451384082e+01
2.112345847155e+01
1.918572995730e+01
1.986909092324e+01
2.057843552525e+01
1.597847728399e+01
2.074589468342e+01
1.797047348077e+01
2.035355150500e+01
1.921137767346e+01
1.480832152557e+01
1.905248467752e+01
1.990944056822e+01
1.880447058811e+01
1.744071425589e+01
1.925878189831e+01
1.836605008848e+01
1.281355424921e+01
2.027652014916e+01
9.713377296009e+00
2.079228003361e+01
1.996373177145e+01
2.099930266714e+01
1.863591470567e+01
1.964996935248e+01
1.942266763549e+01
2.120543517060e+01
2.003745538090e+01
1.995916643235e+01
1.934309146780e+01
2.090083802284e+01
1.553265854974e+01
1.949242887092e+01
2.066808962470e+01
2.062371769916e+01
1.787483741378e+01
1.862452146877e+01
1.840445653617e+01
1.779632633693e+01
2.002035173721e+01
2.029154693828e+01
6.866487996166e+00
1.909941654542e+01
2.039942244729e+01
1.961715814803e+01
1.824368928464e+01
2.015100944105e+01
2.005080601912e+01
1.995431563005e+01
1.825473862192e+01
1.963561161206e+01
1.970760086596e+01
2.006198627760e+01
1.932673602106e+01
1.776330882456e+01
2.033710441930e+01
1.949850164846e+01
1.992134879231e+01
1.951414777747e+01
1.934891073745e+01
2.036733831485e+01
2.079688418959e+01
2.042311259515e+01
1.921560324061e+01
1.730373612702e+01
2.097853473434e+01
1.933177351030e+01
1.358026312145e+01
2.019611561218e+01
2.048162899414e+01
2.157721361677e+01
1.967457138648e+01
2.025103867982e+01
2.131661896538e+01
1.817748810926e+01
1.844426556231e+01
1.897002994948e+01
1.762712327958e+01
1.937513818576e+00
1.896956154161e+01
2.096659821263e+01
2.014998292459e+01
2.105050693204e+01
1.896318321449e+01
1.899762439975e+01
5.867587584779e+00
2.105582772998e+01
2.139187103233e+01
1.827000397026e+01
2.012226993806e+01
1.715711188424e+01
2.036431089582e+01
2.068558871161e+01
2.116959988366e+01
1.950947542396e+01
2.073865958693e+01
2.061497133988e+01
8.999354420431e+00
1.916405196180e+01
2.078363691499e+01
1.965550007214e+01
2.151578629981e+01
2.060713790178e+01
1.857626182333e+01
2.337383735333e+01
1.980208905886e+01
1.434126188431e+01
1.146658306591e+01
2.062409698711e+01
2.008020249894e+01
1.650523246284e+01
1.917605459642e+01
1.933101063288e+01
1.854368098384e+01
1.902540883868e+01
1.702466915568e+01
1.346866424641e+01
1.723241330126e+01
1.658944344903e+01
2.137439716808e+01
2.050994975352e+01
1.395580620767e+01
2.032164850813e+01
1.988312773894e+01
1.915447816650e+01
2.130314373469e+01
2.071614262850e+01
1.533097010041e+01
1.554138394469e+01
2.102301545553e+01
1.909615028303e+01
2.082318861182e+01
1.715056468437e+01
1.949304451374e+01
2.072776477172e+01
1.917143138936e+01
2.016308743370e+01
1.963612579314e+01
1.977621634285e+01
1.778910505197e+01
2.012559780141e+01
1.948628935562e+01
2.035683427963e+01
1.576062116285e+01
2.072752172757e+01
1.964761887712e+01
1.518577640536e+01
2.081770784550e+01
1.023909709449e+01
1.925417718655e+01
2.097152113795e+01
2.002852541219e+01
2.015214542860e+01
2.106554505563e+01
1.978374430182e+01
1.980924618227e+01
2.037673406666e+01
1.615485134532e+01
2.018253916565e+01
1.661969263346e+01
1.679691185837e+01
2.082889993804e+01
1.708311907892e+01
2.070372263545e+01
1.934953359195e+01
2.080471300059e+01
1.916637727581e+01
2.062100029347e+01
1.992827318873e+01
2.018000589783e+01
1.991412641600e+01
2.075658166713e+01
1.936623247688e+01
1.977631299664e+01
2.079036577230e+01
2.010627479840e+01
1.964008671439e+01
1.963750805211e+01
2.128955940031e+01
2.027027128603e+01
2.049234434766e+01
1.917297878781e+01
1.816951757388e+01
1.969932097270e+01
1.711077800088e+01
1.933856913022e+01
2.016794441785e+01
1.948661444648e+01
2.035227124101e+01
1.995137971908e+01
2.092420885153e+01
1.979693250430e+01
2.047556911292e+01
1.897283741904e+01
2.081930125430e+01
2.112367433234e+01
2.091488309870e+01
1.888567423075e+01
2.003917777597e+01
2.042507904860e+01
2.136464904422e+01
2.011951375211e+01
2.068853067979e+01
2.010789421891e+01
1.994189055864e+01
2.141671797693e+01
2.063150296901e+01
1.976508991389e+01
2.110328937191e+01
1.922335852265e+01
2.015637344684e+01
1.941195522263e+01
2.059480399490e+01
1.902356014677e+01
1.860217500733e+01
1.936902155802e+01
2.080694402201e+01
2.004771087100e+01
1.932685452851e+01
2.014977140330e+01
1.881452573735e+01
1.961304198227e+01
2.073675163477e+01
2.005079347467e+01
1.962417102414e+01
1.967361317785e+01
1.986583010932e+01
1.948769528673e+01
1.757642354991e+01
2.072753306314e+01
1.795795998442e+01
2.090239065909e+01
2.071018485707e+01
2.013525072024e+01
2.273975551661e+01
2.015219116047e+01
1.808832823720e+01
1.994737406370e+01
2.066810905309e+01
1.932953400437e+01
2.007557642861e+01
1.941366105943e+01
2.504325323779e+01
2.024892021424e+01
1.950674601402e+01
2.108997206969e+01
2.052161466981e+01
2.158657422373e+01
2.021293525842e+01
1.801198498768e+01
1.897089578169e+01
1.908584082987e+01
2.018790061737e+01
2.009128250157e+01
2.020425836285e+01
1.975842191670e+01
1.995669640865e+01
2.279097040893e+01
2.044977291565e+01
2.098124871381e+01
2.042487882514e+01
2.054752795585e+01
1.957508600991e+01
1.980594174987e+01
2.015843370829e+01
2.072196081327e+01
2.089777289095e+01
2.000407554220e+01
2.031434481454e+01
2.010228577992e+01
1.821527894282e+01
2.044731269263e+01
1.915531517629e+01
2.003270139010e+01
2.030533549319e+01
1.725711757243e+01
1.725512666449e+01
1.939743597485e+01
2.031382923981e+01
1.910531567241e+01
1.958980359811e+01
2.027125112499e+01
2.081338385522e+01
1.969932250435e+01
2.051825690770e+01
1.810411019002e+01
1.991822537893e+01
1.900180348607e+01
1.932251238443e+01
1.811443111207e+01
1.987114960224e+01
1.931321152326e+01
1.915802989399e+01
1.972157717199e+01
1.989111907164e+01
5.674073424968e+00
1.823353218251e+01
1.845381083774e+01
1.928471157762e+01
1.945546842737e+01
2.078925381478e+01
1.046690390115e+01
1.937905901477e+01
1.902359649783e+01
1.788246429296e+01
1.688386143116e+01
1.709508289938e+01
1.916225138968e+01
1.750192337567e+01
1.877472710500e+01
2.090387567696e+01
2.045727801155e+01
2.062793248398e+01
1.990724444109e+01
1.856422362642e+01
1.989451241251e+01
-3.011812344064e+00
2.083150356131e+01
1.977543963419e+01
-3.043800792494e+00
1.991023316603e+01
2.090184763707e+01
1.933909464081e+01
1.938235528280e+01
2.020356793762e+01
2.027222377443e+01
2.003333731679e+01
2.054129669742e+01
1.959971299426e+01
1.944600677583e+01
2.139193454565e-01
2.214059720768e+01
2.066908644386e+01
1.880449060603e+01
2.066223694699e+01
1.728609884319e+01
1.980267640750e+01
2.062114743770e+01
1.738239339927e+01
2.054193957155e+01
1.987469966941e+01
2.038350315651e+01
1.875611084167e+01
1.875656414944e+01
2.016042407432e+01
1.945241452887e+01
1.950414653965e+01
2.085236075097e+01
2.061999576731e+01
1.980401313198e+01
1.961983709249e+01
2.102407065953e+01
1.955915467234e+01
1.947921750218e+01
1.960330634396e+01
1.959673505765e+01
2.087706718837e+01
2.088282150067e+01
1.965389532650e+01
1.897722605462e+01
1.995853554685e+01
1.994312513051e+01
1.579261178495e+01
1.971377852797e+01
2.024003779156e+01
1.632164239947e+01
1.886370289450e+01
5.547558671082e+00
2.002638365509e+01
1.959357116985e+01
1.833061797161e+01
2.089967660905e+01
1.898551393523e+01
1.877760469756e+01
1.968904757121e+01
1.646326495137e+01
1.665962532991e+01
2.001646949827e+01
2.041338852616e+01
2.082717566788e+01
2.097662501893e+01
2.064530517903e+01
1.941970594984e+01
1.631656236133e+01
1.836771415102e+01
1.726111147864e+01
2.093600858009e+01
1.989804660439e+01
2.069926164531e+01
1.990686509462e+01
2.123919280315e+01
2.036261586081e+01
1.954229798032e+01
2.074675850655e+01
2.033314038282e+01
2.060709382338e+01
2.079490910244e+01
1.667049756364e+01
1.956736884703e+01
2.087324369447e+01
1.956390024957e+01
1.767092065396e+01
2.074274088716e+01
2.017278987016e+01
1.907204870722e+01
1.933176281626e+01
1.674998715688e+01
2.111174863872e+01
1.047879505957e+01
6.076181946357e+00
1.883435706098e+01
2.033102267850e+01
1.898441457187e+01
1.615716420424e+01
2.056248215830e+01
1.032569337319e+01
1.628282398532e+01
2.028592179896e+01
1.859252344864e+01
1.750705659905e+01
1.887839231223e+01
1.990370438461e+01
2.033700684426e+01
2.108899926410e+01
2.010048433071e+01
1.747332919685e+01
1.851919286593e+01
1.866724100759e+01
1.472041344197e+01
1.759754893597e+01
1.900652756607e+01
1.949372708989e+01
-2.658880363949e+00
1.570086332972e+01
1.112563345113e+01
1.866653922362e+01
1.989688717402e+01
1.886076529029e+01
1.949459143323e+01
1.892019471040e+01
1.936719635644e+01
1.877733882378e+01
1.994366117562e+01
1.994959501083e+01
1.809280320324e+01
2.081183610569e+01
1.876855797367e+01
1.892536672526e+01
1.482314279871e+01
1.987998940368e+01
1.889403921620e+01
1.898104733433e+01
1.862601289442e+01
1.588161244246e+01
1.901969391840e+01
1.762975864124e+01
1.314452190168e+01
2.075641609622e+01
1.023116970721e+01
1.751468848474e+01
2.098702486596e+01
1.586185262270e+01
1.888756653947e+01
1.356036489371e+01
1.776533515165e+01
1.901392935072e+01
2.000487770323e+01
1.884501929052e+01
2.252929920392e+01
1.989111610360e+01
1.900529973122e+01
2.087019148726e+01
2.085445741228e+01
1.912497980554e+01
1.911418250145e+01
1.962641908268e+01
4.967736104744e+00
2.014354723042e+01
1.923110903826e+01
2.086445678651e+01
1.661068865107e+01
2.000302194784e+01
1.546982270389e+01
1.990254483349e+01
2.073187580063e+01
8.019071490215e+00
2.051507137274e+01
2.058856962736e+01
1.788160864868e+01
1.783993792709e+01
2.067506148540e+01
1.980970556944e+01
2.714389369377e+00
1.110133137985e+01
2.009584520585e+01
1.920963412606e+01
1.738169660171e+01
2.073287299939e+01
1.181416557758e+01
2.077323835094e+01
1.918301095435e+01
1.704430871887e+01
2.026784893855e+01
1.721856189122e+01
1.298662746645e+01
1.679849957276e+01
1.953977157762e+01
2.003705544520e+01
1.834355511290e+01
1.998522686442e+01
8.728430694001e+00
1.941368152402e+01
1.966909877745e+01
1.657614222630e+01
1.594597069133e+01
2.069889467433e+01
1.679432514867e+01
1.279760438130e+01
1.415581131895e+01
1.573857018134e+01
2.023306851225e+01
2.028811446462e+01
2.015571710237e+01
2.028149375878e+01
1.508671245892e+01
1.931552292221e+01
2.049695601605e+01
1.966436725463e+01
9.763516768841e+00
1.645619680003e+01
1.939805316016e+01
1.975572675096e+01
1.963340655843e+01
1.858794009808e+01
2.056117705733e+01
1.312879878094e+01
2.034782702927e+01
2.023529583007e+01
2.071242454615e+01
1.886730964977e+01
1.539132803345e+01
1.344814721905e+01
2.069812062184e+01
1.332098150900e+01
1.691423025408e+01
2.011666609124e+01
1.987881751765e+01
-1.893106105170e+01
2.066414329392e+01
1.327889849311e+01
1.400272772333e+01
2.019783283813e+01
2.099588423163e+01
2.021086369055e+01
1.925787640039e+01
1.723207351808e+01
2.059412633834e+01
1.196777059220e+01
2.088150951465e+01
2.044453517762e+01
8.489013127894e+00
1.958754757562e+01
1.993238725151e+01
2.549316161718e+00
1.916971955118e+01
1.935812155488e+01
1.957566075786e+01
9.511301172230e+00
1.830694507227e+01
1.999410206211e+01
2.083513160440e+01
1.634040990326e+01
1.358097046192e+01
2.076260140408e+01
1.877107271517e+01
8.155304240168e+00
2.066103645717e+01
2.042388125276e+01
1.817056125192e+01
2.027014634672e+01
2.045854090400e+01
1.913172114731e+01
1.821657183976e+01
2.083715512318e+01
8.638563732567e+00
1.266051823727e+01
1.846092365030e+01
1.601630562577e+01
1.800076505650e+01
1.023499749076e+01
1.191479052165e+01
1.814226557481e+01
1.939047474181e+01
1.454753031599e+01
2.074752202167e+01
2.061199384950e+01
2.069219597124e+01
1.811508795645e+01
1.773644666721e+01
8.178692784950e+00
7.936152421665e+00
1.644452051899e+01
9.190571343713e+00
2.110900208815e+01
1.682634148679e+01
1.846174637564e+01
2.147218916762e+01
1.994414666397e+01
1.740345391579e+01
2.009264522323e+01
1.970195618185e+01
2.047693717412e+01
2.056785361814e+01
1.819445638764e+01
1.701249497240e+01
1.270726832240e+01
1.738340161756e+01
2.060808625842e+01
5.808479284674e+00
6.557599092534e+00
2.086522153271e+01
1.773449183817e+01
2.011631985728e+01
2.012854054941e+01
2.073579261076e+01
1.998676070757e+01
1.826328874496e+01
1.517510001118e+01
1.553637048874e+01
1.913055633686e+01
2.078705208702e+01
1.727368782844e+01
1.774427872269e+01
1.814450918780e+01
1.829504844309e+01
2.172224425718e+01
1.463697008057e+01
2.032276311255e+01
1.869670025089e+01
2.069104343981e+01
2.029665024390e+01
1.963220823576e+01
2.014638802989e+01
1.698276135032e+01
1.656994566364e+01
2.057410013221e+01
2.274829907208e+01
1.331920717960e+01
2.063177517684e+01
6.059568980811e+00
1.774657376110e+01
2.089389885540e+01
-6.042203202171e+00
-2.298102049041e+01
2.049458959442e+01
1.721366161753e+01
2.028205837420e+01
2.073010510763e+01
1.720382797847e+01
8.665227581412e+00
2.032762195690e+01
5.891671081446e+00
2.018035388432e+01
2.060131428620e+01
2.026861123495e+01
2.009882209768e+01
1.820101199840e+01
1.694562661414e+01
2.083034351634e+01
2.074610412001e+01
1.949020696783e+01
2.076715993717e+01
2.602559793005e+01
2.047893610859e+01
1.806451447330e+01
5.776588499881e+00
2.081492537739e+01
2.036498450543e+01
2.037994010644e+01
1.770904176538e+01
1.834439135231e+01
1.329374227366e+01
2.045506473211e+01
1.561628902981e+01
1.511928048789e+01
2.077189660390e+01
1.720806517453e+01
2.024659962809e+01
2.046071435295e+01
2.051868731563e+01
-4.348256822065e+01
-5.210761757407e+01
1.731130534535e+01
1.725752923691e+01
2.059049373956e+01
2.054102524212e+01
-2.385913801733e+01
9.353569397024e+00
2.029561938489e+01
2.069201094278e+01
9.880607871398e+00
2.041073458272e+01
1.877024275448e+01
1.800067891958e+01
1.890608104124e+01
1.461545822833e+01
2.093559337507e+01
4.715577893732e+00
1.755725908294e+01
2.034068380511e+01
2.001696026448e+01
1.791819136155e+01
1.848689564324e+01
2.065061470832e+01
2.014560866114e+01
1.991329979230e+01
1.723376869128e+01
2.111621988126e+01
2.024910452113e+01
1.334864184887e+01
-2.385865044980e+01
2.056170497802e+01
2.086376588379e+01
1.415296892660e+01
1.915128073749e+01
2.044098355924e+01
2.060649938896e+01
2.072141535451e+01
1.915928536044e+01
2.245182441662e+01
1.002326624544e+01
1.365826655083e+01
1.821815291810e+01
2.083701431291e+01
2.018877539166e+01
2.066150209904e+01
6.560097594185e+00
-3.281899183583e+00
7.460593435299e+00
1.925202070667e+01
1.543311981600e+01
2.024040521783e+01
1.059966101204e+01
2.072751240346e+01
1.814323570545e+01
2.062357822220e+01
2.079498808542e+01
1.823964620068e+01
2.075661473895e+01
2.036969460922e+01
2.030145980344e+01
3.661839398858e+00
2.014913315062e+01
2.057432251205e+01
2.083609993966e+01
2.070500527167e+01
2.061186264539e+01
1.985394059048e+01
4.382509323061e+00
1.487631085578e+01
2.022118427366e+01
1.855960758399e+01
2.024702114099e+01
2.074728009856e+01
2.049702575000e+01
1.956886088133e+01
2.066233113317e+01
2.066183181217e+01
2.067816732547e+01
1.547533860223e+01
2.059120726257e+01
1.767961715422e+01
2.010404070631e+01
-1.007049975775e+00
1.990202432441e+01
1.917149851346e+01
-2.816844357884e+00
2.065309350384e+01
2.002911047098e+01
2.034938168702e+01
2.014642090916e+01
2.073205840833e+01
1.848219407158e+01
-2.505479325154e+01
2.383779557428e+01
-1.725647602874e+01
4.177102776739e+00
1.538458874288e+01
1.739445723065e+01
2.024792107072e+01
2.025812174981e+01
1.857763859768e+01
1.690193377501e+01
2.053852714832e+01
2.081855208382e+01
2.077955697291e+01
2.055149000083e+01
2.024849920075e+01
-3.181864258836e+00
2.406465072440e+01
2.029141149632e+01
-3.597255324921e+00
1.486462727261e+00
1.256574642490e+01
-6.881948659225e+00
2.065077211409e+01
2.052929813017e+01
2.020260714851e+01
2.067148210194e+01
2.082697532563e+01
1.870528448326e+01
2.054951754855e+01
1.656630799714e+01
1.716152538085e+01
1.323090675602e+01
-2.129968858064e+01
2.057028701967e+01
1.779183545423e+01
4.336629567946e+00
1.710652303048e+01
2.051095311872e+01
2.017261888492e+01
2.040598016337e+01
1.459276388859e+01
2.134649344723e+01
2.056105910316e+01
2.046931642470e+01
2.056927213124e+01
1.766633620091e+01
2.071921429670e+01
5.250645738222e+00
2.025377835334e+01
-2.323136052811e+01
2.068907895156e+01
2.037997749890e+01
1.811463343326e+01
2.071547717205e+01
1.941075788161e+01
2.035494912539e+01
2.063710863904e+01
1.897685038420e+01
2.050455409009e+01
2.025400607475e+01
1.919432938886e+01
2.039720923694e+01
1.607608223503e+01
1.723642024103e+01
2.071821219715e+01
2.034600663482e+01
-5.706082937942e+01
1.725248784636e+01
2.044541477632e+01
8.519527724594e+00
2.090790313724e+01
2.023825485069e+01
2.031489194893e+01
8.689143522873e+00
1.789193133566e+01
1.823482910889e+01
1.975578268622e+01
9.278940230394e+00
2.039858785738e+01
1.887480235200e+01
1.376949525522e+01
1.860656739725e+01
2.077397498181e+01
1.845781375364e+01
1.984302516679e+01
1.551019535180e+01
1.779653519460e+01
1.862363030446e+01
2.076090984398e+01
1.760291527335e+01
1.791863030992e+01
-7.811480221133e+00
2.046964257425e+01
2.052678078373e+01
1.750013897588e+01
2.033744592420e+01
2.044966915654e+01
1.769715034527e+01
1.886194068347e+01
1.759344469243e+01
1.777237770289e+01
1.797243439101e+01
2.081255918737e+01
1.122134498588e+01
2.059421721054e+01
1.814436801200e+01
2.035417375827e+01
2.080948889738e+01
1.857903707817e+01
2.029622065479e+01
2.071710286073e+01
2.082180787271e+01
1.961144081651e+01
2.033928482237e+01
2.042450219465e+01
-7.436814705745e+00
1.732368496391e+01
2.041040121966e+01
2.039299163500e+01
-5.041635385437e+01
-5.728304350903e+01
-5.193303827509e+01
-5.752316094982e+01
-5.245000512934e+01
-5.724655225915e+01
-5.313763003898e+01
-5.704566598674e+01
-5.368789602054e+01
-5.691120025331e+01
-5.410674805219e+01
-5.695762147951e+01
-5.414179934915e+01
-5.691355334925e+01
-5.408848173950e+01
-5.672318967283e+01
-5.402039954975e+01
-5.693320138684e+01
-5.376156738068e+01
-5.728546915307e+01
-5.330263821448e+01
-5.771801996632e+01
-5.272640911368e+01
-2.055322787084e+01
-5.805547798869e+01
-5.242817765437e+01
-5.827113401963e+01
-3.356474791151e+01
-5.219599802066e+01
-5.841785240624e+01
-1.803234071379e+01
-5.200749351401e+01
-5.836077300597e+01
-5.189689117118e+01
-5.799933336724e+01
-5.172599563059e+01
-5.723498329923e+01
-5.143389937851e+01
-5.686300526726e+01
-5.206461775267e+01
6.389678540055e+00
-5.696440532708e+01
-5.209964302162e+01
-5.609472049918e+01
-5.232759990439e+01
-5.364387664611e+01
-5.100485990632e+01
-5.263819266515e+01
-4.974879856706e+01
-5.298388391989e+01
-4.908741380304e+01
-5.273515965981e+01
-4.887735585386e+01
-5.213336774674e+01
-4.994500305967e+01
-4.251457185821e+01
-4.516855894483e+01
-3.550138533655e+01
-1.088567122573e+01
-5.504590699575e+01
-4.981203016611e+01
8.999999999681e+01
-3.965352275273e+01
2.068850446170e+01
-1.902620771418e+01
-1.829284993282e+01
-1.689518811220e+01
-1.801038672220e+01
-1.675802419212e+01
-1.785865031837e+01
-1.670117852862e+01
-1.771858149394e+01
-1.664207730925e+01
-1.758083713009e+01
-1.658711016284e+01
-1.745168819137e+01
-1.655440374050e+01
-1.729737818907e+01
-1.650068630801e+01
-1.710460947278e+01
-1.643881029325e+01
-1.697853056167e+01
-1.644018947540e+01
-1.690692923007e+01
-1.642150174745e+01
-1.678989439284e+01
-7.112689341748e+00
-1.635823115243e+01
-1.663585837282e+01
-1.627284332290e+01
-9.072220612154e+00
-1.652559184079e+01
-1.599244921592e+01
-1.644449955040e+01
-1.580581885781e+01
-1.638425132718e+01
-1.324870837196e+01
-1.573737457447e+01
-1.631962843874e+01
-1.557330604076e+01
-1.620252170649e+01
-1.538977593575e+01
-1.631801381464e+01
-1.559221254031e+01
-1.682691497888e+01
-1.613944855025e+01
-1.744103799171e+01
-1.683228840634e+01
-1.803972721378e+01
-2.197638563577e+00
-1.822878025513e+01
-1.767278956746e+01
-1.751075923555e+01
-1.805228423652e+01
-1.530499555308e+01
-1.749959646126e+01
-1.310588335826e+01
-1.614858442079e+01
-1.284949266138e+01
-8.976283409996e+00
-1.577401117295e+01
-1.896827251659e+01
-1.223786013265e+01
-2.458582137198e+01
-2.356665119983e+00
-1.217633687171e+00
-1.960282604304e+00
-1.969707350923e+00
-1.967929610632e+00
-1.952641772889e+00
-1.936801816939e+00
-1.918802164858e+00
-1.903680882270e+00
-1.883902786116e+00
-1.868193545140e+00
-1.848498966596e+00
-1.833516450881e+00
-1.818226561435e+00
-1.792123928968e+00
-1.781862528050e+00
-1.745537684737e+00
-1.745670827143e+00
-1.707336567255e+00
-1.732984530438e+00
-1.660885117119e+00
1.289216515553e+00
-1.710465114550e+00
-1.595534372131e+00
-1.672289097490e+00
-1.290596885487e+00
-1.513206053874e+00
-1.629433837236e+00
5.375976787396e-01
-1.411157840656e+00
-1.563755911828e+00
-1.294257245063e+00
-1.465422227370e+00
-1.147616126479e+00
-1.377378660803e+00
-9.928867306298e-01
-1.413069484895e+00
-8.647584657506e-01
2.764662944968e+00
-1.542501451952e+00
-8.054818853065e-01
-1.841564440018e+00
-9.422558992439e-01
-1.118785237000e+00
-2.285914048142e+00
-1.475773763621e+00
-2.515461572700e+00
-1.124283512743e+00
-2.351036768947e+00
-6.580305538295e-01
2.206412369049e-01
-1.557720590064e+00
-6.922921276558e-01
-6.685318616207e-01
-2.338632674979e+00
-1.101370654285e+00
-4.485724990321e+00
3.818663035919e-01
9.134164865072e-01
4.533478348729e+00
5.025269050131e+00
5.072841167322e+00
5.086125588478e+00
5.124047744572e+00
5.107328139575e+00
5.143251160615e+00
5.121796639539e+00
5.159154732499e+00
5.133999848421e+00
5.174746705393e+00
5.144953811285e+00
5.190916938315e+00
5.157886978140e+00
5.211103858597e+00
5.171242108802e+00
5.233784888042e+00
5.182057992923e+00
5.257728252092e+00
6.876046011241e+00
5.199132305871e+00
5.292873008104e+00
5.228777346266e+00
6.282665315355e+00
5.345954085533e+00
5.271798398851e+00
5.420194894883e+00
5.334739737063e+00
5.519079065267e+00
5.441078368510e+00
5.415592471425e+00
5.627277353330e+00
5.535096028213e+00
5.775583411508e+00
5.743802332771e+00
5.974434009393e+00
5.997740111140e+00
6.167954208306e+00
5.863672155983e+00
6.411949174003e+00
5.634306453270e+00
7.430665108064e+00
5.503101405581e+00
6.608392800422e+00
5.454550781741e+00
6.847533419241e+00
5.826549984114e+00
7.194926975163e+00
7.190863626921e+00
5.298102187722e+00
5.210046487390e+00
4.473699513731e+00
6.032320293051e+00
3.424537774932e+00
5.733832406259e+00
9.255715166954e+00
9.099459030208e+00
9.050815433730e+00
9.097410074181e+00
9.047639696018e+00
9.105206833644e+00
9.049437220894e+00
9.110262741456e+00
9.049092060749e+00
9.114481915135e+00
9.047358910003e+00
9.118363697670e+00
9.044717097113e+00
9.124196803323e+00
9.043106341858e+00
9.133085573861e+00
9.043186326934e+00
9.144898137124e+00
1.068970050501e+01
9.045916743898e+00
9.164168642951e+00
9.056650742715e+00
9.742481942653e+00
9.196646120047e+00
1.004855330004e+01
9.080367987410e+00
9.247474001651e+00
9.122003640452e+00
9.323596499824e+00
9.186817048489e+00
9.417443897024e+00
9.321998206955e+00
9.553427911546e+00
1.084607147703e+01
9.529219675156e+00
9.761549493744e+00
9.812573751582e+00
1.004956605798e+01
1.034635884042e+01
1.020046601116e+01
1.077423048966e+01
1.013496479950e+01
1.105202331810e+01
1.135858105149e+01
9.955694839473e+00
1.001433417266e+01
9.215681241130e+00
8.822946571829e+00
9.341259239340e+00
8.203793484739e+00
9.815666064724e+00
9.407643181837e+00
1.143689236018e+01
1.160649806956e+01
1.166731363057e+01
1.162495140529e+01
1.167775453666e+01
1.162741425705e+01
1.167627006305e+01
1.162442662956e+01
1.167352571830e+01
1.161772842074e+01
1.167007354415e+01
1.160937532280e+01
1.166598757465e+01
1.160113015315e+01
1.166379919897e+01
1.159413092669e+01
1.166505263261e+01
1.356118344371e+01
1.158939190200e+01
1.166985243044e+01
1.301969099746e+01
1.159045518427e+01
1.168310360112e+01
1.160025345425e+01
1.170924012813e+01
1.162158750188e+01
1.291846149432e+01
1.175304009331e+01
1.165800277984e+01
1.182272949085e+01
1.178112964642e+01
1.196386833155e+01
1.196300924301e+01
1.217160328795e+01
1.221081636784e+01
1.241656897905e+01
1.250158109974e+01
1.352290991510e+01
1.291951485784e+01
1.276186857348e+01
1.313043960177e+01
1.312780685304e+01
1.367289973683e+01
1.221849087123e+01
1.173850377239e+01
1.136349382085e+01
1.207420841321e+01
1.096866790446e+01
1.249840191094e+01
1.356219403705e+01
1.345350957465e+01
1.341613863491e+01
1.344407323610e+01
1.340471392121e+01
1.344364506772e+01
1.339874350821e+01
1.343888106882e+01
1.338631678758e+01
1.343085673539e+01
1.337110101689e+01
1.342367029571e+01
1.336167151473e+01
1.341602581187e+01
1.334876285325e+01
1.341038589250e+01
1.515015349816e+01
1.333667001564e+01
1.340842277897e+01
1.458373094656e+01
1.333338940489e+01
1.341210706807e+01
1.465297887642e+01
1.333556189088e+01
1.342425118132e+01
1.334572823096e+01
1.344708027496e+01
1.336909331767e+01
1.348636948270e+01
1.522428436841e+01
1.344460080829e+01
1.361228209610e+01
1.360579962399e+01
1.376640803481e+01
1.400357553421e+01
1.379243440688e+01
1.422116633175e+01
1.406281482265e+01
1.461965715837e+01
1.429835619849e+01
1.464202286331e+01
1.333993007706e+01
1.363607791516e+01
1.306651084158e+01
1.385277706324e+01
1.480780787664e+01
1.468605093297e+01
1.476487257797e+01
1.477975188840e+01
1.476126189440e+01
1.477708246562e+01
1.475728050629e+01
1.477160119357e+01
1.474636576107e+01
1.475933312376e+01
1.473353866437e+01
1.474531381956e+01
1.471848803330e+01
1.473711031207e+01
1.470209244582e+01
1.472511147798e+01
1.571171950564e+01
1.467268036093e+01
1.534401251534e+01
1.471115234654e+01
1.466614494235e+01
1.471285231074e+01
1.467037566903e+01
1.471938785199e+01
1.467629160640e+01
1.527566467901e+01
1.473272690622e+01
1.469298407954e+01
1.475839161586e+01
1.473209893792e+01
1.482108273136e+01
1.481638433678e+01
1.497619400861e+01
1.500723068852e+01
1.514477560450e+01
1.513159512123e+01
1.568740687447e+01
1.538976787386e+01
1.522996106688e+01
1.488014680775e+01
1.463012602581e+01
1.504201751747e+01
1.444553372746e+01
1.551525123064e+01
1.590524490658e+01
1.581697991887e+01
1.579599276628e+01
1.579911462556e+01
1.578171345394e+01
1.579815386899e+01
1.577991922044e+01
1.578673472599e+01
1.576274240558e+01
1.577744727340e+01
1.575478968416e+01
1.576297418935e+01
1.573620523713e+01
1.626285967809e+01
1.575265200170e+01
1.572411959754e+01
1.590465334135e+01
1.572018155538e+01
1.569657072856e+01
1.597944809671e+01
1.571528471364e+01
1.568302531608e+01
1.572449506102e+01
1.569507658279e+01
1.573129069667e+01
1.619894328005e+01
1.570256664294e+01
1.574847969976e+01
1.578609219637e+01
1.573406339836e+01
1.583782368053e+01
1.579725600276e+01
1.604547289862e+01
1.585775689831e+01
1.582305615830e+01
1.573098061465e+01
1.596128165923e+01
1.560374154281e+01
1.605961124856e+01
1.602073366799e+01
1.660071664993e+01
1.661604344407e+01
1.662265904256e+01
1.663162590810e+01
1.662046382428e+01
1.663082426538e+01
1.662482843006e+01
1.660721662144e+01
1.660241103716e+01
1.660805424289e+01
1.660180856905e+01
1.659980855604e+01
1.680682545980e+01
1.658395385858e+01
1.666058187307e+01
1.656617619883e+01
1.657797138765e+01
1.658291052307e+01
1.655134677962e+01
1.657085981357e+01
1.654507011335e+01
1.655786905106e+01
1.650334867125e+01
1.655806222079e+01
1.655071296962e+01
1.655888072475e+01
1.655695492311e+01
1.659613531073e+01
1.658660034428e+01
1.665227827153e+01
1.672077810600e+01
1.640320380494e+01
1.668709848265e+01
1.656904988538e+01
1.682727540691e+01
1.641672262989e+01
1.655139527112e+01


