# vtk DataFile Version 2.0
Calculation C:\Users\NickSteudtner\Documents\GitHub\TOCHNOG\standsicherheit_phiC at time 7.000000000000e+00 
ASCII
DATASET UNSTRUCTURED_GRID
Field FieldData 1
Time 1 1 double
7.000000000000e+00

POINTS 1112 float
0.0 0.0 0.0 
5.000000000000e+01 -1.000000000000e+01 0.0 
0.0 -2.000000000000e+01 0.0 
5.000000000000e+01 -2.000000000000e+01 0.0 
0.0 -9.999999999991e-01 0.0 
0.0 -1.999999999998e+00 0.0 
0.0 -2.999999999997e+00 0.0 
0.0 -3.999999999994e+00 0.0 
0.0 -4.999999999991e+00 0.0 
0.0 -5.999999999988e+00 0.0 
0.0 -6.999999999985e+00 0.0 
0.0 -7.999999999982e+00 0.0 
0.0 -8.999999999983e+00 0.0 
0.0 -9.999999999985e+00 0.0 
0.0 -1.099999999999e+01 0.0 
0.0 -1.199999999999e+01 0.0 
0.0 -1.299999999999e+01 0.0 
0.0 -1.399999999999e+01 0.0 
0.0 -1.499999999999e+01 0.0 
0.0 -1.599999999999e+01 0.0 
0.0 -1.700000000000e+01 0.0 
0.0 -1.800000000000e+01 0.0 
0.0 -1.900000000000e+01 0.0 
4.900000000001e+01 -2.000000000000e+01 0.0 
4.800000000001e+01 -2.000000000000e+01 0.0 
4.700000000002e+01 -2.000000000000e+01 0.0 
4.600000000003e+01 -2.000000000000e+01 0.0 
4.500000000004e+01 -2.000000000000e+01 0.0 
4.400000000004e+01 -2.000000000000e+01 0.0 
4.300000000005e+01 -2.000000000000e+01 0.0 
4.200000000006e+01 -2.000000000000e+01 0.0 
4.100000000006e+01 -2.000000000000e+01 0.0 
4.000000000007e+01 -2.000000000000e+01 0.0 
3.900000000008e+01 -2.000000000000e+01 0.0 
3.800000000009e+01 -2.000000000000e+01 0.0 
3.700000000009e+01 -2.000000000000e+01 0.0 
3.600000000010e+01 -2.000000000000e+01 0.0 
3.500000000011e+01 -2.000000000000e+01 0.0 
3.400000000011e+01 -2.000000000000e+01 0.0 
3.300000000012e+01 -2.000000000000e+01 0.0 
3.200000000013e+01 -2.000000000000e+01 0.0 
3.100000000013e+01 -2.000000000000e+01 0.0 
3.000000000013e+01 -2.000000000000e+01 0.0 
2.900000000013e+01 -2.000000000000e+01 0.0 
2.800000000013e+01 -2.000000000000e+01 0.0 
2.700000000013e+01 -2.000000000000e+01 0.0 
2.600000000013e+01 -2.000000000000e+01 0.0 
2.500000000013e+01 -2.000000000000e+01 0.0 
2.400000000013e+01 -2.000000000000e+01 0.0 
2.300000000013e+01 -2.000000000000e+01 0.0 
2.200000000013e+01 -2.000000000000e+01 0.0 
2.100000000013e+01 -2.000000000000e+01 0.0 
2.000000000013e+01 -2.000000000000e+01 0.0 
1.900000000013e+01 -2.000000000000e+01 0.0 
1.800000000013e+01 -2.000000000000e+01 0.0 
1.700000000012e+01 -2.000000000000e+01 0.0 
1.600000000011e+01 -2.000000000000e+01 0.0 
1.500000000011e+01 -2.000000000000e+01 0.0 
1.400000000010e+01 -2.000000000000e+01 0.0 
1.300000000009e+01 -2.000000000000e+01 0.0 
1.200000000009e+01 -2.000000000000e+01 0.0 
1.100000000008e+01 -2.000000000000e+01 0.0 
1.000000000007e+01 -2.000000000000e+01 0.0 
9.000000000064e+00 -2.000000000000e+01 0.0 
8.000000000057e+00 -2.000000000000e+01 0.0 
7.000000000050e+00 -2.000000000000e+01 0.0 
6.000000000043e+00 -2.000000000000e+01 0.0 
5.000000000036e+00 -2.000000000000e+01 0.0 
4.000000000028e+00 -2.000000000000e+01 0.0 
3.000000000021e+00 -2.000000000000e+01 0.0 
2.000000000014e+00 -2.000000000000e+01 0.0 
1.000000000007e+00 -2.000000000000e+01 0.0 
5.000000000000e+01 -1.100000000000e+01 0.0 
5.000000000000e+01 -1.200000000000e+01 0.0 
5.000000000000e+01 -1.300000000000e+01 0.0 
5.000000000000e+01 -1.400000000000e+01 0.0 
5.000000000000e+01 -1.500000000000e+01 0.0 
5.000000000000e+01 -1.600000000000e+01 0.0 
5.000000000000e+01 -1.700000000000e+01 0.0 
5.000000000000e+01 -1.800000000000e+01 0.0 
5.000000000000e+01 -1.900000000000e+01 0.0 
2.000000000000e+01 0.0 0.0 
3.500000000000e+01 -1.000000000000e+01 0.0 
2.150000000000e+01 -1.000000000000e+00 0.0 
2.300000000000e+01 -2.000000000000e+00 0.0 
2.450000000000e+01 -3.000000000000e+00 0.0 
2.600000000000e+01 -4.000000000000e+00 0.0 
2.750000000000e+01 -5.000000000000e+00 0.0 
2.900000000000e+01 -6.000000000000e+00 0.0 
3.050000000000e+01 -7.000000000000e+00 0.0 
3.200000000000e+01 -8.000000000000e+00 0.0 
3.350000000000e+01 -9.000000000000e+00 0.0 
5.000000000000e+01 -6.000000000000e+00 0.0 
5.000000000000e+01 -7.000000000000e+00 0.0 
5.000000000000e+01 -8.000000000000e+00 0.0 
5.000000000000e+01 -9.000000000000e+00 0.0 
4.900000000000e+01 -1.000000000000e+01 0.0 
4.800000000000e+01 -1.000000000000e+01 0.0 
4.700000000000e+01 -1.000000000000e+01 0.0 
4.600000000000e+01 -1.000000000000e+01 0.0 
4.500000000000e+01 -1.000000000000e+01 0.0 
4.400000000000e+01 -1.000000000000e+01 0.0 
4.300000000000e+01 -1.000000000000e+01 0.0 
4.200000000000e+01 -1.000000000000e+01 0.0 
4.100000000000e+01 -1.000000000000e+01 0.0 
4.000000000000e+01 -1.000000000000e+01 0.0 
3.900000000000e+01 -1.000000000000e+01 0.0 
3.800000000000e+01 -1.000000000000e+01 0.0 
3.700000000000e+01 -1.000000000000e+01 0.0 
3.600000000000e+01 -1.000000000000e+01 0.0 
1.900000000000e+01 0.0 0.0 
1.800000000000e+01 0.0 0.0 
1.700000000000e+01 0.0 0.0 
1.600000000000e+01 0.0 0.0 
1.500000000000e+01 0.0 0.0 
1.400000000000e+01 0.0 0.0 
1.300000000000e+01 0.0 0.0 
1.200000000000e+01 0.0 0.0 
1.100000000000e+01 0.0 0.0 
1.000000000000e+01 0.0 0.0 
9.000000000000e+00 0.0 0.0 
8.000000000000e+00 0.0 0.0 
7.000000000000e+00 0.0 0.0 
6.000000000000e+00 0.0 0.0 
5.000000000000e+00 0.0 0.0 
4.000000000000e+00 0.0 0.0 
3.000000000000e+00 0.0 0.0 
2.000000000000e+00 0.0 0.0 
1.000000000000e+00 0.0 0.0 
4.900000000001e+01 -6.000000000000e+00 0.0 
4.800000000003e+01 -6.000000000000e+00 0.0 
4.700000000004e+01 -6.000000000000e+00 0.0 
4.600000000006e+01 -6.000000000000e+00 0.0 
4.500000000007e+01 -6.000000000000e+00 0.0 
4.400000000009e+01 -6.000000000000e+00 0.0 
4.300000000010e+01 -6.000000000000e+00 0.0 
4.200000000012e+01 -6.000000000000e+00 0.0 
4.100000000013e+01 -6.000000000000e+00 0.0 
4.000000000014e+01 -6.000000000000e+00 0.0 
3.900000000014e+01 -6.000000000000e+00 0.0 
3.800000000012e+01 -6.000000000000e+00 0.0 
3.700000000010e+01 -6.000000000000e+00 0.0 
3.600000000008e+01 -6.000000000000e+00 0.0 
3.500000000006e+01 -6.000000000000e+00 0.0 
3.400000000005e+01 -6.000000000000e+00 0.0 
3.300000000003e+01 -6.000000000000e+00 0.0 
3.200000000001e+01 -6.000000000000e+00 0.0 
3.100000000000e+01 -6.000000000000e+00 0.0 
3.000000000000e+01 -6.000000000000e+00 0.0 
3.147499999998e+01 -7.000000000000e+00 0.0 
3.244999999998e+01 -7.000000000000e+00 0.0 
3.342499999998e+01 -7.000000000000e+00 0.0 
3.439999999998e+01 -7.000000000000e+00 0.0 
3.537499999998e+01 -7.000000000000e+00 0.0 
3.634999999998e+01 -7.000000000000e+00 0.0 
3.732499999998e+01 -7.000000000000e+00 0.0 
3.829999999998e+01 -7.000000000000e+00 0.0 
3.927499999999e+01 -7.000000000000e+00 0.0 
4.024999999999e+01 -7.000000000000e+00 0.0 
4.122499999999e+01 -7.000000000000e+00 0.0 
4.219999999999e+01 -7.000000000000e+00 0.0 
4.317499999999e+01 -7.000000000000e+00 0.0 
4.414999999999e+01 -7.000000000000e+00 0.0 
4.512499999999e+01 -7.000000000000e+00 0.0 
4.609999999999e+01 -7.000000000000e+00 0.0 
4.707500000000e+01 -7.000000000000e+00 0.0 
4.805000000000e+01 -7.000000000000e+00 0.0 
4.902500000000e+01 -7.000000000000e+00 0.0 
4.900000000000e+01 -8.000000000000e+00 0.0 
4.800000000000e+01 -8.000000000000e+00 0.0 
4.700000000000e+01 -8.000000000000e+00 0.0 
4.600000000000e+01 -8.000000000000e+00 0.0 
4.500000000000e+01 -8.000000000000e+00 0.0 
4.400000000000e+01 -8.000000000000e+00 0.0 
4.300000000000e+01 -8.000000000000e+00 0.0 
4.200000000000e+01 -8.000000000000e+00 0.0 
4.100000000000e+01 -8.000000000000e+00 0.0 
4.000000000000e+01 -8.000000000000e+00 0.0 
3.900000000000e+01 -8.000000000000e+00 0.0 
3.800000000000e+01 -8.000000000000e+00 0.0 
3.700000000000e+01 -8.000000000000e+00 0.0 
3.600000000000e+01 -8.000000000000e+00 0.0 
3.500000000000e+01 -8.000000000000e+00 0.0 
3.400000000000e+01 -8.000000000000e+00 0.0 
3.300000000000e+01 -8.000000000000e+00 0.0 
3.447058823527e+01 -9.000000000000e+00 0.0 
3.544117647055e+01 -9.000000000000e+00 0.0 
3.641176470582e+01 -9.000000000000e+00 0.0 
3.738235294109e+01 -9.000000000000e+00 0.0 
3.835294117637e+01 -9.000000000000e+00 0.0 
3.932352941164e+01 -9.000000000000e+00 0.0 
4.029411764691e+01 -9.000000000000e+00 0.0 
4.126470588219e+01 -9.000000000000e+00 0.0 
4.223529411748e+01 -9.000000000000e+00 0.0 
4.320588235279e+01 -9.000000000000e+00 0.0 
4.417647058811e+01 -9.000000000000e+00 0.0 
4.514705882342e+01 -9.000000000000e+00 0.0 
4.611764705874e+01 -9.000000000000e+00 0.0 
4.708823529405e+01 -9.000000000000e+00 0.0 
4.805882352937e+01 -9.000000000000e+00 0.0 
4.902941176468e+01 -9.000000000000e+00 0.0 
2.075000000000e+01 -5.000000000006e-01 0.0 
2.225000000000e+01 -1.500000000000e+00 0.0 
2.375000000000e+01 -2.500000000000e+00 0.0 
2.525000000000e+01 -3.500000000000e+00 0.0 
2.675000000000e+01 -4.500000000000e+00 0.0 
2.825000000000e+01 -5.500000000000e+00 0.0 
2.975000000000e+01 -6.500000000000e+00 0.0 
3.125000000000e+01 -7.500000000000e+00 0.0 
3.275000000000e+01 -8.500000000000e+00 0.0 
3.425000000000e+01 -9.500000000000e+00 0.0 
2.226951693683e+01 -2.403913980114e+00 0.0 
1.650149491944e+01 -1.913490915758e+01 0.0 
1.050042386896e+01 -8.504605092970e-01 0.0 
1.553146524712e+01 -8.281255032105e-01 0.0 
1.150000000008e+01 -1.913397459621e+01 0.0 
2.530060260647e+01 -4.428336431260e+00 0.0 
8.651114563942e-01 -1.052096295641e+01 0.0 
2.050000000013e+01 -1.913397459622e+01 0.0 
2.819198729811e+01 -6.399519052838e+00 0.0 
2.445670302931e+01 -1.915649188023e+01 0.0 
3.117591465718e+01 -8.394293040695e+00 0.0 
7.465053044742e+00 -1.920411160581e+01 0.0 
6.398295709691e+00 -8.230098819370e-01 0.0 
2.849659607461e+01 -1.914296187762e+01 0.0 
3.418732642882e+01 -1.040265792588e+01 0.0 
8.386450935063e-01 -6.533605142809e+00 0.0 
9.178661865596e-01 -1.329769195597e+01 0.0 
3.149448624493e+01 -1.910466733764e+01 0.0 
3.552916747426e+01 -1.914628590759e+01 0.0 
4.449210346537e+01 -1.914359085008e+01 0.0 
4.140975975145e+01 -1.906941860733e+01 0.0 
3.847475958753e+01 -1.916622382724e+01 0.0 
3.653774794640e+01 -1.088712800241e+01 0.0 
4.047886341787e+01 -1.090139014048e+01 0.0 
4.348006339825e+01 -1.092792621489e+01 0.0 
4.919519968029e+01 -1.451526755068e+01 0.0 
4.500000000032e+00 -1.913397459621e+01 0.0 
1.856136921614e+01 -8.212235170404e-01 0.0 
3.499895312306e+00 -8.661165539723e-01 0.0 
9.076088696565e-01 -1.642306201891e+01 0.0 
4.655174095477e+01 -1.086183387525e+01 0.0 
9.430688970604e-01 -3.496112672958e+00 0.0 
3.353992337063e+01 -1.901202090820e+01 0.0 
2.249746016977e+01 -1.921262287282e+01 0.0 
2.650122741777e+01 -1.916123026018e+01 0.0 
1.863571384842e+01 -1.908325534840e+01 0.0 
1.450089971693e+01 -1.917691901860e+01 0.0 
1.350044695317e+01 -8.659695299584e-01 0.0 
3.849987469880e+01 -1.084154983397e+01 0.0 
9.454419857884e+00 -1.900818879936e+01 0.0 
4.917398660523e+01 -1.645692866081e+01 0.0 
8.500000000000e+00 -8.660254037844e-01 0.0 
8.660319230785e-01 -8.500111697188e+00 0.0 
4.649022621545e+01 -1.930506220113e+01 0.0 
2.667688107845e+01 -5.420288124331e+00 0.0 
2.379251615665e+01 -3.412225477429e+00 0.0 
2.966631491830e+01 -7.389030232731e+00 0.0 
3.267915035995e+01 -9.396934932445e+00 0.0 
2.074836922338e+01 -1.320054020319e+00 0.0 
4.915985743621e+01 -1.261973384855e+01 0.0 
2.527129768623e+00 -1.931592414663e+01 0.0 
1.538676247410e+00 -8.436956619311e-01 0.0 
4.908096641539e+01 -1.842484004551e+01 0.0 
3.478612492673e+01 -1.090889364140e+01 0.0 
3.409757055860e+01 -1.131991530427e+01 0.0 
3.501895309466e+01 -1.177687842717e+01 0.0 
3.407758073088e+01 -1.224293381580e+01 0.0 
3.484541875390e+01 -1.277051428430e+01 0.0 
3.400322025842e+01 -1.319022775640e+01 0.0 
3.321672625034e+01 -1.266779191233e+01 0.0 
3.315244139236e+01 -1.360984106532e+01 0.0 
3.236335186892e+01 -1.308463225210e+01 0.0 
3.478337442841e+01 -1.372341158982e+01 0.0 
3.230105923633e+01 -1.403023731610e+01 0.0 
3.150954055289e+01 -1.350301767700e+01 0.0 
3.144604792090e+01 -1.444931742516e+01 0.0 
3.065653897123e+01 -1.392357262981e+01 0.0 
3.071897610812e+01 -1.297447031198e+01 0.0 
2.986790411740e+01 -1.339226181535e+01 0.0 
2.993181466745e+01 -1.244703272398e+01 0.0 
2.908023061869e+01 -1.286254537734e+01 0.0 
2.901619051372e+01 -1.380881655279e+01 0.0 
2.822986160390e+01 -1.327695262116e+01 0.0 
2.829453476870e+01 -1.233265343811e+01 0.0 
2.744542905518e+01 -1.274510491105e+01 0.0 
2.751120089246e+01 -1.180368086886e+01 0.0 
2.666218649885e+01 -1.221619339205e+01 0.0 
2.672371209234e+01 -1.127125228527e+01 0.0 
2.587763216302e+01 -1.168539979114e+01 0.0 
2.581165585299e+01 -1.262994410089e+01 0.0 
2.502890882577e+01 -1.209827323619e+01 0.0 
2.509631327757e+01 -1.115492410304e+01 0.0 
2.424662989877e+01 -1.156630981079e+01 0.0 
2.431704046904e+01 -1.062389179334e+01 0.0 
2.346445438728e+01 -1.103427680694e+01 0.0 
2.339382552877e+01 -1.197964871788e+01 0.0 
2.260936050780e+01 -1.144513277642e+01 0.0 
2.268075012022e+01 -1.049911928216e+01 0.0 
2.182525737661e+01 -1.090920811464e+01 0.0 
2.189682319817e+01 -9.961716944568e+00 0.0 
2.104174127792e+01 -1.037266986667e+01 0.0 
2.111304367575e+01 -9.424179358711e+00 0.0 
2.025306185381e+01 -9.832727364719e+00 0.0 
2.018141124247e+01 -1.079140628871e+01 0.0 
1.938594498257e+01 -1.025147354112e+01 0.0 
1.946106490453e+01 -9.288010758448e+00 0.0 
1.858929958352e+01 -9.706319802516e+00 0.0 
1.851540991219e+01 -1.067205988724e+01 0.0 
1.771485303178e+01 -1.012504443115e+01 0.0 
1.764134552256e+01 -1.109360378538e+01 0.0 
1.683745148095e+01 -1.054496365337e+01 0.0 
1.691852964353e+01 -9.582555261178e+00 0.0 
1.603603813062e+01 -1.000160132379e+01 0.0 
1.595824239350e+01 -1.096750698862e+01 0.0 
1.515080624291e+01 -1.041639501931e+01 0.0 
1.523171602559e+01 -9.451711491453e+00 0.0 
1.434621060709e+01 -9.871956467464e+00 0.0 
1.426777178765e+01 -1.083749501371e+01 0.0 
1.345775282374e+01 -1.028803175500e+01 0.0 
1.354103873368e+01 -9.324918457162e+00 0.0 
1.265072018622e+01 -9.742612837270e+00 0.0 
1.257285762070e+01 -1.071557782384e+01 0.0 
1.175874815690e+01 -1.015972324288e+01 0.0 
1.184203019714e+01 -9.193604071377e+00 0.0 
1.094927709905e+01 -9.612103238656e+00 0.0 
1.086938022910e+01 -1.058685085646e+01 0.0 
1.005424098961e+01 -1.002939116380e+01 0.0 
9.977974613295e+00 -1.101324897989e+01 0.0 
1.012915646404e+01 -9.051815821181e+00 0.0 
9.237127782494e+00 -9.471239055559e+00 0.0 
9.308426593771e+00 -8.483376461131e+00 0.0 
8.418806073345e+00 -8.910712374517e+00 0.0 
2.253688464062e+01 -1.239459402279e+01 0.0 
8.495126726666e+00 -7.921646665254e+00 0.0 
9.389727383206e+00 -7.512103628377e+00 0.0 
7.601560812974e+00 -8.349460349344e+00 0.0 
7.525680547759e+00 -9.339736686940e+00 0.0 
7.677888324502e+00 -7.359727833346e+00 0.0 
6.782001206724e+00 -7.788454494773e+00 0.0 
6.858778622885e+00 -6.797338062822e+00 0.0 
2.196596590865e+01 -8.979025665442e+00 0.0 
2.816540108272e+01 -1.422634142353e+01 0.0 
5.961601194403e+00 -7.226824010712e+00 0.0 
6.038171749656e+00 -6.234825887079e+00 0.0 
6.936257279557e+00 -5.805287640737e+00 0.0 
6.115068918323e+00 -5.242109758768e+00 0.0 
3.564391741903e+01 -1.329240553876e+01 0.0 
3.558115605778e+01 -1.425902892003e+01 0.0 
3.645445282201e+01 -1.381970786460e+01 0.0 
3.639744204358e+01 -1.479198128612e+01 0.0 
3.727266909778e+01 -1.435399586226e+01 0.0 
5.216667013081e+00 -5.671788584287e+00 0.0 
3.220697293295e+01 -1.499594545107e+01 0.0 
3.551112158269e+01 -1.523479869250e+01 0.0 
2.836056961467e+01 -1.139032434851e+01 0.0 
2.516730388602e+01 -1.021382726837e+01 0.0 
1.844436907403e+01 -1.164097215196e+01 0.0 
5.885434318740e+00 -8.218694781467e+00 0.0 
5.064071066867e+00 -7.656614643901e+00 0.0 
4.988089103470e+00 -8.649722082718e+00 0.0 
1.079421050408e+01 -1.157014985435e+01 0.0 
9.902420005256e+00 -1.199903342656e+01 0.0 
1.071994252214e+01 -1.255727909771e+01 0.0 
9.826974788171e+00 -1.298659581767e+01 0.0 
1.064607883789e+01 -1.354595476388e+01 0.0 
9.751541265343e+00 -1.397556905071e+01 0.0 
8.932296185869e+00 -1.341553353988e+01 0.0 
8.856399248106e+00 -1.440570715508e+01 0.0 
8.036186803543e+00 -1.384470558472e+01 0.0 
1.057112875118e+01 -1.453516759081e+01 0.0 
1.146582585687e+01 -1.410539926903e+01 0.0 
7.959894480382e+00 -1.483563350928e+01 0.0 
7.138792279156e+00 -1.427465094140e+01 0.0 
7.062506792418e+00 -1.526615385482e+01 0.0 
6.240693558277e+00 -1.470508863040e+01 0.0 
6.316957575451e+00 -1.371212581281e+01 0.0 
5.418183007107e+00 -1.414253605022e+01 0.0 
5.494748364428e+00 -1.314886770603e+01 0.0 
1.756825565873e+01 -1.206433872514e+01 0.0 
1.837565773345e+01 -1.261356468266e+01 0.0 
1.749574831391e+01 -1.303769280014e+01 0.0 
1.830539187332e+01 -1.358828364284e+01 0.0 
1.742278925170e+01 -1.401367746928e+01 0.0 
1.823303007798e+01 -1.456432294258e+01 0.0 
1.734941694138e+01 -1.499213734361e+01 0.0 
1.653760041637e+01 -1.443920312098e+01 0.0 
3.056237977307e+01 -1.487132260174e+01 0.0 
1.866469084762e+01 -8.742953000418e+00 0.0 
1.953669694916e+01 -8.326038909849e+00 0.0 
1.874194303780e+01 -7.780688158966e+00 0.0 
1.961032016741e+01 -7.366854697285e+00 0.0 
1.881715755159e+01 -6.821102209649e+00 0.0 
1.968369797150e+01 -6.407747217358e+00 0.0 
1.889237123259e+01 -5.858375520026e+00 0.0 
1.802038875366e+01 -6.276202618170e+00 0.0 
1.809793837984e+01 -5.307629520489e+00 0.0 
1.721985207997e+01 -5.728242054488e+00 0.0 
1.729850893523e+01 -4.756990819347e+00 0.0 
1.641745664240e+01 -5.174636548624e+00 0.0 
2.495978509456e+01 -1.304406404294e+01 0.0 
1.911567814831e+01 -1.413854250293e+01 0.0 
1.904387332608e+01 -1.511463127723e+01 0.0 
1.992115934240e+01 -1.468788025898e+01 0.0 
7.013706899628e+00 -4.812582868662e+00 0.0 
5.342091874585e+00 -1.513658157269e+01 0.0 
1.139098043784e+01 -1.509488509480e+01 0.0 
1.228151810610e+01 -1.465617481983e+01 0.0 
1.646373110164e+01 -1.541993323337e+01 0.0 
5.293328636712e+00 -4.678385108584e+00 0.0 
1.975965862987e+01 -5.448124345648e+00 0.0 
2.054318374236e+01 -5.992561293251e+00 0.0 
3.721453439063e+01 -1.533216152738e+01 0.0 
3.809302733893e+01 -1.489235527381e+01 0.0 
1.220852788900e+01 -1.565304565230e+01 0.0 
4.394120899730e+00 -5.108397613210e+00 0.0 
8.779354620288e+00 -1.539524721159e+01 0.0 
1.817791047702e+01 -4.338570146253e+00 0.0 
4.518860013839e+00 -1.457343189307e+01 0.0 
4.442712140414e+00 -1.556841391069e+01 0.0 
8.115343466391e+00 -1.285760324283e+01 0.0 
1.985334703171e+01 -1.566478400426e+01 0.0 
2.071953850276e+01 -1.522074243119e+01 0.0 
1.634012953883e+01 -6.154777738301e+00 0.0 
1.553479994708e+01 -5.593730508879e+00 0.0 
1.561265946942e+01 -4.617761762647e+00 0.0 
1.470674212978e+01 -5.064576488228e+00 0.0 
1.464498299883e+01 -6.026514471420e+00 0.0 
1.383271561817e+01 -5.467796261169e+00 0.0 
1.389241253067e+01 -4.504338666645e+00 0.0 
1.301868735463e+01 -4.907185188626e+00 0.0 
1.294514184846e+01 -5.888160903592e+00 0.0 
1.212955968622e+01 -5.328262335277e+00 0.0 
1.220721122383e+01 -4.341264976687e+00 0.0 
1.131324345897e+01 -4.766773516508e+00 0.0 
5.266597955397e+00 -1.613148974258e+01 0.0 
1.737805990867e+01 -3.786677807525e+00 0.0 
3.078438094513e+01 -1.203225297748e+01 0.0 
1.131569882285e+01 -1.608511932110e+01 0.0 
1.728478341782e+01 -1.596017432313e+01 0.0 
3.803465906019e+01 -1.587509751228e+01 0.0 
3.891681276677e+01 -1.543395196905e+01 0.0 
3.897340985302e+01 -1.444710288980e+01 0.0 
3.980095968193e+01 -1.499059496613e+01 0.0 
3.974334598189e+01 -1.597921884150e+01 0.0 
4.062964983717e+01 -1.553518690417e+01 0.0 
4.068729602479e+01 -1.454434445295e+01 0.0 
4.151772679790e+01 -1.508974196007e+01 0.0 
4.157505195739e+01 -1.409694289912e+01 0.0 
4.240699932656e+01 -1.464347955968e+01 0.0 
4.234898051011e+01 -1.563721375790e+01 0.0 
4.323934606035e+01 -1.519082036405e+01 0.0 
4.329740528208e+01 -1.419587509788e+01 0.0 
4.413056841369e+01 -1.474359631875e+01 0.0 
4.418850110108e+01 -1.374786684042e+01 0.0 
4.502219770667e+01 -1.429605103525e+01 0.0 
4.496411937907e+01 -1.529215882720e+01 0.0 
4.490027319897e+00 -4.154167794594e+00 0.0 
1.565080385988e+01 -1.486411982419e+01 0.0 
1.557610691279e+01 -1.584855627870e+01 0.0 
4.195350646612e+00 -8.089117689096e+00 0.0 
4.124027797830e+00 -9.082831955007e+00 0.0 
4.917944318925e+00 -9.643530901533e+00 0.0 
4.020105689502e+00 -1.007439673661e+01 0.0 
4.587185899277e+01 -1.484039992728e+01 0.0 
4.580078661551e+01 -1.584043391042e+01 0.0 
2.061956522375e+01 -5.046701343981e+00 0.0 
2.139572955529e+01 -5.579553449826e+00 0.0 
3.715344357292e+01 -1.631485124583e+01 0.0 
3.618886196443e+00 -1.500471207167e+01 0.0 
3.695606940204e+00 -1.400939692294e+01 0.0 
2.438890661143e+01 -9.686110599723e+00 0.0 
2.523267572778e+01 -9.276766000622e+00 0.0 
2.446094171539e+01 -8.751904591412e+00 0.0 
2.529089822738e+01 -8.321495612547e+00 0.0 
2.606882688827e+01 -8.864724051119e+00 0.0 
2.452116646430e+01 -7.792756462004e+00 0.0 
1.235543269617e+01 -1.365845617339e+01 0.0 
4.318116874181e+01 -1.618567469992e+01 0.0 
7.835066111909e+00 -5.376366223896e+00 0.0 
7.905687335704e+00 -4.382539065697e+00 0.0 
3.542640009567e+00 -1.600035116542e+01 0.0 
1.572431503071e+01 -1.388358386695e+01 0.0 
2.574684696680e+01 -1.357896141127e+01 0.0 
2.488842657651e+01 -1.399674354505e+01 0.0 
2.568301775611e+01 -1.453552048595e+01 0.0 
2.481535572009e+01 -1.495542756508e+01 0.0 
2.561729699688e+01 -1.549784648532e+01 0.0 
2.474623061296e+01 -1.592058894178e+01 0.0 
2.394234041695e+01 -1.537572575827e+01 0.0 
2.065825452567e+01 -1.621899055217e+01 0.0 
2.387180528935e+01 -1.634552264687e+01 0.0 
4.585364400844e+01 -1.383912334080e+01 0.0 
1.998744432052e+01 -1.370317155541e+01 0.0 
1.205356951443e+01 -6.313580285498e+00 0.0 
5.396543905849e+00 -3.731818611283e+00 0.0 
1.139652573295e+01 -3.745819399350e+00 0.0 
3.574124306703e+00 -4.551456826011e+00 0.0 
3.494140761930e+00 -5.539787055649e+00 0.0 
1.213651452413e+01 -1.664505033022e+01 0.0 
2.555045568519e+01 -1.646529356744e+01 0.0 
2.641671114986e+01 -1.603899382371e+01 0.0 
2.612920721894e+01 -7.906435260873e+00 0.0 
2.690339829698e+01 -8.456969591431e+00 0.0 
1.978024383368e+01 -1.664410216353e+01 0.0 
3.732829979082e+01 -1.336926601859e+01 0.0 
4.074336584605e+01 -1.355133328401e+01 0.0 
4.163204691081e+01 -1.310280943992e+01 0.0 
3.773826114429e+00 -3.493444309145e+00 0.0 
1.228783001032e+01 -3.374822835872e+00 0.0 
4.057110462520e+01 -1.652588478000e+01 0.0 
2.132535497898e+01 -6.523623360525e+00 0.0 
2.216932532211e+01 -6.110044769206e+00 0.0 
1.825781152128e+01 -3.370146817147e+00 0.0 
1.745679445888e+01 -2.812942552063e+00 0.0 
4.666517057280e+01 -1.539981381543e+01 0.0 
4.660575894464e+01 -1.639014410186e+01 0.0 
4.838230979954e+00 -1.063643436446e+01 0.0 
3.938942630206e+00 -1.106778981745e+01 0.0 
1.302967218620e+01 -1.621373452436e+01 0.0 
1.049548003190e+01 -4.204825123240e+00 0.0 
4.573571907195e+01 -1.683820511148e+01 0.0 
1.483686335807e+01 -1.430849689310e+01 0.0 
1.490982658890e+01 -1.332679386284e+01 0.0 
3.190805600162e+00 -9.510968358545e+00 0.0 
2.146625721848e+01 -4.642437303115e+00 0.0 
2.069866208266e+01 -4.111852942193e+00 0.0 
1.286859345584e+01 -6.873252723348e+00 0.0 
1.041794493184e+01 -5.194814260291e+00 0.0 
2.671081808965e+00 -4.976806516331e+00 0.0 
1.295786792925e+01 -1.720506531799e+01 0.0 
3.968438206511e+01 -1.696869067241e+01 0.0 
2.308550456051e+01 -1.579963151273e+01 0.0 
2.315593682844e+01 -1.482967445235e+01 0.0 
2.299471449450e+01 -1.677069968132e+01 0.0 
1.057344714696e+01 -3.214252277840e+00 0.0 
1.124057603753e+01 -1.707713739755e+01 0.0 
2.718402535754e+00 -1.543629882103e+01 0.0 
2.638549692805e+01 -1.696744916809e+01 0.0 
2.723416349007e+01 -1.658104204545e+01 0.0 
2.210193351704e+01 -7.046769643417e+00 0.0 
2.295180925161e+01 -6.657397605239e+00 0.0 
2.301355235833e+01 -5.709111896800e+00 0.0 
2.379052718281e+01 -6.254965406962e+00 0.0 
3.243528601237e+01 -1.214181853533e+01 0.0 
2.287977995457e+01 -7.583722368300e+00 0.0 
2.999876029544e+01 -1.150837653096e+01 0.0 
3.084435366963e+01 -1.109693775882e+01 0.0 
3.006650579669e+01 -1.057778994262e+01 0.0 
2.683802665066e+01 -9.386863216633e+00 0.0 
2.768641973621e+01 -8.988883915666e+00 0.0 
2.040296980397e+01 -7.903629133404e+00 0.0 
1.925235024054e+01 -1.218872783130e+01 0.0 
5.735667000424e+00 -1.020577277283e+01 0.0 
6.396559909872e+00 -1.272326295703e+01 0.0 
1.161199420714e+01 -1.212812778229e+01 0.0 
4.229046132615e+01 -1.663084237572e+01 0.0 
4.312275399692e+01 -1.718087491556e+01 0.0 
4.335502068163e+01 -1.320039231514e+01 0.0 
4.424630298089e+01 -1.275160688731e+01 0.0 
7.090116643816e+00 -3.818998061530e+00 0.0 
7.989472176569e+00 -3.389238711200e+00 0.0 
9.085824861778e+00 -1.144036167408e+01 0.0 
1.041972423731e+01 -1.651614080893e+01 0.0 
3.797525112640e+01 -1.686052038746e+01 0.0 
3.709114253394e+01 -1.730125999865e+01 0.0 
3.626966748340e+01 -1.675477052919e+01 0.0 
1.385164591440e+01 -1.677597757552e+01 0.0 
1.787152588784e+01 -8.198993896093e+00 0.0 
1.668849729812e+01 -1.248560611628e+01 0.0 
1.659546177905e+01 -3.232482605530e+00 0.0 
2.332214717345e+01 -1.292598167641e+01 0.0 
7.168238450786e+00 -2.824711686516e+00 0.0 
2.894878403906e+01 -1.475427524446e+01 0.0 
2.646763248247e+00 -1.643270107952e+01 0.0 
3.467431944285e+00 -1.699648837348e+01 0.0 
2.059475877282e+01 -1.719473628526e+01 0.0 
3.333868355437e+01 -1.080596971682e+01 0.0 
2.246451062637e+01 -1.334557761546e+01 0.0 
2.167821896388e+01 -1.280847834858e+01 0.0 
3.089653185767e+01 -1.017198487212e+01 0.0 
3.012604365669e+01 -9.657298805968e+00 0.0 
2.929627299435e+01 -1.006100135274e+01 0.0 
2.936201435219e+01 -9.136748899251e+00 0.0 
1.198219052702e+01 -7.291887238230e+00 0.0 
1.116702076035e+01 -6.731976101053e+00 0.0 
2.551388807505e+01 -1.746927036981e+01 0.0 
2.378639090370e+01 -1.728678807149e+01 0.0 
2.718543627188e+01 -1.748668016909e+01 0.0 
2.804681050301e+01 -1.712626668293e+01 0.0 
1.970737034667e+01 -1.762317646822e+01 0.0 
1.889535776135e+01 -1.707158098231e+01 0.0 
2.593777711283e+00 -5.971157087874e+00 0.0 
2.773468281110e+01 -8.067164273938e+00 0.0 
4.051205884347e+01 -1.751819982458e+01 0.0 
3.166903145421e+01 -1.068032992414e+01 0.0 
1.033042452886e+01 -1.748285844336e+01 0.0 
9.519274604626e+00 -1.694349240233e+01 0.0 
1.668308673328e+01 -2.255861778986e+00 0.0 
1.570531902832e+01 -2.676795860126e+00 0.0 
4.655826903379e+01 -1.736656245706e+01 0.0 
2.384148070773e+01 -5.328744256413e+00 0.0 
2.460255123641e+01 -5.852182672816e+00 0.0 
2.306638135119e+01 -4.798935440613e+00 0.0 
8.467720450578e-01 -1.849576263072e+01 0.0 
4.849657322345e+01 -1.084860705506e+01 0.0 
2.565860899507e+00 -1.742859793981e+01 0.0 
2.764418872564e+01 -9.927142821799e+00 0.0 
4.565165880064e+01 -1.785336695404e+01 0.0 
2.162231831329e+01 -1.376528337468e+01 0.0 
2.360646352969e+01 -9.136041963102e+00 0.0 
1.392738739903e+01 -1.578285505772e+01 0.0 
4.756405947478e+01 -1.683706841809e+01 0.0 
4.740895034054e+01 -1.793766756892e+01 0.0 
4.080779328826e+01 -1.257387192544e+01 0.0 
4.168907939671e+01 -1.210739129181e+01 0.0 
3.991197722154e+01 -1.300815793917e+01 0.0 
1.905536506762e+01 -3.940076697685e+00 0.0 
1.923879596617e+01 -2.875000734166e+00 0.0 
4.401386745746e+01 -1.673483229438e+01 0.0 
4.247233362525e+00 -7.094581653070e+00 0.0 
3.286051630211e+00 -7.635300020553e+00 0.0 
9.609533347623e+00 -4.594311677967e+00 0.0 
9.523554636369e+00 -5.595597029530e+00 0.0 
5.660336628893e+00 -1.119290329628e+01 0.0 
6.558070063295e+00 -1.076385809362e+01 0.0 
2.809866407414e+01 -1.518037766799e+01 0.0 
2.888868674504e+01 -1.570360690070e+01 0.0 
2.654431550819e+01 -1.411217777162e+01 0.0 
1.402158265969e+01 -1.375404617952e+01 0.0 
1.409592494026e+01 -1.277071998942e+01 0.0 
1.499355196178e+01 -1.235270737023e+01 0.0 
4.221535326155e+01 -1.759335617494e+01 0.0 
4.305583287033e+01 -1.822663146802e+01 0.0 
1.280748808359e+01 -7.834332838285e+00 0.0 
1.368988389326e+01 -7.420529606172e+00 0.0 
1.110091796060e+01 -7.683966794328e+00 0.0 
3.963446145980e+01 -1.794331310122e+01 0.0 
3.423932362213e+00 -1.796415590455e+01 0.0 
4.280814572302e+00 -1.752272834860e+01 0.0 
8.050136380041e+00 -2.421582378631e+00 0.0 
8.888674091650e+00 -2.984264211327e+00 0.0 
2.152839430898e+01 -3.732609965436e+00 0.0 
2.077799585292e+01 -3.183896021866e+00 0.0 
3.618719395821e+01 -1.770276572576e+01 0.0 
3.538165138340e+01 -1.718709995539e+01 0.0 
3.702925326420e+01 -1.828844288807e+01 0.0 
1.756739438711e+00 -5.353284859169e+00 0.0 
2.233710191104e+01 -1.527265621324e+01 0.0 
1.389483555057e+01 -1.771797164730e+01 0.0 
1.475634224300e+01 -1.728357428390e+01 0.0 
1.298797563052e+01 -1.825968924755e+01 0.0 
2.145331271866e+01 -1.673705379077e+01 0.0 
2.133282821169e+01 -1.769400773673e+01 0.0 
2.292139194136e+01 -1.774915400288e+01 0.0 
1.750750053243e+01 -1.861475593469e+00 0.0 
4.830478841772e+01 -1.752611802221e+01 0.0 
4.341203507805e+01 -1.220326745522e+01 0.0 
1.685254151866e+01 -1.443085301632e+00 0.0 
4.431538535165e+01 -1.171841387375e+01 0.0 
4.511308610496e+01 -1.229557320599e+01 0.0 
4.510133242889e+01 -1.123680627466e+01 0.0 
1.846818030617e+00 -4.410877617069e+00 0.0 
3.995468694584e+01 -1.186571542989e+01 0.0 
3.901387459804e+01 -1.242507616755e+01 0.0 
8.966735877533e+00 -1.837818700423e+00 0.0 
4.049310011091e+01 -1.848269508791e+01 0.0 
7.278862053803e+00 -1.918523922691e+00 0.0 
6.429715522129e+00 -2.316676521184e+00 0.0 
9.443505505022e+00 -1.792198868094e+01 0.0 
8.620386951051e+00 -1.737590365556e+01 0.0 
8.571868171503e+00 -1.834436667826e+01 0.0 
7.758629848526e+00 -1.775677907213e+01 0.0 
7.806648388584e+00 -1.680761266021e+01 0.0 
6.908555145436e+00 -1.723746463044e+01 0.0 
4.251709122090e+01 -1.156937480156e+01 0.0 
6.931136405615e+00 -1.832465719263e+01 0.0 
6.015545461353e+00 -1.768865355295e+01 0.0 
5.960535926343e+00 -1.872011001764e+01 0.0 
3.023253444786e+01 -8.761960642196e+00 0.0 
2.454622702599e+01 -6.749421992767e+00 0.0 
2.537499741604e+01 -6.347634963783e+00 0.0 
2.544077378460e+01 -5.431358513649e+00 0.0 
2.801367161747e+01 -1.820907270221e+01 0.0 
2.884507806914e+01 -1.762032095326e+01 0.0 
1.821474531936e+00 -1.588901260460e+01 0.0 
1.821006262604e+00 -1.489370287756e+01 0.0 
4.599962488908e+01 -1.176478780598e+01 0.0 
4.705457470007e+01 -1.172182804229e+01 0.0 
4.667668314802e+01 -1.263464558483e+01 0.0 
4.759648056504e+01 -1.252380987933e+01 0.0 
4.728041618103e+01 -1.341928568376e+01 0.0 
4.825209352360e+01 -1.330491640804e+01 0.0 
4.778118233428e+01 -1.420151961695e+01 0.0 
2.388192727579e+01 -1.826934810142e+01 0.0 
2.381714684947e+01 -4.385917965223e+00 0.0 
3.172733219247e+01 -9.758744265248e+00 0.0 
1.882012070658e+01 -1.805540597212e+01 0.0 
1.805667505243e+01 -1.742221226236e+01 0.0 
2.852599958080e+01 -8.597196079481e+00 0.0 
2.856486123437e+01 -7.661382718527e+00 0.0 
1.111792842875e+01 -1.818223852980e+01 0.0 
2.203322722466e+01 -7.986646678802e+00 0.0 
3.955703676900e+01 -1.903246763601e+01 0.0 
1.944842206513e+01 -8.038750575182e-01 0.0 
1.909882767783e+01 -1.746322740933e+00 0.0 
2.281147422941e+01 -8.525912918334e+00 0.0 
2.850633001468e+01 -9.533271335986e+00 0.0 
2.532883344309e+01 -7.308951659710e+00 0.0 
2.620475466461e+01 -6.979208585400e+00 0.0 
1.396278270396e+01 -1.475095389807e+01 0.0 
9.791001166724e+00 -2.554159793552e+00 0.0 
2.229293380421e+01 -4.269762271052e+00 0.0 
4.677238984118e+01 -1.430071795514e+01 0.0 
2.228658385918e+01 -3.344747535984e+00 0.0 
8.940223674553e-01 -1.543595733415e+01 0.0 
2.118566862474e+01 -8.435876987696e+00 0.0 
2.678325936437e+01 -1.032621195706e+01 0.0 
2.223400220487e+01 -5.179046761770e+00 0.0 
2.375370625384e+01 -7.251580562134e+00 0.0 
3.156971327386e+01 -1.255534750737e+01 0.0 
3.328226391312e+01 -1.172914813316e+01 0.0 
3.250948774219e+01 -1.120157009348e+01 0.0 
2.032993445717e+01 -8.867880112202e+00 0.0 
2.697226974856e+01 -7.536633082045e+00 0.0 
2.707377810386e+01 -6.590835263295e+00 0.0 
2.914099246827e+01 -1.191678458549e+01 0.0 
3.544824072239e+01 -1.621126558525e+01 0.0 
3.456511855436e+01 -1.665054783843e+01 0.0 
3.448395810225e+01 -1.759117813016e+01 0.0 
3.368378673938e+01 -1.708037781328e+01 0.0 
3.375560452567e+01 -1.610973066913e+01 0.0 
3.288001547988e+01 -1.654324255651e+01 0.0 
3.282475929147e+01 -1.749725654692e+01 0.0 
3.199880906313e+01 -1.697294088625e+01 0.0 
3.197001272932e+01 -1.811667776864e+01 0.0 
3.111884713021e+01 -1.742166785755e+01 0.0 
3.120418962865e+01 -1.642155709385e+01 0.0 
3.034666704371e+01 -1.683123833816e+01 0.0 
3.026224379976e+01 -1.772592851714e+01 0.0 
3.046632362943e+01 -1.582232843075e+01 0.0 
1.961344017324e+01 -1.857459447985e+01 0.0 
2.274975894774e+01 -9.532738811922e+00 0.0 
1.833923246887e+01 -2.396746883672e+00 0.0 
1.988859500848e+01 -2.249244376594e+00 0.0 
2.758045562861e+01 -1.086434261689e+01 0.0 
3.247300178163e+01 -1.909930104252e+01 0.0 
3.461947482503e+01 -1.911879848019e+01 0.0 
2.047161538662e+01 -6.941478180358e+00 0.0 
2.750230940214e+01 -1.915490590764e+01 0.0 
3.165081350803e+01 -1.161860780120e+01 0.0 
1.897456727641e+01 -4.889634688522e+00 0.0 
2.549338539756e+01 -1.914858252089e+01 0.0 
3.462873135081e+01 -1.567482276144e+01 0.0 
3.384432415243e+01 -1.512280684518e+01 0.0 
3.471433767690e+01 -1.469086942990e+01 0.0 
3.651470373046e+01 -1.918207952149e+01 0.0 
3.901742690249e+01 -1.345028556517e+01 0.0 
2.153224102692e+01 -1.920169709333e+01 0.0 
1.918382939341e+01 -1.316226275662e+01 0.0 
2.005389162382e+01 -1.271962165174e+01 0.0 
2.011472087878e+01 -1.175029352900e+01 0.0 
3.210679478412e+01 -1.598038618242e+01 0.0 
1.752175226543e+01 -1.914713022656e+01 0.0 
1.696897240059e+01 -1.832772588765e+01 0.0 
1.599682523337e+01 -1.832599992024e+01 0.0 
1.644507199462e+01 -1.743697981535e+01 0.0 
1.549987712903e+01 -1.915192375101e+01 0.0 
3.050250861901e+01 -1.918943550234e+01 0.0 
2.949944061527e+01 -1.922950455235e+01 0.0 
1.375892575273e+01 -6.447160534926e+00 0.0 
1.457223670180e+01 -7.006709243857e+00 0.0 
1.450818793236e+01 -7.965943451779e+00 0.0 
1.538804712402e+01 -7.553409623699e+00 0.0 
1.545817644768e+01 -6.580929593419e+00 0.0 
1.626506893751e+01 -7.129032608911e+00 0.0 
1.619833811522e+01 -8.086588580887e+00 0.0 
1.714448609609e+01 -6.697429609777e+00 0.0 
2.887616543568e+01 -1.668015232137e+01 0.0 
1.349814589130e+01 -1.918225301544e+01 0.0 
1.153887772210e+01 -1.311384581217e+01 0.0 
1.242708159886e+01 -1.267046795531e+01 0.0 
1.249799674267e+01 -1.169005616014e+01 0.0 
6.631723893693e+00 -9.774184881867e+00 0.0 
7.451471631867e+00 -1.033148796006e+01 0.0 
7.377795355458e+00 -1.132196345268e+01 0.0 
5.810931797536e+00 -9.211654212252e+00 0.0 
2.402683899133e+01 -1.441378562320e+01 0.0 
1.249768692036e+01 -1.917388426624e+01 0.0 
1.580373499437e+01 -1.290751860664e+01 0.0 
8.344650507834e+00 -9.898403995170e+00 0.0 
3.750622115305e+01 -1.086526401533e+01 0.0 
3.699391251667e+01 -1.171695900794e+01 0.0 
3.606517829518e+01 -1.173717504500e+01 0.0 
3.650257641795e+01 -1.270047380221e+01 0.0 
3.808951488918e+01 -1.183518714175e+01 0.0 
4.760380962420e+00 -1.162484888315e+01 0.0 
3.861210370848e+00 -1.205657631736e+01 0.0 
3.038284309476e+00 -1.149851280664e+01 0.0 
2.961598794889e+00 -1.248856794980e+01 0.0 
2.138953225512e+00 -1.193212674534e+01 0.0 
2.227383593457e+00 -1.096258903918e+01 0.0 
2.043265419276e+00 -1.292158472959e+01 0.0 
1.252449446028e+00 -1.225502002753e+01 0.0 
3.949985210740e+01 -1.086594001795e+01 0.0 
1.453499444792e+01 -8.768805922472e-01 0.0 
1.403518950933e+01 -1.749965556633e+00 0.0 
1.300715031023e+01 -1.714737233040e+00 0.0 
1.350929389899e+01 -2.527443911291e+00 0.0 
1.449600910711e+01 -2.595486162864e+00 0.0 
1.395693872901e+01 -3.484211041558e+00 0.0 
1.495105865208e+01 -3.364609636216e+00 0.0 
1.508822528740e+01 -1.766586020494e+00 0.0 
1.250223858430e+01 -8.634590186802e-01 0.0 
1.200279523409e+01 -1.709044504992e+00 0.0 
1.150086239419e+01 -8.592789190668e-01 0.0 
1.101482754194e+01 -1.677730591922e+00 0.0 
1.148018564526e+01 -2.659323866909e+00 0.0 
8.800552119754e+00 -3.989875954728e+00 0.0 
3.452790439430e+00 -1.901136170646e+01 0.0 
8.658451825200e-01 -9.503462241795e+00 0.0 
1.694787786797e+00 -9.000589234502e+00 0.0 
1.703436717094e+00 -8.038819004041e+00 0.0 
2.594197971110e+00 -8.563955242845e+00 0.0 
1.630513735412e+00 -9.907244747511e+00 0.0 
8.566859292791e-01 -7.512203837972e+00 0.0 
1.685461277022e+00 -7.164280248030e+00 0.0 
2.506394468801e+00 -8.623386730818e-01 0.0 
2.007475081581e+00 -1.727729545205e+00 0.0 
9.211534699767e-01 -1.628791366312e+00 0.0 
1.500000000020e+00 -2.598063549486e+00 0.0 
2.482078929963e+00 -2.553580088725e+00 0.0 
2.999795253092e+00 -1.732169015019e+00 0.0 
3.999712607169e+00 -1.728832897453e+00 0.0 
4.499752199340e+00 -8.656478679175e-01 0.0 
4.964377774841e+00 -1.730129617941e+00 0.0 
4.425017908337e+00 -2.597541756243e+00 0.0 
5.446573195014e+00 -8.410144840023e-01 0.0 
4.915722346614e+01 -1.550640962770e+01 0.0 
4.826794919243e+01 -1.600000000000e+01 0.0 
1.053139533193e+01 -1.911782884365e+01 0.0 
4.156049861949e+01 -1.095160998589e+01 0.0 
9.494526624416e+00 -8.650570090219e-01 0.0 
4.555762166964e+01 -1.897098103585e+01 0.0 
4.250656411371e+01 -1.914387356218e+01 0.0 
4.350906466345e+01 -1.917234727395e+01 0.0 
8.759665722424e-01 -1.746422130609e+01 0.0 
1.698936011838e+00 -1.795012186674e+01 0.0 
4.742476811029e+01 -1.900090177972e+01 0.0 
7.749196752349e+00 -6.368049313489e+00 0.0 
3.361572113416e+01 -1.798765193915e+01 0.0 
4.484660149212e+01 -1.728661231383e+01 0.0 
1.984038172228e+01 -4.502575320116e+00 0.0 
1.035080352627e+01 -6.166639575753e+00 0.0 
2.753558010652e+00 -1.444909521181e+01 0.0 
7.217069543032e+00 -1.328635391078e+01 0.0 
4.364336727739e+00 -1.655585677381e+01 0.0 
4.595208426108e+00 -1.357919665443e+01 0.0 
6.164967006980e+00 -1.569873454630e+01 0.0 
1.487855768353e+01 -1.826523774028e+01 0.0 
2.791876456372e+00 -4.019632415181e+00 0.0 
4.246464893515e+01 -1.364898659620e+01 0.0 
4.503855590351e+01 -1.329552780944e+01 0.0 
4.407239109604e+01 -1.573900004093e+01 0.0 
5.141054449252e+00 -6.664290382472e+00 0.0 
3.141083947149e+00 -1.055790764912e+01 0.0 
6.196463198741e+00 -4.256497932609e+00 0.0 
2.599618716181e+01 -1.836893455464e+01 0.0 
2.923057372337e+01 -1.098461757645e+01 0.0 
1.168343877486e+01 -1.114079645041e+01 0.0 
6.706222096238e+00 -8.780364234441e+00 0.0 
8.567858614669e+00 -6.943121440850e+00 0.0 
1.123755132901e+01 -5.753525820030e+00 0.0 
2.353456234423e+01 -1.008536320953e+01 0.0 
9.162073319168e+00 -1.045593739109e+01 0.0 
9.676343469685e+00 -1.496493008366e+01 0.0 
4.490637882905e+01 -1.628778970202e+01 0.0 
7.398129387772e+00 -9.639977982323e-01 0.0 
1.049641705805e+01 -1.552503975272e+01 0.0 
9.010356286268e+00 -1.242805042052e+01 0.0 
3.985573925497e+01 -1.399863651620e+01 0.0 
1.816196318262e+01 -1.554066497931e+01 0.0 
1.306332244168e+01 -3.963646550326e+00 0.0 
4.145850903932e+01 -1.608094559275e+01 0.0 
3.794664933633e+01 -1.779020121986e+01 0.0 
3.819614412903e+01 -1.290749321016e+01 0.0 
6.270014188119e+00 -3.255093186826e+00 0.0 
4.251165370388e+01 -1.263870364997e+01 0.0 
1.207347709171e+01 -1.763942826023e+01 0.0 
3.633240829927e+01 -1.577330481104e+01 0.0 
4.319052668832e+00 -6.101812561904e+00 0.0 
1.676492415806e+01 -1.151547901392e+01 0.0 
2.594059220037e+01 -1.074225223009e+01 0.0 
3.340750911501e+01 -9.898764354137e+00 0.0 
4.397619591281e+01 -1.769773736461e+01 0.0 
2.175611595028e+01 -1.185718747128e+01 0.0 
1.641818733106e+01 -1.640685203215e+01 0.0 
1.661211421753e+01 -1.346121366338e+01 0.0 
3.428853504935e+00 -6.551993389271e+00 0.0 
8.700728832502e+00 -1.638460872825e+01 0.0 
1.931369795309e+01 -1.121629383702e+01 0.0 
4.139798872363e+01 -1.706922153459e+01 0.0 
2.647837478700e+01 -1.507353829290e+01 0.0 
1.779469616424e+01 -9.161615782908e+00 0.0 
3.885879219319e+01 -1.642026488918e+01 0.0 
1.338194936770e+01 -1.125916521471e+01 0.0 
1.897071181111e+01 -1.609204322578e+01 0.0 
2.844308548793e+01 -1.046221003096e+01 0.0 
2.659854702194e+01 -1.316109415760e+01 0.0 
2.979604503271e+01 -1.433296157755e+01 0.0 
2.417694041347e+01 -1.251231397779e+01 0.0 
1.807401327411e+00 -1.388891148480e+01 0.0 
9.599810618782e+00 -1.595439365034e+01 0.0 
1.652144692160e+01 -4.205392788472e+00 0.0 
2.367839450246e+01 -8.188385218643e+00 0.0 
3.814894930468e+01 -1.390748338767e+01 0.0 
2.466448215774e+01 -1.685878545680e+01 0.0 
4.134044524611e+01 -1.806610045954e+01 0.0 
2.600511411958e+01 -9.801774120648e+00 0.0 
7.882158050716e+00 -1.582364037353e+01 0.0 
3.881607873422e+01 -1.737970515013e+01 0.0 
8.270182347708e+00 -1.088622154920e+01 0.0 
8.672520392520e-01 -4.532984309881e+00 0.0 
1.993447205337e+01 -3.579061902667e+00 0.0 
1.794616079549e+01 -7.238038888498e+00 0.0 
2.097277068165e+01 -1.132450168636e+01 0.0 
8.194803300681e+00 -1.187214224265e+01 0.0 
3.522279404911e+01 -1.823342818178e+01 0.0 
6.984481050295e+00 -1.625271465557e+01 0.0 
1.309433007797e+01 -1.521718594215e+01 0.0 
2.150246167611e+01 -1.885399038185e+00 0.0 
3.250689370209e+01 -1.028789870535e+01 0.0 
6.085886272238e+00 -1.668342132851e+01 0.0 
1.588455661727e+01 -1.193498985921e+01 0.0 
1.809323400821e+01 -1.651110084195e+01 0.0 
1.348885082381e+00 -1.136065576512e+01 0.0 
2.497670221995e+01 -1.834631276173e+01 0.0 
2.937062818424e+01 -8.233711194470e+00 0.0 
5.185823744469e+00 -1.711566910207e+01 0.0 
1.477497877209e+01 -1.530177014512e+01 0.0 
2.125346158933e+01 -7.473003997367e+00 0.0 
4.751561118290e+01 -1.084897772632e+01 0.0 
5.056026576843e+00 -1.825750475525e+01 0.0 
1.473948554523e+01 -1.634577436309e+01 0.0 
2.410566630936e+01 -1.345970002612e+01 0.0 
1.507337507513e+01 -1.138527895328e+01 0.0 
3.189857338687e+01 -8.887781229006e+00 0.0 
7.298712468334e+00 -1.230231046246e+01 0.0 
2.738235495295e+01 -1.368931690364e+01 0.0 
3.750141041969e+01 -1.920449893070e+01 0.0 
1.557271965640e+01 -1.683317951731e+01 0.0 
3.393731848929e+01 -1.413034777044e+01 0.0 
6.482156824153e+00 -1.174575135362e+01 0.0 
2.077971718439e+01 -1.421279621836e+01 0.0 
3.455084320178e+00 -2.562590040585e+00 0.0 
3.099056096250e+01 -9.270280416035e+00 0.0 
5.580176125418e+00 -1.217387969259e+01 0.0 
1.707247630389e+01 -7.660651981710e+00 0.0 
1.418658814174e+01 -1.180390575393e+01 0.0 
2.049103025389e+01 -1.811296706038e+01 0.0 
4.680386172316e+00 -1.260396879301e+01 0.0 
1.699679896554e+01 -8.624561788199e+00 0.0 
3.779470168555e+00 -1.303424899720e+01 0.0 
3.036589870126e+01 -7.879832518349e+00 0.0 
3.306993001774e+01 -1.457671062095e+01 0.0 
2.840150110165e+00 -1.346530088269e+01 0.0 
2.732011135052e+01 -1.464591214560e+01 0.0 
5.423639259568e+00 -2.659711955016e+00 0.0 
2.324455961696e+01 -1.387269388211e+01 0.0 
1.752768355571e+00 -1.693128613594e+01 0.0 
1.020244783051e+01 -8.076834012808e+00 0.0 
1.330873875224e+01 -1.222417528206e+01 0.0 
3.297727364880e+01 -1.555480372087e+01 0.0 
2.890929955439e+01 -6.868664170731e+00 0.0 
1.323294664622e+01 -1.320754260334e+01 0.0 
2.726532861246e+01 -1.560593120806e+01 0.0 
2.240020643398e+01 -1.429299177247e+01 0.0 
2.090445823633e+01 -1.228128621332e+01 0.0 
1.315809881502e+01 -1.420739326938e+01 0.0 
2.781328038068e+01 -7.181956082300e+00 0.0 
8.614200829057e+00 -5.936933226306e+00 0.0 
8.714765730069e+00 -4.979270529687e+00 0.0 
1.611881701099e+01 -9.041973294003e+00 0.0 
2.806830314340e+01 -1.614622947108e+01 0.0 
2.084435391396e+00 -3.385085422913e+00 0.0 
3.133211811152e+01 -1.542347619750e+01 0.0 
9.693114650768e+00 -3.590281506442e+00 0.0 
1.531883592202e+01 -8.504584946143e+00 0.0 
2.151589117094e+01 -1.578915763018e+01 0.0 
4.918943882696e+01 -1.355538828056e+01 0.0 
1.443236615188e+01 -8.918701794549e+00 0.0 
8.276250966452e-01 -5.537685192197e+00 0.0 
1.362790867918e+01 -8.374718262212e+00 0.0 
2.083767477370e+01 -1.324843956035e+01 0.0 
1.273834678703e+01 -8.790890389337e+00 0.0 
1.192275845670e+01 -8.242261327467e+00 0.0 
4.477236023583e+01 -1.824312396664e+01 0.0 
1.102989384254e+01 -8.649855800911e+00 0.0 
4.849096516045e+01 -1.917293752213e+01 0.0 
1.588996752238e+00 -1.910230934687e+01 0.0 
4.904245197583e+01 -1.159839008158e+01 0.0 
2.753852929608e+01 -5.782128488093e+00 0.0 
1.756133602833e+01 -8.306130313187e-01 0.0 
2.615423700951e+01 -6.153865090092e+00 0.0 
1.028818761294e+01 -7.122020845892e+00 0.0 
2.970818901196e+01 -1.527821347593e+01 0.0 
4.801461623449e+01 -1.164472570985e+01 0.0 
9.455722100419e+00 -6.546069291118e+00 0.0 
3.089099236677e+01 -1.835339328261e+01 0.0 
2.350000000013e+01 -1.920825896750e+01 0.0 
4.830620531887e+01 -1.506626155470e+01 0.0 
1.725381944701e+01 -1.688794487850e+01 0.0 
2.156246225273e+01 -1.475893794002e+01 0.0 
4.919319648787e+01 -1.742767505896e+01 0.0 
4.437935623576e+01 -1.077662927266e+01 0.0 
1.001520521978e+01 -1.652692675208e+00 0.0 
9.067160240050e-01 -1.441937727541e+01 0.0 
2.603365149390e+01 -4.755996613848e+00 0.0 
2.458344439002e+01 -4.873645517696e+00 0.0 
2.304312390142e+01 -3.836552768096e+00 0.0 
2.546923202198e+00 -6.902480355749e+00 0.0 
1.251534969393e+01 -2.490989965776e+00 0.0 
2.454061833377e+01 -3.933354231935e+00 0.0 
1.788186558740e+01 -1.827424884923e+01 0.0 
4.090785243552e+01 -1.166553231904e+01 0.0 
2.230128851568e+01 -1.623015738726e+01 0.0 
2.302362347568e+01 -2.916239960270e+00 0.0 
3.878119254461e+01 -1.830091164002e+01 0.0 
2.210081359958e+01 -1.829238229150e+01 0.0 
8.443704882233e+00 -1.921993252862e+01 0.0 
2.218405824691e+01 -1.724557581508e+01 0.0 
2.151157503963e+01 -2.790636689331e+00 0.0 
3.741658958955e+01 -1.250400191722e+01 0.0 
2.697247663737e+01 -1.838290202309e+01 0.0 
4.743362342862e+01 -1.585850773010e+01 0.0 
6.671345075358e+00 -1.924977576322e+01 0.0 
3.900825404537e+01 -1.157220003875e+01 0.0 
4.649692961375e+01 -1.836335837481e+01 0.0 
1.578831424832e+01 -3.678284023361e+00 0.0 
4.814208768888e+01 -1.841249298770e+01 0.0 
2.964123298315e+01 -1.625739458193e+01 0.0 
4.580760351902e+01 -1.284294554687e+01 0.0 
3.561520879615e+01 -1.245548941949e+01 0.0 
2.555418095658e+00 -1.841101588290e+01 0.0 
3.288468366144e+01 -1.834258164109e+01 0.0 
2.065894391445e+01 -2.240688571739e+00 0.0 
4.739171429915e+01 -1.496536413446e+01 0.0 
3.478086729185e+00 -8.576434653209e+00 0.0 
1.606010630246e+01 -1.588421807951e+00 0.0 
1.018329200594e+01 -1.834320874317e+01 0.0 
2.957213339430e+01 -1.720496954591e+01 0.0 
4.142712790164e+00 -1.837794506222e+01 0.0 
6.698721532573e-01 -2.499999999997e+00 0.0 
8.037039123140e+00 -1.571229354954e+00 0.0 
1.203541361428e+01 -1.847784298001e+01 0.0 
2.899968332038e+01 -1.848264722179e+01 0.0 
1.469229460948e+01 -4.219485753730e+00 0.0 
4.049590781957e+01 -1.932812501995e+01 0.0 
1.996211678340e+01 -1.506329754720e+00 0.0 
4.250588298353e+01 -1.067383247529e+01 0.0 
5.831497011152e+00 -1.635396227234e+00 0.0 
5.317606125670e+00 -1.923927974868e+01 0.0 
4.208546426993e+01 -1.842830665025e+01 0.0 
2.327553405011e+00 -9.459409929662e+00 0.0 
3.568351902251e+01 -1.096637218582e+01 0.0 
1.682104374890e+00 -6.231413350963e+00 0.0 
2.451812238018e+01 -1.766524914339e+01 0.0 
1.058003429638e+01 -2.391839617098e+00 0.0 
4.399988753123e+01 -1.851998776342e+01 0.0 
1.400000000010e+01 -1.852293523028e+01 0.0 
3.604719565984e+01 -1.850662876800e+01 0.0 
1.951297136734e+01 -1.938092349694e+01 0.0 
1.821365318472e+01 -1.531276353287e+00 0.0 
2.298031859732e+01 -1.854635324722e+01 0.0 
1.552168066204e+01 -1.764280741977e+01 0.0 
4.572957713638e+01 -1.073347898229e+01 0.0 
3.429637429624e+01 -1.838861552790e+01 0.0 
2.427434426052e+00 -7.705577451869e+00 0.0 
4.662792031485e+00 -3.359424455416e+00 0.0 
4.926794919243e+01 -1.926794919243e+01 0.0 
7.320508075690e-01 -7.320508075688e-01 0.0 
4.926794919243e+01 -1.073205080757e+01 0.0 
7.320508075705e-01 -1.926794919243e+01 0.0 
2.917460242467e+00 -3.202866455310e+00 0.0 
4.838200575963e+01 -1.232674147454e+01 0.0 
2.998445708009e+01 -1.854403752148e+01 0.0 
5.949940090766e-01 -1.152762038165e+01 0.0 
4.844763495759e+01 -1.678092548787e+01 0.0 
1.301685480160e+01 -3.170056592566e+00 0.0 
1.650046335855e+01 -6.731535384067e-01 0.0 
4.854881540991e+01 -1.405224059779e+01 0.0 
2.119545114693e+01 -1.846813384545e+01 0.0 
3.797852849897e+01 -1.857978513215e+01 0.0 
4.649823708745e+01 -1.338351810816e+01 0.0 
2.012685900976e+01 -2.889659035009e+00 0.0 
2.953271913273e+01 -1.791558075192e+01 0.0 
2.408509097292e+00 -1.021949208421e+01 0.0 
2.642589566221e+01 -1.773216561448e+01 0.0 
1.730010270775e+01 -1.763165076721e+01 0.0 
2.017406551304e+01 -8.513536440582e-01 0.0 
5.254761581934e-01 -1.249999999999e+01 0.0 
6.640448215642e+00 -1.545337834885e+00 0.0 
7.843361506349e+00 -1.852719839527e+01 0.0 
1.588442191088e+00 -1.066158564320e+01 0.0 
3.031250000000e+01 -6.420918367347e+00 0.0 
4.951250000000e+01 -6.500000000000e+00 0.0 
3.180701530612e+01 -7.414795918363e+00 0.0 
4.951250000000e+01 -7.500000000000e+00 0.0 
3.331250000000e+01 -8.420918367347e+00 0.0 
4.951470588234e+01 -8.500000000000e+00 0.0 
3.480610198624e+01 -9.413633635267e+00 0.0 
4.951470588234e+01 -9.500000000000e+00 0.0 

CELLS 2085 8340 
3 255 725 1001 
3 725 255 1003 
3 735 228 746 
3 848 613 1037 
3 615 675 841 
3 705 618 744 
3 235 657 659 
3 255 682 1003 
3 657 235 675 
3 608 843 1037 
3 227 802 803 
3 682 255 1017 
3 847 999 1043 
3 664 795 885 
3 999 261 1043 
3 254 848 1037 
3 663 234 804 
3 618 705 743 
3 242 662 984 
3 662 242 922 
3 843 608 996 
3 973 219 979 
3 700 973 979 
3 650 649 859 
3 349 505 794 
3 802 227 911 
3 109 82 1064 
3 694 220 936 
3 347 349 794 
3 859 649 1069 
3 599 809 811 
3 252 665 842 
3 735 746 1044 
3 19 240 715 
3 250 669 671 
3 678 66 1035 
3 66 678 1061 
3 697 246 741 
3 661 100 1014 
3 100 661 1075 
3 937 679 963 
3 215 701 840 
3 1018 216 1022 
3 82 264 1064 
3 656 263 1013 
3 695 1018 1022 
3 809 599 812 
3 263 656 1039 
3 805 806 812 
3 795 664 1036 
3 257 700 937 
3 647 662 922 
3 425 1038 1056 
3 257 937 963 
3 747 229 927 
3 1020 592 1065 
3 647 922 991 
3 240 685 715 
3 508 836 954 
3 843 254 1037 
3 214 1048 1089 
3 1028 654 1030 
3 474 502 708 
3 1038 811 1056 
3 819 638 1043 
3 700 257 973 
3 1048 658 1089 
3 228 735 1008 
3 535 496 817 
3 224 683 749 
3 911 854 965 
3 33 32 703 
3 694 936 1066 
3 4 5 829 
3 826 1020 1065 
3 666 231 917 
3 747 927 1076 
3 714 1019 1026 
3 836 508 1078 
3 1019 256 1026 
3 496 509 817 
3 234 663 1024 
3 219 725 979 
3 725 219 1001 
3 675 615 887 
3 657 675 887 
3 686 911 1016 
3 18 19 715 
3 740 737 985 
3 615 841 1024 
3 842 665 1015 
3 266 793 1064 
3 839 1010 1034 
3 1034 1010 1046 
3 232 33 703 
3 741 246 1071 
3 663 804 1036 
3 840 701 1049 
3 260 692 989 
3 708 502 709 
3 841 675 1059 
3 261 819 1043 
3 422 988 1012 
3 653 1028 1030 
3 543 541 719 
3 806 809 812 
3 846 847 969 
3 612 839 1034 
3 214 805 812 
3 942 237 1061 
3 387 740 985 
3 4 829 1080 
3 610 706 742 
3 577 893 931 
3 621 823 1047 
3 681 708 709 
3 476 474 708 
3 250 671 1029 
3 692 260 1084 
3 680 476 708 
3 711 641 986 
3 264 266 1064 
3 839 612 1087 
3 476 680 719 
3 1031 930 1045 
3 696 946 955 
3 823 621 1077 
3 946 221 955 
3 231 666 1057 
3 643 1031 1045 
3 802 911 965 
3 613 848 1039 
3 550 607 707 
3 221 679 955 
3 669 250 1049 
3 847 604 999 
3 686 854 911 
3 707 607 907 
3 651 779 1069 
3 583 699 707 
3 633 844 845 
3 683 224 1055 
3 885 795 1032 
3 492 464 713 
3 699 550 707 
3 679 221 963 
3 607 745 907 
3 719 545 914 
3 235 659 1014 
3 706 341 742 
3 665 252 1053 
3 1000 1006 1084 
3 830 242 984 
3 258 696 931 
3 779 651 788 
3 680 543 719 
3 715 686 1016 
3 682 216 1018 
3 988 648 1012 
3 241 687 688 
3 702 341 706 
3 685 240 969 
3 535 711 986 
3 847 606 969 
3 722 595 750 
3 237 942 1051 
3 1000 605 1006 
3 541 545 719 
3 893 258 931 
3 227 803 1100 
3 216 682 1017 
3 341 702 716 
3 464 515 713 
3 687 241 1075 
3 545 706 914 
3 696 258 946 
3 589 778 983 
3 823 524 1047 
3 220 694 1009 
3 749 683 1033 
3 681 709 1003 
3 524 823 1063 
3 766 896 950 
3 699 583 937 
3 682 681 1003 
3 722 577 931 
3 706 610 914 
3 230 843 996 
3 353 762 972 
3 240 846 969 
3 695 256 1019 
3 551 716 940 
3 737 762 985 
3 81 110 704 
3 583 679 937 
3 939 611 943 
3 835 967 1060 
3 850 243 1076 
3 348 273 755 
3 970 329 997 
3 459 939 943 
3 793 266 1042 
3 794 505 1032 
3 649 651 1069 
3 980 871 1007 
3 717 288 745 
3 547 437 750 
3 354 348 755 
3 544 722 750 
3 595 722 931 
3 493 953 993 
3 778 627 983 
3 704 238 705 
3 709 725 1003 
3 709 502 724 
3 607 717 745 
3 762 732 972 
3 618 617 923 
3 611 710 929 
3 661 687 1075 
3 716 702 940 
3 407 929 978 
3 667 877 1101 
3 753 354 755 
3 877 223 1101 
3 835 836 967 
3 256 695 1022 
3 980 623 981 
3 727 354 753 
3 623 622 981 
3 603 712 718 
3 429 810 882 
3 641 818 986 
3 896 459 950 
3 595 547 750 
3 638 819 1051 
3 110 238 704 
3 512 542 718 
3 302 341 716 
3 700 699 937 
3 710 611 939 
3 678 942 1061 
3 964 353 972 
3 411 393 748 
3 459 943 950 
3 911 227 1016 
3 745 355 907 
3 754 755 951 
3 654 1028 1073 
3 302 716 723 
3 542 603 718 
3 272 544 720 
3 703 32 1057 
3 288 717 892 
3 761 304 900 
3 688 687 689 
3 817 509 1021 
3 544 721 722 
3 511 411 748 
3 617 751 852 
3 599 811 1038 
3 354 727 889 
3 437 720 750 
3 476 719 914 
3 727 566 889 
3 762 353 985 
3 355 726 868 
3 222 676 1035 
3 552 761 900 
3 280 546 726 
3 610 742 873 
3 552 760 761 
3 394 410 751 
3 792 233 793 
3 306 303 723 
3 423 774 775 
3 754 964 972 
3 110 111 238 
3 544 270 721 
3 393 391 748 
3 467 512 718 
3 396 394 751 
3 275 272 720 
3 665 711 1015 
3 503 593 724 
3 552 759 760 
3 720 544 750 
3 792 793 794 
3 513 618 743 
3 423 775 777 
3 424 427 774 
3 709 724 725 
3 754 951 964 
3 502 503 724 
3 389 306 723 
3 716 551 723 
3 513 617 618 
3 742 298 873 
3 642 712 714 
3 37 229 747 
3 39 243 746 
3 289 288 892 
3 410 393 411 
3 466 467 525 
3 281 280 726 
3 410 411 466 
3 423 424 774 
3 355 868 907 
3 844 633 1062 
3 748 551 940 
3 953 609 993 
3 642 525 712 
3 247 57 767 
3 466 411 467 
3 286 355 745 
3 513 417 617 
3 789 482 897 
3 303 302 723 
3 427 771 774 
3 546 437 547 
3 42 768 769 
3 391 389 551 
3 552 380 759 
3 526 525 642 
3 757 442 880 
3 929 710 978 
3 542 543 601 
3 616 757 880 
3 245 45 749 
3 519 611 929 
3 41 228 768 
3 885 505 915 
3 740 387 1005 
3 603 601 695 
3 548 547 580 
3 280 437 546 
3 280 278 437 
3 356 892 918 
3 220 47 752 
3 347 794 1042 
3 721 577 722 
3 551 389 723 
3 622 818 981 
3 580 595 696 
3 542 541 543 
3 241 688 941 
3 427 770 771 
3 391 551 748 
3 731 753 754 
3 512 541 542 
3 546 547 548 
3 380 382 759 
3 555 782 869 
3 50 244 758 
3 583 581 679 
3 395 397 777 
3 636 970 997 
3 602 681 682 
3 601 543 602 
3 737 734 762 
3 286 284 355 
3 593 699 700 
3 548 580 581 
3 54 246 763 
3 246 697 1023 
3 734 732 762 
3 754 753 755 
3 782 322 869 
3 474 475 502 
3 394 393 410 
3 392 391 393 
3 288 286 745 
3 569 789 897 
3 337 783 784 
3 730 728 731 
3 397 423 777 
3 471 356 472 
3 726 546 868 
3 473 472 474 
3 228 40 746 
3 243 38 747 
3 243 850 1044 
3 555 781 782 
3 566 468 889 
3 542 601 603 
3 390 389 391 
3 617 417 751 
3 503 550 593 
3 791 792 795 
3 757 885 915 
3 767 765 859 
3 738 737 740 
3 272 270 544 
3 279 278 280 
3 417 396 751 
3 814 816 817 
3 341 300 742 
3 294 292 356 
3 300 298 742 
3 211 930 1031 
3 688 689 690 
3 818 622 986 
3 467 511 512 
3 57 56 767 
3 401 403 493 
3 265 577 721 
3 242 830 1052 
3 892 717 918 
3 302 300 341 
3 278 275 720 
3 224 43 769 
3 580 547 595 
3 284 281 726 
3 337 784 790 
3 728 727 753 
3 555 780 781 
3 44 224 749 
3 41 40 228 
3 37 36 229 
3 39 38 243 
3 277 275 278 
3 731 728 753 
3 736 734 737 
3 474 472 475 
3 502 475 503 
3 786 783 870 
3 730 731 732 
3 46 245 752 
3 645 566 727 
3 759 493 760 
3 645 727 728 
3 486 484 787 
3 294 356 471 
3 593 550 699 
3 466 525 526 
3 232 703 1027 
3 473 474 476 
3 867 586 936 
3 783 337 870 
3 428 431 770 
3 247 767 859 
3 512 540 541 
3 42 41 768 
3 243 747 1076 
3 285 284 286 
3 814 815 816 
3 44 43 224 
3 212 763 764 
3 427 428 770 
3 382 401 759 
3 218 51 758 
3 118 213 815 
3 471 472 473 
3 283 281 284 
3 287 286 288 
3 355 284 726 
3 525 467 718 
3 46 45 245 
3 388 306 389 
3 514 513 743 
3 676 222 1102 
3 815 213 816 
3 582 581 583 
3 809 810 811 
3 696 595 931 
3 212 55 763 
3 48 47 220 
3 437 278 720 
3 806 808 809 
3 655 514 743 
3 809 808 810 
3 899 597 912 
3 791 233 792 
3 267 265 721 
3 50 49 244 
3 249 791 795 
3 229 36 756 
3 489 486 787 
3 616 664 757 
3 602 680 681 
3 401 493 759 
3 617 852 923 
3 52 51 218 
3 40 39 746 
3 38 37 747 
3 555 363 780 
3 358 360 786 
3 294 471 873 
3 363 365 780 
3 54 53 246 
3 467 411 511 
3 774 773 775 
3 771 772 773 
3 506 616 880 
3 58 247 779 
3 806 807 808 
3 56 55 212 
3 770 635 771 
3 43 42 769 
3 736 737 738 
3 117 118 815 
3 471 610 873 
3 565 468 566 
3 45 44 749 
3 277 278 279 
3 532 489 533 
3 526 642 643 
3 765 764 766 
3 527 634 635 
3 771 635 772 
3 805 248 806 
3 47 46 752 
3 751 410 852 
3 519 567 611 
3 616 663 664 
3 853 585 872 
3 771 773 774 
3 279 280 281 
3 51 50 758 
3 360 462 786 
3 371 407 477 
3 291 289 292 
3 630 523 631 
3 775 773 776 
3 780 477 781 
3 292 289 892 
3 628 485 902 
3 401 402 403 
3 293 292 294 
3 330 332 790 
3 512 511 540 
3 358 786 870 
3 533 489 787 
3 357 380 552 
3 56 212 767 
3 644 566 645 
3 528 853 872 
3 55 54 763 
3 212 764 765 
3 299 298 300 
3 806 248 807 
3 59 779 788 
3 729 728 730 
3 431 527 770 
3 58 57 247 
3 365 371 780 
3 503 549 550 
3 270 267 721 
3 357 552 900 
3 361 555 869 
3 523 482 789 
3 755 273 951 
3 582 707 907 
3 403 421 422 
3 690 689 691 
3 332 337 790 
3 382 384 401 
3 527 584 634 
3 554 376 855 
3 116 117 813 
3 541 540 545 
3 527 635 770 
3 783 625 784 
3 297 295 298 
3 371 477 780 
3 506 614 616 
3 431 494 527 
3 59 58 779 
3 283 284 285 
3 553 624 625 
3 285 286 287 
3 553 625 783 
3 813 117 815 
3 269 267 270 
3 822 821 823 
3 223 123 837 
3 462 517 553 
3 371 406 407 
3 851 521 876 
3 631 789 933 
3 631 523 789 
3 265 225 577 
3 249 107 791 
3 646 756 949 
3 287 288 289 
3 123 124 837 
3 641 561 818 
3 807 813 814 
3 623 980 1007 
3 539 589 983 
3 619 851 876 
3 416 899 912 
3 340 338 849 
3 378 376 554 
3 519 530 567 
3 436 417 513 
3 253 821 822 
3 226 825 826 
3 215 60 788 
3 60 59 788 
3 821 820 824 
3 553 517 624 
3 361 363 555 
3 567 649 650 
3 561 480 818 
3 414 499 519 
3 835 833 836 
3 462 553 786 
3 784 625 785 
3 239 832 833 
3 253 820 821 
3 565 566 644 
3 124 125 834 
3 108 233 791 
3 108 109 233 
3 482 386 897 
3 226 10 825 
3 527 494 584 
3 712 525 718 
3 672 670 673 
3 752 245 867 
3 556 450 883 
3 602 543 680 
3 665 641 711 
3 548 581 582 
3 104 234 841 
3 103 104 841 
3 124 834 837 
3 834 833 835 
3 828 830 831 
3 404 345 479 
3 239 827 832 
3 820 217 824 
3 214 114 805 
3 345 340 849 
3 693 691 713 
3 106 107 249 
3 589 684 778 
3 365 370 371 
3 690 691 692 
3 10 11 825 
3 828 831 832 
3 30 29 844 
3 231 30 844 
3 616 614 663 
3 234 105 804 
3 825 822 826 
3 28 230 845 
3 479 345 849 
3 107 108 791 
3 106 249 804 
3 580 696 955 
3 36 35 756 
3 844 29 845 
3 239 833 834 
3 125 239 834 
3 640 561 641 
3 784 785 921 
3 846 604 847 
3 113 114 214 
3 251 838 839 
3 115 248 805 
3 522 482 523 
3 115 116 248 
3 114 115 805 
3 629 523 630 
3 575 638 639 
3 692 691 693 
3 868 582 907 
3 827 828 832 
3 377 378 857 
3 25 24 848 
3 254 25 848 
3 105 106 804 
3 458 386 482 
3 29 28 845 
3 532 533 648 
3 828 829 830 
3 827 262 828 
3 828 262 829 
3 11 12 253 
3 261 69 819 
3 80 79 263 
3 127 262 827 
3 13 217 820 
3 70 69 261 
3 68 237 819 
3 61 215 840 
3 76 236 838 
3 78 77 251 
3 69 68 819 
3 68 67 237 
3 251 77 838 
3 127 128 262 
3 101 102 235 
3 104 105 234 
3 239 126 827 
3 65 64 222 
3 250 62 840 
3 63 62 250 
3 126 127 827 
3 125 126 239 
3 61 60 215 
3 62 61 840 
3 76 75 236 
3 98 99 241 
3 77 76 838 
3 74 73 260 
3 96 97 605 
3 122 123 223 
3 120 121 252 
3 119 120 842 
3 118 119 213 
3 13 14 217 
3 12 13 820 
3 120 252 842 
3 16 17 227 
3 213 119 842 
3 34 33 232 
3 28 27 230 
3 31 30 231 
3 6 7 242 
3 9 10 226 
3 27 26 843 
3 19 20 240 
3 26 25 254 
3 20 21 846 
3 21 22 604 
3 253 12 820 
3 230 27 843 
3 26 254 843 
3 240 20 846 
3 21 604 846 
3 469 470 854 
3 248 116 813 
3 360 461 462 
3 834 835 837 
3 672 673 674 
3 553 783 786 
3 435 419 856 
3 404 479 480 
3 967 668 1060 
3 575 639 856 
3 462 463 517 
3 253 822 825 
3 419 481 856 
3 612 613 656 
3 11 253 825 
3 407 406 414 
3 369 367 420 
3 469 418 470 
3 537 469 854 
3 388 389 390 
3 582 583 707 
3 298 295 873 
3 377 376 378 
3 481 574 575 
3 685 537 686 
3 528 622 623 
3 600 521 608 
3 516 465 521 
3 661 660 687 
3 375 373 376 
3 418 377 857 
3 612 600 613 
3 516 600 612 
3 420 367 879 
3 575 606 638 
3 478 450 556 
3 685 686 715 
3 676 674 677 
3 608 521 851 
3 455 453 456 
3 371 370 406 
3 415 497 498 
3 434 520 528 
3 640 641 665 
3 807 248 813 
3 516 521 600 
3 575 574 606 
3 814 813 815 
3 733 732 734 
3 659 559 660 
3 405 419 435 
3 481 537 574 
3 584 585 636 
3 574 537 685 
3 659 660 661 
3 401 384 402 
3 676 677 678 
3 647 529 662 
3 671 670 672 
3 464 456 465 
3 498 529 592 
3 528 623 853 
3 800 798 801 
3 452 454 558 
3 339 343 358 
3 515 465 516 
3 455 464 492 
3 624 517 796 
3 686 537 854 
3 481 469 537 
3 464 465 515 
3 457 409 495 
3 517 463 518 
3 490 576 652 
3 456 863 876 
3 462 461 463 
3 369 420 855 
3 669 597 670 
3 455 456 464 
3 598 514 655 
3 572 667 668 
3 398 396 417 
3 481 575 856 
3 454 453 455 
3 802 800 803 
3 558 559 657 
3 519 499 530 
3 796 518 797 
3 419 469 481 
3 498 497 529 
3 672 674 676 
3 517 518 796 
3 592 529 647 
3 518 463 865 
3 358 359 360 
3 344 340 345 
3 799 800 802 
3 122 223 877 
3 252 121 877 
3 470 418 857 
3 415 457 497 
3 375 376 377 
3 376 373 855 
3 332 336 337 
3 431 432 494 
3 478 556 557 
3 744 618 1094 
3 360 460 461 
3 567 530 649 
3 497 457 508 
3 558 454 559 
3 657 559 659 
3 560 480 561 
3 596 563 597 
3 449 447 450 
3 415 409 457 
3 632 556 901 
3 557 556 632 
3 352 409 415 
3 681 680 708 
3 346 345 404 
3 419 418 469 
3 797 798 799 
3 645 728 729 
3 478 557 619 
3 405 377 418 
3 375 377 405 
3 404 480 560 
3 405 418 419 
3 449 450 451 
3 799 798 800 
3 452 453 454 
3 451 450 478 
3 304 305 900 
3 863 619 876 
3 463 524 865 
3 797 518 798 
3 460 359 620 
3 334 331 335 
3 452 451 453 
3 326 328 361 
3 344 346 352 
3 572 561 640 
3 449 451 452 
3 344 345 346 
3 669 670 671 
3 456 453 863 
3 405 435 858 
3 212 765 767 
3 463 461 524 
3 352 346 409 
3 560 561 572 
3 374 373 375 
3 455 492 862 
3 572 640 667 
3 358 343 359 
3 662 529 860 
3 452 558 861 
3 360 359 460 
3 373 369 855 
3 460 620 621 
3 521 465 876 
3 343 340 344 
3 368 372 416 
3 528 520 622 
3 372 369 373 
3 801 798 865 
3 374 375 858 
3 775 776 957 
3 529 497 860 
3 660 559 862 
3 522 523 629 
3 472 356 918 
3 454 455 862 
3 434 528 872 
3 446 448 506 
3 497 508 860 
3 673 670 899 
3 458 482 522 
3 403 402 421 
3 557 632 633 
3 361 362 363 
3 495 409 866 
3 366 364 367 
3 596 597 669 
3 584 494 585 
3 375 405 858 
3 453 451 863 
3 428 430 431 
3 368 367 369 
3 614 507 615 
3 498 592 898 
3 339 340 343 
3 291 292 293 
3 372 373 374 
3 503 475 549 
3 293 294 295 
3 448 447 449 
3 559 454 862 
3 506 507 614 
3 798 518 865 
3 536 438 563 
3 363 364 365 
3 558 657 887 
3 735 734 736 
3 422 421 490 
3 368 369 372 
3 451 478 863 
3 332 334 336 
3 336 338 339 
3 404 560 866 
3 365 366 370 
3 339 358 870 
3 448 449 861 
3 506 448 507 
3 308 310 357 
3 849 338 871 
3 390 391 392 
3 339 338 340 
3 336 334 338 
3 346 404 866 
3 414 438 499 
3 327 325 329 
3 478 619 863 
3 323 325 326 
3 365 364 366 
3 361 328 362 
3 297 298 299 
3 409 346 866 
3 536 563 596 
3 536 596 701 
3 483 485 628 
3 332 331 334 
3 363 362 364 
3 449 452 861 
3 337 336 870 
3 471 473 610 
3 343 344 864 
3 494 432 872 
3 330 331 332 
3 344 352 864 
3 415 498 890 
3 362 328 562 
3 366 367 368 
3 501 538 539 
3 121 122 877 
3 319 317 320 
3 323 321 324 
3 330 329 331 
3 507 448 861 
3 326 327 328 
3 359 343 864 
3 327 329 330 
3 465 456 876 
3 620 359 864 
3 572 668 886 
3 866 560 886 
3 585 494 872 
3 334 335 871 
3 319 321 322 
3 326 325 327 
3 434 496 520 
3 495 866 886 
3 757 664 885 
3 864 352 890 
3 414 406 438 
3 487 500 501 
3 271 270 272 
3 510 444 531 
3 539 588 589 
3 305 308 900 
3 485 487 902 
3 432 433 434 
3 330 790 874 
3 301 300 302 
3 424 426 427 
3 496 433 509 
3 336 339 870 
3 323 324 325 
3 322 321 323 
3 620 864 890 
3 326 361 869 
3 319 320 321 
3 315 317 318 
3 338 334 871 
3 385 383 386 
3 446 447 448 
3 315 313 316 
3 499 438 536 
3 431 430 432 
3 649 530 651 
3 322 323 869 
3 589 683 684 
3 282 281 283 
3 432 434 872 
3 274 272 275 
3 564 468 565 
3 322 782 905 
3 545 702 706 
3 276 275 277 
3 356 292 892 
3 434 433 496 
3 666 637 703 
3 520 496 535 
3 697 591 698 
3 851 619 894 
3 408 386 458 
3 861 558 887 
3 445 444 510 
3 318 317 319 
3 357 379 380 
3 594 531 637 
3 368 416 875 
3 443 445 446 
3 522 629 710 
3 432 430 433 
3 443 441 444 
3 752 867 936 
3 536 701 888 
3 327 330 874 
3 507 861 887 
3 615 507 887 
3 323 326 869 
3 370 366 875 
3 406 370 878 
3 560 572 886 
3 392 393 394 
3 311 313 314 
3 315 316 317 
3 295 294 873 
3 594 637 666 
3 730 732 733 
3 619 557 894 
3 550 549 607 
3 440 412 468 
3 366 368 875 
3 632 901 917 
3 413 441 442 
3 328 327 874 
3 311 309 312 
3 443 444 445 
3 510 531 594 
3 450 447 883 
3 446 445 447 
3 597 563 912 
3 590 504 591 
3 563 438 878 
3 367 364 879 
3 679 581 955 
3 385 408 439 
3 350 348 354 
3 352 415 890 
3 314 313 315 
3 631 933 945 
3 380 381 382 
3 397 399 423 
3 311 312 313 
3 382 383 384 
3 548 582 868 
3 562 328 874 
3 442 757 915 
3 675 235 1059 
3 84 202 211 
3 364 362 879 
3 408 458 459 
3 729 730 850 
3 357 310 379 
3 362 562 879 
3 446 506 880 
3 85 203 256 
3 385 386 408 
3 381 379 569 
3 546 548 868 
3 370 875 878 
3 427 426 428 
3 438 406 878 
3 530 499 888 
3 384 383 385 
3 447 445 883 
3 491 489 532 
3 499 536 888 
3 86 204 216 
3 442 443 880 
3 652 576 653 
3 445 510 883 
3 382 381 383 
3 310 309 311 
3 952 624 956 
3 436 513 514 
3 556 883 901 
3 890 498 898 
3 87 205 255 
3 488 486 489 
3 557 633 894 
3 428 429 430 
3 290 289 291 
3 442 441 443 
3 921 785 926 
3 423 399 424 
3 545 540 702 
3 509 433 882 
3 428 426 429 
3 430 429 882 
3 380 379 381 
3 756 35 949 
3 88 206 219 
3 670 597 899 
3 307 306 388 
3 351 413 915 
3 398 417 436 
3 651 530 888 
3 433 430 882 
3 621 620 898 
3 402 384 881 
3 319 322 905 
3 490 504 576 
3 473 476 914 
3 350 354 889 
3 590 591 697 
3 443 446 880 
3 730 733 850 
3 441 440 904 
3 440 468 564 
3 410 466 852 
3 673 899 919 
3 413 440 441 
3 304 761 925 
3 89 207 257 
3 590 697 741 
3 395 394 396 
3 620 890 898 
3 490 421 504 
3 242 7 922 
3 296 295 297 
3 385 439 881 
3 564 565 884 
3 565 644 646 
3 384 385 881 
3 531 444 904 
3 305 303 306 
3 487 501 902 
3 90 208 221 
3 736 738 739 
3 91 209 258 
3 210 91 893 
3 308 357 900 
3 82 210 225 
3 578 333 579 
3 299 300 301 
3 311 314 891 
3 424 399 425 
3 308 309 310 
3 510 594 901 
3 733 734 735 
3 416 372 919 
3 576 504 590 
3 318 319 905 
3 440 564 904 
3 310 311 891 
3 674 673 928 
3 444 441 904 
3 468 412 889 
3 386 383 897 
3 305 307 308 
3 501 500 538 
3 279 281 282 
3 424 425 426 
3 395 396 397 
3 610 473 914 
3 287 289 290 
3 677 674 932 
3 413 412 440 
3 308 307 309 
3 483 628 908 
3 439 408 896 
3 883 510 901 
3 539 538 588 
3 505 351 915 
3 611 567 943 
3 379 310 891 
3 408 459 896 
3 293 295 296 
3 637 531 920 
3 589 588 683 
3 381 569 897 
3 397 396 398 
3 491 532 534 
3 296 333 571 
3 305 306 307 
3 383 381 897 
3 414 519 929 
3 397 398 399 
3 569 379 891 
3 274 275 276 
3 677 932 938 
3 276 277 387 
3 488 489 491 
3 271 272 274 
3 268 267 269 
3 282 283 342 
3 591 504 906 
3 899 416 919 
3 351 412 413 
3 565 646 884 
3 269 270 271 
3 388 390 568 
3 491 534 587 
3 901 594 917 
3 297 299 895 
3 296 297 333 
3 307 388 903 
3 412 350 889 
3 549 475 918 
3 578 579 609 
3 475 472 918 
3 421 402 906 
3 587 654 694 
3 312 309 903 
3 436 514 570 
3 644 645 927 
3 607 549 717 
3 945 318 958 
3 587 534 654 
3 351 350 412 
3 875 416 912 
3 301 302 303 
3 570 514 598 
3 938 639 942 
3 290 291 400 
3 403 422 953 
3 538 500 586 
3 598 655 658 
3 878 875 912 
3 511 748 940 
3 349 351 505 
3 420 926 947 
3 309 307 903 
3 674 928 932 
3 571 333 578 
3 388 568 903 
3 290 400 483 
3 570 598 599 
3 485 486 487 
3 402 881 906 
3 684 683 1055 
3 487 488 500 
3 395 777 924 
3 372 374 919 
3 594 666 917 
3 741 218 959 
3 504 421 906 
3 304 303 305 
3 483 484 485 
3 856 639 938 
3 800 801 935 
3 487 486 488 
3 413 442 915 
3 673 919 928 
3 563 878 912 
3 98 241 941 
3 605 97 941 
3 274 276 353 
3 485 484 486 
3 554 855 947 
3 282 342 573 
3 579 333 895 
3 766 950 1074 
3 301 303 304 
3 34 232 949 
3 266 265 267 
3 333 297 895 
3 420 879 926 
3 392 394 395 
3 562 874 921 
3 483 400 484 
3 285 287 908 
3 349 350 351 
3 573 342 626 
3 573 626 627 
3 831 830 984 
3 874 790 921 
3 717 549 918 
3 277 279 909 
3 387 277 909 
3 698 591 934 
3 7 8 922 
3 425 399 913 
3 291 293 910 
3 790 784 921 
3 91 258 893 
3 225 210 893 
3 349 348 350 
3 466 526 852 
3 926 785 947 
3 459 458 939 
3 399 398 913 
3 220 752 936 
3 904 564 920 
3 625 624 952 
3 919 374 928 
3 836 833 954 
3 522 710 939 
3 400 291 910 
3 832 831 954 
3 531 904 920 
3 398 436 913 
3 279 282 909 
3 287 290 908 
3 315 318 945 
3 781 477 974 
3 564 884 920 
3 477 407 978 
3 296 571 910 
3 293 296 910 
3 202 83 930 
3 436 570 913 
3 488 491 916 
3 268 269 273 
3 491 587 916 
3 540 511 940 
3 732 731 972 
3 586 500 916 
3 577 225 893 
3 500 488 916 
3 374 858 928 
3 787 484 944 
3 562 921 926 
3 879 562 926 
3 645 729 927 
3 782 781 971 
3 290 483 908 
3 761 760 977 
3 407 414 929 
3 895 299 925 
3 924 777 957 
3 789 569 933 
3 568 390 924 
3 282 573 909 
3 568 924 957 
3 342 283 948 
3 591 906 934 
3 906 881 934 
3 299 301 925 
3 347 348 349 
3 928 858 932 
3 858 435 932 
3 526 643 923 
3 342 948 966 
3 677 938 942 
3 593 700 979 
3 554 952 956 
3 211 202 930 
3 932 435 938 
3 392 395 924 
3 803 800 935 
3 953 422 1012 
3 347 273 348 
3 268 273 347 
3 400 910 944 
3 90 221 946 
3 258 209 946 
3 435 856 938 
3 974 477 978 
3 631 945 958 
3 458 522 939 
3 891 314 933 
3 390 392 924 
3 209 90 946 
3 266 267 268 
3 97 98 941 
3 881 439 934 
3 301 304 925 
3 590 741 959 
3 574 685 969 
3 569 891 933 
3 678 677 942 
3 957 776 961 
3 653 576 959 
3 910 571 944 
3 533 787 968 
3 567 650 943 
3 331 329 970 
3 908 628 948 
3 933 314 945 
3 285 908 948 
3 702 540 940 
3 648 533 976 
3 314 315 945 
3 855 420 947 
3 283 285 948 
3 1045 259 1058 
3 760 493 993 
3 714 211 1031 
3 495 886 967 
3 554 947 952 
3 501 539 975 
3 273 269 951 
3 89 257 963 
3 35 34 949 
3 83 201 259 
3 221 208 963 
3 630 631 958 
3 624 796 956 
3 581 580 955 
3 987 772 990 
3 971 781 974 
3 484 400 944 
3 493 403 953 
3 738 1040 1050 
3 852 526 923 
3 785 625 952 
3 956 796 960 
3 849 871 980 
3 264 225 265 
3 269 271 951 
3 18 715 1016 
3 833 832 954 
3 658 655 1002 
3 818 480 981 
3 796 797 960 
3 312 961 982 
3 773 772 987 
3 777 775 957 
3 378 554 956 
3 274 353 964 
3 960 797 962 
3 312 903 961 
3 948 628 966 
3 664 663 1036 
3 422 490 988 
3 797 799 962 
3 378 956 960 
3 88 219 973 
3 316 313 982 
3 962 799 965 
3 236 75 989 
3 74 260 989 
3 257 207 973 
3 857 378 960 
3 635 634 992 
3 714 712 1019 
3 576 590 959 
3 622 520 986 
3 992 634 994 
3 977 760 993 
3 208 89 963 
3 799 802 965 
3 9 226 991 
3 264 265 266 
3 857 960 962 
3 318 905 958 
3 947 785 952 
3 705 744 1058 
3 1013 251 1087 
3 320 317 990 
3 896 766 1011 
3 533 968 976 
3 470 857 962 
3 470 962 965 
3 961 776 982 
3 535 817 1067 
3 744 1045 1058 
3 854 470 965 
3 943 650 950 
3 584 636 995 
3 628 902 966 
3 725 724 979 
3 626 342 966 
3 701 215 1054 
3 111 112 1002 
3 24 23 998 
3 71 70 999 
3 73 72 1000 
3 324 321 994 
3 787 944 968 
3 903 568 961 
3 886 668 967 
3 83 259 930 
3 851 894 996 
3 271 274 964 
3 82 225 264 
3 48 220 1009 
3 922 8 991 
3 244 49 1009 
3 951 271 964 
3 329 325 997 
3 944 571 968 
3 324 994 995 
3 603 695 1019 
3 995 636 997 
3 353 276 985 
3 606 574 969 
3 320 990 992 
3 626 966 975 
3 1002 112 1089 
3 316 982 987 
3 731 754 972 
3 335 331 970 
3 636 585 1004 
3 571 578 968 
3 810 429 1056 
3 87 255 1001 
3 219 206 1001 
3 335 1004 1007 
3 630 958 971 
3 895 925 977 
3 966 902 975 
3 735 736 1008 
3 207 88 973 
3 838 236 1010 
3 683 588 1033 
3 568 957 961 
3 211 714 1026 
3 724 593 979 
3 905 782 971 
3 573 627 1005 
3 958 905 971 
3 618 923 1094 
3 629 630 974 
3 695 601 1018 
3 925 761 977 
3 630 971 974 
3 968 578 976 
3 492 713 1093 
3 871 335 1007 
3 642 714 1031 
3 629 974 978 
3 602 682 1018 
3 1002 655 1072 
3 263 79 1013 
3 78 251 1013 
3 816 213 1015 
3 710 629 978 
3 479 980 981 
3 479 849 980 
3 975 539 983 
3 578 609 976 
3 902 501 975 
3 316 987 990 
3 100 101 1014 
3 250 840 1049 
3 480 479 981 
3 439 896 1011 
3 579 895 977 
3 662 860 984 
3 387 909 1005 
3 313 312 982 
3 814 817 1021 
3 776 773 987 
3 17 18 1016 
3 276 387 985 
3 520 535 986 
3 803 935 1086 
3 627 626 983 
3 490 652 988 
3 970 636 1004 
3 991 226 1065 
3 579 977 993 
3 75 74 989 
3 808 807 1021 
3 867 245 1033 
3 746 243 1044 
3 260 1000 1084 
3 703 637 1027 
3 768 228 1008 
3 317 316 990 
3 320 992 994 
3 764 763 1023 
3 238 111 1002 
3 8 9 991 
3 803 1086 1100 
3 335 970 1004 
3 772 635 992 
3 86 216 1017 
3 255 205 1017 
3 663 614 1024 
3 982 776 987 
3 898 592 1020 
3 532 648 1025 
3 222 64 1029 
3 63 250 1029 
3 321 320 994 
3 249 795 1036 
3 658 1002 1089 
3 85 256 1022 
3 811 810 1056 
3 216 204 1022 
3 609 579 993 
3 634 584 995 
3 990 772 992 
3 812 599 1048 
3 656 1013 1087 
3 994 634 995 
3 608 851 996 
3 516 612 1034 
3 848 24 998 
3 70 261 999 
3 260 73 1000 
3 324 995 997 
3 206 87 1001 
3 325 324 997 
3 66 65 1035 
3 84 211 1026 
3 256 203 1026 
3 698 934 1011 
3 841 234 1024 
3 613 600 1037 
3 626 975 983 
3 652 653 1030 
3 738 740 1040 
3 689 687 1041 
3 1004 853 1007 
3 585 853 1004 
3 1010 236 1090 
3 1025 652 1030 
3 233 109 1064 
3 605 941 1006 
3 688 690 1006 
3 687 660 1041 
3 570 599 1038 
3 853 623 1007 
3 633 845 1068 
3 862 492 1041 
3 218 741 1071 
3 736 739 1008 
3 909 573 1005 
3 920 884 1027 
3 524 461 1047 
3 460 621 1047 
3 701 596 1049 
3 214 812 1048 
3 647 991 1065 
3 49 48 1009 
3 6 242 1052 
3 941 688 1006 
3 765 766 1074 
3 640 665 1053 
3 223 837 1060 
3 31 231 1057 
3 103 841 1059 
3 917 231 1062 
3 764 1023 1098 
3 235 102 1059 
3 238 1002 1072 
3 848 998 1039 
3 495 967 1078 
3 633 632 1062 
3 67 66 1061 
3 733 735 1044 
3 425 913 1038 
3 795 792 1032 
3 823 821 1063 
3 648 988 1025 
3 52 218 1071 
3 839 838 1010 
3 246 53 1071 
3 599 598 1048 
3 676 678 1035 
3 426 425 1056 
3 831 984 1083 
3 247 859 1069 
3 756 646 1070 
3 666 703 1057 
3 659 661 1014 
3 266 268 1042 
3 712 603 1019 
3 768 1008 1085 
3 826 822 1077 
3 643 1045 1094 
3 988 652 1025 
3 99 100 1075 
3 646 644 1070 
3 3 80 1079 
3 23 3 1079 
3 128 0 1080 
3 0 4 1080 
3 72 1 1081 
3 1 96 1081 
3 2 71 1082 
3 22 2 1082 
3 829 262 1080 
3 113 214 1089 
3 942 639 1051 
3 587 694 1066 
3 508 457 1078 
3 672 676 1102 
3 16 227 1100 
3 217 14 1086 
3 713 691 1093 
3 882 810 1088 
3 648 976 1012 
3 967 836 1078 
3 865 524 1096 
3 1008 739 1085 
3 79 78 1013 
3 935 217 1086 
3 690 692 1084 
3 586 867 1097 
3 1040 778 1050 
3 1005 627 1040 
3 101 235 1014 
3 609 953 1012 
3 927 729 1076 
3 592 647 1065 
3 213 842 1015 
3 538 586 1097 
3 934 439 1011 
3 810 808 1088 
3 693 1010 1090 
3 819 237 1051 
3 586 916 1066 
3 936 586 1066 
3 227 17 1016 
3 704 705 1058 
3 205 86 1017 
3 601 602 1018 
3 792 794 1032 
3 976 609 1012 
3 894 633 1068 
3 763 246 1023 
3 807 814 1021 
3 816 1015 1067 
3 204 85 1022 
3 713 515 1046 
3 621 898 1020 
3 884 646 1092 
3 984 860 1083 
3 697 698 1023 
3 614 615 1024 
3 758 244 1028 
3 534 532 1025 
3 794 793 1042 
3 788 651 1054 
3 646 949 1092 
3 998 263 1039 
3 203 84 1026 
3 637 920 1027 
3 245 749 1033 
3 1023 698 1098 
3 534 1025 1030 
3 64 63 1029 
3 740 1005 1040 
3 81 704 1099 
3 643 642 1031 
3 739 738 1050 
3 505 885 1032 
3 606 847 1043 
3 654 534 1030 
3 222 1029 1102 
3 515 516 1034 
3 218 758 1091 
3 888 701 1054 
3 651 888 1054 
3 1020 826 1077 
3 65 222 1035 
3 804 249 1036 
3 600 608 1037 
3 817 816 1067 
3 612 656 1087 
3 693 713 1046 
3 829 5 1052 
3 913 570 1038 
3 627 778 1040 
3 231 844 1062 
3 656 613 1039 
3 959 218 1091 
3 660 862 1041 
3 252 877 1053 
3 743 705 1072 
3 877 667 1053 
3 711 535 1067 
3 201 81 1099 
3 524 1063 1096 
3 638 606 1043 
3 850 733 1044 
3 268 347 1042 
3 461 460 1047 
3 596 669 1049 
3 650 859 1074 
3 1028 244 1073 
3 867 1033 1097 
3 778 684 1050 
3 1015 711 1067 
3 598 658 1048 
3 639 638 1051 
3 830 829 1052 
3 5 6 1052 
3 930 259 1045 
3 667 640 1053 
3 215 788 1054 
3 224 769 1055 
3 996 894 1068 
3 244 1009 1073 
3 950 650 1074 
3 1041 492 1093 
3 32 31 1057 
3 429 426 1056 
3 102 103 1059 
3 808 1021 1088 
3 837 835 1060 
3 237 67 1061 
3 793 233 1064 
3 954 831 1083 
3 821 824 1063 
3 1055 769 1085 
3 632 917 1062 
3 229 756 1070 
3 226 826 1065 
3 655 743 1072 
3 1029 671 1102 
3 998 23 1079 
3 71 999 1082 
3 1000 72 1081 
3 859 765 1074 
3 508 954 1083 
3 1027 884 1092 
3 223 1060 1101 
3 779 247 1069 
3 927 229 1070 
3 705 238 1072 
3 916 587 1066 
3 515 1034 1046 
3 845 230 1068 
3 53 52 1071 
3 236 989 1090 
3 769 768 1085 
3 644 927 1070 
3 1010 693 1046 
3 1055 1085 1095 
3 822 823 1077 
3 241 99 1075 
3 694 654 1073 
3 80 263 1079 
3 262 128 1080 
3 96 605 1081 
3 604 22 1082 
3 457 495 1078 
3 766 764 1098 
3 729 850 1076 
3 230 996 1068 
3 860 508 1083 
3 1045 744 1094 
3 14 15 1086 
3 251 839 1087 
3 112 113 1089 
3 949 232 1092 
3 692 693 1090 
3 509 882 1088 
3 691 689 1093 
3 1009 694 1073 
3 1086 15 1100 
3 259 201 1099 
3 621 1020 1077 
3 801 865 1096 
3 15 16 1100 
3 653 959 1091 
3 824 217 1103 
3 935 801 1103 
3 668 667 1101 
3 671 672 1102 
3 588 538 1097 
3 923 643 1094 
3 263 998 1079 
3 999 604 1082 
3 605 1000 1081 
3 989 692 1090 
3 1096 824 1103 
3 801 1096 1103 
3 217 935 1103 
3 698 1011 1098 
3 1021 509 1088 
3 1033 588 1097 
3 1006 690 1084 
3 232 1027 1092 
3 1011 766 1098 
3 689 1041 1093 
3 739 1050 1095 
3 1028 653 1091 
3 758 1028 1091 
3 1058 259 1099 
3 1050 684 1095 
3 684 1055 1095 
3 1060 668 1101 
3 1063 824 1096 
3 704 1058 1099 
3 1085 739 1095 
3 166 167 129 
3 130 166 129 
3 165 166 130 
3 131 165 130 
3 164 165 131 
3 132 164 131 
3 163 164 132 
3 133 163 132 
3 162 163 133 
3 162 133 134 
3 161 162 134 
3 135 161 134 
3 160 161 135 
3 136 160 135 
3 159 160 136 
3 137 159 136 
3 89 147 1104 
3 158 159 137 
3 158 137 138 
3 147 148 1104 
3 158 138 157 
3 157 138 139 
3 147 89 149 
3 156 157 139 
3 156 139 140 
3 155 156 140 
3 155 140 141 
3 154 155 141 
3 142 154 141 
3 207 89 1104 
3 153 154 142 
3 153 142 143 
3 152 153 143 
3 152 143 144 
3 151 144 145 
3 151 152 144 
3 145 146 150 
3 151 145 150 
3 146 147 149 
3 146 149 150 
3 148 207 1104 
3 93 92 1105 
3 129 167 1105 
3 92 129 1105 
3 167 93 1105 
3 148 88 207 
3 166 167 168 
3 169 166 168 
3 165 166 169 
3 170 165 169 
3 164 165 170 
3 171 164 170 
3 163 164 171 
3 172 163 171 
3 162 163 172 
3 173 162 172 
3 161 162 173 
3 174 161 173 
3 160 161 174 
3 160 174 175 
3 159 160 175 
3 150 90 1106 
3 176 159 175 
3 90 150 184 
3 159 176 158 
3 176 177 158 
3 158 177 157 
3 177 178 157 
3 178 156 157 
3 156 178 179 
3 149 150 1106 
3 156 179 155 
3 179 180 155 
3 180 154 155 
3 180 181 154 
3 181 153 154 
3 182 153 181 
3 153 182 152 
3 152 182 183 
3 151 183 184 
3 151 152 183 
3 90 208 1106 
3 150 151 184 
3 208 149 1106 
3 93 94 1107 
3 168 167 1107 
3 94 168 1107 
3 167 93 1107 
3 89 149 208 
3 199 200 168 
3 169 199 168 
3 198 199 169 
3 170 198 169 
3 197 198 170 
3 171 197 170 
3 196 197 171 
3 172 196 171 
3 195 196 172 
3 173 195 172 
3 194 195 173 
3 174 194 173 
3 193 194 174 
3 91 183 1108 
3 193 174 175 
3 192 193 175 
3 183 184 1108 
3 176 192 175 
3 192 176 191 
3 183 91 185 
3 176 177 191 
3 177 190 191 
3 177 178 190 
3 178 189 190 
3 178 179 189 
3 209 91 1108 
3 179 188 189 
3 179 180 188 
3 180 181 187 
3 180 187 188 
3 181 182 186 
3 181 186 187 
3 182 183 185 
3 182 185 186 
3 184 209 1108 
3 95 94 1109 
3 168 200 1109 
3 94 168 1109 
3 200 95 1109 
3 90 209 184 
3 199 200 96 
3 199 96 97 
3 198 199 97 
3 198 97 98 
3 197 198 98 
3 197 98 99 
3 196 197 99 
3 196 99 100 
3 195 196 100 
3 195 100 101 
3 194 195 101 
3 194 101 102 
3 186 82 1110 
3 193 194 102 
3 109 82 186 
3 193 102 103 
3 192 193 103 
3 104 192 103 
3 191 192 104 
3 105 191 104 
3 190 191 105 
3 190 105 106 
3 185 186 1110 
3 190 106 189 
3 106 107 189 
3 107 188 189 
3 107 108 188 
3 108 109 187 
3 188 108 187 
3 187 109 186 
3 82 210 1110 
3 210 185 1110 
3 95 1 1111 
3 96 200 1111 
3 1 96 1111 
3 200 95 1111 
3 210 91 185 

CELL_TYPES 2085
5
5
5
5
5
5
5
5
5
5
5
5
5
5
5
5
5
5
5
5
5
5
5
5
5
5
5
5
5
5
5
5
5
5
5
5
5
5
5
5
5
5
5
5
5
5
5
5
5
5
5
5
5
5
5
5
5
5
5
5
5
5
5
5
5
5
5
5
5
5
5
5
5
5
5
5
5
5
5
5
5
5
5
5
5
5
5
5
5
5
5
5
5
5
5
5
5
5
5
5
5
5
5
5
5
5
5
5
5
5
5
5
5
5
5
5
5
5
5
5
5
5
5
5
5
5
5
5
5
5
5
5
5
5
5
5
5
5
5
5
5
5
5
5
5
5
5
5
5
5
5
5
5
5
5
5
5
5
5
5
5
5
5
5
5
5
5
5
5
5
5
5
5
5
5
5
5
5
5
5
5
5
5
5
5
5
5
5
5
5
5
5
5
5
5
5
5
5
5
5
5
5
5
5
5
5
5
5
5
5
5
5
5
5
5
5
5
5
5
5
5
5
5
5
5
5
5
5
5
5
5
5
5
5
5
5
5
5
5
5
5
5
5
5
5
5
5
5
5
5
5
5
5
5
5
5
5
5
5
5
5
5
5
5
5
5
5
5
5
5
5
5
5
5
5
5
5
5
5
5
5
5
5
5
5
5
5
5
5
5
5
5
5
5
5
5
5
5
5
5
5
5
5
5
5
5
5
5
5
5
5
5
5
5
5
5
5
5
5
5
5
5
5
5
5
5
5
5
5
5
5
5
5
5
5
5
5
5
5
5
5
5
5
5
5
5
5
5
5
5
5
5
5
5
5
5
5
5
5
5
5
5
5
5
5
5
5
5
5
5
5
5
5
5
5
5
5
5
5
5
5
5
5
5
5
5
5
5
5
5
5
5
5
5
5
5
5
5
5
5
5
5
5
5
5
5
5
5
5
5
5
5
5
5
5
5
5
5
5
5
5
5
5
5
5
5
5
5
5
5
5
5
5
5
5
5
5
5
5
5
5
5
5
5
5
5
5
5
5
5
5
5
5
5
5
5
5
5
5
5
5
5
5
5
5
5
5
5
5
5
5
5
5
5
5
5
5
5
5
5
5
5
5
5
5
5
5
5
5
5
5
5
5
5
5
5
5
5
5
5
5
5
5
5
5
5
5
5
5
5
5
5
5
5
5
5
5
5
5
5
5
5
5
5
5
5
5
5
5
5
5
5
5
5
5
5
5
5
5
5
5
5
5
5
5
5
5
5
5
5
5
5
5
5
5
5
5
5
5
5
5
5
5
5
5
5
5
5
5
5
5
5
5
5
5
5
5
5
5
5
5
5
5
5
5
5
5
5
5
5
5
5
5
5
5
5
5
5
5
5
5
5
5
5
5
5
5
5
5
5
5
5
5
5
5
5
5
5
5
5
5
5
5
5
5
5
5
5
5
5
5
5
5
5
5
5
5
5
5
5
5
5
5
5
5
5
5
5
5
5
5
5
5
5
5
5
5
5
5
5
5
5
5
5
5
5
5
5
5
5
5
5
5
5
5
5
5
5
5
5
5
5
5
5
5
5
5
5
5
5
5
5
5
5
5
5
5
5
5
5
5
5
5
5
5
5
5
5
5
5
5
5
5
5
5
5
5
5
5
5
5
5
5
5
5
5
5
5
5
5
5
5
5
5
5
5
5
5
5
5
5
5
5
5
5
5
5
5
5
5
5
5
5
5
5
5
5
5
5
5
5
5
5
5
5
5
5
5
5
5
5
5
5
5
5
5
5
5
5
5
5
5
5
5
5
5
5
5
5
5
5
5
5
5
5
5
5
5
5
5
5
5
5
5
5
5
5
5
5
5
5
5
5
5
5
5
5
5
5
5
5
5
5
5
5
5
5
5
5
5
5
5
5
5
5
5
5
5
5
5
5
5
5
5
5
5
5
5
5
5
5
5
5
5
5
5
5
5
5
5
5
5
5
5
5
5
5
5
5
5
5
5
5
5
5
5
5
5
5
5
5
5
5
5
5
5
5
5
5
5
5
5
5
5
5
5
5
5
5
5
5
5
5
5
5
5
5
5
5
5
5
5
5
5
5
5
5
5
5
5
5
5
5
5
5
5
5
5
5
5
5
5
5
5
5
5
5
5
5
5
5
5
5
5
5
5
5
5
5
5
5
5
5
5
5
5
5
5
5
5
5
5
5
5
5
5
5
5
5
5
5
5
5
5
5
5
5
5
5
5
5
5
5
5
5
5
5
5
5
5
5
5
5
5
5
5
5
5
5
5
5
5
5
5
5
5
5
5
5
5
5
5
5
5
5
5
5
5
5
5
5
5
5
5
5
5
5
5
5
5
5
5
5
5
5
5
5
5
5
5
5
5
5
5
5
5
5
5
5
5
5
5
5
5
5
5
5
5
5
5
5
5
5
5
5
5
5
5
5
5
5
5
5
5
5
5
5
5
5
5
5
5
5
5
5
5
5
5
5
5
5
5
5
5
5
5
5
5
5
5
5
5
5
5
5
5
5
5
5
5
5
5
5
5
5
5
5
5
5
5
5
5
5
5
5
5
5
5
5
5
5
5
5
5
5
5
5
5
5
5
5
5
5
5
5
5
5
5
5
5
5
5
5
5
5
5
5
5
5
5
5
5
5
5
5
5
5
5
5
5
5
5
5
5
5
5
5
5
5
5
5
5
5
5
5
5
5
5
5
5
5
5
5
5
5
5
5
5
5
5
5
5
5
5
5
5
5
5
5
5
5
5
5
5
5
5
5
5
5
5
5
5
5
5
5
5
5
5
5
5
5
5
5
5
5
5
5
5
5
5
5
5
5
5
5
5
5
5
5
5
5
5
5
5
5
5
5
5
5
5
5
5
5
5
5
5
5
5
5
5
5
5
5
5
5
5
5
5
5
5
5
5
5
5
5
5
5
5
5
5
5
5
5
5
5
5
5
5
5
5
5
5
5
5
5
5
5
5
5
5
5
5
5
5
5
5
5
5
5
5
5
5
5
5
5
5
5
5
5
5
5
5
5
5
5
5
5
5
5
5
5
5
5
5
5
5
5
5
5
5
5
5
5
5
5
5
5
5
5
5
5
5
5
5
5
5
5
5
5
5
5
5
5
5
5
5
5
5
5
5
5
5
5
5
5
5
5
5
5
5
5
5
5
5
5
5
5
5
5
5
5
5
5
5
5
5
5
5
5
5
5
5
5
5
5
5
5
5
5
5
5
5
5
5
5
5
5
5
5
5
5
5
5
5
5
5
5
5
5
5
5
5
5
5
5
5
5
5
5
5
5
5
5
5
5
5
5
5
5
5
5
5
5
5
5
5
5
5
5
5
5
5
5
5
5
5
5
5
5
5
5
5
5
5
5
5
5
5
5
5
5
5
5
5
5
5
5
5
5
5
5
5
5
5
5
5
5
5
5
5
5
5
5
5
5
5
5
5
5
5
5
5
5
5
5
5
5
5
5
5
5
5
5
5
5
5
5
5
5
5
5
5
5
5
5
5
5
5
5
5
5
5
5
5
5
5
5
5
5
5
5
5
5
5
5
5
5
5
5
5
5
5
5
5
5
5
5
5
5
5
5
5
5
5
5
5
5
5
5
5
5
5
5
5
5
5
5
5
5
5
5
5
5
5
5
5
5
5
5
5
5
5
5
5
5
5
5
5
5
5
5
5
5
5
5
5
5
5
5
5
5
5
5
5
5
5
5
5
5
5
5
5
5
5
5
5
5
5
5
5
5
5
5
5
5
5
5
5
5
5
5
5
5
5
5
5
5
5
5
5
5
5
5
5
5
5
5
5
5
5
5
5
5
5
5
5
5
5
5
5
5
5
5
5
5
5
5
5
5
5
5
5
5
5
5
5
5
5
5
5
5
5
5
5
5
5
5
5
5
5
5
5
5
5
5
5
5
5
5
5
5
5
5
5
5
5
5
5
5
5
5
5
5
5
5
5
5
5
5
5
5
5
5
5
5
5
5
5
5
5
5
5
5
5
5
5
5
5
5
5
5
5
5
5
5
5
5
5
5
5
5
5
5
5
5
5
5
5
5
5
5
5
5
5
5
5
5
5
5
5
5
5
5
5
5
5
5
5
5
5
5
5
5
5
5
5
5
5
5
5
5
5
5
5
5
5
5
5
5
5
5
5
5
5
5
5
5
5
5
5
5
5
5
5
5
5
5
5
5
5
5
5
5
5
5
5
5
5
5
5
5
5
5
5
5
5
5
5
5
5
5
5
5
5
5
5
5
5
5
5
5
5
5
5
5
5
5
5
5
5
5
5
5
5
5
5
5
5
5
5
5
5
5
5
5
5
5
5
5
5
5
5
5
5
5
5
5
5
5
5
5
5
5
5
5
5
5
5
5
5
5
5
5
5
5
5
5
5
5
5
5
5
5
5
5
5
5
5
5
5
5
5
5
5
5
5
5
5
5
5
5
5
5
5
5
5
5
5
5
5
5
5
5
5
5
5
5
5
5
5
5
5
5
5
5
5
5
5
5
5
5
5
5
5
5
5
5
5
5
5
5
5
5
5
5
5
5
5
5
5
5
5
5
5
5
5
5
5
5
5
5
5
5
5
5
5
5
5
5
5
5
5
5
5
5
5
5
5
5
5
5
5
5
5
5
5
5
5
5
5
5
5
5
5
5
5
5
5
5
5
5
5
5
5
5
5
5
5
5
5
5
5
5
5
5
5
5
5
5
5
5
5
5
5
5

POINT_DATA 1112

VECTORS coord float
0.0 0.0 0.0 
5.000000000000e+01 -1.000000000000e+01 0.0 
0.0 -2.000000000000e+01 0.0 
5.000000000000e+01 -2.000000000000e+01 0.0 
0.0 -9.999999999991e-01 0.0 
0.0 -1.999999999998e+00 0.0 
0.0 -2.999999999997e+00 0.0 
0.0 -3.999999999994e+00 0.0 
0.0 -4.999999999991e+00 0.0 
0.0 -5.999999999988e+00 0.0 
0.0 -6.999999999985e+00 0.0 
0.0 -7.999999999982e+00 0.0 
0.0 -8.999999999983e+00 0.0 
0.0 -9.999999999985e+00 0.0 
0.0 -1.099999999999e+01 0.0 
0.0 -1.199999999999e+01 0.0 
0.0 -1.299999999999e+01 0.0 
0.0 -1.399999999999e+01 0.0 
0.0 -1.499999999999e+01 0.0 
0.0 -1.599999999999e+01 0.0 
0.0 -1.700000000000e+01 0.0 
0.0 -1.800000000000e+01 0.0 
0.0 -1.900000000000e+01 0.0 
4.900000000001e+01 -2.000000000000e+01 0.0 
4.800000000001e+01 -2.000000000000e+01 0.0 
4.700000000002e+01 -2.000000000000e+01 0.0 
4.600000000003e+01 -2.000000000000e+01 0.0 
4.500000000004e+01 -2.000000000000e+01 0.0 
4.400000000004e+01 -2.000000000000e+01 0.0 
4.300000000005e+01 -2.000000000000e+01 0.0 
4.200000000006e+01 -2.000000000000e+01 0.0 
4.100000000006e+01 -2.000000000000e+01 0.0 
4.000000000007e+01 -2.000000000000e+01 0.0 
3.900000000008e+01 -2.000000000000e+01 0.0 
3.800000000009e+01 -2.000000000000e+01 0.0 
3.700000000009e+01 -2.000000000000e+01 0.0 
3.600000000010e+01 -2.000000000000e+01 0.0 
3.500000000011e+01 -2.000000000000e+01 0.0 
3.400000000011e+01 -2.000000000000e+01 0.0 
3.300000000012e+01 -2.000000000000e+01 0.0 
3.200000000013e+01 -2.000000000000e+01 0.0 
3.100000000013e+01 -2.000000000000e+01 0.0 
3.000000000013e+01 -2.000000000000e+01 0.0 
2.900000000013e+01 -2.000000000000e+01 0.0 
2.800000000013e+01 -2.000000000000e+01 0.0 
2.700000000013e+01 -2.000000000000e+01 0.0 
2.600000000013e+01 -2.000000000000e+01 0.0 
2.500000000013e+01 -2.000000000000e+01 0.0 
2.400000000013e+01 -2.000000000000e+01 0.0 
2.300000000013e+01 -2.000000000000e+01 0.0 
2.200000000013e+01 -2.000000000000e+01 0.0 
2.100000000013e+01 -2.000000000000e+01 0.0 
2.000000000013e+01 -2.000000000000e+01 0.0 
1.900000000013e+01 -2.000000000000e+01 0.0 
1.800000000013e+01 -2.000000000000e+01 0.0 
1.700000000012e+01 -2.000000000000e+01 0.0 
1.600000000011e+01 -2.000000000000e+01 0.0 
1.500000000011e+01 -2.000000000000e+01 0.0 
1.400000000010e+01 -2.000000000000e+01 0.0 
1.300000000009e+01 -2.000000000000e+01 0.0 
1.200000000009e+01 -2.000000000000e+01 0.0 
1.100000000008e+01 -2.000000000000e+01 0.0 
1.000000000007e+01 -2.000000000000e+01 0.0 
9.000000000064e+00 -2.000000000000e+01 0.0 
8.000000000057e+00 -2.000000000000e+01 0.0 
7.000000000050e+00 -2.000000000000e+01 0.0 
6.000000000043e+00 -2.000000000000e+01 0.0 
5.000000000036e+00 -2.000000000000e+01 0.0 
4.000000000028e+00 -2.000000000000e+01 0.0 
3.000000000021e+00 -2.000000000000e+01 0.0 
2.000000000014e+00 -2.000000000000e+01 0.0 
1.000000000007e+00 -2.000000000000e+01 0.0 
5.000000000000e+01 -1.100000000000e+01 0.0 
5.000000000000e+01 -1.200000000000e+01 0.0 
5.000000000000e+01 -1.300000000000e+01 0.0 
5.000000000000e+01 -1.400000000000e+01 0.0 
5.000000000000e+01 -1.500000000000e+01 0.0 
5.000000000000e+01 -1.600000000000e+01 0.0 
5.000000000000e+01 -1.700000000000e+01 0.0 
5.000000000000e+01 -1.800000000000e+01 0.0 
5.000000000000e+01 -1.900000000000e+01 0.0 
2.000000000000e+01 0.0 0.0 
3.500000000000e+01 -1.000000000000e+01 0.0 
2.150000000000e+01 -1.000000000000e+00 0.0 
2.300000000000e+01 -2.000000000000e+00 0.0 
2.450000000000e+01 -3.000000000000e+00 0.0 
2.600000000000e+01 -4.000000000000e+00 0.0 
2.750000000000e+01 -5.000000000000e+00 0.0 
2.900000000000e+01 -6.000000000000e+00 0.0 
3.050000000000e+01 -7.000000000000e+00 0.0 
3.200000000000e+01 -8.000000000000e+00 0.0 
3.350000000000e+01 -9.000000000000e+00 0.0 
5.000000000000e+01 -6.000000000000e+00 0.0 
5.000000000000e+01 -7.000000000000e+00 0.0 
5.000000000000e+01 -8.000000000000e+00 0.0 
5.000000000000e+01 -9.000000000000e+00 0.0 
4.900000000000e+01 -1.000000000000e+01 0.0 
4.800000000000e+01 -1.000000000000e+01 0.0 
4.700000000000e+01 -1.000000000000e+01 0.0 
4.600000000000e+01 -1.000000000000e+01 0.0 
4.500000000000e+01 -1.000000000000e+01 0.0 
4.400000000000e+01 -1.000000000000e+01 0.0 
4.300000000000e+01 -1.000000000000e+01 0.0 
4.200000000000e+01 -1.000000000000e+01 0.0 
4.100000000000e+01 -1.000000000000e+01 0.0 
4.000000000000e+01 -1.000000000000e+01 0.0 
3.900000000000e+01 -1.000000000000e+01 0.0 
3.800000000000e+01 -1.000000000000e+01 0.0 
3.700000000000e+01 -1.000000000000e+01 0.0 
3.600000000000e+01 -1.000000000000e+01 0.0 
1.900000000000e+01 0.0 0.0 
1.800000000000e+01 0.0 0.0 
1.700000000000e+01 0.0 0.0 
1.600000000000e+01 0.0 0.0 
1.500000000000e+01 0.0 0.0 
1.400000000000e+01 0.0 0.0 
1.300000000000e+01 0.0 0.0 
1.200000000000e+01 0.0 0.0 
1.100000000000e+01 0.0 0.0 
1.000000000000e+01 0.0 0.0 
9.000000000000e+00 0.0 0.0 
8.000000000000e+00 0.0 0.0 
7.000000000000e+00 0.0 0.0 
6.000000000000e+00 0.0 0.0 
5.000000000000e+00 0.0 0.0 
4.000000000000e+00 0.0 0.0 
3.000000000000e+00 0.0 0.0 
2.000000000000e+00 0.0 0.0 
1.000000000000e+00 0.0 0.0 
4.900000000001e+01 -6.000000000000e+00 0.0 
4.800000000003e+01 -6.000000000000e+00 0.0 
4.700000000004e+01 -6.000000000000e+00 0.0 
4.600000000006e+01 -6.000000000000e+00 0.0 
4.500000000007e+01 -6.000000000000e+00 0.0 
4.400000000009e+01 -6.000000000000e+00 0.0 
4.300000000010e+01 -6.000000000000e+00 0.0 
4.200000000012e+01 -6.000000000000e+00 0.0 
4.100000000013e+01 -6.000000000000e+00 0.0 
4.000000000014e+01 -6.000000000000e+00 0.0 
3.900000000014e+01 -6.000000000000e+00 0.0 
3.800000000012e+01 -6.000000000000e+00 0.0 
3.700000000010e+01 -6.000000000000e+00 0.0 
3.600000000008e+01 -6.000000000000e+00 0.0 
3.500000000006e+01 -6.000000000000e+00 0.0 
3.400000000005e+01 -6.000000000000e+00 0.0 
3.300000000003e+01 -6.000000000000e+00 0.0 
3.200000000001e+01 -6.000000000000e+00 0.0 
3.100000000000e+01 -6.000000000000e+00 0.0 
3.000000000000e+01 -6.000000000000e+00 0.0 
3.147499999998e+01 -7.000000000000e+00 0.0 
3.244999999998e+01 -7.000000000000e+00 0.0 
3.342499999998e+01 -7.000000000000e+00 0.0 
3.439999999998e+01 -7.000000000000e+00 0.0 
3.537499999998e+01 -7.000000000000e+00 0.0 
3.634999999998e+01 -7.000000000000e+00 0.0 
3.732499999998e+01 -7.000000000000e+00 0.0 
3.829999999998e+01 -7.000000000000e+00 0.0 
3.927499999999e+01 -7.000000000000e+00 0.0 
4.024999999999e+01 -7.000000000000e+00 0.0 
4.122499999999e+01 -7.000000000000e+00 0.0 
4.219999999999e+01 -7.000000000000e+00 0.0 
4.317499999999e+01 -7.000000000000e+00 0.0 
4.414999999999e+01 -7.000000000000e+00 0.0 
4.512499999999e+01 -7.000000000000e+00 0.0 
4.609999999999e+01 -7.000000000000e+00 0.0 
4.707500000000e+01 -7.000000000000e+00 0.0 
4.805000000000e+01 -7.000000000000e+00 0.0 
4.902500000000e+01 -7.000000000000e+00 0.0 
4.900000000000e+01 -8.000000000000e+00 0.0 
4.800000000000e+01 -8.000000000000e+00 0.0 
4.700000000000e+01 -8.000000000000e+00 0.0 
4.600000000000e+01 -8.000000000000e+00 0.0 
4.500000000000e+01 -8.000000000000e+00 0.0 
4.400000000000e+01 -8.000000000000e+00 0.0 
4.300000000000e+01 -8.000000000000e+00 0.0 
4.200000000000e+01 -8.000000000000e+00 0.0 
4.100000000000e+01 -8.000000000000e+00 0.0 
4.000000000000e+01 -8.000000000000e+00 0.0 
3.900000000000e+01 -8.000000000000e+00 0.0 
3.800000000000e+01 -8.000000000000e+00 0.0 
3.700000000000e+01 -8.000000000000e+00 0.0 
3.600000000000e+01 -8.000000000000e+00 0.0 
3.500000000000e+01 -8.000000000000e+00 0.0 
3.400000000000e+01 -8.000000000000e+00 0.0 
3.300000000000e+01 -8.000000000000e+00 0.0 
3.447058823527e+01 -9.000000000000e+00 0.0 
3.544117647055e+01 -9.000000000000e+00 0.0 
3.641176470582e+01 -9.000000000000e+00 0.0 
3.738235294109e+01 -9.000000000000e+00 0.0 
3.835294117637e+01 -9.000000000000e+00 0.0 
3.932352941164e+01 -9.000000000000e+00 0.0 
4.029411764691e+01 -9.000000000000e+00 0.0 
4.126470588219e+01 -9.000000000000e+00 0.0 
4.223529411748e+01 -9.000000000000e+00 0.0 
4.320588235279e+01 -9.000000000000e+00 0.0 
4.417647058811e+01 -9.000000000000e+00 0.0 
4.514705882342e+01 -9.000000000000e+00 0.0 
4.611764705874e+01 -9.000000000000e+00 0.0 
4.708823529405e+01 -9.000000000000e+00 0.0 
4.805882352937e+01 -9.000000000000e+00 0.0 
4.902941176468e+01 -9.000000000000e+00 0.0 
2.075000000000e+01 -5.000000000006e-01 0.0 
2.225000000000e+01 -1.500000000000e+00 0.0 
2.375000000000e+01 -2.500000000000e+00 0.0 
2.525000000000e+01 -3.500000000000e+00 0.0 
2.675000000000e+01 -4.500000000000e+00 0.0 
2.825000000000e+01 -5.500000000000e+00 0.0 
2.975000000000e+01 -6.500000000000e+00 0.0 
3.125000000000e+01 -7.500000000000e+00 0.0 
3.275000000000e+01 -8.500000000000e+00 0.0 
3.425000000000e+01 -9.500000000000e+00 0.0 
2.226951693683e+01 -2.403913980114e+00 0.0 
1.650149491944e+01 -1.913490915758e+01 0.0 
1.050042386896e+01 -8.504605092970e-01 0.0 
1.553146524712e+01 -8.281255032105e-01 0.0 
1.150000000008e+01 -1.913397459621e+01 0.0 
2.530060260647e+01 -4.428336431260e+00 0.0 
8.651114563942e-01 -1.052096295641e+01 0.0 
2.050000000013e+01 -1.913397459622e+01 0.0 
2.819198729811e+01 -6.399519052838e+00 0.0 
2.445670302931e+01 -1.915649188023e+01 0.0 
3.117591465718e+01 -8.394293040695e+00 0.0 
7.465053044742e+00 -1.920411160581e+01 0.0 
6.398295709691e+00 -8.230098819370e-01 0.0 
2.849659607461e+01 -1.914296187762e+01 0.0 
3.418732642882e+01 -1.040265792588e+01 0.0 
8.386450935063e-01 -6.533605142809e+00 0.0 
9.178661865596e-01 -1.329769195597e+01 0.0 
3.149448624493e+01 -1.910466733764e+01 0.0 
3.552916747426e+01 -1.914628590759e+01 0.0 
4.449210346537e+01 -1.914359085008e+01 0.0 
4.140975975145e+01 -1.906941860733e+01 0.0 
3.847475958753e+01 -1.916622382724e+01 0.0 
3.653774794640e+01 -1.088712800241e+01 0.0 
4.047886341787e+01 -1.090139014048e+01 0.0 
4.348006339825e+01 -1.092792621489e+01 0.0 
4.919519968029e+01 -1.451526755068e+01 0.0 
4.500000000032e+00 -1.913397459621e+01 0.0 
1.856136921614e+01 -8.212235170404e-01 0.0 
3.499895312306e+00 -8.661165539723e-01 0.0 
9.076088696565e-01 -1.642306201891e+01 0.0 
4.655174095477e+01 -1.086183387525e+01 0.0 
9.430688970604e-01 -3.496112672958e+00 0.0 
3.353992337063e+01 -1.901202090820e+01 0.0 
2.249746016977e+01 -1.921262287282e+01 0.0 
2.650122741777e+01 -1.916123026018e+01 0.0 
1.863571384842e+01 -1.908325534840e+01 0.0 
1.450089971693e+01 -1.917691901860e+01 0.0 
1.350044695317e+01 -8.659695299584e-01 0.0 
3.849987469880e+01 -1.084154983397e+01 0.0 
9.454419857884e+00 -1.900818879936e+01 0.0 
4.917398660523e+01 -1.645692866081e+01 0.0 
8.500000000000e+00 -8.660254037844e-01 0.0 
8.660319230785e-01 -8.500111697188e+00 0.0 
4.649022621545e+01 -1.930506220113e+01 0.0 
2.667688107845e+01 -5.420288124331e+00 0.0 
2.379251615665e+01 -3.412225477429e+00 0.0 
2.966631491830e+01 -7.389030232731e+00 0.0 
3.267915035995e+01 -9.396934932445e+00 0.0 
2.074836922338e+01 -1.320054020319e+00 0.0 
4.915985743621e+01 -1.261973384855e+01 0.0 
2.527129768623e+00 -1.931592414663e+01 0.0 
1.538676247410e+00 -8.436956619311e-01 0.0 
4.908096641539e+01 -1.842484004551e+01 0.0 
3.478612492673e+01 -1.090889364140e+01 0.0 
3.409757055860e+01 -1.131991530427e+01 0.0 
3.501895309466e+01 -1.177687842717e+01 0.0 
3.407758073088e+01 -1.224293381580e+01 0.0 
3.484541875390e+01 -1.277051428430e+01 0.0 
3.400322025842e+01 -1.319022775640e+01 0.0 
3.321672625034e+01 -1.266779191233e+01 0.0 
3.315244139236e+01 -1.360984106532e+01 0.0 
3.236335186892e+01 -1.308463225210e+01 0.0 
3.478337442841e+01 -1.372341158982e+01 0.0 
3.230105923633e+01 -1.403023731610e+01 0.0 
3.150954055289e+01 -1.350301767700e+01 0.0 
3.144604792090e+01 -1.444931742516e+01 0.0 
3.065653897123e+01 -1.392357262981e+01 0.0 
3.071897610812e+01 -1.297447031198e+01 0.0 
2.986790411740e+01 -1.339226181535e+01 0.0 
2.993181466745e+01 -1.244703272398e+01 0.0 
2.908023061869e+01 -1.286254537734e+01 0.0 
2.901619051372e+01 -1.380881655279e+01 0.0 
2.822986160390e+01 -1.327695262116e+01 0.0 
2.829453476870e+01 -1.233265343811e+01 0.0 
2.744542905518e+01 -1.274510491105e+01 0.0 
2.751120089246e+01 -1.180368086886e+01 0.0 
2.666218649885e+01 -1.221619339205e+01 0.0 
2.672371209234e+01 -1.127125228527e+01 0.0 
2.587763216302e+01 -1.168539979114e+01 0.0 
2.581165585299e+01 -1.262994410089e+01 0.0 
2.502890882577e+01 -1.209827323619e+01 0.0 
2.509631327757e+01 -1.115492410304e+01 0.0 
2.424662989877e+01 -1.156630981079e+01 0.0 
2.431704046904e+01 -1.062389179334e+01 0.0 
2.346445438728e+01 -1.103427680694e+01 0.0 
2.339382552877e+01 -1.197964871788e+01 0.0 
2.260936050780e+01 -1.144513277642e+01 0.0 
2.268075012022e+01 -1.049911928216e+01 0.0 
2.182525737661e+01 -1.090920811464e+01 0.0 
2.189682319817e+01 -9.961716944568e+00 0.0 
2.104174127792e+01 -1.037266986667e+01 0.0 
2.111304367575e+01 -9.424179358711e+00 0.0 
2.025306185381e+01 -9.832727364719e+00 0.0 
2.018141124247e+01 -1.079140628871e+01 0.0 
1.938594498257e+01 -1.025147354112e+01 0.0 
1.946106490453e+01 -9.288010758448e+00 0.0 
1.858929958352e+01 -9.706319802516e+00 0.0 
1.851540991219e+01 -1.067205988724e+01 0.0 
1.771485303178e+01 -1.012504443115e+01 0.0 
1.764134552256e+01 -1.109360378538e+01 0.0 
1.683745148095e+01 -1.054496365337e+01 0.0 
1.691852964353e+01 -9.582555261178e+00 0.0 
1.603603813062e+01 -1.000160132379e+01 0.0 
1.595824239350e+01 -1.096750698862e+01 0.0 
1.515080624291e+01 -1.041639501931e+01 0.0 
1.523171602559e+01 -9.451711491453e+00 0.0 
1.434621060709e+01 -9.871956467464e+00 0.0 
1.426777178765e+01 -1.083749501371e+01 0.0 
1.345775282374e+01 -1.028803175500e+01 0.0 
1.354103873368e+01 -9.324918457162e+00 0.0 
1.265072018622e+01 -9.742612837270e+00 0.0 
1.257285762070e+01 -1.071557782384e+01 0.0 
1.175874815690e+01 -1.015972324288e+01 0.0 
1.184203019714e+01 -9.193604071377e+00 0.0 
1.094927709905e+01 -9.612103238656e+00 0.0 
1.086938022910e+01 -1.058685085646e+01 0.0 
1.005424098961e+01 -1.002939116380e+01 0.0 
9.977974613295e+00 -1.101324897989e+01 0.0 
1.012915646404e+01 -9.051815821181e+00 0.0 
9.237127782494e+00 -9.471239055559e+00 0.0 
9.308426593771e+00 -8.483376461131e+00 0.0 
8.418806073345e+00 -8.910712374517e+00 0.0 
2.253688464062e+01 -1.239459402279e+01 0.0 
8.495126726666e+00 -7.921646665254e+00 0.0 
9.389727383206e+00 -7.512103628377e+00 0.0 
7.601560812974e+00 -8.349460349344e+00 0.0 
7.525680547759e+00 -9.339736686940e+00 0.0 
7.677888324502e+00 -7.359727833346e+00 0.0 
6.782001206724e+00 -7.788454494773e+00 0.0 
6.858778622885e+00 -6.797338062822e+00 0.0 
2.196596590865e+01 -8.979025665442e+00 0.0 
2.816540108272e+01 -1.422634142353e+01 0.0 
5.961601194403e+00 -7.226824010712e+00 0.0 
6.038171749656e+00 -6.234825887079e+00 0.0 
6.936257279557e+00 -5.805287640737e+00 0.0 
6.115068918323e+00 -5.242109758768e+00 0.0 
3.564391741903e+01 -1.329240553876e+01 0.0 
3.558115605778e+01 -1.425902892003e+01 0.0 
3.645445282201e+01 -1.381970786460e+01 0.0 
3.639744204358e+01 -1.479198128612e+01 0.0 
3.727266909778e+01 -1.435399586226e+01 0.0 
5.216667013081e+00 -5.671788584287e+00 0.0 
3.220697293295e+01 -1.499594545107e+01 0.0 
3.551112158269e+01 -1.523479869250e+01 0.0 
2.836056961467e+01 -1.139032434851e+01 0.0 
2.516730388602e+01 -1.021382726837e+01 0.0 
1.844436907403e+01 -1.164097215196e+01 0.0 
5.885434318740e+00 -8.218694781467e+00 0.0 
5.064071066867e+00 -7.656614643901e+00 0.0 
4.988089103470e+00 -8.649722082718e+00 0.0 
1.079421050408e+01 -1.157014985435e+01 0.0 
9.902420005256e+00 -1.199903342656e+01 0.0 
1.071994252214e+01 -1.255727909771e+01 0.0 
9.826974788171e+00 -1.298659581767e+01 0.0 
1.064607883789e+01 -1.354595476388e+01 0.0 
9.751541265343e+00 -1.397556905071e+01 0.0 
8.932296185869e+00 -1.341553353988e+01 0.0 
8.856399248106e+00 -1.440570715508e+01 0.0 
8.036186803543e+00 -1.384470558472e+01 0.0 
1.057112875118e+01 -1.453516759081e+01 0.0 
1.146582585687e+01 -1.410539926903e+01 0.0 
7.959894480382e+00 -1.483563350928e+01 0.0 
7.138792279156e+00 -1.427465094140e+01 0.0 
7.062506792418e+00 -1.526615385482e+01 0.0 
6.240693558277e+00 -1.470508863040e+01 0.0 
6.316957575451e+00 -1.371212581281e+01 0.0 
5.418183007107e+00 -1.414253605022e+01 0.0 
5.494748364428e+00 -1.314886770603e+01 0.0 
1.756825565873e+01 -1.206433872514e+01 0.0 
1.837565773345e+01 -1.261356468266e+01 0.0 
1.749574831391e+01 -1.303769280014e+01 0.0 
1.830539187332e+01 -1.358828364284e+01 0.0 
1.742278925170e+01 -1.401367746928e+01 0.0 
1.823303007798e+01 -1.456432294258e+01 0.0 
1.734941694138e+01 -1.499213734361e+01 0.0 
1.653760041637e+01 -1.443920312098e+01 0.0 
3.056237977307e+01 -1.487132260174e+01 0.0 
1.866469084762e+01 -8.742953000418e+00 0.0 
1.953669694916e+01 -8.326038909849e+00 0.0 
1.874194303780e+01 -7.780688158966e+00 0.0 
1.961032016741e+01 -7.366854697285e+00 0.0 
1.881715755159e+01 -6.821102209649e+00 0.0 
1.968369797150e+01 -6.407747217358e+00 0.0 
1.889237123259e+01 -5.858375520026e+00 0.0 
1.802038875366e+01 -6.276202618170e+00 0.0 
1.809793837984e+01 -5.307629520489e+00 0.0 
1.721985207997e+01 -5.728242054488e+00 0.0 
1.729850893523e+01 -4.756990819347e+00 0.0 
1.641745664240e+01 -5.174636548624e+00 0.0 
2.495978509456e+01 -1.304406404294e+01 0.0 
1.911567814831e+01 -1.413854250293e+01 0.0 
1.904387332608e+01 -1.511463127723e+01 0.0 
1.992115934240e+01 -1.468788025898e+01 0.0 
7.013706899628e+00 -4.812582868662e+00 0.0 
5.342091874585e+00 -1.513658157269e+01 0.0 
1.139098043784e+01 -1.509488509480e+01 0.0 
1.228151810610e+01 -1.465617481983e+01 0.0 
1.646373110164e+01 -1.541993323337e+01 0.0 
5.293328636712e+00 -4.678385108584e+00 0.0 
1.975965862987e+01 -5.448124345648e+00 0.0 
2.054318374236e+01 -5.992561293251e+00 0.0 
3.721453439063e+01 -1.533216152738e+01 0.0 
3.809302733893e+01 -1.489235527381e+01 0.0 
1.220852788900e+01 -1.565304565230e+01 0.0 
4.394120899730e+00 -5.108397613210e+00 0.0 
8.779354620288e+00 -1.539524721159e+01 0.0 
1.817791047702e+01 -4.338570146253e+00 0.0 
4.518860013839e+00 -1.457343189307e+01 0.0 
4.442712140414e+00 -1.556841391069e+01 0.0 
8.115343466391e+00 -1.285760324283e+01 0.0 
1.985334703171e+01 -1.566478400426e+01 0.0 
2.071953850276e+01 -1.522074243119e+01 0.0 
1.634012953883e+01 -6.154777738301e+00 0.0 
1.553479994708e+01 -5.593730508879e+00 0.0 
1.561265946942e+01 -4.617761762647e+00 0.0 
1.470674212978e+01 -5.064576488228e+00 0.0 
1.464498299883e+01 -6.026514471420e+00 0.0 
1.383271561817e+01 -5.467796261169e+00 0.0 
1.389241253067e+01 -4.504338666645e+00 0.0 
1.301868735463e+01 -4.907185188626e+00 0.0 
1.294514184846e+01 -5.888160903592e+00 0.0 
1.212955968622e+01 -5.328262335277e+00 0.0 
1.220721122383e+01 -4.341264976687e+00 0.0 
1.131324345897e+01 -4.766773516508e+00 0.0 
5.266597955397e+00 -1.613148974258e+01 0.0 
1.737805990867e+01 -3.786677807525e+00 0.0 
3.078438094513e+01 -1.203225297748e+01 0.0 
1.131569882285e+01 -1.608511932110e+01 0.0 
1.728478341782e+01 -1.596017432313e+01 0.0 
3.803465906019e+01 -1.587509751228e+01 0.0 
3.891681276677e+01 -1.543395196905e+01 0.0 
3.897340985302e+01 -1.444710288980e+01 0.0 
3.980095968193e+01 -1.499059496613e+01 0.0 
3.974334598189e+01 -1.597921884150e+01 0.0 
4.062964983717e+01 -1.553518690417e+01 0.0 
4.068729602479e+01 -1.454434445295e+01 0.0 
4.151772679790e+01 -1.508974196007e+01 0.0 
4.157505195739e+01 -1.409694289912e+01 0.0 
4.240699932656e+01 -1.464347955968e+01 0.0 
4.234898051011e+01 -1.563721375790e+01 0.0 
4.323934606035e+01 -1.519082036405e+01 0.0 
4.329740528208e+01 -1.419587509788e+01 0.0 
4.413056841369e+01 -1.474359631875e+01 0.0 
4.418850110108e+01 -1.374786684042e+01 0.0 
4.502219770667e+01 -1.429605103525e+01 0.0 
4.496411937907e+01 -1.529215882720e+01 0.0 
4.490027319897e+00 -4.154167794594e+00 0.0 
1.565080385988e+01 -1.486411982419e+01 0.0 
1.557610691279e+01 -1.584855627870e+01 0.0 
4.195350646612e+00 -8.089117689096e+00 0.0 
4.124027797830e+00 -9.082831955007e+00 0.0 
4.917944318925e+00 -9.643530901533e+00 0.0 
4.020105689502e+00 -1.007439673661e+01 0.0 
4.587185899277e+01 -1.484039992728e+01 0.0 
4.580078661551e+01 -1.584043391042e+01 0.0 
2.061956522375e+01 -5.046701343981e+00 0.0 
2.139572955529e+01 -5.579553449826e+00 0.0 
3.715344357292e+01 -1.631485124583e+01 0.0 
3.618886196443e+00 -1.500471207167e+01 0.0 
3.695606940204e+00 -1.400939692294e+01 0.0 
2.438890661143e+01 -9.686110599723e+00 0.0 
2.523267572778e+01 -9.276766000622e+00 0.0 
2.446094171539e+01 -8.751904591412e+00 0.0 
2.529089822738e+01 -8.321495612547e+00 0.0 
2.606882688827e+01 -8.864724051119e+00 0.0 
2.452116646430e+01 -7.792756462004e+00 0.0 
1.235543269617e+01 -1.365845617339e+01 0.0 
4.318116874181e+01 -1.618567469992e+01 0.0 
7.835066111909e+00 -5.376366223896e+00 0.0 
7.905687335704e+00 -4.382539065697e+00 0.0 
3.542640009567e+00 -1.600035116542e+01 0.0 
1.572431503071e+01 -1.388358386695e+01 0.0 
2.574684696680e+01 -1.357896141127e+01 0.0 
2.488842657651e+01 -1.399674354505e+01 0.0 
2.568301775611e+01 -1.453552048595e+01 0.0 
2.481535572009e+01 -1.495542756508e+01 0.0 
2.561729699688e+01 -1.549784648532e+01 0.0 
2.474623061296e+01 -1.592058894178e+01 0.0 
2.394234041695e+01 -1.537572575827e+01 0.0 
2.065825452567e+01 -1.621899055217e+01 0.0 
2.387180528935e+01 -1.634552264687e+01 0.0 
4.585364400844e+01 -1.383912334080e+01 0.0 
1.998744432052e+01 -1.370317155541e+01 0.0 
1.205356951443e+01 -6.313580285498e+00 0.0 
5.396543905849e+00 -3.731818611283e+00 0.0 
1.139652573295e+01 -3.745819399350e+00 0.0 
3.574124306703e+00 -4.551456826011e+00 0.0 
3.494140761930e+00 -5.539787055649e+00 0.0 
1.213651452413e+01 -1.664505033022e+01 0.0 
2.555045568519e+01 -1.646529356744e+01 0.0 
2.641671114986e+01 -1.603899382371e+01 0.0 
2.612920721894e+01 -7.906435260873e+00 0.0 
2.690339829698e+01 -8.456969591431e+00 0.0 
1.978024383368e+01 -1.664410216353e+01 0.0 
3.732829979082e+01 -1.336926601859e+01 0.0 
4.074336584605e+01 -1.355133328401e+01 0.0 
4.163204691081e+01 -1.310280943992e+01 0.0 
3.773826114429e+00 -3.493444309145e+00 0.0 
1.228783001032e+01 -3.374822835872e+00 0.0 
4.057110462520e+01 -1.652588478000e+01 0.0 
2.132535497898e+01 -6.523623360525e+00 0.0 
2.216932532211e+01 -6.110044769206e+00 0.0 
1.825781152128e+01 -3.370146817147e+00 0.0 
1.745679445888e+01 -2.812942552063e+00 0.0 
4.666517057280e+01 -1.539981381543e+01 0.0 
4.660575894464e+01 -1.639014410186e+01 0.0 
4.838230979954e+00 -1.063643436446e+01 0.0 
3.938942630206e+00 -1.106778981745e+01 0.0 
1.302967218620e+01 -1.621373452436e+01 0.0 
1.049548003190e+01 -4.204825123240e+00 0.0 
4.573571907195e+01 -1.683820511148e+01 0.0 
1.483686335807e+01 -1.430849689310e+01 0.0 
1.490982658890e+01 -1.332679386284e+01 0.0 
3.190805600162e+00 -9.510968358545e+00 0.0 
2.146625721848e+01 -4.642437303115e+00 0.0 
2.069866208266e+01 -4.111852942193e+00 0.0 
1.286859345584e+01 -6.873252723348e+00 0.0 
1.041794493184e+01 -5.194814260291e+00 0.0 
2.671081808965e+00 -4.976806516331e+00 0.0 
1.295786792925e+01 -1.720506531799e+01 0.0 
3.968438206511e+01 -1.696869067241e+01 0.0 
2.308550456051e+01 -1.579963151273e+01 0.0 
2.315593682844e+01 -1.482967445235e+01 0.0 
2.299471449450e+01 -1.677069968132e+01 0.0 
1.057344714696e+01 -3.214252277840e+00 0.0 
1.124057603753e+01 -1.707713739755e+01 0.0 
2.718402535754e+00 -1.543629882103e+01 0.0 
2.638549692805e+01 -1.696744916809e+01 0.0 
2.723416349007e+01 -1.658104204545e+01 0.0 
2.210193351704e+01 -7.046769643417e+00 0.0 
2.295180925161e+01 -6.657397605239e+00 0.0 
2.301355235833e+01 -5.709111896800e+00 0.0 
2.379052718281e+01 -6.254965406962e+00 0.0 
3.243528601237e+01 -1.214181853533e+01 0.0 
2.287977995457e+01 -7.583722368300e+00 0.0 
2.999876029544e+01 -1.150837653096e+01 0.0 
3.084435366963e+01 -1.109693775882e+01 0.0 
3.006650579669e+01 -1.057778994262e+01 0.0 
2.683802665066e+01 -9.386863216633e+00 0.0 
2.768641973621e+01 -8.988883915666e+00 0.0 
2.040296980397e+01 -7.903629133404e+00 0.0 
1.925235024054e+01 -1.218872783130e+01 0.0 
5.735667000424e+00 -1.020577277283e+01 0.0 
6.396559909872e+00 -1.272326295703e+01 0.0 
1.161199420714e+01 -1.212812778229e+01 0.0 
4.229046132615e+01 -1.663084237572e+01 0.0 
4.312275399692e+01 -1.718087491556e+01 0.0 
4.335502068163e+01 -1.320039231514e+01 0.0 
4.424630298089e+01 -1.275160688731e+01 0.0 
7.090116643816e+00 -3.818998061530e+00 0.0 
7.989472176569e+00 -3.389238711200e+00 0.0 
9.085824861778e+00 -1.144036167408e+01 0.0 
1.041972423731e+01 -1.651614080893e+01 0.0 
3.797525112640e+01 -1.686052038746e+01 0.0 
3.709114253394e+01 -1.730125999865e+01 0.0 
3.626966748340e+01 -1.675477052919e+01 0.0 
1.385164591440e+01 -1.677597757552e+01 0.0 
1.787152588784e+01 -8.198993896093e+00 0.0 
1.668849729812e+01 -1.248560611628e+01 0.0 
1.659546177905e+01 -3.232482605530e+00 0.0 
2.332214717345e+01 -1.292598167641e+01 0.0 
7.168238450786e+00 -2.824711686516e+00 0.0 
2.894878403906e+01 -1.475427524446e+01 0.0 
2.646763248247e+00 -1.643270107952e+01 0.0 
3.467431944285e+00 -1.699648837348e+01 0.0 
2.059475877282e+01 -1.719473628526e+01 0.0 
3.333868355437e+01 -1.080596971682e+01 0.0 
2.246451062637e+01 -1.334557761546e+01 0.0 
2.167821896388e+01 -1.280847834858e+01 0.0 
3.089653185767e+01 -1.017198487212e+01 0.0 
3.012604365669e+01 -9.657298805968e+00 0.0 
2.929627299435e+01 -1.006100135274e+01 0.0 
2.936201435219e+01 -9.136748899251e+00 0.0 
1.198219052702e+01 -7.291887238230e+00 0.0 
1.116702076035e+01 -6.731976101053e+00 0.0 
2.551388807505e+01 -1.746927036981e+01 0.0 
2.378639090370e+01 -1.728678807149e+01 0.0 
2.718543627188e+01 -1.748668016909e+01 0.0 
2.804681050301e+01 -1.712626668293e+01 0.0 
1.970737034667e+01 -1.762317646822e+01 0.0 
1.889535776135e+01 -1.707158098231e+01 0.0 
2.593777711283e+00 -5.971157087874e+00 0.0 
2.773468281110e+01 -8.067164273938e+00 0.0 
4.051205884347e+01 -1.751819982458e+01 0.0 
3.166903145421e+01 -1.068032992414e+01 0.0 
1.033042452886e+01 -1.748285844336e+01 0.0 
9.519274604626e+00 -1.694349240233e+01 0.0 
1.668308673328e+01 -2.255861778986e+00 0.0 
1.570531902832e+01 -2.676795860126e+00 0.0 
4.655826903379e+01 -1.736656245706e+01 0.0 
2.384148070773e+01 -5.328744256413e+00 0.0 
2.460255123641e+01 -5.852182672816e+00 0.0 
2.306638135119e+01 -4.798935440613e+00 0.0 
8.467720450578e-01 -1.849576263072e+01 0.0 
4.849657322345e+01 -1.084860705506e+01 0.0 
2.565860899507e+00 -1.742859793981e+01 0.0 
2.764418872564e+01 -9.927142821799e+00 0.0 
4.565165880064e+01 -1.785336695404e+01 0.0 
2.162231831329e+01 -1.376528337468e+01 0.0 
2.360646352969e+01 -9.136041963102e+00 0.0 
1.392738739903e+01 -1.578285505772e+01 0.0 
4.756405947478e+01 -1.683706841809e+01 0.0 
4.740895034054e+01 -1.793766756892e+01 0.0 
4.080779328826e+01 -1.257387192544e+01 0.0 
4.168907939671e+01 -1.210739129181e+01 0.0 
3.991197722154e+01 -1.300815793917e+01 0.0 
1.905536506762e+01 -3.940076697685e+00 0.0 
1.923879596617e+01 -2.875000734166e+00 0.0 
4.401386745746e+01 -1.673483229438e+01 0.0 
4.247233362525e+00 -7.094581653070e+00 0.0 
3.286051630211e+00 -7.635300020553e+00 0.0 
9.609533347623e+00 -4.594311677967e+00 0.0 
9.523554636369e+00 -5.595597029530e+00 0.0 
5.660336628893e+00 -1.119290329628e+01 0.0 
6.558070063295e+00 -1.076385809362e+01 0.0 
2.809866407414e+01 -1.518037766799e+01 0.0 
2.888868674504e+01 -1.570360690070e+01 0.0 
2.654431550819e+01 -1.411217777162e+01 0.0 
1.402158265969e+01 -1.375404617952e+01 0.0 
1.409592494026e+01 -1.277071998942e+01 0.0 
1.499355196178e+01 -1.235270737023e+01 0.0 
4.221535326155e+01 -1.759335617494e+01 0.0 
4.305583287033e+01 -1.822663146802e+01 0.0 
1.280748808359e+01 -7.834332838285e+00 0.0 
1.368988389326e+01 -7.420529606172e+00 0.0 
1.110091796060e+01 -7.683966794328e+00 0.0 
3.963446145980e+01 -1.794331310122e+01 0.0 
3.423932362213e+00 -1.796415590455e+01 0.0 
4.280814572302e+00 -1.752272834860e+01 0.0 
8.050136380041e+00 -2.421582378631e+00 0.0 
8.888674091650e+00 -2.984264211327e+00 0.0 
2.152839430898e+01 -3.732609965436e+00 0.0 
2.077799585292e+01 -3.183896021866e+00 0.0 
3.618719395821e+01 -1.770276572576e+01 0.0 
3.538165138340e+01 -1.718709995539e+01 0.0 
3.702925326420e+01 -1.828844288807e+01 0.0 
1.756739438711e+00 -5.353284859169e+00 0.0 
2.233710191104e+01 -1.527265621324e+01 0.0 
1.389483555057e+01 -1.771797164730e+01 0.0 
1.475634224300e+01 -1.728357428390e+01 0.0 
1.298797563052e+01 -1.825968924755e+01 0.0 
2.145331271866e+01 -1.673705379077e+01 0.0 
2.133282821169e+01 -1.769400773673e+01 0.0 
2.292139194136e+01 -1.774915400288e+01 0.0 
1.750750053243e+01 -1.861475593469e+00 0.0 
4.830478841772e+01 -1.752611802221e+01 0.0 
4.341203507805e+01 -1.220326745522e+01 0.0 
1.685254151866e+01 -1.443085301632e+00 0.0 
4.431538535165e+01 -1.171841387375e+01 0.0 
4.511308610496e+01 -1.229557320599e+01 0.0 
4.510133242889e+01 -1.123680627466e+01 0.0 
1.846818030617e+00 -4.410877617069e+00 0.0 
3.995468694584e+01 -1.186571542989e+01 0.0 
3.901387459804e+01 -1.242507616755e+01 0.0 
8.966735877533e+00 -1.837818700423e+00 0.0 
4.049310011091e+01 -1.848269508791e+01 0.0 
7.278862053803e+00 -1.918523922691e+00 0.0 
6.429715522129e+00 -2.316676521184e+00 0.0 
9.443505505022e+00 -1.792198868094e+01 0.0 
8.620386951051e+00 -1.737590365556e+01 0.0 
8.571868171503e+00 -1.834436667826e+01 0.0 
7.758629848526e+00 -1.775677907213e+01 0.0 
7.806648388584e+00 -1.680761266021e+01 0.0 
6.908555145436e+00 -1.723746463044e+01 0.0 
4.251709122090e+01 -1.156937480156e+01 0.0 
6.931136405615e+00 -1.832465719263e+01 0.0 
6.015545461353e+00 -1.768865355295e+01 0.0 
5.960535926343e+00 -1.872011001764e+01 0.0 
3.023253444786e+01 -8.761960642196e+00 0.0 
2.454622702599e+01 -6.749421992767e+00 0.0 
2.537499741604e+01 -6.347634963783e+00 0.0 
2.544077378460e+01 -5.431358513649e+00 0.0 
2.801367161747e+01 -1.820907270221e+01 0.0 
2.884507806914e+01 -1.762032095326e+01 0.0 
1.821474531936e+00 -1.588901260460e+01 0.0 
1.821006262604e+00 -1.489370287756e+01 0.0 
4.599962488908e+01 -1.176478780598e+01 0.0 
4.705457470007e+01 -1.172182804229e+01 0.0 
4.667668314802e+01 -1.263464558483e+01 0.0 
4.759648056504e+01 -1.252380987933e+01 0.0 
4.728041618103e+01 -1.341928568376e+01 0.0 
4.825209352360e+01 -1.330491640804e+01 0.0 
4.778118233428e+01 -1.420151961695e+01 0.0 
2.388192727579e+01 -1.826934810142e+01 0.0 
2.381714684947e+01 -4.385917965223e+00 0.0 
3.172733219247e+01 -9.758744265248e+00 0.0 
1.882012070658e+01 -1.805540597212e+01 0.0 
1.805667505243e+01 -1.742221226236e+01 0.0 
2.852599958080e+01 -8.597196079481e+00 0.0 
2.856486123437e+01 -7.661382718527e+00 0.0 
1.111792842875e+01 -1.818223852980e+01 0.0 
2.203322722466e+01 -7.986646678802e+00 0.0 
3.955703676900e+01 -1.903246763601e+01 0.0 
1.944842206513e+01 -8.038750575182e-01 0.0 
1.909882767783e+01 -1.746322740933e+00 0.0 
2.281147422941e+01 -8.525912918334e+00 0.0 
2.850633001468e+01 -9.533271335986e+00 0.0 
2.532883344309e+01 -7.308951659710e+00 0.0 
2.620475466461e+01 -6.979208585400e+00 0.0 
1.396278270396e+01 -1.475095389807e+01 0.0 
9.791001166724e+00 -2.554159793552e+00 0.0 
2.229293380421e+01 -4.269762271052e+00 0.0 
4.677238984118e+01 -1.430071795514e+01 0.0 
2.228658385918e+01 -3.344747535984e+00 0.0 
8.940223674553e-01 -1.543595733415e+01 0.0 
2.118566862474e+01 -8.435876987696e+00 0.0 
2.678325936437e+01 -1.032621195706e+01 0.0 
2.223400220487e+01 -5.179046761770e+00 0.0 
2.375370625384e+01 -7.251580562134e+00 0.0 
3.156971327386e+01 -1.255534750737e+01 0.0 
3.328226391312e+01 -1.172914813316e+01 0.0 
3.250948774219e+01 -1.120157009348e+01 0.0 
2.032993445717e+01 -8.867880112202e+00 0.0 
2.697226974856e+01 -7.536633082045e+00 0.0 
2.707377810386e+01 -6.590835263295e+00 0.0 
2.914099246827e+01 -1.191678458549e+01 0.0 
3.544824072239e+01 -1.621126558525e+01 0.0 
3.456511855436e+01 -1.665054783843e+01 0.0 
3.448395810225e+01 -1.759117813016e+01 0.0 
3.368378673938e+01 -1.708037781328e+01 0.0 
3.375560452567e+01 -1.610973066913e+01 0.0 
3.288001547988e+01 -1.654324255651e+01 0.0 
3.282475929147e+01 -1.749725654692e+01 0.0 
3.199880906313e+01 -1.697294088625e+01 0.0 
3.197001272932e+01 -1.811667776864e+01 0.0 
3.111884713021e+01 -1.742166785755e+01 0.0 
3.120418962865e+01 -1.642155709385e+01 0.0 
3.034666704371e+01 -1.683123833816e+01 0.0 
3.026224379976e+01 -1.772592851714e+01 0.0 
3.046632362943e+01 -1.582232843075e+01 0.0 
1.961344017324e+01 -1.857459447985e+01 0.0 
2.274975894774e+01 -9.532738811922e+00 0.0 
1.833923246887e+01 -2.396746883672e+00 0.0 
1.988859500848e+01 -2.249244376594e+00 0.0 
2.758045562861e+01 -1.086434261689e+01 0.0 
3.247300178163e+01 -1.909930104252e+01 0.0 
3.461947482503e+01 -1.911879848019e+01 0.0 
2.047161538662e+01 -6.941478180358e+00 0.0 
2.750230940214e+01 -1.915490590764e+01 0.0 
3.165081350803e+01 -1.161860780120e+01 0.0 
1.897456727641e+01 -4.889634688522e+00 0.0 
2.549338539756e+01 -1.914858252089e+01 0.0 
3.462873135081e+01 -1.567482276144e+01 0.0 
3.384432415243e+01 -1.512280684518e+01 0.0 
3.471433767690e+01 -1.469086942990e+01 0.0 
3.651470373046e+01 -1.918207952149e+01 0.0 
3.901742690249e+01 -1.345028556517e+01 0.0 
2.153224102692e+01 -1.920169709333e+01 0.0 
1.918382939341e+01 -1.316226275662e+01 0.0 
2.005389162382e+01 -1.271962165174e+01 0.0 
2.011472087878e+01 -1.175029352900e+01 0.0 
3.210679478412e+01 -1.598038618242e+01 0.0 
1.752175226543e+01 -1.914713022656e+01 0.0 
1.696897240059e+01 -1.832772588765e+01 0.0 
1.599682523337e+01 -1.832599992024e+01 0.0 
1.644507199462e+01 -1.743697981535e+01 0.0 
1.549987712903e+01 -1.915192375101e+01 0.0 
3.050250861901e+01 -1.918943550234e+01 0.0 
2.949944061527e+01 -1.922950455235e+01 0.0 
1.375892575273e+01 -6.447160534926e+00 0.0 
1.457223670180e+01 -7.006709243857e+00 0.0 
1.450818793236e+01 -7.965943451779e+00 0.0 
1.538804712402e+01 -7.553409623699e+00 0.0 
1.545817644768e+01 -6.580929593419e+00 0.0 
1.626506893751e+01 -7.129032608911e+00 0.0 
1.619833811522e+01 -8.086588580887e+00 0.0 
1.714448609609e+01 -6.697429609777e+00 0.0 
2.887616543568e+01 -1.668015232137e+01 0.0 
1.349814589130e+01 -1.918225301544e+01 0.0 
1.153887772210e+01 -1.311384581217e+01 0.0 
1.242708159886e+01 -1.267046795531e+01 0.0 
1.249799674267e+01 -1.169005616014e+01 0.0 
6.631723893693e+00 -9.774184881867e+00 0.0 
7.451471631867e+00 -1.033148796006e+01 0.0 
7.377795355458e+00 -1.132196345268e+01 0.0 
5.810931797536e+00 -9.211654212252e+00 0.0 
2.402683899133e+01 -1.441378562320e+01 0.0 
1.249768692036e+01 -1.917388426624e+01 0.0 
1.580373499437e+01 -1.290751860664e+01 0.0 
8.344650507834e+00 -9.898403995170e+00 0.0 
3.750622115305e+01 -1.086526401533e+01 0.0 
3.699391251667e+01 -1.171695900794e+01 0.0 
3.606517829518e+01 -1.173717504500e+01 0.0 
3.650257641795e+01 -1.270047380221e+01 0.0 
3.808951488918e+01 -1.183518714175e+01 0.0 
4.760380962420e+00 -1.162484888315e+01 0.0 
3.861210370848e+00 -1.205657631736e+01 0.0 
3.038284309476e+00 -1.149851280664e+01 0.0 
2.961598794889e+00 -1.248856794980e+01 0.0 
2.138953225512e+00 -1.193212674534e+01 0.0 
2.227383593457e+00 -1.096258903918e+01 0.0 
2.043265419276e+00 -1.292158472959e+01 0.0 
1.252449446028e+00 -1.225502002753e+01 0.0 
3.949985210740e+01 -1.086594001795e+01 0.0 
1.453499444792e+01 -8.768805922472e-01 0.0 
1.403518950933e+01 -1.749965556633e+00 0.0 
1.300715031023e+01 -1.714737233040e+00 0.0 
1.350929389899e+01 -2.527443911291e+00 0.0 
1.449600910711e+01 -2.595486162864e+00 0.0 
1.395693872901e+01 -3.484211041558e+00 0.0 
1.495105865208e+01 -3.364609636216e+00 0.0 
1.508822528740e+01 -1.766586020494e+00 0.0 
1.250223858430e+01 -8.634590186802e-01 0.0 
1.200279523409e+01 -1.709044504992e+00 0.0 
1.150086239419e+01 -8.592789190668e-01 0.0 
1.101482754194e+01 -1.677730591922e+00 0.0 
1.148018564526e+01 -2.659323866909e+00 0.0 
8.800552119754e+00 -3.989875954728e+00 0.0 
3.452790439430e+00 -1.901136170646e+01 0.0 
8.658451825200e-01 -9.503462241795e+00 0.0 
1.694787786797e+00 -9.000589234502e+00 0.0 
1.703436717094e+00 -8.038819004041e+00 0.0 
2.594197971110e+00 -8.563955242845e+00 0.0 
1.630513735412e+00 -9.907244747511e+00 0.0 
8.566859292791e-01 -7.512203837972e+00 0.0 
1.685461277022e+00 -7.164280248030e+00 0.0 
2.506394468801e+00 -8.623386730818e-01 0.0 
2.007475081581e+00 -1.727729545205e+00 0.0 
9.211534699767e-01 -1.628791366312e+00 0.0 
1.500000000020e+00 -2.598063549486e+00 0.0 
2.482078929963e+00 -2.553580088725e+00 0.0 
2.999795253092e+00 -1.732169015019e+00 0.0 
3.999712607169e+00 -1.728832897453e+00 0.0 
4.499752199340e+00 -8.656478679175e-01 0.0 
4.964377774841e+00 -1.730129617941e+00 0.0 
4.425017908337e+00 -2.597541756243e+00 0.0 
5.446573195014e+00 -8.410144840023e-01 0.0 
4.915722346614e+01 -1.550640962770e+01 0.0 
4.826794919243e+01 -1.600000000000e+01 0.0 
1.053139533193e+01 -1.911782884365e+01 0.0 
4.156049861949e+01 -1.095160998589e+01 0.0 
9.494526624416e+00 -8.650570090219e-01 0.0 
4.555762166964e+01 -1.897098103585e+01 0.0 
4.250656411371e+01 -1.914387356218e+01 0.0 
4.350906466345e+01 -1.917234727395e+01 0.0 
8.759665722424e-01 -1.746422130609e+01 0.0 
1.698936011838e+00 -1.795012186674e+01 0.0 
4.742476811029e+01 -1.900090177972e+01 0.0 
7.749196752349e+00 -6.368049313489e+00 0.0 
3.361572113416e+01 -1.798765193915e+01 0.0 
4.484660149212e+01 -1.728661231383e+01 0.0 
1.984038172228e+01 -4.502575320116e+00 0.0 
1.035080352627e+01 -6.166639575753e+00 0.0 
2.753558010652e+00 -1.444909521181e+01 0.0 
7.217069543032e+00 -1.328635391078e+01 0.0 
4.364336727739e+00 -1.655585677381e+01 0.0 
4.595208426108e+00 -1.357919665443e+01 0.0 
6.164967006980e+00 -1.569873454630e+01 0.0 
1.487855768353e+01 -1.826523774028e+01 0.0 
2.791876456372e+00 -4.019632415181e+00 0.0 
4.246464893515e+01 -1.364898659620e+01 0.0 
4.503855590351e+01 -1.329552780944e+01 0.0 
4.407239109604e+01 -1.573900004093e+01 0.0 
5.141054449252e+00 -6.664290382472e+00 0.0 
3.141083947149e+00 -1.055790764912e+01 0.0 
6.196463198741e+00 -4.256497932609e+00 0.0 
2.599618716181e+01 -1.836893455464e+01 0.0 
2.923057372337e+01 -1.098461757645e+01 0.0 
1.168343877486e+01 -1.114079645041e+01 0.0 
6.706222096238e+00 -8.780364234441e+00 0.0 
8.567858614669e+00 -6.943121440850e+00 0.0 
1.123755132901e+01 -5.753525820030e+00 0.0 
2.353456234423e+01 -1.008536320953e+01 0.0 
9.162073319168e+00 -1.045593739109e+01 0.0 
9.676343469685e+00 -1.496493008366e+01 0.0 
4.490637882905e+01 -1.628778970202e+01 0.0 
7.398129387772e+00 -9.639977982323e-01 0.0 
1.049641705805e+01 -1.552503975272e+01 0.0 
9.010356286268e+00 -1.242805042052e+01 0.0 
3.985573925497e+01 -1.399863651620e+01 0.0 
1.816196318262e+01 -1.554066497931e+01 0.0 
1.306332244168e+01 -3.963646550326e+00 0.0 
4.145850903932e+01 -1.608094559275e+01 0.0 
3.794664933633e+01 -1.779020121986e+01 0.0 
3.819614412903e+01 -1.290749321016e+01 0.0 
6.270014188119e+00 -3.255093186826e+00 0.0 
4.251165370388e+01 -1.263870364997e+01 0.0 
1.207347709171e+01 -1.763942826023e+01 0.0 
3.633240829927e+01 -1.577330481104e+01 0.0 
4.319052668832e+00 -6.101812561904e+00 0.0 
1.676492415806e+01 -1.151547901392e+01 0.0 
2.594059220037e+01 -1.074225223009e+01 0.0 
3.340750911501e+01 -9.898764354137e+00 0.0 
4.397619591281e+01 -1.769773736461e+01 0.0 
2.175611595028e+01 -1.185718747128e+01 0.0 
1.641818733106e+01 -1.640685203215e+01 0.0 
1.661211421753e+01 -1.346121366338e+01 0.0 
3.428853504935e+00 -6.551993389271e+00 0.0 
8.700728832502e+00 -1.638460872825e+01 0.0 
1.931369795309e+01 -1.121629383702e+01 0.0 
4.139798872363e+01 -1.706922153459e+01 0.0 
2.647837478700e+01 -1.507353829290e+01 0.0 
1.779469616424e+01 -9.161615782908e+00 0.0 
3.885879219319e+01 -1.642026488918e+01 0.0 
1.338194936770e+01 -1.125916521471e+01 0.0 
1.897071181111e+01 -1.609204322578e+01 0.0 
2.844308548793e+01 -1.046221003096e+01 0.0 
2.659854702194e+01 -1.316109415760e+01 0.0 
2.979604503271e+01 -1.433296157755e+01 0.0 
2.417694041347e+01 -1.251231397779e+01 0.0 
1.807401327411e+00 -1.388891148480e+01 0.0 
9.599810618782e+00 -1.595439365034e+01 0.0 
1.652144692160e+01 -4.205392788472e+00 0.0 
2.367839450246e+01 -8.188385218643e+00 0.0 
3.814894930468e+01 -1.390748338767e+01 0.0 
2.466448215774e+01 -1.685878545680e+01 0.0 
4.134044524611e+01 -1.806610045954e+01 0.0 
2.600511411958e+01 -9.801774120648e+00 0.0 
7.882158050716e+00 -1.582364037353e+01 0.0 
3.881607873422e+01 -1.737970515013e+01 0.0 
8.270182347708e+00 -1.088622154920e+01 0.0 
8.672520392520e-01 -4.532984309881e+00 0.0 
1.993447205337e+01 -3.579061902667e+00 0.0 
1.794616079549e+01 -7.238038888498e+00 0.0 
2.097277068165e+01 -1.132450168636e+01 0.0 
8.194803300681e+00 -1.187214224265e+01 0.0 
3.522279404911e+01 -1.823342818178e+01 0.0 
6.984481050295e+00 -1.625271465557e+01 0.0 
1.309433007797e+01 -1.521718594215e+01 0.0 
2.150246167611e+01 -1.885399038185e+00 0.0 
3.250689370209e+01 -1.028789870535e+01 0.0 
6.085886272238e+00 -1.668342132851e+01 0.0 
1.588455661727e+01 -1.193498985921e+01 0.0 
1.809323400821e+01 -1.651110084195e+01 0.0 
1.348885082381e+00 -1.136065576512e+01 0.0 
2.497670221995e+01 -1.834631276173e+01 0.0 
2.937062818424e+01 -8.233711194470e+00 0.0 
5.185823744469e+00 -1.711566910207e+01 0.0 
1.477497877209e+01 -1.530177014512e+01 0.0 
2.125346158933e+01 -7.473003997367e+00 0.0 
4.751561118290e+01 -1.084897772632e+01 0.0 
5.056026576843e+00 -1.825750475525e+01 0.0 
1.473948554523e+01 -1.634577436309e+01 0.0 
2.410566630936e+01 -1.345970002612e+01 0.0 
1.507337507513e+01 -1.138527895328e+01 0.0 
3.189857338687e+01 -8.887781229006e+00 0.0 
7.298712468334e+00 -1.230231046246e+01 0.0 
2.738235495295e+01 -1.368931690364e+01 0.0 
3.750141041969e+01 -1.920449893070e+01 0.0 
1.557271965640e+01 -1.683317951731e+01 0.0 
3.393731848929e+01 -1.413034777044e+01 0.0 
6.482156824153e+00 -1.174575135362e+01 0.0 
2.077971718439e+01 -1.421279621836e+01 0.0 
3.455084320178e+00 -2.562590040585e+00 0.0 
3.099056096250e+01 -9.270280416035e+00 0.0 
5.580176125418e+00 -1.217387969259e+01 0.0 
1.707247630389e+01 -7.660651981710e+00 0.0 
1.418658814174e+01 -1.180390575393e+01 0.0 
2.049103025389e+01 -1.811296706038e+01 0.0 
4.680386172316e+00 -1.260396879301e+01 0.0 
1.699679896554e+01 -8.624561788199e+00 0.0 
3.779470168555e+00 -1.303424899720e+01 0.0 
3.036589870126e+01 -7.879832518349e+00 0.0 
3.306993001774e+01 -1.457671062095e+01 0.0 
2.840150110165e+00 -1.346530088269e+01 0.0 
2.732011135052e+01 -1.464591214560e+01 0.0 
5.423639259568e+00 -2.659711955016e+00 0.0 
2.324455961696e+01 -1.387269388211e+01 0.0 
1.752768355571e+00 -1.693128613594e+01 0.0 
1.020244783051e+01 -8.076834012808e+00 0.0 
1.330873875224e+01 -1.222417528206e+01 0.0 
3.297727364880e+01 -1.555480372087e+01 0.0 
2.890929955439e+01 -6.868664170731e+00 0.0 
1.323294664622e+01 -1.320754260334e+01 0.0 
2.726532861246e+01 -1.560593120806e+01 0.0 
2.240020643398e+01 -1.429299177247e+01 0.0 
2.090445823633e+01 -1.228128621332e+01 0.0 
1.315809881502e+01 -1.420739326938e+01 0.0 
2.781328038068e+01 -7.181956082300e+00 0.0 
8.614200829057e+00 -5.936933226306e+00 0.0 
8.714765730069e+00 -4.979270529687e+00 0.0 
1.611881701099e+01 -9.041973294003e+00 0.0 
2.806830314340e+01 -1.614622947108e+01 0.0 
2.084435391396e+00 -3.385085422913e+00 0.0 
3.133211811152e+01 -1.542347619750e+01 0.0 
9.693114650768e+00 -3.590281506442e+00 0.0 
1.531883592202e+01 -8.504584946143e+00 0.0 
2.151589117094e+01 -1.578915763018e+01 0.0 
4.918943882696e+01 -1.355538828056e+01 0.0 
1.443236615188e+01 -8.918701794549e+00 0.0 
8.276250966452e-01 -5.537685192197e+00 0.0 
1.362790867918e+01 -8.374718262212e+00 0.0 
2.083767477370e+01 -1.324843956035e+01 0.0 
1.273834678703e+01 -8.790890389337e+00 0.0 
1.192275845670e+01 -8.242261327467e+00 0.0 
4.477236023583e+01 -1.824312396664e+01 0.0 
1.102989384254e+01 -8.649855800911e+00 0.0 
4.849096516045e+01 -1.917293752213e+01 0.0 
1.588996752238e+00 -1.910230934687e+01 0.0 
4.904245197583e+01 -1.159839008158e+01 0.0 
2.753852929608e+01 -5.782128488093e+00 0.0 
1.756133602833e+01 -8.306130313187e-01 0.0 
2.615423700951e+01 -6.153865090092e+00 0.0 
1.028818761294e+01 -7.122020845892e+00 0.0 
2.970818901196e+01 -1.527821347593e+01 0.0 
4.801461623449e+01 -1.164472570985e+01 0.0 
9.455722100419e+00 -6.546069291118e+00 0.0 
3.089099236677e+01 -1.835339328261e+01 0.0 
2.350000000013e+01 -1.920825896750e+01 0.0 
4.830620531887e+01 -1.506626155470e+01 0.0 
1.725381944701e+01 -1.688794487850e+01 0.0 
2.156246225273e+01 -1.475893794002e+01 0.0 
4.919319648787e+01 -1.742767505896e+01 0.0 
4.437935623576e+01 -1.077662927266e+01 0.0 
1.001520521978e+01 -1.652692675208e+00 0.0 
9.067160240050e-01 -1.441937727541e+01 0.0 
2.603365149390e+01 -4.755996613848e+00 0.0 
2.458344439002e+01 -4.873645517696e+00 0.0 
2.304312390142e+01 -3.836552768096e+00 0.0 
2.546923202198e+00 -6.902480355749e+00 0.0 
1.251534969393e+01 -2.490989965776e+00 0.0 
2.454061833377e+01 -3.933354231935e+00 0.0 
1.788186558740e+01 -1.827424884923e+01 0.0 
4.090785243552e+01 -1.166553231904e+01 0.0 
2.230128851568e+01 -1.623015738726e+01 0.0 
2.302362347568e+01 -2.916239960270e+00 0.0 
3.878119254461e+01 -1.830091164002e+01 0.0 
2.210081359958e+01 -1.829238229150e+01 0.0 
8.443704882233e+00 -1.921993252862e+01 0.0 
2.218405824691e+01 -1.724557581508e+01 0.0 
2.151157503963e+01 -2.790636689331e+00 0.0 
3.741658958955e+01 -1.250400191722e+01 0.0 
2.697247663737e+01 -1.838290202309e+01 0.0 
4.743362342862e+01 -1.585850773010e+01 0.0 
6.671345075358e+00 -1.924977576322e+01 0.0 
3.900825404537e+01 -1.157220003875e+01 0.0 
4.649692961375e+01 -1.836335837481e+01 0.0 
1.578831424832e+01 -3.678284023361e+00 0.0 
4.814208768888e+01 -1.841249298770e+01 0.0 
2.964123298315e+01 -1.625739458193e+01 0.0 
4.580760351902e+01 -1.284294554687e+01 0.0 
3.561520879615e+01 -1.245548941949e+01 0.0 
2.555418095658e+00 -1.841101588290e+01 0.0 
3.288468366144e+01 -1.834258164109e+01 0.0 
2.065894391445e+01 -2.240688571739e+00 0.0 
4.739171429915e+01 -1.496536413446e+01 0.0 
3.478086729185e+00 -8.576434653209e+00 0.0 
1.606010630246e+01 -1.588421807951e+00 0.0 
1.018329200594e+01 -1.834320874317e+01 0.0 
2.957213339430e+01 -1.720496954591e+01 0.0 
4.142712790164e+00 -1.837794506222e+01 0.0 
6.698721532573e-01 -2.499999999997e+00 0.0 
8.037039123140e+00 -1.571229354954e+00 0.0 
1.203541361428e+01 -1.847784298001e+01 0.0 
2.899968332038e+01 -1.848264722179e+01 0.0 
1.469229460948e+01 -4.219485753730e+00 0.0 
4.049590781957e+01 -1.932812501995e+01 0.0 
1.996211678340e+01 -1.506329754720e+00 0.0 
4.250588298353e+01 -1.067383247529e+01 0.0 
5.831497011152e+00 -1.635396227234e+00 0.0 
5.317606125670e+00 -1.923927974868e+01 0.0 
4.208546426993e+01 -1.842830665025e+01 0.0 
2.327553405011e+00 -9.459409929662e+00 0.0 
3.568351902251e+01 -1.096637218582e+01 0.0 
1.682104374890e+00 -6.231413350963e+00 0.0 
2.451812238018e+01 -1.766524914339e+01 0.0 
1.058003429638e+01 -2.391839617098e+00 0.0 
4.399988753123e+01 -1.851998776342e+01 0.0 
1.400000000010e+01 -1.852293523028e+01 0.0 
3.604719565984e+01 -1.850662876800e+01 0.0 
1.951297136734e+01 -1.938092349694e+01 0.0 
1.821365318472e+01 -1.531276353287e+00 0.0 
2.298031859732e+01 -1.854635324722e+01 0.0 
1.552168066204e+01 -1.764280741977e+01 0.0 
4.572957713638e+01 -1.073347898229e+01 0.0 
3.429637429624e+01 -1.838861552790e+01 0.0 
2.427434426052e+00 -7.705577451869e+00 0.0 
4.662792031485e+00 -3.359424455416e+00 0.0 
4.926794919243e+01 -1.926794919243e+01 0.0 
7.320508075690e-01 -7.320508075688e-01 0.0 
4.926794919243e+01 -1.073205080757e+01 0.0 
7.320508075705e-01 -1.926794919243e+01 0.0 
2.917460242467e+00 -3.202866455310e+00 0.0 
4.838200575963e+01 -1.232674147454e+01 0.0 
2.998445708009e+01 -1.854403752148e+01 0.0 
5.949940090766e-01 -1.152762038165e+01 0.0 
4.844763495759e+01 -1.678092548787e+01 0.0 
1.301685480160e+01 -3.170056592566e+00 0.0 
1.650046335855e+01 -6.731535384067e-01 0.0 
4.854881540991e+01 -1.405224059779e+01 0.0 
2.119545114693e+01 -1.846813384545e+01 0.0 
3.797852849897e+01 -1.857978513215e+01 0.0 
4.649823708745e+01 -1.338351810816e+01 0.0 
2.012685900976e+01 -2.889659035009e+00 0.0 
2.953271913273e+01 -1.791558075192e+01 0.0 
2.408509097292e+00 -1.021949208421e+01 0.0 
2.642589566221e+01 -1.773216561448e+01 0.0 
1.730010270775e+01 -1.763165076721e+01 0.0 
2.017406551304e+01 -8.513536440582e-01 0.0 
5.254761581934e-01 -1.249999999999e+01 0.0 
6.640448215642e+00 -1.545337834885e+00 0.0 
7.843361506349e+00 -1.852719839527e+01 0.0 
1.588442191088e+00 -1.066158564320e+01 0.0 
3.031250000000e+01 -6.420918367347e+00 0.0 
4.951250000000e+01 -6.500000000000e+00 0.0 
3.180701530612e+01 -7.414795918363e+00 0.0 
4.951250000000e+01 -7.500000000000e+00 0.0 
3.331250000000e+01 -8.420918367347e+00 0.0 
4.951470588234e+01 -8.500000000000e+00 0.0 
3.480610198624e+01 -9.413633635267e+00 0.0 
4.951470588234e+01 -9.500000000000e+00 0.0 

SCALARS node_number int
LOOKUP_TABLE default
1
2
3
4
5
6
7
8
9
10
11
12
13
14
15
16
17
18
19
20
21
22
23
24
25
26
27
28
29
30
31
32
33
34
35
36
37
38
39
40
41
42
43
44
45
46
47
48
49
50
51
52
53
54
55
56
57
58
59
60
61
62
63
64
65
66
67
68
69
70
71
72
73
74
75
76
77
78
79
80
81
82
84
85
86
87
88
89
90
91
92
93
99
100
101
102
104
105
106
107
108
109
110
111
112
113
114
115
116
117
118
119
120
121
122
123
124
125
126
127
128
129
130
131
132
133
134
135
136
290
291
292
293
294
295
296
297
298
299
300
301
302
303
304
305
306
307
308
309
310
311
312
313
314
315
316
317
318
319
320
321
322
323
324
325
326
327
328
329
330
331
332
333
334
335
336
337
338
339
340
341
342
343
344
345
346
347
348
349
350
351
352
353
354
355
356
357
358
359
360
361
362
363
364
365
366
367
368
369
370
371
372
373
374
375
376
377
378
379
380
381
382
383
384
385
386
387
388
389
390
391
392
393
394
395
396
397
398
399
400
401
402
403
404
405
406
407
408
409
410
411
412
413
414
415
416
417
418
419
420
421
422
423
424
425
426
427
428
429
430
431
432
433
434
435
436
437
438
439
440
441
442
443
444
445
446
447
448
449
450
451
452
453
454
455
456
457
458
459
460
461
462
463
464
465
466
467
468
469
470
471
472
473
474
475
476
477
478
479
480
481
482
483
484
485
486
487
488
489
490
491
492
493
494
495
496
497
498
499
500
501
502
503
504
505
506
507
508
509
510
511
512
513
514
515
516
517
518
519
520
521
522
523
524
525
526
527
528
529
530
531
532
533
534
535
536
537
538
539
540
541
542
543
544
545
546
547
548
549
550
551
552
553
554
555
556
557
558
559
560
561
562
563
564
565
566
567
568
569
570
571
572
573
574
575
576
577
578
579
580
581
582
583
584
585
586
587
588
589
590
591
592
593
594
595
596
597
598
599
600
601
602
603
604
605
606
607
608
609
610
611
612
613
614
615
616
617
618
619
620
621
622
623
624
625
626
627
628
629
630
631
632
633
634
635
636
637
638
639
640
641
642
643
644
645
646
647
648
649
650
651
652
653
654
655
656
657
658
659
660
661
662
663
664
665
666
667
668
669
670
671
672
673
674
675
676
677
678
679
680
681
682
683
684
685
686
687
688
689
690
691
692
693
694
695
696
697
698
699
700
701
702
703
704
705
706
707
708
709
710
711
712
713
714
715
716
717
718
719
720
721
722
723
724
725
726
727
728
729
730
731
732
733
734
735
736
737
738
739
740
741
742
743
744
745
746
747
748
749
750
751
752
753
754
755
756
757
758
759
760
761
762
763
764
765
766
767
768
769
770
771
772
773
774
775
776
777
778
779
780
781
782
783
784
785
786
787
788
789
790
791
792
793
794
795
796
797
798
799
800
801
802
803
804
805
806
807
808
809
810
811
812
813
814
815
816
817
818
819
820
821
822
823
824
825
826
827
828
829
830
831
832
833
834
835
836
837
838
839
840
841
842
843
844
845
846
847
848
849
850
851
852
853
854
855
856
857
858
859
860
861
862
863
864
865
866
867
868
869
870
871
872
873
874
875
876
877
878
879
880
881
882
883
884
885
886
887
888
889
890
891
892
893
894
895
896
897
898
899
900
901
902
903
904
905
906
907
908
909
910
911
912
913
914
915
916
917
918
919
920
921
922
923
924
925
926
927
928
929
930
931
932
933
934
935
936
937
938
939
940
941
942
943
944
945
946
947
948
949
950
951
952
953
954
955
956
957
958
959
960
961
962
963
964
965
966
967
968
969
970
971
972
973
974
975
976
977
978
979
980
981
982
983
984
985
986
987
988
989
990
991
992
993
994
995
996
997
998
999
1000
1001
1002
1003
1004
1005
1006
1007
1008
1009
1010
1011
1012
1013
1014
1015
1016
1017
1018
1019
1020
1021
1022
1023
1024
1025
1026
1027
1028
1029
1030
1031
1032
1033
1034
1035
1036
1037
1038
1039
1040
1041
1042
1043
1044
1045
1046
1047
1048
1049
1050
1051
1052
1053
1054
1055
1056
1057
1058
1059
1060
1061
1062
1063
1064
1065
1066
1067
1068
1069
1070
1071
1072
1073
1074
1075
1076
1077
1078
1079
1080
1081
1082
1083
1084
1085
1086
1087
1088
1089
1090
1091
1092
1093
1094
1095
1096
1097
1098
1099
1100
1101
1102
1103
1104
1105
1106
1107
1108
1109
1110
1111
1112
1113
1114
1115
1116
1117
1118
1119
1120
1121
1122
1123
1124
1125
1126
1127
1128
1129
1130
1131
1132
1133
1134
1135
1136
1137
1138
1139
1140
1141
1142
1143
1144
1145
1146
1147
1148
1149
1150
1151
1152
1153
1154
1155
1156
1157
1158
1159
1160
1161
1162
1163
1164
1165
1166
1167
1168
1169
1170
1171
1172
1173
1174
1175
1176
1177
1178
1179
1180
1181
1182
1183
1184
1185
1186
1187
1188
1189
1190
1191
1192
1193
1194
1195
1196
1197
1198
1199
1200
1201
1202
1203
1204
1205
1206
1207
1208
1209
1210
1211
1212
1213
1214
1215
1216
1217
1218
1219
1220
1221
1222
1223
1224
1225
1226
1227
1228
1229
1230
1231
1232
1233
1234
1235
1236
1237
1238
1239
1240
1241
1242
1243
1244
1245
1246
1247
1248
1249
1250
1251
1252
1253
1254
1255
1256
1257
1258
1259
1260
1261
1262
1263
1264
1277
1278
1279
1280
1281
1282
1283
1284

VECTORS node_mesh_deformation float
0.0 7.810582234340e-02 0.0 
0.000000000000e+00 1.219670652020e-01 0.0 
0.0 0.000000000000e+00 0.0 
0.000000000000e+00 0.000000000000e+00 0.0 
0.0 7.800637150042e-02 0.0 
0.0 7.753225181440e-02 0.0 
0.0 7.668648458488e-02 0.0 
0.0 7.546751533644e-02 0.0 
0.0 7.386371842391e-02 0.0 
0.0 7.188226525304e-02 0.0 
0.0 6.952196827927e-02 0.0 
0.0 6.677594964917e-02 0.0 
0.0 6.363928517489e-02 0.0 
0.0 6.010149914087e-02 0.0 
0.0 5.614534903184e-02 0.0 
0.0 5.175936662775e-02 0.0 
0.0 4.693893955322e-02 0.0 
0.0 4.169610203039e-02 0.0 
0.0 3.597859502365e-02 0.0 
0.0 2.978403930966e-02 0.0 
0.0 2.310404235385e-02 0.0 
0.0 1.591611712128e-02 0.0 
0.0 8.205010807956e-03 0.0 
0.000000000000e+00 0.000000000000e+00 0.0 
0.000000000000e+00 0.000000000000e+00 0.0 
0.000000000000e+00 0.000000000000e+00 0.0 
0.000000000000e+00 0.000000000000e+00 0.0 
0.000000000000e+00 0.000000000000e+00 0.0 
0.000000000000e+00 0.000000000000e+00 0.0 
0.000000000000e+00 0.000000000000e+00 0.0 
0.000000000000e+00 0.000000000000e+00 0.0 
0.000000000000e+00 0.000000000000e+00 0.0 
0.000000000000e+00 0.000000000000e+00 0.0 
0.000000000000e+00 0.000000000000e+00 0.0 
0.000000000000e+00 0.000000000000e+00 0.0 
0.000000000000e+00 0.000000000000e+00 0.0 
0.000000000000e+00 0.000000000000e+00 0.0 
0.000000000000e+00 0.000000000000e+00 0.0 
0.000000000000e+00 0.000000000000e+00 0.0 
0.000000000000e+00 0.000000000000e+00 0.0 
0.000000000000e+00 0.000000000000e+00 0.0 
0.000000000000e+00 0.000000000000e+00 0.0 
0.000000000000e+00 0.000000000000e+00 0.0 
0.000000000000e+00 0.000000000000e+00 0.0 
0.000000000000e+00 0.000000000000e+00 0.0 
0.000000000000e+00 0.000000000000e+00 0.0 
0.000000000000e+00 0.000000000000e+00 0.0 
0.000000000000e+00 0.000000000000e+00 0.0 
0.000000000000e+00 0.000000000000e+00 0.0 
0.000000000000e+00 0.000000000000e+00 0.0 
0.000000000000e+00 0.000000000000e+00 0.0 
0.000000000000e+00 0.000000000000e+00 0.0 
0.000000000000e+00 0.000000000000e+00 0.0 
0.000000000000e+00 0.000000000000e+00 0.0 
0.000000000000e+00 0.000000000000e+00 0.0 
0.000000000000e+00 0.000000000000e+00 0.0 
0.000000000000e+00 0.000000000000e+00 0.0 
0.000000000000e+00 0.000000000000e+00 0.0 
0.000000000000e+00 0.000000000000e+00 0.0 
0.000000000000e+00 0.000000000000e+00 0.0 
0.000000000000e+00 0.000000000000e+00 0.0 
0.000000000000e+00 0.000000000000e+00 0.0 
0.000000000000e+00 0.000000000000e+00 0.0 
0.000000000000e+00 0.000000000000e+00 0.0 
0.000000000000e+00 0.000000000000e+00 0.0 
0.000000000000e+00 0.000000000000e+00 0.0 
0.000000000000e+00 0.000000000000e+00 0.0 
0.000000000000e+00 0.000000000000e+00 0.0 
0.000000000000e+00 0.000000000000e+00 0.0 
0.000000000000e+00 0.000000000000e+00 0.0 
0.000000000000e+00 0.000000000000e+00 0.0 
0.000000000000e+00 0.000000000000e+00 0.0 
0.000000000000e+00 1.115564965910e-01 0.0 
0.000000000000e+00 1.007281956064e-01 0.0 
0.000000000000e+00 8.948379330240e-02 0.0 
0.000000000000e+00 7.784144466499e-02 0.0 
0.000000000000e+00 6.579974375299e-02 0.0 
0.000000000000e+00 5.337499348178e-02 0.0 
0.000000000000e+00 4.057400012661e-02 0.0 
0.000000000000e+00 2.740514919506e-02 0.0 
0.000000000000e+00 1.387961061437e-02 0.0 
-1.011734274189e-02 1.018562627301e-01 0.0 
1.030026652963e-02 1.197308870950e-01 0.0 
-7.256774074396e-03 1.099294918975e-01 0.0 
-4.303980072830e-03 1.186872080266e-01 0.0 
-9.720096471071e-04 1.270982003479e-01 0.0 
2.551594577334e-03 1.343057078501e-01 0.0 
5.984727457943e-03 1.395876880384e-01 0.0 
8.667610973632e-03 1.420623575369e-01 0.0 
1.054025675936e-02 1.399942049296e-01 0.0 
1.121414858208e-02 1.349573171732e-01 0.0 
1.103449607846e-02 1.280334105995e-01 0.0 
0.000000000000e+00 1.593402841768e-01 0.0 
0.000000000000e+00 1.506381420507e-01 0.0 
0.000000000000e+00 1.414954183665e-01 0.0 
0.000000000000e+00 1.319572899116e-01 0.0 
5.873533265230e-04 1.219736893225e-01 0.0 
1.166804659036e-03 1.219926284108e-01 0.0 
1.757191862346e-03 1.220184560478e-01 0.0 
2.354933476781e-03 1.220421576898e-01 0.0 
2.959229254778e-03 1.220749890964e-01 0.0 
3.574975218214e-03 1.220893654789e-01 0.0 
4.208411112820e-03 1.220986106068e-01 0.0 
4.851608057535e-03 1.220761735886e-01 0.0 
5.527583796074e-03 1.220316963478e-01 0.0 
6.230928745389e-03 1.219235075266e-01 0.0 
6.961197805474e-03 1.217434237625e-01 0.0 
7.728294104211e-03 1.214716710994e-01 0.0 
8.534677049262e-03 1.210708969568e-01 0.0 
9.387712368870e-03 1.205002154103e-01 0.0 
-9.222636317102e-03 9.742063171509e-02 0.0 
-8.087497484478e-03 9.373970798952e-02 0.0 
-6.918440204029e-03 9.069325042595e-02 0.0 
-5.808252180577e-03 8.819800766812e-02 0.0 
-4.814936233217e-03 8.616698741963e-02 0.0 
-3.922938350485e-03 8.449479050185e-02 0.0 
-3.134558852457e-03 8.312305487143e-02 0.0 
-2.457287823521e-03 8.200473361531e-02 0.0 
-1.881197190292e-03 8.110093443596e-02 0.0 
-1.399562152665e-03 8.038339846111e-02 0.0 
-1.015854984008e-03 7.979966564779e-02 0.0 
-6.944870866255e-04 7.935891379854e-02 0.0 
-4.333921832940e-04 7.899351582283e-02 0.0 
-2.580685143494e-04 7.870604207813e-02 0.0 
-1.440296556012e-04 7.849715258933e-02 0.0 
-6.299397164256e-05 7.834440263568e-02 0.0 
-1.058385399277e-05 7.823241338994e-02 0.0 
1.789324305279e-05 7.815848324074e-02 0.0 
6.942547713162e-06 7.810957900555e-02 0.0 
6.469936580373e-04 1.593785982187e-01 0.0 
1.220878825663e-03 1.593797636781e-01 0.0 
1.793514512613e-03 1.594027082187e-01 0.0 
2.363336708243e-03 1.594293775263e-01 0.0 
2.924465461490e-03 1.594555620517e-01 0.0 
3.471965668673e-03 1.594755369821e-01 0.0 
4.001231095543e-03 1.594811850525e-01 0.0 
4.507861476931e-03 1.594621604245e-01 0.0 
4.987312159017e-03 1.594057634720e-01 0.0 
5.434523886429e-03 1.592958886745e-01 0.0 
5.844366299499e-03 1.591125223385e-01 0.0 
6.211997074722e-03 1.588307583722e-01 0.0 
6.533144724422e-03 1.584200619353e-01 0.0 
6.804347731709e-03 1.578433060001e-01 0.0 
7.022966118278e-03 1.570517236324e-01 0.0 
7.191857959832e-03 1.559846117132e-01 0.0 
7.320565819377e-03 1.545602756268e-01 0.0 
7.436775427259e-03 1.526744002586e-01 0.0 
7.594970668695e-03 1.501996584893e-01 0.0 
7.765228689571e-03 1.468949005348e-01 0.0 
9.827460238878e-03 1.428560439464e-01 0.0 
9.271711525535e-03 1.450134331788e-01 0.0 
8.751065251580e-03 1.466308018760e-01 0.0 
8.282282745249e-03 1.478670613824e-01 0.0 
7.831418625010e-03 1.487841447312e-01 0.0 
7.386446693722e-03 1.494633754543e-01 0.0 
6.934217363657e-03 1.499516890681e-01 0.0 
6.470444236420e-03 1.502953973455e-01 0.0 
5.992774882699e-03 1.505270980764e-01 0.0 
5.500673072547e-03 1.506734995729e-01 0.0 
4.994281144604e-03 1.507563109943e-01 0.0 
4.474126489256e-03 1.507933296936e-01 0.0 
3.942104215589e-03 1.507991724165e-01 0.0 
3.400102050634e-03 1.507852909783e-01 0.0 
2.849745844387e-03 1.507603662642e-01 0.0 
2.292413421671e-03 1.507314596880e-01 0.0 
1.729214294151e-03 1.507032471377e-01 0.0 
1.159752691912e-03 1.506758622479e-01 0.0 
5.811423426039e-04 1.506269190950e-01 0.0 
5.878679297098e-04 1.415326245736e-01 0.0 
1.178828189083e-03 1.415427863025e-01 0.0 
1.766410660672e-03 1.415721411869e-01 0.0 
2.352274641304e-03 1.416033656275e-01 0.0 
2.936338509208e-03 1.416347943336e-01 0.0 
3.520036529281e-03 1.416606439406e-01 0.0 
4.103172107385e-03 1.416738927077e-01 0.0 
4.687424349207e-03 1.416649348662e-01 0.0 
5.271349006357e-03 1.416221211310e-01 0.0 
5.857242823517e-03 1.415261151997e-01 0.0 
6.448058759844e-03 1.413572343324e-01 0.0 
7.046183253237e-03 1.410916239695e-01 0.0 
7.656652177914e-03 1.406976493256e-01 0.0 
8.287417258465e-03 1.401380270242e-01 0.0 
8.943240233393e-03 1.393498532900e-01 0.0 
9.651013849926e-03 1.382912020246e-01 0.0 
1.038698591423e-02 1.368544292638e-01 0.0 
1.017417088204e-02 1.292326498560e-01 0.0 
9.381481896114e-03 1.301503067529e-01 0.0 
8.607267357903e-03 1.308027490246e-01 0.0 
7.880491038932e-03 1.312827300610e-01 0.0 
7.188283475315e-03 1.316187366099e-01 0.0 
6.522446445118e-03 1.318443086297e-01 0.0 
5.878796526062e-03 1.319886379182e-01 0.0 
5.253494896849e-03 1.320680700123e-01 0.0 
4.640625409323e-03 1.320989625503e-01 0.0 
4.041473758264e-03 1.321068994159e-01 0.0 
3.449934989895e-03 1.320919580387e-01 0.0 
2.867176238965e-03 1.320685082009e-01 0.0 
2.287706771341e-03 1.320372364055e-01 0.0 
1.712989347347e-03 1.320084301862e-01 0.0 
1.141261180727e-03 1.319777779705e-01 0.0 
5.680506155770e-04 1.319322896358e-01 0.0 
-8.632949327001e-03 1.057205233915e-01 0.0 
-5.812993549000e-03 1.142916898325e-01 0.0 
-2.651183400314e-03 1.229982112239e-01 0.0 
8.101312299047e-04 1.309048144274e-01 0.0 
4.355882012121e-03 1.372823600899e-01 0.0 
7.547214363274e-03 1.413004593942e-01 0.0 
9.825200823524e-03 1.414659875460e-01 0.0 
1.103325209855e-02 1.377489604840e-01 0.0 
1.122903999642e-02 1.316894255932e-01 0.0 
1.073532920277e-02 1.240294632557e-01 0.0 
-1.759656623427e-03 1.125155145386e-01 0.0 
2.552388267635e-03 8.033822491512e-03 0.0 
-9.344811357153e-04 8.047391572656e-02 0.0 
-3.539457840766e-03 8.681263409852e-02 0.0 
1.645266392414e-03 7.508240926370e-03 0.0 
5.299022043378e-03 1.267954907904e-01 0.0 
5.312401613687e-04 5.810764294938e-02 0.0 
3.207068565114e-03 8.737215370971e-03 0.0 
1.097996517182e-02 1.340477798304e-01 0.0 
3.424638066608e-03 9.350174910885e-03 0.0 
1.264539106347e-02 1.292348059474e-01 0.0 
9.171878418988e-04 6.715395764903e-03 0.0 
-4.754072489899e-05 7.866814369307e-02 0.0 
3.263652781381e-03 1.040761701036e-02 0.0 
1.128502672619e-02 1.147399034760e-01 0.0 
3.595135283708e-04 7.067691137630e-02 0.0 
5.601919652451e-04 4.545374884322e-02 0.0 
2.918185643878e-03 1.146437715328e-02 0.0 
1.979613959762e-03 1.145750996470e-02 0.0 
5.544273804219e-04 1.187620017327e-02 0.0 
1.026758287125e-03 1.283931355076e-02 0.0 
1.386987525507e-03 1.139802132845e-02 0.0 
9.151395855042e-03 1.115655783662e-01 0.0 
5.933582265648e-03 1.125664549076e-01 0.0 
3.884875558803e-03 1.124411977887e-01 0.0 
3.756674965274e-04 7.168844664463e-02 0.0 
5.486103882868e-04 7.199077621351e-03 0.0 
-5.791915998184e-03 9.528693239541e-02 0.0 
9.162113692662e-05 7.817247470737e-02 0.0 
3.900320332485e-04 2.702505920674e-02 0.0 
1.995264139637e-03 1.130831051494e-01 0.0 
1.917744092194e-04 7.614849266904e-02 0.0 
2.744300180765e-03 1.298693525650e-02 0.0 
3.114479360541e-03 8.325712066274e-03 0.0 
3.365218982832e-03 9.748230171940e-03 0.0 
3.095214732674e-03 8.867143637907e-03 0.0 
2.074249756420e-03 7.403001246718e-03 0.0 
-2.230577541962e-03 8.342391131775e-02 0.0 
7.454798275994e-03 1.128305320699e-01 0.0 
1.484130453484e-03 8.427290717293e-03 0.0 
2.780995127267e-04 4.757121375448e-02 0.0 
-3.882516332006e-04 7.935626553657e-02 0.0 
4.737411039369e-04 6.526272618187e-02 0.0 
2.730523912504e-04 9.668114547409e-03 0.0 
8.605617095007e-03 1.310431022077e-01 0.0 
1.724104428149e-03 1.201608161325e-01 0.0 
1.233560053621e-02 1.333347342752e-01 0.0 
1.221749947465e-02 1.228113575995e-01 0.0 
-5.292049876125e-03 1.049838048338e-01 0.0 
4.566042471623e-04 9.381670041888e-02 0.0 
2.523347712180e-04 5.678159201057e-03 0.0 
4.149370250128e-05 7.805847753131e-02 0.0 
1.504676487798e-04 2.170661136577e-02 0.0 
1.082324771497e-02 1.100272423377e-01 0.0 
1.161227322905e-02 1.049628618063e-01 0.0 
1.068290267830e-02 1.009130507279e-01 0.0 
1.159370289468e-02 9.491912993794e-02 0.0 
1.066709907315e-02 8.973320360139e-02 0.0 
1.133360043491e-02 8.426250841971e-02 0.0 
1.236795620822e-02 8.928401367587e-02 0.0 
1.191800660766e-02 7.866225382602e-02 0.0 
1.303697920274e-02 8.361222156202e-02 0.0 
1.026099987357e-02 7.879829470176e-02 0.0 
1.237616873712e-02 7.296199632094e-02 0.0 
1.356767191256e-02 7.782993721048e-02 0.0 
1.268433848106e-02 6.721825449231e-02 0.0 
1.392695071505e-02 7.198002355559e-02 0.0 
1.468252757265e-02 8.229233241296e-02 0.0 
1.508090918085e-02 7.636280789273e-02 0.0 
1.568989594674e-02 8.627704810748e-02 0.0 
1.610963965524e-02 8.024500574207e-02 0.0 
1.527467482179e-02 7.047037023810e-02 0.0 
1.630823067881e-02 7.428913167825e-02 0.0 
1.698177681848e-02 8.361006987756e-02 0.0 
1.716458775054e-02 7.759583674353e-02 0.0 
1.766053915218e-02 8.641773354633e-02 0.0 
1.781112737021e-02 8.034686638611e-02 0.0 
1.811699531882e-02 8.867214779793e-02 0.0 
1.822516121490e-02 8.258460148947e-02 0.0 
1.772887221642e-02 7.447684635532e-02 0.0 
1.810457057263e-02 7.676013894268e-02 0.0 
1.838274868304e-02 8.431349179865e-02 0.0 
1.822513944384e-02 7.857389507482e-02 0.0 
1.827154698897e-02 8.556739188564e-02 0.0 
1.808385613000e-02 7.994850326087e-02 0.0 
1.786610864186e-02 7.312264672058e-02 0.0 
1.770542860375e-02 7.466018471514e-02 0.0 
1.768269617856e-02 8.094168898167e-02 0.0 
1.729826692498e-02 7.585145303448e-02 0.0 
1.703369674334e-02 8.160198261234e-02 0.0 
1.666020778451e-02 7.673761618199e-02 0.0 
1.615970274908e-02 8.196957439161e-02 0.0 
1.580805785395e-02 7.736665190074e-02 0.0 
1.614043176703e-02 7.216032672574e-02 0.0 
1.531947171943e-02 7.303995272214e-02 0.0 
1.476836767781e-02 7.779637424577e-02 0.0 
1.432737651657e-02 7.374980226641e-02 0.0 
1.471065303857e-02 6.900714742004e-02 0.0 
1.377208558106e-02 6.999666536249e-02 0.0 
1.400012958451e-02 6.523493341105e-02 0.0 
1.312162303066e-02 6.649161919427e-02 0.0 
1.271631313196e-02 7.083351947002e-02 0.0 
1.213336791621e-02 6.759379135648e-02 0.0 
1.239507621949e-02 6.319051222284e-02 0.0 
1.147367035909e-02 6.457185192070e-02 0.0 
1.105720267544e-02 6.861543482500e-02 0.0 
1.048098853387e-02 6.582341201786e-02 0.0 
1.076095111757e-02 6.169174023167e-02 0.0 
9.842126039683e-03 6.319175177230e-02 0.0 
9.440822982821e-03 6.700315942231e-02 0.0 
8.883523005322e-03 6.459133556467e-02 0.0 
9.165096075730e-03 6.062975348793e-02 0.0 
8.277159575576e-03 6.227777318102e-02 0.0 
7.903445026681e-03 6.593108320585e-02 0.0 
7.375985983089e-03 6.381472108971e-02 0.0 
7.638825885659e-03 5.999533209694e-02 0.0 
6.805383826517e-03 6.175550114360e-02 0.0 
6.969857517824e-03 5.775735694851e-02 0.0 
6.462737043060e-03 6.531744466053e-02 0.0 
5.967848780196e-03 6.343270331794e-02 0.0 
5.566155749797e-03 6.677504762548e-02 0.0 
5.144431653537e-03 6.503747520954e-02 0.0 
1.732710019935e-02 6.795578700440e-02 0.0 
4.717587091010e-03 6.814424037180e-02 0.0 
5.035614248337e-03 6.968054160967e-02 0.0 
4.354019756639e-03 6.656617184374e-02 0.0 
4.676908497090e-03 6.329581002239e-02 0.0 
3.918814364769e-03 6.944294678785e-02 0.0 
3.607517431454e-03 6.801426360429e-02 0.0 
3.182570311766e-03 7.067055327956e-02 0.0 
1.631004780851e-02 8.711855139584e-02 0.0 
1.524984764000e-02 6.465227889313e-02 0.0 
2.916087880649e-03 6.938298441016e-02 0.0 
2.519509865099e-03 7.182349366248e-02 0.0 
2.681771312406e-03 7.295340007234e-02 0.0 
2.065563855346e-03 7.389254738266e-02 0.0 
9.671760409212e-03 8.435936187557e-02 0.0 
9.151682585355e-03 7.304328011890e-02 0.0 
8.657220266194e-03 7.867772848608e-02 0.0 
8.022452192606e-03 6.707689359936e-02 0.0 
7.621063284738e-03 7.268277738522e-02 0.0 
1.933195085711e-03 7.289739720385e-02 0.0 
1.137291666112e-02 6.179426830374e-02 0.0 
8.336341727343e-03 6.130767483727e-02 0.0 
1.726631391784e-02 9.266088414151e-02 0.0 
1.824578935310e-02 9.152071779304e-02 0.0 
1.473168465859e-02 6.381237890358e-02 0.0 
3.243063905429e-03 6.656360970417e-02 0.0 
2.591438077452e-03 6.806817121687e-02 0.0 
2.833023258069e-03 6.508094460288e-02 0.0 
7.706964595586e-03 5.572365154358e-02 0.0 
6.949209941318e-03 5.332439575731e-02 0.0 
7.568630673809e-03 5.099774286147e-02 0.0 
6.738703403872e-03 4.844251451311e-02 0.0 
7.219899673606e-03 4.581308599378e-02 0.0 
6.336772138271e-03 4.309931337600e-02 0.0 
5.918448192483e-03 4.589411757799e-02 0.0 
5.479057169229e-03 4.037967752820e-02 0.0 
5.116944149551e-03 4.333381738853e-02 0.0 
6.660535504546e-03 4.016089264491e-02 0.0 
7.607279689941e-03 4.303908880778e-02 0.0 
4.655720394186e-03 3.764318606770e-02 0.0 
4.342666083016e-03 4.074396271683e-02 0.0 
3.874863761214e-03 3.487064302656e-02 0.0 
3.603957320589e-03 3.811400236231e-02 0.0 
3.950734167168e-03 4.371060203617e-02 0.0 
3.251420558292e-03 4.122071253994e-02 0.0 
3.497582410850e-03 4.654579949056e-02 0.0 
1.388164096037e-02 6.001719403948e-02 0.0 
1.439309179225e-02 5.815104069213e-02 0.0 
1.341724321093e-02 5.433428353443e-02 0.0 
1.369216495634e-02 5.201955671364e-02 0.0 
1.260601613007e-02 4.817730140828e-02 0.0 
1.263000398169e-02 4.541774224250e-02 0.0 
1.144625027865e-02 4.154038556545e-02 0.0 
1.147523686922e-02 4.449532771186e-02 0.0 
1.282968055625e-02 6.139451278407e-02 0.0 
1.357658786650e-02 7.805101906735e-02 0.0 
1.382651274730e-02 8.211680592223e-02 0.0 
1.245346856562e-02 8.192611458963e-02 0.0 
1.248672548178e-02 8.599704168525e-02 0.0 
1.095532780045e-02 8.536919668361e-02 0.0 
1.074156457062e-02 8.946313510875e-02 0.0 
9.074667494993e-03 8.841586785902e-02 0.0 
9.377431452048e-03 8.468321468445e-02 0.0 
7.397664396599e-03 8.735279955248e-02 0.0 
7.791746035160e-03 8.399625288347e-02 0.0 
5.762264734997e-03 8.631419828194e-02 0.0 
6.238843709728e-03 8.335329261065e-02 0.0 
1.742904647742e-02 6.884061401808e-02 0.0 
1.376130609320e-02 4.945250586475e-02 0.0 
1.243441726166e-02 4.238720939328e-02 0.0 
1.360289394601e-02 4.659804148382e-02 0.0 
2.121963125399e-03 7.486826823225e-02 0.0 
2.907429649174e-03 3.543139811148e-02 0.0 
6.867370472628e-03 3.706079004708e-02 0.0 
7.880539230115e-03 4.015602710738e-02 0.0 
1.023320514556e-02 3.779869670228e-02 0.0 
1.538114768612e-03 7.475485579196e-02 0.0 
8.588415572678e-03 9.254010548795e-02 0.0 
1.031871972723e-02 9.398769682579e-02 0.0 
6.902186595383e-03 6.079724320272e-02 0.0 
6.594762158450e-03 6.643532519921e-02 0.0 
6.934061588543e-03 3.379196654253e-02 0.0 
1.426468772488e-03 7.388564492936e-02 0.0 
4.870134938631e-03 3.439767807272e-02 0.0 
5.083288270715e-03 8.964495981941e-02 0.0 
2.586215491594e-03 3.867767723155e-02 0.0 
2.259303250808e-03 3.269243623772e-02 0.0 
5.427181040963e-03 4.854388592815e-02 0.0 
1.200186606322e-02 3.905513693187e-02 0.0 
1.323060473876e-02 4.354682255654e-02 0.0 
8.030219646894e-03 8.095864995739e-02 0.0 
6.559049349166e-03 8.068493159333e-02 0.0 
4.766122164249e-03 8.277112863445e-02 0.0 
5.217749654442e-03 8.034288244571e-02 0.0 
6.748690264498e-03 7.821690130887e-02 0.0 
5.451271376337e-03 7.827456221980e-02 0.0 
3.949403390399e-03 8.014974989800e-02 0.0 
4.258289762557e-03 7.835674568838e-02 0.0 
5.577137329698e-03 7.631940244054e-02 0.0 
4.458508718484e-03 7.665804172946e-02 0.0 
3.187631907299e-03 7.847642305775e-02 0.0 
3.454729720280e-03 7.700166422092e-02 0.0 
2.470005304927e-03 2.916093732511e-02 0.0 
3.442602321833e-03 8.826269063093e-02 0.0 
1.506355363427e-02 9.229828601906e-02 0.0 
5.901641693754e-03 3.059260035193e-02 0.0 
9.961074483908e-03 3.451847358087e-02 0.0 
5.809516694612e-03 5.428370361310e-02 0.0 
5.592763291432e-03 5.996565224041e-02 0.0 
6.218329434510e-03 7.203676714137e-02 0.0 
5.300338477944e-03 6.558228464062e-02 0.0 
4.630717023915e-03 5.328669107761e-02 0.0 
4.420052766491e-03 5.896039551663e-02 0.0 
4.950047064611e-03 7.113283492673e-02 0.0 
4.144085629576e-03 6.455867159504e-02 0.0 
4.555663932628e-03 7.659123565838e-02 0.0 
3.816730076764e-03 7.006920421973e-02 0.0 
3.383358961173e-03 5.782455424311e-02 0.0 
3.118328579866e-03 6.341002833257e-02 0.0 
3.449643708528e-03 7.549786191174e-02 0.0 
2.805258872215e-03 6.891307644862e-02 0.0 
3.050688746676e-03 8.083251652320e-02 0.0 
2.452478082013e-03 7.432779995279e-02 0.0 
2.207655610079e-03 6.220055247906e-02 0.0 
1.117300114045e-03 7.547455502706e-02 0.0 
1.032147765987e-02 4.094953456775e-02 0.0 
9.010246235803e-03 3.416251875037e-02 0.0 
2.231736001619e-03 6.671146169648e-02 0.0 
2.408934039847e-03 6.355228446830e-02 0.0 
3.004424392551e-03 6.169464226191e-02 0.0 
2.484597086340e-03 6.000344958089e-02 0.0 
1.891898738037e-03 6.775605867397e-02 0.0 
1.662005849433e-03 5.537694521782e-02 0.0 
7.893933109205e-03 9.710816658949e-02 0.0 
9.659482701572e-03 9.898704096718e-02 0.0 
5.930525197904e-03 4.853812617705e-02 0.0 
1.960695727306e-03 3.607373317242e-02 0.0 
2.198036192127e-03 4.178596658969e-02 0.0 
1.789171945198e-02 9.217554540701e-02 0.0 
1.766253298920e-02 9.833879158915e-02 0.0 
1.705438830137e-02 9.840683701705e-02 0.0 
1.655809194121e-02 1.049053153967e-01 0.0 
1.717497206287e-02 1.048748094866e-01 0.0 
1.566450588453e-02 1.043774995093e-01 0.0 
8.579933654321e-03 4.603500686061e-02 0.0 
2.679552478661e-03 5.095312693192e-02 0.0 
2.768928863496e-03 7.407235855537e-02 0.0 
2.090432201296e-03 7.583730509164e-02 0.0 
1.667478768747e-03 2.988568727024e-02 0.0 
1.131059668195e-02 4.723206375935e-02 0.0 
1.683863985412e-02 6.600981522927e-02 0.0 
1.635801166988e-02 6.051353272727e-02 0.0 
1.554990575869e-02 5.714534329966e-02 0.0 
1.488576973376e-02 5.178257363428e-02 0.0 
1.385421289219e-02 4.788714924126e-02 0.0 
1.299756774615e-02 4.264614991169e-02 0.0 
1.403973770212e-02 4.662332810267e-02 0.0 
1.131244119415e-02 3.535496496928e-02 0.0 
1.196680055838e-02 3.756815609523e-02 0.0 
2.101629869742e-03 7.976051148469e-02 0.0 
1.482554391174e-02 5.373867204078e-02 0.0 
5.592331293213e-03 7.448246326667e-02 0.0 
1.149456194483e-03 7.618917744015e-02 0.0 
2.228233916620e-03 7.864986469748e-02 0.0 
1.003106623617e-03 7.477254690598e-02 0.0 
1.247662798106e-03 7.297680079567e-02 0.0 
5.747182197066e-03 2.696317268754e-02 0.0 
1.173407743060e-02 3.823411796384e-02 0.0 
1.261404032645e-02 4.355437063856e-02 0.0 
1.578824415049e-02 1.117883732405e-01 0.0 
1.640934194207e-02 1.117266078277e-01 0.0 
9.999786269518e-03 3.103190497581e-02 0.0 
8.095373714212e-03 8.431332656967e-02 0.0 
5.323020633526e-03 8.296495199327e-02 0.0 
4.833035778361e-03 8.826046105302e-02 0.0 
7.481654384769e-04 7.630416718728e-02 0.0 
1.845556979376e-03 7.992437326871e-02 0.0 
3.726378846530e-03 4.643977934690e-02 0.0 
1.195405903252e-02 9.540397653629e-02 0.0 
1.134619864840e-02 1.007681803925e-01 0.0 
2.462689137538e-03 9.156026309088e-02 0.0 
8.590331942742e-04 8.985097427394e-02 0.0 
1.398883932715e-03 6.088369629976e-02 0.0 
1.191241214983e-03 4.842307241252e-02 0.0 
3.085537607339e-03 5.790872396901e-02 0.0 
2.516060689473e-03 5.603755516820e-02 0.0 
6.836759096350e-03 3.031104555021e-02 0.0 
2.579363323308e-03 7.733572041258e-02 0.0 
1.366821454425e-03 4.265361615589e-02 0.0 
1.021765281557e-02 4.386628947714e-02 0.0 
1.097352816721e-02 4.976493271683e-02 0.0 
1.900528175270e-03 6.200083584815e-02 0.0 
6.919738022006e-03 1.021863902162e-01 0.0 
5.083904682611e-03 9.985221216990e-02 0.0 
6.726596471857e-03 7.389755765572e-02 0.0 
3.600916517831e-03 7.560359445610e-02 0.0 
8.361895669298e-04 7.398214413303e-02 0.0 
5.403932958659e-03 2.311873974433e-02 0.0 
3.774668096227e-03 4.064542383995e-02 0.0 
1.303301420442e-02 4.166804682300e-02 0.0 
1.485067004029e-02 5.021809283792e-02 0.0 
1.079094478094e-02 3.268630270207e-02 0.0 
1.503678622397e-03 7.871882777149e-02 0.0 
4.712672388765e-03 2.361411176999e-02 0.0 
1.385482071440e-03 3.340253579308e-02 0.0 
1.037237588870e-02 3.386972639389e-02 0.0 
1.118206886843e-02 3.879429230537e-02 0.0 
1.345997499892e-02 9.669849704998e-02 0.0 
1.295492163396e-02 1.023500474346e-01 0.0 
1.048466327305e-02 1.066497228261e-01 0.0 
1.213621455344e-02 1.085364308587e-01 0.0 
1.334405621061e-02 9.399342558292e-02 0.0 
1.483540154359e-02 9.773770951372e-02 0.0 
1.591756607146e-02 9.589939005129e-02 0.0 
1.507820109839e-02 1.019972298439e-01 0.0 
1.575521361703e-02 1.052311166604e-01 0.0 
1.745934113893e-02 1.043665774859e-01 0.0 
1.666459481931e-02 1.111462305169e-01 0.0 
1.391278270603e-02 8.656456632038e-02 0.0 
1.529229092104e-02 6.218811387345e-02 0.0 
3.641832333376e-03 5.973111183828e-02 0.0 
4.182423713425e-03 4.882951827872e-02 0.0 
8.398548282615e-03 5.357596294164e-02 0.0 
2.823223544738e-03 4.522093021369e-02 0.0 
2.130585786652e-03 3.813540645237e-02 0.0 
3.681443617580e-03 8.720825635245e-02 0.0 
3.215680532300e-03 9.236628137428e-02 0.0 
1.525784419415e-03 7.642138509949e-02 0.0 
1.387252754512e-03 7.724533231242e-02 0.0 
6.281556363659e-03 5.553787320122e-02 0.0 
4.920552365997e-03 2.740072132403e-02 0.0 
4.790717751554e-03 4.177840052391e-02 0.0 
4.698670562341e-03 3.592816464450e-02 0.0 
5.932865053417e-03 4.272122600855e-02 0.0 
6.548973435265e-03 2.660245404418e-02 0.0 
1.227878162725e-02 7.819143008777e-02 0.0 
1.296157674149e-02 5.643851763628e-02 0.0 
1.931800214827e-03 8.703902088579e-02 0.0 
1.725285672633e-02 6.590841368625e-02 0.0 
9.273928123141e-04 7.761380704387e-02 0.0 
1.406734025830e-02 6.044224393327e-02 0.0 
1.141460514929e-03 2.700850553504e-02 0.0 
1.321165779145e-03 2.320746760579e-02 0.0 
9.022497967862e-03 2.689294278207e-02 0.0 
1.232170608989e-02 1.094786830089e-01 0.0 
1.655923912646e-02 6.084535888197e-02 0.0 
1.663379069006e-02 6.308806620599e-02 0.0 
1.471704163307e-02 1.113534990236e-01 0.0 
1.519416587219e-02 1.142447477788e-01 0.0 
1.626968048973e-02 1.078668191578e-01 0.0 
1.548476159984e-02 1.165605643343e-01 0.0 
6.559731539328e-03 7.195473578147e-02 0.0 
5.502260666807e-03 7.276588586666e-02 0.0 
9.077672980734e-03 2.787929403588e-02 0.0 
9.540937101040e-03 2.839919245240e-02 0.0 
8.801928212293e-03 2.891023121525e-02 0.0 
9.585244842810e-03 3.355561781292e-02 0.0 
7.600180116576e-03 2.255261513778e-02 0.0 
8.630737649639e-03 2.682931852265e-02 0.0 
1.005745357864e-03 7.201804717179e-02 0.0 
1.537513226783e-02 1.187136409164e-01 0.0 
2.865713033380e-03 3.356345418298e-02 0.0 
1.410145213596e-02 1.079770376616e-01 0.0 
3.779048067425e-03 2.044861797120e-02 0.0 
4.007413030777e-03 2.420747881491e-02 0.0 
-5.565151654885e-04 8.836297938789e-02 0.0 
6.104578665962e-04 8.571214712843e-02 0.0 
9.357892819466e-04 3.578155434706e-02 0.0 
9.341140934552e-03 1.129625706651e-01 0.0 
1.096868402151e-02 1.151533664801e-01 0.0 
7.572584157806e-03 1.104273188614e-01 0.0 
1.725610984088e-04 1.217580724879e-02 0.0 
8.616664343393e-04 1.131815800981e-01 0.0 
8.573452667129e-04 2.012677495953e-02 0.0 
1.743560089912e-02 1.032176020099e-01 0.0 
1.002034486703e-03 2.934034490712e-02 0.0 
1.572972780607e-02 5.607416842567e-02 0.0 
1.724170202850e-02 9.250924383580e-02 0.0 
7.970242444511e-03 3.368798794689e-02 0.0 
7.613861086284e-04 4.269643668460e-02 0.0 
5.611531301852e-04 2.823736404744e-02 0.0 
5.536978905255e-03 9.423812031759e-02 0.0 
4.993259272979e-03 9.954734941025e-02 0.0 
6.106197606215e-03 8.916242048747e-02 0.0 
4.236401148468e-03 9.338027417144e-02 0.0 
9.671672790184e-04 9.586505481694e-02 0.0 
2.042591347880e-03 4.395131953865e-02 0.0 
2.005292253276e-03 6.948457215152e-02 0.0 
1.652782053296e-03 6.795207405573e-02 0.0 
2.735939471938e-03 7.620827074826e-02 0.0 
3.615359554827e-03 7.432245681621e-02 0.0 
3.695745626068e-03 5.572928477330e-02 0.0 
4.296102456905e-03 5.768116607422e-02 0.0 
1.380196437297e-02 5.468805274140e-02 0.0 
1.246952213616e-02 5.012136910930e-02 0.0 
1.602010538584e-02 6.273976364428e-02 0.0 
9.944737054248e-03 4.657588717054e-02 0.0 
1.048978897722e-02 5.211395450104e-02 0.0 
1.143819323882e-02 5.516802557834e-02 0.0 
2.163336410959e-03 3.268054933826e-02 0.0 
1.439674943406e-03 2.429946245573e-02 0.0 
7.666910313787e-03 7.117476761500e-02 0.0 
7.917740079975e-03 7.334107451953e-02 0.0 
6.292941619558e-03 7.018386101302e-02 0.0 
2.746145695404e-03 2.788370959128e-02 0.0 
9.489734279544e-04 1.624324788192e-02 0.0 
1.409104915887e-03 1.952579730020e-02 0.0 
7.036133934530e-04 7.827078198982e-02 0.0 
1.158813586079e-03 7.806520341324e-02 0.0 
3.830929748606e-03 1.049362559368e-01 0.0 
1.906707412225e-03 1.022452928931e-01 0.0 
4.529515116772e-03 3.053232772050e-02 0.0 
5.807345378308e-03 3.695584716844e-02 0.0 
3.210250601043e-03 2.302058810893e-02 0.0 
5.994150534017e-04 7.324416103478e-02 0.0 
1.383584464262e-02 4.525315201542e-02 0.0 
4.979058900618e-03 1.944690129057e-02 0.0 
6.189617524900e-03 2.310369917639e-02 0.0 
3.635213235629e-03 1.492682963578e-02 0.0 
1.045194750059e-02 3.161970126235e-02 0.0 
7.910710827158e-03 2.283900869744e-02 0.0 
8.080311610016e-03 2.326484364593e-02 0.0 
-1.881213186586e-03 9.100387054320e-02 0.0 
4.243438758138e-04 3.369016848043e-02 0.0 
3.818798473020e-03 9.854093702160e-02 0.0 
-2.789380366522e-03 8.949952165971e-02 0.0 
3.298914235600e-03 1.038986543946e-01 0.0 
2.756865755188e-03 9.750487061715e-02 0.0 
2.853017468581e-03 1.091080521726e-01 0.0 
4.968645773533e-04 7.489385246924e-02 0.0 
6.291743174501e-03 1.020593253831e-01 0.0 
6.946942002600e-03 9.563060732655e-02 0.0 
2.196900879117e-04 7.910607315308e-02 0.0 
1.856547665355e-03 2.074367451709e-02 0.0 
3.929547527584e-04 7.840337769158e-02 0.0 
6.075748724097e-04 7.788360804052e-02 0.0 
2.896969294204e-03 1.699572049083e-02 0.0 
3.164964262757e-03 2.095803543022e-02 0.0 
2.104463293890e-03 1.366159163183e-02 0.0 
2.456944631202e-03 1.806443293782e-02 0.0 
3.301448781369e-03 2.489508898653e-02 0.0 
2.568972559748e-03 2.175808174054e-02 0.0 
4.474487002128e-03 1.055137762326e-01 0.0 
1.684933619000e-03 1.369423503351e-02 0.0 
1.903118879615e-03 1.841383108048e-02 0.0 
1.108907499481e-03 1.053821836227e-02 0.0 
1.416884156363e-02 1.229937635166e-01 0.0 
1.346973602388e-02 1.102470165946e-01 0.0 
1.232647470747e-02 1.172035558429e-01 0.0 
9.331233856916e-03 1.226239498911e-01 0.0 
6.490474647336e-03 2.124551375825e-02 0.0 
8.007563677292e-03 2.849858415583e-02 0.0 
8.639516138254e-04 3.052331836764e-02 0.0 
9.880646250431e-04 3.664327379646e-02 0.0 
2.277059632277e-03 1.033735220521e-01 0.0 
1.662063783385e-03 1.038199615150e-01 0.0 
1.813042413495e-03 9.367886935913e-02 0.0 
1.308124089626e-03 9.492135766189e-02 0.0 
1.401402942037e-03 8.468059722087e-02 0.0 
9.018361137620e-04 8.599755711816e-02 0.0 
1.068086193463e-03 7.546518067280e-02 0.0 
6.552193588668e-03 1.856327659040e-02 0.0 
5.894120211785e-03 1.166800250144e-01 0.0 
1.353972538347e-02 1.173629505923e-01 0.0 
6.130679451122e-03 1.830276877911e-02 0.0 
7.434525634185e-03 2.343127555749e-02 0.0 
1.559631675629e-02 1.180163119071e-01 0.0 
1.399726113743e-02 1.260358476423e-01 0.0 
3.128718667583e-03 1.523575674443e-02 0.0 
1.509073324631e-02 9.223482713783e-02 0.0 
1.395388150229e-03 1.327272771930e-02 0.0 
-6.465521400560e-03 9.893829621622e-02 0.0 
-2.821460846906e-03 9.669470572159e-02 0.0 
1.624268646657e-02 9.270208792316e-02 0.0 
1.659133588409e-02 1.098666837523e-01 0.0 
1.474367124054e-02 1.113658131013e-01 0.0 
1.382060226757e-02 1.182715038222e-01 0.0 
9.117719648767e-03 4.049226765628e-02 0.0 
7.919774754157e-04 7.894501246499e-02 0.0 
5.727515421061e-03 1.076991135474e-01 0.0 
1.553060638471e-03 7.427958824914e-02 0.0 
2.206024705703e-03 1.103021150299e-01 0.0 
4.529857459743e-04 3.334515361357e-02 0.0 
1.519239627155e-02 8.697458745845e-02 0.0 
1.800954819124e-02 9.669576540247e-02 0.0 
8.749683544337e-03 1.044468032554e-01 0.0 
1.448482245833e-02 1.035085539961e-01 0.0 
1.409931605156e-02 8.820521153803e-02 0.0 
1.249507280322e-02 9.960479092968e-02 0.0 
1.330602657421e-02 1.041002453313e-01 0.0 
1.507156434925e-02 8.218743655008e-02 0.0 
1.479379476905e-02 1.187703631593e-01 0.0 
1.241911371797e-02 1.259596482584e-01 0.0 
1.656841172156e-02 8.975988392874e-02 0.0 
7.219433687041e-03 4.927037713960e-02 0.0 
7.174663274050e-03 4.342145140005e-02 0.0 
5.567184389697e-03 3.151748658320e-02 0.0 
6.976928650673e-03 3.767222592605e-02 0.0 
8.580691384097e-03 4.969916610768e-02 0.0 
8.466726859616e-03 4.389435748996e-02 0.0 
6.609142286990e-03 3.209163090303e-02 0.0 
8.177190179527e-03 3.814569525245e-02 0.0 
5.552145852967e-03 2.403576471726e-02 0.0 
7.623277260080e-03 3.220090582244e-02 0.0 
9.759789578418e-03 4.421755764774e-02 0.0 
9.369507838642e-03 3.873782739234e-02 0.0 
7.217439963185e-03 2.806423365272e-02 0.0 
1.135402498569e-02 5.053491830532e-02 0.0 
4.862810034176e-03 1.386915377228e-02 0.0 
1.722385550764e-02 8.693610126656e-02 0.0 
-4.656406931254e-04 9.314015387776e-02 0.0 
-1.325514313457e-03 9.951822580034e-02 0.0 
1.775775567519e-02 9.496328178409e-02 0.0 
2.727112547277e-03 1.169790378469e-02 0.0 
2.237043905915e-03 1.172125524602e-02 0.0 
1.232069148953e-02 9.049619560895e-02 0.0 
3.325345108035e-03 1.004713269562e-02 0.0 
1.424685149010e-02 9.825986041528e-02 0.0 
6.809555866667e-03 9.110772139143e-02 0.0 
3.450089400040e-03 9.665616177369e-03 0.0 
8.531099268488e-03 5.549485613816e-02 0.0 
9.846562491319e-03 6.166504643039e-02 0.0 
9.555356385803e-03 6.739634194290e-02 0.0 
1.717112485849e-03 1.105846035464e-02 0.0 
6.660642104926e-03 8.386703607567e-02 0.0 
3.064081952598e-03 8.245540428071e-03 0.0 
1.471376035018e-02 5.605627583099e-02 0.0 
1.565644623104e-02 6.041253760925e-02 0.0 
1.608855408291e-02 6.653200710860e-02 0.0 
9.974806792798e-03 5.014880743256e-02 0.0 
2.695586068054e-03 8.059504909774e-03 0.0 
4.826003027151e-03 1.527848385274e-02 0.0 
4.495487462421e-03 1.502161850302e-02 0.0 
6.704107345325e-03 2.257406474711e-02 0.0 
2.327712648908e-03 7.757400061113e-03 0.0 
2.818302363949e-03 1.022120454748e-02 0.0 
2.826080961448e-03 9.547876985540e-03 0.0 
6.791229075565e-03 7.598743182177e-02 0.0 
8.078799153822e-03 7.565543438893e-02 0.0 
9.146070600973e-03 7.277319099849e-02 0.0 
9.395172576578e-03 7.535918705930e-02 0.0 
8.120174858981e-03 7.819565155209e-02 0.0 
9.523106452679e-03 7.818770296642e-02 0.0 
1.070279640807e-02 7.508073003525e-02 0.0 
9.516123889252e-03 8.129900685745e-02 0.0 
1.039624308975e-02 3.926339862958e-02 0.0 
1.902355506679e-03 7.269353669439e-03 0.0 
8.118870783807e-03 4.855360406275e-02 0.0 
9.021332861540e-03 5.138429944751e-02 0.0 
9.212828027344e-03 5.623885899842e-02 0.0 
4.174486532069e-03 6.152183091798e-02 0.0 
4.878186475263e-03 5.961665634467e-02 0.0 
4.948873617835e-03 5.552663127628e-02 0.0 
3.488482043117e-03 6.335045281662e-02 0.0 
1.568838531693e-02 5.525121308255e-02 0.0 
1.729678727786e-03 7.246514032548e-03 0.0 
1.198729528549e-02 5.302674158681e-02 0.0 
5.437498018308e-03 6.153717761958e-02 0.0 
8.291663528809e-03 1.122569187119e-01 0.0 
8.772845583920e-03 1.028254940577e-01 0.0 
9.645068559998e-03 1.021077024714e-01 0.0 
9.085303338104e-03 9.162436865050e-02 0.0 
7.804696839166e-03 1.019633762275e-01 0.0 
3.087547068353e-03 5.372538583764e-02 0.0 
2.478984455688e-03 5.167457598336e-02 0.0 
1.936879559695e-03 5.411803566956e-02 0.0 
1.875859744166e-03 4.956791065521e-02 0.0 
1.355564069778e-03 5.212621293113e-02 0.0 
1.400234760538e-03 5.634870358490e-02 0.0 
1.271795825358e-03 4.739722214605e-02 0.0 
7.844628400502e-04 5.060957865842e-02 0.0 
6.672509403266e-03 1.128044886069e-01 0.0 
-2.807238298642e-03 8.496341690766e-02 0.0 
-9.590391050960e-04 8.364440657979e-02 0.0 
-6.978624558371e-04 8.231084451472e-02 0.0 
5.239984544527e-04 8.224910097243e-02 0.0 
5.481088093244e-04 8.360833066465e-02 0.0 
2.207432618443e-03 8.176059889815e-02 0.0 
2.081925861569e-03 8.349356817065e-02 0.0 
-1.278973373058e-03 8.537328240487e-02 0.0 
-1.726409934873e-03 8.222387473388e-02 0.0 
-4.281178706567e-04 8.125207674192e-02 0.0 
-1.293248933431e-03 8.124812508550e-02 0.0 
-2.481202814462e-04 8.043038794569e-02 0.0 
8.654339545551e-04 8.000079070029e-02 0.0 
1.995534153508e-03 7.676419007123e-02 0.0 
4.876373919900e-04 8.175074494147e-03 0.0 
5.109122925990e-04 6.191701446904e-02 0.0 
9.711179861769e-04 6.366054770218e-02 0.0 
8.870531485268e-04 6.668914407241e-02 0.0 
1.432075473605e-03 6.513388180741e-02 0.0 
9.777194819702e-04 6.046313399408e-02 0.0 
4.206587785128e-04 6.817098831172e-02 0.0 
7.950858298698e-04 6.912429903025e-02 0.0 
7.802173724558e-05 7.809209597907e-02 0.0 
1.519376472645e-04 7.774516274023e-02 0.0 
5.764095246141e-05 7.776001566361e-02 0.0 
2.017056589469e-04 7.711398842532e-02 0.0 
3.223279262397e-04 7.717961267822e-02 0.0 
2.266968013447e-04 7.779567859996e-02 0.0 
2.825767055130e-04 7.789195809422e-02 0.0 
7.820120201796e-05 7.829594195909e-02 0.0 
3.201116528588e-04 7.802512016285e-02 0.0 
5.660652318698e-04 7.731281232168e-02 0.0 
3.616246418314e-05 7.845859158955e-02 0.0 
3.396673787108e-04 5.955819514432e-02 0.0 
6.471833620907e-04 5.338015962804e-02 0.0 
1.489066528512e-03 7.570446886646e-03 0.0 
5.167933289385e-03 1.121334080481e-01 0.0 
-6.145925090024e-04 7.985277081759e-02 0.0 
5.205548485847e-04 1.426682308231e-02 0.0 
7.980363136184e-04 1.184194165004e-02 0.0 
6.462081437704e-04 1.147237418430e-02 0.0 
2.846864977617e-04 1.983638039974e-02 0.0 
4.624897744661e-04 1.630757127799e-02 0.0 
2.779381662350e-04 1.386804961444e-02 0.0 
3.380129296478e-03 7.194174095545e-02 0.0 
5.165396079200e-03 2.619858791503e-02 0.0 
1.479729059618e-03 3.680110171639e-02 0.0 
6.075384276187e-03 9.521908863719e-02 0.0 
4.517239885073e-03 7.355835353730e-02 0.0 
1.566648879372e-03 3.926472511966e-02 0.0 
4.678452299519e-03 4.613486762613e-02 0.0 
1.861636317231e-03 2.627770603715e-02 0.0 
2.834478570085e-03 4.419273839525e-02 0.0 
3.143811916438e-03 3.204226479354e-02 0.0 
4.273392408622e-03 1.527182020184e-02 0.0 
6.722065284794e-04 7.552096407778e-02 0.0 
4.129689416175e-03 8.194792295779e-02 0.0 
2.652134672616e-03 8.612045124684e-02 0.0 
2.471132655948e-03 5.661851022135e-02 0.0 
2.290809973126e-03 7.067130843557e-02 0.0 
1.965280544610e-03 5.805310363515e-02 0.0 
1.579263362134e-03 7.558500837354e-02 0.0 
6.212742561914e-03 1.848417605809e-02 0.0 
1.661076344888e-02 9.898837144098e-02 0.0 
8.448305639742e-03 5.815673746781e-02 0.0 
3.941695441881e-03 6.496986326594e-02 0.0 
4.172387709364e-03 7.083519521079e-02 0.0 
4.544792082440e-03 7.505428119208e-02 0.0 
1.788581440243e-02 8.641554837967e-02 0.0 
6.207419879374e-03 5.969353991213e-02 0.0 
5.745176916829e-03 3.728693449257e-02 0.0 
1.883714294586e-03 4.970298070494e-02 0.0 
-1.249710262599e-04 7.892535174438e-02 0.0 
5.893523242838e-03 3.402902419288e-02 0.0 
6.187004075848e-03 5.093777945798e-02 0.0 
5.791368251472e-03 7.756539793925e-02 0.0 
1.120810702689e-02 3.835297161589e-02 0.0 
2.850552642848e-03 7.994925441128e-02 0.0 
3.591687528193e-03 5.218316095926e-02 0.0 
3.603468002787e-03 2.970463314774e-02 0.0 
7.518807515432e-03 8.993261761615e-02 0.0 
1.065282841527e-03 7.693781657139e-02 0.0 
4.342704474674e-03 9.361492020401e-02 0.0 
4.317621261780e-03 1.961155353687e-02 0.0 
7.117627209290e-03 5.505062877621e-02 0.0 
1.733301663216e-03 7.187118988331e-02 0.0 
1.320827434516e-02 6.169012017496e-02 0.0 
1.831864553393e-02 9.035067824340e-02 0.0 
1.183170139668e-02 1.189280276478e-01 0.0 
1.533083201835e-03 3.136517154859e-02 0.0 
1.716298903388e-02 6.969583793278e-02 0.0 
8.665283480365e-03 3.059509857303e-02 0.0 
1.238367542083e-02 5.070384227073e-02 0.0 
1.479568551020e-03 7.075957242449e-02 0.0 
4.097309272547e-03 2.793293187300e-02 0.0 
1.549023910152e-02 6.784640231174e-02 0.0 
2.896370304832e-03 3.949887789782e-02 0.0 
1.452443240759e-02 5.332628547449e-02 0.0 
1.320223804177e-02 7.431216665237e-02 0.0 
4.760563171395e-03 4.756464505475e-02 0.0 
1.000190616949e-02 5.893585800271e-02 0.0 
1.072822227849e-02 3.485036610057e-02 0.0 
1.713754751386e-02 1.013994598825e-01 0.0 
1.711261924308e-02 7.171522848967e-02 0.0 
1.411212829722e-02 6.624075460810e-02 0.0 
1.777327126894e-02 7.119471081253e-02 0.0 
1.067819776589e-03 4.234568130891e-02 0.0 
4.966482640299e-03 3.099357311499e-02 0.0 
4.222422441167e-03 8.540235446402e-02 0.0 
1.611590773489e-02 9.821283868442e-02 0.0 
7.155844565737e-03 7.827716875699e-02 0.0 
1.075858755068e-02 3.340564941046e-02 0.0 
2.048809799042e-03 2.636983573309e-02 0.0 
1.798318435739e-02 9.778427212646e-02 0.0 
4.047120107493e-03 3.149652019866e-02 0.0 
3.744407742310e-03 3.519671999076e-02 0.0 
5.586219253315e-03 5.762589468589e-02 0.0 
2.403192996444e-04 7.466963237351e-02 0.0 
3.263366208525e-03 9.755222038742e-02 0.0 
1.100353328885e-02 8.164097785123e-02 0.0 
1.676228658901e-02 7.107491104467e-02 0.0 
5.584428589970e-03 5.330064764275e-02 0.0 
3.993764036657e-03 2.343312026317e-02 0.0 
3.280858292674e-03 2.855098844517e-02 0.0 
8.003885551696e-03 3.703310955036e-02 0.0 
-3.462583484563e-03 1.086309605265e-01 0.0 
1.301662868342e-02 1.135452265107e-01 0.0 
2.579008445672e-03 2.554641896918e-02 0.0 
1.235077997484e-02 5.834868187443e-02 0.0 
9.432193211488e-03 3.086928598586e-02 0.0 
8.496955167658e-04 5.463338409977e-02 0.0 
6.318385074476e-03 1.826018403808e-02 0.0 
1.429454429984e-02 1.246772018977e-01 0.0 
1.947125596767e-03 2.247609602092e-02 0.0 
9.158057037070e-03 3.742204031587e-02 0.0 
1.379234257014e-02 9.141202939746e-02 0.0 
1.429608202130e-03 1.131882130114e-01 0.0 
1.232354515103e-03 1.410943690427e-02 0.0 
7.733031323877e-03 3.012653032493e-02 0.0 
1.692919190345e-02 6.343901198634e-02 0.0 
1.160344435036e-02 6.008655759060e-02 0.0 
1.253255595658e-02 1.262762467542e-01 0.0 
4.881702674775e-03 5.105599194844e-02 0.0 
1.628227818150e-02 6.847634909230e-02 0.0 
1.487366528991e-03 1.082875561954e-02 0.0 
7.425080927876e-03 2.691851180837e-02 0.0 
1.076261463722e-02 7.341817085563e-02 0.0 
4.300398803282e-03 5.345723708822e-02 0.0 
1.474384462723e-02 5.133958842614e-02 0.0 
4.453262369561e-04 7.724079113660e-02 0.0 
1.392564648324e-02 1.203840295528e-01 0.0 
3.647934406419e-03 5.133557837270e-02 0.0 
1.091358309838e-02 7.822474903469e-02 0.0 
1.076645119641e-02 5.712598658687e-02 0.0 
6.480305669054e-03 1.849307727474e-02 0.0 
3.003840559852e-03 4.916307659308e-02 0.0 
1.198323732162e-02 7.472925535349e-02 0.0 
2.372486747634e-03 4.693861954027e-02 0.0 
1.263916999353e-02 1.315730572926e-01 0.0 
1.113084651351e-02 6.747444156953e-02 0.0 
1.736083556129e-03 4.465075409582e-02 0.0 
1.500096103869e-02 5.894698125066e-02 0.0 
6.889455571164e-04 7.740597645237e-02 0.0 
1.625242467019e-02 5.830260821627e-02 0.0 
6.710155609333e-04 2.359842436199e-02 0.0 
5.951247974025e-03 6.847338874617e-02 0.0 
9.908272017286e-03 5.427989196488e-02 0.0 
9.989194053894e-03 5.588072665841e-02 0.0 
1.178180072460e-02 1.343152645274e-01 0.0 
9.548923284292e-03 4.908584831991e-02 0.0 
1.331650415944e-02 4.909436673009e-02 0.0 
1.541742233379e-02 5.338102522237e-02 0.0 
1.647507945795e-02 6.495960613757e-02 0.0 
8.914203090677e-03 4.333234095327e-02 0.0 
1.351140165781e-02 1.259361763127e-01 0.0 
3.491379271818e-03 7.320632769278e-02 0.0 
2.787808627071e-03 7.513305115927e-02 0.0 
1.157057503442e-02 7.155375257425e-02 0.0 
1.192050552927e-02 4.435670484838e-02 0.0 
3.964974037727e-04 7.631078645071e-02 0.0 
1.144007800414e-02 5.598768205724e-02 0.0 
1.792398303582e-03 7.773573848596e-02 0.0 
1.037334206234e-02 7.219166566729e-02 0.0 
1.255301227161e-02 3.986951537355e-02 0.0 
4.080063385388e-04 8.306888043760e-02 0.0 
9.947891400728e-03 6.950387371066e-02 0.0 
2.933994889276e-04 7.285230291682e-02 0.0 
8.806855681438e-03 7.037279664431e-02 0.0 
1.579796469515e-02 5.835018067592e-02 0.0 
8.393157659743e-03 6.807679533747e-02 0.0 
7.332691929699e-03 6.914011207066e-02 0.0 
1.021258159682e-03 2.411426118185e-02 0.0 
6.928779940459e-03 6.718892474043e-02 0.0 
1.344891810078e-04 1.150129179607e-02 0.0 
2.031515618692e-04 7.433011400490e-03 0.0 
5.386195497366e-04 1.051369510923e-01 0.0 
9.330183136573e-03 1.344797340641e-01 0.0 
-5.007996544276e-03 9.188518259204e-02 0.0 
1.147646487899e-02 1.231177749279e-01 0.0 
5.307958705263e-03 7.120056195247e-02 0.0 
1.277759344154e-02 5.580425858409e-02 0.0 
1.119254466921e-03 1.046405963567e-01 0.0 
4.370488837779e-03 7.219542548016e-02 0.0 
5.278538077793e-03 2.070467934795e-02 0.0 
3.187139336905e-03 8.571030107561e-03 0.0 
7.346956192791e-04 6.500655194645e-02 0.0 
8.224570715630e-03 2.736331628639e-02 0.0 
1.438354650202e-02 4.834257027933e-02 0.0 
2.091913504358e-04 3.498440160519e-02 0.0 
3.319302205462e-03 1.140100761568e-01 0.0 
-7.715997841551e-05 7.976543845245e-02 0.0 
5.144809126381e-04 3.936504322883e-02 0.0 
6.225295738979e-03 1.304240292071e-01 0.0 
7.540495175949e-03 1.196941713855e-01 0.0 
3.942939231305e-03 1.136049712182e-01 0.0 
1.155492532983e-03 6.983902085133e-02 0.0 
5.718228329741e-04 8.111532078004e-02 0.0 
3.594106193383e-03 1.235447791058e-01 0.0 
5.244127813075e-03 1.602856456968e-02 0.0 
5.594748391708e-03 1.043589751725e-01 0.0 
1.190015075350e-02 3.692620496875e-02 0.0 
1.094412142066e-05 1.163238446641e-01 0.0 
2.583211298735e-03 2.305168125870e-02 0.0 
6.277555286584e-03 1.751257959834e-02 0.0 
1.039445100197e-03 6.607472973307e-03 0.0 
9.370500169599e-03 2.758034567172e-02 0.0 
2.399575479402e-04 1.069936497902e-01 0.0 
8.292107435715e-03 9.424497168442e-02 0.0 
6.072712789997e-03 1.876139471021e-02 0.0 
9.930287621529e-04 5.516700747617e-02 0.0 
7.438604288330e-04 6.305282811120e-03 0.0 
7.053413308753e-03 1.050820846621e-01 0.0 
6.205107853674e-04 2.252089032801e-02 0.0 
2.870061188100e-03 8.462943669316e-02 0.0 
3.104961851648e-04 2.186050788668e-02 0.0 
1.097597205452e-02 4.476030108328e-02 0.0 
2.281715158901e-03 9.131550419787e-02 0.0 
9.983097744858e-03 9.383653272127e-02 0.0 
5.596910554617e-04 1.285147827058e-02 0.0 
4.616618029260e-03 2.146040059001e-02 0.0 
-1.602681789393e-03 1.032839372035e-01 0.0 
1.152721348220e-03 6.623037620104e-02 0.0 
1.932117076330e-03 6.514432427829e-02 0.0 
-2.044458250413e-03 8.746955539312e-02 0.0 
2.592540690685e-03 1.382295682616e-02 0.0 
8.835345752150e-03 3.380160173205e-02 0.0 
9.374983070503e-04 1.313660246908e-02 0.0 
8.391643853534e-05 7.716011254504e-02 0.0 
1.253204700564e-04 7.887214171281e-02 0.0 
2.925572671097e-03 1.297899305620e-02 0.0 
5.390889583886e-03 1.844839684475e-02 0.0 
3.697739290789e-03 8.180807554567e-02 0.0 
8.573824898477e-04 9.266631197445e-03 0.0 
-4.096180072324e-03 1.007339142610e-01 0.0 
4.529306579741e-03 1.150921832027e-01 0.0 
3.027778319362e-04 7.822947698189e-02 0.0 
5.932273018745e-04 6.357913063233e-03 0.0 
1.511989718146e-03 2.154450988927e-02 0.0 
1.370008561033e-03 6.210664882443e-02 0.0 
9.959614820573e-03 1.101837388328e-01 0.0 
6.833655737015e-04 7.140236375170e-02 0.0 
8.476472368059e-03 2.513104154740e-02 0.0 
5.974680497154e-04 7.957029857839e-02 0.0 
1.021844647951e-03 2.036078394661e-02 0.0 
3.426877992048e-03 1.292379090481e-02 0.0 
3.149767144272e-03 1.998967919557e-02 0.0 
2.207830968374e-03 6.133995285111e-03 0.0 
-3.193865836909e-03 9.355417532978e-02 0.0 
5.520560415164e-03 1.530846884530e-02 0.0 
5.842417579990e-03 2.053878161644e-02 0.0 
2.494678833465e-03 1.144440631650e-01 0.0 
3.997628573828e-03 2.121279738856e-02 0.0 
1.227886046017e-03 6.767931936547e-02 0.0 
8.661398100269e-04 7.654715751265e-02 0.0 
5.852167067388e-05 1.019204608464e-02 0.0 
1.219036611833e-05 7.803964222937e-02 0.0 
4.188824464961e-04 1.143868299228e-01 0.0 
8.114125845982e-05 6.061735826535e-03 0.0 
5.132284018616e-04 7.656085483717e-02 0.0 
8.863255158928e-04 9.710896257711e-02 0.0 
4.966558851908e-03 1.805135019535e-02 0.0 
3.679660578714e-04 5.389710472288e-02 0.0 
4.904845545681e-04 4.340419763081e-02 0.0 
1.594904163827e-03 8.094716232643e-02 0.0 
-4.620248250252e-03 8.904628188416e-02 0.0 
7.058178142216e-04 7.722888116801e-02 0.0 
5.527292312614e-03 1.541369807864e-02 0.0 
2.419399673457e-03 1.925044118716e-02 0.0 
1.825863052140e-03 8.508886395159e-02 0.0 
9.093030741596e-04 9.965026962692e-02 0.0 
6.943955355023e-03 2.541747951199e-02 0.0 
1.474048097192e-03 5.932356636146e-02 0.0 
8.184799049459e-03 2.568846391939e-02 0.0 
6.615720405822e-03 2.130995941926e-02 0.0 
-6.766865500094e-03 1.023705017160e-01 0.0 
3.327212979256e-04 4.941212908112e-02 0.0 
2.408532810003e-04 7.844765815313e-02 0.0 
1.713917999449e-03 1.215785164496e-02 0.0 
9.792877104460e-04 5.754244030502e-02 0.0 
9.073113175639e-03 1.444016649500e-01 0.0 
2.959659518993e-04 1.550436108409e-01 0.0 
1.040632989429e-02 1.398899926095e-01 0.0 
2.955663924524e-04 1.461268135423e-01 0.0 
1.063228838380e-02 1.333392301877e-01 0.0 
2.756821494998e-04 1.367835905576e-01 0.0 
1.016710077399e-02 1.254626386167e-01 0.0 
2.893746289772e-04 1.270126690732e-01 0.0 

VECTORS node_bounda_dof_materi_velocity_x float
1.000000000000e+00 0.0 0.0 
1.000000000000e+00 0.0 0.0 
1.000000000000e+00 0.0 0.0 
1.000000000000e+00 0.0 0.0 
1.000000000000e+00 0.0 0.0 
1.000000000000e+00 0.0 0.0 
1.000000000000e+00 0.0 0.0 
1.000000000000e+00 0.0 0.0 
1.000000000000e+00 0.0 0.0 
1.000000000000e+00 0.0 0.0 
1.000000000000e+00 0.0 0.0 
1.000000000000e+00 0.0 0.0 
1.000000000000e+00 0.0 0.0 
1.000000000000e+00 0.0 0.0 
1.000000000000e+00 0.0 0.0 
1.000000000000e+00 0.0 0.0 
1.000000000000e+00 0.0 0.0 
1.000000000000e+00 0.0 0.0 
1.000000000000e+00 0.0 0.0 
1.000000000000e+00 0.0 0.0 
1.000000000000e+00 0.0 0.0 
1.000000000000e+00 0.0 0.0 
1.000000000000e+00 0.0 0.0 
1.000000000000e+00 0.0 0.0 
1.000000000000e+00 0.0 0.0 
1.000000000000e+00 0.0 0.0 
1.000000000000e+00 0.0 0.0 
1.000000000000e+00 0.0 0.0 
1.000000000000e+00 0.0 0.0 
1.000000000000e+00 0.0 0.0 
1.000000000000e+00 0.0 0.0 
1.000000000000e+00 0.0 0.0 
1.000000000000e+00 0.0 0.0 
1.000000000000e+00 0.0 0.0 
1.000000000000e+00 0.0 0.0 
1.000000000000e+00 0.0 0.0 
1.000000000000e+00 0.0 0.0 
1.000000000000e+00 0.0 0.0 
1.000000000000e+00 0.0 0.0 
1.000000000000e+00 0.0 0.0 
1.000000000000e+00 0.0 0.0 
1.000000000000e+00 0.0 0.0 
1.000000000000e+00 0.0 0.0 
1.000000000000e+00 0.0 0.0 
1.000000000000e+00 0.0 0.0 
1.000000000000e+00 0.0 0.0 
1.000000000000e+00 0.0 0.0 
1.000000000000e+00 0.0 0.0 
1.000000000000e+00 0.0 0.0 
1.000000000000e+00 0.0 0.0 
1.000000000000e+00 0.0 0.0 
1.000000000000e+00 0.0 0.0 
1.000000000000e+00 0.0 0.0 
1.000000000000e+00 0.0 0.0 
1.000000000000e+00 0.0 0.0 
1.000000000000e+00 0.0 0.0 
1.000000000000e+00 0.0 0.0 
1.000000000000e+00 0.0 0.0 
1.000000000000e+00 0.0 0.0 
1.000000000000e+00 0.0 0.0 
1.000000000000e+00 0.0 0.0 
1.000000000000e+00 0.0 0.0 
1.000000000000e+00 0.0 0.0 
1.000000000000e+00 0.0 0.0 
1.000000000000e+00 0.0 0.0 
1.000000000000e+00 0.0 0.0 
1.000000000000e+00 0.0 0.0 
1.000000000000e+00 0.0 0.0 
1.000000000000e+00 0.0 0.0 
1.000000000000e+00 0.0 0.0 
1.000000000000e+00 0.0 0.0 
1.000000000000e+00 0.0 0.0 
1.000000000000e+00 0.0 0.0 
1.000000000000e+00 0.0 0.0 
1.000000000000e+00 0.0 0.0 
1.000000000000e+00 0.0 0.0 
1.000000000000e+00 0.0 0.0 
1.000000000000e+00 0.0 0.0 
1.000000000000e+00 0.0 0.0 
1.000000000000e+00 0.0 0.0 
1.000000000000e+00 0.0 0.0 
0.0 0.0 0.0 
0.0 0.0 0.0 
0.0 0.0 0.0 
0.0 0.0 0.0 
0.0 0.0 0.0 
0.0 0.0 0.0 
0.0 0.0 0.0 
0.0 0.0 0.0 
0.0 0.0 0.0 
0.0 0.0 0.0 
0.0 0.0 0.0 
1.000000000000e+00 0.0 0.0 
1.000000000000e+00 0.0 0.0 
1.000000000000e+00 0.0 0.0 
1.000000000000e+00 0.0 0.0 
0.0 0.0 0.0 
0.0 0.0 0.0 
0.0 0.0 0.0 
0.0 0.0 0.0 
0.0 0.0 0.0 
0.0 0.0 0.0 
0.0 0.0 0.0 
0.0 0.0 0.0 
0.0 0.0 0.0 
0.0 0.0 0.0 
0.0 0.0 0.0 
0.0 0.0 0.0 
0.0 0.0 0.0 
0.0 0.0 0.0 
0.0 0.0 0.0 
0.0 0.0 0.0 
0.0 0.0 0.0 
0.0 0.0 0.0 
0.0 0.0 0.0 
0.0 0.0 0.0 
0.0 0.0 0.0 
0.0 0.0 0.0 
0.0 0.0 0.0 
0.0 0.0 0.0 
0.0 0.0 0.0 
0.0 0.0 0.0 
0.0 0.0 0.0 
0.0 0.0 0.0 
0.0 0.0 0.0 
0.0 0.0 0.0 
0.0 0.0 0.0 
0.0 0.0 0.0 
0.0 0.0 0.0 
0.0 0.0 0.0 
0.0 0.0 0.0 
0.0 0.0 0.0 
0.0 0.0 0.0 
0.0 0.0 0.0 
0.0 0.0 0.0 
0.0 0.0 0.0 
0.0 0.0 0.0 
0.0 0.0 0.0 
0.0 0.0 0.0 
0.0 0.0 0.0 
0.0 0.0 0.0 
0.0 0.0 0.0 
0.0 0.0 0.0 
0.0 0.0 0.0 
0.0 0.0 0.0 
0.0 0.0 0.0 
0.0 0.0 0.0 
0.0 0.0 0.0 
0.0 0.0 0.0 
0.0 0.0 0.0 
0.0 0.0 0.0 
0.0 0.0 0.0 
0.0 0.0 0.0 
0.0 0.0 0.0 
0.0 0.0 0.0 
0.0 0.0 0.0 
0.0 0.0 0.0 
0.0 0.0 0.0 
0.0 0.0 0.0 
0.0 0.0 0.0 
0.0 0.0 0.0 
0.0 0.0 0.0 
0.0 0.0 0.0 
0.0 0.0 0.0 
0.0 0.0 0.0 
0.0 0.0 0.0 
0.0 0.0 0.0 
0.0 0.0 0.0 
0.0 0.0 0.0 
0.0 0.0 0.0 
0.0 0.0 0.0 
0.0 0.0 0.0 
0.0 0.0 0.0 
0.0 0.0 0.0 
0.0 0.0 0.0 
0.0 0.0 0.0 
0.0 0.0 0.0 
0.0 0.0 0.0 
0.0 0.0 0.0 
0.0 0.0 0.0 
0.0 0.0 0.0 
0.0 0.0 0.0 
0.0 0.0 0.0 
0.0 0.0 0.0 
0.0 0.0 0.0 
0.0 0.0 0.0 
0.0 0.0 0.0 
0.0 0.0 0.0 
0.0 0.0 0.0 
0.0 0.0 0.0 
0.0 0.0 0.0 
0.0 0.0 0.0 
0.0 0.0 0.0 
0.0 0.0 0.0 
0.0 0.0 0.0 
0.0 0.0 0.0 
0.0 0.0 0.0 
0.0 0.0 0.0 
0.0 0.0 0.0 
0.0 0.0 0.0 
0.0 0.0 0.0 
0.0 0.0 0.0 
0.0 0.0 0.0 
0.0 0.0 0.0 
0.0 0.0 0.0 
0.0 0.0 0.0 
0.0 0.0 0.0 
0.0 0.0 0.0 
0.0 0.0 0.0 
0.0 0.0 0.0 
0.0 0.0 0.0 
0.0 0.0 0.0 
0.0 0.0 0.0 
0.0 0.0 0.0 
0.0 0.0 0.0 
0.0 0.0 0.0 
0.0 0.0 0.0 
0.0 0.0 0.0 
0.0 0.0 0.0 
0.0 0.0 0.0 
0.0 0.0 0.0 
0.0 0.0 0.0 
0.0 0.0 0.0 
0.0 0.0 0.0 
0.0 0.0 0.0 
0.0 0.0 0.0 
0.0 0.0 0.0 
0.0 0.0 0.0 
0.0 0.0 0.0 
0.0 0.0 0.0 
0.0 0.0 0.0 
0.0 0.0 0.0 
0.0 0.0 0.0 
0.0 0.0 0.0 
0.0 0.0 0.0 
0.0 0.0 0.0 
0.0 0.0 0.0 
0.0 0.0 0.0 
0.0 0.0 0.0 
0.0 0.0 0.0 
0.0 0.0 0.0 
0.0 0.0 0.0 
0.0 0.0 0.0 
0.0 0.0 0.0 
0.0 0.0 0.0 
0.0 0.0 0.0 
0.0 0.0 0.0 
0.0 0.0 0.0 
0.0 0.0 0.0 
0.0 0.0 0.0 
0.0 0.0 0.0 
0.0 0.0 0.0 
0.0 0.0 0.0 
0.0 0.0 0.0 
0.0 0.0 0.0 
0.0 0.0 0.0 
0.0 0.0 0.0 
0.0 0.0 0.0 
0.0 0.0 0.0 
0.0 0.0 0.0 
0.0 0.0 0.0 
0.0 0.0 0.0 
0.0 0.0 0.0 
0.0 0.0 0.0 
0.0 0.0 0.0 
0.0 0.0 0.0 
0.0 0.0 0.0 
0.0 0.0 0.0 
0.0 0.0 0.0 
0.0 0.0 0.0 
0.0 0.0 0.0 
0.0 0.0 0.0 
0.0 0.0 0.0 
0.0 0.0 0.0 
0.0 0.0 0.0 
0.0 0.0 0.0 
0.0 0.0 0.0 
0.0 0.0 0.0 
0.0 0.0 0.0 
0.0 0.0 0.0 
0.0 0.0 0.0 
0.0 0.0 0.0 
0.0 0.0 0.0 
0.0 0.0 0.0 
0.0 0.0 0.0 
0.0 0.0 0.0 
0.0 0.0 0.0 
0.0 0.0 0.0 
0.0 0.0 0.0 
0.0 0.0 0.0 
0.0 0.0 0.0 
0.0 0.0 0.0 
0.0 0.0 0.0 
0.0 0.0 0.0 
0.0 0.0 0.0 
0.0 0.0 0.0 
0.0 0.0 0.0 
0.0 0.0 0.0 
0.0 0.0 0.0 
0.0 0.0 0.0 
0.0 0.0 0.0 
0.0 0.0 0.0 
0.0 0.0 0.0 
0.0 0.0 0.0 
0.0 0.0 0.0 
0.0 0.0 0.0 
0.0 0.0 0.0 
0.0 0.0 0.0 
0.0 0.0 0.0 
0.0 0.0 0.0 
0.0 0.0 0.0 
0.0 0.0 0.0 
0.0 0.0 0.0 
0.0 0.0 0.0 
0.0 0.0 0.0 
0.0 0.0 0.0 
0.0 0.0 0.0 
0.0 0.0 0.0 
0.0 0.0 0.0 
0.0 0.0 0.0 
0.0 0.0 0.0 
0.0 0.0 0.0 
0.0 0.0 0.0 
0.0 0.0 0.0 
0.0 0.0 0.0 
0.0 0.0 0.0 
0.0 0.0 0.0 
0.0 0.0 0.0 
0.0 0.0 0.0 
0.0 0.0 0.0 
0.0 0.0 0.0 
0.0 0.0 0.0 
0.0 0.0 0.0 
0.0 0.0 0.0 
0.0 0.0 0.0 
0.0 0.0 0.0 
0.0 0.0 0.0 
0.0 0.0 0.0 
0.0 0.0 0.0 
0.0 0.0 0.0 
0.0 0.0 0.0 
0.0 0.0 0.0 
0.0 0.0 0.0 
0.0 0.0 0.0 
0.0 0.0 0.0 
0.0 0.0 0.0 
0.0 0.0 0.0 
0.0 0.0 0.0 
0.0 0.0 0.0 
0.0 0.0 0.0 
0.0 0.0 0.0 
0.0 0.0 0.0 
0.0 0.0 0.0 
0.0 0.0 0.0 
0.0 0.0 0.0 
0.0 0.0 0.0 
0.0 0.0 0.0 
0.0 0.0 0.0 
0.0 0.0 0.0 
0.0 0.0 0.0 
0.0 0.0 0.0 
0.0 0.0 0.0 
0.0 0.0 0.0 
0.0 0.0 0.0 
0.0 0.0 0.0 
0.0 0.0 0.0 
0.0 0.0 0.0 
0.0 0.0 0.0 
0.0 0.0 0.0 
0.0 0.0 0.0 
0.0 0.0 0.0 
0.0 0.0 0.0 
0.0 0.0 0.0 
0.0 0.0 0.0 
0.0 0.0 0.0 
0.0 0.0 0.0 
0.0 0.0 0.0 
0.0 0.0 0.0 
0.0 0.0 0.0 
0.0 0.0 0.0 
0.0 0.0 0.0 
0.0 0.0 0.0 
0.0 0.0 0.0 
0.0 0.0 0.0 
0.0 0.0 0.0 
0.0 0.0 0.0 
0.0 0.0 0.0 
0.0 0.0 0.0 
0.0 0.0 0.0 
0.0 0.0 0.0 
0.0 0.0 0.0 
0.0 0.0 0.0 
0.0 0.0 0.0 
0.0 0.0 0.0 
0.0 0.0 0.0 
0.0 0.0 0.0 
0.0 0.0 0.0 
0.0 0.0 0.0 
0.0 0.0 0.0 
0.0 0.0 0.0 
0.0 0.0 0.0 
0.0 0.0 0.0 
0.0 0.0 0.0 
0.0 0.0 0.0 
0.0 0.0 0.0 
0.0 0.0 0.0 
0.0 0.0 0.0 
0.0 0.0 0.0 
0.0 0.0 0.0 
0.0 0.0 0.0 
0.0 0.0 0.0 
0.0 0.0 0.0 
0.0 0.0 0.0 
0.0 0.0 0.0 
0.0 0.0 0.0 
0.0 0.0 0.0 
0.0 0.0 0.0 
0.0 0.0 0.0 
0.0 0.0 0.0 
0.0 0.0 0.0 
0.0 0.0 0.0 
0.0 0.0 0.0 
0.0 0.0 0.0 
0.0 0.0 0.0 
0.0 0.0 0.0 
0.0 0.0 0.0 
0.0 0.0 0.0 
0.0 0.0 0.0 
0.0 0.0 0.0 
0.0 0.0 0.0 
0.0 0.0 0.0 
0.0 0.0 0.0 
0.0 0.0 0.0 
0.0 0.0 0.0 
0.0 0.0 0.0 
0.0 0.0 0.0 
0.0 0.0 0.0 
0.0 0.0 0.0 
0.0 0.0 0.0 
0.0 0.0 0.0 
0.0 0.0 0.0 
0.0 0.0 0.0 
0.0 0.0 0.0 
0.0 0.0 0.0 
0.0 0.0 0.0 
0.0 0.0 0.0 
0.0 0.0 0.0 
0.0 0.0 0.0 
0.0 0.0 0.0 
0.0 0.0 0.0 
0.0 0.0 0.0 
0.0 0.0 0.0 
0.0 0.0 0.0 
0.0 0.0 0.0 
0.0 0.0 0.0 
0.0 0.0 0.0 
0.0 0.0 0.0 
0.0 0.0 0.0 
0.0 0.0 0.0 
0.0 0.0 0.0 
0.0 0.0 0.0 
0.0 0.0 0.0 
0.0 0.0 0.0 
0.0 0.0 0.0 
0.0 0.0 0.0 
0.0 0.0 0.0 
0.0 0.0 0.0 
0.0 0.0 0.0 
0.0 0.0 0.0 
0.0 0.0 0.0 
0.0 0.0 0.0 
0.0 0.0 0.0 
0.0 0.0 0.0 
0.0 0.0 0.0 
0.0 0.0 0.0 
0.0 0.0 0.0 
0.0 0.0 0.0 
0.0 0.0 0.0 
0.0 0.0 0.0 
0.0 0.0 0.0 
0.0 0.0 0.0 
0.0 0.0 0.0 
0.0 0.0 0.0 
0.0 0.0 0.0 
0.0 0.0 0.0 
0.0 0.0 0.0 
0.0 0.0 0.0 
0.0 0.0 0.0 
0.0 0.0 0.0 
0.0 0.0 0.0 
0.0 0.0 0.0 
0.0 0.0 0.0 
0.0 0.0 0.0 
0.0 0.0 0.0 
0.0 0.0 0.0 
0.0 0.0 0.0 
0.0 0.0 0.0 
0.0 0.0 0.0 
0.0 0.0 0.0 
0.0 0.0 0.0 
0.0 0.0 0.0 
0.0 0.0 0.0 
0.0 0.0 0.0 
0.0 0.0 0.0 
0.0 0.0 0.0 
0.0 0.0 0.0 
0.0 0.0 0.0 
0.0 0.0 0.0 
0.0 0.0 0.0 
0.0 0.0 0.0 
0.0 0.0 0.0 
0.0 0.0 0.0 
0.0 0.0 0.0 
0.0 0.0 0.0 
0.0 0.0 0.0 
0.0 0.0 0.0 
0.0 0.0 0.0 
0.0 0.0 0.0 
0.0 0.0 0.0 
0.0 0.0 0.0 
0.0 0.0 0.0 
0.0 0.0 0.0 
0.0 0.0 0.0 
0.0 0.0 0.0 
0.0 0.0 0.0 
0.0 0.0 0.0 
0.0 0.0 0.0 
0.0 0.0 0.0 
0.0 0.0 0.0 
0.0 0.0 0.0 
0.0 0.0 0.0 
0.0 0.0 0.0 
0.0 0.0 0.0 
0.0 0.0 0.0 
0.0 0.0 0.0 
0.0 0.0 0.0 
0.0 0.0 0.0 
0.0 0.0 0.0 
0.0 0.0 0.0 
0.0 0.0 0.0 
0.0 0.0 0.0 
0.0 0.0 0.0 
0.0 0.0 0.0 
0.0 0.0 0.0 
0.0 0.0 0.0 
0.0 0.0 0.0 
0.0 0.0 0.0 
0.0 0.0 0.0 
0.0 0.0 0.0 
0.0 0.0 0.0 
0.0 0.0 0.0 
0.0 0.0 0.0 
0.0 0.0 0.0 
0.0 0.0 0.0 
0.0 0.0 0.0 
0.0 0.0 0.0 
0.0 0.0 0.0 
0.0 0.0 0.0 
0.0 0.0 0.0 
0.0 0.0 0.0 
0.0 0.0 0.0 
0.0 0.0 0.0 
0.0 0.0 0.0 
0.0 0.0 0.0 
0.0 0.0 0.0 
0.0 0.0 0.0 
0.0 0.0 0.0 
0.0 0.0 0.0 
0.0 0.0 0.0 
0.0 0.0 0.0 
0.0 0.0 0.0 
0.0 0.0 0.0 
0.0 0.0 0.0 
0.0 0.0 0.0 
0.0 0.0 0.0 
0.0 0.0 0.0 
0.0 0.0 0.0 
0.0 0.0 0.0 
0.0 0.0 0.0 
0.0 0.0 0.0 
0.0 0.0 0.0 
0.0 0.0 0.0 
0.0 0.0 0.0 
0.0 0.0 0.0 
0.0 0.0 0.0 
0.0 0.0 0.0 
0.0 0.0 0.0 
0.0 0.0 0.0 
0.0 0.0 0.0 
0.0 0.0 0.0 
0.0 0.0 0.0 
0.0 0.0 0.0 
0.0 0.0 0.0 
0.0 0.0 0.0 
0.0 0.0 0.0 
0.0 0.0 0.0 
0.0 0.0 0.0 
0.0 0.0 0.0 
0.0 0.0 0.0 
0.0 0.0 0.0 
0.0 0.0 0.0 
0.0 0.0 0.0 
0.0 0.0 0.0 
0.0 0.0 0.0 
0.0 0.0 0.0 
0.0 0.0 0.0 
0.0 0.0 0.0 
0.0 0.0 0.0 
0.0 0.0 0.0 
0.0 0.0 0.0 
0.0 0.0 0.0 
0.0 0.0 0.0 
0.0 0.0 0.0 
0.0 0.0 0.0 
0.0 0.0 0.0 
0.0 0.0 0.0 
0.0 0.0 0.0 
0.0 0.0 0.0 
0.0 0.0 0.0 
0.0 0.0 0.0 
0.0 0.0 0.0 
0.0 0.0 0.0 
0.0 0.0 0.0 
0.0 0.0 0.0 
0.0 0.0 0.0 
0.0 0.0 0.0 
0.0 0.0 0.0 
0.0 0.0 0.0 
0.0 0.0 0.0 
0.0 0.0 0.0 
0.0 0.0 0.0 
0.0 0.0 0.0 
0.0 0.0 0.0 
0.0 0.0 0.0 
0.0 0.0 0.0 
0.0 0.0 0.0 
0.0 0.0 0.0 
0.0 0.0 0.0 
0.0 0.0 0.0 
0.0 0.0 0.0 
0.0 0.0 0.0 
0.0 0.0 0.0 
0.0 0.0 0.0 
0.0 0.0 0.0 
0.0 0.0 0.0 
0.0 0.0 0.0 
0.0 0.0 0.0 
0.0 0.0 0.0 
0.0 0.0 0.0 
0.0 0.0 0.0 
0.0 0.0 0.0 
0.0 0.0 0.0 
0.0 0.0 0.0 
0.0 0.0 0.0 
0.0 0.0 0.0 
0.0 0.0 0.0 
0.0 0.0 0.0 
0.0 0.0 0.0 
0.0 0.0 0.0 
0.0 0.0 0.0 
0.0 0.0 0.0 
0.0 0.0 0.0 
0.0 0.0 0.0 
0.0 0.0 0.0 
0.0 0.0 0.0 
0.0 0.0 0.0 
0.0 0.0 0.0 
0.0 0.0 0.0 
0.0 0.0 0.0 
0.0 0.0 0.0 
0.0 0.0 0.0 
0.0 0.0 0.0 
0.0 0.0 0.0 
0.0 0.0 0.0 
0.0 0.0 0.0 
0.0 0.0 0.0 
0.0 0.0 0.0 
0.0 0.0 0.0 
0.0 0.0 0.0 
0.0 0.0 0.0 
0.0 0.0 0.0 
0.0 0.0 0.0 
0.0 0.0 0.0 
0.0 0.0 0.0 
0.0 0.0 0.0 
0.0 0.0 0.0 
0.0 0.0 0.0 
0.0 0.0 0.0 
0.0 0.0 0.0 
0.0 0.0 0.0 
0.0 0.0 0.0 
0.0 0.0 0.0 
0.0 0.0 0.0 
0.0 0.0 0.0 
0.0 0.0 0.0 
0.0 0.0 0.0 
0.0 0.0 0.0 
0.0 0.0 0.0 
0.0 0.0 0.0 
0.0 0.0 0.0 
0.0 0.0 0.0 
0.0 0.0 0.0 
0.0 0.0 0.0 
0.0 0.0 0.0 
0.0 0.0 0.0 
0.0 0.0 0.0 
0.0 0.0 0.0 
0.0 0.0 0.0 
0.0 0.0 0.0 
0.0 0.0 0.0 
0.0 0.0 0.0 
0.0 0.0 0.0 
0.0 0.0 0.0 
0.0 0.0 0.0 
0.0 0.0 0.0 
0.0 0.0 0.0 
0.0 0.0 0.0 
0.0 0.0 0.0 
0.0 0.0 0.0 
0.0 0.0 0.0 
0.0 0.0 0.0 
0.0 0.0 0.0 
0.0 0.0 0.0 
0.0 0.0 0.0 
0.0 0.0 0.0 
0.0 0.0 0.0 
0.0 0.0 0.0 
0.0 0.0 0.0 
0.0 0.0 0.0 
0.0 0.0 0.0 
0.0 0.0 0.0 
0.0 0.0 0.0 
0.0 0.0 0.0 
0.0 0.0 0.0 
0.0 0.0 0.0 
0.0 0.0 0.0 
0.0 0.0 0.0 
0.0 0.0 0.0 
0.0 0.0 0.0 
0.0 0.0 0.0 
0.0 0.0 0.0 
0.0 0.0 0.0 
0.0 0.0 0.0 
0.0 0.0 0.0 
0.0 0.0 0.0 
0.0 0.0 0.0 
0.0 0.0 0.0 
0.0 0.0 0.0 
0.0 0.0 0.0 
0.0 0.0 0.0 
0.0 0.0 0.0 
0.0 0.0 0.0 
0.0 0.0 0.0 
0.0 0.0 0.0 
0.0 0.0 0.0 
0.0 0.0 0.0 
0.0 0.0 0.0 
0.0 0.0 0.0 
0.0 0.0 0.0 
0.0 0.0 0.0 
0.0 0.0 0.0 
0.0 0.0 0.0 
0.0 0.0 0.0 
0.0 0.0 0.0 
0.0 0.0 0.0 
0.0 0.0 0.0 
0.0 0.0 0.0 
0.0 0.0 0.0 
0.0 0.0 0.0 
0.0 0.0 0.0 
0.0 0.0 0.0 
0.0 0.0 0.0 
0.0 0.0 0.0 
0.0 0.0 0.0 
0.0 0.0 0.0 
0.0 0.0 0.0 
0.0 0.0 0.0 
0.0 0.0 0.0 
0.0 0.0 0.0 
0.0 0.0 0.0 
0.0 0.0 0.0 
0.0 0.0 0.0 
0.0 0.0 0.0 
0.0 0.0 0.0 
0.0 0.0 0.0 
0.0 0.0 0.0 
0.0 0.0 0.0 
0.0 0.0 0.0 
0.0 0.0 0.0 
0.0 0.0 0.0 
0.0 0.0 0.0 
0.0 0.0 0.0 
0.0 0.0 0.0 
0.0 0.0 0.0 
0.0 0.0 0.0 
0.0 0.0 0.0 
0.0 0.0 0.0 
0.0 0.0 0.0 
0.0 0.0 0.0 
0.0 0.0 0.0 
0.0 0.0 0.0 
0.0 0.0 0.0 
0.0 0.0 0.0 
0.0 0.0 0.0 
0.0 0.0 0.0 
0.0 0.0 0.0 
0.0 0.0 0.0 
0.0 0.0 0.0 
0.0 0.0 0.0 
0.0 0.0 0.0 
0.0 0.0 0.0 
0.0 0.0 0.0 
0.0 0.0 0.0 
0.0 0.0 0.0 
0.0 0.0 0.0 
0.0 0.0 0.0 
0.0 0.0 0.0 
0.0 0.0 0.0 
0.0 0.0 0.0 
0.0 0.0 0.0 
0.0 0.0 0.0 
0.0 0.0 0.0 
0.0 0.0 0.0 
0.0 0.0 0.0 
0.0 0.0 0.0 
0.0 0.0 0.0 
0.0 0.0 0.0 
0.0 0.0 0.0 
0.0 0.0 0.0 
0.0 0.0 0.0 
0.0 0.0 0.0 
0.0 0.0 0.0 
0.0 0.0 0.0 
0.0 0.0 0.0 
0.0 0.0 0.0 
0.0 0.0 0.0 
0.0 0.0 0.0 
0.0 0.0 0.0 
0.0 0.0 0.0 
0.0 0.0 0.0 
0.0 0.0 0.0 
0.0 0.0 0.0 
0.0 0.0 0.0 
0.0 0.0 0.0 
0.0 0.0 0.0 
0.0 0.0 0.0 
0.0 0.0 0.0 
0.0 0.0 0.0 
0.0 0.0 0.0 
0.0 0.0 0.0 
0.0 0.0 0.0 
0.0 0.0 0.0 
0.0 0.0 0.0 
0.0 0.0 0.0 
0.0 0.0 0.0 
0.0 0.0 0.0 
0.0 0.0 0.0 
0.0 0.0 0.0 
0.0 0.0 0.0 
0.0 0.0 0.0 
0.0 0.0 0.0 
0.0 0.0 0.0 
0.0 0.0 0.0 
0.0 0.0 0.0 
0.0 0.0 0.0 
0.0 0.0 0.0 
0.0 0.0 0.0 
0.0 0.0 0.0 
0.0 0.0 0.0 
0.0 0.0 0.0 
0.0 0.0 0.0 
0.0 0.0 0.0 
0.0 0.0 0.0 
0.0 0.0 0.0 
0.0 0.0 0.0 
0.0 0.0 0.0 
0.0 0.0 0.0 
0.0 0.0 0.0 
0.0 0.0 0.0 
0.0 0.0 0.0 
0.0 0.0 0.0 
0.0 0.0 0.0 
0.0 0.0 0.0 
0.0 0.0 0.0 
0.0 0.0 0.0 
0.0 0.0 0.0 
0.0 0.0 0.0 
0.0 0.0 0.0 
0.0 0.0 0.0 
0.0 0.0 0.0 
0.0 0.0 0.0 
0.0 0.0 0.0 
0.0 0.0 0.0 
0.0 0.0 0.0 
0.0 0.0 0.0 
0.0 0.0 0.0 
0.0 0.0 0.0 
0.0 0.0 0.0 
0.0 0.0 0.0 
0.0 0.0 0.0 
0.0 0.0 0.0 
0.0 0.0 0.0 
0.0 0.0 0.0 
0.0 0.0 0.0 
0.0 0.0 0.0 
0.0 0.0 0.0 
0.0 0.0 0.0 
0.0 0.0 0.0 
0.0 0.0 0.0 
0.0 0.0 0.0 
0.0 0.0 0.0 
0.0 0.0 0.0 
0.0 0.0 0.0 
0.0 0.0 0.0 
0.0 0.0 0.0 
0.0 0.0 0.0 
0.0 0.0 0.0 
0.0 0.0 0.0 
0.0 0.0 0.0 
0.0 0.0 0.0 
0.0 0.0 0.0 
0.0 0.0 0.0 
0.0 0.0 0.0 
0.0 0.0 0.0 
0.0 0.0 0.0 
0.0 0.0 0.0 
0.0 0.0 0.0 
0.0 0.0 0.0 
0.0 0.0 0.0 
0.0 0.0 0.0 
0.0 0.0 0.0 
0.0 0.0 0.0 
0.0 0.0 0.0 
0.0 0.0 0.0 
0.0 0.0 0.0 
0.0 0.0 0.0 
0.0 0.0 0.0 
0.0 0.0 0.0 
0.0 0.0 0.0 
0.0 0.0 0.0 
0.0 0.0 0.0 
0.0 0.0 0.0 
0.0 0.0 0.0 
0.0 0.0 0.0 
0.0 0.0 0.0 
0.0 0.0 0.0 
0.0 0.0 0.0 
0.0 0.0 0.0 
0.0 0.0 0.0 
0.0 0.0 0.0 
0.0 0.0 0.0 
0.0 0.0 0.0 
0.0 0.0 0.0 
0.0 0.0 0.0 
0.0 0.0 0.0 
0.0 0.0 0.0 
0.0 0.0 0.0 
0.0 0.0 0.0 
0.0 0.0 0.0 
0.0 0.0 0.0 
0.0 0.0 0.0 
0.0 0.0 0.0 
0.0 0.0 0.0 
0.0 0.0 0.0 
0.0 0.0 0.0 
0.0 0.0 0.0 
0.0 0.0 0.0 
0.0 0.0 0.0 
0.0 0.0 0.0 
0.0 0.0 0.0 
0.0 0.0 0.0 
0.0 0.0 0.0 
0.0 0.0 0.0 
0.0 0.0 0.0 
0.0 0.0 0.0 
0.0 0.0 0.0 
0.0 0.0 0.0 
0.0 0.0 0.0 
0.0 0.0 0.0 
0.0 0.0 0.0 
0.0 0.0 0.0 
0.0 0.0 0.0 
0.0 0.0 0.0 
0.0 0.0 0.0 
0.0 0.0 0.0 
0.0 0.0 0.0 
0.0 0.0 0.0 
0.0 0.0 0.0 
0.0 0.0 0.0 
0.0 0.0 0.0 
0.0 0.0 0.0 
0.0 0.0 0.0 
0.0 0.0 0.0 
0.0 0.0 0.0 
0.0 0.0 0.0 
0.0 0.0 0.0 
0.0 0.0 0.0 
0.0 0.0 0.0 
0.0 0.0 0.0 
0.0 0.0 0.0 
0.0 0.0 0.0 
0.0 0.0 0.0 
0.0 0.0 0.0 
0.0 0.0 0.0 
0.0 0.0 0.0 
0.0 0.0 0.0 
0.0 0.0 0.0 
0.0 0.0 0.0 
0.0 0.0 0.0 
0.0 0.0 0.0 
0.0 0.0 0.0 
0.0 0.0 0.0 
0.0 0.0 0.0 
0.0 0.0 0.0 
0.0 0.0 0.0 
0.0 0.0 0.0 
0.0 0.0 0.0 
0.0 0.0 0.0 
0.0 0.0 0.0 
0.0 0.0 0.0 
0.0 0.0 0.0 
0.0 0.0 0.0 
0.0 0.0 0.0 
0.0 0.0 0.0 
0.0 0.0 0.0 
0.0 0.0 0.0 
0.0 0.0 0.0 
0.0 0.0 0.0 
0.0 0.0 0.0 
0.0 0.0 0.0 
0.0 0.0 0.0 
0.0 0.0 0.0 
0.0 0.0 0.0 
0.0 0.0 0.0 
0.0 0.0 0.0 
0.0 0.0 0.0 
0.0 0.0 0.0 
0.0 0.0 0.0 
0.0 0.0 0.0 
0.0 0.0 0.0 
0.0 0.0 0.0 
0.0 0.0 0.0 
0.0 0.0 0.0 
0.0 0.0 0.0 
0.0 0.0 0.0 
0.0 0.0 0.0 
0.0 0.0 0.0 
0.0 0.0 0.0 
0.0 0.0 0.0 
0.0 0.0 0.0 
0.0 0.0 0.0 
0.0 0.0 0.0 
0.0 0.0 0.0 
0.0 0.0 0.0 
0.0 0.0 0.0 
0.0 0.0 0.0 
0.0 0.0 0.0 
0.0 0.0 0.0 
0.0 0.0 0.0 
0.0 0.0 0.0 
0.0 0.0 0.0 
0.0 0.0 0.0 
0.0 0.0 0.0 
0.0 0.0 0.0 
0.0 0.0 0.0 
0.0 0.0 0.0 
0.0 0.0 0.0 
0.0 0.0 0.0 
0.0 0.0 0.0 
0.0 0.0 0.0 
0.0 0.0 0.0 
0.0 0.0 0.0 
0.0 0.0 0.0 
0.0 0.0 0.0 
0.0 0.0 0.0 
0.0 0.0 0.0 
0.0 0.0 0.0 
0.0 0.0 0.0 
0.0 0.0 0.0 
0.0 0.0 0.0 
0.0 0.0 0.0 
0.0 0.0 0.0 
0.0 0.0 0.0 
0.0 0.0 0.0 
0.0 0.0 0.0 
0.0 0.0 0.0 
0.0 0.0 0.0 
0.0 0.0 0.0 
0.0 0.0 0.0 
0.0 0.0 0.0 
0.0 0.0 0.0 
0.0 0.0 0.0 
0.0 0.0 0.0 
0.0 0.0 0.0 
0.0 0.0 0.0 
0.0 0.0 0.0 
0.0 0.0 0.0 
0.0 0.0 0.0 
0.0 0.0 0.0 
0.0 0.0 0.0 
0.0 0.0 0.0 
0.0 0.0 0.0 
0.0 0.0 0.0 
0.0 0.0 0.0 
0.0 0.0 0.0 
0.0 0.0 0.0 
0.0 0.0 0.0 
0.0 0.0 0.0 
0.0 0.0 0.0 
0.0 0.0 0.0 
0.0 0.0 0.0 
0.0 0.0 0.0 

VECTORS node_bounda_dof_materi_velocity_y float
0.0 0.0 0.0 
0.0 0.0 0.0 
0.0 1.000000000000e+00 0.0 
0.0 1.000000000000e+00 0.0 
0.0 0.0 0.0 
0.0 0.0 0.0 
0.0 0.0 0.0 
0.0 0.0 0.0 
0.0 0.0 0.0 
0.0 0.0 0.0 
0.0 0.0 0.0 
0.0 0.0 0.0 
0.0 0.0 0.0 
0.0 0.0 0.0 
0.0 0.0 0.0 
0.0 0.0 0.0 
0.0 0.0 0.0 
0.0 0.0 0.0 
0.0 0.0 0.0 
0.0 0.0 0.0 
0.0 0.0 0.0 
0.0 0.0 0.0 
0.0 0.0 0.0 
0.0 1.000000000000e+00 0.0 
0.0 1.000000000000e+00 0.0 
0.0 1.000000000000e+00 0.0 
0.0 1.000000000000e+00 0.0 
0.0 1.000000000000e+00 0.0 
0.0 1.000000000000e+00 0.0 
0.0 1.000000000000e+00 0.0 
0.0 1.000000000000e+00 0.0 
0.0 1.000000000000e+00 0.0 
0.0 1.000000000000e+00 0.0 
0.0 1.000000000000e+00 0.0 
0.0 1.000000000000e+00 0.0 
0.0 1.000000000000e+00 0.0 
0.0 1.000000000000e+00 0.0 
0.0 1.000000000000e+00 0.0 
0.0 1.000000000000e+00 0.0 
0.0 1.000000000000e+00 0.0 
0.0 1.000000000000e+00 0.0 
0.0 1.000000000000e+00 0.0 
0.0 1.000000000000e+00 0.0 
0.0 1.000000000000e+00 0.0 
0.0 1.000000000000e+00 0.0 
0.0 1.000000000000e+00 0.0 
0.0 1.000000000000e+00 0.0 
0.0 1.000000000000e+00 0.0 
0.0 1.000000000000e+00 0.0 
0.0 1.000000000000e+00 0.0 
0.0 1.000000000000e+00 0.0 
0.0 1.000000000000e+00 0.0 
0.0 1.000000000000e+00 0.0 
0.0 1.000000000000e+00 0.0 
0.0 1.000000000000e+00 0.0 
0.0 1.000000000000e+00 0.0 
0.0 1.000000000000e+00 0.0 
0.0 1.000000000000e+00 0.0 
0.0 1.000000000000e+00 0.0 
0.0 1.000000000000e+00 0.0 
0.0 1.000000000000e+00 0.0 
0.0 1.000000000000e+00 0.0 
0.0 1.000000000000e+00 0.0 
0.0 1.000000000000e+00 0.0 
0.0 1.000000000000e+00 0.0 
0.0 1.000000000000e+00 0.0 
0.0 1.000000000000e+00 0.0 
0.0 1.000000000000e+00 0.0 
0.0 1.000000000000e+00 0.0 
0.0 1.000000000000e+00 0.0 
0.0 1.000000000000e+00 0.0 
0.0 1.000000000000e+00 0.0 
0.0 0.0 0.0 
0.0 0.0 0.0 
0.0 0.0 0.0 
0.0 0.0 0.0 
0.0 0.0 0.0 
0.0 0.0 0.0 
0.0 0.0 0.0 
0.0 0.0 0.0 
0.0 0.0 0.0 
0.0 0.0 0.0 
0.0 0.0 0.0 
0.0 0.0 0.0 
0.0 0.0 0.0 
0.0 0.0 0.0 
0.0 0.0 0.0 
0.0 0.0 0.0 
0.0 0.0 0.0 
0.0 0.0 0.0 
0.0 0.0 0.0 
0.0 0.0 0.0 
0.0 0.0 0.0 
0.0 0.0 0.0 
0.0 0.0 0.0 
0.0 0.0 0.0 
0.0 0.0 0.0 
0.0 0.0 0.0 
0.0 0.0 0.0 
0.0 0.0 0.0 
0.0 0.0 0.0 
0.0 0.0 0.0 
0.0 0.0 0.0 
0.0 0.0 0.0 
0.0 0.0 0.0 
0.0 0.0 0.0 
0.0 0.0 0.0 
0.0 0.0 0.0 
0.0 0.0 0.0 
0.0 0.0 0.0 
0.0 0.0 0.0 
0.0 0.0 0.0 
0.0 0.0 0.0 
0.0 0.0 0.0 
0.0 0.0 0.0 
0.0 0.0 0.0 
0.0 0.0 0.0 
0.0 0.0 0.0 
0.0 0.0 0.0 
0.0 0.0 0.0 
0.0 0.0 0.0 
0.0 0.0 0.0 
0.0 0.0 0.0 
0.0 0.0 0.0 
0.0 0.0 0.0 
0.0 0.0 0.0 
0.0 0.0 0.0 
0.0 0.0 0.0 
0.0 0.0 0.0 
0.0 0.0 0.0 
0.0 0.0 0.0 
0.0 0.0 0.0 
0.0 0.0 0.0 
0.0 0.0 0.0 
0.0 0.0 0.0 
0.0 0.0 0.0 
0.0 0.0 0.0 
0.0 0.0 0.0 
0.0 0.0 0.0 
0.0 0.0 0.0 
0.0 0.0 0.0 
0.0 0.0 0.0 
0.0 0.0 0.0 
0.0 0.0 0.0 
0.0 0.0 0.0 
0.0 0.0 0.0 
0.0 0.0 0.0 
0.0 0.0 0.0 
0.0 0.0 0.0 
0.0 0.0 0.0 
0.0 0.0 0.0 
0.0 0.0 0.0 
0.0 0.0 0.0 
0.0 0.0 0.0 
0.0 0.0 0.0 
0.0 0.0 0.0 
0.0 0.0 0.0 
0.0 0.0 0.0 
0.0 0.0 0.0 
0.0 0.0 0.0 
0.0 0.0 0.0 
0.0 0.0 0.0 
0.0 0.0 0.0 
0.0 0.0 0.0 
0.0 0.0 0.0 
0.0 0.0 0.0 
0.0 0.0 0.0 
0.0 0.0 0.0 
0.0 0.0 0.0 
0.0 0.0 0.0 
0.0 0.0 0.0 
0.0 0.0 0.0 
0.0 0.0 0.0 
0.0 0.0 0.0 
0.0 0.0 0.0 
0.0 0.0 0.0 
0.0 0.0 0.0 
0.0 0.0 0.0 
0.0 0.0 0.0 
0.0 0.0 0.0 
0.0 0.0 0.0 
0.0 0.0 0.0 
0.0 0.0 0.0 
0.0 0.0 0.0 
0.0 0.0 0.0 
0.0 0.0 0.0 
0.0 0.0 0.0 
0.0 0.0 0.0 
0.0 0.0 0.0 
0.0 0.0 0.0 
0.0 0.0 0.0 
0.0 0.0 0.0 
0.0 0.0 0.0 
0.0 0.0 0.0 
0.0 0.0 0.0 
0.0 0.0 0.0 
0.0 0.0 0.0 
0.0 0.0 0.0 
0.0 0.0 0.0 
0.0 0.0 0.0 
0.0 0.0 0.0 
0.0 0.0 0.0 
0.0 0.0 0.0 
0.0 0.0 0.0 
0.0 0.0 0.0 
0.0 0.0 0.0 
0.0 0.0 0.0 
0.0 0.0 0.0 
0.0 0.0 0.0 
0.0 0.0 0.0 
0.0 0.0 0.0 
0.0 0.0 0.0 
0.0 0.0 0.0 
0.0 0.0 0.0 
0.0 0.0 0.0 
0.0 0.0 0.0 
0.0 0.0 0.0 
0.0 0.0 0.0 
0.0 0.0 0.0 
0.0 0.0 0.0 
0.0 0.0 0.0 
0.0 0.0 0.0 
0.0 0.0 0.0 
0.0 0.0 0.0 
0.0 0.0 0.0 
0.0 0.0 0.0 
0.0 0.0 0.0 
0.0 0.0 0.0 
0.0 0.0 0.0 
0.0 0.0 0.0 
0.0 0.0 0.0 
0.0 0.0 0.0 
0.0 0.0 0.0 
0.0 0.0 0.0 
0.0 0.0 0.0 
0.0 0.0 0.0 
0.0 0.0 0.0 
0.0 0.0 0.0 
0.0 0.0 0.0 
0.0 0.0 0.0 
0.0 0.0 0.0 
0.0 0.0 0.0 
0.0 0.0 0.0 
0.0 0.0 0.0 
0.0 0.0 0.0 
0.0 0.0 0.0 
0.0 0.0 0.0 
0.0 0.0 0.0 
0.0 0.0 0.0 
0.0 0.0 0.0 
0.0 0.0 0.0 
0.0 0.0 0.0 
0.0 0.0 0.0 
0.0 0.0 0.0 
0.0 0.0 0.0 
0.0 0.0 0.0 
0.0 0.0 0.0 
0.0 0.0 0.0 
0.0 0.0 0.0 
0.0 0.0 0.0 
0.0 0.0 0.0 
0.0 0.0 0.0 
0.0 0.0 0.0 
0.0 0.0 0.0 
0.0 0.0 0.0 
0.0 0.0 0.0 
0.0 0.0 0.0 
0.0 0.0 0.0 
0.0 0.0 0.0 
0.0 0.0 0.0 
0.0 0.0 0.0 
0.0 0.0 0.0 
0.0 0.0 0.0 
0.0 0.0 0.0 
0.0 0.0 0.0 
0.0 0.0 0.0 
0.0 0.0 0.0 
0.0 0.0 0.0 
0.0 0.0 0.0 
0.0 0.0 0.0 
0.0 0.0 0.0 
0.0 0.0 0.0 
0.0 0.0 0.0 
0.0 0.0 0.0 
0.0 0.0 0.0 
0.0 0.0 0.0 
0.0 0.0 0.0 
0.0 0.0 0.0 
0.0 0.0 0.0 
0.0 0.0 0.0 
0.0 0.0 0.0 
0.0 0.0 0.0 
0.0 0.0 0.0 
0.0 0.0 0.0 
0.0 0.0 0.0 
0.0 0.0 0.0 
0.0 0.0 0.0 
0.0 0.0 0.0 
0.0 0.0 0.0 
0.0 0.0 0.0 
0.0 0.0 0.0 
0.0 0.0 0.0 
0.0 0.0 0.0 
0.0 0.0 0.0 
0.0 0.0 0.0 
0.0 0.0 0.0 
0.0 0.0 0.0 
0.0 0.0 0.0 
0.0 0.0 0.0 
0.0 0.0 0.0 
0.0 0.0 0.0 
0.0 0.0 0.0 
0.0 0.0 0.0 
0.0 0.0 0.0 
0.0 0.0 0.0 
0.0 0.0 0.0 
0.0 0.0 0.0 
0.0 0.0 0.0 
0.0 0.0 0.0 
0.0 0.0 0.0 
0.0 0.0 0.0 
0.0 0.0 0.0 
0.0 0.0 0.0 
0.0 0.0 0.0 
0.0 0.0 0.0 
0.0 0.0 0.0 
0.0 0.0 0.0 
0.0 0.0 0.0 
0.0 0.0 0.0 
0.0 0.0 0.0 
0.0 0.0 0.0 
0.0 0.0 0.0 
0.0 0.0 0.0 
0.0 0.0 0.0 
0.0 0.0 0.0 
0.0 0.0 0.0 
0.0 0.0 0.0 
0.0 0.0 0.0 
0.0 0.0 0.0 
0.0 0.0 0.0 
0.0 0.0 0.0 
0.0 0.0 0.0 
0.0 0.0 0.0 
0.0 0.0 0.0 
0.0 0.0 0.0 
0.0 0.0 0.0 
0.0 0.0 0.0 
0.0 0.0 0.0 
0.0 0.0 0.0 
0.0 0.0 0.0 
0.0 0.0 0.0 
0.0 0.0 0.0 
0.0 0.0 0.0 
0.0 0.0 0.0 
0.0 0.0 0.0 
0.0 0.0 0.0 
0.0 0.0 0.0 
0.0 0.0 0.0 
0.0 0.0 0.0 
0.0 0.0 0.0 
0.0 0.0 0.0 
0.0 0.0 0.0 
0.0 0.0 0.0 
0.0 0.0 0.0 
0.0 0.0 0.0 
0.0 0.0 0.0 
0.0 0.0 0.0 
0.0 0.0 0.0 
0.0 0.0 0.0 
0.0 0.0 0.0 
0.0 0.0 0.0 
0.0 0.0 0.0 
0.0 0.0 0.0 
0.0 0.0 0.0 
0.0 0.0 0.0 
0.0 0.0 0.0 
0.0 0.0 0.0 
0.0 0.0 0.0 
0.0 0.0 0.0 
0.0 0.0 0.0 
0.0 0.0 0.0 
0.0 0.0 0.0 
0.0 0.0 0.0 
0.0 0.0 0.0 
0.0 0.0 0.0 
0.0 0.0 0.0 
0.0 0.0 0.0 
0.0 0.0 0.0 
0.0 0.0 0.0 
0.0 0.0 0.0 
0.0 0.0 0.0 
0.0 0.0 0.0 
0.0 0.0 0.0 
0.0 0.0 0.0 
0.0 0.0 0.0 
0.0 0.0 0.0 
0.0 0.0 0.0 
0.0 0.0 0.0 
0.0 0.0 0.0 
0.0 0.0 0.0 
0.0 0.0 0.0 
0.0 0.0 0.0 
0.0 0.0 0.0 
0.0 0.0 0.0 
0.0 0.0 0.0 
0.0 0.0 0.0 
0.0 0.0 0.0 
0.0 0.0 0.0 
0.0 0.0 0.0 
0.0 0.0 0.0 
0.0 0.0 0.0 
0.0 0.0 0.0 
0.0 0.0 0.0 
0.0 0.0 0.0 
0.0 0.0 0.0 
0.0 0.0 0.0 
0.0 0.0 0.0 
0.0 0.0 0.0 
0.0 0.0 0.0 
0.0 0.0 0.0 
0.0 0.0 0.0 
0.0 0.0 0.0 
0.0 0.0 0.0 
0.0 0.0 0.0 
0.0 0.0 0.0 
0.0 0.0 0.0 
0.0 0.0 0.0 
0.0 0.0 0.0 
0.0 0.0 0.0 
0.0 0.0 0.0 
0.0 0.0 0.0 
0.0 0.0 0.0 
0.0 0.0 0.0 
0.0 0.0 0.0 
0.0 0.0 0.0 
0.0 0.0 0.0 
0.0 0.0 0.0 
0.0 0.0 0.0 
0.0 0.0 0.0 
0.0 0.0 0.0 
0.0 0.0 0.0 
0.0 0.0 0.0 
0.0 0.0 0.0 
0.0 0.0 0.0 
0.0 0.0 0.0 
0.0 0.0 0.0 
0.0 0.0 0.0 
0.0 0.0 0.0 
0.0 0.0 0.0 
0.0 0.0 0.0 
0.0 0.0 0.0 
0.0 0.0 0.0 
0.0 0.0 0.0 
0.0 0.0 0.0 
0.0 0.0 0.0 
0.0 0.0 0.0 
0.0 0.0 0.0 
0.0 0.0 0.0 
0.0 0.0 0.0 
0.0 0.0 0.0 
0.0 0.0 0.0 
0.0 0.0 0.0 
0.0 0.0 0.0 
0.0 0.0 0.0 
0.0 0.0 0.0 
0.0 0.0 0.0 
0.0 0.0 0.0 
0.0 0.0 0.0 
0.0 0.0 0.0 
0.0 0.0 0.0 
0.0 0.0 0.0 
0.0 0.0 0.0 
0.0 0.0 0.0 
0.0 0.0 0.0 
0.0 0.0 0.0 
0.0 0.0 0.0 
0.0 0.0 0.0 
0.0 0.0 0.0 
0.0 0.0 0.0 
0.0 0.0 0.0 
0.0 0.0 0.0 
0.0 0.0 0.0 
0.0 0.0 0.0 
0.0 0.0 0.0 
0.0 0.0 0.0 
0.0 0.0 0.0 
0.0 0.0 0.0 
0.0 0.0 0.0 
0.0 0.0 0.0 
0.0 0.0 0.0 
0.0 0.0 0.0 
0.0 0.0 0.0 
0.0 0.0 0.0 
0.0 0.0 0.0 
0.0 0.0 0.0 
0.0 0.0 0.0 
0.0 0.0 0.0 
0.0 0.0 0.0 
0.0 0.0 0.0 
0.0 0.0 0.0 
0.0 0.0 0.0 
0.0 0.0 0.0 
0.0 0.0 0.0 
0.0 0.0 0.0 
0.0 0.0 0.0 
0.0 0.0 0.0 
0.0 0.0 0.0 
0.0 0.0 0.0 
0.0 0.0 0.0 
0.0 0.0 0.0 
0.0 0.0 0.0 
0.0 0.0 0.0 
0.0 0.0 0.0 
0.0 0.0 0.0 
0.0 0.0 0.0 
0.0 0.0 0.0 
0.0 0.0 0.0 
0.0 0.0 0.0 
0.0 0.0 0.0 
0.0 0.0 0.0 
0.0 0.0 0.0 
0.0 0.0 0.0 
0.0 0.0 0.0 
0.0 0.0 0.0 
0.0 0.0 0.0 
0.0 0.0 0.0 
0.0 0.0 0.0 
0.0 0.0 0.0 
0.0 0.0 0.0 
0.0 0.0 0.0 
0.0 0.0 0.0 
0.0 0.0 0.0 
0.0 0.0 0.0 
0.0 0.0 0.0 
0.0 0.0 0.0 
0.0 0.0 0.0 
0.0 0.0 0.0 
0.0 0.0 0.0 
0.0 0.0 0.0 
0.0 0.0 0.0 
0.0 0.0 0.0 
0.0 0.0 0.0 
0.0 0.0 0.0 
0.0 0.0 0.0 
0.0 0.0 0.0 
0.0 0.0 0.0 
0.0 0.0 0.0 
0.0 0.0 0.0 
0.0 0.0 0.0 
0.0 0.0 0.0 
0.0 0.0 0.0 
0.0 0.0 0.0 
0.0 0.0 0.0 
0.0 0.0 0.0 
0.0 0.0 0.0 
0.0 0.0 0.0 
0.0 0.0 0.0 
0.0 0.0 0.0 
0.0 0.0 0.0 
0.0 0.0 0.0 
0.0 0.0 0.0 
0.0 0.0 0.0 
0.0 0.0 0.0 
0.0 0.0 0.0 
0.0 0.0 0.0 
0.0 0.0 0.0 
0.0 0.0 0.0 
0.0 0.0 0.0 
0.0 0.0 0.0 
0.0 0.0 0.0 
0.0 0.0 0.0 
0.0 0.0 0.0 
0.0 0.0 0.0 
0.0 0.0 0.0 
0.0 0.0 0.0 
0.0 0.0 0.0 
0.0 0.0 0.0 
0.0 0.0 0.0 
0.0 0.0 0.0 
0.0 0.0 0.0 
0.0 0.0 0.0 
0.0 0.0 0.0 
0.0 0.0 0.0 
0.0 0.0 0.0 
0.0 0.0 0.0 
0.0 0.0 0.0 
0.0 0.0 0.0 
0.0 0.0 0.0 
0.0 0.0 0.0 
0.0 0.0 0.0 
0.0 0.0 0.0 
0.0 0.0 0.0 
0.0 0.0 0.0 
0.0 0.0 0.0 
0.0 0.0 0.0 
0.0 0.0 0.0 
0.0 0.0 0.0 
0.0 0.0 0.0 
0.0 0.0 0.0 
0.0 0.0 0.0 
0.0 0.0 0.0 
0.0 0.0 0.0 
0.0 0.0 0.0 
0.0 0.0 0.0 
0.0 0.0 0.0 
0.0 0.0 0.0 
0.0 0.0 0.0 
0.0 0.0 0.0 
0.0 0.0 0.0 
0.0 0.0 0.0 
0.0 0.0 0.0 
0.0 0.0 0.0 
0.0 0.0 0.0 
0.0 0.0 0.0 
0.0 0.0 0.0 
0.0 0.0 0.0 
0.0 0.0 0.0 
0.0 0.0 0.0 
0.0 0.0 0.0 
0.0 0.0 0.0 
0.0 0.0 0.0 
0.0 0.0 0.0 
0.0 0.0 0.0 
0.0 0.0 0.0 
0.0 0.0 0.0 
0.0 0.0 0.0 
0.0 0.0 0.0 
0.0 0.0 0.0 
0.0 0.0 0.0 
0.0 0.0 0.0 
0.0 0.0 0.0 
0.0 0.0 0.0 
0.0 0.0 0.0 
0.0 0.0 0.0 
0.0 0.0 0.0 
0.0 0.0 0.0 
0.0 0.0 0.0 
0.0 0.0 0.0 
0.0 0.0 0.0 
0.0 0.0 0.0 
0.0 0.0 0.0 
0.0 0.0 0.0 
0.0 0.0 0.0 
0.0 0.0 0.0 
0.0 0.0 0.0 
0.0 0.0 0.0 
0.0 0.0 0.0 
0.0 0.0 0.0 
0.0 0.0 0.0 
0.0 0.0 0.0 
0.0 0.0 0.0 
0.0 0.0 0.0 
0.0 0.0 0.0 
0.0 0.0 0.0 
0.0 0.0 0.0 
0.0 0.0 0.0 
0.0 0.0 0.0 
0.0 0.0 0.0 
0.0 0.0 0.0 
0.0 0.0 0.0 
0.0 0.0 0.0 
0.0 0.0 0.0 
0.0 0.0 0.0 
0.0 0.0 0.0 
0.0 0.0 0.0 
0.0 0.0 0.0 
0.0 0.0 0.0 
0.0 0.0 0.0 
0.0 0.0 0.0 
0.0 0.0 0.0 
0.0 0.0 0.0 
0.0 0.0 0.0 
0.0 0.0 0.0 
0.0 0.0 0.0 
0.0 0.0 0.0 
0.0 0.0 0.0 
0.0 0.0 0.0 
0.0 0.0 0.0 
0.0 0.0 0.0 
0.0 0.0 0.0 
0.0 0.0 0.0 
0.0 0.0 0.0 
0.0 0.0 0.0 
0.0 0.0 0.0 
0.0 0.0 0.0 
0.0 0.0 0.0 
0.0 0.0 0.0 
0.0 0.0 0.0 
0.0 0.0 0.0 
0.0 0.0 0.0 
0.0 0.0 0.0 
0.0 0.0 0.0 
0.0 0.0 0.0 
0.0 0.0 0.0 
0.0 0.0 0.0 
0.0 0.0 0.0 
0.0 0.0 0.0 
0.0 0.0 0.0 
0.0 0.0 0.0 
0.0 0.0 0.0 
0.0 0.0 0.0 
0.0 0.0 0.0 
0.0 0.0 0.0 
0.0 0.0 0.0 
0.0 0.0 0.0 
0.0 0.0 0.0 
0.0 0.0 0.0 
0.0 0.0 0.0 
0.0 0.0 0.0 
0.0 0.0 0.0 
0.0 0.0 0.0 
0.0 0.0 0.0 
0.0 0.0 0.0 
0.0 0.0 0.0 
0.0 0.0 0.0 
0.0 0.0 0.0 
0.0 0.0 0.0 
0.0 0.0 0.0 
0.0 0.0 0.0 
0.0 0.0 0.0 
0.0 0.0 0.0 
0.0 0.0 0.0 
0.0 0.0 0.0 
0.0 0.0 0.0 
0.0 0.0 0.0 
0.0 0.0 0.0 
0.0 0.0 0.0 
0.0 0.0 0.0 
0.0 0.0 0.0 
0.0 0.0 0.0 
0.0 0.0 0.0 
0.0 0.0 0.0 
0.0 0.0 0.0 
0.0 0.0 0.0 
0.0 0.0 0.0 
0.0 0.0 0.0 
0.0 0.0 0.0 
0.0 0.0 0.0 
0.0 0.0 0.0 
0.0 0.0 0.0 
0.0 0.0 0.0 
0.0 0.0 0.0 
0.0 0.0 0.0 
0.0 0.0 0.0 
0.0 0.0 0.0 
0.0 0.0 0.0 
0.0 0.0 0.0 
0.0 0.0 0.0 
0.0 0.0 0.0 
0.0 0.0 0.0 
0.0 0.0 0.0 
0.0 0.0 0.0 
0.0 0.0 0.0 
0.0 0.0 0.0 
0.0 0.0 0.0 
0.0 0.0 0.0 
0.0 0.0 0.0 
0.0 0.0 0.0 
0.0 0.0 0.0 
0.0 0.0 0.0 
0.0 0.0 0.0 
0.0 0.0 0.0 
0.0 0.0 0.0 
0.0 0.0 0.0 
0.0 0.0 0.0 
0.0 0.0 0.0 
0.0 0.0 0.0 
0.0 0.0 0.0 
0.0 0.0 0.0 
0.0 0.0 0.0 
0.0 0.0 0.0 
0.0 0.0 0.0 
0.0 0.0 0.0 
0.0 0.0 0.0 
0.0 0.0 0.0 
0.0 0.0 0.0 
0.0 0.0 0.0 
0.0 0.0 0.0 
0.0 0.0 0.0 
0.0 0.0 0.0 
0.0 0.0 0.0 
0.0 0.0 0.0 
0.0 0.0 0.0 
0.0 0.0 0.0 
0.0 0.0 0.0 
0.0 0.0 0.0 
0.0 0.0 0.0 
0.0 0.0 0.0 
0.0 0.0 0.0 
0.0 0.0 0.0 
0.0 0.0 0.0 
0.0 0.0 0.0 
0.0 0.0 0.0 
0.0 0.0 0.0 
0.0 0.0 0.0 
0.0 0.0 0.0 
0.0 0.0 0.0 
0.0 0.0 0.0 
0.0 0.0 0.0 
0.0 0.0 0.0 
0.0 0.0 0.0 
0.0 0.0 0.0 
0.0 0.0 0.0 
0.0 0.0 0.0 
0.0 0.0 0.0 
0.0 0.0 0.0 
0.0 0.0 0.0 
0.0 0.0 0.0 
0.0 0.0 0.0 
0.0 0.0 0.0 
0.0 0.0 0.0 
0.0 0.0 0.0 
0.0 0.0 0.0 
0.0 0.0 0.0 
0.0 0.0 0.0 
0.0 0.0 0.0 
0.0 0.0 0.0 
0.0 0.0 0.0 
0.0 0.0 0.0 
0.0 0.0 0.0 
0.0 0.0 0.0 
0.0 0.0 0.0 
0.0 0.0 0.0 
0.0 0.0 0.0 
0.0 0.0 0.0 
0.0 0.0 0.0 
0.0 0.0 0.0 
0.0 0.0 0.0 
0.0 0.0 0.0 
0.0 0.0 0.0 
0.0 0.0 0.0 
0.0 0.0 0.0 
0.0 0.0 0.0 
0.0 0.0 0.0 
0.0 0.0 0.0 
0.0 0.0 0.0 
0.0 0.0 0.0 
0.0 0.0 0.0 
0.0 0.0 0.0 
0.0 0.0 0.0 
0.0 0.0 0.0 
0.0 0.0 0.0 
0.0 0.0 0.0 
0.0 0.0 0.0 
0.0 0.0 0.0 
0.0 0.0 0.0 
0.0 0.0 0.0 
0.0 0.0 0.0 
0.0 0.0 0.0 
0.0 0.0 0.0 
0.0 0.0 0.0 
0.0 0.0 0.0 
0.0 0.0 0.0 
0.0 0.0 0.0 
0.0 0.0 0.0 
0.0 0.0 0.0 
0.0 0.0 0.0 
0.0 0.0 0.0 
0.0 0.0 0.0 
0.0 0.0 0.0 
0.0 0.0 0.0 
0.0 0.0 0.0 
0.0 0.0 0.0 
0.0 0.0 0.0 
0.0 0.0 0.0 
0.0 0.0 0.0 
0.0 0.0 0.0 
0.0 0.0 0.0 
0.0 0.0 0.0 
0.0 0.0 0.0 
0.0 0.0 0.0 
0.0 0.0 0.0 
0.0 0.0 0.0 
0.0 0.0 0.0 
0.0 0.0 0.0 
0.0 0.0 0.0 
0.0 0.0 0.0 
0.0 0.0 0.0 
0.0 0.0 0.0 
0.0 0.0 0.0 
0.0 0.0 0.0 
0.0 0.0 0.0 
0.0 0.0 0.0 
0.0 0.0 0.0 
0.0 0.0 0.0 
0.0 0.0 0.0 
0.0 0.0 0.0 
0.0 0.0 0.0 
0.0 0.0 0.0 
0.0 0.0 0.0 
0.0 0.0 0.0 
0.0 0.0 0.0 
0.0 0.0 0.0 
0.0 0.0 0.0 
0.0 0.0 0.0 
0.0 0.0 0.0 
0.0 0.0 0.0 
0.0 0.0 0.0 
0.0 0.0 0.0 
0.0 0.0 0.0 
0.0 0.0 0.0 
0.0 0.0 0.0 
0.0 0.0 0.0 
0.0 0.0 0.0 
0.0 0.0 0.0 
0.0 0.0 0.0 
0.0 0.0 0.0 
0.0 0.0 0.0 
0.0 0.0 0.0 
0.0 0.0 0.0 
0.0 0.0 0.0 
0.0 0.0 0.0 
0.0 0.0 0.0 
0.0 0.0 0.0 
0.0 0.0 0.0 
0.0 0.0 0.0 
0.0 0.0 0.0 
0.0 0.0 0.0 
0.0 0.0 0.0 
0.0 0.0 0.0 
0.0 0.0 0.0 
0.0 0.0 0.0 
0.0 0.0 0.0 
0.0 0.0 0.0 
0.0 0.0 0.0 
0.0 0.0 0.0 
0.0 0.0 0.0 
0.0 0.0 0.0 
0.0 0.0 0.0 
0.0 0.0 0.0 
0.0 0.0 0.0 
0.0 0.0 0.0 
0.0 0.0 0.0 
0.0 0.0 0.0 
0.0 0.0 0.0 
0.0 0.0 0.0 
0.0 0.0 0.0 
0.0 0.0 0.0 
0.0 0.0 0.0 
0.0 0.0 0.0 
0.0 0.0 0.0 
0.0 0.0 0.0 
0.0 0.0 0.0 
0.0 0.0 0.0 
0.0 0.0 0.0 
0.0 0.0 0.0 
0.0 0.0 0.0 
0.0 0.0 0.0 
0.0 0.0 0.0 
0.0 0.0 0.0 
0.0 0.0 0.0 
0.0 0.0 0.0 
0.0 0.0 0.0 
0.0 0.0 0.0 
0.0 0.0 0.0 
0.0 0.0 0.0 
0.0 0.0 0.0 
0.0 0.0 0.0 
0.0 0.0 0.0 
0.0 0.0 0.0 
0.0 0.0 0.0 
0.0 0.0 0.0 
0.0 0.0 0.0 
0.0 0.0 0.0 
0.0 0.0 0.0 
0.0 0.0 0.0 
0.0 0.0 0.0 
0.0 0.0 0.0 
0.0 0.0 0.0 
0.0 0.0 0.0 
0.0 0.0 0.0 
0.0 0.0 0.0 
0.0 0.0 0.0 
0.0 0.0 0.0 
0.0 0.0 0.0 
0.0 0.0 0.0 
0.0 0.0 0.0 
0.0 0.0 0.0 
0.0 0.0 0.0 
0.0 0.0 0.0 
0.0 0.0 0.0 
0.0 0.0 0.0 
0.0 0.0 0.0 
0.0 0.0 0.0 
0.0 0.0 0.0 
0.0 0.0 0.0 
0.0 0.0 0.0 
0.0 0.0 0.0 
0.0 0.0 0.0 
0.0 0.0 0.0 
0.0 0.0 0.0 
0.0 0.0 0.0 
0.0 0.0 0.0 
0.0 0.0 0.0 
0.0 0.0 0.0 
0.0 0.0 0.0 
0.0 0.0 0.0 
0.0 0.0 0.0 
0.0 0.0 0.0 
0.0 0.0 0.0 
0.0 0.0 0.0 
0.0 0.0 0.0 
0.0 0.0 0.0 
0.0 0.0 0.0 
0.0 0.0 0.0 
0.0 0.0 0.0 
0.0 0.0 0.0 
0.0 0.0 0.0 
0.0 0.0 0.0 
0.0 0.0 0.0 
0.0 0.0 0.0 
0.0 0.0 0.0 
0.0 0.0 0.0 
0.0 0.0 0.0 
0.0 0.0 0.0 
0.0 0.0 0.0 
0.0 0.0 0.0 
0.0 0.0 0.0 
0.0 0.0 0.0 
0.0 0.0 0.0 
0.0 0.0 0.0 
0.0 0.0 0.0 
0.0 0.0 0.0 
0.0 0.0 0.0 
0.0 0.0 0.0 
0.0 0.0 0.0 
0.0 0.0 0.0 
0.0 0.0 0.0 
0.0 0.0 0.0 
0.0 0.0 0.0 
0.0 0.0 0.0 
0.0 0.0 0.0 
0.0 0.0 0.0 
0.0 0.0 0.0 
0.0 0.0 0.0 
0.0 0.0 0.0 
0.0 0.0 0.0 
0.0 0.0 0.0 
0.0 0.0 0.0 
0.0 0.0 0.0 
0.0 0.0 0.0 
0.0 0.0 0.0 
0.0 0.0 0.0 
0.0 0.0 0.0 
0.0 0.0 0.0 
0.0 0.0 0.0 
0.0 0.0 0.0 
0.0 0.0 0.0 
0.0 0.0 0.0 
0.0 0.0 0.0 
0.0 0.0 0.0 
0.0 0.0 0.0 
0.0 0.0 0.0 
0.0 0.0 0.0 
0.0 0.0 0.0 
0.0 0.0 0.0 
0.0 0.0 0.0 
0.0 0.0 0.0 
0.0 0.0 0.0 
0.0 0.0 0.0 
0.0 0.0 0.0 
0.0 0.0 0.0 
0.0 0.0 0.0 
0.0 0.0 0.0 
0.0 0.0 0.0 
0.0 0.0 0.0 
0.0 0.0 0.0 
0.0 0.0 0.0 
0.0 0.0 0.0 
0.0 0.0 0.0 
0.0 0.0 0.0 
0.0 0.0 0.0 
0.0 0.0 0.0 
0.0 0.0 0.0 
0.0 0.0 0.0 
0.0 0.0 0.0 
0.0 0.0 0.0 
0.0 0.0 0.0 
0.0 0.0 0.0 
0.0 0.0 0.0 
0.0 0.0 0.0 
0.0 0.0 0.0 
0.0 0.0 0.0 
0.0 0.0 0.0 
0.0 0.0 0.0 
0.0 0.0 0.0 
0.0 0.0 0.0 
0.0 0.0 0.0 
0.0 0.0 0.0 
0.0 0.0 0.0 
0.0 0.0 0.0 
0.0 0.0 0.0 
0.0 0.0 0.0 
0.0 0.0 0.0 
0.0 0.0 0.0 
0.0 0.0 0.0 
0.0 0.0 0.0 
0.0 0.0 0.0 
0.0 0.0 0.0 
0.0 0.0 0.0 
0.0 0.0 0.0 
0.0 0.0 0.0 
0.0 0.0 0.0 
0.0 0.0 0.0 
0.0 0.0 0.0 
0.0 0.0 0.0 
0.0 0.0 0.0 
0.0 0.0 0.0 
0.0 0.0 0.0 
0.0 0.0 0.0 
0.0 0.0 0.0 
0.0 0.0 0.0 

SCALARS node_boundary float
LOOKUP_TABLE default
1.000000000000e+00 
1.000000000000e+00 
1.000000000000e+00 
1.000000000000e+00 
1.000000000000e+00 
1.000000000000e+00 
1.000000000000e+00 
1.000000000000e+00 
1.000000000000e+00 
1.000000000000e+00 
1.000000000000e+00 
1.000000000000e+00 
1.000000000000e+00 
1.000000000000e+00 
1.000000000000e+00 
1.000000000000e+00 
1.000000000000e+00 
1.000000000000e+00 
1.000000000000e+00 
1.000000000000e+00 
1.000000000000e+00 
1.000000000000e+00 
1.000000000000e+00 
1.000000000000e+00 
1.000000000000e+00 
1.000000000000e+00 
1.000000000000e+00 
1.000000000000e+00 
1.000000000000e+00 
1.000000000000e+00 
1.000000000000e+00 
1.000000000000e+00 
1.000000000000e+00 
1.000000000000e+00 
1.000000000000e+00 
1.000000000000e+00 
1.000000000000e+00 
1.000000000000e+00 
1.000000000000e+00 
1.000000000000e+00 
1.000000000000e+00 
1.000000000000e+00 
1.000000000000e+00 
1.000000000000e+00 
1.000000000000e+00 
1.000000000000e+00 
1.000000000000e+00 
1.000000000000e+00 
1.000000000000e+00 
1.000000000000e+00 
1.000000000000e+00 
1.000000000000e+00 
1.000000000000e+00 
1.000000000000e+00 
1.000000000000e+00 
1.000000000000e+00 
1.000000000000e+00 
1.000000000000e+00 
1.000000000000e+00 
1.000000000000e+00 
1.000000000000e+00 
1.000000000000e+00 
1.000000000000e+00 
1.000000000000e+00 
1.000000000000e+00 
1.000000000000e+00 
1.000000000000e+00 
1.000000000000e+00 
1.000000000000e+00 
1.000000000000e+00 
1.000000000000e+00 
1.000000000000e+00 
1.000000000000e+00 
1.000000000000e+00 
1.000000000000e+00 
1.000000000000e+00 
1.000000000000e+00 
1.000000000000e+00 
1.000000000000e+00 
1.000000000000e+00 
1.000000000000e+00 
1.000000000000e+00 
0.0
1.000000000000e+00 
1.000000000000e+00 
1.000000000000e+00 
1.000000000000e+00 
1.000000000000e+00 
1.000000000000e+00 
0.0
0.0
0.0
1.000000000000e+00 
1.000000000000e+00 
1.000000000000e+00 
1.000000000000e+00 
0.0
0.0
0.0
0.0
0.0
0.0
0.0
0.0
0.0
0.0
0.0
0.0
0.0
0.0
1.000000000000e+00 
1.000000000000e+00 
1.000000000000e+00 
1.000000000000e+00 
1.000000000000e+00 
1.000000000000e+00 
1.000000000000e+00 
1.000000000000e+00 
1.000000000000e+00 
1.000000000000e+00 
1.000000000000e+00 
1.000000000000e+00 
1.000000000000e+00 
1.000000000000e+00 
1.000000000000e+00 
1.000000000000e+00 
1.000000000000e+00 
1.000000000000e+00 
1.000000000000e+00 
1.000000000000e+00 
1.000000000000e+00 
1.000000000000e+00 
1.000000000000e+00 
1.000000000000e+00 
1.000000000000e+00 
1.000000000000e+00 
1.000000000000e+00 
1.000000000000e+00 
1.000000000000e+00 
1.000000000000e+00 
1.000000000000e+00 
1.000000000000e+00 
1.000000000000e+00 
1.000000000000e+00 
1.000000000000e+00 
1.000000000000e+00 
1.000000000000e+00 
1.000000000000e+00 
1.000000000000e+00 
0.0
0.0
0.0
0.0
0.0
0.0
0.0
0.0
0.0
0.0
0.0
0.0
0.0
0.0
0.0
0.0
0.0
0.0
0.0
0.0
0.0
0.0
0.0
0.0
0.0
0.0
0.0
0.0
0.0
0.0
0.0
0.0
0.0
0.0
0.0
0.0
0.0
0.0
0.0
0.0
0.0
0.0
0.0
0.0
0.0
0.0
0.0
0.0
0.0
0.0
0.0
0.0
1.000000000000e+00 
1.000000000000e+00 
1.000000000000e+00 
1.000000000000e+00 
1.000000000000e+00 
1.000000000000e+00 
0.0
0.0
0.0
0.0
0.0
0.0
0.0
0.0
0.0
0.0
0.0
0.0
0.0
0.0
0.0
0.0
0.0
0.0
0.0
0.0
0.0
0.0
0.0
0.0
0.0
0.0
0.0
0.0
0.0
0.0
0.0
0.0
0.0
0.0
0.0
0.0
0.0
0.0
0.0
0.0
0.0
0.0
0.0
0.0
0.0
0.0
0.0
0.0
0.0
0.0
0.0
0.0
0.0
0.0
0.0
0.0
0.0
0.0
0.0
0.0
0.0
0.0
0.0
0.0
0.0
0.0
0.0
0.0
0.0
0.0
0.0
0.0
0.0
0.0
0.0
0.0
0.0
0.0
0.0
0.0
0.0
0.0
0.0
0.0
0.0
0.0
0.0
0.0
0.0
0.0
0.0
0.0
0.0
0.0
0.0
0.0
0.0
0.0
0.0
0.0
0.0
0.0
0.0
0.0
0.0
0.0
0.0
0.0
0.0
0.0
0.0
0.0
0.0
0.0
0.0
0.0
0.0
0.0
0.0
0.0
0.0
0.0
0.0
0.0
0.0
0.0
0.0
0.0
0.0
0.0
0.0
0.0
0.0
0.0
0.0
0.0
0.0
0.0
0.0
0.0
0.0
0.0
0.0
0.0
0.0
0.0
0.0
0.0
0.0
0.0
0.0
0.0
0.0
0.0
0.0
0.0
0.0
0.0
0.0
0.0
0.0
0.0
0.0
0.0
0.0
0.0
0.0
0.0
0.0
0.0
0.0
0.0
0.0
0.0
0.0
0.0
0.0
0.0
0.0
0.0
0.0
0.0
0.0
0.0
0.0
0.0
0.0
0.0
0.0
0.0
0.0
0.0
0.0
0.0
0.0
0.0
0.0
0.0
0.0
0.0
0.0
0.0
0.0
0.0
0.0
0.0
0.0
0.0
0.0
0.0
0.0
0.0
0.0
0.0
0.0
0.0
0.0
0.0
0.0
0.0
0.0
0.0
0.0
0.0
0.0
0.0
0.0
0.0
0.0
0.0
0.0
0.0
0.0
0.0
0.0
0.0
0.0
0.0
0.0
0.0
0.0
0.0
0.0
0.0
0.0
0.0
0.0
0.0
0.0
0.0
0.0
0.0
0.0
0.0
0.0
0.0
0.0
0.0
0.0
0.0
0.0
0.0
0.0
0.0
0.0
0.0
0.0
0.0
0.0
0.0
0.0
0.0
0.0
0.0
0.0
0.0
0.0
0.0
0.0
0.0
0.0
0.0
0.0
0.0
0.0
0.0
0.0
0.0
0.0
0.0
0.0
0.0
0.0
0.0
0.0
0.0
0.0
0.0
0.0
0.0
0.0
0.0
0.0
0.0
0.0
0.0
0.0
0.0
0.0
0.0
0.0
0.0
0.0
0.0
0.0
0.0
0.0
0.0
0.0
0.0
0.0
0.0
0.0
0.0
0.0
0.0
0.0
0.0
0.0
0.0
0.0
0.0
0.0
0.0
0.0
0.0
0.0
0.0
0.0
0.0
0.0
0.0
0.0
0.0
0.0
0.0
0.0
0.0
0.0
0.0
0.0
0.0
0.0
0.0
0.0
0.0
0.0
0.0
0.0
0.0
0.0
0.0
0.0
0.0
0.0
0.0
0.0
0.0
0.0
0.0
0.0
0.0
0.0
0.0
0.0
0.0
0.0
0.0
0.0
0.0
0.0
0.0
0.0
0.0
0.0
0.0
0.0
0.0
0.0
0.0
0.0
0.0
0.0
0.0
0.0
0.0
0.0
0.0
0.0
0.0
0.0
0.0
0.0
0.0
0.0
0.0
0.0
0.0
0.0
0.0
0.0
0.0
0.0
0.0
0.0
0.0
0.0
0.0
0.0
0.0
0.0
0.0
0.0
0.0
0.0
0.0
0.0
0.0
0.0
0.0
0.0
0.0
0.0
0.0
0.0
0.0
0.0
0.0
0.0
0.0
0.0
0.0
0.0
0.0
0.0
0.0
0.0
0.0
0.0
0.0
0.0
0.0
0.0
0.0
0.0
0.0
0.0
0.0
0.0
0.0
0.0
0.0
0.0
0.0
0.0
0.0
0.0
0.0
0.0
0.0
0.0
0.0
0.0
0.0
0.0
0.0
0.0
0.0
0.0
0.0
0.0
0.0
0.0
0.0
0.0
0.0
0.0
0.0
0.0
0.0
0.0
0.0
0.0
0.0
0.0
0.0
0.0
0.0
0.0
0.0
0.0
0.0
0.0
0.0
0.0
0.0
0.0
0.0
0.0
0.0
0.0
0.0
0.0
0.0
0.0
0.0
0.0
0.0
0.0
0.0
0.0
0.0
0.0
0.0
0.0
0.0
0.0
0.0
0.0
0.0
0.0
0.0
0.0
0.0
0.0
0.0
0.0
0.0
0.0
0.0
0.0
0.0
0.0
0.0
0.0
0.0
0.0
0.0
0.0
0.0
0.0
0.0
0.0
0.0
0.0
0.0
0.0
0.0
0.0
0.0
0.0
0.0
0.0
0.0
0.0
0.0
0.0
0.0
0.0
0.0
0.0
0.0
0.0
0.0
0.0
0.0
0.0
0.0
0.0
0.0
0.0
0.0
0.0
0.0
0.0
0.0
0.0
0.0
0.0
0.0
0.0
0.0
0.0
0.0
0.0
0.0
0.0
0.0
0.0
0.0
0.0
0.0
0.0
0.0
0.0
0.0
0.0
0.0
0.0
0.0
0.0
0.0
0.0
0.0
0.0
0.0
0.0
0.0
0.0
0.0
0.0
0.0
0.0
0.0
0.0
0.0
0.0
0.0
0.0
0.0
0.0
0.0
0.0
0.0
0.0
0.0
0.0
0.0
0.0
0.0
0.0
0.0
0.0
0.0
0.0
0.0
0.0
0.0
0.0
0.0
0.0
0.0
0.0
0.0
0.0
0.0
0.0
0.0
0.0
0.0
0.0
0.0
0.0
0.0
0.0
0.0
0.0
0.0
0.0
0.0
0.0
0.0
0.0
0.0
0.0
0.0
0.0
0.0
0.0
0.0
0.0
0.0
0.0
0.0
0.0
0.0
0.0
0.0
0.0
0.0
0.0
0.0
0.0
0.0
0.0
0.0
0.0
0.0
0.0
0.0
0.0
0.0
0.0
0.0
0.0
0.0
0.0
0.0
0.0
0.0
0.0
0.0
0.0
0.0
0.0
0.0
0.0
0.0
0.0
0.0
0.0
0.0
0.0
0.0
0.0
0.0
0.0
0.0
0.0
0.0
0.0
0.0
0.0
0.0
0.0
0.0
0.0
0.0
0.0
0.0
0.0
0.0
0.0
0.0
0.0
0.0
0.0
0.0
0.0
0.0
0.0
0.0
0.0
0.0
0.0
0.0
0.0
0.0
0.0
0.0
0.0
0.0
0.0
0.0
0.0
0.0
0.0
0.0
0.0
0.0
0.0
0.0
0.0
0.0
0.0
0.0
0.0
0.0
0.0
0.0
0.0
0.0
0.0
0.0
0.0
0.0
0.0
0.0
0.0
0.0
0.0
0.0
0.0
0.0
0.0
0.0
0.0
0.0
0.0
0.0
0.0
0.0
0.0
0.0
0.0
0.0
0.0
0.0
0.0
0.0
0.0
0.0
0.0
0.0
0.0
0.0
0.0
0.0
0.0
0.0
0.0
0.0
0.0
0.0
0.0
0.0
0.0
0.0
0.0
0.0
0.0
0.0
0.0
0.0
0.0
0.0
0.0
0.0
0.0
0.0
0.0
0.0
0.0
0.0
0.0
0.0
0.0
0.0
0.0
0.0
0.0
0.0
0.0
0.0
0.0
0.0
0.0
0.0
0.0
0.0
0.0
0.0
0.0
0.0
0.0
0.0
0.0
0.0
0.0
0.0
0.0
0.0
0.0
0.0
0.0
0.0
0.0
0.0
0.0
0.0
0.0
0.0
0.0
0.0
0.0
0.0
0.0
0.0
0.0
0.0
0.0
0.0
0.0
0.0
0.0
0.0
0.0
0.0
0.0
0.0
0.0
0.0
0.0
0.0
0.0

VECTORS node_force_gravity float
0.0 -1.962000000000e+01 0.0 
0.0 -1.962000000000e+01 0.0 
0.0 -1.962000000000e+01 0.0 
0.0 -1.962000000000e+01 0.0 
0.0 -1.962000000000e+01 0.0 
0.0 -1.962000000000e+01 0.0 
0.0 -1.962000000000e+01 0.0 
0.0 -1.962000000000e+01 0.0 
0.0 -1.962000000000e+01 0.0 
0.0 -1.962000000000e+01 0.0 
0.0 -1.962000000000e+01 0.0 
0.0 -1.962000000000e+01 0.0 
0.0 -1.962000000000e+01 0.0 
0.0 -1.962000000000e+01 0.0 
0.0 -1.962000000000e+01 0.0 
0.0 -1.962000000000e+01 0.0 
0.0 -1.962000000000e+01 0.0 
0.0 -1.962000000000e+01 0.0 
0.0 -1.962000000000e+01 0.0 
0.0 -1.962000000000e+01 0.0 
0.0 -1.962000000000e+01 0.0 
0.0 -1.962000000000e+01 0.0 
0.0 -1.962000000000e+01 0.0 
0.0 -1.962000000000e+01 0.0 
0.0 -1.962000000000e+01 0.0 
0.0 -1.962000000000e+01 0.0 
0.0 -1.962000000000e+01 0.0 
0.0 -1.962000000000e+01 0.0 
0.0 -1.962000000000e+01 0.0 
0.0 -1.962000000000e+01 0.0 
0.0 -1.962000000000e+01 0.0 
0.0 -1.962000000000e+01 0.0 
0.0 -1.962000000000e+01 0.0 
0.0 -1.962000000000e+01 0.0 
0.0 -1.962000000000e+01 0.0 
0.0 -1.962000000000e+01 0.0 
0.0 -1.962000000000e+01 0.0 
0.0 -1.962000000000e+01 0.0 
0.0 -1.962000000000e+01 0.0 
0.0 -1.962000000000e+01 0.0 
0.0 -1.962000000000e+01 0.0 
0.0 -1.962000000000e+01 0.0 
0.0 -1.962000000000e+01 0.0 
0.0 -1.962000000000e+01 0.0 
0.0 -1.962000000000e+01 0.0 
0.0 -1.962000000000e+01 0.0 
0.0 -1.962000000000e+01 0.0 
0.0 -1.962000000000e+01 0.0 
0.0 -1.962000000000e+01 0.0 
0.0 -1.962000000000e+01 0.0 
0.0 -1.962000000000e+01 0.0 
0.0 -1.962000000000e+01 0.0 
0.0 -1.962000000000e+01 0.0 
0.0 -1.962000000000e+01 0.0 
0.0 -1.962000000000e+01 0.0 
0.0 -1.962000000000e+01 0.0 
0.0 -1.962000000000e+01 0.0 
0.0 -1.962000000000e+01 0.0 
0.0 -1.962000000000e+01 0.0 
0.0 -1.962000000000e+01 0.0 
0.0 -1.962000000000e+01 0.0 
0.0 -1.962000000000e+01 0.0 
0.0 -1.962000000000e+01 0.0 
0.0 -1.962000000000e+01 0.0 
0.0 -1.962000000000e+01 0.0 
0.0 -1.962000000000e+01 0.0 
0.0 -1.962000000000e+01 0.0 
0.0 -1.962000000000e+01 0.0 
0.0 -1.962000000000e+01 0.0 
0.0 -1.962000000000e+01 0.0 
0.0 -1.962000000000e+01 0.0 
0.0 -1.962000000000e+01 0.0 
0.0 -1.962000000000e+01 0.0 
0.0 -1.962000000000e+01 0.0 
0.0 -1.962000000000e+01 0.0 
0.0 -1.962000000000e+01 0.0 
0.0 -1.962000000000e+01 0.0 
0.0 -1.962000000000e+01 0.0 
0.0 -1.962000000000e+01 0.0 
0.0 -1.962000000000e+01 0.0 
0.0 -1.962000000000e+01 0.0 
0.0 -1.962000000000e+01 0.0 
0.0 -1.962000000000e+01 0.0 
0.0 -1.962000000000e+01 0.0 
0.0 -1.962000000000e+01 0.0 
0.0 -1.962000000000e+01 0.0 
0.0 -1.962000000000e+01 0.0 
0.0 -1.962000000000e+01 0.0 
0.0 -1.962000000000e+01 0.0 
0.0 -1.962000000000e+01 0.0 
0.0 -1.962000000000e+01 0.0 
0.0 -1.962000000000e+01 0.0 
0.0 -1.962000000000e+01 0.0 
0.0 -1.962000000000e+01 0.0 
0.0 -1.962000000000e+01 0.0 
0.0 -1.962000000000e+01 0.0 
0.0 -1.962000000000e+01 0.0 
0.0 -1.962000000000e+01 0.0 
0.0 -1.962000000000e+01 0.0 
0.0 -1.962000000000e+01 0.0 
0.0 -1.962000000000e+01 0.0 
0.0 -1.962000000000e+01 0.0 
0.0 -1.962000000000e+01 0.0 
0.0 -1.962000000000e+01 0.0 
0.0 -1.962000000000e+01 0.0 
0.0 -1.962000000000e+01 0.0 
0.0 -1.962000000000e+01 0.0 
0.0 -1.962000000000e+01 0.0 
0.0 -1.962000000000e+01 0.0 
0.0 -1.962000000000e+01 0.0 
0.0 -1.962000000000e+01 0.0 
0.0 -1.962000000000e+01 0.0 
0.0 -1.962000000000e+01 0.0 
0.0 -1.962000000000e+01 0.0 
0.0 -1.962000000000e+01 0.0 
0.0 -1.962000000000e+01 0.0 
0.0 -1.962000000000e+01 0.0 
0.0 -1.962000000000e+01 0.0 
0.0 -1.962000000000e+01 0.0 
0.0 -1.962000000000e+01 0.0 
0.0 -1.962000000000e+01 0.0 
0.0 -1.962000000000e+01 0.0 
0.0 -1.962000000000e+01 0.0 
0.0 -1.962000000000e+01 0.0 
0.0 -1.962000000000e+01 0.0 
0.0 -1.962000000000e+01 0.0 
0.0 -1.962000000000e+01 0.0 
0.0 -1.962000000000e+01 0.0 
0.0 -1.962000000000e+01 0.0 
0.0 -1.962000000000e+01 0.0 
0.0 -1.962000000000e+01 0.0 
0.0 -1.962000000000e+01 0.0 
0.0 -1.962000000000e+01 0.0 
0.0 -1.962000000000e+01 0.0 
0.0 -1.962000000000e+01 0.0 
0.0 -1.962000000000e+01 0.0 
0.0 -1.962000000000e+01 0.0 
0.0 -1.962000000000e+01 0.0 
0.0 -1.962000000000e+01 0.0 
0.0 -1.962000000000e+01 0.0 
0.0 -1.962000000000e+01 0.0 
0.0 -1.962000000000e+01 0.0 
0.0 -1.962000000000e+01 0.0 
0.0 -1.962000000000e+01 0.0 
0.0 -1.962000000000e+01 0.0 
0.0 -1.962000000000e+01 0.0 
0.0 -1.962000000000e+01 0.0 
0.0 -1.962000000000e+01 0.0 
0.0 -1.962000000000e+01 0.0 
0.0 -1.962000000000e+01 0.0 
0.0 -1.962000000000e+01 0.0 
0.0 -1.962000000000e+01 0.0 
0.0 -1.962000000000e+01 0.0 
0.0 -1.962000000000e+01 0.0 
0.0 -1.962000000000e+01 0.0 
0.0 -1.962000000000e+01 0.0 
0.0 -1.962000000000e+01 0.0 
0.0 -1.962000000000e+01 0.0 
0.0 -1.962000000000e+01 0.0 
0.0 -1.962000000000e+01 0.0 
0.0 -1.962000000000e+01 0.0 
0.0 -1.962000000000e+01 0.0 
0.0 -1.962000000000e+01 0.0 
0.0 -1.962000000000e+01 0.0 
0.0 -1.962000000000e+01 0.0 
0.0 -1.962000000000e+01 0.0 
0.0 -1.962000000000e+01 0.0 
0.0 -1.962000000000e+01 0.0 
0.0 -1.962000000000e+01 0.0 
0.0 -1.962000000000e+01 0.0 
0.0 -1.962000000000e+01 0.0 
0.0 -1.962000000000e+01 0.0 
0.0 -1.962000000000e+01 0.0 
0.0 -1.962000000000e+01 0.0 
0.0 -1.962000000000e+01 0.0 
0.0 -1.962000000000e+01 0.0 
0.0 -1.962000000000e+01 0.0 
0.0 -1.962000000000e+01 0.0 
0.0 -1.962000000000e+01 0.0 
0.0 -1.962000000000e+01 0.0 
0.0 -1.962000000000e+01 0.0 
0.0 -1.962000000000e+01 0.0 
0.0 -1.962000000000e+01 0.0 
0.0 -1.962000000000e+01 0.0 
0.0 -1.962000000000e+01 0.0 
0.0 -1.962000000000e+01 0.0 
0.0 -1.962000000000e+01 0.0 
0.0 -1.962000000000e+01 0.0 
0.0 -1.962000000000e+01 0.0 
0.0 -1.962000000000e+01 0.0 
0.0 -1.962000000000e+01 0.0 
0.0 -1.962000000000e+01 0.0 
0.0 -1.962000000000e+01 0.0 
0.0 -1.962000000000e+01 0.0 
0.0 -1.962000000000e+01 0.0 
0.0 -1.962000000000e+01 0.0 
0.0 -1.962000000000e+01 0.0 
0.0 -1.962000000000e+01 0.0 
0.0 -1.962000000000e+01 0.0 
0.0 -1.962000000000e+01 0.0 
0.0 -1.962000000000e+01 0.0 
0.0 -1.962000000000e+01 0.0 
0.0 -1.962000000000e+01 0.0 
0.0 -1.962000000000e+01 0.0 
0.0 -1.962000000000e+01 0.0 
0.0 -1.962000000000e+01 0.0 
0.0 -1.962000000000e+01 0.0 
0.0 -1.962000000000e+01 0.0 
0.0 -1.962000000000e+01 0.0 
0.0 -1.962000000000e+01 0.0 
0.0 -1.962000000000e+01 0.0 
0.0 -1.962000000000e+01 0.0 
0.0 -1.962000000000e+01 0.0 
0.0 -1.962000000000e+01 0.0 
0.0 -1.962000000000e+01 0.0 
0.0 -1.962000000000e+01 0.0 
0.0 -1.962000000000e+01 0.0 
0.0 -1.962000000000e+01 0.0 
0.0 -1.962000000000e+01 0.0 
0.0 -1.962000000000e+01 0.0 
0.0 -1.962000000000e+01 0.0 
0.0 -1.962000000000e+01 0.0 
0.0 -1.962000000000e+01 0.0 
0.0 -1.962000000000e+01 0.0 
0.0 -1.962000000000e+01 0.0 
0.0 -1.962000000000e+01 0.0 
0.0 -1.962000000000e+01 0.0 
0.0 -1.962000000000e+01 0.0 
0.0 -1.962000000000e+01 0.0 
0.0 -1.962000000000e+01 0.0 
0.0 -1.962000000000e+01 0.0 
0.0 -1.962000000000e+01 0.0 
0.0 -1.962000000000e+01 0.0 
0.0 -1.962000000000e+01 0.0 
0.0 -1.962000000000e+01 0.0 
0.0 -1.962000000000e+01 0.0 
0.0 -1.962000000000e+01 0.0 
0.0 -1.962000000000e+01 0.0 
0.0 -1.962000000000e+01 0.0 
0.0 -1.962000000000e+01 0.0 
0.0 -1.962000000000e+01 0.0 
0.0 -1.962000000000e+01 0.0 
0.0 -1.962000000000e+01 0.0 
0.0 -1.962000000000e+01 0.0 
0.0 -1.962000000000e+01 0.0 
0.0 -1.962000000000e+01 0.0 
0.0 -1.962000000000e+01 0.0 
0.0 -1.962000000000e+01 0.0 
0.0 -1.962000000000e+01 0.0 
0.0 -1.962000000000e+01 0.0 
0.0 -1.962000000000e+01 0.0 
0.0 -1.962000000000e+01 0.0 
0.0 -1.962000000000e+01 0.0 
0.0 -1.962000000000e+01 0.0 
0.0 -1.962000000000e+01 0.0 
0.0 -1.962000000000e+01 0.0 
0.0 -1.962000000000e+01 0.0 
0.0 -1.962000000000e+01 0.0 
0.0 -1.962000000000e+01 0.0 
0.0 -1.962000000000e+01 0.0 
0.0 -1.962000000000e+01 0.0 
0.0 -1.962000000000e+01 0.0 
0.0 -1.962000000000e+01 0.0 
0.0 -1.962000000000e+01 0.0 
0.0 -1.962000000000e+01 0.0 
0.0 -1.962000000000e+01 0.0 
0.0 -1.962000000000e+01 0.0 
0.0 -1.962000000000e+01 0.0 
0.0 -1.962000000000e+01 0.0 
0.0 -1.962000000000e+01 0.0 
0.0 -1.962000000000e+01 0.0 
0.0 -1.962000000000e+01 0.0 
0.0 -1.962000000000e+01 0.0 
0.0 -1.962000000000e+01 0.0 
0.0 -1.962000000000e+01 0.0 
0.0 -1.962000000000e+01 0.0 
0.0 -1.962000000000e+01 0.0 
0.0 -1.962000000000e+01 0.0 
0.0 -1.962000000000e+01 0.0 
0.0 -1.962000000000e+01 0.0 
0.0 -1.962000000000e+01 0.0 
0.0 -1.962000000000e+01 0.0 
0.0 -1.962000000000e+01 0.0 
0.0 -1.962000000000e+01 0.0 
0.0 -1.962000000000e+01 0.0 
0.0 -1.962000000000e+01 0.0 
0.0 -1.962000000000e+01 0.0 
0.0 -1.962000000000e+01 0.0 
0.0 -1.962000000000e+01 0.0 
0.0 -1.962000000000e+01 0.0 
0.0 -1.962000000000e+01 0.0 
0.0 -1.962000000000e+01 0.0 
0.0 -1.962000000000e+01 0.0 
0.0 -1.962000000000e+01 0.0 
0.0 -1.962000000000e+01 0.0 
0.0 -1.962000000000e+01 0.0 
0.0 -1.962000000000e+01 0.0 
0.0 -1.962000000000e+01 0.0 
0.0 -1.962000000000e+01 0.0 
0.0 -1.962000000000e+01 0.0 
0.0 -1.962000000000e+01 0.0 
0.0 -1.962000000000e+01 0.0 
0.0 -1.962000000000e+01 0.0 
0.0 -1.962000000000e+01 0.0 
0.0 -1.962000000000e+01 0.0 
0.0 -1.962000000000e+01 0.0 
0.0 -1.962000000000e+01 0.0 
0.0 -1.962000000000e+01 0.0 
0.0 -1.962000000000e+01 0.0 
0.0 -1.962000000000e+01 0.0 
0.0 -1.962000000000e+01 0.0 
0.0 -1.962000000000e+01 0.0 
0.0 -1.962000000000e+01 0.0 
0.0 -1.962000000000e+01 0.0 
0.0 -1.962000000000e+01 0.0 
0.0 -1.962000000000e+01 0.0 
0.0 -1.962000000000e+01 0.0 
0.0 -1.962000000000e+01 0.0 
0.0 -1.962000000000e+01 0.0 
0.0 -1.962000000000e+01 0.0 
0.0 -1.962000000000e+01 0.0 
0.0 -1.962000000000e+01 0.0 
0.0 -1.962000000000e+01 0.0 
0.0 -1.962000000000e+01 0.0 
0.0 -1.962000000000e+01 0.0 
0.0 -1.962000000000e+01 0.0 
0.0 -1.962000000000e+01 0.0 
0.0 -1.962000000000e+01 0.0 
0.0 -1.962000000000e+01 0.0 
0.0 -1.962000000000e+01 0.0 
0.0 -1.962000000000e+01 0.0 
0.0 -1.962000000000e+01 0.0 
0.0 -1.962000000000e+01 0.0 
0.0 -1.962000000000e+01 0.0 
0.0 -1.962000000000e+01 0.0 
0.0 -1.962000000000e+01 0.0 
0.0 -1.962000000000e+01 0.0 
0.0 -1.962000000000e+01 0.0 
0.0 -1.962000000000e+01 0.0 
0.0 -1.962000000000e+01 0.0 
0.0 -1.962000000000e+01 0.0 
0.0 -1.962000000000e+01 0.0 
0.0 -1.962000000000e+01 0.0 
0.0 -1.962000000000e+01 0.0 
0.0 -1.962000000000e+01 0.0 
0.0 -1.962000000000e+01 0.0 
0.0 -1.962000000000e+01 0.0 
0.0 -1.962000000000e+01 0.0 
0.0 -1.962000000000e+01 0.0 
0.0 -1.962000000000e+01 0.0 
0.0 -1.962000000000e+01 0.0 
0.0 -1.962000000000e+01 0.0 
0.0 -1.962000000000e+01 0.0 
0.0 -1.962000000000e+01 0.0 
0.0 -1.962000000000e+01 0.0 
0.0 -1.962000000000e+01 0.0 
0.0 -1.962000000000e+01 0.0 
0.0 -1.962000000000e+01 0.0 
0.0 -1.962000000000e+01 0.0 
0.0 -1.962000000000e+01 0.0 
0.0 -1.962000000000e+01 0.0 
0.0 -1.962000000000e+01 0.0 
0.0 -1.962000000000e+01 0.0 
0.0 -1.962000000000e+01 0.0 
0.0 -1.962000000000e+01 0.0 
0.0 -1.962000000000e+01 0.0 
0.0 -1.962000000000e+01 0.0 
0.0 -1.962000000000e+01 0.0 
0.0 -1.962000000000e+01 0.0 
0.0 -1.962000000000e+01 0.0 
0.0 -1.962000000000e+01 0.0 
0.0 -1.962000000000e+01 0.0 
0.0 -1.962000000000e+01 0.0 
0.0 -1.962000000000e+01 0.0 
0.0 -1.962000000000e+01 0.0 
0.0 -1.962000000000e+01 0.0 
0.0 -1.962000000000e+01 0.0 
0.0 -1.962000000000e+01 0.0 
0.0 -1.962000000000e+01 0.0 
0.0 -1.962000000000e+01 0.0 
0.0 -1.962000000000e+01 0.0 
0.0 -1.962000000000e+01 0.0 
0.0 -1.962000000000e+01 0.0 
0.0 -1.962000000000e+01 0.0 
0.0 -1.962000000000e+01 0.0 
0.0 -1.962000000000e+01 0.0 
0.0 -1.962000000000e+01 0.0 
0.0 -1.962000000000e+01 0.0 
0.0 -1.962000000000e+01 0.0 
0.0 -1.962000000000e+01 0.0 
0.0 -1.962000000000e+01 0.0 
0.0 -1.962000000000e+01 0.0 
0.0 -1.962000000000e+01 0.0 
0.0 -1.962000000000e+01 0.0 
0.0 -1.962000000000e+01 0.0 
0.0 -1.962000000000e+01 0.0 
0.0 -1.962000000000e+01 0.0 
0.0 -1.962000000000e+01 0.0 
0.0 -1.962000000000e+01 0.0 
0.0 -1.962000000000e+01 0.0 
0.0 -1.962000000000e+01 0.0 
0.0 -1.962000000000e+01 0.0 
0.0 -1.962000000000e+01 0.0 
0.0 -1.962000000000e+01 0.0 
0.0 -1.962000000000e+01 0.0 
0.0 -1.962000000000e+01 0.0 
0.0 -1.962000000000e+01 0.0 
0.0 -1.962000000000e+01 0.0 
0.0 -1.962000000000e+01 0.0 
0.0 -1.962000000000e+01 0.0 
0.0 -1.962000000000e+01 0.0 
0.0 -1.962000000000e+01 0.0 
0.0 -1.962000000000e+01 0.0 
0.0 -1.962000000000e+01 0.0 
0.0 -1.962000000000e+01 0.0 
0.0 -1.962000000000e+01 0.0 
0.0 -1.962000000000e+01 0.0 
0.0 -1.962000000000e+01 0.0 
0.0 -1.962000000000e+01 0.0 
0.0 -1.962000000000e+01 0.0 
0.0 -1.962000000000e+01 0.0 
0.0 -1.962000000000e+01 0.0 
0.0 -1.962000000000e+01 0.0 
0.0 -1.962000000000e+01 0.0 
0.0 -1.962000000000e+01 0.0 
0.0 -1.962000000000e+01 0.0 
0.0 -1.962000000000e+01 0.0 
0.0 -1.962000000000e+01 0.0 
0.0 -1.962000000000e+01 0.0 
0.0 -1.962000000000e+01 0.0 
0.0 -1.962000000000e+01 0.0 
0.0 -1.962000000000e+01 0.0 
0.0 -1.962000000000e+01 0.0 
0.0 -1.962000000000e+01 0.0 
0.0 -1.962000000000e+01 0.0 
0.0 -1.962000000000e+01 0.0 
0.0 -1.962000000000e+01 0.0 
0.0 -1.962000000000e+01 0.0 
0.0 -1.962000000000e+01 0.0 
0.0 -1.962000000000e+01 0.0 
0.0 -1.962000000000e+01 0.0 
0.0 -1.962000000000e+01 0.0 
0.0 -1.962000000000e+01 0.0 
0.0 -1.962000000000e+01 0.0 
0.0 -1.962000000000e+01 0.0 
0.0 -1.962000000000e+01 0.0 
0.0 -1.962000000000e+01 0.0 
0.0 -1.962000000000e+01 0.0 
0.0 -1.962000000000e+01 0.0 
0.0 -1.962000000000e+01 0.0 
0.0 -1.962000000000e+01 0.0 
0.0 -1.962000000000e+01 0.0 
0.0 -1.962000000000e+01 0.0 
0.0 -1.962000000000e+01 0.0 
0.0 -1.962000000000e+01 0.0 
0.0 -1.962000000000e+01 0.0 
0.0 -1.962000000000e+01 0.0 
0.0 -1.962000000000e+01 0.0 
0.0 -1.962000000000e+01 0.0 
0.0 -1.962000000000e+01 0.0 
0.0 -1.962000000000e+01 0.0 
0.0 -1.962000000000e+01 0.0 
0.0 -1.962000000000e+01 0.0 
0.0 -1.962000000000e+01 0.0 
0.0 -1.962000000000e+01 0.0 
0.0 -1.962000000000e+01 0.0 
0.0 -1.962000000000e+01 0.0 
0.0 -1.962000000000e+01 0.0 
0.0 -1.962000000000e+01 0.0 
0.0 -1.962000000000e+01 0.0 
0.0 -1.962000000000e+01 0.0 
0.0 -1.962000000000e+01 0.0 
0.0 -1.962000000000e+01 0.0 
0.0 -1.962000000000e+01 0.0 
0.0 -1.962000000000e+01 0.0 
0.0 -1.962000000000e+01 0.0 
0.0 -1.962000000000e+01 0.0 
0.0 -1.962000000000e+01 0.0 
0.0 -1.962000000000e+01 0.0 
0.0 -1.962000000000e+01 0.0 
0.0 -1.962000000000e+01 0.0 
0.0 -1.962000000000e+01 0.0 
0.0 -1.962000000000e+01 0.0 
0.0 -1.962000000000e+01 0.0 
0.0 -1.962000000000e+01 0.0 
0.0 -1.962000000000e+01 0.0 
0.0 -1.962000000000e+01 0.0 
0.0 -1.962000000000e+01 0.0 
0.0 -1.962000000000e+01 0.0 
0.0 -1.962000000000e+01 0.0 
0.0 -1.962000000000e+01 0.0 
0.0 -1.962000000000e+01 0.0 
0.0 -1.962000000000e+01 0.0 
0.0 -1.962000000000e+01 0.0 
0.0 -1.962000000000e+01 0.0 
0.0 -1.962000000000e+01 0.0 
0.0 -1.962000000000e+01 0.0 
0.0 -1.962000000000e+01 0.0 
0.0 -1.962000000000e+01 0.0 
0.0 -1.962000000000e+01 0.0 
0.0 -1.962000000000e+01 0.0 
0.0 -1.962000000000e+01 0.0 
0.0 -1.962000000000e+01 0.0 
0.0 -1.962000000000e+01 0.0 
0.0 -1.962000000000e+01 0.0 
0.0 -1.962000000000e+01 0.0 
0.0 -1.962000000000e+01 0.0 
0.0 -1.962000000000e+01 0.0 
0.0 -1.962000000000e+01 0.0 
0.0 -1.962000000000e+01 0.0 
0.0 -1.962000000000e+01 0.0 
0.0 -1.962000000000e+01 0.0 
0.0 -1.962000000000e+01 0.0 
0.0 -1.962000000000e+01 0.0 
0.0 -1.962000000000e+01 0.0 
0.0 -1.962000000000e+01 0.0 
0.0 -1.962000000000e+01 0.0 
0.0 -1.962000000000e+01 0.0 
0.0 -1.962000000000e+01 0.0 
0.0 -1.962000000000e+01 0.0 
0.0 -1.962000000000e+01 0.0 
0.0 -1.962000000000e+01 0.0 
0.0 -1.962000000000e+01 0.0 
0.0 -1.962000000000e+01 0.0 
0.0 -1.962000000000e+01 0.0 
0.0 -1.962000000000e+01 0.0 
0.0 -1.962000000000e+01 0.0 
0.0 -1.962000000000e+01 0.0 
0.0 -1.962000000000e+01 0.0 
0.0 -1.962000000000e+01 0.0 
0.0 -1.962000000000e+01 0.0 
0.0 -1.962000000000e+01 0.0 
0.0 -1.962000000000e+01 0.0 
0.0 -1.962000000000e+01 0.0 
0.0 -1.962000000000e+01 0.0 
0.0 -1.962000000000e+01 0.0 
0.0 -1.962000000000e+01 0.0 
0.0 -1.962000000000e+01 0.0 
0.0 -1.962000000000e+01 0.0 
0.0 -1.962000000000e+01 0.0 
0.0 -1.962000000000e+01 0.0 
0.0 -1.962000000000e+01 0.0 
0.0 -1.962000000000e+01 0.0 
0.0 -1.962000000000e+01 0.0 
0.0 -1.962000000000e+01 0.0 
0.0 -1.962000000000e+01 0.0 
0.0 -1.962000000000e+01 0.0 
0.0 -1.962000000000e+01 0.0 
0.0 -1.962000000000e+01 0.0 
0.0 -1.962000000000e+01 0.0 
0.0 -1.962000000000e+01 0.0 
0.0 -1.962000000000e+01 0.0 
0.0 -1.962000000000e+01 0.0 
0.0 -1.962000000000e+01 0.0 
0.0 -1.962000000000e+01 0.0 
0.0 -1.962000000000e+01 0.0 
0.0 -1.962000000000e+01 0.0 
0.0 -1.962000000000e+01 0.0 
0.0 -1.962000000000e+01 0.0 
0.0 -1.962000000000e+01 0.0 
0.0 -1.962000000000e+01 0.0 
0.0 -1.962000000000e+01 0.0 
0.0 -1.962000000000e+01 0.0 
0.0 -1.962000000000e+01 0.0 
0.0 -1.962000000000e+01 0.0 
0.0 -1.962000000000e+01 0.0 
0.0 -1.962000000000e+01 0.0 
0.0 -1.962000000000e+01 0.0 
0.0 -1.962000000000e+01 0.0 
0.0 -1.962000000000e+01 0.0 
0.0 -1.962000000000e+01 0.0 
0.0 -1.962000000000e+01 0.0 
0.0 -1.962000000000e+01 0.0 
0.0 -1.962000000000e+01 0.0 
0.0 -1.962000000000e+01 0.0 
0.0 -1.962000000000e+01 0.0 
0.0 -1.962000000000e+01 0.0 
0.0 -1.962000000000e+01 0.0 
0.0 -1.962000000000e+01 0.0 
0.0 -1.962000000000e+01 0.0 
0.0 -1.962000000000e+01 0.0 
0.0 -1.962000000000e+01 0.0 
0.0 -1.962000000000e+01 0.0 
0.0 -1.962000000000e+01 0.0 
0.0 -1.962000000000e+01 0.0 
0.0 -1.962000000000e+01 0.0 
0.0 -1.962000000000e+01 0.0 
0.0 -1.962000000000e+01 0.0 
0.0 -1.962000000000e+01 0.0 
0.0 -1.962000000000e+01 0.0 
0.0 -1.962000000000e+01 0.0 
0.0 -1.962000000000e+01 0.0 
0.0 -1.962000000000e+01 0.0 
0.0 -1.962000000000e+01 0.0 
0.0 -1.962000000000e+01 0.0 
0.0 -1.962000000000e+01 0.0 
0.0 -1.962000000000e+01 0.0 
0.0 -1.962000000000e+01 0.0 
0.0 -1.962000000000e+01 0.0 
0.0 -1.962000000000e+01 0.0 
0.0 -1.962000000000e+01 0.0 
0.0 -1.962000000000e+01 0.0 
0.0 -1.962000000000e+01 0.0 
0.0 -1.962000000000e+01 0.0 
0.0 -1.962000000000e+01 0.0 
0.0 -1.962000000000e+01 0.0 
0.0 -1.962000000000e+01 0.0 
0.0 -1.962000000000e+01 0.0 
0.0 -1.962000000000e+01 0.0 
0.0 -1.962000000000e+01 0.0 
0.0 -1.962000000000e+01 0.0 
0.0 -1.962000000000e+01 0.0 
0.0 -1.962000000000e+01 0.0 
0.0 -1.962000000000e+01 0.0 
0.0 -1.962000000000e+01 0.0 
0.0 -1.962000000000e+01 0.0 
0.0 -1.962000000000e+01 0.0 
0.0 -1.962000000000e+01 0.0 
0.0 -1.962000000000e+01 0.0 
0.0 -1.962000000000e+01 0.0 
0.0 -1.962000000000e+01 0.0 
0.0 -1.962000000000e+01 0.0 
0.0 -1.962000000000e+01 0.0 
0.0 -1.962000000000e+01 0.0 
0.0 -1.962000000000e+01 0.0 
0.0 -1.962000000000e+01 0.0 
0.0 -1.962000000000e+01 0.0 
0.0 -1.962000000000e+01 0.0 
0.0 -1.962000000000e+01 0.0 
0.0 -1.962000000000e+01 0.0 
0.0 -1.962000000000e+01 0.0 
0.0 -1.962000000000e+01 0.0 
0.0 -1.962000000000e+01 0.0 
0.0 -1.962000000000e+01 0.0 
0.0 -1.962000000000e+01 0.0 
0.0 -1.962000000000e+01 0.0 
0.0 -1.962000000000e+01 0.0 
0.0 -1.962000000000e+01 0.0 
0.0 -1.962000000000e+01 0.0 
0.0 -1.962000000000e+01 0.0 
0.0 -1.962000000000e+01 0.0 
0.0 -1.962000000000e+01 0.0 
0.0 -1.962000000000e+01 0.0 
0.0 -1.962000000000e+01 0.0 
0.0 -1.962000000000e+01 0.0 
0.0 -1.962000000000e+01 0.0 
0.0 -1.962000000000e+01 0.0 
0.0 -1.962000000000e+01 0.0 
0.0 -1.962000000000e+01 0.0 
0.0 -1.962000000000e+01 0.0 
0.0 -1.962000000000e+01 0.0 
0.0 -1.962000000000e+01 0.0 
0.0 -1.962000000000e+01 0.0 
0.0 -1.962000000000e+01 0.0 
0.0 -1.962000000000e+01 0.0 
0.0 -1.962000000000e+01 0.0 
0.0 -1.962000000000e+01 0.0 
0.0 -1.962000000000e+01 0.0 
0.0 -1.962000000000e+01 0.0 
0.0 -1.962000000000e+01 0.0 
0.0 -1.962000000000e+01 0.0 
0.0 -1.962000000000e+01 0.0 
0.0 -1.962000000000e+01 0.0 
0.0 -1.962000000000e+01 0.0 
0.0 -1.962000000000e+01 0.0 
0.0 -1.962000000000e+01 0.0 
0.0 -1.962000000000e+01 0.0 
0.0 -1.962000000000e+01 0.0 
0.0 -1.962000000000e+01 0.0 
0.0 -1.962000000000e+01 0.0 
0.0 -1.962000000000e+01 0.0 
0.0 -1.962000000000e+01 0.0 
0.0 -1.962000000000e+01 0.0 
0.0 -1.962000000000e+01 0.0 
0.0 -1.962000000000e+01 0.0 
0.0 -1.962000000000e+01 0.0 
0.0 -1.962000000000e+01 0.0 
0.0 -1.962000000000e+01 0.0 
0.0 -1.962000000000e+01 0.0 
0.0 -1.962000000000e+01 0.0 
0.0 -1.962000000000e+01 0.0 
0.0 -1.962000000000e+01 0.0 
0.0 -1.962000000000e+01 0.0 
0.0 -1.962000000000e+01 0.0 
0.0 -1.962000000000e+01 0.0 
0.0 -1.962000000000e+01 0.0 
0.0 -1.962000000000e+01 0.0 
0.0 -1.962000000000e+01 0.0 
0.0 -1.962000000000e+01 0.0 
0.0 -1.962000000000e+01 0.0 
0.0 -1.962000000000e+01 0.0 
0.0 -1.962000000000e+01 0.0 
0.0 -1.962000000000e+01 0.0 
0.0 -1.962000000000e+01 0.0 
0.0 -1.962000000000e+01 0.0 
0.0 -1.962000000000e+01 0.0 
0.0 -1.962000000000e+01 0.0 
0.0 -1.962000000000e+01 0.0 
0.0 -1.962000000000e+01 0.0 
0.0 -1.962000000000e+01 0.0 
0.0 -1.962000000000e+01 0.0 
0.0 -1.962000000000e+01 0.0 
0.0 -1.962000000000e+01 0.0 
0.0 -1.962000000000e+01 0.0 
0.0 -1.962000000000e+01 0.0 
0.0 -1.962000000000e+01 0.0 
0.0 -1.962000000000e+01 0.0 
0.0 -1.962000000000e+01 0.0 
0.0 -1.962000000000e+01 0.0 
0.0 -1.962000000000e+01 0.0 
0.0 -1.962000000000e+01 0.0 
0.0 -1.962000000000e+01 0.0 
0.0 -1.962000000000e+01 0.0 
0.0 -1.962000000000e+01 0.0 
0.0 -1.962000000000e+01 0.0 
0.0 -1.962000000000e+01 0.0 
0.0 -1.962000000000e+01 0.0 
0.0 -1.962000000000e+01 0.0 
0.0 -1.962000000000e+01 0.0 
0.0 -1.962000000000e+01 0.0 
0.0 -1.962000000000e+01 0.0 
0.0 -1.962000000000e+01 0.0 
0.0 -1.962000000000e+01 0.0 
0.0 -1.962000000000e+01 0.0 
0.0 -1.962000000000e+01 0.0 
0.0 -1.962000000000e+01 0.0 
0.0 -1.962000000000e+01 0.0 
0.0 -1.962000000000e+01 0.0 
0.0 -1.962000000000e+01 0.0 
0.0 -1.962000000000e+01 0.0 
0.0 -1.962000000000e+01 0.0 
0.0 -1.962000000000e+01 0.0 
0.0 -1.962000000000e+01 0.0 
0.0 -1.962000000000e+01 0.0 
0.0 -1.962000000000e+01 0.0 
0.0 -1.962000000000e+01 0.0 
0.0 -1.962000000000e+01 0.0 
0.0 -1.962000000000e+01 0.0 
0.0 -1.962000000000e+01 0.0 
0.0 -1.962000000000e+01 0.0 
0.0 -1.962000000000e+01 0.0 
0.0 -1.962000000000e+01 0.0 
0.0 -1.962000000000e+01 0.0 
0.0 -1.962000000000e+01 0.0 
0.0 -1.962000000000e+01 0.0 
0.0 -1.962000000000e+01 0.0 
0.0 -1.962000000000e+01 0.0 
0.0 -1.962000000000e+01 0.0 
0.0 -1.962000000000e+01 0.0 
0.0 -1.962000000000e+01 0.0 
0.0 -1.962000000000e+01 0.0 
0.0 -1.962000000000e+01 0.0 
0.0 -1.962000000000e+01 0.0 
0.0 -1.962000000000e+01 0.0 
0.0 -1.962000000000e+01 0.0 
0.0 -1.962000000000e+01 0.0 
0.0 -1.962000000000e+01 0.0 
0.0 -1.962000000000e+01 0.0 
0.0 -1.962000000000e+01 0.0 
0.0 -1.962000000000e+01 0.0 
0.0 -1.962000000000e+01 0.0 
0.0 -1.962000000000e+01 0.0 
0.0 -1.962000000000e+01 0.0 
0.0 -1.962000000000e+01 0.0 
0.0 -1.962000000000e+01 0.0 
0.0 -1.962000000000e+01 0.0 
0.0 -1.962000000000e+01 0.0 
0.0 -1.962000000000e+01 0.0 
0.0 -1.962000000000e+01 0.0 
0.0 -1.962000000000e+01 0.0 
0.0 -1.962000000000e+01 0.0 
0.0 -1.962000000000e+01 0.0 
0.0 -1.962000000000e+01 0.0 
0.0 -1.962000000000e+01 0.0 
0.0 -1.962000000000e+01 0.0 
0.0 -1.962000000000e+01 0.0 
0.0 -1.962000000000e+01 0.0 
0.0 -1.962000000000e+01 0.0 
0.0 -1.962000000000e+01 0.0 
0.0 -1.962000000000e+01 0.0 
0.0 -1.962000000000e+01 0.0 
0.0 -1.962000000000e+01 0.0 
0.0 -1.962000000000e+01 0.0 
0.0 -1.962000000000e+01 0.0 
0.0 -1.962000000000e+01 0.0 
0.0 -1.962000000000e+01 0.0 
0.0 -1.962000000000e+01 0.0 
0.0 -1.962000000000e+01 0.0 
0.0 -1.962000000000e+01 0.0 
0.0 -1.962000000000e+01 0.0 
0.0 -1.962000000000e+01 0.0 
0.0 -1.962000000000e+01 0.0 
0.0 -1.962000000000e+01 0.0 
0.0 -1.962000000000e+01 0.0 
0.0 -1.962000000000e+01 0.0 
0.0 -1.962000000000e+01 0.0 
0.0 -1.962000000000e+01 0.0 
0.0 -1.962000000000e+01 0.0 
0.0 -1.962000000000e+01 0.0 
0.0 -1.962000000000e+01 0.0 
0.0 -1.962000000000e+01 0.0 
0.0 -1.962000000000e+01 0.0 
0.0 -1.962000000000e+01 0.0 
0.0 -1.962000000000e+01 0.0 
0.0 -1.962000000000e+01 0.0 
0.0 -1.962000000000e+01 0.0 
0.0 -1.962000000000e+01 0.0 
0.0 -1.962000000000e+01 0.0 
0.0 -1.962000000000e+01 0.0 
0.0 -1.962000000000e+01 0.0 
0.0 -1.962000000000e+01 0.0 
0.0 -1.962000000000e+01 0.0 
0.0 -1.962000000000e+01 0.0 
0.0 -1.962000000000e+01 0.0 
0.0 -1.962000000000e+01 0.0 
0.0 -1.962000000000e+01 0.0 
0.0 -1.962000000000e+01 0.0 
0.0 -1.962000000000e+01 0.0 
0.0 -1.962000000000e+01 0.0 
0.0 -1.962000000000e+01 0.0 
0.0 -1.962000000000e+01 0.0 
0.0 -1.962000000000e+01 0.0 
0.0 -1.962000000000e+01 0.0 
0.0 -1.962000000000e+01 0.0 
0.0 -1.962000000000e+01 0.0 
0.0 -1.962000000000e+01 0.0 
0.0 -1.962000000000e+01 0.0 
0.0 -1.962000000000e+01 0.0 
0.0 -1.962000000000e+01 0.0 
0.0 -1.962000000000e+01 0.0 
0.0 -1.962000000000e+01 0.0 
0.0 -1.962000000000e+01 0.0 
0.0 -1.962000000000e+01 0.0 
0.0 -1.962000000000e+01 0.0 
0.0 -1.962000000000e+01 0.0 
0.0 -1.962000000000e+01 0.0 
0.0 -1.962000000000e+01 0.0 
0.0 -1.962000000000e+01 0.0 
0.0 -1.962000000000e+01 0.0 
0.0 -1.962000000000e+01 0.0 
0.0 -1.962000000000e+01 0.0 
0.0 -1.962000000000e+01 0.0 
0.0 -1.962000000000e+01 0.0 
0.0 -1.962000000000e+01 0.0 
0.0 -1.962000000000e+01 0.0 
0.0 -1.962000000000e+01 0.0 
0.0 -1.962000000000e+01 0.0 
0.0 -1.962000000000e+01 0.0 
0.0 -1.962000000000e+01 0.0 
0.0 -1.962000000000e+01 0.0 
0.0 -1.962000000000e+01 0.0 
0.0 -1.962000000000e+01 0.0 
0.0 -1.962000000000e+01 0.0 
0.0 -1.962000000000e+01 0.0 
0.0 -1.962000000000e+01 0.0 
0.0 -1.962000000000e+01 0.0 
0.0 -1.962000000000e+01 0.0 
0.0 -1.962000000000e+01 0.0 
0.0 -1.962000000000e+01 0.0 
0.0 -1.962000000000e+01 0.0 
0.0 -1.962000000000e+01 0.0 
0.0 -1.962000000000e+01 0.0 
0.0 -1.962000000000e+01 0.0 
0.0 -1.962000000000e+01 0.0 
0.0 -1.962000000000e+01 0.0 
0.0 -1.962000000000e+01 0.0 
0.0 -1.962000000000e+01 0.0 
0.0 -1.962000000000e+01 0.0 
0.0 -1.962000000000e+01 0.0 
0.0 -1.962000000000e+01 0.0 
0.0 -1.962000000000e+01 0.0 
0.0 -1.962000000000e+01 0.0 
0.0 -1.962000000000e+01 0.0 
0.0 -1.962000000000e+01 0.0 
0.0 -1.962000000000e+01 0.0 
0.0 -1.962000000000e+01 0.0 
0.0 -1.962000000000e+01 0.0 
0.0 -1.962000000000e+01 0.0 
0.0 -1.962000000000e+01 0.0 
0.0 -1.962000000000e+01 0.0 
0.0 -1.962000000000e+01 0.0 
0.0 -1.962000000000e+01 0.0 
0.0 -1.962000000000e+01 0.0 
0.0 -1.962000000000e+01 0.0 
0.0 -1.962000000000e+01 0.0 
0.0 -1.962000000000e+01 0.0 
0.0 -1.962000000000e+01 0.0 
0.0 -1.962000000000e+01 0.0 
0.0 -1.962000000000e+01 0.0 
0.0 -1.962000000000e+01 0.0 
0.0 -1.962000000000e+01 0.0 
0.0 -1.962000000000e+01 0.0 
0.0 -1.962000000000e+01 0.0 
0.0 -1.962000000000e+01 0.0 
0.0 -1.962000000000e+01 0.0 
0.0 -1.962000000000e+01 0.0 
0.0 -1.962000000000e+01 0.0 
0.0 -1.962000000000e+01 0.0 
0.0 -1.962000000000e+01 0.0 
0.0 -1.962000000000e+01 0.0 
0.0 -1.962000000000e+01 0.0 
0.0 -1.962000000000e+01 0.0 
0.0 -1.962000000000e+01 0.0 
0.0 -1.962000000000e+01 0.0 
0.0 -1.962000000000e+01 0.0 
0.0 -1.962000000000e+01 0.0 
0.0 -1.962000000000e+01 0.0 
0.0 -1.962000000000e+01 0.0 
0.0 -1.962000000000e+01 0.0 
0.0 -1.962000000000e+01 0.0 
0.0 -1.962000000000e+01 0.0 
0.0 -1.962000000000e+01 0.0 
0.0 -1.962000000000e+01 0.0 
0.0 -1.962000000000e+01 0.0 
0.0 -1.962000000000e+01 0.0 
0.0 -1.962000000000e+01 0.0 
0.0 -1.962000000000e+01 0.0 
0.0 -1.962000000000e+01 0.0 
0.0 -1.962000000000e+01 0.0 
0.0 -1.962000000000e+01 0.0 
0.0 -1.962000000000e+01 0.0 
0.0 -1.962000000000e+01 0.0 
0.0 -1.962000000000e+01 0.0 
0.0 -1.962000000000e+01 0.0 
0.0 -1.962000000000e+01 0.0 
0.0 -1.962000000000e+01 0.0 
0.0 -1.962000000000e+01 0.0 
0.0 -1.962000000000e+01 0.0 
0.0 -1.962000000000e+01 0.0 
0.0 -1.962000000000e+01 0.0 
0.0 -1.962000000000e+01 0.0 
0.0 -1.962000000000e+01 0.0 
0.0 -1.962000000000e+01 0.0 
0.0 -1.962000000000e+01 0.0 
0.0 -1.962000000000e+01 0.0 
0.0 -1.962000000000e+01 0.0 
0.0 -1.962000000000e+01 0.0 
0.0 -1.962000000000e+01 0.0 
0.0 -1.962000000000e+01 0.0 
0.0 -1.962000000000e+01 0.0 
0.0 -1.962000000000e+01 0.0 
0.0 -1.962000000000e+01 0.0 
0.0 -1.962000000000e+01 0.0 
0.0 -1.962000000000e+01 0.0 
0.0 -1.962000000000e+01 0.0 
0.0 -1.962000000000e+01 0.0 
0.0 -1.962000000000e+01 0.0 
0.0 -1.962000000000e+01 0.0 
0.0 -1.962000000000e+01 0.0 
0.0 -1.962000000000e+01 0.0 
0.0 -1.962000000000e+01 0.0 
0.0 -1.962000000000e+01 0.0 
0.0 -1.962000000000e+01 0.0 
0.0 -1.962000000000e+01 0.0 
0.0 -1.962000000000e+01 0.0 
0.0 -1.962000000000e+01 0.0 
0.0 -1.962000000000e+01 0.0 
0.0 -1.962000000000e+01 0.0 
0.0 -1.962000000000e+01 0.0 
0.0 -1.962000000000e+01 0.0 
0.0 -1.962000000000e+01 0.0 
0.0 -1.962000000000e+01 0.0 
0.0 -1.962000000000e+01 0.0 
0.0 -1.962000000000e+01 0.0 
0.0 -1.962000000000e+01 0.0 
0.0 -1.962000000000e+01 0.0 
0.0 -1.962000000000e+01 0.0 
0.0 -1.962000000000e+01 0.0 
0.0 -1.962000000000e+01 0.0 
0.0 -1.962000000000e+01 0.0 
0.0 -1.962000000000e+01 0.0 
0.0 -1.962000000000e+01 0.0 
0.0 -1.962000000000e+01 0.0 
0.0 -1.962000000000e+01 0.0 
0.0 -1.962000000000e+01 0.0 
0.0 -1.962000000000e+01 0.0 
0.0 -1.962000000000e+01 0.0 
0.0 -1.962000000000e+01 0.0 
0.0 -1.962000000000e+01 0.0 
0.0 -1.962000000000e+01 0.0 
0.0 -1.962000000000e+01 0.0 
0.0 -1.962000000000e+01 0.0 
0.0 -1.962000000000e+01 0.0 
0.0 -1.962000000000e+01 0.0 
0.0 -1.962000000000e+01 0.0 
0.0 -1.962000000000e+01 0.0 
0.0 -1.962000000000e+01 0.0 
0.0 -1.962000000000e+01 0.0 
0.0 -1.962000000000e+01 0.0 
0.0 -1.962000000000e+01 0.0 
0.0 -1.962000000000e+01 0.0 
0.0 -1.962000000000e+01 0.0 
0.0 -1.962000000000e+01 0.0 
0.0 -1.962000000000e+01 0.0 
0.0 -1.962000000000e+01 0.0 
0.0 -1.962000000000e+01 0.0 
0.0 -1.962000000000e+01 0.0 
0.0 -1.962000000000e+01 0.0 
0.0 -1.962000000000e+01 0.0 
0.0 -1.962000000000e+01 0.0 
0.0 -1.962000000000e+01 0.0 
0.0 -1.962000000000e+01 0.0 
0.0 -1.962000000000e+01 0.0 
0.0 -1.962000000000e+01 0.0 
0.0 -1.962000000000e+01 0.0 
0.0 -1.962000000000e+01 0.0 
0.0 -1.962000000000e+01 0.0 
0.0 -1.962000000000e+01 0.0 
0.0 -1.962000000000e+01 0.0 
0.0 -1.962000000000e+01 0.0 
0.0 -1.962000000000e+01 0.0 
0.0 -1.962000000000e+01 0.0 
0.0 -1.962000000000e+01 0.0 
0.0 -1.962000000000e+01 0.0 
0.0 -1.962000000000e+01 0.0 
0.0 -1.962000000000e+01 0.0 
0.0 -1.962000000000e+01 0.0 
0.0 -1.962000000000e+01 0.0 
0.0 -1.962000000000e+01 0.0 
0.0 -1.962000000000e+01 0.0 
0.0 -1.962000000000e+01 0.0 
0.0 -1.962000000000e+01 0.0 
0.0 -1.962000000000e+01 0.0 
0.0 -1.962000000000e+01 0.0 
0.0 -1.962000000000e+01 0.0 
0.0 -1.962000000000e+01 0.0 
0.0 -1.962000000000e+01 0.0 
0.0 -1.962000000000e+01 0.0 
0.0 -1.962000000000e+01 0.0 
0.0 -1.962000000000e+01 0.0 
0.0 -1.962000000000e+01 0.0 
0.0 -1.962000000000e+01 0.0 
0.0 -1.962000000000e+01 0.0 
0.0 -1.962000000000e+01 0.0 
0.0 -1.962000000000e+01 0.0 
0.0 -1.962000000000e+01 0.0 
0.0 -1.962000000000e+01 0.0 
0.0 -1.962000000000e+01 0.0 
0.0 -1.962000000000e+01 0.0 
0.0 -1.962000000000e+01 0.0 
0.0 -1.962000000000e+01 0.0 
0.0 -1.962000000000e+01 0.0 
0.0 -1.962000000000e+01 0.0 
0.0 -1.962000000000e+01 0.0 
0.0 -1.962000000000e+01 0.0 
0.0 -1.962000000000e+01 0.0 
0.0 -1.962000000000e+01 0.0 
0.0 -1.962000000000e+01 0.0 
0.0 -1.962000000000e+01 0.0 
0.0 -1.962000000000e+01 0.0 
0.0 -1.962000000000e+01 0.0 
0.0 -1.962000000000e+01 0.0 
0.0 -1.962000000000e+01 0.0 
0.0 -1.962000000000e+01 0.0 
0.0 -1.962000000000e+01 0.0 
0.0 -1.962000000000e+01 0.0 
0.0 -1.962000000000e+01 0.0 
0.0 -1.962000000000e+01 0.0 
0.0 -1.962000000000e+01 0.0 
0.0 -1.962000000000e+01 0.0 
0.0 -1.962000000000e+01 0.0 
0.0 -1.962000000000e+01 0.0 
0.0 -1.962000000000e+01 0.0 
0.0 -1.962000000000e+01 0.0 
0.0 -1.962000000000e+01 0.0 
0.0 -1.962000000000e+01 0.0 
0.0 -1.962000000000e+01 0.0 
0.0 -1.962000000000e+01 0.0 
0.0 -1.962000000000e+01 0.0 
0.0 -1.962000000000e+01 0.0 
0.0 -1.962000000000e+01 0.0 
0.0 -1.962000000000e+01 0.0 
0.0 -1.962000000000e+01 0.0 
0.0 -1.962000000000e+01 0.0 
0.0 -1.962000000000e+01 0.0 
0.0 -1.962000000000e+01 0.0 
0.0 -1.962000000000e+01 0.0 
0.0 -1.962000000000e+01 0.0 
0.0 -1.962000000000e+01 0.0 
0.0 -1.962000000000e+01 0.0 
0.0 -1.962000000000e+01 0.0 
0.0 -1.962000000000e+01 0.0 
0.0 -1.962000000000e+01 0.0 
0.0 -1.962000000000e+01 0.0 
0.0 -1.962000000000e+01 0.0 
0.0 -1.962000000000e+01 0.0 
0.0 -1.962000000000e+01 0.0 
0.0 -1.962000000000e+01 0.0 
0.0 -1.962000000000e+01 0.0 
0.0 -1.962000000000e+01 0.0 
0.0 -1.962000000000e+01 0.0 
0.0 -1.962000000000e+01 0.0 
0.0 -1.962000000000e+01 0.0 
0.0 -1.962000000000e+01 0.0 
0.0 -1.962000000000e+01 0.0 
0.0 -1.962000000000e+01 0.0 
0.0 -1.962000000000e+01 0.0 
0.0 -1.962000000000e+01 0.0 
0.0 -1.962000000000e+01 0.0 
0.0 -1.962000000000e+01 0.0 
0.0 -1.962000000000e+01 0.0 
0.0 -1.962000000000e+01 0.0 
0.0 -1.962000000000e+01 0.0 
0.0 -1.962000000000e+01 0.0 
0.0 -1.962000000000e+01 0.0 
0.0 -1.962000000000e+01 0.0 
0.0 -1.962000000000e+01 0.0 
0.0 -1.962000000000e+01 0.0 
0.0 -1.962000000000e+01 0.0 
0.0 -1.962000000000e+01 0.0 
0.0 -1.962000000000e+01 0.0 
0.0 -1.962000000000e+01 0.0 

VECTORS node_rhside_materi_fixed float
-1.493171253380e+00 0.0 0.0 
4.241310006491e+01 0.0 0.0 
-8.165193985517e+01 -1.953053269835e+02 0.0 
5.795759343240e+01 -1.391727785670e+02 0.0 
-7.158095271377e+00 0.0 0.0 
-1.510434437258e+01 0.0 0.0 
-2.151755067280e+01 0.0 0.0 
-2.968863754937e+01 0.0 0.0 
-3.675570827735e+01 0.0 0.0 
-4.413632866108e+01 0.0 0.0 
-5.156617059759e+01 0.0 0.0 
-5.905229851953e+01 0.0 0.0 
-6.665953728407e+01 0.0 0.0 
-7.435241225417e+01 0.0 0.0 
-8.269177750854e+01 0.0 0.0 
-9.112843972740e+01 0.0 0.0 
-9.927316018806e+01 0.0 0.0 
-1.082974278118e+02 0.0 0.0 
-1.173758585917e+02 0.0 0.0 
-1.267260802621e+02 0.0 0.0 
-1.363511038147e+02 0.0 0.0 
-1.462144768968e+02 0.0 0.0 
-1.566370310915e+02 0.0 0.0 
5.109589427161e-01 -2.772161116135e+02 0.0 
8.271057856327e-01 -2.784517685266e+02 0.0 
2.945955541351e+00 -2.776966769402e+02 0.0 
1.845517312396e+00 -2.779283054630e+02 0.0 
3.754989883098e+00 -2.788200923805e+02 0.0 
4.365893629349e+00 -2.784139924911e+02 0.0 
4.961735932701e+00 -2.793287888581e+02 0.0 
5.949986365220e+00 -2.802151213741e+02 0.0 
7.917503665901e+00 -2.801661445002e+02 0.0 
7.252450839930e+00 -2.811238535120e+02 0.0 
9.664343215524e+00 -2.830125146942e+02 0.0 
1.082048584742e+01 -2.834565388539e+02 0.0 
1.191388799498e+01 -2.857526225215e+02 0.0 
1.317858456375e+01 -2.872691591760e+02 0.0 
1.479648881016e+01 -2.894348964999e+02 0.0 
1.587645694891e+01 -2.924854715987e+02 0.0 
1.823072611576e+01 -2.953750854584e+02 0.0 
1.947187456414e+01 -2.989178757743e+02 0.0 
2.089398917589e+01 -3.026885358219e+02 0.0 
2.205358326452e+01 -3.065378984454e+02 0.0 
2.264950302415e+01 -3.110422995695e+02 0.0 
2.397866121278e+01 -3.162069269088e+02 0.0 
2.444969959434e+01 -3.209909252048e+02 0.0 
2.493775633394e+01 -3.260829380565e+02 0.0 
2.512803900875e+01 -3.315152577150e+02 0.0 
2.491225618969e+01 -3.365213206506e+02 0.0 
2.453096122016e+01 -3.414377473525e+02 0.0 
2.388758843587e+01 -3.464869889228e+02 0.0 
2.320110417873e+01 -3.513821270218e+02 0.0 
2.234808859136e+01 -3.556671875957e+02 0.0 
2.092497986251e+01 -3.595580059972e+02 0.0 
1.990942061223e+01 -3.640770961101e+02 0.0 
1.870692292495e+01 -3.672311590496e+02 0.0 
1.745342983887e+01 -3.706396955441e+02 0.0 
1.600409378395e+01 -3.735116113053e+02 0.0 
1.476465652018e+01 -3.760783247142e+02 0.0 
1.342833503317e+01 -3.784898626844e+02 0.0 
1.208185664852e+01 -3.805172531670e+02 0.0 
1.088725137656e+01 -3.822822836244e+02 0.0 
9.736936565212e+00 -3.841723562096e+02 0.0 
8.584565735282e+00 -3.853115215062e+02 0.0 
7.465678424491e+00 -3.863499933396e+02 0.0 
6.367478922100e+00 -3.871267016125e+02 0.0 
5.509070104281e+00 -3.886879802941e+02 0.0 
4.300530045288e+00 -3.885492901275e+02 0.0 
3.417504541874e+00 -3.896989876767e+02 0.0 
2.772488065790e+00 -3.896031344541e+02 0.0 
1.727943034387e+00 -3.900507250748e+02 0.0 
7.870335648969e-01 -3.901007384568e+02 0.0 
5.034157693522e+01 0.0 0.0 
5.889641724282e+01 0.0 0.0 
6.690035805863e+01 0.0 0.0 
7.462514566573e+01 0.0 0.0 
8.231165740273e+01 0.0 0.0 
9.019302218509e+01 0.0 0.0 
9.746849251606e+01 0.0 0.0 
1.042496267780e+02 0.0 0.0 
1.122352649195e+02 0.0 0.0 
0.0 0.0 0.0 
0.0 0.0 0.0 
0.0 0.0 0.0 
0.0 0.0 0.0 
0.0 0.0 0.0 
0.0 0.0 0.0 
0.0 0.0 0.0 
0.0 0.0 0.0 
0.0 0.0 0.0 
0.0 0.0 0.0 
0.0 0.0 0.0 
6.226541231915e+00 0.0 0.0 
1.777338651140e+01 0.0 0.0 
2.590964272931e+01 0.0 0.0 
3.424337299383e+01 0.0 0.0 
0.0 0.0 0.0 
0.0 0.0 0.0 
0.0 0.0 0.0 
0.0 0.0 0.0 
0.0 0.0 0.0 
0.0 0.0 0.0 
0.0 0.0 0.0 
0.0 0.0 0.0 
0.0 0.0 0.0 
0.0 0.0 0.0 
0.0 0.0 0.0 
0.0 0.0 0.0 
0.0 0.0 0.0 
0.0 0.0 0.0 
0.0 0.0 0.0 
0.0 0.0 0.0 
0.0 0.0 0.0 
0.0 0.0 0.0 
0.0 0.0 0.0 
0.0 0.0 0.0 
0.0 0.0 0.0 
0.0 0.0 0.0 
0.0 0.0 0.0 
0.0 0.0 0.0 
0.0 0.0 0.0 
0.0 0.0 0.0 
0.0 0.0 0.0 
0.0 0.0 0.0 
0.0 0.0 0.0 
0.0 0.0 0.0 
0.0 0.0 0.0 
0.0 0.0 0.0 
0.0 0.0 0.0 
0.0 0.0 0.0 
0.0 0.0 0.0 
0.0 0.0 0.0 
0.0 0.0 0.0 
0.0 0.0 0.0 
0.0 0.0 0.0 
0.0 0.0 0.0 
0.0 0.0 0.0 
0.0 0.0 0.0 
0.0 0.0 0.0 
0.0 0.0 0.0 
0.0 0.0 0.0 
0.0 0.0 0.0 
0.0 0.0 0.0 
0.0 0.0 0.0 
0.0 0.0 0.0 
0.0 0.0 0.0 
0.0 0.0 0.0 
0.0 0.0 0.0 
0.0 0.0 0.0 
0.0 0.0 0.0 
0.0 0.0 0.0 
0.0 0.0 0.0 
0.0 0.0 0.0 
0.0 0.0 0.0 
0.0 0.0 0.0 
0.0 0.0 0.0 
0.0 0.0 0.0 
0.0 0.0 0.0 
0.0 0.0 0.0 
0.0 0.0 0.0 
0.0 0.0 0.0 
0.0 0.0 0.0 
0.0 0.0 0.0 
0.0 0.0 0.0 
0.0 0.0 0.0 
0.0 0.0 0.0 
0.0 0.0 0.0 
0.0 0.0 0.0 
0.0 0.0 0.0 
0.0 0.0 0.0 
0.0 0.0 0.0 
0.0 0.0 0.0 
0.0 0.0 0.0 
0.0 0.0 0.0 
0.0 0.0 0.0 
0.0 0.0 0.0 
0.0 0.0 0.0 
0.0 0.0 0.0 
0.0 0.0 0.0 
0.0 0.0 0.0 
0.0 0.0 0.0 
0.0 0.0 0.0 
0.0 0.0 0.0 
0.0 0.0 0.0 
0.0 0.0 0.0 
0.0 0.0 0.0 
0.0 0.0 0.0 
0.0 0.0 0.0 
0.0 0.0 0.0 
0.0 0.0 0.0 
0.0 0.0 0.0 
0.0 0.0 0.0 
0.0 0.0 0.0 
0.0 0.0 0.0 
0.0 0.0 0.0 
0.0 0.0 0.0 
0.0 0.0 0.0 
0.0 0.0 0.0 
0.0 0.0 0.0 
0.0 0.0 0.0 
0.0 0.0 0.0 
0.0 0.0 0.0 
0.0 0.0 0.0 
0.0 0.0 0.0 
0.0 0.0 0.0 
0.0 0.0 0.0 
0.0 0.0 0.0 
0.0 0.0 0.0 
0.0 0.0 0.0 
0.0 0.0 0.0 
0.0 0.0 0.0 
0.0 0.0 0.0 
0.0 0.0 0.0 
0.0 0.0 0.0 
0.0 0.0 0.0 
0.0 0.0 0.0 
0.0 0.0 0.0 
0.0 0.0 0.0 
0.0 0.0 0.0 
0.0 0.0 0.0 
0.0 0.0 0.0 
0.0 0.0 0.0 
0.0 0.0 0.0 
0.0 0.0 0.0 
0.0 0.0 0.0 
0.0 0.0 0.0 
0.0 0.0 0.0 
0.0 0.0 0.0 
0.0 0.0 0.0 
0.0 0.0 0.0 
0.0 0.0 0.0 
0.0 0.0 0.0 
0.0 0.0 0.0 
0.0 0.0 0.0 
0.0 0.0 0.0 
0.0 0.0 0.0 
0.0 0.0 0.0 
0.0 0.0 0.0 
0.0 0.0 0.0 
0.0 0.0 0.0 
0.0 0.0 0.0 
0.0 0.0 0.0 
0.0 0.0 0.0 
0.0 0.0 0.0 
0.0 0.0 0.0 
0.0 0.0 0.0 
0.0 0.0 0.0 
0.0 0.0 0.0 
0.0 0.0 0.0 
0.0 0.0 0.0 
0.0 0.0 0.0 
0.0 0.0 0.0 
0.0 0.0 0.0 
0.0 0.0 0.0 
0.0 0.0 0.0 
0.0 0.0 0.0 
0.0 0.0 0.0 
0.0 0.0 0.0 
0.0 0.0 0.0 
0.0 0.0 0.0 
0.0 0.0 0.0 
0.0 0.0 0.0 
0.0 0.0 0.0 
0.0 0.0 0.0 
0.0 0.0 0.0 
0.0 0.0 0.0 
0.0 0.0 0.0 
0.0 0.0 0.0 
0.0 0.0 0.0 
0.0 0.0 0.0 
0.0 0.0 0.0 
0.0 0.0 0.0 
0.0 0.0 0.0 
0.0 0.0 0.0 
0.0 0.0 0.0 
0.0 0.0 0.0 
0.0 0.0 0.0 
0.0 0.0 0.0 
0.0 0.0 0.0 
0.0 0.0 0.0 
0.0 0.0 0.0 
0.0 0.0 0.0 
0.0 0.0 0.0 
0.0 0.0 0.0 
0.0 0.0 0.0 
0.0 0.0 0.0 
0.0 0.0 0.0 
0.0 0.0 0.0 
0.0 0.0 0.0 
0.0 0.0 0.0 
0.0 0.0 0.0 
0.0 0.0 0.0 
0.0 0.0 0.0 
0.0 0.0 0.0 
0.0 0.0 0.0 
0.0 0.0 0.0 
0.0 0.0 0.0 
0.0 0.0 0.0 
0.0 0.0 0.0 
0.0 0.0 0.0 
0.0 0.0 0.0 
0.0 0.0 0.0 
0.0 0.0 0.0 
0.0 0.0 0.0 
0.0 0.0 0.0 
0.0 0.0 0.0 
0.0 0.0 0.0 
0.0 0.0 0.0 
0.0 0.0 0.0 
0.0 0.0 0.0 
0.0 0.0 0.0 
0.0 0.0 0.0 
0.0 0.0 0.0 
0.0 0.0 0.0 
0.0 0.0 0.0 
0.0 0.0 0.0 
0.0 0.0 0.0 
0.0 0.0 0.0 
0.0 0.0 0.0 
0.0 0.0 0.0 
0.0 0.0 0.0 
0.0 0.0 0.0 
0.0 0.0 0.0 
0.0 0.0 0.0 
0.0 0.0 0.0 
0.0 0.0 0.0 
0.0 0.0 0.0 
0.0 0.0 0.0 
0.0 0.0 0.0 
0.0 0.0 0.0 
0.0 0.0 0.0 
0.0 0.0 0.0 
0.0 0.0 0.0 
0.0 0.0 0.0 
0.0 0.0 0.0 
0.0 0.0 0.0 
0.0 0.0 0.0 
0.0 0.0 0.0 
0.0 0.0 0.0 
0.0 0.0 0.0 
0.0 0.0 0.0 
0.0 0.0 0.0 
0.0 0.0 0.0 
0.0 0.0 0.0 
0.0 0.0 0.0 
0.0 0.0 0.0 
0.0 0.0 0.0 
0.0 0.0 0.0 
0.0 0.0 0.0 
0.0 0.0 0.0 
0.0 0.0 0.0 
0.0 0.0 0.0 
0.0 0.0 0.0 
0.0 0.0 0.0 
0.0 0.0 0.0 
0.0 0.0 0.0 
0.0 0.0 0.0 
0.0 0.0 0.0 
0.0 0.0 0.0 
0.0 0.0 0.0 
0.0 0.0 0.0 
0.0 0.0 0.0 
0.0 0.0 0.0 
0.0 0.0 0.0 
0.0 0.0 0.0 
0.0 0.0 0.0 
0.0 0.0 0.0 
0.0 0.0 0.0 
0.0 0.0 0.0 
0.0 0.0 0.0 
0.0 0.0 0.0 
0.0 0.0 0.0 
0.0 0.0 0.0 
0.0 0.0 0.0 
0.0 0.0 0.0 
0.0 0.0 0.0 
0.0 0.0 0.0 
0.0 0.0 0.0 
0.0 0.0 0.0 
0.0 0.0 0.0 
0.0 0.0 0.0 
0.0 0.0 0.0 
0.0 0.0 0.0 
0.0 0.0 0.0 
0.0 0.0 0.0 
0.0 0.0 0.0 
0.0 0.0 0.0 
0.0 0.0 0.0 
0.0 0.0 0.0 
0.0 0.0 0.0 
0.0 0.0 0.0 
0.0 0.0 0.0 
0.0 0.0 0.0 
0.0 0.0 0.0 
0.0 0.0 0.0 
0.0 0.0 0.0 
0.0 0.0 0.0 
0.0 0.0 0.0 
0.0 0.0 0.0 
0.0 0.0 0.0 
0.0 0.0 0.0 
0.0 0.0 0.0 
0.0 0.0 0.0 
0.0 0.0 0.0 
0.0 0.0 0.0 
0.0 0.0 0.0 
0.0 0.0 0.0 
0.0 0.0 0.0 
0.0 0.0 0.0 
0.0 0.0 0.0 
0.0 0.0 0.0 
0.0 0.0 0.0 
0.0 0.0 0.0 
0.0 0.0 0.0 
0.0 0.0 0.0 
0.0 0.0 0.0 
0.0 0.0 0.0 
0.0 0.0 0.0 
0.0 0.0 0.0 
0.0 0.0 0.0 
0.0 0.0 0.0 
0.0 0.0 0.0 
0.0 0.0 0.0 
0.0 0.0 0.0 
0.0 0.0 0.0 
0.0 0.0 0.0 
0.0 0.0 0.0 
0.0 0.0 0.0 
0.0 0.0 0.0 
0.0 0.0 0.0 
0.0 0.0 0.0 
0.0 0.0 0.0 
0.0 0.0 0.0 
0.0 0.0 0.0 
0.0 0.0 0.0 
0.0 0.0 0.0 
0.0 0.0 0.0 
0.0 0.0 0.0 
0.0 0.0 0.0 
0.0 0.0 0.0 
0.0 0.0 0.0 
0.0 0.0 0.0 
0.0 0.0 0.0 
0.0 0.0 0.0 
0.0 0.0 0.0 
0.0 0.0 0.0 
0.0 0.0 0.0 
0.0 0.0 0.0 
0.0 0.0 0.0 
0.0 0.0 0.0 
0.0 0.0 0.0 
0.0 0.0 0.0 
0.0 0.0 0.0 
0.0 0.0 0.0 
0.0 0.0 0.0 
0.0 0.0 0.0 
0.0 0.0 0.0 
0.0 0.0 0.0 
0.0 0.0 0.0 
0.0 0.0 0.0 
0.0 0.0 0.0 
0.0 0.0 0.0 
0.0 0.0 0.0 
0.0 0.0 0.0 
0.0 0.0 0.0 
0.0 0.0 0.0 
0.0 0.0 0.0 
0.0 0.0 0.0 
0.0 0.0 0.0 
0.0 0.0 0.0 
0.0 0.0 0.0 
0.0 0.0 0.0 
0.0 0.0 0.0 
0.0 0.0 0.0 
0.0 0.0 0.0 
0.0 0.0 0.0 
0.0 0.0 0.0 
0.0 0.0 0.0 
0.0 0.0 0.0 
0.0 0.0 0.0 
0.0 0.0 0.0 
0.0 0.0 0.0 
0.0 0.0 0.0 
0.0 0.0 0.0 
0.0 0.0 0.0 
0.0 0.0 0.0 
0.0 0.0 0.0 
0.0 0.0 0.0 
0.0 0.0 0.0 
0.0 0.0 0.0 
0.0 0.0 0.0 
0.0 0.0 0.0 
0.0 0.0 0.0 
0.0 0.0 0.0 
0.0 0.0 0.0 
0.0 0.0 0.0 
0.0 0.0 0.0 
0.0 0.0 0.0 
0.0 0.0 0.0 
0.0 0.0 0.0 
0.0 0.0 0.0 
0.0 0.0 0.0 
0.0 0.0 0.0 
0.0 0.0 0.0 
0.0 0.0 0.0 
0.0 0.0 0.0 
0.0 0.0 0.0 
0.0 0.0 0.0 
0.0 0.0 0.0 
0.0 0.0 0.0 
0.0 0.0 0.0 
0.0 0.0 0.0 
0.0 0.0 0.0 
0.0 0.0 0.0 
0.0 0.0 0.0 
0.0 0.0 0.0 
0.0 0.0 0.0 
0.0 0.0 0.0 
0.0 0.0 0.0 
0.0 0.0 0.0 
0.0 0.0 0.0 
0.0 0.0 0.0 
0.0 0.0 0.0 
0.0 0.0 0.0 
0.0 0.0 0.0 
0.0 0.0 0.0 
0.0 0.0 0.0 
0.0 0.0 0.0 
0.0 0.0 0.0 
0.0 0.0 0.0 
0.0 0.0 0.0 
0.0 0.0 0.0 
0.0 0.0 0.0 
0.0 0.0 0.0 
0.0 0.0 0.0 
0.0 0.0 0.0 
0.0 0.0 0.0 
0.0 0.0 0.0 
0.0 0.0 0.0 
0.0 0.0 0.0 
0.0 0.0 0.0 
0.0 0.0 0.0 
0.0 0.0 0.0 
0.0 0.0 0.0 
0.0 0.0 0.0 
0.0 0.0 0.0 
0.0 0.0 0.0 
0.0 0.0 0.0 
0.0 0.0 0.0 
0.0 0.0 0.0 
0.0 0.0 0.0 
0.0 0.0 0.0 
0.0 0.0 0.0 
0.0 0.0 0.0 
0.0 0.0 0.0 
0.0 0.0 0.0 
0.0 0.0 0.0 
0.0 0.0 0.0 
0.0 0.0 0.0 
0.0 0.0 0.0 
0.0 0.0 0.0 
0.0 0.0 0.0 
0.0 0.0 0.0 
0.0 0.0 0.0 
0.0 0.0 0.0 
0.0 0.0 0.0 
0.0 0.0 0.0 
0.0 0.0 0.0 
0.0 0.0 0.0 
0.0 0.0 0.0 
0.0 0.0 0.0 
0.0 0.0 0.0 
0.0 0.0 0.0 
0.0 0.0 0.0 
0.0 0.0 0.0 
0.0 0.0 0.0 
0.0 0.0 0.0 
0.0 0.0 0.0 
0.0 0.0 0.0 
0.0 0.0 0.0 
0.0 0.0 0.0 
0.0 0.0 0.0 
0.0 0.0 0.0 
0.0 0.0 0.0 
0.0 0.0 0.0 
0.0 0.0 0.0 
0.0 0.0 0.0 
0.0 0.0 0.0 
0.0 0.0 0.0 
0.0 0.0 0.0 
0.0 0.0 0.0 
0.0 0.0 0.0 
0.0 0.0 0.0 
0.0 0.0 0.0 
0.0 0.0 0.0 
0.0 0.0 0.0 
0.0 0.0 0.0 
0.0 0.0 0.0 
0.0 0.0 0.0 
0.0 0.0 0.0 
0.0 0.0 0.0 
0.0 0.0 0.0 
0.0 0.0 0.0 
0.0 0.0 0.0 
0.0 0.0 0.0 
0.0 0.0 0.0 
0.0 0.0 0.0 
0.0 0.0 0.0 
0.0 0.0 0.0 
0.0 0.0 0.0 
0.0 0.0 0.0 
0.0 0.0 0.0 
0.0 0.0 0.0 
0.0 0.0 0.0 
0.0 0.0 0.0 
0.0 0.0 0.0 
0.0 0.0 0.0 
0.0 0.0 0.0 
0.0 0.0 0.0 
0.0 0.0 0.0 
0.0 0.0 0.0 
0.0 0.0 0.0 
0.0 0.0 0.0 
0.0 0.0 0.0 
0.0 0.0 0.0 
0.0 0.0 0.0 
0.0 0.0 0.0 
0.0 0.0 0.0 
0.0 0.0 0.0 
0.0 0.0 0.0 
0.0 0.0 0.0 
0.0 0.0 0.0 
0.0 0.0 0.0 
0.0 0.0 0.0 
0.0 0.0 0.0 
0.0 0.0 0.0 
0.0 0.0 0.0 
0.0 0.0 0.0 
0.0 0.0 0.0 
0.0 0.0 0.0 
0.0 0.0 0.0 
0.0 0.0 0.0 
0.0 0.0 0.0 
0.0 0.0 0.0 
0.0 0.0 0.0 
0.0 0.0 0.0 
0.0 0.0 0.0 
0.0 0.0 0.0 
0.0 0.0 0.0 
0.0 0.0 0.0 
0.0 0.0 0.0 
0.0 0.0 0.0 
0.0 0.0 0.0 
0.0 0.0 0.0 
0.0 0.0 0.0 
0.0 0.0 0.0 
0.0 0.0 0.0 
0.0 0.0 0.0 
0.0 0.0 0.0 
0.0 0.0 0.0 
0.0 0.0 0.0 
0.0 0.0 0.0 
0.0 0.0 0.0 
0.0 0.0 0.0 
0.0 0.0 0.0 
0.0 0.0 0.0 
0.0 0.0 0.0 
0.0 0.0 0.0 
0.0 0.0 0.0 
0.0 0.0 0.0 
0.0 0.0 0.0 
0.0 0.0 0.0 
0.0 0.0 0.0 
0.0 0.0 0.0 
0.0 0.0 0.0 
0.0 0.0 0.0 
0.0 0.0 0.0 
0.0 0.0 0.0 
0.0 0.0 0.0 
0.0 0.0 0.0 
0.0 0.0 0.0 
0.0 0.0 0.0 
0.0 0.0 0.0 
0.0 0.0 0.0 
0.0 0.0 0.0 
0.0 0.0 0.0 
0.0 0.0 0.0 
0.0 0.0 0.0 
0.0 0.0 0.0 
0.0 0.0 0.0 
0.0 0.0 0.0 
0.0 0.0 0.0 
0.0 0.0 0.0 
0.0 0.0 0.0 
0.0 0.0 0.0 
0.0 0.0 0.0 
0.0 0.0 0.0 
0.0 0.0 0.0 
0.0 0.0 0.0 
0.0 0.0 0.0 
0.0 0.0 0.0 
0.0 0.0 0.0 
0.0 0.0 0.0 
0.0 0.0 0.0 
0.0 0.0 0.0 
0.0 0.0 0.0 
0.0 0.0 0.0 
0.0 0.0 0.0 
0.0 0.0 0.0 
0.0 0.0 0.0 
0.0 0.0 0.0 
0.0 0.0 0.0 
0.0 0.0 0.0 
0.0 0.0 0.0 
0.0 0.0 0.0 
0.0 0.0 0.0 
0.0 0.0 0.0 
0.0 0.0 0.0 
0.0 0.0 0.0 
0.0 0.0 0.0 
0.0 0.0 0.0 
0.0 0.0 0.0 
0.0 0.0 0.0 
0.0 0.0 0.0 
0.0 0.0 0.0 
0.0 0.0 0.0 
0.0 0.0 0.0 
0.0 0.0 0.0 
0.0 0.0 0.0 
0.0 0.0 0.0 
0.0 0.0 0.0 
0.0 0.0 0.0 
0.0 0.0 0.0 
0.0 0.0 0.0 
0.0 0.0 0.0 
0.0 0.0 0.0 
0.0 0.0 0.0 
0.0 0.0 0.0 
0.0 0.0 0.0 
0.0 0.0 0.0 
0.0 0.0 0.0 
0.0 0.0 0.0 
0.0 0.0 0.0 
0.0 0.0 0.0 
0.0 0.0 0.0 
0.0 0.0 0.0 
0.0 0.0 0.0 
0.0 0.0 0.0 
0.0 0.0 0.0 
0.0 0.0 0.0 
0.0 0.0 0.0 
0.0 0.0 0.0 
0.0 0.0 0.0 
0.0 0.0 0.0 
0.0 0.0 0.0 
0.0 0.0 0.0 
0.0 0.0 0.0 
0.0 0.0 0.0 
0.0 0.0 0.0 
0.0 0.0 0.0 
0.0 0.0 0.0 
0.0 0.0 0.0 
0.0 0.0 0.0 
0.0 0.0 0.0 
0.0 0.0 0.0 
0.0 0.0 0.0 
0.0 0.0 0.0 
0.0 0.0 0.0 
0.0 0.0 0.0 
0.0 0.0 0.0 
0.0 0.0 0.0 
0.0 0.0 0.0 
0.0 0.0 0.0 
0.0 0.0 0.0 
0.0 0.0 0.0 
0.0 0.0 0.0 
0.0 0.0 0.0 
0.0 0.0 0.0 
0.0 0.0 0.0 
0.0 0.0 0.0 
0.0 0.0 0.0 
0.0 0.0 0.0 
0.0 0.0 0.0 
0.0 0.0 0.0 
0.0 0.0 0.0 
0.0 0.0 0.0 
0.0 0.0 0.0 
0.0 0.0 0.0 
0.0 0.0 0.0 
0.0 0.0 0.0 
0.0 0.0 0.0 
0.0 0.0 0.0 
0.0 0.0 0.0 
0.0 0.0 0.0 
0.0 0.0 0.0 
0.0 0.0 0.0 
0.0 0.0 0.0 
0.0 0.0 0.0 
0.0 0.0 0.0 
0.0 0.0 0.0 
0.0 0.0 0.0 
0.0 0.0 0.0 
0.0 0.0 0.0 
0.0 0.0 0.0 
0.0 0.0 0.0 
0.0 0.0 0.0 
0.0 0.0 0.0 
0.0 0.0 0.0 
0.0 0.0 0.0 
0.0 0.0 0.0 
0.0 0.0 0.0 
0.0 0.0 0.0 
0.0 0.0 0.0 
0.0 0.0 0.0 
0.0 0.0 0.0 
0.0 0.0 0.0 
0.0 0.0 0.0 
0.0 0.0 0.0 
0.0 0.0 0.0 
0.0 0.0 0.0 
0.0 0.0 0.0 
0.0 0.0 0.0 
0.0 0.0 0.0 
0.0 0.0 0.0 
0.0 0.0 0.0 
0.0 0.0 0.0 
0.0 0.0 0.0 
0.0 0.0 0.0 
0.0 0.0 0.0 
0.0 0.0 0.0 
0.0 0.0 0.0 
0.0 0.0 0.0 
0.0 0.0 0.0 
0.0 0.0 0.0 
0.0 0.0 0.0 
0.0 0.0 0.0 
0.0 0.0 0.0 
0.0 0.0 0.0 
0.0 0.0 0.0 
0.0 0.0 0.0 
0.0 0.0 0.0 
0.0 0.0 0.0 
0.0 0.0 0.0 
0.0 0.0 0.0 
0.0 0.0 0.0 
0.0 0.0 0.0 
0.0 0.0 0.0 
0.0 0.0 0.0 
0.0 0.0 0.0 
0.0 0.0 0.0 
0.0 0.0 0.0 
0.0 0.0 0.0 
0.0 0.0 0.0 
0.0 0.0 0.0 
0.0 0.0 0.0 
0.0 0.0 0.0 
0.0 0.0 0.0 
0.0 0.0 0.0 
0.0 0.0 0.0 
0.0 0.0 0.0 
0.0 0.0 0.0 
0.0 0.0 0.0 
0.0 0.0 0.0 
0.0 0.0 0.0 
0.0 0.0 0.0 
0.0 0.0 0.0 
0.0 0.0 0.0 
0.0 0.0 0.0 
0.0 0.0 0.0 
0.0 0.0 0.0 
0.0 0.0 0.0 
0.0 0.0 0.0 
0.0 0.0 0.0 
0.0 0.0 0.0 
0.0 0.0 0.0 
0.0 0.0 0.0 
0.0 0.0 0.0 
0.0 0.0 0.0 
0.0 0.0 0.0 
0.0 0.0 0.0 
0.0 0.0 0.0 
0.0 0.0 0.0 
0.0 0.0 0.0 
0.0 0.0 0.0 
0.0 0.0 0.0 
0.0 0.0 0.0 
0.0 0.0 0.0 
0.0 0.0 0.0 
0.0 0.0 0.0 
0.0 0.0 0.0 
0.0 0.0 0.0 
0.0 0.0 0.0 
0.0 0.0 0.0 
0.0 0.0 0.0 
0.0 0.0 0.0 
0.0 0.0 0.0 
0.0 0.0 0.0 
0.0 0.0 0.0 
0.0 0.0 0.0 
0.0 0.0 0.0 
0.0 0.0 0.0 
0.0 0.0 0.0 
0.0 0.0 0.0 
0.0 0.0 0.0 
0.0 0.0 0.0 
0.0 0.0 0.0 
0.0 0.0 0.0 
0.0 0.0 0.0 
0.0 0.0 0.0 
0.0 0.0 0.0 
0.0 0.0 0.0 
0.0 0.0 0.0 
0.0 0.0 0.0 
0.0 0.0 0.0 
0.0 0.0 0.0 
0.0 0.0 0.0 
0.0 0.0 0.0 
0.0 0.0 0.0 
0.0 0.0 0.0 
0.0 0.0 0.0 
0.0 0.0 0.0 
0.0 0.0 0.0 
0.0 0.0 0.0 
0.0 0.0 0.0 
0.0 0.0 0.0 
0.0 0.0 0.0 
0.0 0.0 0.0 
0.0 0.0 0.0 
0.0 0.0 0.0 
0.0 0.0 0.0 
0.0 0.0 0.0 
0.0 0.0 0.0 
0.0 0.0 0.0 
0.0 0.0 0.0 
0.0 0.0 0.0 
0.0 0.0 0.0 
0.0 0.0 0.0 
0.0 0.0 0.0 
0.0 0.0 0.0 
0.0 0.0 0.0 
0.0 0.0 0.0 
0.0 0.0 0.0 
0.0 0.0 0.0 
0.0 0.0 0.0 
0.0 0.0 0.0 
0.0 0.0 0.0 
0.0 0.0 0.0 
0.0 0.0 0.0 
0.0 0.0 0.0 
0.0 0.0 0.0 
0.0 0.0 0.0 
0.0 0.0 0.0 
0.0 0.0 0.0 
0.0 0.0 0.0 
0.0 0.0 0.0 
0.0 0.0 0.0 
0.0 0.0 0.0 
0.0 0.0 0.0 
0.0 0.0 0.0 
0.0 0.0 0.0 
0.0 0.0 0.0 
0.0 0.0 0.0 
0.0 0.0 0.0 
0.0 0.0 0.0 
0.0 0.0 0.0 
0.0 0.0 0.0 
0.0 0.0 0.0 
0.0 0.0 0.0 
0.0 0.0 0.0 
0.0 0.0 0.0 
0.0 0.0 0.0 
0.0 0.0 0.0 
0.0 0.0 0.0 
0.0 0.0 0.0 
0.0 0.0 0.0 
0.0 0.0 0.0 
0.0 0.0 0.0 
0.0 0.0 0.0 
0.0 0.0 0.0 
0.0 0.0 0.0 
0.0 0.0 0.0 
0.0 0.0 0.0 
0.0 0.0 0.0 
0.0 0.0 0.0 
0.0 0.0 0.0 
0.0 0.0 0.0 
0.0 0.0 0.0 
0.0 0.0 0.0 
0.0 0.0 0.0 
0.0 0.0 0.0 
0.0 0.0 0.0 
0.0 0.0 0.0 
0.0 0.0 0.0 
0.0 0.0 0.0 
0.0 0.0 0.0 
0.0 0.0 0.0 
0.0 0.0 0.0 
0.0 0.0 0.0 
0.0 0.0 0.0 
0.0 0.0 0.0 
0.0 0.0 0.0 
0.0 0.0 0.0 
0.0 0.0 0.0 
0.0 0.0 0.0 
0.0 0.0 0.0 
0.0 0.0 0.0 
0.0 0.0 0.0 
0.0 0.0 0.0 
0.0 0.0 0.0 
0.0 0.0 0.0 
0.0 0.0 0.0 
0.0 0.0 0.0 
0.0 0.0 0.0 
0.0 0.0 0.0 
0.0 0.0 0.0 
0.0 0.0 0.0 
0.0 0.0 0.0 
0.0 0.0 0.0 
0.0 0.0 0.0 
0.0 0.0 0.0 
0.0 0.0 0.0 
0.0 0.0 0.0 
0.0 0.0 0.0 
0.0 0.0 0.0 
0.0 0.0 0.0 
0.0 0.0 0.0 
0.0 0.0 0.0 
0.0 0.0 0.0 
0.0 0.0 0.0 
0.0 0.0 0.0 
0.0 0.0 0.0 
0.0 0.0 0.0 
0.0 0.0 0.0 
0.0 0.0 0.0 
0.0 0.0 0.0 
0.0 0.0 0.0 
0.0 0.0 0.0 
0.0 0.0 0.0 
0.0 0.0 0.0 
0.0 0.0 0.0 
0.0 0.0 0.0 
0.0 0.0 0.0 
0.0 0.0 0.0 
0.0 0.0 0.0 
0.0 0.0 0.0 
0.0 0.0 0.0 
0.0 0.0 0.0 
0.0 0.0 0.0 
0.0 0.0 0.0 
0.0 0.0 0.0 
0.0 0.0 0.0 
0.0 0.0 0.0 
0.0 0.0 0.0 
0.0 0.0 0.0 
0.0 0.0 0.0 
0.0 0.0 0.0 
0.0 0.0 0.0 
0.0 0.0 0.0 
0.0 0.0 0.0 
0.0 0.0 0.0 
0.0 0.0 0.0 
0.0 0.0 0.0 
0.0 0.0 0.0 
0.0 0.0 0.0 
0.0 0.0 0.0 
0.0 0.0 0.0 
0.0 0.0 0.0 
0.0 0.0 0.0 
0.0 0.0 0.0 
0.0 0.0 0.0 
0.0 0.0 0.0 
0.0 0.0 0.0 
0.0 0.0 0.0 
0.0 0.0 0.0 
0.0 0.0 0.0 
0.0 0.0 0.0 
0.0 0.0 0.0 
0.0 0.0 0.0 
0.0 0.0 0.0 
0.0 0.0 0.0 
0.0 0.0 0.0 
0.0 0.0 0.0 
0.0 0.0 0.0 
0.0 0.0 0.0 
0.0 0.0 0.0 
0.0 0.0 0.0 
0.0 0.0 0.0 
0.0 0.0 0.0 
0.0 0.0 0.0 
0.0 0.0 0.0 
0.0 0.0 0.0 
0.0 0.0 0.0 
0.0 0.0 0.0 
0.0 0.0 0.0 
0.0 0.0 0.0 
0.0 0.0 0.0 
0.0 0.0 0.0 
0.0 0.0 0.0 
0.0 0.0 0.0 
0.0 0.0 0.0 
0.0 0.0 0.0 
0.0 0.0 0.0 
0.0 0.0 0.0 
0.0 0.0 0.0 
0.0 0.0 0.0 
0.0 0.0 0.0 
0.0 0.0 0.0 
0.0 0.0 0.0 
0.0 0.0 0.0 
0.0 0.0 0.0 
0.0 0.0 0.0 
0.0 0.0 0.0 

VECTORS node_materi_velocity float
0.0 -4.528238193922e-04 0.0 
0.0 9.928732494867e-03 0.0 
0.0 0.0 0.0 
0.0 0.0 0.0 
0.0 -4.468566472395e-04 0.0 
0.0 -4.395257355855e-04 0.0 
0.0 -4.299332770506e-04 0.0 
0.0 -4.174236644365e-04 0.0 
0.0 -4.009629352980e-04 0.0 
0.0 -3.806464614119e-04 0.0 
0.0 -3.564940839896e-04 0.0 
0.0 -3.285759259314e-04 0.0 
0.0 -2.973723693254e-04 0.0 
0.0 -2.634512664335e-04 0.0 
0.0 -2.276327874379e-04 0.0 
0.0 -1.910754745021e-04 0.0 
0.0 -1.547642147537e-04 0.0 
0.0 -1.193608052486e-04 0.0 
0.0 -8.655644573882e-05 0.0 
0.0 -5.747086906730e-05 0.0 
0.0 -3.313835954866e-05 0.0 
0.0 -1.496921510038e-05 0.0 
0.0 -4.196883784954e-06 0.0 
0.0 0.0 0.0 
0.0 0.0 0.0 
0.0 0.0 0.0 
0.0 0.0 0.0 
0.0 0.0 0.0 
0.0 0.0 0.0 
0.0 0.0 0.0 
0.0 0.0 0.0 
0.0 0.0 0.0 
0.0 0.0 0.0 
0.0 0.0 0.0 
0.0 0.0 0.0 
0.0 0.0 0.0 
0.0 0.0 0.0 
0.0 0.0 0.0 
0.0 0.0 0.0 
0.0 0.0 0.0 
0.0 0.0 0.0 
0.0 0.0 0.0 
0.0 0.0 0.0 
0.0 0.0 0.0 
0.0 0.0 0.0 
0.0 0.0 0.0 
0.0 0.0 0.0 
0.0 0.0 0.0 
0.0 0.0 0.0 
0.0 0.0 0.0 
0.0 0.0 0.0 
0.0 0.0 0.0 
0.0 0.0 0.0 
0.0 0.0 0.0 
0.0 0.0 0.0 
0.0 0.0 0.0 
0.0 0.0 0.0 
0.0 0.0 0.0 
0.0 0.0 0.0 
0.0 0.0 0.0 
0.0 0.0 0.0 
0.0 0.0 0.0 
0.0 0.0 0.0 
0.0 0.0 0.0 
0.0 0.0 0.0 
0.0 0.0 0.0 
0.0 0.0 0.0 
0.0 0.0 0.0 
0.0 0.0 0.0 
0.0 0.0 0.0 
0.0 0.0 0.0 
0.0 0.0 0.0 
0.0 8.912347449852e-03 0.0 
0.0 7.896904796216e-03 0.0 
0.0 6.883813716561e-03 0.0 
0.0 5.874158400803e-03 0.0 
0.0 4.870203412368e-03 0.0 
0.0 3.873504600197e-03 0.0 
0.0 2.886217363198e-03 0.0 
0.0 1.910433672278e-03 0.0 
0.0 9.482797317739e-04 0.0 
-6.417273158081e-04 6.431878837153e-04 0.0 
1.842235632864e-03 9.236628821754e-03 0.0 
-5.790494743461e-04 9.679072819677e-04 0.0 
-5.688485396189e-04 1.427704711969e-03 0.0 
-5.553103876559e-04 2.102766014222e-03 0.0 
-4.631898285171e-04 3.135251435409e-03 0.0 
-1.314739136178e-05 4.822948121134e-03 0.0 
4.033454914375e-04 8.022650559738e-03 0.0 
1.237414185475e-03 9.539940786021e-03 0.0 
1.698037527440e-03 9.897590245988e-03 0.0 
1.860816732959e-03 9.726050276410e-03 0.0 
0.0 1.401893580077e-02 0.0 
0.0 1.298133745979e-02 0.0 
0.0 1.196283552849e-02 0.0 
0.0 1.094545931080e-02 0.0 
1.106675580916e-04 9.929881500105e-03 0.0 
2.220389751083e-04 9.933108891037e-03 0.0 
3.334606769583e-04 9.937247165957e-03 0.0 
4.449303123149e-04 9.942086841414e-03 0.0 
5.567782631498e-04 9.946692706551e-03 0.0 
6.691311774593e-04 9.949765536759e-03 0.0 
7.831235868794e-04 9.949707469479e-03 0.0 
8.982600681663e-04 9.942743109190e-03 0.0 
1.016269342943e-03 9.926304679827e-03 0.0 
1.137579918882e-03 9.895274812550e-03 0.0 
1.262825203062e-03 9.842850362838e-03 0.0 
1.393897262191e-03 9.761719176886e-03 0.0 
1.532485188559e-03 9.642456770223e-03 0.0 
1.680615598103e-03 9.472130999019e-03 0.0 
-5.866241427865e-04 4.421253734301e-04 0.0 
-5.095256135155e-04 2.550826627398e-04 0.0 
-4.250775737153e-04 9.513629155149e-05 0.0 
-3.394178131729e-04 -3.743897542939e-05 0.0 
-2.614267777267e-04 -1.453610813725e-04 0.0 
-1.915198239978e-04 -2.310388444483e-04 0.0 
-1.304827324986e-04 -2.974104713978e-04 0.0 
-7.901954650182e-05 -3.481327044624e-04 0.0 
-3.684916931276e-05 -3.856345356989e-04 0.0 
-3.755700951634e-06 -4.122864484350e-04 0.0 
2.074564601159e-05 -4.311702424496e-04 0.0 
3.793945926068e-05 -4.427880245218e-04 0.0 
4.775347199070e-05 -4.500078181927e-04 0.0 
5.209262878857e-05 -4.537663798778e-04 0.0 
5.124787425245e-05 -4.555127517954e-04 0.0 
4.607146998327e-05 -4.555542829750e-04 0.0 
3.739144199892e-05 -4.548089756591e-04 0.0 
2.620809053411e-05 -4.540558311931e-04 0.0 
1.354544531403e-05 -4.532666312293e-04 0.0 
1.623895724824e-04 1.401492147831e-02 0.0 
2.579404052345e-04 1.400312722787e-02 0.0 
3.641829619953e-04 1.400052565726e-02 0.0 
4.760123416740e-04 1.400222836411e-02 0.0 
5.864036960603e-04 1.400390229702e-02 0.0 
6.910698927643e-04 1.400291243208e-02 0.0 
7.869096402815e-04 1.399670532718e-02 0.0 
8.715856473613e-04 1.398227902627e-02 0.0 
9.427118966925e-04 1.395646559239e-02 0.0 
9.971821365791e-04 1.391485105726e-02 0.0 
1.031500981664e-03 1.385180607604e-02 0.0 
1.042180648655e-03 1.375990846066e-02 0.0 
1.025786591072e-03 1.362995517780e-02 0.0 
9.786497525535e-04 1.345209982387e-02 0.0 
8.946640152429e-04 1.321008682147e-02 0.0 
7.723325074638e-04 1.288571986269e-02 0.0 
6.092683903526e-04 1.244510762489e-02 0.0 
4.230058603508e-04 1.185839188790e-02 0.0 
2.334556861827e-04 1.106098103748e-02 0.0 
2.304376885807e-05 9.959835924859e-03 0.0 
1.141254857022e-03 1.051563361541e-02 0.0 
1.122665800161e-03 1.120251345002e-02 0.0 
1.123010086206e-03 1.170705948169e-02 0.0 
1.132880500164e-03 1.208092269491e-02 0.0 
1.139583585808e-03 1.235584890921e-02 0.0 
1.136127242785e-03 1.255820401855e-02 0.0 
1.119373072340e-03 1.270553727181e-02 0.0 
1.088368212273e-03 1.281098500963e-02 0.0 
1.043546025208e-03 1.288396997250e-02 0.0 
9.858541208872e-04 1.293250913490e-02 0.0 
9.165331990662e-04 1.296303143261e-02 0.0 
8.370494129440e-04 1.298048591338e-02 0.0 
7.489596757342e-04 1.298868452140e-02 0.0 
6.538665012543e-04 1.299068728763e-02 0.0 
5.534280082272e-04 1.298937723840e-02 0.0 
4.494203639646e-04 1.298739096017e-02 0.0 
3.434313192698e-04 1.298722672259e-02 0.0 
2.352169474027e-04 1.298953043121e-02 0.0 
1.192116103973e-04 1.298650741518e-02 0.0 
1.150813371940e-04 1.196501762677e-02 0.0 
2.303041213814e-04 1.196987432561e-02 0.0 
3.420636481541e-04 1.197120761028e-02 0.0 
4.512358274894e-04 1.197350985071e-02 0.0 
5.581568455284e-04 1.197687119856e-02 0.0 
6.624422295017e-04 1.197940839080e-02 0.0 
7.632770677091e-04 1.197857629076e-02 0.0 
8.599234699900e-04 1.197127253104e-02 0.0 
9.515655965040e-04 1.195406030281e-02 0.0 
1.037674990539e-03 1.192227746055e-02 0.0 
1.118159572377e-03 1.186999673947e-02 0.0 
1.193344883433e-03 1.178974506374e-02 0.0 
1.264252623352e-03 1.167208914390e-02 0.0 
1.333274840236e-03 1.150510510415e-02 0.0 
1.404040847388e-03 1.127133691416e-02 0.0 
1.483496657630e-03 1.094989600631e-02 0.0 
1.574105522732e-03 1.050867722431e-02 0.0 
1.716680224279e-03 1.010061623448e-02 0.0 
1.592225751470e-03 1.037301446291e-02 0.0 
1.474605760105e-03 1.057092944977e-02 0.0 
1.365358365551e-03 1.071357618803e-02 0.0 
1.260762284185e-03 1.081327812968e-02 0.0 
1.158528901094e-03 1.088057137005e-02 0.0 
1.057107180657e-03 1.092363220729e-02 0.0 
9.554026561312e-04 1.094881040224e-02 0.0 
8.529815360472e-04 1.096158536819e-02 0.0 
7.497622142440e-04 1.096626347732e-02 0.0 
6.455158687159e-04 1.096537907553e-02 0.0 
5.404277823625e-04 1.096202533784e-02 0.0 
4.343603695645e-04 1.095782890107e-02 0.0 
3.269772561455e-04 1.095396508504e-02 0.0 
2.180870276507e-04 1.095056221669e-02 0.0 
1.089875660414e-04 1.094723086158e-02 0.0 
-5.977080487761e-04 7.933457229082e-04 0.0 
-5.713800679529e-04 1.176636238876e-03 0.0 
-5.648777519288e-04 1.732155086456e-03 0.0 
-5.274265753162e-04 2.559749705048e-03 0.0 
-3.362457267948e-04 3.851469155753e-03 0.0 
1.709620660835e-04 6.463098358861e-03 0.0 
8.846554959418e-04 8.961652292357e-03 0.0 
1.522739937752e-03 9.801126820413e-03 0.0 
1.812574103982e-03 9.858650249520e-03 0.0 
1.871170749164e-03 9.511385245082e-03 0.0 
-4.276558540047e-04 1.168783214124e-03 0.0 
2.777592420592e-04 5.914848423930e-05 0.0 
1.132093121527e-05 -4.105083761467e-04 0.0 
-2.075789536468e-04 -1.161852127688e-04 0.0 
1.517001191828e-04 1.791909451057e-05 0.0 
-1.630516559755e-04 2.579723167529e-03 0.0 
4.388060864678e-05 -2.453212572009e-04 0.0 
4.166476065241e-04 1.313135535058e-04 0.0 
1.079132046371e-03 6.000251349867e-03 0.0 
5.383402068913e-04 2.486291795002e-04 0.0 
2.048724926835e-03 8.834724769680e-03 0.0 
7.721507136537e-05 4.516707455200e-06 0.0 
5.892901085955e-05 -4.531353409770e-04 0.0 
6.066135105377e-04 4.304941714975e-04 0.0 
2.056706457926e-03 8.571201008780e-03 0.0 
3.042435033266e-05 -3.687363283135e-04 0.0 
4.575775446611e-05 -1.438496696420e-04 0.0 
5.881540203637e-04 5.916575410953e-04 0.0 
4.193710119281e-04 7.010184468669e-04 0.0 
1.135146818831e-04 8.046726632239e-04 0.0 
2.154709641627e-04 8.585017739395e-04 0.0 
2.939726049109e-04 7.406037287936e-04 0.0 
1.693857337452e-03 8.661364523290e-03 0.0 
1.106581807365e-03 8.990005186576e-03 0.0 
7.313738184722e-04 9.004735704492e-03 0.0 
7.253199003838e-05 5.356037623067e-03 0.0 
4.504211507115e-05 -2.788263781065e-07 0.0 
-4.124355905596e-04 3.297248985583e-04 0.0 
4.421491983570e-05 -4.516330582266e-04 0.0 
3.149962763121e-05 -4.632358097138e-05 0.0 
3.794220348460e-04 9.062562173380e-03 0.0 
2.040386748117e-05 -4.249982856323e-04 0.0 
5.711631849291e-04 7.450304274486e-04 0.0 
4.458981208245e-04 1.689902608287e-04 0.0 
5.793179525053e-04 3.296062947431e-04 0.0 
3.682030450827e-04 9.685757411964e-05 0.0 
2.096234223209e-04 3.570454665188e-05 0.0 
-9.382644371986e-05 -2.864076988630e-04 0.0 
1.381280045277e-03 8.943444766832e-03 0.0 
1.302028870400e-04 1.057157231274e-05 0.0 
5.583823552230e-05 3.420657661355e-03 0.0 
4.690551043925e-05 -4.430256568990e-04 0.0 
3.903289485818e-05 -3.137812395899e-04 0.0 
5.669064696435e-05 6.551440301591e-04 0.0 
3.200053084558e-04 3.785357394952e-03 0.0 
-3.523185556041e-04 1.736120770978e-03 0.0 
1.740972078664e-03 8.009026427451e-03 0.0 
2.127362249591e-03 8.910274736076e-03 0.0 
-4.836366535484e-04 7.791340913310e-04 0.0 
8.692802786340e-05 7.269134196306e-03 0.0 
2.004592354658e-05 -1.387869133362e-06 0.0 
2.099817027329e-05 -4.489704174916e-04 0.0 
3.090805092069e-05 1.498161009701e-03 0.0 
2.008635388125e-03 8.246761255657e-03 0.0 
2.187573558398e-03 7.621152274717e-03 0.0 
2.035194621858e-03 7.438328980906e-03 0.0 
2.231517857349e-03 6.712394244592e-03 0.0 
2.078554584666e-03 6.411007584866e-03 0.0 
2.218443100430e-03 5.789466203455e-03 0.0 
2.391108925084e-03 6.025724463688e-03 0.0 
2.333438644163e-03 5.154931374311e-03 0.0 
2.516725337411e-03 5.338162020085e-03 0.0 
2.029780481978e-03 5.477761428395e-03 0.0 
2.411877499863e-03 4.521277868995e-03 0.0 
2.599609252772e-03 4.654391108143e-03 0.0 
2.447927481143e-03 3.902884277617e-03 0.0 
2.633421484028e-03 3.992459512684e-03 0.0 
2.757464879972e-03 4.699701254078e-03 0.0 
2.783564167075e-03 3.997367609302e-03 0.0 
2.876161578987e-03 4.645080520363e-03 0.0 
2.888115864666e-03 3.906231830008e-03 0.0 
2.756117537831e-03 3.347104569820e-03 0.0 
2.844925530630e-03 3.238471998223e-03 0.0 
2.937653518661e-03 3.719454441799e-03 0.0 
2.875661468416e-03 3.048929922848e-03 0.0 
2.922292577527e-03 3.442882205667e-03 0.0 
2.842836916548e-03 2.788985248106e-03 0.0 
2.836065987609e-03 3.091284614987e-03 0.0 
2.746078569293e-03 2.479111091335e-03 0.0 
2.728010196830e-03 2.239501108173e-03 0.0 
2.628734408054e-03 1.973181080492e-03 0.0 
2.591093954384e-03 2.142777767951e-03 0.0 
2.479827044400e-03 1.689523125478e-03 0.0 
2.388725486080e-03 1.801787523455e-03 0.0 
2.292191419201e-03 1.405816831962e-03 0.0 
2.352868485889e-03 1.321438932451e-03 0.0 
2.182102348301e-03 1.086864394687e-03 0.0 
2.078471835556e-03 1.136104475579e-03 0.0 
1.990353110914e-03 8.650262927527e-04 0.0 
1.852406992231e-03 8.901452794352e-04 0.0 
1.788698195706e-03 6.626033350686e-04 0.0 
1.626222182536e-03 6.728250878499e-04 0.0 
1.585496176385e-03 4.819816010993e-04 0.0 
1.712274552528e-03 4.808944936310e-04 0.0 
1.530220227626e-03 3.298822831661e-04 0.0 
1.388392987038e-03 3.245311855490e-04 0.0 
1.352560176787e-03 1.975880526751e-04 0.0 
1.461555004680e-03 2.110290857440e-04 0.0 
1.301840920955e-03 9.936016466216e-05 0.0 
1.381629742335e-03 1.199270945032e-04 0.0 
1.238865350007e-03 2.518440121961e-05 0.0 
1.150021478235e-03 2.561336222816e-06 0.0 
1.101561736970e-03 -5.766053286300e-05 0.0 
1.166361628129e-03 -2.887520775161e-05 0.0 
1.042298784043e-03 -1.004445849978e-04 0.0 
9.702787478804e-04 -1.301401480207e-04 0.0 
9.238844965611e-04 -1.627223070929e-04 0.0 
9.759062874248e-04 -1.284290469578e-04 0.0 
8.686572629466e-04 -1.827784493526e-04 0.0 
8.116657331540e-04 -2.167229019466e-04 0.0 
7.666248428955e-04 -2.298539348566e-04 0.0 
8.081192523009e-04 -1.921502207406e-04 0.0 
7.149326178474e-04 -2.341221131145e-04 0.0 
6.699421522575e-04 -2.705371223283e-04 0.0 
6.267894941263e-04 -2.700598646794e-04 0.0 
6.590300505213e-04 -2.311014754920e-04 0.0 
5.783562543094e-04 -2.637127303442e-04 0.0 
5.995343101112e-04 -2.230314465170e-04 0.0 
5.424574904792e-04 -3.013284701079e-04 0.0 
5.014562050603e-04 -2.919037037646e-04 0.0 
4.634943038680e-04 -3.279703753829e-04 0.0 
4.290158537729e-04 -3.160582267394e-04 0.0 
2.213543582747e-03 1.024016301865e-03 0.0 
3.915915284533e-04 -3.498126381165e-04 0.0 
4.167259852761e-04 -3.590910583462e-04 0.0 
3.618267299882e-04 -3.364852101440e-04 0.0 
3.899387193124e-04 -3.011742277515e-04 0.0 
3.259289112905e-04 -3.677855279718e-04 0.0 
3.000381173237e-04 -3.536233748976e-04 0.0 
2.667328839077e-04 -3.823755903455e-04 0.0 
1.639498208125e-03 9.093306933477e-04 0.0 
2.679111376817e-03 2.762227277719e-03 0.0 
2.439031804784e-04 -3.679584524736e-04 0.0 
2.140903432845e-04 -3.940825031139e-04 0.0 
2.292254171659e-04 -4.063780046987e-04 0.0 
1.816397578357e-04 -4.154646743949e-04 0.0 
1.902119921869e-03 6.069104303530e-03 0.0 
1.827899456072e-03 5.117211334600e-03 0.0 
1.718014836164e-03 5.681003513525e-03 0.0 
1.616356364158e-03 4.720289596756e-03 0.0 
1.524875706648e-03 5.250966671111e-03 0.0 
1.678820849656e-04 -4.034867570693e-04 0.0 
2.233332274796e-03 3.709963292355e-03 0.0 
1.687087164545e-03 4.178636425971e-03 0.0 
2.954360466788e-03 4.207590480065e-03 0.0 
2.468935617531e-03 2.291443953749e-03 0.0 
1.525497183062e-03 2.262328953234e-04 0.0 
2.694368516268e-04 -3.375346591884e-04 0.0 
2.163053005401e-04 -3.521258152003e-04 0.0 
2.349068873438e-04 -3.203655959391e-04 0.0 
6.742066545397e-04 -1.894711401556e-04 0.0 
6.042361100358e-04 -1.808323046410e-04 0.0 
6.700005183890e-04 -1.470432246126e-04 0.0 
5.911555022422e-04 -1.387321773815e-04 0.0 
6.451176067906e-04 -1.057330130909e-04 0.0 
5.595531382275e-04 -9.851870192977e-05 0.0 
5.142137379627e-04 -1.281373088758e-04 0.0 
4.779991073847e-04 -8.945425262382e-05 0.0 
4.401550968807e-04 -1.161600698707e-04 0.0 
5.990533833316e-04 -6.753833675154e-05 0.0 
6.940112101721e-04 -7.071051240459e-05 0.0 
4.012435429992e-04 -7.937959332871e-05 0.0 
3.697876110038e-04 -1.035508268674e-04 0.0 
3.299348288194e-04 -6.900242504573e-05 0.0 
3.038303832738e-04 -9.086190097953e-05 0.0 
3.329789235672e-04 -1.271684071944e-04 0.0 
2.718208727645e-04 -1.126221096232e-04 0.0 
2.922742149288e-04 -1.499955500437e-04 0.0 
1.418823029928e-03 1.414171213724e-04 0.0 
1.540800970190e-03 2.398250967106e-04 0.0 
1.410440524785e-03 1.609116898034e-04 0.0 
1.504464974545e-03 2.483570524025e-04 0.0 
1.354526795093e-03 1.754685529878e-04 0.0 
1.415525686821e-03 2.490781545486e-04 0.0 
1.250140729280e-03 1.824997159905e-04 0.0 
1.205740229590e-03 1.216011418150e-04 0.0 
2.438702229093e-03 3.302102063301e-03 0.0 
1.203513201961e-03 1.890854573352e-04 0.0 
1.204434431640e-03 3.247159746383e-04 0.0 
1.021132046728e-03 1.887296453816e-04 0.0 
9.869457984912e-04 3.334230253583e-04 0.0 
8.140872876104e-04 1.985767476320e-04 0.0 
7.462095808228e-04 3.538984478964e-04 0.0 
5.912662409256e-04 2.206423361674e-04 0.0 
6.643232316799e-04 8.390890223613e-05 0.0 
4.600614530396e-04 1.062716425818e-04 0.0 
5.344815366404e-04 -1.450786496997e-05 0.0 
3.491648204453e-04 6.657389435656e-06 0.0 
4.216994358893e-04 -9.923535533364e-05 0.0 
2.586910971085e-03 1.783329353893e-03 0.0 
1.583061742294e-03 3.381253875860e-04 0.0 
1.455517450019e-03 3.203699824254e-04 0.0 
1.639453351734e-03 4.260052225273e-04 0.0 
1.894584155674e-04 -4.252750270237e-04 0.0 
2.427765180116e-04 -7.841988161485e-05 0.0 
6.304357608289e-04 -3.586497464396e-05 0.0 
7.356533900891e-04 -3.463694930842e-05 0.0 
1.089237240148e-03 1.328347861493e-04 0.0 
1.408979217739e-04 -4.223112292991e-04 0.0 
4.945694576890e-04 3.880809041771e-04 0.0 
6.505018024725e-04 5.433062872706e-04 0.0 
1.401583824682e-03 4.282897134758e-03 0.0 
1.329160595312e-03 4.789788284098e-03 0.0 
6.510411830715e-04 -4.439778481668e-06 0.0 
1.278467474432e-04 -4.111574530005e-04 0.0 
4.255543279279e-04 -5.512420636885e-05 0.0 
2.552449203482e-04 1.401046052985e-04 0.0 
2.145746531196e-04 -9.847876448812e-05 0.0 
1.870234316862e-04 -6.643279043035e-05 0.0 
4.649870789276e-04 -1.559291007513e-04 0.0 
1.468448971189e-03 3.854062451894e-04 0.0 
1.670313036632e-03 5.077381483122e-04 0.0 
5.886180437474e-04 -1.091316894049e-04 0.0 
4.756252525669e-04 -1.813270604125e-04 0.0 
3.242956899873e-04 -1.722900493856e-04 0.0 
3.817584794252e-04 -2.452003875110e-04 0.0 
5.133471339854e-04 -2.430547208712e-04 0.0 
4.166595617013e-04 -2.945686148867e-04 0.0 
2.973131854236e-04 -2.963984988356e-04 0.0 
3.326949149549e-04 -3.374784427906e-04 0.0 
4.394006790758e-04 -3.290547889425e-04 0.0 
3.569158532140e-04 -3.643798876871e-04 0.0 
2.606289091137e-04 -3.716154465426e-04 0.0 
2.858074616864e-04 -3.924076285257e-04 0.0 
2.055987514080e-04 -4.876124906370e-05 0.0 
1.658717424931e-04 3.747266257077e-05 0.0 
2.804334637468e-03 5.434936575804e-03 0.0 
5.434012761006e-04 -7.578785719039e-06 0.0 
1.100353839362e-03 1.800602899712e-04 0.0 
1.187679367151e-03 3.817548455484e-03 0.0 
1.134267847090e-03 4.305020021975e-03 0.0 
1.241860671279e-03 5.295559197411e-03 0.0 
1.065274826814e-03 4.790783511266e-03 0.0 
9.440743673609e-04 3.802718030786e-03 0.0 
8.931690629865e-04 4.274587941466e-03 0.0 
9.855231509204e-04 5.273259706128e-03 0.0 
8.298224859226e-04 4.744133313486e-03 0.0 
8.986058948866e-04 5.750001898094e-03 0.0 
7.574611544967e-04 5.209955636033e-03 0.0 
6.806822873766e-04 4.208674877928e-03 0.0 
6.220381020500e-04 4.667130832590e-03 0.0 
6.788800235431e-04 5.672663600131e-03 0.0 
5.552672464278e-04 5.123699156851e-03 0.0 
5.960584699994e-04 6.131711557772e-03 0.0 
4.822163050896e-04 5.578298894162e-03 0.0 
4.389187461525e-04 4.574986824686e-03 0.0 
1.078260174426e-04 -4.271809816421e-04 0.0 
1.060452858584e-03 8.266779793469e-05 0.0 
9.347156136387e-04 9.659936015699e-05 0.0 
1.860902055322e-04 -3.356197881468e-04 0.0 
1.987513932733e-04 -3.026505031651e-04 0.0 
2.484896837871e-04 -2.853020091473e-04 0.0 
2.053156762280e-04 -2.671852786242e-04 0.0 
3.733210443205e-04 5.030487705258e-03 0.0 
3.321348690410e-04 4.028929426344e-03 0.0 
3.735150189508e-04 5.891112022819e-04 0.0 
5.256688485331e-04 7.715845373443e-04 0.0 
1.220216768527e-03 3.330870457720e-03 0.0 
1.616603477280e-04 -8.503114985946e-05 0.0 
1.813692237572e-04 -1.187366370974e-04 0.0 
2.213486808887e-03 1.894106231680e-03 0.0 
2.253094680537e-03 2.410883685890e-03 0.0 
1.949994422180e-03 1.966787332723e-03 0.0 
1.926332195848e-03 2.499815137049e-03 0.0 
2.266457040350e-03 3.049724862350e-03 0.0 
1.584582352293e-03 2.017804564473e-03 0.0 
7.934871956802e-04 -7.105928661890e-05 0.0 
5.410034477051e-04 3.671152715256e-03 0.0 
2.381279336719e-04 -4.158788474907e-04 0.0 
1.904674233216e-04 -4.319456519919e-04 0.0 
1.368966216768e-04 -5.531890142647e-05 0.0 
1.145436890298e-03 6.035979499157e-05 0.0 
2.632782220511e-03 1.983751152456e-03 0.0 
2.468865760762e-03 1.575400247612e-03 0.0 
2.462094328315e-03 1.713705483415e-03 0.0 
2.275793219071e-03 1.352527439251e-03 0.0 
2.215688681910e-03 1.431476761189e-03 0.0 
2.007584620946e-03 1.118094494455e-03 0.0 
2.071576684795e-03 1.055467077234e-03 0.0 
1.447142774670e-03 4.382092899821e-04 0.0 
1.783575509561e-03 8.598251569637e-04 0.0 
4.107821152739e-04 6.040704280336e-03 0.0 
1.750240270952e-03 4.538246138825e-04 0.0 
4.498503199869e-04 -3.500674099170e-04 0.0 
1.159140961607e-04 -4.359011974866e-04 0.0 
1.981869716847e-04 -3.984226831929e-04 0.0 
9.389440829295e-05 -4.171900299711e-04 0.0 
1.098339019745e-04 -3.988376198730e-04 0.0 
5.408599727870e-04 1.742184647356e-05 0.0 
1.892019602278e-03 1.138822008226e-03 0.0 
2.102550455319e-03 1.463656263550e-03 0.0 
1.875227356000e-03 3.174672868230e-03 0.0 
2.248245993833e-03 3.850660549219e-03 0.0 
1.236029626076e-03 3.298460423961e-04 0.0 
1.591417728230e-03 6.243208821017e-03 0.0 
1.042497235127e-03 6.284139307774e-03 0.0 
9.376571551463e-04 6.764616783564e-03 0.0 
7.956578704455e-05 -4.328075129513e-04 0.0 
1.666892706414e-04 -3.716731023831e-04 0.0 
7.629691141407e-04 3.289881303131e-03 0.0 
8.343671844547e-04 7.297892082558e-04 0.0 
7.136068324680e-04 9.916354023103e-04 0.0 
5.825852854463e-05 1.825736182327e-04 0.0 
-1.034803006226e-05 7.514516123484e-05 0.0 
2.780380149517e-04 4.470033579837e-03 0.0 
2.389634869753e-04 3.483950279246e-03 0.0 
2.556081120818e-04 -2.479952819415e-04 0.0 
2.077820671077e-04 -2.297913384298e-04 0.0 
6.578685516082e-04 2.556689579148e-05 0.0 
2.257297415433e-04 -4.141233058467e-04 0.0 
2.754885438374e-04 3.039629163547e-03 0.0 
1.015265659185e-03 3.108372699670e-05 0.0 
1.073535364493e-03 8.185715320414e-07 0.0 
1.566111125192e-04 -2.853891782283e-04 0.0 
2.247590155456e-04 8.261314562545e-04 0.0 
1.105223564109e-04 6.464202547689e-04 0.0 
5.407469680237e-04 -3.133982022608e-04 0.0 
3.000087039023e-04 -4.029765829260e-04 0.0 
7.624679947902e-05 -4.065329012119e-04 0.0 
5.207096078899e-04 3.850365247726e-05 0.0 
7.794556188020e-04 2.830945716649e-03 0.0 
1.857465450501e-03 8.180883986275e-04 0.0 
2.089407136387e-03 9.655902349148e-04 0.0 
1.550767308147e-03 6.527682022735e-04 0.0 
1.529216031282e-04 -4.188389717077e-04 0.0 
4.338408091890e-04 1.207158481703e-05 0.0 
1.134845496775e-04 -7.230840975300e-05 0.0 
1.742612321095e-03 1.132668144498e-03 0.0 
1.937480047534e-03 1.445420365860e-03 0.0 
1.050625569653e-03 9.545088428055e-04 0.0 
9.512119777594e-04 1.264767024307e-03 0.0 
5.625912137427e-04 1.309425113065e-03 0.0 
8.109609762927e-04 1.640413512348e-03 0.0 
2.544296011328e-03 6.190532065015e-03 0.0 
1.308805841174e-03 1.228874100591e-03 0.0 
2.891851327240e-03 5.318985880335e-03 0.0 
2.771640590494e-03 6.200064379584e-03 0.0 
2.823264701723e-03 6.024371924235e-03 0.0 
2.552225827851e-03 3.626087352407e-03 0.0 
2.541017140164e-03 4.553350557215e-03 0.0 
1.182146821696e-03 4.943022992787e-04 0.0 
1.666864608579e-03 3.443076842882e-04 0.0 
3.024059657092e-04 -2.662701405993e-04 0.0 
3.518481363514e-04 -1.660087033056e-04 0.0 
7.495758945227e-04 -1.517973096827e-04 0.0 
5.748942679300e-04 3.219093922305e-03 0.0 
4.347324631485e-04 2.687634944910e-03 0.0 
7.139442823546e-04 6.684985812919e-03 0.0 
6.195737861312e-04 7.145060575126e-03 0.0 
1.497764914611e-04 -4.389951792175e-04 0.0 
1.442023467842e-04 -4.424647307298e-04 0.0 
5.379851375907e-04 -2.113810775261e-04 0.0 
4.443733074455e-04 -8.082465094151e-06 0.0 
9.919968557061e-04 2.862833821381e-03 0.0 
9.784633114693e-04 2.399108470796e-03 0.0 
1.226110312685e-03 2.847330778293e-03 0.0 
6.470747421790e-04 5.262137595227e-05 0.0 
1.034424625907e-03 7.412650321234e-05 0.0 
1.306595251926e-03 7.833138429581e-05 0.0 
9.017851368072e-05 -5.103555666040e-05 0.0 
2.338351743417e-03 1.220251606964e-03 0.0 
1.126592604621e-04 -4.474723400897e-04 0.0 
2.552547845420e-03 2.802064177428e-03 0.0 
9.290904510679e-05 -4.492571686623e-05 0.0 
1.076473447763e-04 -3.085376225102e-05 0.0 
1.163450294596e-03 3.537055193348e-04 0.0 
2.284598928391e-03 7.839325439622e-03 0.0 
2.174132883703e-03 9.472375279503e-04 0.0 
2.064984347307e-03 7.861733692316e-04 0.0 
2.649356827971e-03 6.993978032789e-03 0.0 
2.659234653757e-03 6.760094814661e-03 0.0 
2.816987861500e-03 5.704001190715e-03 0.0 
2.602873402157e-03 6.354725321441e-03 0.0 
5.355877325946e-04 -3.289287289719e-04 0.0 
4.488165713411e-04 -3.603409998675e-04 0.0 
1.476161293403e-03 8.317860596156e-04 0.0 
1.430904913141e-03 6.551975827142e-04 0.0 
1.535169912851e-03 1.064798017178e-03 0.0 
1.720178222785e-03 1.362622857375e-03 0.0 
9.449872338106e-04 2.579274943546e-04 0.0 
1.030963497055e-03 2.450364334619e-04 0.0 
8.728590480702e-05 -3.862495014510e-04 0.0 
2.188033285327e-03 4.868657986043e-03 0.0 
5.934769299404e-04 2.320974661012e-03 0.0 
2.593236377524e-03 7.086243719710e-03 0.0 
3.400633040441e-04 8.920345223709e-06 0.0 
3.549291691343e-04 -7.868246574931e-06 0.0 
-6.916529548938e-05 -1.758039524820e-05 0.0 
3.041663966078e-05 -1.403804255874e-04 0.0 
1.882211610713e-04 2.522496931082e-03 0.0 
3.812237562885e-04 1.687917379035e-03 0.0 
6.236670760377e-04 2.085462816827e-03 0.0 
1.967113339012e-04 1.362845041154e-03 0.0 
1.386174661672e-05 -7.910064155649e-06 0.0 
1.644765290714e-04 9.068276568795e-03 0.0 
6.922075792789e-05 -2.316865098848e-05 0.0 
2.768130623465e-03 4.210771409107e-03 0.0 
2.040988250530e-04 2.045926567074e-03 0.0 
2.004957569790e-03 7.326984328461e-04 0.0 
1.930100655728e-03 1.527345453165e-03 0.0 
7.845232776563e-04 3.883343178355e-05 0.0 
1.527364055221e-04 3.043445320949e-03 0.0 
1.132816123076e-04 1.967891658204e-03 0.0 
1.065073251300e-03 7.285854210440e-03 0.0 
9.514243983726e-04 7.783993881256e-03 0.0 
1.186147654488e-03 6.807684421177e-03 0.0 
1.439297827839e-04 3.030090834313e-04 0.0 
-9.089319957698e-05 3.809541471392e-04 0.0 
4.135249760417e-04 3.133422470306e-03 0.0 
1.683047200445e-04 -3.649468652635e-04 0.0 
1.379734100941e-04 -3.462320921325e-04 0.0 
2.379265519101e-04 -4.206925179842e-04 0.0 
3.026020570240e-04 -4.054687004928e-04 0.0 
3.076846080749e-04 -2.275992021277e-04 0.0 
3.589259644376e-04 -2.454267398368e-04 0.0 
2.439974858413e-03 2.289794364755e-03 0.0 
2.275712196122e-03 2.271348001557e-03 0.0 
2.624775814265e-03 2.147906346111e-03 0.0 
9.577740735730e-04 -1.952427122058e-05 0.0 
9.940491067230e-04 -5.528276871497e-05 0.0 
1.097049736208e-03 -3.248541814024e-05 0.0 
4.446304251692e-04 2.274620119851e-03 0.0 
2.965072140889e-04 1.671151052202e-03 0.0 
6.310774784517e-04 -2.908166853695e-04 0.0 
6.417398369074e-04 -2.688264432997e-04 0.0 
5.189442964066e-04 -3.355053996456e-04 0.0 
5.744183797752e-04 1.894181898693e-03 0.0 
7.646987166938e-05 -1.327142417180e-05 0.0 
1.150086617947e-04 -1.865023546247e-05 0.0 
1.028140401551e-04 -4.475340738199e-04 0.0 
1.319936731941e-04 -4.404218829557e-04 0.0 
-4.439320346373e-05 8.855150549828e-04 0.0 
-1.273718566883e-04 7.100779919545e-04 0.0 
9.460780476429e-04 1.978254789789e-03 0.0 
1.202588590732e-03 2.380354995253e-03 0.0 
6.764083107745e-04 1.493254690886e-03 0.0 
5.350335537668e-05 -3.967795101400e-04 0.0 
1.886069021874e-03 7.520388928326e-04 0.0 
4.937639381347e-04 5.703498072281e-05 0.0 
6.306730083027e-04 7.604342129764e-05 0.0 
3.506708230525e-04 4.022590213509e-05 0.0 
1.395903044692e-03 4.768571123209e-04 0.0 
1.060258637462e-03 3.575086861046e-04 0.0 
1.168238260997e-03 4.760733765211e-04 0.0 
-1.743660440203e-04 1.125407196649e-04 0.0 
8.479939888662e-05 2.368997679631e-03 0.0 
7.303560878552e-04 7.702424820843e-03 0.0 
-2.023860687025e-04 2.880201464777e-05 0.0 
6.273831014258e-04 8.198449902531e-03 0.0 
5.274058957737e-04 7.609196016479e-03 0.0 
5.409797341760e-04 8.687119169756e-03 0.0 
4.775331482848e-05 -4.135861627217e-04 0.0 
1.194620322440e-03 7.981230555653e-03 0.0 
1.335587178557e-03 7.355715166984e-03 0.0 
7.684381178885e-05 -4.417821656306e-04 0.0 
3.883468407729e-04 1.399279958856e-03 0.0 
8.305683371186e-05 -4.507398214412e-04 0.0 
9.043480166259e-05 -4.503732322033e-04 0.0 
2.553608134565e-04 5.973125614757e-06 0.0 
2.751078241545e-04 -6.356460432879e-06 0.0 
1.824672841552e-04 5.390897845679e-06 0.0 
2.099617619895e-04 -4.238527395134e-06 0.0 
2.834303812565e-04 -2.186605321097e-05 0.0 
2.171611596268e-04 -1.724630461237e-05 0.0 
8.470224854772e-04 8.345160017132e-03 0.0 
1.415400308187e-04 -9.559703806771e-07 0.0 
1.584942603492e-04 -1.236398008118e-05 0.0 
9.196973762041e-05 -1.102224006772e-06 0.0 
2.376227373055e-03 7.581063124759e-03 0.0 
1.090646591022e-03 2.040049535235e-03 0.0 
9.229352323197e-04 2.594597501841e-03 0.0 
3.747776673268e-04 2.645176284551e-03 0.0 
1.175258317398e-03 8.487070553571e-04 0.0 
1.482596193612e-03 1.245069196729e-03 0.0 
7.029545715805e-05 -5.993404172592e-05 0.0 
8.068471891007e-05 -8.950258736208e-05 0.0 
4.342468728845e-04 8.146502700128e-03 0.0 
3.178953067676e-04 8.185801270029e-03 0.0 
3.482716916570e-04 7.260139558109e-03 0.0 
2.514429283683e-04 7.369255509468e-03 0.0 
2.723625792559e-04 6.462934911886e-03 0.0 
1.753040204731e-04 6.576571152965e-03 0.0 
2.083394491221e-04 5.672298000226e-03 0.0 
9.962729803518e-04 4.464617500124e-04 0.0 
-1.891754123564e-05 1.711151736085e-03 0.0 
2.411481993344e-03 7.966242476198e-03 0.0 
7.347924095930e-04 1.833107031289e-04 0.0 
8.595212148381e-04 1.868853958326e-04 0.0 
2.455992870976e-03 5.680865219452e-03 0.0 
2.018720959837e-03 6.181700668256e-03 0.0 
2.864144516246e-04 2.114236091507e-05 0.0 
1.361273745674e-03 9.283944825771e-04 0.0 
2.952097619185e-04 8.736583143699e-04 0.0 
-4.764779705065e-04 5.097640929177e-04 0.0 
-2.924263691406e-04 4.013443155796e-04 0.0 
1.625736666804e-03 1.200668700850e-03 0.0 
2.731128348549e-03 5.212571011107e-03 0.0 
1.458374862225e-03 2.551409892072e-03 0.0 
1.374736467003e-03 3.281875547487e-03 0.0 
8.892379655246e-04 1.255863697410e-05 0.0 
1.100820228038e-04 -4.320986880900e-04 0.0 
6.048558792201e-05 1.099542942775e-03 0.0 
3.041558609810e-04 5.573919992197e-03 0.0 
-2.119532312675e-04 1.139630740910e-03 0.0 
3.681020862780e-05 -7.320328457029e-05 0.0 
1.399208213498e-03 6.842325872491e-04 0.0 
2.743004175444e-03 3.373848905938e-03 0.0 
3.737301066969e-04 1.041416205618e-03 0.0 
1.258728147843e-03 1.611029456462e-03 0.0 
2.677165894861e-03 5.437301639239e-03 0.0 
2.375269690164e-03 6.926233431144e-03 0.0 
2.491098505275e-03 7.078931187973e-03 0.0 
1.406128188907e-03 4.855466275821e-04 0.0 
1.809175343775e-03 4.034225500764e-03 0.0 
1.202313424123e-03 4.211900775821e-03 0.0 
2.946493257120e-03 4.480646265255e-03 0.0 
1.478468720504e-03 3.265929950196e-03 0.0 
1.469487041107e-03 2.768191989359e-03 0.0 
1.151085999164e-03 1.951201028633e-03 0.0 
1.424221372324e-03 2.297178531732e-03 0.0 
1.735487179679e-03 3.121606678939e-03 0.0 
1.702536195193e-03 2.619527549368e-03 0.0 
1.340327305302e-03 1.860206304192e-03 0.0 
1.628878729910e-03 2.147298926789e-03 0.0 
1.117715214073e-03 1.309354145400e-03 0.0 
1.499587733363e-03 1.696561639565e-03 0.0 
1.905594743876e-03 2.401637481401e-03 0.0 
1.800164051667e-03 1.957374320904e-03 0.0 
1.394329552678e-03 1.380617277452e-03 0.0 
2.169470243547e-03 2.637741041888e-03 0.0 
6.045928996641e-04 1.709798320021e-04 0.0 
1.896341830847e-03 1.173633583170e-03 0.0 
-1.279662319372e-04 2.326577278633e-04 0.0 
-2.560264574812e-04 5.464521704026e-04 0.0 
2.889811335704e-03 3.833216507429e-03 0.0 
5.588233741081e-04 6.387691664120e-04 0.0 
4.718007260450e-04 6.967842324912e-04 0.0 
9.242772076748e-04 5.120825743646e-04 0.0 
5.958242567778e-04 3.775902095459e-04 0.0 
2.671891844051e-03 6.258293189257e-03 0.0 
3.626146418982e-04 2.566396182522e-04 0.0 
5.685565720048e-04 2.915531167505e-04 0.0 
1.728967955014e-03 3.641959433450e-03 0.0 
1.972385438652e-03 3.993462041955e-03 0.0 
1.914727343408e-03 4.555158795902e-03 0.0 
3.656895217901e-04 6.916049832484e-04 0.0 
1.306519513186e-03 6.308246464255e-03 0.0 
4.178551308066e-04 1.445141954046e-04 0.0 
1.653323086344e-03 3.450998804432e-04 0.0 
1.798208425165e-03 4.708313513609e-04 0.0 
1.783848230496e-03 4.782363456097e-04 0.0 
1.972766807795e-03 2.915886772601e-03 0.0 
3.057807811053e-04 7.092720592584e-05 0.0 
5.354877286897e-04 1.094404897471e-04 0.0 
4.804037964574e-04 8.633219363121e-05 0.0 
7.263713579964e-04 1.240699165346e-04 0.0 
2.437065733957e-04 4.726677131177e-05 0.0 
5.555562432112e-04 4.948864329254e-04 0.0 
5.424135389555e-04 4.290029367851e-04 0.0 
5.336297352634e-04 -2.856279983715e-04 0.0 
6.403679726992e-04 -2.333526616422e-04 0.0 
7.535971048413e-04 -2.156813339619e-04 0.0 
7.584303795983e-04 -1.711132482386e-04 0.0 
6.232018193484e-04 -1.809654813941e-04 0.0 
7.462605946417e-04 -1.088541757705e-04 0.0 
8.874503122885e-04 -9.863955314044e-05 0.0 
7.148340052886e-04 -2.484750181208e-05 0.0 
1.911773117985e-03 1.747595003895e-03 0.0 
1.858866503203e-04 2.912337647635e-05 0.0 
7.336956985509e-04 -1.101977354372e-04 0.0 
8.237041260180e-04 -1.108879060089e-04 0.0 
8.278343735895e-04 -1.519531223914e-04 0.0 
3.475215559442e-04 -2.842039445498e-04 0.0 
4.088034140425e-04 -2.627186526906e-04 0.0 
4.170207223322e-04 -2.223490249384e-04 0.0 
2.893615157111e-04 -3.033817268164e-04 0.0 
2.286118935000e-03 1.239623180009e-03 0.0 
1.640898615502e-04 2.223335668807e-05 0.0 
1.190932944632e-03 3.276245537771e-05 0.0 
4.565907175881e-04 -2.786132757017e-04 0.0 
1.534262649977e-03 8.820705137847e-03 0.0 
1.664881005578e-03 7.880564897110e-03 0.0 
1.832423786123e-03 7.710330678021e-03 0.0 
1.765474668402e-03 6.807732476062e-03 0.0 
1.483791054295e-03 7.887785106259e-03 0.0 
2.560245916535e-04 -2.095446152120e-04 0.0 
2.047025435804e-04 -1.917524832716e-04 0.0 
1.593898320903e-04 -2.119929503688e-04 0.0 
1.542427825022e-04 -1.744918291026e-04 0.0 
1.112540263037e-04 -1.946480606084e-04 0.0 
1.150384094785e-04 -2.309164506603e-04 0.0 
1.041666465384e-04 -1.578057106242e-04 0.0 
6.451754572800e-05 -1.819813358564e-04 0.0 
1.239333103247e-03 8.985667775975e-03 0.0 
-1.448320235585e-04 -2.114540429431e-04 0.0 
-3.116163599023e-05 -2.670226767332e-04 0.0 
-6.860304417596e-07 -3.287625057341e-04 0.0 
6.649159618876e-05 -3.105249387036e-04 0.0 
5.282697595832e-05 -2.453092564699e-04 0.0 
1.708974745688e-04 -2.914835786821e-04 0.0 
1.443236292361e-04 -2.172794076072e-04 0.0 
-6.988189869356e-05 -1.823874217828e-04 0.0 
-5.121147362562e-05 -3.411300382218e-04 0.0 
2.604089378822e-05 -3.736063159785e-04 0.0 
-1.620534973376e-05 -3.818997527957e-04 0.0 
4.405700275211e-05 -4.048869117856e-04 0.0 
1.077503347167e-04 -3.975831372580e-04 0.0 
1.860596185775e-04 -4.336416194546e-04 0.0 
3.934960729050e-05 -1.675746489769e-06 0.0 
4.194886600441e-05 -2.809679315289e-04 0.0 
7.960879145322e-05 -2.989654363601e-04 0.0 
7.390680025961e-05 -3.293302420900e-04 0.0 
1.184096537541e-04 -3.155132355567e-04 0.0 
8.097676324763e-05 -2.680068447887e-04 0.0 
3.510798404655e-05 -3.431245276792e-04 0.0 
6.635970356113e-05 -3.541467357400e-04 0.0 
3.330760553811e-05 -4.499964717584e-04 0.0 
3.063391010537e-05 -4.437437596869e-04 0.0 
1.401465812849e-05 -4.430839178060e-04 0.0 
2.725641617737e-05 -4.359278203727e-04 0.0 
4.401075583085e-05 -4.378809074766e-04 0.0 
4.440609845582e-05 -4.456741499480e-04 0.0 
5.650828307307e-05 -4.483790532284e-04 0.0 
5.269770110932e-05 -4.533418828570e-04 0.0 
6.621159986314e-05 -4.507528449467e-04 0.0 
7.470159404094e-05 -4.435926746552e-04 0.0 
5.761619962654e-05 -4.540948557422e-04 0.0 
6.756868101258e-05 4.364067990049e-03 0.0 
1.288618875254e-04 3.872105604855e-03 0.0 
1.341781381473e-04 1.328099976224e-05 0.0 
9.676099333323e-04 8.965537465931e-03 0.0 
3.307095140814e-05 -4.303228879205e-04 0.0 
1.069076930792e-04 9.692094901062e-04 0.0 
1.673374162641e-04 7.961243236351e-04 0.0 
1.331055804737e-04 7.740774835408e-04 0.0 
2.298817995120e-05 -2.367373702783e-05 0.0 
3.723733311711e-05 -1.508755921413e-05 0.0 
5.808146007531e-05 9.443227937087e-04 0.0 
2.836948076380e-04 -3.944610777104e-04 0.0 
1.063483716985e-03 1.553909830481e-03 0.0 
3.003343746745e-04 2.595145064852e-03 0.0 
2.484898640589e-04 4.354208801162e-04 0.0 
3.712708088542e-04 -3.856887349901e-04 0.0 
1.287257754572e-04 -1.037752893565e-04 0.0 
3.975925066223e-04 -1.416537116764e-04 0.0 
1.533677541759e-04 -3.940451903457e-05 0.0 
2.353093587743e-04 -1.340804447552e-04 0.0 
2.645770335245e-04 -5.868902862697e-05 0.0 
4.387142535184e-04 6.761704727019e-05 0.0 
6.644924104514e-05 -4.223117017198e-04 0.0 
8.072967026879e-04 6.220338048967e-03 0.0 
5.148977670304e-04 6.592122132880e-03 0.0 
4.949644215021e-04 4.123505147984e-03 0.0 
1.935100736836e-04 -3.800107478616e-04 0.0 
1.619577610598e-04 -2.473742617023e-04 0.0 
1.487065193596e-04 -4.317788822708e-04 0.0 
1.039948699456e-03 5.893157329365e-04 0.0 
2.924665744398e-03 5.089197122699e-03 0.0 
7.425791907890e-04 -1.938711288447e-04 0.0 
3.274461618821e-04 -3.206648550977e-04 0.0 
3.464829850702e-04 -3.787092717686e-04 0.0 
3.696906165292e-04 -3.796562767168e-04 0.0 
2.152059947964e-03 1.473688076964e-03 0.0 
5.267031455066e-04 -2.526730224427e-04 0.0 
5.093402454648e-04 -6.204021678171e-05 0.0 
3.786492864567e-04 3.580928026624e-03 0.0 
5.813715878267e-05 -4.504459370945e-04 0.0 
5.319893249970e-04 -3.435625935867e-05 0.0 
5.341920410281e-04 -1.692878004075e-04 0.0 
1.145173330147e-03 5.795278815369e-03 0.0 
1.274371409771e-03 2.398962384895e-04 0.0 
2.282380902957e-04 -3.399749376908e-04 0.0 
7.290189796842e-04 3.750795543223e-03 0.0 
7.544679249075e-04 1.985132136358e-03 0.0 
1.461206991932e-03 6.799611008187e-03 0.0 
1.165945646150e-04 -4.435960439185e-04 0.0 
8.351954103376e-04 7.251666784935e-03 0.0 
4.056673443907e-04 2.912427211760e-05 0.0 
1.453296238453e-03 3.771644733427e-03 0.0 
1.488827023803e-04 -3.902056797556e-04 0.0 
1.292973626015e-03 5.182682914957e-05 0.0 
2.681363787013e-03 2.696591623760e-03 0.0 
2.112312604216e-03 8.771494429035e-03 0.0 
3.129777810938e-04 2.189164332232e-03 0.0 
2.061870309853e-03 8.320904289050e-04 0.0 
9.310830630079e-04 1.346743279396e-04 0.0 
1.277965706864e-03 1.024911671987e-04 0.0 
1.259016318324e-04 -3.757427519340e-04 0.0 
3.575661391265e-04 -2.688120399911e-05 0.0 
1.623885945615e-03 3.372432143040e-04 0.0 
5.948023338340e-04 2.774936609094e-03 0.0 
2.401703047887e-03 1.808447838840e-03 0.0 
1.184727648267e-03 8.353967649279e-05 0.0 
9.785803259220e-04 3.331654489008e-03 0.0 
9.035833556671e-04 -1.449146495093e-04 0.0 
1.271267418384e-03 2.901012261470e-04 0.0 
2.890044064399e-03 4.712401805072e-03 0.0 
2.770980529293e-03 2.472208803495e-03 0.0 
2.619120417244e-03 3.372868261666e-03 0.0 
2.491097662227e-03 1.557877857204e-03 0.0 
8.752631700847e-05 -1.230300242626e-04 0.0 
4.408036543518e-04 -3.117524783092e-05 0.0 
2.549385676594e-04 -7.764776791412e-05 0.0 
1.628372161661e-03 1.570170170038e-03 0.0 
1.418698236529e-03 5.781067846422e-03 0.0 
1.673610925180e-03 8.776603544587e-04 0.0 
4.240029633296e-04 1.808710308040e-03 0.0 
2.525870055408e-03 2.889262592847e-03 0.0 
3.485958741846e-04 -4.746057312178e-05 0.0 
7.792310534059e-04 2.404796186045e-03 0.0 
4.725937160625e-04 -2.385450065063e-04 0.0 
2.308565833042e-05 -4.096609408265e-04 0.0 
2.113119939660e-05 4.940000986554e-04 0.0 
8.583447666928e-04 7.362672454742e-05 0.0 
1.892082816799e-03 6.495331969897e-04 0.0 
4.757469174290e-04 -1.971937129525e-04 0.0 
8.357722055324e-04 1.456787908183e-03 0.0 
2.786969688771e-04 -3.980451517645e-05 0.0 
7.662062668011e-04 2.195949774890e-06 0.0 
-4.522025200546e-04 9.545730657896e-04 0.0 
2.370189023497e-03 7.939545245413e-03 0.0 
2.162102224809e-04 -3.234708383227e-05 0.0 
1.197587944254e-03 2.327724978237e-06 0.0 
1.082774498325e-03 2.186727707269e-04 0.0 
6.955030275791e-05 -2.151145503442e-04 0.0 
1.010327169441e-03 5.110997369226e-04 0.0 
2.270129110278e-03 6.972442381107e-03 0.0 
1.612692459396e-04 -2.523449597010e-05 0.0 
9.205094271932e-04 5.552568080835e-05 0.0 
1.130798772554e-03 7.009637595310e-04 0.0 
2.725850874241e-04 9.071370721958e-03 0.0 
1.011322715268e-04 -6.389716747774e-06 0.0 
7.836881570707e-04 7.199568170479e-05 0.0 
2.426172125281e-03 1.408007818973e-03 0.0 
1.085860640056e-03 -6.695735198625e-05 0.0 
2.114149178667e-03 8.926962824638e-03 0.0 
4.133675854824e-04 -1.817239214115e-04 0.0 
2.754690359632e-03 2.652478128324e-03 0.0 
3.155098338898e-04 6.913530310590e-04 0.0 
7.763256115645e-04 1.017902699657e-04 0.0 
2.132762581498e-03 4.903289975711e-03 0.0 
3.606740588572e-04 -2.056561421072e-04 0.0 
1.827088303400e-03 5.620029301980e-04 0.0 
5.957594858679e-05 -4.407267527721e-04 0.0 
2.418217206134e-03 7.853210928661e-03 0.0 
3.043806722090e-04 -1.884350341241e-04 0.0 
8.820586302147e-04 -2.429046821380e-05 0.0 
1.000348817734e-03 -9.181547244863e-05 0.0 
8.376401960567e-04 2.548845491418e-04 0.0 
2.493078746273e-04 -1.712339512392e-04 0.0 
1.029667954753e-03 -1.458281577674e-05 0.0 
1.958442530950e-04 -1.544452350620e-04 0.0 
1.935605959876e-03 8.501413101914e-03 0.0 
2.200938181799e-03 4.288142325690e-03 0.0 
1.425646225566e-04 -1.382670107780e-04 0.0 
2.559028478500e-03 2.249902212642e-03 0.0 
8.889763648031e-05 -4.463538813226e-04 0.0 
2.250650519388e-03 1.101911222161e-03 0.0 
5.424214201471e-05 -3.410323402950e-05 0.0 
4.938347590296e-04 -3.349046900245e-04 0.0 
9.129560812619e-04 -1.058148618184e-04 0.0 
1.992368343849e-03 3.442236472747e-03 0.0 
1.455532261931e-03 7.165829875867e-03 0.0 
8.943623661953e-04 -6.670689847847e-05 0.0 
2.288878817265e-03 1.848396699674e-03 0.0 
2.067290720229e-03 8.583105279062e-04 0.0 
1.933704542983e-03 6.297468726983e-04 0.0 
8.456386635210e-04 -2.986563718861e-05 0.0 
1.689829665334e-03 5.184180226493e-03 0.0 
2.931907552647e-04 -4.032277842970e-04 0.0 
2.411921191270e-04 -4.210489149449e-04 0.0 
1.007344618046e-03 -8.135460488487e-05 0.0 
2.123015974598e-03 1.828448452168e-03 0.0 
4.424762860845e-05 -4.282266853409e-04 0.0 
2.220894509878e-03 3.145961869798e-03 0.0 
1.731206487741e-04 -4.295718602999e-04 0.0 
8.754061272669e-04 -1.534609725982e-04 0.0 
1.660373995557e-03 5.751874534984e-04 0.0 
7.966189334024e-05 6.322821423598e-03 0.0 
8.493527745945e-04 -1.918575851040e-04 0.0 
2.605509566355e-05 -3.909973640815e-04 0.0 
7.358417079677e-04 -2.452291809063e-04 0.0 
1.911797002866e-03 6.007536729838e-04 0.0 
7.078159038720e-04 -2.625382826094e-04 0.0 
6.097097751690e-04 -3.021592786600e-04 0.0 
2.099429244227e-04 1.664736882132e-03 0.0 
5.797486008393e-04 -3.049665324992e-04 0.0 
2.905029501847e-05 7.812621544759e-04 0.0 
1.605835208490e-05 -1.980837957509e-06 0.0 
1.029034679606e-04 8.305303255048e-03 0.0 
5.616737668457e-04 4.937289396063e-03 0.0 
-3.414468435145e-04 1.527411796231e-04 0.0 
8.353505084262e-04 3.257834291927e-03 0.0 
4.368681266518e-04 -3.628555028277e-04 0.0 
2.382820465215e-03 2.762227395946e-03 0.0 
2.137185209780e-04 8.260671760952e-03 0.0 
3.616442733364e-04 -3.852135273904e-04 0.0 
1.040993034414e-03 1.049646002496e-03 0.0 
4.783609833561e-04 1.994786016973e-04 0.0 
1.446133177011e-04 4.802873728691e-03 0.0 
9.157071193050e-04 1.671763970095e-04 0.0 
1.871470408256e-03 6.622788981889e-04 0.0 
4.210214655831e-05 2.466920953562e-03 0.0 
6.261059088172e-04 9.158068501542e-03 0.0 
5.849888704429e-05 -4.265330552613e-04 0.0 
4.194615021987e-05 -1.051585119039e-04 0.0 
-7.705054596940e-05 3.165873446592e-03 0.0 
1.279760373191e-04 2.099354498906e-03 0.0 
-1.400829429584e-04 1.394844741045e-03 0.0 
9.741248701138e-05 -3.636165661454e-04 0.0 
8.115577632733e-05 -3.595629201412e-04 0.0 
-2.731692494982e-04 2.108319601888e-03 0.0 
6.040036073701e-04 1.375098529900e-04 0.0 
1.058201770998e-03 8.219550485434e-03 0.0 
1.643914594244e-03 6.366149803242e-04 0.0 
-3.943743974575e-04 1.422057600683e-03 0.0 
5.441952675993e-04 1.536266925163e-03 0.0 
8.765900650567e-04 3.217078148139e-04 0.0 
8.883381227392e-05 6.008257653320e-06 0.0 
1.302489602256e-03 4.881142889096e-04 0.0 
-2.766386908898e-04 9.240961323613e-04 0.0 
1.600399010524e-03 7.130875855840e-03 0.0 
1.057875664471e-03 6.695335807747e-04 0.0 
1.969442919138e-04 4.012481185976e-03 0.0 
6.240602261345e-05 2.648780102077e-06 0.0 
1.331283587425e-03 8.230428740772e-03 0.0 
1.262756596150e-04 1.554097999447e-03 0.0 
1.780607960691e-04 -1.475224936606e-04 0.0 
6.410238506277e-05 1.509767181034e-03 0.0 
2.059004136086e-03 2.158319042029e-03 0.0 
4.399238239190e-04 7.051101295343e-03 0.0 
1.932168478859e-03 6.893705511501e-03 0.0 
4.482663086015e-05 -7.935739159469e-06 0.0 
9.453336025649e-04 1.219840724769e-03 0.0 
-3.182226902372e-04 7.237354372911e-04 0.0 
2.270358770077e-04 4.905388912717e-03 0.0 
1.600227549730e-04 -3.174842819421e-04 0.0 
-1.380409694756e-04 -7.674319496141e-05 0.0 
2.317730018600e-04 1.393722022568e-05 0.0 
1.667264501141e-03 1.589464183494e-03 0.0 
7.601733744532e-05 -6.757159374994e-06 0.0 
1.201076667253e-05 -4.354005758915e-04 0.0 
7.183550893862e-05 -4.477760149009e-04 0.0 
2.747098832955e-04 2.763127191345e-05 0.0 
1.011321340161e-03 8.070992016929e-04 0.0 
2.642520037515e-04 -2.452700949756e-04 0.0 
1.812404339552e-04 6.129216419959e-04 0.0 
-3.943162162125e-04 5.936423269787e-04 0.0 
8.473352783799e-04 9.259962506932e-03 0.0 
7.107362619391e-05 -4.523451829948e-04 0.0 
4.857160851175e-05 1.077278416190e-06 0.0 
3.125405233468e-04 1.470308427097e-03 0.0 
1.132582236698e-04 -2.848564286038e-04 0.0 
1.849662779410e-03 8.415818039635e-03 0.0 
5.861460177726e-05 -3.776887504365e-04 0.0 
1.319544536213e-03 6.538890340996e-04 0.0 
9.615851820896e-05 -4.179097048312e-04 0.0 
2.103347542473e-04 1.396538432102e-03 0.0 
3.414449906630e-04 4.849331010053e-05 0.0 
6.636684559372e-04 1.263080481912e-03 0.0 
2.739523888491e-04 7.887809242257e-05 0.0 
-2.713430091188e-04 2.417889545674e-04 0.0 
8.054582450077e-04 3.240902973613e-04 0.0 
6.121940324889e-04 9.268351643302e-05 0.0 
4.722127365249e-04 9.197293414662e-03 0.0 
8.312840659226e-04 1.275530095747e-03 0.0 
1.019733720831e-04 -3.407729157986e-04 0.0 
9.348218579343e-05 -4.373898111661e-04 0.0 
1.224607012285e-05 6.921379001017e-04 0.0 
9.999014489205e-06 -4.487289952140e-04 0.0 
8.018446315490e-05 9.185282888425e-03 0.0 
6.222286790096e-06 -1.972076122653e-06 0.0 
5.884059165798e-05 -4.326724393987e-04 0.0 
1.700370599949e-04 7.567509964236e-03 0.0 
9.591744330580e-04 8.538605701738e-04 0.0 
3.068269638466e-05 -2.085202944809e-04 0.0 
9.702650455030e-05 3.100589397434e-03 0.0 
1.425460008777e-04 -3.401811938576e-04 0.0 
-2.908583210578e-04 2.879206506797e-06 0.0 
1.374163365236e-04 5.822116444016e-03 0.0 
7.398574679430e-04 2.464206409751e-04 0.0 
5.110470158153e-04 1.261067685982e-03 0.0 
3.539707196297e-04 6.501422297221e-03 0.0 
-1.449949008093e-04 5.705751731580e-04 0.0 
1.316490913546e-03 1.174728831983e-03 0.0 
1.216969263005e-04 -2.584709143661e-04 0.0 
1.386834339271e-03 8.630097879276e-04 0.0 
7.425156520685e-04 1.471074895105e-04 0.0 
-5.145741117771e-04 6.629318101397e-04 0.0 
2.690523431522e-05 -1.727499052546e-04 0.0 
7.226265939028e-05 -4.525056933943e-04 0.0 
1.462394711526e-04 3.178393534817e-06 0.0 
8.109592284444e-05 -2.409840728272e-04 0.0 
6.457814923985e-04 9.914539301329e-03 0.0 
7.076087901107e-05 1.349491956480e-02 0.0 
1.392893127419e-03 1.034487672951e-02 0.0 
5.741001133072e-05 1.247292123506e-02 0.0 
1.697362711315e-03 1.022636775065e-02 0.0 
5.513141622971e-05 1.145473461694e-02 0.0 
1.760618677423e-03 9.777391904402e-03 0.0 
5.400324577414e-05 1.043759449847e-02 0.0 

VECTORS node_materi_displacement float
0.0 7.810582234340e-02 0.0 
0.0 1.219670652020e-01 0.0 
0.0 0.0 0.0 
0.0 0.0 0.0 
0.0 7.800637150042e-02 0.0 
0.0 7.753225181440e-02 0.0 
0.0 7.668648458488e-02 0.0 
0.0 7.546751533644e-02 0.0 
0.0 7.386371842391e-02 0.0 
0.0 7.188226525304e-02 0.0 
0.0 6.952196827927e-02 0.0 
0.0 6.677594964917e-02 0.0 
0.0 6.363928517489e-02 0.0 
0.0 6.010149914087e-02 0.0 
0.0 5.614534903184e-02 0.0 
0.0 5.175936662775e-02 0.0 
0.0 4.693893955322e-02 0.0 
0.0 4.169610203039e-02 0.0 
0.0 3.597859502365e-02 0.0 
0.0 2.978403930966e-02 0.0 
0.0 2.310404235385e-02 0.0 
0.0 1.591611712128e-02 0.0 
0.0 8.205010807955e-03 0.0 
0.0 0.0 0.0 
0.0 0.0 0.0 
0.0 0.0 0.0 
0.0 0.0 0.0 
0.0 0.0 0.0 
0.0 0.0 0.0 
0.0 0.0 0.0 
0.0 0.0 0.0 
0.0 0.0 0.0 
0.0 0.0 0.0 
0.0 0.0 0.0 
0.0 0.0 0.0 
0.0 0.0 0.0 
0.0 0.0 0.0 
0.0 0.0 0.0 
0.0 0.0 0.0 
0.0 0.0 0.0 
0.0 0.0 0.0 
0.0 0.0 0.0 
0.0 0.0 0.0 
0.0 0.0 0.0 
0.0 0.0 0.0 
0.0 0.0 0.0 
0.0 0.0 0.0 
0.0 0.0 0.0 
0.0 0.0 0.0 
0.0 0.0 0.0 
0.0 0.0 0.0 
0.0 0.0 0.0 
0.0 0.0 0.0 
0.0 0.0 0.0 
0.0 0.0 0.0 
0.0 0.0 0.0 
0.0 0.0 0.0 
0.0 0.0 0.0 
0.0 0.0 0.0 
0.0 0.0 0.0 
0.0 0.0 0.0 
0.0 0.0 0.0 
0.0 0.0 0.0 
0.0 0.0 0.0 
0.0 0.0 0.0 
0.0 0.0 0.0 
0.0 0.0 0.0 
0.0 0.0 0.0 
0.0 0.0 0.0 
0.0 0.0 0.0 
0.0 0.0 0.0 
0.0 0.0 0.0 
0.0 1.115564965910e-01 0.0 
0.0 1.007281956064e-01 0.0 
0.0 8.948379330240e-02 0.0 
0.0 7.784144466499e-02 0.0 
0.0 6.579974375299e-02 0.0 
0.0 5.337499348178e-02 0.0 
0.0 4.057400012661e-02 0.0 
0.0 2.740514919506e-02 0.0 
0.0 1.387961061438e-02 0.0 
-1.011734274189e-02 1.018562627301e-01 0.0 
1.030026652963e-02 1.197308870950e-01 0.0 
-7.256774074397e-03 1.099294918975e-01 0.0 
-4.303980072830e-03 1.186872080266e-01 0.0 
-9.720096471060e-04 1.270982003479e-01 0.0 
2.551594577335e-03 1.343057078501e-01 0.0 
5.984727457942e-03 1.395876880384e-01 0.0 
8.667610973632e-03 1.420623575369e-01 0.0 
1.054025675935e-02 1.399942049296e-01 0.0 
1.121414858208e-02 1.349573171732e-01 0.0 
1.103449607846e-02 1.280334105995e-01 0.0 
0.0 1.593402841768e-01 0.0 
0.0 1.506381420507e-01 0.0 
0.0 1.414954183665e-01 0.0 
0.0 1.319572899116e-01 0.0 
5.873533265229e-04 1.219736893225e-01 0.0 
1.166804659036e-03 1.219926284108e-01 0.0 
1.757191862347e-03 1.220184560478e-01 0.0 
2.354933476778e-03 1.220421576898e-01 0.0 
2.959229254780e-03 1.220749890964e-01 0.0 
3.574975218213e-03 1.220893654789e-01 0.0 
4.208411112819e-03 1.220986106068e-01 0.0 
4.851608057538e-03 1.220761735886e-01 0.0 
5.527583796073e-03 1.220316963478e-01 0.0 
6.230928745390e-03 1.219235075266e-01 0.0 
6.961197805475e-03 1.217434237625e-01 0.0 
7.728294104208e-03 1.214716710994e-01 0.0 
8.534677049260e-03 1.210708969568e-01 0.0 
9.387712368867e-03 1.205002154103e-01 0.0 
-9.222636317101e-03 9.742063171509e-02 0.0 
-8.087497484477e-03 9.373970798952e-02 0.0 
-6.918440204028e-03 9.069325042595e-02 0.0 
-5.808252180577e-03 8.819800766812e-02 0.0 
-4.814936233218e-03 8.616698741963e-02 0.0 
-3.922938350485e-03 8.449479050185e-02 0.0 
-3.134558852457e-03 8.312305487143e-02 0.0 
-2.457287823521e-03 8.200473361531e-02 0.0 
-1.881197190292e-03 8.110093443596e-02 0.0 
-1.399562152665e-03 8.038339846111e-02 0.0 
-1.015854984008e-03 7.979966564779e-02 0.0 
-6.944870866251e-04 7.935891379854e-02 0.0 
-4.333921832939e-04 7.899351582283e-02 0.0 
-2.580685143497e-04 7.870604207813e-02 0.0 
-1.440296556015e-04 7.849715258933e-02 0.0 
-6.299397164270e-05 7.834440263568e-02 0.0 
-1.058385399299e-05 7.823241338994e-02 0.0 
1.789324305286e-05 7.815848324074e-02 0.0 
6.942547713252e-06 7.810957900555e-02 0.0 
6.469936580351e-04 1.593785982187e-01 0.0 
1.220878825664e-03 1.593797636781e-01 0.0 
1.793514512611e-03 1.594027082187e-01 0.0 
2.363336708241e-03 1.594293775263e-01 0.0 
2.924465461491e-03 1.594555620517e-01 0.0 
3.471965668675e-03 1.594755369821e-01 0.0 
4.001231095542e-03 1.594811850525e-01 0.0 
4.507861476929e-03 1.594621604245e-01 0.0 
4.987312159019e-03 1.594057634720e-01 0.0 
5.434523886431e-03 1.592958886745e-01 0.0 
5.844366299501e-03 1.591125223385e-01 0.0 
6.211997074719e-03 1.588307583722e-01 0.0 
6.533144724425e-03 1.584200619353e-01 0.0 
6.804347731706e-03 1.578433060001e-01 0.0 
7.022966118274e-03 1.570517236324e-01 0.0 
7.191857959832e-03 1.559846117132e-01 0.0 
7.320565819375e-03 1.545602756268e-01 0.0 
7.436775427258e-03 1.526744002586e-01 0.0 
7.594970668695e-03 1.501996584893e-01 0.0 
7.765228689571e-03 1.468949005348e-01 0.0 
9.827460238877e-03 1.428560439464e-01 0.0 
9.271711525538e-03 1.450134331788e-01 0.0 
8.751065251578e-03 1.466308018760e-01 0.0 
8.282282745251e-03 1.478670613824e-01 0.0 
7.831418625010e-03 1.487841447312e-01 0.0 
7.386446693724e-03 1.494633754543e-01 0.0 
6.934217363656e-03 1.499516890681e-01 0.0 
6.470444236418e-03 1.502953973455e-01 0.0 
5.992774882699e-03 1.505270980764e-01 0.0 
5.500673072549e-03 1.506734995729e-01 0.0 
4.994281144605e-03 1.507563109943e-01 0.0 
4.474126489256e-03 1.507933296936e-01 0.0 
3.942104215586e-03 1.507991724165e-01 0.0 
3.400102050636e-03 1.507852909783e-01 0.0 
2.849745844388e-03 1.507603662642e-01 0.0 
2.292413421672e-03 1.507314596880e-01 0.0 
1.729214294150e-03 1.507032471377e-01 0.0 
1.159752691914e-03 1.506758622479e-01 0.0 
5.811423426064e-04 1.506269190950e-01 0.0 
5.878679297067e-04 1.415326245736e-01 0.0 
1.178828189082e-03 1.415427863025e-01 0.0 
1.766410660673e-03 1.415721411869e-01 0.0 
2.352274641303e-03 1.416033656275e-01 0.0 
2.936338509210e-03 1.416347943336e-01 0.0 
3.520036529282e-03 1.416606439406e-01 0.0 
4.103172107388e-03 1.416738927077e-01 0.0 
4.687424349204e-03 1.416649348662e-01 0.0 
5.271349006356e-03 1.416221211310e-01 0.0 
5.857242823514e-03 1.415261151997e-01 0.0 
6.448058759840e-03 1.413572343324e-01 0.0 
7.046183253238e-03 1.410916239695e-01 0.0 
7.656652177912e-03 1.406976493255e-01 0.0 
8.287417258465e-03 1.401380270242e-01 0.0 
8.943240233392e-03 1.393498532900e-01 0.0 
9.651013849923e-03 1.382912020246e-01 0.0 
1.038698591423e-02 1.368544292638e-01 0.0 
1.017417088204e-02 1.292326498560e-01 0.0 
9.381481896116e-03 1.301503067529e-01 0.0 
8.607267357906e-03 1.308027490246e-01 0.0 
7.880491038931e-03 1.312827300610e-01 0.0 
7.188283475314e-03 1.316187366099e-01 0.0 
6.522446445120e-03 1.318443086297e-01 0.0 
5.878796526061e-03 1.319886379182e-01 0.0 
5.253494896851e-03 1.320680700123e-01 0.0 
4.640625409326e-03 1.320989625503e-01 0.0 
4.041473758265e-03 1.321068994159e-01 0.0 
3.449934989899e-03 1.320919580387e-01 0.0 
2.867176238968e-03 1.320685082009e-01 0.0 
2.287706771343e-03 1.320372364055e-01 0.0 
1.712989347348e-03 1.320084301862e-01 0.0 
1.141261180726e-03 1.319777779705e-01 0.0 
5.680506155782e-04 1.319322896358e-01 0.0 
-8.632949327002e-03 1.057205233915e-01 0.0 
-5.812993549002e-03 1.142916898325e-01 0.0 
-2.651183400312e-03 1.229982112239e-01 0.0 
8.101312299049e-04 1.309048144274e-01 0.0 
4.355882012120e-03 1.372823600899e-01 0.0 
7.547214363273e-03 1.413004593942e-01 0.0 
9.825200823526e-03 1.414659875460e-01 0.0 
1.103325209855e-02 1.377489604840e-01 0.0 
1.122903999642e-02 1.316894255932e-01 0.0 
1.073532920278e-02 1.240294632557e-01 0.0 
-1.759656623426e-03 1.125155145386e-01 0.0 
2.552388267634e-03 8.033822491512e-03 0.0 
-9.344811357161e-04 8.047391572656e-02 0.0 
-3.539457840766e-03 8.681263409852e-02 0.0 
1.645266392413e-03 7.508240926370e-03 0.0 
5.299022043377e-03 1.267954907904e-01 0.0 
5.312401613687e-04 5.810764294938e-02 0.0 
3.207068565116e-03 8.737215370971e-03 0.0 
1.097996517182e-02 1.340477798304e-01 0.0 
3.424638066608e-03 9.350174910884e-03 0.0 
1.264539106347e-02 1.292348059474e-01 0.0 
9.171878418985e-04 6.715395764902e-03 0.0 
-4.754072489938e-05 7.866814369307e-02 0.0 
3.263652781383e-03 1.040761701036e-02 0.0 
1.128502672619e-02 1.147399034760e-01 0.0 
3.595135283708e-04 7.067691137630e-02 0.0 
5.601919652452e-04 4.545374884322e-02 0.0 
2.918185643878e-03 1.146437715328e-02 0.0 
1.979613959759e-03 1.145750996470e-02 0.0 
5.544273804183e-04 1.187620017327e-02 0.0 
1.026758287126e-03 1.283931355077e-02 0.0 
1.386987525507e-03 1.139802132845e-02 0.0 
9.151395855042e-03 1.115655783662e-01 0.0 
5.933582265646e-03 1.125664549076e-01 0.0 
3.884875558804e-03 1.124411977887e-01 0.0 
3.756674965244e-04 7.168844664463e-02 0.0 
5.486103882870e-04 7.199077621351e-03 0.0 
-5.791915998183e-03 9.528693239541e-02 0.0 
9.162113692679e-05 7.817247470737e-02 0.0 
3.900320332485e-04 2.702505920674e-02 0.0 
1.995264139637e-03 1.130831051494e-01 0.0 
1.917744092194e-04 7.614849266904e-02 0.0 
2.744300180763e-03 1.298693525650e-02 0.0 
3.114479360542e-03 8.325712066275e-03 0.0 
3.365218982834e-03 9.748230171939e-03 0.0 
3.095214732674e-03 8.867143637906e-03 0.0 
2.074249756420e-03 7.403001246718e-03 0.0 
-2.230577541962e-03 8.342391131775e-02 0.0 
7.454798275993e-03 1.128305320699e-01 0.0 
1.484130453483e-03 8.427290717292e-03 0.0 
2.780995127258e-04 4.757121375448e-02 0.0 
-3.882516331997e-04 7.935626553657e-02 0.0 
4.737411039369e-04 6.526272618187e-02 0.0 
2.730523912493e-04 9.668114547411e-03 0.0 
8.605617095006e-03 1.310431022077e-01 0.0 
1.724104428147e-03 1.201608161325e-01 0.0 
1.233560053622e-02 1.333347342752e-01 0.0 
1.221749947465e-02 1.228113575995e-01 0.0 
-5.292049876125e-03 1.049838048338e-01 0.0 
4.566042471622e-04 9.381670041888e-02 0.0 
2.523347712181e-04 5.678159201056e-03 0.0 
4.149370250133e-05 7.805847753131e-02 0.0 
1.504676487819e-04 2.170661136577e-02 0.0 
1.082324771497e-02 1.100272423377e-01 0.0 
1.161227322905e-02 1.049628618063e-01 0.0 
1.068290267831e-02 1.009130507279e-01 0.0 
1.159370289468e-02 9.491912993794e-02 0.0 
1.066709907315e-02 8.973320360139e-02 0.0 
1.133360043491e-02 8.426250841971e-02 0.0 
1.236795620822e-02 8.928401367587e-02 0.0 
1.191800660766e-02 7.866225382602e-02 0.0 
1.303697920273e-02 8.361222156201e-02 0.0 
1.026099987357e-02 7.879829470176e-02 0.0 
1.237616873712e-02 7.296199632094e-02 0.0 
1.356767191256e-02 7.782993721048e-02 0.0 
1.268433848106e-02 6.721825449231e-02 0.0 
1.392695071505e-02 7.198002355559e-02 0.0 
1.468252757264e-02 8.229233241296e-02 0.0 
1.508090918085e-02 7.636280789273e-02 0.0 
1.568989594674e-02 8.627704810748e-02 0.0 
1.610963965524e-02 8.024500574207e-02 0.0 
1.527467482179e-02 7.047037023810e-02 0.0 
1.630823067881e-02 7.428913167825e-02 0.0 
1.698177681848e-02 8.361006987756e-02 0.0 
1.716458775054e-02 7.759583674353e-02 0.0 
1.766053915218e-02 8.641773354633e-02 0.0 
1.781112737021e-02 8.034686638611e-02 0.0 
1.811699531882e-02 8.867214779793e-02 0.0 
1.822516121490e-02 8.258460148947e-02 0.0 
1.772887221642e-02 7.447684635532e-02 0.0 
1.810457057263e-02 7.676013894268e-02 0.0 
1.838274868304e-02 8.431349179865e-02 0.0 
1.822513944384e-02 7.857389507482e-02 0.0 
1.827154698898e-02 8.556739188564e-02 0.0 
1.808385613000e-02 7.994850326087e-02 0.0 
1.786610864186e-02 7.312264672058e-02 0.0 
1.770542860375e-02 7.466018471514e-02 0.0 
1.768269617856e-02 8.094168898167e-02 0.0 
1.729826692498e-02 7.585145303448e-02 0.0 
1.703369674333e-02 8.160198261234e-02 0.0 
1.666020778451e-02 7.673761618199e-02 0.0 
1.615970274908e-02 8.196957439161e-02 0.0 
1.580805785395e-02 7.736665190074e-02 0.0 
1.614043176703e-02 7.216032672574e-02 0.0 
1.531947171943e-02 7.303995272214e-02 0.0 
1.476836767781e-02 7.779637424577e-02 0.0 
1.432737651657e-02 7.374980226641e-02 0.0 
1.471065303857e-02 6.900714742004e-02 0.0 
1.377208558106e-02 6.999666536249e-02 0.0 
1.400012958451e-02 6.523493341105e-02 0.0 
1.312162303066e-02 6.649161919427e-02 0.0 
1.271631313196e-02 7.083351947002e-02 0.0 
1.213336791621e-02 6.759379135648e-02 0.0 
1.239507621949e-02 6.319051222284e-02 0.0 
1.147367035909e-02 6.457185192070e-02 0.0 
1.105720267544e-02 6.861543482500e-02 0.0 
1.048098853388e-02 6.582341201786e-02 0.0 
1.076095111757e-02 6.169174023167e-02 0.0 
9.842126039683e-03 6.319175177230e-02 0.0 
9.440822982821e-03 6.700315942231e-02 0.0 
8.883523005322e-03 6.459133556467e-02 0.0 
9.165096075729e-03 6.062975348793e-02 0.0 
8.277159575575e-03 6.227777318102e-02 0.0 
7.903445026681e-03 6.593108320585e-02 0.0 
7.375985983088e-03 6.381472108971e-02 0.0 
7.638825885659e-03 5.999533209694e-02 0.0 
6.805383826518e-03 6.175550114360e-02 0.0 
6.969857517823e-03 5.775735694851e-02 0.0 
6.462737043060e-03 6.531744466053e-02 0.0 
5.967848780197e-03 6.343270331794e-02 0.0 
5.566155749796e-03 6.677504762548e-02 0.0 
5.144431653537e-03 6.503747520954e-02 0.0 
1.732710019935e-02 6.795578700440e-02 0.0 
4.717587091010e-03 6.814424037180e-02 0.0 
5.035614248337e-03 6.968054160967e-02 0.0 
4.354019756639e-03 6.656617184374e-02 0.0 
4.676908497090e-03 6.329581002239e-02 0.0 
3.918814364769e-03 6.944294678785e-02 0.0 
3.607517431454e-03 6.801426360429e-02 0.0 
3.182570311765e-03 7.067055327956e-02 0.0 
1.631004780851e-02 8.711855139584e-02 0.0 
1.524984764000e-02 6.465227889313e-02 0.0 
2.916087880650e-03 6.938298441016e-02 0.0 
2.519509865099e-03 7.182349366248e-02 0.0 
2.681771312406e-03 7.295340007234e-02 0.0 
2.065563855345e-03 7.389254738266e-02 0.0 
9.671760409215e-03 8.435936187557e-02 0.0 
9.151682585357e-03 7.304328011890e-02 0.0 
8.657220266191e-03 7.867772848608e-02 0.0 
8.022452192608e-03 6.707689359936e-02 0.0 
7.621063284739e-03 7.268277738522e-02 0.0 
1.933195085712e-03 7.289739720385e-02 0.0 
1.137291666111e-02 6.179426830374e-02 0.0 
8.336341727341e-03 6.130767483727e-02 0.0 
1.726631391784e-02 9.266088414151e-02 0.0 
1.824578935310e-02 9.152071779304e-02 0.0 
1.473168465859e-02 6.381237890358e-02 0.0 
3.243063905429e-03 6.656360970417e-02 0.0 
2.591438077453e-03 6.806817121687e-02 0.0 
2.833023258069e-03 6.508094460288e-02 0.0 
7.706964595587e-03 5.572365154358e-02 0.0 
6.949209941317e-03 5.332439575731e-02 0.0 
7.568630673809e-03 5.099774286147e-02 0.0 
6.738703403872e-03 4.844251451311e-02 0.0 
7.219899673606e-03 4.581308599378e-02 0.0 
6.336772138271e-03 4.309931337600e-02 0.0 
5.918448192483e-03 4.589411757799e-02 0.0 
5.479057169230e-03 4.037967752819e-02 0.0 
5.116944149550e-03 4.333381738853e-02 0.0 
6.660535504545e-03 4.016089264491e-02 0.0 
7.607279689940e-03 4.303908880778e-02 0.0 
4.655720394186e-03 3.764318606770e-02 0.0 
4.342666083016e-03 4.074396271683e-02 0.0 
3.874863761214e-03 3.487064302656e-02 0.0 
3.603957320589e-03 3.811400236231e-02 0.0 
3.950734167167e-03 4.371060203617e-02 0.0 
3.251420558292e-03 4.122071253994e-02 0.0 
3.497582410849e-03 4.654579949056e-02 0.0 
1.388164096037e-02 6.001719403948e-02 0.0 
1.439309179225e-02 5.815104069213e-02 0.0 
1.341724321093e-02 5.433428353442e-02 0.0 
1.369216495634e-02 5.201955671364e-02 0.0 
1.260601613007e-02 4.817730140828e-02 0.0 
1.263000398169e-02 4.541774224250e-02 0.0 
1.144625027865e-02 4.154038556545e-02 0.0 
1.147523686922e-02 4.449532771186e-02 0.0 
1.282968055626e-02 6.139451278407e-02 0.0 
1.357658786650e-02 7.805101906735e-02 0.0 
1.382651274730e-02 8.211680592223e-02 0.0 
1.245346856562e-02 8.192611458963e-02 0.0 
1.248672548178e-02 8.599704168525e-02 0.0 
1.095532780045e-02 8.536919668361e-02 0.0 
1.074156457062e-02 8.946313510876e-02 0.0 
9.074667494992e-03 8.841586785902e-02 0.0 
9.377431452047e-03 8.468321468445e-02 0.0 
7.397664396600e-03 8.735279955248e-02 0.0 
7.791746035159e-03 8.399625288347e-02 0.0 
5.762264734996e-03 8.631419828194e-02 0.0 
6.238843709728e-03 8.335329261065e-02 0.0 
1.742904647742e-02 6.884061401808e-02 0.0 
1.376130609320e-02 4.945250586475e-02 0.0 
1.243441726166e-02 4.238720939328e-02 0.0 
1.360289394602e-02 4.659804148382e-02 0.0 
2.121963125398e-03 7.486826823225e-02 0.0 
2.907429649173e-03 3.543139811148e-02 0.0 
6.867370472627e-03 3.706079004708e-02 0.0 
7.880539230115e-03 4.015602710738e-02 0.0 
1.023320514556e-02 3.779869670228e-02 0.0 
1.538114768612e-03 7.475485579196e-02 0.0 
8.588415572679e-03 9.254010548795e-02 0.0 
1.031871972723e-02 9.398769682579e-02 0.0 
6.902186595380e-03 6.079724320272e-02 0.0 
6.594762158452e-03 6.643532519921e-02 0.0 
6.934061588544e-03 3.379196654253e-02 0.0 
1.426468772488e-03 7.388564492936e-02 0.0 
4.870134938631e-03 3.439767807272e-02 0.0 
5.083288270713e-03 8.964495981941e-02 0.0 
2.586215491594e-03 3.867767723155e-02 0.0 
2.259303250808e-03 3.269243623772e-02 0.0 
5.427181040963e-03 4.854388592815e-02 0.0 
1.200186606322e-02 3.905513693187e-02 0.0 
1.323060473876e-02 4.354682255654e-02 0.0 
8.030219646893e-03 8.095864995739e-02 0.0 
6.559049349165e-03 8.068493159333e-02 0.0 
4.766122164249e-03 8.277112863445e-02 0.0 
5.217749654442e-03 8.034288244571e-02 0.0 
6.748690264498e-03 7.821690130888e-02 0.0 
5.451271376338e-03 7.827456221980e-02 0.0 
3.949403390399e-03 8.014974989800e-02 0.0 
4.258289762558e-03 7.835674568838e-02 0.0 
5.577137329699e-03 7.631940244054e-02 0.0 
4.458508718485e-03 7.665804172946e-02 0.0 
3.187631907299e-03 7.847642305775e-02 0.0 
3.454729720281e-03 7.700166422092e-02 0.0 
2.470005304927e-03 2.916093732511e-02 0.0 
3.442602321833e-03 8.826269063093e-02 0.0 
1.506355363427e-02 9.229828601906e-02 0.0 
5.901641693754e-03 3.059260035193e-02 0.0 
9.961074483906e-03 3.451847358087e-02 0.0 
5.809516694614e-03 5.428370361310e-02 0.0 
5.592763291432e-03 5.996565224041e-02 0.0 
6.218329434510e-03 7.203676714137e-02 0.0 
5.300338477944e-03 6.558228464062e-02 0.0 
4.630717023913e-03 5.328669107761e-02 0.0 
4.420052766494e-03 5.896039551663e-02 0.0 
4.950047064612e-03 7.113283492673e-02 0.0 
4.144085629579e-03 6.455867159505e-02 0.0 
4.555663932626e-03 7.659123565838e-02 0.0 
3.816730076764e-03 7.006920421973e-02 0.0 
3.383358961174e-03 5.782455424311e-02 0.0 
3.118328579866e-03 6.341002833257e-02 0.0 
3.449643708530e-03 7.549786191174e-02 0.0 
2.805258872216e-03 6.891307644862e-02 0.0 
3.050688746677e-03 8.083251652320e-02 0.0 
2.452478082010e-03 7.432779995279e-02 0.0 
2.207655610079e-03 6.220055247906e-02 0.0 
1.117300114046e-03 7.547455502706e-02 0.0 
1.032147765987e-02 4.094953456775e-02 0.0 
9.010246235803e-03 3.416251875037e-02 0.0 
2.231736001619e-03 6.671146169648e-02 0.0 
2.408934039848e-03 6.355228446830e-02 0.0 
3.004424392551e-03 6.169464226191e-02 0.0 
2.484597086340e-03 6.000344958089e-02 0.0 
1.891898738037e-03 6.775605867397e-02 0.0 
1.662005849432e-03 5.537694521782e-02 0.0 
7.893933109205e-03 9.710816658949e-02 0.0 
9.659482701570e-03 9.898704096718e-02 0.0 
5.930525197906e-03 4.853812617705e-02 0.0 
1.960695727306e-03 3.607373317242e-02 0.0 
2.198036192127e-03 4.178596658969e-02 0.0 
1.789171945198e-02 9.217554540701e-02 0.0 
1.766253298920e-02 9.833879158915e-02 0.0 
1.705438830137e-02 9.840683701705e-02 0.0 
1.655809194120e-02 1.049053153967e-01 0.0 
1.717497206287e-02 1.048748094866e-01 0.0 
1.566450588454e-02 1.043774995093e-01 0.0 
8.579933654322e-03 4.603500686061e-02 0.0 
2.679552478661e-03 5.095312693192e-02 0.0 
2.768928863496e-03 7.407235855537e-02 0.0 
2.090432201296e-03 7.583730509164e-02 0.0 
1.667478768747e-03 2.988568727025e-02 0.0 
1.131059668195e-02 4.723206375935e-02 0.0 
1.683863985412e-02 6.600981522927e-02 0.0 
1.635801166988e-02 6.051353272727e-02 0.0 
1.554990575869e-02 5.714534329966e-02 0.0 
1.488576973375e-02 5.178257363428e-02 0.0 
1.385421289219e-02 4.788714924125e-02 0.0 
1.299756774615e-02 4.264614991169e-02 0.0 
1.403973770212e-02 4.662332810267e-02 0.0 
1.131244119415e-02 3.535496496927e-02 0.0 
1.196680055838e-02 3.756815609523e-02 0.0 
2.101629869740e-03 7.976051148469e-02 0.0 
1.482554391174e-02 5.373867204078e-02 0.0 
5.592331293213e-03 7.448246326667e-02 0.0 
1.149456194483e-03 7.618917744015e-02 0.0 
2.228233916620e-03 7.864986469748e-02 0.0 
1.003106623617e-03 7.477254690598e-02 0.0 
1.247662798106e-03 7.297680079567e-02 0.0 
5.747182197067e-03 2.696317268754e-02 0.0 
1.173407743060e-02 3.823411796383e-02 0.0 
1.261404032645e-02 4.355437063856e-02 0.0 
1.578824415049e-02 1.117883732405e-01 0.0 
1.640934194207e-02 1.117266078277e-01 0.0 
9.999786269517e-03 3.103190497581e-02 0.0 
8.095373714216e-03 8.431332656967e-02 0.0 
5.323020633526e-03 8.296495199327e-02 0.0 
4.833035778363e-03 8.826046105302e-02 0.0 
7.481654384768e-04 7.630416718728e-02 0.0 
1.845556979376e-03 7.992437326871e-02 0.0 
3.726378846527e-03 4.643977934690e-02 0.0 
1.195405903252e-02 9.540397653629e-02 0.0 
1.134619864840e-02 1.007681803925e-01 0.0 
2.462689137537e-03 9.156026309088e-02 0.0 
8.590331942744e-04 8.985097427394e-02 0.0 
1.398883932713e-03 6.088369629976e-02 0.0 
1.191241214985e-03 4.842307241252e-02 0.0 
3.085537607339e-03 5.790872396901e-02 0.0 
2.516060689473e-03 5.603755516820e-02 0.0 
6.836759096350e-03 3.031104555021e-02 0.0 
2.579363323309e-03 7.733572041258e-02 0.0 
1.366821454424e-03 4.265361615589e-02 0.0 
1.021765281558e-02 4.386628947714e-02 0.0 
1.097352816721e-02 4.976493271683e-02 0.0 
1.900528175270e-03 6.200083584815e-02 0.0 
6.919738022006e-03 1.021863902162e-01 0.0 
5.083904682612e-03 9.985221216990e-02 0.0 
6.726596471857e-03 7.389755765572e-02 0.0 
3.600916517831e-03 7.560359445610e-02 0.0 
8.361895669299e-04 7.398214413303e-02 0.0 
5.403932958659e-03 2.311873974433e-02 0.0 
3.774668096229e-03 4.064542383995e-02 0.0 
1.303301420442e-02 4.166804682300e-02 0.0 
1.485067004029e-02 5.021809283793e-02 0.0 
1.079094478094e-02 3.268630270207e-02 0.0 
1.503678622398e-03 7.871882777149e-02 0.0 
4.712672388764e-03 2.361411176999e-02 0.0 
1.385482071440e-03 3.340253579308e-02 0.0 
1.037237588870e-02 3.386972639389e-02 0.0 
1.118206886843e-02 3.879429230536e-02 0.0 
1.345997499892e-02 9.669849704998e-02 0.0 
1.295492163396e-02 1.023500474346e-01 0.0 
1.048466327306e-02 1.066497228261e-01 0.0 
1.213621455344e-02 1.085364308587e-01 0.0 
1.334405621060e-02 9.399342558292e-02 0.0 
1.483540154359e-02 9.773770951372e-02 0.0 
1.591756607146e-02 9.589939005129e-02 0.0 
1.507820109839e-02 1.019972298439e-01 0.0 
1.575521361703e-02 1.052311166604e-01 0.0 
1.745934113893e-02 1.043665774859e-01 0.0 
1.666459481931e-02 1.111462305169e-01 0.0 
1.391278270603e-02 8.656456632038e-02 0.0 
1.529229092104e-02 6.218811387345e-02 0.0 
3.641832333375e-03 5.973111183828e-02 0.0 
4.182423713425e-03 4.882951827872e-02 0.0 
8.398548282616e-03 5.357596294164e-02 0.0 
2.823223544739e-03 4.522093021370e-02 0.0 
2.130585786650e-03 3.813540645236e-02 0.0 
3.681443617579e-03 8.720825635245e-02 0.0 
3.215680532302e-03 9.236628137428e-02 0.0 
1.525784419414e-03 7.642138509949e-02 0.0 
1.387252754512e-03 7.724533231242e-02 0.0 
6.281556363659e-03 5.553787320122e-02 0.0 
4.920552365996e-03 2.740072132403e-02 0.0 
4.790717751552e-03 4.177840052391e-02 0.0 
4.698670562340e-03 3.592816464450e-02 0.0 
5.932865053416e-03 4.272122600855e-02 0.0 
6.548973435265e-03 2.660245404418e-02 0.0 
1.227878162725e-02 7.819143008777e-02 0.0 
1.296157674149e-02 5.643851763628e-02 0.0 
1.931800214827e-03 8.703902088579e-02 0.0 
1.725285672633e-02 6.590841368625e-02 0.0 
9.273928123140e-04 7.761380704387e-02 0.0 
1.406734025830e-02 6.044224393327e-02 0.0 
1.141460514929e-03 2.700850553504e-02 0.0 
1.321165779145e-03 2.320746760579e-02 0.0 
9.022497967861e-03 2.689294278207e-02 0.0 
1.232170608989e-02 1.094786830089e-01 0.0 
1.655923912646e-02 6.084535888197e-02 0.0 
1.663379069006e-02 6.308806620598e-02 0.0 
1.471704163307e-02 1.113534990236e-01 0.0 
1.519416587219e-02 1.142447477789e-01 0.0 
1.626968048973e-02 1.078668191578e-01 0.0 
1.548476159984e-02 1.165605643343e-01 0.0 
6.559731539329e-03 7.195473578147e-02 0.0 
5.502260666808e-03 7.276588586666e-02 0.0 
9.077672980734e-03 2.787929403588e-02 0.0 
9.540937101038e-03 2.839919245240e-02 0.0 
8.801928212294e-03 2.891023121525e-02 0.0 
9.585244842811e-03 3.355561781292e-02 0.0 
7.600180116576e-03 2.255261513778e-02 0.0 
8.630737649638e-03 2.682931852265e-02 0.0 
1.005745357864e-03 7.201804717179e-02 0.0 
1.537513226783e-02 1.187136409164e-01 0.0 
2.865713033376e-03 3.356345418298e-02 0.0 
1.410145213596e-02 1.079770376616e-01 0.0 
3.779048067425e-03 2.044861797120e-02 0.0 
4.007413030778e-03 2.420747881491e-02 0.0 
-5.565151654885e-04 8.836297938789e-02 0.0 
6.104578665965e-04 8.571214712843e-02 0.0 
9.357892819448e-04 3.578155434706e-02 0.0 
9.341140934551e-03 1.129625706651e-01 0.0 
1.096868402151e-02 1.151533664801e-01 0.0 
7.572584157808e-03 1.104273188614e-01 0.0 
1.725610984088e-04 1.217580724879e-02 0.0 
8.616664343414e-04 1.131815800981e-01 0.0 
8.573452667128e-04 2.012677495953e-02 0.0 
1.743560089912e-02 1.032176020099e-01 0.0 
1.002034486706e-03 2.934034490712e-02 0.0 
1.572972780607e-02 5.607416842567e-02 0.0 
1.724170202850e-02 9.250924383581e-02 0.0 
7.970242444511e-03 3.368798794689e-02 0.0 
7.613861086296e-04 4.269643668460e-02 0.0 
5.611531301849e-04 2.823736404744e-02 0.0 
5.536978905256e-03 9.423812031760e-02 0.0 
4.993259272975e-03 9.954734941025e-02 0.0 
6.106197606214e-03 8.916242048747e-02 0.0 
4.236401148468e-03 9.338027417144e-02 0.0 
9.671672790182e-04 9.586505481694e-02 0.0 
2.042591347882e-03 4.395131953865e-02 0.0 
2.005292253277e-03 6.948457215152e-02 0.0 
1.652782053296e-03 6.795207405573e-02 0.0 
2.735939471938e-03 7.620827074826e-02 0.0 
3.615359554827e-03 7.432245681621e-02 0.0 
3.695745626068e-03 5.572928477330e-02 0.0 
4.296102456905e-03 5.768116607422e-02 0.0 
1.380196437297e-02 5.468805274140e-02 0.0 
1.246952213616e-02 5.012136910930e-02 0.0 
1.602010538584e-02 6.273976364428e-02 0.0 
9.944737054248e-03 4.657588717054e-02 0.0 
1.048978897722e-02 5.211395450104e-02 0.0 
1.143819323882e-02 5.516802557834e-02 0.0 
2.163336410960e-03 3.268054933826e-02 0.0 
1.439674943402e-03 2.429946245573e-02 0.0 
7.666910313787e-03 7.117476761500e-02 0.0 
7.917740079974e-03 7.334107451953e-02 0.0 
6.292941619557e-03 7.018386101302e-02 0.0 
2.746145695402e-03 2.788370959128e-02 0.0 
9.489734279543e-04 1.624324788192e-02 0.0 
1.409104915887e-03 1.952579730020e-02 0.0 
7.036133934535e-04 7.827078198982e-02 0.0 
1.158813586078e-03 7.806520341324e-02 0.0 
3.830929748605e-03 1.049362559368e-01 0.0 
1.906707412223e-03 1.022452928931e-01 0.0 
4.529515116771e-03 3.053232772050e-02 0.0 
5.807345378312e-03 3.695584716844e-02 0.0 
3.210250601042e-03 2.302058810893e-02 0.0 
5.994150534016e-04 7.324416103478e-02 0.0 
1.383584464262e-02 4.525315201542e-02 0.0 
4.979058900619e-03 1.944690129057e-02 0.0 
6.189617524899e-03 2.310369917638e-02 0.0 
3.635213235629e-03 1.492682963578e-02 0.0 
1.045194750059e-02 3.161970126235e-02 0.0 
7.910710827158e-03 2.283900869744e-02 0.0 
8.080311610014e-03 2.326484364592e-02 0.0 
-1.881213186584e-03 9.100387054320e-02 0.0 
4.243438758162e-04 3.369016848043e-02 0.0 
3.818798473023e-03 9.854093702160e-02 0.0 
-2.789380366521e-03 8.949952165971e-02 0.0 
3.298914235597e-03 1.038986543946e-01 0.0 
2.756865755190e-03 9.750487061715e-02 0.0 
2.853017468584e-03 1.091080521726e-01 0.0 
4.968645773534e-04 7.489385246924e-02 0.0 
6.291743174502e-03 1.020593253831e-01 0.0 
6.946942002601e-03 9.563060732655e-02 0.0 
2.196900879124e-04 7.910607315308e-02 0.0 
1.856547665353e-03 2.074367451709e-02 0.0 
3.929547527586e-04 7.840337769158e-02 0.0 
6.075748724098e-04 7.788360804052e-02 0.0 
2.896969294203e-03 1.699572049083e-02 0.0 
3.164964262756e-03 2.095803543022e-02 0.0 
2.104463293890e-03 1.366159163183e-02 0.0 
2.456944631202e-03 1.806443293782e-02 0.0 
3.301448781369e-03 2.489508898653e-02 0.0 
2.568972559748e-03 2.175808174054e-02 0.0 
4.474487002125e-03 1.055137762326e-01 0.0 
1.684933619000e-03 1.369423503351e-02 0.0 
1.903118879615e-03 1.841383108048e-02 0.0 
1.108907499481e-03 1.053821836227e-02 0.0 
1.416884156363e-02 1.229937635166e-01 0.0 
1.346973602388e-02 1.102470165946e-01 0.0 
1.232647470747e-02 1.172035558429e-01 0.0 
9.331233856916e-03 1.226239498911e-01 0.0 
6.490474647334e-03 2.124551375825e-02 0.0 
8.007563677293e-03 2.849858415583e-02 0.0 
8.639516138254e-04 3.052331836764e-02 0.0 
9.880646250430e-04 3.664327379646e-02 0.0 
2.277059632277e-03 1.033735220521e-01 0.0 
1.662063783388e-03 1.038199615150e-01 0.0 
1.813042413498e-03 9.367886935913e-02 0.0 
1.308124089629e-03 9.492135766189e-02 0.0 
1.401402942034e-03 8.468059722086e-02 0.0 
9.018361137599e-04 8.599755711816e-02 0.0 
1.068086193463e-03 7.546518067280e-02 0.0 
6.552193588669e-03 1.856327659040e-02 0.0 
5.894120211784e-03 1.166800250144e-01 0.0 
1.353972538347e-02 1.173629505923e-01 0.0 
6.130679451123e-03 1.830276877911e-02 0.0 
7.434525634183e-03 2.343127555749e-02 0.0 
1.559631675629e-02 1.180163119071e-01 0.0 
1.399726113743e-02 1.260358476423e-01 0.0 
3.128718667582e-03 1.523575674444e-02 0.0 
1.509073324631e-02 9.223482713783e-02 0.0 
1.395388150230e-03 1.327272771931e-02 0.0 
-6.465521400559e-03 9.893829621622e-02 0.0 
-2.821460846907e-03 9.669470572159e-02 0.0 
1.624268646657e-02 9.270208792316e-02 0.0 
1.659133588409e-02 1.098666837523e-01 0.0 
1.474367124054e-02 1.113658131013e-01 0.0 
1.382060226757e-02 1.182715038222e-01 0.0 
9.117719648767e-03 4.049226765628e-02 0.0 
7.919774754156e-04 7.894501246499e-02 0.0 
5.727515421061e-03 1.076991135474e-01 0.0 
1.553060638469e-03 7.427958824914e-02 0.0 
2.206024705702e-03 1.103021150299e-01 0.0 
4.529857459743e-04 3.334515361357e-02 0.0 
1.519239627155e-02 8.697458745845e-02 0.0 
1.800954819124e-02 9.669576540247e-02 0.0 
8.749683544338e-03 1.044468032554e-01 0.0 
1.448482245833e-02 1.035085539961e-01 0.0 
1.409931605156e-02 8.820521153803e-02 0.0 
1.249507280322e-02 9.960479092968e-02 0.0 
1.330602657421e-02 1.041002453313e-01 0.0 
1.507156434925e-02 8.218743655008e-02 0.0 
1.479379476905e-02 1.187703631593e-01 0.0 
1.241911371797e-02 1.259596482584e-01 0.0 
1.656841172156e-02 8.975988392874e-02 0.0 
7.219433687038e-03 4.927037713960e-02 0.0 
7.174663274050e-03 4.342145140005e-02 0.0 
5.567184389699e-03 3.151748658320e-02 0.0 
6.976928650675e-03 3.767222592605e-02 0.0 
8.580691384098e-03 4.969916610768e-02 0.0 
8.466726859617e-03 4.389435748996e-02 0.0 
6.609142286992e-03 3.209163090303e-02 0.0 
8.177190179530e-03 3.814569525245e-02 0.0 
5.552145852967e-03 2.403576471726e-02 0.0 
7.623277260080e-03 3.220090582244e-02 0.0 
9.759789578418e-03 4.421755764774e-02 0.0 
9.369507838643e-03 3.873782739234e-02 0.0 
7.217439963184e-03 2.806423365272e-02 0.0 
1.135402498569e-02 5.053491830532e-02 0.0 
4.862810034175e-03 1.386915377227e-02 0.0 
1.722385550764e-02 8.693610126656e-02 0.0 
-4.656406931261e-04 9.314015387776e-02 0.0 
-1.325514313455e-03 9.951822580034e-02 0.0 
1.775775567519e-02 9.496328178409e-02 0.0 
2.727112547277e-03 1.169790378469e-02 0.0 
2.237043905913e-03 1.172125524601e-02 0.0 
1.232069148953e-02 9.049619560895e-02 0.0 
3.325345108035e-03 1.004713269562e-02 0.0 
1.424685149010e-02 9.825986041528e-02 0.0 
6.809555866667e-03 9.110772139143e-02 0.0 
3.450089400040e-03 9.665616177370e-03 0.0 
8.531099268490e-03 5.549485613816e-02 0.0 
9.846562491316e-03 6.166504643039e-02 0.0 
9.555356385803e-03 6.739634194290e-02 0.0 
1.717112485848e-03 1.105846035464e-02 0.0 
6.660642104928e-03 8.386703607567e-02 0.0 
3.064081952597e-03 8.245540428069e-03 0.0 
1.471376035018e-02 5.605627583099e-02 0.0 
1.565644623104e-02 6.041253760925e-02 0.0 
1.608855408291e-02 6.653200710860e-02 0.0 
9.974806792794e-03 5.014880743256e-02 0.0 
2.695586068053e-03 8.059504909772e-03 0.0 
4.826003027153e-03 1.527848385274e-02 0.0 
4.495487462421e-03 1.502161850302e-02 0.0 
6.704107345323e-03 2.257406474711e-02 0.0 
2.327712648907e-03 7.757400061111e-03 0.0 
2.818302363949e-03 1.022120454749e-02 0.0 
2.826080961449e-03 9.547876985538e-03 0.0 
6.791229075566e-03 7.598743182177e-02 0.0 
8.078799153822e-03 7.565543438893e-02 0.0 
9.146070600973e-03 7.277319099849e-02 0.0 
9.395172576578e-03 7.535918705930e-02 0.0 
8.120174858980e-03 7.819565155209e-02 0.0 
9.523106452678e-03 7.818770296642e-02 0.0 
1.070279640806e-02 7.508073003525e-02 0.0 
9.516123889251e-03 8.129900685745e-02 0.0 
1.039624308975e-02 3.926339862958e-02 0.0 
1.902355506679e-03 7.269353669439e-03 0.0 
8.118870783808e-03 4.855360406275e-02 0.0 
9.021332861540e-03 5.138429944751e-02 0.0 
9.212828027344e-03 5.623885899842e-02 0.0 
4.174486532069e-03 6.152183091798e-02 0.0 
4.878186475263e-03 5.961665634467e-02 0.0 
4.948873617835e-03 5.552663127628e-02 0.0 
3.488482043117e-03 6.335045281662e-02 0.0 
1.568838531693e-02 5.525121308255e-02 0.0 
1.729678727786e-03 7.246514032548e-03 0.0 
1.198729528549e-02 5.302674158681e-02 0.0 
5.437498018309e-03 6.153717761957e-02 0.0 
8.291663528811e-03 1.122569187119e-01 0.0 
8.772845583917e-03 1.028254940577e-01 0.0 
9.645068559996e-03 1.021077024714e-01 0.0 
9.085303338104e-03 9.162436865050e-02 0.0 
7.804696839163e-03 1.019633762275e-01 0.0 
3.087547068353e-03 5.372538583764e-02 0.0 
2.478984455688e-03 5.167457598335e-02 0.0 
1.936879559695e-03 5.411803566956e-02 0.0 
1.875859744166e-03 4.956791065521e-02 0.0 
1.355564069778e-03 5.212621293113e-02 0.0 
1.400234760538e-03 5.634870358490e-02 0.0 
1.271795825358e-03 4.739722214605e-02 0.0 
7.844628400501e-04 5.060957865842e-02 0.0 
6.672509403270e-03 1.128044886069e-01 0.0 
-2.807238298642e-03 8.496341690766e-02 0.0 
-9.590391050954e-04 8.364440657979e-02 0.0 
-6.978624558375e-04 8.231084451472e-02 0.0 
5.239984544519e-04 8.224910097243e-02 0.0 
5.481088093243e-04 8.360833066465e-02 0.0 
2.207432618443e-03 8.176059889815e-02 0.0 
2.081925861570e-03 8.349356817065e-02 0.0 
-1.278973373058e-03 8.537328240487e-02 0.0 
-1.726409934873e-03 8.222387473388e-02 0.0 
-4.281178706560e-04 8.125207674192e-02 0.0 
-1.293248933431e-03 8.124812508550e-02 0.0 
-2.481202814464e-04 8.043038794569e-02 0.0 
8.654339545559e-04 8.000079070029e-02 0.0 
1.995534153508e-03 7.676419007123e-02 0.0 
4.876373919900e-04 8.175074494147e-03 0.0 
5.109122925990e-04 6.191701446904e-02 0.0 
9.711179861770e-04 6.366054770219e-02 0.0 
8.870531485267e-04 6.668914407241e-02 0.0 
1.432075473606e-03 6.513388180741e-02 0.0 
9.777194819702e-04 6.046313399408e-02 0.0 
4.206587785128e-04 6.817098831172e-02 0.0 
7.950858298697e-04 6.912429903025e-02 0.0 
7.802173724549e-05 7.809209597907e-02 0.0 
1.519376472647e-04 7.774516274023e-02 0.0 
5.764095246147e-05 7.776001566361e-02 0.0 
2.017056589469e-04 7.711398842532e-02 0.0 
3.223279262394e-04 7.717961267822e-02 0.0 
2.266968013447e-04 7.779567859996e-02 0.0 
2.825767055130e-04 7.789195809422e-02 0.0 
7.820120201816e-05 7.829594195909e-02 0.0 
3.201116528590e-04 7.802512016285e-02 0.0 
5.660652318693e-04 7.731281232168e-02 0.0 
3.616246418344e-05 7.845859158955e-02 0.0 
3.396673787135e-04 5.955819514432e-02 0.0 
6.471833620933e-04 5.338015962804e-02 0.0 
1.489066528512e-03 7.570446886646e-03 0.0 
5.167933289388e-03 1.121334080481e-01 0.0 
-6.145925090029e-04 7.985277081759e-02 0.0 
5.205548485870e-04 1.426682308231e-02 0.0 
7.980363136149e-04 1.184194165004e-02 0.0 
6.462081437721e-04 1.147237418430e-02 0.0 
2.846864977617e-04 1.983638039974e-02 0.0 
4.624897744660e-04 1.630757127799e-02 0.0 
2.779381662325e-04 1.386804961444e-02 0.0 
3.380129296479e-03 7.194174095545e-02 0.0 
5.165396079199e-03 2.619858791503e-02 0.0 
1.479729059620e-03 3.680110171639e-02 0.0 
6.075384276186e-03 9.521908863719e-02 0.0 
4.517239885073e-03 7.355835353730e-02 0.0 
1.566648879372e-03 3.926472511966e-02 0.0 
4.678452299519e-03 4.613486762613e-02 0.0 
1.861636317231e-03 2.627770603715e-02 0.0 
2.834478570085e-03 4.419273839525e-02 0.0 
3.143811916438e-03 3.204226479354e-02 0.0 
4.273392408622e-03 1.527182020184e-02 0.0 
6.722065284793e-04 7.552096407778e-02 0.0 
4.129689416175e-03 8.194792295779e-02 0.0 
2.652134672612e-03 8.612045124684e-02 0.0 
2.471132655946e-03 5.661851022135e-02 0.0 
2.290809973126e-03 7.067130843557e-02 0.0 
1.965280544610e-03 5.805310363515e-02 0.0 
1.579263362134e-03 7.558500837354e-02 0.0 
6.212742561913e-03 1.848417605809e-02 0.0 
1.661076344888e-02 9.898837144098e-02 0.0 
8.448305639743e-03 5.815673746781e-02 0.0 
3.941695441881e-03 6.496986326594e-02 0.0 
4.172387709363e-03 7.083519521079e-02 0.0 
4.544792082439e-03 7.505428119208e-02 0.0 
1.788581440243e-02 8.641554837967e-02 0.0 
6.207419879374e-03 5.969353991213e-02 0.0 
5.745176916829e-03 3.728693449257e-02 0.0 
1.883714294588e-03 4.970298070494e-02 0.0 
-1.249710262594e-04 7.892535174438e-02 0.0 
5.893523242838e-03 3.402902419288e-02 0.0 
6.187004075849e-03 5.093777945798e-02 0.0 
5.791368251470e-03 7.756539793925e-02 0.0 
1.120810702689e-02 3.835297161589e-02 0.0 
2.850552642847e-03 7.994925441128e-02 0.0 
3.591687528195e-03 5.218316095926e-02 0.0 
3.603468002784e-03 2.970463314774e-02 0.0 
7.518807515428e-03 8.993261761615e-02 0.0 
1.065282841526e-03 7.693781657139e-02 0.0 
4.342704474672e-03 9.361492020401e-02 0.0 
4.317621261781e-03 1.961155353687e-02 0.0 
7.117627209288e-03 5.505062877621e-02 0.0 
1.733301663216e-03 7.187118988331e-02 0.0 
1.320827434516e-02 6.169012017496e-02 0.0 
1.831864553393e-02 9.035067824340e-02 0.0 
1.183170139668e-02 1.189280276478e-01 0.0 
1.533083201834e-03 3.136517154859e-02 0.0 
1.716298903388e-02 6.969583793277e-02 0.0 
8.665283480365e-03 3.059509857303e-02 0.0 
1.238367542083e-02 5.070384227073e-02 0.0 
1.479568551020e-03 7.075957242449e-02 0.0 
4.097309272547e-03 2.793293187300e-02 0.0 
1.549023910152e-02 6.784640231174e-02 0.0 
2.896370304828e-03 3.949887789782e-02 0.0 
1.452443240759e-02 5.332628547449e-02 0.0 
1.320223804177e-02 7.431216665237e-02 0.0 
4.760563171397e-03 4.756464505475e-02 0.0 
1.000190616948e-02 5.893585800271e-02 0.0 
1.072822227850e-02 3.485036610057e-02 0.0 
1.713754751386e-02 1.013994598825e-01 0.0 
1.711261924308e-02 7.171522848967e-02 0.0 
1.411212829722e-02 6.624075460810e-02 0.0 
1.777327126894e-02 7.119471081253e-02 0.0 
1.067819776589e-03 4.234568130891e-02 0.0 
4.966482640299e-03 3.099357311499e-02 0.0 
4.222422441168e-03 8.540235446402e-02 0.0 
1.611590773489e-02 9.821283868442e-02 0.0 
7.155844565736e-03 7.827716875699e-02 0.0 
1.075858755068e-02 3.340564941046e-02 0.0 
2.048809799045e-03 2.636983573309e-02 0.0 
1.798318435739e-02 9.778427212646e-02 0.0 
4.047120107493e-03 3.149652019866e-02 0.0 
3.744407742309e-03 3.519671999076e-02 0.0 
5.586219253315e-03 5.762589468589e-02 0.0 
2.403192996444e-04 7.466963237351e-02 0.0 
3.263366208527e-03 9.755222038742e-02 0.0 
1.100353328885e-02 8.164097785123e-02 0.0 
1.676228658901e-02 7.107491104467e-02 0.0 
5.584428589970e-03 5.330064764275e-02 0.0 
3.993764036660e-03 2.343312026317e-02 0.0 
3.280858292674e-03 2.855098844517e-02 0.0 
8.003885551697e-03 3.703310955036e-02 0.0 
-3.462583484564e-03 1.086309605265e-01 0.0 
1.301662868342e-02 1.135452265107e-01 0.0 
2.579008445671e-03 2.554641896918e-02 0.0 
1.235077997484e-02 5.834868187443e-02 0.0 
9.432193211486e-03 3.086928598586e-02 0.0 
8.496955167657e-04 5.463338409977e-02 0.0 
6.318385074474e-03 1.826018403808e-02 0.0 
1.429454429984e-02 1.246772018977e-01 0.0 
1.947125596767e-03 2.247609602092e-02 0.0 
9.158057037070e-03 3.742204031587e-02 0.0 
1.379234257014e-02 9.141202939746e-02 0.0 
1.429608202132e-03 1.131882130114e-01 0.0 
1.232354515104e-03 1.410943690427e-02 0.0 
7.733031323877e-03 3.012653032493e-02 0.0 
1.692919190345e-02 6.343901198634e-02 0.0 
1.160344435036e-02 6.008655759060e-02 0.0 
1.253255595657e-02 1.262762467542e-01 0.0 
4.881702674776e-03 5.105599194844e-02 0.0 
1.628227818150e-02 6.847634909230e-02 0.0 
1.487366528992e-03 1.082875561954e-02 0.0 
7.425080927875e-03 2.691851180837e-02 0.0 
1.076261463722e-02 7.341817085563e-02 0.0 
4.300398803281e-03 5.345723708822e-02 0.0 
1.474384462723e-02 5.133958842614e-02 0.0 
4.453262369561e-04 7.724079113660e-02 0.0 
1.392564648324e-02 1.203840295528e-01 0.0 
3.647934406418e-03 5.133557837270e-02 0.0 
1.091358309837e-02 7.822474903469e-02 0.0 
1.076645119641e-02 5.712598658687e-02 0.0 
6.480305669055e-03 1.849307727474e-02 0.0 
3.003840559851e-03 4.916307659308e-02 0.0 
1.198323732162e-02 7.472925535349e-02 0.0 
2.372486747634e-03 4.693861954027e-02 0.0 
1.263916999353e-02 1.315730572926e-01 0.0 
1.113084651351e-02 6.747444156953e-02 0.0 
1.736083556129e-03 4.465075409582e-02 0.0 
1.500096103870e-02 5.894698125066e-02 0.0 
6.889455571160e-04 7.740597645237e-02 0.0 
1.625242467019e-02 5.830260821627e-02 0.0 
6.710155609332e-04 2.359842436199e-02 0.0 
5.951247974024e-03 6.847338874617e-02 0.0 
9.908272017287e-03 5.427989196488e-02 0.0 
9.989194053897e-03 5.588072665841e-02 0.0 
1.178180072460e-02 1.343152645274e-01 0.0 
9.548923284292e-03 4.908584831991e-02 0.0 
1.331650415945e-02 4.909436673009e-02 0.0 
1.541742233379e-02 5.338102522237e-02 0.0 
1.647507945795e-02 6.495960613757e-02 0.0 
8.914203090678e-03 4.333234095327e-02 0.0 
1.351140165781e-02 1.259361763127e-01 0.0 
3.491379271818e-03 7.320632769278e-02 0.0 
2.787808627071e-03 7.513305115927e-02 0.0 
1.157057503442e-02 7.155375257425e-02 0.0 
1.192050552927e-02 4.435670484837e-02 0.0 
3.964974037726e-04 7.631078645071e-02 0.0 
1.144007800414e-02 5.598768205724e-02 0.0 
1.792398303582e-03 7.773573848596e-02 0.0 
1.037334206234e-02 7.219166566729e-02 0.0 
1.255301227161e-02 3.986951537355e-02 0.0 
4.080063385361e-04 8.306888043760e-02 0.0 
9.947891400728e-03 6.950387371066e-02 0.0 
2.933994889276e-04 7.285230291682e-02 0.0 
8.806855681439e-03 7.037279664431e-02 0.0 
1.579796469515e-02 5.835018067592e-02 0.0 
8.393157659743e-03 6.807679533747e-02 0.0 
7.332691929699e-03 6.914011207067e-02 0.0 
1.021258159685e-03 2.411426118185e-02 0.0 
6.928779940459e-03 6.718892474043e-02 0.0 
1.344891810058e-04 1.150129179607e-02 0.0 
2.031515618693e-04 7.433011400492e-03 0.0 
5.386195497379e-04 1.051369510923e-01 0.0 
9.330183136572e-03 1.344797340641e-01 0.0 
-5.007996544276e-03 9.188518259204e-02 0.0 
1.147646487898e-02 1.231177749279e-01 0.0 
5.307958705264e-03 7.120056195247e-02 0.0 
1.277759344154e-02 5.580425858409e-02 0.0 
1.119254466921e-03 1.046405963567e-01 0.0 
4.370488837779e-03 7.219542548016e-02 0.0 
5.278538077794e-03 2.070467934795e-02 0.0 
3.187139336905e-03 8.571030107561e-03 0.0 
7.346956192796e-04 6.500655194645e-02 0.0 
8.224570715631e-03 2.736331628639e-02 0.0 
1.438354650202e-02 4.834257027933e-02 0.0 
2.091913504327e-04 3.498440160519e-02 0.0 
3.319302205463e-03 1.140100761568e-01 0.0 
-7.715997841586e-05 7.976543845245e-02 0.0 
5.144809126381e-04 3.936504322883e-02 0.0 
6.225295738979e-03 1.304240292071e-01 0.0 
7.540495175948e-03 1.196941713855e-01 0.0 
3.942939231303e-03 1.136049712182e-01 0.0 
1.155492532983e-03 6.983902085134e-02 0.0 
5.718228329748e-04 8.111532078004e-02 0.0 
3.594106193382e-03 1.235447791058e-01 0.0 
5.244127813074e-03 1.602856456968e-02 0.0 
5.594748391705e-03 1.043589751725e-01 0.0 
1.190015075351e-02 3.692620496875e-02 0.0 
1.094412142222e-05 1.163238446641e-01 0.0 
2.583211298736e-03 2.305168125870e-02 0.0 
6.277555286582e-03 1.751257959834e-02 0.0 
1.039445100197e-03 6.607472973309e-03 0.0 
9.370500169600e-03 2.758034567171e-02 0.0 
2.399575479400e-04 1.069936497902e-01 0.0 
8.292107435712e-03 9.424497168442e-02 0.0 
6.072712789996e-03 1.876139471021e-02 0.0 
9.930287621529e-04 5.516700747617e-02 0.0 
7.438604288327e-04 6.305282811120e-03 0.0 
7.053413308751e-03 1.050820846621e-01 0.0 
6.205107853684e-04 2.252089032802e-02 0.0 
2.870061188100e-03 8.462943669316e-02 0.0 
3.104961851640e-04 2.186050788668e-02 0.0 
1.097597205452e-02 4.476030108327e-02 0.0 
2.281715158904e-03 9.131550419787e-02 0.0 
9.983097744857e-03 9.383653272127e-02 0.0 
5.596910554618e-04 1.285147827058e-02 0.0 
4.616618029259e-03 2.146040059001e-02 0.0 
-1.602681789394e-03 1.032839372035e-01 0.0 
1.152721348217e-03 6.623037620104e-02 0.0 
1.932117076330e-03 6.514432427829e-02 0.0 
-2.044458250414e-03 8.746955539312e-02 0.0 
2.592540690685e-03 1.382295682616e-02 0.0 
8.835345752150e-03 3.380160173205e-02 0.0 
9.374983070506e-04 1.313660246908e-02 0.0 
8.391643853537e-05 7.716011254504e-02 0.0 
1.253204700571e-04 7.887214171281e-02 0.0 
2.925572671098e-03 1.297899305620e-02 0.0 
5.390889583884e-03 1.844839684475e-02 0.0 
3.697739290790e-03 8.180807554567e-02 0.0 
8.573824898454e-04 9.266631197445e-03 0.0 
-4.096180072325e-03 1.007339142610e-01 0.0 
4.529306579740e-03 1.150921832027e-01 0.0 
3.027778319367e-04 7.822947698189e-02 0.0 
5.932273018743e-04 6.357913063235e-03 0.0 
1.511989718146e-03 2.154450988927e-02 0.0 
1.370008561033e-03 6.210664882443e-02 0.0 
9.959614820576e-03 1.101837388328e-01 0.0 
6.833655737015e-04 7.140236375170e-02 0.0 
8.476472368059e-03 2.513104154740e-02 0.0 
5.974680497148e-04 7.957029857839e-02 0.0 
1.021844647955e-03 2.036078394661e-02 0.0 
3.426877992049e-03 1.292379090481e-02 0.0 
3.149767144276e-03 1.998967919557e-02 0.0 
2.207830968373e-03 6.133995285112e-03 0.0 
-3.193865836908e-03 9.355417532978e-02 0.0 
5.520560415164e-03 1.530846884530e-02 0.0 
5.842417579990e-03 2.053878161644e-02 0.0 
2.494678833466e-03 1.144440631650e-01 0.0 
3.997628573828e-03 2.121279738856e-02 0.0 
1.227886046017e-03 6.767931936547e-02 0.0 
8.661398100272e-04 7.654715751265e-02 0.0 
5.852167067315e-05 1.019204608464e-02 0.0 
1.219036611830e-05 7.803964222937e-02 0.0 
4.188824464975e-04 1.143868299228e-01 0.0 
8.114125845979e-05 6.061735826534e-03 0.0 
5.132284018618e-04 7.656085483717e-02 0.0 
8.863255158895e-04 9.710896257711e-02 0.0 
4.966558851907e-03 1.805135019535e-02 0.0 
3.679660578714e-04 5.389710472288e-02 0.0 
4.904845545651e-04 4.340419763081e-02 0.0 
1.594904163827e-03 8.094716232643e-02 0.0 
-4.620248250251e-03 8.904628188416e-02 0.0 
7.058178142232e-04 7.722888116801e-02 0.0 
5.527292312613e-03 1.541369807864e-02 0.0 
2.419399673456e-03 1.925044118716e-02 0.0 
1.825863052143e-03 8.508886395159e-02 0.0 
9.093030741586e-04 9.965026962692e-02 0.0 
6.943955355022e-03 2.541747951199e-02 0.0 
1.474048097192e-03 5.932356636146e-02 0.0 
8.184799049459e-03 2.568846391939e-02 0.0 
6.615720405823e-03 2.130995941926e-02 0.0 
-6.766865500094e-03 1.023705017160e-01 0.0 
3.327212979256e-04 4.941212908112e-02 0.0 
2.408532810002e-04 7.844765815313e-02 0.0 
1.713917999448e-03 1.215785164496e-02 0.0 
9.792877104460e-04 5.754244030501e-02 0.0 
9.073113175639e-03 1.444016649500e-01 0.0 
2.959659518979e-04 1.550436108409e-01 0.0 
1.040632989430e-02 1.398899926095e-01 0.0 
2.955663924546e-04 1.461268135424e-01 0.0 
1.063228838380e-02 1.333392301877e-01 0.0 
2.756821495021e-04 1.367835905576e-01 0.0 
1.016710077399e-02 1.254626386167e-01 0.0 
2.893746289806e-04 1.270126690732e-01 0.0 

TENSORS node_materi_stress float
-3.602994021046e+00 2.143498919911e-02 0.0 
2.143498919911e-02 -8.540495082638e+00 0.0 
0.0 0.0 -3.561300006185e+00 
-4.250762826321e+01 4.323047193565e-01 0.0 
4.323047193565e-01 -7.888933540367e+01 0.0 
0.0 0.0 -3.601908910006e+01 
-1.623224689124e+02 -2.465436697331e-02 0.0 
-2.465436697331e-02 -3.819904157279e+02 0.0 
0.0 0.0 -1.628938653921e+02 
-1.152995428185e+02 6.673061846313e-01 0.0 
6.673061846313e-01 -2.686707600061e+02 0.0 
0.0 0.0 -1.147910908474e+02 
-8.062600506899e+00 -2.877671565671e-01 0.0 
-2.877671565671e-01 -2.077371921408e+01 0.0 
0.0 0.0 -8.463064766347e+00 
-1.511948073506e+01 -6.482429085347e-01 0.0 
-6.482429085347e-01 -4.040003463282e+01 0.0 
0.0 0.0 -1.625585461037e+01 
-2.177456888281e+01 -5.186506299148e-01 0.0 
-5.186506299148e-01 -5.866334947954e+01 0.0 
0.0 0.0 -2.373137550871e+01 
-2.953128398018e+01 -4.863337114638e-01 0.0 
-4.863337114638e-01 -7.957775038292e+01 0.0 
0.0 0.0 -3.233271030893e+01 
-3.677713807970e+01 -3.641930259870e-01 0.0 
-3.641930259870e-01 -9.964977844661e+01 0.0 
0.0 0.0 -4.052807495789e+01 
-4.421928900956e+01 -3.416586550711e-01 0.0 
-3.416586550711e-01 -1.194362196421e+02 0.0 
0.0 0.0 -4.869665259549e+01 
-5.161977059763e+01 -3.647657227376e-01 0.0 
-3.647657227376e-01 -1.392025709705e+02 0.0 
0.0 0.0 -5.684670247043e+01 
-5.905145779361e+01 -3.129252677554e-01 0.0 
-3.129252677554e-01 -1.589217805050e+02 0.0 
0.0 0.0 -6.499197148957e+01 
-6.667768167545e+01 -2.890009617532e-01 0.0 
-2.890009617532e-01 -1.785975816474e+02 0.0 
0.0 0.0 -7.318257899684e+01 
-7.445125055147e+01 -3.348696949265e-01 0.0 
-3.348696949265e-01 -1.984071350504e+02 0.0 
0.0 0.0 -8.145751568055e+01 
-8.258705293289e+01 -4.732026607025e-01 0.0 
-4.732026607025e-01 -2.186369256183e+02 0.0 
0.0 0.0 -8.996719356536e+01 
-9.106010336883e+01 -4.795066321741e-01 0.0 
-4.795066321741e-01 -2.381437795404e+02 0.0 
0.0 0.0 -9.836116487278e+01 
-9.904174443388e+01 -5.952373589107e-01 0.0 
-5.952373589107e-01 -2.558661111068e+02 0.0 
0.0 0.0 -1.060723566622e+02 
-1.077664397816e+02 -1.390867381713e-01 0.0 
-1.390867381713e-01 -2.752636630600e+02 0.0 
0.0 0.0 -1.145090308525e+02 
-1.171073247829e+02 -9.280932063330e-02 0.0 
-9.280932063330e-02 -2.950692038991e+02 0.0 
0.0 0.0 -1.232529586046e+02 
-1.264633378691e+02 -6.749161752765e-02 0.0 
-6.749161752765e-02 -3.141968466826e+02 0.0 
0.0 0.0 -1.317980553655e+02 
-1.361226175034e+02 -2.012682937242e-02 0.0 
-2.012682937242e-02 -3.333783335715e+02 0.0 
0.0 0.0 -1.404502853224e+02 
-1.461390131191e+02 -3.412530736506e-02 0.0 
-3.412530736506e-02 -3.526256480283e+02 0.0 
0.0 0.0 -1.492293983442e+02 
-1.559264773951e+02 -9.956216130319e-02 0.0 
-9.956216130319e-02 -3.709072296582e+02 0.0 
0.0 0.0 -1.576501121160e+02 
-1.156804995825e+02 7.487822919372e-01 0.0 
7.487822919372e-01 -2.698344481583e+02 0.0 
0.0 0.0 -1.152544843222e+02 
-1.151410973613e+02 1.332985511302e+00 0.0 
1.332985511302e+00 -2.688266211431e+02 0.0 
0.0 0.0 -1.147903155513e+02 
-1.153077090233e+02 2.223020619888e+00 0.0 
2.223020619888e+00 -2.691624510789e+02 0.0 
0.0 0.0 -1.149410480306e+02 
-1.153030660508e+02 2.526031186948e+00 0.0 
2.526031186948e+00 -2.692817419805e+02 0.0 
0.0 0.0 -1.149754424094e+02 
-1.152453222076e+02 3.364041775036e+00 0.0 
3.364041775036e+00 -2.688358800369e+02 0.0 
0.0 0.0 -1.148243606734e+02 
-1.156460844993e+02 4.121490602166e+00 0.0 
4.121490602166e+00 -2.697215394362e+02 0.0 
0.0 0.0 -1.152102871806e+02 
-1.161641390275e+02 4.976135916452e+00 0.0 
4.976135916452e+00 -2.703846490389e+02 0.0 
0.0 0.0 -1.155646364199e+02 
-1.160818347154e+02 5.975624239558e+00 0.0 
5.975624239558e+00 -2.705473198834e+02 0.0 
0.0 0.0 -1.155887463797e+02 
-1.168050403188e+02 7.076248370311e+00 0.0 
7.076248370311e+00 -2.719589063821e+02 0.0 
0.0 0.0 -1.162291840103e+02 
-1.170283042110e+02 7.839693495880e+00 0.0 
7.839693495880e+00 -2.726986410734e+02 0.0 
0.0 0.0 -1.165180835853e+02 
-1.174127549729e+02 9.065122622036e+00 0.0 
9.065122622036e+00 -2.730519357021e+02 0.0 
0.0 0.0 -1.167394072025e+02 
-1.181360087619e+02 1.030328894682e+01 0.0 
1.030328894682e+01 -2.748608257405e+02 0.0 
0.0 0.0 -1.174990503507e+02 
-1.193021103247e+02 1.160160350185e+01 0.0 
1.160160350185e+01 -2.769614696370e+02 0.0 
0.0 0.0 -1.184790739885e+02 
-1.196866087455e+02 1.293701651798e+01 0.0 
1.293701651798e+01 -2.783490758872e+02 0.0 
0.0 0.0 -1.190107053898e+02 
-1.207682740051e+02 1.432838362893e+01 0.0 
1.432838362893e+01 -2.802580777322e+02 0.0 
0.0 0.0 -1.199079055212e+02 
-1.213324780331e+02 1.558223916732e+01 0.0 
1.558223916732e+01 -2.820519046698e+02 0.0 
0.0 0.0 -1.206153148109e+02 
-1.226269903771e+02 1.702052085202e+01 0.0 
1.702052085202e+01 -2.849007212515e+02 0.0 
0.0 0.0 -1.218583134886e+02 
-1.246643570583e+02 1.844126761770e+01 0.0 
1.844126761770e+01 -2.892516487314e+02 0.0 
0.0 0.0 -1.237748017369e+02 
-1.262513146214e+02 1.976617650529e+01 0.0 
1.976617650529e+01 -2.935208162784e+02 0.0 
0.0 0.0 -1.255316392699e+02 
-1.280117572632e+02 2.096504527670e+01 0.0 
2.096504527670e+01 -2.981092485845e+02 0.0 
0.0 0.0 -1.274363017543e+02 
-1.297176123139e+02 2.186038083425e+01 0.0 
2.186038083425e+01 -3.026050019123e+02 0.0 
0.0 0.0 -1.292967842679e+02 
-1.318022736301e+02 2.276020398454e+01 0.0 
2.276020398454e+01 -3.073683941536e+02 0.0 
0.0 0.0 -1.313512003351e+02 
-1.336841756164e+02 2.333670287662e+01 0.0 
2.333670287662e+01 -3.124432837267e+02 0.0 
0.0 0.0 -1.334382378029e+02 
-1.357366134105e+02 2.370662689298e+01 0.0 
2.370662689298e+01 -3.176476329369e+02 0.0 
0.0 0.0 -1.356152739042e+02 
-1.379476779366e+02 2.382794543892e+01 0.0 
2.382794543892e+01 -3.231850671707e+02 0.0 
0.0 0.0 -1.379398235322e+02 
-1.402336017782e+02 2.377932095659e+01 0.0 
2.377932095659e+01 -3.287228689527e+02 0.0 
0.0 0.0 -1.402869412193e+02 
-1.421881800049e+02 2.343699970102e+01 0.0 
2.343699970102e+01 -3.339875987706e+02 0.0 
0.0 0.0 -1.424527336327e+02 
-1.443190489270e+02 2.289096124927e+01 0.0 
2.289096124927e+01 -3.390713268513e+02 0.0 
0.0 0.0 -1.446171127335e+02 
-1.460503189168e+02 2.214961838519e+01 0.0 
2.214961838519e+01 -3.436371315541e+02 0.0 
0.0 0.0 -1.465062351413e+02 
-1.483542005739e+02 2.145127375689e+01 0.0 
2.145127375689e+01 -3.487258291265e+02 0.0 
0.0 0.0 -1.487240089101e+02 
-1.497101967088e+02 2.013342961934e+01 0.0 
2.013342961934e+01 -3.527915142417e+02 0.0 
0.0 0.0 -1.503505132852e+02 
-1.509342294632e+02 1.911261180778e+01 0.0 
1.911261180778e+01 -3.557437186210e+02 0.0 
0.0 0.0 -1.516033844252e+02 
-1.525475462104e+02 1.788636711801e+01 0.0 
1.788636711801e+01 -3.594963579190e+02 0.0 
0.0 0.0 -1.532131712388e+02 
-1.540339955117e+02 1.670727549062e+01 0.0 
1.670727549062e+01 -3.629833832838e+02 0.0 
0.0 0.0 -1.547052136387e+02 
-1.553461452380e+02 1.544673708584e+01 0.0 
1.544673708584e+01 -3.660762510511e+02 0.0 
0.0 0.0 -1.560267188867e+02 
-1.565203921063e+02 1.420699239910e+01 0.0 
1.420699239910e+01 -3.687792180024e+02 0.0 
0.0 0.0 -1.571898830326e+02 
-1.575542345166e+02 1.294800777283e+01 0.0 
1.294800777283e+01 -3.711794007993e+02 0.0 
0.0 0.0 -1.582200905948e+02 
-1.583099754728e+02 1.168447621741e+01 0.0 
1.168447621741e+01 -3.729919950291e+02 0.0 
0.0 0.0 -1.589905911506e+02 
-1.589721380708e+02 1.053253799372e+01 0.0 
1.053253799372e+01 -3.744951858008e+02 0.0 
0.0 0.0 -1.596401971615e+02 
-1.594114905458e+02 9.307861112737e+00 0.0 
9.307861112737e+00 -3.756593170239e+02 0.0 
0.0 0.0 -1.601212422709e+02 
-1.602496587145e+02 8.325305755199e+00 0.0 
8.325305755199e+00 -3.773053598873e+02 0.0 
0.0 0.0 -1.608665055806e+02 
-1.612389353967e+02 7.171500029387e+00 0.0 
7.171500029387e+00 -3.792727778521e+02 0.0 
0.0 0.0 -1.617535139746e+02 
-1.617649483284e+02 6.285922262574e+00 0.0 
6.285922262574e+00 -3.803888876372e+02 0.0 
0.0 0.0 -1.622461507897e+02 
-1.607199947552e+02 5.187807711409e+00 0.0 
5.187807711409e+00 -3.788375103109e+02 0.0 
0.0 0.0 -1.614672515198e+02 
-1.622448679930e+02 4.164521652856e+00 0.0 
4.164521652856e+00 -3.814377745019e+02 0.0 
0.0 0.0 -1.627047927485e+02 
-1.619844707065e+02 3.318117725646e+00 0.0 
3.318117725646e+00 -3.811246637632e+02 0.0 
0.0 0.0 -1.625327403409e+02 
-1.624893468404e+02 2.692522133548e+00 0.0 
2.692522133548e+00 -3.820016093866e+02 0.0 
0.0 0.0 -1.629472868681e+02 
-1.628857351016e+02 1.617541435447e+00 0.0 
1.617541435447e+00 -3.828662870704e+02 0.0 
0.0 0.0 -1.633256066516e+02 
-1.628676018427e+02 9.451905318007e-01 0.0 
9.451905318007e-01 -3.829110654732e+02 0.0 
0.0 0.0 -1.633336001948e+02 
-5.109387398576e+01 3.174942833755e-01 0.0 
3.174942833755e-01 -9.869770017753e+01 0.0 
0.0 0.0 -4.453747224899e+01 
-5.910364513113e+01 3.834730369537e-01 0.0 
3.834730369537e-01 -1.184421450356e+02 0.0 
0.0 0.0 -5.286373705003e+01 
-6.710625605779e+01 3.967343210916e-01 0.0 
3.967343210916e-01 -1.380604460966e+02 0.0 
0.0 0.0 -6.115001064632e+01 
-7.474501315268e+01 4.517329894369e-01 0.0 
4.517329894369e-01 -1.573401070148e+02 0.0 
0.0 0.0 -6.922553605025e+01 
-8.238590444632e+01 4.345873811499e-01 0.0 
4.345873811499e-01 -1.771216294570e+02 0.0 
0.0 0.0 -7.745226017100e+01 
-9.011419135860e+01 5.013523721155e-01 0.0 
5.013523721155e-01 -1.970737401060e+02 0.0 
0.0 0.0 -8.575637943939e+01 
-9.733016621408e+01 4.807340377215e-01 0.0 
4.807340377215e-01 -2.168440574921e+02 0.0 
0.0 0.0 -9.385226711185e+01 
-1.043153988176e+02 5.748689789810e-01 0.0 
5.748689789810e-01 -2.365042403170e+02 0.0 
0.0 0.0 -1.018458917404e+02 
-1.115999285986e+02 6.304788964732e-01 0.0 
6.304788964732e-01 -2.568546962204e+02 0.0 
0.0 0.0 -1.101363874457e+02 
-1.590381327140e+01 4.807326396796e+00 0.0 
4.807326396796e+00 -6.931684848427e+00 0.0 
0.0 0.0 -6.833104335896e+00 
-4.972746033780e+01 2.661145379740e+00 0.0 
2.661145379740e+00 -8.107239314761e+01 0.0 
0.0 0.0 -3.883995604562e+01 
-1.994587341487e+01 1.189266743486e+01 0.0 
1.189266743486e+01 -1.432445645952e+01 0.0 
0.0 0.0 -9.916958301125e+00 
-2.253503968150e+01 1.466743739107e+01 0.0 
1.466743739107e+01 -1.804342244418e+01 0.0 
0.0 0.0 -1.177353863771e+01 
-2.309803420492e+01 1.560111115617e+01 0.0 
1.560111115617e+01 -1.913937940095e+01 0.0 
0.0 0.0 -1.227122408176e+01 
-2.190176589713e+01 1.517481533687e+01 0.0 
1.517481533687e+01 -1.830924059837e+01 0.0 
0.0 0.0 -1.166330194865e+01 
-2.150930894749e+01 1.449697072229e+01 0.0 
1.449697072229e+01 -1.850608073474e+01 0.0 
0.0 0.0 -1.160461690467e+01 
-2.232797032802e+01 1.026731083125e+01 0.0 
1.026731083125e+01 -1.604126605797e+01 0.0 
0.0 0.0 -1.111077091580e+01 
-2.251429903983e+01 5.219164268695e+00 0.0 
5.219164268695e+00 -2.173512474102e+01 0.0 
0.0 0.0 -1.287482713425e+01 
-3.172871102657e+01 3.796432469098e+00 0.0 
3.796432469098e+00 -4.109949860406e+01 0.0 
0.0 0.0 -2.144846288919e+01 
-4.083179388600e+01 3.026037307747e+00 0.0 
3.026037307747e+00 -6.058163494872e+01 0.0 
0.0 0.0 -3.002402865042e+01 
-1.329831161106e+01 8.609963615013e-01 0.0 
8.609963615013e-01 -7.371277338487e+00 0.0 
0.0 0.0 -5.800876684866e+00 
-1.772899492893e+01 6.552894570194e-01 0.0 
6.552894570194e-01 -1.969856879155e+01 0.0 
0.0 0.0 -1.082826911615e+01 
-2.589047483426e+01 7.534043171835e-01 0.0 
7.534043171835e-01 -3.923518901231e+01 0.0 
0.0 0.0 -1.913769915397e+01 
-3.420936361629e+01 5.324308458792e-01 0.0 
5.324308458792e-01 -5.862794491461e+01 0.0 
0.0 0.0 -2.745119255927e+01 
-4.165366909111e+01 -2.466834639867e-01 0.0 
-2.466834639867e-01 -7.626691506834e+01 0.0 
0.0 0.0 -3.497617524784e+01 
-4.232151497700e+01 -6.083649776881e-02 0.0 
-6.083649776881e-02 -7.743650234536e+01 0.0 
0.0 0.0 -3.552740519671e+01 
-4.235707530709e+01 -7.134418827432e-02 0.0 
-7.134418827432e-02 -7.746266902161e+01 0.0 
0.0 0.0 -3.554592329861e+01 
-4.242085832285e+01 -3.601368791249e-02 0.0 
-3.601368791249e-02 -7.723313419526e+01 0.0 
0.0 0.0 -3.549619775543e+01 
-4.381964772508e+01 -5.545559567327e-02 0.0 
-5.545559567327e-02 -7.987051523987e+01 0.0 
0.0 0.0 -3.670704888949e+01 
-4.295988365785e+01 -9.710591335608e-02 0.0 
-9.710591335608e-02 -7.752626284399e+01 0.0 
0.0 0.0 -3.574584395055e+01 
-4.328114871349e+01 -4.656840337489e-02 0.0 
-4.656840337489e-02 -7.736205883619e+01 0.0 
0.0 0.0 -3.579296226491e+01 
-4.360854374060e+01 -9.784296249561e-02 0.0 
-9.784296249561e-02 -7.756113560004e+01 0.0 
0.0 0.0 -3.595090380219e+01 
-4.412451236228e+01 9.117980462267e-03 0.0 
9.117980462267e-03 -7.803284928687e+01 0.0 
0.0 0.0 -3.624720849474e+01 
-4.456248002669e+01 7.254453649293e-02 0.0 
7.254453649293e-02 -7.803664937690e+01 0.0 
0.0 0.0 -3.637973882108e+01 
-4.521146221476e+01 2.838486532334e-01 0.0 
2.838486532334e-01 -7.810963244844e+01 0.0 
0.0 0.0 -3.659632839896e+01 
-4.584639438236e+01 5.772402469462e-01 0.0 
5.772402469462e-01 -7.823564368829e+01 0.0 
0.0 0.0 -3.682461142120e+01 
-4.679899998486e+01 9.636864195251e-01 0.0 
9.636864195251e-01 -7.864232523686e+01 0.0 
0.0 0.0 -3.723239756652e+01 
-4.790603602377e+01 1.577703326220e+00 0.0 
1.577703326220e+00 -7.940251582858e+01 0.0 
0.0 0.0 -3.779256555570e+01 
-1.760030276299e+01 1.847516300563e+00 0.0 
1.847516300563e+00 -6.401239569251e+00 0.0 
0.0 0.0 -7.114362541289e+00 
-1.971396123713e+01 3.226356364420e-01 0.0 
3.226356364420e-01 -7.254920441768e+00 0.0 
0.0 0.0 -8.007535231266e+00 
-1.991891111184e+01 -4.857389007830e-01 0.0 
-4.857389007830e-01 -7.009364109894e+00 0.0 
0.0 0.0 -7.978901074267e+00 
-1.882873038480e+01 -4.944248537748e-01 0.0 
-4.944248537748e-01 -7.048161266004e+00 0.0 
0.0 0.0 -7.663209610977e+00 
-1.715735037510e+01 -6.011721709852e-01 0.0 
-6.011721709852e-01 -8.047855409166e+00 0.0 
0.0 0.0 -7.484340190332e+00 
-1.572723190401e+01 -7.394913613339e-01 0.0 
-7.394913613339e-01 -8.457438170686e+00 0.0 
0.0 0.0 -7.182384369322e+00 
-1.421143993939e+01 -7.426433747458e-01 0.0 
-7.426433747458e-01 -8.393998649890e+00 0.0 
0.0 0.0 -6.707123637743e+00 
-1.270668687793e+01 -6.909503814490e-01 0.0 
-6.909503814490e-01 -8.292750826341e+00 0.0 
0.0 0.0 -6.224579971032e+00 
-1.125682849011e+01 -6.523496834399e-01 0.0 
-6.523496834399e-01 -8.273863792587e+00 0.0 
0.0 0.0 -5.782512065737e+00 
-9.957710823739e+00 -5.816889617532e-01 0.0 
-5.816889617532e-01 -8.294773495729e+00 0.0 
0.0 0.0 -5.399691686765e+00 
-8.677507083335e+00 -4.686422854664e-01 0.0 
-4.686422854664e-01 -8.399842993661e+00 0.0 
0.0 0.0 -5.048880846744e+00 
-7.866683132271e+00 -5.203216048394e-01 0.0 
-5.203216048394e-01 -8.971014124101e+00 0.0 
0.0 0.0 -4.987978421580e+00 
-6.646872904427e+00 -5.636883600039e-01 0.0 
-5.636883600039e-01 -8.658706007427e+00 0.0 
0.0 0.0 -4.523563415797e+00 
-5.500538489753e+00 -4.332545847675e-01 0.0 
-4.332545847675e-01 -7.911598457223e+00 0.0 
0.0 0.0 -3.941866013641e+00 
-4.682408930210e+00 -3.388288884100e-01 0.0 
-3.388288884100e-01 -8.043763060997e+00 0.0 
0.0 0.0 -3.740814080909e+00 
-4.087767975752e+00 -2.800846550730e-01 0.0 
-2.800846550730e-01 -8.316615934695e+00 0.0 
0.0 0.0 -3.647066775566e+00 
-3.583331136525e+00 -1.821390757529e-01 0.0 
-1.821390757529e-01 -8.350025175789e+00 0.0 
0.0 0.0 -3.505390807811e+00 
-3.181055150814e+00 -1.761886061676e-01 0.0 
-1.761886061676e-01 -7.936477826900e+00 0.0 
0.0 0.0 -3.258152597204e+00 
-2.970936102147e+00 1.969260896979e-02 0.0 
1.969260896979e-02 -7.332757556351e+00 0.0 
0.0 0.0 -2.999524371938e+00 
-1.333788782308e+01 -1.840701929429e-01 0.0 
-1.840701929429e-01 -9.513240094677e+00 0.0 
0.0 0.0 -6.455338375326e+00 
-1.309097776731e+01 -1.425148748885e-02 0.0 
-1.425148748885e-02 -9.751119323498e+00 0.0 
0.0 0.0 -6.452629127243e+00 
-1.302722581241e+01 -2.808738132936e-02 0.0 
-2.808738132936e-02 -9.695040045038e+00 0.0 
0.0 0.0 -6.416679757233e+00 
-1.293176556322e+01 -8.480706396788e-02 0.0 
-8.480706396788e-02 -9.696355540226e+00 0.0 
0.0 0.0 -6.388436331035e+00 
-1.276372319455e+01 -1.325481998813e-01 0.0 
-1.325481998813e-01 -9.693971692232e+00 0.0 
0.0 0.0 -6.337308466036e+00 
-1.252814812928e+01 -1.766718536346e-01 0.0 
-1.766718536346e-01 -9.689459941700e+00 0.0 
0.0 0.0 -6.265282421294e+00 
-1.223087220502e+01 -2.165093011673e-01 0.0 
-2.165093011673e-01 -9.682275086181e+00 0.0 
0.0 0.0 -6.173944187360e+00 
-1.187981673956e+01 -2.578113902682e-01 0.0 
-2.578113902682e-01 -9.669403798808e+00 0.0 
0.0 0.0 -6.064766161510e+00 
-1.147202521683e+01 -3.050259336832e-01 0.0 
-3.050259336832e-01 -9.656418140070e+00 0.0 
0.0 0.0 -5.938533007069e+00 
-1.099364276887e+01 -3.545366876506e-01 0.0 
-3.545366876506e-01 -9.645088304380e+00 0.0 
0.0 0.0 -5.791619321975e+00 
-1.045892572687e+01 -3.988611708291e-01 0.0 
-3.988611708291e-01 -9.633725536215e+00 0.0 
0.0 0.0 -5.627795378924e+00 
-9.886624545744e+00 -4.351986064485e-01 0.0 
-4.351986064485e-01 -9.619915673164e+00 0.0 
0.0 0.0 -5.451962065672e+00 
-9.292110052122e+00 -4.672476113992e-01 0.0 
-4.672476113992e-01 -9.595250355236e+00 0.0 
0.0 0.0 -5.266208122207e+00 
-8.700575804804e+00 -4.977196408840e-01 0.0 
-4.977196408840e-01 -9.591334378516e+00 0.0 
0.0 0.0 -5.087573054996e+00 
-8.131625955861e+00 -4.730267001280e-01 0.0 
-4.730267001280e-01 -9.588490387580e+00 0.0 
0.0 0.0 -4.916034903032e+00 
-7.762754855878e+00 -3.836000387602e-01 0.0 
-3.836000387602e-01 -9.653131017935e+00 0.0 
0.0 0.0 -4.824765762144e+00 
-7.721236005568e+00 -8.643738739814e-02 0.0 
-8.643738739814e-02 -9.703904410202e+00 0.0 
0.0 0.0 -4.827542124731e+00 
-8.503314555915e+00 4.205946971579e-01 0.0 
4.205946971579e-01 -1.002686705563e+01 0.0 
0.0 0.0 -5.159054483463e+00 
-1.014867819782e+01 1.653558262408e+00 0.0 
1.653558262408e+00 -9.757196678275e+00 0.0 
0.0 0.0 -5.571762462829e+00 
-1.294710455783e+01 2.964456755644e+00 0.0 
2.964456755644e+00 -5.003397903064e+00 0.0 
0.0 0.0 -4.985150738267e+00 
-1.772735533900e+01 2.121412676540e+00 0.0 
2.121412676540e+00 -1.812026346322e+01 0.0 
0.0 0.0 -1.035428564067e+01 
-1.789294631918e+01 1.330322853015e+00 0.0 
1.330322853015e+00 -2.159557242929e+01 0.0 
0.0 0.0 -1.144655562454e+01 
-1.597535260161e+01 2.961974225129e-01 0.0 
2.961974225129e-01 -2.018936060969e+01 0.0 
0.0 0.0 -1.044941396339e+01 
-1.540659162037e+01 -1.209147401277e-01 0.0 
-1.209147401277e-01 -1.984458319478e+01 0.0 
0.0 0.0 -1.017535244454e+01 
-1.529287699237e+01 -3.442982901164e-01 0.0 
-3.442982901164e-01 -1.973510667621e+01 0.0 
0.0 0.0 -1.010839510057e+01 
-1.532365585795e+01 -4.209320918603e-01 0.0 
-4.209320918603e-01 -1.963215236111e+01 0.0 
0.0 0.0 -1.008674246572e+01 
-1.548644130719e+01 -4.497605527645e-01 0.0 
-4.497605527645e-01 -1.961534077246e+01 0.0 
0.0 0.0 -1.013053462390e+01 
-1.571323396095e+01 -4.539905523886e-01 0.0 
-4.539905523886e-01 -1.959328301482e+01 0.0 
0.0 0.0 -1.019195509273e+01 
-1.596914949308e+01 -4.375858807552e-01 0.0 
-4.375858807552e-01 -1.957433749960e+01 0.0 
0.0 0.0 -1.026304609780e+01 
-1.623766466693e+01 -4.014915776353e-01 0.0 
-4.014915776353e-01 -1.955896450825e+01 0.0 
0.0 0.0 -1.033898875256e+01 
-1.648656862262e+01 -3.501275320623e-01 0.0 
-3.501275320623e-01 -1.955900188721e+01 0.0 
0.0 0.0 -1.041367115295e+01 
-1.669984300610e+01 -3.047328603177e-01 0.0 
-3.047328603177e-01 -1.956614847987e+01 0.0 
0.0 0.0 -1.047979744579e+01 
-1.689945021345e+01 -2.638151010396e-01 0.0 
-2.638151010396e-01 -1.956564874926e+01 0.0 
0.0 0.0 -1.053952968881e+01 
-1.706601472216e+01 -2.153972447801e-01 0.0 
-2.153972447801e-01 -1.956131499036e+01 0.0 
0.0 0.0 -1.058819891376e+01 
-1.719919227639e+01 -1.618992156271e-01 0.0 
-1.618992156271e-01 -1.956113997502e+01 0.0 
0.0 0.0 -1.062809967542e+01 
-1.729720014270e+01 -1.046101965363e-01 0.0 
-1.046101965363e-01 -1.955631932106e+01 0.0 
0.0 0.0 -1.065605583913e+01 
-1.737136787742e+01 -3.314162996351e-02 0.0 
-3.314162996351e-02 -1.955286186377e+01 0.0 
0.0 0.0 -1.067726892236e+01 
-1.743900162259e+01 5.178743654501e-02 0.0 
5.178743654501e-02 -1.955656222310e+01 0.0 
0.0 0.0 -1.069866915371e+01 
-1.766905293060e+01 -3.986658781006e-01 0.0 
-3.986658781006e-01 -1.965876936951e+01 0.0 
0.0 0.0 -1.079834669003e+01 
-2.587629202163e+01 -3.594574715193e-01 0.0 
-3.594574715193e-01 -3.921864883216e+01 0.0 
0.0 0.0 -1.912848225614e+01 
-2.587578303650e+01 -1.361444332687e-01 0.0 
-1.361444332687e-01 -3.910590823971e+01 0.0 
0.0 0.0 -1.909450738286e+01 
-2.585616414859e+01 -1.399700964089e-01 0.0 
-1.399700964089e-01 -3.909487054701e+01 0.0 
0.0 0.0 -1.908531040868e+01 
-2.583430616279e+01 -2.036621654203e-01 0.0 
-2.036621654203e-01 -3.911893672744e+01 0.0 
0.0 0.0 -1.908597286707e+01 
-2.583546964407e+01 -2.786461051222e-01 0.0 
-2.786461051222e-01 -3.912269950223e+01 0.0 
0.0 0.0 -1.908745074389e+01 
-2.581586791449e+01 -3.555521680637e-01 0.0 
-3.555521680637e-01 -3.913299105020e+01 0.0 
0.0 0.0 -1.908465768941e+01 
-2.580815951127e+01 -4.253450012587e-01 0.0 
-4.253450012587e-01 -3.915443465749e+01 0.0 
0.0 0.0 -1.908877825063e+01 
-2.579799472731e+01 -4.693555883732e-01 0.0 
-4.693555883732e-01 -3.914912730829e+01 0.0 
0.0 0.0 -1.908413661068e+01 
-2.581884351886e+01 -5.383846894114e-01 0.0 
-5.383846894114e-01 -3.913333008525e+01 0.0 
0.0 0.0 -1.908565208123e+01 
-2.584322643768e+01 -5.869202444299e-01 0.0 
-5.869202444299e-01 -3.918032538679e+01 0.0 
0.0 0.0 -1.910706554734e+01 
-2.592512042831e+01 -5.770806396193e-01 0.0 
-5.770806396193e-01 -3.923155429634e+01 0.0 
0.0 0.0 -1.914700241739e+01 
-2.609502254434e+01 -5.257889111058e-01 0.0 
-5.257889111058e-01 -3.928119072935e+01 0.0 
0.0 0.0 -1.921286398211e+01 
-2.635527705918e+01 -4.054525154502e-01 0.0 
-4.054525154502e-01 -3.936855609810e+01 0.0 
0.0 0.0 -1.931714994718e+01 
-2.677102060842e+01 -1.800639263990e-01 0.0 
-1.800639263990e-01 -3.944508322333e+01 0.0 
0.0 0.0 -1.946483114953e+01 
-2.746771149272e+01 1.663072428580e-01 0.0 
1.663072428580e-01 -3.982328388772e+01 0.0 
0.0 0.0 -1.978729861413e+01 
-2.917101707425e+01 1.137714066210e+00 0.0 
1.137714066210e+00 -4.136602995966e+01 0.0 
0.0 0.0 -2.076111411017e+01 
-2.884747395359e+01 1.869031593162e+00 0.0 
1.869031593162e+00 -3.801062602114e+01 0.0 
0.0 0.0 -1.965742999242e+01 
-3.854887852696e+01 1.598610700491e+00 0.0 
1.598610700491e+00 -5.766700503299e+01 0.0 
0.0 0.0 -2.846476506798e+01 
-3.882588402886e+01 1.098271682248e+00 0.0 
1.098271682248e+00 -6.084021031815e+01 0.0 
0.0 0.0 -2.949982830410e+01 
-3.731833378072e+01 3.911040041485e-01 0.0 
3.911040041485e-01 -5.940596041108e+01 0.0 
0.0 0.0 -2.861728825754e+01 
-3.664698710736e+01 4.950215793434e-02 0.0 
4.950215793434e-02 -5.912957340884e+01 0.0 
0.0 0.0 -2.833296815486e+01 
-3.609001909569e+01 -1.345106075394e-01 0.0 
-1.345106075394e-01 -5.899583233959e+01 0.0 
0.0 0.0 -2.812575543058e+01 
-3.565481506906e+01 -2.785484157850e-01 0.0 
-2.785484157850e-01 -5.891271733993e+01 0.0 
0.0 0.0 -2.797025972270e+01 
-3.530778295890e+01 -3.510611909843e-01 0.0 
-3.510611909843e-01 -5.877219899611e+01 0.0 
0.0 0.0 -2.782399458650e+01 
-3.503989434562e+01 -3.194631288535e-01 0.0 
-3.194631288535e-01 -5.871622129969e+01 0.0 
0.0 0.0 -2.772683469359e+01 
-3.491899459697e+01 -3.231729750314e-01 0.0 
-3.231729750314e-01 -5.877391356108e+01 0.0 
0.0 0.0 -2.770787244742e+01 
-3.470614499236e+01 -2.822677728842e-01 0.0 
-2.822677728842e-01 -5.872206609138e+01 0.0 
0.0 0.0 -2.762846332512e+01 
-3.457383360939e+01 -2.498310342984e-01 0.0 
-2.498310342984e-01 -5.869577301194e+01 0.0 
0.0 0.0 -2.758088198640e+01 
-3.447831749372e+01 -1.690477882848e-01 0.0 
-1.690477882848e-01 -5.868933497543e+01 0.0 
0.0 0.0 -2.755029574074e+01 
-3.437525123194e+01 -1.486082845202e-01 0.0 
-1.486082845202e-01 -5.870236089763e+01 0.0 
0.0 0.0 -2.752328363887e+01 
-3.431033100648e+01 -8.446330952503e-02 0.0 
-8.446330952503e-02 -5.863663092608e+01 0.0 
0.0 0.0 -2.748408857977e+01 
-3.428969277459e+01 3.994355520248e-02 0.0 
3.994355520248e-02 -5.879204470035e+01 0.0 
0.0 0.0 -2.752452124248e+01 
-3.418639404691e+01 -5.021731514680e-01 0.0 
-5.021731514680e-01 -5.889700950408e+01 0.0 
0.0 0.0 -2.752502106530e+01 
-1.721914568106e+01 9.004608450065e+00 0.0 
9.004608450065e+00 -1.028111188394e+01 0.0 
0.0 0.0 -7.942476316289e+00 
-2.156909235178e+01 1.361875916393e+01 0.0 
1.361875916393e+01 -1.676524973653e+01 0.0 
0.0 0.0 -1.110030262649e+01 
-2.293201906738e+01 1.525040777811e+01 0.0 
1.525040777811e+01 -1.869761462556e+01 0.0 
0.0 0.0 -1.208889010788e+01 
-2.288243696663e+01 1.554229053190e+01 0.0 
1.554229053190e+01 -1.933368663494e+01 0.0 
0.0 0.0 -1.226483708047e+01 
-2.229837411690e+01 1.557727508033e+01 0.0 
1.557727508033e+01 -1.908849153066e+01 0.0 
0.0 0.0 -1.201605969427e+01 
-2.305476288192e+01 1.458222346873e+01 0.0 
1.458222346873e+01 -1.883242663910e+01 0.0 
0.0 0.0 -1.216615685631e+01 
-2.124012069923e+01 6.600884687031e+00 0.0 
6.600884687031e+00 -1.471376038581e+01 0.0 
0.0 0.0 -1.038616432551e+01 
-2.862159060089e+01 4.534494292903e+00 0.0 
4.534494292903e+00 -3.322213971888e+01 0.0 
0.0 0.0 -1.815311909593e+01 
-3.778668792567e+01 3.423096560954e+00 0.0 
3.423096560954e+00 -5.273381153311e+01 0.0 
0.0 0.0 -2.675614983764e+01 
-4.647680336846e+01 2.781179982413e+00 0.0 
2.781179982413e+00 -7.232043249069e+01 0.0 
0.0 0.0 -3.523917075775e+01 
-2.144577532833e+01 1.295750802508e+01 0.0 
1.295750802508e+01 -2.447653906331e+01 0.0 
0.0 0.0 -1.337669431749e+01 
-1.480577528480e+02 1.690677163105e+01 0.0 
1.690677163105e+01 -3.533472538635e+02 0.0 
0.0 0.0 -1.500215020134e+02 
-1.275219952549e+01 -1.065305368029e+00 0.0 
-1.065305368029e+00 -1.682306707866e+01 0.0 
0.0 0.0 -8.859880006101e+00 
-1.816099556881e+01 -8.623376500092e-01 0.0 
-8.623376500092e-01 -1.603062641277e+01 0.0 
0.0 0.0 -1.024439432504e+01 
-1.533785669291e+02 1.075981900155e+01 0.0 
1.075981900155e+01 -3.657705402979e+02 0.0 
0.0 0.0 -1.553447321681e+02 
-2.346881322310e+01 1.585546130741e+01 0.0 
1.585546130741e+01 -2.801430488328e+01 0.0 
0.0 0.0 -1.504493543191e+01 
-7.878783993271e+01 3.381216516389e-02 0.0 
3.381216516389e-02 -2.092553440142e+02 0.0 
0.0 0.0 -8.601295518406e+01 
-1.417288020559e+02 2.104353442220e+01 0.0 
2.104353442220e+01 -3.370068273257e+02 0.0 
0.0 0.0 -1.432206888145e+02 
-2.680166381084e+01 1.537876143655e+01 0.0 
1.537876143655e+01 -2.926392464577e+01 0.0 
0.0 0.0 -1.641967653698e+01 
-1.353669143015e+02 2.326925415274e+01 0.0 
2.326925415274e+01 -3.178180891688e+02 0.0 
0.0 0.0 -1.355555010411e+02 
-3.900060630822e+01 7.100077156562e+00 0.0 
7.100077156562e+00 -5.273251625987e+01 0.0 
0.0 0.0 -2.711993677043e+01 
-1.568424321497e+02 6.457026691409e+00 0.0 
6.457026691409e+00 -3.723643437242e+02 0.0 
0.0 0.0 -1.583620327622e+02 
-8.773902265347e+00 -7.177437016762e-01 0.0 
-7.177437016762e-01 -1.620026682422e+01 0.0 
0.0 0.0 -7.501934354022e+00 
-1.283803202802e+02 2.187659563261e+01 0.0 
2.187659563261e+01 -2.966899394248e+02 0.0 
0.0 0.0 -1.271210779115e+02 
-5.490805486761e+01 4.164761046082e+00 0.0 
4.164761046082e+00 -9.036179671195e+01 0.0 
0.0 0.0 -4.318095547387e+01 
-4.826531126627e+01 -2.722485597791e-01 0.0 
-2.722485597791e-01 -1.302520949037e+02 0.0 
0.0 0.0 -5.315522185099e+01 
-1.018884225902e+02 2.099549121677e-01 0.0 
2.099549121677e-01 -2.625461428737e+02 0.0 
0.0 0.0 -1.089303696392e+02 
-1.237455867087e+02 1.872121280221e+01 0.0 
1.872121280221e+01 -2.825618650141e+02 0.0 
0.0 0.0 -1.214922355169e+02 
-1.186932773905e+02 1.314367174683e+01 0.0 
1.314367174683e+01 -2.710097355756e+02 0.0 
0.0 0.0 -1.165109038898e+02 
-1.132542946869e+02 3.736428983203e+00 0.0 
3.736428983203e+00 -2.614256865750e+02 0.0 
0.0 0.0 -1.120039943786e+02 
-1.138940604706e+02 6.187509968006e+00 0.0 
6.187509968006e+00 -2.611460616530e+02 0.0 
0.0 0.0 -1.121120366371e+02 
-1.162419603274e+02 9.557839376817e+00 0.0 
9.557839376817e+00 -2.662998418781e+02 0.0 
0.0 0.0 -1.143625406616e+02 
-5.611919310557e+01 2.236322563811e+00 0.0 
2.236322563811e+00 -9.746378077262e+01 0.0 
0.0 0.0 -4.567489216346e+01 
-5.258736675895e+01 5.835760779094e-01 0.0 
5.835760779094e-01 -9.601898583106e+01 0.0 
0.0 0.0 -4.418190577700e+01 
-5.171108342031e+01 3.503349420365e-01 0.0 
3.503349420365e-01 -9.711234120801e+01 0.0 
0.0 0.0 -4.424702738849e+01 
-7.870462016916e+01 3.871764283035e-01 0.0 
3.871764283035e-01 -1.673398469773e+02 0.0 
0.0 0.0 -7.341334014394e+01 
-1.573022909111e+02 3.804878157000e+00 0.0 
3.804878157000e+00 -3.732834973406e+02 0.0 
0.0 0.0 -1.587757364755e+02 
-1.857578998505e+01 1.387082216079e+00 0.0 
1.387082216079e+00 -1.472830532797e+01 0.0 
0.0 0.0 -9.991492467617e+00 
-7.233602981861e+00 -4.098758556592e-01 0.0 
-4.098758556592e-01 -1.722422845907e+01 0.0 
0.0 0.0 -7.326349718850e+00 
-1.309128231559e+02 5.348583723804e-01 0.0 
5.348583723804e-01 -3.231011628241e+02 0.0 
0.0 0.0 -1.358041957940e+02 
-4.968363607817e+01 4.050610873930e-03 0.0 
4.050610873930e-03 -9.476379381994e+01 0.0 
0.0 0.0 -4.293422896943e+01 
-2.557525571794e+01 -3.098507386719e-01 0.0 
-3.098507386719e-01 -6.907785836370e+01 0.0 
0.0 0.0 -2.799593422449e+01 
-1.198496714046e+02 1.570103641780e+01 0.0 
1.570103641780e+01 -2.724697406135e+02 0.0 
0.0 0.0 -1.172958236055e+02 
-1.392148041938e+02 2.262969230986e+01 0.0 
2.262969230986e+01 -3.290324385550e+02 0.0 
0.0 0.0 -1.400741728246e+02 
-1.317583262385e+02 2.303080050824e+01 0.0 
2.303080050824e+01 -3.069622658401e+02 0.0 
0.0 0.0 -1.312161776236e+02 
-1.441183551125e+02 1.919318334174e+01 0.0 
1.919318334174e+01 -3.442077521411e+02 0.0 
0.0 0.0 -1.460978321761e+02 
-1.508514702048e+02 1.451131237239e+01 0.0 
1.451131237239e+01 -3.598137599905e+02 0.0 
0.0 0.0 -1.527995690586e+02 
-1.624701979117e+01 -1.265781623119e+00 0.0 
-1.265781623119e+00 -1.716786947106e+01 0.0 
0.0 0.0 -1.001366840289e+01 
-5.380335678869e+01 1.114650080856e+00 0.0 
1.114650080856e+00 -9.582454900662e+01 0.0 
0.0 0.0 -4.448837173859e+01 
-1.533020736538e+02 8.392122244563e+00 0.0 
8.392122244563e+00 -3.661102568678e+02 0.0 
0.0 0.0 -1.554236991565e+02 
-9.345155216144e+01 5.143898539555e-01 0.0 
5.143898539555e-01 -2.064814974603e+02 0.0 
0.0 0.0 -8.957991488653e+01 
-1.076315712421e+01 -9.457510934884e-01 0.0 
-9.457510934884e-01 -1.708599262125e+01 0.0 
0.0 0.0 -8.355613723145e+00 
-6.284172232239e+01 -1.238359035400e-01 0.0 
-1.238359035400e-01 -1.688805803638e+02 0.0 
0.0 0.0 -6.911669080586e+01 
-1.138699991416e+02 2.300018597100e+00 0.0 
2.300018597100e+00 -2.638986615666e+02 0.0 
0.0 0.0 -1.129305982125e+02 
-2.450908501106e+01 1.648923319753e+01 0.0 
1.648923319753e+01 -3.067155145149e+01 0.0 
0.0 0.0 -1.615419093877e+01 
-2.292528411398e+01 1.502174468589e+01 0.0 
1.502174468589e+01 -2.706901622904e+01 0.0 
0.0 0.0 -1.459829010291e+01 
-3.153078405757e+01 1.073381756483e+01 0.0 
1.073381756483e+01 -3.661889842002e+01 0.0 
0.0 0.0 -2.004490474328e+01 
-4.695665018125e+01 5.282424782236e+00 0.0 
5.282424782236e+00 -7.100963301607e+01 0.0 
0.0 0.0 -3.498988495920e+01 
-1.839057232194e+01 9.027592259692e+00 0.0 
9.027592259692e+00 -1.769200219171e+01 0.0 
0.0 0.0 -1.047404038778e+01 
-6.389189659715e+01 1.522156940172e-01 0.0 
1.522156940172e-01 -1.298063348318e+02 0.0 
0.0 0.0 -5.770946942868e+01 
-1.593336703217e+02 2.123685735883e+00 0.0 
2.123685735883e+00 -3.770918325972e+02 0.0 
0.0 0.0 -1.605276508757e+02 
-6.441634176759e+00 -2.499469462687e-01 0.0 
-2.499469462687e-01 -1.637969128349e+01 0.0 
0.0 0.0 -6.802263379553e+00 
-1.075197242751e+02 5.616712693897e-01 0.0 
5.616712693897e-01 -2.455047630131e+02 0.0 
0.0 0.0 -1.055073461865e+02 
-5.876861119641e+01 3.983737983331e+00 0.0 
3.983737983331e+00 -9.934612658600e+01 0.0 
0.0 0.0 -4.703442133472e+01 
-6.338792506301e+01 5.606420001189e+00 0.0 
5.606420001189e+00 -1.089865479291e+02 0.0 
0.0 0.0 -5.131234189763e+01 
-6.647635344636e+01 4.962645106663e+00 0.0 
4.962645106663e+00 -1.175239298781e+02 0.0 
0.0 0.0 -5.480008499735e+01 
-7.173901579925e+01 7.072715706660e+00 0.0 
7.072715706660e+00 -1.291890400998e+02 0.0 
0.0 0.0 -5.987841676972e+01 
-7.521515213707e+01 6.597788429764e+00 0.0 
6.597788429764e+00 -1.385151606692e+02 0.0 
0.0 0.0 -6.371909384189e+01 
-7.971784893977e+01 8.389725600799e+00 0.0 
8.389725600799e+00 -1.492928225129e+02 0.0 
0.0 0.0 -6.830320143581e+01 
-7.645286646036e+01 9.010195103118e+00 0.0 
9.010195103118e+00 -1.403480905612e+02 0.0 
0.0 0.0 -6.464028710646e+01 
-8.418510792137e+01 1.025768400329e+01 0.0 
1.025768400329e+01 -1.606804042873e+02 0.0 
0.0 0.0 -7.305965366261e+01 
-8.081598566686e+01 1.098988326571e+01 0.0 
1.098988326571e+01 -1.520419595902e+02 0.0 
0.0 0.0 -6.945738357711e+01 
-8.323200133205e+01 7.964093225777e+00 0.0 
7.964093225777e+00 -1.588186223515e+02 0.0 
0.0 0.0 -7.221518710507e+01 
-8.837496382539e+01 1.210798796126e+01 0.0 
1.210798796126e+01 -1.725626969868e+02 0.0 
0.0 0.0 -7.788129824364e+01 
-8.494637576850e+01 1.290970724736e+01 0.0 
1.290970724736e+01 -1.643407830523e+02 0.0 
0.0 0.0 -7.438614764624e+01 
-9.234904123782e+01 1.385361312052e+01 0.0 
1.385361312052e+01 -1.849211799278e+02 0.0 
0.0 0.0 -8.278106634968e+01 
-8.885045650192e+01 1.467654833028e+01 0.0 
1.467654833028e+01 -1.771772092482e+02 0.0 
0.0 0.0 -7.940829972503e+01 
-8.137976291939e+01 1.390131127997e+01 0.0 
1.390131127997e+01 -1.566775865328e+02 0.0 
0.0 0.0 -7.101720483567e+01 
-8.515480706791e+01 1.561118128335e+01 0.0 
1.561118128335e+01 -1.700094350329e+02 0.0 
0.0 0.0 -7.614927263023e+01 
-7.761158341786e+01 1.504572842292e+01 0.0 
1.504572842292e+01 -1.495299433112e+02 0.0 
0.0 0.0 -6.774245801871e+01 
-8.124737837546e+01 1.663539961576e+01 0.0 
1.663539961576e+01 -1.634342299057e+02 0.0 
0.0 0.0 -7.300448248435e+01 
-8.876555463715e+01 1.699948726935e+01 0.0 
1.699948726935e+01 -1.836833400547e+02 0.0 
0.0 0.0 -8.133466840755e+01 
-8.474296982564e+01 1.782069097800e+01 0.0 
1.782069097800e+01 -1.775712658526e+02 0.0 
0.0 0.0 -7.829427070346e+01 
-7.706599398682e+01 1.765968463560e+01 0.0 
1.765968463560e+01 -1.574799185779e+02 0.0 
0.0 0.0 -6.996377376942e+01 
-8.045969016827e+01 1.855109653026e+01 0.0 
1.855109653026e+01 -1.719972772356e+02 0.0 
0.0 0.0 -7.533709022117e+01 
-7.268220859507e+01 1.855594044998e+01 0.0 
1.855594044998e+01 -1.522178993280e+02 0.0 
0.0 0.0 -6.707003237691e+01 
-7.602891998668e+01 1.907850508129e+01 0.0 
1.907850508129e+01 -1.670165179772e+02 0.0 
0.0 0.0 -7.251363138916e+01 
-6.815098527800e+01 1.918980562198e+01 0.0 
1.918980562198e+01 -1.475752384135e+02 0.0 
0.0 0.0 -6.431786710746e+01 
-7.149880202604e+01 1.931826032788e+01 0.0 
1.931826032788e+01 -1.625056316184e+02 0.0 
0.0 0.0 -6.980133009332e+01 
-7.942658780384e+01 1.922209986593e+01 0.0 
1.922209986593e+01 -1.815604181498e+02 0.0 
0.0 0.0 -7.789610178608e+01 
-7.490502217371e+01 1.912390764544e+01 0.0 
1.912390764544e+01 -1.770110262875e+02 0.0 
0.0 0.0 -7.517481453836e+01 
-6.695309387646e+01 1.920644307750e+01 0.0 
1.920644307750e+01 -1.583470408211e+02 0.0 
0.0 0.0 -6.719004040926e+01 
-7.041435467787e+01 1.869337114129e+01 0.0 
1.869337114129e+01 -1.726834660012e+02 0.0 
0.0 0.0 -7.252934620373e+01 
-6.251399597924e+01 1.869042936389e+01 0.0 
1.869042936389e+01 -1.544050887325e+02 0.0 
0.0 0.0 -6.467572541353e+01 
-6.604337690339e+01 1.790139000781e+01 0.0 
1.790139000781e+01 -1.684225139419e+02 0.0 
0.0 0.0 -6.993976725359e+01 
-7.400672570658e+01 1.801220325949e+01 0.0 
1.801220325949e+01 -1.865196601360e+02 0.0 
0.0 0.0 -7.775791575276e+01 
-6.970878187373e+01 1.701323288674e+01 0.0 
1.701323288674e+01 -1.819137821306e+02 0.0 
0.0 0.0 -7.508676920131e+01 
-6.184457313469e+01 1.676380472056e+01 0.0 
1.676380472056e+01 -1.640432065795e+02 0.0 
0.0 0.0 -6.736633391424e+01 
-6.558539256993e+01 1.572411435773e+01 0.0 
1.572411435773e+01 -1.771522470837e+02 0.0 
0.0 0.0 -7.242129189610e+01 
-5.788258134699e+01 1.532485768739e+01 0.0 
1.532485768739e+01 -1.594474642948e+02 0.0 
0.0 0.0 -6.479901369255e+01 
-6.170434170917e+01 1.418292564484e+01 0.0 
1.418292564484e+01 -1.721643210901e+02 0.0 
0.0 0.0 -6.976059883979e+01 
-5.421894942364e+01 1.363461248243e+01 0.0 
1.363461248243e+01 -1.545489429496e+02 0.0 
0.0 0.0 -6.223036771198e+01 
-5.806296573712e+01 1.243448632556e+01 0.0 
1.243448632556e+01 -1.667732260622e+02 0.0 
0.0 0.0 -6.705085753981e+01 
-6.566242670841e+01 1.308144386300e+01 0.0 
1.308144386300e+01 -1.843599903252e+02 0.0 
0.0 0.0 -7.460672511009e+01 
-6.205002295525e+01 1.133058455848e+01 0.0 
1.133058455848e+01 -1.785384609884e+02 0.0 
0.0 0.0 -7.177654518309e+01 
-5.469436289257e+01 1.056477271686e+01 0.0 
1.056477271686e+01 -1.609498790251e+02 0.0 
0.0 0.0 -6.429327257530e+01 
-5.865728358605e+01 9.485040393433e+00 0.0 
9.485040393433e+00 -1.722133944978e+02 0.0 
0.0 0.0 -6.886120342516e+01 
-6.616758913681e+01 1.032594488676e+01 0.0 
1.032594488676e+01 -1.899102707490e+02 0.0 
0.0 0.0 -7.642335796573e+01 
-6.273468217666e+01 8.536010921531e+00 0.0 
8.536010921531e+00 -1.831054303936e+02 0.0 
0.0 0.0 -7.335203377108e+01 
-7.040368437076e+01 9.437580047483e+00 0.0 
9.437580047483e+00 -2.009226110297e+02 0.0 
0.0 0.0 -8.099788862015e+01 
-6.692391899949e+01 7.714957490862e+00 0.0 
7.714957490862e+00 -1.936906425651e+02 0.0 
0.0 0.0 -7.778436846937e+01 
-5.953267420126e+01 6.757959471605e+00 0.0 
6.757959471605e+00 -1.759024265604e+02 0.0 
0.0 0.0 -7.023053022851e+01 
-6.364201425232e+01 6.026366266839e+00 0.0 
6.026366266839e+00 -1.860613547102e+02 0.0 
0.0 0.0 -7.451101068875e+01 
-7.120472649678e+01 7.013932732922e+00 0.0 
7.013932732922e+00 -2.039849921891e+02 0.0 
0.0 0.0 -8.215691560576e+01 
-6.782197621063e+01 5.419523126209e+00 0.0 
5.419523126209e+00 -1.959457112637e+02 0.0 
0.0 0.0 -7.873030624231e+01 
-6.052471923322e+01 4.417105412554e+00 0.0 
4.417105412554e+00 -1.780137660499e+02 0.0 
0.0 0.0 -7.116154558493e+01 
-6.460707279969e+01 3.919203618067e+00 0.0 
3.919203618067e+00 -1.875701148706e+02 0.0 
0.0 0.0 -7.525315630109e+01 
-7.209019553005e+01 4.927515417778e+00 0.0 
4.927515417778e+00 -2.056625338159e+02 0.0 
0.0 0.0 -8.292581880378e+01 
-6.875894977865e+01 3.531621443493e+00 0.0 
3.531621443493e+00 -1.969644097718e+02 0.0 
0.0 0.0 -7.931700786513e+01 
-6.150337796721e+01 2.543517553819e+00 0.0 
2.543517553819e+00 -1.788184612160e+02 0.0 
0.0 0.0 -7.169655175498e+01 
-6.552779825313e+01 2.269425120424e+00 0.0 
2.269425120424e+00 -1.879521846683e+02 0.0 
0.0 0.0 -7.564399487643e+01 
-7.301298060645e+01 3.244789736481e+00 0.0 
3.244789736481e+00 -2.063307610564e+02 0.0 
0.0 0.0 -8.340312249886e+01 
-6.961255938895e+01 2.083635045980e+00 0.0 
2.083635045980e+00 -1.969980794202e+02 0.0 
0.0 0.0 -7.958319164274e+01 
-6.233788773316e+01 1.156150588964e+00 0.0 
1.156150588964e+00 -1.785606137608e+02 0.0 
0.0 0.0 -7.186955044818e+01 
-6.626404126783e+01 1.065142927000e+00 0.0 
1.065142927000e+00 -1.873653647630e+02 0.0 
0.0 0.0 -7.568882180926e+01 
-7.377764805932e+01 1.964778878238e+00 0.0 
1.964778878238e+00 -2.060483411620e+02 0.0 
0.0 0.0 -8.354779676641e+01 
-7.024839192145e+01 1.033794499480e+00 0.0 
1.033794499480e+00 -1.961492834630e+02 0.0 
0.0 0.0 -7.951930261533e+01 
-7.798555669818e+01 1.895345403917e+00 0.0 
1.895345403917e+00 -2.150309243656e+02 0.0 
0.0 0.0 -8.750494431914e+01 
-6.287276649317e+01 2.024172820459e-01 0.0 
2.024172820459e-01 -1.772956065883e+02 0.0 
0.0 0.0 -7.165051192443e+01 
-6.670621496686e+01 2.593583614092e-01 0.0 
2.593583614092e-01 -1.859455038786e+02 0.0 
0.0 0.0 -7.539551565364e+01 
-5.943823642998e+01 -4.905124374412e-01 0.0 
-4.905124374412e-01 -1.668787932552e+02 0.0 
0.0 0.0 -6.749510890554e+01 
-6.315486573670e+01 -3.513052637418e-01 0.0 
-3.513052637418e-01 -1.755056695759e+02 0.0 
0.0 0.0 -7.119816059377e+01 
-7.775964280105e+01 1.724208353414e+01 0.0 
1.724208353414e+01 -1.998865990370e+02 0.0 
0.0 0.0 -8.289387255140e+01 
-5.597661274600e+01 -9.984789011004e-01 0.0 
-9.984789011004e-01 -1.562633867175e+02 0.0 
0.0 0.0 -6.327199983904e+01 
-5.253814267516e+01 -1.163945819114e+00 0.0 
-1.163945819114e+00 -1.479219264314e+02 0.0 
0.0 0.0 -5.973802073198e+01 
-5.957210501009e+01 -7.955426521670e-01 0.0 
-7.955426521670e-01 -1.648866655013e+02 0.0 
0.0 0.0 -6.693763115342e+01 
-6.696313605974e+01 -1.943461512000e-01 0.0 
-1.943461512000e-01 -1.842601042907e+02 0.0 
0.0 0.0 -7.496697210513e+01 
-5.244172373129e+01 -1.334417535395e+00 0.0 
-1.334417535395e+00 -1.454736986317e+02 0.0 
0.0 0.0 -5.897462670890e+01 
-5.593513095171e+01 -1.093592071221e+00 0.0 
-1.093592071221e+00 -1.541106871369e+02 0.0 
0.0 0.0 -6.261374542660e+01 
-4.883544625400e+01 -1.529237402987e+00 0.0 
-1.529237402987e+00 -1.345704925759e+02 0.0 
0.0 0.0 -5.462178164897e+01 
-5.037120017395e+01 1.485260761827e+01 0.0 
1.485260761827e+01 -1.414885228770e+02 0.0 
0.0 0.0 -5.715791691529e+01 
-9.231193467430e+01 1.806851533284e+01 0.0 
1.806851533284e+01 -1.975609067372e+02 0.0 
0.0 0.0 -8.656185242344e+01 
-5.223061549616e+01 -1.263284607416e+00 0.0 
-1.263284607416e+00 -1.432209330704e+02 0.0 
0.0 0.0 -5.823546456996e+01 
-4.512648174367e+01 -1.568780157742e+00 0.0 
-1.568780157742e+00 -1.235658095584e+02 0.0 
0.0 0.0 -5.020768739063e+01 
-4.192079879570e+01 -1.848010115294e+00 0.0 
-1.848010115294e+00 -1.149435945365e+02 0.0 
0.0 0.0 -4.665931799967e+01 
-3.822301399103e+01 -1.782361033402e+00 0.0 
-1.782361033402e+00 -1.038716700936e+02 0.0 
0.0 0.0 -4.222840522538e+01 
-7.881390834724e+01 6.411918791277e+00 0.0 
6.411918791277e+00 -1.483374274379e+02 0.0 
0.0 0.0 -6.774540073555e+01 
-8.636374230524e+01 7.572229015750e+00 0.0 
7.572229015750e+00 -1.684819701034e+02 0.0 
0.0 0.0 -7.605371372259e+01 
-8.171363154999e+01 6.050809353099e+00 0.0 
6.050809353099e+00 -1.575515035351e+02 0.0 
0.0 0.0 -7.137954052554e+01 
-8.942009300309e+01 7.318385221399e+00 0.0 
7.318385221399e+00 -1.782316236501e+02 0.0 
0.0 0.0 -7.989551499596e+01 
-8.505276514385e+01 5.902555977245e+00 0.0 
5.902555977245e+00 -1.679127382639e+02 0.0 
0.0 0.0 -7.548965102232e+01 
-4.134310519062e+01 -1.474414621061e+00 0.0 
-1.474414621061e+00 -1.124589521953e+02 0.0 
0.0 0.0 -4.574061721578e+01 
-9.572279512291e+01 1.316497756466e+01 0.0 
1.316497756466e+01 -1.933009751419e+02 0.0 
0.0 0.0 -8.630713107943e+01 
-9.371556394442e+01 8.834964757242e+00 0.0 
8.834964757242e+00 -1.888853085369e+02 0.0 
0.0 0.0 -8.438026174440e+01 
-6.929893139890e+01 1.753127963436e+01 0.0 
1.753127963436e+01 -1.372706838015e+02 0.0 
0.0 0.0 -6.157088456013e+01 
-5.908372294140e+01 1.928575958699e+01 0.0 
1.928575958699e+01 -1.397924282600e+02 0.0 
0.0 0.0 -5.926284536041e+01 
-7.408407677216e+01 1.114667715796e+01 0.0 
1.114667715796e+01 -2.077525077877e+02 0.0 
0.0 0.0 -8.415097536794e+01 
-5.949443673107e+01 -8.418138913147e-01 0.0 
-8.418138913147e-01 -1.627764877513e+02 0.0 
0.0 0.0 -6.628127734472e+01 
-5.570121880724e+01 -1.001313671604e+00 0.0 
-1.001313671604e+00 -1.519141264911e+02 0.0 
0.0 0.0 -6.188460358950e+01 
-6.306159435249e+01 -5.872431042492e-01 0.0 
-5.872431042492e-01 -1.714890730232e+02 0.0 
0.0 0.0 -6.996520021270e+01 
-8.169475547148e+01 2.891562677269e+00 0.0 
2.891562677269e+00 -2.248278974978e+02 0.0 
0.0 0.0 -9.155679589079e+01 
-8.608237873676e+01 2.773183452239e+00 0.0 
2.773183452239e+00 -2.339157638572e+02 0.0 
0.0 0.0 -9.559944277819e+01 
-8.998805774520e+01 3.823051602644e+00 0.0 
3.823051602644e+00 -2.436245448503e+02 0.0 
0.0 0.0 -9.968378077864e+01 
-9.453419195456e+01 3.651355896365e+00 0.0 
3.651355896365e+00 -2.527746420769e+02 0.0 
0.0 0.0 -1.037926502094e+02 
-9.864898050528e+01 4.747193802955e+00 0.0 
4.747193802955e+00 -2.624093675144e+02 0.0 
0.0 0.0 -1.079175044059e+02 
-1.033370886307e+02 4.514244337766e+00 0.0 
4.514244337766e+00 -2.716008136601e+02 0.0 
0.0 0.0 -1.120813706873e+02 
-9.908358308690e+01 3.489701053309e+00 0.0 
3.489701053309e+00 -2.618072569189e+02 0.0 
0.0 0.0 -1.078672520017e+02 
-1.080231019548e+02 4.286026865431e+00 0.0 
4.286026865431e+00 -2.806667308429e+02 0.0 
0.0 0.0 -1.162069498393e+02 
-1.036310514096e+02 3.323783895397e+00 0.0 
3.323783895397e+00 -2.707386169983e+02 0.0 
0.0 0.0 -1.119109005224e+02 
-1.076658320990e+02 5.648420360113e+00 0.0 
5.648420360113e+00 -2.811650068455e+02 0.0 
0.0 0.0 -1.162492516833e+02 
-1.028194297784e+02 5.951092934355e+00 0.0 
5.951092934355e+00 -2.717581741313e+02 0.0 
0.0 0.0 -1.119732811729e+02 
-1.127009656237e+02 4.046146685660e+00 0.0 
4.046146685660e+00 -2.896142266980e+02 0.0 
0.0 0.0 -1.202945576965e+02 
-1.081698388345e+02 3.135847771263e+00 0.0 
3.135847771263e+00 -2.795710582474e+02 0.0 
0.0 0.0 -1.159222691246e+02 
-1.173706131837e+02 3.777504116876e+00 0.0 
3.777504116876e+00 -2.984557525913e+02 0.0 
0.0 0.0 -1.243479097325e+02 
-1.126972588754e+02 2.917282961403e+00 0.0 
2.917282961403e+00 -2.883141206231e+02 0.0 
0.0 0.0 -1.199034138495e+02 
-1.036726452435e+02 2.334726428278e+00 0.0 
2.334726428278e+00 -2.693219283629e+02 0.0 
0.0 0.0 -1.114983720819e+02 
-1.080478604260e+02 2.161650221183e+00 0.0 
2.161650221183e+00 -2.779753940503e+02 0.0 
0.0 0.0 -1.154069763429e+02 
-9.923066475539e+01 1.658440943516e+00 0.0 
1.658440943516e+00 -2.589724865798e+02 0.0 
0.0 0.0 -1.070609454005e+02 
-7.846284039469e+01 1.032447986379e+01 0.0 
1.032447986379e+01 -2.188691462985e+02 0.0 
0.0 0.0 -8.879959600795e+01 
-8.235756808395e+01 1.195460536980e+01 0.0 
1.195460536980e+01 -2.257511300167e+02 0.0 
0.0 0.0 -9.203260943018e+01 
-8.687662340555e+01 1.120029337315e+01 0.0 
1.120029337315e+01 -2.369474587826e+02 0.0 
0.0 0.0 -9.674722465645e+01 
-9.095676040460e+01 1.276369981300e+01 0.0 
1.276369981300e+01 -2.438948622333e+02 0.0 
0.0 0.0 -1.000554867914e+02 
-9.563076222778e+01 1.208566862076e+01 0.0 
1.208566862076e+01 -2.551523610675e+02 0.0 
0.0 0.0 -1.048349369886e+02 
-9.985562211347e+01 1.359667454313e+01 0.0 
1.359667454313e+01 -2.621540304792e+02 0.0 
0.0 0.0 -1.082028957778e+02 
-1.046923415531e+02 1.299467722788e+01 0.0 
1.299467722788e+01 -2.734241345865e+02 0.0 
0.0 0.0 -1.130349428419e+02 
-1.004321084800e+02 1.147303401864e+01 0.0 
1.147303401864e+01 -2.660903287144e+02 0.0 
0.0 0.0 -1.095567311583e+02 
-9.611531474549e+01 1.545669538125e+01 0.0 
1.545669538125e+01 -1.976659197938e+02 0.0 
0.0 0.0 -8.773437036180e+01 
-5.158190477739e+01 8.614567687201e+00 0.0 
8.614567687201e+00 -1.546389041158e+02 0.0 
0.0 0.0 -6.146624266796e+01 
-4.778797710943e+01 9.760973486971e+00 0.0 
9.760973486971e+00 -1.434714161604e+02 0.0 
0.0 0.0 -5.697781798096e+01 
-4.500195099265e+01 7.713366754721e+00 0.0 
7.713366754721e+00 -1.371843630036e+02 0.0 
0.0 0.0 -5.425589419887e+01 
-4.142820772040e+01 8.916642980459e+00 0.0 
8.916642980459e+00 -1.261344269158e+02 0.0 
0.0 0.0 -4.986879039085e+01 
-3.898564192338e+01 6.796871468527e+00 0.0 
6.796871468527e+00 -1.198265655013e+02 0.0 
0.0 0.0 -4.724366222740e+01 
-3.570705557563e+01 8.062961201073e+00 0.0 
8.062961201073e+00 -1.089135077392e+02 0.0 
0.0 0.0 -4.298616899445e+01 
-3.359988085471e+01 5.907144051778e+00 0.0 
5.907144051778e+00 -1.024948477402e+02 0.0 
0.0 0.0 -4.042841857848e+01 
-3.676085909221e+01 4.742403601594e+00 0.0 
4.742403601594e+00 -1.128626167714e+02 0.0 
0.0 0.0 -4.448704275908e+01 
-3.169600582908e+01 3.858391739948e+00 0.0 
3.858391739948e+00 -9.536050896856e+01 0.0 
0.0 0.0 -3.771695443929e+01 
-3.470771416625e+01 2.827109390351e+00 0.0 
2.827109390351e+00 -1.052113109949e+02 0.0 
0.0 0.0 -4.157570754836e+01 
-2.990769000240e+01 1.984424445478e+00 0.0 
1.984424445478e+00 -8.748604111084e+01 0.0 
0.0 0.0 -3.481811933397e+01 
-3.272953943749e+01 1.121035669739e+00 0.0 
1.121035669739e+00 -9.682278465618e+01 0.0 
0.0 0.0 -3.846569722810e+01 
-8.291678056107e+01 1.909902853348e+01 0.0 
1.909902853348e+01 -1.957783614520e+02 0.0 
0.0 0.0 -8.320854260391e+01 
-9.515889246435e+01 1.425561712180e+01 0.0 
1.425561712180e+01 -2.505208061160e+02 0.0 
0.0 0.0 -1.033039095741e+02 
-1.041933401137e+02 1.503750826253e+01 0.0 
1.503750826253e+01 -2.688902311315e+02 0.0 
0.0 0.0 -1.115250713735e+02 
-9.943417083550e+01 1.564062190112e+01 0.0 
1.564062190112e+01 -2.568082222254e+02 0.0 
0.0 0.0 -1.064727179183e+02 
-3.516177693798e+01 -2.024786032345e+00 0.0 
-2.024786032345e+00 -9.528176885640e+01 0.0 
0.0 0.0 -3.873306373831e+01 
-1.172108748856e+02 2.656209972673e+00 0.0 
2.656209972673e+00 -2.969870568474e+02 0.0 
0.0 0.0 -1.238593795199e+02 
-1.120693941864e+02 6.888414472520e+00 0.0 
6.888414472520e+00 -2.904700984462e+02 0.0 
0.0 0.0 -1.203618477898e+02 
-1.070544401855e+02 7.243820148346e+00 0.0 
7.243820148346e+00 -2.807843789336e+02 0.0 
0.0 0.0 -1.159516457357e+02 
-1.096836853196e+02 1.243370688787e+01 0.0 
1.243370688787e+01 -2.844181927783e+02 0.0 
0.0 0.0 -1.178305634294e+02 
-3.445705317847e+01 -1.603723854155e+00 0.0 
-1.603723854155e+00 -9.288912393187e+01 0.0 
0.0 0.0 -3.780385313310e+01 
-3.072941426176e+01 7.274861985264e+00 0.0 
7.274861985264e+00 -9.180949176286e+01 0.0 
0.0 0.0 -3.636167180739e+01 
-3.264729479671e+01 9.476461515868e+00 0.0 
9.476461515868e+00 -9.743578155400e+01 0.0 
0.0 0.0 -3.862492290521e+01 
-9.245114448048e+01 7.100240336566e+00 0.0 
7.100240336566e+00 -1.881789059474e+02 0.0 
0.0 0.0 -8.378901512835e+01 
-8.820026003198e+01 5.771620738405e+00 0.0 
5.771620738405e+00 -1.780302352938e+02 0.0 
0.0 0.0 -7.946914859773e+01 
-1.165772317125e+02 8.208478303694e+00 0.0 
8.208478303694e+00 -2.995282632864e+02 0.0 
0.0 0.0 -1.244316484997e+02 
-3.754279190150e+01 -1.331501930692e+00 0.0 
-1.331501930692e+00 -1.014565488404e+02 0.0 
0.0 0.0 -4.129980222258e+01 
-1.172961236000e+02 5.058758909967e+00 0.0 
5.058758909967e+00 -2.994672832974e+02 0.0 
0.0 0.0 -1.246290220692e+02 
-2.734655229468e+01 3.065248758365e+00 0.0 
3.065248758365e+00 -7.791820131496e+01 0.0 
0.0 0.0 -3.117942608289e+01 
-1.124183222682e+02 1.940179911941e+00 0.0 
1.940179911941e+00 -2.865774695178e+02 0.0 
0.0 0.0 -1.192987375358e+02 
-1.216836882551e+02 2.347464443344e+00 0.0 
2.347464443344e+00 -3.055819564344e+02 0.0 
0.0 0.0 -1.277796934069e+02 
-9.490121907874e+01 2.583511710264e+00 0.0 
2.583511710264e+00 -2.518270922602e+02 0.0 
0.0 0.0 -1.036184934017e+02 
-1.085989002138e+02 1.639590969928e+01 0.0 
1.639590969928e+01 -2.753911968603e+02 0.0 
0.0 0.0 -1.147970291222e+02 
-1.037674565092e+02 1.688724995522e+01 0.0 
1.688724995522e+01 -2.628546815820e+02 0.0 
0.0 0.0 -1.095866414274e+02 
-3.794719202329e+01 2.032504152441e+00 0.0 
2.032504152441e+00 -1.148726804777e+02 0.0 
0.0 0.0 -4.544596175029e+01 
-3.574767024031e+01 5.612495347941e-01 0.0 
5.612495347941e-01 -1.061029048428e+02 0.0 
0.0 0.0 -4.215517252492e+01 
-3.082154762203e+01 -2.298190444015e-01 0.0 
-2.298190444015e-01 -8.815862801882e+01 0.0 
0.0 0.0 -3.529405269225e+01 
-3.394476063817e+01 -6.732543593234e-01 0.0 
-6.732543593234e-01 -9.754406811931e+01 0.0 
0.0 0.0 -3.904664862725e+01 
-3.898077917558e+01 8.325314235432e-02 0.0 
8.325314235432e-02 -1.154587699930e+02 0.0 
0.0 0.0 -4.593186475056e+01 
-3.661107529901e+01 -1.064903807867e+00 0.0 
-1.064903807867e+00 -1.057934634260e+02 0.0 
0.0 0.0 -4.232136161749e+01 
-3.148751204393e+01 -1.745972054815e+00 0.0 
-1.745972054815e+00 -8.742026770591e+01 0.0 
0.0 0.0 -3.527233392495e+01 
-3.412409109109e+01 -1.853051918981e+00 0.0 
-1.853051918981e+00 -9.572348055651e+01 0.0 
0.0 0.0 -3.855427149428e+01 
-3.964667054096e+01 -1.235312677546e+00 0.0 
-1.235312677546e+00 -1.144679863846e+02 0.0 
0.0 0.0 -4.583439707766e+01 
-3.693521048216e+01 -1.926258101592e+00 0.0 
-1.926258101592e+00 -1.041963331581e+02 0.0 
0.0 0.0 -4.193946309209e+01 
-3.148098968728e+01 -2.350558021782e+00 0.0 
-2.350558021782e+00 -8.513176073713e+01 0.0 
0.0 0.0 -3.458382512732e+01 
-3.401830509885e+01 -2.322753636259e+00 0.0 
-2.322753636259e+00 -9.350869517909e+01 0.0 
0.0 0.0 -3.785810008338e+01 
-1.266290016619e+02 3.111918658911e+00 0.0 
3.111918658911e+00 -3.158635491946e+02 0.0 
0.0 0.0 -1.323477652570e+02 
-2.586352483331e+01 1.273856209103e+00 0.0 
1.273856209103e+00 -6.977396600364e+01 0.0 
0.0 0.0 -2.829124725109e+01 
-7.370305774453e+01 1.308958976707e+01 0.0 
1.308958976707e+01 -1.360503547967e+02 0.0 
0.0 0.0 -6.252602376236e+01 
-1.216690995350e+02 7.791456915507e+00 0.0 
7.791456915507e+00 -3.091244332513e+02 0.0 
0.0 0.0 -1.288380598359e+02 
-1.140004100134e+02 1.393246463004e+01 0.0 
1.393246463004e+01 -2.915688471851e+02 0.0 
0.0 0.0 -1.212707771595e+02 
-9.546330099638e+01 6.889152602307e+00 0.0 
6.889152602307e+00 -1.983076528704e+02 0.0 
0.0 0.0 -8.773128616003e+01 
-9.133501018064e+01 5.637531238645e+00 0.0 
5.637531238645e+00 -1.883447931379e+02 0.0 
0.0 0.0 -8.350394099558e+01 
-8.382197414496e+01 4.539697656404e+00 0.0 
4.539697656404e+00 -1.681133722321e+02 0.0 
0.0 0.0 -7.518060391312e+01 
-8.713274574012e+01 4.493511247904e+00 0.0 
4.493511247904e+00 -1.786664960264e+02 0.0 
0.0 0.0 -7.933977252997e+01 
-9.445935509109e+01 5.498531111073e+00 0.0 
5.498531111073e+00 -1.988723080688e+02 0.0 
0.0 0.0 -8.759949894798e+01 
-9.042285826020e+01 4.416756548472e+00 0.0 
4.416756548472e+00 -1.892809537783e+02 0.0 
0.0 0.0 -8.351114361155e+01 
-8.289406946966e+01 3.510022894600e+00 0.0 
3.510022894600e+00 -1.691689682267e+02 0.0 
0.0 0.0 -7.521891130891e+01 
-8.636551081440e+01 3.474946687563e+00 0.0 
3.474946687563e+00 -1.798248638186e+02 0.0 
0.0 0.0 -7.945711238989e+01 
-7.868535264556e+01 2.669744653459e+00 0.0 
2.669744653459e+00 -1.597914496558e+02 0.0 
0.0 0.0 -7.114304069041e+01 
-8.230359707876e+01 2.667040302909e+00 0.0 
2.667040302909e+00 -1.705143066613e+02 0.0 
0.0 0.0 -7.544537112202e+01 
-8.983572273617e+01 3.396313668160e+00 0.0 
3.396313668160e+00 -1.905470722430e+02 0.0 
0.0 0.0 -8.371483849375e+01 
-8.592095497162e+01 2.638321237923e+00 0.0 
2.638321237923e+00 -1.813256511934e+02 0.0 
0.0 0.0 -7.977398184950e+01 
-7.823910393321e+01 1.984810043973e+00 0.0 
1.984810043973e+00 -1.613740081308e+02 0.0 
0.0 0.0 -7.148393361920e+01 
-8.200144087854e+01 1.997182728651e+00 0.0 
1.997182728651e+00 -1.721878363332e+02 0.0 
0.0 0.0 -7.585678316353e+01 
-7.419441492720e+01 1.445583832975e+00 0.0 
1.445583832975e+00 -1.522794910631e+02 0.0 
0.0 0.0 -6.754217179709e+01 
-7.811003765790e+01 1.482264435323e+00 0.0 
1.482264435323e+00 -1.630291691311e+02 0.0 
0.0 0.0 -7.194176203671e+01 
-8.577878383767e+01 1.906163021735e+00 0.0 
1.906163021735e+00 -1.830620305590e+02 0.0 
0.0 0.0 -8.025224431902e+01 
-3.091497315894e+01 -1.375156641398e+00 0.0 
-1.375156641398e+00 -8.240098788888e+01 0.0 
0.0 0.0 -3.359478831434e+01 
-1.053566394028e+02 1.091710563882e+01 0.0 
1.091710563882e+01 -2.767633370886e+02 0.0 
0.0 0.0 -1.142359929474e+02 
-1.148558774206e+02 1.190354571953e+01 0.0 
1.190354571953e+01 -2.952570547375e+02 0.0 
0.0 0.0 -1.226338796474e+02 
-5.931840001297e+01 -6.387520199877e-01 0.0 
-6.387520199877e-01 -1.611699878216e+02 0.0 
0.0 0.0 -6.574651635036e+01 
-6.654820693572e+01 -3.226208627737e-01 0.0 
-3.226208627737e-01 -1.799434566150e+02 0.0 
0.0 0.0 -7.354749906522e+01 
-7.063277677490e+01 -2.388373532928e-01 0.0 
-2.388373532928e-01 -1.909337765670e+02 0.0 
0.0 0.0 -7.806996600258e+01 
-7.448366320730e+01 -6.624400644038e-02 0.0 
-6.624400644038e-02 -1.997471921742e+02 0.0 
0.0 0.0 -8.186925661445e+01 
-8.196911655617e+01 1.397285077780e+00 0.0 
1.397285077780e+00 -1.738030210089e+02 0.0 
0.0 0.0 -7.633164126952e+01 
-8.948351032895e+01 1.730953952291e+00 0.0 
1.730953952291e+00 -1.939655712194e+02 0.0 
0.0 0.0 -8.463472446450e+01 
-2.814292165401e+01 8.816250733738e+00 0.0 
8.816250733738e+00 -8.057082386230e+01 0.0 
0.0 0.0 -3.221412365489e+01 
-2.987734988790e+01 1.097218968781e+01 0.0 
1.097218968781e+01 -8.534125003672e+01 0.0 
0.0 0.0 -3.416557997739e+01 
-9.949355862030e+01 8.253133853533e+00 0.0 
8.253133853533e+00 -2.085571185229e+02 0.0 
0.0 0.0 -9.201520314296e+01 
-1.167698472964e+02 1.681997468705e+00 0.0 
1.681997468705e+00 -2.951710907045e+02 0.0 
0.0 0.0 -1.231822814003e+02 
-1.076925316538e+02 1.332944305614e+00 0.0 
1.332944305614e+00 -2.761156979453e+02 0.0 
0.0 0.0 -1.147424688797e+02 
-5.479007519964e+01 1.863391050616e+01 0.0 
1.863391050616e+01 -1.362625607996e+02 0.0 
0.0 0.0 -5.691579079979e+01 
-5.136160240924e+01 1.926351707827e+01 0.0 
1.926351707827e+01 -1.213195083128e+02 0.0 
0.0 0.0 -5.140433321661e+01 
-4.734249197935e+01 1.846368659200e+01 0.0 
1.846368659200e+01 -1.181669701462e+02 0.0 
0.0 0.0 -4.925283863765e+01 
-4.383424875685e+01 1.903008793111e+01 0.0 
1.903008793111e+01 -1.025939596812e+02 0.0 
0.0 0.0 -4.352846253142e+01 
-4.788697710194e+01 1.952997118837e+01 0.0 
1.952997118837e+01 -1.055583632806e+02 0.0 
0.0 0.0 -4.563360211476e+01 
-4.024783203314e+01 1.809150859543e+01 0.0 
1.809150859543e+01 -9.972220480243e+01 0.0 
0.0 0.0 -4.159101105067e+01 
-9.790049467397e+01 6.249545429264e+00 0.0 
6.249545429264e+00 -2.620096024040e+02 0.0 
0.0 0.0 -1.075730291234e+02 
-9.331789909862e+01 3.280285174574e+00 0.0 
3.280285174574e+00 -2.013912610858e+02 0.0 
0.0 0.0 -8.801274805532e+01 
-3.882509955048e+01 -2.109040878323e+00 0.0 
-2.109040878323e+00 -1.064121314208e+02 0.0 
0.0 0.0 -4.317116929138e+01 
-3.232196255272e+01 -2.238747818597e+00 0.0 
-2.238747818597e+00 -8.683416158305e+01 0.0 
0.0 0.0 -3.534683724073e+01 
-1.261034142128e+02 1.996091994191e+00 0.0 
1.996091994191e+00 -3.141595169100e+02 0.0 
0.0 0.0 -1.316788793368e+02 
-9.623961757441e+01 9.932183709491e+00 0.0 
9.932183709491e+00 -2.583932614772e+02 0.0 
0.0 0.0 -1.059898637155e+02 
-8.737214299747e+01 1.922120085138e+01 0.0 
1.922120085138e+01 -2.006717040553e+02 0.0 
0.0 0.0 -8.601315411582e+01 
-9.098977063151e+01 1.917698492644e+01 0.0 
1.917698492644e+01 -2.146833962342e+02 0.0 
0.0 0.0 -9.130195005972e+01 
-9.535655465270e+01 1.935671953007e+01 0.0 
1.935671953007e+01 -2.199230890586e+02 0.0 
0.0 0.0 -9.418389311338e+01 
-9.913647147170e+01 1.939744872525e+01 0.0 
1.939744872525e+01 -2.337640265690e+02 0.0 
0.0 0.0 -9.947014941220e+01 
-1.033560274747e+02 1.966499179688e+01 0.0 
1.966499179688e+01 -2.392793047739e+02 0.0 
0.0 0.0 -1.023905996746e+02 
-1.072934204860e+02 1.981550909667e+01 0.0 
1.981550909667e+01 -2.528856691586e+02 0.0 
0.0 0.0 -1.076537268934e+02 
-1.031086905431e+02 1.931374570820e+01 0.0 
1.931374570820e+01 -2.473652761589e+02 0.0 
0.0 0.0 -1.047421900106e+02 
-1.130113242651e+02 1.765941041652e+01 0.0 
1.765941041652e+01 -2.816585991713e+02 0.0 
0.0 0.0 -1.180009770309e+02 
-1.114748099178e+02 1.989038535641e+01 0.0 
1.989038535641e+01 -2.663234733829e+02 0.0 
0.0 0.0 -1.129394849902e+02 
-7.421890523720e+01 9.761279053438e-01 0.0 
9.761279053438e-01 -1.536111750015e+02 0.0 
0.0 0.0 -6.794902407162e+01 
-9.050647666211e+01 1.494336589204e+01 0.0 
1.494336589204e+01 -2.383365681983e+02 0.0 
0.0 0.0 -9.825291345812e+01 
-4.282716914085e+01 -1.311479291544e+00 0.0 
-1.311479291544e+00 -1.231991164891e+02 0.0 
0.0 0.0 -4.940788568898e+01 
-2.763113617031e+01 -1.532221006388e+00 0.0 
-1.532221006388e+00 -7.356615917785e+01 0.0 
0.0 0.0 -2.995918860445e+01 
-2.823222380194e+01 -2.543815194024e+00 0.0 
-2.543815194024e+00 -7.375888161709e+01 0.0 
0.0 0.0 -3.019733162571e+01 
-3.351317288692e+01 -1.158953007579e+00 0.0 
-1.158953007579e+00 -9.015124619550e+01 0.0 
0.0 0.0 -3.669932572472e+01 
-4.065971178659e+01 -1.080100613416e+00 0.0 
-1.080100613416e+00 -1.099862131022e+02 0.0 
0.0 0.0 -4.479377746663e+01 
-1.264369299105e+02 9.151437497410e+00 0.0 
9.151437497410e+00 -3.181862269775e+02 0.0 
0.0 0.0 -1.329869470664e+02 
-1.113133225546e+02 2.018839556529e+01 0.0 
2.018839556529e+01 -2.586038897828e+02 0.0 
0.0 0.0 -1.105751637012e+02 
-1.072995385338e+02 1.976501001080e+01 0.0 
1.976501001080e+01 -2.448667701349e+02 0.0 
0.0 0.0 -1.052498926006e+02 
-4.030612289358e+01 1.921106309917e+01 0.0 
1.921106309917e+01 -8.646285034865e+01 0.0 
0.0 0.0 -3.763069197267e+01 
-4.439477382465e+01 1.925263500240e+01 0.0 
1.925263500240e+01 -8.915482065286e+01 0.0 
0.0 0.0 -3.966487834325e+01 
-1.180480351818e+02 1.728559828505e+01 0.0 
1.728559828505e+01 -2.939835737613e+02 0.0 
0.0 0.0 -1.232094826829e+02 
-7.727655759404e+01 4.665594546979e+00 0.0 
4.665594546979e+00 -1.476780517093e+02 0.0 
0.0 0.0 -6.708638279099e+01 
-7.507734883447e+01 2.615746674584e+00 0.0 
2.615746674584e+00 -1.491993075910e+02 0.0 
0.0 0.0 -6.688299692765e+01 
-7.066003104015e+01 1.875236887602e+00 0.0 
1.875236887602e+00 -1.398185870287e+02 0.0 
0.0 0.0 -6.274358542064e+01 
-2.598635333954e+01 -1.063700698504e+00 0.0 
-1.063700698504e+00 -6.880312276739e+01 0.0 
0.0 0.0 -2.803684283208e+01 
-2.634480574525e+01 -2.549998932515e+00 0.0 
-2.549998932515e+00 -6.620178584622e+01 0.0 
0.0 0.0 -2.736397747744e+01 
-9.761610232245e+01 5.306755030309e+00 0.0 
5.306755030309e+00 -2.095041493470e+02 0.0 
0.0 0.0 -9.173607550083e+01 
-3.478394458449e+01 1.162869984044e+01 0.0 
1.162869984044e+01 -1.022495355437e+02 0.0 
0.0 0.0 -4.071004403847e+01 
-3.186902990221e+01 1.306092757372e+01 0.0 
1.306092757372e+01 -8.941228153841e+01 0.0 
0.0 0.0 -3.598439343219e+01 
-2.373483126814e+01 2.482882221680e+00 0.0 
2.482882221680e+00 -6.030833162110e+01 0.0 
0.0 0.0 -2.481294886677e+01 
-2.245885870354e+01 7.487277890913e-01 0.0 
7.487277890913e-01 -5.189457285586e+01 0.0 
0.0 0.0 -2.190602946782e+01 
-8.581725234034e+01 1.151500753608e+00 0.0 
1.151500753608e+00 -1.844158317663e+02 0.0 
0.0 0.0 -8.066992523199e+01 
-9.322622285934e+01 1.471429535278e+00 0.0 
1.471429535278e+00 -2.044630744329e+02 0.0 
0.0 0.0 -8.890678918766e+01 
-7.857670985296e+01 2.120927649925e-01 0.0 
2.120927649925e-01 -2.103837661936e+02 0.0 
0.0 0.0 -8.628814281396e+01 
-8.243408474543e+01 3.333146747383e-01 0.0 
3.333146747383e-01 -2.191083632080e+02 0.0 
0.0 0.0 -9.006273438603e+01 
-1.212140431799e+02 9.604157581532e+00 0.0 
9.604157581532e+00 -3.083696841718e+02 0.0 
0.0 0.0 -1.284751182055e+02 
-3.094528926190e+01 -2.501972344726e+00 0.0 
-2.501972344726e+00 -8.265179460920e+01 0.0 
0.0 0.0 -3.367912516133e+01 
-9.689926217714e+01 2.120312604462e+00 0.0 
2.120312604462e+00 -2.140999100015e+02 0.0 
0.0 0.0 -9.289975165358e+01 
-1.010976386477e+02 9.410389885656e+00 0.0 
9.410389885656e+00 -2.687808517748e+02 0.0 
0.0 0.0 -1.105635471267e+02 
-9.216768225122e+01 8.409619433797e+00 0.0 
8.409619433797e+00 -2.503660031549e+02 0.0 
0.0 0.0 -1.023601056218e+02 
-7.036252526801e+01 -2.904184314713e-01 0.0 
-2.904184314713e-01 -1.886537380046e+02 0.0 
0.0 0.0 -7.730487898179e+01 
-2.593914798379e+01 1.045837828754e+01 0.0 
1.045837828754e+01 -6.872396671318e+01 0.0 
0.0 0.0 -2.799893440909e+01 
-2.447937493112e+01 8.319534592361e+00 0.0 
8.319534592361e+00 -6.400802472758e+01 0.0 
0.0 0.0 -2.614621989761e+01 
-4.559326815491e+01 -4.756516759166e-01 0.0 
-4.756516759166e-01 -1.331961057396e+02 0.0 
0.0 0.0 -5.323681216834e+01 
-3.687518217443e+01 -2.270987258446e+00 0.0 
-2.270987258446e+00 -1.020944397394e+02 0.0 
0.0 0.0 -4.129088657414e+01 
-3.662963850761e+01 -8.458733839507e-01 0.0 
-8.458733839507e-01 -9.871171472508e+01 0.0 
0.0 0.0 -4.020240596981e+01 
-1.312379417614e+02 1.057259144339e+01 0.0 
1.057259144339e+01 -3.269057290206e+02 0.0 
0.0 0.0 -1.370431012346e+02 
-1.014246471222e+02 6.422413030173e+00 0.0 
6.422413030173e+00 -2.190836682987e+02 0.0 
0.0 0.0 -9.575249462626e+01 
-1.073633008800e+02 1.920506863164e+01 0.0 
1.920506863164e+01 -2.606995503545e+02 0.0 
0.0 0.0 -1.100188553704e+02 
-9.873623515954e+01 1.867857851102e+01 0.0 
1.867857851102e+01 -2.418170059552e+02 0.0 
0.0 0.0 -1.017659723344e+02 
-1.161483403152e+02 1.988871724113e+01 0.0 
1.988871724113e+01 -2.796911588552e+02 0.0 
0.0 0.0 -1.183518497511e+02 
-2.550378065979e+01 -2.489112392976e+00 0.0 
-2.489112392976e+00 -6.323425035749e+01 0.0 
0.0 0.0 -2.622140930518e+01 
-1.317397295135e+02 8.687091324873e+00 0.0 
8.687091324873e+00 -3.280005586529e+02 0.0 
0.0 0.0 -1.375220864499e+02 
-1.210817091483e+02 1.366965925488e+00 0.0 
1.366965925488e+00 -3.037753944282e+02 0.0 
0.0 0.0 -1.270571310729e+02 
-1.146555478753e+02 2.033806167161e+01 0.0 
2.033806167161e+01 -2.635953574779e+02 0.0 
0.0 0.0 -1.130752716060e+02 
-1.110046841255e+02 1.974352442746e+01 0.0 
1.974352442746e+01 -2.507753878304e+02 0.0 
0.0 0.0 -1.081340215868e+02 
-3.717821984663e+01 1.366251224532e+01 0.0 
1.366251224532e+01 -1.063982797552e+02 0.0 
0.0 0.0 -4.267294988054e+01 
-3.420427853082e+01 1.499574361790e+01 0.0 
1.499574361790e+01 -9.307198196434e+01 0.0 
0.0 0.0 -3.778287814855e+01 
-2.926728393785e+01 1.440552172201e+01 0.0 
1.440552172201e+01 -7.586143036768e+01 0.0 
0.0 0.0 -3.113861429166e+01 
-3.131052890982e+01 1.608652514439e+01 0.0 
1.608652514439e+01 -7.879121102505e+01 0.0 
0.0 0.0 -3.263052198046e+01 
-7.292784760214e+01 9.810004783741e+00 0.0 
9.810004783741e+00 -1.315316917856e+02 0.0 
0.0 0.0 -6.093786181633e+01 
-4.005518296717e+01 1.554928152211e+01 0.0 
1.554928152211e+01 -1.103564169548e+02 0.0 
0.0 0.0 -4.472347997658e+01 
-6.983285805289e+01 1.444047261573e+01 0.0 
1.444047261573e+01 -1.288091479775e+02 0.0 
0.0 0.0 -5.919260180911e+01 
-6.571615985614e+01 1.216837122496e+01 0.0 
1.216837122496e+01 -1.152200713715e+02 0.0 
0.0 0.0 -5.388086936830e+01 
-6.184292034838e+01 1.369382072877e+01 0.0 
1.369382072877e+01 -1.079878635613e+02 0.0 
0.0 0.0 -5.054923517291e+01 
-5.228561677101e+01 1.940059910362e+01 0.0 
1.940059910362e+01 -1.085761391177e+02 0.0 
0.0 0.0 -4.785852676662e+01 
-4.883432716485e+01 1.856070176542e+01 0.0 
1.856070176542e+01 -9.217006870178e+01 0.0 
0.0 0.0 -4.190131875999e+01 
-4.408735409170e+01 1.101755178273e+01 0.0 
1.101755178273e+01 -1.317343243652e+02 0.0 
0.0 0.0 -5.234650353707e+01 
-7.793544853305e+01 1.279188441968e+01 0.0 
1.279188441968e+01 -2.141534196810e+02 0.0 
0.0 0.0 -8.722666046422e+01 
-7.466199879137e+01 8.679925645514e-02 0.0 
8.679925645514e-02 -2.017154023968e+02 0.0 
0.0 0.0 -8.251322035647e+01 
-9.500567258023e+01 1.745609796610e+00 0.0 
1.745609796610e+00 -2.503489516579e+02 0.0 
0.0 0.0 -1.032063872714e+02 
-8.544301666195e+01 4.015603105654e+00 0.0 
4.015603105654e+00 -2.343096435137e+02 0.0 
0.0 0.0 -9.552579805269e+01 
-9.701424144229e+01 4.112784392708e+00 0.0 
4.112784392708e+00 -2.105696350800e+02 0.0 
0.0 0.0 -9.187516295669e+01 
-1.004080194977e+02 3.900560973857e+00 0.0 
3.900560973857e+00 -2.215537096651e+02 0.0 
0.0 0.0 -9.618851874883e+01 
-7.030036212162e+01 1.361135872375e+00 0.0 
1.361135872375e+00 -1.414997265951e+02 0.0 
0.0 0.0 -6.314002661500e+01 
-6.626523591802e+01 9.407120420319e-01 0.0 
9.407120420319e-01 -1.323763143009e+02 0.0 
0.0 0.0 -5.919246506569e+01 
-2.857754732756e+01 -2.027216201087e+00 0.0 
-2.027216201087e+00 -7.558869342672e+01 0.0 
0.0 0.0 -3.084987222628e+01 
-2.591690482829e+01 -2.193216968998e+00 0.0 
-2.193216968998e+00 -6.719677962842e+01 0.0 
0.0 0.0 -2.753410533701e+01 
-8.223038907627e+01 1.857684877162e+00 0.0 
1.857684877162e+00 -2.239741105798e+02 0.0 
0.0 0.0 -9.146134989681e+01 
-1.267157236243e+02 7.356248739027e+00 0.0 
7.356248739027e+00 -3.184883663412e+02 0.0 
0.0 0.0 -1.331612269897e+02 
-1.022108184129e+02 7.917817039436e+00 0.0 
7.917817039436e+00 -2.184440540407e+02 0.0 
0.0 0.0 -9.579646173611e+01 
-1.060200842827e+02 9.352588679431e+00 0.0 
9.352588679431e+00 -2.288194813441e+02 0.0 
0.0 0.0 -1.000518696880e+02 
-1.033990607334e+02 9.726945581800e+00 0.0 
9.726945581800e+00 -2.189846077922e+02 0.0 
0.0 0.0 -9.631510055770e+01 
-1.258084398538e+02 1.105490567832e+01 0.0 
1.105490567832e+01 -3.166815906497e+02 0.0 
0.0 0.0 -1.323470091510e+02 
-4.872558322131e+01 6.664076225231e+00 0.0 
6.664076225231e+00 -1.478447308799e+02 0.0 
0.0 0.0 -5.857109423035e+01 
-8.294039907423e+01 9.599887224020e+00 0.0 
9.599887224020e+00 -2.296501876550e+02 0.0 
0.0 0.0 -9.337717601878e+01 
-2.440311109511e+01 -1.114934600685e-01 0.0 
-1.114934600685e-01 -6.099789332469e+01 0.0 
0.0 0.0 -2.522030132594e+01 
-8.211377810163e+01 1.814368807209e+01 0.0 
1.814368807209e+01 -2.047546755827e+02 0.0 
0.0 0.0 -8.566053610530e+01 
-2.214570503602e+01 -1.841789321004e+00 0.0 
-1.841789321004e+00 -5.607885437869e+01 0.0 
0.0 0.0 -2.306736782441e+01 
-9.613228448000e+01 1.743703017452e+01 0.0 
1.743703017452e+01 -2.037937007188e+02 0.0 
0.0 0.0 -8.957779555965e+01 
-1.306156419325e+02 1.578185580913e+00 0.0 
1.578185580913e+00 -3.227880371756e+02 0.0 
0.0 0.0 -1.356211037324e+02 
-1.357018819830e+02 2.268357817092e+00 0.0 
2.268357817092e+00 -3.329532647843e+02 0.0 
0.0 0.0 -1.401965440302e+02 
-1.223502463511e+02 1.859899624476e+01 0.0 
1.859899624476e+01 -3.002163512887e+02 0.0 
0.0 0.0 -1.263699792920e+02 
-5.994502554744e+01 6.182919557976e+00 0.0 
6.182919557976e+00 -1.002548643006e+02 0.0 
0.0 0.0 -4.765996695440e+01 
-8.598061897687e+01 1.751081628299e+01 0.0 
1.751081628299e+01 -2.180026683670e+02 0.0 
0.0 0.0 -9.079498620316e+01 
-8.170566730315e+01 1.642886696761e+01 0.0 
1.642886696761e+01 -2.128382732240e+02 0.0 
0.0 0.0 -8.796318215815e+01 
-5.744583245200e+01 1.099877213805e+01 0.0 
1.099877213805e+01 -9.444139242347e+01 0.0 
0.0 0.0 -4.516616746264e+01 
-5.353889460551e+01 1.268648551998e+01 0.0 
1.268648551998e+01 -8.701417533223e+01 0.0 
0.0 0.0 -4.176592098132e+01 
-5.772201520753e+01 1.538268441632e+01 0.0 
1.538268441632e+01 -1.015922700358e+02 0.0 
0.0 0.0 -4.739428557301e+01 
-4.949076461540e+01 1.469462910586e+01 0.0 
1.469462910586e+01 -8.071372992628e+01 0.0 
0.0 0.0 -3.866134836250e+01 
-4.901832480138e+01 -5.642929235929e-01 0.0 
-5.642929235929e-01 -1.418939203634e+02 0.0 
0.0 0.0 -5.687367354944e+01 
-4.604973500023e+01 -1.299905624378e+00 0.0 
-1.299905624378e+00 -1.317012241777e+02 0.0 
0.0 0.0 -5.292528775339e+01 
-1.198624350881e+02 2.108454807166e+01 0.0 
2.108454807166e+01 -2.792868245090e+02 0.0 
0.0 0.0 -1.193447778791e+02 
-1.198375895554e+02 2.063582638019e+01 0.0 
2.063582638019e+01 -2.850943689327e+02 0.0 
0.0 0.0 -1.210795875464e+02 
-1.181936261452e+02 2.063104153990e+01 0.0 
2.063104153990e+01 -2.699753386371e+02 0.0 
0.0 0.0 -1.160506894347e+02 
-1.148055832363e+02 1.973108318431e+01 0.0 
1.973108318431e+01 -2.575481505964e+02 0.0 
0.0 0.0 -1.113061201498e+02 
-1.277258142076e+02 1.833338245287e+01 0.0 
1.833338245287e+01 -3.124555015269e+02 0.0 
0.0 0.0 -1.316543947204e+02 
-1.231326600851e+02 1.689411132808e+01 0.0 
1.689411132808e+01 -3.057148658092e+02 0.0 
0.0 0.0 -1.282542577683e+02 
-4.353551240120e+01 -7.437820300344e-01 0.0 
-7.437820300344e-01 -1.179986274446e+02 0.0 
0.0 0.0 -4.806024195375e+01 
-4.084829251558e+01 1.821278833475e+01 0.0 
1.821278833475e+01 -7.218655870945e+01 0.0 
0.0 0.0 -3.351045536751e+01 
-1.045560202940e+02 6.140919107819e+00 0.0 
6.140919107819e+00 -2.296926893283e+02 0.0 
0.0 0.0 -9.987461288671e+01 
-6.114281060797e+01 9.599120796518e+00 0.0 
9.599120796518e+00 -1.024359954307e+02 0.0 
0.0 0.0 -4.867364181161e+01 
-1.367379175226e+02 8.156430475088e+00 0.0 
8.156430475088e+00 -3.368781361842e+02 0.0 
0.0 0.0 -1.416848161120e+02 
-1.317896852101e+02 6.923790431846e+00 0.0 
6.923790431846e+00 -3.277277272832e+02 0.0 
0.0 0.0 -1.374552237480e+02 
-2.146481354302e+01 -4.291210584041e-01 0.0 
-4.291210584041e-01 -4.280470917078e+01 0.0 
0.0 0.0 -1.888085681414e+01 
-2.278562899831e+01 -1.248969421488e+00 0.0 
-1.248969421488e+00 -5.095136760796e+01 0.0 
0.0 0.0 -2.172109898188e+01 
-1.005739287723e+02 1.805248516716e+00 0.0 
1.805248516716e+00 -2.249045458054e+02 0.0 
0.0 0.0 -9.724354237333e+01 
-2.709553337107e+01 1.546931152854e+01 0.0 
1.546931152854e+01 -6.132531163854e+01 0.0 
0.0 0.0 -2.612625350288e+01 
-2.860724759126e+01 1.674091521457e+01 0.0 
1.674091521457e+01 -6.308288393348e+01 0.0 
0.0 0.0 -2.710703945742e+01 
-2.559194763174e+01 1.391614318036e+01 0.0 
1.391614318036e+01 -5.897801619056e+01 0.0 
0.0 0.0 -2.497098914669e+01 
-1.509855306950e+02 6.301693624359e-01 0.0 
6.301693624359e-01 -3.614611461451e+02 0.0 
0.0 0.0 -1.533340030520e+02 
-4.932958278127e+01 3.666586451496e-02 0.0 
3.666586451496e-02 -9.430458183932e+01 0.0 
0.0 0.0 -4.269024938618e+01 
-1.404504920189e+02 1.764170277136e+00 0.0 
1.764170277136e+00 -3.417006666636e+02 0.0 
0.0 0.0 -1.442453476048e+02 
-5.689918912514e+01 1.862589440076e+01 0.0 
1.862589440076e+01 -1.122924422252e+02 0.0 
0.0 0.0 -5.035748940509e+01 
-1.042582313695e+02 2.463083784999e+00 0.0 
2.463083784999e+00 -2.346578622912e+02 0.0 
0.0 0.0 -1.012748280982e+02 
-9.014035907158e+01 1.685296439317e+01 0.0 
1.685296439317e+01 -2.310257359761e+02 0.0 
0.0 0.0 -9.594982851429e+01 
-5.064107377697e+01 1.753204093507e+01 0.0 
1.753204093507e+01 -1.323904813383e+02 0.0 
0.0 0.0 -5.450946653457e+01 
-1.159366986089e+02 1.005505726440e+01 0.0 
1.005505726440e+01 -2.982072714560e+02 0.0 
0.0 0.0 -1.238431910195e+02 
-9.659063556001e+01 1.240912433953e+00 0.0 
1.240912433953e+00 -2.141285951736e+02 0.0 
0.0 0.0 -9.281576922008e+01 
-1.042874206915e+02 1.374606085042e+00 0.0 
1.374606085042e+00 -2.361823539639e+02 0.0 
0.0 0.0 -1.017409323966e+02 
-6.693770775258e+01 1.734729656454e+00 0.0 
1.734729656454e+00 -1.292564961978e+02 0.0 
0.0 0.0 -5.845826118510e+01 
-6.214675509533e+01 1.234512879737e+00 0.0 
1.234512879737e+00 -1.194184207314e+02 0.0 
0.0 0.0 -5.406955274801e+01 
-7.118695025800e+01 2.501505298952e+00 0.0 
2.501505298952e+00 -1.381061548462e+02 0.0 
0.0 0.0 -6.238793153127e+01 
-2.500622677193e+01 4.441806912835e+00 0.0 
4.441806912835e+00 -6.788138371282e+01 0.0 
0.0 0.0 -2.746628314542e+01 
-2.148667114901e+01 4.196002358752e+00 0.0 
4.196002358752e+00 -4.885158174407e+01 0.0 
0.0 0.0 -2.070147586793e+01 
-9.675179965406e+01 3.068640678920e+00 0.0 
3.068640678920e+00 -2.121934402399e+02 0.0 
0.0 0.0 -9.228357196819e+01 
-5.178050490868e+01 -9.950295206629e-01 0.0 
-9.950295206629e-01 -1.410063521846e+02 0.0 
0.0 0.0 -5.743605712797e+01 
-5.579412946336e+01 -7.592677530252e-01 0.0 
-7.592677530252e-01 -1.516930754917e+02 0.0 
0.0 0.0 -6.184616148652e+01 
-3.344408682334e+01 -2.420951579643e+00 0.0 
-2.420951579643e+00 -9.064110161983e+01 0.0 
0.0 0.0 -3.682555653295e+01 
-3.963550362633e+01 -2.155870499001e+00 0.0 
-2.155870499001e+00 -1.100046907104e+02 0.0 
0.0 0.0 -4.449205830101e+01 
-8.263479748831e+01 6.171897265688e-01 0.0 
6.171897265688e-01 -2.209771985580e+02 0.0 
0.0 0.0 -9.068359881391e+01 
-7.862607689621e+01 5.433978649086e-01 0.0 
5.433978649086e-01 -2.123032119944e+02 0.0 
0.0 0.0 -8.687878666718e+01 
-9.980519433108e+01 1.843433396353e+01 0.0 
1.843433396353e+01 -2.175150968238e+02 0.0 
0.0 0.0 -9.479608734646e+01 
-1.034356794427e+02 1.798739123761e+01 0.0 
1.798739123761e+01 -2.239080550906e+02 0.0 
0.0 0.0 -9.780312035998e+01 
-9.171043553861e+01 1.911928010703e+01 0.0 
1.911928010703e+01 -2.058681464539e+02 0.0 
0.0 0.0 -8.887357459776e+01 
-9.697764462924e+01 7.947656307175e+00 0.0 
7.947656307175e+00 -2.605100261005e+02 0.0 
0.0 0.0 -1.068463012189e+02 
-8.824916640172e+01 6.940980408929e+00 0.0 
6.940980408929e+00 -2.420543677216e+02 0.0 
0.0 0.0 -9.869106023700e+01 
-8.366256137955e+01 7.424019030070e+00 0.0 
7.424019030070e+00 -2.321175944042e+02 0.0 
0.0 0.0 -9.433404673514e+01 
-1.036528891640e+02 4.781069564612e+00 0.0 
4.781069564612e+00 -2.303032983621e+02 0.0 
0.0 0.0 -9.978685625782e+01 
-1.078167134437e+02 4.439169751968e+00 0.0 
4.439169751968e+00 -2.435829136532e+02 0.0 
0.0 0.0 -1.050198881291e+02 
-5.187512785945e+01 4.049786650846e-01 0.0 
4.049786650846e-01 -1.515979407088e+02 0.0 
0.0 0.0 -6.064192057046e+01 
-4.827469155092e+01 6.161559594577e-01 0.0 
6.161559594577e-01 -1.427129481008e+02 0.0 
0.0 0.0 -5.689629189553e+01 
-5.243137007356e+01 -5.902410587586e-01 0.0 
-5.902410587586e-01 -1.502773681932e+02 0.0 
0.0 0.0 -6.041262148002e+01 
-1.081072803521e+02 7.284058386574e+00 0.0 
7.284058386574e+00 -2.393932461579e+02 0.0 
0.0 0.0 -1.038501579530e+02 
-1.454112918309e+02 2.465269460231e+00 0.0 
2.465269460231e+00 -3.514829902100e+02 0.0 
0.0 0.0 -1.486682846123e+02 
-1.408110896429e+02 3.073296795416e+00 0.0 
3.073296795416e+00 -3.429543965003e+02 0.0 
0.0 0.0 -1.447296458430e+02 
-1.984764599206e+01 -1.862474925515e+00 0.0 
-1.862474925515e+00 -4.788637161383e+01 0.0 
0.0 0.0 -1.992020528177e+01 
-2.330543079822e+01 -2.208444640391e+00 0.0 
-2.208444640391e+00 -5.863348228701e+01 0.0 
0.0 0.0 -2.418167392557e+01 
-2.301185317015e+01 1.022652616555e+01 0.0 
1.022652616555e+01 -5.254995264573e+01 0.0 
0.0 0.0 -2.226854174476e+01 
-2.181677618807e+01 8.163757044631e+00 0.0 
8.163757044631e+00 -4.831649614390e+01 0.0 
0.0 0.0 -2.063998169959e+01 
-1.094716821173e+02 1.081568856932e+01 0.0 
1.081568856932e+01 -2.389531026651e+02 0.0 
0.0 0.0 -1.041274354347e+02 
-1.073058503803e+02 1.130102267666e+01 0.0 
1.130102267666e+01 -2.300172954996e+02 0.0 
0.0 0.0 -1.007969437640e+02 
-1.126508966937e+02 1.044732472516e+01 0.0 
1.044732472516e+01 -2.505859154149e+02 0.0 
0.0 0.0 -1.085710436326e+02 
-3.910684429609e+01 -6.076691289238e-01 0.0 
-6.076691289238e-01 -1.054818970066e+02 0.0 
0.0 0.0 -4.297662239080e+01 
-1.030816153952e+02 1.831139156944e+01 0.0 
1.831139156944e+01 -2.550610597484e+02 0.0 
0.0 0.0 -1.070428025431e+02 
-1.356377257553e+02 1.207851187081e+01 0.0 
1.207851187081e+01 -3.342605174493e+02 0.0 
0.0 0.0 -1.405694729614e+02 
-1.299842747668e+02 1.257883149293e+01 0.0 
1.257883149293e+01 -3.240167476093e+02 0.0 
0.0 0.0 -1.358003067128e+02 
-1.424879038598e+02 1.168977096736e+01 0.0 
1.168977096736e+01 -3.467442169281e+02 0.0 
0.0 0.0 -1.463696362364e+02 
-1.171859581860e+02 1.886378604478e+01 0.0 
1.886378604478e+01 -2.874897832661e+02 0.0 
0.0 0.0 -1.210027224356e+02 
-1.262006150963e+02 1.975832612014e+01 0.0 
1.975832612014e+01 -3.057719271764e+02 0.0 
0.0 0.0 -1.291917626818e+02 
-1.248785961384e+02 2.072773585551e+01 0.0 
2.072773585551e+01 -2.983093947270e+02 0.0 
0.0 0.0 -1.265563972596e+02 
-1.980537517678e+01 3.834629203407e-01 0.0 
3.834629203407e-01 -3.443719253707e+01 0.0 
0.0 0.0 -1.587277031415e+01 
-1.017075218868e+02 9.686788104523e-01 0.0 
9.686788104523e-01 -2.290881935171e+02 0.0 
0.0 0.0 -9.883871462117e+01 
-6.175534283502e+01 8.298127956844e-01 0.0 
8.298127956844e-01 -1.207332537094e+02 0.0 
0.0 0.0 -5.434657896333e+01 
-1.982262286305e+01 -3.429380800649e-01 0.0 
-3.429380800649e-01 -2.738533171591e+01 0.0 
0.0 0.0 -1.390277716464e+01 
-5.772044741091e+01 5.040172434745e-01 0.0 
5.040172434745e-01 -1.118292917773e+02 0.0 
0.0 0.0 -5.046492175645e+01 
-6.209299624059e+01 6.117905641254e-01 0.0 
6.117905641254e-01 -1.231682489250e+02 0.0 
0.0 0.0 -5.517837354969e+01 
-5.314973719893e+01 2.784219116644e-01 0.0 
2.784219116644e-01 -1.017477436161e+02 0.0 
0.0 0.0 -4.606924424450e+01 
-3.205255917214e+01 -6.202262814198e-01 0.0 
-6.202262814198e-01 -8.605896090998e+01 0.0 
0.0 0.0 -3.503345602464e+01 
-6.154072924631e+01 1.564682795898e+00 0.0 
1.564682795898e+00 -1.151821592807e+02 0.0 
0.0 0.0 -5.261686655810e+01 
-6.750057773417e+01 2.528368198780e+00 0.0 
2.528368198780e+00 -1.275366873841e+02 0.0 
0.0 0.0 -5.811117953549e+01 
-1.668534964701e+01 -1.798032533403e+00 0.0 
-1.798032533403e+00 -3.618954421649e+01 0.0 
0.0 0.0 -1.557308141783e+01 
-1.107379853089e+02 6.764905234829e+00 0.0 
6.764905234829e+00 -2.495707284373e+02 0.0 
0.0 0.0 -1.076926141239e+02 
-1.599823676141e+01 -1.450858903889e+00 0.0 
-1.450858903889e+00 -3.764053483717e+01 0.0 
0.0 0.0 -1.569020062243e+01 
-1.847240769611e+01 -1.392471621321e+00 0.0 
-1.392471621321e+00 -4.558014987802e+01 0.0 
0.0 0.0 -1.881576727224e+01 
-1.419476242146e+02 7.613356575448e+00 0.0 
7.613356575448e+00 -3.462330298311e+02 0.0 
0.0 0.0 -1.460541962137e+02 
-1.367692359266e+02 6.448732300515e+00 0.0 
6.448732300515e+00 -3.366920817825e+02 0.0 
0.0 0.0 -1.416383953127e+02 
-1.466377390472e+02 7.085356442810e+00 0.0 
7.085356442810e+00 -3.545974116180e+02 0.0 
0.0 0.0 -1.499705451995e+02 
-1.414087275440e+02 5.907553325500e+00 0.0 
5.907553325500e+00 -3.448922582761e+02 0.0 
0.0 0.0 -1.454902957460e+02 
-1.317355000609e+02 5.384601310420e+00 0.0 
5.384601310420e+00 -3.269492042694e+02 0.0 
0.0 0.0 -1.372054112991e+02 
-1.367214020239e+02 4.929761934878e+00 0.0 
4.929761934878e+00 -3.360361038976e+02 0.0 
0.0 0.0 -1.414272517765e+02 
-5.743120052148e+01 7.538530231585e-01 0.0 
7.538530231585e-01 -1.096013675417e+02 0.0 
0.0 0.0 -4.970977041894e+01 
-1.478927032415e+02 5.539159542889e+00 0.0 
5.539159542889e+00 -3.564528429332e+02 0.0 
0.0 0.0 -1.509036638524e+02 
-1.418938543898e+02 4.422673195556e+00 0.0 
4.422673195556e+00 -3.452603691976e+02 0.0 
0.0 0.0 -1.457462670762e+02 
-1.528306214295e+02 4.912057810446e+00 0.0 
4.912057810446e+00 -3.657449177078e+02 0.0 
0.0 0.0 -1.551726617412e+02 
-4.491621903150e+01 1.116503219941e+01 0.0 
1.116503219941e+01 -6.604414636965e+01 0.0 
0.0 0.0 -3.288810962034e+01 
-3.369105867959e+01 1.754841957957e+01 0.0 
1.754841957957e+01 -8.111063489084e+01 0.0 
0.0 0.0 -3.404050807113e+01 
-3.068345439165e+01 1.775091725897e+01 0.0 
1.775091725897e+01 -6.492139460843e+01 0.0 
0.0 0.0 -2.828145470003e+01 
-2.588997638326e+01 1.674105125214e+01 0.0 
1.674105125214e+01 -4.521299798832e+01 0.0 
0.0 0.0 -2.093089231147e+01 
-1.225418496263e+02 2.088094840118e+01 0.0 
2.088094840118e+01 -2.796553895087e+02 0.0 
0.0 0.0 -1.202591717405e+02 
-1.173643029582e+02 1.946170566583e+01 0.0 
1.946170566583e+01 -2.631135763686e+02 0.0 
0.0 0.0 -1.137433637980e+02 
-1.257194404567e+02 9.780928203193e-01 0.0 
9.780928203193e-01 -3.129028758209e+02 0.0 
0.0 0.0 -1.311866948833e+02 
-1.163309856033e+02 7.965754818944e-01 0.0 
7.965754818944e-01 -2.937078953178e+02 0.0 
0.0 0.0 -1.226116642763e+02 
-5.748283042888e+01 2.986480783332e-01 0.0 
2.986480783332e-01 -1.129387293366e+02 0.0 
0.0 0.0 -5.072646792965e+01 
-5.682571673464e+01 2.528359920003e-01 0.0 
2.528359920003e-01 -1.118970423662e+02 0.0 
0.0 0.0 -5.021682773026e+01 
-6.423330659764e+01 3.231521649559e-01 0.0 
3.231521649559e-01 -1.297665489345e+02 0.0 
0.0 0.0 -5.779995665964e+01 
-6.303719134296e+01 3.334572521220e-01 0.0 
3.334572521220e-01 -1.273508280261e+02 0.0 
0.0 0.0 -5.671640581071e+01 
-7.034095567928e+01 4.129758982502e-01 0.0 
4.129758982502e-01 -1.453568257298e+02 0.0 
0.0 0.0 -6.430933442273e+01 
-6.917705665022e+01 3.919763789884e-01 0.0 
3.919763789884e-01 -1.426195033489e+02 0.0 
0.0 0.0 -6.313896799974e+01 
-7.653692690561e+01 7.000469462570e-01 0.0 
7.000469462570e-01 -1.610283929002e+02 0.0 
0.0 0.0 -7.086959594173e+01 
-1.285116835751e+02 2.174886251527e+01 0.0 
2.174886251527e+01 -3.039624554533e+02 0.0 
0.0 0.0 -1.293422417085e+02 
-2.415079977944e+01 1.498820143838e+01 0.0 
1.498820143838e+01 -4.411370459627e+01 0.0 
0.0 0.0 -2.007935131271e+01 
-5.249290587970e+01 8.053385652253e+00 0.0 
8.053385652253e+00 -8.204685918437e+01 0.0 
0.0 0.0 -3.996192951922e+01 
-1.329530402618e+02 1.799955934887e+01 0.0 
1.799955934887e+01 -3.240106418754e+02 0.0 
0.0 0.0 -1.366891046412e+02 
-1.275921266258e+02 1.639653275521e+01 0.0 
1.639653275521e+01 -3.157344140551e+02 0.0 
0.0 0.0 -1.325979622043e+02 
-4.505040752366e+01 1.669052149000e+01 0.0 
1.669052149000e+01 -7.535901557543e+01 0.0 
0.0 0.0 -3.572282692973e+01 
-3.680568102784e+01 1.553616551941e+01 0.0 
1.553616551941e+01 -5.441860331414e+01 0.0 
0.0 0.0 -2.696728530259e+01 
-1.432607869177e+02 9.527296958607e+00 0.0 
9.527296958607e+00 -3.486728108854e+02 0.0 
0.0 0.0 -1.471800793409e+02 
-4.335022120003e+01 1.429109017870e+01 0.0 
1.429109017870e+01 -1.236603285760e+02 0.0 
0.0 0.0 -4.970316493281e+01 
-1.147928135758e+02 8.130902671203e+00 0.0 
8.130902671203e+00 -2.621475821412e+02 0.0 
0.0 0.0 -1.126821187151e+02 
-1.708850098701e+01 3.570665832490e+00 0.0 
3.570665832490e+00 -1.356633492395e+01 0.0 
0.0 0.0 -9.158156352389e+00 
-1.914853368634e+01 3.267607567301e+00 0.0 
3.267607567301e+00 -2.982483279338e+01 0.0 
0.0 0.0 -1.440430459875e+01 
-4.671138880886e+01 1.604183134724e+01 0.0 
1.604183134724e+01 -1.279391264497e+02 0.0 
0.0 0.0 -5.199515457758e+01 
-5.340328372441e+01 1.713111461678e+01 0.0 
1.713111461678e+01 -9.630456885006e+01 0.0 
0.0 0.0 -4.451235577234e+01 
-3.666362161618e+01 1.854689991821e+01 0.0 
1.854689991821e+01 -8.348535982734e+01 0.0 
0.0 0.0 -3.564469443306e+01 
-3.363829467833e+01 1.869003916118e+01 0.0 
1.869003916118e+01 -6.768873326859e+01 0.0 
0.0 0.0 -2.999810838408e+01 
-1.061839661431e+02 8.985085458261e+00 0.0 
8.985085458261e+00 -2.792454942251e+02 0.0 
0.0 0.0 -1.152288381105e+02 
-2.146520644425e+01 -2.292661248935e+00 0.0 
-2.292661248935e+00 -5.093166624092e+01 0.0 
0.0 0.0 -2.131906180555e+01 
-2.433966042233e+01 1.220150022152e+01 0.0 
1.220150022152e+01 -5.621730734150e+01 0.0 
0.0 0.0 -2.376709032915e+01 
-7.772260705347e+01 7.734994691605e-01 0.0 
7.734994691605e-01 -1.632971700597e+02 0.0 
0.0 0.0 -7.190593313394e+01 
-2.224789449078e+01 1.222573739500e+01 0.0 
1.222573739500e+01 -4.006406469728e+01 0.0 
0.0 0.0 -1.829358775642e+01 
-1.213589108429e+02 4.369792325034e-01 0.0 
4.369792325034e-01 -3.038576518312e+02 0.0 
0.0 0.0 -1.271649688022e+02 
-4.706607633767e+01 1.303487668869e+01 0.0 
1.303487668869e+01 -1.368207118205e+02 0.0 
0.0 0.0 -5.476603644745e+01 
-6.023692426374e+01 1.932783539306e+01 0.0 
1.932783539306e+01 -1.280700072948e+02 0.0 
0.0 0.0 -5.609207946755e+01 
-2.749990642175e+01 1.251464798249e+01 0.0 
1.251464798249e+01 -7.261320121388e+01 0.0 
0.0 0.0 -2.963393229069e+01 
-3.705217135181e+01 1.675120000312e+01 0.0 
1.675120000312e+01 -9.666659805746e+01 0.0 
0.0 0.0 -3.971563082278e+01 
-7.731069050340e+01 1.193039704782e+01 0.0 
1.193039704782e+01 -1.437929060438e+02 0.0 
0.0 0.0 -6.593107896416e+01 
-6.825428713813e+01 7.697078813929e+00 0.0 
7.697078813929e+00 -1.200546977981e+02 0.0 
0.0 0.0 -5.609269548086e+01 
-6.477977958902e+01 8.485268516621e+00 0.0 
8.485268516621e+00 -1.112115675862e+02 0.0 
0.0 0.0 -5.239740415255e+01 
-5.084685321312e+01 1.176295779392e+01 0.0 
1.176295779392e+01 -1.492133373637e+02 0.0 
0.0 0.0 -5.961805717304e+01 
-3.687652088256e+01 1.873941401454e+01 0.0 
1.873941401454e+01 -6.962901360524e+01 0.0 
0.0 0.0 -3.155166034634e+01 
-2.955372027634e+01 1.751257161982e+01 0.0 
1.751257161982e+01 -4.801399619851e+01 0.0 
0.0 0.0 -2.287031494245e+01 
-7.356150703224e+01 1.629162348210e+01 0.0 
1.629162348210e+01 -1.429925237135e+02 0.0 
0.0 0.0 -6.456620922372e+01 
-1.006905951538e+02 1.005130443486e+01 0.0 
1.005130443486e+01 -2.093964368271e+02 0.0 
0.0 0.0 -9.262610959429e+01 
-1.045525530432e+02 1.163975703477e+01 0.0 
1.163975703477e+01 -2.204580706591e+02 0.0 
0.0 0.0 -9.710318711067e+01 
-1.107383885848e+02 1.284480209480e+01 0.0 
1.284480209480e+01 -2.404570465100e+02 0.0 
0.0 0.0 -1.049586305285e+02 
-1.084020157863e+02 1.327982682985e+01 0.0 
1.327982682985e+01 -2.319019677471e+02 0.0 
0.0 0.0 -1.016911950600e+02 
-1.018867280191e+02 1.210264491942e+01 0.0 
1.210264491942e+01 -2.114042116006e+02 0.0 
0.0 0.0 -9.358728188592e+01 
-1.057959478332e+02 1.378428235039e+01 0.0 
1.378428235039e+01 -2.231098394576e+02 0.0 
0.0 0.0 -9.827173618724e+01 
-1.119796987880e+02 1.484155753752e+01 0.0 
1.484155753752e+01 -2.435208709301e+02 0.0 
0.0 0.0 -1.062501709154e+02 
-1.098630801057e+02 1.540694701616e+01 0.0 
1.540694701616e+01 -2.358379146741e+02 0.0 
0.0 0.0 -1.033102984339e+02 
-1.170283869389e+02 1.681937888025e+01 0.0 
1.681937888025e+01 -2.596955712249e+02 0.0 
0.0 0.0 -1.126171874491e+02 
-1.134873826504e+02 1.705316387533e+01 0.0 
1.705316387533e+01 -2.482340196774e+02 0.0 
0.0 0.0 -1.081164206983e+02 
-1.066190411224e+02 1.583075175145e+01 0.0 
1.583075175145e+01 -2.269389631727e+02 0.0 
0.0 0.0 -9.966740128850e+01 
-1.100862755088e+02 1.723790889702e+01 0.0 
1.723790889702e+01 -2.390961917300e+02 0.0 
0.0 0.0 -1.043547401716e+02 
-1.165613208500e+02 1.840444244013e+01 0.0 
1.840444244013e+01 -2.588184474698e+02 0.0 
0.0 0.0 -1.122139304960e+02 
-1.032727208081e+02 1.632028494500e+01 0.0 
1.632028494500e+01 -2.184252397308e+02 0.0 
0.0 0.0 -9.610938816165e+01 
-1.374940721467e+02 1.944797200632e+01 0.0 
1.944797200632e+01 -3.305210278777e+02 0.0 
0.0 0.0 -1.400045300073e+02 
-5.411898571508e+01 1.643458010264e+01 0.0 
1.643458010264e+01 -1.460174979957e+02 0.0 
0.0 0.0 -5.964094511322e+01 
-2.103286358478e+01 1.884576152966e+00 0.0 
1.884576152966e+00 -4.270950994332e+01 0.0 
0.0 0.0 -1.872271205843e+01 
-1.987427595909e+01 5.377120163761e+00 0.0 
5.377120163761e+00 -3.650839871938e+01 0.0 
0.0 0.0 -1.651480240354e+01 
-6.482188711417e+01 1.859871096135e+01 0.0 
1.859871096135e+01 -1.323222640586e+02 0.0 
0.0 0.0 -5.874324535184e+01 
-1.219652141505e+02 1.738018189323e+01 0.0 
1.738018189323e+01 -2.784309615153e+02 0.0 
0.0 0.0 -1.197188526997e+02 
-1.196921861910e+02 1.444845624749e+01 0.0 
1.444845624749e+01 -2.726739385416e+02 0.0 
0.0 0.0 -1.173098374198e+02 
-3.799270697916e+01 1.023452836689e+01 0.0 
1.023452836689e+01 -1.144884055723e+02 0.0 
0.0 0.0 -4.534433376543e+01 
-1.300449988455e+02 2.258129764896e+01 0.0 
2.258129764896e+01 -3.014449852724e+02 0.0 
0.0 0.0 -1.290469952354e+02 
-6.941606680301e+01 1.085273386276e+01 0.0 
1.085273386276e+01 -1.231639608594e+02 0.0 
0.0 0.0 -5.737400829873e+01 
-2.895357462658e+01 5.114017102629e+00 0.0 
5.114017102629e+00 -8.523523924653e+01 0.0 
0.0 0.0 -3.385664416193e+01 
-1.336109172922e+02 2.331659663135e+01 0.0 
2.331659663135e+01 -3.123410763174e+02 0.0 
0.0 0.0 -1.333855980829e+02 
-9.788547654067e+01 1.043022063497e+01 0.0 
1.043022063497e+01 -1.999312444838e+02 0.0 
0.0 0.0 -8.894501630734e+01 
-9.487252552763e+01 1.088904339364e+01 0.0 
1.088904339364e+01 -1.905039038054e+02 0.0 
0.0 0.0 -8.521292879991e+01 
-9.070393924679e+01 9.191198755585e+00 0.0 
9.191198755585e+00 -1.792543833687e+02 0.0 
0.0 0.0 -8.058749678463e+01 
-1.181249548322e+02 1.198737498782e+01 0.0 
1.198737498782e+01 -2.695899961181e+02 0.0 
0.0 0.0 -1.159144852851e+02 
-7.577715460888e+01 3.455079434706e+00 0.0 
3.455079434706e+00 -1.478208781653e+02 0.0 
0.0 0.0 -6.667940983226e+01 
-1.408323616343e+02 2.211757192946e+01 0.0 
2.211757192946e+01 -3.334305997696e+02 0.0 
0.0 0.0 -1.418788884212e+02 
-8.639533949257e+01 1.351448258998e+01 0.0 
1.351448258998e+01 -2.322578368698e+02 0.0 
0.0 0.0 -9.519595290870e+01 
-8.190248081455e+01 1.430835915315e+01 0.0 
1.430835915315e+01 -2.200911552353e+02 0.0 
0.0 0.0 -9.019809081496e+01 
-7.360680156498e+01 1.369599421190e+01 0.0 
1.369599421190e+01 -2.020946557838e+02 0.0 
0.0 0.0 -8.231043720462e+01 
-1.028393377019e+02 1.425241902944e+01 0.0 
1.425241902944e+01 -2.143574803566e+02 0.0 
0.0 0.0 -9.475904541756e+01 
-1.465134640270e+02 1.801926455348e+01 0.0 
1.801926455348e+01 -3.497641427631e+02 0.0 
0.0 0.0 -1.484832820370e+02 
-1.384564558843e+02 1.634416511441e+01 0.0 
1.634416511441e+01 -3.367580775116e+02 0.0 
0.0 0.0 -1.421643600188e+02 
-1.397690122650e+02 1.530273586034e+01 0.0 
1.530273586034e+01 -3.398768897848e+02 0.0 
0.0 0.0 -1.434937706149e+02 
-1.297620585887e+02 1.470139656021e+01 0.0 
1.470139656021e+01 -3.220419305543e+02 0.0 
0.0 0.0 -1.351411967429e+02 
-1.493453131754e+02 1.563777758982e+01 0.0 
1.563777758982e+01 -3.565578404703e+02 0.0 
0.0 0.0 -1.513709460937e+02 
-1.254846484651e+02 1.997442211089e+01 0.0 
1.997442211089e+01 -2.880758352866e+02 0.0 
0.0 0.0 -1.236681451255e+02 
-1.271098200450e+02 2.108356302553e+01 0.0 
2.108356302553e+01 -2.929866719972e+02 0.0 
0.0 0.0 -1.256289476127e+02 
-4.221835995229e+01 -2.818362849572e-01 0.0 
-2.818362849572e-01 -1.243299346774e+02 0.0 
0.0 0.0 -4.956448838892e+01 
-4.476132336170e+01 9.693222978088e-01 0.0 
9.693222978088e-01 -1.337199869991e+02 0.0 
0.0 0.0 -5.314439310825e+01 
-5.097862156976e+01 1.938298683545e+00 0.0 
1.938298683545e+00 -1.517680230860e+02 0.0 
0.0 0.0 -6.042399339672e+01 
-4.729888286610e+01 2.419567487128e+00 0.0 
2.419567487128e+00 -1.424484624079e+02 0.0 
0.0 0.0 -5.652420358220e+01 
-4.128491104222e+01 1.450176716530e+00 0.0 
1.450176716530e+00 -1.243797127197e+02 0.0 
0.0 0.0 -4.929938712856e+01 
-4.367871366743e+01 3.016691900570e+00 0.0 
3.016691900570e+00 -1.328328966971e+02 0.0 
0.0 0.0 -5.255348310934e+01 
-4.988420041970e+01 4.036090699374e+00 0.0 
4.036090699374e+00 -1.505968971946e+02 0.0 
0.0 0.0 -5.974432928430e+01 
-4.013517374194e+01 3.777858445598e+00 0.0 
3.777858445598e+00 -1.229393928096e+02 0.0 
0.0 0.0 -4.852236996546e+01 
-1.106716906269e+02 1.868319108642e+01 0.0 
1.868319108642e+01 -2.439181769620e+02 0.0 
0.0 0.0 -1.059769602767e+02 
-1.519244246202e+02 1.318827755122e+01 0.0 
1.318827755122e+01 -3.623979970197e+02 0.0 
0.0 0.0 -1.538967264920e+02 
-9.393781194636e+01 4.989297415704e+00 0.0 
4.989297415704e+00 -2.530222454627e+02 0.0 
0.0 0.0 -1.036880172227e+02 
-8.918615738292e+01 5.247860858967e+00 0.0 
5.247860858967e+00 -2.433370283401e+02 0.0 
0.0 0.0 -9.935695571689e+01 
-8.090035965135e+01 4.239657595705e+00 0.0 
4.239657595705e+00 -2.248002923545e+02 0.0 
0.0 0.0 -9.131019560175e+01 
-7.080919272355e+01 -3.729406359296e-02 0.0 
-3.729406359296e-02 -1.930315832452e+02 0.0 
0.0 0.0 -7.875223279064e+01 
-7.462986383506e+01 4.529418040325e-01 0.0 
4.529418040325e-01 -2.035540041846e+02 0.0 
0.0 0.0 -8.305516040589e+01 
-8.257095671089e+01 1.123559721829e+00 0.0 
1.123559721829e+00 -2.227047080658e+02 0.0 
0.0 0.0 -9.118269943299e+01 
-6.694425851085e+01 -3.864719489355e-01 0.0 
-3.864719489355e-01 -1.823309994558e+02 0.0 
0.0 0.0 -7.438257738999e+01 
-9.475519115806e+01 1.896755451394e+01 0.0 
1.896755451394e+01 -2.283977251881e+02 0.0 
0.0 0.0 -9.654587490386e+01 
-1.528429076055e+02 1.207513271779e+01 0.0 
1.207513271779e+01 -3.643606034286e+02 0.0 
0.0 0.0 -1.547610533102e+02 
-8.751010748246e+01 8.964499372347e+00 0.0 
8.964499372347e+00 -2.401344342589e+02 0.0 
0.0 0.0 -9.789336252241e+01 
-7.064087066450e+01 3.496937317935e-01 0.0 
3.496937317935e-01 -1.947280242364e+02 0.0 
0.0 0.0 -7.921066847025e+01 
-5.492981649295e+01 1.675223402933e+00 0.0 
1.675223402933e+00 -9.662021367168e+01 0.0 
0.0 0.0 -4.506500904939e+01 
-6.342780007164e+01 2.908218165146e+00 0.0 
2.908218165146e+00 -1.144864917099e+02 0.0 
0.0 0.0 -5.297428753446e+01 
-6.489053625064e+01 3.931470242837e+00 0.0 
3.931470242837e+00 -1.156420063661e+02 0.0 
0.0 0.0 -5.375976278503e+01 
-7.257760474238e+01 4.693013151995e+00 0.0 
4.693013151995e+00 -1.344389283161e+02 0.0 
0.0 0.0 -6.170495991753e+01 
-6.316573354457e+01 2.498587745139e+00 0.0 
2.498587745139e+00 -1.156636612645e+02 0.0 
0.0 0.0 -5.324881844273e+01 
-8.661638206743e+01 6.664930362747e-01 0.0 
6.664930362747e-01 -2.296306421376e+02 0.0 
0.0 0.0 -9.447410726152e+01 
-9.057927128457e+01 6.667771530885e-01 0.0 
6.667771530885e-01 -2.382307007045e+02 0.0 
0.0 0.0 -9.824299159671e+01 
-8.630835101567e+01 3.268888992090e-01 0.0 
3.268888992090e-01 -2.277796609189e+02 0.0 
0.0 0.0 -9.382640358037e+01 
-9.455746950343e+01 6.144244952103e-01 0.0 
6.144244952103e-01 -2.467666660424e+02 0.0 
0.0 0.0 -1.019972406637e+02 
-9.000206457834e+01 3.466686139777e-01 0.0 
3.466686139777e-01 -2.358780989615e+02 0.0 
0.0 0.0 -9.736404906196e+01 
-8.251406009990e+01 1.661709910091e-01 0.0 
1.661709910091e-01 -2.181972564469e+02 0.0 
0.0 0.0 -8.981339496405e+01 
-9.840096743217e+01 5.144711412757e-01 0.0 
5.144711412757e-01 -2.549036314859e+02 0.0 
0.0 0.0 -1.055913796754e+02 
-9.308082743918e+01 1.823906351964e-01 0.0 
1.823906351964e-01 -2.427087916459e+02 0.0 
0.0 0.0 -1.003368857255e+02 
-5.318296426500e+01 9.143254843928e-01 0.0 
9.143254843928e-01 -9.572675300116e+01 0.0 
0.0 0.0 -4.427291517985e+01 
-1.729327619777e+01 -1.149160411766e+00 0.0 
-1.149160411766e+00 -1.715688534413e+01 0.0 
0.0 0.0 -1.032490826877e+01 
-1.948543628604e+01 -1.941580598950e+00 0.0 
-1.941580598950e+00 -3.381904338712e+01 0.0 
0.0 0.0 -1.571928672745e+01 
-1.893677025892e+01 -1.969448494151e+00 0.0 
-1.969448494151e+00 -3.348121818632e+01 0.0 
0.0 0.0 -1.545394599675e+01 
-2.240664618684e+01 -2.299891849711e+00 0.0 
-2.299891849711e+00 -4.933913504404e+01 0.0 
0.0 0.0 -2.112373436927e+01 
-2.261844074101e+01 -1.981582403802e+00 0.0 
-1.981582403802e+00 -5.033062879158e+01 0.0 
0.0 0.0 -2.148472085978e+01 
-2.646690473466e+01 -2.047445908444e+00 0.0 
-2.047445908444e+00 -6.729894523925e+01 0.0 
0.0 0.0 -2.772975499217e+01 
-2.576311927437e+01 -1.473934820395e+00 0.0 
-1.473934820395e+00 -6.453713062258e+01 0.0 
0.0 0.0 -2.669007496908e+01 
-1.989728239767e+01 -1.598790137297e+00 0.0 
-1.598790137297e+00 -3.371479935045e+01 0.0 
0.0 0.0 -1.582405087482e+01 
-1.506949740233e+01 -1.239509139803e+00 0.0 
-1.239509139803e+00 -1.699661464505e+01 0.0 
0.0 0.0 -9.610539517467e+00 
-1.811385044081e+01 -2.007712724904e+00 0.0 
-2.007712724904e+00 -3.350461137435e+01 0.0 
0.0 0.0 -1.522229889225e+01 
-1.381848130400e+01 -1.204216384194e+00 0.0 
-1.204216384194e+00 -1.684040305868e+01 0.0 
0.0 0.0 -9.192866633946e+00 
-1.726925979582e+01 -1.983880861237e+00 0.0 
-1.983880861237e+00 -3.306800341183e+01 0.0 
0.0 0.0 -1.483602840603e+01 
-2.236847601613e+01 -2.455704626892e+00 0.0 
-2.455704626892e+00 -5.195958148151e+01 0.0 
0.0 0.0 -2.189841724929e+01 
-2.972593346848e+01 -2.362431470253e+00 0.0 
-2.362431470253e+00 -7.878490575752e+01 0.0 
0.0 0.0 -3.215325176780e+01 
-1.562077914135e+02 2.736680266930e+00 0.0 
2.736680266930e+00 -3.713722837725e+02 0.0 
0.0 0.0 -1.578740225558e+02 
-7.043200437641e+01 -1.019073305169e-01 0.0 
-1.019073305169e-01 -1.883627582475e+02 0.0 
0.0 0.0 -7.723842878717e+01 
-6.655333429148e+01 -3.037937198554e-01 0.0 
-3.037937198554e-01 -1.788847439229e+02 0.0 
0.0 0.0 -7.323142346431e+01 
-5.936500452064e+01 -4.190757230135e-01 0.0 
-4.190757230135e-01 -1.599548260832e+02 0.0 
0.0 0.0 -6.539594918115e+01 
-6.311746918113e+01 -4.010493400033e-01 0.0 
-4.010493400033e-01 -1.701540780470e+02 0.0 
0.0 0.0 -6.958146416845e+01 
-7.334835877834e+01 -1.836290611423e-01 0.0 
-1.836290611423e-01 -1.961148893401e+02 0.0 
0.0 0.0 -8.043897443553e+01 
-5.544032577050e+01 -2.644040587194e-01 0.0 
-2.644040587194e-01 -1.495093350242e+02 0.0 
0.0 0.0 -6.108489823841e+01 
-5.278591629334e+01 -5.276022652438e-01 0.0 
-5.276022652438e-01 -1.424690971505e+02 0.0 
0.0 0.0 -5.817650403315e+01 
-6.850908855748e+00 -2.504448665561e-01 0.0 
-2.504448665561e-01 -1.719916004324e+01 0.0 
0.0 0.0 -7.202907999449e+00 
-1.273065137968e+01 -3.576576433608e-01 0.0 
-3.576576433608e-01 -3.381182166598e+01 0.0 
0.0 0.0 -1.366670218678e+01 
-1.208140638389e+01 -3.269451667195e-01 0.0 
-3.269451667195e-01 -3.215998661961e+01 0.0 
0.0 0.0 -1.290688468877e+01 
-1.873941418552e+01 -4.378536081689e-01 0.0 
-4.378536081689e-01 -5.061929799627e+01 0.0 
0.0 0.0 -2.040761365454e+01 
-1.897142964877e+01 -6.232798595419e-01 0.0 
-6.232798595419e-01 -5.027080924724e+01 0.0 
0.0 0.0 -2.037267166880e+01 
-1.319682566375e+01 -6.031013976817e-01 0.0 
-6.031013976817e-01 -3.411955265760e+01 0.0 
0.0 0.0 -1.392209504545e+01 
-1.343346491407e+01 -8.305421229018e-01 0.0 
-8.305421229018e-01 -3.411524095858e+01 0.0 
0.0 0.0 -1.399826585175e+01 
-7.645634401664e+00 -5.018501509719e-01 0.0 
-5.018501509719e-01 -1.706400089523e+01 0.0 
0.0 0.0 -7.407469193718e+00 
-1.370911875564e+01 -9.396454867050e-01 0.0 
-9.396454867050e-01 -3.397500406873e+01 0.0 
0.0 0.0 -1.406660172238e+01 
-1.962709423980e+01 -1.162432043352e+00 0.0 
-1.162432043352e+00 -5.106684072416e+01 0.0 
0.0 0.0 -2.080818048919e+01 
-8.058532090160e+00 -5.903559456852e-01 0.0 
-5.903559456852e-01 -1.648034212734e+01 0.0 
0.0 0.0 -7.373399285210e+00 
-8.636913588223e+01 4.434575837674e-01 0.0 
4.434575837674e-01 -1.872800362544e+02 0.0 
0.0 0.0 -8.169475164099e+01 
-9.037857458488e+01 8.163484365020e-01 0.0 
8.163484365020e-01 -1.981129953935e+02 0.0 
0.0 0.0 -8.614747099351e+01 
-1.538251449158e+02 9.754380140726e+00 0.0 
9.754380140726e+00 -3.668266176099e+02 0.0 
0.0 0.0 -1.557955287577e+02 
-5.277498351000e+01 6.167233225757e-01 0.0 
6.167233225757e-01 -9.756294334227e+01 0.0 
0.0 0.0 -4.470137805568e+01 
-1.173490499432e+01 -1.022150785947e+00 0.0 
-1.022150785947e+00 -1.712203093055e+01 0.0 
0.0 0.0 -8.641244421297e+00 
-1.119844584391e+02 2.838049189668e+00 0.0 
2.838049189668e+00 -2.579347155384e+02 0.0 
0.0 0.0 -1.105757521932e+02 
-1.140603046513e+02 5.304073112562e+00 0.0 
5.304073112562e+00 -2.622721138503e+02 0.0 
0.0 0.0 -1.124997255505e+02 
-1.138275611772e+02 4.403704770005e+00 0.0 
4.403704770005e+00 -2.621812717690e+02 0.0 
0.0 0.0 -1.124026498839e+02 
-1.408688681910e+02 5.638844233709e-01 0.0 
5.638844233709e-01 -3.425102231791e+02 0.0 
0.0 0.0 -1.446137274110e+02 
-1.457831948742e+02 1.215618244092e+00 0.0 
1.215618244092e+00 -3.518334915430e+02 0.0 
0.0 0.0 -1.488850059252e+02 
-1.117963457698e+02 1.563893748889e+00 0.0 
1.563893748889e+00 -2.581917773135e+02 0.0 
0.0 0.0 -1.105964369250e+02 
-4.551817554432e+01 -1.779269177557e+00 0.0 
-1.779269177557e+00 -1.259404130322e+02 0.0 
0.0 0.0 -5.103757657295e+01 
-1.146861006516e+02 1.446081277877e+01 0.0 
1.446081277877e+01 -2.519054196441e+02 0.0 
0.0 0.0 -1.095774560887e+02 
-1.002462142588e+02 2.783575597242e+00 0.0 
2.783575597242e+00 -2.230882748407e+02 0.0 
0.0 0.0 -9.660034672986e+01 
-2.660813523472e+01 6.608475356016e+00 0.0 
6.608475356016e+00 -7.494510141466e+01 0.0 
0.0 0.0 -3.006597099481e+01 
-4.296635986615e+01 -1.823989105796e+00 0.0 
-1.823989105796e+00 -1.211338890158e+02 0.0 
0.0 0.0 -4.883007466458e+01 
-1.119397843522e+02 1.102661759767e+00 0.0 
1.102661759767e+00 -2.847490444929e+02 0.0 
0.0 0.0 -1.186066486535e+02 
-9.930028732322e+01 2.472345096884e+00 0.0 
2.472345096884e+00 -2.606320272190e+02 0.0 
0.0 0.0 -1.075796943627e+02 
-1.311251006659e+02 2.707847688729e+00 0.0 
2.707847688729e+00 -3.243857245629e+02 0.0 
0.0 0.0 -1.362532475686e+02 
-1.034597239379e+02 1.525479356062e+00 0.0 
1.525479356062e+00 -2.675723176980e+02 0.0 
0.0 0.0 -1.109096124908e+02 
-1.220259413485e+02 3.469841621325e+00 0.0 
3.469841621325e+00 -3.072108945758e+02 0.0 
0.0 0.0 -1.283710507773e+02 
-1.402872959302e+02 1.380827764911e+01 0.0 
1.380827764911e+01 -3.419644737138e+02 0.0 
0.0 0.0 -1.442755308932e+02 
-2.980281319977e+01 -8.419868200878e-01 0.0 
-8.419868200878e-01 -7.946000215903e+01 0.0 
0.0 0.0 -3.237884460764e+01 
-7.445524864524e+01 1.936817216705e+00 0.0 
1.936817216705e+00 -1.505093358603e+02 0.0 
0.0 0.0 -6.708937535166e+01 
-7.024464008390e+01 9.813908415598e-01 0.0 
9.813908415598e-01 -1.431448549142e+02 0.0 
0.0 0.0 -6.361684849943e+01 
-8.954250835007e+01 2.539701626480e+00 0.0 
2.539701626480e+00 -1.921892458647e+02 0.0 
0.0 0.0 -8.411952626444e+01 
-4.837655591326e+01 -1.271983826886e+00 0.0 
-1.271983826886e+00 -1.321972788869e+02 0.0 
0.0 0.0 -5.377215044006e+01 
-7.855248021615e+01 1.043547751640e-01 0.0 
1.043547751640e-01 -2.092097476770e+02 0.0 
0.0 0.0 -8.592866836795e+01 
-3.138580239043e+01 -1.836706389881e+00 0.0 
-1.836706389881e+00 -8.426105100246e+01 0.0 
0.0 0.0 -3.429405601787e+01 
-1.265109595135e+02 2.198287949196e+01 0.0 
2.198287949196e+01 -2.940991564377e+02 0.0 
0.0 0.0 -1.257830347854e+02 
-6.574259513079e+01 1.590542327906e+01 0.0 
1.590542327906e+01 -1.223726769111e+02 0.0 
0.0 0.0 -5.603458161256e+01 
-7.732788001743e+01 3.040217131526e+00 0.0 
3.040217131526e+00 -2.156209360041e+02 0.0 
0.0 0.0 -8.748464480647e+01 
-6.325014898154e+01 -5.874393685389e-01 0.0 
-5.874393685389e-01 -1.736046603404e+02 0.0 
0.0 0.0 -7.065644279657e+01 
-4.907262485160e+01 -1.556720816433e+00 0.0 
-1.556720816433e+00 -1.369819103524e+02 0.0 
0.0 0.0 -5.541636056119e+01 
-3.991997343165e+01 -1.897194100731e+00 0.0 
-1.897194100731e+00 -1.127995684763e+02 0.0 
0.0 0.0 -4.541586257238e+01 
-5.823510716718e+01 1.775505219314e+01 0.0 
1.775505219314e+01 -1.503995033842e+02 0.0 
0.0 0.0 -6.219038316541e+01 
-7.430634073919e+01 1.048191321439e+00 0.0 
1.048191321439e+00 -2.049870922506e+02 0.0 
0.0 0.0 -8.338802989694e+01 
-1.124838573703e+02 5.354614740703e+00 0.0 
5.354614740703e+00 -2.903824487468e+02 0.0 
0.0 0.0 -1.204598918351e+02 
-9.314760509115e+01 2.373705682025e+00 0.0 
2.373705682025e+00 -2.030960793193e+02 0.0 
0.0 0.0 -8.847310532314e+01 
-1.048576649661e+01 -9.875507253785e-01 0.0 
-9.875507253785e-01 -1.906880962676e+01 0.0 
0.0 0.0 -8.751671668134e+00 
-1.170320879179e+02 6.521666773186e+00 0.0 
6.521666773186e+00 -2.998754066144e+02 0.0 
0.0 0.0 -1.246722483597e+02 
-9.048744944948e+01 2.677150274200e+00 0.0 
2.677150274200e+00 -2.429114849027e+02 0.0 
0.0 0.0 -9.961968030566e+01 
-7.939993061774e+01 3.483177415018e+00 0.0 
3.483177415018e+00 -1.585502646264e+02 0.0 
0.0 0.0 -7.098505857324e+01 
-1.090361129610e+02 1.447495569336e+01 0.0 
1.447495569336e+01 -2.804682734045e+02 0.0 
0.0 0.0 -1.164513159097e+02 
-2.934690160996e+01 -2.225302487723e+00 0.0 
-2.225302487723e+00 -7.744735692386e+01 0.0 
0.0 0.0 -3.163827756015e+01 
-9.373525352263e+01 4.272355734514e+00 0.0 
4.272355734514e+00 -1.999447982001e+02 0.0 
0.0 0.0 -8.770401551681e+01 
-1.082150032413e+02 8.817391844271e+00 0.0 
8.817391844271e+00 -2.378545339652e+02 0.0 
0.0 0.0 -1.034208611620e+02 
-7.223183230275e+01 3.561767022905e+00 0.0 
3.561767022905e+00 -1.372814229370e+02 0.0 
0.0 0.0 -6.245397657192e+01 
-2.477844760873e+01 -1.738873263168e+00 0.0 
-1.738873263168e+00 -6.466389197880e+01 0.0 
0.0 0.0 -2.643270187626e+01 
-6.614401369012e+01 1.262965692951e+00 0.0 
1.262965692951e+00 -1.303411411303e+02 0.0 
0.0 0.0 -5.854554644611e+01 
-1.366818948579e+02 1.002941502075e+01 0.0 
1.002941502075e+01 -3.366483950077e+02 0.0 
0.0 0.0 -1.415990869597e+02 
-9.661676151923e+01 8.530314388265e+00 0.0 
8.530314388265e+00 -1.986094344928e+02 0.0 
0.0 0.0 -8.816785880360e+01 
-4.456889472087e+01 -1.175994932760e+00 0.0 
-1.175994932760e+00 -1.211179901327e+02 0.0 
0.0 0.0 -4.930606545606e+01 
-7.474276519331e+01 8.665137224754e+00 0.0 
8.665137224754e+00 -2.116134729010e+02 0.0 
0.0 0.0 -8.550687142829e+01 
-6.357924263714e+01 1.946189155415e+01 0.0 
1.946189155415e+01 -1.434781545940e+02 0.0 
0.0 0.0 -6.171721916933e+01 
-5.100117238856e+01 4.670956096142e+00 0.0 
4.670956096142e+00 -8.047591012476e+01 0.0 
0.0 0.0 -3.904312475400e+01 
-1.034350802217e+02 3.470740880389e+00 0.0 
3.470740880389e+00 -2.317832673412e+02 0.0 
0.0 0.0 -1.001655042689e+02 
-7.352924009626e+01 1.607982477842e+01 0.0 
1.607982477842e+01 -1.948973692350e+02 0.0 
0.0 0.0 -8.012798279939e+01 
-1.192561184160e+02 1.344753660193e+01 0.0 
1.344753660193e+01 -3.027494461162e+02 0.0 
0.0 0.0 -1.262016693597e+02 
-9.150737185832e+01 1.052910223790e+01 0.0 
1.052910223790e+01 -2.478155423971e+02 0.0 
0.0 0.0 -1.013968742766e+02 
-4.788263080851e+01 -9.083014153990e-01 0.0 
-9.083014153990e-01 -1.299211837890e+02 0.0 
0.0 0.0 -5.294114437925e+01 
-1.268993785676e+02 5.794664583962e+00 0.0 
5.794664583962e+00 -3.181933509267e+02 0.0 
0.0 0.0 -1.331278188483e+02 
-6.980789975220e+01 1.206711417518e+01 0.0 
1.206711417518e+01 -1.962556307547e+02 0.0 
0.0 0.0 -7.941905915208e+01 
-1.008042269802e+02 5.052044505908e+00 0.0 
5.052044505908e+00 -2.201400980436e+02 0.0 
0.0 0.0 -9.588329750715e+01 
-9.954657976476e+01 1.935041821218e+01 0.0 
1.935041821218e+01 -2.254123971624e+02 0.0 
0.0 0.0 -9.708769307814e+01 
-5.550022631928e+01 7.614917050093e+00 0.0 
7.614917050093e+00 -1.654251768318e+02 0.0 
0.0 0.0 -6.587762094533e+01 
-9.838168537965e+01 6.665307148663e+00 0.0 
6.665307148663e+00 -2.085194347700e+02 0.0 
0.0 0.0 -9.167033604488e+01 
-7.643414881705e+01 4.537598196894e+00 0.0 
4.537598196894e+00 -2.152257546858e+02 0.0 
0.0 0.0 -8.709797105084e+01 
-1.135043952135e+02 1.589827505085e+01 0.0 
1.589827505085e+01 -2.873329322590e+02 0.0 
0.0 0.0 -1.198511982418e+02 
-6.141489994725e+01 1.736434112434e+01 0.0 
1.736434112434e+01 -1.168716007373e+02 0.0 
0.0 0.0 -5.308595020536e+01 
-8.386751666981e+01 1.903868088313e+01 0.0 
1.903868088313e+01 -1.864171524797e+02 0.0 
0.0 0.0 -8.068540074484e+01 
-9.253107541278e+01 1.619395878267e+01 0.0 
1.619395878267e+01 -1.903408901606e+02 0.0 
0.0 0.0 -8.446158967200e+01 
-7.843159123631e+01 1.870493914266e+01 0.0 
1.870493914266e+01 -1.910931847824e+02 0.0 
0.0 0.0 -8.045743280562e+01 
-1.072124234538e+02 5.732991303163e-01 0.0 
5.732991303163e-01 -2.743530372879e+02 0.0 
0.0 0.0 -1.140696382225e+02 
-1.219708174069e+02 6.164792073272e+00 0.0 
6.164792073272e+00 -3.091142278968e+02 0.0 
0.0 0.0 -1.289255135911e+02 
-2.813806907163e+01 4.146599383664e-01 0.0 
4.146599383664e-01 -7.898352345325e+01 0.0 
0.0 0.0 -3.173647775747e+01 
-4.354473934283e+01 1.722146794972e+01 0.0 
1.722146794972e+01 -1.145419813814e+02 0.0 
0.0 0.0 -4.702601621727e+01 
-8.047246035319e+01 4.600902154430e+00 0.0 
4.600902154430e+00 -1.577308597578e+02 0.0 
0.0 0.0 -7.106099603328e+01 
-1.152208202044e+02 2.045349934079e+01 0.0 
2.045349934079e+01 -2.715943774006e+02 0.0 
0.0 0.0 -1.156445592815e+02 
-1.075426975344e+02 5.690423410191e+00 0.0 
5.690423410191e+00 -2.401953953819e+02 0.0 
0.0 0.0 -1.039214278749e+02 
-5.568477504843e+01 1.957999104379e+01 0.0 
1.957999104379e+01 -1.245145860317e+02 0.0 
0.0 0.0 -5.365980832405e+01 
-1.220889251227e+02 4.741479404636e+00 0.0 
4.741479404636e+00 -3.083920717048e+02 0.0 
0.0 0.0 -1.287442990482e+02 
-1.048332669437e+02 7.575101644656e+00 0.0 
7.575101644656e+00 -2.283479657247e+02 0.0 
0.0 0.0 -9.955436980051e+01 
-7.842490529207e+01 1.082079150191e+00 0.0 
1.082079150191e+00 -2.138589702926e+02 0.0 
0.0 0.0 -8.728516267541e+01 
-3.373632648515e+01 -3.020007072671e-01 0.0 
-3.020007072671e-01 -9.115828423028e+01 0.0 
0.0 0.0 -3.706838321463e+01 
-2.345064586924e+01 6.309946111868e+00 0.0 
6.309946111868e+00 -5.861619872527e+01 0.0 
0.0 0.0 -2.422005337835e+01 
-4.246297316451e+01 5.697317755406e+00 0.0 
5.697317755406e+00 -1.303418768790e+02 0.0 
0.0 0.0 -5.144145501306e+01 
-6.948528953867e+01 1.468286496371e+01 0.0 
1.468286496371e+01 -1.897641399311e+02 0.0 
0.0 0.0 -7.737482884093e+01 
-8.650800371303e+01 1.834187318458e+00 0.0 
1.834187318458e+00 -2.328842510519e+02 0.0 
0.0 0.0 -9.541767642947e+01 
-1.139358979401e+02 1.261436547130e+01 0.0 
1.261436547130e+01 -2.525508189030e+02 0.0 
0.0 0.0 -1.095460150529e+02 
-1.268710266533e+02 4.383559295431e+00 0.0 
4.383559295431e+00 -3.172016581583e+02 0.0 
0.0 0.0 -1.328218054435e+02 
-1.114316417565e+02 8.616177892322e+00 0.0 
8.616177892322e+00 -2.896055353915e+02 0.0 
0.0 0.0 -1.199111531444e+02 
-2.011245528513e+01 1.120766890265e+01 0.0 
1.120766890265e+01 -2.192904702943e+01 0.0 
0.0 0.0 -1.221245069437e+01 
-5.625371560800e+01 6.990408272975e+00 0.0 
6.990408272975e+00 -9.094516270515e+01 0.0 
0.0 0.0 -4.375966349395e+01 
-1.316457022329e+02 3.983749424199e+00 0.0 
3.983749424199e+00 -3.259932263420e+02 0.0 
0.0 0.0 -1.368916785725e+02 
-7.916590885530e+01 7.996967880273e+00 0.0 
7.996967880273e+00 -2.220040986581e+02 0.0 
0.0 0.0 -8.995100225401e+01 
-1.183779202149e+02 1.539122969007e+01 0.0 
1.539122969007e+01 -2.985271592020e+02 0.0 
0.0 0.0 -1.246715238251e+02 
-8.529159121780e+01 1.188181664848e-01 0.0 
1.188181664848e-01 -2.244409496196e+02 0.0 
0.0 0.0 -9.251976225121e+01 
-1.277520754389e+02 2.210628626886e+01 0.0 
2.210628626886e+01 -2.991217593725e+02 0.0 
0.0 0.0 -1.276621504434e+02 
-4.084806510553e+01 1.334255566479e+01 0.0 
1.334255566479e+01 -5.929939098787e+01 0.0 
0.0 0.0 -2.964423682802e+01 
-1.364407466070e+02 3.526106584654e+00 0.0 
3.526106584654e+00 -3.350014434984e+02 0.0 
0.0 0.0 -1.410326570316e+02 
-1.105203537279e+02 1.044373404779e+01 0.0 
1.044373404779e+01 -2.875088869430e+02 0.0 
0.0 0.0 -1.190087722013e+02 
-4.051451670372e+01 1.233136910563e+01 0.0 
1.233136910563e+01 -1.193489815094e+02 0.0 
0.0 0.0 -4.755904946393e+01 
-4.969230196085e+01 3.908759866786e-02 0.0 
3.908759866786e-02 -9.490013220953e+01 0.0 
0.0 0.0 -4.297773025111e+01 
-1.478730363441e+02 3.871043540138e+00 0.0 
3.871043540138e+00 -3.563266754682e+02 0.0 
0.0 0.0 -1.508599135437e+02 
-1.203422550929e+02 1.150135864230e+01 0.0 
1.150135864230e+01 -3.062015304168e+02 0.0 
0.0 0.0 -1.275631356529e+02 
-8.654538519340e+01 1.878418458250e+01 0.0 
1.878418458250e+01 -2.096475541978e+02 0.0 
0.0 0.0 -8.845788181736e+01 
-7.555186240223e+01 6.425526281205e+00 0.0 
6.425526281205e+00 -2.139994201357e+02 0.0 
0.0 0.0 -8.646538476138e+01 
-4.296625308333e+01 6.051955256454e+00 0.0 
6.051955256454e+00 -6.159219592438e+01 0.0 
0.0 0.0 -3.096753470231e+01 
-9.078106445365e+01 1.801733360304e+00 0.0 
1.801733360304e+00 -2.416975763274e+02 0.0 
0.0 0.0 -9.934359223431e+01 
-8.818531543533e+01 1.863415162597e+01 0.0 
1.863415162597e+01 -1.917260168138e+02 0.0 
0.0 0.0 -8.357339967474e+01 
-1.172556091367e+02 1.069118090482e+01 0.0 
1.069118090482e+01 -2.681753954449e+02 0.0 
0.0 0.0 -1.152293013745e+02 
-1.245128227959e+02 1.297542944294e+01 0.0 
1.297542944294e+01 -3.132377143515e+02 0.0 
0.0 0.0 -1.309251611442e+02 
-8.749133716830e+01 9.665985549379e+00 0.0 
9.665985549379e+00 -1.696858975786e+02 0.0 
0.0 0.0 -7.675317042408e+01 
-8.668698396966e+01 1.145669495918e+00 0.0 
1.145669495918e+00 -2.313945984146e+02 0.0 
0.0 0.0 -9.502447471529e+01 
-9.466120805532e+01 1.623162959980e+01 0.0 
1.623162959980e+01 -2.440234806219e+02 0.0 
0.0 0.0 -1.012054066032e+02 
-1.927711720542e+01 -8.887615395459e-01 0.0 
-8.887615395459e-01 -5.039391757578e+01 0.0 
0.0 0.0 -2.050131043436e+01 
-4.874966061436e+01 9.386092299135e+00 0.0 
9.386092299135e+00 -7.368157769388e+01 0.0 
0.0 0.0 -3.632937149247e+01 
-9.078818768922e+01 1.143825916703e+00 0.0 
1.143825916703e+00 -2.400324937858e+02 0.0 
0.0 0.0 -9.884620444249e+01 
-4.611306112364e+01 4.782056564378e+00 0.0 
4.782056564378e+00 -1.405980358642e+02 0.0 
0.0 0.0 -5.561332909636e+01 
-7.997293651233e+01 5.941146652101e+00 0.0 
5.941146652101e+00 -2.238133922778e+02 0.0 
0.0 0.0 -9.073589863705e+01 
-1.316465051475e+02 1.966615714837e+01 0.0 
1.966615714837e+01 -3.183214393255e+02 0.0 
0.0 0.0 -1.345903833419e+02 
-9.488978651450e+01 1.100306815574e+00 0.0 
1.100306815574e+00 -2.486520759595e+02 0.0 
0.0 0.0 -1.026625587422e+02 
-5.259087273403e+01 5.780252816260e+00 0.0 
5.780252816260e+00 -1.582295632473e+02 0.0 
0.0 0.0 -6.284613079441e+01 
-9.898053719067e+01 1.005817861955e+00 0.0 
1.005817861955e+00 -2.572040754051e+02 0.0 
0.0 0.0 -1.064553837787e+02 
-3.501244230909e+01 8.656909606877e+00 0.0 
8.656909606877e+00 -4.383871433932e+01 0.0 
0.0 0.0 -2.325534699452e+01 
-9.170779518331e+01 1.145315857526e+01 0.0 
1.145315857526e+01 -1.813238941688e+02 0.0 
0.0 0.0 -8.150950680563e+01 
-1.030846472458e+02 8.602012811423e-01 0.0 
8.602012811423e-01 -2.656766754965e+02 0.0 
0.0 0.0 -1.102283968227e+02 
-9.587326961935e+01 1.883591290782e+01 0.0 
1.883591290782e+01 -2.114734838961e+02 0.0 
0.0 0.0 -9.180402605464e+01 
-2.047892493885e+01 -1.296664357043e+00 0.0 
-1.296664357043e+00 -5.273398555757e+01 0.0 
0.0 0.0 -2.156387314892e+01 
-9.034686549492e+01 1.836345779770e+01 0.0 
1.836345779770e+01 -2.231495596688e+02 0.0 
0.0 0.0 -9.364892754912e+01 
-1.355401097830e+02 1.087021824756e+00 0.0 
1.087021824756e+00 -3.322228134627e+02 0.0 
0.0 0.0 -1.399288769737e+02 
-5.587125204703e+01 -5.655130167198e-01 0.0 
-5.655130167198e-01 -1.585071129696e+02 0.0 
0.0 0.0 -6.391350950499e+01 
-8.449050404346e+01 5.546176762079e+00 0.0 
5.546176762079e+00 -2.335293237406e+02 0.0 
0.0 0.0 -9.500594833520e+01 
-9.891832464896e+01 1.261476272590e+01 0.0 
1.261476272590e+01 -2.022639192417e+02 0.0 
0.0 0.0 -8.995467316720e+01 
-2.815503773206e+01 1.285288096205e+01 0.0 
1.285288096205e+01 -3.098602650489e+01 0.0 
0.0 0.0 -1.734231927108e+01 
-9.299554353259e+01 6.558296835787e+00 0.0 
6.558296835787e+00 -2.520123059027e+02 0.0 
0.0 0.0 -1.031023548306e+02 
-1.035145497758e+02 1.920070524353e+01 0.0 
1.920070524353e+01 -2.312376990432e+02 0.0 
0.0 0.0 -1.000256746457e+02 
-9.440155719851e+01 1.786268877808e+01 0.0 
1.786268877808e+01 -2.363596390109e+02 0.0 
0.0 0.0 -9.882835886282e+01 
-7.757691290349e+01 1.516417637518e+01 0.0 
1.516417637518e+01 -2.075835344476e+02 0.0 
0.0 0.0 -8.514813420532e+01 
-1.019761616047e+02 7.580840008429e+00 0.0 
7.580840008429e+00 -2.707377895867e+02 0.0 
0.0 0.0 -1.114141853574e+02 
-3.337350528516e+01 1.713536158640e+01 0.0 
1.713536158640e+01 -5.211247702300e+01 0.0 
0.0 0.0 -2.524579469245e+01 
-4.241691826267e+01 -2.011995021396e+00 0.0 
-2.011995021396e+00 -1.176605587194e+02 0.0 
0.0 0.0 -4.762324309461e+01 
-3.601304601058e+01 -2.273136016543e+00 0.0 
-2.273136016543e+00 -9.836839981625e+01 0.0 
0.0 0.0 -3.991443374805e+01 
-5.653094651961e+01 5.036695179154e+00 0.0 
5.036695179154e+00 -1.682816785134e+02 0.0 
0.0 0.0 -6.704378750990e+01 
-1.072719806934e+02 1.895127988908e+01 0.0 
1.895127988908e+01 -2.374550901018e+02 0.0 
0.0 0.0 -1.030181212386e+02 
-2.496916328197e+01 -5.235885915373e-01 0.0 
-5.235885915373e-01 -6.698563626228e+01 0.0 
0.0 0.0 -2.718643986328e+01 
-9.960954499846e+01 1.483445362518e+01 0.0 
1.483445362518e+01 -2.057913283834e+02 0.0 
0.0 0.0 -9.122026201456e+01 
-2.737873686880e+01 -2.446259448663e+00 0.0 
-2.446259448663e+00 -7.083347434320e+01 0.0 
0.0 0.0 -2.906366336360e+01 
-5.370128130740e+01 3.420440780521e+00 0.0 
3.420440780521e+00 -1.602463901416e+02 0.0 
0.0 0.0 -6.378430143469e+01 
-1.080527333703e+02 1.801561772203e+01 0.0 
1.801561772203e+01 -2.687050407223e+02 0.0 
0.0 0.0 -1.126273322278e+02 
-7.156230210021e+01 3.770562251907e-01 0.0 
3.770562251907e-01 -1.488837029349e+02 0.0 
0.0 0.0 -6.573380151052e+01 
-5.757507723656e+01 2.923683603564e+00 0.0 
2.923683603564e+00 -1.696362594868e+02 0.0 
0.0 0.0 -6.776340101702e+01 
-4.100539352562e+01 -3.059658911791e-01 0.0 
-3.059658911791e-01 -1.108161247152e+02 0.0 
0.0 0.0 -4.514645547224e+01 
-5.469412457781e+01 1.574284272810e+00 0.0 
1.574284272810e+00 -1.608093505878e+02 0.0 
0.0 0.0 -6.425104254969e+01 
-8.595303476280e+01 1.565339350690e+01 0.0 
1.565339350690e+01 -2.256304064801e+02 0.0 
0.0 0.0 -9.307503237286e+01 
-5.849397302107e+01 1.324775422584e+00 0.0 
1.324775422584e+00 -1.697596366711e+02 0.0 
0.0 0.0 -6.807608290765e+01 
-5.549748144397e+01 2.731366068453e-01 0.0 
2.731366068453e-01 -1.602626816444e+02 0.0 
0.0 0.0 -6.432804892651e+01 
-1.070999648706e+02 3.212532824557e+00 0.0 
3.212532824557e+00 -2.430206380406e+02 0.0 
0.0 0.0 -1.046361808734e+02 
-5.915515765191e+01 2.045428348180e-01 0.0 
2.045428348180e-01 -1.687890264893e+02 0.0 
0.0 0.0 -6.798325524237e+01 
-1.131980099808e+02 9.764256038921e-01 0.0 
9.764256038921e-01 -2.615912849532e+02 0.0 
0.0 0.0 -1.120367884802e+02 
-1.571251149453e+02 1.304868291444e+00 0.0 
1.304868291444e+00 -3.729542845985e+02 0.0 
0.0 0.0 -1.586238198631e+02 
-5.575164392730e+01 2.056344837919e-01 0.0 
2.056344837919e-01 -1.098711066002e+02 0.0 
0.0 0.0 -4.928682515824e+01 
-2.381738979574e+01 1.581707398344e+01 0.0 
1.581707398344e+01 -2.583595905247e+01 0.0 
0.0 0.0 -1.449600465446e+01 
-1.929821977575e+01 8.755350139763e-02 0.0 
8.755350139763e-02 -1.672082807487e+01 0.0 
0.0 0.0 -1.067026688462e+01 
-2.887245160226e+01 1.771580138324e+01 0.0 
1.771580138324e+01 -5.167631347461e+01 0.0 
0.0 0.0 -2.376462952306e+01 
-4.926050625204e+01 -1.255839732751e+00 0.0 
-1.255839732751e+00 -1.398522016896e+02 0.0 
0.0 0.0 -5.633381238250e+01 
-9.975206544009e+01 1.683685826598e+01 0.0 
1.683685826598e+01 -2.106510766989e+02 0.0 
0.0 0.0 -9.272094264168e+01 
-5.619130108897e+01 1.075005743838e-01 0.0 
1.075005743838e-01 -1.106138379262e+02 0.0 
0.0 0.0 -4.964154170455e+01 
-4.597349424295e+01 -1.742936459786e+00 0.0 
-1.742936459786e+00 -1.290173323523e+02 0.0 
0.0 0.0 -5.209724797857e+01 
-1.198953039172e+02 1.837421030463e+01 0.0 
1.837421030463e+01 -2.690405463045e+02 0.0 
0.0 0.0 -1.162807550665e+02 
-1.374474700152e+02 2.318067331358e+01 0.0 
2.318067331358e+01 -3.236604683435e+02 0.0 
0.0 0.0 -1.379323815076e+02 
-8.275370925923e+01 6.304082585882e-01 0.0 
6.304082585882e-01 -1.775700406138e+02 0.0 
0.0 0.0 -7.769712496192e+01 
-1.232334885005e+02 1.485803114725e+01 0.0 
1.485803114725e+01 -3.088702760241e+02 0.0 
0.0 0.0 -1.292311293574e+02 
-9.895896729870e+01 1.736983088043e+01 0.0 
1.736983088043e+01 -2.497600672302e+02 0.0 
0.0 0.0 -1.042157103587e+02 
-9.998647750779e+01 5.292026791725e-01 0.0 
5.292026791725e-01 -2.247511962347e+02 0.0 
0.0 0.0 -9.702130212274e+01 
-4.985971084216e+01 3.988364506636e-01 0.0 
3.988364506636e-01 -9.350644770684e+01 0.0 
0.0 0.0 -4.260984756470e+01 
-1.658644120871e+01 -1.849484149811e+00 0.0 
-1.849484149811e+00 -3.301465201388e+01 0.0 
0.0 0.0 -1.460335514226e+01 
-1.119593410706e+02 3.177145215837e-01 0.0 
3.177145215837e-01 -2.842796086938e+02 0.0 
0.0 0.0 -1.184716849293e+02 
-2.290760086949e+01 1.592777199797e+01 0.0 
1.592777199797e+01 -2.521391635642e+01 0.0 
0.0 0.0 -1.403645516777e+01 
-2.511586257183e+01 1.598701939432e+01 0.0 
1.598701939432e+01 -4.537682466724e+01 0.0 
0.0 0.0 -2.074780617172e+01 
-2.324828465513e+01 1.376381782228e+01 0.0 
1.376381782228e+01 -4.230713669575e+01 0.0 
0.0 0.0 -1.926662640526e+01 
-5.040401504728e+01 -6.807821156977e-01 0.0 
-6.807821156977e-01 -1.368827084121e+02 0.0 
0.0 0.0 -5.578601703780e+01 
-2.210830342210e+01 -2.413793735899e+00 0.0 
-2.413793735899e+00 -4.908159941786e+01 0.0 
0.0 0.0 -2.095697085199e+01 
-2.326882089615e+01 1.553361405050e+01 0.0 
1.553361405050e+01 -2.784578929684e+01 0.0 
0.0 0.0 -1.493438305790e+01 
-1.366795223192e+02 1.732523273582e+01 0.0 
1.732523273582e+01 -3.322697758638e+02 0.0 
0.0 0.0 -1.402847894549e+02 
-5.934817949177e+01 1.293075334009e+00 0.0 
1.293075334009e+00 -1.114406367227e+02 0.0 
0.0 0.0 -5.083664486433e+01 
-1.120221076040e+02 1.902962757699e+01 0.0 
1.902962757699e+01 -2.739275463038e+02 0.0 
0.0 0.0 -1.153848961723e+02 
-2.228127813846e+01 1.413117278361e+01 0.0 
1.413117278361e+01 -2.597560437918e+01 0.0 
0.0 0.0 -1.407706475529e+01 
-1.109222469651e+02 8.530528785354e+00 0.0 
8.530528785354e+00 -2.480106637180e+02 0.0 
0.0 0.0 -1.072798732049e+02 
-1.312365434559e+02 2.107259149683e+01 0.0 
2.107259149683e+01 -3.139126024936e+02 0.0 
0.0 0.0 -1.331447437849e+02 
-1.560345248158e+02 7.513618436647e+00 0.0 
7.513618436647e+00 -3.710625858391e+02 0.0 
0.0 0.0 -1.577291331964e+02 
-1.211668220439e+02 1.985746838646e+01 0.0 
1.985746838646e+01 -2.931381225309e+02 0.0 
0.0 0.0 -1.238914833724e+02 
-2.117379739963e+01 1.038257778841e+01 0.0 
1.038257778841e+01 -3.689755907516e+01 0.0 
0.0 0.0 -1.702140694244e+01 
-6.988872689601e+01 3.779184937910e+00 0.0 
3.779184937910e+00 -1.296975766236e+02 0.0 
0.0 0.0 -5.947589105588e+01 
-1.249817799235e+02 2.171249570723e+01 0.0 
2.171249570723e+01 -2.885466659596e+02 0.0 
0.0 0.0 -1.236585337649e+02 
-8.900115080945e+01 1.017826201225e+00 0.0 
1.017826201225e+00 -1.933262936163e+02 0.0 
0.0 0.0 -8.429823332773e+01 
-1.576045127954e+02 5.574732680455e+00 0.0 
5.574732680455e+00 -3.737463925510e+02 0.0 
0.0 0.0 -1.590052716039e+02 
-5.988825820282e+01 1.634846009553e+00 0.0 
1.634846009553e+00 -1.095291837099e+02 0.0 
0.0 0.0 -5.042523257382e+01 
-1.075469358396e+02 2.018739444831e+00 0.0 
2.018739444831e+00 -2.453521674944e+02 0.0 
0.0 0.0 -1.054697310002e+02 
-2.643025049617e+01 -7.880860570585e-01 0.0 
-7.880860570585e-01 -7.048573061743e+01 0.0 
0.0 0.0 -2.867479433408e+01 
-1.074063540081e+02 9.820379592453e-01 0.0 
9.820379592453e-01 -2.454338019920e+02 0.0 
0.0 0.0 -1.054520468000e+02 
-1.069052324726e+02 1.761893896488e+01 0.0 
1.761893896488e+01 -2.311313634436e+02 0.0 
0.0 0.0 -1.010109787748e+02 
-6.659844727648e+01 5.527043854563e-01 0.0 
5.527043854563e-01 -1.346611619925e+02 0.0 
0.0 0.0 -5.997788278070e+01 
-7.166285071397e+01 5.199527569369e+00 0.0 
5.199527569369e+00 -1.305651242891e+02 0.0 
0.0 0.0 -6.026839250091e+01 
-1.504949276270e+02 1.910343196359e+00 0.0 
1.910343196359e+00 -3.605335277416e+02 0.0 
0.0 0.0 -1.529085366106e+02 
-1.171255354675e+02 1.597118445597e+01 0.0 
1.597118445597e+01 -2.611911985628e+02 0.0 
0.0 0.0 -1.130950202091e+02 
-1.985082164542e+01 7.857214447101e+00 0.0 
7.857214447101e+00 -3.296517884675e+01 0.0 
0.0 0.0 -1.544480014765e+01 
-8.270082397172e+01 7.047559499454e-01 0.0 
7.047559499454e-01 -1.765108387534e+02 0.0 
0.0 0.0 -7.736349881755e+01 
-6.293058944408e+01 -4.251438841357e-01 0.0 
-4.251438841357e-01 -1.703250509017e+02 0.0 
0.0 0.0 -6.957669210375e+01 
-1.996073087896e+01 -1.030633730028e+00 0.0 
-1.030633730028e+00 -3.067422900315e+01 0.0 
0.0 0.0 -1.498292773560e+01 
-1.457083250613e+02 8.576434963965e+00 0.0 
8.576434963965e+00 -3.529741566302e+02 0.0 
0.0 0.0 -1.492047445074e+02 
-1.133490479025e+02 1.842780836043e+01 0.0 
1.842780836043e+01 -2.504293171414e+02 0.0 
0.0 0.0 -1.087335095132e+02 
-1.493207340572e+02 3.082092646652e+00 0.0 
3.082092646652e+00 -3.588488698403e+02 0.0 
0.0 0.0 -1.520508811692e+02 
-1.856781383326e+01 -3.473968083691e-01 0.0 
-3.473968083691e-01 -4.992896210798e+01 0.0 
0.0 0.0 -2.014903278237e+01 
-1.460447108330e+01 -1.592146617404e+00 0.0 
-1.592146617404e+00 -3.116470064494e+01 0.0 
0.0 0.0 -1.341267000832e+01 
-1.456164760105e+02 1.081991627975e+01 0.0 
1.081991627975e+01 -3.525955893145e+02 0.0 
0.0 0.0 -1.490636195975e+02 
-1.229735950300e+02 2.037224230544e+01 0.0 
2.037224230544e+01 -2.796059323849e+02 0.0 
0.0 0.0 -1.203738582245e+02 
-2.950830854033e+01 -1.283714491271e+00 0.0 
-1.283714491271e+00 -8.010822629608e+01 0.0 
0.0 0.0 -3.248496045092e+01 
-1.161000691403e+02 7.324597405241e+00 0.0 
7.324597405241e+00 -2.673780733389e+02 0.0 
0.0 0.0 -1.146434427438e+02 
-1.805897190587e+01 5.840717519600e+00 0.0 
5.840717519600e+00 -2.350647834647e+01 0.0 
0.0 0.0 -1.215143906075e+01 
-4.973545643397e+01 2.234050586332e-01 0.0 
2.234050586332e-01 -9.147713614108e+01 0.0 
0.0 0.0 -4.196377777251e+01 
-1.374071685646e+01 -9.995848023406e-01 0.0 
-9.995848023406e-01 -3.236845420773e+01 0.0 
0.0 0.0 -1.360852092393e+01 
-1.579555879986e+02 4.640029318634e+00 0.0 
4.640029318634e+00 -3.743130326963e+02 0.0 
0.0 0.0 -1.592805862085e+02 
-1.093005048055e+02 5.167237002382e+00 0.0 
5.167237002382e+00 -2.475034983977e+02 0.0 
0.0 0.0 -1.066412009609e+02 
-6.991262690182e+01 -3.644989118087e-01 0.0 
-3.644989118087e-01 -1.874600939721e+02 0.0 
0.0 0.0 -7.681181626216e+01 
-5.763030302746e+01 3.019399174021e+00 0.0 
3.019399174021e+00 -9.884573662157e+01 0.0 
0.0 0.0 -4.654281189471e+01 
-4.592491545246e+01 -5.791975782592e-01 0.0 
-5.791975782592e-01 -1.242034820101e+02 0.0 
0.0 0.0 -5.063851923876e+01 
-1.222211383561e+02 2.106834700905e+01 0.0 
2.106834700905e+01 -2.881626934057e+02 0.0 
0.0 0.0 -1.227151495285e+02 
-2.062028617319e+01 -2.348736845014e+00 0.0 
-2.348736845014e+00 -4.624835901676e+01 0.0 
0.0 0.0 -1.966059355699e+01 
-1.092219008788e+02 3.900674989763e+00 0.0 
3.900674989763e+00 -2.487932206405e+02 0.0 
0.0 0.0 -1.070045364558e+02 
-1.441170322655e+02 1.315016373752e+01 0.0 
1.315016373752e+01 -3.491961819923e+02 0.0 
0.0 0.0 -1.475939642774e+02 
-1.146858582258e+02 1.178605073635e+01 0.0 
1.178605073635e+01 -2.565349590996e+02 0.0 
0.0 0.0 -1.109662451976e+02 
-1.458708666100e+02 2.064890144444e+01 0.0 
2.064890144444e+01 -3.460525220838e+02 0.0 
0.0 0.0 -1.471770166081e+02 
-1.947987874295e+01 1.182321449112e+00 0.0 
1.182321449112e+00 -2.783931936640e+01 0.0 
0.0 0.0 -1.389761373973e+01 
-1.323529667582e+02 2.198932852022e+01 0.0 
2.198932852022e+01 -3.141809312075e+02 0.0 
0.0 0.0 -1.335601693897e+02 
-1.328349057561e+02 1.378858190097e+01 0.0 
1.378858190097e+01 -3.285141766143e+02 0.0 
0.0 0.0 -1.380047247111e+02 
-4.933827032745e+01 -8.563851724611e-02 0.0 
-8.563851724611e-02 -9.330092670272e+01 0.0 
0.0 0.0 -4.239175910905e+01 
-1.157142219839e+02 1.378165907069e+01 0.0 
1.378165907069e+01 -2.577453178635e+02 0.0 
0.0 0.0 -1.116378619542e+02 
-5.646593205243e+01 -6.451751424427e-01 0.0 
-6.451751424427e-01 -1.526403296384e+02 0.0 
0.0 0.0 -6.233187850723e+01 
-2.515118532416e+01 -1.170052683069e+00 0.0 
-1.170052683069e+00 -6.601597554380e+01 0.0 
0.0 0.0 -2.695014826039e+01 
-1.138399648328e+02 5.738651774515e-01 0.0 
5.738651774515e-01 -2.636193323994e+02 0.0 
0.0 0.0 -1.128377891696e+02 
-5.708074599989e+00 -5.078005265259e-02 0.0 
-5.078005265259e-02 -1.414895762005e+01 0.0 
0.0 0.0 -5.869460740678e+00 
-4.834491356104e+01 9.765671296129e-02 0.0 
9.765671296129e-02 -9.224043165385e+01 0.0 
0.0 0.0 -4.177560356447e+01 
-1.594631431253e+02 4.293445590355e-01 0.0 
4.293445590355e-01 -3.771629347606e+02 0.0 
0.0 0.0 -1.605878233658e+02 
-2.389212328744e+01 -8.420606585914e-01 0.0 
-8.420606585914e-01 -6.308188634125e+01 0.0 
0.0 0.0 -2.569220288861e+01 
-6.178461651437e+01 2.967831177291e-01 0.0 
2.967831177291e-01 -1.242476285426e+02 0.0 
0.0 0.0 -5.540967351710e+01 
-1.220966314070e+02 1.961079754578e+01 0.0 
1.961079754578e+01 -2.761815396084e+02 0.0 
0.0 0.0 -1.190834513046e+02 
-8.735982843926e+01 2.564936735029e-02 0.0 
2.564936735029e-02 -2.294447865687e+02 0.0 
0.0 0.0 -9.464138450238e+01 
-9.593487543136e+01 1.002409739041e+00 0.0 
1.002409739041e+00 -2.133204507884e+02 0.0 
0.0 0.0 -9.237659786594e+01 
-2.524867040811e+01 -2.449575223601e+00 0.0 
-2.449575223601e+00 -6.152286829934e+01 0.0 
0.0 0.0 -2.563146161224e+01 
-1.896971960391e+01 -5.785898318908e-01 0.0 
-5.785898318908e-01 -1.437867342906e+01 0.0 
0.0 0.0 -1.002179054742e+01 
-7.571770171740e+01 5.601223049079e-01 0.0 
5.601223049079e-01 -1.592449902403e+02 0.0 
0.0 0.0 -7.008880758731e+01 
-1.341617838809e+02 2.058899584751e+01 0.0 
2.058899584751e+01 -3.218685919775e+02 0.0 
0.0 0.0 -1.364091127575e+02 
-1.132582051579e+02 9.661918129147e+00 0.0 
9.661918129147e+00 -2.545379900886e+02 0.0 
0.0 0.0 -1.099388585739e+02 
-7.076857002291e+01 5.364468657153e-01 0.0 
5.364468657153e-01 -1.455071542366e+02 0.0 
0.0 0.0 -6.448271727786e+01 
-2.140455149682e+01 6.367588892860e+00 0.0 
6.367588892860e+00 -4.536914033709e+01 0.0 
0.0 0.0 -1.963210755017e+01 
-1.187095279596e+02 1.925679601298e+01 0.0 
1.925679601298e+01 -2.662643522936e+02 0.0 
0.0 0.0 -1.150921640760e+02 
-7.604516574718e+01 -5.081973340546e-02 0.0 
-5.081973340546e-02 -2.022604038052e+02 0.0 
0.0 0.0 -8.309167086572e+01 
-1.209103303704e+02 2.127355979897e+01 0.0 
2.127355979897e+01 -2.791790510354e+02 0.0 
0.0 0.0 -1.196268144217e+02 
-1.309417796512e+02 1.593348136104e+01 0.0 
1.593348136104e+01 -3.230235070577e+02 0.0 
0.0 0.0 -1.357895860127e+02 
-1.670209737387e+01 6.509726934726e+00 0.0 
6.509726934726e+00 -1.255628168020e+01 0.0 
0.0 0.0 -8.644592693328e+00 
-9.463057845239e+01 3.836876124435e-02 0.0 
3.836876124435e-02 -2.462971263283e+02 0.0 
0.0 0.0 -1.018783114342e+02 
-1.356566508997e+01 -1.034215978921e+00 0.0 
-1.034215978921e+00 -3.032188837360e+01 0.0 
0.0 0.0 -1.286781758858e+01 
-1.496084250960e+02 6.579776160002e+00 0.0 
6.579776160002e+00 -3.597801189016e+02 0.0 
0.0 0.0 -1.524165631993e+02 
-7.943285760055e+01 6.774524602531e-02 0.0 
6.774524602531e-02 -2.107047235423e+02 0.0 
0.0 0.0 -8.664127434287e+01 
-1.330139031483e+01 2.973021253140e+00 0.0 
2.973021253140e+00 -7.722318956270e+00 0.0 
0.0 0.0 -5.907112781329e+00 
-1.410029228726e+01 8.448724924512e-02 0.0 
8.448724924512e-02 -1.045004049206e+01 0.0 
0.0 0.0 -6.965099833795e+00 
-2.471098938722e+01 3.087516818867e+00 0.0 
3.087516818867e+00 -2.911518616473e+01 0.0 
0.0 0.0 -1.574785266558e+01 
-2.151492416539e+01 -3.106950059205e-02 0.0 
-3.106950059205e-02 -2.892374398231e+01 0.0 
0.0 0.0 -1.473160044431e+01 
-3.484833956823e+01 2.534381414432e+00 0.0 
2.534381414432e+00 -4.895271599776e+01 0.0 
0.0 0.0 -2.474031666980e+01 
-3.030226995013e+01 -7.655196138096e-02 0.0 
-7.655196138096e-02 -4.956072615597e+01 0.0 
0.0 0.0 -2.355889883183e+01 
-4.403188209607e+01 2.208944588419e+00 0.0 
2.208944588419e+00 -6.871718166020e+01 0.0 
0.0 0.0 -3.342471912688e+01 
-3.798469831528e+01 -1.713606341609e-01 0.0 
-1.713606341609e-01 -6.792363445229e+01 0.0 
0.0 0.0 -3.137249983027e+01 

TENSORS node_materi_strain_total float
1.179744875612e-05 7.734965152000e-07 0.0 
7.734965152000e-07 9.680561105896e-05 0.0 
0.0 0.0 0.0 
-5.857994576026e-04 -1.865571576833e-05 0.0 
-1.865571576833e-05 1.021174746204e-02 0.0 
0.0 0.0 0.0 
5.542051017549e-05 4.657883562074e-05 0.0 
4.657883562074e-05 8.242747969008e-03 0.0 
0.0 0.0 0.0 
-3.997104440578e-05 9.239708762307e-06 0.0 
9.239708762307e-06 1.390110224126e-02 0.0 
0.0 0.0 0.0 
3.730286301777e-05 -7.052220188554e-06 0.0 
-7.052220188554e-06 2.906497614239e-04 0.0 
0.0 0.0 0.0 
9.080129017399e-05 7.199432114153e-06 0.0 
7.199432114153e-06 6.727799196803e-04 0.0 
0.0 0.0 0.0 
1.665653168540e-04 7.141965787644e-06 0.0 
7.141965787644e-06 1.022898733389e-03 0.0 
0.0 0.0 0.0 
2.393691467250e-04 5.101911699576e-06 0.0 
5.101911699576e-06 1.417359875879e-03 0.0 
0.0 0.0 0.0 
3.145989828177e-04 3.325967247061e-06 0.0 
3.325967247061e-06 1.798627005329e-03 0.0 
0.0 0.0 0.0 
3.907921709182e-04 3.313237455296e-06 0.0 
3.313237455296e-06 2.175174975940e-03 0.0 
0.0 0.0 0.0 
4.594810190453e-04 4.811188875959e-06 0.0 
4.811188875959e-06 2.555394987849e-03 0.0 
0.0 0.0 0.0 
5.189619468082e-04 5.414280978840e-06 0.0 
5.414280978840e-06 2.942030949756e-03 0.0 
0.0 0.0 0.0 
5.685229121041e-04 7.449002074545e-06 0.0 
7.449002074545e-06 3.336333012961e-03 0.0 
0.0 0.0 0.0 
6.019747169255e-04 1.250018718530e-05 0.0 
1.250018718530e-05 3.745941262417e-03 0.0 
0.0 0.0 0.0 
6.160857599238e-04 2.152741312048e-05 0.0 
2.152741312048e-05 4.179965332486e-03 0.0 
0.0 0.0 0.0 
6.255867065751e-04 2.483175905822e-05 0.0 
2.483175905822e-05 4.608003355341e-03 0.0 
0.0 0.0 0.0 
6.198772246645e-04 3.496183858429e-05 0.0 
3.496183858429e-05 5.006827652094e-03 0.0 
0.0 0.0 0.0 
5.871027079286e-04 2.182072583527e-05 0.0 
2.182072583527e-05 5.463038896928e-03 0.0 
0.0 0.0 0.0 
5.356766759380e-04 2.414855981886e-05 0.0 
2.414855981886e-05 5.944829864427e-03 0.0 
0.0 0.0 0.0 
4.662830365745e-04 2.723111558996e-05 0.0 
2.723111558996e-05 6.425481427778e-03 0.0 
0.0 0.0 0.0 
3.757832023317e-04 2.875175781253e-05 0.0 
2.875175781253e-05 6.924849733528e-03 0.0 
0.0 0.0 0.0 
2.639503582941e-04 3.493136948786e-05 0.0 
3.493136948786e-05 7.442431731812e-03 0.0 
0.0 0.0 0.0 
1.536171812628e-04 4.025862801874e-05 0.0 
4.025862801874e-05 7.946053307435e-03 0.0 
0.0 0.0 0.0 
-2.807562931532e-05 6.167206349476e-05 0.0 
6.167206349476e-05 1.391508889758e-02 0.0 
0.0 0.0 0.0 
-3.294587090112e-05 1.139997767757e-04 0.0 
1.139997767757e-04 1.389331544598e-02 0.0 
0.0 0.0 0.0 
-3.300446343564e-05 1.606814126346e-04 0.0 
1.606814126346e-04 1.389498075437e-02 0.0 
0.0 0.0 0.0 
-3.316475383934e-05 2.339862491156e-04 0.0 
2.339862491156e-04 1.388641585442e-02 0.0 
0.0 0.0 0.0 
-4.156165971140e-05 2.873508872223e-04 0.0 
2.873508872223e-04 1.386594147166e-02 0.0 
0.0 0.0 0.0 
-3.807399870355e-05 3.577334428391e-04 0.0 
3.577334428391e-04 1.386440379216e-02 0.0 
0.0 0.0 0.0 
-4.235128310248e-05 4.327437365182e-04 0.0 
4.327437365182e-04 1.384651057686e-02 0.0 
0.0 0.0 0.0 
-4.654942110753e-05 5.131255887520e-04 0.0 
5.131255887520e-04 1.381474662886e-02 0.0 
0.0 0.0 0.0 
-4.836561821446e-05 5.918010503241e-04 0.0 
5.918010503241e-04 1.379485421795e-02 0.0 
0.0 0.0 0.0 
-4.629873712203e-05 6.931463929993e-04 0.0 
6.931463929993e-04 1.375226601121e-02 0.0 
0.0 0.0 0.0 
-6.117904689292e-05 7.822015594846e-04 0.0 
7.822015594846e-04 1.369459990519e-02 0.0 
0.0 0.0 0.0 
-5.746722668898e-05 8.905444524854e-04 0.0 
8.905444524854e-04 1.364189124783e-02 0.0 
0.0 0.0 0.0 
-6.255688062395e-05 1.005419294859e-03 0.0 
1.005419294859e-03 1.356589079341e-02 0.0 
0.0 0.0 0.0 
-6.195317591443e-05 1.119786653105e-03 0.0 
1.119786653105e-03 1.346940630581e-02 0.0 
0.0 0.0 0.0 
-6.966836647582e-05 1.236550265709e-03 0.0 
1.236550265709e-03 1.335755827223e-02 0.0 
0.0 0.0 0.0 
-6.818654836834e-05 1.355443927913e-03 0.0 
1.355443927913e-03 1.321790168637e-02 0.0 
0.0 0.0 0.0 
-7.366704198786e-05 1.473832565597e-03 0.0 
1.473832565597e-03 1.306716177713e-02 0.0 
0.0 0.0 0.0 
-7.082831808018e-05 1.599062822216e-03 0.0 
1.599062822216e-03 1.289719684504e-02 0.0 
0.0 0.0 0.0 
-6.221313616391e-05 1.710934577486e-03 0.0 
1.710934577486e-03 1.270900161640e-02 0.0 
0.0 0.0 0.0 
-5.012372592961e-05 1.814470077096e-03 0.0 
1.814470077096e-03 1.250177561632e-02 0.0 
0.0 0.0 0.0 
-3.781891008336e-05 1.903033422788e-03 0.0 
1.903033422788e-03 1.226574898600e-02 0.0 
0.0 0.0 0.0 
-3.618243628452e-05 1.972015680772e-03 0.0 
1.972015680772e-03 1.201658377254e-02 0.0 
0.0 0.0 0.0 
-2.164442854269e-05 2.024126937424e-03 0.0 
2.024126937424e-03 1.175542568613e-02 0.0 
0.0 0.0 0.0 
-1.120299387107e-05 2.053759640735e-03 0.0 
2.053759640735e-03 1.148712350909e-02 0.0 
0.0 0.0 0.0 
-2.131173087820e-06 2.064445812049e-03 0.0 
2.064445812049e-03 1.122097822674e-02 0.0 
0.0 0.0 0.0 
9.807760913490e-06 2.058437009885e-03 0.0 
2.058437009885e-03 1.095852640822e-02 0.0 
0.0 0.0 0.0 
1.836835325878e-05 2.028299168890e-03 0.0 
2.028299168890e-03 1.069998711937e-02 0.0 
0.0 0.0 0.0 
3.209969424778e-05 1.981623270630e-03 0.0 
1.981623270630e-03 1.044987126426e-02 0.0 
0.0 0.0 0.0 
3.618269373888e-05 1.916702321555e-03 0.0 
1.916702321555e-03 1.020597907206e-02 0.0 
0.0 0.0 0.0 
3.344789575821e-05 1.841196680954e-03 0.0 
1.841196680954e-03 1.000320215897e-02 0.0 
0.0 0.0 0.0 
5.166469386878e-05 1.762156374991e-03 0.0 
1.762156374991e-03 9.776533843109e-03 0.0 
0.0 0.0 0.0 
5.732846639680e-05 1.661902761923e-03 0.0 
1.661902761923e-03 9.557220762729e-03 0.0 
0.0 0.0 0.0 
5.897240764311e-05 1.550128520840e-03 0.0 
1.550128520840e-03 9.367460233911e-03 0.0 
0.0 0.0 0.0 
5.864196689968e-05 1.443827776836e-03 0.0 
1.443827776836e-03 9.217067111034e-03 0.0 
0.0 0.0 0.0 
6.260586393865e-05 1.337762239921e-03 0.0 
1.337762239921e-03 9.071016695672e-03 0.0 
0.0 0.0 0.0 
5.284335387667e-05 1.225964008747e-03 0.0 
1.225964008747e-03 8.941946514054e-03 0.0 
0.0 0.0 0.0 
6.369449091973e-05 1.121119648960e-03 0.0 
1.121119648960e-03 8.830622040600e-03 0.0 
0.0 0.0 0.0 
5.480023216890e-05 1.012453121656e-03 0.0 
1.012453121656e-03 8.720418472475e-03 0.0 
0.0 0.0 0.0 
6.369715847480e-05 9.094565420104e-04 0.0 
9.094565420104e-04 8.625077038008e-03 0.0 
0.0 0.0 0.0 
5.540986996544e-05 8.076155017420e-04 0.0 
8.076155017420e-04 8.538598079676e-03 0.0 
0.0 0.0 0.0 
4.663653935677e-05 7.139636983102e-04 0.0 
7.139636983102e-04 8.484588984652e-03 0.0 
0.0 0.0 0.0 
4.837699689745e-05 6.268804448149e-04 0.0 
6.268804448149e-04 8.454453070914e-03 0.0 
0.0 0.0 0.0 
5.245531304772e-05 5.394558416352e-04 0.0 
5.394558416352e-04 8.420281798473e-03 0.0 
0.0 0.0 0.0 
5.877782080332e-05 4.440917082751e-04 0.0 
4.440917082751e-04 8.307735309296e-03 0.0 
0.0 0.0 0.0 
4.903298757042e-05 3.628200629727e-04 0.0 
3.628200629727e-04 8.336470994189e-03 0.0 
0.0 0.0 0.0 
4.133747131596e-05 2.878826080721e-04 0.0 
2.878826080721e-04 8.290747954217e-03 0.0 
0.0 0.0 0.0 
3.607340496292e-05 2.130693943915e-04 0.0 
2.130693943915e-04 8.283689156093e-03 0.0 
0.0 0.0 0.0 
3.868526588321e-05 1.485278964732e-04 0.0 
1.485278964732e-04 8.289452126921e-03 0.0 
0.0 0.0 0.0 
3.765384806716e-05 8.150059690944e-05 0.0 
8.150059690944e-05 8.280332478896e-03 0.0 
0.0 0.0 0.0 
-5.677739994567e-04 -1.175638736877e-05 0.0 
-1.175638736877e-05 1.063530727667e-02 0.0 
0.0 0.0 0.0 
-5.538631081416e-04 -1.123737284814e-05 0.0 
-1.123737284814e-05 1.105391822456e-02 0.0 
0.0 0.0 0.0 
-5.247903266553e-04 -8.865370521504e-06 0.0 
-8.865370521504e-06 1.145834970829e-02 0.0 
0.0 0.0 0.0 
-4.855435199117e-04 -7.024906002286e-06 0.0 
-7.024906002286e-06 1.184682848440e-02 0.0 
0.0 0.0 0.0 
-4.348960804564e-04 -2.995138642373e-06 0.0 
-2.995138642373e-06 1.223435827372e-02 0.0 
0.0 0.0 0.0 
-3.695396540163e-04 -1.136773938403e-06 0.0 
-1.136773938403e-06 1.261253512492e-02 0.0 
0.0 0.0 0.0 
-2.965969389016e-04 2.011265201699e-06 0.0 
2.011265201699e-06 1.297901256350e-02 0.0 
0.0 0.0 0.0 
-2.081449282623e-04 4.145990096435e-06 0.0 
4.145990096435e-06 1.333485336749e-02 0.0 
0.0 0.0 0.0 
-1.181753183215e-04 4.192188238866e-06 0.0 
4.192188238866e-06 1.369009716247e-02 0.0 
0.0 0.0 0.0 
-7.742549066443e-04 4.328388827572e-04 0.0 
4.328388827572e-04 4.915542274186e-04 0.0 
0.0 0.0 0.0 
-9.479114731021e-04 2.274254976267e-04 0.0 
2.274254976267e-04 1.025800157380e-02 0.0 
0.0 0.0 0.0 
-8.672552932147e-04 1.051676197073e-03 0.0 
1.051676197073e-03 1.284905920564e-03 0.0 
0.0 0.0 0.0 
-9.368861853662e-04 1.304358505124e-03 0.0 
1.304358505124e-03 2.551774391544e-03 0.0 
0.0 0.0 0.0 
-9.458925235532e-04 1.385963417330e-03 0.0 
1.385963417330e-03 3.916891483608e-03 0.0 
0.0 0.0 0.0 
-9.073272176523e-04 1.348843691164e-03 0.0 
1.348843691164e-03 5.262378297460e-03 0.0 
0.0 0.0 0.0 
-8.770045872331e-04 1.292731387953e-03 0.0 
1.292731387953e-03 6.648350136706e-03 0.0 
0.0 0.0 0.0 
-9.623254560312e-04 8.996267283624e-04 0.0 
8.996267283624e-04 8.209168399393e-03 0.0 
0.0 0.0 0.0 
-8.201795347808e-04 4.526501787884e-04 0.0 
4.526501787884e-04 8.862006978646e-03 0.0 
0.0 0.0 0.0 
-8.775623739031e-04 3.291908141944e-04 0.0 
3.291908141944e-04 9.328550850076e-03 0.0 
0.0 0.0 0.0 
-9.238096218406e-04 2.606825645325e-04 0.0 
2.606825645325e-04 9.786035734588e-03 0.0 
0.0 0.0 0.0 
-6.270516514812e-04 -2.775305263818e-05 0.0 
-2.775305263818e-05 8.666422494350e-03 0.0 
0.0 0.0 0.0 
-6.013716343372e-04 -2.636372686468e-05 0.0 
-2.636372686468e-05 8.919615101840e-03 0.0 
0.0 0.0 0.0 
-5.875245508175e-04 -3.479055924702e-05 0.0 
-3.479055924702e-05 9.341783490917e-03 0.0 
0.0 0.0 0.0 
-5.837219908672e-04 -2.473175935725e-05 0.0 
-2.473175935725e-05 9.767549033306e-03 0.0 
0.0 0.0 0.0 
-5.825329923589e-04 6.113814313321e-06 0.0 
6.113814313321e-06 1.015457426348e-02 0.0 
0.0 0.0 0.0 
-5.846170415613e-04 -3.139809157456e-06 0.0 
-3.139809157456e-06 1.018324057366e-02 0.0 
0.0 0.0 0.0 
-5.926065425531e-04 -3.999410220864e-06 0.0 
-3.999410220864e-06 1.018856133944e-02 0.0 
0.0 0.0 0.0 
-6.006013924201e-04 -6.654829285394e-06 0.0 
-6.654829285394e-06 1.018643284126e-02 0.0 
0.0 0.0 0.0 
-6.091414051889e-04 -2.476875994034e-06 0.0 
-2.476875994034e-06 1.024771473025e-02 0.0 
0.0 0.0 0.0 
-6.233597380117e-04 -5.708527038644e-06 0.0 
-5.708527038644e-06 1.020330725929e-02 0.0 
0.0 0.0 0.0 
-6.383575133946e-04 -7.111845876806e-06 0.0 
-7.111845876806e-06 1.020366723016e-02 0.0 
0.0 0.0 0.0 
-6.563941708861e-04 -2.572104371334e-06 0.0 
-2.572104371334e-06 1.021385094849e-02 0.0 
0.0 0.0 0.0 
-6.854358856739e-04 2.002030549594e-06 0.0 
2.002030549594e-06 1.023170620933e-02 0.0 
0.0 0.0 0.0 
-7.146293484998e-04 1.261147973164e-05 0.0 
1.261147973164e-05 1.023580876649e-02 0.0 
0.0 0.0 0.0 
-7.443291978879e-04 2.814824200305e-05 0.0 
2.814824200305e-05 1.023845851296e-02 0.0 
0.0 0.0 0.0 
-7.830379545648e-04 5.174864146601e-05 0.0 
5.174864146601e-05 1.024130196823e-02 0.0 
0.0 0.0 0.0 
-8.250069056819e-04 9.125489994452e-05 0.0 
9.125489994452e-05 1.024217263902e-02 0.0 
0.0 0.0 0.0 
-8.746696842556e-04 1.472834743814e-04 0.0 
1.472834743814e-04 1.024629218252e-02 0.0 
0.0 0.0 0.0 
-9.048903435254e-04 1.521676972113e-04 0.0 
1.521676972113e-04 5.407822675613e-04 0.0 
0.0 0.0 0.0 
-1.019003994806e-03 2.560037031081e-05 0.0 
2.560037031081e-05 5.647949666435e-04 0.0 
0.0 0.0 0.0 
-1.021645721589e-03 -3.866945120900e-05 0.0 
-3.866945120900e-05 5.446304024766e-04 0.0 
0.0 0.0 0.0 
-9.493634278670e-04 -5.329352633827e-05 0.0 
-5.329352633827e-05 5.080565591317e-04 0.0 
0.0 0.0 0.0 
-8.415638322335e-04 -6.755141632834e-05 0.0 
-6.755141632834e-05 4.694670500735e-04 0.0 
0.0 0.0 0.0 
-7.516323917430e-04 -6.715843996399e-05 0.0 
-6.715843996399e-05 4.356695019349e-04 0.0 
0.0 0.0 0.0 
-6.580291443720e-04 -6.408284210335e-05 0.0 
-6.408284210335e-05 3.966102704977e-04 0.0 
0.0 0.0 0.0 
-5.635074053617e-04 -6.055288482175e-05 0.0 
-6.055288482175e-05 3.553149578216e-04 0.0 
0.0 0.0 0.0 
-4.747501952383e-04 -5.841372375239e-05 0.0 
-5.841372375239e-05 3.175069907732e-04 0.0 
0.0 0.0 0.0 
-3.909316163573e-04 -5.436026793785e-05 0.0 
-5.436026793785e-05 2.809429358051e-04 0.0 
0.0 0.0 0.0 
-3.106945253363e-04 -4.874807701037e-05 0.0 
-4.874807701037e-05 2.512414193453e-04 0.0 
0.0 0.0 0.0 
-2.599431874838e-04 -4.276884035101e-05 0.0 
-4.276884035101e-05 2.322718710804e-04 0.0 
0.0 0.0 0.0 
-1.888519148893e-04 -3.424826630721e-05 0.0 
-3.424826630721e-05 1.982288370705e-04 0.0 
0.0 0.0 0.0 
-1.239061470278e-04 -3.290562648443e-05 0.0 
-3.290562648443e-05 1.643873670247e-04 0.0 
0.0 0.0 0.0 
-7.779036176621e-05 -3.156431980028e-05 0.0 
-3.156431980028e-05 1.453786641485e-04 0.0 
0.0 0.0 0.0 
-4.892919628345e-05 -2.346547299646e-05 0.0 
-2.346547299646e-05 1.350816344137e-04 0.0 
0.0 0.0 0.0 
-2.253948370368e-05 -1.296382822039e-05 0.0 
-1.296382822039e-05 1.234648291387e-04 0.0 
0.0 0.0 0.0 
6.431137563342e-06 -1.507316447421e-06 0.0 
-1.507316447421e-06 1.035639847288e-04 0.0 
0.0 0.0 0.0 
1.717515952741e-05 4.053664765495e-06 0.0 
4.053664765495e-06 8.958232242081e-05 0.0 
0.0 0.0 0.0 
-6.126323586615e-04 2.053836438719e-05 0.0 
2.053836438719e-05 8.709672980948e-03 0.0 
0.0 0.0 0.0 
-5.768613454572e-04 5.585054263768e-06 0.0 
5.585054263768e-06 8.701360158155e-03 0.0 
0.0 0.0 0.0 
-5.733660044615e-04 -3.713163255994e-06 0.0 
-3.713163255994e-06 8.696760677639e-03 0.0 
0.0 0.0 0.0 
-5.675246488511e-04 -8.370171096867e-06 0.0 
-8.370171096867e-06 8.694042230215e-03 0.0 
0.0 0.0 0.0 
-5.576989547644e-04 -1.220750432883e-05 0.0 
-1.220750432883e-05 8.690390932511e-03 0.0 
0.0 0.0 0.0 
-5.442217634749e-04 -1.585628106063e-05 0.0 
-1.585628106063e-05 8.685461461930e-03 0.0 
0.0 0.0 0.0 
-5.271865595667e-04 -1.968014360334e-05 0.0 
-1.968014360334e-05 8.678907069934e-03 0.0 
0.0 0.0 0.0 
-5.065243392314e-04 -2.366840055750e-05 0.0 
-2.366840055750e-05 8.670400586199e-03 0.0 
0.0 0.0 0.0 
-4.820129152887e-04 -2.756993782581e-05 0.0 
-2.756993782581e-05 8.660187466202e-03 0.0 
0.0 0.0 0.0 
-4.539246485900e-04 -3.133333124703e-05 0.0 
-3.133333124703e-05 8.648545250738e-03 0.0 
0.0 0.0 0.0 
-4.224634913818e-04 -3.503590001390e-05 0.0 
-3.503590001390e-05 8.635505323805e-03 0.0 
0.0 0.0 0.0 
-3.881477235984e-04 -3.839114860011e-05 0.0 
-3.839114860011e-05 8.620952281788e-03 0.0 
0.0 0.0 0.0 
-3.520585369635e-04 -4.099909020815e-05 0.0 
-4.099909020815e-05 8.604929467955e-03 0.0 
0.0 0.0 0.0 
-3.154009539418e-04 -4.071694894497e-05 0.0 
-4.071694894497e-05 8.589991457027e-03 0.0 
0.0 0.0 0.0 
-2.833116556086e-04 -3.849751901308e-05 0.0 
-3.849751901308e-05 8.576373551121e-03 0.0 
0.0 0.0 0.0 
-2.594674238956e-04 -2.775352243393e-05 0.0 
-2.775352243393e-05 8.567981801325e-03 0.0 
0.0 0.0 0.0 
-2.596378819469e-04 -1.013789305894e-05 0.0 
-1.013789305894e-05 8.559636067245e-03 0.0 
0.0 0.0 0.0 
-2.814678432229e-04 4.783763439873e-05 0.0 
4.783763439873e-05 8.561804355296e-03 0.0 
0.0 0.0 0.0 
-3.898277206923e-04 1.309492672667e-04 0.0 
1.309492672667e-04 8.566158656424e-03 0.0 
0.0 0.0 0.0 
-6.292542246807e-04 2.490362414448e-04 0.0 
2.490362414448e-04 8.563466591370e-03 0.0 
0.0 0.0 0.0 
-5.954806844029e-04 1.884523448061e-04 0.0 
1.884523448061e-04 8.806730473125e-03 0.0 
0.0 0.0 0.0 
-5.531607530362e-04 1.091117080145e-04 0.0 
1.091117080145e-04 8.873345285764e-03 0.0 
0.0 0.0 0.0 
-4.823795703118e-04 3.173303079330e-05 0.0 
3.173303079330e-05 8.849969471311e-03 0.0 
0.0 0.0 0.0 
-4.605200127805e-04 -6.679704293783e-06 0.0 
-6.679704293783e-06 8.848678996804e-03 0.0 
0.0 0.0 0.0 
-4.520089624796e-04 -2.545162754261e-05 0.0 
-2.545162754261e-05 8.851716316322e-03 0.0 
0.0 0.0 0.0 
-4.570634886050e-04 -3.603823353139e-05 0.0 
-3.603823353139e-05 8.856494555531e-03 0.0 
0.0 0.0 0.0 
-4.684326623290e-04 -3.964908487082e-05 0.0 
-3.964908487082e-05 8.864899034112e-03 0.0 
0.0 0.0 0.0 
-4.828198886846e-04 -3.960135014220e-05 0.0 
-3.960135014220e-05 8.873067148728e-03 0.0 
0.0 0.0 0.0 
-4.983220886150e-04 -3.770788522750e-05 0.0 
-3.770788522750e-05 8.880722165143e-03 0.0 
0.0 0.0 0.0 
-5.135496379737e-04 -3.489526046901e-05 0.0 
-3.489526046901e-05 8.887776084505e-03 0.0 
0.0 0.0 0.0 
-5.281853200595e-04 -3.159282156773e-05 0.0 
-3.159282156773e-05 8.894594410668e-03 0.0 
0.0 0.0 0.0 
-5.415323787464e-04 -2.746992070685e-05 0.0 
-2.746992070685e-05 8.900626136423e-03 0.0 
0.0 0.0 0.0 
-5.525880097596e-04 -2.315934314641e-05 0.0 
-2.315934314641e-05 8.905134642166e-03 0.0 
0.0 0.0 0.0 
-5.619888912781e-04 -1.900099983647e-05 0.0 
-1.900099983647e-05 8.908572500447e-03 0.0 
0.0 0.0 0.0 
-5.695624040275e-04 -1.482112751649e-05 0.0 
-1.482112751649e-05 8.911367142950e-03 0.0 
0.0 0.0 0.0 
-5.757020721940e-04 -1.035241855152e-05 0.0 
-1.035241855152e-05 8.913841057118e-03 0.0 
0.0 0.0 0.0 
-5.806041306145e-04 -5.747175547643e-06 0.0 
-5.747175547643e-06 8.916432035825e-03 0.0 
0.0 0.0 0.0 
-5.866441357984e-04 -1.984731353928e-06 0.0 
-1.984731353928e-06 8.920063034948e-03 0.0 
0.0 0.0 0.0 
-5.988435775174e-04 1.800045258576e-05 0.0 
1.800045258576e-05 8.920872068533e-03 0.0 
0.0 0.0 0.0 
-5.905144007774e-04 4.707325742955e-06 0.0 
4.707325742955e-06 9.346758455140e-03 0.0 
0.0 0.0 0.0 
-5.883669843801e-04 -8.660967462001e-06 0.0 
-8.660967462001e-06 9.348342327798e-03 0.0 
0.0 0.0 0.0 
-5.861110231217e-04 -1.413806846306e-05 0.0 
-1.413806846306e-05 9.347078182378e-03 0.0 
0.0 0.0 0.0 
-5.847513071964e-04 -1.929079538443e-05 0.0 
-1.929079538443e-05 9.346372430796e-03 0.0 
0.0 0.0 0.0 
-5.834016311348e-04 -2.458729057126e-05 0.0 
-2.458729057126e-05 9.345885666994e-03 0.0 
0.0 0.0 0.0 
-5.831718397151e-04 -3.037422263518e-05 0.0 
-3.037422263518e-05 9.346210744043e-03 0.0 
0.0 0.0 0.0 
-5.829578786601e-04 -3.582340056397e-05 0.0 
-3.582340056397e-05 9.346575839045e-03 0.0 
0.0 0.0 0.0 
-5.835478403862e-04 -4.204615066007e-05 0.0 
-4.204615066007e-05 9.346481150928e-03 0.0 
0.0 0.0 0.0 
-5.838772414020e-04 -4.623736157050e-05 0.0 
-4.623736157050e-05 9.344972016988e-03 0.0 
0.0 0.0 0.0 
-5.868822957209e-04 -4.838935606890e-05 0.0 
-4.838935606890e-05 9.345190217304e-03 0.0 
0.0 0.0 0.0 
-5.923020092040e-04 -4.880886497823e-05 0.0 
-4.880886497823e-05 9.345722704686e-03 0.0 
0.0 0.0 0.0 
-6.010058554061e-04 -4.498019031531e-05 0.0 
-4.498019031531e-05 9.345894269051e-03 0.0 
0.0 0.0 0.0 
-6.158488013629e-04 -3.502897103689e-05 0.0 
-3.502897103689e-05 9.347002864863e-03 0.0 
0.0 0.0 0.0 
-6.378721939643e-04 -1.486104929558e-05 0.0 
-1.486104929558e-05 9.345796929686e-03 0.0 
0.0 0.0 0.0 
-6.677212976548e-04 2.561948912809e-05 0.0 
2.561948912809e-05 9.348894461677e-03 0.0 
0.0 0.0 0.0 
-7.272818966796e-04 9.627137604136e-05 0.0 
9.627137604136e-05 9.370643269881e-03 0.0 
0.0 0.0 0.0 
-7.577835250464e-04 1.646950330682e-04 0.0 
1.646950330682e-04 9.295435847580e-03 0.0 
0.0 0.0 0.0 
-8.373046400845e-04 1.466515113520e-04 0.0 
1.466515113520e-04 9.751193471059e-03 0.0 
0.0 0.0 0.0 
-8.133254391836e-04 9.402105673007e-05 0.0 
9.402105673007e-05 9.830590275039e-03 0.0 
0.0 0.0 0.0 
-7.627918762426e-04 3.972417728086e-05 0.0 
3.972417728086e-05 9.816303631591e-03 0.0 
0.0 0.0 0.0 
-7.234697763602e-04 9.410454877220e-06 0.0 
9.410454877220e-06 9.811809633213e-03 0.0 
0.0 0.0 0.0 
-6.939359521285e-04 -1.026403430940e-05 0.0 
-1.026403430940e-05 9.808591406585e-03 0.0 
0.0 0.0 0.0 
-6.699036233976e-04 -2.030510975652e-05 0.0 
-2.030510975652e-05 9.804434057709e-03 0.0 
0.0 0.0 0.0 
-6.506746695851e-04 -2.531528076490e-05 0.0 
-2.531528076490e-05 9.798676154419e-03 0.0 
0.0 0.0 0.0 
-6.352138838207e-04 -2.813835361049e-05 0.0 
-2.813835361049e-05 9.794861750737e-03 0.0 
0.0 0.0 0.0 
-6.208245483768e-04 -2.569417635489e-05 0.0 
-2.569417635489e-05 9.791605514194e-03 0.0 
0.0 0.0 0.0 
-6.116858945395e-04 -2.433234887563e-05 0.0 
-2.433234887563e-05 9.786836397477e-03 0.0 
0.0 0.0 0.0 
-6.032014281119e-04 -2.053731364857e-05 0.0 
-2.053731364857e-05 9.783389578991e-03 0.0 
0.0 0.0 0.0 
-5.972090261366e-04 -1.854040727880e-05 0.0 
-1.854040727880e-05 9.780170781923e-03 0.0 
0.0 0.0 0.0 
-5.936550164922e-04 -1.445205897245e-05 0.0 
-1.445205897245e-05 9.779202663224e-03 0.0 
0.0 0.0 0.0 
-5.900570678386e-04 -1.224952749717e-05 0.0 
-1.224952749717e-05 9.776202823723e-03 0.0 
0.0 0.0 0.0 
-5.882798802577e-04 -1.350931912081e-05 0.0 
-1.350931912081e-05 9.776627891644e-03 0.0 
0.0 0.0 0.0 
-5.888164393514e-04 1.268599563905e-05 0.0 
1.268599563905e-05 9.776535126106e-03 0.0 
0.0 0.0 0.0 
-7.939102419868e-04 7.906873108889e-04 0.0 
7.906873108889e-04 7.647552645465e-04 0.0 
0.0 0.0 0.0 
-9.161491464264e-04 1.212292706713e-03 0.0 
1.212292706713e-03 1.904217474841e-03 0.0 
0.0 0.0 0.0 
-9.447495071821e-04 1.363268830147e-03 0.0 
1.363268830147e-03 3.231680457781e-03 0.0 
0.0 0.0 0.0 
-9.288949330525e-04 1.387997291729e-03 0.0 
1.387997291729e-03 4.609854441809e-03 0.0 
0.0 0.0 0.0 
-9.026597264990e-04 1.367208024340e-03 0.0 
1.367208024340e-03 5.958404501504e-03 0.0 
0.0 0.0 0.0 
-9.400444105057e-04 1.288261865002e-03 0.0 
1.288261865002e-03 7.392173275393e-03 0.0 
0.0 0.0 0.0 
-9.095533527661e-04 5.823295821032e-04 0.0 
5.823295821032e-04 8.685000914536e-03 0.0 
0.0 0.0 0.0 
-8.752985580875e-04 4.073612855708e-04 0.0 
4.073612855708e-04 9.154145937267e-03 0.0 
0.0 0.0 0.0 
-9.247061670635e-04 3.080629291801e-04 0.0 
3.080629291801e-04 9.608569782632e-03 0.0 
0.0 0.0 0.0 
-9.418685435039e-04 2.534987479536e-04 0.0 
2.534987479536e-04 1.005633770973e-02 0.0 
0.0 0.0 0.0 
-7.058889308491e-04 1.124467759337e-03 0.0 
1.124467759337e-03 2.299026098770e-03 0.0 
0.0 0.0 0.0 
1.753255026318e-04 1.458055153307e-03 0.0 
1.458055153307e-03 9.050062993184e-03 0.0 
0.0 0.0 0.0 
-3.372629731256e-04 -9.798911096735e-05 0.0 
-9.798911096735e-05 3.960463717423e-04 0.0 
0.0 0.0 0.0 
-6.847419801814e-04 -8.929559515726e-05 0.0 
-8.929559515726e-05 5.382391976145e-04 0.0 
0.0 0.0 0.0 
1.706677211748e-04 9.429361481147e-04 0.0 
9.429361481147e-04 8.439085563362e-03 0.0 
0.0 0.0 0.0 
-7.424910540199e-04 1.387008274701e-03 0.0 
1.387008274701e-03 4.973321305455e-03 0.0 
0.0 0.0 0.0 
6.141951601079e-04 -1.235436601175e-06 0.0 
-1.235436601175e-06 3.976546091245e-03 0.0 
0.0 0.0 0.0 
1.297921943617e-04 1.830334715967e-03 0.0 
1.830334715967e-03 9.832871001405e-03 0.0 
0.0 0.0 0.0 
-9.057837013333e-04 1.316921260841e-03 0.0 
1.316921260841e-03 7.652857205484e-03 0.0 
0.0 0.0 0.0 
1.862801710948e-05 2.018622123819e-03 0.0 
2.018622123819e-03 1.089451869939e-02 0.0 
0.0 0.0 0.0 
-1.036973216285e-03 6.170656450374e-04 0.0 
6.170656450374e-04 9.405669513060e-03 0.0 
0.0 0.0 0.0 
1.447307961913e-04 5.657666046533e-04 0.0 
5.657666046533e-04 8.216918842439e-03 0.0 
0.0 0.0 0.0 
-1.066667260034e-04 -5.808278033130e-05 0.0 
-5.808278033130e-05 2.846904189007e-04 0.0 
0.0 0.0 0.0 
-1.093654465557e-04 1.898972718234e-03 0.0 
1.898972718234e-03 1.200294874603e-02 0.0 
0.0 0.0 0.0 
-1.022343639399e-03 3.688431564812e-04 0.0 
3.688431564812e-04 1.038137234320e-02 0.0 
0.0 0.0 0.0 
4.305643757576e-04 -2.021752041125e-05 0.0 
-2.021752041125e-05 2.382192076443e-03 0.0 
0.0 0.0 0.0 
6.083948379264e-04 2.482823040682e-05 0.0 
2.482823040682e-05 5.164675328629e-03 0.0 
0.0 0.0 0.0 
-1.894968210539e-04 1.617687248598e-03 0.0 
1.617687248598e-03 1.267928699082e-02 0.0 
0.0 0.0 0.0 
-1.894648298327e-04 1.147799869729e-03 0.0 
1.147799869729e-03 1.330877971595e-02 0.0 
0.0 0.0 0.0 
-1.139188641428e-04 3.150294822786e-04 0.0 
3.150294822786e-04 1.373090737662e-02 0.0 
0.0 0.0 0.0 
-1.540793144151e-04 5.416506101235e-04 0.0 
5.416506101235e-04 1.364672698387e-02 0.0 
0.0 0.0 0.0 
-1.680440307965e-04 8.174223103681e-04 0.0 
8.174223103681e-04 1.355557289405e-02 0.0 
0.0 0.0 0.0 
-9.033759214661e-04 1.995463266943e-04 0.0 
1.995463266943e-04 1.062473670082e-02 0.0 
0.0 0.0 0.0 
-7.278237269579e-04 5.638728226655e-05 0.0 
5.638728226655e-05 1.062908832386e-02 0.0 
0.0 0.0 0.0 
-6.435115392154e-04 2.415561249716e-05 0.0 
2.415561249716e-05 1.063452354577e-02 0.0 
0.0 0.0 0.0 
-4.611771897305e-04 1.622869043687e-05 0.0 
1.622869043687e-05 1.204538010995e-02 0.0 
0.0 0.0 0.0 
1.299807648849e-04 3.242141247314e-04 0.0 
3.242141247314e-04 8.091374673446e-03 0.0 
0.0 0.0 0.0 
-7.388256301782e-04 1.110673114621e-04 0.0 
1.110673114621e-04 6.234301193308e-04 0.0 
0.0 0.0 0.0 
6.304557212585e-07 -3.276022712118e-05 0.0 
-3.276022712118e-05 2.569216336359e-04 0.0 
0.0 0.0 0.0 
4.258938095784e-04 4.577510658841e-05 0.0 
4.577510658841e-05 6.656952601230e-03 0.0 
0.0 0.0 0.0 
-5.931229855541e-04 1.015745971979e-05 0.0 
1.015745971979e-05 1.056484545346e-02 0.0 
0.0 0.0 0.0 
1.998101855945e-04 -2.571454438563e-05 0.0 
-2.571454438563e-05 1.219757151329e-03 0.0 
0.0 0.0 0.0 
-2.265610424268e-04 1.363397517720e-03 0.0 
1.363397517720e-03 1.300644261709e-02 0.0 
0.0 0.0 0.0 
7.508326148916e-05 1.968010157936e-03 0.0 
1.968010157936e-03 1.038224267556e-02 0.0 
0.0 0.0 0.0 
-4.881139466802e-05 1.998518715723e-03 0.0 
1.998518715723e-03 1.146425908753e-02 0.0 
0.0 0.0 0.0 
1.701469173681e-04 1.669654918987e-03 0.0 
1.669654918987e-03 9.404457930057e-03 0.0 
0.0 0.0 0.0 
1.654840342396e-04 1.249441197552e-03 0.0 
1.249441197552e-03 8.775824420149e-03 0.0 
0.0 0.0 0.0 
-5.443702887121e-04 -1.084504701091e-04 0.0 
-1.084504701091e-04 4.970575698295e-04 0.0 
0.0 0.0 0.0 
-8.046251435958e-04 1.037238164877e-04 0.0 
1.037238164877e-04 1.062244899247e-02 0.0 
0.0 0.0 0.0 
1.803523981293e-04 7.324053386426e-04 0.0 
7.324053386426e-04 8.203329049667e-03 0.0 
0.0 0.0 0.0 
-3.408427729574e-04 2.942492647512e-05 0.0 
2.942492647512e-05 1.278965514590e-02 0.0 
0.0 0.0 0.0 
-2.079864106799e-04 -8.937612108237e-05 0.0 
-8.937612108237e-05 3.485350575504e-04 0.0 
0.0 0.0 0.0 
5.461492463090e-04 -1.396818637584e-05 0.0 
-1.396818637584e-05 3.140506597685e-03 0.0 
0.0 0.0 0.0 
-8.930178580047e-05 1.941137096792e-04 0.0 
1.941137096792e-04 1.379674226688e-02 0.0 
0.0 0.0 0.0 
-7.382842974970e-04 1.421499046923e-03 0.0 
1.421499046923e-03 6.277378768373e-03 0.0 
0.0 0.0 0.0 
-7.290852656816e-04 1.305606288649e-03 0.0 
1.305606288649e-03 3.608216739440e-03 0.0 
0.0 0.0 0.0 
-1.004624972353e-03 9.265133912291e-04 0.0 
9.265133912291e-04 8.761914120684e-03 0.0 
0.0 0.0 0.0 
-1.041248815437e-03 4.542795625386e-04 0.0 
4.542795625386e-04 9.908340912309e-03 0.0 
0.0 0.0 0.0 
-6.914924918360e-04 7.751138880477e-04 0.0 
7.751138880477e-04 1.117426503438e-03 0.0 
0.0 0.0 0.0 
-5.369320687002e-04 9.103282139432e-06 0.0 
9.103282139432e-06 1.128953219735e-02 0.0 
0.0 0.0 0.0 
9.941036993792e-05 1.777029539002e-04 0.0 
1.777029539002e-04 8.144646250727e-03 0.0 
0.0 0.0 0.0 
3.775912117421e-05 -7.029552757455e-06 0.0 
-7.029552757455e-06 2.234712003545e-04 0.0 
0.0 0.0 0.0 
-1.644878307479e-04 4.861130770335e-05 0.0 
4.861130770335e-05 1.349228114111e-02 0.0 
0.0 0.0 0.0 
-1.012759040141e-03 3.506292508540e-04 0.0 
3.506292508540e-04 1.059320639620e-02 0.0 
0.0 0.0 0.0 
-1.046314059307e-03 4.883728031425e-04 0.0 
4.883728031425e-04 1.069782361534e-02 0.0 
0.0 0.0 0.0 
-1.006585553766e-03 4.409617475995e-04 0.0 
4.409617475995e-04 1.092268660459e-02 0.0 
0.0 0.0 0.0 
-1.034006309407e-03 6.089132241529e-04 0.0 
6.089132241529e-04 1.101264494557e-02 0.0 
0.0 0.0 0.0 
-9.983265154406e-04 5.718708928003e-04 0.0 
5.718708928003e-04 1.126480848284e-02 0.0 
0.0 0.0 0.0 
-9.953912718607e-04 7.233941537078e-04 0.0 
7.233941537078e-04 1.131964257861e-02 0.0 
0.0 0.0 0.0 
-1.028308882269e-03 7.773119811013e-04 0.0 
7.773119811013e-04 1.104913432930e-02 0.0 
0.0 0.0 0.0 
-9.675634831581e-04 8.844901495430e-04 0.0 
8.844901495430e-04 1.133806651390e-02 0.0 
0.0 0.0 0.0 
-9.888804389693e-04 9.496427398926e-04 0.0 
9.496427398926e-04 1.103703900917e-02 0.0 
0.0 0.0 0.0 
-9.508219079972e-04 6.854778628071e-04 0.0 
6.854778628071e-04 1.157761236539e-02 0.0 
0.0 0.0 0.0 
-9.122981344419e-04 1.043966130826e-03 0.0 
1.043966130826e-03 1.131644262755e-02 0.0 
0.0 0.0 0.0 
-9.187824943682e-04 1.115676006434e-03 0.0 
1.115676006434e-03 1.098228472417e-02 0.0 
0.0 0.0 0.0 
-8.312332447094e-04 1.196230133158e-03 0.0 
1.196230133158e-03 1.125730746286e-02 0.0 
0.0 0.0 0.0 
-8.214980109739e-04 1.268479348692e-03 0.0 
1.268479348692e-03 1.089036064880e-02 0.0 
0.0 0.0 0.0 
-9.021415130919e-04 1.203057713090e-03 0.0 
1.203057713090e-03 1.061745388326e-02 0.0 
0.0 0.0 0.0 
-7.844298668305e-04 1.351398912921e-03 0.0 
1.351398912921e-03 1.048868413854e-02 0.0 
0.0 0.0 0.0 
-8.585878900311e-04 1.303675830767e-03 0.0 
1.303675830767e-03 1.021558602867e-02 0.0 
0.0 0.0 0.0 
-7.178879681183e-04 1.440974031248e-03 0.0 
1.440974031248e-03 1.004669764166e-02 0.0 
0.0 0.0 0.0 
-6.476321736771e-04 1.472140380883e-03 0.0 
1.472140380883e-03 1.033603944167e-02 0.0 
0.0 0.0 0.0 
-5.619670776832e-04 1.542822343601e-03 0.0 
1.542822343601e-03 9.860145592891e-03 0.0 
0.0 0.0 0.0 
-6.187445534310e-04 1.529896490947e-03 0.0 
1.529896490947e-03 9.558112263793e-03 0.0 
0.0 0.0 0.0 
-4.464819165972e-04 1.606736402462e-03 0.0 
1.606736402462e-03 9.343129082719e-03 0.0 
0.0 0.0 0.0 
-4.889427372560e-04 1.608353261141e-03 0.0 
1.608353261141e-03 9.023181717199e-03 0.0 
0.0 0.0 0.0 
-3.063668142878e-04 1.652933444241e-03 0.0 
1.652933444241e-03 8.788538048609e-03 0.0 
0.0 0.0 0.0 
-3.343821768964e-04 1.663190618105e-03 0.0 
1.663190618105e-03 8.444104092031e-03 0.0 
0.0 0.0 0.0 
-1.483338005179e-04 1.673757622310e-03 0.0 
1.673757622310e-03 8.202382763379e-03 0.0 
0.0 0.0 0.0 
-1.333094469936e-04 1.664863907543e-03 0.0 
1.664863907543e-03 8.573215172452e-03 0.0 
0.0 0.0 0.0 
2.268160886809e-05 1.657079026240e-03 0.0 
1.657079026240e-03 7.988155337980e-03 0.0 
0.0 0.0 0.0 
1.973436980879e-05 1.664695214719e-03 0.0 
1.664695214719e-03 7.594364735769e-03 0.0 
0.0 0.0 0.0 
1.826291123024e-04 1.620315052274e-03 0.0 
1.620315052274e-03 7.390719566460e-03 0.0 
0.0 0.0 0.0 
1.866934152822e-04 1.620482568330e-03 0.0 
1.620482568330e-03 6.975975138677e-03 0.0 
0.0 0.0 0.0 
3.373719626028e-04 1.552401032019e-03 0.0 
1.552401032019e-03 6.789500000704e-03 0.0 
0.0 0.0 0.0 
3.246946544858e-04 1.561617722163e-03 0.0 
1.561617722163e-03 7.221312920549e-03 0.0 
0.0 0.0 0.0 
4.656982640972e-04 1.474760080283e-03 0.0 
1.474760080283e-03 6.642353501152e-03 0.0 
0.0 0.0 0.0 
4.783044988625e-04 1.453072472123e-03 0.0 
1.453072472123e-03 6.193111950960e-03 0.0 
0.0 0.0 0.0 
5.915033635351e-04 1.362403939242e-03 0.0 
1.362403939242e-03 6.075305205757e-03 0.0 
0.0 0.0 0.0 
5.983160949726e-04 1.326579810652e-03 0.0 
1.326579810652e-03 5.613861004809e-03 0.0 
0.0 0.0 0.0 
6.968495574135e-04 1.229183714203e-03 0.0 
1.229183714203e-03 5.528431030401e-03 0.0 
0.0 0.0 0.0 
6.930717686390e-04 1.180497052466e-03 0.0 
1.180497052466e-03 5.059366213978e-03 0.0 
0.0 0.0 0.0 
7.775991995224e-04 1.077906149066e-03 0.0 
1.077906149066e-03 5.004446488845e-03 0.0 
0.0 0.0 0.0 
7.737088076786e-04 1.133618425839e-03 0.0 
1.133618425839e-03 5.475909200251e-03 0.0 
0.0 0.0 0.0 
8.414846686794e-04 9.814981743171e-04 0.0 
9.814981743171e-04 4.980556155041e-03 0.0 
0.0 0.0 0.0 
8.305420144975e-04 9.152390500218e-04 0.0 
9.152390500218e-04 4.509863744830e-03 0.0 
0.0 0.0 0.0 
8.832645000954e-04 8.213645615665e-04 0.0 
8.213645615665e-04 4.514403844258e-03 0.0 
0.0 0.0 0.0 
8.878768546277e-04 8.939801761559e-04 0.0 
8.939801761559e-04 4.985666981486e-03 0.0 
0.0 0.0 0.0 
9.194284763634e-04 7.389017193192e-04 0.0 
7.389017193192e-04 4.545608650311e-03 0.0 
0.0 0.0 0.0 
9.175686099596e-04 8.168234180970e-04 0.0 
8.168234180970e-04 5.016533905291e-03 0.0 
0.0 0.0 0.0 
9.406180016119e-04 6.679655867540e-04 0.0 
6.679655867540e-04 4.600241331601e-03 0.0 
0.0 0.0 0.0 
9.265101222358e-04 5.849280570519e-04 0.0 
5.849280570519e-04 4.140198332903e-03 0.0 
0.0 0.0 0.0 
9.413609155141e-04 5.221255833891e-04 0.0 
5.221255833891e-04 4.215776461785e-03 0.0 
0.0 0.0 0.0 
9.487025349296e-04 6.075390616653e-04 0.0 
6.075390616653e-04 4.674466469360e-03 0.0 
0.0 0.0 0.0 
9.446956187786e-04 4.695143698478e-04 0.0 
4.695143698478e-04 4.307339843175e-03 0.0 
0.0 0.0 0.0 
9.209970109337e-04 3.823893852586e-04 0.0 
3.823893852586e-04 3.861779751193e-03 0.0 
0.0 0.0 0.0 
9.220588235474e-04 3.403665800390e-04 0.0 
3.403665800390e-04 3.970027210501e-03 0.0 
0.0 0.0 0.0 
9.383309727872e-04 4.275407696799e-04 0.0 
4.275407696799e-04 4.415291967167e-03 0.0 
0.0 0.0 0.0 
9.146547979714e-04 3.073395897386e-04 0.0 
3.073395897386e-04 4.091542399311e-03 0.0 
0.0 0.0 0.0 
8.829670204952e-04 2.214516520327e-04 0.0 
2.214516520327e-04 3.659705621502e-03 0.0 
0.0 0.0 0.0 
8.765718039272e-04 1.984378695348e-04 0.0 
1.984378695348e-04 3.792311356163e-03 0.0 
0.0 0.0 0.0 
9.003618306847e-04 2.827036459958e-04 0.0 
2.827036459958e-04 4.226776086669e-03 0.0 
0.0 0.0 0.0 
8.642799403584e-04 1.817574859311e-04 0.0 
1.817574859311e-04 3.934169504520e-03 0.0 
0.0 0.0 0.0 
8.264095867572e-04 1.019755972250e-04 0.0 
1.019755972250e-04 3.513403696386e-03 0.0 
0.0 0.0 0.0 
8.175827509509e-04 9.432911825738e-05 0.0 
9.432911825738e-05 3.661092299678e-03 0.0 
0.0 0.0 0.0 
8.473108858967e-04 1.714507920236e-04 0.0 
1.714507920236e-04 4.086038028308e-03 0.0 
0.0 0.0 0.0 
8.047350758184e-04 9.111722773205e-05 0.0 
9.111722773205e-05 3.815984480671e-03 0.0 
0.0 0.0 0.0 
8.259508639277e-04 1.651328699921e-04 0.0 
1.651328699921e-04 4.245186707614e-03 0.0 
0.0 0.0 0.0 
7.621384234386e-04 1.985319457733e-05 0.0 
1.985319457733e-05 3.400892881574e-03 0.0 
0.0 0.0 0.0 
7.549515924404e-04 2.374152291235e-05 0.0 
2.374152291235e-05 3.559479498129e-03 0.0 
0.0 0.0 0.0 
7.003118235629e-04 -3.995414711959e-05 0.0 
-3.995414711959e-05 3.153015458016e-03 0.0 
0.0 0.0 0.0 
6.997896115526e-04 -2.957227962303e-05 0.0 
-2.957227962303e-05 3.315546747346e-03 0.0 
0.0 0.0 0.0 
4.442647852297e-04 1.494988211108e-03 0.0 
1.494988211108e-03 7.087626532265e-03 0.0 
0.0 0.0 0.0 
6.354744791254e-04 -8.438692604898e-05 0.0 
-8.438692604898e-05 2.917802784133e-03 0.0 
0.0 0.0 0.0 
6.259632060570e-04 -9.746295669257e-05 0.0 
-9.746295669257e-05 2.762596342776e-03 0.0 
0.0 0.0 0.0 
6.418305780142e-04 -6.894947363070e-05 0.0 
-6.894947363070e-05 3.082107245587e-03 0.0 
0.0 0.0 0.0 
6.961625831655e-04 -1.717504455903e-05 0.0 
-1.717504455903e-05 3.484939005625e-03 0.0 
0.0 0.0 0.0 
5.698021746102e-04 -1.148561074575e-04 0.0 
-1.148561074575e-04 2.690939498479e-03 0.0 
0.0 0.0 0.0 
5.828919576110e-04 -9.534598008233e-05 0.0 
-9.534598008233e-05 2.856346673704e-03 0.0 
0.0 0.0 0.0 
5.042955588972e-04 -1.314961185049e-04 0.0 
-1.314961185049e-04 2.471665725684e-03 0.0 
0.0 0.0 0.0 
5.868090462917e-04 1.285676046347e-03 0.0 
1.285676046347e-03 5.142479071931e-03 0.0 
0.0 0.0 0.0 
-5.011947181150e-04 1.563636036710e-03 0.0 
1.563636036710e-03 1.017103944510e-02 0.0 
0.0 0.0 0.0 
5.240386480444e-04 -1.090811702475e-04 0.0 
-1.090811702475e-04 2.636994959774e-03 0.0 
0.0 0.0 0.0 
4.412553807194e-04 -1.364266857594e-04 0.0 
-1.364266857594e-04 2.257394109436e-03 0.0 
0.0 0.0 0.0 
4.116759491239e-04 -1.587722595084e-04 0.0 
-1.587722595084e-04 2.095642718012e-03 0.0 
0.0 0.0 0.0 
3.480858937186e-04 -1.543399384849e-04 0.0 
-1.543399384849e-04 1.884731746545e-03 0.0 
0.0 0.0 0.0 
-9.499271299472e-04 5.459864500217e-04 0.0 
5.459864500217e-04 1.150036167737e-02 0.0 
0.0 0.0 0.0 
-8.913097237658e-04 6.566764305606e-04 0.0 
6.566764305606e-04 1.182599065979e-02 0.0 
0.0 0.0 0.0 
-8.914535264203e-04 5.201651884669e-04 0.0 
5.201651884669e-04 1.172678911730e-02 0.0 
0.0 0.0 0.0 
-8.258592915482e-04 6.330496556696e-04 0.0 
6.330496556696e-04 1.206467313051e-02 0.0 
0.0 0.0 0.0 
-8.272756529576e-04 5.069457559156e-04 0.0 
5.069457559156e-04 1.195915464225e-02 0.0 
0.0 0.0 0.0 
3.825779473732e-04 -1.314853977177e-04 0.0 
-1.314853977177e-04 2.045009748767e-03 0.0 
0.0 0.0 0.0 
-8.156347975859e-04 1.137027798207e-03 0.0 
1.137027798207e-03 1.159662424000e-02 0.0 
0.0 0.0 0.0 
-8.087718028821e-04 7.673457098471e-04 0.0 
7.673457098471e-04 1.214139975284e-02 0.0 
0.0 0.0 0.0 
-6.729895415433e-04 1.519996614903e-03 0.0 
1.519996614903e-03 9.269288385746e-03 0.0 
0.0 0.0 0.0 
1.479940149202e-05 1.672012893521e-03 0.0 
1.672012893521e-03 7.199636901158e-03 0.0 
0.0 0.0 0.0 
8.717716032661e-04 9.642245512851e-04 0.0 
9.642245512851e-04 5.463164908670e-03 0.0 
0.0 0.0 0.0 
5.928515923247e-04 -7.549575608757e-05 0.0 
-7.549575608757e-05 3.025073542495e-03 0.0 
0.0 0.0 0.0 
5.404348818017e-04 -8.614805236076e-05 0.0 
-8.614805236076e-05 2.805349528851e-03 0.0 
0.0 0.0 0.0 
5.995163549248e-04 -5.651083879270e-05 0.0 
-5.651083879270e-05 3.197330031056e-03 0.0 
0.0 0.0 0.0 
8.551944094961e-04 2.509694349168e-04 0.0 
2.509694349168e-04 4.526608792129e-03 0.0 
0.0 0.0 0.0 
8.253664575911e-04 2.407660868009e-04 0.0 
2.407660868009e-04 4.688317593627e-03 0.0 
0.0 0.0 0.0 
8.407308420684e-04 3.315365727774e-04 0.0 
3.315365727774e-04 4.980955611884e-03 0.0 
0.0 0.0 0.0 
8.026893368889e-04 3.166571054513e-04 0.0 
3.166571054513e-04 5.144572243900e-03 0.0 
0.0 0.0 0.0 
8.036713484804e-04 4.115751398868e-04 0.0 
4.115751398868e-04 5.448152395253e-03 0.0 
0.0 0.0 0.0 
7.579416516980e-04 3.916602006580e-04 0.0 
3.916602006580e-04 5.613962883327e-03 0.0 
0.0 0.0 0.0 
7.614140579663e-04 3.022279470148e-04 0.0 
3.022279470148e-04 5.315237420832e-03 0.0 
0.0 0.0 0.0 
7.089374128592e-04 3.710958755091e-04 0.0 
3.710958755091e-04 5.787214048758e-03 0.0 
0.0 0.0 0.0 
7.176652106492e-04 2.872406331370e-04 0.0 
2.872406331370e-04 5.492078734483e-03 0.0 
0.0 0.0 0.0 
7.443794340477e-04 4.901643847220e-04 0.0 
4.901643847220e-04 5.927918013049e-03 0.0 
0.0 0.0 0.0 
7.936524276967e-04 5.153259333369e-04 0.0 
5.153259333369e-04 5.767953259383e-03 0.0 
0.0 0.0 0.0 
6.577928708057e-04 3.493361513299e-04 0.0 
3.493361513299e-04 5.966668200373e-03 0.0 
0.0 0.0 0.0 
6.721343462796e-04 2.708869601035e-04 0.0 
2.708869601035e-04 5.674708318280e-03 0.0 
0.0 0.0 0.0 
6.053110409579e-04 3.259975503666e-04 0.0 
3.259975503666e-04 6.152587785217e-03 0.0 
0.0 0.0 0.0 
6.255633458473e-04 2.517001333764e-04 0.0 
2.517001333764e-04 5.862505526840e-03 0.0 
0.0 0.0 0.0 
6.786223738661e-04 2.017461899794e-04 0.0 
2.017461899794e-04 5.393678415473e-03 0.0 
0.0 0.0 0.0 
6.388021003486e-04 1.869165555887e-04 0.0 
1.869165555887e-04 5.581941768445e-03 0.0 
0.0 0.0 0.0 
6.784192201657e-04 1.425565420891e-04 0.0 
1.425565420891e-04 5.124455992834e-03 0.0 
0.0 0.0 0.0 
8.953681755314e-04 8.929799577030e-04 0.0 
8.929799577030e-04 5.493994002105e-03 0.0 
0.0 0.0 0.0 
8.378058234066e-04 1.033829340336e-03 0.0 
1.033829340336e-03 5.945738075018e-03 0.0 
0.0 0.0 0.0 
8.550889867018e-04 9.686947347172e-04 0.0 
9.686947347172e-04 5.976344316438e-03 0.0 
0.0 0.0 0.0 
7.876196516518e-04 1.103635019387e-03 0.0 
1.103635019387e-03 6.431191076833e-03 0.0 
0.0 0.0 0.0 
7.974221337284e-04 1.045008402742e-03 0.0 
1.045008402742e-03 6.463619795697e-03 0.0 
0.0 0.0 0.0 
7.217500557772e-04 1.175417952437e-03 0.0 
1.175417952437e-03 6.920007909441e-03 0.0 
0.0 0.0 0.0 
7.221888416576e-04 1.123565588982e-03 0.0 
1.123565588982e-03 6.955129716728e-03 0.0 
0.0 0.0 0.0 
7.911876836196e-04 9.925611783200e-04 0.0 
9.925611783200e-04 6.518975188423e-03 0.0 
0.0 0.0 0.0 
-7.291942626741e-04 1.336692353085e-03 0.0 
1.336692353085e-03 1.116446524086e-02 0.0 
0.0 0.0 0.0 
8.555455769333e-04 7.461769696235e-04 0.0 
7.461769696235e-04 4.050062940549e-03 0.0 
0.0 0.0 0.0 
7.951720447794e-04 8.455129357289e-04 0.0 
8.455129357289e-04 4.044721027873e-03 0.0 
0.0 0.0 0.0 
8.006381391929e-04 6.686684041184e-04 0.0 
6.686684041184e-04 3.593679863114e-03 0.0 
0.0 0.0 0.0 
7.300135952480e-04 7.726393966712e-04 0.0 
7.726393966712e-04 3.588263592398e-03 0.0 
0.0 0.0 0.0 
7.137888469813e-04 5.901082232749e-04 0.0 
5.901082232749e-04 3.147647261809e-03 0.0 
0.0 0.0 0.0 
6.287972703571e-04 6.993150207782e-04 0.0 
6.993150207782e-04 3.144515211492e-03 0.0 
0.0 0.0 0.0 
5.886573282868e-04 5.138250285508e-04 0.0 
5.138250285508e-04 2.714256094889e-03 0.0 
0.0 0.0 0.0 
6.679617943519e-04 4.137485261096e-04 0.0 
4.137485261096e-04 2.748890980074e-03 0.0 
0.0 0.0 0.0 
5.187081086440e-04 3.383464497438e-04 0.0 
3.383464497438e-04 2.327747564130e-03 0.0 
0.0 0.0 0.0 
5.953429619592e-04 2.486374232358e-04 0.0 
2.486374232358e-04 2.392760936482e-03 0.0 
0.0 0.0 0.0 
4.232308574661e-04 1.763651225994e-04 0.0 
1.763651225994e-04 1.986169560758e-03 0.0 
0.0 0.0 0.0 
4.989724429453e-04 1.013025979896e-04 0.0 
1.013025979896e-04 2.076769143599e-03 0.0 
0.0 0.0 0.0 
2.513928798518e-05 1.654435343738e-03 0.0 
1.654435343738e-03 8.380877347647e-03 0.0 
0.0 0.0 0.0 
7.041675212276e-04 1.232964076827e-03 0.0 
1.232964076827e-03 6.907265924735e-03 0.0 
0.0 0.0 0.0 
6.330289403172e-04 1.301865710879e-03 0.0 
1.301865710879e-03 7.395608360808e-03 0.0 
0.0 0.0 0.0 
6.086889986509e-04 1.354003747961e-03 0.0 
1.354003747961e-03 7.396945263516e-03 0.0 
0.0 0.0 0.0 
3.078788226975e-04 -1.752177461488e-04 0.0 
-1.752177461488e-04 1.726291446282e-03 0.0 
0.0 0.0 0.0 
5.789135188152e-04 2.288870392685e-04 0.0 
2.288870392685e-04 6.054931938280e-03 0.0 
0.0 0.0 0.0 
7.193655154055e-04 5.962802349445e-04 0.0 
5.962802349445e-04 6.258689785039e-03 0.0 
0.0 0.0 0.0 
7.710854893589e-04 6.260156816847e-04 0.0 
6.260156816847e-04 6.103850060681e-03 0.0 
0.0 0.0 0.0 
7.060325734456e-04 1.077207866233e-03 0.0 
1.077207866233e-03 7.016685784592e-03 0.0 
0.0 0.0 0.0 
2.910346196652e-04 -1.404792549926e-04 0.0 
-1.404792549926e-04 1.677960715226e-03 0.0 
0.0 0.0 0.0 
4.854765472671e-04 6.302966672609e-04 0.0 
6.302966672609e-04 2.716759200565e-03 0.0 
0.0 0.0 0.0 
5.166998410091e-04 8.212512554294e-04 0.0 
8.212512554294e-04 3.180771274130e-03 0.0 
0.0 0.0 0.0 
-7.512382287885e-04 6.122410205599e-04 0.0 
6.122410205599e-04 1.229243610658e-02 0.0 
0.0 0.0 0.0 
-7.551562990371e-04 4.959256085942e-04 0.0 
4.959256085942e-04 1.217803468480e-02 0.0 
0.0 0.0 0.0 
6.816570448047e-04 7.094542030581e-04 0.0 
7.094542030581e-04 6.606939328297e-03 0.0 
0.0 0.0 0.0 
3.285547218462e-04 -1.178240414847e-04 0.0 
-1.178240414847e-04 1.836005467533e-03 0.0 
0.0 0.0 0.0 
6.341573735178e-04 4.372076222482e-04 0.0 
4.372076222482e-04 6.272471355057e-03 0.0 
0.0 0.0 0.0 
3.284686846954e-04 2.719779127670e-04 0.0 
2.719779127670e-04 1.922715839400e-03 0.0 
0.0 0.0 0.0 
5.992282277974e-04 1.688892399524e-04 0.0 
1.688892399524e-04 5.774156570854e-03 0.0 
0.0 0.0 0.0 
5.322360211067e-04 2.026148651439e-04 0.0 
2.026148651439e-04 6.250650540327e-03 0.0 
0.0 0.0 0.0 
7.559814760987e-04 2.232479855195e-04 0.0 
2.232479855195e-04 5.031343721625e-03 0.0 
0.0 0.0 0.0 
5.359538438895e-04 1.421650264808e-03 0.0 
1.421650264808e-03 7.883947430862e-03 0.0 
0.0 0.0 0.0 
5.048989846901e-04 1.462781798593e-03 0.0 
1.462781798593e-03 7.896025478960e-03 0.0 
0.0 0.0 0.0 
6.505525956216e-04 1.781326093329e-04 0.0 
1.781326093329e-04 2.483971360261e-03 0.0 
0.0 0.0 0.0 
5.538706438533e-04 4.641355684488e-05 0.0 
4.641355684488e-05 2.187581932102e-03 0.0 
0.0 0.0 0.0 
3.859071504467e-04 -2.038711070199e-05 0.0 
-2.038711070199e-05 1.808810162640e-03 0.0 
0.0 0.0 0.0 
4.431841413029e-04 -5.766182730659e-05 0.0 
-5.766182730659e-05 1.932817468382e-03 0.0 
0.0 0.0 0.0 
6.007813405489e-04 7.999044515604e-06 0.0 
7.999044515604e-06 2.307487031820e-03 0.0 
0.0 0.0 0.0 
4.974001950599e-04 -8.737388696750e-05 0.0 
-8.737388696750e-05 2.050556873939e-03 0.0 
0.0 0.0 0.0 
3.350957637803e-04 -1.417809617449e-04 0.0 
-1.417809617449e-04 1.682185991780e-03 0.0 
0.0 0.0 0.0 
3.878435414083e-04 -1.568534973069e-04 0.0 
-1.568534973069e-04 1.813983183580e-03 0.0 
0.0 0.0 0.0 
5.388310179247e-04 -1.036197174253e-04 0.0 
-1.036197174253e-04 2.185800199333e-03 0.0 
0.0 0.0 0.0 
4.367014206582e-04 -1.647708295836e-04 0.0 
-1.647708295836e-04 1.953747320055e-03 0.0 
0.0 0.0 0.0 
2.768391251790e-04 -2.034005691456e-04 0.0 
-2.034005691456e-04 1.591988896221e-03 0.0 
0.0 0.0 0.0 
3.350340523017e-04 -2.018064339081e-04 0.0 
-2.018064339081e-04 1.733206904022e-03 0.0 
0.0 0.0 0.0 
4.984298534756e-04 2.676698487439e-04 0.0 
2.676698487439e-04 6.540170328128e-03 0.0 
0.0 0.0 0.0 
2.116611796955e-04 1.132042647346e-04 0.0 
1.132042647346e-04 1.599509560702e-03 0.0 
0.0 0.0 0.0 
-9.729289343355e-04 1.133695896794e-03 0.0 
1.133695896794e-03 1.035346230606e-02 0.0 
0.0 0.0 0.0 
6.225686278933e-04 6.752255022387e-04 0.0 
6.752255022387e-04 6.760682338360e-03 0.0 
0.0 0.0 0.0 
6.276421822558e-04 1.207046943267e-03 0.0 
1.207046943267e-03 7.450250930361e-03 0.0 
0.0 0.0 0.0 
-6.694409435440e-04 5.939194798105e-04 0.0 
5.939194798105e-04 1.251253692080e-02 0.0 
0.0 0.0 0.0 
-6.777467368127e-04 4.853682246995e-04 0.0 
4.853682246995e-04 1.239079517318e-02 0.0 
0.0 0.0 0.0 
-7.467659834564e-04 3.927335607711e-04 0.0 
3.927335607711e-04 1.203966817365e-02 0.0 
0.0 0.0 0.0 
-6.761588801433e-04 3.883189762098e-04 0.0 
3.883189762098e-04 1.224990774207e-02 0.0 
0.0 0.0 0.0 
-5.955515111730e-04 4.728120779648e-04 0.0 
4.728120779648e-04 1.259797340596e-02 0.0 
0.0 0.0 0.0 
-6.014243620110e-04 3.810349314004e-04 0.0 
3.810349314004e-04 1.245503793475e-02 0.0 
0.0 0.0 0.0 
-6.677741319988e-04 3.033675484976e-04 0.0 
3.033675484976e-04 1.209367888905e-02 0.0 
0.0 0.0 0.0 
-6.005173860344e-04 3.004215448513e-04 0.0 
3.004215448513e-04 1.229817882256e-02 0.0 
0.0 0.0 0.0 
-6.542016589536e-04 2.305834909795e-04 0.0 
2.305834909795e-04 1.192486465942e-02 0.0 
0.0 0.0 0.0 
-5.951908313629e-04 2.315084569973e-04 0.0 
2.315084569973e-04 1.213052433576e-02 0.0 
0.0 0.0 0.0 
-5.308821819452e-04 2.936440314068e-04 0.0 
2.936440314068e-04 1.249988081442e-02 0.0 
0.0 0.0 0.0 
-5.336015363199e-04 2.275022565187e-04 0.0 
2.275022565187e-04 1.233355231076e-02 0.0 
0.0 0.0 0.0 
-5.881261878509e-04 1.737630159826e-04 0.0 
1.737630159826e-04 1.195495709064e-02 0.0 
0.0 0.0 0.0 
-5.342735113992e-04 1.711291646451e-04 0.0 
1.711291646451e-04 1.216007719159e-02 0.0 
0.0 0.0 0.0 
-5.807650332115e-04 1.258188094397e-04 0.0 
1.258188094397e-04 1.177312631532e-02 0.0 
0.0 0.0 0.0 
-5.337021576047e-04 1.239247213927e-04 0.0 
1.239247213927e-04 1.197927178899e-02 0.0 
0.0 0.0 0.0 
-4.784787698192e-04 1.643393080576e-04 0.0 
1.643393080576e-04 1.236322661205e-02 0.0 
0.0 0.0 0.0 
2.414688823662e-04 -1.195266706384e-04 0.0 
-1.195266706384e-04 1.479593110460e-03 0.0 
0.0 0.0 0.0 
7.695181510498e-04 9.465661541202e-04 0.0 
9.465661541202e-04 6.596162596918e-03 0.0 
0.0 0.0 0.0 
6.722294116548e-04 1.036144864353e-03 0.0 
1.036144864353e-03 7.104928718651e-03 0.0 
0.0 0.0 0.0 
5.533251584239e-04 -6.698566452327e-05 0.0 
-6.698566452327e-05 2.987317370978e-03 0.0 
0.0 0.0 0.0 
6.067047917413e-04 -4.067431203524e-05 0.0 
-4.067431203524e-05 3.367459079787e-03 0.0 
0.0 0.0 0.0 
6.437919590184e-04 -1.967049457394e-05 0.0 
-1.967049457394e-05 3.599005827685e-03 0.0 
0.0 0.0 0.0 
6.422535913375e-04 -6.933807154520e-06 0.0 
-6.933807154520e-06 3.779687505866e-03 0.0 
0.0 0.0 0.0 
-4.863212880409e-04 1.176323159661e-04 0.0 
1.176323159661e-04 1.218325954734e-02 0.0 
0.0 0.0 0.0 
-4.232432273996e-04 1.522790678220e-04 0.0 
1.522790678220e-04 1.256513702799e-02 0.0 
0.0 0.0 0.0 
3.526493064135e-04 7.638088163888e-04 0.0 
7.638088163888e-04 2.763761916814e-03 0.0 
0.0 0.0 0.0 
3.714904833078e-04 9.526449567064e-04 0.0 
9.526449567064e-04 3.266164801154e-03 0.0 
0.0 0.0 0.0 
-6.483456526213e-04 7.131779651225e-04 0.0 
7.131779651225e-04 1.261165851267e-02 0.0 
0.0 0.0 0.0 
5.589622296043e-04 1.459353527990e-04 0.0 
1.459353527990e-04 5.972644338894e-03 0.0 
0.0 0.0 0.0 
6.128172709017e-04 1.181194932321e-04 0.0 
1.181194932321e-04 5.504916263020e-03 0.0 
0.0 0.0 0.0 
1.836682300286e-04 1.615625140123e-03 0.0 
1.615625140123e-03 6.560589393765e-03 0.0 
0.0 0.0 0.0 
2.949067625398e-06 1.670926416401e-03 0.0 
1.670926416401e-03 6.803778803249e-03 0.0 
0.0 0.0 0.0 
1.658655112628e-04 1.599551577694e-03 0.0 
1.599551577694e-03 6.144017072718e-03 0.0 
0.0 0.0 0.0 
-2.696198503778e-05 1.651595233078e-03 0.0 
1.651595233078e-03 6.403881459464e-03 0.0 
0.0 0.0 0.0 
-1.979543786686e-04 1.697390825765e-03 0.0 
1.697390825765e-03 7.095399710613e-03 0.0 
0.0 0.0 0.0 
1.178043406724e-04 1.563228811106e-03 0.0 
1.563228811106e-03 5.721373582713e-03 0.0 
0.0 0.0 0.0 
8.381986408388e-04 5.408265856667e-04 0.0 
5.408265856667e-04 5.613031970031e-03 0.0 
0.0 0.0 0.0 
-4.598606845844e-04 2.817424008520e-04 0.0 
2.817424008520e-04 1.269872016422e-02 0.0 
0.0 0.0 0.0 
3.765119370089e-04 -1.785620288681e-04 0.0 
-1.785620288681e-04 1.938116625094e-03 0.0 
0.0 0.0 0.0 
2.613273785684e-04 -1.916458109376e-04 0.0 
-1.916458109376e-04 1.573344609128e-03 0.0 
0.0 0.0 0.0 
4.841046664728e-04 1.724107299176e-04 0.0 
1.724107299176e-04 6.454207685627e-03 0.0 
0.0 0.0 0.0 
8.450322794262e-04 8.606538194354e-04 0.0 
8.606538194354e-04 6.101713223652e-03 0.0 
0.0 0.0 0.0 
-1.176419384410e-04 1.664058406556e-03 0.0 
1.664058406556e-03 8.946306062264e-03 0.0 
0.0 0.0 0.0 
2.765108984567e-05 1.660776355401e-03 0.0 
1.660776355401e-03 8.773868448116e-03 0.0 
0.0 0.0 0.0 
-1.009915850374e-04 1.675295960963e-03 0.0 
1.675295960963e-03 9.321865889221e-03 0.0 
0.0 0.0 0.0 
3.028145437047e-05 1.680252559918e-03 0.0 
1.680252559918e-03 9.167069148308e-03 0.0 
0.0 0.0 0.0 
-8.316749993255e-05 1.701596607785e-03 0.0 
1.701596607785e-03 9.700072209442e-03 0.0 
0.0 0.0 0.0 
3.140237192606e-05 1.715882540711e-03 0.0 
1.715882540711e-03 9.561657358886e-03 0.0 
0.0 0.0 0.0 
1.420580429033e-04 1.674116531506e-03 0.0 
1.674116531506e-03 9.036638713320e-03 0.0 
0.0 0.0 0.0 
4.361307248922e-04 1.534328162012e-03 0.0 
1.534328162012e-03 8.379053731443e-03 0.0 
0.0 0.0 0.0 
1.251428249601e-04 1.722039914114e-03 0.0 
1.722039914114e-03 9.450347613058e-03 0.0 
0.0 0.0 0.0 
-5.336429908198e-04 8.868450617210e-05 0.0 
8.868450617210e-05 1.178863379876e-02 0.0 
0.0 0.0 0.0 
6.701287574654e-04 1.294535814991e-03 0.0 
1.294535814991e-03 6.911821165242e-03 0.0 
0.0 0.0 0.0 
5.720735968850e-04 -1.108826319381e-04 0.0 
-1.108826319381e-04 2.329875480329e-03 0.0 
0.0 0.0 0.0 
1.982904866902e-04 -1.407635417780e-04 0.0 
-1.407635417780e-04 1.318541597517e-03 0.0 
0.0 0.0 0.0 
1.671739896243e-04 -2.203945748002e-04 0.0 
-2.203945748002e-04 1.370798145480e-03 0.0 
0.0 0.0 0.0 
2.803994694582e-04 -9.721087175323e-05 0.0 
-9.721087175323e-05 1.622514411707e-03 0.0 
0.0 0.0 0.0 
3.620094540735e-04 -9.193773970019e-05 0.0 
-9.193773970019e-05 1.996941918496e-03 0.0 
0.0 0.0 0.0 
5.696792061624e-04 7.922982666861e-04 0.0 
7.922982666861e-04 7.119052773738e-03 0.0 
0.0 0.0 0.0 
-6.570922569804e-05 1.747034022427e-03 0.0 
1.747034022427e-03 1.008208226606e-02 0.0 
0.0 0.0 0.0 
-1.788124652685e-04 1.710357332997e-03 0.0 
1.710357332997e-03 1.021210928893e-02 0.0 
0.0 0.0 0.0 
-2.335988363892e-04 1.675261340203e-03 0.0 
1.675261340203e-03 6.730770301237e-03 0.0 
0.0 0.0 0.0 
-4.132353035429e-04 1.671594622037e-03 0.0 
1.671594622037e-03 7.438415943472e-03 0.0 
0.0 0.0 0.0 
4.515429449872e-04 1.499582684341e-03 0.0 
1.499582684341e-03 8.370146083040e-03 0.0 
0.0 0.0 0.0 
-8.706240223174e-04 4.036031309004e-04 0.0 
4.036031309004e-04 1.160713821993e-02 0.0 
0.0 0.0 0.0 
-7.102527493863e-04 2.261260945602e-04 0.0 
2.261260945602e-04 1.171724193543e-02 0.0 
0.0 0.0 0.0 
-6.845337888275e-04 1.634249869867e-04 0.0 
1.634249869867e-04 1.153499843644e-02 0.0 
0.0 0.0 0.0 
1.924158054910e-04 -9.929576247520e-05 0.0 
-9.929576247520e-05 1.222585759006e-03 0.0 
0.0 0.0 0.0 
9.837379597405e-05 -2.186007371059e-04 0.0 
-2.186007371059e-04 1.250671560342e-03 0.0 
0.0 0.0 0.0 
-5.111052756265e-04 4.566242014517e-04 0.0 
4.566242014517e-04 1.280061886711e-02 0.0 
0.0 0.0 0.0 
5.126795024155e-04 1.008896979709e-03 0.0 
1.008896979709e-03 3.687723675101e-03 0.0 
0.0 0.0 0.0 
3.560754229451e-04 1.133547782702e-03 0.0 
1.133547782702e-03 3.815007685985e-03 0.0 
0.0 0.0 0.0 
8.856882025819e-05 2.199157259177e-04 0.0 
2.199157259177e-04 1.535158581797e-03 0.0 
0.0 0.0 0.0 
-4.583932449822e-05 6.596656058025e-05 0.0 
6.596656058025e-05 1.231327354272e-03 0.0 
0.0 0.0 0.0 
-4.370182558187e-04 1.093064156318e-04 0.0 
1.093064156318e-04 1.238287261076e-02 0.0 
0.0 0.0 0.0 
-3.674758210320e-04 1.343258585863e-04 0.0 
1.343258585863e-04 1.275703519800e-02 0.0 
0.0 0.0 0.0 
6.727454793218e-04 1.728603496603e-05 0.0 
1.728603496603e-05 4.012454478700e-03 0.0 
0.0 0.0 0.0 
6.613903788060e-04 2.337643956095e-05 0.0 
2.337643956095e-05 4.195861072210e-03 0.0 
0.0 0.0 0.0 
6.312727507571e-04 8.299280145639e-04 0.0 
8.299280145639e-04 6.975592994434e-03 0.0 
0.0 0.0 0.0 
2.363198850737e-04 -2.173346559008e-04 0.0 
-2.173346559008e-04 1.519625351503e-03 0.0 
0.0 0.0 0.0 
-3.436946846632e-04 1.842341062908e-04 0.0 
1.842341062908e-04 1.293152362188e-02 0.0 
0.0 0.0 0.0 
8.191924914283e-04 8.171429393558e-04 0.0 
8.171429393558e-04 6.197888845906e-03 0.0 
0.0 0.0 0.0 
8.826457343539e-04 7.294314056925e-04 0.0 
7.294314056925e-04 5.707603838333e-03 0.0 
0.0 0.0 0.0 
6.109915979473e-04 -1.804691599884e-05 0.0 
-1.804691599884e-05 3.543812941167e-03 0.0 
0.0 0.0 0.0 
1.776770386928e-04 9.098150018834e-04 0.0 
9.098150018834e-04 2.868599837219e-03 0.0 
0.0 0.0 0.0 
1.426696474681e-04 7.233037086283e-04 0.0 
7.233037086283e-04 2.366296902049e-03 0.0 
0.0 0.0 0.0 
6.632371809928e-04 -3.751873994942e-05 0.0 
-3.751873994942e-05 2.573255966952e-03 0.0 
0.0 0.0 0.0 
3.843834463701e-04 -1.953293737927e-04 0.0 
-1.953293737927e-04 1.879726304454e-03 0.0 
0.0 0.0 0.0 
3.144075810125e-04 -7.248762862897e-05 0.0 
-7.248762862897e-05 1.783073110893e-03 0.0 
0.0 0.0 0.0 
5.049874081117e-04 9.199396251934e-04 0.0 
9.199396251934e-04 7.498129940260e-03 0.0 
0.0 0.0 0.0 
-4.895078374980e-04 5.528161788432e-04 0.0 
5.528161788432e-04 1.292812639414e-02 0.0 
0.0 0.0 0.0 
2.289893925466e-04 1.659348318158e-03 0.0 
1.659348318158e-03 8.936552964414e-03 0.0 
0.0 0.0 0.0 
2.612784637587e-04 1.618825542295e-03 0.0 
1.618825542295e-03 8.502916846319e-03 0.0 
0.0 0.0 0.0 
1.966476662237e-04 1.719718818045e-03 0.0 
1.719718818045e-03 9.365760704654e-03 0.0 
0.0 0.0 0.0 
6.938432428636e-05 -2.185329348959e-04 0.0 
-2.185329348959e-04 1.174251848120e-03 0.0 
0.0 0.0 0.0 
4.998667279075e-04 7.517976005969e-04 0.0 
7.517976005969e-04 7.282420597165e-03 0.0 
0.0 0.0 0.0 
5.164071174022e-04 1.177390876936e-04 0.0 
1.177390876936e-04 6.177591502541e-03 0.0 
0.0 0.0 0.0 
-1.461806942379e-04 1.766922389708e-03 0.0 
1.766922389708e-03 1.056875461031e-02 0.0 
0.0 0.0 0.0 
-2.509794325578e-04 1.710683660752e-03 0.0 
1.710683660752e-03 1.069719292517e-02 0.0 
0.0 0.0 0.0 
4.746142673659e-04 1.186234673390e-03 0.0 
1.186234673390e-03 4.236728989188e-03 0.0 
0.0 0.0 0.0 
3.079914866680e-04 1.297599547117e-03 0.0 
1.297599547117e-03 4.413424184536e-03 0.0 
0.0 0.0 0.0 
1.608693500901e-04 1.249909584189e-03 0.0 
1.249909584189e-03 4.016279771750e-03 0.0 
0.0 0.0 0.0 
1.110960038285e-04 1.399530269702e-03 0.0 
1.399530269702e-03 4.654608873489e-03 0.0 
0.0 0.0 0.0 
-1.047028217816e-03 8.479538410418e-04 0.0 
8.479538410418e-04 1.075990929179e-02 0.0 
0.0 0.0 0.0 
4.022680414563e-04 1.347139756429e-03 0.0 
1.347139756429e-03 4.835560874590e-03 0.0 
0.0 0.0 0.0 
-9.254483621633e-04 1.251039602343e-03 0.0 
1.251039602343e-03 9.957587902598e-03 0.0 
0.0 0.0 0.0 
-1.029456393941e-03 1.053823067686e-03 0.0 
1.053823067686e-03 1.010041132261e-02 0.0 
0.0 0.0 0.0 
-9.823392429008e-04 1.187165193115e-03 0.0 
1.187165193115e-03 9.713690786559e-03 0.0 
0.0 0.0 0.0 
-3.870810467731e-04 1.682019465327e-03 0.0 
1.682019465327e-03 7.769770536121e-03 0.0 
0.0 0.0 0.0 
-6.038349427032e-04 1.607874327904e-03 0.0 
1.607874327904e-03 8.117203620063e-03 0.0 
0.0 0.0 0.0 
7.144487038543e-04 9.542872078140e-04 0.0 
9.542872078140e-04 4.068633810906e-03 0.0 
0.0 0.0 0.0 
8.042753215708e-04 1.106841382423e-03 0.0 
1.106841382423e-03 5.937030759451e-03 0.0 
0.0 0.0 0.0 
6.815603511257e-04 7.774997224656e-06 0.0 
7.774997224656e-06 3.834064338981e-03 0.0 
0.0 0.0 0.0 
7.110734567385e-04 1.500071515139e-04 0.0 
1.500071515139e-04 4.940455043546e-03 0.0 
0.0 0.0 0.0 
8.742586914379e-04 3.484173382077e-04 0.0 
3.484173382077e-04 4.824478705436e-03 0.0 
0.0 0.0 0.0 
-4.456432292976e-04 3.545492325119e-04 0.0 
3.545492325119e-04 1.285320280449e-02 0.0 
0.0 0.0 0.0 
-3.671823015851e-04 3.335171078376e-04 0.0 
3.335171078376e-04 1.305066135139e-02 0.0 
0.0 0.0 0.0 
-6.243379383569e-04 1.225323017953e-04 0.0 
1.225323017953e-04 1.156264094381e-02 0.0 
0.0 0.0 0.0 
-6.085065360624e-04 8.198084137264e-05 0.0 
8.198084137264e-05 1.137139318342e-02 0.0 
0.0 0.0 0.0 
1.960365669193e-04 -1.765565786634e-04 0.0 
-1.765565786634e-04 1.361436434646e-03 0.0 
0.0 0.0 0.0 
1.343470693737e-04 -1.861994699407e-04 0.0 
-1.861994699407e-04 1.214569239471e-03 0.0 
0.0 0.0 0.0 
8.009227317673e-04 1.612637159000e-04 0.0 
1.612637159000e-04 4.411580486753e-03 0.0 
0.0 0.0 0.0 
5.569821132121e-04 6.397388495174e-04 0.0 
6.397388495174e-04 6.922322211638e-03 0.0 
0.0 0.0 0.0 
-5.563141812713e-04 6.861307552716e-04 0.0 
6.861307552716e-04 1.282858627570e-02 0.0 
0.0 0.0 0.0 
-5.183876905113e-04 8.091438439164e-04 0.0 
8.091438439164e-04 1.291364548759e-02 0.0 
0.0 0.0 0.0 
-6.135128033084e-04 8.413426030161e-04 0.0 
8.413426030161e-04 1.268615015469e-02 0.0 
0.0 0.0 0.0 
5.708380885822e-04 9.585408901519e-04 0.0 
9.585408901519e-04 7.357150780181e-03 0.0 
0.0 0.0 0.0 
8.523932926974e-04 5.776193963814e-04 0.0 
5.776193963814e-04 3.628812693258e-03 0.0 
0.0 0.0 0.0 
9.042939275668e-04 8.305531878633e-04 0.0 
8.305531878633e-04 5.546054887806e-03 0.0 
0.0 0.0 0.0 
6.957691056655e-05 -1.500500024603e-05 0.0 
-1.500500024603e-05 1.327380934675e-03 0.0 
0.0 0.0 0.0 
3.070313014529e-04 1.572838111080e-03 0.0 
1.572838111080e-03 7.649708794576e-03 0.0 
0.0 0.0 0.0 
7.990742581295e-05 -1.614578773598e-04 0.0 
-1.614578773598e-04 1.004708831289e-03 0.0 
0.0 0.0 0.0 
-5.719481845545e-04 1.510497080835e-03 0.0 
1.510497080835e-03 1.063190199227e-02 0.0 
0.0 0.0 0.0 
4.354758458503e-04 1.370457605067e-04 0.0 
1.370457605067e-04 6.664171067585e-03 0.0 
0.0 0.0 0.0 
3.916867858254e-04 1.966074024118e-04 0.0 
1.966074024118e-04 6.945786132850e-03 0.0 
0.0 0.0 0.0 
3.539111822091e-04 1.612819804202e-03 0.0 
1.612819804202e-03 8.850190665115e-03 0.0 
0.0 0.0 0.0 
-1.068017854672e-03 5.415631133901e-04 0.0 
5.415631133901e-04 1.045502736459e-02 0.0 
0.0 0.0 0.0 
4.162826717988e-04 1.519006136566e-03 0.0 
1.519006136566e-03 7.531549187511e-03 0.0 
0.0 0.0 0.0 
5.409036938789e-04 1.424728178680e-03 0.0 
1.424728178680e-03 6.991094509104e-03 0.0 
0.0 0.0 0.0 
-1.066871023787e-03 9.550941203524e-04 0.0 
9.550941203524e-04 9.853931020060e-03 0.0 
0.0 0.0 0.0 
-1.023261597239e-03 1.101452913794e-03 0.0 
1.101452913794e-03 9.487320535654e-03 0.0 
0.0 0.0 0.0 
-8.981667148333e-04 1.334915912456e-03 0.0 
1.334915912456e-03 9.267253759843e-03 0.0 
0.0 0.0 0.0 
-9.421968837953e-04 1.275435117336e-03 0.0 
1.275435117336e-03 9.038526618095e-03 0.0 
0.0 0.0 0.0 
6.816749028514e-04 -4.641288004079e-05 0.0 
-4.641288004079e-05 2.715051747258e-03 0.0 
0.0 0.0 0.0 
5.973094518349e-04 -1.111076168717e-04 0.0 
-1.111076168717e-04 2.474619858080e-03 0.0 
0.0 0.0 0.0 
-4.934902325441e-05 1.828342929726e-03 0.0 
1.828342929726e-03 1.049739950271e-02 0.0 
0.0 0.0 0.0 
1.068280894168e-04 1.799370040007e-03 0.0 
1.799370040007e-03 9.857951617315e-03 0.0 
0.0 0.0 0.0 
-1.902173722113e-04 1.785342972787e-03 0.0 
1.785342972787e-03 1.103337763835e-02 0.0 
0.0 0.0 0.0 
-2.921292324687e-04 1.709814484537e-03 0.0 
1.709814484537e-03 1.116518878774e-02 0.0 
0.0 0.0 0.0 
3.571676367506e-04 1.587395578296e-03 0.0 
1.587395578296e-03 8.850790573164e-03 0.0 
0.0 0.0 0.0 
4.516069832665e-04 1.463584481848e-03 0.0 
1.463584481848e-03 8.378796875983e-03 0.0 
0.0 0.0 0.0 
3.883986852559e-04 -6.734251385030e-05 0.0 
-6.734251385030e-05 2.149139950832e-03 0.0 
0.0 0.0 0.0 
-6.394959017612e-04 1.579600951966e-03 0.0 
1.579600951966e-03 7.832749998675e-03 0.0 
0.0 0.0 0.0 
-3.962067716488e-04 5.271325103133e-04 0.0 
5.271325103133e-04 1.312961416532e-02 0.0 
0.0 0.0 0.0 
-1.083060613597e-03 8.335202044385e-04 0.0 
8.335202044385e-04 1.017954294755e-02 0.0 
0.0 0.0 0.0 
4.231959429228e-04 7.047865259859e-04 0.0 
7.047865259859e-04 7.436511617542e-03 0.0 
0.0 0.0 0.0 
4.890949468651e-04 6.018724314212e-04 0.0 
6.018724314212e-04 7.099583374731e-03 0.0 
0.0 0.0 0.0 
-2.142603995430e-04 -4.042622561584e-05 0.0 
-4.042622561584e-05 9.828218599885e-04 0.0 
0.0 0.0 0.0 
-8.976516775342e-05 -1.191750092470e-04 0.0 
-1.191750092470e-04 1.078864699074e-03 0.0 
0.0 0.0 0.0 
-2.839730387584e-04 1.573330748465e-04 0.0 
1.573330748465e-04 1.312508450754e-02 0.0 
0.0 0.0 0.0 
-8.670025451705e-05 1.340558250040e-03 0.0 
1.340558250040e-03 4.284286173107e-03 0.0 
0.0 0.0 0.0 
-1.361050003531e-04 1.454874000355e-03 0.0 
1.454874000355e-03 4.944294422357e-03 0.0 
0.0 0.0 0.0 
-5.532794496377e-05 1.205116389780e-03 0.0 
1.205116389780e-03 3.641881161106e-03 0.0 
0.0 0.0 0.0 
2.034322694907e-04 5.697629320025e-05 0.0 
5.697629320025e-05 7.683846000232e-03 0.0 
0.0 0.0 0.0 
-5.759713743424e-04 1.697276227719e-06 0.0 
1.697276227719e-06 1.054425017364e-02 0.0 
0.0 0.0 0.0 
3.378497949372e-04 1.539965434060e-04 0.0 
1.539965434060e-04 7.162353795990e-03 0.0 
0.0 0.0 0.0 
-5.700250644551e-04 1.614376167569e-03 0.0 
1.614376167569e-03 8.412852280421e-03 0.0 
0.0 0.0 0.0 
-2.495279933319e-04 2.152942944076e-04 0.0 
2.152942944076e-04 1.329371740095e-02 0.0 
0.0 0.0 0.0 
5.024098444903e-04 1.461681919051e-03 0.0 
1.461681919051e-03 7.452152446299e-03 0.0 
0.0 0.0 0.0 
3.351917408925e-04 1.523440650233e-03 0.0 
1.523440650233e-03 5.917096761744e-03 0.0 
0.0 0.0 0.0 
6.847231898203e-04 8.670611679718e-04 0.0 
8.670611679718e-04 6.839024921529e-03 0.0 
0.0 0.0 0.0 
-3.195925784798e-04 9.915566865405e-05 0.0 
9.915566865405e-05 1.293084408759e-02 0.0 
0.0 0.0 0.0 
-2.254600551904e-04 1.255415360518e-04 0.0 
1.255415360518e-04 1.332628060813e-02 0.0 
0.0 0.0 0.0 
-7.258717214060e-04 1.551357847038e-04 0.0 
1.551357847038e-04 1.132200806940e-02 0.0 
0.0 0.0 0.0 
-6.987759069140e-04 9.800773486213e-05 0.0 
9.800773486213e-05 1.111963865690e-02 0.0 
0.0 0.0 0.0 
-7.613829724351e-04 2.183906267206e-04 0.0 
2.183906267206e-04 1.149458829714e-02 0.0 
0.0 0.0 0.0 
2.117404502123e-04 3.864354252337e-04 0.0 
3.864354252337e-04 1.893473698063e-03 0.0 
0.0 0.0 0.0 
-7.541086249074e-05 3.628392993875e-04 0.0 
3.628392993875e-04 1.481678482113e-03 0.0 
0.0 0.0 0.0 
-3.891986866524e-04 2.639626035531e-04 0.0 
2.639626035531e-04 1.289505222346e-02 0.0 
0.0 0.0 0.0 
4.891926153052e-04 -8.823837811553e-05 0.0 
-8.823837811553e-05 2.591496623802e-03 0.0 
0.0 0.0 0.0 
5.113916836508e-04 -5.843689923758e-05 0.0 
-5.843689923758e-05 2.801305454659e-03 0.0 
0.0 0.0 0.0 
2.925220429859e-04 -2.096066697405e-04 0.0 
-2.096066697405e-04 1.657949925913e-03 0.0 
0.0 0.0 0.0 
4.226562616422e-04 -1.852604351957e-04 0.0 
-1.852604351957e-04 2.019058294674e-03 0.0 
0.0 0.0 0.0 
6.998802683521e-04 5.223631609516e-05 0.0 
5.223631609516e-05 4.253874942216e-03 0.0 
0.0 0.0 0.0 
7.164343459342e-04 4.629214876397e-05 0.0 
4.629214876397e-05 4.075493235225e-03 0.0 
0.0 0.0 0.0 
-4.365359532980e-04 1.595875874702e-03 0.0 
1.595875874702e-03 1.048983325895e-02 0.0 
0.0 0.0 0.0 
-4.917168116219e-04 1.559203036548e-03 0.0 
1.559203036548e-03 1.094035787823e-02 0.0 
0.0 0.0 0.0 
-2.463137633362e-04 1.654603903832e-03 0.0 
1.654603903832e-03 9.491046940762e-03 0.0 
0.0 0.0 0.0 
8.543321458253e-04 6.890846423216e-04 0.0 
6.890846423216e-04 5.819875353331e-03 0.0 
0.0 0.0 0.0 
9.039974564723e-04 6.016842289995e-04 0.0 
6.016842289995e-04 5.338006479434e-03 0.0 
0.0 0.0 0.0 
9.245032574280e-04 6.428120163030e-04 0.0 
6.428120163030e-04 5.230829494545e-03 0.0 
0.0 0.0 0.0 
-3.405604656695e-04 4.092734996371e-04 0.0 
4.092734996371e-04 1.318456598793e-02 0.0 
0.0 0.0 0.0 
-2.465351550096e-04 3.838367528818e-04 0.0 
3.838367528818e-04 1.341355592805e-02 0.0 
0.0 0.0 0.0 
7.595453306979e-04 3.699640343088e-05 0.0 
3.699640343088e-05 2.969850187368e-03 0.0 
0.0 0.0 0.0 
7.465296655749e-04 5.600283046125e-05 0.0 
5.600283046125e-05 2.835179642610e-03 0.0 
0.0 0.0 0.0 
6.929358542928e-04 -4.908229891498e-05 0.0 
-4.908229891498e-05 2.856486637830e-03 0.0 
0.0 0.0 0.0 
-3.604234990729e-04 6.281342518232e-04 0.0 
6.281342518232e-04 1.324435644875e-02 0.0 
0.0 0.0 0.0 
2.856622780847e-04 2.221122210405e-04 0.0 
2.221122210405e-04 7.446440801352e-03 0.0 
0.0 0.0 0.0 
3.327925389867e-04 2.590999662478e-04 0.0 
2.590999662478e-04 7.235173633440e-03 0.0 
0.0 0.0 0.0 
2.063352986933e-06 -1.679121421516e-04 0.0 
-1.679121421516e-04 8.685341165763e-04 0.0 
0.0 0.0 0.0 
6.259159452053e-05 -1.949675985804e-04 0.0 
-1.949675985804e-04 1.070394518015e-03 0.0 
0.0 0.0 0.0 
-7.021948068146e-05 8.859086849273e-04 0.0 
8.859086849273e-04 2.482502040348e-03 0.0 
0.0 0.0 0.0 
-1.003594156295e-04 6.990379979372e-04 0.0 
6.990379979372e-04 1.970033901891e-03 0.0 
0.0 0.0 0.0 
-4.646546816747e-04 9.374710016999e-04 0.0 
9.374710016999e-04 1.296479304407e-02 0.0 
0.0 0.0 0.0 
-5.644761451215e-04 9.794140641849e-04 0.0 
9.794140641849e-04 1.273609097619e-02 0.0 
0.0 0.0 0.0 
-3.517027805121e-04 9.053672679771e-04 0.0 
9.053672679771e-04 1.321298571830e-02 0.0 
0.0 0.0 0.0 
3.370434564839e-04 -4.588893001252e-05 0.0 
-4.588893001252e-05 1.910192292790e-03 0.0 
0.0 0.0 0.0 
3.432734150096e-04 1.590016162334e-03 0.0 
1.590016162334e-03 8.429103277055e-03 0.0 
0.0 0.0 0.0 
4.300187723201e-04 1.052860648637e-03 0.0 
1.052860648637e-03 7.877572220344e-03 0.0 
0.0 0.0 0.0 
5.034854608422e-04 1.098950506870e-03 0.0 
1.098950506870e-03 7.750103035088e-03 0.0 
0.0 0.0 0.0 
3.385988874822e-04 1.017985184648e-03 0.0 
1.017985184648e-03 8.095057466143e-03 0.0 
0.0 0.0 0.0 
3.358181463798e-04 1.633847080148e-03 0.0 
1.633847080148e-03 8.860788252964e-03 0.0 
0.0 0.0 0.0 
2.556268080453e-04 1.708881781173e-03 0.0 
1.708881781173e-03 9.307344390156e-03 0.0 
0.0 0.0 0.0 
1.479692270611e-04 1.799573968196e-03 0.0 
1.799573968196e-03 9.800228149610e-03 0.0 
0.0 0.0 0.0 
-3.419664176466e-04 2.684208235191e-05 0.0 
2.684208235191e-05 8.752966681538e-04 0.0 
0.0 0.0 0.0 
-2.462729903555e-04 7.555395015060e-05 0.0 
7.555395015060e-05 1.320340701584e-02 0.0 
0.0 0.0 0.0 
-6.421611955852e-04 7.112640608734e-05 0.0 
7.112640608734e-05 1.113651946417e-02 0.0 
0.0 0.0 0.0 
-5.094919721679e-04 -4.549354729781e-05 0.0 
-4.549354729781e-05 7.280388591490e-04 0.0 
0.0 0.0 0.0 
-6.199820338013e-04 4.347344042876e-05 0.0 
4.347344042876e-05 1.094177979935e-02 0.0 
0.0 0.0 0.0 
-5.970692017101e-04 5.216716333547e-05 0.0 
5.216716333547e-05 1.117423918397e-02 0.0 
0.0 0.0 0.0 
-6.084914970053e-04 2.191051025949e-05 0.0 
2.191051025949e-05 1.072145104097e-02 0.0 
0.0 0.0 0.0 
2.631732730372e-04 -4.877298077506e-05 0.0 
-4.877298077506e-05 1.543180751995e-03 0.0 
0.0 0.0 0.0 
-7.654976500369e-04 1.302837589324e-04 0.0 
1.302837589324e-04 1.103418100116e-02 0.0 
0.0 0.0 0.0 
-8.097498911138e-04 2.113819278149e-04 0.0 
2.113819278149e-04 1.127559543031e-02 0.0 
0.0 0.0 0.0 
-9.971201149726e-05 -1.541866841760e-04 0.0 
-1.541866841760e-04 6.662529934844e-04 0.0 
0.0 0.0 0.0 
-2.542635995270e-04 5.880171722601e-04 0.0 
5.880171722601e-04 1.343758005073e-02 0.0 
0.0 0.0 0.0 
-3.628979951822e-05 -1.321744399105e-04 0.0 
-1.321744399105e-04 6.743036701058e-04 0.0 
0.0 0.0 0.0 
3.330117607592e-05 -1.290501340642e-04 0.0 
-1.290501340642e-04 8.039392235697e-04 0.0 
0.0 0.0 0.0 
3.655757177641e-04 6.671640446071e-04 0.0 
6.671640446071e-04 7.617576500258e-03 0.0 
0.0 0.0 0.0 
4.242011389698e-04 5.582161862087e-04 0.0 
5.582161862087e-04 7.276126374482e-03 0.0 
0.0 0.0 0.0 
2.879332026139e-04 6.107088419387e-04 0.0 
6.107088419387e-04 7.786288993996e-03 0.0 
0.0 0.0 0.0 
3.484502357221e-04 5.188686896199e-04 0.0 
5.188686896199e-04 7.447561968933e-03 0.0 
0.0 0.0 0.0 
4.749648958636e-04 4.641763328646e-04 0.0 
4.641763328646e-04 6.948097726559e-03 0.0 
0.0 0.0 0.0 
4.099974222207e-04 4.304696845123e-04 0.0 
4.304696845123e-04 7.148973661158e-03 0.0 
0.0 0.0 0.0 
-6.728530153571e-04 5.800612198019e-05 0.0 
5.800612198019e-05 1.090875547593e-02 0.0 
0.0 0.0 0.0 
2.663393460085e-04 4.888854238714e-04 0.0 
4.888854238714e-04 7.726156978322e-03 0.0 
0.0 0.0 0.0 
3.387578100812e-04 3.855348000667e-04 0.0 
3.855348000667e-04 7.361938514164e-03 0.0 
0.0 0.0 0.0 
2.001968482199e-04 4.306473938685e-04 0.0 
4.306473938685e-04 7.940841761821e-03 0.0 
0.0 0.0 0.0 
-1.045540448639e-03 9.696672716533e-04 0.0 
9.696672716533e-04 9.280924664800e-03 0.0 
0.0 0.0 0.0 
2.364510466524e-05 1.522391828587e-03 0.0 
1.522391828587e-03 5.310616752434e-03 0.0 
0.0 0.0 0.0 
-2.147149763736e-04 1.539734427456e-03 0.0 
1.539734427456e-03 5.647168915362e-03 0.0 
0.0 0.0 0.0 
-4.361873865250e-04 1.470970589736e-03 0.0 
1.470970589736e-03 5.369592546316e-03 0.0 
0.0 0.0 0.0 
-1.931026759995e-04 1.812389628356e-03 0.0 
1.812389628356e-03 1.154006744254e-02 0.0 
0.0 0.0 0.0 
-3.107663135782e-04 1.697603581657e-03 0.0 
1.697603581657e-03 1.157508418203e-02 0.0 
0.0 0.0 0.0 
4.735171270852e-04 8.531055122394e-05 0.0 
8.531055122394e-05 6.400845792105e-03 0.0 
0.0 0.0 0.0 
5.420795719265e-04 7.129200677332e-05 0.0 
7.129200677332e-05 5.918075517742e-03 0.0 
0.0 0.0 0.0 
-5.911328254525e-04 2.947620398679e-05 0.0 
2.947620398679e-05 1.095305078989e-02 0.0 
0.0 0.0 0.0 
-5.755315965631e-04 1.778681582406e-05 0.0 
1.778681582406e-05 1.092486271144e-02 0.0 
0.0 0.0 0.0 
-5.617557150922e-04 4.390548136925e-05 0.0 
4.390548136925e-05 1.129954786725e-02 0.0 
0.0 0.0 0.0 
-5.517371397800e-04 2.534401949325e-05 0.0 
2.534401949325e-05 1.124566470891e-02 0.0 
0.0 0.0 0.0 
-5.290437445757e-04 5.095744067383e-05 0.0 
5.095744067383e-05 1.161538551163e-02 0.0 
0.0 0.0 0.0 
-5.207542306919e-04 2.688867474203e-05 0.0 
2.688867474203e-05 1.155420102425e-02 0.0 
0.0 0.0 0.0 
-4.883393516272e-04 4.592466335459e-05 0.0 
4.592466335459e-05 1.192445103832e-02 0.0 
0.0 0.0 0.0 
6.984712543799e-05 1.897931700576e-03 0.0 
1.897931700576e-03 1.032596143198e-02 0.0 
0.0 0.0 0.0 
-3.534134137055e-04 1.303604690318e-03 0.0 
1.303604690318e-03 3.928096950665e-03 0.0 
0.0 0.0 0.0 
-1.087276537216e-03 6.999352935263e-04 0.0 
6.999352935263e-04 9.919017942730e-03 0.0 
0.0 0.0 0.0 
3.345297588574e-04 1.554423256216e-03 0.0 
1.554423256216e-03 8.864679598566e-03 0.0 
0.0 0.0 0.0 
4.312809584870e-04 1.419338131660e-03 0.0 
1.419338131660e-03 8.381758620245e-03 0.0 
0.0 0.0 0.0 
-8.113544526997e-04 1.447531909594e-03 0.0 
1.447531909594e-03 8.489332907321e-03 0.0 
0.0 0.0 0.0 
-8.584726503301e-04 1.351938788381e-03 0.0 
1.351938788381e-03 8.294250135232e-03 0.0 
0.0 0.0 0.0 
3.338614099959e-04 8.326782879465e-04 0.0 
8.326782879465e-04 7.879506264116e-03 0.0 
0.0 0.0 0.0 
5.488113443854e-04 1.239397543290e-03 0.0 
1.239397543290e-03 4.677180865235e-03 0.0 
0.0 0.0 0.0 
-1.827089104885e-04 7.031433951506e-04 0.0 
7.031433951506e-04 1.357102748899e-02 0.0 
0.0 0.0 0.0 
-6.776616907499e-04 3.066477306237e-04 0.0 
3.066477306237e-04 6.475509679704e-04 0.0 
0.0 0.0 0.0 
-4.049415904754e-04 2.889616111611e-04 0.0 
2.889616111611e-04 9.874035188333e-04 0.0 
0.0 0.0 0.0 
4.569768775649e-04 1.391714929688e-03 0.0 
1.391714929688e-03 5.274985340973e-03 0.0 
0.0 0.0 0.0 
-7.730310101396e-04 1.485302046484e-03 0.0 
1.485302046484e-03 8.736366250628e-03 0.0 
0.0 0.0 0.0 
-8.579329381723e-05 1.611963030232e-03 0.0 
1.611963030232e-03 6.005677221169e-03 0.0 
0.0 0.0 0.0 
-3.097719472272e-04 1.621298408140e-03 0.0 
1.621298408140e-03 6.395266761274e-03 0.0 
0.0 0.0 0.0 
7.831241857575e-04 7.790317874503e-04 0.0 
7.790317874503e-04 6.320198333376e-03 0.0 
0.0 0.0 0.0 
-1.018338459920e-05 -1.999673104869e-04 0.0 
-1.999673104869e-04 9.453569389457e-04 0.0 
0.0 0.0 0.0 
-5.284595190221e-05 1.056336457894e-03 0.0 
1.056336457894e-03 3.041184178639e-03 0.0 
0.0 0.0 0.0 
-4.976677803215e-04 8.131457772286e-05 0.0 
8.131457772286e-05 1.197330131191e-02 0.0 
0.0 0.0 0.0 
-3.432320127853e-04 1.059835006352e-03 0.0 
1.059835006352e-03 2.670818087861e-03 0.0 
0.0 0.0 0.0 
5.049160131763e-04 3.966712794933e-05 0.0 
3.966712794933e-05 6.165335821824e-03 0.0 
0.0 0.0 0.0 
6.659220270777e-04 1.128060343325e-03 0.0 
1.128060343325e-03 4.587347362304e-03 0.0 
0.0 0.0 0.0 
-3.619697243630e-04 1.675138001615e-03 0.0 
1.675138001615e-03 8.105301644090e-03 0.0 
0.0 0.0 0.0 
1.843334803274e-04 1.087414967317e-03 0.0 
1.087414967317e-03 3.419611407369e-03 0.0 
0.0 0.0 0.0 
2.284843144926e-04 1.447235650073e-03 0.0 
1.447235650073e-03 5.059476994376e-03 0.0 
0.0 0.0 0.0 
-9.919582851628e-04 1.032437581674e-03 0.0 
1.032437581674e-03 1.071066742575e-02 0.0 
0.0 0.0 0.0 
-1.063965692296e-03 6.635150424912e-04 0.0 
6.635150424912e-04 1.075643811338e-02 0.0 
0.0 0.0 0.0 
-1.080146161223e-03 7.374941121572e-04 0.0 
7.374941121572e-04 1.047815916614e-02 0.0 
0.0 0.0 0.0 
7.588096200254e-04 1.018073040752e-03 0.0 
1.018073040752e-03 4.534119759391e-03 0.0 
0.0 0.0 0.0 
-4.638038465288e-04 1.629284665464e-03 0.0 
1.629284665464e-03 7.130838225961e-03 0.0 
0.0 0.0 0.0 
-5.825986507357e-04 1.519318179868e-03 0.0 
1.519318179868e-03 6.837223622951e-03 0.0 
0.0 0.0 0.0 
-7.827976632770e-04 1.412369515454e-03 0.0 
1.412369515454e-03 9.768757316654e-03 0.0 
0.0 0.0 0.0 
-6.992232175149e-04 8.735244501262e-04 0.0 
8.735244501262e-04 1.244507348200e-02 0.0 
0.0 0.0 0.0 
-6.483936768841e-04 1.013031910780e-03 0.0 
1.013031910780e-03 1.247989772646e-02 0.0 
0.0 0.0 0.0 
-5.015198446774e-04 1.113186539230e-03 0.0 
1.113186539230e-03 1.274643104905e-02 0.0 
0.0 0.0 0.0 
-5.851748547206e-04 1.153016150647e-03 0.0 
1.153016150647e-03 1.248494197498e-02 0.0 
0.0 0.0 0.0 
-7.210083987595e-04 1.050123453476e-03 0.0 
1.050123453476e-03 1.220720667708e-02 0.0 
0.0 0.0 0.0 
-6.514894394985e-04 1.191534673686e-03 0.0 
1.191534673686e-03 1.219651193688e-02 0.0 
0.0 0.0 0.0 
-4.992709679142e-04 1.291618583941e-03 0.0 
1.291618583941e-03 1.247115593595e-02 0.0 
0.0 0.0 0.0 
-5.618757903132e-04 1.335247065587e-03 0.0 
1.335247065587e-03 1.216485617510e-02 0.0 
0.0 0.0 0.0 
-3.836137312604e-04 1.451857388009e-03 0.0 
1.451857388009e-03 1.248829181633e-02 0.0 
0.0 0.0 0.0 
-4.645941822906e-04 1.470565263269e-03 0.0 
1.470565263269e-03 1.209552785337e-02 0.0 
0.0 0.0 0.0 
-6.016164887967e-04 1.373468569155e-03 0.0 
1.373468569155e-03 1.181384992314e-02 0.0 
0.0 0.0 0.0 
-5.038491298860e-04 1.494746534719e-03 0.0 
1.494746534719e-03 1.173050946061e-02 0.0 
0.0 0.0 0.0 
-3.824711363060e-04 1.592019277112e-03 0.0 
1.592019277112e-03 1.198498398358e-02 0.0 
0.0 0.0 0.0 
-6.231605540036e-04 1.413416235655e-03 0.0 
1.413416235655e-03 1.144489373436e-02 0.0 
0.0 0.0 0.0 
2.277866658435e-04 1.683250044203e-03 0.0 
1.683250044203e-03 9.329696561583e-03 0.0 
0.0 0.0 0.0 
4.782422312428e-04 1.425567580826e-03 0.0 
1.425567580826e-03 5.735624606098e-03 0.0 
0.0 0.0 0.0 
-1.936597297528e-04 1.672386139115e-04 0.0 
1.672386139115e-04 1.145498670988e-03 0.0 
0.0 0.0 0.0 
-2.956881900018e-04 4.848297268490e-04 0.0 
4.848297268490e-04 1.326770450774e-03 0.0 
0.0 0.0 0.0 
-5.298571111407e-04 1.612865962775e-03 0.0 
1.612865962775e-03 8.713338856529e-03 0.0 
0.0 0.0 0.0 
-1.998088715129e-04 1.507640003469e-03 0.0 
1.507640003469e-03 1.285600757311e-02 0.0 
0.0 0.0 0.0 
-2.089983593117e-04 1.252261356021e-03 0.0 
1.252261356021e-03 1.319242501211e-02 0.0 
0.0 0.0 0.0 
6.357908408805e-04 8.871407290222e-04 0.0 
8.871407290222e-04 3.616439159918e-03 0.0 
0.0 0.0 0.0 
-8.525238438251e-05 1.956485095205e-03 0.0 
1.956485095205e-03 1.173682907816e-02 0.0 
0.0 0.0 0.0 
-1.049427463542e-03 9.393229248163e-04 0.0 
9.393229248163e-04 1.044462995404e-02 0.0 
0.0 0.0 0.0 
4.209501204101e-04 4.449045035145e-04 0.0 
4.449045035145e-04 2.298450284616e-03 0.0 
0.0 0.0 0.0 
-1.779697262290e-05 2.016194048900e-03 0.0 
2.016194048900e-03 1.118330387599e-02 0.0 
0.0 0.0 0.0 
-7.742795136868e-04 9.075584935993e-04 0.0 
9.075584935993e-04 1.218964720756e-02 0.0 
0.0 0.0 0.0 
-8.365429741765e-04 9.430746130036e-04 0.0 
9.430746130036e-04 1.191561406350e-02 0.0 
0.0 0.0 0.0 
-8.744230171785e-04 7.979383489578e-04 0.0 
7.979383489578e-04 1.188682154800e-02 0.0 
0.0 0.0 0.0 
-1.858569049339e-04 1.031943998350e-03 0.0 
1.031943998350e-03 1.341426222855e-02 0.0 
0.0 0.0 0.0 
-7.912491374287e-04 2.995982660724e-04 0.0 
2.995982660724e-04 1.166815606417e-02 0.0 
0.0 0.0 0.0 
9.051860754276e-05 1.912708119097e-03 0.0 
1.912708119097e-03 1.014048699641e-02 0.0 
0.0 0.0 0.0 
7.614373402782e-04 1.168830610616e-03 0.0 
1.168830610616e-03 6.421056998146e-03 0.0 
0.0 0.0 0.0 
7.176100850105e-04 1.239304199532e-03 0.0 
1.239304199532e-03 6.429781757141e-03 0.0 
0.0 0.0 0.0 
7.528766624230e-04 1.186720560432e-03 0.0 
1.186720560432e-03 5.951050212564e-03 0.0 
0.0 0.0 0.0 
-6.984823272019e-04 1.232474146808e-03 0.0 
1.232474146808e-03 1.187684525950e-02 0.0 
0.0 0.0 0.0 
1.686429549963e-04 1.564229528707e-03 0.0 
1.564229528707e-03 9.219462915966e-03 0.0 
0.0 0.0 0.0 
3.178067605084e-04 1.415141301976e-03 0.0 
1.415141301976e-03 8.673170695080e-03 0.0 
0.0 0.0 0.0 
3.243186354864e-04 1.319733699880e-03 0.0 
1.319733699880e-03 8.513843704373e-03 0.0 
0.0 0.0 0.0 
4.547698582079e-04 1.274372379359e-03 0.0 
1.274372379359e-03 8.105795621681e-03 0.0 
0.0 0.0 0.0 
1.785228507268e-04 1.355089184850e-03 0.0 
1.355089184850e-03 8.895794971066e-03 0.0 
0.0 0.0 0.0 
-1.558046968034e-04 1.729877626739e-03 0.0 
1.729877626739e-03 1.249082191574e-02 0.0 
0.0 0.0 0.0 
-1.291625945647e-04 1.825474417734e-03 0.0 
1.825474417734e-03 1.227129819643e-02 0.0 
0.0 0.0 0.0 
6.368136310453e-04 -2.042668023686e-05 0.0 
-2.042668023686e-05 2.435981352811e-03 0.0 
0.0 0.0 0.0 
7.253313856837e-04 8.525572865659e-05 0.0 
8.525572865659e-05 2.708626007994e-03 0.0 
0.0 0.0 0.0 
8.177428000061e-04 1.684192630210e-04 0.0 
1.684192630210e-04 3.120438634051e-03 0.0 
0.0 0.0 0.0 
7.991471008336e-04 2.096266608706e-04 0.0 
2.096266608706e-04 3.006863389386e-03 0.0 
0.0 0.0 0.0 
6.938575711752e-04 1.254738056377e-04 0.0 
1.254738056377e-04 2.590842062372e-03 0.0 
0.0 0.0 0.0 
7.691291460881e-04 2.624782620877e-04 0.0 
2.624782620877e-04 2.903424780914e-03 0.0 
0.0 0.0 0.0 
8.541041387459e-04 3.489217058791e-04 0.0 
3.489217058791e-04 3.332137740244e-03 0.0 
0.0 0.0 0.0 
7.263723533920e-04 3.294978355541e-04 0.0 
3.294978355541e-04 2.814430812351e-03 0.0 
0.0 0.0 0.0 
-4.052229386992e-04 1.619041038257e-03 0.0 
1.619041038257e-03 1.126090050219e-02 0.0 
0.0 0.0 0.0 
1.714649177315e-04 1.147293667797e-03 0.0 
1.147293667797e-03 8.656530036223e-03 0.0 
0.0 0.0 0.0 
8.455083665200e-04 4.324319903921e-04 0.0 
4.324319903921e-04 5.289646629165e-03 0.0 
0.0 0.0 0.0 
8.813853851780e-04 4.548002003016e-04 0.0 
4.548002003016e-04 5.136880685736e-03 0.0 
0.0 0.0 0.0 
9.021453634146e-04 3.687214271118e-04 0.0 
3.687214271118e-04 4.675397817848e-03 0.0 
0.0 0.0 0.0 
6.897997613962e-04 -4.458541350421e-06 0.0 
-4.458541350421e-06 3.658576975034e-03 0.0 
0.0 0.0 0.0 
7.316262679881e-04 3.868386481144e-05 0.0 
3.868386481144e-05 3.899652010272e-03 0.0 
0.0 0.0 0.0 
7.473808972497e-04 9.660704083244e-05 0.0 
9.660704083244e-05 4.325179854860e-03 0.0 
0.0 0.0 0.0 
6.449856859950e-04 -3.580024994775e-05 0.0 
-3.580024994775e-05 3.425137440207e-03 0.0 
0.0 0.0 0.0 
1.554188233754e-04 1.643519101681e-03 0.0 
1.643519101681e-03 8.623901103215e-03 0.0 
0.0 0.0 0.0 
1.678804978881e-04 1.042281343589e-03 0.0 
1.042281343589e-03 8.547079046700e-03 0.0 
0.0 0.0 0.0 
8.997919012664e-04 7.763338801650e-04 0.0 
7.763338801650e-04 5.617292575951e-03 0.0 
0.0 0.0 0.0 
7.446687943783e-04 3.069947855925e-05 0.0 
3.069947855925e-05 3.726637911453e-03 0.0 
0.0 0.0 0.0 
-8.571742326468e-04 1.427065027596e-04 0.0 
1.427065027596e-04 1.063139802800e-02 0.0 
0.0 0.0 0.0 
-9.030309152953e-04 2.591456003264e-04 0.0 
2.591456003264e-04 1.097735387035e-02 0.0 
0.0 0.0 0.0 
-9.635319770955e-04 3.308998374190e-04 0.0 
3.308998374190e-04 1.096405644024e-02 0.0 
0.0 0.0 0.0 
-9.287508264154e-04 3.972729786938e-04 0.0 
3.972729786938e-04 1.132865161639e-02 0.0 
0.0 0.0 0.0 
-8.530863052869e-04 2.023210528913e-04 0.0 
2.023210528913e-04 1.102421860667e-02 0.0 
0.0 0.0 0.0 
6.817172792754e-04 5.578249667875e-05 0.0 
5.578249667875e-05 4.435962943297e-03 0.0 
0.0 0.0 0.0 
6.635367848589e-04 5.610003912762e-05 0.0 
5.610003912762e-05 4.620691456075e-03 0.0 
0.0 0.0 0.0 
6.512879725576e-04 2.877633142306e-05 0.0 
2.877633142306e-05 4.381074116708e-03 0.0 
0.0 0.0 0.0 
6.455796501033e-04 5.164173067103e-05 0.0 
5.164173067103e-05 4.807539434546e-03 0.0 
0.0 0.0 0.0 
6.419096641395e-04 2.437411396018e-05 0.0 
2.437411396018e-05 4.556471479061e-03 0.0 
0.0 0.0 0.0 
6.399890300045e-04 8.206614931339e-06 0.0 
8.206614931339e-06 4.165865128235e-03 0.0 
0.0 0.0 0.0 
6.287570560402e-04 4.013683377359e-05 0.0 
4.013683377359e-05 4.988189196252e-03 0.0 
0.0 0.0 0.0 
6.306994543140e-04 1.953805177628e-05 0.0 
1.953805177628e-05 4.708332314504e-03 0.0 
0.0 0.0 0.0 
-7.679876570147e-04 7.262616938119e-05 0.0 
7.262616938119e-05 1.062338710187e-02 0.0 
0.0 0.0 0.0 
-6.079854333420e-04 -1.036522973340e-04 0.0 
-1.036522973340e-04 5.256647988761e-04 0.0 
0.0 0.0 0.0 
-3.282624731759e-04 -1.631032943057e-04 0.0 
-1.631032943057e-04 7.389583986182e-04 0.0 
0.0 0.0 0.0 
-2.982786033281e-04 -1.749588137403e-04 0.0 
-1.749588137403e-04 7.079448712882e-04 0.0 
0.0 0.0 0.0 
-1.085289804833e-04 -2.014344631437e-04 0.0 
-2.014344631437e-04 9.864661970389e-04 0.0 
0.0 0.0 0.0 
-1.015558222536e-04 -1.620161166372e-04 0.0 
-1.620161166372e-04 1.023129226812e-03 0.0 
0.0 0.0 0.0 
1.164591715673e-04 -1.761804597207e-04 0.0 
-1.761804597207e-04 1.313811284754e-03 0.0 
0.0 0.0 0.0 
8.674343795885e-05 -1.404178621937e-04 0.0 
-1.404178621937e-04 1.292347905448e-03 0.0 
0.0 0.0 0.0 
-3.556307049098e-04 -1.442316099299e-04 0.0 
-1.442316099299e-04 7.605407093639e-04 0.0 
0.0 0.0 0.0 
-4.743310675247e-04 -1.085841900319e-04 0.0 
-1.085841900319e-04 4.612048791708e-04 0.0 
0.0 0.0 0.0 
-2.499198548428e-04 -1.727645556312e-04 0.0 
-1.727645556312e-04 6.837719458341e-04 0.0 
0.0 0.0 0.0 
-4.006935746823e-04 -1.035271613820e-04 0.0 
-1.035271613820e-04 4.259088642900e-04 0.0 
0.0 0.0 0.0 
-2.077249676632e-04 -1.717771266212e-04 0.0 
-1.717771266212e-04 6.519389656699e-04 0.0 
0.0 0.0 0.0 
-3.630444879643e-05 -2.106696590400e-04 0.0 
-2.106696590400e-04 9.887610918697e-04 0.0 
0.0 0.0 0.0 
2.070363291295e-04 -2.048603527621e-04 0.0 
-2.048603527621e-04 1.433860632082e-03 0.0 
0.0 0.0 0.0 
1.373545008842e-04 2.461958141431e-04 0.0 
2.461958141431e-04 8.003312336412e-03 0.0 
0.0 0.0 0.0 
5.870771391001e-04 -6.492256538564e-06 0.0 
-6.492256538564e-06 3.537302991966e-03 0.0 
0.0 0.0 0.0 
5.697613351358e-04 -1.694645601058e-05 0.0 
-1.694645601058e-05 3.343760191362e-03 0.0 
0.0 0.0 0.0 
5.268088751956e-04 -2.738764952150e-05 0.0 
-2.738764952150e-05 2.963025423971e-03 0.0 
0.0 0.0 0.0 
5.558395723836e-04 -3.737017174736e-05 0.0 
-3.737017174736e-05 3.167538227664e-03 0.0 
0.0 0.0 0.0 
6.039316427435e-04 -5.446457543491e-06 0.0 
-5.446457543491e-06 3.699222898065e-03 0.0 
0.0 0.0 0.0 
4.925117052234e-04 -1.601514468564e-05 0.0 
-1.601514468564e-05 2.756691774455e-03 0.0 
0.0 0.0 0.0 
4.712973817855e-04 -3.436344515906e-05 0.0 
-3.436344515906e-05 2.617338275408e-03 0.0 
0.0 0.0 0.0 
2.419089497176e-05 -2.283945443984e-05 0.0 
-2.283945443984e-05 2.449727051341e-04 0.0 
0.0 0.0 0.0 
7.843725276672e-05 -3.855540419868e-05 0.0 
-3.855540419868e-05 5.381730379414e-04 0.0 
0.0 0.0 0.0 
7.150195784433e-05 -1.969368568316e-05 0.0 
-1.969368568316e-05 5.056588905353e-04 0.0 
0.0 0.0 0.0 
1.321504843869e-04 -3.306875858497e-05 0.0 
-3.306875858497e-05 8.669880776709e-04 0.0 
0.0 0.0 0.0 
1.267420900773e-04 -5.803621374188e-05 0.0 
-5.803621374188e-05 8.617279258830e-04 0.0 
0.0 0.0 0.0 
6.670238838298e-05 -5.198929143598e-05 0.0 
-5.198929143598e-05 5.466899071975e-04 0.0 
0.0 0.0 0.0 
4.861053273492e-05 -6.639848646206e-05 0.0 
-6.639848646206e-05 5.557680720091e-04 0.0 
0.0 0.0 0.0 
-2.400576204450e-05 -4.460717538656e-05 0.0 
-4.460717538656e-05 2.651585073820e-04 0.0 
0.0 0.0 0.0 
2.998668437696e-05 -8.333805906700e-05 0.0 
-8.333805906700e-05 5.636691909487e-04 0.0 
0.0 0.0 0.0 
1.088029286067e-04 -9.536069556641e-05 0.0 
-9.536069556641e-05 8.875770012558e-04 0.0 
0.0 0.0 0.0 
-5.605311608207e-05 -5.373294911365e-05 0.0 
-5.373294911365e-05 2.695159231026e-04 0.0 
0.0 0.0 0.0 
-4.047826934501e-04 2.416197504413e-05 0.0 
2.416197504413e-05 1.242910205240e-02 0.0 
0.0 0.0 0.0 
-3.708588430275e-04 5.942242444897e-05 0.0 
5.942242444897e-05 1.263564111351e-02 0.0 
0.0 0.0 0.0 
1.678917627876e-04 8.434016702765e-04 0.0 
8.434016702765e-04 8.349547964668e-03 0.0 
0.0 0.0 0.0 
-6.938846242286e-04 4.068108153221e-05 0.0 
4.068108153221e-05 1.065452075466e-02 0.0 
0.0 0.0 0.0 
-2.659786492700e-04 -8.757378857657e-05 0.0 
-8.757378857657e-05 3.722769820465e-04 0.0 
0.0 0.0 0.0 
-1.260329202174e-04 2.454472476896e-04 0.0 
2.454472476896e-04 1.368723421291e-02 0.0 
0.0 0.0 0.0 
-1.323190386614e-04 4.537025119040e-04 0.0 
4.537025119040e-04 1.370019036954e-02 0.0 
0.0 0.0 0.0 
-1.161742304189e-04 3.863446809914e-04 0.0 
3.863446809914e-04 1.372439306252e-02 0.0 
0.0 0.0 0.0 
3.248752978782e-04 5.329741330387e-05 0.0 
5.329741330387e-05 7.167887332611e-03 0.0 
0.0 0.0 0.0 
2.754255718147e-04 1.073073540036e-04 0.0 
1.073073540036e-04 7.423793436206e-03 0.0 
0.0 0.0 0.0 
-1.110108689047e-04 1.385082898656e-04 0.0 
1.385082898656e-04 1.370792303928e-02 0.0 
0.0 0.0 0.0 
4.804751083509e-04 -1.524905976471e-04 0.0 
-1.524905976471e-04 2.309181504220e-03 0.0 
0.0 0.0 0.0 
-4.361300903471e-04 1.258738976251e-03 0.0 
1.258738976251e-03 1.274348936793e-02 0.0 
0.0 0.0 0.0 
-3.189469982720e-04 2.425447107002e-04 0.0 
2.425447107002e-04 1.309010402204e-02 0.0 
0.0 0.0 0.0 
2.993928965949e-04 5.723565498765e-04 0.0 
5.723565498765e-04 2.308836247882e-03 0.0 
0.0 0.0 0.0 
5.101868190848e-04 -1.568837834951e-04 0.0 
-1.568837834951e-04 2.245166239146e-03 0.0 
0.0 0.0 0.0 
5.790509899219e-04 9.688762064012e-05 0.0 
9.688762064012e-05 5.704717089367e-03 0.0 
0.0 0.0 0.0 
7.179836391699e-04 2.136613877389e-04 0.0 
2.136613877389e-04 5.210530750700e-03 0.0 
0.0 0.0 0.0 
4.441400897816e-04 2.334777037940e-04 0.0 
2.334777037940e-04 6.737277725193e-03 0.0 
0.0 0.0 0.0 
6.454101055702e-04 1.322367477058e-04 0.0 
1.322367477058e-04 5.313002063241e-03 0.0 
0.0 0.0 0.0 
5.517596194829e-04 2.990195240143e-04 0.0 
2.990195240143e-04 6.344402033157e-03 0.0 
0.0 0.0 0.0 
3.436449498319e-04 1.208251343547e-03 0.0 
1.208251343547e-03 8.312999967166e-03 0.0 
0.0 0.0 0.0 
2.366125535504e-04 -7.533114436446e-05 0.0 
-7.533114436446e-05 1.420700697540e-03 0.0 
0.0 0.0 0.0 
-6.385032040344e-04 1.710248105087e-04 0.0 
1.710248105087e-04 1.174529554533e-02 0.0 
0.0 0.0 0.0 
-5.733769211432e-04 8.833382538695e-05 0.0 
8.833382538695e-05 1.158546915419e-02 0.0 
0.0 0.0 0.0 
-4.704390378630e-04 2.184274051896e-04 0.0 
2.184274051896e-04 1.253459678727e-02 0.0 
0.0 0.0 0.0 
4.657658385880e-04 -1.126624940183e-04 0.0 
-1.126624940183e-04 2.421851156071e-03 0.0 
0.0 0.0 0.0 
6.416083578517e-04 2.273421154732e-06 0.0 
2.273421154732e-06 3.975518168232e-03 0.0 
0.0 0.0 0.0 
2.468600595400e-04 -1.617259552090e-04 0.0 
-1.617259552090e-04 1.518958503549e-03 0.0 
0.0 0.0 0.0 
-6.011585050775e-05 1.907344686175e-03 0.0 
1.907344686175e-03 1.100363499219e-02 0.0 
0.0 0.0 0.0 
-8.445380391230e-04 1.378483739735e-03 0.0 
1.378483739735e-03 9.510321209072e-03 0.0 
0.0 0.0 0.0 
8.804477223212e-04 2.644183216463e-04 0.0 
2.644183216463e-04 4.372296751954e-03 0.0 
0.0 0.0 0.0 
6.449516748800e-04 -5.232521704967e-05 0.0 
-5.232521704967e-05 3.251884248512e-03 0.0 
0.0 0.0 0.0 
5.528271838522e-04 -1.326053619090e-04 0.0 
-1.326053619090e-04 2.531498519834e-03 0.0 
0.0 0.0 0.0 
4.778753339992e-04 -1.630577917376e-04 0.0 
-1.630577917376e-04 2.100490101258e-03 0.0 
0.0 0.0 0.0 
3.425572184491e-04 1.541206447499e-03 0.0 
1.541206447499e-03 6.354841843946e-03 0.0 
0.0 0.0 0.0 
7.885065714414e-04 9.149440462049e-05 0.0 
9.149440462049e-05 3.979233065388e-03 0.0 
0.0 0.0 0.0 
6.908966890135e-04 4.648935687044e-04 0.0 
4.648935687044e-04 6.096196954587e-03 0.0 
0.0 0.0 0.0 
-4.072403729006e-04 2.043416081429e-04 0.0 
2.043416081429e-04 1.273402004711e-02 0.0 
0.0 0.0 0.0 
-1.569015346628e-04 -7.674216021477e-05 0.0 
-7.674216021477e-05 3.586130379326e-04 0.0 
0.0 0.0 0.0 
6.626998627925e-04 5.667977143171e-04 0.0 
5.667977143171e-04 6.419535809845e-03 0.0 
0.0 0.0 0.0 
7.919593669514e-04 2.318918340622e-04 0.0 
2.318918340622e-04 4.856801197004e-03 0.0 
0.0 0.0 0.0 
-7.317772256075e-04 3.035312602161e-04 0.0 
3.035312602161e-04 1.188500035686e-02 0.0 
0.0 0.0 0.0 
6.396427669901e-04 1.251534524304e-03 0.0 
1.251534524304e-03 7.411836642367e-03 0.0 
0.0 0.0 0.0 
2.110958152036e-04 -1.940087893634e-04 0.0 
-1.940087893634e-04 1.471217110086e-03 0.0 
0.0 0.0 0.0 
-5.243081225298e-04 3.697472711931e-04 0.0 
3.697472711931e-04 1.265584092136e-02 0.0 
0.0 0.0 0.0 
-4.205267966386e-04 7.675980185134e-04 0.0 
7.675980185134e-04 1.311610577541e-02 0.0 
0.0 0.0 0.0 
-8.437464676705e-04 2.959488670463e-04 0.0 
2.959488670463e-04 1.144959349450e-02 0.0 
0.0 0.0 0.0 
1.413540611807e-04 -1.532171716841e-04 0.0 
-1.532171716841e-04 1.154569708934e-03 0.0 
0.0 0.0 0.0 
-6.651915797250e-04 1.119744973838e-04 0.0 
1.119744973838e-04 1.134108183082e-02 0.0 
0.0 0.0 0.0 
4.250692489701e-04 8.714833502479e-04 0.0 
8.714833502479e-04 7.646880349193e-03 0.0 
0.0 0.0 0.0 
-7.330979751265e-04 7.390370970791e-04 0.0 
7.390370970791e-04 1.238256964077e-02 0.0 
0.0 0.0 0.0 
4.127195556173e-04 -1.074626669444e-04 0.0 
-1.074626669444e-04 2.208415299214e-03 0.0 
0.0 0.0 0.0 
9.324041632274e-04 7.497306489199e-04 0.0 
7.497306489199e-04 5.069937889891e-03 0.0 
0.0 0.0 0.0 
-1.627893727950e-04 1.687051315341e-03 0.0 
1.687051315341e-03 7.832445591993e-03 0.0 
0.0 0.0 0.0 
-1.028695812729e-03 4.002848350929e-04 0.0 
4.002848350929e-04 1.014641201698e-02 0.0 
0.0 0.0 0.0 
-2.913920968910e-04 3.048098879230e-04 0.0 
3.048098879230e-04 1.323310129281e-02 0.0 
0.0 0.0 0.0 
5.708063684393e-04 1.393376322823e-03 0.0 
1.393376322823e-03 6.533381218636e-03 0.0 
0.0 0.0 0.0 
5.985125621286e-04 1.168800989719e-03 0.0 
1.168800989719e-03 7.530576594722e-03 0.0 
0.0 0.0 0.0 
8.571823764905e-04 9.110159334935e-04 0.0 
9.110159334935e-04 6.028852437735e-03 0.0 
0.0 0.0 0.0 
4.388111637090e-04 -8.078576621660e-05 0.0 
-8.078576621660e-05 2.377963662491e-03 0.0 
0.0 0.0 0.0 
5.373889105184e-04 4.991127918607e-04 0.0 
4.991127918607e-04 6.770843451946e-03 0.0 
0.0 0.0 0.0 
8.318620699980e-04 1.045001706466e-03 0.0 
1.045001706466e-03 5.456269525843e-03 0.0 
0.0 0.0 0.0 
-4.269286652091e-04 4.362589200132e-04 0.0 
4.362589200132e-04 1.299829237486e-02 0.0 
0.0 0.0 0.0 
-2.130088728031e-04 1.674400236108e-03 0.0 
1.674400236108e-03 9.849144358326e-03 0.0 
0.0 0.0 0.0 
8.985265952572e-04 6.591361959049e-04 0.0 
6.591361959049e-04 4.083279349983e-03 0.0 
0.0 0.0 0.0 
-5.809742087760e-04 5.749787277400e-04 0.0 
5.749787277400e-04 1.272311803525e-02 0.0 
0.0 0.0 0.0 
9.234421611836e-04 3.941663293203e-04 0.0 
3.941663293203e-04 4.537731500923e-03 0.0 
0.0 0.0 0.0 
5.478272029666e-04 1.378348567121e-03 0.0 
1.378348567121e-03 7.886619425169e-03 0.0 
0.0 0.0 0.0 
-7.249336286559e-04 1.505751021355e-03 0.0 
1.505751021355e-03 8.997789704587e-03 0.0 
0.0 0.0 0.0 
-2.769835655078e-04 1.648866660701e-03 0.0 
1.648866660701e-03 9.137070427044e-03 0.0 
0.0 0.0 0.0 
-7.032314903201e-04 1.401743989619e-03 0.0 
1.401743989619e-03 1.076822185095e-02 0.0 
0.0 0.0 0.0 
1.750971774204e-04 1.621021037513e-03 0.0 
1.621021037513e-03 7.803715871852e-03 0.0 
0.0 0.0 0.0 
5.947295942112e-04 5.832841228617e-05 0.0 
5.832841228617e-05 5.446545783933e-03 0.0 
0.0 0.0 0.0 
6.007715827527e-04 5.355768308797e-04 0.0 
5.355768308797e-04 6.591868957528e-03 0.0 
0.0 0.0 0.0 
3.070357784195e-04 3.622506313388e-05 0.0 
3.622506313388e-05 1.687027285446e-03 0.0 
0.0 0.0 0.0 
3.017362574312e-04 1.492321853753e-03 0.0 
1.492321853753e-03 5.484507606421e-03 0.0 
0.0 0.0 0.0 
-8.108415532416e-04 3.961434324089e-04 0.0 
3.961434324089e-04 1.182474256145e-02 0.0 
0.0 0.0 0.0 
3.009772645137e-05 1.769378743319e-03 0.0 
1.769378743319e-03 9.947026549269e-03 0.0 
0.0 0.0 0.0 
-3.088261903939e-04 4.965154497525e-04 0.0 
4.965154497525e-04 1.332280217066e-02 0.0 
0.0 0.0 0.0 
-1.774745220646e-04 1.698740250138e-03 0.0 
1.698740250138e-03 7.463544267183e-03 0.0 
0.0 0.0 0.0 
5.767120037232e-04 4.081545312419e-04 0.0 
4.081545312419e-04 6.453205625295e-03 0.0 
0.0 0.0 0.0 
-4.597331394215e-04 6.576938826677e-04 0.0 
6.576938826677e-04 1.303299281679e-02 0.0 
0.0 0.0 0.0 
7.691687939889e-04 9.396427998269e-05 0.0 
9.396427998269e-05 4.149670398378e-03 0.0 
0.0 0.0 0.0 
2.864081958388e-04 -2.448352238981e-05 0.0 
-2.448352238981e-05 1.637007793562e-03 0.0 
0.0 0.0 0.0 
7.032749261371e-05 5.455843797332e-04 0.0 
5.455843797332e-04 1.931122466186e-03 0.0 
0.0 0.0 0.0 
7.769332940177e-04 4.949940424053e-04 0.0 
4.949940424053e-04 3.183492260700e-03 0.0 
0.0 0.0 0.0 
6.822695962484e-04 1.272510019633e-03 0.0 
1.272510019633e-03 5.995008312024e-03 0.0 
0.0 0.0 0.0 
7.730025630842e-04 1.584095953311e-04 0.0 
1.584095953311e-04 4.584317772338e-03 0.0 
0.0 0.0 0.0 
-3.843055769107e-04 1.097541318995e-03 0.0 
1.097541318995e-03 1.302102684189e-02 0.0 
0.0 0.0 0.0 
5.180711962872e-04 3.780190925372e-04 0.0 
3.780190925372e-04 6.641801371579e-03 0.0 
0.0 0.0 0.0 
7.350398325409e-04 7.432929252286e-04 0.0 
7.432929252286e-04 6.460457766504e-03 0.0 
0.0 0.0 0.0 
-6.854510688833e-04 9.751044694572e-04 0.0 
9.751044694572e-04 1.682325859813e-03 0.0 
0.0 0.0 0.0 
-1.080437329772e-03 6.104079877852e-04 0.0 
6.104079877852e-04 1.019407773456e-02 0.0 
0.0 0.0 0.0 
4.581276885407e-04 3.431515459007e-04 0.0 
3.431515459007e-04 6.838301171673e-03 0.0 
0.0 0.0 0.0 
9.343892885583e-04 6.923155292200e-04 0.0 
6.923155292200e-04 5.142183693950e-03 0.0 
0.0 0.0 0.0 
5.416529512125e-04 1.334608649912e-03 0.0 
1.334608649912e-03 7.902933442838e-03 0.0 
0.0 0.0 0.0 
6.351716318682e-04 9.836461533659e-06 0.0 
9.836461533659e-06 4.300719853285e-03 0.0 
0.0 0.0 0.0 
-5.450775653615e-06 1.911256506586e-03 0.0 
1.911256506586e-03 1.069843607666e-02 0.0 
0.0 0.0 0.0 
-9.724098077747e-04 1.161618933163e-03 0.0 
1.161618933163e-03 8.847479443560e-03 0.0 
0.0 0.0 0.0 
3.966550480221e-04 3.032994273595e-04 0.0 
3.032994273595e-04 7.046876082080e-03 0.0 
0.0 0.0 0.0 
7.343744515699e-04 9.086701946773e-04 0.0 
9.086701946773e-04 6.707471824696e-03 0.0 
0.0 0.0 0.0 
6.092019787406e-04 1.069673239067e-03 0.0 
1.069673239067e-03 4.127700380864e-03 0.0 
0.0 0.0 0.0 
-5.818567302043e-04 5.277106522093e-06 0.0 
5.277106522093e-06 1.056133610107e-02 0.0 
0.0 0.0 0.0 
2.569065650805e-04 3.388266052644e-04 0.0 
3.388266052644e-04 7.631286178464e-03 0.0 
0.0 0.0 0.0 
6.226483885041e-04 9.978814609012e-04 0.0 
9.978814609012e-04 7.230013463168e-03 0.0 
0.0 0.0 0.0 
1.657730137275e-04 1.627363422763e-03 0.0 
1.627363422763e-03 8.214412423078e-03 0.0 
0.0 0.0 0.0 
9.454120784745e-04 5.564130258112e-04 0.0 
5.564130258112e-04 4.764797389839e-03 0.0 
0.0 0.0 0.0 
-1.038487945230e-03 5.197438957869e-04 0.0 
5.197438957869e-04 9.666043243691e-03 0.0 
0.0 0.0 0.0 
7.429171927249e-04 1.551527005870e-04 0.0 
1.551527005870e-04 4.761284916919e-03 0.0 
0.0 0.0 0.0 
-4.019173048229e-04 1.612602968849e-03 0.0 
1.612602968849e-03 9.670991703394e-03 0.0 
0.0 0.0 0.0 
-1.705344608968e-04 9.274517271215e-04 0.0 
9.274517271215e-04 1.349694448378e-02 0.0 
0.0 0.0 0.0 
5.470056255225e-04 1.122927015935e-03 0.0 
1.122927015935e-03 7.619311404283e-03 0.0 
0.0 0.0 0.0 
-9.289824919172e-04 8.341328345376e-04 0.0 
8.341328345376e-04 1.161875306655e-02 0.0 
0.0 0.0 0.0 
7.237007204400e-04 9.799704551531e-05 0.0 
9.799704551531e-05 4.502386423124e-03 0.0 
0.0 0.0 0.0 
5.662664423202e-04 1.406107791416e-03 0.0 
1.406107791416e-03 7.410901769981e-03 0.0 
0.0 0.0 0.0 
1.200239126475e-04 -8.011646299775e-05 0.0 
-8.011646299775e-05 8.683007971948e-04 0.0 
0.0 0.0 0.0 
-1.076479393030e-03 8.158835376478e-04 0.0 
8.158835376478e-04 9.627209101629e-03 0.0 
0.0 0.0 0.0 
6.985551776609e-04 9.746822918432e-05 0.0 
9.746822918432e-05 4.683334127568e-03 0.0 
0.0 0.0 0.0 
8.227297041377e-04 4.147268502808e-04 0.0 
4.147268502808e-04 3.247434833976e-03 0.0 
0.0 0.0 0.0 
9.318378898567e-04 5.146357630007e-04 0.0 
5.146357630007e-04 4.871340640075e-03 0.0 
0.0 0.0 0.0 
2.622392679321e-04 1.710784210155e-03 0.0 
1.710784210155e-03 9.312784223128e-03 0.0 
0.0 0.0 0.0 
6.728975979067e-04 9.433983092786e-05 0.0 
9.433983092786e-05 4.868424524857e-03 0.0 
0.0 0.0 0.0 
8.881824936991e-04 5.002618250647e-04 0.0 
5.002618250647e-04 3.689533532558e-03 0.0 
0.0 0.0 0.0 
6.469690435713e-04 8.749857166331e-05 0.0 
8.749857166331e-05 5.056353694434e-03 0.0 
0.0 0.0 0.0 
-1.018201912177e-03 7.475608613781e-04 0.0 
7.475608613781e-04 9.124543940951e-03 0.0 
0.0 0.0 0.0 
-8.840844661689e-04 9.875297603823e-04 0.0 
9.875297603823e-04 1.162617920475e-02 0.0 
0.0 0.0 0.0 
6.219718841007e-04 7.462113400503e-05 0.0 
7.462113400503e-05 5.245633176680e-03 0.0 
0.0 0.0 0.0 
-3.539499456673e-04 1.629358013158e-03 0.0 
1.629358013158e-03 1.000580197658e-02 0.0 
0.0 0.0 0.0 
9.656313515464e-05 -1.222896996820e-04 0.0 
-1.222896996820e-04 9.270030538542e-04 0.0 
0.0 0.0 0.0 
2.854762447737e-04 1.590700098415e-03 0.0 
1.590700098415e-03 8.075975686901e-03 0.0 
0.0 0.0 0.0 
3.844558031809e-04 9.869373694438e-05 0.0 
9.869373694438e-05 6.901536523803e-03 0.0 
0.0 0.0 0.0 
6.982057671800e-04 -4.698486267266e-05 0.0 
-4.698486267266e-05 3.000656564321e-03 0.0 
0.0 0.0 0.0 
9.103585888424e-04 4.815635089288e-04 0.0 
4.815635089288e-04 4.995250571441e-03 0.0 
0.0 0.0 0.0 
-7.774320006416e-04 1.090235677718e-03 0.0 
1.090235677718e-03 1.191304718334e-02 0.0 
0.0 0.0 0.0 
-9.399572441161e-04 1.103304935529e-03 0.0 
1.103304935529e-03 8.296326187357e-03 0.0 
0.0 0.0 0.0 
8.752224250118e-04 5.685065135509e-04 0.0 
5.685065135509e-04 5.466842934144e-03 0.0 
0.0 0.0 0.0 
-3.031778658500e-04 1.661273599235e-03 0.0 
1.661273599235e-03 1.034880467370e-02 0.0 
0.0 0.0 0.0 
3.829837045876e-04 1.550564002266e-03 0.0 
1.550564002266e-03 7.976977370048e-03 0.0 
0.0 0.0 0.0 
6.546567238297e-04 1.314596134769e-03 0.0 
1.314596134769e-03 6.463919024874e-03 0.0 
0.0 0.0 0.0 
8.179272221085e-04 6.562035347491e-04 0.0 
6.562035347491e-04 5.955387967912e-03 0.0 
0.0 0.0 0.0 
-7.094258918206e-04 1.493694879498e-03 0.0 
1.493694879498e-03 7.626855069583e-03 0.0 
0.0 0.0 0.0 
4.525629137999e-04 -1.702126558299e-04 0.0 
-1.702126558299e-04 2.156498927984e-03 0.0 
0.0 0.0 0.0 
3.375156419943e-04 -1.960400271911e-04 0.0 
-1.960400271911e-04 1.793143871628e-03 0.0 
0.0 0.0 0.0 
9.104455518787e-04 4.355349433666e-04 0.0 
4.355349433666e-04 3.768482403307e-03 0.0 
0.0 0.0 0.0 
-3.692330994812e-04 1.641020634821e-03 0.0 
1.641020634821e-03 1.082406326565e-02 0.0 
0.0 0.0 0.0 
1.883371228194e-04 -5.687540399990e-05 0.0 
-5.687540399990e-05 1.183208476512e-03 0.0 
0.0 0.0 0.0 
-7.271053390864e-04 1.281614859995e-03 0.0 
1.281614859995e-03 1.153372664045e-02 0.0 
0.0 0.0 0.0 
1.469461345099e-04 -2.168801052266e-04 0.0 
-2.168801052266e-04 1.298069401868e-03 0.0 
0.0 0.0 0.0 
8.732469335791e-04 2.956988630248e-04 0.0 
2.956988630248e-04 3.429953361260e-03 0.0 
0.0 0.0 0.0 
4.006707830259e-04 1.564025327454e-03 0.0 
1.564025327454e-03 8.398424216425e-03 0.0 
0.0 0.0 0.0 
-5.057324283655e-04 8.628548004184e-06 0.0 
8.628548004184e-06 1.167769880265e-02 0.0 
0.0 0.0 0.0 
8.823178586044e-04 2.537462869425e-04 0.0 
2.537462869425e-04 3.539401221265e-03 0.0 
0.0 0.0 0.0 
3.598085776495e-04 -2.195490996260e-05 0.0 
-2.195490996260e-05 2.010714382050e-03 0.0 
0.0 0.0 0.0 
8.275200726139e-04 1.374307938937e-04 0.0 
1.374307938937e-04 3.242767888661e-03 0.0 
0.0 0.0 0.0 
6.158911859921e-04 1.357298120615e-03 0.0 
1.357298120615e-03 6.934386015918e-03 0.0 
0.0 0.0 0.0 
8.300571372454e-04 1.161516046705e-04 0.0 
1.161516046705e-04 3.374741013976e-03 0.0 
0.0 0.0 0.0 
7.657423397623e-04 2.550164244839e-05 0.0 
2.550164244839e-05 3.108478938453e-03 0.0 
0.0 0.0 0.0 
-2.192703404809e-04 2.756516048962e-04 0.0 
2.756516048962e-04 1.342851749002e-02 0.0 
0.0 0.0 0.0 
7.662009406174e-04 2.032003065763e-05 0.0 
2.032003065763e-05 3.251701778487e-03 0.0 
0.0 0.0 0.0 
-9.054011189752e-05 7.808426429136e-05 0.0 
7.808426429136e-05 1.376852019609e-02 0.0 
0.0 0.0 0.0 
1.304162952260e-04 1.100797101923e-04 0.0 
1.100797101923e-04 8.012546751754e-03 0.0 
0.0 0.0 0.0 
-5.629500517566e-04 3.140893185355e-07 0.0 
3.140893185355e-07 1.087371266169e-02 0.0 
0.0 0.0 0.0 
-8.211989736573e-04 1.381873068809e-03 0.0 
1.381873068809e-03 7.018654777969e-03 0.0 
0.0 0.0 0.0 
-7.451606371649e-04 9.274951798520e-06 0.0 
9.274951798520e-06 6.187072936516e-04 0.0 
0.0 0.0 0.0 
-4.350136493758e-04 1.526666532962e-03 0.0 
1.526666532962e-03 6.073568144011e-03 0.0 
0.0 0.0 0.0 
6.144599774404e-04 -1.064177928253e-04 0.0 
-1.064177928253e-04 2.616849487033e-03 0.0 
0.0 0.0 0.0 
-6.132053424386e-04 1.459438471675e-03 0.0 
1.459438471675e-03 1.105340866159e-02 0.0 
0.0 0.0 0.0 
-5.663059648917e-04 1.357516793844e-05 0.0 
1.357516793844e-05 1.089305770774e-02 0.0 
0.0 0.0 0.0 
5.329079431690e-04 -1.459926027206e-04 0.0 
-1.459926027206e-04 2.386014652038e-03 0.0 
0.0 0.0 0.0 
-3.099745580478e-04 1.593001673664e-03 0.0 
1.593001673664e-03 1.232935153850e-02 0.0 
0.0 0.0 0.0 
4.104084240889e-05 2.000611194464e-03 0.0 
2.000611194464e-03 1.064235584418e-02 0.0 
0.0 0.0 0.0 
-4.380434914071e-04 4.867918529837e-05 0.0 
4.867918529837e-05 1.224711345028e-02 0.0 
0.0 0.0 0.0 
5.095433094816e-04 1.294423705057e-03 0.0 
1.294423705057e-03 7.943867908483e-03 0.0 
0.0 0.0 0.0 
4.561681495209e-04 1.508186742505e-03 0.0 
1.508186742505e-03 7.923135854556e-03 0.0 
0.0 0.0 0.0 
-2.641823984370e-04 3.613209881306e-05 0.0 
3.613209881306e-05 1.312704358020e-02 0.0 
0.0 0.0 0.0 
-6.234872683248e-04 6.757969709156e-06 0.0 
6.757969709156e-06 1.054901315327e-02 0.0 
0.0 0.0 0.0 
-1.686983809277e-04 -1.598619465800e-04 0.0 
-1.598619465800e-04 6.310847902321e-04 0.0 
0.0 0.0 0.0 
5.644489064247e-04 3.291934634689e-05 0.0 
3.291934634689e-05 5.681842516854e-03 0.0 
0.0 0.0 0.0 
-7.785510561258e-04 1.384024932327e-03 0.0 
1.384024932327e-03 5.584086245169e-03 0.0 
0.0 0.0 0.0 
-3.785852624308e-04 1.385830663449e-03 0.0 
1.385830663449e-03 4.593888565795e-03 0.0 
0.0 0.0 0.0 
-3.480687086678e-04 1.192099321419e-03 0.0 
1.192099321419e-03 3.282042796043e-03 0.0 
0.0 0.0 0.0 
4.549826890370e-04 -5.748750378047e-05 0.0 
-5.748750378047e-05 2.511164389803e-03 0.0 
0.0 0.0 0.0 
-9.047793491257e-05 -2.055141204220e-04 0.0 
-2.055141204220e-04 9.607463757484e-04 0.0 
0.0 0.0 0.0 
-7.205866198360e-04 1.350676596935e-03 0.0 
1.350676596935e-03 4.281196038475e-03 0.0 
0.0 0.0 0.0 
3.048455569799e-04 1.492355920252e-03 0.0 
1.492355920252e-03 8.815877460747e-03 0.0 
0.0 0.0 0.0 
-7.253289230106e-04 8.840154710353e-05 0.0 
8.840154710353e-05 1.095359388444e-02 0.0 
0.0 0.0 0.0 
2.955887581160e-04 1.644653657357e-03 0.0 
1.644653657357e-03 8.881561104718e-03 0.0 
0.0 0.0 0.0 
-7.095368329927e-04 1.228153505380e-03 0.0 
1.228153505380e-03 2.941059204285e-03 0.0 
0.0 0.0 0.0 
-3.201082069326e-04 7.319991414560e-04 0.0 
7.319991414560e-04 1.331725275100e-02 0.0 
0.0 0.0 0.0 
1.616270672596e-04 1.829613798947e-03 0.0 
1.829613798947e-03 9.834595016853e-03 0.0 
0.0 0.0 0.0 
1.430538934709e-04 6.425257615757e-04 0.0 
6.425257615757e-04 8.255218891825e-03 0.0 
0.0 0.0 0.0 
2.403896785780e-04 1.719486860991e-03 0.0 
1.719486860991e-03 9.332504359017e-03 0.0 
0.0 0.0 0.0 
-3.648521696933e-04 8.983611358707e-04 0.0 
8.983611358707e-04 2.093854513134e-03 0.0 
0.0 0.0 0.0 
-8.863550058268e-04 3.057339913673e-04 0.0 
3.057339913673e-04 1.128040296963e-02 0.0 
0.0 0.0 0.0 
-1.206284263112e-04 1.877056019439e-03 0.0 
1.877056019439e-03 1.129025824024e-02 0.0 
0.0 0.0 0.0 
-4.002955267541e-04 8.667392844492e-05 0.0 
8.667392844492e-05 1.254826790193e-02 0.0 
0.0 0.0 0.0 
1.314278317531e-04 5.126802022525e-04 0.0 
5.126802022525e-04 8.204233601951e-03 0.0 
0.0 0.0 0.0 
-8.028376076545e-04 1.408444300370e-04 0.0 
1.408444300370e-04 1.091416648767e-02 0.0 
0.0 0.0 0.0 
-1.814170401639e-04 1.806891936883e-04 0.0 
1.806891936883e-04 1.348297966386e-02 0.0 
0.0 0.0 0.0 
1.909185789660e-04 -7.454349361083e-05 0.0 
-7.454349361083e-05 1.440316295574e-03 0.0 
0.0 0.0 0.0 
-1.687966689649e-04 9.419206487966e-05 0.0 
9.419206487966e-05 1.349119334862e-02 0.0 
0.0 0.0 0.0 
-5.156238852979e-04 1.525706908892e-03 0.0 
1.525706908892e-03 1.135148631791e-02 0.0 
0.0 0.0 0.0 
-5.685761648432e-04 6.266797001739e-05 0.0 
6.266797001739e-05 1.140550869778e-02 0.0 
0.0 0.0 0.0 
-9.758526058267e-04 4.570062708792e-04 0.0 
4.570062708792e-04 1.120378509380e-02 0.0 
0.0 0.0 0.0 
2.138801127781e-04 1.698447580926e-04 0.0 
1.698447580926e-04 7.676544508287e-03 0.0 
0.0 0.0 0.0 
-3.591338792878e-04 1.371826195363e-03 0.0 
1.371826195363e-03 1.272351494841e-02 0.0 
0.0 0.0 0.0 
-3.801600439735e-04 6.889575108733e-04 0.0 
6.889575108733e-04 1.536843659607e-03 0.0 
0.0 0.0 0.0 
-4.522195843501e-04 7.967111001398e-05 0.0 
7.967111001398e-05 1.222861928165e-02 0.0 
0.0 0.0 0.0 
5.707133383555e-04 -4.648588820078e-05 0.0 
-4.648588820078e-05 3.169981144710e-03 0.0 
0.0 0.0 0.0 
-4.244872517560e-04 -1.008505987774e-04 0.0 
-1.008505987774e-04 7.474521365768e-04 0.0 
0.0 0.0 0.0 
2.958862156452e-04 7.623731092581e-04 0.0 
7.623731092581e-04 7.890298036776e-03 0.0 
0.0 0.0 0.0 
-4.091217191656e-04 1.596275973522e-03 0.0 
1.596275973522e-03 1.163947436541e-02 0.0 
0.0 0.0 0.0 
2.276659723597e-04 2.857628402102e-04 0.0 
2.857628402102e-04 7.670661902352e-03 0.0 
0.0 0.0 0.0 
1.296196169919e-04 -1.656196234115e-05 0.0 
-1.656196234115e-05 8.526799598884e-04 0.0 
0.0 0.0 0.0 
-1.042411218333e-04 -1.300012024229e-04 0.0 
-1.300012024229e-04 5.638270257457e-04 0.0 
0.0 0.0 0.0 
2.925347880180e-04 9.431067582112e-04 0.0 
9.431067582112e-04 8.121472303698e-03 0.0 
0.0 0.0 0.0 
-2.258338319535e-04 1.769100279648e-03 0.0 
1.769100279648e-03 1.191387628635e-02 0.0 
0.0 0.0 0.0 
2.649824215087e-04 -1.039647464156e-04 0.0 
-1.039647464156e-04 1.592333550984e-03 0.0 
0.0 0.0 0.0 
-1.268314621369e-04 6.324903349605e-04 0.0 
6.324903349605e-04 1.369699728490e-02 0.0 
0.0 0.0 0.0 
-5.121323746041e-04 5.007860492065e-04 0.0 
5.007860492065e-04 1.031989372912e-03 0.0 
0.0 0.0 0.0 
-6.619943497951e-04 2.245366644333e-05 0.0 
2.245366644333e-05 1.051868121899e-02 0.0 
0.0 0.0 0.0 
-7.168939527347e-06 -9.592655448155e-05 0.0 
-9.592655448155e-05 5.479079387503e-04 0.0 
0.0 0.0 0.0 
1.235708374859e-04 3.762138569465e-04 0.0 
3.762138569465e-04 8.148233147298e-03 0.0 
0.0 0.0 0.0 
-2.385614244957e-04 4.600497022819e-04 0.0 
4.600497022819e-04 1.345813979917e-02 0.0 
0.0 0.0 0.0 
5.963092463432e-04 -1.298337318337e-05 0.0 
-1.298337318337e-05 3.518581296007e-03 0.0 
0.0 0.0 0.0 
-9.524075298717e-04 2.755362126617e-04 0.0 
2.755362126617e-04 1.061971691305e-02 0.0 
0.0 0.0 0.0 
4.061226424315e-04 -4.104163668895e-05 0.0 
-4.104163668895e-05 2.266072990675e-03 0.0 
0.0 0.0 0.0 
3.471674887048e-05 1.845819997551e-03 0.0 
1.845819997551e-03 1.025361595225e-02 0.0 
0.0 0.0 0.0 
-6.877119301465e-05 -1.979528801200e-04 0.0 
-1.979528801200e-04 8.743828416173e-04 0.0 
0.0 0.0 0.0 
-2.018688149678e-04 3.308039242353e-04 0.0 
3.308039242353e-04 1.351317792145e-02 0.0 
0.0 0.0 0.0 
2.941501603528e-04 1.136600886082e-03 0.0 
1.136600886082e-03 8.350402866247e-03 0.0 
0.0 0.0 0.0 
-3.282401273450e-04 1.026097732608e-03 0.0 
1.026097732608e-03 1.318837790578e-02 0.0 
0.0 0.0 0.0 
1.102789006497e-04 1.790153865249e-03 0.0 
1.790153865249e-03 9.761705457158e-03 0.0 
0.0 0.0 0.0 
-4.682266016179e-04 1.195011789716e-04 0.0 
1.195011789716e-04 8.114887443915e-04 0.0 
0.0 0.0 0.0 
9.578476122183e-05 1.900897507756e-03 0.0 
1.900897507756e-03 1.020338027280e-02 0.0 
0.0 0.0 0.0 
4.383140983562e-04 1.210643165670e-03 0.0 
1.210643165670e-03 8.057965222996e-03 0.0 
0.0 0.0 0.0 
-6.033611944090e-04 1.583606632094e-05 0.0 
1.583606632094e-05 1.053724783327e-02 0.0 
0.0 0.0 0.0 
-3.535618752685e-04 1.214442457885e-03 0.0 
1.214442457885e-03 1.294935781233e-02 0.0 
0.0 0.0 0.0 
5.057024321478e-04 -4.206757433039e-05 0.0 
-4.206757433039e-05 2.818737683554e-03 0.0 
0.0 0.0 0.0 
1.679389693829e-04 -1.237550994292e-04 0.0 
-1.237550994292e-04 1.174707101904e-03 0.0 
0.0 0.0 0.0 
-7.236388772880e-05 3.588265781989e-05 0.0 
3.588265781989e-05 1.380753467564e-02 0.0 
0.0 0.0 0.0 
2.402060694431e-05 -6.493943071301e-06 0.0 
-6.493943071301e-06 1.802113409788e-04 0.0 
0.0 0.0 0.0 
-5.761685725200e-04 -2.497743738776e-06 0.0 
-2.497743738776e-06 1.049848076162e-02 0.0 
0.0 0.0 0.0 
9.861064725767e-05 5.786532944490e-05 0.0 
5.786532944490e-05 8.119020871168e-03 0.0 
0.0 0.0 0.0 
1.750579506749e-04 -7.481674376241e-05 0.0 
-7.481674376241e-05 1.110782661701e-03 0.0 
0.0 0.0 0.0 
-5.488140195203e-04 1.268905710191e-05 0.0 
1.268905710191e-05 1.117677393605e-02 0.0 
0.0 0.0 0.0 
-2.564375308166e-04 1.695009446552e-03 0.0 
1.695009446552e-03 1.216205456692e-02 0.0 
0.0 0.0 0.0 
6.271335477569e-04 7.018977407224e-06 0.0 
7.018977407224e-06 4.412751643045e-03 0.0 
0.0 0.0 0.0 
-3.111796045217e-04 5.645116422177e-05 0.0 
5.645116422177e-05 1.291879886770e-02 0.0 
0.0 0.0 0.0 
5.181453780898e-05 -2.060798461541e-04 0.0 
-2.060798461541e-04 1.184167546241e-03 0.0 
0.0 0.0 0.0 
-7.661485406909e-04 -5.133175367888e-05 0.0 
-5.133175367888e-05 5.498653035923e-04 0.0 
0.0 0.0 0.0 
-4.855492702794e-04 2.812841942028e-05 0.0 
2.812841942028e-05 1.188772924806e-02 0.0 
0.0 0.0 0.0 
1.867366880083e-04 1.802397748875e-03 0.0 
1.802397748875e-03 9.676452345780e-03 0.0 
0.0 0.0 0.0 
-2.951666223652e-04 8.291023368989e-04 0.0 
8.291023368989e-04 1.335003141501e-02 0.0 
0.0 0.0 0.0 
-5.412682018026e-04 6.632026639934e-05 0.0 
6.632026639934e-05 1.162201536549e-02 0.0 
0.0 0.0 0.0 
-1.465468269526e-04 5.285294558565e-04 0.0 
5.285294558565e-04 1.651085266819e-03 0.0 
0.0 0.0 0.0 
-3.198865707863e-04 1.673839636902e-03 0.0 
1.673839636902e-03 1.186607632252e-02 0.0 
0.0 0.0 0.0 
6.245955537832e-04 -5.763879492256e-06 0.0 
-5.763879492256e-06 3.824815577856e-03 0.0 
0.0 0.0 0.0 
-1.246811830798e-04 1.835957440826e-03 0.0 
1.835957440826e-03 1.089854969106e-02 0.0 
0.0 0.0 0.0 
4.028028583549e-04 1.376917593317e-03 0.0 
1.376917593317e-03 8.380367868158e-03 0.0 
0.0 0.0 0.0 
-6.905285477075e-04 5.553178411642e-04 0.0 
5.553178411642e-04 7.072070466727e-04 0.0 
0.0 0.0 0.0 
6.228302733973e-04 1.287355627188e-05 0.0 
1.287355627188e-05 4.790506920942e-03 0.0 
0.0 0.0 0.0 
-6.068950468039e-05 -1.045535048408e-04 0.0 
-1.045535048408e-04 5.270262490043e-04 0.0 
0.0 0.0 0.0 
2.362487728136e-04 5.605796664833e-04 0.0 
5.605796664833e-04 7.883959204633e-03 0.0 
0.0 0.0 0.0 
6.250900712100e-04 -8.078520081267e-07 0.0 
-8.078520081267e-07 4.005297458906e-03 0.0 
0.0 0.0 0.0 
-6.058275778342e-04 2.394087461340e-04 0.0 
2.394087461340e-04 8.693918161726e-03 0.0 
0.0 0.0 0.0 
-6.215877070327e-04 5.367331952645e-06 0.0 
5.367331952645e-06 8.727181814460e-03 0.0 
0.0 0.0 0.0 
-7.434366893777e-04 2.497292589995e-04 0.0 
2.497292589995e-04 9.095360134807e-03 0.0 
0.0 0.0 0.0 
-5.920197203070e-04 -4.883113226803e-06 0.0 
-4.883113226803e-06 9.118153620204e-03 0.0 
0.0 0.0 0.0 
-8.449989900008e-04 2.004967555523e-04 0.0 
2.004967555523e-04 9.554121999483e-03 0.0 
0.0 0.0 0.0 
-5.864396886558e-04 -2.819970547741e-06 0.0 
-2.819970547741e-06 9.569710083893e-03 0.0 
0.0 0.0 0.0 
-8.902571322810e-04 1.740270510430e-04 0.0 
1.740270510430e-04 9.997931205906e-03 0.0 
0.0 0.0 0.0 
-5.863898488740e-04 3.759988824248e-06 0.0 
3.759988824248e-06 9.973583577101e-03 0.0 
0.0 0.0 0.0 

TENSORS node_materi_strain_plasti float
-1.741775845211e-05 -2.168405097446e-06 0.0 
-2.168405097446e-06 1.395813736689e-04 0.0 
0.0 0.0 -3.282868849617e-05 
-7.193710724364e-04 -1.122442495584e-04 0.0 
-1.122442495584e-04 4.531072016065e-03 0.0 
0.0 0.0 -6.959116756397e-04 
-1.326721611229e-03 9.743109485019e-05 0.0 
9.743109485019e-05 8.921087027136e-03 0.0 
0.0 0.0 -1.332621093165e-03 
-1.328526300077e-03 -9.718698781147e-05 0.0 
-9.718698781147e-05 8.927311597372e-03 0.0 
0.0 0.0 -1.332621093165e-03 
-8.193859278094e-05 3.577520009453e-05 0.0 
3.577520009453e-05 3.368763971302e-04 0.0 
0.0 0.0 -8.453455331316e-05 
-1.695924659271e-04 1.267609683743e-04 0.0 
1.267609683743e-04 8.452299049113e-04 0.0 
0.0 0.0 -1.619080202416e-04 
-2.296336673595e-04 1.041833740939e-04 0.0 
1.041833740939e-04 1.224476071287e-03 0.0 
0.0 0.0 -2.266090766362e-04 
-2.971855348456e-04 9.450166671955e-05 0.0 
9.450166671955e-05 1.745895085854e-03 0.0 
0.0 0.0 -2.937643997455e-04 
-3.715291688780e-04 6.977872566520e-05 0.0 
6.977872566520e-05 2.214517262813e-03 0.0 
0.0 0.0 -3.610469555860e-04 
-4.249688263073e-04 6.584730845625e-05 0.0 
6.584730845625e-05 2.664484643095e-03 0.0 
0.0 0.0 -4.277228197774e-04 
-4.875317281638e-04 7.284843635977e-05 0.0 
7.284843635977e-05 3.123402469253e-03 0.0 
0.0 0.0 -4.940119848999e-04 
-5.560650258811e-04 6.506894170195e-05 0.0 
6.506894170195e-05 3.586726731214e-03 0.0 
0.0 0.0 -5.601824523721e-04 
-6.219544696599e-04 6.499150418632e-05 0.0 
6.499150418632e-05 4.044891981262e-03 0.0 
0.0 0.0 -6.267196139102e-04 
-6.989301157160e-04 8.304445482453e-05 0.0 
8.304445482453e-05 4.516508974108e-03 0.0 
0.0 0.0 -6.936951881209e-04 
-7.842461813792e-04 1.250766207627e-04 0.0 
1.250766207627e-04 5.027932232893e-03 0.0 
0.0 0.0 -7.607197531558e-04 
-8.342478146059e-04 1.327780010266e-04 0.0 
1.327780010266e-04 5.490101288131e-03 0.0 
0.0 0.0 -8.270758575053e-04 
-8.797786789152e-04 1.730981527131e-04 0.0 
1.730981527131e-04 5.870913224211e-03 0.0 
0.0 0.0 -8.903361771248e-04 
-9.530636179412e-04 6.774981962024e-05 0.0 
6.774981962024e-05 6.360455625450e-03 0.0 
0.0 0.0 -9.558084330571e-04 
-1.021468397639e-03 6.438406854748e-05 0.0 
6.438406854748e-05 6.838909130196e-03 0.0 
0.0 0.0 -1.024523475697e-03 
-1.087303877607e-03 6.616077821805e-05 0.0 
6.616077821805e-05 7.302617105742e-03 0.0 
0.0 0.0 -1.091244731156e-03 
-1.157611465321e-03 6.099216604961e-05 0.0 
6.099216604961e-05 7.775325521779e-03 0.0 
0.0 0.0 -1.158330123333e-03 
-1.229956863987e-03 7.577779225234e-05 0.0 
7.577779225234e-05 8.251739665694e-03 0.0 
0.0 0.0 -1.226073836101e-03 
-1.285597262298e-03 9.777469733004e-05 0.0 
9.777469733004e-05 8.717344745921e-03 0.0 
0.0 0.0 -1.289832767750e-03 
-1.328056332164e-03 -6.444803612929e-06 0.0 
-6.444803612929e-06 8.942057407760e-03 0.0 
0.0 0.0 -1.336902025401e-03 
-1.335490548137e-03 -3.051268407678e-06 0.0 
-3.051268407678e-06 8.928554519845e-03 0.0 
0.0 0.0 -1.332945767435e-03 
-1.336130347494e-03 -6.396074884476e-05 0.0 
-6.396074884476e-05 8.918857970665e-03 0.0 
0.0 0.0 -1.334903170087e-03 
-1.339230604727e-03 3.012709249351e-05 0.0 
3.012709249351e-05 8.923856553285e-03 0.0 
0.0 0.0 -1.334459899807e-03 
-1.337146058389e-03 -8.398799894874e-06 0.0 
-8.398799894874e-06 8.911324906834e-03 0.0 
0.0 0.0 -1.332067731643e-03 
-1.335355832928e-03 1.075181302724e-06 0.0 
1.075181302724e-06 8.911332561918e-03 0.0 
0.0 0.0 -1.335050935171e-03 
-1.325449513940e-03 2.957247517956e-06 0.0 
2.957247517956e-06 8.920139941522e-03 0.0 
0.0 0.0 -1.335055123498e-03 
-1.337345353037e-03 -9.523690686198e-06 0.0 
-9.523690686198e-06 8.921732771433e-03 0.0 
0.0 0.0 -1.333530254363e-03 
-1.334717977068e-03 -4.294761687245e-05 0.0 
-4.294761687245e-05 8.930458145260e-03 0.0 
0.0 0.0 -1.336259905589e-03 
-1.337792100019e-03 2.741258004611e-05 0.0 
2.741258004611e-05 8.934606220421e-03 0.0 
0.0 0.0 -1.335712483792e-03 
-1.336136187727e-03 -6.884802183740e-06 0.0 
-6.884802183740e-06 8.921957108707e-03 0.0 
0.0 0.0 -1.333313947604e-03 
-1.338126723765e-03 -4.814512478212e-06 0.0 
-4.814512478212e-06 8.924502617003e-03 0.0 
0.0 0.0 -1.335862559377e-03 
-1.327324523368e-03 -1.060172701922e-07 0.0 
-1.060172701922e-07 8.942333996565e-03 0.0 
0.0 0.0 -1.336097458551e-03 
-1.338609928482e-03 -2.842890241030e-06 0.0 
-2.842890241030e-06 8.932107808072e-03 0.0 
0.0 0.0 -1.335235043394e-03 
-1.329400644355e-03 -1.048596426291e-05 0.0 
-1.048596426291e-05 8.921074213048e-03 0.0 
0.0 0.0 -1.334297546486e-03 
-1.338340837827e-03 9.966400157381e-06 0.0 
9.966400157381e-06 8.903421378777e-03 0.0 
0.0 0.0 -1.332308435384e-03 
-1.339067962771e-03 -2.558483156547e-06 0.0 
-2.558483156547e-06 8.895896267544e-03 0.0 
0.0 0.0 -1.332019584455e-03 
-1.327125647707e-03 1.639257363248e-06 0.0 
1.639257363248e-06 8.917700513123e-03 0.0 
0.0 0.0 -1.333392124151e-03 
-1.334568721853e-03 -4.268105943784e-06 0.0 
-4.268105943784e-06 8.928545997729e-03 0.0 
0.0 0.0 -1.334727449481e-03 
-1.336827804858e-03 -5.001027102513e-06 0.0 
-5.001027102513e-06 8.928021219148e-03 0.0 
0.0 0.0 -1.336576889699e-03 
-1.337235537648e-03 1.693416763899e-05 0.0 
1.693416763899e-05 8.930023700079e-03 0.0 
0.0 0.0 -1.335888391555e-03 
-1.331872643832e-03 -1.070662442946e-06 0.0 
-1.070662442946e-06 8.931108733201e-03 0.0 
0.0 0.0 -1.334783226448e-03 
-1.335383687196e-03 3.225376233217e-06 0.0 
3.225376233217e-06 8.925108831379e-03 0.0 
0.0 0.0 -1.335053869153e-03 
-1.335647092676e-03 -1.629379981327e-06 0.0 
-1.629379981327e-06 8.920485307702e-03 0.0 
0.0 0.0 -1.334960189349e-03 
-1.336340449165e-03 -1.285585314758e-06 0.0 
-1.285585314758e-06 8.933772799625e-03 0.0 
0.0 0.0 -1.334889991128e-03 
-1.330589077276e-03 -4.874946038579e-06 0.0 
-4.874946038579e-06 8.935469598915e-03 0.0 
0.0 0.0 -1.335774086633e-03 
-1.341165284707e-03 -5.814943729688e-06 0.0 
-5.814943729688e-06 8.933862901487e-03 0.0 
0.0 0.0 -1.336605656894e-03 
-1.330240946256e-03 -4.520075279769e-06 0.0 
-4.520075279769e-06 8.938118272604e-03 0.0 
0.0 0.0 -1.336508443943e-03 
-1.338673330008e-03 -5.862543655718e-06 0.0 
-5.862543655718e-06 8.942517447788e-03 0.0 
0.0 0.0 -1.335343284290e-03 
-1.336600650314e-03 -3.582742261962e-05 0.0 
-3.582742261962e-05 8.951381047284e-03 0.0 
0.0 0.0 -1.337998490269e-03 
-1.341076503417e-03 3.451828262941e-05 0.0 
3.451828262941e-05 8.946627943271e-03 0.0 
0.0 0.0 -1.337247094005e-03 
-1.334448453648e-03 1.095281049644e-05 0.0 
1.095281049644e-05 8.923080866366e-03 0.0 
0.0 0.0 -1.333783489999e-03 
-1.333263826439e-03 -4.659210696417e-08 0.0 
-4.659210696417e-08 8.908320836892e-03 0.0 
0.0 0.0 -1.334548731617e-03 
-1.334150017560e-03 -8.272198035469e-06 0.0 
-8.272198035469e-06 8.929832025163e-03 0.0 
0.0 0.0 -1.334619746794e-03 
-1.331619300726e-03 -1.909948370258e-06 0.0 
-1.909948370258e-06 8.928586538444e-03 0.0 
0.0 0.0 -1.335242115105e-03 
-1.340870630612e-03 -1.061733168398e-05 0.0 
-1.061733168398e-05 8.926675419192e-03 0.0 
0.0 0.0 -1.335691437541e-03 
-1.329659514104e-03 -2.082049369196e-06 0.0 
-2.082049369196e-06 8.934711562866e-03 0.0 
0.0 0.0 -1.335646478247e-03 
-1.339117702311e-03 -4.029677061326e-07 0.0 
-4.029677061326e-07 8.924836081587e-03 0.0 
0.0 0.0 -1.334931242407e-03 
-1.328302087749e-03 -6.726834891336e-06 0.0 
-6.726834891336e-06 8.915098302923e-03 0.0 
0.0 0.0 -1.334100791702e-03 
-1.338339244626e-03 1.868410609641e-06 0.0 
1.868410609641e-06 8.913909047127e-03 0.0 
0.0 0.0 -1.332237298415e-03 
-1.340573467967e-03 -1.512560094744e-05 0.0 
-1.512560094744e-05 8.916790452845e-03 0.0 
0.0 0.0 -1.333749945600e-03 
-1.332872318884e-03 1.070088453614e-05 0.0 
1.070088453614e-05 8.939654193892e-03 0.0 
0.0 0.0 -1.336652505695e-03 
-1.326343527950e-03 -1.064817557574e-05 0.0 
-1.064817557574e-05 8.953327537606e-03 0.0 
0.0 0.0 -1.337094627689e-03 
-1.334975160234e-03 -1.103658676067e-05 0.0 
-1.103658676067e-05 8.887287544370e-03 0.0 
0.0 0.0 -1.328990728106e-03 
-1.326727222271e-03 3.789706117049e-06 0.0 
3.789706117049e-06 8.937395178325e-03 0.0 
0.0 0.0 -1.335900064369e-03 
-1.338702731113e-03 6.248103656257e-07 0.0 
6.248103656257e-07 8.926718973225e-03 0.0 
0.0 0.0 -1.332523500780e-03 
-1.338833780446e-03 -4.056504769856e-05 0.0 
-4.056504769856e-05 8.921997078910e-03 0.0 
0.0 0.0 -1.335219049675e-03 
-1.336003357241e-03 1.668194413568e-05 0.0 
1.668194413568e-05 8.951047853454e-03 0.0 
0.0 0.0 -1.336566422126e-03 
-1.338588357839e-03 -8.318316932399e-07 0.0 
-8.318316932399e-07 8.955066587464e-03 0.0 
0.0 0.0 -1.335855682064e-03 
-7.644479361830e-04 -7.854511718928e-05 0.0 
-7.854511718928e-05 4.967324475694e-03 0.0 
0.0 0.0 -7.648954205800e-04 
-8.429692067441e-04 -8.894340543493e-05 0.0 
-8.894340543493e-05 5.465473064469e-03 0.0 
0.0 0.0 -8.298981322982e-04 
-9.045101262401e-04 -8.649802336555e-05 0.0 
-8.649802336555e-05 5.927599153875e-03 0.0 
0.0 0.0 -8.959277352460e-04 
-9.682355907570e-04 -9.235019684030e-05 0.0 
-9.235019684030e-05 6.375436758553e-03 0.0 
0.0 0.0 -9.610467530554e-04 
-1.034301386645e-03 -8.131875668407e-05 0.0 
-8.131875668407e-05 6.841207604472e-03 0.0 
0.0 0.0 -1.026987810050e-03 
-1.084652817885e-03 -8.917462571015e-05 0.0 
-8.917462571015e-05 7.307643626561e-03 0.0 
0.0 0.0 -1.092790196867e-03 
-1.153469442186e-03 -7.930470280165e-05 0.0 
-7.930470280165e-05 7.768901773096e-03 0.0 
0.0 0.0 -1.158290425478e-03 
-1.218602686822e-03 -9.135197616384e-05 0.0 
-9.135197616384e-05 8.209166370611e-03 0.0 
0.0 0.0 -1.224481705251e-03 
-1.280117147855e-03 -1.008986322443e-04 0.0 
-1.008986322443e-04 8.709401710635e-03 0.0 
0.0 0.0 -1.288782062784e-03 
-1.752208263143e-05 3.240785673633e-05 0.0 
3.240785673633e-05 1.037696529891e-04 0.0 
0.0 0.0 -2.939528373048e-05 
-6.988773385000e-04 -6.414203901489e-06 0.0 
-6.414203901489e-06 4.541118799231e-03 0.0 
0.0 0.0 -6.945495707198e-04 
-1.068839245990e-04 4.195670543775e-05 0.0 
4.195670543775e-05 4.592598232630e-04 0.0 
0.0 0.0 -1.088012745759e-04 
-1.837805977244e-04 6.636119579700e-05 0.0 
6.636119579700e-05 9.280212819520e-04 0.0 
0.0 0.0 -1.795578361538e-04 
-2.541701604253e-04 6.773423425558e-05 0.0 
6.773423425558e-05 1.406381745625e-03 0.0 
0.0 0.0 -2.466011808795e-04 
-3.308726835263e-04 6.738605727004e-05 0.0 
6.738605727004e-05 1.832720200710e-03 0.0 
0.0 0.0 -3.108790080757e-04 
-3.964115229651e-04 7.265451737655e-05 0.0 
7.265451737655e-05 2.303753556439e-03 0.0 
0.0 0.0 -3.778135794433e-04 
-4.337035427893e-04 1.958624597507e-05 0.0 
1.958624597507e-05 2.773649476937e-03 0.0 
0.0 0.0 -4.435353691508e-04 
-4.761223259385e-04 6.452176696026e-07 0.0 
6.452176696026e-07 3.097474449594e-03 0.0 
0.0 0.0 -4.913636896408e-04 
-5.446829016033e-04 3.333337451636e-07 0.0 
3.333337451636e-07 3.565252150871e-03 0.0 
0.0 0.0 -5.580753662734e-04 
-6.120040484324e-04 -3.148004277915e-06 0.0 
-3.148004277915e-06 4.032884488981e-03 0.0 
0.0 0.0 -6.248674136757e-04 
-4.261628467662e-04 -2.047454746033e-04 0.0 
-2.047454746033e-04 2.864746106553e-03 0.0 
0.0 0.0 -4.488888888889e-04 
-4.966420638955e-04 -1.663109596127e-04 0.0 
-1.663109596127e-04 3.128374407042e-03 0.0 
0.0 0.0 -4.933333333333e-04 
-5.622839918589e-04 -2.001712001392e-04 0.0 
-2.001712001392e-04 3.590232611973e-03 0.0 
0.0 0.0 -5.600000000000e-04 
-6.246804992584e-04 -1.417515320002e-04 0.0 
-1.417515320002e-04 4.042867570769e-03 0.0 
0.0 0.0 -6.266666666667e-04 
-6.913130996727e-04 5.498609571768e-05 0.0 
5.498609571768e-05 4.454824349021e-03 0.0 
0.0 0.0 -6.874962403976e-04 
-6.868874145389e-04 4.265374631682e-06 0.0 
4.265374631682e-06 4.486723904769e-03 0.0 
0.0 0.0 -6.910932206029e-04 
-6.934978988667e-04 4.367505525820e-06 0.0 
4.367505525820e-06 4.491335876748e-03 0.0 
0.0 0.0 -6.911911970487e-04 
-6.907997940409e-04 -7.067285999291e-06 0.0 
-7.067285999291e-06 4.485601554890e-03 0.0 
0.0 0.0 -6.903356507966e-04 
-6.907918205776e-04 4.658551261964e-06 0.0 
4.658551261964e-06 4.562156077984e-03 0.0 
0.0 0.0 -6.980756478071e-04 
-6.892878188424e-04 5.414637571099e-06 0.0 
5.414637571099e-06 4.494915586897e-03 0.0 
0.0 0.0 -6.911448554634e-04 
-6.797647522222e-04 -6.151835168632e-06 0.0 
-6.151835168632e-06 4.487621365133e-03 0.0 
0.0 0.0 -6.903833977050e-04 
-6.832908759363e-04 1.181523808990e-05 0.0 
1.181523808990e-05 4.498914041665e-03 0.0 
0.0 0.0 -6.905588330458e-04 
-6.949806625349e-04 2.423611152395e-06 0.0 
2.423611152395e-06 4.508372842652e-03 0.0 
0.0 0.0 -6.922444453805e-04 
-6.970682970385e-04 1.264857313784e-05 0.0 
1.264857313784e-05 4.510203072304e-03 0.0 
0.0 0.0 -6.916098530255e-04 
-6.888508586807e-04 7.096050778982e-06 0.0 
7.096050778982e-06 4.506612582973e-03 0.0 
0.0 0.0 -6.911665914957e-04 
-6.923116819991e-04 3.442306794673e-06 0.0 
3.442306794673e-06 4.500662587744e-03 0.0 
0.0 0.0 -6.911615840689e-04 
-6.874005628903e-04 1.547082050469e-05 0.0 
1.547082050469e-05 4.496710901947e-03 0.0 
0.0 0.0 -6.914992001314e-04 
-6.904170598993e-04 2.109837221789e-05 0.0 
2.109837221789e-05 4.507680445908e-03 0.0 
0.0 0.0 -6.922481495424e-04 
-2.592440264170e-05 -1.590076434165e-05 0.0 
-1.590076434165e-05 1.361807839619e-04 0.0 
0.0 0.0 -2.981554499673e-05 
-3.446067835921e-05 -4.722769694990e-06 0.0 
-4.722769694990e-06 1.514232641041e-04 0.0 
0.0 0.0 -3.001360406192e-05 
-1.576164107189e-05 6.855840384388e-06 0.0 
6.855840384388e-06 1.420727738414e-04 0.0 
0.0 0.0 -2.891678940537e-05 
-1.058332407340e-05 -2.088674468891e-05 0.0 
-2.088674468891e-05 1.367187831328e-04 0.0 
0.0 0.0 -2.889836327124e-05 
-3.364373544555e-05 -3.089965635258e-05 0.0 
-3.089965635258e-05 1.595260388365e-04 0.0 
0.0 0.0 -3.040745255895e-05 
-4.176671741931e-05 -6.138377296778e-06 0.0 
-6.138377296778e-06 1.798263625009e-04 0.0 
0.0 0.0 -3.068777868300e-05 
-3.824342451581e-05 5.591674158898e-07 0.0 
5.591674158898e-07 1.791426173783e-04 0.0 
0.0 0.0 -3.058835961954e-05 
-3.226360630243e-05 -1.341036859017e-06 0.0 
-1.341036859017e-06 1.722310666212e-04 0.0 
0.0 0.0 -3.053879953887e-05 
-3.075195274388e-05 -3.753502375185e-06 0.0 
-3.753502375185e-06 1.736984769830e-04 0.0 
0.0 0.0 -3.044251428418e-05 
-2.638860610343e-05 -7.894449171806e-06 0.0 
-7.894449171806e-06 1.709687444738e-04 0.0 
0.0 0.0 -3.048531495051e-05 
-2.681419529694e-05 -1.626482453990e-05 0.0 
-1.626482453990e-05 1.776638784057e-04 0.0 
0.0 0.0 -3.060061046523e-05 
-4.178895109071e-05 4.651397470156e-06 0.0 
4.651397470156e-06 1.936858804511e-04 0.0 
0.0 0.0 -3.133350520012e-05 
-3.584663091299e-05 2.920944978626e-05 0.0 
2.920944978626e-05 1.814285478668e-04 0.0 
0.0 0.0 -3.101487170496e-05 
-1.892508329030e-05 9.286208390834e-06 0.0 
9.286208390834e-06 1.578481945027e-04 0.0 
0.0 0.0 -3.010388419214e-05 
-2.660519595212e-05 -4.398298942812e-06 0.0 
-4.398298942812e-06 1.591906609278e-04 0.0 
0.0 0.0 -3.041972112533e-05 
-4.134075465171e-05 1.617060886410e-06 0.0 
1.617060886410e-06 1.756452327158e-04 0.0 
0.0 0.0 -3.060566238437e-05 
-4.636580504523e-05 5.643116689733e-06 0.0 
5.643116689733e-06 1.798643178415e-04 0.0 
0.0 0.0 -3.058114983003e-05 
-3.066571027210e-05 2.752472550755e-05 0.0 
2.752472550755e-05 1.500341931887e-04 0.0 
0.0 0.0 -3.041506914824e-05 
-1.475246436935e-05 4.693943976226e-06 0.0 
4.693943976226e-06 1.322021267255e-04 0.0 
0.0 0.0 -2.944997384815e-05 
-4.705891843009e-04 7.298222888448e-05 0.0 
7.298222888448e-05 2.959135574403e-03 0.0 
0.0 0.0 -4.544444444444e-04 
-4.578340929475e-04 1.364036635894e-05 0.0 
1.364036635894e-05 2.945747827016e-03 0.0 
0.0 0.0 -4.562962962963e-04 
-4.567483093096e-04 -2.557847081566e-06 0.0 
-2.557847081566e-06 2.939403754434e-03 0.0 
0.0 0.0 -4.562962962963e-04 
-4.567324116910e-04 -2.040451105967e-06 0.0 
-2.040451105967e-06 2.939247080197e-03 0.0 
0.0 0.0 -4.562962962963e-04 
-4.570393079224e-04 -1.439987344903e-06 0.0 
-1.439987344903e-06 2.939820263967e-03 0.0 
0.0 0.0 -4.562962962963e-04 
-4.577363650791e-04 -1.089440824585e-06 0.0 
-1.089440824585e-06 2.940742032217e-03 0.0 
0.0 0.0 -4.562962962963e-04 
-4.585490943325e-04 -1.832008337690e-06 0.0 
-1.832008337690e-06 2.941480933017e-03 0.0 
0.0 0.0 -4.562962962963e-04 
-4.588495854301e-04 -2.649493468504e-06 0.0 
-2.649493468504e-06 2.941321033284e-03 0.0 
0.0 0.0 -4.562962962963e-04 
-4.587398867393e-04 -2.268713813205e-06 0.0 
-2.268713813205e-06 2.940922696248e-03 0.0 
0.0 0.0 -4.562962962963e-04 
-4.593789128221e-04 -1.213636634624e-06 0.0 
-1.213636634624e-06 2.941031081065e-03 0.0 
0.0 0.0 -4.562962962963e-04 
-4.600618241898e-04 -9.358637507560e-07 0.0 
-9.358637507560e-07 2.941204455955e-03 0.0 
0.0 0.0 -4.562962962963e-04 
-4.601066049552e-04 -1.347872082478e-06 0.0 
-1.347872082478e-06 2.940693446289e-03 0.0 
0.0 0.0 -4.562962962963e-04 
-4.594433326672e-04 -1.008594440433e-06 0.0 
-1.008594440433e-06 2.938631646670e-03 0.0 
0.0 0.0 -4.562962962963e-04 
-4.585703452547e-04 4.837506529963e-06 0.0 
4.837506529963e-06 2.938835956917e-03 0.0 
0.0 0.0 -4.562962962963e-04 
-4.609233939931e-04 4.996256662682e-06 0.0 
4.996256662682e-06 2.939838211634e-03 0.0 
0.0 0.0 -4.562962962963e-04 
-4.611379987350e-04 1.098362851723e-05 0.0 
1.098362851723e-05 2.944958642013e-03 0.0 
0.0 0.0 -4.562962962963e-04 
-4.651473752373e-04 -5.293305635539e-06 0.0 
-5.293305635539e-06 2.940772650505e-03 0.0 
0.0 0.0 -4.562962962963e-04 
-4.479282665733e-04 2.277218795675e-05 0.0 
2.277218795675e-05 2.942199963402e-03 0.0 
0.0 0.0 -4.562962962963e-04 
-4.467274499634e-04 -2.471823095056e-05 0.0 
-2.471823095056e-05 2.925642320175e-03 0.0 
0.0 0.0 -4.535657596372e-04 
-3.795281287241e-04 -1.576668808876e-05 0.0 
-1.576668808876e-05 2.747376054647e-03 0.0 
0.0 0.0 -4.403099017385e-04 
-4.417760951276e-04 9.193159012092e-06 0.0 
9.193159012092e-06 3.032321566953e-03 0.0 
0.0 0.0 -4.852947845805e-04 
-4.904405177129e-04 -1.236587849357e-05 0.0 
-1.236587849357e-05 3.156055993877e-03 0.0 
0.0 0.0 -4.959669582118e-04 
-4.967982216663e-04 1.212517501771e-05 0.0 
1.212517501771e-05 3.134098180657e-03 0.0 
0.0 0.0 -4.933333333333e-04 
-5.004792842088e-04 7.599146367907e-06 0.0 
7.599146367907e-06 3.126678995157e-03 0.0 
0.0 0.0 -4.933333333333e-04 
-4.960205318575e-04 8.775115201624e-06 0.0 
8.775115201624e-06 3.126031319544e-03 0.0 
0.0 0.0 -4.933333333333e-04 
-4.965309946115e-04 8.850955263351e-07 0.0 
8.850955263351e-07 3.123763413131e-03 0.0 
0.0 0.0 -4.933333333333e-04 
-4.975874164433e-04 -1.339673929123e-06 0.0 
-1.339673929123e-06 3.126915566987e-03 0.0 
0.0 0.0 -4.933333333333e-04 
-4.976423867723e-04 -5.110045370488e-07 0.0 
-5.110045370488e-07 3.127848901976e-03 0.0 
0.0 0.0 -4.933333333333e-04 
-4.971264610240e-04 4.324488759023e-07 0.0 
4.324488759023e-07 3.127700753298e-03 0.0 
0.0 0.0 -4.933333333333e-04 
-4.956643920610e-04 -1.986474812227e-07 0.0 
-1.986474812227e-07 3.126840649999e-03 0.0 
0.0 0.0 -4.933333333333e-04 
-4.952008726881e-04 -2.496870911332e-06 0.0 
-2.496870911332e-06 3.127189740971e-03 0.0 
0.0 0.0 -4.933333333333e-04 
-4.957950968528e-04 -2.119478958632e-06 0.0 
-2.119478958632e-06 3.128109892710e-03 0.0 
0.0 0.0 -4.933333333333e-04 
-4.947282309581e-04 -5.907354459501e-07 0.0 
-5.907354459501e-07 3.127398294072e-03 0.0 
0.0 0.0 -4.933333333333e-04 
-4.939115212163e-04 -6.664772443831e-07 0.0 
-6.664772443831e-07 3.126242560420e-03 0.0 
0.0 0.0 -4.933333333333e-04 
-4.934010452772e-04 -1.579724324278e-06 0.0 
-1.579724324278e-06 3.125563968915e-03 0.0 
0.0 0.0 -4.933333333333e-04 
-4.934695658846e-04 -2.572403036742e-06 0.0 
-2.572403036742e-06 3.125197225552e-03 0.0 
0.0 0.0 -4.933333333333e-04 
-4.937822211755e-04 -5.749801901612e-06 0.0 
-5.749801901612e-06 3.125650090747e-03 0.0 
0.0 0.0 -4.933333333333e-04 
-4.958153218285e-04 -1.294595170899e-05 0.0 
-1.294595170899e-05 3.127747100962e-03 0.0 
0.0 0.0 -4.933333333333e-04 
-4.967157033350e-04 1.051029907090e-04 0.0 
1.051029907090e-04 3.128775367421e-03 0.0 
0.0 0.0 -4.933333333333e-04 
-5.657042211010e-04 7.172061321592e-05 0.0 
7.172061321592e-05 3.594572891729e-03 0.0 
0.0 0.0 -5.600000000000e-04 
-5.606564277312e-04 6.276433509236e-06 0.0 
6.276433509236e-06 3.589330402058e-03 0.0 
0.0 0.0 -5.600000000000e-04 
-5.593036989964e-04 -4.014653548583e-06 0.0 
-4.014653548583e-06 3.587906727700e-03 0.0 
0.0 0.0 -5.600000000000e-04 
-5.598957549005e-04 -3.280148762673e-06 0.0 
-3.280148762673e-06 3.589229298695e-03 0.0 
0.0 0.0 -5.600000000000e-04 
-5.585733264525e-04 -8.759229213482e-07 0.0 
-8.759229213482e-07 3.588940559384e-03 0.0 
0.0 0.0 -5.600000000000e-04 
-5.598002868747e-04 8.805971940142e-07 0.0 
8.805971940142e-07 3.590399635312e-03 0.0 
0.0 0.0 -5.600000000000e-04 
-5.606115027376e-04 2.079665756902e-06 0.0 
2.079665756902e-06 3.592266060973e-03 0.0 
0.0 0.0 -5.600000000000e-04 
-5.616801369451e-04 -2.737332668778e-06 0.0 
-2.737332668778e-06 3.592113678054e-03 0.0 
0.0 0.0 -5.600000000000e-04 
-5.603339834742e-04 8.452896903076e-07 0.0 
8.452896903076e-07 3.589104110669e-03 0.0 
0.0 0.0 -5.600000000000e-04 
-5.630816852247e-04 4.954130230059e-06 0.0 
4.954130230059e-06 3.591539403390e-03 0.0 
0.0 0.0 -5.600000000000e-04 
-5.648651149249e-04 2.409580910900e-06 0.0 
2.409580910900e-06 3.593050534195e-03 0.0 
0.0 0.0 -5.600000000000e-04 
-5.645521133457e-04 1.176363961052e-06 0.0 
1.176363961052e-06 3.591815920478e-03 0.0 
0.0 0.0 -5.600000000000e-04 
-5.658777849897e-04 2.204939376018e-07 0.0 
2.204939376018e-07 3.591458064609e-03 0.0 
0.0 0.0 -5.600000000000e-04 
-5.646691075266e-04 1.488981984672e-06 0.0 
1.488981984672e-06 3.584085442749e-03 0.0 
0.0 0.0 -5.600000000000e-04 
-5.620855148441e-04 2.241238949414e-05 0.0 
2.241238949414e-05 3.592013185388e-03 0.0 
0.0 0.0 -5.600000000000e-04 
-5.610961373633e-04 -4.661019393758e-06 0.0 
-4.661019393758e-06 3.625654344184e-03 0.0 
0.0 0.0 -5.626724975705e-04 
-5.133198511328e-04 5.424589988168e-06 0.0 
5.424589988168e-06 3.504617598641e-03 0.0 
0.0 0.0 -5.520068027211e-04 
-5.819676487162e-04 1.621050128568e-05 0.0 
1.621050128568e-05 3.968047816962e-03 0.0 
0.0 0.0 -6.186195084094e-04 
-6.343601883411e-04 -2.324978129448e-06 0.0 
-2.324978129448e-06 4.083322615344e-03 0.0 
0.0 0.0 -6.292929119699e-04 
-6.353679309005e-04 1.165699384264e-05 0.0 
1.165699384264e-05 4.057988551565e-03 0.0 
0.0 0.0 -6.266666666667e-04 
-6.295881338101e-04 1.024053571249e-05 0.0 
1.024053571249e-05 4.054182088558e-03 0.0 
0.0 0.0 -6.266666666667e-04 
-6.303664344858e-04 2.787103354708e-06 0.0 
2.787103354708e-06 4.057331405365e-03 0.0 
0.0 0.0 -6.266666666667e-04 
-6.305754933791e-04 7.671505889705e-06 0.0 
7.671505889705e-06 4.059447051202e-03 0.0 
0.0 0.0 -6.266666666667e-04 
-6.287463439774e-04 1.022004490747e-05 0.0 
1.022004490747e-05 4.054187203252e-03 0.0 
0.0 0.0 -6.266666666667e-04 
-6.280820473115e-04 -9.030982197011e-07 0.0 
-9.030982197011e-07 4.053941923266e-03 0.0 
0.0 0.0 -6.266666666667e-04 
-6.225272954156e-04 4.628296295670e-06 0.0 
4.628296295670e-06 4.057329077379e-03 0.0 
0.0 0.0 -6.266666666667e-04 
-6.249534833788e-04 2.617162153450e-07 0.0 
2.617162153450e-07 4.054948637219e-03 0.0 
0.0 0.0 -6.266666666667e-04 
-6.238122874529e-04 2.229418647929e-06 0.0 
2.229418647929e-06 4.053346801204e-03 0.0 
0.0 0.0 -6.266666666667e-04 
-6.234471408791e-04 -7.779197921569e-06 0.0 
-7.779197921569e-06 4.052220848929e-03 0.0 
0.0 0.0 -6.266666666667e-04 
-6.264844917596e-04 -3.145348628054e-06 0.0 
-3.145348628054e-06 4.054722692316e-03 0.0 
0.0 0.0 -6.266666666667e-04 
-6.251160575234e-04 -9.858748010009e-06 0.0 
-9.858748010009e-06 4.049423160403e-03 0.0 
0.0 0.0 -6.266666666667e-04 
-6.286316808084e-04 -3.394218781005e-05 0.0 
-3.394218781005e-05 4.059813257993e-03 0.0 
0.0 0.0 -6.266666666667e-04 
-6.381641142781e-04 1.124153375325e-04 0.0 
1.124153375325e-04 4.068774124134e-03 0.0 
0.0 0.0 -6.266666666667e-04 
-6.112648154110e-05 2.057582376640e-05 0.0 
2.057582376640e-05 2.373049901765e-04 0.0 
0.0 0.0 -7.119425116788e-05 
-1.546216371726e-04 6.400049167790e-05 0.0 
6.400049167790e-05 7.010998205819e-04 0.0 
0.0 0.0 -1.457676002711e-04 
-2.180259668060e-04 8.313364542166e-05 0.0 
8.313364542166e-05 1.168903010383e-03 0.0 
0.0 0.0 -2.130143027807e-04 
-2.888761379291e-04 8.199755792821e-05 0.0 
8.199755792821e-05 1.646730006386e-03 0.0 
0.0 0.0 -2.801731950103e-04 
-3.556189171031e-04 3.435503475525e-05 0.0 
3.435503475525e-05 2.100711759407e-03 0.0 
0.0 0.0 -3.440931072323e-04 
-4.072044444476e-04 4.893832875795e-05 0.0 
4.893832875795e-05 2.564834203635e-03 0.0 
0.0 0.0 -4.108392228286e-04 
-4.339038949759e-04 2.050581845431e-05 0.0 
2.050581845431e-05 2.896351248714e-03 0.0 
0.0 0.0 -4.650267612653e-04 
-4.998008163795e-04 2.874356037189e-05 0.0 
2.874356037189e-05 3.362017349155e-03 0.0 
0.0 0.0 -5.317697887215e-04 
-5.672864552025e-04 2.278912112813e-05 0.0 
2.278912112813e-05 3.826790215475e-03 0.0 
0.0 0.0 -5.985602557689e-04 
-6.332370943918e-04 2.492629895563e-05 0.0 
2.492629895563e-05 4.302559779817e-03 0.0 
0.0 0.0 -6.652967104836e-04 
-1.935964666812e-04 2.967460992316e-06 0.0 
2.967460992316e-06 9.892888486110e-04 0.0 
0.0 0.0 -1.870278901045e-04 
-1.298255034363e-03 -1.439677610187e-05 0.0 
-1.439677610187e-05 8.770849623045e-03 0.0 
0.0 0.0 -1.303388942653e-03 
-5.711706292193e-05 -1.132529147633e-05 0.0 
-1.132529147633e-05 2.965576224762e-04 0.0 
0.0 0.0 -5.718844814378e-05 
-5.424579011881e-05 -2.911933097958e-05 0.0 
-2.911933097958e-05 2.725297638317e-04 0.0 
0.0 0.0 -5.560925106410e-05 
-1.303094143304e-03 2.083700262783e-05 0.0 
2.083700262783e-05 8.775603321897e-03 0.0 
0.0 0.0 -1.303360877099e-03 
-3.337502689384e-04 2.573658945227e-05 0.0 
2.573658945227e-05 1.945399262405e-03 0.0 
0.0 0.0 -3.213286234882e-04 
-7.420382513691e-04 -8.331648497424e-06 0.0 
-8.331648497424e-06 4.783425200817e-03 0.0 
0.0 0.0 -7.300567563597e-04 
-1.300502925116e-03 1.312346542057e-05 0.0 
1.312346542057e-05 8.760360600138e-03 0.0 
0.0 0.0 -1.300998267065e-03 
-4.558051091763e-04 -3.180946065212e-05 0.0 
-3.180946065212e-05 2.815581106164e-03 0.0 
0.0 0.0 -4.497936382440e-04 
-1.301730818783e-03 3.906861163014e-06 0.0 
3.906861163014e-06 8.781071212001e-03 0.0 
0.0 0.0 -1.304014651794e-03 
-5.931132187703e-04 3.451249603952e-06 0.0 
3.451249603952e-06 3.770920661498e-03 0.0 
0.0 0.0 -5.857980290939e-04 
-1.294626432424e-03 1.231524946250e-05 0.0 
1.231524946250e-05 8.803233335001e-03 0.0 
0.0 0.0 -1.307658508868e-03 
-5.100449476858e-05 8.243347627931e-06 0.0 
8.243347627931e-06 2.661035943334e-04 0.0 
0.0 0.0 -5.457498774670e-05 
-1.304712708061e-03 6.002193481847e-06 0.0 
6.002193481847e-06 8.782841008775e-03 0.0 
0.0 0.0 -1.304481600125e-03 
-7.263025570845e-04 1.579439830825e-05 0.0 
1.579439830825e-05 4.732739805173e-03 0.0 
0.0 0.0 -7.203075318094e-04 
-4.572752679378e-04 6.754709539216e-06 0.0 
6.754709539216e-06 2.913924238746e-03 0.0 
0.0 0.0 -4.640473930190e-04 
-9.144584483086e-04 1.326427603790e-05 0.0 
1.326427603790e-05 6.048992087784e-03 0.0 
0.0 0.0 -9.125512086551e-04 
-1.295486455605e-03 -9.635721854317e-06 0.0 
-9.635721854317e-06 8.767400550756e-03 0.0 
0.0 0.0 -1.301280071178e-03 
-1.304620553661e-03 1.736330334082e-05 0.0 
1.736330334082e-05 8.785218481020e-03 0.0 
0.0 0.0 -1.304294760550e-03 
-1.308798115864e-03 -1.758872586472e-05 0.0 
-1.758872586472e-05 8.782113468746e-03 0.0 
0.0 0.0 -1.303238611779e-03 
-1.297364651419e-03 1.079949245934e-05 0.0 
1.079949245934e-05 8.741492182535e-03 0.0 
0.0 0.0 -1.297727402575e-03 
-1.310467176952e-03 -2.184753791196e-05 0.0 
-2.184753791196e-05 8.795852425490e-03 0.0 
0.0 0.0 -1.305306183856e-03 
-7.504043158260e-04 1.146340899483e-05 0.0 
1.146340899483e-05 4.928957716144e-03 0.0 
0.0 0.0 -7.522011426764e-04 
-7.523353912946e-04 1.162137769546e-05 0.0 
1.162137769546e-05 4.926512636401e-03 0.0 
0.0 0.0 -7.529849494387e-04 
-7.546537283985e-04 -1.241349829200e-05 0.0 
-1.241349829200e-05 4.950472109635e-03 0.0 
0.0 0.0 -7.580270452736e-04 
-9.976077557880e-04 -3.465320003220e-05 0.0 
-3.465320003220e-05 6.602229680106e-03 0.0 
0.0 0.0 -9.950081682429e-04 
-1.300592036334e-03 -1.108396441711e-05 0.0 
-1.108396441711e-05 8.788475349475e-03 0.0 
0.0 0.0 -1.302874185639e-03 
-4.947082956208e-05 -1.829296119630e-05 0.0 
-1.829296119630e-05 2.690780974868e-04 0.0 
0.0 0.0 -5.461765089469e-05 
-6.582489508630e-05 5.524694071904e-06 0.0 
5.524694071904e-06 3.064286723342e-04 0.0 
0.0 0.0 -5.841730026856e-05 
-1.120911548220e-03 -1.158571369125e-06 0.0 
-1.158571369125e-06 7.515613535503e-03 0.0 
0.0 0.0 -1.122886395833e-03 
-7.582082522979e-04 1.961281355476e-05 0.0 
1.961281355476e-05 4.902933380827e-03 0.0 
0.0 0.0 -7.500338828344e-04 
-2.694321437334e-04 2.278372598534e-06 0.0 
2.278372598534e-06 1.494554554088e-03 0.0 
0.0 0.0 -2.594501920933e-04 
-1.298427704971e-03 5.282056354333e-06 0.0 
5.282056354333e-06 8.696713485831e-03 0.0 
0.0 0.0 -1.293200138473e-03 
-1.306703206650e-03 1.354031549595e-05 0.0 
1.354031549595e-05 8.802982423650e-03 0.0 
0.0 0.0 -1.307307853467e-03 
-1.306558631645e-03 5.032010017837e-06 0.0 
5.032010017837e-06 8.775985095811e-03 0.0 
0.0 0.0 -1.304733450272e-03 
-1.299335994773e-03 1.249139207269e-05 0.0 
1.249139207269e-05 8.749655727550e-03 0.0 
0.0 0.0 -1.297928233296e-03 
-1.308929768589e-03 -1.641174944338e-05 0.0 
-1.641174944338e-05 8.785621003878e-03 0.0 
0.0 0.0 -1.305578568836e-03 
-6.266603041308e-05 2.501207789151e-06 0.0 
2.501207789151e-06 3.071735198218e-04 0.0 
0.0 0.0 -5.851952868526e-05 
-7.474245186294e-04 1.424161896037e-05 0.0 
1.424161896037e-05 4.916877911110e-03 0.0 
0.0 0.0 -7.500980793755e-04 
-1.296702677324e-03 1.017615489427e-05 0.0 
1.017615489427e-05 8.704965271547e-03 0.0 
0.0 0.0 -1.293180865222e-03 
-1.128899365850e-03 -3.031105506872e-05 0.0 
-3.031105506872e-05 7.537413441575e-03 0.0 
0.0 0.0 -1.123598490052e-03 
-5.732050020511e-05 -1.482205262677e-05 0.0 
-1.482205262677e-05 2.925850224953e-04 0.0 
0.0 0.0 -5.798785095132e-05 
-5.914251289981e-04 -6.471482804739e-06 0.0 
-6.471482804739e-06 3.820964198355e-03 0.0 
0.0 0.0 -5.937437734062e-04 
-1.319868342544e-03 -1.044247080556e-05 0.0 
-1.044247080556e-05 8.859569502417e-03 0.0 
0.0 0.0 -1.311981303940e-03 
-4.039407312574e-04 -1.513566039237e-05 0.0 
-1.513566039237e-05 2.425755132442e-03 0.0 
0.0 0.0 -3.897472533596e-04 
-2.622920170020e-04 7.443498411069e-06 0.0 
7.443498411069e-06 1.467365751784e-03 0.0 
0.0 0.0 -2.548795656134e-04 
-5.270389969687e-04 -7.501595445451e-06 0.0 
-7.501595445451e-06 3.294996993381e-03 0.0 
0.0 0.0 -5.178568985205e-04 
-6.568994839779e-04 -7.061170510265e-06 0.0 
-7.061170510265e-06 4.237934581571e-03 0.0 
0.0 0.0 -6.527703211191e-04 
-1.172487669235e-04 -1.455488225111e-05 0.0 
-1.455488225111e-05 4.809709659116e-04 0.0 
0.0 0.0 -1.118557093815e-04 
-8.696005125465e-04 -8.177489350787e-06 0.0 
-8.177489350787e-06 5.725890687358e-03 0.0 
0.0 0.0 -8.684787984471e-04 
-1.317974587429e-03 -1.269961975259e-05 0.0 
-1.269961975259e-05 8.865515668911e-03 0.0 
0.0 0.0 -1.313906642692e-03 
-5.185989643578e-05 2.926503183834e-05 0.0 
2.926503183834e-05 2.746618289318e-04 0.0 
0.0 0.0 -5.836448670120e-05 
-1.244012605559e-03 -1.337379541830e-07 0.0 
-1.337379541830e-07 8.417025004517e-03 0.0 
0.0 0.0 -1.253930875827e-03 
-7.490231005429e-04 1.074391793060e-05 0.0 
1.074391793060e-05 4.928373640173e-03 0.0 
0.0 0.0 -7.532271817479e-04 
-7.806985373677e-04 4.966139412123e-06 0.0 
4.966139412123e-06 5.109831204569e-03 0.0 
0.0 0.0 -7.809350190597e-04 
-8.062001814621e-04 2.173167671068e-05 0.0 
2.173167671068e-05 5.343609321704e-03 0.0 
0.0 0.0 -8.115578932774e-04 
-8.489268176994e-04 -8.110940848539e-06 0.0 
-8.110940848539e-06 5.566485028911e-03 0.0 
0.0 0.0 -8.428390908522e-04 
-8.804673106023e-04 1.251244415452e-07 0.0 
1.251244415452e-07 5.795279077470e-03 0.0 
0.0 0.0 -8.784658474099e-04 
-9.121627378671e-04 -7.430796722992e-06 0.0 
-7.430796722992e-06 6.000836909727e-03 0.0 
0.0 0.0 -9.060409163497e-04 
-8.756777626728e-04 -7.143189004675e-06 0.0 
-7.143189004675e-06 5.761383353658e-03 0.0 
0.0 0.0 -8.711257577414e-04 
-9.375016757267e-04 -9.018261483619e-06 0.0 
-9.018261483619e-06 6.200512371454e-03 0.0 
0.0 0.0 -9.341442283280e-04 
-9.034456709669e-04 -5.627619604456e-06 0.0 
-5.627619604456e-06 5.955351813444e-03 0.0 
0.0 0.0 -8.989774131092e-04 
-9.375397006910e-04 -9.487100187187e-06 0.0 
-9.487100187187e-06 6.248793060300e-03 0.0 
0.0 0.0 -9.415083590319e-04 
-9.651447206159e-04 -1.078565163385e-05 0.0 
-1.078565163385e-05 6.396664073004e-03 0.0 
0.0 0.0 -9.622976032585e-04 
-9.304266532056e-04 -6.330576673760e-06 0.0 
-6.330576673760e-06 6.148924780633e-03 0.0 
0.0 0.0 -9.268639294333e-04 
-9.923459703203e-04 -8.832674575488e-06 0.0 
-8.832674575488e-06 6.591396283471e-03 0.0 
0.0 0.0 -9.903372159162e-04 
-9.579486406670e-04 -6.976346530305e-06 0.0 
-6.976346530305e-06 6.343540435811e-03 0.0 
0.0 0.0 -9.547708836903e-04 
-8.957338589247e-04 -3.445195682093e-06 0.0 
-3.445195682093e-06 5.904490313780e-03 0.0 
0.0 0.0 -8.916807130883e-04 
-9.234034349690e-04 -3.140263271692e-06 0.0 
-3.140263271692e-06 6.097553141781e-03 0.0 
0.0 0.0 -9.194532194038e-04 
-8.597658352201e-04 -5.745984388006e-07 0.0 
-5.745984388006e-07 5.659471370407e-03 0.0 
0.0 0.0 -8.565021464485e-04 
-8.876676417698e-04 -1.521204235315e-06 0.0 
-1.521204235315e-06 5.852313305850e-03 0.0 
0.0 0.0 -8.841639842141e-04 
-9.508204613182e-04 -2.297031587627e-06 0.0 
-2.297031587627e-06 6.292146332209e-03 0.0 
0.0 0.0 -9.471984275390e-04 
-9.148993498349e-04 -3.275082318902e-06 0.0 
-3.275082318902e-06 6.045345094116e-03 0.0 
0.0 0.0 -9.118195294070e-04 
-8.520584533063e-04 -1.219021611571e-06 0.0 
-1.219021611571e-06 5.605756351829e-03 0.0 
0.0 0.0 -8.488396520500e-04 
-8.789321886970e-04 -2.050593653236e-06 0.0 
-2.050593653236e-06 5.797286878756e-03 0.0 
0.0 0.0 -8.764089341820e-04 
-8.161164546335e-04 3.435109532192e-07 0.0 
3.435109532192e-07 5.359457664966e-03 0.0 
0.0 0.0 -8.135623229517e-04 
-8.427829602136e-04 -1.073992276182e-06 0.0 
-1.073992276182e-06 5.550412011619e-03 0.0 
0.0 0.0 -8.410744910442e-04 
-7.803403629458e-04 1.482617336384e-07 0.0 
1.482617336384e-07 5.112144953619e-03 0.0 
0.0 0.0 -7.781617608290e-04 
-8.069161494671e-04 -9.832122125770e-07 0.0 
-9.832122125770e-07 5.303670065228e-03 0.0 
0.0 0.0 -8.056965831182e-04 
-8.693622760752e-04 -2.102828341541e-06 0.0 
-2.102828341541e-06 5.742393281941e-03 0.0 
0.0 0.0 -8.686949506212e-04 
-8.339431778097e-04 -6.526060624200e-07 0.0 
-6.526060624200e-07 5.495228078517e-03 0.0 
0.0 0.0 -8.332427817419e-04 
-7.711323033224e-04 2.736293388891e-07 0.0 
2.736293388891e-07 5.056666474078e-03 0.0 
0.0 0.0 -7.703313069557e-04 
-7.984646574761e-04 4.457733912410e-07 0.0 
4.457733912410e-07 5.248286890054e-03 0.0 
0.0 0.0 -7.977945042040e-04 
-7.355637814562e-04 1.290713586092e-06 0.0 
1.290713586092e-06 4.810484252267e-03 0.0 
0.0 0.0 -7.349073124327e-04 
-7.625544307914e-04 1.894462684329e-06 0.0 
1.894462684329e-06 4.999988831075e-03 0.0 
0.0 0.0 -7.622392297106e-04 
-8.257237067376e-04 1.120212681241e-06 0.0 
1.120212681241e-06 5.439584299338e-03 0.0 
0.0 0.0 -8.253152238873e-04 
-7.900934727742e-04 5.597935307225e-07 0.0 
5.597935307225e-07 5.191568262959e-03 0.0 
0.0 0.0 -7.896995018144e-04 
-7.266613947029e-04 4.187926819440e-07 0.0 
4.187926819440e-07 4.748654817893e-03 0.0 
0.0 0.0 -7.264132926704e-04 
-7.549260771137e-04 -7.052768559295e-07 0.0 
-7.052768559295e-07 4.942867002026e-03 0.0 
0.0 0.0 -7.539848323805e-04 
-6.914939078145e-04 -3.149044509631e-06 0.0 
-3.149044509631e-06 4.497991263930e-03 0.0 
0.0 0.0 -6.903858661722e-04 
-7.195945743336e-04 -6.350033754513e-09 0.0 
-6.350033754513e-09 4.694794432778e-03 0.0 
0.0 0.0 -7.182351804274e-04 
-6.554914090724e-04 -2.338725356747e-06 0.0 
-2.338725356747e-06 4.247612436471e-03 0.0 
0.0 0.0 -6.542402593883e-04 
-6.835277346369e-04 5.013350338706e-07 0.0 
5.013350338706e-07 4.443250069824e-03 0.0 
0.0 0.0 -6.821763112594e-04 
-7.475539329935e-04 -2.134179080383e-07 0.0 
-2.134179080383e-07 4.889262543532e-03 0.0 
0.0 0.0 -7.460902125261e-04 
-7.115638396740e-04 -9.716415016317e-07 0.0 
-9.716415016317e-07 4.638756710994e-03 0.0 
0.0 0.0 -7.100832486075e-04 
-6.472258987921e-04 -7.491708784541e-07 0.0 
-7.491708784541e-07 4.191362599469e-03 0.0 
0.0 0.0 -6.458624074531e-04 
-6.748538623222e-04 -1.344545062168e-06 0.0 
-1.344545062168e-06 4.385359401490e-03 0.0 
0.0 0.0 -6.737786430284e-04 
-7.391037565522e-04 -1.870094726724e-06 0.0 
-1.870094726724e-06 4.833803711944e-03 0.0 
0.0 0.0 -7.381473126730e-04 
-7.024920060125e-04 -1.771787760386e-06 0.0 
-1.771787760386e-06 4.579736205562e-03 0.0 
0.0 0.0 -7.017500108595e-04 
-7.668451599419e-04 -2.200372036207e-06 0.0 
-2.200372036207e-06 5.029184891420e-03 0.0 
0.0 0.0 -7.662494016216e-04 
-7.304037803269e-04 -1.328124908122e-06 0.0 
-1.328124908122e-06 4.775158829539e-03 0.0 
0.0 0.0 -7.297828278826e-04 
-6.661738894366e-04 -1.523527640984e-06 0.0 
-1.523527640984e-06 4.327585164653e-03 0.0 
0.0 0.0 -6.655364893108e-04 
-6.940255140087e-04 -3.189861404587e-07 0.0 
-3.189861404587e-07 4.522445273198e-03 0.0 
0.0 0.0 -6.934067383651e-04 
-7.582740677644e-04 -6.702170425945e-07 0.0 
-6.702170425945e-07 4.970550121083e-03 0.0 
0.0 0.0 -7.577868799165e-04 
-7.219132454206e-04 -3.552688473147e-07 0.0 
-3.552688473147e-07 4.715591284681e-03 0.0 
0.0 0.0 -7.212202614536e-04 
-6.579749567302e-04 -8.528343255416e-07 0.0 
-8.528343255416e-07 4.269380617602e-03 0.0 
0.0 0.0 -6.571136838490e-04 
-6.854396942303e-04 1.404532946379e-06 0.0 
1.404532946379e-06 4.463099019341e-03 0.0 
0.0 0.0 -6.848379476561e-04 
-7.499209568980e-04 9.788669448943e-07 0.0 
9.788669448943e-07 4.910836491420e-03 0.0 
0.0 0.0 -7.491645792950e-04 
-7.130866886284e-04 2.531462605068e-06 0.0 
2.531462605068e-06 4.656380230421e-03 0.0 
0.0 0.0 -7.127097857715e-04 
-6.490463142765e-04 2.026928070045e-06 0.0 
2.026928070045e-06 4.209801950481e-03 0.0 
0.0 0.0 -6.486049398320e-04 
-6.764658608434e-04 3.508718195960e-06 0.0 
3.508718195960e-06 4.404145734277e-03 0.0 
0.0 0.0 -6.763006240845e-04 
-7.410587565243e-04 2.977071001621e-06 0.0 
2.977071001621e-06 4.853988703533e-03 0.0 
0.0 0.0 -7.409416231994e-04 
-7.040690402047e-04 2.351563892333e-06 0.0 
2.351563892333e-06 4.597607851949e-03 0.0 
0.0 0.0 -7.042275185679e-04 
-6.395068044754e-04 3.551759029581e-06 0.0 
3.551759029581e-06 4.148883800447e-03 0.0 
0.0 0.0 -6.398389559308e-04 
-6.666949009551e-04 4.033462501374e-06 0.0 
4.033462501374e-06 4.341905952590e-03 0.0 
0.0 0.0 -6.674633383154e-04 
-7.319239687128e-04 2.339911819127e-06 0.0 
2.339911819127e-06 4.794577675996e-03 0.0 
0.0 0.0 -7.324886333286e-04 
-6.941465830900e-04 3.043408887515e-06 0.0 
3.043408887515e-06 4.534944571325e-03 0.0 
0.0 0.0 -6.954027321055e-04 
-7.599625173411e-04 1.739203305330e-06 0.0 
1.739203305330e-06 4.991507953981e-03 0.0 
0.0 0.0 -7.608997874520e-04 
-6.288087524291e-04 4.620726933368e-06 0.0 
4.620726933368e-06 4.080538413552e-03 0.0 
0.0 0.0 -6.302092384919e-04 
-6.562200550336e-04 2.527596513767e-06 0.0 
2.527596513767e-06 4.273760246295e-03 0.0 
0.0 0.0 -6.580989212857e-04 
-5.905021683275e-04 5.113861583962e-06 0.0 
5.113861583962e-06 3.817210818870e-03 0.0 
0.0 0.0 -5.925517106747e-04 
-6.180070563344e-04 1.748353135852e-06 0.0 
1.748353135852e-06 4.012241935297e-03 0.0 
0.0 0.0 -6.207111136070e-04 
-8.536335610934e-04 1.348609631238e-06 0.0 
1.348609631238e-06 5.632618076260e-03 0.0 
0.0 0.0 -8.529317679587e-04 
-5.517808621481e-04 4.295824092782e-06 0.0 
4.295824092782e-06 3.553884541992e-03 0.0 
0.0 0.0 -5.549884598765e-04 
-5.256512596245e-04 6.824695261327e-06 0.0 
6.824695261327e-06 3.365117692800e-03 0.0 
0.0 0.0 -5.276250340903e-04 
-5.798411198688e-04 -4.887552469873e-09 0.0 
-4.887552469873e-09 3.751124839276e-03 0.0 
0.0 0.0 -5.833260987948e-04 
-6.468648656294e-04 -6.634229100666e-07 0.0 
-6.634229100666e-07 4.212613913655e-03 0.0 
0.0 0.0 -6.493616581942e-04 
-5.137698154976e-04 1.586824553395e-06 0.0 
1.586824553395e-06 3.290773483107e-03 0.0 
0.0 0.0 -5.173870653820e-04 
-5.418307247046e-04 -1.136001153091e-06 0.0 
-1.136001153091e-06 3.490016299043e-03 0.0 
0.0 0.0 -5.459094278256e-04 
-4.770030151011e-04 2.075579507917e-06 0.0 
2.075579507917e-06 3.029794249274e-03 0.0 
0.0 0.0 -4.798161731008e-04 
-6.265889875599e-04 -3.099894472635e-06 0.0 
-3.099894472635e-06 4.044775427509e-03 0.0 
0.0 0.0 -6.252159162693e-04 
-9.779259260500e-04 -4.603917606303e-06 0.0 
-4.603917606303e-06 6.486620776824e-03 0.0 
0.0 0.0 -9.750716696758e-04 
-5.048311626822e-04 8.069914569390e-07 0.0 
8.069914569390e-07 3.230775089179e-03 0.0 
0.0 0.0 -5.084495576641e-04 
-4.414277464692e-04 -9.314775103287e-07 0.0 
-9.314775103287e-07 2.769397101649e-03 0.0 
0.0 0.0 -4.423119711188e-04 
-4.126781969750e-04 2.777234300813e-06 0.0 
2.777234300813e-06 2.568725273303e-03 0.0 
0.0 0.0 -4.136824817550e-04 
-3.752383636154e-04 2.627021531009e-07 0.0 
2.627021531009e-07 2.307149796782e-03 0.0 
0.0 0.0 -3.761903503575e-04 
-9.032923406135e-04 -1.942635711141e-05 0.0 
-1.942635711141e-05 6.054768473392e-03 0.0 
0.0 0.0 -9.126358703463e-04 
-9.750351070606e-04 8.331650577878e-07 0.0 
8.331650577878e-07 6.501449499714e-03 0.0 
0.0 0.0 -9.772611937912e-04 
-9.426936007589e-04 -8.476577603347e-06 0.0 
-8.476577603347e-06 6.285634427722e-03 0.0 
0.0 0.0 -9.468612964576e-04 
-1.013350986754e-03 -2.420793703441e-06 0.0 
-2.420793703441e-06 6.752430832338e-03 0.0 
0.0 0.0 -1.012955122490e-03 
-9.819905249802e-04 -9.218190891348e-06 0.0 
-9.218190891348e-06 6.546568860747e-03 0.0 
0.0 0.0 -9.835180958883e-04 
-4.033189249179e-04 -7.405594451634e-06 0.0 
-7.405594451634e-06 2.507023825451e-03 0.0 
0.0 0.0 -4.047791634435e-04 
-1.026297749493e-03 -7.873848128132e-06 0.0 
-7.873848128132e-06 6.842470359288e-03 0.0 
0.0 0.0 -1.026687169009e-03 
-1.041976492741e-03 3.297528438812e-06 0.0 
3.297528438812e-06 6.953471480802e-03 0.0 
0.0 0.0 -1.042264213861e-03 
-7.894126093117e-04 1.238093184233e-06 0.0 
1.238093184233e-06 5.169984540206e-03 0.0 
0.0 0.0 -7.861871271282e-04 
-7.083334352114e-04 1.160791963840e-06 0.0 
1.160791963840e-06 4.619009573669e-03 0.0 
0.0 0.0 -7.076088937226e-04 
-8.034448321062e-04 -3.641604808746e-06 0.0 
-3.641604808746e-06 5.283437919380e-03 0.0 
0.0 0.0 -8.027518904046e-04 
-5.699317647335e-04 -5.077104347272e-06 0.0 
-5.077104347272e-06 3.690391390143e-03 0.0 
0.0 0.0 -5.745905038755e-04 
-5.325923514100e-04 1.264931689767e-06 0.0 
1.264931689767e-06 3.434700451156e-03 0.0 
0.0 0.0 -5.371338854166e-04 
-6.021414154153e-04 -1.123287284887e-05 0.0 
-1.123287284887e-05 3.895898666929e-03 0.0 
0.0 0.0 -6.033452624549e-04 
-7.975586205945e-04 7.346724402819e-07 0.0 
7.346724402819e-07 5.250837552225e-03 0.0 
0.0 0.0 -7.980428604176e-04 
-8.260589898796e-04 8.470418803898e-07 0.0 
8.470418803898e-07 5.449813526142e-03 0.0 
0.0 0.0 -8.266132305475e-04 
-8.633840041631e-04 4.108677631330e-07 0.0 
4.108677631330e-07 5.709024598085e-03 0.0 
0.0 0.0 -8.638188500004e-04 
-8.921637692903e-04 4.125221993883e-07 0.0 
4.125221993883e-07 5.908664068470e-03 0.0 
0.0 0.0 -8.924533907576e-04 
-9.293171742377e-04 3.033539280725e-07 0.0 
3.033539280725e-07 6.168083546012e-03 0.0 
0.0 0.0 -9.297164513315e-04 
-9.582709124814e-04 8.513827699182e-07 0.0 
8.513827699182e-07 6.368400937687e-03 0.0 
0.0 0.0 -9.583747859490e-04 
-9.209100768105e-04 -4.256218772018e-07 0.0 
-4.256218772018e-07 6.108351576790e-03 0.0 
0.0 0.0 -9.210728288235e-04 
-9.873571107966e-04 -7.195723232200e-07 0.0 
-7.195723232200e-07 6.568673837727e-03 0.0 
0.0 0.0 -9.870277070005e-04 
-9.496224461858e-04 -1.641275594905e-06 0.0 
-1.641275594905e-06 6.308003890192e-03 0.0 
0.0 0.0 -9.497007337289e-04 
-9.952004913145e-04 1.269240357804e-06 0.0 
1.269240357804e-06 6.627713601016e-03 0.0 
0.0 0.0 -9.956835613869e-04 
-9.665012269537e-04 -8.709086142663e-07 0.0 
-8.709086142663e-07 6.427165842683e-03 0.0 
0.0 0.0 -9.668198671257e-04 
-1.015999965498e-03 -2.659789521343e-06 0.0 
-2.659789521343e-06 6.768164853945e-03 0.0 
0.0 0.0 -1.015681523326e-03 
-9.780689760981e-04 -1.773026811881e-06 0.0 
-1.773026811881e-06 6.507705614272e-03 0.0 
0.0 0.0 -9.783260305705e-04 
-1.043750394909e-03 -2.772279525245e-06 0.0 
-2.772279525245e-06 6.967527210065e-03 0.0 
0.0 0.0 -1.044362401637e-03 
-1.005977853166e-03 -2.262113223733e-06 0.0 
-2.262113223733e-06 6.706658029639e-03 0.0 
0.0 0.0 -1.007007767922e-03 
-9.404749716457e-04 -1.193534276169e-06 0.0 
-1.193534276169e-06 6.246239019973e-03 0.0 
0.0 0.0 -9.408676861799e-04 
-9.684909118554e-04 -8.529271608880e-07 0.0 
-8.529271608880e-07 6.444829778042e-03 0.0 
0.0 0.0 -9.695029660748e-04 
-9.037723104013e-04 -2.350012697831e-06 0.0 
-2.350012697831e-06 5.986848649888e-03 0.0 
0.0 0.0 -9.035672079865e-04 
-8.314464570683e-04 -3.616594317092e-06 0.0 
-3.616594317092e-06 5.479880314984e-03 0.0 
0.0 0.0 -8.309624794500e-04 
-8.682753299778e-04 -4.472916759991e-06 0.0 
-4.472916759991e-06 5.735257211893e-03 0.0 
0.0 0.0 -8.675775700443e-04 
-8.962132157840e-04 -3.994715245401e-06 0.0 
-3.994715245401e-06 5.931796623670e-03 0.0 
0.0 0.0 -8.958500940740e-04 
-9.334915543322e-04 -5.104595478856e-06 0.0 
-5.104595478856e-06 6.188168080628e-03 0.0 
0.0 0.0 -9.325549191312e-04 
-9.611906856984e-04 -4.832422115392e-06 0.0 
-4.832422115392e-06 6.384949120317e-03 0.0 
0.0 0.0 -9.609176734917e-04 
-9.993166695243e-04 -5.921015935412e-06 0.0 
-5.921015935412e-06 6.642197475408e-03 0.0 
0.0 0.0 -9.976363410588e-04 
-1.026869107811e-03 -5.279541534858e-06 0.0 
-5.279541534858e-06 6.837737939095e-03 0.0 
0.0 0.0 -1.026032504441e-03 
-9.888890578615e-04 -3.536873257959e-06 0.0 
-3.536873257959e-06 6.582021445560e-03 0.0 
0.0 0.0 -9.892761093610e-04 
-1.020948249731e-03 -5.775826579251e-06 0.0 
-5.775826579251e-06 6.785097853957e-03 0.0 
0.0 0.0 -1.018102500310e-03 
-6.106564943980e-04 -8.377932010850e-07 0.0 
-8.377932010850e-07 3.937861241286e-03 0.0 
0.0 0.0 -6.095594541484e-04 
-5.829707017920e-04 -8.761996172269e-07 0.0 
-8.761996172269e-07 3.743841342214e-03 0.0 
0.0 0.0 -5.816898710390e-04 
-5.468224651884e-04 3.532374184784e-07 0.0 
3.532374184784e-07 3.491149788400e-03 0.0 
0.0 0.0 -5.454521931755e-04 
-5.191424428683e-04 -2.726566039412e-07 0.0 
-2.726566039412e-07 3.297674531074e-03 0.0 
0.0 0.0 -5.176388733440e-04 
-4.833226440277e-04 2.092058671683e-06 0.0 
2.092058671683e-06 3.045002640289e-03 0.0 
0.0 0.0 -4.814163979944e-04 
-4.557758029647e-04 1.050100037044e-06 0.0 
1.050100037044e-06 2.852852491029e-03 0.0 
0.0 0.0 -4.537165770244e-04 
-4.203756978464e-04 3.745088126668e-06 0.0 
3.745088126668e-06 2.598843361212e-03 0.0 
0.0 0.0 -4.172264234068e-04 
-4.466735727578e-04 5.480427942949e-06 0.0 
5.480427942949e-06 2.790981770740e-03 0.0 
0.0 0.0 -4.450327826477e-04 
-3.836326554130e-04 7.904997896638e-06 0.0 
7.904997896638e-06 2.342835906920e-03 0.0 
0.0 0.0 -3.805252178390e-04 
-4.084193757356e-04 7.242552144165e-06 0.0 
7.242552144165e-06 2.535005811079e-03 0.0 
0.0 0.0 -4.085362445790e-04 
-3.461331758914e-04 8.763341315882e-06 0.0 
8.763341315882e-06 2.084280570054e-03 0.0 
0.0 0.0 -3.437934912881e-04 
-3.698709012629e-04 8.292346557800e-06 0.0 
8.292346557800e-06 2.277114687721e-03 0.0 
0.0 0.0 -3.717096690223e-04 
-8.965032625882e-04 -1.627591660536e-06 0.0 
-1.627591660536e-06 5.934603885101e-03 0.0 
0.0 0.0 -8.963565068603e-04 
-9.708908500796e-04 -5.045480792177e-06 0.0 
-5.045480792177e-06 6.444533853224e-03 0.0 
0.0 0.0 -9.691568884624e-04 
-1.036699855876e-03 -2.770010414119e-06 0.0 
-2.770010414119e-06 6.900219655108e-03 0.0 
0.0 0.0 -1.034312087004e-03 
-1.006639220865e-03 -3.033633605174e-06 0.0 
-3.033633605174e-06 6.698197690662e-03 0.0 
0.0 0.0 -1.005320805676e-03 
-3.491849021404e-04 5.274199756898e-07 0.0 
5.274199756898e-07 2.108115059856e-03 0.0 
0.0 0.0 -3.475522021424e-04 
-1.033063842021e-03 -2.635650059539e-06 0.0 
-2.635650059539e-06 6.905166544597e-03 0.0 
0.0 0.0 -1.035773625862e-03 
-1.032236772368e-03 -1.431372014451e-06 0.0 
-1.431372014451e-06 6.887149851833e-03 0.0 
0.0 0.0 -1.032922975483e-03 
-1.003745583219e-03 -3.564129010568e-06 0.0 
-3.564129010568e-06 6.683661322661e-03 0.0 
0.0 0.0 -1.003739924893e-03 
-1.054629030311e-03 -7.601280977907e-07 0.0 
-7.601280977907e-07 7.036563315422e-03 0.0 
0.0 0.0 -1.054598834243e-03 
-3.382801587767e-04 -2.979708598297e-06 0.0 
-2.979708598297e-06 2.049061231215e-03 0.0 
0.0 0.0 -3.392587823741e-04 
-3.925929468368e-04 -3.827429239245e-07 0.0 
-3.827429239245e-07 2.409736501278e-03 0.0 
0.0 0.0 -3.899405068163e-04 
-4.274717193387e-04 -8.415189167563e-08 0.0 
-8.415189167563e-08 2.658832617141e-03 0.0 
0.0 0.0 -4.261104576107e-04 
-1.049394948444e-03 -6.226283885082e-06 0.0 
-6.226283885082e-06 7.001982288460e-03 0.0 
0.0 0.0 -1.048874596840e-03 
-1.017918189327e-03 -8.563044135185e-06 0.0 
-8.563044135185e-06 6.794247194180e-03 0.0 
0.0 0.0 -1.019458214591e-03 
-1.069216758149e-03 -3.894499857361e-06 0.0 
-3.894499857361e-06 7.146438403505e-03 0.0 
0.0 0.0 -1.070157681403e-03 
-3.646275857636e-04 -4.854414982731e-06 0.0 
-4.854414982731e-06 2.250210390791e-03 0.0 
0.0 0.0 -3.675747464493e-04 
-1.054357939260e-03 -2.436299897804e-06 0.0 
-2.436299897804e-06 7.029823091953e-03 0.0 
0.0 0.0 -1.052997445444e-03 
-3.197645753904e-04 1.264604075083e-05 0.0 
1.264604075083e-05 1.895364248012e-03 0.0 
0.0 0.0 -3.160508651072e-04 
-9.953050425208e-04 1.480628501674e-06 0.0 
1.480628501674e-06 6.643084749548e-03 0.0 
0.0 0.0 -9.982306137915e-04 
-1.060585647238e-03 -1.664106558644e-06 0.0 
-1.664106558644e-06 7.103829563321e-03 0.0 
0.0 0.0 -1.064501221861e-03 
-8.833816014428e-04 -1.312725406789e-06 0.0 
-1.312725406789e-06 5.848632048973e-03 0.0 
0.0 0.0 -8.838659695519e-04 
-1.072126527592e-03 1.342848407726e-06 0.0 
1.342848407726e-06 7.156046509616e-03 0.0 
0.0 0.0 -1.070909199420e-03 
-1.040873144494e-03 -1.559728385193e-06 0.0 
-1.559728385193e-06 6.945723517804e-03 0.0 
0.0 0.0 -1.041442769611e-03 
-4.361432558224e-04 3.964498909281e-06 0.0 
3.964498909281e-06 2.732385665183e-03 0.0 
0.0 0.0 -4.368024751037e-04 
-4.014490958451e-04 -4.456139007885e-06 0.0 
-4.456139007885e-06 2.476345149205e-03 0.0 
0.0 0.0 -4.000028750317e-04 
-3.379276697082e-04 -9.389203743798e-07 0.0 
-9.389203743798e-07 2.030025360652e-03 0.0 
0.0 0.0 -3.362177140684e-04 
-3.635969428549e-04 1.373767669547e-06 0.0 
1.373767669547e-06 2.244616072891e-03 0.0 
0.0 0.0 -3.646174584383e-04 
-4.300938244296e-04 1.567544356461e-06 0.0 
1.567544356461e-06 2.681550340782e-03 0.0 
0.0 0.0 -4.284477484795e-04 
-3.889085083712e-04 9.835552761999e-06 0.0 
9.835552761999e-06 2.418297915731e-03 0.0 
0.0 0.0 -3.914172224959e-04 
-3.204770754165e-04 1.907323267818e-05 0.0 
1.907323267818e-05 1.962571053019e-03 0.0 
0.0 0.0 -3.275549428413e-04 
-3.502907991612e-04 7.488671342929e-06 0.0 
7.488671342929e-06 2.156719423535e-03 0.0 
0.0 0.0 -3.541853722931e-04 
-4.167106155496e-04 6.881429257417e-06 0.0 
6.881429257417e-06 2.610903268491e-03 0.0 
0.0 0.0 -4.192720002935e-04 
-3.788914181042e-04 4.343078442188e-06 0.0 
4.343078442188e-06 2.349536149817e-03 0.0 
0.0 0.0 -3.818909459020e-04 
-3.084459074469e-04 6.289188176421e-07 0.0 
6.289188176421e-07 1.890259859557e-03 0.0 
0.0 0.0 -3.163726278224e-04 
-3.419617535017e-04 -1.002237531258e-06 0.0 
-1.002237531258e-06 2.083935112305e-03 0.0 
0.0 0.0 -3.442135738104e-04 
-1.099071483736e-03 -4.059536723358e-06 0.0 
-4.059536723358e-06 7.365286043721e-03 0.0 
0.0 0.0 -1.101875158976e-03 
-2.778270531889e-04 5.606786558079e-06 0.0 
5.606786558079e-06 1.634146459113e-03 0.0 
0.0 0.0 -2.790856233436e-04 
-8.331232600789e-04 -1.470432704222e-06 0.0 
-1.470432704222e-06 5.468049203594e-03 0.0 
0.0 0.0 -8.288706041983e-04 
-1.097753538925e-03 -6.819421046385e-08 0.0 
-6.819421046385e-08 7.345996197340e-03 0.0 
0.0 0.0 -1.099012274073e-03 
-1.093116720620e-03 -8.666493399351e-07 0.0 
-8.666493399351e-07 7.286837829642e-03 0.0 
0.0 0.0 -1.090660416876e-03 
-1.084365567575e-03 -6.280824779015e-06 0.0 
-6.280824779015e-06 7.252032631151e-03 0.0 
0.0 0.0 -1.085032576515e-03 
-1.054657705810e-03 -6.435631966191e-06 0.0 
-6.435631966191e-06 7.045218181684e-03 0.0 
0.0 0.0 -1.055603631703e-03 
-9.875851288997e-04 -1.413805567774e-06 0.0 
-1.413805567774e-06 6.584177510452e-03 0.0 
0.0 0.0 -9.897378988699e-04 
-1.026769546168e-03 -2.237330550586e-06 0.0 
-2.237330550586e-06 6.840866959104e-03 0.0 
0.0 0.0 -1.026001677571e-03 
-1.092973095107e-03 -7.454569989634e-06 0.0 
-7.454569989634e-06 7.301089234385e-03 0.0 
0.0 0.0 -1.091942449670e-03 
-1.064751991023e-03 -3.501272267722e-06 0.0 
-3.501272267722e-06 7.095620902661e-03 0.0 
0.0 0.0 -1.062342898562e-03 
-9.988564979816e-04 -1.668871402227e-06 0.0 
-1.668871402227e-06 6.635005463114e-03 0.0 
0.0 0.0 -9.962627399151e-04 
-1.034436478479e-03 -1.481002808395e-06 0.0 
-1.481002808395e-06 6.886326563749e-03 0.0 
0.0 0.0 -1.032646955902e-03 
-9.669903561008e-04 -1.588757973807e-06 0.0 
-1.588757973807e-06 6.424013170772e-03 0.0 
0.0 0.0 -9.664557332607e-04 
-1.003700280699e-03 7.299281571934e-07 0.0 
7.299281571934e-07 6.676052297610e-03 0.0 
0.0 0.0 -1.002889032254e-03 
-1.069539961128e-03 -1.406306334207e-06 0.0 
-1.406306334207e-06 7.137459283332e-03 0.0 
0.0 0.0 -1.069134413525e-03 
-1.040251277345e-03 -2.304501535982e-06 0.0 
-2.304501535982e-06 6.929939891367e-03 0.0 
0.0 0.0 -1.039387411609e-03 
-9.757356294361e-04 3.492291009936e-06 0.0 
3.492291009936e-06 6.469291385121e-03 0.0 
0.0 0.0 -9.730575354659e-04 
-1.011311036558e-03 -3.920010342729e-06 0.0 
-3.920010342729e-06 6.721391753202e-03 0.0 
0.0 0.0 -1.009574527126e-03 
-9.473976655285e-04 1.069754497067e-06 0.0 
1.069754497067e-06 6.259448801403e-03 0.0 
0.0 0.0 -9.431603702596e-04 
-9.787243902099e-04 -9.076392670580e-06 0.0 
-9.076392670580e-06 6.505694726987e-03 0.0 
0.0 0.0 -9.796061197752e-04 
-1.045613844249e-03 -1.722974318907e-06 0.0 
-1.722974318907e-06 6.974649094867e-03 0.0 
0.0 0.0 -1.046101832713e-03 
-2.943775444909e-04 -6.928567678538e-07 0.0 
-6.928567678538e-07 1.805789486149e-03 0.0 
0.0 0.0 -3.035957800550e-04 
-1.017758437714e-03 8.339975111548e-07 0.0 
8.339975111548e-07 6.780275813963e-03 0.0 
0.0 0.0 -1.017732614895e-03 
-1.085695951343e-03 9.008470653890e-06 0.0 
9.008470653890e-06 7.238624846316e-03 0.0 
0.0 0.0 -1.083831836677e-03 
-5.709103913775e-04 -2.325431224868e-05 0.0 
-2.325431224868e-05 3.664168357293e-03 0.0 
0.0 0.0 -5.671321338944e-04 
-6.324387949388e-04 -2.542767452305e-05 0.0 
-2.542767452305e-05 4.079572971033e-03 0.0 
0.0 0.0 -6.325382687906e-04 
-6.703304024063e-04 2.057485422877e-06 0.0 
2.057485422877e-06 4.353279279577e-03 0.0 
0.0 0.0 -6.695659616924e-04 
-6.965174910300e-04 -2.385319859375e-06 0.0 
-2.385319859375e-06 4.560833435242e-03 0.0 
0.0 0.0 -6.986863204145e-04 
-1.013217864429e-03 -6.931448216209e-06 0.0 
-6.931448216209e-06 6.760757040862e-03 0.0 
0.0 0.0 -1.015477767897e-03 
-1.085754476307e-03 4.526117246952e-06 0.0 
4.526117246952e-06 7.228792746516e-03 0.0 
0.0 0.0 -1.082739357160e-03 
-3.632786350414e-04 -5.324944036106e-07 0.0 
-5.324944036106e-07 2.218076515491e-03 0.0 
0.0 0.0 -3.630904347118e-04 
-3.989196443092e-04 3.443700858680e-06 0.0 
3.443700858680e-06 2.465366928233e-03 0.0 
0.0 0.0 -3.987635198617e-04 
-1.114604240908e-03 -4.187271034194e-06 0.0 
-4.187271034194e-06 7.457266297093e-03 0.0 
0.0 0.0 -1.114382729655e-03 
-1.023827423401e-03 3.244776890840e-07 0.0 
3.244776890840e-07 6.846372715936e-03 0.0 
0.0 0.0 -1.027045364000e-03 
-9.591711885291e-04 5.195306824484e-06 0.0 
5.195306824484e-06 6.383348184143e-03 0.0 
0.0 0.0 -9.609938998495e-04 
-6.727539858769e-04 1.372459178984e-06 0.0 
1.372459178984e-06 4.373266699251e-03 0.0 
0.0 0.0 -6.721935305596e-04 
-6.457182263887e-04 2.843205903295e-06 0.0 
2.843205903295e-06 4.180265241662e-03 0.0 
0.0 0.0 -6.449639573754e-04 
-6.090109741668e-04 -1.269187225416e-06 0.0 
-1.269187225416e-06 3.932858286179e-03 0.0 
0.0 0.0 -6.093131083769e-04 
-5.816903259702e-04 4.641891431384e-06 0.0 
4.641891431384e-06 3.732340485873e-03 0.0 
0.0 0.0 -5.812298138028e-04 
-6.200283683434e-04 9.586645545116e-06 0.0 
9.586645545116e-06 3.992414838426e-03 0.0 
0.0 0.0 -6.173664885638e-04 
-5.434193891668e-04 -9.403867661906e-06 0.0 
-9.403867661906e-06 3.478668698050e-03 0.0 
0.0 0.0 -5.448148816535e-04 
-9.373928058819e-04 -1.601369738935e-06 0.0 
-1.601369738935e-06 6.221929865538e-03 0.0 
0.0 0.0 -9.373051277721e-04 
-1.105789133782e-03 -5.097961888920e-06 0.0 
-5.097961888920e-06 7.391609738888e-03 0.0 
0.0 0.0 -1.105708206284e-03 
-3.854345613970e-04 8.443027839813e-06 0.0 
8.443027839813e-06 2.371646984252e-03 0.0 
0.0 0.0 -3.852871208612e-04 
-3.201910169614e-04 4.758000015084e-06 0.0 
4.758000015084e-06 1.911169802832e-03 0.0 
0.0 0.0 -3.193625892355e-04 
-1.092402492623e-03 -1.167819157760e-06 0.0 
-1.167819157760e-06 7.309660398486e-03 0.0 
0.0 0.0 -1.093300181677e-03 
-9.522712570359e-04 -2.708707742727e-07 0.0 
-2.708707742727e-07 6.324723503682e-03 0.0 
0.0 0.0 -9.522822042369e-04 
-9.318364452749e-04 -3.558001127041e-06 0.0 
-3.558001127041e-06 6.182417451607e-03 0.0 
0.0 0.0 -9.319735432435e-04 
-9.592391997822e-04 -2.458009781540e-06 0.0 
-2.458009781540e-06 6.375907434676e-03 0.0 
0.0 0.0 -9.598347391831e-04 
-9.950739296232e-04 -4.572796618511e-06 0.0 
-4.572796618511e-06 6.625947379230e-03 0.0 
0.0 0.0 -9.957130113267e-04 
-1.022389104434e-03 -1.719325875493e-06 0.0 
-1.719325875493e-06 6.820013246431e-03 0.0 
0.0 0.0 -1.023751803962e-03 
-1.059370439720e-03 -5.405362556150e-06 0.0 
-5.405362556150e-06 7.072199763533e-03 0.0 
0.0 0.0 -1.059873349132e-03 
-1.087678763415e-03 -2.923161999986e-06 0.0 
-2.923161999986e-06 7.265128234670e-03 0.0 
0.0 0.0 -1.087854580038e-03 
-1.051303081442e-03 5.171402569272e-07 0.0 
5.171402569272e-07 7.018896459243e-03 0.0 
0.0 0.0 -1.051791170495e-03 
-1.103769166383e-03 7.691851827852e-06 0.0 
7.691851827852e-06 7.404894528321e-03 0.0 
0.0 0.0 -1.107463318235e-03 
-1.117712624745e-03 -3.586966882199e-06 0.0 
-3.586966882199e-06 7.467456065743e-03 0.0 
0.0 0.0 -1.115916943430e-03 
-9.389683298366e-04 8.173508751278e-06 0.0 
8.173508751278e-06 6.277342985551e-03 0.0 
0.0 0.0 -9.487150400336e-04 
-9.410739694122e-04 -1.111791304631e-06 0.0 
-1.111791304631e-06 6.241243045591e-03 0.0 
0.0 0.0 -9.398448712237e-04 
-4.457204000865e-04 5.557813324762e-06 0.0 
5.557813324762e-06 2.807268937135e-03 0.0 
0.0 0.0 -4.474652294669e-04 
-2.787239558753e-04 -1.594210911545e-05 0.0 
-1.594210911545e-05 1.590980471387e-03 0.0 
0.0 0.0 -2.752498982733e-04 
-2.801629165477e-04 1.388173637537e-07 0.0 
1.388173637537e-07 1.614413284500e-03 0.0 
0.0 0.0 -2.770275614452e-04 
-3.257086370933e-04 6.463444473954e-06 0.0 
6.463444473954e-06 1.982032803988e-03 0.0 
0.0 0.0 -3.299748606085e-04 
-3.924316838372e-04 3.341960258366e-06 0.0 
3.341960258366e-06 2.447443434601e-03 0.0 
0.0 0.0 -3.961554456411e-04 
-1.134349550786e-03 -1.652632845532e-06 0.0 
-1.652632845532e-06 7.607275251226e-03 0.0 
0.0 0.0 -1.136360603439e-03 
-1.125800754315e-03 -5.253853129253e-06 0.0 
-5.253853129253e-06 7.520991050392e-03 0.0 
0.0 0.0 -1.124065295910e-03 
-1.096791908378e-03 -5.220402544478e-06 0.0 
-5.220402544478e-06 7.320289406060e-03 0.0 
0.0 0.0 -1.095615423988e-03 
-5.557080703907e-04 2.060507655023e-05 0.0 
2.060507655023e-05 3.553838567094e-03 0.0 
0.0 0.0 -5.539799138139e-04 
-5.938414920039e-04 6.065843658375e-06 0.0 
6.065843658375e-06 3.806784454423e-03 0.0 
0.0 0.0 -5.905304635153e-04 
-1.132061157024e-03 2.994999273292e-06 0.0 
2.994999273292e-06 7.609332849678e-03 0.0 
0.0 0.0 -1.136278651916e-03 
-9.052603845710e-04 -1.496793008832e-06 0.0 
-1.496793008832e-06 6.089428360264e-03 0.0 
0.0 0.0 -9.177848451843e-04 
-9.302886435713e-04 -1.143901140747e-06 0.0 
-1.143901140747e-06 6.175006027383e-03 0.0 
0.0 0.0 -9.302130594432e-04 
-8.986318941468e-04 1.808913455717e-06 0.0 
1.808913455717e-06 5.958837749668e-03 0.0 
0.0 0.0 -9.001900590098e-04 
-2.448154097378e-04 -1.421673720979e-05 0.0 
-1.421673720979e-05 1.469020257813e-03 0.0 
0.0 0.0 -2.595221258752e-04 
-2.425141975507e-04 4.798340757492e-06 0.0 
4.798340757492e-06 1.427444744679e-03 0.0 
0.0 0.0 -2.525597767350e-04 
-1.129866785975e-03 -6.589135683459e-06 0.0 
-6.589135683459e-06 7.556758245339e-03 0.0 
0.0 0.0 -1.128363834889e-03 
-4.625030533362e-04 2.152653740831e-06 0.0 
2.152653740831e-06 2.905591162520e-03 0.0 
0.0 0.0 -4.615872697407e-04 
-4.348533942840e-04 3.201452625958e-06 0.0 
3.201452625958e-06 2.712395630356e-03 0.0 
0.0 0.0 -4.342639779644e-04 
-2.556862254962e-04 9.465200077470e-06 0.0 
9.465200077470e-06 1.446637132955e-03 0.0 
0.0 0.0 -2.508181872060e-04 
-2.123142658657e-04 2.153637718006e-06 0.0 
2.153637718006e-06 1.175585796085e-03 0.0 
0.0 0.0 -2.143868084631e-04 
-1.042731456099e-03 1.901936730496e-05 0.0 
1.901936730496e-05 6.995442815012e-03 0.0 
0.0 0.0 -1.051814883004e-03 
-1.110984337992e-03 1.360393105763e-05 0.0 
1.360393105763e-05 7.468547826848e-03 0.0 
0.0 0.0 -1.117859435171e-03 
-7.312716402703e-04 -2.190675999974e-06 0.0 
-2.190675999974e-06 4.814374156657e-03 0.0 
0.0 0.0 -7.356929296387e-04 
-7.645892286358e-04 -1.102166449941e-05 0.0 
-1.102166449941e-05 5.018862629850e-03 0.0 
0.0 0.0 -7.648299719236e-04 
-1.105578814045e-03 -4.864618337801e-06 0.0 
-4.864618337801e-06 7.407304501986e-03 0.0 
0.0 0.0 -1.107558395918e-03 
-3.066920262703e-04 -9.941053824016e-07 0.0 
-9.941053824016e-07 1.825477502809e-03 0.0 
0.0 0.0 -3.060794667268e-04 
-1.146252104278e-03 9.473611415291e-07 0.0 
9.473611415291e-07 7.693660702169e-03 0.0 
0.0 0.0 -1.149181664990e-03 
-9.819770468004e-04 3.151631864563e-06 0.0 
3.151631864563e-06 6.525650668115e-03 0.0 
0.0 0.0 -9.807908033776e-04 
-9.159380280943e-04 1.195442860185e-06 0.0 
1.195442860185e-06 6.068082639928e-03 0.0 
0.0 0.0 -9.152404036620e-04 
-6.511413906152e-04 1.424536279068e-05 0.0 
1.424536279068e-05 4.294241389317e-03 0.0 
0.0 0.0 -6.604623333687e-04 
-3.374810340453e-04 6.844433927067e-06 0.0 
6.844433927067e-06 2.031763814607e-03 0.0 
0.0 0.0 -3.366432492119e-04 
-3.027001806187e-04 4.554754580629e-06 0.0 
4.554754580629e-06 1.781580953441e-03 0.0 
0.0 0.0 -3.009099309908e-04 
-4.837618896287e-04 7.408810593372e-06 0.0 
7.408810593372e-06 3.065907824054e-03 0.0 
0.0 0.0 -4.845585894574e-04 
-3.706525314116e-04 2.979043878704e-06 0.0 
2.979043878704e-06 2.283251894813e-03 0.0 
0.0 0.0 -3.723415964733e-04 
-3.535775650443e-04 1.642795960174e-06 0.0 
1.642795960174e-06 2.183712345689e-03 0.0 
0.0 0.0 -3.583452993329e-04 
-1.171956394673e-03 7.296733533158e-06 0.0 
7.296733533158e-06 7.865937936914e-03 0.0 
0.0 0.0 -1.173829981771e-03 
-1.155496536768e-03 -7.585900876951e-06 0.0 
-7.585900876951e-06 7.757441294242e-03 0.0 
0.0 0.0 -1.157575248917e-03 
-1.081331483118e-03 -1.018192650106e-05 0.0 
-1.018192650106e-05 7.219793718708e-03 0.0 
0.0 0.0 -1.080172819833e-03 
-1.016976595983e-03 3.080934611959e-08 0.0 
3.080934611959e-08 6.767850029250e-03 0.0 
0.0 0.0 -1.015677837919e-03 
-1.139278177336e-03 -7.940019038833e-06 0.0 
-7.940019038833e-06 7.665797132760e-03 0.0 
0.0 0.0 -1.144955025780e-03 
-2.327287223154e-04 -5.619721676041e-06 0.0 
-5.619721676041e-06 1.369838176642e-03 0.0 
0.0 0.0 -2.399185640008e-04 
-1.167065302037e-03 -2.167295117499e-06 0.0 
-2.167295117499e-06 7.816099518397e-03 0.0 
0.0 0.0 -1.165794428787e-03 
-1.057599608467e-03 -1.462585030755e-06 0.0 
-1.462585030755e-06 7.053925433098e-03 0.0 
0.0 0.0 -1.056136825731e-03 
-1.166821884924e-03 8.580756338009e-06 0.0 
8.580756338009e-06 7.754116842770e-03 0.0 
0.0 0.0 -1.157598467365e-03 
-1.133408506306e-03 -8.435792570120e-07 0.0 
-8.435792570120e-07 7.569033753462e-03 0.0 
0.0 0.0 -1.131219827106e-03 
-4.984456519411e-04 4.300557589693e-06 0.0 
4.300557589693e-06 3.150357815837e-03 0.0 
0.0 0.0 -4.968499830348e-04 
-4.727344614058e-04 -4.063132868512e-06 0.0 
-4.063132868512e-06 2.963684111716e-03 0.0 
0.0 0.0 -4.705806478706e-04 
-4.091383170964e-04 2.862069894884e-06 0.0 
2.862069894884e-06 2.529363987017e-03 0.0 
0.0 0.0 -4.078257031896e-04 
-4.471058786427e-04 1.072951437627e-05 0.0 
1.072951437627e-05 2.788633828474e-03 0.0 
0.0 0.0 -4.438024830152e-04 
-8.440631779025e-04 -4.493147098186e-06 0.0 
-4.493147098186e-06 5.518369027804e-03 0.0 
0.0 0.0 -8.361670615231e-04 
-5.357092529257e-04 -9.292843077287e-07 0.0 
-9.292843077287e-07 3.402933662769e-03 0.0 
0.0 0.0 -5.333915535664e-04 
-7.972227851670e-04 -9.360487058623e-07 0.0 
-9.360487058623e-07 5.222669072684e-03 0.0 
0.0 0.0 -7.939299641313e-04 
-7.702508874020e-04 -1.538210288695e-06 0.0 
-1.538210288695e-06 5.031866795854e-03 0.0 
0.0 0.0 -7.665196690739e-04 
-7.355056886190e-04 7.347932434332e-07 0.0 
7.347932434332e-07 4.791036993934e-03 0.0 
0.0 0.0 -7.319524942586e-04 
-6.561872916338e-04 1.268419360778e-06 0.0 
1.268419360778e-06 4.239606973166e-03 0.0 
0.0 0.0 -6.527873785750e-04 
-6.291613184762e-04 -1.439650198951e-06 0.0 
-1.439650198951e-06 4.053875822961e-03 0.0 
0.0 0.0 -6.261871041946e-04 
-5.548406946331e-04 -1.134560045618e-06 0.0 
-1.134560045618e-06 3.546628030902e-03 0.0 
0.0 0.0 -5.534964465553e-04 
-8.399940984115e-04 -3.577201230982e-06 0.0 
-3.577201230982e-06 5.537581821643e-03 0.0 
0.0 0.0 -8.390310526140e-04 
-7.058409553933e-04 5.047899970868e-07 0.0 
5.047899970868e-07 4.614117323526e-03 0.0 
0.0 0.0 -7.069621042110e-04 
-8.747594299032e-04 -2.558061717813e-06 0.0 
-2.558061717813e-06 5.788017369400e-03 0.0 
0.0 0.0 -8.751042800696e-04 
-8.345970192924e-04 7.968047685774e-07 0.0 
7.968047685774e-07 5.508873449258e-03 0.0 
0.0 0.0 -8.350146568664e-04 
-1.135366159085e-03 -3.784163045634e-06 0.0 
-3.784163045634e-06 7.595187475630e-03 0.0 
0.0 0.0 -1.135109731873e-03 
-1.173430748718e-03 -9.063019793227e-06 0.0 
-9.063019793227e-06 7.855172062360e-03 0.0 
0.0 0.0 -1.171938512032e-03 
-9.103494794309e-04 9.134385712292e-06 0.0 
9.134385712292e-06 6.008446285683e-03 0.0 
0.0 0.0 -9.065739516476e-04 
-8.719468559850e-04 9.049287930901e-07 0.0 
9.049287930901e-07 5.790867004059e-03 0.0 
0.0 0.0 -8.764137937918e-04 
-2.822142401262e-04 -1.729015805195e-06 0.0 
-1.729015805195e-06 1.647043850495e-03 0.0 
0.0 0.0 -2.813159824896e-04 
-2.590672524344e-04 7.758668078397e-06 0.0 
7.758668078397e-06 1.453070456664e-03 0.0 
0.0 0.0 -2.532569443854e-04 
-7.885436432884e-04 5.287197584798e-07 0.0 
5.287197584798e-07 5.190389624089e-03 0.0 
0.0 0.0 -7.894497706086e-04 
-1.129157536929e-03 4.394584270072e-06 0.0 
4.394584270072e-06 7.545263270116e-03 0.0 
0.0 0.0 -1.127529358476e-03 
-1.150499129859e-03 -1.601096256602e-07 0.0 
-1.601096256602e-07 7.703368893988e-03 0.0 
0.0 0.0 -1.150095860580e-03 
-1.180515255213e-03 -2.827683268632e-06 0.0 
-2.827683268632e-06 7.908952217123e-03 0.0 
0.0 0.0 -1.179372829571e-03 
-1.142938913333e-03 -3.318694813209e-06 0.0 
-3.318694813209e-06 7.657003561438e-03 0.0 
0.0 0.0 -1.143369325255e-03 
-1.140111309187e-03 8.981293941539e-07 0.0 
8.981293941539e-07 7.659653688633e-03 0.0 
0.0 0.0 -1.144273392007e-03 
-5.742583376343e-04 1.322470560155e-07 0.0 
1.322470560155e-07 3.685291735877e-03 0.0 
0.0 0.0 -5.733740095480e-04 
-8.593234151619e-04 -2.874076436987e-06 0.0 
-2.874076436987e-06 5.675695790787e-03 0.0 
0.0 0.0 -8.590966742019e-04 
-2.435677437140e-04 -1.068446741352e-05 0.0 
-1.068446741352e-05 1.382271228051e-03 0.0 
0.0 0.0 -2.423215009416e-04 
-8.888171571716e-04 7.702896638078e-07 0.0 
7.702896638078e-07 5.879388839658e-03 0.0 
0.0 0.0 -8.884627649733e-04 
-2.162237035634e-04 -3.672272412206e-06 0.0 
-3.672272412206e-06 1.184819371308e-03 0.0 
0.0 0.0 -2.162536877156e-04 
-1.014212058360e-03 -1.424401912203e-06 0.0 
-1.424401912203e-06 6.732806316095e-03 0.0 
0.0 0.0 -1.010319580236e-03 
-1.121146682577e-03 5.393536553209e-07 0.0 
5.393536553209e-07 7.512550218556e-03 0.0 
0.0 0.0 -1.122815839103e-03 
-1.157064342210e-03 3.278319440535e-08 0.0 
3.278319440535e-08 7.769042756358e-03 0.0 
0.0 0.0 -1.159213750608e-03 
-1.166424981014e-03 1.813592645858e-06 0.0 
1.813592645858e-06 7.856112587899e-03 0.0 
0.0 0.0 -1.171959308352e-03 
-7.504080630279e-04 1.142017006433e-05 0.0 
1.142017006433e-05 4.900584458038e-03 0.0 
0.0 0.0 -7.470952864203e-04 
-9.172347539122e-04 2.804117413104e-06 0.0 
2.804117413104e-06 6.075069916316e-03 0.0 
0.0 0.0 -9.162722660995e-04 
-8.822868772853e-04 1.786082975063e-06 0.0 
1.786082975063e-06 5.828052429250e-03 0.0 
0.0 0.0 -8.808726170640e-04 
-7.075025449257e-04 3.734403442009e-06 0.0 
3.734403442009e-06 4.602949033638e-03 0.0 
0.0 0.0 -7.048691535495e-04 
-6.736902723486e-04 3.915004124942e-06 0.0 
3.915004124942e-06 4.364959797177e-03 0.0 
0.0 0.0 -6.707530558731e-04 
-7.003926698376e-04 3.499859416460e-06 0.0 
3.499859416460e-06 4.548937086678e-03 0.0 
0.0 0.0 -6.972958566626e-04 
-6.396081130525e-04 3.801189656200e-06 0.0 
3.801189656200e-06 4.126284090508e-03 0.0 
0.0 0.0 -6.359606378414e-04 
-5.113814833483e-04 4.985013341203e-06 0.0 
4.985013341203e-06 3.258506878652e-03 0.0 
0.0 0.0 -5.122594947013e-04 
-4.735906672379e-04 3.101741148863e-06 0.0 
3.101741148863e-06 2.998270021668e-03 0.0 
0.0 0.0 -4.750188804659e-04 
-1.196527535369e-03 2.030860363373e-06 0.0 
2.030860363373e-06 8.017120294099e-03 0.0 
0.0 0.0 -1.192042136895e-03 
-1.179471908673e-03 2.186350744695e-05 0.0 
2.186350744695e-05 7.917990259976e-03 0.0 
0.0 0.0 -1.178660172201e-03 
-1.197525366512e-03 -5.361254674990e-06 0.0 
-5.361254674990e-06 8.017772106938e-03 0.0 
0.0 0.0 -1.193029175878e-03 
-1.157007599871e-03 -4.254495392385e-07 0.0 
-4.254495392385e-07 7.831852404544e-03 0.0 
0.0 0.0 -1.168165168231e-03 
-1.184219832489e-03 -2.995135238731e-06 0.0 
-2.995135238731e-06 8.054139615854e-03 0.0 
0.0 0.0 -1.200910491468e-03 
-1.156433585434e-03 -1.143666503596e-06 0.0 
-1.143666503596e-06 7.807020133364e-03 0.0 
0.0 0.0 -1.164168769488e-03 
-4.264796299706e-04 -5.762809161309e-06 0.0 
-5.762809161309e-06 2.638842137297e-03 0.0 
0.0 0.0 -4.227350873389e-04 
-5.681760473819e-04 2.318592575125e-06 0.0 
2.318592575125e-06 3.626581176623e-03 0.0 
0.0 0.0 -5.646260317871e-04 
-1.184636686047e-03 -1.016095806200e-05 0.0 
-1.016095806200e-05 8.009054334469e-03 0.0 
0.0 0.0 -1.194151889699e-03 
-7.414862310133e-04 3.192804147242e-06 0.0 
3.192804147242e-06 4.838396811126e-03 0.0 
0.0 0.0 -7.390869131010e-04 
-1.198370689590e-03 -4.208230376651e-06 0.0 
-4.208230376651e-06 8.000236790466e-03 0.0 
0.0 0.0 -1.192835421428e-03 
-1.157965586969e-03 3.621187988979e-06 0.0 
3.621187988979e-06 7.751872966735e-03 0.0 
0.0 0.0 -1.156047193884e-03 
-1.679677723564e-04 -6.471467774982e-06 0.0 
-6.471467774982e-06 9.157850137994e-04 0.0 
0.0 0.0 -1.776502893165e-04 
-2.010012491603e-04 -2.186198543601e-05 0.0 
-2.186198543601e-05 1.109886420371e-03 0.0 
0.0 0.0 -2.034953494974e-04 
-1.179928424182e-03 1.756406795433e-06 0.0 
1.756406795433e-06 7.951460578279e-03 0.0 
0.0 0.0 -1.184588873336e-03 
-3.838885301584e-04 -2.308315346779e-07 0.0 
-2.308315346779e-07 2.344842445821e-03 0.0 
0.0 0.0 -3.811925308841e-04 
-4.219559892701e-04 7.989363516761e-06 0.0 
7.989363516761e-06 2.586701229719e-03 0.0 
0.0 0.0 -4.158690271831e-04 
-3.474814854535e-04 -1.898705035349e-06 0.0 
-1.898705035349e-06 2.092244309525e-03 0.0 
0.0 0.0 -3.459699425273e-04 
-1.258412294817e-03 4.723230244952e-06 0.0 
4.723230244952e-06 8.451854294521e-03 0.0 
0.0 0.0 -1.258310293365e-03 
-7.484881504011e-04 -2.960864060488e-06 0.0 
-2.960864060488e-06 4.893199602045e-03 0.0 
0.0 0.0 -7.479256703001e-04 
-1.180456674817e-03 2.203572108547e-06 0.0 
2.203572108547e-06 7.969948982011e-03 0.0 
0.0 0.0 -1.189418985649e-03 
-6.915459890032e-04 2.639723401398e-07 0.0 
2.639723401398e-07 4.488659587491e-03 0.0 
0.0 0.0 -6.884682336192e-04 
-1.207477073685e-03 3.654066082017e-06 0.0 
3.654066082017e-06 8.169097270233e-03 0.0 
0.0 0.0 -1.216510697198e-03 
-9.459891485395e-04 2.183343284692e-06 0.0 
2.183343284692e-06 6.276634781059e-03 0.0 
0.0 0.0 -9.449116413281e-04 
-6.354655665352e-04 7.994205054122e-06 0.0 
7.994205054122e-06 4.117898953292e-03 0.0 
0.0 0.0 -6.353966017694e-04 
-1.078683645924e-03 -8.754256551644e-06 0.0 
-8.754256551644e-06 7.202760317135e-03 0.0 
0.0 0.0 -1.078177493492e-03 
-1.141578224773e-03 -1.678015124368e-05 0.0 
-1.678015124368e-05 7.703318796330e-03 0.0 
0.0 0.0 -1.149140729088e-03 
-1.226390364052e-03 1.281801736302e-05 0.0 
1.281801736302e-05 8.221773688784e-03 0.0 
0.0 0.0 -1.221625961084e-03 
-8.548571335587e-04 9.585095622167e-06 0.0 
9.585095622167e-06 5.710330831809e-03 0.0 
0.0 0.0 -8.638707813346e-04 
-8.315226367925e-04 -1.796676276346e-05 0.0 
-1.796676276346e-05 5.471080815741e-03 0.0 
0.0 0.0 -8.327709333130e-04 
-8.913153694948e-04 3.187001622880e-06 0.0 
3.187001622880e-06 5.908304703834e-03 0.0 
0.0 0.0 -8.925140200429e-04 
-2.901697666162e-04 2.957652242772e-06 0.0 
2.957652242772e-06 1.700907778148e-03 0.0 
0.0 0.0 -2.887053311254e-04 
-2.259876589124e-04 -1.628476741977e-06 0.0 
-1.628476741977e-06 1.207242233753e-03 0.0 
0.0 0.0 -2.186270541161e-04 
-1.144042553285e-03 -3.972510573142e-06 0.0 
-3.972510573142e-06 7.644643748638e-03 0.0 
0.0 0.0 -1.142090266074e-03 
-5.015691225624e-04 -4.004972649499e-06 0.0 
-4.004972649499e-06 3.172327891301e-03 0.0 
0.0 0.0 -5.006138788623e-04 
-5.490396028458e-04 1.473261204921e-05 0.0 
1.473261204921e-05 3.431798845594e-03 0.0 
0.0 0.0 -5.359218444892e-04 
-3.334097721274e-04 4.182676571655e-07 0.0 
4.182676571655e-07 2.008435002854e-03 0.0 
0.0 0.0 -3.328711069468e-04 
-3.967994371980e-04 3.163349435476e-06 0.0 
3.163349435476e-06 2.463726324997e-03 0.0 
0.0 0.0 -3.985542937016e-04 
-7.704918098594e-04 -2.506920414946e-06 0.0 
-2.506920414946e-06 5.073323433467e-03 0.0 
0.0 0.0 -7.728092966600e-04 
-7.429755971663e-04 -1.604665722884e-06 0.0 
-1.604665722884e-06 4.873825415622e-03 0.0 
0.0 0.0 -7.441750962829e-04 
-1.041105417575e-03 -3.532804275445e-06 0.0 
-3.532804275445e-06 6.930458439110e-03 0.0 
0.0 0.0 -1.038692069610e-03 
-1.077691050121e-03 5.915919111686e-07 0.0 
5.915919111686e-07 7.178307862229e-03 0.0 
0.0 0.0 -1.074129358999e-03 
-9.680145315127e-04 -4.800744221086e-06 0.0 
-4.800744221086e-06 6.431374472253e-03 0.0 
0.0 0.0 -9.675620497173e-04 
-9.449072701309e-04 5.755247327846e-07 0.0 
5.755247327846e-07 6.268683015175e-03 0.0 
0.0 0.0 -9.439558448496e-04 
-8.793469056982e-04 2.651871179319e-07 0.0 
2.651871179319e-07 5.812169911194e-03 0.0 
0.0 0.0 -8.783802297791e-04 
-8.506353188413e-04 -1.205932606214e-06 0.0 
-1.205932606214e-06 5.614865789540e-03 0.0 
0.0 0.0 -8.502765121185e-04 
-1.205371287344e-03 -1.017172525849e-05 0.0 
-1.017172525849e-05 8.044519540676e-03 0.0 
0.0 0.0 -1.199867006878e-03 
-1.246871842620e-03 -1.782584577441e-06 0.0 
-1.782584577441e-06 8.370823131876e-03 0.0 
0.0 0.0 -1.242728214876e-03 
-5.491066158241e-04 3.796504913762e-06 0.0 
3.796504913762e-06 3.515286504074e-03 0.0 
0.0 0.0 -5.488632449009e-04 
-5.218883337207e-04 5.205294616504e-06 0.0 
5.205294616504e-06 3.322312941731e-03 0.0 
0.0 0.0 -5.212126360957e-04 
-5.377854580404e-04 4.143852354848e-06 0.0 
4.143852354848e-06 3.445251353484e-03 0.0 
0.0 0.0 -5.390128571062e-04 
-1.214529256448e-03 -6.301616693034e-06 0.0 
-6.301616693034e-06 8.215301645721e-03 0.0 
0.0 0.0 -1.223056365294e-03 
-1.220614911318e-03 1.691106897423e-05 0.0 
1.691106897423e-05 8.234319209605e-03 0.0 
0.0 0.0 -1.224004481682e-03 
-1.202636442924e-03 -1.450484537664e-05 0.0 
-1.450484537664e-05 8.019827799738e-03 0.0 
0.0 0.0 -1.195820777905e-03 
-1.923031463658e-04 -1.299529721398e-05 0.0 
-1.299529721398e-05 1.005842812599e-03 0.0 
0.0 0.0 -1.880780275778e-04 
-2.380587333974e-04 -7.138126159536e-06 0.0 
-7.138126159536e-06 1.256954979671e-03 0.0 
0.0 0.0 -2.247092568812e-04 
-2.809188805545e-04 -7.804988416386e-07 0.0 
-7.804988416386e-07 1.601881524077e-03 0.0 
0.0 0.0 -2.751197234063e-04 
-2.390831316059e-04 -1.697522519503e-05 0.0 
-1.697522519503e-05 1.345355817379e-03 0.0 
0.0 0.0 -2.407125716443e-04 
-1.208745358061e-03 2.226513834240e-07 0.0 
2.226513834240e-07 8.094728759758e-03 0.0 
0.0 0.0 -1.207258722210e-03 
-1.173002429905e-03 -1.580225171714e-08 0.0 
-1.580225171714e-08 7.865013445176e-03 0.0 
0.0 0.0 -1.172631524865e-03 
-1.245587066994e-03 -1.350830728445e-07 0.0 
-1.350830728445e-07 8.403006214559e-03 0.0 
0.0 0.0 -1.247471551777e-03 
-3.784912276642e-04 1.355145565509e-05 0.0 
1.355145565509e-05 2.351827936340e-03 0.0 
0.0 0.0 -3.801539159394e-04 
-1.045351836581e-03 6.057785964128e-06 0.0 
6.057785964128e-06 6.969505785323e-03 0.0 
0.0 0.0 -1.045322365442e-03 
-1.205298536187e-03 1.211257299849e-05 0.0 
1.211257299849e-05 8.100207033564e-03 0.0 
0.0 0.0 -1.207899217314e-03 
-1.178583019777e-03 1.757022163117e-05 0.0 
1.757022163117e-05 7.916687945301e-03 0.0 
0.0 0.0 -1.178012378629e-03 
-1.242442001561e-03 9.743401619652e-06 0.0 
9.743401619652e-06 8.382783963078e-03 0.0 
0.0 0.0 -1.244624083072e-03 
-1.137070212873e-03 -2.028754131517e-06 0.0 
-2.028754131517e-06 7.646903784891e-03 0.0 
0.0 0.0 -1.142102124289e-03 
-1.209034666392e-03 -7.012965144915e-06 0.0 
-7.012965144915e-06 8.081623741308e-03 0.0 
0.0 0.0 -1.205428683694e-03 
-1.206763234680e-03 6.340388102830e-06 0.0 
6.340388102830e-06 8.101632159503e-03 0.0 
0.0 0.0 -1.209323031234e-03 
-1.526588308959e-04 -1.278274148856e-05 0.0 
-1.278274148856e-05 7.096255753314e-04 0.0 
0.0 0.0 -1.515181680101e-04 
-1.197635794990e-03 -1.679642684386e-05 0.0 
-1.679642684386e-05 8.038463106289e-03 0.0 
0.0 0.0 -1.199992767657e-03 
-8.372255126925e-04 -1.581405743953e-06 0.0 
-1.581405743953e-06 5.516497338344e-03 0.0 
0.0 0.0 -8.371571859873e-04 
-1.098991945020e-04 -3.154449405104e-05 0.0 
-3.154449405104e-05 5.330743413541e-04 0.0 
0.0 0.0 -1.134605161963e-04 
-7.981850025034e-04 -4.161080113951e-07 0.0 
-4.161080113951e-07 5.308479178574e-03 0.0 
0.0 0.0 -8.070151920887e-04 
-8.429634412097e-04 -1.709371110809e-06 0.0 
-1.709371110809e-06 5.581100165216e-03 0.0 
0.0 0.0 -8.451615393777e-04 
-7.696584184700e-04 -4.438777502839e-06 0.0 
-4.438777502839e-06 5.046252634616e-03 0.0 
0.0 0.0 -7.748096441827e-04 
-3.107010397172e-04 9.959927229299e-06 0.0 
9.959927229299e-06 1.894638977858e-03 0.0 
0.0 0.0 -3.155299188714e-04 
-8.095068364426e-04 -1.064416675758e-05 0.0 
-1.064416675758e-05 5.359424365734e-03 0.0 
0.0 0.0 -8.174106193842e-04 
-8.516632903957e-04 -1.548663215885e-05 0.0 
-1.548663215885e-05 5.659882039523e-03 0.0 
0.0 0.0 -8.556612431672e-04 
-1.454483653541e-04 3.285604104460e-06 0.0 
3.285604104460e-06 7.139538730244e-04 0.0 
0.0 0.0 -1.421329337195e-04 
-1.249632985061e-03 3.450770483262e-06 0.0 
3.450770483262e-06 8.450128189206e-03 0.0 
0.0 0.0 -1.259301554906e-03 
-1.652376678941e-04 -1.286666981350e-05 0.0 
-1.286666981350e-05 7.455520390207e-04 0.0 
0.0 0.0 -1.556443337539e-04 
-1.771144640534e-04 -1.673852043284e-05 0.0 
-1.673852043284e-05 9.409763732997e-04 0.0 
0.0 0.0 -1.806578101979e-04 
-1.211541890789e-03 1.467961613667e-05 0.0 
1.467961613667e-05 8.216069586299e-03 0.0 
0.0 0.0 -1.221214701962e-03 
-1.182137557378e-03 -1.347893005093e-06 0.0 
-1.347893005093e-06 7.946617508211e-03 0.0 
0.0 0.0 -1.184344882880e-03 
-1.248636598491e-03 -6.710766209692e-06 0.0 
-6.710766209692e-06 8.399111666310e-03 0.0 
0.0 0.0 -1.247726601234e-03 
-1.216304493113e-03 1.376146948642e-05 0.0 
1.376146948642e-05 8.121468603000e-03 0.0 
0.0 0.0 -1.211018817991e-03 
-1.146160367712e-03 -4.978228076892e-06 0.0 
-4.978228076892e-06 7.680298396241e-03 0.0 
0.0 0.0 -1.147066289601e-03 
-1.174333499691e-03 6.447300312268e-06 0.0 
6.447300312268e-06 7.890872304648e-03 0.0 
0.0 0.0 -1.176490610025e-03 
-8.022613359355e-04 -1.465561338710e-05 0.0 
-1.465561338710e-05 5.265642214057e-03 0.0 
0.0 0.0 -7.985989294648e-04 
-1.243628943204e-03 1.764986030868e-05 0.0 
1.764986030868e-05 8.400828657624e-03 0.0 
0.0 0.0 -1.249018369598e-03 
-1.202560827820e-03 4.472912903621e-06 0.0 
4.472912903621e-06 8.095627160272e-03 0.0 
0.0 0.0 -1.207442871744e-03 
-1.280707394095e-03 9.871433926351e-06 0.0 
9.871433926351e-06 8.646120131381e-03 0.0 
0.0 0.0 -1.277927415301e-03 
-6.139046463498e-04 4.062295408107e-06 0.0 
4.062295408107e-06 3.949909662933e-03 0.0 
0.0 0.0 -6.108003466767e-04 
-4.855763441254e-04 3.057596715553e-06 0.0 
3.057596715553e-06 3.031592722143e-03 0.0 
0.0 0.0 -4.789358348571e-04 
-4.592668061051e-04 2.643196690510e-06 0.0 
2.643196690510e-06 2.831145132009e-03 0.0 
0.0 0.0 -4.527251363391e-04 
-3.939664762502e-04 4.015896243431e-05 0.0 
4.015896243431e-05 2.394779108390e-03 0.0 
0.0 0.0 -3.875663759467e-04 
-1.235451159508e-03 5.414867173209e-06 0.0 
5.414867173209e-06 8.338545045283e-03 0.0 
0.0 0.0 -1.240180566941e-03 
-1.197541601819e-03 2.184484790426e-05 0.0 
2.184484790426e-05 8.058909055166e-03 0.0 
0.0 0.0 -1.200590015451e-03 
-1.087867486780e-03 1.085013592536e-06 0.0 
1.085013592536e-06 7.270465583492e-03 0.0 
0.0 0.0 -1.087555896896e-03 
-1.022984886136e-03 4.510930018279e-06 0.0 
4.510930018279e-06 6.802736585016e-03 0.0 
0.0 0.0 -1.020738973070e-03 
-8.163996236660e-04 7.186741062486e-06 0.0 
7.186741062486e-06 5.339991771102e-03 0.0 
0.0 0.0 -8.108182148135e-04 
-8.104965103200e-04 -8.251273631930e-06 0.0 
-8.251273631930e-06 5.308853861974e-03 0.0 
0.0 0.0 -8.077352941366e-04 
-8.720514006204e-04 3.179792081281e-05 0.0 
3.179792081281e-05 5.733381675574e-03 0.0 
0.0 0.0 -8.678526801547e-04 
-8.648510791426e-04 -7.111218047977e-06 0.0 
-7.111218047977e-06 5.661166370703e-03 0.0 
0.0 0.0 -8.609153521579e-04 
-9.263549734801e-04 3.033239231763e-05 0.0 
3.033239231763e-05 6.105443762298e-03 0.0 
0.0 0.0 -9.200517378055e-04 
-9.083479877114e-04 -1.416522287393e-05 0.0 
-1.416522287393e-05 6.036653926986e-03 0.0 
0.0 0.0 -9.108947733944e-04 
-9.698621139042e-04 -2.949214397537e-05 0.0 
-2.949214397537e-05 6.467199866666e-03 0.0 
0.0 0.0 -9.726914458129e-04 
-1.247222366311e-03 2.606056517105e-05 0.0 
2.606056517105e-05 8.375150940582e-03 0.0 
0.0 0.0 -1.245087786853e-03 
-3.186375953883e-04 9.254464651407e-06 0.0 
9.254464651407e-06 1.904578218722e-03 0.0 
0.0 0.0 -3.180830487989e-04 
-6.795655702328e-04 3.950407328759e-06 0.0 
3.950407328759e-06 4.416747400763e-03 0.0 
0.0 0.0 -6.783069842581e-04 
-1.217523867403e-03 -1.107710803928e-05 0.0 
-1.107710803928e-05 8.250220171501e-03 0.0 
0.0 0.0 -1.228261380050e-03 
-1.189954932966e-03 -3.389414248198e-06 0.0 
-3.389414248198e-06 7.976695802146e-03 0.0 
0.0 0.0 -1.187396807988e-03 
-6.030585832721e-04 2.040094254721e-06 0.0 
2.040094254721e-06 3.869813641297e-03 0.0 
0.0 0.0 -6.000944487132e-04 
-5.459736888774e-04 1.094222006431e-05 0.0 
1.094222006431e-05 3.457763009942e-03 0.0 
0.0 0.0 -5.401620014017e-04 
-1.244604975369e-03 1.395843640125e-05 0.0 
1.395843640125e-05 8.345755076324e-03 0.0 
0.0 0.0 -1.238794375355e-03 
-5.618086059147e-04 1.672788938571e-06 0.0 
1.672788938571e-06 3.593027472553e-03 0.0 
0.0 0.0 -5.600314934590e-04 
-1.295241739404e-03 -3.069672707253e-06 0.0 
-3.069672707253e-06 8.734931616820e-03 0.0 
0.0 0.0 -1.295459716840e-03 
-4.726518995237e-05 -5.619949717465e-06 0.0 
-5.619949717465e-06 2.661811301103e-04 0.0 
0.0 0.0 -5.690003420298e-05 
-1.291194022147e-04 1.153791065658e-05 0.0 
1.153791065658e-05 6.783732708889e-04 0.0 
0.0 0.0 -1.353443326634e-04 
-5.978702258073e-04 2.845759187997e-06 0.0 
2.845759187997e-06 3.846572588730e-03 0.0 
0.0 0.0 -5.969207367497e-04 
-6.645061217588e-04 1.210892726736e-06 0.0 
1.210892726736e-06 4.303380572845e-03 0.0 
0.0 0.0 -6.620222007989e-04 
-5.132181813278e-04 9.130074641216e-06 0.0 
9.130074641216e-06 3.278288147999e-03 0.0 
0.0 0.0 -5.157319100482e-04 
-4.860075133994e-04 2.990028342247e-06 0.0 
2.990028342247e-06 3.124396954495e-03 0.0 
0.0 0.0 -4.917183783407e-04 
-1.011317378684e-03 6.487621353886e-07 0.0 
6.487621353886e-07 6.733904614894e-03 0.0 
0.0 0.0 -1.010552660601e-03 
-1.970258742010e-04 -2.540004491898e-06 0.0 
-2.540004491898e-06 1.065332307301e-03 0.0 
0.0 0.0 -1.995083582888e-04 
-3.139166667020e-04 -2.253789274829e-06 0.0 
-2.253789274829e-06 1.850494599455e-03 0.0 
0.0 0.0 -3.106934562087e-04 
-9.732483420248e-04 2.855591412457e-05 0.0 
2.855591412457e-05 6.524849625930e-03 0.0 
0.0 0.0 -9.796923013958e-04 
-2.492954901946e-04 5.421975703898e-07 0.0 
5.421975703898e-07 1.421478567984e-03 0.0 
0.0 0.0 -2.487700610537e-04 
-1.054075874997e-03 3.591188931398e-06 0.0 
3.591188931398e-06 7.044165573929e-03 0.0 
0.0 0.0 -1.055800198362e-03 
-5.906078188001e-04 -3.257939390685e-06 0.0 
-3.257939390685e-06 3.796619652219e-03 0.0 
0.0 0.0 -5.891999696964e-04 
-7.180999395262e-04 1.178684334051e-07 0.0 
1.178684334051e-07 4.675154024113e-03 0.0 
0.0 0.0 -7.153500975001e-04 
-3.728153202837e-04 5.624284337173e-06 0.0 
5.624284337173e-06 2.280349559801e-03 0.0 
0.0 0.0 -3.721998919698e-04 
-5.103591414383e-04 -9.070033728056e-06 0.0 
-9.070033728056e-06 3.229749929793e-03 0.0 
0.0 0.0 -5.080103017801e-04 
-8.695833745558e-04 -3.060324942152e-06 0.0 
-3.060324942152e-06 5.711345853531e-03 0.0 
0.0 0.0 -8.638580894607e-04 
-8.186088136840e-04 -7.130242765285e-06 0.0 
-7.130242765285e-06 5.325410070609e-03 0.0 
0.0 0.0 -8.086477316853e-04 
-7.808475722582e-04 4.208348100211e-06 0.0 
4.208348100211e-06 5.088284712977e-03 0.0 
0.0 0.0 -7.738406155293e-04 
-6.192436331633e-04 -2.766602775266e-06 0.0 
-2.766602775266e-06 3.995359302638e-03 0.0 
0.0 0.0 -6.178822433291e-04 
-5.311490319336e-04 1.040423507352e-05 0.0 
1.040423507352e-05 3.373878795457e-03 0.0 
0.0 0.0 -5.288330985435e-04 
-4.650941372062e-04 3.123945634319e-06 0.0 
3.123945634319e-06 2.898874049441e-03 0.0 
0.0 0.0 -4.617239487405e-04 
-8.245081772930e-04 8.576273436611e-07 0.0 
8.576273436611e-07 5.414129368543e-03 0.0 
0.0 0.0 -8.213029907542e-04 
-1.107776256753e-03 4.822798209618e-06 0.0 
4.822798209618e-06 7.407183480602e-03 0.0 
0.0 0.0 -1.107475121065e-03 
-1.139123580733e-03 8.505935532770e-06 0.0 
8.505935532770e-06 7.608538315330e-03 0.0 
0.0 0.0 -1.136341617999e-03 
-1.199876040135e-03 -5.928463898175e-08 0.0 
-5.928463898175e-08 8.046533922637e-03 0.0 
0.0 0.0 -1.199268560344e-03 
-1.168168474149e-03 4.195650786352e-06 0.0 
4.195650786352e-06 7.812169121329e-03 0.0 
0.0 0.0 -1.164598082371e-03 
-1.102136352719e-03 2.455120919179e-06 0.0 
2.455120919179e-06 7.358887921961e-03 0.0 
0.0 0.0 -1.100413285504e-03 
-1.128466826395e-03 -6.206260029615e-06 0.0 
-6.206260029615e-06 7.555420673368e-03 0.0 
0.0 0.0 -1.129075729544e-03 
-1.196306272628e-03 1.070052804672e-05 0.0 
1.070052804672e-05 8.004295185816e-03 0.0 
0.0 0.0 -1.193594387005e-03 
-1.153224420722e-03 -4.335162698896e-08 0.0 
-4.335162698896e-08 7.767660328472e-03 0.0 
0.0 0.0 -1.159256375294e-03 
-1.235596637609e-03 -1.164422989244e-05 0.0 
-1.164422989244e-05 8.301735673801e-03 0.0 
0.0 0.0 -1.234286862126e-03 
-1.186419994292e-03 -1.475121185166e-05 0.0 
-1.475121185166e-05 7.963391228364e-03 0.0 
0.0 0.0 -1.187309181180e-03 
-1.120005548931e-03 2.940168057850e-06 0.0 
2.940168057850e-06 7.498615446152e-03 0.0 
0.0 0.0 -1.120864512401e-03 
-1.154875778754e-03 1.588860619795e-06 0.0 
1.588860619795e-06 7.686132635796e-03 0.0 
0.0 0.0 -1.147759711419e-03 
-1.213465252650e-03 -6.064802065587e-06 0.0 
-6.064802065587e-06 8.128624196229e-03 0.0 
0.0 0.0 -1.207767947030e-03 
-1.084932373400e-03 -2.016919157352e-06 0.0 
-2.016919157352e-06 7.235951787837e-03 0.0 
0.0 0.0 -1.082593982084e-03 
-1.254330692315e-03 -4.481726023154e-06 0.0 
-4.481726023154e-06 8.484172233715e-03 0.0 
0.0 0.0 -1.264544343569e-03 
-6.624416308103e-04 2.474610527068e-06 0.0 
2.474610527068e-06 4.298662523578e-03 0.0 
0.0 0.0 -6.621140475474e-04 
-1.785384896329e-04 7.817361308922e-06 0.0 
7.817361308922e-06 9.797346640556e-04 0.0 
0.0 0.0 -1.850918921636e-04 
-1.812548087705e-04 3.762529197936e-05 0.0 
3.762529197936e-05 9.321215546565e-04 0.0 
0.0 0.0 -1.767209935827e-04 
-7.539589003549e-04 1.955358916857e-06 0.0 
1.955358916857e-06 4.924010090496e-03 0.0 
0.0 0.0 -7.509174086159e-04 
-1.304930514548e-03 2.715145444446e-06 0.0 
2.715145444446e-06 8.760435441101e-03 0.0 
0.0 0.0 -1.299806302097e-03 
-1.304281806298e-03 1.236291441068e-07 0.0 
1.236291441068e-07 8.779429009152e-03 0.0 
0.0 0.0 -1.301753673823e-03 
-4.909194379315e-04 2.965411161772e-07 0.0 
2.965411161772e-07 3.101621980483e-03 0.0 
0.0 0.0 -4.895692906686e-04 
-1.302172698065e-03 -1.121402078098e-06 0.0 
-1.121402078098e-06 8.776859442822e-03 0.0 
0.0 0.0 -1.303413959896e-03 
-8.069978020622e-04 -2.494686579793e-06 0.0 
-2.494686579793e-06 5.276076784830e-03 0.0 
0.0 0.0 -8.012154088905e-04 
-3.570511327705e-04 3.379375906477e-06 0.0 
3.379375906477e-06 2.154968683645e-03 0.0 
0.0 0.0 -3.530685601169e-04 
-1.302556100553e-03 -9.155318300838e-06 0.0 
-9.155318300838e-06 8.779430224672e-03 0.0 
0.0 0.0 -1.304286792737e-03 
-1.070880273795e-03 7.212077137725e-06 0.0 
7.212077137725e-06 7.154951258216e-03 0.0 
0.0 0.0 -1.071440646998e-03 
-1.034235002280e-03 -1.284962224456e-06 0.0 
-1.284962224456e-06 6.899499474228e-03 0.0 
0.0 0.0 -1.034857077839e-03 
-1.003722632452e-03 2.735580280874e-06 0.0 
2.735580280874e-06 6.699806917378e-03 0.0 
0.0 0.0 -1.006057961993e-03 
-1.300150248326e-03 -1.392366785443e-05 0.0 
-1.392366785443e-05 8.797329976127e-03 0.0 
0.0 0.0 -1.305867370806e-03 
-9.260727886855e-04 3.160967958320e-07 0.0 
3.160967958320e-07 6.120955206479e-03 0.0 
0.0 0.0 -9.232948652302e-04 
-1.306196713142e-03 -8.296229578560e-06 0.0 
-8.296229578560e-06 8.804073325104e-03 0.0 
0.0 0.0 -1.306016332489e-03 
-9.052728605033e-04 -4.849094365272e-06 0.0 
-4.849094365272e-06 5.990555075409e-03 0.0 
0.0 0.0 -9.039903713831e-04 
-8.761060883680e-04 -1.507187481036e-06 0.0 
-1.507187481036e-06 5.787161046779e-03 0.0 
0.0 0.0 -8.747633066757e-04 
-8.116067085345e-04 -5.312091982637e-07 0.0 
-5.312091982637e-07 5.336659872116e-03 0.0 
0.0 0.0 -8.101682821885e-04 
-1.090435695547e-03 -5.471004820640e-06 0.0 
-5.471004820640e-06 7.297274492399e-03 0.0 
0.0 0.0 -1.092245366321e-03 
-1.304752605298e-03 5.119868144785e-06 0.0 
5.119868144785e-06 8.772978853590e-03 0.0 
0.0 0.0 -1.302677999426e-03 
-1.251945645214e-03 -2.706015879675e-06 0.0 
-2.706015879675e-06 8.407016214184e-03 0.0 
0.0 0.0 -1.248400714067e-03 
-1.246920299523e-03 -1.300681603293e-05 0.0 
-1.300681603293e-05 8.402409073512e-03 0.0 
0.0 0.0 -1.248426544684e-03 
-1.200536970879e-03 5.026882822924e-07 0.0 
5.026882822924e-07 8.002917905198e-03 0.0 
0.0 0.0 -1.189114855724e-03 
-1.300430795451e-03 -3.697458701870e-07 0.0 
-3.697458701870e-07 8.777742711435e-03 0.0 
0.0 0.0 -1.303398793257e-03 
-1.305040401458e-03 -2.477912411245e-06 0.0 
-2.477912411245e-06 8.792831145886e-03 0.0 
0.0 0.0 -1.306665994082e-03 
-1.309321026579e-03 -3.535422289684e-06 0.0 
-3.535422289684e-06 8.803291043654e-03 0.0 
0.0 0.0 -1.308500709484e-03 
-4.563282024571e-04 7.998262252195e-06 0.0 
7.998262252195e-06 2.871636865217e-03 0.0 
0.0 0.0 -4.564773689951e-04 
-4.946429183726e-04 2.495592359639e-06 0.0 
2.495592359639e-06 3.130328514227e-03 0.0 
0.0 0.0 -4.934415926888e-04 
-5.584596756046e-04 8.667542274344e-07 0.0 
8.667542274344e-07 3.577137698620e-03 0.0 
0.0 0.0 -5.576035839405e-04 
-5.302623041630e-04 -1.383760277083e-07 0.0 
-1.383760277083e-07 3.381956619872e-03 0.0 
0.0 0.0 -5.298816096007e-04 
-4.659671190879e-04 -4.163529231502e-07 0.0 
-4.163529231502e-07 2.931155601344e-03 0.0 
0.0 0.0 -4.652367627802e-04 
-5.016537237261e-04 2.063261409927e-06 0.0 
2.063261409927e-06 3.184734037305e-03 0.0 
0.0 0.0 -5.016361848483e-04 
-5.661735479295e-04 -1.745642799837e-06 0.0 
-1.745642799837e-06 3.632429034736e-03 0.0 
0.0 0.0 -5.657331850765e-04 
-4.736975024202e-04 4.166873871236e-06 0.0 
4.166873871236e-06 2.986059562016e-03 0.0 
0.0 0.0 -4.731795164401e-04 
-1.136859235010e-03 -3.377117996035e-07 0.0 
-3.377117996035e-07 7.623291641590e-03 0.0 
0.0 0.0 -1.138512926666e-03 
-1.305247072706e-03 8.619226715452e-06 0.0 
8.619226715452e-06 8.792398553622e-03 0.0 
0.0 0.0 -1.305779161548e-03 
-9.003036646772e-04 5.242872872448e-08 0.0 
5.242872872448e-08 5.967493708530e-03 0.0 
0.0 0.0 -9.007942405787e-04 
-8.714438606503e-04 -2.881495108083e-08 0.0 
-2.881495108083e-08 5.762779516703e-03 0.0 
0.0 0.0 -8.713600568839e-04 
-8.060291522058e-04 2.568870968060e-06 0.0 
2.568870968060e-06 5.307363937555e-03 0.0 
0.0 0.0 -8.059887332522e-04 
-6.767854044607e-04 -2.452778344729e-06 0.0 
-2.452778344729e-06 4.414816973838e-03 0.0 
0.0 0.0 -6.781883600425e-04 
-7.139648610369e-04 -1.142183076086e-06 0.0 
-1.142183076086e-06 4.673969170683e-03 0.0 
0.0 0.0 -7.153987595530e-04 
-7.802120795526e-04 -1.536270118745e-06 0.0 
-1.536270118745e-06 5.133033430624e-03 0.0 
0.0 0.0 -7.812419408864e-04 
-6.404629301344e-04 -4.612028746678e-06 0.0 
-4.612028746678e-06 4.156213633446e-03 0.0 
0.0 0.0 -6.407943132712e-04 
-9.874131908799e-04 -6.712457213211e-07 0.0 
-6.712457213211e-07 6.570776206516e-03 0.0 
0.0 0.0 -9.876394229526e-04 
-1.303361853095e-03 -8.460317239527e-06 0.0 
-8.460317239527e-06 8.788997264875e-03 0.0 
0.0 0.0 -1.305003056577e-03 
-8.872565026320e-04 -1.178797543572e-06 0.0 
-1.178797543572e-06 5.871190587017e-03 0.0 
0.0 0.0 -8.871663004355e-04 
-6.846436599198e-04 7.853769409709e-07 0.0 
7.853769409709e-07 4.472455721995e-03 0.0 
0.0 0.0 -6.865966444657e-04 
-7.539028914794e-04 -4.959050989123e-06 0.0 
-4.959050989123e-06 4.922681506756e-03 0.0 
0.0 0.0 -7.516786372745e-04 
-8.065421024266e-04 1.420005202741e-05 0.0 
1.420005202741e-05 5.322326400601e-03 0.0 
0.0 0.0 -8.094822736869e-04 
-8.086043951130e-04 -1.965516725366e-05 0.0 
-1.965516725366e-05 5.337498560082e-03 0.0 
0.0 0.0 -8.097394517040e-04 
-8.597670883848e-04 -1.890965562487e-05 0.0 
-1.890965562487e-05 5.752558822544e-03 0.0 
0.0 0.0 -8.733121467894e-04 
-8.092120706639e-04 -2.844643670808e-05 0.0 
-2.844643670808e-05 5.361887279047e-03 0.0 
0.0 0.0 -8.155917408702e-04 
-8.008122296240e-04 -3.960466263451e-06 0.0 
-3.960466263451e-06 5.274822743462e-03 0.0 
0.0 0.0 -8.015266587451e-04 
-8.309313177437e-04 -3.374628280102e-06 0.0 
-3.374628280102e-06 5.475720121039e-03 0.0 
0.0 0.0 -8.302790088839e-04 
-7.940624788884e-04 8.919203165535e-07 0.0 
8.919203165535e-07 5.224020544311e-03 0.0 
0.0 0.0 -7.937858958383e-04 
-8.582675862212e-04 -3.216784494388e-06 0.0 
-3.216784494388e-06 5.673950666655e-03 0.0 
0.0 0.0 -8.590670690980e-04 
-8.174868470622e-04 -1.134099850245e-05 0.0 
-1.134099850245e-05 5.408679153658e-03 0.0 
0.0 0.0 -8.213578559547e-04 
-7.534944197864e-04 -1.238974191223e-05 0.0 
-1.238974191223e-05 4.986891128186e-03 0.0 
0.0 0.0 -7.608744282309e-04 
-8.810221771506e-04 -8.901330273927e-06 0.0 
-8.901330273927e-06 5.862708610279e-03 0.0 
0.0 0.0 -8.866101721103e-04 
-8.418977428013e-04 7.461726785173e-06 0.0 
7.461726785173e-06 5.581554122099e-03 0.0 
0.0 0.0 -8.437388122980e-04 
-7.467365547974e-04 -1.323074519904e-05 0.0 
-1.323074519904e-05 4.916042254111e-03 0.0 
0.0 0.0 -7.509531518293e-04 
-6.281984343026e-05 -8.116789961930e-06 0.0 
-8.116789961930e-06 3.039228182762e-04 0.0 
0.0 0.0 -5.875963060191e-05 
-1.355333239518e-04 1.033404853999e-05 0.0 
1.033404853999e-05 6.720001517331e-04 0.0 
0.0 0.0 -1.336704791874e-04 
-1.282422711095e-04 -8.546555161091e-06 0.0 
-8.546555161091e-06 6.602474725937e-04 0.0 
0.0 0.0 -1.318084371690e-04 
-1.928083139696e-04 -4.221005670817e-06 0.0 
-4.221005670817e-06 1.041957248050e-03 0.0 
0.0 0.0 -1.954650243430e-04 
-2.029746956204e-04 1.944205005125e-05 0.0 
1.944205005125e-05 1.074330231207e-03 0.0 
0.0 0.0 -1.996745964068e-04 
-2.516532851573e-04 2.529704688843e-06 0.0 
2.529704688843e-06 1.468491691138e-03 0.0 
0.0 0.0 -2.586654344069e-04 
-2.430663838691e-04 -2.535368885229e-05 0.0 
-2.535368885229e-05 1.426461466079e-03 0.0 
0.0 0.0 -2.494736616194e-04 
-1.355920943443e-04 -1.133959606156e-05 0.0 
-1.133959606156e-05 6.743890404386e-04 0.0 
0.0 0.0 -1.329747880817e-04 
-5.916993316135e-05 -2.320129164534e-06 0.0 
-2.320129164534e-06 2.981065881978e-04 0.0 
0.0 0.0 -5.794854899120e-05 
-1.308876834567e-04 2.474427720982e-06 0.0 
2.474427720982e-06 6.544145800914e-04 0.0 
0.0 0.0 -1.315689628225e-04 
-5.700489183936e-05 1.676517162921e-06 0.0 
1.676517162921e-06 2.920832994483e-04 0.0 
0.0 0.0 -5.719792189481e-05 
-1.267870388794e-04 3.184293719906e-07 0.0 
3.184293719906e-07 6.426508649646e-04 0.0 
0.0 0.0 -1.299421249981e-04 
-1.994525793344e-04 4.316150581238e-06 0.0 
4.316150581238e-06 1.086316860704e-03 0.0 
0.0 0.0 -2.038865569970e-04 
-2.958463202673e-04 -2.325840138200e-07 0.0 
-2.325840138200e-07 1.726726422813e-03 0.0 
0.0 0.0 -2.925150634556e-04 
-1.301927001702e-03 1.803371535176e-05 0.0 
1.803371535176e-05 8.724914391627e-03 0.0 
0.0 0.0 -1.294874803588e-03 
-6.623633125061e-04 4.679424212470e-06 0.0 
4.679424212470e-06 4.281040174428e-03 0.0 
0.0 0.0 -6.595503360071e-04 
-6.354861751500e-04 1.876466608711e-05 0.0 
1.876466608711e-05 4.076331016795e-03 0.0 
0.0 0.0 -6.264797819744e-04 
-5.600446600074e-04 1.786449294601e-05 0.0 
1.786449294601e-05 3.606391450714e-03 0.0 
0.0 0.0 -5.641716646261e-04 
-6.018396249447e-04 -5.225124560815e-06 0.0 
-5.225124560815e-06 3.865969919156e-03 0.0 
0.0 0.0 -5.974662984275e-04 
-6.971605018600e-04 2.093612217768e-05 0.0 
2.093612217768e-05 4.459125829408e-03 0.0 
0.0 0.0 -6.865721209800e-04 
-5.253766316691e-04 1.379974747341e-05 0.0 
1.379974747341e-05 3.365120840458e-03 0.0 
0.0 0.0 -5.286920563404e-04 
-4.997160733495e-04 2.272416899081e-05 0.0 
2.272416899081e-05 3.215754431319e-03 0.0 
0.0 0.0 -5.038291843518e-04 
-6.458044435335e-05 -2.268465343287e-06 0.0 
-2.268465343287e-06 3.061057402813e-04 0.0 
0.0 0.0 -5.826474687103e-05 
-1.365107396446e-04 -1.511681688150e-05 0.0 
-1.511681688150e-05 6.671209083265e-04 0.0 
0.0 0.0 -1.338235891287e-04 
-1.329944671514e-04 1.728312419841e-05 0.0 
1.728312419841e-05 6.296869018316e-04 0.0 
0.0 0.0 -1.329549719063e-04 
-2.100970973320e-04 9.757108246001e-06 0.0 
9.757108246001e-06 1.064616598962e-03 0.0 
0.0 0.0 -1.976702944042e-04 
-1.907673612492e-04 -8.037251829827e-06 0.0 
-8.037251829827e-06 1.054607848416e-03 0.0 
0.0 0.0 -1.960684762570e-04 
-1.291399276806e-04 5.589927262183e-07 0.0 
5.589927262183e-07 6.717799826529e-04 0.0 
0.0 0.0 -1.329856363161e-04 
-1.332115243410e-04 1.116366171220e-05 0.0 
1.116366171220e-05 6.698553752902e-04 0.0 
0.0 0.0 -1.328726424774e-04 
-6.123018265424e-05 -2.226991271334e-06 0.0 
-2.226991271334e-06 2.966407899736e-04 0.0 
0.0 0.0 -5.786540529839e-05 
-1.318562850821e-04 -3.804233771788e-06 0.0 
-3.804233771788e-06 6.638255964620e-04 0.0 
0.0 0.0 -1.308611123410e-04 
-1.930153503724e-04 1.076682971486e-05 0.0 
1.076682971486e-05 1.064256298509e-03 0.0 
0.0 0.0 -1.994574706984e-04 
-5.202007941151e-05 -5.137534308526e-06 0.0 
-5.137534308526e-06 2.737802621695e-04 0.0 
0.0 0.0 -5.534513975842e-05 
-1.060096701056e-03 -2.854203109810e-05 0.0 
-2.854203109810e-05 7.080511066382e-03 0.0 
0.0 0.0 -1.060427308513e-03 
-1.101245431622e-03 -2.265554676241e-05 0.0 
-2.265554676241e-05 7.326835296988e-03 0.0 
0.0 0.0 -1.097082233180e-03 
-1.303771853134e-03 -3.955883839532e-06 0.0 
-3.955883839532e-06 8.773017437093e-03 0.0 
0.0 0.0 -1.300897016293e-03 
-7.525731418622e-04 -2.553654618204e-05 0.0 
-2.553654618204e-05 4.964909214712e-03 0.0 
0.0 0.0 -7.584009903415e-04 
-5.671099606197e-05 2.025225744353e-06 0.0 
2.025225744353e-06 2.971089711715e-04 0.0 
0.0 0.0 -5.884959645353e-05 
-1.296052575560e-03 -1.034030830046e-06 0.0 
-1.034030830046e-06 8.715505616406e-03 0.0 
0.0 0.0 -1.292107529982e-03 
-1.300241625373e-03 -1.196764903617e-05 0.0 
-1.196764903617e-05 8.782711832524e-03 0.0 
0.0 0.0 -1.303172775453e-03 
-1.297505069925e-03 9.380535181792e-06 0.0 
9.380535181792e-06 8.784349503541e-03 0.0 
0.0 0.0 -1.304823151597e-03 
-1.190737660973e-03 8.854859890109e-06 0.0 
8.854859890109e-06 7.990764728896e-03 0.0 
0.0 0.0 -1.191058493115e-03 
-1.217720710694e-03 3.907545697900e-06 0.0 
3.907545697900e-06 8.218811643119e-03 0.0 
0.0 0.0 -1.224322658093e-03 
-1.301588133362e-03 5.941663257033e-06 0.0 
5.941663257033e-06 8.722214772172e-03 0.0 
0.0 0.0 -1.294569364341e-03 
-4.491538872292e-04 3.425462149105e-06 0.0 
3.425462149105e-06 2.829494640627e-03 0.0 
0.0 0.0 -4.512809064328e-04 
-1.219121534789e-03 1.093707084892e-05 0.0 
1.093707084892e-05 8.264877250953e-03 0.0 
0.0 0.0 -1.225740639889e-03 
-1.181600644536e-03 2.602984545223e-06 0.0 
2.602984545223e-06 7.898254142128e-03 0.0 
0.0 0.0 -1.178628832109e-03 
-3.271245572877e-04 -7.559619564854e-07 0.0 
-7.559619564854e-07 1.969290585494e-03 0.0 
0.0 0.0 -3.268383546744e-04 
-4.353641825211e-04 2.390544681031e-06 0.0 
2.390544681031e-06 2.735090082528e-03 0.0 
0.0 0.0 -4.373623857420e-04 
-9.887113880157e-04 2.647202920691e-06 0.0 
2.647202920691e-06 6.590846789922e-03 0.0 
0.0 0.0 -9.899674718230e-04 
-9.119629022756e-04 -1.217041315454e-06 0.0 
-1.217041315454e-06 6.048161892543e-03 0.0 
0.0 0.0 -9.123979313600e-04 
-1.130689760044e-03 -2.404858458419e-06 0.0 
-2.404858458419e-06 7.563292742476e-03 0.0 
0.0 0.0 -1.130390451587e-03 
-9.324694232768e-04 5.707369417875e-08 0.0 
5.707369417875e-08 6.185987888161e-03 0.0 
0.0 0.0 -9.322225209316e-04 
-1.071273223037e-03 -3.400166334340e-06 0.0 
-3.400166334340e-06 7.166794807332e-03 0.0 
0.0 0.0 -1.073123358692e-03 
-1.246132006402e-03 2.306789458164e-05 0.0 
2.306789458164e-05 8.374889379432e-03 0.0 
0.0 0.0 -1.244129926109e-03 
-2.805652380377e-04 -4.717906580370e-06 0.0 
-4.717906580370e-06 1.732830044642e-03 0.0 
0.0 0.0 -2.939217362394e-04 
-9.366102056304e-04 6.334636788504e-06 0.0 
6.334636788504e-06 6.210934504197e-03 0.0 
0.0 0.0 -9.364826870394e-04 
-9.120035044512e-04 6.559904903544e-06 0.0 
6.559904903544e-06 6.042070421320e-03 0.0 
0.0 0.0 -9.130351872960e-04 
-1.076387052139e-03 -3.360138210610e-06 0.0 
-3.360138210610e-06 7.184148688862e-03 0.0 
0.0 0.0 -1.075939795031e-03 
-4.728102684627e-04 -4.847791376242e-06 0.0 
-4.847791376242e-06 2.971951481931e-03 0.0 
0.0 0.0 -4.709579147287e-04 
-7.280869989337e-04 -1.354131871897e-05 0.0 
-1.354131871897e-05 4.780585004203e-03 0.0 
0.0 0.0 -7.304257169629e-04 
-3.156217836785e-04 -5.089469505305e-06 0.0 
-5.089469505305e-06 1.850033331779e-03 0.0 
0.0 0.0 -3.104331955072e-04 
-1.248490279357e-03 4.323593742205e-06 0.0 
4.323593742205e-06 8.417241528006e-03 0.0 
0.0 0.0 -1.251461238623e-03 
-7.622164195474e-04 2.744443297154e-08 0.0 
2.744443297154e-08 4.979735740211e-03 0.0 
0.0 0.0 -7.590395520047e-04 
-7.692339302932e-04 1.865673827942e-06 0.0 
1.865673827942e-06 5.052106796517e-03 0.0 
0.0 0.0 -7.694287042311e-04 
-6.089514047186e-04 -2.827610219257e-06 0.0 
-2.827610219257e-06 3.952389816829e-03 0.0 
0.0 0.0 -6.120242822960e-04 
-4.863994982411e-04 4.620884363832e-06 0.0 
4.620884363832e-06 3.095071946727e-03 0.0 
0.0 0.0 -4.894362539292e-04 
-4.085285658609e-04 2.731393984732e-06 0.0 
2.731393984732e-06 2.545768838986e-03 0.0 
0.0 0.0 -4.100935076628e-04 
-6.992575820324e-04 4.870514854635e-06 0.0 
4.870514854635e-06 4.559959934010e-03 0.0 
0.0 0.0 -6.990242139688e-04 
-7.223263303115e-04 1.302313524923e-06 0.0 
1.302313524923e-06 4.731940689569e-03 0.0 
0.0 0.0 -7.237531747479e-04 
-1.024699739881e-03 1.653915686908e-06 0.0 
1.653915686908e-06 6.828723699735e-03 0.0 
0.0 0.0 -1.024340108609e-03 
-1.114669738223e-03 -2.759101931811e-06 0.0 
-2.759101931811e-06 7.438940293733e-03 0.0 
0.0 0.0 -1.112552678551e-03 
-7.837510010112e-05 1.769113863607e-05 0.0 
1.769113863607e-05 3.475076993490e-04 0.0 
0.0 0.0 -7.176178390651e-05 
-1.061119640742e-03 3.173187948495e-06 0.0 
3.173187948495e-06 7.087064478518e-03 0.0 
0.0 0.0 -1.061672265243e-03 
-8.547259828446e-04 -2.557127369416e-07 0.0 
-2.557127369416e-07 5.648936137093e-03 0.0 
0.0 0.0 -8.552253422611e-04 
-9.623974161653e-04 3.311768495871e-06 0.0 
3.311768495871e-06 6.381924133008e-03 0.0 
0.0 0.0 -9.599091010803e-04 
-1.065648191468e-03 -5.923271574244e-06 0.0 
-5.923271574244e-06 7.096345784584e-03 0.0 
0.0 0.0 -1.062640036239e-03 
-2.783998705011e-04 -2.298480854765e-06 0.0 
-2.298480854765e-06 1.715267207971e-03 0.0 
0.0 0.0 -2.909097700217e-04 
-1.100348444179e-03 -1.047118262863e-06 0.0 
-1.047118262863e-06 7.347575470432e-03 0.0 
0.0 0.0 -1.098747615487e-03 
-1.217488030174e-03 6.848117353236e-06 0.0 
6.848117353236e-06 8.139341092548e-03 0.0 
0.0 0.0 -1.212453547082e-03 
-8.838417845426e-04 -2.547521654431e-05 0.0 
-2.547521654431e-05 5.856172789859e-03 0.0 
0.0 0.0 -8.875094802107e-04 
-2.462642296247e-04 -5.029644419068e-06 0.0 
-5.029644419068e-06 1.395111957816e-03 0.0 
0.0 0.0 -2.442495876194e-04 
-8.759046619095e-04 5.034941322772e-06 0.0 
5.034941322772e-06 5.740576630140e-03 0.0 
0.0 0.0 -8.692469099983e-04 
-1.203793389362e-03 4.534763565553e-06 0.0 
4.534763565553e-06 8.059936526887e-03 0.0 
0.0 0.0 -1.202705989510e-03 
-1.079080060508e-03 -5.136331410960e-07 0.0 
-5.136331410960e-07 7.205755043523e-03 0.0 
0.0 0.0 -1.078220320736e-03 
-4.314372885713e-04 -1.108621221044e-05 0.0 
-1.108621221044e-05 2.708353444584e-03 0.0 
0.0 0.0 -4.336020471383e-04 
-7.948364969142e-04 -2.495821117445e-06 0.0 
-2.495821117445e-06 5.224923007330e-03 0.0 
0.0 0.0 -7.943514531093e-04 
-7.442299034792e-04 7.080946299359e-07 0.0 
7.080946299359e-07 4.865637424934e-03 0.0 
0.0 0.0 -7.428158978947e-04 
-6.789224573103e-04 -9.062719812239e-06 0.0 
-9.062719812239e-06 4.471649261705e-03 0.0 
0.0 0.0 -6.865907729104e-04 
-1.214586438871e-03 8.024689911950e-06 0.0 
8.024689911950e-06 8.094834481891e-03 0.0 
0.0 0.0 -1.206557591227e-03 
-8.183792108392e-04 -4.169826119565e-07 0.0 
-4.169826119565e-07 5.384604412960e-03 0.0 
0.0 0.0 -8.172945450070e-04 
-1.123489439230e-03 6.695635103152e-06 0.0 
6.695635103152e-06 7.497291039553e-03 0.0 
0.0 0.0 -1.120054252910e-03 
-9.239887439884e-04 -3.012520915634e-06 0.0 
-3.012520915634e-06 6.128004255690e-03 0.0 
0.0 0.0 -9.240809108919e-04 
-4.625644487372e-04 -4.132620430702e-06 0.0 
-4.132620430702e-06 2.914638302916e-03 0.0 
0.0 0.0 -4.629711029823e-04 
-1.121328625940e-03 -6.182944165264e-06 0.0 
-6.182944165264e-06 7.491651595506e-03 0.0 
0.0 0.0 -1.118919378802e-03 
-7.755037056979e-04 -1.629710765724e-06 0.0 
-1.629710765724e-06 5.087191610180e-03 0.0 
0.0 0.0 -7.743986277066e-04 
-1.165062879850e-03 -3.169874330989e-06 0.0 
-3.169874330989e-06 7.809274989077e-03 0.0 
0.0 0.0 -1.164614768973e-03 
-1.031438669585e-03 -5.272017896758e-06 0.0 
-5.272017896758e-06 6.875819044251e-03 0.0 
0.0 0.0 -1.031533309622e-03 
-6.383681651354e-04 -1.646563539618e-06 0.0 
-1.646563539618e-06 4.132113027582e-03 0.0 
0.0 0.0 -6.375205594687e-04 
-1.120494149395e-03 -5.362450288203e-06 0.0 
-5.362450288203e-06 7.500323563236e-03 0.0 
0.0 0.0 -1.121170216299e-03 
-7.780649319143e-04 1.815637845543e-06 0.0 
1.815637845543e-06 5.106477756252e-03 0.0 
0.0 0.0 -7.773091661689e-04 
-1.101658644117e-03 9.961254279966e-07 0.0 
9.961254279966e-07 7.356355521752e-03 0.0 
0.0 0.0 -1.099429584637e-03 
-7.271456150642e-04 1.682914491917e-06 0.0 
1.682914491917e-06 4.735785920808e-03 0.0 
0.0 0.0 -7.240542973723e-04 
-9.053111554421e-04 -2.304698340664e-06 0.0 
-2.304698340664e-06 5.989601996014e-03 0.0 
0.0 0.0 -9.041109700986e-04 
-9.863008524358e-04 -3.464876425115e-06 0.0 
-3.464876425115e-06 6.537147458197e-03 0.0 
0.0 0.0 -9.824247929831e-04 
-8.612973840953e-04 -1.473763680943e-07 0.0 
-1.473763680943e-07 5.687311619382e-03 0.0 
0.0 0.0 -8.608216255090e-04 
-9.529955923155e-04 1.728497531751e-05 0.0 
1.728497531751e-05 6.336375010902e-03 0.0 
0.0 0.0 -9.534332399069e-04 
-1.092284604608e-03 2.589702392292e-06 0.0 
2.589702392292e-06 7.290468944473e-03 0.0 
0.0 0.0 -1.090315851396e-03 
-3.119597294079e-04 5.757369509239e-07 0.0 
5.757369509239e-07 1.828570008309e-03 0.0 
0.0 0.0 -3.071334217218e-04 
-5.718786607335e-04 -4.107371137157e-07 0.0 
-4.107371137157e-07 3.675898340669e-03 0.0 
0.0 0.0 -5.719042557127e-04 
-9.488327861295e-04 -5.202841950027e-06 0.0 
-5.202841950027e-06 6.331676782321e-03 0.0 
0.0 0.0 -9.536514739466e-04 
-1.157212024015e-03 -6.515732433125e-06 0.0 
-6.515732433125e-06 7.701144359915e-03 0.0 
0.0 0.0 -1.150585697120e-03 
-1.224312444037e-03 6.690841738718e-06 0.0 
6.690841738718e-06 8.269264616708e-03 0.0 
0.0 0.0 -1.229329624135e-03 
-6.820956806615e-04 3.615386019444e-06 0.0 
3.615386019444e-06 4.429302489243e-03 0.0 
0.0 0.0 -6.801182747099e-04 
-1.081664045678e-03 -5.547367653078e-06 0.0 
-5.547367653078e-06 7.227268260236e-03 0.0 
0.0 0.0 -1.081576975854e-03 
-1.187584404498e-03 2.370146928347e-06 0.0 
2.370146928347e-06 7.946791552093e-03 0.0 
0.0 0.0 -1.185355684152e-03 
-7.511569300737e-04 3.681739321960e-07 0.0 
3.681739321960e-07 4.931952546785e-03 0.0 
0.0 0.0 -7.524367508395e-04 
-3.356805227239e-04 3.379744479997e-06 0.0 
3.379744479997e-06 2.005119320146e-03 0.0 
0.0 0.0 -3.333104686742e-04 
-2.618377986137e-04 -2.555233257220e-06 0.0 
-2.555233257220e-06 1.542022096797e-03 0.0 
0.0 0.0 -2.654833071040e-04 
-5.104550227812e-04 2.453007206902e-06 0.0 
2.453007206902e-06 3.238650363468e-03 0.0 
0.0 0.0 -5.092532232582e-04 
-7.832353398933e-04 -9.887778154057e-09 0.0 
-9.887778154057e-09 5.137653853930e-03 0.0 
0.0 0.0 -7.817448632792e-04 
-8.173389799679e-04 -1.106611203689e-06 0.0 
-1.106611203689e-06 5.390375532825e-03 0.0 
0.0 0.0 -8.181699076276e-04 
-1.246124432281e-03 8.592622963370e-06 0.0 
8.592622963370e-06 8.369587963902e-03 0.0 
0.0 0.0 -1.242275372262e-03 
-1.107849420052e-03 -3.778759467000e-06 0.0 
-3.778759467000e-06 7.425444910215e-03 0.0 
0.0 0.0 -1.110186454522e-03 
-1.040708302916e-03 -6.884984211961e-06 0.0 
-6.884984211961e-06 6.941970815521e-03 0.0 
0.0 0.0 -1.040857148505e-03 
-1.527209700993e-04 7.546329121728e-06 0.0 
7.546329121728e-06 7.439800217049e-04 0.0 
0.0 0.0 -1.519369657486e-04 
-7.102565865705e-04 9.145208254839e-06 0.0 
9.145208254839e-06 4.653234839291e-03 0.0 
0.0 0.0 -7.126371066839e-04 
-1.135597595821e-03 -4.213475059661e-06 0.0 
-4.213475059661e-06 7.626732622695e-03 0.0 
0.0 0.0 -1.139074001596e-03 
-8.226822624900e-04 -1.510040807145e-06 0.0 
-1.510040807145e-06 5.420363658064e-03 0.0 
0.0 0.0 -8.223634564932e-04 
-1.130518051871e-03 1.404153544755e-06 0.0 
1.404153544755e-06 7.542933512680e-03 0.0 
0.0 0.0 -1.126725356868e-03 
-7.730615027956e-04 -9.222257900534e-07 0.0 
-9.222257900534e-07 5.135473060459e-03 0.0 
0.0 0.0 -7.817916451012e-04 
-1.247411460160e-03 -9.243273431591e-06 0.0 
-9.243273431591e-06 8.408376939559e-03 0.0 
0.0 0.0 -1.249754184115e-03 
-5.771690213087e-04 1.052821776229e-05 0.0 
1.052821776229e-05 3.703652171226e-03 0.0 
0.0 0.0 -5.757576642514e-04 
-1.170100609579e-03 -4.592953287662e-06 0.0 
-4.592953287662e-06 7.841109684677e-03 0.0 
0.0 0.0 -1.168790087466e-03 
-1.048740829087e-03 7.093154405142e-06 0.0 
7.093154405142e-06 6.993148920806e-03 0.0 
0.0 0.0 -1.047452346298e-03 
-5.261911269690e-04 1.909166490891e-06 0.0 
1.909166490891e-06 3.348024093927e-03 0.0 
0.0 0.0 -5.248669331578e-04 
-7.497340550746e-04 3.779029275090e-06 0.0 
3.779029275090e-06 4.910648048132e-03 0.0 
0.0 0.0 -7.498068730476e-04 
-1.245763281564e-03 6.672330238115e-06 0.0 
6.672330238115e-06 8.371772027766e-03 0.0 
0.0 0.0 -1.243807156011e-03 
-1.117703748533e-03 2.194090469607e-06 0.0 
2.194090469607e-06 7.455079503703e-03 0.0 
0.0 0.0 -1.114542488500e-03 
-9.240113812816e-04 -1.198482106942e-06 0.0 
-1.198482106942e-06 6.127698402996e-03 0.0 
0.0 0.0 -9.240346875991e-04 
-7.861216138727e-04 -9.318371199110e-07 0.0 
-9.318371199110e-07 5.164682558518e-03 0.0 
0.0 0.0 -7.856950878877e-04 
-6.177367695525e-04 -9.517786211573e-06 0.0 
-9.517786211573e-06 3.998918706787e-03 0.0 
0.0 0.0 -6.191377506773e-04 
-8.459389819467e-04 -1.995047945311e-06 0.0 
-1.995047945311e-06 5.590510800112e-03 0.0 
0.0 0.0 -8.467704336814e-04 
-9.417404110639e-04 -4.713677469947e-06 0.0 
-4.713677469947e-06 6.237570578551e-03 0.0 
0.0 0.0 -9.395224721591e-04 
-1.301810218994e-03 1.765430740838e-06 0.0 
1.765430740838e-06 8.802491938361e-03 0.0 
0.0 0.0 -1.306889097489e-03 
-1.157353199815e-03 -3.220404905638e-06 0.0 
-3.220404905638e-06 7.685679656852e-03 0.0 
0.0 0.0 -1.148622835147e-03 
-9.680073786691e-04 -7.171826150583e-06 0.0 
-7.171826150583e-06 6.444265355765e-03 0.0 
0.0 0.0 -9.696660045843e-04 
-8.086257517039e-04 -2.588621595210e-06 0.0 
-2.588621595210e-06 5.331381971752e-03 0.0 
0.0 0.0 -8.097439408559e-04 
-9.758814597954e-04 -1.266881133521e-06 0.0 
-1.266881133521e-06 6.485358460050e-03 0.0 
0.0 0.0 -9.749840279683e-04 
-1.830817571470e-04 -6.180925807537e-06 0.0 
-6.180925807537e-06 1.047535156777e-03 0.0 
0.0 0.0 -1.970089232863e-04 
-6.448165884168e-04 4.844410112103e-06 0.0 
4.844410112103e-06 4.184395435775e-03 0.0 
0.0 0.0 -6.447622526173e-04 
-8.380376970069e-04 -3.326700526506e-06 0.0 
-3.326700526506e-06 5.530905952602e-03 0.0 
0.0 0.0 -8.382314227178e-04 
-5.380831595537e-04 5.638960694935e-07 0.0 
5.638960694935e-07 3.435054469080e-03 0.0 
0.0 0.0 -5.374563060555e-04 
-8.145911171393e-04 -5.272270294573e-07 0.0 
-5.272270294573e-07 5.360444702331e-03 0.0 
0.0 0.0 -8.136389561866e-04 
-1.227174802196e-03 1.276784792666e-05 0.0 
1.276784792666e-05 8.302917635780e-03 0.0 
0.0 0.0 -1.234277959947e-03 
-8.676280294557e-04 -2.040186177139e-06 0.0 
-2.040186177139e-06 5.731120870230e-03 0.0 
0.0 0.0 -8.668853676281e-04 
-6.021329393958e-04 -1.386838022326e-06 0.0 
-1.386838022326e-06 3.881394728410e-03 0.0 
0.0 0.0 -6.015264011954e-04 
-8.964491756309e-04 6.553805878159e-07 0.0 
6.553805878159e-07 5.929532426753e-03 0.0 
0.0 0.0 -8.955981815692e-04 
-5.512424861372e-04 -5.409275769174e-06 0.0 
-5.409275769174e-06 3.527258760375e-03 0.0 
0.0 0.0 -5.519888345566e-04 
-9.985595773763e-04 -1.015463228060e-05 0.0 
-1.015463228060e-05 6.646851321069e-03 0.0 
0.0 0.0 -9.983267706061e-04 
-9.215064714085e-04 1.407126120723e-07 0.0 
1.407126120723e-07 6.123536504565e-03 0.0 
0.0 0.0 -9.243533921793e-04 
-1.004433427129e-03 -6.175544373059e-06 0.0 
-6.175544373059e-06 6.679704057184e-03 0.0 
0.0 0.0 -1.003151257071e-03 
-2.014979142818e-04 -1.982424414306e-05 0.0 
-1.982424414306e-05 1.118628598720e-03 0.0 
0.0 0.0 -2.040322045631e-04 
-9.524490800155e-04 -1.599154771264e-06 0.0 
-1.599154771264e-06 6.321577882661e-03 0.0 
0.0 0.0 -9.517466134248e-04 
-1.151323095747e-03 8.970357597703e-06 0.0 
8.970357597703e-06 7.737810625971e-03 0.0 
0.0 0.0 -1.155419075730e-03 
-5.642242598448e-04 4.052530886118e-06 0.0 
4.052530886118e-06 3.629354201895e-03 0.0 
0.0 0.0 -5.654343806685e-04 
-8.430123869833e-04 1.789712430457e-06 0.0 
1.789712430457e-06 5.558821852331e-03 0.0 
0.0 0.0 -8.420324705410e-04 
-1.064235786948e-03 -6.087517053101e-06 0.0 
-6.087517053101e-06 7.102031703649e-03 0.0 
0.0 0.0 -1.063653581392e-03 
-4.868392782288e-04 -2.122282903202e-05 0.0 
-2.122282903202e-05 3.049667270729e-03 0.0 
0.0 0.0 -4.839843007303e-04 
-9.081670479201e-04 2.415755652883e-07 0.0 
2.415755652883e-07 6.014517114267e-03 0.0 
0.0 0.0 -9.074658271045e-04 
-1.068096740286e-03 -5.575043742401e-06 0.0 
-5.575043742401e-06 7.125147388201e-03 0.0 
0.0 0.0 -1.067288052377e-03 
-9.808487270250e-04 4.928616331384e-06 0.0 
4.928616331384e-06 6.520553626334e-03 0.0 
0.0 0.0 -9.801762873724e-04 
-8.470889807538e-04 7.350311736938e-07 0.0 
7.350311736938e-07 5.583629027931e-03 0.0 
0.0 0.0 -8.455731917576e-04 
-9.738610544212e-04 -1.605198629588e-06 0.0 
-1.605198629588e-06 6.476533283027e-03 0.0 
0.0 0.0 -9.738262179588e-04 
-5.107285056985e-04 1.726041735434e-05 0.0 
1.726041735434e-05 3.222108758113e-03 0.0 
0.0 0.0 -5.057041985798e-04 
-4.224983753940e-04 8.320492048848e-06 0.0 
8.320492048848e-06 2.639215696168e-03 0.0 
0.0 0.0 -4.238464704258e-04 
-3.592226638991e-04 1.930188485194e-06 0.0 
1.930188485194e-06 2.185168436497e-03 0.0 
0.0 0.0 -3.586180353125e-04 
-6.301304693072e-04 -1.957277653515e-06 0.0 
-1.957277653515e-06 4.076615728565e-03 0.0 
0.0 0.0 -6.294631353604e-04 
-1.103647244802e-03 -2.847244464937e-06 0.0 
-2.847244464937e-06 7.378786394117e-03 0.0 
0.0 0.0 -1.103081964739e-03 
-2.559482480597e-04 -2.299545213333e-05 0.0 
-2.299545213333e-05 1.449439224095e-03 0.0 
0.0 0.0 -2.521214004998e-04 
-1.054932560315e-03 -8.075575040893e-06 0.0 
-8.075575040893e-06 7.041307941420e-03 0.0 
0.0 0.0 -1.054898413167e-03 
-2.650995954687e-04 -9.741906018410e-06 0.0 
-9.741906018410e-06 1.540523614087e-03 0.0 
0.0 0.0 -2.660187670962e-04 
-5.941857965254e-04 -1.478675907496e-06 0.0 
-1.478675907496e-06 3.826673915507e-03 0.0 
0.0 0.0 -5.935709857392e-04 
-1.072876015775e-03 5.343583090758e-06 0.0 
5.343583090758e-06 7.192683716525e-03 0.0 
0.0 0.0 -1.077081564483e-03 
-9.321388457540e-04 -4.809931635802e-05 0.0 
-4.809931635802e-05 6.189086367178e-03 0.0 
0.0 0.0 -9.315431351609e-04 
-6.217808576270e-04 7.207492673146e-07 0.0 
7.207492673146e-07 4.019499781701e-03 0.0 
0.0 0.0 -6.211106552582e-04 
-3.980785928309e-04 9.124267879167e-06 0.0 
9.124267879167e-06 2.462820491612e-03 0.0 
0.0 0.0 -3.989951351066e-04 
-5.857792725331e-04 1.985647166887e-06 0.0 
1.985647166887e-06 3.767357559114e-03 0.0 
0.0 0.0 -5.850331209179e-04 
-9.112445775697e-04 1.341366700758e-06 0.0 
1.341366700758e-06 6.030641515549e-03 0.0 
0.0 0.0 -9.098959706900e-04 
-6.128747489382e-04 2.675469426563e-06 0.0 
2.675469426563e-06 3.959229262623e-03 0.0 
0.0 0.0 -6.124823626799e-04 
-5.756573688349e-04 3.659606376921e-06 0.0 
3.659606376921e-06 3.704306399129e-03 0.0 
0.0 0.0 -5.760838601101e-04 
-1.248717565768e-03 -5.535813130875e-06 0.0 
-5.535813130875e-06 8.366851373818e-03 0.0 
0.0 0.0 -1.242975171717e-03 
-6.019390184711e-04 5.185969946808e-06 0.0 
5.185969946808e-06 3.892334269077e-03 0.0 
0.0 0.0 -6.030381679152e-04 
-1.295271260153e-03 -1.307857609192e-05 0.0 
-1.307857609192e-05 8.801391727423e-03 0.0 
0.0 0.0 -1.305370344976e-03 
-1.297876901994e-03 -6.017750132336e-06 0.0 
-6.017750132336e-06 8.756844234735e-03 0.0 
0.0 0.0 -1.298405437673e-03 
-8.024513087945e-04 -3.501513188686e-05 0.0 
-3.501513188686e-05 5.274019348334e-03 0.0 
0.0 0.0 -7.997855503562e-04 
-4.254874939528e-04 2.211998048864e-05 0.0 
2.211998048864e-05 2.578130903576e-03 0.0 
0.0 0.0 -4.121418992062e-04 
-6.508445551723e-05 3.373963354785e-06 0.0 
3.373963354785e-06 3.129607731290e-04 0.0 
0.0 0.0 -6.767973558354e-05 
-4.292600751844e-04 -1.740584050413e-05 0.0 
-1.740584050413e-05 2.722306669060e-03 0.0 
0.0 0.0 -4.369243393394e-04 
-4.999202719491e-04 4.843301359549e-06 0.0 
4.843301359549e-06 3.182731173832e-03 0.0 
0.0 0.0 -5.013603847490e-04 
-1.049593438910e-03 4.881772467905e-07 0.0 
4.881772467905e-07 6.980157933883e-03 0.0 
0.0 0.0 -1.045752072333e-03 
-8.016418655660e-04 8.516902983695e-06 0.0 
8.516902983695e-06 5.282246051091e-03 0.0 
0.0 0.0 -8.029817139903e-04 
-4.608886666597e-04 1.012378092170e-05 0.0 
1.012378092170e-05 2.916090626050e-03 0.0 
0.0 0.0 -4.630712860745e-04 
-1.246806949158e-03 1.140227857430e-06 0.0 
1.140227857430e-06 8.413894031447e-03 0.0 
0.0 0.0 -1.250093291501e-03 
-1.307722546221e-03 -1.676098542475e-05 0.0 
-1.676098542475e-05 8.791128539895e-03 0.0 
0.0 0.0 -1.306737725957e-03 
-1.028575866269e-03 -1.191239422521e-05 0.0 
-1.191239422521e-05 6.846657277970e-03 0.0 
0.0 0.0 -1.028769680629e-03 
-1.163087821654e-03 1.345534459019e-05 0.0 
1.345534459019e-05 7.719562356736e-03 0.0 
0.0 0.0 -1.152835590205e-03 
-1.010012111677e-03 5.602799068574e-06 0.0 
5.602799068574e-06 6.735304706068e-03 0.0 
0.0 0.0 -1.010595862668e-03 
-1.192917845756e-03 -1.946426676376e-05 0.0 
-1.946426676376e-05 7.943592006894e-03 0.0 
0.0 0.0 -1.185717314024e-03 
-7.402744024553e-04 -5.561571203005e-05 0.0 
-5.561571203005e-05 4.875197844443e-03 0.0 
0.0 0.0 -7.451086181774e-04 
-1.274079564101e-04 8.533594738937e-07 0.0 
8.533594738937e-07 6.386951496409e-04 0.0 
0.0 0.0 -1.305770345747e-04 
-9.879127130267e-04 1.076817561927e-05 0.0 
1.076817561927e-05 6.567110452730e-03 0.0 
0.0 0.0 -9.879584850274e-04 
-3.534515362331e-04 7.236051672545e-06 0.0 
7.236051672545e-06 2.087202708593e-03 0.0 
0.0 0.0 -3.437331075899e-04 
-3.524709716392e-04 5.779652155068e-07 0.0 
5.779652155068e-07 2.140761807693e-03 0.0 
0.0 0.0 -3.524505972177e-04 
-2.862323044565e-04 -1.529779689612e-06 0.0 
-1.529779689612e-06 1.660184670344e-03 0.0 
0.0 0.0 -2.832406441101e-04 
-4.971401695179e-04 3.027225826669e-06 0.0 
3.027225826669e-06 3.086653370969e-03 0.0 
0.0 0.0 -4.856826860430e-04 
-1.849802147030e-04 7.362673378517e-06 0.0 
7.362673378517e-06 1.024898749324e-03 0.0 
0.0 0.0 -1.942844358666e-04 
-2.871589559832e-04 8.860091783218e-06 0.0 
8.860091783218e-06 1.702387296045e-03 0.0 
0.0 0.0 -2.888902821290e-04 
-1.252722980053e-03 -1.832850037119e-05 0.0 
-1.832850037119e-05 8.369674222349e-03 0.0 
0.0 0.0 -1.245112051941e-03 
-7.926742292647e-04 -4.732996368776e-05 0.0 
-4.732996368776e-05 5.282443543312e-03 0.0 
0.0 0.0 -8.050116406322e-04 
-1.106262153398e-03 -9.161465296468e-06 0.0 
-9.161465296468e-06 7.422861484469e-03 0.0 
0.0 0.0 -1.110409235593e-03 
-2.195876704695e-04 6.903728268407e-06 0.0 
6.903728268407e-06 1.223775342103e-03 0.0 
0.0 0.0 -2.210826640180e-04 
-1.251801969841e-03 -1.462670654940e-05 0.0 
-1.462670654940e-05 8.397461752409e-03 0.0 
0.0 0.0 -1.247366155457e-03 
-1.250359073208e-03 6.645071777192e-06 0.0 
6.645071777192e-06 8.395286537502e-03 0.0 
0.0 0.0 -1.246608778627e-03 
-1.310061522223e-03 -1.730900586737e-05 0.0 
-1.730900586737e-05 8.803293803047e-03 0.0 
0.0 0.0 -1.306249356034e-03 
-1.172119357565e-03 -2.987465004676e-06 0.0 
-2.987465004676e-06 7.878008992010e-03 0.0 
0.0 0.0 -1.176371721005e-03 
-2.180388128944e-04 -2.924544915677e-06 0.0 
-2.924544915677e-06 1.180274271759e-03 0.0 
0.0 0.0 -2.130604828246e-04 
-8.442593127821e-04 -4.359073983630e-05 0.0 
-4.359073983630e-05 5.668047935442e-03 0.0 
0.0 0.0 -8.603500797662e-04 
-1.256774464996e-03 -9.387217042972e-06 0.0 
-9.387217042972e-06 8.415646483150e-03 0.0 
0.0 0.0 -1.250827372426e-03 
-1.072962494745e-03 -3.075351322496e-06 0.0 
-3.075351322496e-06 7.220489030587e-03 0.0 
0.0 0.0 -1.080253149739e-03 
-1.299956315864e-03 5.907340655945e-05 0.0 
5.907340655945e-05 8.822006705032e-03 0.0 
0.0 0.0 -1.309985050881e-03 
-7.806106637019e-04 -1.684448248675e-06 0.0 
-1.684448248675e-06 5.212548371629e-03 0.0 
0.0 0.0 -7.979019438933e-04 
-1.254167562389e-03 1.146355027257e-05 0.0 
1.146355027257e-05 8.413941643761e-03 0.0 
0.0 0.0 -1.252774941638e-03 
-2.773224831107e-04 -1.248540399819e-05 0.0 
-1.248540399819e-05 1.578602427722e-03 0.0 
0.0 0.0 -2.737139294578e-04 
-1.253589576776e-03 1.816421682347e-05 0.0 
1.816421682347e-05 8.411285343410e-03 0.0 
0.0 0.0 -1.254166199180e-03 
-1.115104807484e-03 -2.535602796037e-06 0.0 
-2.535602796037e-06 7.430825592014e-03 0.0 
0.0 0.0 -1.110316242656e-03 
-8.788088159188e-04 2.953384655569e-05 0.0 
2.953384655569e-05 5.848517526204e-03 0.0 
0.0 0.0 -8.840149073763e-04 
-8.453655219936e-04 1.276109640112e-05 0.0 
1.276109640112e-05 5.644378390582e-03 0.0 
0.0 0.0 -8.570326279659e-04 
-1.251636506986e-03 8.563362149544e-06 0.0 
8.563362149544e-06 8.428656629745e-03 0.0 
0.0 0.0 -1.256337174517e-03 
-1.259327999631e-03 -2.468624830891e-05 0.0 
-2.468624830891e-05 8.412107540714e-03 0.0 
0.0 0.0 -1.249505442739e-03 
-1.752421740852e-04 1.599785091568e-05 0.0 
1.599785091568e-05 9.248205746742e-04 0.0 
0.0 0.0 -1.769373265848e-04 
-1.014009013286e-03 3.718452203742e-05 0.0 
3.718452203742e-05 6.827048883928e-03 0.0 
0.0 0.0 -1.024357608964e-03 
-6.037112023629e-04 -1.928016981804e-05 0.0 
-1.928016981804e-05 3.870166564208e-03 0.0 
0.0 0.0 -5.984289768806e-04 
-1.136473903534e-04 -2.305801768327e-05 0.0 
-2.305801768327e-05 5.992740239482e-04 0.0 
0.0 0.0 -1.205697443558e-04 
-1.256657915508e-03 3.816415809551e-05 0.0 
3.816415809551e-05 8.403684845898e-03 0.0 
0.0 0.0 -1.249521112489e-03 
-1.181297459508e-03 -1.601502097611e-06 0.0 
-1.601502097611e-06 7.855797415998e-03 0.0 
0.0 0.0 -1.172189067419e-03 
-1.260809781498e-03 3.729628833421e-05 0.0 
3.729628833421e-05 8.413738862441e-03 0.0 
0.0 0.0 -1.251863004148e-03 
-2.027346260532e-04 2.709152210168e-05 0.0 
2.709152210168e-05 1.045860090397e-03 0.0 
0.0 0.0 -1.953152674555e-04 
-1.282550990439e-04 1.596967550411e-05 0.0 
1.596967550411e-05 5.957593377885e-04 0.0 
0.0 0.0 -1.273034037094e-04 
-1.264740521524e-03 1.076136126608e-05 0.0 
1.076136126608e-05 8.488256231164e-03 0.0 
0.0 0.0 -1.258522865334e-03 
-1.257630123801e-03 7.011893020694e-06 0.0 
7.011893020694e-06 8.461160637007e-03 0.0 
0.0 0.0 -1.257106814994e-03 
-2.964921431859e-04 1.458101898901e-05 0.0 
1.458101898901e-05 1.817377003358e-03 0.0 
0.0 0.0 -3.034980657766e-04 
-1.315300675602e-03 -4.616213654092e-06 0.0 
-4.616213654092e-06 8.874722920157e-03 0.0 
0.0 0.0 -1.314710167832e-03 
-1.230668747668e-04 -1.081893831765e-05 0.0 
-1.081893831765e-05 5.709731362741e-04 0.0 
0.0 0.0 -1.229206800733e-04 
-7.274132408296e-04 6.183789390248e-06 0.0 
6.183789390248e-06 4.811004360547e-03 0.0 
0.0 0.0 -7.389643750272e-04 
-1.204537552605e-04 -1.859174322407e-05 0.0 
-1.859174322407e-05 6.217166808925e-04 0.0 
0.0 0.0 -1.247417965529e-04 
-1.299793796178e-03 -5.184403467026e-05 0.0 
-5.184403467026e-05 8.811604799613e-03 0.0 
0.0 0.0 -1.308531455474e-03 
-1.262934174837e-03 2.444499081752e-05 0.0 
2.444499081752e-05 8.445031740868e-03 0.0 
0.0 0.0 -1.254845750201e-03 
-6.580718270352e-04 3.721306501344e-05 0.0 
3.721306501344e-05 4.264446760778e-03 0.0 
0.0 0.0 -6.564513288157e-04 
-7.456337922437e-04 2.770990182635e-05 0.0 
2.770990182635e-05 4.941313475091e-03 0.0 
0.0 0.0 -7.541421605440e-04 
-4.450321519268e-04 1.831097352036e-05 0.0 
1.831097352036e-05 2.791375237210e-03 0.0 
0.0 0.0 -4.426424662127e-04 
-1.211596464916e-03 3.979318020067e-05 0.0 
3.979318020067e-05 8.090084984478e-03 0.0 
0.0 0.0 -1.203498912175e-03 
-1.699334618160e-04 1.120862622914e-05 0.0 
1.120862622914e-05 9.446237105804e-04 0.0 
0.0 0.0 -1.843356288727e-04 
-1.269994123481e-03 -1.450914975509e-05 0.0 
-1.450914975509e-05 8.504040731719e-03 0.0 
0.0 0.0 -1.260296891839e-03 
-1.268600913962e-03 -6.159942340754e-06 0.0 
-6.159942340754e-06 8.509424202183e-03 0.0 
0.0 0.0 -1.261416966621e-03 
-1.266492101745e-03 9.280004247674e-06 0.0 
9.280004247674e-06 8.502341661499e-03 0.0 
0.0 0.0 -1.260618436842e-03 
-1.320646394007e-03 1.164813461385e-06 0.0 
1.164813461385e-06 8.896090470956e-03 0.0 
0.0 0.0 -1.317725628150e-03 
-1.063917710965e-04 3.406664009707e-05 0.0 
3.406664009707e-05 5.707022560972e-04 0.0 
0.0 0.0 -1.219614697575e-04 
-1.271929683323e-03 -9.688594658061e-06 0.0 
-9.688594658061e-06 8.520583266263e-03 0.0 
0.0 0.0 -1.263090216482e-03 
-1.211976787312e-03 3.126546850388e-05 0.0 
3.126546850388e-05 8.084092320638e-03 0.0 
0.0 0.0 -1.202239909569e-03 
-7.453046702514e-04 4.651614229788e-05 0.0 
4.651614229788e-05 4.880400084605e-03 0.0 
0.0 0.0 -7.439744481034e-04 
-1.252851707889e-03 4.006401018330e-05 0.0 
4.006401018330e-05 8.422629498426e-03 0.0 
0.0 0.0 -1.252574368527e-03 
-5.410687361656e-04 2.769520936264e-05 0.0 
2.769520936264e-05 3.454688790362e-03 0.0 
0.0 0.0 -5.383891422301e-04 
-2.371733345551e-04 -4.470106712643e-05 0.0 
-4.470106712643e-05 1.418248240622e-03 0.0 
0.0 0.0 -2.492021827984e-04 
-1.298998890690e-03 -2.770464845181e-05 0.0 
-2.770464845181e-05 8.833071909488e-03 0.0 
0.0 0.0 -1.313490227100e-03 
-4.294380069032e-05 -4.186010349487e-06 0.0 
-4.186010349487e-06 2.320436162997e-04 0.0 
0.0 0.0 -5.297760877488e-05 
-7.470694764219e-04 -2.192265105751e-05 0.0 
-2.192265105751e-05 4.855390412225e-03 0.0 
0.0 0.0 -7.402411036050e-04 
-1.312354484328e-03 4.131093532365e-05 0.0 
4.131093532365e-05 8.846630708308e-03 0.0 
0.0 0.0 -1.313492844077e-03 
-2.211400451138e-04 -3.676306702309e-06 0.0 
-3.676306702309e-06 1.335213202641e-03 0.0 
0.0 0.0 -2.401910970206e-04 
-8.452827785452e-04 -2.606429286923e-05 0.0 
-2.606429286923e-05 5.603903241888e-03 0.0 
0.0 0.0 -8.489638187885e-04 
-1.255507124853e-03 -9.186014831588e-06 0.0 
-9.186014831588e-06 8.480922712531e-03 0.0 
0.0 0.0 -1.260211869575e-03 
-8.025976065576e-04 9.592064473731e-06 0.0 
9.592064473731e-06 5.261098351640e-03 0.0 
0.0 0.0 -7.986629621775e-04 
-1.151240916671e-03 -6.084869299023e-05 0.0 
-6.084869299023e-05 7.669030971500e-03 0.0 
0.0 0.0 -1.148445367820e-03 
-2.192829735373e-04 1.243334644933e-05 0.0 
1.243334644933e-05 1.310510961281e-03 0.0 
0.0 0.0 -2.379222736554e-04 
-3.921137447337e-05 -2.374603163355e-06 0.0 
-2.374603163355e-06 2.327919393127e-04 0.0 
0.0 0.0 -4.855001867800e-05 
-9.645913781641e-04 -4.083102734348e-05 0.0 
-4.083102734348e-05 6.424950689754e-03 0.0 
0.0 0.0 -9.668795991591e-04 
-1.266746155896e-03 3.603621751399e-05 0.0 
3.603621751399e-05 8.474273100537e-03 0.0 
0.0 0.0 -1.258714341260e-03 
-1.271487619191e-03 -1.652780192111e-05 0.0 
-1.652780192111e-05 8.532655002207e-03 0.0 
0.0 0.0 -1.263997700767e-03 
-9.164544161815e-04 3.965640940801e-05 0.0 
3.965640940801e-05 6.111358236627e-03 0.0 
0.0 0.0 -9.199601189493e-04 
-2.093975888614e-04 -4.665649638259e-05 0.0 
-4.665649638259e-05 1.197818786362e-03 0.0 
0.0 0.0 -2.164625706183e-04 
-1.227420417668e-03 9.834631553151e-06 0.0 
9.834631553151e-06 8.219790599597e-03 0.0 
0.0 0.0 -1.221038716794e-03 
-6.921621610821e-04 -2.719005194231e-06 0.0 
-2.719005194231e-06 4.614590635001e-03 0.0 
0.0 0.0 -7.060606045913e-04 
-1.222382248160e-03 -1.550215016824e-05 0.0 
-1.550215016824e-05 8.147929268757e-03 0.0 
0.0 0.0 -1.208939113964e-03 
-1.221146925072e-03 -7.968249279325e-06 0.0 
-7.968249279325e-06 8.100682442682e-03 0.0 
0.0 0.0 -1.203806565432e-03 
-5.670525863277e-05 -1.771698635756e-05 0.0 
-1.771698635756e-05 2.585053466943e-04 0.0 
0.0 0.0 -6.449378323916e-05 
-8.615762060500e-04 1.909652726141e-05 0.0 
1.909652726141e-05 5.665696184107e-03 0.0 
0.0 0.0 -8.562696210230e-04 
-1.225143862683e-04 -2.984290666861e-05 0.0 
-2.984290666861e-05 5.860977302170e-04 0.0 
0.0 0.0 -1.223049983750e-04 
-1.270837356719e-03 -1.933520143368e-05 0.0 
-1.933520143368e-05 8.510135783999e-03 0.0 
0.0 0.0 -1.263714160583e-03 
-7.340830126836e-04 -1.335821332731e-05 0.0 
-1.335821332731e-05 4.821918862365e-03 0.0 
0.0 0.0 -7.344436328926e-04 
-4.176772664277e-04 -3.650619160946e-05 0.0 
-3.650619160946e-05 2.860283649269e-03 0.0 
0.0 0.0 -4.526870748299e-04 
-4.632043610658e-04 -3.909792630531e-06 0.0 
-3.909792630531e-06 2.935876671509e-03 0.0 
0.0 0.0 -4.600000000000e-04 
-4.858491939109e-04 -3.571106393788e-05 0.0 
-3.571106393788e-05 3.331481419020e-03 0.0 
0.0 0.0 -5.192176870747e-04 
-5.307983311465e-04 -4.380846350984e-06 0.0 
-4.380846350984e-06 3.321472726831e-03 0.0 
0.0 0.0 -5.266666666667e-04 
-5.549907469666e-04 -3.829926739680e-05 0.0 
-3.829926739680e-05 3.794910893621e-03 0.0 
0.0 0.0 -5.860204081633e-04 
-5.953475250696e-04 7.629065543884e-06 0.0 
7.629065543884e-06 3.863201785318e-03 0.0 
0.0 0.0 -5.933333333333e-04 
-6.234948668458e-04 -3.482962657316e-05 0.0 
-3.482962657316e-05 4.267925272266e-03 0.0 
0.0 0.0 -6.525251918948e-04 
-6.733326468399e-04 3.722248756973e-05 0.0 
3.722248756973e-05 4.248015244343e-03 0.0 
0.0 0.0 -6.600000000000e-04 

SCALARS node_materi_plasti_kappa_shear float
LOOKUP_TABLE default
1.154246033666e-04
3.030366954187e-03
5.919693902231e-03
5.923852315190e-03
2.859947626271e-04
6.218445993993e-04
8.718334659108e-04
1.197083009525e-03
1.504800919970e-03
1.797006115044e-03
2.096281833338e-03
2.401455262769e-03
2.703248692656e-03
3.016765538726e-03
3.359027883223e-03
3.663996831824e-03
3.908074174929e-03
4.228433772035e-03
4.543227631705e-03
4.848753617487e-03
5.161467818816e-03
5.477271259315e-03
5.779376537800e-03
5.932061195851e-03
5.925336573631e-03
5.920984287690e-03
5.924407700450e-03
5.915528138253e-03
5.915864416857e-03
5.918097125373e-03
5.921994664725e-03
5.927387718192e-03
5.930449677587e-03
5.921712747723e-03
5.924515498722e-03
5.931743115084e-03
5.928847067526e-03
5.919544915052e-03
5.911436947506e-03
5.907167024861e-03
5.916691287179e-03
5.925466264875e-03
5.926352037367e-03
5.927462665333e-03
5.926179788313e-03
5.923807961778e-03
5.921183308973e-03
5.929039143344e-03
5.928617810733e-03
5.930983770204e-03
5.930261081197e-03
5.934897168252e-03
5.940412066917e-03
5.938845524631e-03
5.922011629466e-03
5.913355498151e-03
5.926067531878e-03
5.924785671547e-03
5.926499683681e-03
5.927876554226e-03
5.924703349372e-03
5.915717987273e-03
5.917408892843e-03
5.920280365368e-03
5.931958681328e-03
5.938110150403e-03
5.906803770761e-03
5.928713183382e-03
5.925023434437e-03
5.923453604397e-03
5.939442334280e-03
5.942268996102e-03
3.313640150810e-03
3.643609585951e-03
3.947542440608e-03
4.242858391353e-03
4.550358348147e-03
4.852089997296e-03
5.156894848885e-03
5.448757344777e-03
5.772918013305e-03
9.252120421733e-05
3.026620073330e-03
3.625369357502e-04
6.731817662417e-04
9.805698534579e-04
1.254524899220e-03
1.561406696237e-03
1.860456384232e-03
2.071596637440e-03
2.380436576739e-03
2.688785350789e-03
1.924764222145e-03
2.108589051748e-03
2.410886229173e-03
2.706771452633e-03
2.974381815992e-03
2.988250338395e-03
2.992834626340e-03
2.988540146830e-03
3.040036634150e-03
2.993658303481e-03
2.986565369329e-03
2.994325014933e-03
3.003444053817e-03
3.004893136958e-03
3.000286560446e-03
2.997851424533e-03
2.994316307864e-03
3.001824735141e-03
9.621576344537e-05
1.072789967255e-04
9.631852337867e-05
9.634646192605e-05
1.161697218308e-04
1.255618245920e-04
1.234927640208e-04
1.176143698925e-04
1.181040846592e-04
1.155364499888e-04
1.206715439587e-04
1.365993450730e-04
1.279414962217e-04
1.070815165248e-04
1.087456221067e-04
1.225517974272e-04
1.266454771602e-04
1.116507655708e-04
1.010315185056e-04
1.983920542025e-03
1.964845558061e-03
1.960640733541e-03
1.960544880844e-03
1.960963881467e-03
1.961697162762e-03
1.962359160481e-03
1.962354626697e-03
1.962092454362e-03
1.962338760269e-03
1.962636133770e-03
1.962354339646e-03
1.960972586585e-03
1.960845883825e-03
1.962103404253e-03
1.965162269558e-03
1.963917855176e-03
1.959981883855e-03
1.950545102435e-03
1.823342208649e-03
2.018704063446e-03
2.107896464569e-03
2.095467463099e-03
2.092115637880e-03
2.090444484697e-03
2.089262768386e-03
2.091381496790e-03
2.091935832999e-03
2.091701405459e-03
2.090782435672e-03
2.090851254199e-03
2.091553502457e-03
2.090833695651e-03
2.089930293994e-03
2.089391547646e-03
2.089200621047e-03
2.089561437809e-03
2.092034405906e-03
2.102852006717e-03
2.407656875407e-03
2.395972459848e-03
2.394599199124e-03
2.395531468110e-03
2.394981263883e-03
2.396176998543e-03
2.397491354676e-03
2.397714307114e-03
2.395585196249e-03
2.397789855342e-03
2.399172565538e-03
2.398368259276e-03
2.398547875961e-03
2.393984296182e-03
2.398022086534e-03
2.418470853755e-03
2.331238587604e-03
2.637929620288e-03
2.723228742168e-03
2.707307494023e-03
2.703362484179e-03
2.705380261164e-03
2.706672240760e-03
2.703116806963e-03
2.702772263136e-03
2.703136713816e-03
2.702441216446e-03
2.701188865917e-03
2.700451988879e-03
2.702758821159e-03
2.699325300696e-03
2.707024502910e-03
2.723902039593e-03
2.292941970270e-04
5.236807730249e-04
8.235808296834e-04
1.134523506932e-03
1.423638051930e-03
1.725266219408e-03
1.935057087960e-03
2.241665025770e-03
2.548701800634e-03
2.861688706248e-03
7.103606478164e-04
5.814911313878e-03
2.047918518275e-04
1.970502068753e-04
5.819197632046e-03
1.328946267278e-03
3.191329080053e-03
5.810273490245e-03
1.892382905539e-03
5.822030968612e-03
2.522985579042e-03
5.833950524206e-03
1.864247367510e-04
5.824179591591e-03
3.155514371104e-03
1.957918245127e-03
4.023649944342e-03
5.811714724389e-03
5.825466270030e-03
5.824996473377e-03
5.797525205523e-03
5.833870913862e-03
3.279705906600e-03
3.278932509466e-03
3.299538154266e-03
4.392988308338e-03
5.825782847880e-03
1.875803799628e-04
2.130243859940e-04
4.990941270632e-03
3.266764248665e-03
1.027578116983e-03
5.770593586357e-03
5.837121425949e-03
5.820649096206e-03
5.802522940311e-03
5.827315517430e-03
2.124904197991e-04
3.271394634805e-03
5.775055632193e-03
5.005410343617e-03
2.049450714895e-04
2.556345996281e-03
5.876876022666e-03
1.638575426776e-03
1.018536859922e-03
2.209222523540e-03
2.829980156742e-03
3.757872655430e-04
3.812034731290e-03
5.879774981020e-03
2.000834389720e-04
5.582228690945e-03
3.282968380463e-03
3.405879163641e-03
3.554924991576e-03
3.706761369563e-03
3.858428676321e-03
3.994172834541e-03
3.835090176788e-03
4.124628089981e-03
3.963011153955e-03
4.154617485841e-03
4.253890367715e-03
4.090560016023e-03
4.382096032079e-03
4.218726563058e-03
3.929419603329e-03
4.056695462337e-03
3.767499058174e-03
3.894823734663e-03
4.184913419616e-03
4.022005877425e-03
3.732190171091e-03
3.858313833382e-03
3.569562641982e-03
3.695377336778e-03
3.406514106271e-03
3.532562577704e-03
3.821712444257e-03
3.658737601044e-03
3.369644961438e-03
3.495886750392e-03
3.207187652528e-03
3.332149617847e-03
3.621982769517e-03
3.458496973122e-03
3.166845774337e-03
3.294707675905e-03
3.002130027116e-03
3.131260622861e-03
2.837304896117e-03
2.965670032421e-03
3.259556182238e-03
3.094478366317e-03
2.799648397582e-03
2.927396624230e-03
3.222929756525e-03
3.055408384458e-03
3.351641860097e-03
3.184131490321e-03
2.889094859221e-03
3.017387565719e-03
3.312807633971e-03
3.144807155985e-03
2.850539984923e-03
2.978148191045e-03
3.273453875391e-03
3.105701933788e-03
2.811118638057e-03
2.939152856274e-03
3.235930558971e-03
3.066878938369e-03
2.770729598448e-03
2.897992444106e-03
3.196676201024e-03
3.025458962526e-03
3.326539777395e-03
2.725836099392e-03
2.853445082624e-03
2.552546008883e-03
2.681203652163e-03
3.749361599789e-03
2.379164116958e-03
2.254416588919e-03
2.509143601858e-03
2.813194765712e-03
2.206243071564e-03
2.337199456257e-03
2.035089294135e-03
2.704627779472e-03
4.313057656759e-03
2.166880539926e-03
1.864421071359e-03
1.732868546084e-03
1.561342170473e-03
4.024498791055e-03
4.321449536869e-03
4.179690524695e-03
4.487558501959e-03
4.351378253477e-03
1.692293086120e-03
4.547507496043e-03
4.620310667296e-03
3.444574795783e-03
3.081228819560e-03
3.519317618785e-03
2.468789982299e-03
2.300880945692e-03
2.604574973058e-03
3.497581244636e-03
3.628764160508e-03
3.799698635942e-03
3.931379681523e-03
4.102448612731e-03
4.234588908537e-03
4.063072780301e-03
4.366751221426e-03
4.194735028229e-03
4.405545622725e-03
4.273365102485e-03
4.498318737704e-03
4.326379418243e-03
4.629602997623e-03
4.457503609016e-03
4.153929470569e-03
4.284864263683e-03
3.982884066866e-03
3.648745610141e-03
3.817193794493e-03
3.946719407469e-03
4.115926409861e-03
4.245574739592e-03
4.415539763342e-03
4.544399560802e-03
4.375426891281e-03
4.509920023172e-03
2.632653377112e-03
2.504948411976e-03
2.338614636793e-03
2.211400256376e-03
2.045332097660e-03
1.919061142858e-03
1.752635209565e-03
1.878513981748e-03
1.584910331352e-03
1.710339413602e-03
1.415942396810e-03
1.540924270131e-03
3.948384266438e-03
4.285218450736e-03
4.585788453075e-03
4.452548000313e-03
1.432045145505e-03
4.588120534622e-03
4.576656745919e-03
4.442906503729e-03
4.675416510747e-03
1.391840176144e-03
1.627976054006e-03
1.791438559949e-03
4.652375729059e-03
4.515073750359e-03
4.747734229222e-03
1.522378979602e-03
4.671085369189e-03
1.291851135584e-03
4.415253925120e-03
4.718848314431e-03
3.891705484867e-03
4.754278458359e-03
4.616084921715e-03
1.839848146906e-03
1.672605894671e-03
1.378135101855e-03
1.515420670763e-03
1.805900116599e-03
1.632448232839e-03
1.332653763525e-03
1.460848178870e-03
1.759405537371e-03
1.587950129179e-03
1.285510927899e-03
1.415480434626e-03
4.891516996896e-03
1.121510096864e-03
3.641366942474e-03
4.879243427220e-03
4.841045972056e-03
4.817221487039e-03
4.680859314151e-03
4.376749942027e-03
4.546436710308e-03
4.850021688501e-03
4.714841530376e-03
4.411085338888e-03
4.576823668989e-03
4.271643822444e-03
4.438121527056e-03
4.742306724662e-03
4.605607762388e-03
4.302170490177e-03
4.468415119196e-03
4.164526586705e-03
4.326213013675e-03
4.634793358128e-03
1.226849014185e-03
4.506378239639e-03
4.809738295993e-03
2.453146888506e-03
2.728545033659e-03
2.907124081246e-03
3.043059147020e-03
4.493803980505e-03
4.803851567309e-03
1.501869364537e-03
1.664240495932e-03
4.952759396910e-03
4.548949919363e-03
4.244032685451e-03
2.918967585879e-03
2.792586959038e-03
2.629168594188e-03
2.499093692646e-03
2.668968419875e-03
2.332626947432e-03
4.138292167915e-03
4.909939925648e-03
1.603914124137e-03
1.302913386403e-03
4.855203702972e-03
4.205737706829e-03
4.111791117138e-03
4.239349827017e-03
4.404279031402e-03
4.532163345971e-03
4.698797086860e-03
4.826101189867e-03
4.663500232458e-03
4.917627217648e-03
4.959771601570e-03
4.174662190372e-03
4.151213148999e-03
1.888480938751e-03
1.096487228566e-03
1.112867725487e-03
1.347315636886e-03
1.652113615696e-03
5.051413102721e-03
4.995155339568e-03
4.862932033424e-03
2.379373966366e-03
2.546273267233e-03
5.051913667086e-03
4.046495241743e-03
4.106805891897e-03
3.964719198022e-03
1.001701890259e-03
9.814910827122e-04
5.018736248123e-03
1.953490702354e-03
1.826326942528e-03
1.000603477325e-03
8.270248169059e-04
4.649062039121e-03
4.959360782526e-03
3.209003612840e-03
3.344763241722e-03
4.919412739713e-03
1.246851632543e-03
5.108760944892e-03
4.338688324758e-03
4.036566623443e-03
2.862194265683e-03
1.379647792169e-03
1.216950747748e-03
2.058445277619e-03
1.544704251302e-03
1.478187698947e-03
5.222097844678e-03
5.150166074507e-03
4.796698922504e-03
4.498570299624e-03
5.089656245451e-03
9.457015925929e-04
5.189931181500e-03
4.686738709315e-03
5.150549732461e-03
5.027069730600e-03
2.114316632000e-03
1.991901980435e-03
1.705778784395e-03
1.877221421128e-03
3.675799238899e-03
2.280051155843e-03
3.479503618634e-03
3.353779208918e-03
3.194968393760e-03
2.831556800728e-03
2.708824037533e-03
2.375496384323e-03
3.686936591630e-03
3.078073203987e-03
3.851596386181e-03
3.667740788258e-03
5.044158210038e-03
5.215830386065e-03
3.998289725651e-03
3.853491964182e-03
1.131663708096e-03
1.005870343686e-03
3.457686078413e-03
5.011327749084e-03
5.115127262102e-03
5.250667570774e-03
5.084339547061e-03
5.085185550635e-03
2.466333230067e-03
3.777777636612e-03
9.588302078742e-04
3.912004250684e-03
8.314503266492e-04
4.475699055473e-03
4.989278594651e-03
5.157849786266e-03
5.214381496867e-03
3.266010047436e-03
4.041180497852e-03
3.878621153168e-03
3.070483235828e-03
2.913482248638e-03
3.035157386404e-03
2.755770959431e-03
2.184615498058e-03
2.013559352505e-03
5.319773126116e-03
5.255640298353e-03
5.321605394694e-03
5.197016645099e-03
5.342046142709e-03
5.180952194182e-03
1.777196002727e-03
2.427249311879e-03
5.314454420742e-03
3.225902650504e-03
5.312357786981e-03
5.147322410379e-03
6.540445478407e-04
7.723794913411e-04
5.277227190096e-03
1.587049601255e-03
1.745337399366e-03
1.421339300996e-03
5.610035015994e-03
3.257775872683e-03
5.289370763037e-03
2.995256057925e-03
5.420258365801e-03
4.174507003320e-03
2.750543209626e-03
4.785821545599e-03
5.111095174845e-03
5.457139877325e-03
3.797889722827e-03
3.646479732755e-03
3.931549897695e-03
1.164427047641e-03
8.448239735480e-04
5.077361997568e-03
2.130717764018e-03
2.299994958429e-03
1.365911109574e-03
1.662041853713e-03
3.380077755549e-03
3.249013876936e-03
4.605823304079e-03
4.769919328613e-03
4.276226867883e-03
4.169358572453e-03
3.867935193715e-03
3.737504250769e-03
5.341787835815e-03
5.553309217008e-03
2.353647089942e-03
2.227016294383e-03
2.307076216506e-03
5.450349556697e-03
5.463341176944e-03
5.325739410321e-03
7.148670898350e-04
8.870883348093e-04
1.101873869960e-03
9.316626042025e-04
5.373764850267e-03
5.221517258001e-03
5.572702457976e-03
1.582372335378e-03
4.632172669378e-03
5.375893312072e-03
5.254154539084e-03
5.559534277686e-03
5.076810545238e-03
5.365925183894e-03
5.378240200423e-03
5.392140300883e-04
5.334646512646e-03
3.675752576569e-03
3.994140177194e-04
3.535833562514e-03
3.716995656290e-03
3.370679194070e-03
1.282169154075e-03
3.567296707678e-03
3.765939256375e-03
5.126327859221e-04
5.605887865963e-03
5.560267422025e-04
6.660332016855e-04
5.449756143397e-03
5.274590684749e-03
5.572244234080e-03
5.392478454778e-03
5.099677131758e-03
5.238383322142e-03
3.509567093749e-03
5.572364392840e-03
5.374148307929e-03
5.737141131835e-03
2.638726436383e-03
2.039901378839e-03
1.905448348708e-03
1.617406521166e-03
5.530794330127e-03
5.348359015461e-03
4.829734702657e-03
4.521447046327e-03
3.557349194756e-03
3.532569652196e-03
3.813584889458e-03
3.767894522616e-03
4.058668074403e-03
4.012436085661e-03
4.295379223318e-03
5.556472121404e-03
1.300890945793e-03
2.946721722792e-03
5.471988497703e-03
5.293800497184e-03
2.587723201717e-03
2.314665718403e-03
5.537328889683e-03
2.406283520918e-03
5.792762283983e-03
1.858040090612e-04
4.857765212982e-04
2.573038789786e-03
2.873030274745e-03
2.199216706967e-03
2.091680435174e-03
4.476442988489e-03
7.504877515354e-04
1.263024816417e-03
4.334362747608e-03
9.849535248275e-04
4.679903303412e-03
2.540562741112e-03
3.118474233540e-03
1.542099058054e-03
2.168158947901e-03
3.802386178974e-03
3.549362578402e-03
3.391116114852e-03
2.670946485909e-03
2.260803135557e-03
1.949223813238e-03
3.605674145861e-03
4.919767447334e-03
5.053137848748e-03
5.341032503505e-03
5.187217989567e-03
4.888560595270e-03
5.017653317247e-03
5.314535410036e-03
5.156798542278e-03
5.508315270460e-03
5.286399283860e-03
4.980351695302e-03
5.106165886697e-03
5.394021959470e-03
4.807746362982e-03
5.628111934766e-03
2.871243858978e-03
6.965101933152e-04
6.551789095587e-04
3.282360146456e-03
5.809860564826e-03
5.821157866103e-03
2.082528349660e-03
5.819524766679e-03
3.515099545658e-03
1.460932159611e-03
5.821354656771e-03
4.753391499877e-03
4.585238946775e-03
4.452711673430e-03
5.831503303158e-03
4.073161563167e-03
5.837134571400e-03
3.985700881929e-03
3.851791908228e-03
3.554575317505e-03
4.847344029507e-03
5.817888275316e-03
5.575635814432e-03
5.571525256645e-03
5.311966086722e-03
5.819541179728e-03
5.830698806893e-03
5.838402623043e-03
1.930986719212e-03
2.101024040918e-03
2.394475490464e-03
2.266384359489e-03
1.970817861414e-03
2.136867911929e-03
2.431134490451e-03
2.006483688020e-03
5.062450549600e-03
5.830124137920e-03
3.970119493304e-03
3.835301643933e-03
3.534841884466e-03
2.946573758729e-03
3.117318954907e-03
3.419825569632e-03
2.776365598311e-03
4.367919564161e-03
5.827346570942e-03
3.906600699280e-03
2.984402664609e-03
3.276820545210e-03
3.539493379070e-03
3.549133742473e-03
3.824596042644e-03
3.567726925698e-03
3.513236360802e-03
3.646056828441e-03
3.479442829320e-03
3.776440321699e-03
3.600754084134e-03
3.319682840169e-03
3.899235541114e-03
3.712790048005e-03
3.270946734921e-03
2.113632266740e-04
4.663590485079e-04
4.566049970039e-04
7.156745567247e-04
7.373279452377e-04
1.003154234088e-03
9.722585000682e-04
4.717549759512e-04
2.060508248568e-04
4.540770013058e-04
2.016183866916e-04
4.467968440684e-04
7.550412036772e-04
1.182852220765e-03
5.788845613533e-03
2.859709310104e-03
2.724978007808e-03
2.413348020450e-03
2.580932184492e-03
2.979254934651e-03
2.254988964791e-03
2.151777952318e-03
2.124248935492e-04
4.645380525494e-04
4.620287622045e-04
7.358870940255e-04
7.228556758076e-04
4.637229493946e-04
4.638167508819e-04
2.058552859172e-04
4.611112548755e-04
7.280621305049e-04
1.906731245643e-04
4.704546691336e-03
4.866377932286e-03
5.817051415440e-03
3.306461396406e-03
2.060812032613e-04
5.781234699132e-03
5.822288119502e-03
5.823020880709e-03
5.305314190989e-03
5.454685450902e-03
5.787205338867e-03
1.904164271810e-03
5.481003932717e-03
5.244910374535e-03
1.337919885917e-03
1.840104844977e-03
4.380249884781e-03
4.023192351168e-03
5.022936148851e-03
4.114296708411e-03
4.760794110996e-03
5.555554324813e-03
1.179594138024e-03
4.131571153262e-03
4.020912679793e-03
4.773210184270e-03
1.997971753623e-03
3.186209854797e-03
1.264320056221e-03
5.581499467917e-03
3.319123411055e-03
3.366608306896e-03
2.641689808122e-03
2.077782102881e-03
1.716997042932e-03
3.042088607286e-03
3.155408692379e-03
4.538280633475e-03
4.941818270038e-03
2.600596271961e-04
4.708539861147e-03
3.760089428882e-03
4.244105085551e-03
4.715328609436e-03
1.167410736667e-03
4.880974533881e-03
5.403313920794e-03
3.898336749169e-03
9.671126416541e-04
3.824252090180e-03
5.351558397039e-03
4.786917829570e-03
1.824211420534e-03
3.480609807162e-03
3.243878701939e-03
2.980785244645e-03
5.375575519212e-03
3.585995865997e-03
4.980015277352e-03
4.076017659110e-03
1.959475074490e-03
4.975844888606e-03
3.389984283037e-03
5.185084528177e-03
4.569389381663e-03
2.760527645323e-03
4.981119205122e-03
3.402542523838e-03
4.886475886782e-03
3.158193069385e-03
3.984904577625e-03
4.346595079122e-03
3.785347613028e-03
4.212795144997e-03
4.843183184598e-03
1.250416126476e-03
2.458873987470e-03
4.209667670053e-03
5.115121627223e-03
5.486043343848e-03
2.956453768341e-03
4.801040750307e-03
5.276018678210e-03
3.287319671934e-03
1.360173557846e-03
1.054118268605e-03
2.172491032492e-03
3.423285296841e-03
3.589532674148e-03
5.552240847616e-03
4.931191158355e-03
4.613419327886e-03
5.464000382780e-04
3.101627176124e-03
5.063754079328e-03
3.609293720743e-03
5.009794558603e-03
3.416052821844e-03
5.575482653537e-03
2.475536180774e-03
5.206362114330e-03
4.647615435026e-03
2.244695150429e-03
3.268136202907e-03
5.555008699614e-03
4.952886856145e-03
4.075675641162e-03
3.440761170649e-03
2.670689667684e-03
3.721275175177e-03
4.148714793035e-03
5.835319629331e-03
5.106135759620e-03
4.284472671237e-03
3.550391241370e-03
4.312448323242e-03
7.156855192345e-04
2.792869111198e-03
3.682084945283e-03
2.301558692687e-03
3.569870679035e-03
5.507448749153e-03
3.814302881920e-03
2.595277141504e-03
3.945212643466e-03
2.359824458181e-03
4.418520852231e-03
4.072359630917e-03
4.440337999663e-03
7.757686492746e-04
4.203718467632e-03
5.137853672774e-03
2.428401079217e-03
3.700926420415e-03
4.718919712422e-03
2.045517196664e-03
4.001751556342e-03
4.734200010830e-03
4.335389309684e-03
3.717467635180e-03
4.306468150559e-03
2.158315669710e-03
1.778111948175e-03
1.480789573342e-03
2.723576269686e-03
4.901358873080e-03
9.907929562044e-04
4.678560104240e-03
1.061568277770e-03
2.558752785224e-03
4.777870338073e-03
4.115757970203e-03
2.685651994210e-03
1.661993244650e-03
2.519680303368e-03
4.012449715584e-03
2.645863061595e-03
2.477781824869e-03
5.552773111685e-03
2.601556434606e-03
5.832588277671e-03
5.807498199142e-03
3.510356051034e-03
1.737451315662e-03
2.405479085723e-04
1.829108936978e-03
2.134121346790e-03
4.639057668376e-03
3.513173410346e-03
1.958554503757e-03
5.579740788869e-03
5.830554327362e-03
4.549382429434e-03
5.128190593651e-03
4.477241356342e-03
5.275457844279e-03
3.249070074697e-03
4.477567605621e-04
4.366937944895e-03
1.414652943865e-03
1.454830351756e-03
1.141526190888e-03
2.071482774289e-03
7.048676555722e-04
1.168371653297e-03
5.554008919411e-03
3.515193931760e-03
4.930134979137e-03
8.572356047719e-04
5.572156000341e-03
5.569776879399e-03
5.838339516943e-03
5.230953075188e-03
8.277135440665e-04
3.767849181542e-03
5.583236268413e-03
4.792801184414e-03
5.849741729017e-03
3.467504393821e-03
5.585086652784e-03
1.085481836247e-03
5.581941862217e-03
4.937207249790e-03
3.891365713394e-03
3.752927955089e-03
5.593723576573e-03
5.582903556172e-03
6.530334131599e-04
4.532821262706e-03
2.586505146794e-03
4.309456059287e-04
5.577341518437e-03
5.218037136217e-03
5.584899765061e-03
7.371716874997e-04
4.403063957912e-04
5.630357557198e-03
5.612012503027e-03
1.230585207076e-03
5.884366405666e-03
4.092504687394e-04
3.203199811466e-03
4.370733977465e-04
5.843994283019e-03
5.604234858726e-03
2.845335710462e-03
3.286444788878e-03
1.873211432721e-03
5.369777350956e-03
6.577588307219e-04
5.641946929749e-03
5.644321122624e-03
5.639466704751e-03
5.898898139880e-03
4.211607310232e-04
5.652386425481e-03
5.366048530729e-03
3.253953958084e-03
5.587679770306e-03
2.309938481824e-03
9.687550335973e-04
5.854893632795e-03
1.859115235788e-04
3.234858844656e-03
5.866847427828e-03
9.109470946294e-04
3.727440323860e-03
5.623149802079e-03
3.507013142730e-03
5.092976750137e-03
8.975669244277e-04
1.659950822664e-04
4.270563646727e-03
5.623311015092e-03
5.659663736694e-03
4.061400799491e-03
8.220481444570e-04
5.453937277557e-03
3.071062049363e-03
5.407469273276e-03
5.377966207611e-03
2.102243503153e-04
3.774256867795e-03
4.259532598859e-04
5.646002650816e-03
3.210355763876e-03
1.904403431918e-03
1.978503866699e-03
2.215256382710e-03
2.237857692827e-03
2.521729557575e-03
2.586604075054e-03
2.833800295395e-03
2.849139881866e-03

SCALARS node_materi_plasti_phimob float
LOOKUP_TABLE default
1.831228374343e+01
6.358790747008e+00
2.060958775360e+01
1.910934659138e+01
-3.124856038856e+01
-5.772527538719e+00
4.638652680159e+00
1.069689235841e+01
1.426715662793e+01
1.644515452838e+01
1.799887311244e+01
1.914095593553e+01
1.994768989176e+01
2.056282697611e+01
2.101722750923e+01
2.121667691702e+01
2.129145473957e+01
2.136938118737e+01
2.134607125955e+01
2.126109679276e+01
2.113604577546e+01
2.097015949498e+01
2.078475419356e+01
1.913746793987e+01
1.912967369646e+01
1.913809252076e+01
1.914732663929e+01
1.913846105718e+01
1.916089895835e+01
1.917023440907e+01
1.920006781230e+01
1.923657791116e+01
1.927519410211e+01
1.929669880424e+01
1.936382365690e+01
1.942307337696e+01
1.950560757867e+01
1.957016196844e+01
1.966248073832e+01
1.975694671666e+01
1.986770508799e+01
2.001960052527e+01
2.018609686271e+01
2.033056466519e+01
2.042532207445e+01
2.055877925025e+01
2.065404555810e+01
2.072870356195e+01
2.077669555322e+01
2.084117300422e+01
2.084767816275e+01
2.087241572449e+01
2.084565240728e+01
2.086990165536e+01
2.084847019534e+01
2.081926911675e+01
2.079730467005e+01
2.077492578089e+01
2.075032724975e+01
2.072895047694e+01
2.071150501993e+01
2.069194393629e+01
2.068402995588e+01
2.065689088381e+01
2.062962585726e+01
2.061807190034e+01
2.065410013808e+01
2.059818489944e+01
2.060898214931e+01
2.059176023448e+01
2.058962820536e+01
2.059396518739e+01
9.804037869654e+00
1.216578176528e+01
1.384758203972e+01
1.511169619256e+01
1.614503922949e+01
1.697416874714e+01
1.768068231513e+01
1.828093934502e+01
1.880286202446e+01
-3.148893487580e+01
5.851711209692e+00
-8.837614351340e+00
-4.789616158973e-01
1.997333055591e+00
8.025239902352e-01
-1.241262721329e+00
-1.258503805933e+01
-2.151566668501e+01
-8.594217961771e+00
3.283157740500e-01
-4.485447314720e+01
-3.125079677117e+01
-1.014052597448e+01
4.670734831717e-01
5.707042482610e+00
5.917881919287e+00
5.922723424996e+00
5.857823484115e+00
6.331661681807e+00
5.839446066087e+00
5.744776520492e+00
5.739376918872e+00
5.767590282170e+00
5.702646497498e+00
5.619207600860e+00
5.550386342469e+00
5.513487030750e+00
5.564449808023e+00
-3.319266406911e+01
-2.993632769637e+01
-2.933732905974e+01
-3.181859770109e+01
-3.607355207462e+01
-3.940430970249e+01
-4.304635386447e+01
-4.691450715469e+01
-5.083220806459e+01
-5.445609081278e+01
-5.755346767910e+01
-5.737577403482e+01
-5.858065265248e+01
-6.112697897261e+01
-6.080596478175e+01
-5.991394903627e+01
-5.978658139602e+01
-9.533331485862e+00
4.025331601485e+01
-4.515802347956e+01
-4.622790319775e+01
-4.639472650395e+01
-4.664541444521e+01
-4.708871953010e+01
-4.771407163252e+01
-4.850908557870e+01
-4.944949636071e+01
-5.052972684187e+01
-5.174348353381e+01
-5.291752342559e+01
-5.380618195561e+01
-5.436506282911e+01
-5.459065366958e+01
-5.475914673827e+01
-5.439734763246e+01
-5.388842853632e+01
-5.149873777892e+01
-9.559368475947e+00
9.870038848405e+00
-3.210288335484e+01
-3.098015046801e+01
-3.439193037793e+01
-3.519598523964e+01
-3.538788482416e+01
-3.541884805449e+01
-3.525814543079e+01
-3.497963205313e+01
-3.457873145419e+01
-3.413182952573e+01
-3.370545828174e+01
-3.332359986097e+01
-3.299701923085e+01
-3.272774613907e+01
-3.251810721461e+01
-3.237224719853e+01
-3.228991320724e+01
-3.222828441885e+01
-3.208627351429e+01
-1.081995633886e+01
-1.096115265648e+01
-1.094006029826e+01
-1.090776903819e+01
-1.089652597621e+01
-1.087535255583e+01
-1.084958587371e+01
-1.084254977494e+01
-1.084845089698e+01
-1.081009939968e+01
-1.078419017299e+01
-1.078376220086e+01
-1.078679373870e+01
-1.082287834610e+01
-1.070873716823e+01
-9.691705499438e+00
-1.148629177177e+01
-7.496853663677e-01
3.512455569222e-01
-4.700438307070e-02
-3.400943169190e-02
1.655680434631e-02
6.597355177154e-02
7.386905262038e-02
1.006074662332e-01
1.500161325666e-01
1.665316868338e-01
1.798561931325e-01
1.930248466997e-01
2.164832285335e-01
2.056363375707e-01
3.473235799443e-01
6.461851647276e-01
-1.949704835713e+01
-3.473265868899e+00
1.091859979317e+00
1.763583564626e+00
1.711052398211e+00
-7.731820454040e-01
-2.134478732087e+01
-1.293650948279e+01
-2.626400243863e+00
3.829945268229e+00
-3.602594452857e+00
2.104891148729e+01
-3.790476099902e+01
-3.096815583554e+01
2.093394078645e+01
3.087134392571e+00
2.082542987543e+01
2.102776478291e+01
1.531852571888e+00
2.070401900689e+01
-1.391652804211e+00
2.079507191993e+01
-4.147935806402e+01
2.004250883744e+01
7.597190477852e+00
1.735722881802e+01
2.135715962764e+01
1.948509511513e+01
1.914947067351e+01
1.892142628599e+01
1.888736587554e+01
1.902332201218e+01
8.824950657803e+00
9.010458164835e+00
9.340273109723e+00
1.565629682656e+01
2.076130502890e+01
-3.075577569787e+01
-3.955624532570e+01
2.120816628111e+01
9.170546736190e+00
8.069389969914e+00
1.919573625306e+01
2.090990429220e+01
2.041185580454e+01
2.109881766287e+01
2.099778582136e+01
-3.257231978730e+01
8.796637968687e+00
2.092226305424e+01
1.733597344220e+01
-3.971271869323e+01
1.960094206175e+01
1.898816458562e+01
4.246837392035e+00
1.517430000019e+00
-5.137125947978e+00
3.666966923151e+00
-1.605590341008e+01
1.318311733434e+01
2.071584465374e+01
-1.536500157876e+01
1.852257417937e+01
8.978094043586e+00
1.026056686954e+01
1.120907267614e+01
1.238833941455e+01
1.314525808953e+01
1.397274444113e+01
1.336156701327e+01
1.475550059604e+01
1.428880675288e+01
1.456535930047e+01
1.550493187461e+01
1.516005737863e+01
1.620949808924e+01
1.596644392937e+01
1.486886926213e+01
1.578131873429e+01
1.464498924933e+01
1.566460961857e+01
1.658594983044e+01
1.653647451482e+01
1.562678084274e+01
1.654584739281e+01
1.566295947298e+01
1.679676749891e+01
1.602669000505e+01
1.746977509482e+01
1.798557094491e+01
1.866297128160e+01
1.827736682641e+01
1.936145487646e+01
1.906675879854e+01
2.002374656238e+01
2.020868388058e+01
2.076574363020e+01
2.060268874976e+01
2.124710519469e+01
2.106075687825e+01
2.161861277963e+01
2.135764531139e+01
2.184931548347e+01
2.202125525619e+01
2.219950096394e+01
2.191917720193e+01
2.223409640173e+01
2.243642246210e+01
2.244232709675e+01
2.258147213268e+01
2.256476076058e+01
2.231482595678e+01
2.243111576403e+01
2.261829810909e+01
2.248210179174e+01
2.217406507234e+01
2.223808319829e+01
2.248416637081e+01
2.225365242421e+01
2.188318813281e+01
2.192995126785e+01
2.223521519926e+01
2.194071608144e+01
2.150594447094e+01
2.155976493539e+01
2.192698560065e+01
2.158621906798e+01
2.189305303747e+01
2.108569659696e+01
2.116992962197e+01
2.051308140423e+01
2.067153157920e+01
2.086342639260e+01
1.983964519277e+01
1.954938565163e+01
2.009120172679e+01
2.080321790027e+01
1.906390653921e+01
1.942230956045e+01
1.817071101534e+01
2.068401143494e+01
1.728647089287e+01
1.865760082360e+01
1.714155520510e+01
1.636377808365e+01
1.491985699781e+01
1.387646898439e+01
1.514848721157e+01
1.451794664166e+01
1.569298549930e+01
1.517077696159e+01
1.591852362167e+01
1.650045623600e+01
1.619491845296e+01
1.449244044251e+01
1.783328875055e+01
2.249076904403e+01
1.972085305447e+01
1.906663857222e+01
1.999234821080e+01
2.212882584939e+01
2.205110079653e+01
2.220192553096e+01
2.209264603112e+01
2.217425090280e+01
2.204340419574e+01
2.197869326192e+01
2.191049039181e+01
2.186323420599e+01
2.206818778456e+01
2.221254984373e+01
2.177733807164e+01
2.174790174486e+01
2.164486094398e+01
2.163407144573e+01
2.168958794149e+01
2.159959519886e+01
2.160467162980e+01
2.259447192713e+01
2.245151505812e+01
2.252333835426e+01
2.234984588833e+01
2.239243950770e+01
2.220507615418e+01
2.221794897123e+01
2.237561556233e+01
1.686489990056e+01
2.181078562053e+01
2.137093818229e+01
2.104690603418e+01
2.039540254013e+01
1.975236794130e+01
1.873996486017e+01
1.761557153142e+01
1.878975941015e+01
1.605576820059e+01
1.746029383267e+01
1.399691583733e+01
1.571115928598e+01
1.901084999831e+01
2.212438298990e+01
2.197790055851e+01
2.185812196398e+01
1.370288067007e+01
2.152383241697e+01
2.205538389423e+01
2.220711665938e+01
2.217437754816e+01
1.321183113576e+01
1.601607528747e+01
1.733349717824e+01
1.620367704731e+01
1.574736936280e+01
2.200396754241e+01
1.447629928360e+01
2.177690351824e+01
1.167956877685e+01
2.151142502046e+01
2.142145108306e+01
2.187404350880e+01
2.172603342732e+01
2.156511664178e+01
1.849334291452e+01
1.702372903766e+01
1.359093933892e+01
1.521124569405e+01
1.804444798646e+01
1.643181782218e+01
1.290094017087e+01
1.447826567736e+01
1.740644510093e+01
1.575696116810e+01
1.199374368371e+01
1.374263886367e+01
2.139580084377e+01
8.388431225402e+00
1.347284295966e+01
2.184355126529e+01
2.200448693169e+01
1.668114868885e+01
1.628136177210e+01
1.527434028289e+01
1.587162775241e+01
1.677840717136e+01
1.641084477213e+01
1.543960440884e+01
1.602080512240e+01
1.496864612723e+01
1.560390806004e+01
1.654360792512e+01
1.617281083799e+01
1.515810175954e+01
1.577209880624e+01
1.466340854127e+01
1.532342206369e+01
1.631729097552e+01
1.113496757846e+01
2.231139033442e+01
2.208587011864e+01
1.947903899735e+01
2.022499024375e+01
2.064101080714e+01
2.075699733893e+01
1.590880007946e+01
1.681094408159e+01
1.384409252837e+01
1.539768084708e+01
1.707321522674e+01
2.143194704395e+01
2.147945678129e+01
1.867821139003e+01
1.725742567479e+01
1.807934634873e+01
1.635214930061e+01
1.540106531309e+01
1.699463564826e+01
2.234989607333e+01
1.701932100763e+01
1.542702470379e+01
1.216315682258e+01
2.133444235895e+01
2.249334569513e+01
1.845312374972e+01
1.933188724029e+01
1.888464193430e+01
1.963122910619e+01
1.928618631097e+01
1.991323036492e+01
2.022995203886e+01
2.146268410104e+01
2.041100329488e+01
1.479587952046e+01
2.196840517085e+01
1.818076944021e+01
9.139870034063e+00
8.891488094493e+00
1.269786439659e+01
1.551777913060e+01
2.175467177153e+01
1.966030611393e+01
1.902789060321e+01
1.415592767876e+01
1.291151363880e+01
2.156253852527e+01
1.390503355732e+01
1.425737669276e+01
1.366639948109e+01
7.654416584684e+00
6.212434590150e+00
1.723153335074e+01
1.819009321237e+01
1.644262048998e+01
4.615369807219e+00
-1.622645259864e-01
1.641535725850e+01
1.722276973379e+01
2.105086230110e+01
2.112555729141e+01
2.191608568888e+01
1.128717594509e+01
1.755048219139e+01
2.241349412654e+01
2.255907742224e+01
2.036171015304e+01
1.096343992035e+01
8.437692705973e+00
1.934330144818e+01
1.511286013601e+01
1.403101927541e+01
2.164077707575e+01
1.754740677766e+01
2.068579843791e+01
2.059660088071e+01
2.075403673766e+01
5.062582703027e+00
2.159013994569e+01
2.136693292092e+01
1.947206359650e+01
1.891511761249e+01
1.866118231350e+01
1.705598129566e+01
1.408421331389e+01
1.488052443677e+01
1.274445674363e+01
1.878912247969e+01
1.318389694378e+01
1.162363484478e+01
1.123466495732e+01
1.413835849906e+01
1.160266082658e+01
2.074856857645e+01
2.230573178444e+01
2.099625912400e+01
2.166666032287e+01
2.230103000154e+01
1.733385766410e+01
1.774272894828e+01
1.389873111175e+01
1.323857313453e+01
9.533174453508e+00
6.976783702241e+00
2.184678359563e+01
2.168289694518e+01
1.747388944722e+01
1.782107061746e+01
1.745345396754e+01
2.180047068424e+01
2.150922646786e+01
2.263247128282e+01
4.341296349019e+00
2.035392348072e+01
2.643547016106e+00
1.734588081104e+01
2.124010941131e+01
2.118373995612e+01
2.134319766839e+01
9.167444276332e+00
2.092757490603e+01
2.135594866306e+01
9.062115167583e+00
8.477181149108e+00
1.103864214751e+01
8.258755666945e+00
1.977309450556e+01
1.877095389181e+01
2.002705269631e+01
2.056555760391e+01
1.942372090866e+01
1.893060556192e+01
2.137398698936e+01
2.159288260533e+01
1.638739124298e+01
9.497234704683e+00
1.792624186751e+01
9.822600664086e+00
2.141293948849e+01
2.151812361016e+01
-6.136567026458e+00
-9.773960782775e-01
1.791392598984e+01
1.084080822819e+01
1.173349532959e+01
9.384102097902e+00
2.085983954700e+01
9.139848865400e+00
2.106658646155e+01
1.323394585060e+01
1.819000569074e+01
2.135180392410e+01
1.935503990913e+01
2.207008628177e+01
1.757039398267e+01
1.826628862302e+01
1.275974001580e+01
1.192849977509e+01
1.340539881770e+01
8.531415367684e+00
-1.118063365815e+00
1.744863348345e+01
1.834823856230e+01
1.896865562161e+01
1.300472568194e+01
1.611284938119e+01
2.132118979744e+01
2.130864142511e+01
1.791836048952e+01
1.798758325736e+01
1.802372520892e+01
2.246528338351e+01
2.256471762151e+01
2.263350373086e+01
1.801197595934e+01
1.841920871300e+01
2.060179794441e+01
2.029702523467e+01
2.008801598356e+01
1.821216003850e+01
2.100937178566e+01
2.111550932518e+01
-1.829627499673e+00
3.514046314164e+00
4.479862006167e+00
7.785570662369e-01
1.815397490278e+01
1.783600001181e+01
1.851545377849e+01
1.492310931561e+01
2.099773962561e+01
2.149886541714e+01
2.169288321960e+01
2.129549159341e+01
2.122175106023e+01
2.115696012443e+01
2.080000567714e+01
-1.340571381553e+01
1.806566306554e+01
1.216548052213e+01
-2.157478374552e+01
1.129545041828e+01
1.248907884636e+01
1.009437253089e+01
1.191595598126e+01
1.132826443629e+01
1.247218945311e+01
-1.145508072231e+01
1.854365929907e+01
-9.079052802663e+00
-2.934968065203e+00
2.124876348885e+01
2.135755961086e+01
2.110477470147e+01
2.120342821827e+01
2.143340174251e+01
2.128732186163e+01
1.095509847250e+01
2.101729457609e+01
2.112959197797e+01
2.091813483782e+01
4.206214978966e+00
1.515276711850e+01
1.203448166915e+01
7.245098668543e+00
1.953771776896e+01
1.900053272192e+01
2.128998654825e+01
2.137703660659e+01
1.148692922551e+01
1.142002062026e+01
1.313599871461e+01
1.295378207056e+01
1.432539636591e+01
1.414394904507e+01
1.528697661163e+01
2.067360458420e+01
5.318224610660e+00
6.500618518216e+00
2.136970921596e+01
2.158789734646e+01
8.377957269947e+00
4.213190579981e+00
2.125988127726e+01
1.996281432810e+01
1.889974632868e+01
-3.056527170591e+01
-1.688691401558e+01
1.977845984956e+01
1.107903701178e+01
1.482104265373e+01
1.214799885027e+01
2.230193668944e+01
-4.594112835640e-01
7.351892167312e+00
1.537843617361e+01
4.448905396754e-01
2.131549573072e+01
2.083648328629e+01
1.512816832639e+01
1.281799321787e+01
1.727532214719e+01
1.385240477114e+01
1.157060988912e+01
1.070912309283e+01
2.146631737398e+01
1.102807441918e+01
7.221325003985e+00
1.451426352627e+01
1.707624756465e+01
1.750163464080e+01
1.818938776087e+01
1.791169650010e+01
1.716854845523e+01
1.762516903814e+01
1.830952081709e+01
1.807711972016e+01
1.879315262257e+01
1.850068713494e+01
1.784492557257e+01
1.828747269193e+01
1.883202112189e+01
1.762893434148e+01
2.116259752393e+01
2.031077212288e+01
-5.862065100231e+00
-8.808712806166e+00
1.456423336220e+01
1.936816334747e+01
1.918979346520e+01
1.947577564461e+01
2.020899176195e+01
1.214911096812e+01
1.415293939901e+01
2.055807085014e+01
1.668511203341e+01
1.628320301340e+01
1.572084408647e+01
1.909693379740e+01
1.404756949618e+01
2.095343237240e+01
2.223844831239e+01
2.204137871411e+01
2.206923796483e+01
1.734709868343e+01
2.107516655389e+01
2.135764744091e+01
2.133624511371e+01
2.164676691093e+01
2.103553756220e+01
1.969656313445e+01
1.988732734748e+01
1.877788550907e+01
1.988168394227e+01
2.105094236373e+01
2.073016577974e+01
1.929496300342e+01
2.027045159766e+01
2.137361537721e+01
1.964175891606e+01
1.853339233791e+01
2.097866911838e+01
2.230030508912e+01
2.241397350265e+01
2.238481305436e+01
2.091217549083e+01
2.127937611428e+01
2.157363065619e+01
2.048883215587e+01
2.004053640122e+01
2.094671829604e+01
2.261703120547e+01
2.123303320420e+01
8.802097881346e+00
1.101923672085e+01
1.106570854711e+01
1.283566333507e+01
1.121976519708e+01
2.133762195086e+01
2.135100388576e+01
2.118246557521e+01
2.135154042120e+01
2.121126118799e+01
2.097802052998e+01
2.133899510159e+01
2.124138910896e+01
8.866009155480e+00
-3.117086859423e+01
-1.399999102912e+01
-1.421916670064e+01
-1.726097140100e+00
-1.164668156362e+00
6.648130340399e+00
5.676915387074e+00
-1.446309247939e+01
-3.437747109390e+01
-1.414836795001e+01
-3.622408572007e+01
-1.439349510473e+01
-2.505468942975e-01
1.032250525023e+01
2.078423220071e+01
2.029260060781e+01
2.004176172136e+01
1.922361474690e+01
1.972609897496e+01
2.056664227796e+01
1.866024839367e+01
1.824514738715e+01
-3.948783311794e+01
-1.201097776104e+01
-1.385095922747e+01
8.549560514412e-01
5.449558604693e-01
-1.200149369027e+01
-1.221284835755e+01
-4.000242636720e+01
-1.270927494556e+01
6.538170095285e-01
-4.118630561796e+01
1.658540148698e+01
1.702654782032e+01
2.091890568781e+01
9.291483124681e+00
-3.885242130946e+01
1.883275713782e+01
1.892119473835e+01
1.892373488333e+01
2.105624629808e+01
2.096881608146e+01
1.885333304944e+01
1.758249836071e+01
1.852885900816e+01
1.783784605588e+01
1.165496050152e+01
1.757002662311e+01
2.142532490680e+01
2.178150962933e+01
2.129184252004e+01
2.154341774352e+01
2.151587408257e+01
2.136093537459e+01
1.050998389815e+01
1.445408508279e+01
1.409166374186e+01
1.668203460177e+01
1.779869011360e+01
2.089046296826e+01
1.165327907036e+01
2.017692573669e+01
1.302909909717e+01
2.219219632214e+01
2.030289846183e+01
1.863481499401e+01
1.678977467068e+01
1.976349113646e+01
2.159516034251e+01
2.192287551968e+01
1.714211694347e+01
-3.581403686397e+01
2.189981347343e+01
2.196474768540e+01
1.478812563925e+01
2.202641206886e+01
9.958248155191e+00
1.689585238902e+01
1.814801869220e+01
1.321265617889e+01
6.263379865356e+00
1.298942195153e+01
2.144960390023e+01
1.664460254820e+01
1.674553808814e+01
2.265342777810e+01
1.689504977720e+01
5.748400424647e+00
1.809981788880e+01
2.132730450623e+01
2.193746871753e+01
2.253315349376e+01
1.745415537580e+01
2.158994837124e+01
2.230668474424e+01
1.764021790746e+01
1.854561312170e+01
2.211538702792e+01
1.712815236582e+01
2.244774896720e+01
2.180450232170e+01
1.302804220127e+01
1.745299951959e+01
1.669601158392e+01
1.960964977233e+01
2.139923115990e+01
2.174564430329e+01
1.139716913006e+01
1.862146084432e+01
1.462230412940e+01
2.018470774729e+01
1.827598090185e+01
1.624206545097e+01
2.163011307145e+01
1.785049778990e+01
2.158983238765e+01
1.292431056882e+01
5.096072628529e+00
2.047810917143e+01
2.172355430706e+01
2.179144089713e+01
1.856514538553e+01
2.148450526775e+01
2.215751613620e+01
-8.603483759721e+00
7.853576164268e+00
2.134782883443e+01
2.266708296122e+01
2.181685328551e+01
2.102765835855e+01
2.040614361410e+01
3.703958139304e+00
2.123412279142e+01
2.221320289029e+01
1.987277571088e+01
9.206778338962e+00
2.099157804387e+01
2.195672834682e+01
1.983231938920e+01
2.261878929778e+01
1.190139363648e+00
2.173003054592e+01
1.727382486825e+01
1.906271916263e+01
2.181631521668e+01
1.522877741399e+01
2.154694353046e+01
2.165594645653e+01
3.988507269256e-01
5.198867252397e+00
2.151981448920e+01
2.100184958832e+01
2.257933796112e+01
2.121496177451e+01
2.149230853017e+01
2.183173489917e+01
2.146160477197e+01
-3.972973931491e+00
1.588388675800e+01
2.142113319684e+01
1.788839139608e+01
1.148083083197e+00
2.048081108881e+01
2.114529684032e+01
2.032483617960e+01
2.250970091442e+01
1.683099281397e+01
-4.317657847360e+00
2.246875508334e+01
1.843078702347e+01
2.097212651401e+01
2.174560109322e+01
2.234860740123e+01
6.156061958762e+00
1.689387586225e+01
1.432819161435e+01
2.204574873164e+01
1.845720473589e+01
7.424179098639e+00
1.708794274407e+01
7.951789491238e+00
2.162611806380e+01
2.127468896636e+01
1.458288391606e+01
2.178849696202e+01
1.557622925027e+01
2.126886894717e+01
2.171622327597e+01
2.141552923500e+01
2.081928282504e+01
1.843449685255e+01
2.097319996598e+01
1.892006679219e+01
2.075147893215e+01
1.122530447981e+01
2.562087543934e+00
-2.922710068738e+01
9.021384009364e+00
1.920973442282e+01
1.745796416421e+01
1.130149784691e+01
1.815039088691e+01
1.907536286191e+01
2.081418455761e+01
1.614367362562e+01
2.175689923636e+01
2.132623025890e+01
1.794668500905e+01
8.911864970488e+00
-1.422338210516e+01
2.137156358121e+01
3.137367740056e+00
6.679063846901e+00
3.293858309231e+00
1.800007325345e+01
-1.756027483155e+00
2.683557780252e+00
2.134951796067e+01
1.103637814477e+01
2.100178401938e+01
-5.944163736622e-01
1.847664252342e+01
2.099238850508e+01
2.084219741498e+01
2.100452493512e+01
-3.622683554189e+00
1.252645134393e+01
1.993680764775e+01
1.680350461070e+01
2.076690123079e+01
1.064533472141e+01
1.851672029155e+01
8.323848802372e+00
1.853062042863e+01
1.811219577519e+01
1.348750784998e+01
1.249035272961e+01
2.087171440921e+01
1.883833009634e+01
-9.265192641305e+00
1.607041695709e+01
1.983598310339e+01
-1.807914211036e+01
2.116116675727e+01
1.865753074893e+01
2.094000833720e+01
6.480021849888e-01
-1.543222084086e+01
2.119891225537e+01
1.942695542205e+01
1.103291115040e+01
1.904924974166e+01
-1.931209472683e+01
8.483316941005e+00
-1.463216116437e+01
2.074424162791e+01
1.852565538710e+01
2.032630390665e+01
8.928245029185e+00
1.690681233111e+01
2.040592812655e+01
-3.201442131593e+00
1.858635530011e+01
2.125307765911e+01
1.869343155492e+01
2.101493216649e+01
-2.044289708150e+01
2.086471580864e+01
2.158778034042e+01
8.940366404668e+00
1.872258619638e+01
1.891052293808e+01
6.849489936603e+00
1.897213699582e+01
-1.457848401934e+01
8.865857326047e+00
2.069595260145e+01
6.018376884131e+00
1.269080348631e+01
1.928970918183e+01
2.110779250024e+01
1.757792933436e+01
4.396531557783e+00
-3.143050964708e+01
1.520520993087e+01
2.110385559847e+01
1.865747975308e+01
1.430631098870e+01
-2.258485486191e+00
1.904837752166e+01
2.064496533181e+01
1.981907023136e+01
2.155972759466e+01
-2.596483217750e+01
2.127743523383e+01
-1.633891813726e+01
2.100511462618e+01
2.084132725209e+01
-2.197014736287e+00
-4.315601362297e+01
-1.724965257034e+01
-1.911091560557e+01
-4.216418172137e+00
-3.173187797330e+00
3.039339174392e+00
3.789401797793e+00

SCALARS node_materi_stress_average_a_sig float
LOOKUP_TABLE default
-5.234929703290e+00
-5.247201758898e+01
-2.357355833442e+02
-1.662537978907e+02
-1.243312816244e+01
-2.392512332608e+01
-3.472309795702e+01
-4.714724822401e+01
-5.898499716140e+01
-7.078405374905e+01
-8.255634801284e+01
-9.432173659605e+01
-1.061526141065e+02
-1.181053004275e+02
-1.303970573722e+02
-1.425216825940e+02
-1.536600707343e+02
-1.658463778980e+02
-1.784764957622e+02
-1.908194133057e+02
-2.033170787991e+02
-2.159980198305e+02
-2.281612730564e+02
-1.669231440210e+02
-1.662526780186e+02
-1.664704027109e+02
-1.665200834802e+02
-1.663018543060e+02
-1.668593037054e+02
-1.673711414954e+02
-1.674059669928e+02
-1.683310435704e+02
-1.687483429566e+02
-1.690680326258e+02
-1.701652949510e+02
-1.715808846501e+02
-1.723487966742e+02
-1.736447524195e+02
-1.746665658379e+02
-1.764620083724e+02
-1.792302691756e+02
-1.817679233899e+02
-1.845191025340e+02
-1.872064661647e+02
-1.901739560396e+02
-1.931885657153e+02
-1.963331734172e+02
-1.996908562132e+02
-2.030811373167e+02
-2.062095041361e+02
-2.093358295039e+02
-2.120645618707e+02
-2.152680128702e+02
-2.176174080786e+02
-2.194271108365e+02
-2.217523584560e+02
-2.239075308114e+02
-2.258163717253e+02
-2.274964977138e+02
-2.289845753035e+02
-2.300975205508e+02
-2.310358403444e+02
-2.317306832802e+02
-2.328071747275e+02
-2.340884090745e+02
-2.347999955851e+02
-2.336749188620e+02
-2.354624784145e+02
-2.352139582702e+02
-2.358127476984e+02
-2.363592096079e+02
-2.363707558369e+02
-6.477634880410e+01
-7.680317573893e+01
-8.877223760024e+01
-1.004368854059e+02
-1.123199313581e+02
-1.243147703013e+02
-1.360088302727e+02
-1.475551769583e+02
-1.595303374216e+02
-9.889534151906e+00
-5.654660317701e+01
-1.472909605851e+01
-1.745066692113e+01
-1.816954589588e+01
-1.729143614805e+01
-1.720666886230e+01
-1.649333576726e+01
-1.904141697170e+01
-3.142555750661e+01
-4.381248582838e+01
-8.823488544806e+00
-1.608527761221e+01
-2.808778766685e+01
-4.009616703006e+01
-5.096558646910e+01
-5.176180750636e+01
-5.178855587577e+01
-5.171673009118e+01
-5.346573728481e+01
-5.207733015080e+01
-5.214538993820e+01
-5.237352771428e+01
-5.280152338129e+01
-5.299295607489e+01
-5.330580768739e+01
-5.363554983062e+01
-5.422457426275e+01
-5.503370580268e+01
-1.037196829118e+01
-1.165880563672e+01
-1.163572543200e+01
-1.118003375393e+01
-1.089651532487e+01
-1.045568481467e+01
-9.770854075673e+00
-9.074672558435e+00
-8.437734782810e+00
-7.884058668744e+00
-7.375410307914e+00
-7.275225225984e+00
-6.609714109217e+00
-5.784667653539e+00
-5.488995357372e+00
-5.350483562005e+00
-5.146249040042e+00
-4.791895191639e+00
-4.434406010145e+00
-9.768822097694e+00
-9.764908739351e+00
-9.712981871559e+00
-9.672185811495e+00
-9.598334450941e+00
-9.494296830758e+00
-9.362363826187e+00
-9.204662233293e+00
-9.022325454656e+00
-8.810116798408e+00
-8.573482214002e+00
-8.319500761526e+00
-8.051189509855e+00
-7.793161079439e+00
-7.545383748824e+00
-7.413550545319e+00
-7.417560846834e+00
-7.896412031668e+00
-8.492545779642e+00
-7.645217733052e+00
-1.540063481429e+01
-1.697835812434e+01
-1.553804239156e+01
-1.514217575323e+01
-1.504545958972e+01
-1.501418356159e+01
-1.507743890119e+01
-1.516615735616e+01
-1.526884436350e+01
-1.537853930925e+01
-1.548641388759e+01
-1.558192964392e+01
-1.566820955051e+01
-1.573850954209e+01
-1.579614397561e+01
-1.583652510096e+01
-1.586716622118e+01
-1.589807766647e+01
-1.604205633005e+01
-2.807447436998e+01
-2.802539955302e+01
-2.801211503476e+01
-2.801307191910e+01
-2.801520663007e+01
-2.801117221803e+01
-2.801712413980e+01
-2.801041954876e+01
-2.801260856178e+01
-2.804353912394e+01
-2.810122571401e+01
-2.819635908527e+01
-2.834699436815e+01
-2.856031166043e+01
-2.902609799819e+01
-3.043272038136e+01
-2.883850998905e+01
-4.156021620931e+01
-4.305530755037e+01
-4.178052748311e+01
-4.136984289035e+01
-4.107053562195e+01
-4.084593071056e+01
-4.063465884717e+01
-4.049431677964e+01
-4.046692686849e+01
-4.035222480296e+01
-4.028349620257e+01
-4.023931606996e+01
-4.020029858948e+01
-4.014368350411e+01
-4.020208623914e+01
-4.020280820543e+01
-1.181424462710e+01
-1.647821490493e+01
-1.790617460027e+01
-1.816032022734e+01
-1.780097511394e+01
-1.801778212578e+01
-1.544668180351e+01
-2.666561647190e+01
-3.909221643214e+01
-5.134546887230e+01
-1.976633623638e+01
-2.171421695750e+02
-1.281171553675e+01
-1.481200543554e+01
-2.248312797984e+02
-2.217601784610e+01
-1.246853797103e+02
-2.073187727320e+02
-2.416175499787e+01
-1.962468348371e+02
-3.961768644617e+01
-2.291896028787e+02
-1.082536781453e+01
-1.840637792055e+02
-6.281693568448e+01
-7.722420934033e+01
-1.577883117010e+02
-1.759332290799e+02
-1.687379722853e+02
-1.622279918801e+02
-1.623840529202e+02
-1.656347809557e+02
-6.641928868055e+01
-6.426275278900e+01
-6.435681733894e+01
-1.064859357635e+02
-2.297871749091e+02
-1.443186259355e+01
-1.059472705326e+01
-1.966060605913e+02
-6.246055295585e+01
-4.088301610204e+01
-1.698717452079e+02
-2.027738051911e+02
-1.899789232341e+02
-2.114746464765e+02
-2.211549330846e+02
-1.447618588837e+01
-6.470542584463e+01
-2.249453432260e+02
-1.298376548361e+02
-1.206825448954e+01
-1.002796644974e+02
-1.635664196402e+02
-2.377827580044e+01
-2.153086348198e+01
-2.939819574029e+01
-5.098538938551e+01
-1.551887163381e+01
-8.380256695254e+01
-2.323177179315e+02
-9.874529613268e+00
-1.528439444916e+02
-6.838305303904e+01
-7.456227162991e+01
-7.960012277395e+01
-8.693549088959e+01
-9.248313554940e+01
-9.910462429617e+01
-9.381374804267e+01
-1.059750552904e+02
-1.007717762780e+02
-1.047552702629e+02
-1.129396530186e+02
-1.078911021557e+02
-1.200170958384e+02
-1.151453218250e+02
-1.030248514293e+02
-1.104378382437e+02
-9.829466158258e+01
-1.058953635885e+02
-1.179278543665e+02
-1.135361687939e+02
-1.015032287780e+02
-1.092646858750e+02
-9.732338009998e+01
-1.051863564510e+02
-9.334803026633e+01
-1.012685879126e+02
-1.129610359132e+02
-1.090302876665e+02
-9.749672503559e+01
-1.052090556276e+02
-9.386493670844e+01
-1.014685526996e+02
-1.127614338651e+02
-1.089031110686e+02
-9.775137120946e+01
-1.050529771833e+02
-9.404301977812e+01
-1.012097538797e+02
-9.033275336175e+01
-9.729568311305e+01
-1.082097140479e+02
-1.041216763756e+02
-9.331250483099e+01
-9.991062716967e+01
-1.108337392838e+02
-1.063973821138e+02
-1.174413946735e+02
-1.127996433446e+02
-1.018885436634e+02
-1.080714598838e+02
-1.191155447639e+02
-1.141659979056e+02
-1.032333436227e+02
-1.091434479905e+02
-1.202261827166e+02
-1.150134558052e+02
-1.040061303127e+02
-1.097079925993e+02
-1.209156213872e+02
-1.153979434840e+02
-1.042560173140e+02
-1.097727426134e+02
-1.211245953293e+02
-1.153056593333e+02
-1.268404751276e+02
-1.039396283353e+02
-1.093490781664e+02
-9.793737953023e+01
-1.032862319688e+02
-1.201800381298e+02
-9.183733310083e+01
-8.673269661286e+01
-9.713213388827e+01
-1.087300708185e+02
-8.563001635730e+01
-9.088652117175e+01
-7.934257349296e+01
-8.300587998875e+01
-1.254782312783e+02
-8.456233771216e+01
-7.296665956424e+01
-6.784123711063e+01
-6.144102976999e+01
-9.829891217357e+01
-1.102998087104e+02
-1.035482252036e+02
-1.158490772164e+02
-1.094850514767e+02
-6.651422486724e+01
-1.251103004481e+02
-1.223270447419e+02
-8.938016658685e+01
-8.604633218726e+01
-1.219958533093e+02
-9.618406727570e+01
-8.983331629594e+01
-1.015052891961e+02
-1.326931496200e+02
-1.385325284574e+02
-1.444321277914e+02
-1.503671614136e+02
-1.563252841418e+02
-1.623397576594e+02
-1.562526973358e+02
-1.682989275457e+02
-1.620935229768e+02
-1.683600302093e+02
-1.621836283609e+02
-1.742032500061e+02
-1.678877220688e+02
-1.800580918358e+02
-1.736382644493e+02
-1.614976485628e+02
-1.671434102731e+02
-1.550880322452e+02
-1.287105275670e+02
-1.333804358436e+02
-1.401904356149e+02
-1.449690364764e+02
-1.518726867613e+02
-1.567375161235e+02
-1.637171396605e+02
-1.586930561176e+02
-1.271718683004e+02
-8.922901718706e+01
-8.274573708360e+01
-7.881406939837e+01
-7.247714167567e+01
-6.868528988402e+01
-6.253557743643e+01
-5.884104905781e+01
-6.470350620756e+01
-5.492448974564e+01
-6.049824423651e+01
-5.073728348241e+01
-5.600600710726e+01
-1.206345615390e+02
-1.496612027181e+02
-1.615362142062e+02
-1.542383703264e+02
-5.639220317756e+01
-1.793524370843e+02
-1.743004468075e+02
-1.679301549516e+02
-1.706441471757e+02
-5.505001008115e+01
-5.296685927734e+01
-5.623599975197e+01
-1.214730218521e+02
-1.152332146412e+02
-1.801790478329e+02
-6.009971432151e+01
-1.804641429888e+02
-4.548139323084e+01
-1.727648431073e+02
-1.850151126988e+02
-1.501156015802e+02
-1.662623753988e+02
-1.587362598395e+02
-6.608861141708e+01
-6.133524920267e+01
-5.142474277770e+01
-5.684515912824e+01
-6.679047130637e+01
-6.157530011415e+01
-5.139337122493e+01
-5.613394771396e+01
-6.664968466773e+01
-6.102366891079e+01
-5.039885851724e+01
-5.512836678711e+01
-1.916134387045e+02
-4.130957936268e+01
-9.075981210119e+01
-1.865438642074e+02
-1.756133447860e+02
-1.271674133423e+02
-1.210612481047e+02
-1.090386500967e+02
-1.150463380988e+02
-1.269770540360e+02
-1.210716518834e+02
-1.090939830018e+02
-1.152158290076e+02
-1.032066143306e+02
-1.094210916207e+02
-1.213658778243e+02
-1.156735293382e+02
-1.036990152277e+02
-1.100153534584e+02
-9.800535926247e+01
-1.043603229419e+02
-1.163643529052e+02
-4.897024978738e+01
-1.654519898129e+02
-1.775822706019e+02
-9.541163472829e+01
-1.066797208720e+02
-1.132121731148e+02
-1.187000373320e+02
-1.107012596115e+02
-1.226946020043e+02
-4.697595639040e+01
-4.979472663400e+01
-1.333552934287e+02
-1.783744064671e+02
-1.661835661596e+02
-8.265614226636e+01
-7.469514797955e+01
-7.158743358772e+01
-6.331889032316e+01
-6.635964749910e+01
-6.052034929542e+01
-1.558277087338e+02
-1.275739694132e+02
-6.280280008755e+01
-5.150098712550e+01
-1.906472701532e+02
-1.535409142557e+02
-1.246856670562e+02
-1.323250389752e+02
-1.364878456082e+02
-1.441235491510e+02
-1.483419773077e+02
-1.559442721793e+02
-1.517387189042e+02
-1.708903001557e+02
-1.635792560970e+02
-9.859303477011e+01
-1.423653194395e+02
-7.181139043964e+01
-4.371882798420e+01
-4.406281234825e+01
-5.345458160238e+01
-6.514656745180e+01
-1.925367013181e+02
-1.601641253462e+02
-1.524720670898e+02
-5.479988840497e+01
-5.773815760692e+01
-1.784136972087e+02
-9.734699736476e+01
-9.705321778438e+01
-9.107406782981e+01
-4.094210631300e+01
-3.997018968964e+01
-1.329521090568e+02
-5.924784138890e+01
-5.242190162427e+01
-3.628537058534e+01
-3.208648700907e+01
-1.169676697795e+02
-1.288653621600e+02
-1.250828729535e+02
-1.305350607798e+02
-1.860196151857e+02
-4.909206967748e+01
-1.346329746107e+02
-1.601473458497e+02
-1.482979303426e+02
-1.121070474181e+02
-4.088734970202e+01
-3.821120651877e+01
-7.734206202094e+01
-6.008683616264e+01
-5.851458640083e+01
-1.983955906722e+02
-1.387536033490e+02
-1.593605688683e+02
-1.474397378164e+02
-1.713971163072e+02
-3.831981344082e+01
-1.990874582054e+02
-1.839714115498e+02
-1.637753923197e+02
-1.566380311809e+02
-6.208314982745e+01
-5.501971288124e+01
-4.542244286573e+01
-4.757742063844e+01
-8.846580040137e+01
-6.504502663284e+01
-8.594486927983e+01
-7.827236686532e+01
-7.346000636087e+01
-6.957342755178e+01
-6.096857154221e+01
-7.605606066465e+01
-1.264385095594e+02
-1.196302071816e+02
-1.495203371699e+02
-1.384261527428e+02
-1.331530131597e+02
-1.393834159705e+02
-9.164670511056e+01
-8.594467176155e+01
-4.500537099352e+01
-4.021592993124e+01
-1.325552831843e+02
-1.927884389851e+02
-1.388171113966e+02
-1.449638117716e+02
-1.395662563611e+02
-1.916123465515e+02
-8.504713611051e+01
-1.353225875827e+02
-3.687376858191e+01
-1.241763299299e+02
-3.376397574638e+01
-1.298345935862e+02
-1.963415942802e+02
-2.029505635992e+02
-1.829788589773e+02
-6.928661893413e+01
-1.315927578490e+02
-1.275023742284e+02
-6.568446411270e+01
-6.077299697302e+01
-6.890285693879e+01
-5.628861430139e+01
-8.259530623808e+01
-7.689208231045e+01
-1.728313458254e+02
-1.753371820115e+02
-1.680732180723e+02
-1.612199513275e+02
-1.906119034850e+02
-1.857005945542e+02
-6.986479393319e+01
-4.884843553085e+01
-1.447077741697e+02
-7.075081595010e+01
-2.051002899396e+02
-1.989908787471e+02
-2.771679317598e+01
-3.181936519605e+01
-1.409073389837e+02
-3.818236617083e+01
-3.959905699405e+01
-3.651365098966e+01
-2.219268932974e+02
-6.210813800226e+01
-2.087988354291e+02
-7.318304025180e+01
-1.467303072530e+02
-1.390386411873e+02
-7.918034054993e+01
-1.793290536948e+02
-1.345116666512e+02
-1.474035690174e+02
-8.488415504515e+01
-7.854490952491e+01
-9.056034554517e+01
-4.011796454339e+01
-3.034657625367e+01
-1.337429372874e+02
-8.340763807374e+01
-8.977778881387e+01
-5.363691499204e+01
-6.471075087924e+01
-1.314318649534e+02
-1.259360251859e+02
-1.373721261671e+02
-1.417156182977e+02
-1.288173855301e+02
-1.547779906496e+02
-1.429981981201e+02
-1.367047341730e+02
-1.445810145946e+02
-1.521398384087e+02
-8.803832971289e+01
-8.262797718243e+01
-8.770711991559e+01
-1.504502281543e+02
-2.151875222177e+02
-2.094983773287e+02
-2.921807429589e+01
-3.537352900360e+01
-3.261011585355e+01
-3.025775134385e+01
-1.508507400724e+02
-1.460400298813e+02
-1.572692852471e+02
-6.252178789782e+01
-1.550618258956e+02
-2.034892387220e+02
-1.966004430296e+02
-2.118672523414e+02
-1.752261546292e+02
-1.870547683182e+02
-1.832481293750e+02
-2.337177934267e+01
-1.432114766750e+02
-7.894505850259e+01
-2.037024391453e+01
-7.333822031487e+01
-8.014653957177e+01
-6.698890835316e+01
-5.104832536892e+01
-7.644658502837e+01
-8.438281488460e+01
-2.281599176044e+01
-1.560004426234e+02
-2.310965740700e+01
-2.762277494879e+01
-2.114116167531e+02
-2.050332376739e+02
-2.170685652882e+02
-2.105970938554e+02
-1.986300385432e+02
-2.047282525660e+02
-7.224744616069e+01
-2.184164033424e+02
-2.109668302212e+02
-2.245827336262e+02
-4.794949167383e+01
-4.961406721385e+01
-4.129543456670e+01
-3.067795556102e+01
-1.741521369585e+02
-1.647404143749e+02
-1.899363370536e+02
-1.775501817325e+02
-7.371600923171e+01
-7.297986227705e+01
-8.393327073060e+01
-8.236814172658e+01
-9.333570527727e+01
-9.164517599963e+01
-1.028116385825e+02
-1.872721269123e+02
-2.944795189614e+01
-5.816723152776e+01
-1.978842622595e+02
-1.919748342950e+02
-5.204408334294e+01
-3.939718988152e+01
-2.130378923813e+02
-7.223790490295e+01
-1.632075048107e+02
-1.327099742112e+01
-2.112589035949e+01
-7.554855661206e+01
-6.474006944894e+01
-5.193122529219e+01
-4.377504544367e+01
-1.668860994929e+02
-3.123864483024e+01
-3.477468603099e+01
-1.043085700824e+02
-2.686851564816e+01
-1.841271771587e+02
-7.955094153521e+01
-8.146633700868e+01
-4.324901330877e+01
-5.781146674402e+01
-9.567822517045e+01
-8.146722680568e+01
-7.612958377591e+01
-8.655941591661e+01
-4.601906494471e+01
-3.347934380577e+01
-9.370674665648e+01
-1.342377138584e+02
-1.407046036043e+02
-1.520513552078e+02
-1.473317261978e+02
-1.356260738352e+02
-1.423925078260e+02
-1.539169135445e+02
-1.496704310712e+02
-1.631137152043e+02
-1.566126076754e+02
-1.444084685278e+02
-1.511790691368e+02
-1.625312329386e+02
-1.392691162335e+02
-2.026732100105e+02
-8.659247627465e+01
-2.748836186217e+01
-2.429915902734e+01
-8.529579884155e+01
-1.733716761218e+02
-1.698919873841e+02
-6.594181543895e+01
-1.868456597844e+02
-8.331801198705e+01
-4.934848601168e+01
-1.931125305641e+02
-1.289205791106e+02
-1.235297860443e+02
-1.168486064667e+02
-1.678764787451e+02
-9.675914753549e+01
-2.053806166084e+02
-1.379497097570e+02
-1.307305756216e+02
-1.193372981845e+02
-1.373186211587e+02
-2.149202962757e+02
-2.057929644716e+02
-2.077132242216e+02
-1.956483952953e+02
-2.190913665798e+02
-1.790762096257e+02
-1.819084798850e+02
-7.203759433954e+01
-7.720856782303e+01
-8.772354601749e+01
-8.209051628540e+01
-7.165467029682e+01
-7.635503115794e+01
-8.674180896621e+01
-7.053231217234e+01
-1.535222759552e+02
-2.227397160440e+02
-1.502160248773e+02
-1.439600471466e+02
-1.323369492025e+02
-1.141976695865e+02
-1.204130094752e+02
-1.321527880699e+02
-1.078859451189e+02
-1.398995970834e+02
-2.239881881148e+02
-1.418459680879e+02
-1.148598544570e+02
-6.553834640467e+01
-7.696285977200e+01
-7.809743513393e+01
-8.957383099199e+01
-7.735940441727e+01
-1.369070438222e+02
-1.423509878619e+02
-1.359714718383e+02
-1.477737920698e+02
-1.410814042006e+02
-1.301749038370e+02
-1.529653261978e+02
-1.453755016035e+02
-6.439421081534e+01
-1.492502327023e+01
-2.300792213353e+01
-2.262397814733e+01
-3.095650520005e+01
-3.147793013079e+01
-4.049853498870e+01
-3.899677495534e+01
-2.314537754098e+01
-1.389221718828e+01
-2.228025356914e+01
-1.328391699887e+01
-2.172443053789e+01
-3.207549158231e+01
-4.688803033127e+01
-2.284846992473e+02
-1.120110638037e+02
-1.062231672262e+02
-9.490525992832e+01
-1.009510037989e+02
-1.166340741847e+02
-8.867818634437e+01
-8.447717249232e+01
-1.041765896614e+01
-2.006972507748e+01
-1.904942589743e+01
-2.992210861211e+01
-2.987163685494e+01
-2.041282445560e+01
-2.051565724147e+01
-1.070570149687e+01
-2.058357484892e+01
-3.050070515105e+01
-1.063742450090e+01
-1.184479745925e+02
-1.248796803240e+02
-2.254824304278e+02
-6.501310163598e+01
-1.249939344872e+01
-1.601649753902e+02
-1.629440480174e+02
-1.628038276100e+02
-2.093309395937e+02
-2.155005641141e+02
-1.601948533361e+02
-7.416538838315e+01
-1.587229921281e+02
-1.399782786098e+02
-4.387306921473e+01
-7.097677451550e+01
-1.717651591662e+02
-1.558373363016e+02
-1.972546909325e+02
-1.606472180423e+02
-1.858692955672e+02
-2.088424335124e+02
-4.721388665548e+01
-9.735131995240e+01
-9.233544783250e+01
-1.219504268264e+02
-7.811532841342e+01
-1.245636320870e+02
-4.998030313692e+01
-1.821310502455e+02
-8.138328455147e+01
-1.268111536094e+02
-1.025037507062e+02
-8.049029858839e+01
-6.604513482678e+01
-9.027499790559e+01
-1.208938209623e+02
-1.744420659840e+02
-1.282389299112e+02
-1.276874926383e+01
-1.805265809640e+02
-1.443395382193e+02
-1.029784179391e+02
-1.686519007584e+02
-4.614417869799e+01
-1.271280224132e+02
-1.498301327895e+02
-9.065574393721e+01
-3.862501382126e+01
-8.501023375550e+01
-2.049764589417e+02
-1.277980182719e+02
-7.166431676987e+01
-1.239543698409e+02
-8.959153880014e+01
-5.684006908910e+01
-1.451279506106e+02
-1.161848640436e+02
-1.827357446306e+02
-1.469065961774e+02
-7.691498632558e+01
-1.927401827809e+02
-1.151608632197e+02
-1.389425408437e+02
-1.406822233351e+02
-9.560100803214e+01
-1.328571520648e+02
-1.262526248512e+02
-1.735628419048e+02
-7.712415029663e+01
-1.169900232981e+02
-1.224445184151e+02
-1.166607362748e+02
-1.652116996547e+02
-1.866701862983e+02
-4.628602342745e+01
-6.837091231384e+01
-1.030881053814e+02
-1.674865856289e+02
-1.505531735971e+02
-7.795305646807e+01
-1.864084319586e+02
-1.442452008230e+02
-1.265230127534e+02
-5.398766464335e+01
-3.542896599095e+01
-7.474876835220e+01
-1.122080861036e+02
-1.382699770648e+02
-1.586775772987e+02
-1.922981634183e+02
-1.736494434308e+02
-1.808465100298e+01
-6.365284726903e+01
-1.981768690491e+02
-1.303736699225e+02
-1.805255344140e+02
-1.340841010295e+02
-1.848453284183e+02
-4.326389764047e+01
-2.041582823790e+02
-1.723460042907e+02
-6.914084922568e+01
-6.252338814050e+01
-2.183532084520e+02
-1.847023070542e+02
-1.282169404029e+02
-1.253388890998e+02
-4.517532790334e+01
-1.439407443384e+02
-1.211615773080e+02
-1.668867686520e+02
-1.895585660972e+02
-1.113101350570e+02
-1.377020190332e+02
-1.466300317601e+02
-3.005744840519e+01
-5.292020326691e+01
-1.432222953058e+02
-8.077480869474e+01
-1.315074091424e+02
-1.948527759383e+02
-1.487348070721e+02
-9.122218892526e+01
-1.542133321248e+02
-3.403550121431e+01
-1.181803987192e+02
-1.596632398550e+02
-1.330502598567e+02
-3.159226121511e+01
-1.357151175710e+02
-2.025639334065e+02
-9.276395817387e+01
-1.376752587064e+02
-1.303789723526e+02
-2.549446116934e+01
-1.493700680886e+02
-1.449259744882e+02
-1.431965183574e+02
-1.234361938521e+02
-1.613760455163e+02
-3.691059233354e+01
-6.923357335888e+01
-5.809862652496e+01
-9.728547084764e+01
-1.492483973446e+02
-3.971374646918e+01
-1.322070451321e+02
-4.242529152520e+01
-9.257732429455e+01
-1.631283687735e+02
-9.539326884853e+01
-9.832491258015e+01
-6.565599123768e+01
-9.325150590510e+01
-1.348861578719e+02
-9.877656419993e+01
-9.336273733830e+01
-1.515855945949e+02
-9.864247979454e+01
-1.622753611381e+02
-2.295677398023e+02
-7.163652522857e+01
-2.138311783422e+01
-1.556310491174e+01
-3.477113153331e+01
-8.181550677473e+01
-1.343746949269e+02
-7.214889357325e+01
-7.569602485794e+01
-1.684055350961e+02
-1.996801066221e+02
-1.126736249450e+02
-1.871116312940e+02
-1.509782482958e+02
-1.405863252884e+02
-6.199200203790e+01
-2.140148278828e+01
-1.715702115646e+02
-2.071932413123e+01
-3.041349780359e+01
-2.827401591871e+01
-8.102424683238e+01
-3.071562456398e+01
-2.201633108363e+01
-2.030780292126e+02
-7.387515369292e+01
-1.671115166934e+02
-2.077798242431e+01
-1.554042612960e+02
-1.927646299115e+02
-2.282754146171e+02
-1.793988093157e+02
-2.503092113907e+01
-8.635406485850e+01
-1.790623265493e+02
-1.222085592512e+02
-2.301187256501e+02
-7.328089149552e+01
-1.527896114447e+02
-4.186359181589e+01
-1.527640676001e+02
-1.463491915637e+02
-8.707916401657e+01
-8.749878916798e+01
-2.213123306597e+02
-1.638039180798e+02
-2.275360021327e+01
-1.121917205142e+02
-1.009441108165e+02
-2.187262920590e+01
-2.159624087330e+02
-1.575039581857e+02
-2.200734950222e+02
-2.954860290787e+01
-1.972728057885e+01
-2.157585616408e+02
-1.743177952132e+02
-4.736716509578e+01
-1.660405284077e+02
-1.790562977103e+01
-6.105879011585e+01
-1.990589732937e+01
-2.305164023011e+02
-1.544817347214e+02
-1.113948457120e+02
-6.767295051458e+01
-7.358897223376e+01
-1.776996604301e+02
-2.884307958231e+01
-1.550065526584e+02
-2.136357261784e+02
-1.607290208410e+02
-2.130334684340e+02
-2.040560394969e+01
-1.933646891185e+02
-1.997846023605e+02
-6.167698537974e+01
-1.616991339338e+02
-9.047938006600e+01
-3.937243637612e+01
-1.634323621339e+02
-8.575497653574e+00
-6.078698292645e+01
-2.324046337505e+02
-3.755540417243e+01
-8.048063952469e+01
-1.724538741067e+02
-1.371486665034e+02
-1.338773080286e+02
-3.746766677323e+01
-1.445672786013e+01
-1.016838331817e+02
-1.974798295386e+02
-1.592450179401e+02
-9.358614717914e+01
-2.880193312803e+01
-1.666886814430e+02
-1.204657468060e+02
-1.732387319425e+02
-1.965849575739e+02
-1.263432391580e+01
-1.476020054050e+02
-1.891845701738e+01
-2.206017023990e+02
-1.255929518286e+02
-8.976940684142e+00
-1.050514420437e+01
-2.319134273918e+01
-2.172342286401e+01
-3.618045741193e+01
-3.447396497931e+01
-4.872459429439e+01
-4.576027753261e+01

SCALARS node_materi_stress_size_dev_sd_sig float
LOOKUP_TABLE default
4.048695077266e+00
3.268388541407e+01
1.791253149503e+02
1.254387143199e+02
1.022712052928e+01
2.021435540344e+01
2.936249320953e+01
3.977440434644e+01
4.987721616443e+01
5.967249552968e+01
6.947746670334e+01
7.923123882336e+01
8.884668744908e+01
9.847509896752e+01
1.081993188589e+02
1.172283700279e+02
1.252778328441e+02
1.340931892221e+02
1.428624899010e+02
1.511529864595e+02
1.593212482816e+02
1.673482618671e+02
1.748316832636e+02
1.260449002269e+02
1.256412986914e+02
1.258111126193e+02
1.259077162939e+02
1.256684598749e+02
1.261151364371e+02
1.263620895032e+02
1.266046829794e+02
1.273122669409e+02
1.277949469604e+02
1.279982724234e+02
1.290513449569e+02
1.301043221431e+02
1.311070173763e+02
1.321384765053e+02
1.333539876064e+02
1.349745285917e+02
1.372501814064e+02
1.396951181574e+02
1.422438530872e+02
1.446757551478e+02
1.470984703920e+02
1.497389905701e+02
1.523148476405e+02
1.549573238300e+02
1.575108908158e+02
1.599671313331e+02
1.621572864314e+02
1.641594552825e+02
1.662433931034e+02
1.679850393477e+02
1.691275674786e+02
1.705877482933e+02
1.719640383537e+02
1.731666410894e+02
1.741984843601e+02
1.751130380337e+02
1.757883154320e+02
1.763319811118e+02
1.767673664672e+02
1.773651599205e+02
1.781031853363e+02
1.785310327330e+02
1.779392391472e+02
1.788797720490e+02
1.787654079415e+02
1.790848377947e+02
1.794486423576e+02
1.794797728714e+02
4.180528585726e+01
5.119050669517e+01
6.051482852256e+01
6.980404990643e+01
7.944456098471e+01
8.916725576871e+01
9.903540296749e+01
1.089569364009e+02
1.192053363195e+02
1.002411907452e+01
3.123625817609e+01
1.825941528142e+01
2.210654722621e+01
2.338397128115e+01
2.268296721941e+01
2.172345481959e+01
1.655459680182e+01
1.057464670597e+01
1.490118298671e+01
2.232765642874e+01
5.722916283414e+00
6.652264774997e+00
1.450282941221e+01
2.320654197791e+01
3.134728075618e+01
3.180994024871e+01
3.181110190744e+01
3.163239436974e+01
3.272795639859e+01
3.158341821906e+01
3.133466755598e+01
3.132031701171e+01
3.139993367534e+01
3.121328264611e+01
3.098573848746e+01
3.080762281018e+01
3.069132072585e+01
3.077137941566e+01
9.244140522669e+00
9.890384200765e+00
1.019110558439e+01
9.403823389033e+00
7.725197340435e+00
6.602301804512e+00
5.666040613773e+00
4.783386063050e+00
3.984403459513e+00
3.364152690741e+00
2.932048576906e+00
2.999748244614e+00
3.031049723290e+00
2.894114887116e+00
3.234681976731e+00
3.667548974509e+00
3.932640197785e+00
3.859748279743e+00
3.549907994635e+00
4.883696383133e+00
4.694094988954e+00
4.674582359897e+00
4.628481334119e+00
4.549534141528e+00
4.441993053312e+00
4.311665093899e+00
4.167051370287e+00
4.012350926665e+00
3.850673008771e+00
3.697872975109e+00
3.570508328487e+00
3.480915063129e+00
3.445647245029e+00
3.446585053872e+00
3.483355993422e+00
3.470263003939e+00
3.571287642899e+00
4.282709600251e+00
7.729241880401e+00
6.875785908438e+00
7.503032466096e+00
6.920665177012e+00
6.846979335851e+00
6.831229286308e+00
6.786416752657e+00
6.755462041916e+00
6.712200638381e+00
6.668483898339e+00
6.628235965321e+00
6.600316654366e+00
6.583403923318e+00
6.568754814795e+00
6.557026994979e+00
6.550178929665e+00
6.544431906336e+00
6.540963667538e+00
6.542030926968e+00
6.598643110636e+00
1.446768206482e+01
1.439431934800e+01
1.439453431188e+01
1.441746535983e+01
1.442178087825e+01
1.443778762273e+01
1.445670804002e+01
1.445976315747e+01
1.444829818419e+01
1.447131282619e+01
1.447286452434e+01
1.444109414353e+01
1.439821636722e+01
1.429938551843e+01
1.429750054696e+01
1.473967123202e+01
1.324411495555e+01
2.109736366909e+01
2.281127372059e+01
2.245314788910e+01
2.253171983299e+01
2.266550964999e+01
2.278803507418e+01
2.284087511683e+01
2.291290554743e+01
2.299842745745e+01
2.305174055306e+01
2.308881597764e+01
2.312273109804e+01
2.317344090278e+01
2.315808104017e+01
2.326514124799e+01
2.338591550570e+01
1.444714462937e+01
2.063643779770e+01
2.291017598326e+01
2.327138772650e+01
2.325193627603e+01
2.203539928613e+01
1.211830443961e+01
1.266490112248e+01
1.906334809878e+01
2.717601452982e+01
2.004066063348e+01
1.685269814850e+02
5.829342884404e+00
5.920396583076e+00
1.732896218416e+02
2.427757315620e+01
1.037025637352e+02
1.616021683068e+02
2.378978014181e+01
1.524870124955e+02
2.072186012777e+01
1.755934241499e+02
6.721128794548e+00
1.413681069663e+02
3.523537927668e+01
6.503874862192e+01
1.283985492880e+02
1.332591663457e+02
1.266379245755e+02
1.216099394691e+02
1.212809132431e+02
1.240348839319e+02
3.886109522628e+01
3.935345619852e+01
4.046588750135e+01
7.462637870324e+01
1.758318274475e+02
6.389436088140e+00
8.140376572811e+00
1.549646774055e+02
3.985004813623e+01
3.457666196174e+01
1.276159439505e+02
1.579127574126e+02
1.469307189718e+02
1.648206047414e+02
1.710627350900e+02
5.787873682426e+00
3.871006461378e+01
1.733043719707e+02
9.391188369822e+01
6.515640169111e+00
8.413588278477e+01
1.229262362683e+02
2.549446261772e+01
2.306472946343e+01
1.935459148690e+01
2.699750465440e+01
1.419205156344e+01
5.651263160314e+01
1.773387980472e+02
7.979076775948e+00
1.134975625978e+02
3.922567816757e+01
4.374151281032e+01
4.769429770181e+01
5.337065814559e+01
5.771968734706e+01
6.312055877842e+01
5.899409544635e+01
6.900246982364e+01
6.518444242604e+01
6.761514414881e+01
7.536992975753e+01
7.189527106435e+01
8.214881899293e+01
7.903993857535e+01
6.897904168486e+01
7.649268267880e+01
6.662603730027e+01
7.452199281213e+01
8.420956012867e+01
8.250265084846e+01
7.313709312169e+01
8.126791438374e+01
7.228074760836e+01
8.042767341385e+01
7.179644024765e+01
7.982978361745e+01
8.831173367728e+01
8.754173471208e+01
7.932177746366e+01
8.677738718543e+01
7.873160640644e+01
8.586477651722e+01
9.389530637811e+01
9.267792991736e+01
8.467116612847e+01
9.118836211240e+01
8.312781176166e+01
8.936771403140e+01
8.117558274732e+01
8.712242800378e+01
9.529189603371e+01
9.279468550710e+01
8.444832716210e+01
8.985280862350e+01
9.821144238620e+01
9.501725132150e+01
1.033824194078e+02
9.996522621309e+01
9.146389662852e+01
9.620466342694e+01
1.047024373512e+02
1.007478067716e+02
9.210732894540e+01
9.650649189487e+01
1.051490433432e+02
1.007701308889e+02
9.197943597242e+01
9.614936134273e+01
1.049697764702e+02
1.002310485877e+02
9.126806256897e+01
9.527646520063e+01
1.042761359294e+02
9.924036325168e+01
1.082535313232e+02
9.005695792728e+01
9.401279250490e+01
8.463046491385e+01
8.863444521902e+01
1.006849682139e+02
7.908653383206e+01
7.513196011314e+01
8.315290791703e+01
9.267839646345e+01
7.346291726589e+01
7.759276110489e+01
6.779824881271e+01
7.479678433583e+01
9.199642584131e+01
7.198935404832e+01
6.211475217677e+01
5.784466420951e+01
5.210483718983e+01
6.244406177002e+01
7.242631777027e+01
6.709062834811e+01
7.739411777996e+01
7.236089264882e+01
5.639498033365e+01
8.582489619008e+01
8.273264686454e+01
6.391248190957e+01
7.125209718107e+01
1.064446979797e+02
8.170846713294e+01
7.617192969557e+01
8.585519549796e+01
1.131307643385e+02
1.170795060628e+02
1.217987617862e+02
1.256998904856e+02
1.302642452215e+02
1.341117279578e+02
1.295205775923e+02
1.378768021186e+02
1.332741824655e+02
1.385210849721e+02
1.346202032872e+02
1.415666423907e+02
1.369652092327e+02
1.451891508234e+02
1.406016123601e+02
1.322143557519e+02
1.358750039518e+02
1.273739662521e+02
1.116220355690e+02
1.145912130342e+02
1.197601345450e+02
1.226649745415e+02
1.278065799391e+02
1.306657562426e+02
1.357422553010e+02
1.326881744186e+02
8.925836612072e+01
8.133235261993e+01
7.592227567361e+01
7.261161442329e+01
6.718103267288e+01
6.363676202346e+01
5.816256580908e+01
5.432848584791e+01
5.961356922980e+01
5.000507734835e+01
5.512220305805e+01
4.522873886944e+01
5.017946979853e+01
9.591389024763e+01
1.252940752281e+02
1.332908769425e+02
1.276514412660e+02
4.778257045923e+01
1.441980161444e+02
1.427317933891e+02
1.387394673474e+02
1.405673508485e+02
4.645903788156e+01
4.883475753956e+01
5.237943962498e+01
8.254002379169e+01
7.758825986967e+01
1.467377150146e+02
5.075613263635e+01
1.460160569538e+02
4.005442221114e+01
1.395032958357e+02
1.477638234839e+02
1.247765422900e+02
1.357221780737e+02
1.298008416686e+02
6.005169449009e+01
5.502156424631e+01
4.510182670081e+01
4.998522744758e+01
5.980867498180e+01
5.432716332705e+01
4.427375272376e+01
4.865878664813e+01
5.875441211768e+01
5.306374110407e+01
4.272500187051e+01
4.719890669164e+01
1.522920061566e+02
3.495031183869e+01
5.900836933297e+01
1.506190706993e+02
1.434683730495e+02
8.784197967970e+01
8.297493288688e+01
7.289230784124e+01
7.837113782826e+01
8.852902253266e+01
8.391462729467e+01
7.394322364154e+01
7.943238988072e+01
6.960936496633e+01
7.507539693926e+01
8.497563766642e+01
8.061089115826e+01
7.085409172630e+01
7.632157183357e+01
6.666954078616e+01
7.201713891528e+01
8.182547611271e+01
4.103406135427e+01
1.373430445972e+02
1.452056117812e+02
8.067042735982e+01
8.986693316306e+01
9.533489100606e+01
9.939941767209e+01
7.741152247669e+01
8.739035613064e+01
4.308900761851e+01
4.631744099981e+01
9.299012357974e+01
1.431377520427e+02
1.347442566008e+02
7.076140711474e+01
6.326858271004e+01
6.275444204445e+01
5.511925122459e+01
5.540927158005e+01
5.441218286600e+01
1.305250336624e+02
9.060398269531e+01
5.358172204164e+01
4.344247625195e+01
1.513486845683e+02
1.293671220719e+02
9.695694548595e+01
1.044505181670e+02
1.057932536786e+02
1.131622750398e+02
1.147967165044e+02
1.219910873150e+02
1.202665098246e+02
1.379876152779e+02
1.289452937270e+02
6.754298622415e+01
1.195505453453e+02
6.313588879399e+01
3.665651491301e+01
3.657400184410e+01
4.503032220060e+01
5.501608144233e+01
1.545013072001e+02
1.238991360089e+02
1.165700797455e+02
4.738695595496e+01
4.725488271191e+01
1.436854155294e+02
6.241216166226e+01
6.423457002348e+01
6.002008255811e+01
3.418654016918e+01
3.233681029422e+01
9.414846235872e+01
5.533291242657e+01
4.901097913685e+01
2.964058977856e+01
2.428609466458e+01
8.270296989369e+01
9.266164316870e+01
1.046144667203e+02
1.086147559016e+02
1.505494947261e+02
4.129938700307e+01
9.741396318746e+01
1.338796866654e+02
1.257784694474e+02
9.387950033360e+01
3.719129713802e+01
3.373473346991e+01
6.862343383393e+01
5.164321955802e+01
4.931051637843e+01
1.581540160900e+02
9.888357010873e+01
1.270652551255e+02
1.185873996514e+02
1.355911108849e+02
3.072039398768e+01
1.584156877891e+02
1.468028661013e+02
1.255968164721e+02
1.186444130196e+02
5.774227759230e+01
5.126510133101e+01
4.250396441544e+01
4.449578450532e+01
5.519382907870e+01
5.978411117973e+01
5.683028776632e+01
4.913120056969e+01
4.719189018261e+01
5.517593060706e+01
4.661901693857e+01
7.019247283300e+01
1.091388386875e+02
1.006866665381e+02
1.236500481893e+02
1.177860224327e+02
9.506332141840e+01
1.008328646518e+02
6.129703264196e+01
5.710190947258e+01
3.760066964635e+01
3.320959869769e+01
1.121856065126e+02
1.543687424768e+02
9.826815675187e+01
1.036359570898e+02
9.836274702671e+01
1.540430850518e+02
7.779841727574e+01
1.165560939163e+02
2.955196868954e+01
1.019999081475e+02
2.746160628070e+01
9.399204751950e+01
1.549211510567e+02
1.592841654434e+02
1.460029754981e+02
3.988065511561e+01
1.087421509502e+02
1.071574405808e+02
3.946875285616e+01
3.773717591706e+01
4.614630594479e+01
3.722071717794e+01
7.284214824374e+01
6.732814545520e+01
1.337475372928e+02
1.375587367693e+02
1.281781537639e+02
1.212577311753e+02
1.514884030956e+02
1.489599789670e+02
5.904779339601e+01
3.882441545095e+01
1.044989630064e+02
4.204702395470e+01
1.618437263545e+02
1.580243372644e+02
1.857887293549e+01
2.351035379878e+01
1.029337637123e+02
3.581149029917e+01
3.726763996079e+01
3.383020000786e+01
1.709042523307e+02
3.971095008139e+01
1.628120701183e+02
5.485948218987e+01
1.077657938007e+02
1.152274194660e+02
6.977969456820e+01
1.463950499553e+02
9.756273620743e+01
1.087636445232e+02
5.472957217129e+01
5.041462605731e+01
5.866968890269e+01
3.462219522139e+01
2.343446137003e+01
9.623168792459e+01
7.067100256666e+01
7.595867697272e+01
4.551267871458e+01
5.566327420310e+01
1.098212347556e+02
1.059414017633e+02
1.016195775049e+02
1.039054875687e+02
9.818527013778e+01
1.301688159810e+02
1.219387473107e+02
1.175695252318e+02
1.052409390828e+02
1.121876891079e+02
7.809284581558e+01
7.384599439363e+01
7.684465440290e+01
1.094598887086e+02
1.669794628117e+02
1.635308271471e+02
2.301517423894e+01
2.866490007986e+01
2.838724304535e+01
2.496324651225e+01
1.090471373599e+02
1.041867595755e+02
1.152762160515e+02
5.269328777697e+01
1.252127380939e+02
1.611075199153e+02
1.571169600214e+02
1.660377329941e+02
1.400844465478e+02
1.480739750771e+02
1.439420986102e+02
1.384528193536e+01
1.052055485618e+02
5.146068360963e+01
9.569466280393e+00
4.742544956569e+01
5.292405683981e+01
4.286591502593e+01
4.293983157613e+01
4.791013667407e+01
5.338773977538e+01
1.659404321530e+01
1.150185315914e+02
1.791583167440e+01
2.208252417309e+01
1.654979712866e+02
1.615428844027e+02
1.687519887570e+02
1.647146464413e+02
1.573901530149e+02
1.610040538260e+02
4.608600648764e+01
1.692542037917e+02
1.646167443924e+02
1.730350904364e+02
2.850926847313e+01
4.586944277039e+01
3.834519409482e+01
2.982822554249e+01
1.325557911577e+02
1.236122569813e+02
1.506585983315e+02
1.423373252711e+02
4.827665333369e+01
4.789349557252e+01
5.631995149795e+01
5.527532589165e+01
6.385786392750e+01
6.257882726057e+01
7.142006144288e+01
1.461893296973e+02
2.793218867929e+01
3.261259957024e+01
1.565782322501e+02
1.533781996937e+02
3.763014739000e+01
2.948908587235e+01
1.666867297586e+02
6.629516534895e+01
1.217298608647e+02
7.554821529819e+00
1.208783572223e+01
6.816008735448e+01
4.605378279377e+01
4.671176734879e+01
3.953551952237e+01
1.383449267329e+02
2.433610299030e+01
3.142604248973e+01
7.237123628573e+01
2.383147818830e+01
1.466980466950e+02
7.272689046165e+01
6.335276976861e+01
4.011101043910e+01
5.319148668108e+01
6.182192410581e+01
4.925374682942e+01
4.546184726137e+01
7.876212395954e+01
3.940371630584e+01
3.086419386885e+01
6.492244151961e+01
9.331573212908e+01
9.919494782969e+01
1.098636885656e+02
1.053727374240e+02
9.455621436974e+01
1.009021862938e+02
1.118045668738e+02
1.078585664294e+02
1.206962912474e+02
1.148380125147e+02
1.036451246789e+02
1.104755489805e+02
1.208045463871e+02
9.978425677105e+01
1.589880348634e+02
7.650122008119e+01
1.890229292843e+01
1.694308633582e+01
6.346283706159e+01
1.310070405980e+02
1.275403771137e+02
6.141393547352e+01
1.439438644613e+02
5.186153404414e+01
4.467790252345e+01
1.497014426282e+02
8.843820902016e+01
8.373825357233e+01
7.785787666820e+01
1.257310495883e+02
6.305719729089e+01
1.599191010063e+02
1.172392516902e+02
1.114532935328e+02
1.033741142976e+02
9.665085202863e+01
1.671096115873e+02
1.620769230751e+02
1.633283077260e+02
1.562360979997e+02
1.698136594508e+02
1.364587209043e+02
1.392755430636e+02
6.425632227187e+01
6.947897413296e+01
7.876969018927e+01
7.428919420076e+01
6.485535510830e+01
6.958595813920e+01
7.872356423505e+01
6.467975038989e+01
1.138695388729e+02
1.720652768124e+02
1.262972601265e+02
1.221494136017e+02
1.136412622051e+02
9.671467126856e+01
1.020026500911e+02
1.110814167701e+02
9.132941578618e+01
1.116647551365e+02
1.727717562952e+02
1.212665014090e+02
9.800689824943e+01
3.877362078855e+01
4.672887606920e+01
4.698140290610e+01
5.587907823578e+01
4.756556131213e+01
1.137025016233e+02
1.175569414803e+02
1.125681555471e+02
1.213582044132e+02
1.162194466190e+02
1.079286672243e+02
1.249540215548e+02
1.193190921409e+02
3.890962309343e+01
5.864471636588e+00
1.378230480844e+01
1.380731614251e+01
2.276584187722e+01
2.327299654584e+01
3.296322874476e+01
3.135664590725e+01
1.345276489816e+01
5.694629203384e+00
1.418526235780e+01
5.707128820886e+00
1.427749426058e+01
2.460156488377e+01
3.924568887029e+01
1.750475927228e+02
9.363523024747e+01
8.911812447989e+01
7.978537761441e+01
8.488116118927e+01
9.747310306502e+01
7.461041075310e+01
7.113143422374e+01
8.316882363533e+00
1.685116498963e+01
1.607434904359e+01
2.538376152000e+01
2.501895374715e+01
1.681671987741e+01
1.670215903419e+01
7.821382572155e+00
1.645677152850e+01
2.525567020478e+01
7.220891451155e+00
8.436881717916e+01
8.974943800631e+01
1.736649243381e+02
4.028139198793e+01
6.239240199056e+00
1.198143747887e+02
1.218875755764e+02
1.218754078100e+02
1.631340868153e+02
1.669963075140e+02
1.200446045496e+02
6.358099761391e+01
1.159988212601e+02
1.018972520311e+02
3.926230997642e+01
6.162345049269e+01
1.384654931056e+02
1.285277796343e+02
1.557923726999e+02
1.310796322808e+02
1.487611686010e+02
1.642300412635e+02
3.955317686507e+01
6.537042564835e+01
6.242021978974e+01
8.618492957530e+01
6.637076281307e+01
1.038011232231e+02
4.211567952244e+01
1.406131008303e+02
5.543720025056e+01
1.090909343136e+02
8.724176631796e+01
6.936801532634e+01
5.745665051556e+01
7.785075529139e+01
1.032034561584e+02
1.423109654724e+02
9.180187175451e+01
7.936636326062e+00
1.465621491961e+02
1.209573317200e+02
6.849828685393e+01
1.385672872277e+02
3.850146224181e+01
8.948808980523e+01
1.085791301334e+02
5.774172246548e+01
3.200703676688e+01
5.580676717067e+01
1.619244139759e+02
8.776451165755e+01
6.068348239071e+01
1.083248804372e+02
7.151863431297e+01
3.087252152827e+01
1.062692477836e+02
9.915836294896e+01
1.482927025739e+02
1.246777777220e+02
6.503022187406e+01
1.539295264274e+02
1.010047506996e+02
9.976331501951e+01
1.073345422827e+02
8.650399358307e+01
9.326599208685e+01
1.094183023810e+02
1.412129648522e+02
5.484082523143e+01
8.921992529703e+01
8.644028485876e+01
9.493200514029e+01
1.337606646646e+02
1.502964011765e+02
4.013113405039e+01
6.161873894595e+01
6.756752430230e+01
1.307456672680e+02
1.101131714371e+02
6.340951345523e+01
1.496232695924e+02
1.036272662167e+02
1.071585185133e+02
4.558745606626e+01
2.977244492211e+01
6.885576229247e+01
9.738946395907e+01
1.160784686466e+02
1.163879641643e+02
1.531582892490e+02
1.426644699770e+02
1.745273021456e+01
3.595953291628e+01
1.566876907746e+02
1.130498355407e+02
1.462195602676e+02
1.107821808525e+02
1.434086253888e+02
2.836399192134e+01
1.603599354376e+02
1.419433129703e+02
6.411101988013e+01
3.993652622688e+01
1.690841419962e+02
1.497789203321e+02
1.032179117065e+02
1.092390127495e+02
2.344157161276e+01
1.199072484380e+02
9.041077524992e+01
1.249789363702e+02
1.526501888285e+02
7.318545716717e+01
1.149122758450e+02
1.215589185870e+02
2.495369884745e+01
2.999802077433e+01
1.187156446600e+02
7.388566463939e+01
1.136182507691e+02
1.537680556595e+02
1.225064091267e+02
8.279124425017e+01
1.262560881979e+02
1.905658139233e+01
7.934105968538e+01
1.299433310188e+02
9.971542360557e+01
2.596940498890e+01
1.102136900250e+02
1.588368081957e+02
8.072312039432e+01
1.178932148728e+02
9.005335299185e+01
2.083474197247e+01
1.262546625171e+02
1.091695515334e+02
1.169059457945e+02
1.054026972151e+02
1.345342447700e+02
3.109528935868e+01
5.949292835049e+01
4.950178450558e+01
8.755962976098e+01
1.113462197372e+02
3.344608208858e+01
9.272153026999e+01
3.498464142675e+01
8.332398326185e+01
1.318303414653e+02
6.564381052676e+01
8.773231513432e+01
5.538878867455e+01
8.304647885228e+01
1.134336672454e+02
8.721991367198e+01
8.217385527335e+01
1.120902609729e+02
8.613859964547e+01
1.216472774725e+02
1.756248281526e+02
4.705110339761e+01
2.394880919051e+01
6.264710780287e+00
3.270201714267e+01
7.127802628894e+01
9.653397101942e+01
4.733709647685e+01
6.549479814668e+01
1.259875545906e+02
1.553431683048e+02
7.956693095449e+01
1.506560963813e+02
1.235071267231e+02
1.031045318867e+02
3.894019553790e+01
1.452948889699e+01
1.381177740125e+02
2.402162553983e+01
2.926706788916e+01
2.611905207724e+01
6.852489690882e+01
2.276574471091e+01
2.383886810586e+01
1.601330305041e+02
4.643614401932e+01
1.335829476300e+02
2.176137766956e+01
1.140880885121e+02
1.513445596319e+02
1.752044781710e+02
1.421171947622e+02
2.086726288180e+01
5.385877895853e+01
1.375644259757e+02
8.717642381183e+01
1.760866161882e+02
4.495584392122e+01
1.134109702874e+02
3.510842337885e+01
1.135136906450e+02
1.068655703996e+02
5.846876686294e+01
5.386140402937e+01
1.705403886233e+02
1.214277710917e+02
1.701742218247e+01
7.887116290763e+01
8.510592873348e+01
1.143310597888e+01
1.682603683005e+02
1.168011273268e+02
1.700312689643e+02
2.499059938168e+01
1.421273806330e+01
1.683052013156e+02
1.321431934399e+02
4.019566776248e+01
1.245484136935e+02
1.152092407722e+01
3.765916855979e+01
1.532905944133e+01
1.762388831212e+02
1.141775345728e+02
9.328959274818e+01
3.920859169955e+01
6.208480385601e+01
1.385315667859e+02
2.158493138233e+01
1.150078150390e+02
1.670833741324e+02
1.185449554088e+02
1.655134744559e+02
1.006314049619e+01
1.512039560839e+02
1.589042744140e+02
3.904167227674e+01
1.192706199371e+02
7.624967307103e+01
3.269821783301e+01
1.227082081075e+02
6.827398037879e+00
3.880175441721e+01
1.772948101138e+02
3.131198194723e+01
5.379423854921e+01
1.300494108929e+02
1.131564073032e+02
9.734043208004e+01
2.966569033072e+01
6.380547651135e+00
7.061444541629e+01
1.551102352367e+02
1.175301670469e+02
6.374965085115e+01
2.223447070319e+01
1.249846485938e+02
1.003014489073e+02
1.331952672353e+02
1.565233607587e+02
1.082699941137e+01
1.209849498992e+02
1.405133698243e+01
1.707233937066e+02
1.043647945487e+02
6.883058505092e+00
5.047208782409e+00
1.057697081184e+01
1.003870545889e+01
1.756781505596e+01
1.908307605255e+01
2.579864628011e+01
2.754525182785e+01

SCALARS node_materi_strain_total_average_a_ept float
LOOKUP_TABLE default
3.620101993836e-05
3.208649334813e-03
2.766056159728e-03
4.620377065617e-03
1.093175414806e-04
2.545270699514e-04
3.964880167476e-04
5.522430075346e-04
7.044086627154e-04
8.553223822862e-04
1.004958668965e-03
1.153664298855e-03
1.301618641688e-03
1.449305326447e-03
1.598683697470e-03
1.744530020639e-03
1.875568292253e-03
2.016713868285e-03
2.160168846788e-03
2.297254821451e-03
2.433544311953e-03
2.568794030035e-03
2.699890162899e-03
4.629004422754e-03
4.620123191692e-03
4.620658763644e-03
4.617750366859e-03
4.608126603984e-03
4.608776597819e-03
4.601386431251e-03
4.589399069250e-03
4.582162866578e-03
4.568655758029e-03
4.544473619433e-03
4.528141340382e-03
4.501111304263e-03
4.469151043298e-03
4.429296635251e-03
4.383238379335e-03
4.331164911713e-03
4.275456175655e-03
4.215596160078e-03
4.150550630130e-03
4.075976691973e-03
3.993467112085e-03
3.911260419194e-03
3.825306838406e-03
3.739615684551e-03
3.656111389710e-03
3.572785157544e-03
3.493990319504e-03
3.414053921933e-03
3.345550018241e-03
3.276066178993e-03
3.204849743042e-03
3.142144213851e-03
3.091903025978e-03
3.044540853204e-03
2.998263289310e-03
2.964772177173e-03
2.925072901548e-03
2.896258065494e-03
2.864669316547e-03
2.843741841336e-03
2.834276689271e-03
2.824245703840e-03
2.788837710033e-03
2.795167993920e-03
2.777361808511e-03
2.773254187019e-03
2.776045797601e-03
2.772662108988e-03
3.355844425739e-03
3.500018372139e-03
3.644519793880e-03
3.787094988162e-03
3.933154064421e-03
4.080998490301e-03
4.227471874867e-03
4.375569479742e-03
4.523973948051e-03
-9.423355974188e-05
3.103363366900e-03
1.392168757830e-04
5.382960687260e-04
9.903329866849e-04
1.451683693269e-03
1.923781849824e-03
2.415614314454e-03
2.680609147955e-03
2.816996158724e-03
2.954075370916e-03
2.679790280956e-03
2.772747822501e-03
2.918086313366e-03
3.061275680813e-03
3.190680423706e-03
3.199541177366e-03
3.198651598961e-03
3.195277149612e-03
3.212857775020e-03
3.193315840425e-03
3.188436572255e-03
3.185818925869e-03
3.182090107885e-03
3.173726472663e-03
3.164709771690e-03
3.152754671221e-03
3.139055244447e-03
3.123874166088e-03
-1.213693586547e-04
-1.514030093875e-04
-1.590051063709e-04
-1.471022895784e-04
-1.240322607200e-04
-1.053209632694e-04
-8.713962462477e-05
-6.939748251337e-05
-5.241440148837e-05
-3.666289351742e-05
-1.981770199701e-05
-9.223772134464e-06
3.125640727081e-06
1.349373999895e-05
2.252943412744e-05
2.871747937674e-05
3.364178181167e-05
3.666504076405e-05
3.558582731607e-05
2.699013540762e-03
2.708166270899e-03
2.707798224392e-03
2.708839193788e-03
2.710897325916e-03
2.713746566152e-03
2.717240170123e-03
2.721292082323e-03
2.726058183638e-03
2.731540200716e-03
2.737680610808e-03
2.744268186063e-03
2.750956976997e-03
2.758196834362e-03
2.764353965171e-03
2.769504792477e-03
2.766666061766e-03
2.760112170691e-03
2.725443645244e-03
2.644737455563e-03
2.737083262907e-03
2.773394844242e-03
2.789196633666e-03
2.796052994674e-03
2.799902451281e-03
2.799810355642e-03
2.798822123928e-03
2.796749086681e-03
2.794133358843e-03
2.791408815510e-03
2.788803030203e-03
2.786364585892e-03
2.784182210802e-03
2.782194536390e-03
2.780601579641e-03
2.779379661641e-03
2.778609301737e-03
2.777806299717e-03
2.774009497005e-03
2.918748018121e-03
2.919991781139e-03
2.920322386419e-03
2.920540374533e-03
2.920828011953e-03
2.921012968109e-03
2.921205986795e-03
2.920977770180e-03
2.920364925195e-03
2.919435973861e-03
2.917806898494e-03
2.914962804548e-03
2.910384687833e-03
2.902641578574e-03
2.893724388007e-03
2.881120457734e-03
2.845884107511e-03
2.971296276992e-03
3.005754945285e-03
3.017837251783e-03
3.029446618951e-03
3.038218484819e-03
3.044843478104e-03
3.049333828278e-03
3.053215955639e-03
3.056926988606e-03
3.058383500979e-03
3.060062716960e-03
3.060987251929e-03
3.061849215577e-03
3.062048585295e-03
3.062782670462e-03
3.062572895585e-03
-9.718325813436e-06
3.293561094715e-04
7.623103168664e-04
1.226986502919e-03
1.685248258335e-03
2.150709621629e-03
2.591815853923e-03
2.759615793060e-03
2.894621205189e-03
3.038156388743e-03
5.310457226403e-04
3.075129498605e-03
1.959446620556e-05
-4.883426085562e-05
2.869917761512e-03
1.410276750479e-03
1.530247083784e-03
3.320887731922e-03
2.249024501384e-03
3.637715572165e-03
2.789565432258e-03
2.787216546210e-03
5.934123096576e-05
3.964527766493e-03
3.119676234602e-03
9.375854840667e-04
1.924356722185e-03
4.163263389922e-03
4.373104962038e-03
4.538996170827e-03
4.497549223150e-03
4.462509621086e-03
3.240453593118e-03
3.300421532300e-03
3.330337335520e-03
3.861400973406e-03
2.740451812777e-03
-3.846517028247e-05
8.585069645239e-05
2.360948803603e-03
3.323907489303e-03
4.731891123078e-04
4.259960524888e-03
3.485775312348e-03
3.805149230953e-03
3.191534949142e-03
2.980436151463e-03
-1.577090629417e-05
3.272607949625e-03
2.794560482599e-03
4.149604124315e-03
4.684954895685e-05
1.228885281331e-03
4.569146827027e-03
1.846364823625e-03
9.597104912529e-04
2.585763049444e-03
2.955697365624e-03
1.419780038674e-04
3.584200042883e-03
2.748018873555e-03
8.707677384290e-05
4.442597770122e-03
3.193482452020e-03
3.217169852012e-03
3.305367016940e-03
3.326212878720e-03
3.422160655799e-03
3.441417102248e-03
3.340275149009e-03
3.456834343582e-03
3.349386190068e-03
3.542263485797e-03
3.468048164371e-03
3.354500743269e-03
3.475358072718e-03
3.356287545943e-03
3.238437456723e-03
3.234751423903e-03
3.118999379547e-03
3.109603224515e-03
3.229469089330e-03
3.099392838403e-03
2.979789236787e-03
2.965549055374e-03
2.844746326648e-03
2.827390411441e-03
2.703240638378e-03
2.684682987620e-03
2.813301908486e-03
2.670278982283e-03
2.538033035193e-03
2.524449559587e-03
2.387556184653e-03
2.375623987769e-03
2.515335858345e-03
2.369350588416e-03
2.223805483274e-03
2.222269523097e-03
2.070725699927e-03
2.075093529271e-03
1.917479327539e-03
1.927348562789e-03
2.083206002643e-03
1.940680274573e-03
1.780135253109e-03
1.799222781451e-03
1.957847945371e-03
1.821679042225e-03
1.978034171750e-03
1.846953111071e-03
1.688902818380e-03
1.719045792433e-03
1.874389668097e-03
1.750678487318e-03
1.594258920709e-03
1.630695344683e-03
1.784540979985e-03
1.668732399094e-03
1.514224213999e-03
1.556294386697e-03
1.709045972451e-03
1.599483148293e-03
1.446604427715e-03
1.492891683543e-03
1.644449638068e-03
1.540239852163e-03
1.690379190514e-03
1.387677101671e-03
1.438143696856e-03
1.284442427193e-03
1.338445452966e-03
2.510630439165e-03
1.184425754419e-03
1.129519849611e-03
1.241312607867e-03
1.393700529597e-03
1.086913891030e-03
1.146412877105e-03
9.919870948603e-04
1.909762706074e-03
3.223281575660e-03
1.053677869273e-03
8.995498300517e-04
8.357728890453e-04
7.442725467546e-04
3.516811515807e-03
3.644893645341e-03
3.611778530292e-03
3.746271279652e-03
3.710626329763e-03
8.091958987134e-04
3.593663147472e-03
3.777542649987e-03
2.865432948067e-03
2.404812100883e-03
2.111645503979e-03
1.205975044940e-03
1.115261470218e-03
1.265615461994e-03
1.793934400542e-03
1.837894683739e-03
1.940562151318e-03
1.982420526930e-03
2.083941247911e-03
2.123968178342e-03
2.025550492933e-03
2.165383820539e-03
2.069914648377e-03
2.224099149032e-03
2.187201895693e-03
2.208153690393e-03
2.115614221520e-03
2.252632942058e-03
2.162689624229e-03
2.024100263113e-03
2.073581289598e-03
1.934291737666e-03
2.129787392545e-03
2.261181299475e-03
2.277144434380e-03
2.406270242828e-03
2.420347309808e-03
2.547252655073e-03
2.559106186129e-03
2.436720957347e-03
3.478423659396e-03
1.635202839161e-03
1.613297690884e-03
1.464772667436e-03
1.439425729215e-03
1.287145369597e-03
1.257770827283e-03
1.100971141059e-03
1.138950924809e-03
9.488185575914e-04
9.960346328138e-04
8.031334727414e-04
8.585805288481e-04
2.802005545211e-03
2.537144481988e-03
2.676212433708e-03
2.668544754056e-03
6.780567563265e-04
2.211281819032e-03
2.326018433481e-03
2.291645183347e-03
2.574239452679e-03
6.563317782971e-04
1.067411915944e-03
1.232490371713e-03
3.847065959264e-03
3.807626128588e-03
2.429532124367e-03
7.215200631265e-04
2.302209576192e-03
7.503948413651e-04
2.124461599550e-03
2.260962187144e-03
1.929108399241e-03
2.806633758250e-03
2.800308154550e-03
1.044841318628e-03
9.138175253184e-04
7.315724376957e-04
7.920005365617e-04
9.694227907897e-04
8.493190229997e-04
6.724272518536e-04
7.339422416626e-04
9.082104057527e-04
7.968162469044e-04
6.229426738000e-04
6.894136521078e-04
2.346200060535e-03
6.037235801324e-04
3.126844457242e-03
2.461083655418e-03
2.692631037539e-03
3.947698659084e-03
3.904349478790e-03
3.764300730065e-03
3.857916287309e-03
4.000807298261e-03
3.951204524246e-03
3.808634919018e-03
3.899220478841e-03
3.756887666823e-03
3.845111168132e-03
3.989666210823e-03
3.933316924813e-03
3.788943634263e-03
3.875267893397e-03
3.730787094035e-03
3.815189877129e-03
3.961582614076e-03
5.736873309420e-04
2.455226915989e-03
2.592386043435e-03
1.180214176467e-03
1.324721290510e-03
1.414265928901e-03
1.473980365735e-03
3.898979419766e-03
4.047297933531e-03
1.038803741076e-03
1.212551761487e-03
3.987770953351e-03
2.177202189500e-03
2.039244511307e-03
2.248085874598e-03
2.268909290291e-03
2.103294194660e-03
2.125639824809e-03
2.299148443981e-03
1.946392641128e-03
2.150410203623e-03
4.079619826545e-03
7.715428540343e-04
6.115573292323e-04
2.312770784033e-03
2.315581834359e-03
2.942888041274e-03
2.933839845987e-03
3.073624768061e-03
3.065783534226e-03
3.205634903170e-03
3.197686576937e-03
3.059565585408e-03
2.938394818778e-03
3.191830146006e-03
3.751663602647e-03
2.527316640903e-03
9.673163590712e-04
5.056106947359e-04
5.126573783681e-04
6.343046270549e-04
7.863171241898e-04
2.562910659967e-03
3.338791013455e-03
3.344432274552e-03
2.165723821616e-03
2.341726879976e-03
2.940563009342e-03
3.578838065870e-03
3.668996395348e-03
3.616821549205e-03
4.716671881656e-04
4.496817854388e-04
4.096504530496e-03
1.400134392506e-03
1.390361036310e-03
5.412424673517e-04
3.951626765911e-04
3.981951451648e-03
4.129853125655e-03
1.561733319341e-03
1.619083817005e-03
2.535621915064e-03
5.853150788587e-04
4.195942979073e-03
2.339027112445e-03
2.196749857562e-03
1.384934846371e-03
1.015425625304e-03
8.363221831723e-04
1.078831049315e-03
7.547032502746e-04
6.991602306351e-04
2.667705782791e-03
4.146206185548e-03
3.055180785653e-03
2.921398436693e-03
3.187469456959e-03
4.145453908022e-04
2.594095775024e-03
2.231332873314e-03
3.474191305359e-03
3.482071164203e-03
1.570447752185e-03
1.573805223735e-03
1.392383040613e-03
1.588568292439e-03
3.237627024657e-03
1.745942972015e-03
3.010713180145e-03
3.023651642889e-03
2.910450514553e-03
2.460896496449e-03
2.504456225787e-03
1.594360838253e-03
2.247102027007e-03
1.505208230035e-03
1.883842833428e-03
1.899579132291e-03
4.135853191732e-03
4.227826349936e-03
3.646101001818e-03
3.587628882453e-03
5.191576671885e-04
4.496387696150e-04
1.737501072840e-03
2.493101441617e-03
4.090757364811e-03
4.131752599027e-03
4.024212450460e-03
2.642662956254e-03
1.493735328652e-03
2.150116271791e-03
4.656526150806e-04
2.652246698676e-03
3.615387523675e-04
3.353317935905e-03
2.366548971145e-03
2.445824306225e-03
3.068033949108e-03
3.129003169972e-03
2.649277286437e-03
2.510666067661e-03
2.929019998758e-03
2.821352979472e-03
2.789695681670e-03
2.698776578100e-03
1.132242216703e-03
1.023976436638e-03
3.482683493151e-03
3.321593235577e-03
3.614386755380e-03
3.624353185092e-03
3.069319403305e-03
2.943467953083e-03
8.458462120293e-04
2.397751365638e-03
4.244469131223e-03
3.032160777984e-03
2.619902520155e-03
2.529559440532e-03
2.561871534818e-04
3.296998437736e-04
4.280370489592e-03
1.399195306197e-03
1.602729807335e-03
1.195517738714e-03
2.629092756574e-03
3.322759599766e-03
2.500067863643e-03
2.614275738655e-03
4.348063135874e-03
2.651520763597e-03
2.084096167545e-03
2.507916037116e-03
4.203750503037e-03
4.366940184313e-03
3.532045449330e-03
3.473620916661e-03
3.577735108234e-03
7.017380494251e-04
4.687558732075e-04
4.168617845603e-03
1.026896413036e-03
1.104232379437e-03
6.501573229664e-04
8.139048521055e-04
1.651251736856e-03
1.597309193720e-03
3.351099101886e-03
3.482880355536e-03
3.081577725809e-03
2.224735833052e-03
2.080667978636e-03
2.051777583991e-03
4.281335174087e-03
4.389006924346e-03
1.243131839355e-03
1.193903102728e-03
1.183140830708e-03
4.294644316558e-03
2.577367693146e-03
2.522655390809e-03
2.901991565211e-04
3.776620375120e-04
8.040941865554e-04
6.232248287540e-04
4.166712787464e-03
4.057204943691e-03
4.287094312595e-03
7.490785830915e-04
2.924125564022e-03
2.769196997555e-03
2.751196165310e-03
2.811218784542e-03
3.065535466448e-03
3.187657066067e-03
3.316065792224e-03
1.777767501690e-04
4.319044675161e-03
3.498119422862e-03
7.284896232704e-05
3.440599255182e-03
3.525723327421e-03
3.370986514656e-03
6.021180083440e-04
3.422894450373e-03
3.488615179733e-03
1.888469939957e-04
4.394438817068e-03
2.126712901959e-04
2.790801332152e-04
2.661050739341e-03
2.566775837817e-03
2.691407398870e-03
2.598670734885e-03
2.474354207474e-03
2.519657027793e-03
3.411967486857e-03
2.664165441444e-03
2.566898774748e-03
2.713679536680e-03
2.745128072054e-03
1.778087285700e-03
1.810817979663e-03
1.644468386597e-03
3.782321588846e-03
3.754772622817e-03
2.291454306397e-03
2.153385029890e-03
3.453972654812e-03
3.449777038291e-03
3.579264050720e-03
3.564642523045e-03
3.695447255684e-03
3.677815597851e-03
3.812037228896e-03
3.465269519140e-03
1.191561178987e-03
2.943913801838e-03
3.066403119141e-03
2.937679859577e-03
2.559326151540e-03
2.478592494967e-03
2.737789224704e-03
1.741997403207e-03
4.462772859500e-03
-1.003690759318e-05
1.941539761193e-04
1.910654072846e-03
2.654445080163e-03
1.973294642451e-03
2.028498271349e-03
2.367774173044e-03
3.117245181155e-04
9.961127422457e-04
3.825211177195e-03
7.758620250253e-04
2.223417278334e-03
1.751089796460e-03
2.581110639909e-03
1.201314962565e-03
1.762653769623e-03
3.239569713528e-03
3.230824140361e-03
3.132671001639e-03
1.764309793139e-03
2.222344793144e-03
2.084874990738e-03
2.995319884459e-03
3.915283421494e-03
3.943834683193e-03
4.081637068124e-03
3.966589040088e-03
3.828732759441e-03
3.848340832461e-03
3.990628322679e-03
3.867660128263e-03
4.034892695023e-03
3.876977890358e-03
3.737411144783e-03
3.742220110240e-03
3.867504282424e-03
3.607244393452e-03
3.185827742475e-03
2.071288945780e-03
3.172796470785e-04
3.436940869242e-04
2.727827248463e-03
4.218732900533e-03
4.327808884266e-03
1.417410000266e-03
3.883858897927e-03
3.131734163498e-03
9.064668016754e-04
3.721835634457e-03
3.805122564624e-03
3.693023696440e-03
3.670799510275e-03
4.409468441205e-03
3.625635642247e-03
3.410335201319e-03
2.394164779475e-03
2.382463947384e-03
2.234642291662e-03
3.726120977434e-03
3.129368623654e-03
2.996992485196e-03
2.946054113286e-03
2.853521826630e-03
3.024772607264e-03
4.111672406313e-03
4.047378533955e-03
1.024264994619e-03
1.144652464559e-03
1.312727144686e-03
1.268670163407e-03
1.094899877849e-03
1.224184642334e-03
1.395413959663e-03
1.180267721914e-03
3.618559187830e-03
2.942664984651e-03
2.045051665228e-03
2.006088690305e-03
1.859181060421e-03
1.449458912143e-03
1.543759426087e-03
1.690853584037e-03
1.356707708734e-03
2.926439975530e-03
2.904986514863e-03
2.172361492406e-03
1.490435568610e-03
3.258074598451e-03
3.358107651684e-03
3.333508154383e-03
3.466633596658e-03
3.390377433796e-03
1.705893407524e-03
1.761409413645e-03
1.677454029755e-03
1.817706361550e-03
1.732793714400e-03
1.601951386080e-03
1.872315417431e-03
1.779677256273e-03
3.285133148286e-03
-2.744021148864e-05
1.368986418141e-04
1.365554226534e-04
2.926457388519e-04
3.071911348528e-04
4.767568187739e-04
4.596971144688e-04
1.349700014847e-04
-4.375396117967e-06
1.446173636638e-04
8.405096535892e-06
1.480713326689e-04
3.174855476911e-04
5.469656537372e-04
2.713555612432e-03
1.374793377022e-03
1.304507175499e-03
1.163278099722e-03
1.241125933349e-03
1.434384846936e-03
1.083067826559e-03
1.029545219065e-03
8.972120003528e-05
2.055367635694e-04
1.923869494599e-04
3.330461873526e-04
3.294900053201e-04
2.044640985268e-04
2.014595349147e-04
8.038424844582e-05
1.978852917752e-04
3.321266432875e-04
7.115426900686e-05
4.008106452984e-03
4.088260756826e-03
2.839146575819e-03
3.320212043476e-03
3.543277759215e-05
4.520400430897e-03
4.522623776961e-03
4.536072944032e-03
2.497587543496e-03
2.566406336007e-03
4.532304056791e-03
9.298855375235e-04
4.102453092527e-03
4.257052341257e-03
8.694097148257e-04
9.184510194101e-04
2.094589359763e-03
1.976171463290e-03
2.393805938325e-03
1.986137389604e-03
2.298720550880e-03
2.885548305666e-03
5.524377503635e-04
3.702264113766e-03
3.670697411014e-03
4.021385916467e-03
9.625389982196e-04
1.539042175361e-03
5.886061876962e-04
3.647839713894e-03
2.888594389983e-03
1.750914824758e-03
1.298945307797e-03
1.028108567895e-03
8.594551450858e-04
2.232466354132e-03
1.589246545610e-03
2.262364547867e-03
4.108926558068e-03
6.723716775658e-05
2.360745224213e-03
1.882920187985e-03
3.717741043750e-03
2.683826469786e-03
5.607709750965e-04
4.043844266277e-03
4.231859659592e-03
3.535282342278e-03
4.319745900381e-04
3.558630083700e-03
2.690649866054e-03
3.883157221881e-03
8.737116182770e-04
2.000780684373e-03
2.556552073066e-03
3.039238734752e-03
4.313903065305e-03
2.368062529025e-03
2.709696385617e-03
2.295344938075e-03
9.389249420666e-04
2.436077454155e-03
2.096043865280e-03
4.190454569885e-03
3.212045161841e-03
1.660601981747e-03
4.047381275491e-03
1.820391220702e-03
2.811482209379e-03
2.757618691977e-03
2.953362287179e-03
3.354996786878e-03
2.659604349757e-03
2.013758459382e-03
2.397546846760e-03
6.646876879553e-04
1.928747954617e-03
3.671300336070e-03
3.325708091907e-03
4.337991993422e-03
2.428689915039e-03
2.343305876339e-03
4.191086559124e-03
1.639613064122e-03
6.411386631336e-04
6.671499862667e-04
1.320141851573e-03
2.225759302757e-03
1.785773445141e-03
4.212240421661e-03
2.386624189289e-03
2.398499199682e-03
3.322915969764e-04
3.037880134930e-03
2.432142953405e-03
2.025524327503e-03
2.814862131350e-03
1.645297161718e-03
3.564328433667e-03
2.625023211928e-03
2.481177043367e-03
2.480615425422e-03
1.578967453201e-03
3.326493123622e-03
2.629397581182e-03
2.617553950557e-03
2.793395145602e-03
1.903403156104e-03
2.875851766154e-03
1.834734036548e-03
3.089691466190e-03
4.442136674293e-03
2.722105676602e-03
3.563256858211e-03
1.742029047855e-03
2.659056070767e-03
3.294415699474e-04
2.850243236200e-03
1.793963101743e-03
1.356721512705e-03
1.934392843311e-03
3.191674497020e-03
1.847107374255e-03
1.525905342086e-03
1.901107579335e-03
2.702114009592e-03
3.580698246193e-03
1.955868353594e-03
3.217284010305e-03
3.411887296696e-04
2.787150643892e-03
2.428664108995e-03
1.232954110500e-03
1.968536386761e-03
3.711871727567e-03
2.452122981080e-03
2.114021786385e-03
3.348542269284e-03
2.786653691545e-03
2.372858582901e-03
2.257771730007e-03
2.305809725921e-03
8.696872805947e-04
7.102198378740e-04
1.559642651729e-03
3.484943388722e-03
4.571818664438e-04
3.602207100456e-03
4.816718454592e-04
1.434400098280e-03
2.933031666484e-03
3.723988791430e-03
1.473906359956e-03
7.901743198998e-04
1.356762653758e-03
2.516759067303e-03
1.401599383740e-03
1.291407092738e-03
4.403082383181e-03
1.339300906368e-03
4.559326694732e-03
2.714321015660e-03
3.436920869977e-03
2.065818601437e-03
-4.215111450443e-05
1.879518164878e-03
1.077103154824e-03
3.480067773049e-03
3.442250580951e-03
9.729741984022e-04
4.006458993484e-03
3.561132228864e-03
3.936356652958e-03
2.817803739322e-03
2.793101334692e-03
4.287620393921e-03
3.308508628317e-03
1.541288031015e-04
2.082097141093e-03
1.601845063014e-03
1.405101101121e-03
9.779913624584e-04
9.887156929465e-04
2.900894802786e-04
1.186869806213e-03
3.040241005909e-03
3.409421653810e-03
3.059049954278e-03
7.438407904309e-04
4.332381514690e-03
3.332074028037e-03
2.799424261765e-03
3.190964679198e-03
5.763341144802e-04
3.464682654602e-03
3.723209937977e-03
4.049324125058e-03
2.778553811235e-03
3.370442960006e-03
4.433854207900e-03
5.437449581800e-04
4.440798893220e-03
3.611954144206e-03
3.612310844313e-03
3.409310829324e-03
2.630141540355e-03
4.121460356374e-03
3.855612052111e-04
3.925466565767e-03
1.246898161022e-03
1.076549616069e-04
2.728728084141e-03
3.743450882082e-03
2.632775958237e-03
3.274331922935e-04
1.531953013041e-04
2.804669030572e-03
3.896014151467e-03
6.191053241641e-04
4.523388607587e-03
1.732856661027e-04
3.285562289730e-03
1.802463330743e-04
2.757267994928e-03
4.406526124892e-03
1.371630180783e-03
3.222436461058e-03
8.907318777021e-04
3.429444233706e-03
2.685372162009e-04
4.437103035494e-03
2.881517675533e-03
4.286712592811e-03
3.290661452602e-03
1.144207142579e-04
3.433055011339e-03
2.832093107117e-03
3.311295546286e-03
4.198598645687e-03
1.108146705234e-03
4.475486904290e-04
4.578390262637e-03
6.807731597438e-05
3.307437396365e-03
2.739210506142e-03
4.286135374586e-04
3.542653305509e-03
3.968539012033e-03
1.679961730267e-03
4.202539754392e-03
4.119940280167e-04
-7.209441236619e-05
3.800726659259e-03
3.287729677929e-03
4.351621597547e-03
3.693582387896e-03
5.015128132888e-04
3.848729917245e-03
1.483137043880e-03
3.591289502662e-03
2.927723575504e-03
5.559499655046e-06
1.804445731446e-03
1.554455814413e-04
2.706735992482e-03
1.543462510039e-03
2.696030194631e-03
2.701864702476e-03
2.783974481810e-03
2.842044633299e-03
2.903041003161e-03
2.994423465079e-03
3.035891357875e-03
3.129064576076e-03

SCALARS node_materi_strain_total_size_dev_sd_ept float
LOOKUP_TABLE default
7.470047650207e-05
8.587045571272e-03
6.707988122611e-03
1.136656321257e-02
2.238688910908e-04
5.163615693035e-04
7.762471234242e-04
1.073005893296e-03
1.358484102254e-03
1.639938266818e-03
1.926496007491e-03
2.220833694151e-03
2.524245230767e-03
2.844873322812e-03
3.191430715170e-03
3.534986832234e-03
3.860278010070e-03
4.241347826759e-03
4.650820313031e-03
5.066909844490e-03
5.507267600138e-03
5.972084390666e-03
6.426381737967e-03
1.137343608228e-02
1.135846276971e-02
1.136097505769e-02
1.135659671558e-02
1.134577934462e-02
1.134709757550e-02
1.133948463556e-02
1.132202435774e-02
1.131424542275e-02
1.129026224471e-02
1.126111746521e-02
1.123291797122e-02
1.119281168335e-02
1.113627655819e-02
1.107390282364e-02
1.098879860627e-02
1.090062108910e-02
1.079898747103e-02
1.068004840168e-02
1.054515517526e-02
1.038519825971e-02
1.021439903742e-02
1.002451031525e-02
9.822986924561e-03
9.616655007032e-03
9.405438405369e-03
9.188235708899e-03
8.968310673984e-03
8.748915420781e-03
8.559618441094e-03
8.342412395613e-03
8.127386493476e-03
7.933434001685e-03
7.774795774923e-03
7.619632011325e-03
7.483209680723e-03
7.357182814029e-03
7.240902541087e-03
7.133393392864e-03
7.042458529359e-03
6.982070649155e-03
6.940223497286e-03
6.896146093923e-03
6.788483510590e-03
6.806139678578e-03
6.764816876518e-03
6.755648607019e-03
6.755837725644e-03
6.746528215021e-03
8.924535236062e-03
9.259899524236e-03
9.577148141809e-03
9.877091221559e-03
1.017150786407e-02
1.045222265282e-02
1.072045659474e-02
1.097382559575e-02
1.122647495988e-02
1.090483986340e-03
8.794088048334e-03
2.134716983532e-03
3.150035319902e-03
4.139596897679e-03
5.082565296771e-03
6.099934069474e-03
7.240828339707e-03
7.619753953722e-03
8.012634260469e-03
8.400961047630e-03
7.345596316048e-03
7.540436329431e-03
7.878505026858e-03
8.223912841142e-03
8.538938647071e-03
8.563235028079e-03
8.571107309892e-03
8.572912949926e-03
8.626665489423e-03
8.596762378640e-03
8.603722629743e-03
8.620051684982e-03
8.647574802194e-03
8.664016109107e-03
8.679601344898e-03
8.699608280593e-03
8.719999322961e-03
8.747523419410e-03
1.055173183512e-03
1.135739688459e-03
1.125844144232e-03
1.048892527645e-03
9.442475191528e-04
8.546941929359e-04
7.587722585019e-04
6.608135797122e-04
5.698955648746e-04
4.833570481785e-04
4.040146840842e-04
3.534456058677e-04
2.779861439064e-04
2.097504640275e-04
1.663014814604e-04
1.388102668589e-04
1.126605769279e-04
8.208792131809e-05
6.748177290092e-05
7.374316457212e-03
7.351462871223e-03
7.346149247210e-03
7.341332666072e-03
7.333984441992e-03
7.323978406707e-03
7.311083762813e-03
7.295014861248e-03
7.275886471179e-03
7.254061654795e-03
7.229674767734e-03
7.202874497703e-03
7.174177677258e-03
7.146173619648e-03
7.121267749934e-03
7.104132995748e-03
7.097299746748e-03
7.108701517104e-03
7.161089722231e-03
7.271110672608e-03
7.450453213062e-03
7.482706543927e-03
7.430868729812e-03
7.420077550839e-03
7.418903436993e-03
7.425105135325e-03
7.436988120189e-03
7.449976902183e-03
7.463032303741e-03
7.475482779824e-03
7.487490811451e-03
7.498295093830e-03
7.506852700376e-03
7.513813829919e-03
7.519446095696e-03
7.524184720087e-03
7.528473850053e-03
7.534126376137e-03
7.540280767825e-03
7.883741194017e-03
7.884083586883e-03
7.882064953235e-03
7.880906530226e-03
7.879938870780e-03
7.880142103663e-03
7.880390420754e-03
7.880637051823e-03
7.879600023453e-03
7.881140454894e-03
7.883991873594e-03
7.887963596889e-03
7.895389114286e-03
7.904129204874e-03
7.920105403472e-03
7.965793452531e-03
7.920634022286e-03
8.327308196825e-03
8.379498491593e-03
8.344027769598e-03
8.322412718546e-03
8.306497968657e-03
8.292364393411e-03
8.279094349194e-03
8.269099945752e-03
8.260016598401e-03
8.252053169592e-03
8.245450605304e-03
8.240155202936e-03
8.237771960563e-03
8.233722395102e-03
8.233284769346e-03
8.233444450404e-03
1.570106237366e-03
2.660686814142e-03
3.648282193228e-03
4.631434885646e-03
5.615666413914e-03
6.706004090597e-03
7.535397495120e-03
7.877181213139e-03
8.260327144562e-03
8.628695439548e-03
2.732512944250e-03
7.603746745721e-03
5.372624535834e-04
8.759943292057e-04
6.950990282119e-03
4.813123740561e-03
3.027406340552e-03
8.385556779657e-03
6.905135560739e-03
9.334968210976e-03
8.182814097743e-03
6.698742997165e-03
2.976734766729e-04
1.020502292678e-02
8.938290069539e-03
1.795506237027e-03
3.991967187785e-03
1.067875299591e-02
1.106445943118e-02
1.126684620140e-02
1.123208892104e-02
1.119715041403e-02
9.070784807433e-03
8.990843016786e-03
8.957394980065e-03
1.002861609107e-02
6.570178101712e-03
9.771190372075e-04
2.145799664986e-04
5.270517662728e-03
8.878224917584e-03
9.259213174192e-04
1.088553140731e-02
8.893303089923e-03
9.797055225062e-03
7.968098144094e-03
7.315441673085e-03
7.524507182766e-04
9.020835499205e-03
6.706061793039e-03
1.058468426709e-02
4.172847645149e-04
2.372967299773e-03
1.130496015347e-02
5.810738145932e-03
3.767874234136e-03
7.709653226830e-03
8.571097818867e-03
1.693497468257e-03
9.444709057385e-03
6.614641219487e-03
1.694605093082e-04
1.108437674903e-02
9.104536992891e-03
9.217628417078e-03
9.377144464853e-03
9.481455164184e-03
9.665044643467e-03
9.728394270370e-03
9.532937753015e-03
9.757226346664e-03
9.536382633304e-03
9.911712181872e-03
9.746374607117e-03
9.496640417942e-03
9.697706526941e-03
9.418009104158e-03
9.218267218494e-03
9.104368890505e-03
8.905618509050e-03
8.751880501554e-03
8.960977713249e-03
8.572057616291e-03
8.353687193609e-03
8.140833329132e-03
7.909028305565e-03
7.669043615916e-03
7.417855591385e-03
7.161106537246e-03
7.437562139453e-03
6.921834469837e-03
6.625130220446e-03
6.386579217645e-03
6.070398460616e-03
5.839542793349e-03
6.176515465427e-03
5.643235141633e-03
5.288697152127e-03
5.114298882509e-03
4.746507215401e-03
4.599227620418e-03
4.223091359510e-03
4.102303140889e-03
4.487220365765e-03
4.017709995651e-03
3.632815920751e-03
3.577383105050e-03
3.967883055031e-03
3.555884507111e-03
3.950201009542e-03
3.564495925179e-03
3.182258115936e-03
3.215401450707e-03
3.598453947496e-03
3.269845306105e-03
2.903280404303e-03
2.977499861008e-03
3.344710878621e-03
3.067934874194e-03
2.718921248019e-03
2.821808298142e-03
3.173895998304e-03
2.935251615785e-03
2.601876875041e-03
2.720966300809e-03
3.059377292503e-03
2.847617318176e-03
3.191582259391e-03
2.524038916417e-03
2.652583956433e-03
2.342169667239e-03
2.471840626339e-03
5.999333709403e-03
2.173257946976e-03
2.053124758098e-03
2.301796831315e-03
2.608223280480e-03
2.011981196226e-03
2.138661640393e-03
1.856316982495e-03
4.376503270172e-03
8.799006904292e-03
1.980263914062e-03
1.702994206469e-03
1.586210510378e-03
1.434989305712e-03
9.831225404625e-03
1.008241969571e-02
9.985919265758e-03
1.024383910193e-02
1.014462958834e-02
1.548745805647e-03
9.949340373217e-03
1.031677533180e-02
8.146243525710e-03
6.330630382619e-03
4.369035856429e-03
2.269540645008e-03
2.108429361750e-03
2.404865618741e-03
3.419490320091e-03
3.555828688166e-03
3.799899441455e-03
3.939733969743e-03
4.199834160485e-03
4.343285364846e-03
4.087250820923e-03
4.494797184343e-03
4.241384984682e-03
4.618980827540e-03
4.480930061492e-03
4.652962949163e-03
4.401518824727e-03
4.817698745444e-03
4.566763321428e-03
4.164463062724e-03
4.328602491973e-03
3.941635830077e-03
4.355743066608e-03
4.780429212639e-03
4.771629409002e-03
5.200593663215e-03
5.198471385513e-03
5.630733439725e-03
5.636764315578e-03
5.223077997835e-03
9.615207112588e-03
3.197946719540e-03
3.257861676752e-03
2.830744487942e-03
2.895972969931e-03
2.478589039308e-03
2.552544330113e-03
2.146001761040e-03
2.110289704613e-03
1.793224330279e-03
1.796419858686e-03
1.500377642668e-03
1.539800777306e-03
7.222211883291e-03
5.651129879503e-03
6.082690058934e-03
6.114618591075e-03
1.325515427938e-03
4.736329627826e-03
4.916167160359e-03
4.783349947844e-03
5.672123825290e-03
1.283513904967e-03
2.234482314636e-03
2.678823309594e-03
1.039318396645e-02
1.028944235775e-02
5.235940709844e-03
1.394580828450e-03
4.922179058728e-03
1.504458238745e-03
4.496331222294e-03
4.909191673943e-03
3.849834972482e-03
6.546332821312e-03
6.584559609298e-03
1.838943911040e-03
1.609785211624e-03
1.347573785369e-03
1.434242229228e-03
1.692991715482e-03
1.517705647043e-03
1.275055817196e-03
1.368995982414e-03
1.617095249393e-03
1.468804677279e-03
1.236785917390e-03
1.331101840862e-03
5.162517831781e-03
1.239118726051e-03
9.021077342966e-03
5.369867601487e-03
6.087964566901e-03
1.053395642479e-02
1.042739064831e-02
1.016414622613e-02
1.030380801138e-02
1.055894601503e-02
1.043762448452e-02
1.016710161564e-02
1.030410445715e-02
1.001968560512e-02
1.016151688635e-02
1.043786378905e-02
1.030008794439e-02
1.001294147753e-02
1.015669198783e-02
9.859976418975e-03
1.000757132700e-02
1.029805411648e-02
1.135220147200e-03
5.273431191457e-03
5.737394935357e-03
2.249553612918e-03
2.538999934048e-03
2.714339797809e-03
2.860204383822e-03
1.015331841169e-02
1.043869338100e-02
2.385835209043e-03
2.865319736383e-03
1.062000831526e-02
4.669784288975e-03
4.269894374461e-03
5.756204139917e-03
6.035855927363e-03
5.442614100706e-03
5.736804365578e-03
6.347275282970e-03
5.125429662680e-03
4.349816032671e-03
1.056871938467e-02
1.475124049241e-03
1.222765059506e-03
5.089585346416e-03
4.831218905818e-03
7.720533820650e-03
7.528322496229e-03
8.011186455575e-03
7.841268075405e-03
8.310288462829e-03
8.163282735013e-03
7.694382842731e-03
7.014597987627e-03
8.043148302936e-03
9.851266527912e-03
5.693153968962e-03
1.724260726990e-03
1.024974773831e-03
1.102601230217e-03
1.234118999988e-03
1.510248028393e-03
5.705732794924e-03
8.620578865625e-03
8.752948801551e-03
6.074517212568e-03
6.681182379177e-03
6.987131063692e-03
9.868393441392e-03
9.875012907103e-03
9.712568997601e-03
9.402389419938e-04
1.030916192347e-03
1.068597376010e-02
3.164927085447e-03
3.384024684960e-03
1.257955458195e-03
1.028839563958e-03
1.029478522095e-02
1.057099862246e-02
3.039069290980e-03
3.190530217198e-03
5.580934369808e-03
1.196576691108e-03
1.070478870322e-02
4.899714701147e-03
4.465737969121e-03
2.679260847886e-03
2.612028566058e-03
2.137228996759e-03
1.890162914275e-03
1.431327270091e-03
1.349902097965e-03
6.067913997477e-03
1.078954142871e-02
7.577525968978e-03
7.211473297884e-03
7.949284552122e-03
9.816573900464e-04
5.850292052044e-03
4.849793696036e-03
9.041789457415e-03
9.163588028191e-03
3.686532002342e-03
3.938287992402e-03
3.669432993624e-03
4.245520978587e-03
9.320047276549e-03
4.246067476048e-03
8.714759326738e-03
8.824498155490e-03
8.528032298457e-03
6.928889534804e-03
7.253084033404e-03
3.355530768748e-03
4.816324964524e-03
2.892704499518e-03
3.783138158462e-03
3.668447857388e-03
1.069294092694e-02
1.081912681034e-02
9.707334043926e-03
9.543535081849e-03
1.070378391920e-03
9.777745079050e-04
3.331486402664e-03
5.513677635913e-03
1.075271010838e-02
1.082248836814e-02
1.068399087042e-02
5.944755882356e-03
2.805068363899e-03
4.368879670472e-03
1.056756508612e-03
6.515881725239e-03
8.220897252149e-04
9.175698557804e-03
5.276051195053e-03
5.525260434774e-03
7.444125632792e-03
9.036750413211e-03
6.360524608183e-03
5.858101031701e-03
8.621200927226e-03
8.342818131837e-03
8.179577659919e-03
7.999123877989e-03
1.998643955906e-03
1.832928967510e-03
8.971970488275e-03
8.400425140662e-03
9.431602672277e-03
9.549131021546e-03
7.432465750760e-03
6.978562477677e-03
1.622454514648e-03
7.035877418685e-03
1.091113791889e-02
8.865868813912e-03
5.990207032567e-03
5.672017799660e-03
9.045547600291e-04
9.350434369350e-04
1.083666354673e-02
4.010433302782e-03
4.581665648422e-03
3.447199241153e-03
6.192978319961e-03
8.853856020761e-03
5.719253997261e-03
7.470617107974e-03
1.096179413790e-02
6.242462071998e-03
5.170663392045e-03
5.465873152050e-03
1.069177146462e-02
1.097550038575e-02
9.557031732416e-03
9.378471935355e-03
9.715970747641e-03
1.565705102895e-03
1.343564821994e-03
1.069771357569e-02
1.951201542505e-03
2.111320914358e-03
1.286127280112e-03
1.528579159106e-03
3.226584073609e-03
3.077827030138e-03
9.034999141236e-03
9.402344251940e-03
8.193149993642e-03
4.549962554975e-03
4.128926578021e-03
4.051336111470e-03
1.092219202804e-02
1.106746484871e-02
2.182550435264e-03
2.079809829138e-03
2.108323380921e-03
1.100000357725e-02
5.975054689760e-03
5.788037949316e-03
7.470596312945e-04
8.931970763282e-04
2.407844091568e-03
1.924366459514e-03
1.086162879347e-02
1.072671499692e-02
1.100947470511e-02
1.443360074220e-03
7.111426758618e-03
6.438379865182e-03
6.326589766754e-03
6.633878133898e-03
7.468114338022e-03
7.877124210870e-03
8.339929411902e-03
8.886577317208e-04
1.088299514345e-02
9.366644875219e-03
8.819529816773e-04
9.197691725395e-03
9.377280034934e-03
9.012773392294e-03
1.169523973401e-03
9.339403914543e-03
9.558912292530e-03
6.280071992378e-04
1.110817079616e-02
5.960329866524e-04
6.686388827010e-04
6.148801505619e-03
5.829250178198e-03
6.302706644479e-03
5.988887836398e-03
5.528588135678e-03
5.709686154212e-03
9.194337400820e-03
6.240923306540e-03
5.902818118910e-03
6.432401661636e-03
8.154878435816e-03
4.832574878365e-03
5.180829878262e-03
5.023690245009e-03
9.841853877567e-03
9.876634700974e-03
5.045524015337e-03
4.627789098004e-03
9.194058734630e-03
9.164148066364e-03
9.463921673176e-03
9.415447111215e-03
9.707382238806e-03
9.653663012750e-03
9.941848044176e-03
8.821018596225e-03
3.833296615480e-03
8.634177472630e-03
7.437636290952e-03
6.969866098074e-03
7.567517127034e-03
7.399782111920e-03
6.410797076265e-03
4.018178993043e-03
1.120026634213e-02
1.032623390245e-03
1.092178431769e-03
4.577798832069e-03
7.758587532246e-03
5.439732875614e-03
5.823074527517e-03
4.995288571407e-03
8.259907797781e-04
2.916601711204e-03
9.986196472931e-03
2.773390039067e-03
4.841353091599e-03
3.851402578171e-03
7.173054793155e-03
3.124610489936e-03
4.529751611024e-03
9.292459140514e-03
9.295096256992e-03
9.088753905679e-03
3.724058582523e-03
6.446445199974e-03
6.218005495367e-03
8.550739345751e-03
1.053121665328e-02
1.056216042780e-02
1.073415631139e-02
1.056757362774e-02
1.038092880592e-02
1.037254405559e-02
1.055178732640e-02
1.034353977194e-02
1.055837556416e-02
1.028347672268e-02
1.008945479358e-02
1.001571847132e-02
1.019717646657e-02
9.814926196105e-03
7.893876798176e-03
4.931518773977e-03
1.050528286520e-03
1.401247368122e-03
7.686518803875e-03
1.079211236075e-02
1.100137654140e-02
3.004953612013e-03
1.000814732194e-02
9.084765895702e-03
1.841441435833e-03
9.572904351916e-03
1.036327455263e-02
1.017571471897e-02
1.014446874955e-02
1.112549122308e-02
9.875006731459e-03
8.675449053761e-03
5.229341719127e-03
5.282083310094e-03
4.880323223243e-03
1.014560906547e-02
7.780856057913e-03
7.237696386501e-03
7.073641690231e-03
6.688125878136e-03
7.442568373639e-03
1.055046494287e-02
1.039818912647e-02
1.786900924185e-03
1.986607599631e-03
2.300611436764e-03
2.222426209021e-03
1.904985838659e-03
2.159476941841e-03
2.496915728850e-03
2.118178357546e-03
9.640163988744e-03
7.184681368766e-03
4.064791725484e-03
3.937625467331e-03
3.546189412201e-03
2.749228171010e-03
2.931889524373e-03
3.272226657062e-03
2.574523046008e-03
7.355676891540e-03
7.066583682084e-03
4.405851401868e-03
2.789274475528e-03
9.053007882440e-03
9.360631106514e-03
9.381955396106e-03
9.667674575712e-03
9.373315438954e-03
3.379128897147e-03
3.534073521937e-03
3.343364552059e-03
3.690849900170e-03
3.488115018356e-03
3.172602747294e-03
3.842381261266e-03
3.614579511773e-03
9.004466018184e-03
8.155970020783e-04
8.067201627696e-04
7.716444055583e-04
8.995116441630e-04
9.091238990888e-04
1.058230006484e-03
1.040748564081e-03
8.317753179663e-04
6.791343921244e-04
7.259177952772e-04
6.026421084000e-04
6.792742310252e-04
8.748363854457e-04
1.133684966372e-03
6.488678385126e-03
2.680874080315e-03
2.529963961859e-03
2.235821909029e-03
2.392460734499e-03
2.806539352853e-03
2.079260093895e-03
1.973588733355e-03
1.936244452830e-04
4.147524276467e-04
3.879960194346e-04
6.622385327098e-04
6.630867130604e-04
4.281449910211e-04
4.453098013095e-04
2.355419891351e-04
4.637206660695e-04
6.977779112333e-04
2.576168749822e-04
1.031759867628e-02
1.047198150459e-02
6.854453426511e-03
8.996231113249e-03
4.700071115811e-04
1.123275092005e-02
1.125886490480e-02
1.126690341445e-02
5.725033046929e-03
5.954181179728e-03
1.123977341261e-02
1.736554339844e-03
1.073616385017e-02
1.082602061980e-02
1.951390583594e-03
1.679175467200e-03
4.442517054848e-03
4.005080851914e-03
5.339126766709e-03
4.104301774007e-03
4.988221393882e-03
6.867651407214e-03
1.081740787357e-03
9.863968474005e-03
9.702855450640e-03
1.043638905479e-02
1.824347155668e-03
3.018354497914e-03
1.175207922494e-03
9.404218241077e-03
8.362293715911e-03
3.291639865759e-03
2.436065054013e-03
1.891626108141e-03
1.574042486078e-03
5.504568726987e-03
2.982560494917e-03
4.766374677060e-03
1.057141380745e-02
3.891498563277e-04
5.056953270400e-03
3.699608066886e-03
1.002537772042e-02
6.071932892727e-03
1.157984364909e-03
1.056695817979e-02
1.093899348200e-02
9.720370725236e-03
9.166008114121e-04
9.544430275793e-03
6.201261105269e-03
1.047478329999e-02
1.667457957259e-03
3.960867301733e-03
6.888984911126e-03
8.753138381832e-03
1.093418576506e-02
5.483678034692e-03
6.145944120838e-03
4.789143790957e-03
1.793203545910e-03
5.369163339104e-03
4.412111639525e-03
1.080919922711e-02
8.467971853240e-03
3.174373090319e-03
1.066454776712e-02
3.437006575588e-03
6.525739307219e-03
7.950279118341e-03
7.926742837754e-03
9.306497647628e-03
6.705488270552e-03
4.226073742362e-03
5.209861349804e-03
1.271820495947e-03
4.844038755728e-03
1.001800985397e-02
8.486733316294e-03
1.102864283913e-02
6.619050007275e-03
5.082951163454e-03
1.087381070143e-02
3.124748089130e-03
1.236869718470e-03
1.730386446410e-03
2.449482189464e-03
4.978168994911e-03
3.478035251113e-03
1.090298658983e-02
5.251646887395e-03
5.111200604650e-03
2.206913637385e-03
8.840000812349e-03
5.427871758160e-03
3.995684129780e-03
6.522404385102e-03
3.283111255996e-03
9.145985759667e-03
7.826234716691e-03
5.615252466897e-03
5.359149978595e-03
3.495429087684e-03
8.870386896040e-03
6.147433752217e-03
5.839311128985e-03
7.027909095142e-03
3.653417352414e-03
8.380903679976e-03
3.629208974656e-03
8.381647490116e-03
1.116777467150e-02
6.216548371263e-03
9.957890748060e-03
3.422051645877e-03
6.163169915532e-03
6.749770849996e-04
8.414370763617e-03
3.575707925270e-03
2.458583758706e-03
3.728586113393e-03
7.879716134661e-03
3.733193215308e-03
2.813696550483e-03
3.893322943454e-03
7.969157507839e-03
9.971754033701e-03
4.054428446330e-03
8.631235115544e-03
7.411743347296e-04
6.859949522606e-03
5.486644283937e-03
2.221557730325e-03
3.823569188600e-03
1.017685345322e-02
7.355840539754e-03
4.229836986435e-03
8.892194833013e-03
6.729860737093e-03
5.364305828151e-03
4.658782823077e-03
6.869073930162e-03
1.626092745101e-03
1.375830106932e-03
2.848209349308e-03
9.286984701209e-03
9.027053876359e-04
9.895095639044e-03
1.051012844105e-03
2.555289607222e-03
7.055380399061e-03
9.747834937165e-03
2.630098912820e-03
1.516664830273e-03
2.390751513778e-03
5.757370852970e-03
2.492270381707e-03
2.290656340816e-03
1.106181385024e-02
2.404219913301e-03
1.127963476709e-02
6.491496993463e-03
9.116867050010e-03
6.399391339894e-03
9.658700691591e-04
5.580423163569e-03
1.941045639989e-03
9.512159062073e-03
9.134139809217e-03
1.783156780393e-03
1.044170298619e-02
9.122572242160e-03
1.018350127376e-02
6.549479631855e-03
6.642979787215e-03
1.082777034417e-02
8.878728410707e-03
6.376298113186e-04
4.427044025779e-03
5.284078741784e-03
4.377815082694e-03
3.296324773159e-03
1.893908472361e-03
8.736339295726e-04
4.274407482313e-03
7.384963268690e-03
9.254754597419e-03
7.503726528051e-03
3.241927892707e-03
1.105507787480e-02
8.374497225267e-03
6.744216298791e-03
7.906954419194e-03
2.266046392783e-03
9.602498904416e-03
9.640761599689e-03
1.041360701091e-02
6.685156722481e-03
9.258703765209e-03
1.108655764957e-02
1.111349927490e-03
1.108586713548e-02
9.728259584378e-03
9.553553953975e-03
9.592945178970e-03
6.187070486680e-03
1.071547094619e-02
1.734866757937e-03
1.017489379712e-02
2.390512701518e-03
8.511445456844e-04
6.416300055770e-03
9.934820810250e-03
6.185440879843e-03
6.502118655109e-04
5.405195192407e-04
6.650134177861e-03
1.013479658798e-02
1.215518387794e-03
1.127123664041e-02
1.318624739208e-03
8.871140893988e-03
4.703106303165e-04
6.624535192703e-03
1.110627356031e-02
2.663123754416e-03
9.093130241479e-03
1.709731381762e-03
8.756065613005e-03
7.945494363123e-04
1.112663205939e-02
6.891301992419e-03
1.100086778034e-02
8.320276329776e-03
9.311470865197e-04
8.717073261657e-03
6.632645206164e-03
8.860254150308e-03
1.085706788022e-02
2.126167697813e-03
9.153531728555e-04
1.130357701307e-02
1.386863249126e-04
8.816612422626e-03
6.589772239467e-03
8.512049133117e-04
9.357917350606e-03
1.031889237629e-02
3.376234268607e-03
1.067775956072e-02
9.902818247937e-04
9.375566774791e-04
9.910543767609e-03
8.230332713547e-03
1.108492002236e-02
9.718300088437e-03
1.597404143144e-03
1.010303949525e-02
2.901777693457e-03
9.318976839722e-03
6.962034462874e-03
1.262392398339e-03
3.683630325202e-03
4.804297737422e-04
6.392328695313e-03
3.047345907017e-03
7.366148024662e-03
7.392557927079e-03
7.755737344215e-03
7.698026200752e-03
8.172681761453e-03
8.063718921070e-03
8.553469937875e-03
8.393039695817e-03


CELL_DATA 2085

SCALARS element_number int
LOOKUP_TABLE default
407
408
409
410
411
412
413
414
415
416
417
418
419
420
421
422
423
424
425
426
427
428
429
430
431
432
433
434
435
436
437
438
439
440
441
442
443
444
445
446
447
448
449
450
451
452
453
454
455
456
457
458
459
460
461
462
463
464
465
466
467
468
469
470
471
472
473
474
475
476
477
478
479
480
481
482
483
484
485
486
487
488
489
490
491
492
493
494
495
496
497
498
499
500
501
502
503
504
505
506
507
508
509
510
511
512
513
514
515
516
517
518
519
520
521
522
523
524
525
526
527
528
529
530
531
532
533
534
535
536
537
538
539
540
541
542
543
544
545
546
547
548
549
550
551
552
553
554
555
556
557
558
559
560
561
562
563
564
565
566
567
568
569
570
571
572
573
574
575
576
577
578
579
580
581
582
583
584
585
586
587
588
589
590
591
592
593
594
595
596
597
598
599
600
601
602
603
604
605
606
607
608
609
610
611
612
613
614
615
616
617
618
619
620
621
622
623
624
625
626
627
628
629
630
631
632
633
634
635
636
637
638
639
640
641
642
643
644
645
646
647
648
649
650
651
652
653
654
655
656
657
658
659
660
661
662
663
664
665
666
667
668
669
670
671
672
673
674
675
676
677
678
679
680
681
682
683
684
685
686
687
688
689
690
691
692
693
694
695
696
697
698
699
700
701
702
703
704
705
706
707
708
709
710
711
712
713
714
715
716
717
718
719
720
721
722
723
724
725
726
727
728
729
730
731
732
733
734
735
736
737
738
739
740
741
742
743
744
745
746
747
748
749
750
751
752
753
754
755
756
757
758
759
760
761
762
763
764
765
766
767
768
769
770
771
772
773
774
775
776
777
778
779
780
781
782
783
784
785
786
787
788
789
790
791
792
793
794
795
796
797
798
799
800
801
802
803
804
805
806
807
808
809
810
811
812
813
814
815
816
817
818
819
820
821
822
823
824
825
826
827
828
829
830
831
832
833
834
835
836
837
838
839
840
841
842
843
844
845
846
847
848
849
850
851
852
853
854
855
856
857
858
859
860
861
862
863
864
865
866
867
868
869
870
871
872
873
874
875
876
877
878
879
880
881
882
883
884
885
886
887
888
889
890
891
892
893
894
895
896
897
898
899
900
901
902
903
904
905
906
907
908
909
910
911
912
913
914
915
916
917
918
919
920
921
922
923
924
925
926
927
928
929
930
931
932
933
934
935
936
937
938
939
940
941
942
943
944
945
946
947
948
949
950
951
952
953
954
955
956
957
958
959
960
961
962
963
964
965
966
967
968
969
970
971
972
973
974
975
976
977
978
979
980
981
982
983
984
985
986
987
988
989
990
991
992
993
994
995
996
997
998
999
1000
1001
1002
1003
1004
1005
1006
1007
1008
1009
1010
1011
1012
1013
1014
1015
1016
1017
1018
1019
1020
1021
1022
1023
1024
1025
1026
1027
1028
1029
1030
1031
1032
1033
1034
1035
1036
1037
1038
1039
1040
1041
1042
1043
1044
1045
1046
1047
1048
1049
1050
1051
1052
1053
1054
1055
1056
1057
1058
1059
1060
1061
1062
1063
1064
1065
1066
1067
1068
1069
1070
1071
1072
1073
1074
1075
1076
1077
1078
1079
1080
1081
1082
1083
1084
1085
1086
1087
1088
1089
1090
1091
1092
1093
1094
1095
1096
1097
1098
1099
1100
1101
1102
1103
1104
1105
1106
1107
1108
1109
1110
1111
1112
1113
1114
1115
1116
1117
1118
1119
1120
1121
1122
1123
1124
1125
1126
1127
1128
1129
1130
1131
1132
1133
1134
1135
1136
1137
1138
1139
1140
1141
1142
1143
1144
1145
1146
1147
1148
1149
1150
1151
1152
1153
1154
1155
1156
1157
1158
1159
1160
1161
1162
1163
1164
1165
1166
1167
1168
1169
1170
1171
1172
1173
1174
1175
1176
1177
1178
1179
1180
1181
1182
1183
1184
1185
1186
1187
1188
1189
1190
1191
1192
1193
1194
1195
1196
1197
1198
1199
1200
1201
1202
1203
1204
1205
1206
1207
1208
1209
1210
1211
1212
1213
1214
1215
1216
1217
1218
1219
1220
1221
1222
1223
1224
1225
1226
1227
1228
1229
1230
1231
1232
1233
1234
1235
1236
1237
1238
1239
1240
1241
1242
1243
1244
1245
1246
1247
1248
1249
1250
1251
1252
1253
1254
1255
1256
1257
1258
1259
1260
1261
1262
1263
1264
1265
1266
1267
1268
1269
1270
1271
1272
1273
1274
1275
1276
1277
1278
1279
1280
1281
1282
1283
1284
1285
1286
1287
1288
1289
1290
1291
1292
1293
1294
1295
1296
1297
1298
1299
1300
1301
1302
1303
1304
1305
1306
1307
1308
1309
1310
1311
1312
1313
1314
1315
1316
1317
1318
1319
1320
1321
1322
1323
1324
1325
1326
1327
1328
1329
1330
1331
1332
1333
1334
1335
1336
1337
1338
1339
1340
1341
1342
1343
1344
1345
1346
1347
1348
1349
1350
1351
1352
1353
1354
1355
1356
1357
1358
1359
1360
1361
1362
1363
1364
1365
1366
1367
1368
1369
1370
1371
1372
1373
1374
1375
1376
1377
1378
1379
1380
1381
1382
1383
1384
1385
1386
1387
1388
1389
1390
1391
1392
1393
1394
1395
1396
1397
1398
1399
1400
1401
1402
1403
1404
1405
1406
1407
1408
1409
1410
1411
1412
1413
1414
1415
1416
1417
1418
1419
1420
1421
1422
1423
1424
1425
1426
1427
1428
1429
1430
1431
1432
1433
1434
1435
1436
1437
1438
1439
1440
1441
1442
1443
1444
1445
1446
1447
1448
1449
1450
1451
1452
1453
1454
1455
1456
1457
1458
1459
1460
1461
1462
1463
1464
1465
1466
1467
1468
1469
1470
1471
1472
1473
1474
1475
1476
1477
1478
1479
1480
1481
1482
1483
1484
1485
1486
1487
1488
1489
1490
1491
1492
1493
1494
1495
1496
1497
1498
1499
1500
1501
1502
1503
1504
1505
1506
1507
1508
1509
1510
1511
1512
1513
1514
1515
1516
1517
1518
1519
1520
1521
1522
1523
1524
1525
1526
1527
1528
1529
1530
1531
1532
1533
1534
1535
1536
1537
1538
1539
1540
1541
1542
1543
1544
1545
1546
1547
1548
1549
1550
1551
1552
1553
1554
1555
1556
1557
1558
1559
1560
1561
1562
1563
1564
1565
1566
1567
1568
1569
1570
1571
1572
1573
1574
1575
1576
1577
1578
1579
1580
1581
1582
1583
1584
1585
1586
1587
1588
1589
1590
1591
1592
1593
1594
1595
1596
1597
1598
1599
1600
1601
1602
1603
1604
1605
1606
1607
1608
1609
1610
1611
1612
1613
1614
1615
1616
1617
1618
1619
1620
1621
1622
1623
1624
1625
1626
1627
1628
1629
1630
1631
1632
1633
1634
1635
1636
1637
1638
1639
1640
1641
1642
1643
1644
1645
1646
1647
1648
1649
1650
1651
1652
1653
1654
1655
1656
1657
1658
1659
1660
1661
1662
1663
1664
1665
1666
1667
1668
1669
1670
1671
1672
1673
1674
1675
1676
1677
1678
1679
1680
1681
1682
1683
1684
1685
1686
1687
1688
1689
1690
1691
1692
1693
1694
1695
1696
1697
1698
1699
1700
1701
1702
1703
1704
1705
1706
1707
1708
1709
1710
1711
1712
1713
1714
1715
1716
1717
1718
1719
1720
1721
1722
1723
1724
1725
1726
1727
1728
1729
1730
1731
1732
1733
1734
1735
1736
1737
1738
1739
1740
1741
1742
1743
1744
1745
1746
1747
1748
1749
1750
1751
1752
1753
1754
1755
1756
1757
1758
1759
1760
1761
1762
1763
1764
1765
1766
1767
1768
1769
1770
1771
1772
1773
1774
1775
1776
1777
1778
1779
1780
1781
1782
1783
1784
1785
1786
1787
1788
1789
1790
1791
1792
1793
1794
1795
1796
1797
1798
1799
1800
1801
1802
1803
1804
1805
1806
1807
1808
1809
1810
1811
1812
1813
1814
1815
1816
1817
1818
1819
1820
1821
1822
1823
1824
1825
1826
1827
1828
1829
1830
1831
1832
1833
1834
1835
1836
1837
1838
1839
1840
1841
1842
1843
1844
1845
1846
1847
1848
1849
1850
1851
1852
1853
1854
1855
1856
1857
1858
1859
1860
1861
1862
1863
1864
1865
1866
1867
1868
1869
1870
1871
1872
1873
1874
1875
1876
1877
1878
1879
1880
1881
1882
1883
1884
1885
1886
1887
1888
1889
1890
1891
1892
1893
1894
1895
1896
1897
1898
1899
1900
1901
1902
1903
1904
1905
1906
1907
1908
1909
1910
1911
1912
1913
1914
1915
1916
1917
1918
1919
1920
1921
1922
1923
1924
1925
1926
1927
1928
1929
1930
1931
1932
1933
1934
1935
1936
1937
1938
1939
1940
1941
1942
1943
1944
1945
1946
1947
1948
1949
1950
1951
1952
1953
1954
1955
1956
1957
1958
1959
1960
1961
1962
1963
1964
1965
1966
1967
1968
1969
1970
1971
1972
1973
1974
1975
1976
1977
1978
1979
1980
1981
1982
1983
1984
1985
1986
1987
1988
1989
1990
1991
1992
1993
1994
1995
1996
1997
1998
1999
2000
2001
2002
2003
2004
2005
2006
2007
2008
2009
2010
2011
2012
2013
2014
2015
2016
2017
2018
2019
2020
2021
2022
2023
2024
2025
2026
2027
2028
2029
2030
2031
2032
2033
2034
2035
2036
2037
2038
2039
2040
2041
2042
2043
2044
2045
2046
2047
2048
2049
2050
2051
2052
2053
2054
2055
2056
2057
2058
2059
2060
2061
2062
2063
2064
2065
2066
2067
2068
2069
2070
2071
2072
2073
2074
2075
2076
2077
2078
2079
2080
2081
2082
2083
2084
2085
2086
2087
2088
2089
2090
2091
2092
2093
2094
2095
2096
2097
2098
2099
2100
2101
2102
2103
2104
2105
2106
2107
2108
2109
2110
2111
2112
2113
2114
2115
2116
2117
2118
2119
2120
2121
2122
2123
2124
2125
2126
2127
2128
2129
2130
2131
2132
2133
2134
2135
2136
2137
2138
2139
2140
2141
2142
2143
2144
2145
2146
2147
2148
2149
2150
2151
2152
2153
2154
2155
2156
2157
2158
2159
2160
2161
2162
2163
2164
2165
2166
2167
2168
2169
2170
2171
2172
2173
2174
2175
2176
2177
2178
2179
2180
2181
2182
2183
2184
2185
2186
2187
2188
2189
2190
2191
2192
2193
2194
2195
2196
2197
2198
2199
2200
2201
2202
2203
2204
2205
2206
2207
2208
2209
2210
2211
2212
2213
2214
2215
2216
2217
2218
2219
2220
2221
2222
2223
2224
2225
2226
2227
2228
2229
2230
2231
2232
2233
2234
2235
2236
2237
2238
2239
2240
2241
2242
2243
2244
2245
2246
2247
2248
2249
2250
2251
2252
2253
2254
2255
2256
2257
2258
2259
2260
2261
2262
2263
2264
2265
2266
2267
2268
2269
2270
2271
2272
2273
2274
2275
2276
2277
2278
2279
2280
2281
2282
2283
2284
2285
2286
2287
2288
2289
2290
2291
2292
2293
2294
2295
2296
2297
2298
2299
2300
2301
2302
2303
2304
2305
2306
2307
2308
2309
2310
2311
2312
2313
2314
2315
2316
2317
2318
2319
2320
2321
2322
2323
2324
2325
2665
2666
2667
2668
2669
2670
2671
2672
2673
2674
2675
2676
2677
2678
2679
2680
2681
2682
2683
2684
2685
2686
2687
2688
2689
2690
2691
2692
2693
2694
2695
2696
2697
2698
2699
2700
2701
2702
2703
2704
2705
2706
2707
2708
2709
2710
2711
2712
2713
2714
2715
2716
2717
2718
2719
2720
2721
2722
2723
2724
2725
2726
2727
2728
2729
2730
2731
2732
2733
2734
2735
2736
2737
2738
2739
2740
2741
2742
2743
2744
2745
2746
2747
2748
2749
2750
2751
2752
2753
2754
2755
2756
2757
2758
2759
2760
2761
2762
2763
2764
2765
2766
2767
2768
2769
2770
2771
2772
2773
2774
2775
2776
2777
2778
2779
2780
2781
2782
2783
2784
2785
2786
2787
2788
2789
2790
2791
2792
2793
2794
2795
2796
2797
2798
2799
2800
2801
2802
2803
2804
2805
2806
2807
2808
2809
2810
2811
2812
2813
2814
2815
2816
2817
2818
2819
2820
2821
2822
2823
2824
2825
2826
2827
2828
2829
2830

SCALARS element_group int
LOOKUP_TABLE default
0
0
0
0
0
0
0
0
0
0
0
0
0
0
0
0
0
0
0
0
0
0
0
0
0
0
0
0
0
0
0
0
0
0
0
0
0
0
0
0
0
0
0
0
0
0
0
0
0
0
0
0
0
0
0
0
0
0
0
0
0
0
0
0
0
0
0
0
0
0
0
0
0
0
0
0
0
0
0
0
0
0
0
0
0
0
0
0
0
0
0
0
0
0
0
0
0
0
0
0
0
0
0
0
0
0
0
0
0
0
0
0
0
0
0
0
0
0
0
0
0
0
0
0
0
0
0
0
0
0
0
0
0
0
0
0
0
0
0
0
0
0
0
0
0
0
0
0
0
0
0
0
0
0
0
0
0
0
0
0
0
0
0
0
0
0
0
0
0
0
0
0
0
0
0
0
0
0
0
0
0
0
0
0
0
0
0
0
0
0
0
0
0
0
0
0
0
0
0
0
0
0
0
0
0
0
0
0
0
0
0
0
0
0
0
0
0
0
0
0
0
0
0
0
0
0
0
0
0
0
0
0
0
0
0
0
0
0
0
0
0
0
0
0
0
0
0
0
0
0
0
0
0
0
0
0
0
0
0
0
0
0
0
0
0
0
0
0
0
0
0
0
0
0
0
0
0
0
0
0
0
0
0
0
0
0
0
0
0
0
0
0
0
0
0
0
0
0
0
0
0
0
0
0
0
0
0
0
0
0
0
0
0
0
0
0
0
0
0
0
0
0
0
0
0
0
0
0
0
0
0
0
0
0
0
0
0
0
0
0
0
0
0
0
0
0
0
0
0
0
0
0
0
0
0
0
0
0
0
0
0
0
0
0
0
0
0
0
0
0
0
0
0
0
0
0
0
0
0
0
0
0
0
0
0
0
0
0
0
0
0
0
0
0
0
0
0
0
0
0
0
0
0
0
0
0
0
0
0
0
0
0
0
0
0
0
0
0
0
0
0
0
0
0
0
0
0
0
0
0
0
0
0
0
0
0
0
0
0
0
0
0
0
0
0
0
0
0
0
0
0
0
0
0
0
0
0
0
0
0
0
0
0
0
0
0
0
0
0
0
0
0
0
0
0
0
0
0
0
0
0
0
0
0
0
0
0
0
0
0
0
0
0
0
0
0
0
0
0
0
0
0
0
0
0
0
0
0
0
0
0
0
0
0
0
0
0
0
0
0
0
0
0
0
0
0
0
0
0
0
0
0
0
0
0
0
0
0
0
0
0
0
0
0
0
0
0
0
0
0
0
0
0
0
0
0
0
0
0
0
0
0
0
0
0
0
0
0
0
0
0
0
0
0
0
0
0
0
0
0
0
0
0
0
0
0
0
0
0
0
0
0
0
0
0
0
0
0
0
0
0
0
0
0
0
0
0
0
0
0
0
0
0
0
0
0
0
0
0
0
0
0
0
0
0
0
0
0
0
0
0
0
0
0
0
0
0
0
0
0
0
0
0
0
0
0
0
0
0
0
0
0
0
0
0
0
0
0
0
0
0
0
0
0
0
0
0
0
0
0
0
0
0
0
0
0
0
0
0
0
0
0
0
0
0
0
0
0
0
0
0
0
0
0
0
0
0
0
0
0
0
0
0
0
0
0
0
0
0
0
0
0
0
0
0
0
0
0
0
0
0
0
0
0
0
0
0
0
0
0
0
0
0
0
0
0
0
0
0
0
0
0
0
0
0
0
0
0
0
0
0
0
0
0
0
0
0
0
0
0
0
0
0
0
0
0
0
0
0
0
0
0
0
0
0
0
0
0
0
0
0
0
0
0
0
0
0
0
0
0
0
0
0
0
0
0
0
0
0
0
0
0
0
0
0
0
0
0
0
0
0
0
0
0
0
0
0
0
0
0
0
0
0
0
0
0
0
0
0
0
0
0
0
0
0
0
0
0
0
0
0
0
0
0
0
0
0
0
0
0
0
0
0
0
0
0
0
0
0
0
0
0
0
0
0
0
0
0
0
0
0
0
0
0
0
0
0
0
0
0
0
0
0
0
0
0
0
0
0
0
0
0
0
0
0
0
0
0
0
0
0
0
0
0
0
0
0
0
0
0
0
0
0
0
0
0
0
0
0
0
0
0
0
0
0
0
0
0
0
0
0
0
0
0
0
0
0
0
0
0
0
0
0
0
0
0
0
0
0
0
0
0
0
0
0
0
0
0
0
0
0
0
0
0
0
0
0
0
0
0
0
0
0
0
0
0
0
0
0
0
0
0
0
0
0
0
0
0
0
0
0
0
0
0
0
0
0
0
0
0
0
0
0
0
0
0
0
0
0
0
0
0
0
0
0
0
0
0
0
0
0
0
0
0
0
0
0
0
0
0
0
0
0
0
0
0
0
0
0
0
0
0
0
0
0
0
0
0
0
0
0
0
0
0
0
0
0
0
0
0
0
0
0
0
0
0
0
0
0
0
0
0
0
0
0
0
0
0
0
0
0
0
0
0
0
0
0
0
0
0
0
0
0
0
0
0
0
0
0
0
0
0
0
0
0
0
0
0
0
0
0
0
0
0
0
0
0
0
0
0
0
0
0
0
0
0
0
0
0
0
0
0
0
0
0
0
0
0
0
0
0
0
0
0
0
0
0
0
0
0
0
0
0
0
0
0
0
0
0
0
0
0
0
0
0
0
0
0
0
0
0
0
0
0
0
0
0
0
0
0
0
0
0
0
0
0
0
0
0
0
0
0
0
0
0
0
0
0
0
0
0
0
0
0
0
0
0
0
0
0
0
0
0
0
0
0
0
0
0
0
0
0
0
0
0
0
0
0
0
0
0
0
0
0
0
0
0
0
0
0
0
0
0
0
0
0
0
0
0
0
0
0
0
0
0
0
0
0
0
0
0
0
0
0
0
0
0
0
0
0
0
0
0
0
0
0
0
0
0
0
0
0
0
0
0
0
0
0
0
0
0
0
0
0
0
0
0
0
0
0
0
0
0
0
0
0
0
0
0
0
0
0
0
0
0
0
0
0
0
0
0
0
0
0
0
0
0
0
0
0
0
0
0
0
0
0
0
0
0
0
0
0
0
0
0
0
0
0
0
0
0
0
0
0
0
0
0
0
0
0
0
0
0
0
0
0
0
0
0
0
0
0
0
0
0
0
0
0
0
0
0
0
0
0
0
0
0
0
0
0
0
0
0
0
0
0
0
0
0
0
0
0
0
0
0
0
0
0
0
0
0
0
0
0
0
0
0
0
0
0
0
0
0
0
0
0
0
0
0
0
0
0
0
0
0
0
0
0
0
0
0
0
0
0
0
0
0
0
0
0
0
0
0
0
0
0
0
0
0
0
0
0
0
0
0
0
0
0
0
0
0
0
0
0
0
0
0
0
0
0
0
0
0
0
0
0
0
0
0
0
0
0
0
0
0
0
0
0
0
0
0
0
0
0
0
0
0
0
0
0
0
0
0
0
0
0
0
0
0
0
0
0
0
0
0
0
0
0
0
0
0
0
0
0
0
0
0
0
0
0
0
0
0
0
0
0
0
0
0
0
0
0
0
0
0
0
0
0
0
0
0
0
0
0
0
0
0
0
0
0
0
0
0
0
0
0
0
0
0
0
0
0
0
0
0
0
0
0
0
0
0
0
0
0
0
0
0
0
0
0
0
0
0
0
0
0
0
0
0
0
0
0
0
0
0
0
0
0
0
0
0
0
0
0
0
0
0
0
0
0
0
0
0
0
0
0
0
0
0
0
0
0
0
0
0
0
0
0
0
0
0
0
0
0
0
0
0
0
0
0
0
0
0
0
0
0
0
0
0
0
0
0
0
0
0
0
0
0
0
0
0
0
0
0
0
0
0
0
0
0
0
0
0
0
0
0
0
0
0
0
0
0
0
0
0
0
0
0
0
0
0
0
0
0
0
0
0
0
0
0
0
0
0
0
0
0
0
0
0
0
0
0
0
0
0
0
0
0
0
0
0
0
0
0
0
0
0
0
0
0
0
0
0
0
0
0
0
0
0
0
0
0
0
0
0
0
0
0
0
0
0
0
0
0
0
0
0
0
0
0
0
0
0
0
0
0
0
0
0
0
0
0
0
0
0
0
0
0
0
0
0
0
0
0
0
0
0
0
0
0
0
0
0
0
0
0
0
0
0
0
0
0
0
0
0
0
0
0
0
0
0
0
0
0
0
0
0
0
0
0
0
0
0
0
0
0
0
0
0
0
0
0
0
0
0
0
0
0
0
0
0
0
0
0
0
0
0
0
0
0
0
0
0
0
0
0
0
0
0
0
0
0
0
0
0
0
0
0
0
0
0
0
0
0
0
0
0
0
0
0
0
0
0
0
0
0
0
0
0
0
0
0
0
0
0
0
0
0
0
0
0
0
0
0
0
0
0
0
0
0
0
0
0
0
0
0
0
0
0
0
0
0
0
0
0
0
0
0
0
0
0
0
0
0
0
0
0
0
0
0
0
0
0
0
0
0
0
0
0
0
0
0
0
0
0
0
0
0
0
0
0
0
0
0
0
0
0
0
0
0
0
0
0
0
0
0
0
0
0
0
0
0
0
0
0
0
0
0
0
0
0
0
0
0
0
0
0
0
0
0
0
0
0
0
0
0
0
0
0
0
0
0
0
0
0
0
0
0
0
0
0
0
0
0
0
0
0
0
0
0
0
0
0
0
0
0
0
0
0
0
0
0
0
0
0
0
0
0
0
0
0
0
0
0
0
0
0
0
0
0
0
0
0
0
0


VECTORS element_materi_velocity float
6.946641664748e-04 4.311515855612e-03 0.0 
7.858897470017e-04 3.751697487567e-03 0.0 
7.548975361816e-04 8.465936176359e-04 0.0 
9.921291066596e-05 1.488770817120e-03 0.0 
9.220189390607e-04 8.364897121440e-03 0.0 
-2.131153420663e-04 4.429168777071e-04 0.0 
6.963710025844e-04 8.301870142622e-03 0.0 
5.100444947363e-04 3.229455990477e-03 0.0 
7.695841306015e-04 8.350773514156e-03 0.0 
1.457607259157e-04 1.523078018876e-03 0.0 
7.148064891085e-05 -1.612122387076e-04 0.0 
2.059108099377e-04 3.198802375365e-03 0.0 
3.270743868739e-05 -8.334712110369e-06 0.0 
1.426861741594e-03 7.347703760477e-03 0.0 
2.697696883054e-05 -3.768148750113e-06 0.0 
8.034925555156e-05 1.051188274438e-03 0.0 
1.180178411017e-03 8.652301172735e-03 0.0 
-1.704286002183e-04 3.383187301940e-04 0.0 
3.746827030603e-05 -4.222703778983e-04 0.0 
3.041428021336e-05 -4.160817963935e-04 0.0 
1.736498141849e-04 1.559957646438e-03 0.0 
1.408164657879e-03 6.116753817409e-03 0.0 
1.721360962367e-03 6.177236923539e-03 0.0 
5.210503999853e-04 6.689848309688e-05 0.0 
1.691635744265e-03 6.243981603535e-03 0.0 
7.915023933767e-05 -1.415618015096e-04 0.0 
1.790838003459e-03 9.041525953469e-03 0.0 
8.483134522280e-04 4.020635554784e-04 0.0 
1.795203142145e-03 6.185946764372e-03 0.0 
4.246410607720e-04 5.771511269784e-05 0.0 
7.585574828505e-05 -2.009896965548e-04 0.0 
5.227342454541e-05 -4.383769034834e-04 0.0 
8.739573969153e-04 1.055988012194e-03 0.0 
2.276994541967e-05 -5.899924486966e-05 0.0 
1.893436615506e-04 7.311865257726e-06 0.0 
5.145858674462e-05 5.155186984350e-07 0.0 
4.684711537739e-05 -8.315196860556e-09 0.0 
5.691961181132e-04 1.503827030835e-04 0.0 
5.746213020477e-04 9.263960125950e-03 0.0 
5.233235779502e-04 9.277035096990e-03 0.0 
2.193987481069e-03 7.684972869260e-03 0.0 
1.907642363183e-04 1.744748506263e-05 0.0 
-1.027482893849e-04 2.262465756108e-03 0.0 
1.900177933467e-03 8.633069372348e-03 0.0 
5.260319878854e-05 2.111359880965e-03 0.0 
-5.470358447157e-05 1.972941945627e-03 0.0 
4.453905641845e-06 -1.893590346134e-04 0.0 
5.993661162336e-05 1.792308623455e-03 0.0 
-8.195851941410e-05 -2.202880471530e-04 0.0 
1.383553940092e-03 7.824643004672e-03 0.0 
2.009940716260e-03 7.054389825605e-03 0.0 
4.144744284519e-05 -4.066755378961e-04 0.0 
2.555361632693e-04 -1.883608793406e-04 0.0 
1.982235716273e-03 7.827627303491e-03 0.0 
5.756479811685e-04 9.515301958470e-04 0.0 
8.110433119855e-05 -3.758516060110e-04 0.0 
3.421470312355e-05 -3.991459383493e-04 0.0 
4.620176447235e-05 -5.982030242253e-05 0.0 
7.128110989076e-05 -4.390423134595e-04 0.0 
9.662466655285e-05 1.059483839904e-03 0.0 
-2.121594147268e-04 -6.334973374113e-05 0.0 
1.115772642770e-03 4.286318267482e-04 0.0 
1.753311471358e-03 2.741965965784e-03 0.0 
1.955454763522e-04 -2.033573320811e-04 0.0 
5.354870327334e-05 -7.627636607011e-06 0.0 
1.738408433477e-03 7.118852323858e-03 0.0 
-2.104284530787e-04 -1.502065793562e-05 0.0 
9.156207562837e-04 9.835525629972e-04 0.0 
1.529529698432e-04 -4.049482640529e-04 0.0 
7.925653615713e-04 5.522638121335e-04 0.0 
1.196055716741e-04 -1.216907747990e-04 0.0 
9.840325397283e-05 2.912194381233e-04 0.0 
1.108714895335e-03 5.371501736782e-04 0.0 
4.671552709496e-06 -4.431554335436e-04 0.0 
7.412893078326e-05 -3.651506841073e-04 0.0 
3.426069227551e-04 1.355497346945e-03 0.0 
7.129523325000e-04 1.143034078807e-03 0.0 
-2.488035238945e-04 1.318844360879e-03 0.0 
8.258318895964e-05 -4.379299995908e-04 0.0 
-2.955919653400e-04 1.517674370902e-03 0.0 
1.575421923476e-04 -3.892263076113e-04 0.0 
1.119801300267e-03 8.396928742554e-03 0.0 
1.323758378609e-03 5.132110784060e-03 0.0 
9.477064124465e-04 5.049813840584e-03 0.0 
8.778807647291e-04 7.793606894441e-03 0.0 
8.041913278900e-04 7.766417207637e-03 0.0 
7.005239537947e-05 -1.058970411762e-04 0.0 
1.227006954260e-05 -7.241019979214e-05 0.0 
2.098653165767e-03 2.728446797696e-03 0.0 
9.924120342342e-04 8.323027277540e-03 0.0 
5.613788341376e-05 -4.328793696042e-04 0.0 
1.905760395797e-03 7.854825899520e-03 0.0 
1.568064990468e-04 4.229153506507e-03 0.0 
1.895311622075e-04 4.573581275795e-03 0.0 
1.963941222765e-04 5.380873477212e-04 0.0 
4.155827778653e-04 1.155718328481e-04 0.0 
1.255079004371e-03 8.399109024133e-03 0.0 
2.174551972107e-04 1.612019363433e-05 0.0 
1.139646472256e-04 6.722842257623e-03 0.0 
1.569446228410e-03 3.002652769263e-03 0.0 
8.873225657298e-04 8.856886663332e-03 0.0 
3.474072056574e-05 -3.666451594200e-06 0.0 
1.734052480148e-03 5.817348333331e-04 0.0 
1.079779434925e-03 3.891102632761e-04 0.0 
1.006967033965e-03 1.505403331039e-03 0.0 
-1.607218624182e-05 -2.315731183286e-04 0.0 
3.815588502767e-05 -2.428817675715e-05 0.0 
1.595141949871e-04 3.642677370593e-03 0.0 
-1.407642919663e-04 -1.700088924982e-04 0.0 
6.491533170325e-05 -1.863754903230e-06 0.0 
2.276355660840e-03 3.028601658329e-03 0.0 
8.004557539232e-06 -4.462231867532e-04 0.0 
1.817393051126e-03 1.300549245728e-03 0.0 
2.255700185368e-03 8.183455038023e-03 0.0 
1.388019396071e-04 -3.264098698771e-04 0.0 
1.252015520516e-03 2.809294313800e-03 0.0 
1.656429803455e-03 2.356343197865e-03 0.0 
1.338346611564e-04 7.323575937247e-06 0.0 
1.440897027772e-04 7.137738437836e-03 0.0 
1.377867935180e-03 2.203087997260e-03 0.0 
1.383987815906e-04 -4.340308104486e-04 0.0 
1.964497596465e-03 8.033636092066e-03 0.0 
1.262082658659e-04 3.338713441079e-03 0.0 
1.311319030386e-03 1.889627852057e-03 0.0 
-3.490213003939e-04 8.674682118140e-04 0.0 
2.314616126048e-03 8.248805409832e-03 0.0 
1.194521453104e-04 -3.341727478292e-04 0.0 
2.193697103878e-03 8.538299507660e-03 0.0 
2.616860796303e-04 9.569011249306e-04 0.0 
-2.407444126051e-04 7.859698538690e-04 0.0 
1.114191953678e-04 -1.397009152216e-04 0.0 
7.848848581521e-05 1.473993877649e-03 0.0 
2.680092037393e-03 4.658897659143e-03 0.0 
2.281056502008e-03 8.089666274367e-03 0.0 
2.057789007855e-04 1.016063938439e-05 0.0 
2.238581060625e-05 -8.326153775763e-06 0.0 
9.897893712524e-05 -1.054359669937e-04 0.0 
2.796434345471e-03 4.711914741762e-03 0.0 
2.926674880120e-04 3.928086290399e-05 0.0 
2.596664873894e-03 5.749387184000e-03 0.0 
1.989834036089e-04 1.080450953126e-03 0.0 
9.310643893657e-04 6.954334761825e-04 0.0 
1.515132352250e-03 7.272757323429e-03 0.0 
3.627530068584e-04 5.548370659264e-03 0.0 
2.576046119896e-03 5.148928929258e-03 0.0 
2.120186086589e-03 8.305733665451e-03 0.0 
2.849328674523e-03 4.252129907202e-03 0.0 
1.398635383559e-03 1.470024575697e-03 0.0 
6.616209429051e-04 8.787084702855e-03 0.0 
1.720525568592e-03 1.094544325789e-03 0.0 
6.519494372224e-05 -4.441946124768e-04 0.0 
1.622196829779e-04 8.044494993412e-03 0.0 
3.063597075566e-05 -4.297175971153e-04 0.0 
2.303011088811e-03 8.272020819229e-03 0.0 
2.335491116410e-04 3.052754509984e-05 0.0 
1.053445238386e-03 1.763830834682e-03 0.0 
5.314702591925e-05 -8.928812794543e-05 0.0 
1.132340162235e-04 2.441417983662e-03 0.0 
1.805971141896e-03 6.631684148400e-04 0.0 
3.771880714994e-04 8.464955381179e-03 0.0 
1.542169540201e-03 1.012797958925e-03 0.0 
5.201240893465e-05 -4.678695224227e-05 0.0 
1.453747582354e-04 -4.268365066992e-04 0.0 
5.356674435324e-05 -2.411981474404e-05 0.0 
2.585408908950e-03 6.807822698980e-03 0.0 
7.406390801444e-05 -4.475234166958e-06 0.0 
1.603661726700e-04 8.544750528265e-03 0.0 
1.172915322259e-03 1.368223527120e-03 0.0 
2.203287959101e-03 8.540438136841e-03 0.0 
4.572684483645e-05 -1.661936369177e-04 0.0 
4.489182179397e-05 2.796924299557e-03 0.0 
1.466660055766e-03 8.406525877246e-04 0.0 
3.185049734177e-04 5.024813759097e-03 0.0 
4.286272147518e-04 8.802119429390e-03 0.0 
1.520971556546e-03 1.333237657160e-03 0.0 
2.217664473867e-03 8.601160012304e-03 0.0 
1.918322438456e-03 1.646222104479e-03 0.0 
1.450145070821e-04 -3.061288985757e-04 0.0 
6.709913901997e-04 2.981898437366e-04 0.0 
9.429860795492e-04 6.319436152259e-04 0.0 
1.044340735916e-03 3.044769113752e-03 0.0 
1.294263299810e-04 -2.952529474629e-04 0.0 
8.112600108563e-04 1.201781714800e-04 0.0 
2.442998461137e-03 6.336010974000e-03 0.0 
7.110211360243e-04 2.832536026106e-03 0.0 
2.381962152388e-03 7.619267291003e-03 0.0 
1.728069828064e-03 1.432728108018e-03 0.0 
1.434550997950e-04 1.146206345154e-03 0.0 
2.066155808813e-03 3.356028845901e-03 0.0 
3.624331653237e-05 -3.470018400957e-05 0.0 
-1.704396799327e-04 1.614039082703e-03 0.0 
1.237384602583e-03 6.264995486863e-04 0.0 
2.033085353850e-03 2.821162041267e-03 0.0 
-5.682764763670e-04 5.316924500211e-04 0.0 
2.416409961830e-03 6.969410275769e-03 0.0 
8.295736206401e-04 5.545159809890e-05 0.0 
7.539428751245e-05 -4.498173030880e-04 0.0 
8.219769892789e-04 1.191490117892e-03 0.0 
1.924135760486e-03 5.050043852966e-03 0.0 
5.386802834494e-04 -3.137332308772e-04 0.0 
8.796377326342e-04 7.470690755671e-05 0.0 
1.933262295613e-03 7.347455056809e-03 0.0 
1.652430469052e-03 6.727272384306e-03 0.0 
3.952932506168e-04 4.858473098615e-05 0.0 
3.337726712238e-04 -3.890501944853e-04 0.0 
2.822960499585e-03 3.432783342785e-03 0.0 
2.749289024004e-03 5.964431381549e-03 0.0 
1.809904654675e-03 4.617002185491e-03 0.0 
2.569095453551e-03 6.509252147415e-03 0.0 
2.484841302099e-03 7.368240051032e-03 0.0 
1.829708525739e-03 5.388604056881e-04 0.0 
2.103500429568e-03 1.949130485873e-03 0.0 
-3.937799767356e-04 4.136111023519e-04 0.0 
1.137466799851e-03 3.583870205079e-03 0.0 
1.686379722260e-03 3.496924638827e-03 0.0 
2.800315378204e-03 3.805945607491e-03 0.0 
1.889223782279e-03 2.992550264905e-03 0.0 
2.472259420117e-05 3.926544430753e-04 0.0 
8.133225033273e-04 1.786267284418e-05 0.0 
4.824797811951e-04 8.676971761516e-03 0.0 
1.297093577242e-03 7.711969431190e-04 0.0 
7.824994401371e-04 -2.076887890738e-05 0.0 
7.115221729493e-05 -4.512304839767e-04 0.0 
1.776927487656e-03 4.125251551774e-03 0.0 
6.310960967750e-05 -4.520289904886e-04 0.0 
7.660361012813e-05 -4.468998003082e-04 0.0 
-2.148017821126e-04 1.851864036317e-03 0.0 
2.789949771386e-04 -4.099151332449e-04 0.0 
1.631507946688e-03 3.695508603206e-03 0.0 
2.605735760204e-04 -4.157367111406e-04 0.0 
2.103090095067e-04 1.167934729849e-03 0.0 
2.321495834294e-04 -3.092856717362e-04 0.0 
1.637246468485e-04 -4.345451209034e-04 0.0 
8.807080960704e-04 1.110213193541e-04 0.0 
2.678922937356e-03 6.514867096184e-03 0.0 
6.394560546840e-05 -7.234776678853e-06 0.0 
-4.918459012842e-04 4.272047883021e-04 0.0 
5.499760509692e-04 1.114158906997e-03 0.0 
1.554976201386e-03 7.554627894822e-04 0.0 
2.248280980363e-03 6.278336089605e-03 0.0 
8.647568901247e-04 3.563924985533e-05 0.0 
8.055787255300e-05 -2.138220779452e-06 0.0 
2.142212933482e-03 3.813447363597e-03 0.0 
7.736628636567e-04 4.697624365105e-04 0.0 
8.315764607580e-04 9.012843727583e-05 0.0 
5.841007389815e-05 -1.240127352695e-04 0.0 
2.911405288963e-03 4.251069597522e-03 0.0 
2.006625121186e-03 4.483970271189e-03 0.0 
9.500955236870e-04 3.739571628988e-04 0.0 
1.477186194980e-03 6.142014342270e-04 0.0 
3.776775514469e-04 1.237895453279e-03 0.0 
2.579395747867e-03 5.655331908113e-03 0.0 
1.588167319579e-04 4.955266521219e-04 0.0 
2.753477983355e-03 3.053908381562e-03 0.0 
1.706669576213e-03 4.321246845149e-04 0.0 
3.668046237697e-04 7.864147842756e-03 0.0 
1.185317938952e-04 -3.762730532608e-04 0.0 
2.470221402255e-03 6.731898894711e-03 0.0 
8.030487315340e-04 5.950593566303e-04 0.0 
2.516780962470e-04 3.316898605999e-04 0.0 
1.176003549887e-04 -1.683941089517e-04 0.0 
1.539617374501e-03 3.738737036531e-03 0.0 
2.717797458793e-03 5.710177134767e-03 0.0 
1.490560887266e-03 1.733001396991e-03 0.0 
1.385958423881e-03 3.294968487305e-03 0.0 
2.142331197490e-03 3.257270644918e-03 0.0 
2.941839822769e-03 4.592477956007e-03 0.0 
9.372037493250e-05 2.069839058867e-06 0.0 
1.691532928230e-03 3.865957480673e-04 0.0 
2.904835387782e-03 4.814904221984e-03 0.0 
1.992834144846e-03 1.391555704433e-03 0.0 
1.749640421413e-03 4.311251270862e-04 0.0 
4.828167801709e-04 2.884542861989e-04 0.0 
1.730387376384e-03 8.084086699473e-03 0.0 
1.460005784110e-03 4.306864714101e-04 0.0 
6.526934859125e-04 -1.329837821898e-04 0.0 
2.055230654767e-03 3.907946946797e-03 0.0 
-5.028617822872e-04 3.423109782427e-04 0.0 
2.436891542192e-03 6.380829986616e-03 0.0 
8.858108623296e-04 3.998013492064e-04 0.0 
5.376685958993e-04 9.348787150907e-04 0.0 
4.713141119545e-04 1.945178656671e-04 0.0 
2.597833495015e-03 5.143284922489e-03 0.0 
8.180824054564e-05 -4.334713029940e-04 0.0 
2.081818207645e-03 4.251181345342e-03 0.0 
1.706132040029e-03 3.867463053641e-04 0.0 
2.631117916746e-03 5.962042297837e-03 0.0 
1.754259820035e-03 7.466209350397e-03 0.0 
-5.353363432319e-05 2.653951644117e-04 0.0 
6.832375478926e-04 -8.094445566249e-05 0.0 
5.373914019669e-04 -2.017824208926e-04 0.0 
1.462075078300e-03 3.842667274691e-03 0.0 
2.102028733983e-03 4.394964781119e-03 0.0 
1.977549564536e-03 3.686519639404e-03 0.0 
1.332985202528e-03 3.782645959231e-04 0.0 
1.329161074700e-03 5.546938380366e-04 0.0 
3.709837058385e-05 2.888456162677e-04 0.0 
2.042291204789e-03 1.261142045238e-03 0.0 
-6.528694893641e-05 1.041562912889e-03 0.0 
2.970572459910e-04 4.659342264527e-04 0.0 
3.766621863457e-04 4.612665312869e-04 0.0 
2.754502781305e-03 2.755662443360e-03 0.0 
6.304269469948e-04 4.284285464480e-04 0.0 
3.746476276765e-04 7.289423986269e-04 0.0 
2.903590233591e-03 4.343986205209e-03 0.0 
5.061954263708e-04 5.068327979099e-04 0.0 
5.624817052209e-04 -1.571414104039e-04 0.0 
2.923023425195e-03 4.669729802612e-03 0.0 
2.587950512332e-04 1.312527934311e-03 0.0 
1.079074267308e-03 5.691162110581e-04 0.0 
1.914614292019e-03 6.318183453426e-04 0.0 
8.028380000128e-05 9.370631513376e-04 0.0 
1.511099985722e-04 2.765710598788e-05 0.0 
5.165618899855e-04 6.346673422989e-04 0.0 
2.922154793339e-03 3.827896397720e-03 0.0 
1.524777438922e-04 2.085624356541e-04 0.0 
1.204778513931e-03 6.520447252267e-05 0.0 
1.539282182609e-03 5.467844388438e-04 0.0 
5.923056420110e-04 -2.191242879692e-04 0.0 
2.822608851734e-03 5.651328945241e-03 0.0 
3.659899273889e-04 3.079631232368e-04 0.0 
1.124509017276e-03 3.841470997584e-04 0.0 
1.620329555038e-03 3.097442204807e-04 0.0 
9.696272283093e-05 7.860222553354e-04 0.0 
1.231184504871e-03 5.799694825678e-03 0.0 
8.336942986155e-04 -5.037016813209e-06 0.0 
5.849253154413e-04 1.545918668149e-03 0.0 
1.212613499274e-03 6.303736566934e-03 0.0 
3.917140697610e-04 2.357321680963e-04 0.0 
7.361993653552e-04 2.219875911664e-05 0.0 
3.812367545250e-04 3.621813246736e-04 0.0 
1.490440985563e-03 6.274629225208e-03 0.0 
2.330330979285e-03 2.900690167045e-03 0.0 
1.863391829847e-04 1.587304718758e-03 0.0 
2.748087373396e-03 6.406138112203e-03 0.0 
2.857449181232e-03 5.133000992167e-03 0.0 
2.812653698809e-03 4.926572783415e-03 0.0 
2.558723153317e-03 2.625766056785e-03 0.0 
3.689655929654e-04 1.800607654169e-04 0.0 
1.866587689710e-03 6.590180763698e-03 0.0 
2.383655707943e-03 7.281496686247e-03 0.0 
1.264236480748e-03 4.348549671664e-04 0.0 
2.217260965382e-04 -4.251276841279e-04 0.0 
2.551358399613e-03 7.348821409566e-03 0.0 
7.749213892649e-04 1.404868549907e-03 0.0 
3.233008096793e-04 8.773244721789e-03 0.0 
5.624482806493e-04 -2.540117936283e-04 0.0 
1.031123275954e-03 4.466026330005e-04 0.0 
1.812280191115e-03 3.585676051448e-03 0.0 
7.424700079900e-04 1.188609179894e-03 0.0 
2.828918873152e-03 5.847807394718e-03 0.0 
1.566196343693e-03 2.777606765188e-04 0.0 
7.733298196337e-04 -1.658738536396e-04 0.0 
2.879177505437e-04 1.045014854111e-04 0.0 
2.546111809656e-03 6.898627753620e-03 0.0 
6.378795912030e-04 1.485117848469e-05 0.0 
5.308425520918e-04 -3.251255407231e-04 0.0 
6.404599918947e-04 2.441745534407e-03 0.0 
6.052839362063e-04 1.804597902737e-03 0.0 
1.835746760527e-03 2.488274393597e-03 0.0 
2.938102187658e-03 3.789975709177e-03 0.0 
2.220915705380e-03 5.577074624584e-03 0.0 
2.710618727817e-03 6.592814923895e-03 0.0 
2.246612753960e-04 5.592826001516e-05 0.0 
5.689996873486e-04 1.392260434129e-04 0.0 
1.768060577632e-03 2.560904416252e-03 0.0 
1.872026912358e-03 4.063526757102e-03 0.0 
7.928442722264e-04 -1.793248239923e-04 0.0 
2.022672197399e-03 2.908070955876e-03 0.0 
6.106817598125e-04 3.208738960803e-04 0.0 
8.490808889748e-04 2.952994069622e-04 0.0 
2.882723300280e-03 3.455794442694e-03 0.0 
1.258497967807e-03 7.119500229075e-05 0.0 
3.820878964331e-04 -2.826989416640e-04 0.0 
1.543065197703e-03 2.728992400010e-03 0.0 
6.126445285588e-04 -4.949568539566e-05 0.0 
2.311839035651e-03 2.198811290440e-03 0.0 
2.921003442920e-03 4.962943089430e-03 0.0 
2.043140432855e-03 2.292495385221e-03 0.0 
3.823257981573e-04 4.101422358358e-04 0.0 
3.476546369913e-04 4.806048866466e-04 0.0 
8.599935014930e-04 1.172926994233e-03 0.0 
8.003714647101e-04 -1.382127793610e-04 0.0 
1.299874439888e-03 3.316615323147e-03 0.0 
3.801754346441e-04 1.453395844418e-03 0.0 
1.070837425620e-03 2.822895484594e-04 0.0 
2.539297816767e-04 2.332511023273e-04 0.0 
2.325765473108e-03 4.424223030826e-03 0.0 
1.560978236617e-03 8.196351713739e-03 0.0 
1.395474913882e-03 6.296308439621e-03 0.0 
3.876082077905e-04 6.707200407106e-05 0.0 
1.958409679697e-03 2.332250948064e-03 0.0 
2.484043424608e-03 5.851472849596e-03 0.0 
2.805730208678e-03 4.447383127914e-03 0.0 
3.593070050953e-04 1.676719553775e-04 0.0 
5.928274375236e-05 -3.920254550074e-04 0.0 
1.796082343734e-03 9.910365186510e-04 0.0 
2.482918352665e-03 2.078669748385e-03 0.0 
1.942406886212e-03 1.066627779395e-03 0.0 
-3.854990216497e-04 1.015817470758e-03 0.0 
3.058699755976e-04 7.605065445869e-03 0.0 
1.990356064205e-04 -4.279686659129e-04 0.0 
6.912142884853e-04 8.310030493035e-04 0.0 
8.123552446523e-05 1.575559043726e-05 0.0 
1.657585121660e-03 4.059850746653e-04 0.0 
2.282480725651e-03 7.462237048495e-03 0.0 
1.989035011036e-05 -4.321088939655e-04 0.0 
2.650079339288e-03 2.986567707515e-03 0.0 
1.706042460964e-03 8.241003535443e-04 0.0 
2.678080009202e-03 4.930464667153e-03 0.0 
3.830090164977e-04 2.864990360942e-04 0.0 
2.671411265330e-03 6.760095377361e-03 0.0 
2.924087546816e-03 4.035444179021e-03 0.0 
4.184442836477e-04 -2.808353853813e-04 0.0 
1.558974572209e-03 3.225360457668e-03 0.0 
7.689919063639e-04 -1.242943170429e-04 0.0 
4.008125891052e-04 2.693614603478e-04 0.0 
1.960513401212e-04 1.972191803651e-04 0.0 
1.397903373094e-04 2.336728156223e-04 0.0 
1.903877283097e-04 2.483434758162e-04 0.0 
2.663498538924e-03 4.448850624968e-03 0.0 
1.644647391934e-03 3.177252700583e-03 0.0 
1.678020402383e-03 2.081832682585e-03 0.0 
2.148627972245e-03 2.653474561763e-03 0.0 
2.129976796728e-03 3.358352759933e-03 0.0 
3.214430778458e-04 -3.027501754880e-04 0.0 
1.620748249065e-03 2.679437586680e-03 0.0 
3.826248415034e-04 2.070531371645e-04 0.0 
1.302389207973e-03 2.831205241247e-03 0.0 
1.733923927487e-03 4.232519485622e-04 0.0 
1.383514784114e-03 2.804825644936e-03 0.0 
2.343592638278e-03 1.389183622291e-03 0.0 
2.357049304166e-03 1.995779236295e-03 0.0 
2.395014432155e-03 5.034291254237e-03 0.0 
2.362654636358e-04 6.872209711018e-04 0.0 
3.777925448096e-04 1.050176322775e-03 0.0 
1.820302990107e-03 2.161469011415e-03 0.0 
1.175479054100e-03 6.440671764916e-04 0.0 
3.549688123796e-04 -3.020143424663e-04 0.0 
4.632299920135e-04 -3.030838007336e-04 0.0 
2.973480830783e-04 5.019612174461e-05 0.0 
9.051481266268e-04 1.070303756474e-03 0.0 
1.851854144037e-04 1.649621443085e-04 0.0 
6.247493256322e-04 9.057815852291e-04 0.0 
2.911869188201e-03 3.403755523438e-03 0.0 
1.796418226886e-05 -3.867976601866e-04 0.0 
2.022045035126e-04 1.434980571658e-04 0.0 
3.730092506181e-04 7.983872663742e-05 0.0 
4.878788103167e-04 -2.744171113765e-04 0.0 
1.580283267727e-03 3.105274401439e-04 0.0 
2.781675791102e-04 9.194258297014e-05 0.0 
-1.391119594375e-05 -3.926808882138e-04 0.0 
2.138858637201e-03 2.090592416764e-03 0.0 
2.890231637986e-03 3.621386090010e-03 0.0 
2.867065160561e-03 3.107717356253e-03 0.0 
2.946169080856e-03 4.135897062373e-03 0.0 
3.747193235918e-04 8.797107330721e-04 0.0 
1.931059841684e-04 1.098687649144e-04 0.0 
1.265446873546e-03 2.794442058408e-04 0.0 
-2.668524448495e-05 1.634588357769e-04 0.0 
1.216648577789e-04 2.246376869780e-06 0.0 
1.305752807787e-05 -3.990983469094e-04 0.0 
2.693031972471e-03 6.272940442272e-03 0.0 
1.226826932544e-04 -2.513574142531e-04 0.0 
2.458302464789e-03 7.664010480441e-03 0.0 
1.945133410548e-04 4.335856338838e-05 0.0 
1.794467356304e-04 8.287639316673e-05 0.0 
2.746321804100e-03 5.190646489707e-03 0.0 
2.938564538562e-05 -2.742856239689e-04 0.0 
-1.042267686733e-04 1.401145362543e-04 0.0 
9.673868223863e-05 -2.824392579519e-04 0.0 
3.844329875375e-04 -2.197489946832e-05 0.0 
1.631000331002e-03 8.454211519416e-03 0.0 
2.264787035304e-03 7.086593316818e-03 0.0 
1.486327069415e-04 5.633008694291e-05 0.0 
1.466444583183e-03 8.550645003646e-03 0.0 
2.616868445727e-04 4.642078100385e-04 0.0 
2.211162946289e-03 1.215872565498e-03 0.0 
1.276084782077e-03 6.823882017472e-03 0.0 
8.790829664599e-04 2.240036617968e-03 0.0 
1.662208366530e-03 3.790166273039e-04 0.0 
1.378502820798e-04 4.108100207343e-04 0.0 
1.388825355080e-04 4.377118450193e-05 0.0 
1.862744580360e-04 2.129230554707e-04 0.0 
1.572669086817e-04 2.322614108304e-04 0.0 
7.177573704875e-04 -1.363460899108e-04 0.0 
2.645684182272e-04 -3.204273273146e-04 0.0 
2.251424080977e-03 1.723193944033e-03 0.0 
6.829379412435e-04 -1.209913243802e-04 0.0 
1.227343483609e-04 3.228585803988e-05 0.0 
6.701792784868e-04 6.815600109569e-04 0.0 
7.092975978628e-04 -1.536443018010e-04 0.0 
7.174651523796e-04 -2.067157479475e-04 0.0 
1.124606073254e-03 6.295700848107e-03 0.0 
1.318366908804e-04 2.160930770941e-05 0.0 
1.154797658559e-05 -3.021033737237e-04 0.0 
9.258641401972e-05 1.971616141310e-05 0.0 
6.052458482900e-04 -2.626023677711e-04 0.0 
1.808045129852e-04 1.430009789284e-04 0.0 
1.735115509635e-03 2.018524480623e-03 0.0 
-4.402468851611e-05 -3.718889976523e-04 0.0 
2.098549137526e-03 1.631713253936e-03 0.0 
1.141596797560e-03 2.859103235603e-03 0.0 
1.986080855926e-04 1.258634031820e-04 0.0 
2.724816843692e-03 4.229842792021e-03 0.0 
2.006149757228e-03 9.463819035922e-04 0.0 
-2.041423458035e-05 7.473377672354e-04 0.0 
5.807542943812e-04 1.066141999710e-04 0.0 
6.045214277943e-04 -2.910137769767e-04 0.0 
6.785683048160e-04 -2.392868129679e-04 0.0 
-8.994003442286e-05 -2.549614728464e-04 0.0 
1.895188573349e-04 9.718437225017e-05 0.0 
3.685579878820e-04 3.600471341818e-04 0.0 
6.964888571478e-04 3.900723450910e-05 0.0 
1.238785051828e-03 7.381543381271e-03 0.0 
3.965926655748e-04 -3.752286705248e-04 0.0 
6.740000572153e-04 -1.951437970916e-04 0.0 
2.849280536909e-03 4.182893319891e-03 0.0 
1.392850436022e-04 4.817139846821e-05 0.0 
2.575860289473e-04 -3.030164439676e-04 0.0 
7.410505986472e-04 -5.880224944397e-05 0.0 
2.655302310577e-03 2.198356646593e-03 0.0 
1.054878069141e-03 -2.898320510772e-05 0.0 
7.973804288428e-04 -1.262023257165e-04 0.0 
7.836290067497e-04 -9.738164268834e-05 0.0 
2.672845436897e-03 2.439493494349e-03 0.0 
2.496191063489e-03 1.890019889455e-03 0.0 
1.559344181349e-03 3.615001975129e-04 0.0 
2.486548828288e-03 1.878029472295e-03 0.0 
4.623542588071e-04 -2.955250687352e-04 0.0 
8.661998621919e-04 8.919778177905e-04 0.0 
2.954148430733e-04 -3.205270803675e-04 0.0 
2.149034252061e-03 1.086893497386e-03 0.0 
1.577720920610e-03 2.701218921074e-04 0.0 
1.738219384850e-04 3.547175185036e-05 0.0 
1.124925650353e-03 2.401980187778e-03 0.0 
3.469900430952e-04 -3.894405315443e-04 0.0 
1.019269270351e-04 2.364240197528e-05 0.0 
4.312169224021e-04 8.497372253921e-05 0.0 
1.973743979567e-03 9.637586825889e-04 0.0 
-4.189137005061e-05 -2.940642937768e-04 0.0 
1.166588372902e-04 1.711891105481e-05 0.0 
1.348264804198e-03 2.338857183241e-03 0.0 
5.045924607876e-04 -3.093603298583e-04 0.0 
6.987447410697e-05 1.190151555063e-05 0.0 
6.909415051712e-04 -9.554708697758e-05 0.0 
2.447162987283e-03 4.010032819613e-03 0.0 
2.332632157532e-03 6.554784046475e-03 0.0 
1.605415912419e-03 3.025945979719e-04 0.0 
7.221205799505e-04 -1.783798595610e-04 0.0 
1.136635066474e-03 3.131360730044e-05 0.0 
2.025756802295e-03 4.978736733336e-03 0.0 
2.812720091483e-03 5.209658002298e-03 0.0 
1.592738453185e-03 4.397165386763e-04 0.0 
2.906923997604e-04 7.030776659821e-03 0.0 
4.251817635578e-04 -2.986152433975e-04 0.0 
1.501017467886e-03 2.785201981790e-04 0.0 
5.691373930234e-04 -3.110478722007e-04 0.0 
3.608065221803e-04 -1.449436073921e-04 0.0 
-8.690458420867e-05 -3.288910713607e-04 0.0 
1.103547796196e-03 1.149383322568e-03 0.0 
5.720388467315e-04 -2.892842146440e-04 0.0 
3.717503114748e-04 -2.641164456924e-04 0.0 
2.184255201020e-03 1.209595234076e-03 0.0 
7.403980348011e-04 -8.398917815357e-05 0.0 
1.097906046972e-03 6.792559313130e-03 0.0 
4.766659890288e-04 -3.308401337068e-04 0.0 
6.196221677345e-05 9.707792158783e-06 0.0 
2.886080172569e-03 3.335618787623e-03 0.0 
3.230055127406e-04 -2.464320275213e-04 0.0 
2.880263654163e-03 3.093599125540e-03 0.0 
3.362844953637e-04 -2.653002749953e-04 0.0 
-4.881212328707e-05 -3.570541651600e-04 0.0 
2.280356627621e-03 6.175861637245e-03 0.0 
9.064174848899e-05 -3.146029713356e-04 0.0 
5.621261309155e-05 -4.536655255323e-04 0.0 
2.688345871927e-04 -2.665224772294e-04 0.0 
6.867001203634e-04 -4.707081211899e-05 0.0 
3.181574016562e-04 3.071900751674e-03 0.0 
1.161856875031e-03 8.682540719030e-07 0.0 
1.120506015111e-03 3.652029231710e-07 0.0 
2.176292981572e-03 8.010559574373e-03 0.0 
1.436479985815e-03 9.175289693855e-03 0.0 
4.525358888181e-04 9.587375683979e-04 0.0 
2.808327157817e-03 2.786460318143e-03 0.0 
5.365223422252e-05 -4.544579958051e-04 0.0 
1.540852128519e-04 -4.388427443800e-04 0.0 
-8.618870093054e-06 -3.478329533115e-04 0.0 
3.191456952084e-04 -3.979700040600e-04 0.0 
1.926891414972e-03 1.545497225134e-03 0.0 
3.641695457243e-04 3.103165187261e-03 0.0 
4.079747071354e-04 -3.772688606629e-05 0.0 
2.921188676121e-04 -3.815407320092e-04 0.0 
3.257004249491e-04 -1.477242201812e-04 0.0 
6.085509672257e-04 3.889730807367e-05 0.0 
1.597917304619e-04 1.200502953673e-04 0.0 
6.418282885700e-05 -3.140256393467e-04 0.0 
4.396401264678e-05 -3.553358639109e-04 0.0 
1.052633269110e-04 1.338415039954e-05 0.0 
5.469662051673e-05 7.411118896022e-06 0.0 
6.751147356842e-05 -2.826467375593e-04 0.0 
2.885662286220e-04 -2.472882082228e-04 0.0 
6.979276891505e-04 -1.627705581503e-04 0.0 
5.905038962055e-04 6.189992599091e-05 0.0 
1.735764628944e-04 -4.360173340587e-04 0.0 
6.165899024889e-04 1.284965459446e-05 0.0 
6.580715899238e-05 -4.475748576101e-04 0.0 
2.800857217358e-04 -2.849846255210e-04 0.0 
3.949167002708e-04 -2.434981391553e-04 0.0 
4.837643378820e-05 -4.485620871343e-04 0.0 
5.353018410527e-05 -2.979048691596e-04 0.0 
1.050217223932e-03 2.408231346292e-03 0.0 
5.000568178168e-05 -4.548029725425e-04 0.0 
1.586868391996e-03 9.041508810454e-03 0.0 
1.635652708038e-03 9.258650764177e-03 0.0 
1.209714275584e-03 9.481736800175e-05 0.0 
2.184411145973e-05 -3.561183133274e-04 0.0 
5.087283402017e-04 -3.307981137165e-04 0.0 
2.196582367215e-04 9.890302015491e-04 0.0 
2.561666558001e-04 -1.082034701300e-05 0.0 
7.292744079888e-04 4.034917148101e-04 0.0 
6.615318449969e-04 3.726188114485e-03 0.0 
8.417582144510e-04 1.921975288137e-03 0.0 
1.063065025956e-04 -4.381009122255e-04 0.0 
2.766495738993e-03 6.162822643204e-03 0.0 
1.030153694547e-03 9.293949110778e-03 0.0 
9.607131148138e-04 9.611528418316e-03 0.0 
5.385392499610e-05 -4.543164967982e-04 0.0 
5.847252801518e-05 -4.508245936774e-04 0.0 
3.396702737120e-05 -4.391841625121e-04 0.0 
2.189372554684e-04 -4.158439597377e-04 0.0 
4.064287460988e-05 -4.491012266443e-04 0.0 
5.560207929961e-05 -2.647653445062e-04 0.0 
-2.046125849773e-04 -1.576667790281e-04 0.0 
2.598843695705e-04 -3.944048909182e-04 0.0 
2.616192964530e-04 5.903050968103e-03 0.0 
1.346000836844e-03 9.516004768852e-03 0.0 
1.704849178127e-03 1.451762352666e-03 0.0 
6.460607334314e-04 -8.132728741569e-05 0.0 
2.330365093658e-04 6.802920524773e-03 0.0 
1.170266134885e-05 -3.427315125334e-04 0.0 
3.968358813068e-05 -4.424329390372e-04 0.0 
5.577913875470e-05 2.653747745450e-04 0.0 
1.276027934756e-04 5.515420325249e-04 0.0 
1.148613742743e-03 7.358256395757e-03 0.0 
1.161164943165e-03 9.290315925034e-03 0.0 
5.845816262243e-05 -3.422005018364e-04 0.0 
8.220675411895e-05 5.262500489216e-04 0.0 
2.503493861586e-04 -4.055726432999e-04 0.0 
1.486881700242e-03 9.408293694986e-03 0.0 
1.294479450529e-03 9.257320968548e-03 0.0 
2.493018675816e-03 7.604477145883e-03 0.0 
1.218965072634e-04 2.305349944161e-04 0.0 
1.001476655793e-04 5.234006023920e-04 0.0 
5.114030133937e-05 -4.511179981040e-04 0.0 
4.766136364276e-05 -4.535097413529e-04 0.0 
1.263366867111e-04 -4.434735625018e-04 0.0 
4.328059508124e-04 -2.412042280451e-04 0.0 
2.469575322834e-05 -1.555712013254e-05 0.0 
-2.694745148488e-04 -9.966175652354e-05 0.0 
8.408960135342e-05 3.885610418753e-03 0.0 
-1.433927637587e-04 -2.429668620848e-04 0.0 
1.078079304659e-03 3.075403117344e-05 0.0 
-1.386096667387e-04 -2.716190049030e-04 0.0 
-1.992595417610e-04 -1.959513229213e-04 0.0 
1.008452848263e-03 -2.466282280117e-05 0.0 
9.970862608014e-05 -2.092514062843e-05 0.0 
2.186686829504e-04 6.237268021692e-03 0.0 
2.877232556766e-03 5.168533372829e-03 0.0 
3.611587136643e-05 -4.464714604644e-04 0.0 
2.664681488225e-04 -1.322327014740e-04 0.0 
1.936048669177e-05 3.147742645696e-04 0.0 
3.825736901322e-05 5.331556079559e-04 0.0 
1.213246075064e-03 9.574597650454e-03 0.0 
1.137209992824e-03 8.820957824708e-05 0.0 
4.436852682457e-05 2.580258278469e-04 0.0 
1.944313869587e-03 8.452391754583e-04 0.0 
2.396832813708e-05 -4.409184992885e-04 0.0 
2.831322863892e-05 -4.475702163123e-04 0.0 
2.188224616905e-05 -4.452660316615e-04 0.0 
1.301096495273e-05 -3.132431782822e-04 0.0 
1.979851027903e-05 -1.021205207710e-06 0.0 
1.030268364023e-05 1.452291471251e-03 0.0 
2.683795544850e-05 -4.510075734810e-04 0.0 
2.860982488373e-05 -2.632468183878e-04 0.0 
6.681974515527e-06 -4.626230444539e-07 0.0 
2.813057412055e-05 -6.515242892919e-07 0.0 
9.529275244338e-05 1.040003142427e-05 0.0 
4.670022368365e-05 4.863436341828e-03 0.0 
1.861274517410e-05 3.393459874917e-03 0.0 
1.311653576350e-05 -5.585821632564e-07 0.0 
1.501403835705e-05 -9.294212603549e-08 0.0 
4.113563884496e-05 3.886076750534e-03 0.0 
2.025056870714e-05 -4.520976266380e-04 0.0 
7.278761942703e-04 9.634736236910e-03 0.0 
1.086810356396e-03 9.603861559651e-03 0.0 
3.830465579091e-05 -4.521461685480e-04 0.0 
2.573835712179e-05 1.505569151733e-06 0.0 
8.812700839577e-05 7.950857358329e-06 0.0 
4.340096234667e-05 3.523857437580e-06 0.0 
3.230237935705e-05 -4.529537595369e-04 0.0 
4.255927727263e-05 -4.539987722869e-04 0.0 
5.056670639428e-05 5.973031503522e-06 0.0 
4.472604604910e-05 4.426999920748e-06 0.0 
2.417733001279e-05 5.366799812079e-03 0.0 
3.859376747064e-04 9.647298726917e-03 0.0 
2.252289367086e-05 4.369258667538e-03 0.0 
2.897600928780e-05 7.349950903028e-03 0.0 
1.657276874238e-04 9.643755653312e-03 0.0 
5.292503721294e-05 -4.523031796825e-04 0.0 
3.519687190384e-05 -4.389946412901e-04 0.0 
1.668696548937e-05 -4.245931929350e-04 0.0 
-9.761313016373e-06 -4.028097867602e-04 0.0 
1.462686954893e-05 -2.454684370241e-04 0.0 
1.398295533480e-05 -2.805971890960e-04 0.0 
3.357403595299e-05 -4.348395957564e-04 0.0 
1.525258482204e-05 -1.393248965481e-04 0.0 
1.354539389059e-05 -4.177059041674e-04 0.0 
9.799086830362e-05 2.468679095979e-04 0.0 
3.783822729437e-05 2.682242210746e-04 0.0 
7.182365472091e-05 2.861672579798e-04 0.0 
6.801289160389e-06 -4.241184090398e-04 0.0 
1.014145011089e-05 -3.686256245717e-04 0.0 
3.563589769306e-05 3.230698300354e-04 0.0 
1.049987587707e-05 -4.564426986245e-05 0.0 
1.889688232145e-05 2.183813433864e-04 0.0 
7.662726650401e-06 -2.392710389229e-05 0.0 
4.620582205572e-06 -9.025387680327e-06 0.0 
2.699392028753e-05 -2.973738468147e-04 0.0 
7.347412498743e-05 5.912940511100e-04 0.0 
5.453278001451e-05 5.414511734217e-04 0.0 
1.816260252747e-05 -3.437855918262e-05 0.0 
1.228330885597e-05 -1.551767209462e-05 0.0 
1.572517823141e-04 -1.025143587711e-04 0.0 
-9.184021661468e-05 -3.083160694942e-04 0.0 
2.273826548014e-04 -3.027727027505e-04 0.0 
5.884183353300e-05 -4.527298611820e-04 0.0 
2.368511009576e-04 -1.445029507283e-05 0.0 
3.130963457882e-04 -2.846186039885e-04 0.0 
1.819966457567e-04 -5.153285284287e-05 0.0 
2.060179241870e-04 -4.243665088354e-04 0.0 
8.346868811227e-05 -4.496907655069e-04 0.0 
1.253412535823e-04 -2.963617224935e-05 0.0 
2.364711573656e-04 -2.668275232377e-04 0.0 
4.934922638811e-05 -3.287453364530e-04 0.0 
1.590959358463e-04 -5.371873696379e-05 0.0 
1.169391389054e-04 2.460111552928e-03 0.0 
2.471362630157e-05 -3.284938977335e-04 0.0 
6.723767779965e-04 -2.498056747802e-05 0.0 
4.731186379237e-04 -1.334088264993e-04 0.0 
1.858680748682e-04 -1.007488504817e-04 0.0 
1.346235576209e-04 -8.703828298966e-05 0.0 
1.143026560109e-03 2.341770257850e-04 0.0 
2.716996537402e-03 5.757099174421e-03 0.0 
2.174241067574e-03 1.338536461502e-03 0.0 
2.990246704202e-04 -1.299286889538e-04 0.0 
1.124843371866e-04 -4.369946018124e-05 0.0 
8.815490858188e-05 -7.391501294700e-05 0.0 
2.801791042788e-04 -4.097126004677e-04 0.0 
2.226028433205e-04 2.536017553901e-03 0.0 
2.821956332846e-04 3.517502956379e-03 0.0 
5.008775009447e-04 8.147605962121e-03 0.0 
3.355323059483e-04 -1.071937116804e-04 0.0 
2.405682948861e-04 -1.150604396222e-04 0.0 
1.514130596337e-04 2.511277970078e-03 0.0 
1.933070178562e-04 3.016630843759e-03 0.0 
5.044642859728e-04 -1.511180700115e-04 0.0 
8.444599145786e-05 -2.243127913710e-05 0.0 
5.988600010039e-04 3.699640505163e-03 0.0 
6.259679489864e-05 -7.421330455276e-05 0.0 
1.723984835982e-04 -1.018875169141e-05 0.0 
2.599739145216e-04 2.560233598491e-03 0.0 
4.921340992233e-04 5.092328291900e-03 0.0 
6.411667847775e-04 -5.803794126670e-05 0.0 
1.105250192369e-04 -4.090617009482e-04 0.0 
2.705153023773e-04 -4.031691724328e-04 0.0 
1.038838417127e-04 -4.432460408021e-04 0.0 
-4.857464926241e-05 -3.187667476063e-04 0.0 
2.342243972947e-04 3.015358791291e-03 0.0 
8.992571593700e-05 -3.298271003524e-05 0.0 
-1.379197652372e-05 -3.655453689987e-04 0.0 
1.557247410135e-03 2.209010926783e-03 0.0 
5.914542611102e-04 7.650902164712e-03 0.0 
2.117995670353e-04 -6.453797370296e-05 0.0 
1.144300721537e-04 -5.751767601523e-05 0.0 
5.011162001141e-04 -3.415917094950e-04 0.0 
9.222968398079e-05 -5.905605611505e-05 0.0 
5.652562437918e-04 8.164921696255e-03 0.0 
1.484701626378e-03 3.025245081867e-04 0.0 
1.306680095961e-04 -4.807391489543e-06 0.0 
5.916782322806e-05 -4.056328580246e-04 0.0 
2.225122900997e-04 -1.734696660778e-06 0.0 
3.814582198380e-04 4.544801318763e-03 0.0 
9.112220208685e-05 -3.972066741786e-04 0.0 
3.246271899268e-04 -3.980446728029e-04 0.0 
1.285607559575e-04 -2.125191538792e-04 0.0 
6.629609252990e-04 6.163120323608e-03 0.0 
2.711260498096e-04 -3.530388288532e-04 0.0 
2.830454569893e-04 3.994304428475e-03 0.0 
4.221064882280e-04 5.549830293252e-03 0.0 
2.731057706034e-04 -2.283796997604e-04 0.0 
1.076316813483e-04 -8.852876215720e-05 0.0 
1.373471730274e-04 -7.088615367964e-05 0.0 
3.278313094377e-04 4.509816903813e-03 0.0 
1.215460117924e-04 -4.284644694760e-04 0.0 
2.229019518058e-04 -2.483239663319e-04 0.0 
1.335498704652e-03 4.229239738792e-04 0.0 
4.375108180371e-04 4.093139999765e-03 0.0 
2.175189177628e-04 -2.850459303122e-04 0.0 
4.342448941436e-04 -1.379142940995e-04 0.0 
2.951326022484e-04 -2.750527131018e-06 0.0 
4.314853651875e-04 5.061257808035e-03 0.0 
-8.462645652399e-05 5.670182855051e-05 0.0 
9.538363194553e-05 -4.495284645780e-04 0.0 
3.548237312777e-04 8.434454577198e-05 0.0 
1.326372402097e-04 -4.185906090402e-05 0.0 
5.445140071723e-04 5.611236536262e-03 0.0 
9.331273952338e-05 -1.781450356964e-04 0.0 
6.879580521137e-04 7.177490402963e-03 0.0 
5.731460440950e-04 2.716413158077e-05 0.0 
2.228364007805e-04 -2.103628123045e-04 0.0 
1.618601336970e-04 -6.892761390542e-05 0.0 
9.332503658216e-05 -4.075201836853e-04 0.0 
1.895543174783e-04 -7.480267462727e-06 0.0 
2.398049236143e-04 -2.291104118611e-04 0.0 
7.234535322091e-05 -3.965206376010e-04 0.0 
1.916851681318e-04 -2.481169595854e-04 0.0 
2.402163465036e-04 -3.366753567759e-04 0.0 
2.366828814527e-04 -3.942786993860e-04 0.0 
1.232211517815e-04 -1.756485334451e-04 0.0 
5.493988054430e-05 -4.511963654214e-04 0.0 
4.766070949420e-05 -4.454198728384e-04 0.0 
2.104177452170e-04 -1.170986154469e-04 0.0 
1.098557243929e-04 -4.185094882046e-04 0.0 
3.028767265352e-04 -1.102174725990e-04 0.0 
3.667863470644e-04 -1.241243152461e-04 0.0 
3.935937676911e-04 -3.179058882116e-04 0.0 
4.153889507589e-04 -3.478340288489e-04 0.0 
5.168767262612e-04 3.192627194157e-03 0.0 
-1.639715192892e-04 4.993271635666e-04 0.0 
2.065828287165e-04 -3.195452957503e-04 0.0 
5.538494294012e-04 4.938666971745e-05 0.0 
9.376207092671e-05 -4.257261748548e-04 0.0 
6.431921794951e-04 6.653919315272e-03 0.0 
6.591043251374e-04 7.681978432833e-03 0.0 
1.614820871890e-04 -4.378018539797e-04 0.0 
3.797885935413e-04 -2.343455481791e-06 0.0 
7.559886425987e-04 4.720921275816e-03 0.0 
1.255235622199e-04 -4.202165546473e-04 0.0 
5.381090089777e-04 2.756216883750e-03 0.0 
4.847523854159e-04 2.727116329022e-03 0.0 
1.455422513942e-04 -4.123184797897e-04 0.0 
1.157318895189e-03 2.395352309716e-03 0.0 
2.001078635230e-04 -4.157059020391e-04 0.0 
1.877528108446e-04 -8.331423492597e-05 0.0 
1.727783860577e-04 -1.927457542477e-04 0.0 
1.274387210334e-03 2.366582671082e-03 0.0 
4.630869622984e-04 3.164070043491e-03 0.0 
2.430573479653e-04 -9.650691857537e-05 0.0 
2.728092580166e-04 -9.396796407251e-05 0.0 
1.765674434500e-04 -4.320719527444e-04 0.0 
2.147915342725e-04 -8.111047884444e-05 0.0 
6.867271813078e-04 4.695253782183e-03 0.0 
1.416288802987e-04 -1.937109466933e-04 0.0 
6.100685799901e-04 5.642691438252e-03 0.0 
6.145746123772e-04 4.182319475258e-03 0.0 
1.622126908590e-03 3.826733303670e-04 0.0 
4.290462280002e-04 3.612618548305e-03 0.0 
1.746281832690e-04 -2.666495728516e-04 0.0 
1.906248142595e-04 -2.111789240234e-04 0.0 
1.902334087056e-04 -3.508974895368e-04 0.0 
4.239372725325e-04 -3.456246906152e-04 0.0 
6.187284573403e-04 5.154497863191e-03 0.0 
6.442570050574e-04 -2.145346873882e-04 0.0 
1.878707286952e-04 -4.043446448594e-04 0.0 
1.198918824671e-04 -4.458237148798e-04 0.0 
6.861264266966e-04 5.183250022918e-03 0.0 
2.083185060954e-04 -4.053083940692e-04 0.0 
2.376453072554e-04 1.669187675852e-06 0.0 
4.963834713608e-04 4.607397043174e-03 0.0 
2.376507676481e-04 -6.195671976851e-05 0.0 
3.339565373041e-04 6.424914972743e-05 0.0 
1.868927273402e-04 -2.850749866726e-04 0.0 
1.634732548584e-04 -4.137542202545e-04 0.0 
1.355460329025e-04 -4.429774166790e-04 0.0 
3.345176076990e-04 -8.780505096422e-05 0.0 
4.692987291313e-04 6.070375102459e-03 0.0 
9.951004477637e-05 -4.485820784502e-04 0.0 
2.432151108818e-04 -3.525396422874e-04 0.0 
6.348311845088e-05 -4.141435885511e-04 0.0 
7.333736695286e-04 6.192662487339e-03 0.0 
2.124341311387e-04 -3.360370664287e-04 0.0 
4.025117381690e-04 -1.204548694715e-04 0.0 
1.641227785569e-04 -3.489329151809e-04 0.0 
3.287575664450e-04 3.549828872172e-03 0.0 
2.415754692235e-04 -3.814721819777e-04 0.0 
4.349323261039e-04 -7.465268410712e-05 0.0 
2.545549991185e-04 -4.125974689190e-04 0.0 
4.037287502946e-04 -9.969683002226e-05 0.0 
1.454620008762e-04 -2.300945542438e-04 0.0 
2.994474152059e-04 -7.285111821741e-05 0.0 
8.385898457150e-04 -7.726139904157e-05 0.0 
7.886348293904e-05 -4.153448776343e-04 0.0 
5.539591496451e-04 7.115459574828e-03 0.0 
1.015525032417e-03 4.126009102718e-06 0.0 
2.415966784492e-03 2.530530077495e-03 0.0 
5.310575140398e-04 6.100710861605e-03 0.0 
3.185022607060e-04 -3.916801627228e-04 0.0 
9.755420936446e-04 5.769133637332e-03 0.0 
7.996981212755e-05 -4.241030815474e-04 0.0 
3.053681148458e-04 -1.836790588099e-05 0.0 
1.073718469356e-03 5.803710664099e-05 0.0 
1.521139924314e-03 3.772604833807e-04 0.0 
3.919567008022e-04 2.211135372321e-03 0.0 
6.494810943215e-04 -1.724488898031e-04 0.0 
1.351728457647e-04 -4.299971030189e-04 0.0 
5.549741261441e-04 -1.217960627290e-04 0.0 
3.167844288783e-04 2.341741421178e-06 0.0 
4.780848746409e-04 -3.464457129188e-04 0.0 
2.703946449366e-04 -7.599027040712e-05 0.0 
5.574232566600e-04 4.638111712475e-03 0.0 
3.962517185773e-04 -3.203672822066e-04 0.0 
4.774559807427e-04 -1.112505437901e-04 0.0 
9.847182682729e-04 7.278154958420e-03 0.0 
1.076738128713e-04 -3.869432910860e-04 0.0 
2.702247272366e-04 -3.679858059055e-04 0.0 
2.566551802279e-03 1.935160657974e-03 0.0 
3.669886609408e-04 -8.397761508061e-05 0.0 
2.355642954011e-03 3.508824254658e-03 0.0 
2.386914649894e-03 1.632375826965e-03 0.0 
8.286298451020e-04 5.234696949204e-03 0.0 
5.768433410537e-04 6.622964755259e-03 0.0 
1.015075880524e-03 6.778203433926e-03 0.0 
1.763765534193e-04 -2.297195168337e-04 0.0 
4.738717975784e-04 -1.196555332053e-06 0.0 
6.354245424739e-04 -1.305028050283e-04 0.0 
7.598319268491e-04 7.213025806232e-03 0.0 
1.415393892448e-03 1.717738237251e-03 0.0 
1.528634927497e-03 4.437845611612e-04 0.0 
4.397992490882e-04 -9.499797194107e-05 0.0 
5.526686570857e-04 4.153929565276e-03 0.0 
3.941447040714e-04 -3.341186916667e-04 0.0 
3.292645862008e-04 -3.526313710045e-04 0.0 
1.626471421294e-04 -4.320163628374e-04 0.0 
6.012413761166e-04 -9.059668392408e-05 0.0 
2.989737102775e-04 -3.372742963946e-04 0.0 
8.211212506904e-04 5.726765194364e-03 0.0 
9.595867617199e-04 6.266252663144e-03 0.0 
1.456227310026e-03 1.857296918569e-04 0.0 
3.187022346662e-04 -3.803186258169e-04 0.0 
9.407217109431e-04 2.402431394573e-04 0.0 
2.975666375073e-04 -3.679281644049e-04 0.0 
3.597823899107e-04 -3.513611254108e-04 0.0 
1.732682309209e-04 -4.241728612298e-04 0.0 
5.784341439864e-04 1.801094090952e-06 0.0 
5.825344129716e-04 -2.783670217105e-04 0.0 
4.831642817497e-04 3.642693444515e-03 0.0 
6.669173874984e-04 -2.450944844287e-04 0.0 
5.986087490868e-04 -1.143279641341e-04 0.0 
6.259923582289e-04 -1.977782971046e-04 0.0 
2.083642431591e-03 1.029331721006e-03 0.0 
1.570813996564e-04 -4.231849286550e-04 0.0 
4.060924735595e-04 4.303154982197e-06 0.0 
3.534395216192e-04 1.404476365194e-05 0.0 
2.573217454364e-03 1.948454327327e-03 0.0 
4.280338953647e-04 -3.312804134130e-04 0.0 
6.217973768890e-04 -1.555359022117e-04 0.0 
7.478792935759e-04 5.700985761710e-03 0.0 
3.597372037276e-04 -3.194414309977e-04 0.0 
2.031193962265e-03 1.796079672523e-03 0.0 
2.171678658155e-04 -3.806839011497e-04 0.0 
3.921522632433e-04 -3.647011914403e-04 0.0 
4.646554542337e-04 -3.119774352956e-04 0.0 
1.918275006445e-04 -3.925266693483e-04 0.0 
1.288544505993e-04 -4.000669175430e-04 0.0 
5.805851859125e-04 -2.050816095614e-04 0.0 
5.172553278583e-04 -1.053700878098e-04 0.0 
1.927547607983e-03 1.347248257969e-03 0.0 
4.794336334468e-05 -4.477472599363e-04 0.0 
8.680691642206e-04 -1.874078861307e-04 0.0 
7.171665376668e-04 -2.448377234332e-04 0.0 
5.024693331358e-04 -3.070675164185e-04 0.0 
8.811865842403e-04 6.244985576875e-03 0.0 
6.123068716473e-04 -2.392818841178e-04 0.0 
2.179061849007e-04 -3.666983385118e-04 0.0 
5.407566499496e-04 -2.856483014056e-04 0.0 
3.832343005501e-04 4.061614759218e-03 0.0 
1.927066980894e-04 -3.656944761084e-04 0.0 
1.065628755799e-04 -4.471472054038e-04 0.0 
1.383591918119e-04 -4.381233684690e-04 0.0 
4.227858359524e-04 -3.633548955004e-04 0.0 
3.849334995999e-04 -3.625376560771e-04 0.0 
8.144671193810e-04 -2.015942016500e-04 0.0 
6.213919329857e-04 -2.549580235052e-04 0.0 
2.365747249715e-04 -4.016512058551e-04 0.0 
1.270717267118e-04 -4.370920412253e-04 0.0 
1.367771227892e-03 6.821190879809e-03 0.0 
1.700916203432e-04 -3.912343948955e-04 0.0 
6.082927400003e-04 -1.596117961489e-05 0.0 
2.070086246502e-03 1.344651677655e-03 0.0 
2.413757635553e-03 5.506272619361e-03 0.0 
8.288330334345e-04 3.307848350188e-03 0.0 
1.730942727723e-03 1.290947080138e-03 0.0 
1.538553725974e-03 2.927181944047e-04 0.0 
2.359828686037e-03 1.651210027815e-03 0.0 
3.011174080047e-04 -3.761343209185e-04 0.0 
4.949166893850e-04 -2.743966673030e-04 0.0 
1.755775790158e-03 7.418579007846e-04 0.0 
4.569102886591e-04 -2.231940562649e-04 0.0 
2.085017171466e-04 -3.805704107062e-04 0.0 
3.297703363980e-04 -3.369244800464e-04 0.0 
6.705547547437e-04 -2.582397000407e-04 0.0 
7.632255710146e-04 -2.187087562373e-04 0.0 
1.702324987028e-04 -3.783877642936e-04 0.0 
6.919386319500e-04 -2.048145814975e-04 0.0 
8.156492796653e-04 -2.097850953853e-04 0.0 
9.806965226763e-04 -1.305319796828e-04 0.0 
3.546678082713e-04 -3.654358126190e-04 0.0 
1.270135917988e-03 1.598564702644e-04 0.0 
9.046505105765e-04 5.255798305903e-03 0.0 
1.038046422965e-03 -9.608175529382e-05 0.0 
5.060340193589e-04 7.304881857185e-06 0.0 
3.763371490816e-04 -3.436377064734e-04 0.0 
4.550481230257e-04 4.525484511172e-05 0.0 
7.552103536457e-04 -2.067144875666e-04 0.0 
1.459344244598e-03 1.152133036487e-03 0.0 
2.829719644376e-03 3.497269466017e-03 0.0 
3.374713104765e-04 -3.788145976432e-04 0.0 
2.509404030015e-03 4.837943665741e-03 0.0 
1.063558978568e-03 2.864270916632e-03 0.0 
8.465123271858e-04 -1.630059975471e-04 0.0 
1.431938751217e-03 1.119312428006e-03 0.0 
2.560319405981e-03 4.183244966148e-03 0.0 
2.580464452976e-03 2.376937781820e-03 0.0 
2.482077808283e-04 -3.874819194204e-04 0.0 
4.193249941555e-04 1.389040057306e-03 0.0 
1.922794387854e-04 -4.104616535824e-04 0.0 
8.750923738288e-04 2.050775108078e-04 0.0 
3.422790439367e-04 2.639243955797e-03 0.0 
1.118476776107e-03 1.123679086330e-04 0.0 
7.854787984601e-04 6.718996882274e-03 0.0 
8.667375148294e-04 3.789062425128e-03 0.0 
9.228160156442e-04 -1.579766011344e-04 0.0 
1.495040394393e-03 2.024917044688e-04 0.0 
6.491169761725e-04 2.348700758785e-03 0.0 
4.709645602591e-04 -6.887289192479e-05 0.0 
9.813223469069e-04 4.779543719620e-03 0.0 
9.540925660941e-04 8.039364250070e-06 0.0 
3.167465590942e-04 -3.578245923401e-04 0.0 
1.047872347088e-03 4.299507188009e-03 0.0 
8.729441469673e-04 4.639895288699e-04 0.0 
3.753075350681e-04 2.077940594990e-05 0.0 
5.355052016254e-04 -2.694298188505e-04 0.0 
8.600497560573e-04 6.745540539155e-03 0.0 
9.080923212855e-04 7.266759149918e-03 0.0 
7.055139530526e-04 -2.196982391504e-04 0.0 
5.559822556747e-04 -7.603241848767e-05 0.0 
5.871594897192e-04 -4.591985691806e-05 0.0 
1.263434388461e-04 -4.433545210752e-04 0.0 
7.171877031196e-04 2.577058438986e-04 0.0 
1.168929571702e-03 -2.045044646500e-05 0.0 
9.788206761615e-04 -1.311023467038e-04 0.0 
2.277658951082e-03 1.560430810794e-03 0.0 
5.187473834962e-04 1.871478839520e-03 0.0 
1.489028290940e-03 2.258970795097e-03 0.0 
3.870784067614e-04 2.670073915816e-03 0.0 
2.620457863827e-03 4.130069772909e-03 0.0 
1.269826653454e-03 3.810438682654e-03 0.0 
5.156308303590e-04 -8.333772377843e-05 0.0 
4.878119074443e-04 2.286089012328e-03 0.0 
1.235096371227e-03 4.796789167828e-03 0.0 
5.681979033090e-04 -2.464723997680e-04 0.0 
1.230242583066e-03 4.236863403486e-05 0.0 
9.675060857204e-04 4.289363161173e-03 0.0 
7.119672209611e-04 2.813933893597e-03 0.0 
7.465079176611e-04 4.234534578212e-03 0.0 
9.028382332765e-04 4.763993653694e-03 0.0 
4.133687103105e-04 -1.570865316667e-05 0.0 
1.070660118981e-03 2.776033234042e-04 0.0 
5.065879695144e-04 -1.667250339062e-05 0.0 
5.465204270777e-04 -1.453857622216e-04 0.0 
2.484559744315e-03 7.398122956027e-03 0.0 
1.146577269597e-03 1.651315973703e-04 0.0 
1.710447661592e-03 4.672045785776e-03 0.0 
1.482038449297e-04 -4.016166299418e-04 0.0 
1.103407383047e-03 -6.232677520413e-05 0.0 
1.126832773506e-03 -3.237168171609e-05 0.0 
1.485235489840e-03 2.163646129721e-04 0.0 
5.149330054257e-04 -7.429163656952e-05 0.0 
1.163482855071e-03 -9.971598473523e-06 0.0 
1.424839152153e-03 2.243012533130e-04 0.0 
2.854972769207e-03 5.605856745883e-03 0.0 
5.547408644028e-04 -2.290285154953e-04 0.0 
1.322359473665e-03 5.794957836029e-03 0.0 
8.085771941097e-04 8.869952742852e-03 0.0 
-5.226281538588e-04 1.257708054990e-03 0.0 
5.765278844354e-04 -1.629507608100e-04 0.0 
1.028135237457e-03 1.040339814137e-04 0.0 
1.212930362824e-03 1.934096463615e-03 0.0 
1.441983318442e-03 1.625257037330e-04 0.0 
5.588044295515e-04 -1.871670608582e-04 0.0 
1.057731238731e-03 5.784225943091e-03 0.0 
-4.908355650630e-04 1.857013957219e-03 0.0 
1.181706066339e-03 1.456452146516e-04 0.0 
1.378619602213e-03 1.268867318239e-04 0.0 
2.879927257787e-03 5.477518309090e-03 0.0 
5.467943179312e-04 -5.464493763064e-05 0.0 
4.372550583706e-04 -2.609412410896e-04 0.0 
5.686087873088e-04 -2.593333990722e-05 0.0 
4.890789750225e-04 2.834992368947e-05 0.0 
1.340064403731e-03 2.023488078423e-04 0.0 
8.173368428644e-04 4.256505599392e-03 0.0 
1.904205881619e-03 9.111268776085e-04 0.0 
4.601227087889e-04 1.953923446940e-05 0.0 
-3.845560199363e-04 2.758241435995e-03 0.0 
1.150769609413e-03 5.293873841349e-03 0.0 
1.206537325583e-03 3.960237725867e-04 0.0 
7.950523856038e-04 3.771754929273e-03 0.0 
1.423144098141e-03 1.949124317312e-04 0.0 
1.307445337766e-03 8.149055346165e-05 0.0 
3.242464463804e-04 -2.072301261197e-04 0.0 
7.126074699181e-05 9.839714734609e-05 0.0 
6.329051938160e-04 3.248275358207e-03 0.0 
1.282060787291e-04 -3.882620171875e-04 0.0 
-9.795936566933e-06 4.153258223946e-03 0.0 
2.118318174937e-03 1.175363003647e-03 0.0 
3.480724861104e-04 2.182650109781e-03 0.0 
3.488892206933e-04 -3.094818521710e-04 0.0 
2.700941058059e-03 2.230597760000e-03 0.0 
1.147134448394e-03 4.797120910217e-03 0.0 
4.551204519412e-04 -2.193625814657e-04 0.0 
4.953142440679e-04 -1.298980350504e-04 0.0 
1.240235052167e-03 1.037259141991e-03 0.0 
2.185187566836e-04 -3.610878288722e-04 0.0 
3.652437421833e-04 -2.787225004111e-04 0.0 
2.860820635581e-04 -3.246172931057e-04 0.0 
1.456688174968e-03 1.807179692955e-04 0.0 
2.270664518933e-04 4.609860047691e-04 0.0 
5.511465346306e-04 6.828666756155e-03 0.0 
3.292010441384e-04 -1.370197033564e-05 0.0 
1.314822121929e-03 2.370682318531e-04 0.0 
1.424244846163e-03 5.273940933877e-03 0.0 
2.567604944288e-04 6.141155243498e-05 0.0 
4.256825917777e-04 3.595127557665e-05 0.0 
2.738539714548e-04 -3.496896090080e-04 0.0 
1.440599206570e-04 -3.623072364434e-04 0.0 
1.381804848870e-03 2.697814584879e-04 0.0 
8.601199569715e-04 -1.732811065342e-04 0.0 
1.282207565114e-03 3.739202839043e-04 0.0 
1.720982978711e-03 1.851587355745e-03 0.0 
1.585579922385e-03 4.223523585385e-03 0.0 
9.035810468196e-04 2.287582103151e-04 0.0 
1.065323769294e-03 5.286440677588e-03 0.0 
1.276010798204e-03 1.903764888802e-03 0.0 
1.100175846721e-03 3.818074322156e-03 0.0 
1.133297663795e-03 3.337084244862e-03 0.0 
3.721914468996e-04 4.708709955251e-04 0.0 
3.298641315225e-04 -3.206927677729e-05 0.0 
1.217035936518e-03 4.304118920519e-03 0.0 
1.796068533274e-03 5.362213454101e-04 0.0 
1.287680586694e-03 8.836873168610e-03 0.0 
7.614575143559e-04 2.040726764952e-04 0.0 
5.718836418817e-04 1.369409603284e-04 0.0 
1.476963514190e-04 -3.769650989844e-04 0.0 
1.383873790645e-03 3.844871925225e-04 0.0 
1.449650860386e-05 -4.173609636318e-04 0.0 
2.275720751131e-03 1.271373386367e-03 0.0 
1.208288659471e-03 2.008187481504e-04 0.0 
9.083093640277e-04 2.415691476178e-03 0.0 
8.669832232955e-04 1.956872650490e-03 0.0 
1.313345941957e-03 2.238247030096e-04 0.0 
9.007034373616e-04 3.321772745481e-03 0.0 
1.501369797016e-03 3.787983566048e-04 0.0 
2.239980728372e-03 1.567860287860e-03 0.0 
1.756500797342e-03 9.511147278694e-03 0.0 
1.564693779236e-03 1.678184412640e-03 0.0 
1.933584362177e-03 9.498325087335e-03 0.0 
1.948100028780e-03 9.336309983509e-03 0.0 
1.536979377786e-03 2.581683984571e-04 0.0 
1.923370946651e-03 9.106405025206e-03 0.0 
2.150886937919e-03 9.191423996824e-04 0.0 
1.877152766284e-03 8.059249690855e-04 0.0 
1.232733534717e-03 1.604534087252e-05 0.0 
4.072067928145e-04 -1.509508217106e-04 0.0 
1.381675222657e-03 1.434387816364e-04 0.0 
6.504161259717e-04 2.795264191079e-03 0.0 
1.362307083095e-03 1.772286458794e-03 0.0 
3.917979150372e-04 -6.065479093978e-05 0.0 
1.114822384827e-03 3.138263520285e-04 0.0 
9.160489686795e-04 -1.520407152732e-04 0.0 
1.052752182926e-03 3.337345588624e-03 0.0 
1.304489572786e-03 6.564610829078e-05 0.0 
2.597628365868e-04 -2.630562433326e-05 0.0 
1.018974180124e-03 3.813130847256e-03 0.0 
1.358365610554e-03 3.795137441968e-03 0.0 
1.279410910516e-03 1.331869540005e-04 0.0 
1.448111803031e-03 2.461664738617e-04 0.0 
1.912394126231e-03 1.245048805425e-03 0.0 
2.809265856524e-03 3.750234669710e-03 0.0 
3.938931406598e-04 -1.996058324364e-04 0.0 
5.529554071200e-04 5.855755994931e-05 0.0 
1.836155746523e-03 1.688100985309e-03 0.0 
2.772308560890e-03 2.502532482538e-03 0.0 
1.972885474856e-04 -2.065245617527e-05 0.0 
1.306141262382e-03 4.296744624780e-03 0.0 
1.371985367474e-03 1.693257676937e-04 0.0 
2.676179521356e-03 2.201288767354e-03 0.0 
1.040224714173e-03 1.491898013534e-04 0.0 
6.955968092196e-04 3.271871151816e-03 0.0 
1.738420760493e-03 1.214295509179e-03 0.0 
1.511663890469e-03 5.758414446183e-03 0.0 
7.384287256353e-04 5.448349648020e-05 0.0 
1.364475466093e-03 1.043903483417e-04 0.0 
9.850119722650e-04 1.213694914153e-04 0.0 
2.374962316497e-03 1.472259629964e-03 0.0 
7.110350173277e-04 2.376641267129e-03 0.0 
1.476868817678e-03 1.092042643304e-03 0.0 
1.331667161192e-03 1.139114137660e-04 0.0 
4.479026033751e-04 3.280705568249e-05 0.0 
1.730602756069e-03 7.768939192882e-04 0.0 
2.301587937351e-03 1.188568947093e-03 0.0 
1.423724463817e-03 2.840005071301e-04 0.0 
1.347644342247e-03 1.462904699966e-04 0.0 
6.917053338269e-04 7.774355694900e-06 0.0 
4.351152643250e-04 -3.569527695598e-05 0.0 
1.339463969290e-03 9.052511160592e-05 0.0 
2.486471411259e-03 4.359517751585e-03 0.0 
1.786579095899e-04 -2.331518662785e-05 0.0 
2.506683731421e-03 3.732481951201e-03 0.0 
1.954245605101e-03 1.011128909551e-03 0.0 
2.420680493812e-03 5.004790421130e-03 0.0 
2.176171847482e-03 6.304289344304e-03 0.0 
2.760051481760e-03 3.115934615254e-03 0.0 
1.179420180505e-03 2.883279006684e-04 0.0 
3.772387804130e-04 -4.315532782991e-05 0.0 
1.418540042214e-03 4.774550696656e-03 0.0 
8.031131823838e-04 1.959165099347e-03 0.0 
2.314330223226e-03 5.656707347151e-03 0.0 
1.086356624865e-03 1.506472019764e-04 0.0 
1.588415910283e-03 7.225969806504e-04 0.0 
5.374274090347e-04 2.301540526049e-03 0.0 
2.078108589689e-03 9.279937054481e-04 0.0 
2.249504805646e-03 1.144106543001e-03 0.0 
1.246933675672e-03 1.567377288344e-04 0.0 
1.490412142431e-03 4.258277154980e-03 0.0 
2.448184307870e-03 3.188358269201e-03 0.0 
2.081358266933e-03 8.220364433427e-04 0.0 
2.348473925432e-03 2.783290380362e-03 0.0 
1.398411279864e-03 3.319591512539e-04 0.0 
1.198472051497e-03 5.259109030826e-04 0.0 
1.212196682485e-03 6.182039245926e-05 0.0 
8.190074203717e-05 2.052742238174e-05 0.0 
9.948129479689e-04 1.938465897741e-03 0.0 
2.687786875587e-03 3.736902555817e-03 0.0 
1.020705248405e-03 -9.573395713088e-05 0.0 
1.383303494095e-03 5.946797205029e-04 0.0 
1.514271965163e-03 4.751384467542e-03 0.0 
4.585660759148e-04 -4.944655699382e-05 0.0 
1.666805518209e-03 6.058033413393e-04 0.0 
3.555062709694e-06 2.176403108748e-06 0.0 
1.258033930870e-04 -1.675814939345e-05 0.0 
2.647885191990e-03 1.998670514186e-03 0.0 
1.712284897256e-03 4.985821003458e-04 0.0 
1.703597738925e-03 1.034425404113e-03 0.0 
-1.486391360707e-04 4.125411302148e-05 0.0 
4.940444082712e-04 -4.252390799043e-05 0.0 
9.631477215611e-04 6.476118473838e-04 0.0 
1.611436090347e-03 5.725059668551e-03 0.0 
4.513671939464e-04 -1.782822450384e-04 0.0 
1.279709582003e-03 1.268292979433e-04 0.0 
2.373561169949e-04 -2.979930120703e-05 0.0 
2.242009403289e-03 1.063835145593e-03 0.0 
1.140888492045e-03 1.155838790135e-04 0.0 
2.649234462809e-03 2.002193871507e-03 0.0 
1.714328595071e-05 -6.966545916533e-05 0.0 
2.317858743099e-03 1.499236561285e-03 0.0 
1.333718759391e-03 2.834558156873e-04 0.0 
1.223058617057e-03 9.669584845931e-04 0.0 
2.038430968378e-03 1.229464421290e-03 0.0 
7.458340012204e-04 4.422937499049e-05 0.0 
3.599247486677e-04 -6.528086383207e-05 0.0 
4.686089113476e-04 1.842988309303e-03 0.0 
6.196269007483e-04 1.857259782166e-04 0.0 
1.325248671883e-03 3.351178379108e-04 0.0 
1.609330318847e-03 4.309194592988e-04 0.0 
2.521247436529e-03 1.757618961161e-03 0.0 
1.432152206367e-04 -2.776308348905e-05 0.0 
9.861424618003e-05 -2.135596872043e-04 0.0 
2.166355507309e-03 1.300699564965e-03 0.0 
1.329906501040e-03 5.288805109310e-03 0.0 
3.035744081061e-04 -3.637704716973e-05 0.0 
4.723887622648e-04 -2.453799076125e-05 0.0 
3.284892664095e-04 9.357060020432e-03 0.0 
2.197001972013e-04 9.357585393930e-03 0.0 
2.364379085267e-03 4.044708479656e-03 0.0 
2.402251102716e-03 1.547211056759e-03 0.0 
3.876027428187e-04 -1.631287787978e-04 0.0 
2.662592253356e-03 2.970465341656e-03 0.0 
2.113466079969e-03 8.807600333340e-04 0.0 
7.049636673499e-04 1.061812343111e-04 0.0 
1.695489641540e-03 5.418264765996e-04 0.0 
2.031608129335e-04 4.773189199509e-04 0.0 
2.151428679202e-03 7.257291833405e-03 0.0 
2.152505413634e-03 9.809903751523e-04 0.0 
4.916420124616e-04 -1.741368713704e-04 0.0 
6.898922534053e-04 1.677093286785e-04 0.0 
5.124273330533e-04 -2.341997021584e-04 0.0 
2.562852984119e-03 1.780826917987e-03 0.0 
2.829826304752e-03 2.770041324816e-03 0.0 
1.619748968990e-03 5.217419927131e-03 0.0 
2.557211360217e-03 2.618028606634e-03 0.0 
2.422744966652e-03 2.454402181247e-03 0.0 
3.850493353889e-05 -4.340118043967e-04 0.0 
4.852958597191e-04 -2.566104348835e-04 0.0 
2.607033352901e-03 3.296399617064e-03 0.0 
2.678702022782e-03 3.787565127884e-03 0.0 
2.563748043455e-03 3.555809945884e-03 0.0 
9.910864034062e-04 2.168648666738e-04 0.0 
7.695219443473e-06 -4.093491801870e-04 0.0 
3.336445645120e-04 -1.163910575445e-04 0.0 
2.533219704893e-03 1.740194021058e-03 0.0 
4.459959492310e-04 -2.599589782995e-04 0.0 
2.033497195589e-03 9.135939813840e-03 0.0 
2.013396603769e-03 8.951360227632e-03 0.0 
1.720756885464e-03 5.172834814961e-03 0.0 
2.441757464736e-04 5.569841123890e-04 0.0 
4.353784084145e-04 -2.004222197675e-04 0.0 
9.718926331386e-04 7.826427963334e-05 0.0 
3.419342746647e-04 -5.674191127070e-05 0.0 
7.057413161123e-04 3.504273443911e-04 0.0 
9.166027450113e-04 2.866428165478e-03 0.0 
3.424282104565e-04 -2.262273613573e-04 0.0 
3.190758906270e-04 -5.208917111465e-05 0.0 
6.359527523360e-05 -4.442328268852e-04 0.0 
9.416710173009e-04 3.305601492638e-05 0.0 
2.568914347122e-03 1.771462763863e-03 0.0 
4.933093429115e-05 -4.414272700656e-04 0.0 
8.457556660433e-04 2.855798797234e-03 0.0 
2.566583768659e-04 -1.117257196923e-05 0.0 
2.719600707383e-03 3.572446813596e-03 0.0 
2.780609214224e-03 2.500231719925e-03 0.0 
1.034688570508e-03 -9.861032798060e-05 0.0 
8.371845626312e-04 -8.288469703543e-05 0.0 
8.418986113398e-04 2.417587381262e-03 0.0 
7.915930830968e-04 -4.518729103864e-05 0.0 
2.394105963844e-03 1.366522798873e-03 0.0 
2.441264397505e-03 1.522946638378e-03 0.0 
-5.342106874512e-04 1.033038862211e-03 0.0 
1.703296079444e-04 -3.040355400125e-05 0.0 
1.821590351896e-03 9.518600019590e-04 0.0 
2.108926055691e-03 5.892745072238e-03 0.0 
1.629363782627e-03 7.975610313789e-04 0.0 
1.005263842220e-03 7.950872701974e-04 0.0 
1.810130572907e-03 3.061123567018e-03 0.0 
1.680597273621e-03 9.494228074335e-04 0.0 
2.151205996844e-03 8.394006959146e-03 0.0 
1.857738382801e-03 1.044858952380e-03 0.0 
2.910696104070e-04 -5.583198961638e-05 0.0 
2.393718940348e-03 1.407677082198e-03 0.0 
4.954419236941e-04 -2.157065989949e-04 0.0 
5.159746986826e-04 -1.926208636287e-04 0.0 
1.063148931809e-03 1.929447977356e-03 0.0 
8.548315269565e-04 -1.228852967396e-04 0.0 
2.710590982211e-03 2.231820354708e-03 0.0 
1.838587066215e-03 5.262715232229e-04 0.0 
7.176336133206e-04 -1.229359267173e-05 0.0 
1.981435412522e-03 7.822166395491e-04 0.0 
8.184124673987e-04 8.162918173847e-06 0.0 
1.231705380270e-03 3.780718821725e-05 0.0 
9.713004797759e-04 1.121609577138e-04 0.0 
2.642595266832e-03 3.174012336305e-03 0.0 
9.249426742715e-04 4.115425318199e-05 0.0 
2.759575755693e-03 2.884392468089e-03 0.0 
1.128335137922e-03 2.512701434453e-04 0.0 
1.209471108827e-03 2.495567451212e-04 0.0 
1.890378041140e-03 7.257209416036e-04 0.0 
1.816011404701e-03 5.622439717219e-03 0.0 
2.531614082942e-04 -4.361354254523e-05 0.0 
2.287953358045e-04 -4.659912050765e-05 0.0 
1.427233039763e-06 6.168327817929e-04 0.0 
2.664276738316e-03 2.554869206228e-03 0.0 
1.402985926052e-04 -1.466273093302e-05 0.0 
1.965527970166e-03 5.411512960264e-03 0.0 
3.389676224725e-04 -1.866999598456e-04 0.0 
-4.837461473374e-04 1.099997506263e-03 0.0 
1.943594066095e-04 -3.544760962202e-05 0.0 
7.789184286610e-04 1.187041248052e-04 0.0 
8.177395826320e-05 -1.972479822697e-04 0.0 
1.789623916096e-03 5.773399922330e-04 0.0 
1.919933286640e-03 5.554692355508e-03 0.0 
2.003484996171e-03 5.985957772264e-03 0.0 
2.501393586198e-03 1.583071676690e-03 0.0 
1.953637210981e-03 9.219759280102e-03 0.0 
2.018028510747e-03 9.231962603411e-03 0.0 
1.734119171745e-04 -3.780008802279e-05 0.0 
8.444960751322e-04 -5.587727409533e-05 0.0 
1.061086398000e-03 -6.375274752504e-05 0.0 
9.987426483207e-04 5.642573524658e-05 0.0 
1.218974399466e-03 8.426448792064e-06 0.0 
8.978547003436e-04 1.536443725203e-04 0.0 
1.874920270030e-03 9.561067773382e-03 0.0 
2.115089021291e-03 6.853910270121e-03 0.0 
2.760282464969e-04 9.647242259650e-03 0.0 
1.152499915819e-03 2.128764330626e-04 0.0 
1.797685188345e-03 5.976770085631e-04 0.0 
7.957401098438e-04 2.279306251662e-04 0.0 
7.248221475985e-05 -4.632099754055e-05 0.0 
1.265718940732e-03 4.416197947454e-05 0.0 
1.171987564988e-04 -6.618640278575e-06 0.0 
9.330589657522e-04 -4.583761237700e-05 0.0 
1.020449709371e-03 3.220329181937e-04 0.0 
2.418540510308e-03 1.395379094380e-03 0.0 
2.208725530258e-03 1.102374879028e-03 0.0 
6.871453025175e-04 6.688682631824e-05 0.0 
4.999288511256e-04 -3.214011785051e-04 0.0 
2.716815567730e-03 2.424197759310e-03 0.0 
1.149936737480e-03 -3.116827825321e-05 0.0 
2.800444119113e-03 2.724538951556e-03 0.0 
1.180899362627e-03 8.612890283045e-04 0.0 
2.014255626164e-03 8.586465518845e-04 0.0 
1.098173684076e-03 -6.542571491189e-05 0.0 
4.253157236775e-04 -1.597689112798e-04 0.0 
2.825092452892e-03 2.979960016465e-03 0.0 
-3.987251866660e-04 6.988372852003e-04 0.0 
1.820081899661e-03 5.084698794090e-04 0.0 
-3.054159253873e-04 1.077503362465e-03 0.0 
1.071354324187e-04 -4.419503742426e-04 0.0 
3.752965935637e-04 -1.844629222748e-04 0.0 
2.109636440040e-03 1.585824443028e-03 0.0 
2.126995387969e-03 5.390172535854e-03 0.0 
1.637997408005e-03 8.683460105129e-03 0.0 
1.051699446299e-04 2.304510103530e-04 0.0 
-5.534647255569e-04 8.467956987356e-04 0.0 
1.835690274821e-03 9.045754897336e-03 0.0 
1.030482553555e-03 -5.986121976795e-05 0.0 
2.893632906458e-04 -2.085262838213e-04 0.0 
2.575602895954e-03 7.202427925370e-03 0.0 
8.261186689009e-04 -1.869999638880e-04 0.0 
8.770075244917e-04 -9.446988876858e-05 0.0 
2.493982952376e-03 1.588912473493e-03 0.0 
1.738927308695e-03 4.806109222026e-04 0.0 
1.842144229631e-03 1.901719182142e-03 0.0 
1.267144732888e-04 5.252804111802e-04 0.0 
3.788735818756e-04 -2.244773022941e-04 0.0 
2.699043794966e-04 -1.897378668584e-04 0.0 
3.077895159910e-04 -3.921327112586e-04 0.0 
2.084305134817e-03 8.146371513051e-03 0.0 
2.228214775364e-03 5.282562517826e-03 0.0 
2.625211961589e-05 -8.830608073767e-05 0.0 
5.349677670523e-05 -4.449266519828e-04 0.0 
-2.393996520791e-04 9.802797131192e-05 0.0 
2.059063870087e-04 -4.288787287971e-04 0.0 
2.366783366204e-04 -1.908436832409e-04 0.0 
1.062344683678e-03 -3.112536147960e-05 0.0 
7.958112039022e-04 -1.800851849329e-04 0.0 
7.810510767150e-04 -5.266404859878e-05 0.0 
3.161676744964e-04 -1.681464291578e-04 0.0 
2.282049318819e-03 4.173127829013e-03 0.0 
2.166182237676e-04 -1.724772231909e-04 0.0 
1.121472360418e-03 2.383939897962e-05 0.0 
2.646164884132e-03 2.350095562359e-03 0.0 
1.287163696141e-03 7.855791487803e-03 0.0 
1.592609935620e-03 5.070449639309e-04 0.0 
1.849298597259e-04 -1.735631824787e-04 0.0 
2.819875872551e-04 -1.698881784690e-04 0.0 
9.793365999131e-04 7.062910595157e-03 0.0 
1.026395034299e-03 -8.971842858951e-05 0.0 
1.642172193846e-04 -1.557346916475e-04 0.0 
5.073129445954e-05 5.851005815822e-03 0.0 
5.552997373455e-05 6.825256445488e-03 0.0 
1.360386612179e-03 8.045502865225e-03 0.0 
2.589638161101e-04 -1.517699820127e-04 0.0 
6.695530077756e-04 -2.682907698585e-04 0.0 
-9.718352876797e-05 1.211339474910e-03 0.0 
9.820259081543e-04 2.888391876104e-04 0.0 
2.122589807425e-04 -4.214625613769e-04 0.0 
6.915783634305e-04 -2.661947162951e-04 0.0 
1.881236657005e-03 5.671106323476e-04 0.0 
1.565253361034e-03 9.280826902783e-03 0.0 
1.336580171991e-04 -1.568548501683e-04 0.0 
1.882648199874e-05 -3.801267179356e-04 0.0 
2.077134522794e-03 7.768747503760e-03 0.0 
2.268204954989e-04 -1.532532103521e-04 0.0 
9.599461536087e-04 -1.217197229719e-04 0.0 
3.970207888906e-04 -2.032430294857e-04 0.0 
-3.142563476114e-04 5.138129376536e-04 0.0 
6.498896221030e-05 2.996056004117e-03 0.0 
8.616343347699e-04 -1.904342647145e-04 0.0 
8.577205134364e-04 1.419735471612e-04 0.0 
2.135782792001e-03 9.752706616606e-04 0.0 
2.041742785421e-04 -1.357541056382e-04 0.0 
1.732593664696e-04 -1.371496276458e-04 0.0 
9.748209616959e-04 -6.485899126735e-05 0.0 
1.189434853513e-04 -4.114439379323e-04 0.0 
-3.228551213103e-04 6.212766448908e-04 0.0 
1.508865405903e-04 -1.202596457440e-04 0.0 
7.302289256460e-04 8.327645765604e-05 0.0 
5.547472680567e-04 -3.221978024258e-04 0.0 
2.528502446884e-03 2.068752132531e-03 0.0 
1.567106144411e-03 4.476768834360e-03 0.0 
2.559371571243e-03 2.433974618372e-03 0.0 
2.376081513677e-04 2.223090911303e-05 0.0 
-4.253500102485e-04 1.676533779715e-04 0.0 
9.683431672823e-06 2.604207181586e-04 0.0 
5.352784028301e-06 -6.602793191696e-07 0.0 
3.430115598687e-05 8.371518500372e-03 0.0 
7.147942996750e-04 -2.543097799315e-04 0.0 
2.320980526557e-03 1.249847407048e-03 0.0 
1.082940076309e-03 4.769445464279e-05 0.0 
9.864233425263e-05 -4.467743858148e-04 0.0 
-5.049628826497e-04 9.005381463628e-04 0.0 
2.744183600637e-04 2.149682093072e-03 0.0 
2.315418108608e-03 4.654783856332e-03 0.0 
1.969192492972e-03 8.684863695397e-03 0.0 
3.389003967491e-04 1.493692603992e-04 0.0 
1.638025133132e-05 -4.005404134020e-04 0.0 
3.080863680602e-04 1.228229541753e-04 0.0 
2.222379802487e-03 4.782121225237e-03 0.0 
5.829985284816e-04 -2.921182890955e-04 0.0 
2.338391462696e-03 1.243390216032e-03 0.0 
6.624892770995e-04 -2.784115611992e-04 0.0 
1.257028323571e-05 1.489613839428e-03 0.0 
5.694675574716e-04 -3.142104036016e-04 0.0 
2.300718088606e-03 3.586269813257e-03 0.0 
7.212398168313e-05 -3.406586729474e-05 0.0 
7.989534052387e-04 -2.179365559856e-04 0.0 
2.429294051393e-03 2.129364425690e-03 0.0 
-3.524609127626e-04 8.358555922713e-05 0.0 
9.510098310644e-04 -1.216519085013e-04 0.0 
1.900080320727e-03 3.519101731214e-03 0.0 
4.580183493913e-04 -3.406553745845e-04 0.0 
4.682096647998e-04 -3.529006341136e-04 0.0 
2.254378382169e-03 1.089800119025e-03 0.0 
2.441542212480e-04 -2.777173908311e-04 0.0 
2.895105613132e-04 4.515198304050e-03 0.0 
6.039226264334e-04 5.800213034930e-03 0.0 
4.050794617548e-04 -3.690533628548e-04 0.0 
9.691180019063e-04 -8.430436766065e-05 0.0 
1.962552556545e-03 7.037901661977e-04 0.0 
2.416536781217e-03 1.968915583719e-03 0.0 
1.219431993950e-03 1.351853929154e-03 0.0 
9.145110831034e-04 8.050044242654e-03 0.0 
9.490466291735e-05 4.840993113936e-03 0.0 
1.256101298240e-03 8.610128844366e-04 0.0 
9.820504036251e-04 1.175107307393e-05 0.0 
-3.446611609099e-04 1.243490518572e-03 0.0 
1.895679431479e-03 4.695687904434e-03 0.0 
8.814579368395e-04 -1.342275445730e-04 0.0 
2.403693502252e-03 2.611879858310e-03 0.0 
9.389627515544e-04 -1.141816612588e-04 0.0 
-7.158563366324e-05 4.818431396509e-04 0.0 
9.487285154971e-04 -4.717131280468e-05 0.0 
1.634274174573e-04 1.832807871342e-03 0.0 
1.869878530093e-03 5.858388050992e-04 0.0 
9.337891847267e-04 -7.593484300393e-05 0.0 
2.164024707773e-03 9.691530926724e-04 0.0 
3.563028986282e-04 6.038682189918e-03 0.0 
3.749510812276e-04 -3.743379525017e-04 0.0 
-1.776617085403e-04 9.830806427512e-04 0.0 
8.992583677631e-04 -3.869893562922e-05 0.0 
3.754735935612e-04 2.276664533428e-03 0.0 
-2.623852988846e-04 1.690236179518e-04 0.0 
2.433673249300e-05 1.958505211847e-03 0.0 
3.264679402687e-05 2.924598659372e-03 0.0 
3.795894033722e-05 -4.139761143979e-04 0.0 
8.975502342062e-04 -1.227709047837e-05 0.0 
2.575036026879e-04 -4.133851822442e-04 0.0 
2.716711655249e-04 -4.045225698327e-04 0.0 
2.116458279799e-03 1.707421839234e-03 0.0 
2.082127057907e-03 8.460821629009e-04 0.0 
2.264377440157e-03 1.706833600688e-03 0.0 
8.983458832473e-04 -1.584862352410e-04 0.0 
6.173384498088e-04 9.684842248284e-03 0.0 
1.653846756824e-04 1.259659743356e-05 0.0 
2.232624920402e-04 -4.229578048092e-04 0.0 
9.823813405583e-04 1.606370049734e-04 0.0 
2.020186400048e-03 7.493368902783e-04 0.0 
5.281672816069e-05 -4.213748499275e-04 0.0 
2.480214370518e-03 3.145732573638e-03 0.0 
1.086309277750e-03 -4.548460050835e-05 0.0 
7.164900161077e-05 -3.769174577926e-04 0.0 
8.404289397179e-04 -1.410712579924e-04 0.0 
1.398205007329e-05 -1.036919209638e-04 0.0 
2.369174740038e-03 3.450316070239e-03 0.0 
1.839239978152e-04 -4.208447126181e-04 0.0 
5.491684829019e-05 -2.018720602272e-04 0.0 
2.279567676378e-03 2.129863606160e-03 0.0 
1.501139938306e-03 4.967512852671e-04 0.0 
4.832157273626e-04 -3.444218641659e-04 0.0 
3.836468259116e-05 -3.791408142772e-04 0.0 
1.970161964385e-03 6.722246383046e-04 0.0 
2.655396444675e-05 6.360264513654e-03 0.0 
4.898711402478e-05 -3.329501215263e-04 0.0 
8.923807721443e-04 5.294852028181e-04 0.0 
6.917733872007e-04 8.678801062099e-04 0.0 
1.199561852730e-04 7.713982471863e-03 0.0 
4.712744697643e-04 1.434702379408e-03 0.0 
7.282344326632e-04 7.120633255055e-04 0.0 
9.145053396787e-04 -1.615733467392e-04 0.0 
7.517744483312e-04 -2.414967884875e-04 0.0 
4.817573723884e-04 1.059591828877e-04 0.0 
-4.211360158632e-04 2.458495803071e-04 0.0 
8.685031887851e-06 -3.908689202638e-04 0.0 
4.070182547596e-05 -1.877505118640e-04 0.0 
4.491429569858e-04 -3.522837503995e-04 0.0 
7.103928832388e-04 -2.432456527226e-04 0.0 
-2.344306768207e-04 2.960282683177e-03 0.0 
-3.109698810280e-05 3.600899999099e-03 0.0 
1.105965114912e-03 7.828878417176e-03 0.0 
9.234003525337e-04 -1.111517102078e-04 0.0 
1.035333412169e-04 -3.752029398435e-04 0.0 
1.795816355540e-03 7.355807572614e-04 0.0 
5.534962787976e-05 3.508321702840e-06 0.0 
7.301223310464e-05 5.526609988687e-06 0.0 
7.620354933071e-04 -2.363717064709e-04 0.0 
1.398784895666e-03 8.353886204621e-03 0.0 
-2.782304110916e-04 6.147413359256e-05 0.0 
-3.935993975861e-04 1.982402129029e-03 0.0 
1.931577025188e-04 -2.513443604216e-04 0.0 
-3.212158269300e-04 2.415930824822e-03 0.0 
1.993912973321e-03 7.065418250205e-04 0.0 
5.921249954051e-04 -3.073015643338e-04 0.0 
7.795971958012e-04 -2.175893666574e-04 0.0 
-5.916874283614e-05 -1.331703474439e-04 0.0 
7.464268333174e-05 2.645502676876e-03 0.0 
6.495343858309e-04 -2.851714155463e-04 0.0 
2.381253747167e-04 2.101936171353e-03 0.0 
1.962147281371e-04 3.513292262057e-03 0.0 
2.904391836459e-05 5.751949827282e-04 0.0 
1.203475854383e-05 -1.122902363623e-06 0.0 
6.327716527467e-05 7.823780749190e-03 0.0 
6.198001760886e-04 -2.925543111625e-04 0.0 
2.398294805225e-04 5.407778625353e-03 0.0 
6.254934157411e-04 -2.818545065023e-04 0.0 
2.080200753782e-05 8.829267006923e-07 0.0 
-4.636262636937e-04 1.339515175592e-03 0.0 
-4.371902349968e-04 1.630111152706e-03 0.0 
9.526676108228e-04 1.909115211897e-04 0.0 
1.044131170565e-03 8.725031045980e-03 0.0 
1.425928109979e-04 2.014828862911e-03 0.0 
2.283956550092e-03 1.988879838866e-03 0.0 
1.252883761470e-03 4.408266957784e-04 0.0 
2.009546143767e-03 2.251144801607e-03 0.0 
4.074807961535e-04 7.485914517860e-03 0.0 
3.899277362808e-04 -3.779192550694e-04 0.0 
4.189851689490e-04 -3.696284125618e-04 0.0 
1.181872147543e-04 5.327009265258e-03 0.0 
1.447435747064e-03 5.338621271849e-04 0.0 
1.741378571655e-03 8.849771187314e-03 0.0 
2.169267124912e-04 8.800106350568e-03 0.0 
2.610189187047e-04 7.938576180150e-03 0.0 
4.671921975257e-04 7.602266670650e-03 0.0 
9.955198313687e-05 -1.129794919695e-04 0.0 
3.451723797382e-04 -3.921236542911e-04 0.0 
2.133158496033e-04 1.280588989282e-03 0.0 
4.552012354078e-04 6.561309236186e-03 0.0 
4.317309650124e-04 1.270571593101e-04 0.0 
1.311636773485e-03 1.375608306504e-03 0.0 
2.518162909293e-03 2.979053278347e-03 0.0 
6.926314153042e-04 1.975398415855e-03 0.0 
1.717950869218e-04 -3.018413211119e-04 0.0 
1.613621235331e-04 -3.331120540738e-04 0.0 
2.860835858429e-04 1.466664212149e-05 0.0 
-1.385006072720e-04 -1.251052765043e-04 0.0 
4.605768427250e-05 -3.884885415527e-04 0.0 
1.594536611187e-04 6.649286723243e-05 0.0 
1.080487805123e-05 -4.301107128581e-04 0.0 
2.680663050566e-04 8.505947917646e-03 0.0 
6.063230623142e-04 1.010285421996e-04 0.0 
8.383112029420e-05 -4.456974181171e-04 0.0 
6.253961222667e-05 -4.531917932380e-04 0.0 
1.322371327060e-04 4.904744719785e-04 0.0 
9.044017599595e-04 9.389414360685e-03 0.0 
3.173381502797e-04 1.379173503025e-03 0.0 
6.273356627094e-04 1.313526107492e-04 0.0 
7.872775612438e-04 9.404801893635e-03 0.0 
-3.417418143977e-04 2.414183442496e-04 0.0 
5.041138005218e-05 1.078450709739e-03 0.0 
9.943130614483e-05 -4.398816299918e-04 0.0 
3.512260542016e-04 1.805359866383e-03 0.0 
1.619053617058e-05 3.590928053968e-07 0.0 
1.134458707313e-03 1.463133724787e-03 0.0 
2.524316845719e-04 -1.324867703201e-04 0.0 
1.583023690132e-03 7.633075286403e-03 0.0 
1.037588896257e-04 -2.997783668402e-04 0.0 
1.730119203892e-03 6.546137755517e-04 0.0 
2.301999984577e-04 7.006388197612e-05 0.0 
1.136812954130e-04 4.346349107865e-03 0.0 
2.140518113106e-04 5.857855551407e-05 0.0 
-5.892987510141e-05 -7.823467193234e-05 0.0 
9.863859701751e-05 1.968619048760e-07 0.0 
3.234353910546e-04 -2.209201772907e-04 0.0 
4.903299203243e-05 -4.329266774054e-04 0.0 
3.299275555008e-04 5.060496800753e-05 0.0 
5.685887628339e-04 1.149313385349e-03 0.0 
2.882656788822e-04 9.619533050741e-04 0.0 
5.981562481397e-04 8.681212524610e-03 0.0 
2.015305895128e-03 6.914347359091e-03 0.0 
3.903799295493e-05 1.285744241658e-03 0.0 
8.519079035612e-04 7.994643351983e-04 0.0 
8.074662530127e-05 -3.414166312095e-04 0.0 
-1.968631492449e-04 6.681295341345e-04 0.0 
1.566730544831e-03 5.628865153811e-04 0.0 
4.913071039965e-04 9.695357654209e-03 0.0 
7.620516047849e-04 1.578196654196e-03 0.0 
4.082023374283e-06 5.468058772919e-04 0.0 
4.082023374283e-06 2.307126333672e-04 0.0 
7.848153267744e-06 -4.516064819452e-04 0.0 
3.333004829735e-06 -4.494698206152e-04 0.0 
2.672815438497e-05 9.342120944381e-03 0.0 
6.361734041552e-05 9.681298961132e-03 0.0 
2.074095596699e-06 -6.573587075511e-07 0.0 
2.074095596699e-06 -2.056319969203e-06 0.0 
1.500394763033e-05 -4.469277768372e-04 0.0 
-2.792850292925e-04 -5.024832723045e-05 0.0 
9.738609025564e-05 -1.059903719508e-05 0.0 
1.248907476569e-03 5.851827889421e-04 0.0 
9.362466342687e-05 -4.324594352531e-04 0.0 
1.659137546536e-04 -6.720347469981e-07 0.0 
2.422099626044e-05 -1.571212632168e-04 0.0 
2.485443501048e-05 -2.271581130399e-04 0.0 
3.101630532889e-04 6.179425733768e-03 0.0 
1.805605219141e-04 -3.238799034102e-04 0.0 
1.941610050120e-03 7.575427729759e-04 0.0 
8.569380543823e-05 -4.424454557146e-04 0.0 
1.467552666265e-04 -2.637447847656e-04 0.0 
1.131499006717e-03 1.094707950041e-03 0.0 
1.403404885277e-05 2.421190663013e-03 0.0 
4.803786926312e-05 -2.229853673420e-04 0.0 
1.989280029455e-04 7.171112208889e-03 0.0 
1.300981444044e-03 7.613705268266e-04 0.0 
1.879347251737e-03 1.831792743139e-03 0.0 
2.239178932474e-03 2.397298146511e-03 0.0 
6.755369682496e-04 9.370856580931e-03 0.0 
1.901172093815e-03 6.523267537443e-04 0.0 
9.393807568730e-04 1.561173010855e-03 0.0 
6.646795398699e-05 -3.869059206759e-04 0.0 
3.429692322257e-05 -4.224547731095e-04 0.0 
1.535202651256e-03 9.424879973472e-04 0.0 
1.032945152331e-03 1.886364859026e-04 0.0 
1.266450238784e-04 -3.140632370811e-04 0.0 
1.634563677823e-04 5.432429390978e-03 0.0 
5.346968660232e-05 -2.903910747623e-06 0.0 
1.489772251599e-03 7.877784827246e-04 0.0 
1.268677666352e-03 6.655916102126e-04 0.0 
2.923463489533e-05 -1.227896622649e-04 0.0 
-3.877401852865e-04 5.015835784920e-04 0.0 
-2.921620337604e-04 3.384198012585e-03 0.0 
3.776222898818e-04 1.957578231590e-03 0.0 
1.676918228168e-03 7.273057743004e-03 0.0 
1.981239566092e-03 7.510959529804e-04 0.0 
2.732732498100e-04 1.752284605512e-03 0.0 
4.259958111860e-04 1.017648776785e-04 0.0 
3.550354655793e-05 -3.539772472846e-04 0.0 
6.623813600179e-05 -4.164432239594e-04 0.0 
-4.519687374901e-04 2.256945107053e-03 0.0 
2.697432509801e-04 4.983114161584e-03 0.0 
1.204291763126e-04 -3.618638034040e-04 0.0 
6.473077504991e-04 1.579818171076e-03 0.0 
5.651248710385e-05 -4.277369421531e-04 0.0 
7.327724106004e-04 1.692353173172e-04 0.0 
1.024899806890e-03 7.763132859043e-03 0.0 
5.801144388960e-04 2.117374236824e-04 0.0 
1.684049117631e-03 7.024905270751e-04 0.0 
1.843355644461e-03 7.137256221861e-03 0.0 
2.631568559661e-04 3.003017691220e-05 0.0 
5.009883868265e-04 1.148558469309e-03 0.0 
4.135357700064e-05 1.263063448403e-03 0.0 
-5.093668963351e-04 1.527305799703e-03 0.0 
6.326149002601e-04 1.945081669967e-03 0.0 
7.443392912515e-04 4.589100283546e-04 0.0 
7.353468247589e-04 1.571675794444e-04 0.0 
1.499057168216e-03 5.924991571691e-04 0.0 
2.961127075797e-05 2.002752551107e-06 0.0 
2.203764948283e-03 2.519429159954e-03 0.0 
-5.442597993639e-04 6.052945955909e-04 0.0 
-1.494679170139e-04 8.398963930995e-04 0.0 
1.620586035162e-03 1.642485260617e-03 0.0 
1.551007910228e-03 6.724565228348e-03 0.0 
5.042824063505e-05 -1.539731645403e-05 0.0 
1.340498390467e-03 5.389852892347e-04 0.0 
1.040961182640e-04 4.567786214446e-06 0.0 
2.379819312803e-04 3.988821681686e-03 0.0 
5.247867350912e-04 1.740827966285e-04 0.0 
3.222638931036e-04 2.596596831537e-05 0.0 
3.436826835796e-04 3.232714872205e-05 0.0 
8.858185421853e-05 -3.528454058946e-04 0.0 
4.654036465961e-05 2.388495852426e-06 0.0 
1.317298911983e-03 8.719847094526e-03 0.0 
1.728652152464e-04 2.040840499201e-03 0.0 
8.265528522594e-05 -4.067932512916e-04 0.0 
1.115207696530e-04 2.837677466005e-03 0.0 
2.465103957036e-04 5.383868968380e-03 0.0 
8.675141600339e-06 -4.393367430943e-04 0.0 
1.743926258031e-04 -9.206860607838e-05 0.0 
2.082163150064e-03 2.059087349160e-03 0.0 
2.317829679245e-04 1.041644841557e-03 0.0 
8.739446541898e-05 1.948885506290e-03 0.0 
6.647150901746e-04 2.108729145409e-04 0.0 
4.940758289077e-04 7.084139814901e-03 0.0 
5.895939272018e-05 -4.470825362981e-04 0.0 
-2.305785367322e-04 2.919303326701e-04 0.0 
7.100983381105e-05 -4.496539244789e-04 0.0 
1.197207147137e-04 -4.229491215430e-04 0.0 
-5.846698254537e-04 6.998218055877e-04 0.0 
1.305220874965e-04 -2.762388403994e-04 0.0 
6.350575348580e-05 -1.479193810658e-05 0.0 
1.116381541617e-03 1.544652286481e-03 0.0 
1.970947661798e-03 6.457939133299e-03 0.0 
1.816214512595e-04 -3.185848577513e-04 0.0 
2.757323731202e-04 9.610230354717e-06 0.0 
5.605270981033e-04 7.878132833362e-05 0.0 
7.093154769630e-04 2.715961243347e-04 0.0 
1.161552901066e-03 7.072863672130e-04 0.0 
1.687211270913e-03 1.527376128039e-03 0.0 
8.824647601901e-05 -4.255138160609e-04 0.0 
-1.365307778892e-04 -2.184052518728e-05 0.0 
8.916529030315e-05 -1.289293966975e-05 0.0 
1.776061365946e-05 -4.381374380234e-04 0.0 
4.003588890843e-06 -4.349531961758e-04 0.0 
-4.180206212801e-04 8.191475314706e-04 0.0 
8.590212760187e-05 -4.486833033873e-04 0.0 
1.968332880095e-04 2.259457437069e-05 0.0 
7.201161298848e-04 5.555321033251e-04 0.0 
2.444184865879e-04 1.750146548822e-03 0.0 
5.765724497294e-04 2.308530532958e-04 0.0 
6.730642174521e-04 9.017240256545e-05 0.0 
4.015588862742e-04 6.531075957633e-03 0.0 
6.041347798508e-05 2.043072139986e-04 0.0 
3.144412228668e-04 -2.622896604407e-04 0.0 
8.429063111419e-04 9.717471028534e-03 0.0 
9.673112446460e-05 -3.367563509008e-04 0.0 
6.496714189453e-05 -4.523976278946e-04 0.0 
3.120457452764e-05 2.661506793613e-07 0.0 
1.791981300995e-03 8.262504413648e-03 0.0 
5.414243202521e-05 -4.370933665491e-04 0.0 
9.128125945688e-05 -2.839429032509e-04 0.0 
8.376364373915e-04 6.966542362172e-04 0.0 
3.937246372819e-04 1.851212951663e-03 0.0 
4.829096632185e-04 8.852346373426e-04 0.0 
5.179955189035e-05 -3.668572714967e-04 0.0 
-1.912250950255e-04 1.956624673652e-04 0.0 
1.391801891939e-04 4.859183011272e-06 0.0 
1.376545504711e-05 4.911333515259e-04 0.0 
7.426879625000e-06 -1.317638026721e-06 0.0 
6.102931037184e-05 8.800977864442e-03 0.0 
5.104373608216e-04 8.221091911148e-05 0.0 
6.599410909644e-05 -4.354022350407e-04 0.0 
6.032367361074e-04 1.594155582501e-03 0.0 
6.742176548125e-05 -4.526620724554e-04 0.0 
2.456516877681e-04 3.777374440959e-05 0.0 
6.396038911326e-04 1.140295612321e-03 0.0 
-3.254016562730e-04 3.242860562351e-04 0.0 
1.474686791512e-03 7.289156570908e-04 0.0 
2.340060612911e-04 4.462634559510e-03 0.0 
1.523183388680e-04 9.917628596224e-04 0.0 
9.131746294970e-05 2.629269747419e-05 0.0 
9.653673996739e-05 5.833658496894e-03 0.0 
6.857147384082e-04 5.925833132948e-04 0.0 
8.151729030375e-04 1.566041059961e-03 0.0 
1.933295479436e-04 5.126853547211e-03 0.0 
1.095662228922e-03 9.452295346167e-04 0.0 
9.809660869894e-05 -3.285387978151e-04 0.0 
4.321883612286e-04 9.400647476486e-03 0.0 
9.899898287854e-04 4.155418079649e-04 0.0 
1.438470701451e-05 1.046192880525e-03 0.0 
1.484754335884e-05 -4.503220146450e-04 0.0 
1.184428501060e-04 9.394480319108e-03 0.0 
6.694677802271e-06 -4.693008021085e-06 0.0 
1.057407664656e-04 -4.334906634316e-04 0.0 
6.681249129182e-04 1.268726319308e-04 0.0 
1.015284594024e-03 1.593546984954e-03 0.0 
1.779307868510e-04 1.288649325820e-03 0.0 
6.828520658256e-05 -4.292638846899e-04 0.0 
-2.397480161759e-04 6.135875936172e-04 0.0 
1.022756546155e-05 -2.090761854736e-04 0.0 
9.390887586600e-05 3.464450887881e-03 0.0 
-3.517845693153e-04 2.019217420963e-05 0.0 
3.735098182053e-04 8.976748152783e-04 0.0 
1.736866020396e-04 6.023661865735e-03 0.0 
1.791577872716e-04 -3.506097446438e-04 0.0 
3.248683301809e-04 6.741498922405e-03 0.0 
7.600307362385e-04 3.233435496904e-04 0.0 
1.919597689996e-05 -1.907818914125e-04 0.0 
-5.319729380339e-04 7.451372081263e-04 0.0 
1.124530897295e-04 -3.502071913588e-04 0.0 
1.328976989463e-04 -2.455872089096e-04 0.0 
8.968411438408e-06 -1.728631981701e-04 0.0 
8.792521004871e-04 2.862712920738e-04 0.0 
6.865109824628e-05 -2.514373916056e-04 0.0 
8.856154502695e-05 -2.290050246105e-04 0.0 
8.191809825491e-05 -4.512062490129e-04 0.0 
1.795561724324e-04 1.443587995121e-06 0.0 
1.554872191072e-03 1.020158649868e-03 0.0 
-8.374518603367e-05 5.915510879226e-04 0.0 
2.406813868734e-05 9.905203547594e-04 0.0 
1.204746183057e-05 -3.954326078604e-06 0.0 
1.158548200623e-04 8.852954237423e-03 0.0 
1.307940834456e-04 6.240503006859e-03 0.0 
9.458987079752e-05 -2.558206106607e-04 0.0 
1.059437528745e-04 -2.434571459512e-04 0.0 
6.484227808304e-05 -2.338066267907e-04 0.0 
8.392479954039e-04 1.670564274509e-04 0.0 
1.301303492822e-04 -3.571390721273e-04 0.0 
1.326626638865e-03 8.657804619601e-04 0.0 
2.117328364471e-04 7.732479078218e-03 0.0 
4.497382961085e-04 1.179312779980e-03 0.0 
7.948647097900e-04 1.461179343515e-04 0.0 
3.807220784019e-04 6.937554383558e-03 0.0 
1.459361655788e-03 1.381603430977e-03 0.0 
8.922353901537e-04 3.085457139645e-04 0.0 
6.781008879354e-04 2.375475503979e-04 0.0 
-4.641756605127e-04 6.785694094831e-04 0.0 
1.488783869433e-03 1.336420737402e-03 0.0 
1.270136149106e-03 1.075632410135e-03 0.0 
7.792369574893e-05 -4.517413695308e-04 0.0 
1.053106377393e-04 -2.704447292528e-04 0.0 
-4.617894328320e-04 5.887794100121e-04 0.0 
1.223331633094e-03 1.136402226536e-03 0.0 
1.722727100941e-04 1.333031977490e-02 0.0 
2.185156417065e-04 1.366919304580e-02 0.0 
2.788628906357e-04 1.332662812722e-02 0.0 
3.218515621665e-04 1.366362653590e-02 0.0 
3.856782150766e-04 1.332504778001e-02 0.0 
4.298718892113e-04 1.366338166051e-02 0.0 
4.929535712886e-04 1.332633218756e-02 0.0 
5.386146819871e-04 1.366516929985e-02 0.0 
5.978994018473e-04 1.332798894102e-02 0.0 
6.437800300263e-04 1.366583400558e-02 0.0 
6.979653565843e-04 1.332742808037e-02 0.0 
7.423130695933e-04 1.366276742689e-02 0.0 
7.909729096532e-04 1.332195858732e-02 0.0 
8.318482335290e-04 1.365315675561e-02 0.0 
8.750560864572e-04 1.330859879075e-02 0.0 
9.102769143733e-04 1.363392535042e-02 0.0 
7.055504546854e-04 1.017182037494e-02 0.0 
9.483664055486e-04 1.328400205330e-02 0.0 
9.752493847196e-04 1.360127526152e-02 0.0 
3.007603158131e-04 1.031178542122e-02 0.0 
1.008860760891e-03 1.324377672155e-02 0.0 
1.024076381150e-03 1.355020903527e-02 0.0 
8.707082428934e-04 1.037218514630e-02 0.0 
1.054471739715e-03 1.318225368606e-02 0.0 
1.054016614197e-03 1.347423318211e-02 0.0 
1.083307311089e-03 1.309214358070e-02 0.0 
1.062446770689e-03 1.336513363676e-02 0.0 
1.093762302066e-03 1.296456548939e-02 0.0 
1.046854528804e-03 1.321341967341e-02 0.0 
9.226170579384e-04 9.472044126569e-03 0.0 
1.084786860382e-03 1.278871758388e-02 0.0 
1.004299117868e-03 1.300601185152e-02 0.0 
1.055709367072e-03 1.254895280853e-02 0.0 
9.332923409569e-04 1.272557645969e-02 0.0 
8.348703280074e-04 1.234596232309e-02 0.0 
1.009407697944e-03 1.222456734643e-02 0.0 
7.183133502883e-04 1.183533765427e-02 0.0 
9.516480922399e-04 1.178489351887e-02 0.0 
5.992388011853e-04 1.114500218026e-02 0.0 
8.956421725115e-04 1.119217965111e-02 0.0 
5.178269190661e-04 9.612009172848e-03 0.0 
2.358695967036e-05 1.349839760845e-02 0.0 
1.174540206303e-04 1.349878281943e-02 0.0 
7.771681716450e-05 1.384292561463e-02 0.0 
6.332416313612e-05 1.315425481326e-02 0.0 
4.370149187458e-04 8.981379592318e-03 0.0 
1.565032983313e-04 1.264701849105e-02 0.0 
1.935341353260e-04 1.230814079453e-02 0.0 
2.696507960180e-04 1.264887715980e-02 0.0 
3.052663629351e-04 1.230943621949e-02 0.0 
3.783051104628e-04 1.264860843101e-02 0.0 
4.142399465361e-04 1.231070280705e-02 0.0 
4.846947332271e-04 1.265009268309e-02 0.0 
5.209402270817e-04 1.231325276256e-02 0.0 
5.884837850033e-04 1.265231190820e-02 0.0 
6.248218587615e-04 1.231565562566e-02 0.0 
6.884228021634e-04 1.265292673327e-02 0.0 
7.248929909817e-04 1.231555640099e-02 0.0 
7.830953854624e-04 1.264924890851e-02 0.0 
8.200833168810e-04 1.231011157839e-02 0.0 
8.711686940001e-04 1.263826329234e-02 0.0 
1.404532151673e-03 1.048166014184e-02 0.0 
9.093407551867e-04 1.229612142215e-02 0.0 
1.464936283444e-03 1.053626030677e-02 0.0 
9.513176388191e-04 1.261653362344e-02 0.0 
9.916982359768e-04 1.226961563275e-02 0.0 
1.022358378878e-03 1.257958552265e-02 0.0 
1.066460196041e-03 1.222541472417e-02 0.0 
1.083357936619e-03 1.252165057387e-02 0.0 
1.133290889361e-03 1.215690893762e-02 0.0 
1.218937928201e-03 1.068767459831e-02 0.0 
1.133695389348e-03 1.243542244839e-02 0.0 
1.192323526375e-03 1.205579049315e-02 0.0 
1.173250979492e-03 1.231194347808e-02 0.0 
1.244551568791e-03 1.191179942220e-02 0.0 
1.202995222943e-03 1.213971934397e-02 0.0 
1.292299757811e-03 1.171076364251e-02 0.0 
1.225501644454e-03 1.190270283943e-02 0.0 
1.340139335061e-03 1.143405187179e-02 0.0 
1.393537422189e-03 1.105521090410e-02 0.0 
1.246462414667e-03 1.157929272764e-02 0.0 
1.537890197537e-03 1.001453126530e-02 0.0 
1.273260469700e-03 1.113941671867e-02 0.0 
1.352295974064e-03 1.022054572178e-02 0.0 
1.913667044357e-05 1.247236474111e-02 0.0 
9.723431964066e-05 1.247481542567e-02 0.0 
5.749711617490e-05 1.213359146344e-02 0.0 
5.887387390934e-05 1.281358870334e-02 0.0 
1.300469660083e-03 9.952233740615e-03 0.0 
1.473853102954e-04 1.128760356835e-02 0.0 
1.878241620753e-04 1.162848472302e-02 0.0 
2.584561350592e-04 1.129146720911e-02 0.0 
2.997816752270e-04 1.163168234031e-02 0.0 
3.678004246213e-04 1.129433386546e-02 0.0 
4.092199484027e-04 1.163418212069e-02 0.0 
4.753413264721e-04 1.129778802987e-02 0.0 
5.166068184601e-04 1.163746879570e-02 0.0 
5.813668322023e-04 1.130142520398e-02 0.0 
6.220383145820e-04 1.164055288830e-02 0.0 
6.859067708205e-04 1.130368364788e-02 0.0 
7.251605038183e-04 1.164141605296e-02 0.0 
7.886736060001e-04 1.130214171209e-02 0.0 
1.680558700635e-03 1.030077134445e-02 0.0 
8.253940245821e-04 1.163714473000e-02 0.0 
8.894358873895e-04 1.129388943382e-02 0.0 
1.584988297226e-03 1.056164699376e-02 0.0 
9.222972408751e-04 1.162471441203e-02 0.0 
9.880251444309e-04 1.127550097078e-02 0.0 
1.686997871623e-03 1.025885417240e-02 0.0 
1.015449255900e-03 1.159998999021e-02 0.0 
1.084437024097e-03 1.124216034596e-02 0.0 
1.104787821337e-03 1.155761519002e-02 0.0 
1.179150252552e-03 1.118794874640e-02 0.0 
1.190755579998e-03 1.149100664430e-02 0.0 
1.790251182752e-03 9.937022758858e-03 0.0 
1.273155177723e-03 1.110553312715e-02 0.0 
1.274318624112e-03 1.139180346522e-02 0.0 
1.357377741231e-03 1.124937456594e-02 0.0 
1.368072249669e-03 1.098553159390e-02 0.0 
1.443180479698e-03 1.104981882707e-02 0.0 
1.466702117270e-03 1.081634967228e-02 0.0 
1.534739243099e-03 1.077394971832e-02 0.0 
1.570982274379e-03 1.058165587052e-02 0.0 
1.694680779343e-03 1.019789840816e-02 0.0 
1.837713874324e-05 1.145434315207e-02 0.0 
9.306677315503e-05 1.145566103510e-02 0.0 
5.673758447457e-05 1.179419592407e-02 0.0 
5.470632742371e-05 1.111580826311e-02 0.0 
1.694905718051e-03 1.008830590661e-02 0.0 
1.459140505946e-04 1.060922485946e-02 0.0 
1.835978536169e-04 1.027118420261e-02 0.0 
2.557010863015e-04 1.061254539759e-02 0.0 
2.941589694040e-04 1.027477371401e-02 0.0 
3.649327675561e-04 1.061634705069e-02 0.0 
4.042504529459e-04 1.027905430281e-02 0.0 
4.732394880806e-04 1.062064702678e-02 0.0 
5.140454526090e-04 1.028360162860e-02 0.0 
5.809073047427e-04 1.062469903997e-02 0.0 
6.238084364417e-04 1.028727910628e-02 0.0 
6.881364201397e-04 1.062713602987e-02 0.0 
7.340056595275e-04 1.028857882785e-02 0.0 
1.731693353919e-03 9.795678396356e-03 0.0 
7.952891123902e-04 1.062585210499e-02 0.0 
1.705025660812e-03 9.693924761228e-03 0.0 
8.447883970310e-04 1.028467864895e-02 0.0 
9.022147534482e-04 1.061771295987e-02 0.0 
9.566440224134e-04 1.027261939709e-02 0.0 
1.009593059910e-03 1.059958242979e-02 0.0 
1.070318814161e-03 1.024840389989e-02 0.0 
1.117738666878e-03 1.056649279663e-02 0.0 
1.186311341013e-03 1.020623218181e-02 0.0 
1.689841551058e-03 1.008367420060e-02 0.0 
1.227372129447e-03 1.051223328752e-02 0.0 
1.305828249813e-03 1.013928255647e-02 0.0 
1.340005970643e-03 1.042952449820e-02 0.0 
1.430580272100e-03 1.003925071171e-02 0.0 
1.562568848922e-03 9.895172406339e-03 0.0 
1.457483104738e-03 1.030898746934e-02 0.0 
1.582482369893e-03 1.013869163723e-02 0.0 
1.824675019817e-03 9.508468657080e-03 0.0 
1.782823216956e-03 9.796464461322e-03 0.0 
1.800108192471e-05 1.043726210138e-02 0.0 
9.121945663573e-05 1.043823562005e-02 0.0 
5.489026795526e-05 1.009873616448e-02 0.0 
5.433027060518e-05 1.077676155695e-02 0.0 
1.816222568801e-03 9.779350585325e-03 0.0 

VECTORS element_materi_displacement float
0.0 0.0 0.0 
0.0 0.0 0.0 
0.0 0.0 0.0 
0.0 0.0 0.0 
0.0 0.0 0.0 
0.0 0.0 0.0 
0.0 0.0 0.0 
0.0 0.0 0.0 
0.0 0.0 0.0 
0.0 0.0 0.0 
0.0 0.0 0.0 
0.0 0.0 0.0 
0.0 0.0 0.0 
0.0 0.0 0.0 
0.0 0.0 0.0 
0.0 0.0 0.0 
0.0 0.0 0.0 
0.0 0.0 0.0 
0.0 0.0 0.0 
0.0 0.0 0.0 
0.0 0.0 0.0 
0.0 0.0 0.0 
0.0 0.0 0.0 
0.0 0.0 0.0 
0.0 0.0 0.0 
0.0 0.0 0.0 
0.0 0.0 0.0 
0.0 0.0 0.0 
0.0 0.0 0.0 
0.0 0.0 0.0 
0.0 0.0 0.0 
0.0 0.0 0.0 
0.0 0.0 0.0 
0.0 0.0 0.0 
0.0 0.0 0.0 
0.0 0.0 0.0 
0.0 0.0 0.0 
0.0 0.0 0.0 
0.0 0.0 0.0 
0.0 0.0 0.0 
0.0 0.0 0.0 
0.0 0.0 0.0 
0.0 0.0 0.0 
0.0 0.0 0.0 
0.0 0.0 0.0 
0.0 0.0 0.0 
0.0 0.0 0.0 
0.0 0.0 0.0 
0.0 0.0 0.0 
0.0 0.0 0.0 
0.0 0.0 0.0 
0.0 0.0 0.0 
0.0 0.0 0.0 
0.0 0.0 0.0 
0.0 0.0 0.0 
0.0 0.0 0.0 
0.0 0.0 0.0 
0.0 0.0 0.0 
0.0 0.0 0.0 
0.0 0.0 0.0 
0.0 0.0 0.0 
0.0 0.0 0.0 
0.0 0.0 0.0 
0.0 0.0 0.0 
0.0 0.0 0.0 
0.0 0.0 0.0 
0.0 0.0 0.0 
0.0 0.0 0.0 
0.0 0.0 0.0 
0.0 0.0 0.0 
0.0 0.0 0.0 
0.0 0.0 0.0 
0.0 0.0 0.0 
0.0 0.0 0.0 
0.0 0.0 0.0 
0.0 0.0 0.0 
0.0 0.0 0.0 
0.0 0.0 0.0 
0.0 0.0 0.0 
0.0 0.0 0.0 
0.0 0.0 0.0 
0.0 0.0 0.0 
0.0 0.0 0.0 
0.0 0.0 0.0 
0.0 0.0 0.0 
0.0 0.0 0.0 
0.0 0.0 0.0 
0.0 0.0 0.0 
0.0 0.0 0.0 
0.0 0.0 0.0 
0.0 0.0 0.0 
0.0 0.0 0.0 
0.0 0.0 0.0 
0.0 0.0 0.0 
0.0 0.0 0.0 
0.0 0.0 0.0 
0.0 0.0 0.0 
0.0 0.0 0.0 
0.0 0.0 0.0 
0.0 0.0 0.0 
0.0 0.0 0.0 
0.0 0.0 0.0 
0.0 0.0 0.0 
0.0 0.0 0.0 
0.0 0.0 0.0 
0.0 0.0 0.0 
0.0 0.0 0.0 
0.0 0.0 0.0 
0.0 0.0 0.0 
0.0 0.0 0.0 
0.0 0.0 0.0 
0.0 0.0 0.0 
0.0 0.0 0.0 
0.0 0.0 0.0 
0.0 0.0 0.0 
0.0 0.0 0.0 
0.0 0.0 0.0 
0.0 0.0 0.0 
0.0 0.0 0.0 
0.0 0.0 0.0 
0.0 0.0 0.0 
0.0 0.0 0.0 
0.0 0.0 0.0 
0.0 0.0 0.0 
0.0 0.0 0.0 
0.0 0.0 0.0 
0.0 0.0 0.0 
0.0 0.0 0.0 
0.0 0.0 0.0 
0.0 0.0 0.0 
0.0 0.0 0.0 
0.0 0.0 0.0 
0.0 0.0 0.0 
0.0 0.0 0.0 
0.0 0.0 0.0 
0.0 0.0 0.0 
0.0 0.0 0.0 
0.0 0.0 0.0 
0.0 0.0 0.0 
0.0 0.0 0.0 
0.0 0.0 0.0 
0.0 0.0 0.0 
0.0 0.0 0.0 
0.0 0.0 0.0 
0.0 0.0 0.0 
0.0 0.0 0.0 
0.0 0.0 0.0 
0.0 0.0 0.0 
0.0 0.0 0.0 
0.0 0.0 0.0 
0.0 0.0 0.0 
0.0 0.0 0.0 
0.0 0.0 0.0 
0.0 0.0 0.0 
0.0 0.0 0.0 
0.0 0.0 0.0 
0.0 0.0 0.0 
0.0 0.0 0.0 
0.0 0.0 0.0 
0.0 0.0 0.0 
0.0 0.0 0.0 
0.0 0.0 0.0 
0.0 0.0 0.0 
0.0 0.0 0.0 
0.0 0.0 0.0 
0.0 0.0 0.0 
0.0 0.0 0.0 
0.0 0.0 0.0 
0.0 0.0 0.0 
0.0 0.0 0.0 
0.0 0.0 0.0 
0.0 0.0 0.0 
0.0 0.0 0.0 
0.0 0.0 0.0 
0.0 0.0 0.0 
0.0 0.0 0.0 
0.0 0.0 0.0 
0.0 0.0 0.0 
0.0 0.0 0.0 
0.0 0.0 0.0 
0.0 0.0 0.0 
0.0 0.0 0.0 
0.0 0.0 0.0 
0.0 0.0 0.0 
0.0 0.0 0.0 
0.0 0.0 0.0 
0.0 0.0 0.0 
0.0 0.0 0.0 
0.0 0.0 0.0 
0.0 0.0 0.0 
0.0 0.0 0.0 
0.0 0.0 0.0 
0.0 0.0 0.0 
0.0 0.0 0.0 
0.0 0.0 0.0 
0.0 0.0 0.0 
0.0 0.0 0.0 
0.0 0.0 0.0 
0.0 0.0 0.0 
0.0 0.0 0.0 
0.0 0.0 0.0 
0.0 0.0 0.0 
0.0 0.0 0.0 
0.0 0.0 0.0 
0.0 0.0 0.0 
0.0 0.0 0.0 
0.0 0.0 0.0 
0.0 0.0 0.0 
0.0 0.0 0.0 
0.0 0.0 0.0 
0.0 0.0 0.0 
0.0 0.0 0.0 
0.0 0.0 0.0 
0.0 0.0 0.0 
0.0 0.0 0.0 
0.0 0.0 0.0 
0.0 0.0 0.0 
0.0 0.0 0.0 
0.0 0.0 0.0 
0.0 0.0 0.0 
0.0 0.0 0.0 
0.0 0.0 0.0 
0.0 0.0 0.0 
0.0 0.0 0.0 
0.0 0.0 0.0 
0.0 0.0 0.0 
0.0 0.0 0.0 
0.0 0.0 0.0 
0.0 0.0 0.0 
0.0 0.0 0.0 
0.0 0.0 0.0 
0.0 0.0 0.0 
0.0 0.0 0.0 
0.0 0.0 0.0 
0.0 0.0 0.0 
0.0 0.0 0.0 
0.0 0.0 0.0 
0.0 0.0 0.0 
0.0 0.0 0.0 
0.0 0.0 0.0 
0.0 0.0 0.0 
0.0 0.0 0.0 
0.0 0.0 0.0 
0.0 0.0 0.0 
0.0 0.0 0.0 
0.0 0.0 0.0 
0.0 0.0 0.0 
0.0 0.0 0.0 
0.0 0.0 0.0 
0.0 0.0 0.0 
0.0 0.0 0.0 
0.0 0.0 0.0 
0.0 0.0 0.0 
0.0 0.0 0.0 
0.0 0.0 0.0 
0.0 0.0 0.0 
0.0 0.0 0.0 
0.0 0.0 0.0 
0.0 0.0 0.0 
0.0 0.0 0.0 
0.0 0.0 0.0 
0.0 0.0 0.0 
0.0 0.0 0.0 
0.0 0.0 0.0 
0.0 0.0 0.0 
0.0 0.0 0.0 
0.0 0.0 0.0 
0.0 0.0 0.0 
0.0 0.0 0.0 
0.0 0.0 0.0 
0.0 0.0 0.0 
0.0 0.0 0.0 
0.0 0.0 0.0 
0.0 0.0 0.0 
0.0 0.0 0.0 
0.0 0.0 0.0 
0.0 0.0 0.0 
0.0 0.0 0.0 
0.0 0.0 0.0 
0.0 0.0 0.0 
0.0 0.0 0.0 
0.0 0.0 0.0 
0.0 0.0 0.0 
0.0 0.0 0.0 
0.0 0.0 0.0 
0.0 0.0 0.0 
0.0 0.0 0.0 
0.0 0.0 0.0 
0.0 0.0 0.0 
0.0 0.0 0.0 
0.0 0.0 0.0 
0.0 0.0 0.0 
0.0 0.0 0.0 
0.0 0.0 0.0 
0.0 0.0 0.0 
0.0 0.0 0.0 
0.0 0.0 0.0 
0.0 0.0 0.0 
0.0 0.0 0.0 
0.0 0.0 0.0 
0.0 0.0 0.0 
0.0 0.0 0.0 
0.0 0.0 0.0 
0.0 0.0 0.0 
0.0 0.0 0.0 
0.0 0.0 0.0 
0.0 0.0 0.0 
0.0 0.0 0.0 
0.0 0.0 0.0 
0.0 0.0 0.0 
0.0 0.0 0.0 
0.0 0.0 0.0 
0.0 0.0 0.0 
0.0 0.0 0.0 
0.0 0.0 0.0 
0.0 0.0 0.0 
0.0 0.0 0.0 
0.0 0.0 0.0 
0.0 0.0 0.0 
0.0 0.0 0.0 
0.0 0.0 0.0 
0.0 0.0 0.0 
0.0 0.0 0.0 
0.0 0.0 0.0 
0.0 0.0 0.0 
0.0 0.0 0.0 
0.0 0.0 0.0 
0.0 0.0 0.0 
0.0 0.0 0.0 
0.0 0.0 0.0 
0.0 0.0 0.0 
0.0 0.0 0.0 
0.0 0.0 0.0 
0.0 0.0 0.0 
0.0 0.0 0.0 
0.0 0.0 0.0 
0.0 0.0 0.0 
0.0 0.0 0.0 
0.0 0.0 0.0 
0.0 0.0 0.0 
0.0 0.0 0.0 
0.0 0.0 0.0 
0.0 0.0 0.0 
0.0 0.0 0.0 
0.0 0.0 0.0 
0.0 0.0 0.0 
0.0 0.0 0.0 
0.0 0.0 0.0 
0.0 0.0 0.0 
0.0 0.0 0.0 
0.0 0.0 0.0 
0.0 0.0 0.0 
0.0 0.0 0.0 
0.0 0.0 0.0 
0.0 0.0 0.0 
0.0 0.0 0.0 
0.0 0.0 0.0 
0.0 0.0 0.0 
0.0 0.0 0.0 
0.0 0.0 0.0 
0.0 0.0 0.0 
0.0 0.0 0.0 
0.0 0.0 0.0 
0.0 0.0 0.0 
0.0 0.0 0.0 
0.0 0.0 0.0 
0.0 0.0 0.0 
0.0 0.0 0.0 
0.0 0.0 0.0 
0.0 0.0 0.0 
0.0 0.0 0.0 
0.0 0.0 0.0 
0.0 0.0 0.0 
0.0 0.0 0.0 
0.0 0.0 0.0 
0.0 0.0 0.0 
0.0 0.0 0.0 
0.0 0.0 0.0 
0.0 0.0 0.0 
0.0 0.0 0.0 
0.0 0.0 0.0 
0.0 0.0 0.0 
0.0 0.0 0.0 
0.0 0.0 0.0 
0.0 0.0 0.0 
0.0 0.0 0.0 
0.0 0.0 0.0 
0.0 0.0 0.0 
0.0 0.0 0.0 
0.0 0.0 0.0 
0.0 0.0 0.0 
0.0 0.0 0.0 
0.0 0.0 0.0 
0.0 0.0 0.0 
0.0 0.0 0.0 
0.0 0.0 0.0 
0.0 0.0 0.0 
0.0 0.0 0.0 
0.0 0.0 0.0 
0.0 0.0 0.0 
0.0 0.0 0.0 
0.0 0.0 0.0 
0.0 0.0 0.0 
0.0 0.0 0.0 
0.0 0.0 0.0 
0.0 0.0 0.0 
0.0 0.0 0.0 
0.0 0.0 0.0 
0.0 0.0 0.0 
0.0 0.0 0.0 
0.0 0.0 0.0 
0.0 0.0 0.0 
0.0 0.0 0.0 
0.0 0.0 0.0 
0.0 0.0 0.0 
0.0 0.0 0.0 
0.0 0.0 0.0 
0.0 0.0 0.0 
0.0 0.0 0.0 
0.0 0.0 0.0 
0.0 0.0 0.0 
0.0 0.0 0.0 
0.0 0.0 0.0 
0.0 0.0 0.0 
0.0 0.0 0.0 
0.0 0.0 0.0 
0.0 0.0 0.0 
0.0 0.0 0.0 
0.0 0.0 0.0 
0.0 0.0 0.0 
0.0 0.0 0.0 
0.0 0.0 0.0 
0.0 0.0 0.0 
0.0 0.0 0.0 
0.0 0.0 0.0 
0.0 0.0 0.0 
0.0 0.0 0.0 
0.0 0.0 0.0 
0.0 0.0 0.0 
0.0 0.0 0.0 
0.0 0.0 0.0 
0.0 0.0 0.0 
0.0 0.0 0.0 
0.0 0.0 0.0 
0.0 0.0 0.0 
0.0 0.0 0.0 
0.0 0.0 0.0 
0.0 0.0 0.0 
0.0 0.0 0.0 
0.0 0.0 0.0 
0.0 0.0 0.0 
0.0 0.0 0.0 
0.0 0.0 0.0 
0.0 0.0 0.0 
0.0 0.0 0.0 
0.0 0.0 0.0 
0.0 0.0 0.0 
0.0 0.0 0.0 
0.0 0.0 0.0 
0.0 0.0 0.0 
0.0 0.0 0.0 
0.0 0.0 0.0 
0.0 0.0 0.0 
0.0 0.0 0.0 
0.0 0.0 0.0 
0.0 0.0 0.0 
0.0 0.0 0.0 
0.0 0.0 0.0 
0.0 0.0 0.0 
0.0 0.0 0.0 
0.0 0.0 0.0 
0.0 0.0 0.0 
0.0 0.0 0.0 
0.0 0.0 0.0 
0.0 0.0 0.0 
0.0 0.0 0.0 
0.0 0.0 0.0 
0.0 0.0 0.0 
0.0 0.0 0.0 
0.0 0.0 0.0 
0.0 0.0 0.0 
0.0 0.0 0.0 
0.0 0.0 0.0 
0.0 0.0 0.0 
0.0 0.0 0.0 
0.0 0.0 0.0 
0.0 0.0 0.0 
0.0 0.0 0.0 
0.0 0.0 0.0 
0.0 0.0 0.0 
0.0 0.0 0.0 
0.0 0.0 0.0 
0.0 0.0 0.0 
0.0 0.0 0.0 
0.0 0.0 0.0 
0.0 0.0 0.0 
0.0 0.0 0.0 
0.0 0.0 0.0 
0.0 0.0 0.0 
0.0 0.0 0.0 
0.0 0.0 0.0 
0.0 0.0 0.0 
0.0 0.0 0.0 
0.0 0.0 0.0 
0.0 0.0 0.0 
0.0 0.0 0.0 
0.0 0.0 0.0 
0.0 0.0 0.0 
0.0 0.0 0.0 
0.0 0.0 0.0 
0.0 0.0 0.0 
0.0 0.0 0.0 
0.0 0.0 0.0 
0.0 0.0 0.0 
0.0 0.0 0.0 
0.0 0.0 0.0 
0.0 0.0 0.0 
0.0 0.0 0.0 
0.0 0.0 0.0 
0.0 0.0 0.0 
0.0 0.0 0.0 
0.0 0.0 0.0 
0.0 0.0 0.0 
0.0 0.0 0.0 
0.0 0.0 0.0 
0.0 0.0 0.0 
0.0 0.0 0.0 
0.0 0.0 0.0 
0.0 0.0 0.0 
0.0 0.0 0.0 
0.0 0.0 0.0 
0.0 0.0 0.0 
0.0 0.0 0.0 
0.0 0.0 0.0 
0.0 0.0 0.0 
0.0 0.0 0.0 
0.0 0.0 0.0 
0.0 0.0 0.0 
0.0 0.0 0.0 
0.0 0.0 0.0 
0.0 0.0 0.0 
0.0 0.0 0.0 
0.0 0.0 0.0 
0.0 0.0 0.0 
0.0 0.0 0.0 
0.0 0.0 0.0 
0.0 0.0 0.0 
0.0 0.0 0.0 
0.0 0.0 0.0 
0.0 0.0 0.0 
0.0 0.0 0.0 
0.0 0.0 0.0 
0.0 0.0 0.0 
0.0 0.0 0.0 
0.0 0.0 0.0 
0.0 0.0 0.0 
0.0 0.0 0.0 
0.0 0.0 0.0 
0.0 0.0 0.0 
0.0 0.0 0.0 
0.0 0.0 0.0 
0.0 0.0 0.0 
0.0 0.0 0.0 
0.0 0.0 0.0 
0.0 0.0 0.0 
0.0 0.0 0.0 
0.0 0.0 0.0 
0.0 0.0 0.0 
0.0 0.0 0.0 
0.0 0.0 0.0 
0.0 0.0 0.0 
0.0 0.0 0.0 
0.0 0.0 0.0 
0.0 0.0 0.0 
0.0 0.0 0.0 
0.0 0.0 0.0 
0.0 0.0 0.0 
0.0 0.0 0.0 
0.0 0.0 0.0 
0.0 0.0 0.0 
0.0 0.0 0.0 
0.0 0.0 0.0 
0.0 0.0 0.0 
0.0 0.0 0.0 
0.0 0.0 0.0 
0.0 0.0 0.0 
0.0 0.0 0.0 
0.0 0.0 0.0 
0.0 0.0 0.0 
0.0 0.0 0.0 
0.0 0.0 0.0 
0.0 0.0 0.0 
0.0 0.0 0.0 
0.0 0.0 0.0 
0.0 0.0 0.0 
0.0 0.0 0.0 
0.0 0.0 0.0 
0.0 0.0 0.0 
0.0 0.0 0.0 
0.0 0.0 0.0 
0.0 0.0 0.0 
0.0 0.0 0.0 
0.0 0.0 0.0 
0.0 0.0 0.0 
0.0 0.0 0.0 
0.0 0.0 0.0 
0.0 0.0 0.0 
0.0 0.0 0.0 
0.0 0.0 0.0 
0.0 0.0 0.0 
0.0 0.0 0.0 
0.0 0.0 0.0 
0.0 0.0 0.0 
0.0 0.0 0.0 
0.0 0.0 0.0 
0.0 0.0 0.0 
0.0 0.0 0.0 
0.0 0.0 0.0 
0.0 0.0 0.0 
0.0 0.0 0.0 
0.0 0.0 0.0 
0.0 0.0 0.0 
0.0 0.0 0.0 
0.0 0.0 0.0 
0.0 0.0 0.0 
0.0 0.0 0.0 
0.0 0.0 0.0 
0.0 0.0 0.0 
0.0 0.0 0.0 
0.0 0.0 0.0 
0.0 0.0 0.0 
0.0 0.0 0.0 
0.0 0.0 0.0 
0.0 0.0 0.0 
0.0 0.0 0.0 
0.0 0.0 0.0 
0.0 0.0 0.0 
0.0 0.0 0.0 
0.0 0.0 0.0 
0.0 0.0 0.0 
0.0 0.0 0.0 
0.0 0.0 0.0 
0.0 0.0 0.0 
0.0 0.0 0.0 
0.0 0.0 0.0 
0.0 0.0 0.0 
0.0 0.0 0.0 
0.0 0.0 0.0 
0.0 0.0 0.0 
0.0 0.0 0.0 
0.0 0.0 0.0 
0.0 0.0 0.0 
0.0 0.0 0.0 
0.0 0.0 0.0 
0.0 0.0 0.0 
0.0 0.0 0.0 
0.0 0.0 0.0 
0.0 0.0 0.0 
0.0 0.0 0.0 
0.0 0.0 0.0 
0.0 0.0 0.0 
0.0 0.0 0.0 
0.0 0.0 0.0 
0.0 0.0 0.0 
0.0 0.0 0.0 
0.0 0.0 0.0 
0.0 0.0 0.0 
0.0 0.0 0.0 
0.0 0.0 0.0 
0.0 0.0 0.0 
0.0 0.0 0.0 
0.0 0.0 0.0 
0.0 0.0 0.0 
0.0 0.0 0.0 
0.0 0.0 0.0 
0.0 0.0 0.0 
0.0 0.0 0.0 
0.0 0.0 0.0 
0.0 0.0 0.0 
0.0 0.0 0.0 
0.0 0.0 0.0 
0.0 0.0 0.0 
0.0 0.0 0.0 
0.0 0.0 0.0 
0.0 0.0 0.0 
0.0 0.0 0.0 
0.0 0.0 0.0 
0.0 0.0 0.0 
0.0 0.0 0.0 
0.0 0.0 0.0 
0.0 0.0 0.0 
0.0 0.0 0.0 
0.0 0.0 0.0 
0.0 0.0 0.0 
0.0 0.0 0.0 
0.0 0.0 0.0 
0.0 0.0 0.0 
0.0 0.0 0.0 
0.0 0.0 0.0 
0.0 0.0 0.0 
0.0 0.0 0.0 
0.0 0.0 0.0 
0.0 0.0 0.0 
0.0 0.0 0.0 
0.0 0.0 0.0 
0.0 0.0 0.0 
0.0 0.0 0.0 
0.0 0.0 0.0 
0.0 0.0 0.0 
0.0 0.0 0.0 
0.0 0.0 0.0 
0.0 0.0 0.0 
0.0 0.0 0.0 
0.0 0.0 0.0 
0.0 0.0 0.0 
0.0 0.0 0.0 
0.0 0.0 0.0 
0.0 0.0 0.0 
0.0 0.0 0.0 
0.0 0.0 0.0 
0.0 0.0 0.0 
0.0 0.0 0.0 
0.0 0.0 0.0 
0.0 0.0 0.0 
0.0 0.0 0.0 
0.0 0.0 0.0 
0.0 0.0 0.0 
0.0 0.0 0.0 
0.0 0.0 0.0 
0.0 0.0 0.0 
0.0 0.0 0.0 
0.0 0.0 0.0 
0.0 0.0 0.0 
0.0 0.0 0.0 
0.0 0.0 0.0 
0.0 0.0 0.0 
0.0 0.0 0.0 
0.0 0.0 0.0 
0.0 0.0 0.0 
0.0 0.0 0.0 
0.0 0.0 0.0 
0.0 0.0 0.0 
0.0 0.0 0.0 
0.0 0.0 0.0 
0.0 0.0 0.0 
0.0 0.0 0.0 
0.0 0.0 0.0 
0.0 0.0 0.0 
0.0 0.0 0.0 
0.0 0.0 0.0 
0.0 0.0 0.0 
0.0 0.0 0.0 
0.0 0.0 0.0 
0.0 0.0 0.0 
0.0 0.0 0.0 
0.0 0.0 0.0 
0.0 0.0 0.0 
0.0 0.0 0.0 
0.0 0.0 0.0 
0.0 0.0 0.0 
0.0 0.0 0.0 
0.0 0.0 0.0 
0.0 0.0 0.0 
0.0 0.0 0.0 
0.0 0.0 0.0 
0.0 0.0 0.0 
0.0 0.0 0.0 
0.0 0.0 0.0 
0.0 0.0 0.0 
0.0 0.0 0.0 
0.0 0.0 0.0 
0.0 0.0 0.0 
0.0 0.0 0.0 
0.0 0.0 0.0 
0.0 0.0 0.0 
0.0 0.0 0.0 
0.0 0.0 0.0 
0.0 0.0 0.0 
0.0 0.0 0.0 
0.0 0.0 0.0 
0.0 0.0 0.0 
0.0 0.0 0.0 
0.0 0.0 0.0 
0.0 0.0 0.0 
0.0 0.0 0.0 
0.0 0.0 0.0 
0.0 0.0 0.0 
0.0 0.0 0.0 
0.0 0.0 0.0 
0.0 0.0 0.0 
0.0 0.0 0.0 
0.0 0.0 0.0 
0.0 0.0 0.0 
0.0 0.0 0.0 
0.0 0.0 0.0 
0.0 0.0 0.0 
0.0 0.0 0.0 
0.0 0.0 0.0 
0.0 0.0 0.0 
0.0 0.0 0.0 
0.0 0.0 0.0 
0.0 0.0 0.0 
0.0 0.0 0.0 
0.0 0.0 0.0 
0.0 0.0 0.0 
0.0 0.0 0.0 
0.0 0.0 0.0 
0.0 0.0 0.0 
0.0 0.0 0.0 
0.0 0.0 0.0 
0.0 0.0 0.0 
0.0 0.0 0.0 
0.0 0.0 0.0 
0.0 0.0 0.0 
0.0 0.0 0.0 
0.0 0.0 0.0 
0.0 0.0 0.0 
0.0 0.0 0.0 
0.0 0.0 0.0 
0.0 0.0 0.0 
0.0 0.0 0.0 
0.0 0.0 0.0 
0.0 0.0 0.0 
0.0 0.0 0.0 
0.0 0.0 0.0 
0.0 0.0 0.0 
0.0 0.0 0.0 
0.0 0.0 0.0 
0.0 0.0 0.0 
0.0 0.0 0.0 
0.0 0.0 0.0 
0.0 0.0 0.0 
0.0 0.0 0.0 
0.0 0.0 0.0 
0.0 0.0 0.0 
0.0 0.0 0.0 
0.0 0.0 0.0 
0.0 0.0 0.0 
0.0 0.0 0.0 
0.0 0.0 0.0 
0.0 0.0 0.0 
0.0 0.0 0.0 
0.0 0.0 0.0 
0.0 0.0 0.0 
0.0 0.0 0.0 
0.0 0.0 0.0 
0.0 0.0 0.0 
0.0 0.0 0.0 
0.0 0.0 0.0 
0.0 0.0 0.0 
0.0 0.0 0.0 
0.0 0.0 0.0 
0.0 0.0 0.0 
0.0 0.0 0.0 
0.0 0.0 0.0 
0.0 0.0 0.0 
0.0 0.0 0.0 
0.0 0.0 0.0 
0.0 0.0 0.0 
0.0 0.0 0.0 
0.0 0.0 0.0 
0.0 0.0 0.0 
0.0 0.0 0.0 
0.0 0.0 0.0 
0.0 0.0 0.0 
0.0 0.0 0.0 
0.0 0.0 0.0 
0.0 0.0 0.0 
0.0 0.0 0.0 
0.0 0.0 0.0 
0.0 0.0 0.0 
0.0 0.0 0.0 
0.0 0.0 0.0 
0.0 0.0 0.0 
0.0 0.0 0.0 
0.0 0.0 0.0 
0.0 0.0 0.0 
0.0 0.0 0.0 
0.0 0.0 0.0 
0.0 0.0 0.0 
0.0 0.0 0.0 
0.0 0.0 0.0 
0.0 0.0 0.0 
0.0 0.0 0.0 
0.0 0.0 0.0 
0.0 0.0 0.0 
0.0 0.0 0.0 
0.0 0.0 0.0 
0.0 0.0 0.0 
0.0 0.0 0.0 
0.0 0.0 0.0 
0.0 0.0 0.0 
0.0 0.0 0.0 
0.0 0.0 0.0 
0.0 0.0 0.0 
0.0 0.0 0.0 
0.0 0.0 0.0 
0.0 0.0 0.0 
0.0 0.0 0.0 
0.0 0.0 0.0 
0.0 0.0 0.0 
0.0 0.0 0.0 
0.0 0.0 0.0 
0.0 0.0 0.0 
0.0 0.0 0.0 
0.0 0.0 0.0 
0.0 0.0 0.0 
0.0 0.0 0.0 
0.0 0.0 0.0 
0.0 0.0 0.0 
0.0 0.0 0.0 
0.0 0.0 0.0 
0.0 0.0 0.0 
0.0 0.0 0.0 
0.0 0.0 0.0 
0.0 0.0 0.0 
0.0 0.0 0.0 
0.0 0.0 0.0 
0.0 0.0 0.0 
0.0 0.0 0.0 
0.0 0.0 0.0 
0.0 0.0 0.0 
0.0 0.0 0.0 
0.0 0.0 0.0 
0.0 0.0 0.0 
0.0 0.0 0.0 
0.0 0.0 0.0 
0.0 0.0 0.0 
0.0 0.0 0.0 
0.0 0.0 0.0 
0.0 0.0 0.0 
0.0 0.0 0.0 
0.0 0.0 0.0 
0.0 0.0 0.0 
0.0 0.0 0.0 
0.0 0.0 0.0 
0.0 0.0 0.0 
0.0 0.0 0.0 
0.0 0.0 0.0 
0.0 0.0 0.0 
0.0 0.0 0.0 
0.0 0.0 0.0 
0.0 0.0 0.0 
0.0 0.0 0.0 
0.0 0.0 0.0 
0.0 0.0 0.0 
0.0 0.0 0.0 
0.0 0.0 0.0 
0.0 0.0 0.0 
0.0 0.0 0.0 
0.0 0.0 0.0 
0.0 0.0 0.0 
0.0 0.0 0.0 
0.0 0.0 0.0 
0.0 0.0 0.0 
0.0 0.0 0.0 
0.0 0.0 0.0 
0.0 0.0 0.0 
0.0 0.0 0.0 
0.0 0.0 0.0 
0.0 0.0 0.0 
0.0 0.0 0.0 
0.0 0.0 0.0 
0.0 0.0 0.0 
0.0 0.0 0.0 
0.0 0.0 0.0 
0.0 0.0 0.0 
0.0 0.0 0.0 
0.0 0.0 0.0 
0.0 0.0 0.0 
0.0 0.0 0.0 
0.0 0.0 0.0 
0.0 0.0 0.0 
0.0 0.0 0.0 
0.0 0.0 0.0 
0.0 0.0 0.0 
0.0 0.0 0.0 
0.0 0.0 0.0 
0.0 0.0 0.0 
0.0 0.0 0.0 
0.0 0.0 0.0 
0.0 0.0 0.0 
0.0 0.0 0.0 
0.0 0.0 0.0 
0.0 0.0 0.0 
0.0 0.0 0.0 
0.0 0.0 0.0 
0.0 0.0 0.0 
0.0 0.0 0.0 
0.0 0.0 0.0 
0.0 0.0 0.0 
0.0 0.0 0.0 
0.0 0.0 0.0 
0.0 0.0 0.0 
0.0 0.0 0.0 
0.0 0.0 0.0 
0.0 0.0 0.0 
0.0 0.0 0.0 
0.0 0.0 0.0 
0.0 0.0 0.0 
0.0 0.0 0.0 
0.0 0.0 0.0 
0.0 0.0 0.0 
0.0 0.0 0.0 
0.0 0.0 0.0 
0.0 0.0 0.0 
0.0 0.0 0.0 
0.0 0.0 0.0 
0.0 0.0 0.0 
0.0 0.0 0.0 
0.0 0.0 0.0 
0.0 0.0 0.0 
0.0 0.0 0.0 
0.0 0.0 0.0 
0.0 0.0 0.0 
0.0 0.0 0.0 
0.0 0.0 0.0 
0.0 0.0 0.0 
0.0 0.0 0.0 
0.0 0.0 0.0 
0.0 0.0 0.0 
0.0 0.0 0.0 
0.0 0.0 0.0 
0.0 0.0 0.0 
0.0 0.0 0.0 
0.0 0.0 0.0 
0.0 0.0 0.0 
0.0 0.0 0.0 
0.0 0.0 0.0 
0.0 0.0 0.0 
0.0 0.0 0.0 
0.0 0.0 0.0 
0.0 0.0 0.0 
0.0 0.0 0.0 
0.0 0.0 0.0 
0.0 0.0 0.0 
0.0 0.0 0.0 
0.0 0.0 0.0 
0.0 0.0 0.0 
0.0 0.0 0.0 
0.0 0.0 0.0 
0.0 0.0 0.0 
0.0 0.0 0.0 
0.0 0.0 0.0 
0.0 0.0 0.0 
0.0 0.0 0.0 
0.0 0.0 0.0 
0.0 0.0 0.0 
0.0 0.0 0.0 
0.0 0.0 0.0 
0.0 0.0 0.0 
0.0 0.0 0.0 
0.0 0.0 0.0 
0.0 0.0 0.0 
0.0 0.0 0.0 
0.0 0.0 0.0 
0.0 0.0 0.0 
0.0 0.0 0.0 
0.0 0.0 0.0 
0.0 0.0 0.0 
0.0 0.0 0.0 
0.0 0.0 0.0 
0.0 0.0 0.0 
0.0 0.0 0.0 
0.0 0.0 0.0 
0.0 0.0 0.0 
0.0 0.0 0.0 
0.0 0.0 0.0 
0.0 0.0 0.0 
0.0 0.0 0.0 
0.0 0.0 0.0 
0.0 0.0 0.0 
0.0 0.0 0.0 
0.0 0.0 0.0 
0.0 0.0 0.0 
0.0 0.0 0.0 
0.0 0.0 0.0 
0.0 0.0 0.0 
0.0 0.0 0.0 
0.0 0.0 0.0 
0.0 0.0 0.0 
0.0 0.0 0.0 
0.0 0.0 0.0 
0.0 0.0 0.0 
0.0 0.0 0.0 
0.0 0.0 0.0 
0.0 0.0 0.0 
0.0 0.0 0.0 
0.0 0.0 0.0 
0.0 0.0 0.0 
0.0 0.0 0.0 
0.0 0.0 0.0 
0.0 0.0 0.0 
0.0 0.0 0.0 
0.0 0.0 0.0 
0.0 0.0 0.0 
0.0 0.0 0.0 
0.0 0.0 0.0 
0.0 0.0 0.0 
0.0 0.0 0.0 
0.0 0.0 0.0 
0.0 0.0 0.0 
0.0 0.0 0.0 
0.0 0.0 0.0 
0.0 0.0 0.0 
0.0 0.0 0.0 
0.0 0.0 0.0 
0.0 0.0 0.0 
0.0 0.0 0.0 
0.0 0.0 0.0 
0.0 0.0 0.0 
0.0 0.0 0.0 
0.0 0.0 0.0 
0.0 0.0 0.0 
0.0 0.0 0.0 
0.0 0.0 0.0 
0.0 0.0 0.0 
0.0 0.0 0.0 
0.0 0.0 0.0 
0.0 0.0 0.0 
0.0 0.0 0.0 
0.0 0.0 0.0 
0.0 0.0 0.0 
0.0 0.0 0.0 
0.0 0.0 0.0 
0.0 0.0 0.0 
0.0 0.0 0.0 
0.0 0.0 0.0 
0.0 0.0 0.0 
0.0 0.0 0.0 
0.0 0.0 0.0 
0.0 0.0 0.0 
0.0 0.0 0.0 
0.0 0.0 0.0 
0.0 0.0 0.0 
0.0 0.0 0.0 
0.0 0.0 0.0 
0.0 0.0 0.0 
0.0 0.0 0.0 
0.0 0.0 0.0 
0.0 0.0 0.0 
0.0 0.0 0.0 
0.0 0.0 0.0 
0.0 0.0 0.0 
0.0 0.0 0.0 
0.0 0.0 0.0 
0.0 0.0 0.0 
0.0 0.0 0.0 
0.0 0.0 0.0 
0.0 0.0 0.0 
0.0 0.0 0.0 
0.0 0.0 0.0 
0.0 0.0 0.0 
0.0 0.0 0.0 
0.0 0.0 0.0 
0.0 0.0 0.0 
0.0 0.0 0.0 
0.0 0.0 0.0 
0.0 0.0 0.0 
0.0 0.0 0.0 
0.0 0.0 0.0 
0.0 0.0 0.0 
0.0 0.0 0.0 
0.0 0.0 0.0 
0.0 0.0 0.0 
0.0 0.0 0.0 
0.0 0.0 0.0 
0.0 0.0 0.0 
0.0 0.0 0.0 
0.0 0.0 0.0 
0.0 0.0 0.0 
0.0 0.0 0.0 
0.0 0.0 0.0 
0.0 0.0 0.0 
0.0 0.0 0.0 
0.0 0.0 0.0 
0.0 0.0 0.0 
0.0 0.0 0.0 
0.0 0.0 0.0 
0.0 0.0 0.0 
0.0 0.0 0.0 
0.0 0.0 0.0 
0.0 0.0 0.0 
0.0 0.0 0.0 
0.0 0.0 0.0 
0.0 0.0 0.0 
0.0 0.0 0.0 
0.0 0.0 0.0 
0.0 0.0 0.0 
0.0 0.0 0.0 
0.0 0.0 0.0 
0.0 0.0 0.0 
0.0 0.0 0.0 
0.0 0.0 0.0 
0.0 0.0 0.0 
0.0 0.0 0.0 
0.0 0.0 0.0 
0.0 0.0 0.0 
0.0 0.0 0.0 
0.0 0.0 0.0 
0.0 0.0 0.0 
0.0 0.0 0.0 
0.0 0.0 0.0 
0.0 0.0 0.0 
0.0 0.0 0.0 
0.0 0.0 0.0 
0.0 0.0 0.0 
0.0 0.0 0.0 
0.0 0.0 0.0 
0.0 0.0 0.0 
0.0 0.0 0.0 
0.0 0.0 0.0 
0.0 0.0 0.0 
0.0 0.0 0.0 
0.0 0.0 0.0 
0.0 0.0 0.0 
0.0 0.0 0.0 
0.0 0.0 0.0 
0.0 0.0 0.0 
0.0 0.0 0.0 
0.0 0.0 0.0 
0.0 0.0 0.0 
0.0 0.0 0.0 
0.0 0.0 0.0 
0.0 0.0 0.0 
0.0 0.0 0.0 
0.0 0.0 0.0 
0.0 0.0 0.0 
0.0 0.0 0.0 
0.0 0.0 0.0 
0.0 0.0 0.0 
0.0 0.0 0.0 
0.0 0.0 0.0 
0.0 0.0 0.0 
0.0 0.0 0.0 
0.0 0.0 0.0 
0.0 0.0 0.0 
0.0 0.0 0.0 
0.0 0.0 0.0 
0.0 0.0 0.0 
0.0 0.0 0.0 
0.0 0.0 0.0 
0.0 0.0 0.0 
0.0 0.0 0.0 
0.0 0.0 0.0 
0.0 0.0 0.0 
0.0 0.0 0.0 
0.0 0.0 0.0 
0.0 0.0 0.0 
0.0 0.0 0.0 
0.0 0.0 0.0 
0.0 0.0 0.0 
0.0 0.0 0.0 
0.0 0.0 0.0 
0.0 0.0 0.0 
0.0 0.0 0.0 
0.0 0.0 0.0 
0.0 0.0 0.0 
0.0 0.0 0.0 
0.0 0.0 0.0 
0.0 0.0 0.0 
0.0 0.0 0.0 
0.0 0.0 0.0 
0.0 0.0 0.0 
0.0 0.0 0.0 
0.0 0.0 0.0 
0.0 0.0 0.0 
0.0 0.0 0.0 
0.0 0.0 0.0 
0.0 0.0 0.0 
0.0 0.0 0.0 
0.0 0.0 0.0 
0.0 0.0 0.0 
0.0 0.0 0.0 
0.0 0.0 0.0 
0.0 0.0 0.0 
0.0 0.0 0.0 
0.0 0.0 0.0 
0.0 0.0 0.0 
0.0 0.0 0.0 
0.0 0.0 0.0 
0.0 0.0 0.0 
0.0 0.0 0.0 
0.0 0.0 0.0 
0.0 0.0 0.0 
0.0 0.0 0.0 
0.0 0.0 0.0 
0.0 0.0 0.0 
0.0 0.0 0.0 
0.0 0.0 0.0 
0.0 0.0 0.0 
0.0 0.0 0.0 
0.0 0.0 0.0 
0.0 0.0 0.0 
0.0 0.0 0.0 
0.0 0.0 0.0 
0.0 0.0 0.0 
0.0 0.0 0.0 
0.0 0.0 0.0 
0.0 0.0 0.0 
0.0 0.0 0.0 
0.0 0.0 0.0 
0.0 0.0 0.0 
0.0 0.0 0.0 
0.0 0.0 0.0 
0.0 0.0 0.0 
0.0 0.0 0.0 
0.0 0.0 0.0 
0.0 0.0 0.0 
0.0 0.0 0.0 
0.0 0.0 0.0 
0.0 0.0 0.0 
0.0 0.0 0.0 
0.0 0.0 0.0 
0.0 0.0 0.0 
0.0 0.0 0.0 
0.0 0.0 0.0 
0.0 0.0 0.0 
0.0 0.0 0.0 
0.0 0.0 0.0 
0.0 0.0 0.0 
0.0 0.0 0.0 
0.0 0.0 0.0 
0.0 0.0 0.0 
0.0 0.0 0.0 
0.0 0.0 0.0 
0.0 0.0 0.0 
0.0 0.0 0.0 
0.0 0.0 0.0 
0.0 0.0 0.0 
0.0 0.0 0.0 
0.0 0.0 0.0 
0.0 0.0 0.0 
0.0 0.0 0.0 
0.0 0.0 0.0 
0.0 0.0 0.0 
0.0 0.0 0.0 
0.0 0.0 0.0 
0.0 0.0 0.0 
0.0 0.0 0.0 
0.0 0.0 0.0 
0.0 0.0 0.0 
0.0 0.0 0.0 
0.0 0.0 0.0 
0.0 0.0 0.0 
0.0 0.0 0.0 
0.0 0.0 0.0 
0.0 0.0 0.0 
0.0 0.0 0.0 
0.0 0.0 0.0 
0.0 0.0 0.0 
0.0 0.0 0.0 
0.0 0.0 0.0 
0.0 0.0 0.0 
0.0 0.0 0.0 
0.0 0.0 0.0 
0.0 0.0 0.0 
0.0 0.0 0.0 
0.0 0.0 0.0 
0.0 0.0 0.0 
0.0 0.0 0.0 
0.0 0.0 0.0 
0.0 0.0 0.0 
0.0 0.0 0.0 
0.0 0.0 0.0 
0.0 0.0 0.0 
0.0 0.0 0.0 
0.0 0.0 0.0 
0.0 0.0 0.0 
0.0 0.0 0.0 
0.0 0.0 0.0 
0.0 0.0 0.0 
0.0 0.0 0.0 
0.0 0.0 0.0 
0.0 0.0 0.0 
0.0 0.0 0.0 
0.0 0.0 0.0 
0.0 0.0 0.0 
0.0 0.0 0.0 
0.0 0.0 0.0 
0.0 0.0 0.0 
0.0 0.0 0.0 
0.0 0.0 0.0 
0.0 0.0 0.0 
0.0 0.0 0.0 
0.0 0.0 0.0 
0.0 0.0 0.0 
0.0 0.0 0.0 
0.0 0.0 0.0 
0.0 0.0 0.0 
0.0 0.0 0.0 
0.0 0.0 0.0 
0.0 0.0 0.0 
0.0 0.0 0.0 
0.0 0.0 0.0 
0.0 0.0 0.0 
0.0 0.0 0.0 
0.0 0.0 0.0 
0.0 0.0 0.0 
0.0 0.0 0.0 
0.0 0.0 0.0 
0.0 0.0 0.0 
0.0 0.0 0.0 
0.0 0.0 0.0 
0.0 0.0 0.0 
0.0 0.0 0.0 
0.0 0.0 0.0 
0.0 0.0 0.0 
0.0 0.0 0.0 
0.0 0.0 0.0 
0.0 0.0 0.0 
0.0 0.0 0.0 
0.0 0.0 0.0 
0.0 0.0 0.0 
0.0 0.0 0.0 
0.0 0.0 0.0 
0.0 0.0 0.0 
0.0 0.0 0.0 
0.0 0.0 0.0 
0.0 0.0 0.0 
0.0 0.0 0.0 
0.0 0.0 0.0 
0.0 0.0 0.0 
0.0 0.0 0.0 
0.0 0.0 0.0 
0.0 0.0 0.0 
0.0 0.0 0.0 
0.0 0.0 0.0 
0.0 0.0 0.0 
0.0 0.0 0.0 
0.0 0.0 0.0 
0.0 0.0 0.0 
0.0 0.0 0.0 
0.0 0.0 0.0 
0.0 0.0 0.0 
0.0 0.0 0.0 
0.0 0.0 0.0 
0.0 0.0 0.0 
0.0 0.0 0.0 
0.0 0.0 0.0 
0.0 0.0 0.0 
0.0 0.0 0.0 
0.0 0.0 0.0 
0.0 0.0 0.0 
0.0 0.0 0.0 
0.0 0.0 0.0 
0.0 0.0 0.0 
0.0 0.0 0.0 
0.0 0.0 0.0 
0.0 0.0 0.0 
0.0 0.0 0.0 
0.0 0.0 0.0 
0.0 0.0 0.0 
0.0 0.0 0.0 
0.0 0.0 0.0 
0.0 0.0 0.0 
0.0 0.0 0.0 
0.0 0.0 0.0 
0.0 0.0 0.0 
0.0 0.0 0.0 
0.0 0.0 0.0 
0.0 0.0 0.0 
0.0 0.0 0.0 
0.0 0.0 0.0 
0.0 0.0 0.0 
0.0 0.0 0.0 
0.0 0.0 0.0 
0.0 0.0 0.0 
0.0 0.0 0.0 
0.0 0.0 0.0 
0.0 0.0 0.0 
0.0 0.0 0.0 
0.0 0.0 0.0 
0.0 0.0 0.0 
0.0 0.0 0.0 
0.0 0.0 0.0 
0.0 0.0 0.0 
0.0 0.0 0.0 
0.0 0.0 0.0 
0.0 0.0 0.0 
0.0 0.0 0.0 
0.0 0.0 0.0 
0.0 0.0 0.0 
0.0 0.0 0.0 
0.0 0.0 0.0 
0.0 0.0 0.0 
0.0 0.0 0.0 
0.0 0.0 0.0 
0.0 0.0 0.0 
0.0 0.0 0.0 
0.0 0.0 0.0 
0.0 0.0 0.0 
0.0 0.0 0.0 
0.0 0.0 0.0 
0.0 0.0 0.0 
0.0 0.0 0.0 
0.0 0.0 0.0 
0.0 0.0 0.0 
0.0 0.0 0.0 
0.0 0.0 0.0 
0.0 0.0 0.0 
0.0 0.0 0.0 
0.0 0.0 0.0 
0.0 0.0 0.0 
0.0 0.0 0.0 
0.0 0.0 0.0 
0.0 0.0 0.0 
0.0 0.0 0.0 
0.0 0.0 0.0 
0.0 0.0 0.0 
0.0 0.0 0.0 
0.0 0.0 0.0 
0.0 0.0 0.0 
0.0 0.0 0.0 
0.0 0.0 0.0 
0.0 0.0 0.0 
0.0 0.0 0.0 
0.0 0.0 0.0 
0.0 0.0 0.0 
0.0 0.0 0.0 
0.0 0.0 0.0 
0.0 0.0 0.0 
0.0 0.0 0.0 
0.0 0.0 0.0 
0.0 0.0 0.0 
0.0 0.0 0.0 
0.0 0.0 0.0 
0.0 0.0 0.0 
0.0 0.0 0.0 
0.0 0.0 0.0 
0.0 0.0 0.0 
0.0 0.0 0.0 
0.0 0.0 0.0 
0.0 0.0 0.0 
0.0 0.0 0.0 
0.0 0.0 0.0 
0.0 0.0 0.0 
0.0 0.0 0.0 
0.0 0.0 0.0 
0.0 0.0 0.0 
0.0 0.0 0.0 
0.0 0.0 0.0 
0.0 0.0 0.0 
0.0 0.0 0.0 
0.0 0.0 0.0 
0.0 0.0 0.0 
0.0 0.0 0.0 
0.0 0.0 0.0 
0.0 0.0 0.0 
0.0 0.0 0.0 
0.0 0.0 0.0 
0.0 0.0 0.0 
0.0 0.0 0.0 
0.0 0.0 0.0 
0.0 0.0 0.0 
0.0 0.0 0.0 
0.0 0.0 0.0 
0.0 0.0 0.0 
0.0 0.0 0.0 
0.0 0.0 0.0 
0.0 0.0 0.0 
0.0 0.0 0.0 
0.0 0.0 0.0 
0.0 0.0 0.0 
0.0 0.0 0.0 
0.0 0.0 0.0 
0.0 0.0 0.0 
0.0 0.0 0.0 
0.0 0.0 0.0 
0.0 0.0 0.0 
0.0 0.0 0.0 
0.0 0.0 0.0 
0.0 0.0 0.0 
0.0 0.0 0.0 
0.0 0.0 0.0 
0.0 0.0 0.0 
0.0 0.0 0.0 
0.0 0.0 0.0 
0.0 0.0 0.0 
0.0 0.0 0.0 
0.0 0.0 0.0 
0.0 0.0 0.0 
0.0 0.0 0.0 
0.0 0.0 0.0 
0.0 0.0 0.0 
0.0 0.0 0.0 
0.0 0.0 0.0 
0.0 0.0 0.0 
0.0 0.0 0.0 
0.0 0.0 0.0 
0.0 0.0 0.0 
0.0 0.0 0.0 
0.0 0.0 0.0 
0.0 0.0 0.0 
0.0 0.0 0.0 
0.0 0.0 0.0 
0.0 0.0 0.0 
0.0 0.0 0.0 
0.0 0.0 0.0 
0.0 0.0 0.0 
0.0 0.0 0.0 
0.0 0.0 0.0 
0.0 0.0 0.0 
0.0 0.0 0.0 
0.0 0.0 0.0 
0.0 0.0 0.0 
0.0 0.0 0.0 
0.0 0.0 0.0 
0.0 0.0 0.0 
0.0 0.0 0.0 
0.0 0.0 0.0 
0.0 0.0 0.0 
0.0 0.0 0.0 
0.0 0.0 0.0 
0.0 0.0 0.0 
0.0 0.0 0.0 
0.0 0.0 0.0 
0.0 0.0 0.0 
0.0 0.0 0.0 
0.0 0.0 0.0 
0.0 0.0 0.0 
0.0 0.0 0.0 
0.0 0.0 0.0 
0.0 0.0 0.0 
0.0 0.0 0.0 
0.0 0.0 0.0 
0.0 0.0 0.0 
0.0 0.0 0.0 
0.0 0.0 0.0 
0.0 0.0 0.0 
0.0 0.0 0.0 
0.0 0.0 0.0 
0.0 0.0 0.0 
0.0 0.0 0.0 
0.0 0.0 0.0 
0.0 0.0 0.0 
0.0 0.0 0.0 
0.0 0.0 0.0 
0.0 0.0 0.0 
0.0 0.0 0.0 
0.0 0.0 0.0 
0.0 0.0 0.0 
0.0 0.0 0.0 
0.0 0.0 0.0 
0.0 0.0 0.0 
0.0 0.0 0.0 
0.0 0.0 0.0 
0.0 0.0 0.0 
0.0 0.0 0.0 
0.0 0.0 0.0 
0.0 0.0 0.0 
0.0 0.0 0.0 
0.0 0.0 0.0 
0.0 0.0 0.0 
0.0 0.0 0.0 
0.0 0.0 0.0 
0.0 0.0 0.0 
0.0 0.0 0.0 
0.0 0.0 0.0 
0.0 0.0 0.0 
0.0 0.0 0.0 
0.0 0.0 0.0 
0.0 0.0 0.0 
0.0 0.0 0.0 
0.0 0.0 0.0 
0.0 0.0 0.0 
0.0 0.0 0.0 
0.0 0.0 0.0 
0.0 0.0 0.0 
0.0 0.0 0.0 
0.0 0.0 0.0 
0.0 0.0 0.0 
0.0 0.0 0.0 
0.0 0.0 0.0 
0.0 0.0 0.0 
0.0 0.0 0.0 
0.0 0.0 0.0 
0.0 0.0 0.0 
0.0 0.0 0.0 
0.0 0.0 0.0 
0.0 0.0 0.0 
0.0 0.0 0.0 
0.0 0.0 0.0 
0.0 0.0 0.0 
0.0 0.0 0.0 
0.0 0.0 0.0 
0.0 0.0 0.0 
0.0 0.0 0.0 
0.0 0.0 0.0 
0.0 0.0 0.0 
0.0 0.0 0.0 
0.0 0.0 0.0 
0.0 0.0 0.0 
0.0 0.0 0.0 
0.0 0.0 0.0 
0.0 0.0 0.0 
0.0 0.0 0.0 
0.0 0.0 0.0 
0.0 0.0 0.0 
0.0 0.0 0.0 
0.0 0.0 0.0 
0.0 0.0 0.0 
0.0 0.0 0.0 
0.0 0.0 0.0 
0.0 0.0 0.0 
0.0 0.0 0.0 
0.0 0.0 0.0 
0.0 0.0 0.0 
0.0 0.0 0.0 
0.0 0.0 0.0 
0.0 0.0 0.0 
0.0 0.0 0.0 
0.0 0.0 0.0 
0.0 0.0 0.0 
0.0 0.0 0.0 
0.0 0.0 0.0 
0.0 0.0 0.0 
0.0 0.0 0.0 
0.0 0.0 0.0 
0.0 0.0 0.0 
0.0 0.0 0.0 
0.0 0.0 0.0 
0.0 0.0 0.0 
0.0 0.0 0.0 
0.0 0.0 0.0 
0.0 0.0 0.0 
0.0 0.0 0.0 
0.0 0.0 0.0 
0.0 0.0 0.0 
0.0 0.0 0.0 
0.0 0.0 0.0 
0.0 0.0 0.0 
0.0 0.0 0.0 
0.0 0.0 0.0 
0.0 0.0 0.0 
0.0 0.0 0.0 
0.0 0.0 0.0 
0.0 0.0 0.0 
0.0 0.0 0.0 
0.0 0.0 0.0 
0.0 0.0 0.0 
0.0 0.0 0.0 
0.0 0.0 0.0 
0.0 0.0 0.0 
0.0 0.0 0.0 
0.0 0.0 0.0 
0.0 0.0 0.0 
0.0 0.0 0.0 
0.0 0.0 0.0 
0.0 0.0 0.0 
0.0 0.0 0.0 
0.0 0.0 0.0 
0.0 0.0 0.0 
0.0 0.0 0.0 
0.0 0.0 0.0 
0.0 0.0 0.0 
0.0 0.0 0.0 
0.0 0.0 0.0 
0.0 0.0 0.0 
0.0 0.0 0.0 
0.0 0.0 0.0 
0.0 0.0 0.0 
0.0 0.0 0.0 
0.0 0.0 0.0 
0.0 0.0 0.0 
0.0 0.0 0.0 
0.0 0.0 0.0 
0.0 0.0 0.0 
0.0 0.0 0.0 
0.0 0.0 0.0 
0.0 0.0 0.0 
0.0 0.0 0.0 
0.0 0.0 0.0 
0.0 0.0 0.0 
0.0 0.0 0.0 
0.0 0.0 0.0 
0.0 0.0 0.0 
0.0 0.0 0.0 
0.0 0.0 0.0 
0.0 0.0 0.0 
0.0 0.0 0.0 
0.0 0.0 0.0 
0.0 0.0 0.0 
0.0 0.0 0.0 
0.0 0.0 0.0 
0.0 0.0 0.0 
0.0 0.0 0.0 
0.0 0.0 0.0 
0.0 0.0 0.0 
0.0 0.0 0.0 
0.0 0.0 0.0 
0.0 0.0 0.0 
0.0 0.0 0.0 
0.0 0.0 0.0 
0.0 0.0 0.0 
0.0 0.0 0.0 
0.0 0.0 0.0 
0.0 0.0 0.0 
0.0 0.0 0.0 
0.0 0.0 0.0 
0.0 0.0 0.0 
0.0 0.0 0.0 
0.0 0.0 0.0 
0.0 0.0 0.0 
0.0 0.0 0.0 
0.0 0.0 0.0 
0.0 0.0 0.0 
0.0 0.0 0.0 
0.0 0.0 0.0 
0.0 0.0 0.0 
0.0 0.0 0.0 
0.0 0.0 0.0 
0.0 0.0 0.0 
0.0 0.0 0.0 
0.0 0.0 0.0 
0.0 0.0 0.0 
0.0 0.0 0.0 
0.0 0.0 0.0 
0.0 0.0 0.0 
0.0 0.0 0.0 
0.0 0.0 0.0 
0.0 0.0 0.0 
0.0 0.0 0.0 
0.0 0.0 0.0 
0.0 0.0 0.0 
0.0 0.0 0.0 
0.0 0.0 0.0 
0.0 0.0 0.0 
0.0 0.0 0.0 
0.0 0.0 0.0 
0.0 0.0 0.0 
0.0 0.0 0.0 
0.0 0.0 0.0 
0.0 0.0 0.0 
0.0 0.0 0.0 
0.0 0.0 0.0 
0.0 0.0 0.0 
0.0 0.0 0.0 
0.0 0.0 0.0 
0.0 0.0 0.0 
0.0 0.0 0.0 
0.0 0.0 0.0 
0.0 0.0 0.0 
0.0 0.0 0.0 
0.0 0.0 0.0 
0.0 0.0 0.0 
0.0 0.0 0.0 
0.0 0.0 0.0 
0.0 0.0 0.0 
0.0 0.0 0.0 
0.0 0.0 0.0 
0.0 0.0 0.0 
0.0 0.0 0.0 
0.0 0.0 0.0 
0.0 0.0 0.0 
0.0 0.0 0.0 
0.0 0.0 0.0 
0.0 0.0 0.0 
0.0 0.0 0.0 
0.0 0.0 0.0 
0.0 0.0 0.0 
0.0 0.0 0.0 
0.0 0.0 0.0 
0.0 0.0 0.0 
0.0 0.0 0.0 
0.0 0.0 0.0 
0.0 0.0 0.0 
0.0 0.0 0.0 
0.0 0.0 0.0 
0.0 0.0 0.0 
0.0 0.0 0.0 
0.0 0.0 0.0 
0.0 0.0 0.0 
0.0 0.0 0.0 
0.0 0.0 0.0 
0.0 0.0 0.0 
0.0 0.0 0.0 
0.0 0.0 0.0 
0.0 0.0 0.0 
0.0 0.0 0.0 
0.0 0.0 0.0 
0.0 0.0 0.0 
0.0 0.0 0.0 
0.0 0.0 0.0 
0.0 0.0 0.0 
0.0 0.0 0.0 
0.0 0.0 0.0 
0.0 0.0 0.0 
0.0 0.0 0.0 
0.0 0.0 0.0 
0.0 0.0 0.0 
0.0 0.0 0.0 
0.0 0.0 0.0 
0.0 0.0 0.0 
0.0 0.0 0.0 
0.0 0.0 0.0 
0.0 0.0 0.0 
0.0 0.0 0.0 
0.0 0.0 0.0 
0.0 0.0 0.0 
0.0 0.0 0.0 
0.0 0.0 0.0 
0.0 0.0 0.0 
0.0 0.0 0.0 
0.0 0.0 0.0 
0.0 0.0 0.0 
0.0 0.0 0.0 
0.0 0.0 0.0 
0.0 0.0 0.0 
0.0 0.0 0.0 
0.0 0.0 0.0 
0.0 0.0 0.0 
0.0 0.0 0.0 
0.0 0.0 0.0 
0.0 0.0 0.0 
0.0 0.0 0.0 
0.0 0.0 0.0 
0.0 0.0 0.0 
0.0 0.0 0.0 
0.0 0.0 0.0 
0.0 0.0 0.0 
0.0 0.0 0.0 
0.0 0.0 0.0 
0.0 0.0 0.0 
0.0 0.0 0.0 
0.0 0.0 0.0 
0.0 0.0 0.0 
0.0 0.0 0.0 
0.0 0.0 0.0 
0.0 0.0 0.0 
0.0 0.0 0.0 
0.0 0.0 0.0 
0.0 0.0 0.0 
0.0 0.0 0.0 
0.0 0.0 0.0 
0.0 0.0 0.0 
0.0 0.0 0.0 
0.0 0.0 0.0 
0.0 0.0 0.0 
0.0 0.0 0.0 
0.0 0.0 0.0 
0.0 0.0 0.0 
0.0 0.0 0.0 
0.0 0.0 0.0 
0.0 0.0 0.0 
0.0 0.0 0.0 
0.0 0.0 0.0 
0.0 0.0 0.0 
0.0 0.0 0.0 
0.0 0.0 0.0 
0.0 0.0 0.0 
0.0 0.0 0.0 
0.0 0.0 0.0 
0.0 0.0 0.0 
0.0 0.0 0.0 
0.0 0.0 0.0 
0.0 0.0 0.0 
0.0 0.0 0.0 
0.0 0.0 0.0 
0.0 0.0 0.0 
0.0 0.0 0.0 
0.0 0.0 0.0 
0.0 0.0 0.0 
0.0 0.0 0.0 
0.0 0.0 0.0 
0.0 0.0 0.0 
0.0 0.0 0.0 
0.0 0.0 0.0 
0.0 0.0 0.0 
0.0 0.0 0.0 
0.0 0.0 0.0 
0.0 0.0 0.0 
0.0 0.0 0.0 
0.0 0.0 0.0 
0.0 0.0 0.0 
0.0 0.0 0.0 
0.0 0.0 0.0 
0.0 0.0 0.0 
0.0 0.0 0.0 
0.0 0.0 0.0 
0.0 0.0 0.0 
0.0 0.0 0.0 
0.0 0.0 0.0 
0.0 0.0 0.0 
0.0 0.0 0.0 
0.0 0.0 0.0 
0.0 0.0 0.0 
0.0 0.0 0.0 
0.0 0.0 0.0 
0.0 0.0 0.0 
0.0 0.0 0.0 
0.0 0.0 0.0 
0.0 0.0 0.0 
0.0 0.0 0.0 
0.0 0.0 0.0 
0.0 0.0 0.0 
0.0 0.0 0.0 
0.0 0.0 0.0 
0.0 0.0 0.0 
0.0 0.0 0.0 
0.0 0.0 0.0 
0.0 0.0 0.0 
0.0 0.0 0.0 
0.0 0.0 0.0 
0.0 0.0 0.0 
0.0 0.0 0.0 
0.0 0.0 0.0 
0.0 0.0 0.0 
0.0 0.0 0.0 
0.0 0.0 0.0 
0.0 0.0 0.0 
0.0 0.0 0.0 
0.0 0.0 0.0 
0.0 0.0 0.0 
0.0 0.0 0.0 
0.0 0.0 0.0 
0.0 0.0 0.0 
0.0 0.0 0.0 
0.0 0.0 0.0 
0.0 0.0 0.0 
0.0 0.0 0.0 
0.0 0.0 0.0 
0.0 0.0 0.0 
0.0 0.0 0.0 
0.0 0.0 0.0 
0.0 0.0 0.0 
0.0 0.0 0.0 
0.0 0.0 0.0 
0.0 0.0 0.0 
0.0 0.0 0.0 
0.0 0.0 0.0 
0.0 0.0 0.0 
0.0 0.0 0.0 
0.0 0.0 0.0 
0.0 0.0 0.0 
0.0 0.0 0.0 
0.0 0.0 0.0 
0.0 0.0 0.0 
0.0 0.0 0.0 
0.0 0.0 0.0 
0.0 0.0 0.0 
0.0 0.0 0.0 
0.0 0.0 0.0 
0.0 0.0 0.0 
0.0 0.0 0.0 
0.0 0.0 0.0 
0.0 0.0 0.0 
0.0 0.0 0.0 
0.0 0.0 0.0 
0.0 0.0 0.0 
0.0 0.0 0.0 
0.0 0.0 0.0 
0.0 0.0 0.0 
0.0 0.0 0.0 
0.0 0.0 0.0 
0.0 0.0 0.0 
0.0 0.0 0.0 
0.0 0.0 0.0 
0.0 0.0 0.0 
0.0 0.0 0.0 
0.0 0.0 0.0 
0.0 0.0 0.0 
0.0 0.0 0.0 
0.0 0.0 0.0 
0.0 0.0 0.0 
0.0 0.0 0.0 
0.0 0.0 0.0 
0.0 0.0 0.0 
0.0 0.0 0.0 
0.0 0.0 0.0 
0.0 0.0 0.0 
0.0 0.0 0.0 
0.0 0.0 0.0 
0.0 0.0 0.0 
0.0 0.0 0.0 
0.0 0.0 0.0 
0.0 0.0 0.0 
0.0 0.0 0.0 
0.0 0.0 0.0 
0.0 0.0 0.0 
0.0 0.0 0.0 
0.0 0.0 0.0 
0.0 0.0 0.0 
0.0 0.0 0.0 
0.0 0.0 0.0 

TENSORS element_materi_stress float
-2.538038962725e+01 1.774929811922e+01 0.0 
1.774929811922e+01 -3.891503927689e+01 0.0 
0.0 0.0 -1.888862867124e+01 
-2.773217194853e+01 1.695389364541e+01 0.0 
1.695389364541e+01 -4.050128788634e+01 0.0 
0.0 0.0 -2.007003795046e+01 
-1.188773040428e+02 1.712015228176e+01 0.0 
1.712015228176e+01 -2.698929576611e+02 0.0 
0.0 0.0 -1.162310785112e+02 
-1.082401682453e+02 2.298978319547e+00 0.0 
2.298978319547e+00 -2.468844458957e+02 0.0 
0.0 0.0 -1.061373842423e+02 
-5.718262241705e+01 -1.913341164052e-01 0.0 
-1.913341164052e-01 -1.088467971804e+02 0.0 
0.0 0.0 -4.940882587923e+01 
-2.018756726655e+01 4.498034243074e+00 0.0 
4.498034243074e+00 -3.929721790493e+01 0.0 
0.0 0.0 -1.744543555145e+01 
-5.662223930990e+01 -5.837812629736e-01 0.0 
-5.837812629736e-01 -1.090556259482e+02 0.0 
0.0 0.0 -4.930335957742e+01 
-2.749101086519e+01 1.845496625491e+01 0.0 
1.845496625491e+01 -4.443075408016e+01 0.0 
0.0 0.0 -2.117652948361e+01 
-5.743893452478e+01 1.768692923772e+00 0.0 
1.768692923772e+00 -1.097627022594e+02 0.0 
0.0 0.0 -4.976049103527e+01 
-1.076023252405e+02 1.663075379329e+00 0.0 
1.663075379329e+00 -2.452263304807e+02 0.0 
0.0 0.0 -1.054485967163e+02 
-9.728301216061e+01 -2.947679207384e-01 0.0 
-2.947679207384e-01 -2.521540285730e+02 0.0 
0.0 0.0 -1.044311122201e+02 
-2.225501963895e+01 1.525706898631e+01 0.0 
1.525706898631e+01 -3.240254265196e+01 0.0 
0.0 0.0 -1.599726868727e+01 
-1.509070241629e+02 4.738858332812e-01 0.0 
4.738858332812e-01 -3.617516051786e+02 0.0 
0.0 0.0 -1.533975888025e+02 
-6.715186697339e+01 1.903430892916e+00 0.0 
1.903430892916e+00 -1.267189736177e+02 0.0 
0.0 0.0 -5.776125217733e+01 
-1.556933084316e+02 2.618178628808e+00 0.0 
2.618178628808e+00 -3.695215707013e+02 0.0 
0.0 0.0 -1.571644637399e+02 
-1.103602455416e+02 1.257537168614e+00 0.0 
1.257537168614e+00 -2.549971778251e+02 0.0 
0.0 0.0 -1.092072270100e+02 
-5.658715912461e+01 1.049412584286e+00 0.0 
1.049412584286e+00 -1.049643915272e+02 0.0 
0.0 0.0 -4.806546519555e+01 
-2.003463133332e+01 2.755533028433e+00 0.0 
2.755533028433e+00 -3.985509998961e+01 0.0 
0.0 0.0 -1.756691939688e+01 
-2.878339715512e+01 -9.066735273247e-02 0.0 
-9.066735273247e-02 -7.718807190693e+01 0.0 
0.0 0.0 -3.139144071862e+01 
-2.921629785840e+01 -7.218607519901e-01 0.0 
-7.218607519901e-01 -7.984359053843e+01 0.0 
0.0 0.0 -3.231796651905e+01 
-1.088215204625e+02 3.695341169417e+00 0.0 
3.695341169417e+00 -2.462318243248e+02 0.0 
0.0 0.0 -1.061160034362e+02 
-2.811533890185e+01 1.426514863840e+01 0.0 
1.426514863840e+01 -3.768969740641e+01 0.0 
0.0 0.0 -1.934151089248e+01 
-3.389694525111e+01 1.737804607785e+01 0.0 
1.737804607785e+01 -4.644484027859e+01 0.0 
0.0 0.0 -2.370253565891e+01 
-1.356892036658e+02 1.362777364299e+01 0.0 
1.362777364299e+01 -3.330791111318e+02 0.0 
0.0 0.0 -1.402304944393e+02 
-7.632989429864e+01 4.022763060927e+00 0.0 
4.022763060927e+00 -1.459069839513e+02 0.0 
0.0 0.0 -6.627106347498e+01 
-1.029679457722e+02 1.077980414410e+00 0.0 
1.077980414410e+00 -2.650990170654e+02 0.0 
0.0 0.0 -1.100200888513e+02 
-5.296082089415e+01 2.853917083568e+00 0.0 
2.853917083568e+00 -8.974485562881e+01 0.0 
0.0 0.0 -4.241170295689e+01 
-1.312900380501e+02 2.313666267867e+01 0.0 
2.313666267867e+01 -3.094028253583e+02 0.0 
0.0 0.0 -1.318078590225e+02 
-7.866253103898e+01 6.803253621033e+00 0.0 
6.803253621033e+00 -1.472450116314e+02 0.0 
0.0 0.0 -6.737226280110e+01 
-1.395681074583e+02 1.219038394744e+01 0.0 
1.219038394744e+01 -3.421462099014e+02 0.0 
0.0 0.0 -1.441142952079e+02 
-2.568131166041e+01 -1.479454779056e+00 0.0 
-1.479454779056e+00 -5.786045867147e+01 0.0 
0.0 0.0 -2.466253109956e+01 
-1.423192447038e+01 -1.538773220509e+00 0.0 
-1.538773220509e+00 -2.598080675423e+01 0.0 
0.0 0.0 -1.166381936739e+01 
-1.206665778708e+02 1.709347139488e+01 0.0 
1.709347139488e+01 -2.702726096253e+02 0.0 
0.0 0.0 -1.168817562488e+02 
-1.261731434025e+02 1.146487568137e+00 0.0 
1.146487568137e+00 -3.133680835741e+02 0.0 
0.0 0.0 -1.314623680930e+02 
-1.479132801230e+02 8.735918485140e+00 0.0 
8.735918485140e+00 -3.561643130502e+02 0.0 
0.0 0.0 -1.508232779520e+02 
-1.580693105170e+02 3.854039637922e+00 0.0 
3.854039637922e+00 -3.760922429804e+02 0.0 
0.0 0.0 -1.598484660492e+02 
-1.589406755555e+02 6.545359062564e+00 0.0 
6.545359062564e+00 -3.762278147166e+02 0.0 
0.0 0.0 -1.601505470816e+02 
-1.376259998025e+02 1.787942068395e+01 0.0 
1.787942068395e+01 -3.334493107934e+02 0.0 
0.0 0.0 -1.409225931788e+02 
-4.862502215350e+01 1.378980891977e+00 0.0 
1.378980891977e+00 -9.034613378661e+01 0.0 
0.0 0.0 -4.129134678203e+01 
-4.839487457642e+01 -1.337918803258e+00 0.0 
-1.337918803258e+00 -9.088659182105e+01 0.0 
0.0 0.0 -4.138443991924e+01 
-4.194439910427e+01 1.290844871602e+01 0.0 
1.290844871602e+01 -5.661840979248e+01 0.0 
0.0 0.0 -2.916884266903e+01 
-1.503402957987e+02 9.783220635100e+00 0.0 
9.783220635100e+00 -3.586899414501e+02 0.0 
0.0 0.0 -1.523090711746e+02 
-2.341287121226e+01 1.568583329261e+01 0.0 
1.568583329261e+01 -3.660472666520e+01 0.0 
0.0 0.0 -1.760527936324e+01 
-5.456227823251e+01 2.575272717782e+00 0.0 
2.575272717782e+00 -9.031546405951e+01 0.0 
0.0 0.0 -4.306332268761e+01 
-1.043022047768e+02 9.605407582839e-01 0.0 
9.605407582839e-01 -2.354879668109e+02 0.0 
0.0 0.0 -1.015370514763e+02 
-2.410986034251e+01 1.559990075625e+01 0.0 
1.559990075625e+01 -3.691344732887e+01 0.0 
0.0 0.0 -1.790699230141e+01 
-1.957321578373e+01 -1.946627969825e+00 0.0 
-1.946627969825e+00 -4.327256213355e+01 0.0 
0.0 0.0 -1.845373337519e+01 
-1.039575126912e+02 6.216008273219e-01 0.0 
6.216008273219e-01 -2.368780620669e+02 0.0 
0.0 0.0 -1.018506724274e+02 
-1.649733564305e+01 -1.611868066626e+00 0.0 
-1.611868066626e+00 -2.567274151567e+01 0.0 
0.0 0.0 -1.264089657892e+01 
-6.447983210367e+01 3.013795975372e+00 0.0 
3.013795975372e+00 -1.182247470037e+02 0.0 
0.0 0.0 -5.441137373221e+01 
-3.828483355665e+01 1.518782895027e+01 0.0 
1.518782895027e+01 -5.147743811885e+01 0.0 
0.0 0.0 -2.652868150265e+01 
-3.652005917399e+01 -3.127914032072e-01 0.0 
-3.127914032072e-01 -9.705634054206e+01 0.0 
0.0 0.0 -3.967291991481e+01 
-2.893461818839e+01 -9.300226116056e-01 0.0 
-9.300226116056e-01 -7.917744995142e+01 0.0 
0.0 0.0 -3.203362044194e+01 
-3.423479568651e+01 9.450121041921e+00 0.0 
9.450121041921e+00 -4.411257032959e+01 0.0 
0.0 0.0 -2.310420980483e+01 
-1.155159942371e+02 1.297231979149e+01 0.0 
1.297231979149e+01 -2.618652072698e+02 0.0 
0.0 0.0 -1.128143604521e+02 
-4.748767898281e+01 -1.640831626309e-01 0.0 
-1.640831626309e-01 -1.280545753878e+02 0.0 
0.0 0.0 -5.226267631118e+01 
-3.678392674983e+01 -8.509932853458e-01 0.0 
-8.509932853458e-01 -1.000200360314e+02 0.0 
0.0 0.0 -4.064118883437e+01 
-1.258077202830e+02 -1.539711941997e-01 0.0 
-1.539711941997e-01 -3.132626757806e+02 0.0 
0.0 0.0 -1.313211188191e+02 
-2.286574118857e+01 -1.131609967153e+00 0.0 
-1.131609967153e+00 -5.917791573116e+01 0.0 
0.0 0.0 -2.421309707592e+01 
-1.109189000636e+02 3.080733991073e+00 0.0 
3.080733991073e+00 -2.552736594410e+02 0.0 
0.0 0.0 -1.094577678514e+02 
-2.085680455232e+01 -8.212488192172e-01 0.0 
-8.212488192172e-01 -2.222966040380e+01 0.0 
0.0 0.0 -1.252593948684e+01 
-1.249625093329e+02 1.952933545602e+01 0.0 
1.952933545602e+01 -3.025513477751e+02 0.0 
0.0 0.0 -1.278541571324e+02 
-3.967781697226e+01 1.805727328348e+01 0.0 
1.805727328348e+01 -9.273469097357e+01 0.0 
0.0 0.0 -3.932375238375e+01 
-2.726815622239e+01 -1.112158457090e+00 0.0 
-1.112158457090e+00 -7.249059480114e+01 0.0 
0.0 0.0 -2.952762530706e+01 
-1.506121763780e+02 3.294623061380e+00 0.0 
3.294623061380e+00 -3.610194685741e+02 0.0 
0.0 0.0 -1.530894934856e+02 
-3.065293220302e+01 1.170851541032e+01 0.0 
1.170851541032e+01 -3.794054189140e+01 0.0 
0.0 0.0 -2.017804222833e+01 
-1.710613403423e+01 -9.973713029845e-01 0.0 
-9.973713029845e-01 -2.095223807438e+01 0.0 
0.0 0.0 -1.171946558734e+01 
-1.225768795490e+02 1.877431827561e+01 0.0 
1.877431827561e+01 -2.732272396295e+02 0.0 
0.0 0.0 -1.183412357536e+02 
-2.549220651632e+01 -2.099836573170e+00 0.0 
-2.099836573170e+00 -6.355250209569e+01 0.0 
0.0 0.0 -2.631341258360e+01 
-1.253132805932e+02 2.092840181346e+01 0.0 
2.092840181346e+01 -2.894324212792e+02 0.0 
0.0 0.0 -1.240237105617e+02 
-1.077276719594e+02 1.586131462012e+00 0.0 
1.586131462012e+00 -2.754493674252e+02 0.0 
0.0 0.0 -1.145531118154e+02 
-1.159209173973e+02 8.348052815457e+00 0.0 
8.348052815457e+00 -2.718154739269e+02 0.0 
0.0 0.0 -1.159209173973e+02 
-1.253998865643e+02 2.092723550699e+01 0.0 
2.092723550699e+01 -2.944806536538e+02 0.0 
0.0 0.0 -1.255641620654e+02 
-1.116158335781e+01 -9.459716419140e-01 0.0 
-9.459716419140e-01 -2.982598324950e+01 0.0 
0.0 0.0 -1.189626998219e+01 
-4.892183301105e+01 -1.053462983676e+00 0.0 
-1.053462983676e+00 -1.332849745710e+02 0.0 
0.0 0.0 -5.426204227461e+01 
-1.112988170818e+02 6.823470056725e+00 0.0 
6.823470056725e+00 -2.505143502359e+02 0.0 
0.0 0.0 -1.081439501953e+02 
-1.188566971347e+02 1.414948867519e+01 0.0 
1.414948867519e+01 -2.645772944301e+02 0.0 
0.0 0.0 -1.146301974694e+02 
-2.208546586374e+01 1.316334408194e+01 0.0 
1.316334408194e+01 -3.404723875439e+01 0.0 
0.0 0.0 -1.643981138544e+01 
-2.211169687012e+01 -1.201247042328e+00 0.0 
-1.201247042328e+00 -5.908819844240e+01 0.0 
0.0 0.0 -2.395996859376e+01 
-2.278323182587e+01 1.446713066631e+01 0.0 
1.446713066631e+01 -3.426707942794e+01 0.0 
0.0 0.0 -1.671509337614e+01 
-2.463683803015e+01 -3.094661770974e+00 0.0 
-3.094661770974e+00 -6.297064766233e+01 0.0 
0.0 0.0 -2.588224570774e+01 
-5.664527640393e+01 7.947626592695e-01 0.0 
7.947626592695e-01 -1.045204238017e+02 0.0 
0.0 0.0 -4.794971006169e+01 
-3.157066096480e+01 1.848104283159e+01 0.0 
1.848104283159e+01 -4.491677535141e+01 0.0 
0.0 0.0 -2.254623089486e+01 
-2.517795112532e+01 1.491585669843e+01 0.0 
1.491585669843e+01 -3.347239610386e+01 0.0 
0.0 0.0 -1.719510416876e+01 
-6.226665795467e+01 2.012935302990e+00 0.0 
2.012935302990e+00 -1.201355510122e+02 0.0 
0.0 0.0 -5.432066269005e+01 
-6.117431068151e+01 -3.704318201656e-02 0.0 
-3.704318201656e-02 -1.196376417597e+02 0.0 
0.0 0.0 -5.384358573236e+01 
-1.117845697108e+02 1.377844846113e+00 0.0 
1.377844846113e+00 -2.839339331706e+02 0.0 
0.0 0.0 -1.183155508644e+02 
-1.218828573201e+02 -6.875218249880e-01 0.0 
-6.875218249880e-01 -3.050992692480e+02 0.0 
0.0 0.0 -1.276946379704e+02 
-1.044069559334e+02 1.676101771337e+01 0.0 
1.676101771337e+01 -2.173732469274e+02 0.0 
0.0 0.0 -9.613406085824e+01 
-5.802856072156e+01 2.097301859212e+00 0.0 
2.097301859212e+00 -1.084694106928e+02 0.0 
0.0 0.0 -4.954939142431e+01 
-1.338782565589e+01 -1.558034970849e+00 0.0 
-1.558034970849e+00 -2.575208054529e+01 0.0 
0.0 0.0 -1.169808707968e+01 
-6.211983468436e+01 3.623829849378e+00 0.0 
3.623829849378e+00 -1.080767157323e+02 0.0 
0.0 0.0 -5.065896512498e+01 
-8.643863225128e+01 1.097944351431e+00 0.0 
1.097944351431e+00 -1.882196621027e+02 0.0 
0.0 0.0 -8.199748830618e+01 
-8.586913782670e+01 4.285967129174e-01 0.0 
4.285967129174e-01 -1.847629864864e+02 0.0 
0.0 0.0 -8.078963729392e+01 
-1.197599301861e+02 9.281496222058e+00 0.0 
9.281496222058e+00 -2.740396927301e+02 0.0 
0.0 0.0 -1.177398868749e+02 
-1.432416854141e+02 2.055462865168e+01 0.0 
2.055462865168e+01 -3.397045988168e+02 0.0 
0.0 0.0 -1.444838852693e+02 
-5.761258850646e+01 1.668328602563e+00 0.0 
1.668328602563e+00 -1.043309659525e+02 0.0 
0.0 0.0 -4.818306633770e+01 
-1.476175158512e+02 9.668451481089e+00 0.0 
9.668451481089e+00 -3.583263211691e+02 0.0 
0.0 0.0 -1.513831511061e+02 
-6.784669862003e+01 7.775823335410e-01 0.0 
7.775823335410e-01 -1.393924385324e+02 0.0 
0.0 0.0 -6.177174114573e+01 
-3.701407669103e+01 1.993286366314e+01 0.0 
1.993286366314e+01 -7.740564276531e+01 0.0 
0.0 0.0 -3.392591583690e+01 
-5.376370280920e+01 1.273939529070e+00 0.0 
1.273939529070e+00 -9.979934689233e+01 0.0 
0.0 0.0 -4.566891491046e+01 
-1.550487557384e+02 1.338156751483e+00 0.0 
1.338156751483e+00 -3.691314724844e+02 0.0 
0.0 0.0 -1.568540684668e+02 
-1.041598195400e+02 1.842711143956e+01 0.0 
1.842711143956e+01 -2.598625434723e+02 0.0 
0.0 0.0 -1.088067089037e+02 
-1.268162046887e+02 2.124159605425e+01 0.0 
2.124159605425e+01 -3.037262882751e+02 0.0 
0.0 0.0 -1.287627478891e+02 
-3.461821154819e+01 1.665329089709e+01 0.0 
1.665329089709e+01 -8.825638493315e+01 0.0 
0.0 0.0 -3.646237894440e+01 
-2.318570424767e+01 -2.111642498494e+00 0.0 
-2.111642498494e+00 -4.246276106578e+01 0.0 
0.0 0.0 -1.929453959404e+01 
-1.406932366626e+02 1.880688760258e+00 0.0 
1.880688760258e+00 -3.420323769653e+02 0.0 
0.0 0.0 -1.444176840884e+02 
-9.298048608270e+01 7.657513632213e-01 0.0 
7.657513632213e-01 -2.039777527715e+02 0.0 
0.0 0.0 -8.868747165628e+01 
-2.071282191556e+01 -1.402895776408e+00 0.0 
-1.402895776408e+00 -2.545994903406e+01 0.0 
0.0 0.0 -1.345183128489e+01 
-1.546112648911e+02 4.401073407250e+00 0.0 
4.401073407250e+00 -3.664314023508e+02 0.0 
0.0 0.0 -1.559128001726e+02 
-9.874255689945e+01 1.454952469039e+01 0.0 
1.454952469039e+01 -2.070269813822e+02 0.0 
0.0 0.0 -9.133086148449e+01 
-8.345437497703e+00 3.583338714606e-01 0.0 
3.583338714606e-01 -2.206843181292e+01 0.0 
0.0 0.0 -8.724160793186e+00 
-5.002322219758e+01 1.588112352361e+01 0.0 
1.588112352361e+01 -1.367099530432e+02 0.0 
0.0 0.0 -5.561995257224e+01 
-5.698375529142e+01 7.028029173466e+00 0.0 
7.028029173466e+00 -9.107470400532e+01 0.0 
0.0 0.0 -4.401753778902e+01 
-5.939682933335e+01 -3.256577731975e-01 0.0 
-3.256577731975e-01 -1.617944826224e+02 0.0 
0.0 0.0 -6.595739358674e+01 
-3.296250389721e+01 1.744726010942e+01 0.0 
1.744726010942e+01 -7.345927916881e+01 0.0 
0.0 0.0 -3.152653491981e+01 
-4.052967618293e+01 1.947869332946e+01 0.0 
1.947869332946e+01 -9.325104229356e+01 0.0 
0.0 0.0 -3.973421554295e+01 
-1.518384588873e+02 6.888828080721e+00 0.0 
6.888828080721e+00 -3.634249914947e+02 0.0 
0.0 0.0 -1.541790351146e+02 
-6.542459791047e+01 -5.041869009107e-01 0.0 
-5.041869009107e-01 -1.327789047321e+02 0.0 
0.0 0.0 -5.906105079277e+01 
-3.607750677931e+01 1.740695039153e+01 0.0 
1.740695039153e+01 -9.007141237986e+01 0.0 
0.0 0.0 -3.744467574775e+01 
-2.441788921189e+01 -1.728844858405e+00 0.0 
-1.728844858405e+00 -6.087972893940e+01 0.0 
0.0 0.0 -2.518928544539e+01 
-6.199144995876e+01 3.665217261190e+00 0.0 
3.665217261190e+00 -1.082568728986e+02 0.0 
0.0 0.0 -5.067449685721e+01 
-9.309023528957e+01 1.208653892619e+00 0.0 
1.208653892619e+00 -2.054606854815e+02 0.0 
0.0 0.0 -8.916527623132e+01 
-3.743104536876e+01 1.823282295368e+01 0.0 
1.823282295368e+01 -9.070755442584e+01 0.0 
0.0 0.0 -3.804157993838e+01 
-2.012946807548e+01 9.300506381812e+00 0.0 
9.300506381812e+00 -2.944184555430e+01 0.0 
0.0 0.0 -1.447139408893e+01 
-4.973941235427e+01 9.203175066282e+00 0.0 
9.203175066282e+00 -7.348124116110e+01 0.0 
0.0 0.0 -3.656619605461e+01 
-5.947112734198e+01 -7.952673150898e-01 0.0 
-7.952673150898e-01 -1.604705568880e+02 0.0 
0.0 0.0 -6.558250526899e+01 
-4.217515379453e+01 6.043339151605e+00 0.0 
6.043339151605e+00 -6.079445261987e+01 0.0 
0.0 0.0 -3.049088192432e+01 
-1.127777322787e+02 6.242173958921e+00 0.0 
6.242173958921e+00 -2.587848846704e+02 0.0 
0.0 0.0 -1.110687850847e+02 
-2.072266458352e+01 9.109571038485e+00 0.0 
9.109571038485e+00 -4.024819524236e+01 0.0 
0.0 0.0 -1.789125794777e+01 
-1.024716124916e+02 -5.464530136097e-02 0.0 
-5.464530136097e-02 -2.641013360663e+02 0.0 
0.0 0.0 -1.095718845674e+02 
-1.077455219470e+02 5.177331986407e-01 0.0 
5.177331986407e-01 -2.467482644466e+02 0.0 
0.0 0.0 -1.059481359181e+02 
-5.332623989862e+01 1.708995987456e+01 0.0 
1.708995987456e+01 -1.021275388901e+02 0.0 
0.0 0.0 -4.623613363662e+01 
-4.614100973281e+01 1.069101051860e+01 0.0 
1.069101051860e+01 -6.521106166865e+01 0.0 
0.0 0.0 -3.300562142044e+01 
-1.466118355480e+02 7.245622113323e+00 0.0 
7.245622113323e+00 -3.556494453316e+02 0.0 
0.0 0.0 -1.502783842639e+02 
-1.513931090575e+02 2.185276524602e+00 0.0 
2.185276524602e+00 -3.624246915562e+02 0.0 
0.0 0.0 -1.537453401841e+02 
-1.114922056888e+02 8.296324315329e-02 0.0 
8.296324315329e-02 -2.838587756385e+02 0.0 
0.0 0.0 -1.182052943982e+02 
-5.722931425681e+01 1.903248394701e+01 0.0 
1.903248394701e+01 -1.067595695967e+02 0.0 
0.0 0.0 -4.879666515606e+01 
-1.458283748741e+02 1.268015505293e+01 0.0 
1.268015505293e+01 -3.543655602933e+02 0.0 
0.0 0.0 -1.496581805502e+02 
-4.941184238577e+01 1.500296672678e+01 0.0 
1.500296672678e+01 -8.560797089463e+01 0.0 
0.0 0.0 -4.010594398412e+01 
-1.104543084930e+02 4.625866763803e+00 0.0 
4.625866763803e+00 -2.529651233550e+02 0.0 
0.0 0.0 -1.086258295544e+02 
-1.259578587387e+02 2.152910544823e+01 0.0 
2.152910544823e+01 -2.885473612373e+02 0.0 
0.0 0.0 -1.239515659928e+02 
-6.849710250841e+01 4.251176302172e+00 0.0 
4.251176302172e+00 -1.266147369758e+02 0.0 
0.0 0.0 -5.813355184527e+01 
-7.795083562079e+01 3.706243165314e-01 0.0 
3.706243165314e-01 -1.637246242815e+02 0.0 
0.0 0.0 -7.210263797067e+01 
-4.904321506892e+01 1.902746818451e+01 0.0 
1.902746818451e+01 -8.569178369973e+01 0.0 
0.0 0.0 -4.002049963059e+01 
-3.833005992658e+01 7.249399939414e+00 0.0 
7.249399939414e+00 -5.266886945203e+01 0.0 
0.0 0.0 -2.689967881358e+01 
-6.121167780752e+01 1.719097736484e+01 0.0 
1.719097736484e+01 -1.221129363938e+02 0.0 
0.0 0.0 -5.459738426040e+01 
-4.042731806586e+01 1.731659048973e+01 0.0 
1.731659048973e+01 -1.060816654839e+02 0.0 
0.0 0.0 -4.355269506492e+01 
-5.396555184951e+01 1.151059799752e+00 0.0 
1.151059799752e+00 -1.025163557142e+02 0.0 
0.0 0.0 -4.654457226910e+01 
-5.059921408251e+01 1.654933435972e+01 0.0 
1.654933435972e+01 -1.370722523213e+02 0.0 
0.0 0.0 -5.590143992115e+01 
-1.231575058573e+01 -1.259310269807e+00 0.0 
-1.259310269807e+00 -2.507430695936e+01 0.0 
0.0 0.0 -1.123519485562e+01 
-5.903005276374e+01 2.041957320366e-01 0.0 
2.041957320366e-01 -1.174636780431e+02 0.0 
0.0 0.0 -5.254811924206e+01 
-2.152499631371e+01 -4.022174950930e-01 0.0 
-4.022174950930e-01 -6.014625642836e+01 0.0 
0.0 0.0 -2.410137582262e+01 
-5.339841437718e+01 8.002157810501e+00 0.0 
8.002157810501e+00 -8.247647745823e+01 0.0 
0.0 0.0 -4.036246755062e+01 
-1.492546526087e+02 1.195045694370e+01 0.0 
1.195045694370e+01 -3.561764446826e+02 0.0 
0.0 0.0 -1.512293291874e+02 
-3.329148695288e+01 1.638524860124e+01 0.0 
1.638524860124e+01 -8.766095680432e+01 0.0 
0.0 0.0 -3.588573312716e+01 
-1.164604920240e+02 -3.238110459474e-01 0.0 
-3.238110459474e-01 -2.940593632188e+02 0.0 
0.0 0.0 -1.227559565728e+02 
-2.514528425101e+01 1.647827730686e+01 0.0 
1.647827730686e+01 -3.754105845895e+01 0.0 
0.0 0.0 -1.840590281299e+01 
-1.029875133129e+02 1.697723732336e+01 0.0 
1.697723732336e+01 -2.591746580773e+02 0.0 
0.0 0.0 -1.082486514171e+02 
-5.344272656705e+01 1.386739666121e-01 0.0 
1.386739666121e-01 -1.039784970262e+02 0.0 
0.0 0.0 -4.682636707797e+01 
-4.619739014727e+01 1.446993629756e+01 0.0 
1.446993629756e+01 -1.322896865103e+02 0.0 
0.0 0.0 -5.314612299726e+01 
-1.306251606915e+02 1.823419572437e+00 0.0 
1.823419572437e+00 -3.225748356032e+02 0.0 
0.0 0.0 -1.355599988884e+02 
-2.415700330088e+01 -2.915285307732e+00 0.0 
-2.915285307732e+00 -6.044834846039e+01 0.0 
0.0 0.0 -2.498160552838e+01 
-1.403745020272e+02 4.054561555171e-01 0.0 
4.054561555171e-01 -3.416735310639e+02 0.0 
0.0 0.0 -1.442144099273e+02 
-6.437177169909e+01 8.502545550526e+00 0.0 
8.502545550526e+00 -1.121422124343e+02 0.0 
0.0 0.0 -5.255419524003e+01 
-1.515900457757e+02 3.707797630195e+00 0.0 
3.707797630195e+00 -3.648175397873e+02 0.0 
0.0 0.0 -1.545222756689e+02 
-5.279800493933e+01 -3.498355900146e-02 0.0 
-3.498355900146e-02 -1.029379000315e+02 0.0 
0.0 0.0 -4.632077149125e+01 
-3.658690657582e+01 1.518605607444e+01 0.0 
1.518605607444e+01 -1.015443637008e+02 0.0 
0.0 0.0 -4.103938108298e+01 
-5.034802884671e+01 4.401260768564e+00 0.0 
4.401260768564e+00 -7.924227051483e+01 0.0 
0.0 0.0 -3.847708980846e+01 
-9.728799299983e+01 6.972350182159e-01 0.0 
6.972350182159e-01 -2.531072119015e+02 0.0 
0.0 0.0 -1.047185614704e+02 
-2.448342865643e+01 1.682307574042e+01 0.0 
1.682307574042e+01 -3.712921287564e+01 0.0 
0.0 0.0 -1.808379245962e+01 
-4.722518223230e+01 1.470280614313e+01 0.0 
1.470280614313e+01 -1.327714913740e+02 0.0 
0.0 0.0 -5.359900208188e+01 
-8.225221619592e+01 2.054051364861e+00 0.0 
2.054051364861e+00 -1.746268987238e+02 0.0 
0.0 0.0 -7.666373447591e+01 
-5.307329541148e+01 -4.540248344983e-01 0.0 
-4.540248344983e-01 -1.027214103413e+02 0.0 
0.0 0.0 -4.633841172585e+01 
-4.293488232154e+01 1.559267692848e+01 0.0 
1.559267692848e+01 -1.187831586777e+02 0.0 
0.0 0.0 -4.811541229978e+01 
-4.615830791412e+01 5.087734833979e+00 0.0 
5.087734833979e+00 -6.971061111833e+01 0.0 
0.0 0.0 -3.436067570973e+01 
-1.104913378556e+02 1.816107514447e+01 0.0 
1.816107514447e+01 -2.471483167540e+02 0.0 
0.0 0.0 -1.068918963829e+02 
-6.671125830390e+01 -1.377586379239e-01 0.0 
-1.377586379239e-01 -1.788856610498e+02 0.0 
0.0 0.0 -7.327907580611e+01 
-1.328221515112e+02 2.164463704975e+01 0.0 
2.164463704975e+01 -3.127870709624e+02 0.0 
0.0 0.0 -1.332827667421e+02 
-1.276410179675e+02 2.263970684400e+01 0.0 
2.263970684400e+01 -2.928170927652e+02 0.0 
0.0 0.0 -1.257374332198e+02 
-3.104916984206e+01 1.910207813841e+01 0.0 
1.910207813841e+01 -5.913082130448e+01 0.0 
0.0 0.0 -2.665399734396e+01 
-6.683068794073e+01 -6.095401094910e-01 0.0 
-6.095401094910e-01 -1.799134589506e+02 0.0 
0.0 0.0 -7.362324406739e+01 
-1.250072328026e+02 1.458943679013e+01 0.0 
1.458943679013e+01 -3.124452347344e+02 0.0 
0.0 0.0 -1.308357402611e+02 
-4.552678218711e+01 1.663197740657e+01 0.0 
1.663197740657e+01 -7.002761853199e+01 0.0 
0.0 0.0 -3.426632021573e+01 
-2.746544187964e+01 1.624968087014e+01 0.0 
1.624968087014e+01 -5.514374594964e+01 0.0 
0.0 0.0 -2.438275634878e+01 
-5.944492011783e+01 6.088699958662e+00 0.0 
6.088699958662e+00 -1.004344564505e+02 0.0 
0.0 0.0 -4.756381297051e+01 
-4.706815071453e+01 1.783956668144e+01 0.0 
1.783956668144e+01 -1.237123101746e+02 0.0 
0.0 0.0 -5.083413826673e+01 
-1.091073630481e+02 2.754181851877e+00 0.0 
2.754181851877e+00 -2.516011456744e+02 0.0 
0.0 0.0 -1.078125526167e+02 
-9.809590515331e+01 1.235870534054e+01 0.0 
1.235870534054e+01 -2.027831757119e+02 0.0 
0.0 0.0 -8.986372425956e+01 
-1.356281987136e+02 -2.499536133748e-01 0.0 
-2.499536133748e-01 -3.325115750585e+02 0.0 
0.0 0.0 -1.400419321317e+02 
-2.344085576991e+01 1.471381415648e+01 0.0 
1.471381415648e+01 -3.582491501524e+01 0.0 
0.0 0.0 -1.737973123554e+01 
-4.426586998013e+01 1.263364836815e+01 0.0 
1.263364836815e+01 -1.283711712483e+02 0.0 
0.0 0.0 -5.139111236853e+01 
-1.020809350134e+02 1.402273191972e+01 0.0 
1.402273191972e+01 -2.153978909062e+02 0.0 
0.0 0.0 -9.484364777589e+01 
-1.631551646997e+01 3.026823891292e+00 0.0 
3.026823891292e+00 -4.372152403371e+00 0.0 
0.0 0.0 -5.806300662003e+00 
-4.477406722772e+01 1.194445486018e+01 0.0 
1.194445486018e+01 -6.957732588419e+01 0.0 
0.0 0.0 -3.390541793357e+01 
-1.164146267172e+02 1.166932382834e+01 0.0 
1.166932382834e+01 -2.975514332071e+02 0.0 
0.0 0.0 -1.237898179773e+02 
-1.708191392270e+01 -8.601023130325e-01 0.0 
-8.601023130325e-01 -4.265589368808e+01 0.0 
0.0 0.0 -1.752134228323e+01 
-1.168549796154e+02 1.391675152998e+01 0.0 
1.391675152998e+01 -2.613500651058e+02 0.0 
0.0 0.0 -1.130615134164e+02 
-8.572316308613e+01 7.286205739261e+00 0.0 
7.286205739261e+00 -1.681514645499e+02 0.0 
0.0 0.0 -7.576238829081e+01 
-5.837399465307e+01 -6.679338259021e-01 0.0 
-6.679338259021e-01 -1.673960270859e+02 0.0 
0.0 0.0 -6.733100652168e+01 
-1.144640039210e+02 1.030278734581e+01 0.0 
1.030278734581e+01 -2.965844892343e+02 0.0 
0.0 0.0 -1.229145479466e+02 
-6.925924581421e+01 5.116009394008e+00 0.0 
5.116009394008e+00 -1.244024063903e+02 0.0 
0.0 0.0 -5.769849566134e+01 
-7.486027070734e+01 5.153688729439e+00 0.0 
5.153688729439e+00 -1.390451551843e+02 0.0 
0.0 0.0 -6.377162776750e+01 
-1.412356165196e+02 1.294469191398e+01 0.0 
1.294469191398e+01 -3.425538154443e+02 0.0 
0.0 0.0 -1.447368295892e+02 
-4.498109893743e+01 -2.405501793112e+00 0.0 
-2.405501793112e+00 -1.268321089441e+02 0.0 
0.0 0.0 -5.114396236445e+01 
-6.462954018084e+01 1.810051319942e+01 0.0 
1.810051319942e+01 -1.377587134461e+02 0.0 
0.0 0.0 -6.031647608809e+01 
-6.904946952138e+01 1.092080519304e+01 0.0 
1.092080519304e+01 -1.249052582319e+02 0.0 
0.0 0.0 -5.778641832598e+01 
-9.142816376500e+01 9.436556409706e+00 0.0 
9.436556409706e+00 -1.794464006527e+02 0.0 
0.0 0.0 -8.086236932531e+01 
-7.006663314844e+01 1.081155016339e+01 0.0 
1.081155016339e+01 -1.220808404563e+02 0.0 
0.0 0.0 -5.724424208141e+01 
-6.173742917446e+01 9.477521868260e+00 0.0 
9.477521868260e+00 -1.013894556188e+02 0.0 
0.0 0.0 -4.853806543797e+01 
-9.060690036969e+01 1.640269243099e+01 0.0 
1.640269243099e+01 -2.349894120804e+02 0.0 
0.0 0.0 -9.727889373504e+01 
-1.076262731910e+02 1.945125204573e+01 0.0 
1.945125204573e+01 -2.340802049422e+02 0.0 
0.0 0.0 -1.021119434400e+02 
-1.991937205207e+01 2.847071601385e+00 0.0 
2.847071601385e+00 -2.078793078836e+01 0.0 
0.0 0.0 -1.181219085213e+01 
-3.062446347590e+01 1.781838800733e+01 0.0 
1.781838800733e+01 -5.917495815241e+01 0.0 
0.0 0.0 -2.653982648849e+01 
-3.647969725652e+01 1.800824879169e+01 0.0 
1.800824879169e+01 -7.673021619394e+01 0.0 
0.0 0.0 -3.356297403514e+01 
-6.044198059019e+01 2.006425778086e+01 0.0 
2.006425778086e+01 -1.223453543587e+02 0.0 
0.0 0.0 -5.443620048468e+01 
-1.037428575977e+02 1.451267397967e+01 0.0 
1.451267397967e+01 -2.136496109668e+02 0.0 
0.0 0.0 -9.481774056936e+01 
-2.213286305476e+01 4.589333084897e+00 0.0 
4.589333084897e+00 -5.870531570002e+01 0.0 
0.0 0.0 -2.385145362643e+01 
-1.118881993236e+02 1.015777132769e+01 0.0 
1.015777132769e+01 -2.892419541631e+02 0.0 
0.0 0.0 -1.199390460460e+02 
-5.309179275543e+01 1.138570096373e+00 0.0 
1.138570096373e+00 -1.015007127230e+02 0.0 
0.0 0.0 -4.597775164354e+01 
-4.305787654650e+01 1.275881789974e+01 0.0 
1.275881789974e+01 -1.278835915605e+02 0.0 
0.0 0.0 -5.088244043210e+01 
-1.075259735118e+02 8.706476637071e+00 0.0 
8.706476637071e+00 -2.807391735155e+02 0.0 
0.0 0.0 -1.160795441082e+02 
-1.278173780149e+01 -6.202404650592e-01 0.0 
-6.202404650592e-01 -2.862638285502e+01 0.0 
0.0 0.0 -1.202243619695e+01 
-9.308910417793e+01 8.577220674099e+00 0.0 
8.577220674099e+00 -1.887093005231e+02 0.0 
0.0 0.0 -8.413952141030e+01 
-1.217754648997e+01 -1.152419606366e+00 0.0 
-1.152419606366e+00 -2.416175405923e+01 0.0 
0.0 0.0 -1.050179016476e+01 
-1.635443548699e+01 -1.167004937127e+00 0.0 
-1.167004937127e+00 -4.298983442819e+01 0.0 
0.0 0.0 -1.740328097455e+01 
-2.291837403528e+01 1.507294940106e+01 0.0 
1.507294940106e+01 -3.557530373230e+01 0.0 
0.0 0.0 -1.714810333027e+01 
-3.843629078209e+01 -2.662475621898e+00 0.0 
-2.662475621898e+00 -1.074827389387e+02 0.0 
0.0 0.0 -4.337570891625e+01 
-9.855537078160e+01 1.059853587582e+01 0.0 
1.059853587582e+01 -1.998477499587e+02 0.0 
0.0 0.0 -8.912093622208e+01 
-3.718813427348e+01 -1.774273390795e+00 0.0 
-1.774273390795e+00 -1.009335854178e+02 0.0 
0.0 0.0 -4.103651590738e+01 
-2.526222517750e+01 1.277135702199e+01 0.0 
1.277135702199e+01 -6.442233100363e+01 0.0 
0.0 0.0 -2.650536685434e+01 
-2.958839334703e+01 -1.836314411821e+00 0.0 
-1.836314411821e+00 -7.814862894117e+01 0.0 
0.0 0.0 -3.192110668646e+01 
-2.635108849221e+01 -2.910260159538e+00 0.0 
-2.910260159538e+00 -6.865144505903e+01 0.0 
0.0 0.0 -2.810076006537e+01 
-1.188833624764e+02 1.181441178683e+01 0.0 
1.181441178683e+01 -3.040775216161e+02 0.0 
0.0 0.0 -1.264882652277e+02 
-6.629071966668e+01 1.208139298188e+01 0.0 
1.208139298188e+01 -1.131625978771e+02 0.0 
0.0 0.0 -5.343599526313e+01 
-1.501438051052e+02 1.813798464657e+00 0.0 
1.813798464657e+00 -3.609356590172e+02 0.0 
0.0 0.0 -1.529238392367e+02 
-1.575053778804e+01 1.711125583578e+00 0.0 
1.711125583578e+00 -8.606136941980e+00 0.0 
0.0 0.0 -7.848701943860e+00 
-2.890941886814e+01 1.308370557603e+01 0.0 
1.308370557603e+01 -8.089806718595e+01 0.0 
0.0 0.0 -3.254224581623e+01 
-5.001890243160e+01 1.323003346536e+01 0.0 
1.323003346536e+01 -1.455577828874e+02 0.0 
0.0 0.0 -5.827300559570e+01 
-4.032351287092e+01 1.393250301377e+01 0.0 
1.393250301377e+01 -6.398298327010e+01 0.0 
0.0 0.0 -3.089194884231e+01 
-1.100132987297e+02 8.873125600941e+00 0.0 
8.873125600941e+00 -2.883142643194e+02 0.0 
0.0 0.0 -1.190982689147e+02 
-1.525107869768e+02 3.575989421782e+00 0.0 
3.575989421782e+00 -3.663045361975e+02 0.0 
0.0 0.0 -1.552445969523e+02 
-9.662520929463e+01 1.338716748228e+01 0.0 
1.338716748228e+01 -1.926291893166e+02 0.0 
0.0 0.0 -8.637631958336e+01 
-3.595012738314e+01 9.554481162795e+00 0.0 
9.554481162795e+00 -1.063158257456e+02 0.0 
0.0 0.0 -4.227978593862e+01 
-1.205740285090e+02 1.299114971710e+01 0.0 
1.299114971710e+01 -3.048136426714e+02 0.0 
0.0 0.0 -1.272163013541e+02 
-1.068305351002e+02 -6.304798824298e-01 0.0 
-6.304798824298e-01 -2.736757943613e+02 0.0 
0.0 0.0 -1.137518988384e+02 
-6.517628633521e+01 1.906996053327e+01 0.0 
1.906996053327e+01 -1.272854052387e+02 0.0 
0.0 0.0 -5.733850747216e+01 
-8.989977874663e+01 8.879678702552e+00 0.0 
8.879678702552e+00 -1.789705045163e+02 0.0 
0.0 0.0 -8.026108497889e+01 
-1.299331721550e+02 2.168766386891e+01 0.0 
2.168766386891e+01 -3.072309589789e+02 0.0 
0.0 0.0 -1.307492393402e+02 
-5.113132694500e+01 1.346090611151e+01 0.0 
1.346090611151e+01 -1.460782066469e+02 0.0 
0.0 0.0 -5.876286007756e+01 
-2.758875824307e+01 1.386009127623e+01 0.0 
1.386009127623e+01 -6.759498224164e+01 0.0 
0.0 0.0 -2.815512214541e+01 
-7.798681990832e+01 1.198891250729e+01 0.0 
1.198891250729e+01 -1.424760267268e+02 0.0 
0.0 0.0 -6.573885399053e+01 
-1.187777241369e+02 7.738251881217e+00 0.0 
7.738251881217e+00 -2.733791500624e+02 0.0 
0.0 0.0 -1.172470622598e+02 
-6.373609675696e+01 2.042015778888e+01 0.0 
2.042015778888e+01 -1.377970258206e+02 0.0 
0.0 0.0 -6.005993677325e+01 
-6.999667206478e+01 1.364395837452e+01 0.0 
1.364395837452e+01 -1.934872390894e+02 0.0 
0.0 0.0 -7.864517334625e+01 
-6.087468795229e+01 5.755188021460e-01 0.0 
5.755188021460e-01 -1.212556722899e+02 0.0 
0.0 0.0 -5.423910807266e+01 
-2.495291401107e+01 -2.396284322651e+00 0.0 
-2.396284322651e+00 -5.742004309902e+01 0.0 
0.0 0.0 -2.431188713303e+01 
-6.757690857428e+01 7.495982416556e+00 0.0 
7.495982416556e+00 -1.202769203919e+02 0.0 
0.0 0.0 -5.595614868987e+01 
-3.442272008500e+01 1.012054552323e+01 0.0 
1.012054552323e+01 -1.057906111960e+02 0.0 
0.0 0.0 -4.166399938431e+01 
-2.590465168298e+01 5.230672612625e+00 0.0 
5.230672612625e+00 -7.644751413178e+01 0.0 
0.0 0.0 -3.030564974443e+01 
-2.407635399496e+01 -1.372419516697e+00 0.0 
-1.372419516697e+00 -6.111566392955e+01 0.0 
0.0 0.0 -2.515760537735e+01 
-9.603523957811e+01 8.306955048072e+00 0.0 
8.306955048072e+00 -1.983538627478e+02 0.0 
0.0 0.0 -8.791673069776e+01 
-7.434188276347e+01 1.305846088749e+01 0.0 
1.305846088749e+01 -1.341732216411e+02 0.0 
0.0 0.0 -6.215453132137e+01 
-3.995805959936e+01 1.673319100255e+01 0.0 
1.673319100255e+01 -1.057486629968e+02 0.0 
0.0 0.0 -4.331201677885e+01 
-1.013466048226e+02 1.022023480726e+01 0.0 
1.022023480726e+01 -2.095162356405e+02 0.0 
0.0 0.0 -9.285885213893e+01 
-1.005357231763e+02 1.507224536972e+01 0.0 
1.507224536972e+01 -2.046005662273e+02 0.0 
0.0 0.0 -9.114088682107e+01 
-6.976807574074e+01 1.778582742802e+01 0.0 
1.778582742802e+01 -1.330747123609e+02 0.0 
0.0 0.0 -6.045283643049e+01 
-1.539963073212e+02 5.504275341706e+00 0.0 
5.504275341706e+00 -3.657337450018e+02 0.0 
0.0 0.0 -1.555190156969e+02 
-7.330381846252e+01 1.214257343810e+01 0.0 
1.214257343810e+01 -2.050002114125e+02 0.0 
0.0 0.0 -8.309120896251e+01 
-7.412631480561e+01 1.642488577220e+01 0.0 
1.642488577220e+01 -1.395839151266e+02 0.0 
0.0 0.0 -6.371306897967e+01 
-5.438772231801e+01 1.809072826412e+01 0.0 
1.809072826412e+01 -1.415668305657e+02 0.0 
0.0 0.0 -5.838636586511e+01 
-7.811789568283e+01 1.434844044074e+01 0.0 
1.434844044074e+01 -2.113294915174e+02 0.0 
0.0 0.0 -8.643421616006e+01 
-3.010863815576e+01 5.808791300269e+00 0.0 
5.808791300269e+00 -9.356941834783e+01 0.0 
0.0 0.0 -3.670341695108e+01 
-5.993294005442e+01 2.497543694126e+00 0.0 
2.497543694126e+00 -1.058430824607e+02 0.0 
0.0 0.0 -4.933280675454e+01 
-5.494910004107e+01 1.218763937712e+01 0.0 
1.218763937712e+01 -1.583321375091e+02 0.0 
0.0 0.0 -6.358437126504e+01 
-4.184830685713e+01 2.503317848924e+00 0.0 
2.503317848924e+00 -1.244651253913e+02 0.0 
0.0 0.0 -4.949402967452e+01 
-9.412357023690e+01 1.067353646701e+01 0.0 
1.067353646701e+01 -1.908381434086e+02 0.0 
0.0 0.0 -8.508851409366e+01 
-2.073485403094e+01 8.045994268176e-01 0.0 
8.045994268176e-01 -6.225429362403e+00 0.0 
0.0 0.0 -7.688085018003e+00 
-7.364543140371e+01 9.950155645019e+00 0.0 
9.950155645019e+00 -1.309198089350e+02 0.0 
0.0 0.0 -6.096957210161e+01 
-3.759698827683e+01 8.698521382899e+00 0.0 
8.698521382899e+00 -1.173299549006e+02 0.0 
0.0 0.0 -4.607808295323e+01 
-3.004348230800e+01 1.244049796220e+01 0.0 
1.244049796220e+01 -8.125168420641e+01 0.0 
0.0 0.0 -3.298854995432e+01 
-3.211952485300e+01 5.138428377889e+00 0.0 
5.138428377889e+00 -9.425635762081e+01 0.0 
0.0 0.0 -3.751276474214e+01 
-8.031906099673e+01 1.090594543052e+01 0.0 
1.090594543052e+01 -1.533342805288e+02 0.0 
0.0 0.0 -6.969600245766e+01 
-1.925736821632e+01 -1.892090270999e+00 0.0 
-1.892090270999e+00 -4.144005649823e+01 0.0 
0.0 0.0 -1.780922741436e+01 
-4.052345686937e+01 1.780247588637e+01 0.0 
1.780247588637e+01 -7.921748162673e+01 0.0 
0.0 0.0 -3.552228154883e+01 
-8.162038865330e+01 1.278323344480e+01 0.0 
1.278323344480e+01 -2.229867631773e+02 0.0 
0.0 0.0 -9.098214554917e+01 
-7.237592401898e+01 9.741648400267e+00 0.0 
9.741648400267e+00 -1.325196345159e+02 0.0 
0.0 0.0 -6.106866756045e+01 
-6.783351160601e+01 4.093739046232e+00 0.0 
4.093739046232e+00 -1.240625164195e+02 0.0 
0.0 0.0 -5.716880840767e+01 
-2.148297837269e+01 3.051073824007e+00 0.0 
3.051073824007e+00 -5.165500633605e+01 0.0 
0.0 0.0 -2.154139541262e+01 
-3.961759136302e+01 2.528985122532e+00 0.0 
2.528985122532e+00 -1.235256055146e+02 0.0 
0.0 0.0 -4.854295906327e+01 
-3.945426902750e+01 1.064846602740e+00 0.0 
1.064846602740e+00 -1.157245401615e+02 0.0 
0.0 0.0 -4.615364275671e+01 
-3.369985690725e+01 1.983139625709e+01 0.0 
1.983139625709e+01 -6.023148202660e+01 0.0 
0.0 0.0 -2.777940168016e+01 
-9.248005119156e+01 1.165764060398e+01 0.0 
1.165764060398e+01 -1.808042887404e+02 0.0 
0.0 0.0 -8.158530197957e+01 
-4.055670724214e+01 2.041619885300e+01 0.0 
2.041619885300e+01 -7.979175948324e+01 0.0 
0.0 0.0 -3.570454001762e+01 
-5.045498704315e+01 1.015526704948e+01 0.0 
1.015526704948e+01 -1.519860003717e+02 0.0 
0.0 0.0 -6.033229622446e+01 
-4.669729989048e+01 1.142304814427e+01 0.0 
1.142304814427e+01 -1.402620272060e+02 0.0 
0.0 0.0 -5.568779812895e+01 
-2.401596305565e+01 3.726168303965e+00 0.0 
3.726168303965e+00 -5.903597289213e+01 0.0 
0.0 0.0 -2.451558078433e+01 
-5.789195330645e+01 1.626806832539e+01 0.0 
1.626806832539e+01 -1.550565928863e+02 0.0 
0.0 0.0 -6.348456385782e+01 
-2.327956941371e+01 1.153310653804e+01 0.0 
1.153310653804e+01 -4.843415054656e+01 0.0 
0.0 0.0 -2.111411598808e+01 
-1.238339495698e+02 1.479494742073e+01 0.0 
1.479494742073e+01 -2.816755308237e+02 0.0 
0.0 0.0 -1.212528441180e+02 
-1.252973999015e+02 1.769501767912e+01 0.0 
1.769501767912e+01 -2.860071642182e+02 0.0 
0.0 0.0 -1.229913692359e+02 
-6.797217938054e+01 1.843608458793e+01 0.0 
1.843608458793e+01 -1.529990640799e+02 0.0 
0.0 0.0 -6.589137303814e+01 
-3.218404994428e+01 7.967672367396e+00 0.0 
7.967672367396e+00 -1.001722359390e+02 0.0 
0.0 0.0 -3.930688576498e+01 
-2.836220038953e+01 1.021982954320e+01 0.0 
1.021982954320e+01 -7.725497759038e+01 0.0 
0.0 0.0 -3.128515339397e+01 
-7.726664111484e+01 1.495675067482e+01 0.0 
1.495675067482e+01 -1.527860660346e+02 0.0 
0.0 0.0 -6.861581214485e+01 
-3.102715717993e+01 8.725424454117e+00 0.0 
8.725424454117e+00 -8.935508894248e+01 0.0 
0.0 0.0 -3.571467383672e+01 
-3.728916678064e+01 9.013135569000e-01 0.0 
9.013135569000e-01 -1.147709550215e+02 0.0 
0.0 0.0 -4.521803654065e+01 
-6.547834809801e+01 1.589171078294e+01 0.0 
1.589171078294e+01 -1.266028211721e+02 0.0 
0.0 0.0 -5.722435078104e+01 
-1.122201022107e+02 5.234156889341e+00 0.0 
5.234156889341e+00 -2.543408612745e+02 0.0 
0.0 0.0 -1.095682890456e+02 
-4.017044292675e+01 1.076496112769e+01 0.0 
1.076496112769e+01 -1.229001980971e+02 0.0 
0.0 0.0 -4.852119230716e+01 
-8.986113055772e+01 1.544050744451e+01 0.0 
1.544050744451e+01 -2.345065224361e+02 0.0 
0.0 0.0 -9.691029589815e+01 
-2.386145301699e+01 1.090925275289e+01 0.0 
1.090925275289e+01 -6.063264866159e+01 0.0 
0.0 0.0 -2.494823050358e+01 
-1.529585730515e+02 1.589006975411e+01 0.0 
1.589006975411e+01 -3.650424069411e+02 0.0 
0.0 0.0 -1.550002939978e+02 
-2.946637830729e+01 9.517362844259e+00 0.0 
9.517362844259e+00 -8.887774705633e+01 0.0 
0.0 0.0 -3.510323760908e+01 
-6.906996137932e+01 1.724273620886e+01 0.0 
1.724273620886e+01 -1.420742195476e+02 0.0 
0.0 0.0 -6.294325427808e+01 
-2.435290439568e+01 3.195831898962e+00 0.0 
3.195831898962e+00 -6.902143212170e+01 0.0 
0.0 0.0 -2.761230095521e+01 
-9.101939235980e+01 8.998233715421e+00 0.0 
8.998233715421e+00 -2.488679761286e+02 0.0 
0.0 0.0 -1.015662105465e+02 
-5.382550184369e+01 1.198096418773e+01 0.0 
1.198096418773e+01 -1.578092582019e+02 0.0 
0.0 0.0 -6.309042801369e+01 
-4.069106501334e+01 3.982581358601e-01 0.0 
3.982581358601e-01 -1.242234145725e+02 0.0 
0.0 0.0 -4.907434387577e+01 
-7.044001297223e+01 1.443629391447e+01 0.0 
1.443629391447e+01 -1.261417078811e+02 0.0 
0.0 0.0 -5.857451625599e+01 
-1.300092352986e+02 2.170220151080e+01 0.0 
2.170220151080e+01 -2.989336606079e+02 0.0 
0.0 0.0 -1.282828687720e+02 
-4.371247930628e+01 9.443443167148e+00 0.0 
9.443443167148e+00 -1.345900452494e+02 0.0 
0.0 0.0 -5.309075736671e+01 
-8.264120038129e+01 1.352922618362e+01 0.0 
1.352922618362e+01 -2.235704522475e+02 0.0 
0.0 0.0 -9.146349578864e+01 
-2.474186594471e+01 9.634281243026e+00 0.0 
9.634281243026e+00 -6.075732612854e+01 0.0 
0.0 0.0 -2.524975762198e+01 
-7.880422558463e+01 2.912852575332e+00 0.0 
2.912852575332e+00 -1.573296289378e+02 0.0 
0.0 0.0 -7.044015635673e+01 
-1.057012500674e+02 7.491605222613e+00 0.0 
7.491605222613e+00 -2.797435257771e+02 0.0 
0.0 0.0 -1.152334327533e+02 
-2.945649247648e+01 1.575466739259e+01 0.0 
1.575466739259e+01 -7.035416690963e+01 0.0 
0.0 0.0 -2.954319781583e+01 
-7.638967648936e+01 3.964796717268e+00 0.0 
3.964796717268e+00 -1.491049242345e+02 0.0 
0.0 0.0 -6.724838021716e+01 
-1.345447979711e+02 2.414168917454e+01 0.0 
2.414168917454e+01 -3.128118171314e+02 0.0 
0.0 0.0 -1.338069845308e+02 
-1.154865742593e+02 8.512062161269e+00 0.0 
8.512062161269e+00 -2.986394926880e+02 0.0 
0.0 0.0 -1.238378200842e+02 
-1.287371615295e+02 2.046026846560e+01 0.0 
2.046026846560e+01 -2.945232900543e+02 0.0 
0.0 0.0 -1.265781354751e+02 
-7.762440494996e+01 5.160403413752e+00 0.0 
5.160403413752e+00 -1.481765009863e+02 0.0 
0.0 0.0 -6.734027178089e+01 
-1.004912628756e+02 1.715306266555e+01 0.0 
1.715306266555e+01 -2.085164411830e+02 0.0 
0.0 0.0 -9.230231121757e+01 
-2.581414817251e+01 1.503892894148e+01 0.0 
1.503892894148e+01 -5.313181522625e+01 0.0 
0.0 0.0 -2.328378901963e+01 
-6.252412721369e+01 1.356330846439e+01 0.0 
1.356330846439e+01 -1.054223796962e+02 0.0 
0.0 0.0 -4.998395207297e+01 
-7.332576761009e+01 1.310534954035e+01 0.0 
1.310534954035e+01 -1.385662436632e+02 0.0 
0.0 0.0 -6.316760338198e+01 
-7.821004897418e+01 1.511700259575e+01 0.0 
1.511700259575e+01 -1.468660731018e+02 0.0 
0.0 0.0 -6.712283662281e+01 
-5.919789583886e+01 2.049623592252e+01 0.0 
2.049623592252e+01 -1.340015421851e+02 0.0 
0.0 0.0 -5.755983140720e+01 
-1.379315337418e+02 2.472823147658e+01 0.0 
2.472823147658e+01 -3.230950346867e+02 0.0 
0.0 0.0 -1.379079705286e+02 
-7.426500826334e+01 4.823448203360e+00 0.0 
4.823448203360e+00 -1.387234563069e+02 0.0 
0.0 0.0 -6.349653937106e+01 
-6.548101482005e+01 8.535311142331e+00 0.0 
8.535311142331e+00 -1.109455201650e+02 0.0 
0.0 0.0 -5.252796049552e+01 
-4.802290351533e+01 1.136992189342e+01 0.0 
1.136992189342e+01 -1.408123942464e+02 0.0 
0.0 0.0 -5.625058932851e+01 
-3.232105883802e+01 -2.908097177548e+00 0.0 
-2.908097177548e+00 -8.825347120233e+01 0.0 
0.0 0.0 -3.577235901210e+01 
-5.814813570360e+01 1.085999667858e+01 0.0 
1.085999667858e+01 -9.284206473676e+01 0.0 
0.0 0.0 -4.489706013211e+01 
-3.085286303054e+01 1.475595146128e+01 0.0 
1.475595146128e+01 -8.425958693051e+01 0.0 
0.0 0.0 -3.413373498831e+01 
-5.350042544488e+01 2.943385400727e-01 0.0 
2.943385400727e-01 -1.036796710854e+02 0.0 
0.0 0.0 -4.675402895907e+01 
-4.287831298446e+01 6.031207577537e-01 0.0 
6.031207577537e-01 -1.251944917637e+02 0.0 
0.0 0.0 -5.002184142444e+01 
-4.165512893123e+01 1.047028799572e+01 0.0 
1.047028799572e+01 -1.234701101439e+02 0.0 
0.0 0.0 -4.913757172255e+01 
-9.720013942584e+01 1.020079437721e+01 0.0 
1.020079437721e+01 -2.000915384936e+02 0.0 
0.0 0.0 -8.878750337582e+01 
-3.205253887025e+01 1.460123861169e+01 0.0 
1.460123861169e+01 -8.474074095689e+01 0.0 
0.0 0.0 -3.463798394814e+01 
-6.529356819929e+01 1.227993915453e+01 0.0 
1.227993915453e+01 -1.176624548087e+02 0.0 
0.0 0.0 -5.448680690240e+01 
-8.602281526274e+01 1.194725817663e+01 0.0 
1.194725817663e+01 -2.345375808515e+02 0.0 
0.0 0.0 -9.576811883427e+01 
-8.036340927825e+01 3.019401674969e+00 0.0 
3.019401674969e+00 -2.245071337295e+02 0.0 
0.0 0.0 -9.106116290232e+01 
-1.433019145373e+02 2.364276433094e+01 0.0 
2.364276433094e+01 -3.386851053183e+02 0.0 
0.0 0.0 -1.441961059567e+02 
-5.017228277575e+01 1.445260765107e+01 0.0 
1.445260765107e+01 -7.732411576635e+01 0.0 
0.0 0.0 -3.784891956263e+01 
-3.620650738064e+01 3.412458354434e+00 0.0 
3.412458354434e+00 -1.137249355955e+02 0.0 
0.0 0.0 -4.457943289285e+01 
-5.666316188153e+01 2.081755689468e-01 0.0 
2.081755689468e-01 -1.600584360381e+02 0.0 
0.0 0.0 -6.461647937589e+01 
-2.856977419913e+01 1.769559202898e+01 0.0 
1.769559202898e+01 -5.590959465973e+01 0.0 
0.0 0.0 -2.494381065766e+01 
-2.835164300611e+01 1.571538939004e+01 0.0 
1.571538939004e+01 -6.987721140564e+01 0.0 
0.0 0.0 -2.906865632353e+01 
-1.074350889949e+02 1.605978651285e+01 0.0 
1.605978651285e+01 -2.257380175195e+02 0.0 
0.0 0.0 -9.955193195432e+01 
-7.304787233539e+01 1.905912063600e+01 0.0 
1.905912063600e+01 -1.475429333669e+02 0.0 
0.0 0.0 -6.577724171069e+01 
-4.101718271214e+01 1.870033199282e+01 0.0 
1.870033199282e+01 -6.484540952526e+01 0.0 
0.0 0.0 -3.135877767122e+01 
-5.699677784839e+01 1.120608249676e+01 0.0 
1.120608249676e+01 -9.662026531417e+01 0.0 
0.0 0.0 -4.568511294877e+01 
-1.486531688937e+02 1.968096242236e+01 0.0 
1.968096242236e+01 -3.548822770392e+02 0.0 
0.0 0.0 -1.506606337799e+02 
-1.383117799245e+02 1.929795666145e+01 0.0 
1.929795666145e+01 -3.344622592520e+02 0.0 
0.0 0.0 -1.414322117529e+02 
-1.051455162757e+02 1.348837105415e+01 0.0 
1.348837105415e+01 -2.239756208080e+02 0.0 
0.0 0.0 -9.833634112512e+01 
-9.574482305149e+01 1.109041900554e+01 0.0 
1.109041900554e+01 -1.904577622877e+02 0.0 
0.0 0.0 -8.546077560176e+01 
-7.786694822392e+01 4.176283196861e+00 0.0 
4.176283196861e+00 -2.161270712344e+02 0.0 
0.0 0.0 -8.779820583749e+01 
-4.407671114434e+01 2.038564525448e+01 0.0 
2.038564525448e+01 -9.624003499954e+01 0.0 
0.0 0.0 -4.169502384316e+01 
-3.399742280494e+01 7.315641579093e+00 0.0 
7.315641579093e+00 -1.007922336775e+02 0.0 
0.0 0.0 -4.003689694473e+01 
-3.933044922355e+01 8.272275694913e+00 0.0 
8.272275694913e+00 -1.179711560224e+02 0.0 
0.0 0.0 -4.679048157380e+01 
-6.840187639195e+01 1.992382068083e+01 0.0 
1.992382068083e+01 -1.423569553669e+02 0.0 
0.0 0.0 -6.282764952765e+01 
-8.791735878659e+01 1.046539772463e+01 0.0 
1.046539772463e+01 -2.391855568811e+02 0.0 
0.0 0.0 -9.773087470032e+01 
-7.146516561459e+01 7.657654875536e-01 0.0 
7.657654875536e-01 -1.943822735888e+02 0.0 
0.0 0.0 -7.935423176103e+01 
-1.040417170775e+02 1.149553907154e+01 0.0 
1.149553907154e+01 -2.210405305658e+02 0.0 
0.0 0.0 -9.712467429299e+01 
-3.842097248445e+01 3.151652258005e+00 0.0 
3.151652258005e+00 -1.146049367391e+02 0.0 
0.0 0.0 -4.550777276707e+01 
-5.488827186495e+01 2.000889795931e+01 0.0 
2.000889795931e+01 -1.306207089997e+02 0.0 
0.0 0.0 -5.525269425939e+01 
-6.944714084441e+01 1.444219744528e+01 0.0 
1.444219744528e+01 -1.320178845486e+02 0.0 
0.0 0.0 -6.003950761790e+01 
-4.748634071114e+01 1.987050624713e+01 0.0 
1.987050624713e+01 -1.121905491106e+02 0.0 
0.0 0.0 -4.750306694653e+01 
-1.277548733795e+02 1.919841290831e+01 0.0 
1.919841290831e+01 -2.905324846713e+02 0.0 
0.0 0.0 -1.250862074152e+02 
-1.238914532487e+02 1.594209891482e+01 0.0 
1.594209891482e+01 -2.832417586916e+02 0.0 
0.0 0.0 -1.217399635821e+02 
-1.191005636742e+02 1.642592736366e+01 0.0 
1.642592736366e+01 -2.628341182936e+02 0.0 
0.0 0.0 -1.141804045903e+02 
-8.592164130416e+01 5.225721323041e+00 0.0 
5.225721323041e+00 -2.346050769940e+02 0.0 
0.0 0.0 -9.575801548946e+01 
-9.886954550029e+01 8.040651220429e+00 0.0 
8.040651220429e+00 -2.080641288015e+02 0.0 
0.0 0.0 -9.168010229055e+01 
-2.674363213859e+01 1.437747601427e+01 0.0 
1.437747601427e+01 -6.732103798146e+01 0.0 
0.0 0.0 -2.781940103601e+01 
-4.531883430055e+01 9.235816460745e+00 0.0 
9.235816460745e+00 -1.352250895349e+02 0.0 
0.0 0.0 -5.376317715063e+01 
-2.781221965389e+01 4.256389267318e+00 0.0 
4.256389267318e+00 -7.701613442264e+01 0.0 
0.0 0.0 -3.104850622296e+01 
-4.460166688700e+01 2.007623432291e+01 0.0 
2.007623432291e+01 -8.232061906427e+01 0.0 
0.0 0.0 -3.767668578538e+01 
-5.955249689391e+01 2.132916340334e+00 0.0 
2.132916340334e+00 -1.055540955743e+02 0.0 
0.0 0.0 -4.913197774046e+01 
-7.527532798889e+01 2.849609376871e+00 0.0 
2.849609376871e+00 -1.468621353782e+02 0.0 
0.0 0.0 -6.624123901012e+01 
-1.429676331926e+02 1.542781729685e+01 0.0 
1.542781729685e+01 -3.478983602356e+02 0.0 
0.0 0.0 -1.468597980285e+02 
-1.055354112771e+02 1.537861281322e+01 0.0 
1.537861281322e+01 -2.277568864570e+02 0.0 
0.0 0.0 -9.958768932025e+01 
-7.591536855908e+01 8.871779569925e+00 0.0 
8.871779569925e+00 -1.409169196880e+02 0.0 
0.0 0.0 -6.464968647412e+01 
-8.097208863292e+01 1.382017863321e+01 0.0 
1.382017863321e+01 -1.592262325971e+02 0.0 
0.0 0.0 -7.165949636899e+01 
-2.834851492016e+01 3.804383695184e+00 0.0 
3.804383695184e+00 -8.637349911081e+01 0.0 
0.0 0.0 -3.401660420929e+01 
-2.092299269634e+01 -2.417082043229e+00 0.0 
-2.417082043229e+00 -4.209671064044e+01 0.0 
0.0 0.0 -1.850591100103e+01 
-5.373809331056e+01 1.486044939583e+01 0.0 
1.486044939583e+01 -1.504246015866e+02 0.0 
0.0 0.0 -6.084880846914e+01 
-6.263009386811e+01 2.002293573945e+01 0.0 
2.002293573945e+01 -1.490869508908e+02 0.0 
0.0 0.0 -6.311511342766e+01 
-5.807370907535e+01 1.695777674718e+01 0.0 
1.695777674718e+01 -1.552747575709e+02 0.0 
0.0 0.0 -6.360453999386e+01 
-2.108960659104e+01 1.178987826835e+01 0.0 
1.178987826835e+01 -2.978164684887e+01 0.0 
0.0 0.0 -1.486137603197e+01 
-5.999765923656e+01 -9.647676502920e-03 0.0 
-9.647676502920e-03 -1.202652208601e+02 0.0 
0.0 0.0 -5.367886402900e+01 
-3.082057684507e+01 -1.940040874986e+00 0.0 
-1.940040874986e+00 -8.111971572420e+01 0.0 
0.0 0.0 -3.318208777078e+01 
-3.150801423410e+01 1.157947939707e+01 0.0 
1.157947939707e+01 -9.367062904519e+01 0.0 
0.0 0.0 -3.715359298379e+01 
-1.559512863852e+02 1.583544592329e+01 0.0 
1.583544592329e+01 -3.652196682320e+02 0.0 
0.0 0.0 -1.559512863852e+02 
-9.543420285529e+01 1.582620219449e+01 0.0 
1.582620219449e+01 -2.479902851179e+02 0.0 
0.0 0.0 -1.026273463920e+02 
-6.261781636448e+01 5.376086430850e+00 0.0 
5.376086430850e+00 -1.091746527029e+02 0.0 
0.0 0.0 -5.113774072023e+01 
-2.248241632359e+01 -8.442039874635e-01 0.0 
-8.442039874635e-01 -5.925896742539e+01 0.0 
0.0 0.0 -2.412241512469e+01 
-6.007527658799e+01 1.859350026035e+01 0.0 
1.859350026035e+01 -1.340004649682e+02 0.0 
0.0 0.0 -5.782272246685e+01 
-5.444841883947e+01 1.530308604803e+01 0.0 
1.530308604803e+01 -1.508153225825e+02 0.0 
0.0 0.0 -6.117912242659e+01 
-8.198929070706e+01 1.398778859006e+01 0.0 
1.398778859006e+01 -1.546046485893e+02 0.0 
0.0 0.0 -7.057818178890e+01 
-1.312196714109e+02 2.251235149616e+01 0.0 
2.251235149616e+01 -3.033042861649e+02 0.0 
0.0 0.0 -1.299571872727e+02 
-6.069906156357e+01 9.728487641469e+00 0.0 
9.728487641469e+00 -1.040260297342e+02 0.0 
0.0 0.0 -4.901752738933e+01 
-7.750782518312e+01 1.800175735525e+01 0.0 
1.800175735525e+01 -1.534485530872e+02 0.0 
0.0 0.0 -6.888691348110e+01 
-6.998575512837e+01 -5.217324959069e-01 0.0 
-5.217324959069e-01 -1.934791036120e+02 0.0 
0.0 0.0 -7.863945762213e+01 
-1.001342473599e+02 9.909789706173e+00 0.0 
9.909789706173e+00 -2.095046519351e+02 0.0 
0.0 0.0 -9.249166978849e+01 
-8.871090809734e+01 3.972676563578e+00 0.0 
3.972676563578e+00 -2.432312882206e+02 0.0 
0.0 0.0 -9.918265889537e+01 
-1.333747470212e+02 2.364135128910e+01 0.0 
2.364135128910e+01 -3.080303434327e+02 0.0 
0.0 0.0 -1.320215271362e+02 
-1.240688608355e+02 1.878974610887e+01 0.0 
1.878974610887e+01 -2.908273419495e+02 0.0 
0.0 0.0 -1.240688608355e+02 
-1.187791258649e+02 1.341648591992e+01 0.0 
1.341648591992e+01 -2.784846270181e+02 0.0 
0.0 0.0 -1.187791258649e+02 
-1.204142342699e+02 1.603090104101e+01 0.0 
1.603090104101e+01 -2.822998799630e+02 0.0 
0.0 0.0 -1.204142342699e+02 
-8.451363656694e+01 1.280651350734e+01 0.0 
1.280651350734e+01 -1.663186894766e+02 0.0 
0.0 0.0 -7.484969781305e+01 
-1.025891744473e+02 1.220456417096e+01 0.0 
1.220456417096e+01 -2.109764637046e+02 0.0 
0.0 0.0 -9.366969144556e+01 
-1.089617371817e+02 1.515096131462e+01 0.0 
1.515096131462e+01 -2.368901493300e+02 0.0 
0.0 0.0 -1.033555659535e+02 
-4.763397291902e+01 1.850835704709e+01 0.0 
1.850835704709e+01 -1.120157898780e+02 0.0 
0.0 0.0 -4.749492883910e+01 
-4.403172805520e+01 1.846614874924e+01 0.0 
1.846614874924e+01 -9.587475767631e+01 0.0 
0.0 0.0 -4.157194571945e+01 
-6.763899191818e+01 3.511158911823e-01 0.0 
3.511158911823e-01 -1.837745562317e+02 0.0 
0.0 0.0 -7.502406444498e+01 
-1.065669315529e+02 1.395847881094e+01 0.0 
1.395847881094e+01 -2.226333407933e+02 0.0 
0.0 0.0 -9.836008170389e+01 
-1.361630015848e+02 2.459575570383e+01 0.0 
2.459575570383e+01 -3.178336086352e+02 0.0 
0.0 0.0 -1.357989830660e+02 
-1.028408695694e+02 9.532557939740e+00 0.0 
9.532557939740e+00 -2.188547954911e+02 0.0 
0.0 0.0 -9.610869951814e+01 
-8.661851121558e+01 1.507454872988e+01 0.0 
1.507454872988e+01 -2.295443650340e+02 0.0 
0.0 0.0 -9.444886287487e+01 
-1.052312388114e+02 1.173975323211e+01 0.0 
1.173975323211e+01 -2.203013251897e+02 0.0 
0.0 0.0 -9.725976920033e+01 
-9.502904706420e+01 2.012627547287e+01 0.0 
2.012627547287e+01 -2.243896134085e+02 0.0 
0.0 0.0 -9.542559814180e+01 
-5.889539611146e+01 1.811123743810e+01 0.0 
1.811123743810e+01 -1.453712046191e+02 0.0 
0.0 0.0 -6.087998021916e+01 
-4.497990991710e+01 1.684788161555e+01 0.0 
1.684788161555e+01 -8.199832753087e+01 0.0 
0.0 0.0 -3.769347123439e+01 
-2.547381461769e+01 9.054670127642e+00 0.0 
9.054670127642e+00 -7.218670525291e+01 0.0 
0.0 0.0 -2.889815596118e+01 
-1.118647566305e+02 8.190416553943e+00 0.0 
8.190416553943e+00 -2.559940398234e+02 0.0 
0.0 0.0 -1.099576389362e+02 
-4.360097461140e+01 1.788005242501e+01 0.0 
1.788005242501e+01 -1.091316508320e+02 0.0 
0.0 0.0 -4.541978763303e+01 
-1.239199873876e+02 2.095927194511e+01 0.0 
2.095927194511e+01 -2.883016530508e+02 0.0 
0.0 0.0 -1.232664921315e+02 
-6.629821557083e+01 -9.903034042808e-01 0.0 
-9.903034042808e-01 -1.829181102713e+02 0.0 
0.0 0.0 -7.436489775264e+01 
-4.033883513199e+01 -5.069914302413e-01 0.0 
-5.069914302413e-01 -1.155526010720e+02 0.0 
0.0 0.0 -4.636743086121e+01 
-1.468930163239e+02 1.400848692365e+01 0.0 
1.400848692365e+01 -3.511868575341e+02 0.0 
0.0 0.0 -1.490239621574e+02 
-3.380407759841e+01 1.351290736025e+01 0.0 
1.351290736025e+01 -9.776208981217e+01 0.0 
0.0 0.0 -3.906985022317e+01 
-1.259479214992e+02 2.004851494139e+01 0.0 
2.004851494139e+01 -2.952118168315e+02 0.0 
0.0 0.0 -1.259479214992e+02 
-1.163632763748e+02 1.405816513659e+01 0.0 
1.405816513659e+01 -2.640697646797e+02 0.0 
0.0 0.0 -1.137299123163e+02 
-7.680413269983e+01 1.728844380762e+01 0.0 
1.728844380762e+01 -1.619085985803e+02 0.0 
0.0 0.0 -7.121381938403e+01 
-1.427518777160e+01 -1.716702713200e+00 0.0 
-1.716702713200e+00 -2.481273402468e+01 0.0 
0.0 0.0 -1.175342536771e+01 
-1.298550505390e+02 2.192437162868e+01 0.0 
2.192437162868e+01 -3.043284512578e+02 0.0 
0.0 0.0 -1.298550505390e+02 
-1.444324748050e+02 1.656151891751e+01 0.0 
1.656151891751e+01 -3.448443529292e+02 0.0 
0.0 0.0 -1.463830483203e+02 
-3.823837403120e+01 -8.968546598397e-01 0.0 
-8.968546598397e-01 -1.145780303046e+02 0.0 
0.0 0.0 -4.544492130074e+01 
-9.125353498930e+01 1.433299698654e+01 0.0 
1.433299698654e+01 -2.417655541120e+02 0.0 
0.0 0.0 -9.950572673037e+01 
-1.445005046908e+02 2.281396490894e+01 0.0 
2.281396490894e+01 -3.430603398570e+02 0.0 
0.0 0.0 -1.458682533643e+02 
-1.066641119204e+01 -7.011238558487e-01 0.0 
-7.011238558487e-01 -8.891470195508e+00 0.0 
0.0 0.0 -6.437277559052e+00 
-5.119824563082e+01 1.807428611780e+01 0.0 
1.807428611780e+01 -1.273277673796e+02 0.0 
0.0 0.0 -5.315780390312e+01 
-8.094813223492e+01 1.637654076304e+01 0.0 
1.637654076304e+01 -1.672253381519e+02 0.0 
0.0 0.0 -7.405204111604e+01 
-7.246495473725e+01 1.801281198817e+01 0.0 
1.801281198817e+01 -1.572241135700e+02 0.0 
0.0 0.0 -6.850672049217e+01 
-7.325304450470e+01 1.613832221704e+01 0.0 
1.613832221704e+01 -1.470440111230e+02 0.0 
0.0 0.0 -6.568911668832e+01 
-2.705068820788e+01 1.110268563673e+01 0.0 
1.110268563673e+01 -7.688928187740e+01 0.0 
0.0 0.0 -3.078199102558e+01 
-1.343307055478e+02 2.315353041949e+01 0.0 
2.315353041949e+01 -3.147716462781e+02 0.0 
0.0 0.0 -1.343307055478e+02 
-5.188230035991e+01 1.017118812693e+01 0.0 
1.017118812693e+01 -1.525940705796e+02 0.0 
0.0 0.0 -6.094291128186e+01 
-2.305538294816e+01 1.487708303728e+00 0.0 
1.487708303728e+00 -5.194513622874e+01 0.0 
0.0 0.0 -2.210015575307e+01 
-1.511272975716e+02 6.123599046495e+00 0.0 
6.123599046495e+00 -3.642535267211e+02 0.0 
0.0 0.0 -1.542142472878e+02 
-1.629248054515e+01 -1.642959600355e+00 0.0 
-1.642959600355e+00 -2.520846979390e+01 0.0 
0.0 0.0 -1.205028510172e+01 
-5.314712793627e+01 1.299117466010e+01 0.0 
1.299117466010e+01 -9.028729389335e+01 0.0 
0.0 0.0 -4.263032654889e+01 
-2.284729849089e+01 -1.920879320972e+00 0.0 
-1.920879320972e+00 -5.847653294335e+01 0.0 
0.0 0.0 -2.399714943027e+01 
-5.560974584042e+01 6.944780058396e+00 0.0 
6.944780058396e+00 -9.105361218320e+01 0.0 
0.0 0.0 -4.359900740709e+01 
-1.502331134098e+02 1.844725827124e+01 0.0 
1.844725827124e+01 -3.585335149074e+02 0.0 
0.0 0.0 -1.522299884952e+02 
-1.391953669691e+02 2.338501028456e+01 0.0 
2.338501028456e+01 -3.261225229279e+02 0.0 
0.0 0.0 -1.391953669691e+02 
-7.685116462584e+01 1.189962647130e+01 0.0 
1.189962647130e+01 -1.456496242610e+02 0.0 
0.0 0.0 -6.635023666604e+01 
-1.879069424433e+01 -2.177671932034e+00 0.0 
-2.177671932034e+00 -4.191816620439e+01 0.0 
0.0 0.0 -1.781265813462e+01 
-2.021943443151e+01 9.777202612489e-01 0.0 
9.777202612489e-01 -4.283243405376e+01 0.0 
0.0 0.0 -1.851556054558e+01 
-2.563242001901e+01 -2.253217922434e+00 0.0 
-2.253217922434e+00 -5.799329173096e+01 0.0 
0.0 0.0 -2.468771352499e+01 
-1.274246785132e+02 7.218071821201e+00 0.0 
7.218071821201e+00 -3.189063603864e+02 0.0 
0.0 0.0 -1.334993116699e+02 
-5.948715492653e+01 2.364088154995e+00 0.0 
2.364088154995e+00 -1.060191437072e+02 0.0 
0.0 0.0 -4.925188959012e+01 
-6.883156961601e+01 7.948346569518e+00 0.0 
7.948346569518e+00 -1.196707506311e+02 0.0 
0.0 0.0 -5.615069607414e+01 
-1.437883199355e+02 2.278728192210e+01 0.0 
2.278728192210e+01 -3.368394131827e+02 0.0 
0.0 0.0 -1.437883199355e+02 
-5.825679702885e+01 2.064105875084e+00 0.0 
2.064105875084e+00 -1.055914146542e+02 0.0 
0.0 0.0 -4.875446350490e+01 
-1.220646323546e+02 1.317523177696e+01 0.0 
1.317523177696e+01 -2.793917752704e+02 0.0 
0.0 0.0 -1.200369222875e+02 
-9.882232921606e+01 1.829199738321e+01 0.0 
1.829199738321e+01 -2.376475136326e+02 0.0 
0.0 0.0 -1.005409528546e+02 
-7.061334529524e+01 1.864751318312e+00 0.0 
1.864751318312e+00 -1.371344860459e+02 0.0 
0.0 0.0 -6.192434940235e+01 
-3.033368735751e+01 1.705253367465e+01 0.0 
1.705253367465e+01 -7.189483518501e+01 0.0 
0.0 0.0 -3.026855676276e+01 
-9.021558645322e+01 1.341963201843e+01 0.0 
1.341963201843e+01 -2.411423057965e+02 0.0 
0.0 0.0 -9.900736767490e+01 
-2.581875878861e+01 5.652446309242e+00 0.0 
5.652446309242e+00 -6.706193300864e+01 0.0 
0.0 0.0 -2.746420753917e+01 
-1.477835397511e+02 2.139205275185e+01 0.0 
2.139205275185e+01 -3.461615927525e+02 0.0 
0.0 0.0 -1.477835397511e+02 
-1.221693369600e+02 1.733564383592e+01 0.0 
1.733564383592e+01 -2.863951195734e+02 0.0 
0.0 0.0 -1.221693369600e+02 
-1.196917465806e+02 1.477371754614e+01 0.0 
1.477371754614e+01 -2.806140753547e+02 0.0 
0.0 0.0 -1.196917465806e+02 
-9.053936643061e+01 5.032348374119e+00 0.0 
5.032348374119e+00 -2.442317894871e+02 0.0 
0.0 0.0 -1.000313467753e+02 
-6.375700061516e+01 7.464097233468e-02 0.0 
7.464097233468e-02 -1.729632137155e+02 0.0 
0.0 0.0 -7.061606429920e+01 
-5.838148585745e+01 1.925765550626e+01 0.0 
1.925765550626e+01 -1.454050746225e+02 0.0 
0.0 0.0 -6.073596814398e+01 
-9.337911406982e+01 3.716399437251e+00 0.0 
3.716399437251e+00 -2.525662909403e+02 0.0 
0.0 0.0 -1.033836215030e+02 
-1.512101893643e+02 1.945787621472e+01 0.0 
1.945787621472e+01 -3.541571085167e+02 0.0 
0.0 0.0 -1.512101893643e+02 
-3.283333588062e+01 1.097328274341e+01 0.0 
1.097328274341e+01 -9.410318044460e+01 0.0 
0.0 0.0 -3.768095489756e+01 
-4.313428734729e+01 1.826107161033e+00 0.0 
1.826107161033e+00 -1.330705654749e+02 0.0 
0.0 0.0 -5.246145584666e+01 
-4.674171364191e+01 1.306203249461e+00 0.0 
1.306203249461e+00 -1.424023284498e+02 0.0 
0.0 0.0 -5.634321262751e+01 
-7.449129193993e+01 2.041898728671e+00 0.0 
2.041898728671e+00 -1.479839609343e+02 0.0 
0.0 0.0 -6.634257586226e+01 
-1.541755931006e+02 1.461903420317e+01 0.0 
1.461903420317e+01 -3.677712931647e+02 0.0 
0.0 0.0 -1.561840658796e+02 
-2.258024080640e+01 -2.237413293473e+00 0.0 
-2.237413293473e+00 -4.163802702756e+01 0.0 
0.0 0.0 -1.886548035019e+01 
-1.544701950897e+02 1.701284629651e+01 0.0 
1.701284629651e+01 -3.617637885426e+02 0.0 
0.0 0.0 -1.544701950897e+02 
-4.409049488890e+01 -6.885040214516e-02 0.0 
-6.885040214516e-02 -1.331172098196e+02 0.0 
0.0 0.0 -5.276231141256e+01 
-1.280781149918e+02 2.114441937790e+01 0.0 
2.114441937790e+01 -3.001822683141e+02 0.0 
0.0 0.0 -1.280781149918e+02 
-1.112941183336e+02 1.761140023492e+01 0.0 
1.761140023492e+01 -2.384775878957e+02 0.0 
0.0 0.0 -1.045315118688e+02 
-1.232481366982e+01 -6.763351322698e-01 0.0 
-6.763351322698e-01 -7.902357231558e+00 0.0 
0.0 0.0 -5.668151270415e+00 
-5.448768616608e+01 1.724089384957e+01 0.0 
1.724089384957e+01 -1.414248465779e+02 0.0 
0.0 0.0 -5.837375982318e+01 
-1.041157485457e+02 9.887388898672e+00 0.0 
9.887388898672e+00 -2.194730426206e+02 0.0 
0.0 0.0 -9.667663734989e+01 
-1.321770233302e+02 2.271488903583e+01 0.0 
2.271488903583e+01 -3.097463877704e+02 0.0 
0.0 0.0 -1.321770233302e+02 
-8.574234800938e+01 1.577675788218e+01 0.0 
1.577675788218e+01 -1.674002511714e+02 0.0 
0.0 0.0 -7.554277975423e+01 
-1.027334705934e+02 1.807765308480e+01 0.0 
1.807765308480e+01 -2.509835186702e+02 0.0 
0.0 0.0 -1.057150967791e+02 
-2.239681095764e+01 8.815026517641e+00 0.0 
8.815026517641e+00 -5.590792365298e+01 0.0 
0.0 0.0 -2.309142038318e+01 
-1.361343680719e+02 1.490577489282e+01 0.0 
1.490577489282e+01 -3.314451683819e+02 0.0 
0.0 0.0 -1.398738609361e+02 
-4.766249423435e+01 -3.287061489164e-01 0.0 
-3.287061489164e-01 -1.420361336086e+02 0.0 
0.0 0.0 -5.650958835288e+01 
-4.887398241417e+01 1.569985052198e+00 0.0 
1.569985052198e+00 -1.433588016930e+02 0.0 
0.0 0.0 -5.726983523214e+01 
-1.989769240544e+01 -1.778204242394e+00 0.0 
-1.778204242394e+00 -2.582237629525e+01 0.0 
0.0 0.0 -1.331602061021e+01 
-1.367161330989e+02 2.337059455564e+01 0.0 
2.337059455564e+01 -3.203376438975e+02 0.0 
0.0 0.0 -1.367161330989e+02 
-2.942789849371e+01 6.445437362492e+00 0.0 
6.445437362492e+00 -8.374851184532e+01 0.0 
0.0 0.0 -3.355292310171e+01 
-1.216778899702e+02 1.119734241201e+01 0.0 
1.119734241201e+01 -3.082136516463e+02 0.0 
0.0 0.0 -1.285674624850e+02 
-6.759183255272e+01 3.163604201575e+00 0.0 
3.163604201575e+00 -1.277379479886e+02 0.0 
0.0 0.0 -5.819893416238e+01 
-4.376768489533e+01 -1.209434085171e+00 0.0 
-1.209434085171e+00 -1.228017031542e+02 0.0 
0.0 0.0 -4.957081641485e+01 
-4.529237122744e+01 2.007216993725e+00 0.0 
2.007216993725e+00 -1.340236756962e+02 0.0 
0.0 0.0 -5.339481407709e+01 
-8.176863936953e+01 1.685020332118e+01 0.0 
1.685020332118e+01 -1.601511293438e+02 0.0 
0.0 0.0 -7.217593061398e+01 
-1.458669123083e+02 2.224283749477e+01 0.0 
2.224283749477e+01 -3.416894620528e+02 0.0 
0.0 0.0 -1.458669123083e+02 
-6.627901816262e+01 -1.114500394713e+00 0.0 
-1.114500394713e+00 -1.809602661629e+02 0.0 
0.0 0.0 -7.377178529767e+01 
-1.032819623557e+02 7.321076980877e+00 0.0 
7.321076980877e+00 -2.719269952295e+02 0.0 
0.0 0.0 -1.121626872756e+02 
-7.129564271899e+01 1.836385130317e+01 0.0 
1.836385130317e+01 -1.676775307841e+02 0.0 
0.0 0.0 -7.129195205094e+01 
-8.868474125184e+01 8.333318778501e+00 0.0 
8.333318778501e+00 -2.417226723793e+02 0.0 
0.0 0.0 -9.872222408933e+01 
-4.776033982164e+01 3.540709118459e+00 0.0 
3.540709118459e+00 -1.422840658267e+02 0.0 
0.0 0.0 -5.661332169449e+01 
-9.438443374256e+01 6.272942857666e+00 0.0 
6.272942857666e+00 -2.531924431152e+02 0.0 
0.0 0.0 -1.038730630573e+02 
-6.710677807197e+01 2.034184401934e+01 0.0 
2.034184401934e+01 -1.529955115295e+02 0.0 
0.0 0.0 -6.563068688045e+01 
-9.565154293697e+01 2.024356754397e+01 0.0 
2.024356754397e+01 -2.158082874223e+02 0.0 
0.0 0.0 -9.303794910779e+01 
-9.912393167987e+01 1.409563964529e+01 0.0 
1.409563964529e+01 -2.594233152927e+02 0.0 
0.0 0.0 -1.071641740918e+02 
-6.674416080183e+01 1.806437887543e+01 0.0 
1.806437887543e+01 -1.635568701733e+02 0.0 
0.0 0.0 -6.869030929255e+01 
-6.601605676042e+01 -6.126857742785e-01 0.0 
-6.126857742785e-01 -1.846683098140e+02 0.0 
0.0 0.0 -7.480530997232e+01 
-3.489664753436e+01 1.314773653509e+01 0.0 
1.314773653509e+01 -9.815047802388e+01 0.0 
0.0 0.0 -3.951413766747e+01 
-6.256125345249e+01 -1.312693645119e+00 0.0 
-1.312693645119e+00 -1.721581318318e+02 0.0 
0.0 0.0 -7.001581558527e+01 
-9.899756267152e+01 1.991870833132e+01 0.0 
1.991870833132e+01 -2.381311272707e+02 0.0 
0.0 0.0 -1.007386069827e+02 
-7.756357681515e+01 1.122360307449e+01 0.0 
1.122360307449e+01 -2.164766833163e+02 0.0 
0.0 0.0 -8.781207803944e+01 
-1.516805050604e+02 1.727353425206e+01 0.0 
1.727353425206e+01 -3.619666930766e+02 0.0 
0.0 0.0 -1.536941594411e+02 
-1.079766481932e+02 1.133890644018e+01 0.0 
1.133890644018e+01 -2.298256167557e+02 0.0 
0.0 0.0 -1.009406794847e+02 
-3.918694213787e+01 -2.519199688438e+00 0.0 
-2.519199688438e+00 -1.114026418976e+02 0.0 
0.0 0.0 -4.477687521064e+01 
-1.529393301315e+02 1.819899678627e+01 0.0 
1.819899678627e+01 -3.581917703069e+02 0.0 
0.0 0.0 -1.529393301315e+02 
-1.419093636842e+02 1.675416065999e+01 0.0 
1.675416065999e+01 -3.449421169230e+02 0.0 
0.0 0.0 -1.456554441821e+02 
-6.157123659610e+01 1.525670391684e+01 0.0 
1.525670391684e+01 -1.682946629312e+02 0.0 
0.0 0.0 -6.855976985819e+01 
-1.596095036935e+01 -1.732683560681e+00 0.0 
-1.732683560681e+00 -2.540018821404e+01 0.0 
0.0 0.0 -1.238612509671e+01 
-1.552240235480e+02 1.328525925421e+01 0.0 
1.328525925421e+01 -3.701812823939e+02 0.0 
0.0 0.0 -1.572215917826e+02 
-1.089487634518e+02 1.325959542215e+01 0.0 
1.325959542215e+01 -2.312584781369e+02 0.0 
0.0 0.0 -1.016621724766e+02 
-4.154722428462e+01 -1.171950880339e+00 0.0 
-1.171950880339e+00 -1.234323224221e+02 0.0 
0.0 0.0 -4.909386401202e+01 
-1.571285762772e+02 1.461469558013e+01 0.0 
1.461469558013e+01 -3.679666779802e+02 0.0 
0.0 0.0 -1.571285762772e+02 
-9.918640741886e+01 6.035440446514e+00 0.0 
6.035440446514e+00 -2.629481671925e+02 0.0 
0.0 0.0 -1.082403723834e+02 
-4.861961913406e+01 1.813729747191e+01 0.0 
1.813729747191e+01 -9.873654031501e+01 0.0 
0.0 0.0 -4.380684783472e+01 
-7.137298205026e+01 6.876590679299e+00 0.0 
6.876590679299e+00 -1.293405339623e+02 0.0 
0.0 0.0 -5.981405480377e+01 
-7.436581120322e+01 1.272422993632e+01 0.0 
1.272422993632e+01 -2.055569164152e+02 0.0 
0.0 0.0 -8.357681828552e+01 
-8.226454157681e+01 4.032333615055e+00 0.0 
4.032333615055e+00 -2.255236513962e+02 0.0 
0.0 0.0 -9.193645789191e+01 
-9.259652296990e+01 9.883717469410e+00 0.0 
9.883717469410e+00 -2.497417828863e+02 0.0 
0.0 0.0 -1.023014917569e+02 
-8.833860265356e+01 9.877112002351e+00 0.0 
9.877112002351e+00 -1.697908676822e+02 0.0 
0.0 0.0 -7.703884110073e+01 
-5.749660555662e+01 1.548921563733e+01 0.0 
1.548921563733e+01 -1.061824954320e+02 0.0 
0.0 0.0 -4.870373029658e+01 
-1.034713368529e+02 1.540904721611e+01 0.0 
1.540904721611e+01 -2.658565126924e+02 0.0 
0.0 0.0 -1.103983548636e+02 
-6.717661513776e+01 5.203767183948e-01 0.0 
5.203767183948e-01 -1.370549373847e+02 0.0 
0.0 0.0 -6.086946575674e+01 
-6.763216368397e+01 5.934124872395e-01 0.0 
5.934124872395e-01 -1.856128231187e+02 0.0 
0.0 0.0 -7.557349604080e+01 
-9.477067933352e+01 1.269457217171e+01 0.0 
1.269457217171e+01 -2.527173507638e+02 0.0 
0.0 0.0 -1.038464090292e+02 
-4.967865410248e+01 2.136780779134e-01 0.0 
2.136780779134e-01 -1.429922362062e+02 0.0 
0.0 0.0 -5.740126709261e+01 
-9.866006423361e+01 1.375323547317e+00 0.0 
1.375323547317e+00 -2.594163063231e+02 0.0 
0.0 0.0 -1.070229111670e+02 
-1.394057093947e+01 -6.752846140502e-01 0.0 
-6.752846140502e-01 -8.043005246245e+00 0.0 
0.0 0.0 -6.195072855714e+00 
-3.731107356173e+01 1.526501730262e+01 0.0 
1.526501730262e+01 -1.018687254526e+02 0.0 
0.0 0.0 -4.135393970429e+01 
-4.621691839258e+01 3.505089050680e-01 0.0 
3.505089050680e-01 -1.341049526825e+02 0.0 
0.0 0.0 -5.369656132253e+01 
-7.398850620583e+01 -4.129761180884e-01 0.0 
-4.129761180884e-01 -2.022970666387e+02 0.0 
0.0 0.0 -8.248567185336e+01 
-6.579555530372e+01 1.649257345848e+01 0.0 
1.649257345848e+01 -1.729841867864e+02 0.0 
0.0 0.0 -7.123392262704e+01 
-9.742664191894e+01 4.905976815099e+00 0.0 
4.905976815099e+00 -2.619634938206e+02 0.0 
0.0 0.0 -1.074170407219e+02 
-7.210807674773e+01 3.077584882228e+00 0.0 
3.077584882228e+00 -1.398913690624e+02 0.0 
0.0 0.0 -6.319983374304e+01 
-4.352732573853e+01 -5.885800741733e-01 0.0 
-5.885800741733e-01 -1.244010073547e+02 0.0 
0.0 0.0 -4.997849992796e+01 
-1.582570069410e+02 1.338724741400e+01 0.0 
1.338724741400e+01 -3.705996828624e+02 0.0 
0.0 0.0 -1.582570069410e+02 
-8.083495696294e+01 1.909392303468e+01 0.0 
1.909392303468e+01 -1.677100771582e+02 0.0 
0.0 0.0 -7.416351023633e+01 
-7.798808214821e+01 -3.341421760340e-01 0.0 
-3.341421760340e-01 -2.109722952945e+02 0.0 
0.0 0.0 -8.628811323282e+01 
-7.630445402670e+01 1.980870937837e+01 0.0 
1.980870937837e+01 -1.622005755360e+02 0.0 
0.0 0.0 -7.115150886882e+01 
-7.531355729847e+01 9.020452846144e-01 0.0 
9.020452846144e-01 -2.031392257286e+02 0.0 
0.0 0.0 -8.313583490811e+01 
-1.185467602451e+01 -7.212313980269e-01 0.0 
-7.212313980269e-01 -8.932890001219e+00 0.0 
0.0 0.0 -6.810515786967e+00 
-7.711531573031e+01 9.116213943299e+00 0.0 
9.116213943299e+00 -1.400694440137e+02 0.0 
0.0 0.0 -6.475542792320e+01 
-6.266213756297e+01 -1.103981987488e+00 0.0 
-1.103981987488e+00 -1.692068733148e+02 0.0 
0.0 0.0 -6.916070326332e+01 
-5.901059637232e+00 -4.519457764521e-01 0.0 
-4.519457764521e-01 -8.752688060964e+00 0.0 
0.0 0.0 -4.950799098105e+00 
-7.399436125972e+01 -7.556770268401e-01 0.0 
-7.556770268401e-01 -2.002480642255e+02 0.0 
0.0 0.0 -8.187272764556e+01 
-1.065523721762e+02 5.832669393277e+00 0.0 
5.832669393277e+00 -2.807027220032e+02 0.0 
0.0 0.0 -1.157765282538e+02 
-9.624445414411e+01 1.728948775576e+00 0.0 
1.728948775576e+00 -2.127357668266e+02 0.0 
0.0 0.0 -9.229406629120e+01 
-8.409716617025e+01 8.857935503347e+00 0.0 
8.857935503347e+00 -2.315478518654e+02 0.0 
0.0 0.0 -9.429350541069e+01 
-8.698913096062e+01 7.486035867901e+00 0.0 
7.486035867901e+00 -2.407975048746e+02 0.0 
0.0 0.0 -9.793599075056e+01 
-6.073370859565e+01 6.291339734193e+00 0.0 
6.291339734193e+00 -1.006227163920e+02 0.0 
0.0 0.0 -4.800692749629e+01 
-5.028390373238e+01 9.369262366218e-01 0.0 
9.369262366218e-01 -8.714736515664e+01 0.0 
0.0 0.0 -4.082938066671e+01 
-1.141538706868e+02 1.081477680928e+01 0.0 
1.081477680928e+01 -2.592824760641e+02 0.0 
0.0 0.0 -1.116309040253e+02 
-7.170126422045e+01 2.024544548666e+01 0.0 
2.024544548666e+01 -1.573155581978e+02 0.0 
0.0 0.0 -6.830504672546e+01 
-4.772638405976e+00 -3.315959865125e-01 0.0 
-3.315959865125e-01 -7.339354772602e+00 0.0 
0.0 0.0 -3.233597953573e+00 
-2.680567272395e+01 -1.745230181933e+00 0.0 
-1.745230181933e+00 -6.913606191187e+01 0.0 
0.0 0.0 -2.838252039075e+01 
-1.533093935285e+01 -1.720251622340e+00 0.0 
-1.720251622340e+00 -2.515831593407e+01 0.0 
0.0 0.0 -1.214028984347e+01 
-4.354698963444e+01 -1.554792444335e+00 0.0 
-1.554792444335e+00 -1.200460243068e+02 0.0 
0.0 0.0 -4.867790418236e+01 
-1.115069928264e+02 2.036505755814e+01 0.0 
2.036505755814e+01 -2.477213250580e+02 0.0 
0.0 0.0 -1.073684953653e+02 
-9.735606531660e+01 3.463984090315e+00 0.0 
3.463984090315e+00 -2.135060526484e+02 0.0 
0.0 0.0 -9.285863538949e+01 
-1.214117416927e+02 4.776447572109e+00 0.0 
4.776447572109e+00 -3.084616458717e+02 0.0 
0.0 0.0 -1.285620162693e+02 
-4.956511523022e+01 -9.453740871326e-01 0.0 
-9.453740871326e-01 -1.361304220652e+02 0.0 
0.0 0.0 -5.530866118862e+01 
-9.983080749110e+01 2.700112097955e+00 0.0 
2.700112097955e+00 -2.602173887408e+02 0.0 
0.0 0.0 -1.076144588696e+02 
-1.254753242534e+02 9.462043586929e+00 0.0 
9.462043586929e+00 -3.172547522754e+02 0.0 
0.0 0.0 -1.324190229586e+02 
-2.647292024272e+01 2.176743915917e+00 0.0 
2.176743915917e+00 -6.967726009800e+01 0.0 
0.0 0.0 -2.844505410222e+01 
-6.302320926033e+01 5.802027391972e-01 0.0 
5.802027391972e-01 -1.694048685663e+02 0.0 
0.0 0.0 -6.932842334799e+01 
-5.167654027899e+01 -9.977125838979e-01 0.0 
-9.977125838979e-01 -1.395444910184e+02 0.0 
0.0 0.0 -5.696630938923e+01 
-1.559323171098e+02 1.191487315434e+01 0.0 
1.191487315434e+01 -3.719815633672e+02 0.0 
0.0 0.0 -1.579741641431e+02 
-1.591816730606e+02 1.217151665026e+01 0.0 
1.217151665026e+01 -3.727572371415e+02 0.0 
0.0 0.0 -1.591816730606e+02 
-7.018610714039e+01 4.797154980269e-01 0.0 
4.797154980269e-01 -1.879723297573e+02 0.0 
0.0 0.0 -7.704753106932e+01 
-7.924670512518e+01 1.025963974289e+00 0.0 
1.025963974289e+00 -2.118030003398e+02 0.0 
0.0 0.0 -8.691491163948e+01 
-8.485823328453e+01 2.811137083165e+00 0.0 
2.811137083165e+00 -2.337589212547e+02 0.0 
0.0 0.0 -9.518514636177e+01 
-1.300822745162e+02 1.107168237146e+01 0.0 
1.107168237146e+01 -3.255441078093e+02 0.0 
0.0 0.0 -1.362879146977e+02 
-2.872152881217e+01 -2.860272990106e+00 0.0 
-2.860272990106e+00 -7.659393934337e+01 0.0 
0.0 0.0 -3.119464044666e+01 
-1.207158539094e+02 8.041524539371e+00 0.0 
8.041524539371e+00 -3.084763980598e+02 0.0 
0.0 0.0 -1.283576755907e+02 
-1.725881849161e+01 -1.162259840064e+00 0.0 
-1.162259840064e+00 -4.304539320361e+01 0.0 
0.0 0.0 -1.769126350857e+01 
-7.127856718325e+01 5.220170052407e-01 0.0 
5.220170052407e-01 -1.924515617804e+02 0.0 
0.0 0.0 -7.871903868908e+01 
-7.926689065882e+01 1.427479530850e+00 0.0 
1.427479530850e+00 -2.136354793787e+02 0.0 
0.0 0.0 -8.747071101127e+01 
-9.993752577233e+00 -6.224736132133e-01 0.0 
-6.224736132133e-01 -2.555237898027e+01 0.0 
0.0 0.0 -1.064443463702e+01 
-6.670949883594e+01 -8.820982852446e-01 0.0 
-8.820982852446e-01 -1.785942814743e+02 0.0 
0.0 0.0 -7.319113409306e+01 
-1.052449477694e+02 9.341934184525e+00 0.0 
9.341934184525e+00 -2.281738274439e+02 0.0 
0.0 0.0 -9.962563256401e+01 
-3.982414189120e+00 -3.022558267565e-01 0.0 
-3.022558267565e-01 -7.812763402109e+00 0.0 
0.0 0.0 -3.138553277369e+00 
-5.156769835558e+01 1.318572345930e+00 0.0 
1.318572345930e+00 -8.767999397764e+01 0.0 
0.0 0.0 -4.137430769997e+01 
-5.157993090187e+01 1.839573055604e+00 0.0 
1.839573055604e+00 -8.855995307995e+01 0.0 
0.0 0.0 -4.164196519455e+01 
-9.664066089569e+01 1.146149711187e+01 0.0 
1.146149711187e+01 -2.574111544096e+02 0.0 
0.0 0.0 -1.058155445916e+02 
-5.176177750442e+01 5.217364912104e-01 0.0 
5.217364912104e-01 -1.395009527577e+02 0.0 
0.0 0.0 -5.697881907863e+01 
-4.492699217691e+01 -1.328859935052e+00 0.0 
-1.328859935052e+00 -1.322099821633e+02 0.0 
0.0 0.0 -5.274109230206e+01 
-2.614486572592e+01 1.182955042174e+01 0.0 
1.182955042174e+01 -6.462286076826e+01 0.0 
0.0 0.0 -2.683031794825e+01 
-1.361579208532e+02 5.043418457986e+00 0.0 
5.043418457986e+00 -3.357699354547e+02 0.0 
0.0 0.0 -1.411783568924e+02 
-1.292222359048e+02 2.191681685567e+01 0.0 
2.191681685567e+01 -3.014094205803e+02 0.0 
0.0 0.0 -1.287894969455e+02 
-9.434412551451e+01 4.649938827429e+00 0.0 
4.649938827429e+00 -2.010662959557e+02 0.0 
0.0 0.0 -8.822312644106e+01 
-3.129247644470e+01 1.725460312407e+01 0.0 
1.725460312407e+01 -7.233895916707e+01 0.0 
0.0 0.0 -3.068943068353e+01 
-1.977641657840e+01 -2.863049580127e+00 0.0 
-2.863049580127e+00 -4.774513780284e+01 0.0 
0.0 0.0 -1.985646631437e+01 
-5.837821035666e+01 1.531248871943e+01 0.0 
1.531248871943e+01 -9.796781475446e+01 0.0 
0.0 0.0 -4.650380753334e+01 
-4.888589504786e+01 2.617452593577e-01 0.0 
2.617452593577e-01 -8.759878779735e+01 0.0 
0.0 0.0 -4.054540485356e+01 
-4.787913449785e+01 3.395621270998e-01 0.0 
3.395621270998e-01 -8.734840379109e+01 0.0 
0.0 0.0 -4.016826148668e+01 
-5.292174195533e+00 -3.826348519611e-01 0.0 
-3.826348519611e-01 -8.979171008280e+00 0.0 
0.0 0.0 -4.850291011784e+00 
-1.028183384376e+01 -7.496423598874e-01 0.0 
-7.496423598874e-01 -2.540091594893e+01 0.0 
0.0 0.0 -1.072615430776e+01 
-1.518890962815e+01 -2.664773707429e-01 0.0 
-2.664773707429e-01 -4.209176302475e+01 0.0 
0.0 0.0 -1.678420179587e+01 
-3.808085922644e+01 -2.630744351256e+00 0.0 
-2.630744351256e+00 -1.047837406311e+02 0.0 
0.0 0.0 -4.245937995725e+01 
-1.012891440906e+01 -4.809678606278e-01 0.0 
-4.809678606278e-01 -2.589923186441e+01 0.0 
0.0 0.0 -1.040844388204e+01 
-7.405500754358e+01 -7.639672624295e-01 0.0 
-7.639672624295e-01 -1.981917022007e+02 0.0 
0.0 0.0 -8.127401292328e+01 
-1.514268862590e+01 -6.592966292187e-01 0.0 
-6.592966292187e-01 -8.847040194237e+00 0.0 
0.0 0.0 -7.765254011195e+00 
-4.479588535898e+01 -2.391327149584e+00 0.0 
-2.391327149584e+00 -1.243915982650e+02 0.0 
0.0 0.0 -5.035624508720e+01 
-7.372041685181e+01 3.909510547706e-01 0.0 
3.909510547706e-01 -1.540595028235e+02 0.0 
0.0 0.0 -6.793397590261e+01 
-4.955975640125e+01 7.558414389937e-01 0.0 
7.558414389937e-01 -8.744481688440e+01 0.0 
0.0 0.0 -4.070137198570e+01 
-1.150693004318e+02 2.014608668638e+01 0.0 
2.014608668638e+01 -2.540403191950e+02 0.0 
0.0 0.0 -1.103328858881e+02 
-1.022776109008e+02 4.606237248417e+00 0.0 
4.606237248417e+00 -2.713560836571e+02 0.0 
0.0 0.0 -1.116901083674e+02 
-6.642908772219e+01 6.939655884870e-02 0.0 
6.939655884870e-02 -1.363344360453e+02 0.0 
0.0 0.0 -6.042905713024e+01 
-5.521844837405e+01 -7.971343150023e-01 0.0 
-7.971343150023e-01 -1.489825110032e+02 0.0 
0.0 0.0 -6.086028781317e+01 
-1.661352189071e+01 -5.484813053322e-01 0.0 
-5.484813053322e-01 -4.279428950484e+01 0.0 
0.0 0.0 -1.742234341867e+01 
-1.151374001338e+02 5.497588628195e+00 0.0 
5.497588628195e+00 -2.699872669788e+02 0.0 
0.0 0.0 -1.151374001338e+02 
-1.178057341087e+02 6.024932989688e+00 0.0 
6.024932989688e+00 -2.712824962293e+02 0.0 
0.0 0.0 -1.163264691014e+02 
-6.592747852302e+01 8.963959456578e-01 0.0 
8.963959456578e-01 -1.267842408118e+02 0.0 
0.0 0.0 -5.741351580044e+01 
-4.904758883864e+01 4.059809276451e-01 0.0 
4.059809276451e-01 -8.717218806097e+01 0.0 
0.0 0.0 -4.046593306988e+01 
-5.616519250753e+01 4.050546133759e-02 0.0 
4.050546133759e-02 -1.510543370971e+02 0.0 
0.0 0.0 -6.176585888140e+01 
-1.171691763674e+02 4.275461031052e+00 0.0 
4.275461031052e+00 -2.703701050044e+02 0.0 
0.0 0.0 -1.158617844115e+02 
-4.265768693033e+01 -1.330808247341e+00 0.0 
-1.330808247341e+00 -1.165229919621e+02 0.0 
0.0 0.0 -4.735420366774e+01 
-5.043084802043e+01 1.234731464630e+00 0.0 
1.234731464630e+00 -8.772926896013e+01 0.0 
0.0 0.0 -4.104803509417e+01 
-5.002067556522e+01 5.876040201401e-01 0.0 
5.876040201401e-01 -8.714914959647e+01 0.0 
0.0 0.0 -4.075094754851e+01 
-5.190341908859e+01 8.222469465781e+00 0.0 
8.222469465781e+00 -8.271714844860e+01 0.0 
0.0 0.0 -3.998617026116e+01 
-1.182160680171e+02 1.221933185707e+01 0.0 
1.221933185707e+01 -2.771708253731e+02 0.0 
0.0 0.0 -1.182160680171e+02 
-1.182628884738e+02 5.004627702759e+00 0.0 
5.004627702759e+00 -2.712850470294e+02 0.0 
0.0 0.0 -1.164643806510e+02 
-1.050965332623e+01 -6.505124678146e-01 0.0 
-6.505124678146e-01 -2.569389262681e+01 0.0 
0.0 0.0 -1.046106378591e+01 
-4.940857178799e+00 -2.733830343665e-01 0.0 
-2.733830343665e-01 -9.091338396393e+00 0.0 
0.0 0.0 -4.786913479854e+00 
-2.262668215576e+01 -2.637375613519e+00 0.0 
-2.637375613519e+00 -5.731823208054e+01 0.0 
0.0 0.0 -2.358347427089e+01 
-7.781370305125e+01 1.368437153880e-01 0.0 
1.368437153880e-01 -2.127443159910e+02 0.0 
0.0 0.0 -8.676740571269e+01 
-1.458159121182e+02 -2.231659051447e-01 0.0 
-2.231659051447e-01 -3.521397836871e+02 0.0 
0.0 0.0 -1.489867087416e+02 
-1.897766328329e+01 -4.562061364337e-01 0.0 
-4.562061364337e-01 -7.157884254718e+00 0.0 
0.0 0.0 -7.440664261403e+00 
-8.997166560943e+01 1.267535337535e+00 0.0 
1.267535337535e+00 -1.968233715812e+02 0.0 
0.0 0.0 -8.563851115718e+01 
-1.415741938057e+01 -7.546840086465e-01 0.0 
-7.546840086465e-01 -9.000563247033e+00 0.0 
0.0 0.0 -7.528344829017e+00 
-9.572680810447e+01 8.415850772399e+00 0.0 
8.415850772399e+00 -2.591264610325e+02 0.0 
0.0 0.0 -1.060559807411e+02 
-1.567257711536e+01 -7.757763280520e-01 0.0 
-7.757763280520e-01 -8.233109486481e+00 0.0 
0.0 0.0 -6.771705980551e+00 
-1.735169921611e+01 -6.880137473031e-01 0.0 
-6.880137473031e-01 -8.138641778544e+00 0.0 
0.0 0.0 -7.247102298398e+00 
-9.162949957248e+01 6.949372105566e+00 0.0 
6.949372105566e+00 -2.507731266980e+02 0.0 
0.0 0.0 -1.023207878811e+02 
-1.403547280346e+02 1.729463119196e+00 0.0 
1.729463119196e+00 -3.420951441437e+02 0.0 
0.0 0.0 -1.443349616535e+02 
-7.363472029855e+01 8.968406626663e-01 0.0 
8.968406626663e-01 -1.529351003667e+02 0.0 
0.0 0.0 -6.757094619958e+01 
-6.189716762936e+01 1.751169848064e+01 0.0 
1.751169848064e+01 -1.122863765904e+02 0.0 
0.0 0.0 -5.185506326593e+01 
-9.692035681114e+00 -3.597890068288e-01 0.0 
-3.597890068288e-01 -2.554437914471e+01 0.0 
0.0 0.0 -1.055341857225e+01 
-1.040376700622e+02 2.588469961532e+00 0.0 
2.588469961532e+00 -2.688104450973e+02 0.0 
0.0 0.0 -1.114544345479e+02 
-1.142343592584e+02 1.750946001768e+00 0.0 
1.750946001768e+00 -2.678801716028e+02 0.0 
0.0 0.0 -1.142343592584e+02 
-1.165069650996e+02 2.529892179856e+00 0.0 
2.529892179856e+00 -2.695163086393e+02 0.0 
0.0 0.0 -1.154069821217e+02 
-4.886751196843e+01 4.626275515708e-01 0.0 
4.626275515708e-01 -8.726130596867e+01 0.0 
0.0 0.0 -4.043864538113e+01 
-9.995549839913e+01 9.912160363731e+00 0.0 
9.912160363731e+00 -2.671705567427e+02 0.0 
0.0 0.0 -1.097378165426e+02 
-1.150921284750e+02 4.426191418403e+00 0.0 
4.426191418403e+00 -2.698816331084e+02 0.0 
0.0 0.0 -1.150921284750e+02 
-1.033525830333e+02 1.968889112203e+01 0.0 
1.968889112203e+01 -2.515812191293e+02 0.0 
0.0 0.0 -1.060801406488e+02 
-1.585019592040e+01 -5.406873619470e-01 0.0 
-5.406873619470e-01 -4.162560358255e+01 0.0 
0.0 0.0 -1.684273985089e+01 
-9.783641274334e+00 -3.139493062367e-01 0.0 
-3.139493062367e-01 -2.568103124713e+01 0.0 
0.0 0.0 -1.023940175644e+01 
-9.255603883362e+00 -1.165615090771e-01 0.0 
-1.165615090771e-01 -2.513386349188e+01 0.0 
0.0 0.0 -1.015810772660e+01 
-6.282727325223e+01 -7.576639485503e-01 0.0 
-7.576639485503e-01 -1.687322820889e+02 0.0 
0.0 0.0 -6.906786660235e+01 
-1.608254285007e+02 3.095345667222e+00 0.0 
3.095345667222e+00 -3.811720667787e+02 0.0 
0.0 0.0 -1.621992485838e+02 
-1.083422473492e+02 1.042428208321e+00 0.0 
1.042428208321e+00 -2.474797964363e+02 0.0 
0.0 0.0 -1.063466131357e+02 
-4.090900919744e+00 -6.616090248086e-02 0.0 
-6.616090248086e-02 -9.065988481383e+00 0.0 
0.0 0.0 -4.515744932009e+00 
-7.443564096445e+01 6.642450032551e-01 0.0 
6.642450032551e-01 -1.983577731996e+02 0.0 
0.0 0.0 -8.143802424920e+01 
-1.637730647849e+02 2.096395328753e+00 0.0 
2.096395328753e+00 -3.834704844981e+02 0.0 
0.0 0.0 -1.637730647849e+02 
-1.600644734742e+02 3.252687515276e+00 0.0 
3.252687515276e+00 -3.802998011173e+02 0.0 
0.0 0.0 -1.617092823775e+02 
-1.566428372865e+02 1.077439663086e+01 0.0 
1.077439663086e+01 -3.735138779083e+02 0.0 
0.0 0.0 -1.586470145584e+02 
-8.238268487433e+01 -6.236347880338e-01 0.0 
-6.236347880338e-01 -1.771146041405e+02 0.0 
0.0 0.0 -7.744918670446e+01 
-9.389152656005e+01 9.309125423374e-01 0.0 
9.309125423374e-01 -2.071633093874e+02 0.0 
0.0 0.0 -8.991645078423e+01 
-1.628695472356e+02 2.885825404668e+00 0.0 
2.885825404668e+00 -3.813622768831e+02 0.0 
0.0 0.0 -1.628695472356e+02 
-1.630193914096e+02 3.815840256995e+00 0.0 
3.815840256995e+00 -3.817119132891e+02 0.0 
0.0 0.0 -1.630193914096e+02 
-9.004580299912e+01 -3.902826543946e-01 0.0 
-3.902826543946e-01 -1.969386710698e+02 0.0 
0.0 0.0 -8.569534222067e+01 
-2.530711522966e+00 -3.479058466960e-01 0.0 
-3.479058466960e-01 -6.801898358485e+00 0.0 
0.0 0.0 -2.399782964435e+00 
-4.695010001941e+01 7.636836486555e-02 0.0 
7.636836486555e-02 -8.648369032707e+01 0.0 
0.0 0.0 -3.963013710395e+01 
-4.835412182423e+01 1.975946484230e-01 0.0 
1.975946484230e-01 -8.741656113474e+01 0.0 
0.0 0.0 -4.033120488769e+01 
-4.488407840506e+00 -1.673030538367e-01 0.0 
-1.673030538367e-01 -9.062782880954e+00 0.0 
0.0 0.0 -4.641508958789e+00 
-1.624024889666e+02 6.587621064188e+00 0.0 
6.587621064188e+00 -3.802724742553e+02 0.0 
0.0 0.0 -1.624024889666e+02 
-1.569331970682e+02 9.438163657421e+00 0.0 
9.438163657421e+00 -3.746083104103e+02 0.0 
0.0 0.0 -1.590624522436e+02 
-1.608436338912e+02 8.629241178101e+00 0.0 
8.629241178101e+00 -3.766351457461e+02 0.0 
0.0 0.0 -1.608436338912e+02 
-2.921553009730e+00 -1.144990693260e-01 0.0 
-1.144990693260e-01 -7.941546640830e+00 0.0 
0.0 0.0 -2.858929895168e+00 
-3.340032559337e+00 -2.646151040961e-01 0.0 
-2.646151040961e-01 -8.045746005584e+00 0.0 
0.0 0.0 -3.015733569476e+00 
-1.598159362480e+02 1.096703884762e+01 0.0 
1.096703884762e+01 -3.742371845786e+02 0.0 
0.0 0.0 -1.598159362480e+02 
-1.604576406780e+02 9.856178502689e+00 0.0 
9.856178502689e+00 -3.757344949154e+02 0.0 
0.0 0.0 -1.604576406780e+02 
-7.836978394801e+01 9.639697030799e-01 0.0 
9.639697030799e-01 -1.671310443696e+02 0.0 
0.0 0.0 -7.325024849529e+01 
-4.614922688487e+01 -1.199328297758e-01 0.0 
-1.199328297758e-01 -8.614753016909e+01 0.0 
0.0 0.0 -3.928902711619e+01 
-8.640524451662e+01 9.634272284037e-01 0.0 
9.634272284037e-01 -1.871192398609e+02 0.0 
0.0 0.0 -8.165734531326e+01 
-6.267183789320e+01 9.045253766979e-01 0.0 
9.045253766979e-01 -1.275480511311e+02 0.0 
0.0 0.0 -5.666596670730e+01 
-4.620053055406e+01 -6.689293014951e-02 0.0 
-6.689293014951e-02 -8.628086194412e+01 0.0 
0.0 0.0 -3.934441774946e+01 
-5.827917426050e+00 -5.162219913379e-01 0.0 
-5.162219913379e-01 -7.642752538103e+00 0.0 
0.0 0.0 -3.641200989246e+00 
-8.244105707503e+00 -3.520853881001e-01 0.0 
-3.520853881001e-01 -8.312326410531e+00 0.0 
0.0 0.0 -4.566929635410e+00 
-9.371782660356e+00 -5.080104597816e-01 0.0 
-5.080104597816e-01 -7.902913952508e+00 0.0 
0.0 0.0 -4.782408983859e+00 
-1.077926060845e+01 -5.795900622013e-01 0.0 
-5.795900622013e-01 -8.027763950696e+00 0.0 
0.0 0.0 -5.242107367745e+00 
-7.838269554368e+01 -8.891516720040e-01 0.0 
-8.891516720040e-01 -2.083815008831e+02 0.0 
0.0 0.0 -8.562925892805e+01 
-7.053541514628e+01 -7.797024160308e-01 0.0 
-7.797024160308e-01 -1.884821310684e+02 0.0 
0.0 0.0 -7.730526386441e+01 
-8.416632882146e+00 -5.458310085176e-01 0.0 
-5.458310085176e-01 -8.984288617944e+00 0.0 
0.0 0.0 -5.797303920963e+00 
-1.034234648678e+02 -7.986387065372e-01 0.0 
-7.986387065372e-01 -2.660400676622e+02 0.0 
0.0 0.0 -1.104390597590e+02 
-9.722089202405e+00 -6.574663632767e-01 0.0 
-6.574663632767e-01 -8.953642583984e+00 0.0 
0.0 0.0 -6.174558708690e+00 
-1.165574173354e+02 9.565818828592e+00 0.0 
9.565818828592e+00 -2.733006404492e+02 0.0 
0.0 0.0 -1.165574173354e+02 
-1.146769486554e+02 3.662819357042e+00 0.0 
3.662819357042e+00 -2.689128801959e+02 0.0 
0.0 0.0 -1.146769486554e+02 
-1.153023699038e+02 6.404351100792e+00 0.0 
6.404351100792e+00 -2.703721964421e+02 0.0 
0.0 0.0 -1.153023699038e+02 
-2.579201978010e+01 -9.633472518406e-01 0.0 
-9.633472518406e-01 -6.901699012761e+01 0.0 
0.0 0.0 -2.804270297231e+01 
-4.787908591440e+01 -8.188993444210e-01 0.0 
-8.188993444210e-01 -1.291242491505e+02 0.0 
0.0 0.0 -5.270100051948e+01 
-1.143453131489e+02 2.946163914888e+00 0.0 
2.946163914888e+00 -2.681390640141e+02 0.0 
0.0 0.0 -1.143453131489e+02 
-1.313340128845e+02 -6.614405957318e-01 0.0 
-6.614405957318e-01 -3.241231872258e+02 0.0 
0.0 0.0 -1.362371600331e+02 
-1.151818027119e+02 2.388223678041e+00 0.0 
2.388223678041e+00 -2.700908729945e+02 0.0 
0.0 0.0 -1.151818027119e+02 
-1.411251366652e+02 -7.035483894002e-01 0.0 
-7.035483894002e-01 -3.432451937864e+02 0.0 
0.0 0.0 -1.449110991355e+02 
-1.512498806660e+02 -7.735047235677e-01 0.0 
-7.735047235677e-01 -3.622659604237e+02 0.0 
0.0 0.0 -1.536547523269e+02 
-6.667035662784e+01 6.703634793213e-01 0.0 
6.703634793213e-01 -1.785783317847e+02 0.0 
0.0 0.0 -7.317460652376e+01 
-1.167137048184e+02 3.483142053178e+00 0.0 
3.483142053178e+00 -2.694556959008e+02 0.0 
0.0 0.0 -1.154508202157e+02 
-1.163820822915e+02 2.243705967915e+00 0.0 
2.243705967915e+00 -2.696152889330e+02 0.0 
0.0 0.0 -1.153992113673e+02 
-1.359087029604e+02 1.304608497015e+00 0.0 
1.304608497015e+00 -3.327666197022e+02 0.0 
0.0 0.0 -1.402025967988e+02 
-1.460420220259e+02 1.374677190873e+00 0.0 
1.374677190873e+00 -3.523657898749e+02 0.0 
0.0 0.0 -1.491223435703e+02 
-1.124809580637e+02 2.180508707433e+00 0.0 
2.180508707433e+00 -2.858815752105e+02 0.0 
0.0 0.0 -1.191087599822e+02 
-1.302117176333e+01 -7.768691821351e-01 0.0 
-7.768691821351e-01 -8.905881216944e+00 0.0 
0.0 0.0 -7.154592076963e+00 
-6.710231976775e+01 2.940475358813e-01 0.0 
2.940475358813e-01 -1.815944130022e+02 0.0 
0.0 0.0 -7.420901983098e+01 
-1.086687367653e+01 -6.526723650450e-01 0.0 
-6.526723650450e-01 -2.540592398888e+01 0.0 
0.0 0.0 -1.048183929962e+01 
-1.369792605768e+02 6.303602552984e+00 0.0 
6.303602552984e+00 -3.363025717261e+02 0.0 
0.0 0.0 -1.415845496909e+02 
-7.015071973341e+01 -8.394115225388e-01 0.0 
-8.394115225388e-01 -1.916782670124e+02 0.0 
0.0 0.0 -7.814869602373e+01 
-1.260752817479e+02 1.857185533506e+00 0.0 
1.857185533506e+00 -3.147560019329e+02 0.0 
0.0 0.0 -1.318493851042e+02 
-3.588580654280e+01 -1.565450541056e+00 0.0 
-1.565450541056e+00 -9.685991963995e+01 0.0 
0.0 0.0 -3.942371785483e+01 
-1.663236316155e+01 -1.658511434640e+00 0.0 
-1.658511434640e+00 -4.155113053981e+01 0.0 
0.0 0.0 -1.705504811041e+01 
-1.361461747603e+02 3.553660064922e+00 0.0 
3.553660064922e+00 -3.339349470956e+02 0.0 
0.0 0.0 -1.406243365568e+02 
-7.521738819121e+01 6.932276590403e-01 0.0 
6.932276590403e-01 -2.010990364539e+02 0.0 
0.0 0.0 -8.249492739354e+01 
-5.871134420347e+01 -9.698418662502e-01 0.0 
-9.698418662502e-01 -1.589231698459e+02 0.0 
0.0 0.0 -6.489035421483e+01 
-1.266467302529e+02 3.209039751470e+00 0.0 
3.209039751470e+00 -3.153053616235e+02 0.0 
0.0 0.0 -1.321856275629e+02 
-1.002045377915e+02 4.476297523921e-01 0.0 
4.476297523921e-01 -2.250313766557e+02 0.0 
0.0 0.0 -9.717077433417e+01 
-5.910865175453e+01 6.160224602862e-01 0.0 
6.160224602862e-01 -1.590505484228e+02 0.0 
0.0 0.0 -6.504776005320e+01 
-1.125543789164e+02 8.335303301849e+00 0.0 
8.335303301849e+00 -2.906832980015e+02 0.0 
0.0 0.0 -1.205713030754e+02 
-9.847315804564e+01 2.316543023503e+00 0.0 
2.316543023503e+00 -2.608527227930e+02 0.0 
0.0 0.0 -1.073977642516e+02 
-1.118148435110e+02 7.974542569834e-01 0.0 
7.974542569834e-01 -2.852939635835e+02 0.0 
0.0 0.0 -1.187326421284e+02 
-1.162189663168e+02 5.756852852356e-01 0.0 
5.756852852356e-01 -2.940703210248e+02 0.0 
0.0 0.0 -1.226867862025e+02 
-4.733635813136e+01 8.190204224110e+00 0.0 
8.190204224110e+00 -1.456208969805e+02 0.0 
0.0 0.0 -5.748717653357e+01 
-5.391248517975e+01 1.714459333046e+01 0.0 
1.714459333046e+01 -9.145805458715e+01 0.0 
0.0 0.0 -4.321116193007e+01 
-6.199722746355e+01 1.831076741543e+01 0.0 
1.831076741543e+01 -1.595155000949e+02 0.0 
0.0 0.0 -6.605381826753e+01 
-1.030445626773e+02 1.224629704758e+00 0.0 
1.224629704758e+00 -2.680886349837e+02 0.0 
0.0 0.0 -1.109399592983e+02 
-1.310829915508e+02 2.853240379667e+00 0.0 
2.853240379667e+00 -3.239196791867e+02 0.0 
0.0 0.0 -1.361008012213e+02 
-1.206585406508e+02 2.091271431921e-01 0.0 
2.091271431921e-01 -3.029437604578e+02 0.0 
0.0 0.0 -1.266806903326e+02 
-3.592385660343e+01 -2.882295798005e+00 0.0 
-2.882295798005e+00 -1.001266841700e+02 0.0 
0.0 0.0 -4.041516223202e+01 
-1.003199942101e+02 1.323200700953e+00 0.0 
1.323200700953e+00 -2.239776683740e+02 0.0 
0.0 0.0 -9.688929877522e+01 
-9.270212152318e+01 1.023942523442e+00 0.0 
1.023942523442e+00 -2.036410995571e+02 0.0 
0.0 0.0 -8.850296632408e+01 
-5.748850811498e+01 -5.304801154582e-01 0.0 
-5.304801154582e-01 -1.128460634612e+02 0.0 
0.0 0.0 -5.070037147286e+01 
-1.075616393759e+02 1.954480748457e+00 0.0 
1.954480748457e+00 -2.784561140166e+02 0.0 
0.0 0.0 -1.154053260177e+02 
-1.074395371179e+02 1.036366793440e+00 0.0 
1.036366793440e+00 -2.767325438066e+02 0.0 
0.0 0.0 -1.148516242774e+02 
-1.009515156309e+02 2.248590885029e+00 0.0 
2.248590885029e+00 -2.260706984291e+02 0.0 
0.0 0.0 -9.770666421800e+01 
-9.663699111435e+01 8.807723695133e-01 0.0 
8.807723695133e-01 -2.145490392683e+02 0.0 
0.0 0.0 -9.295580911478e+01 
-9.549254049134e+01 3.693809642367e+00 0.0 
3.693809642367e+00 -2.528557140207e+02 0.0 
0.0 0.0 -1.041044763536e+02 
-1.407407018927e+02 3.062423383169e+00 0.0 
3.062423383169e+00 -3.424312743501e+02 0.0 
0.0 0.0 -1.445515928728e+02 
-9.269844894146e+01 2.862938793560e+00 0.0 
2.862938793560e+00 -2.000645268580e+02 0.0 
0.0 0.0 -8.742889273984e+01 
-1.210246569158e+02 1.539337172276e+00 0.0 
1.539337172276e+00 -3.030988792711e+02 0.0 
0.0 0.0 -1.268370608560e+02 
-1.422924187281e+02 5.979441787336e+00 0.0 
5.979441787336e+00 -3.459874921513e+02 0.0 
0.0 0.0 -1.460839732638e+02 
-1.010116042332e+02 3.227419882101e+00 0.0 
3.227419882101e+00 -2.247220278518e+02 0.0 
0.0 0.0 -9.732008962550e+01 
-8.255439067332e+01 2.562243552468e+00 0.0 
2.562243552468e+00 -1.734187114829e+02 0.0 
0.0 0.0 -7.639193064687e+01 
-1.081915838998e+02 7.005156721944e+00 0.0 
7.005156721944e+00 -2.816515828847e+02 0.0 
0.0 0.0 -1.165529500354e+02 
-3.680278266205e+01 -1.845543875913e+00 0.0 
-1.845543875913e+00 -9.980262506534e+01 0.0 
0.0 0.0 -4.058162231821e+01 
-3.334208760451e+01 -2.871367593006e+00 0.0 
-2.871367593006e+00 -9.225044381863e+01 0.0 
0.0 0.0 -3.727775942694e+01 
-1.985483562712e+01 -1.365907448827e+00 0.0 
-1.365907448827e+00 -4.807028792841e+01 0.0 
0.0 0.0 -1.997753706666e+01 
-1.877230771295e+01 -1.776472416805e+00 0.0 
-1.776472416805e+00 -2.564509836663e+01 0.0 
0.0 0.0 -1.292522182387e+01 
-9.737509573212e+01 2.566815334380e+00 0.0 
2.566815334380e+00 -2.150984774373e+02 0.0 
0.0 0.0 -9.334207195083e+01 
-1.352582298985e+02 9.795415371747e-01 0.0 
9.795415371747e-01 -3.319189120327e+02 0.0 
0.0 0.0 -1.397531425793e+02 
-1.749731862086e+01 -1.766945605461e+00 0.0 
-1.766945605461e+00 -2.529449710520e+01 0.0 
0.0 0.0 -1.243754471782e+01 
-1.103736205200e+02 1.548401264627e+01 0.0 
1.548401264627e+01 -2.340125485633e+02 0.0 
0.0 0.0 -1.029158507250e+02 
-6.175093991343e+01 -2.035791202226e-01 0.0 
-2.035791202226e-01 -1.218734611829e+02 0.0 
0.0 0.0 -5.468732032890e+01 
-1.222664157827e+02 3.574349918982e+00 0.0 
3.574349918982e+00 -3.067940689159e+02 0.0 
0.0 0.0 -1.283181454096e+02 
-1.255308487025e+02 7.853016566730e-01 0.0 
7.853016566730e-01 -3.129492949979e+02 0.0 
0.0 0.0 -1.311440431101e+02 
-4.827088944659e+01 -1.360450510583e+00 0.0 
-1.360450510583e+00 -1.406186004573e+02 0.0 
0.0 0.0 -5.626684697118e+01 
-1.259022208407e+02 2.188509838261e+00 0.0 
2.188509838261e+00 -3.133957747509e+02 0.0 
0.0 0.0 -1.313893986775e+02 
-5.816496859103e+01 1.546150190259e+00 0.0 
1.546150190259e+00 -1.130700370716e+02 0.0 
0.0 0.0 -5.097050169879e+01 
-1.001554194749e+02 1.516465971433e+01 0.0 
1.516465971433e+01 -2.600860256130e+02 0.0 
0.0 0.0 -1.076724335264e+02 
-1.469169478255e+02 3.894764776273e+00 0.0 
3.894764776273e+00 -3.546847207171e+02 0.0 
0.0 0.0 -1.500805005628e+02 
-3.558485261037e+01 -1.133041683573e+00 0.0 
-1.133041683573e+00 -9.643765262755e+01 0.0 
0.0 0.0 -3.920675157138e+01 
-1.419659495636e+02 7.348484210645e+00 0.0 
7.348484210645e+00 -3.461073419549e+02 0.0 
0.0 0.0 -1.460219874555e+02 
-8.634886470762e+01 2.366611169838e+00 0.0 
2.366611169838e+00 -1.843661369566e+02 0.0 
0.0 0.0 -8.081450049928e+01 
-3.994158375499e+01 -1.612223396024e+00 0.0 
-1.612223396024e+00 -1.083703934322e+02 0.0 
0.0 0.0 -4.409359315615e+01 
-4.064661725028e+01 -1.657600057024e+00 0.0 
-1.657600057024e+00 -1.121929410568e+02 0.0 
0.0 0.0 -4.545186749212e+01 
-8.568922489154e+01 -5.339827895083e-01 0.0 
-5.339827895083e-01 -2.263318824381e+02 0.0 
0.0 0.0 -9.320633219889e+01 
-7.361966249513e+01 7.976712022947e-01 0.0 
7.976712022947e-01 -1.510028554273e+02 0.0 
0.0 0.0 -6.698675537674e+01 
-5.522819777846e+01 -1.754727294368e+00 0.0 
-1.754727294368e+00 -1.525928891166e+02 0.0 
0.0 0.0 -6.194632606851e+01 
-9.008549603731e+01 2.260273142635e+00 0.0 
2.260273142635e+00 -1.952070079566e+02 0.0 
0.0 0.0 -8.518775119817e+01 
-7.852430302651e+01 2.132005919057e+00 0.0 
2.132005919057e+00 -1.638786777128e+02 0.0 
0.0 0.0 -7.232089422178e+01 
-8.201549239714e+01 -2.451731979857e-01 0.0 
-2.451731979857e-01 -2.196818970382e+02 0.0 
0.0 0.0 -9.010921683060e+01 
-1.165654486299e+02 1.893991532580e+00 0.0 
1.893991532580e+00 -2.943526601499e+02 0.0 
0.0 0.0 -1.228754326339e+02 
-1.216142297488e+02 2.549180096985e+00 0.0 
2.549180096985e+00 -3.049405551879e+02 0.0 
0.0 0.0 -1.275664354810e+02 
-8.516522086068e+01 6.136091634546e-01 0.0 
6.136091634546e-01 -1.835070204273e+02 0.0 
0.0 0.0 -8.020167238638e+01 
-3.132678611477e+01 -9.581500562754e-01 0.0 
-9.581500562754e-01 -8.352179734784e+01 0.0 
0.0 0.0 -3.405457503878e+01 
-7.792863213693e+01 -5.840653630105e-01 0.0 
-5.840653630105e-01 -2.090351855600e+02 0.0 
0.0 0.0 -8.568914530909e+01 
-1.170234424648e+02 1.745056646112e+01 0.0 
1.745056646112e+01 -2.906880084674e+02 0.0 
0.0 0.0 -1.219134352797e+02 
-9.012680660355e+01 3.000588987932e+00 0.0 
3.000588987932e+00 -1.934756407568e+02 0.0 
0.0 0.0 -8.468073420811e+01 
-6.992500608483e+01 -1.072138898366e+00 0.0 
-1.072138898366e+00 -1.892493177773e+02 0.0 
0.0 0.0 -7.735229715863e+01 
-9.989752391510e+01 3.586089036743e+00 0.0 
3.586089036743e+00 -2.617473458819e+02 0.0 
0.0 0.0 -1.080934609391e+02 
-1.373160038561e+02 7.950837246988e+00 0.0 
7.950837246988e+00 -3.373732655491e+02 0.0 
0.0 0.0 -1.420067808216e+02 
-8.157325892549e+01 8.468085329372e-01 0.0 
8.468085329372e-01 -1.727147679516e+02 0.0 
0.0 0.0 -7.588640806313e+01 
-2.171484325887e+01 2.208191645648e-01 0.0 
2.208191645648e-01 -4.335446280378e+01 0.0 
0.0 0.0 -1.912079181880e+01 
-1.882119539975e+01 -9.861687107658e-01 0.0 
-9.861687107658e-01 -4.673751729753e+01 0.0 
0.0 0.0 -1.926761380918e+01 
-3.041682678611e+01 3.072314320515e+00 0.0 
3.072314320515e+00 -8.707526811507e+01 0.0 
0.0 0.0 -3.484762847036e+01 
-1.306284657610e+02 1.431818418423e+00 0.0 
1.431818418423e+00 -3.234196318972e+02 0.0 
0.0 0.0 -1.358144292974e+02 
-7.753773002923e+01 8.682121152824e-01 0.0 
8.682121152824e-01 -1.618375581797e+02 0.0 
0.0 0.0 -7.141258646267e+01 
-9.461718161210e+01 1.193649045358e+00 0.0 
1.193649045358e+00 -2.460155223591e+02 0.0 
0.0 0.0 -1.017898111914e+02 
-6.577090998294e+01 2.844581898774e-01 0.0 
2.844581898774e-01 -1.312996893883e+02 0.0 
0.0 0.0 -5.872117981137e+01 
-1.268745755963e+02 1.069578268280e+01 0.0 
1.069578268280e+01 -3.181043217892e+02 0.0 
0.0 0.0 -1.330936692157e+02 
-8.601217356448e+01 -2.136747522856e-01 0.0 
-2.136747522856e-01 -2.283331997693e+02 0.0 
0.0 0.0 -9.390361200014e+01 
-1.211172192607e+02 1.147971661926e+00 0.0 
1.147971661926e+00 -3.044225785669e+02 0.0 
0.0 0.0 -1.272619393483e+02 
-3.738132020020e+01 -4.042122695816e-01 0.0 
-4.042122695816e-01 -1.003816746271e+02 0.0 
0.0 0.0 -4.092889844819e+01 
-1.414740518989e+02 4.439324233021e+00 0.0 
4.439324233021e+00 -3.457284647370e+02 0.0 
0.0 0.0 -1.457607549908e+02 
-8.305768000757e+01 1.138280544462e+00 0.0 
1.138280544462e+00 -2.204354135440e+02 0.0 
0.0 0.0 -9.064792806548e+01 
-4.044417128189e+01 -5.335265281136e-02 0.0 
-5.335265281136e-02 -1.089304633557e+02 0.0 
0.0 0.0 -4.441239039127e+01 
-7.882262479622e+01 8.897451576099e-01 0.0 
8.897451576099e-01 -2.097584683087e+02 0.0 
0.0 0.0 -8.617432793148e+01 
-5.878959840055e+01 -1.496958242113e+00 0.0 
-1.496958242113e+00 -1.612402414971e+02 0.0 
0.0 0.0 -6.560895196929e+01 
-4.584982168178e+01 -1.042609045828e+00 0.0 
-1.042609045828e+00 -1.251397674602e+02 0.0 
0.0 0.0 -5.089687674259e+01 
-9.393134540560e+01 -2.906021849653e-01 0.0 
-2.906021849653e-01 -2.453150909315e+02 0.0 
0.0 0.0 -1.013739309011e+02 
-6.958434319462e+00 -5.188830347174e-01 0.0 
-5.188830347174e-01 -9.245506795083e+00 0.0 
0.0 0.0 -5.456851561086e+00 
-8.201676721539e+00 -5.529193724618e-01 0.0 
-5.529193724618e-01 -9.512857272675e+00 0.0 
0.0 0.0 -5.924367932270e+00 
-1.082455468306e+02 2.419134253867e+00 0.0 
2.419134253867e+00 -2.773782389303e+02 0.0 
0.0 0.0 -1.152871357283e+02 
-3.446809808842e+01 -7.509757483642e-01 0.0 
-7.509757483642e-01 -9.213677111167e+01 0.0 
0.0 0.0 -3.758146076003e+01 
-1.086512998310e+02 3.299628370065e+00 0.0 
3.299628370065e+00 -2.792137801206e+02 0.0 
0.0 0.0 -1.159595239855e+02 
-1.042874978519e+02 3.454184101119e+00 0.0 
3.454184101119e+00 -2.705393459928e+02 0.0 
0.0 0.0 -1.120480531534e+02 
-6.246472471826e+01 -1.144670108474e+00 0.0 
-1.144670108474e+00 -1.741330561949e+02 0.0 
0.0 0.0 -7.057933427396e+01 
-3.892854245537e+01 -1.997669142154e+00 0.0 
-1.997669142154e+00 -1.133053925736e+02 0.0 
0.0 0.0 -4.527018050868e+01 
-9.769730381490e+01 4.502083780788e+00 0.0 
4.502083780788e+00 -2.119397376791e+02 0.0 
0.0 0.0 -9.249111244819e+01 
-1.935401169910e+01 4.834255301869e+00 0.0 
4.834255301869e+00 -4.215880606359e+01 0.0 
0.0 0.0 -1.805384532881e+01 
-6.236999694537e+01 -1.228378344029e+00 0.0 
-1.228378344029e+00 -1.700761693593e+02 0.0 
0.0 0.0 -6.933384989141e+01 
-1.314338658835e+02 1.211631145785e+01 0.0 
1.211631145785e+01 -3.259840724828e+02 0.0 
0.0 0.0 -1.368253815099e+02 
-2.963971298126e+01 -1.881176606063e+00 0.0 
-1.881176606063e+00 -7.949899639049e+01 0.0 
0.0 0.0 -3.234161281152e+01 
-7.082920533746e+01 2.022257785426e+00 0.0 
2.022257785426e+00 -1.427752081894e+02 0.0 
0.0 0.0 -6.368132405806e+01 
-6.268572779935e+01 1.639024643939e+00 0.0 
1.639024643939e+00 -1.226233479139e+02 0.0 
0.0 0.0 -5.519272271398e+01 
-2.935313666137e+01 -1.632140800421e+00 0.0 
-1.632140800421e+00 -7.715783374217e+01 0.0 
0.0 0.0 -3.155329112106e+01 
-1.322323562069e+02 8.398261408705e+00 0.0 
8.398261408705e+00 -3.281713226081e+02 0.0 
0.0 0.0 -1.377211036445e+02 
-8.695904155597e+01 3.943962770282e+00 0.0 
3.943962770282e+00 -1.810073535042e+02 0.0 
0.0 0.0 -7.998991851804e+01 
-3.381473454438e+01 -2.037389726022e+00 0.0 
-2.037389726022e+00 -9.149115419171e+01 0.0 
0.0 0.0 -3.719176662083e+01 
-1.013362065906e+02 5.289021127131e+00 0.0 
5.289021127131e+00 -2.209854534206e+02 0.0 
0.0 0.0 -9.629649800337e+01 
-9.955428317285e+01 3.668384142839e+00 0.0 
3.668384142839e+00 -2.198683828392e+02 0.0 
0.0 0.0 -9.542679980362e+01 
-3.818564303669e+01 -8.159396481402e-01 0.0 
-8.159396481402e-01 -1.028658800880e+02 0.0 
0.0 0.0 -4.191545693741e+01 
-3.372014917436e+01 1.895835873224e+01 0.0 
1.895835873224e+01 -7.399009138291e+01 0.0 
0.0 0.0 -3.191307216718e+01 
-3.893981112360e+01 -1.301103708671e+00 0.0 
-1.301103708671e+00 -1.054447501352e+02 0.0 
0.0 0.0 -4.291536837764e+01 
-1.173728668772e+02 2.841184803667e+00 0.0 
2.841184803667e+00 -2.964175506536e+02 0.0 
0.0 0.0 -1.237371252592e+02 
-8.998740056908e+01 -2.343767809506e-01 0.0 
-2.343767809506e-01 -2.369310447444e+02 0.0 
0.0 0.0 -9.767553359403e+01 
-1.063701771112e+02 1.122930060568e+01 0.0 
1.122930060568e+01 -2.296669744222e+02 0.0 
0.0 0.0 -1.004111454600e+02 
-9.620253562905e+01 2.685795781431e+00 0.0 
2.685795781431e+00 -2.109982833766e+02 0.0 
0.0 0.0 -9.176024570170e+01 
-1.130135236629e+02 3.091884373172e+00 0.0 
3.091884373172e+00 -2.878463432192e+02 0.0 
0.0 0.0 -1.198579600646e+02 
-1.121005692048e+02 1.728922124130e+00 0.0 
1.728922124130e+00 -2.871606170747e+02 0.0 
0.0 0.0 -1.193783558839e+02 
-3.157023204854e+01 -2.724134740643e+00 0.0 
-2.724134740643e+00 -8.518606124270e+01 0.0 
0.0 0.0 -3.462688798737e+01 
-1.166236156094e+02 1.455054990517e+00 0.0 
1.455054990517e+00 -2.957961769138e+02 0.0 
0.0 0.0 -1.233259377570e+02 
-8.532215599957e+01 2.127017923077e+00 0.0 
2.127017923077e+00 -1.800068587570e+02 0.0 
0.0 0.0 -7.919870442697e+01 
-9.072445154268e+01 1.159693424534e+00 0.0 
1.159693424534e+00 -2.375526109508e+02 0.0 
0.0 0.0 -9.808311874805e+01 
-7.879323105207e+01 2.582744146413e+00 0.0 
2.582744146413e+00 -1.626575796003e+02 0.0 
0.0 0.0 -7.203524319572e+01 
-9.044933137764e+01 3.860374848064e+00 0.0 
3.860374848064e+00 -1.918114221674e+02 0.0 
0.0 0.0 -8.427822606353e+01 
-6.532139842671e+01 1.149630550212e+01 0.0 
1.149630550212e+01 -1.871832538515e+02 0.0 
0.0 0.0 -7.535139568347e+01 
-9.255894563778e+01 1.927424523951e+00 0.0 
1.927424523951e+00 -2.017868532654e+02 0.0 
0.0 0.0 -8.790373967094e+01 
-7.407825660407e+01 -8.892648490308e-01 0.0 
-8.892648490308e-01 -1.991775762618e+02 0.0 
0.0 0.0 -8.157674985975e+01 
-8.683549372103e+01 1.199904234395e+00 0.0 
1.199904234395e+00 -2.290002349358e+02 0.0 
0.0 0.0 -9.435071859704e+01 
-5.506103047773e+01 -1.740638146677e+00 0.0 
-1.740638146677e+00 -1.506076384390e+02 0.0 
0.0 0.0 -6.130060067501e+01 
-5.673853385416e+01 -3.208235841219e-01 0.0 
-3.208235841219e-01 -1.578343031220e+02 0.0 
0.0 0.0 -6.397185109286e+01 
-8.141377048619e+01 1.430218154352e+00 0.0 
1.430218154352e+00 -1.708737840038e+02 0.0 
0.0 0.0 -7.528626634701e+01 
-7.859712483058e+01 2.934708691372e+00 0.0 
2.934708691372e+00 -2.159738882437e+02 0.0 
0.0 0.0 -8.797130392229e+01 
-4.208106596972e+01 -9.930828890953e-01 0.0 
-9.930828890953e-01 -1.140619692080e+02 0.0 
0.0 0.0 -4.644291055332e+01 
-2.285985893463e+01 -1.593416965030e+00 0.0 
-1.593416965030e+00 -5.760472464851e+01 0.0 
0.0 0.0 -2.373937507494e+01 
-8.289660241632e+01 3.195580090229e+00 0.0 
3.195580090229e+00 -1.717999177953e+02 0.0 
0.0 0.0 -7.600895606349e+01 
-4.120072845305e+01 -2.391468189085e+00 0.0 
-2.391468189085e+00 -1.133787187655e+02 0.0 
0.0 0.0 -4.597383416558e+01 
-1.415766646604e+02 6.075891391172e+00 0.0 
6.075891391172e+00 -3.457589498750e+02 0.0 
0.0 0.0 -1.458006843606e+02 
-8.521232649128e+01 1.390986583176e+00 0.0 
1.390986583176e+00 -1.817491837496e+02 0.0 
0.0 0.0 -7.968845307227e+01 
-1.214731310927e+02 2.210219818219e+00 0.0 
2.210219818219e+00 -3.061613515044e+02 0.0 
0.0 0.0 -1.278903447791e+02 
-1.456208650388e+02 1.539131138900e+01 0.0 
1.539131138900e+01 -3.480330568023e+02 0.0 
0.0 0.0 -1.476961765523e+02 
-7.093007143052e+01 5.650322551150e-01 0.0 
5.650322551150e-01 -1.901635686834e+02 0.0 
0.0 0.0 -7.792809203419e+01 
-3.749091127670e+01 -2.294758899853e+00 0.0 
-2.294758899853e+00 -1.022446282437e+02 0.0 
0.0 0.0 -4.152066185612e+01 
-2.513454968184e+01 -2.690865262982e+00 0.0 
-2.690865262982e+00 -6.536988604403e+01 0.0 
0.0 0.0 -2.675133071776e+01 
-1.132773551336e+02 4.122540265413e+00 0.0 
4.122540265413e+00 -2.894392822220e+02 0.0 
0.0 0.0 -1.204149912067e+02 
-7.375917700747e+01 3.734568527697e-01 0.0 
3.734568527697e-01 -1.529181285455e+02 0.0 
0.0 0.0 -6.760319166591e+01 
-1.916459758010e+01 -2.289159253591e+00 0.0 
-2.289159253591e+00 -4.642309647642e+01 0.0 
0.0 0.0 -1.927630821696e+01 
-5.643884710119e+01 -3.768300083812e-01 0.0 
-3.768300083812e-01 -1.534089773276e+02 0.0 
0.0 0.0 -6.255434732863e+01 
-3.363305716269e+01 -1.880799829257e-01 0.0 
-1.880799829257e-01 -8.952120285043e+01 0.0 
0.0 0.0 -3.654627800394e+01 
-7.506036938754e+01 2.519917335441e+00 0.0 
2.519917335441e+00 -1.519015602027e+02 0.0 
0.0 0.0 -6.768857887708e+01 
-6.007163222348e+01 -5.231015285624e-02 0.0 
-5.231015285624e-02 -1.621001344021e+02 0.0 
0.0 0.0 -6.625152998767e+01 
-1.030256954707e+02 2.152257374932e+00 0.0 
2.152257374932e+00 -2.697096354897e+02 0.0 
0.0 0.0 -1.114205992881e+02 
-5.562981977610e+01 -1.107754471719e-01 0.0 
-1.107754471719e-01 -1.510933560902e+02 0.0 
0.0 0.0 -6.161695275990e+01 
-9.374230322011e+01 2.851548410319e+00 0.0 
2.851548410319e+00 -2.044244199621e+02 0.0 
0.0 0.0 -8.905001695465e+01 
-4.813048156625e+01 -2.139502678065e+00 0.0 
-2.139502678065e+00 -1.330522922642e+02 0.0 
0.0 0.0 -5.395483214913e+01 
-1.132629549864e+02 5.315645894385e+00 0.0 
5.315645894385e+00 -2.905348268033e+02 0.0 
0.0 0.0 -1.207393345369e+02 
-3.454854673609e+01 -1.971667091986e+00 0.0 
-1.971667091986e+00 -9.296329646200e+01 0.0 
0.0 0.0 -3.785355295943e+01 
-1.087489169724e+02 4.334706592401e+00 0.0 
4.334706592401e+00 -2.806261178437e+02 0.0 
0.0 0.0 -1.164125104448e+02 
-8.266563112331e+01 8.003970795250e-01 0.0 
8.003970795250e-01 -2.187745153143e+02 0.0 
0.0 0.0 -9.003204393129e+01 
-1.168046957464e+02 2.521297649337e+00 0.0 
2.521297649337e+00 -2.974511468485e+02 0.0 
0.0 0.0 -1.238767527785e+02 
-4.564416306707e+01 3.497354172332e+00 0.0 
3.497354172332e+00 -1.413768895831e+02 0.0 
0.0 0.0 -5.570631579506e+01 
-3.279284603551e+01 -1.684330318788e+00 0.0 
-1.684330318788e+00 -8.862890145755e+01 0.0 
0.0 0.0 -3.602652424792e+01 
-6.687933811103e+01 1.610352644160e+00 0.0 
1.610352644160e+00 -1.336896050633e+02 0.0 
0.0 0.0 -5.977068295231e+01 
-9.737939064801e+01 9.389421609007e+00 0.0 
9.389421609007e+00 -2.600344710586e+02 0.0 
0.0 0.0 -1.068241585120e+02 
-5.550345077851e+01 1.859172371673e+01 0.0 
1.859172371673e+01 -1.305988438848e+02 0.0 
0.0 0.0 -5.543068839900e+01 
-7.471136628538e+01 2.110859639423e+00 0.0 
2.110859639423e+00 -1.534071709142e+02 0.0 
0.0 0.0 -6.803556115988e+01 
-3.760304271437e+01 -1.723793322219e+00 0.0 
-1.723793322219e+00 -1.036306310312e+02 0.0 
0.0 0.0 -4.197010212368e+01 
-7.811446642320e+01 2.115041516404e+00 0.0 
2.115041516404e+00 -1.586032457261e+02 0.0 
0.0 0.0 -7.061531364479e+01 
-2.999427735408e+01 -3.874792267656e-01 0.0 
-3.874792267656e-01 -8.045850852081e+01 0.0 
0.0 0.0 -3.273583576247e+01 
-1.322969916706e+02 6.806118888771e+00 0.0 
6.806118888771e+00 -3.279374694304e+02 0.0 
0.0 0.0 -1.376703383303e+02 
-1.014988227175e+02 1.092164282412e+01 0.0 
1.092164282412e+01 -2.680416376632e+02 0.0 
0.0 0.0 -1.104621381142e+02 
-1.044917591413e+02 1.658556852150e+01 0.0 
1.658556852150e+01 -2.665236369093e+02 0.0 
0.0 0.0 -1.109046188152e+02 
-1.046792283718e+02 5.113968241293e+00 0.0 
5.113968241293e+00 -2.324558620791e+02 0.0 
0.0 0.0 -1.007405271353e+02 
-8.667021822405e+01 3.896333179447e+00 0.0 
3.896333179447e+00 -2.347609350719e+02 0.0 
0.0 0.0 -9.602934598877e+01 
-3.076838694925e+01 -2.341593666874e+00 0.0 
-2.341593666874e+00 -8.285471465147e+01 0.0 
0.0 0.0 -3.368693048022e+01 
-9.966083962470e+01 4.683035688192e+00 0.0 
4.683035688192e+00 -2.626905976118e+02 0.0 
0.0 0.0 -1.083054311709e+02 
-1.362657868947e+02 6.617057242222e+00 0.0 
6.617057242222e+00 -3.366324797617e+02 0.0 
0.0 0.0 -1.414694799969e+02 
-4.681514205170e+01 -6.044633776273e-01 0.0 
-6.044633776273e-01 -1.331623198267e+02 0.0 
0.0 0.0 -5.359323856353e+01 
-1.177879939607e+02 3.876828611017e+00 0.0 
3.876828611017e+00 -2.981637834560e+02 0.0 
0.0 0.0 -1.243855332250e+02 
-8.649719653916e+01 3.148691820217e+00 0.0 
3.148691820217e+00 -1.825902009830e+02 0.0 
0.0 0.0 -8.032621925665e+01 
-3.587972185532e+01 -1.835945386477e+00 0.0 
-1.835945386477e+00 -1.046248614046e+02 0.0 
0.0 0.0 -4.175137497797e+01 
-1.042107319170e+02 4.516145015912e+00 0.0 
4.516145015912e+00 -2.717146910749e+02 0.0 
0.0 0.0 -1.123776268976e+02 
-6.736593591599e+01 2.416269143273e+00 0.0 
2.416269143273e+00 -1.303747050652e+02 0.0 
0.0 0.0 -5.892219229435e+01 
-4.454980165713e+01 -2.947296365881e-01 0.0 
-2.947296365881e-01 -1.201847786441e+02 0.0 
0.0 0.0 -4.902037409038e+01 
-5.295551624333e+01 -6.657444182653e-01 0.0 
-6.657444182653e-01 -1.447640576559e+02 0.0 
0.0 0.0 -5.891587216977e+01 
-7.055465861133e+01 1.996212178173e+01 0.0 
1.996212178173e+01 -1.676900625682e+02 0.0 
0.0 0.0 -7.107341635387e+01 
-1.121179282023e+02 2.796917545255e+00 0.0 
2.796917545255e+00 -2.886558539196e+02 0.0 
0.0 0.0 -1.198321346366e+02 
-4.803546476011e+01 2.061745473094e+01 0.0 
2.061745473094e+01 -9.898776575157e+01 0.0 
0.0 0.0 -4.370696915350e+01 
-6.616827134502e+01 1.932416882604e+01 0.0 
1.932416882604e+01 -1.635822565318e+02 0.0 
0.0 0.0 -6.852515836304e+01 
-8.172612773382e+01 2.135893182687e+00 0.0 
2.135893182687e+00 -1.692627614806e+02 0.0 
0.0 0.0 -7.489666676434e+01 
-6.967529436393e+01 2.917581090115e-01 0.0 
2.917581090115e-01 -1.419965740677e+02 0.0 
0.0 0.0 -6.310156052950e+01 
-7.016185430983e+01 1.236776204479e+00 0.0 
1.236776204479e+00 -1.387168757927e+02 0.0 
0.0 0.0 -6.226361903076e+01 
-8.194790424637e+01 -4.303017727404e-01 0.0 
-4.303017727404e-01 -2.180876771301e+02 0.0 
0.0 0.0 -8.961067441293e+01 
-1.272184689036e+02 8.842621633571e+00 0.0 
8.842621633571e+00 -3.188591763592e+02 0.0 
0.0 0.0 -1.334232935788e+02 
-9.510367723737e+01 4.853301520773e+00 0.0 
4.853301520773e+00 -2.535407737359e+02 0.0 
0.0 0.0 -1.041933352920e+02 
-6.683993471167e+01 1.907525461508e+00 0.0 
1.907525461508e+00 -1.320205149870e+02 0.0 
0.0 0.0 -5.925813490960e+01 
-1.148996067787e+02 1.750478541370e+01 0.0 
1.750478541370e+01 -2.478474719355e+02 0.0 
0.0 0.0 -1.084241236143e+02 
-1.089070886711e+02 1.792784972909e+01 0.0 
1.792784972909e+01 -2.726989712639e+02 0.0 
0.0 0.0 -1.140818179805e+02 
-1.074302821368e+02 3.036962328892e+00 0.0 
3.036962328892e+00 -2.797811889067e+02 0.0 
0.0 0.0 -1.157634413131e+02 
-8.894667301084e+01 2.068044591599e+00 0.0 
2.068044591599e+00 -1.908717234537e+02 0.0 
0.0 0.0 -8.354551893935e+01 
-6.027405682069e+01 -8.277089334657e-02 0.0 
-8.277089334657e-02 -1.663370508025e+02 0.0 
0.0 0.0 -6.758333228696e+01 
-5.664157293972e+01 -4.460074959596e-01 0.0 
-4.460074959596e-01 -1.556204535553e+02 0.0 
0.0 0.0 -6.327860794852e+01 
-3.202424271243e+01 -1.388041466507e+00 0.0 
-1.388041466507e+00 -8.567275634911e+01 0.0 
0.0 0.0 -3.490909971846e+01 
-1.038880277326e+02 5.789358844289e+00 0.0 
5.789358844289e+00 -2.722954486442e+02 0.0 
0.0 0.0 -1.124550429130e+02 
-6.019172303856e+01 -1.843151302414e-01 0.0 
-1.843151302414e-01 -1.642954730194e+02 0.0 
0.0 0.0 -6.694615881740e+01 
-7.926666700489e+01 3.217058516067e+00 0.0 
3.217058516067e+00 -1.610005966754e+02 0.0 
0.0 0.0 -7.168017910408e+01 
-7.561625935534e+01 3.210016775289e+00 0.0 
3.210016775289e+00 -1.502992051403e+02 0.0 
0.0 0.0 -6.737463934868e+01 
-7.073223919322e+01 1.097938998416e+01 0.0 
1.097938998416e+01 -1.992203588017e+02 0.0 
0.0 0.0 -8.058577939849e+01 
-4.828495644275e+01 -2.202387381915e+00 0.0 
-2.202387381915e+00 -1.353283735826e+02 0.0 
0.0 0.0 -5.468399900760e+01 
-4.095536628394e+01 7.379513181334e+00 0.0 
7.379513181334e+00 -1.282202056433e+02 0.0 
0.0 0.0 -5.035267157817e+01 
-5.171585744344e+01 -1.990867039046e+00 0.0 
-1.990867039046e+00 -1.439448177450e+02 0.0 
0.0 0.0 -5.829820255653e+01 
-5.524156567271e+01 -1.711367492447e+00 0.0 
-1.711367492447e+00 -1.547477417671e+02 0.0 
0.0 0.0 -6.259679223195e+01 
-3.446970997407e+01 -2.539241385940e+00 0.0 
-2.539241385940e+00 -9.374338514036e+01 0.0 
0.0 0.0 -3.806392853433e+01 
-1.221579975150e+02 9.310083558370e+00 0.0 
9.310083558370e+00 -3.093519499828e+02 0.0 
0.0 0.0 -1.290529842493e+02 
-6.556602441170e+01 1.023328930170e-01 0.0 
1.023328930170e-01 -1.862273119446e+02 0.0 
0.0 0.0 -7.513800090690e+01 
-9.391310181783e+01 3.702473252006e+00 0.0 
3.702473252006e+00 -2.026618729799e+02 0.0 
0.0 0.0 -8.857249243931e+01 
-6.898192833989e+01 1.026115715865e+00 0.0 
1.026115715865e+00 -1.962051623260e+02 0.0 
0.0 0.0 -7.915612719978e+01 
-9.805904567217e+01 3.482425320487e+00 0.0 
3.482425320487e+00 -2.617494409162e+02 0.0 
0.0 0.0 -1.075425459765e+02 
-8.106770792299e+01 1.768099058698e+00 0.0 
1.768099058698e+00 -2.240006292471e+02 0.0 
0.0 0.0 -9.112050115104e+01 
-6.573775706295e+01 1.729693846003e+01 0.0 
1.729693846003e+01 -1.731335392071e+02 0.0 
0.0 0.0 -7.126138888102e+01 
-3.515585714904e+01 -1.174511127764e+00 0.0 
-1.174511127764e+00 -9.435656906847e+01 0.0 
0.0 0.0 -3.845372786525e+01 
-1.310123310990e+02 7.121800158279e+00 0.0 
7.121800158279e+00 -3.273188562420e+02 0.0 
0.0 0.0 -1.370993562023e+02 
-1.375641398401e+02 9.839232753098e+00 0.0 
9.839232753098e+00 -3.383379016492e+02 0.0 
0.0 0.0 -1.423706124468e+02 
-9.147333822999e+01 1.833143266660e+01 0.0 
1.833143266660e+01 -2.101375727621e+02 0.0 
0.0 0.0 -9.008327329764e+01 
-5.869400603056e+01 -1.294972102777e+00 0.0 
-1.294972102777e+00 -1.653996485986e+02 0.0 
0.0 0.0 -6.682809638875e+01 
-8.937773722483e+01 2.628790021109e+00 0.0 
2.628790021109e+00 -2.428885586117e+02 0.0 
0.0 0.0 -9.927988875096e+01 
-7.765098776201e+01 1.382729335109e+00 0.0 
1.382729335109e+00 -1.600083517552e+02 0.0 
0.0 0.0 -7.089780185517e+01 
-6.393279164242e+01 1.314511266689e-01 0.0 
1.314511266689e-01 -1.750352589584e+02 0.0 
0.0 0.0 -7.129041518026e+01 
-5.088936556708e+01 1.911049216591e+01 0.0 
1.911049216591e+01 -1.274257625992e+02 0.0 
0.0 0.0 -5.309453844988e+01 
-4.908989384667e+01 -7.375786301266e-01 0.0 
-7.375786301266e-01 -1.337687593606e+02 0.0 
0.0 0.0 -5.445759596219e+01 
-4.066403023714e+01 -1.298557424994e+00 0.0 
-1.298557424994e+00 -1.141951679426e+02 0.0 
0.0 0.0 -4.605775945391e+01 
-6.384818640628e+01 4.338548091862e-01 0.0 
4.338548091862e-01 -1.768831289266e+02 0.0 
0.0 0.0 -7.181939459986e+01 
-4.440689894454e+01 -2.108439514250e+00 0.0 
-2.108439514250e+00 -1.219933502920e+02 0.0 
0.0 0.0 -4.952007477097e+01 
-4.134809771066e+01 -5.554056149412e-01 0.0 
-5.554056149412e-01 -1.115266346638e+02 0.0 
0.0 0.0 -4.546241971235e+01 
-8.284325444913e+01 2.891243551934e+00 0.0 
2.891243551934e+00 -2.249996124906e+02 0.0 
0.0 0.0 -9.195286008191e+01 
-1.027433892176e+02 3.259695732085e+00 0.0 
3.259695732085e+00 -2.708170277661e+02 0.0 
0.0 0.0 -1.116681250951e+02 
-1.107365313662e+02 1.912036673356e+01 0.0 
1.912036673356e+01 -2.541739643118e+02 0.0 
0.0 0.0 -1.090731487034e+02 
-7.154266967770e+00 -6.559600539564e-01 0.0 
-6.559600539564e-01 -9.087858689096e+00 0.0 
0.0 0.0 -4.472637697060e+00 
-6.401797617890e+01 2.699895206776e+00 0.0 
2.699895206776e+00 -1.873635341009e+02 0.0 
0.0 0.0 -7.501445308395e+01 
-6.488240149920e+01 1.190554225456e+00 0.0 
1.190554225456e+00 -1.872208991674e+02 0.0 
0.0 0.0 -7.523099019998e+01 
-6.211781682048e+01 -6.847113320949e-01 0.0 
-6.847113320949e-01 -1.759177367950e+02 0.0 
0.0 0.0 -7.101066608465e+01 
-7.391504868185e+01 1.328967887052e+00 0.0 
1.328967887052e+00 -1.492661285266e+02 0.0 
0.0 0.0 -6.655435316254e+01 
-7.312651620538e+01 9.142159768513e-01 0.0 
9.142159768513e-01 -2.050970353621e+02 0.0 
0.0 0.0 -8.306706547024e+01 
-5.154075644105e+01 -1.905324615287e+00 0.0 
-1.905324615287e+00 -1.417386226974e+02 0.0 
0.0 0.0 -5.758381374152e+01 
-6.739198825620e+01 1.122836024446e+00 0.0 
1.122836024446e+00 -1.872250991837e+02 0.0 
0.0 0.0 -7.598512623198e+01 
-8.885705562479e+01 1.269739304058e+00 0.0 
1.269739304058e+00 -1.926477424566e+02 0.0 
0.0 0.0 -8.405143942443e+01 
-5.230544819947e+01 -4.358208643070e-01 0.0 
-4.358208643070e-01 -1.423891445834e+02 0.0 
0.0 0.0 -5.800837783485e+01 
-2.145968021235e+01 -2.233091799152e+00 0.0 
-2.233091799152e+00 -5.451853901134e+01 0.0 
0.0 0.0 -2.239346576711e+01 
-2.794877445372e+01 -2.470081001462e+00 0.0 
-2.470081001462e+00 -7.432626038795e+01 0.0 
0.0 0.0 -3.028251045250e+01 
-4.210098218546e+01 -2.050745795261e+00 0.0 
-2.050745795261e+00 -1.219208290737e+02 0.0 
0.0 0.0 -4.880654337775e+01 
-5.171023943895e+01 -1.870437618040e+00 0.0 
-1.870437618040e+00 -1.461911929395e+02 0.0 
0.0 0.0 -5.897042971354e+01 
-6.818305315909e+01 2.347092415969e+00 0.0 
2.347092415969e+00 -1.966471087024e+02 0.0 
0.0 0.0 -7.904904855846e+01 
-7.089554108365e+01 1.984459397978e+00 0.0 
1.984459397978e+00 -1.972398397303e+02 0.0 
0.0 0.0 -8.004061424418e+01 
-3.155521928917e+01 -1.961003720363e+00 0.0 
-1.961003720363e+00 -8.395258733864e+01 0.0 
0.0 0.0 -3.425234198834e+01 
-2.794784310406e+01 -1.106769690739e+00 0.0 
-1.106769690739e+00 -7.461262041739e+01 0.0 
0.0 0.0 -3.036813905643e+01 
-7.251672708050e+01 4.075944248970e+00 0.0 
4.075944248970e+00 -1.379283118036e+02 0.0 
0.0 0.0 -6.273351166523e+01 
-4.525671654924e+01 -6.505098042525e-01 0.0 
-6.505098042525e-01 -1.226716574181e+02 0.0 
0.0 0.0 -4.997851219020e+01 
-1.160473065575e+02 6.734806417288e+00 0.0 
6.734806417288e+00 -2.993888674689e+02 0.0 
0.0 0.0 -1.242308522079e+02 
-1.070669254747e+02 1.895041221410e+01 0.0 
1.895041221410e+01 -2.486640531191e+02 0.0 
0.0 0.0 -1.063192935781e+02 
-8.150650197272e+01 1.106840927710e+01 0.0 
1.106840927710e+01 -1.512012642494e+02 0.0 
0.0 0.0 -6.941232986662e+01 
-9.698396527178e+01 4.989140599563e+00 0.0 
4.989140599563e+00 -2.083943708313e+02 0.0 
0.0 0.0 -9.121350083091e+01 
-1.141980792616e+02 1.909423468168e+01 0.0 
1.909423468168e+01 -2.599683465812e+02 0.0 
0.0 0.0 -1.118499277528e+02 
-6.645017666079e+01 1.190658738779e+01 0.0 
1.190658738779e+01 -1.877498266180e+02 0.0 
0.0 0.0 -7.586000098365e+01 
-9.926169075237e+01 1.853853292293e+01 0.0 
1.853853292293e+01 -2.293605969805e+02 0.0 
0.0 0.0 -9.818668631986e+01 
-3.484152562810e+01 -1.855144761534e+00 0.0 
-1.855144761534e+00 -9.506572249271e+01 0.0 
0.0 0.0 -3.857217443624e+01 
-7.129406648080e+01 1.217972991871e+00 0.0 
1.217972991871e+00 -1.959792348917e+02 0.0 
0.0 0.0 -7.978199041175e+01 
-5.759101759933e+01 1.375568100196e+01 0.0 
1.375568100196e+01 -1.633319786511e+02 0.0 
0.0 0.0 -6.587689887512e+01 
-3.527290718863e+01 -3.063982252860e-01 0.0 
-3.063982252860e-01 -1.060797771765e+02 0.0 
0.0 0.0 -4.200580530955e+01 
-2.943826345991e+01 -2.138940795814e+00 0.0 
-2.138940795814e+00 -7.592837181133e+01 0.0 
0.0 0.0 -3.120999058137e+01 
-5.887791826674e+01 -1.519891049443e+00 0.0 
-1.519891049443e+00 -1.634464317295e+02 0.0 
0.0 0.0 -6.629730499886e+01 
-6.685681658022e+01 2.029494769946e+00 0.0 
2.029494769946e+00 -1.882623474934e+02 0.0 
0.0 0.0 -7.613574922209e+01 
-7.019253587872e+01 3.149125698217e+00 0.0 
3.149125698217e+00 -1.976816676427e+02 0.0 
0.0 0.0 -7.996226105643e+01 
-4.765962149861e+01 -1.794229533096e+00 0.0 
-1.794229533096e+00 -1.306221389701e+02 0.0 
0.0 0.0 -5.308452814061e+01 
-7.671070698994e+01 1.906764435875e+00 0.0 
1.906764435875e+00 -2.149493597732e+02 0.0 
0.0 0.0 -8.709802002895e+01 
-6.604677039583e+01 3.357453611386e+00 0.0 
3.357453611386e+00 -1.883835802733e+02 0.0 
0.0 0.0 -7.592910520073e+01 
-6.727065544240e+01 4.106062593807e+00 0.0 
4.106062593807e+00 -1.961597834038e+02 0.0 
0.0 0.0 -7.862913165386e+01 
-5.320127465890e+01 -7.105017158699e-01 0.0 
-7.105017158699e-01 -1.470703830750e+02 0.0 
0.0 0.0 -5.968149732017e+01 
-1.007993932217e+02 1.303835243418e+01 0.0 
1.303835243418e+01 -2.647506952720e+02 0.0 
0.0 0.0 -1.092650265481e+02 
-8.347354667428e+01 4.011490043255e+00 0.0 
4.011490043255e+00 -1.703167603858e+02 0.0 
0.0 0.0 -7.573709211802e+01 
-6.308991982820e+01 4.659206810140e+00 0.0 
4.659206810140e+00 -1.865012605590e+02 0.0 
0.0 0.0 -7.447735411617e+01 
-1.259032786745e+02 7.607895818881e+00 0.0 
7.607895818881e+00 -3.180338875752e+02 0.0 
0.0 0.0 -1.327811498749e+02 
-3.765837377994e+01 -1.310739151892e+00 0.0 
-1.310739151892e+00 -1.054917334805e+02 0.0 
0.0 0.0 -4.254503217813e+01 
-1.358172864886e+02 1.052022789116e+01 0.0 
1.052022789116e+01 -3.362557879265e+02 0.0 
0.0 0.0 -1.412219223245e+02 
-7.240760312921e+01 2.084110814909e+00 0.0 
2.084110814909e+00 -2.057936383547e+02 0.0 
0.0 0.0 -8.306037244518e+01 
-1.179160492318e+02 1.915300340171e+01 0.0 
1.915300340171e+01 -2.677328156400e+02 0.0 
0.0 0.0 -1.152946594615e+02 
-8.519630993469e+01 1.820762109504e+01 0.0 
1.820762109504e+01 -1.738521082471e+02 0.0 
0.0 0.0 -7.731452545454e+01 
-3.619715841971e+01 -2.581434288299e+00 0.0 
-2.581434288299e+00 -1.028464377585e+02 0.0 
0.0 0.0 -4.131307885347e+01 
-8.558546457182e+01 1.299823218199e+01 0.0 
1.299823218199e+01 -1.628599322200e+02 0.0 
0.0 0.0 -7.413361903754e+01 
-1.017087618935e+02 7.752077988876e+00 0.0 
7.752077988876e+00 -2.180633398258e+02 0.0 
0.0 0.0 -9.553163051578e+01 
-7.591476284861e+01 3.301101823649e+00 0.0 
3.301101823649e+00 -2.151072684088e+02 0.0 
0.0 0.0 -8.690660937722e+01 
-4.344547338972e+01 1.591835029260e+01 0.0 
1.591835029260e+01 -1.190673979713e+02 0.0 
0.0 0.0 -4.835386140832e+01 
-8.945803255093e+01 1.479648118589e+01 0.0 
1.479648118589e+01 -1.750851910177e+02 0.0 
0.0 0.0 -7.896296707059e+01 
-6.338722918655e+01 1.848352674585e+01 0.0 
1.848352674585e+01 -1.490753189804e+02 0.0 
0.0 0.0 -6.333876445007e+01 
-3.057079693722e+01 -2.943778132134e+00 0.0 
-2.943778132134e+00 -8.330634863482e+01 0.0 
0.0 0.0 -3.376314367161e+01 
-1.106627909909e+02 6.686579697085e+00 0.0 
6.686579697085e+00 -2.496319296137e+02 0.0 
0.0 0.0 -1.076884161814e+02 
-2.770001857885e+01 -3.024670171689e+00 0.0 
-3.024670171689e+00 -7.284283215975e+01 0.0 
0.0 0.0 -2.976285522158e+01 
-1.286630246212e+02 1.817766894247e+01 0.0 
1.817766894247e+01 -3.154787385679e+02 0.0 
0.0 0.0 -1.328425289567e+02 
-9.960089532360e+01 2.455788755211e+00 0.0 
2.455788755211e+00 -2.217344283459e+02 0.0 
0.0 0.0 -9.600059710086e+01 
-1.057415276467e+02 1.247784309693e+01 0.0 
1.247784309693e+01 -2.757353924376e+02 0.0 
0.0 0.0 -1.140430760253e+02 
-6.968209081500e+01 6.349852597031e-01 0.0 
6.349852597031e-01 -1.399985313756e+02 0.0 
0.0 0.0 -6.250418665717e+01 
-9.508906664373e+01 5.839550736904e+00 0.0 
5.839550736904e+00 -1.999578128746e+02 0.0 
0.0 0.0 -8.811406385549e+01 
-6.926707830677e+01 4.723898565076e+00 0.0 
4.723898565076e+00 -1.971484194975e+02 0.0 
0.0 0.0 -7.952464934128e+01 
-7.878758367077e+01 1.187425036205e+01 0.0 
1.187425036205e+01 -2.171278748478e+02 0.0 
0.0 0.0 -8.837463755556e+01 
-1.039788204291e+02 5.860858771797e+00 0.0 
5.860858771797e+00 -2.286804078772e+02 0.0 
0.0 0.0 -9.939776849188e+01 
-1.119115545294e+02 4.032392975199e+00 0.0 
4.032392975199e+00 -2.896761513402e+02 0.0 
0.0 0.0 -1.200763117609e+02 
-8.773839826561e+01 4.925442062804e+00 0.0 
4.925442062804e+00 -1.797872941713e+02 0.0 
0.0 0.0 -7.985770773107e+01 
-1.005854696061e+02 7.903803261025e+00 0.0 
7.903803261025e+00 -2.693501843934e+02 0.0 
0.0 0.0 -1.105806961998e+02 
-3.332163237271e+01 -2.514003840682e+00 0.0 
-2.514003840682e+00 -9.427354470096e+01 0.0 
0.0 0.0 -3.787855312210e+01 
-9.198724372340e+01 5.996976558383e+00 0.0 
5.996976558383e+00 -1.893766698074e+02 0.0 
0.0 0.0 -8.400917405923e+01 
-1.306576559285e+02 2.322898701647e+01 0.0 
2.322898701647e+01 -3.043737848705e+02 0.0 
0.0 0.0 -1.301094322397e+02 
-1.365170827064e+02 8.393399825638e+00 0.0 
8.393399825638e+00 -3.374388478101e+02 0.0 
0.0 0.0 -1.417867791549e+02 
-6.956917507696e+01 7.888344932585e-02 0.0 
7.888344932585e-02 -1.949995136607e+02 0.0 
0.0 0.0 -7.897060662130e+01 
-7.115632822014e+01 2.537244966859e+00 0.0 
2.537244966859e+00 -1.408808466263e+02 0.0 
0.0 0.0 -6.321115245393e+01 
-6.574475975773e+01 5.221463486624e-01 0.0 
5.221463486624e-01 -1.293737610209e+02 0.0 
0.0 0.0 -5.813555623358e+01 
-7.435407090647e+01 3.022409051489e+00 0.0 
3.022409051489e+00 -2.068247615368e+02 0.0 
0.0 0.0 -8.395364973299e+01 
-1.070915305956e+02 4.315631195433e+00 0.0 
4.315631195433e+00 -2.805758678562e+02 0.0 
0.0 0.0 -1.159002195355e+02 
-1.115312797718e+02 5.472366772525e+00 0.0 
5.472366772525e+00 -2.901081733202e+02 0.0 
0.0 0.0 -1.200918359276e+02 
-2.543434840747e+01 -1.258033934505e+00 0.0 
-1.258033934505e+00 -6.581936279433e+01 0.0 
0.0 0.0 -2.697611336054e+01 
-3.518329582105e+01 6.569175019343e+00 0.0 
6.569175019343e+00 -1.108996401501e+02 0.0 
0.0 0.0 -4.342488079133e+01 
-6.642955734527e+01 6.270440490984e+00 0.0 
6.270440490984e+00 -1.946349914953e+02 0.0 
0.0 0.0 -7.791936465216e+01 
-6.506262900876e+01 5.155963825637e+00 0.0 
5.155963825637e+00 -1.874547446866e+02 0.0 
0.0 0.0 -7.535521210861e+01 
-6.226456789154e+01 1.736219979806e+01 0.0 
1.736219979806e+01 -1.594281755578e+02 0.0 
0.0 0.0 -6.610782303481e+01 
-1.087693311779e+02 7.381742022207e+00 0.0 
7.381742022207e+00 -2.400449044134e+02 0.0 
0.0 0.0 -1.042442706774e+02 
-1.078111459547e+02 1.333785573102e+01 0.0 
1.333785573102e+01 -2.325657049537e+02 0.0 
0.0 0.0 -1.017130552725e+02 
-1.008792541995e+02 4.176377670605e+00 0.0 
4.176377670605e+00 -2.224731508233e+02 0.0 
0.0 0.0 -9.660572150682e+01 
-5.243531208344e+01 2.018536912308e+01 0.0 
2.018536912308e+01 -1.021456027107e+02 0.0 
0.0 0.0 -4.597427443824e+01 
-9.484447344266e+01 6.601103525423e+00 0.0 
6.601103525423e+00 -1.976020683122e+02 0.0 
0.0 0.0 -8.733396252646e+01 
-1.085796989418e+02 5.555319246111e+00 0.0 
5.555319246111e+00 -2.814764991661e+02 0.0 
0.0 0.0 -1.166168594324e+02 
-1.034124849998e+02 4.439039204578e+00 0.0 
4.439039204578e+00 -2.297987416396e+02 0.0 
0.0 0.0 -9.956336799182e+01 
-8.882740010446e+01 6.129776353263e+00 0.0 
6.129776353263e+00 -1.788573703974e+02 0.0 
0.0 0.0 -7.990543115055e+01 
-7.494110649484e+01 2.000039255264e+00 0.0 
2.000039255264e+00 -2.061069008966e+02 0.0 
0.0 0.0 -8.391440221742e+01 
-6.225728572951e+01 7.046652142676e+00 0.0 
7.046652142676e+00 -1.844154899951e+02 0.0 
0.0 0.0 -7.360183271737e+01 
-8.980476788799e+01 4.013963377669e+00 0.0 
4.013963377669e+00 -1.881167201056e+02 0.0 
0.0 0.0 -8.297644639807e+01 
-1.021126395320e+02 6.713238235835e+00 0.0 
6.713238235835e+00 -2.202284616021e+02 0.0 
0.0 0.0 -9.630233034024e+01 
-8.924123302785e+01 2.933648846548e+00 0.0 
2.933648846548e+00 -1.893259762157e+02 0.0 
0.0 0.0 -8.317016277305e+01 
-8.576719592710e+01 3.002865965124e+00 0.0 
3.002865965124e+00 -1.786279020463e+02 0.0 
0.0 0.0 -7.891852939203e+01 
-1.261974008342e+02 5.890871264437e+00 0.0 
5.890871264437e+00 -3.180774069627e+02 0.0 
0.0 0.0 -1.328824423391e+02 
-1.236117106068e+02 1.850670471377e+01 0.0 
1.850670471377e+01 -3.037929349216e+02 0.0 
0.0 0.0 -1.278213936585e+02 
-1.211481017622e+02 6.303149836694e+00 0.0 
6.303149836694e+00 -3.088267711229e+02 0.0 
0.0 0.0 -1.285924618655e+02 
-9.392083922506e+01 2.468977217794e+00 0.0 
2.468977217794e+00 -2.519127882470e+02 0.0 
0.0 0.0 -1.033500882416e+02 
-4.813549542185e+01 9.744271511192e+00 0.0 
9.744271511192e+00 -7.486509565422e+01 0.0 
0.0 0.0 -3.650017732282e+01 
-1.099942621501e+02 1.400415955769e+01 0.0 
1.400415955769e+01 -2.829986670976e+02 0.0 
0.0 0.0 -1.174978787743e+02 
-8.885296538128e+01 7.035457955689e+00 0.0 
7.035457955689e+00 -1.778601212221e+02 0.0 
0.0 0.0 -7.961392598102e+01 
-4.063739536682e+01 -1.983756970773e+00 0.0 
-1.983756970773e+00 -1.109162279221e+02 0.0 
0.0 0.0 -4.506608698668e+01 
-6.827909679233e+01 6.760805184349e+00 0.0 
6.760805184349e+00 -1.955309867079e+02 0.0 
0.0 0.0 -7.874302505006e+01 
-7.864654500891e+01 6.561552537185e+00 0.0 
6.561552537185e+00 -2.226330756979e+02 0.0 
0.0 0.0 -8.998388621204e+01 
-8.720229637855e+01 1.275823090620e+01 0.0 
1.275823090620e+01 -2.352054641432e+02 0.0 
0.0 0.0 -9.632232815653e+01 
-3.409507337885e+01 1.620972482455e+00 0.0 
1.620972482455e+00 -1.054590772479e+02 0.0 
0.0 0.0 -4.146624518801e+01 
-6.403922413203e+01 7.411932895495e+00 0.0 
7.411932895495e+00 -1.852570138409e+02 0.0 
0.0 0.0 -7.438887139186e+01 
-9.595770607776e+01 1.364897050602e+01 0.0 
1.364897050602e+01 -2.534233791171e+02 0.0 
0.0 0.0 -1.044143255584e+02 
-6.150049458650e+01 1.384693566999e+01 0.0 
1.384693566999e+01 -1.113715849577e+02 0.0 
0.0 0.0 -5.146162386325e+01 
-7.733763028614e+01 8.637658893808e-01 0.0 
8.637658893808e-01 -2.140074799536e+02 0.0 
0.0 0.0 -8.700353307193e+01 
-8.106362521466e+01 5.062522371480e+00 0.0 
5.062522371480e+00 -1.585657825920e+02 0.0 
0.0 0.0 -7.148882234200e+01 
-5.276097474166e+01 -3.040723184591e-01 0.0 
-3.040723184591e-01 -9.942616614598e+01 0.0 
0.0 0.0 -4.525614226629e+01 
-2.294800886675e+01 1.477797307144e+01 0.0 
1.477797307144e+01 -1.773317186562e+01 0.0 
0.0 0.0 -1.180435421971e+01 
-9.108301274322e+01 3.791605609836e+00 0.0 
3.791605609836e+00 -2.438656933386e+02 0.0 
0.0 0.0 -1.000846118246e+02 
-1.092487832220e+02 1.084669453514e+01 0.0 
1.084669453514e+01 -2.855510005061e+02 0.0 
0.0 0.0 -1.180399351184e+02 
-1.105477643547e+02 1.265191051294e+01 0.0 
1.265191051294e+01 -2.412942914097e+02 0.0 
0.0 0.0 -1.051526167293e+02 
-7.364572805543e+01 9.589559178496e+00 0.0 
9.589559178496e+00 -2.095768762032e+02 0.0 
0.0 0.0 -8.456678127758e+01 
-8.545234185636e+01 1.663029292409e+00 0.0 
1.663029292409e+00 -2.329791543832e+02 0.0 
0.0 0.0 -9.512944887188e+01 
-7.997214423081e+01 4.013161940433e+00 0.0 
4.013161940433e+00 -1.597011888904e+02 0.0 
0.0 0.0 -7.150199993635e+01 
-2.334153126274e+01 1.569115056145e+01 0.0 
1.569115056145e+01 -1.895347140464e+01 0.0 
0.0 0.0 -1.228850080021e+01 
-1.042762389608e+02 1.142287662589e+01 0.0 
1.142287662589e+01 -2.748866297999e+02 0.0 
0.0 0.0 -1.133488606282e+02 
-8.330849032192e+01 1.112428528978e+01 0.0 
1.112428528978e+01 -2.283296961078e+02 0.0 
0.0 0.0 -9.309145592891e+01 
-6.636434388574e+01 1.595416986752e+01 0.0 
1.595416986752e+01 -1.188826818368e+02 0.0 
0.0 0.0 -5.517410771675e+01 
-1.130149596935e+02 6.701771378070e+00 0.0 
6.701771378070e+00 -2.910028847104e+02 0.0 
0.0 0.0 -1.208053533212e+02 
-3.734974680832e+01 -3.634537571019e-01 0.0 
-3.634537571019e-01 -1.069523659789e+02 0.0 
0.0 0.0 -4.289063383617e+01 
-1.175394437969e+02 7.950184228236e+00 0.0 
7.950184228236e+00 -3.002859469987e+02 0.0 
0.0 0.0 -1.249476172387e+02 
-1.307467979105e+02 8.935740625266e+00 0.0 
8.935740625266e+00 -3.271361221764e+02 0.0 
0.0 0.0 -1.369648760261e+02 
-9.944002227171e+01 1.202992588368e+01 0.0 
1.202992588368e+01 -2.639577852634e+02 0.0 
0.0 0.0 -1.086193422605e+02 
-9.102591996739e+01 4.821819317484e+00 0.0 
4.821819317484e+00 -1.904084292788e+02 0.0 
0.0 0.0 -8.403030477387e+01 
-1.076908898653e+02 2.040480174740e+01 0.0 
2.040480174740e+01 -2.572286311088e+02 0.0 
0.0 0.0 -1.090758562923e+02 
-1.322230758573e+02 1.031759775977e+01 0.0 
1.031759775977e+01 -3.280146822816e+02 0.0 
0.0 0.0 -1.376713274417e+02 
-2.248147909897e+01 1.528683739908e+01 0.0 
1.528683739908e+01 -1.927142970573e+01 0.0 
0.0 0.0 -1.212587264141e+01 
-8.444358016470e+01 4.974218688822e+00 0.0 
4.974218688822e+00 -1.692044666213e+02 0.0 
0.0 0.0 -7.569441403580e+01 
-1.226105021951e+02 2.002581901360e+01 0.0 
2.002581901360e+01 -2.975044385355e+02 0.0 
0.0 0.0 -1.256344822192e+02 
-9.311180086940e+01 3.896897830848e+00 0.0 
3.896897830848e+00 -1.987875641932e+02 0.0 
0.0 0.0 -8.716980951877e+01 
-9.053353038573e+01 1.120017013089e+01 0.0 
1.120017013089e+01 -2.457198444122e+02 0.0 
0.0 0.0 -1.004760124394e+02 
-6.728698979036e+01 9.192546719445e+00 0.0 
9.192546719445e+00 -1.924429933733e+02 0.0 
0.0 0.0 -7.751899494911e+01 
-8.606872082352e+01 2.166071737629e-01 0.0 
2.166071737629e-01 -2.301455202352e+02 0.0 
0.0 0.0 -9.446427231760e+01 
-2.302883859392e+01 1.259767083502e+00 0.0 
1.259767083502e+00 -6.051518205000e+01 0.0 
0.0 0.0 -2.466320619318e+01 
-9.645508061938e+01 3.704339684503e+00 0.0 
3.704339684503e+00 -2.094934137274e+02 0.0 
0.0 0.0 -9.138454830404e+01 
-4.393468473454e+01 -1.768488887447e+00 0.0 
-1.768488887447e+00 -1.196511721804e+02 0.0 
0.0 0.0 -4.867575707447e+01 
-2.116613398376e+01 1.430103613734e+01 0.0 
1.430103613734e+01 -1.875045867516e+01 0.0 
0.0 0.0 -1.157497779767e+01 
-1.034092622557e+02 2.044222342759e+01 0.0 
2.044222342759e+01 -2.436111863360e+02 0.0 
0.0 0.0 -1.037061345775e+02 
-1.034355117979e+02 3.256756226185e+00 0.0 
3.256756226185e+00 -2.315868411934e+02 0.0 
0.0 0.0 -1.001067058974e+02 
-3.481637136721e+01 -1.226666311767e+00 0.0 
-1.226666311767e+00 -9.693311055881e+01 0.0 
0.0 0.0 -3.912484457781e+01 
-7.509163345003e+01 2.021315388255e+01 0.0 
2.021315388255e+01 -1.720576962762e+02 0.0 
0.0 0.0 -7.374479891787e+01 
-8.652381910203e+01 4.058330960167e+00 0.0 
4.058330960167e+00 -1.775364073128e+02 0.0 
0.0 0.0 -7.881806792446e+01 
-8.317500211237e+01 2.071363103045e+00 0.0 
2.071363103045e+00 -2.238652564740e+02 0.0 
0.0 0.0 -9.171207757591e+01 
-3.641204127563e+01 1.488783645830e+00 0.0 
1.488783645830e+00 -1.064103829517e+02 0.0 
0.0 0.0 -4.244672726821e+01 
-3.962544388834e+01 1.401699804480e+01 0.0 
1.401699804480e+01 -1.147931904423e+02 0.0 
0.0 0.0 -4.592559029919e+01 
-2.833099819735e+01 -2.724423843833e+00 0.0 
-2.724423843833e+00 -7.532017821006e+01 0.0 
0.0 0.0 -3.069535292222e+01 
-3.304340260001e+01 -1.559511301776e+00 0.0 
-1.559511301776e+00 -9.611981123683e+01 0.0 
0.0 0.0 -3.834896415105e+01 
-3.068572564299e+01 -2.303900066373e+00 0.0 
-2.303900066373e+00 -8.612123462135e+01 0.0 
0.0 0.0 -3.464208807930e+01 
-8.192793599521e+01 1.039506351582e+01 0.0 
1.039506351582e+01 -2.275887246937e+02 0.0 
0.0 0.0 -9.245499820666e+01 
-1.221899475054e+02 1.187679344309e+01 0.0 
1.187679344309e+01 -2.782128474836e+02 0.0 
0.0 0.0 -1.197208384967e+02 
-2.359881197374e+01 1.271371789453e+01 0.0 
1.271371789453e+01 -1.852416346052e+01 0.0 
0.0 0.0 -1.223689263028e+01 
-1.313018849555e+02 5.467643607525e+00 0.0 
5.467643607525e+00 -3.272055284309e+02 0.0 
0.0 0.0 -1.371522240159e+02 
-5.426080345047e+01 8.983959899175e+00 0.0 
8.983959899175e+00 -1.631452334317e+02 0.0 
0.0 0.0 -6.482181106466e+01 
-8.565561960493e+01 6.290177403490e+00 0.0 
6.290177403490e+00 -1.685587697116e+02 0.0 
0.0 0.0 -7.586431679495e+01 
-2.667592776950e+01 1.885829452291e+00 0.0 
1.885829452291e+00 -7.834561402156e+01 0.0 
0.0 0.0 -3.110646253732e+01 
-1.370798004359e+02 1.170544241631e+01 0.0 
1.170544241631e+01 -3.366993174734e+02 0.0 
0.0 0.0 -1.417337353728e+02 
-3.238272152838e+01 -1.927056756697e+00 0.0 
-1.927056756697e+00 -8.689639857287e+01 0.0 
0.0 0.0 -3.538373603038e+01 
-5.145025703484e+01 -1.585134346676e+00 0.0 
-1.585134346676e+00 -1.400057253831e+02 0.0 
0.0 0.0 -5.703679472539e+01 
-1.037936207773e+02 1.347850000965e+01 0.0 
1.347850000965e+01 -2.709974005501e+02 0.0 
0.0 0.0 -1.120373063982e+02 
-7.351298039913e+01 4.411024469279e+00 0.0 
4.411024469279e+00 -2.066278119955e+02 0.0 
0.0 0.0 -8.364223771840e+01 
-1.183595831978e+02 1.883355854790e+01 0.0 
1.883355854790e+01 -2.915136145826e+02 0.0 
0.0 0.0 -1.225619593341e+02 
-4.388972965711e+01 1.881734147035e+01 0.0 
1.881734147035e+01 -1.094229058865e+02 0.0 
0.0 0.0 -4.559379066308e+01 
-9.433253998259e+01 9.055062580069e+00 0.0 
9.055062580069e+00 -1.890944161171e+02 0.0 
0.0 0.0 -8.462808682991e+01 
-1.274343385155e+02 1.674287002660e+01 0.0 
1.674287002660e+01 -3.146437521332e+02 0.0 
0.0 0.0 -1.322234271946e+02 
-8.229866529698e+01 2.992135839581e+00 0.0 
2.992135839581e+00 -1.679774181403e+02 0.0 
0.0 0.0 -7.468282503117e+01 
-1.124957723259e+02 1.497558143051e+01 0.0 
1.497558143051e+01 -2.426194606229e+02 0.0 
0.0 0.0 -1.061345698846e+02 
-9.610880502880e+01 7.181460328462e+00 0.0 
7.181460328462e+00 -1.990787675977e+02 0.0 
0.0 0.0 -8.815627178795e+01 
-1.001518784929e+02 8.475685831929e+00 0.0 
8.475685831929e+00 -2.091213789977e+02 0.0 
0.0 0.0 -9.238197724721e+01 
-2.763131899194e+01 7.386204848219e+00 0.0 
7.386204848219e+00 -8.321946182505e+01 0.0 
0.0 0.0 -3.285523424510e+01 
-1.263251512807e+02 4.412496379767e+00 0.0 
4.412496379767e+00 -3.173707470269e+02 0.0 
0.0 0.0 -1.327087694923e+02 
-9.074422884251e+01 5.281581729735e+00 0.0 
5.281581729735e+00 -1.874532153166e+02 0.0 
0.0 0.0 -8.305923324774e+01 
-6.918185348587e+01 1.313171897931e+01 0.0 
1.313171897931e+01 -1.930392549241e+02 0.0 
0.0 0.0 -7.826633252298e+01 
-2.320244512627e+01 5.567518147575e+00 0.0 
5.567518147575e+00 -2.300236191618e+01 0.0 
0.0 0.0 -1.346144211274e+01 
-1.335714737864e+02 1.964817604020e+01 0.0 
1.964817604020e+01 -3.223253585192e+02 0.0 
0.0 0.0 -1.363690496917e+02 
-3.303925347716e+01 4.518366679770e+00 0.0 
4.518366679770e+00 -1.038249503703e+02 0.0 
0.0 0.0 -4.065926115424e+01 
-4.857685246533e+01 -3.035787860498e-01 0.0 
-3.035787860498e-01 -1.313201096416e+02 0.0 
0.0 0.0 -5.356908863207e+01 
-1.126654281732e+02 1.613597381523e+01 0.0 
1.613597381523e+01 -2.843522590851e+02 0.0 
0.0 0.0 -1.187053061775e+02 
-2.990250286451e+01 3.369560010331e-01 0.0 
3.369560010331e-01 -8.035638882882e+01 0.0 
0.0 0.0 -3.267766750800e+01 
-6.984964371858e+01 1.849510311304e+01 0.0 
1.849510311304e+01 -1.775560292123e+02 0.0 
0.0 0.0 -7.382170187927e+01 
-1.086278479686e+02 1.290932989247e+01 0.0 
1.290932989247e+01 -2.822087885182e+02 0.0 
0.0 0.0 -1.168509909460e+02 
-1.064261522475e+02 9.344807554495e+00 0.0 
9.344807554495e+00 -2.288732766151e+02 0.0 
0.0 0.0 -1.001898286588e+02 
-1.102667182317e+02 1.085560080908e+01 0.0 
1.085560080908e+01 -2.397450230347e+02 0.0 
0.0 0.0 -1.046035223799e+02 
-1.050162847456e+02 1.456341897337e+01 0.0 
1.456341897337e+01 -2.717422415681e+02 0.0 
0.0 0.0 -1.126275578941e+02 
-9.907252273704e+01 6.974493892056e+00 0.0 
6.974493892056e+00 -2.096219463985e+02 0.0 
0.0 0.0 -9.220834074065e+01 
-5.766746614444e+01 1.083151087385e+01 0.0 
1.083151087385e+01 -1.695235433492e+02 0.0 
0.0 0.0 -6.775730284810e+01 
-1.036956179454e+02 2.055347937549e+01 0.0 
2.055347937549e+01 -2.354744374188e+02 0.0 
0.0 0.0 -1.013510166092e+02 
-3.144899717561e+01 3.303858473011e+00 0.0 
3.303858473011e+00 -4.078511572300e+01 0.0 
0.0 0.0 -2.127023386958e+01 
-1.122085176896e+02 1.659020102224e+01 0.0 
1.659020102224e+01 -2.483805419239e+02 0.0 
0.0 0.0 -1.077767178840e+02 
-4.030796480077e+01 2.460193019669e+00 0.0 
2.460193019669e+00 -6.019157879830e+01 0.0 
0.0 0.0 -2.974986307972e+01 
-4.488919171055e+01 2.226576593042e+00 0.0 
2.226576593042e+00 -6.974268815446e+01 0.0 
0.0 0.0 -3.398956395950e+01 
-6.940952169520e+01 1.048903041222e+01 0.0 
1.048903041222e+01 -1.985563371418e+02 0.0 
0.0 0.0 -7.998975765109e+01 
-4.880509104180e+01 1.919005686438e+00 0.0 
1.919005686438e+00 -7.976578945736e+01 0.0 
0.0 0.0 -3.817126414975e+01 
-8.187225029674e+01 1.790827098269e+01 0.0 
1.790827098269e+01 -2.091228676694e+02 0.0 
0.0 0.0 -8.689853538985e+01 
-6.187301266112e+01 1.581544901447e+01 0.0 
1.581544901447e+01 -1.685434624468e+02 0.0 
0.0 0.0 -6.872494253237e+01 
-7.160441635463e+01 8.446644772625e+00 0.0 
8.446644772625e+00 -2.031086953304e+02 0.0 
0.0 0.0 -8.201393350552e+01 
-3.201884240599e+01 6.542272312971e-02 0.0 
6.542272312971e-02 -9.637823284955e+01 0.0 
0.0 0.0 -3.811912257666e+01 
-6.571627956576e+01 8.773622041866e+00 0.0 
8.773622041866e+00 -1.916861714657e+02 0.0 
0.0 0.0 -7.682073530944e+01 
-1.001657804805e+02 4.774212878432e+00 0.0 
4.774212878432e+00 -2.190695767511e+02 0.0 
0.0 0.0 -9.537060716949e+01 
-1.123629108831e+02 1.475376515537e+01 0.0 
1.475376515537e+01 -2.465636798882e+02 0.0 
0.0 0.0 -1.072779772314e+02 
-1.167223261796e+02 3.740024425418e+00 0.0 
3.740024425418e+00 -2.986414307296e+02 0.0 
0.0 0.0 -1.242091270728e+02 
-1.221664810748e+02 1.708133202587e+01 0.0 
1.708133202587e+01 -3.028762611495e+02 0.0 
0.0 0.0 -1.271128226673e+02 
-7.152584023219e+01 3.650364392473e+00 0.0 
3.650364392473e+00 -2.056160040610e+02 0.0 
0.0 0.0 -8.274255328796e+01 
-9.784774193713e+01 6.392425669290e+00 0.0 
6.392425669290e+00 -2.077813419261e+02 0.0 
0.0 0.0 -9.128872515897e+01 
-6.992604064512e+01 7.921527923945e+00 0.0 
7.921527923945e+00 -2.022846713555e+02 0.0 
0.0 0.0 -8.126321360017e+01 
-1.312620066734e+02 4.006851375983e+00 0.0 
4.006851375983e+00 -3.262010888184e+02 0.0 
0.0 0.0 -1.368389286475e+02 
-9.381856428262e+01 5.177061501861e+00 0.0 
5.177061501861e+00 -1.977663283958e+02 0.0 
0.0 0.0 -8.707546780353e+01 
-9.727094384666e+01 8.761895655871e+00 0.0 
8.761895655871e+00 -1.990187525796e+02 0.0 
0.0 0.0 -8.848690892788e+01 
-9.517933175595e+01 1.052547447926e+01 0.0 
1.052547447926e+01 -2.565875436244e+02 0.0 
0.0 0.0 -1.051300626141e+02 
-6.162887064416e+01 9.747871963044e+00 0.0 
9.747871963044e+00 -1.807853222878e+02 0.0 
0.0 0.0 -7.232425787959e+01 
-1.114225796275e+02 2.093426467094e+01 0.0 
2.093426467094e+01 -2.546416714913e+02 0.0 
0.0 0.0 -1.094192753356e+02 
-8.479672241565e+01 1.541952448524e+01 0.0 
1.541952448524e+01 -1.731421845697e+02 0.0 
0.0 0.0 -7.698167209559e+01 
-3.403879476346e+01 1.535289054509e-01 0.0 
1.535289054509e-01 -9.725354089570e+01 0.0 
0.0 0.0 -3.898770069775e+01 
-3.516243650935e+01 4.025339217998e+00 0.0 
4.025339217998e+00 -1.046106490665e+02 0.0 
0.0 0.0 -4.153192567276e+01 
-4.699029569856e+01 1.702944112579e+01 0.0 
1.702944112579e+01 -1.235031850690e+02 0.0 
0.0 0.0 -5.074804423028e+01 
-7.582531431428e+01 1.830918268762e+01 0.0 
1.830918268762e+01 -1.719884288426e+02 0.0 
0.0 0.0 -7.394412294707e+01 
-1.361938750553e+02 3.519529192078e+00 0.0 
3.519529192078e+00 -3.351373166552e+02 0.0 
0.0 0.0 -1.409993575131e+02 
-9.308267823426e+01 7.402658529004e+00 0.0 
7.402658529004e+00 -1.888091450720e+02 0.0 
0.0 0.0 -8.416754699188e+01 
-6.306844706171e+01 1.005916753149e+01 0.0 
1.005916753149e+01 -1.814636081787e+02 0.0 
0.0 0.0 -7.295961657213e+01 
-8.761196887868e+01 2.010054642503e+01 0.0 
2.010054642503e+01 -1.961842698731e+02 0.0 
0.0 0.0 -8.473887162554e+01 
-1.137110657320e+02 1.236998324349e+01 0.0 
1.236998324349e+01 -2.932925708276e+02 0.0 
0.0 0.0 -1.217010909679e+02 
-9.823336113722e+01 5.627489900274e+00 0.0 
5.627489900274e+00 -2.105871098297e+02 0.0 
0.0 0.0 -9.224614129009e+01 
-1.149712446695e+02 2.099504203885e+01 0.0 
2.099504203885e+01 -2.605904413176e+02 0.0 
0.0 0.0 -1.122685057961e+02 
-7.994658966142e+01 4.142215371626e+00 0.0 
4.142215371626e+00 -1.570353923471e+02 0.0 
0.0 0.0 -7.069459460257e+01 
-1.201396026533e+02 9.920718256125e+00 0.0 
9.920718256125e+00 -3.072828327121e+02 0.0 
0.0 0.0 -1.278267306096e+02 
-7.511482897470e+01 1.016883443698e+01 0.0 
1.016883443698e+01 -2.103245949790e+02 0.0 
0.0 0.0 -8.523182718609e+01 
-1.151302342059e+02 1.348068426809e+01 0.0 
1.348068426809e+01 -2.940448960008e+02 0.0 
0.0 0.0 -1.223525390620e+02 
-7.018499569794e+01 1.742352743583e+01 0.0 
1.742352743583e+01 -1.774689354682e+02 0.0 
0.0 0.0 -7.389617934983e+01 
-1.056966548566e+02 7.774266143263e+00 0.0 
7.774266143263e+00 -2.296932706626e+02 0.0 
0.0 0.0 -1.002169776558e+02 
-1.196517398107e+02 2.146704163348e+01 0.0 
2.146704163348e+01 -2.686777803505e+02 0.0 
0.0 0.0 -1.160988560484e+02 
-8.641289769805e+01 9.652892105683e+00 0.0 
9.652892105683e+00 -2.383661046232e+02 0.0 
0.0 0.0 -9.703370069638e+01 
-3.108947842873e+01 2.591518148331e+00 0.0 
2.591518148331e+00 -9.602232952785e+01 0.0 
0.0 0.0 -3.773354238697e+01 
-1.111653911389e+02 1.867777709510e+01 0.0 
1.867777709510e+01 -2.697513424971e+02 0.0 
0.0 0.0 -1.138750200908e+02 
-7.791124554128e+01 1.866572488666e+01 0.0 
1.866572488666e+01 -1.957289856896e+02 0.0 
0.0 0.0 -8.169206936925e+01 
-5.895152031640e+01 1.105907097459e+01 0.0 
1.105907097459e+01 -1.701182889092e+02 0.0 
0.0 0.0 -6.832094276769e+01 
-9.187458965383e+01 1.207111829054e+01 0.0 
1.207111829054e+01 -2.464749187158e+02 0.0 
0.0 0.0 -1.011048525109e+02 
-1.170540410910e+02 9.716190106814e+00 0.0 
9.716190106814e+00 -2.995294885720e+02 0.0 
0.0 0.0 -1.245750588989e+02 
-3.327181681549e+01 2.160715880880e+00 0.0 
2.160715880880e+00 -9.684593779277e+01 0.0 
0.0 0.0 -3.863532638248e+01 
-7.799247535009e+01 8.794886399594e+00 0.0 
8.794886399594e+00 -2.202671109596e+02 0.0 
0.0 0.0 -8.907787589290e+01 
-8.781276921750e+01 1.196328258833e+01 0.0 
1.196328258833e+01 -1.738419564815e+02 0.0 
0.0 0.0 -7.809641770969e+01 
-1.369302050299e+02 4.935629531574e+00 0.0 
4.935629531574e+00 -3.357336502854e+02 0.0 
0.0 0.0 -1.413991565946e+02 
-9.180702093221e+01 1.370607508018e+01 0.0 
1.370607508018e+01 -1.866555189335e+02 0.0 
0.0 0.0 -8.313876195970e+01 
-1.069986286566e+02 1.874709027487e+01 0.0 
1.874709027487e+01 -2.565896799352e+02 0.0 
0.0 0.0 -1.086764925775e+02 
-8.358269799248e+01 1.010602062742e+01 0.0 
1.010602062742e+01 -1.614633341282e+02 0.0 
0.0 0.0 -7.311380963619e+01 
-7.421372464546e+01 6.215679818036e+00 0.0 
6.215679818036e+00 -1.381882865271e+02 0.0 
0.0 0.0 -6.332060335178e+01 
-8.844448853987e+01 1.665609628461e+01 0.0 
1.665609628461e+01 -1.872319476915e+02 0.0 
0.0 0.0 -8.230293086941e+01 
-1.176517385967e+02 1.568948186477e+01 0.0 
1.568948186477e+01 -2.962344767076e+02 0.0 
0.0 0.0 -1.237658645913e+02 
-1.226358232931e+02 6.087209234399e+00 0.0 
6.087209234399e+00 -3.092783544136e+02 0.0 
0.0 0.0 -1.291742533120e+02 
-8.762243870644e+01 5.425045425579e+00 0.0 
5.425045425579e+00 -1.773163337339e+02 0.0 
0.0 0.0 -7.908163173211e+01 
-1.083581770083e+02 8.933722640941e+00 0.0 
8.933722640941e+00 -2.385883785246e+02 0.0 
0.0 0.0 -1.036839666598e+02 
-7.916159904608e+01 8.178021504070e+00 0.0 
8.178021504070e+00 -1.496405725187e+02 0.0 
0.0 0.0 -6.824065146943e+01 
-4.907034977240e+01 8.132657078665e+00 0.0 
8.132657078665e+00 -1.463416513670e+02 0.0 
0.0 0.0 -5.822360034181e+01 
-1.162582593568e+02 2.107201964643e+01 0.0 
2.107201964643e+01 -2.762803025888e+02 0.0 
0.0 0.0 -1.173615685837e+02 
-1.052224480537e+02 6.478164240531e+00 0.0 
6.478164240531e+00 -2.309062928933e+02 0.0 
0.0 0.0 -1.004386222841e+02 
-6.941631754976e+01 1.553749169278e+01 0.0 
1.553749169278e+01 -1.859318713230e+02 0.0 
0.0 0.0 -7.620445666182e+01 
-7.375090822881e+01 1.664621331187e+01 0.0 
1.664621331187e+01 -1.908433089174e+02 0.0 
0.0 0.0 -7.897826514386e+01 
-5.584087204651e+01 9.116050095873e+00 0.0 
9.116050095873e+00 -1.638440977962e+02 0.0 
0.0 0.0 -6.550549095280e+01 
-9.184569538515e+01 6.797087017893e+00 0.0 
6.797087017893e+00 -1.876092110701e+02 0.0 
0.0 0.0 -8.343647193657e+01 
-5.208465318198e+01 1.867488996693e+01 0.0 
1.867488996693e+01 -1.150684407541e+02 0.0 
0.0 0.0 -4.974592818082e+01 
-8.569536647124e+01 1.609573804383e+01 0.0 
1.609573804383e+01 -2.217152401036e+02 0.0 
0.0 0.0 -9.182318197245e+01 
-5.145933255101e+01 2.052733138154e+01 0.0 
2.052733138154e+01 -1.151633906241e+02 0.0 
0.0 0.0 -4.958681695253e+01 
-1.082245190029e+02 1.485048017099e+01 0.0 
1.485048017099e+01 -2.777839050900e+02 0.0 
0.0 0.0 -1.154025272279e+02 
-1.247385279620e+02 2.168355436006e+01 0.0 
2.168355436006e+01 -2.946179831729e+02 0.0 
0.0 0.0 -1.254069533405e+02 
-5.988590291555e+01 8.199955197279e+00 0.0 
8.199955197279e+00 -1.747005029655e+02 0.0 
0.0 0.0 -6.997592176433e+01 
-2.502981040025e+01 6.772163068356e-01 0.0 
6.772163068356e-01 -6.122707065406e+01 0.0 
0.0 0.0 -2.547706431629e+01 
-1.093486987999e+02 1.082150182593e+01 0.0 
1.082150182593e+01 -2.396619911492e+02 0.0 
0.0 0.0 -1.043032069847e+02 
-5.675061011428e+01 1.819231831420e+01 0.0 
1.819231831420e+01 -1.182636514009e+02 0.0 
0.0 0.0 -5.210427845455e+01 
-7.501065470350e+01 5.063028203166e+00 0.0 
5.063028203166e+00 -2.142941936098e+02 0.0 
0.0 0.0 -8.639145449400e+01 
-1.199568091488e+02 1.947234110542e+01 0.0 
1.947234110542e+01 -2.888835189542e+02 0.0 
0.0 0.0 -1.222520984309e+02 
-9.004063726771e+01 7.613651865628e+00 0.0 
7.613651865628e+00 -1.787179249163e+02 0.0 
0.0 0.0 -8.022756865520e+01 
-1.178323409185e+02 6.400833358292e+00 0.0 
6.400833358292e+00 -3.002112906258e+02 0.0 
0.0 0.0 -1.250130894633e+02 
-5.829852888273e+01 1.407700408001e+01 0.0 
1.407700408001e+01 -1.637011087280e+02 0.0 
0.0 0.0 -6.619989128321e+01 
-2.170484258851e+01 -1.308643853308e-01 0.0 
-1.308643853308e-01 -5.149315134481e+01 0.0 
0.0 0.0 -2.155939818000e+01 
-1.418134348631e+02 4.518890226900e+00 0.0 
4.518890226900e+00 -3.455266121918e+02 0.0 
0.0 0.0 -1.458020141165e+02 
-7.919809591071e+01 1.827424540960e+01 0.0 
1.827424540960e+01 -1.863385255350e+02 0.0 
0.0 0.0 -7.926098643372e+01 
-9.963539463136e+01 1.714439161518e+01 0.0 
1.714439161518e+01 -2.536851802751e+02 0.0 
0.0 0.0 -1.055961724719e+02 
-1.149906417799e+02 1.970989935995e+01 0.0 
1.970989935995e+01 -2.682562921706e+02 0.0 
0.0 0.0 -1.145740801852e+02 
-1.933814218420e+01 -3.813787804032e-02 0.0 
-3.813787804032e-02 -3.439367881064e+01 0.0 
0.0 0.0 -1.571954629845e+01 
-1.164730595429e+02 5.121740291115e+00 0.0 
5.121740291115e+00 -2.993519987817e+02 0.0 
0.0 0.0 -1.243475174974e+02 
-3.816083427198e+01 1.179837300903e+01 0.0 
1.179837300903e+01 -1.111237333503e+02 0.0 
0.0 0.0 -4.438537028669e+01 
-8.257262163154e+01 6.384458803380e+00 0.0 
6.384458803380e+00 -1.585163989263e+02 0.0 
0.0 0.0 -7.192670616734e+01 
-9.138441233433e+01 2.830333676043e+00 0.0 
2.830333676043e+00 -2.428422652326e+02 0.0 
0.0 0.0 -9.986800327007e+01 
-5.819318799708e+01 7.944121896432e+00 0.0 
7.944121896432e+00 -1.739238163832e+02 0.0 
0.0 0.0 -6.923510131409e+01 
-1.321267992110e+02 5.329822467869e+00 0.0 
5.329822467869e+00 -3.268596892976e+02 0.0 
0.0 0.0 -1.372959465526e+02 
-8.185878575891e+01 1.682502424465e+01 0.0 
1.682502424465e+01 -2.088810325082e+02 0.0 
0.0 0.0 -8.682194548013e+01 
-5.110074490369e+01 7.093346698456e+00 0.0 
7.093346698456e+00 -1.562874745399e+02 0.0 
0.0 0.0 -6.181646583307e+01 
-8.313841817684e+01 2.015381744465e+01 0.0 
2.015381744465e+01 -1.911792476331e+02 0.0 
0.0 0.0 -8.189529974298e+01 
-2.364422333536e+01 -7.810675060836e-01 0.0 
-7.810675060836e-01 -5.214426887830e+01 0.0 
0.0 0.0 -2.233654766410e+01 
-9.942527353499e+01 2.041536093117e+01 0.0 
2.041536093117e+01 -2.297970288553e+02 0.0 
0.0 0.0 -9.836669071709e+01 
-1.093707906057e+02 1.605020151343e+01 0.0 
1.605020151343e+01 -2.785271033337e+02 0.0 
0.0 0.0 -1.159693681818e+02 
-1.208799393515e+02 2.046322604867e+01 0.0 
2.046322604867e+01 -2.721778783642e+02 0.0 
0.0 0.0 -1.175173453147e+02 
-1.076371633422e+02 2.082361879034e+01 0.0 
2.082361879034e+01 -2.492767453391e+02 0.0 
0.0 0.0 -1.066741726044e+02 
-4.053365300959e+01 5.047445422973e+00 0.0 
5.047445422973e+00 -1.220967011026e+02 0.0 
0.0 0.0 -4.838910623364e+01 
-1.179233852648e+02 5.052623327611e+00 0.0 
5.052623327611e+00 -2.994459419854e+02 0.0 
0.0 0.0 -1.248107981750e+02 
-1.070871020908e+02 5.637298498109e+00 0.0 
5.637298498109e+00 -2.392264924330e+02 0.0 
0.0 0.0 -1.034940783571e+02 
-1.375468508418e+02 2.095454196658e+01 0.0 
2.095454196658e+01 -3.280282900250e+02 0.0 
0.0 0.0 -1.392725422600e+02 
-1.138332694417e+02 1.746653874278e+01 0.0 
1.746653874278e+01 -2.851318961211e+02 0.0 
0.0 0.0 -1.192895496688e+02 
-6.228070553903e+01 1.294216064947e+01 0.0 
1.294216064947e+01 -1.758705309145e+02 0.0 
0.0 0.0 -7.104537093605e+01 
-9.124405950133e+01 2.021113452635e+01 0.0 
2.021113452635e+01 -2.103991980803e+02 0.0 
0.0 0.0 -9.009297727449e+01 
-1.355727342567e+02 2.225225226896e+00 0.0 
2.225225226896e+00 -3.333637667264e+02 0.0 
0.0 0.0 -1.402809502949e+02 
-8.619628572063e+01 9.164456064455e-01 0.0 
9.164456064455e-01 -2.269250675011e+02 0.0 
0.0 0.0 -9.353640596651e+01 
-1.030494937987e+02 1.870854654727e+01 0.0 
1.870854654727e+01 -2.431029669306e+02 0.0 
0.0 0.0 -1.034457382188e+02 
-8.326919469928e+01 4.100484989360e+00 0.0 
4.100484989360e+00 -1.671865775313e+02 0.0 
0.0 0.0 -7.473673166917e+01 
-1.273916693109e+02 5.735120207026e+00 0.0 
5.735120207026e+00 -3.181134131600e+02 0.0 
0.0 0.0 -1.332515247413e+02 
-1.224856829398e+02 7.580788132478e+00 0.0 
7.580788132478e+00 -3.096766647525e+02 0.0 
0.0 0.0 -1.292487043077e+02 
-4.610100900984e+01 5.321442565710e-02 0.0 
5.321442565710e-02 -8.642996279136e+01 0.0 
0.0 0.0 -3.935929154036e+01 
-4.600926154534e+01 -1.380392802057e-01 0.0 
-1.380392802057e-01 -8.640095580200e+01 0.0 
0.0 0.0 -3.932306520420e+01 
-9.312532575807e+01 1.405463781086e+01 0.0 
1.405463781086e+01 -1.835951282768e+02 0.0 
0.0 0.0 -8.261613621045e+01 
-9.508342296054e+01 1.840028858941e+01 0.0 
1.840028858941e+01 -2.240358502508e+02 0.0 
0.0 0.0 -9.533578196341e+01 
-9.564166195220e+01 2.772403892689e+00 0.0 
2.772403892689e+00 -2.516277420778e+02 0.0 
0.0 0.0 -1.037808212090e+02 
-9.274898757773e+01 1.849650005786e+01 0.0 
1.849650005786e+01 -1.940484403135e+02 0.0 
0.0 0.0 -8.563922836738e+01 
-7.746215760196e+01 1.579619049473e+01 0.0 
1.579619049473e+01 -2.037096420996e+02 0.0 
0.0 0.0 -8.395153991046e+01 
-1.285197835161e+02 1.295619834480e+01 0.0 
1.295619834480e+01 -3.211277646675e+02 0.0 
0.0 0.0 -1.344942644551e+02 
-6.135649197173e+01 1.258763878520e+01 0.0 
1.258763878520e+01 -1.754027776707e+02 0.0 
0.0 0.0 -7.062778089274e+01 
-1.203502934984e+02 1.063536280648e+01 0.0 
1.063536280648e+01 -2.757811007179e+02 0.0 
0.0 0.0 -1.184394182649e+02 
-6.665407170383e+01 5.067439985138e+00 0.0 
5.067439985138e+00 -1.185600728761e+02 0.0 
0.0 0.0 -5.516424337398e+01 
-7.370250937857e+01 1.761107728424e+01 0.0 
1.761107728424e+01 -1.910337573376e+02 0.0 
0.0 0.0 -7.902088001486e+01 
-8.987039917030e+01 1.580482254426e+00 0.0 
1.580482254426e+00 -2.419127180846e+02 0.0 
0.0 0.0 -9.913493517646e+01 
-3.715115001637e+01 6.092461354305e+00 0.0 
6.092461354305e+00 -1.116264862748e+02 0.0 
0.0 0.0 -4.423329088737e+01 
-7.903804651450e+01 2.029561865355e+00 0.0 
2.029561865355e+00 -2.149865360175e+02 0.0 
0.0 0.0 -8.780737475959e+01 
-8.711427081106e+01 1.827274876064e+01 0.0 
1.827274876064e+01 -2.051037871764e+02 0.0 
0.0 0.0 -8.726541739625e+01 
-8.022227003712e+01 1.797020646080e+01 0.0 
1.797020646080e+01 -1.765979699116e+02 0.0 
0.0 0.0 -7.664607198460e+01 
-8.447868399105e+01 5.559786993768e+00 0.0 
5.559786993768e+00 -1.673316099481e+02 0.0 
0.0 0.0 -7.514308818174e+01 
-9.582910892434e+01 1.703384512802e+01 0.0 
1.703384512802e+01 -2.071665029653e+02 0.0 
0.0 0.0 -9.049868356688e+01 
-1.001786310514e+02 1.888403695595e+01 0.0 
1.888403695595e+01 -2.141112096766e+02 0.0 
0.0 0.0 -9.388695221840e+01 
-2.255533266207e+01 -1.631267956913e-01 0.0 
-1.631267956913e-01 -5.931621834138e+01 0.0 
0.0 0.0 -2.416146530103e+01 
-7.365801958193e+01 9.892447743626e-02 0.0 
9.892447743626e-02 -2.038428880836e+02 0.0 
0.0 0.0 -8.285027229966e+01 
-5.578804135221e+01 2.059626501465e+01 0.0 
2.059626501465e+01 -1.182548337740e+02 0.0 
0.0 0.0 -5.181286253787e+01 
-8.837912981276e+01 1.451326354447e+01 0.0 
1.451326354447e+01 -1.795761846655e+02 0.0 
0.0 0.0 -7.998659434348e+01 
-9.320257113928e+01 1.646019878161e+01 0.0 
1.646019878161e+01 -1.880274202244e+02 0.0 
0.0 0.0 -8.396899740910e+01 
-1.225708016170e+02 1.523956349382e+01 0.0 
1.523956349382e+01 -3.071003758801e+02 0.0 
0.0 0.0 -1.285013532491e+02 
-3.289932929592e+01 -8.326098835840e-01 0.0 
-8.326098835840e-01 -8.935987219233e+01 0.0 
0.0 0.0 -3.627776044648e+01 
-3.136472351368e+01 5.330225040908e-01 0.0 
5.330225040908e-01 -8.832214936672e+01 0.0 
0.0 0.0 -3.550606186412e+01 
-7.468327509178e+01 1.801121006069e+01 0.0 
1.801121006069e+01 -1.818704230399e+02 0.0 
0.0 0.0 -7.656610943951e+01 
-7.525916235149e+01 1.322270704399e+00 0.0 
1.322270704399e+00 -2.047857858981e+02 0.0 
0.0 0.0 -8.361348447487e+01 
-4.772410896291e+01 5.634150087137e+00 0.0 
5.634150087137e+00 -7.193951452320e+01 0.0 
0.0 0.0 -3.549908704583e+01 
-5.165301142455e+01 4.957669046291e+00 0.0 
4.957669046291e+00 -8.157914746325e+01 0.0 
0.0 0.0 -3.956964766634e+01 
-8.697003601075e+01 7.849264915349e+00 0.0 
7.849264915349e+00 -1.687764586270e+02 0.0 
0.0 0.0 -7.632394839134e+01 
-2.689666043769e+01 7.994012584992e+00 0.0 
7.994012584992e+00 -7.253096250665e+01 0.0 
0.0 0.0 -2.942828688330e+01 
-8.590714730969e+01 8.244362133377e-01 0.0 
8.244362133377e-01 -2.318133858863e+02 0.0 
0.0 0.0 -9.491615995879e+01 
-1.108348521895e+02 1.198554666424e+01 0.0 
1.198554666424e+01 -2.864707783962e+02 0.0 
0.0 0.0 -1.187916891757e+02 
-2.921473923532e+01 8.572967820457e-01 0.0 
8.572967820457e-01 -8.752092772841e+01 0.0 
0.0 0.0 -3.462070008912e+01 
-1.309749434942e+02 2.205919417991e+01 0.0 
2.205919417991e+01 -3.069969652343e+02 0.0 
0.0 0.0 -1.309915726185e+02 
-1.027391983857e+02 8.043920961787e+00 0.0 
8.043920961787e+00 -2.189846718812e+02 0.0 
0.0 0.0 -9.611716108009e+01 
-8.326551471724e+01 1.489871931010e+00 0.0 
1.489871931010e+00 -2.223138346895e+02 0.0 
0.0 0.0 -9.127380482203e+01 
-1.215351954071e+02 3.421402853595e+00 0.0 
3.421402853595e+00 -3.075025429132e+02 0.0 
0.0 0.0 -1.283113214961e+02 
-1.566594926795e+01 -9.507218955849e-01 0.0 
-9.507218955849e-01 -4.238031072114e+01 0.0 
0.0 0.0 -1.701387799673e+01 
-1.065349885681e+02 1.047287449862e+01 0.0 
1.047287449862e+01 -2.785216997150e+02 0.0 
0.0 0.0 -1.151170064849e+02 
-7.860682725943e+01 1.991886343490e+01 0.0 
1.991886343490e+01 -1.864319195214e+02 0.0 
0.0 0.0 -7.911162403425e+01 
-1.586194744672e+01 -7.592540392418e-01 0.0 
-7.592540392418e-01 -4.230848218068e+01 0.0 
0.0 0.0 -1.705112888822e+01 
-1.007032799066e+02 6.222480538522e+00 0.0 
6.222480538522e+00 -2.178835524204e+02 0.0 
0.0 0.0 -9.517604969812e+01 
-2.877735097927e+01 1.338872088807e+00 0.0 
1.338872088807e+00 -7.910616947940e+01 0.0 
0.0 0.0 -3.196505613760e+01 
-8.926991416720e+01 1.728715983384e+01 0.0 
1.728715983384e+01 -1.805606278498e+02 0.0 
0.0 0.0 -8.054916260509e+01 
-7.965526258428e+01 2.012467448615e+01 0.0 
2.012467448615e+01 -1.767724618051e+02 0.0 
0.0 0.0 -7.652831731681e+01 
-7.255483736748e+01 6.229851810421e+00 0.0 
6.229851810421e+00 -2.054832196510e+02 0.0 
0.0 0.0 -8.301141710556e+01 
-9.251616384665e+01 5.213383442086e+00 0.0 
5.213383442086e+00 -2.521797583145e+02 0.0 
0.0 0.0 -1.030087766483e+02 
-1.043911775209e+02 7.497984230240e+00 0.0 
7.497984230240e+00 -2.278403149985e+02 0.0 
0.0 0.0 -9.926944775582e+01 
-1.014781418671e+02 6.154432678533e+00 0.0 
6.154432678533e+00 -2.709145072186e+02 0.0 
0.0 0.0 -1.113177947257e+02 
-7.819279453353e+01 1.746783094155e+01 0.0 
1.746783094155e+01 -1.955884533024e+02 0.0 
0.0 0.0 -8.173437435078e+01 
-7.415076651931e+01 1.937481986800e+01 0.0 
1.937481986800e+01 -1.819322482260e+02 0.0 
0.0 0.0 -7.642490442358e+01 
-2.179630233803e+01 1.362561789021e+01 0.0 
1.362561789021e+01 -1.596409721998e+01 0.0 
0.0 0.0 -1.092811986740e+01 
-2.519630101418e+01 3.047084072651e-01 0.0 
3.047084072651e-01 -6.977249971885e+01 0.0 
0.0 0.0 -2.809064021991e+01 
-1.116893691102e+02 2.093278440391e+01 0.0 
2.093278440391e+01 -2.627287880925e+02 0.0 
0.0 0.0 -1.119254471608e+02 
-8.046127876302e+01 8.721808691308e+00 0.0 
8.721808691308e+00 -1.493648202181e+02 0.0 
0.0 0.0 -6.854782969435e+01 
-1.150463213790e+02 1.950783897075e+01 0.0 
1.950783897075e+01 -2.753620960749e+02 0.0 
0.0 0.0 -1.167225252362e+02 
-3.688211550090e+01 1.215278183483e+01 0.0 
1.215278183483e+01 -1.106585812024e+02 0.0 
0.0 0.0 -4.386220901099e+01 
-1.011356150978e+02 1.192430188033e+01 0.0 
1.192430188033e+01 -2.118222106605e+02 0.0 
0.0 0.0 -9.348734772750e+01 
-1.157860193505e+02 2.147338722042e+01 0.0 
2.147338722042e+01 -2.687799282585e+02 0.0 
0.0 0.0 -1.149697842827e+02 
-5.440893809523e+01 3.778050908352e+00 0.0 
3.778050908352e+00 -8.927713608748e+01 0.0 
0.0 0.0 -4.270582225481e+01 
-1.109766057529e+02 1.923879113601e+01 0.0 
1.923879113601e+01 -2.620046483179e+02 0.0 
0.0 0.0 -1.114943762212e+02 
-1.225651193477e+02 4.750243060042e+00 0.0 
4.750243060042e+00 -3.082397476589e+02 0.0 
0.0 0.0 -1.288414601020e+02 
-9.069134722746e+01 1.808323402368e+01 0.0 
1.808323402368e+01 -2.188476380916e+02 0.0 
0.0 0.0 -9.246169559570e+01 
-8.160549814086e+01 8.335110355249e-01 0.0 
8.335110355249e-01 -2.229290392916e+02 0.0 
0.0 0.0 -9.096036122974e+01 
-8.710556321062e+01 2.864997628370e+00 0.0 
2.864997628370e+00 -2.339428413421e+02 0.0 
0.0 0.0 -9.591452136582e+01 
-1.120674697967e+02 1.314411601633e+01 0.0 
1.314411601633e+01 -2.417930699895e+02 0.0 
0.0 0.0 -1.057581619359e+02 
-8.401224413064e+01 4.263628203330e+00 0.0 
4.263628203330e+00 -2.335956614595e+02 0.0 
0.0 0.0 -9.488237167704e+01 
-8.365080238691e+01 1.825752528499e+01 0.0 
1.825752528499e+01 -1.910261488065e+02 0.0 
0.0 0.0 -8.200308535801e+01 
-7.728459835581e+01 1.364084798251e+01 0.0 
1.364084798251e+01 -2.108479635931e+02 0.0 
0.0 0.0 -8.603976858468e+01 
-1.109338122860e+02 7.112961898471e+00 0.0 
7.112961898471e+00 -2.897395776333e+02 0.0 
0.0 0.0 -1.198020169758e+02 
-6.964447117181e+01 1.626320296219e+01 0.0 
1.626320296219e+01 -1.861802330514e+02 0.0 
0.0 0.0 -7.634741126698e+01 
-4.196472466551e+01 4.322931535506e+00 0.0 
4.322931535506e+00 -1.314090495141e+02 0.0 
0.0 0.0 -5.161213225388e+01 
-8.244107364759e+01 8.095675953373e+00 0.0 
8.095675953373e+00 -2.306659329175e+02 0.0 
0.0 0.0 -9.353210196952e+01 
-4.450936143240e+01 6.232556602287e+00 0.0 
6.232556602287e+00 -1.387484077974e+02 0.0 
0.0 0.0 -5.457733076893e+01 
-9.213690518774e+01 1.593002185950e+01 0.0 
1.593002185950e+01 -1.932647316566e+02 0.0 
0.0 0.0 -8.522049105330e+01 
-4.647650968422e+01 6.113169410403e+00 0.0 
6.113169410403e+00 -1.395551979431e+02 0.0 
0.0 0.0 -5.540951228819e+01 
-8.859641364264e+01 1.921273213253e+01 0.0 
1.921273213253e+01 -1.877934318436e+02 0.0 
0.0 0.0 -8.251695364588e+01 
-1.188643465533e+02 1.700837892704e+01 0.0 
1.700837892704e+01 -2.970389166451e+02 0.0 
0.0 0.0 -1.243709789595e+02 
-1.130817070808e+02 1.432456908611e+01 0.0 
1.432456908611e+01 -2.892812956565e+02 0.0 
0.0 0.0 -1.203089008212e+02 
-6.526956037781e+01 1.417490010007e+01 0.0 
1.417490010007e+01 -1.808297135429e+02 0.0 
0.0 0.0 -7.342978217622e+01 
-8.126802232897e+01 5.685328724138e+00 0.0 
5.685328724138e+00 -1.575325581268e+02 0.0 
0.0 0.0 -7.124017413672e+01 
-1.263453699694e+02 3.057915808072e+00 0.0 
3.057915808072e+00 -3.162934671014e+02 0.0 
0.0 0.0 -1.323916511212e+02 
-1.271793379742e+02 4.402544781262e+00 0.0 
4.402544781262e+00 -3.169558708855e+02 0.0 
0.0 0.0 -1.328405626579e+02 
-2.339757461559e+01 7.477138662338e+00 0.0 
7.477138662338e+00 -5.600300565391e+01 0.0 
0.0 0.0 -2.342017408085e+01 
-9.195287072745e+01 1.755770920264e+01 0.0 
1.755770920264e+01 -2.012740406941e+02 0.0 
0.0 0.0 -8.756807342646e+01 
-1.415482621180e+02 2.849682621056e+00 0.0 
2.849682621056e+00 -3.448706298579e+02 0.0 
0.0 0.0 -1.455256675928e+02 
-3.665867957317e+01 1.630976767143e+01 0.0 
1.630976767143e+01 -6.182040680063e+01 0.0 
0.0 0.0 -2.914372591214e+01 
-9.138987331854e+01 2.090015382388e+00 0.0 
2.090015382388e+00 -2.412965881081e+02 0.0 
0.0 0.0 -9.940593842799e+01 
-1.996296585055e+01 1.245268653014e+01 0.0 
1.245268653014e+01 -1.659848012397e+01 0.0 
0.0 0.0 -1.056843379236e+01 
-1.310986261575e+02 2.657054764337e+00 0.0 
2.657054764337e+00 -3.249793638271e+02 0.0 
0.0 0.0 -1.364233969954e+02 
-3.847215416013e+01 5.358350580085e+00 0.0 
5.358350580085e+00 -1.212919782186e+02 0.0 
0.0 0.0 -4.752923971361e+01 
-8.885389829750e+01 -3.651914179978e-01 0.0 
-3.651914179978e-01 -2.331284195886e+02 0.0 
0.0 0.0 -9.619469536582e+01 
-9.858232760745e+01 1.588353559913e+01 0.0 
1.588353559913e+01 -2.530215243860e+02 0.0 
0.0 0.0 -1.050811555980e+02 
-8.394010325928e+01 8.140560350358e+00 0.0 
8.140560350358e+00 -1.591248174418e+02 0.0 
0.0 0.0 -7.251947621031e+01 
-7.839609209126e+01 6.065481358831e+00 0.0 
6.065481358831e+00 -1.479918387341e+02 0.0 
0.0 0.0 -6.751637924760e+01 
-8.266659498389e+01 1.800626796541e+01 0.0 
1.800626796541e+01 -2.002923984481e+02 0.0 
0.0 0.0 -8.448769802960e+01 
-3.993862243163e+01 7.109907551221e+00 0.0 
7.109907551221e+00 -5.307540143937e+01 0.0 
0.0 0.0 -2.750420716130e+01 
-4.380307618579e+01 6.109052173564e+00 0.0 
6.109052173564e+00 -6.249734568354e+01 0.0 
0.0 0.0 -3.149012656080e+01 
-1.316812172166e+02 3.970157137159e+00 0.0 
3.970157137159e+00 -3.255346381018e+02 0.0 
0.0 0.0 -1.367647565955e+02 
-9.831562431290e+01 7.629459801323e+00 0.0 
7.629459801323e+00 -2.618804167253e+02 0.0 
0.0 0.0 -1.076588123115e+02 
-8.043258003911e+01 7.285763131206e+00 0.0 
7.285763131206e+00 -2.235597925953e+02 0.0 
0.0 0.0 -9.079771179031e+01 
-1.048603522419e+02 9.358746348768e+00 0.0 
9.358746348768e+00 -2.776106567858e+02 0.0 
0.0 0.0 -1.143413027083e+02 
-7.424873119412e+01 7.192743944320e+00 0.0 
7.192743944320e+00 -2.126090403407e+02 0.0 
0.0 0.0 -8.565733146045e+01 
-4.282143603524e+01 7.109452981183e+00 0.0 
7.109452981183e+00 -1.289499266985e+02 0.0 
0.0 0.0 -5.113140882011e+01 
-3.598294581966e+01 2.758522762072e+00 0.0 
2.758522762072e+00 -4.999412352409e+01 0.0 
0.0 0.0 -2.539312080312e+01 
-7.224643104965e+01 7.212023244671e+00 0.0 
7.212023244671e+00 -1.293051525884e+02 0.0 
0.0 0.0 -6.006547509141e+01 
-4.621971578518e+01 -3.529425813334e-02 0.0 
-3.529425813334e-02 -8.662080307307e+01 0.0 
0.0 0.0 -3.945215565748e+01 
-1.143264265878e+02 1.552371468515e+01 0.0 
1.552371468515e+01 -2.900528108008e+02 0.0 
0.0 0.0 -1.209137712166e+02 
-6.583743876232e+01 1.468688088736e+01 0.0 
1.468688088736e+01 -1.811768855012e+02 0.0 
0.0 0.0 -7.370429727905e+01 
-1.317147230684e+02 1.822997130458e+01 0.0 
1.822997130458e+01 -3.211427245289e+02 0.0 
0.0 0.0 -1.354572342792e+02 
-1.302983433585e+02 2.621343899498e-01 0.0 
2.621343899498e-01 -3.221413290619e+02 0.0 
0.0 0.0 -1.353319017261e+02 
-7.957009864118e+01 9.466185871055e+00 0.0 
9.466185871055e+00 -2.210867244409e+02 0.0 
0.0 0.0 -8.979704692463e+01 
-1.474814175818e+02 5.356991265020e+00 0.0 
5.356991265020e+00 -3.551484055185e+02 0.0 
0.0 0.0 -1.503889469301e+02 
-5.027234186369e+01 5.310394882758e+00 0.0 
5.310394882758e+00 -1.499209651108e+02 0.0 
0.0 0.0 -5.965799209236e+01 
-1.260853109806e+02 1.841146081387e+01 0.0 
1.841146081387e+01 -3.087638070881e+02 0.0 
0.0 0.0 -1.300547354206e+02 
-8.228928902990e+01 1.945064258543e+01 0.0 
1.945064258543e+01 -2.004436661567e+02 0.0 
0.0 0.0 -8.441988655599e+01 
-9.441180514246e+01 1.775720497262e+01 0.0 
1.775720497262e+01 -2.322046135530e+02 0.0 
0.0 0.0 -9.758492560863e+01 
-1.260416818461e+02 1.256133598557e+01 0.0 
1.256133598557e+01 -3.158101269722e+02 0.0 
0.0 0.0 -1.321555426455e+02 
-6.018840211814e+01 2.848483354069e-01 0.0 
2.848483354069e-01 -1.683703729510e+02 0.0 
0.0 0.0 -6.816763252075e+01 
-8.790998648760e+01 1.801106869987e+01 0.0 
1.801106869987e+01 -1.959703142771e+02 0.0 
0.0 0.0 -8.476409022940e+01 
-7.599183846973e+01 7.807713472355e+00 0.0 
7.807713472355e+00 -2.134819666860e+02 0.0 
0.0 0.0 -8.644214154673e+01 
-8.415480964427e+01 1.976806394197e+01 0.0 
1.976806394197e+01 -1.819517502046e+02 0.0 
0.0 0.0 -7.943196795466e+01 
-4.054996099604e+01 1.387963239436e+01 0.0 
1.387963239436e+01 -1.151566135977e+02 0.0 
0.0 0.0 -4.631197237813e+01 
-9.828613412701e+01 1.737407201668e+01 0.0 
1.737407201668e+01 -2.453047475778e+02 0.0 
0.0 0.0 -1.026772645114e+02 
-7.067471882463e+01 5.605248532899e+00 0.0 
5.605248532899e+00 -2.045442725741e+02 0.0 
0.0 0.0 -8.216569741962e+01 
-9.428928051572e+01 1.493812628504e+00 0.0 
1.493812628504e+00 -2.507517875488e+02 0.0 
0.0 0.0 -1.031123204194e+02 
-8.443751763877e+01 1.737723255811e+01 0.0 
1.737723255811e+01 -1.816146920231e+02 0.0 
0.0 0.0 -7.941566289856e+01 
-1.889915910018e+01 7.138341801856e+00 0.0 
7.138341801856e+00 -2.441829382621e+01 0.0 
0.0 0.0 -1.259523587792e+01 
-8.571525922660e+01 1.415423776427e+01 0.0 
1.415423776427e+01 -2.289826380962e+02 0.0 
0.0 0.0 -9.400936919683e+01 
-2.130962545989e+01 1.162802110006e+01 0.0 
1.162802110006e+01 -3.234599992067e+01 0.0 
0.0 0.0 -1.569668761417e+01 
-2.415702702426e+01 -2.296728980841e+00 0.0 
-2.296728980841e+00 -6.350811408278e+01 0.0 
0.0 0.0 -2.589954233211e+01 
-9.013479782545e+01 7.962867199964e-01 0.0 
7.962867199964e-01 -2.404418367906e+02 0.0 
0.0 0.0 -9.877299038482e+01 
-1.076757063034e+02 2.050678197823e+01 0.0 
2.050678197823e+01 -2.413537279980e+02 0.0 
0.0 0.0 -1.043088302904e+02 
-8.253276813904e+01 7.693391212555e+00 0.0 
7.693391212555e+00 -1.584879254831e+02 0.0 
0.0 0.0 -7.190620808663e+01 
-3.296686054855e+01 1.022033423500e+01 0.0 
1.022033423500e+01 -3.557135906253e+01 0.0 
0.0 0.0 -2.016146588332e+01 
-1.175003154518e+02 1.070868520539e+01 0.0 
1.070868520539e+01 -2.755007360542e+02 0.0 
0.0 0.0 -1.175003154518e+02 
-1.965176080577e+01 1.151682505896e+01 0.0 
1.151682505896e+01 -1.248064047908e+01 0.0 
0.0 0.0 -9.347298401875e+00 
-3.596979478816e+01 8.202947305519e+00 0.0 
8.202947305519e+00 -4.386019665632e+01 0.0 
0.0 0.0 -2.354899743335e+01 
-8.312520484659e+01 6.019508362283e+00 0.0 
6.019508362283e+00 -2.324446690131e+02 0.0 
0.0 0.0 -9.427096215789e+01 
-8.722426971860e+01 1.550010654371e+00 0.0 
1.550010654371e+00 -2.309466437511e+02 0.0 
0.0 0.0 -9.505127404091e+01 
-5.440347329415e+01 1.241228808135e+01 0.0 
1.241228808135e+01 -8.502046661086e+01 0.0 
0.0 0.0 -4.142718197150e+01 
-5.317540651063e+01 2.239306152472e+00 0.0 
2.239306152472e+00 -1.603086890984e+02 0.0 
0.0 0.0 -6.364522868272e+01 
-8.957155317618e+01 6.538812764101e+00 0.0 
6.538812764101e+00 -2.432179419366e+02 0.0 
0.0 0.0 -9.943684853383e+01 
-8.677647622449e+01 1.996822818571e+01 0.0 
1.996822818571e+01 -2.053242903977e+02 0.0 
0.0 0.0 -8.723022998667e+01 
-9.444839985228e+01 1.478288221416e+01 0.0 
1.478288221416e+01 -2.473704030647e+02 0.0 
0.0 0.0 -1.021456408751e+02 
-1.090729701191e+02 1.677612747752e+01 0.0 
1.677612747752e+01 -2.402937226894e+02 0.0 
0.0 0.0 -1.044100078425e+02 
-2.396952301339e+01 6.942078418530e+00 0.0 
6.942078418530e+00 -6.666222517051e+01 0.0 
0.0 0.0 -2.678952445517e+01 
-8.193391034868e+01 1.881087371000e-01 0.0 
1.881087371000e-01 -2.214613702363e+02 0.0 
0.0 0.0 -9.061858417549e+01 
-9.020807282952e+01 2.082124259942e-01 0.0 
2.082124259942e-01 -2.388292277099e+02 0.0 
0.0 0.0 -9.831119016183e+01 
-4.627628177078e+01 -1.161758540697e+00 0.0 
-1.161758540697e+00 -1.275487580608e+02 0.0 
0.0 0.0 -5.174751194948e+01 
-5.804863635574e+01 3.319608250971e+00 0.0 
3.319608250971e+00 -9.865878987219e+01 0.0 
0.0 0.0 -4.661222786838e+01 
-8.482240731469e+01 1.041323843553e+01 0.0 
1.041323843553e+01 -1.600058863168e+02 0.0 
0.0 0.0 -7.304848808945e+01 
-1.168045951117e+02 1.101354719743e+00 0.0 
1.101354719743e+00 -2.942576398946e+02 0.0 
0.0 0.0 -1.229186705019e+02 
-1.689078197766e+01 -8.476425608466e-01 0.0 
-8.476425608466e-01 -4.261855427071e+01 0.0 
0.0 0.0 -1.745280087451e+01 
-1.904814557261e+01 -5.870907558940e-03 0.0 
-5.870907558940e-03 -2.559477694648e+01 0.0 
0.0 0.0 -1.299287675573e+01 
-3.333567509945e+01 -1.810687437405e+00 0.0 
-1.810687437405e+00 -8.895480130433e+01 0.0 
0.0 0.0 -3.628714292113e+01 
-9.118060388729e+01 1.561302543092e+00 0.0 
1.561302543092e+00 -2.395574710133e+02 0.0 
0.0 0.0 -9.882142247016e+01 
-5.693510645756e+01 6.366692933486e+00 0.0 
6.366692933486e+00 -1.675600264250e+02 0.0 
0.0 0.0 -6.694853986477e+01 
-5.147398037608e+01 3.023100310437e+00 0.0 
3.023100310437e+00 -1.519187725812e+02 0.0 
0.0 0.0 -6.061782588720e+01 
-4.406759354843e+01 4.203677980140e+00 0.0 
4.203677980140e+00 -1.322751283918e+02 0.0 
0.0 0.0 -5.250281658207e+01 
-9.437683066046e+01 7.395171393128e-01 0.0 
7.395171393128e-01 -2.490938479072e+02 0.0 
0.0 0.0 -1.026412035703e+02 
-9.098049917452e+01 1.122019272268e+01 0.0 
1.122019272268e+01 -1.819003750363e+02 0.0 
0.0 0.0 -8.146426226324e+01 
-9.432535818060e+01 1.552004663839e-01 0.0 
1.552004663839e-01 -2.474450604533e+02 0.0 
0.0 0.0 -1.021311255902e+02 
-5.503715043063e+01 6.168112256072e+00 0.0 
6.168112256072e+00 -1.667105003166e+02 0.0 
0.0 0.0 -6.612429522416e+01 
-9.206029447125e+01 1.987810322072e+01 0.0 
1.987810322072e+01 -2.017518718403e+02 0.0 
0.0 0.0 -8.774364989346e+01 
-6.264986239950e+01 1.148682555537e+00 0.0 
1.148682555537e+00 -1.174756578454e+02 0.0 
0.0 0.0 -5.363765607347e+01 
-1.078487717526e+02 1.653156413227e+01 0.0 
1.653156413227e+01 -2.720033574026e+02 0.0 
0.0 0.0 -1.135556387465e+02 
-9.513459778496e+01 1.532307207896e+00 0.0 
1.532307207896e+00 -2.481171933108e+02 0.0 
0.0 0.0 -1.025755373287e+02 
-9.546135878469e+01 2.058592724388e+00 0.0 
2.058592724388e+00 -2.498831350031e+02 0.0 
0.0 0.0 -1.032033481363e+02 
-2.718040453193e+01 1.466646348632e+01 0.0 
1.466646348632e+01 -2.095593919991e+01 0.0 
0.0 0.0 -1.404090311955e+01 
-6.097291187381e+01 5.701400815446e+00 0.0 
5.701400815446e+00 -1.776728498386e+02 0.0 
0.0 0.0 -7.119372851372e+01 
-9.843231456726e+01 6.431250979695e-02 0.0 
6.431250979695e-02 -2.559472623968e+02 0.0 
0.0 0.0 -1.059138730892e+02 
-7.493507433883e+01 -4.877806094211e-01 0.0 
-4.877806094211e-01 -1.577167301406e+02 0.0 
0.0 0.0 -6.939554134382e+01 
-6.771674910899e+01 -5.933322880749e-01 0.0 
-5.933322880749e-01 -1.394607406244e+02 0.0 
0.0 0.0 -6.175324692000e+01 
-2.984283722440e+01 1.226858760389e+01 0.0 
1.226858760389e+01 -2.760911920155e+01 0.0 
0.0 0.0 -1.683558692779e+01 
-9.863275885651e+01 6.393240331495e-01 0.0 
6.393240331495e-01 -2.577414677466e+02 0.0 
0.0 0.0 -1.065122679809e+02 
-5.244253187965e+01 1.302269531016e+00 0.0 
1.302269531016e+00 -1.523126134907e+02 0.0 
0.0 0.0 -6.102654361111e+01 
-2.303723241247e+01 1.278961220075e+01 0.0 
1.278961220075e+01 -4.830565628658e+01 0.0 
0.0 0.0 -2.100286660972e+01 
-1.278561581937e+02 1.979124060619e+01 0.0 
1.979124060619e+01 -3.099519779092e+02 0.0 
0.0 0.0 -1.309424408309e+02 
-2.986234764392e+01 -3.049335144540e+00 0.0 
-3.049335144540e+00 -8.044985674268e+01 0.0 
0.0 0.0 -3.269366131598e+01 
-5.411403704810e+01 5.569039339501e-01 0.0 
5.569039339501e-01 -1.602765865185e+02 0.0 
0.0 0.0 -6.391718706997e+01 
-8.205823175318e+01 1.584884655667e+01 0.0 
1.584884655667e+01 -2.168557099940e+02 0.0 
0.0 0.0 -8.927418252417e+01 
-2.662874380048e+01 3.910206403386e+00 0.0 
3.910206403386e+00 -3.020088074293e+01 0.0 
0.0 0.0 -1.664888736303e+01 
-9.913470715097e+01 1.455212794950e+00 0.0 
1.455212794950e+00 -2.567367939198e+02 0.0 
0.0 0.0 -1.063614503212e+02 
-4.444253913928e+01 6.231876530764e-01 0.0 
6.231876530764e-01 -1.199084238769e+02 0.0 
0.0 0.0 -4.890528890485e+01 
-6.344174774233e+01 5.635699036466e+00 0.0 
5.635699036466e+00 -1.072323051002e+02 0.0 
0.0 0.0 -5.080221585277e+01 
-9.953056654837e+01 1.979208700437e+00 0.0 
1.979208700437e+00 -2.584560938309e+02 0.0 
0.0 0.0 -1.069959981138e+02 
-7.691210712795e+01 5.791886941728e+00 0.0 
5.791886941728e+00 -2.152735826721e+02 0.0 
0.0 0.0 -8.725570694003e+01 
-8.732908678452e+01 2.093127031252e+00 0.0 
2.093127031252e+00 -2.327084404282e+02 0.0 
0.0 0.0 -9.561125816382e+01 
-2.001322426326e+01 4.465823263924e+00 0.0 
4.465823263924e+00 -3.050958899521e+01 0.0 
0.0 0.0 -1.475684397754e+01 
-9.673798467889e+01 1.256924320566e+00 0.0 
1.256924320566e+00 -2.158946993748e+02 0.0 
0.0 0.0 -9.338980521611e+01 
-6.203529048184e+01 3.659081954194e+00 0.0 
3.659081954194e+00 -1.791421168421e+02 0.0 
0.0 0.0 -7.195322219718e+01 
-1.234330557478e+02 1.348304569982e+01 0.0 
1.348304569982e+01 -3.118539870801e+02 0.0 
0.0 0.0 -1.301861128484e+02 
-9.463585538948e+01 1.925494153870e+01 0.0 
1.925494153870e+01 -2.326968095300e+02 0.0 
0.0 0.0 -9.779979947585e+01 
-1.028722642119e+02 4.903723939439e-01 0.0 
4.903723939439e-01 -2.663151167766e+02 0.0 
0.0 0.0 -1.103562142965e+02 
-1.035881218510e+02 1.813505893270e+00 0.0 
1.813505893270e+00 -2.669437256624e+02 0.0 
0.0 0.0 -1.107595542540e+02 
-5.210410411718e+01 4.423589263667e+00 0.0 
4.423589263667e+00 -1.590502339998e+02 0.0 
0.0 0.0 -6.294630143508e+01 
-2.356775225638e+01 -2.746349571834e+00 0.0 
-2.746349571834e+00 -5.457356614574e+01 0.0 
0.0 0.0 -2.304239552064e+01 
-1.761403796196e+01 6.105307951340e+00 0.0 
6.105307951340e+00 -2.996615375111e+01 0.0 
0.0 0.0 -1.387405751392e+01 
-1.071534554547e+02 2.966903281857e-01 0.0 
2.966903281857e-01 -2.748815675084e+02 0.0 
0.0 0.0 -1.142105068889e+02 
-1.244195869108e+02 1.156283672089e+01 0.0 
1.156283672089e+01 -3.151666577041e+02 0.0 
0.0 0.0 -1.314758733845e+02 
-5.318109237088e+01 1.710607574988e-01 0.0 
1.710607574988e-01 -1.516616043780e+02 0.0 
0.0 0.0 -6.105280902466e+01 
-9.555548222718e+01 1.815096208601e+01 0.0 
1.815096208601e+01 -2.153565625485e+02 0.0 
0.0 0.0 -9.287361343271e+01 
-3.269054788532e+01 1.683812577968e+01 0.0 
1.683812577968e+01 -5.888603459202e+01 0.0 
0.0 0.0 -2.707297474320e+01 
-9.629973863376e+01 1.945420919139e+01 0.0 
1.945420919139e+01 -2.078510769150e+02 0.0 
0.0 0.0 -9.084524466464e+01 
-1.470929885090e+02 1.014658159698e+01 0.0 
1.014658159698e+01 -3.573094532813e+02 0.0 
0.0 0.0 -1.509207325371e+02 
-2.149381850109e+01 -3.420449995690e-01 0.0 
-3.420449995690e-01 -6.865003077167e+00 0.0 
0.0 0.0 -8.107646473477e+00 
-1.148230987960e+02 1.135652084124e+00 0.0 
1.135652084124e+00 -2.692538971907e+02 0.0 
0.0 0.0 -1.148230987960e+02 
-1.635563463670e+02 1.285876674440e+00 0.0 
1.285876674440e+00 -3.829648081896e+02 0.0 
0.0 0.0 -1.635563463670e+02 
-5.478501494252e+01 7.770119590594e-01 0.0 
7.770119590594e-01 -1.077162481039e+02 0.0 
0.0 0.0 -4.835037891394e+01 
-6.294332990261e+01 2.122985056149e+00 0.0 
2.122985056149e+00 -1.794056729683e+02 0.0 
0.0 0.0 -7.230470086127e+01 
-9.057905562665e+01 1.962790689994e+01 0.0 
1.962790689994e+01 -2.191658451725e+02 0.0 
0.0 0.0 -9.252347023974e+01 
-5.294349962225e+01 7.167916156448e+00 0.0 
7.167916156448e+00 -1.570846689895e+02 0.0 
0.0 0.0 -6.260845058351e+01 
-2.172301245052e+01 -1.068534172308e+00 0.0 
-1.068534172308e+00 -5.519845517903e+01 0.0 
0.0 0.0 -2.267644028886e+01 
-1.838955710082e+01 1.053555935540e+01 0.0 
1.053555935540e+01 -1.452863167950e+01 0.0 
0.0 0.0 -9.475456634096e+00 
-1.040900397698e+02 3.705432071959e+00 0.0 
3.705432071959e+00 -2.332859372245e+02 0.0 
0.0 0.0 -1.008127930983e+02 
-8.916302623792e+01 1.230556183630e+01 0.0 
1.230556183630e+01 -1.717154557779e+02 0.0 
0.0 0.0 -7.786354460474e+01 
-5.579894369269e+01 4.722892650247e+00 0.0 
4.722892650247e+00 -9.226720099945e+01 0.0 
0.0 0.0 -4.401984340764e+01 
-1.399874520426e+02 2.466178924700e+01 0.0 
2.466178924700e+01 -3.285041158431e+02 0.0 
0.0 0.0 -1.401474703657e+02 
-3.709584296821e+01 5.692950794916e-01 0.0 
5.692950794916e-01 -1.003134772486e+02 0.0 
0.0 0.0 -4.082279606505e+01 
-1.412582337563e+02 2.423255384275e+01 0.0 
2.423255384275e+01 -3.335814150422e+02 0.0 
0.0 0.0 -1.420518946396e+02 
-8.687441496433e+01 9.474852339306e+00 0.0 
9.474852339306e+00 -1.700559127331e+02 0.0 
0.0 0.0 -7.667909830922e+01 
-6.359837269940e+01 1.057131597403e+00 0.0 
1.057131597403e+00 -1.786370915693e+02 0.0 
0.0 0.0 -7.227063928060e+01 
-8.626954806801e+01 1.756882783483e+01 0.0 
1.756882783483e+01 -2.138114869202e+02 0.0 
0.0 0.0 -8.962431049647e+01 
-5.784089421550e+01 3.434718063613e-01 0.0 
3.434718063613e-01 -1.689222423318e+02 0.0 
0.0 0.0 -6.762894096419e+01 
-2.369030527137e+01 1.407288343449e+01 0.0 
1.407288343449e+01 -5.051173390798e+01 0.0 
0.0 0.0 -2.186061175380e+01 
-5.479153247603e+01 -6.205140074121e-01 0.0 
-6.205140074121e-01 -1.590900836390e+02 0.0 
0.0 0.0 -6.376448483450e+01 
-9.497410818063e+01 1.289691666189e+01 0.0 
1.289691666189e+01 -1.942974162824e+02 0.0 
0.0 0.0 -8.638145733891e+01 
-1.356212172443e+02 2.400385683750e+00 0.0 
2.400385683750e+00 -3.324032330236e+02 0.0 
0.0 0.0 -1.400073350804e+02 
-5.697052501890e+01 1.781831961770e+00 0.0 
1.781831961770e+00 -1.693195131515e+02 0.0 
0.0 0.0 -6.748701145113e+01 
-9.945595741571e+01 1.788328149399e+01 0.0 
1.788328149399e+01 -2.210256192449e+02 0.0 
0.0 0.0 -9.574447299818e+01 
-1.728524150292e+01 -5.388560601349e-01 0.0 
-5.388560601349e-01 -8.442460703622e+00 0.0 
0.0 0.0 -8.219566185205e+00 
-5.599853226046e+01 3.743647988332e+00 0.0 
3.743647988332e+00 -1.686780727688e+02 0.0 
0.0 0.0 -6.700298150877e+01 
-9.978679051333e+01 1.283219120557e+01 0.0 
1.283219120557e+01 -2.018611853859e+02 0.0 
0.0 0.0 -9.009439276976e+01 
-5.504247335024e+01 -1.361270750246e+00 0.0 
-1.361270750246e+00 -1.568675691377e+02 0.0 
0.0 0.0 -6.317301274638e+01 
-5.009283774239e+01 -5.793635328763e-01 0.0 
-5.793635328763e-01 -1.415475301488e+02 0.0 
0.0 0.0 -5.709211036735e+01 
-8.616100567816e+01 1.888407793942e+01 0.0 
1.888407793942e+01 -2.140744289191e+02 0.0 
0.0 0.0 -8.967063037918e+01 
-2.794088835938e+01 -2.211652073541e+00 0.0 
-2.211652073541e+00 -7.737999682868e+01 0.0 
0.0 0.0 -3.119626555642e+01 
-2.296313155410e+01 1.538726258787e+01 0.0 
1.538726258787e+01 -1.881924342481e+01 0.0 
0.0 0.0 -1.213471249367e+01 
-2.516681536740e+01 1.723033907002e+01 0.0 
1.723033907002e+01 -2.002457635252e+01 0.0 
0.0 0.0 -1.315741751598e+01 
-4.838493779150e+01 -1.944862312913e+00 0.0 
-1.944862312913e+00 -1.380555297702e+02 0.0 
0.0 0.0 -5.553214026852e+01 
-8.494102218493e+01 6.867291072368e+00 0.0 
6.867291072368e+00 -2.334377971005e+02 0.0 
0.0 0.0 -9.511364578562e+01 
-7.322244209613e+01 1.457206079712e+01 0.0 
1.457206079712e+01 -1.984949784008e+02 0.0 
0.0 0.0 -8.111522614909e+01 
-9.991527424076e+01 2.009121225220e+01 0.0 
2.009121225220e+01 -2.215817321338e+02 0.0 
0.0 0.0 -9.604910191236e+01 
-1.149620662943e+02 1.651609192699e+01 0.0 
1.651609192699e+01 -2.573450191872e+02 0.0 
0.0 0.0 -1.112921256444e+02 
-1.924176828003e+01 6.830524555540e+00 0.0 
6.830524555540e+00 -1.527602105147e+01 0.0 
0.0 0.0 -9.955336799450e+00 
-8.272679203731e+01 1.321841776318e+00 0.0 
1.321841776318e+00 -1.774747775682e+02 0.0 
0.0 0.0 -7.766047088164e+01 
-1.204330616904e+02 1.998615361873e+01 0.0 
1.998615361873e+01 -2.782023769248e+02 0.0 
0.0 0.0 -1.191906315845e+02 
-4.825303391289e+01 5.244811405129e+00 0.0 
5.244811405129e+00 -1.490509846424e+02 0.0 
0.0 0.0 -5.879120556659e+01 
-2.210013715926e+01 1.324976617801e+01 0.0 
1.324976617801e+01 -3.260051268731e+01 0.0 
0.0 0.0 -1.601019495397e+01 
-3.730885913473e+01 1.954003851943e+01 0.0 
1.954003851943e+01 -6.291710770892e+01 0.0 
0.0 0.0 -2.966779005309e+01 
-8.132315212253e+01 5.451809352379e+00 0.0 
5.451809352379e+00 -2.248595423008e+02 0.0 
0.0 0.0 -9.145480832700e+01 
-9.923362780794e+01 1.647169404289e+01 0.0 
1.647169404289e+01 -2.132722315989e+02 0.0 
0.0 0.0 -9.335175782205e+01 
-7.941605017188e+01 4.619402201857e+00 0.0 
4.619402201857e+00 -2.238703186763e+02 0.0 
0.0 0.0 -9.058591065445e+01 
-2.319868326103e+01 5.917618725020e+00 0.0 
5.917618725020e+00 -5.125365332216e+01 0.0 
0.0 0.0 -2.193570097496e+01 
-9.343552807987e+01 7.940275156418e+00 0.0 
7.940275156418e+00 -2.517532601693e+02 0.0 
0.0 0.0 -1.031566364748e+02 
-2.493125508505e+01 1.543073194050e+01 0.0 
1.543073194050e+01 -5.272501236700e+01 0.0 
0.0 0.0 -2.289688023562e+01 
-7.375597133807e+01 1.526842605624e+01 0.0 
1.526842605624e+01 -1.988637741661e+02 0.0 
0.0 0.0 -8.138592365125e+01 
-8.767900247458e+01 5.536116978440e+00 0.0 
5.536116978440e+00 -2.421946809696e+02 0.0 
0.0 0.0 -9.856210503327e+01 
-9.002392306474e+01 1.708778760067e+01 0.0 
1.708778760067e+01 -2.269441739181e+02 0.0 
0.0 0.0 -9.469042909486e+01 
-7.401873932681e+01 1.489914058170e+00 0.0 
1.489914058170e+00 -1.529382218782e+02 0.0 
0.0 0.0 -6.768708836151e+01 
-4.998189786083e+01 -9.897378489659e-01 0.0 
-9.897378489659e-01 -1.389206455122e+02 0.0 
0.0 0.0 -5.627076301191e+01 
-2.167533663560e+01 1.099057427122e+01 0.0 
1.099057427122e+01 -4.465082998818e+01 0.0 
0.0 0.0 -1.949784998713e+01 
-9.645538930538e+01 6.491732872356e+00 0.0 
6.491732872356e+00 -2.608477773011e+02 0.0 
0.0 0.0 -1.067909499820e+02 
-2.581987519245e+01 1.622869757732e+01 0.0 
1.622869757732e+01 -5.393407724213e+01 0.0 
0.0 0.0 -2.352618573038e+01 
-1.785787443189e+01 4.218415425599e-01 0.0 
4.218415425599e-01 -2.515120779090e+01 0.0 
0.0 0.0 -1.250272466684e+01 
-1.034595071228e+02 -2.442083359444e-01 0.0 
-2.442083359444e-01 -2.347460476566e+02 0.0 
0.0 0.0 -1.010616664338e+02 
-9.695453010143e+01 -4.150974937398e-01 0.0 
-4.150974937398e-01 -2.160819862307e+02 0.0 
0.0 0.0 -9.351095489965e+01 
-1.377378051021e+01 -1.485903633743e+00 0.0 
-1.485903633743e+00 -2.469860281854e+01 0.0 
0.0 0.0 -1.152376283220e+01 
-1.023805905636e+02 9.011332838680e+00 0.0 
9.011332838680e+00 -2.703013369828e+02 0.0 
0.0 0.0 -1.114045782639e+02 
-3.973172091842e+01 -1.643482069658e+00 0.0 
-1.643482069658e+00 -1.083333878085e+02 0.0 
0.0 0.0 -4.401953261808e+01 
-4.152912753289e+01 -2.643959658674e+00 0.0 
-2.643959658674e+00 -1.157203342573e+02 0.0 
0.0 0.0 -4.677483853704e+01 
-1.069395503261e+02 1.837966357432e+01 0.0 
1.837966357432e+01 -2.408445217159e+02 0.0 
0.0 0.0 -1.039352216126e+02 
-9.027238259145e+01 1.826399888669e+01 0.0 
1.826399888669e+01 -2.272782670835e+02 0.0 
0.0 0.0 -9.486519490248e+01 
-1.031998704859e+02 1.852475509251e+01 0.0 
1.852475509251e+01 -2.348927664704e+02 0.0 
0.0 0.0 -1.010277910869e+02 
-5.803551504861e+01 4.072093472859e+00 0.0 
4.072093472859e+00 -1.696235777535e+02 0.0 
0.0 0.0 -6.789772784064e+01 
-4.669195644377e+01 -3.883937185712e-02 0.0 
-3.883937185712e-02 -8.644798481403e+01 0.0 
0.0 0.0 -3.954198237734e+01 
-1.509593828124e+02 9.005869937194e+00 0.0 
9.005869937194e+00 -3.600867598061e+02 0.0 
0.0 0.0 -1.529138427855e+02 
-3.506539615200e+01 -2.839800401954e+00 0.0 
-2.839800401954e+00 -9.625241422579e+01 0.0 
0.0 0.0 -3.899534311334e+01 
-1.193717595313e+02 1.494765782322e+01 0.0 
1.494765782322e+01 -3.007824664381e+02 0.0 
0.0 0.0 -1.256462677908e+02 
-7.772754277932e+01 1.669892543944e+01 0.0 
1.669892543944e+01 -2.040337331978e+02 0.0 
0.0 0.0 -8.412838279313e+01 
-2.857769107228e+01 -1.274916514090e+00 0.0 
-1.274916514090e+00 -7.630690699450e+01 0.0 
0.0 0.0 -3.106537942003e+01 
-9.553148583884e+01 1.516702567374e+01 0.0 
1.516702567374e+01 -1.997172884651e+02 0.0 
0.0 0.0 -8.817463229118e+01 
-5.904137554226e+01 5.354411404620e+00 0.0 
5.354411404620e+00 -1.767710258195e+02 0.0 
0.0 0.0 -7.034372040854e+01 
-1.873563535559e+01 -2.289213170327e+00 0.0 
-2.289213170327e+00 -4.201059303104e+01 0.0 
0.0 0.0 -1.782386851599e+01 
-4.939060478223e+01 2.814068089654e+00 0.0 
2.814068089654e+00 -1.509913664187e+02 0.0 
0.0 0.0 -5.971459136028e+01 
-1.126345219170e+02 -6.922608566549e-01 0.0 
-6.922608566549e-01 -2.858507025549e+02 0.0 
0.0 0.0 -1.191455673416e+02 
-9.691699078756e+01 1.570428539601e+01 0.0 
1.570428539601e+01 -1.960518685749e+02 0.0 
0.0 0.0 -8.749065780874e+01 
-2.866351571886e+01 -2.133790346775e+00 0.0 
-2.133790346775e+00 -7.345175113351e+01 0.0 
0.0 0.0 -3.023458005571e+01 
-8.955263014798e+01 5.878270018989e-01 0.0 
5.878270018989e-01 -2.337162817256e+02 0.0 
0.0 0.0 -9.658067356209e+01 
-1.031667900786e+02 1.753209394191e+01 0.0 
1.753209394191e+01 -2.272083454450e+02 0.0 
0.0 0.0 -9.871254065707e+01 
-1.132636313309e+02 1.907694981349e+01 0.0 
1.907694981349e+01 -2.786953842261e+02 0.0 
0.0 0.0 -1.171877046671e+02 
-5.158870652394e+01 -1.360354628126e+00 0.0 
-1.360354628126e+00 -1.486879544979e+02 0.0 
0.0 0.0 -5.968299830656e+01 
-4.413735353588e+01 -1.026092664449e+00 0.0 
-1.026092664449e+00 -1.198298047815e+02 0.0 
0.0 0.0 -4.879014749522e+01 
-8.141269109842e+01 1.495595141910e+01 0.0 
1.495595141910e+01 -2.164050473337e+02 0.0 
0.0 0.0 -8.894532152963e+01 
-7.093018117119e+01 8.790098746518e-01 0.0 
8.790098746518e-01 -1.471725465343e+02 0.0 
0.0 0.0 -6.503081831165e+01 
-1.905515446431e+01 -2.213788876739e+00 0.0 
-2.213788876739e+00 -4.139086206492e+01 0.0 
0.0 0.0 -1.773380495877e+01 
-1.290700902328e+02 2.295526315903e+01 0.0 
2.295526315903e+01 -2.991152531605e+02 0.0 
0.0 0.0 -1.280556030180e+02 
-1.170257927481e+02 1.583839325940e+01 0.0 
1.583839325940e+01 -2.674854333427e+02 0.0 
0.0 0.0 -1.149533678272e+02 
-5.983741349252e+01 8.598238677462e-01 0.0 
8.598238677462e-01 -1.195957380988e+02 0.0 
0.0 0.0 -5.342994547740e+01 
-1.127314374551e+02 8.853354352735e+00 0.0 
8.853354352735e+00 -2.509509795745e+02 0.0 
0.0 0.0 -1.087047251089e+02 
-1.204584409159e+02 1.798437877310e+01 0.0 
1.798437877310e+01 -2.763678761191e+02 0.0 
0.0 0.0 -1.186478951105e+02 
-5.998880737947e+01 3.170319562909e+00 0.0 
3.170319562909e+00 -1.781520906927e+02 0.0 
0.0 0.0 -7.104226942166e+01 
-5.903100704445e+01 2.313502873421e+00 0.0 
2.313502873421e+00 -1.703278436727e+02 0.0 
0.0 0.0 -6.840765521515e+01 
-1.406069202320e+02 1.805242882624e+01 0.0 
1.805242882624e+01 -3.414004632185e+02 0.0 
0.0 0.0 -1.442022150352e+02 
-1.691321117937e+01 5.053524820773e-01 0.0 
5.053524820773e-01 -8.674328885734e+00 0.0 
0.0 0.0 -8.226874202318e+00 
-4.033624197499e+01 -8.292642738687e-01 0.0 
-8.292642738687e-01 -1.092759858989e+02 0.0 
0.0 0.0 -4.448366836216e+01 
-9.089024941703e+01 -7.244079155584e-01 0.0 
-7.244079155584e-01 -2.381312857277e+02 0.0 
0.0 0.0 -9.830646054343e+01 
-5.337077375526e+01 -4.965428003985e-01 0.0 
-4.965428003985e-01 -1.496623181070e+02 0.0 
0.0 0.0 -6.050992755866e+01 
-5.036172749585e+01 8.717288195251e-01 0.0 
8.717288195251e-01 -1.513479773107e+02 0.0 
0.0 0.0 -6.011291144196e+01 
-2.207056768514e+01 1.512792615949e+01 0.0 
1.512792615949e+01 -1.802281033765e+01 0.0 
0.0 0.0 -1.162801340684e+01 
-2.457573745967e+01 1.732110665162e+01 0.0 
1.732110665162e+01 -2.088153416511e+01 0.0 
0.0 0.0 -1.323718148743e+01 
-6.377090721395e+01 2.231593022397e+00 0.0 
2.231593022397e+00 -1.204614870376e+02 0.0 
0.0 0.0 -5.486971827547e+01 
-5.413364886638e+01 4.630428669373e+00 0.0 
4.630428669373e+00 -1.599578622287e+02 0.0 
0.0 0.0 -6.382745332854e+01 
-4.671823955547e+01 -1.364395439525e+00 0.0 
-1.364395439525e+00 -1.275536848189e+02 0.0 
0.0 0.0 -5.188157731230e+01 
-1.068254224703e+02 1.791788268325e+01 0.0 
1.791788268325e+01 -2.638971095193e+02 0.0 
0.0 0.0 -1.108167595969e+02 
-1.594237022177e+02 7.381415196515e+00 0.0 
7.381415196515e+00 -3.784677576206e+02 0.0 
0.0 0.0 -1.609674379515e+02 
-1.580147272466e+02 8.801212260039e+00 0.0 
8.801212260039e+00 -3.762028322357e+02 0.0 
0.0 0.0 -1.598652678447e+02 
-6.091869868334e+01 1.449339715369e+00 0.0 
1.449339715369e+00 -1.783741792557e+02 0.0 
0.0 0.0 -7.138786338171e+01 
-5.773674641780e+01 1.031423694143e+00 0.0 
1.031423694143e+00 -1.041320308469e+02 0.0 
0.0 0.0 -4.816063317942e+01 
-2.106160966287e+01 -8.699438411723e-02 0.0 
-8.699438411723e-02 -2.066108184924e+01 0.0 
0.0 0.0 -1.211680745363e+01 
-2.300598798593e+01 1.550296665643e+01 0.0 
1.550296665643e+01 -1.925162785561e+01 0.0 
0.0 0.0 -1.227728475246e+01 
-2.894247600321e+01 -1.484762028160e+00 0.0 
-1.484762028160e+00 -7.274240276739e+01 0.0 
0.0 0.0 -3.010546363118e+01 
-2.321924843481e+01 1.573081794598e+01 0.0 
1.573081794598e+01 -1.951659125648e+01 0.0 
0.0 0.0 -1.242075190739e+01 
-8.606399557121e+01 1.711812542586e+01 0.0 
1.711812542586e+01 -2.220431089400e+02 0.0 
0.0 0.0 -9.203213135338e+01 
-5.123717865972e+01 -4.767225537076e-01 0.0 
-4.767225537076e-01 -1.507187791489e+02 0.0 
0.0 0.0 -6.018678734260e+01 
-5.524491897992e+01 2.619468517179e+00 0.0 
2.619468517179e+00 -1.612715693828e+02 0.0 
0.0 0.0 -6.455494650881e+01 
-2.266947629989e+01 -1.136080755900e+00 0.0 
-1.136080755900e+00 -4.119752875821e+01 0.0 
0.0 0.0 -1.876010151743e+01 
-9.732019638614e+01 6.906697613026e-01 0.0 
6.906697613026e-01 -2.190096004768e+02 0.0 
0.0 0.0 -9.449893905889e+01 
-5.611587123239e+01 1.162449150252e+00 0.0 
1.162449150252e+00 -1.612512952796e+02 0.0 
0.0 0.0 -6.481014995360e+01 
-1.031742267657e+02 2.119880008289e+00 0.0 
2.119880008289e+00 -2.325454361471e+02 0.0 
0.0 0.0 -1.003158988738e+02 
-9.285252522859e+01 1.715535125606e+00 0.0 
1.715535125606e+00 -2.035602921180e+02 0.0 
0.0 0.0 -8.852384520399e+01 
-1.163658340296e+02 1.112358448013e+00 0.0 
1.112358448013e+00 -2.693457946359e+02 0.0 
0.0 0.0 -1.153134885997e+02 
-1.613277941530e+02 1.470352303147e+00 0.0 
1.470352303147e+00 -3.821635685235e+02 0.0 
0.0 0.0 -1.626474088029e+02 
-5.985408255768e+01 -5.311182248962e-01 0.0 
-5.311182248962e-01 -1.200621358718e+02 0.0 
0.0 0.0 -5.357486552885e+01 
-5.981831970931e+01 1.059074488080e+00 0.0 
1.059074488080e+00 -1.699320850892e+02 0.0 
0.0 0.0 -6.852512143954e+01 
-2.039866130463e+01 1.380261344165e+01 0.0 
1.380261344165e+01 -1.794854010426e+01 0.0 
0.0 0.0 -1.110416042267e+01 
-6.168556449213e+01 1.913231877926e-01 0.0 
1.913231877926e-01 -1.776204355146e+02 0.0 
0.0 0.0 -7.139180000203e+01 
-1.627929968325e+02 5.849652572040e+00 0.0 
5.849652572040e+00 -3.811836592759e+02 0.0 
0.0 0.0 -1.627929968325e+02 
-2.126430804248e+01 1.384672300250e+01 0.0 
1.384672300250e+01 -1.779942293342e+01 0.0 
0.0 0.0 -1.131911929277e+01 
-2.206172380414e+01 1.468245667362e+01 0.0 
1.468245667362e+01 -1.854169993853e+01 0.0 
0.0 0.0 -1.178102712280e+01 
-1.234531413400e+02 1.641120937007e+01 0.0 
1.641120937007e+01 -3.076117768016e+02 0.0 
0.0 0.0 -1.289194754425e+02 
-5.600415931441e+01 7.919603884753e-01 0.0 
7.919603884753e-01 -1.044415626644e+02 0.0 
0.0 0.0 -4.773371659364e+01 
-1.035402586415e+02 1.062526240518e+00 0.0 
1.062526240518e+00 -2.344875047552e+02 0.0 
0.0 0.0 -1.010083290190e+02 
-1.039009398827e+02 1.981853706994e+01 0.0 
1.981853706994e+01 -2.277278266960e+02 0.0 
0.0 0.0 -9.908862997360e+01 
-1.208238915789e+02 1.848868339293e+01 0.0 
1.848868339293e+01 -2.962052954254e+02 0.0 
0.0 0.0 -1.247087561013e+02 
-1.079843464715e+02 1.817135898910e+01 0.0 
1.817135898910e+01 -2.297302202896e+02 0.0 
0.0 0.0 -1.009143700283e+02 
-6.185893153246e+01 -2.646178248210e-01 0.0 
-2.646178248210e-01 -1.235436048770e+02 0.0 
0.0 0.0 -5.522076092282e+01 
-4.687490801923e+01 -1.158938677443e+00 0.0 
-1.158938677443e+00 -1.310035152083e+02 0.0 
0.0 0.0 -5.296352696827e+01 
-4.525087367991e+01 -1.994976444752e+00 0.0 
-1.994976444752e+00 -1.301563624056e+02 0.0 
0.0 0.0 -5.222217082566e+01 
-7.871648354577e+01 -3.033855738043e-01 0.0 
-3.033855738043e-01 -1.668491092639e+02 0.0 
0.0 0.0 -7.326967784291e+01 
-1.173007925952e+02 2.023843587297e+01 0.0 
2.023843587297e+01 -2.838694958211e+02 0.0 
0.0 0.0 -1.199510865249e+02 
-5.276636226946e+01 1.826901442672e+00 0.0 
1.826901442672e+00 -8.867208701667e+01 0.0 
0.0 0.0 -4.203153478584e+01 
-5.317336632894e+01 3.870886716023e-02 0.0 
3.870886716023e-02 -1.031167595969e+02 0.0 
0.0 0.0 -4.648703777774e+01 
-5.998876755615e+01 4.965350222180e-01 0.0 
4.965350222180e-01 -1.190505520273e+02 0.0 
0.0 0.0 -5.331179587504e+01 
-6.254987066846e+01 1.486896457979e+00 0.0 
1.486896457979e+00 -1.247251446376e+02 0.0 
0.0 0.0 -5.578250459183e+01 
-2.402707488394e+01 -7.679756049472e-01 0.0 
-7.679756049472e-01 -6.095128059632e+01 0.0 
0.0 0.0 -2.509350664408e+01 
-4.207113321426e+01 -2.403785681948e+00 0.0 
-2.403785681948e+00 -1.192461703721e+02 0.0 
0.0 0.0 -4.799519107592e+01 
-1.116461489221e+02 4.030314784371e+00 0.0 
4.030314784371e+00 -2.541325640683e+02 0.0 
0.0 0.0 -1.093336138971e+02 
-7.071831269099e+01 1.740514475958e+00 0.0 
1.740514475958e+00 -1.440524687607e+02 0.0 
0.0 0.0 -6.403123443551e+01 
-1.412636999668e+02 1.942109339094e+01 0.0 
1.942109339094e+01 -3.384758845828e+02 0.0 
0.0 0.0 -1.435218753649e+02 
-1.185982496246e+02 1.894554333948e+01 0.0 
1.894554333948e+01 -2.604633477922e+02 0.0 
0.0 0.0 -1.133184792250e+02 
-9.666644633087e+01 1.780608300287e+01 0.0 
1.780608300287e+01 -2.008990881020e+02 0.0 
0.0 0.0 -8.886966032986e+01 
-1.086646437897e+02 8.764408661769e+00 0.0 
8.764408661769e+00 -2.383279995792e+02 0.0 
0.0 0.0 -1.036977930107e+02 
-6.576693892801e+01 -9.618929803654e-01 0.0 
-9.618929803654e-01 -1.778024821978e+02 0.0 
0.0 0.0 -7.267082633774e+01 
-5.958301219727e+01 -1.168015284314e+00 0.0 
-1.168015284314e+00 -1.623678399687e+02 0.0 
0.0 0.0 -6.618525564978e+01 
-1.413507168899e+02 7.907418314379e+00 0.0 
7.907418314379e+00 -3.449885314254e+02 0.0 
0.0 0.0 -1.455017744946e+02 
-1.674514049615e+01 -1.383625756532e+00 0.0 
-1.383625756532e+00 -2.422325359539e+01 0.0 
0.0 0.0 -1.234320289849e+01 
-4.323645678551e+01 -3.219278559790e-01 0.0 
-3.219278559790e-01 -1.155490204537e+02 0.0 
0.0 0.0 -4.723564317177e+01 
-1.415179863230e+02 2.329116333821e+01 0.0 
2.329116333821e+01 -3.315419680870e+02 0.0 
0.0 0.0 -1.415179863230e+02 
-2.132515973012e+01 5.163856673835e-01 0.0 
5.163856673835e-01 -5.773474329036e+01 0.0 
0.0 0.0 -2.331797090615e+01 
-5.315003365092e+01 2.159729745613e-02 0.0 
2.159729745613e-02 -1.031526409085e+02 0.0 
0.0 0.0 -4.649080236783e+01 
-1.342348576605e+02 1.537276146333e+01 0.0 
1.537276146333e+01 -3.318284820957e+02 0.0 
0.0 0.0 -1.394190019269e+02 
-1.797332639523e+01 -2.109061972703e+00 0.0 
-2.109061972703e+00 -3.926413302709e+01 0.0 
0.0 0.0 -1.677123782670e+01 
-1.110760951346e+01 -6.770955890663e-01 0.0 
-6.770955890663e-01 -2.405285177859e+01 0.0 
0.0 0.0 -1.014813838762e+01 
-1.187264799535e+02 7.391618219176e+00 0.0 
7.391618219176e+00 -2.726032234733e+02 0.0 
0.0 0.0 -1.169989110281e+02 
-4.768080976210e+01 -2.561117887792e-01 0.0 
-2.561117887792e-01 -8.643629437751e+01 0.0 
0.0 0.0 -3.983513124188e+01 
-1.108658954796e+02 4.988757749153e+00 0.0 
4.988757749153e+00 -2.506933922854e+02 0.0 
0.0 0.0 -1.080677863295e+02 
-1.349496186780e+02 1.576535708832e+01 0.0 
1.576535708832e+01 -3.290134972741e+02 0.0 
0.0 0.0 -1.387889347856e+02 
-4.735701673511e+01 3.163253639459e-01 0.0 
3.163253639459e-01 -8.615700667463e+01 0.0 
0.0 0.0 -3.965420702292e+01 
-2.142763757948e+01 6.594468365262e-01 0.0 
6.594468365262e-01 -2.165693727095e+01 0.0 
0.0 0.0 -1.252537245513e+01 
-1.091213262671e+02 1.479810925783e+00 0.0 
1.479810925783e+00 -2.519702781489e+02 0.0 
0.0 0.0 -1.079274813248e+02 
-2.389779839238e+01 -6.640200835013e-01 0.0 
-6.640200835013e-01 -6.351507916660e+01 0.0 
0.0 0.0 -2.582386326769e+01 
-1.055656943483e+02 4.400193959782e+00 0.0 
4.400193959782e+00 -2.386782473897e+02 0.0 
0.0 0.0 -1.028731825214e+02 
-1.630769961159e+02 4.502179573112e+00 0.0 
4.502179573112e+00 -3.818463242705e+02 0.0 
0.0 0.0 -1.630769961159e+02 
-1.148533631533e+02 1.597306771342e+01 0.0 
1.597306771342e+01 -2.527200206473e+02 0.0 
0.0 0.0 -1.098720151402e+02 
-2.745888533896e+01 -5.749621738606e-01 0.0 
-5.749621738606e-01 -7.878030567032e+01 0.0 
0.0 0.0 -3.147175730278e+01 
-6.648529288596e+01 3.093265135952e+00 0.0 
3.093265135952e+00 -1.228096301790e+02 0.0 
0.0 0.0 -5.638847691949e+01 
-6.711098275890e+01 1.796935566391e-01 0.0 
1.796935566391e-01 -1.807104900027e+02 0.0 
0.0 0.0 -7.394644182848e+01 
-1.079631753339e+02 1.917858190894e+01 0.0 
1.917858190894e+01 -2.645182240347e+02 0.0 
0.0 0.0 -1.113444198106e+02 
-1.469285469068e+02 2.232637253628e+01 0.0 
2.232637253628e+01 -3.478646928111e+02 0.0 
0.0 0.0 -1.480379719154e+02 
-8.668262525654e+01 1.218586027766e-01 0.0 
1.218586027766e-01 -1.882095533060e+02 0.0 
0.0 0.0 -8.206765356875e+01 
-1.475698856983e+02 2.030701666075e+01 0.0 
2.030701666075e+01 -3.520662323926e+02 0.0 
0.0 0.0 -1.494908354273e+02 
-1.982774702987e+01 -1.259159817911e+00 0.0 
-1.259159817911e+00 -4.011781028832e+01 0.0 
0.0 0.0 -1.758366719546e+01 
-1.530645901204e+02 6.245202699115e+00 0.0 
6.245202699115e+00 -3.660117861168e+02 0.0 
0.0 0.0 -1.553229128711e+02 
-3.111342152168e+01 -6.259036136143e-01 0.0 
-6.259036136143e-01 -8.904008937922e+01 0.0 
0.0 0.0 -3.564605327027e+01 
-2.126332551151e+01 -1.049847640550e+00 0.0 
-1.049847640550e+00 -5.768669602440e+01 0.0 
0.0 0.0 -2.328500646077e+01 
-1.451461658271e+02 1.472807533397e+01 0.0 
1.472807533397e+01 -3.516216056012e+02 0.0 
0.0 0.0 -1.486303314285e+02 
-1.174702491029e+02 1.189101995362e+01 0.0 
1.189101995362e+01 -2.617213648192e+02 0.0 
0.0 0.0 -1.133574841766e+02 
-1.138321382335e+02 7.818167175927e+00 0.0 
7.818167175927e+00 -2.592218092575e+02 0.0 
0.0 0.0 -1.115161842473e+02 
-5.313325700225e+01 -5.247707899067e-01 0.0 
-5.247707899067e-01 -1.018369228328e+02 0.0 
0.0 0.0 -4.609105395051e+01 
-6.962169317140e+01 4.418296975793e+00 0.0 
4.418296975793e+00 -1.268339835610e+02 0.0 
0.0 0.0 -5.853670301973e+01 
-2.445261678739e+01 1.337612239371e+01 0.0 
1.337612239371e+01 -5.088619678239e+01 0.0 
0.0 0.0 -2.220164407093e+01 
-1.248401160788e+02 2.011361664250e+01 0.0 
2.011361664250e+01 -2.805097659986e+02 0.0 
0.0 0.0 -1.212049646232e+02 
-5.598888256347e+01 -1.046505571406e+00 0.0 
-1.046505571406e+00 -1.510426841739e+02 0.0 
0.0 0.0 -6.170947002122e+01 
-2.008105143735e+01 6.822828907631e+00 0.0 
6.822828907631e+00 -4.081195592120e+01 0.0 
0.0 0.0 -1.786790220757e+01 
-1.120934889513e+02 1.790226171454e+01 0.0 
1.790226171454e+01 -2.779760771209e+02 0.0 
0.0 0.0 -1.166208698217e+02 
-4.629625574301e+01 1.131465579768e-01 0.0 
1.131465579768e-01 -8.577022712189e+01 0.0 
0.0 0.0 -3.921994485947e+01 
-1.109016678336e+02 1.039325237572e+01 0.0 
1.039325237572e+01 -2.472732670720e+02 0.0 
0.0 0.0 -1.070524804717e+02 
-1.155697134692e+02 8.261603981802e-01 0.0 
8.261603981802e-01 -2.676063182876e+02 0.0 
0.0 0.0 -1.145528095271e+02 
-1.150293721677e+02 5.084519710823e-01 0.0 
5.084519710823e-01 -2.697352017246e+02 0.0 
0.0 0.0 -1.150293721677e+02 
-2.525207376911e+00 3.185336776462e-01 0.0 
3.185336776462e-01 -6.654247585448e+00 0.0 
0.0 0.0 -2.353836488708e+00 
-4.680780665182e+00 -2.756636992480e-01 0.0 
-2.756636992480e-01 -1.042674257983e+01 0.0 
0.0 0.0 -4.768763523663e+00 
-4.675643435742e+01 6.569441333071e-01 0.0 
6.569441333071e-01 -8.823615303649e+01 0.0 
0.0 0.0 -4.009777621818e+01 
-4.543162747051e+01 -1.083894155468e-01 0.0 
-1.083894155468e-01 -8.573429217915e+01 0.0 
0.0 0.0 -3.894977589490e+01 
-1.637879416621e+02 5.713964796913e-01 0.0 
5.713964796913e-01 -3.835051972116e+02 0.0 
0.0 0.0 -1.637879416621e+02 
-1.608569961627e+02 -6.207052136379e-01 0.0 
-6.207052136379e-01 -3.804756342443e+02 0.0 
0.0 0.0 -1.619997891221e+02 
-9.132058053587e+00 -7.435541090810e-01 0.0 
-7.435541090810e-01 -2.305323939696e+01 0.0 
0.0 0.0 -9.255589235163e+00 
-1.653085453961e+01 -4.507527822457e-01 0.0 
-4.507527822457e-01 -8.265970994398e+00 0.0 
0.0 0.0 -7.939474007407e+00 
-1.455560422018e+02 2.686880208765e+00 0.0 
2.686880208765e+00 -3.511876023735e+02 0.0 
0.0 0.0 -1.486230933726e+02 
-1.236092583733e+02 2.051993893855e+01 0.0 
2.051993893855e+01 -2.944673356476e+02 0.0 
0.0 0.0 -1.250229782063e+02 
-2.855153178766e+01 -7.971841515674e-01 0.0 
-7.971841515674e-01 -7.437257889049e+01 0.0 
0.0 0.0 -3.047723320345e+01 
-1.463773092246e+02 6.587508916280e+00 0.0 
6.587508916280e+00 -3.527701650877e+02 0.0 
0.0 0.0 -1.493442422937e+02 
-9.818467467054e+01 3.447161135751e-01 0.0 
3.447161135751e-01 -2.538466615895e+02 0.0 
0.0 0.0 -1.052094008780e+02 
-8.298812832301e+01 7.823641764078e-01 0.0 
7.823641764078e-01 -2.194984097732e+02 0.0 
0.0 0.0 -9.034596142886e+01 
-7.399010131036e+01 3.247854903111e-01 0.0 
3.247854903111e-01 -1.539627622792e+02 0.0 
0.0 0.0 -6.798585907685e+01 
-2.715216368053e+01 -2.384934182595e+00 0.0 
-2.384934182595e+00 -6.894840396572e+01 0.0 
0.0 0.0 -2.843017029387e+01 
-9.907486409395e+01 1.873168436239e+01 0.0 
1.873168436239e+01 -2.458904001521e+02 0.0 
0.0 0.0 -1.030895792738e+02 
-2.350592413354e+01 -1.361748577854e+00 0.0 
-1.361748577854e+00 -5.971939181848e+01 0.0 
0.0 0.0 -2.456759478561e+01 
-7.503497224111e+01 6.062146633452e-01 0.0 
6.062146633452e-01 -1.997889557773e+02 0.0 
0.0 0.0 -8.204717840553e+01 
-1.179360710404e+02 1.791131287011e+01 0.0 
1.791131287011e+01 -2.663300291006e+02 0.0 
0.0 0.0 -1.148798300423e+02 
-1.011444419808e+02 9.263870645668e-01 0.0 
9.263870645668e-01 -2.272868768581e+02 0.0 
0.0 0.0 -9.812939565167e+01 
-8.306474640440e+01 -3.851566458944e-01 0.0 
-3.851566458944e-01 -2.186030076330e+02 0.0 
0.0 0.0 -9.010032621120e+01 
-6.562343711038e+01 1.005132803341e+00 0.0 
1.005132803341e+00 -1.334383248891e+02 0.0 
0.0 0.0 -5.931852859983e+01 
-1.232119785830e+02 2.182689888372e+01 0.0 
2.182689888372e+01 -2.866720559494e+02 0.0 
0.0 0.0 -1.225652103597e+02 
-1.114895323266e+02 1.927274408512e+01 0.0 
1.927274408512e+01 -2.418402366559e+02 0.0 
0.0 0.0 -1.055989306947e+02 
-1.041137783960e+02 1.851515141243e+01 0.0 
1.851515141243e+01 -2.213537486986e+02 0.0 
0.0 0.0 -9.724025812838e+01 
-4.688276676179e+01 2.775172335247e-02 0.0 
2.775172335247e-02 -8.638484138658e+01 0.0 
0.0 0.0 -3.958028244451e+01 
-9.483309531343e+01 1.773576829482e+01 0.0 
1.773576829482e+01 -2.405678414893e+02 0.0 
0.0 0.0 -1.002202810408e+02 
-1.113600127465e+02 1.251424672467e+01 0.0 
1.251424672467e+01 -2.480386935738e+02 0.0 
0.0 0.0 -1.074196118961e+02 
-4.207159917491e+01 -9.739078926267e-01 0.0 
-9.739078926267e-01 -1.148978690291e+02 0.0 
0.0 0.0 -4.669084046121e+01 
-1.527917509471e+01 -1.324788692749e+00 0.0 
-1.324788692749e+00 -2.515845312931e+01 0.0 
0.0 0.0 -1.173128846721e+01 
-1.184482327855e+02 2.128708375267e+01 0.0 
2.128708375267e+01 -2.720873415640e+02 0.0 
0.0 0.0 -1.167606723049e+02 
-1.179710981105e+02 1.383994257823e+01 0.0 
1.383994257823e+01 -3.000777794280e+02 0.0 
0.0 0.0 -1.250146632616e+02 
-2.316469324260e+01 -2.240361419584e+00 0.0 
-2.240361419584e+00 -5.740335949752e+01 0.0 
0.0 0.0 -2.377041582204e+01 
-7.949426788065e+01 1.152879841229e+00 0.0 
1.152879841229e+00 -1.681657066797e+02 0.0 
0.0 0.0 -7.389799236811e+01 
-1.538903534624e+02 3.476325003821e+00 0.0 
3.476325003821e+00 -3.656852415527e+02 0.0 
0.0 0.0 -1.554726785045e+02 
-1.184102445217e+02 2.000892905373e+01 0.0 
2.000892905373e+01 -2.797358265023e+02 0.0 
0.0 0.0 -1.190438213072e+02 
-1.242699412087e+02 2.232636628602e+01 0.0 
2.232636628602e+01 -2.911746740670e+02 0.0 
0.0 0.0 -1.242333845827e+02 
-1.072413325600e+02 1.073639348678e+00 0.0 
1.073639348678e+00 -2.739002189630e+02 0.0 
0.0 0.0 -1.139424654569e+02 
-1.642487036736e+01 4.200877307091e+00 0.0 
4.200877307091e+00 -2.123213492221e+01 0.0 
0.0 0.0 -1.117389263610e+01 
-2.115325090729e+01 1.510968245203e+01 0.0 
1.510968245203e+01 -1.763348175172e+01 0.0 
0.0 0.0 -1.123601979770e+01 
-2.727602934767e+01 1.649867549239e+01 0.0 
1.649867549239e+01 -5.454262594126e+01 0.0 
0.0 0.0 -2.414559658668e+01 
-6.727540406301e+01 3.267756619236e+00 0.0 
3.267756619236e+00 -1.226304819186e+02 0.0 
0.0 0.0 -5.657176579448e+01 
-9.411618392445e+01 1.646364826334e+01 0.0 
1.646364826334e+01 -2.400434358039e+02 0.0 
0.0 0.0 -9.984788591849e+01 
-1.067159999619e+02 4.412931399001e+00 0.0 
4.412931399001e+00 -2.409208962126e+02 0.0 
0.0 0.0 -1.038910688524e+02 
-1.422157766899e+02 1.717442209725e+01 0.0 
1.717442209725e+01 -3.407324781771e+02 0.0 
0.0 0.0 -1.444844764601e+02 
-2.192102884764e+01 -2.136081194868e+00 0.0 
-2.136081194868e+00 -4.165481751069e+01 0.0 
0.0 0.0 -1.867275390750e+01 
-2.008012400457e+01 -2.494132240834e+00 0.0 
-2.494132240834e+00 -4.049849549710e+01 0.0 
0.0 0.0 -1.777358585050e+01 
-2.294658336611e+01 1.560921625065e+01 0.0 
1.560921625065e+01 -1.921303894260e+01 0.0 
0.0 0.0 -1.224788669261e+01 
-8.153445748074e+01 -1.180588034793e-01 0.0 
-1.180588034793e-01 -1.737169952708e+02 0.0 
0.0 0.0 -7.617543582545e+01 
-5.206594940376e+01 -1.334813961074e-01 0.0 
-1.334813961074e-01 -1.408116320658e+02 0.0 
0.0 0.0 -5.746327444087e+01 
-1.114838013990e+02 9.970679669723e+00 0.0 
9.970679669723e+00 -2.469817595685e+02 0.0 
0.0 0.0 -1.071396682902e+02 
-2.711023697715e+01 -1.607557510665e-01 0.0 
-1.607557510665e-01 -7.126966787809e+01 0.0 
0.0 0.0 -2.911397145657e+01 
-1.321116249208e+02 1.625126373856e+01 0.0 
1.625126373856e+01 -3.237044319868e+02 0.0 
0.0 0.0 -1.363448170723e+02 
-6.229199380500e+01 5.497587406890e-01 0.0 
5.497587406890e-01 -1.193102994168e+02 0.0 
0.0 0.0 -5.408068796654e+01 
-1.368306178627e+02 2.118658410408e+01 0.0 
2.118658410408e+01 -3.233963201062e+02 0.0 
0.0 0.0 -1.376680813907e+02 
-1.124120481788e+02 2.046340605725e+01 0.0 
2.046340605725e+01 -2.707554812026e+02 0.0 
0.0 0.0 -1.145502588144e+02 
-6.881661321931e+01 4.686442783741e+00 0.0 
4.686442783741e+00 -1.234588928004e+02 0.0 
0.0 0.0 -5.728265180592e+01 
-1.470177526834e+02 1.215588715986e+01 0.0 
1.215588715986e+01 -3.561758717842e+02 0.0 
0.0 0.0 -1.505580873403e+02 
-1.159217925935e+02 1.027222081773e+01 0.0 
1.027222081773e+01 -2.605091388214e+02 0.0 
0.0 0.0 -1.125292794245e+02 
-1.111648872426e+02 6.188667303562e-01 0.0 
6.188667303562e-01 -2.537005716964e+02 0.0 
0.0 0.0 -1.090596376817e+02 
-2.339280213527e+01 1.537761609926e+01 0.0 
1.537761609926e+01 -1.859767253350e+01 0.0 
0.0 0.0 -1.219714240063e+01 
-1.068046472027e+02 7.147549332354e+00 0.0 
7.147549332354e+00 -2.373579848060e+02 0.0 
0.0 0.0 -1.028487896026e+02 
-1.272191261899e+02 2.142174773686e+01 0.0 
2.142174773686e+01 -2.958318492553e+02 0.0 
0.0 0.0 -1.265152926336e+02 
-1.318814134701e+02 1.740996800308e+01 0.0 
1.740996800308e+01 -3.243055252743e+02 0.0 
0.0 0.0 -1.364560816233e+02 
-1.155377180945e+02 1.847719722498e+01 0.0 
1.847719722498e+01 -2.825488901239e+02 0.0 
0.0 0.0 -1.190259824655e+02 
-1.618906150058e+02 7.545463827457e+00 0.0 
7.545463827457e+00 -3.790781016802e+02 0.0 
0.0 0.0 -1.618906150058e+02 
-1.024757913913e+02 1.590813279839e+01 0.0 
1.590813279839e+01 -2.201476621456e+02 0.0 
0.0 0.0 -9.638703606106e+01 
-1.610227088948e+01 3.917679589010e+00 0.0 
3.917679589010e+00 -9.506014644175e+00 0.0 
0.0 0.0 -8.234228560622e+00 
-2.211608305225e+01 9.476915670511e+00 0.0 
9.476915670511e+00 -4.491683689655e+01 0.0 
0.0 0.0 -1.970987598464e+01 
-1.144222891618e+02 1.889975284515e+01 0.0 
1.889975284515e+01 -2.499381911247e+02 0.0 
0.0 0.0 -1.089081440859e+02 
-7.232556431533e+01 3.130037902749e+00 0.0 
3.130037902749e+00 -1.373878788602e+02 0.0 
0.0 0.0 -6.251403295266e+01 
-1.455153852168e+02 2.571568096037e+00 0.0 
2.571568096037e+00 -3.509789608070e+02 0.0 
0.0 0.0 -1.485483038072e+02 
-1.215598159735e+02 2.116956231761e+01 0.0 
2.116956231761e+01 -2.899274177647e+02 0.0 
0.0 0.0 -1.230461701215e+02 
-1.540054376351e+02 6.724756348053e+00 0.0 
6.724756348053e+00 -3.657480293664e+02 0.0 
0.0 0.0 -1.555260401004e+02 
-8.970510752049e+01 3.812387160944e-01 0.0 
3.812387160944e-01 -1.947225302599e+02 0.0 
0.0 0.0 -8.492829133413e+01 
-1.386315543706e+02 2.065341434742e+01 0.0 
2.065341434742e+01 -3.282981363814e+02 0.0 
0.0 0.0 -1.396789072256e+02 
-1.423427688290e+02 1.095277410396e+01 0.0 
1.095277410396e+01 -3.456186794124e+02 0.0 
0.0 0.0 -1.459884344724e+02 
-1.411818434082e+02 9.871535393558e+00 0.0 
9.871535393558e+00 -3.449827208924e+02 0.0 
0.0 0.0 -1.454493692902e+02 
-5.426847817438e+01 -1.727270036271e-01 0.0 
-1.727270036271e-01 -1.462834482051e+02 0.0 
0.0 0.0 -5.976557791385e+01 
-1.600993591862e+02 6.420493151494e+00 0.0 
6.420493151494e+00 -3.797105293803e+02 0.0 
0.0 0.0 -1.615429665699e+02 
-5.696226158665e+01 1.311999220152e+00 0.0 
1.311999220152e+00 -1.034825169011e+02 0.0 
0.0 0.0 -4.773343354633e+01 
-1.046197173050e+02 2.749585569905e+00 0.0 
2.749585569905e+00 -2.352438865689e+02 0.0 
0.0 0.0 -1.015590811622e+02 
-1.827099324703e+01 -2.146504936058e+00 0.0 
-2.146504936058e+00 -4.109300769630e+01 0.0 
0.0 0.0 -1.740920028300e+01 
-9.941815778247e+01 1.419453649289e+00 0.0 
1.419453649289e+00 -2.202503214909e+02 0.0 
0.0 0.0 -9.550054378201e+01 
-8.059148258785e+01 9.022288029586e-01 0.0 
9.022288029586e-01 -1.700511851607e+02 0.0 
0.0 0.0 -7.479280032457e+01 
-1.599033170916e+01 1.102332215974e-01 0.0 
1.102332215974e-01 -4.213580562832e+01 0.0 
0.0 0.0 -1.703784120124e+01 
-2.681641434839e+01 2.902202185014e-02 0.0 
2.902202185014e-02 -7.039908875582e+01 0.0 
0.0 0.0 -2.876465093126e+01 
-1.062949761311e+02 1.707011902673e+01 0.0 
1.707011902673e+01 -2.334225901823e+02 0.0 
0.0 0.0 -1.015152698940e+02 
-1.104813944880e+02 5.437265701587e+00 0.0 
5.437265701587e+00 -2.537718882346e+02 0.0 
0.0 0.0 -1.088759848168e+02 
-1.050425218928e+02 1.672178114125e+00 0.0 
1.672178114125e+00 -2.378718336013e+02 0.0 
0.0 0.0 -1.024743066482e+02 
-1.354469178631e+02 1.974330105336e+01 0.0 
1.974330105336e+01 -3.271588548701e+02 0.0 
0.0 0.0 -1.383817318200e+02 
-6.572435204460e+01 -2.385966719636e-01 0.0 
-2.385966719636e-01 -1.328051821335e+02 0.0 
0.0 0.0 -5.915886025345e+01 
-1.316885237799e+01 -1.425587301535e+00 0.0 
-1.425587301535e+00 -2.465136971273e+01 0.0 
0.0 0.0 -1.094606662722e+01 
-2.075094324138e+01 2.311016161111e+00 0.0 
2.311016161111e+00 -3.467278823491e+01 0.0 
0.0 0.0 -1.622711944289e+01 
-1.295785079808e+01 -1.986845243554e+00 0.0 
-1.986845243554e+00 -2.819593800347e+01 0.0 
0.0 0.0 -1.193755149759e+01 
-2.344218758743e+01 -2.014742386654e+00 0.0 
-2.014742386654e+00 -5.453650214985e+01 0.0 
0.0 0.0 -2.299360692118e+01 
-1.529365245474e+01 7.477475710087e+00 0.0 
7.477475710087e+00 -6.916887497735e+00 0.0 
0.0 0.0 -6.458783785062e+00 
-7.318549142776e+01 -6.057193619485e-01 0.0 
-6.057193619485e-01 -1.948444631117e+02 0.0 
0.0 0.0 -8.000898636183e+01 
-1.451929158341e+02 1.165646807167e+00 0.0 
1.165646807167e+00 -3.507980887044e+02 0.0 
0.0 0.0 -1.483973013615e+02 
-1.139813798911e+02 1.452506254851e+01 0.0 
1.452506254851e+01 -2.526438109050e+02 0.0 
0.0 0.0 -1.095875572388e+02 
-7.635169310160e+01 6.953440489943e+00 0.0 
6.953440489943e+00 -1.394068823867e+02 0.0 
0.0 0.0 -6.432757264649e+01 
-6.319490845786e+01 4.676052551223e-01 0.0 
4.676052551223e-01 -1.707747886700e+02 0.0 
0.0 0.0 -6.979090913836e+01 
-1.420021742051e+02 9.054812973842e+00 0.0 
9.054812973842e+00 -3.458197254187e+02 0.0 
0.0 0.0 -1.459465698872e+02 
-1.339999591017e+02 1.271081693879e+01 0.0 
1.271081693879e+01 -3.327050173227e+02 0.0 
0.0 0.0 -1.396114929273e+02 
-1.346119229194e+02 2.218112430336e+01 0.0 
2.218112430336e+01 -3.214803152160e+02 0.0 
0.0 0.0 -1.364276714406e+02 
-1.229838090444e+02 2.101003909179e+01 0.0 
2.101003909179e+01 -2.847227710148e+02 0.0 
0.0 0.0 -1.219119740178e+02 
-1.130587238255e+02 1.799786953011e+01 0.0 
1.799786953011e+01 -2.529773940424e+02 0.0 
0.0 0.0 -1.094108353604e+02 
-1.774037377056e+01 -2.341955089690e+00 0.0 
-2.341955089690e+00 -4.054022359481e+01 0.0 
0.0 0.0 -1.708417920961e+01 
-2.255908286132e+01 -5.863159276237e-01 0.0 
-5.863159276237e-01 -3.532488289880e+01 0.0 
0.0 0.0 -1.696518972803e+01 
-1.454234237408e+02 3.725661925820e+00 0.0 
3.725661925820e+00 -3.516183064708e+02 0.0 
0.0 0.0 -1.487125190635e+02 
-1.483463426522e+01 -4.104086380757e-01 0.0 
-4.104086380757e-01 -4.127697917518e+01 0.0 
0.0 0.0 -1.643348403212e+01 
-1.820652713822e+01 -1.108990305287e+00 0.0 
-1.108990305287e+00 -4.923831502064e+01 0.0 
0.0 0.0 -1.983345264766e+01 
-1.930683175485e+01 9.541764989984e+00 0.0 
9.541764989984e+00 -2.525958074997e+01 0.0 
0.0 0.0 -1.296992375145e+01 
-1.660657525949e+01 -1.179928299420e+00 0.0 
-1.179928299420e+00 -3.863775552203e+01 0.0 
0.0 0.0 -1.617329923446e+01 
-1.504470266227e+02 1.097280314438e+01 0.0 
1.097280314438e+01 -3.588912212021e+02 0.0 
0.0 0.0 -1.524014743474e+02 
-1.245613133781e+02 2.072399212006e+01 0.0 
2.072399212006e+01 -2.864967731770e+02 0.0 
0.0 0.0 -1.229174259666e+02 
-1.058887802776e+02 2.817159159375e+00 0.0 
2.817159159375e+00 -2.406983502473e+02 0.0 
0.0 0.0 -1.035761391575e+02 
-1.354978161517e+02 2.174784535595e+01 0.0 
2.174784535595e+01 -3.202120624644e+02 0.0 
0.0 0.0 -1.363129635848e+02 
-1.296729425602e+02 1.393854329788e+01 0.0 
1.393854329788e+01 -3.217954647156e+02 0.0 
0.0 0.0 -1.350405221827e+02 
-7.034206375060e+01 -2.497481904234e-01 0.0 
-2.497481904234e-01 -1.441549288305e+02 0.0 
0.0 0.0 -6.394909777432e+01 
-1.163862710990e+02 7.432775790965e+00 0.0 
7.432775790965e+00 -2.729012992309e+02 0.0 
0.0 0.0 -1.163862710990e+02 
-3.285029094695e+01 -1.337788163613e+00 0.0 
-1.337788163613e+00 -8.981882404863e+01 0.0 
0.0 0.0 -3.640073449868e+01 
-4.711477812177e+01 8.694450738869e-02 0.0 
8.694450738869e-02 -8.556686661495e+01 0.0 
0.0 0.0 -3.940449342102e+01 
-2.521667434440e+01 -2.676897654005e+00 0.0 
-2.676897654005e+00 -5.569110373890e+01 0.0 
0.0 0.0 -2.387233342499e+01 
-1.041083711222e+01 -1.046191105074e+00 0.0 
-1.046191105074e+00 -2.435206315471e+01 0.0 
0.0 0.0 -1.057572996056e+01 
-1.606382164535e+02 4.175545128462e+00 0.0 
4.175545128462e+00 -3.807550859461e+02 0.0 
0.0 0.0 -1.620179907199e+02 
-6.138107212556e+01 3.571256689536e+00 0.0 
3.571256689536e+00 -1.080084243935e+02 0.0 
0.0 0.0 -5.041684895573e+01 
-2.234554075346e+01 -9.524920056927e-01 0.0 
-9.524920056927e-01 -5.742740640739e+01 0.0 
0.0 0.0 -2.353188414826e+01 
-6.962807019036e+01 -1.076293840263e+00 0.0 
-1.076293840263e+00 -1.874196204219e+02 0.0 
0.0 0.0 -7.671430718367e+01 
-1.258755697224e+02 2.088086131626e+01 0.0 
2.088086131626e+01 -2.860944416110e+02 0.0 
0.0 0.0 -1.231910034000e+02 
-1.073694375007e+02 5.775810712046e+00 0.0 
5.775810712046e+00 -2.400331028041e+02 0.0 
0.0 0.0 -1.038207620914e+02 
-1.146549613263e+02 1.194709608690e+01 0.0 
1.194709608690e+01 -2.617606876983e+02 0.0 
0.0 0.0 -1.125246947074e+02 
-4.969457122463e+01 6.428908980647e-02 0.0 
6.428908980647e-02 -1.336046478372e+02 0.0 
0.0 0.0 -5.458976571856e+01 
-2.065381118159e+01 7.244053392700e-01 0.0 
7.244053392700e-01 -3.529659481684e+01 0.0 
0.0 0.0 -1.638512179953e+01 
-1.510342079021e+02 7.740034907095e+00 0.0 
7.740034907095e+00 -3.634538026368e+02 0.0 
0.0 0.0 -1.539464031617e+02 
-1.171890277837e+02 6.022428206053e-01 0.0 
6.022428206053e-01 -2.705142455597e+02 0.0 
0.0 0.0 -1.159109820030e+02 
-1.612585174991e+02 9.782984412711e-01 0.0 
9.782984412711e-01 -3.822631910183e+02 0.0 
0.0 0.0 -1.626565125552e+02 
-5.174017265734e+01 -4.814732422400e-01 0.0 
-4.814732422400e-01 -1.001406993922e+02 0.0 
0.0 0.0 -4.516426161485e+01 
-1.377469859422e+02 1.396458946006e+01 0.0 
1.396458946006e+01 -3.351141542700e+02 0.0 
0.0 0.0 -1.414583420637e+02 
-2.203274259815e+01 -6.908487687567e-01 0.0 
-6.908487687567e-01 -5.845083614361e+01 0.0 
0.0 0.0 -2.374507362253e+01 
-1.099660674827e+02 8.392748308456e+00 0.0 
8.392748308456e+00 -2.465154745052e+02 0.0 
0.0 0.0 -1.065444625964e+02 
-1.067084620591e+01 -9.898962121170e-01 0.0 
-9.898962121170e-01 -2.334604771338e+01 0.0 
0.0 0.0 -1.031282592332e+01 
-1.488068966485e+02 1.320751243930e+01 0.0 
1.320751243930e+01 -3.552937187215e+02 0.0 
0.0 0.0 -1.508301846110e+02 
-1.173110009901e+02 1.255594948500e+01 0.0 
1.255594948500e+01 -2.628805853735e+02 0.0 
0.0 0.0 -1.136574759091e+02 
-1.670912728040e+01 1.794897366092e+00 0.0 
1.794897366092e+00 -2.241906871841e+01 0.0 
0.0 0.0 -1.184773033427e+01 
-1.194163611124e+02 2.155926525995e+01 0.0 
2.155926525995e+01 -2.809549771576e+02 0.0 
0.0 0.0 -1.197114014810e+02 
-8.616101594692e+01 1.717890938080e+00 0.0 
1.717890938080e+00 -1.847145379594e+02 0.0 
0.0 0.0 -8.086266617188e+01 
-1.103407163321e+02 4.059766919643e+00 0.0 
4.059766919643e+00 -2.544531580487e+02 0.0 
0.0 0.0 -1.090381623142e+02 
-1.503505150639e+02 2.063539598255e+01 0.0 
2.063539598255e+01 -3.521512018158e+02 0.0 
0.0 0.0 -1.503505150639e+02 
-7.509690227067e+01 1.452048061682e+00 0.0 
1.452048061682e+00 -1.577528163811e+02 0.0 
0.0 0.0 -6.945491559552e+01 
-1.229150154683e+02 1.953755233198e+01 0.0 
1.953755233198e+01 -2.829086021083e+02 0.0 
0.0 0.0 -1.213470852730e+02 
-1.130914118760e+02 1.214293578052e+01 0.0 
1.214293578052e+01 -2.490388905349e+02 0.0 
0.0 0.0 -1.082390907233e+02 
-7.934802601638e+01 5.931220992500e-01 0.0 
5.931220992500e-01 -1.693084888900e+02 0.0 
0.0 0.0 -7.419695447191e+01 
-1.200830373058e+02 1.919408717300e+01 0.0 
1.919408717300e+01 -2.717701356202e+02 0.0 
0.0 0.0 -1.171559518778e+02 
-5.963926102609e+01 -1.483311347130e-02 0.0 
-1.483311347130e-02 -1.600970235010e+02 0.0 
0.0 0.0 -6.552088535812e+01 
-4.583513315090e+01 1.120343971757e-01 0.0 
1.120343971757e-01 -8.562569150629e+01 0.0 
0.0 0.0 -3.903824739716e+01 
-1.281207422583e+02 2.082395802507e+01 0.0 
2.082395802507e+01 -3.066451417164e+02 0.0 
0.0 0.0 -1.300297651924e+02 
-1.108878249773e+02 2.284808291872e-02 0.0 
2.284808291872e-02 -2.554779739372e+02 0.0 
0.0 0.0 -1.095097396744e+02 
-3.856889406563e+00 8.844999595915e-02 0.0 
8.844999595915e-02 -8.542126725121e+00 0.0 
0.0 0.0 -4.244953662672e+00 
-4.557956718197e+01 -2.247827645525e-01 0.0 
-2.247827645525e-01 -8.590966700158e+01 0.0 
0.0 0.0 -3.904677025507e+01 
-1.556725553565e+02 1.095523453296e+00 0.0 
1.095523453296e+00 -3.699800943065e+02 0.0 
0.0 0.0 -1.572957948989e+02 
-2.768897543712e+01 -1.826063560094e+00 0.0 
-1.826063560094e+00 -7.338462940105e+01 0.0 
0.0 0.0 -2.992208145145e+01 
-1.327059898346e+02 1.602575030161e+01 0.0 
1.602575030161e+01 -3.289028663432e+02 0.0 
0.0 0.0 -1.380826568533e+02 
-1.151361440481e+02 1.426964328702e+01 0.0 
1.426964328702e+01 -2.506907715278e+02 0.0 
0.0 0.0 -1.093480746728e+02 
-1.115178589001e+02 4.183202686427e+00 0.0 
4.183202686427e+00 -2.537611346256e+02 0.0 
0.0 0.0 -1.091836980577e+02 
-2.670877059690e+01 -1.356359126890e+00 0.0 
-1.356359126890e+00 -7.057482525278e+01 0.0 
0.0 0.0 -2.878507875490e+01 
-2.220253860457e+01 6.982180058599e+00 0.0 
6.982180058599e+00 -4.061022688206e+01 0.0 
0.0 0.0 -1.844382964599e+01 
-8.639033493197e+01 -1.312820486511e+00 0.0 
-1.312820486511e+00 -2.280308661986e+02 0.0 
0.0 0.0 -9.392636033916e+01 
-9.310780301975e+01 4.363470714297e-01 0.0 
4.363470714297e-01 -2.059869471181e+02 0.0 
0.0 0.0 -8.932842504135e+01 
-2.097767333151e+01 -5.763156426451e-01 0.0 
-5.763156426451e-01 -5.720628548895e+00 0.0 
0.0 0.0 -7.609490564121e+00 
-1.134174350842e+02 9.839246346960e+00 0.0 
9.839246346960e+00 -2.597660735280e+02 0.0 
0.0 0.0 -1.115550525836e+02 
-7.243264779840e+01 2.642592166678e-01 0.0 
2.642592166678e-01 -1.516503734803e+02 0.0 
0.0 0.0 -6.682490638360e+01 
-2.794140726347e+01 -2.175185665019e+00 0.0 
-2.175185665019e+00 -6.924929723200e+01 0.0 
0.0 0.0 -2.875721134864e+01 
-6.709479275500e+01 2.755049045095e-01 0.0 
2.755049045095e-01 -1.377942154795e+02 0.0 
0.0 0.0 -6.106670247035e+01 
-1.336011803067e+02 2.350605104780e+01 0.0 
2.350605104780e+01 -3.153361776619e+02 0.0 
0.0 0.0 -1.342812073906e+02 
-9.127288141120e+01 1.206090073759e+00 0.0 
1.206090073759e+00 -2.386888683540e+02 0.0 
0.0 0.0 -9.858852492956e+01 
-1.671202378267e+01 8.019524581148e+00 0.0 
8.019524581148e+00 -1.144580767501e+01 0.0 
0.0 0.0 -8.021346761929e+00 
-5.296191115622e+01 -1.196542708619e+00 0.0 
-1.196542708619e+00 -1.453079354237e+02 0.0 
0.0 0.0 -5.908095397399e+01 
-7.876549228581e+01 -3.506616277247e-01 0.0 
-3.506616277247e-01 -2.096712932698e+02 0.0 
0.0 0.0 -8.613103566668e+01 
-9.551709376333e+01 -1.331789483770e+00 0.0 
-1.331789483770e+00 -2.477116040688e+02 0.0 
0.0 0.0 -1.025686093496e+02 
-1.312290699375e+02 2.086642714562e+01 0.0 
2.086642714562e+01 -3.148829815319e+02 0.0 
0.0 0.0 -1.334336154408e+02 
-7.660516492948e+01 6.238590457943e-01 0.0 
6.238590457943e-01 -2.044054231434e+02 0.0 
0.0 0.0 -8.390317642187e+01 
-8.209849091592e+01 -2.455080565611e-01 0.0 
-2.455080565611e-01 -2.169233300030e+02 0.0 
0.0 0.0 -8.930654627569e+01 
-1.565746372953e+01 -1.642811450947e+00 0.0 
-1.642811450947e+00 -3.722251886856e+01 0.0 
0.0 0.0 -1.546399477942e+01 
-1.454978731467e+02 5.722981582086e+00 0.0 
5.722981582086e+00 -3.526750706961e+02 0.0 
0.0 0.0 -1.490518831529e+02 
-1.173640570233e+02 1.998171347367e+01 0.0 
1.998171347367e+01 -2.718224340119e+02 0.0 
0.0 0.0 -1.163559473106e+02 
-2.218647248205e+01 7.281061471179e+00 0.0 
7.281061471179e+00 -5.201105949641e+01 0.0 
0.0 0.0 -2.185925959354e+01 
-1.105238857660e+02 9.096226144709e-01 0.0 
9.096226144709e-01 -2.547629224876e+02 0.0 
0.0 0.0 -1.091860424761e+02 
-1.557397049458e+02 1.222096345567e-01 0.0 
1.222096345567e-01 -3.695905570222e+02 0.0 
0.0 0.0 -1.571990785904e+02 
-5.221676613797e+01 6.459848538387e-01 0.0 
6.459848538387e-01 -1.011813466599e+02 0.0 
0.0 0.0 -4.561943383935e+01 
-7.284820709152e+01 2.348099787654e-01 0.0 
2.348099787654e-01 -1.518069453965e+02 0.0 
0.0 0.0 -6.699654574642e+01 
-7.680790067485e+01 -6.544530040026e-01 0.0 
-6.544530040026e-01 -2.042878231439e+02 0.0 
0.0 0.0 -8.392871714561e+01 
-7.966923566215e+01 4.103357338781e-01 0.0 
4.103357338781e-01 -2.105574501553e+02 0.0 
0.0 0.0 -8.666800574523e+01 
-8.198349582034e+01 2.044925110179e-01 0.0 
2.044925110179e-01 -2.173495912662e+02 0.0 
0.0 0.0 -8.939992612595e+01 
-1.268727537858e+02 1.488952298324e+01 0.0 
1.488952298324e+01 -3.162056358197e+02 0.0 
0.0 0.0 -1.325235168817e+02 
-2.276841350955e+01 -2.770497196802e+00 0.0 
-2.770497196802e+00 -5.632217706257e+01 0.0 
0.0 0.0 -2.332717717164e+01 
-1.225435744157e+02 2.226206379298e+01 0.0 
2.226206379298e+01 -2.805906526369e+02 0.0 
0.0 0.0 -1.205402681158e+02 
-5.900758129473e+01 -8.104991356700e-02 0.0 
-8.104991356700e-02 -1.179614969500e+02 0.0 
0.0 0.0 -5.269072347341e+01 
-1.155019292300e+02 9.834695502869e+00 0.0 
9.834695502869e+00 -2.589175040197e+02 0.0 
0.0 0.0 -1.119258299749e+02 
-1.282991224874e+02 1.557680842895e+01 0.0 
1.557680842895e+01 -3.166900105774e+02 0.0 
0.0 0.0 -1.330967399194e+02 
-6.839715297177e+01 8.417780660093e-01 0.0 
8.417780660093e-01 -1.386856427159e+02 0.0 
0.0 0.0 -6.172483870629e+01 
-1.152728187575e+02 1.805248962296e+01 0.0 
1.805248962296e+01 -2.583223116659e+02 0.0 
0.0 0.0 -1.116785391270e+02 
-1.296387111970e+02 1.951597030059e+01 0.0 
1.951597030059e+01 -3.135487522022e+02 0.0 
0.0 0.0 -1.325562390198e+02 
-1.358626660360e+02 2.216586639057e+01 0.0 
2.216586639057e+01 -3.254542349020e+02 0.0 
0.0 0.0 -1.379950702814e+02 
-1.738410138734e+01 7.413537770805e+00 0.0 
7.413537770805e+00 -1.801905874047e+01 0.0 
0.0 0.0 -1.043498089940e+01 
-1.167779532246e+02 1.956786660171e+01 0.0 
1.956786660171e+01 -2.592040466702e+02 0.0 
0.0 0.0 -1.123945999684e+02 
-1.204838516837e+02 1.944218172640e+01 0.0 
1.944218172640e+01 -2.725490043000e+02 0.0 
0.0 0.0 -1.175098567951e+02 
-1.654073122294e+01 -7.657121601140e-01 0.0 
-7.657121601140e-01 -3.825273837183e+01 0.0 
0.0 0.0 -1.603804087843e+01 
-7.280790219137e+01 2.893651960198e-01 0.0 
2.893651960198e-01 -1.944124373735e+02 0.0 
0.0 0.0 -7.976610186945e+01 
-1.801843835514e+01 5.720417022582e+00 0.0 
5.720417022582e+00 -1.689363984361e+01 0.0 
0.0 0.0 -1.007362345963e+01 
-1.209299788262e+02 2.002735494083e+01 0.0 
2.002735494083e+01 -2.694762632118e+02 0.0 
0.0 0.0 -1.167218726114e+02 
-1.407133394095e+01 4.466379855198e-01 0.0 
4.466379855198e-01 -1.146439365789e+01 0.0 
0.0 0.0 -7.260718279653e+00 
-1.303404705689e+01 -1.192291838902e-01 0.0 
-1.192291838902e-01 -9.761358834119e+00 0.0 
0.0 0.0 -6.438621767303e+00 
-1.324340106518e+01 7.663360395884e-02 0.0 
7.663360395884e-02 -9.822643859789e+00 0.0 
0.0 0.0 -6.519813477492e+00 
-1.299548517986e+01 -1.588825351906e-04 0.0 
-1.588825351906e-04 -9.669355276584e+00 0.0 
0.0 0.0 -6.399452136934e+00 
-1.312139708516e+01 -2.529453163557e-02 0.0 
-2.529453163557e-02 -9.728137184146e+00 0.0 
0.0 0.0 -6.454860280791e+00 
-1.296479517219e+01 -5.880872981733e-02 0.0 
-5.880872981733e-02 -9.687627674385e+00 0.0 
0.0 0.0 -6.395726853974e+00 
-1.301210237166e+01 -8.119601385835e-02 0.0 
-8.119601385835e-02 -9.713938242892e+00 0.0 
0.0 0.0 -6.417812184364e+00 
-1.281839914582e+01 -1.144164482280e-01 0.0 
-1.144164482280e-01 -9.687500703402e+00 0.0 
0.0 0.0 -6.351769954768e+00 
-1.289299955154e+01 -1.163995692359e-01 0.0 
-1.163995692359e-01 -9.719227387487e+00 0.0 
0.0 0.0 -6.383668081708e+00 
-1.257977088630e+01 -1.668285821799e-01 0.0 
-1.668285821799e-01 -9.675186985806e+00 0.0 
0.0 0.0 -6.276487361632e+00 
-1.274581908849e+01 -1.444430714164e-01 0.0 
-1.444430714164e-01 -9.733583737697e+00 0.0 
0.0 0.0 -6.343820847856e+00 
-1.225885441305e+01 -2.187439073076e-01 0.0 
-2.187439073076e-01 -9.659609101596e+00 0.0 
0.0 0.0 -6.175539054394e+00 
-1.256792789102e+01 -1.630962313657e-01 0.0 
-1.630962313657e-01 -9.756045680475e+00 0.0 
0.0 0.0 -6.297192071449e+00 
-1.186583431099e+01 -2.676877648285e-01 0.0 
-2.676877648285e-01 -9.631170476473e+00 0.0 
0.0 0.0 -6.049101436238e+00 
-1.237330920419e+01 -1.834459390581e-01 0.0 
-1.834459390581e-01 -9.782822279783e+00 0.0 
0.0 0.0 -6.246839445192e+00 
-1.140030670350e+01 -3.223004669182e-01 0.0 
-3.223004669182e-01 -9.594218640169e+00 0.0 
0.0 0.0 -5.898357603101e+00 
-1.216824580681e+01 3.475740541418e+00 0.0 
3.475740541418e+00 -1.247198628364e+01 0.0 
0.0 0.0 -6.992069627136e+00 
-1.216554814112e+01 -2.098051065686e-01 0.0 
-2.098051065686e-01 -9.815930825249e+00 0.0 
0.0 0.0 -6.194443689911e+00 
-1.085022080586e+01 -3.829722275629e-01 0.0 
-3.829722275629e-01 -9.559104954792e+00 0.0 
0.0 0.0 -5.722797728197e+00 
-5.174538414210e+00 3.362040445645e-01 0.0 
3.362040445645e-01 -5.431169915775e+00 0.0 
0.0 0.0 -2.781712498996e+00 
-1.192125733500e+01 -2.376658067645e-01 0.0 
-2.376658067645e-01 -9.855324991917e+00 0.0 
0.0 0.0 -6.132974698076e+00 
-1.020945016574e+01 -4.429720286244e-01 0.0 
-4.429720286244e-01 -9.520834966432e+00 0.0 
0.0 0.0 -5.519085539651e+00 
-1.712590138292e+01 1.934382584950e+00 0.0 
1.934382584950e+00 -1.099734466846e+01 0.0 
0.0 0.0 -8.036973815414e+00 
-1.167907583152e+01 -2.577197281235e-01 0.0 
-2.577197281235e-01 -9.906477673327e+00 0.0 
0.0 0.0 -6.075666051455e+00 
-9.488251183338e+00 -4.958917557395e-01 0.0 
-4.958917557395e-01 -9.473863968885e+00 0.0 
0.0 0.0 -5.288634545667e+00 
-1.146906804980e+01 -2.698749685364e-01 0.0 
-2.698749685364e-01 -9.969916755210e+00 0.0 
0.0 0.0 -6.031695441504e+00 
-8.702554404089e+00 -5.398290950694e-01 0.0 
-5.398290950694e-01 -9.415966295396e+00 0.0 
0.0 0.0 -5.035556209846e+00 
-1.131118833293e+01 -2.782600589801e-01 0.0 
-2.782600589801e-01 -1.004395759329e+01 0.0 
0.0 0.0 -6.006543777867e+00 
-7.862587419344e+00 -5.836536801482e-01 0.0 
-5.836536801482e-01 -9.325827177021e+00 0.0 
0.0 0.0 -4.756524378909e+00 
-2.148689830539e+01 6.381511592816e+00 0.0 
6.381511592816e+00 -1.281603635222e+01 0.0 
0.0 0.0 -9.890880397283e+00 
-1.128143156800e+01 -3.073993903696e-01 0.0 
-3.073993903696e-01 -1.013865696400e+01 0.0 
0.0 0.0 -6.026026559601e+00 
-6.957708427067e+00 -6.021058521342e-01 0.0 
-6.021058521342e-01 -9.309518994524e+00 0.0 
0.0 0.0 -4.480168226477e+00 
-1.132875931308e+01 -2.542477264627e-01 0.0 
-2.542477264627e-01 -1.025225928935e+01 0.0 
0.0 0.0 -6.074305580729e+00 
-6.108410127439e+00 -5.627265217870e-01 0.0 
-5.627265217870e-01 -9.203692878866e+00 0.0 
0.0 0.0 -4.193630901891e+00 
-5.405779223410e+00 -3.788668430975e-01 0.0 
-3.788668430975e-01 -9.352115853243e+00 0.0 
0.0 0.0 -4.027368522996e+00 
-1.177407521678e+01 -2.092067513959e-01 0.0 
-2.092067513959e-01 -1.040358432170e+01 0.0 
0.0 0.0 -6.253297861544e+00 
-5.318447253427e+00 -2.657266846387e-02 0.0 
-2.657266846387e-02 -9.208152160034e+00 0.0 
0.0 0.0 -3.957979824038e+00 
-1.243948153987e+01 1.461273493670e-01 0.0 
1.461273493670e-01 -1.055144521733e+01 0.0 
0.0 0.0 -6.497278027159e+00 
-6.126027187342e+00 8.679058786971e-01 0.0 
8.679058786971e-01 -1.012828584523e+01 0.0 
0.0 0.0 -4.476293909770e+00 
-1.406546922698e+01 4.204508812405e-01 0.0 
4.204508812405e-01 -1.074416316162e+01 0.0 
0.0 0.0 -7.042889716580e+00 
-1.437587873289e+01 1.698628833760e+00 0.0 
1.698628833760e+00 -1.700832734476e-01 0.0 
0.0 0.0 -3.963788601903e+00 
-1.430127033192e+01 1.491684932087e+00 0.0 
1.491684932087e+00 -9.452516416605e+00 0.0 
0.0 0.0 -6.726136024556e+00 
-1.395081740425e+01 -1.293997364317e+00 0.0 
-1.293997364317e+00 -1.153716962633e+01 0.0 
0.0 0.0 -7.246396109174e+00 
-1.229535289021e+01 2.303077909162e-01 0.0 
2.303077909162e-01 -5.290038260370e+00 0.0 
0.0 0.0 -4.875617345175e+00 
-1.585372852266e+01 -9.004636170493e-02 0.0 
-9.004636170493e-02 -1.552043766493e+01 0.0 
0.0 0.0 -9.012249856277e+00 
-1.929089652637e+01 6.858537388608e+00 0.0 
6.858537388608e+00 -9.408940519969e+00 0.0 
0.0 0.0 -8.209951113902e+00 
-2.102349529724e+01 2.117887472760e-01 0.0 
2.117887472760e-01 -2.768610348922e+01 0.0 
0.0 0.0 -1.421287963594e+01 
-2.167003295152e+01 -2.663609992676e-01 0.0 
-2.663609992676e-01 -2.930286680110e+01 0.0 
0.0 0.0 -1.489186992579e+01 
-2.159169942376e+01 -3.874553432680e-02 0.0 
-3.874553432680e-02 -2.930200669647e+01 0.0 
0.0 0.0 -1.486811183607e+01 
-2.174529680153e+01 -9.774707112457e-02 0.0 
-9.774707112457e-02 -2.944465285907e+01 0.0 
0.0 0.0 -1.495698489818e+01 
-2.153092770905e+01 -1.135373641178e-01 0.0 
-1.135373641178e-01 -2.935037530656e+01 0.0 
0.0 0.0 -1.486439090468e+01 
-2.171775202800e+01 -1.760919170626e-01 0.0 
-1.760919170626e-01 -2.948760966574e+01 0.0 
0.0 0.0 -1.496160850812e+01 
-2.143622649012e+01 -1.727326227262e-01 0.0 
-1.727326227262e-01 -2.937022785263e+01 0.0 
0.0 0.0 -1.484193630282e+01 
-2.172745671104e+01 -2.527286634482e-01 0.0 
-2.527286634482e-01 -2.952178865745e+01 0.0 
0.0 0.0 -1.497477361055e+01 
-2.130796938815e+01 -2.339219762660e-01 0.0 
-2.339219762660e-01 -2.935415700625e+01 0.0 
0.0 0.0 -1.479863791832e+01 
-2.172296697279e+01 -3.399385618402e-01 0.0 
-3.399385618402e-01 -2.955041658707e+01 0.0 
0.0 0.0 -1.498201506796e+01 
-2.114656244569e+01 -2.908517077423e-01 0.0 
-2.908517077423e-01 -2.933531823785e+01 0.0 
0.0 0.0 -1.474456420506e+01 
-2.172407887783e+01 -4.282506239737e-01 0.0 
-4.282506239737e-01 -2.958705181916e+01 0.0 
0.0 0.0 -1.499333920910e+01 
-2.095345856459e+01 -3.375050644322e-01 0.0 
-3.375050644322e-01 -2.932228391880e+01 0.0 
0.0 0.0 -1.468272274502e+01 
-2.170252291972e+01 -4.977588952021e-01 0.0 
-4.977588952021e-01 -2.960878904610e+01 0.0 
0.0 0.0 -1.499339358975e+01 
-2.073600514609e+01 -3.789032670196e-01 0.0 
-3.789032670196e-01 -2.929577947756e+01 0.0 
0.0 0.0 -1.460953538710e+01 
-2.448942890973e+01 3.626002859952e+00 0.0 
3.626002859952e+00 -3.285039074868e+01 0.0 
0.0 0.0 -1.680194589753e+01 
-2.175750689605e+01 -5.714423442282e-01 0.0 
-5.714423442282e-01 -2.963322510008e+01 0.0 
0.0 0.0 -1.501721959884e+01 
-2.716909858822e+01 1.772232641108e+00 0.0 
1.772232641108e+00 -3.090383545701e+01 0.0 
0.0 0.0 -1.702188021357e+01 
-2.048673564476e+01 -4.348680685812e-01 0.0 
-4.348680685812e-01 -2.923203500040e+01 0.0 
0.0 0.0 -1.451563119355e+01 
-2.177985524213e+01 -6.696678302091e-01 0.0 
-6.696678302091e-01 -2.966680145721e+01 0.0 
0.0 0.0 -1.503399700980e+01 
-2.022237083274e+01 -4.739704261257e-01 0.0 
-4.739704261257e-01 -2.922458981996e+01 0.0 
0.0 0.0 -1.443408819581e+01 
-2.182211821420e+01 -7.299877798710e-01 0.0 
-7.299877798710e-01 -2.970870612779e+01 0.0 
0.0 0.0 -1.505924730260e+01 
-1.996062457930e+01 -4.831995150219e-01 0.0 
-4.831995150219e-01 -2.923009141815e+01 0.0 
0.0 0.0 -1.435721479924e+01 
-2.196189532797e+01 -7.524470037504e-01 0.0 
-7.524470037504e-01 -2.975611644891e+01 0.0 
0.0 0.0 -1.511540353306e+01 
-2.069351910643e+01 1.978567215734e+00 0.0 
1.978567215734e+00 -2.620961288035e+01 0.0 
0.0 0.0 -1.367093959603e+01 
-1.972048879375e+01 -4.648103431597e-01 0.0 
-4.648103431597e-01 -2.922323182442e+01 0.0 
0.0 0.0 -1.428311618545e+01 
-2.217891926660e+01 -7.411265217402e-01 0.0 
-7.411265217402e-01 -2.980278635939e+01 0.0 
0.0 0.0 -1.519451168780e+01 
-1.953642899599e+01 -4.046623291014e-01 0.0 
-4.046623291014e-01 -2.923618580708e+01 0.0 
0.0 0.0 -1.423178444092e+01 
-2.248962701674e+01 -6.545355325996e-01 0.0 
-6.545355325996e-01 -2.982473575230e+01 0.0 
0.0 0.0 -1.529430883071e+01 
-1.946067181470e+01 -2.970815599630e-01 0.0 
-2.970815599630e-01 -2.922355087295e+01 0.0 
0.0 0.0 -1.420526680629e+01 
-2.314904882453e+01 -5.724866609894e-01 0.0 
-5.724866609894e-01 -2.998233502833e+01 0.0 
0.0 0.0 -1.553941515586e+01 
-1.957964200682e+01 -3.246855077961e-02 0.0 
-3.246855077961e-02 -2.950431890810e+01 0.0 
0.0 0.0 -1.432518827448e+01 
-2.360839264611e+01 -1.219080562595e-01 0.0 
-1.219080562595e-01 -3.001227066012e+01 0.0 
0.0 0.0 -1.568619899187e+01 
-2.511732960798e+01 3.686099221176e-01 0.0 
3.686099221176e-01 -3.043623777531e+01 0.0 
0.0 0.0 -1.626607021499e+01 
-2.004027041200e+01 4.550691659184e-01 0.0 
4.550691659184e-01 -2.969137311052e+01 0.0 
0.0 0.0 -1.451949305676e+01 
-2.932879271072e+01 4.262784076885e+00 0.0 
4.262784076885e+00 -3.384447096738e+01 0.0 
0.0 0.0 -1.855197910343e+01 
-2.107517960960e+01 1.395451692168e+00 0.0 
1.395451692168e+00 -3.070140738003e+01 0.0 
0.0 0.0 -1.513297609689e+01 
-2.433221682198e+01 2.482713122896e+00 0.0 
2.482713122896e+00 -2.355627006250e+01 0.0 
0.0 0.0 -1.396654606535e+01 
-2.131539251879e+01 1.425097554888e+00 0.0 
1.425097554888e+00 -2.991987717376e+01 0.0 
0.0 0.0 -1.497058090777e+01 
-2.166935407612e+01 -1.460799978185e+00 0.0 
-1.460799978185e+00 -2.784306786779e+01 0.0 
0.0 0.0 -1.445372658318e+01 
-2.362936172429e+01 1.170027181210e-01 0.0 
1.170027181210e-01 -3.403058697678e+01 0.0 
0.0 0.0 -1.689798461032e+01 
-1.944558834237e+01 -2.055782971919e-01 0.0 
-2.055782971919e-01 -2.390144391092e+01 0.0 
0.0 0.0 -1.260410967599e+01 
-2.402099830836e+01 5.044456375719e+00 0.0 
5.044456375719e+00 -2.708590416114e+01 0.0 
0.0 0.0 -1.493207074085e+01 
-3.068879612125e+01 2.458568994494e-01 0.0 
2.458568994494e-01 -5.078299026570e+01 0.0 
0.0 0.0 -2.404153591609e+01 
-3.008570299426e+01 -2.819976928087e-01 0.0 
-2.819976928087e-01 -4.893943023416e+01 0.0 
0.0 0.0 -2.330753996853e+01 
-3.015589839708e+01 -2.885961565261e-02 0.0 
-2.885961565261e-02 -4.892670800657e+01 0.0 
0.0 0.0 -2.332478192109e+01 
-3.000606765087e+01 -1.031556864317e-01 0.0 
-1.031556864317e-01 -4.871978484086e+01 0.0 
0.0 0.0 -2.321775574752e+01 
-3.015536887008e+01 -1.590007320302e-01 0.0 
-1.590007320302e-01 -4.879694473477e+01 0.0 
0.0 0.0 -2.328569408145e+01 
-2.998157183200e+01 -1.902878076862e-01 0.0 
-1.902878076862e-01 -4.876985587508e+01 0.0 
0.0 0.0 -2.322542831213e+01 
-3.019183077801e+01 -1.799576490605e-01 0.0 
-1.799576490605e-01 -4.885408399435e+01 0.0 
0.0 0.0 -2.331377443171e+01 
-2.995099913758e+01 -2.501743325383e-01 0.0 
-2.501743325383e-01 -4.871005431938e+01 0.0 
0.0 0.0 -2.319831603709e+01 
-3.036517950773e+01 -2.506443136447e-01 0.0 
-2.506443136447e-01 -4.888037911603e+01 0.0 
0.0 0.0 -2.337366758713e+01 
-2.993824614714e+01 -3.444687829956e-01 0.0 
-3.444687829956e-01 -4.871940132722e+01 0.0 
0.0 0.0 -2.319729424231e+01 
-3.044817660302e+01 -3.079563758160e-01 0.0 
-3.079563758160e-01 -4.890614553127e+01 0.0 
0.0 0.0 -2.340629664029e+01 
-2.991517644046e+01 -4.218469560146e-01 0.0 
-4.218469560146e-01 -4.869961279863e+01 0.0 
0.0 0.0 -2.318443677173e+01 
-3.064719477925e+01 -3.715593141866e-01 0.0 
-3.715593141866e-01 -4.895740866196e+01 0.0 
0.0 0.0 -2.348138103236e+01 
-3.479131772768e+01 2.969127773812e+00 0.0 
2.969127773812e+00 -5.249407999877e+01 0.0 
0.0 0.0 -2.578561931793e+01 
-2.990652548580e+01 -4.951491537430e-01 0.0 
-4.951491537430e-01 -4.875146170028e+01 0.0 
0.0 0.0 -2.319739615582e+01 
-3.079111904476e+01 -3.453338354133e-01 0.0 
-3.453338354133e-01 -4.898645881641e+01 0.0 
0.0 0.0 -2.353327335835e+01 
-3.171899134789e+01 1.699305392933e+00 0.0 
1.699305392933e+00 -4.584011516845e+01 0.0 
0.0 0.0 -2.286773195490e+01 
-2.989428887144e+01 -5.275460346329e-01 0.0 
-5.275460346329e-01 -4.861904970933e+01 0.0 
0.0 0.0 -2.315400157423e+01 
-3.107114829151e+01 -4.328329357097e-01 0.0 
-4.328329357097e-01 -4.898016896188e+01 0.0 
0.0 0.0 -2.361539517602e+01 
-3.654142991872e+01 1.572943029859e+00 0.0 
1.572943029859e+00 -5.061020684666e+01 0.0 
0.0 0.0 -2.574549102961e+01 
-2.992352616729e+01 -5.939509231075e-01 0.0 
-5.939509231075e-01 -4.866870028258e+01 0.0 
0.0 0.0 -2.317766793496e+01 
-3.132199582045e+01 -4.584560029229e-01 0.0 
-4.584560029229e-01 -4.904724219018e+01 0.0 
0.0 0.0 -2.371077140319e+01 
-2.998949234930e+01 -5.954885043432e-01 0.0 
-5.954885043432e-01 -4.876591244302e+01 0.0 
0.0 0.0 -2.322662143770e+01 
-3.169586375589e+01 -3.790575456358e-01 0.0 
-3.790575456358e-01 -4.913510585578e+01 0.0 
0.0 0.0 -2.384929088350e+01 
-3.012072834318e+01 -5.223034890937e-01 0.0 
-5.223034890937e-01 -4.879339348440e+01 0.0 
0.0 0.0 -2.327423654827e+01 
-3.862189617997e+01 3.232221499774e+00 0.0 
3.232221499774e+00 -5.353766084670e+01 0.0 
0.0 0.0 -2.724786710800e+01 
-3.222714748267e+01 -2.853158722110e-01 0.0 
-2.853158722110e-01 -4.921741073389e+01 0.0 
0.0 0.0 -2.403336746497e+01 
-3.036095605189e+01 -3.887302366795e-01 0.0 
-3.887302366795e-01 -4.889420552508e+01 0.0 
0.0 0.0 -2.337654847309e+01 
-3.076436651864e+01 -1.195666957273e-01 0.0 
-1.195666957273e-01 -4.913246125675e+01 0.0 
0.0 0.0 -2.356904833262e+01 
-3.280136450524e+01 -1.240937768532e-01 0.0 
-1.240937768532e-01 -4.932096188800e+01 0.0 
0.0 0.0 -2.423669791797e+01 
-3.135689936911e+01 2.912982785512e-01 0.0 
2.912982785512e-01 -4.913398629901e+01 0.0 
0.0 0.0 -2.374726570044e+01 
-3.340551010683e+01 2.719886123340e-01 0.0 
2.719886123340e-01 -4.937343013064e+01 0.0 
0.0 0.0 -2.443368207124e+01 
-3.237938785940e+01 1.020851235092e+00 0.0 
1.020851235092e+00 -5.047792615779e+01 0.0 
0.0 0.0 -2.445719420516e+01 
-3.473289825032e+01 4.125572115327e-01 0.0 
4.125572115327e-01 -4.982886627295e+01 0.0 
0.0 0.0 -2.496852935698e+01 
-3.426115301738e+01 2.236870991208e+00 0.0 
2.236870991208e+00 -4.393900797713e+01 0.0 
0.0 0.0 -2.306004829835e+01 
-3.051498373148e+01 1.395199953029e+00 0.0 
1.395199953029e+00 -4.852317243280e+01 0.0 
0.0 0.0 -2.331144684928e+01 
-3.014143164589e+01 -1.517466509436e+00 0.0 
-1.517466509436e+00 -5.069702555658e+01 0.0 
0.0 0.0 -2.385153716074e+01 
-2.810216136250e+01 7.631704269623e-02 0.0 
7.631704269623e-02 -4.446711946592e+01 0.0 
0.0 0.0 -2.137078424853e+01 
-3.245050306067e+01 -2.602583318134e-01 0.0 
-2.602583318134e-01 -5.455558716857e+01 0.0 
0.0 0.0 -2.570182706877e+01 
-3.374309155046e+01 3.741718919440e+00 0.0 
3.741718919440e+00 -4.624315236891e+01 0.0 
0.0 0.0 -2.359587317581e+01 
-3.774129141745e+01 3.849357293011e-01 0.0 
3.849357293011e-01 -6.723881262351e+01 0.0 
0.0 0.0 -3.109403121229e+01 
-3.855584142570e+01 -3.143056801438e-02 0.0 
-3.143056801438e-02 -6.844325397795e+01 0.0 
0.0 0.0 -3.169972862110e+01 
-3.851062629177e+01 -4.884342105985e-02 0.0 
-4.884342105985e-02 -6.842107309418e+01 0.0 
0.0 0.0 -3.167950981579e+01 
-3.843311425993e+01 -4.451852905009e-02 0.0 
-4.451852905009e-02 -6.845206618082e+01 0.0 
0.0 0.0 -3.166555413223e+01 
-3.860091056917e+01 -1.224018729257e-01 0.0 
-1.224018729257e-01 -6.850320869931e+01 0.0 
0.0 0.0 -3.173123578054e+01 
-3.863847533356e+01 -1.591320654181e-01 0.0 
-1.591320654181e-01 -6.862244321603e+01 0.0 
0.0 0.0 -3.177827556487e+01 
-3.868335000882e+01 -8.086958000065e-02 0.0 
-8.086958000065e-02 -6.866762886625e+01 0.0 
0.0 0.0 -3.180529366252e+01 
-3.892270881593e+01 -8.132860743287e-02 0.0 
-8.132860743287e-02 -6.856528429203e+01 0.0 
0.0 0.0 -3.184639793239e+01 
-3.875583671424e+01 -1.713122470317e-01 0.0 
-1.713122470317e-01 -6.845857926455e+01 0.0 
0.0 0.0 -3.176432479364e+01 
-3.905087962872e+01 -2.509175900871e-01 0.0 
-2.509175900871e-01 -6.861880557890e+01 0.0 
0.0 0.0 -3.190090556229e+01 
-3.888468305547e+01 -1.736868962155e-01 0.0 
-1.736868962155e-01 -6.859132725365e+01 0.0 
0.0 0.0 -3.184280309273e+01 
-3.929891603798e+01 -2.233117101948e-01 0.0 
-2.233117101948e-01 -6.863092770373e+01 0.0 
0.0 0.0 -3.197895312251e+01 
-4.409705386431e+01 2.740794647087e+00 0.0 
2.740794647087e+00 -7.205564365161e+01 0.0 
0.0 0.0 -3.444580925477e+01 
-3.904272303800e+01 -1.952453848780e-01 0.0 
-1.952453848780e-01 -6.854697459905e+01 0.0 
0.0 0.0 -3.187690929112e+01 
-4.453046735105e+01 1.219414741987e+00 0.0 
1.219414741987e+00 -7.007403069492e+01 0.0 
0.0 0.0 -3.398134941379e+01 
-3.992335832868e+01 -3.404915613768e-01 0.0 
-3.404915613768e-01 -6.878688709774e+01 0.0 
0.0 0.0 -3.221307362793e+01 
-3.920304690532e+01 -1.912586005910e-01 0.0 
-1.912586005910e-01 -6.861429049105e+01 0.0 
0.0 0.0 -3.194520121891e+01 
-3.985013482792e+01 -2.257024587153e-01 0.0 
-2.257024587153e-01 -6.861407122793e+01 0.0 
0.0 0.0 -3.213926181675e+01 
-3.942962813280e+01 -1.941049080588e-01 0.0 
-1.941049080588e-01 -6.848328859155e+01 0.0 
0.0 0.0 -3.197387501730e+01 
-4.034815984301e+01 -3.243867853329e-01 0.0 
-3.243867853329e-01 -6.873598317855e+01 0.0 
0.0 0.0 -3.232524290647e+01 
-3.975223949835e+01 -1.026355907739e-01 0.0 
-1.026355907739e-01 -6.871781077196e+01 0.0 
0.0 0.0 -3.214101508109e+01 
-4.100525818750e+01 -2.039135325745e-01 0.0 
-2.039135325745e-01 -6.891604714651e+01 0.0 
0.0 0.0 -3.257639160021e+01 
-4.146359638751e+01 1.598204288821e+00 0.0 
1.598204288821e+00 -6.553382859307e+01 0.0 
0.0 0.0 -3.169922749417e+01 
-4.016404080289e+01 6.826068154026e-02 0.0 
6.826068154026e-02 -6.889418563211e+01 0.0 
0.0 0.0 -3.231746793050e+01 
-4.165153036328e+01 3.267175972999e-02 0.0 
3.267175972999e-02 -6.899228946247e+01 0.0 
0.0 0.0 -3.279314594773e+01 
-4.068080382624e+01 2.786808204336e-01 0.0 
2.786808204336e-01 -6.894260886888e+01 0.0 
0.0 0.0 -3.248702380853e+01 
-4.247152395061e+01 2.245897612677e-01 0.0 
2.245897612677e-01 -6.915751279722e+01 0.0 
0.0 0.0 -3.308871102435e+01 
-4.340387185315e+01 5.727696380690e-01 0.0 
5.727696380690e-01 -6.948248196626e+01 0.0 
0.0 0.0 -3.346590614582e+01 
-4.134012682753e+01 5.918822516485e-01 0.0 
5.918822516485e-01 -6.924474063999e+01 0.0 
0.0 0.0 -3.277546024025e+01 
-4.219476287293e+01 1.153643995420e+00 0.0 
1.153643995420e+00 -6.988168658487e+01 0.0 
0.0 0.0 -3.322293483734e+01 
-4.733756728808e+01 2.596720131068e+00 0.0 
2.596720131068e+00 -7.328376754159e+01 0.0 
0.0 0.0 -3.578640044890e+01 
-4.322931084440e+01 1.900059286699e+00 0.0 
1.900059286699e+00 -6.399548685453e+01 0.0 
0.0 0.0 -3.176743930968e+01 
-3.784836521487e+01 1.273471691125e+00 0.0 
1.273471691125e+00 -6.854020096102e+01 0.0 
0.0 0.0 -3.151656985277e+01 
-3.807273957806e+01 -1.587416767486e+00 0.0 
-1.587416767486e+00 -6.721482231408e+01 0.0 
0.0 0.0 -3.118626856764e+01 
-3.999408601003e+01 -9.280753145920e-02 0.0 
-9.280753145920e-02 -7.304669543802e+01 0.0 
0.0 0.0 -3.351223443441e+01 
-3.602360245816e+01 -2.786899288237e-01 0.0 
-2.786899288237e-01 -6.289281909605e+01 0.0 
0.0 0.0 -2.927492646626e+01 
-4.294664790140e+01 3.087049150939e+00 0.0 
3.087049150939e+00 -6.555571547293e+01 0.0 
0.0 0.0 -3.215070901230e+01 

TENSORS element_materi_strain_total float
-6.147359563363e-04 1.655415419013e-03 0.0 
1.655415419013e-03 6.640725664405e-03 0.0 
0.0 0.0 0.0 
-6.234889331552e-04 1.337490900301e-03 0.0 
1.337490900301e-03 6.426134859081e-03 0.0 
0.0 0.0 0.0 
-2.104443583174e-04 1.468293995158e-03 0.0 
1.468293995158e-03 1.264271596727e-02 0.0 
0.0 0.0 0.0 
-1.881077132689e-04 1.118490247682e-04 0.0 
1.118490247682e-04 1.351412845717e-02 0.0 
0.0 0.0 0.0 
-6.758710534542e-04 9.857221131724e-05 0.0 
9.857221131724e-05 1.090313810826e-02 0.0 
0.0 0.0 0.0 
-2.642401246781e-04 5.002099847006e-04 0.0 
5.002099847006e-04 1.279457427932e-03 0.0 
0.0 0.0 0.0 
-6.210972677033e-04 8.416806705498e-05 0.0 
8.416806705498e-05 1.089479985837e-02 0.0 
0.0 0.0 0.0 
-5.555135322747e-04 1.619835025765e-03 0.0 
1.619835025765e-03 5.989312964012e-03 0.0 
0.0 0.0 0.0 
-6.706232800846e-04 9.398394249535e-06 0.0 
9.398394249535e-06 1.090291739275e-02 0.0 
0.0 0.0 0.0 
-1.821858088683e-04 2.562379199126e-04 0.0 
2.562379199126e-04 1.348165167020e-02 0.0 
0.0 0.0 0.0 
6.277492745961e-04 4.847526920739e-05 0.0 
4.847526920739e-05 4.918095514716e-03 0.0 
0.0 0.0 0.0 
-5.501557004457e-04 1.322388860876e-03 0.0 
1.322388860876e-03 5.614453796356e-03 0.0 
0.0 0.0 0.0 
2.231536510877e-04 1.540227834811e-04 0.0 
1.540227834811e-04 7.692409703922e-03 0.0 
0.0 0.0 0.0 
-8.091512257193e-04 2.579717080596e-04 0.0 
2.579717080596e-04 1.125231363630e-02 0.0 
0.0 0.0 0.0 
1.288495669083e-04 1.352663865595e-04 0.0 
1.352663865595e-04 7.929157854455e-03 0.0 
0.0 0.0 0.0 
-1.151247348681e-04 2.109688454288e-04 0.0 
2.109688454288e-04 1.364805561643e-02 0.0 
0.0 0.0 0.0 
-7.533888750743e-04 9.329376716533e-05 0.0 
9.329376716533e-05 1.081512616454e-02 0.0 
0.0 0.0 0.0 
-2.053478013577e-04 1.395834853024e-04 0.0 
1.395834853024e-04 1.189108562542e-03 0.0 
0.0 0.0 0.0 
1.932386646162e-04 -6.730032406021e-05 0.0 
-6.730032406021e-05 1.379452679594e-03 0.0 
0.0 0.0 0.0 
2.701957791640e-04 -7.499138522754e-06 0.0 
-7.499138522754e-06 1.422499967472e-03 0.0 
0.0 0.0 0.0 
-2.210680569235e-04 2.065957908288e-04 0.0 
2.065957908288e-04 1.349028081857e-02 0.0 
0.0 0.0 0.0 
-7.581674740080e-04 1.282491738041e-03 0.0 
1.282491738041e-03 7.737309833560e-03 0.0 
0.0 0.0 0.0 
-8.897078200014e-04 1.456081796679e-03 0.0 
1.456081796679e-03 8.132628948158e-03 0.0 
0.0 0.0 0.0 
3.960370971061e-04 1.105022057024e-03 0.0 
1.105022057024e-03 8.004156315608e-03 0.0 
0.0 0.0 0.0 
-8.591558159969e-04 4.584883316930e-04 0.0 
4.584883316930e-04 1.154601737485e-02 0.0 
0.0 0.0 0.0 
6.116863791104e-04 2.088440063228e-05 0.0 
2.088440063228e-05 5.227030103493e-03 0.0 
0.0 0.0 0.0 
-9.125541607637e-04 2.381903543686e-04 0.0 
2.381903543686e-04 1.042351895896e-02 0.0 
0.0 0.0 0.0 
3.591154831839e-05 2.011778548969e-03 0.0 
2.011778548969e-03 1.069279305934e-02 0.0 
0.0 0.0 0.0 
-9.755769456800e-04 4.629840086316e-04 0.0 
4.629840086316e-04 1.154584600614e-02 0.0 
0.0 0.0 0.0 
3.832456190638e-04 1.131537171468e-03 0.0 
1.131537171468e-03 8.140809547598e-03 0.0 
0.0 0.0 0.0 
-8.594707021514e-05 -1.114435104668e-04 0.0 
-1.114435104668e-04 1.227313248098e-03 0.0 
0.0 0.0 0.0 
-2.268712933003e-04 -1.178980332759e-04 0.0 
-1.178980332759e-04 4.969973604578e-04 0.0 
0.0 0.0 0.0 
-3.580023324622e-04 1.509249262297e-03 0.0 
1.509249262297e-03 1.272330855235e-02 0.0 
0.0 0.0 0.0 
4.624305108576e-04 7.204478176425e-06 0.0 
7.204478176425e-06 6.401891613553e-03 0.0 
0.0 0.0 0.0 
2.775624476776e-04 6.530221275451e-04 0.0 
6.530221275451e-04 7.888470395825e-03 0.0 
0.0 0.0 0.0 
1.351516992703e-04 5.275647336385e-04 0.0 
5.275647336385e-04 8.239381314407e-03 0.0 
0.0 0.0 0.0 
9.995958394304e-05 3.631317692553e-04 0.0 
3.631317692553e-04 8.229274534542e-03 0.0 
0.0 0.0 0.0 
2.993998340104e-04 1.637305017587e-03 0.0 
1.637305017587e-03 9.112670809921e-03 0.0 
0.0 0.0 0.0 
-6.236784118840e-04 -3.919069076524e-05 0.0 
-3.919069076524e-05 1.047493898796e-02 0.0 
0.0 0.0 0.0 
-5.998098345622e-04 6.244670813452e-05 0.0 
6.244670813452e-05 1.049143321732e-02 0.0 
0.0 0.0 0.0 
-1.106134851665e-03 1.050439819774e-03 0.0 
1.050439819774e-03 9.171174802285e-03 0.0 
0.0 0.0 0.0 
1.885059704323e-04 8.529775726812e-04 0.0 
8.529775726812e-04 8.148132966370e-03 0.0 
0.0 0.0 0.0 
-5.051492804079e-04 1.468412592230e-03 0.0 
1.468412592230e-03 4.421083207309e-03 0.0 
0.0 0.0 0.0 
-9.843967639346e-04 2.508544563895e-04 0.0 
2.508544563895e-04 1.047737505541e-02 0.0 
0.0 0.0 0.0 
-2.518440035191e-04 3.416399260681e-05 0.0 
3.416399260681e-05 1.331766799757e-02 0.0 
0.0 0.0 0.0 
-5.383944433701e-04 1.256777615279e-03 0.0 
1.256777615279e-03 4.401874120428e-03 0.0 
0.0 0.0 0.0 
-9.221679016469e-05 -1.708967891863e-04 0.0 
-1.708967891863e-04 8.457088463021e-04 0.0 
0.0 0.0 0.0 
-1.683509303780e-04 8.545680694372e-05 0.0 
8.545680694372e-05 1.334398946886e-02 0.0 
0.0 0.0 0.0 
-3.342123871108e-04 -1.374032582237e-04 0.0 
-1.374032582237e-04 5.657715439729e-04 0.0 
0.0 0.0 0.0 
-8.518608597992e-04 1.705957979131e-04 0.0 
1.705957979131e-04 1.108335032060e-02 0.0 
0.0 0.0 0.0 
-1.023773639662e-03 1.259625531657e-03 0.0 
1.259625531657e-03 8.681205184175e-03 0.0 
0.0 0.0 0.0 
2.787830732600e-04 -6.232297808729e-05 0.0 
-6.232297808729e-05 1.749473930723e-03 0.0 
0.0 0.0 0.0 
2.659540356469e-04 -1.539917671584e-04 0.0 
-1.539917671584e-04 1.648963514111e-03 0.0 
0.0 0.0 0.0 
-9.578640832867e-04 8.836879239056e-04 0.0 
8.836879239056e-04 8.936328025237e-03 0.0 
0.0 0.0 0.0 
-2.185321520819e-04 1.120321097679e-03 0.0 
1.120321097679e-03 1.315491392309e-02 0.0 
0.0 0.0 0.0 
4.053354501743e-04 -8.682990291549e-05 0.0 
-8.682990291549e-05 2.339331517947e-03 0.0 
0.0 0.0 0.0 
3.425294229593e-04 -1.543977766223e-06 0.0 
-1.543977766223e-06 1.806331551404e-03 0.0 
0.0 0.0 0.0 
4.774774076237e-04 7.801037738482e-05 0.0 
7.801037738482e-05 6.403837906791e-03 0.0 
0.0 0.0 0.0 
1.141669423108e-04 -8.717445981388e-05 0.0 
-8.717445981388e-05 1.044512474039e-03 0.0 
0.0 0.0 0.0 
-1.328765423093e-04 1.640868270465e-04 0.0 
1.640868270465e-04 1.364872396324e-02 0.0 
0.0 0.0 0.0 
-7.207448450810e-04 -1.343451781629e-04 0.0 
-1.343451781629e-04 6.648045908455e-04 0.0 
0.0 0.0 0.0 
2.543260235737e-04 1.806628775617e-03 0.0 
1.806628775617e-03 9.563617539572e-03 0.0 
0.0 0.0 0.0 
-3.170242150863e-05 1.678148355704e-03 0.0 
1.678148355704e-03 6.187625903259e-03 0.0 
0.0 0.0 0.0 
2.094555433878e-04 -3.580495034674e-05 0.0 
-3.580495034674e-05 1.401984834902e-03 0.0 
0.0 0.0 0.0 
2.184564697720e-04 1.942999348011e-04 0.0 
1.942999348011e-04 7.702880134790e-03 0.0 
0.0 0.0 0.0 
-9.159653076620e-04 1.067036285599e-03 0.0 
1.067036285599e-03 8.475668787766e-03 0.0 
0.0 0.0 0.0 
-4.649198687338e-04 -6.374441936509e-05 0.0 
-6.374441936509e-05 5.376509097188e-04 0.0 
0.0 0.0 0.0 
-3.704026875307e-04 1.587433466757e-03 0.0 
1.587433466757e-03 1.256508600305e-02 0.0 
0.0 0.0 0.0 
6.690489269934e-05 -2.871544501952e-04 0.0 
-2.871544501952e-04 1.190622802802e-03 0.0 
0.0 0.0 0.0 
-1.029142971072e-04 1.811901484220e-03 0.0 
1.811901484220e-03 1.171980043529e-02 0.0 
0.0 0.0 0.0 
5.980202328697e-04 5.271743876429e-05 0.0 
5.271743876429e-05 5.475996801761e-03 0.0 
0.0 0.0 0.0 
0.0 7.211067051398e-04 0.0 
7.211067051398e-04 1.371812273496e-02 0.0 
0.0 0.0 0.0 
9.654820796401e-06 1.814533606507e-03 0.0 
1.814533606507e-03 1.039402281371e-02 0.0 
0.0 0.0 0.0 
6.257475473981e-05 2.809875338014e-05 0.0 
2.809875338014e-05 4.741196860192e-04 0.0 
0.0 0.0 0.0 
4.542649244554e-04 -1.534457303081e-05 0.0 
-1.534457303081e-05 2.442318667069e-03 0.0 
0.0 0.0 0.0 
-2.649287732337e-04 5.047841896866e-04 0.0 
5.047841896866e-04 1.348640994986e-02 0.0 
0.0 0.0 0.0 
-3.799111093834e-04 1.223557485542e-03 0.0 
1.223557485542e-03 1.308915300959e-02 0.0 
0.0 0.0 0.0 
-4.882614106927e-04 1.045618956746e-03 0.0 
1.045618956746e-03 3.089351674853e-03 0.0 
0.0 0.0 0.0 
1.834559855693e-04 -1.101224805080e-04 0.0 
-1.101224805080e-04 1.041265545928e-03 0.0 
0.0 0.0 0.0 
-5.352379602690e-04 1.353865841757e-03 0.0 
1.353865841757e-03 3.102435597242e-03 0.0 
0.0 0.0 0.0 
9.581939149461e-05 -1.595414614541e-04 0.0 
-1.595414614541e-04 1.170799026717e-03 0.0 
0.0 0.0 0.0 
-7.374227211049e-04 8.487906979299e-05 0.0 
8.487906979299e-05 1.081955662655e-02 0.0 
0.0 0.0 0.0 
-7.996982730796e-04 1.552017679687e-03 0.0 
1.552017679687e-03 7.486132846057e-03 0.0 
0.0 0.0 0.0 
-7.025931752999e-04 1.303471055329e-03 0.0 
1.303471055329e-03 7.074255474457e-03 0.0 
0.0 0.0 0.0 
-7.089466115356e-04 5.112224485858e-05 0.0 
5.112224485858e-05 1.112753088433e-02 0.0 
0.0 0.0 0.0 
-6.430523514750e-04 1.082021925925e-04 0.0 
1.082021925925e-04 1.112694867959e-02 0.0 
0.0 0.0 0.0 
5.631141511535e-04 2.704935759965e-05 0.0 
2.704935759965e-05 5.674769849134e-03 0.0 
0.0 0.0 0.0 
5.066827883331e-04 3.753853801489e-05 0.0 
3.753853801489e-05 6.194555713985e-03 0.0 
0.0 0.0 0.0 
-7.185990671060e-04 1.347627707652e-03 0.0 
1.347627707652e-03 1.167488283722e-02 0.0 
0.0 0.0 0.0 
-7.304091016009e-04 3.498111373437e-05 0.0 
3.498111373437e-05 1.088966407196e-02 0.0 
0.0 0.0 0.0 
-1.456479218019e-04 -1.164997687285e-04 0.0 
-1.164997687285e-04 4.715693852011e-04 0.0 
0.0 0.0 0.0 
-9.888843313702e-04 3.244833048058e-04 0.0 
3.244833048058e-04 1.083915357058e-02 0.0 
0.0 0.0 0.0 
-3.958759178094e-04 4.005363301128e-05 0.0 
4.005363301128e-05 1.245266673200e-02 0.0 
0.0 0.0 0.0 
-4.396620387687e-04 9.336912538826e-05 0.0 
9.336912538826e-05 1.238833949374e-02 0.0 
0.0 0.0 0.0 
-1.835371406788e-04 7.937474563198e-04 0.0 
7.937474563198e-04 1.369531591636e-02 0.0 
0.0 0.0 0.0 
1.014282103040e-04 1.706950506435e-03 0.0 
1.706950506435e-03 9.576375309046e-03 0.0 
0.0 0.0 0.0 
-7.994621386764e-04 8.965331194312e-05 0.0 
8.965331194312e-05 1.082134948560e-02 0.0 
0.0 0.0 0.0 
3.047447854834e-04 8.370963398400e-04 0.0 
8.370963398400e-04 8.122361177630e-03 0.0 
0.0 0.0 0.0 
-5.173300795785e-04 -9.922627570183e-06 0.0 
-9.922627570183e-06 1.148520215549e-02 0.0 
0.0 0.0 0.0 
-2.630341193900e-04 1.658657015768e-03 0.0 
1.658657015768e-03 6.550521121305e-03 0.0 
0.0 0.0 0.0 
-6.909659012446e-04 1.983537919975e-05 0.0 
1.983537919975e-05 1.069548826034e-02 0.0 
0.0 0.0 0.0 
1.439262702430e-04 2.126643485574e-04 0.0 
2.126643485574e-04 7.924304047120e-03 0.0 
0.0 0.0 0.0 
4.043434374612e-04 1.486076246364e-03 0.0 
1.486076246364e-03 8.169652248089e-03 0.0 
0.0 0.0 0.0 
1.653209787735e-04 1.733449391346e-03 0.0 
1.733449391346e-03 9.575819204166e-03 0.0 
0.0 0.0 0.0 
1.573811767437e-04 1.341185205417e-03 0.0 
1.341185205417e-03 4.858569262894e-03 0.0 
0.0 0.0 0.0 
-3.348352052673e-04 -1.541359253028e-04 0.0 
-1.541359253028e-04 9.456043024818e-04 0.0 
0.0 0.0 0.0 
3.267014037920e-04 6.325933464474e-05 0.0 
6.325933464474e-05 7.159280654203e-03 0.0 
0.0 0.0 0.0 
-3.830347040236e-04 1.028249332300e-04 0.0 
1.028249332300e-04 1.274645317140e-02 0.0 
0.0 0.0 0.0 
-6.315542654934e-04 -1.437904698798e-04 0.0 
-1.437904698798e-04 6.727960728798e-04 0.0 
0.0 0.0 0.0 
1.433345627850e-04 3.384246840890e-04 0.0 
3.384246840890e-04 7.892132319980e-03 0.0 
0.0 0.0 0.0 
-6.454658349732e-04 1.352492775612e-03 0.0 
1.352492775612e-03 1.130915746694e-02 0.0 
0.0 0.0 0.0 
3.268148451441e-05 -5.377897694007e-05 0.0 
-5.377897694007e-05 2.983787552784e-04 0.0 
0.0 0.0 0.0 
4.858722519658e-04 1.480879760879e-03 0.0 
1.480879760879e-03 5.483788447949e-03 0.0 
0.0 0.0 0.0 
-1.118991091237e-03 5.355757427160e-04 0.0 
5.355757427160e-04 1.030008284697e-02 0.0 
0.0 0.0 0.0 
5.631609713272e-04 -6.390210528738e-05 0.0 
-6.390210528738e-05 2.994403930834e-03 0.0 
0.0 0.0 0.0 
-1.092236481776e-04 1.595845456213e-03 0.0 
1.595845456213e-03 5.798886156631e-03 0.0 
0.0 0.0 0.0 
-6.824746769030e-05 1.575992713693e-03 0.0 
1.575992713693e-03 6.195331773554e-03 0.0 
0.0 0.0 0.0 
1.909985128039e-04 6.523255224616e-04 0.0 
6.523255224616e-04 8.039626019701e-03 0.0 
0.0 0.0 0.0 
-5.318146056046e-04 4.938419649371e-05 0.0 
4.938419649371e-05 1.135348052608e-02 0.0 
0.0 0.0 0.0 
1.217296992684e-04 1.626576475838e-03 0.0 
1.626576475838e-03 5.496991105284e-03 0.0 
0.0 0.0 0.0 
5.622477159228e-05 -2.661923502432e-04 0.0 
-2.661923502432e-04 1.125691687095e-03 0.0 
0.0 0.0 0.0 
-9.686647894938e-04 3.818039645066e-04 0.0 
3.818039645066e-04 1.073156103878e-02 0.0 
0.0 0.0 0.0 
-3.147452171491e-04 5.885410599694e-05 0.0 
5.885410599694e-05 1.277211497353e-02 0.0 
0.0 0.0 0.0 
5.286613231714e-05 1.454708653892e-03 0.0 
1.454708653892e-03 5.505287256480e-03 0.0 
0.0 0.0 0.0 
-4.801362036198e-04 7.293077781201e-04 0.0 
7.293077781201e-04 1.864618130424e-03 0.0 
0.0 0.0 0.0 
-1.141647266796e-03 7.214539679780e-04 0.0 
7.214539679780e-04 9.766920694024e-03 0.0 
0.0 0.0 0.0 
5.062804084819e-04 -3.287108338900e-05 0.0 
-3.287108338900e-05 2.979737977435e-03 0.0 
0.0 0.0 0.0 
-1.008451609750e-03 6.016618235437e-04 0.0 
6.016618235437e-04 9.585061330732e-03 0.0 
0.0 0.0 0.0 
-1.490902224485e-04 6.238215111071e-04 0.0 
6.238215111071e-04 1.357561286045e-02 0.0 
0.0 0.0 0.0 
-2.598911221477e-04 8.781113865304e-04 0.0 
8.781113865304e-04 1.796622322988e-03 0.0 
0.0 0.0 0.0 
6.228769026462e-04 7.947410808218e-05 0.0 
7.947410808218e-05 5.197792833210e-03 0.0 
0.0 0.0 0.0 
-1.710256014854e-04 1.596497473216e-04 0.0 
1.596497473216e-04 1.351554694225e-02 0.0 
0.0 0.0 0.0 
-6.165282458930e-04 1.569295742399e-03 0.0 
1.569295742399e-03 8.273357714397e-03 0.0 
0.0 0.0 0.0 
-1.139235962481e-03 8.490314249475e-04 0.0 
8.490314249475e-04 9.486232952596e-03 0.0 
0.0 0.0 0.0 
3.309878629678e-04 7.539904774839e-04 0.0 
7.539904774839e-04 7.890494101419e-03 0.0 
0.0 0.0 0.0 
2.088664013491e-04 5.823480306497e-05 0.0 
5.823480306497e-05 7.710819550682e-03 0.0 
0.0 0.0 0.0 
5.788514163976e-04 9.592356074166e-05 0.0 
9.592356074166e-05 5.676632085581e-03 0.0 
0.0 0.0 0.0 
-7.334511010080e-04 1.561971932444e-03 0.0 
1.561971932444e-03 8.865625046802e-03 0.0 
0.0 0.0 0.0 
3.302221323460e-04 1.135460885309e-03 0.0 
1.135460885309e-03 8.416344200146e-03 0.0 
0.0 0.0 0.0 
-8.084986280983e-04 1.389844550517e-03 0.0 
1.389844550517e-03 8.625779648347e-03 0.0 
0.0 0.0 0.0 
-1.293803835742e-04 3.969130019767e-04 0.0 
3.969130019767e-04 1.357142520449e-02 0.0 
0.0 0.0 0.0 
-1.827216309346e-04 1.904022669600e-03 0.0 
1.904022669600e-03 1.183641500133e-02 0.0 
0.0 0.0 0.0 
-9.003190328415e-04 2.336702020630e-04 0.0 
2.336702020630e-04 1.124838207354e-02 0.0 
0.0 0.0 0.0 
-4.963833560899e-04 1.294379030370e-04 0.0 
1.294379030370e-04 1.199021079270e-02 0.0 
0.0 0.0 0.0 
-7.841780908114e-04 1.557697335208e-03 0.0 
1.557697335208e-03 8.618714794495e-03 0.0 
0.0 0.0 0.0 
-9.978539897306e-04 7.094329103891e-04 0.0 
7.094329103891e-04 9.271809884941e-03 0.0 
0.0 0.0 0.0 
-5.770238044022e-04 1.580349131147e-03 0.0 
1.580349131147e-03 8.571781940124e-03 0.0 
0.0 0.0 0.0 
2.687813764615e-04 1.416294023230e-03 0.0 
1.416294023230e-03 5.283528758474e-03 0.0 
0.0 0.0 0.0 
-6.398632713189e-04 1.333679153153e-06 0.0 
1.333679153153e-06 1.074068988706e-02 0.0 
0.0 0.0 0.0 
4.576118990098e-04 1.326087770930e-03 0.0 
1.326087770930e-03 5.502871161510e-03 0.0 
0.0 0.0 0.0 
-9.031944177473e-05 -1.457706303525e-04 0.0 
-1.457706303525e-04 4.387252205056e-04 0.0 
0.0 0.0 0.0 
-5.665484917495e-04 1.088563819155e-05 0.0 
1.088563819155e-05 1.103534770678e-02 0.0 
0.0 0.0 0.0 
1.897369336947e-04 -3.329113638914e-05 0.0 
-3.329113638914e-05 1.050281330051e-03 0.0 
0.0 0.0 0.0 
-1.131360616879e-03 6.165730986927e-04 0.0 
6.165730986927e-04 1.003058774254e-02 0.0 
0.0 0.0 0.0 
1.891845443232e-04 1.037806342661e-03 0.0 
1.037806342661e-03 8.351469159529e-03 0.0 
0.0 0.0 0.0 
2.174414181635e-04 1.534273473857e-03 0.0 
1.534273473857e-03 4.844219607621e-03 0.0 
0.0 0.0 0.0 
5.458265982348e-04 7.413606875704e-05 0.0 
7.413606875704e-05 5.920526181045e-03 0.0 
0.0 0.0 0.0 
-5.790462036159e-04 1.317073519561e-03 0.0 
1.317073519561e-03 5.100198915377e-03 0.0 
0.0 0.0 0.0 
4.575885590308e-04 1.589768565424e-03 0.0 
1.589768565424e-03 8.160168619399e-03 0.0 
0.0 0.0 0.0 
-5.848153142290e-04 1.521332248065e-05 0.0 
1.521332248065e-05 1.076235309188e-02 0.0 
0.0 0.0 0.0 
6.006014833841e-04 1.358123976596e-03 0.0 
1.358123976596e-03 4.885428686907e-03 0.0 
0.0 0.0 0.0 
4.268553199729e-04 5.004543707076e-05 0.0 
5.004543707076e-05 6.647777121646e-03 0.0 
0.0 0.0 0.0 
8.801174477280e-05 -1.648324497931e-04 0.0 
-1.648324497931e-04 1.106256236604e-03 0.0 
0.0 0.0 0.0 
3.432516813908e-04 1.451783681242e-04 0.0 
1.451783681242e-04 7.150577718506e-03 0.0 
0.0 0.0 0.0 
-1.030123296812e-03 8.268394417208e-04 0.0 
8.268394417208e-04 1.032166707213e-02 0.0 
0.0 0.0 0.0 
2.400497142536e-04 3.278006674501e-04 0.0 
3.278006674501e-04 7.866688449351e-03 0.0 
0.0 0.0 0.0 
-5.657644840659e-04 9.101283617431e-06 0.0 
9.101283617431e-06 1.072873210330e-02 0.0 
0.0 0.0 0.0 
3.816572552939e-04 1.397360827249e-03 0.0 
1.397360827249e-03 4.601707749719e-03 0.0 
0.0 0.0 0.0 
-1.012746982756e-03 4.586133018810e-04 0.0 
4.586133018810e-04 1.008723312648e-02 0.0 
0.0 0.0 0.0 
6.154716667819e-04 -1.948297133283e-06 0.0 
-1.948297133283e-06 4.951720608779e-03 0.0 
0.0 0.0 0.0 
-5.688408182352e-04 1.581508456898e-03 0.0 
1.581508456898e-03 5.173908561316e-03 0.0 
0.0 0.0 0.0 
5.510838423985e-04 1.168578829804e-03 0.0 
1.168578829804e-03 4.911350088676e-03 0.0 
0.0 0.0 0.0 
-4.889143583962e-04 6.204160574994e-05 0.0 
6.204160574994e-05 1.219433390331e-02 0.0 
0.0 0.0 0.0 
-5.989825685309e-04 3.777649382468e-05 0.0 
3.777649382468e-05 1.074005716623e-02 0.0 
0.0 0.0 0.0 
4.479349433932e-04 1.436960147588e-03 0.0 
1.436960147588e-03 5.025601977304e-03 0.0 
0.0 0.0 0.0 
-1.026289069937e-03 5.138082303125e-04 0.0 
5.138082303125e-04 9.844112412348e-03 0.0 
0.0 0.0 0.0 
-3.074970549336e-04 1.677422642002e-03 0.0 
1.677422642002e-03 1.099993003981e-02 0.0 
0.0 0.0 0.0 
5.637595290764e-04 -4.022601235629e-05 0.0 
-4.022601235629e-05 3.345545161902e-03 0.0 
0.0 0.0 0.0 
5.553986248197e-05 1.902661091982e-03 0.0 
1.902661091982e-03 1.054316048572e-02 0.0 
0.0 0.0 0.0 
-1.730751907909e-04 1.944869564785e-03 0.0 
1.944869564785e-03 1.159653075280e-02 0.0 
0.0 0.0 0.0 
-3.787958999723e-04 1.587167465199e-03 0.0 
1.587167465199e-03 6.241379994511e-03 0.0 
0.0 0.0 0.0 
6.078878173039e-04 -1.687454031164e-05 0.0 
-1.687454031164e-05 3.357453598997e-03 0.0 
0.0 0.0 0.0 
5.002981752666e-04 1.166827489175e-03 0.0 
1.166827489175e-03 7.797322758276e-03 0.0 
0.0 0.0 0.0 
-9.780452153704e-04 1.363006917257e-03 0.0 
1.363006917257e-03 8.949663226626e-03 0.0 
0.0 0.0 0.0 
-2.830026123846e-04 1.490652926596e-03 0.0 
1.490652926596e-03 5.468450842822e-03 0.0 
0.0 0.0 0.0 
-1.034563036341e-03 6.163445331222e-04 0.0 
6.163445331222e-04 1.034180144769e-02 0.0 
0.0 0.0 0.0 
3.259196325411e-04 1.461450576917e-03 0.0 
1.461450576917e-03 5.704719511856e-03 0.0 
0.0 0.0 0.0 
-1.219207927683e-04 3.002874311206e-04 0.0 
3.002874311206e-04 1.357703958445e-02 0.0 
0.0 0.0 0.0 
-7.133084514938e-04 1.168004921185e-03 0.0 
1.168004921185e-03 1.174371270813e-02 0.0 
0.0 0.0 0.0 
3.862470002429e-04 9.259210733428e-05 0.0 
9.259210733428e-05 6.901584997368e-03 0.0 
0.0 0.0 0.0 
-5.283014654837e-04 1.166521722354e-03 0.0 
1.166521722354e-03 3.742526765090e-03 0.0 
0.0 0.0 0.0 
6.165835950656e-04 9.965833705070e-04 0.0 
9.965833705070e-04 4.362779675221e-03 0.0 
0.0 0.0 0.0 
-6.237188516068e-04 1.312334111049e-03 0.0 
1.312334111049e-03 1.168237155488e-02 0.0 
0.0 0.0 0.0 
-8.947064247892e-04 2.533802450073e-04 0.0 
2.533802450073e-04 5.863726139244e-04 0.0 
0.0 0.0 0.0 
-9.480917239708e-04 1.112954012793e-03 0.0 
1.112954012793e-03 8.954430875081e-03 0.0 
0.0 0.0 0.0 
6.389909101727e-04 8.955186708675e-04 0.0 
8.955186708675e-04 6.972784221239e-03 0.0 
0.0 0.0 0.0 
2.216151523160e-05 -1.156300950479e-04 0.0 
-1.156300950479e-04 7.424079418850e-04 0.0 
0.0 0.0 0.0 
-3.098454409397e-04 1.323844323096e-03 0.0 
1.323844323096e-03 1.287802538753e-02 0.0 
0.0 0.0 0.0 
-8.596254763323e-04 7.287873522889e-04 0.0 
7.287873522889e-04 1.173789169456e-02 0.0 
0.0 0.0 0.0 
7.775993461916e-04 3.606597420082e-05 0.0 
3.606597420082e-05 3.187673433872e-03 0.0 
0.0 0.0 0.0 
7.301679100955e-04 1.012518980265e-03 0.0 
1.012518980265e-03 6.964723470617e-03 0.0 
0.0 0.0 0.0 
-9.978422697507e-04 4.382732020862e-04 0.0 
4.382732020862e-04 1.106237714730e-02 0.0 
0.0 0.0 0.0 
-9.372479465785e-04 3.659088989959e-04 0.0 
3.659088989959e-04 1.143645153972e-02 0.0 
0.0 0.0 0.0 
3.061191416311e-04 1.050719010249e-03 0.0 
1.050719010249e-03 8.121008977041e-03 0.0 
0.0 0.0 0.0 
5.368522299727e-04 -1.066557823591e-04 0.0 
-1.066557823591e-04 2.334062933015e-03 0.0 
0.0 0.0 0.0 
-3.765782675331e-04 1.661405461897e-03 0.0 
1.661405461897e-03 8.275198132490e-03 0.0 
0.0 0.0 0.0 
-9.800818074231e-04 1.034713553937e-03 0.0 
1.034713553937e-03 1.024204731029e-02 0.0 
0.0 0.0 0.0 
-9.146836901642e-04 7.217180877351e-04 0.0 
7.217180877351e-04 1.198810724389e-02 0.0 
0.0 0.0 0.0 
-1.118913625137e-03 8.459596201229e-04 0.0 
8.459596201229e-04 1.061935005833e-02 0.0 
0.0 0.0 0.0 
-1.144876158280e-03 7.407876690063e-04 0.0 
7.407876690063e-04 1.034250895962e-02 0.0 
0.0 0.0 0.0 
5.776657428636e-04 1.322557348858e-03 0.0 
1.322557348858e-03 7.174345634475e-03 0.0 
0.0 0.0 0.0 
-4.795633763663e-04 1.582129563570e-03 0.0 
1.582129563570e-03 1.110548496098e-02 0.0 
0.0 0.0 0.0 
-6.887507335389e-04 2.441820319693e-04 0.0 
2.441820319693e-04 8.599302367309e-04 0.0 
0.0 0.0 0.0 
-3.342672690922e-04 1.598186346950e-03 0.0 
1.598186346950e-03 6.242562059630e-03 0.0 
0.0 0.0 0.0 
-2.579581367522e-04 1.653479396653e-03 0.0 
1.653479396653e-03 6.551331136054e-03 0.0 
0.0 0.0 0.0 
-5.238368480127e-04 1.649188045424e-03 0.0 
1.649188045424e-03 8.562173368426e-03 0.0 
0.0 0.0 0.0 
-7.737436341591e-04 1.152798877109e-03 0.0 
1.152798877109e-03 1.205875302543e-02 0.0 
0.0 0.0 0.0 
1.653678733144e-04 4.889557676152e-04 0.0 
4.889557676152e-04 1.631000149161e-03 0.0 
0.0 0.0 0.0 
6.984285443272e-04 7.697570943157e-04 0.0 
7.697570943157e-04 6.578439996847e-03 0.0 
0.0 0.0 0.0 
-6.112133697452e-04 -1.855022535810e-05 0.0 
-1.855022535810e-05 1.071139752112e-02 0.0 
0.0 0.0 0.0 
6.759587777834e-04 1.203975037349e-03 0.0 
1.203975037349e-03 4.333281708577e-03 0.0 
0.0 0.0 0.0 
7.416438490215e-04 6.494048540276e-04 0.0 
6.494048540276e-04 6.210094760090e-03 0.0 
0.0 0.0 0.0 
-7.355633126460e-05 -1.500746646698e-04 0.0 
-1.500746646698e-04 5.176953991681e-04 0.0 
0.0 0.0 0.0 
-7.733680849297e-04 8.446504459035e-04 0.0 
8.446504459035e-04 1.204502637276e-02 0.0 
0.0 0.0 0.0 
-1.403789279366e-04 -6.556162996601e-05 0.0 
-6.556162996601e-05 4.109081604782e-04 0.0 
0.0 0.0 0.0 
1.014693703485e-04 -1.038041273852e-04 0.0 
-1.038041273852e-04 7.347352124507e-04 0.0 
0.0 0.0 0.0 
-4.923357982682e-04 1.422150552315e-03 0.0 
1.422150552315e-03 3.755436612586e-03 0.0 
0.0 0.0 0.0 
4.290179351369e-04 -1.440764728791e-04 0.0 
-1.440764728791e-04 1.960281472198e-03 0.0 
0.0 0.0 0.0 
-8.173583631265e-04 8.256550530066e-04 0.0 
8.256550530066e-04 1.229810909442e-02 0.0 
0.0 0.0 0.0 
3.321723015512e-04 -2.502123211738e-04 0.0 
-2.502123211738e-04 1.848497108311e-03 0.0 
0.0 0.0 0.0 
1.068011239447e-04 1.195100840686e-03 0.0 
1.195100840686e-03 3.206009102424e-03 0.0 
0.0 0.0 0.0 
2.033665843930e-04 -2.496126620342e-04 0.0 
-2.496126620342e-04 1.501819035958e-03 0.0 
0.0 0.0 0.0 
1.508341665921e-04 -1.575922127683e-04 0.0 
-1.575922127683e-04 1.247301712239e-03 0.0 
0.0 0.0 0.0 
6.562185265329e-04 1.123758644059e-03 0.0 
1.123758644059e-03 7.354934667526e-03 0.0 
0.0 0.0 0.0 
-1.117073546851e-03 9.530020796563e-04 0.0 
9.530020796563e-04 1.031680061219e-02 0.0 
0.0 0.0 0.0 
2.414772017256e-04 2.811222126619e-04 0.0 
2.811222126619e-04 7.707647813493e-03 0.0 
0.0 0.0 0.0 
-6.848257731625e-04 1.482975505767e-04 0.0 
1.482975505767e-04 4.038285550354e-04 0.0 
0.0 0.0 0.0 
3.143778270933e-04 1.226573764825e-03 0.0 
1.226573764825e-03 3.585579342347e-03 0.0 
0.0 0.0 0.0 
7.145017764736e-04 1.248920959262e-03 0.0 
1.248920959262e-03 4.804918340511e-03 0.0 
0.0 0.0 0.0 
-8.205493326943e-04 1.299999393590e-03 0.0 
1.299999393590e-03 8.392074547953e-03 0.0 
0.0 0.0 0.0 
7.855310406419e-04 8.805277517479e-04 0.0 
8.805277517479e-04 6.570738413069e-03 0.0 
0.0 0.0 0.0 
2.274610779902e-04 4.077929978253e-04 0.0 
4.077929978253e-04 7.923124704551e-03 0.0 
0.0 0.0 0.0 
-8.884511549347e-04 1.057414019942e-03 0.0 
1.057414019942e-03 1.177159067221e-02 0.0 
0.0 0.0 0.0 
5.470979419175e-04 7.338441653961e-04 0.0 
7.338441653961e-04 3.406533492483e-03 0.0 
0.0 0.0 0.0 
5.709989664944e-04 1.030282228158e-03 0.0 
1.030282228158e-03 7.355578822758e-03 0.0 
0.0 0.0 0.0 
5.938284830900e-04 7.392160789696e-05 0.0 
7.392160789696e-05 5.427053030421e-03 0.0 
0.0 0.0 0.0 
-6.825876817850e-04 1.563348441947e-03 0.0 
1.563348441947e-03 9.130484087338e-03 0.0 
0.0 0.0 0.0 
-8.316527913481e-04 8.718245710863e-04 0.0 
8.718245710863e-04 1.177283466866e-02 0.0 
0.0 0.0 0.0 
6.795163595341e-05 1.800035894831e-03 0.0 
1.800035894831e-03 1.000880230235e-02 0.0 
0.0 0.0 0.0 
6.597875123504e-04 1.063694298066e-03 0.0 
1.063694298066e-03 4.832436389786e-03 0.0 
0.0 0.0 0.0 
4.819606421869e-05 1.115647017101e-03 0.0 
1.115647017101e-03 3.835021896033e-03 0.0 
0.0 0.0 0.0 
-1.067055536641e-03 9.438855777054e-04 0.0 
9.438855777054e-04 1.089790506006e-02 0.0 
0.0 0.0 0.0 
-1.388962113661e-04 7.202803694453e-04 0.0 
7.202803694453e-04 1.374647961850e-02 0.0 
0.0 0.0 0.0 
-3.206498313366e-04 1.675832462504e-03 0.0 
1.675832462504e-03 8.273157980761e-03 0.0 
0.0 0.0 0.0 
7.483100684567e-04 1.086730346639e-03 0.0 
1.086730346639e-03 5.718616013869e-03 0.0 
0.0 0.0 0.0 
-5.861075812349e-04 2.375815303151e-05 0.0 
2.375815303151e-05 1.112196490578e-02 0.0 
0.0 0.0 0.0 
-5.143722027479e-05 -2.664460534038e-04 0.0 
-2.664460534038e-04 1.117082237108e-03 0.0 
0.0 0.0 0.0 
-1.021956060477e-03 7.418085008944e-04 0.0 
7.418085008944e-04 1.063518483422e-02 0.0 
0.0 0.0 0.0 
6.262696521719e-04 9.710126660766e-04 0.0 
9.710126660766e-04 3.370308118126e-03 0.0 
0.0 0.0 0.0 
3.778447664597e-04 5.410601092430e-04 0.0 
5.410601092430e-04 2.067880735382e-03 0.0 
0.0 0.0 0.0 
9.911590871337e-05 -2.149479168772e-04 0.0 
-2.149479168772e-04 1.231773943840e-03 0.0 
0.0 0.0 0.0 
-7.041849314977e-04 8.173374824818e-04 0.0 
8.173374824818e-04 1.229871101894e-02 0.0 
0.0 0.0 0.0 
-1.061677320805e-03 1.040677667023e-03 0.0 
1.040677667023e-03 1.057505952805e-02 0.0 
0.0 0.0 0.0 
2.927785279760e-04 1.539591716795e-03 0.0 
1.539591716795e-03 5.263549331068e-03 0.0 
0.0 0.0 0.0 
-7.364004949818e-04 7.897395887551e-04 0.0 
7.897395887551e-04 1.254144175637e-02 0.0 
0.0 0.0 0.0 
-8.111441615529e-04 1.201909997247e-03 0.0 
1.201909997247e-03 1.173782537434e-02 0.0 
0.0 0.0 0.0 
-8.110354720073e-04 1.452139407382e-03 0.0 
1.452139407382e-03 9.632791650130e-03 0.0 
0.0 0.0 0.0 
1.624769306785e-04 5.148740391410e-04 0.0 
5.148740391410e-04 7.970708959713e-03 0.0 
0.0 0.0 0.0 
8.470182998297e-04 1.148955182892e-03 0.0 
1.148955182892e-03 5.683189482954e-03 0.0 
0.0 0.0 0.0 
-9.049825389008e-04 1.331885892397e-03 0.0 
1.331885892397e-03 1.008310888815e-02 0.0 
0.0 0.0 0.0 
3.471860612814e-04 1.478312608708e-03 0.0 
1.478312608708e-03 6.141688211827e-03 0.0 
0.0 0.0 0.0 
7.196651541130e-04 1.144190587295e-03 0.0 
1.144190587295e-03 6.194639549973e-03 0.0 
0.0 0.0 0.0 
5.681807683322e-04 5.991938203198e-04 0.0 
5.991938203198e-04 2.474549624559e-03 0.0 
0.0 0.0 0.0 
-9.378600474413e-04 2.389052369471e-04 0.0 
2.389052369471e-04 1.082765960954e-02 0.0 
0.0 0.0 0.0 
7.468234047956e-04 9.603370788615e-04 0.0 
9.603370788615e-04 4.777838616385e-03 0.0 
0.0 0.0 0.0 
6.631013921787e-04 1.215557633353e-04 0.0 
1.215557633353e-04 2.703446638552e-03 0.0 
0.0 0.0 0.0 
-7.830131814458e-04 1.022389667180e-03 0.0 
1.022389667180e-03 1.177728029206e-02 0.0 
0.0 0.0 0.0 
-1.135138832624e-03 5.482529604980e-05 0.0 
5.482529604980e-05 6.321456337242e-04 0.0 
0.0 0.0 0.0 
-1.105975086710e-03 7.625992605923e-04 0.0 
7.625992605923e-04 1.090376979038e-02 0.0 
0.0 0.0 0.0 
7.335945086278e-04 8.491176807409e-04 0.0 
8.491176807409e-04 3.340445706653e-03 0.0 
0.0 0.0 0.0 
2.556575890613e-04 9.886795546486e-04 0.0 
9.886795546486e-04 3.618915987060e-03 0.0 
0.0 0.0 0.0 
4.627496617120e-04 3.528440456215e-04 0.0 
3.528440456215e-04 2.517113383351e-03 0.0 
0.0 0.0 0.0 
-9.252479647254e-04 1.036213499865e-03 0.0 
1.036213499865e-03 1.085595299367e-02 0.0 
0.0 0.0 0.0 
-1.180767607079e-04 -2.225380351118e-04 0.0 
-2.225380351118e-04 7.883090487073e-04 0.0 
0.0 0.0 0.0 
-4.362848625143e-04 1.634331757814e-03 0.0 
1.634331757814e-03 7.279935248092e-03 0.0 
0.0 0.0 0.0 
8.101524407673e-04 1.203330086826e-03 0.0 
1.203330086826e-03 6.166952386097e-03 0.0 
0.0 0.0 0.0 
-9.886951842252e-04 9.347451864383e-04 0.0 
9.347451864383e-04 1.059285514323e-02 0.0 
0.0 0.0 0.0 
-9.424859396193e-04 3.419407156387e-04 0.0 
3.419407156387e-04 1.112373207023e-02 0.0 
0.0 0.0 0.0 
-6.330626470152e-06 3.592532535881e-04 0.0 
3.592532535881e-04 1.311372120009e-03 0.0 
0.0 0.0 0.0 
7.733467243864e-04 3.171521243900e-04 0.0 
3.171521243900e-04 2.672653148961e-03 0.0 
0.0 0.0 0.0 
5.778267340522e-04 -9.149928183747e-06 0.0 
-9.149928183747e-06 2.396756426370e-03 0.0 
0.0 0.0 0.0 
-5.153526099787e-04 1.634454768058e-03 0.0 
1.634454768058e-03 6.986920099513e-03 0.0 
0.0 0.0 0.0 
-9.450878520041e-04 9.041237420917e-04 0.0 
9.041237420917e-04 1.176777768843e-02 0.0 
0.0 0.0 0.0 
-4.234827846590e-04 1.684006450428e-03 0.0 
1.684006450428e-03 7.272428954145e-03 0.0 
0.0 0.0 0.0 
8.548802517914e-04 9.748441204049e-04 0.0 
9.748441204049e-04 4.255674379787e-03 0.0 
0.0 0.0 0.0 
7.776166583946e-04 1.086609564961e-03 0.0 
1.086609564961e-03 4.279317971051e-03 0.0 
0.0 0.0 0.0 
2.715305915912e-05 2.211001482336e-04 0.0 
2.211001482336e-04 1.727361678246e-03 0.0 
0.0 0.0 0.0 
4.847597147517e-04 1.508889345596e-03 0.0 
1.508889345596e-03 5.951076856346e-03 0.0 
0.0 0.0 0.0 
-1.949520864468e-04 9.048151429130e-04 0.0 
9.048151429130e-04 2.852576177316e-03 0.0 
0.0 0.0 0.0 
-2.090050994275e-04 1.280923476811e-03 0.0 
1.280923476811e-03 1.335044678169e-02 0.0 
0.0 0.0 0.0 
-2.210011259636e-04 1.518765612522e-03 0.0 
1.518765612522e-03 1.306895138221e-02 0.0 
0.0 0.0 0.0 
-1.823190365273e-04 1.691311504800e-03 0.0 
1.691311504800e-03 8.015833188424e-03 0.0 
0.0 0.0 0.0 
6.154289509601e-04 7.853044739233e-04 0.0 
7.853044739233e-04 2.900648967355e-03 0.0 
0.0 0.0 0.0 
2.544605944577e-04 7.938506111304e-04 0.0 
7.938506111304e-04 3.073074425647e-03 0.0 
0.0 0.0 0.0 
-7.531944286472e-04 1.389163136699e-03 0.0 
1.389163136699e-03 9.916330653203e-03 0.0 
0.0 0.0 0.0 
4.043516664063e-04 6.618670235481e-04 0.0 
6.618670235481e-04 2.982531371621e-03 0.0 
0.0 0.0 0.0 
6.879068305530e-04 1.771287869594e-04 0.0 
1.771287869594e-04 2.367176443054e-03 0.0 
0.0 0.0 0.0 
-7.185974409075e-04 1.466045999360e-03 0.0 
1.466045999360e-03 9.148070464324e-03 0.0 
0.0 0.0 0.0 
-2.511683474444e-04 4.343265877444e-04 0.0 
4.343265877444e-04 1.357028903514e-02 0.0 
0.0 0.0 0.0 
7.223067241653e-04 1.030211482149e-03 0.0 
1.030211482149e-03 3.817554312564e-03 0.0 
0.0 0.0 0.0 
6.089393760542e-04 1.436223795150e-03 0.0 
1.436223795150e-03 7.160570025864e-03 0.0 
0.0 0.0 0.0 
9.109354221271e-05 1.036697937554e-03 0.0 
1.036697937554e-03 2.648516517783e-03 0.0 
0.0 0.0 0.0 
1.878175918160e-04 1.380885985159e-03 0.0 
1.380885985159e-03 9.071738893043e-03 0.0 
0.0 0.0 0.0 
4.877247331405e-04 9.182590015229e-04 0.0 
9.182590015229e-04 2.940578597153e-03 0.0 
0.0 0.0 0.0 
-5.336538165686e-04 1.587292473050e-03 0.0 
1.587292473050e-03 8.873891260360e-03 0.0 
0.0 0.0 0.0 
2.740485353736e-04 3.804465761473e-04 0.0 
3.804465761473e-04 1.689844157009e-03 0.0 
0.0 0.0 0.0 
9.142529285859e-04 8.743832161463e-04 0.0 
8.743832161463e-04 5.844838722753e-03 0.0 
0.0 0.0 0.0 
8.018796439722e-04 1.134341915743e-03 0.0 
1.134341915743e-03 4.749762035008e-03 0.0 
0.0 0.0 0.0 
7.247137960436e-04 1.300905960618e-04 0.0 
1.300905960618e-04 2.489210812952e-03 0.0 
0.0 0.0 0.0 
-1.032465975728e-03 1.158676837267e-03 0.0 
1.158676837267e-03 1.022636554913e-02 0.0 
0.0 0.0 0.0 
-1.503711777888e-04 1.870991498754e-03 0.0 
1.870991498754e-03 1.250347699791e-02 0.0 
0.0 0.0 0.0 
8.110464878475e-04 9.128343759695e-04 0.0 
9.128343759695e-04 3.793227664590e-03 0.0 
0.0 0.0 0.0 
7.637499663935e-04 1.074006663687e-03 0.0 
1.074006663687e-03 6.185386740784e-03 0.0 
0.0 0.0 0.0 
4.295902297891e-05 7.504684391738e-04 0.0 
7.504684391738e-04 2.687837389564e-03 0.0 
0.0 0.0 0.0 
-7.257250562930e-04 3.574259901765e-04 0.0 
3.574259901765e-04 1.185748382419e-02 0.0 
0.0 0.0 0.0 
8.266061774329e-04 7.528503225208e-04 0.0 
7.528503225208e-04 6.196690703171e-03 0.0 
0.0 0.0 0.0 
5.352743154274e-06 1.276101234915e-03 0.0 
1.276101234915e-03 4.472277222817e-03 0.0 
0.0 0.0 0.0 
-7.993326493300e-04 2.499001449050e-04 0.0 
2.499001449050e-04 1.170075051299e-02 0.0 
0.0 0.0 0.0 
-6.493328562807e-05 2.098895482155e-03 0.0 
2.098895482155e-03 1.175544549991e-02 0.0 
0.0 0.0 0.0 
7.230173534754e-04 8.326129638974e-04 0.0 
8.326129638974e-04 6.710246014444e-03 0.0 
0.0 0.0 0.0 
-1.866394084917e-04 1.764656901992e-03 0.0 
1.764656901992e-03 1.271242122631e-02 0.0 
0.0 0.0 0.0 
-8.795857562180e-04 3.423425895189e-04 0.0 
3.423425895189e-04 1.164233892601e-02 0.0 
0.0 0.0 0.0 
-7.124362666918e-04 1.392283045972e-03 0.0 
1.392283045972e-03 1.130180268134e-02 0.0 
0.0 0.0 0.0 
-2.212313187899e-04 1.205679258703e-03 0.0 
1.205679258703e-03 4.099627687868e-03 0.0 
0.0 0.0 0.0 
-1.089931055575e-03 1.085304686734e-03 0.0 
1.085304686734e-03 9.974394793520e-03 0.0 
0.0 0.0 0.0 
-8.833061435913e-04 1.227674492355e-03 0.0 
1.227674492355e-03 1.009786349054e-02 0.0 
0.0 0.0 0.0 
-9.639492664407e-04 1.216778274924e-03 0.0 
1.216778274924e-03 1.048337001406e-02 0.0 
0.0 0.0 0.0 
-1.428325980122e-04 1.683569761321e-03 0.0 
1.683569761321e-03 7.649255521899e-03 0.0 
0.0 0.0 0.0 
-6.393519263459e-06 2.137254733422e-03 0.0 
2.137254733422e-03 1.122568650353e-02 0.0 
0.0 0.0 0.0 
-9.177383021124e-04 4.899677755801e-04 0.0 
4.899677755801e-04 1.134585323608e-02 0.0 
0.0 0.0 0.0 
-1.130444790292e-03 6.532249080768e-04 0.0 
6.532249080768e-04 1.060844262485e-02 0.0 
0.0 0.0 0.0 
7.118702488480e-04 8.886112664782e-04 0.0 
8.886112664782e-04 4.309689164330e-03 0.0 
0.0 0.0 0.0 
2.976507143506e-04 -1.575567911568e-04 0.0 
-1.575567911568e-04 1.604276514941e-03 0.0 
0.0 0.0 0.0 
-1.150099532950e-03 8.505968554531e-04 0.0 
8.505968554531e-04 1.004294954605e-02 0.0 
0.0 0.0 0.0 
2.826011410448e-04 1.372381214447e-03 0.0 
1.372381214447e-03 4.184635498932e-03 0.0 
0.0 0.0 0.0 
-5.874454785914e-04 4.809029385404e-06 0.0 
4.809029385404e-06 1.075108559646e-02 0.0 
0.0 0.0 0.0 
6.179778704700e-04 -4.034732898792e-05 0.0 
-4.034732898792e-05 2.515097216971e-03 0.0 
0.0 0.0 0.0 
6.472685088048e-04 8.108731868188e-04 0.0 
8.108731868188e-04 3.849234077679e-03 0.0 
0.0 0.0 0.0 
-7.282990338835e-04 9.874045902139e-04 0.0 
9.874045902139e-04 1.206808453127e-02 0.0 
0.0 0.0 0.0 
2.235409359392e-04 1.173759020760e-03 0.0 
1.173759020760e-03 4.210750551393e-03 0.0 
0.0 0.0 0.0 
-9.410809245167e-04 1.155899649019e-03 0.0 
1.155899649019e-03 9.851780459291e-03 0.0 
0.0 0.0 0.0 
8.437167636846e-04 1.129417226873e-03 0.0 
1.129417226873e-03 6.175133759527e-03 0.0 
0.0 0.0 0.0 
9.273087795461e-04 3.606265118310e-04 0.0 
3.606265118310e-04 4.586151837361e-03 0.0 
0.0 0.0 0.0 
9.629908274333e-05 2.047991629019e-03 0.0 
2.047991629019e-03 1.044679437743e-02 0.0 
0.0 0.0 0.0 
-1.073584411947e-03 1.168649191063e-03 0.0 
1.168649191063e-03 9.372728683870e-03 0.0 
0.0 0.0 0.0 
7.243745218468e-04 3.939489862834e-04 0.0 
3.939489862834e-04 2.578994045624e-03 0.0 
0.0 0.0 0.0 
6.903497961170e-04 -7.145694979260e-05 0.0 
-7.145694979260e-05 3.059074571571e-03 0.0 
0.0 0.0 0.0 
-3.240129717182e-04 1.459495628592e-03 0.0 
1.459495628592e-03 5.473135534956e-03 0.0 
0.0 0.0 0.0 
6.071143963315e-05 1.459693209774e-03 0.0 
1.459693209774e-03 4.451910066702e-03 0.0 
0.0 0.0 0.0 
-6.833402209457e-04 1.291481586080e-03 0.0 
1.291481586080e-03 1.201726228651e-02 0.0 
0.0 0.0 0.0 
-6.326635377314e-04 1.558422826326e-03 0.0 
1.558422826326e-03 9.410577314853e-03 0.0 
0.0 0.0 0.0 
-8.416027033953e-04 1.526747280008e-03 0.0 
1.526747280008e-03 8.373278471576e-03 0.0 
0.0 0.0 0.0 
-9.838907335357e-04 1.063663841962e-03 0.0 
1.063663841962e-03 9.619293727158e-03 0.0 
0.0 0.0 0.0 
1.719853991904e-04 1.717249522899e-03 0.0 
1.717249522899e-03 9.549371752747e-03 0.0 
0.0 0.0 0.0 
2.672554283580e-04 1.600152558423e-03 0.0 
1.600152558423e-03 9.127036551315e-03 0.0 
0.0 0.0 0.0 
-5.856386434531e-04 1.268315388178e-03 0.0 
1.268315388178e-03 1.202114660774e-02 0.0 
0.0 0.0 0.0 
-8.899639022800e-04 8.635808526187e-04 0.0 
8.635808526187e-04 1.204261495311e-02 0.0 
0.0 0.0 0.0 
8.609466082385e-04 2.675194785234e-04 0.0 
2.675194785234e-04 4.455946082407e-03 0.0 
0.0 0.0 0.0 
-2.083576632853e-04 1.677022441160e-03 0.0 
1.677022441160e-03 6.912803885574e-03 0.0 
0.0 0.0 0.0 
5.201727421396e-04 5.398281924444e-04 0.0 
5.398281924444e-04 2.940108048289e-03 0.0 
0.0 0.0 0.0 
6.448122167719e-04 6.226679179921e-04 0.0 
6.226679179921e-04 3.375615054579e-03 0.0 
0.0 0.0 0.0 
-4.854622485424e-04 1.635612223188e-03 0.0 
1.635612223188e-03 8.866504350439e-03 0.0 
0.0 0.0 0.0 
8.504594980969e-04 8.098584869839e-04 0.0 
8.098584869839e-04 5.792406981903e-03 0.0 
0.0 0.0 0.0 
6.855825699472e-04 -3.293386528036e-05 0.0 
-3.293386528036e-05 3.695658394016e-03 0.0 
0.0 0.0 0.0 
-6.032247247357e-04 1.097618249150e-03 0.0 
1.097618249150e-03 1.235376869480e-02 0.0 
0.0 0.0 0.0 
6.147490072603e-04 1.794910585320e-04 0.0 
1.794910585320e-04 2.613010307804e-03 0.0 
0.0 0.0 0.0 
3.140590050354e-05 1.641074702669e-03 0.0 
1.641074702669e-03 7.003470483796e-03 0.0 
0.0 0.0 0.0 
-8.178190682475e-04 1.342526581164e-03 0.0 
1.342526581164e-03 9.653921884574e-03 0.0 
0.0 0.0 0.0 
1.646484648621e-06 1.624027841699e-03 0.0 
1.624027841699e-03 6.605557822943e-03 0.0 
0.0 0.0 0.0 
-2.124849542405e-04 1.653636074901e-03 0.0 
1.653636074901e-03 1.289940546503e-02 0.0 
0.0 0.0 0.0 
-2.045596451050e-04 1.408171913739e-03 0.0 
1.408171913739e-03 1.320730864641e-02 0.0 
0.0 0.0 0.0 
-4.116184770132e-04 1.310867674944e-03 0.0 
1.310867674944e-03 1.288050301878e-02 0.0 
0.0 0.0 0.0 
8.529807940558e-04 3.557924913697e-04 0.0 
3.557924913697e-04 4.909746437622e-03 0.0 
0.0 0.0 0.0 
-6.233618702587e-04 7.932634024718e-04 0.0 
7.932634024718e-04 1.254052930154e-02 0.0 
0.0 0.0 0.0 
9.114738909055e-05 1.334995253084e-03 0.0 
1.334995253084e-03 3.809414118977e-03 0.0 
0.0 0.0 0.0 
7.306831655935e-04 7.060166213666e-04 0.0 
7.060166213666e-04 3.825450164159e-03 0.0 
0.0 0.0 0.0 
2.761770217945e-04 2.820863224598e-04 0.0 
2.820863224598e-04 2.112688944841e-03 0.0 
0.0 0.0 0.0 
-6.029076532030e-04 1.651243720148e-03 0.0 
1.651243720148e-03 7.965575085243e-03 0.0 
0.0 0.0 0.0 
-8.870554793897e-04 1.759128300077e-04 0.0 
1.759128300077e-04 1.084320013690e-02 0.0 
0.0 0.0 0.0 
-7.806706215721e-04 3.539784130738e-04 0.0 
3.539784130738e-04 1.164102029083e-02 0.0 
0.0 0.0 0.0 
3.304177987959e-04 1.335985602607e-03 0.0 
1.335985602607e-03 8.647181392773e-03 0.0 
0.0 0.0 0.0 
-5.137100580124e-04 1.440053220955e-03 0.0 
1.440053220955e-03 1.159183867051e-02 0.0 
0.0 0.0 0.0 
-9.795738137042e-04 8.587249004976e-04 0.0 
8.587249004976e-04 1.091039086451e-02 0.0 
0.0 0.0 0.0 
-8.112965995968e-04 1.289880284175e-03 0.0 
1.289880284175e-03 1.036156008478e-02 0.0 
0.0 0.0 0.0 
4.870679106845e-04 4.281543861777e-04 0.0 
4.281543861777e-04 2.094267879679e-03 0.0 
0.0 0.0 0.0 
-2.214739232126e-04 -1.904828672491e-04 0.0 
-1.904828672491e-04 8.446388959364e-04 0.0 
0.0 0.0 0.0 
6.150768866311e-04 1.388310186582e-03 0.0 
1.388310186582e-03 5.363512622405e-03 0.0 
0.0 0.0 0.0 
4.139929513491e-05 1.642268025606e-03 0.0 
1.642268025606e-03 7.399346646187e-03 0.0 
0.0 0.0 0.0 
4.789465738169e-04 1.370925812261e-03 0.0 
1.370925812261e-03 5.970810336550e-03 0.0 
0.0 0.0 0.0 
-5.485011040397e-04 1.117159843234e-03 0.0 
1.117159843234e-03 1.872434360810e-03 0.0 
0.0 0.0 0.0 
-5.567901272623e-04 3.892617116391e-05 0.0 
3.892617116391e-05 1.110438178447e-02 0.0 
0.0 0.0 0.0 
2.006109142949e-04 -2.666409322204e-04 0.0 
-2.666409322204e-04 1.486109199471e-03 0.0 
0.0 0.0 0.0 
4.886592657092e-04 1.099786862377e-03 0.0 
1.099786862377e-03 3.447478138523e-03 0.0 
0.0 0.0 0.0 
0.0 1.372348684260e-03 0.0 
1.372348684260e-03 9.147054961564e-03 0.0 
0.0 0.0 0.0 
6.215913103238e-04 1.269998734854e-03 0.0 
1.269998734854e-03 7.161300786247e-03 0.0 
0.0 0.0 0.0 
-1.019805011435e-03 5.579850899546e-04 0.0 
5.579850899546e-04 1.061967046532e-02 0.0 
0.0 0.0 0.0 
1.334246161144e-04 -2.560933337024e-06 0.0 
-2.560933337024e-06 1.033823644888e-03 0.0 
0.0 0.0 0.0 
-1.973887634099e-04 1.705705584394e-03 0.0 
1.705705584394e-03 7.646475025804e-03 0.0 
0.0 0.0 0.0 
5.819783898531e-04 1.224034554910e-03 0.0 
1.224034554910e-03 5.386793531578e-03 0.0 
0.0 0.0 0.0 
-9.929806125561e-04 1.115449003753e-03 0.0 
1.115449003753e-03 1.084616388517e-02 0.0 
0.0 0.0 0.0 
-1.134567302501e-04 1.971132676614e-03 0.0 
1.971132676614e-03 1.226167642998e-02 0.0 
0.0 0.0 0.0 
-1.016105053552e-03 9.353415995016e-04 0.0 
9.353415995016e-04 9.991079211234e-03 0.0 
0.0 0.0 0.0 
-7.503551715993e-04 1.465771533728e-03 0.0 
1.465771533728e-03 9.906475286401e-03 0.0 
0.0 0.0 0.0 
7.518903650490e-04 5.272150947301e-05 0.0 
5.272150947301e-05 3.682468618458e-03 0.0 
0.0 0.0 0.0 
-6.622860029663e-04 9.585487677348e-04 0.0 
9.585487677348e-04 1.234223979833e-02 0.0 
0.0 0.0 0.0 
9.080417719303e-04 4.423498043687e-04 0.0 
4.423498043687e-04 5.045553776239e-03 0.0 
0.0 0.0 0.0 
-1.085473088536e-04 2.044576183061e-03 0.0 
2.044576183061e-03 1.201727359938e-02 0.0 
0.0 0.0 0.0 
0.0 1.629665579382e-03 0.0 
1.629665579382e-03 1.280460060857e-02 0.0 
0.0 0.0 0.0 
0.0 1.159412722219e-03 0.0 
1.159412722219e-03 1.342078110992e-02 0.0 
0.0 0.0 0.0 
0.0 1.388845271904e-03 0.0 
1.388845271904e-03 1.314494948764e-02 0.0 
0.0 0.0 0.0 
-8.409686979202e-04 1.201422498062e-03 0.0 
1.201422498062e-03 1.076326768997e-02 0.0 
0.0 0.0 0.0 
-7.744016949347e-04 9.655112521182e-04 0.0 
9.655112521182e-04 1.234180849547e-02 0.0 
0.0 0.0 0.0 
-4.808194070760e-04 1.417279393026e-03 0.0 
1.417279393026e-03 1.195923553703e-02 0.0 
0.0 0.0 0.0 
-1.378035547484e-05 1.705616774146e-03 0.0 
1.705616774146e-03 6.595669649062e-03 0.0 
0.0 0.0 0.0 
-2.170578927402e-04 1.700254381506e-03 0.0 
1.700254381506e-03 6.909910807082e-03 0.0 
0.0 0.0 0.0 
6.422522566085e-04 -6.988897864993e-05 0.0 
-6.988897864993e-05 3.458781584002e-03 0.0 
0.0 0.0 0.0 
-7.140493571868e-04 1.109400048482e-03 0.0 
1.109400048482e-03 1.235263193873e-02 0.0 
0.0 0.0 0.0 
-3.360898161320e-05 2.129148733988e-03 0.0 
2.129148733988e-03 1.148693133279e-02 0.0 
0.0 0.0 0.0 
-5.825011893307e-04 9.237162596807e-04 0.0 
9.237162596807e-04 1.259487930014e-02 0.0 
0.0 0.0 0.0 
6.769476294857e-04 1.204575527085e-03 0.0 
1.204575527085e-03 6.676712297933e-03 0.0 
0.0 0.0 0.0 
-6.926083231865e-04 9.261495490981e-04 0.0 
9.261495490981e-04 1.259505992378e-02 0.0 
0.0 0.0 0.0 
3.516362373435e-05 1.648777372165e-03 0.0 
1.648777372165e-03 8.972739861315e-03 0.0 
0.0 0.0 0.0 
1.713768268001e-04 1.661723103235e-03 0.0 
1.661723103235e-03 6.759848323218e-03 0.0 
0.0 0.0 0.0 
-6.352527458283e-04 1.547895980985e-03 0.0 
1.547895980985e-03 7.976486754927e-03 0.0 
0.0 0.0 0.0 
2.965807948614e-04 8.793843967984e-04 0.0 
8.793843967984e-04 2.530028573972e-03 0.0 
0.0 0.0 0.0 
-1.705524349576e-04 7.568385337103e-04 0.0 
7.568385337103e-04 1.344248477527e-02 0.0 
0.0 0.0 0.0 
1.586695130837e-04 1.648763272069e-03 0.0 
1.648763272069e-03 5.926299722389e-03 0.0 
0.0 0.0 0.0 
-3.335922848302e-05 1.811714388435e-03 0.0 
1.811714388435e-03 1.068783794381e-02 0.0 
0.0 0.0 0.0 
7.014088987902e-04 1.138401299885e-05 0.0 
1.138401299885e-05 3.446264493179e-03 0.0 
0.0 0.0 0.0 
5.249123655529e-04 -1.351873891604e-04 0.0 
-1.351873891604e-04 2.249627009556e-03 0.0 
0.0 0.0 0.0 
1.953926432687e-04 1.235750579476e-03 0.0 
1.235750579476e-03 8.573006513071e-03 0.0 
0.0 0.0 0.0 
4.545627701837e-04 1.264462393132e-03 0.0 
1.264462393132e-03 3.997947565232e-03 0.0 
0.0 0.0 0.0 
0.0 1.738481251085e-03 0.0 
1.738481251085e-03 1.260998301432e-02 0.0 
0.0 0.0 0.0 
-2.419821498727e-04 1.211279564261e-03 0.0 
1.211279564261e-03 1.305128078680e-02 0.0 
0.0 0.0 0.0 
-4.877474387399e-04 1.590487179411e-03 0.0 
1.590487179411e-03 9.187750027342e-03 0.0 
0.0 0.0 0.0 
-2.185497302932e-04 -1.498798784134e-04 0.0 
-1.498798784134e-04 4.958932346986e-04 0.0 
0.0 0.0 0.0 
0.0 1.904030110300e-03 0.0 
1.904030110300e-03 1.214370369130e-02 0.0 
0.0 0.0 0.0 
1.728951017921e-04 1.424181361898e-03 0.0 
1.424181361898e-03 8.898924539801e-03 0.0 
0.0 0.0 0.0 
6.238390182680e-04 2.225922315244e-05 0.0 
2.225922315244e-05 2.225339898965e-03 0.0 
0.0 0.0 0.0 
7.140008627082e-04 1.143342636181e-03 0.0 
1.143342636181e-03 6.669216260286e-03 0.0 
0.0 0.0 0.0 
1.085480812166e-04 1.979382682677e-03 0.0 
1.979382682677e-03 1.020023313833e-02 0.0 
0.0 0.0 0.0 
-3.665249148588e-04 -6.076406750688e-05 0.0 
-6.076406750688e-05 2.812280285900e-04 0.0 
0.0 0.0 0.0 
1.695508819577e-04 1.658606240420e-03 0.0 
1.658606240420e-03 6.344241845979e-03 0.0 
0.0 0.0 0.0 
-6.011990411964e-04 1.511893665112e-03 0.0 
1.511893665112e-03 9.715324560142e-03 0.0 
0.0 0.0 0.0 
-3.455725612084e-04 1.654858024323e-03 0.0 
1.654858024323e-03 8.617414013210e-03 0.0 
0.0 0.0 0.0 
-6.593993002599e-04 1.492730541353e-03 0.0 
1.492730541353e-03 9.419915537468e-03 0.0 
0.0 0.0 0.0 
3.231146160196e-04 1.058073508450e-03 0.0 
1.058073508450e-03 3.032914560499e-03 0.0 
0.0 0.0 0.0 
0.0 2.006044581162e-03 0.0 
2.006044581162e-03 1.162205753153e-02 0.0 
0.0 0.0 0.0 
7.841978146570e-04 7.863850045855e-04 0.0 
7.863850045855e-04 4.285745319968e-03 0.0 
0.0 0.0 0.0 
-8.566375307717e-05 4.116589935600e-05 0.0 
4.116589935600e-05 1.365140613863e-03 0.0 
0.0 0.0 0.0 
2.607481750625e-04 5.605336638658e-04 0.0 
5.605336638658e-04 7.989929007522e-03 0.0 
0.0 0.0 0.0 
-3.679403639274e-04 -1.399284219116e-04 0.0 
-1.399284219116e-04 5.367571507688e-04 0.0 
0.0 0.0 0.0 
-9.146322818223e-04 1.218656662755e-03 0.0 
1.218656662755e-03 9.177102130515e-03 0.0 
0.0 0.0 0.0 
1.061218224367e-04 -1.604152016145e-04 0.0 
-1.604152016145e-04 1.102132380465e-03 0.0 
0.0 0.0 0.0 
-1.040086093137e-03 6.945535812933e-04 0.0 
6.945535812933e-04 1.006225228406e-02 0.0 
0.0 0.0 0.0 
1.769172229293e-04 1.594868112180e-03 0.0 
1.594868112180e-03 9.365834123838e-03 0.0 
0.0 0.0 0.0 
0.0 2.029997095672e-03 0.0 
2.029997095672e-03 1.108486651375e-02 0.0 
0.0 0.0 0.0 
-9.160930920243e-04 1.123654555257e-03 0.0 
1.123654555257e-03 1.049606794430e-02 0.0 
0.0 0.0 0.0 
-1.023297737986e-04 -2.019495459709e-04 0.0 
-2.019495459709e-04 8.244230437291e-04 0.0 
0.0 0.0 0.0 
-1.464920475950e-04 1.825193572004e-04 0.0 
1.825193572004e-04 1.039182495477e-03 0.0 
0.0 0.0 0.0 
-1.001279165128e-04 -1.732557272820e-04 0.0 
-1.732557272820e-04 1.193593539795e-03 0.0 
0.0 0.0 0.0 
5.231393558107e-04 5.265878721014e-04 0.0 
5.265878721014e-04 6.850616419727e-03 0.0 
0.0 0.0 0.0 
-8.870099671153e-04 2.194076984477e-04 0.0 
2.194076984477e-04 1.079085790285e-02 0.0 
0.0 0.0 0.0 
-1.104891491563e-03 5.831575166067e-04 0.0 
5.831575166067e-04 1.085709312904e-02 0.0 
0.0 0.0 0.0 
0.0 1.977755800263e-03 0.0 
1.977755800263e-03 1.057398263030e-02 0.0 
0.0 0.0 0.0 
-8.421062539482e-04 1.575265352241e-04 0.0 
1.575265352241e-04 1.080482946634e-02 0.0 
0.0 0.0 0.0 
-1.858595277433e-04 1.150265433694e-03 0.0 
1.150265433694e-03 1.346722325714e-02 0.0 
0.0 0.0 0.0 
1.503325658221e-04 1.681272452688e-03 0.0 
1.681272452688e-03 8.823271621212e-03 0.0 
0.0 0.0 0.0 
-7.565298937978e-04 2.623450805810e-04 0.0 
2.623450805810e-04 1.147517027544e-02 0.0 
0.0 0.0 0.0 
-2.897292058357e-05 1.568686923960e-03 0.0 
1.568686923960e-03 5.096453696271e-03 0.0 
0.0 0.0 0.0 
7.600563786301e-04 1.258311523042e-03 0.0 
1.258311523042e-03 6.652940544249e-03 0.0 
0.0 0.0 0.0 
1.498514451721e-04 4.049636277035e-04 0.0 
4.049636277035e-04 2.132066523739e-03 0.0 
0.0 0.0 0.0 
0.0 1.851601899379e-03 0.0 
1.851601899379e-03 1.008886729280e-02 0.0 
0.0 0.0 0.0 
0.0 1.513886812364e-03 0.0 
1.513886812364e-03 1.298758446154e-02 0.0 
0.0 0.0 0.0 
0.0 1.269314598096e-03 0.0 
1.269314598096e-03 1.330144692507e-02 0.0 
0.0 0.0 0.0 
8.232259620264e-04 3.389725115758e-04 0.0 
3.389725115758e-04 5.061356637504e-03 0.0 
0.0 0.0 0.0 
5.971903862634e-04 -9.518167889088e-05 0.0 
-9.518167889088e-05 3.228316424740e-03 0.0 
0.0 0.0 0.0 
2.034766964794e-04 1.578240463151e-03 0.0 
1.578240463151e-03 6.772455063087e-03 0.0 
0.0 0.0 0.0 
8.675668907505e-04 4.196733906375e-04 0.0 
4.196733906375e-04 5.202844440456e-03 0.0 
0.0 0.0 0.0 
0.0 1.688155326174e-03 0.0 
1.688155326174e-03 9.672424728569e-03 0.0 
0.0 0.0 0.0 
4.193261014582e-04 8.572202021093e-04 0.0 
8.572202021093e-04 3.484027098041e-03 0.0 
0.0 0.0 0.0 
8.084955799079e-04 2.549869167395e-04 0.0 
2.549869167395e-04 2.781205199267e-03 0.0 
0.0 0.0 0.0 
8.307958337814e-04 2.058234953849e-04 0.0 
2.058234953849e-04 2.899252780913e-03 0.0 
0.0 0.0 0.0 
-7.080778945748e-04 2.731475466401e-04 0.0 
2.731475466401e-04 1.169781641638e-02 0.0 
0.0 0.0 0.0 
1.585300616300e-04 1.254671206949e-03 0.0 
1.254671206949e-03 8.942093275918e-03 0.0 
0.0 0.0 0.0 
-3.121822796031e-04 -1.842121926693e-04 0.0 
-1.842121926693e-04 8.964419886048e-04 0.0 
0.0 0.0 0.0 
0.0 1.475214013645e-03 0.0 
1.475214013645e-03 9.286680771025e-03 0.0 
0.0 0.0 0.0 
7.502771440564e-04 9.184195483780e-05 0.0 
9.184195483780e-05 2.619866301465e-03 0.0 
0.0 0.0 0.0 
0.0 1.833937481449e-03 0.0 
1.833937481449e-03 1.239186683672e-02 0.0 
0.0 0.0 0.0 
-5.895113280333e-04 1.432035396166e-03 0.0 
1.432035396166e-03 1.195750865272e-02 0.0 
0.0 0.0 0.0 
-5.760906332289e-04 -5.811547717006e-05 0.0 
-5.811547717006e-05 3.555171254923e-04 0.0 
0.0 0.0 0.0 
3.358759507595e-04 1.587828877275e-03 0.0 
1.587828877275e-03 6.125163661336e-03 0.0 
0.0 0.0 0.0 
-6.445432861818e-04 7.575618989565e-04 0.0 
7.575618989565e-04 1.276946011481e-02 0.0 
0.0 0.0 0.0 
0.0 1.967440748954e-03 0.0 
1.967440748954e-03 1.188877402694e-02 0.0 
0.0 0.0 0.0 
-8.875608100135e-04 1.271161662369e-03 0.0 
1.271161662369e-03 1.075429368129e-02 0.0 
0.0 0.0 0.0 
2.570571595486e-04 1.665251407454e-03 0.0 
1.665251407454e-03 8.707749764433e-03 0.0 
0.0 0.0 0.0 
5.706819767259e-05 8.605542496697e-04 0.0 
8.605542496697e-04 2.138594623444e-03 0.0 
0.0 0.0 0.0 
3.440878205800e-04 1.294949016042e-03 0.0 
1.294949016042e-03 8.354546260722e-03 0.0 
0.0 0.0 0.0 
7.659179948458e-04 6.699288320078e-05 0.0 
6.699288320078e-05 2.759231043457e-03 0.0 
0.0 0.0 0.0 
7.271225754348e-04 4.589495572882e-05 0.0 
4.589495572882e-05 2.921072081627e-03 0.0 
0.0 0.0 0.0 
-5.762506036385e-04 -1.459891025352e-04 0.0 
-1.459891025352e-04 6.549196706012e-04 0.0 
0.0 0.0 0.0 
0.0 2.026085607054e-03 0.0 
2.026085607054e-03 1.135238166295e-02 0.0 
0.0 0.0 0.0 
3.536805934778e-04 4.660883372649e-04 0.0 
4.660883372649e-04 2.524201139885e-03 0.0 
0.0 0.0 0.0 
5.976117970852e-04 8.678190710539e-04 0.0 
8.678190710539e-04 7.107900956767e-03 0.0 
0.0 0.0 0.0 
-8.110062091082e-04 1.584140936272e-04 0.0 
1.584140936272e-04 1.128424809937e-02 0.0 
0.0 0.0 0.0 
5.038773381281e-04 -1.983617162765e-04 0.0 
-1.983617162765e-04 2.294236712073e-03 0.0 
0.0 0.0 0.0 
7.011010943161e-04 7.823069891404e-05 0.0 
7.823069891404e-05 2.807256854035e-03 0.0 
0.0 0.0 0.0 
-8.347983630100e-04 1.366672904051e-03 0.0 
1.366672904051e-03 1.035128304130e-02 0.0 
0.0 0.0 0.0 
0.0 1.919122382609e-03 0.0 
1.919122382609e-03 1.032883678506e-02 0.0 
0.0 0.0 0.0 
6.475823898282e-04 -2.286082133920e-06 0.0 
-2.286082133920e-06 3.392321593294e-03 0.0 
0.0 0.0 0.0 
7.698225558210e-04 5.335062183399e-04 0.0 
5.335062183399e-04 5.861081382902e-03 0.0 
0.0 0.0 0.0 
-1.414672171851e-06 1.684683791269e-03 0.0 
1.684683791269e-03 7.787282033906e-03 0.0 
0.0 0.0 0.0 
8.692156894903e-04 6.278882981066e-04 0.0 
6.278882981066e-04 5.473473368580e-03 0.0 
0.0 0.0 0.0 
7.679035103503e-04 2.136738475594e-04 0.0 
2.136738475594e-04 3.125324953207e-03 0.0 
0.0 0.0 0.0 
8.228210759125e-04 4.447604922194e-04 0.0 
4.447604922194e-04 5.377892363549e-03 0.0 
0.0 0.0 0.0 
-1.285698616507e-04 1.669535540235e-03 0.0 
1.669535540235e-03 8.018500987325e-03 0.0 
0.0 0.0 0.0 
-2.264097200223e-04 1.656252261100e-03 0.0 
1.656252261100e-03 9.672399516210e-03 0.0 
0.0 0.0 0.0 
6.955423135024e-04 1.317228494855e-03 0.0 
1.317228494855e-03 7.140812327025e-03 0.0 
0.0 0.0 0.0 
1.677168845966e-04 1.658745059997e-03 0.0 
1.658745059997e-03 7.175685588764e-03 0.0 
0.0 0.0 0.0 
7.637075943234e-04 4.477848080609e-05 0.0 
4.477848080609e-05 3.510611048175e-03 0.0 
0.0 0.0 0.0 
3.996541496836e-04 1.048025100470e-03 0.0 
1.048025100470e-03 4.029374531354e-03 0.0 
0.0 0.0 0.0 
6.487317699877e-04 -1.825251202463e-05 0.0 
-1.825251202463e-05 3.216482155554e-03 0.0 
0.0 0.0 0.0 
1.497330727303e-04 1.631136069168e-03 0.0 
1.631136069168e-03 8.832084389592e-03 0.0 
0.0 0.0 0.0 
8.873481073144e-04 1.066420976136e-03 0.0 
1.066420976136e-03 5.690359464781e-03 0.0 
0.0 0.0 0.0 
1.759259006990e-04 1.483920632603e-03 0.0 
1.483920632603e-03 9.217465600514e-03 0.0 
0.0 0.0 0.0 
-6.049739117477e-04 8.880018334016e-04 0.0 
8.880018334016e-04 1.283640903147e-02 0.0 
0.0 0.0 0.0 
4.859815654445e-04 -1.232180952021e-04 0.0 
-1.232180952021e-04 2.054099399277e-03 0.0 
0.0 0.0 0.0 
0.0 1.580303436696e-03 0.0 
1.580303436696e-03 9.449865806871e-03 0.0 
0.0 0.0 0.0 
3.446316205888e-04 1.448503174520e-03 0.0 
1.448503174520e-03 8.813150458496e-03 0.0 
0.0 0.0 0.0 
6.051285124566e-04 1.415008543390e-03 0.0 
1.415008543390e-03 5.830917203284e-03 0.0 
0.0 0.0 0.0 
-3.097645896369e-04 -1.549297411322e-04 0.0 
-1.549297411322e-04 5.465898423196e-04 0.0 
0.0 0.0 0.0 
1.910834727592e-04 1.153315837511e-03 0.0 
1.153315837511e-03 8.830585724445e-03 0.0 
0.0 0.0 0.0 
-6.358560778413e-04 1.065257194033e-03 0.0 
1.065257194033e-03 1.262366558759e-02 0.0 
0.0 0.0 0.0 
6.553965277907e-04 -9.232833699834e-07 0.0 
-9.232833699834e-07 2.364009841858e-03 0.0 
0.0 0.0 0.0 
0.0 1.260052050344e-03 0.0 
1.260052050344e-03 8.994256232409e-03 0.0 
0.0 0.0 0.0 
7.851956543838e-04 4.249633728775e-04 0.0 
4.249633728775e-04 5.532623153527e-03 0.0 
0.0 0.0 0.0 
-4.209622649914e-04 1.662316387602e-03 0.0 
1.662316387602e-03 7.603894614647e-03 0.0 
0.0 0.0 0.0 
-1.000721713297e-03 6.823149788223e-04 0.0 
6.823149788223e-04 1.091446783646e-02 0.0 
0.0 0.0 0.0 
7.977179610068e-04 1.004144797702e-03 0.0 
1.004144797702e-03 5.701656932113e-03 0.0 
0.0 0.0 0.0 
8.386590858618e-04 2.518457163884e-04 0.0 
2.518457163884e-04 4.602359058124e-03 0.0 
0.0 0.0 0.0 
8.410009714133e-04 7.617641865048e-04 0.0 
7.617641865048e-04 5.863650751164e-03 0.0 
0.0 0.0 0.0 
-9.772441580165e-04 7.570687841143e-04 0.0 
7.570687841143e-04 1.173445435505e-02 0.0 
0.0 0.0 0.0 
-7.652009534642e-04 1.433503348705e-03 0.0 
1.433503348705e-03 8.883265155601e-03 0.0 
0.0 0.0 0.0 
5.997450602502e-04 1.434951855110e-03 0.0 
1.434951855110e-03 7.632894110147e-03 0.0 
0.0 0.0 0.0 
-5.602199417379e-04 3.256639610220e-05 0.0 
3.256639610220e-05 1.144614665944e-02 0.0 
0.0 0.0 0.0 
6.909194679274e-04 -4.580588988663e-05 0.0 
-4.580588988663e-05 3.524623441909e-03 0.0 
0.0 0.0 0.0 
7.848279915788e-04 1.193476591696e-03 0.0 
1.193476591696e-03 6.663283468375e-03 0.0 
0.0 0.0 0.0 
6.704619405900e-04 -7.039598745633e-05 0.0 
-7.039598745633e-05 2.777087255079e-03 0.0 
0.0 0.0 0.0 
7.252630978405e-04 2.151344166892e-04 0.0 
2.151344166892e-04 5.156093327325e-03 0.0 
0.0 0.0 0.0 
-6.772710289359e-04 -6.103645613286e-05 0.0 
-6.103645613286e-05 3.966869978584e-04 0.0 
0.0 0.0 0.0 
3.482056408026e-04 1.236448621696e-03 0.0 
1.236448621696e-03 4.626934479047e-03 0.0 
0.0 0.0 0.0 
6.484788601337e-04 -6.020325789314e-05 0.0 
-6.020325789314e-05 2.641947848048e-03 0.0 
0.0 0.0 0.0 
7.375736389916e-04 6.065112069497e-05 0.0 
6.065112069497e-05 3.858482247565e-03 0.0 
0.0 0.0 0.0 
4.711871914029e-04 1.523585525393e-03 0.0 
1.523585525393e-03 6.405525963234e-03 0.0 
0.0 0.0 0.0 
8.661988441165e-04 5.238723706735e-04 0.0 
5.238723706735e-04 5.517609403717e-03 0.0 
0.0 0.0 0.0 
-7.660139207235e-04 1.733399324583e-04 0.0 
1.733399324583e-04 1.152801400082e-02 0.0 
0.0 0.0 0.0 
5.605132937867e-04 -1.444982804913e-04 0.0 
-1.444982804913e-04 2.386896305165e-03 0.0 
0.0 0.0 0.0 
0.0 1.163168768946e-03 0.0 
1.163168768946e-03 8.889490033834e-03 0.0 
0.0 0.0 0.0 
-5.811028310593e-04 1.560073199749e-03 0.0 
1.560073199749e-03 9.708630856553e-03 0.0 
0.0 0.0 0.0 
7.211508153318e-04 6.802757229492e-05 0.0 
6.802757229492e-05 4.035249632767e-03 0.0 
0.0 0.0 0.0 
-4.485568207455e-04 1.623446840550e-03 0.0 
1.623446840550e-03 9.182953336989e-03 0.0 
0.0 0.0 0.0 
6.779311233729e-04 -1.962803626585e-05 0.0 
-1.962803626585e-05 3.870761719927e-03 0.0 
0.0 0.0 0.0 
-4.371605539202e-04 -6.250672116233e-05 0.0 
-6.250672116233e-05 3.137407501139e-04 0.0 
0.0 0.0 0.0 
-1.076621153285e-03 6.965545836249e-04 0.0 
6.965545836249e-04 1.116837198558e-02 0.0 
0.0 0.0 0.0 
5.573770917242e-04 8.722907223149e-06 0.0 
8.722907223149e-06 3.147993214825e-03 0.0 
0.0 0.0 0.0 
-8.235591339101e-05 -3.916863395918e-05 0.0 
-3.916863395918e-05 1.512211067125e-04 0.0 
0.0 0.0 0.0 
6.854830796525e-04 3.610649218514e-05 0.0 
3.610649218514e-05 3.796202992902e-03 0.0 
0.0 0.0 0.0 
7.991031791068e-04 6.029654181967e-04 0.0 
6.029654181967e-04 6.002595954809e-03 0.0 
0.0 0.0 0.0 
-3.412702989141e-04 2.474658871292e-04 0.0 
2.474658871292e-04 1.291289531244e-02 0.0 
0.0 0.0 0.0 
8.834198343408e-04 6.726502106646e-04 0.0 
6.726502106646e-04 5.385429037755e-03 0.0 
0.0 0.0 0.0 
9.485833252125e-04 7.433767013903e-04 0.0 
7.433767013903e-04 5.453033928699e-03 0.0 
0.0 0.0 0.0 
-1.103331406584e-03 4.702282836377e-04 0.0 
4.702282836377e-04 1.054262293757e-02 0.0 
0.0 0.0 0.0 
-8.380856894108e-04 7.737574127257e-05 0.0 
7.737574127257e-05 1.046270411411e-02 0.0 
0.0 0.0 0.0 
-1.923602916133e-04 9.260209427780e-04 0.0 
9.260209427780e-04 1.334534588539e-02 0.0 
0.0 0.0 0.0 
-2.957111162305e-04 1.660124031921e-03 0.0 
1.660124031921e-03 8.616516886861e-03 0.0 
0.0 0.0 0.0 
-1.140388587483e-04 -3.296003381076e-05 0.0 
-3.296003381076e-05 1.567695309717e-04 0.0 
0.0 0.0 0.0 
1.256439113013e-04 -2.502158859062e-04 0.0 
-2.502158859062e-04 1.263728414105e-03 0.0 
0.0 0.0 0.0 
-2.763523239259e-04 -1.574989389229e-04 0.0 
-1.574989389229e-04 5.248560112658e-04 0.0 
0.0 0.0 0.0 
4.465166466829e-04 -2.141517660402e-04 0.0 
-2.141517660402e-04 2.209460796006e-03 0.0 
0.0 0.0 0.0 
-3.609576996860e-04 1.662445035405e-03 0.0 
1.662445035405e-03 1.100061268218e-02 0.0 
0.0 0.0 0.0 
-3.923602142738e-04 2.007883623066e-04 0.0 
2.007883623066e-04 1.291866539866e-02 0.0 
0.0 0.0 0.0 
6.163971297672e-04 5.103147585457e-04 0.0 
5.103147585457e-04 6.511334993044e-03 0.0 
0.0 0.0 0.0 
5.011357709876e-04 -1.793984584183e-04 0.0 
-1.793984584183e-04 2.503910933797e-03 0.0 
0.0 0.0 0.0 
6.744533198391e-04 1.364250000429e-04 0.0 
1.364250000429e-04 5.169094614993e-03 0.0 
0.0 0.0 0.0 
6.083886832737e-04 9.154334184249e-04 0.0 
9.154334184249e-04 7.224087415145e-03 0.0 
0.0 0.0 0.0 
1.741682907968e-04 1.028976507159e-04 0.0 
1.028976507159e-04 1.736323151506e-03 0.0 
0.0 0.0 0.0 
5.444085359634e-04 -6.186296192497e-05 0.0 
-6.186296192497e-05 3.149263781480e-03 0.0 
0.0 0.0 0.0 
4.743428831846e-04 1.047219925856e-05 0.0 
1.047219925856e-05 2.562102734909e-03 0.0 
0.0 0.0 0.0 
1.644006965067e-04 1.040590030002e-03 0.0 
1.040590030002e-03 8.719695214005e-03 0.0 
0.0 0.0 0.0 
0.0 1.046874340423e-03 0.0 
1.046874340423e-03 8.771790363521e-03 0.0 
0.0 0.0 0.0 
5.847360848852e-04 -4.321245692570e-05 0.0 
-4.321245692570e-05 3.529274588632e-03 0.0 
0.0 0.0 0.0 
6.706397751148e-04 -8.663796879132e-06 0.0 
-8.663796879132e-06 4.047248804632e-03 0.0 
0.0 0.0 0.0 
8.953357552073e-04 3.409169937124e-04 0.0 
3.409169937124e-04 4.741704485764e-03 0.0 
0.0 0.0 0.0 
5.520591452439e-04 1.048484429357e-03 0.0 
1.048484429357e-03 7.614748157023e-03 0.0 
0.0 0.0 0.0 
2.124493882045e-04 -1.480803006131e-04 0.0 
-1.480803006131e-04 1.381280491667e-03 0.0 
0.0 0.0 0.0 
6.654675667621e-04 7.938098677410e-04 0.0 
7.938098677410e-04 6.851928568047e-03 0.0 
0.0 0.0 0.0 
3.849649107845e-05 -8.422930869574e-05 0.0 
-8.422930869574e-05 7.347396376194e-04 0.0 
0.0 0.0 0.0 
6.401072326159e-04 -5.285674638694e-05 0.0 
-5.285674638694e-05 3.633409472142e-03 0.0 
0.0 0.0 0.0 
7.116959859308e-04 2.497735154472e-05 0.0 
2.497735154472e-05 4.116392786800e-03 0.0 
0.0 0.0 0.0 
5.651376930738e-05 -4.679093972752e-05 0.0 
-4.679093972752e-05 3.802046004522e-04 0.0 
0.0 0.0 0.0 
5.777115663645e-04 2.164926471433e-05 0.0 
2.164926471433e-05 3.334524216839e-03 0.0 
0.0 0.0 0.0 
-4.892960673497e-04 8.957726348307e-04 0.0 
8.957726348307e-04 1.283418142381e-02 0.0 
0.0 0.0 0.0 
-8.103568395879e-05 -2.857123842011e-05 0.0 
-2.857123842011e-05 1.441669372824e-04 0.0 
0.0 0.0 0.0 
-8.824050609647e-04 1.210882030394e-04 0.0 
1.210882030394e-04 1.046586324446e-02 0.0 
0.0 0.0 0.0 
-8.530353196075e-04 1.599916258324e-04 0.0 
1.599916258324e-04 1.041734659350e-02 0.0 
0.0 0.0 0.0 
7.956185314457e-04 8.960614488151e-04 0.0 
8.960614488151e-04 6.277853350540e-03 0.0 
0.0 0.0 0.0 
4.587289668376e-04 -5.024480845355e-05 0.0 
-5.024480845355e-05 2.559869359661e-03 0.0 
0.0 0.0 0.0 
6.786544688100e-04 -1.608451368654e-05 0.0 
-1.608451368654e-05 2.510363508105e-03 0.0 
0.0 0.0 0.0 
5.785366162647e-05 9.404151181945e-04 0.0 
9.404151181945e-04 3.239227555849e-03 0.0 
0.0 0.0 0.0 
4.381572015415e-04 5.243721104627e-04 0.0 
5.243721104627e-04 7.187313044398e-03 0.0 
0.0 0.0 0.0 
-3.942291635506e-05 1.895502410891e-03 0.0 
1.895502410891e-03 1.116770485608e-02 0.0 
0.0 0.0 0.0 
-5.304315783562e-04 3.049472786322e-04 0.0 
3.049472786322e-04 1.268356228023e-02 0.0 
0.0 0.0 0.0 
-5.691189576873e-05 1.413547279799e-03 0.0 
1.413547279799e-03 5.116041581968e-03 0.0 
0.0 0.0 0.0 
-1.662158545712e-05 -1.287799635673e-04 0.0 
-1.287799635673e-04 8.697478356479e-04 0.0 
0.0 0.0 0.0 
-1.032097280571e-03 1.237219804998e-03 0.0 
1.237219804998e-03 9.597044017311e-03 0.0 
0.0 0.0 0.0 
-7.097237748976e-04 2.240642967365e-05 0.0 
2.240642967365e-05 1.045162995815e-02 0.0 
0.0 0.0 0.0 
-6.759757385342e-04 1.213313506223e-05 0.0 
1.213313506223e-05 1.042782009317e-02 0.0 
0.0 0.0 0.0 
-3.829654259158e-05 -3.316168716996e-05 0.0 
-3.316168716996e-05 1.351995241916e-04 0.0 
0.0 0.0 0.0 
3.856152214698e-05 -6.027334672935e-05 0.0 
-6.027334672935e-05 3.877476091945e-04 0.0 
0.0 0.0 0.0 
1.288156124020e-04 -4.869885119960e-05 0.0 
-4.869885119960e-05 7.048627704060e-04 0.0 
0.0 0.0 0.0 
3.802366284702e-04 -1.283091877245e-04 0.0 
-1.283091877245e-04 1.902650279099e-03 0.0 
0.0 0.0 0.0 
1.306659134537e-05 -4.056714158915e-05 0.0 
-4.056714158915e-05 3.875040481389e-04 0.0 
0.0 0.0 0.0 
5.996921323446e-04 2.758831278241e-05 0.0 
2.758831278241e-05 3.743796937511e-03 0.0 
0.0 0.0 0.0 
-6.393776666080e-04 -5.713904119895e-05 0.0 
-5.713904119895e-05 3.988025139352e-04 0.0 
0.0 0.0 0.0 
4.834560869416e-04 -1.059579724188e-04 0.0 
-1.059579724188e-04 2.275315983539e-03 0.0 
0.0 0.0 0.0 
-4.916957336150e-04 6.357113185048e-05 0.0 
6.357113185048e-05 1.179101355917e-02 0.0 
0.0 0.0 0.0 
-7.670962987326e-04 7.054674641591e-05 0.0 
7.054674641591e-05 1.042954434289e-02 0.0 
0.0 0.0 0.0 
-3.958257525427e-04 1.645061134654e-03 0.0 
1.645061134654e-03 1.142552856153e-02 0.0 
0.0 0.0 0.0 
8.162595963679e-04 4.968828524415e-04 0.0 
4.968828524415e-04 5.676692201394e-03 0.0 
0.0 0.0 0.0 
-5.236209112757e-04 4.516715851283e-05 0.0 
4.516715851283e-05 1.143269215123e-02 0.0 
0.0 0.0 0.0 
4.910303346137e-04 3.241638042330e-05 0.0 
3.241638042330e-05 2.746018630112e-03 0.0 
0.0 0.0 0.0 
7.460650687907e-05 -5.466803815155e-05 0.0 
-5.466803815155e-05 7.159052152994e-04 0.0 
0.0 0.0 0.0 
0.0 4.660738638368e-04 0.0 
4.660738638368e-04 1.383200089019e-02 0.0 
0.0 0.0 0.0 
-1.396482633226e-04 5.216271998868e-04 0.0 
5.216271998868e-04 1.381515079761e-02 0.0 
0.0 0.0 0.0 
-7.273372670760e-04 1.931969621121e-04 0.0 
1.931969621121e-04 1.128153047782e-02 0.0 
0.0 0.0 0.0 
-7.573936101176e-04 3.143160892167e-05 0.0 
3.143160892167e-05 1.045259740076e-02 0.0 
0.0 0.0 0.0 
4.916879129284e-04 -5.678846398514e-05 0.0 
-5.678846398514e-05 2.784121339118e-03 0.0 
0.0 0.0 0.0 
-1.142219961107e-04 3.591212360055e-04 0.0 
3.591212360055e-04 1.386443609327e-02 0.0 
0.0 0.0 0.0 
4.079446247880e-04 -2.112643930012e-04 0.0 
-2.112643930012e-04 2.128646865376e-03 0.0 
0.0 0.0 0.0 
-8.063829450519e-04 1.049280085663e-04 0.0 
1.049280085663e-04 1.042093330333e-02 0.0 
0.0 0.0 0.0 
-7.852305597805e-04 5.453916769173e-05 0.0 
5.453916769173e-05 1.045497534148e-02 0.0 
0.0 0.0 0.0 
-1.034176643598e-03 8.026260274285e-04 0.0 
8.026260274285e-04 9.767284977351e-03 0.0 
0.0 0.0 0.0 
0.0 1.049681803400e-03 0.0 
1.049681803400e-03 1.352021455037e-02 0.0 
0.0 0.0 0.0 
-1.270538493074e-04 4.417713037020e-04 0.0 
4.417713037020e-04 1.384619283808e-02 0.0 
0.0 0.0 0.0 
-1.331448501818e-05 -5.287850284194e-05 0.0 
-5.287850284194e-05 3.965887504822e-04 0.0 
0.0 0.0 0.0 
-1.334178724188e-05 -2.369319631176e-05 0.0 
-2.369319631176e-05 1.272373402237e-04 0.0 
0.0 0.0 0.0 
6.599945154129e-05 -1.317479711740e-04 0.0 
-1.317479711740e-04 1.031693552989e-03 0.0 
0.0 0.0 0.0 
7.772826085994e-04 1.097908614130e-04 0.0 
1.097908614130e-04 4.103412225773e-03 0.0 
0.0 0.0 0.0 
2.756224571985e-04 9.804586512396e-05 0.0 
9.804586512396e-05 7.423642449746e-03 0.0 
0.0 0.0 0.0 
-9.933159473595e-04 -7.332924303562e-05 0.0 
-7.332924303562e-05 5.237974168271e-04 0.0 
0.0 0.0 0.0 
-3.780569620713e-04 3.091528196453e-06 0.0 
3.091528196453e-06 1.261006943374e-02 0.0 
0.0 0.0 0.0 
-5.745197944682e-04 -6.540594741603e-05 0.0 
-6.540594741603e-05 3.758977724091e-04 0.0 
0.0 0.0 0.0 
8.947336444982e-04 8.264820643682e-04 0.0 
8.264820643682e-04 5.938012270017e-03 0.0 
0.0 0.0 0.0 
-7.883794980280e-04 -6.388340772549e-05 0.0 
-6.388340772549e-05 4.453095139374e-04 0.0 
0.0 0.0 0.0 
-8.919978827329e-04 -7.218596475045e-05 0.0 
-7.218596475045e-05 4.858012194582e-04 0.0 
0.0 0.0 0.0 
9.252581022403e-04 6.994281873848e-04 0.0 
6.994281873848e-04 5.562833877247e-03 0.0 
0.0 0.0 0.0 
3.468727788707e-04 2.476171413236e-04 0.0 
2.476171413236e-04 7.191240689383e-03 0.0 
0.0 0.0 0.0 
-5.247429659959e-04 3.053789774857e-05 0.0 
3.053789774857e-05 1.176226302168e-02 0.0 
0.0 0.0 0.0 
-8.727407903686e-04 1.429287274528e-03 0.0 
1.429287274528e-03 9.387511533332e-03 0.0 
0.0 0.0 0.0 
7.476277681162e-05 -3.797557076909e-05 0.0 
-3.797557076909e-05 3.705928261870e-04 0.0 
0.0 0.0 0.0 
6.423245996101e-04 1.261969342981e-04 0.0 
1.261969342981e-04 5.354845465057e-03 0.0 
0.0 0.0 0.0 
0.0 1.390945157303e-04 0.0 
1.390945157303e-04 1.388056682817e-02 0.0 
0.0 0.0 0.0 
-9.901339030693e-05 1.464915703126e-04 0.0 
1.464915703126e-04 1.389217413704e-02 0.0 
0.0 0.0 0.0 
-7.302690600852e-04 4.596369831083e-05 0.0 
4.596369831083e-05 1.042676192051e-02 0.0 
0.0 0.0 0.0 
8.481562427463e-04 9.540496501873e-04 0.0 
9.540496501873e-04 6.335048554311e-03 0.0 
0.0 0.0 0.0 
0.0 3.903860420158e-04 0.0 
3.903860420158e-04 1.386133800230e-02 0.0 
0.0 0.0 0.0 
2.347845042632e-04 1.602252964847e-03 0.0 
1.602252964847e-03 8.717016315503e-03 0.0 
0.0 0.0 0.0 
7.748105589322e-05 -2.631242691176e-05 0.0 
-2.631242691176e-05 6.962094704159e-04 0.0 
0.0 0.0 0.0 
3.570452073864e-05 -3.200056899547e-05 0.0 
-3.200056899547e-05 3.766855722951e-04 0.0 
0.0 0.0 0.0 
7.925304387579e-05 -3.167696916465e-05 0.0 
-3.167696916465e-05 3.647823730450e-04 0.0 
0.0 0.0 0.0 
5.470249898558e-04 3.201910057438e-05 0.0 
3.201910057438e-05 3.136664474273e-03 0.0 
0.0 0.0 0.0 
1.082202148888e-04 2.081526659566e-04 0.0 
2.081526659566e-04 8.281560898176e-03 0.0 
0.0 0.0 0.0 
-1.637237760413e-04 -2.592538381409e-05 0.0 
-2.592538381409e-05 1.352553858069e-02 0.0 
0.0 0.0 0.0 
3.681981439629e-05 -5.733944881674e-06 0.0 
-5.733944881674e-06 9.849992250244e-05 0.0 
0.0 0.0 0.0 
6.017793045496e-04 -3.530656545168e-05 0.0 
-3.530656545168e-05 3.743887644206e-03 0.0 
0.0 0.0 0.0 
0.0 1.844347889009e-04 0.0 
1.844347889009e-04 8.300481844315e-03 0.0 
0.0 0.0 0.0 
1.240124139479e-04 3.002867405440e-04 0.0 
3.002867405440e-04 8.290440331714e-03 0.0 
0.0 0.0 0.0 
1.910914754244e-04 9.344963865672e-04 0.0 
9.344963865672e-04 8.623853462343e-03 0.0 
0.0 0.0 0.0 
-4.348710178197e-04 5.307363636893e-05 0.0 
5.307363636893e-05 1.223662363794e-02 0.0 
0.0 0.0 0.0 
-3.366767591032e-04 -2.745780140833e-05 0.0 
-2.745780140833e-05 1.280099335517e-02 0.0 
0.0 0.0 0.0 
0.0 2.466207283170e-04 0.0 
2.466207283170e-04 8.269024725788e-03 0.0 
0.0 0.0 0.0 
0.0 3.167403553555e-04 0.0 
3.167403553555e-04 8.312778805149e-03 0.0 
0.0 0.0 0.0 
-3.689084626055e-04 5.398694064173e-05 0.0 
5.398694064173e-05 1.261186174838e-02 0.0 
0.0 0.0 0.0 
1.095069533963e-05 7.471897943894e-06 0.0 
7.471897943894e-06 9.179260678649e-05 0.0 
0.0 0.0 0.0 
-6.334358946067e-04 5.855729224123e-06 0.0 
5.855729224123e-06 1.040273937260e-02 0.0 
0.0 0.0 0.0 
-7.033449493175e-04 3.220617102891e-05 0.0 
3.220617102891e-05 1.043816641110e-02 0.0 
0.0 0.0 0.0 
1.326876358454e-05 -1.449959799918e-05 0.0 
-1.449959799918e-05 1.161544367836e-04 0.0 
0.0 0.0 0.0 
0.0 5.762038048245e-04 0.0 
5.762038048245e-04 8.437609863273e-03 0.0 
0.0 0.0 0.0 
1.662296098963e-04 8.306762392199e-04 0.0 
8.306762392199e-04 8.537316547333e-03 0.0 
0.0 0.0 0.0 
0.0 7.481920210838e-04 0.0 
7.481920210838e-04 8.496869879912e-03 0.0 
0.0 0.0 0.0 
-2.847709704590e-05 -6.259902404484e-06 0.0 
-6.259902404484e-06 1.203994248975e-04 0.0 
0.0 0.0 0.0 
-5.241011764967e-05 -1.813198425750e-05 0.0 
-1.813198425750e-05 1.338406257350e-04 0.0 
0.0 0.0 0.0 
0.0 9.498949945418e-04 0.0 
9.498949945418e-04 8.669769839899e-03 0.0 
0.0 0.0 0.0 
0.0 8.439782449224e-04 0.0 
8.439782449224e-04 8.581607811782e-03 0.0 
0.0 0.0 0.0 
-4.667834832095e-04 -3.211959124744e-05 0.0 
-3.211959124744e-05 1.204170091200e-02 0.0 
0.0 0.0 0.0 
-5.977416144313e-04 5.478973594686e-06 0.0 
5.478973594686e-06 1.038016215278e-02 0.0 
0.0 0.0 0.0 
-4.030337403401e-04 -2.993946104861e-05 0.0 
-2.993946104861e-05 1.242475027121e-02 0.0 
0.0 0.0 0.0 
-5.434842452257e-04 -3.394752831429e-05 0.0 
-3.394752831429e-05 1.124440230403e-02 0.0 
0.0 0.0 0.0 
-5.794513325135e-04 7.814952398090e-07 0.0 
7.814952398090e-07 1.037187189999e-02 0.0 
0.0 0.0 0.0 
-1.753236689441e-04 -2.658821168336e-05 0.0 
-2.658821168336e-05 1.851714633898e-04 0.0 
0.0 0.0 0.0 
-3.213678973835e-04 -4.920011787691e-05 0.0 
-4.920011787691e-05 2.575261483300e-04 0.0 
0.0 0.0 0.0 
-3.837071686561e-04 -4.973875908268e-05 0.0 
-4.973875908268e-05 2.723129753002e-04 0.0 
0.0 0.0 0.0 
-4.816350376272e-04 -5.636162658021e-05 0.0 
-5.636162658021e-05 3.157758182373e-04 0.0 
0.0 0.0 0.0 
6.140713516649e-04 3.881087509653e-05 0.0 
3.881087509653e-05 3.956150109025e-03 0.0 
0.0 0.0 0.0 
5.900734945619e-04 3.399625191105e-05 0.0 
3.399625191105e-05 3.537786034019e-03 0.0 
0.0 0.0 0.0 
-2.270085099693e-04 -4.730535407152e-05 0.0 
-4.730535407152e-05 2.238851344056e-04 0.0 
0.0 0.0 0.0 
6.103198630127e-04 4.116060060783e-05 0.0 
4.116060060783e-05 5.242837522824e-03 0.0 
0.0 0.0 0.0 
-3.074526427886e-04 -5.698041815065e-05 0.0 
-5.698041815065e-05 2.547400138777e-04 0.0 
0.0 0.0 0.0 
0.0 8.317505169941e-04 0.0 
8.317505169941e-04 1.367036106426e-02 0.0 
0.0 0.0 0.0 
0.0 3.236930504959e-04 0.0 
3.236930504959e-04 1.386743728091e-02 0.0 
0.0 0.0 0.0 
0.0 5.516757025323e-04 0.0 
5.516757025323e-04 1.379708819877e-02 0.0 
0.0 0.0 0.0 
2.033514304385e-04 3.539199334920e-05 0.0 
3.539199334920e-05 1.218969248436e-03 0.0 
0.0 0.0 0.0 
4.286837556846e-04 3.226199465813e-05 0.0 
3.226199465813e-05 2.360296973773e-03 0.0 
0.0 0.0 0.0 
0.0 2.529374417384e-04 0.0 
2.529374417384e-04 1.386448994556e-02 0.0 
0.0 0.0 0.0 
4.297358105327e-04 3.695033057857e-05 0.0 
3.695033057857e-05 6.679996955797e-03 0.0 
0.0 0.0 0.0 
0.0 1.964581518610e-04 0.0 
1.964581518610e-04 1.391220129788e-02 0.0 
0.0 0.0 0.0 
3.249969882217e-04 3.945703387343e-05 0.0 
3.945703387343e-05 7.187925232561e-03 0.0 
0.0 0.0 0.0 
2.037869570872e-04 4.875484472895e-05 0.0 
4.875484472895e-05 7.711106313312e-03 0.0 
0.0 0.0 0.0 
5.684702518947e-04 -4.366834626179e-05 0.0 
-4.366834626179e-05 3.334548530590e-03 0.0 
0.0 0.0 0.0 
-1.246849791342e-04 2.854221694327e-04 0.0 
2.854221694327e-04 1.386589718852e-02 0.0 
0.0 0.0 0.0 
-9.949426151801e-05 2.525631537473e-04 0.0 
2.525631537473e-04 1.388255631981e-02 0.0 
0.0 0.0 0.0 
3.726168082407e-04 9.847908985589e-06 0.0 
9.847908985589e-06 6.906627012226e-03 0.0 
0.0 0.0 0.0 
2.630671295734e-04 1.658222986121e-05 0.0 
1.658222986121e-05 7.428263649564e-03 0.0 
0.0 0.0 0.0 
5.797878510732e-04 9.565001207719e-05 0.0 
9.565001207719e-05 5.739310461263e-03 0.0 
0.0 0.0 0.0 
-5.084369061521e-04 -6.732866245171e-05 0.0 
-6.732866245171e-05 3.478342996972e-04 0.0 
0.0 0.0 0.0 
5.984309665139e-04 -7.563023364381e-05 0.0 
-7.563023364381e-05 3.402919975100e-03 0.0 
0.0 0.0 0.0 
-3.660759560353e-05 -6.906508084624e-05 0.0 
-6.906508084624e-05 4.000108829174e-04 0.0 
0.0 0.0 0.0 
3.994114244872e-04 4.596314210251e-04 0.0 
4.596314210251e-04 7.193962700981e-03 0.0 
0.0 0.0 0.0 
6.940500806665e-04 2.366449839980e-05 0.0 
2.366449839980e-05 3.621513411513e-03 0.0 
0.0 0.0 0.0 
5.036577463258e-04 2.541441844539e-04 0.0 
2.541441844539e-04 6.484753319503e-03 0.0 
0.0 0.0 0.0 
3.042234901822e-04 -2.329904385927e-04 0.0 
-2.329904385927e-04 1.758971955127e-03 0.0 
0.0 0.0 0.0 
5.515189999628e-05 -8.340771008791e-05 0.0 
-8.340771008791e-05 7.115171660443e-04 0.0 
0.0 0.0 0.0 
3.891740760311e-04 2.132483279720e-04 0.0 
2.132483279720e-04 6.983937214641e-03 0.0 
0.0 0.0 0.0 
6.429512674995e-04 -3.867336098826e-05 0.0 
-3.867336098826e-05 3.808484238717e-03 0.0 
0.0 0.0 0.0 
5.204496178208e-04 1.624646270416e-05 0.0 
1.624646270416e-05 2.944628838046e-03 0.0 
0.0 0.0 0.0 
4.826502676065e-04 1.826422258733e-04 0.0 
1.826422258733e-04 6.496236186219e-03 0.0 
0.0 0.0 0.0 
-2.526537197346e-04 1.362744910043e-04 0.0 
1.362744910043e-04 1.312970292942e-02 0.0 
0.0 0.0 0.0 
5.188305159549e-04 -4.819263806115e-05 0.0 
-4.819263806115e-05 2.943409744883e-03 0.0 
0.0 0.0 0.0 
6.950431628479e-04 6.208126564584e-04 0.0 
6.208126564584e-04 6.358918129456e-03 0.0 
0.0 0.0 0.0 
7.736152251159e-04 2.973408975446e-04 0.0 
2.973408975446e-04 5.250684599018e-03 0.0 
0.0 0.0 0.0 
6.030456584518e-04 1.702748294062e-04 0.0 
1.702748294062e-04 5.727667832800e-03 0.0 
0.0 0.0 0.0 
5.603919452410e-04 1.429913638868e-04 0.0 
1.429913638868e-04 5.933816899577e-03 0.0 
0.0 0.0 0.0 
8.783542999389e-04 8.043862255687e-04 0.0 
8.043862255687e-04 3.798539474404e-03 0.0 
0.0 0.0 0.0 
-9.303290415626e-04 1.399499369632e-03 0.0 
1.399499369632e-03 9.151455144127e-03 0.0 
0.0 0.0 0.0 
3.516223519060e-04 1.494591856579e-03 0.0 
1.494591856579e-03 6.577022896730e-03 0.0 
0.0 0.0 0.0 
6.847054254591e-04 2.033724703715e-04 0.0 
2.033724703715e-04 5.342700592645e-03 0.0 
0.0 0.0 0.0 
4.352342995970e-04 1.450360704992e-04 0.0 
1.450360704992e-04 6.705982903554e-03 0.0 
0.0 0.0 0.0 
5.184001311127e-04 1.157363137557e-04 0.0 
1.157363137557e-04 6.148845075735e-03 0.0 
0.0 0.0 0.0 
3.925237805220e-04 -1.499976989616e-04 0.0 
-1.499976989616e-04 1.830841587858e-03 0.0 
0.0 0.0 0.0 
-2.783940663029e-04 2.241199346731e-04 0.0 
2.241199346731e-04 1.310897969662e-02 0.0 
0.0 0.0 0.0 
-3.664709545020e-04 1.931090968629e-04 0.0 
1.931090968629e-04 1.274741507065e-02 0.0 
0.0 0.0 0.0 
-5.916526726388e-04 7.108729380282e-05 0.0 
7.108729380282e-05 1.095978923948e-02 0.0 
0.0 0.0 0.0 
6.801831696908e-04 2.663527780557e-04 0.0 
2.663527780557e-04 5.618159325486e-03 0.0 
0.0 0.0 0.0 
6.437166573587e-04 1.883560811743e-04 0.0 
1.883560811743e-04 5.533489395273e-03 0.0 
0.0 0.0 0.0 
-2.907471950115e-04 8.926481674018e-05 0.0 
8.926481674018e-05 1.314370982223e-02 0.0 
0.0 0.0 0.0 
-3.193042475315e-04 1.689905343626e-04 0.0 
1.689905343626e-04 1.294386693989e-02 0.0 
0.0 0.0 0.0 
7.467588841714e-04 2.225500688203e-04 0.0 
2.225500688203e-04 5.089239988480e-03 0.0 
0.0 0.0 0.0 
3.373804224436e-04 1.682016802871e-04 0.0 
1.682016802871e-04 7.198399801599e-03 0.0 
0.0 0.0 0.0 
-4.564823002009e-04 3.447530296084e-04 0.0 
3.447530296084e-04 1.267861710978e-02 0.0 
0.0 0.0 0.0 
5.041428287120e-04 4.300583843313e-05 0.0 
4.300583843313e-05 6.148776643006e-03 0.0 
0.0 0.0 0.0 
3.313171076142e-04 4.087495836281e-04 0.0 
4.087495836281e-04 7.417075912907e-03 0.0 
0.0 0.0 0.0 
-3.216452594459e-04 1.765004096924e-04 0.0 
1.765004096924e-04 1.311716250453e-02 0.0 
0.0 0.0 0.0 
-5.346728207190e-04 1.188492832125e-04 0.0 
1.188492832125e-04 1.217692244066e-02 0.0 
0.0 0.0 0.0 
7.253347363838e-04 5.097653674926e-04 0.0 
5.097653674926e-04 6.017117459948e-03 0.0 
0.0 0.0 0.0 
3.300901081142e-04 -6.481195889561e-05 0.0 
-6.481195889561e-05 1.805252702206e-03 0.0 
0.0 0.0 0.0 
3.428985041427e-04 -1.527326893313e-04 0.0 
-1.527326893313e-04 1.690645651951e-03 0.0 
0.0 0.0 0.0 
-6.531148446731e-06 -2.352772078231e-04 0.0 
-2.352772078231e-04 8.842039060166e-04 0.0 
0.0 0.0 0.0 
-5.088703403485e-04 -1.531659593937e-04 0.0 
-1.531659593937e-04 6.117943200128e-04 0.0 
0.0 0.0 0.0 
-3.451852820355e-04 1.206306183292e-04 0.0 
1.206306183292e-04 1.294863231034e-02 0.0 
0.0 0.0 0.0 
3.930273833312e-04 1.813719329574e-04 0.0 
1.813719329574e-04 6.901197577706e-03 0.0 
0.0 0.0 0.0 
-4.378952518655e-04 -1.499684021277e-04 0.0 
-1.499684021277e-04 5.723168960765e-04 0.0 
0.0 0.0 0.0 
-6.389442299216e-04 1.244650558025e-03 0.0 
1.244650558025e-03 1.234239016929e-02 0.0 
0.0 0.0 0.0 
-5.925598854896e-04 8.902580678264e-05 0.0 
8.902580678264e-05 1.115800722747e-02 0.0 
0.0 0.0 0.0 
5.288013456966e-04 2.097593303765e-04 0.0 
2.097593303765e-04 6.301036130815e-03 0.0 
0.0 0.0 0.0 
4.858217532835e-04 1.643890349735e-04 0.0 
1.643890349735e-04 6.408575550095e-03 0.0 
0.0 0.0 0.0 
6.936772929815e-04 -2.517930527192e-05 0.0 
-2.517930527192e-05 2.654718944489e-03 0.0 
0.0 0.0 0.0 
4.750922252033e-04 9.039035011821e-05 0.0 
9.039035011821e-05 6.419271723058e-03 0.0 
0.0 0.0 0.0 
-6.187765246277e-04 -1.380455888571e-06 0.0 
-1.380455888571e-06 1.095818361154e-02 0.0 
0.0 0.0 0.0 
6.489862706220e-04 1.215426480331e-03 0.0 
1.215426480331e-03 7.156042162228e-03 0.0 
0.0 0.0 0.0 
2.859698691282e-04 4.492826576318e-04 0.0 
4.492826576318e-04 7.627758575339e-03 0.0 
0.0 0.0 0.0 
3.162061636226e-04 -2.457628918640e-05 0.0 
-2.457628918640e-05 1.741916103589e-03 0.0 
0.0 0.0 0.0 
3.452664970440e-04 5.531507359920e-04 0.0 
5.531507359920e-04 7.532613786489e-03 0.0 
0.0 0.0 0.0 
-4.792069748055e-04 1.110271937219e-04 0.0 
1.110271937219e-04 1.238166976147e-02 0.0 
0.0 0.0 0.0 
3.639414907772e-04 -3.786754498793e-05 0.0 
-3.786754498793e-05 1.965687534723e-03 0.0 
0.0 0.0 0.0 
4.193494606066e-04 -2.334350749826e-04 0.0 
-2.334350749826e-04 2.069646771212e-03 0.0 
0.0 0.0 0.0 
6.528832625781e-04 5.337405844626e-05 0.0 
5.337405844626e-05 4.344193421824e-03 0.0 
0.0 0.0 0.0 
-5.817082143013e-04 1.705326178947e-04 0.0 
1.705326178947e-04 1.175921838449e-02 0.0 
0.0 0.0 0.0 
5.862978573989e-04 -5.549422495660e-05 0.0 
-5.549422495660e-05 2.822232848192e-03 0.0 
0.0 0.0 0.0 
-4.242575792553e-04 9.532872086528e-05 0.0 
9.532872086528e-05 1.258495855037e-02 0.0 
0.0 0.0 0.0 
-5.317694652521e-04 7.282643167226e-05 0.0 
7.282643167226e-05 1.198816277868e-02 0.0 
0.0 0.0 0.0 
7.033749994669e-04 7.276044656587e-05 0.0 
7.276044656587e-05 4.216387071900e-03 0.0 
0.0 0.0 0.0 
5.421423059482e-04 7.190090135279e-05 0.0 
7.190090135279e-05 5.938903271954e-03 0.0 
0.0 0.0 0.0 
5.165943436247e-04 1.210265620744e-04 0.0 
1.210265620744e-04 6.216136494829e-03 0.0 
0.0 0.0 0.0 
-4.374353810878e-04 1.619669512712e-04 0.0 
1.619669512712e-04 1.237421820241e-02 0.0 
0.0 0.0 0.0 
2.389085341061e-04 -1.749518185144e-04 0.0 
-1.749518185144e-04 1.505829941179e-03 0.0 
0.0 0.0 0.0 
6.748941636918e-04 4.286232818924e-05 0.0 
4.286232818924e-05 3.978174151027e-03 0.0 
0.0 0.0 0.0 
4.287442194719e-04 1.616526257151e-03 0.0 
1.616526257151e-03 8.612880590060e-03 0.0 
0.0 0.0 0.0 
-4.722290097765e-04 1.608435805117e-04 0.0 
1.608435805117e-04 1.255421626049e-02 0.0 
0.0 0.0 0.0 
6.481968180001e-04 1.531696352417e-05 0.0 
1.531696352417e-05 3.560696693956e-03 0.0 
0.0 0.0 0.0 
7.107097586396e-04 2.131563520249e-04 0.0 
2.131563520249e-04 5.264590793431e-03 0.0 
0.0 0.0 0.0 
4.064321268087e-04 5.877783909005e-04 0.0 
5.877783909005e-04 7.364656733700e-03 0.0 
0.0 0.0 0.0 
-4.842181926138e-04 1.684938103446e-04 0.0 
1.684938103446e-04 1.217096184546e-02 0.0 
0.0 0.0 0.0 
-2.350732224676e-04 -8.757950985003e-05 0.0 
-8.757950985003e-05 1.068222573717e-03 0.0 
0.0 0.0 0.0 
2.522847864483e-05 -1.884611120413e-04 0.0 
-1.884611120413e-04 8.449512539801e-04 0.0 
0.0 0.0 0.0 
3.791410892795e-04 1.756693734690e-04 0.0 
1.756693734690e-04 2.136675808029e-03 0.0 
0.0 0.0 0.0 
4.484317546785e-04 2.241692614319e-04 0.0 
2.241692614319e-04 6.693958610217e-03 0.0 
0.0 0.0 0.0 
-5.350021900852e-04 1.719356460716e-04 0.0 
1.719356460716e-04 1.196670542723e-02 0.0 
0.0 0.0 0.0 
6.357758209270e-04 -3.958602563706e-06 0.0 
-3.958602563706e-06 4.782382027716e-03 0.0 
0.0 0.0 0.0 
-6.094855704704e-04 1.194661222461e-04 0.0 
1.194661222461e-04 1.136156489865e-02 0.0 
0.0 0.0 0.0 
5.408550646786e-04 8.298946654937e-04 0.0 
8.298946654937e-04 7.236833242799e-03 0.0 
0.0 0.0 0.0 
6.846430068430e-04 7.610978877678e-05 0.0 
7.610978877678e-05 4.399208303721e-03 0.0 
0.0 0.0 0.0 
5.358955800463e-04 1.972012246536e-04 0.0 
1.972012246536e-04 6.204356368847e-03 0.0 
0.0 0.0 0.0 
3.133329327742e-04 -1.262903738205e-04 0.0 
-1.262903738205e-04 1.815313095390e-03 0.0 
0.0 0.0 0.0 
3.696548415135e-04 5.046389747856e-04 0.0 
5.046389747856e-04 7.421042666937e-03 0.0 
0.0 0.0 0.0 
6.591295905054e-04 -6.758992766925e-07 0.0 
-6.758992766925e-07 4.228229613021e-03 0.0 
0.0 0.0 0.0 
3.400522143768e-04 -1.016743086823e-04 0.0 
-1.016743086823e-04 1.975753019130e-03 0.0 
0.0 0.0 0.0 
6.368309253257e-04 -2.991685300872e-05 0.0 
-2.991685300872e-05 3.990320771782e-03 0.0 
0.0 0.0 0.0 
5.956877021809e-04 -3.673739263467e-05 0.0 
-3.673739263467e-05 2.991481901671e-03 0.0 
0.0 0.0 0.0 
4.384968332476e-04 -1.877059250724e-04 0.0 
-1.877059250724e-04 2.288359164930e-03 0.0 
0.0 0.0 0.0 
6.473838174750e-04 6.872456367201e-05 0.0 
6.872456367201e-05 4.768215481284e-03 0.0 
0.0 0.0 0.0 
-1.301371723925e-04 -4.496986300884e-05 0.0 
-4.496986300884e-05 1.878965428803e-04 0.0 
0.0 0.0 0.0 
-1.973667617367e-04 -4.791967894669e-05 0.0 
-4.791967894669e-05 2.176709599697e-04 0.0 
0.0 0.0 0.0 
6.104789605874e-04 1.132020194653e-04 0.0 
1.132020194653e-04 5.545227719048e-03 0.0 
0.0 0.0 0.0 
2.773081275167e-04 -1.528329727974e-04 0.0 
-1.528329727974e-04 1.660479328371e-03 0.0 
0.0 0.0 0.0 
6.341557785148e-04 1.872186552547e-04 0.0 
1.872186552547e-04 5.630586552111e-03 0.0 
0.0 0.0 0.0 
6.729734518527e-04 2.019738194624e-04 0.0 
2.019738194624e-04 5.445436080279e-03 0.0 
0.0 0.0 0.0 
7.060848731233e-04 -1.285890670886e-06 0.0 
-1.285890670886e-06 3.273540888793e-03 0.0 
0.0 0.0 0.0 
5.523568046637e-04 -7.403751090163e-05 0.0 
-7.403751090163e-05 2.127384744658e-03 0.0 
0.0 0.0 0.0 
-4.501989325973e-04 2.882343847693e-04 0.0 
2.882343847693e-04 1.287963168295e-02 0.0 
0.0 0.0 0.0 
-1.235160269205e-04 3.748220118443e-04 0.0 
3.748220118443e-04 1.388123051099e-03 0.0 
0.0 0.0 0.0 
6.018436674367e-04 -1.967810230029e-05 0.0 
-1.967810230029e-05 3.166086275354e-03 0.0 
0.0 0.0 0.0 
4.706640300598e-04 9.668526931506e-04 0.0 
9.668526931506e-04 7.607433768451e-03 0.0 
0.0 0.0 0.0 
2.496393157543e-04 -6.860118363816e-05 0.0 
-6.860118363816e-05 1.419160242014e-03 0.0 
0.0 0.0 0.0 
-6.242017256046e-04 7.918973965027e-05 0.0 
7.918973965027e-05 1.157958436827e-02 0.0 
0.0 0.0 0.0 
-6.417770850949e-04 3.064311383884e-05 0.0 
3.064311383884e-05 1.116603454323e-02 0.0 
0.0 0.0 0.0 
1.919864730291e-04 -2.376510069097e-04 0.0 
-2.376510069097e-04 1.396536653779e-03 0.0 
0.0 0.0 0.0 
4.744870810796e-04 6.381546699550e-04 0.0 
6.381546699550e-04 7.178580894263e-03 0.0 
0.0 0.0 0.0 
-6.046820426984e-04 2.425106776153e-04 0.0 
2.425106776153e-04 1.232106146309e-02 0.0 
0.0 0.0 0.0 
2.931922530465e-04 -8.725329401640e-05 0.0 
-8.725329401640e-05 1.647136488985e-03 0.0 
0.0 0.0 0.0 
-4.354064684235e-04 3.659024920948e-04 0.0 
3.659024920948e-04 1.302782509860e-02 0.0 
0.0 0.0 0.0 
-3.605320269184e-04 4.029801618514e-04 0.0 
4.029801618514e-04 1.302158259326e-02 0.0 
0.0 0.0 0.0 
3.263925680086e-04 -1.738160362622e-04 0.0 
-1.738160362622e-04 1.863984883156e-03 0.0 
0.0 0.0 0.0 
-1.642818054053e-04 1.536558164178e-03 0.0 
1.536558164178e-03 5.804707266982e-03 0.0 
0.0 0.0 0.0 
3.451736583067e-04 -2.103581128090e-04 0.0 
-2.103581128090e-04 1.915666419845e-03 0.0 
0.0 0.0 0.0 
5.580579991888e-04 1.484681246957e-04 0.0 
1.484681246957e-04 6.014577976051e-03 0.0 
0.0 0.0 0.0 
6.655879518944e-04 7.506499935309e-05 0.0 
7.506499935309e-05 4.584982129716e-03 0.0 
0.0 0.0 0.0 
-5.219852376404e-04 1.065106452543e-03 0.0 
1.065106452543e-03 1.262284385881e-02 0.0 
0.0 0.0 0.0 
-3.862012377591e-04 3.282369164121e-04 0.0 
3.282369164121e-04 1.287471517799e-02 0.0 
0.0 0.0 0.0 
5.957169034212e-04 1.695602841628e-04 0.0 
1.695602841628e-04 5.821033241425e-03 0.0 
0.0 0.0 0.0 
6.321932377278e-04 2.467949082711e-04 0.0 
2.467949082711e-04 5.808995364158e-03 0.0 
0.0 0.0 0.0 
2.637153279688e-04 -1.373674830021e-04 0.0 
-1.373674830021e-04 1.536569066869e-03 0.0 
0.0 0.0 0.0 
5.843531877763e-04 2.234741008102e-04 0.0 
2.234741008102e-04 6.002943260524e-03 0.0 
0.0 0.0 0.0 
-5.318784675484e-04 2.827967741547e-04 0.0 
2.827967741547e-04 1.231610911396e-02 0.0 
0.0 0.0 0.0 
6.405934365650e-04 5.433946692963e-06 0.0 
5.433946692963e-06 4.595918739819e-03 0.0 
0.0 0.0 0.0 
-5.888593944948e-04 1.240394750934e-04 0.0 
1.240394750934e-04 1.197246104510e-02 0.0 
0.0 0.0 0.0 
-5.344566920392e-04 2.338555068518e-04 0.0 
2.338555068518e-04 1.252160030504e-02 0.0 
0.0 0.0 0.0 
8.678043805046e-04 1.091355229267e-03 0.0 
1.091355229267e-03 5.201356163551e-03 0.0 
0.0 0.0 0.0 
-4.054942396926e-04 2.647093746992e-04 0.0 
2.647093746992e-04 1.271578272799e-02 0.0 
0.0 0.0 0.0 
6.415697209461e-04 2.810748122557e-05 0.0 
2.810748122557e-05 3.763682287641e-03 0.0 
0.0 0.0 0.0 
6.495524087737e-04 4.160352554148e-06 0.0 
4.160352554148e-06 4.410737604618e-03 0.0 
0.0 0.0 0.0 
5.414803304284e-04 -3.889374115749e-05 0.0 
-3.889374115749e-05 2.779052286277e-03 0.0 
0.0 0.0 0.0 
6.296882216932e-04 -1.186181123331e-04 0.0 
-1.186181123331e-04 2.961152581557e-03 0.0 
0.0 0.0 0.0 
-5.340206302971e-04 2.223136750365e-04 0.0 
2.223136750365e-04 1.214454921101e-02 0.0 
0.0 0.0 0.0 
8.133543899544e-04 1.587611259046e-04 0.0 
1.587611259046e-04 4.309909428657e-03 0.0 
0.0 0.0 0.0 
3.801224358304e-04 -1.857972608923e-04 0.0 
-1.857972608923e-04 2.075317120037e-03 0.0 
0.0 0.0 0.0 
7.124160427852e-05 -2.213652762098e-04 0.0 
-2.213652762098e-04 1.042909506193e-03 0.0 
0.0 0.0 0.0 
-5.971839162692e-04 1.784861322421e-04 0.0 
1.784861322421e-04 1.214987933655e-02 0.0 
0.0 0.0 0.0 
4.147478629895e-04 -1.090379660246e-04 0.0 
-1.090379660246e-04 2.063217595281e-03 0.0 
0.0 0.0 0.0 
3.880027191130e-04 6.271094561171e-04 0.0 
6.271094561171e-04 7.525096045786e-03 0.0 
0.0 0.0 0.0 
-4.776593930321e-04 2.181582274019e-04 0.0 
2.181582274019e-04 1.234708561786e-02 0.0 
0.0 0.0 0.0 
5.586627062066e-04 2.875205868635e-04 0.0 
2.875205868635e-04 6.289063101342e-03 0.0 
0.0 0.0 0.0 
1.815831697813e-04 1.321643624994e-03 0.0 
1.321643624994e-03 8.718322465429e-03 0.0 
0.0 0.0 0.0 
6.090786525619e-04 -5.929940186912e-05 0.0 
-5.929940186912e-05 3.576766892075e-03 0.0 
0.0 0.0 0.0 
3.504836888926e-04 -1.015743108452e-04 0.0 
-1.015743108452e-04 1.852691526537e-03 0.0 
0.0 0.0 0.0 
1.387615878876e-04 -1.281363788311e-04 0.0 
-1.281363788311e-04 1.171266818095e-03 0.0 
0.0 0.0 0.0 
6.192312582924e-04 2.584415255778e-04 0.0 
2.584415255778e-04 5.916520072765e-03 0.0 
0.0 0.0 0.0 
-5.364589405613e-04 1.327670219585e-04 0.0 
1.327670219585e-04 1.178554892260e-02 0.0 
0.0 0.0 0.0 
1.677973196235e-05 -1.123295766233e-04 0.0 
-1.123295766233e-04 8.264895241261e-04 0.0 
0.0 0.0 0.0 
5.394086457213e-04 -1.316705318614e-04 0.0 
-1.316705318614e-04 2.834208677246e-03 0.0 
0.0 0.0 0.0 
2.705978691462e-04 -1.037849272635e-04 0.0 
-1.037849272635e-04 1.607934950110e-03 0.0 
0.0 0.0 0.0 
-6.393987861618e-04 1.252576108468e-04 0.0 
1.252576108468e-04 1.176465238110e-02 0.0 
0.0 0.0 0.0 
5.563630173258e-04 -1.095515431526e-04 0.0 
-1.095515431526e-04 3.002854016176e-03 0.0 
0.0 0.0 0.0 
7.276368700517e-04 2.827322692365e-04 0.0 
2.827322692365e-04 5.432300345184e-03 0.0 
0.0 0.0 0.0 
5.097948705275e-04 -1.138567938677e-04 0.0 
-1.138567938677e-04 2.786959826351e-03 0.0 
0.0 0.0 0.0 
-4.092022467787e-04 1.435786910580e-04 0.0 
1.435786910580e-04 1.275405683672e-02 0.0 
0.0 0.0 0.0 
5.071386003530e-04 -8.581376718274e-05 0.0 
-8.581376718274e-05 2.439563444072e-03 0.0 
0.0 0.0 0.0 
6.474596059189e-04 3.621275806575e-04 0.0 
3.621275806575e-04 6.032828763510e-03 0.0 
0.0 0.0 0.0 
2.867855146169e-04 -2.664952851839e-04 0.0 
-2.664952851839e-04 1.708809420605e-03 0.0 
0.0 0.0 0.0 
6.643138233369e-04 2.770307810165e-04 0.0 
2.770307810165e-04 5.731969466905e-03 0.0 
0.0 0.0 0.0 
6.358185978381e-04 -1.309428863905e-05 0.0 
-1.309428863905e-05 4.182116815181e-03 0.0 
0.0 0.0 0.0 
6.138628987951e-04 3.151799079721e-04 0.0 
3.151799079721e-04 6.094251315107e-03 0.0 
0.0 0.0 0.0 
8.710137691454e-04 3.969281727415e-04 0.0 
3.969281727415e-04 3.099282688727e-03 0.0 
0.0 0.0 0.0 
2.823148153779e-04 -4.073232783323e-05 0.0 
-4.073232783323e-05 1.591833962416e-03 0.0 
0.0 0.0 0.0 
-6.082876113290e-04 4.302102288644e-05 0.0 
4.302102288644e-05 1.138970871542e-02 0.0 
0.0 0.0 0.0 
8.170826732687e-04 7.176489964005e-04 0.0 
7.176489964005e-04 5.954618834289e-03 0.0 
0.0 0.0 0.0 
-7.576869640813e-06 1.707088729506e-03 0.0 
1.707088729506e-03 6.994449584104e-03 0.0 
0.0 0.0 0.0 
-5.800913363968e-04 7.867613509676e-05 0.0 
7.867613509676e-05 1.178732931931e-02 0.0 
0.0 0.0 0.0 
3.787618528877e-04 -2.460973990946e-04 0.0 
-2.460973990946e-04 1.924314995819e-03 0.0 
0.0 0.0 0.0 
-6.520935089496e-04 2.800857916640e-04 0.0 
2.800857916640e-04 1.190704894001e-02 0.0 
0.0 0.0 0.0 
2.297115172116e-04 -1.299964135345e-04 0.0 
-1.299964135345e-04 1.443047139843e-03 0.0 
0.0 0.0 0.0 
4.629133954475e-04 4.872861518113e-04 0.0 
4.872861518113e-04 7.030347034849e-03 0.0 
0.0 0.0 0.0 
7.764313578680e-04 8.511823505909e-04 0.0 
8.511823505909e-04 6.350875693125e-03 0.0 
0.0 0.0 0.0 
5.533839613092e-04 1.340416534064e-03 0.0 
1.340416534064e-03 7.646241944556e-03 0.0 
0.0 0.0 0.0 
-3.465008343488e-04 3.400078281678e-04 0.0 
3.400078281678e-04 1.323074085530e-02 0.0 
0.0 0.0 0.0 
8.116735022665e-04 2.407885115713e-04 0.0 
2.407885115713e-04 4.757244655537e-03 0.0 
0.0 0.0 0.0 
2.501072534884e-04 -1.075918998863e-04 0.0 
-1.075918998863e-04 1.491006700177e-03 0.0 
0.0 0.0 0.0 
7.493715658626e-04 3.085906100845e-04 0.0 
3.085906100845e-04 5.382340306431e-03 0.0 
0.0 0.0 0.0 
4.499075786291e-04 6.768632406510e-04 0.0 
6.768632406510e-04 7.350599619981e-03 0.0 
0.0 0.0 0.0 
5.885386295097e-04 -1.446814800773e-04 0.0 
-1.446814800773e-04 2.529608551745e-03 0.0 
0.0 0.0 0.0 
5.737537320629e-04 2.362130251272e-04 0.0 
2.362130251272e-04 6.106520531414e-03 0.0 
0.0 0.0 0.0 
-5.354266397671e-04 1.714786810547e-04 0.0 
1.714786810547e-04 1.235273940769e-02 0.0 
0.0 0.0 0.0 
5.131455274621e-04 -5.940921442769e-05 0.0 
-5.940921442769e-05 1.982083770454e-03 0.0 
0.0 0.0 0.0 
7.078879738300e-04 2.933138525046e-04 0.0 
2.933138525046e-04 5.554054312433e-03 0.0 
0.0 0.0 0.0 
-7.241217364991e-04 1.128560614998e-04 0.0 
1.128560614998e-04 1.133750841922e-02 0.0 
0.0 0.0 0.0 
3.905246581994e-04 -1.192171724867e-04 0.0 
-1.192171724867e-04 2.189467308843e-03 0.0 
0.0 0.0 0.0 
5.216152718499e-04 -1.555776212303e-04 0.0 
-1.555776212303e-04 2.667858330817e-03 0.0 
0.0 0.0 0.0 
4.425071877723e-05 1.636585832417e-03 0.0 
1.636585832417e-03 7.793922310686e-03 0.0 
0.0 0.0 0.0 
6.684675044530e-04 3.387905872723e-04 0.0 
3.387905872723e-04 5.903864619063e-03 0.0 
0.0 0.0 0.0 
-3.787163631495e-04 1.697415034723e-03 0.0 
1.697415034723e-03 7.598750951621e-03 0.0 
0.0 0.0 0.0 
2.037682531657e-04 1.582543224305e-03 0.0 
1.582543224305e-03 7.186870836455e-03 0.0 
0.0 0.0 0.0 
-5.933488845135e-04 2.834183626187e-04 0.0 
2.834183626187e-04 1.211302411790e-02 0.0 
0.0 0.0 0.0 
-5.747273383861e-04 1.305392428315e-04 0.0 
1.305392428315e-04 1.157345934748e-02 0.0 
0.0 0.0 0.0 
-6.846130430260e-04 2.033808471786e-04 0.0 
2.033808471786e-04 1.152370017687e-02 0.0 
0.0 0.0 0.0 
6.632921776961e-04 4.771892013095e-05 0.0 
4.771892013095e-05 4.168495989092e-03 0.0 
0.0 0.0 0.0 
5.380238809978e-04 6.714437942083e-04 0.0 
6.714437942083e-04 7.020621817504e-03 0.0 
0.0 0.0 0.0 
7.881303401334e-04 3.234093734254e-04 0.0 
3.234093734254e-04 5.217671534891e-03 0.0 
0.0 0.0 0.0 
-6.669316186829e-04 7.488054654203e-05 0.0 
7.488054654203e-05 1.136685141244e-02 0.0 
0.0 0.0 0.0 
-5.479464800322e-04 1.389880417714e-03 0.0 
1.389880417714e-03 1.232483880013e-02 0.0 
0.0 0.0 0.0 
4.475928413550e-04 1.452297615272e-03 0.0 
1.452297615272e-03 8.144195088260e-03 0.0 
0.0 0.0 0.0 
7.218276129213e-04 3.598696464947e-04 0.0 
3.598696464947e-04 5.718872889927e-03 0.0 
0.0 0.0 0.0 
-4.686428719981e-04 2.760827697721e-04 0.0 
2.760827697721e-04 1.251643649031e-02 0.0 
0.0 0.0 0.0 
6.370269700944e-04 -1.042506024630e-04 0.0 
-1.042506024630e-04 3.120105447069e-03 0.0 
0.0 0.0 0.0 
5.792800266766e-04 -1.364173869662e-04 0.0 
-1.364173869662e-04 2.890303305322e-03 0.0 
0.0 0.0 0.0 
2.430595354141e-04 -2.206974448568e-04 0.0 
-2.206974448568e-04 1.549507890500e-03 0.0 
0.0 0.0 0.0 
7.426983146812e-04 4.048474439478e-04 0.0 
4.048474439478e-04 5.691061062328e-03 0.0 
0.0 0.0 0.0 
5.897931923962e-04 -1.156381961572e-04 0.0 
-1.156381961572e-04 3.057719247566e-03 0.0 
0.0 0.0 0.0 
-6.564654915671e-04 1.798902105709e-04 0.0 
1.798902105709e-04 1.194408979747e-02 0.0 
0.0 0.0 0.0 
-7.128049710573e-04 1.777230813133e-04 0.0 
1.777230813133e-04 1.173604800465e-02 0.0 
0.0 0.0 0.0 
8.535467460231e-04 8.545633360889e-04 0.0 
8.545633360889e-04 5.229950093561e-03 0.0 
0.0 0.0 0.0 
5.579868052827e-04 -9.253978977265e-05 0.0 
-9.253978977265e-05 2.491125522908e-03 0.0 
0.0 0.0 0.0 
8.126766838426e-04 7.343265971391e-04 0.0 
7.343265971391e-04 3.345608886729e-03 0.0 
0.0 0.0 0.0 
5.739307900035e-04 -7.452296670677e-05 0.0 
-7.452296670677e-05 2.654986496947e-03 0.0 
0.0 0.0 0.0 
6.410676666939e-04 -5.018733321909e-05 0.0 
-5.018733321909e-05 2.876635821567e-03 0.0 
0.0 0.0 0.0 
3.108642958429e-04 -1.215838099075e-04 0.0 
-1.215838099075e-04 1.694383066250e-03 0.0 
0.0 0.0 0.0 
5.983625944046e-04 7.071209955762e-04 0.0 
7.071209955762e-04 6.864868346649e-03 0.0 
0.0 0.0 0.0 
8.306100718609e-04 1.050477825567e-04 0.0 
1.050477825567e-04 3.595811987842e-03 0.0 
0.0 0.0 0.0 
-4.631820729115e-04 2.192917976982e-04 0.0 
2.192917976982e-04 1.272132021926e-02 0.0 
0.0 0.0 0.0 
8.819588383837e-04 1.853275221587e-04 0.0 
1.853275221587e-04 3.859927198968e-03 0.0 
0.0 0.0 0.0 
8.221772945656e-04 3.996744059914e-04 0.0 
3.996744059914e-04 5.368021978919e-03 0.0 
0.0 0.0 0.0 
8.717602887867e-04 2.510226219476e-04 0.0 
2.510226219476e-04 4.454892430804e-03 0.0 
0.0 0.0 0.0 
4.781826488409e-04 1.405433749517e-03 0.0 
1.405433749517e-03 6.423318449613e-03 0.0 
0.0 0.0 0.0 
2.871234204493e-04 -1.976881704310e-04 0.0 
-1.976881704310e-04 1.707114751322e-03 0.0 
0.0 0.0 0.0 
5.208674805786e-04 7.083053563354e-04 0.0 
7.083053563354e-04 7.165224912766e-03 0.0 
0.0 0.0 0.0 
4.069938229641e-04 7.458023984359e-04 0.0 
7.458023984359e-04 7.570045195957e-03 0.0 
0.0 0.0 0.0 
-1.202248872979e-04 1.680755340829e-03 0.0 
1.680755340829e-03 9.133169306155e-03 0.0 
0.0 0.0 0.0 
7.075817292932e-04 -1.237785000558e-05 0.0 
-1.237785000558e-05 3.105506729789e-03 0.0 
0.0 0.0 0.0 
8.584526020261e-04 3.254586557419e-04 0.0 
3.254586557419e-04 4.904911917155e-03 0.0 
0.0 0.0 0.0 
-5.875861855812e-04 2.219485847823e-04 0.0 
2.219485847823e-04 1.193898218559e-02 0.0 
0.0 0.0 0.0 
6.410893241560e-04 -8.713014398818e-05 0.0 
-8.713014398818e-05 3.287078197393e-03 0.0 
0.0 0.0 0.0 
1.903231236715e-04 1.566277453989e-03 0.0 
1.566277453989e-03 6.358356985172e-03 0.0 
0.0 0.0 0.0 
4.634315710723e-04 -1.624372887291e-04 0.0 
-1.624372887291e-04 2.451652715677e-03 0.0 
0.0 0.0 0.0 
4.691219796904e-04 -2.065935566350e-04 0.0 
-2.065935566350e-04 2.148325919347e-03 0.0 
0.0 0.0 0.0 
6.934170345538e-04 -5.849192551816e-05 0.0 
-5.849192551816e-05 3.358892928343e-03 0.0 
0.0 0.0 0.0 
4.435949808235e-04 -8.776790665557e-05 0.0 
-8.776790665557e-05 2.226254616617e-03 0.0 
0.0 0.0 0.0 
3.597583398360e-04 -1.483870985131e-04 0.0 
-1.483870985131e-04 2.024840189831e-03 0.0 
0.0 0.0 0.0 
7.904864122188e-04 1.540225952272e-04 0.0 
1.540225952272e-04 4.470238828605e-03 0.0 
0.0 0.0 0.0 
7.734426985972e-04 3.802040628602e-04 0.0 
3.802040628602e-04 5.540348870428e-03 0.0 
0.0 0.0 0.0 
-1.474844163958e-04 1.744566939956e-03 0.0 
1.744566939956e-03 1.039495561625e-02 0.0 
0.0 0.0 0.0 
-2.610949033313e-04 -3.118672422942e-05 0.0 
-3.118672422942e-05 2.216185049415e-04 0.0 
0.0 0.0 0.0 
9.527874256345e-04 3.282485826687e-04 0.0 
3.282485826687e-04 3.857454312540e-03 0.0 
0.0 0.0 0.0 
8.968409659718e-04 1.980023602020e-04 0.0 
1.980023602020e-04 3.707282001340e-03 0.0 
0.0 0.0 0.0 
7.721872536570e-04 3.900045054853e-05 0.0 
3.900045054853e-05 3.344409607440e-03 0.0 
0.0 0.0 0.0 
-6.377458006467e-04 2.148151052108e-04 0.0 
2.148151052108e-04 1.173154822726e-02 0.0 
0.0 0.0 0.0 
8.624085403963e-04 1.772746124421e-04 0.0 
1.772746124421e-04 4.018117022355e-03 0.0 
0.0 0.0 0.0 
5.263399418711e-04 -6.349358752513e-05 0.0 
-6.349358752513e-05 2.606453742638e-03 0.0 
0.0 0.0 0.0 
7.464925459311e-04 3.443503734532e-06 0.0 
3.443503734532e-06 3.611878667730e-03 0.0 
0.0 0.0 0.0 
-4.228862279683e-04 2.086637531528e-04 0.0 
2.086637531528e-04 1.254850374634e-02 0.0 
0.0 0.0 0.0 
4.833296532829e-04 -1.365415178332e-04 0.0 
-1.365415178332e-04 2.618046549101e-03 0.0 
0.0 0.0 0.0 
8.730667280510e-05 -1.044940576234e-04 0.0 
-1.044940576234e-04 9.578909083812e-04 0.0 
0.0 0.0 0.0 
1.985699979168e-04 -1.215262955510e-04 0.0 
-1.215262955510e-04 1.329993201671e-03 0.0 
0.0 0.0 0.0 
5.832564048496e-04 -7.940044983664e-05 0.0 
-7.940044983664e-05 2.276673852952e-03 0.0 
0.0 0.0 0.0 
6.320702989608e-04 -6.481694861080e-05 0.0 
-6.481694861080e-05 2.714741214482e-03 0.0 
0.0 0.0 0.0 
9.413176875119e-04 3.002951038893e-04 0.0 
3.002951038893e-04 3.994408910566e-03 0.0 
0.0 0.0 0.0 
7.935615786832e-04 7.901036640808e-05 0.0 
7.901036640808e-05 3.877950037989e-03 0.0 
0.0 0.0 0.0 
2.319176004184e-04 -2.782912285455e-04 0.0 
-2.782912285455e-04 1.560236085202e-03 0.0 
0.0 0.0 0.0 
1.914358541284e-04 -2.012681106214e-04 0.0 
-2.012681106214e-04 1.341745411372e-03 0.0 
0.0 0.0 0.0 
-8.623181781640e-04 2.373465547017e-04 0.0 
2.373465547017e-04 1.147499830799e-02 0.0 
0.0 0.0 0.0 
4.102870761293e-04 -1.601139832278e-04 0.0 
-1.601139832278e-04 2.237471133605e-03 0.0 
0.0 0.0 0.0 
7.105258738256e-04 6.798493819631e-04 0.0 
6.798493819631e-04 6.498645801155e-03 0.0 
0.0 0.0 0.0 
-6.484453972688e-05 1.735345539806e-03 0.0 
1.735345539806e-03 9.889766983570e-03 0.0 
0.0 0.0 0.0 
-1.052354056440e-03 8.637696975252e-04 0.0 
8.637696975252e-04 1.119477248208e-02 0.0 
0.0 0.0 0.0 
-5.014162822030e-04 5.272365537582e-04 0.0 
5.272365537582e-04 1.276627175761e-02 0.0 
0.0 0.0 0.0 
-1.946587232389e-04 1.742035337016e-03 0.0 
1.742035337016e-03 1.086842955025e-02 0.0 
0.0 0.0 0.0 
8.143343743445e-04 9.350878237586e-04 0.0 
9.350878237586e-04 5.225059004450e-03 0.0 
0.0 0.0 0.0 
-9.307093723121e-05 1.699634728069e-03 0.0 
1.699634728069e-03 9.509266390863e-03 0.0 
0.0 0.0 0.0 
3.263196836236e-04 -2.552306683403e-04 0.0 
-2.552306683403e-04 1.779174233705e-03 0.0 
0.0 0.0 0.0 
7.376018010286e-04 9.249687957299e-06 0.0 
9.249687957299e-06 3.773028665454e-03 0.0 
0.0 0.0 0.0 
7.162716614588e-04 1.285034574034e-03 0.0 
1.285034574034e-03 5.279168846045e-03 0.0 
0.0 0.0 0.0 
5.790303369746e-04 6.238190427400e-05 0.0 
6.238190427400e-05 2.097525250565e-03 0.0 
0.0 0.0 0.0 
1.540257619337e-04 -2.831031778410e-04 0.0 
-2.831031778410e-04 1.428546853329e-03 0.0 
0.0 0.0 0.0 
6.464346073412e-04 -3.442548447686e-05 0.0 
-3.442548447686e-05 3.044979813380e-03 0.0 
0.0 0.0 0.0 
8.046705433717e-04 8.348197942773e-05 0.0 
8.348197942773e-05 3.727710832734e-03 0.0 
0.0 0.0 0.0 
8.468208690422e-04 1.796964706397e-04 0.0 
1.796964706397e-04 4.014316154135e-03 0.0 
0.0 0.0 0.0 
4.676118083491e-04 -6.562068013891e-05 0.0 
-6.562068013891e-05 2.391228178786e-03 0.0 
0.0 0.0 0.0 
9.003834349000e-04 2.624816399762e-04 0.0 
2.624816399762e-04 4.293542693886e-03 0.0 
0.0 0.0 0.0 
8.561735452417e-04 1.988315476548e-04 0.0 
1.988315476548e-04 3.880559656853e-03 0.0 
0.0 0.0 0.0 
9.834998573282e-04 4.501674821116e-04 0.0 
4.501674821116e-04 4.175949030532e-03 0.0 
0.0 0.0 0.0 
5.654119880170e-04 -1.560707096623e-04 0.0 
-1.560707096623e-04 2.728674910334e-03 0.0 
0.0 0.0 0.0 
7.341143199513e-04 1.031338823417e-03 0.0 
1.031338823417e-03 6.713102384833e-03 0.0 
0.0 0.0 0.0 
-6.727512969874e-04 2.475683944995e-04 0.0 
2.475683944995e-04 1.211742886924e-02 0.0 
0.0 0.0 0.0 
9.862748538010e-04 4.972625121370e-04 0.0 
4.972625121370e-04 4.065056740040e-03 0.0 
0.0 0.0 0.0 
5.985024608446e-04 7.558686769151e-04 0.0 
7.558686769151e-04 7.007488470444e-03 0.0 
0.0 0.0 0.0 
4.266615882922e-04 -2.076626262007e-04 0.0 
-2.076626262007e-04 2.004799524309e-03 0.0 
0.0 0.0 0.0 
4.719876008161e-04 1.014548530570e-03 0.0 
1.014548530570e-03 7.777276556341e-03 0.0 
0.0 0.0 0.0 
9.231898923185e-04 2.781870979070e-04 0.0 
2.781870979070e-04 4.138999051947e-03 0.0 
0.0 0.0 0.0 
-2.036219091149e-04 1.776236757026e-03 0.0 
1.776236757026e-03 1.134764644482e-02 0.0 
0.0 0.0 0.0 
-6.861692598416e-04 1.482982000825e-03 0.0 
1.482982000825e-03 1.019176771882e-02 0.0 
0.0 0.0 0.0 
4.462528629947e-04 -1.246755333808e-04 0.0 
-1.246755333808e-04 1.905289728082e-03 0.0 
0.0 0.0 0.0 
-9.961515802827e-04 1.029765612436e-03 0.0 
1.029765612436e-03 1.117755322305e-02 0.0 
0.0 0.0 0.0 
-5.352981572172e-04 7.674170659974e-04 0.0 
7.674170659974e-04 1.276777942929e-02 0.0 
0.0 0.0 0.0 
9.522044669326e-04 3.828724748968e-04 0.0 
3.828724748968e-04 4.437684342203e-03 0.0 
0.0 0.0 0.0 
4.239210550949e-04 1.286787345217e-03 0.0 
1.286787345217e-03 5.047502260311e-03 0.0 
0.0 0.0 0.0 
-9.115721120921e-04 1.184682224772e-03 0.0 
1.184682224772e-03 1.112163116284e-02 0.0 
0.0 0.0 0.0 
-4.976145833502e-06 1.696353038791e-03 0.0 
1.696353038791e-03 7.391450847744e-03 0.0 
0.0 0.0 0.0 
2.840538097433e-04 -1.538110847559e-04 0.0 
-1.538110847559e-04 1.539580729371e-03 0.0 
0.0 0.0 0.0 
-2.460054566987e-04 6.822181628389e-04 0.0 
6.822181628389e-04 1.340738672606e-02 0.0 
0.0 0.0 0.0 
1.703224814567e-04 -1.604660460095e-04 0.0 
-1.604660460095e-04 1.335003375459e-03 0.0 
0.0 0.0 0.0 
3.759245402022e-04 1.477433748032e-03 0.0 
1.477433748032e-03 8.632897987032e-03 0.0 
0.0 0.0 0.0 
-3.170884402658e-04 3.071201593072e-04 0.0 
3.071201593072e-04 1.306817225711e-02 0.0 
0.0 0.0 0.0 
7.202101006891e-04 9.830125857971e-04 0.0 
9.830125857971e-04 6.771430353307e-03 0.0 
0.0 0.0 0.0 
-6.243017149203e-04 1.658671735920e-04 0.0 
1.658671735920e-04 1.154397421791e-02 0.0 
0.0 0.0 0.0 
-6.064314054063e-04 4.040267028228e-04 0.0 
4.040267028228e-04 1.263392150915e-02 0.0 
0.0 0.0 0.0 
8.886676142690e-04 3.169134316991e-04 0.0 
3.169134316991e-04 4.198225588201e-03 0.0 
0.0 0.0 0.0 
8.303619495826e-04 9.310839613773e-04 0.0 
9.310839613773e-04 5.709766361597e-03 0.0 
0.0 0.0 0.0 
-3.844909613042e-04 6.036967717239e-04 0.0 
6.036967717239e-04 1.308722697956e-02 0.0 
0.0 0.0 0.0 
7.067206540818e-04 4.468692284325e-04 0.0 
4.468692284325e-04 6.019273716555e-03 0.0 
0.0 0.0 0.0 
-6.845715306675e-04 3.271043630766e-04 0.0 
3.271043630766e-04 1.228031478502e-02 0.0 
0.0 0.0 0.0 
8.642603120868e-04 7.866767865119e-04 0.0 
7.866767865119e-04 6.055614091028e-03 0.0 
0.0 0.0 0.0 
3.994956046847e-04 -1.204250820429e-04 0.0 
-1.204250820429e-04 1.757509770229e-03 0.0 
0.0 0.0 0.0 
-6.905695015093e-04 4.185343946814e-04 0.0 
4.185343946814e-04 1.243011538893e-02 0.0 
0.0 0.0 0.0 
-2.464334688523e-05 2.011704430058e-03 0.0 
2.011704430058e-03 1.101167853749e-02 0.0 
0.0 0.0 0.0 
4.589343415990e-04 8.366503623316e-04 0.0 
8.366503623316e-04 7.549240243988e-03 0.0 
0.0 0.0 0.0 
8.163033251483e-04 1.044689399458e-04 0.0 
1.044689399458e-04 3.758056071631e-03 0.0 
0.0 0.0 0.0 
-6.855212453293e-04 1.183701780495e-04 0.0 
1.183701780495e-04 1.154852646266e-02 0.0 
0.0 0.0 0.0 
-6.623959364066e-04 1.534046486682e-04 0.0 
1.534046486682e-04 1.133265932800e-02 0.0 
0.0 0.0 0.0 
8.321985330626e-04 1.658494852516e-04 0.0 
1.658494852516e-04 4.156781787996e-03 0.0 
0.0 0.0 0.0 
7.636741046753e-04 4.724537989594e-04 0.0 
4.724537989594e-04 5.844099342160e-03 0.0 
0.0 0.0 0.0 
7.429995000465e-04 5.723173728038e-04 0.0 
5.723173728038e-04 6.162464657685e-03 0.0 
0.0 0.0 0.0 
1.401264792993e-04 -2.139608628299e-04 0.0 
-2.139608628299e-04 1.184744976962e-03 0.0 
0.0 0.0 0.0 
7.116772617257e-04 6.651276941723e-04 0.0 
6.651276941723e-04 2.903739999594e-03 0.0 
0.0 0.0 0.0 
9.950975266195e-04 6.378079982247e-04 0.0 
6.378079982247e-04 4.427687163902e-03 0.0 
0.0 0.0 0.0 
8.910698735562e-04 3.527771864393e-04 0.0 
3.527771864393e-04 4.089962958393e-03 0.0 
0.0 0.0 0.0 
3.324225355166e-04 1.599375533688e-03 0.0 
1.599375533688e-03 6.561644374352e-03 0.0 
0.0 0.0 0.0 
-3.741595370816e-04 5.436696020577e-04 0.0 
5.436696020577e-04 1.329103606079e-02 0.0 
0.0 0.0 0.0 
-5.317262745522e-04 1.242360844260e-03 0.0 
1.242360844260e-03 1.234229572531e-02 0.0 
0.0 0.0 0.0 
-3.708659150113e-04 2.636290108953e-04 0.0 
2.636290108953e-04 1.307165755977e-02 0.0 
0.0 0.0 0.0 
-5.631806554919e-04 1.658796801082e-03 0.0 
1.658796801082e-03 8.265192756670e-03 0.0 
0.0 0.0 0.0 
-6.509448553170e-04 6.666473955178e-04 0.0 
6.666473955178e-04 1.245616202656e-02 0.0 
0.0 0.0 0.0 
6.962859318058e-04 3.841908821049e-04 0.0 
3.841908821049e-04 5.857905739697e-03 0.0 
0.0 0.0 0.0 
-3.390757765497e-04 4.847989156686e-04 0.0 
4.847989156686e-04 1.316438572519e-02 0.0 
0.0 0.0 0.0 
-7.705233440378e-04 4.297792776225e-04 0.0 
4.297792776225e-04 1.222156937342e-02 0.0 
0.0 0.0 0.0 
7.790343928908e-04 7.745816130501e-05 0.0 
7.745816130501e-05 4.034093096476e-03 0.0 
0.0 0.0 0.0 
9.825212417933e-04 7.044173193783e-04 0.0 
7.044173193783e-04 4.350354981290e-03 0.0 
0.0 0.0 0.0 
-5.943780235019e-04 4.438714983063e-04 0.0 
4.438714983063e-04 1.242683558270e-02 0.0 
0.0 0.0 0.0 
-5.025122730972e-04 4.767934481054e-04 0.0 
4.767934481054e-04 1.297269222014e-02 0.0 
0.0 0.0 0.0 
-5.273620108281e-04 3.530009215782e-04 0.0 
3.530009215782e-04 1.247833461439e-02 0.0 
0.0 0.0 0.0 
-5.964455398401e-04 3.578756916316e-04 0.0 
3.578756916316e-04 1.227643600883e-02 0.0 
0.0 0.0 0.0 
5.761686449988e-04 6.122501429504e-04 0.0 
6.122501429504e-04 6.836314979046e-03 0.0 
0.0 0.0 0.0 
3.766917965948e-04 1.504721101037e-03 0.0 
1.504721101037e-03 8.616856923070e-03 0.0 
0.0 0.0 0.0 
6.468103170647e-04 6.450989520169e-04 0.0 
6.450989520169e-04 6.660072887227e-03 0.0 
0.0 0.0 0.0 
8.174080002203e-04 3.113681902748e-04 0.0 
3.113681902748e-04 5.074756448203e-03 0.0 
0.0 0.0 0.0 
-1.008341752042e-03 9.274962709531e-04 0.0 
9.274962709531e-04 9.429170790028e-03 0.0 
0.0 0.0 0.0 
6.495156212134e-04 1.117924681492e-03 0.0 
1.117924681492e-03 7.204022184464e-03 0.0 
0.0 0.0 0.0 
-8.003181216454e-04 7.059785633990e-04 0.0 
7.059785633990e-04 1.198977745954e-02 0.0 
0.0 0.0 0.0 
3.845869345549e-04 -7.984288842349e-05 0.0 
-7.984288842349e-05 2.014339212651e-03 0.0 
0.0 0.0 0.0 
9.063897652073e-04 4.919058010779e-04 0.0 
4.919058010779e-04 4.451765046810e-03 0.0 
0.0 0.0 0.0 
9.821325811787e-04 6.618644483528e-04 0.0 
6.618644483528e-04 4.982316171458e-03 0.0 
0.0 0.0 0.0 
7.898596720812e-04 1.007361584097e-03 0.0 
1.007361584097e-03 6.193011214559e-03 0.0 
0.0 0.0 0.0 
6.395362813012e-04 2.402149556110e-04 0.0 
2.402149556110e-04 2.257085324372e-03 0.0 
0.0 0.0 0.0 
8.964031120364e-04 5.479534402885e-04 0.0 
5.479534402885e-04 4.377328802585e-03 0.0 
0.0 0.0 0.0 
7.322827674787e-04 1.083875569788e-03 0.0 
1.083875569788e-03 6.679823526387e-03 0.0 
0.0 0.0 0.0 
-8.739999412116e-04 1.291329014120e-03 0.0 
1.291329014120e-03 9.407144578175e-03 0.0 
0.0 0.0 0.0 
8.386611593190e-04 1.722581031261e-04 0.0 
1.722581031261e-04 4.183869438787e-03 0.0 
0.0 0.0 0.0 
-8.229184254153e-04 3.365934129966e-04 0.0 
3.365934129966e-04 1.185951317357e-02 0.0 
0.0 0.0 0.0 
-6.476588943486e-04 6.090630966347e-05 0.0 
6.090630966347e-05 1.069650953030e-02 0.0 
0.0 0.0 0.0 
-9.917283428861e-04 1.384892455746e-03 0.0 
1.384892455746e-03 2.122070178993e-03 0.0 
0.0 0.0 0.0 
7.805962185257e-04 2.314413971902e-04 0.0 
2.314413971902e-04 4.919731277799e-03 0.0 
0.0 0.0 0.0 
7.625407878997e-04 1.035316661942e-03 0.0 
1.035316661942e-03 6.833876671707e-03 0.0 
0.0 0.0 0.0 
-4.649312803165e-04 1.197641293094e-03 0.0 
1.197641293094e-03 1.261898739290e-02 0.0 
0.0 0.0 0.0 
9.456675198241e-04 9.253973778710e-04 0.0 
9.253973778710e-04 5.239517041846e-03 0.0 
0.0 0.0 0.0 
8.392297217230e-04 2.418627391272e-04 0.0 
2.418627391272e-04 4.622886451864e-03 0.0 
0.0 0.0 0.0 
-7.379131579863e-04 2.490793681070e-04 0.0 
2.490793681070e-04 1.191082407385e-02 0.0 
0.0 0.0 0.0 
-9.893617787233e-04 1.469833912312e-03 0.0 
1.469833912312e-03 3.473108750824e-03 0.0 
0.0 0.0 0.0 
7.865231014414e-04 1.084349012925e-03 0.0 
1.084349012925e-03 6.755788676775e-03 0.0 
0.0 0.0 0.0 
8.475864189963e-04 8.665477864375e-04 0.0 
8.665477864375e-04 5.740217782901e-03 0.0 
0.0 0.0 0.0 
-9.730355219952e-04 1.289574161858e-03 0.0 
1.289574161858e-03 9.832487143899e-03 0.0 
0.0 0.0 0.0 
6.753103521315e-04 4.847194726872e-04 0.0 
4.847194726872e-04 6.176073354778e-03 0.0 
0.0 0.0 0.0 
4.813002874848e-04 -1.172401992230e-04 0.0 
-1.172401992230e-04 2.120992585099e-03 0.0 
0.0 0.0 0.0 
6.431866402226e-04 5.919712127524e-04 0.0 
5.919712127524e-04 6.512396707180e-03 0.0 
0.0 0.0 0.0 
5.390091698234e-04 8.743803790354e-04 0.0 
8.743803790354e-04 7.371295072159e-03 0.0 
0.0 0.0 0.0 
7.946455835950e-04 1.135634573624e-03 0.0 
1.135634573624e-03 6.697120243594e-03 0.0 
0.0 0.0 0.0 
-6.085145413388e-04 3.181552211644e-04 0.0 
3.181552211644e-04 1.248278786190e-02 0.0 
0.0 0.0 0.0 
1.218232817988e-04 1.667943737002e-03 0.0 
1.667943737002e-03 9.249378357717e-03 0.0 
0.0 0.0 0.0 
4.758783804613e-04 7.927150153551e-04 0.0 
7.927150153551e-04 7.381902942332e-03 0.0 
0.0 0.0 0.0 
-9.356592637978e-04 1.440708410688e-03 0.0 
1.440708410688e-03 4.849961772469e-03 0.0 
0.0 0.0 0.0 
-7.567448378990e-04 3.331428294617e-04 0.0 
3.331428294617e-04 1.207310665638e-02 0.0 
0.0 0.0 0.0 
2.672542844284e-04 1.640076666114e-03 0.0 
1.640076666114e-03 9.092791939285e-03 0.0 
0.0 0.0 0.0 
-5.182051313113e-04 4.351761114006e-04 0.0 
4.351761114006e-04 1.262993186088e-02 0.0 
0.0 0.0 0.0 
8.610298523795e-04 1.064336507687e-03 0.0 
1.064336507687e-03 6.206678231864e-03 0.0 
0.0 0.0 0.0 
8.862240519880e-04 7.005341380337e-04 0.0 
7.005341380337e-04 4.786998105559e-03 0.0 
0.0 0.0 0.0 
7.284900654037e-04 1.123158102850e-04 0.0 
1.123158102850e-04 4.459673940234e-03 0.0 
0.0 0.0 0.0 
1.480374157670e-04 2.146308274651e-04 0.0 
2.146308274651e-04 1.380909770149e-03 0.0 
0.0 0.0 0.0 
-4.408080692893e-04 4.204780481154e-04 0.0 
4.204780481154e-04 1.282799806215e-02 0.0 
0.0 0.0 0.0 
4.144091947396e-04 -5.505228949723e-05 0.0 
-5.505228949723e-05 2.181090679984e-03 0.0 
0.0 0.0 0.0 
-8.611467705781e-04 1.331080915880e-03 0.0 
1.331080915880e-03 6.206703422073e-03 0.0 
0.0 0.0 0.0 
2.820924011759e-05 1.677486153128e-03 0.0 
1.677486153128e-03 9.365899815046e-03 0.0 
0.0 0.0 0.0 
-2.887948628753e-04 3.780143449298e-04 0.0 
3.780143449298e-04 1.322564023909e-02 0.0 
0.0 0.0 0.0 
3.759387971853e-04 -1.967045086367e-04 0.0 
-1.967045086367e-04 1.872656371088e-03 0.0 
0.0 0.0 0.0 
-1.175094962103e-04 1.657532257040e-03 0.0 
1.657532257040e-03 8.389491728669e-03 0.0 
0.0 0.0 0.0 
-6.678196297203e-04 4.487690897258e-04 0.0 
4.487690897258e-04 1.221905338202e-02 0.0 
0.0 0.0 0.0 
7.409787859489e-04 8.180347055507e-05 0.0 
8.180347055507e-05 4.370312010578e-03 0.0 
0.0 0.0 0.0 
5.246753380497e-04 3.325296716954e-05 0.0 
3.325296716954e-05 2.290456298826e-03 0.0 
0.0 0.0 0.0 
5.431079776919e-04 1.308987573596e-03 0.0 
1.308987573596e-03 4.428090022683e-03 0.0 
0.0 0.0 0.0 
2.271499544202e-04 -1.538116024002e-04 0.0 
-1.538116024002e-04 1.406467492269e-03 0.0 
0.0 0.0 0.0 
4.652651744066e-04 -3.796123350971e-05 0.0 
-3.796123350971e-05 1.852641608474e-03 0.0 
0.0 0.0 0.0 
3.418297941569e-04 -1.028977530400e-04 0.0 
-1.028977530400e-04 1.626195366974e-03 0.0 
0.0 0.0 0.0 
9.117984813831e-04 9.946856298453e-04 0.0 
9.946856298453e-04 5.720770908859e-03 0.0 
0.0 0.0 0.0 
-1.876706418719e-04 1.031714654584e-03 0.0 
1.031714654584e-03 1.356496120667e-02 0.0 
0.0 0.0 0.0 
-1.006980311767e-03 1.188184250867e-03 0.0 
1.188184250867e-03 7.667651999621e-03 0.0 
0.0 0.0 0.0 
5.044348938641e-04 5.696002719689e-04 0.0 
5.696002719689e-04 7.016731601667e-03 0.0 
0.0 0.0 0.0 
9.141462300104e-04 8.730354993034e-04 0.0 
8.730354993034e-04 4.261543526143e-03 0.0 
0.0 0.0 0.0 
-8.456629629584e-04 4.414449225858e-04 0.0 
4.414449225858e-04 1.200868338206e-02 0.0 
0.0 0.0 0.0 
3.802092602436e-04 2.626131676323e-04 0.0 
2.626131676323e-04 1.766495095336e-03 0.0 
0.0 0.0 0.0 
3.990199000186e-04 9.185280644860e-04 0.0 
9.185280644860e-04 7.771853586665e-03 0.0 
0.0 0.0 0.0 
2.699899366685e-04 -2.540217994935e-04 0.0 
-2.540217994935e-04 1.640654298424e-03 0.0 
0.0 0.0 0.0 
4.932750491482e-04 -3.875847382996e-05 0.0 
-3.875847382996e-05 2.572170501868e-03 0.0 
0.0 0.0 0.0 
7.120176256017e-04 1.261361880378e-03 0.0 
1.261361880378e-03 7.154566121906e-03 0.0 
0.0 0.0 0.0 
8.776914600643e-04 2.876512501186e-04 0.0 
2.876512501186e-04 4.319301978755e-03 0.0 
0.0 0.0 0.0 
3.704082054474e-04 1.535543734479e-03 0.0 
1.535543734479e-03 8.623667347628e-03 0.0 
0.0 0.0 0.0 
1.490296390796e-04 1.533740034353e-03 0.0 
1.533740034353e-03 5.940782307504e-03 0.0 
0.0 0.0 0.0 
-8.427176259291e-04 6.887346265564e-04 0.0 
6.887346265564e-04 1.222866732752e-02 0.0 
0.0 0.0 0.0 
4.344857446754e-04 1.548881201143e-03 0.0 
1.548881201143e-03 8.621627756610e-03 0.0 
0.0 0.0 0.0 
-6.628697575617e-04 3.584916820066e-04 0.0 
3.584916820066e-04 1.207002065736e-02 0.0 
0.0 0.0 0.0 
-5.612614136908e-04 1.205819274860e-03 0.0 
1.205819274860e-03 1.261830251056e-02 0.0 
0.0 0.0 0.0 
-6.878851469386e-04 5.211672358899e-04 0.0 
5.211672358899e-04 1.256379460054e-02 0.0 
0.0 0.0 0.0 
-6.735156163578e-04 6.337466754964e-04 0.0 
6.337466754964e-04 1.267865452936e-02 0.0 
0.0 0.0 0.0 
4.510445622865e-04 7.294981560650e-04 0.0 
7.294981560650e-04 2.478516051677e-03 0.0 
0.0 0.0 0.0 
5.516366203722e-04 4.737602318758e-04 0.0 
4.737602318758e-04 6.691154195399e-03 0.0 
0.0 0.0 0.0 
-6.650416412928e-04 5.519716594877e-04 0.0 
5.519716594877e-04 1.234925052270e-02 0.0 
0.0 0.0 0.0 
7.854514544583e-04 1.233181924071e-03 0.0 
1.233181924071e-03 5.698065014851e-03 0.0 
0.0 0.0 0.0 
-8.742311734756e-04 5.747322924705e-04 0.0 
5.747322924705e-04 8.779950058089e-03 0.0 
0.0 0.0 0.0 
2.674860135974e-04 1.605902260596e-03 0.0 
1.605902260596e-03 9.091215823502e-03 0.0 
0.0 0.0 0.0 
6.574326423536e-04 4.907059361620e-04 0.0 
4.907059361620e-04 2.509756850326e-03 0.0 
0.0 0.0 0.0 
4.396639800950e-04 -1.357590618659e-04 0.0 
-1.357590618659e-04 2.401522400427e-03 0.0 
0.0 0.0 0.0 
5.241465344521e-04 1.499062406982e-03 0.0 
1.499062406982e-03 8.118555197705e-03 0.0 
0.0 0.0 0.0 
2.376516747018e-04 -5.290003389992e-05 0.0 
-5.290003389992e-05 1.429313466659e-03 0.0 
0.0 0.0 0.0 
3.442449083606e-04 1.510495875104e-03 0.0 
1.510495875104e-03 7.009874879702e-03 0.0 
0.0 0.0 0.0 
7.105943279575e-04 1.209413823632e-03 0.0 
1.209413823632e-03 7.191532876546e-03 0.0 
0.0 0.0 0.0 
-5.408077457563e-04 7.194132696879e-04 0.0 
7.194132696879e-04 1.298253740481e-02 0.0 
0.0 0.0 0.0 
-4.963861572080e-04 8.525503577191e-04 0.0 
8.525503577191e-04 1.306474053643e-02 0.0 
0.0 0.0 0.0 
6.577400957870e-04 1.162732618803e-03 0.0 
1.162732618803e-03 7.169211934158e-03 0.0 
0.0 0.0 0.0 
-5.958726970401e-04 5.012156274304e-04 0.0 
5.012156274304e-04 1.276970842587e-02 0.0 
0.0 0.0 0.0 
8.725446426310e-04 1.033799922439e-03 0.0 
1.033799922439e-03 4.725687713628e-03 0.0 
0.0 0.0 0.0 
-2.030978469971e-04 1.682014745796e-03 0.0 
1.682014745796e-03 1.003390922936e-02 0.0 
0.0 0.0 0.0 
-9.103266419321e-04 3.800880367523e-04 0.0 
3.800880367523e-04 9.314475126636e-03 0.0 
0.0 0.0 0.0 
-3.938002301628e-04 1.527384583459e-03 0.0 
1.527384583459e-03 1.187216240264e-02 0.0 
0.0 0.0 0.0 
-9.443558868775e-04 3.052177024516e-04 0.0 
3.052177024516e-04 9.768852086388e-03 0.0 
0.0 0.0 0.0 
-9.266497946107e-04 2.664463268353e-04 0.0 
2.664463268353e-04 9.994695078908e-03 0.0 
0.0 0.0 0.0 
9.159873358455e-04 1.003736858536e-03 0.0 
1.003736858536e-03 5.207739558118e-03 0.0 
0.0 0.0 0.0 
-9.424439387249e-04 2.679751768017e-04 0.0 
2.679751768017e-04 1.021638869452e-02 0.0 
0.0 0.0 0.0 
4.341603570810e-04 1.459013833652e-03 0.0 
1.459013833652e-03 7.313780219468e-03 0.0 
0.0 0.0 0.0 
5.924945456193e-04 1.276165192735e-03 0.0 
1.276165192735e-03 5.851963488989e-03 0.0 
0.0 0.0 0.0 
9.016566019278e-04 6.357911785466e-04 0.0 
6.357911785466e-04 4.840636463104e-03 0.0 
0.0 0.0 0.0 
5.295443672324e-04 1.039533992452e-04 0.0 
1.039533992452e-04 1.971053471896e-03 0.0 
0.0 0.0 0.0 
9.616453736403e-04 8.550674229559e-04 0.0 
8.550674229559e-04 4.763107498757e-03 0.0 
0.0 0.0 0.0 
-4.175391576864e-04 5.097863463553e-04 0.0 
5.097863463553e-04 1.296846500631e-02 0.0 
0.0 0.0 0.0 
-4.345657604505e-04 1.399875050500e-03 0.0 
1.399875050500e-03 1.232426364990e-02 0.0 
0.0 0.0 0.0 
6.475227848399e-04 4.191777649535e-04 0.0 
4.191777649535e-04 6.199774089095e-03 0.0 
0.0 0.0 0.0 
4.351341300135e-04 1.577350071364e-03 0.0 
1.577350071364e-03 8.605721459127e-03 0.0 
0.0 0.0 0.0 
9.712910551072e-04 4.120976224011e-04 0.0 
4.120976224011e-04 4.299303948951e-03 0.0 
0.0 0.0 0.0 
-5.663030632083e-04 6.502678629258e-04 0.0 
6.502678629258e-04 1.267627284918e-02 0.0 
0.0 0.0 0.0 
9.818054753066e-04 7.812894460520e-04 0.0 
7.812894460520e-04 4.818442473169e-03 0.0 
0.0 0.0 0.0 
4.875789676653e-04 4.419959673210e-04 0.0 
4.419959673210e-04 6.882784768054e-03 0.0 
0.0 0.0 0.0 
-5.846411573776e-04 5.419876907897e-04 0.0 
5.419876907897e-04 1.256098777147e-02 0.0 
0.0 0.0 0.0 
-7.624101303956e-04 6.604313522948e-04 0.0 
6.604313522948e-04 1.245736567448e-02 0.0 
0.0 0.0 0.0 
8.625038054437e-04 1.006555548779e-03 0.0 
1.006555548779e-03 6.260627810769e-03 0.0 
0.0 0.0 0.0 
9.253092418049e-04 9.395019838311e-04 0.0 
9.395019838311e-04 4.731355752003e-03 0.0 
0.0 0.0 0.0 
-1.752458543935e-04 1.722841818172e-03 0.0 
1.722841818172e-03 1.039644777051e-02 0.0 
0.0 0.0 0.0 
-6.816115444156e-04 1.429360947074e-03 0.0 
1.429360947074e-03 1.019900459011e-02 0.0 
0.0 0.0 0.0 
4.242402562578e-04 -8.908578839505e-05 0.0 
-8.908578839505e-05 2.002523701901e-03 0.0 
0.0 0.0 0.0 
5.514527107124e-04 2.569804852339e-04 0.0 
2.569804852339e-04 2.547863091654e-03 0.0 
0.0 0.0 0.0 
3.259734251357e-04 1.565894623633e-03 0.0 
1.565894623633e-03 5.688863752321e-03 0.0 
0.0 0.0 0.0 
-1.644786203168e-04 1.679358608594e-03 0.0 
1.679358608594e-03 8.386671755090e-03 0.0 
0.0 0.0 0.0 
4.207930549414e-04 4.043807815246e-04 0.0 
4.043807815246e-04 7.083858592208e-03 0.0 
0.0 0.0 0.0 
-7.729553381496e-04 5.397160495451e-04 0.0 
5.397160495451e-04 1.235108699644e-02 0.0 
0.0 0.0 0.0 
8.564380561078e-04 7.759236317652e-04 0.0 
7.759236317652e-04 4.756789982028e-03 0.0 
0.0 0.0 0.0 
-2.488625001956e-04 1.645596716481e-03 0.0 
1.645596716481e-03 9.315736124662e-03 0.0 
0.0 0.0 0.0 
6.928654381850e-04 1.170239910468e-03 0.0 
1.170239910468e-03 7.262910798272e-03 0.0 
0.0 0.0 0.0 
-5.205274040551e-04 3.867260462682e-04 0.0 
3.867260462682e-04 1.283243084860e-02 0.0 
0.0 0.0 0.0 
-2.486334350238e-04 1.747964576476e-03 0.0 
1.747964576476e-03 1.086794776468e-02 0.0 
0.0 0.0 0.0 
-7.993469459129e-04 4.518104916348e-04 0.0 
4.518104916348e-04 1.178961696391e-02 0.0 
0.0 0.0 0.0 
6.647594932194e-04 9.561314559486e-04 0.0 
9.561314559486e-04 7.094039926808e-03 0.0 
0.0 0.0 0.0 
8.765224929754e-04 7.840887875808e-04 0.0 
7.840887875808e-04 5.261188218856e-03 0.0 
0.0 0.0 0.0 
6.245403912450e-04 1.072404344776e-03 0.0 
1.072404344776e-03 7.272086023025e-03 0.0 
0.0 0.0 0.0 
3.209865352647e-04 1.603814177048e-03 0.0 
1.603814177048e-03 6.996061053751e-03 0.0 
0.0 0.0 0.0 
-4.762279967939e-04 5.793149830091e-04 0.0 
5.793149830091e-04 1.308996534757e-02 0.0 
0.0 0.0 0.0 
-2.902142552959e-04 1.755686001119e-03 0.0 
1.755686001119e-03 1.134898544787e-02 0.0 
0.0 0.0 0.0 
9.203030218488e-04 9.309275070816e-04 0.0 
9.309275070816e-04 5.773021183708e-03 0.0 
0.0 0.0 0.0 
5.744046371219e-04 3.257244717987e-04 0.0 
3.257244717987e-04 2.160808371743e-03 0.0 
0.0 0.0 0.0 
2.318984746561e-04 1.710416134338e-03 0.0 
1.710416134338e-03 9.143354461889e-03 0.0 
0.0 0.0 0.0 
3.272050289982e-04 1.525163880977e-03 0.0 
1.525163880977e-03 7.439520894347e-03 0.0 
0.0 0.0 0.0 
8.106597430995e-04 8.630326745360e-04 0.0 
8.630326745360e-04 4.752692913072e-03 0.0 
0.0 0.0 0.0 
7.999564735219e-04 9.483093931553e-04 0.0 
9.483093931553e-04 6.224366576735e-03 0.0 
0.0 0.0 0.0 
6.522960392674e-04 7.399981007723e-04 0.0 
7.399981007723e-04 6.722561769400e-03 0.0 
0.0 0.0 0.0 
4.675406135124e-04 9.546458195581e-05 0.0 
9.546458195581e-05 2.198804477697e-03 0.0 
0.0 0.0 0.0 
9.602721904272e-04 8.560762031063e-04 0.0 
8.560762031063e-04 5.292503698570e-03 0.0 
0.0 0.0 0.0 
-8.457739986325e-04 1.126523199715e-03 0.0 
1.126523199715e-03 1.112913939035e-02 0.0 
0.0 0.0 0.0 
3.923262931880e-04 3.243706151280e-04 0.0 
3.243706151280e-04 7.095195351279e-03 0.0 
0.0 0.0 0.0 
-7.531100047486e-04 1.275832741816e-03 0.0 
1.275832741816e-03 1.103804539179e-02 0.0 
0.0 0.0 0.0 
1.451929374028e-04 1.721609369594e-03 0.0 
1.721609369594e-03 9.241448331923e-03 0.0 
0.0 0.0 0.0 
-9.128996820227e-04 9.654971513262e-04 0.0 
9.654971513262e-04 1.118565943166e-02 0.0 
0.0 0.0 0.0 
-9.660080216175e-04 6.380437972178e-04 0.0 
6.380437972178e-04 1.117687633215e-02 0.0 
0.0 0.0 0.0 
-5.357607244663e-04 1.536127282216e-03 0.0 
1.536127282216e-03 1.002015124380e-02 0.0 
0.0 0.0 0.0 
5.324971288367e-04 1.462216676342e-03 0.0 
1.462216676342e-03 8.125208530978e-03 0.0 
0.0 0.0 0.0 
5.658120678489e-04 4.271274648615e-04 0.0 
4.271274648615e-04 6.524876466989e-03 0.0 
0.0 0.0 0.0 
-7.398899004112e-04 5.619509776804e-04 0.0 
5.619509776804e-04 1.213033520185e-02 0.0 
0.0 0.0 0.0 
-4.039947293548e-04 8.621478363067e-04 0.0 
8.621478363067e-04 1.306317401641e-02 0.0 
0.0 0.0 0.0 
-9.546074701801e-04 7.999084655452e-04 0.0 
7.999084655452e-04 1.120303301677e-02 0.0 
0.0 0.0 0.0 
7.921725800046e-04 6.095593779367e-04 0.0 
6.095593779367e-04 3.830376961547e-03 0.0 
0.0 0.0 0.0 
9.549584668345e-05 1.725640462038e-03 0.0 
1.725640462038e-03 9.661002357801e-03 0.0 
0.0 0.0 0.0 
-4.082151152506e-04 4.498616715771e-04 0.0 
4.498616715771e-04 1.316864950834e-02 0.0 
0.0 0.0 0.0 
5.875170690213e-04 1.440069130471e-03 0.0 
1.440069130471e-03 6.290624360113e-03 0.0 
0.0 0.0 0.0 
4.527829993475e-04 1.537162987073e-03 0.0 
1.537162987073e-03 6.854368768320e-03 0.0 
0.0 0.0 0.0 
8.368417197637e-04 6.941339729147e-04 0.0 
6.941339729147e-04 4.290017954865e-03 0.0 
0.0 0.0 0.0 
-7.295127976958e-04 6.847161299147e-04 0.0 
6.847161299147e-04 1.222870276577e-02 0.0 
0.0 0.0 0.0 
-2.062623611202e-04 1.714892113085e-03 0.0 
1.714892113085e-03 7.275979536729e-03 0.0 
0.0 0.0 0.0 
5.294805848421e-04 1.493157981263e-03 0.0 
1.493157981263e-03 7.209463323758e-03 0.0 
0.0 0.0 0.0 
-1.635516362418e-04 1.689144209969e-03 0.0 
1.689144209969e-03 7.279283433610e-03 0.0 
0.0 0.0 0.0 
6.204747913920e-04 1.384571061578e-03 0.0 
1.384571061578e-03 7.630931204769e-03 0.0 
0.0 0.0 0.0 
5.956813805019e-05 1.801737082966e-03 0.0 
1.801737082966e-03 1.006454900472e-02 0.0 
0.0 0.0 0.0 
8.735501248649e-04 6.149081967338e-04 0.0 
6.149081967338e-04 4.322378396795e-03 0.0 
0.0 0.0 0.0 
4.880321389233e-05 -4.288262236158e-05 0.0 
-4.288262236158e-05 1.423202754502e-03 0.0 
0.0 0.0 0.0 
-4.345124127042e-04 1.035926911203e-03 0.0 
1.035926911203e-03 1.288259416570e-02 0.0 
0.0 0.0 0.0 
-4.061297319230e-04 1.666655352920e-03 0.0 
1.666655352920e-03 7.938982856109e-03 0.0 
0.0 0.0 0.0 
9.856222350288e-04 5.327688249641e-04 0.0 
5.327688249641e-04 4.627499868856e-03 0.0 
0.0 0.0 0.0 
2.164424915401e-04 1.787879858267e-03 0.0 
1.787879858267e-03 9.567348022423e-03 0.0 
0.0 0.0 0.0 
-8.517163507616e-04 5.599842184065e-04 0.0 
5.599842184065e-04 1.213096397437e-02 0.0 
0.0 0.0 0.0 
6.210319986499e-04 4.576289360387e-04 0.0 
4.576289360387e-04 6.346740101151e-03 0.0 
0.0 0.0 0.0 
6.840116277258e-04 1.126956012782e-03 0.0 
1.126956012782e-03 5.303118140942e-03 0.0 
0.0 0.0 0.0 
-4.647553508819e-06 8.794541167157e-05 0.0 
8.794541167157e-05 1.111305917921e-03 0.0 
0.0 0.0 0.0 
3.297959678203e-04 2.753957038187e-04 0.0 
2.753957038187e-04 7.331661876604e-03 0.0 
0.0 0.0 0.0 
4.921626128418e-06 1.676690024566e-03 0.0 
1.676690024566e-03 8.180533135509e-03 0.0 
0.0 0.0 0.0 
5.151838543975e-04 1.378809567850e-03 0.0 
1.378809567850e-03 7.654487647510e-03 0.0 
0.0 0.0 0.0 
-3.873868584758e-05 1.801037427475e-03 0.0 
1.801037427475e-03 1.027903216766e-02 0.0 
0.0 0.0 0.0 
-3.250353240776e-04 6.787518613508e-05 0.0 
6.787518613508e-05 8.114096355147e-04 0.0 
0.0 0.0 0.0 
6.823570927368e-04 5.434990940037e-04 0.0 
5.434990940037e-04 6.333089473179e-03 0.0 
0.0 0.0 0.0 
5.382077095959e-04 9.277851929517e-04 0.0 
9.277851929517e-04 3.914559252003e-03 0.0 
0.0 0.0 0.0 
-9.179736776899e-04 4.526847386991e-04 0.0 
4.526847386991e-04 1.178989678273e-02 0.0 
0.0 0.0 0.0 
7.361052223480e-04 1.477724141602e-04 0.0 
1.477724141602e-04 4.811190639980e-03 0.0 
0.0 0.0 0.0 
9.561920097860e-04 7.825596070482e-04 0.0 
7.825596070482e-04 4.294022937436e-03 0.0 
0.0 0.0 0.0 
4.512291371026e-04 3.634213787891e-04 0.0 
3.634213787891e-04 6.895117325860e-03 0.0 
0.0 0.0 0.0 
4.297178903814e-04 1.553506448776e-03 0.0 
1.553506448776e-03 7.299423346398e-03 0.0 
0.0 0.0 0.0 
9.275608172254e-04 7.095617374321e-04 0.0 
7.095617374321e-04 3.834154406370e-03 0.0 
0.0 0.0 0.0 
-1.076292252912e-04 1.651383310600e-03 0.0 
1.651383310600e-03 8.760907930106e-03 0.0 
0.0 0.0 0.0 
-1.005130819054e-04 -1.629476635020e-04 0.0 
-1.629476635020e-04 1.157099204429e-03 0.0 
0.0 0.0 0.0 
-9.031476445076e-05 1.672571697828e-03 0.0 
1.672571697828e-03 9.512950002479e-03 0.0 
0.0 0.0 0.0 
5.677686794756e-04 1.292189814069e-03 0.0 
1.292189814069e-03 7.645056404365e-03 0.0 
0.0 0.0 0.0 
-2.875680755270e-04 1.700264323005e-03 0.0 
1.700264323005e-03 1.172961855964e-02 0.0 
0.0 0.0 0.0 
-8.289286872964e-05 1.706150928968e-03 0.0 
1.706150928968e-03 9.893887272015e-03 0.0 
0.0 0.0 0.0 
6.799223906717e-04 3.448988512352e-04 0.0 
3.448988512352e-04 2.975192695141e-03 0.0 
0.0 0.0 0.0 
5.971658933643e-04 3.390205475849e-04 0.0 
3.390205475849e-04 6.212699373735e-03 0.0 
0.0 0.0 0.0 
-2.903235854729e-04 5.789872220603e-04 0.0 
5.789872220603e-04 1.328961521676e-02 0.0 
0.0 0.0 0.0 
1.560369034221e-04 1.724433983097e-03 0.0 
1.724433983097e-03 9.557254694720e-03 0.0 
0.0 0.0 0.0 
4.703798745787e-04 1.418602115844e-03 0.0 
1.418602115844e-03 8.130867039734e-03 0.0 
0.0 0.0 0.0 
7.582556296921e-04 1.026211412071e-03 0.0 
1.026211412071e-03 5.247185383539e-03 0.0 
0.0 0.0 0.0 
-9.901130468171e-05 1.655016060503e-03 0.0 
1.655016060503e-03 9.136509908184e-03 0.0 
0.0 0.0 0.0 
3.994984009907e-04 2.786713715968e-04 0.0 
2.786713715968e-04 6.972557174902e-03 0.0 
0.0 0.0 0.0 
6.319212938486e-04 -1.666023013060e-05 0.0 
-1.666023013060e-05 4.357143291815e-03 0.0 
0.0 0.0 0.0 
3.521595754030e-05 1.713862006244e-03 0.0 
1.713862006244e-03 9.360653378365e-03 0.0 
0.0 0.0 0.0 
-7.368646073728e-04 4.506907646437e-04 0.0 
4.506907646437e-04 1.200728263234e-02 0.0 
0.0 0.0 0.0 
5.100917656677e-04 3.980121146917e-04 0.0 
3.980121146917e-04 6.703024615672e-03 0.0 
0.0 0.0 0.0 
5.855352745530e-04 5.631801816384e-04 0.0 
5.631801816384e-04 6.673117779022e-03 0.0 
0.0 0.0 0.0 
-5.872485163381e-04 -1.206616320146e-07 0.0 
-1.206616320146e-07 1.038314847458e-02 0.0 
0.0 0.0 0.0 
-5.789719151524e-04 5.049990699278e-06 0.0 
5.049990699278e-06 1.037670326903e-02 0.0 
0.0 0.0 0.0 
-9.132392335038e-04 1.115018064231e-03 0.0 
1.115018064231e-03 1.145690622286e-02 0.0 
0.0 0.0 0.0 
2.308210345925e-05 1.687545677452e-03 0.0 
1.687545677452e-03 8.966900211434e-03 0.0 
0.0 0.0 0.0 
7.060810014867e-04 1.439313044171e-04 0.0 
1.439313044171e-04 4.989314922755e-03 0.0 
0.0 0.0 0.0 
-6.191611582430e-04 1.506801816967e-03 0.0 
1.506801816967e-03 1.048596034887e-02 0.0 
0.0 0.0 0.0 
5.614476679598e-04 1.463268902031e-03 0.0 
1.463268902031e-03 6.748257379126e-03 0.0 
0.0 0.0 0.0 
5.045356169489e-04 1.188535922567e-03 0.0 
1.188535922567e-03 7.851205065858e-03 0.0 
0.0 0.0 0.0 
8.020802483175e-04 1.185790552499e-03 0.0 
1.185790552499e-03 5.223087043570e-03 0.0 
0.0 0.0 0.0 
-1.724016800669e-04 9.050214138714e-04 0.0 
9.050214138714e-04 1.364281605604e-02 0.0 
0.0 0.0 0.0 
-9.880786031986e-04 5.160920594804e-04 0.0 
5.160920594804e-04 1.085994321622e-02 0.0 
0.0 0.0 0.0 
4.602747676101e-04 1.431813214139e-03 0.0 
1.431813214139e-03 6.870408585932e-03 0.0 
0.0 0.0 0.0 
8.034621111690e-04 2.336280159638e-04 0.0 
2.336280159638e-04 4.796907273611e-03 0.0 
0.0 0.0 0.0 
6.117308934579e-04 4.352504825847e-04 0.0 
4.352504825847e-04 2.940268663213e-03 0.0 
0.0 0.0 0.0 
7.612776517312e-04 7.917466340630e-05 0.0 
7.917466340630e-05 4.198753214281e-03 0.0 
0.0 0.0 0.0 
1.323043327206e-05 1.676671336371e-03 0.0 
1.676671336371e-03 8.573654281540e-03 0.0 
0.0 0.0 0.0 
-3.120749474051e-04 1.650521590149e-03 0.0 
1.650521590149e-03 8.963844637100e-03 0.0 
0.0 0.0 0.0 
-8.090640800116e-04 5.737991864869e-04 0.0 
5.737991864869e-04 1.190543154856e-02 0.0 
0.0 0.0 0.0 
-4.648152630428e-04 1.569808055580e-03 0.0 
1.569808055580e-03 1.033309824516e-02 0.0 
0.0 0.0 0.0 
-5.488654765397e-04 1.540284835086e-03 0.0 
1.540284835086e-03 1.078546008265e-02 0.0 
0.0 0.0 0.0 
1.296725355857e-04 -6.564302018080e-05 0.0 
-6.564302018080e-05 1.035354890934e-03 0.0 
0.0 0.0 0.0 
7.981610985306e-04 1.063568719824e-04 0.0 
1.063568719824e-04 3.927597905699e-03 0.0 
0.0 0.0 0.0 
-3.472349039624e-04 1.692041102554e-03 0.0 
1.692041102554e-03 7.935822500949e-03 0.0 
0.0 0.0 0.0 
-7.317557383623e-04 1.347358505451e-03 0.0 
1.347358505451e-03 1.063722427210e-02 0.0 
0.0 0.0 0.0 
-8.040207027067e-04 1.330418459683e-03 0.0 
1.330418459683e-03 1.102770169483e-02 0.0 
0.0 0.0 0.0 
5.183416466499e-04 1.410643025150e-03 0.0 
1.410643025150e-03 8.137604640683e-03 0.0 
0.0 0.0 0.0 
2.771043350347e-04 3.281377564945e-05 0.0 
3.281377564945e-05 1.603796912542e-03 0.0 
0.0 0.0 0.0 
3.634232098795e-04 -4.214381799805e-05 0.0 
-4.214381799805e-05 1.895735814132e-03 0.0 
0.0 0.0 0.0 
1.625490122785e-04 1.654540565883e-03 0.0 
1.654540565883e-03 7.590906805179e-03 0.0 
0.0 0.0 0.0 
7.257324394105e-04 1.689621102334e-05 0.0 
1.689621102334e-05 3.941497789023e-03 0.0 
0.0 0.0 0.0 
-1.065281969388e-03 3.809937643278e-04 0.0 
3.809937643278e-04 9.972587317992e-03 0.0 
0.0 0.0 0.0 
-1.047533246243e-03 3.440597519639e-04 0.0 
3.440597519639e-04 1.020632986642e-02 0.0 
0.0 0.0 0.0 
-9.218267732455e-04 5.850852092539e-04 0.0 
5.850852092539e-04 1.190449570727e-02 0.0 
0.0 0.0 0.0 
2.217334873289e-04 5.999937092679e-04 0.0 
5.999937092679e-04 2.577842480811e-03 0.0 
0.0 0.0 0.0 
7.815878134276e-04 1.669894767949e-04 0.0 
1.669894767949e-04 4.533761722877e-03 0.0 
0.0 0.0 0.0 
6.889098876615e-04 9.425883269207e-04 0.0 
9.425883269207e-04 6.848372656272e-03 0.0 
0.0 0.0 0.0 
4.691148476967e-04 1.770735019540e-04 0.0 
1.770735019540e-04 1.847479474672e-03 0.0 
0.0 0.0 0.0 
-2.713071620475e-06 1.897468377986e-03 0.0 
1.897468377986e-03 1.085544036311e-02 0.0 
0.0 0.0 0.0 
-5.746163735423e-04 6.065942603724e-04 0.0 
6.065942603724e-04 1.288505093033e-02 0.0 
0.0 0.0 0.0 
6.965766785814e-04 3.230656777319e-05 0.0 
3.230656777319e-05 4.292323544822e-03 0.0 
0.0 0.0 0.0 
5.880428902463e-04 3.918290634841e-04 0.0 
3.918290634841e-04 6.387705010877e-03 0.0 
0.0 0.0 0.0 
1.147466281002e-04 -8.505637231546e-05 0.0 
-8.505637231546e-05 7.156532756460e-04 0.0 
0.0 0.0 0.0 
7.417864314139e-04 8.076200889803e-04 0.0 
8.076200889803e-04 6.450840534189e-03 0.0 
0.0 0.0 0.0 
4.329246440649e-05 1.632441686268e-03 0.0 
1.632441686268e-03 8.186796013929e-03 0.0 
0.0 0.0 0.0 
1.246054151598e-04 -6.277160991621e-05 0.0 
-6.277160991621e-05 7.062581944470e-04 0.0 
0.0 0.0 0.0 
-4.765268145495e-04 6.286396890319e-04 0.0 
6.286396890319e-04 1.288289363410e-02 0.0 
0.0 0.0 0.0 
2.689746969424e-04 2.164563878662e-05 0.0 
2.164563878662e-05 1.806754137071e-03 0.0 
0.0 0.0 0.0 
-7.595561455848e-04 1.403959174408e-03 0.0 
1.403959174408e-03 1.062873916165e-02 0.0 
0.0 0.0 0.0 
-2.718068198205e-04 1.649291569907e-03 0.0 
1.649291569907e-03 8.963827662407e-03 0.0 
0.0 0.0 0.0 
9.055089267542e-04 4.447132179109e-04 0.0 
4.447132179109e-04 4.541772415662e-03 0.0 
0.0 0.0 0.0 
9.085280369097e-04 5.511388616302e-04 0.0 
5.511388616302e-04 5.362012499709e-03 0.0 
0.0 0.0 0.0 
-4.473441315459e-04 7.393453971500e-04 0.0 
7.393453971500e-04 1.298122251126e-02 0.0 
0.0 0.0 0.0 
8.526531576352e-04 6.342707272481e-04 0.0 
6.342707272481e-04 5.845696781754e-03 0.0 
0.0 0.0 0.0 
3.064451852122e-04 1.607407958785e-03 0.0 
1.607407958785e-03 7.427181123248e-03 0.0 
0.0 0.0 0.0 
1.965032697315e-04 1.585661453993e-03 0.0 
1.585661453993e-03 7.600870803924e-03 0.0 
0.0 0.0 0.0 
-9.335488702422e-04 1.259366530086e-03 0.0 
1.259366530086e-03 1.485530254412e-03 0.0 
0.0 0.0 0.0 
2.497742005310e-04 1.203209261694e-04 0.0 
1.203209261694e-04 1.483372455645e-03 0.0 
0.0 0.0 0.0 
1.991234075338e-05 1.725405837873e-03 0.0 
1.725405837873e-03 9.756325499010e-03 0.0 
0.0 0.0 0.0 
-1.037431132365e-03 6.483365417576e-04 0.0 
6.483365417576e-04 1.142315152836e-02 0.0 
0.0 0.0 0.0 
1.365340684663e-04 1.781223943841e-03 0.0 
1.781223943841e-03 9.650576670011e-03 0.0 
0.0 0.0 0.0 
6.039601358743e-04 1.149551854268e-03 0.0 
1.149551854268e-03 3.880594912560e-03 0.0 
0.0 0.0 0.0 
-6.648344977185e-04 1.131682326062e-03 0.0 
1.131682326062e-03 1.206185415478e-02 0.0 
0.0 0.0 0.0 
-7.531002996253e-05 1.766047471684e-03 0.0 
1.766047471684e-03 1.028162954566e-02 0.0 
0.0 0.0 0.0 
-1.000971792140e-03 4.160201228331e-04 0.0 
4.160201228331e-04 1.031754386513e-02 0.0 
0.0 0.0 0.0 
4.277662447194e-05 1.750780948460e-03 0.0 
1.750780948460e-03 9.751729856958e-03 0.0 
0.0 0.0 0.0 
5.450958005964e-04 3.127236703084e-04 0.0 
3.127236703084e-04 6.400486319753e-03 0.0 
0.0 0.0 0.0 
1.538512150854e-04 1.661478887856e-03 0.0 
1.661478887856e-03 8.413682710213e-03 0.0 
0.0 0.0 0.0 
8.115801797128e-04 1.697636015160e-04 0.0 
1.697636015160e-04 4.356449244913e-03 0.0 
0.0 0.0 0.0 
7.643012658991e-04 1.505005929969e-04 0.0 
1.505005929969e-04 4.637285742069e-03 0.0 
0.0 0.0 0.0 
-5.502757961193e-04 1.037583379183e-03 0.0 
1.037583379183e-03 1.288475957726e-02 0.0 
0.0 0.0 0.0 
9.415957559356e-04 4.672863559199e-04 0.0 
4.672863559199e-04 4.893153663485e-03 0.0 
0.0 0.0 0.0 
-1.433541464515e-04 1.674927674551e-03 0.0 
1.674927674551e-03 8.757858822934e-03 0.0 
0.0 0.0 0.0 
7.572136248468e-04 1.280348167950e-03 0.0 
1.280348167950e-03 6.177402805194e-03 0.0 
0.0 0.0 0.0 
7.682470317207e-04 7.151342158377e-04 0.0 
7.151342158377e-04 6.344713355074e-03 0.0 
0.0 0.0 0.0 
5.798092085554e-04 1.315032156657e-03 0.0 
1.315032156657e-03 6.308904651814e-03 0.0 
0.0 0.0 0.0 
8.349275756268e-04 4.709232451238e-04 0.0 
4.709232451238e-04 3.008098619810e-03 0.0 
0.0 0.0 0.0 
9.610348499491e-04 7.959704792999e-04 0.0 
7.959704792999e-04 5.364396033430e-03 0.0 
0.0 0.0 0.0 
8.709636867568e-04 6.351513700966e-04 0.0 
6.351513700966e-04 3.382723259598e-03 0.0 
0.0 0.0 0.0 
-6.035342095115e-04 1.473611063807e-03 0.0 
1.473611063807e-03 1.049061358676e-02 0.0 
0.0 0.0 0.0 
7.739500849611e-04 4.357141402153e-04 0.0 
4.357141402153e-04 3.414288022913e-03 0.0 
0.0 0.0 0.0 
-5.292845217268e-04 1.568065470780e-03 0.0 
1.568065470780e-03 1.001578438300e-02 0.0 
0.0 0.0 0.0 
4.717010426400e-04 1.377611139388e-03 0.0 
1.377611139388e-03 8.138585417524e-03 0.0 
0.0 0.0 0.0 
6.241417008765e-04 1.334900595508e-03 0.0 
1.334900595508e-03 7.649067953645e-03 0.0 
0.0 0.0 0.0 
7.058881967172e-04 1.322714862681e-03 0.0 
1.322714862681e-03 5.746103080730e-03 0.0 
0.0 0.0 0.0 
-8.651238658979e-04 5.879496560371e-04 0.0 
5.879496560371e-04 1.166904728423e-02 0.0 
0.0 0.0 0.0 
5.263886164448e-04 3.601323606289e-04 0.0 
3.601323606289e-04 6.581690189259e-03 0.0 
0.0 0.0 0.0 
4.927939627917e-04 2.823475931857e-04 0.0 
2.823475931857e-04 6.594400742065e-03 0.0 
0.0 0.0 0.0 
-4.526142877603e-06 5.568860971451e-04 0.0 
5.568860971451e-04 2.190967788702e-03 0.0 
0.0 0.0 0.0 
-3.827799833473e-04 1.614734426405e-03 0.0 
1.614734426405e-03 9.840396956931e-03 0.0 
0.0 0.0 0.0 
3.516462663009e-04 3.691114760294e-04 0.0 
3.691114760294e-04 7.310073414654e-03 0.0 
0.0 0.0 0.0 
-6.592370985659e-04 1.502142442753e-03 0.0 
1.502142442753e-03 7.710644871762e-03 0.0 
0.0 0.0 0.0 
6.949682813191e-04 8.475873494516e-05 0.0 
8.475873494516e-05 4.724578393545e-03 0.0 
0.0 0.0 0.0 
-8.231702261510e-04 9.926191343070e-04 0.0 
9.926191343070e-04 2.105051991118e-03 0.0 
0.0 0.0 0.0 
4.652350667758e-04 3.242565461479e-04 0.0 
3.242565461479e-04 6.779544829368e-03 0.0 
0.0 0.0 0.0 
7.828576070690e-04 5.607064151585e-04 0.0 
5.607064151585e-04 2.941270534488e-03 0.0 
0.0 0.0 0.0 
6.429003534432e-04 3.933094764416e-05 0.0 
3.933094764416e-05 4.490975911910e-03 0.0 
0.0 0.0 0.0 
5.637196675945e-04 1.485271762743e-03 0.0 
1.485271762743e-03 7.641602143932e-03 0.0 
0.0 0.0 0.0 
-9.862804153095e-04 6.105397146494e-04 0.0 
6.105397146494e-04 1.166662456925e-02 0.0 
0.0 0.0 0.0 
-9.284583085849e-04 6.127432822362e-04 0.0 
6.127432822362e-04 1.142732458350e-02 0.0 
0.0 0.0 0.0 
1.574299611906e-04 1.654256906568e-03 0.0 
1.654256906568e-03 8.003649008790e-03 0.0 
0.0 0.0 0.0 
-1.085561485379e-03 5.177284804645e-04 0.0 
5.177284804645e-04 9.504596335725e-03 0.0 
0.0 0.0 0.0 
-1.067458366783e-03 4.504712775661e-04 0.0 
4.504712775661e-04 9.746672788105e-03 0.0 
0.0 0.0 0.0 
4.414282930572e-04 2.479908514360e-04 0.0 
2.479908514360e-04 6.792223845674e-03 0.0 
0.0 0.0 0.0 
8.091681746381e-04 5.574108438892e-04 0.0 
5.574108438892e-04 5.713899388555e-03 0.0 
0.0 0.0 0.0 
8.981980447074e-04 5.366018854603e-04 0.0 
5.366018854603e-04 5.003558580034e-03 0.0 
0.0 0.0 0.0 
8.208605294340e-04 9.132473492829e-04 0.0 
9.132473492829e-04 6.437371652787e-03 0.0 
0.0 0.0 0.0 
9.880606326451e-04 7.171996139637e-04 0.0 
7.171996139637e-04 4.893072839324e-03 0.0 
0.0 0.0 0.0 
7.189784190209e-04 5.225702326024e-04 0.0 
5.225702326024e-04 3.379380432251e-03 0.0 
0.0 0.0 0.0 
-9.015198727357e-04 3.133395948566e-04 0.0 
3.133395948566e-04 9.548895901211e-03 0.0 
0.0 0.0 0.0 
-1.067716873482e-03 5.373164091656e-04 0.0 
5.373164091656e-04 1.109911717395e-02 0.0 
0.0 0.0 0.0 
-5.903872033103e-04 7.340165406242e-07 0.0 
7.340165406242e-07 1.038534433182e-02 0.0 
0.0 0.0 0.0 
5.655941722424e-04 1.248608413436e-03 0.0 
1.248608413436e-03 7.661584563584e-03 0.0 
0.0 0.0 0.0 
6.803510646423e-04 1.178441090487e-03 0.0 
1.178441090487e-03 5.767145582128e-03 0.0 
0.0 0.0 0.0 
3.477405096639e-04 1.668226730441e-03 0.0 
1.668226730441e-03 9.078127435201e-03 0.0 
0.0 0.0 0.0 
4.391348498869e-04 1.346749905811e-04 0.0 
1.346749905811e-04 6.636566282397e-03 0.0 
0.0 0.0 0.0 
8.861075860824e-04 7.239386642702e-04 0.0 
7.239386642702e-04 5.313783646322e-03 0.0 
0.0 0.0 0.0 
2.504942693142e-04 3.573136864580e-04 0.0 
3.573136864580e-04 7.637669238596e-03 0.0 
0.0 0.0 0.0 
8.129559509740e-04 3.644782160308e-04 0.0 
3.644782160308e-04 3.477004372393e-03 0.0 
0.0 0.0 0.0 
3.404586279345e-04 1.688129990908e-03 0.0 
1.688129990908e-03 9.074888613113e-03 0.0 
0.0 0.0 0.0 
1.843631717029e-04 1.591817653583e-03 0.0 
1.591817653583e-03 8.012891476038e-03 0.0 
0.0 0.0 0.0 
2.745529203756e-04 1.632536384627e-03 0.0 
1.632536384627e-03 8.278866189834e-03 0.0 
0.0 0.0 0.0 
5.315453826114e-04 9.965242729758e-04 0.0 
9.965242729758e-04 7.494694456891e-03 0.0 
0.0 0.0 0.0 
6.929905767141e-04 -6.692311019414e-05 0.0 
-6.692311019414e-05 3.203635342135e-03 0.0 
0.0 0.0 0.0 
-2.746796053494e-04 1.654765251128e-03 0.0 
1.654765251128e-03 9.314774471868e-03 0.0 
0.0 0.0 0.0 
9.055802471536e-04 5.822697587690e-04 0.0 
5.822697587690e-04 4.914104435411e-03 0.0 
0.0 0.0 0.0 
-4.111233738245e-04 1.618097161992e-03 0.0 
1.618097161992e-03 9.506380843294e-03 0.0 
0.0 0.0 0.0 
4.981949299594e-04 1.109932497176e-03 0.0 
1.109932497176e-03 4.457432424256e-03 0.0 
0.0 0.0 0.0 
3.791877749222e-04 1.610948693370e-03 0.0 
1.610948693370e-03 8.191470116537e-03 0.0 
0.0 0.0 0.0 
9.954304360245e-04 5.802600194098e-04 0.0 
5.802600194098e-04 4.519532867611e-03 0.0 
0.0 0.0 0.0 
7.652376551481e-04 2.250401646032e-04 0.0 
2.250401646032e-04 4.975449035229e-03 0.0 
0.0 0.0 0.0 
-4.382860878090e-04 1.597792442923e-03 0.0 
1.597792442923e-03 9.509214795034e-03 0.0 
0.0 0.0 0.0 
-5.850157992529e-04 5.671138753490e-04 0.0 
5.671138753490e-04 1.352497489669e-03 0.0 
0.0 0.0 0.0 
7.178239913674e-04 1.329154455073e-03 0.0 
1.329154455073e-03 6.659692962937e-03 0.0 
0.0 0.0 0.0 
-4.830990278464e-04 9.026714670859e-04 0.0 
9.026714670859e-04 2.461964730604e-03 0.0 
0.0 0.0 0.0 
1.399991778628e-04 -9.605452824172e-05 0.0 
-9.605452824172e-05 1.128870819833e-03 0.0 
0.0 0.0 0.0 
7.494291077446e-04 1.625200754014e-04 0.0 
1.625200754014e-04 4.710542277011e-03 0.0 
0.0 0.0 0.0 
-2.940591411780e-04 1.677494453099e-03 0.0 
1.677494453099e-03 1.052601008227e-02 0.0 
0.0 0.0 0.0 
-9.158919573746e-04 7.553915017962e-04 0.0 
7.553915017962e-04 1.147622746160e-02 0.0 
0.0 0.0 0.0 
-1.119951995309e-03 7.882062474588e-04 0.0 
7.882062474588e-04 8.993450233442e-03 0.0 
0.0 0.0 0.0 
0.0 9.348614265908e-04 0.0 
9.348614265908e-04 1.361249662321e-02 0.0 
0.0 0.0 0.0 
-8.799325844807e-04 1.065202097965e-03 0.0 
1.065202097965e-03 8.860433547575e-04 0.0 
0.0 0.0 0.0 
-1.080409608438e-03 6.444511941272e-04 0.0 
6.444511941272e-04 9.271841447729e-03 0.0 
0.0 0.0 0.0 
9.654700696380e-04 6.144905538434e-04 0.0 
6.144905538434e-04 5.087165880741e-03 0.0 
0.0 0.0 0.0 
6.790492762139e-04 3.667129653107e-05 0.0 
3.667129653107e-05 4.472366658939e-03 0.0 
0.0 0.0 0.0 
-1.127023123514e-03 9.930317110357e-04 0.0 
9.930317110357e-04 9.728583865042e-03 0.0 
0.0 0.0 0.0 
9.067954604740e-04 2.852267902866e-04 0.0 
2.852267902866e-04 3.313309123784e-03 0.0 
0.0 0.0 0.0 
8.543448763245e-04 4.674731963016e-04 0.0 
4.674731963016e-04 5.232925373812e-03 0.0 
0.0 0.0 0.0 
3.959046820468e-05 1.635168798058e-03 0.0 
1.635168798058e-03 8.579723716009e-03 0.0 
0.0 0.0 0.0 
6.666874921220e-04 1.382617301034e-03 0.0 
1.382617301034e-03 7.145934765611e-03 0.0 
0.0 0.0 0.0 
-4.149958540990e-04 1.555500718017e-03 0.0 
1.555500718017e-03 1.150507550144e-02 0.0 
0.0 0.0 0.0 
2.422025248443e-04 6.925353597148e-04 0.0 
6.925353597148e-04 2.072510555799e-03 0.0 
0.0 0.0 0.0 
7.536778333970e-04 1.114183165419e-04 0.0 
1.114183165419e-04 4.279749479469e-03 0.0 
0.0 0.0 0.0 
7.023927463037e-04 1.114664406560e-04 0.0 
1.114664406560e-04 4.643684630366e-03 0.0 
0.0 0.0 0.0 
4.768845043861e-04 -2.022934024106e-04 0.0 
-2.022934024106e-04 2.342999742980e-03 0.0 
0.0 0.0 0.0 
-9.908256484911e-04 3.970616394526e-04 0.0 
3.970616394526e-04 1.055586475268e-02 0.0 
0.0 0.0 0.0 
-1.021787896341e-03 8.021300323049e-04 0.0 
8.021300323049e-04 1.147019514718e-02 0.0 
0.0 0.0 0.0 
5.329359452968e-04 -1.892533070326e-06 0.0 
-1.892533070326e-06 5.922426872567e-03 0.0 
0.0 0.0 0.0 
5.665927079468e-05 -6.916244846233e-05 0.0 
-6.916244846233e-05 7.196745586604e-04 0.0 
0.0 0.0 0.0 
-5.332117931250e-04 -1.270589031627e-04 0.0 
-1.270589031627e-04 7.112484636511e-04 0.0 
0.0 0.0 0.0 
2.550288800336e-04 -2.490759939078e-04 0.0 
-2.490759939078e-04 1.620467460071e-03 0.0 
0.0 0.0 0.0 
6.617140563192e-04 3.836290681951e-05 0.0 
3.836290681951e-05 4.655901381836e-03 0.0 
0.0 0.0 0.0 
8.675106701053e-04 4.577139625698e-04 0.0 
4.577139625698e-04 3.923455990414e-03 0.0 
0.0 0.0 0.0 
7.923163623136e-04 1.701827178861e-04 0.0 
1.701827178861e-04 3.226322899625e-03 0.0 
0.0 0.0 0.0 
7.309139005600e-04 2.705727477604e-04 0.0 
2.705727477604e-04 3.038636056768e-03 0.0 
0.0 0.0 0.0 
7.162459322012e-04 1.572733775877e-04 0.0 
1.572733775877e-04 4.893106725651e-03 0.0 
0.0 0.0 0.0 
-8.242228146634e-04 1.065615582524e-03 0.0 
1.065615582524e-03 1.146568757004e-02 0.0 
0.0 0.0 0.0 
6.757490527751e-04 1.072225042918e-04 0.0 
1.072225042918e-04 4.830567128427e-03 0.0 
0.0 0.0 0.0 
9.599192562251e-04 6.276684885065e-04 0.0 
6.276684885065e-04 3.895068138559e-03 0.0 
0.0 0.0 0.0 
-3.753502568800e-04 1.622163059868e-03 0.0 
1.622163059868e-03 9.839398770241e-03 0.0 
0.0 0.0 0.0 
-7.676329800944e-04 1.816183320067e-04 0.0 
1.816183320067e-04 1.108349194218e-02 0.0 
0.0 0.0 0.0 
4.988090470821e-04 1.539283744221e-03 0.0 
1.539283744221e-03 8.133321635821e-03 0.0 
0.0 0.0 0.0 
6.439742325479e-04 3.567968297041e-05 0.0 
3.567968297041e-05 4.842752188134e-03 0.0 
0.0 0.0 0.0 
6.701847645241e-04 8.232371510095e-05 0.0 
8.232371510095e-05 4.906594416675e-03 0.0 
0.0 0.0 0.0 
-1.148464228316e-03 1.171997219401e-03 0.0 
1.171997219401e-03 8.311847316277e-03 0.0 
0.0 0.0 0.0 
8.848439070310e-04 4.009168137722e-04 0.0 
4.009168137722e-04 4.000217329593e-03 0.0 
0.0 0.0 0.0 
6.488683206511e-04 9.772592772628e-05 0.0 
9.772592772628e-05 5.017748851235e-03 0.0 
0.0 0.0 0.0 
-4.864842803484e-04 4.257310840838e-05 0.0 
4.257310840838e-05 1.185643590379e-02 0.0 
0.0 0.0 0.0 
-5.275239385631e-04 3.887965191758e-05 0.0 
3.887965191758e-05 1.148829818344e-02 0.0 
0.0 0.0 0.0 
-1.135963634725e-03 9.857920662836e-04 0.0 
9.857920662836e-04 8.704882435395e-03 0.0 
0.0 0.0 0.0 
6.826012793606e-04 1.497477551335e-04 0.0 
1.497477551335e-04 5.080394141981e-03 0.0 
0.0 0.0 0.0 
7.438908407382e-04 2.369479884014e-05 0.0 
2.369479884014e-05 3.044049825843e-03 0.0 
0.0 0.0 0.0 
-1.797304873151e-04 1.207313438550e-03 0.0 
1.207313438550e-03 2.856728577740e-03 0.0 
0.0 0.0 0.0 
2.814676259588e-04 1.619292105194e-03 0.0 
1.619292105194e-03 9.091194041476e-03 0.0 
0.0 0.0 0.0 
2.453890325798e-04 -1.667369897466e-04 0.0 
-1.667369897466e-04 1.469165724295e-03 0.0 
0.0 0.0 0.0 
8.489646251668e-04 1.412906545589e-04 0.0 
1.412906545589e-04 3.158928878617e-03 0.0 
0.0 0.0 0.0 
6.238576694826e-04 1.274226372964e-03 0.0 
1.274226372964e-03 6.703290540714e-03 0.0 
0.0 0.0 0.0 
-8.469969446309e-04 4.091470726136e-04 0.0 
4.091470726136e-04 9.102659252073e-03 0.0 
0.0 0.0 0.0 
6.270701414866e-04 2.722126361141e-05 0.0 
2.722126361141e-05 5.035619217090e-03 0.0 
0.0 0.0 0.0 
3.891850335644e-04 -5.493519009612e-05 0.0 
-5.493519009612e-05 2.183774783175e-03 0.0 
0.0 0.0 0.0 
-1.070952194571e-03 4.057122297229e-04 0.0 
4.057122297229e-04 1.075174719123e-02 0.0 
0.0 0.0 0.0 
6.447436881576e-04 7.691566356544e-05 0.0 
7.691566356544e-05 5.093405449859e-03 0.0 
0.0 0.0 0.0 
8.953961482356e-04 4.085840389926e-04 0.0 
4.085840389926e-04 4.649000950799e-03 0.0 
0.0 0.0 0.0 
7.190623561946e-04 8.466276814515e-05 0.0 
8.466276814515e-05 4.547450903662e-03 0.0 
0.0 0.0 0.0 
-4.522442919354e-04 3.293738061883e-04 0.0 
3.293738061883e-04 1.206532500594e-03 0.0 
0.0 0.0 0.0 
-3.212277621060e-04 9.138101009122e-06 0.0 
9.138101009122e-06 1.296520055117e-02 0.0 
0.0 0.0 0.0 
8.591494136176e-04 2.270271998185e-04 0.0 
2.270271998185e-04 3.762342796092e-03 0.0 
0.0 0.0 0.0 
5.773469148578e-04 1.271820475470e-03 0.0 
1.271820475470e-03 7.802750571571e-03 0.0 
0.0 0.0 0.0 
2.723553507122e-04 1.570827734304e-03 0.0 
1.570827734304e-03 8.290314302017e-03 0.0 
0.0 0.0 0.0 
6.485954483468e-04 1.390020325980e-04 0.0 
1.390020325980e-04 5.270650208227e-03 0.0 
0.0 0.0 0.0 
6.198835189493e-04 6.844561882802e-05 0.0 
6.844561882802e-05 5.282998340721e-03 0.0 
0.0 0.0 0.0 
9.389964976534e-04 4.759805306736e-04 0.0 
4.759805306736e-04 3.530339184866e-03 0.0 
0.0 0.0 0.0 
-2.967221917993e-05 -1.588114777453e-04 0.0 
-1.588114777453e-04 1.029053065795e-03 0.0 
0.0 0.0 0.0 
-3.187242353970e-04 5.887961270681e-04 0.0 
5.887961270681e-04 1.153877901299e-03 0.0 
0.0 0.0 0.0 
6.151121880016e-04 1.221424470180e-04 0.0 
1.221424470180e-04 5.463643016063e-03 0.0 
0.0 0.0 0.0 
5.994276684314e-04 1.096313157193e-03 0.0 
1.096313157193e-03 7.498259880696e-03 0.0 
0.0 0.0 0.0 
6.836001394115e-04 -7.221954694029e-05 0.0 
-7.221954694029e-05 2.917093337918e-03 0.0 
0.0 0.0 0.0 
-2.323556102719e-04 1.668090793587e-03 0.0 
1.668090793587e-03 9.670803455435e-03 0.0 
0.0 0.0 0.0 
-4.880543382080e-04 1.554191089740e-03 0.0 
1.554191089740e-03 7.003834357511e-03 0.0 
0.0 0.0 0.0 
-4.753666578639e-04 1.586279168311e-03 0.0 
1.586279168311e-03 1.033084549281e-02 0.0 
0.0 0.0 0.0 
3.224859644320e-04 9.338059998407e-04 0.0 
9.338059998407e-04 8.191437449772e-03 0.0 
0.0 0.0 0.0 
-1.169057280449e-03 -2.182140023073e-05 0.0 
-2.182140023073e-05 6.238214470209e-04 0.0 
0.0 0.0 0.0 
0.0 8.130533339597e-05 0.0 
8.130533339597e-05 1.390619463916e-02 0.0 
0.0 0.0 0.0 
0.0 1.131523209922e-04 0.0 
1.131523209922e-04 8.280147926878e-03 0.0 
0.0 0.0 0.0 
-5.624987323282e-04 -3.133128015237e-05 0.0 
-3.133128015237e-05 1.082830098456e-02 0.0 
0.0 0.0 0.0 
8.114244190638e-04 9.541084389192e-05 0.0 
9.541084389192e-05 3.590378159705e-03 0.0 
0.0 0.0 0.0 
1.688795425050e-04 1.605913443580e-03 0.0 
1.605913443580e-03 8.422761847124e-03 0.0 
0.0 0.0 0.0 
8.370956436778e-04 5.259851727944e-04 0.0 
5.259851727944e-04 3.864034265872e-03 0.0 
0.0 0.0 0.0 
9.068618507180e-05 -1.819991752371e-04 0.0 
-1.819991752371e-04 9.841729353832e-04 0.0 
0.0 0.0 0.0 
-7.882844249213e-04 8.304599631679e-04 0.0 
8.304599631679e-04 1.483144152522e-03 0.0 
0.0 0.0 0.0 
-2.986453623087e-04 2.410564380690e-04 0.0 
2.410564380690e-04 1.326523699069e-02 0.0 
0.0 0.0 0.0 
-9.815014975462e-04 9.613771747244e-04 0.0 
9.613771747244e-04 1.148370992736e-02 0.0 
0.0 0.0 0.0 
-1.048955804214e-03 3.177139641985e-04 0.0 
3.177139641985e-04 1.044948394291e-02 0.0 
0.0 0.0 0.0 
2.942328274047e-05 2.132572894886e-03 0.0 
2.132572894886e-03 1.096516527087e-02 0.0 
0.0 0.0 0.0 
3.121848899130e-04 -5.544878171214e-05 0.0 
-5.544878171214e-05 1.810630932571e-03 0.0 
0.0 0.0 0.0 
5.510505977635e-05 2.094400667310e-03 0.0 
2.094400667310e-03 1.070043128779e-02 0.0 
0.0 0.0 0.0 
-8.822302964189e-04 9.142583758322e-04 0.0 
9.142583758322e-04 1.149102907838e-02 0.0 
0.0 0.0 0.0 
7.529507462769e-04 2.484566617496e-06 0.0 
2.484566617496e-06 3.461948250427e-03 0.0 
0.0 0.0 0.0 
2.905237236766e-04 1.615544846934e-03 0.0 
1.615544846934e-03 7.853765780292e-03 0.0 
0.0 0.0 0.0 
8.482562883252e-04 1.206292296443e-04 0.0 
1.206292296443e-04 3.295667246648e-03 0.0 
0.0 0.0 0.0 
-1.587394628114e-04 1.325599699640e-03 0.0 
1.325599699640e-03 3.457167020609e-03 0.0 
0.0 0.0 0.0 
7.790404513082e-04 4.049742273592e-05 0.0 
4.049742273592e-05 3.042130477160e-03 0.0 
0.0 0.0 0.0 
-7.434429693668e-04 1.214204204112e-03 0.0 
1.214204204112e-03 1.140402289244e-02 0.0 
0.0 0.0 0.0 
3.845445638000e-04 1.064121839112e-04 0.0 
1.064121839112e-04 6.913432368698e-03 0.0 
0.0 0.0 0.0 
9.109138846020e-04 2.453362003802e-04 0.0 
2.453362003802e-04 3.432770399640e-03 0.0 
0.0 0.0 0.0 
-3.228710362644e-04 1.644352243840e-03 0.0 
1.644352243840e-03 1.017644567757e-02 0.0 
0.0 0.0 0.0 
-7.856918608687e-04 -4.670085854503e-05 0.0 
-4.670085854503e-05 4.151039285467e-04 0.0 
0.0 0.0 0.0 
9.526810280729e-04 4.140842388193e-04 0.0 
4.140842388193e-04 3.625220634193e-03 0.0 
0.0 0.0 0.0 
-8.412410840976e-04 1.009124254832e-03 0.0 
1.009124254832e-03 1.206509224745e-02 0.0 
0.0 0.0 0.0 
7.060061254660e-04 -2.231433521507e-05 0.0 
-2.231433521507e-05 2.944495558832e-03 0.0 
0.0 0.0 0.0 
6.084599937148e-04 -1.385273259634e-04 0.0 
-1.385273259634e-04 2.670870767638e-03 0.0 
0.0 0.0 0.0 
3.039328087462e-04 1.543587877425e-03 0.0 
1.543587877425e-03 7.865470147133e-03 0.0 
0.0 0.0 0.0 
3.002451718523e-04 -9.044838233948e-05 0.0 
-9.044838233948e-05 1.481296172702e-03 0.0 
0.0 0.0 0.0 
-9.755128168999e-04 1.273877525562e-03 0.0 
1.273877525562e-03 6.869424924422e-03 0.0 
0.0 0.0 0.0 
-1.018798745529e-03 1.403365621724e-03 0.0 
1.403365621724e-03 7.639945762935e-03 0.0 
0.0 0.0 0.0 
6.204560073606e-04 -7.610013858079e-05 0.0 
-7.610013858079e-05 2.563773155193e-03 0.0 
0.0 0.0 0.0 
8.801067805477e-04 4.998079353614e-04 0.0 
4.998079353614e-04 5.109425319197e-03 0.0 
0.0 0.0 0.0 
6.825162802837e-04 1.358772930154e-03 0.0 
1.358772930154e-03 6.215443134077e-03 0.0 
0.0 0.0 0.0 
-3.349761293765e-04 1.640528386938e-03 0.0 
1.640528386938e-03 1.017692150650e-02 0.0 
0.0 0.0 0.0 
-3.154345387827e-04 1.497770904630e-03 0.0 
1.497770904630e-03 1.224037003858e-02 0.0 
0.0 0.0 0.0 
-7.914749999831e-04 6.564305071677e-04 0.0 
6.564305071677e-04 8.415619802984e-03 0.0 
0.0 0.0 0.0 
-4.367424896045e-04 -8.922641254353e-06 0.0 
-8.922641254353e-06 1.224137723592e-02 0.0 
0.0 0.0 0.0 
-1.116033732261e-04 1.793746598734e-03 0.0 
1.793746598734e-03 1.120147545601e-02 0.0 
0.0 0.0 0.0 
9.126169435589e-04 5.497445798132e-04 0.0 
5.497445798132e-04 3.447299243246e-03 0.0 
0.0 0.0 0.0 
-5.221314840469e-04 1.253422828276e-03 0.0 
1.253422828276e-03 2.474702984646e-03 0.0 
0.0 0.0 0.0 
-6.616903470607e-04 1.615244530089e-03 0.0 
1.615244530089e-03 7.690579560450e-03 0.0 
0.0 0.0 0.0 
8.778357757788e-04 3.782312501299e-04 0.0 
3.782312501299e-04 4.769704544009e-03 0.0 
0.0 0.0 0.0 
-5.146624712469e-04 1.525366710333e-03 0.0 
1.525366710333e-03 1.078721179316e-02 0.0 
0.0 0.0 0.0 
9.662340609828e-04 4.955613393825e-04 0.0 
4.955613393825e-04 4.751393240824e-03 0.0 
0.0 0.0 0.0 
-1.209623904823e-04 4.559504444286e-04 0.0 
4.559504444286e-04 1.845326385804e-03 0.0 
0.0 0.0 0.0 
8.418998134325e-04 5.874694228237e-04 0.0 
5.874694228237e-04 5.580239143524e-03 0.0 
0.0 0.0 0.0 
-1.814779935096e-04 1.444899293619e-03 0.0 
1.444899293619e-03 4.111949497411e-03 0.0 
0.0 0.0 0.0 
6.596013728333e-04 1.226917153747e-03 0.0 
1.226917153747e-03 6.234388408542e-03 0.0 
0.0 0.0 0.0 
9.420342834852e-04 5.810209764773e-04 0.0 
5.810209764773e-04 5.214901287317e-03 0.0 
0.0 0.0 0.0 
4.026131226267e-04 1.575790303619e-03 0.0 
1.575790303619e-03 7.744675855006e-03 0.0 
0.0 0.0 0.0 
-5.267556770985e-04 4.373937173795e-05 0.0 
4.373937173795e-05 1.176938918754e-02 0.0 
0.0 0.0 0.0 
5.477572764940e-04 -1.732555386383e-04 0.0 
-1.732555386383e-04 2.577386795285e-03 0.0 
0.0 0.0 0.0 
-1.912175803640e-04 1.045168204542e-03 0.0 
1.045168204542e-03 2.289584382008e-03 0.0 
0.0 0.0 0.0 
8.953593652810e-04 6.665257801832e-04 0.0 
6.665257801832e-04 5.697079911950e-03 0.0 
0.0 0.0 0.0 
-1.927398670007e-04 1.505839709861e-03 0.0 
1.505839709861e-03 4.767687209376e-03 0.0 
0.0 0.0 0.0 
-4.515862876738e-04 1.412944317723e-04 0.0 
1.412944317723e-04 6.829970166098e-04 0.0 
0.0 0.0 0.0 
-2.014268741495e-04 6.463404860317e-05 0.0 
6.463404860317e-05 1.331017059024e-02 0.0 
0.0 0.0 0.0 
-2.938299230058e-04 5.976229151320e-05 0.0 
5.976229151320e-05 1.296719340379e-02 0.0 
0.0 0.0 0.0 
-1.948405204479e-04 -1.368797335046e-04 0.0 
-1.368797335046e-04 4.736201959437e-04 0.0 
0.0 0.0 0.0 
7.821326086423e-04 6.767586806254e-04 0.0 
6.767586806254e-04 6.068866261951e-03 0.0 
0.0 0.0 0.0 
3.706633089013e-04 -2.306089414293e-04 0.0 
-2.306089414293e-04 1.979098646988e-03 0.0 
0.0 0.0 0.0 
4.554428577195e-04 -1.234895698608e-04 0.0 
-1.234895698608e-04 2.113089976717e-03 0.0 
0.0 0.0 0.0 
-2.600831798242e-04 1.689595622557e-03 0.0 
1.689595622557e-03 1.052520185537e-02 0.0 
0.0 0.0 0.0 
3.977912671151e-04 1.488980374660e-03 0.0 
1.488980374660e-03 7.756482233300e-03 0.0 
0.0 0.0 0.0 
-1.881429929196e-04 1.699880501156e-03 0.0 
1.699880501156e-03 1.003156605158e-02 0.0 
0.0 0.0 0.0 
8.539336462621e-04 2.622299628870e-04 0.0 
2.622299628870e-04 3.653992267688e-03 0.0 
0.0 0.0 0.0 
-6.157459634323e-04 7.030910881332e-06 0.0 
7.030910881332e-06 1.039599695233e-02 0.0 
0.0 0.0 0.0 
1.567787354890e-04 7.611852384282e-04 0.0 
7.611852384282e-04 8.084015822550e-03 0.0 
0.0 0.0 0.0 
3.405607119920e-04 -1.447096426000e-04 0.0 
-1.447096426000e-04 1.746242027256e-03 0.0 
0.0 0.0 0.0 
5.398059266843e-04 1.207755074365e-03 0.0 
1.207755074365e-03 7.693454749663e-03 0.0 
0.0 0.0 0.0 
5.532732172053e-04 1.351301603489e-03 0.0 
1.351301603489e-03 6.766649200752e-03 0.0 
0.0 0.0 0.0 
2.500180884140e-04 -2.715422753025e-05 0.0 
-2.715422753025e-05 1.357806880480e-03 0.0 
0.0 0.0 0.0 
-6.398716170122e-04 1.408006731126e-03 0.0 
1.408006731126e-03 1.091598449336e-02 0.0 
0.0 0.0 0.0 
9.791563283896e-04 5.569069348346e-04 0.0 
5.569069348346e-04 3.972603687778e-03 0.0 
0.0 0.0 0.0 
-6.839617197130e-05 -1.881796134071e-04 0.0 
-1.881796134071e-04 7.958073175001e-04 0.0 
0.0 0.0 0.0 
8.942702243324e-04 3.348622887396e-04 0.0 
3.348622887396e-04 3.201817649271e-03 0.0 
0.0 0.0 0.0 
5.674112941840e-04 3.679967451201e-05 0.0 
3.679967451201e-05 5.717507006728e-03 0.0 
0.0 0.0 0.0 
-8.202611499124e-04 1.261120364300e-03 0.0 
1.261120364300e-03 1.139409971690e-02 0.0 
0.0 0.0 0.0 
1.406061772278e-04 -2.792856965882e-04 0.0 
-2.792856965882e-04 1.353891851502e-03 0.0 
0.0 0.0 0.0 
6.380746856964e-04 -8.059480640599e-06 0.0 
-8.059480640599e-06 4.501251848853e-03 0.0 
0.0 0.0 0.0 
-3.883625705394e-04 1.618740557574e-03 0.0 
1.618740557574e-03 1.065646718662e-02 0.0 
0.0 0.0 0.0 
3.470835015444e-04 1.563255213967e-03 0.0 
1.563255213967e-03 8.641702529181e-03 0.0 
0.0 0.0 0.0 
7.024874522237e-04 -2.760808825757e-05 0.0 
-2.760808825757e-05 2.795031728206e-03 0.0 
0.0 0.0 0.0 
4.061310410093e-04 7.654831339032e-06 0.0 
7.654831339032e-06 2.185157843449e-03 0.0 
0.0 0.0 0.0 
6.514781783262e-04 1.396010580311e-03 0.0 
1.396010580311e-03 6.686340059967e-03 0.0 
0.0 0.0 0.0 
-5.033627961772e-04 -3.152823516780e-05 0.0 
-3.152823516780e-05 1.164234863741e-02 0.0 
0.0 0.0 0.0 
-1.056503586661e-04 -1.993684166567e-04 0.0 
-1.993684166567e-04 7.988677459991e-04 0.0 
0.0 0.0 0.0 
-9.285896049649e-05 1.990293978088e-03 0.0 
1.990293978088e-03 1.131026515019e-02 0.0 
0.0 0.0 0.0 
-1.969204580935e-04 1.382008263571e-03 0.0 
1.382008263571e-03 1.281407961028e-02 0.0 
0.0 0.0 0.0 
-5.458331963583e-04 -2.134068961246e-05 0.0 
-2.134068961246e-05 1.107675862997e-02 0.0 
0.0 0.0 0.0 
-3.388971074918e-04 6.531901927901e-04 0.0 
6.531901927901e-04 1.341198316131e-02 0.0 
0.0 0.0 0.0 
-1.570095177430e-04 1.602437473394e-03 0.0 
1.602437473394e-03 1.245149267469e-02 0.0 
0.0 0.0 0.0 
9.571787568787e-04 3.670655974966e-04 0.0 
3.670655974966e-04 3.736228577246e-03 0.0 
0.0 0.0 0.0 
8.119245171438e-04 1.108754907432e-04 0.0 
1.108754907432e-04 3.458183309509e-03 0.0 
0.0 0.0 0.0 
2.940945379584e-04 1.546152146442e-03 0.0 
1.546152146442e-03 9.008332409269e-03 0.0 
0.0 0.0 0.0 
-7.528158713446e-04 4.379721511337e-05 0.0 
4.379721511337e-05 4.384178191854e-04 0.0 
0.0 0.0 0.0 
3.545077235054e-04 3.261290780388e-05 0.0 
3.261290780388e-05 1.981453170873e-03 0.0 
0.0 0.0 0.0 
6.242249244397e-04 4.338847414369e-05 0.0 
4.338847414369e-05 4.605567975051e-03 0.0 
0.0 0.0 0.0 
6.198013063674e-04 -1.296726667774e-04 0.0 
-1.296726667774e-04 2.814028751308e-03 0.0 
0.0 0.0 0.0 
8.434905782404e-04 1.677956480531e-04 0.0 
1.677956480531e-04 3.024910755220e-03 0.0 
0.0 0.0 0.0 
-9.269263530290e-04 1.245684186726e-03 0.0 
1.245684186726e-03 5.463558785733e-03 0.0 
0.0 0.0 0.0 
-9.874363727888e-04 1.410404681061e-03 0.0 
1.410404681061e-03 6.194895748262e-03 0.0 
0.0 0.0 0.0 
-7.622333591238e-04 1.109307758790e-04 0.0 
1.109307758790e-04 1.113396421203e-02 0.0 
0.0 0.0 0.0 
8.394848800197e-04 3.076071795300e-04 0.0 
3.076071795300e-04 3.559057592998e-03 0.0 
0.0 0.0 0.0 
4.401617882681e-04 -3.331937702050e-05 0.0 
-3.331937702050e-05 2.333859183282e-03 0.0 
0.0 0.0 0.0 
3.417570486521e-04 1.653898990184e-03 0.0 
1.653898990184e-03 8.647954401987e-03 0.0 
0.0 0.0 0.0 
1.451309906924e-04 6.381842000489e-04 0.0 
6.381842000489e-04 8.455362856356e-03 0.0 
0.0 0.0 0.0 
1.399096180703e-04 7.274457442755e-04 0.0 
7.274457442755e-04 8.486510580930e-03 0.0 
0.0 0.0 0.0 
9.068533367318e-04 2.183908909308e-04 0.0 
2.183908909308e-04 3.566923254380e-03 0.0 
0.0 0.0 0.0 
-8.130503613487e-04 1.414792460674e-04 0.0 
1.414792460674e-04 1.081312839163e-02 0.0 
0.0 0.0 0.0 
-7.707603332202e-04 2.335126997897e-05 0.0 
2.335126997897e-05 6.812601318749e-04 0.0 
0.0 0.0 0.0 
-9.366146616102e-04 1.233435357284e-03 0.0 
1.233435357284e-03 4.129180737570e-03 0.0 
0.0 0.0 0.0 
1.049709854715e-04 -1.794777316633e-04 0.0 
-1.794777316633e-04 1.498535119933e-03 0.0 
0.0 0.0 0.0 
-9.393244050337e-04 1.268662482106e-03 0.0 
1.268662482106e-03 4.831216590529e-03 0.0 
0.0 0.0 0.0 
5.155821578589e-04 1.385616171335e-03 0.0 
1.385616171335e-03 7.222076871552e-03 0.0 
0.0 0.0 0.0 
7.751169458059e-04 5.008355318765e-05 0.0 
5.008355318765e-05 2.901438886212e-03 0.0 
0.0 0.0 0.0 
8.059359897921e-04 1.355919707863e-04 0.0 
1.355919707863e-04 3.337764163137e-03 0.0 
0.0 0.0 0.0 
-3.620927376664e-04 -1.710588194484e-04 0.0 
-1.710588194484e-04 9.695353280530e-04 0.0 
0.0 0.0 0.0 
-2.574816932457e-04 7.536485364586e-05 0.0 
7.536485364586e-05 1.303317800689e-02 0.0 
0.0 0.0 0.0 
7.529196370408e-04 1.031251825411e-05 0.0 
1.031251825411e-05 3.178365234998e-03 0.0 
0.0 0.0 0.0 
-2.426724144234e-04 2.823370076968e-04 0.0 
2.823370076968e-04 1.325849166883e-02 0.0 
0.0 0.0 0.0 
-3.605763846527e-04 7.701053768598e-05 0.0 
7.701053768598e-05 1.273917235292e-02 0.0 
0.0 0.0 0.0 
-9.883761270335e-05 1.215994812007e-04 0.0 
1.215994812007e-04 1.389318487059e-02 0.0 
0.0 0.0 0.0 
1.160557976496e-04 1.479965795265e-04 0.0 
1.479965795265e-04 8.287726609570e-03 0.0 
0.0 0.0 0.0 
-5.556063468709e-04 3.156668992224e-05 0.0 
3.156668992224e-05 1.108905138508e-02 0.0 
0.0 0.0 0.0 
7.555205766823e-04 3.706677808680e-06 0.0 
3.706677808680e-06 3.316178447783e-03 0.0 
0.0 0.0 0.0 
-7.943541742211e-04 1.273235722417e-03 0.0 
1.273235722417e-03 6.868922063624e-03 0.0 
0.0 0.0 0.0 
8.417447271287e-04 1.106224923755e-04 0.0 
1.106224923755e-04 3.443205490107e-03 0.0 
0.0 0.0 0.0 
0.0 4.957587294303e-04 0.0 
4.957587294303e-04 8.404530941497e-03 0.0 
0.0 0.0 0.0 
-8.667034001248e-04 1.096040827371e-03 0.0 
1.096040827371e-03 2.757932346450e-03 0.0 
0.0 0.0 0.0 
-8.926599297352e-04 1.187830345873e-03 0.0 
1.187830345873e-03 3.446611973330e-03 0.0 
0.0 0.0 0.0 
4.626615376138e-04 1.347548969781e-03 0.0 
1.347548969781e-03 8.142757671953e-03 0.0 
0.0 0.0 0.0 
-7.056684312355e-04 7.410664701673e-05 0.0 
7.410664701673e-05 1.079745338204e-02 0.0 
0.0 0.0 0.0 
-2.190050876416e-04 1.950178413320e-04 0.0 
1.950178413320e-04 1.329958022917e-02 0.0 
0.0 0.0 0.0 
-4.189347155377e-04 1.615790387819e-03 0.0 
1.615790387819e-03 1.065668286891e-02 0.0 
0.0 0.0 0.0 
3.384084339222e-04 1.700718686580e-03 0.0 
1.700718686580e-03 9.076393845026e-03 0.0 
0.0 0.0 0.0 
-6.176127880883e-04 1.464487214035e-03 0.0 
1.464487214035e-03 1.158750442210e-02 0.0 
0.0 0.0 0.0 
-5.622402799975e-04 6.819621074802e-05 0.0 
6.819621074802e-05 1.117668239861e-02 0.0 
0.0 0.0 0.0 
5.295080531500e-04 -1.861031135684e-04 0.0 
-1.861031135684e-04 2.435782200265e-03 0.0 
0.0 0.0 0.0 
6.060470518259e-04 -8.049542380445e-05 0.0 
-8.049542380445e-05 2.421610319585e-03 0.0 
0.0 0.0 0.0 
-4.534496107430e-04 6.680460832469e-05 0.0 
6.680460832469e-05 1.204050652528e-02 0.0 
0.0 0.0 0.0 
2.348493370969e-04 1.638074533898e-03 0.0 
1.638074533898e-03 9.110200664479e-03 0.0 
0.0 0.0 0.0 
-9.191635599519e-04 1.780936811684e-04 0.0 
1.780936811684e-04 1.046359041731e-02 0.0 
0.0 0.0 0.0 
-5.789742442875e-04 8.064296000174e-06 0.0 
8.064296000174e-06 1.073482888543e-02 0.0 
0.0 0.0 0.0 
-5.699180545148e-04 1.088825074383e-05 0.0 
1.088825074383e-05 1.107248484093e-02 0.0 
0.0 0.0 0.0 
-6.029179917908e-04 8.852179377944e-06 0.0 
8.852179377944e-06 1.119911120611e-02 0.0 
0.0 0.0 0.0 
8.005827058044e-05 1.702954282602e-05 0.0 
1.702954282602e-05 1.270353649433e-03 0.0 
0.0 0.0 0.0 
5.163574453537e-04 -1.196892771368e-04 0.0 
-1.196892771368e-04 2.195622032461e-03 0.0 
0.0 0.0 0.0 
-2.137006571103e-04 3.933272402228e-04 0.0 
3.933272402228e-04 1.358735478448e-02 0.0 
0.0 0.0 0.0 
-5.724757758014e-04 4.260239649700e-05 0.0 
4.260239649700e-05 1.159613351648e-02 0.0 
0.0 0.0 0.0 
1.946285240633e-04 1.756681767063e-03 0.0 
1.756681767063e-03 9.562535297106e-03 0.0 
0.0 0.0 0.0 
-4.600531096564e-04 1.559040884620e-03 0.0 
1.559040884620e-03 1.221905168909e-02 0.0 
0.0 0.0 0.0 
-6.806505287429e-04 1.447110003237e-03 0.0 
1.447110003237e-03 1.090906789702e-02 0.0 
0.0 0.0 0.0 
-4.409235850307e-04 6.855531679233e-04 0.0 
6.855531679233e-04 1.318028406033e-02 0.0 
0.0 0.0 0.0 
6.161771265492e-04 -8.367516698749e-06 0.0 
-8.367516698749e-06 3.321004809108e-03 0.0 
0.0 0.0 0.0 
5.439675454388e-04 -2.354622543785e-05 0.0 
-2.354622543785e-05 3.011671988578e-03 0.0 
0.0 0.0 0.0 
3.463581228973e-04 7.553729155930e-04 0.0 
7.553729155930e-04 7.668476977444e-03 0.0 
0.0 0.0 0.0 
-3.788728437558e-04 -8.810439753831e-05 0.0 
-8.810439753831e-05 5.638281624938e-04 0.0 
0.0 0.0 0.0 
3.543133549455e-04 -6.006924934404e-05 0.0 
-6.006924934404e-05 2.096938010828e-03 0.0 
0.0 0.0 0.0 
0.0 2.012741039097e-03 0.0 
2.012741039097e-03 1.082554744003e-02 0.0 
0.0 0.0 0.0 
1.710722004320e-04 -5.184223783954e-05 0.0 
-5.184223783954e-05 1.003959722202e-03 0.0 
0.0 0.0 0.0 
-5.681130235462e-04 1.312596813909e-05 0.0 
1.312596813909e-05 1.073690604909e-02 0.0 
0.0 0.0 0.0 
4.274531981754e-04 1.309319655049e-03 0.0 
1.309319655049e-03 8.318861600415e-03 0.0 
0.0 0.0 0.0 
-9.391592899211e-05 -1.125431503731e-04 0.0 
-1.125431503731e-04 7.142181978546e-04 0.0 
0.0 0.0 0.0 
-8.085858921780e-05 -8.101586319822e-05 0.0 
-8.101586319822e-05 3.915206321972e-04 0.0 
0.0 0.0 0.0 
-1.450968546434e-04 5.856753440271e-04 0.0 
5.856753440271e-04 1.379527877491e-02 0.0 
0.0 0.0 0.0 
-6.685783686332e-04 2.273265472149e-05 0.0 
2.273265472149e-05 1.041645140866e-02 0.0 
0.0 0.0 0.0 
-2.331276989377e-04 5.424672093477e-04 0.0 
5.424672093477e-04 1.349146485370e-02 0.0 
0.0 0.0 0.0 
3.162159759924e-04 1.371895573889e-03 0.0 
1.371895573889e-03 8.511293487083e-03 0.0 
0.0 0.0 0.0 
-6.595716400302e-04 -1.384095101398e-07 0.0 
-1.384095101398e-07 1.040353250874e-02 0.0 
0.0 0.0 0.0 
-7.530010334731e-04 5.206290766346e-05 0.0 
5.206290766346e-05 7.781022486724e-04 0.0 
0.0 0.0 0.0 
-1.049670297004e-04 7.990484429674e-05 0.0 
7.990484429674e-05 1.361180442329e-02 0.0 
0.0 0.0 0.0 
1.659916433387e-04 -1.733548370938e-04 0.0 
-1.733548370938e-04 1.132761439532e-03 0.0 
0.0 0.0 0.0 
-2.445614948577e-04 4.437581098650e-04 0.0 
4.437581098650e-04 1.332657388515e-02 0.0 
0.0 0.0 0.0 
0.0 3.899116007765e-04 0.0 
3.899116007765e-04 8.357754446739e-03 0.0 
0.0 0.0 0.0 
-4.484999612473e-04 1.310498619003e-03 0.0 
1.310498619003e-03 1.259745970304e-02 0.0 
0.0 0.0 0.0 
3.469413016575e-04 4.994972617081e-05 0.0 
4.994972617081e-05 1.569870205037e-03 0.0 
0.0 0.0 0.0 
-8.680609239616e-04 2.790910509046e-04 0.0 
2.790910509046e-04 1.112432622140e-02 0.0 
0.0 0.0 0.0 
5.597840612224e-04 -5.049465412269e-05 0.0 
-5.049465412269e-05 3.381741474000e-03 0.0 
0.0 0.0 0.0 
2.976310512222e-04 1.561337071572e-03 0.0 
1.561337071572e-03 8.654940316309e-03 0.0 
0.0 0.0 0.0 
1.003436872746e-04 1.888823253947e-03 0.0 
1.888823253947e-03 1.001243987888e-02 0.0 
0.0 0.0 0.0 
-4.070834882594e-04 7.368184736062e-05 0.0 
7.368184736062e-05 1.244992998722e-02 0.0 
0.0 0.0 0.0 
1.549940816064e-04 1.815148909263e-03 0.0 
1.815148909263e-03 9.748877495536e-03 0.0 
0.0 0.0 0.0 
-1.667606736161e-04 -1.995990807429e-05 0.0 
-1.995990807429e-05 8.502686733640e-04 0.0 
0.0 0.0 0.0 
2.021445896736e-04 4.787985184020e-04 0.0 
4.787985184020e-04 7.987842203493e-03 0.0 
0.0 0.0 0.0 
3.853397320062e-04 8.995583923590e-06 0.0 
8.995583923590e-06 1.764714268766e-03 0.0 
0.0 0.0 0.0 
1.782915027027e-04 -4.723086130808e-05 0.0 
-4.723086130808e-05 1.006625775737e-03 0.0 
0.0 0.0 0.0 
2.913946133927e-04 1.225948397980e-03 0.0 
1.225948397980e-03 8.564653782986e-03 0.0 
0.0 0.0 0.0 
-3.550488959427e-04 1.002037902021e-03 0.0 
1.002037902021e-03 1.331174319807e-02 0.0 
0.0 0.0 0.0 
-2.010740222268e-04 5.946223458103e-04 0.0 
5.946223458103e-04 1.357541949046e-02 0.0 
0.0 0.0 0.0 
-6.058181685735e-04 5.705043163152e-05 0.0 
5.705043163152e-05 1.073296366841e-02 0.0 
0.0 0.0 0.0 
-9.639598144960e-04 4.830510634290e-04 0.0 
4.830510634290e-04 1.111490689405e-02 0.0 
0.0 0.0 0.0 
-1.981414654352e-04 1.053676269470e-03 0.0 
1.053676269470e-03 3.444047140724e-03 0.0 
0.0 0.0 0.0 
-3.044602347733e-04 1.702718591448e-03 0.0 
1.702718591448e-03 1.239013471444e-02 0.0 
0.0 0.0 0.0 
5.143029651873e-04 -4.698127158548e-06 0.0 
-4.698127158548e-06 2.786253134700e-03 0.0 
0.0 0.0 0.0 
-1.585710919934e-04 5.067131367739e-04 0.0 
5.067131367739e-04 1.701252130329e-03 0.0 
0.0 0.0 0.0 
3.985691018147e-04 1.644431123179e-03 0.0 
1.644431123179e-03 8.630759949750e-03 0.0 
0.0 0.0 0.0 
-6.042957780026e-04 -2.802456617224e-07 0.0 
-2.802456617224e-07 1.037108502281e-02 0.0 
0.0 0.0 0.0 
-3.326170139106e-04 9.768839300488e-04 0.0 
9.768839300488e-04 1.308372967708e-02 0.0 
0.0 0.0 0.0 
-7.994208881157e-05 -2.149162688104e-05 0.0 
-2.149162688104e-05 1.387961061438e-02 0.0 
0.0 0.0 0.0 
0.0 3.997104440565e-05 0.0 
3.997104440565e-05 1.392259386814e-02 0.0 
0.0 0.0 0.0 
6.942547713162e-06 -2.976569963869e-06 0.0 
-2.976569963869e-06 9.416037914378e-05 0.0 
0.0 0.0 0.0 
1.665234979908e-05 4.523562994269e-06 0.0 
4.523562994269e-06 9.945084297414e-05 0.0 
0.0 0.0 0.0 
-5.722040631149e-04 -2.788732648210e-05 0.0 
-2.788732648210e-05 1.041056861099e-02 0.0 
0.0 0.0 0.0 
-5.873533265228e-04 4.262571450422e-06 0.0 
4.262571450422e-06 1.036141807853e-02 0.0 
0.0 0.0 0.0 
0.0 5.542051017555e-05 0.0 
5.542051017555e-05 8.280485130074e-03 0.0 
0.0 0.0 0.0 
1.108410203510e-04 3.773716106594e-05 0.0 
3.773716106594e-05 8.205010807942e-03 0.0 
0.0 0.0 0.0 
3.019441716545e-05 1.209660223670e-05 0.0 
1.209660223670e-05 3.262727461657e-04 0.0 
0.0 0.0 0.0 
-7.445863127906e-04 -3.906524112796e-05 0.0 
-3.906524112796e-05 4.054064287058e-04 0.0 
0.0 0.0 0.0 
2.555640970989e-04 2.959470211800e-04 0.0 
2.959470211800e-04 7.457653245514e-03 0.0 
0.0 0.0 0.0 
1.248109446246e-04 1.901412435634e-03 0.0 
1.901412435634e-03 1.008331548107e-02 0.0 
0.0 0.0 0.0 
1.864646065568e-04 -1.421606985538e-04 0.0 
-1.421606985538e-04 1.333917389198e-03 0.0 
0.0 0.0 0.0 
2.520639083892e-04 5.053205296457e-04 0.0 
5.053205296457e-04 7.668741522345e-03 0.0 
0.0 0.0 0.0 
6.161312323045e-04 3.802129250587e-06 0.0 
3.802129250587e-06 4.957218358935e-03 0.0 
0.0 0.0 0.0 
6.157493518417e-04 -2.959843781134e-05 0.0 
-2.959843781134e-05 4.197763484354e-03 0.0 
0.0 0.0 0.0 
-5.363942414784e-04 7.714209095888e-05 0.0 
7.714209095888e-05 1.179021859014e-02 0.0 
0.0 0.0 0.0 
1.252713550937e-04 -1.318762069506e-04 0.0 
-1.318762069506e-04 1.334233114469e-03 0.0 
0.0 0.0 0.0 
3.486915519670e-04 1.521890688604e-03 0.0 
1.521890688604e-03 8.203069892597e-03 0.0 
0.0 0.0 0.0 
1.004821542328e-04 -1.017774246801e-04 0.0 
-1.017774246801e-04 1.054555861851e-03 0.0 
0.0 0.0 0.0 
6.282022130066e-04 -4.209312151619e-05 0.0 
-4.209312151619e-05 3.770380427755e-03 0.0 
0.0 0.0 0.0 
-2.524872598008e-04 1.608608721132e-03 0.0 
1.608608721132e-03 1.210997411114e-02 0.0 
0.0 0.0 0.0 
-2.592841345960e-04 -2.627069449978e-05 0.0 
-2.627069449978e-05 1.316885093155e-02 0.0 
0.0 0.0 0.0 
6.411727835147e-04 2.181081747140e-05 0.0 
2.181081747140e-05 4.168343558512e-03 0.0 
0.0 0.0 0.0 
-5.513563127031e-04 -4.869430501813e-06 0.0 
-4.869430501813e-06 1.136823615648e-02 0.0 
0.0 0.0 0.0 
-7.223533219403e-05 1.932464760988e-03 0.0 
1.932464760988e-03 1.082847618475e-02 0.0 
0.0 0.0 0.0 
-5.111483854109e-04 1.562003518870e-03 0.0 
1.562003518870e-03 1.150463840996e-02 0.0 
0.0 0.0 0.0 
-6.004718617877e-04 1.500310889676e-03 0.0 
1.500310889676e-03 1.120220877660e-02 0.0 
0.0 0.0 0.0 
-6.323305264154e-04 7.565517645020e-06 0.0 
7.565517645020e-06 1.040047627061e-02 0.0 
0.0 0.0 0.0 
4.654025208897e-04 1.431166972860e-03 0.0 
1.431166972860e-03 7.688470402492e-03 0.0 
0.0 0.0 0.0 
-3.475749136470e-04 1.145776782013e-03 0.0 
1.145776782013e-03 1.286543583753e-02 0.0 
0.0 0.0 0.0 
3.903765097393e-04 -2.514677700886e-05 0.0 
-2.514677700886e-05 2.090741141068e-03 0.0 
0.0 0.0 0.0 
-3.051843591039e-04 -1.370203981502e-04 0.0 
-1.370203981502e-04 5.141570230365e-04 0.0 
0.0 0.0 0.0 
-1.568008180891e-04 1.772308971177e-03 0.0 
1.772308971177e-03 1.073499737846e-02 0.0 
0.0 0.0 0.0 
6.074776072522e-04 1.288339756208e-03 0.0 
1.288339756208e-03 7.688000409638e-03 0.0 
0.0 0.0 0.0 
7.536619823689e-05 -2.481773061609e-04 0.0 
-2.481773061609e-04 1.085069629960e-03 0.0 
0.0 0.0 0.0 
-4.891497443108e-04 1.995093824456e-05 0.0 
1.995093824456e-05 1.206497011148e-02 0.0 
0.0 0.0 0.0 
1.253889356119e-04 2.802240681638e-04 0.0 
2.802240681638e-04 7.847328403803e-03 0.0 
0.0 0.0 0.0 
4.855630784317e-05 1.794487800760e-03 0.0 
1.794487800760e-03 1.012097955612e-02 0.0 
0.0 0.0 0.0 
-1.755537604775e-05 1.920339687560e-03 0.0 
1.920339687560e-03 1.054884374248e-02 0.0 
0.0 0.0 0.0 
5.835769665892e-04 -1.249809761402e-05 0.0 
-1.249809761402e-05 5.428772161232e-03 0.0 
0.0 0.0 0.0 
-4.478623258158e-04 3.892353465614e-04 0.0 
3.892353465614e-04 7.191712713108e-04 0.0 
0.0 0.0 0.0 
-8.593960361302e-04 1.360138476077e-03 0.0 
1.360138476077e-03 5.473614334178e-03 0.0 
0.0 0.0 0.0 
-2.747037866807e-04 1.321981250143e-03 0.0 
1.321981250143e-03 4.760538444869e-03 0.0 
0.0 0.0 0.0 
-8.957131342446e-04 2.996160700124e-04 0.0 
2.996160700124e-04 1.115434728116e-02 0.0 
0.0 0.0 0.0 
4.972631601821e-04 1.534946219037e-03 0.0 
1.534946219037e-03 7.675851820829e-03 0.0 
0.0 0.0 0.0 
-2.516395048565e-04 3.005101572664e-04 0.0 
3.005101572664e-04 1.338286749269e-02 0.0 
0.0 0.0 0.0 
1.959654681079e-04 1.522622592128e-03 0.0 
1.522622592128e-03 9.044448863267e-03 0.0 
0.0 0.0 0.0 
-2.768517277881e-04 -2.005776336670e-04 0.0 
-2.005776336670e-04 8.691193195272e-04 0.0 
0.0 0.0 0.0 
-1.976693769676e-04 -1.894201688229e-04 0.0 
-1.894201688229e-04 7.874000194423e-04 0.0 
0.0 0.0 0.0 
-9.117011303260e-04 1.454620982393e-03 0.0 
1.454620982393e-03 4.148384962429e-03 0.0 
0.0 0.0 0.0 
-4.488781009027e-04 1.297158745504e-04 0.0 
1.297158745504e-04 1.218074934698e-02 0.0 
0.0 0.0 0.0 
4.548323118037e-04 -1.026082225993e-04 0.0 
-1.026082225993e-04 2.589671900542e-03 0.0 
0.0 0.0 0.0 
-3.775427809488e-04 7.887226037968e-04 0.0 
7.887226037968e-04 1.324388585175e-02 0.0 
0.0 0.0 0.0 
1.890650119032e-04 -1.006328545309e-04 0.0 
-1.006328545309e-04 1.269729302275e-03 0.0 
0.0 0.0 0.0 
3.626269923009e-04 1.456864751515e-03 0.0 
1.456864751515e-03 8.602628663016e-03 0.0 
0.0 0.0 0.0 
-6.909110019876e-04 1.371101290945e-04 0.0 
1.371101290945e-04 1.112733112961e-02 0.0 
0.0 0.0 0.0 
9.156782005393e-05 1.836860345046e-03 0.0 
1.836860345046e-03 1.006803787549e-02 0.0 
0.0 0.0 0.0 
1.866158863608e-04 1.656326675123e-03 0.0 
1.656326675123e-03 9.153864484954e-03 0.0 
0.0 0.0 0.0 
-9.733377006759e-04 3.620050503052e-04 0.0 
3.620050503052e-04 1.114831380656e-02 0.0 
0.0 0.0 0.0 
3.050920534859e-04 1.029249605881e-03 0.0 
1.029249605881e-03 8.327309370917e-03 0.0 
0.0 0.0 0.0 
-3.039695946064e-04 9.292073031686e-04 0.0 
9.292073031686e-04 1.337828086295e-02 0.0 
0.0 0.0 0.0 
-1.684187692605e-04 8.475563069167e-05 0.0 
8.475563069167e-05 1.362961064018e-02 0.0 
0.0 0.0 0.0 
-9.522268130877e-04 1.432142232256e-03 0.0 
1.432142232256e-03 2.775320649190e-03 0.0 
0.0 0.0 0.0 
-3.427599350670e-04 7.067157985195e-04 0.0 
7.067157985195e-04 1.317854041718e-02 0.0 
0.0 0.0 0.0 
-6.204422391531e-05 1.871227108052e-03 0.0 
1.871227108052e-03 1.144315015466e-02 0.0 
0.0 0.0 0.0 
3.929149391619e-04 1.456447899114e-03 0.0 
1.456447899114e-03 8.601524790530e-03 0.0 
0.0 0.0 0.0 
3.141101235495e-04 1.713853550188e-03 0.0 
1.713853550188e-03 9.091646810832e-03 0.0 
0.0 0.0 0.0 
0.0 6.662533295713e-04 0.0 
6.662533295713e-04 8.470386493114e-03 0.0 
0.0 0.0 0.0 
-5.311393091499e-04 1.483553449703e-03 0.0 
1.483553449703e-03 1.120417632804e-02 0.0 
0.0 0.0 0.0 
-6.818970018343e-04 3.395322310475e-04 0.0 
3.395322310475e-04 3.679557198808e-04 0.0 
0.0 0.0 0.0 
-2.262679801421e-04 7.177481357114e-04 0.0 
7.177481357114e-04 2.277903151970e-03 0.0 
0.0 0.0 0.0 
-4.934645209200e-04 1.549018075679e-03 0.0 
1.549018075679e-03 1.186896711424e-02 0.0 
0.0 0.0 0.0 
-8.304339915080e-04 3.503837348608e-04 0.0 
3.503837348608e-04 1.143850773234e-02 0.0 
0.0 0.0 0.0 
2.749578360699e-04 1.251029695824e-04 0.0 
1.251029695824e-04 7.406030540180e-03 0.0 
0.0 0.0 0.0 
1.353231745520e-04 1.724196228317e-03 0.0 
1.724196228317e-03 9.577348090027e-03 0.0 
0.0 0.0 0.0 
1.426627415715e-04 5.583989293889e-04 0.0 
5.583989293889e-04 8.029197777121e-03 0.0 
0.0 0.0 0.0 
-3.890604782150e-04 1.508856434117e-04 0.0 
1.508856434117e-04 1.257816596382e-02 0.0 
0.0 0.0 0.0 
8.431990896929e-05 1.783238308556e-03 0.0 
1.783238308556e-03 9.849697520633e-03 0.0 
0.0 0.0 0.0 
3.090068621636e-04 8.670424269032e-04 0.0 
8.670424269032e-04 7.906849837654e-03 0.0 
0.0 0.0 0.0 
3.685668397546e-04 9.395838533762e-04 0.0 
9.395838533762e-04 7.900140412361e-03 0.0 
0.0 0.0 0.0 
4.668710306921e-04 -7.330755686488e-05 0.0 
-7.330755686488e-05 2.687283012967e-03 0.0 
0.0 0.0 0.0 
1.573659391432e-04 5.464049906509e-04 0.0 
5.464049906509e-04 8.418704590648e-03 0.0 
0.0 0.0 0.0 
-7.821816983540e-04 1.208754622544e-04 0.0 
1.208754622544e-04 1.076951229836e-02 0.0 
0.0 0.0 0.0 
-2.512023540273e-04 1.459747036418e-04 0.0 
1.459747036418e-04 1.330573804697e-02 0.0 
0.0 0.0 0.0 
-4.587589113036e-05 -2.240716898256e-04 0.0 
-2.240716898256e-04 7.733242972296e-04 0.0 
0.0 0.0 0.0 
-3.160865812554e-04 6.087026155842e-05 0.0 
6.087026155842e-05 1.304088842375e-02 0.0 
0.0 0.0 0.0 
-4.946529946698e-04 6.355406617537e-05 0.0 
6.355406617537e-05 1.209719380351e-02 0.0 
0.0 0.0 0.0 
8.455679609054e-05 -4.437659889096e-05 0.0 
-4.437659889096e-05 6.984528434932e-04 0.0 
0.0 0.0 0.0 
1.439864138097e-04 -1.094955962795e-04 0.0 
-1.094955962795e-04 1.518951626121e-03 0.0 
0.0 0.0 0.0 
-4.183751132514e-04 1.588385663048e-03 0.0 
1.588385663048e-03 1.110531446936e-02 0.0 
0.0 0.0 0.0 
-1.466633883198e-04 4.615031142772e-04 0.0 
4.615031142772e-04 1.356608345176e-02 0.0 
0.0 0.0 0.0 
-2.312210140001e-04 6.119329514456e-05 0.0 
6.119329514456e-05 1.335501526855e-02 0.0 
0.0 0.0 0.0 
2.646682555858e-04 1.828181117053e-03 0.0 
1.828181117053e-03 9.559069187378e-03 0.0 
0.0 0.0 0.0 
-5.682205243844e-04 1.023971330515e-04 0.0 
1.023971330515e-04 1.138063510381e-02 0.0 
0.0 0.0 0.0 
-1.849845599147e-04 -1.281629119708e-04 0.0 
-1.281629119708e-04 4.564055216336e-04 0.0 
0.0 0.0 0.0 
-3.577243190758e-04 2.969077560059e-04 0.0 
2.969077560059e-04 1.029468410086e-03 0.0 
0.0 0.0 0.0 
-1.107920860633e-04 -6.931964871187e-05 0.0 
-6.931964871187e-05 4.980961764565e-04 0.0 
0.0 0.0 0.0 
-1.986713125846e-05 -2.606474890443e-04 0.0 
-2.606474890443e-04 1.030683756558e-03 0.0 
0.0 0.0 0.0 
-7.461612933094e-04 7.056041722168e-04 0.0 
7.056041722168e-04 5.203343484508e-04 0.0 
0.0 0.0 0.0 
6.102661261873e-04 1.242469953451e-05 0.0 
1.242469953451e-05 3.671857410692e-03 0.0 
0.0 0.0 0.0 
2.939368825878e-04 1.977121255739e-04 0.0 
1.977121255739e-04 7.404484769253e-03 0.0 
0.0 0.0 0.0 
-3.806281676226e-04 1.346507157001e-03 0.0 
1.346507157001e-03 1.260222385760e-02 0.0 
0.0 0.0 0.0 
-1.026384942098e-03 5.117342629955e-04 0.0 
5.117342629955e-04 1.134747438501e-02 0.0 
0.0 0.0 0.0 
5.665015193861e-04 -9.638758122366e-05 0.0 
-9.638758122366e-05 3.177279833130e-03 0.0 
0.0 0.0 0.0 
3.405615713885e-04 7.042205749453e-04 0.0 
7.042205749453e-04 7.686142104839e-03 0.0 
0.0 0.0 0.0 
4.912886721997e-04 1.215514470208e-03 0.0 
1.215514470208e-03 8.030192169724e-03 0.0 
0.0 0.0 0.0 
1.505914220039e-04 1.966194201261e-03 0.0 
1.966194201261e-03 1.016856454239e-02 0.0 
0.0 0.0 0.0 
-9.817531863265e-05 1.802388148589e-03 0.0 
1.802388148589e-03 1.101584728082e-02 0.0 
0.0 0.0 0.0 
-3.189279496901e-04 1.659243707397e-03 0.0 
1.659243707397e-03 1.142450657150e-02 0.0 
0.0 0.0 0.0 
-5.077134653686e-05 -1.568135751620e-04 0.0 
-1.568135751620e-04 7.514530690620e-04 0.0 
0.0 0.0 0.0 
-4.535325416827e-04 -1.278908700753e-04 0.0 
-1.278908700753e-04 8.986251549854e-04 0.0 
0.0 0.0 0.0 
2.758499131086e-04 2.437202315955e-04 0.0 
2.437202315955e-04 7.473991599596e-03 0.0 
0.0 0.0 0.0 
1.337721526311e-04 -2.190618349150e-05 0.0 
-2.190618349150e-05 6.813963593297e-04 0.0 
0.0 0.0 0.0 
1.252723196916e-04 3.787614185328e-05 0.0 
3.787614185328e-05 8.457672295283e-04 0.0 
0.0 0.0 0.0 
-5.390655843258e-04 9.217135678277e-04 0.0 
9.217135678277e-04 1.283176269590e-03 0.0 
0.0 0.0 0.0 
-4.119359242172e-05 -1.942096707065e-04 0.0 
-1.942096707065e-04 7.116900122783e-04 0.0 
0.0 0.0 0.0 
1.575222202537e-04 9.458519050550e-04 0.0 
9.458519050550e-04 8.281624447784e-03 0.0 
0.0 0.0 0.0 
-1.485527121889e-04 1.758173185609e-03 0.0 
1.758173185609e-03 1.203882331893e-02 0.0 
0.0 0.0 0.0 
-2.213184960286e-04 3.385292170704e-04 0.0 
3.385292170704e-04 1.338503321749e-02 0.0 
0.0 0.0 0.0 
5.693618435743e-05 1.884858304718e-03 0.0 
1.884858304718e-03 1.033564533994e-02 0.0 
0.0 0.0 0.0 
4.505547994607e-04 1.131844654459e-03 0.0 
1.131844654459e-03 7.858567230583e-03 0.0 
0.0 0.0 0.0 
-5.380147301157e-04 1.107339121300e-04 0.0 
1.107339121300e-04 1.160235759457e-02 0.0 
0.0 0.0 0.0 
0.0 6.380521044129e-04 0.0 
6.380521044129e-04 1.379219568016e-02 0.0 
0.0 0.0 0.0 
3.239290606876e-04 -1.730612309094e-04 0.0 
-1.730612309094e-04 1.758507395488e-03 0.0 
0.0 0.0 0.0 
-6.431969447190e-04 8.932398142098e-06 0.0 
8.932398142098e-06 1.038142438688e-02 0.0 
0.0 0.0 0.0 
-1.062497525562e-04 -2.016435901225e-04 0.0 
-2.016435901225e-04 1.120401234145e-03 0.0 
0.0 0.0 0.0 
1.583880305978e-05 -6.702639569752e-05 0.0 
-6.702639569752e-05 3.823738616255e-04 0.0 
0.0 0.0 0.0 
1.470989627113e-04 3.818082327863e-04 0.0 
3.818082327863e-04 8.338879730679e-03 0.0 
0.0 0.0 0.0 
-9.407815737157e-04 2.797915147311e-04 0.0 
2.797915147311e-04 1.078310243726e-02 0.0 
0.0 0.0 0.0 
1.244609677344e-04 -6.920490169503e-05 0.0 
-6.920490169503e-05 1.001360708474e-03 0.0 
0.0 0.0 0.0 
5.945506706553e-04 2.351916497240e-05 0.0 
2.351916497240e-05 3.519763872394e-03 0.0 
0.0 0.0 0.0 
-2.262471051371e-04 1.818631620220e-03 0.0 
1.818631620220e-03 1.215452272826e-02 0.0 
0.0 0.0 0.0 
-3.172861929189e-04 4.181934901750e-04 0.0 
4.181934901750e-04 1.333628777010e-02 0.0 
0.0 0.0 0.0 
-1.942020724324e-04 1.031943253625e-03 0.0 
1.031943253625e-03 1.327608527366e-02 0.0 
0.0 0.0 0.0 
4.263145742649e-04 -6.651414917352e-05 0.0 
-6.651414917352e-05 2.441950763688e-03 0.0 
0.0 0.0 0.0 
-3.603998309408e-04 -1.599806798354e-05 0.0 
-1.599806798354e-05 9.387198239523e-04 0.0 
0.0 0.0 0.0 
2.396214976876e-04 6.125468437078e-04 0.0 
6.125468437078e-04 8.050229623730e-03 0.0 
0.0 0.0 0.0 
-8.422688794596e-05 6.373981268267e-05 0.0 
6.373981268267e-05 1.391647818543e-02 0.0 
0.0 0.0 0.0 
1.129615442015e-04 7.592895956058e-05 0.0 
7.592895956058e-05 8.280364379736e-03 0.0 
0.0 0.0 0.0 
-5.686192029272e-04 2.394944452817e-05 0.0 
2.394944452817e-05 1.066705223447e-02 0.0 
0.0 0.0 0.0 
3.177382049966e-04 1.208001126066e-03 0.0 
1.208001126066e-03 8.231000048400e-03 0.0 
0.0 0.0 0.0 
1.855042517849e-04 -1.073289857836e-04 0.0 
-1.073289857836e-04 1.022345571902e-03 0.0 
0.0 0.0 0.0 
-3.125478071951e-04 8.104058362157e-04 0.0 
8.104058362157e-04 1.324553080792e-02 0.0 
0.0 0.0 0.0 
-3.094608413823e-05 -9.119248017220e-05 0.0 
-9.119248017220e-05 3.814246077460e-04 0.0 
0.0 0.0 0.0 
1.597692953303e-04 1.139338965403e-03 0.0 
1.139338965403e-03 8.509197823465e-03 0.0 
0.0 0.0 0.0 
-3.291901273113e-04 1.143933234348e-03 0.0 
1.143933234348e-03 1.318322795018e-02 0.0 
0.0 0.0 0.0 
-4.184215369260e-04 1.232388673997e-04 0.0 
1.232388673997e-04 6.281562226367e-04 0.0 
0.0 0.0 0.0 
8.117047135991e-06 1.798326457295e-03 0.0 
1.798326457295e-03 1.012091816786e-02 0.0 
0.0 0.0 0.0 
-4.335636370554e-04 5.589969794231e-05 0.0 
5.589969794231e-05 1.238480969769e-02 0.0 
0.0 0.0 0.0 
-1.126884964107e-04 3.365492620254e-04 0.0 
3.365492620254e-04 1.361561145248e-02 0.0 
0.0 0.0 0.0 
0.0 1.783164889536e-03 0.0 
1.783164889536e-03 9.908299305223e-03 0.0 
0.0 0.0 0.0 
-4.887322566580e-04 -2.403697797899e-05 0.0 
-2.403697797899e-05 1.185563644475e-02 0.0 
0.0 0.0 0.0 
-1.363478420234e-04 1.699980043759e-03 0.0 
1.699980043759e-03 1.227742286677e-02 0.0 
0.0 0.0 0.0 
-4.301425271281e-04 9.756903429959e-04 0.0 
9.756903429959e-04 1.308710342991e-02 0.0 
0.0 0.0 0.0 
-4.443411503540e-04 5.581678601354e-05 0.0 
5.581678601354e-05 1.209200406633e-02 0.0 
0.0 0.0 0.0 
-2.457569620411e-04 1.656319218865e-03 0.0 
1.656319218865e-03 1.196742807356e-02 0.0 
0.0 0.0 0.0 
5.326271275494e-04 -6.594571398764e-05 0.0 
-6.594571398764e-05 2.965892235658e-03 0.0 
0.0 0.0 0.0 
-6.025044212041e-04 -2.212399334668e-06 0.0 
-2.212399334668e-06 1.037226623886e-02 0.0 
0.0 0.0 0.0 
1.542038986972e-04 1.876965969180e-03 0.0 
1.876965969180e-03 1.001970393856e-02 0.0 
0.0 0.0 0.0 
-1.108600901116e-04 5.999357541173e-05 0.0 
5.999357541173e-05 1.366514229236e-02 0.0 
0.0 0.0 0.0 
3.363223552943e-05 7.665666316459e-06 0.0 
7.665666316459e-06 8.279398133215e-05 0.0 
0.0 0.0 0.0 
-5.768863620388e-04 7.819053074432e-06 0.0 
7.819053074432e-06 1.036261929643e-02 0.0 
0.0 0.0 0.0 
1.462235663503e-04 3.428387826135e-05 0.0 
3.428387826135e-05 7.922042801052e-03 0.0 
0.0 0.0 0.0 
2.033004572166e-04 -9.136005631020e-05 0.0 
-9.136005631020e-05 1.311035273010e-03 0.0 
0.0 0.0 0.0 
4.349155061385e-04 1.405166539064e-03 0.0 
1.405166539064e-03 8.452777015106e-03 0.0 
0.0 0.0 0.0 
-4.884957624999e-04 1.167754134512e-03 0.0 
1.167754134512e-03 1.286289404020e-02 0.0 
0.0 0.0 0.0 
-2.099969204329e-04 2.851037445914e-04 0.0 
2.851037445914e-04 1.359502266011e-02 0.0 
0.0 0.0 0.0 
1.979680192494e-04 -4.968611549441e-05 0.0 
-4.968611549441e-05 1.253851950117e-03 0.0 
0.0 0.0 0.0 
-3.197162710782e-04 6.309467044436e-04 0.0 
6.309467044436e-04 1.605861372947e-03 0.0 
0.0 0.0 0.0 
6.184365762647e-04 5.536980207624e-05 0.0 
5.536980207624e-05 4.385982404081e-03 0.0 
0.0 0.0 0.0 
-3.463567688524e-04 7.802849889853e-05 0.0 
7.802849889853e-05 1.278261238315e-02 0.0 
0.0 0.0 0.0 
-1.110188023451e-03 -4.748609485124e-05 0.0 
-4.748609485124e-05 5.949658318622e-04 0.0 
0.0 0.0 0.0 
-1.668045572221e-04 8.378846217360e-04 0.0 
8.378846217360e-04 1.343776626839e-02 0.0 
0.0 0.0 0.0 
-4.854535208180e-04 4.211716009499e-05 0.0 
4.211716009499e-05 1.173926166773e-02 0.0 
0.0 0.0 0.0 
9.896726648950e-05 -2.718327122619e-04 0.0 
-2.718327122619e-04 1.317933352421e-03 0.0 
0.0 0.0 0.0 
-5.375886733512e-04 5.675996887001e-05 0.0 
5.675996887001e-05 1.146997908810e-02 0.0 
0.0 0.0 0.0 
4.924066509715e-05 1.976433168792e-03 0.0 
1.976433168792e-03 1.048418524074e-02 0.0 
0.0 0.0 0.0 
6.251429647841e-04 -4.079731079605e-05 0.0 
-4.079731079605e-05 4.617600587420e-03 0.0 
0.0 0.0 0.0 
-7.556368481704e-04 6.012556624845e-04 0.0 
6.012556624845e-04 8.878880904313e-04 0.0 
0.0 0.0 0.0 
5.084306288285e-04 -3.351539025186e-05 0.0 
-3.351539025186e-05 2.674522057009e-03 0.0 
0.0 0.0 0.0 
6.439365122972e-04 2.291838873583e-05 0.0 
2.291838873583e-05 3.978112717943e-03 0.0 
0.0 0.0 0.0 
6.331805786763e-04 5.992278589446e-05 0.0 
5.992278589446e-05 4.820427074523e-03 0.0 
0.0 0.0 0.0 
1.830636850275e-04 1.736441334238e-03 0.0 
1.736441334238e-03 9.516171366883e-03 0.0 
0.0 0.0 0.0 
6.123787664831e-04 -3.229426717995e-05 0.0 
-3.229426717995e-05 3.873429999122e-03 0.0 
0.0 0.0 0.0 
6.424382443495e-04 2.225550597318e-05 0.0 
2.225550597318e-05 4.134153602631e-03 0.0 
0.0 0.0 0.0 
-3.420499796680e-05 -7.865196671021e-05 0.0 
-7.865196671021e-05 6.468996546258e-04 0.0 
0.0 0.0 0.0 
2.861475413574e-04 5.660983658084e-04 0.0 
5.660983658084e-04 7.681698092445e-03 0.0 
0.0 0.0 0.0 
-1.101809556778e-04 1.812814604994e-03 0.0 
1.812814604994e-03 1.073914696433e-02 0.0 
0.0 0.0 0.0 
-9.968354288681e-06 6.742149817923e-04 0.0 
6.742149817923e-04 1.714863393915e-03 0.0 
0.0 0.0 0.0 
-8.679037177484e-05 3.720048348044e-05 0.0 
3.720048348044e-05 1.365384841790e-02 0.0 
0.0 0.0 0.0 
1.230271053856e-04 8.595613816109e-05 0.0 
8.595613816109e-05 7.907201237036e-03 0.0 
0.0 0.0 0.0 
-5.757799079965e-04 -2.063246126481e-05 0.0 
-2.063246126481e-05 1.069074558766e-02 0.0 
0.0 0.0 0.0 
-5.109612188674e-04 3.580636841613e-05 0.0 
3.580636841613e-05 1.173827149104e-02 0.0 
0.0 0.0 0.0 
6.231746457452e-04 2.521203707931e-05 0.0 
2.521203707931e-05 3.866981866777e-03 0.0 
0.0 0.0 0.0 
6.329362691155e-04 -1.955374479758e-05 0.0 
-1.955374479758e-05 3.999470920014e-03 0.0 
0.0 0.0 0.0 
6.145224303566e-04 3.412088844102e-07 0.0 
3.412088844102e-07 4.152450905987e-03 0.0 
0.0 0.0 0.0 
4.752160949935e-04 1.367090396371e-03 0.0 
1.367090396371e-03 8.173137968254e-03 0.0 
0.0 0.0 0.0 
6.571762178109e-05 -1.768694152746e-04 0.0 
-1.768694152746e-04 1.063200400211e-03 0.0 
0.0 0.0 0.0 
-1.860134908055e-04 1.859810718383e-03 0.0 
1.859810718383e-03 1.117428064697e-02 0.0 
0.0 0.0 0.0 
-5.485174911862e-04 2.938557093857e-05 0.0 
2.938557093857e-05 1.105004666094e-02 0.0 
0.0 0.0 0.0 
-3.149683718536e-04 7.792913195772e-04 0.0 
7.792913195772e-04 1.344469328401e-02 0.0 
0.0 0.0 0.0 
3.947517754881e-04 1.283987558147e-03 0.0 
1.283987558147e-03 8.163106079819e-03 0.0 
0.0 0.0 0.0 
-5.675876869693e-04 4.322598829988e-05 0.0 
4.322598829988e-05 1.147813236710e-02 0.0 
0.0 0.0 0.0 
-3.216959161720e-04 1.624264913892e-03 0.0 
1.624264913892e-03 1.176690367704e-02 0.0 
0.0 0.0 0.0 
2.392548381853e-04 1.754474617853e-03 0.0 
1.754474617853e-03 9.508001372463e-03 0.0 
0.0 0.0 0.0 
1.623767522734e-04 1.909653366674e-03 0.0 
1.909653366674e-03 9.949322281543e-03 0.0 
0.0 0.0 0.0 
-6.010197098648e-04 6.649381614920e-04 0.0 
6.649381614920e-04 8.118096636605e-04 0.0 
0.0 0.0 0.0 
-3.944976887018e-04 1.627624907274e-03 0.0 
1.627624907274e-03 1.176675491830e-02 0.0 
0.0 0.0 0.0 
-2.641565058924e-04 1.777190660589e-03 0.0 
1.777190660589e-03 1.175645003640e-02 0.0 
0.0 0.0 0.0 
-2.436118209570e-05 -1.372867826856e-04 0.0 
-1.372867826856e-04 6.782034230035e-04 0.0 
0.0 0.0 0.0 
6.090575563473e-04 -3.349153598941e-05 0.0 
-3.349153598941e-05 3.662090123952e-03 0.0 
0.0 0.0 0.0 
-6.679278853587e-04 4.652589785800e-04 0.0 
4.652589785800e-04 9.480474109400e-04 0.0 
0.0 0.0 0.0 
-3.733257811240e-04 1.683798483888e-03 0.0 
1.683798483888e-03 1.207284490731e-02 0.0 
0.0 0.0 0.0 
-5.934465121092e-04 4.085235097096e-07 0.0 
4.085235097096e-07 8.750424171099e-03 0.0 
0.0 0.0 0.0 
-5.738851676373e-04 1.563320801285e-05 0.0 
1.563320801285e-05 8.703843157156e-03 0.0 
0.0 0.0 0.0 
-5.840631817796e-04 1.917954135477e-06 0.0 
1.917954135477e-06 8.702497076804e-03 0.0 
0.0 0.0 0.0 
-5.726356869546e-04 -7.959993570219e-07 0.0 
-7.959993570219e-07 8.697740240505e-03 0.0 
0.0 0.0 0.0 
-5.776401307910e-04 -3.979370171023e-06 0.0 
-3.979370171023e-06 8.697290884880e-03 0.0 
0.0 0.0 0.0 
-5.698221956389e-04 -6.364120239938e-06 0.0 
-6.364120239938e-06 8.695250907530e-03 0.0 
0.0 0.0 0.0 
-5.716229976566e-04 -7.943391808571e-06 0.0 
-7.943391808571e-06 8.694953061237e-03 0.0 
0.0 0.0 0.0 
-5.611287532579e-04 -1.080300124209e-05 0.0 
-1.080300124209e-05 8.691922721877e-03 0.0 
0.0 0.0 0.0 
-5.644679038438e-04 -1.070134007864e-05 0.0 
-1.070134007864e-05 8.692000311396e-03 0.0 
0.0 0.0 0.0 
-5.475002071916e-04 -1.511817166575e-05 0.0 
-1.511817166575e-05 8.687249764261e-03 0.0 
0.0 0.0 0.0 
-5.558996563583e-04 -1.287935147680e-05 0.0 
-1.287935147680e-05 8.688110397923e-03 0.0 
0.0 0.0 0.0 
-5.292654268749e-04 -1.957132003933e-05 0.0 
-1.957132003933e-05 8.681024223607e-03 0.0 
0.0 0.0 0.0 
-5.456638704304e-04 -1.518588050102e-05 0.0 
-1.518588050102e-05 8.683061329777e-03 0.0 
0.0 0.0 0.0 
-5.066303813946e-04 -2.428323026968e-05 0.0 
-2.428323026968e-05 8.672635656419e-03 0.0 
0.0 0.0 0.0 
-5.334919542030e-04 -1.749775315411e-05 0.0 
-1.749775315411e-05 8.676424310175e-03 0.0 
0.0 0.0 0.0 
-4.794506820964e-04 -2.922421824871e-05 0.0 
-2.922421824871e-05 8.662141792005e-03 0.0 
0.0 0.0 0.0 
-4.997842661078e-04 2.269383956891e-04 0.0 
2.269383956891e-04 8.630818185249e-03 0.0 
0.0 0.0 0.0 
-5.193763363515e-04 -1.944693503066e-05 0.0 
-1.944693503066e-05 8.668562805694e-03 0.0 
0.0 0.0 0.0 
-4.472117274184e-04 -3.403866019807e-05 0.0 
-3.403866019807e-05 8.649857800909e-03 0.0 
0.0 0.0 0.0 
-1.702580208756e-04 3.556889816329e-05 0.0 
3.556889816329e-05 8.376855749603e-03 0.0 
0.0 0.0 0.0 
-5.047198052819e-04 -2.108687814513e-05 0.0 
-2.108687814513e-05 8.659927946793e-03 0.0 
0.0 0.0 0.0 
-4.098424130696e-04 -3.887445539789e-05 0.0 
-3.887445539789e-05 8.635850004512e-03 0.0 
0.0 0.0 0.0 
-7.310733543485e-04 1.777350454873e-04 0.0 
1.777350454873e-04 8.737843807513e-03 0.0 
0.0 0.0 0.0 
-4.899172858648e-04 -2.274703071935e-05 0.0 
-2.274703071935e-05 8.650775750328e-03 0.0 
0.0 0.0 0.0 
-3.676307752108e-04 -4.348621392447e-05 0.0 
-4.348621392447e-05 8.619890216575e-03 0.0 
0.0 0.0 0.0 
-4.756647458849e-04 -2.431263764693e-05 0.0 
-2.431263764693e-05 8.641117419687e-03 0.0 
0.0 0.0 0.0 
-3.211476496995e-04 -4.737459422892e-05 0.0 
-4.737459422892e-05 8.601849209101e-03 0.0 
0.0 0.0 0.0 
-4.638249539152e-04 -2.549063673102e-05 0.0 
-2.549063673102e-05 8.631144071716e-03 0.0 
0.0 0.0 0.0 
-2.712030072758e-04 -5.013203966450e-05 0.0 
-5.013203966450e-05 8.581795123050e-03 0.0 
0.0 0.0 0.0 
-9.381456552456e-04 5.654828005264e-04 0.0 
5.654828005264e-04 8.896009166239e-03 0.0 
0.0 0.0 0.0 
-4.563814679854e-04 -2.259279017738e-05 0.0 
-2.259279017738e-05 8.623756959109e-03 0.0 
0.0 0.0 0.0 
-2.186183865642e-04 -4.942601699301e-05 0.0 
-4.942601699301e-05 8.564422288923e-03 0.0 
0.0 0.0 0.0 
-4.624247387075e-04 -2.063173857616e-05 0.0 
-2.063173857616e-05 8.620303265985e-03 0.0 
0.0 0.0 0.0 
-1.688918415540e-04 -4.543480147008e-05 0.0 
-4.543480147008e-05 8.544395098457e-03 0.0 
0.0 0.0 0.0 
-1.287078595412e-04 -3.043209305358e-05 0.0 
-3.043209305358e-05 8.534816587486e-03 0.0 
0.0 0.0 0.0 
-4.808025705917e-04 -7.393672778138e-06 0.0 
-7.393672778138e-06 8.624733718034e-03 0.0 
0.0 0.0 0.0 
-1.162096078799e-04 -6.775268432645e-07 0.0 
-6.775268432645e-07 8.509610995479e-03 0.0 
0.0 0.0 0.0 
-5.339961784196e-04 6.959407200182e-07 0.0 
6.959407200182e-07 8.634480618771e-03 0.0 
0.0 0.0 0.0 
-1.581952414372e-04 8.355472972710e-05 0.0 
8.355472972710e-05 8.519116883331e-03 0.0 
0.0 0.0 0.0 
-5.699986803515e-04 6.063570031236e-05 0.0 
6.063570031236e-05 8.656685187078e-03 0.0 
0.0 0.0 0.0 
-8.151223691080e-04 1.296448901574e-04 0.0 
1.296448901574e-04 8.871989545814e-03 0.0 
0.0 0.0 0.0 
-6.071096449179e-04 -5.579254071103e-05 0.0 
-5.579254071103e-05 8.702142126103e-03 0.0 
0.0 0.0 0.0 
-6.362040968551e-04 6.582529059155e-05 0.0 
6.582529059155e-05 8.753721732941e-03 0.0 
0.0 0.0 0.0 
-6.469936580444e-04 2.864354346684e-07 0.0 
2.864354346684e-07 8.630702862598e-03 0.0 
0.0 0.0 0.0 
-5.960434283135e-04 1.115014249540e-05 0.0 
1.115014249540e-05 8.822160536196e-03 0.0 
0.0 0.0 0.0 
-9.023822840587e-04 5.818949360137e-04 0.0 
5.818949360137e-04 8.441554478692e-03 0.0 
0.0 0.0 0.0 
-5.934465121092e-04 -2.104376495713e-05 0.0 
-2.104376495713e-05 9.095549474036e-03 0.0 
0.0 0.0 0.0 
-5.909602593753e-04 1.553934204915e-07 0.0 
1.553934204915e-07 9.133584031861e-03 0.0 
0.0 0.0 0.0 
-5.840631817796e-04 -8.979702244969e-06 0.0 
-8.979702244969e-06 9.134480298734e-03 0.0 
0.0 0.0 0.0 
-5.875824715912e-04 -1.124128277947e-05 0.0 
-1.124128277947e-05 9.133307567090e-03 0.0 
0.0 0.0 0.0 
-5.776401307910e-04 -1.140465286885e-05 0.0 
-1.140465286885e-05 9.133276146936e-03 0.0 
0.0 0.0 0.0 
-5.858639806299e-04 -1.624963105763e-05 0.0 
-1.624963105763e-05 9.131216504566e-03 0.0 
0.0 0.0 0.0 
-5.716229976566e-04 -1.617334516309e-05 0.0 
-1.617334516309e-05 9.131058837557e-03 0.0 
0.0 0.0 0.0 
-5.840638679065e-04 -2.250669372129e-05 0.0 
-2.250669372129e-05 9.129500518866e-03 0.0 
0.0 0.0 0.0 
-5.644679038438e-04 -2.079899308524e-05 0.0 
-2.079899308524e-05 9.128767406769e-03 0.0 
0.0 0.0 0.0 
-5.836980200726e-04 -2.911469131816e-05 0.0 
-2.911469131816e-05 9.128524478748e-03 0.0 
0.0 0.0 0.0 
-5.558996563583e-04 -2.539345139421e-05 0.0 
-2.539345139421e-05 9.126782643587e-03 0.0 
0.0 0.0 0.0 
-5.831355781053e-04 -3.613396637993e-05 0.0 
-3.613396637993e-05 9.127598243100e-03 0.0 
0.0 0.0 0.0 
-5.456638704304e-04 -2.979208908717e-05 0.0 
-2.979208908717e-05 9.124231015000e-03 0.0 
0.0 0.0 0.0 
-5.842522418168e-04 -4.374478506870e-05 0.0 
-4.374478506870e-05 9.126603259118e-03 0.0 
0.0 0.0 0.0 
-5.334919542030e-04 -3.431578616042e-05 0.0 
-3.431578616042e-05 9.120801248050e-03 0.0 
0.0 0.0 0.0 
-7.207632779835e-04 2.342901968255e-04 0.0 
2.342901968255e-04 9.117112716786e-03 0.0 
0.0 0.0 0.0 
-5.839246571518e-04 -5.143553933857e-05 0.0 
-5.143553933857e-05 9.124556772833e-03 0.0 
0.0 0.0 0.0 
-8.271626678477e-04 1.634491172683e-04 0.0 
1.634491172683e-04 9.202415564830e-03 0.0 
0.0 0.0 0.0 
-5.193763363515e-04 -3.763669747393e-05 0.0 
-3.763669747393e-05 9.115079535254e-03 0.0 
0.0 0.0 0.0 
-5.858938171572e-04 -5.704518267484e-05 0.0 
-5.704518267484e-05 9.123382890407e-03 0.0 
0.0 0.0 0.0 
-5.047198052819e-04 -4.011720929141e-05 0.0 
-4.011720929141e-05 9.109845527974e-03 0.0 
0.0 0.0 0.0 
-5.908159363268e-04 -6.196431369089e-05 0.0 
-6.196431369089e-05 9.123421505476e-03 0.0 
0.0 0.0 0.0 
-4.899172858648e-04 -4.145742412032e-05 0.0 
-4.145742412032e-05 9.104512255773e-03 0.0 
0.0 0.0 0.0 
-5.981244933971e-04 -6.534565296333e-05 0.0 
-6.534565296333e-05 9.124090267085e-03 0.0 
0.0 0.0 0.0 
-5.699986803515e-04 1.804548265134e-04 0.0 
1.804548265134e-04 8.921746173192e-03 0.0 
0.0 0.0 0.0 
-4.756647458849e-04 -4.025914147881e-05 0.0 
-4.025914147881e-05 9.098016982920e-03 0.0 
0.0 0.0 0.0 
-6.104689246742e-04 -6.502888488654e-05 0.0 
-6.502888488654e-05 9.125997983283e-03 0.0 
0.0 0.0 0.0 
-4.638249539152e-04 -3.542861425271e-05 0.0 
-3.542861425271e-05 9.091268537962e-03 0.0 
0.0 0.0 0.0 
-6.307650805529e-04 -6.029024259136e-05 0.0 
-6.029024259136e-05 9.129480624630e-03 0.0 
0.0 0.0 0.0 
-4.563814679854e-04 -2.229507777137e-05 0.0 
-2.229507777137e-05 9.081522016720e-03 0.0 
0.0 0.0 0.0 
-6.558229749276e-04 -3.885712932986e-05 0.0 
-3.885712932986e-05 9.138726290925e-03 0.0 
0.0 0.0 0.0 
-4.624247387075e-04 1.092987592124e-06 0.0 
1.092987592124e-06 9.081567076270e-03 0.0 
0.0 0.0 0.0 
-7.077736165307e-04 -1.348519634144e-05 0.0 
-1.348519634144e-05 9.152398851571e-03 0.0 
0.0 0.0 0.0 
-7.359720643066e-04 5.682011275523e-05 0.0 
5.682011275523e-05 9.165744188858e-03 0.0 
0.0 0.0 0.0 
-4.808025705917e-04 4.577419581100e-05 0.0 
4.577419581100e-05 9.068675970505e-03 0.0 
0.0 0.0 0.0 
-8.704400035957e-04 3.821476431354e-04 0.0 
3.821476431354e-04 9.230909009528e-03 0.0 
0.0 0.0 0.0 
-5.339961784196e-04 1.249337013053e-04 0.0 
1.249337013053e-04 9.071365744209e-03 0.0 
0.0 0.0 0.0 
-8.125447955801e-04 2.020243695237e-04 0.0 
2.020243695237e-04 9.111672639722e-03 0.0 
0.0 0.0 0.0 
-6.062900358037e-04 -6.157264999238e-05 0.0 
-6.157264999238e-05 9.142723684126e-03 0.0 
0.0 0.0 0.0 
-5.778774874038e-04 5.090238312575e-05 0.0 
5.090238312575e-05 9.091942435992e-03 0.0 
0.0 0.0 0.0 
-5.878679297068e-04 -9.622326789866e-06 0.0 
-9.622326789866e-06 9.226514299763e-03 0.0 
0.0 0.0 0.0 
-5.960434283135e-04 7.601407492834e-07 0.0 
7.601407492834e-07 9.011434060935e-03 0.0 
0.0 0.0 0.0 
-7.310733543485e-04 4.263093972729e-04 0.0 
4.263093972729e-04 8.893318147916e-03 0.0 
0.0 0.0 0.0 
-5.905805822608e-04 -2.220973604777e-05 0.0 
-2.220973604777e-05 9.598956503427e-03 0.0 
0.0 0.0 0.0 
-5.909602593753e-04 -3.678544387806e-06 0.0 
-3.678544387806e-06 9.564410583281e-03 0.0 
0.0 0.0 0.0 
-5.890532625680e-04 -1.433212716037e-05 0.0 
-1.433212716037e-05 9.563150621998e-03 0.0 
0.0 0.0 0.0 
-5.875824715912e-04 -1.388954161988e-05 0.0 
-1.388954161988e-05 9.561120863825e-03 0.0 
0.0 0.0 0.0 
-5.921331034971e-04 -1.425243008928e-05 0.0 
-1.425243008928e-05 9.561092253478e-03 0.0 
0.0 0.0 0.0 
-5.858639806299e-04 -1.779087236325e-05 0.0 
-1.779087236325e-05 9.562455758372e-03 0.0 
0.0 0.0 0.0 
-5.970291484488e-04 -1.894513946023e-05 0.0 
-1.894513946023e-05 9.562338701309e-03 0.0 
0.0 0.0 0.0 
-5.840638679065e-04 -2.407909054112e-05 0.0 
-2.407909054112e-05 9.561664264107e-03 0.0 
0.0 0.0 0.0 
-6.004181070065e-04 -2.164747451521e-05 0.0 
-2.164747451521e-05 9.562733126931e-03 0.0 
0.0 0.0 0.0 
-5.836980200726e-04 -2.937680024656e-05 0.0 
-2.937680024656e-05 9.564124206546e-03 0.0 
0.0 0.0 0.0 
-6.094641855767e-04 -2.642255506351e-05 0.0 
-2.642255506351e-05 9.565969287853e-03 0.0 
0.0 0.0 0.0 
-5.831355781053e-04 -3.580387140872e-05 0.0 
-3.580387140872e-05 9.564265604426e-03 0.0 
0.0 0.0 0.0 
-6.173077616858e-04 -2.860852429326e-05 0.0 
-2.860852429326e-05 9.568676869320e-03 0.0 
0.0 0.0 0.0 
-8.362836875597e-04 1.821356230041e-04 0.0 
1.821356230041e-04 9.592985609735e-03 0.0 
0.0 0.0 0.0 
-5.842522418168e-04 -4.085716714604e-05 0.0 
-4.085716714604e-05 9.568080043306e-03 0.0 
0.0 0.0 0.0 
-6.314412901768e-04 -3.497340285971e-05 0.0 
-3.497340285971e-05 9.573461416023e-03 0.0 
0.0 0.0 0.0 
-7.359720643066e-04 1.537950290574e-04 0.0 
1.537950290574e-04 9.417955763927e-03 0.0 
0.0 0.0 0.0 
-5.839246571518e-04 -4.695022338695e-05 0.0 
-4.695022338695e-05 9.565384166236e-03 0.0 
0.0 0.0 0.0 
-6.442501634423e-04 -3.542178552066e-05 0.0 
-3.542178552066e-05 9.575714417078e-03 0.0 
0.0 0.0 0.0 
-8.863956569310e-04 1.476477199545e-04 0.0 
1.476477199545e-04 9.640001505128e-03 0.0 
0.0 0.0 0.0 
-5.858938171572e-04 -4.893474102806e-05 0.0 
-4.893474102806e-05 9.565714320122e-03 0.0 
0.0 0.0 0.0 
-6.631544620755e-04 -3.394811459407e-05 0.0 
-3.394811459407e-05 9.581213429511e-03 0.0 
0.0 0.0 0.0 
-5.908159363268e-04 -4.832657513411e-05 0.0 
-4.832657513411e-05 9.567563630336e-03 0.0 
0.0 0.0 0.0 
-6.860139099113e-04 -3.196291320787e-05 0.0 
-3.196291320787e-05 9.588116375933e-03 0.0 
0.0 0.0 0.0 
-5.981244933971e-04 -4.379631075284e-05 0.0 
-4.379631075284e-05 9.566632193514e-03 0.0 
0.0 0.0 0.0 
-9.213047005869e-04 2.901767621836e-04 0.0 
2.901767621836e-04 9.671864096430e-03 0.0 
0.0 0.0 0.0 
-7.131835504093e-04 -2.381174888999e-05 0.0 
-2.381174888999e-05 9.595071559150e-03 0.0 
0.0 0.0 0.0 
-6.104689246742e-04 -3.163940292032e-05 0.0 
-3.163940292032e-05 9.565556628351e-03 0.0 
0.0 0.0 0.0 
-6.307650805529e-04 -9.977297950193e-06 0.0 
-9.977297950193e-06 9.565710711877e-03 0.0 
0.0 0.0 0.0 
-7.487998438082e-04 -7.809383620182e-06 0.0 
-7.809383620182e-06 9.604002703074e-03 0.0 
0.0 0.0 0.0 
-6.558229749276e-04 3.029920301595e-05 0.0 
3.029920301595e-05 9.547270243381e-03 0.0 
0.0 0.0 0.0 
-7.976755848396e-04 1.195424885337e-05 0.0 
1.195424885337e-05 9.612071690583e-03 0.0 
0.0 0.0 0.0 
-7.077736165307e-04 1.012121480487e-04 0.0 
1.012121480487e-04 9.556740999445e-03 0.0 
0.0 0.0 0.0 
-8.167098643046e-04 7.345492178310e-05 0.0 
7.345492178310e-05 9.616663308469e-03 0.0 
0.0 0.0 0.0 
-8.864355075501e-04 1.758796079642e-04 0.0 
1.758796079642e-04 9.533682527838e-03 0.0 
0.0 0.0 0.0 
-5.680723080526e-04 -5.897085543785e-05 0.0 
-5.897085543785e-05 9.538128454994e-03 0.0 
0.0 0.0 0.0 
-6.045542462808e-04 5.215160634795e-05 0.0 
5.215160634795e-05 9.603342787980e-03 0.0 
0.0 0.0 0.0 
-5.878679297068e-04 -8.996404767981e-06 0.0 
-8.996404767981e-06 9.459767524783e-03 0.0 
0.0 0.0 0.0 
-5.852642705830e-04 4.535771666917e-06 0.0 
4.535771666917e-06 9.677601567816e-03 0.0 
0.0 0.0 0.0 
-8.271626678477e-04 3.132926300585e-04 0.0 
3.132926300585e-04 9.381451295818e-03 0.0 
0.0 0.0 0.0 
-5.905805822608e-04 -2.439973147143e-05 0.0 
-2.439973147143e-05 9.959978747657e-03 0.0 
0.0 0.0 0.0 
-5.794513325135e-04 -5.198597055038e-06 0.0 
-5.198597055038e-06 9.986263623738e-03 0.0 
0.0 0.0 0.0 
-5.890532625680e-04 -1.123717860245e-05 0.0 
-1.123717860245e-05 9.987007269767e-03 0.0 
0.0 0.0 0.0 
-5.903872033103e-04 -8.968581766961e-06 0.0 
-8.968581766961e-06 9.992253047607e-03 0.0 
0.0 0.0 0.0 
-5.921331034971e-04 -1.081730574410e-05 0.0 
-1.081730574410e-05 9.992592885663e-03 0.0 
0.0 0.0 0.0 
-5.977416144313e-04 -1.030290231742e-05 0.0 
-1.030290231742e-05 9.997867144168e-03 0.0 
0.0 0.0 0.0 
-5.970291484488e-04 -1.460370386041e-05 0.0 
-1.460370386041e-05 9.998869236351e-03 0.0 
0.0 0.0 0.0 
-6.042957780026e-04 -1.800869813283e-05 0.0 
-1.800869813283e-05 9.998347252571e-03 0.0 
0.0 0.0 0.0 
-6.004181070065e-04 -1.395833716301e-05 0.0 
-1.395833716301e-05 9.997072110267e-03 0.0 
0.0 0.0 0.0 
-6.157459634323e-04 -1.537777925130e-05 0.0 
-1.537777925130e-05 1.000512956849e-02 0.0 
0.0 0.0 0.0 
-6.094641855767e-04 -1.644093565181e-05 0.0 
-1.644093565181e-05 1.000530917386e-02 0.0 
0.0 0.0 0.0 
-6.334358946067e-04 -2.288460507923e-05 0.0 
-2.288460507923e-05 1.001019221782e-02 0.0 
0.0 0.0 0.0 
-8.961300403053e-04 1.557103402987e-04 0.0 
1.557103402987e-04 1.005110179354e-02 0.0 
0.0 0.0 0.0 
-6.173077616858e-04 -1.583360175724e-05 0.0 
-1.583360175724e-05 1.000660523158e-02 0.0 
0.0 0.0 0.0 
-9.125541607637e-04 1.265705528119e-04 0.0 
1.265705528119e-04 1.008001010698e-02 0.0 
0.0 0.0 0.0 
-6.431969447190e-04 -1.860258628045e-05 0.0 
-1.860258628045e-05 1.001750966333e-02 0.0 
0.0 0.0 0.0 
-6.314412901768e-04 -1.528977579264e-05 0.0 
-1.528977579264e-05 1.001529986161e-02 0.0 
0.0 0.0 0.0 
-6.759757385342e-04 -2.533845208073e-05 0.0 
-2.533845208073e-05 1.002460027730e-02 0.0 
0.0 0.0 0.0 
-6.442501634423e-04 -1.085648202221e-05 0.0 
-1.085648202221e-05 1.001471036618e-02 0.0 
0.0 0.0 0.0 
-7.033449493175e-04 -1.853861836427e-05 0.0 
-1.853861836427e-05 1.003331015006e-02 0.0 
0.0 0.0 0.0 
-6.631544620755e-04 -4.191943060134e-06 0.0 
-4.191943060134e-06 1.002139424356e-02 0.0 
0.0 0.0 0.0 
-7.302690600852e-04 -1.120203844716e-05 0.0 
-1.120203844716e-05 1.004262247295e-02 0.0 
0.0 0.0 0.0 
-8.167098643046e-04 1.500466847232e-04 0.0 
1.500466847232e-04 9.881274859072e-03 0.0 
0.0 0.0 0.0 
-6.860139099113e-04 7.800925904248e-06 0.0 
7.800925904248e-06 1.002569419397e-02 0.0 
0.0 0.0 0.0 
-7.670962987326e-04 1.240952142742e-06 0.0 
1.240952142742e-06 1.005115280595e-02 0.0 
0.0 0.0 0.0 
-7.131835504093e-04 2.894488894733e-05 0.0 
2.894488894733e-05 1.002488131099e-02 0.0 
0.0 0.0 0.0 
-8.063829450519e-04 2.745551145121e-05 0.0 
2.745551145121e-05 1.005859593208e-02 0.0 
0.0 0.0 0.0 
-8.530353196075e-04 7.074318648259e-05 0.0 
7.074318648259e-05 1.006754709514e-02 0.0 
0.0 0.0 0.0 
-7.487998438082e-04 6.332286429528e-05 0.0 
6.332286429528e-05 1.002274966563e-02 0.0 
0.0 0.0 0.0 
-7.976755848396e-04 1.101114456243e-04 0.0 
1.101114456243e-04 1.002573992324e-02 0.0 
0.0 0.0 0.0 
-9.383454430087e-04 2.349636385179e-04 0.0 
2.349636385179e-04 1.010813246430e-02 0.0 
0.0 0.0 0.0 
-9.098431815052e-04 1.553875406323e-04 0.0 
1.553875406323e-04 9.951215706707e-03 0.0 
0.0 0.0 0.0 
-5.962871142501e-04 -5.202156242054e-05 0.0 
-5.202156242054e-05 9.990224709572e-03 0.0 
0.0 0.0 0.0 
-5.766546841399e-04 5.850845457615e-05 0.0 
5.850845457615e-05 9.955089748915e-03 0.0 
0.0 0.0 0.0 
-5.873533265228e-04 1.023454378904e-06 0.0 
1.023454378904e-06 1.008477844907e-02 0.0 
0.0 0.0 0.0 
-5.852642705830e-04 7.529608762474e-06 0.0 
7.529608762474e-06 9.864241400843e-03 0.0 
0.0 0.0 0.0 
-8.863956569310e-04 2.521600529704e-04 0.0 
2.521600529704e-04 9.861264447535e-03 0.0 
0.0 0.0 0.0 

TENSORS element_materi_strain_plasti float
-4.741889373871e-04 2.342858306946e-04 0.0 
2.342858306946e-04 2.814002888893e-03 0.0 
0.0 0.0 -4.220722639049e-04 
-3.897703972720e-04 -2.636930979351e-04 0.0 
-2.636930979351e-04 2.518846771568e-03 0.0 
0.0 0.0 -4.303330772826e-04 
-1.259341393326e-03 -3.090507185476e-05 0.0 
-3.090507185476e-05 8.411433358411e-03 0.0 
0.0 0.0 -1.278236581085e-03 
-1.261464826866e-03 -1.747915258517e-04 0.0 
-1.747915258517e-04 8.480496286503e-03 0.0 
0.0 0.0 -1.255598393855e-03 
-7.983281552709e-04 2.303090028114e-04 0.0 
2.303090028114e-04 5.254489729699e-03 0.0 
0.0 0.0 -7.961861350945e-04 
-2.059346616286e-04 2.207607006016e-04 0.0 
2.207607006016e-04 1.009101900263e-03 0.0 
0.0 0.0 -1.793459522598e-04 
-7.878967474187e-04 2.695248863587e-04 0.0 
2.695248863587e-04 5.204562819075e-03 0.0 
0.0 0.0 -8.011023898636e-04 
-4.128254064944e-04 4.080923401226e-05 0.0 
4.080923401226e-05 2.687408780313e-03 0.0 
0.0 0.0 -4.045669272905e-04 
-8.029485881418e-04 -2.877766516214e-04 0.0 
-2.877766516214e-04 5.280709952101e-03 0.0 
0.0 0.0 -7.977904104816e-04 
-1.248589478216e-03 2.242094407414e-04 0.0 
2.242094407414e-04 8.399546616313e-03 0.0 
0.0 0.0 -1.253060141438e-03 
-8.734037686266e-04 1.480436446761e-04 0.0 
1.480436446761e-04 5.724300399011e-03 0.0 
0.0 0.0 -8.816510380685e-04 
-3.813204680075e-04 2.190974571169e-07 0.0 
2.190974571169e-07 2.153866306060e-03 0.0 
0.0 0.0 -3.735031833740e-04 
-1.251882997596e-03 2.259053558602e-04 0.0 
2.259053558602e-04 8.467796470942e-03 0.0 
0.0 0.0 -1.259187713256e-03 
-8.479147549375e-04 1.860153946804e-04 0.0 
1.860153946804e-04 5.638680799524e-03 0.0 
0.0 0.0 -8.526168115438e-04 
-1.288189434839e-03 -1.832848558743e-04 0.0 
-1.832848558743e-04 8.626562874010e-03 0.0 
0.0 0.0 -1.289538875031e-03 
-1.301181403367e-03 2.039645816311e-04 0.0 
2.039645816311e-04 8.626062176419e-03 0.0 
0.0 0.0 -1.285984941237e-03 
-7.889097476292e-04 4.689353054445e-06 0.0 
4.689353054445e-06 5.256085596916e-03 0.0 
0.0 0.0 -7.740676797406e-04 
-1.741032192830e-04 -1.984587543236e-04 0.0 
-1.984587543236e-04 9.106845467383e-04 0.0 
0.0 0.0 -1.826237857505e-04 
-3.103934600629e-04 -1.188849736468e-04 0.0 
-1.188849736468e-04 1.808737160777e-03 0.0 
0.0 0.0 -2.776016825098e-04 
-3.017260514233e-04 1.101242532994e-04 0.0 
1.101242532994e-04 1.644506395847e-03 0.0 
0.0 0.0 -3.031105466646e-04 
-1.236978180346e-03 -2.273342210413e-04 0.0 
-2.273342210413e-04 8.474882909105e-03 0.0 
0.0 0.0 -1.250388265701e-03 
-4.788832533263e-04 9.235771209242e-05 0.0 
9.235771209242e-05 2.938553769607e-03 0.0 
0.0 0.0 -4.811142067971e-04 
-5.153479436012e-04 -1.000310601356e-04 0.0 
-1.000310601356e-04 3.322116646267e-03 0.0 
0.0 0.0 -5.091556215902e-04 
-1.207914407075e-03 -1.521033174033e-04 0.0 
-1.521033174033e-04 8.119148175608e-03 0.0 
0.0 0.0 -1.210372970477e-03 
-9.004893154001e-04 2.196977328252e-04 0.0 
2.196977328252e-04 6.011080091783e-03 0.0 
0.0 0.0 -9.130988374533e-04 
-9.174590915307e-04 -1.450811372332e-04 0.0 
-1.450811372332e-04 6.162434229051e-03 0.0 
0.0 0.0 -9.179597371190e-04 
-7.131055436641e-04 -1.829825241466e-05 0.0 
-1.829825241466e-05 4.865076399380e-03 0.0 
0.0 0.0 -7.148082707961e-04 
-1.275014108034e-03 1.320223363481e-05 0.0 
1.320223363481e-05 8.706353732723e-03 0.0 
0.0 0.0 -1.266047838742e-03 
-9.084778585211e-04 -2.532626103826e-04 0.0 
-2.532626103826e-04 6.055345996359e-03 0.0 
0.0 0.0 -9.113908267906e-04 
-1.248671644075e-03 1.500744587119e-04 0.0 
1.500744587119e-04 8.319441606585e-03 0.0 
0.0 0.0 -1.237914324842e-03 
-2.162503473685e-04 3.355180743600e-05 0.0 
3.355180743600e-05 1.390767343688e-03 0.0 
0.0 0.0 -2.185975924268e-04 
-1.102777646678e-04 3.092462500305e-05 0.0 
3.092462500305e-05 6.008114765358e-04 0.0 
0.0 0.0 -1.059755802940e-04 
-1.291285801941e-03 5.563014948237e-05 0.0 
5.563014948237e-05 8.705630370944e-03 0.0 
0.0 0.0 -1.261301343383e-03 
-1.086169392383e-03 -1.843155554575e-04 0.0 
-1.843155554575e-04 7.250914267634e-03 0.0 
0.0 0.0 -1.090200430068e-03 
-1.229627234356e-03 -2.081816156674e-04 0.0 
-2.081816156674e-04 8.461501921680e-03 0.0 
0.0 0.0 -1.254989870190e-03 
-1.333928130876e-03 3.870959300371e-04 0.0 
3.870959300371e-04 8.918766405510e-03 0.0 
0.0 0.0 -1.314886350686e-03 
-1.319549054242e-03 -4.082653656671e-04 0.0 
-4.082653656671e-04 8.897494246722e-03 0.0 
0.0 0.0 -1.314653105918e-03 
-1.251043943053e-03 1.755104499558e-04 0.0 
1.755104499558e-04 8.438640087517e-03 0.0 
0.0 0.0 -1.264739017786e-03 
-7.261695585195e-04 -3.174047361399e-04 0.0 
-3.174047361399e-04 4.739951691414e-03 0.0 
0.0 0.0 -7.380763454960e-04 
-7.293562810949e-04 3.567993421671e-04 0.0 
3.567993421671e-04 4.808642079977e-03 0.0 
0.0 0.0 -7.371174501546e-04 
-5.783756129442e-04 -1.365848045621e-04 0.0 
-1.365848045621e-04 3.784424820314e-03 0.0 
0.0 0.0 -5.794556523337e-04 
-1.262877717034e-03 1.019690194505e-05 0.0 
1.019690194505e-05 8.450550888573e-03 0.0 
0.0 0.0 -1.280756488215e-03 
-3.226099019571e-04 2.179474137412e-04 0.0 
2.179474137412e-04 1.923375161646e-03 0.0 
0.0 0.0 -3.207852484642e-04 
-7.228265239814e-04 5.532830836330e-05 0.0 
5.532830836330e-05 4.629144605835e-03 0.0 
0.0 0.0 -7.350059072715e-04 
-1.225055898073e-03 -9.816574622226e-05 0.0 
-9.816574622226e-05 8.293394798268e-03 0.0 
0.0 0.0 -1.212858513926e-03 
-3.206551623609e-04 -1.904275671922e-04 0.0 
-1.904275671922e-04 1.917970267075e-03 0.0 
0.0 0.0 -3.198426158856e-04 
-1.782809379457e-04 -4.378063603026e-06 0.0 
-4.378063603026e-06 7.801372807212e-04 0.0 
0.0 0.0 -1.830859565219e-04 
-1.220501464306e-03 6.316947048498e-05 0.0 
6.316947048498e-05 8.106622909265e-03 0.0 
0.0 0.0 -1.234743356787e-03 
-9.829459878545e-05 4.583948434499e-06 0.0 
4.583948434499e-06 3.276774367732e-04 0.0 
0.0 0.0 -9.830693056618e-05 
-8.022047642295e-04 -1.811997065716e-04 0.0 
-1.811997065716e-04 5.439298518069e-03 0.0 
0.0 0.0 -8.229436299569e-04 
-5.489987759976e-04 -1.133059547326e-04 0.0 
-1.133059547326e-04 3.572814356686e-03 0.0 
0.0 0.0 -5.440916476828e-04 
-3.388458973029e-04 -7.042877961868e-05 0.0 
-7.042877961868e-05 2.248035829402e-03 0.0 
0.0 0.0 -3.443810396916e-04 
-3.074157494333e-04 -1.467796149718e-04 0.0 
-1.467796149718e-04 1.814374481458e-03 0.0 
0.0 0.0 -3.047895897720e-04 
-5.421593945536e-04 1.293548672116e-04 0.0 
1.293548672116e-04 3.418474043213e-03 0.0 
0.0 0.0 -5.489460876789e-04 
-1.266579725590e-03 -7.893235167069e-06 0.0 
-7.893235167069e-06 8.468672292321e-03 0.0 
0.0 0.0 -1.282189168212e-03 
-4.597210026088e-04 -1.452187243083e-04 0.0 
-1.452187243083e-04 2.937502524048e-03 0.0 
0.0 0.0 -4.512233509908e-04 
-3.611878323951e-04 1.444175472608e-04 0.0 
1.444175472608e-04 2.127268062759e-03 0.0 
0.0 0.0 -3.694212080277e-04 
-1.088084509005e-03 1.827090950976e-04 0.0 
1.827090950976e-04 7.290496234404e-03 0.0 
0.0 0.0 -1.087734043503e-03 
-2.215722591699e-04 2.179680801208e-05 0.0 
2.179680801208e-05 1.355906413413e-03 0.0 
0.0 0.0 -2.189683579105e-04 
-1.291565119731e-03 -2.058202376931e-04 0.0 
-2.058202376931e-04 8.638287399565e-03 0.0 
0.0 0.0 -1.285320035817e-03 
-9.406322495136e-05 -1.263405609949e-04 0.0 
-1.263405609949e-04 5.178868060054e-04 0.0 
0.0 0.0 -9.532668554595e-05 
-1.207108165930e-03 2.281727388556e-04 0.0 
2.281727388556e-04 8.099161405669e-03 0.0 
0.0 0.0 -1.210824713543e-03 
-5.507253245741e-04 2.263693422713e-04 0.0 
2.263693422713e-04 3.467321570737e-03 0.0 
0.0 0.0 -5.497085007362e-04 
-2.633068753573e-04 1.211642318688e-04 0.0 
1.211642318688e-04 1.594924151360e-03 0.0 
0.0 0.0 -2.769417647402e-04 
-1.253722868311e-03 -1.824681277037e-04 0.0 
-1.824681277037e-04 8.465445333241e-03 0.0 
0.0 0.0 -1.257478522087e-03 
-5.218987792326e-04 1.045965667426e-04 0.0 
1.045965667426e-04 3.169150320614e-03 0.0 
0.0 0.0 -5.137572693775e-04 
-6.027079853017e-05 4.538885378714e-05 0.0 
4.538885378714e-05 2.053936984272e-04 0.0 
0.0 0.0 -6.219552852730e-05 
-1.264974411680e-03 -7.934823425828e-05 0.0 
-7.934823425828e-05 8.671954395754e-03 0.0 
0.0 0.0 -1.261660853087e-03 
-2.446973118894e-04 -2.103372277075e-04 0.0 
-2.103372277075e-04 1.398643057908e-03 0.0 
0.0 0.0 -2.404310120911e-04 
-1.273528016320e-03 -3.786679226458e-06 0.0 
-3.786679226458e-06 8.448618323595e-03 0.0 
0.0 0.0 -1.282376455277e-03 
-9.491469453000e-04 -1.694945758869e-04 0.0 
-1.694945758869e-04 6.388198818832e-03 0.0 
0.0 0.0 -9.556290573178e-04 
-1.338499280800e-03 -4.782411066392e-06 0.0 
-4.782411066392e-06 8.836661036334e-03 0.0 
0.0 0.0 -1.338499280800e-03 
-1.237491500558e-03 1.679725136182e-06 0.0 
1.679725136182e-06 8.119391193773e-03 0.0 
0.0 0.0 -1.232909111256e-03 
-1.306267830690e-04 2.201659246920e-04 0.0 
2.201659246920e-04 5.612930774448e-04 0.0 
0.0 0.0 -1.295286970291e-04 
-4.862904107144e-04 1.519111044422e-04 0.0 
1.519111044422e-04 2.949318680169e-03 0.0 
0.0 0.0 -4.777371989943e-04 
-1.254133957623e-03 -1.731664304592e-04 0.0 
-1.731664304592e-04 8.495066883004e-03 0.0 
0.0 0.0 -1.262626981217e-03 
-1.278966520388e-03 -5.463065947675e-06 0.0 
-5.463065947675e-06 8.716306064884e-03 0.0 
0.0 0.0 -1.265352048664e-03 
-2.500278062252e-04 -1.904083940434e-04 0.0 
-1.904083940434e-04 1.447205075698e-03 0.0 
0.0 0.0 -2.510564503189e-04 
-2.134033531635e-04 -1.202880701251e-05 0.0 
-1.202880701251e-05 1.118917748560e-03 0.0 
0.0 0.0 -2.366757893512e-04 
-2.618885880878e-04 2.000957013546e-04 0.0 
2.000957013546e-04 1.434490946595e-03 0.0 
0.0 0.0 -2.525559601288e-04 
-2.561151872774e-04 2.173251173940e-04 0.0 
2.173251173940e-04 1.315804408785e-03 0.0 
0.0 0.0 -2.439992467140e-04 
-7.756433689863e-04 3.199927864594e-05 0.0 
3.199927864594e-05 4.983308918424e-03 0.0 
0.0 0.0 -7.918363975426e-04 
-4.925212314280e-04 -9.934539810266e-05 0.0 
-9.934539810266e-05 3.122416797223e-03 0.0 
0.0 0.0 -4.749402310763e-04 
-4.545793902690e-04 2.152694959791e-05 0.0 
2.152694959791e-05 2.617959458629e-03 0.0 
0.0 0.0 -4.438329512050e-04 
-8.539707940099e-04 -2.466642961344e-04 0.0 
-2.466642961344e-04 5.506675063211e-03 0.0 
0.0 0.0 -8.336771054075e-04 
-8.435305426984e-04 2.228252034013e-04 0.0 
2.228252034013e-04 5.474459253188e-03 0.0 
0.0 0.0 -8.358076868167e-04 
-9.896151407778e-04 -1.847277247936e-04 0.0 
-1.847277247936e-04 6.561076695027e-03 0.0 
0.0 0.0 -9.867109252839e-04 
-1.055581697673e-03 1.942475256944e-04 0.0 
1.942475256944e-04 7.096214809641e-03 0.0 
0.0 0.0 -1.058576829647e-03 
-1.087556198862e-03 -2.099876550133e-04 0.0 
-2.099876550133e-04 7.325766427452e-03 0.0 
0.0 0.0 -1.085941371602e-03 
-7.938707313230e-04 -2.935700947946e-04 0.0 
-2.935700947946e-04 5.166210845136e-03 0.0 
0.0 0.0 -7.983229688164e-04 
-9.891997245648e-05 3.705985749017e-05 0.0 
3.705985749017e-05 3.315907805063e-04 0.0 
0.0 0.0 -9.971606059277e-05 
-7.885073175136e-04 2.083610238624e-05 0.0 
2.083610238624e-05 5.061448418496e-03 0.0 
0.0 0.0 -7.928983479555e-04 
-1.080416093341e-03 -1.102030882255e-04 0.0 
-1.102030882255e-04 7.033104683541e-03 0.0 
0.0 0.0 -1.069439317440e-03 
-1.045886068578e-03 1.124481538708e-04 0.0 
1.124481538708e-04 7.095766026652e-03 0.0 
0.0 0.0 -1.046447409317e-03 
-1.328437641777e-03 -2.129776585032e-05 0.0 
-2.129776585032e-05 9.108372857470e-03 0.0 
0.0 0.0 -1.319970921405e-03 
-1.300424073257e-03 -1.489012867546e-04 0.0 
-1.489012867546e-04 8.723441004214e-03 0.0 
0.0 0.0 -1.294194962782e-03 
-7.712114504191e-04 -1.098703338913e-04 0.0 
-1.098703338913e-04 4.988523523052e-03 0.0 
0.0 0.0 -7.889745663688e-04 
-1.284794183645e-03 -1.672243708690e-06 0.0 
-1.672243708690e-06 8.719527791253e-03 0.0 
0.0 0.0 -1.263183913703e-03 
-8.948346215206e-04 -1.546261929541e-04 0.0 
-1.546261929541e-04 5.902983939671e-03 0.0 
0.0 0.0 -9.040008563810e-04 
-5.152734121650e-04 -1.377156700746e-04 0.0 
-1.377156700746e-04 3.387112186572e-03 0.0 
0.0 0.0 -5.198799001330e-04 
-7.537468891923e-04 -1.811454266392e-04 0.0 
-1.811454266392e-04 5.032849217033e-03 0.0 
0.0 0.0 -7.643292725052e-04 
-1.300051982580e-03 1.933815268577e-04 0.0 
1.933815268577e-04 8.643096299671e-03 0.0 
0.0 0.0 -1.287517816355e-03 
-1.042138929644e-03 -2.218801567962e-04 0.0 
-2.218801567962e-04 6.995297199161e-03 0.0 
0.0 0.0 -1.043751955586e-03 
-1.212978672895e-03 -2.149778667109e-04 0.0 
-2.149778667109e-04 8.151603330808e-03 0.0 
0.0 0.0 -1.209599240962e-03 
-4.772009659134e-04 -2.042000113292e-04 0.0 
-2.042000113292e-04 3.047489558792e-03 0.0 
0.0 0.0 -4.747543016519e-04 
-1.600906628411e-04 5.774618246658e-05 0.0 
5.774618246658e-05 1.025327310925e-03 0.0 
0.0 0.0 -1.624897275554e-04 
-1.185986913304e-03 -1.994673824885e-04 0.0 
-1.994673824885e-04 7.973913807476e-03 0.0 
0.0 0.0 -1.189902873528e-03 
-1.119764034804e-03 7.291963016832e-05 0.0 
7.291963016832e-05 7.561876066394e-03 0.0 
0.0 0.0 -1.108790581071e-03 
-1.060815689674e-04 -4.441233851545e-05 0.0 
-4.441233851545e-05 6.067820639570e-04 0.0 
0.0 0.0 -1.038131581323e-04 
-1.254593141611e-03 -8.600335574532e-05 0.0 
-8.600335574532e-05 8.491952788715e-03 0.0 
0.0 0.0 -1.285127980003e-03 
-1.054610615232e-03 1.830679382237e-04 0.0 
1.830679382237e-04 6.961937164299e-03 0.0 
0.0 0.0 -1.051491716222e-03 
-1.014932494026e-04 -1.696691582667e-04 0.0 
-1.696691582667e-04 3.826202340035e-04 0.0 
0.0 0.0 -1.013520483084e-04 
-6.301709070232e-04 2.090314443316e-04 0.0 
2.090314443316e-04 4.024350450833e-03 0.0 
0.0 0.0 -6.309931931857e-04 
-7.106440805022e-04 -1.470402379688e-04 0.0 
-1.470402379688e-04 4.709551499753e-03 0.0 
0.0 0.0 -7.153918394734e-04 
-5.826588176687e-04 -7.135686322053e-05 0.0 
-7.135686322053e-05 3.565625895428e-03 0.0 
0.0 0.0 -5.772375537024e-04 
-4.700128970004e-04 1.674991601261e-04 0.0 
1.674991601261e-04 2.986365482112e-03 0.0 
0.0 0.0 -4.852398935310e-04 
-5.464898507642e-04 -2.243214163867e-04 0.0 
-2.243214163867e-04 3.519571152392e-03 0.0 
0.0 0.0 -5.471823052058e-04 
-1.295684493703e-03 1.105875109316e-04 0.0 
1.105875109316e-04 8.547279304038e-03 0.0 
0.0 0.0 -1.283833066805e-03 
-8.570047827625e-04 1.861607891453e-04 0.0 
1.861607891453e-04 5.815261551137e-03 0.0 
0.0 0.0 -8.766975940251e-04 
-5.090056138741e-04 2.359482171435e-04 0.0 
2.359482171435e-04 3.233178911117e-03 0.0 
0.0 0.0 -5.122473358773e-04 
-2.401563577846e-04 -2.327182583628e-04 0.0 
-2.327182583628e-04 1.352155075276e-03 0.0 
0.0 0.0 -2.295267891405e-04 
-7.623542819020e-04 1.283036037402e-04 0.0 
1.283036037402e-04 5.225810972112e-03 0.0 
0.0 0.0 -7.744920945421e-04 
-1.103870852233e-03 -9.179179606005e-05 0.0 
-9.179179606005e-05 7.387674560017e-03 0.0 
0.0 0.0 -1.129288753466e-03 
-5.110192863143e-04 -2.509386708551e-04 0.0 
-2.509386708551e-04 3.262724462356e-03 0.0 
0.0 0.0 -5.109724225979e-04 
-1.701414425471e-04 -1.534722166073e-04 0.0 
-1.534722166073e-04 9.835208087659e-04 0.0 
0.0 0.0 -1.803716510945e-04 
-6.470086521654e-04 -1.523090755330e-04 0.0 
-1.523090755330e-04 4.254329431163e-03 0.0 
0.0 0.0 -6.470401313398e-04 
-5.812575166427e-04 7.210416783757e-05 0.0 
7.210416783757e-05 3.739643384109e-03 0.0 
0.0 0.0 -5.578851714504e-04 
-6.125337073479e-04 1.558115274757e-04 0.0 
1.558115274757e-04 3.923971555451e-03 0.0 
0.0 0.0 -6.167189930164e-04 
-1.291653437089e-03 1.656662026679e-04 0.0 
1.656662026679e-04 8.654933890924e-03 0.0 
0.0 0.0 -1.290671971449e-03 
-2.237296866695e-04 1.772304597236e-04 0.0 
1.772304597236e-04 1.151710267161e-03 0.0 
0.0 0.0 -2.092271396208e-04 
-9.141643905242e-04 1.684200684003e-04 0.0 
1.684200684003e-04 6.033430644026e-03 0.0 
0.0 0.0 -9.216843799351e-04 
-1.271942419784e-03 2.295590735455e-04 0.0 
2.295590735455e-04 8.471227576744e-03 0.0 
0.0 0.0 -1.256690274141e-03 
-6.609256603744e-04 1.763317732060e-04 0.0 
1.763317732060e-04 4.239720102404e-03 0.0 
0.0 0.0 -6.588732905211e-04 
-6.147586220519e-04 -1.550456399962e-04 0.0 
-1.550456399962e-04 4.029116054442e-03 0.0 
0.0 0.0 -6.139229799761e-04 
-1.241743830704e-03 2.520731219919e-04 0.0 
2.520731219919e-04 8.466488124430e-03 0.0 
0.0 0.0 -1.254964138299e-03 
-1.256064603940e-03 -2.623116581344e-04 0.0 
-2.623116581344e-04 8.488036362469e-03 0.0 
0.0 0.0 -1.261070974318e-03 
-9.903209289541e-04 1.774668260034e-04 0.0 
1.774668260034e-04 6.556735258886e-03 0.0 
0.0 0.0 -9.873713238705e-04 
-6.942353831373e-04 -1.750200192603e-04 0.0 
-1.750200192603e-04 4.553149239605e-03 0.0 
0.0 0.0 -6.916138708610e-04 
-1.272024970549e-03 7.302822811058e-05 0.0 
7.302822811058e-05 8.719688557752e-03 0.0 
0.0 0.0 -1.270330610962e-03 
-6.345922402826e-04 1.791748683913e-04 0.0 
1.791748683913e-04 4.059488016013e-03 0.0 
0.0 0.0 -6.326048069937e-04 
-1.254086704545e-03 -7.990901772509e-06 0.0 
-7.990901772509e-06 8.463054394801e-03 0.0 
0.0 0.0 -1.283174495648e-03 
-1.276280299661e-03 7.633372817423e-05 0.0 
7.633372817423e-05 8.703927362015e-03 0.0 
0.0 0.0 -1.267437373369e-03 
-8.565153591280e-04 -2.695301549172e-04 0.0 
-2.695301549172e-04 5.568894745570e-03 0.0 
0.0 0.0 -8.543707170918e-04 
-9.713226980400e-04 1.946342578752e-04 0.0 
1.946342578752e-04 6.532485670191e-03 0.0 
0.0 0.0 -9.817831382938e-04 
-6.315283379598e-04 -1.826998149001e-04 0.0 
-1.826998149001e-04 4.113094555246e-03 0.0 
0.0 0.0 -6.293189184696e-04 
-5.902450977429e-04 1.623031646131e-04 0.0 
1.623031646131e-04 3.689468477665e-03 0.0 
0.0 0.0 -5.830241378053e-04 
-7.249782629771e-04 1.809288523893e-04 0.0 
1.809288523893e-04 4.673091201127e-03 0.0 
0.0 0.0 -7.211932326589e-04 
-5.403888112139e-04 -1.689543050934e-04 0.0 
-1.689543050934e-04 3.513114326182e-03 0.0 
0.0 0.0 -5.383041810906e-04 
-7.661110268238e-04 -1.968496736507e-04 0.0 
-1.968496736507e-04 5.166653984338e-03 0.0 
0.0 0.0 -7.693993191400e-04 
-6.294182824657e-04 -2.163757471591e-04 0.0 
-2.163757471591e-04 4.099286379753e-03 0.0 
0.0 0.0 -6.275039421266e-04 
-9.046107145188e-05 -7.326081393839e-05 0.0 
-7.326081393839e-05 3.093039216748e-04 0.0 
0.0 0.0 -9.378979295270e-05 
-8.218888591145e-04 -1.362265050326e-05 0.0 
-1.362265050326e-05 5.568518320124e-03 0.0 
0.0 0.0 -8.171079392438e-04 
-2.708662158631e-04 3.135426371168e-06 0.0 
3.135426371168e-06 1.198400692882e-03 0.0 
0.0 0.0 -2.373169254524e-04 
-6.825469564227e-04 -1.538944897682e-04 0.0 
-1.538944897682e-04 4.493577698030e-03 0.0 
0.0 0.0 -6.809683978454e-04 
-1.266750237588e-03 4.200148413725e-06 0.0 
4.200148413725e-06 8.473073137795e-03 0.0 
0.0 0.0 -1.284796145094e-03 
-4.841925383156e-04 2.284371901658e-04 0.0 
2.284371901658e-04 3.002882293729e-03 0.0 
0.0 0.0 -4.767992880414e-04 
-1.020870051269e-03 2.043993854783e-04 0.0 
2.043993854783e-04 6.818231983257e-03 0.0 
0.0 0.0 -1.021089721936e-03 
-3.490407114895e-04 -2.220876940666e-04 0.0 
-2.220876940666e-04 2.148206482994e-03 0.0 
0.0 0.0 -3.540742325023e-04 
-1.043282338519e-03 2.368159947987e-04 0.0 
2.368159947987e-04 6.958410863996e-03 0.0 
0.0 0.0 -1.044905595188e-03 
-8.013630412540e-04 6.389824081856e-06 0.0 
6.389824081856e-06 5.002686662292e-03 0.0 
0.0 0.0 -7.899655494116e-04 
-5.947683694498e-04 2.081256616156e-04 0.0 
2.081256616156e-04 3.787155443009e-03 0.0 
0.0 0.0 -5.931463391684e-04 
-1.121794229525e-03 -2.159685184143e-04 0.0 
-2.159685184143e-04 7.508906289541e-03 0.0 
0.0 0.0 -1.120963572432e-03 
-2.180914166738e-04 1.756512204206e-04 0.0 
1.756512204206e-04 1.241780399830e-03 0.0 
0.0 0.0 -2.346376350630e-04 
-1.178651579784e-03 2.200776692921e-04 0.0 
2.200776692921e-04 7.962810812677e-03 0.0 
0.0 0.0 -1.189111243166e-03 
-7.770557330009e-04 1.799043213504e-04 0.0 
1.799043213504e-04 5.036915018676e-03 0.0 
0.0 0.0 -7.711223959738e-04 
-1.280064085681e-03 1.291641233303e-05 0.0 
1.291641233303e-05 8.715123744243e-03 0.0 
0.0 0.0 -1.265987209193e-03 
-7.886647595985e-04 2.426638412845e-05 0.0 
2.426638412845e-05 5.002569468986e-03 0.0 
0.0 0.0 -7.842605076999e-04 
-5.085061027866e-04 1.624719349288e-04 0.0 
1.624719349288e-04 3.132188298831e-03 0.0 
0.0 0.0 -5.042822341261e-04 
-6.680122214844e-04 1.543414038777e-04 0.0 
1.543414038777e-04 4.389762745766e-03 0.0 
0.0 0.0 -6.840799553763e-04 
-9.007934225225e-04 -1.247506640907e-04 0.0 
-1.247506640907e-04 5.946782140169e-03 0.0 
0.0 0.0 -8.722824885218e-04 
-3.656654935953e-04 2.470171187882e-04 0.0 
2.470171187882e-04 2.250740956869e-03 0.0 
0.0 0.0 -3.514598124168e-04 
-5.924594186081e-04 -2.113287385343e-04 0.0 
-2.113287385343e-04 3.843594924053e-03 0.0 
0.0 0.0 -5.911455407098e-04 
-1.021044424836e-03 -2.319523584093e-04 0.0 
-2.319523584093e-04 6.800629387681e-03 0.0 
0.0 0.0 -1.016465148841e-03 
-7.832948860764e-04 1.542506256291e-04 0.0 
1.542506256291e-04 5.221219062028e-03 0.0 
0.0 0.0 -7.680022369673e-04 
-5.676669992827e-04 1.711896275723e-04 0.0 
1.711896275723e-04 3.564089172862e-03 0.0 
0.0 0.0 -5.666226778950e-04 
-6.536822883720e-04 1.457424227352e-04 0.0 
1.457424227352e-04 4.156474681676e-03 0.0 
0.0 0.0 -6.498546761489e-04 
-1.132270982308e-03 2.069255922966e-04 0.0 
2.069255922966e-04 7.587995835191e-03 0.0 
0.0 0.0 -1.136725521675e-03 
-6.243703934397e-04 -5.657386080576e-05 0.0 
-5.657386080576e-05 4.179915537147e-03 0.0 
0.0 0.0 -6.189190723244e-04 
-1.269582323065e-03 5.358509534069e-05 0.0 
5.358509534069e-05 8.454036067307e-03 0.0 
0.0 0.0 -1.285202198870e-03 
-1.273584082277e-03 -3.447672338952e-05 0.0 
-3.447672338952e-05 8.706627272042e-03 0.0 
0.0 0.0 -1.265486236287e-03 
-4.574522532321e-04 -1.366919469267e-04 0.0 
-1.366919469267e-04 2.968706494426e-03 0.0 
0.0 0.0 -4.595713030950e-04 
-6.193411254739e-04 7.190453835515e-05 0.0 
7.190453835515e-05 3.976368456989e-03 0.0 
0.0 0.0 -6.385407451345e-04 
-1.157661612575e-03 -1.951807319381e-04 0.0 
-1.951807319381e-04 7.743964299132e-03 0.0 
0.0 0.0 -1.152822474774e-03 
-6.058642039217e-04 -1.568622492918e-04 0.0 
-1.568622492918e-04 3.943482715706e-03 0.0 
0.0 0.0 -6.037256927378e-04 
-4.410111678775e-04 1.646945023678e-04 0.0 
1.646945023678e-04 2.528625053889e-03 0.0 
0.0 0.0 -4.251746348339e-04 
-7.492101616993e-04 1.773144067430e-04 0.0 
1.773144067430e-04 4.849787455535e-03 0.0 
0.0 0.0 -7.443430781256e-04 
-6.015846242072e-04 -1.692904042825e-04 0.0 
-1.692904042825e-04 3.951833046067e-03 0.0 
0.0 0.0 -6.011186688906e-04 
-1.288763796550e-03 1.231833412492e-04 0.0 
1.231833412492e-04 8.478545606423e-03 0.0 
0.0 0.0 -1.279059907835e-03 
-1.060544670799e-03 1.938342500095e-04 0.0 
1.938342500095e-04 7.027045279308e-03 0.0 
0.0 0.0 -1.060691896764e-03 
-1.152244772895e-03 2.285095076535e-04 0.0 
2.285095076535e-04 7.745399107629e-03 0.0 
0.0 0.0 -1.155968210243e-03 
-2.882194771885e-04 -2.173510090809e-04 0.0 
-2.173510090809e-04 1.694759427097e-03 0.0 
0.0 0.0 -2.852154713500e-04 
-5.567709701176e-04 -1.966656427986e-04 0.0 
-1.966656427986e-04 3.599381630168e-03 0.0 
0.0 0.0 -5.558335581882e-04 
-1.085941057106e-03 1.940613560135e-04 0.0 
1.940613560135e-04 7.224719901000e-03 0.0 
0.0 0.0 -1.089453766084e-03 
-2.843827826560e-05 -1.788898447614e-05 0.0 
-1.788898447614e-05 1.853186358372e-04 0.0 
0.0 0.0 -4.453055683374e-05 
-6.135292459430e-04 1.555358498214e-04 0.0 
1.555358498214e-04 3.889243112960e-03 0.0 
0.0 0.0 -6.073871274648e-04 
-1.080867878280e-03 -2.316454551773e-04 0.0 
-2.316454551773e-04 7.249333231753e-03 0.0 
0.0 0.0 -1.080675545910e-03 
-1.764831160191e-04 -8.217578917015e-05 0.0 
-8.217578917015e-05 1.019550636912e-03 0.0 
0.0 0.0 -1.605608400042e-04 
-1.238595889810e-03 2.354517143286e-04 0.0 
2.354517143286e-04 8.471121261651e-03 0.0 
0.0 0.0 -1.257517519450e-03 
-9.713207705103e-04 1.946323764392e-04 0.0 
1.946323764392e-04 6.442137433534e-03 0.0 
0.0 0.0 -9.749624431058e-04 
-5.981973631964e-04 1.879071448913e-04 0.0 
1.879071448913e-04 3.813329018576e-03 0.0 
0.0 0.0 -5.995223474422e-04 
-1.084348145166e-03 2.392214872560e-04 0.0 
2.392214872560e-04 7.212887026288e-03 0.0 
0.0 0.0 -1.082135573042e-03 
-8.219004318722e-04 -1.022855745570e-05 0.0 
-1.022855745570e-05 5.626191621956e-03 0.0 
0.0 0.0 -8.259898420369e-04 
-8.600931526372e-04 -1.614882484442e-04 0.0 
-1.614882484442e-04 5.932770930688e-03 0.0 
0.0 0.0 -8.838609275114e-04 
-1.235110349403e-03 -1.423085779250e-04 0.0 
-1.423085779250e-04 8.282740067778e-03 0.0 
0.0 0.0 -1.237791025003e-03 
-4.556209105529e-04 2.036420794211e-04 0.0 
2.036420794211e-04 2.823352627341e-03 0.0 
0.0 0.0 -4.583583101839e-04 
-7.508195319224e-04 1.853886358928e-04 0.0 
1.853886358928e-04 4.860963236206e-03 0.0 
0.0 0.0 -7.480401524272e-04 
-8.027906713221e-04 1.764875410810e-04 0.0 
1.764875410810e-04 5.221920557136e-03 0.0 
0.0 0.0 -7.988399675000e-04 
-1.007530328557e-03 -1.922336022122e-04 0.0 
-1.922336022122e-04 6.759039767951e-03 0.0 
0.0 0.0 -1.008548823165e-03 
-8.112396533280e-04 -1.820827880749e-04 0.0 
-1.820827880749e-04 5.334789694812e-03 0.0 
0.0 0.0 -8.035999206669e-04 
-7.424823838501e-04 -1.611951191526e-04 0.0 
-1.611951191526e-04 4.887914283700e-03 0.0 
0.0 0.0 -7.415510827328e-04 
-9.420049562243e-04 -1.980186569884e-04 0.0 
-1.980186569884e-04 6.275886053793e-03 0.0 
0.0 0.0 -9.414312740916e-04 
-1.106765657790e-03 -2.072912274522e-04 0.0 
-2.072912274522e-04 7.417848919971e-03 0.0 
0.0 0.0 -1.105110859848e-03 
-8.771550322174e-05 -5.128346968192e-06 0.0 
-5.128346968192e-06 5.622743997178e-04 0.0 
0.0 0.0 -1.015871403443e-04 
-4.452411510459e-04 1.078521059611e-04 0.0 
1.078521059611e-04 2.907946245103e-03 0.0 
0.0 0.0 -4.649757541953e-04 
-5.301149448616e-04 1.855290027466e-04 0.0 
1.855290027466e-04 3.290005967673e-03 0.0 
0.0 0.0 -5.249394872960e-04 
-7.215069587739e-04 -1.794285911688e-04 0.0 
-1.794285911688e-04 4.739905292165e-03 0.0 
0.0 0.0 -7.181710532390e-04 
-1.095309768585e-03 -2.099324022586e-04 0.0 
-2.099324022586e-04 7.373113916822e-03 0.0 
0.0 0.0 -1.095076276885e-03 
-2.412241836646e-04 1.824271338482e-04 0.0 
1.824271338482e-04 1.391269291466e-03 0.0 
0.0 0.0 -2.576475407671e-04 
-1.042666947128e-03 -2.211661748355e-04 0.0 
-2.211661748355e-04 6.991049176526e-03 0.0 
0.0 0.0 -1.043355442177e-03 
-7.709980970027e-04 -2.344526007543e-04 0.0 
-2.344526007543e-04 5.001364750652e-03 0.0 
0.0 0.0 -7.763349569542e-04 
-5.598484848317e-04 1.964216387432e-04 0.0 
1.964216387432e-04 3.545883977613e-03 0.0 
0.0 0.0 -5.576783925304e-04 
-1.005904581142e-03 -2.103129090371e-04 0.0 
-2.103129090371e-04 6.739916943409e-03 0.0 
0.0 0.0 -1.006238978475e-03 
-1.328137378895e-04 -1.926409820627e-04 0.0 
-1.926409820627e-04 5.524811366157e-04 0.0 
0.0 0.0 -1.250635456846e-04 
-1.037748486931e-03 2.025826416298e-04 0.0 
2.025826416298e-04 6.894254509779e-03 0.0 
0.0 0.0 -1.040010908530e-03 
-9.586550230840e-05 6.862947183813e-05 0.0 
6.862947183813e-05 5.313753155375e-04 0.0 
0.0 0.0 -1.007187892234e-04 
-1.713724236673e-04 -5.327399001740e-06 0.0 
-5.327399001740e-06 7.517172537926e-04 0.0 
0.0 0.0 -1.819418517600e-04 
-2.796122854916e-04 2.316565417801e-04 0.0 
2.316565417801e-04 1.675994704223e-03 0.0 
0.0 0.0 -2.873666149908e-04 
-3.926605428350e-04 1.733428287043e-04 0.0 
1.733428287043e-04 2.352552718651e-03 0.0 
0.0 0.0 -3.935955730116e-04 
-1.073504857728e-03 -1.857694457952e-04 0.0 
-1.857694457952e-04 7.207934761623e-03 0.0 
0.0 0.0 -1.073797489760e-03 
-3.651136453237e-04 -1.928839212764e-04 0.0 
-1.928839212764e-04 2.293609592088e-03 0.0 
0.0 0.0 -3.637595386041e-04 
-3.442210319021e-04 1.764997975595e-04 0.0 
1.764997975595e-04 2.032847714738e-03 0.0 
0.0 0.0 -3.432832105208e-04 
-2.910729329918e-04 -1.809308260193e-04 0.0 
-1.809308260193e-04 1.763076573158e-03 0.0 
0.0 0.0 -2.922710279673e-04 
-2.622356291375e-04 1.892606687832e-04 0.0 
1.892606687832e-04 1.448318780246e-03 0.0 
0.0 0.0 -2.614315927221e-04 
-1.120397219207e-03 1.996859117335e-04 0.0 
1.996859117335e-04 7.447331785752e-03 0.0 
0.0 0.0 -1.117524173959e-03 
-7.717946648580e-04 -1.881039575464e-04 0.0 
-1.881039575464e-04 5.076611576995e-03 0.0 
0.0 0.0 -7.687972329812e-04 
-1.256202704630e-03 2.478526914498e-04 0.0 
2.478526914498e-04 8.487594918351e-03 0.0 
0.0 0.0 -1.256743614961e-03 
0.0 0.0 0.0 
0.0 0.0 0.0 
0.0 0.0 0.0 
-4.048716956913e-04 1.853052298050e-04 0.0 
1.853052298050e-04 2.461420572415e-03 0.0 
0.0 0.0 -4.044045206172e-04 
-6.239445424560e-04 2.046361178611e-04 0.0 
2.046361178611e-04 3.992995746549e-03 0.0 
0.0 0.0 -6.230907113744e-04 
-5.740868944919e-04 1.850315981272e-04 0.0 
1.850315981272e-04 3.613473978480e-03 0.0 
0.0 0.0 -5.709397776106e-04 
-1.047068133195e-03 2.230470659994e-04 0.0 
2.230470659994e-04 6.949500072304e-03 0.0 
0.0 0.0 -1.045235091131e-03 
-1.285400109254e-03 1.957478292084e-04 0.0 
1.957478292084e-04 8.698618921316e-03 0.0 
0.0 0.0 -1.275930989368e-03 
-1.029713153133e-03 -2.056143237118e-04 0.0 
-2.056143237118e-04 6.913851891301e-03 0.0 
0.0 0.0 -1.029499106509e-03 
-4.579566149125e-04 -1.884217374257e-04 0.0 
-1.884217374257e-04 2.912212194121e-03 0.0 
0.0 0.0 -4.564841486881e-04 
-1.120831572504e-03 -1.912348279818e-04 0.0 
-1.912348279818e-04 7.467678576310e-03 0.0 
0.0 0.0 -1.116166892424e-03 
-9.572670568062e-04 2.571263954151e-04 0.0 
2.571263954151e-04 6.316374419588e-03 0.0 
0.0 0.0 -9.512440159151e-04 
-7.570218913511e-04 -1.787629418728e-04 0.0 
-1.787629418728e-04 4.987297939344e-03 0.0 
0.0 0.0 -7.537083776970e-04 
-9.994998658216e-04 2.045048337302e-04 0.0 
2.045048337302e-04 6.629510214408e-03 0.0 
0.0 0.0 -1.003200534345e-03 
-1.242505065463e-03 -1.591232809489e-04 0.0 
-1.591232809489e-04 8.294319035880e-03 0.0 
0.0 0.0 -1.239730878702e-03 
-6.222328359965e-04 -2.058351298643e-04 0.0 
-2.058351298643e-04 4.057741749781e-03 0.0 
0.0 0.0 -6.206208101913e-04 
-3.761575650769e-04 -1.711217870112e-04 0.0 
-1.711217870112e-04 2.346047162404e-03 0.0 
0.0 0.0 -3.752687577596e-04 
-8.718273414275e-04 -1.903070125199e-04 0.0 
-1.903070125199e-04 5.767456116596e-03 0.0 
0.0 0.0 -8.662621843288e-04 
-1.329807574370e-03 9.926374614624e-05 0.0 
9.926374614624e-05 9.094631735092e-03 0.0 
0.0 0.0 -1.323568725688e-03 
-7.473763321356e-04 -1.878290917317e-04 0.0 
-1.878290917317e-04 4.922460573442e-03 0.0 
0.0 0.0 -7.453270327203e-04 
-7.780710127091e-04 -1.914920916378e-04 0.0 
-1.914920916378e-04 5.142441463468e-03 0.0 
0.0 0.0 -7.768443034385e-04 
-8.403853568470e-04 -5.224028630894e-05 0.0 
-5.224028630894e-05 5.665674692091e-03 0.0 
0.0 0.0 -8.293613651800e-04 
-2.119957057011e-04 -1.175361575481e-04 0.0 
-1.175361575481e-04 1.307524346165e-03 0.0 
0.0 0.0 -2.161141481901e-04 
-8.208799096498e-04 1.843133829192e-04 0.0 
1.843133829192e-04 5.271529166893e-03 0.0 
0.0 0.0 -8.060563724883e-04 
-4.603670611930e-04 1.877974414593e-04 0.0 
1.877974414593e-04 2.847786037855e-03 0.0 
0.0 0.0 -4.590591740919e-04 
-3.265147701176e-04 1.754702989644e-04 0.0 
1.754702989644e-04 1.892353118097e-03 0.0 
0.0 0.0 -3.229397045850e-04 
-2.372523115321e-04 -1.920097841935e-04 0.0 
-1.920097841935e-04 1.297568945568e-03 0.0 
0.0 0.0 -2.426597671045e-04 
-1.076566808285e-03 1.948027566312e-04 0.0 
1.948027566312e-04 7.152792080089e-03 0.0 
0.0 0.0 -1.075985979751e-03 
-8.366892688468e-04 -1.821112197860e-04 0.0 
-1.821112197860e-04 5.525859000099e-03 0.0 
0.0 0.0 -8.312490730234e-04 
-5.408471440859e-04 1.787636598149e-04 0.0 
1.787636598149e-04 3.420100638870e-03 0.0 
0.0 0.0 -5.429493831729e-04 
-1.110558394075e-03 -1.920281890811e-04 0.0 
-1.920281890811e-04 7.461731149687e-03 0.0 
0.0 0.0 -1.109763131677e-03 
-1.054698518121e-03 -2.087025362573e-04 0.0 
-2.087025362573e-04 7.108835153234e-03 0.0 
0.0 0.0 -1.057773507355e-03 
-7.924197653506e-04 -1.785979394266e-04 0.0 
-1.785979394266e-04 5.231483760846e-03 0.0 
0.0 0.0 -7.887050335656e-04 
-1.257903229921e-03 7.567368571964e-05 0.0 
7.567368571964e-05 8.498216080292e-03 0.0 
0.0 0.0 -1.288412101370e-03 
-8.091181034430e-04 1.931976365146e-04 0.0 
1.931976365146e-04 5.284760522789e-03 0.0 
0.0 0.0 -8.078958932737e-04 
-8.263277637736e-04 -1.832084157210e-04 0.0 
-1.832084157210e-04 5.471677470530e-03 0.0 
0.0 0.0 -8.238265297874e-04 
-6.650106902351e-04 -1.791010150322e-04 0.0 
-1.791010150322e-04 4.378261468460e-03 0.0 
0.0 0.0 -6.656476441012e-04 
-8.423857986255e-04 -1.986818351390e-04 0.0 
-1.986818351390e-04 5.587318921638e-03 0.0 
0.0 0.0 -8.413031780454e-04 
-3.899474951329e-04 1.915304819262e-04 0.0 
1.915304819262e-04 2.337472328750e-03 0.0 
0.0 0.0 -3.865807678710e-04 
-8.089876515703e-04 4.490290024569e-05 0.0 
4.490290024569e-05 5.014601975749e-03 0.0 
0.0 0.0 -7.898058234521e-04 
-6.502027287348e-04 -1.918500009786e-04 0.0 
-1.918500009786e-04 4.255074906530e-03 0.0 
0.0 0.0 -6.486359607860e-04 
-4.676332506753e-04 -1.907969004762e-04 0.0 
-1.907969004762e-04 2.994133619140e-03 0.0 
0.0 0.0 -4.681053320140e-04 
-1.032293230965e-03 1.946996800783e-04 0.0 
1.946996800783e-04 6.836459352288e-03 0.0 
0.0 0.0 -1.032318248600e-03 
-4.933492965949e-05 -2.981330854880e-05 0.0 
-2.981330854880e-05 2.232237160484e-04 0.0 
0.0 0.0 -4.491607815645e-05 
-8.460396934351e-04 -1.994951239521e-04 0.0 
-1.994951239521e-04 5.571843201912e-03 0.0 
0.0 0.0 -8.386390795737e-04 
-4.884576987714e-04 1.904916551126e-04 0.0 
1.904916551126e-04 3.043938579203e-03 0.0 
0.0 0.0 -4.870240021111e-04 
-4.011070509712e-04 -1.789938708172e-04 0.0 
-1.789938708172e-04 2.527031405991e-03 0.0 
0.0 0.0 -4.015254440178e-04 
-3.881231226590e-04 -1.849728275912e-04 0.0 
-1.849728275912e-04 2.413136850469e-03 0.0 
0.0 0.0 -3.834586606452e-04 
-9.010939454830e-04 1.820631251065e-04 0.0 
1.820631251065e-04 5.900115668490e-03 0.0 
0.0 0.0 -8.965110541436e-04 
-1.535639171870e-04 -1.171137565838e-04 0.0 
-1.171137565838e-04 9.290832055632e-04 0.0 
0.0 0.0 -1.609926926485e-04 
-5.642000446768e-04 1.829010286562e-04 0.0 
1.829010286562e-04 3.554613982315e-03 0.0 
0.0 0.0 -5.613503766092e-04 
-8.738800955345e-04 1.908997098881e-04 0.0 
1.908997098881e-04 5.736495439307e-03 0.0 
0.0 0.0 -8.726802719924e-04 
-8.424168210172e-04 1.809379834970e-04 0.0 
1.809379834970e-04 5.460364861261e-03 0.0 
0.0 0.0 -8.336838631977e-04 
-8.483140592107e-04 -2.570000340280e-05 0.0 
-2.570000340280e-05 5.646419876325e-03 0.0 
0.0 0.0 -8.301023967811e-04 
-2.301022018194e-04 1.896537110150e-04 0.0 
1.896537110150e-04 1.205962353600e-03 0.0 
0.0 0.0 -2.187087652219e-04 
-4.708793642351e-04 1.959468275412e-04 0.0 
1.959468275412e-04 2.928096743676e-03 0.0 
0.0 0.0 -4.706942212664e-04 
-4.339228685620e-04 -2.028732675090e-04 0.0 
-2.028732675090e-04 2.736979889631e-03 0.0 
0.0 0.0 -4.311372127493e-04 
-4.979504220915e-04 -1.685324817791e-04 0.0 
-1.685324817791e-04 3.206245351086e-03 0.0 
0.0 0.0 -4.957039317942e-04 
-1.001539925556e-03 -2.124102205074e-04 0.0 
-2.124102205074e-04 6.704131800771e-03 0.0 
0.0 0.0 -1.000663671924e-03 
-5.607402459633e-04 -1.707949003296e-04 0.0 
-1.707949003296e-04 3.631087283813e-03 0.0 
0.0 0.0 -5.577786207633e-04 
-6.163072057110e-04 1.894419522333e-04 0.0 
1.894419522333e-04 3.933506140839e-03 0.0 
0.0 0.0 -6.151539951222e-04 
-5.883906607910e-04 1.932241182488e-04 0.0 
1.932241182488e-04 3.740119885148e-03 0.0 
0.0 0.0 -5.868308051845e-04 
-2.691521273047e-04 -2.036688762201e-04 0.0 
-2.036688762201e-04 1.523725894567e-03 0.0 
0.0 0.0 -2.530049833111e-04 
-6.958714508921e-04 1.979801814588e-04 0.0 
1.979801814588e-04 4.490850522134e-03 0.0 
0.0 0.0 -6.959382511914e-04 
-2.861043400586e-04 -1.894415141014e-04 0.0 
-1.894415141014e-04 1.663430798726e-03 0.0 
0.0 0.0 -2.788248838327e-04 
-1.306755613337e-03 -2.610599304158e-06 0.0 
-2.610599304158e-06 9.100164486650e-03 0.0 
0.0 0.0 -1.321446319728e-03 
-1.339174511630e-03 -2.960517267119e-05 0.0 
-2.960517267119e-05 9.091242340448e-03 0.0 
0.0 0.0 -1.318029376683e-03 
-7.775136936643e-04 1.870350143581e-04 0.0 
1.870350143581e-04 5.054396183358e-03 0.0 
0.0 0.0 -7.755312068111e-04 
-4.251819947504e-04 1.895457374981e-04 0.0 
1.895457374981e-04 2.596133538266e-03 0.0 
0.0 0.0 -4.232985079168e-04 
-3.648329347482e-04 -1.837358985601e-04 0.0 
-1.837358985601e-04 2.280199425849e-03 0.0 
0.0 0.0 -3.659709354871e-04 
-8.573750887322e-04 1.858228230961e-04 0.0 
1.858228230961e-04 5.602884265534e-03 0.0 
0.0 0.0 -8.539191708180e-04 
-3.949528212466e-04 -1.886728582840e-04 0.0 
-1.886728582840e-04 2.475291397225e-03 0.0 
0.0 0.0 -3.930530440640e-04 
-4.332493895502e-04 1.980298907227e-04 0.0 
1.980298907227e-04 2.665937605433e-03 0.0 
0.0 0.0 -4.339875075689e-04 
-7.596321613464e-04 1.775287963431e-04 0.0 
1.775287963431e-04 4.918201734153e-03 0.0 
0.0 0.0 -7.563811545761e-04 
-1.287984799363e-03 -3.860068533034e-05 0.0 
-3.860068533034e-05 8.730948327736e-03 0.0 
0.0 0.0 -1.266640259566e-03 
-5.240495846064e-04 1.944963688322e-04 0.0 
1.944963688322e-04 3.293655739787e-03 0.0 
0.0 0.0 -5.226246958029e-04 
-9.447998235248e-04 1.960929665842e-04 0.0 
1.960929665842e-04 6.232881478096e-03 0.0 
0.0 0.0 -9.428115367422e-04 
-3.107562741713e-04 1.824587312734e-04 0.0 
1.824587312734e-04 1.780558679157e-03 0.0 
0.0 0.0 -3.076624342134e-04 
-1.311994729519e-03 7.493212939930e-06 0.0 
7.493212939930e-06 9.101970930917e-03 0.0 
0.0 0.0 -1.322863172658e-03 
-3.967767638388e-04 1.868417767076e-04 0.0 
1.868417767076e-04 2.404071077719e-03 0.0 
0.0 0.0 -3.959736908235e-04 
-7.861913752228e-04 1.858440032300e-04 0.0 
1.858440032300e-04 5.109311146391e-03 0.0 
0.0 0.0 -7.835188407615e-04 
-2.939612478103e-04 2.069489564745e-04 0.0 
2.069489564745e-04 1.627899719100e-03 0.0 
0.0 0.0 -2.855287480241e-04 
-9.209672284179e-04 1.890725882863e-04 0.0 
1.890725882863e-04 6.061382275032e-03 0.0 
0.0 0.0 -9.211625808215e-04 
-6.527425537756e-04 1.919833722786e-04 0.0 
1.919833722786e-04 4.182126969127e-03 0.0 
0.0 0.0 -6.516619296807e-04 
-4.643737788932e-04 1.911497819079e-04 0.0 
1.911497819079e-04 2.873282577301e-03 0.0 
0.0 0.0 -4.625367401933e-04 
-8.005133107045e-04 -1.849372706410e-04 0.0 
-1.849372706410e-04 5.279390117932e-03 0.0 
0.0 0.0 -7.963903837170e-04 
-1.325618080026e-03 -1.973193103071e-05 0.0 
-1.973193103071e-05 9.091764273344e-03 0.0 
0.0 0.0 -1.324865334549e-03 
-5.527714494018e-04 1.888052696333e-04 0.0 
1.888052696333e-04 3.488692206257e-03 0.0 
0.0 0.0 -5.510338386786e-04 
-8.711724193672e-04 -1.970525444520e-04 0.0 
-1.970525444520e-04 5.796794660819e-03 0.0 
0.0 0.0 -8.703234504572e-04 
-3.052115937338e-04 -1.690052037768e-04 0.0 
-1.690052037768e-04 1.853679927901e-03 0.0 
0.0 0.0 -3.041533380166e-04 
-9.585285003453e-04 2.099575339622e-04 0.0 
2.099575339622e-04 6.326919234623e-03 0.0 
0.0 0.0 -9.576894438039e-04 
-1.007861502229e-03 2.071557397888e-04 0.0 
2.071557397888e-04 6.684066242240e-03 0.0 
0.0 0.0 -1.008345180213e-03 
-4.131133098155e-04 -1.786065448845e-04 0.0 
-1.786065448845e-04 2.602572281114e-03 0.0 
0.0 0.0 -4.109515902261e-04 
-9.327998617516e-04 -1.874311411832e-04 0.0 
-1.874311411832e-04 6.181670543660e-03 0.0 
0.0 0.0 -9.257128893455e-04 
-1.323570257858e-03 1.323150738931e-05 0.0 
1.323150738931e-05 9.099733073090e-03 0.0 
0.0 0.0 -1.322580803729e-03 
-1.076618962997e-03 1.898018198415e-04 0.0 
1.898018198415e-04 7.144327477010e-03 0.0 
0.0 0.0 -1.075861678316e-03 
-1.321614991336e-03 -1.713273005328e-05 0.0 
-1.713273005328e-05 9.105058184061e-03 0.0 
0.0 0.0 -1.322091174222e-03 
-9.079440508185e-04 -2.097847460126e-04 0.0 
-2.097847460126e-04 6.119714420928e-03 0.0 
0.0 0.0 -9.196498359204e-04 
-1.050990778737e-03 -1.886314367516e-04 0.0 
-1.886314367516e-04 7.044669431277e-03 0.0 
0.0 0.0 -1.048263655743e-03 
-3.511245847016e-04 -1.953891657847e-04 0.0 
-1.953891657847e-04 2.144448464187e-03 0.0 
0.0 0.0 -3.491910591611e-04 
-7.374872672360e-04 -1.803640936936e-04 0.0 
-1.803640936936e-04 4.844525720206e-03 0.0 
0.0 0.0 -7.343713905234e-04 
-8.293244045422e-04 1.837550643811e-04 0.0 
1.837550643811e-04 5.409584064822e-03 0.0 
0.0 0.0 -8.263924940540e-04 
-8.620298851759e-04 -1.867239000812e-04 0.0 
-1.867239000812e-04 5.715504193618e-03 0.0 
0.0 0.0 -8.589723558544e-04 
-7.110415388042e-04 -1.855413705945e-04 0.0 
-1.855413705945e-04 4.678427107823e-03 0.0 
0.0 0.0 -7.101745248689e-04 
-1.326686360805e-03 -1.171732242917e-05 0.0 
-1.171732242917e-05 9.109208916885e-03 0.0 
0.0 0.0 -1.322334986692e-03 
-8.655458594579e-04 1.438711959111e-04 0.0 
1.438711959111e-04 5.877137978370e-03 0.0 
0.0 0.0 -8.810748613436e-04 
-7.842175920213e-04 -1.730041151838e-04 0.0 
-1.730041151838e-04 5.148772658244e-03 0.0 
0.0 0.0 -7.763708431881e-04 
-5.855858139709e-04 -1.935639285694e-04 0.0 
-1.935639285694e-04 3.803586164403e-03 0.0 
0.0 0.0 -5.843899590101e-04 
-3.295388154563e-04 1.889565951280e-04 0.0 
1.889565951280e-04 1.906230365352e-03 0.0 
0.0 0.0 -3.280768480529e-04 
-7.085854070096e-04 -1.812057133811e-04 0.0 
-1.812057133811e-04 4.648076014877e-03 0.0 
0.0 0.0 -7.069124235890e-04 
-4.422183154956e-04 1.870641756049e-04 0.0 
1.870641756049e-04 2.708861584455e-03 0.0 
0.0 0.0 -4.404772202000e-04 
-7.723719974628e-04 -4.140062150847e-05 0.0 
-4.140062150847e-05 5.256708913763e-03 0.0 
0.0 0.0 -7.696142143080e-04 
-4.606920221105e-04 -1.852355893198e-04 0.0 
-1.852355893198e-04 2.942829590752e-03 0.0 
0.0 0.0 -4.595640944490e-04 
-5.214756889107e-04 -1.931035456200e-04 0.0 
-1.931035456200e-04 3.354332559651e-03 0.0 
0.0 0.0 -5.202658224677e-04 
-1.068256360121e-03 2.066714883779e-04 0.0 
2.066714883779e-04 7.094366600133e-03 0.0 
0.0 0.0 -1.069052450572e-03 
-4.377877323945e-04 -1.833633178395e-04 0.0 
-1.833633178395e-04 2.778061496653e-03 0.0 
0.0 0.0 -4.372567615832e-04 
-7.685639283948e-04 1.832765112525e-04 0.0 
1.832765112525e-04 4.976704183313e-03 0.0 
0.0 0.0 -7.640689829422e-04 
-9.023009032283e-04 1.879763697979e-04 0.0 
1.879763697979e-04 5.928541464362e-03 0.0 
0.0 0.0 -9.014246907137e-04 
-8.033627654917e-04 1.978900666673e-04 0.0 
1.978900666673e-04 5.248675409053e-03 0.0 
0.0 0.0 -8.035328976187e-04 
-1.305960172853e-03 -2.095892658956e-06 0.0 
-2.095892658956e-06 9.102496999303e-03 0.0 
0.0 0.0 -1.324762665914e-03 
-6.445820078637e-04 -1.678202773937e-04 0.0 
-1.678202773937e-04 4.194265313441e-03 0.0 
0.0 0.0 -6.390224077203e-04 
-4.435428954873e-04 1.964051911317e-04 0.0 
1.964051911317e-04 2.726576725320e-03 0.0 
0.0 0.0 -4.422638729430e-04 
-5.680634224624e-04 -1.789976648693e-04 0.0 
-1.789976648693e-04 3.709617648682e-03 0.0 
0.0 0.0 -5.691257024010e-04 
-4.282333792407e-04 -1.482446945053e-04 0.0 
-1.482446945053e-04 2.644915346169e-03 0.0 
0.0 0.0 -4.184705811166e-04 
-4.155606553471e-04 1.953855919425e-04 0.0 
1.953855919425e-04 2.537485002560e-03 0.0 
0.0 0.0 -4.141309408042e-04 
-1.124019592153e-03 -2.007331567345e-04 0.0 
-2.007331567345e-04 7.565647962713e-03 0.0 
0.0 0.0 -1.123886314723e-03 
-8.186901870458e-04 -1.867352575881e-04 0.0 
-1.867352575881e-04 5.417532343351e-03 0.0 
0.0 0.0 -8.161479701220e-04 
-5.717796681143e-04 -1.878963187406e-04 0.0 
-1.878963187406e-04 3.680777609877e-03 0.0 
0.0 0.0 -5.672387349321e-04 
-7.059258560287e-04 1.849400511517e-04 0.0 
1.849400511517e-04 4.547028472385e-03 0.0 
0.0 0.0 -7.023794137935e-04 
-1.322670125945e-03 2.313222592221e-05 0.0 
2.313222592221e-05 9.105794211902e-03 0.0 
0.0 0.0 -1.320675234999e-03 
-1.261246667212e-03 -1.446740378059e-04 0.0 
-1.446740378059e-04 8.590068615086e-03 0.0 
0.0 0.0 -1.258064670439e-03 
-1.122100566517e-03 1.986464603035e-04 0.0 
1.986464603035e-04 7.484284741315e-03 0.0 
0.0 0.0 -1.126590436115e-03 
-1.036201990782e-03 -1.951775890561e-04 0.0 
-1.951775890561e-04 6.963709654535e-03 0.0 
0.0 0.0 -1.037522200811e-03 
-7.719052834795e-04 -1.888501304091e-04 0.0 
-1.888501304091e-04 5.114447170550e-03 0.0 
0.0 0.0 -7.721428985420e-04 
-5.862259843954e-04 -1.794669617906e-04 0.0 
-1.794669617906e-04 3.806767764826e-03 0.0 
0.0 0.0 -5.842812205453e-04 
-4.235649518209e-04 -1.883881554872e-04 0.0 
-1.883881554872e-04 2.667804805964e-03 0.0 
0.0 0.0 -4.203166018452e-04 
-4.860729007889e-04 -1.885252844673e-04 0.0 
-1.885252844673e-04 3.110387779236e-03 0.0 
0.0 0.0 -4.843489805398e-04 
-7.832353818819e-04 -1.822378049693e-04 0.0 
-1.822378049693e-04 5.173491727743e-03 0.0 
0.0 0.0 -7.808727949117e-04 
-8.901416230107e-04 -1.942852983017e-04 0.0 
-1.942852983017e-04 5.937129717394e-03 0.0 
0.0 0.0 -8.900964085843e-04 
-6.791455967190e-04 -1.986004150700e-04 0.0 
-1.986004150700e-04 4.477294610112e-03 0.0 
0.0 0.0 -6.810091006415e-04 
-1.137984490542e-03 2.026763925672e-04 0.0 
2.026763925672e-04 7.560494271962e-03 0.0 
0.0 0.0 -1.134236807130e-03 
-4.390058928460e-04 -1.873042743236e-04 0.0 
-1.873042743236e-04 2.794180260139e-03 0.0 
0.0 0.0 -4.395655422792e-04 
-6.752152374307e-04 -1.860595742758e-04 0.0 
-1.860595742758e-04 4.431501668800e-03 0.0 
0.0 0.0 -6.750378637491e-04 
-7.938192706807e-04 1.817389384797e-04 0.0 
1.817389384797e-04 5.160116736331e-03 0.0 
0.0 0.0 -7.913284153978e-04 
-6.120290380758e-04 -1.961653994372e-04 0.0 
-1.961653994372e-04 3.987310124629e-03 0.0 
0.0 0.0 -6.122259156574e-04 
-1.301288756895e-03 -2.045275430418e-05 0.0 
-2.045275430418e-05 9.103514886722e-03 0.0 
0.0 0.0 -1.320088186226e-03 
-1.336559860406e-03 5.304668224227e-05 0.0 
5.304668224227e-05 9.092320412842e-03 0.0 
0.0 0.0 -1.318462653075e-03 
-1.241699233935e-03 -2.254253931460e-04 0.0 
-2.254253931460e-04 8.519567921102e-03 0.0 
0.0 0.0 -1.256494544188e-03 
-8.370305663977e-04 -1.942067132543e-04 0.0 
-1.942067132543e-04 5.564466733165e-03 0.0 
0.0 0.0 -8.375255977276e-04 
-1.112341827327e-03 1.928139267360e-04 0.0 
1.928139267360e-04 7.404901105712e-03 0.0 
0.0 0.0 -1.112065035246e-03 
-3.806812841048e-04 1.778946636946e-04 0.0 
1.778946636946e-04 2.279220825059e-03 0.0 
0.0 0.0 -3.785953687517e-04 
-5.494616984378e-04 -1.888416104626e-04 0.0 
-1.888416104626e-04 3.555923799118e-03 0.0 
0.0 0.0 -5.483018170244e-04 
-3.235962926905e-04 -1.736014947489e-04 0.0 
-1.736014947489e-04 1.973084689826e-03 0.0 
0.0 0.0 -3.192951451658e-04 
-5.963652417524e-04 -1.773931756756e-04 0.0 
-1.773931756756e-04 3.870665993091e-03 0.0 
0.0 0.0 -5.936226173563e-04 
-7.754418230907e-04 -1.787983897600e-05 0.0 
-1.787983897600e-05 4.998811631156e-03 0.0 
0.0 0.0 -7.914980036671e-04 
-9.191665137011e-04 2.140245341565e-04 0.0 
2.140245341565e-04 6.074527525348e-03 0.0 
0.0 0.0 -9.214502702889e-04 
-1.272306740568e-03 -2.183792906184e-06 0.0 
-2.183792906184e-06 8.701539900471e-03 0.0 
0.0 0.0 -1.265403586923e-03 
-1.115465796476e-03 2.144802209519e-04 0.0 
2.144802209519e-04 7.405352776166e-03 0.0 
0.0 0.0 -1.117224974728e-03 
-8.719756485576e-04 1.796746755415e-04 0.0 
1.796746755415e-04 5.704231125349e-03 0.0 
0.0 0.0 -8.687609488834e-04 
-8.934000445298e-04 1.842629385947e-04 0.0 
1.842629385947e-04 5.848617048582e-03 0.0 
0.0 0.0 -8.891947744737e-04 
-3.538517022684e-04 1.968822651903e-04 0.0 
1.968822651903e-04 2.082939193951e-03 0.0 
0.0 0.0 -3.496852078947e-04 
-1.730179310378e-04 3.799515299484e-05 0.0 
3.799515299484e-05 9.814996314958e-04 0.0 
0.0 0.0 -1.610244214183e-04 
-6.605957920443e-04 2.008091445531e-04 0.0 
2.008091445531e-04 4.241664916870e-03 0.0 
0.0 0.0 -6.594106982652e-04 
-7.382500259091e-04 -1.861061436275e-04 0.0 
-1.861061436275e-04 4.870305797290e-03 0.0 
0.0 0.0 -7.376142925499e-04 
-6.935826622016e-04 -1.974963449897e-04 0.0 
-1.974963449897e-04 4.557561403420e-03 0.0 
0.0 0.0 -6.931905564145e-04 
-1.927200046455e-04 1.907407866213e-04 0.0 
1.907407866213e-04 9.362068114562e-04 0.0 
0.0 0.0 -1.839988823918e-04 
-8.553897316391e-04 7.952460625499e-05 0.0 
7.952460625499e-05 5.374666730048e-03 0.0 
0.0 0.0 -8.462285223656e-04 
-3.012637912477e-04 -1.970081127766e-04 0.0 
-1.970081127766e-04 1.826424334369e-03 0.0 
0.0 0.0 -2.972104253142e-04 
-4.320291499202e-04 1.924639625951e-04 0.0 
1.924639625951e-04 2.652618994648e-03 0.0 
0.0 0.0 -4.314049239902e-04 
-1.341153861134e-03 -1.132581838942e-07 0.0 
-1.132581838942e-07 8.854160665757e-03 0.0 
0.0 0.0 -1.341153861134e-03 
-9.735832254612e-04 -2.032109106710e-04 0.0 
-2.032109106710e-04 6.501326132665e-03 0.0 
0.0 0.0 -9.717687626070e-04 
-8.038658590280e-04 1.841151985619e-04 0.0 
1.841151985619e-04 5.090192522503e-03 0.0 
0.0 0.0 -7.790007367612e-04 
-2.263569738136e-04 1.412068244863e-04 0.0 
1.412068244863e-04 1.378581130634e-03 0.0 
0.0 0.0 -2.176483604987e-04 
-7.148393686400e-04 1.885377903276e-04 0.0 
1.885377903276e-04 4.617805235716e-03 0.0 
0.0 0.0 -7.126719623954e-04 
-6.583475203356e-04 -2.044658051722e-04 0.0 
-2.044658051722e-04 4.303955154821e-03 0.0 
0.0 0.0 -6.569982659716e-04 
-8.980808506785e-04 -1.936520147712e-04 0.0 
-1.936520147712e-04 5.958242186783e-03 0.0 
0.0 0.0 -8.940630110299e-04 
-1.327874025612e-03 4.012442722696e-05 0.0 
4.012442722696e-05 9.098102111315e-03 0.0 
0.0 0.0 -1.323832587333e-03 
-7.403554818969e-04 1.844120078152e-04 0.0 
1.844120078152e-04 4.792048619543e-03 0.0 
0.0 0.0 -7.366500567795e-04 
-8.545868996671e-04 -1.887615407860e-04 0.0 
-1.887615407860e-04 5.662533660862e-03 0.0 
0.0 0.0 -8.513774089097e-04 
-6.818667097911e-04 1.958766515699e-04 0.0 
1.958766515699e-04 4.409131248910e-03 0.0 
0.0 0.0 -6.837695253815e-04 
-1.105187862003e-03 1.994006530663e-04 0.0 
1.994006530663e-04 7.356411437885e-03 0.0 
0.0 0.0 -1.105258581891e-03 
-8.686753316719e-04 1.961023377173e-04 0.0 
1.961023377173e-04 5.708119835605e-03 0.0 
0.0 0.0 -8.691653677727e-04 
-1.313443091824e-03 -8.681857321596e-06 0.0 
-8.681857321596e-06 9.107589922997e-03 0.0 
0.0 0.0 -1.322174839672e-03 
-1.340103718614e-03 2.441833226492e-06 0.0 
2.441833226492e-06 8.842216911178e-03 0.0 
0.0 0.0 -1.340103718614e-03 
-1.341028575724e-03 -6.698781680325e-06 0.0 
-6.698781680325e-06 8.834191149721e-03 0.0 
0.0 0.0 -1.341028575724e-03 
-1.338044909071e-03 -9.989699658928e-07 0.0 
-9.989699658928e-07 8.789076720715e-03 0.0 
0.0 0.0 -1.338044909071e-03 
-9.278953530001e-04 1.830493215192e-04 0.0 
1.830493215192e-04 6.094694774967e-03 0.0 
0.0 0.0 -9.244680137507e-04 
-1.104382085207e-03 -1.844352853963e-04 0.0 
-1.844352853963e-04 7.413030585339e-03 0.0 
0.0 0.0 -1.103002250422e-03 
-1.150866030357e-03 2.083921581833e-04 0.0 
2.083921581833e-04 7.696092280171e-03 0.0 
0.0 0.0 -1.155914796392e-03 
-6.164628833105e-04 2.031183267964e-04 0.0 
2.031183267964e-04 3.927882065764e-03 0.0 
0.0 0.0 -6.147330147620e-04 
-5.911685103850e-04 1.997096464783e-04 0.0 
1.997096464783e-04 3.740736628945e-03 0.0 
0.0 0.0 -5.872917534094e-04 
-6.414807696813e-04 -2.006380451048e-04 0.0 
-2.006380451048e-04 4.218783169969e-03 0.0 
0.0 0.0 -6.436934073013e-04 
-1.134641282245e-03 -2.006695635977e-04 0.0 
-2.006695635977e-04 7.623716292157e-03 0.0 
0.0 0.0 -1.131852245309e-03 
-1.324500994006e-03 -4.966854021234e-06 0.0 
-4.966854021234e-06 9.095768239117e-03 0.0 
0.0 0.0 -1.322440284024e-03 
-1.140227253108e-03 1.951224764733e-04 0.0 
1.951224764733e-04 7.603009729401e-03 0.0 
0.0 0.0 -1.141180801552e-03 
-9.080174246261e-04 -2.037707256769e-04 0.0 
-2.037707256769e-04 6.042971740774e-03 0.0 
0.0 0.0 -9.063345769726e-04 
-1.140612365318e-03 -1.825914620367e-04 0.0 
-1.825914620367e-04 7.661221724928e-03 0.0 
0.0 0.0 -1.138864741757e-03 
-9.895587303989e-04 -1.909996709669e-04 0.0 
-1.909996709669e-04 6.631323534056e-03 0.0 
0.0 0.0 -9.903545940741e-04 
-7.055944550106e-04 1.841650505337e-04 0.0 
1.841650505337e-04 4.559451876543e-03 0.0 
0.0 0.0 -7.049739924763e-04 
-6.005001548623e-04 1.754924819423e-04 0.0 
1.754924819423e-04 3.808564972462e-03 0.0 
0.0 0.0 -5.967387615352e-04 
-3.335508235583e-04 1.892926381390e-04 0.0 
1.892926381390e-04 1.961394351476e-03 0.0 
0.0 0.0 -3.333553686509e-04 
-1.287482303742e-03 9.400486473721e-05 0.0 
9.400486473721e-05 8.494651886701e-03 0.0 
0.0 0.0 -1.282213402295e-03 
-5.782088747012e-04 1.983174571352e-04 0.0 
1.983174571352e-04 3.685190236892e-03 0.0 
0.0 0.0 -5.792479259103e-04 
-1.207490032650e-03 -9.511693616605e-06 0.0 
-9.511693616605e-06 8.106813054446e-03 0.0 
0.0 0.0 -1.230767059693e-03 
-6.442432414831e-04 1.944206160730e-04 0.0 
1.944206160730e-04 4.149320661563e-03 0.0 
0.0 0.0 -6.465396845166e-04 
-4.198574354174e-04 -1.824962637456e-04 0.0 
-1.824962637456e-04 2.680260699037e-03 0.0 
0.0 0.0 -4.222915044375e-04 
-1.273602229187e-03 4.336342551855e-05 0.0 
4.336342551855e-05 8.460076842639e-03 0.0 
0.0 0.0 -1.284312900220e-03 
-4.687866799152e-04 1.866875104872e-04 0.0 
1.866875104872e-04 2.893520146276e-03 0.0 
0.0 0.0 -4.669824892858e-04 
-1.341987455608e-03 1.886578995434e-06 0.0 
1.886578995434e-06 8.838362897947e-03 0.0 
0.0 0.0 -1.341987455608e-03 
-1.296411374061e-03 -1.418949515449e-05 0.0 
-1.418949515449e-05 8.470243795444e-03 0.0 
0.0 0.0 -1.282654109251e-03 
-8.495078228820e-04 1.843107655011e-04 0.0 
1.843107655011e-04 5.547072023185e-03 0.0 
0.0 0.0 -8.462542048450e-04 
-9.255048927816e-05 -2.197953205395e-06 0.0 
-2.197953205395e-06 3.085086574748e-04 0.0 
0.0 0.0 -9.255350065570e-05 
-1.340954708391e-03 7.835804962265e-06 0.0 
7.835804962265e-06 8.838032502772e-03 0.0 
0.0 0.0 -1.340954708392e-03 
-1.280816053348e-03 -2.230055523914e-05 0.0 
-2.230055523914e-05 8.460310632468e-03 0.0 
0.0 0.0 -1.284661450484e-03 
-4.260944399251e-04 1.999732540104e-04 0.0 
1.999732540104e-04 2.608418284960e-03 0.0 
0.0 0.0 -4.253660281670e-04 
-9.365021749047e-04 -1.977008719716e-04 0.0 
-1.977008719716e-04 6.250684752616e-03 0.0 
0.0 0.0 -9.353130867196e-04 
-1.333005063589e-03 4.344781137129e-06 0.0 
4.344781137129e-06 9.114671664273e-03 0.0 
0.0 0.0 -1.323014926434e-03 
0.0 0.0 0.0 
0.0 0.0 0.0 
0.0 0.0 0.0 
-6.428281947913e-04 1.843362204219e-04 0.0 
1.843362204219e-04 4.123262309836e-03 0.0 
0.0 0.0 -6.425506931502e-04 
-8.851411761515e-04 1.851869312967e-04 0.0 
1.851869312967e-04 5.794563189636e-03 0.0 
0.0 0.0 -8.816033652580e-04 
-8.134395165507e-04 1.874953040299e-04 0.0 
1.874953040299e-04 5.300126487808e-03 0.0 
0.0 0.0 -8.109139232486e-04 
-8.225202755535e-04 1.881518984197e-04 0.0 
1.881518984197e-04 5.356080317152e-03 0.0 
0.0 0.0 -8.186613860469e-04 
-3.691769062860e-04 1.916815065321e-04 0.0 
1.916815065321e-04 2.210779207524e-03 0.0 
0.0 0.0 -3.689119447714e-04 
-1.341360672448e-03 -1.189443720155e-06 0.0 
-1.189443720155e-06 8.827889647213e-03 0.0 
0.0 0.0 -1.341360672448e-03 
-6.134329689946e-04 -1.902359328296e-04 0.0 
-1.902359328296e-04 4.002222739952e-03 0.0 
0.0 0.0 -6.123778370825e-04 
-2.202070906779e-04 -1.755376406008e-04 0.0 
-1.755376406008e-04 1.255756531969e-03 0.0 
0.0 0.0 -2.173296945085e-04 
-1.279142293538e-03 5.964349300567e-05 0.0 
5.964349300567e-05 8.727032320364e-03 0.0 
0.0 0.0 -1.272354826527e-03 
-1.022272037248e-04 4.922820238480e-06 0.0 
4.922820238480e-06 5.965869288915e-04 0.0 
0.0 0.0 -1.019437782286e-04 
-6.710661406479e-04 1.855097177597e-04 0.0 
1.855097177597e-04 4.303579593448e-03 0.0 
0.0 0.0 -6.678899790658e-04 
-2.300720776572e-04 1.212201240606e-05 0.0 
1.212201240606e-05 1.125450156733e-03 0.0 
0.0 0.0 -2.365401520142e-04 
-7.086437154644e-04 1.853452857980e-04 0.0 
1.853452857980e-04 4.588815352963e-03 0.0 
0.0 0.0 -7.094882865497e-04 
-1.317968381893e-03 -7.788542654233e-06 0.0 
-7.788542654233e-06 9.086616382280e-03 0.0 
0.0 0.0 -1.321823097425e-03 
-1.341255375116e-03 6.592408687491e-06 0.0 
6.592408687491e-06 8.854311445215e-03 0.0 
0.0 0.0 -1.341255375116e-03 
-8.673920198820e-04 1.847071888206e-04 0.0 
1.847071888206e-04 5.656037287956e-03 0.0 
0.0 0.0 -8.613793510407e-04 
-1.969643249741e-04 -2.643595705587e-05 0.0 
-2.643595705587e-05 7.486662135304e-04 0.0 
0.0 0.0 -1.793976806842e-04 
-1.826266447966e-04 1.955672024509e-04 0.0 
1.955672024509e-04 9.200601904339e-04 0.0 
0.0 0.0 -1.838036673156e-04 
-2.361898229358e-04 4.404631865774e-05 0.0 
4.404631865774e-05 1.375633081646e-03 0.0 
0.0 0.0 -2.179364692381e-04 
-1.125162068454e-03 -1.979567048055e-04 0.0 
-1.979567048055e-04 7.560228932207e-03 0.0 
0.0 0.0 -1.121833217354e-03 
-7.703836607526e-04 2.904011669621e-05 0.0 
2.904011669621e-05 5.271332940567e-03 0.0 
0.0 0.0 -7.704300227928e-04 
-8.168157235620e-04 -2.113983721696e-04 0.0 
-2.113983721696e-04 5.355765378531e-03 0.0 
0.0 0.0 -8.109332722942e-04 
-1.342502730507e-03 5.716067361739e-06 0.0 
5.716067361739e-06 8.856705817959e-03 0.0 
0.0 0.0 -1.342502730507e-03 
-7.906151483404e-04 -4.272528123306e-05 0.0 
-4.272528123306e-05 5.268742702063e-03 0.0 
0.0 0.0 -7.720444664677e-04 
-1.332977220355e-03 1.682402604841e-05 0.0 
1.682402604841e-05 9.104707937730e-03 0.0 
0.0 0.0 -1.322852565091e-03 
-1.019613459442e-03 1.919320256201e-04 0.0 
1.919320256201e-04 6.758525883042e-03 0.0 
0.0 0.0 -1.020998643257e-03 
-8.942284646778e-04 2.014665993212e-04 0.0 
2.014665993212e-04 5.869620442183e-03 0.0 
0.0 0.0 -8.907448815977e-04 
-4.710891496910e-04 1.816013443134e-04 0.0 
1.816013443134e-04 2.782078830397e-03 0.0 
0.0 0.0 -4.477608806526e-04 
-9.397641453592e-04 1.905534962229e-04 0.0 
1.905534962229e-04 6.187842394577e-03 0.0 
0.0 0.0 -9.378661514433e-04 
-2.865699781096e-04 -1.698301048615e-04 0.0 
-1.698301048615e-04 1.797113955835e-03 0.0 
0.0 0.0 -2.938158648993e-04 
-1.340754991027e-03 -4.752011562195e-06 0.0 
-4.752011562195e-06 8.857728678543e-03 0.0 
0.0 0.0 -1.340754991027e-03 
-1.339984467612e-03 2.292869316744e-05 0.0 
2.292869316744e-05 8.807369741469e-03 0.0 
0.0 0.0 -1.339984467612e-03 
-1.340417744004e-03 -2.214851180424e-05 0.0 
-2.214851180424e-05 8.828867002772e-03 0.0 
0.0 0.0 -1.340417744004e-03 
-8.660623943402e-04 -1.943286950290e-04 0.0 
-1.943286950290e-04 5.772294168294e-03 0.0 
0.0 0.0 -8.666500598261e-04 
-6.034856013850e-04 -2.033011263198e-04 0.0 
-2.033011263198e-04 3.957936150372e-03 0.0 
0.0 0.0 -6.062238016986e-04 
-7.026976706329e-04 -1.815126947841e-04 0.0 
-1.815126947841e-04 4.627441659305e-03 0.0 
0.0 0.0 -7.021192356133e-04 
-8.976477462119e-04 1.951708788181e-04 0.0 
1.951708788181e-04 5.904473226514e-03 0.0 
0.0 0.0 -8.981573260837e-04 
-1.339627896631e-03 3.612108462023e-06 0.0 
3.612108462023e-06 8.853033835610e-03 0.0 
0.0 0.0 -1.339627896631e-03 
-4.295950600907e-04 -1.875952713055e-04 0.0 
-1.875952713055e-04 2.717501457664e-03 0.0 
0.0 0.0 -4.287941800800e-04 
-4.990450639494e-04 1.934485922334e-04 0.0 
1.934485922334e-04 3.125390132284e-03 0.0 
0.0 0.0 -4.991860405784e-04 
-5.285799076226e-04 1.852384275300e-04 0.0 
1.852384275300e-04 3.322934541718e-03 0.0 
0.0 0.0 -5.272458293186e-04 
-9.298142287186e-04 1.923659803105e-04 0.0 
1.923659803105e-04 6.128652270364e-03 0.0 
0.0 0.0 -9.279583942085e-04 
-1.339074735525e-03 -2.462351465068e-05 0.0 
-2.462351465068e-05 9.096799452257e-03 0.0 
0.0 0.0 -1.323537156312e-03 
-1.500618556416e-04 1.939391886343e-05 0.0 
1.939391886343e-05 9.791726158994e-04 0.0 
0.0 0.0 -1.598254822437e-04 
-1.340775759057e-03 1.534669228246e-06 0.0 
1.534669228246e-06 8.827931576809e-03 0.0 
0.0 0.0 -1.340775759057e-03 
-4.918224965486e-04 1.956179793808e-04 0.0 
1.956179793808e-04 3.063033243647e-03 0.0 
0.0 0.0 -4.905422085546e-04 
-1.342877878941e-03 2.842270727739e-06 0.0 
2.842270727739e-06 8.853936486152e-03 0.0 
0.0 0.0 -1.342877878941e-03 
-1.156184618631e-03 -1.885719150537e-04 0.0 
-1.885719150537e-04 7.774113329411e-03 0.0 
0.0 0.0 -1.152765850879e-03 
-4.494164570379e-05 1.000468586638e-06 0.0 
1.000468586638e-06 2.551504228595e-04 0.0 
0.0 0.0 -4.576175375704e-05 
-6.699730055747e-04 1.872361539571e-04 0.0 
1.872361539571e-04 4.302808495342e-03 0.0 
0.0 0.0 -6.690559060524e-04 
-1.145839910847e-03 -1.986902778567e-04 0.0 
-1.986902778567e-04 7.714207575352e-03 0.0 
0.0 0.0 -1.146019594970e-03 
-1.341220131281e-03 -2.365934969508e-06 0.0 
-2.365934969508e-06 8.847703773833e-03 0.0 
0.0 0.0 -1.341220131281e-03 
-9.256050002818e-04 -1.923147081747e-04 0.0 
-1.923147081747e-04 6.153846390776e-03 0.0 
0.0 0.0 -9.220067723808e-04 
-1.050351148173e-03 1.970429468761e-04 0.0 
1.970429468761e-04 6.958336458839e-03 0.0 
0.0 0.0 -1.049000704964e-03 
-2.748725954193e-04 1.931705696150e-04 0.0 
1.931705696150e-04 1.524979906539e-03 0.0 
0.0 0.0 -2.717413095444e-04 
-1.208683908170e-03 6.230383996376e-06 0.0 
6.230383996376e-06 8.102506712124e-03 0.0 
0.0 0.0 -1.228682347183e-03 
-5.192327213783e-04 1.909614988804e-04 0.0 
1.909614988804e-04 3.260562468968e-03 0.0 
0.0 0.0 -5.184025592846e-04 
-5.248109421634e-04 -1.803408309234e-04 0.0 
-1.803408309234e-04 3.388681347671e-03 0.0 
0.0 0.0 -5.242929400402e-04 
-1.101238409147e-04 1.624386361106e-05 0.0 
1.624386361106e-05 6.254833965552e-04 0.0 
0.0 0.0 -1.042847928631e-04 
-1.341079611575e-03 1.268157797408e-06 0.0 
1.268157797408e-06 8.837798036775e-03 0.0 
0.0 0.0 -1.341079611575e-03 
-3.602734137550e-04 -1.850324683020e-04 0.0 
-1.850324683020e-04 2.230825920775e-03 0.0 
0.0 0.0 -3.564518745397e-04 
-1.109985979917e-03 -2.052345426402e-04 0.0 
-2.052345426402e-04 7.476883123942e-03 0.0 
0.0 0.0 -1.110501492391e-03 
-8.524872272040e-04 -2.315298743520e-04 0.0 
-2.315298743520e-04 5.680178330686e-03 0.0 
0.0 0.0 -8.555322119248e-04 
-4.402194268268e-04 -1.870881911232e-04 0.0 
-1.870881911232e-04 2.811358430466e-03 0.0 
0.0 0.0 -4.411586999297e-04 
-4.975783628974e-04 -1.914562144177e-04 0.0 
-1.914562144177e-04 3.191209784275e-03 0.0 
0.0 0.0 -4.964677435772e-04 
-8.901378245668e-04 -1.873561009025e-04 0.0 
-1.873561009025e-04 5.908561179355e-03 0.0 
0.0 0.0 -8.867075537039e-04 
-1.342259935407e-03 -1.718040054209e-05 0.0 
-1.718040054209e-05 8.855152000548e-03 0.0 
0.0 0.0 -1.342259935407e-03 
-6.396775884645e-04 1.886079041491e-04 0.0 
1.886079041491e-04 4.098241029371e-03 0.0 
0.0 0.0 -6.378868265889e-04 
-9.691742763952e-04 -2.019742400055e-04 0.0 
-2.019742400055e-04 6.483311990656e-03 0.0 
0.0 0.0 -9.693340058278e-04 
-8.041747505048e-04 1.863000233206e-04 0.0 
1.863000233206e-04 5.244246416890e-03 0.0 
0.0 0.0 -8.030799362305e-04 
-8.818155169255e-04 -1.886653253937e-04 0.0 
-1.886653253937e-04 5.877887840043e-03 0.0 
0.0 0.0 -8.811160271665e-04 
-5.320000478192e-04 -1.863752187475e-04 0.0 
-1.863752187475e-04 3.439757636019e-03 0.0 
0.0 0.0 -5.326451291888e-04 
-9.026994633866e-04 -1.977891108899e-04 0.0 
-1.977891108899e-04 6.021154653626e-03 0.0 
0.0 0.0 -9.031726653527e-04 
-7.735880944808e-04 -1.868485495488e-04 0.0 
-1.868485495488e-04 5.115539884918e-03 0.0 
0.0 0.0 -7.729461360948e-04 
-9.981479559481e-04 -1.963805187541e-04 0.0 
-1.963805187541e-04 6.683666354433e-03 0.0 
0.0 0.0 -9.982497011217e-04 
-1.004413229733e-03 1.912127845263e-04 0.0 
1.912127845263e-04 6.639387752267e-03 0.0 
0.0 0.0 -1.003134534203e-03 
-7.686187780918e-04 1.863311149204e-04 0.0 
1.863311149204e-04 4.996748422870e-03 0.0 
0.0 0.0 -7.676694601592e-04 
-6.531466934911e-04 1.957558291538e-04 0.0 
1.957558291538e-04 4.207071568820e-03 0.0 
0.0 0.0 -6.551190094499e-04 
-4.645380568116e-04 -1.828907984748e-04 0.0 
-1.828907984748e-04 2.961721166152e-03 0.0 
0.0 0.0 -4.640097282922e-04 
-6.064572421459e-04 1.910285411047e-04 0.0 
1.910285411047e-04 3.887705448155e-03 0.0 
0.0 0.0 -6.091269606258e-04 
-1.019361563877e-03 -1.903039724258e-04 0.0 
-1.903039724258e-04 6.831244999586e-03 0.0 
0.0 0.0 -1.018204129641e-03 
-8.373723247003e-04 1.874174193606e-04 0.0 
1.874174193606e-04 5.476720692713e-03 0.0 
0.0 0.0 -8.365169925761e-04 
-1.320520432489e-03 -2.623800515076e-05 0.0 
-2.623800515076e-05 9.107403832922e-03 0.0 
0.0 0.0 -1.321929620191e-03 
-1.169515206127e-03 -1.894067828278e-04 0.0 
-1.894067828278e-04 7.912550107300e-03 0.0 
0.0 0.0 -1.174325249119e-03 
-4.054788487746e-04 1.902250889252e-04 0.0 
1.902250889252e-04 2.477005508034e-03 0.0 
0.0 0.0 -4.069995479128e-04 
-1.341047338368e-03 6.114097105094e-06 0.0 
6.114097105094e-06 8.810414551587e-03 0.0 
0.0 0.0 -1.341047338368e-03 
-1.246442799579e-03 -7.048165356565e-06 0.0 
-7.048165356565e-06 8.701531217890e-03 0.0 
0.0 0.0 -1.266414110344e-03 
-7.243231333997e-04 1.855217411942e-04 0.0 
1.855217411942e-04 4.688371918965e-03 0.0 
0.0 0.0 -7.237787631415e-04 
-9.766466055395e-05 -9.527665079749e-06 0.0 
-9.527665079749e-06 3.256739367155e-04 0.0 
0.0 0.0 -9.771826121210e-05 
-1.305508824941e-03 3.853404293043e-06 0.0 
3.853404293043e-06 9.105182867572e-03 0.0 
0.0 0.0 -1.323469717371e-03 
-1.171509388478e-03 -1.678154851062e-04 0.0 
-1.678154851062e-04 7.861802012676e-03 0.0 
0.0 0.0 -1.167157861819e-03 
-4.521694521811e-04 2.012915858521e-04 0.0 
2.012915858521e-04 2.804008720375e-03 0.0 
0.0 0.0 -4.535238702637e-04 
-1.341709311524e-03 -1.310979986681e-05 0.0 
-1.310979986681e-05 8.829628018658e-03 0.0 
0.0 0.0 -1.341709311524e-03 
-9.320413057689e-04 -1.962162649741e-04 0.0 
-1.962162649741e-04 6.231458751848e-03 0.0 
0.0 0.0 -9.325599965574e-04 
-6.268046795761e-04 1.808345467381e-04 0.0 
1.808345467381e-04 3.989844982223e-03 0.0 
0.0 0.0 -6.229492605273e-04 
-8.398341044078e-04 1.726875732327e-04 0.0 
1.726875732327e-04 5.514357495571e-03 0.0 
0.0 0.0 -8.408860858065e-04 
-8.060358487985e-04 -1.972435935582e-04 0.0 
-1.972435935582e-04 5.343400692596e-03 0.0 
0.0 0.0 -8.054665293395e-04 
-8.004419744920e-04 -1.952463938328e-04 0.0 
-1.952463938328e-04 5.314426112526e-03 0.0 
0.0 0.0 -8.008683130455e-04 
-9.182717976000e-04 -1.896493216882e-04 0.0 
-1.896493216882e-04 6.134019344384e-03 0.0 
0.0 0.0 -9.181754741429e-04 
-9.700343521080e-04 -1.978951788456e-04 0.0 
-1.978951788456e-04 6.510189924062e-03 0.0 
0.0 0.0 -9.721028620036e-04 
-6.977402691426e-04 1.822093202730e-04 0.0 
1.822093202730e-04 4.487185732323e-03 0.0 
0.0 0.0 -6.945885048819e-04 
-1.040005538332e-03 1.990021927622e-04 0.0 
1.990021927622e-04 6.900874594821e-03 0.0 
0.0 0.0 -1.039409037654e-03 
-8.975501320031e-04 -2.506583898403e-05 0.0 
-2.506583898403e-05 6.020256954512e-03 0.0 
0.0 0.0 -8.839498032872e-04 
-6.495260709226e-04 -1.944699442281e-04 0.0 
-1.944699442281e-04 4.277277504375e-03 0.0 
0.0 0.0 -6.521967345917e-04 
-9.682052284533e-04 1.865606736300e-04 0.0 
1.865606736300e-04 6.381518702333e-03 0.0 
0.0 0.0 -9.664699797409e-04 
-5.143750252184e-04 -1.778295084177e-04 0.0 
-1.778295084177e-04 3.324024151635e-03 0.0 
0.0 0.0 -5.155438399970e-04 
-9.088890292892e-04 1.918794185101e-04 0.0 
1.918794185101e-04 5.978978740211e-03 0.0 
0.0 0.0 -9.093720595694e-04 
-5.184917320349e-05 -5.023579163688e-06 0.0 
-5.023579163688e-06 2.615427770040e-04 0.0 
0.0 0.0 -4.585464485956e-05 
-5.019069719293e-04 -1.730390890633e-04 0.0 
-1.730390890633e-04 3.221983585288e-03 0.0 
0.0 0.0 -4.997308803768e-04 
-4.873333685601e-04 -1.811613926647e-04 0.0 
-1.811613926647e-04 3.131270652529e-03 0.0 
0.0 0.0 -4.875765080988e-04 
-7.115036268068e-04 1.928847685253e-04 0.0 
1.928847685253e-04 4.611615726792e-03 0.0 
0.0 0.0 -7.126562430122e-04 
-7.596608402965e-04 1.884583179830e-04 0.0 
1.884583179830e-04 4.937228765552e-03 0.0 
0.0 0.0 -7.595228636782e-04 
-9.346957466835e-04 1.973754267299e-04 0.0 
1.973754267299e-04 6.167461615292e-03 0.0 
0.0 0.0 -9.350600278798e-04 
-8.902631525084e-04 -1.867681813361e-04 0.0 
-1.867681813361e-04 5.973122971149e-03 0.0 
0.0 0.0 -8.962969588583e-04 
-4.491438895741e-04 -1.869760147925e-04 0.0 
-1.869760147925e-04 2.875737731611e-03 0.0 
0.0 0.0 -4.505554202764e-04 
-1.341827844788e-03 5.881319465547e-06 0.0 
5.881319465547e-06 8.853598786661e-03 0.0 
0.0 0.0 -1.341827844788e-03 
-8.819043585380e-04 -1.894669265129e-04 0.0 
-1.894669265129e-04 5.856756576790e-03 0.0 
0.0 0.0 -8.789935771182e-04 
-7.395748600622e-04 1.939731217691e-04 0.0 
1.939731217691e-04 4.808423671935e-03 0.0 
0.0 0.0 -7.413896480605e-04 
-8.456344442179e-04 -1.866159444843e-04 0.0 
-1.866159444843e-04 5.609212261315e-03 0.0 
0.0 0.0 -8.436662038215e-04 
-7.098621749807e-04 -1.956105885315e-04 0.0 
-1.956105885315e-04 4.679646247114e-03 0.0 
0.0 0.0 -7.098625721847e-04 
0.0 0.0 0.0 
0.0 0.0 0.0 
0.0 0.0 0.0 
-8.787853985480e-04 -1.870345829221e-04 0.0 
-1.870345829221e-04 5.815290073788e-03 0.0 
0.0 0.0 -8.733545218784e-04 
-6.014622352257e-04 2.088026922776e-04 0.0 
2.088026922776e-04 3.826503758406e-03 0.0 
0.0 0.0 -5.956302995864e-04 
0.0 0.0 0.0 
0.0 0.0 0.0 
0.0 0.0 0.0 
-7.014361857610e-04 2.031970023559e-04 0.0 
2.031970023559e-04 4.544280328863e-03 0.0 
0.0 0.0 -7.041275119738e-04 
-1.001578329479e-03 1.949348082253e-04 0.0 
1.949348082253e-04 6.625301000394e-03 0.0 
0.0 0.0 -1.001254648526e-03 
-1.145850176714e-03 1.952473198253e-04 0.0 
1.952473198253e-04 7.640587141445e-03 0.0 
0.0 0.0 -1.146946825052e-03 
-8.534899184109e-04 -1.900750659177e-04 0.0 
-1.900750659177e-04 5.682294137051e-03 0.0 
0.0 0.0 -8.532270185794e-04 
-8.843005196868e-04 1.891738523445e-04 0.0 
1.891738523445e-04 5.802847869315e-03 0.0 
0.0 0.0 -8.841559964380e-04 
-7.498668879057e-04 -1.500423199849e-04 0.0 
-1.500423199849e-04 4.956000169468e-03 0.0 
0.0 0.0 -7.495231765994e-04 
-7.499562203702e-04 -7.649065135971e-06 0.0 
-7.649065135971e-06 4.585920683461e-03 0.0 
0.0 0.0 -7.312625299844e-04 
-1.259814766287e-03 -2.251942805194e-05 0.0 
-2.251942805194e-05 8.482919934012e-03 0.0 
0.0 0.0 -1.286111585339e-03 
-8.096577215198e-04 -1.889624871779e-04 0.0 
-1.889624871779e-04 5.361431513159e-03 0.0 
0.0 0.0 -8.082854548548e-04 
-2.601123029567e-05 -8.443429959340e-06 0.0 
-8.443429959340e-06 2.242861713756e-04 0.0 
0.0 0.0 -4.535587742227e-05 
-2.679801948708e-04 -1.979252069442e-04 0.0 
-1.979252069442e-04 1.544873028567e-03 0.0 
0.0 0.0 -2.569639750501e-04 
-9.553383276929e-05 -1.682092997355e-05 0.0 
-1.682092997355e-05 3.188442541892e-04 0.0 
0.0 0.0 -9.570446632282e-05 
-4.265759374031e-04 -1.588061750624e-04 0.0 
-1.588061750624e-04 2.743578014402e-03 0.0 
0.0 0.0 -4.284133232656e-04 
-1.136810990824e-03 -2.050532392671e-04 0.0 
-2.050532392671e-04 7.627868260152e-03 0.0 
0.0 0.0 -1.134523071099e-03 
-1.147232605264e-03 -1.988471843747e-04 0.0 
-1.988471843747e-04 7.696346442353e-03 0.0 
0.0 0.0 -1.144649651339e-03 
-1.090721102207e-03 1.927119379258e-04 0.0 
1.927119379258e-04 7.225314130525e-03 0.0 
0.0 0.0 -1.087427768671e-03 
-4.794185500659e-04 -1.949320750669e-04 0.0 
-1.949320750669e-04 3.096205477872e-03 0.0 
0.0 0.0 -4.827803379924e-04 
-9.064466102036e-04 -1.951694302264e-04 0.0 
-1.951694302264e-04 6.052913189119e-03 0.0 
0.0 0.0 -9.063168105749e-04 
-1.135504702689e-03 1.907792817820e-04 0.0 
1.907792817820e-04 7.600364314815e-03 0.0 
0.0 0.0 -1.142106164841e-03 
-2.788698608245e-04 -1.715069773271e-04 0.0 
-1.715069773271e-04 1.706769297964e-03 0.0 
0.0 0.0 -2.821198837983e-04 
-5.962549057611e-04 -2.242943986441e-04 0.0 
-2.242943986441e-04 3.850260609285e-03 0.0 
0.0 0.0 -5.942115541274e-04 
-4.821057558984e-04 1.938812463927e-04 0.0 
1.938812463927e-04 3.093517382699e-03 0.0 
0.0 0.0 -4.980019828625e-04 
-1.334956243324e-03 1.593537991863e-05 0.0 
1.593537991863e-05 9.100113722888e-03 0.0 
0.0 0.0 -1.322396863610e-03 
-1.341641872583e-03 -1.598087186618e-05 0.0 
-1.598087186618e-05 8.845353034364e-03 0.0 
0.0 0.0 -1.341641872583e-03 
-6.679494605951e-04 -1.695756001761e-04 0.0 
-1.695756001761e-04 4.277020538631e-03 0.0 
0.0 0.0 -6.580288049735e-04 
-7.324961324261e-04 -1.951613493016e-04 0.0 
-1.951613493016e-04 4.877737690436e-03 0.0 
0.0 0.0 -7.385580096348e-04 
-8.320090833607e-04 1.945702263430e-04 0.0 
1.945702263430e-04 5.445258436908e-03 0.0 
0.0 0.0 -8.323457052078e-04 
-1.163041303964e-03 1.778772476614e-04 0.0 
1.778772476614e-04 7.881722024609e-03 0.0 
0.0 0.0 -1.177278300149e-03 
-2.899237030429e-04 1.996200503921e-04 0.0 
1.996200503921e-04 1.630038568431e-03 0.0 
0.0 0.0 -2.880367495917e-04 
-1.101530990218e-03 1.937554819911e-04 0.0 
1.937554819911e-04 7.342981690998e-03 0.0 
0.0 0.0 -1.104707344597e-03 
-1.602377275385e-04 3.299975488627e-05 0.0 
3.299975488627e-05 1.021185104458e-03 0.0 
0.0 0.0 -1.612556504808e-04 
-6.771993620365e-04 -1.961964403489e-04 0.0 
-1.961964403489e-04 4.422374575330e-03 0.0 
0.0 0.0 -6.724657308136e-04 
-7.463531003114e-04 -1.974750822578e-04 0.0 
-1.974750822578e-04 4.938620865557e-03 0.0 
0.0 0.0 -7.470513223636e-04 
-9.733051936618e-05 1.431354683527e-05 0.0 
1.431354683527e-05 3.247181541799e-04 0.0 
0.0 0.0 -9.745184349161e-05 
-6.107893375519e-04 1.961955655377e-04 0.0 
1.961955655377e-04 4.041501780347e-03 0.0 
0.0 0.0 -6.267591816330e-04 
-1.179150888516e-03 1.722766776771e-04 0.0 
1.722766776771e-04 7.845621701176e-03 0.0 
0.0 0.0 -1.176862138969e-03 
-5.380435756070e-05 -4.751466869097e-06 0.0 
-4.751466869097e-06 2.532858114077e-04 0.0 
0.0 0.0 -4.590328595372e-05 
-7.312532489837e-04 1.362386611746e-05 0.0 
1.362386611746e-05 4.573834094121e-03 0.0 
0.0 0.0 -7.322753781719e-04 
-7.047922472484e-04 1.123922026654e-06 0.0 
1.123922026654e-06 4.847576831705e-03 0.0 
0.0 0.0 -7.130472889423e-04 
-9.547380700052e-04 -1.945366017599e-04 0.0 
-1.945366017599e-04 6.390005998802e-03 0.0 
0.0 0.0 -9.552000144736e-04 
-4.877659469443e-04 -1.909239420502e-04 0.0 
-1.909239420502e-04 3.137535928941e-03 0.0 
0.0 0.0 -4.943513106837e-04 
-4.803168808599e-04 1.981666947026e-04 0.0 
1.981666947026e-04 2.999843219209e-03 0.0 
0.0 0.0 -4.817493388239e-04 
-3.413576717745e-04 -1.696251700452e-04 0.0 
-1.696251700452e-04 2.103971295735e-03 0.0 
0.0 0.0 -3.398054741319e-04 
-1.177842708252e-03 1.745516882077e-04 0.0 
1.745516882077e-04 7.866046843566e-03 0.0 
0.0 0.0 -1.180895453064e-03 
-1.288113258455e-03 -7.910099866473e-06 0.0 
-7.910099866473e-06 8.468043511099e-03 0.0 
0.0 0.0 -1.286194385238e-03 
-1.101033919243e-03 -1.960948394901e-04 0.0 
-1.960948394901e-04 7.394725323298e-03 0.0 
0.0 0.0 -1.101088927253e-03 
-4.503494869687e-04 -1.637033152419e-04 0.0 
-1.637033152419e-04 2.832512250195e-03 0.0 
0.0 0.0 -4.457015571677e-04 
-2.141424004699e-04 2.387020000873e-04 0.0 
2.387020000873e-04 9.652683007765e-04 0.0 
0.0 0.0 -1.905831712289e-04 
-7.028954825783e-04 -1.797251013725e-04 0.0 
-1.797251013725e-04 4.605141056062e-03 0.0 
0.0 0.0 -6.999131133628e-04 
-7.213924053115e-04 -5.563189413671e-07 0.0 
-5.563189413671e-07 4.593100885078e-03 0.0 
0.0 0.0 -7.345111139194e-04 
-7.221802994753e-04 -3.459116523951e-05 0.0 
-3.459116523951e-05 4.860709319501e-03 0.0 
0.0 0.0 -7.144802219086e-04 
0.0 0.0 0.0 
0.0 0.0 0.0 
0.0 0.0 0.0 
-9.462674636507e-05 9.391315588449e-06 0.0 
9.391315588449e-06 3.155479012844e-04 0.0 
0.0 0.0 -9.468049496542e-05 
-1.889846684321e-04 -5.120829147043e-05 0.0 
-5.120829147043e-05 7.312686420689e-04 0.0 
0.0 0.0 -1.795416262981e-04 
-3.813293178289e-04 1.993773121020e-04 0.0 
1.993773121020e-04 2.301443442694e-03 0.0 
0.0 0.0 -3.820941496288e-04 
-1.147287239146e-04 2.233479330516e-06 0.0 
2.233479330516e-06 6.267336868547e-04 0.0 
0.0 0.0 -1.035694276016e-04 
-7.177698882456e-04 1.875976177193e-04 0.0 
1.875976177193e-04 4.537921580666e-03 0.0 
0.0 0.0 -6.918148876825e-04 
0.0 0.0 0.0 
0.0 0.0 0.0 
0.0 0.0 0.0 
-4.466789787722e-04 2.025807610902e-04 0.0 
2.025807610902e-04 2.763058809203e-03 0.0 
0.0 0.0 -4.482372226011e-04 
-9.484602570362e-04 5.937741420738e-05 0.0 
5.937741420738e-05 6.186307546056e-03 0.0 
0.0 0.0 -9.582560723523e-04 
-7.114040901391e-04 1.008097673958e-05 0.0 
1.008097673958e-05 4.858827396879e-03 0.0 
0.0 0.0 -7.120344407548e-04 
-1.154819602250e-03 -2.018660896654e-04 0.0 
-2.018660896654e-04 7.854075905782e-03 0.0 
0.0 0.0 -1.169483110168e-03 
-9.636351090388e-04 1.953512484906e-04 0.0 
1.953512484906e-04 6.363047776900e-03 0.0 
0.0 0.0 -9.641449249716e-04 
-9.024629704430e-04 7.830558015855e-05 0.0 
7.830558015855e-05 5.773999043953e-03 0.0 
0.0 0.0 -8.988447104697e-04 
-5.248669465082e-04 2.030027087803e-04 0.0 
2.030027087803e-04 3.352814556998e-03 0.0 
0.0 0.0 -5.269378630653e-04 
-1.557908844091e-04 -1.426598337885e-05 0.0 
-1.426598337885e-05 1.017280518651e-03 0.0 
0.0 0.0 -1.602995255322e-04 
-1.340974968048e-03 -2.076763454684e-05 0.0 
-2.076763454684e-05 8.825339797415e-03 0.0 
0.0 0.0 -1.340974968048e-03 
-1.331740677566e-03 -1.067318438996e-06 0.0 
-1.067318438996e-06 9.107204473734e-03 0.0 
0.0 0.0 -1.320295381545e-03 
-8.482992821085e-04 2.310186269769e-04 0.0 
2.310186269769e-04 5.616583664962e-03 0.0 
0.0 0.0 -8.588387843224e-04 
-7.462574470129e-04 -7.506809615133e-06 0.0 
-7.506809615133e-06 4.590636784032e-03 0.0 
0.0 0.0 -7.326073368541e-04 
-5.251543525855e-04 -1.205978746021e-04 0.0 
-1.205978746021e-04 3.428806267579e-03 0.0 
0.0 0.0 -5.314511797787e-04 
-1.323491096028e-03 -2.283744003806e-05 0.0 
-2.283744003806e-05 9.085754239402e-03 0.0 
0.0 0.0 -1.322576402756e-03 
-4.157468964118e-04 -1.918553564633e-04 0.0 
-1.918553564633e-04 2.636700862140e-03 0.0 
0.0 0.0 -4.166600706249e-04 
-7.057672473389e-04 -4.164103403377e-06 0.0 
-4.164103403377e-06 4.837446989167e-03 0.0 
0.0 0.0 -7.125614225629e-04 
-7.131316839303e-04 7.226971892511e-06 0.0 
7.226971892511e-06 4.584933787265e-03 0.0 
0.0 0.0 -7.312775522649e-04 
-6.769264019625e-04 1.800240141216e-04 0.0 
1.800240141216e-04 4.359211225871e-03 0.0 
0.0 0.0 -6.755779900756e-04 
-1.341823989366e-03 -1.865391509117e-05 0.0 
-1.865391509117e-05 8.857424336763e-03 0.0 
0.0 0.0 -1.341823989366e-03 
-1.293765856573e-03 1.607380559237e-05 0.0 
1.607380559237e-05 9.094492997413e-03 0.0 
0.0 0.0 -1.322582685247e-03 
-1.126722208426e-04 6.998488737317e-06 0.0 
6.998488737317e-06 6.134703062311e-04 0.0 
0.0 0.0 -1.035688293187e-04 
0.0 0.0 0.0 
0.0 0.0 0.0 
0.0 0.0 0.0 
-2.390355384623e-04 1.936491639954e-04 0.0 
1.936491639954e-04 1.192457136132e-03 0.0 
0.0 0.0 -2.221130066924e-04 
-7.484754656573e-04 1.958621454920e-04 0.0 
1.958621454920e-04 4.871290639516e-03 0.0 
0.0 0.0 -7.497705102653e-04 
-1.223848934685e-03 2.347738204730e-04 0.0 
2.347738204730e-04 8.231542695031e-03 0.0 
0.0 0.0 -1.224669017856e-03 
-3.851215442265e-05 -6.758275575605e-05 0.0 
-6.758275575605e-05 2.149841041377e-04 0.0 
0.0 0.0 -4.506945562690e-05 
-1.095035538177e-03 -2.135230687798e-04 0.0 
-2.135230687798e-04 7.297496536284e-03 0.0 
0.0 0.0 -1.092518628633e-03 
0.0 0.0 0.0 
0.0 0.0 0.0 
0.0 0.0 0.0 
-9.497696422961e-04 1.942166615207e-04 0.0 
1.942166615207e-04 6.260470679264e-03 0.0 
0.0 0.0 -9.493083249531e-04 
-6.288110034395e-05 6.701081411356e-06 0.0 
6.701081411356e-06 2.758850751309e-04 0.0 
0.0 0.0 -4.591043399908e-05 
-6.241905191399e-05 -2.511621330169e-05 0.0 
-2.511621330169e-05 2.635940123717e-04 0.0 
0.0 0.0 -4.615290204994e-05 
-9.135771074388e-04 1.942985431381e-04 0.0 
1.942985431381e-04 6.003773453710e-03 0.0 
0.0 0.0 -9.122568895951e-04 
-1.191044637578e-03 1.954606753199e-04 0.0 
1.954606753199e-04 7.975629465802e-03 0.0 
0.0 0.0 -1.192963836147e-03 
-9.353430265021e-04 -9.437658603170e-05 0.0 
-9.437658603170e-05 6.401376295666e-03 0.0 
0.0 0.0 -9.361271490834e-04 
-7.292657224304e-04 -1.767865209209e-04 0.0 
-1.767865209209e-04 4.795789678295e-03 0.0 
0.0 0.0 -7.268406435589e-04 
-9.710718174901e-05 -1.358771368786e-05 0.0 
-1.358771368786e-05 3.239463226278e-04 0.0 
0.0 0.0 -9.721677466234e-05 
-9.353638871596e-04 -1.962742580693e-04 0.0 
-1.962742580693e-04 6.250401807132e-03 0.0 
0.0 0.0 -9.349022313484e-04 
-1.337797817327e-03 -2.530827551252e-05 0.0 
-2.530827551252e-05 8.814034455446e-03 0.0 
0.0 0.0 -1.337797817327e-03 
-1.326036287352e-03 -1.455315038833e-04 0.0 
-1.455315038833e-04 9.082015863418e-03 0.0 
0.0 0.0 -1.322354755130e-03 
-7.123437340294e-04 1.173862101606e-05 0.0 
1.173862101606e-05 4.855322276952e-03 0.0 
0.0 0.0 -7.125764448434e-04 
-9.860203699540e-04 1.899915039945e-04 0.0 
1.899915039945e-04 6.516626141222e-03 0.0 
0.0 0.0 -9.863757069361e-04 
-1.341607717199e-03 1.356557150833e-05 0.0 
1.356557150833e-05 8.840587029738e-03 0.0 
0.0 0.0 -1.341607717199e-03 
-1.048314093038e-03 -2.082351981234e-04 0.0 
-2.082351981234e-04 7.019832661667e-03 0.0 
0.0 0.0 -1.046710270629e-03 
-1.675301838823e-04 4.109428891396e-05 0.0 
4.109428891396e-05 9.648536059596e-04 0.0 
0.0 0.0 -1.589907658001e-04 
-1.067672517152e-04 -9.583258243249e-06 0.0 
-9.583258243249e-06 6.200113654204e-04 0.0 
0.0 0.0 -1.029725306715e-04 
-1.028842676796e-04 -4.314994342259e-05 0.0 
-4.314994342259e-05 3.453649952318e-04 0.0 
0.0 0.0 -1.039203118081e-04 
-5.871622493136e-04 1.953666188975e-04 0.0 
1.953666188975e-04 3.814212399552e-03 0.0 
0.0 0.0 -5.933358154923e-04 
-1.333672766825e-03 -1.202212504052e-04 0.0 
-1.202212504052e-04 9.086271765214e-03 0.0 
0.0 0.0 -1.322828574513e-03 
-1.249098589656e-03 -2.325383237371e-04 0.0 
-2.325383237371e-04 8.487130897030e-03 0.0 
0.0 0.0 -1.258329778789e-03 
0.0 0.0 0.0 
0.0 0.0 0.0 
0.0 0.0 0.0 
-6.989700289776e-04 -1.857489314676e-04 0.0 
-1.857489314676e-04 4.509333602690e-03 0.0 
0.0 0.0 -6.938761155152e-04 
-1.344798314370e-03 5.494387484637e-06 0.0 
5.494387484637e-06 8.860415151620e-03 0.0 
0.0 0.0 -1.344798314370e-03 
-1.337322942170e-03 3.677431177350e-05 0.0 
3.677431177350e-05 9.118625106116e-03 0.0 
0.0 0.0 -1.318785251170e-03 
-1.303755075695e-03 1.430690451439e-06 0.0 
1.430690451439e-06 9.096198326928e-03 0.0 
0.0 0.0 -1.321151187552e-03 
-1.034449558172e-03 2.142439693304e-04 0.0 
2.142439693304e-04 6.840882471351e-03 0.0 
0.0 0.0 -1.027148381742e-03 
-1.117879717661e-03 -2.162737768218e-04 0.0 
-2.162737768218e-04 7.549121072969e-03 0.0 
0.0 0.0 -1.125709525796e-03 
-1.338030260144e-03 -6.968280175079e-06 0.0 
-6.968280175079e-06 8.819304319896e-03 0.0 
0.0 0.0 -1.338030260144e-03 
-1.340754991027e-03 -2.793160050154e-05 0.0 
-2.793160050154e-05 8.842227493663e-03 0.0 
0.0 0.0 -1.340754991027e-03 
-1.084387157107e-03 1.756228747119e-04 0.0 
1.756228747119e-04 7.304356114432e-03 0.0 
0.0 0.0 -1.092518628634e-03 
-2.311762207506e-05 7.524747598176e-05 0.0 
7.524747598176e-05 1.841595127811e-04 0.0 
0.0 0.0 -4.541545915403e-05 
-7.129930244863e-04 -1.525724795116e-06 0.0 
-1.525724795116e-06 4.814692496190e-03 0.0 
0.0 0.0 -7.139539158865e-04 
-7.213897068280e-04 3.016260299782e-05 0.0 
3.016260299782e-05 4.878464797693e-03 0.0 
0.0 0.0 -7.133642253441e-04 
0.0 0.0 0.0 
0.0 0.0 0.0 
0.0 0.0 0.0 
-1.342313591240e-03 1.055329185638e-05 0.0 
1.055329185638e-05 8.873951644270e-03 0.0 
0.0 0.0 -1.342313591240e-03 
-1.336661786255e-03 2.540411115353e-05 0.0 
2.540411115353e-05 9.107640988403e-03 0.0 
0.0 0.0 -1.318355947622e-03 
-1.337959751097e-03 6.489046299885e-07 0.0 
6.489046299885e-07 8.814031058647e-03 0.0 
0.0 0.0 -1.337959751097e-03 
-6.887950874124e-05 7.326700540873e-06 0.0 
7.326700540873e-06 2.659430667850e-04 0.0 
0.0 0.0 -4.582974829071e-05 
-7.021790639444e-05 9.602649528326e-06 0.0 
9.602649528326e-06 2.736498867396e-04 0.0 
0.0 0.0 -4.591370119938e-05 
-1.340754991027e-03 -1.163411170853e-06 0.0 
-1.163411170853e-06 8.829041487509e-03 0.0 
0.0 0.0 -1.340754991027e-03 
-1.340396196526e-03 -2.044778395459e-05 0.0 
-2.044778395459e-05 8.820055094331e-03 0.0 
0.0 0.0 -1.340396196526e-03 
-1.016763022878e-03 -2.313272643621e-04 0.0 
-2.313272643621e-04 6.613286649783e-03 0.0 
0.0 0.0 -9.936726122374e-04 
-7.156761650400e-04 3.174630435051e-05 0.0 
3.174630435051e-05 4.813106322843e-03 0.0 
0.0 0.0 -7.124851972278e-04 
-1.051691578887e-03 -2.268729750205e-04 0.0 
-2.268729750205e-04 7.069453692283e-03 0.0 
0.0 0.0 -1.060142436171e-03 
-8.856361613045e-04 -2.246794552562e-04 0.0 
-2.246794552562e-04 5.656932423438e-03 0.0 
0.0 0.0 -8.626607521899e-04 
-6.974461573379e-04 1.315776503887e-05 0.0 
1.315776503887e-05 4.815685979733e-03 0.0 
0.0 0.0 -7.121912678902e-04 
-3.076401957522e-05 3.630205513184e-05 0.0 
3.630205513184e-05 2.492584121326e-04 0.0 
0.0 0.0 -4.495577515415e-05 
-4.859098010839e-05 -3.737210181648e-05 0.0 
-3.737210181648e-05 2.860304098853e-04 0.0 
0.0 0.0 -4.591167563965e-05 
-3.185160578242e-05 -1.142237180323e-05 0.0 
-1.142237180323e-05 2.469612253318e-04 0.0 
0.0 0.0 -4.589015575604e-05 
-4.731421252786e-05 -1.226097571219e-05 0.0 
-1.226097571219e-05 2.659450080895e-04 0.0 
0.0 0.0 -4.556578909549e-05 
-7.410966517880e-04 2.317413733404e-04 0.0 
2.317413733404e-04 4.761489269815e-03 0.0 
0.0 0.0 -7.271325101417e-04 
-6.567236663823e-04 2.031409226008e-04 0.0 
2.031409226008e-04 4.278704049819e-03 0.0 
0.0 0.0 -6.600769387058e-04 
0.0 0.0 0.0 
0.0 0.0 0.0 
0.0 0.0 0.0 
-9.198692932468e-04 2.207519103488e-04 0.0 
2.207519103488e-04 6.164531821473e-03 0.0 
0.0 0.0 -9.221709323543e-04 
0.0 0.0 0.0 
0.0 0.0 0.0 
0.0 0.0 0.0 
-1.341471640605e-03 5.425770365488e-06 0.0 
5.425770365488e-06 8.820837432317e-03 0.0 
0.0 0.0 -1.341471640605e-03 
-1.340968685557e-03 1.249741243790e-05 0.0 
1.249741243790e-05 8.807656416615e-03 0.0 
0.0 0.0 -1.340968685557e-03 
-1.339320413496e-03 -6.736119072763e-06 0.0 
-6.736119072763e-06 8.832654043149e-03 0.0 
0.0 0.0 -1.339320413496e-03 
-2.516213945074e-04 2.377641770174e-04 0.0 
2.377641770174e-04 1.477950192533e-03 0.0 
0.0 0.0 -2.599136149544e-04 
-4.499622910390e-04 2.064665423492e-04 0.0 
2.064665423492e-04 2.879856921820e-03 0.0 
0.0 0.0 -4.607467809507e-04 
-1.337132911908e-03 -4.793528436990e-06 0.0 
-4.793528436990e-06 8.820087587172e-03 0.0 
0.0 0.0 -1.337132911908e-03 
-1.120160542764e-03 1.885503644173e-04 0.0 
1.885503644173e-04 7.560722239950e-03 0.0 
0.0 0.0 -1.124956933753e-03 
-1.344556937803e-03 -2.104246713846e-05 0.0 
-2.104246713846e-05 8.860523593132e-03 0.0 
0.0 0.0 -1.344556937803e-03 
-1.195658010449e-03 2.008624552429e-04 0.0 
2.008624552429e-04 8.028011251529e-03 0.0 
0.0 0.0 -1.192538251246e-03 
-1.264541089761e-03 2.315838415430e-04 0.0 
2.315838415430e-04 8.498729307699e-03 0.0 
0.0 0.0 -1.259905836238e-03 
-6.219774932840e-04 -2.035330289393e-04 0.0 
-2.035330289393e-04 4.041759494414e-03 0.0 
0.0 0.0 -6.267460875326e-04 
-1.333336577702e-03 -3.290028368553e-05 0.0 
-3.290028368553e-05 9.106230716714e-03 0.0 
0.0 0.0 -1.318101597465e-03 
-1.336001964470e-03 1.162172730560e-04 0.0 
1.162172730560e-04 9.090958479552e-03 0.0 
0.0 0.0 -1.321689849711e-03 
-1.157015842751e-03 -2.064363215114e-04 0.0 
-2.064363215114e-04 7.737243073859e-03 0.0 
0.0 0.0 -1.157495185000e-03 
-1.229671491752e-03 -2.051129200289e-04 0.0 
-2.051129200289e-04 8.228478437854e-03 0.0 
0.0 0.0 -1.225777420818e-03 
-9.871372975694e-04 -1.866548184674e-04 0.0 
-1.866548184674e-04 6.644402027939e-03 0.0 
0.0 0.0 -9.925156490314e-04 
0.0 0.0 0.0 
0.0 0.0 0.0 
0.0 0.0 0.0 
-6.525071487266e-04 -2.022287068404e-04 0.0 
-2.022287068404e-04 4.165983179946e-03 0.0 
0.0 0.0 -6.350241097613e-04 
-1.062777711571e-04 -2.500028508467e-05 0.0 
-2.500028508467e-05 5.975407209184e-04 0.0 
0.0 0.0 -1.030398215525e-04 
-1.177532662352e-03 -1.733616004670e-04 0.0 
-1.733616004670e-04 7.926724853394e-03 0.0 
0.0 0.0 -1.177819030284e-03 
-6.744770170931e-04 1.928269940396e-04 0.0 
1.928269940396e-04 4.352241427477e-03 0.0 
0.0 0.0 -6.753691525988e-04 
-1.095781442937e-03 1.863762097668e-04 0.0 
1.863762097668e-04 7.297090200674e-03 0.0 
0.0 0.0 -1.099016898379e-03 
-3.528730048209e-04 -1.946361167357e-04 0.0 
-1.946361167357e-04 2.176757571714e-03 0.0 
0.0 0.0 -3.504775146279e-04 
-1.550760112035e-04 1.206598951617e-04 0.0 
1.206598951617e-04 7.508446244134e-04 0.0 
0.0 0.0 -1.735952156319e-04 
-1.160601579575e-03 -1.894710886425e-04 0.0 
-1.894710886425e-04 7.820833929289e-03 0.0 
0.0 0.0 -1.161668299909e-03 
-6.889768412053e-04 -1.975061828768e-04 0.0 
-1.975061828768e-04 4.617261067584e-03 0.0 
0.0 0.0 -7.012080445024e-04 
-5.762009062567e-04 2.005988488917e-04 0.0 
2.005988488917e-04 3.584897669436e-03 0.0 
0.0 0.0 -5.611363230934e-04 
-1.093490207039e-03 -1.909491051748e-04 0.0 
-1.909491051748e-04 7.367841895943e-03 0.0 
0.0 0.0 -1.096102707776e-03 
-1.178635420303e-03 1.949598249272e-04 0.0 
1.949598249272e-04 7.912911661083e-03 0.0 
0.0 0.0 -1.188907866872e-03 
-5.561658818215e-04 -2.031625025719e-04 0.0 
-2.031625025719e-04 3.593153237093e-03 0.0 
0.0 0.0 -5.602736785587e-04 
-1.035403721303e-03 -2.031605927371e-04 0.0 
-2.031605927371e-04 6.949569291118e-03 0.0 
0.0 0.0 -1.035646790376e-03 
-9.180249208977e-04 1.931476710154e-04 0.0 
1.931476710154e-04 6.042341158293e-03 0.0 
0.0 0.0 -9.181742748318e-04 
-9.917755747799e-04 2.023242542686e-04 0.0 
2.023242542686e-04 6.575747416083e-03 0.0 
0.0 0.0 -9.952786863929e-04 
-1.024377024952e-03 1.861972783327e-04 0.0 
1.861972783327e-04 6.794579129447e-03 0.0 
0.0 0.0 -1.024224580100e-03 
-5.802650742356e-04 1.891370522917e-04 0.0 
1.891370522917e-04 3.679117002713e-03 0.0 
0.0 0.0 -5.788817793163e-04 
-6.680148396563e-04 -1.727307713496e-04 0.0 
-1.727307713496e-04 4.367645791481e-03 0.0 
0.0 0.0 -6.651338130661e-04 
-7.292546132973e-04 -1.846826388503e-04 0.0 
-1.846826388503e-04 4.813421317749e-03 0.0 
0.0 0.0 -7.293057621918e-04 
-9.374184943370e-04 1.944757919182e-04 0.0 
1.944757919182e-04 6.178932175002e-03 0.0 
0.0 0.0 -9.378562126457e-04 
-1.124743441142e-03 -2.044895248107e-04 0.0 
-2.044895248107e-04 7.578873023721e-03 0.0 
0.0 0.0 -1.125100902632e-03 
-1.057275381377e-03 1.952239226914e-04 0.0 
1.952239226914e-04 7.019062258926e-03 0.0 
0.0 0.0 -1.053755873404e-03 
-3.652721065736e-04 1.996025403978e-04 0.0 
1.996025403978e-04 2.192815232503e-03 0.0 
0.0 0.0 -3.685493992842e-04 
-1.164581229115e-03 2.188850811809e-04 0.0 
2.188850811809e-04 7.900774321480e-03 0.0 
0.0 0.0 -1.183514100502e-03 
-1.119628239997e-03 2.087348229959e-04 0.0 
2.087348229959e-04 7.433542979004e-03 0.0 
0.0 0.0 -1.117084069417e-03 
-8.143956589139e-04 2.341244742851e-04 0.0 
2.341244742851e-04 5.337741611520e-03 0.0 
0.0 0.0 -8.110481619253e-04 
-9.749777922597e-04 1.939288930454e-04 0.0 
1.939288930454e-04 6.440647276838e-03 0.0 
0.0 0.0 -9.753747863247e-04 
-9.652234430735e-04 1.970752514855e-04 0.0 
1.970752514855e-04 6.378006768513e-03 0.0 
0.0 0.0 -9.665592132828e-04 
-1.194888926874e-03 -2.112261199246e-04 0.0 
-2.112261199246e-04 8.020188826812e-03 0.0 
0.0 0.0 -1.185362187646e-03 
-1.151241251503e-03 1.853138580095e-04 0.0 
1.853138580095e-04 7.714994671460e-03 0.0 
0.0 0.0 -1.150972777267e-03 
-8.863019395197e-04 -1.951602003696e-04 0.0 
-1.951602003696e-04 5.913977900844e-03 0.0 
0.0 0.0 -8.866930489607e-04 
-1.183768845123e-03 -1.944166925085e-04 0.0 
-1.944166925085e-04 8.022430172970e-03 0.0 
0.0 0.0 -1.190872049285e-03 
-1.103203670140e-03 1.932633349999e-04 0.0 
1.932633349999e-04 7.339211362922e-03 0.0 
0.0 0.0 -1.103416240745e-03 
-1.053347130920e-03 -1.808067663282e-04 0.0 
-1.808067663282e-04 7.018991585010e-03 0.0 
0.0 0.0 -1.053748284807e-03 
-1.207301516059e-03 -2.189374092153e-04 0.0 
-2.189374092153e-04 8.148472988394e-03 0.0 
0.0 0.0 -1.210017230578e-03 
-1.183451424094e-03 -2.064186268461e-04 0.0 
-2.064186268461e-04 7.961006455012e-03 0.0 
0.0 0.0 -1.181737430652e-03 
-1.012410866899e-03 -2.064236493361e-04 0.0 
-2.064236493361e-04 6.767125967856e-03 0.0 
0.0 0.0 -1.011817915138e-03 
-9.978825943571e-04 -1.946964301518e-04 0.0 
-1.946964301518e-04 6.692413921007e-03 0.0 
0.0 0.0 -9.985655989919e-04 
-3.618458064176e-04 1.902703540337e-04 0.0 
1.902703540337e-04 2.182295586331e-03 0.0 
0.0 0.0 -3.644364776638e-04 
-3.396688960242e-04 1.922383374584e-04 0.0 
1.922383374584e-04 2.020949841441e-03 0.0 
0.0 0.0 -3.414758422231e-04 
-2.048022796594e-04 -2.337971245162e-04 0.0 
-2.337971245162e-04 1.038657557028e-03 0.0 
0.0 0.0 -1.876370064529e-04 
-1.053265806659e-04 1.589966792234e-06 0.0 
1.589966792234e-06 6.159987105294e-04 0.0 
0.0 0.0 -1.032036840373e-04 
-1.146654591444e-03 -2.036534213009e-04 0.0 
-2.036534213009e-04 7.733548266154e-03 0.0 
0.0 0.0 -1.150998037120e-03 
-1.153371435519e-03 1.929566661378e-04 0.0 
1.929566661378e-04 7.706474852566e-03 0.0 
0.0 0.0 -1.156839719840e-03 
-1.023100123294e-04 6.333767357802e-06 0.0 
6.333767357802e-06 5.922537874641e-04 0.0 
0.0 0.0 -1.029284987275e-04 
-1.152902847458e-03 -1.945944093032e-04 0.0 
-1.945944093032e-04 7.806589318492e-03 0.0 
0.0 0.0 -1.160298666437e-03 
-8.240593874314e-04 2.133386610705e-04 0.0 
2.133386610705e-04 5.515954645069e-03 0.0 
0.0 0.0 -8.436798659344e-04 
-1.063159338098e-03 -2.000353252038e-04 0.0 
-2.000353252038e-04 7.170931875512e-03 0.0 
0.0 0.0 -1.067477449466e-03 
-1.091085119062e-03 1.926591161237e-04 0.0 
1.926591161237e-04 7.245677048731e-03 0.0 
0.0 0.0 -1.090430023688e-03 
-5.083685843408e-04 1.854528112905e-04 0.0 
1.854528112905e-04 3.184990427277e-03 0.0 
0.0 0.0 -5.090628918580e-04 
-1.088419020765e-03 -1.985610050621e-04 0.0 
-1.985610050621e-04 7.308442647816e-03 0.0 
0.0 0.0 -1.087955833448e-03 
-8.052736907314e-04 -2.707602780886e-04 0.0 
-2.707602780886e-04 5.346563189152e-03 0.0 
0.0 0.0 -8.100176300978e-04 
-1.002877096566e-03 -1.976880564897e-04 0.0 
-1.976880564897e-04 6.706443384887e-03 0.0 
0.0 0.0 -1.000388816061e-03 
-1.231169607282e-03 2.234727540429e-04 0.0 
2.234727540429e-04 8.305282306820e-03 0.0 
0.0 0.0 -1.242964905849e-03 
-3.519355017218e-04 1.472413134465e-04 0.0 
1.472413134465e-04 2.089181619658e-03 0.0 
0.0 0.0 -3.542437553904e-04 
-1.221302329282e-03 -1.674357911946e-04 0.0 
-1.674357911946e-04 8.209373583472e-03 0.0 
0.0 0.0 -1.215045542354e-03 
-1.047850802636e-03 -1.881582153281e-04 0.0 
-1.881582153281e-04 7.026769425363e-03 0.0 
0.0 0.0 -1.048288725887e-03 
-3.889604497647e-04 2.037169653350e-04 0.0 
2.037169653350e-04 2.380154464468e-03 0.0 
0.0 0.0 -3.930611257745e-04 
-4.005955795872e-04 -1.795528067477e-04 0.0 
-1.795528067477e-04 2.551679544193e-03 0.0 
0.0 0.0 -4.034900192350e-04 
-7.895600060851e-04 1.993051337406e-04 0.0 
1.993051337406e-04 5.154958880860e-03 0.0 
0.0 0.0 -7.909606353592e-04 
-9.478370252282e-04 2.028022273917e-04 0.0 
2.028022273917e-04 6.213549732246e-03 0.0 
0.0 0.0 -9.409807611877e-04 
-5.389171118930e-04 1.931642811106e-04 0.0 
1.931642811106e-04 3.423254400861e-03 0.0 
0.0 0.0 -5.429771841545e-04 
-1.084906178257e-03 -2.011232363261e-04 0.0 
-2.011232363261e-04 7.274950011924e-03 0.0 
0.0 0.0 -1.085119818393e-03 
-9.758201311387e-04 -2.238948292920e-04 0.0 
-2.238948292920e-04 6.526325342415e-03 0.0 
0.0 0.0 -9.816794289629e-04 
-7.681741524081e-04 1.880175807826e-04 0.0 
1.880175807826e-04 5.011383542904e-03 0.0 
0.0 0.0 -7.700930343086e-04 
-1.026480683520e-03 -1.844900629416e-04 0.0 
-1.844900629416e-04 6.842321728991e-03 0.0 
0.0 0.0 -1.021757709120e-03 
-1.057960421125e-03 -1.998047593286e-04 0.0 
-1.998047593286e-04 7.113469784678e-03 0.0 
0.0 0.0 -1.058696934625e-03 
-1.057942238941e-03 2.175749808769e-04 0.0 
2.175749808769e-04 6.964480207197e-03 0.0 
0.0 0.0 -1.050681058959e-03 
-3.033747618520e-04 -1.838242939411e-04 0.0 
-1.838242939411e-04 1.857406959021e-03 0.0 
0.0 0.0 -3.058749225436e-04 
-7.305418871957e-04 1.869626526336e-04 0.0 
1.869626526336e-04 4.754815575901e-03 0.0 
0.0 0.0 -7.328582426338e-04 
-1.136183616218e-03 2.082876610418e-04 0.0 
2.082876610418e-04 7.610878515336e-03 0.0 
0.0 0.0 -1.141128458404e-03 
-1.078434925953e-03 -1.984149302182e-04 0.0 
-1.984149302182e-04 7.234990828440e-03 0.0 
0.0 0.0 -1.078198857115e-03 
-6.621852882438e-04 2.164713360985e-04 0.0 
2.164713360985e-04 4.271535496369e-03 0.0 
0.0 0.0 -6.666835465145e-04 
-9.149083998473e-04 -1.952760623190e-04 0.0 
-1.952760623190e-04 6.113676858771e-03 0.0 
0.0 0.0 -9.153036164073e-04 
-1.187688204395e-03 -2.025883410102e-04 0.0 
-2.025883410102e-04 8.016876824675e-03 0.0 
0.0 0.0 -1.187586327529e-03 
-1.005326890981e-03 1.902074749801e-04 0.0 
1.902074749801e-04 6.713852212323e-03 0.0 
0.0 0.0 -1.013969106439e-03 
-1.909283182059e-04 -2.134343415579e-04 0.0 
-2.134343415579e-04 9.857203047886e-04 0.0 
0.0 0.0 -1.806728872115e-04 
-1.970147197369e-04 -2.059863142165e-04 0.0 
-2.059863142165e-04 1.002592449070e-03 0.0 
0.0 0.0 -1.835536028976e-04 
-3.515992897123e-04 -1.811957352846e-04 0.0 
-1.811957352846e-04 2.155411981566e-03 0.0 
0.0 0.0 -3.467375663575e-04 
-1.128856114321e-03 2.001566636705e-04 0.0 
2.001566636705e-04 7.510015093798e-03 0.0 
0.0 0.0 -1.127837695838e-03 
-9.816567297486e-04 1.933811921609e-04 0.0 
1.933811921609e-04 6.465198559992e-03 0.0 
0.0 0.0 -9.775003154318e-04 
-8.371572204409e-04 -2.148163729895e-04 0.0 
-2.148163729895e-04 5.710338305933e-03 0.0 
0.0 0.0 -8.513051444990e-04 
-8.730704368828e-04 1.896261582468e-04 0.0 
1.896261582468e-04 5.754508324044e-03 0.0 
0.0 0.0 -8.745614812816e-04 
-1.137329719499e-03 -1.941463340313e-04 0.0 
-1.941463340313e-04 7.669003078820e-03 0.0 
0.0 0.0 -1.139196670502e-03 
-7.981531024245e-04 1.892565346164e-04 0.0 
1.892565346164e-04 5.212239015909e-03 0.0 
0.0 0.0 -7.988714448434e-04 
-1.058279653052e-03 1.954206945734e-04 0.0 
1.954206945734e-04 7.042085544045e-03 0.0 
0.0 0.0 -1.061632825506e-03 
-3.556360797851e-04 -1.825172875802e-04 0.0 
-1.825172875802e-04 2.253382462632e-03 0.0 
0.0 0.0 -3.615122310665e-04 
-1.213390557451e-03 2.397950825143e-04 0.0 
2.397950825143e-04 8.136808344214e-03 0.0 
0.0 0.0 -1.211531131004e-03 
-7.660046426258e-04 -1.986537595935e-04 0.0 
-1.986537595935e-04 5.080766734255e-03 0.0 
0.0 0.0 -7.673127347790e-04 
-3.927767409548e-04 -1.941008242107e-04 0.0 
-1.941008242107e-04 2.469153154105e-03 0.0 
0.0 0.0 -3.889166325194e-04 
-7.314298842456e-04 -2.140562000032e-04 0.0 
-2.140562000032e-04 4.812028074598e-03 0.0 
0.0 0.0 -7.311132045151e-04 
-5.669903072896e-04 1.859979766969e-04 0.0 
1.859979766969e-04 3.622850524897e-03 0.0 
0.0 0.0 -5.716673668464e-04 
-4.441913073698e-04 -1.946929488680e-04 0.0 
-1.946929488680e-04 2.835535865589e-03 0.0 
0.0 0.0 -4.452767020142e-04 
-8.541353571324e-04 1.878201727380e-04 0.0 
1.878201727380e-04 5.598851307335e-03 0.0 
0.0 0.0 -8.564950983273e-04 
0.0 0.0 0.0 
0.0 0.0 0.0 
0.0 0.0 0.0 
0.0 0.0 0.0 
0.0 0.0 0.0 
0.0 0.0 0.0 
-9.633926432213e-04 -1.929125650731e-04 0.0 
-1.929125650731e-04 6.449382072422e-03 0.0 
0.0 0.0 -9.636005660098e-04 
-3.261615758852e-04 -1.754968158783e-04 0.0 
-1.754968158783e-04 2.064243752771e-03 0.0 
0.0 0.0 -3.336449385292e-04 
-9.716625480636e-04 -1.974982736353e-04 0.0 
-1.974982736353e-04 6.511810819199e-03 0.0 
0.0 0.0 -9.724388998541e-04 
-9.434553557208e-04 -1.947776052692e-04 0.0 
-1.947776052692e-04 6.314151919472e-03 0.0 
0.0 0.0 -9.438473481109e-04 
-6.149570530546e-04 1.958377041271e-04 0.0 
1.958377041271e-04 3.946002749694e-03 0.0 
0.0 0.0 -6.177757646845e-04 
-4.134741271646e-04 1.981876295034e-04 0.0 
1.981876295034e-04 2.543324249367e-03 0.0 
0.0 0.0 -4.162223005415e-04 
-1.136715502842e-03 -2.038924191314e-04 0.0 
-2.038924191314e-04 7.650435027918e-03 0.0 
0.0 0.0 -1.137719822027e-03 
-2.155883669569e-04 -8.829356196857e-05 0.0 
-8.829356196857e-05 9.573383583193e-04 0.0 
0.0 0.0 -2.047534254615e-04 
-6.021718484836e-04 1.735627083645e-04 0.0 
1.735627083645e-04 3.837011647565e-03 0.0 
0.0 0.0 -6.004815939294e-04 
-1.172134314024e-03 -1.664552663931e-04 0.0 
-1.664552663931e-04 7.890382462293e-03 0.0 
0.0 0.0 -1.175533656463e-03 
-2.822824235296e-04 1.888682444413e-04 0.0 
1.888682444413e-04 1.684200929602e-03 0.0 
0.0 0.0 -2.977570873278e-04 
-9.136045934539e-04 -1.921452035066e-04 0.0 
-1.921452035066e-04 6.056651557430e-03 0.0 
0.0 0.0 -9.088859120638e-04 
-8.340119380580e-04 -2.228113772718e-04 0.0 
-2.228113772718e-04 5.573887948832e-03 0.0 
0.0 0.0 -8.416286270284e-04 
-2.829330432205e-04 -1.923976084131e-04 0.0 
-1.923976084131e-04 1.716244531209e-03 0.0 
0.0 0.0 -2.842394630762e-04 
-1.159926400282e-03 -1.793893042656e-04 0.0 
-1.793893042656e-04 7.808824689671e-03 0.0 
0.0 0.0 -1.158722036769e-03 
-1.035589941137e-03 -1.985988582850e-04 0.0 
-1.985988582850e-04 6.933992631060e-03 0.0 
0.0 0.0 -1.034898561726e-03 
-3.359494272766e-04 1.786409644777e-04 0.0 
1.786409644777e-04 1.989232140030e-03 0.0 
0.0 0.0 -3.364655670308e-04 
-1.165152170532e-03 -1.849586778465e-04 0.0 
-1.849586778465e-04 7.849581652679e-03 0.0 
0.0 0.0 -1.166520446339e-03 
-1.171818434168e-03 1.701070722775e-04 0.0 
1.701070722775e-04 7.787163600185e-03 0.0 
0.0 0.0 -1.169001632583e-03 
-3.670484435220e-04 -2.062025335134e-04 0.0 
-2.062025335134e-04 2.310354927649e-03 0.0 
0.0 0.0 -3.701904734684e-04 
-4.878019895888e-04 -2.129991852323e-04 0.0 
-2.129991852323e-04 3.076179585064e-03 0.0 
0.0 0.0 -4.801335248058e-04 
-3.784853096696e-04 -1.951915827816e-04 0.0 
-1.951915827816e-04 2.373996755405e-03 0.0 
0.0 0.0 -3.791106726259e-04 
-1.023434568927e-03 -1.955357832442e-04 0.0 
-1.955357832442e-04 6.907952393425e-03 0.0 
0.0 0.0 -1.029923508343e-03 
-8.283537341299e-04 1.907553074043e-04 0.0 
1.907553074043e-04 5.413544228672e-03 0.0 
0.0 0.0 -8.276368238623e-04 
-1.175065292852e-03 1.838008001023e-04 0.0 
1.838008001023e-04 7.798269859187e-03 0.0 
0.0 0.0 -1.169529464977e-03 
-1.141233486497e-03 1.909358973763e-04 0.0 
1.909358973763e-04 7.594915182305e-03 0.0 
0.0 0.0 -1.140030709108e-03 
-9.986353517479e-04 -1.968060563575e-04 0.0 
-1.968060563575e-04 6.710344376515e-03 0.0 
0.0 0.0 -1.001167767022e-03 
-1.002641746751e-03 1.939099816929e-04 0.0 
1.939099816929e-04 6.639482721891e-03 0.0 
0.0 0.0 -1.004093472296e-03 
-3.170641866385e-04 1.974483890407e-04 0.0 
1.974483890407e-04 1.842860083610e-03 0.0 
0.0 0.0 -3.158693332420e-04 
-1.029368673375e-03 1.947386699307e-04 0.0 
1.947386699307e-04 6.837075470330e-03 0.0 
0.0 0.0 -1.032853941699e-03 
-1.038324079738e-03 1.969104416428e-04 0.0 
1.969104416428e-04 6.879456010501e-03 0.0 
0.0 0.0 -1.037144748481e-03 
-8.220289990508e-04 -1.901456335333e-04 0.0 
-1.901456335333e-04 5.481743507948e-03 0.0 
0.0 0.0 -8.248712778174e-04 
-9.784412971014e-04 -1.995967018581e-04 0.0 
-1.995967018581e-04 6.519224964638e-03 0.0 
0.0 0.0 -9.752741834902e-04 
-1.071043316413e-03 -2.014206266275e-04 0.0 
-2.014206266275e-04 7.187990111683e-03 0.0 
0.0 0.0 -1.071415751597e-03 
-7.449992410114e-04 1.900175048327e-04 0.0 
1.900175048327e-04 4.830596508428e-03 0.0 
0.0 0.0 -7.435371925968e-04 
-1.112301323396e-03 1.953318319137e-04 0.0 
1.953318319137e-04 7.388703494557e-03 0.0 
0.0 0.0 -1.110258267496e-03 
-7.048168666415e-04 2.103542029498e-04 0.0 
2.103542029498e-04 4.551180166485e-03 0.0 
0.0 0.0 -6.965171720950e-04 
-7.978310569569e-04 -1.996626955201e-04 0.0 
-1.996626955201e-04 5.282133349968e-03 0.0 
0.0 0.0 -7.960639764766e-04 
-5.335116196932e-04 2.239231297757e-04 0.0 
2.239231297757e-04 3.386453430155e-03 0.0 
0.0 0.0 -5.342291996904e-04 
-5.553576446558e-04 -1.816268034184e-04 0.0 
-1.816268034184e-04 3.628347878161e-03 0.0 
0.0 0.0 -5.581583723280e-04 
-1.010310088917e-03 1.967228699853e-04 0.0 
1.967228699853e-04 6.672709965049e-03 0.0 
0.0 0.0 -1.007339817349e-03 
-7.628577911211e-04 -1.911605880287e-04 0.0 
-1.911605880287e-04 5.057166832743e-03 0.0 
0.0 0.0 -7.637833264599e-04 
-4.056535220845e-04 -1.994601543413e-04 0.0 
-1.994601543413e-04 2.573810220736e-03 0.0 
0.0 0.0 -4.077494273363e-04 
-2.235505229120e-04 -1.665382784811e-04 0.0 
-1.665382784811e-04 1.264629605483e-03 0.0 
0.0 0.0 -2.185673950299e-04 
-1.005369566171e-03 -1.969282844887e-04 0.0 
-1.969282844887e-04 6.726819346583e-03 0.0 
0.0 0.0 -1.005115000480e-03 
-4.096373717980e-04 1.964452207256e-04 0.0 
1.964452207256e-04 2.501615904785e-03 0.0 
0.0 0.0 -4.107160730352e-04 
-1.196795855234e-03 2.010644044310e-04 0.0 
2.010644044310e-04 8.139442919111e-03 0.0 
0.0 0.0 -1.218716866995e-03 
-1.042807145316e-03 1.952121137199e-04 0.0 
1.952121137199e-04 6.924647329534e-03 0.0 
0.0 0.0 -1.043883448597e-03 
-1.067869276876e-03 1.919364052357e-04 0.0 
1.919364052357e-04 7.100655193935e-03 0.0 
0.0 0.0 -1.070373463590e-03 
-1.283006779812e-03 -2.454005743877e-05 0.0 
-2.454005743877e-05 8.441304095904e-03 0.0 
0.0 0.0 -1.284729618418e-03 
-6.611541786482e-04 -2.165377279582e-04 0.0 
-2.165377279582e-04 4.358180230514e-03 0.0 
0.0 0.0 -6.637377122259e-04 
-3.719232158050e-04 1.946095876175e-04 0.0 
1.946095876175e-04 2.237835984063e-03 0.0 
0.0 0.0 -3.731618544808e-04 
-2.509805120977e-04 2.101438879212e-04 0.0 
2.101438879212e-04 1.370179870162e-03 0.0 
0.0 0.0 -2.496210768721e-04 
-1.009272610852e-03 -1.976905948494e-04 0.0 
-1.976905948494e-04 6.773236228030e-03 0.0 
0.0 0.0 -1.009908742814e-03 
-9.502891484141e-04 2.008015227702e-04 0.0 
2.008015227702e-04 6.263291661127e-03 0.0 
0.0 0.0 -9.473489374553e-04 
-1.787867007396e-04 1.721284507092e-04 0.0 
1.721284507092e-04 9.234900215081e-04 0.0 
0.0 0.0 -1.858848441742e-04 
-5.306487836806e-04 -1.980238622701e-04 0.0 
-1.980238622701e-04 3.494279541485e-03 0.0 
0.0 0.0 -5.400474096907e-04 
-3.064883048416e-04 -1.749693241531e-04 0.0 
-1.749693241531e-04 2.001263288359e-03 0.0 
0.0 0.0 -3.246070344129e-04 
-9.392936976827e-04 -1.862704497829e-04 0.0 
-1.862704497829e-04 6.266809515345e-03 0.0 
0.0 0.0 -9.387834224271e-04 
-5.480159981423e-04 -2.100359931435e-04 0.0 
-2.100359931435e-04 3.693369469425e-03 0.0 
0.0 0.0 -5.687878759048e-04 
-9.467150260524e-04 1.924065934847e-04 0.0 
1.924065934847e-04 6.242240235616e-03 0.0 
0.0 0.0 -9.467935652645e-04 
-5.428455294622e-04 -2.085125102257e-04 0.0 
-2.085125102257e-04 3.415670535467e-03 0.0 
0.0 0.0 -5.337555413938e-04 
-1.117346964304e-03 -2.071110090059e-04 0.0 
-2.071110090059e-04 7.492505049919e-03 0.0 
0.0 0.0 -1.114809527198e-03 
-4.745048492879e-04 1.992195964991e-04 0.0 
1.992195964991e-04 2.965213732964e-03 0.0 
0.0 0.0 -4.768663991247e-04 
-1.019084130149e-03 -1.971234603784e-04 0.0 
-1.971234603784e-04 6.834832976306e-03 0.0 
0.0 0.0 -1.018590841688e-03 
-3.372917149944e-04 -1.912349410902e-04 0.0 
-1.912349410902e-04 2.104646860584e-03 0.0 
0.0 0.0 -3.376433569222e-04 
-9.810862783946e-04 -1.972875806497e-04 0.0 
-1.972875806497e-04 6.573374097127e-03 0.0 
0.0 0.0 -9.812220007866e-04 
-7.630262787412e-04 -1.649240710624e-04 0.0 
-1.649240710624e-04 5.040550269950e-03 0.0 
0.0 0.0 -7.604224332210e-04 
-1.040603755793e-03 1.933348900592e-04 0.0 
1.933348900592e-04 6.902261502476e-03 0.0 
0.0 0.0 -1.041555045145e-03 
-5.360677599799e-04 1.876482889456e-04 0.0 
1.876482889456e-04 3.380336319223e-03 0.0 
0.0 0.0 -5.350282927002e-04 
-3.256683131977e-04 2.104859329235e-04 0.0 
2.104859329235e-04 1.909139084910e-03 0.0 
0.0 0.0 -3.277310168338e-04 
-8.709310065231e-04 -1.930857458815e-04 0.0 
-1.930857458815e-04 5.840506173077e-03 0.0 
0.0 0.0 -8.787268422831e-04 
-9.478935846188e-04 -1.922017527602e-04 0.0 
-1.922017527602e-04 6.329496652854e-03 0.0 
0.0 0.0 -9.464297096767e-04 
-6.788789609641e-04 1.916120147783e-04 0.0 
1.916120147783e-04 4.369175427210e-03 0.0 
0.0 0.0 -6.776081642141e-04 
-9.468425740780e-04 -2.085300673065e-04 0.0 
-2.085300673065e-04 6.298374618209e-03 0.0 
0.0 0.0 -9.453210152248e-04 
-3.756080425156e-04 -1.934039556713e-04 0.0 
-1.934039556713e-04 2.352414382127e-03 0.0 
0.0 0.0 -3.758914132629e-04 
-9.664473934007e-04 1.935643871513e-04 0.0 
1.935643871513e-04 6.379409966944e-03 0.0 
0.0 0.0 -9.642804585795e-04 
-3.026576237446e-04 -1.928297610963e-04 0.0 
-1.928297610963e-04 1.798935007683e-03 0.0 
0.0 0.0 -2.947674122297e-04 
-1.153179427147e-03 -2.051549704311e-04 0.0 
-2.051549704311e-04 7.761192827607e-03 0.0 
0.0 0.0 -1.150402778756e-03 
-9.838604339424e-04 -1.907200549991e-04 0.0 
-1.907200549991e-04 6.585836583388e-03 0.0 
0.0 0.0 -9.834711240942e-04 
-1.039448222436e-03 -1.939988089318e-04 0.0 
-1.939988089318e-04 6.961176011231e-03 0.0 
0.0 0.0 -1.037051012011e-03 
-1.209610339595e-03 -2.064055054886e-04 0.0 
-2.064055054886e-04 8.130245976668e-03 0.0 
0.0 0.0 -1.204463612412e-03 
-8.289278457568e-04 -1.937873946282e-04 0.0 
-1.937873946282e-04 5.514638524943e-03 0.0 
0.0 0.0 -8.294769417472e-04 
-3.109821114722e-04 1.906924358190e-04 0.0 
1.906924358190e-04 1.784796369805e-03 0.0 
0.0 0.0 -3.081489256106e-04 
-9.237752216618e-04 -1.945449657843e-04 0.0 
-1.945449657843e-04 6.173770782065e-03 0.0 
0.0 0.0 -9.239488535170e-04 
-1.191042257491e-03 2.067698926502e-04 0.0 
2.067698926502e-04 7.951909524645e-03 0.0 
0.0 0.0 -1.189963100592e-03 
-4.775062598439e-04 -1.845893080325e-04 0.0 
-1.845893080325e-04 3.071724244623e-03 0.0 
0.0 0.0 -4.786098583285e-04 
-1.036708665275e-03 -1.995575756553e-04 0.0 
-1.995575756553e-04 6.972509629402e-03 0.0 
0.0 0.0 -1.038675661098e-03 
-1.042240091366e-03 -2.028158867282e-04 0.0 
-2.028158867282e-04 6.979443732142e-03 0.0 
0.0 0.0 -1.041631482750e-03 
-3.838009065759e-04 1.994121048007e-04 0.0 
1.994121048007e-04 2.344808306372e-03 0.0 
0.0 0.0 -3.880698300753e-04 
-9.524861751469e-04 -1.961707644155e-04 0.0 
-1.961707644155e-04 6.373861031903e-03 0.0 
0.0 0.0 -9.525765839929e-04 
-8.586433483391e-04 -1.931078618343e-04 0.0 
-1.931078618343e-04 5.748348032680e-03 0.0 
0.0 0.0 -8.663127257149e-04 
-4.249902311886e-04 -1.873478746315e-04 0.0 
-1.873478746315e-04 2.710801804411e-03 0.0 
0.0 0.0 -4.280652785065e-04 
-5.063403877371e-04 -1.957595432946e-04 0.0 
-1.957595432946e-04 3.295220362808e-03 0.0 
0.0 0.0 -5.113914792957e-04 
-8.011417777980e-04 -1.869294440003e-04 0.0 
-1.869294440003e-04 5.307962758149e-03 0.0 
0.0 0.0 -8.004334922225e-04 
-1.012906793309e-03 1.927821333669e-04 0.0 
1.927821333669e-04 6.702583928550e-03 0.0 
0.0 0.0 -1.012809740122e-03 
-6.237702296699e-04 -1.788620839171e-04 0.0 
-1.788620839171e-04 4.053757856152e-03 0.0 
0.0 0.0 -6.201901524263e-04 
-7.654836975308e-04 -1.844361479045e-04 0.0 
-1.844361479045e-04 5.061981616524e-03 0.0 
0.0 0.0 -7.649884091348e-04 
-1.002132587578e-03 1.966152402383e-04 0.0 
1.966152402383e-04 6.628701174112e-03 0.0 
0.0 0.0 -1.000670320419e-03 
-9.160037735611e-04 2.105070801011e-04 0.0 
2.105070801011e-04 6.003693375901e-03 0.0 
0.0 0.0 -9.110000341593e-04 
-8.984996443820e-04 1.923871522476e-04 0.0 
1.923871522476e-04 5.918711205323e-03 0.0 
0.0 0.0 -8.984003255416e-04 
-7.635747983665e-04 1.700234808702e-04 0.0 
1.700234808702e-04 4.971193028469e-03 0.0 
0.0 0.0 -7.627602282935e-04 
-1.130358647028e-03 -1.898334947356e-04 0.0 
-1.898334947356e-04 7.609563538776e-03 0.0 
0.0 0.0 -1.130631056169e-03 
-8.949695730274e-04 -1.944201834166e-04 0.0 
-1.944201834166e-04 5.973169188704e-03 0.0 
0.0 0.0 -8.953295484280e-04 
-8.818948229553e-04 -1.808766535773e-04 0.0 
-1.808766535773e-04 5.810855732820e-03 0.0 
0.0 0.0 -8.720525204519e-04 
-1.180322083838e-03 -2.544019696132e-04 0.0 
-2.544019696132e-04 8.044684295215e-03 0.0 
0.0 0.0 -1.193584144721e-03 
-1.074317409630e-03 -2.028987224977e-04 0.0 
-2.028987224977e-04 7.209609754449e-03 0.0 
0.0 0.0 -1.073433710836e-03 
-9.845138767756e-04 1.933324893147e-04 0.0 
1.933324893147e-04 6.502529959442e-03 0.0 
0.0 0.0 -9.841343610905e-04 
-1.074220521467e-03 1.937044770005e-04 0.0 
1.937044770005e-04 7.133220182241e-03 0.0 
0.0 0.0 -1.073677668998e-03 
-5.827062234069e-04 -1.941542500793e-04 0.0 
-1.941542500793e-04 3.817750575136e-03 0.0 
0.0 0.0 -5.862626530915e-04 
-5.447661780291e-04 -1.955268079661e-04 0.0 
-1.955268079661e-04 3.556218869368e-03 0.0 
0.0 0.0 -5.488365039436e-04 
-3.200298242820e-04 -2.008010355192e-04 0.0 
-2.008010355192e-04 1.912733596730e-03 0.0 
0.0 0.0 -3.130684191733e-04 
-9.610361432964e-04 -1.937939784478e-04 0.0 
-1.937939784478e-04 6.432925566233e-03 0.0 
0.0 0.0 -9.612598090090e-04 
-5.730915420071e-04 -1.993284364060e-04 0.0 
-1.993284364060e-04 3.756322275087e-03 0.0 
0.0 0.0 -5.775003002374e-04 
-9.676234080517e-04 -1.978430549766e-04 0.0 
-1.978430549766e-04 6.470709836540e-03 0.0 
0.0 0.0 -9.686535345556e-04 
-9.307775843259e-04 -2.009567450900e-04 0.0 
-2.009567450900e-04 6.218061512745e-03 0.0 
0.0 0.0 -9.322463471790e-04 
-7.694630900908e-04 -1.939675917432e-04 0.0 
-1.939675917432e-04 5.091771385307e-03 0.0 
0.0 0.0 -7.690363516573e-04 
-4.826168522867e-04 1.966675666533e-04 0.0 
1.966675666533e-04 3.022691758795e-03 0.0 
0.0 0.0 -4.860199686152e-04 
-5.166152208990e-04 1.895375761803e-04 0.0 
1.895375761803e-04 3.232772262981e-03 0.0 
0.0 0.0 -5.148587792422e-04 
-5.108840173734e-04 1.960376866878e-04 0.0 
1.960376866878e-04 3.223531247209e-03 0.0 
0.0 0.0 -5.143448975765e-04 
-5.481816317278e-04 1.962623655860e-04 0.0 
1.962623655860e-04 3.484569495256e-03 0.0 
0.0 0.0 -5.517963299543e-04 
-3.453277696027e-04 1.969675537480e-04 0.0 
1.969675537480e-04 2.040898908983e-03 0.0 
0.0 0.0 -3.446931235564e-04 
-1.101052151537e-03 -1.995058256317e-04 0.0 
-1.995058256317e-04 7.411556171306e-03 0.0 
0.0 0.0 -1.101849228970e-03 
-6.632570071373e-04 1.923578636572e-04 0.0 
1.923578636572e-04 4.270077985980e-03 0.0 
0.0 0.0 -6.642957827475e-04 
-1.108318305334e-03 -2.031784349513e-04 0.0 
-2.031784349513e-04 7.443886566257e-03 0.0 
0.0 0.0 -1.107989045227e-03 
-7.011090036509e-04 1.927949869008e-04 0.0 
1.927949869008e-04 4.532588404756e-03 0.0 
0.0 0.0 -7.013039408444e-04 
-9.265731680826e-04 1.957284230983e-04 0.0 
1.957284230983e-04 6.103426765876e-03 0.0 
0.0 0.0 -9.268471029392e-04 
-7.946469523286e-04 1.955747403875e-04 0.0 
1.955747403875e-04 5.185524606882e-03 0.0 
0.0 0.0 -7.951651613512e-04 
-7.572756681299e-04 -1.872685007042e-04 0.0 
-1.872685007042e-04 5.004494979540e-03 0.0 
0.0 0.0 -7.567435594048e-04 
-3.404029927324e-04 -1.917944120496e-04 0.0 
-1.917944120496e-04 2.114741006724e-03 0.0 
0.0 0.0 -3.417109511102e-04 
-1.168366620594e-03 1.821653519024e-04 0.0 
1.821653519024e-04 7.733894625142e-03 0.0 
0.0 0.0 -1.161691925552e-03 
-1.208283455631e-03 -2.138622136652e-04 0.0 
-2.138622136652e-04 8.118515122607e-03 0.0 
0.0 0.0 -1.198716319349e-03 
-9.647894746907e-04 1.840623527821e-04 0.0 
1.840623527821e-04 6.374025584992e-03 0.0 
0.0 0.0 -9.650368815299e-04 
-5.866113351029e-04 1.997061311369e-04 0.0 
1.997061311369e-04 3.745701321029e-03 0.0 
0.0 0.0 -5.892385666867e-04 
-8.606873822814e-04 1.952603744915e-04 0.0 
1.952603744915e-04 5.644314043148e-03 0.0 
0.0 0.0 -8.609535187098e-04 
-9.731621015165e-04 2.042240848123e-04 0.0 
2.042240848123e-04 6.416634786867e-03 0.0 
0.0 0.0 -9.708520278613e-04 
-6.114505218060e-04 -1.970451499323e-04 0.0 
-1.970451499323e-04 4.016656707276e-03 0.0 
0.0 0.0 -6.148791393494e-04 
-6.402153518211e-04 -1.799304007789e-04 0.0 
-1.799304007789e-04 4.195134185684e-03 0.0 
0.0 0.0 -6.394234923164e-04 
-4.756790629449e-04 -1.970276149029e-04 0.0 
-1.970276149029e-04 3.037216567460e-03 0.0 
0.0 0.0 -4.739097840058e-04 
-4.115649622254e-04 -1.881038262711e-04 0.0 
-1.881038262711e-04 2.615008917890e-03 0.0 
0.0 0.0 -4.132304097957e-04 
-6.210949620284e-04 -1.921853512952e-04 0.0 
-1.921853512952e-04 4.079647892730e-03 0.0 
0.0 0.0 -6.236739531379e-04 
-4.389003653302e-04 1.899270358255e-04 0.0 
1.899270358255e-04 2.702990318359e-03 0.0 
0.0 0.0 -4.393534411964e-04 
-3.957050609942e-04 -2.005038904365e-04 0.0 
-2.005038904365e-04 2.512628569390e-03 0.0 
0.0 0.0 -3.988888273503e-04 
-7.912937221892e-04 -1.931036918808e-04 0.0 
-1.931036918808e-04 5.255690323409e-03 0.0 
0.0 0.0 -7.922809795675e-04 
-9.555190717992e-04 1.953941988256e-04 0.0 
1.953941988256e-04 6.303135181036e-03 0.0 
0.0 0.0 -9.554846610150e-04 
-1.131935364223e-03 1.749369794292e-04 0.0 
1.749369794292e-04 7.516475401832e-03 0.0 
0.0 0.0 -1.128610778606e-03 
-7.677587316374e-05 5.132629422694e-05 0.0 
5.132629422694e-05 2.950272314679e-04 0.0 
0.0 0.0 -4.808883996072e-05 
-6.821273879061e-04 1.885153294961e-04 0.0 
1.885153294961e-04 4.394625922574e-03 0.0 
0.0 0.0 -6.818868151027e-04 
-6.732798359077e-04 1.896419879917e-04 0.0 
1.896419879917e-04 4.334337175818e-03 0.0 
0.0 0.0 -6.732431144785e-04 
-6.253359345237e-04 1.966841986602e-04 0.0 
1.966841986602e-04 4.007688208335e-03 0.0 
0.0 0.0 -6.268095852860e-04 
-9.342352764228e-04 1.992757766659e-04 0.0 
1.992757766659e-04 6.164738867849e-03 0.0 
0.0 0.0 -9.344164207832e-04 
-7.286499736728e-04 1.960851222300e-04 0.0 
1.960851222300e-04 4.727094990713e-03 0.0 
0.0 0.0 -7.295442444478e-04 
-5.028967805497e-04 2.032690915996e-04 0.0 
2.032690915996e-04 3.169465929495e-03 0.0 
0.0 0.0 -5.055050897130e-04 
-6.594115462036e-04 -1.877379034349e-04 0.0 
-1.877379034349e-04 4.343026444268e-03 0.0 
0.0 0.0 -6.611654675676e-04 
-1.086852433707e-03 1.972393602690e-04 0.0 
1.972393602690e-04 7.180508805687e-03 0.0 
0.0 0.0 -1.080452943103e-03 
-5.134906191046e-04 -1.975407525199e-04 0.0 
-1.975407525199e-04 3.241783811479e-03 0.0 
0.0 0.0 -5.025663706543e-04 
-2.068765507079e-04 1.780811299395e-04 0.0 
1.780811299395e-04 1.103158600140e-03 0.0 
0.0 0.0 -2.132551421006e-04 
-2.821446593325e-04 1.850947824847e-04 0.0 
1.850947824847e-04 1.595379339776e-03 0.0 
0.0 0.0 -2.784575373548e-04 
-4.423162808512e-04 1.966617048387e-04 0.0 
1.966617048387e-04 2.737975260110e-03 0.0 
0.0 0.0 -4.444240490352e-04 
-5.210766744923e-04 1.945752899053e-04 0.0 
1.945752899053e-04 3.285513932229e-03 0.0 
0.0 0.0 -5.239304829885e-04 
-7.103179674583e-04 1.937608556774e-04 0.0 
1.937608556774e-04 4.594082704701e-03 0.0 
0.0 0.0 -7.099160536912e-04 
-6.974191009825e-04 -1.859522295000e-04 0.0 
-1.859522295000e-04 4.604175499566e-03 0.0 
0.0 0.0 -6.984076724203e-04 
-3.111089899344e-04 -2.166751455615e-04 0.0 
-2.166751455615e-04 1.884393958953e-03 0.0 
0.0 0.0 -3.092759564244e-04 
-2.948433446492e-04 -2.106961415147e-04 0.0 
-2.106961415147e-04 1.651650768654e-03 0.0 
0.0 0.0 -2.765202162382e-04 
-9.029473964606e-04 -2.318038937515e-04 0.0 
-2.318038937515e-04 5.899437226641e-03 0.0 
0.0 0.0 -8.885078876198e-04 
-4.353328022797e-04 -2.074729337185e-04 0.0 
-2.074729337185e-04 2.774644133327e-03 0.0 
0.0 0.0 -4.363975895258e-04 
-1.066115861838e-03 1.923323182630e-04 0.0 
1.923323182630e-04 7.082058213666e-03 0.0 
0.0 0.0 -1.067401112627e-03 
-1.093430528172e-03 1.859529625015e-04 0.0 
1.859529625015e-04 7.265648937776e-03 0.0 
0.0 0.0 -1.093380752811e-03 
-9.055761456836e-04 -1.909848796464e-04 0.0 
-1.909848796464e-04 6.010442057108e-03 0.0 
0.0 0.0 -9.013836717722e-04 
-1.127393681638e-03 1.896887369255e-04 0.0 
1.896887369255e-04 7.503433377312e-03 0.0 
0.0 0.0 -1.126084317643e-03 
-1.155463123535e-03 1.744033292086e-04 0.0 
1.744033292086e-04 7.751673747269e-03 0.0 
0.0 0.0 -1.164310864388e-03 
-7.420687839784e-04 -1.936328330323e-04 0.0 
-1.936328330323e-04 4.896453187980e-03 0.0 
0.0 0.0 -7.408850503417e-04 
-1.028946225618e-03 1.859237494967e-04 0.0 
1.859237494967e-04 6.817745899264e-03 0.0 
0.0 0.0 -1.029042339204e-03 
-3.444765648257e-04 -1.889029113480e-04 0.0 
-1.889029113480e-04 2.157321474184e-03 0.0 
0.0 0.0 -3.474733517438e-04 
-6.874756161392e-04 -1.926159426764e-04 0.0 
-1.926159426764e-04 4.537720382930e-03 0.0 
0.0 0.0 -6.894573431515e-04 
-6.898061862195e-04 1.857511077276e-04 0.0 
1.857511077276e-04 4.440388507088e-03 0.0 
0.0 0.0 -6.879681371099e-04 
-4.019279772504e-04 1.778728342642e-04 0.0 
1.778728342642e-04 2.433102799940e-03 0.0 
0.0 0.0 -3.974404770784e-04 
-2.808996377463e-04 -1.954566177410e-04 0.0 
-1.954566177410e-04 1.711546538442e-03 0.0 
0.0 0.0 -2.813757158202e-04 
-5.769851111882e-04 1.945968129497e-04 0.0 
1.945968129497e-04 3.685550638925e-03 0.0 
0.0 0.0 -5.804062017457e-04 
-6.698465200997e-04 -1.848151346018e-04 0.0 
-1.848151346018e-04 4.407215399786e-03 0.0 
0.0 0.0 -6.703429011759e-04 
-7.069533997817e-04 -1.864555130782e-04 0.0 
-1.864555130782e-04 4.664424843705e-03 0.0 
0.0 0.0 -7.070647534220e-04 
-4.705619805672e-04 1.797584254588e-04 0.0 
1.797584254588e-04 2.905608131468e-03 0.0 
0.0 0.0 -4.680152132766e-04 
-7.664680765081e-04 1.944574444008e-04 0.0 
1.944574444008e-04 4.988010799345e-03 0.0 
0.0 0.0 -7.666177146937e-04 
-6.793079833930e-04 -1.842955306639e-04 0.0 
-1.842955306639e-04 4.467105658874e-03 0.0 
0.0 0.0 -6.790125122095e-04 
-7.192535587873e-04 1.886174479633e-04 0.0 
1.886174479633e-04 4.651675493154e-03 0.0 
0.0 0.0 -7.183521444552e-04 
-5.167516635029e-04 -1.889877885737e-04 0.0 
-1.889877885737e-04 3.361424050145e-03 0.0 
0.0 0.0 -5.205443542100e-04 
-9.916854113118e-04 -1.973034417569e-04 0.0 
-1.973034417569e-04 6.645632539252e-03 0.0 
0.0 0.0 -9.921115096417e-04 
-1.000725886826e-03 -2.001881518318e-04 0.0 
-2.001881518318e-04 6.682457666445e-03 0.0 
0.0 0.0 -9.984673180475e-04 
-6.910740697019e-04 1.869291771831e-04 0.0 
1.869291771831e-04 4.454330638785e-03 0.0 
0.0 0.0 -6.904379518788e-04 
-1.131075422052e-03 1.930354118908e-04 0.0 
1.930354118908e-04 7.540452433703e-03 0.0 
0.0 0.0 -1.133495712197e-03 
-3.818178823842e-04 -1.881304660736e-04 0.0 
-1.881304660736e-04 2.417279904182e-03 0.0 
0.0 0.0 -3.849690761666e-04 
-1.204919198583e-03 2.055908933390e-04 0.0 
2.055908933390e-04 8.107807864514e-03 0.0 
0.0 0.0 -1.208505026952e-03 
-7.381856154466e-04 1.951283212297e-04 0.0 
1.951283212297e-04 4.788651758778e-03 0.0 
0.0 0.0 -7.381355003807e-04 
-1.179893914325e-03 2.326195910896e-04 0.0 
2.326195910896e-04 8.057192319457e-03 0.0 
0.0 0.0 -1.203459118631e-03 
-9.174882615910e-04 -1.900236548233e-04 0.0 
-1.900236548233e-04 6.103327033778e-03 0.0 
0.0 0.0 -9.144069900286e-04 
-3.759838339719e-04 1.980975432101e-04 0.0 
1.980975432101e-04 2.280850535288e-03 0.0 
0.0 0.0 -3.788569260404e-04 
-9.329446838714e-04 -1.934956866743e-04 0.0 
-1.934956866743e-04 6.203824333691e-03 0.0 
0.0 0.0 -9.292863832265e-04 
-1.148316362968e-03 1.911406139228e-04 0.0 
1.911406139228e-04 7.656686617329e-03 0.0 
0.0 0.0 -1.148369591821e-03 
-7.751955477395e-04 1.935539670278e-04 0.0 
1.935539670278e-04 5.048248374235e-03 0.0 
0.0 0.0 -7.747733155264e-04 
-5.636121724150e-04 -1.856060269499e-04 0.0 
-1.856060269499e-04 3.652721039859e-03 0.0 
0.0 0.0 -5.621395992319e-04 
-9.592421645063e-04 -1.953589560094e-04 0.0 
-1.953589560094e-04 6.397497054977e-03 0.0 
0.0 0.0 -9.572423940436e-04 
-7.410203931499e-04 1.888947749689e-04 0.0 
1.888947749689e-04 4.805195564350e-03 0.0 
0.0 0.0 -7.402445244775e-04 
-3.049241937385e-04 2.026327067247e-04 0.0 
2.026327067247e-04 1.807680481835e-03 0.0 
0.0 0.0 -3.123079531677e-04 
-1.247303547099e-03 2.054291781831e-04 0.0 
2.054291781831e-04 8.428743189038e-03 0.0 
0.0 0.0 -1.259077240559e-03 
-2.832321787004e-04 2.033440710738e-04 0.0 
2.033440710738e-04 1.568411261078e-03 0.0 
0.0 0.0 -2.747754844540e-04 
-1.180725818141e-03 -1.959284539652e-04 0.0 
-1.959284539652e-04 8.086063063664e-03 0.0 
0.0 0.0 -1.194426649262e-03 
-1.181044415914e-03 1.885702677113e-04 0.0 
1.885702677113e-04 7.848025462359e-03 0.0 
0.0 0.0 -1.175981821618e-03 
-1.019774229424e-03 -1.968009652079e-04 0.0 
-1.968009652079e-04 6.844195853493e-03 0.0 
0.0 0.0 -1.020516803968e-03 
-9.063963003823e-04 2.216702355020e-04 0.0 
2.216702355020e-04 5.948302852210e-03 0.0 
0.0 0.0 -9.041796124736e-04 
-1.096159842107e-03 -2.041353887510e-04 0.0 
-2.041353887510e-04 7.354511593932e-03 0.0 
0.0 0.0 -1.094228678348e-03 
-7.158215028594e-04 -1.849822212150e-04 0.0 
-1.849822212150e-04 4.721957550486e-03 0.0 
0.0 0.0 -7.154996274706e-04 
-8.342688439829e-04 -1.960354733343e-04 0.0 
-1.960354733343e-04 5.542507863884e-03 0.0 
0.0 0.0 -8.337527902170e-04 
-1.179248762261e-03 1.915113563363e-04 0.0 
1.915113563363e-04 7.953436829066e-03 0.0 
0.0 0.0 -1.191782302182e-03 
-1.022355738208e-03 1.947903411638e-04 0.0 
1.947903411638e-04 6.764095762217e-03 0.0 
0.0 0.0 -1.021464098896e-03 
-1.029803380413e-03 -1.995345647328e-04 0.0 
-1.995345647328e-04 6.892395198165e-03 0.0 
0.0 0.0 -1.028225029406e-03 
-9.800703698298e-04 2.033610077795e-04 0.0 
2.033610077795e-04 6.469215121367e-03 0.0 
0.0 0.0 -9.780777104595e-04 
-3.460311380533e-04 1.949105016323e-04 0.0 
1.949105016323e-04 2.083431817991e-03 0.0 
0.0 0.0 -3.505936111242e-04 
-1.056998258985e-03 -2.024071474235e-04 0.0 
-2.024071474235e-04 7.098571223248e-03 0.0 
0.0 0.0 -1.057861461704e-03 
-1.245215734681e-03 -2.948889405529e-06 0.0 
-2.948889405529e-06 8.708064260567e-03 0.0 
0.0 0.0 -1.268085107495e-03 
-1.199968332554e-03 2.184447548861e-04 0.0 
2.184447548861e-04 8.021680446852e-03 0.0 
0.0 0.0 -1.202195648613e-03 
-6.908555778158e-04 1.952647486751e-04 0.0 
1.952647486751e-04 4.467406980685e-03 0.0 
0.0 0.0 -6.923681691211e-04 
-8.989504497264e-04 -2.030487714898e-04 0.0 
-2.030487714898e-04 5.998411166372e-03 0.0 
0.0 0.0 -9.020111041354e-04 
-8.706850616848e-04 2.163039302349e-04 0.0 
2.163039302349e-04 5.704755713039e-03 0.0 
0.0 0.0 -8.677534307045e-04 
-7.350398663415e-04 -1.921852650882e-04 0.0 
-1.921852650882e-04 4.858429528850e-03 0.0 
0.0 0.0 -7.352749011056e-04 
-9.925381973485e-04 1.968648573772e-04 0.0 
1.968648573772e-04 6.563559215451e-03 0.0 
0.0 0.0 -9.927925938930e-04 
-1.029028532084e-03 1.960911717032e-04 0.0 
1.960911717032e-04 6.822296250893e-03 0.0 
0.0 0.0 -1.030113165296e-03 
-2.401332151859e-04 -2.098625103456e-04 0.0 
-2.098625103456e-04 1.444865681486e-03 0.0 
0.0 0.0 -2.466400652194e-04 
-4.534206567438e-04 1.915983849917e-04 0.0 
1.915983849917e-04 2.786638049385e-03 0.0 
0.0 0.0 -4.508272210452e-04 
-7.276651503282e-04 1.887396446789e-04 0.0 
1.887396446789e-04 4.711996878728e-03 0.0 
0.0 0.0 -7.269793770173e-04 
-6.885109501690e-04 -1.881460235650e-04 0.0 
-1.881460235650e-04 4.526125077483e-03 0.0 
0.0 0.0 -6.875569550716e-04 
-7.327380615622e-04 1.893031023786e-04 0.0 
1.893031023786e-04 4.746976141071e-03 0.0 
0.0 0.0 -7.320784846625e-04 
-1.207414471784e-03 -1.921627464004e-04 0.0 
-1.921627464004e-04 8.251115158096e-03 0.0 
0.0 0.0 -1.225426844749e-03 
-1.165911235799e-03 1.728266951447e-04 0.0 
1.728266951447e-04 7.751919212480e-03 0.0 
0.0 0.0 -1.162686153705e-03 
-1.174125183305e-03 -1.966474411141e-04 0.0 
-1.966474411141e-04 7.895985343999e-03 0.0 
0.0 0.0 -1.173632101657e-03 
-6.588438363323e-04 -1.812037125044e-04 0.0 
-1.812037125044e-04 4.301364332342e-03 0.0 
0.0 0.0 -6.556197767577e-04 
-1.082747471146e-03 1.891035132956e-04 0.0 
1.891035132956e-04 7.201407994730e-03 0.0 
0.0 0.0 -1.082713561900e-03 
-9.901836726999e-04 -1.945402384494e-04 0.0 
-1.945402384494e-04 6.633588115461e-03 0.0 
0.0 0.0 -9.899156953211e-04 
-1.203900706285e-03 2.001643692103e-04 0.0 
2.001643692103e-04 8.020307122063e-03 0.0 
0.0 0.0 -1.198415070424e-03 
-1.018917370980e-03 -2.029360126540e-04 0.0 
-2.029360126540e-04 6.841232066874e-03 0.0 
0.0 0.0 -1.021631336281e-03 
-7.252862927281e-04 -1.917571483024e-04 0.0 
-1.917571483024e-04 4.797885526736e-03 0.0 
0.0 0.0 -7.266350563285e-04 
-6.996186826148e-04 1.874149340260e-04 0.0 
1.874149340260e-04 4.515630015583e-03 0.0 
0.0 0.0 -6.989458521267e-04 
-1.062701287971e-03 1.919893444833e-04 0.0 
1.919893444833e-04 7.044103527011e-03 0.0 
0.0 0.0 -1.060111126929e-03 
-1.159236038185e-03 -2.100410646673e-04 0.0 
-2.100410646673e-04 7.815649065545e-03 0.0 
0.0 0.0 -1.160283895044e-03 
-1.068044840095e-03 1.975027097547e-04 0.0 
1.975027097547e-04 7.089380260529e-03 0.0 
0.0 0.0 -1.066842251349e-03 
-1.033322736071e-03 1.952546159750e-04 0.0 
1.952546159750e-04 6.838585495745e-03 0.0 
0.0 0.0 -1.030428295937e-03 
-1.127957771235e-03 2.034159333984e-04 0.0 
2.034159333984e-04 7.486625778373e-03 0.0 
0.0 0.0 -1.124756152480e-03 
-1.155677614868e-03 -1.983866149801e-04 0.0 
-1.983866149801e-04 7.868967508162e-03 0.0 
0.0 0.0 -1.167530213646e-03 
-1.094507555949e-03 1.976519323402e-04 0.0 
1.976519323402e-04 7.281086392671e-03 0.0 
0.0 0.0 -1.096139997395e-03 
-8.893531318376e-04 1.947803294653e-04 0.0 
1.947803294653e-04 5.843023406601e-03 0.0 
0.0 0.0 -8.895595506238e-04 
-6.419372915529e-04 1.659854799663e-04 0.0 
1.659854799663e-04 4.112940198776e-03 0.0 
0.0 0.0 -6.419897747600e-04 
-1.057958817333e-03 -1.915382936822e-04 0.0 
-1.915382936822e-04 7.093836536897e-03 0.0 
0.0 0.0 -1.057160997780e-03 
-1.010397126926e-03 1.924777478118e-04 0.0 
1.924777478118e-04 6.699973834187e-03 0.0 
0.0 0.0 -1.010795753303e-03 
-4.010552004860e-04 1.841654314204e-04 0.0 
1.841654314204e-04 2.442507368575e-03 0.0 
0.0 0.0 -4.018221946533e-04 
-7.246063133898e-04 -1.880612964647e-04 0.0 
-1.880612964647e-04 4.782342909510e-03 0.0 
0.0 0.0 -7.241222962603e-04 
-8.198364604858e-04 1.863931235936e-04 0.0 
1.863931235936e-04 5.353653336719e-03 0.0 
0.0 0.0 -8.193994707270e-04 
-8.991995514688e-04 -1.967035222147e-04 0.0 
-1.967035222147e-04 5.995025760983e-03 0.0 
0.0 0.0 -8.986564694586e-04 
-4.050243053020e-04 1.994613475965e-04 0.0 
1.994613475965e-04 2.469637685563e-03 0.0 
0.0 0.0 -4.057256964758e-04 
-6.967689891126e-04 -1.888281546422e-04 0.0 
-1.888281546422e-04 4.585730407348e-03 0.0 
0.0 0.0 -6.962026719631e-04 
-9.643194553962e-04 -1.980704148003e-04 0.0 
-1.980704148003e-04 6.448875351116e-03 0.0 
0.0 0.0 -9.636952012155e-04 
-7.333735645701e-04 1.825225121090e-04 0.0 
1.825225121090e-04 4.734280668460e-03 0.0 
0.0 0.0 -7.294090860402e-04 
-7.570403720066e-04 1.947967854262e-04 0.0 
1.947967854262e-04 4.925685443404e-03 0.0 
0.0 0.0 -7.579899565570e-04 
-9.487659951765e-04 -2.043170517302e-04 0.0 
-2.043170517302e-04 6.373556266418e-03 0.0 
0.0 0.0 -9.556638187253e-04 
-7.610430462996e-04 1.745184878598e-04 0.0 
1.745184878598e-04 5.044670069107e-03 0.0 
0.0 0.0 -7.638029664831e-04 
-1.838096952562e-04 2.082695791090e-04 0.0 
2.082695791090e-04 7.724611367138e-04 0.0 
0.0 0.0 -1.578647551136e-04 
-8.576241388509e-04 -1.943288446579e-04 0.0 
-1.943288446579e-04 5.714280224429e-03 0.0 
0.0 0.0 -8.580817703278e-04 
-1.051194806149e-03 1.905396044606e-04 0.0 
1.905396044606e-04 6.972468322912e-03 0.0 
0.0 0.0 -1.051835763028e-03 
-1.194223105728e-03 2.022847639454e-04 0.0 
2.022847639454e-04 8.008401190618e-03 0.0 
0.0 0.0 -1.196871286280e-03 
-8.007996408172e-04 1.886044981360e-04 0.0 
1.886044981360e-04 5.220729595959e-03 0.0 
0.0 0.0 -7.999758813884e-04 
-8.231738978705e-04 1.954670675702e-04 0.0 
1.954670675702e-04 5.384433434041e-03 0.0 
0.0 0.0 -8.237210115815e-04 
-9.659298580920e-04 -1.974560001277e-04 0.0 
-1.974560001277e-04 6.432078237772e-03 0.0 
0.0 0.0 -9.620958722924e-04 
-2.561485936919e-04 2.198683939719e-04 0.0 
2.198683939719e-04 1.251380499119e-03 0.0 
0.0 0.0 -2.247161217206e-04 
-1.023132414130e-03 1.887327440294e-04 0.0 
1.887327440294e-04 6.775332410064e-03 0.0 
0.0 0.0 -1.023361637732e-03 
-8.622181034216e-04 -1.951138773543e-04 0.0 
-1.951138773543e-04 5.740266887697e-03 0.0 
0.0 0.0 -8.619475031456e-04 
-7.647880329061e-04 -1.862411199866e-04 0.0 
-1.862411199866e-04 5.038541863179e-03 0.0 
0.0 0.0 -7.615729788896e-04 
-1.027082371763e-03 -1.922014268245e-04 0.0 
-1.922014268245e-04 6.892038875610e-03 0.0 
0.0 0.0 -1.027225276160e-03 
-3.935518598364e-04 -1.714817472150e-04 0.0 
-1.714817472150e-04 2.494688902106e-03 0.0 
0.0 0.0 -3.946419382404e-04 
-1.063411595146e-03 -1.940895073894e-04 0.0 
-1.940895073894e-04 7.151260433919e-03 0.0 
0.0 0.0 -1.064556537081e-03 
-1.170769687049e-03 1.998990496914e-04 0.0 
1.998990496914e-04 7.807167189230e-03 0.0 
0.0 0.0 -1.170878753521e-03 
-9.957874322238e-04 1.860819940760e-04 0.0 
1.860819940760e-04 6.577964668805e-03 0.0 
0.0 0.0 -9.948919501216e-04 
-1.066802879167e-03 -1.994715727017e-04 0.0 
-1.994715727017e-04 7.144842154603e-03 0.0 
0.0 0.0 -1.064574987933e-03 
-1.080893362265e-03 -2.009448288778e-04 0.0 
-2.009448288778e-04 7.278345089593e-03 0.0 
0.0 0.0 -1.082686220397e-03 
-1.164339334361e-03 -2.029535809834e-04 0.0 
-2.029535809834e-04 7.872490943299e-03 0.0 
0.0 0.0 -1.168035910845e-03 
-3.299141803929e-04 2.316983388686e-04 0.0 
2.316983388686e-04 1.731538717207e-03 0.0 
0.0 0.0 -2.917408095836e-04 
-9.904023149971e-04 -1.959122471390e-04 0.0 
-1.959122471390e-04 6.637118298013e-03 0.0 
0.0 0.0 -9.919185416031e-04 
-1.168730602385e-03 -1.909886301280e-04 0.0 
-1.909886301280e-04 7.900162167174e-03 0.0 
0.0 0.0 -1.173906618061e-03 
-1.099721820410e-03 1.948899321208e-04 0.0 
1.948899321208e-04 7.299287446510e-03 0.0 
0.0 0.0 -1.096489272820e-03 
-9.304220125416e-04 1.873101926856e-04 0.0 
1.873101926856e-04 6.124362452359e-03 0.0 
0.0 0.0 -9.297700869391e-04 
-7.330744366569e-04 -1.923064886364e-04 0.0 
-1.923064886364e-04 4.838398720579e-03 0.0 
0.0 0.0 -7.325247082200e-04 
-8.060696050279e-04 1.870863771178e-04 0.0 
1.870863771178e-04 5.268149186535e-03 0.0 
0.0 0.0 -8.069452076110e-04 
-2.418248245405e-04 2.109020271233e-04 0.0 
2.109020271233e-04 1.359709000534e-03 0.0 
0.0 0.0 -2.482170483719e-04 
-1.134273257583e-03 1.988705509169e-04 0.0 
1.988705509169e-04 7.550007886780e-03 0.0 
0.0 0.0 -1.132911322290e-03 
-4.274524748729e-04 1.964334948297e-04 0.0 
1.964334948297e-04 2.645397720372e-03 0.0 
0.0 0.0 -4.309687334850e-04 
-3.881418594362e-04 1.833155679552e-04 0.0 
1.833155679552e-04 2.160044348329e-03 0.0 
0.0 0.0 -3.582286249851e-04 
-1.052002855886e-03 -1.883464211935e-04 0.0 
-1.883464211935e-04 7.074906707182e-03 0.0 
0.0 0.0 -1.054483161448e-03 
-1.207081545900e-03 1.915242773210e-04 0.0 
1.915242773210e-04 8.072287243083e-03 0.0 
0.0 0.0 -1.206783194404e-03 
-3.547804392097e-04 -1.807868565671e-04 0.0 
-1.807868565671e-04 2.226917608771e-03 0.0 
0.0 0.0 -3.573182248098e-04 
-8.366419951608e-04 -1.885488255626e-04 0.0 
-1.885488255626e-04 5.554595282055e-03 0.0 
0.0 0.0 -8.358581584049e-04 
-1.023802301552e-03 1.940941463560e-04 0.0 
1.940941463560e-04 6.787907294573e-03 0.0 
0.0 0.0 -1.023814440555e-03 
-7.829083596588e-04 -1.954293300843e-04 0.0 
-1.954293300843e-04 5.194152372337e-03 0.0 
0.0 0.0 -7.840072721007e-04 
-4.010673323255e-04 -1.915498976049e-04 0.0 
-1.915498976049e-04 2.542328077149e-03 0.0 
0.0 0.0 -4.027365510179e-04 
-5.321744599270e-04 1.883621527591e-04 0.0 
1.883621527591e-04 3.333505553591e-03 0.0 
0.0 0.0 -5.292697486782e-04 
-2.639771075772e-04 1.646102614639e-04 0.0 
1.646102614639e-04 1.613590548762e-03 0.0 
0.0 0.0 -2.862163191752e-04 
-3.553659692627e-04 1.943928252885e-04 0.0 
1.943928252885e-04 2.154693693140e-03 0.0 
0.0 0.0 -3.608158092454e-04 
-3.249476260035e-04 1.935471720913e-04 0.0 
1.935471720913e-04 1.899890607766e-03 0.0 
0.0 0.0 -3.238926756799e-04 
-8.653379371193e-04 1.875602502826e-04 0.0 
1.875602502826e-04 5.671952828596e-03 0.0 
0.0 0.0 -8.647910268431e-04 
-1.297827382279e-03 4.785112367207e-06 0.0 
4.785112367207e-06 9.109555355960e-03 0.0 
0.0 0.0 -1.324146187826e-03 
-4.467143920628e-04 1.726574000167e-04 0.0 
1.726574000167e-04 2.617142877359e-03 0.0 
0.0 0.0 -4.244337567297e-04 
-1.156016819955e-03 1.914756519666e-04 0.0 
1.914756519666e-04 7.686772050836e-03 0.0 
0.0 0.0 -1.153422328581e-03 
-6.441918423607e-04 1.888512827500e-04 0.0 
1.888512827500e-04 4.126863023303e-03 0.0 
0.0 0.0 -6.430507458085e-04 
-9.827241532880e-04 -2.074075714334e-04 0.0 
-2.074075714334e-04 6.589898560790e-03 0.0 
0.0 0.0 -9.856407671940e-04 
-3.167090590366e-04 1.983492302007e-04 0.0 
1.983492302007e-04 1.826080605665e-03 0.0 
0.0 0.0 -3.129386394028e-04 
-1.211080746195e-03 -1.918872231890e-04 0.0 
-1.918872231890e-04 8.120902711811e-03 0.0 
0.0 0.0 -1.206759618350e-03 
-3.103668027405e-04 -1.740204278261e-04 0.0 
-1.740204278261e-04 1.967988296131e-03 0.0 
0.0 0.0 -3.202688159031e-04 
-4.904887743195e-04 1.972396724306e-04 0.0 
1.972396724306e-04 3.115116694861e-03 0.0 
0.0 0.0 -4.995972236199e-04 
-1.033982221523e-03 1.864504257491e-04 0.0 
1.864504257491e-04 6.836114975340e-03 0.0 
0.0 0.0 -1.031547093314e-03 
-7.437947252401e-04 -1.892750744378e-04 0.0 
-1.892750744378e-04 4.914077369227e-03 0.0 
0.0 0.0 -7.436172176343e-04 
-1.132860593058e-03 -1.933960126785e-04 0.0 
-1.933960126785e-04 7.665930668868e-03 0.0 
0.0 0.0 -1.139062866688e-03 
-5.749455652610e-04 -1.941924528231e-04 0.0 
-1.941924528231e-04 3.751246786669e-03 0.0 
0.0 0.0 -5.762899171568e-04 
-1.046111348023e-03 -1.920749274324e-04 0.0 
-1.920749274324e-04 7.006833931181e-03 0.0 
0.0 0.0 -1.044446328659e-03 
-1.179461128015e-03 1.956649310083e-04 0.0 
1.956649310083e-04 7.993560630903e-03 0.0 
0.0 0.0 -1.198892520503e-03 
-9.969097330870e-04 1.983464851525e-04 0.0 
1.983464851525e-04 6.585106213615e-03 0.0 
0.0 0.0 -9.940794652285e-04 
-1.204741342101e-03 -1.841288982353e-04 0.0 
-1.841288982353e-04 8.066681748081e-03 0.0 
0.0 0.0 -1.194784139986e-03 
-1.085983696521e-03 -2.024519851536e-04 0.0 
-2.024519851536e-04 7.301290877674e-03 0.0 
0.0 0.0 -1.087318097122e-03 
-1.116801267184e-03 -2.016255265415e-04 0.0 
-2.016255265415e-04 7.509256724676e-03 0.0 
0.0 0.0 -1.116677092124e-03 
-3.616370043147e-04 1.787208051053e-04 0.0 
1.787208051053e-04 2.150891016686e-03 0.0 
0.0 0.0 -3.599422446610e-04 
-1.117518330453e-03 1.826877579253e-04 0.0 
1.826877579253e-04 7.419146366892e-03 0.0 
0.0 0.0 -1.115908039155e-03 
-1.052373239860e-03 1.884691524879e-04 0.0 
1.884691524879e-04 6.996291933739e-03 0.0 
0.0 0.0 -1.053364550114e-03 
-7.811189844041e-04 1.901992250616e-04 0.0 
1.901992250616e-04 5.082233377235e-03 0.0 
0.0 0.0 -7.792489223127e-04 
-5.208782508076e-04 1.844281060279e-04 0.0 
1.844281060279e-04 3.081353701983e-03 0.0 
0.0 0.0 -4.908673385051e-04 
-1.207263385308e-03 -1.938793257757e-04 0.0 
-1.938793257757e-04 8.301996435605e-03 0.0 
0.0 0.0 -1.232292820449e-03 
-4.172393042969e-04 1.982283144972e-04 0.0 
1.982283144972e-04 2.530985310794e-03 0.0 
0.0 0.0 -4.142712813041e-04 
-4.585162122278e-04 -2.188978008165e-04 0.0 
-2.188978008165e-04 2.969334744374e-03 0.0 
0.0 0.0 -4.655197245388e-04 
-1.104373486365e-03 2.012226859918e-04 0.0 
2.012226859918e-04 7.350396136819e-03 0.0 
0.0 0.0 -1.105063927110e-03 
-2.968425273524e-04 -1.642057746456e-04 0.0 
-1.642057746456e-04 1.792416919805e-03 0.0 
0.0 0.0 -2.939799329518e-04 
-7.924236500379e-04 -1.848261227190e-04 0.0 
-1.848261227190e-04 5.252920665959e-03 0.0 
0.0 0.0 -7.924235178053e-04 
-1.061921988885e-03 1.812104659022e-04 0.0 
1.812104659022e-04 7.031393709582e-03 0.0 
0.0 0.0 -1.059843925468e-03 
-1.181481514864e-03 -1.809401034033e-04 0.0 
-1.809401034033e-04 7.945597505832e-03 0.0 
0.0 0.0 -1.181155146799e-03 
-1.216519596998e-03 -1.765367581353e-04 0.0 
-1.765367581353e-04 8.170458135963e-03 0.0 
0.0 0.0 -1.210943746944e-03 
-1.030728582983e-03 -1.988607177777e-04 0.0 
-1.988607177777e-04 6.902267769970e-03 0.0 
0.0 0.0 -1.028825005900e-03 
-1.124714132978e-03 -2.064810197621e-04 0.0 
-2.064810197621e-04 7.559899990810e-03 0.0 
0.0 0.0 -1.123737208958e-03 
-6.812903531147e-04 1.901379600770e-04 0.0 
1.901379600770e-04 4.380740483724e-03 0.0 
0.0 0.0 -6.793824814286e-04 
-1.062351922354e-03 -1.985736001596e-04 0.0 
-1.985736001596e-04 7.130265690032e-03 0.0 
0.0 0.0 -1.062452857821e-03 
-5.858181118698e-04 1.875072715160e-04 0.0 
1.875072715160e-04 3.545318163494e-03 0.0 
0.0 0.0 -5.576509564599e-04 
-1.191462796189e-03 1.791343230628e-04 0.0 
1.791343230628e-04 7.859967464318e-03 0.0 
0.0 0.0 -1.181751882508e-03 
-6.536967362184e-04 1.840019481607e-04 0.0 
1.840019481607e-04 4.012532136349e-03 0.0 
0.0 0.0 -6.243763318321e-04 
-6.397657085008e-04 1.469527108766e-04 0.0 
1.469527108766e-04 4.231461376740e-03 0.0 
0.0 0.0 -6.577503189808e-04 
-7.727292442473e-04 1.893751122866e-04 0.0 
1.893751122866e-04 5.025497285819e-03 0.0 
0.0 0.0 -7.717627972493e-04 
-7.120157842108e-04 2.033227012875e-04 0.0 
2.033227012875e-04 4.491531755345e-03 0.0 
0.0 0.0 -6.911701761307e-04 
-8.847543506960e-04 -1.860726363622e-04 0.0 
-1.860726363622e-04 5.886975687793e-03 0.0 
0.0 0.0 -8.833033330409e-04 
-7.223081526863e-04 -1.890141103709e-04 0.0 
-1.890141103709e-04 4.756005682412e-03 0.0 
0.0 0.0 -7.209687761305e-04 
-7.611226546140e-04 -1.925027368286e-04 0.0 
-1.925027368286e-04 5.033487039423e-03 0.0 
0.0 0.0 -7.606211034647e-04 
-3.677272213406e-04 1.965668598146e-04 0.0 
1.965668598146e-04 2.206714062611e-03 0.0 
0.0 0.0 -3.685806404478e-04 
-7.360898597851e-04 1.893736919884e-04 0.0 
1.893736919884e-04 4.769891666686e-03 0.0 
0.0 0.0 -7.353490689725e-04 
-1.164475384932e-03 1.920424604491e-04 0.0 
1.920424604491e-04 7.760458237861e-03 0.0 
0.0 0.0 -1.162517914204e-03 
-1.189135404011e-03 2.424308074021e-04 0.0 
2.424308074021e-04 8.008663372928e-03 0.0 
0.0 0.0 -1.195263893373e-03 
-1.051433761328e-03 1.900846295013e-04 0.0 
1.900846295013e-04 6.962500509983e-03 0.0 
0.0 0.0 -1.050100468764e-03 
-1.163815806160e-03 1.939359249112e-04 0.0 
1.939359249112e-04 7.801481486737e-03 0.0 
0.0 0.0 -1.170266998156e-03 
-7.471505649133e-04 1.914654167736e-04 0.0 
1.914654167736e-04 4.846432176661e-03 0.0 
0.0 0.0 -7.463264885205e-04 
-1.116874559966e-03 1.925152765080e-04 0.0 
1.925152765080e-04 7.452691656896e-03 0.0 
0.0 0.0 -1.119019617531e-03 
-7.641727686351e-04 1.895140519535e-04 0.0 
1.895140519535e-04 4.965709915575e-03 0.0 
0.0 0.0 -7.634232545038e-04 
-1.140149646673e-03 1.894710294716e-04 0.0 
1.894710294716e-04 7.619303377370e-03 0.0 
0.0 0.0 -1.144395376583e-03 
-1.089871366961e-03 1.866180545901e-04 0.0 
1.866180545901e-04 7.246015693997e-03 0.0 
0.0 0.0 -1.089631904438e-03 
-1.081578605974e-03 -1.978658757613e-04 0.0 
-1.978658757613e-04 7.257137764756e-03 0.0 
0.0 0.0 -1.080451501872e-03 
-9.579838523443e-04 1.886955211530e-04 0.0 
1.886955211530e-04 6.320335730528e-03 0.0 
0.0 0.0 -9.580909834143e-04 
-7.089543903964e-04 1.893728274012e-04 0.0 
1.893728274012e-04 4.575360328887e-03 0.0 
0.0 0.0 -7.073300717972e-04 
-1.127664739308e-03 -1.829222399518e-04 0.0 
-1.829222399518e-04 7.564515174457e-03 0.0 
0.0 0.0 -1.126038590206e-03 
-9.212765999104e-04 1.860043167072e-04 0.0 
1.860043167072e-04 6.042010505937e-03 0.0 
0.0 0.0 -9.169694165663e-04 
-3.707997860418e-04 -2.047832537349e-04 0.0 
-2.047832537349e-04 2.273008460466e-03 0.0 
0.0 0.0 -3.661348613279e-04 
-4.119491099640e-04 -1.837644939852e-04 0.0 
-1.837644939852e-04 2.602040481245e-03 0.0 
0.0 0.0 -4.113794265144e-04 
-6.058388203502e-04 1.800194521296e-04 0.0 
1.800194521296e-04 3.855006073365e-03 0.0 
0.0 0.0 -6.061407060701e-04 
-8.399206414718e-04 1.851255513351e-04 0.0 
1.851255513351e-04 5.491811110990e-03 0.0 
0.0 0.0 -8.384786063130e-04 
-1.169227413895e-03 1.987098364224e-04 0.0 
1.987098364224e-04 7.826180536376e-03 0.0 
0.0 0.0 -1.173545322487e-03 
-1.051413170775e-03 -2.036953792705e-04 0.0 
-2.036953792705e-04 7.051256599190e-03 0.0 
0.0 0.0 -1.051102540299e-03 
-7.053171708153e-04 -1.917417752611e-04 0.0 
-1.917417752611e-04 4.643848416984e-03 0.0 
0.0 0.0 -7.045205360201e-04 
-9.343548124899e-04 -1.929012807103e-04 0.0 
-1.929012807103e-04 6.238086933522e-03 0.0 
0.0 0.0 -9.344940742331e-04 
-1.088202517562e-03 1.963493920645e-04 0.0 
1.963493920645e-04 7.240451625201e-03 0.0 
0.0 0.0 -1.088599101970e-03 
-1.132213948578e-03 -2.019794901778e-04 0.0 
-2.019794901778e-04 7.607209750872e-03 0.0 
0.0 0.0 -1.130578931274e-03 
-1.175177652279e-03 -1.432114671164e-04 0.0 
-1.432114671164e-04 7.818239968608e-03 0.0 
0.0 0.0 -1.160781586281e-03 
-9.493017134461e-04 1.856369855211e-04 0.0 
1.856369855211e-04 6.294032018234e-03 0.0 
0.0 0.0 -9.517943393003e-04 
-1.114893974024e-03 1.926717475022e-04 0.0 
1.926717475022e-04 7.405468821271e-03 0.0 
0.0 0.0 -1.113435711030e-03 
-7.974711636665e-04 -1.944203939155e-04 0.0 
-1.944203939155e-04 5.288608064412e-03 0.0 
0.0 0.0 -7.971871449874e-04 
-1.087511397267e-03 -1.918432502511e-04 0.0 
-1.918432502511e-04 7.293095143965e-03 0.0 
0.0 0.0 -1.086118700983e-03 
-7.957657220237e-04 1.875502652183e-04 0.0 
1.875502652183e-04 5.187404479596e-03 0.0 
0.0 0.0 -7.951163407912e-04 
-1.190027282138e-03 -1.889094988141e-04 0.0 
-1.889094988141e-04 8.016045742998e-03 0.0 
0.0 0.0 -1.188704642750e-03 
-1.182786985987e-03 -2.095818808978e-04 0.0 
-2.095818808978e-04 8.112308359412e-03 0.0 
0.0 0.0 -1.200489323427e-03 
-8.931557397796e-04 1.886870491782e-04 0.0 
1.886870491782e-04 5.866647832542e-03 0.0 
0.0 0.0 -8.929891684399e-04 
-3.790334035775e-04 2.022524645534e-04 0.0 
2.022524645534e-04 2.272501623496e-03 0.0 
0.0 0.0 -3.776191643183e-04 
-1.116621675417e-03 1.833509055247e-04 0.0 
1.833509055247e-04 7.407703431036e-03 0.0 
0.0 0.0 -1.113685640909e-03 
-8.560269120279e-04 -1.850645517351e-04 0.0 
-1.850645517351e-04 5.691539379015e-03 0.0 
0.0 0.0 -8.555605426019e-04 
-6.779302938366e-04 -1.908402865227e-04 0.0 
-1.908402865227e-04 4.449768302467e-03 0.0 
0.0 0.0 -6.765734244908e-04 
-9.269459503729e-04 -1.957083840497e-04 0.0 
-1.957083840497e-04 6.192523979842e-03 0.0 
0.0 0.0 -9.269463096178e-04 
-1.072502528949e-03 -2.041434169698e-04 0.0 
-2.041434169698e-04 7.210267326329e-03 0.0 
0.0 0.0 -1.072977024862e-03 
-3.719606472365e-04 -1.835949221077e-04 0.0 
-1.835949221077e-04 2.345098090713e-03 0.0 
0.0 0.0 -3.746637649435e-04 
-8.285830534024e-04 1.877054302830e-04 0.0 
1.877054302830e-04 5.415216649357e-03 0.0 
0.0 0.0 -8.281205301186e-04 
-9.633029216945e-04 1.794107507867e-04 0.0 
1.794107507867e-04 6.339174664891e-03 0.0 
0.0 0.0 -9.596127204057e-04 
-1.165821597608e-03 -2.067678885501e-04 0.0 
-2.067678885501e-04 7.892442231831e-03 0.0 
0.0 0.0 -1.170838755190e-03 
-9.895100639472e-04 1.759458030689e-04 0.0 
1.759458030689e-04 6.529075947432e-03 0.0 
0.0 0.0 -9.876491701490e-04 
-1.085596099012e-03 1.937230915424e-04 0.0 
1.937230915424e-04 7.212019617214e-03 0.0 
0.0 0.0 -1.085374163265e-03 
-9.372562607785e-04 1.792840605659e-04 0.0 
1.792840605659e-04 6.146041579427e-03 0.0 
0.0 0.0 -9.316602363005e-04 
-8.975747507543e-04 1.987030926427e-04 0.0 
1.987030926427e-04 5.753154163109e-03 0.0 
0.0 0.0 -8.756372412555e-04 
-9.482059618595e-04 1.851978750998e-04 0.0 
1.851978750998e-04 6.234676071384e-03 0.0 
0.0 0.0 -9.447135688329e-04 
-1.130898821175e-03 2.049231627904e-04 0.0 
2.049231627904e-04 7.550084487667e-03 0.0 
0.0 0.0 -1.133505030480e-03 
-1.085374007423e-03 -2.008613375728e-04 0.0 
-2.008613375728e-04 7.297255264970e-03 0.0 
0.0 0.0 -1.084522140297e-03 
-1.016986910713e-03 1.835607482604e-04 0.0 
1.835607482604e-04 6.748472102274e-03 0.0 
0.0 0.0 -1.017300281410e-03 
-1.211783257084e-03 1.757837481836e-04 0.0 
1.757837481836e-04 8.121141767086e-03 0.0 
0.0 0.0 -1.212886757924e-03 
-9.118555854046e-04 1.822932037183e-04 0.0 
1.822932037183e-04 5.952136168219e-03 0.0 
0.0 0.0 -9.037302385344e-04 
-5.771676927997e-04 -1.905418044285e-04 0.0 
-1.905418044285e-04 3.749121588691e-03 0.0 
0.0 0.0 -5.760585567884e-04 
-1.146857850750e-03 -2.012024813042e-04 0.0 
-2.012024813042e-04 7.726356069459e-03 0.0 
0.0 0.0 -1.146733564437e-03 
-1.190361811188e-03 -2.231584585379e-04 0.0 
-2.231584585379e-04 8.068085284209e-03 0.0 
0.0 0.0 -1.196744929305e-03 
-7.877111731868e-04 1.869730341935e-04 0.0 
1.869730341935e-04 5.130080362463e-03 0.0 
0.0 0.0 -7.869228524964e-04 
-8.229073892259e-04 1.889823334213e-04 0.0 
1.889823334213e-04 5.378866845597e-03 0.0 
0.0 0.0 -8.226527892688e-04 
-6.410005540226e-04 -1.918474041219e-04 0.0 
-1.918474041219e-04 4.195976321250e-03 0.0 
0.0 0.0 -6.402419685743e-04 
-1.047323379365e-03 1.912705100611e-04 0.0 
1.912705100611e-04 6.951134229714e-03 0.0 
0.0 0.0 -1.046609947212e-03 
-6.536475585395e-04 1.928032985675e-04 0.0 
1.928032985675e-04 4.182884861133e-03 0.0 
0.0 0.0 -6.500746975200e-04 
-9.153598550126e-04 1.963880349301e-04 0.0 
1.963880349301e-04 6.020758345298e-03 0.0 
0.0 0.0 -9.137630964162e-04 
-6.488950437602e-04 -1.797823528638e-04 0.0 
-1.797823528638e-04 4.242459853736e-03 0.0 
0.0 0.0 -6.476280927198e-04 
-1.069873888271e-03 1.950588935170e-04 0.0 
1.950588935170e-04 7.095085750561e-03 0.0 
0.0 0.0 -1.068254633495e-03 
-1.209590731991e-03 -1.550085898134e-04 0.0 
-1.550085898134e-04 8.118970202182e-03 0.0 
0.0 0.0 -1.211228670573e-03 
-6.691229637013e-04 -1.915091740607e-04 0.0 
-1.915091740607e-04 4.390308397494e-03 0.0 
0.0 0.0 -6.682047883386e-04 
-2.351166358341e-04 -2.031494045747e-04 0.0 
-2.031494045747e-04 1.435993492405e-03 0.0 
0.0 0.0 -2.451578436693e-04 
-1.204420763458e-03 1.961268392442e-04 0.0 
1.961268392442e-04 8.059775147050e-03 0.0 
0.0 0.0 -1.207184308065e-03 
-6.887858324241e-04 1.799755313790e-04 0.0 
1.799755313790e-04 4.424727357305e-03 0.0 
0.0 0.0 -6.853381776776e-04 
-7.835288517238e-04 1.879460947128e-04 0.0 
1.879460947128e-04 5.099659123499e-03 0.0 
0.0 0.0 -7.828151049093e-04 
-1.160407951921e-03 2.005539249279e-04 0.0 
2.005539249279e-04 7.864449254895e-03 0.0 
0.0 0.0 -1.177925372349e-03 
-1.016320152694e-03 -1.997312198958e-04 0.0 
-1.997312198958e-04 6.802485040097e-03 0.0 
0.0 0.0 -1.015069748350e-03 
-1.057178896244e-03 -1.942199100265e-04 0.0 
-1.942199100265e-04 7.094939907719e-03 0.0 
0.0 0.0 -1.055879354346e-03 
-6.858748156510e-04 -1.861020149713e-04 0.0 
-1.861020149713e-04 4.508466491458e-03 0.0 
0.0 0.0 -6.851017020021e-04 
-2.031820811394e-04 1.985739834671e-04 0.0 
1.985739834671e-04 1.096275256380e-03 0.0 
0.0 0.0 -2.111397097017e-04 
-1.218012060933e-03 -2.324828983585e-04 0.0 
-2.324828983585e-04 8.157957467951e-03 0.0 
0.0 0.0 -1.202131160132e-03 
-8.665795831994e-04 1.858441781354e-04 0.0 
1.858441781354e-04 5.682543428283e-03 0.0 
0.0 0.0 -8.660506973337e-04 
-1.008559534197e-03 -2.140754109308e-04 0.0 
-2.140754109308e-04 6.735537996686e-03 0.0 
0.0 0.0 -1.007142642412e-03 
-1.160459194418e-03 1.856922992241e-04 0.0 
1.856922992241e-04 7.735308684736e-03 0.0 
0.0 0.0 -1.157822513452e-03 
-1.616552956258e-04 1.423609377971e-04 0.0 
1.423609377971e-04 6.732585101887e-04 0.0 
0.0 0.0 -1.502316149797e-04 
-1.058859563023e-03 1.992298708808e-04 0.0 
1.992298708808e-04 7.024120321951e-03 0.0 
0.0 0.0 -1.058763633038e-03 
-4.932099791949e-04 -1.894809356614e-04 0.0 
-1.894809356614e-04 3.157806772283e-03 0.0 
0.0 0.0 -4.919579008500e-04 
-9.451714429142e-04 -2.012700485210e-04 0.0 
-2.012700485210e-04 6.343190678808e-03 0.0 
0.0 0.0 -9.498437721210e-04 
-8.487405687036e-04 -1.950463421938e-04 0.0 
-1.950463421938e-04 5.654542604036e-03 0.0 
0.0 0.0 -8.496012432876e-04 
-6.717289225013e-04 1.881380853815e-04 0.0 
1.881380853815e-04 4.320340016049e-03 0.0 
0.0 0.0 -6.709551114794e-04 
-1.138399201716e-03 -1.969931368524e-04 0.0 
-1.969931368524e-04 7.687743728139e-03 0.0 
0.0 0.0 -1.141635569211e-03 
-8.863371368954e-04 1.906753618110e-04 0.0 
1.906753618110e-04 5.821740968712e-03 0.0 
0.0 0.0 -8.859145181037e-04 
-6.078808339748e-04 1.896100471318e-04 0.0 
1.896100471318e-04 3.873866771808e-03 0.0 
0.0 0.0 -6.067458373204e-04 
-8.988471733596e-04 -1.905617358742e-04 0.0 
-1.905617358742e-04 5.993481774552e-03 0.0 
0.0 0.0 -8.989548790023e-04 
-1.952954180545e-04 -1.905102926162e-04 0.0 
-1.905102926162e-04 1.173502522438e-03 0.0 
0.0 0.0 -2.081142276587e-04 
-1.024988576596e-03 -1.935191657476e-04 0.0 
-1.935191657476e-04 6.880398785368e-03 0.0 
0.0 0.0 -1.026417656363e-03 
-1.069604476726e-03 -1.976553008556e-04 0.0 
-1.976553008556e-04 7.163110056360e-03 0.0 
0.0 0.0 -1.065496432940e-03 
-1.229744167387e-03 -1.464305357593e-04 0.0 
-1.464305357593e-04 8.209785373221e-03 0.0 
0.0 0.0 -1.233600908384e-03 
-1.090183204667e-03 -1.971253990561e-04 0.0 
-1.971253990561e-04 7.328950110722e-03 0.0 
0.0 0.0 -1.090749533212e-03 
-4.766984691118e-04 -1.850928375115e-04 0.0 
-1.850928375115e-04 3.048442125330e-03 0.0 
0.0 0.0 -4.758149136988e-04 
-1.046974953030e-03 -1.977469482828e-04 0.0 
-1.977469482828e-04 7.033167652259e-03 0.0 
0.0 0.0 -1.047231727503e-03 
-1.207083647933e-03 1.808427044482e-04 0.0 
1.808427044482e-04 8.205581432035e-03 0.0 
0.0 0.0 -1.228155452712e-03 
-1.260668266969e-03 -1.832526413476e-04 0.0 
-1.832526413476e-04 8.522719369677e-03 0.0 
0.0 0.0 -1.267145247477e-03 
-1.104740620517e-03 -1.903291503951e-04 0.0 
-1.903291503951e-04 7.419136809817e-03 0.0 
0.0 0.0 -1.102242875413e-03 
-7.141399757063e-04 -1.908850217657e-04 0.0 
-1.908850217657e-04 4.699621454475e-03 0.0 
0.0 0.0 -7.127912709901e-04 
-9.617225215176e-04 -1.932311968947e-04 0.0 
-1.932311968947e-04 6.435112240426e-03 0.0 
0.0 0.0 -9.624716764950e-04 
-1.172863749534e-03 1.716370371983e-04 0.0 
1.716370371983e-04 7.752633284680e-03 0.0 
0.0 0.0 -1.164316760544e-03 
-7.921196063416e-04 -1.921710320451e-04 0.0 
-1.921710320451e-04 5.233600587143e-03 0.0 
0.0 0.0 -7.878971455476e-04 
-1.056322180914e-03 1.849092776283e-04 0.0 
1.849092776283e-04 7.010189158039e-03 0.0 
0.0 0.0 -1.057196955382e-03 
-9.850942903468e-04 1.906307977984e-04 0.0 
1.906307977984e-04 6.538331902211e-03 0.0 
0.0 0.0 -9.877098122506e-04 
-1.110739431393e-03 -1.980632731679e-04 0.0 
-1.980632731679e-04 7.489376108620e-03 0.0 
0.0 0.0 -1.112977059762e-03 
-1.093828226484e-03 -1.876429130193e-04 0.0 
-1.876429130193e-04 7.351584596061e-03 0.0 
0.0 0.0 -1.093234982489e-03 
-7.343177045735e-04 -9.465157044594e-06 0.0 
-9.465157044594e-06 4.570354151395e-03 0.0 
0.0 0.0 -7.313513689239e-04 
-7.305590051735e-04 3.402678996754e-05 0.0 
3.402678996754e-05 4.568649633296e-03 0.0 
0.0 0.0 -7.310574395863e-04 
-9.952316992060e-04 -2.061010920873e-04 0.0 
-2.061010920873e-04 6.656041030992e-03 0.0 
0.0 0.0 -9.927888931629e-04 
-9.918488233690e-04 1.857079994067e-04 0.0 
1.857079994067e-04 6.564735410895e-03 0.0 
0.0 0.0 -9.930598132463e-04 
-8.773556303313e-04 -1.926873992318e-04 0.0 
-1.926873992318e-04 5.856781784187e-03 0.0 
0.0 0.0 -8.780428295617e-04 
-9.805249871409e-04 -1.924563760953e-04 0.0 
-1.924563760953e-04 6.542490604406e-03 0.0 
0.0 0.0 -9.775429604617e-04 
-8.511934619470e-04 1.885314516425e-04 0.0 
1.885314516425e-04 5.570767617800e-03 0.0 
0.0 0.0 -8.502279965035e-04 
-1.193540881150e-03 1.313307987015e-04 0.0 
1.313307987015e-04 7.848740983510e-03 0.0 
0.0 0.0 -1.180288150054e-03 
-7.169159808387e-04 1.897237155632e-04 0.0 
1.897237155632e-04 4.633470113633e-03 0.0 
0.0 0.0 -7.154845226688e-04 
-1.330586332229e-03 -3.342005871351e-05 0.0 
-3.342005871351e-05 9.092648121720e-03 0.0 
0.0 0.0 -1.323793839065e-03 
-8.042874267729e-04 1.538278548701e-04 0.0 
1.538278548701e-04 5.332999869486e-03 0.0 
0.0 0.0 -8.119939454945e-04 
-8.205821157683e-04 -1.889603009902e-04 0.0 
-1.889603009902e-04 5.445817958641e-03 0.0 
0.0 0.0 -8.199314282332e-04 
-8.518598072760e-04 1.933057744939e-04 0.0 
1.933057744939e-04 5.584111954891e-03 0.0 
0.0 0.0 -8.523954645778e-04 
-4.499586564247e-04 -1.855256695767e-04 0.0 
-1.855256695767e-04 2.857022821909e-03 0.0 
0.0 0.0 -4.479040077299e-04 
-7.538979209402e-04 -1.934413965156e-04 0.0 
-1.934413965156e-04 4.995274109938e-03 0.0 
0.0 0.0 -7.551671247638e-04 
-9.291971374279e-04 1.860662208978e-04 0.0 
1.860662208978e-04 6.122384862718e-03 0.0 
0.0 0.0 -9.293281999836e-04 
-8.759687264253e-04 1.862073937601e-04 0.0 
1.862073937601e-04 5.739375914108e-03 0.0 
0.0 0.0 -8.738309435711e-04 
-9.814387768265e-04 1.839019607205e-04 0.0 
1.839019607205e-04 6.501334764278e-03 0.0 
0.0 0.0 -9.814596669550e-04 
-1.010867161751e-03 1.870829556364e-04 0.0 
1.870829556364e-04 6.678666577386e-03 0.0 
0.0 0.0 -1.008022096355e-03 
-1.044436862417e-03 -1.926634021925e-04 0.0 
-1.926634021925e-04 6.979659342720e-03 0.0 
0.0 0.0 -1.040850218070e-03 
-2.258973833718e-04 -1.030107291084e-04 0.0 
-1.030107291084e-04 1.399562224303e-03 0.0 
0.0 0.0 -2.163717569139e-04 
-7.194022022389e-04 1.955668345425e-04 0.0 
1.955668345425e-04 4.667671693721e-03 0.0 
0.0 0.0 -7.209013985657e-04 
-6.852716132609e-04 -1.859370640984e-04 0.0 
-1.859370640984e-04 4.485062449844e-03 0.0 
0.0 0.0 -6.825522065409e-04 
-9.565981315294e-04 1.790846631941e-04 0.0 
1.790846631941e-04 6.284252226282e-03 0.0 
0.0 0.0 -9.521954671713e-04 
-9.888411307371e-04 -1.922642027800e-04 0.0 
-1.922642027800e-04 6.601876220435e-03 0.0 
0.0 0.0 -9.850634846466e-04 
-1.155748252282e-03 1.797617113704e-04 0.0 
1.797617113704e-04 7.721330663973e-03 0.0 
0.0 0.0 -1.160108757481e-03 
-3.430926826769e-04 2.099465977868e-04 0.0 
2.099465977868e-04 1.967318145224e-03 0.0 
0.0 0.0 -3.273996513303e-04 
-3.332214715971e-04 -1.766782033718e-04 0.0 
-1.766782033718e-04 2.091595055548e-03 0.0 
0.0 0.0 -3.377286911054e-04 
-8.312276761858e-04 1.871380545802e-04 0.0 
1.871380545802e-04 5.435579353952e-03 0.0 
0.0 0.0 -8.305977116616e-04 
-7.164446669360e-04 -1.954011667159e-04 0.0 
-1.954011667159e-04 4.735861933211e-03 0.0 
0.0 0.0 -7.181358556540e-04 
-6.612400540539e-04 -2.145984864481e-04 0.0 
-2.145984864481e-04 4.300984587983e-03 0.0 
0.0 0.0 -6.554599841463e-04 
-6.892288823092e-04 -1.712097974293e-04 0.0 
-1.712097974293e-04 4.548932917262e-03 0.0 
0.0 0.0 -6.889204951115e-04 
-9.785151366904e-04 -1.903688334859e-04 0.0 
-1.903688334859e-04 6.552823194572e-03 0.0 
0.0 0.0 -9.793492904611e-04 
-3.279214625417e-04 -1.856414295295e-04 0.0 
-1.856414295295e-04 2.036611823989e-03 0.0 
0.0 0.0 -3.302473245842e-04 
-8.146691974455e-04 1.910766766112e-04 0.0 
1.910766766112e-04 5.328191831945e-03 0.0 
0.0 0.0 -8.154759146177e-04 
-1.049892567768e-03 -1.923181012939e-04 0.0 
-1.923181012939e-04 7.038288222671e-03 0.0 
0.0 0.0 -1.049209916622e-03 
-3.402244297759e-04 2.055488950202e-04 0.0 
2.055488950202e-04 2.007315154740e-03 0.0 
0.0 0.0 -3.408226701431e-04 
-1.289740643797e-03 -2.865690188003e-05 0.0 
-2.865690188003e-05 8.457698383589e-03 0.0 
0.0 0.0 -1.285586381397e-03 
-1.153161816539e-03 -1.810911126316e-04 0.0 
-1.810911126316e-04 7.745860400322e-03 0.0 
0.0 0.0 -1.152455342817e-03 
-7.730865248008e-04 -1.936313324954e-04 0.0 
-1.936313324954e-04 5.137233279798e-03 0.0 
0.0 0.0 -7.756113943005e-04 
-1.077943790440e-03 1.906149656784e-04 0.0 
1.906149656784e-04 7.162163658694e-03 0.0 
0.0 0.0 -1.078722419643e-03 
-1.818286327115e-04 -5.320949396193e-06 0.0 
-5.320949396193e-06 7.441773179857e-04 0.0 
0.0 0.0 -1.797547709840e-04 
-1.014460031072e-03 -2.000580684662e-04 0.0 
-2.000580684662e-04 6.784645211728e-03 0.0 
0.0 0.0 -1.012471576362e-03 
-8.638932840094e-04 -1.877196228479e-04 0.0 
-1.877196228479e-04 5.746441231772e-03 0.0 
0.0 0.0 -8.634366945984e-04 
-1.573089574220e-04 6.060813636144e-06 0.0 
6.060813636144e-06 7.379677460024e-04 0.0 
0.0 0.0 -1.788519809851e-04 
-1.152359323407e-03 1.787160847200e-04 0.0 
1.787160847200e-04 7.696182759720e-03 0.0 
0.0 0.0 -1.154859126927e-03 
-3.172722260094e-04 -1.887798844867e-04 0.0 
-1.887798844867e-04 1.899275964143e-03 0.0 
0.0 0.0 -3.099791425632e-04 
-9.534030089958e-04 -1.885226890489e-04 0.0 
-1.885226890489e-04 6.348031499756e-03 0.0 
0.0 0.0 -9.496453321265e-04 
-8.720767110960e-04 -1.896937711200e-04 0.0 
-1.896937711200e-04 5.800514782335e-03 0.0 
0.0 0.0 -8.712718144564e-04 
-7.527095169076e-04 -1.904145446510e-04 0.0 
-1.904145446510e-04 4.974920507200e-03 0.0 
0.0 0.0 -7.519815330289e-04 
-9.060865555047e-04 1.986245932988e-04 0.0 
1.986245932988e-04 5.963263483029e-03 0.0 
0.0 0.0 -9.052548162676e-04 
-1.186359257630e-03 1.790401943916e-04 0.0 
1.790401943916e-04 7.910120458871e-03 0.0 
0.0 0.0 -1.182898372388e-03 
-9.717172959483e-04 2.017731235506e-04 0.0 
2.017731235506e-04 6.421670982773e-03 0.0 
0.0 0.0 -9.716005391689e-04 
-8.586682738841e-04 1.870585543686e-04 0.0 
1.870585543686e-04 5.626729716629e-03 0.0 
0.0 0.0 -8.581765416018e-04 
-8.285502932263e-04 -1.869792024667e-04 0.0 
-1.869792024667e-04 5.500044709232e-03 0.0 
0.0 0.0 -8.279616112547e-04 
-1.157597014143e-04 1.569592925356e-04 0.0 
1.569592925356e-04 5.309685908672e-04 0.0 
0.0 0.0 -1.241199786263e-04 
-2.771697128881e-04 1.878257284128e-04 0.0 
1.878257284128e-04 1.577050393967e-03 0.0 
0.0 0.0 -2.761011822561e-04 
-1.118878802421e-03 -1.775376209316e-04 0.0 
-1.775376209316e-04 7.515980410063e-03 0.0 
0.0 0.0 -1.118331045454e-03 
-9.134689604251e-04 -2.151070896449e-04 0.0 
-2.151070896449e-04 6.054442910930e-03 0.0 
0.0 0.0 -9.085367473448e-04 
-1.157427958602e-03 1.810891327533e-04 0.0 
1.810891327533e-04 7.664331777096e-03 0.0 
0.0 0.0 -1.148691026115e-03 
-4.952790128068e-04 1.926215238323e-04 0.0 
1.926215238323e-04 3.096112546519e-03 0.0 
0.0 0.0 -4.942977111402e-04 
-1.099935257767e-03 1.964856595336e-04 0.0 
1.964856595336e-04 7.292900558944e-03 0.0 
0.0 0.0 -1.097950598811e-03 
-1.159977421736e-03 -1.899588415038e-04 0.0 
-1.899588415038e-04 7.782799989863e-03 0.0 
0.0 0.0 -1.155407764312e-03 
-7.046437970110e-04 1.771780882186e-04 0.0 
1.771780882186e-04 4.649202442724e-03 0.0 
0.0 0.0 -7.179420443741e-04 
-1.123089437587e-03 1.668381000105e-04 0.0 
1.668381000105e-04 7.448723404798e-03 0.0 
0.0 0.0 -1.120992621467e-03 
-1.074800466033e-03 -1.979281231238e-04 0.0 
-1.979281231238e-04 7.231750290380e-03 0.0 
0.0 0.0 -1.075946734593e-03 
-9.566951811484e-04 1.885305449409e-04 0.0 
1.885305449409e-04 6.314170866049e-03 0.0 
0.0 0.0 -9.571162043194e-04 
-7.858129650109e-04 1.950519568744e-04 0.0 
1.950519568744e-04 5.127464531984e-03 0.0 
0.0 0.0 -7.866383436874e-04 
-8.200429817129e-04 -1.955984029236e-04 0.0 
-1.955984029236e-04 5.453789901756e-03 0.0 
0.0 0.0 -8.209012074946e-04 
-1.208173698565e-03 -2.031466844655e-04 0.0 
-2.031466844655e-04 8.155254103189e-03 0.0 
0.0 0.0 -1.204704583718e-03 
-8.401419513637e-04 1.955438232626e-04 0.0 
1.955438232626e-04 5.506398965405e-03 0.0 
0.0 0.0 -8.396599866114e-04 
-9.021075521636e-04 1.852176330370e-04 0.0 
1.852176330370e-04 5.931413313431e-03 0.0 
0.0 0.0 -9.015555482168e-04 
-8.449278259680e-04 1.962826855989e-04 0.0 
1.962826855989e-04 5.533739272216e-03 0.0 
0.0 0.0 -8.433600309793e-04 
-1.038695295048e-03 1.973550359404e-04 0.0 
1.973550359404e-04 6.882197727614e-03 0.0 
0.0 0.0 -1.038364586984e-03 
-7.853544279650e-04 -1.888908667993e-04 0.0 
-1.888908667993e-04 5.195025610649e-03 0.0 
0.0 0.0 -7.842421616061e-04 
-5.077615371431e-04 1.925383574265e-04 0.0 
1.925383574265e-04 3.178371744144e-03 0.0 
0.0 0.0 -5.065804551108e-04 
-8.563679286654e-04 1.886904600153e-04 0.0 
1.886904600153e-04 5.609470178926e-03 0.0 
0.0 0.0 -8.561803240471e-04 
-5.442096767108e-04 1.899929291301e-04 0.0 
1.899929291301e-04 3.427592308512e-03 0.0 
0.0 0.0 -5.426160209679e-04 
-9.840239484115e-04 1.860183386348e-04 0.0 
1.860183386348e-04 6.482342277994e-03 0.0 
0.0 0.0 -9.799122972177e-04 
-5.401920244119e-04 -1.881877507058e-04 0.0 
-1.881877507058e-04 3.494301074598e-03 0.0 
0.0 0.0 -5.399485503622e-04 
-9.444560097486e-04 -1.940759614132e-04 0.0 
-1.940759614132e-04 6.297600198433e-03 0.0 
0.0 0.0 -9.420580210740e-04 
-1.136089878121e-03 -1.928967352453e-04 0.0 
-1.928967352453e-04 7.622114445815e-03 0.0 
0.0 0.0 -1.130549445556e-03 
-1.098744179893e-03 1.868758827566e-04 0.0 
1.868758827566e-04 7.288601580292e-03 0.0 
0.0 0.0 -1.096529089934e-03 
-7.525839073148e-04 1.884470413511e-04 0.0 
1.884470413511e-04 4.883223458127e-03 0.0 
0.0 0.0 -7.512528815035e-04 
-9.420690742010e-04 1.904423332236e-04 0.0 
1.904423332236e-04 6.250031840530e-03 0.0 
0.0 0.0 -9.460253849645e-04 
-1.105063984059e-03 1.902259811921e-04 0.0 
1.902259811921e-04 7.362332298090e-03 0.0 
0.0 0.0 -1.107441567342e-03 
-1.102593190183e-03 -1.984125757140e-04 0.0 
-1.984125757140e-04 7.431259929710e-03 0.0 
0.0 0.0 -1.104747680386e-03 
-2.748138935717e-04 -1.822651738482e-04 0.0 
-1.822651738482e-04 1.604872033163e-03 0.0 
0.0 0.0 -2.683291303717e-04 
-9.752435611011e-04 1.861325910200e-04 0.0 
1.861325910200e-04 6.426869973039e-03 0.0 
0.0 0.0 -9.724793438395e-04 
-1.198880595075e-03 2.442779644092e-04 0.0 
2.442779644092e-04 8.051846061103e-03 0.0 
0.0 0.0 -1.205818386895e-03 
-5.437300718268e-04 1.772584891249e-04 0.0 
1.772584891249e-04 3.388245147726e-03 0.0 
0.0 0.0 -5.357889572170e-04 
-8.407105615714e-04 -1.927518630569e-04 0.0 
-1.927518630569e-04 5.595089898141e-03 0.0 
0.0 0.0 -8.409532000723e-04 
-1.642955148473e-04 -1.732273966109e-04 0.0 
-1.732273966109e-04 7.998697341648e-04 0.0 
0.0 0.0 -1.553180670733e-04 
-1.132480187466e-03 1.879569331440e-04 0.0 
1.879569331440e-04 7.560437012022e-03 0.0 
0.0 0.0 -1.136235114959e-03 
-4.806530012621e-04 1.926320631023e-04 0.0 
1.926320631023e-04 2.980823159841e-03 0.0 
0.0 0.0 -4.785631936959e-04 
-8.099198933222e-04 1.419617410746e-04 0.0 
1.419617410746e-04 5.272582332729e-03 0.0 
0.0 0.0 -8.166178341775e-04 
-1.008233793579e-03 2.173973549694e-04 0.0 
2.173973549694e-04 6.687663611020e-03 0.0 
0.0 0.0 -1.008721701990e-03 
-9.403782054792e-04 -1.899510314298e-04 0.0 
-1.899510314298e-04 6.304690927512e-03 0.0 
0.0 0.0 -9.438854677472e-04 
-8.963572268651e-04 1.741364622750e-04 0.0 
1.741364622750e-04 5.997227966098e-03 0.0 
0.0 0.0 -9.108073647308e-04 
-8.940895927012e-04 1.874273657987e-04 0.0 
1.874273657987e-04 5.875054319372e-03 0.0 
0.0 0.0 -8.936906232635e-04 
-5.964027012772e-04 -1.969270146159e-04 0.0 
-1.969270146159e-04 3.828565622584e-03 0.0 
0.0 0.0 -5.884905393267e-04 
-6.222186473160e-04 -1.579598216189e-04 0.0 
-1.579598216189e-04 4.074275639624e-03 0.0 
0.0 0.0 -6.218825813656e-04 
-1.132545466856e-03 -1.921788675689e-04 0.0 
-1.921788675689e-04 7.631342050474e-03 0.0 
0.0 0.0 -1.133400347077e-03 
-9.399834973731e-04 -2.076180111175e-04 0.0 
-2.076180111175e-04 6.274716467853e-03 0.0 
0.0 0.0 -9.394087121358e-04 
-8.165998643397e-04 -1.896618384883e-04 0.0 
-1.896618384883e-04 5.425461381261e-03 0.0 
0.0 0.0 -8.164864906097e-04 
-1.015808219044e-03 2.043119981128e-04 0.0 
2.043119981128e-04 6.724239760090e-03 0.0 
0.0 0.0 -1.014986374720e-03 
-7.921952984754e-04 1.876569442452e-04 0.0 
1.876569442452e-04 5.161072896404e-03 0.0 
0.0 0.0 -7.915105747055e-04 
-5.132154280477e-04 -1.871647182002e-04 0.0 
-1.871647182002e-04 3.302371768383e-03 0.0 
0.0 0.0 -5.119962057136e-04 
-5.745746208365e-04 1.485352442874e-04 0.0 
1.485352442874e-04 3.755895310226e-03 0.0 
0.0 0.0 -5.908395828668e-04 
-8.562635021511e-04 -1.754512107451e-04 0.0 
-1.754512107451e-04 5.627343192984e-03 0.0 
0.0 0.0 -8.442294783838e-04 
-7.160648306050e-04 7.585704491028e-06 0.0 
7.585704491028e-06 4.849167370762e-03 0.0 
0.0 0.0 -7.121995050294e-04 
-1.098907698796e-03 -1.935603852202e-04 0.0 
-1.935603852202e-04 7.356586615962e-03 0.0 
0.0 0.0 -1.093598669875e-03 
-7.500784032912e-04 -1.888438395023e-04 0.0 
-1.888438395023e-04 4.947212343952e-03 0.0 
0.0 0.0 -7.486350631496e-04 
-1.210182417684e-03 1.765917680882e-04 0.0 
1.765917680882e-04 8.247529209770e-03 0.0 
0.0 0.0 -1.233571955743e-03 
-1.118284649088e-03 2.239133535708e-04 0.0 
2.239133535708e-04 7.476894485256e-03 0.0 
0.0 0.0 -1.121177773779e-03 
-8.254740426917e-04 -1.929282224424e-04 0.0 
-1.929282224424e-04 5.485443478807e-03 0.0 
0.0 0.0 -8.252461108756e-04 
-1.242964237003e-03 -2.139177796874e-04 0.0 
-2.139177796874e-04 8.349538837109e-03 0.0 
0.0 0.0 -1.241472629463e-03 
-5.687293433060e-04 -1.915120142832e-04 0.0 
-1.915120142832e-04 3.690790191525e-03 0.0 
0.0 0.0 -5.682622744621e-04 
-1.208040625364e-03 1.849401074129e-04 0.0 
1.849401074129e-04 8.046920265334e-03 0.0 
0.0 0.0 -1.204482468497e-03 
-8.913551845652e-04 -1.878094076415e-04 0.0 
-1.878094076415e-04 5.940020385334e-03 0.0 
0.0 0.0 -8.910665706739e-04 
-9.852542746409e-04 1.871572406668e-04 0.0 
1.871572406668e-04 6.505324580404e-03 0.0 
0.0 0.0 -9.848034212814e-04 
-1.145107580505e-03 -1.842496915473e-04 0.0 
-1.842496915473e-04 7.703101384869e-03 0.0 
0.0 0.0 -1.146785027167e-03 
-5.943655314034e-04 -1.832199318588e-04 0.0 
-1.832199318588e-04 3.893020220943e-03 0.0 
0.0 0.0 -5.958228065582e-04 
-9.389816814797e-04 1.876119276121e-04 0.0 
1.876119276121e-04 6.182064030220e-03 0.0 
0.0 0.0 -9.369464185080e-04 
-7.887299262109e-04 -1.887974843369e-04 0.0 
-1.887974843369e-04 5.230247920474e-03 0.0 
0.0 0.0 -7.886172400246e-04 
-9.083774489982e-04 -1.902700926230e-04 0.0 
-1.902700926230e-04 6.046157002466e-03 0.0 
0.0 0.0 -9.065670216064e-04 
-5.279887302568e-04 -1.859379540024e-04 0.0 
-1.859379540024e-04 3.395303897193e-03 0.0 
0.0 0.0 -5.268093404353e-04 
-1.014606245907e-03 2.103915705159e-04 0.0 
2.103915705159e-04 6.713973890446e-03 0.0 
0.0 0.0 -1.013229387512e-03 
-7.553250635679e-04 1.889436264504e-04 0.0 
1.889436264504e-04 4.904153081957e-03 0.0 
0.0 0.0 -7.548706880268e-04 
-8.804539724126e-04 1.911528069324e-04 0.0 
1.911528069324e-04 5.783141817002e-03 0.0 
0.0 0.0 -8.810281692460e-04 
-9.122003311207e-04 1.835312424396e-04 0.0 
1.835312424396e-04 5.985147494673e-03 0.0 
0.0 0.0 -9.091416541300e-04 
-1.779440610295e-04 -1.030848282903e-04 0.0 
-1.030848282903e-04 7.740733373014e-04 0.0 
0.0 0.0 -1.392682743729e-04 
-9.092484897749e-04 2.049076976716e-04 0.0 
2.049076976716e-04 5.988548295435e-03 0.0 
0.0 0.0 -9.082496170556e-04 
-2.130732635602e-04 -2.101807231717e-04 0.0 
-2.101807231717e-04 1.221567911035e-03 0.0 
0.0 0.0 -2.164288490095e-04 
-2.520548988868e-04 2.059906335290e-04 0.0 
2.059906335290e-04 1.360441870585e-03 0.0 
0.0 0.0 -2.410360834028e-04 
-8.430214645806e-04 1.870171193368e-04 0.0 
1.870171193368e-04 5.521874591652e-03 0.0 
0.0 0.0 -8.438072171805e-04 
-1.100618043992e-03 -1.995199700288e-04 0.0 
-1.995199700288e-04 7.372933681793e-03 0.0 
0.0 0.0 -1.098354823938e-03 
-9.336786887582e-04 1.772618600830e-04 0.0 
1.772618600830e-04 6.184069199665e-03 0.0 
0.0 0.0 -9.387552692591e-04 
-5.316814076804e-04 -1.951121058157e-04 0.0 
-1.951121058157e-04 3.374217008638e-03 0.0 
0.0 0.0 -5.215302833573e-04 
-1.342322198460e-03 1.355075091339e-05 0.0 
1.355075091339e-05 8.860022296973e-03 0.0 
0.0 0.0 -1.342322198460e-03 
-6.904184216633e-05 1.341545190441e-04 0.0 
1.341545190441e-04 2.607547295548e-04 0.0 
0.0 0.0 -8.216266602363e-05 
-5.589210723321e-04 -1.329418113689e-04 0.0 
-1.329418113689e-04 3.609084095351e-03 0.0 
0.0 0.0 -5.549805679787e-04 
-8.477696331988e-04 1.855996582244e-04 0.0 
1.855996582244e-04 5.547050172852e-03 0.0 
0.0 0.0 -8.472740691906e-04 
-8.035495844310e-04 -1.953259203622e-04 0.0 
-1.953259203622e-04 5.337013229194e-03 0.0 
0.0 0.0 -8.042584860449e-04 
-6.757348554203e-04 -1.653998453618e-04 0.0 
-1.653998453618e-04 4.426804148949e-03 0.0 
0.0 0.0 -6.733236465360e-04 
-5.914609098286e-04 1.823071808114e-04 0.0 
1.823071808114e-04 3.765270744377e-03 0.0 
0.0 0.0 -5.908717820549e-04 
-8.740292955770e-04 -1.984478198409e-04 0.0 
-1.984478198409e-04 5.813273429386e-03 0.0 
0.0 0.0 -8.733819075714e-04 
-9.264128048314e-04 -1.908219560730e-04 0.0 
-1.908219560730e-04 6.187717693912e-03 0.0 
0.0 0.0 -9.266779469803e-04 
-9.738255750276e-04 2.028683516141e-04 0.0 
2.028683516141e-04 6.450883656299e-03 0.0 
0.0 0.0 -9.734188451722e-04 
-1.155174733819e-03 2.031393399309e-04 0.0 
2.031393399309e-04 7.608098909852e-03 0.0 
0.0 0.0 -1.144302277022e-03 
-2.998307148874e-04 1.817771268844e-04 0.0 
1.817771268844e-04 1.707947677580e-03 0.0 
0.0 0.0 -2.976331147772e-04 
-7.774732960360e-04 1.902311186531e-04 0.0 
1.902311186531e-04 5.067412702539e-03 0.0 
0.0 0.0 -7.784793977761e-04 
-8.354929195800e-04 1.868427274729e-04 0.0 
1.868427274729e-04 5.469964258699e-03 0.0 
0.0 0.0 -8.356154970834e-04 
-4.516910884494e-04 -2.032153244338e-04 0.0 
-2.032153244338e-04 2.897475389763e-03 0.0 
0.0 0.0 -4.544023106810e-04 
-7.514806211766e-04 2.187245154034e-04 0.0 
2.187245154034e-04 4.887888210751e-03 0.0 
0.0 0.0 -7.518103749233e-04 
-9.376130433125e-04 -2.007012642150e-04 0.0 
-2.007012642150e-04 6.245928942655e-03 0.0 
0.0 0.0 -9.362314798257e-04 
-1.020402468730e-03 -1.946865508961e-04 0.0 
-1.946865508961e-04 6.790144563629e-03 0.0 
0.0 0.0 -1.023451880212e-03 
-1.525732992224e-04 8.599813622089e-06 0.0 
8.599813622089e-06 1.000033467602e-03 0.0 
0.0 0.0 -1.605242656235e-04 
-1.269812495822e-04 -2.531001823485e-04 0.0 
-2.531001823485e-04 4.902479252968e-04 0.0 
0.0 0.0 -1.185594205871e-04 
-3.241357878483e-04 -1.842994986655e-04 0.0 
-1.842994986655e-04 2.004473459914e-03 0.0 
0.0 0.0 -3.233707900025e-04 
-8.334989762748e-04 -1.938999604970e-04 0.0 
-1.938999604970e-04 5.537569679809e-03 0.0 
0.0 0.0 -8.330087554115e-04 
-6.325222328163e-04 -1.881321833313e-04 0.0 
-1.881321833313e-04 4.138956718805e-03 0.0 
0.0 0.0 -6.322020076307e-04 
-5.606822046862e-04 -1.836386180369e-04 0.0 
-1.836386180369e-04 3.638290895272e-03 0.0 
0.0 0.0 -5.605319560360e-04 
-5.042968556975e-04 -1.874920210369e-04 0.0 
-1.874920210369e-04 3.240689773487e-03 0.0 
0.0 0.0 -5.041580933422e-04 
-8.721332834429e-04 1.863637843613e-04 0.0 
1.863637843613e-04 5.722466013089e-03 0.0 
0.0 0.0 -8.721335634590e-04 
-9.951021354220e-04 1.863977597818e-04 0.0 
1.863977597818e-04 6.578139400737e-03 0.0 
0.0 0.0 -9.956198530692e-04 
-8.650795473338e-04 1.875435944103e-04 0.0 
1.875435944103e-04 5.670505538654e-03 0.0 
0.0 0.0 -8.643287579461e-04 
-6.358273554876e-04 1.861975192938e-04 0.0 
1.861975192938e-04 4.071155698746e-03 0.0 
0.0 0.0 -6.348607296063e-04 
-9.711834339353e-04 -2.012117718551e-04 0.0 
-2.012117718551e-04 6.487584772475e-03 0.0 
0.0 0.0 -9.699423737970e-04 
-8.101971348646e-04 1.641316877204e-04 0.0 
1.641316877204e-04 5.432076920036e-03 0.0 
0.0 0.0 -8.236220363599e-04 
-1.071983661584e-03 2.130963721818e-04 0.0 
2.130963721818e-04 7.145357950686e-03 0.0 
0.0 0.0 -1.076197569190e-03 
-8.626714893424e-04 -1.942405500946e-04 0.0 
-1.942405500946e-04 5.738328913224e-03 0.0 
0.0 0.0 -8.617642947636e-04 
-8.702702279883e-04 -1.921753086920e-04 0.0 
-1.921753086920e-04 5.792753129953e-03 0.0 
0.0 0.0 -8.694825820363e-04 
-4.645559553230e-04 -1.981925654933e-04 0.0 
-1.981925654933e-04 2.889937884797e-03 0.0 
0.0 0.0 -4.548485160793e-04 
-6.608554486332e-04 -1.864091804663e-04 0.0 
-1.864091804663e-04 4.336541054873e-03 0.0 
0.0 0.0 -6.598952468721e-04 
-8.926027030231e-04 1.843043537544e-04 0.0 
1.843043537544e-04 5.864339266433e-03 0.0 
0.0 0.0 -8.930692851043e-04 
-9.679615503638e-04 1.696948557831e-04 0.0 
1.696948557831e-04 6.395623785343e-03 0.0 
0.0 0.0 -9.615701295831e-04 
-9.079120183865e-04 1.806035671015e-04 0.0 
1.806035671015e-04 6.008465197654e-03 0.0 
0.0 0.0 -8.972249362023e-04 
-4.966173735405e-04 -1.549710521066e-04 0.0 
-1.549710521066e-04 3.153972529156e-03 0.0 
0.0 0.0 -4.879487645214e-04 
-9.010013592764e-04 1.886793445211e-04 0.0 
1.886793445211e-04 5.923625585035e-03 0.0 
0.0 0.0 -9.007118478549e-04 
-5.518253028034e-04 -1.783371210292e-04 0.0 
-1.783371210292e-04 3.577417440001e-03 0.0 
0.0 0.0 -5.517684601482e-04 
-2.845535083016e-04 1.977607623024e-04 0.0 
1.977607623024e-04 1.633750881917e-03 0.0 
0.0 0.0 -2.811347238918e-04 
-1.188918642902e-03 -1.918974946843e-04 0.0 
-1.918974946843e-04 8.111302423947e-03 0.0 
0.0 0.0 -1.202908440308e-03 
-3.019785591688e-04 1.950774455604e-04 0.0 
1.950774455604e-04 1.726883632229e-03 0.0 
0.0 0.0 -3.019870735033e-04 
-5.828626320578e-04 1.860512938998e-04 0.0 
1.860512938998e-04 3.705650589538e-03 0.0 
0.0 0.0 -5.822209219963e-04 
-8.781768956791e-04 -1.986806572289e-04 0.0 
-1.986806572289e-04 5.833892611308e-03 0.0 
0.0 0.0 -8.766521650092e-04 
-5.060723315699e-04 1.405250353070e-04 0.0 
1.405250353070e-04 3.287884117068e-03 0.0 
0.0 0.0 -5.239962781855e-04 
-8.898132346488e-04 -1.977943572352e-04 0.0 
-1.977943572352e-04 5.946896776319e-03 0.0 
0.0 0.0 -8.905656347129e-04 
-4.258375091185e-04 -2.178895733922e-04 0.0 
-2.178895733922e-04 2.688533932087e-03 0.0 
0.0 0.0 -4.282508963332e-04 
-7.578747057611e-04 -1.654300402082e-04 0.0 
-1.654300402082e-04 5.036141076678e-03 0.0 
0.0 0.0 -7.823486082854e-04 
-9.004251462807e-04 -1.892315142782e-04 0.0 
-1.892315142782e-04 5.992307029229e-03 0.0 
0.0 0.0 -8.981647654366e-04 
-7.810617461964e-04 -1.867589919143e-04 0.0 
-1.867589919143e-04 5.170374097518e-03 0.0 
0.0 0.0 -7.800125773855e-04 
-8.113930582064e-04 -1.934831491267e-04 0.0 
-1.934831491267e-04 5.398532171848e-03 0.0 
0.0 0.0 -8.126672281948e-04 
-1.456223754451e-04 -1.153284200369e-04 0.0 
-1.153284200369e-04 8.334024863152e-04 0.0 
0.0 0.0 -1.489310416055e-04 
-1.183619524390e-03 -1.995906802131e-04 0.0 
-1.995906802131e-04 7.793015624772e-03 0.0 
0.0 0.0 -1.152567315725e-03 
-6.518619288047e-04 -1.801864724235e-04 0.0 
-1.801864724235e-04 4.278312019353e-03 0.0 
0.0 0.0 -6.514572604261e-04 
-1.161957516655e-03 2.065796963047e-04 0.0 
2.065796963047e-04 7.737413579119e-03 0.0 
0.0 0.0 -1.154039482800e-03 
-9.839722502603e-04 -1.958677314329e-04 0.0 
-1.958677314329e-04 6.578387584555e-03 0.0 
0.0 0.0 -9.821191134873e-04 
-9.294100606495e-04 1.930061835790e-04 0.0 
1.930061835790e-04 6.122204066633e-03 0.0 
0.0 0.0 -9.293965016571e-04 
-9.285061071557e-04 -1.774497838441e-04 0.0 
-1.774497838441e-04 6.189509746344e-03 0.0 
0.0 0.0 -9.268654845074e-04 
-5.996189068561e-04 1.852055889783e-04 0.0 
1.852055889783e-04 3.820597089734e-03 0.0 
0.0 0.0 -5.989583036242e-04 
-1.944838745677e-04 1.584109702941e-04 0.0 
1.584109702941e-04 1.163625171840e-03 0.0 
0.0 0.0 -2.103425724855e-04 
-1.545095455239e-04 1.193388759039e-04 0.0 
1.193388759039e-04 6.563556231282e-04 0.0 
0.0 0.0 -1.599169489567e-04 
-9.548054477989e-04 1.928585704838e-04 0.0 
1.928585704838e-04 6.318843775437e-03 0.0 
0.0 0.0 -9.583065114986e-04 
-1.160173340718e-03 1.884012827659e-04 0.0 
1.884012827659e-04 7.692007981726e-03 0.0 
0.0 0.0 -1.148056181429e-03 
-5.412400896945e-04 -1.740896251804e-04 0.0 
-1.740896251804e-04 3.519775267643e-03 0.0 
0.0 0.0 -5.426247857783e-04 
-1.000629830532e-03 1.900148255988e-04 0.0 
1.900148255988e-04 6.622819157878e-03 0.0 
0.0 0.0 -1.000702849114e-03 
-5.014074309498e-04 1.897737110035e-04 0.0 
1.897737110035e-04 3.104700833587e-03 0.0 
0.0 0.0 -5.002094317253e-04 
-1.008257874699e-03 -1.995045898856e-04 0.0 
-1.995045898856e-04 6.739421236299e-03 0.0 
0.0 0.0 -1.005614027492e-03 
-1.275786431468e-03 1.088711895385e-04 0.0 
1.088711895385e-04 8.693642459064e-03 0.0 
0.0 0.0 -1.266534580134e-03 
-5.404710541813e-05 1.564499946383e-05 0.0 
1.564499946383e-05 2.310460762638e-04 0.0 
0.0 0.0 -4.512473402930e-05 
-1.341620833825e-03 -3.423569445624e-05 0.0 
-3.423569445624e-05 8.854172159816e-03 0.0 
0.0 0.0 -1.341620833825e-03 
-1.340051318819e-03 3.419351748173e-06 0.0 
3.419351748173e-06 8.881496154702e-03 0.0 
0.0 0.0 -1.340051318819e-03 
-8.003500561082e-04 -1.973446332084e-04 0.0 
-1.973446332084e-04 5.182732733425e-03 0.0 
0.0 0.0 -7.955197795907e-04 
-6.427190039752e-04 -1.771623886154e-04 0.0 
-1.771623886154e-04 4.219584582941e-03 0.0 
0.0 0.0 -6.428246066219e-04 
-9.539959357727e-04 -1.903436421630e-04 0.0 
-1.903436421630e-04 6.384067375959e-03 0.0 
0.0 0.0 -9.543595451430e-04 
-6.046483611249e-04 -1.904684548623e-04 0.0 
-1.904684548623e-04 3.941030960147e-03 0.0 
0.0 0.0 -6.041149214933e-04 
-2.015327089857e-04 -1.787857606074e-04 0.0 
-1.787857606074e-04 1.215175486256e-03 0.0 
0.0 0.0 -2.095884814006e-04 
-1.358502302165e-04 -1.652436952664e-04 0.0 
-1.652436952664e-04 5.860561493669e-04 0.0 
0.0 0.0 -1.201211790779e-04 
-1.224116731780e-03 -1.601620163348e-04 0.0 
-1.601620163348e-04 8.159917680932e-03 0.0 
0.0 0.0 -1.209499414335e-03 
-9.670306227229e-04 -2.102097021758e-04 0.0 
-2.102097021758e-04 6.456763428288e-03 0.0 
0.0 0.0 -9.648175333861e-04 
-7.505793698934e-04 -1.832067976458e-04 0.0 
-1.832067976458e-04 4.862883335491e-03 0.0 
0.0 0.0 -7.224789237173e-04 
-1.308106101880e-03 -9.564346375701e-06 0.0 
-9.564346375701e-06 9.104818726286e-03 0.0 
0.0 0.0 -1.323661129950e-03 
-3.723881451927e-04 -2.095753772028e-04 0.0 
-2.095753772028e-04 2.251170567837e-03 0.0 
0.0 0.0 -3.615704333793e-04 
-1.338587368780e-03 -1.150799812328e-05 0.0 
-1.150799812328e-05 9.097604261257e-03 0.0 
0.0 0.0 -1.324908485340e-03 
-9.656783964584e-04 1.862090128514e-04 0.0 
1.862090128514e-04 6.391762053029e-03 0.0 
0.0 0.0 -9.670422101491e-04 
-6.322851321103e-04 -1.782670103149e-04 0.0 
-1.782670103149e-04 4.156088603212e-03 0.0 
0.0 0.0 -6.336394413500e-04 
-9.215195886709e-04 1.858262024963e-04 0.0 
1.858262024963e-04 6.065159777351e-03 0.0 
0.0 0.0 -9.212972352143e-04 
-6.095245585206e-04 1.817233461859e-04 0.0 
1.817233461859e-04 3.888318231073e-03 0.0 
0.0 0.0 -6.094834619596e-04 
-3.161972729321e-04 2.118996039673e-04 0.0 
2.118996039673e-04 1.862493464303e-03 0.0 
0.0 0.0 -3.160312483096e-04 
-5.714172847083e-04 1.885506067566e-04 0.0 
1.885506067566e-04 3.631122930928e-03 0.0 
0.0 0.0 -5.728018649490e-04 
-1.022496320278e-03 1.929428534963e-04 0.0 
1.929428534963e-04 6.770909400157e-03 0.0 
0.0 0.0 -1.023749757194e-03 
-1.150976429886e-03 -2.032424840275e-04 0.0 
-2.032424840275e-04 7.758939253249e-03 0.0 
0.0 0.0 -1.155390781228e-03 
-6.187002398340e-04 1.818215273870e-04 0.0 
1.818215273870e-04 3.950326342677e-03 0.0 
0.0 0.0 -6.181853003094e-04 
-1.037480631671e-03 1.889356953884e-04 0.0 
1.889356953884e-04 6.873009589990e-03 0.0 
0.0 0.0 -1.036271578259e-03 
0.0 0.0 0.0 
0.0 0.0 0.0 
0.0 0.0 0.0 
-6.276661230387e-04 1.792694929943e-04 0.0 
1.792694929943e-04 4.010933515785e-03 0.0 
0.0 0.0 -6.266282162577e-04 
-1.067618640436e-03 -2.059979659696e-04 0.0 
-2.059979659696e-04 7.168819223232e-03 0.0 
0.0 0.0 -1.066385360782e-03 
-5.602476022505e-04 1.913249262792e-04 0.0 
1.913249262792e-04 3.548859392025e-03 0.0 
0.0 0.0 -5.616069800515e-04 
-5.034317169211e-04 -1.766316395617e-04 0.0 
-1.766316395617e-04 3.262973984744e-03 0.0 
0.0 0.0 -5.052880831394e-04 
-9.189958469858e-04 -1.860644213166e-04 0.0 
-1.860644213166e-04 6.131142810909e-03 0.0 
0.0 0.0 -9.187611816440e-04 
-2.798438621560e-04 2.024562614015e-04 0.0 
2.024562614015e-04 1.659164072585e-03 0.0 
0.0 0.0 -2.979563435985e-04 
-4.237702008278e-04 -1.193704641065e-04 0.0 
-1.193704641065e-04 2.381332436810e-03 0.0 
0.0 0.0 -3.867203691650e-04 
-3.975764326489e-04 -1.798608620238e-04 0.0 
-1.798608620238e-04 2.707475849368e-03 0.0 
0.0 0.0 -4.195921675762e-04 
-4.963058465455e-04 1.849091904100e-04 0.0 
1.849091904100e-04 3.099739962777e-03 0.0 
0.0 0.0 -4.973376392308e-04 
-8.459383987433e-04 -1.907145818211e-04 0.0 
-1.907145818211e-04 5.622335891913e-03 0.0 
0.0 0.0 -8.444178005646e-04 
-8.162577903273e-04 1.917219888078e-04 0.0 
1.917219888078e-04 5.328762658263e-03 0.0 
0.0 0.0 -8.147327860212e-04 
-1.033805230838e-03 -2.014200165049e-04 0.0 
-2.014200165049e-04 6.928519613423e-03 0.0 
0.0 0.0 -1.033897369924e-03 
-1.221633880436e-03 1.327525419154e-04 0.0 
1.327525419154e-04 8.105302040654e-03 0.0 
0.0 0.0 -1.224260864640e-03 
-4.437323643489e-04 1.289034247084e-04 0.0 
1.289034247084e-04 2.824272473931e-03 0.0 
0.0 0.0 -4.570814260163e-04 
-1.026282183515e-03 -2.469645237372e-04 0.0 
-2.469645237372e-04 6.837925098464e-03 0.0 
0.0 0.0 -1.028620860735e-03 
-1.232340650598e-03 1.232265702216e-04 0.0 
1.232265702216e-04 8.131356307241e-03 0.0 
0.0 0.0 -1.228414553209e-03 
-5.714514367839e-04 1.903885160707e-04 0.0 
1.903885160707e-04 3.625837711505e-03 0.0 
0.0 0.0 -5.707601703556e-04 
-2.135565257302e-04 2.102195190307e-04 0.0 
2.102195190307e-04 1.190116728888e-03 0.0 
0.0 0.0 -2.192200328082e-04 
-5.324811030586e-04 -1.564509498564e-04 0.0 
-1.564509498564e-04 3.456619354267e-03 0.0 
0.0 0.0 -5.330167430730e-04 
-8.085387987626e-04 -1.885177874859e-04 0.0 
-1.885177874859e-04 5.361946972922e-03 0.0 
0.0 0.0 -8.082977034869e-04 
-1.047924752938e-03 1.956397865657e-04 0.0 
1.956397865657e-04 6.924645327261e-03 0.0 
0.0 0.0 -1.043024347135e-03 
-8.126482086337e-04 1.904262971098e-04 0.0 
1.904262971098e-04 5.297787546946e-03 0.0 
0.0 0.0 -8.108276944599e-04 
-2.458088517300e-04 -1.138196901464e-04 0.0 
-1.138196901464e-04 1.452613291321e-03 0.0 
0.0 0.0 -2.343049260409e-04 
-9.102031090637e-04 -2.013755147983e-04 0.0 
-2.013755147983e-04 6.070783801232e-03 0.0 
0.0 0.0 -9.096068616062e-04 
-3.560167896549e-04 2.151383842188e-04 0.0 
2.151383842188e-04 2.131802985450e-03 0.0 
0.0 0.0 -3.508512830963e-04 
-8.140185260576e-04 -1.926928755879e-04 0.0 
-1.926928755879e-04 5.389465675351e-03 0.0 
0.0 0.0 -8.123573650817e-04 
-8.767776688193e-04 2.024483433582e-04 0.0 
2.024483433582e-04 5.751188307413e-03 0.0 
0.0 0.0 -8.756097305517e-04 
-9.509565837624e-04 1.896974231218e-04 0.0 
1.896974231218e-04 6.265385166788e-03 0.0 
0.0 0.0 -9.491391837787e-04 
-9.274205801970e-04 -1.707730266069e-04 0.0 
-1.707730266069e-04 6.212775611049e-03 0.0 
0.0 0.0 -9.494079867578e-04 
-4.906398001625e-04 -1.749565167891e-04 0.0 
-1.749565167891e-04 3.179973922092e-03 0.0 
0.0 0.0 -4.933620968966e-04 
-2.484574972914e-04 1.853035354058e-04 0.0 
1.853035354058e-04 1.372800011643e-03 0.0 
0.0 0.0 -2.459554264611e-04 
-9.419221611826e-04 2.078178624914e-04 0.0 
2.078178624914e-04 6.213877196692e-03 0.0 
0.0 0.0 -9.415329344942e-04 
-3.796687070467e-04 1.987051729866e-04 0.0 
1.987051729866e-04 2.349690832434e-03 0.0 
0.0 0.0 -3.857152600925e-04 
-1.079925297708e-04 2.094696628342e-04 0.0 
2.094696628342e-04 4.385964497386e-04 0.0 
0.0 0.0 -1.205192217350e-04 
-1.217003238982e-03 1.715975421034e-04 0.0 
1.715975421034e-04 8.115367819263e-03 0.0 
0.0 0.0 -1.223389224544e-03 
-1.152822377069e-03 1.914748152746e-04 0.0 
1.914748152746e-04 7.732583850779e-03 0.0 
0.0 0.0 -1.157435638217e-03 
-9.394432781389e-05 -1.620283716041e-05 0.0 
-1.620283716041e-05 3.135234532211e-04 0.0 
0.0 0.0 -9.410533946025e-05 
-9.757772886518e-04 -2.084469974537e-04 0.0 
-2.084469974537e-04 6.524951865197e-03 0.0 
0.0 0.0 -9.758309632658e-04 
-3.896708157340e-04 -1.763476574512e-04 0.0 
-1.763476574512e-04 2.457499880861e-03 0.0 
0.0 0.0 -3.887237773309e-04 
-4.187709573894e-04 2.113072011151e-04 0.0 
2.113072011151e-04 2.560835545987e-03 0.0 
0.0 0.0 -4.195855280820e-04 
-1.100445862982e-03 1.933828922324e-04 0.0 
1.933828922324e-04 7.327011461119e-03 0.0 
0.0 0.0 -1.100737838324e-03 
-9.470047501209e-04 -1.877990577056e-04 0.0 
-1.877990577056e-04 6.324416518396e-03 0.0 
0.0 0.0 -9.467522836136e-04 
-1.064750852218e-03 1.888034529426e-04 0.0 
1.888034529426e-04 7.071897550473e-03 0.0 
0.0 0.0 -1.064854740548e-03 
-6.246803119834e-04 -1.813696095216e-04 0.0 
-1.813696095216e-04 4.082455365693e-03 0.0 
0.0 0.0 -6.238888496032e-04 
-7.066733059563e-04 2.079397955123e-05 0.0 
2.079397955123e-05 4.859565834242e-03 0.0 
0.0 0.0 -7.105917616147e-04 
-1.294146159652e-03 -3.864697892392e-05 0.0 
-3.864697892392e-05 8.444131533072e-03 0.0 
0.0 0.0 -1.281538364137e-03 
-3.542163761972e-04 2.028127844720e-04 0.0 
2.028127844720e-04 2.096644602115e-03 0.0 
0.0 0.0 -3.541816848729e-04 
-1.125206372116e-03 -1.754172072946e-04 0.0 
-1.754172072946e-04 7.521489804146e-03 0.0 
0.0 0.0 -1.121221582973e-03 
-8.491762958406e-04 -1.918772025260e-04 0.0 
-1.918772025260e-04 5.637172269943e-03 0.0 
0.0 0.0 -8.477100451819e-04 
-2.548170229509e-04 1.666770740485e-04 0.0 
1.666770740485e-04 1.576109573106e-03 0.0 
0.0 0.0 -2.892354545592e-04 
-1.017444257442e-03 1.870623454717e-04 0.0 
1.870623454717e-04 6.717348757916e-03 0.0 
0.0 0.0 -1.015166614560e-03 
-6.631831128869e-04 1.857158928685e-04 0.0 
1.857158928685e-04 4.263729749941e-03 0.0 
0.0 0.0 -6.628028861993e-04 
-1.684732311542e-04 2.043772270911e-05 0.0 
2.043772270911e-05 7.313008481942e-04 0.0 
0.0 0.0 -1.790968519484e-04 
-5.636882380034e-04 1.819527752724e-04 0.0 
1.819527752724e-04 3.574156729662e-03 0.0 
0.0 0.0 -5.632129589051e-04 
-9.884210265131e-04 1.935912308442e-04 0.0 
1.935912308442e-04 6.630368017319e-03 0.0 
0.0 0.0 -9.915417172310e-04 
-1.024292652289e-03 -1.998354067082e-04 0.0 
-1.998354067082e-04 6.855679602380e-03 0.0 
0.0 0.0 -1.020980360542e-03 
-2.668718187996e-04 -1.887143997354e-04 0.0 
-1.887143997354e-04 1.647579462571e-03 0.0 
0.0 0.0 -2.713190868338e-04 
-7.786512140660e-04 -1.180089749437e-04 0.0 
-1.180089749437e-04 5.426201302135e-03 0.0 
0.0 0.0 -8.076288038732e-04 
-1.074110154891e-03 1.985848318848e-04 0.0 
1.985848318848e-04 7.134481455861e-03 0.0 
0.0 0.0 -1.071782534217e-03 
-1.102896231441e-03 -1.801608730722e-04 0.0 
-1.801608730722e-04 7.447194143767e-03 0.0 
0.0 0.0 -1.109893377180e-03 
-5.341916501155e-04 1.805786256933e-04 0.0 
1.805786256933e-04 3.363027861628e-03 0.0 
0.0 0.0 -5.351738145117e-04 
-4.305045173777e-04 1.931657245159e-04 0.0 
1.931657245159e-04 2.621086994850e-03 0.0 
0.0 0.0 -4.333934152438e-04 
-8.799765506503e-04 1.996562479782e-04 0.0 
1.996562479782e-04 5.778741680504e-03 0.0 
0.0 0.0 -8.786267582723e-04 
-9.199821990293e-04 -2.154181819419e-04 0.0 
-2.154181819419e-04 6.117399840533e-03 0.0 
0.0 0.0 -9.278975173457e-04 
-1.674260928547e-04 -1.501342801200e-05 0.0 
-1.501342801200e-05 7.277150164987e-04 0.0 
0.0 0.0 -1.762926913357e-04 
-1.274115998275e-03 1.675675276395e-06 0.0 
1.675675276395e-06 8.713591812970e-03 0.0 
0.0 0.0 -1.269179263065e-03 
-1.298508155882e-03 1.869502884700e-05 0.0 
1.869502884700e-05 8.443421948614e-03 0.0 
0.0 0.0 -1.281197857596e-03 
-8.292940884850e-04 -1.917175163009e-04 0.0 
-1.917175163009e-04 5.414946975703e-03 0.0 
0.0 0.0 -8.387747867703e-04 
-1.244952979202e-03 -2.282010355606e-04 0.0 
-2.282010355606e-04 8.516132030964e-03 0.0 
0.0 0.0 -1.255037608383e-03 
-1.285595461777e-03 8.758262611811e-05 0.0 
8.758262611811e-05 8.470225568410e-03 0.0 
0.0 0.0 -1.285499913836e-03 
-6.550628368553e-04 1.846091374222e-04 0.0 
1.846091374222e-04 4.205898052995e-03 0.0 
0.0 0.0 -6.542748834104e-04 
-6.160633711768e-04 -1.792561832398e-04 0.0 
-1.792561832398e-04 4.023102319788e-03 0.0 
0.0 0.0 -6.153450468602e-04 
-1.283033344166e-03 -3.678337033116e-05 0.0 
-3.678337033116e-05 8.728014596535e-03 0.0 
0.0 0.0 -1.265535665854e-03 
0.0 0.0 0.0 
0.0 0.0 0.0 
0.0 0.0 0.0 
-3.991066787644e-04 2.089649564117e-04 0.0 
2.089649564117e-04 2.425063075378e-03 0.0 
0.0 0.0 -3.941707820484e-04 
-8.514609378297e-04 2.123409869842e-04 0.0 
2.123409869842e-04 5.409120252618e-03 0.0 
0.0 0.0 -8.329475646481e-04 
-5.302799896406e-04 -1.732779148190e-04 0.0 
-1.732779148190e-04 3.448271069514e-03 0.0 
0.0 0.0 -5.313546330462e-04 
-5.563051708704e-04 1.844916340552e-04 0.0 
1.844916340552e-04 3.512912497570e-03 0.0 
0.0 0.0 -5.546931404481e-04 
-3.415568276899e-04 -1.308054941932e-04 0.0 
-1.308054941932e-04 1.889315350148e-03 0.0 
0.0 0.0 -3.196518454468e-04 
-3.575678493769e-04 -1.815157908242e-04 0.0 
-1.815157908242e-04 2.264784395116e-03 0.0 
0.0 0.0 -3.528063275151e-04 
-8.197996438865e-04 -1.649479054575e-04 0.0 
-1.649479054575e-04 5.559213606059e-03 0.0 
0.0 0.0 -8.290026594306e-04 
-5.969369916123e-04 -1.873932769646e-04 0.0 
-1.873932769646e-04 3.888936242251e-03 0.0 
0.0 0.0 -5.962921515785e-04 
-4.656748358331e-04 1.698564554768e-04 0.0 
1.698564554768e-04 2.821912241396e-03 0.0 
0.0 0.0 -4.583473518421e-04 
-1.081990949278e-03 2.020316486046e-04 0.0 
2.020316486046e-04 7.171935137813e-03 0.0 
0.0 0.0 -1.077832113627e-03 
-1.313638198111e-03 -3.076900631362e-06 0.0 
-3.076900631362e-06 9.102354608081e-03 0.0 
0.0 0.0 -1.324978758543e-03 
-1.341095485501e-03 -7.065196985572e-05 0.0 
-7.065196985572e-05 9.093683970561e-03 0.0 
0.0 0.0 -1.320624918399e-03 
-6.462169745443e-04 1.855628978642e-04 0.0 
1.855628978642e-04 4.145339439620e-03 0.0 
0.0 0.0 -6.457427040837e-04 
-7.708747032324e-04 1.041783851500e-04 0.0 
1.041783851500e-04 4.982091340538e-03 0.0 
0.0 0.0 -7.877541558771e-04 
-8.769640556113e-05 6.178156653826e-05 0.0 
6.178156653826e-05 4.782988861832e-04 0.0 
0.0 0.0 -9.215226380795e-05 
-2.633621526955e-04 -2.203101725458e-04 0.0 
-2.203101725458e-04 1.488332341374e-03 0.0 
0.0 0.0 -2.565684379859e-04 
-2.684503074307e-04 -1.015967117789e-04 0.0 
-1.015967117789e-04 1.723596733048e-03 0.0 
0.0 0.0 -2.726290318112e-04 
-2.937144985059e-04 -1.893501464246e-04 0.0 
-1.893501464246e-04 1.729218905568e-03 0.0 
0.0 0.0 -2.902597925154e-04 
-9.132607495649e-04 -1.959093978122e-04 0.0 
-1.959093978122e-04 6.073898974161e-03 0.0 
0.0 0.0 -9.116044729693e-04 
-5.464820601322e-04 1.827990156846e-04 0.0 
1.827990156846e-04 3.450683961523e-03 0.0 
0.0 0.0 -5.459662534218e-04 
-5.889189184563e-04 -1.828572680717e-04 0.0 
-1.828572680717e-04 3.834736165112e-03 0.0 
0.0 0.0 -5.879858557453e-04 
-1.839870051548e-04 -1.451969745408e-04 0.0 
-1.451969745408e-04 1.010884541365e-03 0.0 
0.0 0.0 -1.607067486349e-04 
-1.189299804196e-03 3.101361533260e-05 0.0 
3.101361533260e-05 7.702189552740e-03 0.0 
0.0 0.0 -1.176327079312e-03 
-5.798619533544e-04 -1.808661495354e-04 0.0 
-1.808661495354e-04 3.773380412779e-03 0.0 
0.0 0.0 -5.792774345575e-04 
-1.207908513450e-03 1.972281472903e-04 0.0 
1.972281472903e-04 8.083641670665e-03 0.0 
0.0 0.0 -1.212957849656e-03 
-1.102884565855e-03 -1.433383463997e-04 0.0 
-1.433383463997e-04 7.411218118786e-03 0.0 
0.0 0.0 -1.117460450001e-03 
-1.327052993259e-03 5.039016474573e-05 0.0 
5.039016474573e-05 9.117456944273e-03 0.0 
0.0 0.0 -1.319418651152e-03 
-1.323160438534e-03 4.113209317422e-05 0.0 
4.113209317422e-05 9.111232254039e-03 0.0 
0.0 0.0 -1.324849633189e-03 
-8.429214028196e-04 1.551938721598e-04 0.0 
1.551938721598e-04 5.556754036542e-03 0.0 
0.0 0.0 -8.315138651140e-04 
-6.054182665991e-04 -1.761595556498e-04 0.0 
-1.761595556498e-04 3.962557590826e-03 0.0 
0.0 0.0 -6.063493599946e-04 
-3.773225086312e-04 1.540184482810e-04 0.0 
1.540184482810e-04 2.369883884178e-03 0.0 
0.0 0.0 -3.884917441798e-04 
-6.362526417499e-04 1.880822988669e-04 0.0 
1.880822988669e-04 4.081289822239e-03 0.0 
0.0 0.0 -6.367902913543e-04 
-1.343328350294e-03 -2.242232029301e-05 0.0 
-2.242232029301e-05 8.871791449146e-03 0.0 
0.0 0.0 -1.343328350294e-03 
-1.941237960476e-04 -2.080169990245e-04 0.0 
-2.080169990245e-04 1.015510769409e-03 0.0 
0.0 0.0 -1.893367542308e-04 
-2.245210048569e-04 -1.692984650134e-04 0.0 
-1.692984650134e-04 1.259236592297e-03 0.0 
0.0 0.0 -2.228547875044e-04 
-1.167115373107e-03 -1.495116845836e-04 0.0 
-1.495116845836e-04 7.791699083978e-03 0.0 
0.0 0.0 -1.156027955174e-03 
-7.604196719999e-04 1.094016003107e-05 0.0 
1.094016003107e-05 5.257478836262e-03 0.0 
0.0 0.0 -7.715229432315e-04 
-1.218850929264e-03 2.058644676409e-04 0.0 
2.058644676409e-04 8.144525734943e-03 0.0 
0.0 0.0 -1.219279742240e-03 
-1.071479820018e-03 -2.036323164842e-04 0.0 
-2.036323164842e-04 7.177512432405e-03 0.0 
0.0 0.0 -1.069611963270e-03 
-1.173316210076e-03 1.967322517176e-04 0.0 
1.967322517176e-04 7.835584524311e-03 0.0 
0.0 0.0 -1.175036385391e-03 
-1.118458415257e-03 -2.207277967069e-04 0.0 
-2.207277967069e-04 7.508134580034e-03 0.0 
0.0 0.0 -1.113576918908e-03 
-8.412072480000e-04 1.822595111317e-04 0.0 
1.822595111317e-04 5.484810982913e-03 0.0 
0.0 0.0 -8.542750875041e-04 
-4.656106938285e-04 -1.713235230467e-04 0.0 
-1.713235230467e-04 3.001776381545e-03 0.0 
0.0 0.0 -4.674384380614e-04 
-4.697017346435e-04 1.848050694814e-04 0.0 
1.848050694814e-04 2.920597782787e-03 0.0 
0.0 0.0 -4.715697005044e-04 
-9.776991098987e-04 1.861960494421e-04 0.0 
1.861960494421e-04 6.549106674112e-03 0.0 
0.0 0.0 -9.963059934037e-04 
-1.137349181097e-03 -2.318464835195e-04 0.0 
-2.318464835195e-04 7.668040183404e-03 0.0 
0.0 0.0 -1.142506377625e-03 
-7.233340711098e-04 3.952444560705e-05 0.0 
3.952444560705e-05 4.569127107640e-03 0.0 
0.0 0.0 -7.345222264051e-04 
-7.670993363221e-04 9.419055025908e-06 0.0 
9.419055025908e-06 5.242908179151e-03 0.0 
0.0 0.0 -7.676068998053e-04 
-8.154774784067e-04 -6.428956903013e-05 0.0 
-6.428956903013e-05 5.577286133227e-03 0.0 
0.0 0.0 -8.242303029217e-04 
-8.631530775678e-04 -2.400243606271e-04 0.0 
-2.400243606271e-04 5.666444636217e-03 0.0 
0.0 0.0 -8.467401457521e-04 
-2.520894261651e-04 1.671748571762e-04 0.0 
1.671748571762e-04 1.368563506488e-03 0.0 
0.0 0.0 -2.397236108670e-04 
-4.305788114656e-04 1.772776305973e-04 0.0 
1.772776305973e-04 2.648122848143e-03 0.0 
0.0 0.0 -4.335179088089e-04 
-1.282591321733e-03 8.806658448800e-05 0.0 
8.806658448800e-05 8.712918664304e-03 0.0 
0.0 0.0 -1.269310366786e-03 
-9.079866980401e-04 -2.164843828387e-04 0.0 
-2.164843828387e-04 6.067165963345e-03 0.0 
0.0 0.0 -9.150577043801e-04 
-1.296402067617e-03 1.470406796949e-04 0.0 
1.470406796949e-04 8.670707295504e-03 0.0 
0.0 0.0 -1.295322057178e-03 
-1.218050556302e-03 -1.658124096046e-04 0.0 
-1.658124096046e-04 8.300187960416e-03 0.0 
0.0 0.0 -1.215577547940e-03 
-1.017494637499e-03 -1.921677140224e-04 0.0 
-1.921677140224e-04 6.789033766802e-03 0.0 
0.0 0.0 -1.012565562176e-03 
-1.225370251071e-03 -1.480578321934e-04 0.0 
-1.480578321934e-04 8.186203026488e-03 0.0 
0.0 0.0 -1.214907066889e-03 
-6.126094482220e-04 1.499930831992e-04 0.0 
1.499930831992e-04 3.952786327319e-03 0.0 
0.0 0.0 -6.304496659280e-04 
-5.949124951754e-04 1.553635317388e-04 0.0 
1.553635317388e-04 3.760564116659e-03 0.0 
0.0 0.0 -5.666856080635e-04 
-1.240251440986e-03 1.401266566937e-04 0.0 
1.401266566937e-04 8.128078577480e-03 0.0 
0.0 0.0 -1.226851238141e-03 
-8.681779237144e-05 6.361966938889e-05 0.0 
6.361966938889e-05 2.955256088903e-04 0.0 
0.0 0.0 -8.944620707951e-05 
-3.994468741372e-04 -6.433767031839e-05 0.0 
-6.433767031839e-05 2.663800316761e-03 0.0 
0.0 0.0 -4.071640756073e-04 
-1.342405754833e-03 -1.165290042753e-05 0.0 
-1.165290042753e-05 8.847278625245e-03 0.0 
0.0 0.0 -1.342405754833e-03 
-2.282183831112e-04 -1.931913246922e-04 0.0 
-1.931913246922e-04 1.161289386138e-03 0.0 
0.0 0.0 -2.265802816212e-04 
-7.779914563104e-04 2.250840471912e-05 0.0 
2.250840471912e-05 4.976100040424e-03 0.0 
0.0 0.0 -7.870118106326e-04 
-1.235301241696e-03 -4.597267687941e-05 0.0 
-4.597267687941e-05 8.352549433382e-03 0.0 
0.0 0.0 -1.213461936786e-03 
-1.459711515859e-04 1.404844411890e-04 0.0 
1.404844411890e-04 8.229618690863e-04 0.0 
0.0 0.0 -1.562362318669e-04 
-9.769154927044e-05 -4.466849095827e-05 0.0 
-4.466849095827e-05 5.434427193165e-04 0.0 
0.0 0.0 -9.998712429274e-05 
-1.319764072821e-03 -1.098631366031e-04 0.0 
-1.098631366031e-04 9.086194502793e-03 0.0 
0.0 0.0 -1.324389858384e-03 
-7.180738404627e-04 8.985801949804e-05 0.0 
8.985801949804e-05 4.589525670273e-03 0.0 
0.0 0.0 -7.294542769151e-04 
-1.252043255197e-03 2.202164088422e-04 0.0 
2.202164088422e-04 8.539160480101e-03 0.0 
0.0 0.0 -1.261418349269e-03 
-1.248383097869e-03 1.112925247003e-05 0.0 
1.112925247003e-05 8.098072079257e-03 0.0 
0.0 0.0 -1.231858344535e-03 
-7.209227692000e-04 -5.510654877091e-05 0.0 
-5.510654877091e-05 4.575450219389e-03 0.0 
0.0 0.0 -7.289279708929e-04 
-7.887389828834e-05 -1.017830300428e-05 0.0 
-1.017830300428e-05 5.525360744204e-04 0.0 
0.0 0.0 -9.740250892546e-05 
-1.285641185581e-03 -9.669087187560e-05 0.0 
-9.669087187560e-05 8.464210102403e-03 0.0 
0.0 0.0 -1.284140717545e-03 
-2.442885352264e-04 -2.316128597141e-04 0.0 
-2.316128597141e-04 1.339036366237e-03 0.0 
0.0 0.0 -2.433545560381e-04 
-1.243394787484e-03 1.248159333677e-04 0.0 
1.248159333677e-04 8.192432393622e-03 0.0 
0.0 0.0 -1.232184317627e-03 
-1.343095105526e-03 -5.545911197436e-07 0.0 
-5.545911197436e-07 8.861098076103e-03 0.0 
0.0 0.0 -1.343095105526e-03 
-1.242483488035e-03 -1.476678323208e-04 0.0 
-1.476678323208e-04 8.164481882699e-03 0.0 
0.0 0.0 -1.225700354592e-03 
-3.053173479735e-04 1.995595624775e-04 0.0 
1.995595624775e-04 1.753941284829e-03 0.0 
0.0 0.0 -3.044764127662e-04 
-8.209179416884e-04 2.201614491088e-05 0.0 
2.201614491088e-05 5.636691216410e-03 0.0 
0.0 0.0 -8.279144014868e-04 
-6.598213782972e-04 -1.321361913962e-04 0.0 
-1.321361913962e-04 4.200506500251e-03 0.0 
0.0 0.0 -6.271989868224e-04 
-1.073009497438e-03 -2.016133877389e-04 0.0 
-2.016133877389e-04 7.190278966189e-03 0.0 
0.0 0.0 -1.077599360682e-03 
-1.322804215539e-03 -9.225806505957e-05 0.0 
-9.225806505957e-05 9.099454060859e-03 0.0 
0.0 0.0 -1.326997735404e-03 
-1.068734190482e-03 1.262415369066e-04 0.0 
1.262415369066e-04 7.132952485478e-03 0.0 
0.0 0.0 -1.061614915164e-03 
-1.337358869243e-03 1.104149306633e-04 0.0 
1.104149306633e-04 9.089889591753e-03 0.0 
0.0 0.0 -1.325870641008e-03 
-1.438532979018e-04 1.783345522893e-04 0.0 
1.783345522893e-04 7.477808023263e-04 0.0 
0.0 0.0 -1.715795432680e-04 
-1.271233225915e-03 -1.249047643759e-04 0.0 
-1.249047643759e-04 8.707020070809e-03 0.0 
0.0 0.0 -1.277656510522e-03 
-3.430844418630e-04 1.264811275403e-04 0.0 
1.264811275403e-04 2.040518818998e-03 0.0 
0.0 0.0 -3.355960889912e-04 
-2.267326677211e-04 8.751186841259e-05 0.0 
8.751186841259e-05 1.117406703756e-03 0.0 
0.0 0.0 -2.298118214877e-04 
-1.280901782935e-03 -1.009695952617e-04 0.0 
-1.009695952617e-04 8.719202259105e-03 0.0 
0.0 0.0 -1.270335377537e-03 
-1.269212628500e-03 -5.703432125201e-05 0.0 
-5.703432125201e-05 8.728165820739e-03 0.0 
0.0 0.0 -1.270603359501e-03 
-1.290208848840e-03 -1.659042855401e-04 0.0 
-1.659042855401e-04 8.665328582140e-03 0.0 
0.0 0.0 -1.289850838753e-03 
-7.717572245574e-04 2.050611335135e-04 0.0 
2.050611335135e-04 5.043252484980e-03 0.0 
0.0 0.0 -7.762633204683e-04 
-8.522136042617e-04 2.002639843872e-04 0.0 
2.002639843872e-04 5.495330100218e-03 0.0 
0.0 0.0 -8.489529362435e-04 
-3.165071740037e-04 -2.111753426377e-04 0.0 
-2.111753426377e-04 1.888408226457e-03 0.0 
0.0 0.0 -3.134500106614e-04 
-1.262455248765e-03 -8.092303513728e-05 0.0 
-8.092303513728e-05 8.720636871640e-03 0.0 
0.0 0.0 -1.273041473476e-03 
-5.172296523503e-04 1.719980447266e-04 0.0 
1.719980447266e-04 3.374654497821e-03 0.0 
0.0 0.0 -5.357483711987e-04 
-1.781924616035e-04 -1.691974037750e-04 0.0 
-1.691974037750e-04 1.076416545498e-03 0.0 
0.0 0.0 -2.114276361914e-04 
-1.103945436021e-03 1.858035491712e-04 0.0 
1.858035491712e-04 7.419563175353e-03 0.0 
0.0 0.0 -1.110141529071e-03 
-7.006483677025e-04 -2.017256137276e-05 0.0 
-2.017256137276e-05 4.817249357728e-03 0.0 
0.0 0.0 -7.096328662732e-04 
-1.236750495474e-03 1.522707816399e-04 0.0 
1.522707816399e-04 8.254648441428e-03 0.0 
0.0 0.0 -1.237729719596e-03 
-1.313320395878e-03 -1.861843894467e-04 0.0 
-1.861843894467e-04 8.989774958204e-03 0.0 
0.0 0.0 -1.321509982054e-03 
-1.343732204276e-03 -8.189586176297e-06 0.0 
-8.189586176297e-06 8.864848236539e-03 0.0 
0.0 0.0 -1.343732204276e-03 
-2.113977103298e-05 -6.116564405309e-05 0.0 
-6.116564405309e-05 2.124468673954e-04 0.0 
0.0 0.0 -4.293446239042e-05 
-1.369574587125e-05 5.682883385819e-05 0.0 
5.682883385819e-05 6.671587994242e-05 0.0 
0.0 0.0 -2.272291460193e-05 
-7.269437089926e-04 -1.696449694041e-04 0.0 
-1.696449694041e-04 4.683701017331e-03 0.0 
0.0 0.0 -7.318233512793e-04 
-7.351939856936e-04 2.731264159563e-05 0.0 
2.731264159563e-05 4.828327016366e-03 0.0 
0.0 0.0 -7.096011290571e-04 
-1.343732204276e-03 1.179896387127e-05 0.0 
1.179896387127e-05 8.857063084495e-03 0.0 
0.0 0.0 -1.343732204276e-03 
-1.309711018183e-03 1.830632258291e-04 0.0 
1.830632258291e-04 8.985110969777e-03 0.0 
0.0 0.0 -1.321509982054e-03 
-7.839023714476e-05 1.530759167141e-04 0.0 
1.530759167141e-04 4.984351001574e-04 0.0 
0.0 0.0 -9.787861857360e-05 
0.0 0.0 0.0 
0.0 0.0 0.0 
0.0 0.0 0.0 
-1.240428741391e-03 1.261681395074e-04 0.0 
1.261681395074e-04 8.137366373926e-03 0.0 
0.0 0.0 -1.230181737024e-03 
-1.207075559038e-03 2.460354552527e-04 0.0 
2.460354552527e-04 8.184062138694e-03 0.0 
0.0 0.0 -1.209364118140e-03 
-2.516969952369e-04 -1.461428108360e-04 0.0 
-1.461428108360e-04 1.687102641450e-03 0.0 
0.0 0.0 -2.712674790923e-04 
-1.245262172265e-03 -1.311938195306e-04 0.0 
-1.311938195306e-04 8.282968492479e-03 0.0 
0.0 0.0 -1.240191881334e-03 
-8.815159713633e-04 -5.214653451851e-05 0.0 
-5.214653451851e-05 5.742054567636e-03 0.0 
0.0 0.0 -8.888375990210e-04 
-7.830091470663e-04 -1.948066662000e-04 0.0 
-1.948066662000e-04 5.082527524584e-03 0.0 
0.0 0.0 -7.610796297342e-04 
-9.561048422875e-04 9.798803026384e-05 0.0 
9.798803026384e-05 6.427121213030e-03 0.0 
0.0 0.0 -9.400782610458e-04 
-2.481095332731e-04 1.496361777487e-04 0.0 
1.496361777487e-04 1.515795619755e-03 0.0 
0.0 0.0 -2.626203152100e-04 
-1.010907895305e-03 -2.030439122722e-04 0.0 
-2.030439122722e-04 6.762603191825e-03 0.0 
0.0 0.0 -1.011657465016e-03 
-2.096777059838e-04 3.248157080125e-05 0.0 
3.248157080125e-05 1.393633952846e-03 0.0 
0.0 0.0 -2.181484037039e-04 
-6.792638343957e-04 -1.892634513455e-04 0.0 
-1.892634513455e-04 4.524953282507e-03 0.0 
0.0 0.0 -6.997415131527e-04 
-1.228132135990e-03 1.125898781112e-04 0.0 
1.125898781112e-04 8.215057351811e-03 0.0 
0.0 0.0 -1.240519096027e-03 
-1.189706231828e-03 -2.131151468578e-04 0.0 
-2.131151468578e-04 8.025000395541e-03 0.0 
0.0 0.0 -1.191726112421e-03 
-7.376716687014e-04 1.103821202312e-04 0.0 
1.103821202312e-04 4.884590449632e-03 0.0 
0.0 0.0 -7.690942022927e-04 
-8.794968587203e-04 -1.839618802493e-04 0.0 
-1.839618802493e-04 5.894695197839e-03 0.0 
0.0 0.0 -8.745659502648e-04 
-1.233301431487e-03 8.160038213140e-05 0.0 
8.160038213140e-05 8.358065301524e-03 0.0 
0.0 0.0 -1.217119345309e-03 
-1.141574387304e-03 -2.166019370135e-04 0.0 
-2.166019370135e-04 7.685657586840e-03 0.0 
0.0 0.0 -1.140944809983e-03 
-1.081193771009e-03 -2.086711321349e-04 0.0 
-2.086711321349e-04 7.235399972245e-03 0.0 
0.0 0.0 -1.076426999079e-03 
-7.306608964195e-04 1.032073657561e-05 0.0 
1.032073657561e-05 4.566565227243e-03 0.0 
0.0 0.0 -7.312123441678e-04 
-9.778650762194e-04 -2.118658920496e-04 0.0 
-2.118658920496e-04 6.529297964408e-03 0.0 
0.0 0.0 -9.763781674015e-04 
-1.237478436388e-03 1.224174650821e-04 0.0 
1.224174650821e-04 8.159420566097e-03 0.0 
0.0 0.0 -1.231404929774e-03 
-4.267545194733e-04 1.185171473709e-04 0.0 
1.185171473709e-04 2.513528635352e-03 0.0 
0.0 0.0 -4.167967844001e-04 
-9.921663346510e-05 -4.441075622388e-05 0.0 
-4.441075622388e-05 6.032903446548e-04 0.0 
0.0 0.0 -1.015157820784e-04 
-1.196520802042e-03 -1.451432414407e-04 0.0 
-1.451432414407e-04 7.939655555732e-03 0.0 
0.0 0.0 -1.185975225609e-03 
-1.126502929027e-03 1.777561321906e-04 0.0 
1.777561321906e-04 7.477268686063e-03 0.0 
0.0 0.0 -1.123538223191e-03 
-2.078344596567e-04 -1.080252995939e-04 0.0 
-1.080252995939e-04 1.116725601039e-03 0.0 
0.0 0.0 -2.307047010092e-04 
-9.934730169900e-04 -1.599306293238e-04 0.0 
-1.599306293238e-04 6.730831912440e-03 0.0 
0.0 0.0 -9.893338170986e-04 
-1.294485487258e-03 -4.211486433477e-05 0.0 
-4.211486433477e-05 8.454062998903e-03 0.0 
0.0 0.0 -1.282739585886e-03 
-1.188427124013e-03 1.207612322075e-04 0.0 
1.207612322075e-04 7.845258460139e-03 0.0 
0.0 0.0 -1.182073443778e-03 
-1.229516741237e-03 -2.922411445837e-05 0.0 
-2.922411445837e-05 8.351941012254e-03 0.0 
0.0 0.0 -1.215129606110e-03 
-9.509005340637e-04 -2.110936823322e-04 0.0 
-2.110936823322e-04 6.286467037558e-03 0.0 
0.0 0.0 -9.537126495859e-04 
-9.113657589531e-05 5.031862656042e-05 0.0 
5.031862656042e-05 3.206408784026e-04 0.0 
0.0 0.0 -9.835898678883e-05 
-3.211470424961e-04 1.012653271347e-04 0.0 
1.012653271347e-04 1.877306534774e-03 0.0 
0.0 0.0 -3.212443691966e-04 
-3.868345573263e-04 -2.158079183948e-04 0.0 
-2.158079183948e-04 2.373525116556e-03 0.0 
0.0 0.0 -3.834349432650e-04 
-8.152074782469e-04 3.282099269049e-05 0.0 
3.282099269049e-05 5.366100763401e-03 0.0 
0.0 0.0 -8.471429939415e-04 
-9.776446367943e-04 2.161934057613e-04 0.0 
2.161934057613e-04 6.478555405996e-03 0.0 
0.0 0.0 -9.781602908260e-04 
-1.243353399719e-03 -1.638877946274e-04 0.0 
-1.638877946274e-04 8.293874922919e-03 0.0 
0.0 0.0 -1.236541257690e-03 
-1.282980388071e-03 6.834535406594e-05 0.0 
6.834535406594e-05 8.446722746771e-03 0.0 
0.0 0.0 -1.282325209426e-03 
-1.534406041715e-04 -3.090119355691e-05 0.0 
-3.090119355691e-05 9.940803017302e-04 0.0 
0.0 0.0 -1.581060378624e-04 
-1.515974677088e-04 5.347591743218e-05 0.0 
5.347591743218e-05 9.499659581657e-04 0.0 
0.0 0.0 -1.538280640939e-04 
-2.429997348883e-04 2.036444813406e-04 0.0 
2.036444813406e-04 1.479432396382e-03 0.0 
0.0 0.0 -2.585189829319e-04 
-1.003671688667e-03 2.798952750373e-04 0.0 
2.798952750373e-04 6.711627995117e-03 0.0 
0.0 0.0 -1.019242131223e-03 
-5.082641639815e-04 -1.820796698733e-04 0.0 
-1.820796698733e-04 3.225266612081e-03 0.0 
0.0 0.0 -4.953283059016e-04 
-1.242349672414e-03 -1.508059351583e-04 0.0 
-1.508059351583e-04 8.332022443394e-03 0.0 
0.0 0.0 -1.241298427557e-03 
-2.469827383887e-04 -1.734013788770e-04 0.0 
-1.734013788770e-04 1.596418989747e-03 0.0 
0.0 0.0 -2.623907620756e-04 
-1.225402262687e-03 9.684378834699e-05 0.0 
9.684378834699e-05 8.090992196229e-03 0.0 
0.0 0.0 -1.221152601860e-03 
-8.136377301276e-04 1.789287431363e-04 0.0 
1.789287431363e-04 5.446005510680e-03 0.0 
0.0 0.0 -8.343732341398e-04 
-1.267827958096e-03 1.379445383931e-06 0.0 
1.379445383931e-06 8.495733417342e-03 0.0 
0.0 0.0 -1.286815605725e-03 
-1.109817670536e-03 -2.343370330106e-04 0.0 
-2.343370330106e-04 7.482609533299e-03 0.0 
0.0 0.0 -1.111121968474e-03 
-8.202418952196e-04 -8.830664857131e-05 0.0 
-8.830664857131e-05 5.379056120884e-03 0.0 
0.0 0.0 -8.465141837044e-04 
-1.270879538861e-03 -4.852122928062e-05 0.0 
-4.852122928062e-05 8.726187780208e-03 0.0 
0.0 0.0 -1.269142588751e-03 
-1.282679052200e-03 7.789633126418e-05 0.0 
7.789633126418e-05 8.731686959293e-03 0.0 
0.0 0.0 -1.272727265576e-03 
-1.257303152988e-03 6.224102812160e-05 0.0 
6.224102812160e-05 8.713074082016e-03 0.0 
0.0 0.0 -1.271339345674e-03 
-1.734083018694e-04 1.988310073065e-04 0.0 
1.988310073065e-04 9.960919397328e-04 0.0 
0.0 0.0 -1.914719991171e-04 
-1.218228496203e-03 1.745230460975e-04 0.0 
1.745230460975e-04 8.126336924162e-03 0.0 
0.0 0.0 -1.218309553141e-03 
-1.287690608828e-03 2.935127504917e-05 0.0 
2.935127504917e-05 8.450884291377e-03 0.0 
0.0 0.0 -1.286645293131e-03 
-1.215292120313e-03 -1.048319889731e-04 0.0 
-1.048319889731e-04 8.264175100215e-03 0.0 
0.0 0.0 -1.211735819529e-03 
-1.131460186021e-03 2.249929147144e-04 0.0 
2.249929147144e-04 7.604741910755e-03 0.0 
0.0 0.0 -1.143254064081e-03 
-1.342665167303e-03 2.462626238341e-05 0.0 
2.462626238341e-05 8.842656329326e-03 0.0 
0.0 0.0 -1.342665167303e-03 
-1.082512435834e-03 2.096972143521e-04 0.0 
2.096972143521e-04 7.169850347795e-03 0.0 
0.0 0.0 -1.079065255302e-03 
0.0 0.0 0.0 
0.0 0.0 0.0 
0.0 0.0 0.0 
-2.601109826526e-04 -2.071691114658e-04 0.0 
-2.071691114658e-04 1.415839820494e-03 0.0 
0.0 0.0 -2.423809483696e-04 
-1.192508312149e-03 -1.779210084662e-04 0.0 
-1.779210084662e-04 7.961128754995e-03 0.0 
0.0 0.0 -1.176936364471e-03 
-8.685626322098e-04 1.582275665785e-04 0.0 
1.582275665785e-04 5.835782021141e-03 0.0 
0.0 0.0 -8.884613587993e-04 
-1.209889234857e-03 -1.955325308149e-04 0.0 
-1.955325308149e-04 8.188769710118e-03 0.0 
0.0 0.0 -1.221994126432e-03 
-1.170503729369e-03 -2.209983450853e-04 0.0 
-2.209983450853e-04 7.908922597115e-03 0.0 
0.0 0.0 -1.177009544428e-03 
-1.281372639421e-03 -4.882657488475e-05 0.0 
-4.882657488475e-05 8.503605837596e-03 0.0 
0.0 0.0 -1.292249833993e-03 
-1.060591200894e-03 2.356899093670e-04 0.0 
2.356899093670e-04 7.243032913762e-03 0.0 
0.0 0.0 -1.085521458831e-03 
-1.295424128128e-03 -1.344853644109e-05 0.0 
-1.344853644109e-05 8.497735658802e-03 0.0 
0.0 0.0 -1.288973456333e-03 
-1.240273266268e-03 -1.643959908807e-04 0.0 
-1.643959908807e-04 8.288290248441e-03 0.0 
0.0 0.0 -1.233322439334e-03 
-1.236328969747e-03 1.681015718690e-04 0.0 
1.681015718690e-04 8.249087621686e-03 0.0 
0.0 0.0 -1.235043566395e-03 
-5.200406812990e-04 -1.166757664344e-04 0.0 
-1.166757664344e-04 3.385215487565e-03 0.0 
0.0 0.0 -5.104964012366e-04 
-1.293388642315e-03 -2.007549829059e-05 0.0 
-2.007549829059e-05 9.114239519402e-03 0.0 
0.0 0.0 -1.325641941534e-03 
-7.485652657637e-04 1.433772634922e-05 0.0 
1.433772634922e-05 5.220751556451e-03 0.0 
0.0 0.0 -7.662153309038e-04 
-1.203353616892e-03 -1.846454248332e-04 0.0 
-1.846454248332e-04 8.194731648824e-03 0.0 
0.0 0.0 -1.217406395243e-03 
-1.473848137131e-04 -7.608252406775e-05 0.0 
-7.608252406775e-05 7.058205605385e-04 0.0 
0.0 0.0 -1.761976461317e-04 
-1.139762521842e-03 -1.242981094265e-04 0.0 
-1.242981094265e-04 7.914367669760e-03 0.0 
0.0 0.0 -1.163202487293e-03 
-9.847139031094e-04 -2.927819349541e-05 0.0 
-2.927819349541e-05 6.802999958382e-03 0.0 
0.0 0.0 -9.926133712568e-04 
-1.690893902524e-04 -1.078602895255e-04 0.0 
-1.078602895255e-04 9.402080020995e-04 0.0 
0.0 0.0 -1.628620303624e-04 
-2.985531882031e-04 -2.240216763464e-04 0.0 
-2.240216763464e-04 1.642242196626e-03 0.0 
0.0 0.0 -2.736924314970e-04 
-1.111715101681e-03 2.179506947961e-04 0.0 
2.179506947961e-04 7.377812155317e-03 0.0 
0.0 0.0 -1.107581195644e-03 
-1.292896746142e-03 -1.945315972070e-05 0.0 
-1.945315972070e-05 8.475231004044e-03 0.0 
0.0 0.0 -1.285368862661e-03 
-1.232559661219e-03 -1.674576161592e-04 0.0 
-1.674576161592e-04 8.301292046622e-03 0.0 
0.0 0.0 -1.223917301752e-03 
-1.254461742942e-03 2.341900515224e-04 0.0 
2.341900515224e-04 8.559507473306e-03 0.0 
0.0 0.0 -1.264779455601e-03 
-8.799678260909e-04 2.461510225767e-04 0.0 
2.461510225767e-04 5.779390736261e-03 0.0 
0.0 0.0 -8.807565902733e-04 
-9.459318500255e-05 -9.224025008795e-06 0.0 
-9.224025008795e-06 5.593643268762e-04 0.0 
0.0 0.0 -1.022500568216e-04 
-1.184228338263e-04 1.932393774192e-04 0.0 
1.932393774192e-04 8.360742900508e-04 0.0 
0.0 0.0 -1.527632439532e-04 
-1.485774023436e-04 2.057472114589e-04 0.0 
2.057472114589e-04 4.943058849458e-04 0.0 
0.0 0.0 -1.262112556552e-04 
-1.889957332613e-04 -1.720729644019e-04 0.0 
-1.720729644019e-04 1.198989706623e-03 0.0 
0.0 0.0 -2.080055930776e-04 
-2.412796962869e-05 1.151125546851e-04 0.0 
1.151125546851e-04 1.259903231300e-04 0.0 
0.0 0.0 -4.365529435769e-05 
-6.564338874857e-04 1.298407551401e-04 0.0 
1.298407551401e-04 4.516305724260e-03 0.0 
0.0 0.0 -6.753304527203e-04 
-1.206082523732e-03 1.933788045723e-04 0.0 
1.933788045723e-04 8.180269090487e-03 0.0 
0.0 0.0 -1.222305993939e-03 
-1.222663318362e-03 1.753368055928e-04 0.0 
1.753368055928e-04 8.227435580213e-03 0.0 
0.0 0.0 -1.222833113937e-03 
-8.669258191564e-04 -1.817944922657e-04 0.0 
-1.817944922657e-04 5.844176131481e-03 0.0 
0.0 0.0 -8.826313165011e-04 
-6.040048573085e-04 -2.738267400018e-04 0.0 
-2.738267400018e-04 3.891940944486e-03 0.0 
0.0 0.0 -5.988529843847e-04 
-1.222353962553e-03 -1.610597655754e-04 0.0 
-1.610597655754e-04 8.260198203253e-03 0.0 
0.0 0.0 -1.221067908166e-03 
-1.203746913663e-03 2.278206710252e-04 0.0 
2.278206710252e-04 8.189793790316e-03 0.0 
0.0 0.0 -1.208702654310e-03 
-1.279025858978e-03 8.766018994025e-05 0.0 
8.766018994025e-05 8.741593274881e-03 0.0 
0.0 0.0 -1.272252409145e-03 
-1.242705220595e-03 -3.696381206596e-05 0.0 
-3.696381206596e-05 8.148871227430e-03 0.0 
0.0 0.0 -1.237422270938e-03 
-1.174009678725e-03 1.988566962408e-04 0.0 
1.988566962408e-04 7.816359446438e-03 0.0 
0.0 0.0 -1.171232062679e-03 
-1.672054198290e-04 9.231173188905e-05 0.0 
9.231173188905e-05 7.047171557344e-04 0.0 
0.0 0.0 -1.733042685746e-04 
-1.128922232108e-04 -1.541536460293e-04 0.0 
-1.541536460293e-04 8.181726866748e-04 0.0 
0.0 0.0 -1.441637530793e-04 
-1.232867888531e-03 -1.583409372844e-04 0.0 
-1.583409372844e-04 8.274546276781e-03 0.0 
0.0 0.0 -1.223662873675e-03 
-1.809471586289e-04 2.732513028346e-05 0.0 
2.732513028346e-05 7.150332979249e-04 0.0 
0.0 0.0 -1.761523314621e-04 
-2.090612244599e-04 2.679772699564e-04 0.0 
2.679772699564e-04 1.034188635189e-03 0.0 
0.0 0.0 -1.933333333332e-04 
-1.375589269253e-04 1.895212040581e-04 0.0 
1.895212040581e-04 6.272580356086e-04 0.0 
0.0 0.0 -1.476920362276e-04 
-1.616726848356e-04 -1.838984361801e-04 0.0 
-1.838984361801e-04 7.928606863592e-04 0.0 
0.0 0.0 -1.580296812506e-04 
-1.300434401275e-03 -1.024873491577e-05 0.0 
-1.024873491577e-05 8.484073046421e-03 0.0 
0.0 0.0 -1.288571152055e-03 
-1.296196106557e-03 -7.581226292431e-05 0.0 
-7.581226292431e-05 8.500775829958e-03 0.0 
0.0 0.0 -1.290113636706e-03 
-1.257797356609e-03 1.887508465157e-04 0.0 
1.887508465157e-04 8.298916238051e-03 0.0 
0.0 0.0 -1.236907757659e-03 
-1.306315150684e-03 9.008107202155e-08 0.0 
9.008107202155e-08 8.523760771155e-03 0.0 
0.0 0.0 -1.292605224168e-03 
-1.191514572737e-03 -1.523248627148e-04 0.0 
-1.523248627148e-04 7.914354314681e-03 0.0 
0.0 0.0 -1.176879138244e-03 
-9.009707231897e-04 2.647575106000e-04 0.0 
2.647575106000e-04 6.062013665177e-03 0.0 
0.0 0.0 -9.170130443517e-04 
-1.345069444888e-03 -1.224359494152e-05 0.0 
-1.224359494152e-05 8.872525889838e-03 0.0 
0.0 0.0 -1.345069444888e-03 
-3.168516228751e-04 -1.142391801259e-04 0.0 
-1.142391801259e-04 2.071683762697e-03 0.0 
0.0 0.0 -3.330755757467e-04 
-6.832796589934e-04 2.794415003490e-06 0.0 
2.794415003490e-06 4.812526626932e-03 0.0 
0.0 0.0 -7.083073883397e-04 
-1.983733277546e-04 6.070841311573e-05 0.0 
6.070841311573e-05 1.303830959687e-03 0.0 
0.0 0.0 -2.086331215474e-04 
-8.213992574580e-05 4.728700015113e-05 0.0 
4.728700015113e-05 2.774119614063e-04 0.0 
0.0 0.0 -8.368801528307e-05 
-1.296331570259e-03 3.985530997243e-05 0.0 
3.985530997243e-05 9.108859965209e-03 0.0 
0.0 0.0 -1.323850096553e-03 
-7.636750152913e-04 -5.943479672408e-05 0.0 
-5.943479672408e-05 5.297273347084e-03 0.0 
0.0 0.0 -7.731261162940e-04 
-1.898896061389e-04 2.668881093002e-05 0.0 
2.668881093002e-05 1.324161255717e-03 0.0 
0.0 0.0 -2.115341463249e-04 
-6.766397334689e-04 2.335959289237e-04 0.0 
2.335959289237e-04 4.262192913851e-03 0.0 
0.0 0.0 -6.570498647039e-04 
-1.270388897102e-03 1.791394562197e-05 0.0 
1.791394562197e-05 8.744228481245e-03 0.0 
0.0 0.0 -1.276804206569e-03 
-1.238351285998e-03 -1.647535430713e-04 0.0 
-1.647535430713e-04 8.287386498838e-03 0.0 
0.0 0.0 -1.228616961883e-03 
-1.299245503170e-03 -6.943481147043e-06 0.0 
-6.943481147043e-06 8.501206471558e-03 0.0 
0.0 0.0 -1.289666537713e-03 
-4.674755872492e-04 -1.441717405802e-04 0.0 
-1.441717405802e-04 3.063014272079e-03 0.0 
0.0 0.0 -4.695399720401e-04 
-1.457689473942e-04 -1.575597281072e-04 0.0 
-1.575597281072e-04 7.498700715420e-04 0.0 
0.0 0.0 -1.553221962317e-04 
-1.285913149297e-03 -1.165123631474e-04 0.0 
-1.165123631474e-04 8.730182768681e-03 0.0 
0.0 0.0 -1.273144391159e-03 
-1.298815958390e-03 2.309086979375e-05 0.0 
2.309086979375e-05 9.107151826923e-03 0.0 
0.0 0.0 -1.325353038101e-03 
-1.331981550421e-03 -1.771381069916e-05 0.0 
-1.771381069916e-05 9.126640523195e-03 0.0 
0.0 0.0 -1.323783523096e-03 
-7.660500434482e-04 1.313542510446e-04 0.0 
1.313542510446e-04 5.035539676325e-03 0.0 
0.0 0.0 -7.673431308700e-04 
-1.235780327313e-03 -4.526587613014e-06 0.0 
-4.526587613014e-06 8.115023081303e-03 0.0 
0.0 0.0 -1.231867668451e-03 
-1.953177882174e-04 -9.491085164936e-05 0.0 
-9.491085164936e-05 1.122964739939e-03 0.0 
0.0 0.0 -2.324200178898e-04 
-1.257584227981e-03 1.660686322992e-04 0.0 
1.660686322992e-04 8.340961353616e-03 0.0 
0.0 0.0 -1.241575510934e-03 
-8.170589745739e-05 -1.080295024412e-05 0.0 
-1.080295024412e-05 2.725451190137e-04 0.0 
0.0 0.0 -8.178823780987e-05 
-1.306295822847e-03 -1.062422533951e-05 0.0 
-1.062422533951e-05 8.506048519693e-03 0.0 
0.0 0.0 -1.290713494763e-03 
-1.281136683791e-03 1.115018912951e-04 0.0 
1.115018912951e-04 8.702368548138e-03 0.0 
0.0 0.0 -1.268585396830e-03 
-8.090064620293e-05 -6.463780865650e-05 0.0 
-6.463780865650e-05 2.764343947342e-04 0.0 
0.0 0.0 -8.380017794198e-05 
-1.195471399734e-03 -1.402863971347e-04 0.0 
-1.402863971347e-04 7.949772117529e-03 0.0 
0.0 0.0 -1.178018281593e-03 
-1.028233004996e-03 -1.859683667160e-04 0.0 
-1.859683667160e-04 6.977936374389e-03 0.0 
0.0 0.0 -1.053859681778e-03 
-1.289487723471e-03 -3.059440868738e-05 0.0 
-3.059440868738e-05 8.509289695588e-03 0.0 
0.0 0.0 -1.289687241943e-03 
-1.346242744377e-03 -1.047219123709e-05 0.0 
-1.047219123709e-05 8.896960402449e-03 0.0 
0.0 0.0 -1.346242744377e-03 
-9.624911099008e-04 -2.997622866496e-04 0.0 
-2.997622866496e-04 6.376553401582e-03 0.0 
0.0 0.0 -9.627310317561e-04 
-1.292971171235e-03 1.345101664025e-05 0.0 
1.345101664025e-05 8.530939079912e-03 0.0 
0.0 0.0 -1.292510612804e-03 
-1.246115197789e-03 -1.533948492975e-04 0.0 
-1.533948492975e-04 8.325319025632e-03 0.0 
0.0 0.0 -1.236507170568e-03 
-1.007540401079e-03 8.825741490426e-06 0.0 
8.825741490426e-06 6.546914065101e-03 0.0 
0.0 0.0 -1.009625451247e-03 
-1.239682124839e-03 -1.433667225738e-05 0.0 
-1.433667225738e-05 8.247508066060e-03 0.0 
0.0 0.0 -1.247605899893e-03 
-5.439659078653e-04 -1.293203549736e-04 0.0 
-1.293203549736e-04 3.573225901759e-03 0.0 
0.0 0.0 -5.668522599723e-04 
-7.422257193806e-04 -2.384409417979e-05 0.0 
-2.384409417979e-05 4.553525172640e-03 0.0 
0.0 0.0 -7.287847301676e-04 
-1.250463763405e-03 1.444458806810e-04 0.0 
1.444458806810e-04 8.323970461278e-03 0.0 
0.0 0.0 -1.239219007812e-03 
-1.277932458032e-03 1.160268164509e-04 0.0 
1.160268164509e-04 8.651299276670e-03 0.0 
0.0 0.0 -1.286506427510e-03 
0.0 0.0 0.0 
0.0 0.0 0.0 
0.0 0.0 0.0 
-7.391696919876e-04 5.460045200464e-05 0.0 
5.460045200464e-05 4.572310123870e-03 0.0 
0.0 0.0 -7.284590636140e-04 
-1.282539678950e-03 -1.213229753820e-04 0.0 
-1.213229753820e-04 8.668193960288e-03 0.0 
0.0 0.0 -1.288082484959e-03 
-2.668000831652e-04 1.337975711292e-04 0.0 
1.337975711292e-04 1.552550494018e-03 0.0 
0.0 0.0 -2.765646858065e-04 
-1.244314668154e-03 3.253635918241e-05 0.0 
3.253635918241e-05 8.351662046828e-03 0.0 
0.0 0.0 -1.213252366005e-03 
-1.212806318798e-03 -1.378965673920e-04 0.0 
-1.378965673920e-04 8.296055804055e-03 0.0 
0.0 0.0 -1.225943235494e-03 
-1.276740815873e-03 -1.548809764644e-04 0.0 
-1.548809764644e-04 8.705204137735e-03 0.0 
0.0 0.0 -1.269037835114e-03 
-2.467774251027e-04 1.357300176722e-04 0.0 
1.357300176722e-04 1.515114324046e-03 0.0 
0.0 0.0 -2.647987373252e-04 
-1.846190942978e-04 5.164886539677e-05 0.0 
5.164886539677e-05 1.204409405256e-03 0.0 
0.0 0.0 -1.906575996298e-04 
-8.286327452832e-04 3.382951551478e-04 0.0 
3.382951551478e-04 5.239779904281e-03 0.0 
0.0 0.0 -7.939471195916e-04 
-1.139651880695e-03 8.042350541591e-05 0.0 
8.042350541591e-05 7.547907450212e-03 0.0 
0.0 0.0 -1.120841203304e-03 
6.762182202460e-06 4.922521689337e-06 0.0 
4.922521689337e-06 1.951722452606e-04 0.0 
0.0 0.0 -4.162563418682e-05 
-1.297631582513e-03 -2.970012333430e-05 0.0 
-2.970012333430e-05 8.538118962210e-03 0.0 
0.0 0.0 -1.292233508669e-03 
-9.496420787081e-04 3.842938930090e-05 0.0 
3.842938930090e-05 6.134769422350e-03 0.0 
0.0 0.0 -9.501928138396e-04 
-2.319252204202e-04 -1.666332425871e-04 0.0 
-1.666332425871e-04 1.531261602253e-03 0.0 
0.0 0.0 -2.601894661948e-04 
-9.182086126089e-04 6.576575429171e-05 0.0 
6.576575429171e-05 5.823601520570e-03 0.0 
0.0 0.0 -9.030544305944e-04 
-1.281338578084e-03 -1.215158440347e-04 0.0 
-1.215158440347e-04 8.719272788120e-03 0.0 
0.0 0.0 -1.271643562581e-03 
-8.361599263990e-04 -2.906502343770e-04 0.0 
-2.906502343770e-04 5.524370676589e-03 0.0 
0.0 0.0 -8.272804529250e-04 
-9.020963282829e-05 -1.875396024300e-04 0.0 
-1.875396024300e-04 3.251699178446e-04 0.0 
0.0 0.0 -8.776479312233e-05 
-5.428499226707e-04 1.403699556570e-04 0.0 
1.403699556570e-04 3.200704680556e-03 0.0 
0.0 0.0 -5.209635072927e-04 
-7.264103312116e-04 1.066181262773e-04 0.0 
1.066181262773e-04 4.783605203211e-03 0.0 
0.0 0.0 -7.319997505001e-04 
-8.379507721355e-04 3.506890823091e-04 0.0 
3.506890823091e-04 5.706153283525e-03 0.0 
0.0 0.0 -8.599999999992e-04 
-1.240777117315e-03 -1.439647034317e-04 0.0 
-1.439647034317e-04 8.329527072644e-03 0.0 
0.0 0.0 -1.232780192057e-03 
-7.376665261260e-04 -1.727241022976e-04 0.0 
-1.727241022976e-04 4.617911229220e-03 0.0 
0.0 0.0 -7.175509632692e-04 
-7.419227856638e-04 8.706574175028e-05 0.0 
8.706574175028e-05 4.905660942002e-03 0.0 
0.0 0.0 -7.596628988333e-04 
-1.725607618193e-04 1.274500514103e-04 0.0 
1.274500514103e-04 7.075820556251e-04 0.0 
0.0 0.0 -1.551230728613e-04 
-1.262496529076e-03 1.402132573887e-04 0.0 
1.402132573887e-04 8.306889500876e-03 0.0 
0.0 0.0 -1.240629869904e-03 
-1.209173557273e-03 1.621322078836e-04 0.0 
1.621322078836e-04 7.950506271258e-03 0.0 
0.0 0.0 -1.186362110037e-03 
-2.227791697187e-04 8.637930858019e-05 0.0 
8.637930858019e-05 1.298316331418e-03 0.0 
0.0 0.0 -2.411692657676e-04 
-1.261193436875e-03 -8.326695288074e-05 0.0 
-8.326695288074e-05 8.552285249105e-03 0.0 
0.0 0.0 -1.290349483557e-03 
-1.293807969811e-03 1.507292729990e-04 0.0 
1.507292729990e-04 8.596145003785e-03 0.0 
0.0 0.0 -1.290356026000e-03 
-7.679899519872e-04 -1.532356305283e-04 0.0 
-1.532356305283e-04 5.157074227234e-03 0.0 
0.0 0.0 -7.639788432047e-04 
-9.396515753231e-04 3.091234051292e-05 0.0 
3.091234051292e-05 6.333492038285e-03 0.0 
0.0 0.0 -9.358343396975e-04 
-7.048143922741e-04 1.638625948524e-04 0.0 
1.638625948524e-04 4.692848505541e-03 0.0 
0.0 0.0 -7.108516105536e-04 
-7.079275106751e-04 -1.102323501340e-04 0.0 
-1.102323501340e-04 4.802970885948e-03 0.0 
0.0 0.0 -7.343037059241e-04 
-7.780838486789e-04 -3.476295080762e-05 0.0 
-3.476295080762e-05 5.090202749114e-03 0.0 
0.0 0.0 -7.498489858827e-04 
-1.195445771267e-03 1.533301423154e-04 0.0 
1.533301423154e-04 7.905914704818e-03 0.0 
0.0 0.0 -1.180929064624e-03 
-2.101723265820e-04 1.264806835632e-04 0.0 
1.264806835632e-04 1.084941023669e-03 0.0 
0.0 0.0 -2.274637643159e-04 
-1.230210229403e-03 -1.391362873496e-04 0.0 
-1.391362873496e-04 8.342547987840e-03 0.0 
0.0 0.0 -1.217816617926e-03 
-8.387293036436e-04 7.281979356209e-05 0.0 
7.281979356209e-05 5.326094164637e-03 0.0 
0.0 0.0 -8.376728236383e-04 
-1.277193560845e-03 -1.460979146763e-04 0.0 
-1.460979146763e-04 8.720485292524e-03 0.0 
0.0 0.0 -1.272153791098e-03 
-1.202298967755e-03 -1.320050113914e-04 0.0 
-1.320050113914e-04 7.883588282290e-03 0.0 
0.0 0.0 -1.181257232468e-03 
-8.795673226242e-04 -5.945622150851e-05 0.0 
-5.945622150851e-05 6.031279173310e-03 0.0 
0.0 0.0 -8.902468719969e-04 
-1.211224544084e-03 1.194316264715e-04 0.0 
1.194316264715e-04 8.008237221313e-03 0.0 
0.0 0.0 -1.201032862555e-03 
-1.250364770317e-03 1.261810502706e-04 0.0 
1.261810502706e-04 8.225945087577e-03 0.0 
0.0 0.0 -1.236767197193e-03 
-1.292703020779e-03 -2.277677435029e-05 0.0 
-2.277677435029e-05 8.758650210356e-03 0.0 
0.0 0.0 -1.270271405117e-03 
-9.288790837527e-05 4.486310937793e-05 0.0 
4.486310937793e-05 3.125136257930e-04 0.0 
0.0 0.0 -9.412530746476e-05 
-1.213293100967e-03 -1.365137297491e-04 0.0 
-1.365137297491e-04 8.055302576551e-03 0.0 
0.0 0.0 -1.198686027802e-03 
-1.233489147260e-03 1.844031552690e-04 0.0 
1.844031552690e-04 8.360738709544e-03 0.0 
0.0 0.0 -1.227078865044e-03 
-1.296260318671e-04 -1.418501242847e-04 0.0 
-1.418501242847e-04 8.665050242929e-04 0.0 
0.0 0.0 -1.488313462956e-04 
-6.781230104505e-04 -1.171397059556e-04 0.0 
-1.171397059556e-04 4.366860208538e-03 0.0 
0.0 0.0 -6.841365946973e-04 
-7.630078233159e-05 -6.102099342087e-05 0.0 
-6.102099342087e-05 5.288528667040e-04 0.0 
0.0 0.0 -9.692352125104e-05 
-1.239413171189e-03 -1.038112219682e-04 0.0 
-1.038112219682e-04 8.427166424518e-03 0.0 
0.0 0.0 -1.230789928679e-03 
-4.743042659077e-04 -7.660020380402e-05 0.0 
-7.660020380402e-05 2.865853814990e-03 0.0 
0.0 0.0 -4.711111111111e-04 
-4.511705314287e-04 5.193280790000e-05 0.0 
5.193280790000e-05 3.054035925169e-03 0.0 
0.0 0.0 -4.488888888889e-04 
-4.724633686242e-04 -9.447249748580e-06 0.0 
-9.447249748580e-06 2.739853487715e-03 0.0 
0.0 0.0 -4.711111111111e-04 
-4.498683787897e-04 -1.564459074611e-06 0.0 
-1.564459074611e-06 3.043354068164e-03 0.0 
0.0 0.0 -4.488888888889e-04 
-4.709847188569e-04 -3.574354858548e-06 0.0 
-3.574354858548e-06 2.732085994282e-03 0.0 
0.0 0.0 -4.711111111111e-04 
-4.493918302821e-04 -2.534727311539e-06 0.0 
-2.534727311539e-06 3.042771200855e-03 0.0 
0.0 0.0 -4.488888888889e-04 
-4.712289592024e-04 -1.812807881693e-06 0.0 
-1.812807881693e-06 2.731728430754e-03 0.0 
0.0 0.0 -4.711111111111e-04 
-4.495764455886e-04 -1.773818124670e-06 0.0 
-1.773818124670e-06 3.043241608981e-03 0.0 
0.0 0.0 -4.488888888889e-04 
-4.714369542363e-04 -1.226754823059e-06 0.0 
-1.226754823059e-06 2.732193229008e-03 0.0 
0.0 0.0 -4.711111111111e-04 
-4.501045239425e-04 -1.319389086982e-06 0.0 
-1.319389086982e-06 3.044025953912e-03 0.0 
0.0 0.0 -4.488888888889e-04 
-4.721709199479e-04 -7.219039080997e-07 0.0 
-7.219039080997e-07 2.733000959488e-03 0.0 
0.0 0.0 -4.711111111111e-04 
-4.509336513469e-04 -1.227029478674e-06 0.0 
-1.227029478674e-06 3.045199183253e-03 0.0 
0.0 0.0 -4.488888888889e-04 
-4.733112105119e-04 -2.101747565311e-06 0.0 
-2.101747565311e-06 2.733939753671e-03 0.0 
0.0 0.0 -4.711111111111e-04 
-4.514024211387e-04 -2.167247969086e-06 0.0 
-2.167247969086e-06 3.045303862128e-03 0.0 
0.0 0.0 -4.488888888889e-04 
-4.736423528676e-04 -3.198210204819e-06 0.0 
-3.198210204819e-06 2.733987266950e-03 0.0 
0.0 0.0 -4.711111111111e-04 
-4.515039822840e-04 -2.583022231608e-06 0.0 
-2.583022231608e-06 3.044671970773e-03 0.0 
0.0 0.0 -4.488888888889e-04 
-5.094249609212e-04 -1.485849024676e-04 0.0 
-1.485849024676e-04 3.037014136749e-03 0.0 
0.0 0.0 -4.582426303855e-04 
-4.729917283578e-04 -2.527651589425e-06 0.0 
-2.527651589425e-06 2.733536135201e-03 0.0 
0.0 0.0 -4.711111111111e-04 
-4.517239495761e-04 -1.695467618580e-06 0.0 
-1.695467618580e-06 3.044559982769e-03 0.0 
0.0 0.0 -4.488888888889e-04 
-3.989001830536e-04 1.286242860207e-05 0.0 
1.286242860207e-05 2.848856344771e-03 0.0 
0.0 0.0 -4.360204081633e-04 
-4.741797545259e-04 -9.783497844146e-07 0.0 
-9.783497844146e-07 2.733642750037e-03 0.0 
0.0 0.0 -4.711111111111e-04 
-4.522330343643e-04 -9.670925008780e-07 0.0 
-9.670925008780e-07 3.044890510388e-03 0.0 
0.0 0.0 -4.488888888889e-04 
-4.144774096089e-04 2.017710958328e-05 0.0 
2.017710958328e-05 2.745520392554e-03 0.0 
0.0 0.0 -4.711111111111e-04 
-4.753995493701e-04 -8.226418973049e-07 0.0 
-8.226418973049e-07 2.733890535335e-03 0.0 
0.0 0.0 -4.711111111111e-04 
-4.525528888349e-04 -1.017856854085e-06 0.0 
-1.017856854085e-06 3.044832322142e-03 0.0 
0.0 0.0 -4.488888888889e-04 
-4.755368976101e-04 -1.846947414207e-06 0.0 
-1.846947414207e-06 2.733541044653e-03 0.0 
0.0 0.0 -4.711111111111e-04 
-4.522300284206e-04 -1.178811979142e-06 0.0 
-1.178811979142e-06 3.043706972071e-03 0.0 
0.0 0.0 -4.488888888889e-04 
-4.752002035872e-04 -2.749529905503e-06 0.0 
-2.749529905503e-06 2.732164380164e-03 0.0 
0.0 0.0 -4.711111111111e-04 
-4.508997659937e-04 9.025585633480e-07 0.0 
9.025585633480e-07 3.040023587775e-03 0.0 
0.0 0.0 -4.488888888889e-04 
-4.025111780395e-04 2.483692496456e-05 0.0 
2.483692496456e-05 2.925236968048e-03 0.0 
0.0 0.0 -4.693537414966e-04 
-4.720241450351e-04 8.096980642635e-06 0.0 
8.096980642635e-06 2.731296038601e-03 0.0 
0.0 0.0 -4.711111111111e-04 
-4.527871247353e-04 5.512980383908e-06 0.0 
5.512980383908e-06 3.045188244375e-03 0.0 
0.0 0.0 -4.488888888889e-04 
-4.781498596818e-04 2.806128767874e-06 0.0 
2.806128767874e-06 2.733503698510e-03 0.0 
0.0 0.0 -4.711111111111e-04 
-4.518331975621e-04 6.669660836263e-06 0.0 
6.669660836263e-06 3.040822692016e-03 0.0 
0.0 0.0 -4.488888888889e-04 
-4.581344877275e-04 4.806066696417e-06 0.0 
4.806066696417e-06 3.058516911663e-03 0.0 
0.0 0.0 -4.488888888889e-04 
-4.734463109153e-04 2.147515801901e-05 0.0 
2.147515801901e-05 2.735536322359e-03 0.0 
0.0 0.0 -4.711111111111e-04 
-4.471913195551e-04 3.250875513874e-06 0.0 
3.250875513874e-06 3.026848153488e-03 0.0 
0.0 0.0 -4.488888888889e-04 
-4.901163184293e-04 -2.393685911691e-05 0.0 
-2.393685911691e-05 2.736952886364e-03 0.0 
0.0 0.0 -4.711111111111e-04 
-4.641072462699e-04 1.667244048002e-05 0.0 
1.667244048002e-05 3.071178406626e-03 0.0 
0.0 0.0 -4.488888888889e-04 
-4.324862338949e-04 4.839324787635e-05 0.0 
4.839324787635e-05 2.728573330093e-03 0.0 
0.0 0.0 -4.711111111111e-04 
-3.598727436964e-04 -3.513921753685e-05 0.0 
-3.513921753685e-05 2.630027147507e-03 0.0 
0.0 0.0 -4.471315192744e-04 
-4.105980049468e-04 -3.701438029837e-04 0.0 
-3.701438029837e-04 2.845095093414e-03 0.0 
0.0 0.0 -4.600000000000e-04 
-5.151542512817e-04 3.559434576648e-04 0.0 
3.559434576648e-04 3.032255437761e-03 0.0 
0.0 0.0 -4.600000000000e-04 
-4.417276885855e-04 -3.934714622280e-05 0.0 
-3.934714622280e-05 2.884397119692e-03 0.0 
0.0 0.0 -4.377777777778e-04 
-4.853374994491e-04 3.790832101965e-05 0.0 
3.790832101965e-05 2.981759035168e-03 0.0 
0.0 0.0 -4.822222222222e-04 
-3.798114594225e-04 -2.502327533149e-05 0.0 
-2.502327533149e-05 2.763244671662e-03 0.0 
0.0 0.0 -4.377777777778e-04 
-5.187487103521e-04 -7.879757944209e-05 0.0 
-7.879757944209e-05 3.392117763543e-03 0.0 
0.0 0.0 -5.155555555556e-04 
-5.412972415894e-04 4.648002671404e-05 0.0 
4.648002671404e-05 3.200314872166e-03 0.0 
0.0 0.0 -5.377777777778e-04 
-5.169078130686e-04 -1.124351187329e-05 0.0 
-1.124351187329e-05 3.514306742191e-03 0.0 
0.0 0.0 -5.155555555556e-04 
-5.370398844120e-04 -5.539739897353e-06 0.0 
-5.539739897353e-06 3.206683234812e-03 0.0 
0.0 0.0 -5.377777777778e-04 
-5.154291633013e-04 -3.129495957291e-06 0.0 
-3.129495957291e-06 3.517617017321e-03 0.0 
0.0 0.0 -5.155555555556e-04 
-5.381093200183e-04 -1.976663157730e-06 0.0 
-1.976663157730e-06 3.207914382671e-03 0.0 
0.0 0.0 -5.377777777778e-04 
-5.156734036468e-04 -2.406369053650e-06 0.0 
-2.406369053650e-06 3.519066327430e-03 0.0 
0.0 0.0 -5.155555555556e-04 
-5.366091103083e-04 -1.207085778227e-06 0.0 
-1.207085778227e-06 3.208019600709e-03 0.0 
0.0 0.0 -5.377777777778e-04 
-5.158813986807e-04 -1.051510284371e-06 0.0 
-1.051510284371e-06 3.519134616611e-03 0.0 
0.0 0.0 -5.155555555556e-04 
-5.372599660982e-04 6.933014159798e-07 0.0 
6.933014159798e-07 3.208897054849e-03 0.0 
0.0 0.0 -5.377777777778e-04 
-5.166153643924e-04 -3.726067797674e-07 0.0 
-3.726067797674e-07 3.520203548651e-03 0.0 
0.0 0.0 -5.155555555556e-04 
-5.375825845931e-04 1.962175395587e-06 0.0 
1.962175395587e-06 3.210164447084e-03 0.0 
0.0 0.0 -5.377777777778e-04 
-5.177556549563e-04 -1.083300339435e-06 0.0 
-1.083300339435e-06 3.521881872284e-03 0.0 
0.0 0.0 -5.155555555556e-04 
-5.405721443304e-04 -1.211361635702e-06 0.0 
-1.211361635702e-06 3.211048643113e-03 0.0 
0.0 0.0 -5.377777777778e-04 
-5.180867973121e-04 -2.955006037441e-06 0.0 
-2.955006037441e-06 3.522497958112e-03 0.0 
0.0 0.0 -5.155555555556e-04 
-5.792879928890e-04 -1.599267687406e-04 0.0 
-1.599267687406e-04 3.507819207063e-03 0.0 
0.0 0.0 -5.247732426303e-04 
-5.375442025049e-04 -3.821072344249e-06 0.0 
-3.821072344249e-06 3.209055027385e-03 0.0 
0.0 0.0 -5.377777777778e-04 
-4.855148531560e-04 1.971124341118e-05 0.0 
1.971124341118e-05 3.223296130373e-03 0.0 
0.0 0.0 -5.377777777778e-04 
-5.174361728023e-04 1.037369395505e-07 0.0 
1.037369395505e-07 3.519390087404e-03 0.0 
0.0 0.0 -5.155555555556e-04 
-5.390305481333e-04 1.985391886553e-06 0.0 
1.985391886553e-06 3.209337053627e-03 0.0 
0.0 0.0 -5.377777777778e-04 
-5.186241989704e-04 1.920455278980e-06 0.0 
1.920455278980e-06 3.520577890956e-03 0.0 
0.0 0.0 -5.155555555556e-04 
-5.424782350989e-04 2.602587795864e-06 0.0 
2.602587795864e-06 3.210819048104e-03 0.0 
0.0 0.0 -5.377777777778e-04 
-5.198439938145e-04 8.397343631672e-07 0.0 
8.397343631672e-07 3.522383784968e-03 0.0 
0.0 0.0 -5.155555555556e-04 
-5.425396489499e-04 -2.671586099259e-07 0.0 
-2.671586099259e-07 3.210729830903e-03 0.0 
0.0 0.0 -5.377777777778e-04 
-4.639261431919e-04 1.795800229962e-05 0.0 
1.795800229962e-05 3.319383572120e-03 0.0 
0.0 0.0 -5.025510204081e-04 
-5.199813420545e-04 4.884319006214e-08 0.0 
4.884319006214e-08 3.521715893853e-03 0.0 
0.0 0.0 -5.155555555556e-04 
-5.429313789558e-04 -1.595839338101e-06 0.0 
-1.595839338101e-06 3.209826232599e-03 0.0 
0.0 0.0 -5.377777777778e-04 
-5.196446480316e-04 -7.157581278473e-07 0.0 
-7.157581278473e-07 3.520538878585e-03 0.0 
0.0 0.0 -5.155555555556e-04 
-5.449486155419e-04 -7.127659532130e-06 0.0 
-7.127659532130e-06 3.206562068945e-03 0.0 
0.0 0.0 -5.377777777778e-04 
-5.164685894796e-04 6.903981517509e-06 0.0 
6.903981517509e-06 3.511995524719e-03 0.0 
0.0 0.0 -5.155555555556e-04 
-5.340991680871e-04 2.151676257844e-05 0.0 
2.151676257844e-05 3.208223790984e-03 0.0 
0.0 0.0 -5.377777777778e-04 
-5.225943041262e-04 7.813857319380e-06 0.0 
7.813857319380e-06 3.525980620072e-03 0.0 
0.0 0.0 -5.155555555556e-04 
-5.589612776076e-04 -5.839662931230e-06 0.0 
-5.839662931230e-06 3.211769507264e-03 0.0 
0.0 0.0 -5.377777777778e-04 
-5.066406946919e-04 4.974783901009e-05 0.0 
4.974783901009e-05 3.211603155197e-03 0.0 
0.0 0.0 -5.377777777778e-04 
-5.178907553598e-04 1.266973619615e-05 0.0 
1.266973619615e-05 3.512461130721e-03 0.0 
0.0 0.0 -5.155555555556e-04 
-4.723338447053e-04 2.541271294402e-05 0.0 
2.541271294402e-05 3.400544018691e-03 0.0 
0.0 0.0 -5.358843537414e-04 
-5.345607628738e-04 7.989109301534e-06 0.0 
7.989109301534e-06 3.549518677637e-03 0.0 
0.0 0.0 -5.155555555556e-04 
-4.278487948575e-04 -2.628820225451e-05 0.0 
-2.628820225451e-05 3.098178878207e-03 0.0 
0.0 0.0 -5.136621315192e-04 
-5.830730295150e-04 -3.701622094986e-04 0.0 
-3.701622094986e-04 3.411662693846e-03 0.0 
0.0 0.0 -5.266666666667e-04 
-4.791897713482e-04 3.550100958036e-04 0.0 
3.550100958036e-04 3.225685347325e-03 0.0 
0.0 0.0 -5.266666666667e-04 
-5.533708020514e-04 -3.952512472071e-05 0.0 
-3.952512472071e-05 3.373562060411e-03 0.0 
0.0 0.0 -5.488888888889e-04 
-5.075597216713e-04 3.715385301184e-05 0.0 
3.715385301184e-05 3.274980805740e-03 0.0 
0.0 0.0 -5.044444444444e-04 
-4.478107429422e-04 -2.175364391221e-05 0.0 
-2.175364391221e-05 3.231094822119e-03 0.0 
0.0 0.0 -5.044444444444e-04 
-6.189291422576e-04 -8.703466800009e-05 0.0 
-8.703466800009e-05 3.800993658171e-03 0.0 
0.0 0.0 -6.044444444444e-04 
-5.857416860338e-04 4.152251131124e-05 0.0 
4.152251131124e-05 3.981396628525e-03 0.0 
0.0 0.0 -5.822222222222e-04 
-6.014676124269e-04 -2.366192094096e-05 0.0 
-2.366192094096e-05 3.666428660516e-03 0.0 
0.0 0.0 -6.044444444444e-04 
-5.814843288565e-04 -9.898764258253e-06 0.0 
-9.898764258253e-06 3.966852274136e-03 0.0 
0.0 0.0 -5.822222222222e-04 
-6.012057329272e-04 -9.447332933258e-07 0.0 
-9.447332933258e-07 3.656511754543e-03 0.0 
0.0 0.0 -6.044444444444e-04 
-5.825537644628e-04 -2.598524727547e-06 0.0 
-2.598524727547e-06 3.971861702718e-03 0.0 
0.0 0.0 -5.822222222222e-04 
-6.053753762140e-04 -6.697619749961e-06 0.0 
-6.697619749961e-06 3.660276641183e-03 0.0 
0.0 0.0 -6.044444444444e-04 
-5.810535547528e-04 -4.794630108920e-06 0.0 
-4.794630108920e-06 3.968237137461e-03 0.0 
0.0 0.0 -5.822222222222e-04 
-5.989315183322e-04 1.500653346668e-07 0.0 
1.500653346668e-07 3.657759237214e-03 0.0 
0.0 0.0 -6.044444444444e-04 
-5.817044105427e-04 9.543218927830e-07 0.0 
9.543218927830e-07 3.971595709461e-03 0.0 
0.0 0.0 -5.822222222222e-04 
-6.036123665843e-04 5.339950144234e-07 0.0 
5.339950144234e-07 3.660400636182e-03 0.0 
0.0 0.0 -6.044444444444e-04 
-5.820270290375e-04 1.512396225080e-06 0.0 
1.512396225080e-06 3.971136415647e-03 0.0 
0.0 0.0 -5.822222222222e-04 
-6.007150147334e-04 7.186565872499e-06 0.0 
7.186565872499e-06 3.661043708330e-03 0.0 
0.0 0.0 -6.044444444444e-04 
-6.473657891011e-04 -1.503775681191e-04 0.0 
-1.503775681191e-04 3.972322043345e-03 0.0 
0.0 0.0 -5.915759637188e-04 
-5.850165887748e-04 4.111519023384e-06 0.0 
4.111519023384e-06 3.978321279381e-03 0.0 
0.0 0.0 -5.822222222222e-04 
-6.068724417993e-04 -1.008894091445e-05 0.0 
-1.008894091445e-05 3.663848600166e-03 0.0 
0.0 0.0 -6.044444444444e-04 
-5.382166584107e-04 1.304379000640e-05 0.0 
1.304379000640e-05 3.784609928149e-03 0.0 
0.0 0.0 -5.693537414966e-04 
-5.819886469493e-04 -2.459134104207e-06 0.0 
-2.459134104207e-06 3.967910560167e-03 0.0 
0.0 0.0 -5.822222222222e-04 
-6.025293378773e-04 4.180804481685e-06 0.0 
4.180804481685e-06 3.658439256297e-03 0.0 
0.0 0.0 -6.044444444444e-04 
-5.551920643199e-04 2.265198140005e-05 0.0 
2.265198140005e-05 3.679387987050e-03 0.0 
0.0 0.0 -6.044444444444e-04 
-5.834749925778e-04 5.082011282514e-06 0.0 
5.082011282514e-06 3.970492679137e-03 0.0 
0.0 0.0 -5.822222222222e-04 
-6.079594570241e-04 1.156947798517e-05 0.0 
1.156947798517e-05 3.661485342161e-03 0.0 
0.0 0.0 -6.044444444444e-04 
-5.869226795434e-04 6.564857151272e-06 0.0 
6.564857151272e-06 3.976524406353e-03 0.0 
0.0 0.0 -5.822222222222e-04 
-6.104220387485e-04 1.777481494462e-06 0.0 
1.777481494462e-06 3.663998117975e-03 0.0 
0.0 0.0 -6.044444444444e-04 
-5.869840933944e-04 2.939983270558e-06 0.0 
2.939983270558e-06 3.973848016868e-03 0.0 
0.0 0.0 -5.822222222222e-04 
-5.382425891796e-04 2.010179773979e-05 0.0 
2.010179773979e-05 3.859360506165e-03 0.0 
0.0 0.0 -6.026870748299e-04 
-6.075003933196e-04 1.831253403248e-06 0.0 
1.831253403248e-06 3.662133086902e-03 0.0 
0.0 0.0 -6.044444444444e-04 
-5.873758234003e-04 4.101101850473e-06 0.0 
4.101101850473e-06 3.972642461745e-03 0.0 
0.0 0.0 -5.822222222222e-04 
-5.893930599864e-04 7.702980256847e-07 0.0 
7.702980256847e-07 3.976762054191e-03 0.0 
0.0 0.0 -5.822222222222e-04 
-6.109731840224e-04 5.890820747531e-06 0.0 
5.890820747531e-06 3.662416691587e-03 0.0 
0.0 0.0 -6.044444444444e-04 
-5.785436125316e-04 1.010670441636e-05 0.0 
1.010670441636e-05 3.943008250813e-03 0.0 
0.0 0.0 -5.822222222222e-04 
-6.245615995330e-04 -2.323619509784e-05 0.0 
-2.323619509784e-05 3.657960966842e-03 0.0 
0.0 0.0 -6.044444444444e-04 
-6.034057220520e-04 2.547674868134e-05 0.0 
2.547674868134e-05 4.007426657562e-03 0.0 
0.0 0.0 -5.822222222222e-04 
-5.749090046599e-04 7.539992690053e-05 0.0 
7.539992690053e-05 3.655670285631e-03 0.0 
0.0 0.0 -6.044444444444e-04 
-4.961379511751e-04 -3.596508921430e-05 0.0 
-3.596508921430e-05 3.563351096824e-03 0.0 
0.0 0.0 -5.804648526077e-04 
-5.370991115957e-04 -3.597763694007e-04 0.0 
-3.597763694007e-04 3.763144672232e-03 0.0 
0.0 0.0 -5.933333333333e-04 
-6.527633909015e-04 3.673307409981e-04 0.0 
3.673307409981e-04 3.969951782286e-03 0.0 
0.0 0.0 -5.933333333333e-04 
-5.755930242736e-04 -3.122109693664e-05 0.0 
-3.122109693664e-05 3.812561021402e-03 0.0 
0.0 0.0 -5.711111111111e-04 
-6.159345735075e-04 5.418298751483e-05 0.0 
5.418298751483e-05 3.907149665354e-03 0.0 
0.0 0.0 -6.155555555556e-04 
-5.188481864893e-04 -2.197935258590e-05 0.0 
-2.197935258590e-05 3.695326603665e-03 0.0 
0.0 0.0 -5.711111111111e-04 
-6.633735867021e-04 -1.155216560217e-04 0.0 
-1.155216560217e-04 4.354748692185e-03 0.0 
0.0 0.0 -6.488888888889e-04 
-6.563660005588e-04 -4.949228987583e-06 0.0 
-4.949228987583e-06 4.121813599109e-03 0.0 
0.0 0.0 -6.711111111111e-04 
-6.459120568713e-04 -1.400816422119e-05 0.0 
-1.400816422119e-05 4.433498309450e-03 0.0 
0.0 0.0 -6.488888888889e-04 
-6.749764366867e-04 -1.022061849857e-05 0.0 
-1.022061849857e-05 4.131528536263e-03 0.0 
0.0 0.0 -6.711111111111e-04 
-6.456501773717e-04 -4.182868477560e-07 0.0 
-4.182868477560e-07 4.441719427511e-03 0.0 
0.0 0.0 -6.488888888889e-04 
-6.743020789233e-04 6.977086704307e-06 0.0 
6.977086704307e-06 4.142139451712e-03 0.0 
0.0 0.0 -6.711111111111e-04 
-6.498198206585e-04 -1.519001385404e-05 0.0 
-1.519001385404e-05 4.455827176230e-03 0.0 
0.0 0.0 -6.488888888889e-04 
-6.621266125404e-04 -2.192043764397e-05 0.0 
-2.192043764397e-05 4.131761848184e-03 0.0 
0.0 0.0 -6.711111111111e-04 
-6.433759627766e-04 1.777448492813e-06 0.0 
1.777448492813e-06 4.439463053302e-03 0.0 
0.0 0.0 -6.488888888889e-04 
-6.671926554527e-04 1.273682377917e-05 0.0 
1.273682377917e-05 4.138458681040e-03 0.0 
0.0 0.0 -6.711111111111e-04 
-6.480568110287e-04 -2.776142626278e-06 0.0 
-2.776142626278e-06 4.452403490028e-03 0.0 
0.0 0.0 -6.488888888889e-04 
-6.701502197109e-04 -7.061847058022e-06 0.0 
-7.061847058022e-06 4.137807792637e-03 0.0 
0.0 0.0 -6.711111111111e-04 
-7.177695882629e-04 -1.636503915643e-04 0.0 
-1.636503915643e-04 4.444156976963e-03 0.0 
0.0 0.0 -6.580807474504e-04 
-6.451594591778e-04 2.175329864368e-06 0.0 
2.175329864368e-06 4.446899780492e-03 0.0 
0.0 0.0 -6.488888888889e-04 
-6.694083839791e-04 4.177588367935e-05 0.0 
4.177588367935e-05 4.159153595791e-03 0.0 
0.0 0.0 -6.711111111111e-04 
-6.460833817648e-04 2.181336474440e-05 0.0 
2.181336474440e-05 4.138351275158e-03 0.0 
0.0 0.0 -6.711111111111e-04 
-6.513168862437e-04 2.571939183827e-06 0.0 
2.571939183827e-06 4.455509820746e-03 0.0 
0.0 0.0 -6.488888888889e-04 
-6.788111886778e-04 -1.155514465082e-05 0.0 
-1.155514465082e-05 4.136861537379e-03 0.0 
0.0 0.0 -6.711111111111e-04 
-6.469737823218e-04 1.193188668576e-05 0.0 
1.193188668576e-05 4.441081764841e-03 0.0 
0.0 0.0 -6.488888888889e-04 
-6.791365925950e-04 1.914980606248e-05 0.0 
1.914980606248e-05 4.140018751422e-03 0.0 
0.0 0.0 -6.711111111111e-04 
-6.524039014686e-04 9.406282947205e-06 0.0 
9.406282947205e-06 4.453605425654e-03 0.0 
0.0 0.0 -6.488888888889e-04 
-6.708784002972e-04 1.294093541861e-05 0.0 
1.294093541861e-05 4.143170398070e-03 0.0 
0.0 0.0 -6.711111111111e-04 
-6.063230854436e-04 2.307129271736e-05 0.0 
2.307129271736e-05 4.258254267782e-03 0.0 
0.0 0.0 -6.358585252281e-04 
-6.548664831930e-04 3.770000341516e-06 0.0 
3.770000341516e-06 4.457898616998e-03 0.0 
0.0 0.0 -6.488888888889e-04 
-6.704807604954e-04 -3.181200734381e-06 0.0 
-3.181200734381e-06 4.139523021675e-03 0.0 
0.0 0.0 -6.711111111111e-04 
-6.519448377641e-04 9.585102352842e-06 0.0 
9.585102352842e-06 4.446587571773e-03 0.0 
0.0 0.0 -6.488888888889e-04 
-6.643169358871e-04 1.598213094935e-05 0.0 
1.598213094935e-05 4.135669863508e-03 0.0 
0.0 0.0 -6.711111111111e-04 
-6.628560694171e-04 4.220630236656e-05 0.0 
4.220630236656e-05 4.140094777352e-03 0.0 
0.0 0.0 -6.711111111111e-04 
-6.554176284668e-04 2.405280497148e-05 0.0 
2.405280497148e-05 4.445642855833e-03 0.0 
0.0 0.0 -6.488888888889e-04 
-6.690060439774e-04 2.025793204241e-05 0.0 
2.025793204241e-05 4.465053963584e-03 0.0 
0.0 0.0 -6.488888888889e-04 
-6.064361755080e-04 1.982912098417e-05 0.0 
1.982912098417e-05 4.335884925808e-03 0.0 
0.0 0.0 -6.691918585615e-04 
-5.634506181685e-04 -1.856852842986e-05 0.0 
-1.856852842986e-05 4.033404918511e-03 0.0 
0.0 0.0 -6.469696363393e-04 
-7.075315162008e-04 -3.247782179694e-04 0.0 
-3.247782179694e-04 4.305606072287e-03 0.0 
0.0 0.0 -6.600000000000e-04 
-6.398271965705e-04 3.921691488498e-04 0.0 
3.921691488498e-04 4.184231073606e-03 0.0 
0.0 0.0 -6.600000000000e-04 
-7.078150788587e-04 1.813354754407e-05 0.0 
1.813354754407e-05 4.306653958276e-03 0.0 
0.0 0.0 -6.822222222222e-04 
-6.381567957297e-04 6.336547185439e-05 0.0 
6.336547185439e-05 4.195569873202e-03 0.0 
0.0 0.0 -6.377777777778e-04 
-5.885253976532e-04 -3.076841355533e-05 0.0 
-3.076841355533e-05 4.174142785234e-03 0.0 
0.0 0.0 -6.377777777778e-04 

SCALARS element_materi_plasti_kappa_shear float
LOOKUP_TABLE default
1.898088649643e-03
1.711557051641e-03
5.588972410085e-03
5.625547274701e-03
3.501560146999e-03
7.282216725179e-04
3.474037579751e-03
1.788007566792e-03
3.522688057585e-03
5.576154387883e-03
3.814443258077e-03
1.461439354055e-03
5.618312958953e-03
3.751010953381e-03
5.727607835366e-03
5.730745783213e-03
3.485806207147e-03
6.593526459412e-04
1.219931793149e-03
1.129439279568e-03
5.615624188563e-03
1.975862239362e-03
2.216034645177e-03
5.387839390641e-03
4.000079313324e-03
4.090296639934e-03
3.221108468051e-03
5.760173945043e-03
4.029373913921e-03
5.523089313001e-03
9.290964436138e-04
4.104778426902e-04
5.763354464700e-03
4.818108341585e-03
5.606378478043e-03
5.926561905728e-03
5.911514681661e-03
5.601049808397e-03
3.175213616511e-03
3.219440155070e-03
2.522875806809e-03
5.613228156909e-03
1.314389251867e-03
3.093978597461e-03
5.492839635271e-03
1.306192107028e-03
5.547525844144e-04
5.389503964808e-03
2.459813448032e-04
3.614080566479e-03
2.381012112028e-03
1.496795143349e-03
1.233026261794e-03
2.292287135613e-03
5.625167383412e-03
1.964314716114e-03
1.446321564822e-03
4.840724010361e-03
9.102679910466e-04
5.734895616735e-03
3.755633206833e-04
5.378892164199e-03
2.330546822697e-03
1.083603178692e-03
5.615414212048e-03
2.131250052149e-03
1.604920622128e-04
5.736681007188e-03
9.706183660792e-04
5.615641150241e-03
4.241478972054e-03
5.874633494773e-03
5.400876667698e-03
4.558558305771e-04
1.986901141796e-03
5.633818988721e-03
5.766849763577e-03
9.985176399268e-04
7.761145875021e-04
9.970078257235e-04
9.298249562963e-04
3.329770783062e-03
2.084397622031e-03
1.770967893658e-03
3.674764228873e-03
3.652269385491e-03
4.362468712188e-03
4.711312884167e-03
4.861505206044e-03
3.454836133152e-03
2.515307574217e-04
3.378806059228e-03
4.682474906469e-03
4.702091845048e-03
6.023290360785e-03
5.787399672559e-03
3.332335907633e-03
5.769769997493e-03
3.930413862469e-03
2.258576815211e-03
3.348854702644e-03
5.740322727268e-03
4.646182631344e-03
5.409941681963e-03
2.044498184613e-03
6.875243722322e-04
5.293361504948e-03
5.009713215505e-03
4.133118292856e-04
5.636662395566e-03
4.631075715070e-03
3.269354662114e-04
2.695643369684e-03
3.134173944672e-03
2.394513305480e-03
2.006953041182e-03
2.358433690428e-03
5.680496234391e-03
3.862421047183e-03
2.174327584433e-03
9.453599785676e-04
3.463155550842e-03
4.910807945138e-03
2.193161772477e-03
6.864169327037e-04
2.833893873667e-03
2.488998346477e-03
2.624989890950e-03
5.744770783808e-03
8.095945313106e-04
4.016900758618e-03
5.625509815893e-03
2.834287320742e-03
2.685380764041e-03
5.614532063030e-03
5.633315586868e-03
4.360056895282e-03
3.033874980370e-03
5.768691703590e-03
2.715472649556e-03
5.618615457511e-03
5.760030365689e-03
3.718873437018e-03
4.339715431150e-03
2.744759010980e-03
2.474141180373e-03
3.120734003300e-03
2.345781934128e-03
3.431883328348e-03
2.738129196427e-03
2.430742527302e-04
3.688149105754e-03
8.387704164436e-04
2.991941880911e-03
5.628507851818e-03
2.024064835673e-03
4.530584219247e-03
1.460229167458e-03
4.626313542846e-03
3.347690434935e-03
2.537984777281e-03
4.987375735797e-03
8.656817948044e-04
5.285431651825e-03
3.359806122999e-03
5.766679500674e-03
3.342388058739e-03
2.107011085319e-03
2.928826646772e-03
3.947216798782e-03
1.526615979923e-03
2.569483147169e-03
4.520478967461e-03
3.465735922799e-03
2.391304591019e-03
2.779864257648e-03
5.040184275248e-03
2.772760665208e-03
5.618703717082e-03
5.759844672989e-03
1.983421498389e-03
2.659866027685e-03
5.141665672042e-03
2.630630496975e-03
1.717879912429e-03
3.236040194100e-03
2.634227826825e-03
5.637705462983e-03
4.673436176070e-03
5.143211062278e-03
1.164471534235e-03
2.407331954242e-03
4.803098661724e-03
1.296887470609e-04
2.602557350130e-03
4.814963733127e-03
6.908847608838e-04
5.616315559470e-03
4.285635638516e-03
2.554299594861e-03
4.795742518615e-03
3.724002802598e-03
3.932058578281e-03
5.497749636997e-03
1.904823798155e-03
3.244463136207e-03
3.481704692684e-03
4.488443812894e-03
3.550879868320e-03
3.254436741122e-03
4.171787960097e-03
4.925574717127e-03
3.793743182903e-04
1.944678655638e-03
2.211850110251e-03
3.157287865959e-03
4.893684273428e-03
9.647028340037e-04
4.643736636013e-03
3.342449784473e-03
2.377945774863e-03
4.477091166640e-03
4.380675775183e-04
4.584675247436e-03
3.699679224086e-04
5.360497299544e-04
1.154789664667e-03
1.594668909351e-03
4.784983334352e-03
1.546697935713e-03
1.383435816543e-03
1.200027858935e-03
1.005332530085e-03
4.949781021208e-03
3.380950736680e-03
5.631197498489e-03
0.0
1.665063222897e-03
2.673189362063e-03
2.423854183086e-03
4.621677125616e-03
5.764868817004e-03
4.590764537563e-03
1.954446704586e-03
4.960919873089e-03
4.205568891908e-03
3.320344157998e-03
4.410423547979e-03
5.507586445396e-03
2.709349539675e-03
1.580698985764e-03
3.836309747163e-03
6.017571415290e-03
3.278275707600e-03
3.423215564413e-03
3.753460771055e-03
8.863145511104e-04
3.518014179913e-03
1.918797851399e-03
1.292004175147e-03
9.082232253615e-04
4.755046881876e-03
3.676362788182e-03
2.294435875197e-03
4.952708212389e-03
4.718723855839e-03
3.481414558201e-03
5.642033395162e-03
3.523250685796e-03
3.640046674313e-03
2.917421140027e-03
3.717192777981e-03
1.585318004735e-03
3.357027743210e-03
2.838102944494e-03
2.007874057392e-03
4.547203828395e-03
1.589585432752e-04
3.708601455527e-03
2.047895045112e-03
1.700131027140e-03
1.626515464048e-03
3.929577795643e-03
6.380620704986e-04
2.384202047897e-03
3.820927590901e-03
3.640893065081e-03
3.744578397567e-03
8.473399745815e-04
1.972105034185e-03
1.841129336947e-03
2.144602490372e-03
4.453686851147e-03
2.425319558498e-03
2.633326203696e-03
2.506076668662e-03
1.050423010888e-03
3.001112002867e-03
1.139329181863e-03
6.012684016247e-03
6.015982038197e-03
3.371674230462e-03
1.754085065341e-03
1.538449888003e-03
3.733462517399e-03
1.667297713938e-03
1.800453244169e-03
3.281965826456e-03
5.778410886410e-03
2.212308197419e-03
4.148099921920e-03
1.220247403596e-03
6.015650448016e-03
1.627598388192e-03
3.408069598847e-03
1.126335977517e-03
4.035749165321e-03
2.797696233239e-03
1.935926706622e-03
3.513914298156e-03
6.014293587579e-03
2.340466570169e-03
3.854547700326e-03
1.257539573865e-03
4.211250131042e-03
4.445904991404e-03
1.749623395989e-03
4.109773335894e-03
6.017625920185e-03
4.749940685194e-03
6.020004411071e-03
4.066219120171e-03
4.677049970116e-03
1.453454976364e-03
3.226922138058e-03
3.605874528002e-03
3.801247617448e-03
3.116888250637e-03
6.023922603081e-03
3.900035487013e-03
3.427519582657e-03
2.541127325687e-03
1.304161433012e-03
3.097491959287e-03
1.828369059598e-03
3.480341907346e-03
1.973411461228e-03
2.245667589757e-03
4.717451703464e-03
1.865551334307e-03
3.320796694163e-03
3.948013352555e-03
3.499794145216e-03
6.014761074790e-03
2.797145162977e-03
1.840410315570e-03
2.476504328130e-03
1.777663760713e-03
1.715690849975e-03
5.020957594454e-03
3.604591250536e-03
2.461088412607e-03
3.037406839291e-03
6.020345341033e-03
5.688581187916e-03
4.974163615528e-03
4.623253995230e-03
3.403798714710e-03
2.542077870463e-03
1.793786123597e-03
2.084462978973e-03
3.443262116423e-03
3.946499106711e-03
2.984226002412e-03
5.025076478443e-03
1.876215262827e-03
2.954178187483e-03
3.441589599409e-03
2.662722220518e-03
6.012685245852e-03
6.016133295997e-03
5.644449372993e-03
3.701147822208e-03
4.921131353075e-03
1.545366707812e-03
2.377422492958e-03
1.336075859690e-03
2.584345771663e-03
3.338459339121e-03
4.044137853151e-03
5.756411723275e-03
4.924677558882e-03
3.800097117390e-03
3.895652219981e-03
1.419401544672e-03
6.642135258918e-04
2.837095037860e-03
3.243261720869e-03
3.038062407003e-03
6.767206337307e-04
3.595162726105e-03
1.242964933884e-03
1.791112892290e-03
5.886267587663e-03
4.319899469577e-03
3.400768600181e-03
9.348339381144e-04
3.083946857624e-03
2.871885156030e-03
3.962075947404e-03
6.018407561000e-03
3.198386693766e-03
3.766468143187e-03
2.946356736400e-03
4.889394747190e-03
3.802316230935e-03
6.019114699465e-03
5.878766063712e-03
5.874669666802e-03
5.846896484413e-03
4.057636266581e-03
4.920589971590e-03
5.113499940864e-03
2.631031740165e-03
2.507872621076e-03
2.813875816799e-03
5.059815959048e-03
6.015552509770e-03
5.051955043481e-03
4.017840351881e-03
5.084516464713e-03
4.404291654299e-03
3.045170865042e-03
2.550534457101e-03
1.338384591573e-03
5.646979922164e-03
2.469749811605e-03
5.384355873580e-03
2.775047533559e-03
1.799833226776e-03
5.623003894310e-03
1.949666713895e-03
5.877628319843e-03
5.634831675280e-03
3.696725743160e-03
2.315629071755e-04
5.876846230322e-03
5.625196717779e-03
1.763143550620e-03
4.153888461443e-03
6.029088701749e-03
0.0
2.757791127203e-03
3.859953108443e-03
3.533917503000e-03
3.571063382657e-03
1.501745143730e-03
5.871219529997e-03
2.671327868409e-03
8.692276940891e-04
5.775417212412e-03
4.034087724254e-04
2.877183319107e-03
7.845786155791e-04
3.064343649170e-03
6.008207932275e-03
5.886416939798e-03
3.769097730369e-03
5.416058611576e-04
6.663225248163e-04
9.264097944291e-04
5.017458723071e-03
3.488320970718e-03
3.568311924561e-03
5.888518575312e-03
3.493284622980e-03
6.023303222970e-03
4.495210095570e-03
3.909299515792e-03
1.880309591682e-03
4.118987834466e-03
1.217020428601e-03
5.888099209517e-03
5.858622551973e-03
5.871281062107e-03
3.837749785842e-03
2.642161995129e-03
3.082539161524e-03
3.932200029967e-03
5.884737103442e-03
1.826405636236e-03
2.101531865548e-03
2.230991329468e-03
4.079210194316e-03
6.020724823755e-03
6.550876827097e-04
5.870906118256e-03
2.061330388785e-03
5.887134204678e-03
5.158371209842e-03
1.735033884423e-04
2.876871465871e-03
5.119259939334e-03
5.882578435152e-03
4.090807838191e-03
4.627625074894e-03
1.056059908013e-03
5.381604359168e-03
2.190366286690e-03
2.266492401597e-03
4.233392830062e-04
5.876777887152e-03
1.506277909376e-03
4.962026184372e-03
3.779613678589e-03
1.886868617372e-03
2.137991957806e-03
3.928710791902e-03
5.887503593490e-03
2.741417539435e-03
4.307478873942e-03
3.496708023987e-03
3.907072451988e-03
2.300842511533e-03
4.002515627125e-03
3.405034769092e-03
4.439472514518e-03
4.416922306321e-03
3.333573885478e-03
2.813436354788e-03
1.986436464636e-03
2.602497471918e-03
4.536209320527e-03
3.650011259562e-03
6.021028889714e-03
5.248340798342e-03
1.675475904991e-03
5.860952443923e-03
5.749243689854e-03
3.130366137552e-03
2.446157471384e-04
6.015808451350e-03
5.216828897001e-03
1.891089920309e-03
5.872438978963e-03
4.140650168509e-03
2.670441489397e-03
3.672959727573e-03
3.555689535213e-03
3.535938459604e-03
4.076028772190e-03
4.323837798527e-03
2.998150908977e-03
4.588814172264e-03
3.990156233101e-03
2.851900776380e-03
4.246963853771e-03
2.223560657060e-03
3.981478068334e-03
1.793397212351e-04
2.156315504880e-03
2.097111767555e-03
3.079683430517e-03
3.294455684710e-03
4.105285117446e-03
3.968717882503e-03
1.929111457824e-03
5.886335248325e-03
3.894339398565e-03
3.209529361218e-03
3.730809639925e-03
3.117776647955e-03
0.0
3.867784336933e-03
2.563323944442e-03
0.0
3.036200146822e-03
4.407600196631e-03
5.076924335597e-03
3.778145075046e-03
3.865417070565e-03
3.297599931106e-03
3.075297279978e-03
5.632622103086e-03
3.567491943935e-03
1.510039486835e-04
1.062090790195e-03
2.398810579768e-04
1.837694429977e-03
5.063783013299e-03
5.108968424711e-03
4.804181478442e-03
2.074537259418e-03
4.022688107491e-03
5.049168604237e-03
1.160096365863e-03
2.576389109967e-03
2.078055360937e-03
6.021089235366e-03
5.881485963002e-03
2.857156921414e-03
3.246692301347e-03
3.629498285744e-03
5.229137518708e-03
1.125785695799e-03
4.880206649917e-03
6.831862832841e-04
2.949407645451e-03
3.288357648769e-03
2.441249237015e-04
2.697767110358e-03
5.212641935745e-03
1.752329176366e-04
3.063219008196e-03
3.208047659791e-03
4.245083115866e-03
2.103654506232e-03
2.019431576275e-03
1.421520152248e-03
5.225289819944e-03
5.632171442564e-03
4.908962959162e-03
1.901082200918e-03
7.152422822499e-04
3.069002747989e-03
3.072118229683e-03
3.221248037221e-03
0.0
2.370160903131e-04
5.310782124112e-04
1.561897998935e-03
4.249046179325e-04
3.032717901044e-03
0.0
1.864630217503e-03
4.122518464148e-03
3.216172429738e-03
5.209439031162e-03
4.234717777356e-03
3.854408568460e-03
2.248560931312e-03
6.787283102328e-04
5.869561306561e-03
6.023626633703e-03
3.742684779077e-03
3.077333598062e-03
2.287820883481e-03
6.009559958077e-03
1.773006016400e-03
3.202342050267e-03
3.064099742472e-03
2.912794716067e-03
5.888568312805e-03
6.006021539653e-03
4.166942996850e-04
0.0
8.441431879688e-04
3.250853044044e-03
5.464355466468e-03
1.629622625436e-04
4.849407318231e-03
0.0
4.167229288684e-03
1.911385708273e-04
1.855469029487e-04
3.998077199970e-03
5.296543687334e-03
4.237134437895e-03
3.194088539209e-03
2.435063913799e-04
4.153210895562e-03
5.861217735276e-03
6.009791560538e-03
3.214582083037e-03
4.335922088801e-03
5.878708529905e-03
4.662336340161e-03
6.526260522665e-04
4.186243951470e-04
2.626649538589e-04
2.550412609599e-03
6.014031515604e-03
5.628686910939e-03
0.0
3.011280459441e-03
5.891985303537e-03
6.031512279974e-03
6.009444186578e-03
4.549765932770e-03
5.010826545378e-03
5.864343994050e-03
5.879214029285e-03
4.848773824588e-03
1.474383398765e-04
3.191688509645e-03
3.230904037540e-03
0.0
5.898372924748e-03
6.024797090299e-03
5.861254662737e-03
1.875139568358e-04
1.924224746449e-04
5.871534849748e-03
5.866174925494e-03
4.404639489746e-03
3.191281210692e-03
4.696669621923e-03
3.777426634559e-03
3.187300555971e-03
1.702406008908e-04
1.962141474448e-04
1.658004844312e-04
1.808088655353e-04
3.181347729344e-03
2.857668427393e-03
0.0
4.096797302130e-03
0.0
5.867214387611e-03
5.859324762587e-03
5.872796053912e-03
1.028821985916e-03
1.936630062470e-03
5.864275948506e-03
5.016839626708e-03
5.891943567255e-03
5.328174982674e-03
5.640245512770e-03
2.701665040976e-03
6.022983703665e-03
6.017003585591e-03
5.139388847066e-03
5.463393282501e-03
4.411575174769e-03
0.0
2.784277416710e-03
4.061884078683e-04
5.259286228377e-03
2.908833121132e-03
4.850143225763e-03
1.472710261241e-03
5.420604269259e-04
5.189202363176e-03
3.073447472489e-03
2.406449859391e-03
4.889636581614e-03
5.255592395656e-03
2.405392247394e-03
4.614670723085e-03
4.023251322217e-03
4.374804059547e-03
4.518070815714e-03
2.466020010935e-03
2.911636777842e-03
3.205404967252e-03
4.113353234630e-03
5.029297459228e-03
4.665945937406e-03
1.491277829959e-03
5.243929663885e-03
4.941851688277e-03
3.558682000750e-03
4.285917425276e-03
4.244579152953e-03
5.321773155122e-03
5.122199489663e-03
3.931103671375e-03
5.320806263415e-03
4.878121851522e-03
4.664188533065e-03
5.406777608810e-03
5.283094587084e-03
4.496087669439e-03
4.444458481023e-03
1.481875117849e-03
1.376911560334e-03
7.503612397897e-04
4.158489178225e-04
5.132283977735e-03
5.119873486994e-03
4.012352521064e-04
5.178558947058e-03
3.672287986049e-03
4.759407346754e-03
4.816897172186e-03
2.140610803278e-03
4.851861367702e-03
3.563436395175e-03
4.454648778840e-03
5.513811741196e-03
1.417713283077e-03
5.445572691693e-03
4.665806061983e-03
1.612851643597e-03
1.714759419245e-03
3.438255392646e-03
4.137623841864e-03
2.296870595819e-03
4.830815432738e-03
4.338838747336e-03
3.342675223842e-03
4.545437980776e-03
4.722218982109e-03
4.634762812797e-03
1.261713162161e-03
3.173154214211e-03
5.055839016286e-03
4.803789849080e-03
2.857994266569e-03
4.062765352511e-03
5.318088809597e-03
4.463221862301e-03
7.092725784376e-04
7.188837629254e-04
1.457330486298e-03
4.991375457445e-03
4.302592537165e-03
3.790381226361e-03
3.831560113469e-03
5.088582652342e-03
3.475465703060e-03
4.681796565250e-03
1.519021719428e-03
5.403126934034e-03
3.381852318330e-03
1.662591917742e-03
3.207575975263e-03
2.427493216678e-03
1.903845874229e-03
3.731045389275e-03
0.0
0.0
4.284173046855e-03
1.393362755241e-03
4.325320826384e-03
4.194819161297e-03
2.641355429632e-03
1.719362769164e-03
5.077648961166e-03
6.798414436796e-04
2.568347176664e-03
5.235874665598e-03
1.155384575714e-03
4.027503858662e-03
3.708502873321e-03
1.170523382264e-03
5.180869859233e-03
4.605325228012e-03
1.354425768675e-03
5.208339196432e-03
5.174454579939e-03
1.560392004205e-03
2.066462287853e-03
1.601268088310e-03
4.585233918787e-03
3.608599847271e-03
5.182420533551e-03
5.047083544607e-03
4.455861124158e-03
4.416860348409e-03
1.262227011679e-03
4.546872248422e-03
4.575231375888e-03
3.645268122884e-03
4.332465809534e-03
4.772714813264e-03
3.224253829144e-03
4.911353602778e-03
3.039446067918e-03
3.515433690721e-03
2.274449684327e-03
2.423089078890e-03
4.439297428605e-03
3.365892711140e-03
1.732320824868e-03
8.737837506730e-04
4.468449371054e-03
1.692563081125e-03
5.400363428095e-03
4.604462714681e-03
4.720726376404e-03
5.614884535387e-03
2.906736885668e-03
1.519615723243e-03
9.588952552172e-04
4.497763875840e-03
4.168753252709e-03
6.612546370245e-04
2.334923660638e-03
1.349036943465e-03
4.164466221195e-03
2.463752493733e-03
4.155025201166e-03
2.292333716336e-03
4.974481416777e-03
1.996568548932e-03
4.538601579327e-03
1.422865093935e-03
4.366068561900e-03
3.354002373652e-03
4.590163414602e-03
2.268610930300e-03
1.307910686375e-03
3.881907493683e-03
4.205574957263e-03
2.920421497113e-03
4.187784013099e-03
1.586935699350e-03
4.244922793799e-03
1.226338966711e-03
5.150001748039e-03
4.374413810112e-03
4.622543358684e-03
5.394833408084e-03
3.667741289077e-03
1.224125341458e-03
4.102435654437e-03
5.282422523208e-03
2.057763750215e-03
4.628995763582e-03
4.635584555752e-03
1.589158083945e-03
4.234441115403e-03
3.821646127754e-03
1.821001696294e-03
2.204998645608e-03
3.531838972984e-03
4.458682283978e-03
2.705458114869e-03
3.369397376082e-03
4.409627360570e-03
3.999189459908e-03
3.940589006345e-03
3.315097548747e-03
5.049644574621e-03
3.970188919273e-03
3.865457449800e-03
5.335960465199e-03
4.786774600188e-03
4.326858616178e-03
4.742369029763e-03
2.549037087326e-03
2.376936366428e-03
1.302651264701e-03
4.273366818875e-03
2.508792953611e-03
4.299375558000e-03
4.132696996014e-03
3.389416804487e-03
2.034302780513e-03
2.172486861284e-03
2.165955219120e-03
2.337607654919e-03
1.391516248166e-03
4.919034255652e-03
2.855049591196e-03
4.941701353565e-03
3.027877065094e-03
4.063567962409e-03
3.458337729904e-03
3.331673446639e-03
1.430769057123e-03
5.141025598269e-03
5.386317345378e-03
4.241134245443e-03
2.509978051558e-03
3.760813505748e-03
4.270720268813e-03
2.680282115890e-03
2.797254708148e-03
2.037210772217e-03
1.757966815576e-03
2.721514213298e-03
1.824017326780e-03
1.691969220267e-03
3.496848774705e-03
4.195328690588e-03
4.995266969494e-03
2.135838877743e-04
2.937051639141e-03
2.897351463058e-03
2.682523461315e-03
4.103488450026e-03
3.156230924954e-03
2.130711016344e-03
2.894759596741e-03
4.775391991284e-03
2.173955602432e-03
7.788298120352e-04
1.098630592693e-03
1.847249263452e-03
2.207153680070e-03
3.068504768790e-03
3.066805177260e-03
1.285438509384e-03
1.138227833186e-03
3.930039062681e-03
1.865163626252e-03
4.708651258612e-03
4.829683528524e-03
3.996321467093e-03
4.986241804288e-03
5.148048922335e-03
3.260814721479e-03
4.534131096749e-03
1.457572490377e-03
3.023482251318e-03
2.967208668201e-03
1.645155887212e-03
1.166961927378e-03
2.469642956954e-03
2.937206611966e-03
3.106798960592e-03
1.956772177711e-03
3.328078992345e-03
2.976908204584e-03
3.106378807451e-03
2.248119148986e-03
4.413942525391e-03
4.439751776256e-03
2.976392922480e-03
5.010927287276e-03
1.627877766205e-03
5.381669347488e-03
3.196867194148e-03
5.344914307263e-03
4.057033022443e-03
1.547485956853e-03
4.123901821043e-03
5.087178339347e-03
3.367611906554e-03
2.440942977478e-03
4.251329185006e-03
3.207452396219e-03
1.238538391459e-03
5.593643574323e-03
1.085824202323e-03
5.357726211726e-03
5.214885560155e-03
4.544742657186e-03
3.963126868919e-03
4.882709138368e-03
3.144855381723e-03
3.686700440280e-03
5.279854728997e-03
4.499470890681e-03
4.577778607108e-03
4.305077680676e-03
1.417434976899e-03
4.713217591497e-03
5.753142823153e-03
5.329243380659e-03
2.984954618286e-03
3.988249552619e-03
3.801645055376e-03
3.235172335353e-03
4.367027888534e-03
4.537516687745e-03
9.970547420201e-04
1.879690939538e-03
3.146058965649e-03
3.016269873665e-03
3.169182906176e-03
5.469468509572e-03
5.150681403781e-03
5.240179499594e-03
2.868576175316e-03
4.786586511308e-03
4.405806436379e-03
5.327777423767e-03
4.543377517499e-03
3.194953866718e-03
3.016658390278e-03
4.683655011930e-03
5.186209915555e-03
4.713484120124e-03
4.548206090170e-03
4.976866936040e-03
5.217579174467e-03
4.840160058744e-03
3.891876227783e-03
2.750258353967e-03
4.710107048531e-03
4.455858956637e-03
1.652249011372e-03
3.184856128294e-03
3.569010409292e-03
3.985083673359e-03
1.671830613806e-03
3.055529241679e-03
4.284410717116e-03
3.160882025297e-03
3.286974656951e-03
4.234469480444e-03
3.357266040902e-03
5.832224582001e-04
3.799395819488e-03
4.636565872287e-03
5.317751045333e-03
3.481406310990e-03
3.589447844127e-03
4.274698478407e-03
8.890581030904e-04
4.506465777264e-03
3.816858646074e-03
3.354799917759e-03
4.576186082816e-03
1.676633756965e-03
4.747043128416e-03
5.187298868340e-03
4.376407166304e-03
4.744547438801e-03
4.830907234008e-03
5.222428902797e-03
1.201860364893e-03
4.408544086062e-03
5.240903661220e-03
4.852152895878e-03
4.077198400922e-03
3.222276421180e-03
3.512191017662e-03
9.501978410135e-04
5.017421712005e-03
1.785962296740e-03
1.474080171039e-03
4.696567737555e-03
5.360782323002e-03
1.502195583133e-03
3.694570648950e-03
4.514270677664e-03
3.456703744762e-03
1.710610669055e-03
2.238950842234e-03
1.102844825228e-03
1.463725195595e-03
1.298709706981e-03
3.778806340878e-03
6.016319104850e-03
1.770958764898e-03
5.108227611126e-03
2.760707398476e-03
4.377813891094e-03
1.251866579467e-03
5.389992930062e-03
1.329712956055e-03
2.093643212440e-03
4.546924323321e-03
3.272001809033e-03
5.085454575005e-03
2.505652950449e-03
4.652855770583e-03
5.305274251484e-03
4.381154287587e-03
5.353154153797e-03
4.847010383273e-03
4.984300817298e-03
1.461091507052e-03
4.931565832531e-03
4.651005362573e-03
3.390008201393e-03
2.079335679828e-03
5.500831082514e-03
1.712811546916e-03
1.993152190864e-03
4.885708378640e-03
1.216541976104e-03
3.495171392387e-03
4.675591106622e-03
5.272532937545e-03
5.420840566733e-03
4.583883740699e-03
5.018032232522e-03
2.928193951873e-03
4.734205484299e-03
2.384407325898e-03
5.226115629599e-03
2.691920380854e-03
2.821439891355e-03
3.352681362175e-03
3.005156168196e-03
3.913667205993e-03
3.168162756046e-03
3.350908701417e-03
1.499540076307e-03
3.184302201097e-03
5.155825657334e-03
5.317650690563e-03
4.630365567379e-03
5.181610671434e-03
3.234889799458e-03
4.952004252636e-03
3.313357221721e-03
5.062045811440e-03
4.816274352400e-03
4.818099421099e-03
4.206405183177e-03
3.056304276052e-03
5.021296019776e-03
4.023314824600e-03
1.538746154334e-03
1.749640413363e-03
2.581840747201e-03
3.659895849796e-03
5.198547264467e-03
4.682421595145e-03
3.094059173860e-03
4.145541869622e-03
4.812672239436e-03
5.049278077315e-03
5.190177469339e-03
4.186777916003e-03
4.922584909275e-03
3.519092201106e-03
4.841945469779e-03
3.459285380478e-03
5.318103245047e-03
5.375730321285e-03
3.907284938938e-03
1.543762532817e-03
4.924088818987e-03
3.784631978290e-03
2.966232018542e-03
4.115084444643e-03
4.786551662216e-03
1.580177343230e-03
3.609609721518e-03
4.218839080460e-03
5.235324707913e-03
4.343885302361e-03
4.794481932196e-03
4.091858975395e-03
3.838629298260e-03
4.150165290363e-03
5.016907512540e-03
4.843633938431e-03
4.487236376390e-03
5.391551705940e-03
3.964776956212e-03
2.504722224904e-03
5.126866157334e-03
5.351865102208e-03
3.421523486689e-03
3.585506366848e-03
2.798993443276e-03
4.621665338398e-03
2.797993190934e-03
4.008922037687e-03
2.829376981743e-03
4.717608549950e-03
5.388550033297e-03
2.927070685157e-03
9.888206599125e-04
5.353078015974e-03
2.956776001860e-03
3.401650254318e-03
5.219422455657e-03
4.518245132016e-03
4.710258760873e-03
3.004500417496e-03
7.783076031666e-04
5.413634110948e-03
3.785549847173e-03
4.475770357229e-03
5.138569278830e-03
4.994909691429e-04
4.670933741567e-03
2.116054709690e-03
4.214096454066e-03
3.759983120660e-03
2.888083435173e-03
5.100516085728e-03
3.877479781614e-03
2.594149316670e-03
3.983879265493e-03
8.165376085930e-04
4.568690469440e-03
4.756083401336e-03
5.452995028681e-03
4.864947734128e-03
2.043386112127e-03
4.669335817464e-03
5.443502610785e-03
5.653283028556e-03
4.924221690428e-03
3.131071400812e-03
4.275149951314e-03
5.153531541623e-03
3.483038301481e-03
4.661124208018e-03
4.348587759454e-03
4.969873350217e-03
4.879399467596e-03
3.061812406022e-03
3.059832632554e-03
4.421565437881e-03
4.367095910945e-03
3.892926071110e-03
4.346817112173e-03
3.712232804534e-03
5.218395199065e-03
3.094455246611e-03
6.015990180958e-03
3.548926640244e-03
3.622651461457e-03
3.720989189851e-03
1.917689178557e-03
3.325283759535e-03
4.075520205487e-03
3.823291195348e-03
4.324099751295e-03
4.442674123027e-03
4.635684442584e-03
9.413748427402e-04
3.116803001466e-03
2.990095831993e-03
4.183071766205e-03
4.385629020003e-03
5.129593891230e-03
1.345885066556e-03
1.412365657132e-03
3.622797484364e-03
3.154436867303e-03
2.871305297426e-03
3.029007655749e-03
4.352626062824e-03
1.378394098464e-03
3.551958554456e-03
4.673475020981e-03
1.371021261255e-03
5.626560674904e-03
5.140839489265e-03
3.418542020247e-03
4.761469995819e-03
5.340586268803e-04
4.506684223349e-03
3.820960628806e-03
5.232531716935e-04
5.112554520633e-03
1.291496177795e-03
4.218615333140e-03
3.856857888662e-03
3.312116629244e-03
3.970751915483e-03
5.253907736522e-03
4.273307236226e-03
3.748874096129e-03
3.658427402968e-03
4.072848571605e-04
1.086582957134e-03
4.988340503471e-03
4.027251590836e-03
5.093944963423e-03
2.082136659873e-03
4.849015704641e-03
5.165290452317e-03
3.099958031898e-03
4.951145023831e-03
4.800202598035e-03
4.202189340322e-03
3.419837614494e-03
3.627723820665e-03
5.408792691943e-03
3.669252203194e-03
3.949521165471e-03
3.687500356751e-03
4.577290825851e-03
3.457616430748e-03
2.136542330794e-03
3.737765005846e-03
2.300519927022e-03
4.313534934977e-03
2.336835197399e-03
4.185013498204e-03
5.058632123647e-03
4.845402042790e-03
3.258903797757e-03
4.157867652743e-03
4.893039108893e-03
4.931637404463e-03
1.098595117713e-03
4.276866742040e-03
5.348494697504e-03
2.274754905370e-03
3.720777205156e-03
5.805350037142e-04
5.023459904507e-03
2.007146323956e-03
3.516536072154e-03
4.448684330717e-03
4.188265097600e-03
3.987994876210e-03
3.912543751932e-03
2.560060998670e-03
2.716022476841e-03
5.063727723485e-03
4.170414237267e-03
3.608810319198e-03
4.473149988466e-03
3.442042596625e-03
2.210516303654e-03
2.509306508328e-03
3.743956289805e-03
3.211982025181e-03
4.884087041847e-03
3.294332851053e-03
5.470028085312e-03
4.968312631613e-03
3.648648400585e-03
5.541933827682e-03
2.466546029825e-03
5.345527466215e-03
3.948482313971e-03
4.328605554235e-03
5.112321421619e-03
2.597683647667e-03
4.115029269880e-03
3.480150837066e-03
4.019186076767e-03
2.272393606486e-03
4.466658165346e-03
3.272828574776e-03
3.852140252587e-03
3.985530946530e-03
5.486019707335e-04
3.987424940170e-03
8.554820142325e-04
9.504026979452e-04
3.679756779392e-03
4.895621551102e-03
4.114719913355e-03
2.260582699587e-03
5.890341927598e-03
2.361196323927e-04
2.408933314321e-03
3.696570178526e-03
3.550836608979e-03
2.949897068498e-03
2.521788525811e-03
3.865826064652e-03
4.111851899735e-03
4.291338337805e-03
5.060421643315e-03
1.172731196860e-03
3.380194152908e-03
3.645284340248e-03
1.945070109137e-03
3.263324571413e-03
4.151874911649e-03
4.514501832048e-03
6.678202814272e-04
4.351335771455e-04
1.356777941614e-03
3.683303970356e-03
2.761138937455e-03
2.431180347952e-03
2.170243072617e-03
3.811952085602e-03
4.376533666742e-03
3.777763179950e-03
2.723670872440e-03
4.310662224790e-03
3.611591761329e-03
4.750283438547e-03
3.815774579287e-03
3.851468414051e-03
1.944050795949e-03
2.890987107893e-03
3.905608017060e-03
4.252910968047e-03
3.994175970999e-03
2.110867462038e-03
3.944631663858e-03
2.390664015242e-03
1.124080825948e-03
5.376953591042e-03
1.187499430943e-03
2.482769913719e-03
3.879865431681e-03
2.200126612380e-03
3.952345974418e-03
1.811928905985e-03
3.356343314340e-03
3.983365723056e-03
3.440832380153e-03
3.590886272854e-03
5.778240294564e-04
5.177570466669e-03
2.852018100216e-03
5.139923105349e-03
4.369987342579e-03
4.075819768185e-03
4.112944593259e-03
2.558534294897e-03
8.044732495801e-04
4.846447285547e-04
4.204879470093e-03
5.110788681143e-03
2.351481271792e-03
4.405521083047e-03
2.090274329685e-03
4.476809174747e-03
5.754213561495e-03
1.628784469014e-04
5.886643384746e-03
5.901414175980e-03
3.458575707159e-03
2.812867409509e-03
4.241011420016e-03
2.631198119222e-03
8.395301720450e-04
4.442063176975e-04
5.416028733597e-03
4.290643224771e-03
3.238039868260e-03
6.016407931761e-03
1.526058316679e-03
6.021404174662e-03
4.252293004767e-03
2.770700704573e-03
4.037975120995e-03
2.603169544957e-03
1.275543801189e-03
2.434051418874e-03
4.504021302162e-03
5.149429450184e-03
2.644039120232e-03
4.570681309338e-03
0.0
2.683791218028e-03
4.759413754436e-03
2.380487600569e-03
2.182231533104e-03
4.074582213105e-03
1.142827734401e-03
1.613360141681e-03
1.808060117334e-03
2.084692713343e-03
3.738888209100e-03
3.552566181395e-03
4.601487464017e-03
5.387303345294e-03
1.895037985309e-03
4.547788030597e-03
5.406404464741e-03
2.430574595185e-03
8.388200309560e-04
2.308570276636e-03
3.567446514914e-03
4.605708546548e-03
3.532472732913e-03
9.838862332244e-04
4.035330324993e-03
1.450893591273e-03
3.586284318698e-03
3.831672797715e-03
4.170149154859e-03
4.132286282917e-03
2.127223100425e-03
9.534914560384e-04
4.136513997941e-03
1.590009906794e-03
3.818359164413e-04
5.392622240487e-03
5.134895118372e-03
2.358553379799e-04
4.335577273877e-03
1.652975194542e-03
1.733439247888e-03
4.869520458032e-03
4.202282593856e-03
4.701518647351e-03
2.723483443401e-03
3.214868672807e-03
5.618894135867e-03
1.429456025818e-03
4.994104156300e-03
3.749384831161e-03
1.080098481844e-03
4.468944246879e-03
2.850501028317e-03
5.229780796343e-04
2.395768144624e-03
4.403868178899e-03
4.552935884602e-03
1.122570998337e-03
3.592706244326e-03
4.742720139637e-03
4.941703297220e-03
2.257577943858e-03
1.773224354185e-03
3.849204691396e-03
4.071024716265e-03
5.196053913262e-04
5.764981452673e-03
5.619546678147e-03
3.612944456398e-03
5.643094491975e-03
5.633179208426e-03
2.812315344072e-03
2.684208433063e-03
5.774953852408e-03
0.0
1.642459376677e-03
3.615456688328e-03
2.303853360214e-03
2.356132906425e-03
1.288375400597e-03
1.523495052580e-03
3.689273836909e-03
2.596505031526e-03
1.903570888892e-03
4.768488117706e-03
6.016953446853e-03
6.019036760985e-03
2.772486331110e-03
3.327990862488e-03
3.338379874678e-04
1.033148740315e-03
1.155791037094e-03
1.182207438934e-03
4.038315348238e-03
2.314844929729e-03
2.560267431529e-03
6.984958962330e-04
5.129856721972e-03
2.519676737210e-03
5.369560606069e-03
4.921920194395e-03
6.028148600870e-03
6.024927523322e-03
3.694826416134e-03
2.643467046654e-03
1.596779775992e-03
2.730315514544e-03
5.897744789275e-03
7.273837460651e-04
8.727452914998e-04
5.171338012505e-03
3.477662201300e-03
5.409990092851e-03
4.766370635139e-03
5.205506796535e-03
4.984047288898e-03
3.660646591583e-03
2.009740382611e-03
1.966632147612e-03
4.354966851432e-03
5.090565716970e-03
3.059094088471e-03
3.470038770667e-03
3.693952598066e-03
3.772778857696e-03
9.470076460962e-04
1.787152598033e-03
5.767752696873e-03
4.034960654971e-03
5.756079931259e-03
5.497145112359e-03
4.509775173530e-03
5.432774287522e-03
2.645253503307e-03
2.511337306943e-03
5.406759837386e-03
2.304638287390e-04
1.771966949554e-03
5.883028560639e-03
8.247074295860e-04
3.324809475671e-03
5.529445601793e-03
5.796810560745e-04
3.735041338850e-04
6.010222977965e-03
3.068950323843e-03
5.659948107382e-03
5.391425944959e-03
3.060672020253e-03
3.701494320501e-04
5.629476601577e-03
9.427571928058e-04
5.445974576444e-03
5.891393706380e-03
5.428284510192e-03
1.205305933195e-03
3.730388698424e-03
2.799861645862e-03
4.776394335281e-03
6.019211625132e-03
4.734875419906e-03
6.017874104347e-03
5.525430350758e-04
5.764155817737e-03
1.379826528368e-03
7.818426790371e-04
5.771398210854e-03
5.772672408195e-03
5.750122728571e-03
3.364853212441e-03
3.669284283972e-03
1.289535518306e-03
5.767367083341e-03
2.258902969131e-03
7.533765705703e-04
4.926344783199e-03
3.188420317882e-03
5.482259513434e-03
5.953772275136e-03
5.893932355244e-03
1.556562156404e-04
7.519299109284e-05
3.129847729158e-03
3.204854259840e-03
5.889443725007e-03
5.949944079456e-03
3.717729449495e-04
0.0
5.412787547920e-03
5.428215329942e-03
1.134510679474e-03
5.501228040530e-03
3.826590884489e-03
3.385765392231e-03
4.259215926484e-03
1.033495775153e-03
4.492845514927e-03
9.286955643621e-04
3.016528213224e-03
5.456768976603e-03
5.324962882905e-03
3.256994374191e-03
3.913984556786e-03
5.533514411026e-03
5.100824001865e-03
4.804745634301e-03
3.058531543379e-03
4.339009031687e-03
5.424931143324e-03
1.698845153725e-03
4.086781350245e-04
5.273729960381e-03
4.969714239598e-03
7.789488230218e-04
4.461302677928e-03
5.625097067298e-03
5.215165969830e-03
5.527785936845e-03
4.184635835076e-03
2.450732908034e-04
1.273338932172e-03
1.607268086116e-03
3.578185125380e-03
4.310413086534e-03
5.506795170732e-03
5.617673364480e-03
6.645911850499e-04
6.388748237895e-04
1.019502716968e-03
4.467708076661e-03
2.159520161712e-03
5.529519713859e-03
1.082739524012e-03
5.378468444182e-03
3.624426704377e-03
5.642484205688e-03
4.966747949266e-03
3.587861483021e-03
5.771512121934e-03
5.779451194585e-03
5.760792399076e-03
7.089390944599e-04
5.397932790268e-03
5.622343722044e-03
5.472950722519e-03
5.052268972403e-03
5.880549672383e-03
4.768122438881e-03
0.0
9.845756963830e-04
5.283361989644e-03
3.879740068610e-03
5.433335536349e-03
5.248543119057e-03
5.652713428879e-03
4.807093912347e-03
5.652238210163e-03
5.501769948461e-03
5.478616351915e-03
2.254971077609e-03
6.018212737185e-03
3.451522871175e-03
5.433186761320e-03
5.068656971481e-04
5.235659828438e-03
4.498616084438e-03
6.477069853908e-04
1.135724772343e-03
4.905082491478e-03
5.637492893173e-03
5.504426529729e-03
5.673913725339e-03
3.852881204388e-03
3.799041860717e-04
5.935897059171e-04
4.188938165996e-04
8.250409444333e-04
1.478748655911e-04
2.994768496768e-03
5.427348189453e-03
5.458882754827e-03
3.883455718842e-03
2.608660953034e-03
5.476751558409e-03
5.429576111220e-03
5.784117117048e-03
5.420830804507e-03
5.193598780718e-03
5.135394386583e-04
5.681154926280e-04
5.488737210923e-03
5.166391021770e-04
7.619709822300e-04
4.832364846616e-04
5.799786674798e-04
5.645675802182e-03
5.655037542831e-03
5.514781828190e-03
5.671443408193e-03
5.255264111174e-03
4.033418773149e-03
5.899144122698e-03
1.388436502105e-03
3.180255969687e-03
8.723897877040e-04
2.133422569490e-04
6.015531814482e-03
3.502525969212e-03
8.808568387309e-04
2.855369314806e-03
5.783822611068e-03
5.499347830224e-03
5.655534667043e-03
2.044016280955e-03
5.432286145459e-04
5.780287558168e-03
6.015607847563e-03
6.035949087319e-03
3.352497016114e-03
5.397561630392e-03
7.778562056283e-04
5.539597143375e-03
2.048357633213e-04
5.660676748682e-03
5.761438663708e-03
2.169999861615e-04
5.276842850465e-03
4.633513032721e-03
5.657467102238e-03
5.913925366103e-03
4.247858577438e-03
5.671720231098e-03
5.525428271373e-03
4.362177274661e-03
5.479739394229e-03
2.387201356291e-03
3.053723610195e-03
5.526446984933e-03
5.736294853841e-03
0.0
3.063983621229e-03
5.747940021174e-03
1.061697143843e-03
5.531390322422e-03
5.495470709881e-03
5.762937850711e-03
1.031440225739e-03
8.053626735849e-04
3.509970528096e-03
5.010988788466e-03
1.260771232346e-04
5.677193264911e-03
4.090526400836e-03
1.039673297651e-03
3.888574816327e-03
5.772338171833e-03
3.681185629208e-03
3.038880930972e-04
2.159618659612e-03
3.184608949978e-03
3.800834338169e-03
5.524986598456e-03
3.091083311451e-03
3.266927546245e-03
5.190819916672e-04
5.520367014093e-03
5.284258696945e-03
8.877738012257e-04
5.674860832192e-03
5.710960226183e-03
3.423111596940e-03
4.198163726001e-03
3.122389092001e-03
3.191264477013e-03
3.380114392671e-03
5.252725700940e-03
7.633269386085e-04
5.525012493520e-03
3.559702453178e-03
5.772557366742e-03
5.241338347213e-03
3.993508198578e-03
5.321259532480e-03
5.468684898978e-03
5.796731642521e-03
2.386710946756e-04
5.348756869278e-03
5.540450075665e-03
5.978130445139e-04
2.916813067191e-03
3.606876982128e-04
5.579480516134e-03
1.929041500633e-03
2.023740013829e-03
1.854265828309e-03
2.016530832047e-03
1.849333680069e-03
2.016057688508e-03
1.849195180988e-03
2.016381773036e-03
1.849523099890e-03
2.016986771475e-03
1.850201123651e-03
2.017903593159e-03
1.851073613590e-03
2.018100274694e-03
1.851198313231e-03
2.017765292166e-03
2.038346331878e-03
1.850748802689e-03
2.017763268230e-03
1.885943985980e-03
1.851152239863e-03
2.018100772715e-03
1.841102677324e-03
1.851647953070e-03
2.018159675524e-03
1.851486642937e-03
2.017416700478e-03
1.850595558474e-03
2.014905500803e-03
1.941018760619e-03
1.849191983526e-03
2.018440167145e-03
1.852222603884e-03
2.015647441730e-03
2.027681622993e-03
1.852157743951e-03
2.006230484387e-03
1.857841458147e-03
2.036787414556e-03
1.836927752623e-03
1.752304649195e-03
1.929925313480e-03
2.063297522828e-03
1.919603130811e-03
2.001189499676e-03
1.831777990773e-03
2.258393672976e-03
2.159705713490e-03
2.327059706199e-03
2.161659692035e-03
2.328518888195e-03
2.162672994817e-03
2.329425293706e-03
2.162300175437e-03
2.329523762820e-03
2.162994370433e-03
2.330352635693e-03
2.163819996874e-03
2.331651210941e-03
2.165193397044e-03
2.332104205239e-03
2.349563023748e-03
2.163170879264e-03
2.156618435812e-03
2.330120032603e-03
2.163760401776e-03
2.331149868869e-03
2.165613130817e-03
2.332544467419e-03
2.165577836067e-03
2.195603305539e-03
2.332198422978e-03
2.165170022173e-03
2.331421633703e-03
2.163880370449e-03
2.325581563359e-03
2.161800956061e-03
2.335429634205e-03
2.170950976162e-03
2.156347734429e-03
2.326285427350e-03
2.254719671384e-03
2.352490791724e-03
2.061139530170e-03
2.319973192991e-03
2.181921643346e-03
2.266267734125e-03
2.183268200846e-03
2.140663700466e-03
2.549158764665e-03
2.636150175904e-03
2.465044416633e-03
2.626215054828e-03
2.459129987657e-03
2.629398577210e-03
2.462515755855e-03
2.626876011636e-03
2.459194547671e-03
2.628998715299e-03
2.462069348223e-03
2.628826924734e-03
2.461615336322e-03
2.655480925391e-03
2.633841262142e-03
2.465021985990e-03
2.504855940460e-03
2.626954113001e-03
2.460627946581e-03
2.459281500191e-03
2.628877804265e-03
2.463978196257e-03
2.633359730070e-03
2.466114496976e-03
2.631825731881e-03
2.557842814581e-03
2.464193016864e-03
2.631244525693e-03
2.634203394462e-03
2.465367309287e-03
2.611601312478e-03
2.466838180282e-03
2.656093472301e-03
2.452256167998e-03
2.368738549867e-03
2.524902431016e-03
2.677255740190e-03
2.532401558562e-03
2.611856570448e-03
2.448380073333e-03
2.895347462543e-03
2.762954093961e-03
2.933492103758e-03
2.773940618943e-03
2.938129622360e-03
2.779861874844e-03
2.947517109028e-03
2.770436758339e-03
2.936171750745e-03
2.775705167697e-03
2.944993665868e-03
2.776162261490e-03
2.967674935110e-03
2.940979762038e-03
2.788576165275e-03
2.769633692862e-03
2.947728243539e-03
2.778133822446e-03
2.938167467260e-03
2.780092728751e-03
2.946956698666e-03
2.779489675693e-03
2.817224370005e-03
2.950134646900e-03
2.777240784832e-03
2.942772889533e-03
2.773283112852e-03
2.775691965232e-03
2.943314050847e-03
2.958430064026e-03
2.871806310958e-03
2.678495565508e-03
2.898963514100e-03
2.818430404747e-03
2.887802313650e-03
2.791363294968e-03
2.764226645725e-03

SCALARS element_materi_plasti_phimob float
LOOKUP_TABLE default
7.361910357588e+00
5.350930061658e+00
1.914112846337e+01
1.855424277557e+01
1.092080598292e+01
-6.888162342726e+00
1.103535828419e+01
8.766988950416e+00
1.106199090867e+01
1.851258495168e+01
2.129780895879e+01
2.286968699957e+00
2.089213972318e+01
1.242995253087e+01
2.072131313821e+01
1.880466709229e+01
1.031538108867e+01
-7.064252582425e+00
1.026555210109e+01
1.122041653784e+01
1.848805501658e+01
8.183343672847e-02
5.047159577763e+00
2.143883940331e+01
1.381923587657e+01
2.138525852292e+01
7.739257857627e+00
2.072687059818e+01
1.381539521594e+01
2.144478141527e+01
2.282705218915e+00
-2.091366270852e+01
1.904490065368e+01
2.124170826835e+01
2.104112485977e+01
2.085041129541e+01
2.075253346720e+01
2.129893366612e+01
8.484448310710e+00
8.643569430856e+00
3.074273751211e+00
2.085684454261e+01
3.919606933355e+00
7.615889887987e+00
1.823538276443e+01
3.553677570715e+00
-4.566551730671e+00
1.833457354268e+01
-2.206484150261e+01
1.154644968853e+01
3.231348717096e+00
1.358658261159e+01
1.111400727890e+01
-2.544361945556e+00
1.891233215597e+01
1.719998417872e+01
1.448239254703e+01
2.130167061666e+01
4.527443576612e+00
1.878643503708e+01
-2.787777223261e+01
2.109130996229e+01
1.544591665998e+01
9.024884700751e+00
2.089581382236e+01
-3.071400135624e+00
-3.006223066436e+01
1.909362949610e+01
5.429770632562e+00
1.989894701695e+01
2.140126122843e+01
1.935144102992e+01
2.035618972566e+01
-1.452660681194e+01
1.784387471091e+01
1.855966340643e+01
1.884324665007e+01
-1.100116663759e+00
5.067059966741e+00
1.140801822680e+00
5.888941104110e+00
1.022199433252e+01
7.158626841313e+00
9.451292927483e-01
1.208863792217e+01
1.213357069593e+01
2.137616163618e+01
2.132503623588e+01
1.751109026596e+01
1.076646210441e+01
-2.133663628281e+01
1.020603261921e+01
1.666478534588e+01
1.645090023034e+01
1.912037910740e+01
2.095287591206e+01
1.006679349985e+01
2.128242847348e+01
1.395495210378e+01
1.397912272945e+01
9.732617482616e+00
2.078979610221e+01
2.126904063364e+01
2.094721201106e+01
1.622512779747e+01
-5.964213550132e+00
2.104865165027e+01
1.721951293918e+01
-2.284383471983e+01
2.067166153913e+01
1.723376551933e+01
-2.584364184378e+01
2.009199129991e+01
7.889023207633e+00
1.958238555164e+01
1.316909661145e+01
1.592401986214e+01
2.092367287159e+01
1.342518539368e+01
1.632262957537e+01
4.517689935140e+00
1.025664808855e+01
1.730996240010e+01
1.620135603809e+01
-1.014244883017e+01
5.162927462095e+00
1.930116868944e+01
1.293295069258e+00
1.885147080992e+01
-3.057251415712e+00
2.139030997509e+01
1.857751984286e+01
1.198786507450e+01
3.933646013435e+00
2.119243046542e+01
2.086977122347e+01
2.142897336945e+01
1.252797154636e+01
2.135373689435e+01
9.353476298022e+00
1.871619642955e+01
1.973354670062e+01
1.231847652067e+01
1.541956916689e+01
1.044630433184e+01
-8.333314767161e-01
1.368810591164e+01
1.818676298957e+01
1.022915090125e+01
2.007346184144e+01
-2.226122878941e+01
1.208029834778e+01
6.188729581754e+00
6.606825297838e+00
2.089565044584e+01
1.669477111770e+01
2.138136114970e+01
4.867303156465e+00
2.135769710253e+01
1.056933927463e+01
2.057995383179e+01
2.121758564437e+01
4.647639433883e+00
2.107080300744e+01
1.096422530155e+01
2.103465567598e+01
1.046726625717e+01
1.823052926157e+01
5.606251076900e+00
2.140776138195e+01
5.673575345083e+00
2.025488375209e+01
1.597380069637e+01
1.038827550276e+01
1.939836890426e+01
3.522407600986e+00
1.868986061534e+01
1.999606878199e+01
2.063277039179e+01
1.989194636446e+01
1.152627715006e+01
2.013118648896e+01
2.171086473289e+01
7.348008060937e+00
9.100482863173e+00
9.336349967738e+00
1.921762791064e+01
1.873043516137e+01
1.693420804415e+01
2.114931931463e+01
1.879136433246e+00
2.021992263304e+01
1.746956605891e+01
-3.385263680236e+01
5.634757076425e+00
2.196067378304e+01
-4.118891264766e+00
1.882139545831e+01
1.518958945273e+01
2.103267814544e+01
2.223033348483e+01
1.195723907426e+01
1.322101618957e+01
2.120731408155e+01
1.813665230464e+01
1.510313604987e+01
1.246765251314e+01
1.569841258344e+01
1.197241133896e+01
9.623231737369e+00
2.166075300043e+01
1.828713981668e+01
-2.622992416164e+01
1.036224102152e+01
1.262121650918e+01
1.417927991917e+01
1.725662022477e+01
5.571486012323e+00
2.206864513167e+01
1.016024048835e+01
2.073605457382e+01
2.213546067021e+01
-1.720337376139e+01
1.624255724984e+01
-2.333815139358e+01
-3.108814894973e+00
2.672899142781e+00
1.608375982638e+01
1.664377495139e+01
1.459846227247e+01
1.113418516499e+01
1.025375040631e+01
7.852929606680e+00
2.206560074551e+01
1.130725556888e+01
2.095837907424e+01
-3.888969261608e+01
1.547012589743e+01
2.134720626599e+01
5.479723175714e+00
2.234457284639e+01
2.099747714066e+01
1.640290727512e+01
1.819108879899e+01
2.183475520330e+01
2.141342222732e+01
1.408344732106e+01
1.577566617722e+01
2.069088955991e+01
2.100294109408e+01
1.169518335030e+01
1.367774648658e+01
1.913563494681e+01
1.605785436959e+01
2.198801288190e+01
1.241242566172e+01
2.315010047653e+00
1.171358944856e+01
1.907849627593e+01
1.260565708942e+01
4.881679359852e+00
1.668215509573e+01
1.322548113299e+01
1.811338567877e+01
1.704881856492e+01
1.696218155168e+01
1.406907949562e+01
2.072995411274e+01
2.242959752165e+01
1.415652058419e+01
1.972944289946e+01
2.200515107771e+01
1.682555771195e+01
1.005119069036e+01
2.154199809529e+01
1.909968231581e+01
1.637773433665e+01
-2.683566278889e+01
1.263971688826e+01
2.018220550358e+01
1.451274056377e+01
1.565097551447e+01
1.448541291943e+01
-5.847624377229e+00
1.114675691815e+01
2.236745651012e+01
1.295763995316e+01
1.203478737101e+01
6.146895306867e-01
2.002855708572e+01
1.792356423752e+01
1.123003907998e+01
1.580228470786e+01
1.316804172177e+01
2.196472171319e+01
2.145789139874e+01
4.059493858776e+00
2.043666940935e+01
3.341688839072e+00
1.927771646904e+01
1.942298215022e+01
1.682549106665e+01
1.819609200048e+01
1.300205026638e+01
1.500137990425e+01
1.539544358012e+01
1.884247153957e+01
1.358870865625e+01
1.866805444113e+01
2.061151291819e+01
2.171919869622e+01
8.933560850552e+00
2.109810706734e+01
1.650546431381e+01
1.498741246895e+01
9.581379686778e+00
2.270577500139e+01
2.188040396903e+01
1.958170524790e+01
1.284165253576e+01
1.992908835268e+01
2.133694840350e+01
2.220589212307e+01
7.459409310251e+00
1.474135283493e+01
2.241130705310e+01
1.296484411028e+01
1.416119986657e+01
2.048910234746e+01
2.215267215378e+01
1.967616356257e+01
1.396423438834e+01
1.729656043765e+01
7.950825353297e+00
1.081595309151e+01
1.382217529583e+01
1.436015390982e+01
1.704040831484e+01
2.078582814240e+01
1.323594367598e+01
1.064493076279e+01
2.094994797358e+01
1.293768554487e+01
8.743772983197e+00
1.625279508237e+01
1.050605044400e+01
1.870857407718e+01
1.991518813167e+01
1.675766021672e+01
1.556537121673e+01
1.207195266401e+01
2.250707238262e+01
2.247558862608e+01
2.103751580543e+01
7.566679791562e+00
1.927812795293e+01
2.032109459573e+01
1.037351602809e+01
1.348527989512e+01
1.773740702623e+01
1.527749492751e+01
7.945952534148e+00
9.633551983686e+00
2.118643427625e+01
2.133003050696e+01
1.772260919486e+01
1.622960102297e+01
2.212384379477e+01
1.540978519790e+01
1.713396471702e+01
1.932387526750e+01
1.534401850251e+01
2.246377563280e+01
2.091510072554e+01
1.758002462939e+01
1.826312238763e+01
1.793083529028e+01
1.362676891624e+01
1.722312393194e+01
1.948786755474e+01
1.936021834467e+01
1.880187335092e+01
2.223335324912e+01
1.709775300267e+01
1.255696022620e+01
2.066493950568e+01
1.128565438734e+01
1.168806603310e+01
1.003832995147e+01
1.401248782284e+01
2.142612005842e+01
1.796210752006e+01
1.350563634624e+01
1.515474278459e+01
1.491758136944e+01
-5.648024175880e+00
2.099320040810e+01
1.839592673218e+01
2.053986687903e+01
-5.344976717220e+00
1.237695297584e+01
1.080243559764e+01
1.754311169530e+01
2.062400287016e+01
2.187705923099e+01
1.043464921747e+01
4.858481930393e+00
1.613475734808e+01
2.085536251022e+01
1.464820576424e+01
2.015419082018e+01
1.023734269539e+01
1.528333247168e+01
2.126167915826e+01
1.713447407273e+01
2.249599261129e+01
2.025270317194e+01
2.012786234382e+01
1.966601820034e+01
1.986047263437e+01
1.538492453147e+01
1.710260468681e+01
1.819671250238e+01
1.656232185654e+01
1.431148325427e+01
2.049761672350e+01
1.755651419533e+01
2.065475944417e+01
1.749359041801e+01
2.196319646268e+01
1.745467228513e+01
1.961325568533e+01
1.865291676795e+01
9.694279219020e+00
1.228989476417e+01
1.880300425856e+01
1.754772829516e+01
2.007042371942e+01
2.082409648150e+01
1.738995517790e+01
2.096251211962e+01
1.812158726923e+01
2.025477566943e+01
1.897849593555e+01
1.601217557324e+01
-2.286077897239e+01
2.046307660936e+01
2.097201124342e+01
1.825556599861e+01
2.212540554618e+01
2.112915791578e+01
-5.254617359002e+01
1.820601036407e+01
1.600159254126e+01
1.608574405791e+01
1.494849978564e+01
1.418832014314e+01
2.062704896125e+01
2.146558221380e+01
-6.075258379910e-02
2.109436486662e+01
-2.236918067353e+01
9.301281873139e+00
4.171185286770e+00
8.059775698129e+00
2.114936984261e+01
2.071995427459e+01
1.411994237040e+01
-5.324608426692e+00
-5.158282581616e+00
2.413474263640e+00
2.157537688940e+01
1.013940335359e+01
1.151398299970e+01
2.075280928507e+01
1.022059151337e+01
1.926225312385e+01
2.005516015309e+01
1.338021742529e+01
1.395204687810e+01
2.226166684969e+01
8.084821171466e+00
2.073537985994e+01
1.998738536540e+01
1.976675123592e+01
2.215306043213e+01
2.001416524960e+01
1.914225371573e+01
2.236186315039e+01
2.069335527934e+01
1.663439810010e+01
2.057491937991e+01
2.096742527363e+01
1.420712350241e+01
2.106387243164e+01
-6.407363562996e+00
2.064281647725e+01
2.008342912752e+01
2.037442656602e+01
1.819267006189e+01
-4.778275332519e+01
1.945065628361e+01
1.744242040819e+01
2.056018644204e+01
1.554524621223e+01
2.061090492964e+01
5.881238216210e+00
2.126942122679e+01
2.044583161628e+01
2.020153462755e+01
-2.196460101578e+01
2.068032826887e+01
1.363221032141e+01
2.185506166915e+01
1.254450092980e+01
1.764200825596e+01
1.974743529981e+01
1.537496301731e+01
2.075270939775e+01
2.050459253547e+01
2.215467620510e+01
1.820098852407e+01
2.245807015167e+01
2.054567307981e+01
2.223653877338e+01
1.756832162376e+01
1.840325437557e+01
2.211239538362e+01
1.899727578452e+01
2.120905993241e+01
1.744278629743e+01
2.031615419054e+01
2.022990974485e+01
2.260450940201e+01
2.112509466274e+01
1.778762112603e+01
1.686196248828e+01
2.066562103041e+01
2.142678810281e+01
2.117323357527e+01
-2.227431811650e+01
2.103551863334e+01
1.784573198848e+01
1.893771472876e+01
2.060266740518e+01
2.212940031647e+01
1.278586850346e+01
1.247679001793e+01
2.222178407204e+01
2.207755209754e+01
2.243612024487e+01
1.518923803264e+01
1.181027391838e+01
2.184709271972e+01
1.375133861482e+01
2.080324397769e+01
2.236680608828e+01
1.974081878172e+01
2.179057701457e+01
-4.354281963501e+01
1.794047714658e+01
1.929207394445e+01
2.129986233699e+01
2.061470849613e+01
2.242497525106e+01
1.356513158187e+01
1.817451575377e+01
2.058444191244e+01
1.623758975709e+01
2.131551424556e+01
1.627091130777e+01
2.100975636237e+01
-4.941794850387e+01
1.329842774034e+01
1.974447020326e+01
-5.860382672698e+01
2.099430976870e+01
2.227324498059e+01
1.752518200188e+01
2.250053764137e+01
2.277181207967e+01
9.221047463323e+00
7.449235874613e+00
1.884397729313e+01
1.674389598375e+01
-6.302485757394e+01
7.630609198477e+00
-2.252538218797e+01
1.701672274956e+01
1.871988807328e+01
1.749644990800e+01
2.177016796345e+01
1.823004917482e+01
2.160736177734e+01
2.186313384201e+01
8.210112634187e+00
1.964331697895e+01
1.808912406076e+01
2.101956714271e+01
2.056689088503e+01
2.032203282048e+01
2.105751013128e+01
2.237063299308e+01
2.175168040724e+01
1.022176865450e+01
2.197841978524e+01
-3.842683796144e+00
2.067384392098e+01
2.131116070294e+01
-2.055662080027e+01
1.995034442961e+01
1.785052028544e+01
-6.144888892173e+01
7.388839719984e+00
7.618628461139e+00
2.235311405362e+01
1.803659774425e+01
1.946885386410e+01
9.907404187612e+00
2.136517025494e+01
2.032050718814e+01
1.693954392493e+01
1.366032861772e+01
-1.225639425089e+00
1.046624034372e+01
7.772641048969e+00
7.872292948646e+00
-5.794414784957e+01
-2.103461062961e+01
-3.051575401694e+00
1.542147811207e+01
-2.008932823422e+01
2.066488943673e+01
-4.118840105037e+01
1.759486136837e+01
1.491492045954e+01
7.633480693534e+00
1.876988863248e+01
2.226493370127e+01
1.374914766495e+01
1.866628484434e+01
-3.606383564903e+00
1.924110125489e+01
1.908937396936e+01
1.257421960025e+01
7.643290136934e+00
1.871092722939e+01
1.907711341625e+01
1.647570769388e+01
7.576186875053e+00
7.485374696245e+00
6.908002067053e+00
1.958855141182e+01
1.905241184075e+01
-2.071672182719e+01
-5.763411326439e+01
3.695411354618e+00
2.161681898397e+01
2.098304191063e+01
-3.160332867646e+01
1.698301029083e+01
-4.353460677974e+01
2.263617326686e+01
-3.924939583069e+01
-3.542892649702e+01
2.268832874447e+01
2.111317956369e+01
1.481105868471e+01
1.246974585390e+01
-2.035699111889e+01
2.154986161857e+01
1.914935671733e+01
1.907332663002e+01
7.694371307358e+00
2.253089145950e+01
1.921719013157e+01
2.067263092869e+01
-4.115190845562e+00
-2.019884199471e+01
-2.073688364047e+01
1.959369708392e+01
2.079095939827e+01
1.857348534161e+01
-5.758093809444e+01
2.056896436870e+01
2.049869092041e+01
2.084629735739e+01
2.099294658919e+01
1.616081995109e+01
1.735535244702e+01
2.048563038477e+01
2.049501870576e+01
1.698269419479e+01
8.999999999681e+01
7.807411375687e+00
7.812359885555e+00
-5.768184290544e+01
2.051370321294e+01
2.099966779846e+01
2.051759388157e+01
-6.101905635995e+01
-6.065884492268e+01
2.054805703206e+01
2.053482818762e+01
1.568983813778e+01
7.853720965564e+00
1.658445959960e+01
1.307352015005e+01
7.878450531270e+00
-6.175225261691e+01
-5.912769899242e+01
-5.628226424664e+01
-5.216769727857e+01
2.082988136301e+01
2.028963519662e+01
-5.725043979825e+01
2.138006389403e+01
-5.491831091313e+01
1.941827627541e+01
1.918839332724e+01
1.926972821264e+01
8.233331386046e+00
1.729373674871e+01
1.916558574919e+01
2.121654587404e+01
1.919159421494e+01
2.106942348369e+01
2.087618154065e+01
1.995973739474e+01
1.906140409512e+01
1.908479995374e+01
2.112216796863e+01
2.096487346060e+01
2.142714801591e+01
-4.634684612773e+01
2.031932959684e+01
-2.123607571073e+01
2.128010671786e+01
2.092662031511e+01
2.139089329403e+01
1.392058501296e+01
-4.693444999773e+00
2.119381108484e+01
2.073584694541e+01
1.929567060493e+01
2.133965413704e+01
1.795451945908e+01
1.916288587833e+01
2.200573370142e+01
2.200432288266e+01
2.150528397510e+01
2.143372406518e+01
2.184348928401e+01
1.034833090159e+01
2.006235375704e+01
2.169364316558e+01
2.125701553495e+01
2.136883170678e+01
1.512557785911e+01
1.788640998192e+01
1.722058731059e+01
1.155426782199e+01
2.175546526795e+01
2.159821649185e+01
1.796308883848e+01
1.760441602801e+01
2.185809609515e+01
2.108106341764e+01
1.698827868391e+01
2.131284130775e+01
2.113582057861e+01
1.788662838271e+01
1.584793090865e+01
2.202806860788e+01
1.443580020815e+01
1.384770033620e+01
-1.386722784841e+00
-2.206415085336e+01
1.758724919791e+01
2.116735628160e+01
-2.236767925544e+01
1.795752526593e+01
1.239056954226e+01
2.142657485723e+01
2.132822224408e+01
1.986065414581e+01
2.130264098208e+01
1.151191902368e+01
2.200296484065e+01
2.101858108755e+01
1.392746750099e+01
2.122589678960e+01
1.638642395422e+01
1.548350992905e+01
1.627180876003e+01
2.116778200245e+01
1.461196489796e+01
1.943115390498e+01
1.686423680302e+01
1.538690665962e+01
2.132642387040e+01
2.139405046969e+01
2.137412805773e+01
1.641705530028e+01
1.146522353757e+01
2.105921786825e+01
2.146852047670e+01
1.674246466387e+01
2.061814207545e+01
2.177367251216e+01
2.134065691829e+01
1.586904469942e+01
-5.180685446148e+00
-1.748303289444e+00
1.370940878194e+01
2.129001385399e+01
1.528585430935e+01
2.124975264127e+01
1.319378157846e+01
2.170270696890e+01
2.133751329011e+01
2.141762032591e+01
1.425808502565e+01
2.123789157508e+01
2.113186522258e+01
1.535627789820e+01
2.089423697729e+01
1.972304628330e+01
1.723561775687e+01
2.133801356813e+01
-5.702371103478e+01
-5.603362880631e+01
2.149304209520e+01
1.298881163572e+01
2.160231839367e+01
2.168816202980e+01
2.069921463369e+01
1.753995901643e+01
1.738135889292e+01
-4.516987140325e+00
2.001159865791e+01
2.156867698590e+01
1.084618123959e+01
1.402424496915e+01
1.239391464856e+01
9.928948568404e+00
2.150089706970e+01
1.608465174858e+01
1.319955422923e+01
1.766237110009e+01
1.771560536041e+01
1.465101614598e+01
1.408547048402e+01
1.509077841702e+01
2.143377782387e+01
2.134685595981e+01
1.789230018229e+01
1.742408743746e+01
2.151804367652e+01
2.163548784694e+01
1.214470529071e+01
2.152018606025e+01
1.613279486808e+01
2.123177817523e+01
1.525150476619e+01
1.660285995534e+01
2.241382274868e+01
1.711124396560e+01
2.080752347284e+01
2.120026689034e+01
1.908853417399e+01
1.985602534908e+01
1.572814494822e+01
2.185533411070e+01
1.605317576847e+01
3.525130547868e+00
1.568426785882e+01
1.636422515372e+01
2.124410268743e+01
1.627735677881e+01
2.151481404502e+01
2.097738859489e+01
2.042701669435e+01
1.489742860974e+01
6.858833889581e+00
2.163336689424e+01
1.479451181627e+01
-2.045107446798e+00
1.908742382575e+01
1.247233353189e+01
1.456968149605e+01
1.938135694169e+01
2.187923372000e+01
1.893699747283e+01
1.719683627331e+01
1.817911772411e+01
2.176508569842e+01
1.330893042250e+01
2.174110878725e+01
2.101786692351e+01
2.164990225571e+01
2.133562815194e+01
1.268844176668e+01
1.337832975260e+01
2.236396004588e+01
1.723617945778e+01
1.475628398883e+01
1.526118094994e+01
1.492633936006e+01
1.096986650375e+01
2.143470920121e+01
2.229800014455e+01
2.175783860103e+01
1.806730486397e+01
2.201395757473e+01
1.163379719368e+01
2.195480868752e+01
2.144297746588e+01
1.878417182336e+01
2.152788801587e+01
1.624180112620e+01
1.657861181972e+01
2.184852592575e+01
1.290676000182e+01
1.653280060672e+01
1.870336171632e+01
1.875822235360e+01
2.179007376991e+01
1.436886540202e+01
1.945260903728e+01
1.556216570921e+01
1.405059831614e+01
1.361597712031e+01
2.113024349991e+01
2.164962327524e+01
2.205769783103e+01
1.317426701701e+01
1.840885874590e+01
2.148317004753e+01
2.193254140814e+01
1.664699627129e+01
2.010373252590e+01
1.945453243936e+01
1.195017024814e+01
2.201165622620e+01
1.975317487264e+01
1.505652158556e+01
1.435418858378e+01
2.233835309558e+01
1.865456026777e+01
2.094925842883e+01
1.908125835157e+01
1.986338225903e+01
1.368956693954e+01
2.180209707185e+01
2.161974289763e+01
1.707234480485e+01
2.202037615138e+01
2.221995419146e+01
2.218590085837e+01
2.078930038171e+01
1.342396709836e+01
2.162848302441e+01
2.142102305901e+01
1.850966519291e+01
2.054531025700e+01
2.225434120440e+01
1.510304658999e+01
2.031597242497e+01
1.868659591853e+01
1.787951012583e+01
1.684030579220e+01
2.066862814850e+01
1.713768470159e+01
1.567470525505e+01
2.182011001311e+01
2.207633302458e+01
1.921870694426e+01
-5.696599430575e+01
2.238269953348e+01
2.202745137905e+01
2.113458591653e+01
1.439986181839e+01
2.198683193023e+01
1.866503764460e+01
2.115161253769e+01
1.678052484814e+01
1.845443256399e+01
2.556550476770e+00
9.602210805556e+00
1.827681039138e+01
1.956976402291e+01
2.237410186202e+01
2.155338474545e+01
1.156289469623e+01
9.619962136892e+00
1.330973075990e+01
1.686392827675e+01
2.206054288749e+01
1.942201759584e+01
1.416757112518e+01
1.721715562812e+01
1.908451591571e+01
2.214675662018e+01
1.898564380097e+01
1.390458868267e+01
2.122083364573e+01
2.161202782032e+01
1.736000652797e+01
9.330745921834e+00
2.011037607781e+01
2.151502306055e+01
2.187482994515e+01
1.779154736886e+01
2.226957746194e+01
2.184560695225e+01
2.265419748896e+01
1.909965674270e+01
2.222036686698e+01
1.551279970638e+01
2.263916867750e+01
2.180194518223e+01
1.581791410898e+01
2.158190020954e+01
2.233020674835e+01
1.916104774857e+01
1.625981476908e+01
1.585638014629e+01
1.499671331822e+01
1.749604748408e+01
2.255862791169e+01
1.930935530931e+01
1.577397720548e+01
1.774346594030e+01
1.202308837070e+01
1.855798457197e+01
9.113487841526e+00
2.144720651616e+01
1.781447398453e+01
2.218361566942e+01
1.381844671188e+01
1.681986439958e+01
2.214915317730e+01
2.237004328420e+01
1.791666252862e+01
2.195154142063e+01
1.593223991656e+01
2.253795924869e+01
1.458261926204e+01
1.632425721528e+01
2.040906647009e+01
2.150051278258e+01
2.163485755097e+01
1.377695229488e+01
1.294465706734e+01
2.187640920416e+01
2.210875817134e+01
2.210152541104e+01
6.714177918660e+00
1.941256287343e+01
2.279871509214e+01
2.210687850730e+01
1.975957075359e+01
1.820945353794e+01
1.799952996379e+01
1.777320080026e+01
1.301358179758e+01
1.669026518014e+01
2.188891487334e+01
1.800617747643e+01
1.578378255945e+01
2.157088474590e+01
2.272648486473e+01
1.638576119772e+01
1.757777999479e+01
1.651351836985e+01
1.598860084150e+01
2.171401150403e+01
2.140917114195e+01
2.188391139800e+01
2.213007295585e+01
5.861264717878e+00
2.203629520198e+01
1.572288690308e+01
1.590790822749e+01
2.232650087557e+01
2.283808983568e+01
2.231812216630e+01
1.789855349087e+01
2.223927892415e+01
2.220509830732e+01
1.183597999433e+01
2.193925656649e+01
1.468042826757e+01
9.792967842697e+00
1.756771741316e-02
2.193900131649e+01
2.231074295454e+01
1.824807471619e+01
2.276978978938e+01
2.209329381206e+01
1.487550000814e+01
2.320087421558e+00
2.238463782941e+01
2.244669734977e+01
1.258431166666e+01
2.189418458961e+01
1.643727182956e+01
2.186318777694e+01
2.170360927028e+01
2.240904777690e+01
1.646309435890e+01
2.034594626480e+01
2.153925235066e+01
1.024481596571e+00
1.534143100308e+01
2.112897264972e+01
1.687550791851e+01
2.257657083925e+01
2.234674502370e+01
2.155504344212e+01
5.287295716684e+00
1.731598802234e+01
1.672177375898e+01
-1.838549426093e+00
1.984820236001e+01
1.809481633470e+01
1.456364379106e+01
1.803824294765e+01
1.584393056143e+01
2.156428007945e+01
1.682767066749e+01
1.966924126684e+01
9.858706349268e+00
1.536585831624e+01
1.306409156661e+01
2.270345099053e+01
1.918389363057e+01
-5.366535385930e+00
2.153482181367e+01
2.233159903227e+01
1.520225534534e+01
1.237327580140e+01
2.142463517787e+01
1.226271351575e+01
1.830455415241e+01
2.219580525290e+01
2.214968093357e+01
2.135653419542e+01
1.785869444006e+01
1.617972393431e+01
2.153520037547e+01
1.540214662038e+01
1.824030350743e+01
1.670064871019e+01
1.707423436668e+01
1.491318339387e+01
2.160294912699e+01
1.627331494119e+01
2.213995159560e+01
-1.835120479741e+01
2.119554685017e+01
1.825394675909e+01
1.751336564172e+01
2.170377921263e+01
1.098389407590e+01
2.027692731348e+01
2.220661149308e+01
1.780353861079e+01
1.814818301549e+01
2.205073465902e+01
1.716116794238e+01
2.229111642435e+01
1.886240402547e+01
-8.308783517318e+00
1.858745838526e+01
4.714998938271e-01
3.310181600105e+00
2.264013462096e+01
5.768124481253e+00
2.097900055700e+01
2.119085007656e+01
2.243862931631e+01
1.606502263629e+01
2.274486935458e+01
1.763143042386e+01
1.843960558567e+01
2.179472299635e+01
2.153269982131e+01
2.262067208665e+01
1.712927164572e+01
2.283871134241e+01
2.143512881294e+01
1.676223664505e+01
1.663857091866e+01
2.258106749507e+01
2.256919787950e+01
1.928463665012e+01
1.606657500784e+01
1.512363861711e+01
1.716457138627e+01
1.895392514260e+01
1.744171042305e+01
2.128736499920e+01
1.621915728916e+01
2.217922320178e+01
1.790032369575e+01
2.215595048417e+01
1.726746173960e+01
1.915204530159e+01
1.461930248143e+01
2.203889210661e+01
2.245036419040e+01
2.197502314941e+01
1.997631001677e+01
1.787459300685e+01
1.915843238616e+01
2.273270301898e+01
1.663812539234e+01
2.073619704563e+01
2.042070302618e+01
2.192004573270e+01
2.236248576071e+01
2.194451971420e+01
1.551926238598e+01
2.282648595848e+01
1.567111053291e+01
2.122023486620e+01
1.639003098359e+01
2.028958878077e+01
1.489976032165e+01
1.323236642684e+01
1.685643854085e+01
2.176315347277e+01
2.162166523270e+01
1.575058957076e+01
1.818571390076e+01
1.408125996166e+01
2.119543258018e+01
2.048533171713e+01
1.795787868244e+01
2.127021669711e+01
2.073450732386e+01
2.182757587387e+01
1.622059377290e+01
1.536785301965e+01
2.133313171262e+01
1.638608314816e+01
2.195442667553e+01
2.055480555172e+01
2.207970344538e+01
4.190334937006e+00
1.820738931912e+01
1.400687085437e+01
2.277419581495e+01
2.082019830297e+01
1.570288555226e+01
2.175823779791e+01
2.144793020868e+01
-5.149719804551e-02
2.116250408549e+01
1.861759143505e+01
2.157481241507e+01
1.983387482768e+01
-1.226012175934e+01
2.193561626526e+01
1.887616223930e+01
1.456535735725e+01
2.172112393313e+01
2.257693669029e+01
2.134761848611e+01
2.082531495672e+01
2.220103473907e+01
1.845952324775e+01
-1.313613631241e-01
1.920276247470e+01
2.184397259733e+01
1.919939170382e+01
1.953792253238e+01
1.934777322110e+01
2.164049576976e+01
1.826424603743e+01
2.102469442276e+01
2.160989330751e+01
2.185606637820e+01
1.884489923406e+01
2.123930354698e+01
2.110599261833e+01
1.970636743645e+01
1.525511647089e+01
2.148234634110e+01
2.172045539973e+01
7.931583260336e+00
7.939468552563e+00
1.607081674491e+01
1.936162652757e+01
2.166486037183e+01
1.705743928874e+01
2.131223092296e+01
2.173008499886e+01
2.207837782524e+01
1.917641960681e+01
1.141495671822e+01
2.090880156889e+01
2.199449350206e+01
1.841642161256e+01
2.157338181287e+01
1.900369330140e+01
1.688262343151e+01
1.518427146247e+01
1.756785051658e+01
1.772481705320e+01
4.812110421359e+00
2.163174773309e+01
1.528711141728e+01
1.619768932330e+01
1.650679532011e+01
2.174226895494e+01
1.287345161329e+01
1.342457104405e+01
1.929249240328e+01
2.127163477801e+01
4.096324954513e+00
6.109956669698e+00
1.514755137079e+01
1.095851885186e+01
2.181408849886e+01
2.209876517426e+01
1.453187549122e+01
2.049793558716e+01
1.747850768644e+01
2.132666898819e+01
2.163849896181e+01
-3.133730380289e+00
2.219854544898e+01
1.907029002595e+01
-3.406915711583e+00
1.753708156516e+01
1.120954717111e+01
1.634869606046e+01
1.735571978949e+01
2.235862638402e+01
2.257055312826e+01
1.786173688962e+01
2.244109230470e+01
2.015183593991e+01
1.969181966329e+01
-3.166582707008e+00
9.060021092019e+00
2.008136993477e+01
1.394814085011e+01
2.052758602617e+01
1.956560466618e+01
1.725821538415e+01
1.986745393245e+01
7.478665039036e+00
2.001593114513e+01
2.151682801246e+01
1.981686356280e+01
2.188113093849e+01
2.177352843077e+01
1.818042674027e+01
2.261520247837e+01
1.800063782645e+01
2.212753535977e+01
2.223249209424e+01
2.132783979795e+01
2.089472327617e+01
2.282416663272e+01
2.149394246988e+01
1.692673531567e+01
2.072012659601e+01
1.702205349445e+01
2.166029517072e+01
2.199527270636e+01
2.173119063951e+01
1.457586856691e+01
2.148661099206e+01
2.139920117432e+01
4.301722912228e+00
1.753439152394e+01
2.113937255782e+01
6.646359610791e+00
2.152350449378e+01
-7.270782617102e+00
2.134594248869e+01
2.027771552894e+01
2.117424812250e+01
2.166262936142e+01
1.455661439247e+01
1.389475917997e+01
1.956301684914e+01
-8.995525188526e-01
1.698492714843e+00
2.129737920334e+01
2.227154077750e+01
2.246125713836e+01
2.244632660426e+01
2.286537675681e+01
2.013437393652e+01
-3.636734146439e+00
1.239351258428e+01
7.959488743546e+00
2.186607570447e+01
2.165130010748e+01
2.136318052529e+01
2.123634903187e+01
2.250099910419e+01
2.097617777843e+01
2.115063077752e+01
2.136433564521e+01
1.988844375244e+01
2.046359912989e+01
2.172537909452e+01
2.051135264107e+01
1.754826607330e+01
2.247332779655e+01
1.703042630105e+01
1.922739723474e+01
2.098703369885e+01
2.280723881712e+01
2.189255212765e+01
1.684135798619e+01
-1.667126580167e+01
2.206822204788e+01
-4.454699182945e+00
6.422777044130e+00
2.174100858674e+01
1.868103892982e+01
1.461381389487e+01
-4.857624686650e+00
1.949677508848e+01
-9.751462713439e+00
-3.535190395072e+00
2.277125553843e+01
2.134597810710e+01
8.034068184661e+00
2.182792122949e+01
2.233220077551e+01
1.935098513058e+01
2.197953343343e+01
1.841014198063e+01
9.735372181117e+00
2.158888591461e+01
2.152264454162e+01
1.765507339875e+01
8.966181790928e+00
1.466245777293e+01
2.133035680597e+01
-3.992722711786e+00
-2.292217261911e+01
1.248960289923e+01
2.136130667337e+01
2.183790278724e+01
2.091359499527e+01
2.003824957278e+01
2.167264969294e+01
1.599843983353e+01
2.149033499690e+01
2.243398815237e+01
1.766645383055e+01
1.162228538429e+01
2.155395467330e+01
2.136974550401e+01
2.149906665762e+01
-1.657556075607e-02
2.201143344802e+01
2.145002237668e+01
1.515294528873e+01
1.397692081797e+01
-5.229512839730e+00
2.160544686674e+01
2.053069669361e+01
4.875869770584e+00
2.120812322197e+01
1.125526239507e+01
2.140320592456e+01
2.171671082649e+01
-1.514160883616e+01
2.137282694331e+01
1.651283459317e+01
1.001258302760e+01
2.147505144477e+01
2.234815327296e+01
2.154654975729e+01
-1.439564013333e+01
1.768024871633e+01
2.177715784133e+01
2.192173586494e+01
2.061552685234e+01
2.153888794401e+01
2.144558636541e+01
2.212306525585e+01
1.310319785248e+00
-1.322559460366e+01
2.146679229211e+01
2.195033640862e+01
2.007234030875e+01
1.811438808542e+01
8.140398373092e+00
1.768065199264e+01
2.130226478753e+01
-2.583283997293e+01
1.916851730370e+01
2.049172998605e+01
1.105726029785e+01
2.144818600722e+01
2.006443013138e+01
2.157308326652e+01
2.664600810125e+00
-1.359479763357e+01
1.814353801935e+01
1.539275049643e+01
8.039167422874e+00
2.086075504719e+01
1.439912602724e+01
2.102133238972e+01
1.532920389841e+01
2.106420744343e+01
2.031017690883e+01
2.151775769381e+01
7.048814301570e+00
2.089397092630e+01
1.663418396660e+01
2.114907239331e+01
2.194814522605e+01
1.812501397493e+01
-3.624157530320e+01
2.227574498383e+01
1.675627161897e+01
2.036258611318e+01
1.923570520715e+01
2.052706630021e+01
1.105375368029e+01
1.456408819615e+00
6.388636807226e+00
1.923778033278e+01
2.241406866979e+01
2.176586434948e+01
1.820944896900e+01
1.882279930050e+01
-2.271745156254e+01
1.616086257012e+01
1.972071246214e+01
2.187173915550e+01
-1.555492078287e+00
9.861993912886e+00
2.230226226612e+01
1.764766724876e+01
2.270709733223e+01
3.972891029855e-01
2.236920866022e+01
8.803994862349e+00
2.172517935236e+01
2.268737396451e+01
2.090406721021e+01
1.477480947865e+01
1.869318322728e+01
1.562092553388e+00
2.258165319401e+01
9.646855636616e+00
-2.327179872994e+01
1.825571956884e+01
1.767308137377e+01
-2.301398963148e+01
2.225059040782e+01
1.558630863351e+01
1.688473826064e+01
1.863451051030e+01
2.099686869944e+01
1.869853947377e+01
2.165275217602e+01
7.840241825396e+00
2.084671853553e+01
1.427333050966e+01
2.179563732826e+01
2.137887370099e+01
1.002338360414e+01
1.704537804074e+01
2.257159756681e+01
-5.221645096670e+00
2.163194665004e+01
2.138282073681e+01
1.671686910194e+01
8.634779979017e+00
2.106140063280e+01
1.817565911673e+01
2.121014600069e+01
2.014433071762e+01
1.664902075896e+01
2.175944297023e+01
1.449230515116e+01
-5.777087471323e+00
2.021865165735e+01
1.912471589740e+01
1.230156069265e+01
1.851064295539e+01
1.938391927018e+01
2.235841264135e+01
2.133598778234e+01
2.142732272260e+01
-3.714048032728e+01
1.552889224325e+01
2.125736291643e+01
1.957697486456e+01
2.122858539859e+01
7.545880345107e-01
6.343204281103e+00
1.195267621865e+01
2.145474834812e+01
1.745094884133e+01
2.104191697593e+01
2.085672855627e+01
2.093463296731e+01
2.200953146142e+01
1.000030083054e+01
-3.054901525549e+01
1.688893937350e+00
8.024122369082e+00
2.283251289442e+00
2.137301211456e+01
2.071172810960e+01
2.116659265786e+01
-6.958407562884e+00
1.782206450636e+01
2.077850654066e+01
1.816080403884e+01
1.720534079528e+01
1.907114706836e+01
2.077846370962e+01
1.236656484794e+01
2.094139337110e+01
-3.341647557508e+00
2.158585531390e+01
2.051136742658e+01
-3.007183839000e+00
-5.972387575025e-01
2.167085579838e+01
1.029708249636e+01
1.823684011999e+01
1.823617028301e+01
2.126967010330e+01
1.798947082499e+01
1.261705861399e+01
1.823724188760e+01
1.882637352720e+01
1.562891106584e+01
2.094365865663e+01
7.462451595766e+00
1.044700383829e+01
1.219828017033e+01
1.270689721512e+01
4.765521492747e+00
1.758076481959e+01
1.868768659059e+01
1.417776885484e+01
2.114035376718e+01
1.879562381374e+01
1.715077544326e+01
1.814744396104e+01
2.014571444568e+01
1.962760674536e+01
2.125296777564e+01
-2.438070581024e+01
1.588510933198e+01
2.074937733788e+01
4.735324176367e+00
1.045707519504e+01
2.166903437851e+01
-7.214050688275e+00
-2.339435246941e+01
1.910149919125e+01
7.678479808838e+00
1.857979504475e+01
2.131669537044e+01
7.661338750238e+00
-2.863182260372e+01
1.874307121965e+01
6.456727302413e+00
1.833227219151e+01
2.050208836313e+01
1.860114611275e+01
1.194224084848e+01
1.198425534408e+01
2.016725391399e+01
2.094775691366e+01
2.106508146647e+01
1.664056231546e+01
2.117985379130e+01
-7.115357962779e+00
2.091362825770e+01
1.387615560867e+01
4.786976849625e+00
2.132076151171e+01
1.875851801209e+01
1.881913743072e+01
1.021179010975e+01
1.222253662089e+01
5.918644191063e+00
1.928921318445e+01
1.878714426946e+01
-4.641293973887e+00
2.130953847437e+01
7.735435631513e+00
1.847890800513e+01
1.904435726100e+01
1.917433592176e+01
8.999999999681e+01
-5.337543250996e+01
8.269972491492e+00
7.867529306010e+00
2.049474722269e+01
2.072442828451e+01
-2.443329379069e+01
-3.791489252373e+01
2.095919752960e+01
2.068116987784e+01
9.069301838943e+00
2.099082155434e+01
2.127054347718e+01
2.102327880720e+01
1.487681789707e+01
7.362451314111e+00
2.097940213403e+01
4.413627585224e+00
2.059618764411e+01
1.906699210650e+01
1.801361312460e+01
2.087843874146e+01
1.348790972457e+01
2.012376312776e+01
1.840273405587e+01
1.782679233398e+01
7.793693705332e+00
2.133875183259e+01
1.852730038884e+01
1.630082600384e+01
-2.241321390741e+01
1.962582638526e+01
2.196635137817e+01
3.258175062593e+00
1.567334489892e+01
2.072274926571e+01
2.029165129755e+01
2.037637558405e+01
2.134525893127e+01
-2.496077657214e+01
6.285023396237e-01
9.282944921909e+00
1.186745361459e+01
2.134986048919e+01
1.836813013957e+01
2.105024020805e+01
-6.266698011703e+00
-6.640796618020e+00
1.983017807866e+00
1.595656239784e+01
1.820148925366e+01
1.841700907331e+01
8.468322033867e+00
2.141133738091e+01
1.194367557190e+01
2.077850473385e+01
2.070719448277e+01
1.185581140185e+01
2.127871804470e+01
1.877586714950e+01
1.868641683584e+01
1.552731273895e+00
1.820362363025e+01
2.016106522885e+01
2.156148157502e+01
2.106063861291e+01
2.051844580256e+01
1.778061148087e+01
-3.446518727936e+01
-2.988177324735e-01
1.858298737872e+01
1.324105505074e+01
2.094848897376e+01
2.071466026455e+01
2.074653570952e+01
1.685478826794e+01
2.083468477482e+01
2.120312751998e+01
2.132648630002e+01
1.847775505014e+01
2.082914506151e+01
9.990844203821e+00
1.820555177271e+01
-5.828200557104e+00
1.773591741858e+01
1.573257311891e+01
-3.738278282279e+00
8.214759133509e+00
1.826342397482e+01
1.876003049444e+01
1.831152070211e+01
2.126500127345e+01
1.339248972249e+01
-2.268965306447e+01
-1.186257062720e+01
-1.744374568152e+01
1.239498545924e+00
-2.614898054569e+01
2.042827354338e+01
2.098273469554e+01
1.861901446695e+01
1.318023287506e+01
1.982813999230e+01
2.123128853629e+01
2.168481479299e+01
2.108364688280e+01
1.991914225740e+01
1.878730693227e+01
-6.088031814013e+00
-1.208037842931e+01
2.102506014046e+01
-3.562819377602e+00
9.473024780646e-01
-1.210131405325e+01
-7.552425980608e+00
2.088396462464e+01
1.975258870558e+01
1.840474805441e+01
2.078561665630e+01
2.160624921093e+01
1.422171114649e+01
1.933850632959e+01
1.310454326474e+01
7.551180820636e+00
1.480827294176e+00
-2.291457337716e+01
2.079744762944e+01
1.028919012597e+01
3.735522570012e+00
2.042315198190e+01
1.946745087301e+01
1.828812476365e+01
1.894440931294e+01
1.756205900226e+01
-1.164122175703e+01
2.107316858262e+01
1.906955059415e+01
2.079541835343e+01
1.008488081962e+01
2.124871832081e+01
4.663507018588e+00
1.847266971765e+01
-2.476385414244e+01
2.093879439269e+01
1.883409477895e+01
-2.680707168962e+01
2.032425414765e+01
1.642570008557e+01
1.879181089126e+01
2.073649589543e+01
1.514440394579e+01
1.964621876739e+01
1.845122766548e+01
1.578634895278e+01
1.919726124675e+01
1.916015919542e+01
7.774310969855e+00
2.092817042138e+01
1.879074347078e+01
-5.924005194908e+01
7.887603917404e+00
2.075365275552e+01
9.240732989692e+00
2.173364597941e+01
1.844249254916e+01
1.867940082473e+01
8.437555948563e+00
-5.017179810786e+00
2.119852235749e+01
1.734145363044e+01
-2.593757190307e+01
1.889938220728e+01
1.480361355492e+01
6.947775779097e+00
1.384909487438e+01
2.083525552281e+01
2.122775154608e+01
-2.259070181226e+01
1.882638748594e+01
2.089671929188e+01
2.122375684749e+01
2.106443555841e+01
2.079380831778e+01
2.092712194307e+01
-8.481360656223e+00
2.112068241781e+01
1.971729147007e+01
2.485744391056e+00
1.878169773142e+01
2.071151639110e+01
1.021930009571e+01
1.477577618890e+01
2.071431750584e+01
2.075264040062e+01
2.101874809313e+01
2.169423385334e+01
2.933428338938e+00
1.970932791628e+01
1.215906327286e+01
1.872247061764e+01
2.149258119508e+01
1.380912154693e+01
1.888794613424e+01
2.116713477886e+01
2.118802160678e+01
-2.162587844631e+01
1.887406801186e+01
1.921149330254e+01
-7.907850732672e+00
2.048165360503e+01
-2.499341280388e+01
1.907111891290e+01
-4.372320254735e+01
-4.637412357163e+01
-4.583240974533e+01
-4.647717627630e+01
-4.614802580345e+01
-4.655897743210e+01
-4.643303625584e+01
-4.694422964768e+01
-4.674709877703e+01
-4.757483016557e+01
-4.713878087636e+01
-4.842860385563e+01
-4.761789810823e+01
-4.948075477223e+01
-4.814410244353e+01
-5.072363186635e+01
-3.925709394451e+01
-4.870527410682e+01
-5.216027455244e+01
8.999999999681e+01
-4.936583674844e+01
-5.370433930054e+01
-3.525792825976e+01
-5.002408097927e+01
-5.502414999696e+01
-5.059601835008e+01
-5.579837751978e+01
-5.102134731334e+01
-5.627546365420e+01
-2.138067127396e+01
-5.106048044483e+01
-5.643601690970e+01
-5.099848119220e+01
-5.684294211291e+01
-5.651820154477e+01
-4.983089923970e+01
-5.708260414792e+01
-4.806447991627e+01
-5.372245169632e+01
-4.369115749252e+01
-3.815029372349e+01
-4.191169212663e+01
-4.273751363148e+01
-4.779725416778e+01
-4.017759456599e+01
-2.223958972811e+01
-2.043611501619e+01
-1.850366166082e+01
-1.850019397178e+01
-1.835740959995e+01
-1.842426384664e+01
-1.829423172738e+01
-1.837494812578e+01
-1.824833228629e+01
-1.836099819502e+01
-1.820264786624e+01
-1.834212095418e+01
-1.814564170795e+01
-1.830906988274e+01
-1.810256621927e+01
-1.828720773982e+01
-1.336039957067e+01
-1.807075850666e+01
-1.687686384681e+01
-1.830177502724e+01
-1.801291219153e+01
-1.824490452790e+01
-1.795637090428e+01
-1.817685626470e+01
-1.792365197598e+01
-2.136827155916e+01
-1.813303475178e+01
-1.791761868901e+01
-1.808247596076e+01
-1.798120058556e+01
-1.809212036822e+01
-1.795581388436e+01
-1.778439614565e+01
-1.808796950198e+01
-1.788950157873e+01
-1.763122324540e+01
-1.205598302690e+01
-1.641727674275e+01
-2.221395612462e+01
-1.735066059018e+01
-1.987997552289e+01
-1.364978650732e+01
-2.556323980188e+01
-1.636353499664e+01
-2.472167687064e+00
-3.420258211068e+00
-3.446702250924e+00
-3.538690244314e+00
-3.523927835157e+00
-3.501838536142e+00
-3.497014396409e+00
-3.530249157143e+00
-3.517608219917e+00
-3.519320132628e+00
-3.518713993148e+00
-3.523670680862e+00
-3.529159867708e+00
-2.028523564438e+00
-3.487406883734e+00
-3.543750482393e+00
-5.566698304102e+00
-3.563608817770e+00
-3.605089068731e+00
-3.671035051370e+00
-3.536561769948e+00
-3.617857319348e+00
-3.491989685102e+00
-3.648682028613e+00
-3.507590179285e+00
-2.124249767196e+00
-3.716250925790e+00
-3.504426683322e+00
-3.454929544660e+00
-3.780110968898e+00
-3.579082994188e+00
-3.874122699605e+00
-2.966987250049e+00
-3.878173233169e+00
-7.146201052813e+00
-3.681116255921e+00
-2.317145560986e+00
-5.880540544509e+00
-8.139488279054e-01
-5.021209105401e+00
3.620427063680e+00
3.901038385249e+00
3.901604179794e+00
3.927241123299e+00
3.914293052726e+00
3.950013404506e+00
3.957373681676e+00
3.876086251578e+00
3.869560920413e+00
3.872289402181e+00
3.892929181894e+00
3.830110906033e+00
4.275333491013e+00
3.847694574794e+00
3.416253104010e+00
3.770922695567e+00
3.841796758874e+00
3.721588480668e+00
3.752707926751e+00
3.673951402431e+00
3.776063144567e+00
3.615843108139e+00
2.334626701149e+00
3.762464090985e+00
3.523711708896e+00
3.685688159884e+00
3.434014742831e+00
3.386223300349e+00
3.677029085144e+00
3.763884529245e+00
4.107952223083e+00
1.439444282324e+00
4.097408926992e+00
3.593995911121e+00
5.200252263539e+00
2.265950089521e+00
2.244012352909e+00


