# vtk DataFile Version 2.0
Calculation C:\Users\johan\Documents\GitHub\TOCHNOG\standsicherheit_phiC at time 5.000000000000e+00 
ASCII
DATASET UNSTRUCTURED_GRID
Field FieldData 1
Time 1 1 double
5.000000000000e+00

POINTS 1163 float
0.0 0.0 0.0 
5.000000000000e+01 -1.000000000000e+01 0.0 
0.0 -2.000000000000e+01 0.0 
5.000000000000e+01 -2.000000000000e+01 0.0 
0.0 -9.999999999991e-01 0.0 
0.0 -1.999999999998e+00 0.0 
0.0 -2.999999999997e+00 0.0 
0.0 -3.999999999994e+00 0.0 
0.0 -4.999999999991e+00 0.0 
0.0 -5.999999999988e+00 0.0 
0.0 -6.999999999985e+00 0.0 
0.0 -7.999999999982e+00 0.0 
0.0 -8.999999999983e+00 0.0 
0.0 -9.999999999985e+00 0.0 
0.0 -1.099999999999e+01 0.0 
0.0 -1.199999999999e+01 0.0 
0.0 -1.299999999999e+01 0.0 
0.0 -1.399999999999e+01 0.0 
0.0 -1.499999999999e+01 0.0 
0.0 -1.599999999999e+01 0.0 
0.0 -1.700000000000e+01 0.0 
0.0 -1.800000000000e+01 0.0 
0.0 -1.900000000000e+01 0.0 
4.900000000001e+01 -2.000000000000e+01 0.0 
4.800000000001e+01 -2.000000000000e+01 0.0 
4.700000000002e+01 -2.000000000000e+01 0.0 
4.600000000003e+01 -2.000000000000e+01 0.0 
4.500000000004e+01 -2.000000000000e+01 0.0 
4.400000000004e+01 -2.000000000000e+01 0.0 
4.300000000005e+01 -2.000000000000e+01 0.0 
4.200000000006e+01 -2.000000000000e+01 0.0 
4.100000000006e+01 -2.000000000000e+01 0.0 
4.000000000007e+01 -2.000000000000e+01 0.0 
3.900000000008e+01 -2.000000000000e+01 0.0 
3.800000000009e+01 -2.000000000000e+01 0.0 
3.700000000009e+01 -2.000000000000e+01 0.0 
3.600000000010e+01 -2.000000000000e+01 0.0 
3.500000000011e+01 -2.000000000000e+01 0.0 
3.400000000011e+01 -2.000000000000e+01 0.0 
3.300000000012e+01 -2.000000000000e+01 0.0 
3.200000000013e+01 -2.000000000000e+01 0.0 
3.100000000013e+01 -2.000000000000e+01 0.0 
3.000000000013e+01 -2.000000000000e+01 0.0 
2.900000000013e+01 -2.000000000000e+01 0.0 
2.800000000013e+01 -2.000000000000e+01 0.0 
2.700000000013e+01 -2.000000000000e+01 0.0 
2.600000000013e+01 -2.000000000000e+01 0.0 
2.500000000013e+01 -2.000000000000e+01 0.0 
2.400000000013e+01 -2.000000000000e+01 0.0 
2.300000000013e+01 -2.000000000000e+01 0.0 
2.200000000013e+01 -2.000000000000e+01 0.0 
2.100000000013e+01 -2.000000000000e+01 0.0 
2.000000000013e+01 -2.000000000000e+01 0.0 
1.900000000013e+01 -2.000000000000e+01 0.0 
1.800000000013e+01 -2.000000000000e+01 0.0 
1.700000000012e+01 -2.000000000000e+01 0.0 
1.600000000011e+01 -2.000000000000e+01 0.0 
1.500000000011e+01 -2.000000000000e+01 0.0 
1.400000000010e+01 -2.000000000000e+01 0.0 
1.300000000009e+01 -2.000000000000e+01 0.0 
1.200000000009e+01 -2.000000000000e+01 0.0 
1.100000000008e+01 -2.000000000000e+01 0.0 
1.000000000007e+01 -2.000000000000e+01 0.0 
9.000000000064e+00 -2.000000000000e+01 0.0 
8.000000000057e+00 -2.000000000000e+01 0.0 
7.000000000050e+00 -2.000000000000e+01 0.0 
6.000000000043e+00 -2.000000000000e+01 0.0 
5.000000000036e+00 -2.000000000000e+01 0.0 
4.000000000028e+00 -2.000000000000e+01 0.0 
3.000000000021e+00 -2.000000000000e+01 0.0 
2.000000000014e+00 -2.000000000000e+01 0.0 
1.000000000007e+00 -2.000000000000e+01 0.0 
5.000000000000e+01 -1.100000000000e+01 0.0 
5.000000000000e+01 -1.200000000000e+01 0.0 
5.000000000000e+01 -1.300000000000e+01 0.0 
5.000000000000e+01 -1.400000000000e+01 0.0 
5.000000000000e+01 -1.500000000000e+01 0.0 
5.000000000000e+01 -1.600000000000e+01 0.0 
5.000000000000e+01 -1.700000000000e+01 0.0 
5.000000000000e+01 -1.800000000000e+01 0.0 
5.000000000000e+01 -1.900000000000e+01 0.0 
2.000000000000e+01 0.0 0.0 
3.500000000000e+01 -1.000000000000e+01 0.0 
2.150000000000e+01 -1.000000000000e+00 0.0 
2.300000000000e+01 -2.000000000000e+00 0.0 
2.450000000000e+01 -3.000000000000e+00 0.0 
2.600000000000e+01 -4.000000000000e+00 0.0 
2.750000000000e+01 -5.000000000000e+00 0.0 
2.900000000000e+01 -6.000000000000e+00 0.0 
3.050000000000e+01 -7.000000000000e+00 0.0 
3.200000000000e+01 -8.000000000000e+00 0.0 
3.350000000000e+01 -9.000000000000e+00 0.0 
5.000000000000e+01 -4.000000000000e+00 0.0 
5.000000000000e+01 -5.000000000000e+00 0.0 
5.000000000000e+01 -6.000000000000e+00 0.0 
5.000000000000e+01 -7.000000000000e+00 0.0 
5.000000000000e+01 -8.000000000000e+00 0.0 
5.000000000000e+01 -9.000000000000e+00 0.0 
4.900000000000e+01 -1.000000000000e+01 0.0 
4.800000000000e+01 -1.000000000000e+01 0.0 
4.700000000000e+01 -1.000000000000e+01 0.0 
4.600000000000e+01 -1.000000000000e+01 0.0 
4.500000000000e+01 -1.000000000000e+01 0.0 
4.400000000000e+01 -1.000000000000e+01 0.0 
4.300000000000e+01 -1.000000000000e+01 0.0 
4.200000000000e+01 -1.000000000000e+01 0.0 
4.100000000000e+01 -1.000000000000e+01 0.0 
4.000000000000e+01 -1.000000000000e+01 0.0 
3.900000000000e+01 -1.000000000000e+01 0.0 
3.800000000000e+01 -1.000000000000e+01 0.0 
3.700000000000e+01 -1.000000000000e+01 0.0 
3.600000000000e+01 -1.000000000000e+01 0.0 
1.900000000000e+01 0.0 0.0 
1.800000000000e+01 0.0 0.0 
1.700000000000e+01 0.0 0.0 
1.600000000000e+01 0.0 0.0 
1.500000000000e+01 0.0 0.0 
1.400000000000e+01 0.0 0.0 
1.300000000000e+01 0.0 0.0 
1.200000000000e+01 0.0 0.0 
1.100000000000e+01 0.0 0.0 
1.000000000000e+01 0.0 0.0 
9.000000000000e+00 0.0 0.0 
8.000000000000e+00 0.0 0.0 
7.000000000000e+00 0.0 0.0 
6.000000000000e+00 0.0 0.0 
5.000000000000e+00 0.0 0.0 
4.000000000000e+00 0.0 0.0 
3.000000000000e+00 0.0 0.0 
2.000000000000e+00 0.0 0.0 
1.000000000000e+00 0.0 0.0 
4.900000000000e+01 -4.000000000000e+00 0.0 
4.800000000000e+01 -4.000000000000e+00 0.0 
4.700000000000e+01 -4.000000000000e+00 0.0 
4.600000000000e+01 -4.000000000000e+00 0.0 
4.500000000000e+01 -4.000000000000e+00 0.0 
4.400000000000e+01 -4.000000000000e+00 0.0 
4.300000000000e+01 -4.000000000000e+00 0.0 
4.200000000000e+01 -4.000000000000e+00 0.0 
4.100000000000e+01 -4.000000000000e+00 0.0 
4.000000000000e+01 -4.000000000000e+00 0.0 
3.900000000000e+01 -4.000000000000e+00 0.0 
3.800000000000e+01 -4.000000000000e+00 0.0 
3.700000000000e+01 -4.000000000000e+00 0.0 
3.600000000000e+01 -4.000000000000e+00 0.0 
3.500000000000e+01 -4.000000000000e+00 0.0 
3.400000000000e+01 -4.000000000000e+00 0.0 
3.300000000000e+01 -4.000000000000e+00 0.0 
3.200000000000e+01 -4.000000000000e+00 0.0 
3.100000000000e+01 -4.000000000000e+00 0.0 
3.000000000000e+01 -4.000000000000e+00 0.0 
2.900000000000e+01 -4.000000000000e+00 0.0 
2.800000000000e+01 -4.000000000000e+00 0.0 
2.700000000000e+01 -4.000000000000e+00 0.0 
2.847826086957e+01 -5.000000000000e+00 0.0 
2.945652173913e+01 -5.000000000000e+00 0.0 
3.043478260870e+01 -5.000000000000e+00 0.0 
3.141304347826e+01 -5.000000000000e+00 0.0 
3.239130434783e+01 -5.000000000000e+00 0.0 
3.336956521739e+01 -5.000000000000e+00 0.0 
3.434782608696e+01 -5.000000000000e+00 0.0 
3.532608695652e+01 -5.000000000000e+00 0.0 
3.630434782609e+01 -5.000000000000e+00 0.0 
3.728260869565e+01 -5.000000000000e+00 0.0 
3.826086956522e+01 -5.000000000000e+00 0.0 
3.923913043478e+01 -5.000000000000e+00 0.0 
4.021739130435e+01 -5.000000000000e+00 0.0 
4.119565217391e+01 -5.000000000000e+00 0.0 
4.217391304348e+01 -5.000000000000e+00 0.0 
4.315217391304e+01 -5.000000000000e+00 0.0 
4.413043478261e+01 -5.000000000000e+00 0.0 
4.510869565217e+01 -5.000000000000e+00 0.0 
4.608695652174e+01 -5.000000000000e+00 0.0 
4.706521739130e+01 -5.000000000000e+00 0.0 
4.804347826087e+01 -5.000000000000e+00 0.0 
4.902173913043e+01 -5.000000000000e+00 0.0 
4.900000000001e+01 -6.000000000000e+00 0.0 
4.800000000003e+01 -6.000000000000e+00 0.0 
4.700000000004e+01 -6.000000000000e+00 0.0 
4.600000000006e+01 -6.000000000000e+00 0.0 
4.500000000007e+01 -6.000000000000e+00 0.0 
4.400000000009e+01 -6.000000000000e+00 0.0 
4.300000000010e+01 -6.000000000000e+00 0.0 
4.200000000012e+01 -6.000000000000e+00 0.0 
4.100000000013e+01 -6.000000000000e+00 0.0 
4.000000000014e+01 -6.000000000000e+00 0.0 
3.900000000014e+01 -6.000000000000e+00 0.0 
3.800000000012e+01 -6.000000000000e+00 0.0 
3.700000000010e+01 -6.000000000000e+00 0.0 
3.600000000008e+01 -6.000000000000e+00 0.0 
3.500000000006e+01 -6.000000000000e+00 0.0 
3.400000000005e+01 -6.000000000000e+00 0.0 
3.300000000003e+01 -6.000000000000e+00 0.0 
3.200000000001e+01 -6.000000000000e+00 0.0 
3.100000000000e+01 -6.000000000000e+00 0.0 
3.000000000000e+01 -6.000000000000e+00 0.0 
3.147499999998e+01 -7.000000000000e+00 0.0 
3.244999999998e+01 -7.000000000000e+00 0.0 
3.342499999998e+01 -7.000000000000e+00 0.0 
3.439999999998e+01 -7.000000000000e+00 0.0 
3.537499999998e+01 -7.000000000000e+00 0.0 
3.634999999998e+01 -7.000000000000e+00 0.0 
3.732499999998e+01 -7.000000000000e+00 0.0 
3.829999999998e+01 -7.000000000000e+00 0.0 
3.927499999999e+01 -7.000000000000e+00 0.0 
4.024999999999e+01 -7.000000000000e+00 0.0 
4.122499999999e+01 -7.000000000000e+00 0.0 
4.219999999999e+01 -7.000000000000e+00 0.0 
4.317499999999e+01 -7.000000000000e+00 0.0 
4.414999999999e+01 -7.000000000000e+00 0.0 
4.512499999999e+01 -7.000000000000e+00 0.0 
4.609999999999e+01 -7.000000000000e+00 0.0 
4.707500000000e+01 -7.000000000000e+00 0.0 
4.805000000000e+01 -7.000000000000e+00 0.0 
4.902500000000e+01 -7.000000000000e+00 0.0 
4.900000000000e+01 -8.000000000000e+00 0.0 
4.800000000000e+01 -8.000000000000e+00 0.0 
4.700000000000e+01 -8.000000000000e+00 0.0 
4.600000000000e+01 -8.000000000000e+00 0.0 
4.500000000000e+01 -8.000000000000e+00 0.0 
4.400000000000e+01 -8.000000000000e+00 0.0 
4.300000000000e+01 -8.000000000000e+00 0.0 
4.200000000000e+01 -8.000000000000e+00 0.0 
4.100000000000e+01 -8.000000000000e+00 0.0 
4.000000000000e+01 -8.000000000000e+00 0.0 
3.900000000000e+01 -8.000000000000e+00 0.0 
3.800000000000e+01 -8.000000000000e+00 0.0 
3.700000000000e+01 -8.000000000000e+00 0.0 
3.600000000000e+01 -8.000000000000e+00 0.0 
3.500000000000e+01 -8.000000000000e+00 0.0 
3.400000000000e+01 -8.000000000000e+00 0.0 
3.300000000000e+01 -8.000000000000e+00 0.0 
3.447058823527e+01 -9.000000000000e+00 0.0 
3.544117647055e+01 -9.000000000000e+00 0.0 
3.641176470582e+01 -9.000000000000e+00 0.0 
3.738235294109e+01 -9.000000000000e+00 0.0 
3.835294117637e+01 -9.000000000000e+00 0.0 
3.932352941164e+01 -9.000000000000e+00 0.0 
4.029411764691e+01 -9.000000000000e+00 0.0 
4.126470588219e+01 -9.000000000000e+00 0.0 
4.223529411748e+01 -9.000000000000e+00 0.0 
4.320588235279e+01 -9.000000000000e+00 0.0 
4.417647058811e+01 -9.000000000000e+00 0.0 
4.514705882342e+01 -9.000000000000e+00 0.0 
4.611764705874e+01 -9.000000000000e+00 0.0 
4.708823529405e+01 -9.000000000000e+00 0.0 
4.805882352937e+01 -9.000000000000e+00 0.0 
4.902941176468e+01 -9.000000000000e+00 0.0 
2.075000000000e+01 -5.000000000006e-01 0.0 
2.225000000000e+01 -1.500000000000e+00 0.0 
2.375000000000e+01 -2.500000000000e+00 0.0 
2.525000000000e+01 -3.500000000000e+00 0.0 
2.675000000000e+01 -4.500000000000e+00 0.0 
2.825000000000e+01 -5.500000000000e+00 0.0 
2.975000000000e+01 -6.500000000000e+00 0.0 
3.125000000000e+01 -7.500000000000e+00 0.0 
3.275000000000e+01 -8.500000000000e+00 0.0 
3.425000000000e+01 -9.500000000000e+00 0.0 
2.226951693683e+01 -2.403913980114e+00 0.0 
1.650149491944e+01 -1.913490915758e+01 0.0 
1.050042386896e+01 -8.504605092970e-01 0.0 
1.553146524712e+01 -8.281255032105e-01 0.0 
1.150000000008e+01 -1.913397459621e+01 0.0 
2.530060260647e+01 -4.428336431260e+00 0.0 
8.651114563942e-01 -1.052096295641e+01 0.0 
2.050000000013e+01 -1.913397459622e+01 0.0 
2.819198729811e+01 -6.399519052838e+00 0.0 
2.445670302931e+01 -1.915649188023e+01 0.0 
3.117591465718e+01 -8.394293040695e+00 0.0 
7.465053044742e+00 -1.920411160581e+01 0.0 
6.398295709691e+00 -8.230098819370e-01 0.0 
2.849659607461e+01 -1.914296187762e+01 0.0 
3.418732642882e+01 -1.040265792588e+01 0.0 
8.386450935063e-01 -6.533605142809e+00 0.0 
9.178661865596e-01 -1.329769195597e+01 0.0 
3.149448624493e+01 -1.910466733764e+01 0.0 
3.552916747426e+01 -1.914628590759e+01 0.0 
4.449210346537e+01 -1.914359085008e+01 0.0 
4.140975975145e+01 -1.906941860733e+01 0.0 
3.847475958753e+01 -1.916622382724e+01 0.0 
3.653774794640e+01 -1.088712800241e+01 0.0 
4.047886341787e+01 -1.090139014048e+01 0.0 
4.348006339825e+01 -1.092792621489e+01 0.0 
4.919519968029e+01 -1.451526755068e+01 0.0 
4.500000000032e+00 -1.913397459621e+01 0.0 
1.856136921614e+01 -8.212235170404e-01 0.0 
3.499895312306e+00 -8.661165539723e-01 0.0 
9.076088696565e-01 -1.642306201891e+01 0.0 
4.655174095477e+01 -1.086183387525e+01 0.0 
9.430688970604e-01 -3.496112672958e+00 0.0 
3.353992337063e+01 -1.901202090820e+01 0.0 
2.249746016977e+01 -1.921262287282e+01 0.0 
2.650122741777e+01 -1.916123026018e+01 0.0 
1.863571384842e+01 -1.908325534840e+01 0.0 
1.450089971693e+01 -1.917691901860e+01 0.0 
1.350044695317e+01 -8.659695299584e-01 0.0 
3.849987469880e+01 -1.084154983397e+01 0.0 
9.454419857884e+00 -1.900818879936e+01 0.0 
4.917398660523e+01 -1.645692866081e+01 0.0 
8.500000000000e+00 -8.660254037844e-01 0.0 
8.660319230785e-01 -8.500111697188e+00 0.0 
4.649022621545e+01 -1.930506220113e+01 0.0 
2.667688107845e+01 -5.420288124331e+00 0.0 
2.379251615665e+01 -3.412225477429e+00 0.0 
2.966631491830e+01 -7.389030232731e+00 0.0 
3.267915035995e+01 -9.396934932445e+00 0.0 
2.074836922338e+01 -1.320054020319e+00 0.0 
4.915985743621e+01 -1.261973384855e+01 0.0 
2.527129768623e+00 -1.931592414663e+01 0.0 
1.538676247410e+00 -8.436956619311e-01 0.0 
4.908096641539e+01 -1.842484004551e+01 0.0 
3.478612492673e+01 -1.090889364140e+01 0.0 
3.409757055860e+01 -1.131991530427e+01 0.0 
3.501895309466e+01 -1.177687842717e+01 0.0 
3.407758073088e+01 -1.224293381580e+01 0.0 
3.484541875390e+01 -1.277051428430e+01 0.0 
3.400322025842e+01 -1.319022775640e+01 0.0 
3.321672625034e+01 -1.266779191233e+01 0.0 
3.315244139236e+01 -1.360984106532e+01 0.0 
3.236335186892e+01 -1.308463225210e+01 0.0 
3.478337442841e+01 -1.372341158982e+01 0.0 
3.230105923633e+01 -1.403023731610e+01 0.0 
3.150954055289e+01 -1.350301767700e+01 0.0 
3.144604792090e+01 -1.444931742516e+01 0.0 
3.065653897123e+01 -1.392357262981e+01 0.0 
3.071897610812e+01 -1.297447031198e+01 0.0 
2.986790411740e+01 -1.339226181535e+01 0.0 
2.993181466745e+01 -1.244703272398e+01 0.0 
2.908023061869e+01 -1.286254537734e+01 0.0 
2.901619051372e+01 -1.380881655279e+01 0.0 
2.822986160390e+01 -1.327695262116e+01 0.0 
2.829453476870e+01 -1.233265343811e+01 0.0 
2.744542905518e+01 -1.274510491105e+01 0.0 
2.751120089246e+01 -1.180368086886e+01 0.0 
2.666218649885e+01 -1.221619339205e+01 0.0 
2.672371209234e+01 -1.127125228527e+01 0.0 
2.587763216302e+01 -1.168539979114e+01 0.0 
2.581165585299e+01 -1.262994410089e+01 0.0 
2.502890882577e+01 -1.209827323619e+01 0.0 
2.509631327757e+01 -1.115492410304e+01 0.0 
2.424662989877e+01 -1.156630981079e+01 0.0 
2.431704046904e+01 -1.062389179334e+01 0.0 
2.346445438728e+01 -1.103427680694e+01 0.0 
2.339382552877e+01 -1.197964871788e+01 0.0 
2.260936050780e+01 -1.144513277642e+01 0.0 
2.268075012022e+01 -1.049911928216e+01 0.0 
2.182525737661e+01 -1.090920811464e+01 0.0 
2.189682319817e+01 -9.961716944568e+00 0.0 
2.104174127792e+01 -1.037266986667e+01 0.0 
2.111304367575e+01 -9.424179358711e+00 0.0 
2.025306185381e+01 -9.832727364719e+00 0.0 
2.018141124247e+01 -1.079140628871e+01 0.0 
1.938594498257e+01 -1.025147354112e+01 0.0 
1.946106490453e+01 -9.288010758448e+00 0.0 
1.858929958352e+01 -9.706319802516e+00 0.0 
1.851540991219e+01 -1.067205988724e+01 0.0 
1.771485303178e+01 -1.012504443115e+01 0.0 
1.764134552256e+01 -1.109360378538e+01 0.0 
1.683745148095e+01 -1.054496365337e+01 0.0 
1.691852964353e+01 -9.582555261178e+00 0.0 
1.603603813062e+01 -1.000160132379e+01 0.0 
1.595824239350e+01 -1.096750698862e+01 0.0 
1.515080624291e+01 -1.041639501931e+01 0.0 
1.523171602559e+01 -9.451711491453e+00 0.0 
1.434621060709e+01 -9.871956467464e+00 0.0 
1.426777178765e+01 -1.083749501371e+01 0.0 
1.345775282374e+01 -1.028803175500e+01 0.0 
1.354103873368e+01 -9.324918457162e+00 0.0 
1.265072018622e+01 -9.742612837270e+00 0.0 
1.257285762070e+01 -1.071557782384e+01 0.0 
1.175874815690e+01 -1.015972324288e+01 0.0 
1.184203019714e+01 -9.193604071377e+00 0.0 
1.094927709905e+01 -9.612103238656e+00 0.0 
1.086938022910e+01 -1.058685085646e+01 0.0 
1.005424098961e+01 -1.002939116380e+01 0.0 
9.977974613295e+00 -1.101324897989e+01 0.0 
1.012915646404e+01 -9.051815821181e+00 0.0 
9.237127782494e+00 -9.471239055559e+00 0.0 
9.308426593771e+00 -8.483376461131e+00 0.0 
8.418806073345e+00 -8.910712374517e+00 0.0 
2.253688464062e+01 -1.239459402279e+01 0.0 
8.495126726666e+00 -7.921646665254e+00 0.0 
9.389727383206e+00 -7.512103628377e+00 0.0 
7.601560812974e+00 -8.349460349344e+00 0.0 
7.525680547759e+00 -9.339736686940e+00 0.0 
7.677888324502e+00 -7.359727833346e+00 0.0 
6.782001206724e+00 -7.788454494773e+00 0.0 
6.858778622885e+00 -6.797338062822e+00 0.0 
2.196596590865e+01 -8.979025665442e+00 0.0 
2.816540108272e+01 -1.422634142353e+01 0.0 
5.961601194403e+00 -7.226824010712e+00 0.0 
6.038171749656e+00 -6.234825887079e+00 0.0 
6.936257279557e+00 -5.805287640737e+00 0.0 
6.115068918323e+00 -5.242109758768e+00 0.0 
3.564391741903e+01 -1.329240553876e+01 0.0 
3.558115605778e+01 -1.425902892003e+01 0.0 
3.645445282201e+01 -1.381970786460e+01 0.0 
3.639744204358e+01 -1.479198128612e+01 0.0 
3.727266909778e+01 -1.435399586226e+01 0.0 
5.216667013081e+00 -5.671788584287e+00 0.0 
3.220697293295e+01 -1.499594545107e+01 0.0 
3.551112158269e+01 -1.523479869250e+01 0.0 
2.836056961467e+01 -1.139032434851e+01 0.0 
2.516730388602e+01 -1.021382726837e+01 0.0 
1.844436907403e+01 -1.164097215196e+01 0.0 
5.885434318740e+00 -8.218694781467e+00 0.0 
5.064071066867e+00 -7.656614643901e+00 0.0 
4.988089103470e+00 -8.649722082718e+00 0.0 
1.079421050408e+01 -1.157014985435e+01 0.0 
9.902420005256e+00 -1.199903342656e+01 0.0 
1.071994252214e+01 -1.255727909771e+01 0.0 
9.826974788171e+00 -1.298659581767e+01 0.0 
1.064607883789e+01 -1.354595476388e+01 0.0 
9.751541265343e+00 -1.397556905071e+01 0.0 
8.932296185869e+00 -1.341553353988e+01 0.0 
8.856399248106e+00 -1.440570715508e+01 0.0 
8.036186803543e+00 -1.384470558472e+01 0.0 
1.057112875118e+01 -1.453516759081e+01 0.0 
1.146582585687e+01 -1.410539926903e+01 0.0 
7.959894480382e+00 -1.483563350928e+01 0.0 
7.138792279156e+00 -1.427465094140e+01 0.0 
7.062506792418e+00 -1.526615385482e+01 0.0 
6.240693558277e+00 -1.470508863040e+01 0.0 
6.316957575451e+00 -1.371212581281e+01 0.0 
5.418183007107e+00 -1.414253605022e+01 0.0 
5.494748364428e+00 -1.314886770603e+01 0.0 
1.756825565873e+01 -1.206433872514e+01 0.0 
1.837565773345e+01 -1.261356468266e+01 0.0 
1.749574831391e+01 -1.303769280014e+01 0.0 
1.830539187332e+01 -1.358828364284e+01 0.0 
1.742278925170e+01 -1.401367746928e+01 0.0 
1.823303007798e+01 -1.456432294258e+01 0.0 
1.734941694138e+01 -1.499213734361e+01 0.0 
1.653760041637e+01 -1.443920312098e+01 0.0 
3.056237977307e+01 -1.487132260174e+01 0.0 
1.866469084762e+01 -8.742953000418e+00 0.0 
1.953669694916e+01 -8.326038909849e+00 0.0 
1.874194303780e+01 -7.780688158966e+00 0.0 
1.961032016741e+01 -7.366854697285e+00 0.0 
1.881715755159e+01 -6.821102209649e+00 0.0 
1.968369797150e+01 -6.407747217358e+00 0.0 
1.889237123259e+01 -5.858375520026e+00 0.0 
1.802038875366e+01 -6.276202618170e+00 0.0 
1.809793837984e+01 -5.307629520489e+00 0.0 
1.721985207997e+01 -5.728242054488e+00 0.0 
1.729850893523e+01 -4.756990819347e+00 0.0 
1.641745664240e+01 -5.174636548624e+00 0.0 
2.495978509456e+01 -1.304406404294e+01 0.0 
1.911567814831e+01 -1.413854250293e+01 0.0 
1.904387332608e+01 -1.511463127723e+01 0.0 
1.992115934240e+01 -1.468788025898e+01 0.0 
7.013706899628e+00 -4.812582868662e+00 0.0 
5.342091874585e+00 -1.513658157269e+01 0.0 
1.139098043784e+01 -1.509488509480e+01 0.0 
1.228151810610e+01 -1.465617481983e+01 0.0 
1.646373110164e+01 -1.541993323337e+01 0.0 
5.293328636712e+00 -4.678385108584e+00 0.0 
1.975965862987e+01 -5.448124345648e+00 0.0 
2.054318374236e+01 -5.992561293251e+00 0.0 
3.721453439063e+01 -1.533216152738e+01 0.0 
3.809302733893e+01 -1.489235527381e+01 0.0 
1.220852788900e+01 -1.565304565230e+01 0.0 
4.394120899730e+00 -5.108397613210e+00 0.0 
8.779354620288e+00 -1.539524721159e+01 0.0 
1.817791047702e+01 -4.338570146253e+00 0.0 
4.518860013839e+00 -1.457343189307e+01 0.0 
4.442712140414e+00 -1.556841391069e+01 0.0 
8.115343466391e+00 -1.285760324283e+01 0.0 
1.985334703171e+01 -1.566478400426e+01 0.0 
2.071953850276e+01 -1.522074243119e+01 0.0 
1.634012953883e+01 -6.154777738301e+00 0.0 
1.553479994708e+01 -5.593730508879e+00 0.0 
1.561265946942e+01 -4.617761762647e+00 0.0 
1.470674212978e+01 -5.064576488228e+00 0.0 
1.464498299883e+01 -6.026514471420e+00 0.0 
1.383271561817e+01 -5.467796261169e+00 0.0 
1.389241253067e+01 -4.504338666645e+00 0.0 
1.301868735463e+01 -4.907185188626e+00 0.0 
1.294514184846e+01 -5.888160903592e+00 0.0 
1.212955968622e+01 -5.328262335277e+00 0.0 
1.220721122383e+01 -4.341264976687e+00 0.0 
1.131324345897e+01 -4.766773516508e+00 0.0 
5.266597955397e+00 -1.613148974258e+01 0.0 
1.737805990867e+01 -3.786677807525e+00 0.0 
3.078438094513e+01 -1.203225297748e+01 0.0 
1.131569882285e+01 -1.608511932110e+01 0.0 
1.728478341782e+01 -1.596017432313e+01 0.0 
3.803465906019e+01 -1.587509751228e+01 0.0 
3.891681276677e+01 -1.543395196905e+01 0.0 
3.897340985302e+01 -1.444710288980e+01 0.0 
3.980095968193e+01 -1.499059496613e+01 0.0 
3.974334598189e+01 -1.597921884150e+01 0.0 
4.062964983717e+01 -1.553518690417e+01 0.0 
4.068729602479e+01 -1.454434445295e+01 0.0 
4.151772679790e+01 -1.508974196007e+01 0.0 
4.157505195739e+01 -1.409694289912e+01 0.0 
4.240699932656e+01 -1.464347955968e+01 0.0 
4.234898051011e+01 -1.563721375790e+01 0.0 
4.323934606035e+01 -1.519082036405e+01 0.0 
4.329740528208e+01 -1.419587509788e+01 0.0 
4.413056841369e+01 -1.474359631875e+01 0.0 
4.418850110108e+01 -1.374786684042e+01 0.0 
4.502219770667e+01 -1.429605103525e+01 0.0 
4.496411937907e+01 -1.529215882720e+01 0.0 
4.490027319897e+00 -4.154167794594e+00 0.0 
1.565080385988e+01 -1.486411982419e+01 0.0 
1.557610691279e+01 -1.584855627870e+01 0.0 
4.195350646612e+00 -8.089117689096e+00 0.0 
4.124027797830e+00 -9.082831955007e+00 0.0 
4.917944318925e+00 -9.643530901533e+00 0.0 
4.020105689502e+00 -1.007439673661e+01 0.0 
4.587185899277e+01 -1.484039992728e+01 0.0 
4.580078661551e+01 -1.584043391042e+01 0.0 
2.061956522375e+01 -5.046701343981e+00 0.0 
2.139572955529e+01 -5.579553449826e+00 0.0 
3.715344357292e+01 -1.631485124583e+01 0.0 
3.618886196443e+00 -1.500471207167e+01 0.0 
3.695606940204e+00 -1.400939692294e+01 0.0 
2.438890661143e+01 -9.686110599723e+00 0.0 
2.523267572778e+01 -9.276766000622e+00 0.0 
2.446094171539e+01 -8.751904591412e+00 0.0 
2.529089822738e+01 -8.321495612547e+00 0.0 
2.606882688827e+01 -8.864724051119e+00 0.0 
2.452116646430e+01 -7.792756462004e+00 0.0 
1.235543269617e+01 -1.365845617339e+01 0.0 
4.318116874181e+01 -1.618567469992e+01 0.0 
7.835066111909e+00 -5.376366223896e+00 0.0 
7.905687335704e+00 -4.382539065697e+00 0.0 
3.542640009567e+00 -1.600035116542e+01 0.0 
1.572431503071e+01 -1.388358386695e+01 0.0 
2.574684696680e+01 -1.357896141127e+01 0.0 
2.488842657651e+01 -1.399674354505e+01 0.0 
2.568301775611e+01 -1.453552048595e+01 0.0 
2.481535572009e+01 -1.495542756508e+01 0.0 
2.561729699688e+01 -1.549784648532e+01 0.0 
2.474623061296e+01 -1.592058894178e+01 0.0 
2.394234041695e+01 -1.537572575827e+01 0.0 
2.065825452567e+01 -1.621899055217e+01 0.0 
2.387180528935e+01 -1.634552264687e+01 0.0 
4.585364400844e+01 -1.383912334080e+01 0.0 
1.998744432052e+01 -1.370317155541e+01 0.0 
1.205356951443e+01 -6.313580285498e+00 0.0 
5.396543905849e+00 -3.731818611283e+00 0.0 
1.139652573295e+01 -3.745819399350e+00 0.0 
3.574124306703e+00 -4.551456826011e+00 0.0 
3.494140761930e+00 -5.539787055649e+00 0.0 
1.213651452413e+01 -1.664505033022e+01 0.0 
2.555045568519e+01 -1.646529356744e+01 0.0 
2.641671114986e+01 -1.603899382371e+01 0.0 
2.612920721894e+01 -7.906435260873e+00 0.0 
2.690339829698e+01 -8.456969591431e+00 0.0 
1.978024383368e+01 -1.664410216353e+01 0.0 
3.732829979082e+01 -1.336926601859e+01 0.0 
4.074336584605e+01 -1.355133328401e+01 0.0 
4.163204691081e+01 -1.310280943992e+01 0.0 
3.773826114429e+00 -3.493444309145e+00 0.0 
1.228783001032e+01 -3.374822835872e+00 0.0 
4.057110462520e+01 -1.652588478000e+01 0.0 
2.132535497898e+01 -6.523623360525e+00 0.0 
2.216932532211e+01 -6.110044769206e+00 0.0 
1.825781152128e+01 -3.370146817147e+00 0.0 
1.745679445888e+01 -2.812942552063e+00 0.0 
4.666517057280e+01 -1.539981381543e+01 0.0 
4.660575894464e+01 -1.639014410186e+01 0.0 
4.838230979954e+00 -1.063643436446e+01 0.0 
3.938942630206e+00 -1.106778981745e+01 0.0 
1.302967218620e+01 -1.621373452436e+01 0.0 
1.049548003190e+01 -4.204825123240e+00 0.0 
4.573571907195e+01 -1.683820511148e+01 0.0 
1.483686335807e+01 -1.430849689310e+01 0.0 
1.490982658890e+01 -1.332679386284e+01 0.0 
3.190805600162e+00 -9.510968358545e+00 0.0 
2.146625721848e+01 -4.642437303115e+00 0.0 
2.069866208266e+01 -4.111852942193e+00 0.0 
1.286859345584e+01 -6.873252723348e+00 0.0 
1.041794493184e+01 -5.194814260291e+00 0.0 
2.671081808965e+00 -4.976806516331e+00 0.0 
1.295786792925e+01 -1.720506531799e+01 0.0 
3.968438206511e+01 -1.696869067241e+01 0.0 
2.308550456051e+01 -1.579963151273e+01 0.0 
2.315593682844e+01 -1.482967445235e+01 0.0 
2.299471449450e+01 -1.677069968132e+01 0.0 
1.057344714696e+01 -3.214252277840e+00 0.0 
1.124057603753e+01 -1.707713739755e+01 0.0 
2.718402535754e+00 -1.543629882103e+01 0.0 
2.638549692805e+01 -1.696744916809e+01 0.0 
2.723416349007e+01 -1.658104204545e+01 0.0 
2.210193351704e+01 -7.046769643417e+00 0.0 
2.295180925161e+01 -6.657397605239e+00 0.0 
2.301355235833e+01 -5.709111896800e+00 0.0 
2.379052718281e+01 -6.254965406962e+00 0.0 
3.243528601237e+01 -1.214181853533e+01 0.0 
2.287977995457e+01 -7.583722368300e+00 0.0 
2.999876029544e+01 -1.150837653096e+01 0.0 
3.084435366963e+01 -1.109693775882e+01 0.0 
3.006650579669e+01 -1.057778994262e+01 0.0 
2.683802665066e+01 -9.386863216633e+00 0.0 
2.768641973621e+01 -8.988883915666e+00 0.0 
2.040296980397e+01 -7.903629133404e+00 0.0 
1.925235024054e+01 -1.218872783130e+01 0.0 
5.735667000424e+00 -1.020577277283e+01 0.0 
6.396559909872e+00 -1.272326295703e+01 0.0 
1.161199420714e+01 -1.212812778229e+01 0.0 
4.229046132615e+01 -1.663084237572e+01 0.0 
4.312275399692e+01 -1.718087491556e+01 0.0 
4.335502068163e+01 -1.320039231514e+01 0.0 
4.424630298089e+01 -1.275160688731e+01 0.0 
7.090116643816e+00 -3.818998061530e+00 0.0 
7.989472176569e+00 -3.389238711200e+00 0.0 
9.085824861778e+00 -1.144036167408e+01 0.0 
1.041972423731e+01 -1.651614080893e+01 0.0 
3.797525112640e+01 -1.686052038746e+01 0.0 
3.709114253394e+01 -1.730125999865e+01 0.0 
3.626966748340e+01 -1.675477052919e+01 0.0 
1.385164591440e+01 -1.677597757552e+01 0.0 
1.787152588784e+01 -8.198993896093e+00 0.0 
1.668849729812e+01 -1.248560611628e+01 0.0 
1.659546177905e+01 -3.232482605530e+00 0.0 
2.332214717345e+01 -1.292598167641e+01 0.0 
7.168238450786e+00 -2.824711686516e+00 0.0 
2.894878403906e+01 -1.475427524446e+01 0.0 
2.646763248247e+00 -1.643270107952e+01 0.0 
3.467431944285e+00 -1.699648837348e+01 0.0 
2.059475877282e+01 -1.719473628526e+01 0.0 
3.333868355437e+01 -1.080596971682e+01 0.0 
2.246451062637e+01 -1.334557761546e+01 0.0 
2.167821896388e+01 -1.280847834858e+01 0.0 
3.089653185767e+01 -1.017198487212e+01 0.0 
3.012604365669e+01 -9.657298805968e+00 0.0 
2.929627299435e+01 -1.006100135274e+01 0.0 
2.936201435219e+01 -9.136748899251e+00 0.0 
1.198219052702e+01 -7.291887238230e+00 0.0 
1.116702076035e+01 -6.731976101053e+00 0.0 
2.551388807505e+01 -1.746927036981e+01 0.0 
2.378639090370e+01 -1.728678807149e+01 0.0 
2.718543627188e+01 -1.748668016909e+01 0.0 
2.804681050301e+01 -1.712626668293e+01 0.0 
1.970737034667e+01 -1.762317646822e+01 0.0 
1.889535776135e+01 -1.707158098231e+01 0.0 
2.593777711283e+00 -5.971157087874e+00 0.0 
2.773468281110e+01 -8.067164273938e+00 0.0 
4.051205884347e+01 -1.751819982458e+01 0.0 
3.166903145421e+01 -1.068032992414e+01 0.0 
1.033042452886e+01 -1.748285844336e+01 0.0 
9.519274604626e+00 -1.694349240233e+01 0.0 
1.668308673328e+01 -2.255861778986e+00 0.0 
1.570531902832e+01 -2.676795860126e+00 0.0 
4.655826903379e+01 -1.736656245706e+01 0.0 
2.384148070773e+01 -5.328744256413e+00 0.0 
2.460255123641e+01 -5.852182672816e+00 0.0 
2.306638135119e+01 -4.798935440613e+00 0.0 
8.467720450578e-01 -1.849576263072e+01 0.0 
4.849657322345e+01 -1.084860705506e+01 0.0 
2.565860899507e+00 -1.742859793981e+01 0.0 
2.764418872564e+01 -9.927142821799e+00 0.0 
4.565165880064e+01 -1.785336695404e+01 0.0 
2.162231831329e+01 -1.376528337468e+01 0.0 
2.360646352969e+01 -9.136041963102e+00 0.0 
1.392738739903e+01 -1.578285505772e+01 0.0 
4.756405947478e+01 -1.683706841809e+01 0.0 
4.740895034054e+01 -1.793766756892e+01 0.0 
4.080779328826e+01 -1.257387192544e+01 0.0 
4.168907939671e+01 -1.210739129181e+01 0.0 
3.991197722154e+01 -1.300815793917e+01 0.0 
1.905536506762e+01 -3.940076697685e+00 0.0 
1.923879596617e+01 -2.875000734166e+00 0.0 
4.401386745746e+01 -1.673483229438e+01 0.0 
4.247233362525e+00 -7.094581653070e+00 0.0 
3.286051630211e+00 -7.635300020553e+00 0.0 
9.609533347623e+00 -4.594311677967e+00 0.0 
9.523554636369e+00 -5.595597029530e+00 0.0 
5.660336628893e+00 -1.119290329628e+01 0.0 
6.558070063295e+00 -1.076385809362e+01 0.0 
2.809866407414e+01 -1.518037766799e+01 0.0 
2.888868674504e+01 -1.570360690070e+01 0.0 
2.654431550819e+01 -1.411217777162e+01 0.0 
1.402158265969e+01 -1.375404617952e+01 0.0 
1.409592494026e+01 -1.277071998942e+01 0.0 
1.499355196178e+01 -1.235270737023e+01 0.0 
4.221535326155e+01 -1.759335617494e+01 0.0 
4.305583287033e+01 -1.822663146802e+01 0.0 
1.280748808359e+01 -7.834332838285e+00 0.0 
1.368988389326e+01 -7.420529606172e+00 0.0 
1.110091796060e+01 -7.683966794328e+00 0.0 
3.963446145980e+01 -1.794331310122e+01 0.0 
3.423932362213e+00 -1.796415590455e+01 0.0 
4.280814572302e+00 -1.752272834860e+01 0.0 
8.050136380041e+00 -2.421582378631e+00 0.0 
8.888674091650e+00 -2.984264211327e+00 0.0 
2.152839430898e+01 -3.732609965436e+00 0.0 
2.077799585292e+01 -3.183896021866e+00 0.0 
3.618719395821e+01 -1.770276572576e+01 0.0 
3.538165138340e+01 -1.718709995539e+01 0.0 
3.702925326420e+01 -1.828844288807e+01 0.0 
1.756739438711e+00 -5.353284859169e+00 0.0 
2.233710191104e+01 -1.527265621324e+01 0.0 
1.389483555057e+01 -1.771797164730e+01 0.0 
1.475634224300e+01 -1.728357428390e+01 0.0 
1.298797563052e+01 -1.825968924755e+01 0.0 
2.145331271866e+01 -1.673705379077e+01 0.0 
2.133282821169e+01 -1.769400773673e+01 0.0 
2.292139194136e+01 -1.774915400288e+01 0.0 
1.750750053243e+01 -1.861475593469e+00 0.0 
4.830478841772e+01 -1.752611802221e+01 0.0 
4.341203507805e+01 -1.220326745522e+01 0.0 
1.685254151866e+01 -1.443085301632e+00 0.0 
4.431538535165e+01 -1.171841387375e+01 0.0 
4.511308610496e+01 -1.229557320599e+01 0.0 
4.510133242889e+01 -1.123680627466e+01 0.0 
1.846818030617e+00 -4.410877617069e+00 0.0 
3.995468694584e+01 -1.186571542989e+01 0.0 
3.901387459804e+01 -1.242507616755e+01 0.0 
8.966735877533e+00 -1.837818700423e+00 0.0 
4.049310011091e+01 -1.848269508791e+01 0.0 
7.278862053803e+00 -1.918523922691e+00 0.0 
6.429715522129e+00 -2.316676521184e+00 0.0 
9.443505505022e+00 -1.792198868094e+01 0.0 
8.620386951051e+00 -1.737590365556e+01 0.0 
8.571868171503e+00 -1.834436667826e+01 0.0 
7.758629848526e+00 -1.775677907213e+01 0.0 
7.806648388584e+00 -1.680761266021e+01 0.0 
6.908555145436e+00 -1.723746463044e+01 0.0 
4.251709122090e+01 -1.156937480156e+01 0.0 
6.931136405615e+00 -1.832465719263e+01 0.0 
6.015545461353e+00 -1.768865355295e+01 0.0 
5.960535926343e+00 -1.872011001764e+01 0.0 
3.023253444786e+01 -8.761960642196e+00 0.0 
2.454622702599e+01 -6.749421992767e+00 0.0 
2.537499741604e+01 -6.347634963783e+00 0.0 
2.544077378460e+01 -5.431358513649e+00 0.0 
2.801367161747e+01 -1.820907270221e+01 0.0 
2.884507806914e+01 -1.762032095326e+01 0.0 
1.821474531936e+00 -1.588901260460e+01 0.0 
1.821006262604e+00 -1.489370287756e+01 0.0 
4.599962488908e+01 -1.176478780598e+01 0.0 
4.705457470007e+01 -1.172182804229e+01 0.0 
4.667668314802e+01 -1.263464558483e+01 0.0 
4.759648056504e+01 -1.252380987933e+01 0.0 
4.728041618103e+01 -1.341928568376e+01 0.0 
4.825209352360e+01 -1.330491640804e+01 0.0 
4.778118233428e+01 -1.420151961695e+01 0.0 
2.388192727579e+01 -1.826934810142e+01 0.0 
2.381714684947e+01 -4.385917965223e+00 0.0 
3.172733219247e+01 -9.758744265248e+00 0.0 
1.882012070658e+01 -1.805540597212e+01 0.0 
1.805667505243e+01 -1.742221226236e+01 0.0 
2.852599958080e+01 -8.597196079481e+00 0.0 
2.856486123437e+01 -7.661382718527e+00 0.0 
1.111792842875e+01 -1.818223852980e+01 0.0 
2.203322722466e+01 -7.986646678802e+00 0.0 
3.955703676900e+01 -1.903246763601e+01 0.0 
1.944842206513e+01 -8.038750575182e-01 0.0 
1.909882767783e+01 -1.746322740933e+00 0.0 
2.281147422941e+01 -8.525912918334e+00 0.0 
2.850633001468e+01 -9.533271335986e+00 0.0 
2.532883344309e+01 -7.308951659710e+00 0.0 
2.620475466461e+01 -6.979208585400e+00 0.0 
1.396278270396e+01 -1.475095389807e+01 0.0 
9.791001166724e+00 -2.554159793552e+00 0.0 
2.229293380421e+01 -4.269762271052e+00 0.0 
4.677238984118e+01 -1.430071795514e+01 0.0 
2.228658385918e+01 -3.344747535984e+00 0.0 
8.940223674553e-01 -1.543595733415e+01 0.0 
2.118566862474e+01 -8.435876987696e+00 0.0 
2.678325936437e+01 -1.032621195706e+01 0.0 
2.223400220487e+01 -5.179046761770e+00 0.0 
2.375370625384e+01 -7.251580562134e+00 0.0 
3.156971327386e+01 -1.255534750737e+01 0.0 
3.328226391312e+01 -1.172914813316e+01 0.0 
3.250948774219e+01 -1.120157009348e+01 0.0 
2.032993445717e+01 -8.867880112202e+00 0.0 
2.697226974856e+01 -7.536633082045e+00 0.0 
2.707377810386e+01 -6.590835263295e+00 0.0 
2.914099246827e+01 -1.191678458549e+01 0.0 
3.544824072239e+01 -1.621126558525e+01 0.0 
3.456511855436e+01 -1.665054783843e+01 0.0 
3.448395810225e+01 -1.759117813016e+01 0.0 
3.368378673938e+01 -1.708037781328e+01 0.0 
3.375560452567e+01 -1.610973066913e+01 0.0 
3.288001547988e+01 -1.654324255651e+01 0.0 
3.282475929147e+01 -1.749725654692e+01 0.0 
3.199880906313e+01 -1.697294088625e+01 0.0 
3.197001272932e+01 -1.811667776864e+01 0.0 
3.111884713021e+01 -1.742166785755e+01 0.0 
3.120418962865e+01 -1.642155709385e+01 0.0 
3.034666704371e+01 -1.683123833816e+01 0.0 
3.026224379976e+01 -1.772592851714e+01 0.0 
3.046632362943e+01 -1.582232843075e+01 0.0 
1.961344017324e+01 -1.857459447985e+01 0.0 
2.274975894774e+01 -9.532738811922e+00 0.0 
1.833923246887e+01 -2.396746883672e+00 0.0 
1.988859500848e+01 -2.249244376594e+00 0.0 
2.758045562861e+01 -1.086434261689e+01 0.0 
3.247300178163e+01 -1.909930104252e+01 0.0 
3.461947482503e+01 -1.911879848019e+01 0.0 
2.047161538662e+01 -6.941478180358e+00 0.0 
2.750230940214e+01 -1.915490590764e+01 0.0 
3.165081350803e+01 -1.161860780120e+01 0.0 
1.897456727641e+01 -4.889634688522e+00 0.0 
2.549338539756e+01 -1.914858252089e+01 0.0 
3.462873135081e+01 -1.567482276144e+01 0.0 
3.384432415243e+01 -1.512280684518e+01 0.0 
3.471433767690e+01 -1.469086942990e+01 0.0 
3.651470373046e+01 -1.918207952149e+01 0.0 
3.901742690249e+01 -1.345028556517e+01 0.0 
2.153224102692e+01 -1.920169709333e+01 0.0 
1.918382939341e+01 -1.316226275662e+01 0.0 
2.005389162382e+01 -1.271962165174e+01 0.0 
2.011472087878e+01 -1.175029352900e+01 0.0 
3.210679478412e+01 -1.598038618242e+01 0.0 
1.752175226543e+01 -1.914713022656e+01 0.0 
1.696897240059e+01 -1.832772588765e+01 0.0 
1.599682523337e+01 -1.832599992024e+01 0.0 
1.644507199462e+01 -1.743697981535e+01 0.0 
1.549987712903e+01 -1.915192375101e+01 0.0 
3.050250861901e+01 -1.918943550234e+01 0.0 
2.949944061527e+01 -1.922950455235e+01 0.0 
1.375892575273e+01 -6.447160534926e+00 0.0 
1.457223670180e+01 -7.006709243857e+00 0.0 
1.450818793236e+01 -7.965943451779e+00 0.0 
1.538804712402e+01 -7.553409623699e+00 0.0 
1.545817644768e+01 -6.580929593419e+00 0.0 
1.626506893751e+01 -7.129032608911e+00 0.0 
1.619833811522e+01 -8.086588580887e+00 0.0 
1.714448609609e+01 -6.697429609777e+00 0.0 
2.887616543568e+01 -1.668015232137e+01 0.0 
1.349814589130e+01 -1.918225301544e+01 0.0 
1.153887772210e+01 -1.311384581217e+01 0.0 
1.242708159886e+01 -1.267046795531e+01 0.0 
1.249799674267e+01 -1.169005616014e+01 0.0 
6.631723893693e+00 -9.774184881867e+00 0.0 
7.451471631867e+00 -1.033148796006e+01 0.0 
7.377795355458e+00 -1.132196345268e+01 0.0 
5.810931797536e+00 -9.211654212252e+00 0.0 
2.402683899133e+01 -1.441378562320e+01 0.0 
1.249768692036e+01 -1.917388426624e+01 0.0 
1.580373499437e+01 -1.290751860664e+01 0.0 
8.344650507834e+00 -9.898403995170e+00 0.0 
3.750622115305e+01 -1.086526401533e+01 0.0 
3.699391251667e+01 -1.171695900794e+01 0.0 
3.606517829518e+01 -1.173717504500e+01 0.0 
3.650257641795e+01 -1.270047380221e+01 0.0 
3.808951488918e+01 -1.183518714175e+01 0.0 
4.760380962420e+00 -1.162484888315e+01 0.0 
3.861210370848e+00 -1.205657631736e+01 0.0 
3.038284309476e+00 -1.149851280664e+01 0.0 
2.961598794889e+00 -1.248856794980e+01 0.0 
2.138953225512e+00 -1.193212674534e+01 0.0 
2.227383593457e+00 -1.096258903918e+01 0.0 
2.043265419276e+00 -1.292158472959e+01 0.0 
1.252449446028e+00 -1.225502002753e+01 0.0 
3.949985210740e+01 -1.086594001795e+01 0.0 
1.453499444792e+01 -8.768805922472e-01 0.0 
1.403518950933e+01 -1.749965556633e+00 0.0 
1.300715031023e+01 -1.714737233040e+00 0.0 
1.350929389899e+01 -2.527443911291e+00 0.0 
1.449600910711e+01 -2.595486162864e+00 0.0 
1.395693872901e+01 -3.484211041558e+00 0.0 
1.495105865208e+01 -3.364609636216e+00 0.0 
1.508822528740e+01 -1.766586020494e+00 0.0 
1.250223858430e+01 -8.634590186802e-01 0.0 
1.200279523409e+01 -1.709044504992e+00 0.0 
1.150086239419e+01 -8.592789190668e-01 0.0 
1.101482754194e+01 -1.677730591922e+00 0.0 
1.148018564526e+01 -2.659323866909e+00 0.0 
8.800552119754e+00 -3.989875954728e+00 0.0 
3.452790439430e+00 -1.901136170646e+01 0.0 
8.658451825200e-01 -9.503462241795e+00 0.0 
1.694787786797e+00 -9.000589234502e+00 0.0 
1.703436717094e+00 -8.038819004041e+00 0.0 
2.594197971110e+00 -8.563955242845e+00 0.0 
1.630513735412e+00 -9.907244747511e+00 0.0 
8.566859292791e-01 -7.512203837972e+00 0.0 
1.685461277022e+00 -7.164280248030e+00 0.0 
2.506394468801e+00 -8.623386730818e-01 0.0 
2.007475081581e+00 -1.727729545205e+00 0.0 
9.211534699767e-01 -1.628791366312e+00 0.0 
1.500000000020e+00 -2.598063549486e+00 0.0 
2.482078929963e+00 -2.553580088725e+00 0.0 
2.999795253092e+00 -1.732169015019e+00 0.0 
3.999712607169e+00 -1.728832897453e+00 0.0 
4.499752199340e+00 -8.656478679175e-01 0.0 
4.964377774841e+00 -1.730129617941e+00 0.0 
4.425017908337e+00 -2.597541756243e+00 0.0 
5.446573195014e+00 -8.410144840023e-01 0.0 
4.915722346614e+01 -1.550640962770e+01 0.0 
4.826794919243e+01 -1.600000000000e+01 0.0 
1.053139533193e+01 -1.911782884365e+01 0.0 
4.156049861949e+01 -1.095160998589e+01 0.0 
9.494526624416e+00 -8.650570090219e-01 0.0 
4.555762166964e+01 -1.897098103585e+01 0.0 
4.250656411371e+01 -1.914387356218e+01 0.0 
4.350906466345e+01 -1.917234727395e+01 0.0 
8.759665722424e-01 -1.746422130609e+01 0.0 
1.698936011838e+00 -1.795012186674e+01 0.0 
4.742476811029e+01 -1.900090177972e+01 0.0 
7.749196752349e+00 -6.368049313489e+00 0.0 
3.361572113416e+01 -1.798765193915e+01 0.0 
4.484660149212e+01 -1.728661231383e+01 0.0 
1.984038172228e+01 -4.502575320116e+00 0.0 
1.035080352627e+01 -6.166639575753e+00 0.0 
2.753558010652e+00 -1.444909521181e+01 0.0 
7.217069543032e+00 -1.328635391078e+01 0.0 
4.364336727739e+00 -1.655585677381e+01 0.0 
4.595208426108e+00 -1.357919665443e+01 0.0 
6.164967006980e+00 -1.569873454630e+01 0.0 
1.487855768353e+01 -1.826523774028e+01 0.0 
2.791876456372e+00 -4.019632415181e+00 0.0 
4.246464893515e+01 -1.364898659620e+01 0.0 
4.503855590351e+01 -1.329552780944e+01 0.0 
4.407239109604e+01 -1.573900004093e+01 0.0 
5.141054449252e+00 -6.664290382472e+00 0.0 
3.141083947149e+00 -1.055790764912e+01 0.0 
6.196463198741e+00 -4.256497932609e+00 0.0 
2.599618716181e+01 -1.836893455464e+01 0.0 
2.923057372337e+01 -1.098461757645e+01 0.0 
1.168343877486e+01 -1.114079645041e+01 0.0 
6.706222096238e+00 -8.780364234441e+00 0.0 
8.567858614669e+00 -6.943121440850e+00 0.0 
1.123755132901e+01 -5.753525820030e+00 0.0 
2.353456234423e+01 -1.008536320953e+01 0.0 
9.162073319168e+00 -1.045593739109e+01 0.0 
9.676343469685e+00 -1.496493008366e+01 0.0 
4.490637882905e+01 -1.628778970202e+01 0.0 
7.398129387772e+00 -9.639977982323e-01 0.0 
1.049641705805e+01 -1.552503975272e+01 0.0 
9.010356286268e+00 -1.242805042052e+01 0.0 
3.985573925497e+01 -1.399863651620e+01 0.0 
1.816196318262e+01 -1.554066497931e+01 0.0 
1.306332244168e+01 -3.963646550326e+00 0.0 
4.145850903932e+01 -1.608094559275e+01 0.0 
3.794664933633e+01 -1.779020121986e+01 0.0 
3.819614412903e+01 -1.290749321016e+01 0.0 
6.270014188119e+00 -3.255093186826e+00 0.0 
4.251165370388e+01 -1.263870364997e+01 0.0 
1.207347709171e+01 -1.763942826023e+01 0.0 
3.633240829927e+01 -1.577330481104e+01 0.0 
4.319052668832e+00 -6.101812561904e+00 0.0 
1.676492415806e+01 -1.151547901392e+01 0.0 
2.594059220037e+01 -1.074225223009e+01 0.0 
3.340750911501e+01 -9.898764354137e+00 0.0 
4.397619591281e+01 -1.769773736461e+01 0.0 
2.175611595028e+01 -1.185718747128e+01 0.0 
1.641818733106e+01 -1.640685203215e+01 0.0 
1.661211421753e+01 -1.346121366338e+01 0.0 
3.428853504935e+00 -6.551993389271e+00 0.0 
8.700728832502e+00 -1.638460872825e+01 0.0 
1.931369795309e+01 -1.121629383702e+01 0.0 
4.139798872363e+01 -1.706922153459e+01 0.0 
2.647837478700e+01 -1.507353829290e+01 0.0 
1.779469616424e+01 -9.161615782908e+00 0.0 
3.885879219319e+01 -1.642026488918e+01 0.0 
1.338194936770e+01 -1.125916521471e+01 0.0 
1.897071181111e+01 -1.609204322578e+01 0.0 
2.844308548793e+01 -1.046221003096e+01 0.0 
2.659854702194e+01 -1.316109415760e+01 0.0 
2.979604503271e+01 -1.433296157755e+01 0.0 
2.417694041347e+01 -1.251231397779e+01 0.0 
1.807401327411e+00 -1.388891148480e+01 0.0 
9.599810618782e+00 -1.595439365034e+01 0.0 
1.652144692160e+01 -4.205392788472e+00 0.0 
2.367839450246e+01 -8.188385218643e+00 0.0 
3.814894930468e+01 -1.390748338767e+01 0.0 
2.466448215774e+01 -1.685878545680e+01 0.0 
4.134044524611e+01 -1.806610045954e+01 0.0 
2.600511411958e+01 -9.801774120648e+00 0.0 
7.882158050716e+00 -1.582364037353e+01 0.0 
3.881607873422e+01 -1.737970515013e+01 0.0 
8.270182347708e+00 -1.088622154920e+01 0.0 
8.672520392520e-01 -4.532984309881e+00 0.0 
1.993447205337e+01 -3.579061902667e+00 0.0 
1.794616079549e+01 -7.238038888498e+00 0.0 
2.097277068165e+01 -1.132450168636e+01 0.0 
8.194803300681e+00 -1.187214224265e+01 0.0 
3.522279404911e+01 -1.823342818178e+01 0.0 
6.984481050295e+00 -1.625271465557e+01 0.0 
1.309433007797e+01 -1.521718594215e+01 0.0 
2.150246167611e+01 -1.885399038185e+00 0.0 
3.250689370209e+01 -1.028789870535e+01 0.0 
6.085886272238e+00 -1.668342132851e+01 0.0 
1.588455661727e+01 -1.193498985921e+01 0.0 
1.809323400821e+01 -1.651110084195e+01 0.0 
1.348885082381e+00 -1.136065576512e+01 0.0 
2.497670221995e+01 -1.834631276173e+01 0.0 
2.937062818424e+01 -8.233711194470e+00 0.0 
5.185823744469e+00 -1.711566910207e+01 0.0 
1.477497877209e+01 -1.530177014512e+01 0.0 
2.125346158933e+01 -7.473003997367e+00 0.0 
4.751561118290e+01 -1.084897772632e+01 0.0 
5.056026576843e+00 -1.825750475525e+01 0.0 
1.473948554523e+01 -1.634577436309e+01 0.0 
2.410566630936e+01 -1.345970002612e+01 0.0 
1.507337507513e+01 -1.138527895328e+01 0.0 
3.189857338687e+01 -8.887781229006e+00 0.0 
7.298712468334e+00 -1.230231046246e+01 0.0 
2.738235495295e+01 -1.368931690364e+01 0.0 
3.750141041969e+01 -1.920449893070e+01 0.0 
1.557271965640e+01 -1.683317951731e+01 0.0 
3.393731848929e+01 -1.413034777044e+01 0.0 
6.482156824153e+00 -1.174575135362e+01 0.0 
2.077971718439e+01 -1.421279621836e+01 0.0 
3.455084320178e+00 -2.562590040585e+00 0.0 
3.099056096250e+01 -9.270280416035e+00 0.0 
5.580176125418e+00 -1.217387969259e+01 0.0 
1.707247630389e+01 -7.660651981710e+00 0.0 
1.418658814174e+01 -1.180390575393e+01 0.0 
2.049103025389e+01 -1.811296706038e+01 0.0 
4.680386172316e+00 -1.260396879301e+01 0.0 
1.699679896554e+01 -8.624561788199e+00 0.0 
3.779470168555e+00 -1.303424899720e+01 0.0 
3.036589870126e+01 -7.879832518349e+00 0.0 
3.306993001774e+01 -1.457671062095e+01 0.0 
2.840150110165e+00 -1.346530088269e+01 0.0 
2.732011135052e+01 -1.464591214560e+01 0.0 
5.423639259568e+00 -2.659711955016e+00 0.0 
2.324455961696e+01 -1.387269388211e+01 0.0 
1.752768355571e+00 -1.693128613594e+01 0.0 
1.020244783051e+01 -8.076834012808e+00 0.0 
1.330873875224e+01 -1.222417528206e+01 0.0 
3.297727364880e+01 -1.555480372087e+01 0.0 
2.890929955439e+01 -6.868664170731e+00 0.0 
1.323294664622e+01 -1.320754260334e+01 0.0 
2.726532861246e+01 -1.560593120806e+01 0.0 
2.240020643398e+01 -1.429299177247e+01 0.0 
2.090445823633e+01 -1.228128621332e+01 0.0 
1.315809881502e+01 -1.420739326938e+01 0.0 
2.781328038068e+01 -7.181956082300e+00 0.0 
8.614200829057e+00 -5.936933226306e+00 0.0 
8.714765730069e+00 -4.979270529687e+00 0.0 
1.611881701099e+01 -9.041973294003e+00 0.0 
2.806830314340e+01 -1.614622947108e+01 0.0 
2.084435391396e+00 -3.385085422913e+00 0.0 
3.133211811152e+01 -1.542347619750e+01 0.0 
9.693114650768e+00 -3.590281506442e+00 0.0 
1.531883592202e+01 -8.504584946143e+00 0.0 
2.151589117094e+01 -1.578915763018e+01 0.0 
4.918943882696e+01 -1.355538828056e+01 0.0 
1.443236615188e+01 -8.918701794549e+00 0.0 
8.276250966452e-01 -5.537685192197e+00 0.0 
1.362790867918e+01 -8.374718262212e+00 0.0 
2.083767477370e+01 -1.324843956035e+01 0.0 
1.273834678703e+01 -8.790890389337e+00 0.0 
1.192275845670e+01 -8.242261327467e+00 0.0 
4.477236023583e+01 -1.824312396664e+01 0.0 
1.102989384254e+01 -8.649855800911e+00 0.0 
4.849096516045e+01 -1.917293752213e+01 0.0 
1.588996752238e+00 -1.910230934687e+01 0.0 
4.904245197583e+01 -1.159839008158e+01 0.0 
2.753852929608e+01 -5.782128488093e+00 0.0 
1.756133602833e+01 -8.306130313187e-01 0.0 
2.615423700951e+01 -6.153865090092e+00 0.0 
1.028818761294e+01 -7.122020845892e+00 0.0 
2.970818901196e+01 -1.527821347593e+01 0.0 
4.801461623449e+01 -1.164472570985e+01 0.0 
9.455722100419e+00 -6.546069291118e+00 0.0 
3.089099236677e+01 -1.835339328261e+01 0.0 
2.350000000013e+01 -1.920825896750e+01 0.0 
4.830620531887e+01 -1.506626155470e+01 0.0 
1.725381944701e+01 -1.688794487850e+01 0.0 
2.156246225273e+01 -1.475893794002e+01 0.0 
4.919319648787e+01 -1.742767505896e+01 0.0 
4.437935623576e+01 -1.077662927266e+01 0.0 
1.001520521978e+01 -1.652692675208e+00 0.0 
9.067160240050e-01 -1.441937727541e+01 0.0 
2.603365149390e+01 -4.755996613848e+00 0.0 
2.458344439002e+01 -4.873645517696e+00 0.0 
2.304312390142e+01 -3.836552768096e+00 0.0 
2.546923202198e+00 -6.902480355749e+00 0.0 
1.251534969393e+01 -2.490989965776e+00 0.0 
2.454061833377e+01 -3.933354231935e+00 0.0 
1.788186558740e+01 -1.827424884923e+01 0.0 
4.090785243552e+01 -1.166553231904e+01 0.0 
2.230128851568e+01 -1.623015738726e+01 0.0 
2.302362347568e+01 -2.916239960270e+00 0.0 
3.878119254461e+01 -1.830091164002e+01 0.0 
2.210081359958e+01 -1.829238229150e+01 0.0 
8.443704882233e+00 -1.921993252862e+01 0.0 
2.218405824691e+01 -1.724557581508e+01 0.0 
2.151157503963e+01 -2.790636689331e+00 0.0 
3.741658958955e+01 -1.250400191722e+01 0.0 
2.697247663737e+01 -1.838290202309e+01 0.0 
4.743362342862e+01 -1.585850773010e+01 0.0 
6.671345075358e+00 -1.924977576322e+01 0.0 
3.900825404537e+01 -1.157220003875e+01 0.0 
4.649692961375e+01 -1.836335837481e+01 0.0 
1.578831424832e+01 -3.678284023361e+00 0.0 
4.814208768888e+01 -1.841249298770e+01 0.0 
2.964123298315e+01 -1.625739458193e+01 0.0 
4.580760351902e+01 -1.284294554687e+01 0.0 
3.561520879615e+01 -1.245548941949e+01 0.0 
2.555418095658e+00 -1.841101588290e+01 0.0 
3.288468366144e+01 -1.834258164109e+01 0.0 
2.065894391445e+01 -2.240688571739e+00 0.0 
4.739171429915e+01 -1.496536413446e+01 0.0 
3.478086729185e+00 -8.576434653209e+00 0.0 
1.606010630246e+01 -1.588421807951e+00 0.0 
1.018329200594e+01 -1.834320874317e+01 0.0 
2.957213339430e+01 -1.720496954591e+01 0.0 
4.142712790164e+00 -1.837794506222e+01 0.0 
6.698721532573e-01 -2.499999999997e+00 0.0 
8.037039123140e+00 -1.571229354954e+00 0.0 
1.203541361428e+01 -1.847784298001e+01 0.0 
2.899968332038e+01 -1.848264722179e+01 0.0 
1.469229460948e+01 -4.219485753730e+00 0.0 
4.049590781957e+01 -1.932812501995e+01 0.0 
1.996211678340e+01 -1.506329754720e+00 0.0 
4.250588298353e+01 -1.067383247529e+01 0.0 
5.831497011152e+00 -1.635396227234e+00 0.0 
5.317606125670e+00 -1.923927974868e+01 0.0 
4.208546426993e+01 -1.842830665025e+01 0.0 
2.327553405011e+00 -9.459409929662e+00 0.0 
3.568351902251e+01 -1.096637218582e+01 0.0 
1.682104374890e+00 -6.231413350963e+00 0.0 
2.451812238018e+01 -1.766524914339e+01 0.0 
1.058003429638e+01 -2.391839617098e+00 0.0 
4.399988753123e+01 -1.851998776342e+01 0.0 
1.400000000010e+01 -1.852293523028e+01 0.0 
3.604719565984e+01 -1.850662876800e+01 0.0 
1.951297136734e+01 -1.938092349694e+01 0.0 
1.821365318472e+01 -1.531276353287e+00 0.0 
2.298031859732e+01 -1.854635324722e+01 0.0 
1.552168066204e+01 -1.764280741977e+01 0.0 
4.572957713638e+01 -1.073347898229e+01 0.0 
3.429637429624e+01 -1.838861552790e+01 0.0 
2.427434426052e+00 -7.705577451869e+00 0.0 
4.662792031485e+00 -3.359424455416e+00 0.0 
4.926794919243e+01 -1.926794919243e+01 0.0 
7.320508075690e-01 -7.320508075688e-01 0.0 
4.926794919243e+01 -1.073205080757e+01 0.0 
7.320508075705e-01 -1.926794919243e+01 0.0 
2.917460242467e+00 -3.202866455310e+00 0.0 
4.838200575963e+01 -1.232674147454e+01 0.0 
2.998445708009e+01 -1.854403752148e+01 0.0 
5.949940090766e-01 -1.152762038165e+01 0.0 
4.844763495759e+01 -1.678092548787e+01 0.0 
1.301685480160e+01 -3.170056592566e+00 0.0 
1.650046335855e+01 -6.731535384067e-01 0.0 
4.854881540991e+01 -1.405224059779e+01 0.0 
2.119545114693e+01 -1.846813384545e+01 0.0 
3.797852849897e+01 -1.857978513215e+01 0.0 
4.649823708745e+01 -1.338351810816e+01 0.0 
2.012685900976e+01 -2.889659035009e+00 0.0 
2.953271913273e+01 -1.791558075192e+01 0.0 
2.408509097292e+00 -1.021949208421e+01 0.0 
2.642589566221e+01 -1.773216561448e+01 0.0 
1.730010270775e+01 -1.763165076721e+01 0.0 
2.017406551304e+01 -8.513536440582e-01 0.0 
5.254761581934e-01 -1.249999999999e+01 0.0 
6.640448215642e+00 -1.545337834885e+00 0.0 
7.843361506349e+00 -1.852719839527e+01 0.0 
1.588442191088e+00 -1.066158564320e+01 0.0 
2.731250000000e+01 -4.420918367347e+00 0.0 
4.951086956522e+01 -4.500000000000e+00 0.0 
2.880770112393e+01 -5.415638864241e+00 0.0 
4.951086956522e+01 -5.500000000000e+00 0.0 
3.031250000000e+01 -6.420918367347e+00 0.0 
4.951250000000e+01 -6.500000000000e+00 0.0 
3.180701530612e+01 -7.414795918363e+00 0.0 
4.951250000000e+01 -7.500000000000e+00 0.0 
3.331250000000e+01 -8.420918367347e+00 0.0 
4.951470588234e+01 -8.500000000000e+00 0.0 
3.480610198624e+01 -9.413633635267e+00 0.0 
4.951470588234e+01 -9.500000000000e+00 0.0 

CELLS 2186 8744 
3 302 772 1048 
3 772 302 1050 
3 782 275 793 
3 895 660 1084 
3 662 722 888 
3 752 665 791 
3 282 704 706 
3 302 729 1050 
3 704 282 722 
3 655 890 1084 
3 274 849 850 
3 729 302 1064 
3 894 1046 1090 
3 711 842 932 
3 1046 308 1090 
3 301 895 1084 
3 710 281 851 
3 665 752 790 
3 289 709 1031 
3 709 289 969 
3 890 655 1043 
3 1020 266 1026 
3 747 1020 1026 
3 697 696 906 
3 396 552 841 
3 849 274 958 
3 111 82 1111 
3 741 267 983 
3 394 396 841 
3 906 696 1116 
3 646 856 858 
3 299 712 889 
3 782 793 1091 
3 19 287 762 
3 297 716 718 
3 725 66 1082 
3 66 725 1108 
3 744 293 788 
3 708 102 1061 
3 102 708 1122 
3 984 726 1010 
3 262 748 887 
3 1065 263 1069 
3 82 311 1111 
3 703 310 1060 
3 742 1065 1069 
3 856 646 859 
3 310 703 1086 
3 852 853 859 
3 842 711 1083 
3 304 747 984 
3 694 709 969 
3 472 1085 1103 
3 304 984 1010 
3 794 276 974 
3 1067 639 1112 
3 694 969 1038 
3 287 732 762 
3 555 883 1001 
3 890 301 1084 
3 261 1095 1136 
3 1075 701 1077 
3 521 549 755 
3 1085 858 1103 
3 866 685 1090 
3 747 304 1020 
3 1095 705 1136 
3 275 782 1055 
3 582 543 864 
3 271 730 796 
3 958 901 1012 
3 33 32 750 
3 741 983 1113 
3 4 5 876 
3 873 1067 1112 
3 713 278 964 
3 794 974 1123 
3 761 1066 1073 
3 883 555 1125 
3 1066 303 1073 
3 543 556 864 
3 281 710 1071 
3 266 772 1026 
3 772 266 1048 
3 722 662 934 
3 704 722 934 
3 733 958 1063 
3 18 19 762 
3 787 784 1032 
3 662 888 1071 
3 889 712 1062 
3 313 840 1111 
3 886 1057 1081 
3 1081 1057 1093 
3 279 33 750 
3 788 293 1118 
3 710 851 1083 
3 887 748 1096 
3 307 739 1036 
3 755 549 756 
3 888 722 1106 
3 308 866 1090 
3 469 1035 1059 
3 700 1075 1077 
3 590 588 766 
3 853 856 859 
3 893 894 1016 
3 659 886 1081 
3 261 852 859 
3 989 284 1108 
3 434 787 1032 
3 4 876 1127 
3 657 753 789 
3 624 940 978 
3 668 870 1094 
3 728 755 756 
3 523 521 755 
3 297 718 1076 
3 739 307 1131 
3 727 523 755 
3 758 688 1033 
3 311 313 1111 
3 886 659 1134 
3 523 727 766 
3 1078 977 1092 
3 743 993 1002 
3 870 668 1124 
3 993 268 1002 
3 278 713 1104 
3 690 1078 1092 
3 849 958 1012 
3 660 895 1086 
3 597 654 754 
3 268 726 1002 
3 716 297 1096 
3 894 651 1046 
3 733 901 958 
3 754 654 954 
3 698 826 1116 
3 630 746 754 
3 680 891 892 
3 730 271 1102 
3 932 842 1079 
3 539 511 760 
3 746 597 754 
3 726 268 1010 
3 654 792 954 
3 766 592 961 
3 282 706 1061 
3 753 388 789 
3 712 299 1100 
3 1047 1053 1131 
3 877 289 1031 
3 305 743 978 
3 826 698 835 
3 727 590 766 
3 762 733 1063 
3 729 263 1065 
3 1035 695 1059 
3 288 734 735 
3 749 388 753 
3 732 287 1016 
3 582 758 1033 
3 894 653 1016 
3 769 642 797 
3 284 989 1098 
3 1047 652 1053 
3 588 592 766 
3 940 305 978 
3 274 850 1147 
3 263 729 1064 
3 388 749 763 
3 511 562 760 
3 734 288 1122 
3 592 753 961 
3 743 305 993 
3 636 825 1030 
3 870 571 1094 
3 267 741 1056 
3 796 730 1080 
3 728 756 1050 
3 571 870 1110 
3 813 943 997 
3 746 630 984 
3 729 728 1050 
3 769 624 978 
3 753 657 961 
3 277 890 1043 
3 400 809 1019 
3 287 893 1016 
3 742 303 1066 
3 598 763 987 
3 784 809 1032 
3 81 112 751 
3 630 726 984 
3 986 658 990 
3 882 1014 1107 
3 897 290 1123 
3 395 320 802 
3 1017 376 1044 
3 506 986 990 
3 840 313 1089 
3 841 552 1079 
3 696 698 1116 
3 1027 918 1054 
3 764 335 792 
3 594 484 797 
3 401 395 802 
3 591 769 797 
3 642 769 978 
3 540 1000 1040 
3 825 674 1030 
3 751 285 752 
3 756 772 1050 
3 756 549 771 
3 654 764 792 
3 809 779 1019 
3 665 664 970 
3 658 757 976 
3 708 734 1122 
3 763 749 987 
3 454 976 1025 
3 714 924 1148 
3 800 401 802 
3 924 270 1148 
3 882 883 1014 
3 303 742 1069 
3 1027 670 1028 
3 774 401 800 
3 670 669 1028 
3 650 759 765 
3 476 857 929 
3 688 865 1033 
3 943 506 997 
3 642 594 797 
3 685 866 1098 
3 112 285 751 
3 559 589 765 
3 349 388 763 
3 747 746 984 
3 757 658 986 
3 725 989 1108 
3 1011 400 1019 
3 458 440 795 
3 506 990 997 
3 958 274 1063 
3 792 402 954 
3 801 802 998 
3 701 1075 1120 
3 349 763 770 
3 589 650 765 
3 319 591 767 
3 750 32 1104 
3 335 764 939 
3 808 351 947 
3 735 734 736 
3 864 556 1068 
3 591 768 769 
3 558 458 795 
3 664 798 899 
3 646 858 1085 
3 401 774 936 
3 484 767 797 
3 523 766 961 
3 774 613 936 
3 809 400 1032 
3 402 773 915 
3 269 723 1082 
3 599 808 947 
3 327 593 773 
3 657 789 920 
3 599 807 808 
3 441 457 798 
3 839 280 840 
3 353 350 770 
3 470 821 822 
3 801 1011 1019 
3 112 113 285 
3 591 317 768 
3 440 438 795 
3 514 559 765 
3 443 441 798 
3 322 319 767 
3 712 758 1062 
3 550 640 771 
3 599 806 807 
3 767 591 797 
3 839 840 841 
3 560 665 790 
3 470 822 824 
3 471 474 821 
3 756 771 772 
3 801 998 1011 
3 549 550 771 
3 436 353 770 
3 763 598 770 
3 560 664 665 
3 789 345 920 
3 689 759 761 
3 37 276 794 
3 39 290 793 
3 336 335 939 
3 457 440 458 
3 513 514 572 
3 328 327 773 
3 457 458 513 
3 470 471 821 
3 402 915 954 
3 891 680 1109 
3 795 598 987 
3 1000 656 1040 
3 689 572 759 
3 294 57 814 
3 513 458 514 
3 333 402 792 
3 560 464 664 
3 836 529 944 
3 350 349 770 
3 474 818 821 
3 593 484 594 
3 42 815 816 
3 438 436 598 
3 599 427 806 
3 573 572 689 
3 804 489 927 
3 976 757 1025 
3 589 590 648 
3 663 804 927 
3 292 45 796 
3 566 658 976 
3 41 275 815 
3 932 552 962 
3 787 434 1052 
3 650 648 742 
3 595 594 627 
3 327 484 593 
3 327 325 484 
3 403 939 965 
3 267 47 799 
3 394 841 1089 
3 768 624 769 
3 598 436 770 
3 669 865 1028 
3 627 642 743 
3 589 588 590 
3 288 735 988 
3 474 817 818 
3 438 598 795 
3 778 800 801 
3 559 588 589 
3 593 594 595 
3 427 429 806 
3 602 829 916 
3 50 291 805 
3 630 628 726 
3 442 444 824 
3 683 1017 1044 
3 649 728 729 
3 648 590 649 
3 784 781 809 
3 333 331 402 
3 640 746 747 
3 595 627 628 
3 54 293 810 
3 293 744 1070 
3 781 779 809 
3 801 800 802 
3 829 369 916 
3 521 522 549 
3 441 440 457 
3 439 438 440 
3 335 333 792 
3 616 836 944 
3 384 830 831 
3 777 775 778 
3 444 470 824 
3 518 403 519 
3 773 593 915 
3 520 519 521 
3 275 40 793 
3 290 38 794 
3 290 897 1091 
3 602 828 829 
3 613 515 936 
3 589 648 650 
3 437 436 438 
3 664 464 798 
3 550 597 640 
3 838 839 842 
3 804 932 962 
3 814 812 906 
3 785 784 787 
3 319 317 591 
3 326 325 327 
3 464 443 798 
3 861 863 864 
3 388 347 789 
3 341 339 403 
3 347 345 789 
3 258 977 1078 
3 735 736 737 
3 865 669 1033 
3 514 558 559 
3 57 56 814 
3 448 450 540 
3 312 624 768 
3 289 877 1099 
3 939 764 965 
3 349 347 388 
3 325 322 767 
3 271 43 816 
3 627 594 642 
3 331 328 773 
3 384 831 837 
3 775 774 800 
3 602 827 828 
3 44 271 796 
3 41 40 275 
3 37 36 276 
3 39 38 290 
3 324 322 325 
3 778 775 800 
3 783 781 784 
3 521 519 522 
3 549 522 550 
3 833 830 917 
3 777 778 779 
3 46 292 799 
3 692 613 774 
3 806 540 807 
3 692 774 775 
3 533 531 834 
3 341 403 518 
3 640 597 746 
3 513 572 573 
3 279 750 1074 
3 520 521 523 
3 914 633 983 
3 830 384 917 
3 475 478 817 
3 294 814 906 
3 559 587 588 
3 42 41 815 
3 290 794 1123 
3 332 331 333 
3 861 862 863 
3 44 43 271 
3 259 810 811 
3 474 475 817 
3 429 448 806 
3 265 51 805 
3 120 260 862 
3 518 519 520 
3 330 328 331 
3 334 333 335 
3 402 331 773 
3 572 514 765 
3 46 45 292 
3 435 353 436 
3 561 560 790 
3 723 269 1149 
3 862 260 863 
3 629 628 630 
3 856 857 858 
3 743 642 978 
3 259 55 810 
3 48 47 267 
3 484 325 767 
3 853 855 856 
3 702 561 790 
3 856 855 857 
3 946 644 959 
3 838 280 839 
3 314 312 768 
3 50 49 291 
3 296 838 842 
3 276 36 803 
3 536 533 834 
3 663 711 804 
3 649 727 728 
3 448 540 806 
3 664 899 970 
3 52 51 265 
3 40 39 793 
3 38 37 794 
3 602 410 827 
3 405 407 833 
3 341 518 920 
3 410 412 827 
3 54 53 293 
3 514 458 558 
3 821 820 822 
3 818 819 820 
3 553 663 927 
3 58 294 826 
3 853 854 855 
3 56 55 259 
3 817 682 818 
3 43 42 816 
3 783 784 785 
3 119 120 862 
3 518 657 920 
3 612 515 613 
3 45 44 796 
3 324 325 326 
3 579 536 580 
3 573 689 690 
3 812 811 813 
3 574 681 682 
3 818 682 819 
3 852 295 853 
3 47 46 799 
3 798 457 899 
3 566 614 658 
3 663 710 711 
3 900 632 919 
3 818 820 821 
3 326 327 328 
3 51 50 805 
3 407 509 833 
3 418 454 524 
3 338 336 339 
3 677 570 678 
3 822 820 823 
3 827 524 828 
3 339 336 939 
3 675 532 949 
3 448 449 450 
3 340 339 341 
3 377 379 837 
3 559 558 587 
3 405 833 917 
3 580 536 834 
3 404 427 599 
3 56 259 814 
3 691 613 692 
3 575 900 919 
3 55 54 810 
3 259 811 812 
3 346 345 347 
3 853 295 854 
3 59 826 835 
3 776 775 777 
3 478 574 817 
3 58 57 294 
3 412 418 827 
3 550 596 597 
3 317 314 768 
3 404 599 947 
3 408 602 916 
3 570 529 836 
3 802 320 998 
3 629 754 954 
3 450 468 469 
3 737 736 738 
3 379 384 837 
3 429 431 448 
3 574 631 681 
3 601 423 902 
3 118 119 860 
3 588 587 592 
3 574 682 817 
3 830 672 831 
3 344 342 345 
3 418 524 827 
3 553 661 663 
3 478 541 574 
3 59 58 826 
3 330 331 332 
3 600 671 672 
3 332 333 334 
3 600 672 830 
3 860 119 862 
3 316 314 317 
3 869 868 870 
3 270 125 884 
3 509 564 600 
3 418 453 454 
3 898 568 923 
3 678 836 980 
3 678 570 836 
3 312 272 624 
3 296 109 838 
3 693 803 996 
3 334 335 336 
3 125 126 884 
3 688 608 865 
3 854 860 861 
3 670 1027 1054 
3 586 636 1030 
3 666 898 923 
3 463 946 959 
3 387 385 896 
3 425 423 601 
3 566 577 614 
3 483 464 560 
3 300 868 869 
3 273 872 873 
3 262 60 835 
3 60 59 835 
3 868 867 871 
3 600 564 671 
3 408 410 602 
3 614 696 697 
3 608 527 865 
3 461 546 566 
3 882 880 883 
3 509 600 833 
3 831 672 832 
3 286 879 880 
3 300 867 868 
3 612 613 691 
3 126 127 881 
3 110 280 838 
3 110 111 280 
3 529 433 944 
3 273 10 872 
3 574 541 631 
3 759 572 765 
3 719 717 720 
3 799 292 914 
3 603 497 930 
3 649 590 727 
3 712 688 758 
3 595 628 629 
3 106 281 888 
3 105 106 888 
3 126 881 884 
3 881 880 882 
3 875 877 878 
3 451 392 526 
3 286 874 879 
3 867 264 871 
3 261 116 852 
3 392 387 896 
3 740 738 760 
3 108 109 296 
3 636 731 825 
3 412 417 418 
3 737 738 739 
3 10 11 872 
3 875 878 879 
3 30 29 891 
3 278 30 891 
3 663 661 710 
3 281 107 851 
3 872 869 873 
3 28 277 892 
3 526 392 896 
3 109 110 838 
3 108 296 851 
3 627 743 1002 
3 36 35 803 
3 891 29 892 
3 286 880 881 
3 127 286 881 
3 687 608 688 
3 831 832 968 
3 893 651 894 
3 115 116 261 
3 298 885 886 
3 117 295 852 
3 569 529 570 
3 117 118 295 
3 116 117 852 
3 676 570 677 
3 622 685 686 
3 739 738 740 
3 915 629 954 
3 874 875 879 
3 424 425 904 
3 25 24 895 
3 301 25 895 
3 107 108 851 
3 505 433 529 
3 29 28 892 
3 579 580 695 
3 875 876 877 
3 874 309 875 
3 875 309 876 
3 11 12 300 
3 308 69 866 
3 80 79 310 
3 129 309 874 
3 13 264 867 
3 70 69 308 
3 68 284 866 
3 61 262 887 
3 76 283 885 
3 78 77 298 
3 69 68 866 
3 68 67 284 
3 298 77 885 
3 129 130 309 
3 103 104 282 
3 106 107 281 
3 286 128 874 
3 65 64 269 
3 297 62 887 
3 63 62 297 
3 128 129 874 
3 127 128 286 
3 61 60 262 
3 62 61 887 
3 76 75 283 
3 100 101 288 
3 77 76 885 
3 74 73 307 
3 98 99 652 
3 124 125 270 
3 122 123 299 
3 121 122 889 
3 120 121 260 
3 13 14 264 
3 12 13 867 
3 122 299 889 
3 16 17 274 
3 260 121 889 
3 34 33 279 
3 28 27 277 
3 31 30 278 
3 6 7 289 
3 9 10 273 
3 27 26 890 
3 19 20 287 
3 26 25 301 
3 20 21 893 
3 21 22 651 
3 300 12 867 
3 277 27 890 
3 26 301 890 
3 287 20 893 
3 21 651 893 
3 516 517 901 
3 295 118 860 
3 407 508 509 
3 881 882 884 
3 719 720 721 
3 600 830 833 
3 482 466 903 
3 451 526 527 
3 1014 715 1107 
3 622 686 903 
3 509 510 564 
3 300 869 872 
3 466 528 903 
3 659 660 703 
3 11 300 872 
3 454 453 461 
3 416 414 467 
3 516 465 517 
3 584 516 901 
3 435 436 437 
3 629 630 754 
3 345 342 920 
3 424 423 425 
3 528 621 622 
3 732 584 733 
3 575 669 670 
3 647 568 655 
3 563 512 568 
3 708 707 734 
3 422 420 423 
3 465 424 904 
3 659 647 660 
3 563 647 659 
3 467 414 926 
3 622 653 685 
3 525 497 603 
3 732 733 762 
3 723 721 724 
3 655 568 898 
3 502 500 503 
3 418 417 453 
3 462 544 545 
3 481 567 575 
3 687 688 712 
3 854 295 860 
3 563 568 647 
3 622 621 653 
3 861 860 862 
3 780 779 781 
3 706 606 707 
3 452 466 482 
3 528 584 621 
3 631 632 683 
3 621 584 732 
3 706 707 708 
3 448 431 449 
3 723 724 725 
3 694 576 709 
3 718 717 719 
3 511 503 512 
3 545 576 639 
3 575 670 900 
3 847 845 848 
3 499 501 605 
3 386 390 405 
3 562 512 563 
3 502 511 539 
3 671 564 843 
3 733 584 901 
3 528 516 584 
3 511 512 562 
3 504 456 542 
3 564 510 565 
3 537 623 699 
3 503 910 923 
3 509 508 510 
3 416 467 902 
3 716 644 717 
3 502 503 511 
3 645 561 702 
3 619 714 715 
3 445 443 464 
3 528 622 903 
3 501 500 502 
3 849 847 850 
3 605 606 704 
3 566 546 577 
3 843 565 844 
3 466 516 528 
3 545 544 576 
3 719 721 723 
3 564 565 843 
3 639 576 694 
3 565 510 912 
3 405 406 407 
3 391 387 392 
3 846 847 849 
3 124 270 924 
3 299 123 924 
3 517 465 904 
3 462 504 544 
3 422 423 424 
3 423 420 902 
3 379 383 384 
3 478 479 541 
3 525 603 604 
3 791 665 1141 
3 407 507 508 
3 614 577 696 
3 544 504 555 
3 605 501 606 
3 704 606 706 
3 607 527 608 
3 643 610 644 
3 496 494 497 
3 462 456 504 
3 679 603 948 
3 604 603 679 
3 399 456 462 
3 728 727 755 
3 393 392 451 
3 466 465 516 
3 844 845 846 
3 692 775 776 
3 525 604 666 
3 452 424 465 
3 422 424 452 
3 451 527 607 
3 452 465 466 
3 496 497 498 
3 846 845 847 
3 499 500 501 
3 498 497 525 
3 351 352 947 
3 910 666 923 
3 510 571 912 
3 844 565 845 
3 507 406 667 
3 381 378 382 
3 499 498 500 
3 373 375 408 
3 391 393 399 
3 619 608 687 
3 496 498 499 
3 391 392 393 
3 716 717 718 
3 503 500 910 
3 452 482 905 
3 259 812 814 
3 510 508 571 
3 399 393 456 
3 607 608 619 
3 421 420 422 
3 502 539 909 
3 619 687 714 
3 405 390 406 
3 709 576 907 
3 499 605 908 
3 407 406 507 
3 420 416 902 
3 507 667 668 
3 568 512 923 
3 390 387 391 
3 415 419 463 
3 575 567 669 
3 419 416 420 
3 848 845 912 
3 421 422 905 
3 822 823 1004 
3 576 544 907 
3 707 606 909 
3 569 570 676 
3 519 403 965 
3 501 502 909 
3 481 575 919 
3 493 495 553 
3 544 555 907 
3 720 717 946 
3 505 529 569 
3 450 449 468 
3 604 679 680 
3 408 409 410 
3 542 456 913 
3 413 411 414 
3 643 644 716 
3 631 541 632 
3 422 452 905 
3 500 498 910 
3 475 477 478 
3 415 414 416 
3 661 554 662 
3 545 639 945 
3 386 387 390 
3 338 339 340 
3 419 420 421 
3 550 522 596 
3 340 341 342 
3 495 494 496 
3 606 501 909 
3 553 554 661 
3 845 565 912 
3 583 485 610 
3 410 411 412 
3 605 704 934 
3 782 781 783 
3 469 468 537 
3 415 416 419 
3 498 525 910 
3 379 381 383 
3 383 385 386 
3 451 607 913 
3 412 413 417 
3 386 405 917 
3 495 496 908 
3 553 495 554 
3 355 357 404 
3 896 385 918 
3 437 438 439 
3 386 385 387 
3 383 381 385 
3 393 451 913 
3 461 485 546 
3 374 372 376 
3 525 666 910 
3 370 372 373 
3 412 411 413 
3 408 375 409 
3 344 345 346 
3 456 393 913 
3 583 610 643 
3 583 643 748 
3 530 532 675 
3 379 378 381 
3 410 409 411 
3 496 499 908 
3 384 383 917 
3 518 520 657 
3 390 391 911 
3 541 479 919 
3 377 378 379 
3 391 399 911 
3 462 545 937 
3 409 375 609 
3 413 414 415 
3 548 585 586 
3 123 124 924 
3 366 364 367 
3 370 368 371 
3 377 376 378 
3 554 495 908 
3 373 374 375 
3 406 390 911 
3 374 376 377 
3 512 503 923 
3 667 406 911 
3 619 715 933 
3 913 607 933 
3 632 541 919 
3 381 382 918 
3 366 368 369 
3 373 372 374 
3 481 543 567 
3 542 913 933 
3 804 711 932 
3 911 399 937 
3 461 453 485 
3 534 547 548 
3 318 317 319 
3 557 491 578 
3 586 635 636 
3 352 355 947 
3 532 534 949 
3 479 480 481 
3 377 837 921 
3 348 347 349 
3 471 473 474 
3 543 480 556 
3 383 386 917 
3 370 371 372 
3 369 368 370 
3 667 911 937 
3 373 408 916 
3 366 367 368 
3 362 364 365 
3 385 381 918 
3 432 430 433 
3 493 494 495 
3 362 360 363 
3 546 485 583 
3 478 477 479 
3 696 577 698 
3 369 370 916 
3 636 730 731 
3 329 328 330 
3 479 481 919 
3 321 319 322 
3 611 515 612 
3 369 829 952 
3 592 749 753 
3 323 322 324 
3 403 339 939 
3 481 480 543 
3 713 684 750 
3 567 543 582 
3 744 638 745 
3 898 666 941 
3 455 433 505 
3 908 605 934 
3 492 491 557 
3 365 364 366 
3 404 426 427 
3 641 578 684 
3 415 463 922 
3 490 492 493 
3 569 676 757 
3 479 477 480 
3 490 488 491 
3 799 914 983 
3 583 748 935 
3 374 377 921 
3 554 908 934 
3 662 554 934 
3 370 373 916 
3 417 413 922 
3 453 417 925 
3 607 619 933 
3 439 440 441 
3 358 360 361 
3 362 363 364 
3 342 341 920 
3 641 684 713 
3 777 779 780 
3 666 604 941 
3 597 596 654 
3 487 459 515 
3 413 415 922 
3 679 948 964 
3 460 488 489 
3 375 374 921 
3 358 356 359 
3 490 491 492 
3 557 578 641 
3 497 494 930 
3 493 492 494 
3 644 610 959 
3 637 551 638 
3 610 485 925 
3 414 411 926 
3 726 628 1002 
3 432 455 486 
3 397 395 401 
3 399 462 937 
3 361 360 362 
3 678 980 992 
3 427 428 429 
3 444 446 470 
3 358 359 360 
3 429 430 431 
3 595 629 915 
3 609 375 921 
3 489 804 962 
3 722 282 1106 
3 84 249 258 
3 411 409 926 
3 455 505 506 
3 776 777 897 
3 404 357 426 
3 409 609 926 
3 493 553 927 
3 85 250 303 
3 432 433 455 
3 428 426 616 
3 593 595 915 
3 417 922 925 
3 474 473 475 
3 485 453 925 
3 577 546 935 
3 431 430 432 
3 494 492 930 
3 538 536 579 
3 546 583 935 
3 86 251 263 
3 489 490 927 
3 699 623 700 
3 492 557 930 
3 429 428 430 
3 357 356 358 
3 999 671 1003 
3 483 560 561 
3 603 930 948 
3 937 545 945 
3 87 252 302 
3 535 533 536 
3 604 680 941 
3 475 476 477 
3 337 336 338 
3 489 488 490 
3 968 832 973 
3 470 446 471 
3 592 587 749 
3 556 480 929 
3 475 473 476 
3 477 476 929 
3 427 426 428 
3 803 35 996 
3 88 253 266 
3 717 644 946 
3 354 353 435 
3 398 460 962 
3 445 464 483 
3 698 577 935 
3 480 477 929 
3 668 667 945 
3 449 431 928 
3 366 369 952 
3 537 551 623 
3 520 523 961 
3 397 401 936 
3 637 638 744 
3 490 493 927 
3 777 780 897 
3 488 487 951 
3 487 515 611 
3 457 513 899 
3 720 946 966 
3 460 487 488 
3 351 808 972 
3 89 254 304 
3 637 744 788 
3 442 441 443 
3 667 937 945 
3 537 468 551 
3 289 7 969 
3 343 342 344 
3 432 486 928 
3 611 612 931 
3 612 691 693 
3 431 432 928 
3 578 491 951 
3 352 350 353 
3 534 548 949 
3 90 255 268 
3 783 785 786 
3 91 256 305 
3 257 91 940 
3 355 404 947 
3 82 257 272 
3 625 380 626 
3 346 347 348 
3 358 361 938 
3 471 446 472 
3 355 356 357 
3 557 641 948 
3 780 781 782 
3 463 419 966 
3 623 551 637 
3 365 366 952 
3 487 611 951 
3 357 358 938 
3 721 720 975 
3 491 488 951 
3 515 459 936 
3 433 430 944 
3 352 354 355 
3 548 547 585 
3 326 328 329 
3 471 472 473 
3 442 443 444 
3 657 520 961 
3 334 336 337 
3 724 721 979 
3 460 459 487 
3 355 354 356 
3 530 675 955 
3 486 455 943 
3 930 557 948 
3 586 585 635 
3 552 398 962 
3 658 614 990 
3 426 357 938 
3 455 506 943 
3 340 342 343 
3 684 578 967 
3 636 635 730 
3 428 616 944 
3 444 443 445 
3 538 579 581 
3 343 380 618 
3 352 353 354 
3 430 428 944 
3 461 566 976 
3 444 445 446 
3 616 426 938 
3 321 322 323 
3 724 979 985 
3 323 324 434 
3 535 536 538 
3 318 319 321 
3 315 314 316 
3 329 330 389 
3 638 551 953 
3 946 463 966 
3 398 459 460 
3 612 693 931 
3 316 317 318 
3 435 437 615 
3 538 581 634 
3 948 641 964 
3 344 346 942 
3 343 344 380 
3 354 435 950 
3 459 397 936 
3 596 522 965 
3 625 626 656 
3 522 519 965 
3 468 449 953 
3 634 701 741 
3 359 356 950 
3 483 561 617 
3 691 692 974 
3 654 596 764 
3 992 365 1005 
3 634 581 701 
3 398 397 459 
3 922 463 959 
3 348 349 350 
3 617 561 645 
3 985 686 989 
3 337 338 447 
3 450 469 1000 
3 585 547 633 
3 645 702 705 
3 925 922 959 
3 558 795 987 
3 396 398 552 
3 467 973 994 
3 356 354 950 
3 721 975 979 
3 618 380 625 
3 435 615 950 
3 337 447 530 
3 617 645 646 
3 532 533 534 
3 449 928 953 
3 731 730 1102 
3 534 535 547 
3 442 824 971 
3 419 421 966 
3 641 713 964 
3 788 265 1006 
3 551 468 953 
3 351 350 352 
3 530 531 532 
3 903 686 985 
3 847 848 982 
3 534 533 535 
3 460 489 962 
3 720 966 975 
3 610 925 959 
3 100 288 988 
3 652 99 988 
3 321 323 400 
3 532 531 533 
3 601 902 994 
3 329 389 620 
3 626 380 942 
3 813 997 1121 
3 348 350 351 
3 34 279 996 
3 313 312 314 
3 380 344 942 
3 467 926 973 
3 439 441 442 
3 609 921 968 
3 530 447 531 
3 332 334 955 
3 396 397 398 
3 620 389 673 
3 620 673 674 
3 878 877 1031 
3 921 837 968 
3 764 596 965 
3 324 326 956 
3 434 324 956 
3 745 638 981 
3 7 8 969 
3 472 446 960 
3 338 340 957 
3 837 831 968 
3 91 305 940 
3 272 257 940 
3 396 395 397 
3 513 573 899 
3 973 832 994 
3 506 505 986 
3 446 445 960 
3 267 799 983 
3 951 611 967 
3 672 671 999 
3 966 421 975 
3 883 880 1001 
3 569 757 986 
3 447 338 957 
3 879 878 1001 
3 578 951 967 
3 445 483 960 
3 326 329 956 
3 334 337 955 
3 362 365 992 
3 828 524 1021 
3 611 931 967 
3 524 454 1025 
3 343 618 957 
3 340 343 957 
3 249 83 977 
3 483 617 960 
3 535 538 963 
3 315 316 320 
3 538 634 963 
3 587 558 987 
3 779 778 1019 
3 633 547 963 
3 624 272 940 
3 547 535 963 
3 421 905 975 
3 834 531 991 
3 609 968 973 
3 926 609 973 
3 692 776 974 
3 829 828 1018 
3 337 530 955 
3 808 807 1024 
3 454 461 976 
3 942 346 972 
3 971 824 1004 
3 836 616 980 
3 615 437 971 
3 329 620 956 
3 615 971 1004 
3 389 330 995 
3 638 953 981 
3 953 928 981 
3 346 348 972 
3 394 395 396 
3 975 905 979 
3 905 482 979 
3 573 690 970 
3 389 995 1013 
3 724 985 989 
3 640 747 1026 
3 601 999 1003 
3 258 249 977 
3 979 482 985 
3 439 442 971 
3 850 847 982 
3 1000 469 1059 
3 394 320 395 
3 315 320 394 
3 447 957 991 
3 90 268 993 
3 305 256 993 
3 482 903 985 
3 1021 524 1025 
3 678 992 1005 
3 505 569 986 
3 938 361 980 
3 437 439 971 
3 256 90 993 
3 313 314 315 
3 99 100 988 
3 928 486 981 
3 348 351 972 
3 637 788 1006 
3 621 732 1016 
3 616 938 980 
3 725 724 989 
3 1004 823 1008 
3 700 623 1006 
3 957 618 991 
3 580 834 1015 
3 614 697 990 
3 378 376 1017 
3 955 675 995 
3 980 361 992 
3 332 955 995 
3 749 587 987 
3 695 580 1023 
3 361 362 992 
3 902 467 994 
3 330 332 995 
3 1092 306 1105 
3 807 540 1040 
3 761 258 1078 
3 542 933 1014 
3 601 994 999 
3 548 586 1022 
3 320 316 998 
3 89 304 1010 
3 35 34 996 
3 83 248 306 
3 268 255 1010 
3 677 678 1005 
3 671 843 1003 
3 628 627 1002 
3 1034 819 1037 
3 1018 828 1021 
3 531 447 991 
3 540 450 1000 
3 785 1087 1097 
3 899 573 970 
3 832 672 999 
3 1003 843 1007 
3 896 918 1027 
3 311 272 312 
3 316 318 998 
3 18 762 1063 
3 880 879 1001 
3 705 702 1049 
3 865 527 1028 
3 843 844 1007 
3 359 1008 1029 
3 820 819 1034 
3 824 822 1004 
3 425 601 1003 
3 321 400 1011 
3 1007 844 1009 
3 359 950 1008 
3 995 675 1013 
3 711 710 1083 
3 469 537 1035 
3 844 846 1009 
3 425 1003 1007 
3 88 266 1020 
3 363 360 1029 
3 1009 846 1012 
3 283 75 1036 
3 74 307 1036 
3 304 254 1020 
3 904 425 1007 
3 682 681 1039 
3 761 759 1066 
3 623 637 1006 
3 669 567 1033 
3 1039 681 1041 
3 1024 807 1040 
3 255 89 1010 
3 846 849 1012 
3 9 273 1038 
3 311 312 313 
3 904 1007 1009 
3 365 952 1005 
3 994 832 999 
3 752 791 1105 
3 1060 298 1134 
3 367 364 1037 
3 943 813 1058 
3 580 1015 1023 
3 517 904 1009 
3 517 1009 1012 
3 1008 823 1029 
3 582 864 1114 
3 791 1092 1105 
3 901 517 1012 
3 990 697 997 
3 631 683 1042 
3 675 949 1013 
3 772 771 1026 
3 673 389 1013 
3 748 262 1101 
3 113 114 1049 
3 24 23 1045 
3 71 70 1046 
3 73 72 1047 
3 371 368 1041 
3 834 991 1015 
3 950 615 1008 
3 933 715 1014 
3 83 306 977 
3 898 941 1043 
3 318 321 1011 
3 82 272 311 
3 48 267 1056 
3 969 8 1038 
3 291 49 1056 
3 998 318 1011 
3 376 372 1044 
3 991 618 1015 
3 371 1041 1042 
3 650 742 1066 
3 1042 683 1044 
3 400 323 1032 
3 653 621 1016 
3 367 1037 1039 
3 673 1013 1022 
3 1049 114 1136 
3 363 1029 1034 
3 778 801 1019 
3 382 378 1017 
3 683 632 1051 
3 618 625 1015 
3 857 476 1103 
3 87 302 1048 
3 266 253 1048 
3 382 1051 1054 
3 677 1005 1018 
3 942 972 1024 
3 1013 949 1022 
3 782 783 1055 
3 254 88 1020 
3 885 283 1057 
3 730 635 1080 
3 615 1004 1008 
3 258 761 1073 
3 771 640 1026 
3 952 829 1018 
3 620 674 1052 
3 1005 952 1018 
3 665 970 1141 
3 676 677 1021 
3 742 648 1065 
3 972 808 1024 
3 677 1018 1021 
3 1015 625 1023 
3 539 760 1140 
3 918 382 1054 
3 689 761 1078 
3 676 1021 1025 
3 649 729 1065 
3 1049 702 1119 
3 310 79 1060 
3 78 298 1060 
3 863 260 1062 
3 757 676 1025 
3 526 1027 1028 
3 526 896 1027 
3 1022 586 1030 
3 625 656 1023 
3 949 548 1022 
3 363 1034 1037 
3 102 103 1061 
3 297 887 1096 
3 527 526 1028 
3 486 943 1058 
3 626 942 1024 
3 709 907 1031 
3 434 956 1052 
3 360 359 1029 
3 861 864 1068 
3 823 820 1034 
3 17 18 1063 
3 323 434 1032 
3 567 582 1033 
3 850 982 1133 
3 674 673 1030 
3 537 699 1035 
3 1017 683 1051 
3 1038 273 1112 
3 626 1024 1040 
3 75 74 1036 
3 855 854 1068 
3 914 292 1080 
3 793 290 1091 
3 307 1047 1131 
3 750 684 1074 
3 815 275 1055 
3 364 363 1037 
3 367 1039 1041 
3 811 810 1070 
3 285 113 1049 
3 8 9 1038 
3 850 1133 1147 
3 382 1017 1051 
3 819 682 1039 
3 86 263 1064 
3 302 252 1064 
3 710 661 1071 
3 1029 823 1034 
3 945 639 1067 
3 579 695 1072 
3 269 64 1076 
3 63 297 1076 
3 368 367 1041 
3 296 842 1083 
3 705 1049 1136 
3 85 303 1069 
3 858 857 1103 
3 263 251 1069 
3 656 626 1040 
3 681 631 1042 
3 1037 819 1039 
3 859 646 1095 
3 703 1060 1134 
3 1041 681 1042 
3 655 898 1043 
3 563 659 1081 
3 895 24 1045 
3 70 308 1046 
3 307 73 1047 
3 371 1042 1044 
3 253 87 1048 
3 372 371 1044 
3 66 65 1082 
3 84 258 1073 
3 303 250 1073 
3 745 981 1058 
3 888 281 1071 
3 660 647 1084 
3 673 1022 1030 
3 699 700 1077 
3 785 787 1087 
3 736 734 1088 
3 1051 900 1054 
3 632 900 1051 
3 1057 283 1137 
3 1072 699 1077 
3 280 111 1111 
3 652 988 1053 
3 735 737 1053 
3 734 707 1088 
3 617 646 1085 
3 900 670 1054 
3 680 892 1115 
3 909 539 1088 
3 265 788 1118 
3 783 786 1055 
3 956 620 1052 
3 967 931 1074 
3 571 508 1094 
3 507 668 1094 
3 748 643 1096 
3 261 859 1095 
3 694 1038 1112 
3 49 48 1056 
3 6 289 1099 
3 988 735 1053 
3 812 813 1121 
3 687 712 1100 
3 270 884 1107 
3 31 278 1104 
3 105 888 1106 
3 964 278 1109 
3 811 1070 1145 
3 282 104 1106 
3 285 1049 1119 
3 895 1045 1086 
3 542 1014 1125 
3 680 679 1109 
3 67 66 1108 
3 780 782 1091 
3 472 960 1085 
3 842 839 1079 
3 870 868 1110 
3 695 1035 1072 
3 52 265 1118 
3 886 885 1057 
3 293 53 1118 
3 646 645 1095 
3 723 725 1082 
3 473 472 1103 
3 878 1031 1130 
3 294 906 1116 
3 803 693 1117 
3 713 750 1104 
3 706 708 1061 
3 313 315 1089 
3 759 650 1066 
3 815 1055 1132 
3 873 869 1124 
3 690 1092 1141 
3 1035 699 1072 
3 101 102 1122 
3 693 691 1117 
3 3 80 1126 
3 23 3 1126 
3 130 0 1127 
3 0 4 1127 
3 72 1 1128 
3 1 98 1128 
3 2 71 1129 
3 22 2 1129 
3 876 309 1127 
3 115 261 1136 
3 989 686 1098 
3 634 741 1113 
3 555 504 1125 
3 719 723 1149 
3 16 274 1147 
3 264 14 1133 
3 760 738 1140 
3 929 857 1135 
3 695 1023 1059 
3 1014 883 1125 
3 912 571 1143 
3 1055 786 1132 
3 79 78 1060 
3 982 264 1133 
3 737 739 1131 
3 633 914 1144 
3 1087 825 1097 
3 1052 674 1087 
3 103 282 1061 
3 656 1000 1059 
3 974 776 1123 
3 639 694 1112 
3 260 889 1062 
3 585 633 1144 
3 981 486 1058 
3 857 855 1135 
3 740 1057 1137 
3 866 284 1098 
3 633 963 1113 
3 983 633 1113 
3 274 17 1063 
3 751 752 1105 
3 252 86 1064 
3 648 649 1065 
3 839 841 1079 
3 1023 656 1059 
3 941 680 1115 
3 810 293 1070 
3 854 861 1068 
3 863 1062 1114 
3 251 85 1069 
3 760 562 1093 
3 668 945 1067 
3 931 693 1139 
3 1031 907 1130 
3 744 745 1070 
3 661 662 1071 
3 805 291 1075 
3 581 579 1072 
3 841 840 1089 
3 835 698 1101 
3 693 996 1139 
3 1045 310 1086 
3 250 84 1073 
3 684 967 1074 
3 292 796 1080 
3 1070 745 1145 
3 581 1072 1077 
3 64 63 1076 
3 787 1052 1087 
3 81 751 1146 
3 690 689 1078 
3 786 785 1097 
3 552 932 1079 
3 653 894 1090 
3 701 581 1077 
3 269 1076 1149 
3 562 563 1081 
3 265 805 1138 
3 935 748 1101 
3 698 935 1101 
3 1067 873 1124 
3 65 269 1082 
3 851 296 1083 
3 647 655 1084 
3 864 863 1114 
3 659 703 1134 
3 740 760 1093 
3 876 5 1099 
3 960 617 1085 
3 674 825 1087 
3 278 891 1109 
3 703 660 1086 
3 1006 265 1138 
3 707 909 1088 
3 299 924 1100 
3 790 752 1119 
3 924 714 1100 
3 758 582 1114 
3 248 81 1146 
3 571 1110 1143 
3 685 653 1090 
3 897 780 1091 
3 315 394 1089 
3 508 507 1094 
3 643 716 1096 
3 697 906 1121 
3 1075 291 1120 
3 914 1080 1144 
3 825 731 1097 
3 1062 758 1114 
3 645 705 1095 
3 686 685 1098 
3 877 876 1099 
3 5 6 1099 
3 977 306 1092 
3 714 687 1100 
3 262 835 1101 
3 271 816 1102 
3 1043 941 1115 
3 291 1056 1120 
3 997 697 1121 
3 1088 539 1140 
3 32 31 1104 
3 476 473 1103 
3 104 105 1106 
3 855 1068 1135 
3 884 882 1107 
3 284 67 1108 
3 840 280 1111 
3 1001 878 1130 
3 868 871 1110 
3 1102 816 1132 
3 679 964 1109 
3 276 803 1117 
3 273 873 1112 
3 702 790 1119 
3 1076 718 1149 
3 1045 23 1126 
3 71 1046 1129 
3 1047 72 1128 
3 906 812 1121 
3 555 1001 1130 
3 1074 931 1139 
3 270 1107 1148 
3 826 294 1116 
3 974 276 1117 
3 752 285 1119 
3 963 634 1113 
3 562 1081 1093 
3 892 277 1115 
3 53 52 1118 
3 283 1036 1137 
3 816 815 1132 
3 691 974 1117 
3 1057 740 1093 
3 1102 1132 1142 
3 869 870 1124 
3 288 101 1122 
3 741 701 1120 
3 80 310 1126 
3 309 130 1127 
3 98 652 1128 
3 651 22 1129 
3 504 542 1125 
3 813 811 1145 
3 776 897 1123 
3 277 1043 1115 
3 907 555 1130 
3 1092 791 1141 
3 14 15 1133 
3 298 886 1134 
3 114 115 1136 
3 996 279 1139 
3 739 740 1137 
3 556 929 1135 
3 738 736 1140 
3 1056 741 1120 
3 1133 15 1147 
3 306 248 1146 
3 668 1067 1124 
3 848 912 1143 
3 15 16 1147 
3 700 1006 1138 
3 871 264 1150 
3 982 848 1150 
3 715 714 1148 
3 718 719 1149 
3 635 585 1144 
3 970 690 1141 
3 310 1045 1126 
3 1046 651 1129 
3 652 1047 1128 
3 1036 739 1137 
3 1143 871 1150 
3 848 1143 1150 
3 264 982 1150 
3 745 1058 1145 
3 1068 556 1135 
3 1080 635 1144 
3 1053 737 1131 
3 279 1074 1139 
3 1058 813 1145 
3 736 1088 1140 
3 786 1097 1142 
3 1075 700 1138 
3 805 1075 1138 
3 1105 306 1146 
3 1097 731 1142 
3 731 1102 1142 
3 1107 715 1148 
3 1110 871 1143 
3 751 1105 1146 
3 1132 786 1142 
3 131 174 175 
3 131 132 174 
3 132 173 174 
3 132 133 173 
3 133 172 173 
3 133 134 172 
3 134 171 172 
3 134 135 171 
3 135 170 171 
3 135 136 170 
3 136 169 170 
3 136 137 169 
3 137 168 169 
3 137 138 168 
3 168 138 167 
3 138 139 167 
3 139 166 167 
3 139 140 166 
3 87 152 1151 
3 140 165 166 
3 140 141 165 
3 141 164 165 
3 152 153 1151 
3 164 141 142 
3 152 87 154 
3 163 164 142 
3 143 163 142 
3 162 163 143 
3 144 162 143 
3 162 144 161 
3 144 145 161 
3 161 145 160 
3 145 146 160 
3 252 87 1151 
3 160 146 159 
3 146 147 159 
3 159 147 158 
3 147 148 158 
3 148 149 157 
3 148 157 158 
3 149 150 156 
3 157 149 156 
3 150 151 155 
3 151 152 154 
3 156 150 155 
3 155 151 154 
3 153 252 1151 
3 93 92 1152 
3 131 175 1152 
3 92 131 1152 
3 175 93 1152 
3 252 153 86 
3 174 175 176 
3 174 176 177 
3 173 174 177 
3 173 177 178 
3 172 173 178 
3 179 172 178 
3 179 171 172 
3 179 180 171 
3 180 170 171 
3 180 181 170 
3 181 169 170 
3 181 182 169 
3 182 168 169 
3 182 183 168 
3 168 183 167 
3 183 184 167 
3 184 166 167 
3 155 88 1153 
3 184 185 166 
3 185 165 166 
3 195 88 155 
3 185 186 165 
3 186 164 165 
3 186 187 164 
3 164 187 163 
3 187 188 163 
3 154 155 1153 
3 163 188 162 
3 188 189 162 
3 162 189 161 
3 189 190 161 
3 161 190 160 
3 190 191 160 
3 160 191 159 
3 191 192 159 
3 159 192 158 
3 192 193 158 
3 88 253 1153 
3 193 194 157 
3 193 157 158 
3 194 195 156 
3 157 194 156 
3 156 195 155 
3 253 154 1153 
3 93 94 1154 
3 176 175 1154 
3 94 176 1154 
3 175 93 1154 
3 253 87 154 
3 213 214 176 
3 177 213 176 
3 212 213 177 
3 178 212 177 
3 211 212 178 
3 179 211 178 
3 210 211 179 
3 180 210 179 
3 209 210 180 
3 209 180 181 
3 208 209 181 
3 182 208 181 
3 207 208 182 
3 183 207 182 
3 206 207 183 
3 184 206 183 
3 89 194 1155 
3 205 206 184 
3 205 184 185 
3 194 195 1155 
3 205 185 204 
3 204 185 186 
3 194 89 196 
3 203 204 186 
3 203 186 187 
3 202 203 187 
3 202 187 188 
3 201 202 188 
3 189 201 188 
3 254 89 1155 
3 200 201 189 
3 200 189 190 
3 199 200 190 
3 199 190 191 
3 198 191 192 
3 198 199 191 
3 192 193 197 
3 198 192 197 
3 193 194 196 
3 193 196 197 
3 195 254 1155 
3 95 94 1156 
3 176 214 1156 
3 94 176 1156 
3 214 95 1156 
3 195 88 254 
3 213 214 215 
3 216 213 215 
3 212 213 216 
3 217 212 216 
3 211 212 217 
3 218 211 217 
3 210 211 218 
3 219 210 218 
3 209 210 219 
3 220 209 219 
3 208 209 220 
3 221 208 220 
3 207 208 221 
3 207 221 222 
3 206 207 222 
3 197 90 1157 
3 223 206 222 
3 90 197 231 
3 206 223 205 
3 223 224 205 
3 205 224 204 
3 224 225 204 
3 225 203 204 
3 203 225 226 
3 196 197 1157 
3 203 226 202 
3 226 227 202 
3 227 201 202 
3 227 228 201 
3 228 200 201 
3 229 200 228 
3 200 229 199 
3 199 229 230 
3 198 230 231 
3 198 199 230 
3 90 255 1157 
3 197 198 231 
3 255 196 1157 
3 95 96 1158 
3 215 214 1158 
3 96 215 1158 
3 214 95 1158 
3 89 196 255 
3 246 247 215 
3 216 246 215 
3 245 246 216 
3 217 245 216 
3 244 245 217 
3 218 244 217 
3 243 244 218 
3 219 243 218 
3 242 243 219 
3 220 242 219 
3 241 242 220 
3 221 241 220 
3 240 241 221 
3 91 230 1159 
3 240 221 222 
3 239 240 222 
3 230 231 1159 
3 223 239 222 
3 239 223 238 
3 230 91 232 
3 223 224 238 
3 224 237 238 
3 224 225 237 
3 225 236 237 
3 225 226 236 
3 256 91 1159 
3 226 235 236 
3 226 227 235 
3 227 228 234 
3 227 234 235 
3 228 229 233 
3 228 233 234 
3 229 230 232 
3 229 232 233 
3 231 256 1159 
3 97 96 1160 
3 215 247 1160 
3 96 215 1160 
3 247 97 1160 
3 90 256 231 
3 246 247 98 
3 246 98 99 
3 245 246 99 
3 245 99 100 
3 244 245 100 
3 244 100 101 
3 243 244 101 
3 243 101 102 
3 242 243 102 
3 242 102 103 
3 241 242 103 
3 241 103 104 
3 233 82 1161 
3 240 241 104 
3 111 82 233 
3 240 104 105 
3 239 240 105 
3 106 239 105 
3 238 239 106 
3 107 238 106 
3 237 238 107 
3 237 107 108 
3 232 233 1161 
3 237 108 236 
3 108 109 236 
3 109 235 236 
3 109 110 235 
3 110 111 234 
3 235 110 234 
3 234 111 233 
3 82 257 1161 
3 257 232 1161 
3 97 1 1162 
3 98 247 1162 
3 1 98 1162 
3 247 97 1162 
3 257 91 232 

CELL_TYPES 2186
5
5
5
5
5
5
5
5
5
5
5
5
5
5
5
5
5
5
5
5
5
5
5
5
5
5
5
5
5
5
5
5
5
5
5
5
5
5
5
5
5
5
5
5
5
5
5
5
5
5
5
5
5
5
5
5
5
5
5
5
5
5
5
5
5
5
5
5
5
5
5
5
5
5
5
5
5
5
5
5
5
5
5
5
5
5
5
5
5
5
5
5
5
5
5
5
5
5
5
5
5
5
5
5
5
5
5
5
5
5
5
5
5
5
5
5
5
5
5
5
5
5
5
5
5
5
5
5
5
5
5
5
5
5
5
5
5
5
5
5
5
5
5
5
5
5
5
5
5
5
5
5
5
5
5
5
5
5
5
5
5
5
5
5
5
5
5
5
5
5
5
5
5
5
5
5
5
5
5
5
5
5
5
5
5
5
5
5
5
5
5
5
5
5
5
5
5
5
5
5
5
5
5
5
5
5
5
5
5
5
5
5
5
5
5
5
5
5
5
5
5
5
5
5
5
5
5
5
5
5
5
5
5
5
5
5
5
5
5
5
5
5
5
5
5
5
5
5
5
5
5
5
5
5
5
5
5
5
5
5
5
5
5
5
5
5
5
5
5
5
5
5
5
5
5
5
5
5
5
5
5
5
5
5
5
5
5
5
5
5
5
5
5
5
5
5
5
5
5
5
5
5
5
5
5
5
5
5
5
5
5
5
5
5
5
5
5
5
5
5
5
5
5
5
5
5
5
5
5
5
5
5
5
5
5
5
5
5
5
5
5
5
5
5
5
5
5
5
5
5
5
5
5
5
5
5
5
5
5
5
5
5
5
5
5
5
5
5
5
5
5
5
5
5
5
5
5
5
5
5
5
5
5
5
5
5
5
5
5
5
5
5
5
5
5
5
5
5
5
5
5
5
5
5
5
5
5
5
5
5
5
5
5
5
5
5
5
5
5
5
5
5
5
5
5
5
5
5
5
5
5
5
5
5
5
5
5
5
5
5
5
5
5
5
5
5
5
5
5
5
5
5
5
5
5
5
5
5
5
5
5
5
5
5
5
5
5
5
5
5
5
5
5
5
5
5
5
5
5
5
5
5
5
5
5
5
5
5
5
5
5
5
5
5
5
5
5
5
5
5
5
5
5
5
5
5
5
5
5
5
5
5
5
5
5
5
5
5
5
5
5
5
5
5
5
5
5
5
5
5
5
5
5
5
5
5
5
5
5
5
5
5
5
5
5
5
5
5
5
5
5
5
5
5
5
5
5
5
5
5
5
5
5
5
5
5
5
5
5
5
5
5
5
5
5
5
5
5
5
5
5
5
5
5
5
5
5
5
5
5
5
5
5
5
5
5
5
5
5
5
5
5
5
5
5
5
5
5
5
5
5
5
5
5
5
5
5
5
5
5
5
5
5
5
5
5
5
5
5
5
5
5
5
5
5
5
5
5
5
5
5
5
5
5
5
5
5
5
5
5
5
5
5
5
5
5
5
5
5
5
5
5
5
5
5
5
5
5
5
5
5
5
5
5
5
5
5
5
5
5
5
5
5
5
5
5
5
5
5
5
5
5
5
5
5
5
5
5
5
5
5
5
5
5
5
5
5
5
5
5
5
5
5
5
5
5
5
5
5
5
5
5
5
5
5
5
5
5
5
5
5
5
5
5
5
5
5
5
5
5
5
5
5
5
5
5
5
5
5
5
5
5
5
5
5
5
5
5
5
5
5
5
5
5
5
5
5
5
5
5
5
5
5
5
5
5
5
5
5
5
5
5
5
5
5
5
5
5
5
5
5
5
5
5
5
5
5
5
5
5
5
5
5
5
5
5
5
5
5
5
5
5
5
5
5
5
5
5
5
5
5
5
5
5
5
5
5
5
5
5
5
5
5
5
5
5
5
5
5
5
5
5
5
5
5
5
5
5
5
5
5
5
5
5
5
5
5
5
5
5
5
5
5
5
5
5
5
5
5
5
5
5
5
5
5
5
5
5
5
5
5
5
5
5
5
5
5
5
5
5
5
5
5
5
5
5
5
5
5
5
5
5
5
5
5
5
5
5
5
5
5
5
5
5
5
5
5
5
5
5
5
5
5
5
5
5
5
5
5
5
5
5
5
5
5
5
5
5
5
5
5
5
5
5
5
5
5
5
5
5
5
5
5
5
5
5
5
5
5
5
5
5
5
5
5
5
5
5
5
5
5
5
5
5
5
5
5
5
5
5
5
5
5
5
5
5
5
5
5
5
5
5
5
5
5
5
5
5
5
5
5
5
5
5
5
5
5
5
5
5
5
5
5
5
5
5
5
5
5
5
5
5
5
5
5
5
5
5
5
5
5
5
5
5
5
5
5
5
5
5
5
5
5
5
5
5
5
5
5
5
5
5
5
5
5
5
5
5
5
5
5
5
5
5
5
5
5
5
5
5
5
5
5
5
5
5
5
5
5
5
5
5
5
5
5
5
5
5
5
5
5
5
5
5
5
5
5
5
5
5
5
5
5
5
5
5
5
5
5
5
5
5
5
5
5
5
5
5
5
5
5
5
5
5
5
5
5
5
5
5
5
5
5
5
5
5
5
5
5
5
5
5
5
5
5
5
5
5
5
5
5
5
5
5
5
5
5
5
5
5
5
5
5
5
5
5
5
5
5
5
5
5
5
5
5
5
5
5
5
5
5
5
5
5
5
5
5
5
5
5
5
5
5
5
5
5
5
5
5
5
5
5
5
5
5
5
5
5
5
5
5
5
5
5
5
5
5
5
5
5
5
5
5
5
5
5
5
5
5
5
5
5
5
5
5
5
5
5
5
5
5
5
5
5
5
5
5
5
5
5
5
5
5
5
5
5
5
5
5
5
5
5
5
5
5
5
5
5
5
5
5
5
5
5
5
5
5
5
5
5
5
5
5
5
5
5
5
5
5
5
5
5
5
5
5
5
5
5
5
5
5
5
5
5
5
5
5
5
5
5
5
5
5
5
5
5
5
5
5
5
5
5
5
5
5
5
5
5
5
5
5
5
5
5
5
5
5
5
5
5
5
5
5
5
5
5
5
5
5
5
5
5
5
5
5
5
5
5
5
5
5
5
5
5
5
5
5
5
5
5
5
5
5
5
5
5
5
5
5
5
5
5
5
5
5
5
5
5
5
5
5
5
5
5
5
5
5
5
5
5
5
5
5
5
5
5
5
5
5
5
5
5
5
5
5
5
5
5
5
5
5
5
5
5
5
5
5
5
5
5
5
5
5
5
5
5
5
5
5
5
5
5
5
5
5
5
5
5
5
5
5
5
5
5
5
5
5
5
5
5
5
5
5
5
5
5
5
5
5
5
5
5
5
5
5
5
5
5
5
5
5
5
5
5
5
5
5
5
5
5
5
5
5
5
5
5
5
5
5
5
5
5
5
5
5
5
5
5
5
5
5
5
5
5
5
5
5
5
5
5
5
5
5
5
5
5
5
5
5
5
5
5
5
5
5
5
5
5
5
5
5
5
5
5
5
5
5
5
5
5
5
5
5
5
5
5
5
5
5
5
5
5
5
5
5
5
5
5
5
5
5
5
5
5
5
5
5
5
5
5
5
5
5
5
5
5
5
5
5
5
5
5
5
5
5
5
5
5
5
5
5
5
5
5
5
5
5
5
5
5
5
5
5
5
5
5
5
5
5
5
5
5
5
5
5
5
5
5
5
5
5
5
5
5
5
5
5
5
5
5
5
5
5
5
5
5
5
5
5
5
5
5
5
5
5
5
5
5
5
5
5
5
5
5
5
5
5
5
5
5
5
5
5
5
5
5
5
5
5
5
5
5
5
5
5
5
5
5
5
5
5
5
5
5
5
5
5
5
5
5
5
5
5
5
5
5
5
5
5
5
5
5
5
5
5
5
5
5
5
5
5
5
5
5
5
5
5
5
5
5
5
5
5
5
5
5
5
5
5
5
5
5
5
5
5
5
5
5
5
5
5
5
5
5
5
5
5
5
5
5
5
5
5
5
5
5
5
5
5
5
5
5
5
5
5
5
5
5
5
5
5
5
5
5
5
5
5
5
5
5
5
5
5
5
5
5
5
5
5
5
5
5
5
5
5
5
5
5
5
5
5
5
5
5
5
5
5
5
5
5
5
5
5
5
5
5
5
5
5
5
5
5
5
5
5
5
5
5
5
5
5
5
5
5
5
5
5
5
5
5
5
5
5
5
5
5
5
5
5
5
5
5
5
5
5
5
5
5
5
5
5
5
5
5
5
5
5
5
5
5
5
5
5
5
5
5
5
5
5
5
5
5
5
5
5
5
5
5
5
5
5
5
5
5
5
5
5
5
5
5
5
5
5
5
5
5
5
5
5
5
5
5
5
5
5
5
5
5
5
5
5
5
5
5
5
5
5
5
5
5
5
5
5
5
5
5
5
5
5
5
5
5
5
5
5
5
5
5
5
5
5
5
5
5
5
5
5
5
5
5
5
5
5
5
5
5
5
5
5
5
5
5
5
5
5
5
5
5
5
5
5
5
5
5
5
5
5
5
5
5
5
5
5
5
5
5
5
5
5
5
5
5
5
5
5
5
5
5
5
5
5
5
5
5
5
5
5
5
5
5
5
5
5
5
5
5
5
5
5
5
5
5
5
5
5
5
5
5
5
5
5
5
5
5
5
5
5
5
5
5
5
5
5
5
5
5
5
5
5
5
5
5
5
5
5
5
5
5
5
5
5
5
5
5
5
5
5
5
5
5
5
5
5
5
5
5
5
5
5
5
5
5
5
5
5
5
5
5
5
5
5
5
5
5
5
5
5
5
5
5
5
5
5
5
5
5
5
5
5
5
5
5
5
5
5
5
5
5
5
5
5
5
5
5
5
5
5
5
5
5
5
5
5
5
5
5
5
5
5
5
5
5
5
5
5
5
5
5
5
5
5
5
5
5
5
5
5
5
5
5
5
5
5
5
5
5

POINT_DATA 1163

VECTORS coord float
0.0 0.0 0.0 
5.000000000000e+01 -1.000000000000e+01 0.0 
0.0 -2.000000000000e+01 0.0 
5.000000000000e+01 -2.000000000000e+01 0.0 
0.0 -9.999999999991e-01 0.0 
0.0 -1.999999999998e+00 0.0 
0.0 -2.999999999997e+00 0.0 
0.0 -3.999999999994e+00 0.0 
0.0 -4.999999999991e+00 0.0 
0.0 -5.999999999988e+00 0.0 
0.0 -6.999999999985e+00 0.0 
0.0 -7.999999999982e+00 0.0 
0.0 -8.999999999983e+00 0.0 
0.0 -9.999999999985e+00 0.0 
0.0 -1.099999999999e+01 0.0 
0.0 -1.199999999999e+01 0.0 
0.0 -1.299999999999e+01 0.0 
0.0 -1.399999999999e+01 0.0 
0.0 -1.499999999999e+01 0.0 
0.0 -1.599999999999e+01 0.0 
0.0 -1.700000000000e+01 0.0 
0.0 -1.800000000000e+01 0.0 
0.0 -1.900000000000e+01 0.0 
4.900000000001e+01 -2.000000000000e+01 0.0 
4.800000000001e+01 -2.000000000000e+01 0.0 
4.700000000002e+01 -2.000000000000e+01 0.0 
4.600000000003e+01 -2.000000000000e+01 0.0 
4.500000000004e+01 -2.000000000000e+01 0.0 
4.400000000004e+01 -2.000000000000e+01 0.0 
4.300000000005e+01 -2.000000000000e+01 0.0 
4.200000000006e+01 -2.000000000000e+01 0.0 
4.100000000006e+01 -2.000000000000e+01 0.0 
4.000000000007e+01 -2.000000000000e+01 0.0 
3.900000000008e+01 -2.000000000000e+01 0.0 
3.800000000009e+01 -2.000000000000e+01 0.0 
3.700000000009e+01 -2.000000000000e+01 0.0 
3.600000000010e+01 -2.000000000000e+01 0.0 
3.500000000011e+01 -2.000000000000e+01 0.0 
3.400000000011e+01 -2.000000000000e+01 0.0 
3.300000000012e+01 -2.000000000000e+01 0.0 
3.200000000013e+01 -2.000000000000e+01 0.0 
3.100000000013e+01 -2.000000000000e+01 0.0 
3.000000000013e+01 -2.000000000000e+01 0.0 
2.900000000013e+01 -2.000000000000e+01 0.0 
2.800000000013e+01 -2.000000000000e+01 0.0 
2.700000000013e+01 -2.000000000000e+01 0.0 
2.600000000013e+01 -2.000000000000e+01 0.0 
2.500000000013e+01 -2.000000000000e+01 0.0 
2.400000000013e+01 -2.000000000000e+01 0.0 
2.300000000013e+01 -2.000000000000e+01 0.0 
2.200000000013e+01 -2.000000000000e+01 0.0 
2.100000000013e+01 -2.000000000000e+01 0.0 
2.000000000013e+01 -2.000000000000e+01 0.0 
1.900000000013e+01 -2.000000000000e+01 0.0 
1.800000000013e+01 -2.000000000000e+01 0.0 
1.700000000012e+01 -2.000000000000e+01 0.0 
1.600000000011e+01 -2.000000000000e+01 0.0 
1.500000000011e+01 -2.000000000000e+01 0.0 
1.400000000010e+01 -2.000000000000e+01 0.0 
1.300000000009e+01 -2.000000000000e+01 0.0 
1.200000000009e+01 -2.000000000000e+01 0.0 
1.100000000008e+01 -2.000000000000e+01 0.0 
1.000000000007e+01 -2.000000000000e+01 0.0 
9.000000000064e+00 -2.000000000000e+01 0.0 
8.000000000057e+00 -2.000000000000e+01 0.0 
7.000000000050e+00 -2.000000000000e+01 0.0 
6.000000000043e+00 -2.000000000000e+01 0.0 
5.000000000036e+00 -2.000000000000e+01 0.0 
4.000000000028e+00 -2.000000000000e+01 0.0 
3.000000000021e+00 -2.000000000000e+01 0.0 
2.000000000014e+00 -2.000000000000e+01 0.0 
1.000000000007e+00 -2.000000000000e+01 0.0 
5.000000000000e+01 -1.100000000000e+01 0.0 
5.000000000000e+01 -1.200000000000e+01 0.0 
5.000000000000e+01 -1.300000000000e+01 0.0 
5.000000000000e+01 -1.400000000000e+01 0.0 
5.000000000000e+01 -1.500000000000e+01 0.0 
5.000000000000e+01 -1.600000000000e+01 0.0 
5.000000000000e+01 -1.700000000000e+01 0.0 
5.000000000000e+01 -1.800000000000e+01 0.0 
5.000000000000e+01 -1.900000000000e+01 0.0 
2.000000000000e+01 0.0 0.0 
3.500000000000e+01 -1.000000000000e+01 0.0 
2.150000000000e+01 -1.000000000000e+00 0.0 
2.300000000000e+01 -2.000000000000e+00 0.0 
2.450000000000e+01 -3.000000000000e+00 0.0 
2.600000000000e+01 -4.000000000000e+00 0.0 
2.750000000000e+01 -5.000000000000e+00 0.0 
2.900000000000e+01 -6.000000000000e+00 0.0 
3.050000000000e+01 -7.000000000000e+00 0.0 
3.200000000000e+01 -8.000000000000e+00 0.0 
3.350000000000e+01 -9.000000000000e+00 0.0 
5.000000000000e+01 -4.000000000000e+00 0.0 
5.000000000000e+01 -5.000000000000e+00 0.0 
5.000000000000e+01 -6.000000000000e+00 0.0 
5.000000000000e+01 -7.000000000000e+00 0.0 
5.000000000000e+01 -8.000000000000e+00 0.0 
5.000000000000e+01 -9.000000000000e+00 0.0 
4.900000000000e+01 -1.000000000000e+01 0.0 
4.800000000000e+01 -1.000000000000e+01 0.0 
4.700000000000e+01 -1.000000000000e+01 0.0 
4.600000000000e+01 -1.000000000000e+01 0.0 
4.500000000000e+01 -1.000000000000e+01 0.0 
4.400000000000e+01 -1.000000000000e+01 0.0 
4.300000000000e+01 -1.000000000000e+01 0.0 
4.200000000000e+01 -1.000000000000e+01 0.0 
4.100000000000e+01 -1.000000000000e+01 0.0 
4.000000000000e+01 -1.000000000000e+01 0.0 
3.900000000000e+01 -1.000000000000e+01 0.0 
3.800000000000e+01 -1.000000000000e+01 0.0 
3.700000000000e+01 -1.000000000000e+01 0.0 
3.600000000000e+01 -1.000000000000e+01 0.0 
1.900000000000e+01 0.0 0.0 
1.800000000000e+01 0.0 0.0 
1.700000000000e+01 0.0 0.0 
1.600000000000e+01 0.0 0.0 
1.500000000000e+01 0.0 0.0 
1.400000000000e+01 0.0 0.0 
1.300000000000e+01 0.0 0.0 
1.200000000000e+01 0.0 0.0 
1.100000000000e+01 0.0 0.0 
1.000000000000e+01 0.0 0.0 
9.000000000000e+00 0.0 0.0 
8.000000000000e+00 0.0 0.0 
7.000000000000e+00 0.0 0.0 
6.000000000000e+00 0.0 0.0 
5.000000000000e+00 0.0 0.0 
4.000000000000e+00 0.0 0.0 
3.000000000000e+00 0.0 0.0 
2.000000000000e+00 0.0 0.0 
1.000000000000e+00 0.0 0.0 
4.900000000000e+01 -4.000000000000e+00 0.0 
4.800000000000e+01 -4.000000000000e+00 0.0 
4.700000000000e+01 -4.000000000000e+00 0.0 
4.600000000000e+01 -4.000000000000e+00 0.0 
4.500000000000e+01 -4.000000000000e+00 0.0 
4.400000000000e+01 -4.000000000000e+00 0.0 
4.300000000000e+01 -4.000000000000e+00 0.0 
4.200000000000e+01 -4.000000000000e+00 0.0 
4.100000000000e+01 -4.000000000000e+00 0.0 
4.000000000000e+01 -4.000000000000e+00 0.0 
3.900000000000e+01 -4.000000000000e+00 0.0 
3.800000000000e+01 -4.000000000000e+00 0.0 
3.700000000000e+01 -4.000000000000e+00 0.0 
3.600000000000e+01 -4.000000000000e+00 0.0 
3.500000000000e+01 -4.000000000000e+00 0.0 
3.400000000000e+01 -4.000000000000e+00 0.0 
3.300000000000e+01 -4.000000000000e+00 0.0 
3.200000000000e+01 -4.000000000000e+00 0.0 
3.100000000000e+01 -4.000000000000e+00 0.0 
3.000000000000e+01 -4.000000000000e+00 0.0 
2.900000000000e+01 -4.000000000000e+00 0.0 
2.800000000000e+01 -4.000000000000e+00 0.0 
2.700000000000e+01 -4.000000000000e+00 0.0 
2.847826086957e+01 -5.000000000000e+00 0.0 
2.945652173913e+01 -5.000000000000e+00 0.0 
3.043478260870e+01 -5.000000000000e+00 0.0 
3.141304347826e+01 -5.000000000000e+00 0.0 
3.239130434783e+01 -5.000000000000e+00 0.0 
3.336956521739e+01 -5.000000000000e+00 0.0 
3.434782608696e+01 -5.000000000000e+00 0.0 
3.532608695652e+01 -5.000000000000e+00 0.0 
3.630434782609e+01 -5.000000000000e+00 0.0 
3.728260869565e+01 -5.000000000000e+00 0.0 
3.826086956522e+01 -5.000000000000e+00 0.0 
3.923913043478e+01 -5.000000000000e+00 0.0 
4.021739130435e+01 -5.000000000000e+00 0.0 
4.119565217391e+01 -5.000000000000e+00 0.0 
4.217391304348e+01 -5.000000000000e+00 0.0 
4.315217391304e+01 -5.000000000000e+00 0.0 
4.413043478261e+01 -5.000000000000e+00 0.0 
4.510869565217e+01 -5.000000000000e+00 0.0 
4.608695652174e+01 -5.000000000000e+00 0.0 
4.706521739130e+01 -5.000000000000e+00 0.0 
4.804347826087e+01 -5.000000000000e+00 0.0 
4.902173913043e+01 -5.000000000000e+00 0.0 
4.900000000001e+01 -6.000000000000e+00 0.0 
4.800000000003e+01 -6.000000000000e+00 0.0 
4.700000000004e+01 -6.000000000000e+00 0.0 
4.600000000006e+01 -6.000000000000e+00 0.0 
4.500000000007e+01 -6.000000000000e+00 0.0 
4.400000000009e+01 -6.000000000000e+00 0.0 
4.300000000010e+01 -6.000000000000e+00 0.0 
4.200000000012e+01 -6.000000000000e+00 0.0 
4.100000000013e+01 -6.000000000000e+00 0.0 
4.000000000014e+01 -6.000000000000e+00 0.0 
3.900000000014e+01 -6.000000000000e+00 0.0 
3.800000000012e+01 -6.000000000000e+00 0.0 
3.700000000010e+01 -6.000000000000e+00 0.0 
3.600000000008e+01 -6.000000000000e+00 0.0 
3.500000000006e+01 -6.000000000000e+00 0.0 
3.400000000005e+01 -6.000000000000e+00 0.0 
3.300000000003e+01 -6.000000000000e+00 0.0 
3.200000000001e+01 -6.000000000000e+00 0.0 
3.100000000000e+01 -6.000000000000e+00 0.0 
3.000000000000e+01 -6.000000000000e+00 0.0 
3.147499999998e+01 -7.000000000000e+00 0.0 
3.244999999998e+01 -7.000000000000e+00 0.0 
3.342499999998e+01 -7.000000000000e+00 0.0 
3.439999999998e+01 -7.000000000000e+00 0.0 
3.537499999998e+01 -7.000000000000e+00 0.0 
3.634999999998e+01 -7.000000000000e+00 0.0 
3.732499999998e+01 -7.000000000000e+00 0.0 
3.829999999998e+01 -7.000000000000e+00 0.0 
3.927499999999e+01 -7.000000000000e+00 0.0 
4.024999999999e+01 -7.000000000000e+00 0.0 
4.122499999999e+01 -7.000000000000e+00 0.0 
4.219999999999e+01 -7.000000000000e+00 0.0 
4.317499999999e+01 -7.000000000000e+00 0.0 
4.414999999999e+01 -7.000000000000e+00 0.0 
4.512499999999e+01 -7.000000000000e+00 0.0 
4.609999999999e+01 -7.000000000000e+00 0.0 
4.707500000000e+01 -7.000000000000e+00 0.0 
4.805000000000e+01 -7.000000000000e+00 0.0 
4.902500000000e+01 -7.000000000000e+00 0.0 
4.900000000000e+01 -8.000000000000e+00 0.0 
4.800000000000e+01 -8.000000000000e+00 0.0 
4.700000000000e+01 -8.000000000000e+00 0.0 
4.600000000000e+01 -8.000000000000e+00 0.0 
4.500000000000e+01 -8.000000000000e+00 0.0 
4.400000000000e+01 -8.000000000000e+00 0.0 
4.300000000000e+01 -8.000000000000e+00 0.0 
4.200000000000e+01 -8.000000000000e+00 0.0 
4.100000000000e+01 -8.000000000000e+00 0.0 
4.000000000000e+01 -8.000000000000e+00 0.0 
3.900000000000e+01 -8.000000000000e+00 0.0 
3.800000000000e+01 -8.000000000000e+00 0.0 
3.700000000000e+01 -8.000000000000e+00 0.0 
3.600000000000e+01 -8.000000000000e+00 0.0 
3.500000000000e+01 -8.000000000000e+00 0.0 
3.400000000000e+01 -8.000000000000e+00 0.0 
3.300000000000e+01 -8.000000000000e+00 0.0 
3.447058823527e+01 -9.000000000000e+00 0.0 
3.544117647055e+01 -9.000000000000e+00 0.0 
3.641176470582e+01 -9.000000000000e+00 0.0 
3.738235294109e+01 -9.000000000000e+00 0.0 
3.835294117637e+01 -9.000000000000e+00 0.0 
3.932352941164e+01 -9.000000000000e+00 0.0 
4.029411764691e+01 -9.000000000000e+00 0.0 
4.126470588219e+01 -9.000000000000e+00 0.0 
4.223529411748e+01 -9.000000000000e+00 0.0 
4.320588235279e+01 -9.000000000000e+00 0.0 
4.417647058811e+01 -9.000000000000e+00 0.0 
4.514705882342e+01 -9.000000000000e+00 0.0 
4.611764705874e+01 -9.000000000000e+00 0.0 
4.708823529405e+01 -9.000000000000e+00 0.0 
4.805882352937e+01 -9.000000000000e+00 0.0 
4.902941176468e+01 -9.000000000000e+00 0.0 
2.075000000000e+01 -5.000000000006e-01 0.0 
2.225000000000e+01 -1.500000000000e+00 0.0 
2.375000000000e+01 -2.500000000000e+00 0.0 
2.525000000000e+01 -3.500000000000e+00 0.0 
2.675000000000e+01 -4.500000000000e+00 0.0 
2.825000000000e+01 -5.500000000000e+00 0.0 
2.975000000000e+01 -6.500000000000e+00 0.0 
3.125000000000e+01 -7.500000000000e+00 0.0 
3.275000000000e+01 -8.500000000000e+00 0.0 
3.425000000000e+01 -9.500000000000e+00 0.0 
2.226951693683e+01 -2.403913980114e+00 0.0 
1.650149491944e+01 -1.913490915758e+01 0.0 
1.050042386896e+01 -8.504605092970e-01 0.0 
1.553146524712e+01 -8.281255032105e-01 0.0 
1.150000000008e+01 -1.913397459621e+01 0.0 
2.530060260647e+01 -4.428336431260e+00 0.0 
8.651114563942e-01 -1.052096295641e+01 0.0 
2.050000000013e+01 -1.913397459622e+01 0.0 
2.819198729811e+01 -6.399519052838e+00 0.0 
2.445670302931e+01 -1.915649188023e+01 0.0 
3.117591465718e+01 -8.394293040695e+00 0.0 
7.465053044742e+00 -1.920411160581e+01 0.0 
6.398295709691e+00 -8.230098819370e-01 0.0 
2.849659607461e+01 -1.914296187762e+01 0.0 
3.418732642882e+01 -1.040265792588e+01 0.0 
8.386450935063e-01 -6.533605142809e+00 0.0 
9.178661865596e-01 -1.329769195597e+01 0.0 
3.149448624493e+01 -1.910466733764e+01 0.0 
3.552916747426e+01 -1.914628590759e+01 0.0 
4.449210346537e+01 -1.914359085008e+01 0.0 
4.140975975145e+01 -1.906941860733e+01 0.0 
3.847475958753e+01 -1.916622382724e+01 0.0 
3.653774794640e+01 -1.088712800241e+01 0.0 
4.047886341787e+01 -1.090139014048e+01 0.0 
4.348006339825e+01 -1.092792621489e+01 0.0 
4.919519968029e+01 -1.451526755068e+01 0.0 
4.500000000032e+00 -1.913397459621e+01 0.0 
1.856136921614e+01 -8.212235170404e-01 0.0 
3.499895312306e+00 -8.661165539723e-01 0.0 
9.076088696565e-01 -1.642306201891e+01 0.0 
4.655174095477e+01 -1.086183387525e+01 0.0 
9.430688970604e-01 -3.496112672958e+00 0.0 
3.353992337063e+01 -1.901202090820e+01 0.0 
2.249746016977e+01 -1.921262287282e+01 0.0 
2.650122741777e+01 -1.916123026018e+01 0.0 
1.863571384842e+01 -1.908325534840e+01 0.0 
1.450089971693e+01 -1.917691901860e+01 0.0 
1.350044695317e+01 -8.659695299584e-01 0.0 
3.849987469880e+01 -1.084154983397e+01 0.0 
9.454419857884e+00 -1.900818879936e+01 0.0 
4.917398660523e+01 -1.645692866081e+01 0.0 
8.500000000000e+00 -8.660254037844e-01 0.0 
8.660319230785e-01 -8.500111697188e+00 0.0 
4.649022621545e+01 -1.930506220113e+01 0.0 
2.667688107845e+01 -5.420288124331e+00 0.0 
2.379251615665e+01 -3.412225477429e+00 0.0 
2.966631491830e+01 -7.389030232731e+00 0.0 
3.267915035995e+01 -9.396934932445e+00 0.0 
2.074836922338e+01 -1.320054020319e+00 0.0 
4.915985743621e+01 -1.261973384855e+01 0.0 
2.527129768623e+00 -1.931592414663e+01 0.0 
1.538676247410e+00 -8.436956619311e-01 0.0 
4.908096641539e+01 -1.842484004551e+01 0.0 
3.478612492673e+01 -1.090889364140e+01 0.0 
3.409757055860e+01 -1.131991530427e+01 0.0 
3.501895309466e+01 -1.177687842717e+01 0.0 
3.407758073088e+01 -1.224293381580e+01 0.0 
3.484541875390e+01 -1.277051428430e+01 0.0 
3.400322025842e+01 -1.319022775640e+01 0.0 
3.321672625034e+01 -1.266779191233e+01 0.0 
3.315244139236e+01 -1.360984106532e+01 0.0 
3.236335186892e+01 -1.308463225210e+01 0.0 
3.478337442841e+01 -1.372341158982e+01 0.0 
3.230105923633e+01 -1.403023731610e+01 0.0 
3.150954055289e+01 -1.350301767700e+01 0.0 
3.144604792090e+01 -1.444931742516e+01 0.0 
3.065653897123e+01 -1.392357262981e+01 0.0 
3.071897610812e+01 -1.297447031198e+01 0.0 
2.986790411740e+01 -1.339226181535e+01 0.0 
2.993181466745e+01 -1.244703272398e+01 0.0 
2.908023061869e+01 -1.286254537734e+01 0.0 
2.901619051372e+01 -1.380881655279e+01 0.0 
2.822986160390e+01 -1.327695262116e+01 0.0 
2.829453476870e+01 -1.233265343811e+01 0.0 
2.744542905518e+01 -1.274510491105e+01 0.0 
2.751120089246e+01 -1.180368086886e+01 0.0 
2.666218649885e+01 -1.221619339205e+01 0.0 
2.672371209234e+01 -1.127125228527e+01 0.0 
2.587763216302e+01 -1.168539979114e+01 0.0 
2.581165585299e+01 -1.262994410089e+01 0.0 
2.502890882577e+01 -1.209827323619e+01 0.0 
2.509631327757e+01 -1.115492410304e+01 0.0 
2.424662989877e+01 -1.156630981079e+01 0.0 
2.431704046904e+01 -1.062389179334e+01 0.0 
2.346445438728e+01 -1.103427680694e+01 0.0 
2.339382552877e+01 -1.197964871788e+01 0.0 
2.260936050780e+01 -1.144513277642e+01 0.0 
2.268075012022e+01 -1.049911928216e+01 0.0 
2.182525737661e+01 -1.090920811464e+01 0.0 
2.189682319817e+01 -9.961716944568e+00 0.0 
2.104174127792e+01 -1.037266986667e+01 0.0 
2.111304367575e+01 -9.424179358711e+00 0.0 
2.025306185381e+01 -9.832727364719e+00 0.0 
2.018141124247e+01 -1.079140628871e+01 0.0 
1.938594498257e+01 -1.025147354112e+01 0.0 
1.946106490453e+01 -9.288010758448e+00 0.0 
1.858929958352e+01 -9.706319802516e+00 0.0 
1.851540991219e+01 -1.067205988724e+01 0.0 
1.771485303178e+01 -1.012504443115e+01 0.0 
1.764134552256e+01 -1.109360378538e+01 0.0 
1.683745148095e+01 -1.054496365337e+01 0.0 
1.691852964353e+01 -9.582555261178e+00 0.0 
1.603603813062e+01 -1.000160132379e+01 0.0 
1.595824239350e+01 -1.096750698862e+01 0.0 
1.515080624291e+01 -1.041639501931e+01 0.0 
1.523171602559e+01 -9.451711491453e+00 0.0 
1.434621060709e+01 -9.871956467464e+00 0.0 
1.426777178765e+01 -1.083749501371e+01 0.0 
1.345775282374e+01 -1.028803175500e+01 0.0 
1.354103873368e+01 -9.324918457162e+00 0.0 
1.265072018622e+01 -9.742612837270e+00 0.0 
1.257285762070e+01 -1.071557782384e+01 0.0 
1.175874815690e+01 -1.015972324288e+01 0.0 
1.184203019714e+01 -9.193604071377e+00 0.0 
1.094927709905e+01 -9.612103238656e+00 0.0 
1.086938022910e+01 -1.058685085646e+01 0.0 
1.005424098961e+01 -1.002939116380e+01 0.0 
9.977974613295e+00 -1.101324897989e+01 0.0 
1.012915646404e+01 -9.051815821181e+00 0.0 
9.237127782494e+00 -9.471239055559e+00 0.0 
9.308426593771e+00 -8.483376461131e+00 0.0 
8.418806073345e+00 -8.910712374517e+00 0.0 
2.253688464062e+01 -1.239459402279e+01 0.0 
8.495126726666e+00 -7.921646665254e+00 0.0 
9.389727383206e+00 -7.512103628377e+00 0.0 
7.601560812974e+00 -8.349460349344e+00 0.0 
7.525680547759e+00 -9.339736686940e+00 0.0 
7.677888324502e+00 -7.359727833346e+00 0.0 
6.782001206724e+00 -7.788454494773e+00 0.0 
6.858778622885e+00 -6.797338062822e+00 0.0 
2.196596590865e+01 -8.979025665442e+00 0.0 
2.816540108272e+01 -1.422634142353e+01 0.0 
5.961601194403e+00 -7.226824010712e+00 0.0 
6.038171749656e+00 -6.234825887079e+00 0.0 
6.936257279557e+00 -5.805287640737e+00 0.0 
6.115068918323e+00 -5.242109758768e+00 0.0 
3.564391741903e+01 -1.329240553876e+01 0.0 
3.558115605778e+01 -1.425902892003e+01 0.0 
3.645445282201e+01 -1.381970786460e+01 0.0 
3.639744204358e+01 -1.479198128612e+01 0.0 
3.727266909778e+01 -1.435399586226e+01 0.0 
5.216667013081e+00 -5.671788584287e+00 0.0 
3.220697293295e+01 -1.499594545107e+01 0.0 
3.551112158269e+01 -1.523479869250e+01 0.0 
2.836056961467e+01 -1.139032434851e+01 0.0 
2.516730388602e+01 -1.021382726837e+01 0.0 
1.844436907403e+01 -1.164097215196e+01 0.0 
5.885434318740e+00 -8.218694781467e+00 0.0 
5.064071066867e+00 -7.656614643901e+00 0.0 
4.988089103470e+00 -8.649722082718e+00 0.0 
1.079421050408e+01 -1.157014985435e+01 0.0 
9.902420005256e+00 -1.199903342656e+01 0.0 
1.071994252214e+01 -1.255727909771e+01 0.0 
9.826974788171e+00 -1.298659581767e+01 0.0 
1.064607883789e+01 -1.354595476388e+01 0.0 
9.751541265343e+00 -1.397556905071e+01 0.0 
8.932296185869e+00 -1.341553353988e+01 0.0 
8.856399248106e+00 -1.440570715508e+01 0.0 
8.036186803543e+00 -1.384470558472e+01 0.0 
1.057112875118e+01 -1.453516759081e+01 0.0 
1.146582585687e+01 -1.410539926903e+01 0.0 
7.959894480382e+00 -1.483563350928e+01 0.0 
7.138792279156e+00 -1.427465094140e+01 0.0 
7.062506792418e+00 -1.526615385482e+01 0.0 
6.240693558277e+00 -1.470508863040e+01 0.0 
6.316957575451e+00 -1.371212581281e+01 0.0 
5.418183007107e+00 -1.414253605022e+01 0.0 
5.494748364428e+00 -1.314886770603e+01 0.0 
1.756825565873e+01 -1.206433872514e+01 0.0 
1.837565773345e+01 -1.261356468266e+01 0.0 
1.749574831391e+01 -1.303769280014e+01 0.0 
1.830539187332e+01 -1.358828364284e+01 0.0 
1.742278925170e+01 -1.401367746928e+01 0.0 
1.823303007798e+01 -1.456432294258e+01 0.0 
1.734941694138e+01 -1.499213734361e+01 0.0 
1.653760041637e+01 -1.443920312098e+01 0.0 
3.056237977307e+01 -1.487132260174e+01 0.0 
1.866469084762e+01 -8.742953000418e+00 0.0 
1.953669694916e+01 -8.326038909849e+00 0.0 
1.874194303780e+01 -7.780688158966e+00 0.0 
1.961032016741e+01 -7.366854697285e+00 0.0 
1.881715755159e+01 -6.821102209649e+00 0.0 
1.968369797150e+01 -6.407747217358e+00 0.0 
1.889237123259e+01 -5.858375520026e+00 0.0 
1.802038875366e+01 -6.276202618170e+00 0.0 
1.809793837984e+01 -5.307629520489e+00 0.0 
1.721985207997e+01 -5.728242054488e+00 0.0 
1.729850893523e+01 -4.756990819347e+00 0.0 
1.641745664240e+01 -5.174636548624e+00 0.0 
2.495978509456e+01 -1.304406404294e+01 0.0 
1.911567814831e+01 -1.413854250293e+01 0.0 
1.904387332608e+01 -1.511463127723e+01 0.0 
1.992115934240e+01 -1.468788025898e+01 0.0 
7.013706899628e+00 -4.812582868662e+00 0.0 
5.342091874585e+00 -1.513658157269e+01 0.0 
1.139098043784e+01 -1.509488509480e+01 0.0 
1.228151810610e+01 -1.465617481983e+01 0.0 
1.646373110164e+01 -1.541993323337e+01 0.0 
5.293328636712e+00 -4.678385108584e+00 0.0 
1.975965862987e+01 -5.448124345648e+00 0.0 
2.054318374236e+01 -5.992561293251e+00 0.0 
3.721453439063e+01 -1.533216152738e+01 0.0 
3.809302733893e+01 -1.489235527381e+01 0.0 
1.220852788900e+01 -1.565304565230e+01 0.0 
4.394120899730e+00 -5.108397613210e+00 0.0 
8.779354620288e+00 -1.539524721159e+01 0.0 
1.817791047702e+01 -4.338570146253e+00 0.0 
4.518860013839e+00 -1.457343189307e+01 0.0 
4.442712140414e+00 -1.556841391069e+01 0.0 
8.115343466391e+00 -1.285760324283e+01 0.0 
1.985334703171e+01 -1.566478400426e+01 0.0 
2.071953850276e+01 -1.522074243119e+01 0.0 
1.634012953883e+01 -6.154777738301e+00 0.0 
1.553479994708e+01 -5.593730508879e+00 0.0 
1.561265946942e+01 -4.617761762647e+00 0.0 
1.470674212978e+01 -5.064576488228e+00 0.0 
1.464498299883e+01 -6.026514471420e+00 0.0 
1.383271561817e+01 -5.467796261169e+00 0.0 
1.389241253067e+01 -4.504338666645e+00 0.0 
1.301868735463e+01 -4.907185188626e+00 0.0 
1.294514184846e+01 -5.888160903592e+00 0.0 
1.212955968622e+01 -5.328262335277e+00 0.0 
1.220721122383e+01 -4.341264976687e+00 0.0 
1.131324345897e+01 -4.766773516508e+00 0.0 
5.266597955397e+00 -1.613148974258e+01 0.0 
1.737805990867e+01 -3.786677807525e+00 0.0 
3.078438094513e+01 -1.203225297748e+01 0.0 
1.131569882285e+01 -1.608511932110e+01 0.0 
1.728478341782e+01 -1.596017432313e+01 0.0 
3.803465906019e+01 -1.587509751228e+01 0.0 
3.891681276677e+01 -1.543395196905e+01 0.0 
3.897340985302e+01 -1.444710288980e+01 0.0 
3.980095968193e+01 -1.499059496613e+01 0.0 
3.974334598189e+01 -1.597921884150e+01 0.0 
4.062964983717e+01 -1.553518690417e+01 0.0 
4.068729602479e+01 -1.454434445295e+01 0.0 
4.151772679790e+01 -1.508974196007e+01 0.0 
4.157505195739e+01 -1.409694289912e+01 0.0 
4.240699932656e+01 -1.464347955968e+01 0.0 
4.234898051011e+01 -1.563721375790e+01 0.0 
4.323934606035e+01 -1.519082036405e+01 0.0 
4.329740528208e+01 -1.419587509788e+01 0.0 
4.413056841369e+01 -1.474359631875e+01 0.0 
4.418850110108e+01 -1.374786684042e+01 0.0 
4.502219770667e+01 -1.429605103525e+01 0.0 
4.496411937907e+01 -1.529215882720e+01 0.0 
4.490027319897e+00 -4.154167794594e+00 0.0 
1.565080385988e+01 -1.486411982419e+01 0.0 
1.557610691279e+01 -1.584855627870e+01 0.0 
4.195350646612e+00 -8.089117689096e+00 0.0 
4.124027797830e+00 -9.082831955007e+00 0.0 
4.917944318925e+00 -9.643530901533e+00 0.0 
4.020105689502e+00 -1.007439673661e+01 0.0 
4.587185899277e+01 -1.484039992728e+01 0.0 
4.580078661551e+01 -1.584043391042e+01 0.0 
2.061956522375e+01 -5.046701343981e+00 0.0 
2.139572955529e+01 -5.579553449826e+00 0.0 
3.715344357292e+01 -1.631485124583e+01 0.0 
3.618886196443e+00 -1.500471207167e+01 0.0 
3.695606940204e+00 -1.400939692294e+01 0.0 
2.438890661143e+01 -9.686110599723e+00 0.0 
2.523267572778e+01 -9.276766000622e+00 0.0 
2.446094171539e+01 -8.751904591412e+00 0.0 
2.529089822738e+01 -8.321495612547e+00 0.0 
2.606882688827e+01 -8.864724051119e+00 0.0 
2.452116646430e+01 -7.792756462004e+00 0.0 
1.235543269617e+01 -1.365845617339e+01 0.0 
4.318116874181e+01 -1.618567469992e+01 0.0 
7.835066111909e+00 -5.376366223896e+00 0.0 
7.905687335704e+00 -4.382539065697e+00 0.0 
3.542640009567e+00 -1.600035116542e+01 0.0 
1.572431503071e+01 -1.388358386695e+01 0.0 
2.574684696680e+01 -1.357896141127e+01 0.0 
2.488842657651e+01 -1.399674354505e+01 0.0 
2.568301775611e+01 -1.453552048595e+01 0.0 
2.481535572009e+01 -1.495542756508e+01 0.0 
2.561729699688e+01 -1.549784648532e+01 0.0 
2.474623061296e+01 -1.592058894178e+01 0.0 
2.394234041695e+01 -1.537572575827e+01 0.0 
2.065825452567e+01 -1.621899055217e+01 0.0 
2.387180528935e+01 -1.634552264687e+01 0.0 
4.585364400844e+01 -1.383912334080e+01 0.0 
1.998744432052e+01 -1.370317155541e+01 0.0 
1.205356951443e+01 -6.313580285498e+00 0.0 
5.396543905849e+00 -3.731818611283e+00 0.0 
1.139652573295e+01 -3.745819399350e+00 0.0 
3.574124306703e+00 -4.551456826011e+00 0.0 
3.494140761930e+00 -5.539787055649e+00 0.0 
1.213651452413e+01 -1.664505033022e+01 0.0 
2.555045568519e+01 -1.646529356744e+01 0.0 
2.641671114986e+01 -1.603899382371e+01 0.0 
2.612920721894e+01 -7.906435260873e+00 0.0 
2.690339829698e+01 -8.456969591431e+00 0.0 
1.978024383368e+01 -1.664410216353e+01 0.0 
3.732829979082e+01 -1.336926601859e+01 0.0 
4.074336584605e+01 -1.355133328401e+01 0.0 
4.163204691081e+01 -1.310280943992e+01 0.0 
3.773826114429e+00 -3.493444309145e+00 0.0 
1.228783001032e+01 -3.374822835872e+00 0.0 
4.057110462520e+01 -1.652588478000e+01 0.0 
2.132535497898e+01 -6.523623360525e+00 0.0 
2.216932532211e+01 -6.110044769206e+00 0.0 
1.825781152128e+01 -3.370146817147e+00 0.0 
1.745679445888e+01 -2.812942552063e+00 0.0 
4.666517057280e+01 -1.539981381543e+01 0.0 
4.660575894464e+01 -1.639014410186e+01 0.0 
4.838230979954e+00 -1.063643436446e+01 0.0 
3.938942630206e+00 -1.106778981745e+01 0.0 
1.302967218620e+01 -1.621373452436e+01 0.0 
1.049548003190e+01 -4.204825123240e+00 0.0 
4.573571907195e+01 -1.683820511148e+01 0.0 
1.483686335807e+01 -1.430849689310e+01 0.0 
1.490982658890e+01 -1.332679386284e+01 0.0 
3.190805600162e+00 -9.510968358545e+00 0.0 
2.146625721848e+01 -4.642437303115e+00 0.0 
2.069866208266e+01 -4.111852942193e+00 0.0 
1.286859345584e+01 -6.873252723348e+00 0.0 
1.041794493184e+01 -5.194814260291e+00 0.0 
2.671081808965e+00 -4.976806516331e+00 0.0 
1.295786792925e+01 -1.720506531799e+01 0.0 
3.968438206511e+01 -1.696869067241e+01 0.0 
2.308550456051e+01 -1.579963151273e+01 0.0 
2.315593682844e+01 -1.482967445235e+01 0.0 
2.299471449450e+01 -1.677069968132e+01 0.0 
1.057344714696e+01 -3.214252277840e+00 0.0 
1.124057603753e+01 -1.707713739755e+01 0.0 
2.718402535754e+00 -1.543629882103e+01 0.0 
2.638549692805e+01 -1.696744916809e+01 0.0 
2.723416349007e+01 -1.658104204545e+01 0.0 
2.210193351704e+01 -7.046769643417e+00 0.0 
2.295180925161e+01 -6.657397605239e+00 0.0 
2.301355235833e+01 -5.709111896800e+00 0.0 
2.379052718281e+01 -6.254965406962e+00 0.0 
3.243528601237e+01 -1.214181853533e+01 0.0 
2.287977995457e+01 -7.583722368300e+00 0.0 
2.999876029544e+01 -1.150837653096e+01 0.0 
3.084435366963e+01 -1.109693775882e+01 0.0 
3.006650579669e+01 -1.057778994262e+01 0.0 
2.683802665066e+01 -9.386863216633e+00 0.0 
2.768641973621e+01 -8.988883915666e+00 0.0 
2.040296980397e+01 -7.903629133404e+00 0.0 
1.925235024054e+01 -1.218872783130e+01 0.0 
5.735667000424e+00 -1.020577277283e+01 0.0 
6.396559909872e+00 -1.272326295703e+01 0.0 
1.161199420714e+01 -1.212812778229e+01 0.0 
4.229046132615e+01 -1.663084237572e+01 0.0 
4.312275399692e+01 -1.718087491556e+01 0.0 
4.335502068163e+01 -1.320039231514e+01 0.0 
4.424630298089e+01 -1.275160688731e+01 0.0 
7.090116643816e+00 -3.818998061530e+00 0.0 
7.989472176569e+00 -3.389238711200e+00 0.0 
9.085824861778e+00 -1.144036167408e+01 0.0 
1.041972423731e+01 -1.651614080893e+01 0.0 
3.797525112640e+01 -1.686052038746e+01 0.0 
3.709114253394e+01 -1.730125999865e+01 0.0 
3.626966748340e+01 -1.675477052919e+01 0.0 
1.385164591440e+01 -1.677597757552e+01 0.0 
1.787152588784e+01 -8.198993896093e+00 0.0 
1.668849729812e+01 -1.248560611628e+01 0.0 
1.659546177905e+01 -3.232482605530e+00 0.0 
2.332214717345e+01 -1.292598167641e+01 0.0 
7.168238450786e+00 -2.824711686516e+00 0.0 
2.894878403906e+01 -1.475427524446e+01 0.0 
2.646763248247e+00 -1.643270107952e+01 0.0 
3.467431944285e+00 -1.699648837348e+01 0.0 
2.059475877282e+01 -1.719473628526e+01 0.0 
3.333868355437e+01 -1.080596971682e+01 0.0 
2.246451062637e+01 -1.334557761546e+01 0.0 
2.167821896388e+01 -1.280847834858e+01 0.0 
3.089653185767e+01 -1.017198487212e+01 0.0 
3.012604365669e+01 -9.657298805968e+00 0.0 
2.929627299435e+01 -1.006100135274e+01 0.0 
2.936201435219e+01 -9.136748899251e+00 0.0 
1.198219052702e+01 -7.291887238230e+00 0.0 
1.116702076035e+01 -6.731976101053e+00 0.0 
2.551388807505e+01 -1.746927036981e+01 0.0 
2.378639090370e+01 -1.728678807149e+01 0.0 
2.718543627188e+01 -1.748668016909e+01 0.0 
2.804681050301e+01 -1.712626668293e+01 0.0 
1.970737034667e+01 -1.762317646822e+01 0.0 
1.889535776135e+01 -1.707158098231e+01 0.0 
2.593777711283e+00 -5.971157087874e+00 0.0 
2.773468281110e+01 -8.067164273938e+00 0.0 
4.051205884347e+01 -1.751819982458e+01 0.0 
3.166903145421e+01 -1.068032992414e+01 0.0 
1.033042452886e+01 -1.748285844336e+01 0.0 
9.519274604626e+00 -1.694349240233e+01 0.0 
1.668308673328e+01 -2.255861778986e+00 0.0 
1.570531902832e+01 -2.676795860126e+00 0.0 
4.655826903379e+01 -1.736656245706e+01 0.0 
2.384148070773e+01 -5.328744256413e+00 0.0 
2.460255123641e+01 -5.852182672816e+00 0.0 
2.306638135119e+01 -4.798935440613e+00 0.0 
8.467720450578e-01 -1.849576263072e+01 0.0 
4.849657322345e+01 -1.084860705506e+01 0.0 
2.565860899507e+00 -1.742859793981e+01 0.0 
2.764418872564e+01 -9.927142821799e+00 0.0 
4.565165880064e+01 -1.785336695404e+01 0.0 
2.162231831329e+01 -1.376528337468e+01 0.0 
2.360646352969e+01 -9.136041963102e+00 0.0 
1.392738739903e+01 -1.578285505772e+01 0.0 
4.756405947478e+01 -1.683706841809e+01 0.0 
4.740895034054e+01 -1.793766756892e+01 0.0 
4.080779328826e+01 -1.257387192544e+01 0.0 
4.168907939671e+01 -1.210739129181e+01 0.0 
3.991197722154e+01 -1.300815793917e+01 0.0 
1.905536506762e+01 -3.940076697685e+00 0.0 
1.923879596617e+01 -2.875000734166e+00 0.0 
4.401386745746e+01 -1.673483229438e+01 0.0 
4.247233362525e+00 -7.094581653070e+00 0.0 
3.286051630211e+00 -7.635300020553e+00 0.0 
9.609533347623e+00 -4.594311677967e+00 0.0 
9.523554636369e+00 -5.595597029530e+00 0.0 
5.660336628893e+00 -1.119290329628e+01 0.0 
6.558070063295e+00 -1.076385809362e+01 0.0 
2.809866407414e+01 -1.518037766799e+01 0.0 
2.888868674504e+01 -1.570360690070e+01 0.0 
2.654431550819e+01 -1.411217777162e+01 0.0 
1.402158265969e+01 -1.375404617952e+01 0.0 
1.409592494026e+01 -1.277071998942e+01 0.0 
1.499355196178e+01 -1.235270737023e+01 0.0 
4.221535326155e+01 -1.759335617494e+01 0.0 
4.305583287033e+01 -1.822663146802e+01 0.0 
1.280748808359e+01 -7.834332838285e+00 0.0 
1.368988389326e+01 -7.420529606172e+00 0.0 
1.110091796060e+01 -7.683966794328e+00 0.0 
3.963446145980e+01 -1.794331310122e+01 0.0 
3.423932362213e+00 -1.796415590455e+01 0.0 
4.280814572302e+00 -1.752272834860e+01 0.0 
8.050136380041e+00 -2.421582378631e+00 0.0 
8.888674091650e+00 -2.984264211327e+00 0.0 
2.152839430898e+01 -3.732609965436e+00 0.0 
2.077799585292e+01 -3.183896021866e+00 0.0 
3.618719395821e+01 -1.770276572576e+01 0.0 
3.538165138340e+01 -1.718709995539e+01 0.0 
3.702925326420e+01 -1.828844288807e+01 0.0 
1.756739438711e+00 -5.353284859169e+00 0.0 
2.233710191104e+01 -1.527265621324e+01 0.0 
1.389483555057e+01 -1.771797164730e+01 0.0 
1.475634224300e+01 -1.728357428390e+01 0.0 
1.298797563052e+01 -1.825968924755e+01 0.0 
2.145331271866e+01 -1.673705379077e+01 0.0 
2.133282821169e+01 -1.769400773673e+01 0.0 
2.292139194136e+01 -1.774915400288e+01 0.0 
1.750750053243e+01 -1.861475593469e+00 0.0 
4.830478841772e+01 -1.752611802221e+01 0.0 
4.341203507805e+01 -1.220326745522e+01 0.0 
1.685254151866e+01 -1.443085301632e+00 0.0 
4.431538535165e+01 -1.171841387375e+01 0.0 
4.511308610496e+01 -1.229557320599e+01 0.0 
4.510133242889e+01 -1.123680627466e+01 0.0 
1.846818030617e+00 -4.410877617069e+00 0.0 
3.995468694584e+01 -1.186571542989e+01 0.0 
3.901387459804e+01 -1.242507616755e+01 0.0 
8.966735877533e+00 -1.837818700423e+00 0.0 
4.049310011091e+01 -1.848269508791e+01 0.0 
7.278862053803e+00 -1.918523922691e+00 0.0 
6.429715522129e+00 -2.316676521184e+00 0.0 
9.443505505022e+00 -1.792198868094e+01 0.0 
8.620386951051e+00 -1.737590365556e+01 0.0 
8.571868171503e+00 -1.834436667826e+01 0.0 
7.758629848526e+00 -1.775677907213e+01 0.0 
7.806648388584e+00 -1.680761266021e+01 0.0 
6.908555145436e+00 -1.723746463044e+01 0.0 
4.251709122090e+01 -1.156937480156e+01 0.0 
6.931136405615e+00 -1.832465719263e+01 0.0 
6.015545461353e+00 -1.768865355295e+01 0.0 
5.960535926343e+00 -1.872011001764e+01 0.0 
3.023253444786e+01 -8.761960642196e+00 0.0 
2.454622702599e+01 -6.749421992767e+00 0.0 
2.537499741604e+01 -6.347634963783e+00 0.0 
2.544077378460e+01 -5.431358513649e+00 0.0 
2.801367161747e+01 -1.820907270221e+01 0.0 
2.884507806914e+01 -1.762032095326e+01 0.0 
1.821474531936e+00 -1.588901260460e+01 0.0 
1.821006262604e+00 -1.489370287756e+01 0.0 
4.599962488908e+01 -1.176478780598e+01 0.0 
4.705457470007e+01 -1.172182804229e+01 0.0 
4.667668314802e+01 -1.263464558483e+01 0.0 
4.759648056504e+01 -1.252380987933e+01 0.0 
4.728041618103e+01 -1.341928568376e+01 0.0 
4.825209352360e+01 -1.330491640804e+01 0.0 
4.778118233428e+01 -1.420151961695e+01 0.0 
2.388192727579e+01 -1.826934810142e+01 0.0 
2.381714684947e+01 -4.385917965223e+00 0.0 
3.172733219247e+01 -9.758744265248e+00 0.0 
1.882012070658e+01 -1.805540597212e+01 0.0 
1.805667505243e+01 -1.742221226236e+01 0.0 
2.852599958080e+01 -8.597196079481e+00 0.0 
2.856486123437e+01 -7.661382718527e+00 0.0 
1.111792842875e+01 -1.818223852980e+01 0.0 
2.203322722466e+01 -7.986646678802e+00 0.0 
3.955703676900e+01 -1.903246763601e+01 0.0 
1.944842206513e+01 -8.038750575182e-01 0.0 
1.909882767783e+01 -1.746322740933e+00 0.0 
2.281147422941e+01 -8.525912918334e+00 0.0 
2.850633001468e+01 -9.533271335986e+00 0.0 
2.532883344309e+01 -7.308951659710e+00 0.0 
2.620475466461e+01 -6.979208585400e+00 0.0 
1.396278270396e+01 -1.475095389807e+01 0.0 
9.791001166724e+00 -2.554159793552e+00 0.0 
2.229293380421e+01 -4.269762271052e+00 0.0 
4.677238984118e+01 -1.430071795514e+01 0.0 
2.228658385918e+01 -3.344747535984e+00 0.0 
8.940223674553e-01 -1.543595733415e+01 0.0 
2.118566862474e+01 -8.435876987696e+00 0.0 
2.678325936437e+01 -1.032621195706e+01 0.0 
2.223400220487e+01 -5.179046761770e+00 0.0 
2.375370625384e+01 -7.251580562134e+00 0.0 
3.156971327386e+01 -1.255534750737e+01 0.0 
3.328226391312e+01 -1.172914813316e+01 0.0 
3.250948774219e+01 -1.120157009348e+01 0.0 
2.032993445717e+01 -8.867880112202e+00 0.0 
2.697226974856e+01 -7.536633082045e+00 0.0 
2.707377810386e+01 -6.590835263295e+00 0.0 
2.914099246827e+01 -1.191678458549e+01 0.0 
3.544824072239e+01 -1.621126558525e+01 0.0 
3.456511855436e+01 -1.665054783843e+01 0.0 
3.448395810225e+01 -1.759117813016e+01 0.0 
3.368378673938e+01 -1.708037781328e+01 0.0 
3.375560452567e+01 -1.610973066913e+01 0.0 
3.288001547988e+01 -1.654324255651e+01 0.0 
3.282475929147e+01 -1.749725654692e+01 0.0 
3.199880906313e+01 -1.697294088625e+01 0.0 
3.197001272932e+01 -1.811667776864e+01 0.0 
3.111884713021e+01 -1.742166785755e+01 0.0 
3.120418962865e+01 -1.642155709385e+01 0.0 
3.034666704371e+01 -1.683123833816e+01 0.0 
3.026224379976e+01 -1.772592851714e+01 0.0 
3.046632362943e+01 -1.582232843075e+01 0.0 
1.961344017324e+01 -1.857459447985e+01 0.0 
2.274975894774e+01 -9.532738811922e+00 0.0 
1.833923246887e+01 -2.396746883672e+00 0.0 
1.988859500848e+01 -2.249244376594e+00 0.0 
2.758045562861e+01 -1.086434261689e+01 0.0 
3.247300178163e+01 -1.909930104252e+01 0.0 
3.461947482503e+01 -1.911879848019e+01 0.0 
2.047161538662e+01 -6.941478180358e+00 0.0 
2.750230940214e+01 -1.915490590764e+01 0.0 
3.165081350803e+01 -1.161860780120e+01 0.0 
1.897456727641e+01 -4.889634688522e+00 0.0 
2.549338539756e+01 -1.914858252089e+01 0.0 
3.462873135081e+01 -1.567482276144e+01 0.0 
3.384432415243e+01 -1.512280684518e+01 0.0 
3.471433767690e+01 -1.469086942990e+01 0.0 
3.651470373046e+01 -1.918207952149e+01 0.0 
3.901742690249e+01 -1.345028556517e+01 0.0 
2.153224102692e+01 -1.920169709333e+01 0.0 
1.918382939341e+01 -1.316226275662e+01 0.0 
2.005389162382e+01 -1.271962165174e+01 0.0 
2.011472087878e+01 -1.175029352900e+01 0.0 
3.210679478412e+01 -1.598038618242e+01 0.0 
1.752175226543e+01 -1.914713022656e+01 0.0 
1.696897240059e+01 -1.832772588765e+01 0.0 
1.599682523337e+01 -1.832599992024e+01 0.0 
1.644507199462e+01 -1.743697981535e+01 0.0 
1.549987712903e+01 -1.915192375101e+01 0.0 
3.050250861901e+01 -1.918943550234e+01 0.0 
2.949944061527e+01 -1.922950455235e+01 0.0 
1.375892575273e+01 -6.447160534926e+00 0.0 
1.457223670180e+01 -7.006709243857e+00 0.0 
1.450818793236e+01 -7.965943451779e+00 0.0 
1.538804712402e+01 -7.553409623699e+00 0.0 
1.545817644768e+01 -6.580929593419e+00 0.0 
1.626506893751e+01 -7.129032608911e+00 0.0 
1.619833811522e+01 -8.086588580887e+00 0.0 
1.714448609609e+01 -6.697429609777e+00 0.0 
2.887616543568e+01 -1.668015232137e+01 0.0 
1.349814589130e+01 -1.918225301544e+01 0.0 
1.153887772210e+01 -1.311384581217e+01 0.0 
1.242708159886e+01 -1.267046795531e+01 0.0 
1.249799674267e+01 -1.169005616014e+01 0.0 
6.631723893693e+00 -9.774184881867e+00 0.0 
7.451471631867e+00 -1.033148796006e+01 0.0 
7.377795355458e+00 -1.132196345268e+01 0.0 
5.810931797536e+00 -9.211654212252e+00 0.0 
2.402683899133e+01 -1.441378562320e+01 0.0 
1.249768692036e+01 -1.917388426624e+01 0.0 
1.580373499437e+01 -1.290751860664e+01 0.0 
8.344650507834e+00 -9.898403995170e+00 0.0 
3.750622115305e+01 -1.086526401533e+01 0.0 
3.699391251667e+01 -1.171695900794e+01 0.0 
3.606517829518e+01 -1.173717504500e+01 0.0 
3.650257641795e+01 -1.270047380221e+01 0.0 
3.808951488918e+01 -1.183518714175e+01 0.0 
4.760380962420e+00 -1.162484888315e+01 0.0 
3.861210370848e+00 -1.205657631736e+01 0.0 
3.038284309476e+00 -1.149851280664e+01 0.0 
2.961598794889e+00 -1.248856794980e+01 0.0 
2.138953225512e+00 -1.193212674534e+01 0.0 
2.227383593457e+00 -1.096258903918e+01 0.0 
2.043265419276e+00 -1.292158472959e+01 0.0 
1.252449446028e+00 -1.225502002753e+01 0.0 
3.949985210740e+01 -1.086594001795e+01 0.0 
1.453499444792e+01 -8.768805922472e-01 0.0 
1.403518950933e+01 -1.749965556633e+00 0.0 
1.300715031023e+01 -1.714737233040e+00 0.0 
1.350929389899e+01 -2.527443911291e+00 0.0 
1.449600910711e+01 -2.595486162864e+00 0.0 
1.395693872901e+01 -3.484211041558e+00 0.0 
1.495105865208e+01 -3.364609636216e+00 0.0 
1.508822528740e+01 -1.766586020494e+00 0.0 
1.250223858430e+01 -8.634590186802e-01 0.0 
1.200279523409e+01 -1.709044504992e+00 0.0 
1.150086239419e+01 -8.592789190668e-01 0.0 
1.101482754194e+01 -1.677730591922e+00 0.0 
1.148018564526e+01 -2.659323866909e+00 0.0 
8.800552119754e+00 -3.989875954728e+00 0.0 
3.452790439430e+00 -1.901136170646e+01 0.0 
8.658451825200e-01 -9.503462241795e+00 0.0 
1.694787786797e+00 -9.000589234502e+00 0.0 
1.703436717094e+00 -8.038819004041e+00 0.0 
2.594197971110e+00 -8.563955242845e+00 0.0 
1.630513735412e+00 -9.907244747511e+00 0.0 
8.566859292791e-01 -7.512203837972e+00 0.0 
1.685461277022e+00 -7.164280248030e+00 0.0 
2.506394468801e+00 -8.623386730818e-01 0.0 
2.007475081581e+00 -1.727729545205e+00 0.0 
9.211534699767e-01 -1.628791366312e+00 0.0 
1.500000000020e+00 -2.598063549486e+00 0.0 
2.482078929963e+00 -2.553580088725e+00 0.0 
2.999795253092e+00 -1.732169015019e+00 0.0 
3.999712607169e+00 -1.728832897453e+00 0.0 
4.499752199340e+00 -8.656478679175e-01 0.0 
4.964377774841e+00 -1.730129617941e+00 0.0 
4.425017908337e+00 -2.597541756243e+00 0.0 
5.446573195014e+00 -8.410144840023e-01 0.0 
4.915722346614e+01 -1.550640962770e+01 0.0 
4.826794919243e+01 -1.600000000000e+01 0.0 
1.053139533193e+01 -1.911782884365e+01 0.0 
4.156049861949e+01 -1.095160998589e+01 0.0 
9.494526624416e+00 -8.650570090219e-01 0.0 
4.555762166964e+01 -1.897098103585e+01 0.0 
4.250656411371e+01 -1.914387356218e+01 0.0 
4.350906466345e+01 -1.917234727395e+01 0.0 
8.759665722424e-01 -1.746422130609e+01 0.0 
1.698936011838e+00 -1.795012186674e+01 0.0 
4.742476811029e+01 -1.900090177972e+01 0.0 
7.749196752349e+00 -6.368049313489e+00 0.0 
3.361572113416e+01 -1.798765193915e+01 0.0 
4.484660149212e+01 -1.728661231383e+01 0.0 
1.984038172228e+01 -4.502575320116e+00 0.0 
1.035080352627e+01 -6.166639575753e+00 0.0 
2.753558010652e+00 -1.444909521181e+01 0.0 
7.217069543032e+00 -1.328635391078e+01 0.0 
4.364336727739e+00 -1.655585677381e+01 0.0 
4.595208426108e+00 -1.357919665443e+01 0.0 
6.164967006980e+00 -1.569873454630e+01 0.0 
1.487855768353e+01 -1.826523774028e+01 0.0 
2.791876456372e+00 -4.019632415181e+00 0.0 
4.246464893515e+01 -1.364898659620e+01 0.0 
4.503855590351e+01 -1.329552780944e+01 0.0 
4.407239109604e+01 -1.573900004093e+01 0.0 
5.141054449252e+00 -6.664290382472e+00 0.0 
3.141083947149e+00 -1.055790764912e+01 0.0 
6.196463198741e+00 -4.256497932609e+00 0.0 
2.599618716181e+01 -1.836893455464e+01 0.0 
2.923057372337e+01 -1.098461757645e+01 0.0 
1.168343877486e+01 -1.114079645041e+01 0.0 
6.706222096238e+00 -8.780364234441e+00 0.0 
8.567858614669e+00 -6.943121440850e+00 0.0 
1.123755132901e+01 -5.753525820030e+00 0.0 
2.353456234423e+01 -1.008536320953e+01 0.0 
9.162073319168e+00 -1.045593739109e+01 0.0 
9.676343469685e+00 -1.496493008366e+01 0.0 
4.490637882905e+01 -1.628778970202e+01 0.0 
7.398129387772e+00 -9.639977982323e-01 0.0 
1.049641705805e+01 -1.552503975272e+01 0.0 
9.010356286268e+00 -1.242805042052e+01 0.0 
3.985573925497e+01 -1.399863651620e+01 0.0 
1.816196318262e+01 -1.554066497931e+01 0.0 
1.306332244168e+01 -3.963646550326e+00 0.0 
4.145850903932e+01 -1.608094559275e+01 0.0 
3.794664933633e+01 -1.779020121986e+01 0.0 
3.819614412903e+01 -1.290749321016e+01 0.0 
6.270014188119e+00 -3.255093186826e+00 0.0 
4.251165370388e+01 -1.263870364997e+01 0.0 
1.207347709171e+01 -1.763942826023e+01 0.0 
3.633240829927e+01 -1.577330481104e+01 0.0 
4.319052668832e+00 -6.101812561904e+00 0.0 
1.676492415806e+01 -1.151547901392e+01 0.0 
2.594059220037e+01 -1.074225223009e+01 0.0 
3.340750911501e+01 -9.898764354137e+00 0.0 
4.397619591281e+01 -1.769773736461e+01 0.0 
2.175611595028e+01 -1.185718747128e+01 0.0 
1.641818733106e+01 -1.640685203215e+01 0.0 
1.661211421753e+01 -1.346121366338e+01 0.0 
3.428853504935e+00 -6.551993389271e+00 0.0 
8.700728832502e+00 -1.638460872825e+01 0.0 
1.931369795309e+01 -1.121629383702e+01 0.0 
4.139798872363e+01 -1.706922153459e+01 0.0 
2.647837478700e+01 -1.507353829290e+01 0.0 
1.779469616424e+01 -9.161615782908e+00 0.0 
3.885879219319e+01 -1.642026488918e+01 0.0 
1.338194936770e+01 -1.125916521471e+01 0.0 
1.897071181111e+01 -1.609204322578e+01 0.0 
2.844308548793e+01 -1.046221003096e+01 0.0 
2.659854702194e+01 -1.316109415760e+01 0.0 
2.979604503271e+01 -1.433296157755e+01 0.0 
2.417694041347e+01 -1.251231397779e+01 0.0 
1.807401327411e+00 -1.388891148480e+01 0.0 
9.599810618782e+00 -1.595439365034e+01 0.0 
1.652144692160e+01 -4.205392788472e+00 0.0 
2.367839450246e+01 -8.188385218643e+00 0.0 
3.814894930468e+01 -1.390748338767e+01 0.0 
2.466448215774e+01 -1.685878545680e+01 0.0 
4.134044524611e+01 -1.806610045954e+01 0.0 
2.600511411958e+01 -9.801774120648e+00 0.0 
7.882158050716e+00 -1.582364037353e+01 0.0 
3.881607873422e+01 -1.737970515013e+01 0.0 
8.270182347708e+00 -1.088622154920e+01 0.0 
8.672520392520e-01 -4.532984309881e+00 0.0 
1.993447205337e+01 -3.579061902667e+00 0.0 
1.794616079549e+01 -7.238038888498e+00 0.0 
2.097277068165e+01 -1.132450168636e+01 0.0 
8.194803300681e+00 -1.187214224265e+01 0.0 
3.522279404911e+01 -1.823342818178e+01 0.0 
6.984481050295e+00 -1.625271465557e+01 0.0 
1.309433007797e+01 -1.521718594215e+01 0.0 
2.150246167611e+01 -1.885399038185e+00 0.0 
3.250689370209e+01 -1.028789870535e+01 0.0 
6.085886272238e+00 -1.668342132851e+01 0.0 
1.588455661727e+01 -1.193498985921e+01 0.0 
1.809323400821e+01 -1.651110084195e+01 0.0 
1.348885082381e+00 -1.136065576512e+01 0.0 
2.497670221995e+01 -1.834631276173e+01 0.0 
2.937062818424e+01 -8.233711194470e+00 0.0 
5.185823744469e+00 -1.711566910207e+01 0.0 
1.477497877209e+01 -1.530177014512e+01 0.0 
2.125346158933e+01 -7.473003997367e+00 0.0 
4.751561118290e+01 -1.084897772632e+01 0.0 
5.056026576843e+00 -1.825750475525e+01 0.0 
1.473948554523e+01 -1.634577436309e+01 0.0 
2.410566630936e+01 -1.345970002612e+01 0.0 
1.507337507513e+01 -1.138527895328e+01 0.0 
3.189857338687e+01 -8.887781229006e+00 0.0 
7.298712468334e+00 -1.230231046246e+01 0.0 
2.738235495295e+01 -1.368931690364e+01 0.0 
3.750141041969e+01 -1.920449893070e+01 0.0 
1.557271965640e+01 -1.683317951731e+01 0.0 
3.393731848929e+01 -1.413034777044e+01 0.0 
6.482156824153e+00 -1.174575135362e+01 0.0 
2.077971718439e+01 -1.421279621836e+01 0.0 
3.455084320178e+00 -2.562590040585e+00 0.0 
3.099056096250e+01 -9.270280416035e+00 0.0 
5.580176125418e+00 -1.217387969259e+01 0.0 
1.707247630389e+01 -7.660651981710e+00 0.0 
1.418658814174e+01 -1.180390575393e+01 0.0 
2.049103025389e+01 -1.811296706038e+01 0.0 
4.680386172316e+00 -1.260396879301e+01 0.0 
1.699679896554e+01 -8.624561788199e+00 0.0 
3.779470168555e+00 -1.303424899720e+01 0.0 
3.036589870126e+01 -7.879832518349e+00 0.0 
3.306993001774e+01 -1.457671062095e+01 0.0 
2.840150110165e+00 -1.346530088269e+01 0.0 
2.732011135052e+01 -1.464591214560e+01 0.0 
5.423639259568e+00 -2.659711955016e+00 0.0 
2.324455961696e+01 -1.387269388211e+01 0.0 
1.752768355571e+00 -1.693128613594e+01 0.0 
1.020244783051e+01 -8.076834012808e+00 0.0 
1.330873875224e+01 -1.222417528206e+01 0.0 
3.297727364880e+01 -1.555480372087e+01 0.0 
2.890929955439e+01 -6.868664170731e+00 0.0 
1.323294664622e+01 -1.320754260334e+01 0.0 
2.726532861246e+01 -1.560593120806e+01 0.0 
2.240020643398e+01 -1.429299177247e+01 0.0 
2.090445823633e+01 -1.228128621332e+01 0.0 
1.315809881502e+01 -1.420739326938e+01 0.0 
2.781328038068e+01 -7.181956082300e+00 0.0 
8.614200829057e+00 -5.936933226306e+00 0.0 
8.714765730069e+00 -4.979270529687e+00 0.0 
1.611881701099e+01 -9.041973294003e+00 0.0 
2.806830314340e+01 -1.614622947108e+01 0.0 
2.084435391396e+00 -3.385085422913e+00 0.0 
3.133211811152e+01 -1.542347619750e+01 0.0 
9.693114650768e+00 -3.590281506442e+00 0.0 
1.531883592202e+01 -8.504584946143e+00 0.0 
2.151589117094e+01 -1.578915763018e+01 0.0 
4.918943882696e+01 -1.355538828056e+01 0.0 
1.443236615188e+01 -8.918701794549e+00 0.0 
8.276250966452e-01 -5.537685192197e+00 0.0 
1.362790867918e+01 -8.374718262212e+00 0.0 
2.083767477370e+01 -1.324843956035e+01 0.0 
1.273834678703e+01 -8.790890389337e+00 0.0 
1.192275845670e+01 -8.242261327467e+00 0.0 
4.477236023583e+01 -1.824312396664e+01 0.0 
1.102989384254e+01 -8.649855800911e+00 0.0 
4.849096516045e+01 -1.917293752213e+01 0.0 
1.588996752238e+00 -1.910230934687e+01 0.0 
4.904245197583e+01 -1.159839008158e+01 0.0 
2.753852929608e+01 -5.782128488093e+00 0.0 
1.756133602833e+01 -8.306130313187e-01 0.0 
2.615423700951e+01 -6.153865090092e+00 0.0 
1.028818761294e+01 -7.122020845892e+00 0.0 
2.970818901196e+01 -1.527821347593e+01 0.0 
4.801461623449e+01 -1.164472570985e+01 0.0 
9.455722100419e+00 -6.546069291118e+00 0.0 
3.089099236677e+01 -1.835339328261e+01 0.0 
2.350000000013e+01 -1.920825896750e+01 0.0 
4.830620531887e+01 -1.506626155470e+01 0.0 
1.725381944701e+01 -1.688794487850e+01 0.0 
2.156246225273e+01 -1.475893794002e+01 0.0 
4.919319648787e+01 -1.742767505896e+01 0.0 
4.437935623576e+01 -1.077662927266e+01 0.0 
1.001520521978e+01 -1.652692675208e+00 0.0 
9.067160240050e-01 -1.441937727541e+01 0.0 
2.603365149390e+01 -4.755996613848e+00 0.0 
2.458344439002e+01 -4.873645517696e+00 0.0 
2.304312390142e+01 -3.836552768096e+00 0.0 
2.546923202198e+00 -6.902480355749e+00 0.0 
1.251534969393e+01 -2.490989965776e+00 0.0 
2.454061833377e+01 -3.933354231935e+00 0.0 
1.788186558740e+01 -1.827424884923e+01 0.0 
4.090785243552e+01 -1.166553231904e+01 0.0 
2.230128851568e+01 -1.623015738726e+01 0.0 
2.302362347568e+01 -2.916239960270e+00 0.0 
3.878119254461e+01 -1.830091164002e+01 0.0 
2.210081359958e+01 -1.829238229150e+01 0.0 
8.443704882233e+00 -1.921993252862e+01 0.0 
2.218405824691e+01 -1.724557581508e+01 0.0 
2.151157503963e+01 -2.790636689331e+00 0.0 
3.741658958955e+01 -1.250400191722e+01 0.0 
2.697247663737e+01 -1.838290202309e+01 0.0 
4.743362342862e+01 -1.585850773010e+01 0.0 
6.671345075358e+00 -1.924977576322e+01 0.0 
3.900825404537e+01 -1.157220003875e+01 0.0 
4.649692961375e+01 -1.836335837481e+01 0.0 
1.578831424832e+01 -3.678284023361e+00 0.0 
4.814208768888e+01 -1.841249298770e+01 0.0 
2.964123298315e+01 -1.625739458193e+01 0.0 
4.580760351902e+01 -1.284294554687e+01 0.0 
3.561520879615e+01 -1.245548941949e+01 0.0 
2.555418095658e+00 -1.841101588290e+01 0.0 
3.288468366144e+01 -1.834258164109e+01 0.0 
2.065894391445e+01 -2.240688571739e+00 0.0 
4.739171429915e+01 -1.496536413446e+01 0.0 
3.478086729185e+00 -8.576434653209e+00 0.0 
1.606010630246e+01 -1.588421807951e+00 0.0 
1.018329200594e+01 -1.834320874317e+01 0.0 
2.957213339430e+01 -1.720496954591e+01 0.0 
4.142712790164e+00 -1.837794506222e+01 0.0 
6.698721532573e-01 -2.499999999997e+00 0.0 
8.037039123140e+00 -1.571229354954e+00 0.0 
1.203541361428e+01 -1.847784298001e+01 0.0 
2.899968332038e+01 -1.848264722179e+01 0.0 
1.469229460948e+01 -4.219485753730e+00 0.0 
4.049590781957e+01 -1.932812501995e+01 0.0 
1.996211678340e+01 -1.506329754720e+00 0.0 
4.250588298353e+01 -1.067383247529e+01 0.0 
5.831497011152e+00 -1.635396227234e+00 0.0 
5.317606125670e+00 -1.923927974868e+01 0.0 
4.208546426993e+01 -1.842830665025e+01 0.0 
2.327553405011e+00 -9.459409929662e+00 0.0 
3.568351902251e+01 -1.096637218582e+01 0.0 
1.682104374890e+00 -6.231413350963e+00 0.0 
2.451812238018e+01 -1.766524914339e+01 0.0 
1.058003429638e+01 -2.391839617098e+00 0.0 
4.399988753123e+01 -1.851998776342e+01 0.0 
1.400000000010e+01 -1.852293523028e+01 0.0 
3.604719565984e+01 -1.850662876800e+01 0.0 
1.951297136734e+01 -1.938092349694e+01 0.0 
1.821365318472e+01 -1.531276353287e+00 0.0 
2.298031859732e+01 -1.854635324722e+01 0.0 
1.552168066204e+01 -1.764280741977e+01 0.0 
4.572957713638e+01 -1.073347898229e+01 0.0 
3.429637429624e+01 -1.838861552790e+01 0.0 
2.427434426052e+00 -7.705577451869e+00 0.0 
4.662792031485e+00 -3.359424455416e+00 0.0 
4.926794919243e+01 -1.926794919243e+01 0.0 
7.320508075690e-01 -7.320508075688e-01 0.0 
4.926794919243e+01 -1.073205080757e+01 0.0 
7.320508075705e-01 -1.926794919243e+01 0.0 
2.917460242467e+00 -3.202866455310e+00 0.0 
4.838200575963e+01 -1.232674147454e+01 0.0 
2.998445708009e+01 -1.854403752148e+01 0.0 
5.949940090766e-01 -1.152762038165e+01 0.0 
4.844763495759e+01 -1.678092548787e+01 0.0 
1.301685480160e+01 -3.170056592566e+00 0.0 
1.650046335855e+01 -6.731535384067e-01 0.0 
4.854881540991e+01 -1.405224059779e+01 0.0 
2.119545114693e+01 -1.846813384545e+01 0.0 
3.797852849897e+01 -1.857978513215e+01 0.0 
4.649823708745e+01 -1.338351810816e+01 0.0 
2.012685900976e+01 -2.889659035009e+00 0.0 
2.953271913273e+01 -1.791558075192e+01 0.0 
2.408509097292e+00 -1.021949208421e+01 0.0 
2.642589566221e+01 -1.773216561448e+01 0.0 
1.730010270775e+01 -1.763165076721e+01 0.0 
2.017406551304e+01 -8.513536440582e-01 0.0 
5.254761581934e-01 -1.249999999999e+01 0.0 
6.640448215642e+00 -1.545337834885e+00 0.0 
7.843361506349e+00 -1.852719839527e+01 0.0 
1.588442191088e+00 -1.066158564320e+01 0.0 
2.731250000000e+01 -4.420918367347e+00 0.0 
4.951086956522e+01 -4.500000000000e+00 0.0 
2.880770112393e+01 -5.415638864241e+00 0.0 
4.951086956522e+01 -5.500000000000e+00 0.0 
3.031250000000e+01 -6.420918367347e+00 0.0 
4.951250000000e+01 -6.500000000000e+00 0.0 
3.180701530612e+01 -7.414795918363e+00 0.0 
4.951250000000e+01 -7.500000000000e+00 0.0 
3.331250000000e+01 -8.420918367347e+00 0.0 
4.951470588234e+01 -8.500000000000e+00 0.0 
3.480610198624e+01 -9.413633635267e+00 0.0 
4.951470588234e+01 -9.500000000000e+00 0.0 

SCALARS node_number int
LOOKUP_TABLE default
1
2
3
4
5
6
7
8
9
10
11
12
13
14
15
16
17
18
19
20
21
22
23
24
25
26
27
28
29
30
31
32
33
34
35
36
37
38
39
40
41
42
43
44
45
46
47
48
49
50
51
52
53
54
55
56
57
58
59
60
61
62
63
64
65
66
67
68
69
70
71
72
73
74
75
76
77
78
79
80
81
82
84
85
86
87
88
89
90
91
92
93
97
98
99
100
101
102
104
105
106
107
108
109
110
111
112
113
114
115
116
117
118
119
120
121
122
123
124
125
126
127
128
129
130
131
132
133
134
135
136
245
246
247
248
249
250
251
252
253
254
255
256
257
258
259
260
261
262
263
264
265
266
267
268
269
270
271
272
273
274
275
276
277
278
279
280
281
282
283
284
285
286
287
288
289
290
291
292
293
294
295
296
297
298
299
300
301
302
303
304
305
306
307
308
309
310
311
312
313
314
315
316
317
318
319
320
321
322
323
324
325
326
327
328
329
330
331
332
333
334
335
336
337
338
339
340
341
342
343
344
345
346
347
348
349
350
351
352
353
354
355
356
357
358
359
360
361
362
363
364
365
366
367
368
369
370
371
372
373
374
375
376
377
378
379
380
381
382
383
384
385
386
387
388
389
390
391
392
393
394
395
396
397
398
399
400
401
402
403
404
405
406
407
408
409
410
411
412
413
414
415
416
417
418
419
420
421
422
423
424
425
426
427
428
429
430
431
432
433
434
435
436
437
438
439
440
441
442
443
444
445
446
447
448
449
450
451
452
453
454
455
456
457
458
459
460
461
462
463
464
465
466
467
468
469
470
471
472
473
474
475
476
477
478
479
480
481
482
483
484
485
486
487
488
489
490
491
492
493
494
495
496
497
498
499
500
501
502
503
504
505
506
507
508
509
510
511
512
513
514
515
516
517
518
519
520
521
522
523
524
525
526
527
528
529
530
531
532
533
534
535
536
537
538
539
540
541
542
543
544
545
546
547
548
549
550
551
552
553
554
555
556
557
558
559
560
561
562
563
564
565
566
567
568
569
570
571
572
573
574
575
576
577
578
579
580
581
582
583
584
585
586
587
588
589
590
591
592
593
594
595
596
597
598
599
600
601
602
603
604
605
606
607
608
609
610
611
612
613
614
615
616
617
618
619
620
621
622
623
624
625
626
627
628
629
630
631
632
633
634
635
636
637
638
639
640
641
642
643
644
645
646
647
648
649
650
651
652
653
654
655
656
657
658
659
660
661
662
663
664
665
666
667
668
669
670
671
672
673
674
675
676
677
678
679
680
681
682
683
684
685
686
687
688
689
690
691
692
693
694
695
696
697
698
699
700
701
702
703
704
705
706
707
708
709
710
711
712
713
714
715
716
717
718
719
720
721
722
723
724
725
726
727
728
729
730
731
732
733
734
735
736
737
738
739
740
741
742
743
744
745
746
747
748
749
750
751
752
753
754
755
756
757
758
759
760
761
762
763
764
765
766
767
768
769
770
771
772
773
774
775
776
777
778
779
780
781
782
783
784
785
786
787
788
789
790
791
792
793
794
795
796
797
798
799
800
801
802
803
804
805
806
807
808
809
810
811
812
813
814
815
816
817
818
819
820
821
822
823
824
825
826
827
828
829
830
831
832
833
834
835
836
837
838
839
840
841
842
843
844
845
846
847
848
849
850
851
852
853
854
855
856
857
858
859
860
861
862
863
864
865
866
867
868
869
870
871
872
873
874
875
876
877
878
879
880
881
882
883
884
885
886
887
888
889
890
891
892
893
894
895
896
897
898
899
900
901
902
903
904
905
906
907
908
909
910
911
912
913
914
915
916
917
918
919
920
921
922
923
924
925
926
927
928
929
930
931
932
933
934
935
936
937
938
939
940
941
942
943
944
945
946
947
948
949
950
951
952
953
954
955
956
957
958
959
960
961
962
963
964
965
966
967
968
969
970
971
972
973
974
975
976
977
978
979
980
981
982
983
984
985
986
987
988
989
990
991
992
993
994
995
996
997
998
999
1000
1001
1002
1003
1004
1005
1006
1007
1008
1009
1010
1011
1012
1013
1014
1015
1016
1017
1018
1019
1020
1021
1022
1023
1024
1025
1026
1027
1028
1029
1030
1031
1032
1033
1034
1035
1036
1037
1038
1039
1040
1041
1042
1043
1044
1045
1046
1047
1048
1049
1050
1051
1052
1053
1054
1055
1056
1057
1058
1059
1060
1061
1062
1063
1064
1065
1066
1067
1068
1069
1070
1071
1072
1073
1074
1075
1076
1077
1078
1079
1080
1081
1082
1083
1084
1085
1086
1087
1088
1089
1090
1091
1092
1093
1094
1095
1096
1097
1098
1099
1100
1101
1102
1103
1104
1105
1106
1107
1108
1109
1110
1111
1112
1113
1114
1115
1116
1117
1118
1119
1120
1121
1122
1123
1124
1125
1126
1127
1128
1129
1130
1131
1132
1133
1134
1135
1136
1137
1138
1139
1140
1141
1142
1143
1144
1145
1146
1147
1148
1149
1150
1151
1152
1153
1154
1155
1156
1157
1158
1159
1160
1161
1162
1163
1164
1165
1166
1167
1168
1169
1170
1171
1172
1173
1174
1175
1176
1177
1178
1179
1180
1181
1182
1183
1184
1185
1186
1187
1188
1189
1190
1191
1192
1193
1194
1195
1196
1197
1198
1199
1200
1201
1202
1203
1204
1205
1206
1207
1208
1209
1210
1211
1212
1213
1214
1215
1216
1217
1218
1219
1220
1221
1222
1223
1224
1225
1226
1227
1228
1229
1230
1231
1232
1233
1234
1235
1236
1237
1238
1239
1240
1241
1242
1243
1244
1245
1246
1247
1248
1249
1250
1251
1252
1253
1254
1255
1256
1257
1258
1259
1260
1261
1262
1263
1264
1273
1274
1275
1276
1277
1278
1279
1280
1281
1282
1283
1284

VECTORS node_mesh_deformation float
0.0 7.911777216755e-02 0.0 
0.000000000000e+00 1.021350834691e-01 0.0 
0.0 0.000000000000e+00 0.0 
0.000000000000e+00 0.000000000000e+00 0.0 
0.0 7.900869190830e-02 0.0 
0.0 7.852133405554e-02 0.0 
0.0 7.765666745570e-02 0.0 
0.0 7.641160790065e-02 0.0 
0.0 7.477210005619e-02 0.0 
0.0 7.274566626121e-02 0.0 
0.0 7.033123184405e-02 0.0 
0.0 6.752212717752e-02 0.0 
0.0 6.431460087927e-02 0.0 
0.0 6.069953316020e-02 0.0 
0.0 5.666160708076e-02 0.0 
0.0 5.219207887715e-02 0.0 
0.0 4.728865247584e-02 0.0 
0.0 4.196493145008e-02 0.0 
0.0 3.617254230414e-02 0.0 
0.0 2.991173415201e-02 0.0 
0.0 2.317654178171e-02 0.0 
0.0 1.594778403337e-02 0.0 
0.0 8.213133988523e-03 0.0 
0.000000000000e+00 0.000000000000e+00 0.0 
0.000000000000e+00 0.000000000000e+00 0.0 
0.000000000000e+00 0.000000000000e+00 0.0 
0.000000000000e+00 0.000000000000e+00 0.0 
0.000000000000e+00 0.000000000000e+00 0.0 
0.000000000000e+00 0.000000000000e+00 0.0 
0.000000000000e+00 0.000000000000e+00 0.0 
0.000000000000e+00 0.000000000000e+00 0.0 
0.000000000000e+00 0.000000000000e+00 0.0 
0.000000000000e+00 0.000000000000e+00 0.0 
0.000000000000e+00 0.000000000000e+00 0.0 
0.000000000000e+00 0.000000000000e+00 0.0 
0.000000000000e+00 0.000000000000e+00 0.0 
0.000000000000e+00 0.000000000000e+00 0.0 
0.000000000000e+00 0.000000000000e+00 0.0 
0.000000000000e+00 0.000000000000e+00 0.0 
0.000000000000e+00 0.000000000000e+00 0.0 
0.000000000000e+00 0.000000000000e+00 0.0 
0.000000000000e+00 0.000000000000e+00 0.0 
0.000000000000e+00 0.000000000000e+00 0.0 
0.000000000000e+00 0.000000000000e+00 0.0 
0.000000000000e+00 0.000000000000e+00 0.0 
0.000000000000e+00 0.000000000000e+00 0.0 
0.000000000000e+00 0.000000000000e+00 0.0 
0.000000000000e+00 0.000000000000e+00 0.0 
0.000000000000e+00 0.000000000000e+00 0.0 
0.000000000000e+00 0.000000000000e+00 0.0 
0.000000000000e+00 0.000000000000e+00 0.0 
0.000000000000e+00 0.000000000000e+00 0.0 
0.000000000000e+00 0.000000000000e+00 0.0 
0.000000000000e+00 0.000000000000e+00 0.0 
0.000000000000e+00 0.000000000000e+00 0.0 
0.000000000000e+00 0.000000000000e+00 0.0 
0.000000000000e+00 0.000000000000e+00 0.0 
0.000000000000e+00 0.000000000000e+00 0.0 
0.000000000000e+00 0.000000000000e+00 0.0 
0.000000000000e+00 0.000000000000e+00 0.0 
0.000000000000e+00 0.000000000000e+00 0.0 
0.000000000000e+00 0.000000000000e+00 0.0 
0.000000000000e+00 0.000000000000e+00 0.0 
0.000000000000e+00 0.000000000000e+00 0.0 
0.000000000000e+00 0.000000000000e+00 0.0 
0.000000000000e+00 0.000000000000e+00 0.0 
0.000000000000e+00 0.000000000000e+00 0.0 
0.000000000000e+00 0.000000000000e+00 0.0 
0.000000000000e+00 0.000000000000e+00 0.0 
0.000000000000e+00 0.000000000000e+00 0.0 
0.000000000000e+00 0.000000000000e+00 0.0 
0.000000000000e+00 0.000000000000e+00 0.0 
0.000000000000e+00 9.375360310267e-02 0.0 
0.000000000000e+00 8.495264878198e-02 0.0 
0.000000000000e+00 7.573088377120e-02 0.0 
0.000000000000e+00 6.610431015610e-02 0.0 
0.000000000000e+00 5.606710256441e-02 0.0 
0.000000000000e+00 4.563261625677e-02 0.0 
0.000000000000e+00 3.480357716938e-02 0.0 
0.000000000000e+00 2.358447877063e-02 0.0 
0.000000000000e+00 1.198253559471e-02 0.0 
-8.422900833629e-03 9.999519295715e-02 0.0 
6.636030621287e-03 1.010680118737e-01 0.0 
-5.734951707769e-03 1.072403019074e-01 0.0 
-2.837722148875e-03 1.148204879715e-01 0.0 
3.978495610006e-04 1.214765919559e-01 0.0 
3.457178253051e-03 1.258721124025e-01 0.0 
5.889565763106e-03 1.261838596930e-01 0.0 
7.164646732893e-03 1.238646160311e-01 0.0 
7.661145654072e-03 1.198567197675e-01 0.0 
7.643614982300e-03 1.145644447710e-01 0.0 
7.263700782431e-03 1.082396635314e-01 0.0 
0.000000000000e+00 1.434227283202e-01 0.0 
0.000000000000e+00 1.376142696430e-01 0.0 
0.000000000000e+00 1.313645814845e-01 0.0 
0.000000000000e+00 1.247159661088e-01 0.0 
0.000000000000e+00 1.176038264359e-01 0.0 
0.000000000000e+00 1.100957463097e-01 0.0 
3.720400362823e-04 1.021389112619e-01 0.0 
7.343726327989e-04 1.021496113450e-01 0.0 
1.106533692635e-03 1.021643483266e-01 0.0 
1.484805892474e-03 1.021753249334e-01 0.0 
1.867904714260e-03 1.021964024943e-01 0.0 
2.260765488622e-03 1.022024632990e-01 0.0 
2.667448819857e-03 1.022093300016e-01 0.0 
3.080642998732e-03 1.021972456253e-01 0.0 
3.520309960074e-03 1.021798835033e-01 0.0 
3.979941796295e-03 1.021245147569e-01 0.0 
4.457962870561e-03 1.020347090702e-01 0.0 
4.960868842680e-03 1.019032958828e-01 0.0 
5.488397406047e-03 1.017087213445e-01 0.0 
6.044617613789e-03 1.014320975590e-01 0.0 
-7.663719454243e-03 9.606930321715e-02 0.0 
-6.717250931548e-03 9.286122689860e-02 0.0 
-5.754513112525e-03 9.022002315924e-02 0.0 
-4.853840528803e-03 8.806240061113e-02 0.0 
-4.051691971776e-03 8.630808358670e-02 0.0 
-3.331906219922e-03 8.485792760915e-02 0.0 
-2.695216555880e-03 8.366098168362e-02 0.0 
-2.147497901696e-03 8.267891305155e-02 0.0 
-1.679508114474e-03 8.187862631322e-02 0.0 
-1.284999489393e-03 8.123753067485e-02 0.0 
-9.685797558987e-04 8.071050315544e-02 0.0 
-6.976205443090e-04 8.030784986989e-02 0.0 
-4.697870824710e-04 7.996885233524e-02 0.0 
-3.151843559754e-04 7.969831902330e-02 0.0 
-2.098237480901e-04 7.950028055478e-02 0.0 
-1.273851490189e-04 7.935306998013e-02 0.0 
-6.543872912435e-05 7.924355046257e-02 0.0 
-2.161776985687e-05 7.917087016179e-02 0.0 
-1.382454352805e-05 7.912185808972e-02 0.0 
4.129445902450e-04 1.434577542596e-01 0.0 
7.515305668946e-04 1.434484253875e-01 0.0 
1.088957882388e-03 1.434594971939e-01 0.0 
1.425660653368e-03 1.434742663188e-01 0.0 
1.756855946674e-03 1.434897177555e-01 0.0 
2.078398426768e-03 1.435023850360e-01 0.0 
2.386587657213e-03 1.435076617808e-01 0.0 
2.677921688971e-03 1.434998942238e-01 0.0 
2.948887230929e-03 1.434722227754e-01 0.0 
3.195858134326e-03 1.434163405090e-01 0.0 
3.415050662497e-03 1.433222113883e-01 0.0 
3.602535933915e-03 1.431777203328e-01 0.0 
3.754293298215e-03 1.429682889068e-01 0.0 
3.866203430007e-03 1.426761247395e-01 0.0 
3.934491960798e-03 1.422796908687e-01 0.0 
3.955884725940e-03 1.417524820465e-01 0.0 
3.928807453114e-03 1.410629029859e-01 0.0 
3.852798174101e-03 1.401709109561e-01 0.0 
3.731816076456e-03 1.390282200484e-01 0.0 
3.573382950375e-03 1.375685745441e-01 0.0 
3.398886843740e-03 1.357058593323e-01 0.0 
3.252621837845e-03 1.333363034415e-01 0.0 
3.093352039055e-03 1.302754928310e-01 0.0 
5.557137530605e-03 1.288697233005e-01 0.0 
5.346601034049e-03 1.309677711126e-01 0.0 
5.155554256650e-03 1.325895807602e-01 0.0 
5.003448604917e-03 1.338768674926e-01 0.0 
4.860123660876e-03 1.348772090340e-01 0.0 
4.716162482346e-03 1.356586241719e-01 0.0 
4.560745577088e-03 1.362582898399e-01 0.0 
4.389673260889e-03 1.367143067616e-01 0.0 
4.199863859185e-03 1.370538131817e-01 0.0 
3.990333597535e-03 1.373009303230e-01 0.0 
3.761033353456e-03 1.374747466341e-01 0.0 
3.512984008083e-03 1.375914689764e-01 0.0 
3.247625061285e-03 1.376642268589e-01 0.0 
2.966605853054e-03 1.377039141966e-01 0.0 
2.671726337482e-03 1.377195865954e-01 0.0 
2.364874078289e-03 1.377187489747e-01 0.0 
2.048000727534e-03 1.377076375236e-01 0.0 
1.722930118348e-03 1.376912986846e-01 0.0 
1.391213247423e-03 1.376737002708e-01 0.0 
1.053791519752e-03 1.376573638988e-01 0.0 
7.100910622313e-04 1.376408472903e-01 0.0 
3.565190114401e-04 1.375999514749e-01 0.0 
3.591863662322e-04 1.314002953924e-01 0.0 
7.203709799342e-04 1.314024110705e-01 0.0 
1.077532776620e-03 1.314205594053e-01 0.0 
1.430681358926e-03 1.314403949121e-01 0.0 
1.780143027034e-03 1.314609137350e-01 0.0 
2.125849807101e-03 1.314796825045e-01 0.0 
2.467436168715e-03 1.314927241464e-01 0.0 
2.804192169627e-03 1.314948206528e-01 0.0 
3.135395791858e-03 1.314790624844e-01 0.0 
3.460590355317e-03 1.314370852800e-01 0.0 
3.779642869056e-03 1.313587016067e-01 0.0 
4.092666599789e-03 1.312317184334e-01 0.0 
4.400194346090e-03 1.310412781753e-01 0.0 
4.703389671057e-03 1.307682307404e-01 0.0 
5.006052745713e-03 1.303907308660e-01 0.0 
5.311363783186e-03 1.298804465400e-01 0.0 
5.628370718100e-03 1.292077556803e-01 0.0 
5.959912276793e-03 1.283234298101e-01 0.0 
6.328642833932e-03 1.271955186114e-01 0.0 
6.711610030994e-03 1.257288770953e-01 0.0 
7.147969608102e-03 1.211049370114e-01 0.0 
6.682586941061e-03 1.220999173087e-01 0.0 
6.224033070318e-03 1.228546060584e-01 0.0 
5.799272655999e-03 1.234474368065e-01 0.0 
5.393623535390e-03 1.238894949011e-01 0.0 
5.005623475519e-03 1.242191514978e-01 0.0 
4.627856150663e-03 1.244538348929e-01 0.0 
4.258194649687e-03 1.246170489516e-01 0.0 
3.894358412410e-03 1.247246991721e-01 0.0 
3.534867160454e-03 1.247896711010e-01 0.0 
3.178355837633e-03 1.248225595586e-01 0.0 
2.823414753124e-03 1.248324587455e-01 0.0 
2.469780838425e-03 1.248271985543e-01 0.0 
2.117161205504e-03 1.248128717714e-01 0.0 
1.765032202641e-03 1.247935369571e-01 0.0 
1.412738245456e-03 1.247725261728e-01 0.0 
1.059808188813e-03 1.247517973313e-01 0.0 
7.059022708944e-04 1.247312704833e-01 0.0 
3.526683302653e-04 1.246940886897e-01 0.0 
3.650637177515e-04 1.176360714515e-01 0.0 
7.316856923865e-04 1.176332416271e-01 0.0 
1.098933989759e-03 1.176521862563e-01 0.0 
1.468491531512e-03 1.176727007514e-01 0.0 
1.840248699068e-03 1.176935532006e-01 0.0 
2.216041619477e-03 1.177114801453e-01 0.0 
2.596592294253e-03 1.177232208069e-01 0.0 
2.984276122170e-03 1.177242697740e-01 0.0 
3.378544224645e-03 1.177089161713e-01 0.0 
3.782173763511e-03 1.176659942541e-01 0.0 
4.197862188732e-03 1.175861781154e-01 0.0 
4.627048508951e-03 1.174585333729e-01 0.0 
5.072689557728e-03 1.172677721896e-01 0.0 
5.538641738490e-03 1.169971577544e-01 0.0 
6.023974179108e-03 1.166133718431e-01 0.0 
6.544921924373e-03 1.161085773616e-01 0.0 
7.074976308353e-03 1.154270381382e-01 0.0 
6.695170132595e-03 1.087976470706e-01 0.0 
6.160542744709e-03 1.092463363023e-01 0.0 
5.631902270636e-03 1.095568323588e-01 0.0 
5.134717545779e-03 1.097899514111e-01 0.0 
4.662084556344e-03 1.099534821946e-01 0.0 
4.209566910376e-03 1.100630156008e-01 0.0 
3.775747937233e-03 1.101337083745e-01 0.0 
3.358847435905e-03 1.101709475931e-01 0.0 
2.953939563263e-03 1.101815177697e-01 0.0 
2.562724394622e-03 1.101835941808e-01 0.0 
2.179901265961e-03 1.101729973255e-01 0.0 
1.806590946373e-03 1.101588284255e-01 0.0 
1.437686697251e-03 1.101393274322e-01 0.0 
1.074971392981e-03 1.101226409593e-01 0.0 
7.164207257659e-04 1.101031669395e-01 0.0 
3.558000288066e-04 1.100667034150e-01 0.0 
-7.055042230853e-03 1.034767040226e-01 0.0 
-4.323125211986e-03 1.110690437051e-01 0.0 
-1.219206636936e-03 1.183451981357e-01 0.0 
2.040401311948e-03 1.240661442517e-01 0.0 
4.928822661096e-03 1.264404924019e-01 0.0 
6.675146599047e-03 1.252565697311e-01 0.0 
7.509636490308e-03 1.220378639932e-01 0.0 
7.719612348463e-03 1.173532524533e-01 0.0 
7.503362319149e-03 1.115184817156e-01 0.0 
6.984408775352e-03 1.047502043029e-01 0.0 
-6.558593803838e-04 1.093116976306e-01 0.0 
1.931466681942e-03 7.885345348548e-03 0.0 
-8.620518573697e-04 8.132031544264e-02 0.0 
-2.917576624906e-03 8.687563694364e-02 0.0 
1.296676061351e-03 7.460072235311e-03 0.0 
5.479748564007e-03 1.198705149435e-01 0.0 
4.305310584460e-04 5.866395718967e-02 0.0 
2.306632850456e-03 8.422820257049e-03 0.0 
8.293046303635e-03 1.193936782641e-01 0.0 
2.310360119321e-03 8.784250688581e-03 0.0 
8.450233819104e-03 1.107509893738e-01 0.0 
7.373977375904e-04 6.701672861087e-03 0.0 
-1.229334251578e-04 7.965939489806e-02 0.0 
2.063161881701e-03 9.478919089730e-03 0.0 
7.220456945305e-03 9.733530038092e-02 0.0 
2.921250504400e-04 7.151331648434e-02 0.0 
4.541811598476e-04 4.577825032617e-02 0.0 
1.782423369736e-03 1.022904304489e-02 0.0 
1.183452501706e-03 1.003214198694e-02 0.0 
3.384887385920e-04 1.026506687181e-02 0.0 
6.181011125577e-04 1.111725462463e-02 0.0 
8.304354676767e-04 9.906140309120e-03 0.0 
5.816915149914e-03 9.414569984361e-02 0.0 
3.758312892870e-03 9.458331788167e-02 0.0 
2.452070531703e-03 9.444358412305e-02 0.0 
2.357919894607e-04 6.098570137316e-02 0.0 
4.431252743000e-04 7.197546912810e-03 0.0 
-4.672237822135e-03 9.421718170070e-02 0.0 
2.259282490247e-05 7.917803631995e-02 0.0 
3.165284006409e-04 2.712726482188e-02 0.0 
1.255361556950e-03 9.497594092464e-02 0.0 
1.507218337665e-04 7.710828549775e-02 0.0 
1.653061402905e-03 1.145587020021e-02 0.0 
2.171032187714e-03 7.931001723833e-03 0.0 
2.193685803803e-03 9.017928416782e-03 0.0 
2.285504471228e-03 8.630096863122e-03 0.0 
1.599483051333e-03 7.311023443982e-03 0.0 
-1.889217955297e-03 8.392954128003e-02 0.0 
4.734820531610e-03 9.491082422673e-02 0.0 
1.182698618903e-03 8.397125332582e-03 0.0 
1.709773575129e-04 4.073317563472e-02 0.0 
-4.164777927915e-04 8.030401224343e-02 0.0 
3.852588263067e-04 6.597494933981e-02 0.0 
1.650701866467e-04 8.356906433743e-03 0.0 
7.408605728664e-03 1.208060802184e-01 0.0 
2.565944855053e-03 1.154944739768e-01 0.0 
8.600956250714e-03 1.158243505235e-01 0.0 
7.956355739360e-03 1.045255051273e-01 0.0 
-4.011828115797e-03 1.027750037438e-01 0.0 
2.881136347952e-04 7.929434810083e-02 0.0 
2.052818592171e-04 5.680052846763e-03 0.0 
7.616610120609e-06 7.906370133665e-02 0.0 
9.143530909483e-05 1.870985587051e-02 0.0 
6.873607820268e-03 9.332660393446e-02 0.0 
7.329491591776e-03 8.945585821670e-02 0.0 
6.711154004591e-03 8.585188878956e-02 0.0 
7.250889503368e-03 8.124123672723e-02 0.0 
6.635115726702e-03 7.672438258785e-02 0.0 
7.034413629334e-03 7.244553003392e-02 0.0 
7.717947766572e-03 7.691321613262e-02 0.0 
7.393290080699e-03 6.806289069301e-02 0.0 
8.136479616951e-03 7.255307596217e-02 0.0 
6.339530605004e-03 6.766767276698e-02 0.0 
7.689125599278e-03 6.358357993113e-02 0.0 
8.489676640483e-03 6.808365730170e-02 0.0 
7.909429121387e-03 5.903980550687e-02 0.0 
8.757831646772e-03 6.351812317586e-02 0.0 
9.262497335193e-03 7.233343914351e-02 0.0 
9.575637082140e-03 6.777003192440e-02 0.0 
9.992446897115e-03 7.628535994796e-02 0.0 
1.034421442500e-02 7.170038228904e-02 0.0 
9.782911899933e-03 6.316442747731e-02 0.0 
1.057946530273e-02 6.708197686592e-02 0.0 
1.104898130766e-02 7.529866187513e-02 0.0 
1.130029465845e-02 7.065325658455e-02 0.0 
1.167246480982e-02 7.852547896915e-02 0.0 
1.192653993122e-02 7.382667485889e-02 0.0 
1.220099655434e-02 8.137300019949e-02 0.0 
1.244249930255e-02 7.661646625807e-02 0.0 
1.203002257307e-02 6.914432837491e-02 0.0 
1.252475803557e-02 7.192261206504e-02 0.0 
1.282346591832e-02 7.899040960717e-02 0.0 
1.287310978822e-02 7.429957677027e-02 0.0 
1.304687431159e-02 8.094176090392e-02 0.0 
1.305467419261e-02 7.627073616355e-02 0.0 
1.276330994354e-02 6.971779348476e-02 0.0 
1.290538655121e-02 7.175906217267e-02 0.0 
1.305171143255e-02 7.786064104824e-02 0.0 
1.286294822193e-02 7.344848969229e-02 0.0 
1.285085985848e-02 7.908973358919e-02 0.0 
1.262976234219e-02 7.480750163383e-02 0.0 
1.244855593312e-02 7.997955751704e-02 0.0 
1.220384227373e-02 7.587322763535e-02 0.0 
1.228697792135e-02 7.070223690871e-02 0.0 
1.184969934602e-02 7.194868850816e-02 0.0 
1.159251728165e-02 7.669466429065e-02 0.0 
1.124379705994e-02 7.298834774942e-02 0.0 
1.140114171666e-02 6.823650608305e-02 0.0 
1.081003900786e-02 6.950469799684e-02 0.0 
1.087300496471e-02 6.471641159790e-02 0.0 
1.030553946468e-02 6.620948256574e-02 0.0 
1.009194441377e-02 7.058806496591e-02 0.0 
9.622503389991e-03 6.752240533752e-02 0.0 
9.744167867666e-03 6.306781740635e-02 0.0 
9.098655569895e-03 6.463067963375e-02 0.0 
8.842813874921e-03 6.873134208619e-02 0.0 
8.373173105193e-03 6.604276730855e-02 0.0 
8.536550615176e-03 6.184311525767e-02 0.0 
7.859762351293e-03 6.348259759778e-02 0.0 
7.589116596163e-03 6.736364510524e-02 0.0 
7.133842468482e-03 6.500466164294e-02 0.0 
7.319516537146e-03 6.096445372850e-02 0.0 
6.644112484640e-03 6.272086029803e-02 0.0 
6.376039610156e-03 6.645157047120e-02 0.0 
5.945456618928e-03 6.435183666421e-02 0.0 
6.131741450327e-03 6.044883593812e-02 0.0 
5.483684116069e-03 6.229347739582e-02 0.0 
5.596926575475e-03 5.820726953574e-02 0.0 
5.227057831418e-03 6.593727795040e-02 0.0 
4.823735593829e-03 6.404448015588e-02 0.0 
4.513666470292e-03 6.746607815666e-02 0.0 
4.168169692704e-03 6.571308449219e-02 0.0 
1.250595637924e-02 6.526695335351e-02 0.0 
3.832287864025e-03 6.889438953785e-02 0.0 
4.096154423721e-03 7.043985344343e-02 0.0 
3.533723970241e-03 6.729622879536e-02 0.0 
3.787695219921e-03 6.394749140484e-02 0.0 
3.186303753698e-03 7.024235694366e-02 0.0 
2.930685232284e-03 6.879036315902e-02 0.0 
2.587679115994e-03 7.151042800397e-02 0.0 
1.254473220804e-02 8.451920224473e-02 0.0 
9.867600066254e-03 5.852784655499e-02 0.0 
2.369415773768e-03 7.019777589239e-02 0.0 
2.046647999864e-03 7.269616735676e-02 0.0 
2.179417623231e-03 7.384606153706e-02 0.0 
1.673385466320e-03 7.481201879497e-02 0.0 
5.992342752926e-03 7.208647075322e-02 0.0 
5.630258140073e-03 6.268291222169e-02 0.0 
5.342687750392e-03 6.722113927174e-02 0.0 
4.916597434672e-03 5.754796600886e-02 0.0 
4.686265526011e-03 6.211590303942e-02 0.0 
1.566898624838e-03 7.379654250583e-02 0.0 
7.039431247648e-03 5.408882014911e-02 0.0 
5.096980857616e-03 5.283751135769e-02 0.0 
1.127669428784e-02 8.321544644510e-02 0.0 
1.286860668711e-02 8.574477190574e-02 0.0 
1.129894214671e-02 6.303447674393e-02 0.0 
2.633205681907e-03 6.731054638113e-02 0.0 
2.104511713669e-03 6.885330619987e-02 0.0 
2.299674214018e-03 6.579488903342e-02 0.0 
6.163358566416e-03 5.608839524333e-02 0.0 
5.563583577068e-03 5.368352780219e-02 0.0 
6.033492273952e-03 5.127284032370e-02 0.0 
5.381645587823e-03 4.871176434054e-02 0.0 
5.740868510834e-03 4.600184947059e-02 0.0 
5.051044638572e-03 4.328350250761e-02 0.0 
4.735651049046e-03 4.614996710199e-02 0.0 
4.378205159304e-03 4.055279557914e-02 0.0 
4.102408262414e-03 4.357105422458e-02 0.0 
5.286210310201e-03 4.027095880625e-02 0.0 
6.019128211403e-03 4.314346050640e-02 0.0 
3.729506316078e-03 3.780097087032e-02 0.0 
3.488550689680e-03 4.095936034628e-02 0.0 
3.111513371184e-03 3.501073798548e-02 0.0 
2.900742665919e-03 3.830584735840e-02 0.0 
3.181485078960e-03 4.398266304427e-02 0.0 
2.622281257143e-03 4.146435538552e-02 0.0 
2.822507648780e-03 4.687284810844e-02 0.0 
1.068587354165e-02 5.947485006136e-02 0.0 
1.094479322443e-02 5.737427688709e-02 0.0 
1.025368737425e-02 5.377637237528e-02 0.0 
1.034031692988e-02 5.125861861246e-02 0.0 
9.578246973103e-03 4.761743538345e-02 0.0 
9.487326294845e-03 4.469181615105e-02 0.0 
8.658960356641e-03 4.099663118483e-02 0.0 
8.770633230398e-03 4.408876574567e-02 0.0 
8.047532605648e-03 5.439307283929e-02 0.0 
1.081402558485e-02 7.729421009724e-02 0.0 
1.104665444486e-02 8.100037061468e-02 0.0 
1.009552040560e-02 8.116195800964e-02 0.0 
1.019038538736e-02 8.485461894482e-02 0.0 
9.069072933102e-03 8.458006639781e-02 0.0 
8.996655215096e-03 8.827409850546e-02 0.0 
7.708790897020e-03 8.757734980708e-02 0.0 
7.851324157564e-03 8.419656663577e-02 0.0 
6.355576230526e-03 8.681561899296e-02 0.0 
6.580607265555e-03 8.377027321162e-02 0.0 
4.995237372459e-03 8.603955632254e-02 0.0 
5.302753663941e-03 8.335239908676e-02 0.0 
1.198073774875e-02 6.451995996171e-02 0.0 
1.026124788645e-02 4.848942303492e-02 0.0 
9.227274844275e-03 4.150614220720e-02 0.0 
1.000854213076e-02 4.544441658300e-02 0.0 
1.718290829019e-03 7.580180699188e-02 0.0 
2.344399732335e-03 3.559896307173e-02 0.0 
5.424067123306e-03 3.709610365134e-02 0.0 
6.201204473937e-03 4.017464504736e-02 0.0 
7.794142325196e-03 3.739442646499e-02 0.0 
1.239521984226e-03 7.569485945674e-02 0.0 
7.436379151670e-03 9.127608935341e-02 0.0 
8.776540383149e-03 9.231661206278e-02 0.0 
4.215370425236e-03 5.217064739213e-02 0.0 
4.042289662841e-03 5.681205760858e-02 0.0 
5.447455140006e-03 3.375438642477e-02 0.0 
1.151744253706e-03 7.480626897738e-02 0.0 
3.888782240100e-03 3.449817857725e-02 0.0 
4.535854647678e-03 8.903057669587e-02 0.0 
2.088674693165e-03 3.889263457298e-02 0.0 
1.824743487171e-03 3.283568807452e-02 0.0 
4.357035642967e-03 4.886759301936e-02 0.0 
8.792689375948e-03 3.803940670076e-02 0.0 
9.601336506456e-03 4.222364467775e-02 0.0 
6.696333320114e-03 8.098131865839e-02 0.0 
5.497102143753e-03 8.090072277996e-02 0.0 
4.068375292796e-03 8.296483888841e-02 0.0 
4.382691588839e-03 8.073013378029e-02 0.0 
5.598006075093e-03 7.860059906340e-02 0.0 
4.531796772561e-03 7.879816681255e-02 0.0 
3.318639227455e-03 8.067591017003e-02 0.0 
3.540044506789e-03 7.899791676950e-02 0.0 
4.601180901071e-03 7.694352197171e-02 0.0 
3.678644386238e-03 7.738015015069e-02 0.0 
2.642324936183e-03 7.921261230443e-02 0.0 
2.844050519904e-03 7.780287792071e-02 0.0 
1.992237097388e-03 2.926287825274e-02 0.0 
3.122028192458e-03 8.791643227973e-02 0.0 
9.541515318151e-03 8.078860230500e-02 0.0 
4.656674032416e-03 3.057388713693e-02 0.0 
7.511882665213e-03 3.401138555816e-02 0.0 
3.537559162311e-03 4.660745443483e-02 0.0 
3.418884913174e-03 5.132670967889e-02 0.0 
3.827990999866e-03 6.141727392505e-02 0.0 
3.254025625147e-03 5.598284275249e-02 0.0 
2.824542654622e-03 4.566233755204e-02 0.0 
2.707401222402e-03 5.040012144893e-02 0.0 
3.052189805494e-03 6.057768605999e-02 0.0 
2.549095181379e-03 5.506594861590e-02 0.0 
2.820797691719e-03 6.508987471412e-02 0.0 
2.357372886827e-03 5.965017152676e-02 0.0 
2.077219351619e-03 4.940499426173e-02 0.0 
1.922071093411e-03 5.407755557614e-02 0.0 
2.138775808490e-03 6.415755818963e-02 0.0 
1.735210034028e-03 5.867071587094e-02 0.0 
1.897479396462e-03 6.857729125066e-02 0.0 
1.521509588144e-03 6.317890019111e-02 0.0 
1.363315827099e-03 5.305505992662e-02 0.0 
8.936217790501e-04 7.642948668378e-02 0.0 
7.934119100485e-03 4.065786169206e-02 0.0 
6.908013409213e-03 3.386308066679e-02 0.0 
1.811191801324e-03 6.746399740293e-02 0.0 
1.956384837255e-03 6.423056501368e-02 0.0 
2.436801342990e-03 6.232973087386e-02 0.0 
2.014539583707e-03 6.060180698588e-02 0.0 
1.172521126158e-03 5.770189986733e-02 0.0 
1.024081524839e-03 4.732272099662e-02 0.0 
7.012245770813e-03 9.533744780442e-02 0.0 
8.385512570459e-03 9.673942165441e-02 0.0 
3.599447001037e-03 4.182268856723e-02 0.0 
1.585209100734e-03 3.626060113432e-02 0.0 
1.777690389894e-03 4.204884896614e-02 0.0 
1.296077418540e-02 8.723875214605e-02 0.0 
1.264786381222e-02 9.216322874831e-02 0.0 
1.259719247856e-02 9.320446303262e-02 0.0 
1.212436466568e-02 9.838982423063e-02 0.0 
1.214421924072e-02 9.719248335350e-02 0.0 
1.190238362334e-02 9.896968471044e-02 0.0 
6.768531336881e-03 4.612426657514e-02 0.0 
1.642950023125e-03 4.360965711357e-02 0.0 
2.252057822726e-03 7.497722262463e-02 0.0 
1.691671035824e-03 7.677643044113e-02 0.0 
1.348817222474e-03 3.000576135325e-02 0.0 
8.727628478928e-03 4.696735635455e-02 0.0 
1.137100031182e-02 6.133192366653e-02 0.0 
1.118829315277e-02 5.673757901014e-02 0.0 
1.045934034827e-02 5.313977667345e-02 0.0 
1.014071820256e-02 4.857319169660e-02 0.0 
9.288218520414e-03 4.456858963688e-02 0.0 
8.825096283097e-03 4.001883591967e-02 0.0 
9.685346267169e-03 4.408306729155e-02 0.0 
8.177421145568e-03 3.423860792653e-02 0.0 
8.228839790537e-03 3.552214733770e-02 0.0 
1.307324681250e-03 6.768905718049e-02 0.0 
1.097121540317e-02 5.247396114047e-02 0.0 
4.588195059519e-03 7.517429202496e-02 0.0 
9.144698684489e-04 7.715756517311e-02 0.0 
1.832817818547e-03 7.946190998529e-02 0.0 
8.050431170474e-04 7.570982725396e-02 0.0 
1.008979998292e-03 7.387416385945e-02 0.0 
4.511329313754e-03 2.688814042353e-02 0.0 
7.844738255695e-03 3.561466747659e-02 0.0 
8.328849288247e-03 4.023147525787e-02 0.0 
1.144615933555e-02 1.036236467299e-01 0.0 
1.145372992482e-02 1.022138645159e-01 0.0 
7.304033495537e-03 3.018464850222e-02 0.0 
5.017614499451e-03 7.176069009997e-02 0.0 
3.305690847732e-03 7.039108792337e-02 0.0 
3.013871339270e-03 7.473298553179e-02 0.0 
5.884438117194e-04 7.727398557562e-02 0.0 
1.531390518661e-03 8.065780869945e-02 0.0 
2.268920714201e-03 3.984760656467e-02 0.0 
9.957948356352e-03 9.324549071389e-02 0.0 
9.594833396871e-03 9.794507709053e-02 0.0 
2.399495865031e-03 9.084711157966e-02 0.0 
9.741181644181e-04 8.941564395569e-02 0.0 
8.640336903198e-04 5.194921117165e-02 0.0 
7.329143261785e-04 4.145778177546e-02 0.0 
2.499057131384e-03 5.845985720683e-02 0.0 
2.038405124739e-03 5.655140953346e-02 0.0 
5.339259056647e-03 3.020541951323e-02 0.0 
2.111495207924e-03 7.819965100863e-02 0.0 
8.392843405716e-04 3.657526787409e-02 0.0 
7.921344101128e-03 4.369373701897e-02 0.0 
8.541829822420e-03 4.964141291507e-02 0.0 
1.542998261514e-03 6.264367048864e-02 0.0 
6.375531174974e-03 9.982115477101e-02 0.0 
4.847170023254e-03 9.795310547746e-02 0.0 
5.508234573856e-03 7.448847800402e-02 0.0 
2.950754651620e-03 7.644469377640e-02 0.0 
6.730550953908e-04 7.489916128563e-02 0.0 
4.217820265444e-03 2.299787570927e-02 0.0 
2.288772785327e-03 3.496533159657e-02 0.0 
9.098925938957e-03 3.967431441879e-02 0.0 
1.040903499758e-02 4.783259558894e-02 0.0 
7.514172486591e-03 3.111592773334e-02 0.0 
1.216416016122e-03 7.959048080026e-02 0.0 
3.717595553159e-03 2.356078231677e-02 0.0 
1.121470207798e-03 3.356216855549e-02 0.0 
6.828431207541e-03 3.131512231090e-02 0.0 
7.274779229398e-03 3.557439765048e-02 0.0 
1.094253094756e-02 9.395738033576e-02 0.0 
1.061773674120e-02 9.881659821690e-02 0.0 
9.042512287593e-03 1.030212245069e-01 0.0 
1.006111237525e-02 1.040438929199e-01 0.0 
8.376228378708e-03 8.119022548943e-02 0.0 
1.172010333323e-02 9.429804214636e-02 0.0 
1.017728543545e-02 8.445469077724e-02 0.0 
9.605279818388e-03 8.888152552199e-02 0.0 
1.013270355838e-02 9.227158168067e-02 0.0 
1.198401251181e-02 9.557053430907e-02 0.0 
1.128687663473e-02 1.003845464691e-01 0.0 
1.116212652052e-02 8.500554070289e-02 0.0 
1.156868017297e-02 6.112948153465e-02 0.0 
2.949353503417e-03 6.031843799615e-02 0.0 
3.371193689683e-03 4.918769507100e-02 0.0 
6.684058082351e-03 5.384616433676e-02 0.0 
1.724058935253e-03 3.877810024371e-02 0.0 
1.300343249767e-03 3.275683523532e-02 0.0 
2.296859388117e-03 7.384631585050e-02 0.0 
2.012045042797e-03 7.808708110794e-02 0.0 
1.221498097425e-03 7.738360373717e-02 0.0 
1.104456504208e-03 7.820550135682e-02 0.0 
5.047644309606e-03 5.597371834014e-02 0.0 
3.899069509641e-03 2.739245719945e-02 0.0 
2.899578451519e-03 3.601665339895e-02 0.0 
2.835270224971e-03 3.108636834721e-02 0.0 
3.592069867672e-03 3.696120829546e-02 0.0 
5.081421008269e-03 2.643745654921e-02 0.0 
9.902402672065e-03 7.773251721004e-02 0.0 
1.001422766427e-02 5.607728174527e-02 0.0 
1.803169867088e-03 8.692399073467e-02 0.0 
1.222567235588e-02 6.281025449258e-02 0.0 
7.174243344519e-04 7.859220869916e-02 0.0 
8.989094016165e-03 5.433843352440e-02 0.0 
9.248291602115e-04 2.710635377422e-02 0.0 
1.070025506398e-03 2.327286198281e-02 0.0 
6.506266509259e-03 2.601085114286e-02 0.0 
7.830042819265e-03 9.344671658757e-02 0.0 
1.185988709345e-02 5.839854319863e-02 0.0 
1.211832302573e-02 6.098234454068e-02 0.0 
9.458969040175e-03 9.658159912190e-02 0.0 
9.866620057601e-03 9.971334365038e-02 0.0 
1.059066315910e-02 9.531821529530e-02 0.0 
1.019321399783e-02 1.025576216370e-01 0.0 
5.350439748309e-03 7.260096803378e-02 0.0 
4.496468403602e-03 7.349873617149e-02 0.0 
6.049982525489e-03 2.598276960824e-02 0.0 
6.547590051476e-03 2.685632626808e-02 0.0 
5.710523941104e-03 2.654961695439e-02 0.0 
6.149829937115e-03 3.056947759283e-02 0.0 
5.541362932739e-03 2.190576394983e-02 0.0 
6.367271490642e-03 2.619593718718e-02 0.0 
8.142930450985e-04 7.289044585275e-02 0.0 
1.061606343900e-02 1.070169032394e-01 0.0 
1.735850801481e-03 2.890945730127e-02 0.0 
8.988701732282e-03 9.320087324067e-02 0.0 
2.996171600612e-03 2.040973892248e-02 0.0 
3.188865065905e-03 2.420596076199e-02 0.0 
-2.892441103306e-04 8.816741690493e-02 0.0 
6.339230815975e-04 8.583024228303e-02 0.0 
5.757429127300e-04 3.073687438645e-02 0.0 
8.277943004931e-03 1.083693896744e-01 0.0 
9.258478320678e-03 1.095119172575e-01 0.0 
7.022608267199e-03 1.066894024334e-01 0.0 
1.400528893603e-04 1.219172645805e-02 0.0 
5.417005384061e-04 9.506642061497e-02 0.0 
6.955729807605e-04 2.017586998944e-02 0.0 
1.166995474711e-02 9.339430381787e-02 0.0 
6.122931470642e-04 2.524749974680e-02 0.0 
1.137475523984e-02 5.414954350350e-02 0.0 
1.284992043278e-02 8.839416278226e-02 0.0 
6.191264136481e-03 3.353716607300e-02 0.0 
4.687266890357e-04 3.661142940775e-02 0.0 
3.446818427335e-04 2.430135624360e-02 0.0 
3.464963108492e-03 7.966389623478e-02 0.0 
3.137657724267e-03 8.398362743444e-02 0.0 
3.804919080302e-03 7.553432206430e-02 0.0 
3.950448774507e-03 9.235506491525e-02 0.0 
1.263688630676e-03 9.465374199144e-02 0.0 
1.251240714446e-03 3.768362986420e-02 0.0 
1.629023923023e-03 7.030297796969e-02 0.0 
1.342422128239e-03 6.873244491954e-02 0.0 
2.232603198317e-03 7.710107089669e-02 0.0 
2.953213894031e-03 7.518315304106e-02 0.0 
2.988665951190e-03 5.622993912376e-02 0.0 
3.472768568029e-03 5.821602603866e-02 0.0 
8.909609276323e-03 4.962858535611e-02 0.0 
7.948812972788e-03 4.518463023206e-02 0.0 
1.064015912096e-02 5.779830542414e-02 0.0 
7.769900219932e-03 4.652288060177e-02 0.0 
8.229947794208e-03 5.212612376214e-02 0.0 
8.948660159959e-03 5.510180233471e-02 0.0 
1.315860016391e-03 2.812541779610e-02 0.0 
8.751753435874e-04 2.095306786730e-02 0.0 
6.234530303027e-03 7.171704701715e-02 0.0 
6.462284057513e-03 7.381074966688e-02 0.0 
5.119066280216e-03 7.086265363579e-02 0.0 
1.654606651101e-03 2.408004449850e-02 0.0 
7.701727767744e-04 1.626980030089e-02 0.0 
1.140714554659e-03 1.956314782815e-02 0.0 
5.260478881315e-04 7.923933680056e-02 0.0 
9.134116574696e-04 7.900929898258e-02 0.0 
3.960026903780e-03 1.024380255060e-01 0.0 
2.267256381813e-03 1.001985885084e-01 0.0 
2.728284492569e-03 2.652584652557e-02 0.0 
3.511084342172e-03 3.212032555873e-02 0.0 
1.925909740017e-03 2.000357845285e-02 0.0 
4.837609852946e-04 7.414185645032e-02 0.0 
9.800858843001e-03 4.337281169796e-02 0.0 
3.858963756525e-03 1.928663308292e-02 0.0 
4.765895879180e-03 2.288817868751e-02 0.0 
2.835739159631e-03 1.481573298966e-02 0.0 
7.454728964539e-03 3.043816345551e-02 0.0 
5.635893966897e-03 2.196834595933e-02 0.0 
5.615165930941e-03 2.213533251598e-02 0.0 
-1.355931758184e-03 9.047922948553e-02 0.0 
2.620918528962e-04 2.895280593392e-02 0.0 
2.395964617293e-03 8.314644858828e-02 0.0 
-2.188628486415e-03 8.918963970465e-02 0.0 
2.075046059893e-03 8.751467358799e-02 0.0 
1.731015403671e-03 8.229961328754e-02 0.0 
1.796752272654e-03 9.174849118726e-02 0.0 
3.966100703969e-04 7.582807913347e-02 0.0 
3.957809178594e-03 8.608719494560e-02 0.0 
4.347385564081e-03 8.089441921914e-02 0.0 
1.149949845463e-04 8.004904970117e-02 0.0 
1.119331965050e-03 1.793558089808e-02 0.0 
2.600761003828e-04 7.938542698925e-02 0.0 
4.479056183264e-04 7.887364119703e-02 0.0 
2.307087031241e-03 1.696923536929e-02 0.0 
2.528511888100e-03 2.095861698453e-02 0.0 
1.681535922337e-03 1.364061981770e-02 0.0 
1.969794382787e-03 1.806411428619e-02 0.0 
2.645044691520e-03 2.493074067823e-02 0.0 
2.064673425585e-03 2.178725621462e-02 0.0 
2.818477792083e-03 8.883222519612e-02 0.0 
1.355526497230e-03 1.369005585194e-02 0.0 
1.534077507403e-03 1.843492519049e-02 0.0 
8.942606336673e-04 1.053667494591e-02 0.0 
9.351943629099e-03 1.067494887628e-01 0.0 
1.072118090198e-02 1.047300087481e-01 0.0 
9.876006035789e-03 1.102478820126e-01 0.0 
8.125096036512e-03 1.155091644411e-01 0.0 
4.148043026987e-03 1.939485004412e-02 0.0 
5.073062893437e-03 2.580875284413e-02 0.0 
7.001709510770e-04 3.065587640232e-02 0.0 
8.004943009663e-04 3.684301863994e-02 0.0 
1.431607538834e-03 8.709595834302e-02 0.0 
1.043766683480e-03 8.746534774964e-02 0.0 
1.137236476183e-03 7.917282559400e-02 0.0 
8.203467997276e-04 8.019818261707e-02 0.0 
8.742553994523e-04 7.176707412852e-02 0.0 
5.625496561379e-04 7.285762368444e-02 0.0 
6.658797447869e-04 6.413061337462e-02 0.0 
4.473996564876e-03 1.752684062761e-02 0.0 
5.844402105463e-03 1.120585731197e-01 0.0 
8.744013010705e-03 1.007952240946e-01 0.0 
4.517795779314e-03 1.784182206275e-02 0.0 
5.535492527159e-03 2.294656923320e-02 0.0 
1.047312822332e-02 1.050149093866e-01 0.0 
9.655332457140e-03 1.117572599651e-01 0.0 
2.470515767717e-03 1.517250736609e-02 0.0 
1.190008143391e-02 8.956408332278e-02 0.0 
8.362736061187e-04 1.151617216728e-02 0.0 
-5.190329112164e-03 9.741380804240e-02 0.0 
-2.012445857261e-03 9.544013133978e-02 0.0 
1.247404979771e-02 8.935830896452e-02 0.0 
1.098005203111e-02 9.804037498416e-02 0.0 
1.119285932728e-02 1.045990630424e-01 0.0 
1.040183448271e-02 1.096576019625e-01 0.0 
7.100283043659e-03 4.038340932534e-02 0.0 
6.076249079250e-04 7.985705774461e-02 0.0 
5.561856830930e-03 1.046475723708e-01 0.0 
9.659331440730e-04 6.314097039757e-02 0.0 
2.740846505429e-03 1.071650512802e-01 0.0 
3.672830955264e-04 3.350845780771e-02 0.0 
1.195043868049e-02 8.493252083597e-02 0.0 
1.222372358505e-02 8.863285266880e-02 0.0 
7.806889424039e-03 1.015200336206e-01 0.0 
1.143015101109e-02 9.909401915015e-02 0.0 
8.860227436600e-03 7.683121344932e-02 0.0 
7.856283874560e-03 8.541157683718e-02 0.0 
8.420390020447e-03 8.949088685990e-02 0.0 
1.183858430646e-02 8.066175774356e-02 0.0 
1.061117415993e-02 1.085740996434e-01 0.0 
9.347332375206e-03 1.150072526041e-01 0.0 
1.067262665929e-02 7.993669036887e-02 0.0 
4.388859850813e-03 4.264304405523e-02 0.0 
4.359314113927e-03 3.777568223595e-02 0.0 
3.366827123919e-03 2.753357387827e-02 0.0 
4.243674480421e-03 3.295922438567e-02 0.0 
5.242980171722e-03 4.330096227662e-02 0.0 
5.184343459817e-03 3.848709385304e-02 0.0 
4.030117657386e-03 2.824961394359e-02 0.0 
5.025472792379e-03 3.367736202109e-02 0.0 
3.394936864844e-03 2.131171315831e-02 0.0 
4.708596010776e-03 2.863945600411e-02 0.0 
6.050589179274e-03 3.917576898863e-02 0.0 
5.846670684317e-03 3.458729075263e-02 0.0 
4.491781794925e-03 2.513800632216e-02 0.0 
7.104057496456e-03 4.494169663988e-02 0.0 
3.545101479958e-03 1.345014289432e-02 0.0 
1.292659177407e-02 8.370631724377e-02 0.0 
-6.447370947171e-05 9.230812226176e-02 0.0 
-6.197182350647e-04 9.789383921339e-02 0.0 
1.179716271189e-02 8.610705111778e-02 0.0 
1.654563252991e-03 1.037517935716e-02 0.0 
1.339102963009e-03 1.029809737871e-02 0.0 
1.014587566029e-02 8.889329010981e-02 0.0 
2.133543778040e-03 9.222066006149e-03 0.0 
9.004188916059e-03 8.519149946553e-02 0.0 
5.990066269376e-03 9.018850246861e-02 0.0 
2.287108161390e-03 9.011055811861e-03 0.0 
5.210393201835e-03 4.807501212736e-02 0.0 
6.045014595621e-03 5.349017708953e-02 0.0 
5.867990839960e-03 5.812818526582e-02 0.0 
1.024034083308e-03 9.657438823410e-03 0.0 
4.133084110144e-03 7.122396053724e-02 0.0 
2.170051322761e-03 7.903582413594e-03 0.0 
1.104160183660e-02 5.503560270771e-02 0.0 
1.167325663208e-02 5.906150367739e-02 0.0 
1.210844307428e-02 6.511960114393e-02 0.0 
6.152337293706e-03 4.408626166816e-02 0.0 
2.017188111722e-03 7.883064953891e-03 0.0 
3.633767104834e-03 1.499828661502e-02 0.0 
3.418552924263e-03 1.479688511094e-02 0.0 
5.080789275198e-03 2.224223403001e-02 0.0 
1.779188700228e-03 7.637537231634e-03 0.0 
1.737908742019e-03 9.177848010513e-03 0.0 
1.762611932449e-03 8.633601304112e-03 0.0 
5.591766422301e-03 7.649274462263e-02 0.0 
6.627156412936e-03 7.601924459984e-02 0.0 
7.429455936494e-03 7.309995434869e-02 0.0 
7.666226940342e-03 7.555608489253e-02 0.0 
6.707819188634e-03 7.841231641797e-02 0.0 
7.819378194078e-03 7.821161117783e-02 0.0 
8.673199666042e-03 7.508498030797e-02 0.0 
7.880159258946e-03 8.109731484310e-02 0.0 
6.605827892542e-03 3.547692389348e-02 0.0 
1.479173903871e-03 7.193860358655e-03 0.0 
6.440331654145e-03 4.873805838576e-02 0.0 
7.140530415139e-03 5.155285949859e-02 0.0 
7.322165054314e-03 5.649077498322e-02 0.0 
3.380328928983e-03 6.214318942204e-02 0.0 
3.942159763040e-03 6.018299240607e-02 0.0 
3.991230129625e-03 5.600351757342e-02 0.0 
2.829071968193e-03 6.402094984404e-02 0.0 
1.086426326694e-02 5.223365986496e-02 0.0 
1.354156975658e-03 7.187715094165e-03 0.0 
9.295748014297e-03 5.280206938473e-02 0.0 
4.393946368978e-03 6.213011483392e-02 0.0 
5.270431797634e-03 9.455588590934e-02 0.0 
5.518692431124e-03 8.698581655417e-02 0.0 
6.065718812941e-03 8.656697143522e-02 0.0 
5.659037323632e-03 7.791116184187e-02 0.0 
4.906026793655e-03 8.614416882402e-02 0.0 
2.498128019768e-03 5.418995110005e-02 0.0 
2.006906471911e-03 5.210241729957e-02 0.0 
1.569819196209e-03 5.459441084360e-02 0.0 
1.519568650182e-03 4.995916735400e-02 0.0 
1.098928778328e-03 5.256514269659e-02 0.0 
1.135779492853e-03 5.687014924427e-02 0.0 
1.030803186508e-03 4.775231199899e-02 0.0 
6.354625957410e-04 5.102086122257e-02 0.0 
4.234026999157e-03 9.481849695491e-02 0.0 
-2.339657399935e-03 8.527231206592e-02 0.0 
-7.778948378032e-04 8.409610813308e-02 0.0 
-5.927930293375e-04 8.292733434405e-02 0.0 
4.606948213794e-04 8.281470920406e-02 0.0 
5.185963475274e-04 8.400061806731e-02 0.0 
1.885985486446e-03 8.227342943591e-02 0.0 
1.825447945265e-03 8.381004716223e-02 0.0 
-1.002839112811e-03 8.560369706473e-02 0.0 
-1.492002287208e-03 8.287615300776e-02 0.0 
-3.914794030919e-04 8.199152036373e-02 0.0 
-1.148421364107e-03 8.201260588544e-02 0.0 
-2.595527889344e-04 8.125875555151e-02 0.0 
6.947640119073e-04 8.080735313614e-02 0.0 
1.614576689743e-03 7.769613940431e-02 0.0 
3.953799851493e-04 8.176819835136e-03 0.0 
4.151492895577e-04 6.255459621648e-02 0.0 
7.899672686777e-04 6.433801254045e-02 0.0 
7.201837869011e-04 6.743552574269e-02 0.0 
1.163478792904e-03 6.584695337922e-02 0.0 
7.924456361257e-04 6.107022008790e-02 0.0 
3.418273593411e-04 6.894970121545e-02 0.0 
6.467197622182e-04 6.992679647027e-02 0.0 
2.481698124912e-05 7.909742149394e-02 0.0 
9.809270117289e-05 7.874070961267e-02 0.0 
3.317269531145e-05 7.875561882890e-02 0.0 
1.498661609318e-04 7.809551798068e-02 0.0 
2.391725403861e-04 7.816313609371e-02 0.0 
1.493915892996e-04 7.879271845806e-02 0.0 
1.857253320718e-04 7.889106147295e-02 0.0 
-9.762844737082e-07 7.930064813765e-02 0.0 
2.088873428887e-04 7.902446326609e-02 0.0 
4.261661175420e-04 7.830162085382e-02 0.0 
-4.530997799090e-05 7.945919049829e-02 0.0 
2.097002620829e-04 5.083611360381e-02 0.0 
3.996723949697e-04 4.564028782056e-02 0.0 
1.179484526519e-03 7.533750787758e-03 0.0 
3.268457086961e-03 9.420722719847e-02 0.0 
-6.017900295259e-04 8.075908743533e-02 0.0 
3.169664755376e-04 1.232678877673e-02 0.0 
4.803490465903e-04 1.024630238425e-02 0.0 
3.932584116484e-04 9.921845508906e-03 0.0 
2.309137943124e-04 1.988742091083e-02 0.0 
3.753086026370e-04 1.633915120270e-02 0.0 
1.671999988844e-04 1.197846074503e-02 0.0 
2.751045409971e-03 7.280001925386e-02 0.0 
3.128172558270e-03 2.300792654244e-02 0.0 
9.056150276407e-04 3.160991977769e-02 0.0 
5.517949033514e-03 9.384933054468e-02 0.0 
3.693681588283e-03 7.436225303094e-02 0.0 
1.267837472798e-03 3.949565892588e-02 0.0 
3.761674987169e-03 4.643380691271e-02 0.0 
1.504519911291e-03 2.636079891005e-02 0.0 
2.290028906495e-03 4.448759665821e-02 0.0 
2.530308328168e-03 3.216341902007e-02 0.0 
3.283264253493e-03 1.509232512336e-02 0.0 
5.350170868832e-04 7.647179222259e-02 0.0 
2.567369737037e-03 6.951133305314e-02 0.0 
1.654302013115e-03 7.294687305730e-02 0.0 
1.520786450079e-03 4.837336281048e-02 0.0 
1.860605916489e-03 7.151860829046e-02 0.0 
1.593623084088e-03 5.860966272722e-02 0.0 
1.269625675858e-03 7.653932100542e-02 0.0 
4.095353399805e-03 1.716097635924e-02 0.0 
1.074235608596e-02 8.781408922913e-02 0.0 
6.750523040195e-03 5.851485511597e-02 0.0 
3.197370265941e-03 6.567255801600e-02 0.0 
3.396818462422e-03 7.164905602278e-02 0.0 
3.729980460918e-03 7.582882724385e-02 0.0 
1.309011968063e-02 8.250088806599e-02 0.0 
5.001959763527e-03 6.021941357919e-02 0.0 
4.573650105057e-03 3.739489799810e-02 0.0 
1.157723433266e-03 4.254259880094e-02 0.0 
-1.904164882927e-04 7.990215512006e-02 0.0 
4.672027409971e-03 3.407206154708e-02 0.0 
4.959856165588e-03 5.128231142499e-02 0.0 
3.581331795793e-03 6.595922225883e-02 0.0 
8.385889655560e-03 3.768422531748e-02 0.0 
2.387152977867e-03 8.059448170868e-02 0.0 
2.195972257169e-03 4.467460758024e-02 0.0 
2.169395881410e-03 2.570586148079e-02 0.0 
4.684289541963e-03 7.629081417332e-02 0.0 
8.371082157499e-04 7.791630089387e-02 0.0 
2.718514268047e-03 7.911845731336e-02 0.0 
3.389566879775e-03 1.952159042319e-02 0.0 
4.334648287518e-03 4.742874502777e-02 0.0 
1.405663800704e-03 7.274580048834e-02 0.0 
1.028093260450e-02 6.136633645359e-02 0.0 
1.260825741480e-02 8.377529018178e-02 0.0 
7.632286481467e-03 1.010314236518e-01 0.0 
9.358357279012e-04 2.698432956720e-02 0.0 
1.261668708426e-02 6.742547548636e-02 0.0 
6.582698858718e-03 3.021349037655e-02 0.0 
9.509957299542e-03 5.031337992916e-02 0.0 
1.200405040347e-03 7.160574428765e-02 0.0 
3.271510842721e-03 2.797472467880e-02 0.0 
1.183725686033e-02 6.676831419434e-02 0.0 
1.761592241053e-03 3.394070528099e-02 0.0 
9.617298227393e-03 4.919385554018e-02 0.0 
1.049261275898e-02 7.384120123081e-02 0.0 
2.892069059598e-03 4.087382908857e-02 0.0 
7.940690918959e-03 5.914998610444e-02 0.0 
7.933518268899e-03 3.407798629770e-02 0.0 
1.124844633463e-02 9.077201361032e-02 0.0 
1.140856898615e-02 6.598399990090e-02 0.0 
8.938603970787e-03 5.899546695588e-02 0.0 
1.244958965601e-02 6.730745657147e-02 0.0 
8.648139908836e-04 4.262180509701e-02 0.0 
3.951383948252e-03 3.103822435718e-02 0.0 
3.689584205855e-03 8.535009492513e-02 0.0 
1.230577692974e-02 9.393479935767e-02 0.0 
4.418988260355e-03 6.667108764982e-02 0.0 
7.287405679168e-03 3.136199253207e-02 0.0 
1.242419127941e-03 2.274449166087e-02 0.0 
1.251514596519e-02 9.063281993961e-02 0.0 
3.241180149905e-03 3.158603854392e-02 0.0 
2.261396100913e-03 3.036330839090e-02 0.0 
4.502831350853e-03 5.813056604210e-02 0.0 
1.915920371328e-04 7.559663590701e-02 0.0 
3.267776962925e-03 9.604723755685e-02 0.0 
9.027018180603e-03 8.117875431977e-02 0.0 
1.254411855989e-02 6.921946969721e-02 0.0 
4.491417800638e-03 5.371453514680e-02 0.0 
2.402116779258e-03 2.046881194886e-02 0.0 
2.634911291000e-03 2.862804439875e-02 0.0 
6.260057191600e-03 3.696587810916e-02 0.0 
-2.276589838566e-03 1.059746281234e-01 0.0 
8.333185635394e-03 9.718646413839e-02 0.0 
2.076677144660e-03 2.561024055466e-02 0.0 
9.636925643669e-03 5.817254699452e-02 0.0 
7.037922356584e-03 3.028306656313e-02 0.0 
6.895550924331e-04 5.512022686984e-02 0.0 
4.236409065161e-03 1.709442687264e-02 0.0 
9.599675288992e-03 1.092701503600e-01 0.0 
1.571575091845e-03 2.252648519985e-02 0.0 
7.078180463413e-03 3.721441234388e-02 0.0 
1.112964853259e-02 8.931996437046e-02 0.0 
8.987960500662e-04 9.506534752376e-02 0.0 
9.961794219455e-04 1.411948244507e-02 0.0 
5.963304491743e-03 2.990251590635e-02 0.0 
1.178195557537e-02 5.997046104263e-02 0.0 
9.134199917602e-03 6.008260430815e-02 0.0 
8.257553671054e-03 1.078015588072e-01 0.0 
3.930327555665e-03 5.144314025105e-02 0.0 
1.068508051783e-02 6.247187702490e-02 0.0 
8.900063728987e-04 9.432651972794e-03 0.0 
5.680273087242e-03 2.662958104789e-02 0.0 
6.641808298177e-03 6.339566780174e-02 0.0 
3.470707097709e-03 5.390350447604e-02 0.0 
1.075674313672e-02 4.983979844338e-02 0.0 
3.334450466612e-04 7.822746709733e-02 0.0 
9.079411497638e-03 1.038514403132e-01 0.0 
2.946508945302e-03 5.174854687804e-02 0.0 
8.890886573074e-03 7.802431920936e-02 0.0 
8.489323827886e-03 5.720654000536e-02 0.0 
4.669671644962e-03 1.786873720608e-02 0.0 
2.428335599760e-03 4.954143253918e-02 0.0 
9.625851814302e-03 7.451266131387e-02 0.0 
1.919644093380e-03 4.728213974288e-02 0.0 
8.604580354877e-03 1.134583743964e-01 0.0 
6.872343178586e-03 5.864434779941e-02 0.0 
1.405906768157e-03 4.495990681280e-02 0.0 
9.816330036575e-03 5.388096591946e-02 0.0 
5.231055081767e-04 7.839534204623e-02 0.0 
1.144521788969e-02 5.554373777377e-02 0.0 
5.443328931207e-04 2.367259629405e-02 0.0 
4.832091721454e-03 6.916656503382e-02 0.0 
7.827179432946e-03 5.441622862911e-02 0.0 
6.141323026441e-03 4.878323329646e-02 0.0 
8.497530785331e-03 1.179480678875e-01 0.0 
7.511745229822e-03 4.914616939592e-02 0.0 
8.690241881432e-03 4.495388337204e-02 0.0 
1.097492836844e-02 5.119952117490e-02 0.0 
1.220171908819e-02 6.319954814647e-02 0.0 
6.989108647282e-03 4.332314082782e-02 0.0 
9.642319021378e-03 1.132463087742e-01 0.0 
2.845745282350e-03 7.407424936513e-02 0.0 
2.270179381267e-03 7.603904024378e-02 0.0 
9.269101217857e-03 7.152566087610e-02 0.0 
7.672431769162e-03 4.033307663007e-02 0.0 
3.078677041390e-04 7.727559240699e-02 0.0 
7.112561353853e-03 4.938887459756e-02 0.0 
1.449684413860e-03 7.864583826085e-02 0.0 
8.374486517940e-03 7.235295644649e-02 0.0 
8.979786305737e-03 3.841823710773e-02 0.0 
2.539651705291e-04 7.043589943134e-02 0.0 
8.009992821094e-03 6.978173368156e-02 0.0 
2.367908298990e-04 7.373835036649e-02 0.0 
7.130954599107e-03 7.079235072267e-02 0.0 
1.160280517255e-02 5.670929366610e-02 0.0 
6.780531413229e-03 6.855873310703e-02 0.0 
5.947432404602e-03 6.972831118432e-02 0.0 
6.209699681392e-04 2.078269815132e-02 0.0 
5.609980869208e-03 6.780137580086e-02 0.0 
7.909257276850e-05 9.938017694768e-03 0.0 
1.654345308115e-04 7.436020850513e-03 0.0 
3.387162598187e-04 8.854574067985e-02 0.0 
7.616822269323e-03 1.214994995018e-01 0.0 
-4.060634046166e-03 9.126297463270e-02 0.0 
9.166000314835e-03 1.144113447672e-01 0.0 
4.325888568015e-03 7.195459914147e-02 0.0 
8.075726635646e-03 4.987453976182e-02 0.0 
7.038664952148e-04 8.813760969435e-02 0.0 
3.564499246195e-03 7.301209142403e-02 0.0 
3.255983756393e-03 1.849783824257e-02 0.0 
2.185613930823e-03 8.110619065612e-03 0.0 
4.562096403689e-04 5.540807262685e-02 0.0 
6.188348745333e-03 2.691339027499e-02 0.0 
1.033965776940e-02 4.663707971120e-02 0.0 
1.286093640331e-04 3.005160414581e-02 0.0 
2.093583771774e-03 9.570753887218e-02 0.0 
-1.291316492740e-04 8.065876824191e-02 0.0 
4.170511456932e-04 3.960118881301e-02 0.0 
6.084797380076e-03 1.218657424629e-01 0.0 
7.041354086361e-03 1.140408620705e-01 0.0 
4.257888789478e-03 1.098097871683e-01 0.0 
9.384457149331e-04 7.066089506766e-02 0.0 
4.706421515532e-04 8.181469351296e-02 0.0 
4.166671714462e-03 1.178998710770e-01 0.0 
3.908245901066e-03 1.568062193309e-02 0.0 
3.525131351083e-03 8.791970015330e-02 0.0 
8.395344034263e-03 3.535991266482e-02 0.0 
1.002107171853e-03 1.124701583893e-01 0.0 
1.550464670515e-03 1.996121670706e-02 0.0 
4.413126202802e-03 1.674641665094e-02 0.0 
8.331343420664e-04 6.589795313168e-03 0.0 
6.597909617330e-03 2.639796905565e-02 0.0 
9.663767201289e-04 1.044094623473e-01 0.0 
5.180705482829e-03 7.991904442576e-02 0.0 
3.941597825847e-03 1.727949390554e-02 0.0 
6.146455713463e-04 4.714658119534e-02 0.0 
5.982831172791e-04 6.296456521088e-03 0.0 
4.447122260203e-03 8.859766424995e-02 0.0 
3.795330709977e-04 1.941163758518e-02 0.0 
2.528543827777e-03 8.476157873056e-02 0.0 
1.880724332750e-04 1.884042893925e-02 0.0 
6.918523637282e-03 4.013295018552e-02 0.0 
1.428065503255e-03 7.722603471039e-02 0.0 
6.228443664384e-03 7.990615954284e-02 0.0 
4.546796955367e-04 1.286691557812e-02 0.0 
2.801322273427e-03 1.894223395141e-02 0.0 
-7.502280064386e-04 1.012115248726e-01 0.0 
7.153803306537e-04 5.642696589981e-02 0.0 
1.569077917364e-03 6.585886127075e-02 0.0 
-1.601167521205e-03 8.742858285543e-02 0.0 
2.058090962864e-03 1.377953718957e-02 0.0 
5.554287392449e-03 3.039863064460e-02 0.0 
7.597348062882e-04 1.314845405759e-02 0.0 
6.121009156379e-05 7.814108890396e-02 0.0 
2.777848630586e-05 7.983854517380e-02 0.0 
2.296515487929e-03 1.290147683180e-02 0.0 
3.395314292465e-03 1.671388255886e-02 0.0 
3.147717979337e-03 8.219615211854e-02 0.0 
5.140508491408e-04 8.035791323699e-03 0.0 
-3.036651981034e-03 9.899468612432e-02 0.0 
2.865394407891e-03 9.658119821206e-02 0.0 
1.881275828728e-04 7.922635935499e-02 0.0 
4.796437068819e-04 6.353223135108e-03 0.0 
9.177392265585e-04 1.859828653945e-02 0.0 
1.111528532055e-03 6.275068899629e-02 0.0 
6.322691671066e-03 9.320918357592e-02 0.0 
5.542084743897e-04 7.225775561491e-02 0.0 
5.740516222332e-03 2.361777223727e-02 0.0 
4.522919062442e-04 8.043760023980e-02 0.0 
6.213088848952e-04 1.756500531874e-02 0.0 
2.652394671676e-03 1.279452652682e-02 0.0 
1.888572420768e-03 1.742852497731e-02 0.0 
1.610179498272e-03 5.943360994337e-03 0.0 
-2.429502315280e-03 9.270375605546e-02 0.0 
3.824157679453e-03 1.454862329696e-02 0.0 
4.466462407720e-03 2.028805741212e-02 0.0 
1.572254312897e-03 9.606580092729e-02 0.0 
2.410775234537e-03 1.860434300202e-02 0.0 
9.984128287823e-04 6.844994661137e-02 0.0 
6.805744292073e-04 7.752254913455e-02 0.0 
3.517021853838e-05 8.807191422083e-03 0.0 
-3.854825270211e-06 7.904485459418e-02 0.0 
2.629174000432e-04 9.603877454376e-02 0.0 
6.652143531960e-05 6.065077164646e-03 0.0 
3.969077670654e-04 7.753289410269e-02 0.0 
5.564284359778e-04 8.199044750826e-02 0.0 
3.090352074629e-03 1.623839955156e-02 0.0 
2.972711369182e-04 5.436952887765e-02 0.0 
3.045200914613e-04 3.720533098688e-02 0.0 
1.342281827791e-03 8.159284744241e-02 0.0 
-3.793363038451e-03 8.880528431890e-02 0.0 
4.404456926892e-04 6.559541061429e-02 0.0 
3.939503570468e-03 1.482072654612e-02 0.0 
1.450126810106e-03 1.670864295449e-02 0.0 
1.140490054546e-03 7.209793440324e-02 0.0 
1.328044761745e-03 9.795954214204e-02 0.0 
4.355685990674e-03 2.290569692459e-02 0.0 
1.195175155567e-03 5.990739115071e-02 0.0 
5.370469592705e-03 2.375407254284e-02 0.0 
4.966250460317e-03 2.092564152396e-02 0.0 
-5.399932693688e-03 1.004578842685e-01 0.0 
2.705276338508e-04 4.980283244350e-02 0.0 
1.309605873798e-04 7.943817553085e-02 0.0 
1.374229794024e-03 1.214388537873e-02 0.0 
7.930729351349e-04 5.808795742372e-02 0.0 
4.428818461200e-03 1.289382485413e-01 0.0 
1.831265177472e-04 1.405717316330e-01 0.0 
6.263906750767e-03 1.270869758252e-01 0.0 
1.841640118059e-04 1.345488011748e-01 0.0 
7.115701657153e-03 1.234572110904e-01 0.0 
1.674178337154e-04 1.280987493646e-01 0.0 
7.332885173476e-03 1.185582621602e-01 0.0 
1.849823354831e-04 1.212176433358e-01 0.0 
7.128855401483e-03 1.125189714351e-01 0.0 
1.686517184893e-04 1.139053773717e-01 0.0 
6.630531276642e-03 1.057018028885e-01 0.0 
1.842630566671e-04 1.061646804754e-01 0.0 

VECTORS node_bounda_dof_materi_velocity_x float
1.000000000000e+00 0.0 0.0 
1.000000000000e+00 0.0 0.0 
1.000000000000e+00 0.0 0.0 
1.000000000000e+00 0.0 0.0 
1.000000000000e+00 0.0 0.0 
1.000000000000e+00 0.0 0.0 
1.000000000000e+00 0.0 0.0 
1.000000000000e+00 0.0 0.0 
1.000000000000e+00 0.0 0.0 
1.000000000000e+00 0.0 0.0 
1.000000000000e+00 0.0 0.0 
1.000000000000e+00 0.0 0.0 
1.000000000000e+00 0.0 0.0 
1.000000000000e+00 0.0 0.0 
1.000000000000e+00 0.0 0.0 
1.000000000000e+00 0.0 0.0 
1.000000000000e+00 0.0 0.0 
1.000000000000e+00 0.0 0.0 
1.000000000000e+00 0.0 0.0 
1.000000000000e+00 0.0 0.0 
1.000000000000e+00 0.0 0.0 
1.000000000000e+00 0.0 0.0 
1.000000000000e+00 0.0 0.0 
1.000000000000e+00 0.0 0.0 
1.000000000000e+00 0.0 0.0 
1.000000000000e+00 0.0 0.0 
1.000000000000e+00 0.0 0.0 
1.000000000000e+00 0.0 0.0 
1.000000000000e+00 0.0 0.0 
1.000000000000e+00 0.0 0.0 
1.000000000000e+00 0.0 0.0 
1.000000000000e+00 0.0 0.0 
1.000000000000e+00 0.0 0.0 
1.000000000000e+00 0.0 0.0 
1.000000000000e+00 0.0 0.0 
1.000000000000e+00 0.0 0.0 
1.000000000000e+00 0.0 0.0 
1.000000000000e+00 0.0 0.0 
1.000000000000e+00 0.0 0.0 
1.000000000000e+00 0.0 0.0 
1.000000000000e+00 0.0 0.0 
1.000000000000e+00 0.0 0.0 
1.000000000000e+00 0.0 0.0 
1.000000000000e+00 0.0 0.0 
1.000000000000e+00 0.0 0.0 
1.000000000000e+00 0.0 0.0 
1.000000000000e+00 0.0 0.0 
1.000000000000e+00 0.0 0.0 
1.000000000000e+00 0.0 0.0 
1.000000000000e+00 0.0 0.0 
1.000000000000e+00 0.0 0.0 
1.000000000000e+00 0.0 0.0 
1.000000000000e+00 0.0 0.0 
1.000000000000e+00 0.0 0.0 
1.000000000000e+00 0.0 0.0 
1.000000000000e+00 0.0 0.0 
1.000000000000e+00 0.0 0.0 
1.000000000000e+00 0.0 0.0 
1.000000000000e+00 0.0 0.0 
1.000000000000e+00 0.0 0.0 
1.000000000000e+00 0.0 0.0 
1.000000000000e+00 0.0 0.0 
1.000000000000e+00 0.0 0.0 
1.000000000000e+00 0.0 0.0 
1.000000000000e+00 0.0 0.0 
1.000000000000e+00 0.0 0.0 
1.000000000000e+00 0.0 0.0 
1.000000000000e+00 0.0 0.0 
1.000000000000e+00 0.0 0.0 
1.000000000000e+00 0.0 0.0 
1.000000000000e+00 0.0 0.0 
1.000000000000e+00 0.0 0.0 
1.000000000000e+00 0.0 0.0 
1.000000000000e+00 0.0 0.0 
1.000000000000e+00 0.0 0.0 
1.000000000000e+00 0.0 0.0 
1.000000000000e+00 0.0 0.0 
1.000000000000e+00 0.0 0.0 
1.000000000000e+00 0.0 0.0 
1.000000000000e+00 0.0 0.0 
1.000000000000e+00 0.0 0.0 
0.0 0.0 0.0 
0.0 0.0 0.0 
0.0 0.0 0.0 
0.0 0.0 0.0 
0.0 0.0 0.0 
0.0 0.0 0.0 
0.0 0.0 0.0 
0.0 0.0 0.0 
0.0 0.0 0.0 
0.0 0.0 0.0 
0.0 0.0 0.0 
1.000000000000e+00 0.0 0.0 
1.000000000000e+00 0.0 0.0 
1.000000000000e+00 0.0 0.0 
1.000000000000e+00 0.0 0.0 
1.000000000000e+00 0.0 0.0 
1.000000000000e+00 0.0 0.0 
0.0 0.0 0.0 
0.0 0.0 0.0 
0.0 0.0 0.0 
0.0 0.0 0.0 
0.0 0.0 0.0 
0.0 0.0 0.0 
0.0 0.0 0.0 
0.0 0.0 0.0 
0.0 0.0 0.0 
0.0 0.0 0.0 
0.0 0.0 0.0 
0.0 0.0 0.0 
0.0 0.0 0.0 
0.0 0.0 0.0 
0.0 0.0 0.0 
0.0 0.0 0.0 
0.0 0.0 0.0 
0.0 0.0 0.0 
0.0 0.0 0.0 
0.0 0.0 0.0 
0.0 0.0 0.0 
0.0 0.0 0.0 
0.0 0.0 0.0 
0.0 0.0 0.0 
0.0 0.0 0.0 
0.0 0.0 0.0 
0.0 0.0 0.0 
0.0 0.0 0.0 
0.0 0.0 0.0 
0.0 0.0 0.0 
0.0 0.0 0.0 
0.0 0.0 0.0 
0.0 0.0 0.0 
0.0 0.0 0.0 
0.0 0.0 0.0 
0.0 0.0 0.0 
0.0 0.0 0.0 
0.0 0.0 0.0 
0.0 0.0 0.0 
0.0 0.0 0.0 
0.0 0.0 0.0 
0.0 0.0 0.0 
0.0 0.0 0.0 
0.0 0.0 0.0 
0.0 0.0 0.0 
0.0 0.0 0.0 
0.0 0.0 0.0 
0.0 0.0 0.0 
0.0 0.0 0.0 
0.0 0.0 0.0 
0.0 0.0 0.0 
0.0 0.0 0.0 
0.0 0.0 0.0 
0.0 0.0 0.0 
0.0 0.0 0.0 
0.0 0.0 0.0 
0.0 0.0 0.0 
0.0 0.0 0.0 
0.0 0.0 0.0 
0.0 0.0 0.0 
0.0 0.0 0.0 
0.0 0.0 0.0 
0.0 0.0 0.0 
0.0 0.0 0.0 
0.0 0.0 0.0 
0.0 0.0 0.0 
0.0 0.0 0.0 
0.0 0.0 0.0 
0.0 0.0 0.0 
0.0 0.0 0.0 
0.0 0.0 0.0 
0.0 0.0 0.0 
0.0 0.0 0.0 
0.0 0.0 0.0 
0.0 0.0 0.0 
0.0 0.0 0.0 
0.0 0.0 0.0 
0.0 0.0 0.0 
0.0 0.0 0.0 
0.0 0.0 0.0 
0.0 0.0 0.0 
0.0 0.0 0.0 
0.0 0.0 0.0 
0.0 0.0 0.0 
0.0 0.0 0.0 
0.0 0.0 0.0 
0.0 0.0 0.0 
0.0 0.0 0.0 
0.0 0.0 0.0 
0.0 0.0 0.0 
0.0 0.0 0.0 
0.0 0.0 0.0 
0.0 0.0 0.0 
0.0 0.0 0.0 
0.0 0.0 0.0 
0.0 0.0 0.0 
0.0 0.0 0.0 
0.0 0.0 0.0 
0.0 0.0 0.0 
0.0 0.0 0.0 
0.0 0.0 0.0 
0.0 0.0 0.0 
0.0 0.0 0.0 
0.0 0.0 0.0 
0.0 0.0 0.0 
0.0 0.0 0.0 
0.0 0.0 0.0 
0.0 0.0 0.0 
0.0 0.0 0.0 
0.0 0.0 0.0 
0.0 0.0 0.0 
0.0 0.0 0.0 
0.0 0.0 0.0 
0.0 0.0 0.0 
0.0 0.0 0.0 
0.0 0.0 0.0 
0.0 0.0 0.0 
0.0 0.0 0.0 
0.0 0.0 0.0 
0.0 0.0 0.0 
0.0 0.0 0.0 
0.0 0.0 0.0 
0.0 0.0 0.0 
0.0 0.0 0.0 
0.0 0.0 0.0 
0.0 0.0 0.0 
0.0 0.0 0.0 
0.0 0.0 0.0 
0.0 0.0 0.0 
0.0 0.0 0.0 
0.0 0.0 0.0 
0.0 0.0 0.0 
0.0 0.0 0.0 
0.0 0.0 0.0 
0.0 0.0 0.0 
0.0 0.0 0.0 
0.0 0.0 0.0 
0.0 0.0 0.0 
0.0 0.0 0.0 
0.0 0.0 0.0 
0.0 0.0 0.0 
0.0 0.0 0.0 
0.0 0.0 0.0 
0.0 0.0 0.0 
0.0 0.0 0.0 
0.0 0.0 0.0 
0.0 0.0 0.0 
0.0 0.0 0.0 
0.0 0.0 0.0 
0.0 0.0 0.0 
0.0 0.0 0.0 
0.0 0.0 0.0 
0.0 0.0 0.0 
0.0 0.0 0.0 
0.0 0.0 0.0 
0.0 0.0 0.0 
0.0 0.0 0.0 
0.0 0.0 0.0 
0.0 0.0 0.0 
0.0 0.0 0.0 
0.0 0.0 0.0 
0.0 0.0 0.0 
0.0 0.0 0.0 
0.0 0.0 0.0 
0.0 0.0 0.0 
0.0 0.0 0.0 
0.0 0.0 0.0 
0.0 0.0 0.0 
0.0 0.0 0.0 
0.0 0.0 0.0 
0.0 0.0 0.0 
0.0 0.0 0.0 
0.0 0.0 0.0 
0.0 0.0 0.0 
0.0 0.0 0.0 
0.0 0.0 0.0 
0.0 0.0 0.0 
0.0 0.0 0.0 
0.0 0.0 0.0 
0.0 0.0 0.0 
0.0 0.0 0.0 
0.0 0.0 0.0 
0.0 0.0 0.0 
0.0 0.0 0.0 
0.0 0.0 0.0 
0.0 0.0 0.0 
0.0 0.0 0.0 
0.0 0.0 0.0 
0.0 0.0 0.0 
0.0 0.0 0.0 
0.0 0.0 0.0 
0.0 0.0 0.0 
0.0 0.0 0.0 
0.0 0.0 0.0 
0.0 0.0 0.0 
0.0 0.0 0.0 
0.0 0.0 0.0 
0.0 0.0 0.0 
0.0 0.0 0.0 
0.0 0.0 0.0 
0.0 0.0 0.0 
0.0 0.0 0.0 
0.0 0.0 0.0 
0.0 0.0 0.0 
0.0 0.0 0.0 
0.0 0.0 0.0 
0.0 0.0 0.0 
0.0 0.0 0.0 
0.0 0.0 0.0 
0.0 0.0 0.0 
0.0 0.0 0.0 
0.0 0.0 0.0 
0.0 0.0 0.0 
0.0 0.0 0.0 
0.0 0.0 0.0 
0.0 0.0 0.0 
0.0 0.0 0.0 
0.0 0.0 0.0 
0.0 0.0 0.0 
0.0 0.0 0.0 
0.0 0.0 0.0 
0.0 0.0 0.0 
0.0 0.0 0.0 
0.0 0.0 0.0 
0.0 0.0 0.0 
0.0 0.0 0.0 
0.0 0.0 0.0 
0.0 0.0 0.0 
0.0 0.0 0.0 
0.0 0.0 0.0 
0.0 0.0 0.0 
0.0 0.0 0.0 
0.0 0.0 0.0 
0.0 0.0 0.0 
0.0 0.0 0.0 
0.0 0.0 0.0 
0.0 0.0 0.0 
0.0 0.0 0.0 
0.0 0.0 0.0 
0.0 0.0 0.0 
0.0 0.0 0.0 
0.0 0.0 0.0 
0.0 0.0 0.0 
0.0 0.0 0.0 
0.0 0.0 0.0 
0.0 0.0 0.0 
0.0 0.0 0.0 
0.0 0.0 0.0 
0.0 0.0 0.0 
0.0 0.0 0.0 
0.0 0.0 0.0 
0.0 0.0 0.0 
0.0 0.0 0.0 
0.0 0.0 0.0 
0.0 0.0 0.0 
0.0 0.0 0.0 
0.0 0.0 0.0 
0.0 0.0 0.0 
0.0 0.0 0.0 
0.0 0.0 0.0 
0.0 0.0 0.0 
0.0 0.0 0.0 
0.0 0.0 0.0 
0.0 0.0 0.0 
0.0 0.0 0.0 
0.0 0.0 0.0 
0.0 0.0 0.0 
0.0 0.0 0.0 
0.0 0.0 0.0 
0.0 0.0 0.0 
0.0 0.0 0.0 
0.0 0.0 0.0 
0.0 0.0 0.0 
0.0 0.0 0.0 
0.0 0.0 0.0 
0.0 0.0 0.0 
0.0 0.0 0.0 
0.0 0.0 0.0 
0.0 0.0 0.0 
0.0 0.0 0.0 
0.0 0.0 0.0 
0.0 0.0 0.0 
0.0 0.0 0.0 
0.0 0.0 0.0 
0.0 0.0 0.0 
0.0 0.0 0.0 
0.0 0.0 0.0 
0.0 0.0 0.0 
0.0 0.0 0.0 
0.0 0.0 0.0 
0.0 0.0 0.0 
0.0 0.0 0.0 
0.0 0.0 0.0 
0.0 0.0 0.0 
0.0 0.0 0.0 
0.0 0.0 0.0 
0.0 0.0 0.0 
0.0 0.0 0.0 
0.0 0.0 0.0 
0.0 0.0 0.0 
0.0 0.0 0.0 
0.0 0.0 0.0 
0.0 0.0 0.0 
0.0 0.0 0.0 
0.0 0.0 0.0 
0.0 0.0 0.0 
0.0 0.0 0.0 
0.0 0.0 0.0 
0.0 0.0 0.0 
0.0 0.0 0.0 
0.0 0.0 0.0 
0.0 0.0 0.0 
0.0 0.0 0.0 
0.0 0.0 0.0 
0.0 0.0 0.0 
0.0 0.0 0.0 
0.0 0.0 0.0 
0.0 0.0 0.0 
0.0 0.0 0.0 
0.0 0.0 0.0 
0.0 0.0 0.0 
0.0 0.0 0.0 
0.0 0.0 0.0 
0.0 0.0 0.0 
0.0 0.0 0.0 
0.0 0.0 0.0 
0.0 0.0 0.0 
0.0 0.0 0.0 
0.0 0.0 0.0 
0.0 0.0 0.0 
0.0 0.0 0.0 
0.0 0.0 0.0 
0.0 0.0 0.0 
0.0 0.0 0.0 
0.0 0.0 0.0 
0.0 0.0 0.0 
0.0 0.0 0.0 
0.0 0.0 0.0 
0.0 0.0 0.0 
0.0 0.0 0.0 
0.0 0.0 0.0 
0.0 0.0 0.0 
0.0 0.0 0.0 
0.0 0.0 0.0 
0.0 0.0 0.0 
0.0 0.0 0.0 
0.0 0.0 0.0 
0.0 0.0 0.0 
0.0 0.0 0.0 
0.0 0.0 0.0 
0.0 0.0 0.0 
0.0 0.0 0.0 
0.0 0.0 0.0 
0.0 0.0 0.0 
0.0 0.0 0.0 
0.0 0.0 0.0 
0.0 0.0 0.0 
0.0 0.0 0.0 
0.0 0.0 0.0 
0.0 0.0 0.0 
0.0 0.0 0.0 
0.0 0.0 0.0 
0.0 0.0 0.0 
0.0 0.0 0.0 
0.0 0.0 0.0 
0.0 0.0 0.0 
0.0 0.0 0.0 
0.0 0.0 0.0 
0.0 0.0 0.0 
0.0 0.0 0.0 
0.0 0.0 0.0 
0.0 0.0 0.0 
0.0 0.0 0.0 
0.0 0.0 0.0 
0.0 0.0 0.0 
0.0 0.0 0.0 
0.0 0.0 0.0 
0.0 0.0 0.0 
0.0 0.0 0.0 
0.0 0.0 0.0 
0.0 0.0 0.0 
0.0 0.0 0.0 
0.0 0.0 0.0 
0.0 0.0 0.0 
0.0 0.0 0.0 
0.0 0.0 0.0 
0.0 0.0 0.0 
0.0 0.0 0.0 
0.0 0.0 0.0 
0.0 0.0 0.0 
0.0 0.0 0.0 
0.0 0.0 0.0 
0.0 0.0 0.0 
0.0 0.0 0.0 
0.0 0.0 0.0 
0.0 0.0 0.0 
0.0 0.0 0.0 
0.0 0.0 0.0 
0.0 0.0 0.0 
0.0 0.0 0.0 
0.0 0.0 0.0 
0.0 0.0 0.0 
0.0 0.0 0.0 
0.0 0.0 0.0 
0.0 0.0 0.0 
0.0 0.0 0.0 
0.0 0.0 0.0 
0.0 0.0 0.0 
0.0 0.0 0.0 
0.0 0.0 0.0 
0.0 0.0 0.0 
0.0 0.0 0.0 
0.0 0.0 0.0 
0.0 0.0 0.0 
0.0 0.0 0.0 
0.0 0.0 0.0 
0.0 0.0 0.0 
0.0 0.0 0.0 
0.0 0.0 0.0 
0.0 0.0 0.0 
0.0 0.0 0.0 
0.0 0.0 0.0 
0.0 0.0 0.0 
0.0 0.0 0.0 
0.0 0.0 0.0 
0.0 0.0 0.0 
0.0 0.0 0.0 
0.0 0.0 0.0 
0.0 0.0 0.0 
0.0 0.0 0.0 
0.0 0.0 0.0 
0.0 0.0 0.0 
0.0 0.0 0.0 
0.0 0.0 0.0 
0.0 0.0 0.0 
0.0 0.0 0.0 
0.0 0.0 0.0 
0.0 0.0 0.0 
0.0 0.0 0.0 
0.0 0.0 0.0 
0.0 0.0 0.0 
0.0 0.0 0.0 
0.0 0.0 0.0 
0.0 0.0 0.0 
0.0 0.0 0.0 
0.0 0.0 0.0 
0.0 0.0 0.0 
0.0 0.0 0.0 
0.0 0.0 0.0 
0.0 0.0 0.0 
0.0 0.0 0.0 
0.0 0.0 0.0 
0.0 0.0 0.0 
0.0 0.0 0.0 
0.0 0.0 0.0 
0.0 0.0 0.0 
0.0 0.0 0.0 
0.0 0.0 0.0 
0.0 0.0 0.0 
0.0 0.0 0.0 
0.0 0.0 0.0 
0.0 0.0 0.0 
0.0 0.0 0.0 
0.0 0.0 0.0 
0.0 0.0 0.0 
0.0 0.0 0.0 
0.0 0.0 0.0 
0.0 0.0 0.0 
0.0 0.0 0.0 
0.0 0.0 0.0 
0.0 0.0 0.0 
0.0 0.0 0.0 
0.0 0.0 0.0 
0.0 0.0 0.0 
0.0 0.0 0.0 
0.0 0.0 0.0 
0.0 0.0 0.0 
0.0 0.0 0.0 
0.0 0.0 0.0 
0.0 0.0 0.0 
0.0 0.0 0.0 
0.0 0.0 0.0 
0.0 0.0 0.0 
0.0 0.0 0.0 
0.0 0.0 0.0 
0.0 0.0 0.0 
0.0 0.0 0.0 
0.0 0.0 0.0 
0.0 0.0 0.0 
0.0 0.0 0.0 
0.0 0.0 0.0 
0.0 0.0 0.0 
0.0 0.0 0.0 
0.0 0.0 0.0 
0.0 0.0 0.0 
0.0 0.0 0.0 
0.0 0.0 0.0 
0.0 0.0 0.0 
0.0 0.0 0.0 
0.0 0.0 0.0 
0.0 0.0 0.0 
0.0 0.0 0.0 
0.0 0.0 0.0 
0.0 0.0 0.0 
0.0 0.0 0.0 
0.0 0.0 0.0 
0.0 0.0 0.0 
0.0 0.0 0.0 
0.0 0.0 0.0 
0.0 0.0 0.0 
0.0 0.0 0.0 
0.0 0.0 0.0 
0.0 0.0 0.0 
0.0 0.0 0.0 
0.0 0.0 0.0 
0.0 0.0 0.0 
0.0 0.0 0.0 
0.0 0.0 0.0 
0.0 0.0 0.0 
0.0 0.0 0.0 
0.0 0.0 0.0 
0.0 0.0 0.0 
0.0 0.0 0.0 
0.0 0.0 0.0 
0.0 0.0 0.0 
0.0 0.0 0.0 
0.0 0.0 0.0 
0.0 0.0 0.0 
0.0 0.0 0.0 
0.0 0.0 0.0 
0.0 0.0 0.0 
0.0 0.0 0.0 
0.0 0.0 0.0 
0.0 0.0 0.0 
0.0 0.0 0.0 
0.0 0.0 0.0 
0.0 0.0 0.0 
0.0 0.0 0.0 
0.0 0.0 0.0 
0.0 0.0 0.0 
0.0 0.0 0.0 
0.0 0.0 0.0 
0.0 0.0 0.0 
0.0 0.0 0.0 
0.0 0.0 0.0 
0.0 0.0 0.0 
0.0 0.0 0.0 
0.0 0.0 0.0 
0.0 0.0 0.0 
0.0 0.0 0.0 
0.0 0.0 0.0 
0.0 0.0 0.0 
0.0 0.0 0.0 
0.0 0.0 0.0 
0.0 0.0 0.0 
0.0 0.0 0.0 
0.0 0.0 0.0 
0.0 0.0 0.0 
0.0 0.0 0.0 
0.0 0.0 0.0 
0.0 0.0 0.0 
0.0 0.0 0.0 
0.0 0.0 0.0 
0.0 0.0 0.0 
0.0 0.0 0.0 
0.0 0.0 0.0 
0.0 0.0 0.0 
0.0 0.0 0.0 
0.0 0.0 0.0 
0.0 0.0 0.0 
0.0 0.0 0.0 
0.0 0.0 0.0 
0.0 0.0 0.0 
0.0 0.0 0.0 
0.0 0.0 0.0 
0.0 0.0 0.0 
0.0 0.0 0.0 
0.0 0.0 0.0 
0.0 0.0 0.0 
0.0 0.0 0.0 
0.0 0.0 0.0 
0.0 0.0 0.0 
0.0 0.0 0.0 
0.0 0.0 0.0 
0.0 0.0 0.0 
0.0 0.0 0.0 
0.0 0.0 0.0 
0.0 0.0 0.0 
0.0 0.0 0.0 
0.0 0.0 0.0 
0.0 0.0 0.0 
0.0 0.0 0.0 
0.0 0.0 0.0 
0.0 0.0 0.0 
0.0 0.0 0.0 
0.0 0.0 0.0 
0.0 0.0 0.0 
0.0 0.0 0.0 
0.0 0.0 0.0 
0.0 0.0 0.0 
0.0 0.0 0.0 
0.0 0.0 0.0 
0.0 0.0 0.0 
0.0 0.0 0.0 
0.0 0.0 0.0 
0.0 0.0 0.0 
0.0 0.0 0.0 
0.0 0.0 0.0 
0.0 0.0 0.0 
0.0 0.0 0.0 
0.0 0.0 0.0 
0.0 0.0 0.0 
0.0 0.0 0.0 
0.0 0.0 0.0 
0.0 0.0 0.0 
0.0 0.0 0.0 
0.0 0.0 0.0 
0.0 0.0 0.0 
0.0 0.0 0.0 
0.0 0.0 0.0 
0.0 0.0 0.0 
0.0 0.0 0.0 
0.0 0.0 0.0 
0.0 0.0 0.0 
0.0 0.0 0.0 
0.0 0.0 0.0 
0.0 0.0 0.0 
0.0 0.0 0.0 
0.0 0.0 0.0 
0.0 0.0 0.0 
0.0 0.0 0.0 
0.0 0.0 0.0 
0.0 0.0 0.0 
0.0 0.0 0.0 
0.0 0.0 0.0 
0.0 0.0 0.0 
0.0 0.0 0.0 
0.0 0.0 0.0 
0.0 0.0 0.0 
0.0 0.0 0.0 
0.0 0.0 0.0 
0.0 0.0 0.0 
0.0 0.0 0.0 
0.0 0.0 0.0 
0.0 0.0 0.0 
0.0 0.0 0.0 
0.0 0.0 0.0 
0.0 0.0 0.0 
0.0 0.0 0.0 
0.0 0.0 0.0 
0.0 0.0 0.0 
0.0 0.0 0.0 
0.0 0.0 0.0 
0.0 0.0 0.0 
0.0 0.0 0.0 
0.0 0.0 0.0 
0.0 0.0 0.0 
0.0 0.0 0.0 
0.0 0.0 0.0 
0.0 0.0 0.0 
0.0 0.0 0.0 
0.0 0.0 0.0 
0.0 0.0 0.0 
0.0 0.0 0.0 
0.0 0.0 0.0 
0.0 0.0 0.0 
0.0 0.0 0.0 
0.0 0.0 0.0 
0.0 0.0 0.0 
0.0 0.0 0.0 
0.0 0.0 0.0 
0.0 0.0 0.0 
0.0 0.0 0.0 
0.0 0.0 0.0 
0.0 0.0 0.0 
0.0 0.0 0.0 
0.0 0.0 0.0 
0.0 0.0 0.0 
0.0 0.0 0.0 
0.0 0.0 0.0 
0.0 0.0 0.0 
0.0 0.0 0.0 
0.0 0.0 0.0 
0.0 0.0 0.0 
0.0 0.0 0.0 
0.0 0.0 0.0 
0.0 0.0 0.0 
0.0 0.0 0.0 
0.0 0.0 0.0 
0.0 0.0 0.0 
0.0 0.0 0.0 
0.0 0.0 0.0 
0.0 0.0 0.0 
0.0 0.0 0.0 
0.0 0.0 0.0 
0.0 0.0 0.0 
0.0 0.0 0.0 
0.0 0.0 0.0 
0.0 0.0 0.0 
0.0 0.0 0.0 
0.0 0.0 0.0 
0.0 0.0 0.0 
0.0 0.0 0.0 
0.0 0.0 0.0 
0.0 0.0 0.0 
0.0 0.0 0.0 
0.0 0.0 0.0 
0.0 0.0 0.0 
0.0 0.0 0.0 
0.0 0.0 0.0 
0.0 0.0 0.0 
0.0 0.0 0.0 
0.0 0.0 0.0 
0.0 0.0 0.0 
0.0 0.0 0.0 
0.0 0.0 0.0 
0.0 0.0 0.0 
0.0 0.0 0.0 
0.0 0.0 0.0 
0.0 0.0 0.0 
0.0 0.0 0.0 
0.0 0.0 0.0 
0.0 0.0 0.0 
0.0 0.0 0.0 
0.0 0.0 0.0 
0.0 0.0 0.0 
0.0 0.0 0.0 
0.0 0.0 0.0 
0.0 0.0 0.0 
0.0 0.0 0.0 
0.0 0.0 0.0 
0.0 0.0 0.0 
0.0 0.0 0.0 
0.0 0.0 0.0 
0.0 0.0 0.0 
0.0 0.0 0.0 
0.0 0.0 0.0 
0.0 0.0 0.0 
0.0 0.0 0.0 
0.0 0.0 0.0 
0.0 0.0 0.0 
0.0 0.0 0.0 
0.0 0.0 0.0 
0.0 0.0 0.0 
0.0 0.0 0.0 
0.0 0.0 0.0 
0.0 0.0 0.0 
0.0 0.0 0.0 
0.0 0.0 0.0 
0.0 0.0 0.0 
0.0 0.0 0.0 
0.0 0.0 0.0 
0.0 0.0 0.0 
0.0 0.0 0.0 
0.0 0.0 0.0 
0.0 0.0 0.0 
0.0 0.0 0.0 
0.0 0.0 0.0 
0.0 0.0 0.0 
0.0 0.0 0.0 
0.0 0.0 0.0 
0.0 0.0 0.0 
0.0 0.0 0.0 
0.0 0.0 0.0 
0.0 0.0 0.0 
0.0 0.0 0.0 
0.0 0.0 0.0 
0.0 0.0 0.0 
0.0 0.0 0.0 
0.0 0.0 0.0 
0.0 0.0 0.0 
0.0 0.0 0.0 
0.0 0.0 0.0 
0.0 0.0 0.0 
0.0 0.0 0.0 
0.0 0.0 0.0 
0.0 0.0 0.0 
0.0 0.0 0.0 
0.0 0.0 0.0 
0.0 0.0 0.0 
0.0 0.0 0.0 
0.0 0.0 0.0 
0.0 0.0 0.0 
0.0 0.0 0.0 
0.0 0.0 0.0 
0.0 0.0 0.0 
0.0 0.0 0.0 
0.0 0.0 0.0 
0.0 0.0 0.0 
0.0 0.0 0.0 
0.0 0.0 0.0 
0.0 0.0 0.0 
0.0 0.0 0.0 
0.0 0.0 0.0 
0.0 0.0 0.0 
0.0 0.0 0.0 
0.0 0.0 0.0 
0.0 0.0 0.0 
0.0 0.0 0.0 
0.0 0.0 0.0 
0.0 0.0 0.0 
0.0 0.0 0.0 
0.0 0.0 0.0 
0.0 0.0 0.0 
0.0 0.0 0.0 
0.0 0.0 0.0 
0.0 0.0 0.0 
0.0 0.0 0.0 
0.0 0.0 0.0 
0.0 0.0 0.0 
0.0 0.0 0.0 
0.0 0.0 0.0 
0.0 0.0 0.0 
0.0 0.0 0.0 
0.0 0.0 0.0 
0.0 0.0 0.0 
0.0 0.0 0.0 
0.0 0.0 0.0 
0.0 0.0 0.0 
0.0 0.0 0.0 
0.0 0.0 0.0 
0.0 0.0 0.0 
0.0 0.0 0.0 
0.0 0.0 0.0 
0.0 0.0 0.0 
0.0 0.0 0.0 
0.0 0.0 0.0 
0.0 0.0 0.0 
0.0 0.0 0.0 
0.0 0.0 0.0 
0.0 0.0 0.0 
0.0 0.0 0.0 
0.0 0.0 0.0 
0.0 0.0 0.0 
0.0 0.0 0.0 
0.0 0.0 0.0 
0.0 0.0 0.0 
0.0 0.0 0.0 
0.0 0.0 0.0 
0.0 0.0 0.0 
0.0 0.0 0.0 
0.0 0.0 0.0 
0.0 0.0 0.0 
0.0 0.0 0.0 
0.0 0.0 0.0 
0.0 0.0 0.0 
0.0 0.0 0.0 
0.0 0.0 0.0 
0.0 0.0 0.0 
0.0 0.0 0.0 
0.0 0.0 0.0 
0.0 0.0 0.0 
0.0 0.0 0.0 
0.0 0.0 0.0 
0.0 0.0 0.0 
0.0 0.0 0.0 
0.0 0.0 0.0 
0.0 0.0 0.0 
0.0 0.0 0.0 
0.0 0.0 0.0 
0.0 0.0 0.0 
0.0 0.0 0.0 
0.0 0.0 0.0 
0.0 0.0 0.0 
0.0 0.0 0.0 
0.0 0.0 0.0 
0.0 0.0 0.0 
0.0 0.0 0.0 
0.0 0.0 0.0 
0.0 0.0 0.0 
0.0 0.0 0.0 
0.0 0.0 0.0 
0.0 0.0 0.0 
0.0 0.0 0.0 
0.0 0.0 0.0 
0.0 0.0 0.0 
0.0 0.0 0.0 
0.0 0.0 0.0 
0.0 0.0 0.0 
0.0 0.0 0.0 
0.0 0.0 0.0 
0.0 0.0 0.0 
0.0 0.0 0.0 
0.0 0.0 0.0 
0.0 0.0 0.0 
0.0 0.0 0.0 
0.0 0.0 0.0 
0.0 0.0 0.0 
0.0 0.0 0.0 
0.0 0.0 0.0 
0.0 0.0 0.0 
0.0 0.0 0.0 
0.0 0.0 0.0 
0.0 0.0 0.0 
0.0 0.0 0.0 
0.0 0.0 0.0 
0.0 0.0 0.0 
0.0 0.0 0.0 
0.0 0.0 0.0 
0.0 0.0 0.0 
0.0 0.0 0.0 
0.0 0.0 0.0 
0.0 0.0 0.0 
0.0 0.0 0.0 
0.0 0.0 0.0 
0.0 0.0 0.0 
0.0 0.0 0.0 
0.0 0.0 0.0 
0.0 0.0 0.0 
0.0 0.0 0.0 
0.0 0.0 0.0 
0.0 0.0 0.0 
0.0 0.0 0.0 
0.0 0.0 0.0 
0.0 0.0 0.0 
0.0 0.0 0.0 
0.0 0.0 0.0 
0.0 0.0 0.0 
0.0 0.0 0.0 
0.0 0.0 0.0 
0.0 0.0 0.0 
0.0 0.0 0.0 
0.0 0.0 0.0 
0.0 0.0 0.0 
0.0 0.0 0.0 
0.0 0.0 0.0 
0.0 0.0 0.0 
0.0 0.0 0.0 
0.0 0.0 0.0 
0.0 0.0 0.0 
0.0 0.0 0.0 
0.0 0.0 0.0 
0.0 0.0 0.0 
0.0 0.0 0.0 
0.0 0.0 0.0 
0.0 0.0 0.0 
0.0 0.0 0.0 
0.0 0.0 0.0 
0.0 0.0 0.0 
0.0 0.0 0.0 
0.0 0.0 0.0 
0.0 0.0 0.0 
0.0 0.0 0.0 
0.0 0.0 0.0 
0.0 0.0 0.0 
0.0 0.0 0.0 
0.0 0.0 0.0 
0.0 0.0 0.0 
0.0 0.0 0.0 
0.0 0.0 0.0 
0.0 0.0 0.0 
0.0 0.0 0.0 
0.0 0.0 0.0 
0.0 0.0 0.0 
0.0 0.0 0.0 
0.0 0.0 0.0 
0.0 0.0 0.0 
0.0 0.0 0.0 
0.0 0.0 0.0 
0.0 0.0 0.0 
0.0 0.0 0.0 
0.0 0.0 0.0 
0.0 0.0 0.0 
0.0 0.0 0.0 
0.0 0.0 0.0 
0.0 0.0 0.0 
0.0 0.0 0.0 
0.0 0.0 0.0 
0.0 0.0 0.0 
0.0 0.0 0.0 
0.0 0.0 0.0 
0.0 0.0 0.0 
0.0 0.0 0.0 
0.0 0.0 0.0 
0.0 0.0 0.0 
0.0 0.0 0.0 
0.0 0.0 0.0 
0.0 0.0 0.0 
0.0 0.0 0.0 
0.0 0.0 0.0 
0.0 0.0 0.0 
0.0 0.0 0.0 
0.0 0.0 0.0 
0.0 0.0 0.0 
0.0 0.0 0.0 
0.0 0.0 0.0 
0.0 0.0 0.0 
0.0 0.0 0.0 
0.0 0.0 0.0 
0.0 0.0 0.0 
0.0 0.0 0.0 
0.0 0.0 0.0 
0.0 0.0 0.0 
0.0 0.0 0.0 
0.0 0.0 0.0 
0.0 0.0 0.0 
0.0 0.0 0.0 
0.0 0.0 0.0 
0.0 0.0 0.0 
0.0 0.0 0.0 
0.0 0.0 0.0 
0.0 0.0 0.0 
0.0 0.0 0.0 
0.0 0.0 0.0 
0.0 0.0 0.0 
0.0 0.0 0.0 
0.0 0.0 0.0 
0.0 0.0 0.0 
0.0 0.0 0.0 
0.0 0.0 0.0 
0.0 0.0 0.0 
0.0 0.0 0.0 
0.0 0.0 0.0 
0.0 0.0 0.0 
0.0 0.0 0.0 
0.0 0.0 0.0 
0.0 0.0 0.0 
0.0 0.0 0.0 
0.0 0.0 0.0 
0.0 0.0 0.0 
0.0 0.0 0.0 
0.0 0.0 0.0 
0.0 0.0 0.0 
0.0 0.0 0.0 
0.0 0.0 0.0 
0.0 0.0 0.0 
0.0 0.0 0.0 
0.0 0.0 0.0 
0.0 0.0 0.0 
0.0 0.0 0.0 
0.0 0.0 0.0 
0.0 0.0 0.0 
0.0 0.0 0.0 
0.0 0.0 0.0 
0.0 0.0 0.0 
0.0 0.0 0.0 
0.0 0.0 0.0 
0.0 0.0 0.0 
0.0 0.0 0.0 
0.0 0.0 0.0 
0.0 0.0 0.0 
0.0 0.0 0.0 
0.0 0.0 0.0 
0.0 0.0 0.0 
0.0 0.0 0.0 
0.0 0.0 0.0 
0.0 0.0 0.0 
0.0 0.0 0.0 
0.0 0.0 0.0 
0.0 0.0 0.0 
0.0 0.0 0.0 
0.0 0.0 0.0 
0.0 0.0 0.0 
0.0 0.0 0.0 
0.0 0.0 0.0 
0.0 0.0 0.0 
0.0 0.0 0.0 
0.0 0.0 0.0 
0.0 0.0 0.0 
0.0 0.0 0.0 
0.0 0.0 0.0 
0.0 0.0 0.0 
0.0 0.0 0.0 
0.0 0.0 0.0 
0.0 0.0 0.0 

VECTORS node_bounda_dof_materi_velocity_y float
0.0 0.0 0.0 
0.0 0.0 0.0 
0.0 1.000000000000e+00 0.0 
0.0 1.000000000000e+00 0.0 
0.0 0.0 0.0 
0.0 0.0 0.0 
0.0 0.0 0.0 
0.0 0.0 0.0 
0.0 0.0 0.0 
0.0 0.0 0.0 
0.0 0.0 0.0 
0.0 0.0 0.0 
0.0 0.0 0.0 
0.0 0.0 0.0 
0.0 0.0 0.0 
0.0 0.0 0.0 
0.0 0.0 0.0 
0.0 0.0 0.0 
0.0 0.0 0.0 
0.0 0.0 0.0 
0.0 0.0 0.0 
0.0 0.0 0.0 
0.0 0.0 0.0 
0.0 1.000000000000e+00 0.0 
0.0 1.000000000000e+00 0.0 
0.0 1.000000000000e+00 0.0 
0.0 1.000000000000e+00 0.0 
0.0 1.000000000000e+00 0.0 
0.0 1.000000000000e+00 0.0 
0.0 1.000000000000e+00 0.0 
0.0 1.000000000000e+00 0.0 
0.0 1.000000000000e+00 0.0 
0.0 1.000000000000e+00 0.0 
0.0 1.000000000000e+00 0.0 
0.0 1.000000000000e+00 0.0 
0.0 1.000000000000e+00 0.0 
0.0 1.000000000000e+00 0.0 
0.0 1.000000000000e+00 0.0 
0.0 1.000000000000e+00 0.0 
0.0 1.000000000000e+00 0.0 
0.0 1.000000000000e+00 0.0 
0.0 1.000000000000e+00 0.0 
0.0 1.000000000000e+00 0.0 
0.0 1.000000000000e+00 0.0 
0.0 1.000000000000e+00 0.0 
0.0 1.000000000000e+00 0.0 
0.0 1.000000000000e+00 0.0 
0.0 1.000000000000e+00 0.0 
0.0 1.000000000000e+00 0.0 
0.0 1.000000000000e+00 0.0 
0.0 1.000000000000e+00 0.0 
0.0 1.000000000000e+00 0.0 
0.0 1.000000000000e+00 0.0 
0.0 1.000000000000e+00 0.0 
0.0 1.000000000000e+00 0.0 
0.0 1.000000000000e+00 0.0 
0.0 1.000000000000e+00 0.0 
0.0 1.000000000000e+00 0.0 
0.0 1.000000000000e+00 0.0 
0.0 1.000000000000e+00 0.0 
0.0 1.000000000000e+00 0.0 
0.0 1.000000000000e+00 0.0 
0.0 1.000000000000e+00 0.0 
0.0 1.000000000000e+00 0.0 
0.0 1.000000000000e+00 0.0 
0.0 1.000000000000e+00 0.0 
0.0 1.000000000000e+00 0.0 
0.0 1.000000000000e+00 0.0 
0.0 1.000000000000e+00 0.0 
0.0 1.000000000000e+00 0.0 
0.0 1.000000000000e+00 0.0 
0.0 1.000000000000e+00 0.0 
0.0 0.0 0.0 
0.0 0.0 0.0 
0.0 0.0 0.0 
0.0 0.0 0.0 
0.0 0.0 0.0 
0.0 0.0 0.0 
0.0 0.0 0.0 
0.0 0.0 0.0 
0.0 0.0 0.0 
0.0 0.0 0.0 
0.0 0.0 0.0 
0.0 0.0 0.0 
0.0 0.0 0.0 
0.0 0.0 0.0 
0.0 0.0 0.0 
0.0 0.0 0.0 
0.0 0.0 0.0 
0.0 0.0 0.0 
0.0 0.0 0.0 
0.0 0.0 0.0 
0.0 0.0 0.0 
0.0 0.0 0.0 
0.0 0.0 0.0 
0.0 0.0 0.0 
0.0 0.0 0.0 
0.0 0.0 0.0 
0.0 0.0 0.0 
0.0 0.0 0.0 
0.0 0.0 0.0 
0.0 0.0 0.0 
0.0 0.0 0.0 
0.0 0.0 0.0 
0.0 0.0 0.0 
0.0 0.0 0.0 
0.0 0.0 0.0 
0.0 0.0 0.0 
0.0 0.0 0.0 
0.0 0.0 0.0 
0.0 0.0 0.0 
0.0 0.0 0.0 
0.0 0.0 0.0 
0.0 0.0 0.0 
0.0 0.0 0.0 
0.0 0.0 0.0 
0.0 0.0 0.0 
0.0 0.0 0.0 
0.0 0.0 0.0 
0.0 0.0 0.0 
0.0 0.0 0.0 
0.0 0.0 0.0 
0.0 0.0 0.0 
0.0 0.0 0.0 
0.0 0.0 0.0 
0.0 0.0 0.0 
0.0 0.0 0.0 
0.0 0.0 0.0 
0.0 0.0 0.0 
0.0 0.0 0.0 
0.0 0.0 0.0 
0.0 0.0 0.0 
0.0 0.0 0.0 
0.0 0.0 0.0 
0.0 0.0 0.0 
0.0 0.0 0.0 
0.0 0.0 0.0 
0.0 0.0 0.0 
0.0 0.0 0.0 
0.0 0.0 0.0 
0.0 0.0 0.0 
0.0 0.0 0.0 
0.0 0.0 0.0 
0.0 0.0 0.0 
0.0 0.0 0.0 
0.0 0.0 0.0 
0.0 0.0 0.0 
0.0 0.0 0.0 
0.0 0.0 0.0 
0.0 0.0 0.0 
0.0 0.0 0.0 
0.0 0.0 0.0 
0.0 0.0 0.0 
0.0 0.0 0.0 
0.0 0.0 0.0 
0.0 0.0 0.0 
0.0 0.0 0.0 
0.0 0.0 0.0 
0.0 0.0 0.0 
0.0 0.0 0.0 
0.0 0.0 0.0 
0.0 0.0 0.0 
0.0 0.0 0.0 
0.0 0.0 0.0 
0.0 0.0 0.0 
0.0 0.0 0.0 
0.0 0.0 0.0 
0.0 0.0 0.0 
0.0 0.0 0.0 
0.0 0.0 0.0 
0.0 0.0 0.0 
0.0 0.0 0.0 
0.0 0.0 0.0 
0.0 0.0 0.0 
0.0 0.0 0.0 
0.0 0.0 0.0 
0.0 0.0 0.0 
0.0 0.0 0.0 
0.0 0.0 0.0 
0.0 0.0 0.0 
0.0 0.0 0.0 
0.0 0.0 0.0 
0.0 0.0 0.0 
0.0 0.0 0.0 
0.0 0.0 0.0 
0.0 0.0 0.0 
0.0 0.0 0.0 
0.0 0.0 0.0 
0.0 0.0 0.0 
0.0 0.0 0.0 
0.0 0.0 0.0 
0.0 0.0 0.0 
0.0 0.0 0.0 
0.0 0.0 0.0 
0.0 0.0 0.0 
0.0 0.0 0.0 
0.0 0.0 0.0 
0.0 0.0 0.0 
0.0 0.0 0.0 
0.0 0.0 0.0 
0.0 0.0 0.0 
0.0 0.0 0.0 
0.0 0.0 0.0 
0.0 0.0 0.0 
0.0 0.0 0.0 
0.0 0.0 0.0 
0.0 0.0 0.0 
0.0 0.0 0.0 
0.0 0.0 0.0 
0.0 0.0 0.0 
0.0 0.0 0.0 
0.0 0.0 0.0 
0.0 0.0 0.0 
0.0 0.0 0.0 
0.0 0.0 0.0 
0.0 0.0 0.0 
0.0 0.0 0.0 
0.0 0.0 0.0 
0.0 0.0 0.0 
0.0 0.0 0.0 
0.0 0.0 0.0 
0.0 0.0 0.0 
0.0 0.0 0.0 
0.0 0.0 0.0 
0.0 0.0 0.0 
0.0 0.0 0.0 
0.0 0.0 0.0 
0.0 0.0 0.0 
0.0 0.0 0.0 
0.0 0.0 0.0 
0.0 0.0 0.0 
0.0 0.0 0.0 
0.0 0.0 0.0 
0.0 0.0 0.0 
0.0 0.0 0.0 
0.0 0.0 0.0 
0.0 0.0 0.0 
0.0 0.0 0.0 
0.0 0.0 0.0 
0.0 0.0 0.0 
0.0 0.0 0.0 
0.0 0.0 0.0 
0.0 0.0 0.0 
0.0 0.0 0.0 
0.0 0.0 0.0 
0.0 0.0 0.0 
0.0 0.0 0.0 
0.0 0.0 0.0 
0.0 0.0 0.0 
0.0 0.0 0.0 
0.0 0.0 0.0 
0.0 0.0 0.0 
0.0 0.0 0.0 
0.0 0.0 0.0 
0.0 0.0 0.0 
0.0 0.0 0.0 
0.0 0.0 0.0 
0.0 0.0 0.0 
0.0 0.0 0.0 
0.0 0.0 0.0 
0.0 0.0 0.0 
0.0 0.0 0.0 
0.0 0.0 0.0 
0.0 0.0 0.0 
0.0 0.0 0.0 
0.0 0.0 0.0 
0.0 0.0 0.0 
0.0 0.0 0.0 
0.0 0.0 0.0 
0.0 0.0 0.0 
0.0 0.0 0.0 
0.0 0.0 0.0 
0.0 0.0 0.0 
0.0 0.0 0.0 
0.0 0.0 0.0 
0.0 0.0 0.0 
0.0 0.0 0.0 
0.0 0.0 0.0 
0.0 0.0 0.0 
0.0 0.0 0.0 
0.0 0.0 0.0 
0.0 0.0 0.0 
0.0 0.0 0.0 
0.0 0.0 0.0 
0.0 0.0 0.0 
0.0 0.0 0.0 
0.0 0.0 0.0 
0.0 0.0 0.0 
0.0 0.0 0.0 
0.0 0.0 0.0 
0.0 0.0 0.0 
0.0 0.0 0.0 
0.0 0.0 0.0 
0.0 0.0 0.0 
0.0 0.0 0.0 
0.0 0.0 0.0 
0.0 0.0 0.0 
0.0 0.0 0.0 
0.0 0.0 0.0 
0.0 0.0 0.0 
0.0 0.0 0.0 
0.0 0.0 0.0 
0.0 0.0 0.0 
0.0 0.0 0.0 
0.0 0.0 0.0 
0.0 0.0 0.0 
0.0 0.0 0.0 
0.0 0.0 0.0 
0.0 0.0 0.0 
0.0 0.0 0.0 
0.0 0.0 0.0 
0.0 0.0 0.0 
0.0 0.0 0.0 
0.0 0.0 0.0 
0.0 0.0 0.0 
0.0 0.0 0.0 
0.0 0.0 0.0 
0.0 0.0 0.0 
0.0 0.0 0.0 
0.0 0.0 0.0 
0.0 0.0 0.0 
0.0 0.0 0.0 
0.0 0.0 0.0 
0.0 0.0 0.0 
0.0 0.0 0.0 
0.0 0.0 0.0 
0.0 0.0 0.0 
0.0 0.0 0.0 
0.0 0.0 0.0 
0.0 0.0 0.0 
0.0 0.0 0.0 
0.0 0.0 0.0 
0.0 0.0 0.0 
0.0 0.0 0.0 
0.0 0.0 0.0 
0.0 0.0 0.0 
0.0 0.0 0.0 
0.0 0.0 0.0 
0.0 0.0 0.0 
0.0 0.0 0.0 
0.0 0.0 0.0 
0.0 0.0 0.0 
0.0 0.0 0.0 
0.0 0.0 0.0 
0.0 0.0 0.0 
0.0 0.0 0.0 
0.0 0.0 0.0 
0.0 0.0 0.0 
0.0 0.0 0.0 
0.0 0.0 0.0 
0.0 0.0 0.0 
0.0 0.0 0.0 
0.0 0.0 0.0 
0.0 0.0 0.0 
0.0 0.0 0.0 
0.0 0.0 0.0 
0.0 0.0 0.0 
0.0 0.0 0.0 
0.0 0.0 0.0 
0.0 0.0 0.0 
0.0 0.0 0.0 
0.0 0.0 0.0 
0.0 0.0 0.0 
0.0 0.0 0.0 
0.0 0.0 0.0 
0.0 0.0 0.0 
0.0 0.0 0.0 
0.0 0.0 0.0 
0.0 0.0 0.0 
0.0 0.0 0.0 
0.0 0.0 0.0 
0.0 0.0 0.0 
0.0 0.0 0.0 
0.0 0.0 0.0 
0.0 0.0 0.0 
0.0 0.0 0.0 
0.0 0.0 0.0 
0.0 0.0 0.0 
0.0 0.0 0.0 
0.0 0.0 0.0 
0.0 0.0 0.0 
0.0 0.0 0.0 
0.0 0.0 0.0 
0.0 0.0 0.0 
0.0 0.0 0.0 
0.0 0.0 0.0 
0.0 0.0 0.0 
0.0 0.0 0.0 
0.0 0.0 0.0 
0.0 0.0 0.0 
0.0 0.0 0.0 
0.0 0.0 0.0 
0.0 0.0 0.0 
0.0 0.0 0.0 
0.0 0.0 0.0 
0.0 0.0 0.0 
0.0 0.0 0.0 
0.0 0.0 0.0 
0.0 0.0 0.0 
0.0 0.0 0.0 
0.0 0.0 0.0 
0.0 0.0 0.0 
0.0 0.0 0.0 
0.0 0.0 0.0 
0.0 0.0 0.0 
0.0 0.0 0.0 
0.0 0.0 0.0 
0.0 0.0 0.0 
0.0 0.0 0.0 
0.0 0.0 0.0 
0.0 0.0 0.0 
0.0 0.0 0.0 
0.0 0.0 0.0 
0.0 0.0 0.0 
0.0 0.0 0.0 
0.0 0.0 0.0 
0.0 0.0 0.0 
0.0 0.0 0.0 
0.0 0.0 0.0 
0.0 0.0 0.0 
0.0 0.0 0.0 
0.0 0.0 0.0 
0.0 0.0 0.0 
0.0 0.0 0.0 
0.0 0.0 0.0 
0.0 0.0 0.0 
0.0 0.0 0.0 
0.0 0.0 0.0 
0.0 0.0 0.0 
0.0 0.0 0.0 
0.0 0.0 0.0 
0.0 0.0 0.0 
0.0 0.0 0.0 
0.0 0.0 0.0 
0.0 0.0 0.0 
0.0 0.0 0.0 
0.0 0.0 0.0 
0.0 0.0 0.0 
0.0 0.0 0.0 
0.0 0.0 0.0 
0.0 0.0 0.0 
0.0 0.0 0.0 
0.0 0.0 0.0 
0.0 0.0 0.0 
0.0 0.0 0.0 
0.0 0.0 0.0 
0.0 0.0 0.0 
0.0 0.0 0.0 
0.0 0.0 0.0 
0.0 0.0 0.0 
0.0 0.0 0.0 
0.0 0.0 0.0 
0.0 0.0 0.0 
0.0 0.0 0.0 
0.0 0.0 0.0 
0.0 0.0 0.0 
0.0 0.0 0.0 
0.0 0.0 0.0 
0.0 0.0 0.0 
0.0 0.0 0.0 
0.0 0.0 0.0 
0.0 0.0 0.0 
0.0 0.0 0.0 
0.0 0.0 0.0 
0.0 0.0 0.0 
0.0 0.0 0.0 
0.0 0.0 0.0 
0.0 0.0 0.0 
0.0 0.0 0.0 
0.0 0.0 0.0 
0.0 0.0 0.0 
0.0 0.0 0.0 
0.0 0.0 0.0 
0.0 0.0 0.0 
0.0 0.0 0.0 
0.0 0.0 0.0 
0.0 0.0 0.0 
0.0 0.0 0.0 
0.0 0.0 0.0 
0.0 0.0 0.0 
0.0 0.0 0.0 
0.0 0.0 0.0 
0.0 0.0 0.0 
0.0 0.0 0.0 
0.0 0.0 0.0 
0.0 0.0 0.0 
0.0 0.0 0.0 
0.0 0.0 0.0 
0.0 0.0 0.0 
0.0 0.0 0.0 
0.0 0.0 0.0 
0.0 0.0 0.0 
0.0 0.0 0.0 
0.0 0.0 0.0 
0.0 0.0 0.0 
0.0 0.0 0.0 
0.0 0.0 0.0 
0.0 0.0 0.0 
0.0 0.0 0.0 
0.0 0.0 0.0 
0.0 0.0 0.0 
0.0 0.0 0.0 
0.0 0.0 0.0 
0.0 0.0 0.0 
0.0 0.0 0.0 
0.0 0.0 0.0 
0.0 0.0 0.0 
0.0 0.0 0.0 
0.0 0.0 0.0 
0.0 0.0 0.0 
0.0 0.0 0.0 
0.0 0.0 0.0 
0.0 0.0 0.0 
0.0 0.0 0.0 
0.0 0.0 0.0 
0.0 0.0 0.0 
0.0 0.0 0.0 
0.0 0.0 0.0 
0.0 0.0 0.0 
0.0 0.0 0.0 
0.0 0.0 0.0 
0.0 0.0 0.0 
0.0 0.0 0.0 
0.0 0.0 0.0 
0.0 0.0 0.0 
0.0 0.0 0.0 
0.0 0.0 0.0 
0.0 0.0 0.0 
0.0 0.0 0.0 
0.0 0.0 0.0 
0.0 0.0 0.0 
0.0 0.0 0.0 
0.0 0.0 0.0 
0.0 0.0 0.0 
0.0 0.0 0.0 
0.0 0.0 0.0 
0.0 0.0 0.0 
0.0 0.0 0.0 
0.0 0.0 0.0 
0.0 0.0 0.0 
0.0 0.0 0.0 
0.0 0.0 0.0 
0.0 0.0 0.0 
0.0 0.0 0.0 
0.0 0.0 0.0 
0.0 0.0 0.0 
0.0 0.0 0.0 
0.0 0.0 0.0 
0.0 0.0 0.0 
0.0 0.0 0.0 
0.0 0.0 0.0 
0.0 0.0 0.0 
0.0 0.0 0.0 
0.0 0.0 0.0 
0.0 0.0 0.0 
0.0 0.0 0.0 
0.0 0.0 0.0 
0.0 0.0 0.0 
0.0 0.0 0.0 
0.0 0.0 0.0 
0.0 0.0 0.0 
0.0 0.0 0.0 
0.0 0.0 0.0 
0.0 0.0 0.0 
0.0 0.0 0.0 
0.0 0.0 0.0 
0.0 0.0 0.0 
0.0 0.0 0.0 
0.0 0.0 0.0 
0.0 0.0 0.0 
0.0 0.0 0.0 
0.0 0.0 0.0 
0.0 0.0 0.0 
0.0 0.0 0.0 
0.0 0.0 0.0 
0.0 0.0 0.0 
0.0 0.0 0.0 
0.0 0.0 0.0 
0.0 0.0 0.0 
0.0 0.0 0.0 
0.0 0.0 0.0 
0.0 0.0 0.0 
0.0 0.0 0.0 
0.0 0.0 0.0 
0.0 0.0 0.0 
0.0 0.0 0.0 
0.0 0.0 0.0 
0.0 0.0 0.0 
0.0 0.0 0.0 
0.0 0.0 0.0 
0.0 0.0 0.0 
0.0 0.0 0.0 
0.0 0.0 0.0 
0.0 0.0 0.0 
0.0 0.0 0.0 
0.0 0.0 0.0 
0.0 0.0 0.0 
0.0 0.0 0.0 
0.0 0.0 0.0 
0.0 0.0 0.0 
0.0 0.0 0.0 
0.0 0.0 0.0 
0.0 0.0 0.0 
0.0 0.0 0.0 
0.0 0.0 0.0 
0.0 0.0 0.0 
0.0 0.0 0.0 
0.0 0.0 0.0 
0.0 0.0 0.0 
0.0 0.0 0.0 
0.0 0.0 0.0 
0.0 0.0 0.0 
0.0 0.0 0.0 
0.0 0.0 0.0 
0.0 0.0 0.0 
0.0 0.0 0.0 
0.0 0.0 0.0 
0.0 0.0 0.0 
0.0 0.0 0.0 
0.0 0.0 0.0 
0.0 0.0 0.0 
0.0 0.0 0.0 
0.0 0.0 0.0 
0.0 0.0 0.0 
0.0 0.0 0.0 
0.0 0.0 0.0 
0.0 0.0 0.0 
0.0 0.0 0.0 
0.0 0.0 0.0 
0.0 0.0 0.0 
0.0 0.0 0.0 
0.0 0.0 0.0 
0.0 0.0 0.0 
0.0 0.0 0.0 
0.0 0.0 0.0 
0.0 0.0 0.0 
0.0 0.0 0.0 
0.0 0.0 0.0 
0.0 0.0 0.0 
0.0 0.0 0.0 
0.0 0.0 0.0 
0.0 0.0 0.0 
0.0 0.0 0.0 
0.0 0.0 0.0 
0.0 0.0 0.0 
0.0 0.0 0.0 
0.0 0.0 0.0 
0.0 0.0 0.0 
0.0 0.0 0.0 
0.0 0.0 0.0 
0.0 0.0 0.0 
0.0 0.0 0.0 
0.0 0.0 0.0 
0.0 0.0 0.0 
0.0 0.0 0.0 
0.0 0.0 0.0 
0.0 0.0 0.0 
0.0 0.0 0.0 
0.0 0.0 0.0 
0.0 0.0 0.0 
0.0 0.0 0.0 
0.0 0.0 0.0 
0.0 0.0 0.0 
0.0 0.0 0.0 
0.0 0.0 0.0 
0.0 0.0 0.0 
0.0 0.0 0.0 
0.0 0.0 0.0 
0.0 0.0 0.0 
0.0 0.0 0.0 
0.0 0.0 0.0 
0.0 0.0 0.0 
0.0 0.0 0.0 
0.0 0.0 0.0 
0.0 0.0 0.0 
0.0 0.0 0.0 
0.0 0.0 0.0 
0.0 0.0 0.0 
0.0 0.0 0.0 
0.0 0.0 0.0 
0.0 0.0 0.0 
0.0 0.0 0.0 
0.0 0.0 0.0 
0.0 0.0 0.0 
0.0 0.0 0.0 
0.0 0.0 0.0 
0.0 0.0 0.0 
0.0 0.0 0.0 
0.0 0.0 0.0 
0.0 0.0 0.0 
0.0 0.0 0.0 
0.0 0.0 0.0 
0.0 0.0 0.0 
0.0 0.0 0.0 
0.0 0.0 0.0 
0.0 0.0 0.0 
0.0 0.0 0.0 
0.0 0.0 0.0 
0.0 0.0 0.0 
0.0 0.0 0.0 
0.0 0.0 0.0 
0.0 0.0 0.0 
0.0 0.0 0.0 
0.0 0.0 0.0 
0.0 0.0 0.0 
0.0 0.0 0.0 
0.0 0.0 0.0 
0.0 0.0 0.0 
0.0 0.0 0.0 
0.0 0.0 0.0 
0.0 0.0 0.0 
0.0 0.0 0.0 
0.0 0.0 0.0 
0.0 0.0 0.0 
0.0 0.0 0.0 
0.0 0.0 0.0 
0.0 0.0 0.0 
0.0 0.0 0.0 
0.0 0.0 0.0 
0.0 0.0 0.0 
0.0 0.0 0.0 
0.0 0.0 0.0 
0.0 0.0 0.0 
0.0 0.0 0.0 
0.0 0.0 0.0 
0.0 0.0 0.0 
0.0 0.0 0.0 
0.0 0.0 0.0 
0.0 0.0 0.0 
0.0 0.0 0.0 
0.0 0.0 0.0 
0.0 0.0 0.0 
0.0 0.0 0.0 
0.0 0.0 0.0 
0.0 0.0 0.0 
0.0 0.0 0.0 
0.0 0.0 0.0 
0.0 0.0 0.0 
0.0 0.0 0.0 
0.0 0.0 0.0 
0.0 0.0 0.0 
0.0 0.0 0.0 
0.0 0.0 0.0 
0.0 0.0 0.0 
0.0 0.0 0.0 
0.0 0.0 0.0 
0.0 0.0 0.0 
0.0 0.0 0.0 
0.0 0.0 0.0 
0.0 0.0 0.0 
0.0 0.0 0.0 
0.0 0.0 0.0 
0.0 0.0 0.0 
0.0 0.0 0.0 
0.0 0.0 0.0 
0.0 0.0 0.0 
0.0 0.0 0.0 
0.0 0.0 0.0 
0.0 0.0 0.0 
0.0 0.0 0.0 
0.0 0.0 0.0 
0.0 0.0 0.0 
0.0 0.0 0.0 
0.0 0.0 0.0 
0.0 0.0 0.0 
0.0 0.0 0.0 
0.0 0.0 0.0 
0.0 0.0 0.0 
0.0 0.0 0.0 
0.0 0.0 0.0 
0.0 0.0 0.0 
0.0 0.0 0.0 
0.0 0.0 0.0 
0.0 0.0 0.0 
0.0 0.0 0.0 
0.0 0.0 0.0 
0.0 0.0 0.0 
0.0 0.0 0.0 
0.0 0.0 0.0 
0.0 0.0 0.0 
0.0 0.0 0.0 
0.0 0.0 0.0 
0.0 0.0 0.0 
0.0 0.0 0.0 
0.0 0.0 0.0 
0.0 0.0 0.0 
0.0 0.0 0.0 
0.0 0.0 0.0 
0.0 0.0 0.0 
0.0 0.0 0.0 
0.0 0.0 0.0 
0.0 0.0 0.0 
0.0 0.0 0.0 
0.0 0.0 0.0 
0.0 0.0 0.0 
0.0 0.0 0.0 
0.0 0.0 0.0 
0.0 0.0 0.0 
0.0 0.0 0.0 
0.0 0.0 0.0 
0.0 0.0 0.0 
0.0 0.0 0.0 
0.0 0.0 0.0 
0.0 0.0 0.0 
0.0 0.0 0.0 
0.0 0.0 0.0 
0.0 0.0 0.0 
0.0 0.0 0.0 
0.0 0.0 0.0 
0.0 0.0 0.0 
0.0 0.0 0.0 
0.0 0.0 0.0 
0.0 0.0 0.0 
0.0 0.0 0.0 
0.0 0.0 0.0 
0.0 0.0 0.0 
0.0 0.0 0.0 
0.0 0.0 0.0 
0.0 0.0 0.0 
0.0 0.0 0.0 
0.0 0.0 0.0 
0.0 0.0 0.0 
0.0 0.0 0.0 
0.0 0.0 0.0 
0.0 0.0 0.0 
0.0 0.0 0.0 
0.0 0.0 0.0 
0.0 0.0 0.0 
0.0 0.0 0.0 
0.0 0.0 0.0 
0.0 0.0 0.0 
0.0 0.0 0.0 
0.0 0.0 0.0 
0.0 0.0 0.0 
0.0 0.0 0.0 
0.0 0.0 0.0 
0.0 0.0 0.0 
0.0 0.0 0.0 
0.0 0.0 0.0 
0.0 0.0 0.0 
0.0 0.0 0.0 
0.0 0.0 0.0 
0.0 0.0 0.0 
0.0 0.0 0.0 
0.0 0.0 0.0 
0.0 0.0 0.0 
0.0 0.0 0.0 
0.0 0.0 0.0 
0.0 0.0 0.0 
0.0 0.0 0.0 
0.0 0.0 0.0 
0.0 0.0 0.0 
0.0 0.0 0.0 
0.0 0.0 0.0 
0.0 0.0 0.0 
0.0 0.0 0.0 
0.0 0.0 0.0 
0.0 0.0 0.0 
0.0 0.0 0.0 
0.0 0.0 0.0 
0.0 0.0 0.0 
0.0 0.0 0.0 
0.0 0.0 0.0 
0.0 0.0 0.0 
0.0 0.0 0.0 
0.0 0.0 0.0 
0.0 0.0 0.0 
0.0 0.0 0.0 
0.0 0.0 0.0 
0.0 0.0 0.0 
0.0 0.0 0.0 
0.0 0.0 0.0 
0.0 0.0 0.0 
0.0 0.0 0.0 
0.0 0.0 0.0 
0.0 0.0 0.0 
0.0 0.0 0.0 
0.0 0.0 0.0 
0.0 0.0 0.0 
0.0 0.0 0.0 
0.0 0.0 0.0 
0.0 0.0 0.0 
0.0 0.0 0.0 
0.0 0.0 0.0 
0.0 0.0 0.0 
0.0 0.0 0.0 
0.0 0.0 0.0 
0.0 0.0 0.0 
0.0 0.0 0.0 
0.0 0.0 0.0 
0.0 0.0 0.0 
0.0 0.0 0.0 
0.0 0.0 0.0 
0.0 0.0 0.0 
0.0 0.0 0.0 
0.0 0.0 0.0 
0.0 0.0 0.0 
0.0 0.0 0.0 
0.0 0.0 0.0 
0.0 0.0 0.0 
0.0 0.0 0.0 
0.0 0.0 0.0 
0.0 0.0 0.0 
0.0 0.0 0.0 
0.0 0.0 0.0 
0.0 0.0 0.0 
0.0 0.0 0.0 
0.0 0.0 0.0 
0.0 0.0 0.0 
0.0 0.0 0.0 
0.0 0.0 0.0 
0.0 0.0 0.0 
0.0 0.0 0.0 
0.0 0.0 0.0 
0.0 0.0 0.0 
0.0 0.0 0.0 
0.0 0.0 0.0 
0.0 0.0 0.0 
0.0 0.0 0.0 
0.0 0.0 0.0 
0.0 0.0 0.0 
0.0 0.0 0.0 
0.0 0.0 0.0 
0.0 0.0 0.0 
0.0 0.0 0.0 
0.0 0.0 0.0 
0.0 0.0 0.0 
0.0 0.0 0.0 
0.0 0.0 0.0 
0.0 0.0 0.0 
0.0 0.0 0.0 
0.0 0.0 0.0 
0.0 0.0 0.0 
0.0 0.0 0.0 
0.0 0.0 0.0 
0.0 0.0 0.0 
0.0 0.0 0.0 
0.0 0.0 0.0 
0.0 0.0 0.0 
0.0 0.0 0.0 
0.0 0.0 0.0 
0.0 0.0 0.0 
0.0 0.0 0.0 
0.0 0.0 0.0 
0.0 0.0 0.0 
0.0 0.0 0.0 
0.0 0.0 0.0 
0.0 0.0 0.0 
0.0 0.0 0.0 
0.0 0.0 0.0 
0.0 0.0 0.0 
0.0 0.0 0.0 
0.0 0.0 0.0 
0.0 0.0 0.0 
0.0 0.0 0.0 
0.0 0.0 0.0 
0.0 0.0 0.0 
0.0 0.0 0.0 
0.0 0.0 0.0 
0.0 0.0 0.0 
0.0 0.0 0.0 
0.0 0.0 0.0 
0.0 0.0 0.0 
0.0 0.0 0.0 
0.0 0.0 0.0 
0.0 0.0 0.0 
0.0 0.0 0.0 
0.0 0.0 0.0 
0.0 0.0 0.0 
0.0 0.0 0.0 
0.0 0.0 0.0 
0.0 0.0 0.0 
0.0 0.0 0.0 
0.0 0.0 0.0 
0.0 0.0 0.0 
0.0 0.0 0.0 
0.0 0.0 0.0 
0.0 0.0 0.0 
0.0 0.0 0.0 
0.0 0.0 0.0 
0.0 0.0 0.0 
0.0 0.0 0.0 
0.0 0.0 0.0 
0.0 0.0 0.0 
0.0 0.0 0.0 
0.0 0.0 0.0 
0.0 0.0 0.0 
0.0 0.0 0.0 
0.0 0.0 0.0 
0.0 0.0 0.0 
0.0 0.0 0.0 
0.0 0.0 0.0 
0.0 0.0 0.0 
0.0 0.0 0.0 
0.0 0.0 0.0 
0.0 0.0 0.0 
0.0 0.0 0.0 
0.0 0.0 0.0 
0.0 0.0 0.0 
0.0 0.0 0.0 
0.0 0.0 0.0 
0.0 0.0 0.0 
0.0 0.0 0.0 
0.0 0.0 0.0 
0.0 0.0 0.0 
0.0 0.0 0.0 
0.0 0.0 0.0 
0.0 0.0 0.0 
0.0 0.0 0.0 
0.0 0.0 0.0 
0.0 0.0 0.0 
0.0 0.0 0.0 
0.0 0.0 0.0 
0.0 0.0 0.0 
0.0 0.0 0.0 
0.0 0.0 0.0 
0.0 0.0 0.0 
0.0 0.0 0.0 
0.0 0.0 0.0 
0.0 0.0 0.0 
0.0 0.0 0.0 
0.0 0.0 0.0 
0.0 0.0 0.0 
0.0 0.0 0.0 
0.0 0.0 0.0 
0.0 0.0 0.0 
0.0 0.0 0.0 
0.0 0.0 0.0 
0.0 0.0 0.0 
0.0 0.0 0.0 
0.0 0.0 0.0 
0.0 0.0 0.0 
0.0 0.0 0.0 
0.0 0.0 0.0 
0.0 0.0 0.0 
0.0 0.0 0.0 
0.0 0.0 0.0 
0.0 0.0 0.0 
0.0 0.0 0.0 
0.0 0.0 0.0 
0.0 0.0 0.0 
0.0 0.0 0.0 
0.0 0.0 0.0 
0.0 0.0 0.0 
0.0 0.0 0.0 
0.0 0.0 0.0 
0.0 0.0 0.0 
0.0 0.0 0.0 
0.0 0.0 0.0 
0.0 0.0 0.0 
0.0 0.0 0.0 
0.0 0.0 0.0 
0.0 0.0 0.0 
0.0 0.0 0.0 
0.0 0.0 0.0 
0.0 0.0 0.0 
0.0 0.0 0.0 
0.0 0.0 0.0 
0.0 0.0 0.0 
0.0 0.0 0.0 
0.0 0.0 0.0 
0.0 0.0 0.0 
0.0 0.0 0.0 
0.0 0.0 0.0 
0.0 0.0 0.0 
0.0 0.0 0.0 
0.0 0.0 0.0 
0.0 0.0 0.0 
0.0 0.0 0.0 
0.0 0.0 0.0 
0.0 0.0 0.0 
0.0 0.0 0.0 
0.0 0.0 0.0 
0.0 0.0 0.0 
0.0 0.0 0.0 
0.0 0.0 0.0 
0.0 0.0 0.0 
0.0 0.0 0.0 
0.0 0.0 0.0 
0.0 0.0 0.0 
0.0 0.0 0.0 
0.0 0.0 0.0 
0.0 0.0 0.0 
0.0 0.0 0.0 
0.0 0.0 0.0 
0.0 0.0 0.0 
0.0 0.0 0.0 
0.0 0.0 0.0 
0.0 0.0 0.0 
0.0 0.0 0.0 
0.0 0.0 0.0 
0.0 0.0 0.0 
0.0 0.0 0.0 
0.0 0.0 0.0 
0.0 0.0 0.0 
0.0 0.0 0.0 
0.0 0.0 0.0 
0.0 0.0 0.0 
0.0 0.0 0.0 
0.0 0.0 0.0 
0.0 0.0 0.0 
0.0 0.0 0.0 
0.0 0.0 0.0 
0.0 0.0 0.0 
0.0 0.0 0.0 
0.0 0.0 0.0 
0.0 0.0 0.0 
0.0 0.0 0.0 
0.0 0.0 0.0 
0.0 0.0 0.0 
0.0 0.0 0.0 
0.0 0.0 0.0 
0.0 0.0 0.0 
0.0 0.0 0.0 
0.0 0.0 0.0 
0.0 0.0 0.0 
0.0 0.0 0.0 
0.0 0.0 0.0 
0.0 0.0 0.0 
0.0 0.0 0.0 
0.0 0.0 0.0 
0.0 0.0 0.0 
0.0 0.0 0.0 
0.0 0.0 0.0 
0.0 0.0 0.0 
0.0 0.0 0.0 
0.0 0.0 0.0 
0.0 0.0 0.0 
0.0 0.0 0.0 
0.0 0.0 0.0 
0.0 0.0 0.0 
0.0 0.0 0.0 
0.0 0.0 0.0 
0.0 0.0 0.0 
0.0 0.0 0.0 
0.0 0.0 0.0 
0.0 0.0 0.0 
0.0 0.0 0.0 
0.0 0.0 0.0 
0.0 0.0 0.0 
0.0 0.0 0.0 
0.0 0.0 0.0 
0.0 0.0 0.0 
0.0 0.0 0.0 
0.0 0.0 0.0 
0.0 0.0 0.0 
0.0 0.0 0.0 
0.0 0.0 0.0 
0.0 0.0 0.0 
0.0 0.0 0.0 
0.0 0.0 0.0 
0.0 0.0 0.0 
0.0 0.0 0.0 
0.0 0.0 0.0 
0.0 0.0 0.0 
0.0 0.0 0.0 
0.0 0.0 0.0 
0.0 0.0 0.0 
0.0 0.0 0.0 
0.0 0.0 0.0 
0.0 0.0 0.0 
0.0 0.0 0.0 
0.0 0.0 0.0 

SCALARS node_boundary float
LOOKUP_TABLE default
1.000000000000e+00 
1.000000000000e+00 
1.000000000000e+00 
1.000000000000e+00 
1.000000000000e+00 
1.000000000000e+00 
1.000000000000e+00 
1.000000000000e+00 
1.000000000000e+00 
1.000000000000e+00 
1.000000000000e+00 
1.000000000000e+00 
1.000000000000e+00 
1.000000000000e+00 
1.000000000000e+00 
1.000000000000e+00 
1.000000000000e+00 
1.000000000000e+00 
1.000000000000e+00 
1.000000000000e+00 
1.000000000000e+00 
1.000000000000e+00 
1.000000000000e+00 
1.000000000000e+00 
1.000000000000e+00 
1.000000000000e+00 
1.000000000000e+00 
1.000000000000e+00 
1.000000000000e+00 
1.000000000000e+00 
1.000000000000e+00 
1.000000000000e+00 
1.000000000000e+00 
1.000000000000e+00 
1.000000000000e+00 
1.000000000000e+00 
1.000000000000e+00 
1.000000000000e+00 
1.000000000000e+00 
1.000000000000e+00 
1.000000000000e+00 
1.000000000000e+00 
1.000000000000e+00 
1.000000000000e+00 
1.000000000000e+00 
1.000000000000e+00 
1.000000000000e+00 
1.000000000000e+00 
1.000000000000e+00 
1.000000000000e+00 
1.000000000000e+00 
1.000000000000e+00 
1.000000000000e+00 
1.000000000000e+00 
1.000000000000e+00 
1.000000000000e+00 
1.000000000000e+00 
1.000000000000e+00 
1.000000000000e+00 
1.000000000000e+00 
1.000000000000e+00 
1.000000000000e+00 
1.000000000000e+00 
1.000000000000e+00 
1.000000000000e+00 
1.000000000000e+00 
1.000000000000e+00 
1.000000000000e+00 
1.000000000000e+00 
1.000000000000e+00 
1.000000000000e+00 
1.000000000000e+00 
1.000000000000e+00 
1.000000000000e+00 
1.000000000000e+00 
1.000000000000e+00 
1.000000000000e+00 
1.000000000000e+00 
1.000000000000e+00 
1.000000000000e+00 
1.000000000000e+00 
1.000000000000e+00 
0.0
1.000000000000e+00 
1.000000000000e+00 
1.000000000000e+00 
1.000000000000e+00 
0.0
0.0
0.0
0.0
0.0
1.000000000000e+00 
1.000000000000e+00 
1.000000000000e+00 
1.000000000000e+00 
1.000000000000e+00 
1.000000000000e+00 
0.0
0.0
0.0
0.0
0.0
0.0
0.0
0.0
0.0
0.0
0.0
0.0
0.0
0.0
1.000000000000e+00 
1.000000000000e+00 
1.000000000000e+00 
1.000000000000e+00 
1.000000000000e+00 
1.000000000000e+00 
1.000000000000e+00 
1.000000000000e+00 
1.000000000000e+00 
1.000000000000e+00 
1.000000000000e+00 
1.000000000000e+00 
1.000000000000e+00 
1.000000000000e+00 
1.000000000000e+00 
1.000000000000e+00 
1.000000000000e+00 
1.000000000000e+00 
1.000000000000e+00 
1.000000000000e+00 
1.000000000000e+00 
1.000000000000e+00 
1.000000000000e+00 
1.000000000000e+00 
1.000000000000e+00 
1.000000000000e+00 
1.000000000000e+00 
1.000000000000e+00 
1.000000000000e+00 
1.000000000000e+00 
1.000000000000e+00 
1.000000000000e+00 
1.000000000000e+00 
1.000000000000e+00 
1.000000000000e+00 
1.000000000000e+00 
1.000000000000e+00 
1.000000000000e+00 
1.000000000000e+00 
1.000000000000e+00 
1.000000000000e+00 
1.000000000000e+00 
0.0
0.0
0.0
0.0
0.0
0.0
0.0
0.0
0.0
0.0
0.0
0.0
0.0
0.0
0.0
0.0
0.0
0.0
0.0
0.0
0.0
0.0
0.0
0.0
0.0
0.0
0.0
0.0
0.0
0.0
0.0
0.0
0.0
0.0
0.0
0.0
0.0
0.0
0.0
0.0
0.0
0.0
0.0
0.0
0.0
0.0
0.0
0.0
0.0
0.0
0.0
0.0
0.0
0.0
0.0
0.0
0.0
0.0
0.0
0.0
0.0
0.0
0.0
0.0
0.0
0.0
0.0
0.0
0.0
0.0
0.0
0.0
0.0
0.0
0.0
0.0
0.0
0.0
0.0
0.0
0.0
0.0
0.0
0.0
0.0
0.0
0.0
0.0
0.0
0.0
0.0
0.0
0.0
0.0
1.000000000000e+00 
1.000000000000e+00 
1.000000000000e+00 
1.000000000000e+00 
0.0
0.0
0.0
0.0
0.0
0.0
0.0
0.0
0.0
0.0
0.0
0.0
0.0
0.0
0.0
0.0
0.0
0.0
0.0
0.0
0.0
0.0
0.0
0.0
0.0
0.0
0.0
0.0
0.0
0.0
0.0
0.0
0.0
0.0
0.0
0.0
0.0
0.0
0.0
0.0
0.0
0.0
0.0
0.0
0.0
0.0
0.0
0.0
0.0
0.0
0.0
0.0
0.0
0.0
0.0
0.0
0.0
0.0
0.0
0.0
0.0
0.0
0.0
0.0
0.0
0.0
0.0
0.0
0.0
0.0
0.0
0.0
0.0
0.0
0.0
0.0
0.0
0.0
0.0
0.0
0.0
0.0
0.0
0.0
0.0
0.0
0.0
0.0
0.0
0.0
0.0
0.0
0.0
0.0
0.0
0.0
0.0
0.0
0.0
0.0
0.0
0.0
0.0
0.0
0.0
0.0
0.0
0.0
0.0
0.0
0.0
0.0
0.0
0.0
0.0
0.0
0.0
0.0
0.0
0.0
0.0
0.0
0.0
0.0
0.0
0.0
0.0
0.0
0.0
0.0
0.0
0.0
0.0
0.0
0.0
0.0
0.0
0.0
0.0
0.0
0.0
0.0
0.0
0.0
0.0
0.0
0.0
0.0
0.0
0.0
0.0
0.0
0.0
0.0
0.0
0.0
0.0
0.0
0.0
0.0
0.0
0.0
0.0
0.0
0.0
0.0
0.0
0.0
0.0
0.0
0.0
0.0
0.0
0.0
0.0
0.0
0.0
0.0
0.0
0.0
0.0
0.0
0.0
0.0
0.0
0.0
0.0
0.0
0.0
0.0
0.0
0.0
0.0
0.0
0.0
0.0
0.0
0.0
0.0
0.0
0.0
0.0
0.0
0.0
0.0
0.0
0.0
0.0
0.0
0.0
0.0
0.0
0.0
0.0
0.0
0.0
0.0
0.0
0.0
0.0
0.0
0.0
0.0
0.0
0.0
0.0
0.0
0.0
0.0
0.0
0.0
0.0
0.0
0.0
0.0
0.0
0.0
0.0
0.0
0.0
0.0
0.0
0.0
0.0
0.0
0.0
0.0
0.0
0.0
0.0
0.0
0.0
0.0
0.0
0.0
0.0
0.0
0.0
0.0
0.0
0.0
0.0
0.0
0.0
0.0
0.0
0.0
0.0
0.0
0.0
0.0
0.0
0.0
0.0
0.0
0.0
0.0
0.0
0.0
0.0
0.0
0.0
0.0
0.0
0.0
0.0
0.0
0.0
0.0
0.0
0.0
0.0
0.0
0.0
0.0
0.0
0.0
0.0
0.0
0.0
0.0
0.0
0.0
0.0
0.0
0.0
0.0
0.0
0.0
0.0
0.0
0.0
0.0
0.0
0.0
0.0
0.0
0.0
0.0
0.0
0.0
0.0
0.0
0.0
0.0
0.0
0.0
0.0
0.0
0.0
0.0
0.0
0.0
0.0
0.0
0.0
0.0
0.0
0.0
0.0
0.0
0.0
0.0
0.0
0.0
0.0
0.0
0.0
0.0
0.0
0.0
0.0
0.0
0.0
0.0
0.0
0.0
0.0
0.0
0.0
0.0
0.0
0.0
0.0
0.0
0.0
0.0
0.0
0.0
0.0
0.0
0.0
0.0
0.0
0.0
0.0
0.0
0.0
0.0
0.0
0.0
0.0
0.0
0.0
0.0
0.0
0.0
0.0
0.0
0.0
0.0
0.0
0.0
0.0
0.0
0.0
0.0
0.0
0.0
0.0
0.0
0.0
0.0
0.0
0.0
0.0
0.0
0.0
0.0
0.0
0.0
0.0
0.0
0.0
0.0
0.0
0.0
0.0
0.0
0.0
0.0
0.0
0.0
0.0
0.0
0.0
0.0
0.0
0.0
0.0
0.0
0.0
0.0
0.0
0.0
0.0
0.0
0.0
0.0
0.0
0.0
0.0
0.0
0.0
0.0
0.0
0.0
0.0
0.0
0.0
0.0
0.0
0.0
0.0
0.0
0.0
0.0
0.0
0.0
0.0
0.0
0.0
0.0
0.0
0.0
0.0
0.0
0.0
0.0
0.0
0.0
0.0
0.0
0.0
0.0
0.0
0.0
0.0
0.0
0.0
0.0
0.0
0.0
0.0
0.0
0.0
0.0
0.0
0.0
0.0
0.0
0.0
0.0
0.0
0.0
0.0
0.0
0.0
0.0
0.0
0.0
0.0
0.0
0.0
0.0
0.0
0.0
0.0
0.0
0.0
0.0
0.0
0.0
0.0
0.0
0.0
0.0
0.0
0.0
0.0
0.0
0.0
0.0
0.0
0.0
0.0
0.0
0.0
0.0
0.0
0.0
0.0
0.0
0.0
0.0
0.0
0.0
0.0
0.0
0.0
0.0
0.0
0.0
0.0
0.0
0.0
0.0
0.0
0.0
0.0
0.0
0.0
0.0
0.0
0.0
0.0
0.0
0.0
0.0
0.0
0.0
0.0
0.0
0.0
0.0
0.0
0.0
0.0
0.0
0.0
0.0
0.0
0.0
0.0
0.0
0.0
0.0
0.0
0.0
0.0
0.0
0.0
0.0
0.0
0.0
0.0
0.0
0.0
0.0
0.0
0.0
0.0
0.0
0.0
0.0
0.0
0.0
0.0
0.0
0.0
0.0
0.0
0.0
0.0
0.0
0.0
0.0
0.0
0.0
0.0
0.0
0.0
0.0
0.0
0.0
0.0
0.0
0.0
0.0
0.0
0.0
0.0
0.0
0.0
0.0
0.0
0.0
0.0
0.0
0.0
0.0
0.0
0.0
0.0
0.0
0.0
0.0
0.0
0.0
0.0
0.0
0.0
0.0
0.0
0.0
0.0
0.0
0.0
0.0
0.0
0.0
0.0
0.0
0.0
0.0
0.0
0.0
0.0
0.0
0.0
0.0
0.0
0.0
0.0
0.0
0.0
0.0
0.0
0.0
0.0
0.0
0.0
0.0
0.0
0.0
0.0
0.0
0.0
0.0
0.0
0.0
0.0
0.0
0.0
0.0
0.0
0.0
0.0
0.0
0.0
0.0
0.0
0.0
0.0
0.0
0.0
0.0
0.0
0.0
0.0
0.0
0.0
0.0
0.0
0.0
0.0
0.0
0.0
0.0
0.0
0.0
0.0
0.0
0.0
0.0
0.0
0.0
0.0
0.0
0.0
0.0
0.0
0.0
0.0
0.0
0.0
0.0
0.0
0.0
0.0
0.0
0.0
0.0
0.0
0.0
0.0
0.0
0.0
0.0
0.0
0.0
0.0
0.0
0.0
0.0
0.0
0.0
0.0
0.0
0.0
0.0
0.0
0.0
0.0
0.0
0.0
0.0
0.0
0.0
0.0
0.0
0.0
0.0
0.0
0.0
0.0
0.0
0.0
0.0
0.0
0.0
0.0
0.0
0.0
0.0
0.0
0.0
0.0
0.0
0.0
0.0
0.0
0.0
0.0
0.0
0.0
0.0
0.0
0.0
0.0
0.0
0.0
0.0
0.0
0.0
0.0
0.0
0.0
0.0
0.0
0.0
0.0
0.0
0.0
0.0
0.0
0.0
0.0
0.0
0.0
0.0
0.0
0.0
0.0
0.0
0.0
0.0
0.0
0.0
0.0
0.0
0.0
0.0
0.0
0.0
0.0
0.0
0.0
0.0
0.0
0.0
0.0
0.0
0.0
0.0
0.0
0.0
0.0
0.0
0.0
0.0
0.0
0.0
0.0
0.0
0.0
0.0
0.0
0.0
0.0
0.0
0.0
0.0
0.0
0.0
0.0
0.0
0.0
0.0
0.0
0.0
0.0
0.0
0.0
0.0
0.0
0.0
0.0
0.0
0.0
0.0
0.0
0.0
0.0
0.0
0.0
0.0
0.0
0.0
0.0
0.0
0.0
0.0
0.0
0.0
0.0
0.0
0.0
0.0
0.0
0.0
0.0
0.0
0.0
0.0
0.0
0.0
0.0
0.0
0.0
0.0
0.0
0.0
0.0
0.0
0.0
0.0
0.0
0.0
0.0
0.0

VECTORS node_force_gravity float
0.0 -1.962000000000e+01 0.0 
0.0 -1.962000000000e+01 0.0 
0.0 -1.962000000000e+01 0.0 
0.0 -1.962000000000e+01 0.0 
0.0 -1.962000000000e+01 0.0 
0.0 -1.962000000000e+01 0.0 
0.0 -1.962000000000e+01 0.0 
0.0 -1.962000000000e+01 0.0 
0.0 -1.962000000000e+01 0.0 
0.0 -1.962000000000e+01 0.0 
0.0 -1.962000000000e+01 0.0 
0.0 -1.962000000000e+01 0.0 
0.0 -1.962000000000e+01 0.0 
0.0 -1.962000000000e+01 0.0 
0.0 -1.962000000000e+01 0.0 
0.0 -1.962000000000e+01 0.0 
0.0 -1.962000000000e+01 0.0 
0.0 -1.962000000000e+01 0.0 
0.0 -1.962000000000e+01 0.0 
0.0 -1.962000000000e+01 0.0 
0.0 -1.962000000000e+01 0.0 
0.0 -1.962000000000e+01 0.0 
0.0 -1.962000000000e+01 0.0 
0.0 -1.962000000000e+01 0.0 
0.0 -1.962000000000e+01 0.0 
0.0 -1.962000000000e+01 0.0 
0.0 -1.962000000000e+01 0.0 
0.0 -1.962000000000e+01 0.0 
0.0 -1.962000000000e+01 0.0 
0.0 -1.962000000000e+01 0.0 
0.0 -1.962000000000e+01 0.0 
0.0 -1.962000000000e+01 0.0 
0.0 -1.962000000000e+01 0.0 
0.0 -1.962000000000e+01 0.0 
0.0 -1.962000000000e+01 0.0 
0.0 -1.962000000000e+01 0.0 
0.0 -1.962000000000e+01 0.0 
0.0 -1.962000000000e+01 0.0 
0.0 -1.962000000000e+01 0.0 
0.0 -1.962000000000e+01 0.0 
0.0 -1.962000000000e+01 0.0 
0.0 -1.962000000000e+01 0.0 
0.0 -1.962000000000e+01 0.0 
0.0 -1.962000000000e+01 0.0 
0.0 -1.962000000000e+01 0.0 
0.0 -1.962000000000e+01 0.0 
0.0 -1.962000000000e+01 0.0 
0.0 -1.962000000000e+01 0.0 
0.0 -1.962000000000e+01 0.0 
0.0 -1.962000000000e+01 0.0 
0.0 -1.962000000000e+01 0.0 
0.0 -1.962000000000e+01 0.0 
0.0 -1.962000000000e+01 0.0 
0.0 -1.962000000000e+01 0.0 
0.0 -1.962000000000e+01 0.0 
0.0 -1.962000000000e+01 0.0 
0.0 -1.962000000000e+01 0.0 
0.0 -1.962000000000e+01 0.0 
0.0 -1.962000000000e+01 0.0 
0.0 -1.962000000000e+01 0.0 
0.0 -1.962000000000e+01 0.0 
0.0 -1.962000000000e+01 0.0 
0.0 -1.962000000000e+01 0.0 
0.0 -1.962000000000e+01 0.0 
0.0 -1.962000000000e+01 0.0 
0.0 -1.962000000000e+01 0.0 
0.0 -1.962000000000e+01 0.0 
0.0 -1.962000000000e+01 0.0 
0.0 -1.962000000000e+01 0.0 
0.0 -1.962000000000e+01 0.0 
0.0 -1.962000000000e+01 0.0 
0.0 -1.962000000000e+01 0.0 
0.0 -1.962000000000e+01 0.0 
0.0 -1.962000000000e+01 0.0 
0.0 -1.962000000000e+01 0.0 
0.0 -1.962000000000e+01 0.0 
0.0 -1.962000000000e+01 0.0 
0.0 -1.962000000000e+01 0.0 
0.0 -1.962000000000e+01 0.0 
0.0 -1.962000000000e+01 0.0 
0.0 -1.962000000000e+01 0.0 
0.0 -1.962000000000e+01 0.0 
0.0 -1.962000000000e+01 0.0 
0.0 -1.962000000000e+01 0.0 
0.0 -1.962000000000e+01 0.0 
0.0 -1.962000000000e+01 0.0 
0.0 -1.962000000000e+01 0.0 
0.0 -1.962000000000e+01 0.0 
0.0 -1.962000000000e+01 0.0 
0.0 -1.962000000000e+01 0.0 
0.0 -1.962000000000e+01 0.0 
0.0 -1.962000000000e+01 0.0 
0.0 -1.962000000000e+01 0.0 
0.0 -1.962000000000e+01 0.0 
0.0 -1.962000000000e+01 0.0 
0.0 -1.962000000000e+01 0.0 
0.0 -1.962000000000e+01 0.0 
0.0 -1.962000000000e+01 0.0 
0.0 -1.962000000000e+01 0.0 
0.0 -1.962000000000e+01 0.0 
0.0 -1.962000000000e+01 0.0 
0.0 -1.962000000000e+01 0.0 
0.0 -1.962000000000e+01 0.0 
0.0 -1.962000000000e+01 0.0 
0.0 -1.962000000000e+01 0.0 
0.0 -1.962000000000e+01 0.0 
0.0 -1.962000000000e+01 0.0 
0.0 -1.962000000000e+01 0.0 
0.0 -1.962000000000e+01 0.0 
0.0 -1.962000000000e+01 0.0 
0.0 -1.962000000000e+01 0.0 
0.0 -1.962000000000e+01 0.0 
0.0 -1.962000000000e+01 0.0 
0.0 -1.962000000000e+01 0.0 
0.0 -1.962000000000e+01 0.0 
0.0 -1.962000000000e+01 0.0 
0.0 -1.962000000000e+01 0.0 
0.0 -1.962000000000e+01 0.0 
0.0 -1.962000000000e+01 0.0 
0.0 -1.962000000000e+01 0.0 
0.0 -1.962000000000e+01 0.0 
0.0 -1.962000000000e+01 0.0 
0.0 -1.962000000000e+01 0.0 
0.0 -1.962000000000e+01 0.0 
0.0 -1.962000000000e+01 0.0 
0.0 -1.962000000000e+01 0.0 
0.0 -1.962000000000e+01 0.0 
0.0 -1.962000000000e+01 0.0 
0.0 -1.962000000000e+01 0.0 
0.0 -1.962000000000e+01 0.0 
0.0 -1.962000000000e+01 0.0 
0.0 -1.962000000000e+01 0.0 
0.0 -1.962000000000e+01 0.0 
0.0 -1.962000000000e+01 0.0 
0.0 -1.962000000000e+01 0.0 
0.0 -1.962000000000e+01 0.0 
0.0 -1.962000000000e+01 0.0 
0.0 -1.962000000000e+01 0.0 
0.0 -1.962000000000e+01 0.0 
0.0 -1.962000000000e+01 0.0 
0.0 -1.962000000000e+01 0.0 
0.0 -1.962000000000e+01 0.0 
0.0 -1.962000000000e+01 0.0 
0.0 -1.962000000000e+01 0.0 
0.0 -1.962000000000e+01 0.0 
0.0 -1.962000000000e+01 0.0 
0.0 -1.962000000000e+01 0.0 
0.0 -1.962000000000e+01 0.0 
0.0 -1.962000000000e+01 0.0 
0.0 -1.962000000000e+01 0.0 
0.0 -1.962000000000e+01 0.0 
0.0 -1.962000000000e+01 0.0 
0.0 -1.962000000000e+01 0.0 
0.0 -1.962000000000e+01 0.0 
0.0 -1.962000000000e+01 0.0 
0.0 -1.962000000000e+01 0.0 
0.0 -1.962000000000e+01 0.0 
0.0 -1.962000000000e+01 0.0 
0.0 -1.962000000000e+01 0.0 
0.0 -1.962000000000e+01 0.0 
0.0 -1.962000000000e+01 0.0 
0.0 -1.962000000000e+01 0.0 
0.0 -1.962000000000e+01 0.0 
0.0 -1.962000000000e+01 0.0 
0.0 -1.962000000000e+01 0.0 
0.0 -1.962000000000e+01 0.0 
0.0 -1.962000000000e+01 0.0 
0.0 -1.962000000000e+01 0.0 
0.0 -1.962000000000e+01 0.0 
0.0 -1.962000000000e+01 0.0 
0.0 -1.962000000000e+01 0.0 
0.0 -1.962000000000e+01 0.0 
0.0 -1.962000000000e+01 0.0 
0.0 -1.962000000000e+01 0.0 
0.0 -1.962000000000e+01 0.0 
0.0 -1.962000000000e+01 0.0 
0.0 -1.962000000000e+01 0.0 
0.0 -1.962000000000e+01 0.0 
0.0 -1.962000000000e+01 0.0 
0.0 -1.962000000000e+01 0.0 
0.0 -1.962000000000e+01 0.0 
0.0 -1.962000000000e+01 0.0 
0.0 -1.962000000000e+01 0.0 
0.0 -1.962000000000e+01 0.0 
0.0 -1.962000000000e+01 0.0 
0.0 -1.962000000000e+01 0.0 
0.0 -1.962000000000e+01 0.0 
0.0 -1.962000000000e+01 0.0 
0.0 -1.962000000000e+01 0.0 
0.0 -1.962000000000e+01 0.0 
0.0 -1.962000000000e+01 0.0 
0.0 -1.962000000000e+01 0.0 
0.0 -1.962000000000e+01 0.0 
0.0 -1.962000000000e+01 0.0 
0.0 -1.962000000000e+01 0.0 
0.0 -1.962000000000e+01 0.0 
0.0 -1.962000000000e+01 0.0 
0.0 -1.962000000000e+01 0.0 
0.0 -1.962000000000e+01 0.0 
0.0 -1.962000000000e+01 0.0 
0.0 -1.962000000000e+01 0.0 
0.0 -1.962000000000e+01 0.0 
0.0 -1.962000000000e+01 0.0 
0.0 -1.962000000000e+01 0.0 
0.0 -1.962000000000e+01 0.0 
0.0 -1.962000000000e+01 0.0 
0.0 -1.962000000000e+01 0.0 
0.0 -1.962000000000e+01 0.0 
0.0 -1.962000000000e+01 0.0 
0.0 -1.962000000000e+01 0.0 
0.0 -1.962000000000e+01 0.0 
0.0 -1.962000000000e+01 0.0 
0.0 -1.962000000000e+01 0.0 
0.0 -1.962000000000e+01 0.0 
0.0 -1.962000000000e+01 0.0 
0.0 -1.962000000000e+01 0.0 
0.0 -1.962000000000e+01 0.0 
0.0 -1.962000000000e+01 0.0 
0.0 -1.962000000000e+01 0.0 
0.0 -1.962000000000e+01 0.0 
0.0 -1.962000000000e+01 0.0 
0.0 -1.962000000000e+01 0.0 
0.0 -1.962000000000e+01 0.0 
0.0 -1.962000000000e+01 0.0 
0.0 -1.962000000000e+01 0.0 
0.0 -1.962000000000e+01 0.0 
0.0 -1.962000000000e+01 0.0 
0.0 -1.962000000000e+01 0.0 
0.0 -1.962000000000e+01 0.0 
0.0 -1.962000000000e+01 0.0 
0.0 -1.962000000000e+01 0.0 
0.0 -1.962000000000e+01 0.0 
0.0 -1.962000000000e+01 0.0 
0.0 -1.962000000000e+01 0.0 
0.0 -1.962000000000e+01 0.0 
0.0 -1.962000000000e+01 0.0 
0.0 -1.962000000000e+01 0.0 
0.0 -1.962000000000e+01 0.0 
0.0 -1.962000000000e+01 0.0 
0.0 -1.962000000000e+01 0.0 
0.0 -1.962000000000e+01 0.0 
0.0 -1.962000000000e+01 0.0 
0.0 -1.962000000000e+01 0.0 
0.0 -1.962000000000e+01 0.0 
0.0 -1.962000000000e+01 0.0 
0.0 -1.962000000000e+01 0.0 
0.0 -1.962000000000e+01 0.0 
0.0 -1.962000000000e+01 0.0 
0.0 -1.962000000000e+01 0.0 
0.0 -1.962000000000e+01 0.0 
0.0 -1.962000000000e+01 0.0 
0.0 -1.962000000000e+01 0.0 
0.0 -1.962000000000e+01 0.0 
0.0 -1.962000000000e+01 0.0 
0.0 -1.962000000000e+01 0.0 
0.0 -1.962000000000e+01 0.0 
0.0 -1.962000000000e+01 0.0 
0.0 -1.962000000000e+01 0.0 
0.0 -1.962000000000e+01 0.0 
0.0 -1.962000000000e+01 0.0 
0.0 -1.962000000000e+01 0.0 
0.0 -1.962000000000e+01 0.0 
0.0 -1.962000000000e+01 0.0 
0.0 -1.962000000000e+01 0.0 
0.0 -1.962000000000e+01 0.0 
0.0 -1.962000000000e+01 0.0 
0.0 -1.962000000000e+01 0.0 
0.0 -1.962000000000e+01 0.0 
0.0 -1.962000000000e+01 0.0 
0.0 -1.962000000000e+01 0.0 
0.0 -1.962000000000e+01 0.0 
0.0 -1.962000000000e+01 0.0 
0.0 -1.962000000000e+01 0.0 
0.0 -1.962000000000e+01 0.0 
0.0 -1.962000000000e+01 0.0 
0.0 -1.962000000000e+01 0.0 
0.0 -1.962000000000e+01 0.0 
0.0 -1.962000000000e+01 0.0 
0.0 -1.962000000000e+01 0.0 
0.0 -1.962000000000e+01 0.0 
0.0 -1.962000000000e+01 0.0 
0.0 -1.962000000000e+01 0.0 
0.0 -1.962000000000e+01 0.0 
0.0 -1.962000000000e+01 0.0 
0.0 -1.962000000000e+01 0.0 
0.0 -1.962000000000e+01 0.0 
0.0 -1.962000000000e+01 0.0 
0.0 -1.962000000000e+01 0.0 
0.0 -1.962000000000e+01 0.0 
0.0 -1.962000000000e+01 0.0 
0.0 -1.962000000000e+01 0.0 
0.0 -1.962000000000e+01 0.0 
0.0 -1.962000000000e+01 0.0 
0.0 -1.962000000000e+01 0.0 
0.0 -1.962000000000e+01 0.0 
0.0 -1.962000000000e+01 0.0 
0.0 -1.962000000000e+01 0.0 
0.0 -1.962000000000e+01 0.0 
0.0 -1.962000000000e+01 0.0 
0.0 -1.962000000000e+01 0.0 
0.0 -1.962000000000e+01 0.0 
0.0 -1.962000000000e+01 0.0 
0.0 -1.962000000000e+01 0.0 
0.0 -1.962000000000e+01 0.0 
0.0 -1.962000000000e+01 0.0 
0.0 -1.962000000000e+01 0.0 
0.0 -1.962000000000e+01 0.0 
0.0 -1.962000000000e+01 0.0 
0.0 -1.962000000000e+01 0.0 
0.0 -1.962000000000e+01 0.0 
0.0 -1.962000000000e+01 0.0 
0.0 -1.962000000000e+01 0.0 
0.0 -1.962000000000e+01 0.0 
0.0 -1.962000000000e+01 0.0 
0.0 -1.962000000000e+01 0.0 
0.0 -1.962000000000e+01 0.0 
0.0 -1.962000000000e+01 0.0 
0.0 -1.962000000000e+01 0.0 
0.0 -1.962000000000e+01 0.0 
0.0 -1.962000000000e+01 0.0 
0.0 -1.962000000000e+01 0.0 
0.0 -1.962000000000e+01 0.0 
0.0 -1.962000000000e+01 0.0 
0.0 -1.962000000000e+01 0.0 
0.0 -1.962000000000e+01 0.0 
0.0 -1.962000000000e+01 0.0 
0.0 -1.962000000000e+01 0.0 
0.0 -1.962000000000e+01 0.0 
0.0 -1.962000000000e+01 0.0 
0.0 -1.962000000000e+01 0.0 
0.0 -1.962000000000e+01 0.0 
0.0 -1.962000000000e+01 0.0 
0.0 -1.962000000000e+01 0.0 
0.0 -1.962000000000e+01 0.0 
0.0 -1.962000000000e+01 0.0 
0.0 -1.962000000000e+01 0.0 
0.0 -1.962000000000e+01 0.0 
0.0 -1.962000000000e+01 0.0 
0.0 -1.962000000000e+01 0.0 
0.0 -1.962000000000e+01 0.0 
0.0 -1.962000000000e+01 0.0 
0.0 -1.962000000000e+01 0.0 
0.0 -1.962000000000e+01 0.0 
0.0 -1.962000000000e+01 0.0 
0.0 -1.962000000000e+01 0.0 
0.0 -1.962000000000e+01 0.0 
0.0 -1.962000000000e+01 0.0 
0.0 -1.962000000000e+01 0.0 
0.0 -1.962000000000e+01 0.0 
0.0 -1.962000000000e+01 0.0 
0.0 -1.962000000000e+01 0.0 
0.0 -1.962000000000e+01 0.0 
0.0 -1.962000000000e+01 0.0 
0.0 -1.962000000000e+01 0.0 
0.0 -1.962000000000e+01 0.0 
0.0 -1.962000000000e+01 0.0 
0.0 -1.962000000000e+01 0.0 
0.0 -1.962000000000e+01 0.0 
0.0 -1.962000000000e+01 0.0 
0.0 -1.962000000000e+01 0.0 
0.0 -1.962000000000e+01 0.0 
0.0 -1.962000000000e+01 0.0 
0.0 -1.962000000000e+01 0.0 
0.0 -1.962000000000e+01 0.0 
0.0 -1.962000000000e+01 0.0 
0.0 -1.962000000000e+01 0.0 
0.0 -1.962000000000e+01 0.0 
0.0 -1.962000000000e+01 0.0 
0.0 -1.962000000000e+01 0.0 
0.0 -1.962000000000e+01 0.0 
0.0 -1.962000000000e+01 0.0 
0.0 -1.962000000000e+01 0.0 
0.0 -1.962000000000e+01 0.0 
0.0 -1.962000000000e+01 0.0 
0.0 -1.962000000000e+01 0.0 
0.0 -1.962000000000e+01 0.0 
0.0 -1.962000000000e+01 0.0 
0.0 -1.962000000000e+01 0.0 
0.0 -1.962000000000e+01 0.0 
0.0 -1.962000000000e+01 0.0 
0.0 -1.962000000000e+01 0.0 
0.0 -1.962000000000e+01 0.0 
0.0 -1.962000000000e+01 0.0 
0.0 -1.962000000000e+01 0.0 
0.0 -1.962000000000e+01 0.0 
0.0 -1.962000000000e+01 0.0 
0.0 -1.962000000000e+01 0.0 
0.0 -1.962000000000e+01 0.0 
0.0 -1.962000000000e+01 0.0 
0.0 -1.962000000000e+01 0.0 
0.0 -1.962000000000e+01 0.0 
0.0 -1.962000000000e+01 0.0 
0.0 -1.962000000000e+01 0.0 
0.0 -1.962000000000e+01 0.0 
0.0 -1.962000000000e+01 0.0 
0.0 -1.962000000000e+01 0.0 
0.0 -1.962000000000e+01 0.0 
0.0 -1.962000000000e+01 0.0 
0.0 -1.962000000000e+01 0.0 
0.0 -1.962000000000e+01 0.0 
0.0 -1.962000000000e+01 0.0 
0.0 -1.962000000000e+01 0.0 
0.0 -1.962000000000e+01 0.0 
0.0 -1.962000000000e+01 0.0 
0.0 -1.962000000000e+01 0.0 
0.0 -1.962000000000e+01 0.0 
0.0 -1.962000000000e+01 0.0 
0.0 -1.962000000000e+01 0.0 
0.0 -1.962000000000e+01 0.0 
0.0 -1.962000000000e+01 0.0 
0.0 -1.962000000000e+01 0.0 
0.0 -1.962000000000e+01 0.0 
0.0 -1.962000000000e+01 0.0 
0.0 -1.962000000000e+01 0.0 
0.0 -1.962000000000e+01 0.0 
0.0 -1.962000000000e+01 0.0 
0.0 -1.962000000000e+01 0.0 
0.0 -1.962000000000e+01 0.0 
0.0 -1.962000000000e+01 0.0 
0.0 -1.962000000000e+01 0.0 
0.0 -1.962000000000e+01 0.0 
0.0 -1.962000000000e+01 0.0 
0.0 -1.962000000000e+01 0.0 
0.0 -1.962000000000e+01 0.0 
0.0 -1.962000000000e+01 0.0 
0.0 -1.962000000000e+01 0.0 
0.0 -1.962000000000e+01 0.0 
0.0 -1.962000000000e+01 0.0 
0.0 -1.962000000000e+01 0.0 
0.0 -1.962000000000e+01 0.0 
0.0 -1.962000000000e+01 0.0 
0.0 -1.962000000000e+01 0.0 
0.0 -1.962000000000e+01 0.0 
0.0 -1.962000000000e+01 0.0 
0.0 -1.962000000000e+01 0.0 
0.0 -1.962000000000e+01 0.0 
0.0 -1.962000000000e+01 0.0 
0.0 -1.962000000000e+01 0.0 
0.0 -1.962000000000e+01 0.0 
0.0 -1.962000000000e+01 0.0 
0.0 -1.962000000000e+01 0.0 
0.0 -1.962000000000e+01 0.0 
0.0 -1.962000000000e+01 0.0 
0.0 -1.962000000000e+01 0.0 
0.0 -1.962000000000e+01 0.0 
0.0 -1.962000000000e+01 0.0 
0.0 -1.962000000000e+01 0.0 
0.0 -1.962000000000e+01 0.0 
0.0 -1.962000000000e+01 0.0 
0.0 -1.962000000000e+01 0.0 
0.0 -1.962000000000e+01 0.0 
0.0 -1.962000000000e+01 0.0 
0.0 -1.962000000000e+01 0.0 
0.0 -1.962000000000e+01 0.0 
0.0 -1.962000000000e+01 0.0 
0.0 -1.962000000000e+01 0.0 
0.0 -1.962000000000e+01 0.0 
0.0 -1.962000000000e+01 0.0 
0.0 -1.962000000000e+01 0.0 
0.0 -1.962000000000e+01 0.0 
0.0 -1.962000000000e+01 0.0 
0.0 -1.962000000000e+01 0.0 
0.0 -1.962000000000e+01 0.0 
0.0 -1.962000000000e+01 0.0 
0.0 -1.962000000000e+01 0.0 
0.0 -1.962000000000e+01 0.0 
0.0 -1.962000000000e+01 0.0 
0.0 -1.962000000000e+01 0.0 
0.0 -1.962000000000e+01 0.0 
0.0 -1.962000000000e+01 0.0 
0.0 -1.962000000000e+01 0.0 
0.0 -1.962000000000e+01 0.0 
0.0 -1.962000000000e+01 0.0 
0.0 -1.962000000000e+01 0.0 
0.0 -1.962000000000e+01 0.0 
0.0 -1.962000000000e+01 0.0 
0.0 -1.962000000000e+01 0.0 
0.0 -1.962000000000e+01 0.0 
0.0 -1.962000000000e+01 0.0 
0.0 -1.962000000000e+01 0.0 
0.0 -1.962000000000e+01 0.0 
0.0 -1.962000000000e+01 0.0 
0.0 -1.962000000000e+01 0.0 
0.0 -1.962000000000e+01 0.0 
0.0 -1.962000000000e+01 0.0 
0.0 -1.962000000000e+01 0.0 
0.0 -1.962000000000e+01 0.0 
0.0 -1.962000000000e+01 0.0 
0.0 -1.962000000000e+01 0.0 
0.0 -1.962000000000e+01 0.0 
0.0 -1.962000000000e+01 0.0 
0.0 -1.962000000000e+01 0.0 
0.0 -1.962000000000e+01 0.0 
0.0 -1.962000000000e+01 0.0 
0.0 -1.962000000000e+01 0.0 
0.0 -1.962000000000e+01 0.0 
0.0 -1.962000000000e+01 0.0 
0.0 -1.962000000000e+01 0.0 
0.0 -1.962000000000e+01 0.0 
0.0 -1.962000000000e+01 0.0 
0.0 -1.962000000000e+01 0.0 
0.0 -1.962000000000e+01 0.0 
0.0 -1.962000000000e+01 0.0 
0.0 -1.962000000000e+01 0.0 
0.0 -1.962000000000e+01 0.0 
0.0 -1.962000000000e+01 0.0 
0.0 -1.962000000000e+01 0.0 
0.0 -1.962000000000e+01 0.0 
0.0 -1.962000000000e+01 0.0 
0.0 -1.962000000000e+01 0.0 
0.0 -1.962000000000e+01 0.0 
0.0 -1.962000000000e+01 0.0 
0.0 -1.962000000000e+01 0.0 
0.0 -1.962000000000e+01 0.0 
0.0 -1.962000000000e+01 0.0 
0.0 -1.962000000000e+01 0.0 
0.0 -1.962000000000e+01 0.0 
0.0 -1.962000000000e+01 0.0 
0.0 -1.962000000000e+01 0.0 
0.0 -1.962000000000e+01 0.0 
0.0 -1.962000000000e+01 0.0 
0.0 -1.962000000000e+01 0.0 
0.0 -1.962000000000e+01 0.0 
0.0 -1.962000000000e+01 0.0 
0.0 -1.962000000000e+01 0.0 
0.0 -1.962000000000e+01 0.0 
0.0 -1.962000000000e+01 0.0 
0.0 -1.962000000000e+01 0.0 
0.0 -1.962000000000e+01 0.0 
0.0 -1.962000000000e+01 0.0 
0.0 -1.962000000000e+01 0.0 
0.0 -1.962000000000e+01 0.0 
0.0 -1.962000000000e+01 0.0 
0.0 -1.962000000000e+01 0.0 
0.0 -1.962000000000e+01 0.0 
0.0 -1.962000000000e+01 0.0 
0.0 -1.962000000000e+01 0.0 
0.0 -1.962000000000e+01 0.0 
0.0 -1.962000000000e+01 0.0 
0.0 -1.962000000000e+01 0.0 
0.0 -1.962000000000e+01 0.0 
0.0 -1.962000000000e+01 0.0 
0.0 -1.962000000000e+01 0.0 
0.0 -1.962000000000e+01 0.0 
0.0 -1.962000000000e+01 0.0 
0.0 -1.962000000000e+01 0.0 
0.0 -1.962000000000e+01 0.0 
0.0 -1.962000000000e+01 0.0 
0.0 -1.962000000000e+01 0.0 
0.0 -1.962000000000e+01 0.0 
0.0 -1.962000000000e+01 0.0 
0.0 -1.962000000000e+01 0.0 
0.0 -1.962000000000e+01 0.0 
0.0 -1.962000000000e+01 0.0 
0.0 -1.962000000000e+01 0.0 
0.0 -1.962000000000e+01 0.0 
0.0 -1.962000000000e+01 0.0 
0.0 -1.962000000000e+01 0.0 
0.0 -1.962000000000e+01 0.0 
0.0 -1.962000000000e+01 0.0 
0.0 -1.962000000000e+01 0.0 
0.0 -1.962000000000e+01 0.0 
0.0 -1.962000000000e+01 0.0 
0.0 -1.962000000000e+01 0.0 
0.0 -1.962000000000e+01 0.0 
0.0 -1.962000000000e+01 0.0 
0.0 -1.962000000000e+01 0.0 
0.0 -1.962000000000e+01 0.0 
0.0 -1.962000000000e+01 0.0 
0.0 -1.962000000000e+01 0.0 
0.0 -1.962000000000e+01 0.0 
0.0 -1.962000000000e+01 0.0 
0.0 -1.962000000000e+01 0.0 
0.0 -1.962000000000e+01 0.0 
0.0 -1.962000000000e+01 0.0 
0.0 -1.962000000000e+01 0.0 
0.0 -1.962000000000e+01 0.0 
0.0 -1.962000000000e+01 0.0 
0.0 -1.962000000000e+01 0.0 
0.0 -1.962000000000e+01 0.0 
0.0 -1.962000000000e+01 0.0 
0.0 -1.962000000000e+01 0.0 
0.0 -1.962000000000e+01 0.0 
0.0 -1.962000000000e+01 0.0 
0.0 -1.962000000000e+01 0.0 
0.0 -1.962000000000e+01 0.0 
0.0 -1.962000000000e+01 0.0 
0.0 -1.962000000000e+01 0.0 
0.0 -1.962000000000e+01 0.0 
0.0 -1.962000000000e+01 0.0 
0.0 -1.962000000000e+01 0.0 
0.0 -1.962000000000e+01 0.0 
0.0 -1.962000000000e+01 0.0 
0.0 -1.962000000000e+01 0.0 
0.0 -1.962000000000e+01 0.0 
0.0 -1.962000000000e+01 0.0 
0.0 -1.962000000000e+01 0.0 
0.0 -1.962000000000e+01 0.0 
0.0 -1.962000000000e+01 0.0 
0.0 -1.962000000000e+01 0.0 
0.0 -1.962000000000e+01 0.0 
0.0 -1.962000000000e+01 0.0 
0.0 -1.962000000000e+01 0.0 
0.0 -1.962000000000e+01 0.0 
0.0 -1.962000000000e+01 0.0 
0.0 -1.962000000000e+01 0.0 
0.0 -1.962000000000e+01 0.0 
0.0 -1.962000000000e+01 0.0 
0.0 -1.962000000000e+01 0.0 
0.0 -1.962000000000e+01 0.0 
0.0 -1.962000000000e+01 0.0 
0.0 -1.962000000000e+01 0.0 
0.0 -1.962000000000e+01 0.0 
0.0 -1.962000000000e+01 0.0 
0.0 -1.962000000000e+01 0.0 
0.0 -1.962000000000e+01 0.0 
0.0 -1.962000000000e+01 0.0 
0.0 -1.962000000000e+01 0.0 
0.0 -1.962000000000e+01 0.0 
0.0 -1.962000000000e+01 0.0 
0.0 -1.962000000000e+01 0.0 
0.0 -1.962000000000e+01 0.0 
0.0 -1.962000000000e+01 0.0 
0.0 -1.962000000000e+01 0.0 
0.0 -1.962000000000e+01 0.0 
0.0 -1.962000000000e+01 0.0 
0.0 -1.962000000000e+01 0.0 
0.0 -1.962000000000e+01 0.0 
0.0 -1.962000000000e+01 0.0 
0.0 -1.962000000000e+01 0.0 
0.0 -1.962000000000e+01 0.0 
0.0 -1.962000000000e+01 0.0 
0.0 -1.962000000000e+01 0.0 
0.0 -1.962000000000e+01 0.0 
0.0 -1.962000000000e+01 0.0 
0.0 -1.962000000000e+01 0.0 
0.0 -1.962000000000e+01 0.0 
0.0 -1.962000000000e+01 0.0 
0.0 -1.962000000000e+01 0.0 
0.0 -1.962000000000e+01 0.0 
0.0 -1.962000000000e+01 0.0 
0.0 -1.962000000000e+01 0.0 
0.0 -1.962000000000e+01 0.0 
0.0 -1.962000000000e+01 0.0 
0.0 -1.962000000000e+01 0.0 
0.0 -1.962000000000e+01 0.0 
0.0 -1.962000000000e+01 0.0 
0.0 -1.962000000000e+01 0.0 
0.0 -1.962000000000e+01 0.0 
0.0 -1.962000000000e+01 0.0 
0.0 -1.962000000000e+01 0.0 
0.0 -1.962000000000e+01 0.0 
0.0 -1.962000000000e+01 0.0 
0.0 -1.962000000000e+01 0.0 
0.0 -1.962000000000e+01 0.0 
0.0 -1.962000000000e+01 0.0 
0.0 -1.962000000000e+01 0.0 
0.0 -1.962000000000e+01 0.0 
0.0 -1.962000000000e+01 0.0 
0.0 -1.962000000000e+01 0.0 
0.0 -1.962000000000e+01 0.0 
0.0 -1.962000000000e+01 0.0 
0.0 -1.962000000000e+01 0.0 
0.0 -1.962000000000e+01 0.0 
0.0 -1.962000000000e+01 0.0 
0.0 -1.962000000000e+01 0.0 
0.0 -1.962000000000e+01 0.0 
0.0 -1.962000000000e+01 0.0 
0.0 -1.962000000000e+01 0.0 
0.0 -1.962000000000e+01 0.0 
0.0 -1.962000000000e+01 0.0 
0.0 -1.962000000000e+01 0.0 
0.0 -1.962000000000e+01 0.0 
0.0 -1.962000000000e+01 0.0 
0.0 -1.962000000000e+01 0.0 
0.0 -1.962000000000e+01 0.0 
0.0 -1.962000000000e+01 0.0 
0.0 -1.962000000000e+01 0.0 
0.0 -1.962000000000e+01 0.0 
0.0 -1.962000000000e+01 0.0 
0.0 -1.962000000000e+01 0.0 
0.0 -1.962000000000e+01 0.0 
0.0 -1.962000000000e+01 0.0 
0.0 -1.962000000000e+01 0.0 
0.0 -1.962000000000e+01 0.0 
0.0 -1.962000000000e+01 0.0 
0.0 -1.962000000000e+01 0.0 
0.0 -1.962000000000e+01 0.0 
0.0 -1.962000000000e+01 0.0 
0.0 -1.962000000000e+01 0.0 
0.0 -1.962000000000e+01 0.0 
0.0 -1.962000000000e+01 0.0 
0.0 -1.962000000000e+01 0.0 
0.0 -1.962000000000e+01 0.0 
0.0 -1.962000000000e+01 0.0 
0.0 -1.962000000000e+01 0.0 
0.0 -1.962000000000e+01 0.0 
0.0 -1.962000000000e+01 0.0 
0.0 -1.962000000000e+01 0.0 
0.0 -1.962000000000e+01 0.0 
0.0 -1.962000000000e+01 0.0 
0.0 -1.962000000000e+01 0.0 
0.0 -1.962000000000e+01 0.0 
0.0 -1.962000000000e+01 0.0 
0.0 -1.962000000000e+01 0.0 
0.0 -1.962000000000e+01 0.0 
0.0 -1.962000000000e+01 0.0 
0.0 -1.962000000000e+01 0.0 
0.0 -1.962000000000e+01 0.0 
0.0 -1.962000000000e+01 0.0 
0.0 -1.962000000000e+01 0.0 
0.0 -1.962000000000e+01 0.0 
0.0 -1.962000000000e+01 0.0 
0.0 -1.962000000000e+01 0.0 
0.0 -1.962000000000e+01 0.0 
0.0 -1.962000000000e+01 0.0 
0.0 -1.962000000000e+01 0.0 
0.0 -1.962000000000e+01 0.0 
0.0 -1.962000000000e+01 0.0 
0.0 -1.962000000000e+01 0.0 
0.0 -1.962000000000e+01 0.0 
0.0 -1.962000000000e+01 0.0 
0.0 -1.962000000000e+01 0.0 
0.0 -1.962000000000e+01 0.0 
0.0 -1.962000000000e+01 0.0 
0.0 -1.962000000000e+01 0.0 
0.0 -1.962000000000e+01 0.0 
0.0 -1.962000000000e+01 0.0 
0.0 -1.962000000000e+01 0.0 
0.0 -1.962000000000e+01 0.0 
0.0 -1.962000000000e+01 0.0 
0.0 -1.962000000000e+01 0.0 
0.0 -1.962000000000e+01 0.0 
0.0 -1.962000000000e+01 0.0 
0.0 -1.962000000000e+01 0.0 
0.0 -1.962000000000e+01 0.0 
0.0 -1.962000000000e+01 0.0 
0.0 -1.962000000000e+01 0.0 
0.0 -1.962000000000e+01 0.0 
0.0 -1.962000000000e+01 0.0 
0.0 -1.962000000000e+01 0.0 
0.0 -1.962000000000e+01 0.0 
0.0 -1.962000000000e+01 0.0 
0.0 -1.962000000000e+01 0.0 
0.0 -1.962000000000e+01 0.0 
0.0 -1.962000000000e+01 0.0 
0.0 -1.962000000000e+01 0.0 
0.0 -1.962000000000e+01 0.0 
0.0 -1.962000000000e+01 0.0 
0.0 -1.962000000000e+01 0.0 
0.0 -1.962000000000e+01 0.0 
0.0 -1.962000000000e+01 0.0 
0.0 -1.962000000000e+01 0.0 
0.0 -1.962000000000e+01 0.0 
0.0 -1.962000000000e+01 0.0 
0.0 -1.962000000000e+01 0.0 
0.0 -1.962000000000e+01 0.0 
0.0 -1.962000000000e+01 0.0 
0.0 -1.962000000000e+01 0.0 
0.0 -1.962000000000e+01 0.0 
0.0 -1.962000000000e+01 0.0 
0.0 -1.962000000000e+01 0.0 
0.0 -1.962000000000e+01 0.0 
0.0 -1.962000000000e+01 0.0 
0.0 -1.962000000000e+01 0.0 
0.0 -1.962000000000e+01 0.0 
0.0 -1.962000000000e+01 0.0 
0.0 -1.962000000000e+01 0.0 
0.0 -1.962000000000e+01 0.0 
0.0 -1.962000000000e+01 0.0 
0.0 -1.962000000000e+01 0.0 
0.0 -1.962000000000e+01 0.0 
0.0 -1.962000000000e+01 0.0 
0.0 -1.962000000000e+01 0.0 
0.0 -1.962000000000e+01 0.0 
0.0 -1.962000000000e+01 0.0 
0.0 -1.962000000000e+01 0.0 
0.0 -1.962000000000e+01 0.0 
0.0 -1.962000000000e+01 0.0 
0.0 -1.962000000000e+01 0.0 
0.0 -1.962000000000e+01 0.0 
0.0 -1.962000000000e+01 0.0 
0.0 -1.962000000000e+01 0.0 
0.0 -1.962000000000e+01 0.0 
0.0 -1.962000000000e+01 0.0 
0.0 -1.962000000000e+01 0.0 
0.0 -1.962000000000e+01 0.0 
0.0 -1.962000000000e+01 0.0 
0.0 -1.962000000000e+01 0.0 
0.0 -1.962000000000e+01 0.0 
0.0 -1.962000000000e+01 0.0 
0.0 -1.962000000000e+01 0.0 
0.0 -1.962000000000e+01 0.0 
0.0 -1.962000000000e+01 0.0 
0.0 -1.962000000000e+01 0.0 
0.0 -1.962000000000e+01 0.0 
0.0 -1.962000000000e+01 0.0 
0.0 -1.962000000000e+01 0.0 
0.0 -1.962000000000e+01 0.0 
0.0 -1.962000000000e+01 0.0 
0.0 -1.962000000000e+01 0.0 
0.0 -1.962000000000e+01 0.0 
0.0 -1.962000000000e+01 0.0 
0.0 -1.962000000000e+01 0.0 
0.0 -1.962000000000e+01 0.0 
0.0 -1.962000000000e+01 0.0 
0.0 -1.962000000000e+01 0.0 
0.0 -1.962000000000e+01 0.0 
0.0 -1.962000000000e+01 0.0 
0.0 -1.962000000000e+01 0.0 
0.0 -1.962000000000e+01 0.0 
0.0 -1.962000000000e+01 0.0 
0.0 -1.962000000000e+01 0.0 
0.0 -1.962000000000e+01 0.0 
0.0 -1.962000000000e+01 0.0 
0.0 -1.962000000000e+01 0.0 
0.0 -1.962000000000e+01 0.0 
0.0 -1.962000000000e+01 0.0 
0.0 -1.962000000000e+01 0.0 
0.0 -1.962000000000e+01 0.0 
0.0 -1.962000000000e+01 0.0 
0.0 -1.962000000000e+01 0.0 
0.0 -1.962000000000e+01 0.0 
0.0 -1.962000000000e+01 0.0 
0.0 -1.962000000000e+01 0.0 
0.0 -1.962000000000e+01 0.0 
0.0 -1.962000000000e+01 0.0 
0.0 -1.962000000000e+01 0.0 
0.0 -1.962000000000e+01 0.0 
0.0 -1.962000000000e+01 0.0 
0.0 -1.962000000000e+01 0.0 
0.0 -1.962000000000e+01 0.0 
0.0 -1.962000000000e+01 0.0 
0.0 -1.962000000000e+01 0.0 
0.0 -1.962000000000e+01 0.0 
0.0 -1.962000000000e+01 0.0 
0.0 -1.962000000000e+01 0.0 
0.0 -1.962000000000e+01 0.0 
0.0 -1.962000000000e+01 0.0 
0.0 -1.962000000000e+01 0.0 
0.0 -1.962000000000e+01 0.0 
0.0 -1.962000000000e+01 0.0 
0.0 -1.962000000000e+01 0.0 
0.0 -1.962000000000e+01 0.0 
0.0 -1.962000000000e+01 0.0 
0.0 -1.962000000000e+01 0.0 
0.0 -1.962000000000e+01 0.0 
0.0 -1.962000000000e+01 0.0 
0.0 -1.962000000000e+01 0.0 
0.0 -1.962000000000e+01 0.0 
0.0 -1.962000000000e+01 0.0 
0.0 -1.962000000000e+01 0.0 
0.0 -1.962000000000e+01 0.0 
0.0 -1.962000000000e+01 0.0 
0.0 -1.962000000000e+01 0.0 
0.0 -1.962000000000e+01 0.0 
0.0 -1.962000000000e+01 0.0 
0.0 -1.962000000000e+01 0.0 
0.0 -1.962000000000e+01 0.0 
0.0 -1.962000000000e+01 0.0 
0.0 -1.962000000000e+01 0.0 
0.0 -1.962000000000e+01 0.0 
0.0 -1.962000000000e+01 0.0 
0.0 -1.962000000000e+01 0.0 
0.0 -1.962000000000e+01 0.0 
0.0 -1.962000000000e+01 0.0 
0.0 -1.962000000000e+01 0.0 
0.0 -1.962000000000e+01 0.0 
0.0 -1.962000000000e+01 0.0 
0.0 -1.962000000000e+01 0.0 
0.0 -1.962000000000e+01 0.0 
0.0 -1.962000000000e+01 0.0 
0.0 -1.962000000000e+01 0.0 
0.0 -1.962000000000e+01 0.0 
0.0 -1.962000000000e+01 0.0 
0.0 -1.962000000000e+01 0.0 
0.0 -1.962000000000e+01 0.0 
0.0 -1.962000000000e+01 0.0 
0.0 -1.962000000000e+01 0.0 
0.0 -1.962000000000e+01 0.0 
0.0 -1.962000000000e+01 0.0 
0.0 -1.962000000000e+01 0.0 
0.0 -1.962000000000e+01 0.0 
0.0 -1.962000000000e+01 0.0 
0.0 -1.962000000000e+01 0.0 
0.0 -1.962000000000e+01 0.0 
0.0 -1.962000000000e+01 0.0 
0.0 -1.962000000000e+01 0.0 
0.0 -1.962000000000e+01 0.0 
0.0 -1.962000000000e+01 0.0 
0.0 -1.962000000000e+01 0.0 
0.0 -1.962000000000e+01 0.0 
0.0 -1.962000000000e+01 0.0 
0.0 -1.962000000000e+01 0.0 
0.0 -1.962000000000e+01 0.0 
0.0 -1.962000000000e+01 0.0 
0.0 -1.962000000000e+01 0.0 
0.0 -1.962000000000e+01 0.0 
0.0 -1.962000000000e+01 0.0 
0.0 -1.962000000000e+01 0.0 
0.0 -1.962000000000e+01 0.0 
0.0 -1.962000000000e+01 0.0 
0.0 -1.962000000000e+01 0.0 
0.0 -1.962000000000e+01 0.0 
0.0 -1.962000000000e+01 0.0 
0.0 -1.962000000000e+01 0.0 
0.0 -1.962000000000e+01 0.0 
0.0 -1.962000000000e+01 0.0 
0.0 -1.962000000000e+01 0.0 
0.0 -1.962000000000e+01 0.0 
0.0 -1.962000000000e+01 0.0 
0.0 -1.962000000000e+01 0.0 
0.0 -1.962000000000e+01 0.0 
0.0 -1.962000000000e+01 0.0 
0.0 -1.962000000000e+01 0.0 
0.0 -1.962000000000e+01 0.0 
0.0 -1.962000000000e+01 0.0 
0.0 -1.962000000000e+01 0.0 
0.0 -1.962000000000e+01 0.0 
0.0 -1.962000000000e+01 0.0 
0.0 -1.962000000000e+01 0.0 
0.0 -1.962000000000e+01 0.0 
0.0 -1.962000000000e+01 0.0 
0.0 -1.962000000000e+01 0.0 
0.0 -1.962000000000e+01 0.0 
0.0 -1.962000000000e+01 0.0 
0.0 -1.962000000000e+01 0.0 
0.0 -1.962000000000e+01 0.0 
0.0 -1.962000000000e+01 0.0 
0.0 -1.962000000000e+01 0.0 
0.0 -1.962000000000e+01 0.0 
0.0 -1.962000000000e+01 0.0 
0.0 -1.962000000000e+01 0.0 
0.0 -1.962000000000e+01 0.0 
0.0 -1.962000000000e+01 0.0 
0.0 -1.962000000000e+01 0.0 
0.0 -1.962000000000e+01 0.0 
0.0 -1.962000000000e+01 0.0 
0.0 -1.962000000000e+01 0.0 
0.0 -1.962000000000e+01 0.0 
0.0 -1.962000000000e+01 0.0 
0.0 -1.962000000000e+01 0.0 
0.0 -1.962000000000e+01 0.0 
0.0 -1.962000000000e+01 0.0 
0.0 -1.962000000000e+01 0.0 
0.0 -1.962000000000e+01 0.0 
0.0 -1.962000000000e+01 0.0 
0.0 -1.962000000000e+01 0.0 
0.0 -1.962000000000e+01 0.0 
0.0 -1.962000000000e+01 0.0 
0.0 -1.962000000000e+01 0.0 
0.0 -1.962000000000e+01 0.0 
0.0 -1.962000000000e+01 0.0 
0.0 -1.962000000000e+01 0.0 
0.0 -1.962000000000e+01 0.0 
0.0 -1.962000000000e+01 0.0 
0.0 -1.962000000000e+01 0.0 
0.0 -1.962000000000e+01 0.0 
0.0 -1.962000000000e+01 0.0 
0.0 -1.962000000000e+01 0.0 
0.0 -1.962000000000e+01 0.0 
0.0 -1.962000000000e+01 0.0 
0.0 -1.962000000000e+01 0.0 
0.0 -1.962000000000e+01 0.0 
0.0 -1.962000000000e+01 0.0 
0.0 -1.962000000000e+01 0.0 
0.0 -1.962000000000e+01 0.0 
0.0 -1.962000000000e+01 0.0 
0.0 -1.962000000000e+01 0.0 
0.0 -1.962000000000e+01 0.0 
0.0 -1.962000000000e+01 0.0 
0.0 -1.962000000000e+01 0.0 
0.0 -1.962000000000e+01 0.0 
0.0 -1.962000000000e+01 0.0 
0.0 -1.962000000000e+01 0.0 
0.0 -1.962000000000e+01 0.0 
0.0 -1.962000000000e+01 0.0 
0.0 -1.962000000000e+01 0.0 
0.0 -1.962000000000e+01 0.0 
0.0 -1.962000000000e+01 0.0 
0.0 -1.962000000000e+01 0.0 
0.0 -1.962000000000e+01 0.0 
0.0 -1.962000000000e+01 0.0 
0.0 -1.962000000000e+01 0.0 
0.0 -1.962000000000e+01 0.0 
0.0 -1.962000000000e+01 0.0 
0.0 -1.962000000000e+01 0.0 
0.0 -1.962000000000e+01 0.0 
0.0 -1.962000000000e+01 0.0 
0.0 -1.962000000000e+01 0.0 
0.0 -1.962000000000e+01 0.0 
0.0 -1.962000000000e+01 0.0 
0.0 -1.962000000000e+01 0.0 
0.0 -1.962000000000e+01 0.0 
0.0 -1.962000000000e+01 0.0 
0.0 -1.962000000000e+01 0.0 
0.0 -1.962000000000e+01 0.0 
0.0 -1.962000000000e+01 0.0 
0.0 -1.962000000000e+01 0.0 
0.0 -1.962000000000e+01 0.0 
0.0 -1.962000000000e+01 0.0 
0.0 -1.962000000000e+01 0.0 
0.0 -1.962000000000e+01 0.0 
0.0 -1.962000000000e+01 0.0 
0.0 -1.962000000000e+01 0.0 
0.0 -1.962000000000e+01 0.0 
0.0 -1.962000000000e+01 0.0 
0.0 -1.962000000000e+01 0.0 
0.0 -1.962000000000e+01 0.0 
0.0 -1.962000000000e+01 0.0 
0.0 -1.962000000000e+01 0.0 
0.0 -1.962000000000e+01 0.0 
0.0 -1.962000000000e+01 0.0 
0.0 -1.962000000000e+01 0.0 
0.0 -1.962000000000e+01 0.0 
0.0 -1.962000000000e+01 0.0 
0.0 -1.962000000000e+01 0.0 
0.0 -1.962000000000e+01 0.0 
0.0 -1.962000000000e+01 0.0 
0.0 -1.962000000000e+01 0.0 
0.0 -1.962000000000e+01 0.0 
0.0 -1.962000000000e+01 0.0 
0.0 -1.962000000000e+01 0.0 
0.0 -1.962000000000e+01 0.0 
0.0 -1.962000000000e+01 0.0 
0.0 -1.962000000000e+01 0.0 
0.0 -1.962000000000e+01 0.0 
0.0 -1.962000000000e+01 0.0 
0.0 -1.962000000000e+01 0.0 
0.0 -1.962000000000e+01 0.0 
0.0 -1.962000000000e+01 0.0 
0.0 -1.962000000000e+01 0.0 
0.0 -1.962000000000e+01 0.0 
0.0 -1.962000000000e+01 0.0 
0.0 -1.962000000000e+01 0.0 
0.0 -1.962000000000e+01 0.0 
0.0 -1.962000000000e+01 0.0 
0.0 -1.962000000000e+01 0.0 
0.0 -1.962000000000e+01 0.0 
0.0 -1.962000000000e+01 0.0 
0.0 -1.962000000000e+01 0.0 
0.0 -1.962000000000e+01 0.0 
0.0 -1.962000000000e+01 0.0 
0.0 -1.962000000000e+01 0.0 
0.0 -1.962000000000e+01 0.0 
0.0 -1.962000000000e+01 0.0 
0.0 -1.962000000000e+01 0.0 
0.0 -1.962000000000e+01 0.0 
0.0 -1.962000000000e+01 0.0 
0.0 -1.962000000000e+01 0.0 
0.0 -1.962000000000e+01 0.0 
0.0 -1.962000000000e+01 0.0 
0.0 -1.962000000000e+01 0.0 
0.0 -1.962000000000e+01 0.0 
0.0 -1.962000000000e+01 0.0 
0.0 -1.962000000000e+01 0.0 
0.0 -1.962000000000e+01 0.0 
0.0 -1.962000000000e+01 0.0 
0.0 -1.962000000000e+01 0.0 
0.0 -1.962000000000e+01 0.0 
0.0 -1.962000000000e+01 0.0 
0.0 -1.962000000000e+01 0.0 
0.0 -1.962000000000e+01 0.0 
0.0 -1.962000000000e+01 0.0 
0.0 -1.962000000000e+01 0.0 
0.0 -1.962000000000e+01 0.0 
0.0 -1.962000000000e+01 0.0 
0.0 -1.962000000000e+01 0.0 
0.0 -1.962000000000e+01 0.0 
0.0 -1.962000000000e+01 0.0 
0.0 -1.962000000000e+01 0.0 
0.0 -1.962000000000e+01 0.0 
0.0 -1.962000000000e+01 0.0 
0.0 -1.962000000000e+01 0.0 
0.0 -1.962000000000e+01 0.0 
0.0 -1.962000000000e+01 0.0 
0.0 -1.962000000000e+01 0.0 
0.0 -1.962000000000e+01 0.0 
0.0 -1.962000000000e+01 0.0 
0.0 -1.962000000000e+01 0.0 
0.0 -1.962000000000e+01 0.0 
0.0 -1.962000000000e+01 0.0 
0.0 -1.962000000000e+01 0.0 
0.0 -1.962000000000e+01 0.0 
0.0 -1.962000000000e+01 0.0 
0.0 -1.962000000000e+01 0.0 
0.0 -1.962000000000e+01 0.0 
0.0 -1.962000000000e+01 0.0 
0.0 -1.962000000000e+01 0.0 
0.0 -1.962000000000e+01 0.0 
0.0 -1.962000000000e+01 0.0 
0.0 -1.962000000000e+01 0.0 
0.0 -1.962000000000e+01 0.0 
0.0 -1.962000000000e+01 0.0 
0.0 -1.962000000000e+01 0.0 
0.0 -1.962000000000e+01 0.0 
0.0 -1.962000000000e+01 0.0 
0.0 -1.962000000000e+01 0.0 
0.0 -1.962000000000e+01 0.0 
0.0 -1.962000000000e+01 0.0 
0.0 -1.962000000000e+01 0.0 
0.0 -1.962000000000e+01 0.0 
0.0 -1.962000000000e+01 0.0 
0.0 -1.962000000000e+01 0.0 
0.0 -1.962000000000e+01 0.0 
0.0 -1.962000000000e+01 0.0 
0.0 -1.962000000000e+01 0.0 
0.0 -1.962000000000e+01 0.0 
0.0 -1.962000000000e+01 0.0 
0.0 -1.962000000000e+01 0.0 
0.0 -1.962000000000e+01 0.0 
0.0 -1.962000000000e+01 0.0 
0.0 -1.962000000000e+01 0.0 
0.0 -1.962000000000e+01 0.0 
0.0 -1.962000000000e+01 0.0 
0.0 -1.962000000000e+01 0.0 
0.0 -1.962000000000e+01 0.0 
0.0 -1.962000000000e+01 0.0 
0.0 -1.962000000000e+01 0.0 
0.0 -1.962000000000e+01 0.0 
0.0 -1.962000000000e+01 0.0 
0.0 -1.962000000000e+01 0.0 
0.0 -1.962000000000e+01 0.0 
0.0 -1.962000000000e+01 0.0 
0.0 -1.962000000000e+01 0.0 
0.0 -1.962000000000e+01 0.0 
0.0 -1.962000000000e+01 0.0 
0.0 -1.962000000000e+01 0.0 
0.0 -1.962000000000e+01 0.0 
0.0 -1.962000000000e+01 0.0 
0.0 -1.962000000000e+01 0.0 
0.0 -1.962000000000e+01 0.0 
0.0 -1.962000000000e+01 0.0 
0.0 -1.962000000000e+01 0.0 
0.0 -1.962000000000e+01 0.0 
0.0 -1.962000000000e+01 0.0 
0.0 -1.962000000000e+01 0.0 
0.0 -1.962000000000e+01 0.0 
0.0 -1.962000000000e+01 0.0 
0.0 -1.962000000000e+01 0.0 
0.0 -1.962000000000e+01 0.0 
0.0 -1.962000000000e+01 0.0 
0.0 -1.962000000000e+01 0.0 
0.0 -1.962000000000e+01 0.0 
0.0 -1.962000000000e+01 0.0 
0.0 -1.962000000000e+01 0.0 
0.0 -1.962000000000e+01 0.0 
0.0 -1.962000000000e+01 0.0 
0.0 -1.962000000000e+01 0.0 
0.0 -1.962000000000e+01 0.0 
0.0 -1.962000000000e+01 0.0 
0.0 -1.962000000000e+01 0.0 
0.0 -1.962000000000e+01 0.0 
0.0 -1.962000000000e+01 0.0 
0.0 -1.962000000000e+01 0.0 
0.0 -1.962000000000e+01 0.0 
0.0 -1.962000000000e+01 0.0 
0.0 -1.962000000000e+01 0.0 
0.0 -1.962000000000e+01 0.0 
0.0 -1.962000000000e+01 0.0 
0.0 -1.962000000000e+01 0.0 
0.0 -1.962000000000e+01 0.0 
0.0 -1.962000000000e+01 0.0 

VECTORS node_rhside_materi_fixed float
-1.666636660113e+00 0.0 0.0 
5.562967213705e+01 0.0 0.0 
-8.170504232474e+01 -1.953411237870e+02 0.0 
6.602701196413e+01 -1.581390068624e+02 0.0 
-7.540698063017e+00 0.0 0.0 
-1.556465838333e+01 0.0 0.0 
-2.211554752659e+01 0.0 0.0 
-3.041936996984e+01 0.0 0.0 
-3.765459967403e+01 0.0 0.0 
-4.520109026998e+01 0.0 0.0 
-5.279306722146e+01 0.0 0.0 
-6.043007014222e+01 0.0 0.0 
-6.816415319312e+01 0.0 0.0 
-7.595259176859e+01 0.0 0.0 
-8.434499848401e+01 0.0 0.0 
-9.279712181029e+01 0.0 0.0 
-1.009163864043e+02 0.0 0.0 
-1.098504294536e+02 0.0 0.0 
-1.187975873859e+02 0.0 0.0 
-1.279620751379e+02 0.0 0.0 
-1.373486977171e+02 0.0 0.0 
-1.469233538283e+02 0.0 0.0 
-1.570539512998e+02 0.0 0.0 
2.731067736159e-01 -3.152024461059e+02 0.0 
3.911211688780e-01 -3.163405827498e+02 0.0 
2.055246789539e+00 -3.155859647187e+02 0.0 
9.272049026401e-01 -3.157599091110e+02 0.0 
2.345956672866e+00 -3.164787376964e+02 0.0 
2.697046938895e+00 -3.159970881056e+02 0.0 
2.962616686124e+00 -3.166612367809e+02 0.0 
3.580897697148e+00 -3.172866839817e+02 0.0 
4.950678700622e+00 -3.169666247639e+02 0.0 
4.158911483809e+00 -3.175595255575e+02 0.0 
5.804112844005e+00 -3.188208315469e+02 0.0 
6.509070792217e+00 -3.187599383001e+02 0.0 
7.070113680531e+00 -3.201967625815e+02 0.0 
7.796201808048e+00 -3.208866226366e+02 0.0 
8.810412481686e+00 -3.219763155176e+02 0.0 
9.347949754444e+00 -3.237595630082e+02 0.0 
1.099365801819e+01 -3.252526785419e+02 0.0 
1.180635440235e+01 -3.272005731732e+02 0.0 
1.277997375946e+01 -3.292260528709e+02 0.0 
1.364050985735e+01 -3.312458053963e+02 0.0 
1.403774870704e+01 -3.338399891549e+02 0.0 
1.521055567729e+01 -3.369475511972e+02 0.0 
1.571213221458e+01 -3.397171221746e+02 0.0 
1.634412472887e+01 -3.428277299184e+02 0.0 
1.677540573401e+01 -3.463751604258e+02 0.0 
1.694240692382e+01 -3.495370297736e+02 0.0 
1.697043365832e+01 -3.527524661259e+02 0.0 
1.678410158588e+01 -3.562980646978e+02 0.0 
1.654871227308e+01 -3.598270517476e+02 0.0 
1.639758229491e+01 -3.628390466427e+02 0.0 
1.519047345910e+01 -3.656220919172e+02 0.0 
1.481598846552e+01 -3.692594043194e+02 0.0 
1.412163869495e+01 -3.715252063996e+02 0.0 
1.333980995940e+01 -3.742376325228e+02 0.0 
1.230963922387e+01 -3.764885272961e+02 0.0 
1.149520221338e+01 -3.784898333948e+02 0.0 
1.049432766644e+01 -3.805143187648e+02 0.0 
9.498293517508e+00 -3.821148302564e+02 0.0 
8.623229802650e+00 -3.835843715639e+02 0.0 
7.729770791203e+00 -3.852173302131e+02 0.0 
6.950387036802e+00 -3.861013833503e+02 0.0 
6.005730698406e+00 -3.869772070809e+02 0.0 
5.151284195962e+00 -3.875902770961e+02 0.0 
4.457648561081e+00 -3.890349660431e+02 0.0 
3.450562634983e+00 -3.888007115125e+02 0.0 
2.741153477450e+00 -3.898907966007e+02 0.0 
2.357349971293e+00 -3.897001580054e+02 0.0 
1.371822268335e+00 -3.901355961670e+02 0.0 
6.549061190663e-01 -3.901500718434e+02 0.0 
6.362354600486e+01 0.0 0.0 
7.227593487589e+01 0.0 0.0 
8.041672219028e+01 0.0 0.0 
8.834366268726e+01 0.0 0.0 
9.628980756324e+01 0.0 0.0 
1.044842072537e+02 0.0 0.0 
1.121572056671e+02 0.0 0.0 
1.194289379405e+02 0.0 0.0 
1.278799776950e+02 0.0 0.0 
0.0 0.0 0.0 
0.0 0.0 0.0 
0.0 0.0 0.0 
0.0 0.0 0.0 
0.0 0.0 0.0 
0.0 0.0 0.0 
0.0 0.0 0.0 
0.0 0.0 0.0 
0.0 0.0 0.0 
0.0 0.0 0.0 
0.0 0.0 0.0 
4.289365734325e+00 0.0 0.0 
1.394955679640e+01 0.0 0.0 
2.212437052630e+01 0.0 0.0 
3.052707259401e+01 0.0 0.0 
3.897375737871e+01 0.0 0.0 
4.739774994186e+01 0.0 0.0 
0.0 0.0 0.0 
0.0 0.0 0.0 
0.0 0.0 0.0 
0.0 0.0 0.0 
0.0 0.0 0.0 
0.0 0.0 0.0 
0.0 0.0 0.0 
0.0 0.0 0.0 
0.0 0.0 0.0 
0.0 0.0 0.0 
0.0 0.0 0.0 
0.0 0.0 0.0 
0.0 0.0 0.0 
0.0 0.0 0.0 
0.0 0.0 0.0 
0.0 0.0 0.0 
0.0 0.0 0.0 
0.0 0.0 0.0 
0.0 0.0 0.0 
0.0 0.0 0.0 
0.0 0.0 0.0 
0.0 0.0 0.0 
0.0 0.0 0.0 
0.0 0.0 0.0 
0.0 0.0 0.0 
0.0 0.0 0.0 
0.0 0.0 0.0 
0.0 0.0 0.0 
0.0 0.0 0.0 
0.0 0.0 0.0 
0.0 0.0 0.0 
0.0 0.0 0.0 
0.0 0.0 0.0 
0.0 0.0 0.0 
0.0 0.0 0.0 
0.0 0.0 0.0 
0.0 0.0 0.0 
0.0 0.0 0.0 
0.0 0.0 0.0 
0.0 0.0 0.0 
0.0 0.0 0.0 
0.0 0.0 0.0 
0.0 0.0 0.0 
0.0 0.0 0.0 
0.0 0.0 0.0 
0.0 0.0 0.0 
0.0 0.0 0.0 
0.0 0.0 0.0 
0.0 0.0 0.0 
0.0 0.0 0.0 
0.0 0.0 0.0 
0.0 0.0 0.0 
0.0 0.0 0.0 
0.0 0.0 0.0 
0.0 0.0 0.0 
0.0 0.0 0.0 
0.0 0.0 0.0 
0.0 0.0 0.0 
0.0 0.0 0.0 
0.0 0.0 0.0 
0.0 0.0 0.0 
0.0 0.0 0.0 
0.0 0.0 0.0 
0.0 0.0 0.0 
0.0 0.0 0.0 
0.0 0.0 0.0 
0.0 0.0 0.0 
0.0 0.0 0.0 
0.0 0.0 0.0 
0.0 0.0 0.0 
0.0 0.0 0.0 
0.0 0.0 0.0 
0.0 0.0 0.0 
0.0 0.0 0.0 
0.0 0.0 0.0 
0.0 0.0 0.0 
0.0 0.0 0.0 
0.0 0.0 0.0 
0.0 0.0 0.0 
0.0 0.0 0.0 
0.0 0.0 0.0 
0.0 0.0 0.0 
0.0 0.0 0.0 
0.0 0.0 0.0 
0.0 0.0 0.0 
0.0 0.0 0.0 
0.0 0.0 0.0 
0.0 0.0 0.0 
0.0 0.0 0.0 
0.0 0.0 0.0 
0.0 0.0 0.0 
0.0 0.0 0.0 
0.0 0.0 0.0 
0.0 0.0 0.0 
0.0 0.0 0.0 
0.0 0.0 0.0 
0.0 0.0 0.0 
0.0 0.0 0.0 
0.0 0.0 0.0 
0.0 0.0 0.0 
0.0 0.0 0.0 
0.0 0.0 0.0 
0.0 0.0 0.0 
0.0 0.0 0.0 
0.0 0.0 0.0 
0.0 0.0 0.0 
0.0 0.0 0.0 
0.0 0.0 0.0 
0.0 0.0 0.0 
0.0 0.0 0.0 
0.0 0.0 0.0 
0.0 0.0 0.0 
0.0 0.0 0.0 
0.0 0.0 0.0 
0.0 0.0 0.0 
0.0 0.0 0.0 
0.0 0.0 0.0 
0.0 0.0 0.0 
0.0 0.0 0.0 
0.0 0.0 0.0 
0.0 0.0 0.0 
0.0 0.0 0.0 
0.0 0.0 0.0 
0.0 0.0 0.0 
0.0 0.0 0.0 
0.0 0.0 0.0 
0.0 0.0 0.0 
0.0 0.0 0.0 
0.0 0.0 0.0 
0.0 0.0 0.0 
0.0 0.0 0.0 
0.0 0.0 0.0 
0.0 0.0 0.0 
0.0 0.0 0.0 
0.0 0.0 0.0 
0.0 0.0 0.0 
0.0 0.0 0.0 
0.0 0.0 0.0 
0.0 0.0 0.0 
0.0 0.0 0.0 
0.0 0.0 0.0 
0.0 0.0 0.0 
0.0 0.0 0.0 
0.0 0.0 0.0 
0.0 0.0 0.0 
0.0 0.0 0.0 
0.0 0.0 0.0 
0.0 0.0 0.0 
0.0 0.0 0.0 
0.0 0.0 0.0 
0.0 0.0 0.0 
0.0 0.0 0.0 
0.0 0.0 0.0 
0.0 0.0 0.0 
0.0 0.0 0.0 
0.0 0.0 0.0 
0.0 0.0 0.0 
0.0 0.0 0.0 
0.0 0.0 0.0 
0.0 0.0 0.0 
0.0 0.0 0.0 
0.0 0.0 0.0 
0.0 0.0 0.0 
0.0 0.0 0.0 
0.0 0.0 0.0 
0.0 0.0 0.0 
0.0 0.0 0.0 
0.0 0.0 0.0 
0.0 0.0 0.0 
0.0 0.0 0.0 
0.0 0.0 0.0 
0.0 0.0 0.0 
0.0 0.0 0.0 
0.0 0.0 0.0 
0.0 0.0 0.0 
0.0 0.0 0.0 
0.0 0.0 0.0 
0.0 0.0 0.0 
0.0 0.0 0.0 
0.0 0.0 0.0 
0.0 0.0 0.0 
0.0 0.0 0.0 
0.0 0.0 0.0 
0.0 0.0 0.0 
0.0 0.0 0.0 
0.0 0.0 0.0 
0.0 0.0 0.0 
0.0 0.0 0.0 
0.0 0.0 0.0 
0.0 0.0 0.0 
0.0 0.0 0.0 
0.0 0.0 0.0 
0.0 0.0 0.0 
0.0 0.0 0.0 
0.0 0.0 0.0 
0.0 0.0 0.0 
0.0 0.0 0.0 
0.0 0.0 0.0 
0.0 0.0 0.0 
0.0 0.0 0.0 
0.0 0.0 0.0 
0.0 0.0 0.0 
0.0 0.0 0.0 
0.0 0.0 0.0 
0.0 0.0 0.0 
0.0 0.0 0.0 
0.0 0.0 0.0 
0.0 0.0 0.0 
0.0 0.0 0.0 
0.0 0.0 0.0 
0.0 0.0 0.0 
0.0 0.0 0.0 
0.0 0.0 0.0 
0.0 0.0 0.0 
0.0 0.0 0.0 
0.0 0.0 0.0 
0.0 0.0 0.0 
0.0 0.0 0.0 
0.0 0.0 0.0 
0.0 0.0 0.0 
0.0 0.0 0.0 
0.0 0.0 0.0 
0.0 0.0 0.0 
0.0 0.0 0.0 
0.0 0.0 0.0 
0.0 0.0 0.0 
0.0 0.0 0.0 
0.0 0.0 0.0 
0.0 0.0 0.0 
0.0 0.0 0.0 
0.0 0.0 0.0 
0.0 0.0 0.0 
0.0 0.0 0.0 
0.0 0.0 0.0 
0.0 0.0 0.0 
0.0 0.0 0.0 
0.0 0.0 0.0 
0.0 0.0 0.0 
0.0 0.0 0.0 
0.0 0.0 0.0 
0.0 0.0 0.0 
0.0 0.0 0.0 
0.0 0.0 0.0 
0.0 0.0 0.0 
0.0 0.0 0.0 
0.0 0.0 0.0 
0.0 0.0 0.0 
0.0 0.0 0.0 
0.0 0.0 0.0 
0.0 0.0 0.0 
0.0 0.0 0.0 
0.0 0.0 0.0 
0.0 0.0 0.0 
0.0 0.0 0.0 
0.0 0.0 0.0 
0.0 0.0 0.0 
0.0 0.0 0.0 
0.0 0.0 0.0 
0.0 0.0 0.0 
0.0 0.0 0.0 
0.0 0.0 0.0 
0.0 0.0 0.0 
0.0 0.0 0.0 
0.0 0.0 0.0 
0.0 0.0 0.0 
0.0 0.0 0.0 
0.0 0.0 0.0 
0.0 0.0 0.0 
0.0 0.0 0.0 
0.0 0.0 0.0 
0.0 0.0 0.0 
0.0 0.0 0.0 
0.0 0.0 0.0 
0.0 0.0 0.0 
0.0 0.0 0.0 
0.0 0.0 0.0 
0.0 0.0 0.0 
0.0 0.0 0.0 
0.0 0.0 0.0 
0.0 0.0 0.0 
0.0 0.0 0.0 
0.0 0.0 0.0 
0.0 0.0 0.0 
0.0 0.0 0.0 
0.0 0.0 0.0 
0.0 0.0 0.0 
0.0 0.0 0.0 
0.0 0.0 0.0 
0.0 0.0 0.0 
0.0 0.0 0.0 
0.0 0.0 0.0 
0.0 0.0 0.0 
0.0 0.0 0.0 
0.0 0.0 0.0 
0.0 0.0 0.0 
0.0 0.0 0.0 
0.0 0.0 0.0 
0.0 0.0 0.0 
0.0 0.0 0.0 
0.0 0.0 0.0 
0.0 0.0 0.0 
0.0 0.0 0.0 
0.0 0.0 0.0 
0.0 0.0 0.0 
0.0 0.0 0.0 
0.0 0.0 0.0 
0.0 0.0 0.0 
0.0 0.0 0.0 
0.0 0.0 0.0 
0.0 0.0 0.0 
0.0 0.0 0.0 
0.0 0.0 0.0 
0.0 0.0 0.0 
0.0 0.0 0.0 
0.0 0.0 0.0 
0.0 0.0 0.0 
0.0 0.0 0.0 
0.0 0.0 0.0 
0.0 0.0 0.0 
0.0 0.0 0.0 
0.0 0.0 0.0 
0.0 0.0 0.0 
0.0 0.0 0.0 
0.0 0.0 0.0 
0.0 0.0 0.0 
0.0 0.0 0.0 
0.0 0.0 0.0 
0.0 0.0 0.0 
0.0 0.0 0.0 
0.0 0.0 0.0 
0.0 0.0 0.0 
0.0 0.0 0.0 
0.0 0.0 0.0 
0.0 0.0 0.0 
0.0 0.0 0.0 
0.0 0.0 0.0 
0.0 0.0 0.0 
0.0 0.0 0.0 
0.0 0.0 0.0 
0.0 0.0 0.0 
0.0 0.0 0.0 
0.0 0.0 0.0 
0.0 0.0 0.0 
0.0 0.0 0.0 
0.0 0.0 0.0 
0.0 0.0 0.0 
0.0 0.0 0.0 
0.0 0.0 0.0 
0.0 0.0 0.0 
0.0 0.0 0.0 
0.0 0.0 0.0 
0.0 0.0 0.0 
0.0 0.0 0.0 
0.0 0.0 0.0 
0.0 0.0 0.0 
0.0 0.0 0.0 
0.0 0.0 0.0 
0.0 0.0 0.0 
0.0 0.0 0.0 
0.0 0.0 0.0 
0.0 0.0 0.0 
0.0 0.0 0.0 
0.0 0.0 0.0 
0.0 0.0 0.0 
0.0 0.0 0.0 
0.0 0.0 0.0 
0.0 0.0 0.0 
0.0 0.0 0.0 
0.0 0.0 0.0 
0.0 0.0 0.0 
0.0 0.0 0.0 
0.0 0.0 0.0 
0.0 0.0 0.0 
0.0 0.0 0.0 
0.0 0.0 0.0 
0.0 0.0 0.0 
0.0 0.0 0.0 
0.0 0.0 0.0 
0.0 0.0 0.0 
0.0 0.0 0.0 
0.0 0.0 0.0 
0.0 0.0 0.0 
0.0 0.0 0.0 
0.0 0.0 0.0 
0.0 0.0 0.0 
0.0 0.0 0.0 
0.0 0.0 0.0 
0.0 0.0 0.0 
0.0 0.0 0.0 
0.0 0.0 0.0 
0.0 0.0 0.0 
0.0 0.0 0.0 
0.0 0.0 0.0 
0.0 0.0 0.0 
0.0 0.0 0.0 
0.0 0.0 0.0 
0.0 0.0 0.0 
0.0 0.0 0.0 
0.0 0.0 0.0 
0.0 0.0 0.0 
0.0 0.0 0.0 
0.0 0.0 0.0 
0.0 0.0 0.0 
0.0 0.0 0.0 
0.0 0.0 0.0 
0.0 0.0 0.0 
0.0 0.0 0.0 
0.0 0.0 0.0 
0.0 0.0 0.0 
0.0 0.0 0.0 
0.0 0.0 0.0 
0.0 0.0 0.0 
0.0 0.0 0.0 
0.0 0.0 0.0 
0.0 0.0 0.0 
0.0 0.0 0.0 
0.0 0.0 0.0 
0.0 0.0 0.0 
0.0 0.0 0.0 
0.0 0.0 0.0 
0.0 0.0 0.0 
0.0 0.0 0.0 
0.0 0.0 0.0 
0.0 0.0 0.0 
0.0 0.0 0.0 
0.0 0.0 0.0 
0.0 0.0 0.0 
0.0 0.0 0.0 
0.0 0.0 0.0 
0.0 0.0 0.0 
0.0 0.0 0.0 
0.0 0.0 0.0 
0.0 0.0 0.0 
0.0 0.0 0.0 
0.0 0.0 0.0 
0.0 0.0 0.0 
0.0 0.0 0.0 
0.0 0.0 0.0 
0.0 0.0 0.0 
0.0 0.0 0.0 
0.0 0.0 0.0 
0.0 0.0 0.0 
0.0 0.0 0.0 
0.0 0.0 0.0 
0.0 0.0 0.0 
0.0 0.0 0.0 
0.0 0.0 0.0 
0.0 0.0 0.0 
0.0 0.0 0.0 
0.0 0.0 0.0 
0.0 0.0 0.0 
0.0 0.0 0.0 
0.0 0.0 0.0 
0.0 0.0 0.0 
0.0 0.0 0.0 
0.0 0.0 0.0 
0.0 0.0 0.0 
0.0 0.0 0.0 
0.0 0.0 0.0 
0.0 0.0 0.0 
0.0 0.0 0.0 
0.0 0.0 0.0 
0.0 0.0 0.0 
0.0 0.0 0.0 
0.0 0.0 0.0 
0.0 0.0 0.0 
0.0 0.0 0.0 
0.0 0.0 0.0 
0.0 0.0 0.0 
0.0 0.0 0.0 
0.0 0.0 0.0 
0.0 0.0 0.0 
0.0 0.0 0.0 
0.0 0.0 0.0 
0.0 0.0 0.0 
0.0 0.0 0.0 
0.0 0.0 0.0 
0.0 0.0 0.0 
0.0 0.0 0.0 
0.0 0.0 0.0 
0.0 0.0 0.0 
0.0 0.0 0.0 
0.0 0.0 0.0 
0.0 0.0 0.0 
0.0 0.0 0.0 
0.0 0.0 0.0 
0.0 0.0 0.0 
0.0 0.0 0.0 
0.0 0.0 0.0 
0.0 0.0 0.0 
0.0 0.0 0.0 
0.0 0.0 0.0 
0.0 0.0 0.0 
0.0 0.0 0.0 
0.0 0.0 0.0 
0.0 0.0 0.0 
0.0 0.0 0.0 
0.0 0.0 0.0 
0.0 0.0 0.0 
0.0 0.0 0.0 
0.0 0.0 0.0 
0.0 0.0 0.0 
0.0 0.0 0.0 
0.0 0.0 0.0 
0.0 0.0 0.0 
0.0 0.0 0.0 
0.0 0.0 0.0 
0.0 0.0 0.0 
0.0 0.0 0.0 
0.0 0.0 0.0 
0.0 0.0 0.0 
0.0 0.0 0.0 
0.0 0.0 0.0 
0.0 0.0 0.0 
0.0 0.0 0.0 
0.0 0.0 0.0 
0.0 0.0 0.0 
0.0 0.0 0.0 
0.0 0.0 0.0 
0.0 0.0 0.0 
0.0 0.0 0.0 
0.0 0.0 0.0 
0.0 0.0 0.0 
0.0 0.0 0.0 
0.0 0.0 0.0 
0.0 0.0 0.0 
0.0 0.0 0.0 
0.0 0.0 0.0 
0.0 0.0 0.0 
0.0 0.0 0.0 
0.0 0.0 0.0 
0.0 0.0 0.0 
0.0 0.0 0.0 
0.0 0.0 0.0 
0.0 0.0 0.0 
0.0 0.0 0.0 
0.0 0.0 0.0 
0.0 0.0 0.0 
0.0 0.0 0.0 
0.0 0.0 0.0 
0.0 0.0 0.0 
0.0 0.0 0.0 
0.0 0.0 0.0 
0.0 0.0 0.0 
0.0 0.0 0.0 
0.0 0.0 0.0 
0.0 0.0 0.0 
0.0 0.0 0.0 
0.0 0.0 0.0 
0.0 0.0 0.0 
0.0 0.0 0.0 
0.0 0.0 0.0 
0.0 0.0 0.0 
0.0 0.0 0.0 
0.0 0.0 0.0 
0.0 0.0 0.0 
0.0 0.0 0.0 
0.0 0.0 0.0 
0.0 0.0 0.0 
0.0 0.0 0.0 
0.0 0.0 0.0 
0.0 0.0 0.0 
0.0 0.0 0.0 
0.0 0.0 0.0 
0.0 0.0 0.0 
0.0 0.0 0.0 
0.0 0.0 0.0 
0.0 0.0 0.0 
0.0 0.0 0.0 
0.0 0.0 0.0 
0.0 0.0 0.0 
0.0 0.0 0.0 
0.0 0.0 0.0 
0.0 0.0 0.0 
0.0 0.0 0.0 
0.0 0.0 0.0 
0.0 0.0 0.0 
0.0 0.0 0.0 
0.0 0.0 0.0 
0.0 0.0 0.0 
0.0 0.0 0.0 
0.0 0.0 0.0 
0.0 0.0 0.0 
0.0 0.0 0.0 
0.0 0.0 0.0 
0.0 0.0 0.0 
0.0 0.0 0.0 
0.0 0.0 0.0 
0.0 0.0 0.0 
0.0 0.0 0.0 
0.0 0.0 0.0 
0.0 0.0 0.0 
0.0 0.0 0.0 
0.0 0.0 0.0 
0.0 0.0 0.0 
0.0 0.0 0.0 
0.0 0.0 0.0 
0.0 0.0 0.0 
0.0 0.0 0.0 
0.0 0.0 0.0 
0.0 0.0 0.0 
0.0 0.0 0.0 
0.0 0.0 0.0 
0.0 0.0 0.0 
0.0 0.0 0.0 
0.0 0.0 0.0 
0.0 0.0 0.0 
0.0 0.0 0.0 
0.0 0.0 0.0 
0.0 0.0 0.0 
0.0 0.0 0.0 
0.0 0.0 0.0 
0.0 0.0 0.0 
0.0 0.0 0.0 
0.0 0.0 0.0 
0.0 0.0 0.0 
0.0 0.0 0.0 
0.0 0.0 0.0 
0.0 0.0 0.0 
0.0 0.0 0.0 
0.0 0.0 0.0 
0.0 0.0 0.0 
0.0 0.0 0.0 
0.0 0.0 0.0 
0.0 0.0 0.0 
0.0 0.0 0.0 
0.0 0.0 0.0 
0.0 0.0 0.0 
0.0 0.0 0.0 
0.0 0.0 0.0 
0.0 0.0 0.0 
0.0 0.0 0.0 
0.0 0.0 0.0 
0.0 0.0 0.0 
0.0 0.0 0.0 
0.0 0.0 0.0 
0.0 0.0 0.0 
0.0 0.0 0.0 
0.0 0.0 0.0 
0.0 0.0 0.0 
0.0 0.0 0.0 
0.0 0.0 0.0 
0.0 0.0 0.0 
0.0 0.0 0.0 
0.0 0.0 0.0 
0.0 0.0 0.0 
0.0 0.0 0.0 
0.0 0.0 0.0 
0.0 0.0 0.0 
0.0 0.0 0.0 
0.0 0.0 0.0 
0.0 0.0 0.0 
0.0 0.0 0.0 
0.0 0.0 0.0 
0.0 0.0 0.0 
0.0 0.0 0.0 
0.0 0.0 0.0 
0.0 0.0 0.0 
0.0 0.0 0.0 
0.0 0.0 0.0 
0.0 0.0 0.0 
0.0 0.0 0.0 
0.0 0.0 0.0 
0.0 0.0 0.0 
0.0 0.0 0.0 
0.0 0.0 0.0 
0.0 0.0 0.0 
0.0 0.0 0.0 
0.0 0.0 0.0 
0.0 0.0 0.0 
0.0 0.0 0.0 
0.0 0.0 0.0 
0.0 0.0 0.0 
0.0 0.0 0.0 
0.0 0.0 0.0 
0.0 0.0 0.0 
0.0 0.0 0.0 
0.0 0.0 0.0 
0.0 0.0 0.0 
0.0 0.0 0.0 
0.0 0.0 0.0 
0.0 0.0 0.0 
0.0 0.0 0.0 
0.0 0.0 0.0 
0.0 0.0 0.0 
0.0 0.0 0.0 
0.0 0.0 0.0 
0.0 0.0 0.0 
0.0 0.0 0.0 
0.0 0.0 0.0 
0.0 0.0 0.0 
0.0 0.0 0.0 
0.0 0.0 0.0 
0.0 0.0 0.0 
0.0 0.0 0.0 
0.0 0.0 0.0 
0.0 0.0 0.0 
0.0 0.0 0.0 
0.0 0.0 0.0 
0.0 0.0 0.0 
0.0 0.0 0.0 
0.0 0.0 0.0 
0.0 0.0 0.0 
0.0 0.0 0.0 
0.0 0.0 0.0 
0.0 0.0 0.0 
0.0 0.0 0.0 
0.0 0.0 0.0 
0.0 0.0 0.0 
0.0 0.0 0.0 
0.0 0.0 0.0 
0.0 0.0 0.0 
0.0 0.0 0.0 
0.0 0.0 0.0 
0.0 0.0 0.0 
0.0 0.0 0.0 
0.0 0.0 0.0 
0.0 0.0 0.0 
0.0 0.0 0.0 
0.0 0.0 0.0 
0.0 0.0 0.0 
0.0 0.0 0.0 
0.0 0.0 0.0 
0.0 0.0 0.0 
0.0 0.0 0.0 
0.0 0.0 0.0 
0.0 0.0 0.0 
0.0 0.0 0.0 
0.0 0.0 0.0 
0.0 0.0 0.0 
0.0 0.0 0.0 
0.0 0.0 0.0 
0.0 0.0 0.0 
0.0 0.0 0.0 
0.0 0.0 0.0 
0.0 0.0 0.0 
0.0 0.0 0.0 
0.0 0.0 0.0 
0.0 0.0 0.0 
0.0 0.0 0.0 
0.0 0.0 0.0 
0.0 0.0 0.0 
0.0 0.0 0.0 
0.0 0.0 0.0 
0.0 0.0 0.0 
0.0 0.0 0.0 
0.0 0.0 0.0 
0.0 0.0 0.0 
0.0 0.0 0.0 
0.0 0.0 0.0 
0.0 0.0 0.0 
0.0 0.0 0.0 
0.0 0.0 0.0 
0.0 0.0 0.0 
0.0 0.0 0.0 
0.0 0.0 0.0 
0.0 0.0 0.0 
0.0 0.0 0.0 
0.0 0.0 0.0 
0.0 0.0 0.0 
0.0 0.0 0.0 
0.0 0.0 0.0 
0.0 0.0 0.0 
0.0 0.0 0.0 
0.0 0.0 0.0 
0.0 0.0 0.0 
0.0 0.0 0.0 
0.0 0.0 0.0 
0.0 0.0 0.0 
0.0 0.0 0.0 
0.0 0.0 0.0 
0.0 0.0 0.0 
0.0 0.0 0.0 
0.0 0.0 0.0 
0.0 0.0 0.0 
0.0 0.0 0.0 
0.0 0.0 0.0 
0.0 0.0 0.0 
0.0 0.0 0.0 
0.0 0.0 0.0 
0.0 0.0 0.0 
0.0 0.0 0.0 
0.0 0.0 0.0 
0.0 0.0 0.0 
0.0 0.0 0.0 
0.0 0.0 0.0 
0.0 0.0 0.0 
0.0 0.0 0.0 
0.0 0.0 0.0 
0.0 0.0 0.0 
0.0 0.0 0.0 
0.0 0.0 0.0 
0.0 0.0 0.0 
0.0 0.0 0.0 
0.0 0.0 0.0 
0.0 0.0 0.0 
0.0 0.0 0.0 
0.0 0.0 0.0 
0.0 0.0 0.0 
0.0 0.0 0.0 
0.0 0.0 0.0 
0.0 0.0 0.0 
0.0 0.0 0.0 
0.0 0.0 0.0 
0.0 0.0 0.0 
0.0 0.0 0.0 
0.0 0.0 0.0 
0.0 0.0 0.0 
0.0 0.0 0.0 
0.0 0.0 0.0 
0.0 0.0 0.0 
0.0 0.0 0.0 
0.0 0.0 0.0 
0.0 0.0 0.0 
0.0 0.0 0.0 
0.0 0.0 0.0 
0.0 0.0 0.0 
0.0 0.0 0.0 
0.0 0.0 0.0 
0.0 0.0 0.0 
0.0 0.0 0.0 
0.0 0.0 0.0 
0.0 0.0 0.0 
0.0 0.0 0.0 
0.0 0.0 0.0 
0.0 0.0 0.0 
0.0 0.0 0.0 
0.0 0.0 0.0 
0.0 0.0 0.0 
0.0 0.0 0.0 
0.0 0.0 0.0 
0.0 0.0 0.0 
0.0 0.0 0.0 
0.0 0.0 0.0 
0.0 0.0 0.0 
0.0 0.0 0.0 
0.0 0.0 0.0 
0.0 0.0 0.0 
0.0 0.0 0.0 
0.0 0.0 0.0 
0.0 0.0 0.0 
0.0 0.0 0.0 
0.0 0.0 0.0 
0.0 0.0 0.0 
0.0 0.0 0.0 
0.0 0.0 0.0 
0.0 0.0 0.0 
0.0 0.0 0.0 
0.0 0.0 0.0 
0.0 0.0 0.0 
0.0 0.0 0.0 
0.0 0.0 0.0 
0.0 0.0 0.0 
0.0 0.0 0.0 
0.0 0.0 0.0 
0.0 0.0 0.0 
0.0 0.0 0.0 
0.0 0.0 0.0 
0.0 0.0 0.0 
0.0 0.0 0.0 
0.0 0.0 0.0 
0.0 0.0 0.0 
0.0 0.0 0.0 
0.0 0.0 0.0 
0.0 0.0 0.0 
0.0 0.0 0.0 
0.0 0.0 0.0 
0.0 0.0 0.0 
0.0 0.0 0.0 
0.0 0.0 0.0 
0.0 0.0 0.0 
0.0 0.0 0.0 
0.0 0.0 0.0 
0.0 0.0 0.0 
0.0 0.0 0.0 
0.0 0.0 0.0 
0.0 0.0 0.0 
0.0 0.0 0.0 
0.0 0.0 0.0 
0.0 0.0 0.0 
0.0 0.0 0.0 
0.0 0.0 0.0 
0.0 0.0 0.0 
0.0 0.0 0.0 
0.0 0.0 0.0 
0.0 0.0 0.0 
0.0 0.0 0.0 
0.0 0.0 0.0 
0.0 0.0 0.0 
0.0 0.0 0.0 
0.0 0.0 0.0 
0.0 0.0 0.0 
0.0 0.0 0.0 
0.0 0.0 0.0 
0.0 0.0 0.0 
0.0 0.0 0.0 
0.0 0.0 0.0 
0.0 0.0 0.0 
0.0 0.0 0.0 
0.0 0.0 0.0 
0.0 0.0 0.0 
0.0 0.0 0.0 
0.0 0.0 0.0 
0.0 0.0 0.0 
0.0 0.0 0.0 
0.0 0.0 0.0 
0.0 0.0 0.0 
0.0 0.0 0.0 
0.0 0.0 0.0 
0.0 0.0 0.0 
0.0 0.0 0.0 
0.0 0.0 0.0 
0.0 0.0 0.0 
0.0 0.0 0.0 
0.0 0.0 0.0 
0.0 0.0 0.0 
0.0 0.0 0.0 
0.0 0.0 0.0 
0.0 0.0 0.0 
0.0 0.0 0.0 
0.0 0.0 0.0 
0.0 0.0 0.0 
0.0 0.0 0.0 
0.0 0.0 0.0 
0.0 0.0 0.0 
0.0 0.0 0.0 
0.0 0.0 0.0 
0.0 0.0 0.0 
0.0 0.0 0.0 
0.0 0.0 0.0 
0.0 0.0 0.0 
0.0 0.0 0.0 
0.0 0.0 0.0 
0.0 0.0 0.0 
0.0 0.0 0.0 
0.0 0.0 0.0 
0.0 0.0 0.0 
0.0 0.0 0.0 
0.0 0.0 0.0 
0.0 0.0 0.0 
0.0 0.0 0.0 
0.0 0.0 0.0 
0.0 0.0 0.0 
0.0 0.0 0.0 
0.0 0.0 0.0 
0.0 0.0 0.0 
0.0 0.0 0.0 
0.0 0.0 0.0 
0.0 0.0 0.0 
0.0 0.0 0.0 
0.0 0.0 0.0 
0.0 0.0 0.0 
0.0 0.0 0.0 
0.0 0.0 0.0 
0.0 0.0 0.0 
0.0 0.0 0.0 
0.0 0.0 0.0 
0.0 0.0 0.0 
0.0 0.0 0.0 
0.0 0.0 0.0 
0.0 0.0 0.0 
0.0 0.0 0.0 
0.0 0.0 0.0 
0.0 0.0 0.0 
0.0 0.0 0.0 
0.0 0.0 0.0 
0.0 0.0 0.0 
0.0 0.0 0.0 
0.0 0.0 0.0 
0.0 0.0 0.0 
0.0 0.0 0.0 
0.0 0.0 0.0 
0.0 0.0 0.0 
0.0 0.0 0.0 
0.0 0.0 0.0 
0.0 0.0 0.0 
0.0 0.0 0.0 
0.0 0.0 0.0 
0.0 0.0 0.0 
0.0 0.0 0.0 
0.0 0.0 0.0 
0.0 0.0 0.0 
0.0 0.0 0.0 
0.0 0.0 0.0 
0.0 0.0 0.0 
0.0 0.0 0.0 
0.0 0.0 0.0 
0.0 0.0 0.0 
0.0 0.0 0.0 
0.0 0.0 0.0 
0.0 0.0 0.0 
0.0 0.0 0.0 
0.0 0.0 0.0 
0.0 0.0 0.0 
0.0 0.0 0.0 
0.0 0.0 0.0 
0.0 0.0 0.0 
0.0 0.0 0.0 
0.0 0.0 0.0 
0.0 0.0 0.0 
0.0 0.0 0.0 
0.0 0.0 0.0 
0.0 0.0 0.0 
0.0 0.0 0.0 
0.0 0.0 0.0 
0.0 0.0 0.0 
0.0 0.0 0.0 
0.0 0.0 0.0 
0.0 0.0 0.0 
0.0 0.0 0.0 
0.0 0.0 0.0 
0.0 0.0 0.0 
0.0 0.0 0.0 
0.0 0.0 0.0 
0.0 0.0 0.0 
0.0 0.0 0.0 
0.0 0.0 0.0 
0.0 0.0 0.0 
0.0 0.0 0.0 
0.0 0.0 0.0 
0.0 0.0 0.0 
0.0 0.0 0.0 
0.0 0.0 0.0 
0.0 0.0 0.0 
0.0 0.0 0.0 
0.0 0.0 0.0 
0.0 0.0 0.0 
0.0 0.0 0.0 
0.0 0.0 0.0 
0.0 0.0 0.0 
0.0 0.0 0.0 
0.0 0.0 0.0 
0.0 0.0 0.0 
0.0 0.0 0.0 
0.0 0.0 0.0 
0.0 0.0 0.0 
0.0 0.0 0.0 
0.0 0.0 0.0 
0.0 0.0 0.0 
0.0 0.0 0.0 
0.0 0.0 0.0 
0.0 0.0 0.0 
0.0 0.0 0.0 
0.0 0.0 0.0 
0.0 0.0 0.0 
0.0 0.0 0.0 
0.0 0.0 0.0 
0.0 0.0 0.0 
0.0 0.0 0.0 
0.0 0.0 0.0 
0.0 0.0 0.0 
0.0 0.0 0.0 
0.0 0.0 0.0 
0.0 0.0 0.0 
0.0 0.0 0.0 
0.0 0.0 0.0 
0.0 0.0 0.0 
0.0 0.0 0.0 
0.0 0.0 0.0 
0.0 0.0 0.0 
0.0 0.0 0.0 
0.0 0.0 0.0 
0.0 0.0 0.0 
0.0 0.0 0.0 
0.0 0.0 0.0 

VECTORS node_materi_velocity float
0.0 -6.736117793430e-04 0.0 
0.0 9.909328036915e-03 0.0 
0.0 0.0 0.0 
0.0 0.0 0.0 
0.0 -6.722059304149e-04 0.0 
0.0 -6.674054558264e-04 0.0 
0.0 -6.578031182636e-04 0.0 
0.0 -6.422992273278e-04 0.0 
0.0 -6.191215574584e-04 0.0 
0.0 -5.887792393306e-04 0.0 
0.0 -5.515007855847e-04 0.0 
0.0 -5.075510436605e-04 0.0 
0.0 -4.579096367418e-04 0.0 
0.0 -4.036552747991e-04 0.0 
0.0 -3.462479832578e-04 0.0 
0.0 -2.877324746270e-04 0.0 
0.0 -2.298365418703e-04 0.0 
0.0 -1.737183605101e-04 0.0 
0.0 -1.221756942071e-04 0.0 
0.0 -7.713862469670e-05 0.0 
0.0 -4.039507674131e-05 0.0 
0.0 -1.439948735057e-05 0.0 
0.0 -1.377835588174e-06 0.0 
0.0 0.0 0.0 
0.0 0.0 0.0 
0.0 0.0 0.0 
0.0 0.0 0.0 
0.0 0.0 0.0 
0.0 0.0 0.0 
0.0 0.0 0.0 
0.0 0.0 0.0 
0.0 0.0 0.0 
0.0 0.0 0.0 
0.0 0.0 0.0 
0.0 0.0 0.0 
0.0 0.0 0.0 
0.0 0.0 0.0 
0.0 0.0 0.0 
0.0 0.0 0.0 
0.0 0.0 0.0 
0.0 0.0 0.0 
0.0 0.0 0.0 
0.0 0.0 0.0 
0.0 0.0 0.0 
0.0 0.0 0.0 
0.0 0.0 0.0 
0.0 0.0 0.0 
0.0 0.0 0.0 
0.0 0.0 0.0 
0.0 0.0 0.0 
0.0 0.0 0.0 
0.0 0.0 0.0 
0.0 0.0 0.0 
0.0 0.0 0.0 
0.0 0.0 0.0 
0.0 0.0 0.0 
0.0 0.0 0.0 
0.0 0.0 0.0 
0.0 0.0 0.0 
0.0 0.0 0.0 
0.0 0.0 0.0 
0.0 0.0 0.0 
0.0 0.0 0.0 
0.0 0.0 0.0 
0.0 0.0 0.0 
0.0 0.0 0.0 
0.0 0.0 0.0 
0.0 0.0 0.0 
0.0 0.0 0.0 
0.0 0.0 0.0 
0.0 0.0 0.0 
0.0 0.0 0.0 
0.0 8.895629165578e-03 0.0 
0.0 7.883206285054e-03 0.0 
0.0 6.873518001142e-03 0.0 
0.0 5.867532847889e-03 0.0 
0.0 4.867223493873e-03 0.0 
0.0 3.873791042701e-03 0.0 
0.0 2.888943629074e-03 0.0 
0.0 1.914220228389e-03 0.0 
0.0 9.512236128409e-04 0.0 
-1.522264619030e-03 2.044793383345e-03 0.0 
1.769545122186e-03 9.545829091700e-03 0.0 
-1.334601759378e-03 2.814558003727e-03 0.0 
-1.206643284954e-03 3.944343574222e-03 0.0 
-8.764519277426e-04 5.796117844396e-03 0.0 
-1.582152281304e-04 9.167942111707e-03 0.0 
9.422827259601e-04 1.078877305026e-02 0.0 
1.559537150663e-03 1.127503897754e-02 0.0 
1.849492524158e-03 1.123899349892e-02 0.0 
1.941411350093e-03 1.087386785332e-02 0.0 
1.900757749531e-03 1.028628735855e-02 0.0 
0.0 1.601111677820e-02 0.0 
0.0 1.497884971987e-02 0.0 
0.0 1.396466189213e-02 0.0 
0.0 1.295117748350e-02 0.0 
0.0 1.193760815071e-02 0.0 
0.0 1.092351299889e-02 0.0 
9.981783122541e-05 9.910121803147e-03 0.0 
2.002410358473e-04 9.912434784508e-03 0.0 
3.014345699003e-04 9.915929560570e-03 0.0 
4.038262362215e-04 9.920415765735e-03 0.0 
5.079105412926e-04 9.924759499252e-03 0.0 
6.136682711939e-04 9.928101465795e-03 0.0 
7.223417679157e-04 9.929862567086e-03 0.0 
8.340333023738e-04 9.927260600760e-03 0.0 
9.497281948323e-04 9.919417580450e-03 0.0 
1.070201026235e-03 9.903191698286e-03 0.0 
1.195794757668e-03 9.874770152210e-03 0.0 
1.327737829082e-03 9.830100002437e-03 0.0 
1.466646213613e-03 9.764768158285e-03 0.0 
1.613392639643e-03 9.672124921467e-03 0.0 
-1.407918373146e-03 1.582588010226e-03 0.0 
-1.252571094503e-03 1.160171646012e-03 0.0 
-1.085036973802e-03 7.987257348453e-04 0.0 
-9.157505804922e-04 4.961633614870e-04 0.0 
-7.621505308880e-04 2.459128492085e-04 0.0 
-6.234900022681e-04 4.176844755958e-05 0.0 
-5.000788451556e-04 -1.232169061833e-04 0.0 
-3.928606889589e-04 -2.559840499458e-04 0.0 
-3.011407802157e-04 -3.611247636797e-04 0.0 
-2.245366422908e-04 -4.431212900292e-04 0.0 
-1.621323837394e-04 -5.076776365911e-04 0.0 
-1.117940802773e-04 -5.555590844640e-04 0.0 
-7.386360840769e-05 -5.922538666733e-04 0.0 
-4.465596676018e-05 -6.194994329787e-04 0.0 
-2.413287355851e-05 -6.397441573957e-04 0.0 
-1.090558622629e-05 -6.536786751728e-04 0.0 
-3.518539972432e-06 -6.631282330470e-04 0.0 
-2.927093802453e-07 -6.695010750566e-04 0.0 
5.552909455451e-07 -6.725717896047e-04 0.0 
1.484930252286e-04 1.600740322341e-02 0.0 
2.309342377905e-04 1.599580316737e-02 0.0 
3.237668569076e-04 1.599317367365e-02 0.0 
4.227949674507e-04 1.599494509371e-02 0.0 
5.217123063955e-04 1.599727266638e-02 0.0 
6.168323174689e-04 1.599816611203e-02 0.0 
7.058013445871e-04 1.599592614895e-02 0.0 
7.868104779049e-04 1.598872793044e-02 0.0 
8.581318462611e-04 1.597439791924e-02 0.0 
9.179295628748e-04 1.595025732335e-02 0.0 
9.641714371431e-04 1.591301751897e-02 0.0 
9.946074066565e-04 1.585865295471e-02 0.0 
1.006745717013e-03 1.578233913204e-02 0.0 
9.976215352560e-04 1.567797490003e-02 0.0 
9.642282637741e-04 1.553809482801e-02 0.0 
9.032175065861e-04 1.535292915819e-02 0.0 
8.123815337663e-04 1.511146509674e-02 0.0 
6.882685727093e-04 1.479760962346e-02 0.0 
5.315406956266e-04 1.439486664669e-02 0.0 
3.398421088071e-04 1.387152540188e-02 0.0 
1.270761867394e-04 1.319937939130e-02 0.0 
-9.204993300104e-05 1.231403246138e-02 0.0 
-3.398695251351e-04 1.115001962102e-02 0.0 
8.979829485827e-04 1.183331120647e-02 0.0 
9.160055387131e-04 1.260300061021e-02 0.0 
9.481406714070e-04 1.318901096821e-02 0.0 
9.892118210667e-04 1.364235503789e-02 0.0 
1.027888081225e-03 1.399173748363e-02 0.0 
1.057589850820e-03 1.426143326939e-02 0.0 
1.074957452039e-03 1.446788464338e-02 0.0 
1.078469867661e-03 1.462447005608e-02 0.0 
1.067932164285e-03 1.474158263940e-02 0.0 
1.043832100624e-03 1.482767147303e-02 0.0 
1.007098529388e-03 1.488942403697e-02 0.0 
9.588740215511e-04 1.493219122842e-02 0.0 
9.003915118719e-04 1.496030091893e-02 0.0 
8.328896826227e-04 1.497732405061e-02 0.0 
7.575926639214e-04 1.498619374675e-02 0.0 
6.757156938477e-04 1.498934218339e-02 0.0 
5.885051669532e-04 1.498884030956e-02 0.0 
4.972963270971e-04 1.498658672557e-02 0.0 
4.035383295952e-04 1.498449961295e-02 0.0 
3.085182365610e-04 1.498450940171e-02 0.0 
2.117174758014e-04 1.498688354857e-02 0.0 
1.074425283734e-04 1.498386926316e-02 0.0 
1.035287949421e-04 1.396685993042e-02 0.0 
2.072714144452e-04 1.397139410978e-02 0.0 
3.077158844644e-04 1.397236858544e-02 0.0 
4.058033814510e-04 1.397422315367e-02 0.0 
5.019369834600e-04 1.397747928527e-02 0.0 
5.957958039420e-04 1.398085514337e-02 0.0 
6.867199333454e-04 1.398258969356e-02 0.0 
7.739469033347e-04 1.398070008957e-02 0.0 
8.567175094815e-04 1.397289657024e-02 0.0 
9.343255590466e-04 1.395644885654e-02 0.0 
1.006158534205e-03 1.392803989692e-02 0.0 
1.071737636123e-03 1.388360790719e-02 0.0 
1.130801939276e-03 1.381814639873e-02 0.0 
1.183418285807e-03 1.372534997149e-02 0.0 
1.230244702974e-03 1.359731977962e-02 0.0 
1.272587197994e-03 1.342401326564e-02 0.0 
1.313084078399e-03 1.319300780542e-02 0.0 
1.355442684122e-03 1.288759922530e-02 0.0 
1.406438341672e-03 1.248876825555e-02 0.0 
1.467224479783e-03 1.196690552031e-02 0.0 
1.729012746631e-03 1.169058533529e-02 0.0 
1.627095959498e-03 1.203610902285e-02 0.0 
1.532066992813e-03 1.230041212486e-02 0.0 
1.444643755748e-03 1.250151374638e-02 0.0 
1.361203656718e-03 1.265163052246e-02 0.0 
1.279657585595e-03 1.276215152010e-02 0.0 
1.198229573190e-03 1.284146352063e-02 0.0 
1.115908754733e-03 1.289672341126e-02 0.0 
1.032030744764e-03 1.293345719200e-02 0.0 
9.462493132898e-04 1.295614473606e-02 0.0 
8.584383728412e-04 1.296843788565e-02 0.0 
7.686670917335e-04 1.297334639920e-02 0.0 
6.771415759890e-04 1.297334423818e-02 0.0 
5.840866385007e-04 1.297045652684e-02 0.0 
4.897177529002e-04 1.296634971085e-02 0.0 
3.940802416518e-04 1.296228996310e-02 0.0 
2.969447979111e-04 1.295891372981e-02 0.0 
1.981535108454e-04 1.295590398845e-02 0.0 
9.902335672892e-05 1.295271639184e-02 0.0 
1.010621156446e-04 1.193868240550e-02 0.0 
2.024800044125e-04 1.194167516255e-02 0.0 
3.036561826981e-04 1.194548039185e-02 0.0 
4.043187543132e-04 1.194990560448e-02 0.0 
5.046102522555e-04 1.195469682655e-02 0.0 
6.048043906881e-04 1.195912052797e-02 0.0 
7.050057810098e-04 1.196195342765e-02 0.0 
8.054521574160e-04 1.196134538860e-02 0.0 
9.062708458862e-04 1.195515606245e-02 0.0 
1.007666558869e-03 1.194054127446e-02 0.0 
1.110089568100e-03 1.191397793531e-02 0.0 
1.214176260807e-03 1.187127532718e-02 0.0 
1.320805004918e-03 1.180722202229e-02 0.0 
1.431174308847e-03 1.171549857543e-02 0.0 
1.546517616011e-03 1.158742929132e-02 0.0 
1.669048825583e-03 1.141405703895e-02 0.0 
1.798290995540e-03 1.118210305566e-02 0.0 
1.751524531216e-03 1.048333916299e-02 0.0 
1.613741260661e-03 1.062967814823e-02 0.0 
1.481240059119e-03 1.073755903333e-02 0.0 
1.355933129145e-03 1.081587645830e-02 0.0 
1.236363587307e-03 1.087054707998e-02 0.0 
1.121574255062e-03 1.090694395820e-02 0.0 
1.010629813953e-03 1.092941471524e-02 0.0 
9.027460791111e-04 1.094149421633e-02 0.0 
7.974040785840e-04 1.094646053077e-02 0.0 
6.942730483852e-04 1.094676792129e-02 0.0 
5.927163486917e-04 1.094385035373e-02 0.0 
4.924784209647e-04 1.093970076438e-02 0.0 
3.930969757759e-04 1.093497542531e-02 0.0 
2.942328355790e-04 1.093048213829e-02 0.0 
1.958190955235e-04 1.092686764114e-02 0.0 
9.786068903087e-05 1.092446554930e-02 0.0 
-1.405847187944e-03 2.398670073170e-03 0.0 
-1.274616609985e-03 3.319863468806e-03 0.0 
-1.098325414090e-03 4.736923810639e-03 0.0 
-6.130983275181e-04 7.505905536781e-03 0.0 
5.085898863102e-04 1.017793472818e-02 0.0 
1.318097003360e-03 1.111056104369e-02 0.0 
1.740150464380e-03 1.130480083897e-02 0.0 
1.917494278076e-03 1.108849706558e-02 0.0 
1.936341469433e-03 1.060190066907e-02 0.0 
1.845043401493e-03 9.931252873990e-03 0.0 
-8.545069999580e-04 3.304545743062e-03 0.0 
4.080229489729e-04 1.275841231095e-04 0.0 
-1.782432879995e-04 -4.289628372138e-04 0.0 
-6.255215430276e-04 3.237342073452e-04 0.0 
2.477391279376e-04 4.814781306021e-05 0.0 
6.243498444469e-04 7.252742796995e-03 0.0 
7.354542500003e-05 -3.736794503874e-04 0.0 
5.383431423928e-04 2.412433164334e-04 0.0 
1.916883236115e-03 1.016804243391e-02 0.0 
5.922588681178e-04 3.838646189117e-04 0.0 
2.173871089529e-03 1.015510231202e-02 0.0 
1.327147133752e-04 1.716763037797e-05 0.0 
-2.500851550944e-05 -6.177215753872e-04 0.0 
5.672141060629e-04 5.544857641842e-04 0.0 
1.935130607987e-03 9.000412562611e-03 0.0 
4.649563821444e-05 -5.695273902545e-04 0.0 
7.838808999873e-05 -2.117487118948e-04 0.0 
5.043014000774e-04 6.835939226992e-04 0.0 
3.394902531322e-04 7.414414755061e-04 0.0 
9.398239033570e-05 8.089101326376e-04 0.0 
1.753787132360e-04 8.679539221942e-04 0.0 
2.365506746702e-04 7.592994244980e-04 0.0 
1.569949350112e-03 8.817226102424e-03 0.0 
1.019105529718e-03 8.990354169697e-03 0.0 
6.665140509911e-04 8.984467110986e-03 0.0 
6.335939837907e-05 5.351212575303e-03 0.0 
7.919012841122e-05 6.492834716661e-06 0.0 
-1.016397713032e-03 1.336427673431e-03 0.0 
6.193434618046e-06 -6.604915882677e-04 0.0 
5.494293095800e-05 -5.971705576862e-05 0.0 
3.426426708645e-04 9.042863382006e-03 0.0 
2.274125477704e-05 -6.512069279328e-04 0.0 
4.721079689513e-04 8.163898096486e-04 0.0 
5.322093435833e-04 2.851895383600e-04 0.0 
5.854945155713e-04 4.643028431017e-04 0.0 
5.080831380833e-04 1.919043422799e-04 0.0 
3.237246640012e-04 8.381249906899e-05 0.0 
-4.022779177085e-04 -8.537946516137e-05 0.0 
1.280303227148e-03 8.992356605990e-03 0.0 
2.188833847234e-04 3.372325186818e-05 0.0 
4.787531116888e-05 3.422221626063e-03 0.0 
-8.319193218646e-05 -5.495429079643e-04 0.0 
6.347701821522e-05 -4.830220066301e-04 0.0 
4.733684456591e-05 6.579309090026e-04 0.0 
1.484058477039e-03 9.215137961815e-03 0.0 
-3.749028007773e-04 4.773073824326e-03 0.0 
2.127689355844e-03 1.036321252376e-02 0.0 
2.097414487686e-03 9.671969429495e-03 0.0 
-1.112455288954e-03 2.368526845303e-03 0.0 
7.734547007079e-05 7.257315329432e-03 0.0 
3.554627234838e-05 2.145482733635e-06 0.0 
5.084571321847e-06 -6.709747158160e-04 0.0 
2.613064022509e-05 1.502109161499e-03 0.0 
1.856597693361e-03 8.585142749638e-03 0.0 
1.991852821044e-03 8.055663982480e-03 0.0 
1.831489193607e-03 7.739980254894e-03 0.0 
1.987582091946e-03 7.129576216083e-03 0.0 
1.829387641741e-03 6.718276950771e-03 0.0 
1.943983542836e-03 6.184180231796e-03 0.0 
2.121814891624e-03 6.556384089011e-03 0.0 
2.046345280957e-03 5.639290802364e-03 0.0 
2.239746684545e-03 5.980478296487e-03 0.0 
1.758831909881e-03 5.767547497283e-03 0.0 
2.128397468259e-03 5.089039038216e-03 0.0 
2.335503190514e-03 5.397105980607e-03 0.0 
2.185753529086e-03 4.540521689833e-03 0.0 
2.402843077982e-03 4.813608095029e-03 0.0 
2.530338213304e-03 5.654642631264e-03 0.0 
2.605584912416e-03 5.035123059974e-03 0.0 
2.708096819932e-03 5.850877599505e-03 0.0 
2.788170115121e-03 5.190079342161e-03 0.0 
2.644902990742e-03 4.428994902407e-03 0.0 
2.828240084965e-03 4.548177904047e-03 0.0 
2.945454904580e-03 5.271276146322e-03 0.0 
2.981423485098e-03 4.592334046088e-03 0.0 
3.070790767907e-03 5.268825980551e-03 0.0 
3.097588901678e-03 4.552845160559e-03 0.0 
3.157653745166e-03 5.173782129959e-03 0.0 
3.170242399695e-03 4.428293594814e-03 0.0 
3.076920018573e-03 3.885925935763e-03 0.0 
3.134789371800e-03 3.746590762915e-03 0.0 
3.191122598169e-03 4.218938404570e-03 0.0 
3.139155054751e-03 3.533893641445e-03 0.0 
3.152986713388e-03 3.930390520635e-03 0.0 
3.085574969617e-03 3.256866967848e-03 0.0 
3.048760395719e-03 2.930371066566e-03 0.0 
2.985406305224e-03 2.675251920155e-03 0.0 
2.972590254614e-03 2.929984246914e-03 0.0 
2.868636738973e-03 2.384329820209e-03 0.0 
2.803326797236e-03 2.572443784394e-03 0.0 
2.703669891161e-03 2.072941373956e-03 0.0 
2.586020225729e-03 2.203089841151e-03 0.0 
2.497682769966e-03 1.754064314463e-03 0.0 
2.587945623364e-03 1.653727118093e-03 0.0 
2.395574968024e-03 1.379060889164e-03 0.0 
2.261425940821e-03 1.442055333416e-03 0.0 
2.178456057649e-03 1.112516592953e-03 0.0 
2.280780158299e-03 1.069567766724e-03 0.0 
2.082268958442e-03 8.420112514949e-04 0.0 
2.154880263091e-03 8.160966441393e-04 0.0 
1.974592276831e-03 6.217847636075e-04 0.0 
1.873296811010e-03 6.288527814784e-04 0.0 
1.784524716475e-03 4.391268606504e-04 0.0 
1.857568339379e-03 4.447464966450e-04 0.0 
1.684592553215e-03 2.877076749700e-04 0.0 
1.589327161630e-03 2.698634102593e-04 0.0 
1.508310083250e-03 1.429890179874e-04 0.0 
1.577261730683e-03 1.697802036625e-04 0.0 
1.417029440664e-03 4.481137457939e-05 0.0 
1.332538097205e-03 1.138903804621e-05 0.0 
1.257325299714e-03 -6.859248687166e-05 0.0 
1.319685489889e-03 -2.801548423781e-05 0.0 
1.173561564713e-03 -1.271152591197e-04 0.0 
1.100418321539e-03 -1.706141534066e-04 0.0 
1.030673114645e-03 -2.156218237977e-04 0.0 
1.084270209159e-03 -1.670943071140e-04 0.0 
9.533087888614e-04 -2.452210691544e-04 0.0 
9.897464095531e-04 -1.926987035007e-04 0.0 
8.904218590752e-04 -2.953566181814e-04 0.0 
8.255594406134e-04 -3.150811903310e-04 0.0 
7.565142795777e-04 -3.654548195229e-04 0.0 
7.031582366554e-04 -3.767389873853e-04 0.0 
2.927229202301e-03 2.406290809156e-03 0.0 
6.329598914687e-04 -4.251084056560e-04 0.0 
6.698967718680e-04 -4.091821631130e-04 0.0 
5.883306920086e-04 -4.302999962107e-04 0.0 
6.420744660890e-04 -3.789169771116e-04 0.0 
5.192463550484e-04 -4.760006142161e-04 0.0 
4.820868018675e-04 -4.763607482590e-04 0.0 
4.164684232749e-04 -5.187483179457e-04 0.0 
2.649187195572e-03 2.743496972278e-03 0.0 
2.644579113708e-03 3.845769736395e-03 0.0 
3.854734350255e-04 -5.155302270170e-04 0.0 
3.254035832942e-04 -5.541089529645e-04 0.0 
3.413827280112e-04 -5.534809486934e-04 0.0 
2.587618845595e-04 -5.847164631123e-04 0.0 
1.656992700956e-03 6.289981297569e-03 0.0 
1.567655289120e-03 5.325296415929e-03 0.0 
1.482322330125e-03 5.835744007612e-03 0.0 
1.373424471293e-03 4.866185229058e-03 0.0 
1.304319236403e-03 5.357090518415e-03 0.0 
2.462833275344e-04 -5.830398944409e-04 0.0 
1.957708613718e-03 4.196375891372e-03 0.0 
1.428159493320e-03 4.366717294808e-03 0.0 
2.995258543994e-03 6.020841182466e-03 0.0 
3.178695100283e-03 4.698514993010e-03 0.0 
2.316466862631e-03 1.016396128512e-03 0.0 
4.363972945459e-04 -4.699813899705e-04 0.0 
3.455645339712e-04 -5.066767329061e-04 0.0 
3.833424729917e-04 -4.584282449581e-04 0.0 
1.108106658553e-03 -1.172132648824e-04 0.0 
9.977943043648e-04 -1.400952749773e-04 0.0 
1.099536116977e-03 -6.884186843515e-05 0.0 
9.761511771819e-04 -8.972536967527e-05 0.0 
1.057408237574e-03 -2.449286469648e-05 0.0 
9.242217878090e-04 -4.395889144810e-05 0.0 
8.547270149709e-04 -1.010406928883e-04 0.0 
7.957702624088e-04 -5.473657425789e-05 0.0 
7.366556173908e-04 -1.049202874146e-04 0.0 
9.814855826321e-04 1.334133790461e-05 0.0 
1.126901349022e-03 4.174855654965e-05 0.0 
6.733227021332e-04 -5.893821450331e-05 0.0 
6.231935014960e-04 -1.032368225948e-04 0.0 
5.580384669008e-04 -5.840717470339e-05 0.0 
5.155633589094e-04 -9.749959186738e-05 0.0 
5.627997834439e-04 -1.476279299500e-04 0.0 
4.622017715807e-04 -1.372765897109e-04 0.0 
4.947803686663e-04 -1.912359174178e-04 0.0 
2.165019515504e-03 7.807689332027e-04 0.0 
2.286776077400e-03 9.513888200411e-04 0.0 
2.113259643913e-03 7.347089316509e-04 0.0 
2.192037315207e-03 8.731340035613e-04 0.0 
2.000072251773e-03 6.767017004209e-04 0.0 
2.033336982725e-03 7.813540926015e-04 0.0 
1.825849329483e-03 6.060331773486e-04 0.0 
1.804912991632e-03 5.191995962981e-04 0.0 
2.215719685787e-03 3.991528302517e-03 0.0 
2.008150484622e-03 1.146924739896e-03 0.0 
2.052643008202e-03 1.493713231022e-03 0.0 
1.769631505319e-03 1.176149800442e-03 0.0 
1.767985726072e-03 1.536024200334e-03 0.0 
1.465314864260e-03 1.203602467642e-03 0.0 
1.409094817865e-03 1.575640624584e-03 0.0 
1.100333263513e-03 1.236654841290e-03 0.0 
1.183398250924e-03 9.115343763378e-04 0.0 
8.251882146362e-04 9.427485210911e-04 0.0 
9.271166869246e-04 6.565019077540e-04 0.0 
5.854101492975e-04 6.866319845108e-04 0.0 
6.977728879491e-04 4.348178627785e-04 0.0 
3.012493385030e-03 3.278247421576e-03 0.0 
2.236441092144e-03 9.987408737264e-04 0.0 
2.029135147942e-03 8.681327727112e-04 0.0 
2.240624536363e-03 1.103246508393e-03 0.0 
2.599173073275e-04 -5.796675983974e-04 0.0 
4.147145012572e-04 -8.883424447131e-05 0.0 
1.022760867557e-03 6.899351320112e-05 0.0 
1.181045288166e-03 1.066080289554e-04 0.0 
1.617563968735e-03 4.656115129621e-04 0.0 
1.892831039078e-04 -6.093731576035e-04 0.0 
9.843328853257e-04 1.622365296458e-03 0.0 
1.319565213696e-03 2.017406978685e-03 0.0 
1.181024261913e-03 4.383494599790e-03 0.0 
1.128141547487e-03 4.861356180519e-03 0.0 
1.043981846248e-03 1.206464311137e-04 0.0 
1.790493902113e-04 -6.065418842807e-04 0.0 
7.101165315993e-04 -1.602320801874e-05 0.0 
4.356873835412e-04 9.910198411224e-04 0.0 
3.669821693908e-04 -1.245058563771e-04 0.0 
3.215025806886e-04 -7.812978738725e-05 0.0 
7.764484449923e-04 -1.564145014113e-04 0.0 
1.982817570730e-03 9.303540729700e-04 0.0 
2.205019356206e-03 1.182023904934e-03 0.0 
9.987091467972e-04 4.202277655678e-04 0.0 
7.798121321030e-04 2.284608915787e-04 0.0 
4.958466511825e-04 2.425222316926e-04 0.0 
5.933425268015e-04 5.743484964006e-05 0.0 
8.367252266146e-04 6.076719621270e-05 0.0 
6.525644638447e-04 -8.141406146568e-05 0.0 
4.245671406863e-04 -8.357574385185e-05 0.0 
4.904967053333e-04 -2.025169337790e-04 0.0 
6.924923197804e-04 -1.917097664414e-04 0.0 
5.379865639644e-04 -2.945901684429e-04 0.0 
3.500595803153e-04 -3.028043037698e-04 0.0 
4.036699276138e-04 -3.798531386899e-04 0.0 
3.529990027281e-04 -4.804110505822e-05 0.0 
2.240452875473e-04 7.334564481829e-04 0.0 
2.592470316676e-03 6.516454279848e-03 0.0 
8.821229378358e-04 8.558918972175e-05 0.0 
1.595177894826e-03 5.240605692419e-04 0.0 
9.935052978389e-04 3.886063478276e-03 0.0 
9.562453594873e-04 4.352811042629e-03 0.0 
1.063594298920e-03 5.341347214542e-03 0.0 
9.062651503035e-04 4.820103810009e-03 0.0 
7.913599135608e-04 3.834678817468e-03 0.0 
7.555763523910e-04 4.293594482691e-03 0.0 
8.466210335341e-04 5.287301926605e-03 0.0 
7.087170351300e-04 4.752381170987e-03 0.0 
7.795259264903e-04 5.752300913153e-03 0.0 
6.530411552981e-04 5.209894205626e-03 0.0 
5.785408072841e-04 4.214220891338e-03 0.0 
5.335271718593e-04 4.666774000266e-03 0.0 
5.905314292394e-04 5.666602510673e-03 0.0 
4.803498038880e-04 5.119027048446e-03 0.0 
5.226878286259e-04 6.121668386060e-03 0.0 
4.204148058289e-04 5.570669070450e-03 0.0 
3.779211605796e-04 4.572331921429e-03 0.0 
1.348442354876e-04 -6.279855647995e-04 0.0 
1.609738675226e-03 3.946152260754e-04 0.0 
1.411412532269e-03 3.548903316917e-04 0.0 
3.002040322496e-04 -4.931810751892e-04 0.0 
3.266521249604e-04 -4.423737560487e-04 0.0 
4.113273905437e-04 -4.049051928926e-04 0.0 
3.417745400558e-04 -3.879622206280e-04 0.0 
3.238556005033e-04 5.025496748355e-03 0.0 
2.848400295757e-04 4.028364276763e-03 0.0 
8.320104150815e-04 2.077083324828e-03 0.0 
1.194081088054e-03 2.542249692744e-03 0.0 
1.014659685841e-03 3.420839434666e-03 0.0 
2.779858613721e-04 -1.102816971311e-04 0.0 
3.102524102723e-04 -1.608005488653e-04 0.0 
3.094432413071e-03 4.322630222577e-03 0.0 
3.091500233246e-03 5.177792488381e-03 0.0 
2.956439787873e-03 4.707223447237e-03 0.0 
2.915380453491e-03 5.664048090291e-03 0.0 
3.028975450958e-03 6.137265566623e-03 0.0 
2.717339623175e-03 5.077130801798e-03 0.0 
1.277468211670e-03 8.206181125006e-05 0.0 
4.580542025498e-04 3.675780786140e-03 0.0 
3.458296323916e-04 -5.448953206914e-04 0.0 
2.482377958993e-04 -5.663565329442e-04 0.0 
2.367334967784e-04 -6.660674314157e-05 0.0 
1.753047559128e-03 4.214382781129e-04 0.0 
2.917982705376e-03 3.353992660435e-03 0.0 
2.824156231835e-03 2.811862373872e-03 0.0 
2.692181990495e-03 2.829170053079e-03 0.0 
2.568420088104e-03 2.348445243542e-03 0.0 
2.397693685171e-03 2.310927403205e-03 0.0 
2.242344244074e-03 1.889534696684e-03 0.0 
2.411103013266e-03 1.922019443478e-03 0.0 
1.889519913396e-03 9.598412136245e-04 0.0 
2.055422230835e-03 1.516987742707e-03 0.0 
3.605954628155e-04 6.031074739408e-03 0.0 
2.432384143242e-03 1.263975636966e-03 0.0 
7.128449584265e-04 -2.753447024679e-04 0.0 
1.341745909032e-04 -6.261038325428e-04 0.0 
2.277505402772e-04 -3.848769964443e-04 0.0 
1.239124857750e-04 -6.246489392154e-04 0.0 
1.589676544795e-04 -5.987886982342e-04 0.0 
8.678702275879e-04 1.221725953597e-04 0.0 
2.030869476477e-03 1.799046701962e-03 0.0 
2.187089161608e-03 2.212036911574e-03 0.0 
2.807423955413e-03 6.757134208510e-03 0.0 
2.896022154506e-03 7.177327905388e-03 0.0 
1.655883866832e-03 7.437447737246e-04 0.0 
1.385772468435e-03 6.350098125780e-03 0.0 
9.109542457841e-04 6.292085601070e-03 0.0 
8.272469670469e-04 6.760750460460e-03 0.0 
8.834591148578e-05 -6.435293547885e-04 0.0 
1.599424627334e-04 -2.984984319232e-04 0.0 
6.365815726608e-04 3.311685417752e-03 0.0 
1.682066940950e-03 2.479176350727e-03 0.0 
1.596886847263e-03 3.092756254134e-03 0.0 
3.257281874645e-05 1.057152536221e-03 0.0 
-1.444391022819e-04 7.961078266156e-04 0.0 
2.400663912208e-04 4.467676163147e-03 0.0 
2.042090612595e-04 3.485294432981e-03 0.0 
4.272978027361e-04 -3.481726862574e-04 0.0 
3.490698345899e-04 -3.303262046537e-04 0.0 
1.040813539375e-03 1.656781840845e-04 0.0 
2.898079012504e-04 -4.497476848204e-04 0.0 
2.338045344626e-04 3.042586609241e-03 0.0 
1.571665119514e-03 3.126224839612e-04 0.0 
1.675257367180e-03 3.173268334904e-04 0.0 
2.590845682319e-04 -4.249466544339e-04 0.0 
6.310781333121e-04 2.609278742900e-03 0.0 
3.056664698710e-04 2.154730680814e-03 0.0 
8.768721183466e-04 -1.708490437441e-04 0.0 
4.379893471171e-04 -4.361743020121e-04 0.0 
1.051657282780e-04 -6.174344095547e-04 0.0 
8.246109046843e-04 1.484849151992e-04 0.0 
6.447420417614e-04 2.862346422268e-03 0.0 
2.225521193111e-03 1.554197790965e-03 0.0 
2.534707059773e-03 1.905059018254e-03 0.0 
1.843009434230e-03 1.196325129774e-03 0.0 
1.390563493434e-04 -4.521073193193e-04 0.0 
7.059496006298e-04 8.919386273321e-05 0.0 
1.961317578850e-04 -9.514703679448e-05 0.0 
1.799229191347e-03 1.680677297772e-03 0.0 
1.940844579912e-03 2.056875927980e-03 0.0 
2.051631463238e-03 3.003252740968e-03 0.0 
2.019046954301e-03 3.731449351306e-03 0.0 
1.485926142167e-03 3.843989940068e-03 0.0 
1.949942701140e-03 4.617508917733e-03 0.0 
2.290147350027e-03 6.893399123594e-03 0.0 
2.406309663555e-03 3.575594547303e-03 0.0 
2.743904830050e-03 6.690222459311e-03 0.0 
2.591276145781e-03 7.396987024904e-03 0.0 
2.711955688809e-03 7.552723347465e-03 0.0 
3.064784598095e-03 6.478901686193e-03 0.0 
2.912883940975e-03 7.453395678917e-03 0.0 
2.076933751779e-03 1.910889607126e-03 0.0 
2.452561371533e-03 1.217753080304e-03 0.0 
5.029742230663e-04 -3.629338237288e-04 0.0 
5.923999974190e-04 -2.023464714683e-04 0.0 
1.223360135309e-03 -3.566442123891e-05 0.0 
4.823614387821e-04 3.228892371774e-03 0.0 
3.638075645033e-04 2.695612555843e-03 0.0 
6.302738244790e-04 6.673355885054e-03 0.0 
5.508025156722e-04 7.130124177733e-03 0.0 
1.759917731313e-04 -5.968148782538e-04 0.0 
1.499235701225e-04 -5.777187828776e-04 0.0 
8.919075194094e-04 -2.067228868940e-04 0.0 
7.302094111093e-04 6.063020798414e-05 0.0 
8.190648731021e-04 2.923828652934e-03 0.0 
8.038176665907e-04 2.473060820319e-03 0.0 
1.015871938011e-03 2.957548195152e-03 0.0 
1.008199141592e-03 2.009350892968e-04 0.0 
1.751437799681e-03 8.778232649188e-04 0.0 
2.006396739010e-03 5.903450135516e-04 0.0 
4.482545149878e-05 5.124101829454e-04 0.0 
2.944191916235e-03 2.596313544451e-03 0.0 
9.385328796975e-05 -6.043926034421e-04 0.0 
2.436892988229e-03 3.692211638473e-03 0.0 
1.615452236251e-04 -5.444304174642e-05 0.0 
1.873186970788e-04 -3.182250555510e-05 0.0 
1.509324310363e-03 7.307559649245e-04 0.0 
2.112279408387e-03 8.419954458353e-03 0.0 
2.801329078527e-03 2.127241174146e-03 0.0 
2.781546481569e-03 1.958756930234e-03 0.0 
2.525787138057e-03 8.290683936961e-03 0.0 
2.611283395406e-03 8.432747454409e-03 0.0 
2.808310045082e-03 7.628494577476e-03 0.0 
2.668947891260e-03 8.497178757500e-03 0.0 
8.685506534480e-04 -2.464383930477e-04 0.0 
7.147995941330e-04 -3.363893049085e-04 0.0 
1.572063253745e-03 1.281769745682e-03 0.0 
1.638560760862e-03 1.122659844371e-03 0.0 
1.529726641830e-03 1.495296130974e-03 0.0 
1.664291645928e-03 1.840348241337e-03 0.0 
1.260409967910e-03 5.446583511291e-04 0.0 
1.416420336816e-03 5.655848823146e-04 0.0 
1.297492494962e-04 -5.878461199613e-04 0.0 
2.693790129818e-03 8.237243374211e-03 0.0 
4.890436825288e-04 2.342463465693e-03 0.0 
2.418586159021e-03 8.084735602087e-03 0.0 
5.609842333998e-04 6.524764581632e-05 0.0 
5.902305841344e-04 4.195419645735e-05 0.0 
-2.937661026467e-04 5.720264597138e-04 0.0 
-9.968843024142e-05 2.916340881556e-04 0.0 
1.593890414026e-04 2.526316539130e-03 0.0 
1.341964926460e-03 4.765832735574e-03 0.0 
1.827267704465e-03 5.698173093656e-03 0.0 
8.338695277064e-04 3.921566925106e-03 0.0 
2.453517152806e-05 -4.786517260148e-06 0.0 
1.481749020199e-04 9.050491858316e-03 0.0 
1.211500344070e-04 -2.335745135765e-05 0.0 
3.040973346661e-03 6.702022163106e-03 0.0 
1.715538717195e-04 2.050830942233e-03 0.0 
2.637501721614e-03 1.731924928465e-03 0.0 
2.934931458025e-03 3.879673153027e-03 0.0 
1.223595713310e-03 2.242427052138e-04 0.0 
1.302619796218e-04 3.045994391830e-03 0.0 
9.572210121922e-05 1.972067179558e-03 0.0 
9.478037615101e-04 7.287571709600e-03 0.0 
8.542386871023e-04 7.774814730438e-03 0.0 
1.045332482150e-03 6.826208655622e-03 0.0 
2.532886950321e-04 1.353600067534e-03 0.0 
-2.449374558731e-04 1.492521106881e-03 0.0 
3.490878057379e-04 3.138060438920e-03 0.0 
2.640338788624e-04 -5.382821874785e-04 0.0 
2.199447762585e-04 -5.200211398673e-04 0.0 
3.229051178887e-04 -4.948725809215e-04 0.0 
4.517090474509e-04 -4.751164943650e-04 0.0 
5.155566579670e-04 -3.052435829441e-04 0.0 
5.985151970364e-04 -3.166947616593e-04 0.0 
2.393751439514e-03 3.161487299390e-03 0.0 
2.161196352700e-03 2.977597856024e-03 0.0 
2.779139022613e-03 3.363581303682e-03 0.0 
1.508366384407e-03 2.247723336008e-04 0.0 
1.577107797578e-03 2.116362514201e-04 0.0 
1.729216997198e-03 3.142115892449e-04 0.0 
3.689337519520e-04 2.286394472602e-03 0.0 
2.454064008299e-04 1.679891300822e-03 0.0 
1.034704106175e-03 -1.406439416872e-04 0.0 
1.055693736218e-03 -4.788345050902e-05 0.0 
8.424374877470e-04 -3.018934941339e-04 0.0 
4.694988212675e-04 1.920995883427e-03 0.0 
1.339253135545e-04 -8.432979888302e-06 0.0 
2.000993922304e-04 -1.256373654667e-05 0.0 
5.786195391243e-05 -5.798857550072e-04 0.0 
1.115025563165e-04 -5.462341026459e-04 0.0 
4.779663999251e-05 2.687454919987e-03 0.0 
-2.236388379953e-04 2.253865738846e-03 0.0 
7.754081590780e-04 2.063465791162e-03 0.0 
9.956450077098e-04 2.507361164548e-03 0.0 
5.492711745997e-04 1.545680045009e-03 0.0 
7.612583622531e-05 -6.088923396758e-04 0.0 
2.345808212115e-03 1.544328810902e-03 0.0 
7.688611898521e-04 1.691544354621e-04 0.0 
9.643041026422e-04 2.289416821467e-04 0.0 
5.562150274060e-04 1.149319423911e-04 0.0 
1.762032821969e-03 9.612736018141e-04 0.0 
1.334352703556e-03 6.868760164037e-04 0.0 
1.381485667395e-03 8.388460939782e-04 0.0 
-5.027355441629e-04 8.618184663554e-04 0.0 
7.204240701319e-05 2.372741506583e-03 0.0 
6.543800603660e-04 7.686097877561e-03 0.0 
-5.838280071854e-04 6.649997189762e-04 0.0 
5.650861745324e-04 8.179538497092e-03 0.0 
4.714408498795e-04 7.592534292083e-03 0.0 
4.890854517028e-04 8.667235383621e-03 0.0 
6.192046789659e-05 -6.325637542521e-04 0.0 
1.078127857290e-03 7.993281935215e-03 0.0 
1.189883560777e-03 7.393022749683e-03 0.0 
-1.268875835904e-05 -5.403807407428e-04 0.0 
3.166521958186e-04 1.416475938207e-03 0.0 
2.371770821248e-05 -6.019113173087e-04 0.0 
5.613782589830e-05 -6.229574005321e-04 0.0 
4.265224034328e-04 4.552173336343e-05 0.0 
4.627255712031e-04 2.957228286303e-05 0.0 
3.085750020341e-04 3.330455246875e-05 0.0 
3.569122171987e-04 2.231682634378e-05 0.0 
4.793261262834e-04 6.593750980559e-06 0.0 
3.708382148371e-04 2.888021451464e-06 0.0 
7.668110027630e-04 8.328991938570e-03 0.0 
2.431987068451e-04 1.738903724526e-05 0.0 
2.732228265907e-04 2.144350048200e-06 0.0 
1.596439179187e-04 1.065852452554e-05 0.0 
2.432951861157e-03 9.343326665475e-03 0.0 
2.315508097099e-03 5.408927098526e-03 0.0 
2.182187360193e-03 6.641452337114e-03 0.0 
1.599532951191e-03 7.139314302750e-03 0.0 
1.128268787251e-03 1.130504807090e-03 0.0 
1.388996313521e-03 1.606329869525e-03 0.0 
1.220497442359e-04 -7.895786461112e-05 0.0 
1.392926808996e-04 -1.243349376723e-04 0.0 
3.900157588843e-04 8.128720782354e-03 0.0 
2.852752541750e-04 8.169131177128e-03 0.0 
3.099361405748e-04 7.246094009279e-03 0.0 
2.239832765786e-04 7.355888412103e-03 0.0 
2.405157688064e-04 6.452621048341e-03 0.0 
1.550363830664e-04 6.566692404678e-03 0.0 
1.824581027446e-04 5.665539835455e-03 0.0 
1.128758184980e-03 7.332701053316e-04 0.0 
5.342056157994e-04 4.777084399379e-03 0.0 
2.321305339188e-03 9.008255828709e-03 0.0 
1.007982449318e-03 3.923146938390e-04 0.0 
1.209486344304e-03 4.378674238366e-04 0.0 
2.704808637645e-03 8.424821625141e-03 0.0 
2.427074656598e-03 9.300213323560e-03 0.0 
4.685995997276e-04 7.443485343463e-05 0.0 
2.395072666744e-03 2.888519434396e-03 0.0 
2.382931564130e-04 8.900677618615e-04 0.0 
-1.140378546051e-03 1.742909976506e-03 0.0 
-7.174222794638e-04 1.510618909998e-03 0.0 
2.686427762637e-03 3.390265353781e-03 0.0 
2.877674473267e-03 7.604957762177e-03 0.0 
2.610406610564e-03 6.157924592412e-03 0.0 
2.477436612574e-03 7.405970876942e-03 0.0 
1.392407992235e-03 2.298529402935e-04 0.0 
5.395470024142e-05 -5.007501239392e-04 0.0 
3.956254741990e-04 3.231460035622e-03 0.0 
2.658713091750e-04 5.566864541474e-03 0.0 
-2.650577940367e-04 3.264813824708e-03 0.0 
6.381983542225e-05 -1.008600829645e-04 0.0 
2.375247142599e-03 2.317185853764e-03 0.0 
3.148362551590e-03 5.816188955852e-03 0.0 
1.032660809243e-03 3.163625889013e-03 0.0 
2.423181933636e-03 4.425938203741e-03 0.0 
2.424068762771e-03 6.278002669637e-03 0.0 
2.142756291703e-03 7.488954499195e-03 0.0 
2.281514476460e-03 7.825194463635e-03 0.0 
2.329071008079e-03 1.841083344906e-03 0.0 
2.627636808675e-03 7.917135944828e-03 0.0 
2.211710249127e-03 8.781970006339e-03 0.0 
2.865904704090e-03 5.976546232865e-03 0.0 
1.237204951302e-03 3.426441538275e-03 0.0 
1.231186895089e-03 2.953580115815e-03 0.0 
9.555716728617e-04 2.090587957328e-03 0.0 
1.198997866033e-03 2.499946411809e-03 0.0 
1.473979913706e-03 3.384361815534e-03 0.0 
1.456897585587e-03 2.907482140172e-03 0.0 
1.137693972755e-03 2.070022498371e-03 0.0 
1.410272428450e-03 2.447928967162e-03 0.0 
9.578224957117e-04 1.493239394881e-03 0.0 
1.318062962237e-03 1.991402590835e-03 0.0 
1.685285651416e-03 2.816337977887e-03 0.0 
1.621315863057e-03 2.372778540638e-03 0.0 
1.249992876365e-03 1.673112468474e-03 0.0 
1.962750891582e-03 3.193293235066e-03 0.0 
8.069408040081e-04 3.382091869587e-04 0.0 
2.879852463774e-03 3.170723729298e-03 0.0 
-3.707691066148e-04 1.143380898968e-03 0.0 
-5.931792341869e-04 1.849910868911e-03 0.0 
3.091873779161e-03 5.972179657062e-03 0.0 
4.691129229492e-04 7.179050278744e-04 0.0 
3.849893332334e-04 7.481624192879e-04 0.0 
1.737670294701e-03 1.966004959517e-03 0.0 
5.788576078922e-04 5.076443583807e-04 0.0 
2.446094459128e-03 7.178810761928e-03 0.0 
6.863750133597e-04 1.286009977293e-03 0.0 
5.990095415702e-04 4.295348121901e-04 0.0 
1.463270554956e-03 3.870371072227e-03 0.0 
1.690401947707e-03 4.309570182394e-03 0.0 
1.638211444416e-03 4.818254617738e-03 0.0 
2.945765280393e-04 7.225321137287e-04 0.0 
1.139487138995e-03 6.349845114805e-03 0.0 
5.199381711838e-04 2.548856443149e-04 0.0 
2.377830128703e-03 1.115157649670e-03 0.0 
2.554931565067e-03 1.410812747294e-03 0.0 
2.606077999020e-03 1.539502302927e-03 0.0 
1.718548393161e-03 3.312093840904e-03 0.0 
4.363731150329e-04 1.482582554696e-04 0.0 
7.752974562247e-04 2.491595697923e-04 0.0 
7.140428329602e-04 2.069630386930e-04 0.0 
1.067962384992e-03 3.189553240961e-04 0.0 
3.674435285119e-04 1.055124412072e-04 0.0 
4.882407881762e-04 5.904837041512e-04 0.0 
4.906018541997e-04 5.306224526724e-04 0.0 
8.666352627439e-04 -6.972031759448e-05 0.0 
1.059934131386e-03 7.288073435106e-05 0.0 
1.248559013214e-03 9.385537167532e-05 0.0 
1.267832946720e-03 2.379201310541e-04 0.0 
1.041762109946e-03 2.276893446506e-04 0.0 
1.264676044454e-03 4.177178004107e-04 0.0 
1.486602022825e-03 4.244808882393e-04 0.0 
1.236293725933e-03 6.406131692155e-04 0.0 
1.802822090645e-03 2.272154674335e-03 0.0 
2.928168481470e-04 6.994436664891e-05 0.0 
1.193894421642e-03 5.904891207676e-06 0.0 
1.331632662097e-03 4.975180766572e-05 0.0 
1.344993601601e-03 1.213912073820e-05 0.0 
5.750792983739e-04 -3.736159032638e-04 0.0 
6.785010811439e-04 -3.234378376704e-04 0.0 
6.957459063259e-04 -2.659629119376e-04 0.0 
4.761766083903e-04 -4.186201902795e-04 0.0 
2.694678484975e-03 2.329219291299e-03 0.0 
2.637555001082e-04 5.678765302918e-05 0.0 
1.842559653483e-03 4.380396014471e-04 0.0 
7.545312500362e-04 -3.236506023295e-04 0.0 
1.422749645612e-03 8.914145441170e-03 0.0 
1.505485254853e-03 8.006116665100e-03 0.0 
1.653795455073e-03 7.904860125601e-03 0.0 
1.556760480585e-03 6.966144928670e-03 0.0 
1.338898889284e-03 7.955539204721e-03 0.0 
4.310884936860e-04 -2.899276746911e-04 0.0 
3.463031760869e-04 -2.718563258919e-04 0.0 
2.690150793798e-04 -3.102275724176e-04 0.0 
2.621104312377e-04 -2.518636864982e-04 0.0 
1.885887545154e-04 -2.882791429948e-04 0.0 
1.934769224700e-04 -3.453855227083e-04 0.0 
1.777657988377e-04 -2.304794064313e-04 0.0 
1.096962886849e-04 -2.714691450484e-04 0.0 
1.145163003053e-03 9.004639955954e-03 0.0 
-5.026647710053e-04 9.933278163535e-05 0.0 
-2.548157620962e-04 -2.749634779605e-05 0.0 
-1.961178573983e-04 -1.866387375985e-04 0.0 
-4.740391593867e-05 -1.316031574824e-04 0.0 
-6.879002233701e-05 3.496537683748e-05 0.0 
1.723733025776e-04 -7.413185392850e-05 0.0 
1.269841957758e-04 1.130128507515e-04 0.0 
-3.265322089637e-04 1.791348048958e-04 0.0 
-3.154431678605e-04 -2.277540839887e-04 0.0 
-1.407148720136e-04 -3.104167225683e-04 0.0 
-2.407682573432e-04 -3.412529520122e-04 0.0 
-1.001547733402e-04 -4.047812713478e-04 0.0 
3.881676692869e-05 -3.775159589481e-04 0.0 
2.267759796386e-04 -5.415676169688e-04 0.0 
6.948900966465e-05 4.235518515445e-06 0.0 
6.941610307615e-05 -4.306760906874e-04 0.0 
1.307026468763e-04 -4.565364741282e-04 0.0 
1.189546757535e-04 -5.047229813152e-04 0.0 
1.928660105014e-04 -4.775337031943e-04 0.0 
1.346948059135e-04 -4.074158303448e-04 0.0 
5.569862072595e-05 -5.294925095036e-04 0.0 
1.040831471686e-04 -5.438622597389e-04 0.0 
7.054502697409e-06 -6.668423765327e-04 0.0 
1.743723086452e-05 -6.665643825716e-04 0.0 
7.570144281833e-06 -6.697240143651e-04 0.0 
2.401812515505e-05 -6.621242789226e-04 0.0 
3.770846960120e-05 -6.590094155484e-04 0.0 
2.385051702287e-05 -6.621623086274e-04 0.0 
2.744294442455e-05 -6.559355728528e-04 0.0 
1.216259591948e-06 -6.510579731021e-04 0.0 
2.788090564931e-05 -6.464521512876e-04 0.0 
6.201265677000e-05 -6.480863087341e-04 0.0 
-8.899165624356e-06 -6.374467603487e-04 0.0 
5.848371001289e-05 4.362783838137e-03 0.0 
1.108991772311e-04 3.872357814932e-03 0.0 
2.225967124807e-04 3.866759503980e-05 0.0 
8.870245809412e-04 8.953589032171e-03 0.0 
-1.238203384051e-04 -4.977551549402e-04 0.0 
8.904257639039e-05 9.735956755227e-04 0.0 
1.369720583518e-04 8.028012932284e-04 0.0 
1.095861292245e-04 7.791330029434e-04 0.0 
4.037268311881e-05 -2.627374423828e-05 0.0 
6.555121429633e-05 -1.359313261037e-05 0.0 
4.874005813247e-05 9.478214981396e-04 0.0 
4.368103981212e-04 -5.148556772679e-04 0.0 
8.885004133822e-04 1.696606413856e-03 0.0 
2.529703846561e-04 2.600074502539e-03 0.0 
5.194829132966e-04 1.686142826907e-03 0.0 
5.756993293554e-04 -4.122060919455e-04 0.0 
2.212556374408e-04 -1.430632307854e-04 0.0 
6.679281531300e-04 -1.542812029790e-04 0.0 
2.651455822100e-04 -4.016452603119e-05 0.0 
4.004783393123e-04 -1.769694537527e-04 0.0 
4.509396232484e-04 -5.439964386654e-05 0.0 
6.692310784124e-04 1.720755082290e-04 0.0 
8.149087516454e-05 -6.386093473215e-04 0.0 
7.068122474678e-04 6.214236810054e-03 0.0 
4.546887030972e-04 6.579632033406e-03 0.0 
4.227319210085e-04 4.123997068681e-03 0.0 
2.991714766357e-04 -5.485695157840e-04 0.0 
2.711690063845e-04 -3.652309678685e-04 0.0 
1.892132397821e-04 -6.064471294189e-04 0.0 
1.078104929950e-03 8.657276471827e-04 0.0 
2.870517548094e-03 6.795223419607e-03 0.0 
1.215849776989e-03 -8.107346099348e-05 0.0 
5.356405941419e-04 -4.275237915048e-04 0.0 
5.471152871528e-04 -4.667800502097e-04 0.0 
5.663079938897e-04 -3.632188980302e-04 0.0 
3.050064228931e-03 3.574396472575e-03 0.0 
8.711053102227e-04 -2.615885738724e-04 0.0 
8.421656163428e-04 -5.143612671951e-06 0.0 
3.222737236676e-04 3.582703910765e-03 0.0 
-4.176532990121e-05 -5.919604483289e-04 0.0 
8.722500296302e-04 4.247406694188e-05 0.0 
8.868613057541e-04 -1.523558647675e-04 0.0 
9.906216959068e-04 5.819768792610e-03 0.0 
1.811886235250e-03 6.766003031298e-04 0.0 
2.847002292961e-04 -2.054406913671e-04 0.0 
6.138799524862e-04 3.763770151607e-03 0.0 
6.159443530705e-04 2.033988675215e-03 0.0 
1.286461199660e-03 6.866837781331e-03 0.0 
1.186602572162e-04 -6.201612492480e-04 0.0 
7.432842958362e-04 7.239977737818e-03 0.0 
6.528114040140e-04 1.092825008977e-04 0.0 
1.218576564819e-03 3.902760807704e-03 0.0 
2.236440419735e-04 -5.761906130266e-04 0.0 
2.020031760895e-03 6.106316189899e-04 0.0 
3.196773704102e-03 4.981899187957e-03 0.0 
2.029527880432e-03 9.350968765709e-03 0.0 
2.616230832364e-04 2.195990506652e-03 0.0 
2.860498632553e-03 2.180652412721e-03 0.0 
1.375106904194e-03 4.004011685257e-04 0.0 
1.934534157170e-03 5.602216589471e-04 0.0 
1.930715223453e-04 -5.643887966008e-04 0.0 
5.986978723571e-04 1.281152654155e-05 0.0 
2.457982413232e-03 1.303854959099e-03 0.0 
4.945508906654e-04 2.790398916016e-03 0.0 
2.518430484653e-03 2.781598303807e-03 0.0 
1.948270310857e-03 8.624776191699e-04 0.0 
8.135604639145e-04 3.378060944366e-03 0.0 
1.463170917728e-03 7.914928725828e-05 0.0 
1.756127164686e-03 7.239294163650e-04 0.0 
2.972960716764e-03 6.800380736793e-03 0.0 
2.971563017210e-03 3.949930196026e-03 0.0 
2.440201081970e-03 4.246904053523e-03 0.0 
3.057161207858e-03 3.134752252083e-03 0.0 
1.502617186589e-04 -1.766247459877e-04 0.0 
7.304364637427e-04 2.432892261470e-05 0.0 
3.787829688470e-04 4.698994582530e-04 0.0 
2.729850922490e-03 4.165284802080e-03 0.0 
1.224481355290e-03 5.851792701807e-03 0.0 
1.856352493026e-03 1.446091190303e-03 0.0 
3.485394208160e-04 1.823452035059e-03 0.0 
3.152341073418e-03 5.551339592294e-03 0.0 
5.869753904026e-04 -2.111589552363e-05 0.0 
6.399096663244e-04 2.445664127535e-03 0.0 
7.848295355283e-04 -2.678021891176e-04 0.0 
3.045445864650e-05 -6.305929379598e-04 0.0 
4.541997810820e-05 1.775929713862e-03 0.0 
1.494763319452e-03 8.922761483295e-04 0.0 
2.745614729519e-03 1.925727728114e-03 0.0 
7.925397482950e-04 -2.113471264807e-04 0.0 
6.845658633500e-04 1.543921565764e-03 0.0 
4.734222907301e-04 -2.240463111922e-05 0.0 
1.213845265501e-03 1.680771446970e-04 0.0 
-9.873450477204e-04 2.785854372149e-03 0.0 
2.231195551720e-03 8.727778546808e-03 0.0 
3.703998157936e-04 -2.087024039810e-05 0.0 
1.877793312894e-03 4.457206584619e-04 0.0 
1.529529322511e-03 5.590910952771e-04 0.0 
1.174545603708e-04 -3.240337843043e-04 0.0 
1.094414629622e-03 7.913501123612e-04 0.0 
2.461709061021e-03 9.345599446404e-03 0.0 
2.785105177384e-04 -1.735693175183e-05 0.0 
1.416703711926e-03 2.973665752082e-04 0.0 
2.075407540466e-03 2.405836002079e-03 0.0 
2.457425926216e-04 9.052648786710e-03 0.0 
1.761358915238e-04 4.178758865638e-06 0.0 
1.201431986877e-03 2.684537544897e-04 0.0 
2.909351591974e-03 2.734136033654e-03 0.0 
1.732035612698e-03 3.036705680064e-04 0.0 
2.152365174527e-03 9.939684744084e-03 0.0 
6.922293629411e-04 -2.091870753375e-04 0.0 
2.826155492113e-03 3.937836713266e-03 0.0 
2.535751056893e-04 7.146701930500e-04 0.0 
1.167550436507e-03 3.057818412711e-04 0.0 
1.846582440236e-03 5.263697613106e-03 0.0 
6.046791401782e-04 -2.589796957987e-04 0.0 
2.450336453230e-03 1.393141192602e-03 0.0 
4.982433609932e-05 -6.549210578234e-04 0.0 
2.388407218222e-03 9.204456381148e-03 0.0 
5.128731865764e-04 -2.473735554157e-04 0.0 
1.501134241453e-03 6.347080940641e-04 0.0 
1.600911684045e-03 1.936664818262e-04 0.0 
1.084133068294e-03 5.007604652851e-04 0.0 
4.221763843386e-04 -2.323017244167e-04 0.0 
1.715376831851e-03 6.321075821429e-04 0.0 
3.332495978863e-04 -2.148862593619e-04 0.0 
2.174340152215e-03 1.028470825444e-02 0.0 
1.912519821490e-03 4.715921164525e-03 0.0 
2.437249449807e-04 -1.960581667132e-04 0.0 
2.602682608593e-03 3.295223885484e-03 0.0 
7.304827045719e-05 -6.376007126530e-04 0.0 
2.773625993549e-03 2.255410349996e-03 0.0 
9.480546862725e-05 -4.046991490000e-05 0.0 
8.034058168188e-04 -3.413615109126e-04 0.0 
1.467769974889e-03 1.106800403432e-04 0.0 
1.717700053234e-03 3.804023734688e-03 0.0 
2.038985014593e-03 1.033824886976e-02 0.0 
1.428728593016e-03 1.374894121104e-04 0.0 
2.310346114431e-03 2.670611043371e-03 0.0 
2.611141714404e-03 1.843737468521e-03 0.0 
2.715923542559e-03 1.761920401507e-03 0.0 
1.344119209510e-03 1.572990571864e-04 0.0 
2.369805830895e-03 9.068672463429e-03 0.0 
4.439589897566e-04 -5.027535221092e-04 0.0 
3.400019482658e-04 -5.264081803694e-04 0.0 
1.660542252378e-03 4.319505260927e-04 0.0 
2.068193870445e-03 2.497445369809e-03 0.0 
4.852784236189e-05 -6.505028366057e-04 0.0 
1.973564836235e-03 3.675277005169e-03 0.0 
1.894771505707e-04 -5.038845445308e-04 0.0 
1.451221278913e-03 2.540400071252e-04 0.0 
2.113421912997e-03 1.218935717528e-03 0.0 
7.027246054507e-05 6.314403803264e-03 0.0 
1.399038003404e-03 1.178814124087e-04 0.0 
3.764214758824e-05 -6.034331474679e-04 0.0 
1.212603931146e-03 -1.881162608328e-05 0.0 
2.616359100033e-03 1.582646335215e-03 0.0 
1.163286360672e-03 -1.054748979262e-04 0.0 
9.984746307489e-04 -2.102759935654e-04 0.0 
1.752614695816e-04 1.670678810601e-03 0.0 
9.499019783577e-04 -2.607051039897e-04 0.0 
2.442372869286e-05 7.841948229804e-04 0.0 
2.854835094633e-05 2.157055316106e-06 0.0 
9.231196524822e-05 8.290104275831e-03 0.0 
1.628135595909e-03 1.005635426894e-02 0.0 
-8.802451365062e-04 9.381118079539e-04 0.0 
2.062396502363e-03 7.863653361883e-03 0.0 
6.989022076957e-04 -3.797669956684e-04 0.0 
2.211195053614e-03 3.476621817951e-03 0.0 
1.917548549284e-04 8.244850369549e-03 0.0 
5.658872519172e-04 -4.465816302845e-04 0.0 
9.128297431629e-04 1.239640434463e-03 0.0 
5.490040622962e-04 3.228923170666e-04 0.0 
1.256146374821e-04 4.799866089123e-03 0.0 
1.321364362674e-03 4.344134977996e-04 0.0 
2.416903577375e-03 1.483873801942e-03 0.0 
3.582015605480e-05 2.470361525471e-03 0.0 
5.696428187725e-04 9.137112166145e-03 0.0 
-6.357798051281e-05 -4.788188491866e-04 0.0 
7.229114698395e-05 -1.506712205473e-04 0.0 
9.332977490799e-04 8.620668377690e-03 0.0 
1.054225109471e-03 5.841072383113e-03 0.0 
5.101085479945e-05 3.919740921149e-03 0.0 
1.513649365558e-04 -5.534098691960e-04 0.0 
-1.934189384897e-05 -2.654789365827e-04 0.0 
8.547924477499e-05 5.850664018560e-03 0.0 
8.526222959411e-04 3.012759919145e-04 0.0 
9.585147465307e-04 8.216315731526e-03 0.0 
2.019933400712e-03 1.250009533538e-03 0.0 
-6.620375904296e-04 3.937000910411e-03 0.0 
4.420853636177e-04 1.567471387454e-03 0.0 
1.067503794429e-03 5.763476316239e-04 0.0 
1.511547739879e-04 2.089394738486e-05 0.0 
1.591576705547e-03 9.178904180777e-04 0.0 
-5.229852737354e-04 2.733224998730e-03 0.0 
1.420036658363e-03 7.233359166343e-03 0.0 
1.055315117333e-03 9.373446228468e-04 0.0 
1.694987799973e-04 4.012015718947e-03 0.0 
1.080434084776e-04 1.252839013061e-05 0.0 
1.209863316161e-03 8.264799345216e-03 0.0 
1.060925342136e-04 1.558694471627e-03 0.0 
2.086958942832e-04 2.907278155487e-04 0.0 
5.412351428062e-05 1.513793945910e-03 0.0 
1.900807284014e-03 2.709638008488e-03 0.0 
3.907362570289e-04 7.037073546281e-03 0.0 
1.711885870787e-03 7.127100183737e-03 0.0 
7.901499575601e-05 -3.309333118164e-06 0.0 
7.959348524725e-04 1.356101191345e-03 0.0 
-6.972667683593e-04 2.253583174927e-03 0.0 
1.971898451656e-04 4.901457042402e-03 0.0 
2.606900548847e-04 -4.727279417611e-04 0.0 
-4.586120374092e-04 4.246447519076e-04 0.0 
3.841920175004e-04 5.426221177241e-05 0.0 
1.530900223323e-03 1.989382347637e-03 0.0 
1.330782947214e-04 9.216446126885e-07 0.0 
1.028113724044e-05 -6.631736306383e-04 0.0 
-1.468428117406e-05 -5.753612512230e-04 0.0 
4.431140745573e-04 8.268878358967e-05 0.0 
9.366258970845e-04 1.024938826880e-03 0.0 
3.655003684807e-04 5.211508280196e-05 0.0 
1.466298368210e-04 6.219840199612e-04 0.0 
-9.251408043464e-04 1.942178777085e-03 0.0 
7.774167023031e-04 9.242234200335e-03 0.0 
2.050594959051e-05 -6.336171461346e-04 0.0 
8.490846060715e-05 8.637547801954e-06 0.0 
2.570109857777e-04 1.481197831859e-03 0.0 
1.872400898506e-04 -4.305470302216e-04 0.0 
1.708430106063e-03 8.647738622797e-03 0.0 
8.826683458938e-05 -5.804232741739e-04 0.0 
1.462318137498e-03 1.059666544422e-03 0.0 
1.763415242382e-05 -4.471111758222e-04 0.0 
1.745542046314e-04 1.402947021132e-03 0.0 
5.308886738322e-04 1.254567318457e-04 0.0 
5.398090530372e-04 1.323290511015e-03 0.0 
3.667558798636e-04 1.498280954478e-04 0.0 
-7.006795742561e-04 1.148244316044e-03 0.0 
9.456502907749e-04 5.514768071339e-04 0.0 
9.198881278167e-04 2.469410784513e-04 0.0 
4.276615577699e-04 9.176686161356e-03 0.0 
6.860005247682e-04 1.374507600116e-03 0.0 
1.627278211224e-04 -5.184064873098e-04 0.0 
9.973880913773e-05 -6.385256565288e-04 0.0 
1.029869041418e-05 6.946215391382e-04 0.0 
2.197533763360e-06 -6.722158962019e-04 0.0 
7.225854172582e-05 9.167657982052e-03 0.0 
1.107565956912e-05 9.997247485848e-07 0.0 
6.140531933590e-05 -6.504346315257e-04 0.0 
1.517139332457e-04 7.554219380707e-03 0.0 
8.611621500184e-04 1.041945064426e-03 0.0 
5.188823496357e-05 -3.151919273440e-04 0.0 
8.288390280622e-05 3.102919141348e-03 0.0 
1.101916027752e-04 -2.084100811148e-04 0.0 
-7.919939806634e-04 5.964073222920e-04 0.0 
1.205786267449e-04 5.815278590560e-03 0.0 
9.317906611629e-04 4.577009362897e-04 0.0 
4.137598989732e-04 1.295128561749e-03 0.0 
3.125319442377e-04 6.490194624074e-03 0.0 
-3.150870732012e-04 1.923158100847e-03 0.0 
1.204103366913e-03 1.465687613891e-03 0.0 
2.031575697531e-04 -3.881281067503e-04 0.0 
1.420962056186e-03 1.257613030316e-03 0.0 
1.066676099459e-03 3.533130911609e-04 0.0 
-1.212271048410e-03 2.094862086435e-03 0.0 
4.586701542813e-05 -2.581477066886e-04 0.0 
7.582904678195e-06 -6.168871857544e-04 0.0 
2.493219497455e-04 2.452406687104e-05 0.0 
1.360492971702e-04 -3.643929455444e-04 0.0 
3.093206804784e-04 1.113533057212e-02 0.0 
6.447409477352e-05 1.548999427706e-02 0.0 
1.199913571946e-03 1.169589463086e-02 0.0 
5.176517639069e-05 1.447267966853e-02 0.0 
1.634391451286e-03 1.171614637930e-02 0.0 
4.991189784672e-05 1.345856824924e-02 0.0 
1.812775722379e-03 1.139398342001e-02 0.0 
4.931977377118e-05 1.244497073115e-02 0.0 
1.833585198414e-03 1.082970862307e-02 0.0 
4.897574888337e-05 1.143102675738e-02 0.0 
1.746244738808e-03 1.011399841689e-02 0.0 
4.865705939686e-05 1.041671240941e-02 0.0 

VECTORS node_materi_displacement float
0.0 7.911777216755e-02 0.0 
0.0 1.021350834691e-01 0.0 
0.0 0.0 0.0 
0.0 0.0 0.0 
0.0 7.900869190830e-02 0.0 
0.0 7.852133405554e-02 0.0 
0.0 7.765666745570e-02 0.0 
0.0 7.641160790065e-02 0.0 
0.0 7.477210005619e-02 0.0 
0.0 7.274566626121e-02 0.0 
0.0 7.033123184405e-02 0.0 
0.0 6.752212717752e-02 0.0 
0.0 6.431460087927e-02 0.0 
0.0 6.069953316020e-02 0.0 
0.0 5.666160708076e-02 0.0 
0.0 5.219207887715e-02 0.0 
0.0 4.728865247584e-02 0.0 
0.0 4.196493145008e-02 0.0 
0.0 3.617254230414e-02 0.0 
0.0 2.991173415201e-02 0.0 
0.0 2.317654178171e-02 0.0 
0.0 1.594778403337e-02 0.0 
0.0 8.213133988522e-03 0.0 
0.0 0.0 0.0 
0.0 0.0 0.0 
0.0 0.0 0.0 
0.0 0.0 0.0 
0.0 0.0 0.0 
0.0 0.0 0.0 
0.0 0.0 0.0 
0.0 0.0 0.0 
0.0 0.0 0.0 
0.0 0.0 0.0 
0.0 0.0 0.0 
0.0 0.0 0.0 
0.0 0.0 0.0 
0.0 0.0 0.0 
0.0 0.0 0.0 
0.0 0.0 0.0 
0.0 0.0 0.0 
0.0 0.0 0.0 
0.0 0.0 0.0 
0.0 0.0 0.0 
0.0 0.0 0.0 
0.0 0.0 0.0 
0.0 0.0 0.0 
0.0 0.0 0.0 
0.0 0.0 0.0 
0.0 0.0 0.0 
0.0 0.0 0.0 
0.0 0.0 0.0 
0.0 0.0 0.0 
0.0 0.0 0.0 
0.0 0.0 0.0 
0.0 0.0 0.0 
0.0 0.0 0.0 
0.0 0.0 0.0 
0.0 0.0 0.0 
0.0 0.0 0.0 
0.0 0.0 0.0 
0.0 0.0 0.0 
0.0 0.0 0.0 
0.0 0.0 0.0 
0.0 0.0 0.0 
0.0 0.0 0.0 
0.0 0.0 0.0 
0.0 0.0 0.0 
0.0 0.0 0.0 
0.0 0.0 0.0 
0.0 0.0 0.0 
0.0 0.0 0.0 
0.0 0.0 0.0 
0.0 9.375360310267e-02 0.0 
0.0 8.495264878198e-02 0.0 
0.0 7.573088377120e-02 0.0 
0.0 6.610431015610e-02 0.0 
0.0 5.606710256441e-02 0.0 
0.0 4.563261625677e-02 0.0 
0.0 3.480357716938e-02 0.0 
0.0 2.358447877062e-02 0.0 
0.0 1.198253559471e-02 0.0 
-8.422900833629e-03 9.999519295715e-02 0.0 
6.636030621291e-03 1.010680118737e-01 0.0 
-5.734951707771e-03 1.072403019074e-01 0.0 
-2.837722148875e-03 1.148204879715e-01 0.0 
3.978495610007e-04 1.214765919559e-01 0.0 
3.457178253051e-03 1.258721124025e-01 0.0 
5.889565763106e-03 1.261838596930e-01 0.0 
7.164646732893e-03 1.238646160311e-01 0.0 
7.661145654071e-03 1.198567197675e-01 0.0 
7.643614982301e-03 1.145644447710e-01 0.0 
7.263700782429e-03 1.082396635314e-01 0.0 
0.0 1.434227283202e-01 0.0 
0.0 1.376142696430e-01 0.0 
0.0 1.313645814845e-01 0.0 
0.0 1.247159661088e-01 0.0 
0.0 1.176038264359e-01 0.0 
0.0 1.100957463097e-01 0.0 
3.720400362847e-04 1.021389112619e-01 0.0 
7.343726327955e-04 1.021496113450e-01 0.0 
1.106533692632e-03 1.021643483266e-01 0.0 
1.484805892471e-03 1.021753249334e-01 0.0 
1.867904714258e-03 1.021964024943e-01 0.0 
2.260765488624e-03 1.022024632990e-01 0.0 
2.667448819854e-03 1.022093300016e-01 0.0 
3.080642998733e-03 1.021972456253e-01 0.0 
3.520309960075e-03 1.021798835033e-01 0.0 
3.979941796297e-03 1.021245147569e-01 0.0 
4.457962870563e-03 1.020347090702e-01 0.0 
4.960868842677e-03 1.019032958828e-01 0.0 
5.488397406049e-03 1.017087213445e-01 0.0 
6.044617613789e-03 1.014320975590e-01 0.0 
-7.663719454244e-03 9.606930321715e-02 0.0 
-6.717250931546e-03 9.286122689860e-02 0.0 
-5.754513112525e-03 9.022002315924e-02 0.0 
-4.853840528802e-03 8.806240061113e-02 0.0 
-4.051691971777e-03 8.630808358670e-02 0.0 
-3.331906219921e-03 8.485792760915e-02 0.0 
-2.695216555879e-03 8.366098168362e-02 0.0 
-2.147497901695e-03 8.267891305155e-02 0.0 
-1.679508114474e-03 8.187862631322e-02 0.0 
-1.284999489393e-03 8.123753067485e-02 0.0 
-9.685797558987e-04 8.071050315544e-02 0.0 
-6.976205443094e-04 8.030784986989e-02 0.0 
-4.697870824707e-04 7.996885233524e-02 0.0 
-3.151843559750e-04 7.969831902330e-02 0.0 
-2.098237480897e-04 7.950028055478e-02 0.0 
-1.273851490191e-04 7.935306998013e-02 0.0 
-6.543872912426e-05 7.924355046257e-02 0.0 
-2.161776985693e-05 7.917087016179e-02 0.0 
-1.382454352801e-05 7.912185808972e-02 0.0 
4.129445902439e-04 1.434577542596e-01 0.0 
7.515305668958e-04 1.434484253875e-01 0.0 
1.088957882391e-03 1.434594971939e-01 0.0 
1.425660653366e-03 1.434742663188e-01 0.0 
1.756855946675e-03 1.434897177555e-01 0.0 
2.078398426770e-03 1.435023850360e-01 0.0 
2.386587657211e-03 1.435076617808e-01 0.0 
2.677921688974e-03 1.434998942238e-01 0.0 
2.948887230927e-03 1.434722227754e-01 0.0 
3.195858134325e-03 1.434163405090e-01 0.0 
3.415050662499e-03 1.433222113883e-01 0.0 
3.602535933913e-03 1.431777203328e-01 0.0 
3.754293298212e-03 1.429682889068e-01 0.0 
3.866203430005e-03 1.426761247395e-01 0.0 
3.934491960797e-03 1.422796908687e-01 0.0 
3.955884725939e-03 1.417524820465e-01 0.0 
3.928807453117e-03 1.410629029859e-01 0.0 
3.852798174099e-03 1.401709109561e-01 0.0 
3.731816076456e-03 1.390282200484e-01 0.0 
3.573382950373e-03 1.375685745441e-01 0.0 
3.398886843740e-03 1.357058593323e-01 0.0 
3.252621837844e-03 1.333363034415e-01 0.0 
3.093352039054e-03 1.302754928310e-01 0.0 
5.557137530606e-03 1.288697233005e-01 0.0 
5.346601034050e-03 1.309677711126e-01 0.0 
5.155554256649e-03 1.325895807602e-01 0.0 
5.003448604916e-03 1.338768674926e-01 0.0 
4.860123660873e-03 1.348772090340e-01 0.0 
4.716162482347e-03 1.356586241719e-01 0.0 
4.560745577089e-03 1.362582898399e-01 0.0 
4.389673260885e-03 1.367143067616e-01 0.0 
4.199863859184e-03 1.370538131817e-01 0.0 
3.990333597534e-03 1.373009303230e-01 0.0 
3.761033353454e-03 1.374747466341e-01 0.0 
3.512984008081e-03 1.375914689764e-01 0.0 
3.247625061284e-03 1.376642268589e-01 0.0 
2.966605853052e-03 1.377039141966e-01 0.0 
2.671726337481e-03 1.377195865954e-01 0.0 
2.364874078288e-03 1.377187489747e-01 0.0 
2.048000727533e-03 1.377076375236e-01 0.0 
1.722930118350e-03 1.376912986846e-01 0.0 
1.391213247420e-03 1.376737002708e-01 0.0 
1.053791519752e-03 1.376573638988e-01 0.0 
7.100910622302e-04 1.376408472903e-01 0.0 
3.565190114404e-04 1.375999514749e-01 0.0 
3.591863662304e-04 1.314002953924e-01 0.0 
7.203709799356e-04 1.314024110705e-01 0.0 
1.077532776623e-03 1.314205594053e-01 0.0 
1.430681358925e-03 1.314403949121e-01 0.0 
1.780143027036e-03 1.314609137350e-01 0.0 
2.125849807098e-03 1.314796825045e-01 0.0 
2.467436168716e-03 1.314927241464e-01 0.0 
2.804192169624e-03 1.314948206528e-01 0.0 
3.135395791858e-03 1.314790624844e-01 0.0 
3.460590355316e-03 1.314370852800e-01 0.0 
3.779642869055e-03 1.313587016067e-01 0.0 
4.092666599786e-03 1.312317184334e-01 0.0 
4.400194346090e-03 1.310412781753e-01 0.0 
4.703389671057e-03 1.307682307404e-01 0.0 
5.006052745716e-03 1.303907308660e-01 0.0 
5.311363783182e-03 1.298804465400e-01 0.0 
5.628370718097e-03 1.292077556803e-01 0.0 
5.959912276796e-03 1.283234298101e-01 0.0 
6.328642833931e-03 1.271955186114e-01 0.0 
6.711610030993e-03 1.257288770953e-01 0.0 
7.147969608102e-03 1.211049370114e-01 0.0 
6.682586941060e-03 1.220999173087e-01 0.0 
6.224033070320e-03 1.228546060584e-01 0.0 
5.799272655998e-03 1.234474368065e-01 0.0 
5.393623535388e-03 1.238894949011e-01 0.0 
5.005623475520e-03 1.242191514978e-01 0.0 
4.627856150663e-03 1.244538348929e-01 0.0 
4.258194649687e-03 1.246170489516e-01 0.0 
3.894358412413e-03 1.247246991721e-01 0.0 
3.534867160456e-03 1.247896711010e-01 0.0 
3.178355837631e-03 1.248225595586e-01 0.0 
2.823414753123e-03 1.248324587455e-01 0.0 
2.469780838423e-03 1.248271985543e-01 0.0 
2.117161205504e-03 1.248128717714e-01 0.0 
1.765032202642e-03 1.247935369571e-01 0.0 
1.412738245453e-03 1.247725261728e-01 0.0 
1.059808188811e-03 1.247517973313e-01 0.0 
7.059022708917e-04 1.247312704833e-01 0.0 
3.526683302617e-04 1.246940886897e-01 0.0 
3.650637177521e-04 1.176360714515e-01 0.0 
7.316856923879e-04 1.176332416271e-01 0.0 
1.098933989756e-03 1.176521862563e-01 0.0 
1.468491531511e-03 1.176727007514e-01 0.0 
1.840248699071e-03 1.176935532006e-01 0.0 
2.216041619474e-03 1.177114801453e-01 0.0 
2.596592294253e-03 1.177232208069e-01 0.0 
2.984276122169e-03 1.177242697740e-01 0.0 
3.378544224646e-03 1.177089161713e-01 0.0 
3.782173763513e-03 1.176659942541e-01 0.0 
4.197862188734e-03 1.175861781154e-01 0.0 
4.627048508949e-03 1.174585333729e-01 0.0 
5.072689557727e-03 1.172677721896e-01 0.0 
5.538641738488e-03 1.169971577544e-01 0.0 
6.023974179111e-03 1.166133718431e-01 0.0 
6.544921924377e-03 1.161085773616e-01 0.0 
7.074976308352e-03 1.154270381382e-01 0.0 
6.695170132593e-03 1.087976470706e-01 0.0 
6.160542744712e-03 1.092463363023e-01 0.0 
5.631902270634e-03 1.095568323588e-01 0.0 
5.134717545776e-03 1.097899514111e-01 0.0 
4.662084556346e-03 1.099534821946e-01 0.0 
4.209566910374e-03 1.100630156008e-01 0.0 
3.775747937235e-03 1.101337083745e-01 0.0 
3.358847435908e-03 1.101709475931e-01 0.0 
2.953939563266e-03 1.101815177697e-01 0.0 
2.562724394620e-03 1.101835941808e-01 0.0 
2.179901265961e-03 1.101729973255e-01 0.0 
1.806590946370e-03 1.101588284255e-01 0.0 
1.437686697249e-03 1.101393274322e-01 0.0 
1.074971392979e-03 1.101226409593e-01 0.0 
7.164207257666e-04 1.101031669395e-01 0.0 
3.558000288066e-04 1.100667034150e-01 0.0 
-7.055042230853e-03 1.034767040226e-01 0.0 
-4.323125211985e-03 1.110690437051e-01 0.0 
-1.219206636937e-03 1.183451981357e-01 0.0 
2.040401311947e-03 1.240661442517e-01 0.0 
4.928822661095e-03 1.264404924019e-01 0.0 
6.675146599048e-03 1.252565697311e-01 0.0 
7.509636490310e-03 1.220378639932e-01 0.0 
7.719612348465e-03 1.173532524533e-01 0.0 
7.503362319148e-03 1.115184817156e-01 0.0 
6.984408775354e-03 1.047502043029e-01 0.0 
-6.558593803822e-04 1.093116976306e-01 0.0 
1.931466681940e-03 7.885345348547e-03 0.0 
-8.620518573701e-04 8.132031544264e-02 0.0 
-2.917576624907e-03 8.687563694364e-02 0.0 
1.296676061350e-03 7.460072235311e-03 0.0 
5.479748564007e-03 1.198705149435e-01 0.0 
4.305310584461e-04 5.866395718967e-02 0.0 
2.306632850456e-03 8.422820257048e-03 0.0 
8.293046303634e-03 1.193936782641e-01 0.0 
2.310360119322e-03 8.784250688581e-03 0.0 
8.450233819104e-03 1.107509893738e-01 0.0 
7.373977375904e-04 6.701672861086e-03 0.0 
-1.229334251578e-04 7.965939489806e-02 0.0 
2.063161881701e-03 9.478919089729e-03 0.0 
7.220456945305e-03 9.733530038093e-02 0.0 
2.921250504399e-04 7.151331648434e-02 0.0 
4.541811598476e-04 4.577825032617e-02 0.0 
1.782423369735e-03 1.022904304489e-02 0.0 
1.183452501706e-03 1.003214198694e-02 0.0 
3.384887385928e-04 1.026506687180e-02 0.0 
6.181011125590e-04 1.111725462463e-02 0.0 
8.304354676783e-04 9.906140309119e-03 0.0 
5.816915149914e-03 9.414569984361e-02 0.0 
3.758312892868e-03 9.458331788167e-02 0.0 
2.452070531702e-03 9.444358412305e-02 0.0 
2.357919894595e-04 6.098570137316e-02 0.0 
4.431252742997e-04 7.197546912810e-03 0.0 
-4.672237822133e-03 9.421718170070e-02 0.0 
2.259282490237e-05 7.917803631995e-02 0.0 
3.165284006409e-04 2.712726482188e-02 0.0 
1.255361556950e-03 9.497594092464e-02 0.0 
1.507218337665e-04 7.710828549775e-02 0.0 
1.653061402904e-03 1.145587020021e-02 0.0 
2.171032187716e-03 7.931001723834e-03 0.0 
2.193685803803e-03 9.017928416783e-03 0.0 
2.285504471227e-03 8.630096863121e-03 0.0 
1.599483051332e-03 7.311023443981e-03 0.0 
-1.889217955296e-03 8.392954128003e-02 0.0 
4.734820531612e-03 9.491082422673e-02 0.0 
1.182698618904e-03 8.397125332583e-03 0.0 
1.709773575129e-04 4.073317563473e-02 0.0 
-4.164777927908e-04 8.030401224343e-02 0.0 
3.852588263067e-04 6.597494933981e-02 0.0 
1.650701866463e-04 8.356906433742e-03 0.0 
7.408605728665e-03 1.208060802184e-01 0.0 
2.565944855052e-03 1.154944739768e-01 0.0 
8.600956250712e-03 1.158243505235e-01 0.0 
7.956355739362e-03 1.045255051273e-01 0.0 
-4.011828115796e-03 1.027750037438e-01 0.0 
2.881136347976e-04 7.929434810083e-02 0.0 
2.052818592169e-04 5.680052846764e-03 0.0 
7.616610120679e-06 7.906370133665e-02 0.0 
9.143530909600e-05 1.870985587051e-02 0.0 
6.873607820267e-03 9.332660393446e-02 0.0 
7.329491591775e-03 8.945585821670e-02 0.0 
6.711154004592e-03 8.585188878956e-02 0.0 
7.250889503368e-03 8.124123672723e-02 0.0 
6.635115726705e-03 7.672438258785e-02 0.0 
7.034413629335e-03 7.244553003392e-02 0.0 
7.717947766575e-03 7.691321613262e-02 0.0 
7.393290080701e-03 6.806289069301e-02 0.0 
8.136479616949e-03 7.255307596217e-02 0.0 
6.339530605002e-03 6.766767276698e-02 0.0 
7.689125599278e-03 6.358357993113e-02 0.0 
8.489676640484e-03 6.808365730170e-02 0.0 
7.909429121388e-03 5.903980550687e-02 0.0 
8.757831646773e-03 6.351812317586e-02 0.0 
9.262497335194e-03 7.233343914351e-02 0.0 
9.575637082139e-03 6.777003192440e-02 0.0 
9.992446897114e-03 7.628535994796e-02 0.0 
1.034421442500e-02 7.170038228904e-02 0.0 
9.782911899932e-03 6.316442747731e-02 0.0 
1.057946530273e-02 6.708197686592e-02 0.0 
1.104898130766e-02 7.529866187513e-02 0.0 
1.130029465845e-02 7.065325658455e-02 0.0 
1.167246480982e-02 7.852547896915e-02 0.0 
1.192653993122e-02 7.382667485889e-02 0.0 
1.220099655434e-02 8.137300019950e-02 0.0 
1.244249930255e-02 7.661646625807e-02 0.0 
1.203002257307e-02 6.914432837491e-02 0.0 
1.252475803557e-02 7.192261206504e-02 0.0 
1.282346591832e-02 7.899040960717e-02 0.0 
1.287310978822e-02 7.429957677027e-02 0.0 
1.304687431159e-02 8.094176090392e-02 0.0 
1.305467419261e-02 7.627073616355e-02 0.0 
1.276330994354e-02 6.971779348476e-02 0.0 
1.290538655121e-02 7.175906217267e-02 0.0 
1.305171143255e-02 7.786064104824e-02 0.0 
1.286294822193e-02 7.344848969229e-02 0.0 
1.285085985848e-02 7.908973358919e-02 0.0 
1.262976234218e-02 7.480750163383e-02 0.0 
1.244855593312e-02 7.997955751703e-02 0.0 
1.220384227373e-02 7.587322763535e-02 0.0 
1.228697792134e-02 7.070223690871e-02 0.0 
1.184969934602e-02 7.194868850816e-02 0.0 
1.159251728165e-02 7.669466429065e-02 0.0 
1.124379705994e-02 7.298834774942e-02 0.0 
1.140114171666e-02 6.823650608305e-02 0.0 
1.081003900786e-02 6.950469799684e-02 0.0 
1.087300496471e-02 6.471641159790e-02 0.0 
1.030553946468e-02 6.620948256574e-02 0.0 
1.009194441377e-02 7.058806496591e-02 0.0 
9.622503389990e-03 6.752240533752e-02 0.0 
9.744167867665e-03 6.306781740635e-02 0.0 
9.098655569896e-03 6.463067963375e-02 0.0 
8.842813874921e-03 6.873134208619e-02 0.0 
8.373173105192e-03 6.604276730855e-02 0.0 
8.536550615176e-03 6.184311525767e-02 0.0 
7.859762351293e-03 6.348259759778e-02 0.0 
7.589116596162e-03 6.736364510524e-02 0.0 
7.133842468482e-03 6.500466164294e-02 0.0 
7.319516537146e-03 6.096445372850e-02 0.0 
6.644112484640e-03 6.272086029803e-02 0.0 
6.376039610156e-03 6.645157047120e-02 0.0 
5.945456618928e-03 6.435183666421e-02 0.0 
6.131741450327e-03 6.044883593812e-02 0.0 
5.483684116068e-03 6.229347739582e-02 0.0 
5.596926575475e-03 5.820726953574e-02 0.0 
5.227057831418e-03 6.593727795040e-02 0.0 
4.823735593830e-03 6.404448015588e-02 0.0 
4.513666470292e-03 6.746607815666e-02 0.0 
4.168169692705e-03 6.571308449219e-02 0.0 
1.250595637924e-02 6.526695335351e-02 0.0 
3.832287864026e-03 6.889438953785e-02 0.0 
4.096154423721e-03 7.043985344343e-02 0.0 
3.533723970241e-03 6.729622879536e-02 0.0 
3.787695219921e-03 6.394749140484e-02 0.0 
3.186303753698e-03 7.024235694366e-02 0.0 
2.930685232284e-03 6.879036315902e-02 0.0 
2.587679115994e-03 7.151042800397e-02 0.0 
1.254473220804e-02 8.451920224473e-02 0.0 
9.867600066256e-03 5.852784655499e-02 0.0 
2.369415773768e-03 7.019777589239e-02 0.0 
2.046647999865e-03 7.269616735676e-02 0.0 
2.179417623231e-03 7.384606153706e-02 0.0 
1.673385466319e-03 7.481201879497e-02 0.0 
5.992342752924e-03 7.208647075322e-02 0.0 
5.630258140071e-03 6.268291222169e-02 0.0 
5.342687750391e-03 6.722113927174e-02 0.0 
4.916597434671e-03 5.754796600886e-02 0.0 
4.686265526010e-03 6.211590303942e-02 0.0 
1.566898624838e-03 7.379654250583e-02 0.0 
7.039431247647e-03 5.408882014911e-02 0.0 
5.096980857615e-03 5.283751135769e-02 0.0 
1.127669428784e-02 8.321544644510e-02 0.0 
1.286860668711e-02 8.574477190574e-02 0.0 
1.129894214671e-02 6.303447674393e-02 0.0 
2.633205681907e-03 6.731054638113e-02 0.0 
2.104511713669e-03 6.885330619987e-02 0.0 
2.299674214018e-03 6.579488903342e-02 0.0 
6.163358566416e-03 5.608839524333e-02 0.0 
5.563583577068e-03 5.368352780219e-02 0.0 
6.033492273952e-03 5.127284032370e-02 0.0 
5.381645587822e-03 4.871176434054e-02 0.0 
5.740868510835e-03 4.600184947059e-02 0.0 
5.051044638573e-03 4.328350250761e-02 0.0 
4.735651049045e-03 4.614996710199e-02 0.0 
4.378205159304e-03 4.055279557914e-02 0.0 
4.102408262413e-03 4.357105422458e-02 0.0 
5.286210310200e-03 4.027095880625e-02 0.0 
6.019128211403e-03 4.314346050640e-02 0.0 
3.729506316078e-03 3.780097087032e-02 0.0 
3.488550689680e-03 4.095936034628e-02 0.0 
3.111513371185e-03 3.501073798548e-02 0.0 
2.900742665920e-03 3.830584735840e-02 0.0 
3.181485078960e-03 4.398266304427e-02 0.0 
2.622281257144e-03 4.146435538552e-02 0.0 
2.822507648780e-03 4.687284810844e-02 0.0 
1.068587354165e-02 5.947485006136e-02 0.0 
1.094479322442e-02 5.737427688709e-02 0.0 
1.025368737424e-02 5.377637237528e-02 0.0 
1.034031692988e-02 5.125861861246e-02 0.0 
9.578246973103e-03 4.761743538345e-02 0.0 
9.487326294845e-03 4.469181615104e-02 0.0 
8.658960356640e-03 4.099663118483e-02 0.0 
8.770633230397e-03 4.408876574567e-02 0.0 
8.047532605649e-03 5.439307283929e-02 0.0 
1.081402558485e-02 7.729421009724e-02 0.0 
1.104665444486e-02 8.100037061468e-02 0.0 
1.009552040560e-02 8.116195800964e-02 0.0 
1.019038538736e-02 8.485461894482e-02 0.0 
9.069072933101e-03 8.458006639781e-02 0.0 
8.996655215097e-03 8.827409850546e-02 0.0 
7.708790897021e-03 8.757734980708e-02 0.0 
7.851324157564e-03 8.419656663577e-02 0.0 
6.355576230527e-03 8.681561899296e-02 0.0 
6.580607265555e-03 8.377027321162e-02 0.0 
4.995237372457e-03 8.603955632254e-02 0.0 
5.302753663940e-03 8.335239908676e-02 0.0 
1.198073774875e-02 6.451995996171e-02 0.0 
1.026124788645e-02 4.848942303492e-02 0.0 
9.227274844276e-03 4.150614220720e-02 0.0 
1.000854213075e-02 4.544441658300e-02 0.0 
1.718290829019e-03 7.580180699188e-02 0.0 
2.344399732335e-03 3.559896307173e-02 0.0 
5.424067123306e-03 3.709610365134e-02 0.0 
6.201204473937e-03 4.017464504736e-02 0.0 
7.794142325195e-03 3.739442646499e-02 0.0 
1.239521984226e-03 7.569485945674e-02 0.0 
7.436379151669e-03 9.127608935341e-02 0.0 
8.776540383149e-03 9.231661206278e-02 0.0 
4.215370425236e-03 5.217064739213e-02 0.0 
4.042289662844e-03 5.681205760858e-02 0.0 
5.447455140006e-03 3.375438642477e-02 0.0 
1.151744253706e-03 7.480626897738e-02 0.0 
3.888782240100e-03 3.449817857725e-02 0.0 
4.535854647679e-03 8.903057669587e-02 0.0 
2.088674693165e-03 3.889263457298e-02 0.0 
1.824743487172e-03 3.283568807452e-02 0.0 
4.357035642967e-03 4.886759301936e-02 0.0 
8.792689375947e-03 3.803940670076e-02 0.0 
9.601336506457e-03 4.222364467775e-02 0.0 
6.696333320114e-03 8.098131865839e-02 0.0 
5.497102143752e-03 8.090072277996e-02 0.0 
4.068375292795e-03 8.296483888841e-02 0.0 
4.382691588838e-03 8.073013378029e-02 0.0 
5.598006075094e-03 7.860059906340e-02 0.0 
4.531796772561e-03 7.879816681255e-02 0.0 
3.318639227455e-03 8.067591017003e-02 0.0 
3.540044506788e-03 7.899791676950e-02 0.0 
4.601180901072e-03 7.694352197171e-02 0.0 
3.678644386238e-03 7.738015015069e-02 0.0 
2.642324936183e-03 7.921261230443e-02 0.0 
2.844050519904e-03 7.780287792071e-02 0.0 
1.992237097388e-03 2.926287825274e-02 0.0 
3.122028192458e-03 8.791643227973e-02 0.0 
9.541515318151e-03 8.078860230500e-02 0.0 
4.656674032416e-03 3.057388713693e-02 0.0 
7.511882665212e-03 3.401138555816e-02 0.0 
3.537559162308e-03 4.660745443483e-02 0.0 
3.418884913171e-03 5.132670967889e-02 0.0 
3.827990999864e-03 6.141727392505e-02 0.0 
3.254025625145e-03 5.598284275249e-02 0.0 
2.824542654625e-03 4.566233755204e-02 0.0 
2.707401222401e-03 5.040012144893e-02 0.0 
3.052189805492e-03 6.057768605999e-02 0.0 
2.549095181380e-03 5.506594861590e-02 0.0 
2.820797691719e-03 6.508987471412e-02 0.0 
2.357372886827e-03 5.965017152676e-02 0.0 
2.077219351619e-03 4.940499426173e-02 0.0 
1.922071093413e-03 5.407755557614e-02 0.0 
2.138775808493e-03 6.415755818963e-02 0.0 
1.735210034030e-03 5.867071587094e-02 0.0 
1.897479396463e-03 6.857729125066e-02 0.0 
1.521509588142e-03 6.317890019111e-02 0.0 
1.363315827101e-03 5.305505992662e-02 0.0 
8.936217790502e-04 7.642948668378e-02 0.0 
7.934119100485e-03 4.065786169206e-02 0.0 
6.908013409212e-03 3.386308066679e-02 0.0 
1.811191801324e-03 6.746399740293e-02 0.0 
1.956384837255e-03 6.423056501368e-02 0.0 
2.436801342989e-03 6.232973087386e-02 0.0 
2.014539583706e-03 6.060180698588e-02 0.0 
1.172521126159e-03 5.770189986733e-02 0.0 
1.024081524839e-03 4.732272099662e-02 0.0 
7.012245770813e-03 9.533744780442e-02 0.0 
8.385512570461e-03 9.673942165441e-02 0.0 
3.599447001039e-03 4.182268856723e-02 0.0 
1.585209100734e-03 3.626060113432e-02 0.0 
1.777690389894e-03 4.204884896614e-02 0.0 
1.296077418540e-02 8.723875214605e-02 0.0 
1.264786381222e-02 9.216322874831e-02 0.0 
1.259719247856e-02 9.320446303262e-02 0.0 
1.212436466568e-02 9.838982423063e-02 0.0 
1.214421924072e-02 9.719248335350e-02 0.0 
1.190238362334e-02 9.896968471044e-02 0.0 
6.768531336880e-03 4.612426657514e-02 0.0 
1.642950023124e-03 4.360965711357e-02 0.0 
2.252057822725e-03 7.497722262463e-02 0.0 
1.691671035825e-03 7.677643044113e-02 0.0 
1.348817222474e-03 3.000576135325e-02 0.0 
8.727628478928e-03 4.696735635455e-02 0.0 
1.137100031182e-02 6.133192366653e-02 0.0 
1.118829315277e-02 5.673757901014e-02 0.0 
1.045934034827e-02 5.313977667345e-02 0.0 
1.014071820256e-02 4.857319169660e-02 0.0 
9.288218520412e-03 4.456858963688e-02 0.0 
8.825096283095e-03 4.001883591967e-02 0.0 
9.685346267170e-03 4.408306729155e-02 0.0 
8.177421145567e-03 3.423860792653e-02 0.0 
8.228839790538e-03 3.552214733770e-02 0.0 
1.307324681249e-03 6.768905718049e-02 0.0 
1.097121540317e-02 5.247396114047e-02 0.0 
4.588195059518e-03 7.517429202496e-02 0.0 
9.144698684485e-04 7.715756517311e-02 0.0 
1.832817818548e-03 7.946190998529e-02 0.0 
8.050431170472e-04 7.570982725396e-02 0.0 
1.008979998292e-03 7.387416385945e-02 0.0 
4.511329313754e-03 2.688814042353e-02 0.0 
7.844738255696e-03 3.561466747659e-02 0.0 
8.328849288249e-03 4.023147525787e-02 0.0 
1.144615933555e-02 1.036236467299e-01 0.0 
1.145372992482e-02 1.022138645159e-01 0.0 
7.304033495536e-03 3.018464850222e-02 0.0 
5.017614499452e-03 7.176069009998e-02 0.0 
3.305690847736e-03 7.039108792337e-02 0.0 
3.013871339274e-03 7.473298553179e-02 0.0 
5.884438117193e-04 7.727398557562e-02 0.0 
1.531390518661e-03 8.065780869945e-02 0.0 
2.268920714201e-03 3.984760656467e-02 0.0 
9.957948356352e-03 9.324549071389e-02 0.0 
9.594833396872e-03 9.794507709053e-02 0.0 
2.399495865031e-03 9.084711157966e-02 0.0 
9.741181644169e-04 8.941564395569e-02 0.0 
8.640336903206e-04 5.194921117165e-02 0.0 
7.329143261787e-04 4.145778177546e-02 0.0 
2.499057131384e-03 5.845985720683e-02 0.0 
2.038405124739e-03 5.655140953346e-02 0.0 
5.339259056647e-03 3.020541951323e-02 0.0 
2.111495207923e-03 7.819965100863e-02 0.0 
8.392843405718e-04 3.657526787409e-02 0.0 
7.921344101127e-03 4.369373701897e-02 0.0 
8.541829822419e-03 4.964141291507e-02 0.0 
1.542998261514e-03 6.264367048864e-02 0.0 
6.375531174973e-03 9.982115477101e-02 0.0 
4.847170023256e-03 9.795310547746e-02 0.0 
5.508234573856e-03 7.448847800402e-02 0.0 
2.950754651620e-03 7.644469377640e-02 0.0 
6.730550953907e-04 7.489916128563e-02 0.0 
4.217820265444e-03 2.299787570926e-02 0.0 
2.288772785325e-03 3.496533159657e-02 0.0 
9.098925938957e-03 3.967431441879e-02 0.0 
1.040903499758e-02 4.783259558894e-02 0.0 
7.514172486591e-03 3.111592773334e-02 0.0 
1.216416016122e-03 7.959048080026e-02 0.0 
3.717595553158e-03 2.356078231677e-02 0.0 
1.121470207798e-03 3.356216855549e-02 0.0 
6.828431207541e-03 3.131512231090e-02 0.0 
7.274779229399e-03 3.557439765048e-02 0.0 
1.094253094756e-02 9.395738033576e-02 0.0 
1.061773674120e-02 9.881659821690e-02 0.0 
9.042512287593e-03 1.030212245069e-01 0.0 
1.006111237525e-02 1.040438929199e-01 0.0 
8.376228378711e-03 8.119022548943e-02 0.0 
1.172010333323e-02 9.429804214636e-02 0.0 
1.017728543545e-02 8.445469077724e-02 0.0 
9.605279818388e-03 8.888152552199e-02 0.0 
1.013270355838e-02 9.227158168067e-02 0.0 
1.198401251181e-02 9.557053430907e-02 0.0 
1.128687663474e-02 1.003845464691e-01 0.0 
1.116212652053e-02 8.500554070289e-02 0.0 
1.156868017297e-02 6.112948153465e-02 0.0 
2.949353503417e-03 6.031843799615e-02 0.0 
3.371193689683e-03 4.918769507100e-02 0.0 
6.684058082350e-03 5.384616433676e-02 0.0 
1.724058935251e-03 3.877810024371e-02 0.0 
1.300343249766e-03 3.275683523532e-02 0.0 
2.296859388114e-03 7.384631585050e-02 0.0 
2.012045042795e-03 7.808708110794e-02 0.0 
1.221498097424e-03 7.738360373717e-02 0.0 
1.104456504209e-03 7.820550135682e-02 0.0 
5.047644309606e-03 5.597371834014e-02 0.0 
3.899069509641e-03 2.739245719945e-02 0.0 
2.899578451521e-03 3.601665339895e-02 0.0 
2.835270224970e-03 3.108636834721e-02 0.0 
3.592069867674e-03 3.696120829546e-02 0.0 
5.081421008269e-03 2.643745654921e-02 0.0 
9.902402672064e-03 7.773251721004e-02 0.0 
1.001422766427e-02 5.607728174527e-02 0.0 
1.803169867090e-03 8.692399073467e-02 0.0 
1.222567235588e-02 6.281025449258e-02 0.0 
7.174243344520e-04 7.859220869916e-02 0.0 
8.989094016166e-03 5.433843352440e-02 0.0 
9.248291602116e-04 2.710635377422e-02 0.0 
1.070025506398e-03 2.327286198281e-02 0.0 
6.506266509259e-03 2.601085114287e-02 0.0 
7.830042819265e-03 9.344671658757e-02 0.0 
1.185988709345e-02 5.839854319863e-02 0.0 
1.211832302573e-02 6.098234454068e-02 0.0 
9.458969040176e-03 9.658159912190e-02 0.0 
9.866620057601e-03 9.971334365038e-02 0.0 
1.059066315910e-02 9.531821529530e-02 0.0 
1.019321399783e-02 1.025576216370e-01 0.0 
5.350439748310e-03 7.260096803378e-02 0.0 
4.496468403601e-03 7.349873617149e-02 0.0 
6.049982525491e-03 2.598276960824e-02 0.0 
6.547590051475e-03 2.685632626808e-02 0.0 
5.710523941105e-03 2.654961695439e-02 0.0 
6.149829937114e-03 3.056947759284e-02 0.0 
5.541362932741e-03 2.190576394983e-02 0.0 
6.367271490644e-03 2.619593718718e-02 0.0 
8.142930450983e-04 7.289044585275e-02 0.0 
1.061606343900e-02 1.070169032394e-01 0.0 
1.735850801483e-03 2.890945730127e-02 0.0 
8.988701732280e-03 9.320087324067e-02 0.0 
2.996171600613e-03 2.040973892248e-02 0.0 
3.188865065905e-03 2.420596076199e-02 0.0 
-2.892441103296e-04 8.816741690493e-02 0.0 
6.339230815977e-04 8.583024228303e-02 0.0 
5.757429127269e-04 3.073687438645e-02 0.0 
8.277943004929e-03 1.083693896744e-01 0.0 
9.258478320677e-03 1.095119172575e-01 0.0 
7.022608267198e-03 1.066894024334e-01 0.0 
1.400528893603e-04 1.219172645805e-02 0.0 
5.417005384089e-04 9.506642061497e-02 0.0 
6.955729807607e-04 2.017586998944e-02 0.0 
1.166995474710e-02 9.339430381786e-02 0.0 
6.122931470655e-04 2.524749974680e-02 0.0 
1.137475523984e-02 5.414954350350e-02 0.0 
1.284992043278e-02 8.839416278226e-02 0.0 
6.191264136481e-03 3.353716607300e-02 0.0 
4.687266890360e-04 3.661142940775e-02 0.0 
3.446818427310e-04 2.430135624361e-02 0.0 
3.464963108490e-03 7.966389623478e-02 0.0 
3.137657724269e-03 8.398362743444e-02 0.0 
3.804919080301e-03 7.553432206430e-02 0.0 
3.950448774507e-03 9.235506491525e-02 0.0 
1.263688630674e-03 9.465374199144e-02 0.0 
1.251240714446e-03 3.768362986420e-02 0.0 
1.629023923023e-03 7.030297796969e-02 0.0 
1.342422128239e-03 6.873244491954e-02 0.0 
2.232603198318e-03 7.710107089669e-02 0.0 
2.953213894030e-03 7.518315304106e-02 0.0 
2.988665951190e-03 5.622993912376e-02 0.0 
3.472768568029e-03 5.821602603866e-02 0.0 
8.909609276321e-03 4.962858535611e-02 0.0 
7.948812972787e-03 4.518463023206e-02 0.0 
1.064015912096e-02 5.779830542414e-02 0.0 
7.769900219932e-03 4.652288060177e-02 0.0 
8.229947794208e-03 5.212612376214e-02 0.0 
8.948660159959e-03 5.510180233471e-02 0.0 
1.315860016390e-03 2.812541779611e-02 0.0 
8.751753435861e-04 2.095306786730e-02 0.0 
6.234530303027e-03 7.171704701715e-02 0.0 
6.462284057512e-03 7.381074966688e-02 0.0 
5.119066280215e-03 7.086265363579e-02 0.0 
1.654606651099e-03 2.408004449850e-02 0.0 
7.701727767746e-04 1.626980030089e-02 0.0 
1.140714554659e-03 1.956314782816e-02 0.0 
5.260478881321e-04 7.923933680056e-02 0.0 
9.134116574696e-04 7.900929898258e-02 0.0 
3.960026903778e-03 1.024380255060e-01 0.0 
2.267256381815e-03 1.001985885084e-01 0.0 
2.728284492570e-03 2.652584652557e-02 0.0 
3.511084342173e-03 3.212032555873e-02 0.0 
1.925909740013e-03 2.000357845285e-02 0.0 
4.837609852946e-04 7.414185645032e-02 0.0 
9.800858842999e-03 4.337281169796e-02 0.0 
3.858963756524e-03 1.928663308292e-02 0.0 
4.765895879180e-03 2.288817868750e-02 0.0 
2.835739159630e-03 1.481573298966e-02 0.0 
7.454728964539e-03 3.043816345552e-02 0.0 
5.635893966898e-03 2.196834595933e-02 0.0 
5.615165930941e-03 2.213533251598e-02 0.0 
-1.355931758184e-03 9.047922948553e-02 0.0 
2.620918528986e-04 2.895280593392e-02 0.0 
2.395964617294e-03 8.314644858828e-02 0.0 
-2.188628486414e-03 8.918963970465e-02 0.0 
2.075046059894e-03 8.751467358799e-02 0.0 
1.731015403674e-03 8.229961328754e-02 0.0 
1.796752272653e-03 9.174849118726e-02 0.0 
3.966100703969e-04 7.582807913347e-02 0.0 
3.957809178595e-03 8.608719494560e-02 0.0 
4.347385564083e-03 8.089441921914e-02 0.0 
1.149949845468e-04 8.004904970117e-02 0.0 
1.119331965047e-03 1.793558089808e-02 0.0 
2.600761003832e-04 7.938542698925e-02 0.0 
4.479056183263e-04 7.887364119703e-02 0.0 
2.307087031242e-03 1.696923536929e-02 0.0 
2.528511888100e-03 2.095861698453e-02 0.0 
1.681535922338e-03 1.364061981769e-02 0.0 
1.969794382787e-03 1.806411428619e-02 0.0 
2.645044691520e-03 2.493074067823e-02 0.0 
2.064673425585e-03 2.178725621461e-02 0.0 
2.818477792085e-03 8.883222519612e-02 0.0 
1.355526497230e-03 1.369005585194e-02 0.0 
1.534077507402e-03 1.843492519050e-02 0.0 
8.942606336671e-04 1.053667494591e-02 0.0 
9.351943629098e-03 1.067494887628e-01 0.0 
1.072118090198e-02 1.047300087481e-01 0.0 
9.876006035789e-03 1.102478820126e-01 0.0 
8.125096036511e-03 1.155091644411e-01 0.0 
4.148043026986e-03 1.939485004412e-02 0.0 
5.073062893438e-03 2.580875284413e-02 0.0 
7.001709510771e-04 3.065587640232e-02 0.0 
8.004943009663e-04 3.684301863994e-02 0.0 
1.431607538832e-03 8.709595834302e-02 0.0 
1.043766683484e-03 8.746534774964e-02 0.0 
1.137236476183e-03 7.917282559400e-02 0.0 
8.203467997247e-04 8.019818261707e-02 0.0 
8.742553994526e-04 7.176707412852e-02 0.0 
5.625496561365e-04 7.285762368444e-02 0.0 
6.658797447890e-04 6.413061337462e-02 0.0 
4.473996564874e-03 1.752684062761e-02 0.0 
5.844402105464e-03 1.120585731197e-01 0.0 
8.744013010704e-03 1.007952240946e-01 0.0 
4.517795779315e-03 1.784182206275e-02 0.0 
5.535492527159e-03 2.294656923320e-02 0.0 
1.047312822332e-02 1.050149093866e-01 0.0 
9.655332457140e-03 1.117572599651e-01 0.0 
2.470515767717e-03 1.517250736609e-02 0.0 
1.190008143391e-02 8.956408332278e-02 0.0 
8.362736061171e-04 1.151617216728e-02 0.0 
-5.190329112165e-03 9.741380804240e-02 0.0 
-2.012445857262e-03 9.544013133978e-02 0.0 
1.247404979771e-02 8.935830896452e-02 0.0 
1.098005203111e-02 9.804037498416e-02 0.0 
1.119285932728e-02 1.045990630424e-01 0.0 
1.040183448271e-02 1.096576019625e-01 0.0 
7.100283043659e-03 4.038340932534e-02 0.0 
6.076249079251e-04 7.985705774461e-02 0.0 
5.561856830930e-03 1.046475723708e-01 0.0 
9.659331440697e-04 6.314097039757e-02 0.0 
2.740846505427e-03 1.071650512802e-01 0.0 
3.672830955264e-04 3.350845780771e-02 0.0 
1.195043868049e-02 8.493252083597e-02 0.0 
1.222372358505e-02 8.863285266880e-02 0.0 
7.806889424039e-03 1.015200336206e-01 0.0 
1.143015101109e-02 9.909401915015e-02 0.0 
8.860227436598e-03 7.683121344932e-02 0.0 
7.856283874563e-03 8.541157683718e-02 0.0 
8.420390020447e-03 8.949088685990e-02 0.0 
1.183858430646e-02 8.066175774356e-02 0.0 
1.061117415993e-02 1.085740996434e-01 0.0 
9.347332375208e-03 1.150072526041e-01 0.0 
1.067262665929e-02 7.993669036887e-02 0.0 
4.388859850812e-03 4.264304405523e-02 0.0 
4.359314113925e-03 3.777568223595e-02 0.0 
3.366827123919e-03 2.753357387827e-02 0.0 
4.243674480418e-03 3.295922438567e-02 0.0 
5.242980171723e-03 4.330096227662e-02 0.0 
5.184343459817e-03 3.848709385304e-02 0.0 
4.030117657388e-03 2.824961394359e-02 0.0 
5.025472792382e-03 3.367736202109e-02 0.0 
3.394936864844e-03 2.131171315831e-02 0.0 
4.708596010774e-03 2.863945600411e-02 0.0 
6.050589179274e-03 3.917576898864e-02 0.0 
5.846670684316e-03 3.458729075263e-02 0.0 
4.491781794925e-03 2.513800632216e-02 0.0 
7.104057496454e-03 4.494169663988e-02 0.0 
3.545101479959e-03 1.345014289433e-02 0.0 
1.292659177407e-02 8.370631724377e-02 0.0 
-6.447370947063e-05 9.230812226176e-02 0.0 
-6.197182350639e-04 9.789383921339e-02 0.0 
1.179716271189e-02 8.610705111778e-02 0.0 
1.654563252994e-03 1.037517935716e-02 0.0 
1.339102963005e-03 1.029809737871e-02 0.0 
1.014587566029e-02 8.889329010981e-02 0.0 
2.133543778040e-03 9.222066006150e-03 0.0 
9.004188916061e-03 8.519149946553e-02 0.0 
5.990066269377e-03 9.018850246861e-02 0.0 
2.287108161390e-03 9.011055811862e-03 0.0 
5.210393201837e-03 4.807501212736e-02 0.0 
6.045014595619e-03 5.349017708952e-02 0.0 
5.867990839958e-03 5.812818526582e-02 0.0 
1.024034083306e-03 9.657438823411e-03 0.0 
4.133084110145e-03 7.122396053724e-02 0.0 
2.170051322760e-03 7.903582413595e-03 0.0 
1.104160183660e-02 5.503560270771e-02 0.0 
1.167325663207e-02 5.906150367739e-02 0.0 
1.210844307428e-02 6.511960114393e-02 0.0 
6.152337293703e-03 4.408626166816e-02 0.0 
2.017188111723e-03 7.883064953891e-03 0.0 
3.633767104834e-03 1.499828661502e-02 0.0 
3.418552924262e-03 1.479688511094e-02 0.0 
5.080789275199e-03 2.224223403001e-02 0.0 
1.779188700227e-03 7.637537231634e-03 0.0 
1.737908742018e-03 9.177848010512e-03 0.0 
1.762611932448e-03 8.633601304114e-03 0.0 
5.591766422301e-03 7.649274462263e-02 0.0 
6.627156412936e-03 7.601924459984e-02 0.0 
7.429455936493e-03 7.309995434869e-02 0.0 
7.666226940343e-03 7.555608489253e-02 0.0 
6.707819188633e-03 7.841231641797e-02 0.0 
7.819378194079e-03 7.821161117783e-02 0.0 
8.673199666044e-03 7.508498030797e-02 0.0 
7.880159258945e-03 8.109731484310e-02 0.0 
6.605827892542e-03 3.547692389348e-02 0.0 
1.479173903871e-03 7.193860358653e-03 0.0 
6.440331654145e-03 4.873805838576e-02 0.0 
7.140530415139e-03 5.155285949859e-02 0.0 
7.322165054313e-03 5.649077498322e-02 0.0 
3.380328928983e-03 6.214318942204e-02 0.0 
3.942159763040e-03 6.018299240607e-02 0.0 
3.991230129625e-03 5.600351757342e-02 0.0 
2.829071968193e-03 6.402094984404e-02 0.0 
1.086426326693e-02 5.223365986496e-02 0.0 
1.354156975657e-03 7.187715094167e-03 0.0 
9.295748014298e-03 5.280206938473e-02 0.0 
4.393946368978e-03 6.213011483392e-02 0.0 
5.270431797632e-03 9.455588590934e-02 0.0 
5.518692431128e-03 8.698581655417e-02 0.0 
6.065718812943e-03 8.656697143522e-02 0.0 
5.659037323634e-03 7.791116184187e-02 0.0 
4.906026793657e-03 8.614416882402e-02 0.0 
2.498128019768e-03 5.418995110005e-02 0.0 
2.006906471911e-03 5.210241729956e-02 0.0 
1.569819196209e-03 5.459441084360e-02 0.0 
1.519568650181e-03 4.995916735400e-02 0.0 
1.098928778328e-03 5.256514269659e-02 0.0 
1.135779492853e-03 5.687014924427e-02 0.0 
1.030803186509e-03 4.775231199899e-02 0.0 
6.354625957409e-04 5.102086122257e-02 0.0 
4.234026999160e-03 9.481849695491e-02 0.0 
-2.339657399935e-03 8.527231206592e-02 0.0 
-7.778948378032e-04 8.409610813308e-02 0.0 
-5.927930293376e-04 8.292733434405e-02 0.0 
4.606948213792e-04 8.281470920406e-02 0.0 
5.185963475278e-04 8.400061806731e-02 0.0 
1.885985486447e-03 8.227342943591e-02 0.0 
1.825447945265e-03 8.381004716223e-02 0.0 
-1.002839112811e-03 8.560369706473e-02 0.0 
-1.492002287208e-03 8.287615300776e-02 0.0 
-3.914794030925e-04 8.199152036373e-02 0.0 
-1.148421364107e-03 8.201260588544e-02 0.0 
-2.595527889353e-04 8.125875555151e-02 0.0 
6.947640119065e-04 8.080735313614e-02 0.0 
1.614576689743e-03 7.769613940431e-02 0.0 
3.953799851491e-04 8.176819835134e-03 0.0 
4.151492895576e-04 6.255459621648e-02 0.0 
7.899672686778e-04 6.433801254045e-02 0.0 
7.201837869010e-04 6.743552574269e-02 0.0 
1.163478792904e-03 6.584695337922e-02 0.0 
7.924456361257e-04 6.107022008790e-02 0.0 
3.418273593410e-04 6.894970121545e-02 0.0 
6.467197622181e-04 6.992679647027e-02 0.0 
2.481698124919e-05 7.909742149394e-02 0.0 
9.809270117293e-05 7.874070961267e-02 0.0 
3.317269531149e-05 7.875561882890e-02 0.0 
1.498661609317e-04 7.809551798068e-02 0.0 
2.391725403859e-04 7.816313609371e-02 0.0 
1.493915892998e-04 7.879271845806e-02 0.0 
1.857253320720e-04 7.889106147295e-02 0.0 
-9.762844734572e-07 7.930064813765e-02 0.0 
2.088873428891e-04 7.902446326609e-02 0.0 
4.261661175423e-04 7.830162085382e-02 0.0 
-4.530997799068e-05 7.945919049829e-02 0.0 
2.097002620829e-04 5.083611360381e-02 0.0 
3.996723949685e-04 4.564028782056e-02 0.0 
1.179484526519e-03 7.533750787758e-03 0.0 
3.268457086959e-03 9.420722719847e-02 0.0 
-6.017900295262e-04 8.075908743533e-02 0.0 
3.169664755357e-04 1.232678877673e-02 0.0 
4.803490465888e-04 1.024630238425e-02 0.0 
3.932584116452e-04 9.921845508907e-03 0.0 
2.309137943124e-04 1.988742091083e-02 0.0 
3.753086026369e-04 1.633915120270e-02 0.0 
1.671999988818e-04 1.197846074504e-02 0.0 
2.751045409971e-03 7.280001925386e-02 0.0 
3.128172558269e-03 2.300792654244e-02 0.0 
9.056150276394e-04 3.160991977769e-02 0.0 
5.517949033515e-03 9.384933054468e-02 0.0 
3.693681588283e-03 7.436225303094e-02 0.0 
1.267837472798e-03 3.949565892588e-02 0.0 
3.761674987169e-03 4.643380691271e-02 0.0 
1.504519911291e-03 2.636079891005e-02 0.0 
2.290028906495e-03 4.448759665821e-02 0.0 
2.530308328168e-03 3.216341902007e-02 0.0 
3.283264253494e-03 1.509232512336e-02 0.0 
5.350170868834e-04 7.647179222259e-02 0.0 
2.567369737034e-03 6.951133305314e-02 0.0 
1.654302013112e-03 7.294687305730e-02 0.0 
1.520786450078e-03 4.837336281048e-02 0.0 
1.860605916489e-03 7.151860829046e-02 0.0 
1.593623084088e-03 5.860966272722e-02 0.0 
1.269625675859e-03 7.653932100542e-02 0.0 
4.095353399806e-03 1.716097635924e-02 0.0 
1.074235608596e-02 8.781408922913e-02 0.0 
6.750523040194e-03 5.851485511597e-02 0.0 
3.197370265941e-03 6.567255801600e-02 0.0 
3.396818462422e-03 7.164905602278e-02 0.0 
3.729980460917e-03 7.582882724385e-02 0.0 
1.309011968063e-02 8.250088806599e-02 0.0 
5.001959763527e-03 6.021941357919e-02 0.0 
4.573650105056e-03 3.739489799810e-02 0.0 
1.157723433269e-03 4.254259880094e-02 0.0 
-1.904164882929e-04 7.990215512006e-02 0.0 
4.672027409970e-03 3.407206154708e-02 0.0 
4.959856165587e-03 5.128231142499e-02 0.0 
3.581331795795e-03 6.595922225883e-02 0.0 
8.385889655560e-03 3.768422531748e-02 0.0 
2.387152977867e-03 8.059448170869e-02 0.0 
2.195972257168e-03 4.467460758024e-02 0.0 
2.169395881411e-03 2.570586148080e-02 0.0 
4.684289541964e-03 7.629081417332e-02 0.0 
8.371082157497e-04 7.791630089387e-02 0.0 
2.718514268048e-03 7.911845731336e-02 0.0 
3.389566879776e-03 1.952159042319e-02 0.0 
4.334648287516e-03 4.742874502777e-02 0.0 
1.405663800705e-03 7.274580048834e-02 0.0 
1.028093260450e-02 6.136633645359e-02 0.0 
1.260825741480e-02 8.377529018178e-02 0.0 
7.632286481469e-03 1.010314236518e-01 0.0 
9.358357278983e-04 2.698432956720e-02 0.0 
1.261668708426e-02 6.742547548636e-02 0.0 
6.582698858718e-03 3.021349037655e-02 0.0 
9.509957299541e-03 5.031337992916e-02 0.0 
1.200405040347e-03 7.160574428765e-02 0.0 
3.271510842721e-03 2.797472467880e-02 0.0 
1.183725686033e-02 6.676831419434e-02 0.0 
1.761592241053e-03 3.394070528099e-02 0.0 
9.617298227395e-03 4.919385554018e-02 0.0 
1.049261275898e-02 7.384120123081e-02 0.0 
2.892069059595e-03 4.087382908857e-02 0.0 
7.940690918960e-03 5.914998610444e-02 0.0 
7.933518268900e-03 3.407798629770e-02 0.0 
1.124844633463e-02 9.077201361032e-02 0.0 
1.140856898615e-02 6.598399990090e-02 0.0 
8.938603970786e-03 5.899546695588e-02 0.0 
1.244958965601e-02 6.730745657147e-02 0.0 
8.648139908836e-04 4.262180509701e-02 0.0 
3.951383948252e-03 3.103822435718e-02 0.0 
3.689584205854e-03 8.535009492513e-02 0.0 
1.230577692974e-02 9.393479935767e-02 0.0 
4.418988260358e-03 6.667108764982e-02 0.0 
7.287405679168e-03 3.136199253207e-02 0.0 
1.242419127939e-03 2.274449166087e-02 0.0 
1.251514596519e-02 9.063281993961e-02 0.0 
3.241180149905e-03 3.158603854392e-02 0.0 
2.261396100915e-03 3.036330839091e-02 0.0 
4.502831350853e-03 5.813056604210e-02 0.0 
1.915920371329e-04 7.559663590701e-02 0.0 
3.267776962925e-03 9.604723755685e-02 0.0 
9.027018180602e-03 8.117875431977e-02 0.0 
1.254411855989e-02 6.921946969721e-02 0.0 
4.491417800638e-03 5.371453514680e-02 0.0 
2.402116779262e-03 2.046881194886e-02 0.0 
2.634911291001e-03 2.862804439876e-02 0.0 
6.260057191600e-03 3.696587810916e-02 0.0 
-2.276589838567e-03 1.059746281234e-01 0.0 
8.333185635393e-03 9.718646413839e-02 0.0 
2.076677144660e-03 2.561024055466e-02 0.0 
9.636925643670e-03 5.817254699452e-02 0.0 
7.037922356583e-03 3.028306656313e-02 0.0 
6.895550924330e-04 5.512022686984e-02 0.0 
4.236409065160e-03 1.709442687264e-02 0.0 
9.599675288991e-03 1.092701503600e-01 0.0 
1.571575091845e-03 2.252648519985e-02 0.0 
7.078180463413e-03 3.721441234388e-02 0.0 
1.112964853259e-02 8.931996437046e-02 0.0 
8.987960500685e-04 9.506534752376e-02 0.0 
9.961794219451e-04 1.411948244507e-02 0.0 
5.963304491743e-03 2.990251590635e-02 0.0 
1.178195557536e-02 5.997046104263e-02 0.0 
9.134199917603e-03 6.008260430815e-02 0.0 
8.257553671053e-03 1.078015588072e-01 0.0 
3.930327555665e-03 5.144314025105e-02 0.0 
1.068508051783e-02 6.247187702491e-02 0.0 
8.900063729001e-04 9.432651972795e-03 0.0 
5.680273087241e-03 2.662958104789e-02 0.0 
6.641808298180e-03 6.339566780174e-02 0.0 
3.470707097709e-03 5.390350447604e-02 0.0 
1.075674313672e-02 4.983979844338e-02 0.0 
3.334450466611e-04 7.822746709733e-02 0.0 
9.079411497637e-03 1.038514403132e-01 0.0 
2.946508945302e-03 5.174854687804e-02 0.0 
8.890886573072e-03 7.802431920936e-02 0.0 
8.489323827887e-03 5.720654000536e-02 0.0 
4.669671644960e-03 1.786873720608e-02 0.0 
2.428335599760e-03 4.954143253917e-02 0.0 
9.625851814303e-03 7.451266131387e-02 0.0 
1.919644093380e-03 4.728213974288e-02 0.0 
8.604580354878e-03 1.134583743964e-01 0.0 
6.872343178583e-03 5.864434779941e-02 0.0 
1.405906768157e-03 4.495990681280e-02 0.0 
9.816330036574e-03 5.388096591946e-02 0.0 
5.231055081770e-04 7.839534204623e-02 0.0 
1.144521788969e-02 5.554373777378e-02 0.0 
5.443328931206e-04 2.367259629405e-02 0.0 
4.832091721454e-03 6.916656503382e-02 0.0 
7.827179432946e-03 5.441622862911e-02 0.0 
6.141323026442e-03 4.878323329646e-02 0.0 
8.497530785331e-03 1.179480678875e-01 0.0 
7.511745229821e-03 4.914616939592e-02 0.0 
8.690241881433e-03 4.495388337204e-02 0.0 
1.097492836844e-02 5.119952117490e-02 0.0 
1.220171908819e-02 6.319954814647e-02 0.0 
6.989108647282e-03 4.332314082782e-02 0.0 
9.642319021376e-03 1.132463087742e-01 0.0 
2.845745282351e-03 7.407424936513e-02 0.0 
2.270179381266e-03 7.603904024378e-02 0.0 
9.269101217858e-03 7.152566087610e-02 0.0 
7.672431769164e-03 4.033307663007e-02 0.0 
3.078677041392e-04 7.727559240699e-02 0.0 
7.112561353854e-03 4.938887459756e-02 0.0 
1.449684413860e-03 7.864583826085e-02 0.0 
8.374486517940e-03 7.235295644649e-02 0.0 
8.979786305736e-03 3.841823710773e-02 0.0 
2.539651705260e-04 7.043589943134e-02 0.0 
8.009992821094e-03 6.978173368157e-02 0.0 
2.367908298991e-04 7.373835036649e-02 0.0 
7.130954599108e-03 7.079235072268e-02 0.0 
1.160280517255e-02 5.670929366610e-02 0.0 
6.780531413229e-03 6.855873310703e-02 0.0 
5.947432404602e-03 6.972831118431e-02 0.0 
6.209699681402e-04 2.078269815132e-02 0.0 
5.609980869208e-03 6.780137580086e-02 0.0 
7.909257277110e-05 9.938017694770e-03 0.0 
1.654345308115e-04 7.436020850514e-03 0.0 
3.387162598172e-04 8.854574067985e-02 0.0 
7.616822269325e-03 1.214994995018e-01 0.0 
-4.060634046165e-03 9.126297463270e-02 0.0 
9.166000314833e-03 1.144113447672e-01 0.0 
4.325888568015e-03 7.195459914147e-02 0.0 
8.075726635647e-03 4.987453976182e-02 0.0 
7.038664952149e-04 8.813760969435e-02 0.0 
3.564499246195e-03 7.301209142403e-02 0.0 
3.255983756393e-03 1.849783824257e-02 0.0 
2.185613930822e-03 8.110619065612e-03 0.0 
4.562096403691e-04 5.540807262685e-02 0.0 
6.188348745332e-03 2.691339027499e-02 0.0 
1.033965776940e-02 4.663707971120e-02 0.0 
1.286093640311e-04 3.005160414582e-02 0.0 
2.093583771772e-03 9.570753887218e-02 0.0 
-1.291316492743e-04 8.065876824191e-02 0.0 
4.170511456932e-04 3.960118881301e-02 0.0 
6.084797380078e-03 1.218657424629e-01 0.0 
7.041354086361e-03 1.140408620705e-01 0.0 
4.257888789480e-03 1.098097871683e-01 0.0 
9.384457149331e-04 7.066089506766e-02 0.0 
4.706421515529e-04 8.181469351296e-02 0.0 
4.166671714461e-03 1.178998710770e-01 0.0 
3.908245901065e-03 1.568062193309e-02 0.0 
3.525131351083e-03 8.791970015330e-02 0.0 
8.395344034263e-03 3.535991266481e-02 0.0 
1.002107171853e-03 1.124701583893e-01 0.0 
1.550464670514e-03 1.996121670706e-02 0.0 
4.413126202801e-03 1.674641665094e-02 0.0 
8.331343420672e-04 6.589795313169e-03 0.0 
6.597909617329e-03 2.639796905565e-02 0.0 
9.663767201303e-04 1.044094623473e-01 0.0 
5.180705482829e-03 7.991904442576e-02 0.0 
3.941597825848e-03 1.727949390554e-02 0.0 
6.146455713463e-04 4.714658119534e-02 0.0 
5.982831172794e-04 6.296456521090e-03 0.0 
4.447122260204e-03 8.859766424995e-02 0.0 
3.795330709986e-04 1.941163758517e-02 0.0 
2.528543827777e-03 8.476157873056e-02 0.0 
1.880724332761e-04 1.884042893925e-02 0.0 
6.918523637281e-03 4.013295018552e-02 0.0 
1.428065503253e-03 7.722603471039e-02 0.0 
6.228443664386e-03 7.990615954284e-02 0.0 
4.546796955367e-04 1.286691557812e-02 0.0 
2.801322273428e-03 1.894223395141e-02 0.0 
-7.502280064375e-04 1.012115248726e-01 0.0 
7.153803306540e-04 5.642696589981e-02 0.0 
1.569077917364e-03 6.585886127075e-02 0.0 
-1.601167521205e-03 8.742858285543e-02 0.0 
2.058090962864e-03 1.377953718958e-02 0.0 
5.554287392448e-03 3.039863064460e-02 0.0 
7.597348062881e-04 1.314845405759e-02 0.0 
6.121009156374e-05 7.814108890396e-02 0.0 
2.777848630554e-05 7.983854517380e-02 0.0 
2.296515487929e-03 1.290147683179e-02 0.0 
3.395314292465e-03 1.671388255886e-02 0.0 
3.147717979337e-03 8.219615211854e-02 0.0 
5.140508491426e-04 8.035791323701e-03 0.0 
-3.036651981033e-03 9.899468612432e-02 0.0 
2.865394407889e-03 9.658119821206e-02 0.0 
1.881275828726e-04 7.922635935499e-02 0.0 
4.796437068816e-04 6.353223135106e-03 0.0 
9.177392265573e-04 1.859828653945e-02 0.0 
1.111528532055e-03 6.275068899629e-02 0.0 
6.322691671067e-03 9.320918357592e-02 0.0 
5.542084743898e-04 7.225775561491e-02 0.0 
5.740516222333e-03 2.361777223727e-02 0.0 
4.522919062451e-04 8.043760023980e-02 0.0 
6.213088848933e-04 1.756500531874e-02 0.0 
2.652394671677e-03 1.279452652682e-02 0.0 
1.888572420767e-03 1.742852497731e-02 0.0 
1.610179498273e-03 5.943360994336e-03 0.0 
-2.429502315282e-03 9.270375605546e-02 0.0 
3.824157679453e-03 1.454862329696e-02 0.0 
4.466462407719e-03 2.028805741212e-02 0.0 
1.572254312894e-03 9.606580092729e-02 0.0 
2.410775234535e-03 1.860434300202e-02 0.0 
9.984128287825e-04 6.844994661137e-02 0.0 
6.805744292077e-04 7.752254913455e-02 0.0 
3.517021853552e-05 8.807191422082e-03 0.0 
-3.854825270190e-06 7.904485459418e-02 0.0 
2.629174000447e-04 9.603877454376e-02 0.0 
6.652143531962e-05 6.065077164644e-03 0.0 
3.969077670651e-04 7.753289410269e-02 0.0 
5.564284359776e-04 8.199044750826e-02 0.0 
3.090352074628e-03 1.623839955156e-02 0.0 
2.972711369183e-04 5.436952887765e-02 0.0 
3.045200914606e-04 3.720533098688e-02 0.0 
1.342281827790e-03 8.159284744241e-02 0.0 
-3.793363038450e-03 8.880528431890e-02 0.0 
4.404456926914e-04 6.559541061429e-02 0.0 
3.939503570469e-03 1.482072654612e-02 0.0 
1.450126810104e-03 1.670864295449e-02 0.0 
1.140490054546e-03 7.209793440324e-02 0.0 
1.328044761746e-03 9.795954214204e-02 0.0 
4.355685990674e-03 2.290569692459e-02 0.0 
1.195175155567e-03 5.990739115070e-02 0.0 
5.370469592706e-03 2.375407254284e-02 0.0 
4.966250460317e-03 2.092564152396e-02 0.0 
-5.399932693688e-03 1.004578842685e-01 0.0 
2.705276338508e-04 4.980283244350e-02 0.0 
1.309605873803e-04 7.943817553085e-02 0.0 
1.374229794024e-03 1.214388537873e-02 0.0 
7.930729351348e-04 5.808795742372e-02 0.0 
4.428818461200e-03 1.289382485413e-01 0.0 
1.831265177475e-04 1.405717316330e-01 0.0 
6.263906750769e-03 1.270869758252e-01 0.0 
1.841640118063e-04 1.345488011748e-01 0.0 
7.115701657152e-03 1.234572110904e-01 0.0 
1.674178337158e-04 1.280987493646e-01 0.0 
7.332885173477e-03 1.185582621602e-01 0.0 
1.849823354823e-04 1.212176433358e-01 0.0 
7.128855401480e-03 1.125189714351e-01 0.0 
1.686517184886e-04 1.139053773717e-01 0.0 
6.630531276643e-03 1.057018028885e-01 0.0 
1.842630566682e-04 1.061646804754e-01 0.0 

TENSORS node_materi_stress float
-3.951037234476e+00 2.693359539617e-02 0.0 
2.693359539617e-02 -8.531726100768e+00 0.0 
0.0 0.0 -3.663082275653e+00 
-5.572751421220e+01 4.418560993096e-01 0.0 
4.418560993096e-01 -1.180075853646e+02 0.0 
0.0 0.0 -5.172052987303e+01 
-1.624692017231e+02 -9.252901399675e-02 0.0 
-9.252901399675e-02 -3.819487336360e+02 0.0 
0.0 0.0 -1.629253806077e+02 
-1.313714287848e+02 5.599204724065e-01 0.0 
5.599204724065e-01 -3.067852633538e+02 0.0 
0.0 0.0 -1.310470076416e+02 
-8.450460082648e+00 -2.750257659113e-01 0.0 
-2.750257659113e-01 -2.075539082566e+01 0.0 
0.0 0.0 -8.573924122547e+00 
-1.558167168410e+01 -6.280781707642e-01 0.0 
-6.280781707642e-01 -4.032985075079e+01 0.0 
0.0 0.0 -1.637345673047e+01 
-2.237062216858e+01 -4.946429925391e-01 0.0 
-4.946429925391e-01 -5.855445811611e+01 0.0 
0.0 0.0 -2.387752408541e+01 
-3.026551494887e+01 -4.561291525043e-01 0.0 
-4.561291525043e-01 -7.937899531913e+01 0.0 
0.0 0.0 -3.249335308040e+01 
-3.768070937801e+01 -3.367548235937e-01 0.0 
-3.367548235937e-01 -9.936957642861e+01 0.0 
0.0 0.0 -4.071508574199e+01 
-4.528881809047e+01 -3.146964397236e-01 0.0 
-3.146964397236e-01 -1.190761359843e+02 0.0 
0.0 0.0 -4.890948622242e+01 
-5.285047288713e+01 -3.378363101640e-01 0.0 
-3.378363101640e-01 -1.387620496100e+02 0.0 
0.0 0.0 -5.708375674914e+01 
-6.043125363588e+01 -2.893111426290e-01 0.0 
-2.893111426290e-01 -1.584073621857e+02 0.0 
0.0 0.0 -6.525158474647e+01 
-6.818380998173e+01 -2.697259394638e-01 0.0 
-2.697259394638e-01 -1.780203414406e+02 0.0 
0.0 0.0 -7.346124542669e+01 
-7.605351020004e+01 -3.210398484346e-01 0.0 
-3.210398484346e-01 -1.977810294194e+02 0.0 
0.0 0.0 -8.175036188583e+01 
-8.424294156238e+01 -4.668802617556e-01 0.0 
-4.668802617556e-01 -2.179806158331e+02 0.0 
0.0 0.0 -9.026706721865e+01 
-9.273193450805e+01 -4.810378329161e-01 0.0 
-4.810378329161e-01 -2.374834343947e+02 0.0 
0.0 0.0 -9.866461067082e+01 
-1.006868286032e+02 -6.050454496461e-01 0.0 
-6.050454496461e-01 -2.552164641585e+02 0.0 
0.0 0.0 -1.063709878285e+02 
-1.093341731660e+02 -1.560345554080e-01 0.0 
-1.560345554080e-01 -2.746469088010e+02 0.0 
0.0 0.0 -1.147943245901e+02 
-1.185409582266e+02 -1.178000973667e-01 0.0 
-1.178000973667e-01 -2.945144990339e+02 0.0 
0.0 0.0 -1.235166371782e+02 
-1.277123924293e+02 -1.003983296377e-01 0.0 
-1.003983296377e-01 -3.137247093664e+02 0.0 
0.0 0.0 -1.320311305387e+02 
-1.371354250753e+02 -5.956354990427e-02 0.0 
-5.956354990427e-02 -3.330150086136e+02 0.0 
0.0 0.0 -1.406451301067e+02 
-1.468608828086e+02 -8.329054494883e-02 0.0 
-8.329054494883e-02 -3.523944359195e+02 0.0 
0.0 0.0 -1.493765956184e+02 
-1.563623487200e+02 -1.535423441381e-01 0.0 
-1.535423441381e-01 -3.708300982526e+02 0.0 
0.0 0.0 -1.577577340918e+02 
-1.318044951701e+02 4.690047349942e-01 0.0 
4.690047349942e-01 -3.079153425319e+02 0.0 
0.0 0.0 -1.315159513106e+02 
-1.312507102745e+02 8.212822687699e-01 0.0 
8.212822687699e-01 -3.068965589911e+02 0.0 
0.0 0.0 -1.310441807797e+02 
-1.313981938976e+02 1.459012073901e+00 0.0 
1.459012073901e+00 -3.071997945070e+02 0.0 
0.0 0.0 -1.311793965214e+02 
-1.313724959532e+02 1.494688296291e+00 0.0 
1.494688296291e+00 -3.072565861462e+02 0.0 
0.0 0.0 -1.311887246298e+02 
-1.312213242886e+02 2.061466794403e+00 0.0 
2.061466794403e+00 -3.067265649371e+02 0.0 
0.0 0.0 -1.309843667677e+02 
-1.315841985477e+02 2.500418213984e+00 0.0 
2.500418213984e+00 -3.074975916173e+02 0.0 
0.0 0.0 -1.313245370495e+02 
-1.319644796892e+02 3.006556477716e+00 0.0 
3.006556477716e+00 -3.079564161389e+02 0.0 
0.0 0.0 -1.315762687484e+02 
-1.317803288879e+02 3.619917508775e+00 0.0 
3.619917508775e+00 -3.078889461678e+02 0.0 
0.0 0.0 -1.315007825167e+02 
-1.323395041899e+02 4.323431184160e+00 0.0 
4.323431184160e+00 -3.089798202878e+02 0.0 
0.0 0.0 -1.319957973433e+02 
-1.324286136378e+02 4.657171144627e+00 0.0 
4.657171144627e+00 -3.093495719444e+02 0.0 
0.0 0.0 -1.321334556747e+02 
-1.325118086166e+02 5.434763090196e+00 0.0 
5.434763090196e+00 -3.092361423905e+02 0.0 
0.0 0.0 -1.321243853021e+02 
-1.330049457280e+02 6.160351438411e+00 0.0 
6.160351438411e+00 -3.104490550343e+02 0.0 
0.0 0.0 -1.326362002287e+02 
-1.337751387992e+02 6.922197681787e+00 0.0 
6.922197681787e+00 -3.117423432492e+02 0.0 
0.0 0.0 -1.332552446145e+02 
-1.338326108642e+02 7.726624833224e+00 0.0 
7.726624833224e+00 -3.122816834769e+02 0.0 
0.0 0.0 -1.334342883023e+02 
-1.344134945085e+02 8.584146524689e+00 0.0 
8.584146524689e+00 -3.131503270874e+02 0.0 
0.0 0.0 -1.338691464788e+02 
-1.345142760229e+02 9.332528833493e+00 0.0 
9.332528833493e+00 -3.137476071704e+02 0.0 
0.0 0.0 -1.340785649580e+02 
-1.351775045227e+02 1.026436322438e+01 0.0 
1.026436322438e+01 -3.151627809378e+02 0.0 
0.0 0.0 -1.347020856382e+02 
-1.365132271507e+02 1.119303211293e+01 0.0 
1.119303211293e+01 -3.178135868200e+02 0.0 
0.0 0.0 -1.358980441912e+02 
-1.374265547876e+02 1.211268447788e+01 0.0 
1.211268447788e+01 -3.203039332867e+02 0.0 
0.0 0.0 -1.369191464223e+02 
-1.384680914371e+02 1.298740791516e+01 0.0 
1.298740791516e+01 -3.229855036466e+02 0.0 
0.0 0.0 -1.380360785251e+02 
-1.394216788409e+02 1.367703849566e+01 0.0 
1.367703849566e+01 -3.254605683641e+02 0.0 
0.0 0.0 -1.390646741615e+02 
-1.406618089787e+02 1.447498427253e+01 0.0 
1.447498427253e+01 -3.281450515990e+02 0.0 
0.0 0.0 -1.402420581733e+02 
-1.417525593530e+02 1.506879926996e+01 0.0 
1.506879926996e+01 -3.311236195995e+02 0.0 
0.0 0.0 -1.414628536857e+02 
-1.430039511040e+02 1.557316549828e+01 0.0 
1.557316549828e+01 -3.342737315568e+02 0.0 
0.0 0.0 -1.427833047982e+02 
-1.444317896887e+02 1.592105348922e+01 0.0 
1.592105348922e+01 -3.378438803191e+02 0.0 
0.0 0.0 -1.442827010023e+02 
-1.459842595400e+02 1.616907968490e+01 0.0 
1.616907968490e+01 -3.415285626618e+02 0.0 
0.0 0.0 -1.458538466606e+02 
-1.472278822101e+02 1.620983630928e+01 0.0 
1.620983630928e+01 -3.450729372485e+02 0.0 
0.0 0.0 -1.472902458376e+02 
-1.487704207466e+02 1.609169427627e+01 0.0 
1.609169427627e+01 -3.486334950873e+02 0.0 
0.0 0.0 -1.488211747502e+02 
-1.499016279717e+02 1.582442582930e+01 0.0 
1.582442582930e+01 -3.517972333428e+02 0.0 
0.0 0.0 -1.501096583944e+02 
-1.516364446113e+02 1.557860693923e+01 0.0 
1.557860693923e+01 -3.556856729135e+02 0.0 
0.0 0.0 -1.517966352574e+02 
-1.525873875830e+02 1.475118177902e+01 0.0 
1.475118177902e+01 -3.586459186817e+02 0.0 
0.0 0.0 -1.529699918794e+02 
-1.534115871239e+02 1.419994724851e+01 0.0 
1.419994724851e+01 -3.606265635487e+02 0.0 
0.0 0.0 -1.538114452018e+02 
-1.546238941422e+02 1.346659528947e+01 0.0 
1.346659528947e+01 -3.635029129673e+02 0.0 
0.0 0.0 -1.550380421329e+02 
-1.557970147886e+02 1.272069808785e+01 0.0 
1.272069808785e+01 -3.663190724752e+02 0.0 
0.0 0.0 -1.562348261791e+02 
-1.568356560471e+02 1.186857907272e+01 0.0 
1.186857907272e+01 -3.688016154920e+02 0.0 
0.0 0.0 -1.572911814617e+02 
-1.577301508400e+02 1.101950939949e+01 0.0 
1.101950939949e+01 -3.709797799753e+02 0.0 
0.0 0.0 -1.582129792446e+02 
-1.586096348479e+02 1.011063952887e+01 0.0 
1.011063952887e+01 -3.729791382358e+02 0.0 
0.0 0.0 -1.590766319251e+02 
-1.591550561201e+02 9.187838276002e+00 0.0 
9.187838276002e+00 -3.743982822562e+02 0.0 
0.0 0.0 -1.596660015129e+02 
-1.597051630184e+02 8.336864994955e+00 0.0 
8.336864994955e+00 -3.756089817288e+02 0.0 
0.0 0.0 -1.601942434242e+02 
-1.599969121231e+02 7.402253590083e+00 0.0 
7.402253590083e+00 -3.765023229591e+02 0.0 
0.0 0.0 -1.605497705247e+02 
-1.607084000796e+02 6.664710159234e+00 0.0 
6.664710159234e+00 -3.779440403325e+02 0.0 
0.0 0.0 -1.611957321236e+02 
-1.616214995878e+02 5.745464263622e+00 0.0 
5.745464263622e+00 -3.797668524644e+02 0.0 
0.0 0.0 -1.620165056156e+02 
-1.620990326057e+02 5.068624608923e+00 0.0 
5.068624608923e+00 -3.807689838123e+02 0.0 
0.0 0.0 -1.624604049254e+02 
-1.610152227330e+02 4.198408166142e+00 0.0 
4.198408166142e+00 -3.790485844886e+02 0.0 
0.0 0.0 -1.616191421665e+02 
-1.624663104233e+02 3.369710947107e+00 0.0 
3.369710947107e+00 -3.815999982817e+02 0.0 
0.0 0.0 -1.628198926115e+02 
-1.621539203775e+02 2.692145100907e+00 0.0 
2.692145100907e+00 -3.811970977335e+02 0.0 
0.0 0.0 -1.626053054333e+02 
-1.626137143191e+02 2.218457409465e+00 0.0 
2.218457409465e+00 -3.820181042201e+02 0.0 
0.0 0.0 -1.629895455618e+02 
-1.630057025018e+02 1.303567180960e+00 0.0 
1.303567180960e+00 -3.828668484091e+02 0.0 
0.0 0.0 -1.633617652733e+02 
-1.629780120408e+02 7.701186107389e-01 0.0 
7.701186107389e-01 -3.828921909367e+02 0.0 
0.0 0.0 -1.633610608933e+02 
-6.438399217077e+01 3.202611596730e-01 0.0 
3.202611596730e-01 -1.378270396865e+02 0.0 
0.0 0.0 -6.026330955719e+01 
-7.248853269965e+01 3.779874707070e-01 0.0 
3.779874707070e-01 -1.575594927368e+02 0.0 
0.0 0.0 -6.861440763095e+01 
-8.062955533422e+01 3.823850959306e-01 0.0 
3.823850959306e-01 -1.771399754912e+02 0.0 
0.0 0.0 -7.693085924763e+01 
-8.846497645028e+01 4.250689078062e-01 0.0 
4.250689078062e-01 -1.963583896929e+02 0.0 
0.0 0.0 -8.504700984294e+01 
-9.636234225745e+01 3.968509753705e-01 0.0 
3.968509753705e-01 -2.160411412766e+02 0.0 
0.0 0.0 -9.332104506020e+01 
-1.043973104790e+02 4.492750785194e-01 0.0 
4.492750785194e-01 -2.358561229345e+02 0.0 
0.0 0.0 -1.016760300241e+02 
-1.119972131661e+02 4.199508467195e-01 0.0 
4.199508467195e-01 -2.554613613725e+02 0.0 
0.0 0.0 -1.098375723616e+02 
-1.194578879844e+02 4.954370014547e-01 0.0 
4.954370014547e-01 -2.749445080435e+02 0.0 
0.0 0.0 -1.179207188084e+02 
-1.271939491051e+02 5.436753060093e-01 0.0 
5.436753060093e-01 -2.950351387998e+02 0.0 
0.0 0.0 -1.262687263715e+02 
-1.365754067295e+01 4.155948316948e+00 0.0 
4.155948316948e+00 -6.898218965692e+00 0.0 
0.0 0.0 -6.149182791541e+00 
-6.064867350579e+01 1.481553150555e+00 0.0 
1.481553150555e+00 -1.194424717943e+02 0.0 
0.0 0.0 -5.362734359004e+01 
-1.667344768182e+01 1.024046389596e+01 0.0 
1.024046389596e+01 -1.357840934401e+01 0.0 
0.0 0.0 -8.711416446555e+00 
-1.770432118808e+01 1.204081935681e+01 0.0 
1.204081935681e+01 -1.662706881074e+01 0.0 
0.0 0.0 -9.899416999646e+00 
-1.675448565493e+01 1.193172612358e+01 0.0 
1.193172612358e+01 -1.711864465342e+01 0.0 
0.0 0.0 -9.761939092503e+00 
-1.364083425873e+01 7.530926788227e+00 0.0 
7.530926788227e+00 -1.329415032595e+01 0.0 
0.0 0.0 -7.680495375406e+00 
-1.547355126102e+01 3.917122900304e+00 0.0 
3.917122900304e+00 -2.076428966712e+01 0.0 
0.0 0.0 -1.047135227844e+01 
-2.535028623881e+01 3.053046147183e+00 0.0 
3.053046147183e+00 -4.064901825306e+01 0.0 
0.0 0.0 -1.939979134756e+01 
-3.462921380358e+01 2.267552755042e+00 0.0 
2.267552755042e+00 -6.010343092852e+01 0.0 
0.0 0.0 -2.801979341963e+01 
-4.355970684522e+01 1.738231703209e+00 0.0 
1.738231703209e+00 -7.953367546182e+01 0.0 
0.0 0.0 -3.652801469211e+01 
-5.211653063116e+01 1.510583543743e+00 0.0 
1.510583543743e+00 -9.896068085703e+01 0.0 
0.0 0.0 -4.492316344646e+01 
-9.428366607945e+00 8.633415938278e-01 0.0 
8.633415938278e-01 -7.377481594620e+00 0.0 
0.0 0.0 -4.641754460770e+00 
-1.390547783689e+01 6.579221544263e-01 0.0 
6.579221544263e-01 -1.970584937257e+01 0.0 
0.0 0.0 -9.683398162838e+00 
-2.212363415206e+01 7.760408006200e-01 0.0 
7.760408006200e-01 -3.927049851597e+01 0.0 
0.0 0.0 -1.801823980041e+01 
-3.053101510710e+01 6.296916263007e-01 0.0 
6.296916263007e-01 -5.879295093309e+01 0.0 
0.0 0.0 -2.639718981206e+01 
-3.895533636653e+01 7.705366791945e-01 0.0 
7.705366791945e-01 -7.830635697810e+01 0.0 
0.0 0.0 -3.477850800339e+01 
-4.736222649038e+01 5.474441858192e-01 0.0 
5.474441858192e-01 -9.772666927989e+01 0.0 
0.0 0.0 -4.312666873108e+01 
-5.485740670426e+01 -2.330908097276e-01 0.0 
-2.330908097276e-01 -1.153960234101e+02 0.0 
0.0 0.0 -5.067602903430e+01 
-5.551316521477e+01 -4.082590814799e-02 0.0 
-4.082590814799e-02 -1.165841219816e+02 0.0 
0.0 0.0 -5.122918615890e+01 
-5.553696035806e+01 -4.883545665865e-02 0.0 
-4.883545665865e-02 -1.166187478449e+02 0.0 
0.0 0.0 -5.124671246089e+01 
-5.557797117701e+01 -7.610313611155e-03 0.0 
-7.610313611155e-03 -1.163864191730e+02 0.0 
0.0 0.0 -5.118931710500e+01 
-5.694277414225e+01 -2.696070143063e-02 0.0 
-2.696070143063e-02 -1.190283084676e+02 0.0 
0.0 0.0 -5.239132478294e+01 
-5.604812358640e+01 -4.842458747489e-02 0.0 
-4.842458747489e-02 -1.166861307485e+02 0.0 
0.0 0.0 -5.142027630048e+01 
-5.630626058006e+01 9.216417147247e-03 0.0 
9.216417147247e-03 -1.165157960248e+02 0.0 
0.0 0.0 -5.144661698145e+01 
-5.657091163645e+01 -3.733012748154e-02 0.0 
-3.733012748154e-02 -1.167122497133e+02 0.0 
0.0 0.0 -5.158494840494e+01 
-5.696511458685e+01 5.300513773136e-02 0.0 
5.300513773136e-02 -1.171705342474e+02 0.0 
0.0 0.0 -5.184069465028e+01 
-5.725855456402e+01 8.424978615074e-02 0.0 
8.424978615074e-02 -1.171424874204e+02 0.0 
0.0 0.0 -5.192031259534e+01 
-5.773136900409e+01 2.252747438561e-01 0.0 
2.252747438561e-01 -1.171710299526e+02 0.0 
0.0 0.0 -5.207071968702e+01 
-5.812628786033e+01 4.025198708748e-01 0.0 
4.025198708748e-01 -1.172258107558e+02 0.0 
0.0 0.0 -5.220562958485e+01 
-5.876454549704e+01 5.920064626569e-01 0.0 
5.920064626569e-01 -1.175091285781e+02 0.0 
0.0 0.0 -5.248210222254e+01 
-5.947561505606e+01 8.973878613142e-01 0.0 
8.973878613142e-01 -1.180968215646e+02 0.0 
0.0 0.0 -5.287173098619e+01 
-1.495764005345e+01 1.491068240364e+00 0.0 
1.491068240364e+00 -6.527214380504e+00 0.0 
0.0 0.0 -6.359356171804e+00 
-1.666458754055e+01 1.870699278623e-01 0.0 
1.870699278623e-01 -7.362206576717e+00 0.0 
0.0 0.0 -7.124908962774e+00 
-1.672951796368e+01 -4.707533007598e-01 0.0 
-4.707533007598e-01 -7.068389035573e+00 0.0 
0.0 0.0 -7.039790607523e+00 
-1.575177958269e+01 -4.340408249580e-01 0.0 
-4.340408249580e-01 -7.082521519786e+00 0.0 
0.0 0.0 -6.750432446478e+00 
-1.438726353033e+01 -4.884251523659e-01 0.0 
-4.884251523659e-01 -8.063989916227e+00 0.0 
0.0 0.0 -6.658154489018e+00 
-1.326394110252e+01 -5.938985919361e-01 0.0 
-5.938985919361e-01 -8.455821768069e+00 0.0 
0.0 0.0 -6.442912208089e+00 
-1.207109974648e+01 -5.874203868734e-01 0.0 
-5.874203868734e-01 -8.384833675248e+00 0.0 
0.0 0.0 -6.062272087479e+00 
-1.090131661333e+01 -5.379940398036e-01 0.0 
-5.379940398036e-01 -8.281415636354e+00 0.0 
0.0 0.0 -5.679568334655e+00 
-9.776280381720e+00 -5.046869798397e-01 0.0 
-5.046869798397e-01 -8.262249587475e+00 0.0 
0.0 0.0 -5.334863371688e+00 
-8.783776856115e+00 -4.461240821073e-01 0.0 
-4.461240821073e-01 -8.279650802144e+00 0.0 
0.0 0.0 -5.042974688402e+00 
-7.799577340837e+00 -3.468164003749e-01 0.0 
-3.468164003749e-01 -8.388376518156e+00 0.0 
0.0 0.0 -4.782061981343e+00 
-7.237095460604e+00 -4.080869124732e-01 0.0 
-4.080869124732e-01 -8.955163560409e+00 0.0 
0.0 0.0 -4.794346950972e+00 
-6.260890144224e+00 -4.606938440952e-01 0.0 
-4.606938440952e-01 -8.643447954262e+00 0.0 
0.0 0.0 -4.403191171787e+00 
-5.300878792857e+00 -3.505482467612e-01 0.0 
-3.505482467612e-01 -7.898457611079e+00 0.0 
0.0 0.0 -3.878025850730e+00 
-4.654721343792e+00 -2.698023660254e-01 0.0 
-2.698023660254e-01 -8.035647246205e+00 0.0 
0.0 0.0 -3.730073060546e+00 
-4.199550106768e+00 -2.233864738432e-01 0.0 
-2.233864738432e-01 -8.306990868503e+00 0.0 
0.0 0.0 -3.677713895013e+00 
-3.802843440936e+00 -1.408693058788e-01 0.0 
-1.408693058788e-01 -8.339401299291e+00 0.0 
0.0 0.0 -3.568057336185e+00 
-3.474481099767e+00 -1.497207258099e-01 0.0 
-1.497207258099e-01 -7.929096030421e+00 0.0 
0.0 0.0 -3.343965842947e+00 
-3.305907524422e+00 3.509050166603e-02 0.0 
3.509050166603e-02 -7.327157897232e+00 0.0 
0.0 0.0 -3.098335900885e+00 
-9.482756946553e+00 -1.858619056233e-01 0.0 
-1.858619056233e-01 -9.517419229013e+00 0.0 
0.0 0.0 -5.300052852670e+00 
-9.240040884913e+00 -1.110010859844e-02 0.0 
-1.110010859844e-02 -9.766430510705e+00 0.0 
0.0 0.0 -5.301941418685e+00 
-9.182649694626e+00 -1.322012697100e-02 0.0 
-1.322012697100e-02 -9.713816310136e+00 0.0 
0.0 0.0 -5.268939801428e+00 
-9.112574635773e+00 -5.783645139190e-02 0.0 
-5.783645139190e-02 -9.717301495541e+00 0.0 
0.0 0.0 -5.248962839394e+00 
-8.981015683727e+00 -9.471124633549e-02 0.0 
-9.471124633549e-02 -9.718373457978e+00 0.0 
0.0 0.0 -5.209816742512e+00 
-8.796217695674e+00 -1.267488853030e-01 0.0 
-1.267488853030e-01 -9.716700950769e+00 0.0 
0.0 0.0 -5.153875593933e+00 
-8.563421282486e+00 -1.569392251838e-01 0.0 
-1.569392251838e-01 -9.712715955621e+00 0.0 
0.0 0.0 -5.082841171432e+00 
-8.284506009940e+00 -1.876739410780e-01 0.0 
-1.876739410780e-01 -9.707067541873e+00 0.0 
0.0 0.0 -4.997472065544e+00 
-7.957852680346e+00 -2.199911048453e-01 0.0 
-2.199911048453e-01 -9.700344421394e+00 0.0 
0.0 0.0 -4.897459130522e+00 
-7.581563912093e+00 -2.541515162784e-01 0.0 
-2.541515162784e-01 -9.692650202547e+00 0.0 
0.0 0.0 -4.782264234392e+00 
-7.154402398126e+00 -2.898531582608e-01 0.0 
-2.898531582608e-01 -9.683867835526e+00 0.0 
0.0 0.0 -4.651481070096e+00 
-6.676832504950e+00 -3.269604210091e-01 0.0 
-3.269604210091e-01 -9.673082087199e+00 0.0 
0.0 0.0 -4.504974377645e+00 
-6.149707049084e+00 -3.659299437886e-01 0.0 
-3.659299437886e-01 -9.662209345634e+00 0.0 
0.0 0.0 -4.343574918415e+00 
-5.573588211186e+00 -4.024851305874e-01 0.0 
-4.024851305874e-01 -9.650928504051e+00 0.0 
0.0 0.0 -4.167355014571e+00 
-4.961623189148e+00 -4.339665895948e-01 0.0 
-4.339665895948e-01 -9.643063228858e+00 0.0 
0.0 0.0 -3.981405925402e+00 
-4.333241179943e+00 -4.495534228462e-01 0.0 
-4.495534228462e-01 -9.629761225812e+00 0.0 
0.0 0.0 -3.788900721727e+00 
-3.735289140230e+00 -4.546692182292e-01 0.0 
-4.546692182292e-01 -9.628479486256e+00 0.0 
0.0 0.0 -3.609130587946e+00 
-3.193750231110e+00 -4.162821519368e-01 0.0 
-4.162821519368e-01 -9.614430160508e+00 0.0 
0.0 0.0 -3.442454117485e+00 
-2.843568647673e+00 -3.476495695344e-01 0.0 
-3.476495695344e-01 -9.657642474823e+00 0.0 
0.0 0.0 -3.350363336749e+00 
-2.722878429302e+00 -1.192892948741e-01 0.0 
-1.192892948741e-01 -9.685094322327e+00 0.0 
0.0 0.0 -3.322391825489e+00 
-3.263779316131e+00 2.720119963914e-01 0.0 
2.720119963914e-01 -9.973684644577e+00 0.0 
0.0 0.0 -3.571239188212e+00 
-4.322363238589e+00 1.231006583007e+00 0.0 
1.231006583007e+00 -9.534813238312e+00 0.0 
0.0 0.0 -3.757152943070e+00 
-5.829186920116e+00 2.049238699105e+00 0.0 
2.049238699105e+00 -4.827704912683e+00 0.0 
0.0 0.0 -2.797067549840e+00 
-1.165793365334e+01 1.554632200830e+00 0.0 
1.554632200830e+00 -1.790029961409e+01 0.0 
0.0 0.0 -8.467469980230e+00 
-1.219953753919e+01 9.935695696131e-01 0.0 
9.935695696131e-01 -2.139400316871e+01 0.0 
0.0 0.0 -9.678062212371e+00 
-1.059649765864e+01 1.635418575191e-01 0.0 
1.635418575191e-01 -2.007323343476e+01 0.0 
0.0 0.0 -8.800919328019e+00 
-1.017941053798e+01 -1.572622488838e-01 0.0 
-1.572622488838e-01 -1.979641774681e+01 0.0 
0.0 0.0 -8.592748485438e+00 
-1.014326099422e+01 -3.566584905020e-01 0.0 
-3.566584905020e-01 -1.974273160264e+01 0.0 
0.0 0.0 -8.565797779056e+00 
-1.025356898885e+01 -4.527013611169e-01 0.0 
-4.527013611169e-01 -1.965541674767e+01 0.0 
0.0 0.0 -8.572695720956e+00 
-1.051005241983e+01 -5.011158431522e-01 0.0 
-5.011158431522e-01 -1.962661323843e+01 0.0 
0.0 0.0 -8.640999697477e+00 
-1.081893026437e+01 -5.074308664242e-01 0.0 
-5.074308664242e-01 -1.959107127203e+01 0.0 
0.0 0.0 -8.723000460921e+00 
-1.115835638775e+01 -4.887737661381e-01 0.0 
-4.887737661381e-01 -1.957656004791e+01 0.0 
0.0 0.0 -8.820474930699e+00 
-1.149313287803e+01 -4.554949468507e-01 0.0 
-4.554949468507e-01 -1.956832622989e+01 0.0 
0.0 0.0 -8.918437732375e+00 
-1.181729096638e+01 -4.182085237655e-01 0.0 
-4.182085237655e-01 -1.956718413447e+01 0.0 
0.0 0.0 -9.015342530257e+00 
-1.212300229694e+01 -3.788180823318e-01 0.0 
-3.788180823318e-01 -1.956603627902e+01 0.0 
0.0 0.0 -9.106711572789e+00 
-1.240369432913e+01 -3.376453994560e-01 0.0 
-3.376453994560e-01 -1.956651913051e+01 0.0 
0.0 0.0 -9.191064037895e+00 
-1.265486888980e+01 -2.963924595141e-01 0.0 
-2.963924595141e-01 -1.956856696576e+01 0.0 
0.0 0.0 -9.267030756670e+00 
-1.287528630794e+01 -2.560794564050e-01 0.0 
-2.560794564050e-01 -1.957094913733e+01 0.0 
0.0 0.0 -9.333870633581e+00 
-1.306606729069e+01 -2.168577790153e-01 0.0 
-2.168577790153e-01 -1.957241257564e+01 0.0 
0.0 0.0 -9.391543959900e+00 
-1.322739707919e+01 -1.763530892707e-01 0.0 
-1.763530892707e-01 -1.957190776654e+01 0.0 
0.0 0.0 -9.439791453719e+00 
-1.335787906341e+01 -1.321200536551e-01 0.0 
-1.321200536551e-01 -1.956990938987e+01 0.0 
0.0 0.0 -9.478336535983e+00 
-1.345827551291e+01 -8.193889586221e-02 0.0 
-8.193889586221e-02 -1.956697107792e+01 0.0 
0.0 0.0 -9.507573977250e+00 
-1.353264458075e+01 -2.370525012300e-02 0.0 
-2.370525012300e-02 -1.956280954732e+01 0.0 
0.0 0.0 -9.528636238422e+00 
-1.361438973464e+01 5.086450757416e-02 0.0 
5.086450757416e-02 -1.956001104071e+01 0.0 
0.0 0.0 -9.552320232605e+00 
-1.384533010157e+01 -3.994556810250e-01 0.0 
-3.994556810250e-01 -1.966067021217e+01 0.0 
0.0 0.0 -9.651800094123e+00 
-2.213071619355e+01 -3.635561809940e-01 0.0 
-3.635561809940e-01 -3.920883492606e+01 0.0 
0.0 0.0 -1.800186533588e+01 
-2.208213032703e+01 -1.653150440001e-01 0.0 
-1.653150440001e-01 -3.912850424846e+01 0.0 
0.0 0.0 -1.796319037265e+01 
-2.203206036119e+01 -1.424071428726e-01 0.0 
-1.424071428726e-01 -3.912501880596e+01 0.0 
0.0 0.0 -1.794712375015e+01 
-2.197696372662e+01 -2.021294494072e-01 0.0 
-2.021294494072e-01 -3.913586892612e+01 0.0 
0.0 0.0 -1.793384979582e+01 
-2.191498159035e+01 -2.685602159856e-01 0.0 
-2.685602159856e-01 -3.914594559868e+01 0.0 
0.0 0.0 -1.791827815671e+01 
-2.184175022788e+01 -3.352993598889e-01 0.0 
-3.352993598889e-01 -3.915330391219e+01 0.0 
0.0 0.0 -1.789851624202e+01 
-2.175687000991e+01 -3.993827403058e-01 0.0 
-3.993827403058e-01 -3.915669181992e+01 0.0 
0.0 0.0 -1.787406854895e+01 
-2.166420586489e+01 -4.634058078784e-01 0.0 
-4.634058078784e-01 -3.915459673388e+01 0.0 
0.0 0.0 -1.784564077963e+01 
-2.156540480531e+01 -5.293188968245e-01 0.0 
-5.293188968245e-01 -3.915366594922e+01 0.0 
0.0 0.0 -1.781572122636e+01 
-2.145689880773e+01 -5.935036900631e-01 0.0 
-5.935036900631e-01 -3.915686215039e+01 0.0 
0.0 0.0 -1.778412828744e+01 
-2.134896063297e+01 -6.493756511624e-01 0.0 
-6.493756511624e-01 -3.916471947556e+01 0.0 
0.0 0.0 -1.775410403256e+01 
-2.125369715455e+01 -6.926385989378e-01 0.0 
-6.926385989378e-01 -3.917463821742e+01 0.0 
0.0 0.0 -1.772850061159e+01 
-2.118255815112e+01 -7.219056999363e-01 0.0 
-7.219056999363e-01 -3.918453299820e+01 0.0 
0.0 0.0 -1.771012734480e+01 
-2.115152296387e+01 -7.326001264680e-01 0.0 
-7.326001264680e-01 -3.922477015664e+01 0.0 
0.0 0.0 -1.771288793615e+01 
-2.116243971908e+01 -6.866614328150e-01 0.0 
-6.866614328150e-01 -3.928293911327e+01 0.0 
0.0 0.0 -1.773361364970e+01 
-2.128160240675e+01 -5.740921493002e-01 0.0 
-5.740921493002e-01 -3.940229032183e+01 0.0 
0.0 0.0 -1.780516781857e+01 
-2.151145266679e+01 -3.257446976550e-01 0.0 
-3.257446976550e-01 -3.949156240279e+01 0.0 
0.0 0.0 -1.790090452087e+01 
-2.204394468617e+01 1.209640066845e-02 0.0 
1.209640066845e-02 -3.976106386729e+01 0.0 
0.0 0.0 -1.814150256604e+01 
-2.343697646948e+01 8.093919223854e-01 0.0 
8.093919223854e-01 -4.112491343604e+01 0.0 
0.0 0.0 -1.896856697165e+01 
-2.286177142386e+01 1.410121551563e+00 0.0 
1.410121551563e+00 -3.773234511057e+01 0.0 
0.0 0.0 -1.777823496033e+01 
-3.279258620964e+01 1.093259617482e+00 0.0 
1.093259617482e+00 -5.736898466277e+01 0.0 
0.0 0.0 -2.664847126172e+01 
-3.343783565461e+01 6.859812180015e-01 0.0 
6.859812180015e-01 -6.075259967718e+01 0.0 
0.0 0.0 -2.785713059954e+01 
-3.215986885583e+01 9.035996795386e-03 0.0 
9.035996795386e-03 -5.946149702594e+01 0.0 
0.0 0.0 -2.708640976453e+01 
-3.159512150135e+01 -2.946636491441e-01 0.0 
-2.946636491441e-01 -5.911433958206e+01 0.0 
0.0 0.0 -2.681283832502e+01 
-3.129680622590e+01 -4.913022426908e-01 0.0 
-4.913022426908e-01 -5.897542835367e+01 0.0 
0.0 0.0 -2.668167037387e+01 
-3.102095957813e+01 -5.673679365128e-01 0.0 
-5.673679365128e-01 -5.883886446568e+01 0.0 
0.0 0.0 -2.655794721314e+01 
-3.084135741955e+01 -6.048520372944e-01 0.0 
-6.048520372944e-01 -5.880399018756e+01 0.0 
0.0 0.0 -2.649360428213e+01 
-3.071728852829e+01 -6.142513306293e-01 0.0 
-6.142513306293e-01 -5.877004197990e+01 0.0 
0.0 0.0 -2.644619915246e+01 
-3.063533528760e+01 -5.978320542838e-01 0.0 
-5.978320542838e-01 -5.874058446165e+01 0.0 
0.0 0.0 -2.641277592478e+01 
-3.059220288563e+01 -5.575733116665e-01 0.0 
-5.575733116665e-01 -5.871795429543e+01 0.0 
0.0 0.0 -2.639304715432e+01 
-3.056355963242e+01 -4.983930635516e-01 0.0 
-4.983930635516e-01 -5.871461323148e+01 0.0 
0.0 0.0 -2.638345185917e+01 
-3.053696455777e+01 -4.423569001722e-01 0.0 
-4.423569001722e-01 -5.871986329140e+01 0.0 
0.0 0.0 -2.637704835475e+01 
-3.053349775453e+01 -3.875976998331e-01 0.0 
-3.875976998331e-01 -5.871602760329e+01 0.0 
0.0 0.0 -2.637485760734e+01 
-3.053227440061e+01 -3.247333237036e-01 0.0 
-3.247333237036e-01 -5.870563513723e+01 0.0 
0.0 0.0 -2.637137286135e+01 
-3.053522106330e+01 -2.595074110017e-01 0.0 
-2.595074110017e-01 -5.869895979850e+01 0.0 
0.0 0.0 -2.637025425854e+01 
-3.053921951237e+01 -1.979961454926e-01 0.0 
-1.979961454926e-01 -5.869085776952e+01 0.0 
0.0 0.0 -2.636902318457e+01 
-3.055059242659e+01 -1.351748645955e-01 0.0 
-1.351748645955e-01 -5.869730082342e+01 0.0 
0.0 0.0 -2.637436797500e+01 
-3.054649368192e+01 -6.559783892012e-02 0.0 
-6.559783892012e-02 -5.874016502089e+01 0.0 
0.0 0.0 -2.638599761084e+01 
-3.053538730619e+01 -4.821013011809e-01 0.0 
-4.821013011809e-01 -5.878451368662e+01 0.0 
0.0 0.0 -2.639597029784e+01 
-3.894003508220e+01 -3.523674856960e-01 0.0 
-3.523674856960e-01 -7.833329441960e+01 0.0 
0.0 0.0 -3.478199885054e+01 
-3.900303107445e+01 -1.527716391871e-01 0.0 
-1.527716391871e-01 -7.826221196095e+01 0.0 
0.0 0.0 -3.477957291062e+01 
-3.904025103060e+01 -1.593899585219e-01 0.0 
-1.593899585219e-01 -7.823830556716e+01 0.0 
0.0 0.0 -3.478356697933e+01 
-3.907622985013e+01 -2.110145966003e-01 0.0 
-2.110145966003e-01 -7.825052868519e+01 0.0 
0.0 0.0 -3.479802756060e+01 
-3.914468725567e+01 -2.713029312725e-01 0.0 
-2.713029312725e-01 -7.825144383777e+01 0.0 
0.0 0.0 -3.481883932803e+01 
-3.920606055456e+01 -3.324128577979e-01 0.0 
-3.324128577979e-01 -7.826304859780e+01 0.0 
0.0 0.0 -3.484073274571e+01 
-3.929489724334e+01 -3.871850482467e-01 0.0 
-3.871850482467e-01 -7.828699348008e+01 0.0 
0.0 0.0 -3.487456721703e+01 
-3.939401535488e+01 -4.136088770194e-01 0.0 
-4.136088770194e-01 -7.828447823031e+01 0.0 
0.0 0.0 -3.490354807556e+01 
-3.953555282031e+01 -4.645918093335e-01 0.0 
-4.645918093335e-01 -7.826899587238e+01 0.0 
0.0 0.0 -3.494136460781e+01 
-3.968559224765e+01 -4.990473241576e-01 0.0 
-4.990473241576e-01 -7.831881911739e+01 0.0 
0.0 0.0 -3.500132340951e+01 
-3.988627461683e+01 -4.823971388318e-01 0.0 
-4.823971388318e-01 -7.837595824179e+01 0.0 
0.0 0.0 -3.507866985759e+01 
-4.015281883736e+01 -4.378915760179e-01 0.0 
-4.378915760179e-01 -7.843069741440e+01 0.0 
0.0 0.0 -3.517505487553e+01 
-4.046421678758e+01 -3.480438074862e-01 0.0 
-3.480438074862e-01 -7.852147798953e+01 0.0 
0.0 0.0 -3.529570843313e+01 
-4.084797697021e+01 -1.995021841657e-01 0.0 
-1.995021841657e-01 -7.858654075514e+01 0.0 
0.0 0.0 -3.543035531761e+01 
-4.140938718035e+01 -2.620632726568e-02 0.0 
-2.620632726568e-02 -7.893648110895e+01 0.0 
0.0 0.0 -3.570376048679e+01 
-4.262952673378e+01 5.511981837879e-01 0.0 
5.511981837879e-01 -8.033900292732e+01 0.0 
0.0 0.0 -3.649055889833e+01 
-4.200254627627e+01 8.860083101762e-01 0.0 
8.860083101762e-01 -7.699062630098e+01 0.0 
0.0 0.0 -3.529795177317e+01 
-5.065269214568e+01 8.059541956253e-01 0.0 
8.059541956253e-01 -9.644124706967e+01 0.0 
0.0 0.0 -4.372818176461e+01 
-5.118021328710e+01 6.061027768095e-01 0.0 
6.061027768095e-01 -9.967617425984e+01 0.0 
0.0 0.0 -4.485691626408e+01 
-5.008183101547e+01 1.990215711638e-01 0.0 
1.990215711638e-01 -9.842307733614e+01 0.0 
0.0 0.0 -4.415147250548e+01 
-4.963365657677e+01 7.024485144828e-03 0.0 
7.024485144828e-03 -9.820896105683e+01 0.0 
0.0 0.0 -4.395278529008e+01 
-4.921345008705e+01 -9.299001418283e-02 0.0 
-9.299001418283e-02 -9.811173807660e+01 0.0 
0.0 0.0 -4.379755644909e+01 
-4.885722112282e+01 -1.950336563243e-01 0.0 
-1.950336563243e-01 -9.804731628448e+01 0.0 
0.0 0.0 -4.367136122219e+01 
-4.854655975075e+01 -2.513988706317e-01 0.0 
-2.513988706317e-01 -9.791773546827e+01 0.0 
0.0 0.0 -4.353928856571e+01 
-4.829295376807e+01 -2.223368835355e-01 0.0 
-2.223368835355e-01 -9.787031458687e+01 0.0 
0.0 0.0 -4.344898050648e+01 
-4.817348464763e+01 -2.387140158410e-01 0.0 
-2.387140158410e-01 -9.792909111275e+01 0.0 
0.0 0.0 -4.343077272812e+01 
-4.794672993792e+01 -2.103765461279e-01 0.0 
-2.103765461279e-01 -9.787249093035e+01 0.0 
0.0 0.0 -4.334576626048e+01 
-4.780196310162e+01 -1.947004866193e-01 0.0 
-1.947004866193e-01 -9.784641944154e+01 0.0 
0.0 0.0 -4.329451476295e+01 
-4.768747074649e+01 -1.294170285973e-01 0.0 
-1.294170285973e-01 -9.783752800720e+01 0.0 
0.0 0.0 -4.325749962611e+01 
-4.756544394968e+01 -1.215291279186e-01 0.0 
-1.215291279186e-01 -9.785460974938e+01 0.0 
0.0 0.0 -4.322601610972e+01 
-4.747957623130e+01 -6.393703882517e-02 0.0 
-6.393703882517e-02 -9.779235707702e+01 0.0 
0.0 0.0 -4.318157999250e+01 
-4.743973185445e+01 6.530299004316e-02 0.0 
6.530299004316e-02 -9.792928869955e+01 0.0 
0.0 0.0 -4.321070616620e+01 
-4.733809429205e+01 -4.845627989250e-01 0.0 
-4.845627989250e-01 -9.800587087955e+01 0.0 
0.0 0.0 -4.320318955148e+01 
-1.471704874658e+01 7.886765521506e+00 0.0 
7.886765521506e+00 -9.943842401577e+00 0.0 
0.0 0.0 -7.090666391237e+00 
-1.751588060419e+01 1.146922115034e+01 0.0 
1.146922115034e+01 -1.566490101824e+01 0.0 
0.0 0.0 -9.554234486728e+00 
-1.726869603949e+01 1.211302201769e+01 0.0 
1.211302201769e+01 -1.695586617991e+01 0.0 
0.0 0.0 -9.867368665819e+00 
-1.664472340860e+01 1.108664146015e+01 0.0 
1.108664146015e+01 -1.704299308956e+01 0.0 
0.0 0.0 -9.706314949449e+00 
-1.366760687465e+01 5.173359785191e+00 0.0 
5.173359785191e+00 -1.404409906080e+01 0.0 
0.0 0.0 -7.913511780635e+00 
-2.198419905051e+01 3.525868592245e+00 0.0 
3.525868592245e+00 -3.280961178394e+01 0.0 
0.0 0.0 -1.603814325033e+01 
-3.135508657900e+01 2.658417022572e+00 0.0 
2.658417022572e+00 -5.228143088256e+01 0.0 
0.0 0.0 -2.469095523847e+01 
-4.040247614362e+01 1.943090006623e+00 0.0 
1.943090006623e+00 -7.173480451676e+01 0.0 
0.0 0.0 -3.324118419811e+01 
-4.908049873832e+01 1.581267600061e+00 0.0 
1.581267600061e+00 -9.114826131581e+01 0.0 
0.0 0.0 -4.166862801624e+01 
-5.744602097303e+01 1.420322799315e+00 0.0 
1.420322799315e+00 -1.106895984897e+02 0.0 
0.0 0.0 -5.004068583883e+01 
-1.748310523637e+01 1.116524802244e+01 0.0 
1.116524802244e+01 -2.380560723089e+01 0.0 
0.0 0.0 -1.198661374018e+01 
-1.506145532843e+02 1.283382911204e+01 0.0 
1.283382911204e+01 -3.569270843258e+02 0.0 
0.0 0.0 -1.518624912830e+02 
-1.166594809414e+01 -8.106623057475e-01 0.0 
-8.106623057475e-01 -1.681083143297e+01 0.0 
0.0 0.0 -8.530333882988e+00 
-1.569018943819e+01 -6.827211756406e-01 0.0 
-6.827211756406e-01 -1.607439474225e+01 0.0 
0.0 0.0 -9.516282984694e+00 
-1.546224403306e+02 8.475837439187e+00 0.0 
8.475837439187e+00 -3.669854221243e+02 0.0 
0.0 0.0 -1.560823587365e+02 
-1.955247140110e+01 1.187249128344e+01 0.0 
1.187249128344e+01 -2.691152692950e+01 0.0 
0.0 0.0 -1.353919949918e+01 
-8.043065896863e+01 5.918406129186e-02 0.0 
5.918406129186e-02 -2.086101224927e+02 0.0 
0.0 0.0 -8.631223443841e+01 
-1.460390896565e+02 1.515302823239e+01 0.0 
1.515302823239e+01 -3.443796098200e+02 0.0 
0.0 0.0 -1.467256098429e+02 
-3.147448930117e+01 5.847908461591e+00 0.0 
5.847908461591e+00 -5.058947929514e+01 0.0 
0.0 0.0 -2.421919057889e+01 
-1.419199615190e+02 1.569891479923e+01 0.0 
1.569891479923e+01 -3.314209693932e+02 0.0 
0.0 0.0 -1.416022792736e+02 
-4.855415889510e+01 3.056484393916e+00 0.0 
3.056484393916e+00 -8.904543697537e+01 0.0 
0.0 0.0 -4.087987876114e+01 
-1.575086065683e+02 5.184333693763e+00 0.0 
5.184333693763e+00 -3.727536075305e+02 0.0 
0.0 0.0 -1.586786642296e+02 
-8.588771999854e+00 -5.591880987316e-01 0.0 
-5.591880987316e-01 -1.618697376908e+01 0.0 
0.0 0.0 -7.442407357832e+00 
-1.375258118212e+02 1.380521425437e+01 0.0 
1.380521425437e+01 -3.185163432232e+02 0.0 
0.0 0.0 -1.364126465133e+02 
-6.489516449052e+01 2.188843792586e+00 0.0 
2.188843792586e+00 -1.279553557666e+02 0.0 
0.0 0.0 -5.745515607713e+01 
-4.942619057980e+01 -2.024758152495e-01 0.0 
-2.024758152495e-01 -1.298469882087e+02 0.0 
0.0 0.0 -5.338195363654e+01 
-1.035184706531e+02 1.797731837684e-01 0.0 
1.797731837684e-01 -2.619040025566e+02 0.0 
0.0 0.0 -1.092267419629e+02 
-1.346599699157e+02 1.142793002098e+01 0.0 
1.142793002098e+01 -3.102928607033e+02 0.0 
0.0 0.0 -1.330858491857e+02 
-1.318530135486e+02 7.827869069198e+00 0.0 
7.827869069198e+00 -3.045542578412e+02 0.0 
0.0 0.0 -1.305221814169e+02 
-1.287406020433e+02 2.303833709589e+00 0.0 
2.303833709589e+00 -2.992846504808e+02 0.0 
0.0 0.0 -1.280075757572e+02 
-1.288313569743e+02 3.718298070437e+00 0.0 
3.718298070437e+00 -2.984176212648e+02 0.0 
0.0 0.0 -1.277746934717e+02 
-1.305188521593e+02 5.755501170548e+00 0.0 
5.755501170548e+00 -3.022275491059e+02 0.0 
0.0 0.0 -1.294239203796e+02 
-6.720494534660e+01 1.342211699039e+00 0.0 
1.342211699039e+00 -1.359434089573e+02 0.0 
0.0 0.0 -6.054450629118e+01 
-6.502570360222e+01 4.326713535275e-01 0.0 
4.326713535275e-01 -1.351073674282e+02 0.0 
0.0 0.0 -5.963992130914e+01 
-6.462699545908e+01 2.952884527407e-01 0.0 
2.952884527407e-01 -1.362720779282e+02 0.0 
0.0 0.0 -5.986972201618e+01 
-9.254110047549e+01 3.017635060694e-01 0.0 
3.017635060694e-01 -2.063200338015e+02 0.0 
0.0 0.0 -8.925834028309e+01 
-1.577585436974e+02 3.093767158316e+00 0.0 
3.093767158316e+00 -3.733653513311e+02 0.0 
0.0 0.0 -1.589371685085e+02 
-1.588339280162e+01 1.110640510415e+00 0.0 
1.110640510415e+00 -1.493702449713e+01 0.0 
0.0 0.0 -9.246389063337e+00 
-7.447809476949e+00 -3.198638768812e-01 0.0 
-3.198638768812e-01 -1.720334952250e+01 0.0 
0.0 0.0 -7.384347986403e+00 
-1.320593380338e+02 4.415733514407e-01 0.0 
4.415733514407e-01 -3.226768913864e+02 0.0 
0.0 0.0 -1.360208688261e+02 
-6.286998947272e+01 -3.849144337313e-03 0.0 
-3.849144337313e-03 -1.339251734040e+02 0.0 
0.0 0.0 -5.863854886300e+01 
-2.623346083252e+01 -2.370621253505e-01 0.0 
-2.370621253505e-01 -6.892453014238e+01 0.0 
0.0 0.0 -2.814739729247e+01 
-1.318757173089e+02 9.435719854753e+00 0.0 
9.435719854753e+00 -3.036498245739e+02 0.0 
0.0 0.0 -1.302576625648e+02 
-1.445509380390e+02 1.577688781452e+01 0.0 
1.577688781452e+01 -3.392734259688e+02 0.0 
0.0 0.0 -1.447473092023e+02 
-1.395937910071e+02 1.499924335377e+01 0.0 
1.499924335377e+01 -3.245733098298e+02 0.0 
0.0 0.0 -1.388501302511e+02 
-1.476158911548e+02 1.418670831365e+01 0.0 
1.418670831365e+01 -3.495395393432e+02 0.0 
0.0 0.0 -1.487466291494e+02 
-1.527170258600e+02 1.122705964359e+01 0.0 
1.122705964359e+01 -3.621998956815e+02 0.0 
0.0 0.0 -1.540750764624e+02 
-1.433421780658e+01 -9.925657499610e-01 0.0 
-9.925657499610e-01 -1.717821674615e+01 0.0 
0.0 0.0 -9.442931990036e+00 
-6.571391643020e+01 7.420357199219e-01 0.0 
7.420357199219e-01 -1.347377553242e+02 0.0 
0.0 0.0 -5.973550152633e+01 
-1.542815459447e+02 6.690504219863e+00 0.0 
6.690504219863e+00 -3.667679370161e+02 0.0 
0.0 0.0 -1.559148448882e+02 
-1.079008121465e+02 3.694875881472e-01 0.0 
3.694875881472e-01 -2.451873779983e+02 0.0 
0.0 0.0 -1.055264570435e+02 
-1.019231430885e+01 -7.205874311344e-01 0.0 
-7.205874311344e-01 -1.707629559732e+01 0.0 
0.0 0.0 -8.181451771359e+00 
-6.429303879391e+01 -6.896740228893e-02 0.0 
-6.896740228893e-02 -1.683324388715e+02 0.0 
0.0 0.0 -6.938764329961e+01 
-1.295898077322e+02 1.423340271549e+00 0.0 
1.423340271549e+00 -3.018917047476e+02 0.0 
0.0 0.0 -1.290444537439e+02 
-2.484829082470e+01 9.050802704791e+00 0.0 
9.050802704791e+00 -3.672343076858e+01 0.0 
0.0 0.0 -1.807151647798e+01 
-1.812204715133e+01 1.255869433850e+01 0.0 
1.255869433850e+01 -2.599382232409e+01 0.0 
0.0 0.0 -1.283476084263e+01 
-4.002908346863e+01 4.171734532397e+00 0.0 
4.171734532397e+00 -6.959633305687e+01 0.0 
0.0 0.0 -3.248762495765e+01 
-5.677925838214e+01 2.550251587793e+00 0.0 
2.550251587793e+00 -1.082250255078e+02 0.0 
0.0 0.0 -4.910128516697e+01 
-1.543883118102e+01 7.876098243499e+00 0.0 
7.876098243499e+00 -1.745974589913e+01 0.0 
0.0 0.0 -9.518841157729e+00 
-7.734339190577e+01 1.174545723879e-01 0.0 
1.174545723879e-01 -1.689092007579e+02 0.0 
0.0 0.0 -7.347577779911e+01 
-1.596536170147e+02 1.737080491524e+00 0.0 
1.737080491524e+00 -3.771033699778e+02 0.0 
0.0 0.0 -1.606270960977e+02 
-6.786291393021e+00 -2.119619567597e-01 0.0 
-2.119619567597e-01 -1.636369698797e+01 0.0 
0.0 0.0 -6.900862255776e+00 
-1.228843952542e+02 3.469809866988e-01 0.0 
3.469809866988e-01 -2.838417967861e+02 0.0 
0.0 0.0 -1.216178576121e+02 
-6.877313937908e+01 2.190327557200e+00 0.0 
2.190327557200e+00 -1.370578132472e+02 0.0 
0.0 0.0 -6.134928578787e+01 
-7.280920120761e+01 3.028469544374e+00 0.0 
3.028469544374e+00 -1.458317197093e+02 0.0 
0.0 0.0 -6.519227627508e+01 
-7.623663897500e+01 2.768675773688e+00 0.0 
2.768675773688e+00 -1.547573101006e+02 0.0 
0.0 0.0 -6.889818472268e+01 
-8.087759988776e+01 3.927211153993e+00 0.0 
3.927211153993e+00 -1.651623940912e+02 0.0 
0.0 0.0 -7.341199819369e+01 
-8.467064743335e+01 3.766831382008e+00 0.0 
3.766831382008e+00 -1.749625257003e+02 0.0 
0.0 0.0 -7.748995194010e+01 
-8.877854098855e+01 4.751360316189e+00 0.0 
4.751360316189e+00 -1.844638044853e+02 0.0 
0.0 0.0 -8.157270364216e+01 
-8.516384597336e+01 4.963899459969e+00 0.0 
4.963899459969e+00 -1.748318586320e+02 0.0 
0.0 0.0 -7.759871138160e+01 
-9.295433867242e+01 5.802242629737e+00 0.0 
5.802242629737e+00 -1.942962963572e+02 0.0 
0.0 0.0 -8.577519050889e+01 
-8.927989624268e+01 6.072476227538e+00 0.0 
6.072476227538e+00 -1.847050560205e+02 0.0 
0.0 0.0 -8.179548567895e+01 
-9.265388421236e+01 4.621837249737e+00 0.0 
4.621837249737e+00 -1.945213904601e+02 0.0 
0.0 0.0 -8.575258240173e+01 
-9.698821135536e+01 6.895739108240e+00 0.0 
6.895739108240e+00 -2.043606216323e+02 0.0 
0.0 0.0 -9.000464989630e+01 
-9.331158111144e+01 7.226422527806e+00 0.0 
7.226422527806e+00 -1.949055308633e+02 0.0 
0.0 0.0 -8.606513359242e+01 
-1.009149838384e+02 7.989529737821e+00 0.0 
7.989529737821e+00 -2.146765082902e+02 0.0 
0.0 0.0 -9.427744763857e+01 
-9.723152562233e+01 8.380545204107e+00 0.0 
8.380545204107e+00 -2.054414510564e+02 0.0 
0.0 0.0 -9.040189300362e+01 
-8.960309852207e+01 7.668966344665e+00 0.0 
7.668966344665e+00 -1.857272684710e+02 0.0 
0.0 0.0 -8.219911009791e+01 
-9.347867131893e+01 8.858597853703e+00 0.0 
8.858597853703e+00 -1.964931270674e+02 0.0 
0.0 0.0 -8.659153951591e+01 
-8.581723019731e+01 8.223190567478e+00 0.0 
8.223190567478e+00 -1.767375864192e+02 0.0 
0.0 0.0 -7.836644498494e+01 
-8.963883371620e+01 9.452598424385e+00 0.0 
9.452598424385e+00 -1.878054282237e+02 0.0 
0.0 0.0 -8.283327858196e+01 
-9.723682277579e+01 9.964024333661e+00 0.0 
9.964024333661e+00 -2.075765538169e+02 0.0 
0.0 0.0 -9.104401297779e+01 
-9.332524397331e+01 1.055740204164e+01 0.0 
1.055740204164e+01 -1.991841117238e+02 0.0 
0.0 0.0 -8.735280670913e+01 
-8.564549481607e+01 1.015649451184e+01 0.0 
1.015649451184e+01 -1.793678923039e+02 0.0 
0.0 0.0 -7.910401613599e+01 
-8.923991484359e+01 1.121999168211e+01 0.0 
1.121999168211e+01 -1.910670045938e+02 0.0 
0.0 0.0 -8.369207583122e+01 
-8.151969659656e+01 1.095279216098e+01 0.0 
1.095279216098e+01 -1.712801654263e+02 0.0 
0.0 0.0 -7.543995860686e+01 
-8.501827863589e+01 1.193004763527e+01 0.0 
1.193004763527e+01 -1.833449026150e+02 0.0 
0.0 0.0 -8.010895437527e+01 
-7.722561004498e+01 1.182227122615e+01 0.0 
1.182227122615e+01 -1.635642085240e+02 0.0 
0.0 0.0 -7.183694557070e+01 
-8.062769609159e+01 1.264850974789e+01 0.0 
1.264850974789e+01 -1.760237858608e+02 0.0 
0.0 0.0 -7.659544458571e+01 
-8.843642789151e+01 1.262944743108e+01 0.0 
1.262944743108e+01 -1.955713894940e+02 0.0 
0.0 0.0 -8.480234521564e+01 
-8.394843380637e+01 1.314882840504e+01 0.0 
1.314882840504e+01 -1.885092471609e+02 0.0 
0.0 0.0 -8.133730429019e+01 
-7.606847481186e+01 1.330245908019e+01 0.0 
1.330245908019e+01 -1.691428544285e+02 0.0 
0.0 0.0 -7.316339877212e+01 
-7.932636501102e+01 1.354772530096e+01 0.0 
1.354772530096e+01 -1.818311054517e+02 0.0 
0.0 0.0 -7.794724113882e+01 
-7.137768736403e+01 1.379730004196e+01 0.0 
1.379730004196e+01 -1.627221980637e+02 0.0 
0.0 0.0 -6.982996562832e+01 
-7.460760996778e+01 1.373905799695e+01 0.0 
1.373905799695e+01 -1.754832598256e+02 0.0 
0.0 0.0 -7.462726093800e+01 
-8.262854709446e+01 1.350736730424e+01 0.0 
1.350736730424e+01 -1.943259205385e+02 0.0 
0.0 0.0 -8.268634028988e+01 
-7.793115598212e+01 1.342710442802e+01 0.0 
1.342710442802e+01 -1.879627920908e+02 0.0 
0.0 0.0 -7.936818442186e+01 
-6.983440855256e+01 1.364871010572e+01 0.0 
1.364871010572e+01 -1.693567200651e+02 0.0 
0.0 0.0 -7.135733858530e+01 
-7.323271229509e+01 1.306727382115e+01 0.0 
1.306727382115e+01 -1.817423016106e+02 0.0 
0.0 0.0 -7.609250417172e+01 
-6.510722365461e+01 1.322057501092e+01 0.0 
1.322057501092e+01 -1.633789014358e+02 0.0 
0.0 0.0 -6.814583752714e+01 
-6.863236500346e+01 1.239846006239e+01 0.0 
1.239846006239e+01 -1.755953367736e+02 0.0 
0.0 0.0 -7.286831053312e+01 
-6.053151466426e+01 1.242020608426e+01 0.0 
1.242020608426e+01 -1.574424591721e+02 0.0 
0.0 0.0 -6.499219215092e+01 
-6.416979118136e+01 1.141493917160e+01 0.0 
1.141493917160e+01 -1.693173638712e+02 0.0 
0.0 0.0 -6.964614651578e+01 
-7.228223162367e+01 1.152650767158e+01 0.0 
1.152650767158e+01 -1.873293536503e+02 0.0 
0.0 0.0 -7.748347558218e+01 
-6.793238429888e+01 1.043763556220e+01 0.0 
1.043763556220e+01 -1.807357539536e+02 0.0 
0.0 0.0 -7.420044147576e+01 
-5.993940606277e+01 1.016332617869e+01 0.0 
1.016332617869e+01 -1.628383407718e+02 0.0 
0.0 0.0 -6.643332405037e+01 
-6.377858031392e+01 9.131516976225e+00 0.0 
9.131516976225e+00 -1.738268839733e+02 0.0 
0.0 0.0 -7.088163928618e+01 
-7.181252335961e+01 9.508669621069e+00 0.0 
9.508669621069e+00 -1.917722789004e+02 0.0 
0.0 0.0 -7.867544067800e+01 
-6.770508204503e+01 8.196557465331e+00 0.0 
8.196557465331e+00 -1.844451111312e+02 0.0 
0.0 0.0 -7.524505795288e+01 
-7.579212449371e+01 8.658329052228e+00 0.0 
8.658329052228e+00 -2.024649286507e+02 0.0 
0.0 0.0 -8.307711594331e+01 
-7.171499735851e+01 7.365565946985e+00 0.0 
7.365565946985e+00 -1.947665837872e+02 0.0 
0.0 0.0 -7.954447434370e+01 
-6.385043349266e+01 6.790939222949e+00 0.0 
6.790939222949e+00 -1.768455796656e+02 0.0 
0.0 0.0 -7.180880394749e+01 
-6.785278872721e+01 6.018434210095e+00 0.0 
6.018434210095e+00 -1.867786981078e+02 0.0 
0.0 0.0 -7.598944605050e+01 
-7.579005155481e+01 6.638734143531e+00 0.0 
6.638734143531e+00 -2.048141759668e+02 0.0 
0.0 0.0 -8.378126825650e+01 
-7.189267764660e+01 5.361524410483e+00 0.0 
5.361524410483e+00 -1.964528531420e+02 0.0 
0.0 0.0 -8.010365923657e+01 
-6.418919982121e+01 4.673091689443e+00 0.0 
4.673091689443e+00 -1.784542322926e+02 0.0 
0.0 0.0 -7.239302963415e+01 
-6.818984435325e+01 4.109433861376e+00 0.0 
4.109433861376e+00 -1.878296828264e+02 0.0 
0.0 0.0 -7.640585815389e+01 
-7.599381709578e+01 4.811891593744e+00 0.0 
4.811891593744e+00 -2.059807617687e+02 0.0 
0.0 0.0 -8.419237365933e+01 
-7.222975574625e+01 3.651430861362e+00 0.0 
3.651430861362e+00 -1.970634317389e+02 0.0 
0.0 0.0 -8.038795624556e+01 
-6.463498414106e+01 2.923541434417e+00 0.0 
2.923541434417e+00 -1.788900261702e+02 0.0 
0.0 0.0 -7.265750309336e+01 
-6.859388983338e+01 2.571175269565e+00 0.0 
2.571175269565e+00 -1.878857436938e+02 0.0 
0.0 0.0 -7.654389005814e+01 
-7.634732301265e+01 3.290522860417e+00 0.0 
3.290522860417e+00 -2.062900030803e+02 0.0 
0.0 0.0 -8.439119782789e+01 
-7.258712649674e+01 2.305767589933e+00 0.0 
2.305767589933e+00 -1.968126740076e+02 0.0 
0.0 0.0 -8.041994015131e+01 
-6.503042663788e+01 1.594788932354e+00 0.0 
1.594788932354e+00 -1.783730222859e+02 0.0 
0.0 0.0 -7.262103467713e+01 
-6.890301881975e+01 1.420310011470e+00 0.0 
1.420310011470e+00 -1.870765841729e+02 0.0 
0.0 0.0 -7.639388089779e+01 
-7.664016294110e+01 2.106856956622e+00 0.0 
2.106856956622e+00 -2.057621071046e+02 0.0 
0.0 0.0 -8.432068101372e+01 
-7.281332980151e+01 1.305642987018e+00 0.0 
1.305642987018e+00 -1.957752314204e+02 0.0 
0.0 0.0 -8.017656836658e+01 
-8.071905506522e+01 1.960559524919e+00 0.0 
1.960559524919e+00 -2.146611347890e+02 0.0 
0.0 0.0 -8.821405695625e+01 
-6.520067459871e+01 6.538270659530e-01 0.0 
6.538270659530e-01 -1.769370978053e+02 0.0 
0.0 0.0 -7.224133172119e+01 
-6.899541716933e+01 6.248914609365e-01 0.0 
6.248914609365e-01 -1.855149305418e+02 0.0 
0.0 0.0 -7.595310431334e+01 
-6.148017597063e+01 2.303374009372e-02 0.0 
2.303374009372e-02 -1.664796119690e+02 0.0 
0.0 0.0 -6.798793638188e+01 
-6.519022821430e+01 7.465234847464e-02 0.0 
7.465234847464e-02 -1.750452593423e+02 0.0 
0.0 0.0 -7.167064626697e+01 
-8.602802395343e+01 1.325677919875e+01 0.0 
1.325677919875e+01 -2.065822549180e+02 0.0 
0.0 0.0 -8.738308366144e+01 
-5.776173116705e+01 -4.546996584826e-01 0.0 
-4.546996584826e-01 -1.558489861834e+02 0.0 
0.0 0.0 -6.368321520513e+01 
-5.428393024161e+01 -5.355594120745e-01 0.0 
-5.355594120745e-01 -1.475679422103e+02 0.0 
0.0 0.0 -6.015556173556e+01 
-6.137769742966e+01 -3.392200395173e-01 0.0 
-3.392200395173e-01 -1.644179818448e+02 0.0 
0.0 0.0 -6.733870378235e+01 
-6.897497274319e+01 1.451753353769e-01 0.0 
1.451753353769e-01 -1.837473792160e+02 0.0 
0.0 0.0 -7.541670558775e+01 
-5.399824479346e+01 -7.873080597256e-01 0.0 
-7.873080597256e-01 -1.450618055876e+02 0.0 
0.0 0.0 -5.931801511433e+01 
-5.753446950228e+01 -6.322812391756e-01 0.0 
-6.322812391756e-01 -1.536503472261e+02 0.0 
0.0 0.0 -6.295544501852e+01 
-5.018930073839e+01 -1.001835295485e+00 0.0 
-1.001835295485e+00 -1.341762898658e+02 0.0 
0.0 0.0 -5.490967718127e+01 
-5.686195475785e+01 1.336248463822e+01 0.0 
1.336248463822e+01 -1.447290688910e+02 0.0 
0.0 0.0 -6.007730709464e+01 
-1.009075263692e+02 1.096172435588e+01 0.0 
1.096172435588e+01 -2.189370536393e+02 0.0 
0.0 0.0 -9.555337400255e+01 
-5.364626905050e+01 -8.193698207399e-01 0.0 
-8.193698207399e-01 -1.427824012624e+02 0.0 
0.0 0.0 -5.852860109388e+01 
-4.630470288365e+01 -1.081464410706e+00 0.0 
-1.081464410706e+00 -1.232014919589e+02 0.0 
0.0 0.0 -5.045185845278e+01 
-4.300175306073e+01 -1.284086176979e+00 0.0 
-1.284086176979e+00 -1.146233534089e+02 0.0 
0.0 0.0 -4.688753194091e+01 
-3.914329527150e+01 -1.278277262041e+00 0.0 
-1.278277262041e+00 -1.035859654724e+02 0.0 
0.0 0.0 -4.241877822316e+01 
-8.860386127979e+01 3.784568541056e+00 0.0 
3.784568541056e+00 -1.850968226690e+02 0.0 
0.0 0.0 -8.171020518465e+01 
-9.626816056302e+01 4.463047483480e+00 0.0 
4.463047483480e+00 -2.046565144798e+02 0.0 
0.0 0.0 -8.987740251284e+01 
-9.197074946705e+01 3.627806543089e+00 0.0 
3.627806543089e+00 -1.946765083590e+02 0.0 
0.0 0.0 -8.559417734781e+01 
-9.983811534277e+01 4.380952773626e+00 0.0 
4.380952773626e+00 -2.148115631333e+02 0.0 
0.0 0.0 -9.399490354282e+01 
-9.577391498928e+01 3.590494829873e+00 0.0 
3.590494829873e+00 -2.052902407675e+02 0.0 
0.0 0.0 -8.991924672704e+01 
-4.236991888653e+01 -1.043275218216e+00 0.0 
-1.043275218216e+00 -1.121326568468e+02 0.0 
0.0 0.0 -4.595077272000e+01 
-1.045977854012e+02 7.675398196057e+00 0.0 
7.675398196057e+00 -2.243047382165e+02 0.0 
0.0 0.0 -9.827075708530e+01 
-1.038765455066e+02 5.239315558387e+00 0.0 
5.239315558387e+00 -2.244601215741e+02 0.0 
0.0 0.0 -9.810100012421e+01 
-7.787738917660e+01 9.716621823026e+00 0.0 
9.716621823026e+00 -1.595036324723e+02 0.0 
0.0 0.0 -7.081430649468e+01 
-6.816409727555e+01 1.350339911560e+01 0.0 
1.350339911560e+01 -1.496992516730e+02 0.0 
0.0 0.0 -6.495900468455e+01 
-8.006443839072e+01 9.847036474100e+00 0.0 
9.847036474100e+00 -2.098957563892e+02 0.0 
0.0 0.0 -8.658805843398e+01 
-6.111948792755e+01 -4.659637536801e-01 0.0 
-4.659637536801e-01 -1.622734058438e+02 0.0 
0.0 0.0 -6.661786813141e+01 
-5.716134873744e+01 -6.408329798417e-01 0.0 
-6.408329798417e-01 -1.514347154225e+02 0.0 
0.0 0.0 -6.217881924797e+01 
-6.470034608279e+01 -2.934758288011e-01 0.0 
-2.934758288011e-01 -1.709469794612e+02 0.0 
0.0 0.0 -7.029419766319e+01 
-8.470308359142e+01 2.792895911646e+00 0.0 
2.792895911646e+00 -2.245676748765e+02 0.0 
0.0 0.0 -9.238122754038e+01 
-8.890753813301e+01 2.610789356206e+00 0.0 
2.610789356206e+00 -2.335742877779e+02 0.0 
0.0 0.0 -9.634454777328e+01 
-9.305459685181e+01 3.464440332948e+00 0.0 
3.464440332948e+00 -2.434167296220e+02 0.0 
0.0 0.0 -1.005413979422e+02 
-9.736683994364e+01 3.248193900159e+00 0.0 
3.248193900159e+00 -2.524878159999e+02 0.0 
0.0 0.0 -1.045563967831e+02 
-1.016793429016e+02 4.118907296493e+00 0.0 
4.118907296493e+00 -2.622815703648e+02 0.0 
0.0 0.0 -1.087882739799e+02 
-1.060896458751e+02 3.865643217180e+00 0.0 
3.865643217180e+00 -2.713968191987e+02 0.0 
0.0 0.0 -1.128459395221e+02 
-1.016832308370e+02 3.053465871303e+00 0.0 
3.053465871303e+00 -2.614602609422e+02 0.0 
0.0 0.0 -1.085430475338e+02 
-1.105041416953e+02 3.630034516709e+00 0.0 
3.630034516709e+00 -2.804054972669e+02 0.0 
0.0 0.0 -1.168728916887e+02 
-1.060016310108e+02 2.867001027153e+00 0.0 
2.867001027153e+00 -2.703471887440e+02 0.0 
0.0 0.0 -1.125046459264e+02 
-1.105643406128e+02 4.750113394031e+00 0.0 
4.750113394031e+00 -2.811464035877e+02 0.0 
0.0 0.0 -1.171132232602e+02 
-1.060438242008e+02 5.057559306249e+00 0.0 
5.057559306249e+00 -2.718376228731e+02 0.0 
0.0 0.0 -1.129644341222e+02 
-1.149197429386e+02 3.396044016124e+00 0.0 
3.396044016124e+00 -2.893115371925e+02 0.0 
0.0 0.0 -1.208693840393e+02 
-1.103184004049e+02 2.671919421941e+00 0.0 
2.671919421941e+00 -2.791502331544e+02 0.0 
0.0 0.0 -1.164405900678e+02 
-1.193397737283e+02 3.146391677094e+00 0.0 
3.146391677094e+00 -2.981282874484e+02 0.0 
0.0 0.0 -1.248404183530e+02 
-1.146333678376e+02 2.461036437701e+00 0.0 
2.461036437701e+00 -2.878771501927e+02 0.0 
0.0 0.0 -1.203531554091e+02 
-1.057447257738e+02 2.026611003945e+00 0.0 
2.026611003945e+00 -2.688121971667e+02 0.0 
0.0 0.0 -1.119670768822e+02 
-1.099443456361e+02 1.851468420099e+00 0.0 
1.851468420099e+00 -2.774547417962e+02 0.0 
0.0 0.0 -1.158197262297e+02 
-1.012243649232e+02 1.475671956662e+00 0.0 
1.475671956662e+00 -2.583987271772e+02 0.0 
0.0 0.0 -1.074869276301e+02 
-8.410114365414e+01 9.086308943286e+00 0.0 
9.086308943286e+00 -2.206454013974e+02 0.0 
0.0 0.0 -9.102396351546e+01 
-8.849722845621e+01 1.016987866577e+01 0.0 
1.016987866577e+01 -2.281993178870e+02 0.0 
0.0 0.0 -9.460896390295e+01 
-9.260219157179e+01 9.498109976857e+00 0.0 
9.498109976857e+00 -2.389806599155e+02 0.0 
0.0 0.0 -9.907485544617e+01 
-9.708739685749e+01 1.050278999298e+01 0.0 
1.050278999298e+01 -2.466573293998e+02 0.0 
0.0 0.0 -1.027234178772e+02 
-1.012858176664e+02 9.924169282893e+00 0.0 
9.924169282893e+00 -2.574579328524e+02 0.0 
0.0 0.0 -1.072231251556e+02 
-1.058199819314e+02 1.087358649673e+01 0.0 
1.087358649673e+01 -2.652365103962e+02 0.0 
0.0 0.0 -1.109169476983e+02 
-1.101232365725e+02 1.038427475284e+01 0.0 
1.038427475284e+01 -2.760115736976e+02 0.0 
0.0 0.0 -1.154404430810e+02 
-1.056020586474e+02 9.385424527694e+00 0.0 
9.385424527694e+00 -2.679993210773e+02 0.0 
0.0 0.0 -1.116804139174e+02 
-1.047030451120e+02 9.068262756742e+00 0.0 
9.068262756742e+00 -2.252144369050e+02 0.0 
0.0 0.0 -9.857524460511e+01 
-5.599294934711e+01 8.680251383839e+00 0.0 
8.680251383839e+00 -1.560502730266e+02 0.0 
0.0 0.0 -6.321296671211e+01 
-5.218005227198e+01 9.801886386602e+00 0.0 
9.801886386602e+00 -1.451018309285e+02 0.0 
0.0 0.0 -5.878456496014e+01 
-4.852453410077e+01 8.122797119932e+00 0.0 
8.122797119932e+00 -1.384438029282e+02 0.0 
0.0 0.0 -5.569050110871e+01 
-4.476153920610e+01 9.312402079930e+00 0.0 
9.312402079930e+00 -1.275682790639e+02 0.0 
0.0 0.0 -5.129894548100e+01 
-4.147037423904e+01 7.438612930946e+00 0.0 
7.438612930946e+00 -1.209862546686e+02 0.0 
0.0 0.0 -4.833698867229e+01 
-3.781370179037e+01 8.673985655802e+00 0.0 
8.673985655802e+00 -1.102125306716e+02 0.0 
0.0 0.0 -4.400786973859e+01 
-3.494573812065e+01 6.634573445295e+00 0.0 
6.634573445295e+00 -1.035924222434e+02 0.0 
0.0 0.0 -4.116144810923e+01 
-3.854107130706e+01 5.508228037259e+00 0.0 
5.508228037259e+00 -1.137966799202e+02 0.0 
0.0 0.0 -4.530132536818e+01 
-3.244408266562e+01 4.611021599307e+00 0.0 
4.611021599307e+00 -9.626127128394e+01 0.0 
0.0 0.0 -3.821160618487e+01 
-3.591769710098e+01 3.643900321172e+00 0.0 
3.643900321172e+00 -1.059433625685e+02 0.0 
0.0 0.0 -4.215831790086e+01 
-3.019741824841e+01 2.724675935127e+00 0.0 
2.724675935127e+00 -8.818733355820e+01 0.0 
0.0 0.0 -3.511542554198e+01 
-3.347572018857e+01 1.949838259998e+00 0.0 
1.949838259998e+00 -9.736690645499e+01 0.0 
0.0 0.0 -3.885278799307e+01 
-9.181802639810e+01 1.306785018353e+01 0.0 
1.306785018353e+01 -2.078258378575e+02 0.0 
0.0 0.0 -8.949315927667e+01 
-1.016427297616e+02 1.138600214253e+01 0.0 
1.138600214253e+01 -2.541650573092e+02 0.0 
0.0 0.0 -1.063423361212e+02 
-1.104117643403e+02 1.171250095688e+01 0.0 
1.171250095688e+01 -2.728932060644e+02 0.0 
0.0 0.0 -1.145914911214e+02 
-1.062060124858e+02 1.213335979352e+01 0.0 
1.213335979352e+01 -2.614850400652e+02 0.0 
0.0 0.0 -1.099073157653e+02 
-3.595333973452e+01 -1.456761100538e+00 0.0 
-1.456761100538e+00 -9.503686033639e+01 0.0 
0.0 0.0 -3.889706002127e+01 
-1.189467334851e+02 2.223081504820e+00 0.0 
2.223081504820e+00 -2.965450098872e+02 0.0 
0.0 0.0 -1.242475230117e+02 
-1.151016002837e+02 5.702225350462e+00 0.0 
5.702225350462e+00 -2.906889539149e+02 0.0 
0.0 0.0 -1.213371662596e+02 
-1.104598050137e+02 6.044825015901e+00 0.0 
6.044825015901e+00 -2.811250191913e+02 0.0 
0.0 0.0 -1.170754472615e+02 
-1.145762699058e+02 9.913708692333e+00 0.0 
9.913708692333e+00 -2.865913546622e+02 0.0 
0.0 0.0 -1.199502873704e+02 
-3.524579692251e+01 -1.171691635590e+00 0.0 
-1.171691635590e+00 -9.264354815995e+01 0.0 
0.0 0.0 -3.796680352474e+01 
-3.152330160668e+01 7.917799029118e+00 0.0 
7.917799029118e+00 -9.301100651456e+01 0.0 
0.0 0.0 -3.696029243637e+01 
-3.425238032507e+01 1.000134743863e+01 0.0 
1.000134743863e+01 -9.880457626075e+01 0.0 
0.0 0.0 -3.951708697575e+01 
-1.034235943427e+02 4.298327557447e+00 0.0 
4.298327557447e+00 -2.250855604537e+02 0.0 
0.0 0.0 -9.815274643892e+01 
-9.943153668918e+01 3.541287475218e+00 0.0 
3.541287475218e+00 -2.156267950181e+02 0.0 
0.0 0.0 -9.411749951219e+01 
-1.197205758971e+02 6.695568248300e+00 0.0 
6.695568248300e+00 -3.000410532432e+02 0.0 
0.0 0.0 -1.255284887421e+02 
-3.843975903652e+01 -9.659417260825e-01 0.0 
-9.659417260825e-01 -1.011711033984e+02 0.0 
0.0 0.0 -4.148325873049e+01 
-1.195743456142e+02 4.190072500568e+00 0.0 
4.190072500568e+00 -2.993198354811e+02 0.0 
0.0 0.0 -1.252682543286e+02 
-2.708922576371e+01 3.666762222152e+00 0.0 
3.666762222152e+00 -7.876916985313e+01 0.0 
0.0 0.0 -3.135751868505e+01 
-1.141490239228e+02 1.642423472061e+00 0.0 
1.642423472061e+00 -2.860549091825e+02 0.0 
0.0 0.0 -1.196611799316e+02 
-1.232317268914e+02 1.951449071007e+00 0.0 
1.951449071007e+00 -3.051418318572e+02 0.0 
0.0 0.0 -1.281120676246e+02 
-9.734631903441e+01 2.322806513601e+00 0.0 
2.322806513601e+00 -2.513736742688e+02 0.0 
0.0 0.0 -1.042159979910e+02 
-1.150132033042e+02 1.244728954946e+01 0.0 
1.244728954946e+01 -2.804529370247e+02 0.0 
0.0 0.0 -1.182398420987e+02 
-1.107509712508e+02 1.274064496705e+01 0.0 
1.274064496705e+01 -2.687122269908e+02 0.0 
0.0 0.0 -1.134389594725e+02 
-3.951769215069e+01 2.872853676847e+00 0.0 
2.872853676847e+00 -1.154291233708e+02 0.0 
0.0 0.0 -4.608404465646e+01 
-3.686076458068e+01 1.424767666414e+00 0.0 
1.424767666414e+00 -1.064875959868e+02 0.0 
0.0 0.0 -4.260450817026e+01 
-3.119724694834e+01 5.879025799139e-01 0.0 
5.879025799139e-01 -8.853178258857e+01 0.0 
0.0 0.0 -3.551870886107e+01 
-3.466713606852e+01 1.920780467665e-01 0.0 
1.920780467665e-01 -9.776381459682e+01 0.0 
0.0 0.0 -3.932928519960e+01 
-4.038966614663e+01 9.533479740260e-01 0.0 
9.533479740260e-01 -1.156772638594e+02 0.0 
0.0 0.0 -4.642007900182e+01 
-3.764379378977e+01 -1.783479432194e-01 0.0 
-1.783479432194e-01 -1.058979432991e+02 0.0 
0.0 0.0 -4.266252112667e+01 
-3.191093717269e+01 -8.857061930841e-01 0.0 
-8.857061930841e-01 -8.752870274220e+01 0.0 
0.0 0.0 -3.543189197447e+01 
-3.482375438024e+01 -9.819423392451e-01 0.0 
-9.819423392451e-01 -9.573324932809e+01 0.0 
0.0 0.0 -3.876710111250e+01 
-4.091652017678e+01 -3.652820869864e-01 0.0 
-3.652820869864e-01 -1.144572160926e+02 0.0 
0.0 0.0 -4.621212088080e+01 
-3.788438135348e+01 -1.064880519233e+00 0.0 
-1.064880519233e+00 -1.041211142191e+02 0.0 
0.0 0.0 -4.220164867177e+01 
-3.189516629542e+01 -1.512409456173e+00 0.0 
-1.512409456173e+00 -8.508763840972e+01 0.0 
0.0 0.0 -3.469484141154e+01 
-3.469061862049e+01 -1.498990901934e+00 0.0 
-1.498990901934e+00 -9.339609928997e+01 0.0 
0.0 0.0 -3.802601537314e+01 
-1.281422948451e+02 2.565913927124e+00 0.0 
2.565913927124e+00 -3.155247330903e+02 0.0 
0.0 0.0 -1.327001083806e+02 
-2.528302627319e+01 1.834576646467e+00 0.0 
1.834576646467e+00 -7.041972967042e+01 0.0 
0.0 0.0 -2.831082678308e+01 
-8.181991001528e+01 6.928077633899e+00 0.0 
6.928077633899e+00 -1.660411308726e+02 0.0 
0.0 0.0 -7.395831226636e+01 
-1.244049592472e+02 6.325374343162e+00 0.0 
6.325374343162e+00 -3.095104229142e+02 0.0 
0.0 0.0 -1.297746146484e+02 
-1.190555308861e+02 1.088572431650e+01 0.0 
1.088572431650e+01 -2.944515387872e+02 0.0 
0.0 0.0 -1.236521209020e+02 
-1.070279316580e+02 4.194575554476e+00 0.0 
4.194575554476e+00 -2.354795957392e+02 0.0 
0.0 0.0 -1.023522582192e+02 
-1.031037906446e+02 3.471692321752e+00 0.0 
3.471692321752e+00 -2.261079107838e+02 0.0 
0.0 0.0 -9.836351042852e+01 
-9.534872650363e+01 2.821936416487e+00 0.0 
2.821936416487e+00 -2.062328705987e+02 0.0 
0.0 0.0 -9.007447913071e+01 
-9.912933236757e+01 2.801307898652e+00 0.0 
2.801307898652e+00 -2.168749385380e+02 0.0 
0.0 0.0 -9.440128127168e+01 
-1.067908152491e+02 3.392861266265e+00 0.0 
3.392861266265e+00 -2.367488706406e+02 0.0 
0.0 0.0 -1.026619057669e+02 
-1.029120743336e+02 2.754419875741e+00 0.0 
2.754419875741e+00 -2.275484248108e+02 0.0 
0.0 0.0 -9.873814974333e+01 
-9.512560371408e+01 2.224956349160e+00 0.0 
2.224956349160e+00 -2.077078629689e+02 0.0 
0.0 0.0 -9.045004000489e+01 
-9.901966834861e+01 2.195992048635e+00 0.0 
2.195992048635e+00 -2.183863193776e+02 0.0 
0.0 0.0 -9.482179631787e+01 
-9.114403127472e+01 1.725904971960e+00 0.0 
1.725904971960e+00 -1.985693893645e+02 0.0 
0.0 0.0 -8.651402619178e+01 
-9.511934114821e+01 1.709598894207e+00 0.0 
1.709598894207e+00 -2.092883617294e+02 0.0 
0.0 0.0 -9.092231086328e+01 
-1.029271895061e+02 2.136693877140e+00 0.0 
2.136693877140e+00 -2.291115990498e+02 0.0 
0.0 0.0 -9.921163656677e+01 
-9.910974270238e+01 1.683487650093e+00 0.0 
1.683487650093e+00 -2.200758897615e+02 0.0 
0.0 0.0 -9.535568973916e+01 
-9.120223672041e+01 1.290646543030e+00 0.0 
1.290646543030e+00 -2.002905930713e+02 0.0 
0.0 0.0 -8.704784893753e+01 
-9.527818204780e+01 1.295949795485e+00 0.0 
1.295949795485e+00 -2.110711420341e+02 0.0 
0.0 0.0 -9.150479722456e+01 
-8.728256811625e+01 9.603662076462e-01 0.0 
9.603662076462e-01 -1.912928154444e+02 0.0 
0.0 0.0 -8.317261506821e+01 
-9.145554604179e+01 9.852985948623e-01 0.0 
9.852985948623e-01 -2.020052581518e+02 0.0 
0.0 0.0 -8.763824125807e+01 
-9.937961565059e+01 1.222387138723e+00 0.0 
1.222387138723e+00 -2.218979446519e+02 0.0 
0.0 0.0 -9.598326809075e+01 
-3.159067131472e+01 -1.020104895049e+00 0.0 
-1.020104895049e+00 -8.219402734984e+01 0.0 
0.0 0.0 -3.373540959937e+01 
-1.100330700712e+02 8.887680701799e+00 0.0 
8.887680701799e+00 -2.783313261937e+02 0.0 
0.0 0.0 -1.161093188795e+02 
-1.192018318704e+02 9.461742666216e+00 0.0 
9.461742666216e+00 -2.970816974162e+02 0.0 
0.0 0.0 -1.244850587860e+02 
-6.081466464695e+01 -3.607434676733e-01 0.0 
-3.607434676733e-01 -1.606476126890e+02 0.0 
0.0 0.0 -6.603868320077e+01 
-6.820025067954e+01 -1.040862534046e-01 0.0 
-1.040862534046e-01 -1.793745117538e+02 0.0 
0.0 0.0 -7.387242873001e+01 
-7.241438752562e+01 -2.545145769397e-02 0.0 
-2.545145769397e-02 -1.903465598493e+02 0.0 
0.0 0.0 -7.842828421247e+01 
-7.624029865736e+01 7.974321555143e-02 0.0 
7.974321555143e-02 -1.991327672492e+02 0.0 
0.0 0.0 -8.221191977196e+01 
-9.558207031549e+01 9.158672720582e-01 0.0 
9.158672720582e-01 -2.127283724304e+02 0.0 
0.0 0.0 -9.209313282378e+01 
-1.034148471081e+02 1.091687387291e+00 0.0 
1.091687387291e+00 -2.327416891882e+02 0.0 
0.0 0.0 -1.004469608889e+02 
-2.825741510932e+01 9.291628375574e+00 0.0 
9.291628375574e+00 -8.177931379237e+01 0.0 
0.0 0.0 -3.261101867051e+01 
-3.083034864156e+01 1.132128639712e+01 0.0 
1.132128639712e+01 -8.666940501895e+01 0.0 
0.0 0.0 -3.484992609815e+01 
-1.108911106132e+02 4.981284223403e+00 0.0 
4.981284223403e+00 -2.449762995335e+02 0.0 
0.0 0.0 -1.063602230440e+02 
-1.183458327442e+02 1.411734177995e+00 0.0 
1.411734177995e+00 -2.946573211722e+02 0.0 
0.0 0.0 -1.235009461749e+02 
-1.094121160793e+02 1.144039558143e+00 0.0 
1.144039558143e+00 -2.755351474099e+02 0.0 
0.0 0.0 -1.150841790468e+02 
-6.342158732143e+01 1.409012475588e+01 0.0 
1.409012475588e+01 -1.435794180087e+02 0.0 
0.0 0.0 -6.170030159905e+01 
-6.020173494233e+01 1.370890903237e+01 0.0 
1.370890903237e+01 -1.301000033061e+02 0.0 
0.0 0.0 -5.669052147452e+01 
-5.542602275707e+01 1.440368484178e+01 0.0 
1.440368484178e+01 -1.242939218877e+02 0.0 
0.0 0.0 -5.351598339344e+01 
-5.202452249816e+01 1.387608183119e+01 0.0 
1.387608183119e+01 -1.099474283523e+02 0.0 
0.0 0.0 -4.819158525513e+01 
-5.680515438164e+01 1.277072424249e+01 0.0 
1.277072424249e+01 -1.164337833499e+02 0.0 
0.0 0.0 -5.157168131945e+01 
-4.723112822623e+01 1.471042369455e+01 0.0 
1.471042369455e+01 -1.044155608310e+02 0.0 
0.0 0.0 -4.509400671716e+01 
-1.014563686057e+02 5.375274377649e+00 0.0 
5.375274377649e+00 -2.622109754840e+02 0.0 
0.0 0.0 -1.087002032269e+02 
-1.068521856157e+02 2.058916352217e+00 0.0 
2.058916352217e+00 -2.399291217235e+02 0.0 
0.0 0.0 -1.036343922017e+02 
-3.978508465351e+01 -1.475748425550e+00 0.0 
-1.475748425550e+00 -1.061370769729e+02 0.0 
0.0 0.0 -4.337664848791e+01 
-3.295523288858e+01 -1.618411952587e+00 0.0 
-1.618411952587e+00 -8.662970533138e+01 0.0 
0.0 0.0 -3.547548146599e+01 
-1.274784020415e+02 1.650406671090e+00 0.0 
1.650406671090e+00 -3.137352820238e+02 0.0 
0.0 0.0 -1.319641052196e+02 
-1.011080917775e+02 8.322658446300e+00 0.0 
8.322658446300e+00 -2.597375892394e+02 0.0 
0.0 0.0 -1.078537043050e+02 
-9.622613397514e+01 1.267588644206e+01 0.0 
1.267588644206e+01 -2.150570974017e+02 0.0 
0.0 0.0 -9.298496941306e+01 
-9.969616581135e+01 1.307799867037e+01 0.0 
1.307799867037e+01 -2.271595862480e+02 0.0 
0.0 0.0 -9.765672561781e+01 
-1.040229390335e+02 1.280883255341e+01 0.0 
1.280883255341e+01 -2.345876696063e+02 0.0 
0.0 0.0 -1.011831825920e+02 
-1.075981092079e+02 1.319484882608e+01 0.0 
1.319484882608e+01 -2.465660678536e+02 0.0 
0.0 0.0 -1.058492531185e+02 
-1.118043544797e+02 1.305037281039e+01 0.0 
1.305037281039e+01 -2.541520881326e+02 0.0 
0.0 0.0 -1.093869327837e+02 
-1.154553878469e+02 1.345485098067e+01 0.0 
1.345485098067e+01 -2.659446782316e+02 0.0 
0.0 0.0 -1.140200198236e+02 
-1.112555912946e+02 1.343859490955e+01 0.0 
1.343859490955e+01 -2.585396517024e+02 0.0 
0.0 0.0 -1.105385728991e+02 
-1.195626247726e+02 1.307886752046e+01 0.0 
1.307886752046e+01 -2.879150389056e+02 0.0 
0.0 0.0 -1.218432991034e+02 
-1.192467306616e+02 1.376710879952e+01 0.0 
1.376710879952e+01 -2.777977428424e+02 0.0 
0.0 0.0 -1.187133420512e+02 
-8.760210715905e+01 6.409875808702e-01 0.0 
6.409875808702e-01 -1.926534301828e+02 0.0 
0.0 0.0 -8.367666120257e+01 
-9.749399217555e+01 1.189322171225e+01 0.0 
1.189322171225e+01 -2.426108429851e+02 0.0 
0.0 0.0 -1.016314505482e+02 
-4.428546924165e+01 -4.805707067673e-01 0.0 
-4.805707067673e-01 -1.230877169459e+02 0.0 
0.0 0.0 -4.981195585625e+01 
-2.819470504248e+01 -1.127283450407e+00 0.0 
-1.127283450407e+00 -7.340087706356e+01 0.0 
0.0 0.0 -3.007867463181e+01 
-2.839429786520e+01 -1.773884627924e+00 0.0 
-1.773884627924e+00 -7.368273321132e+01 0.0 
0.0 0.0 -3.022310932296e+01 
-3.430579636837e+01 -8.653942010847e-01 0.0 
-8.653942010847e-01 -8.991472243830e+01 0.0 
0.0 0.0 -3.686615564200e+01 
-4.164988544257e+01 -7.870163399437e-01 0.0 
-7.870163399437e-01 -1.096665189642e+02 0.0 
0.0 0.0 -4.499492132203e+01 
-1.292065581074e+02 7.339276326209e+00 0.0 
7.339276326209e+00 -3.188954669492e+02 0.0 
0.0 0.0 -1.340306075170e+02 
-1.195097536950e+02 1.342162613211e+01 0.0 
1.342162613211e+01 -2.736498811458e+02 0.0 
0.0 0.0 -1.175478904522e+02 
-1.157468848970e+02 1.285282426741e+01 0.0 
1.285282426741e+01 -2.618173727741e+02 0.0 
0.0 0.0 -1.128692773013e+02 
-4.854005258098e+01 1.263130546990e+01 0.0 
1.263130546990e+01 -9.589529326365e+01 0.0 
0.0 0.0 -4.293060375339e+01 
-5.321658952579e+01 1.119878285968e+01 0.0 
1.119878285968e+01 -1.030735739739e+02 0.0 
0.0 0.0 -4.648704904992e+01 
-1.239549868258e+02 1.290258526262e+01 0.0 
1.290258526262e+01 -2.994073296569e+02 0.0 
0.0 0.0 -1.266086949448e+02 
-8.795297911940e+01 2.846242416643e+00 0.0 
2.846242416643e+00 -1.855028300742e+02 0.0 
0.0 0.0 -8.163674275807e+01 
-8.719973428430e+01 1.698201691641e+00 0.0 
1.698201691641e+00 -1.879624899673e+02 0.0 
0.0 0.0 -8.214866727548e+01 
-8.306753912074e+01 1.247736059254e+00 0.0 
1.247736059254e+00 -1.787652638581e+02 0.0 
0.0 0.0 -7.814984089364e+01 
-2.656871274584e+01 -7.870603100393e-01 0.0 
-7.870603100393e-01 -6.865891939799e+01 0.0 
0.0 0.0 -2.816828964315e+01 
-2.621990809682e+01 -1.784562375302e+00 0.0 
-1.784562375302e+00 -6.618726052346e+01 0.0 
0.0 0.0 -2.732215058608e+01 
-1.105170015481e+02 3.271787743709e+00 0.0 
3.271787743709e+00 -2.474542319172e+02 0.0 
0.0 0.0 -1.069913700396e+02 
-3.742402816803e+01 1.185792528155e+01 0.0 
1.185792528155e+01 -1.038544753863e+02 0.0 
0.0 0.0 -4.198355106629e+01 
-3.396849745497e+01 1.306544974971e+01 0.0 
1.306544974971e+01 -9.095247861734e+01 0.0 
0.0 0.0 -3.707629282169e+01 
-2.255259254754e+01 2.819363225869e+00 0.0 
2.819363225869e+00 -6.107349638047e+01 0.0 
0.0 0.0 -2.468782667840e+01 
-2.110498438756e+01 1.070476386081e+00 0.0 
1.070476386081e+00 -5.243938542932e+01 0.0 
0.0 0.0 -2.166331094506e+01 
-9.970135195382e+01 7.114040658968e-01 0.0 
7.114040658968e-01 -2.232890689846e+02 0.0 
0.0 0.0 -9.649712628152e+01 
-1.074656227100e+02 9.065273842318e-01 0.0 
9.065273842318e-01 -2.431731122086e+02 0.0 
0.0 0.0 -1.047916204756e+02 
-8.045261876649e+01 3.317982758463e-01 0.0 
3.317982758463e-01 -2.097662232716e+02 0.0 
0.0 0.0 -8.666565261144e+01 
-8.425750270190e+01 3.983556756010e-01 0.0 
3.983556756010e-01 -2.184699404296e+02 0.0 
0.0 0.0 -9.041823293946e+01 
-1.244428541744e+02 7.722559163784e+00 0.0 
7.722559163784e+00 -3.092484792246e+02 0.0 
0.0 0.0 -1.297074000197e+02 
-3.137149403939e+01 -1.736939437753e+00 0.0 
-1.736939437753e+00 -8.251783350990e+01 0.0 
0.0 0.0 -3.376679826479e+01 
-1.112227388461e+02 1.322483574750e+00 0.0 
1.322483574750e+00 -2.526800920700e+02 0.0 
0.0 0.0 -1.087708492748e+02 
-1.055293646699e+02 7.826569715711e+00 0.0 
7.826569715711e+00 -2.698552781412e+02 0.0 
0.0 0.0 -1.122153928433e+02 
-9.670733909824e+01 7.226257061534e+00 0.0 
7.226257061534e+00 -2.512526240733e+02 0.0 
0.0 0.0 -1.039879889515e+02 
-7.200157373976e+01 -1.433923687575e-01 0.0 
-1.433923687575e-01 -1.880551500863e+02 0.0 
0.0 0.0 -7.761701714782e+01 
-2.520642911770e+01 1.063827976851e+01 0.0 
1.063827976851e+01 -6.978836876355e+01 0.0 
0.0 0.0 -2.809843936438e+01 
-2.321150877186e+01 8.514344748609e+00 0.0 
8.514344748609e+00 -6.502285659289e+01 0.0 
0.0 0.0 -2.607030960943e+01 
-4.740291368256e+01 3.334544613174e-01 0.0 
3.334544613174e-01 -1.331594076721e+02 0.0 
0.0 0.0 -5.376869640640e+01 
-3.775639079283e+01 -1.478038989873e+00 0.0 
-1.478038989873e+00 -1.019116773634e+02 0.0 
0.0 0.0 -4.150042044688e+01 
-3.751164197018e+01 -6.239521201155e-01 0.0 
-6.239521201155e-01 -9.843901408142e+01 0.0 
0.0 0.0 -4.038519681548e+01 
-1.340175507819e+02 8.370333973304e+00 0.0 
8.370333973304e+00 -3.280199544416e+02 0.0 
0.0 0.0 -1.382112515670e+02 
-1.142524057657e+02 3.925004266601e+00 0.0 
3.925004266601e+00 -2.565890765461e+02 0.0 
0.0 0.0 -1.108524446935e+02 
-1.150789892259e+02 1.362090509250e+01 0.0 
1.362090509250e+01 -2.704587164962e+02 0.0 
0.0 0.0 -1.152613117166e+02 
-1.068272287178e+02 1.337121676532e+01 0.0 
1.337121676532e+01 -2.512019159908e+02 0.0 
0.0 0.0 -1.070087434126e+02 
-1.234029920146e+02 1.398611977162e+01 0.0 
1.398611977162e+01 -2.897484343108e+02 0.0 
0.0 0.0 -1.235454278976e+02 
-2.544432289533e+01 -1.800570676648e+00 0.0 
-1.800570676648e+00 -6.314930581929e+01 0.0 
0.0 0.0 -2.617808861439e+01 
-1.340677098730e+02 6.959902393971e+00 0.0 
6.959902393971e+00 -3.285832291741e+02 0.0 
0.0 0.0 -1.383952817141e+02 
-1.225118603376e+02 1.140208584011e+00 0.0 
1.140208584011e+00 -3.032788007699e+02 0.0 
0.0 0.0 -1.273371983322e+02 
-1.229132176271e+02 1.325406743282e+01 0.0 
1.325406743282e+01 -2.806410070902e+02 0.0 
0.0 0.0 -1.206662674152e+02 
-1.195032070691e+02 1.263290402214e+01 0.0 
1.263290402214e+01 -2.697483125638e+02 0.0 
0.0 0.0 -1.163754558899e+02 
-4.108443814925e+01 1.333690065054e+01 0.0 
1.333690065054e+01 -1.084128273102e+02 0.0 
0.0 0.0 -4.444917963783e+01 
-3.780011191312e+01 1.431529173554e+01 0.0 
1.431529173554e+01 -9.507600286967e+01 0.0 
0.0 0.0 -3.946283443483e+01 
-3.064406635787e+01 1.402177950402e+01 0.0 
1.402177950402e+01 -7.721435373323e+01 0.0 
0.0 0.0 -3.195752602733e+01 
-3.438123287573e+01 1.486450431611e+01 0.0 
1.486450431611e+01 -8.071074037272e+01 0.0 
0.0 0.0 -3.412759197454e+01 
-8.137512865302e+01 5.239813887188e+00 0.0 
5.239813887188e+00 -1.651821844047e+02 0.0 
0.0 0.0 -7.356719391731e+01 
-4.541619408814e+01 1.431767896129e+01 0.0 
1.431767896129e+01 -1.131288921096e+02 0.0 
0.0 0.0 -4.716352585933e+01 
-7.796894098428e+01 7.541711876675e+00 0.0 
7.541711876675e+00 -1.569386424287e+02 0.0 
0.0 0.0 -7.007227502389e+01 
-7.383317735147e+01 6.135064690351e+00 0.0 
6.135064690351e+00 -1.463689777171e+02 0.0 
0.0 0.0 -6.566064652058e+01 
-6.996317464064e+01 6.765868274304e+00 0.0 
6.765868274304e+00 -1.372500432975e+02 0.0 
0.0 0.0 -6.176396538144e+01 
-6.135831671577e+01 1.153175642361e+01 0.0 
1.153175642361e+01 -1.234384592467e+02 0.0 
0.0 0.0 -5.503903278873e+01 
-5.763447570306e+01 9.805894290860e+00 0.0 
9.805894290860e+00 -1.109551376990e+02 0.0 
0.0 0.0 -5.017688402060e+01 
-4.840479439288e+01 1.099741504906e+01 0.0 
1.099741504906e+01 -1.335525489585e+02 0.0 
0.0 0.0 -5.418720300541e+01 
-8.447583155016e+01 1.088661297609e+01 0.0 
1.088661297609e+01 -2.170615549670e+02 0.0 
0.0 0.0 -9.006121595514e+01 
-7.659080328131e+01 2.710898670406e-01 0.0 
2.710898670406e-01 -2.011246736913e+02 0.0 
0.0 0.0 -8.291464309177e+01 
-9.714663909496e+01 1.587656928846e+00 0.0 
1.587656928846e+00 -2.497923462804e+02 0.0 
0.0 0.0 -1.036816956126e+02 
-8.873801269057e+01 3.711247332950e+00 0.0 
3.711247332950e+00 -2.342013331160e+02 0.0 
0.0 0.0 -9.648180374198e+01 
-1.105162159118e+02 2.551974342595e+00 0.0 
2.551974342595e+00 -2.488830683954e+02 0.0 
0.0 0.0 -1.074197852922e+02 
-1.144117202004e+02 2.420153076659e+00 0.0 
2.420153076659e+00 -2.598353463464e+02 0.0 
0.0 0.0 -1.118741199640e+02 
-8.314623881862e+01 9.078061393781e-01 0.0 
9.078061393781e-01 -1.805376040314e+02 0.0 
0.0 0.0 -7.870515285500e+01 
-7.925410301192e+01 6.518343561392e-01 0.0 
6.518343561392e-01 -1.714795224624e+02 0.0 
0.0 0.0 -7.482008764230e+01 
-2.906904790776e+01 -1.492780992548e+00 0.0 
-1.492780992548e+00 -7.541631279860e+01 0.0 
0.0 0.0 -3.094560821191e+01 
-2.621226743401e+01 -1.628414257838e+00 0.0 
-1.628414257838e+00 -6.705964399212e+01 0.0 
0.0 0.0 -2.758157342784e+01 
-8.482313940342e+01 1.851901802815e+00 0.0 
1.851901802815e+00 -2.235371112147e+02 0.0 
0.0 0.0 -9.210807518543e+01 
-1.290550550391e+02 5.950297907830e+00 0.0 
5.950297907830e+00 -3.187675238009e+02 0.0 
0.0 0.0 -1.339467736520e+02 
-1.142976554400e+02 4.787036211052e+00 0.0 
4.787036211052e+00 -2.551788656565e+02 0.0 
0.0 0.0 -1.104429563290e+02 
-1.180291268095e+02 5.629554341395e+00 0.0 
5.629554341395e+00 -2.647458505782e+02 0.0 
0.0 0.0 -1.144324932163e+02 
-1.146709805462e+02 5.840830567043e+00 0.0 
5.840830567043e+00 -2.544929948040e+02 0.0 
0.0 0.0 -1.103491926051e+02 
-1.291005762717e+02 8.760281755616e+00 0.0 
8.760281755616e+00 -3.180006230720e+02 0.0 
0.0 0.0 -1.337303598031e+02 
-5.236768462684e+01 7.060145720731e+00 0.0 
7.060145720731e+00 -1.489028126682e+02 0.0 
0.0 0.0 -5.998114918851e+01 
-8.822405165776e+01 8.395489351486e+00 0.0 
8.395489351486e+00 -2.310936337516e+02 0.0 
0.0 0.0 -9.539530562281e+01 
-2.355542075476e+01 4.229432356633e-01 0.0 
4.229432356633e-01 -6.143596655385e+01 0.0 
0.0 0.0 -2.509741619258e+01 
-9.065665644345e+01 1.335296181858e+01 0.0 
1.335296181858e+01 -2.131870745273e+02 0.0 
0.0 0.0 -9.075311929123e+01 
-2.234648862766e+01 -1.376554702949e+00 0.0 
-1.376554702949e+00 -5.597734994137e+01 0.0 
0.0 0.0 -2.309715157071e+01 
-1.046974437350e+02 1.047387464982e+01 0.0 
1.047387464982e+01 -2.272734397911e+02 0.0 
0.0 0.0 -9.919126505782e+01 
-1.318237173541e+02 1.298430834810e+00 0.0 
1.298430834810e+00 -3.223874343498e+02 0.0 
0.0 0.0 -1.358633455112e+02 
-1.368229827446e+02 1.856618331223e+00 0.0 
1.856618331223e+00 -3.326419167713e+02 0.0 
0.0 0.0 -1.404394698548e+02 
-1.283099778602e+02 1.360546051249e+01 0.0 
1.360546051249e+01 -3.068176293551e+02 0.0 
0.0 0.0 -1.301382821646e+02 
-6.913447762515e+01 3.182197929150e+00 0.0 
3.182197929150e+00 -1.366477722720e+02 0.0 
0.0 0.0 -6.133467496914e+01 
-9.415775303994e+01 1.316925934047e+01 0.0 
1.316925934047e+01 -2.252683227723e+02 0.0 
0.0 0.0 -9.542782274367e+01 
-8.957712175389e+01 1.285326420677e+01 0.0 
1.285326420677e+01 -2.186015120470e+02 0.0 
0.0 0.0 -9.205359014026e+01 
-6.568324554202e+01 5.236161881342e+00 0.0 
5.236161881342e+00 -1.269309088208e+02 0.0 
0.0 0.0 -5.738424630884e+01 
-6.175320765520e+01 5.868373591118e+00 0.0 
5.868373591118e+00 -1.177145224060e+02 0.0 
0.0 0.0 -5.344031901835e+01 
-6.599451699230e+01 7.548927175867e+00 0.0 
7.548927175867e+00 -1.282972370415e+02 0.0 
0.0 0.0 -5.788752621013e+01 
-5.775110325593e+01 6.704889079645e+00 0.0 
6.704889079645e+00 -1.086271178642e+02 0.0 
0.0 0.0 -4.951346633603e+01 
-5.094494769584e+01 1.835588763207e-01 0.0 
1.835588763207e-01 -1.417480022145e+02 0.0 
0.0 0.0 -5.740788497311e+01 
-4.764623297917e+01 -5.267288030790e-01 0.0 
-5.267288030790e-01 -1.314985214749e+02 0.0 
0.0 0.0 -5.334342633621e+01 
-1.277360089356e+02 1.400876006239e+01 0.0 
1.400876006239e+01 -2.945265315322e+02 0.0 
0.0 0.0 -1.262787621403e+02 
-1.271811654928e+02 1.417426882131e+01 0.0 
1.417426882131e+01 -2.968281461199e+02 0.0 
0.0 0.0 -1.268027934838e+02 
-1.266370780565e+02 1.328045647474e+01 0.0 
1.328045647474e+01 -2.889162641249e+02 0.0 
0.0 0.0 -1.242660026544e+02 
-1.234783146808e+02 1.246942956472e+01 0.0 
1.246942956472e+01 -2.784769036276e+02 0.0 
0.0 0.0 -1.201865654925e+02 
-1.329945157557e+02 1.352799991003e+01 0.0 
1.352799991003e+01 -3.182141114201e+02 0.0 
0.0 0.0 -1.349625881528e+02 
-1.283965943772e+02 1.269612795102e+01 0.0 
1.269612795102e+01 -3.104176699150e+02 0.0 
0.0 0.0 -1.312442792876e+02 
-4.460118362407e+01 -5.283213284616e-01 0.0 
-5.283213284616e-01 -1.176444985305e+02 0.0 
0.0 0.0 -4.827370464638e+01 
-4.930475180681e+01 9.046919979267e+00 0.0 
9.046919979267e+00 -9.064329426843e+01 0.0 
0.0 0.0 -4.158441382257e+01 
-1.180149749176e+02 3.753934382275e+00 0.0 
3.753934382275e+00 -2.672949658870e+02 0.0 
0.0 0.0 -1.151929822414e+02 
-6.952669353086e+01 4.734812474565e+00 0.0 
4.734812474565e+00 -1.362238005678e+02 0.0 
0.0 0.0 -6.132514822959e+01 
-1.386328807575e+02 6.537569451571e+00 0.0 
6.537569451571e+00 -3.373470985702e+02 0.0 
0.0 0.0 -1.423939937983e+02 
-1.337626492643e+02 5.590209621901e+00 0.0 
5.590209621901e+00 -3.279437757262e+02 0.0 
0.0 0.0 -1.381119274971e+02 
-1.986781338435e+01 -1.019773283310e-01 0.0 
-1.019773283310e-01 -4.312718156099e+01 0.0 
0.0 0.0 -1.849849848360e+01 
-2.168861652768e+01 -7.092097743688e-01 0.0 
-7.092097743688e-01 -5.119387553830e+01 0.0 
0.0 0.0 -2.146474761980e+01 
-1.152440453451e+02 1.118873317954e+00 0.0 
1.118873317954e+00 -2.634005757194e+02 0.0 
0.0 0.0 -1.131933863193e+02 
-2.738354409114e+01 1.445367099488e+01 0.0 
1.445367099488e+01 -6.226279004647e+01 0.0 
0.0 0.0 -2.649390024128e+01 
-3.076178015259e+01 1.471269022392e+01 0.0 
1.471269022392e+01 -6.468923319464e+01 0.0 
0.0 0.0 -2.823530400417e+01 
-2.458783914314e+01 1.338490400270e+01 0.0 
1.338490400270e+01 -5.971349367181e+01 0.0 
0.0 0.0 -2.489039984449e+01 
-1.515410179047e+02 5.100283112621e-01 0.0 
5.100283112621e-01 -3.612886597402e+02 0.0 
0.0 0.0 -1.534489032935e+02 
-6.257686050714e+01 3.937390225955e-02 0.0 
3.937390225955e-02 -1.334417340069e+02 0.0 
0.0 0.0 -5.840557835421e+01 
-1.413882983793e+02 1.439454418529e+00 0.0 
1.439454418529e+00 -3.414177581103e+02 0.0 
0.0 0.0 -1.444418169469e+02 
-6.577172503088e+01 1.029334415049e+01 0.0 
1.029334415049e+01 -1.312631851576e+02 0.0 
0.0 0.0 -5.871047305654e+01 
-1.190592167029e+02 1.514156327333e+00 0.0 
1.514156327333e+00 -2.729993524834e+02 0.0 
0.0 0.0 -1.172175707559e+02 
-9.789976355532e+01 1.286754449148e+01 0.0 
1.286754449148e+01 -2.373041658251e+02 0.0 
0.0 0.0 -1.001611788141e+02 
-5.844528709249e+01 1.433751903784e+01 0.0 
1.433751903784e+01 -1.375970653218e+02 0.0 
0.0 0.0 -5.841270572429e+01 
-1.196342211804e+02 8.113938175775e+00 0.0 
8.113938175775e+00 -2.992774321236e+02 0.0 
0.0 0.0 -1.252734959912e+02 
-1.111008004230e+02 8.026608722382e-01 0.0 
8.026608722382e-01 -2.527542602295e+02 0.0 
0.0 0.0 -1.087565181957e+02 
-1.193098094477e+02 8.308202620580e-01 0.0 
8.308202620580e-01 -2.745771245943e+02 0.0 
0.0 0.0 -1.177660802126e+02 
-7.911210145720e+01 1.154010996988e+00 0.0 
1.154010996988e+00 -1.681944687763e+02 0.0 
0.0 0.0 -7.379197107006e+01 
-7.460202699323e+01 8.870345592733e-01 0.0 
8.870345592733e-01 -1.584774079213e+02 0.0 
0.0 0.0 -6.952383047437e+01 
-8.301118092872e+01 1.621507067828e+00 0.0 
1.621507067828e+00 -1.768424805744e+02 0.0 
0.0 0.0 -7.755609845093e+01 
-2.413222889371e+01 4.853472865147e+00 0.0 
4.853472865147e+00 -6.884680224987e+01 0.0 
0.0 0.0 -2.749370934307e+01 
-1.961071854705e+01 4.200036425698e+00 0.0 
4.200036425698e+00 -4.965686167660e+01 0.0 
0.0 0.0 -2.038027406710e+01 
-1.107308583378e+02 1.915701174827e+00 0.0 
1.915701174827e+00 -2.506922956661e+02 0.0 
0.0 0.0 -1.080269462012e+02 
-5.310082125097e+01 -6.695449328458e-01 0.0 
-6.695449328458e-01 -1.405635811034e+02 0.0 
0.0 0.0 -5.769932070630e+01 
-5.718161793200e+01 -5.222392026099e-01 0.0 
-5.222392026099e-01 -1.512072686419e+02 0.0 
0.0 0.0 -6.211666597217e+01 
-3.409048829462e+01 -1.682664921701e+00 0.0 
-1.682664921701e+00 -9.046281698006e+01 0.0 
0.0 0.0 -3.696599158240e+01 
-4.067960665964e+01 -1.412408656209e+00 0.0 
-1.412408656209e+00 -1.097647326514e+02 0.0 
0.0 0.0 -4.473330179331e+01 
-8.464132446633e+01 6.851616575150e-01 0.0 
6.851616575150e-01 -2.203703755623e+02 0.0 
0.0 0.0 -9.110351000858e+01 
-8.071573520471e+01 6.727281063958e-01 0.0 
6.727281063958e-01 -2.117254970283e+02 0.0 
0.0 0.0 -8.733236966992e+01 
-1.084181014264e+02 1.139114811927e+01 0.0 
1.139114811927e+01 -2.386818668313e+02 0.0 
0.0 0.0 -1.037299904773e+02 
-1.121092582849e+02 1.100782277454e+01 0.0 
1.100782277454e+01 -2.470578718687e+02 0.0 
0.0 0.0 -1.073501390461e+02 
-1.004632405722e+02 1.224377690893e+01 0.0 
1.224377690893e+01 -2.226134961724e+02 0.0 
0.0 0.0 -9.652302102339e+01 
-1.011378914646e+02 6.761444759624e+00 0.0 
6.761444759624e+00 -2.611785810051e+02 0.0 
0.0 0.0 -1.082949417409e+02 
-9.244519072444e+01 6.127382085810e+00 0.0 
6.127382085810e+00 -2.425747985575e+02 0.0 
0.0 0.0 -1.001059967846e+02 
-8.817644086123e+01 6.633878609564e+00 0.0 
6.633878609564e+00 -2.328478714881e+02 0.0 
0.0 0.0 -9.590729370479e+01 
-1.177042760097e+02 2.943339194748e+00 0.0 
2.943339194748e+00 -2.683221958535e+02 0.0 
0.0 0.0 -1.154079415590e+02 
-1.224469530563e+02 2.712600924380e+00 0.0 
2.712600924380e+00 -2.815054369565e+02 0.0 
0.0 0.0 -1.207857170039e+02 
-5.417121496211e+01 1.094411214348e+00 0.0 
1.094411214348e+00 -1.515396472948e+02 0.0 
0.0 0.0 -6.131325867708e+01 
-5.048218959036e+01 1.370371957990e+00 0.0 
1.370371957990e+00 -1.427847245570e+02 0.0 
0.0 0.0 -5.758007424420e+01 
-5.442790040887e+01 8.582075567027e-02 0.0 
8.582075567027e-02 -1.500343776677e+02 0.0 
0.0 0.0 -6.093868342298e+01 
-1.215805388277e+02 4.414364736256e+00 0.0 
4.414364736256e+00 -2.764939448237e+02 0.0 
0.0 0.0 -1.190223450954e+02 
-1.462477356120e+02 1.994795856797e+00 0.0 
1.994795856797e+00 -3.513125618518e+02 0.0 
0.0 0.0 -1.488680892391e+02 
-1.418104390498e+02 2.514868219470e+00 0.0 
2.514868219470e+00 -3.427434929133e+02 0.0 
0.0 0.0 -1.449661795889e+02 
-1.981446331083e+01 -1.391608153234e+00 0.0 
-1.391608153234e+00 -4.781548223703e+01 0.0 
0.0 0.0 -1.988898366436e+01 
-2.337328835082e+01 -1.631933899001e+00 0.0 
-1.631933899001e+00 -5.853339418547e+01 0.0 
0.0 0.0 -2.417200476089e+01 
-2.084784006575e+01 9.965491587066e+00 0.0 
9.965491587066e+00 -5.327131115502e+01 0.0 
0.0 0.0 -2.183574536623e+01 
-1.950332962381e+01 7.915088552839e+00 0.0 
7.915088552839e+00 -4.905890129294e+01 0.0 
0.0 0.0 -2.016866927503e+01 
-1.214573147413e+02 6.486732901498e+00 0.0 
6.486732901498e+00 -2.739201751321e+02 0.0 
0.0 0.0 -1.182132469620e+02 
-1.184792939885e+02 6.766177716677e+00 0.0 
6.766177716677e+00 -2.644082172332e+02 0.0 
0.0 0.0 -1.144662533665e+02 
-1.254728742809e+02 6.262369892622e+00 0.0 
6.262369892622e+00 -2.859175023772e+02 0.0 
0.0 0.0 -1.230171129974e+02 
-4.004773102909e+01 -4.596844810999e-01 0.0 
-4.596844810999e-01 -1.051772258843e+02 0.0 
0.0 0.0 -4.316748707403e+01 
-1.107403272531e+02 1.330499849122e+01 0.0 
1.330499849122e+01 -2.632653314586e+02 0.0 
0.0 0.0 -1.118016976135e+02 
-1.384078086923e+02 9.449431705672e+00 0.0 
9.449431705672e+00 -3.358712323437e+02 0.0 
0.0 0.0 -1.418837123108e+02 
-1.333556488812e+02 9.822436547857e+00 0.0 
9.822436547857e+00 -3.258974268330e+02 0.0 
0.0 0.0 -1.373759227142e+02 
-1.446697480166e+02 9.164961898632e+00 0.0 
9.164961898632e+00 -3.482086574387e+02 0.0 
0.0 0.0 -1.474635216366e+02 
-1.238153580179e+02 1.368110173524e+01 0.0 
1.368110173524e+01 -2.950218389578e+02 0.0 
0.0 0.0 -1.252511590927e+02 
-1.321336294917e+02 1.420886425505e+01 0.0 
1.420886425505e+01 -3.135882092440e+02 0.0 
0.0 0.0 -1.333165516207e+02 
-1.315234398619e+02 1.445914598687e+01 0.0 
1.445914598687e+01 -3.086608210543e+02 0.0 
0.0 0.0 -1.316552782748e+02 
-1.778529026602e+01 4.812559862883e-01 0.0 
4.812559862883e-01 -3.478001094540e+01 0.0 
0.0 0.0 -1.536959036342e+01 
-1.166433752349e+02 6.274876972340e-01 0.0 
6.274876972340e-01 -2.676016815950e+02 0.0 
0.0 0.0 -1.148735170490e+02 
-7.458486643234e+01 5.944591864769e-01 0.0 
5.944591864769e-01 -1.598531416739e+02 0.0 
0.0 0.0 -6.993140243187e+01 
-1.759836997734e+01 -1.992684453822e-01 0.0 
-1.992684453822e-01 -2.759391046326e+01 0.0 
0.0 0.0 -1.329807492313e+01 
-7.070875720736e+01 3.759725819424e-01 0.0 
3.759725819424e-01 -1.509816170822e+02 0.0 
0.0 0.0 -6.610711228686e+01 
-7.519269791462e+01 4.400630315268e-01 0.0 
4.400630315268e-01 -1.623022829681e+02 0.0 
0.0 0.0 -7.084849426482e+01 
-6.623023800870e+01 2.236086256434e-01 0.0 
2.236086256434e-01 -1.409074757268e+02 0.0 
0.0 0.0 -6.174131412067e+01 
-3.282491393989e+01 -4.713712737897e-01 0.0 
-4.713712737897e-01 -8.583777936342e+01 0.0 
0.0 0.0 -3.519880799099e+01 
-7.354208868260e+01 1.078619608430e+00 0.0 
1.078619608430e+00 -1.541245262316e+02 0.0 
0.0 0.0 -6.789998447425e+01 
-7.904280514813e+01 1.657819218826e+00 0.0 
1.657819218826e+00 -1.662118295288e+02 0.0 
0.0 0.0 -7.317639040309e+01 
-1.632136602403e+01 -1.371308907643e+00 0.0 
-1.371308907643e+00 -3.614321774642e+01 0.0 
0.0 0.0 -1.544998838991e+01 
-1.249702532470e+02 4.082335838686e+00 0.0 
4.082335838686e+00 -2.868103640375e+02 0.0 
0.0 0.0 -1.231341851853e+02 
-1.594377850850e+01 -1.087601582689e+00 0.0 
-1.087601582689e+00 -3.760246900274e+01 0.0 
0.0 0.0 -1.566244339623e+01 
-1.859792948245e+01 -1.028421457973e+00 0.0 
-1.028421457973e+00 -4.550602043899e+01 0.0 
0.0 0.0 -1.883118497643e+01 
-1.435214326392e+02 6.091346724688e+00 0.0 
6.091346724688e+00 -3.466538258728e+02 0.0 
0.0 0.0 -1.466525775536e+02 
-1.384123339177e+02 5.207153621622e+00 0.0 
5.207153621622e+00 -3.368541007382e+02 0.0 
0.0 0.0 -1.421799303968e+02 
-1.478594123814e+02 5.694039426278e+00 0.0 
5.694039426278e+00 -3.549536855138e+02 0.0 
0.0 0.0 -1.504439293686e+02 
-1.427174189780e+02 4.758018474081e+00 0.0 
4.758018474081e+00 -3.450042815717e+02 0.0 
0.0 0.0 -1.459165101649e+02 
-1.334214958058e+02 4.382905522465e+00 0.0 
4.382905522465e+00 -3.268978300726e+02 0.0 
0.0 0.0 -1.376957977635e+02 
-1.381256330256e+02 3.997248871570e+00 0.0 
3.997248871570e+00 -3.359731442091e+02 0.0 
0.0 0.0 -1.418296331704e+02 
-7.013286704003e+01 5.727868797799e-01 0.0 
5.727868797799e-01 -1.487253306865e+02 0.0 
0.0 0.0 -6.525745931796e+01 
-1.488799212775e+02 4.457077205163e+00 0.0 
4.457077205163e+00 -3.565961060476e+02 0.0 
0.0 0.0 -1.512428081975e+02 
-1.430138863958e+02 3.584380416186e+00 0.0 
3.584380416186e+00 -3.451965661536e+02 0.0 
0.0 0.0 -1.460631357648e+02 
-1.535759700570e+02 3.964903782150e+00 0.0 
3.964903782150e+00 -3.658940690489e+02 0.0 
0.0 0.0 -1.554410117318e+02 
-5.335723222508e+01 4.805638115904e+00 0.0 
4.805638115904e+00 -9.855771669877e+01 0.0 
0.0 0.0 -4.517448467716e+01 
-3.871168615741e+01 1.493834741250e+01 0.0 
1.493834741250e+01 -8.425969168323e+01 0.0 
0.0 0.0 -3.649141335219e+01 
-3.514399762133e+01 1.382277350541e+01 0.0 
1.382277350541e+01 -6.834747737307e+01 0.0 
0.0 0.0 -3.064744249832e+01 
-2.651710663281e+01 1.269726373313e+01 0.0 
1.269726373313e+01 -4.665940771952e+01 0.0 
0.0 0.0 -2.155295430570e+01 
-1.312972977215e+02 1.326375665187e+01 0.0 
1.326375665187e+01 -3.004907460899e+02 0.0 
0.0 0.0 -1.291364131434e+02 
-1.263371770557e+02 1.213582905719e+01 0.0 
1.213582905719e+01 -2.858704000180e+02 0.0 
0.0 0.0 -1.232622731221e+02 
-1.270092813679e+02 8.094254381069e-01 0.0 
8.094254381069e-01 -3.124356626864e+02 0.0 
0.0 0.0 -1.314334832163e+02 
-1.178035723589e+02 6.675330202881e-01 0.0 
6.675330202881e-01 -2.931551059563e+02 0.0 
0.0 0.0 -1.228876034946e+02 
-7.065332827766e+01 2.157238059984e-01 0.0 
2.157238059984e-01 -1.520816842287e+02 0.0 
0.0 0.0 -6.642050375190e+01 
-7.007972239274e+01 2.005427281360e-01 0.0 
2.005427281360e-01 -1.510398329034e+02 0.0 
0.0 0.0 -6.593586658884e+01 
-7.754063251465e+01 1.917512160893e-01 0.0 
1.917512160893e-01 -1.688802277494e+02 0.0 
0.0 0.0 -7.352625807920e+01 
-7.641227992556e+01 2.469410400946e-01 0.0 
2.469410400946e-01 -1.664729215606e+02 0.0 
0.0 0.0 -7.246556044586e+01 
-8.381869019867e+01 2.435278990373e-01 0.0 
2.435278990373e-01 -1.844305234622e+02 0.0 
0.0 0.0 -8.007476409826e+01 
-8.269828676799e+01 2.867184945589e-01 0.0 
2.867184945589e-01 -1.816969212899e+02 0.0 
0.0 0.0 -7.891856241735e+01 
-9.020504715936e+01 5.044234882728e-01 0.0 
5.044234882728e-01 -2.000337207405e+02 0.0 
0.0 0.0 -8.667163036996e+01 
-1.353045771036e+02 1.484398698575e+01 0.0 
1.484398698575e+01 -3.161590567090e+02 0.0 
0.0 0.0 -1.350390901438e+02 
-2.155812407495e+01 1.356456577836e+01 0.0 
1.356456577836e+01 -4.415953978127e+01 0.0 
0.0 0.0 -1.931529915687e+01 
-6.127641937733e+01 3.786930223218e+00 0.0 
3.786930223218e+00 -1.172320713251e+02 0.0 
0.0 0.0 -5.315254721073e+01 
-1.374892087583e+02 1.339780054778e+01 0.0 
1.339780054778e+01 -3.290128465352e+02 0.0 
0.0 0.0 -1.395506165880e+02 
-1.322087985427e+02 1.240338872794e+01 0.0 
1.240338872794e+01 -3.197974665706e+02 0.0 
0.0 0.0 -1.352018795340e+02 
-5.350171564966e+01 7.759540691716e+00 0.0 
7.759540691716e+00 -9.927217315732e+01 0.0 
0.0 0.0 -4.543216664209e+01 
-4.489097123874e+01 6.538373071051e+00 0.0 
6.538373071051e+00 -7.954184640178e+01 0.0 
0.0 0.0 -3.692984529216e+01 
-1.450235877539e+02 7.554919112169e+00 0.0 
7.554919112169e+00 -3.495309290647e+02 0.0 
0.0 0.0 -1.479663550456e+02 
-4.873340344391e+01 1.342605036103e+01 0.0 
1.342605036103e+01 -1.262436781377e+02 0.0 
0.0 0.0 -5.209312447449e+01 
-1.292329169121e+02 4.887043298383e+00 0.0 
4.887043298383e+00 -2.987165132173e+02 0.0 
0.0 0.0 -1.279848290388e+02 
-1.456877217856e+01 3.019249650745e+00 0.0 
3.019249650745e+00 -1.375574705768e+01 0.0 
0.0 0.0 -8.459061349974e+00 
-1.673557581288e+01 2.934027589760e+00 0.0 
2.934027589760e+00 -3.033191827625e+01 0.0 
0.0 0.0 -1.383254288157e+01 
-5.336494925435e+01 1.414314331825e+01 0.0 
1.414314331825e+01 -1.315592632768e+02 0.0 
0.0 0.0 -5.507726375935e+01 
-6.191949441124e+01 8.565665435204e+00 0.0 
8.565665435204e+00 -1.195228524379e+02 0.0 
0.0 0.0 -5.403270405475e+01 
-4.356693474442e+01 1.397123956647e+01 0.0 
1.397123956647e+01 -8.910230747877e+01 0.0 
0.0 0.0 -3.940077266696e+01 
-4.040701294936e+01 1.243716318549e+01 0.0 
1.243716318549e+01 -7.545225109629e+01 0.0 
0.0 0.0 -3.435777921369e+01 
-1.101877543643e+02 7.416530756313e+00 0.0 
7.416530756313e+00 -2.800993856439e+02 0.0 
0.0 0.0 -1.166861420025e+02 
-2.126905322936e+01 -1.709911217740e+00 0.0 
-1.709911217740e+00 -5.086966435116e+01 0.0 
0.0 0.0 -2.124161527415e+01 
-2.256196441300e+01 1.187339714567e+01 0.0 
1.187339714567e+01 -5.692148429382e+01 0.0 
0.0 0.0 -2.344503461204e+01 
-9.130903546370e+01 4.711085427055e-01 0.0 
4.711085427055e-01 -2.022857370861e+02 0.0 
0.0 0.0 -8.767843176495e+01 
-1.901212761499e+01 1.124157355952e+01 0.0 
1.124157355952e+01 -4.021000601254e+01 0.0 
0.0 0.0 -1.736664008826e+01 
-1.227147144971e+02 3.620766960786e-01 0.0 
3.620766960786e-01 -3.033374721503e+02 0.0 
0.0 0.0 -1.274156559942e+02 
-5.245502607515e+01 1.239005210625e+01 0.0 
1.239005210625e+01 -1.392058261645e+02 0.0 
0.0 0.0 -5.709825567190e+01 
-6.935083243822e+01 1.170906800698e+01 0.0 
1.170906800698e+01 -1.435962548589e+02 0.0 
0.0 0.0 -6.348412618914e+01 
-2.760491684342e+01 1.254130852814e+01 0.0 
1.254130852814e+01 -7.375200381146e+01 0.0 
0.0 0.0 -3.000707619646e+01 
-4.236912811803e+01 1.493094795061e+01 0.0 
1.493094795061e+01 -9.962850080440e+01 0.0 
0.0 0.0 -4.219928867673e+01 
-8.555460249143e+01 6.441956803419e+00 0.0 
6.441956803419e+00 -1.752703488485e+02 0.0 
0.0 0.0 -7.784748540196e+01 
-7.710681268491e+01 4.121186430094e+00 0.0 
4.121186430094e+00 -1.554978828191e+02 0.0 
0.0 0.0 -6.938140865122e+01 
-7.336829245598e+01 4.348296025849e+00 0.0 
4.348296025849e+00 -1.459188552591e+02 0.0 
0.0 0.0 -6.538614431452e+01 
-5.618602434235e+01 1.126809562703e+01 0.0 
1.126809562703e+01 -1.513644619662e+02 0.0 
0.0 0.0 -6.186514589256e+01 
-4.484151965648e+01 1.058746830886e+01 0.0 
1.058746830886e+01 -8.232460626673e+01 0.0 
0.0 0.0 -3.774983777696e+01 
-3.506844476829e+01 9.215627425818e+00 0.0 
9.215627425818e+00 -5.926891190150e+01 0.0 
0.0 0.0 -2.790120700094e+01 
-8.189744037929e+01 8.903793175421e+00 0.0 
8.903793175421e+00 -1.679550907278e+02 0.0 
0.0 0.0 -7.455575933213e+01 
-1.112793839460e+02 5.991445613799e+00 0.0 
5.991445613799e+00 -2.443804142473e+02 0.0 
0.0 0.0 -1.062979394580e+02 
-1.150368697611e+02 6.931225362024e+00 0.0 
6.931225362024e+00 -2.542062102741e+02 0.0 
0.0 0.0 -1.103729240106e+02 
-1.218585327388e+02 7.696659891215e+00 0.0 
7.696659891215e+00 -2.735926394514e+02 0.0 
0.0 0.0 -1.182353516571e+02 
-1.187872021097e+02 7.937832140673e+00 0.0 
7.937832140673e+00 -2.642120802677e+02 0.0 
0.0 0.0 -1.144997847132e+02 
-1.117289976251e+02 7.173814217000e+00 0.0 
7.173814217000e+00 -2.443537436636e+02 0.0 
0.0 0.0 -1.064248223866e+02 
-1.155550222622e+02 8.229464435589e+00 0.0 
8.229464435589e+00 -2.544780783351e+02 0.0 
0.0 0.0 -1.106099301792e+02 
-1.223650087843e+02 8.909376963300e+00 0.0 
8.909376963300e+00 -2.743168350817e+02 0.0 
0.0 0.0 -1.186045531598e+02 
-1.195746255513e+02 9.265675471230e+00 0.0 
9.265675471230e+00 -2.654371136168e+02 0.0 
0.0 0.0 -1.151035217505e+02 
-1.274362128518e+02 1.021765224641e+01 0.0 
1.021765224641e+01 -2.887017524116e+02 0.0 
0.0 0.0 -1.244413895790e+02 
-1.231371002978e+02 1.038970873859e+01 0.0 
1.038970873859e+01 -2.759253418902e+02 0.0 
0.0 0.0 -1.193187326564e+02 
-1.158434533807e+02 9.501504090057e+00 0.0 
9.501504090057e+00 -2.552525078827e+02 0.0 
0.0 0.0 -1.109287883790e+02 
-1.192691826593e+02 1.048819550291e+01 0.0 
1.048819550291e+01 -2.654522316172e+02 0.0 
0.0 0.0 -1.150164242830e+02 
-1.260414318196e+02 1.131816832484e+01 0.0 
1.131816832484e+01 -2.845938087717e+02 0.0 
0.0 0.0 -1.227905721774e+02 
-1.121235805308e+02 9.779120558041e+00 0.0 
9.779120558041e+00 -2.453265379590e+02 0.0 
0.0 0.0 -1.068350355470e+02 
-1.418787147940e+02 1.424409996071e+01 0.0 
1.424409996071e+01 -3.365759919376e+02 0.0 
0.0 0.0 -1.431364120195e+02 
-6.162311237142e+01 1.388775091338e+01 0.0 
1.388775091338e+01 -1.505119800010e+02 0.0 
0.0 0.0 -6.324052771171e+01 
-1.913500795129e+01 1.929816531769e+00 0.0 
1.929816531769e+00 -4.330592072116e+01 0.0 
0.0 0.0 -1.833227860173e+01 
-1.733016092978e+01 4.964530677318e+00 0.0 
4.964530677318e+00 -3.711191482821e+01 0.0 
0.0 0.0 -1.593262272740e+01 
-7.370303236262e+01 1.065539619411e+01 0.0 
1.065539619411e+01 -1.513640957736e+02 0.0 
0.0 0.0 -6.712013844088e+01 
-1.334790966250e+02 1.051101120443e+01 0.0 
1.051101120443e+01 -3.078580426407e+02 0.0 
0.0 0.0 -1.320011417797e+02 
-1.323088288883e+02 8.651123778171e+00 0.0 
8.651123778171e+00 -3.051496423473e+02 0.0 
0.0 0.0 -1.308375413707e+02 
-4.104078052443e+01 1.057895369712e+01 0.0 
1.057895369712e+01 -1.160486904189e+02 0.0 
0.0 0.0 -4.672684128300e+01 
-1.385268179025e+02 1.447307545138e+01 0.0 
1.447307545138e+01 -3.211739158402e+02 0.0 
0.0 0.0 -1.375102201228e+02 
-7.764030964499e+01 5.622133365555e+00 0.0 
5.622133365555e+00 -1.557148996162e+02 0.0 
0.0 0.0 -6.960656277835e+01 
-2.914247021466e+01 5.761786104799e+00 0.0 
5.761786104799e+00 -8.628308555168e+01 0.0 
0.0 0.0 -3.422766672990e+01 
-1.407965145267e+02 1.547285213541e+01 0.0 
1.547285213541e+01 -3.279197991793e+02 0.0 
0.0 0.0 -1.402148941118e+02 
-1.078533628141e+02 6.163578863202e+00 0.0 
6.163578863202e+00 -2.342970886058e+02 0.0 
0.0 0.0 -1.022451354260e+02 
-1.042953755374e+02 6.376494303511e+00 0.0 
6.376494303511e+00 -2.241478127876e+02 0.0 
0.0 0.0 -9.813295649748e+01 
-1.003238175593e+02 5.379287490398e+00 0.0 
5.379287490398e+00 -2.142787763191e+02 0.0 
0.0 0.0 -9.398077816350e+01 
-1.316634705396e+02 7.182026953617e+00 0.0 
7.182026953617e+00 -3.040606064072e+02 0.0 
0.0 0.0 -1.303172230840e+02 
-8.723619865741e+01 2.181844656634e+00 0.0 
2.181844656634e+00 -1.862494186064e+02 0.0 
0.0 0.0 -8.164568517915e+01 
-1.456170823370e+02 1.568592764366e+01 0.0 
1.568592764366e+01 -3.422799019902e+02 0.0 
0.0 0.0 -1.459690952982e+02 
-9.299167011328e+01 1.111830851408e+01 0.0 
1.111830851408e+01 -2.355367933986e+02 0.0 
0.0 0.0 -9.815853905357e+01 
-8.893946963808e+01 1.173555770230e+01 0.0 
1.173555770230e+01 -2.239407435444e+02 0.0 
0.0 0.0 -9.346406395473e+01 
-8.052851520504e+01 1.162130039532e+01 0.0 
1.162130039532e+01 -2.055063266061e+02 0.0 
0.0 0.0 -8.541045254334e+01 
-1.120824112189e+02 8.464961586507e+00 0.0 
8.464961586507e+00 -2.446182273645e+02 0.0 
0.0 0.0 -1.066101915750e+02 
-1.494492485107e+02 1.350812450301e+01 0.0 
1.350812450301e+01 -3.540995750895e+02 0.0 
0.0 0.0 -1.506646470801e+02 
-1.419295390259e+02 1.239395518661e+01 0.0 
1.239395518661e+01 -3.403456294085e+02 0.0 
0.0 0.0 -1.442825505303e+02 
-1.428464213210e+02 1.172520462662e+01 0.0 
1.172520462662e+01 -3.428071319265e+02 0.0 
0.0 0.0 -1.452960659743e+02 
-1.336575523834e+02 1.130706075710e+01 0.0 
1.130706075710e+01 -3.249439493047e+02 0.0 
0.0 0.0 -1.371804505064e+02 
-1.515634306685e+02 1.197655326135e+01 0.0 
1.197655326135e+01 -3.594873585893e+02 0.0 
0.0 0.0 -1.529152367773e+02 
-1.358808847442e+02 1.230117617042e+01 0.0 
1.230117617042e+01 -3.139347447051e+02 0.0 
0.0 0.0 -1.345446888348e+02 
-1.369080725945e+02 1.313996642524e+01 0.0 
1.313996642524e+01 -3.168830590659e+02 0.0 
0.0 0.0 -1.357373394981e+02 
-4.385958769078e+01 5.714509044207e-01 0.0 
5.714509044207e-01 -1.244171122581e+02 0.0 
0.0 0.0 -5.008300998465e+01 
-4.682533777676e+01 1.770657791789e+00 0.0 
1.770657791789e+00 -1.339349669574e+02 0.0 
0.0 0.0 -5.382809142026e+01 
-5.363177091271e+01 2.596872198089e+00 0.0 
2.596872198089e+00 -1.519834739928e+02 0.0 
0.0 0.0 -6.128457347164e+01 
-4.984466024304e+01 3.131265593328e+00 0.0 
3.131265593328e+00 -1.428337745166e+02 0.0 
0.0 0.0 -5.740353042790e+01 
-4.314174400980e+01 2.280020299696e+00 0.0 
2.280020299696e+00 -1.247620754841e+02 0.0 
0.0 0.0 -4.997114584818e+01 
-4.604705170558e+01 3.768798786632e+00 0.0 
3.768798786632e+00 -1.333988295571e+02 0.0 
0.0 0.0 -5.343376437880e+01 
-5.297267326823e+01 4.607686264380e+00 0.0 
4.607686264380e+00 -1.511870870031e+02 0.0 
0.0 0.0 -6.084792808140e+01 
-4.225121153943e+01 4.550757857383e+00 0.0 
4.550757857383e+00 -1.236913283271e+02 0.0 
0.0 0.0 -4.938276195995e+01 
-1.194769444489e+02 1.159028569645e+01 0.0 
1.159028569645e+01 -2.668331504513e+02 0.0 
0.0 0.0 -1.154930284701e+02 
-1.535678643229e+02 1.026302103640e+01 0.0 
1.026302103640e+01 -3.643390468050e+02 0.0 
0.0 0.0 -1.549720733384e+02 
-9.724994343866e+01 4.393152167301e+00 0.0 
4.393152167301e+00 -2.529932941261e+02 0.0 
0.0 0.0 -1.046729712694e+02 
-9.277408686531e+01 4.695857539553e+00 0.0 
4.695857539553e+00 -2.434288758702e+02 0.0 
0.0 0.0 -1.004608888207e+02 
-8.441250759493e+01 3.997452423972e+00 0.0 
3.997452423972e+00 -2.248119476025e+02 0.0 
0.0 0.0 -9.236733655922e+01 
-7.278432239847e+01 2.205632809578e-01 0.0 
2.205632809578e-01 -1.924753534409e+02 0.0 
0.0 0.0 -7.917790275181e+01 
-7.679656368644e+01 6.537488058955e-01 0.0 
6.537488058955e-01 -2.030147702295e+02 0.0 
0.0 0.0 -8.354340017478e+01 
-8.483311150845e+01 1.169490119177e+00 0.0 
1.169490119177e+00 -2.221594112265e+02 0.0 
0.0 0.0 -9.169775682050e+01 
-6.874337773304e+01 -9.865752096683e-02 0.0 
-9.865752096683e-02 -1.817751178476e+02 0.0 
0.0 0.0 -7.475554867420e+01 
-1.032049929003e+02 1.329105398168e+01 0.0 
1.329105398168e+01 -2.392139753268e+02 0.0 
0.0 0.0 -1.023256904681e+02 
-1.542549268861e+02 9.477397585376e+00 0.0 
9.477397585376e+00 -3.659073580206e+02 0.0 
0.0 0.0 -1.556486854720e+02 
-9.242665499167e+01 7.775954890299e+00 0.0 
7.775954890299e+00 -2.412802693744e+02 0.0 
0.0 0.0 -9.971207730982e+01 
-7.287518059257e+01 6.303901115910e-01 0.0 
6.303901115910e-01 -1.942376169040e+02 0.0 
0.0 0.0 -7.973383924897e+01 
-6.643929824583e+01 1.081692650495e+00 0.0 
1.081692650495e+00 -1.353660344384e+02 0.0 
0.0 0.0 -6.014159980525e+01 
-7.431234412625e+01 1.763855618657e+00 0.0 
1.763855618657e+00 -1.528306434816e+02 0.0 
0.0 0.0 -6.774289628235e+01 
-7.520818484341e+01 2.344045912725e+00 0.0 
2.344045912725e+00 -1.535751908978e+02 0.0 
0.0 0.0 -6.823501272237e+01 
-8.290134287149e+01 2.836086137806e+00 0.0 
2.836086137806e+00 -1.721576679943e+02 0.0 
0.0 0.0 -7.611770325974e+01 
-7.446819550229e+01 1.634699631745e+00 0.0 
1.634699631745e+00 -1.542717246295e+02 0.0 
0.0 0.0 -6.822197603954e+01 
-8.853922924513e+01 6.841848446578e-01 0.0 
6.841848446578e-01 -2.290025686421e+02 0.0 
0.0 0.0 -9.486253936617e+01 
-9.242199582451e+01 6.474681141364e-01 0.0 
6.474681141364e-01 -2.375890583221e+02 0.0 
0.0 0.0 -9.860331624397e+01 
-8.808257675288e+01 3.501764096266e-01 0.0 
3.501764096266e-01 -2.271270220480e+02 0.0 
0.0 0.0 -9.416287964027e+01 
-9.632291615883e+01 5.734171039764e-01 0.0 
5.734171039764e-01 -2.461180668668e+02 0.0 
0.0 0.0 -1.023322949077e+02 
-9.172929236891e+01 3.458946918252e-01 0.0 
3.458946918252e-01 -2.352173237362e+02 0.0 
0.0 0.0 -9.768398483155e+01 
-8.422761754722e+01 2.095159632806e-01 0.0 
2.095159632806e-01 -2.175421575574e+02 0.0 
0.0 0.0 -9.013093253138e+01 
-1.000941870248e+02 4.691277695413e-01 0.0 
4.691277695413e-01 -2.542536282970e+02 0.0 
0.0 0.0 -1.059043445965e+02 
-9.476595931183e+01 1.737390278046e-01 0.0 
1.737390278046e-01 -2.420457864243e+02 0.0 
0.0 0.0 -1.006435237208e+02 
-6.535095998931e+01 6.709127678790e-01 0.0 
6.709127678790e-01 -1.347356832968e+02 0.0 
0.0 0.0 -5.962599298583e+01 
-1.511420514934e+01 -9.034808785897e-01 0.0 
-9.034808785897e-01 -1.718673576567e+01 0.0 
0.0 0.0 -9.680142080701e+00 
-1.804319246352e+01 -1.474315634084e+00 0.0 
-1.474315634084e+00 -3.386659818801e+01 0.0 
0.0 0.0 -1.530088002096e+01 
-1.768430796561e+01 -1.483788717244e+00 0.0 
-1.483788717244e+00 -3.349363829263e+01 0.0 
0.0 0.0 -1.508193334066e+01 
-2.159037354196e+01 -1.653315857169e+00 0.0 
-1.653315857169e+00 -4.939179381377e+01 0.0 
0.0 0.0 -2.089465020672e+01 
-2.166482829773e+01 -1.382607995430e+00 0.0 
-1.382607995430e+00 -5.042997919794e+01 0.0 
0.0 0.0 -2.122844224870e+01 
-2.620508187967e+01 -1.288777653868e+00 0.0 
-1.288777653868e+00 -6.741452484596e+01 0.0 
0.0 0.0 -2.768588201769e+01 
-2.525916051251e+01 -7.730994269924e-01 0.0 
-7.730994269924e-01 -6.474206536231e+01 0.0 
0.0 0.0 -2.660036776245e+01 
-1.824195366412e+01 -1.183857737302e+00 0.0 
-1.183857737302e+00 -3.380795105999e+01 0.0 
0.0 0.0 -1.535539776762e+01 
-1.343595223466e+01 -9.609167776712e-01 0.0 
-9.609167776712e-01 -1.699464314442e+01 0.0 
0.0 0.0 -9.119884516980e+00 
-1.708801778133e+01 -1.525407960092e+00 0.0 
-1.525407960092e+00 -3.349502768577e+01 0.0 
0.0 0.0 -1.491167398784e+01 
-1.247214523119e+01 -9.334730523170e-01 0.0 
-9.334730523170e-01 -1.683381898430e+01 0.0 
0.0 0.0 -8.786990589790e+00 
-1.645358079716e+01 -1.511750693954e+00 0.0 
-1.511750693954e+00 -3.304594005648e+01 0.0 
0.0 0.0 -1.458470569983e+01 
-2.194909280468e+01 -1.808341574203e+00 0.0 
-1.808341574203e+00 -5.192586644555e+01 0.0 
0.0 0.0 -2.176248777507e+01 
-3.017363498834e+01 -1.704151799695e+00 0.0 
-1.704151799695e+00 -7.862428327988e+01 0.0 
0.0 0.0 -3.223937548047e+01 
-1.566484421329e+02 2.209935813412e+00 0.0 
2.209935813412e+00 -3.713645797951e+02 0.0 
0.0 0.0 -1.580039065784e+02 
-7.199426927258e+01 -5.952991433657e-02 0.0 
-5.952991433657e-02 -1.877593547162e+02 0.0 
0.0 0.0 -7.752608719662e+01 
-6.807809907639e+01 -2.072106872832e-01 0.0 
-2.072106872832e-01 -1.783049004574e+02 0.0 
0.0 0.0 -7.351489986014e+01 
-6.076952720164e+01 -3.006141587241e-01 0.0 
-3.006141587241e-01 -1.594398292831e+02 0.0 
0.0 0.0 -6.566280694542e+01 
-6.460728862121e+01 -2.384098023195e-01 0.0 
-2.384098023195e-01 -1.696006387045e+02 0.0 
0.0 0.0 -6.986237819771e+01 
-7.496993137045e+01 -1.139788559054e-01 0.0 
-1.139788559054e-01 -1.954986608683e+02 0.0 
0.0 0.0 -8.074057767164e+01 
-5.675562118704e+01 -1.992212183640e-01 0.0 
-1.992212183640e-01 -1.490293536625e+02 0.0 
0.0 0.0 -6.133549245486e+01 
-5.404505932103e+01 -3.948849576291e-01 0.0 
-3.948849576291e-01 -1.420080924791e+02 0.0 
0.0 0.0 -5.841594554004e+01 
-7.144842144500e+00 -1.880940723592e-01 0.0 
-1.880940723592e-01 -1.717790400061e+01 0.0 
0.0 0.0 -7.284711173286e+00 
-1.312687099327e+01 -2.675507996711e-01 0.0 
-2.675507996711e-01 -3.376430538162e+01 0.0 
0.0 0.0 -1.377131318556e+01 
-1.250387216258e+01 -2.828246431621e-01 0.0 
-2.828246431621e-01 -3.211843967845e+01 0.0 
0.0 0.0 -1.302116034003e+01 
-1.925762457832e+01 -3.463074282323e-01 0.0 
-3.463074282323e-01 -5.052891031758e+01 0.0 
0.0 0.0 -2.053596046877e+01 
-1.944330231509e+01 -4.712489229850e-01 0.0 
-4.712489229850e-01 -5.017737477718e+01 0.0 
0.0 0.0 -2.048620312768e+01 
-1.353544384118e+01 -4.654471512716e-01 0.0 
-4.654471512716e-01 -3.406651242038e+01 0.0 
0.0 0.0 -1.400776842751e+01 
-1.370504464073e+01 -6.460060596731e-01 0.0 
-6.460060596731e-01 -3.406481464785e+01 0.0 
0.0 0.0 -1.406461187653e+01 
-7.756039971934e+00 -3.869108469500e-01 0.0 
-3.869108469500e-01 -1.704730033999e+01 0.0 
0.0 0.0 -7.435580698227e+00 
-1.389253374663e+01 -7.126022337995e-01 0.0 
-7.126022337995e-01 -3.392863737793e+01 0.0 
0.0 0.0 -1.410771621244e+01 
-2.000503473305e+01 -8.918559188358e-01 0.0 
-8.918559188358e-01 -5.097491291590e+01 0.0 
0.0 0.0 -2.089398429468e+01 
-8.036935702748e+00 -4.551516494240e-01 0.0 
-4.551516494240e-01 -1.646740365132e+01 0.0 
0.0 0.0 -7.363038826181e+00 
-1.004829194305e+02 3.255736982535e-01 0.0 
3.255736982535e-01 -2.261357332873e+02 0.0 
0.0 0.0 -9.758559581535e+01 
-1.046713368277e+02 5.516741213752e-01 0.0 
5.516741213752e-01 -2.368984011454e+02 0.0 
0.0 0.0 -1.020709213919e+02 
-1.549149711646e+02 7.745441087948e+00 0.0 
7.745441087948e+00 -3.677751785399e+02 0.0 
0.0 0.0 -1.564070449113e+02 
-6.539696069072e+01 5.026236117085e-01 0.0 
5.026236117085e-01 -1.366775272230e+02 0.0 
0.0 0.0 -6.022234637412e+01 
-1.091124260057e+01 -7.874072618243e-01 0.0 
-7.874072618243e-01 -1.710566704158e+01 0.0 
0.0 0.0 -8.389236536483e+00 
-1.274636373070e+02 1.737133619512e+00 0.0 
1.737133619512e+00 -2.959493322281e+02 0.0 
0.0 0.0 -1.266238908605e+02 
-1.292467787128e+02 3.230673487640e+00 0.0 
3.230673487640e+00 -2.997866608028e+02 0.0 
0.0 0.0 -1.283100318547e+02 
-1.292067616258e+02 2.659953865994e+00 0.0 
2.659953865994e+00 -2.998979106023e+02 0.0 
0.0 0.0 -1.283314016684e+02 
-1.417472970815e+02 4.547708646335e-01 0.0 
4.547708646335e-01 -3.422023879290e+02 0.0 
0.0 0.0 -1.447849055031e+02 
-1.465373146269e+02 9.887341180143e-01 0.0 
9.887341180143e-01 -3.516015336784e+02 0.0 
0.0 0.0 -1.490416544916e+02 
-1.274408856752e+02 9.506457872995e-01 0.0 
9.506457872995e-01 -2.963277872343e+02 0.0 
0.0 0.0 -1.267306018729e+02 
-4.678944853720e+01 -1.171945074419e+00 0.0 
-1.171945074419e+00 -1.255948133185e+02 0.0 
0.0 0.0 -5.131527855671e+01 
-1.256705580541e+02 8.669053365723e+00 0.0 
8.669053365723e+00 -2.835924365342e+02 0.0 
0.0 0.0 -1.223788983765e+02 
-1.146600760670e+02 1.720736458842e+00 0.0 
1.720736458842e+00 -2.615272229545e+02 0.0 
0.0 0.0 -1.124561897065e+02 
-2.613254874331e+01 7.085606458396e+00 0.0 
7.085606458396e+00 -7.604669267165e+01 0.0 
0.0 0.0 -3.025377242449e+01 
-4.426956400109e+01 -1.053374759670e+00 0.0 
-1.053374759670e+00 -1.209001328995e+02 0.0 
0.0 0.0 -4.915090907017e+01 
-1.135343552599e+02 9.358584690337e-01 0.0 
9.358584690337e-01 -2.841783158215e+02 0.0 
0.0 0.0 -1.189138013244e+02 
-1.015563107121e+02 2.180799012639e+00 0.0 
2.180799012639e+00 -2.601442840504e+02 0.0 
0.0 0.0 -1.081101784288e+02 
-1.324321223149e+02 2.224174000194e+00 0.0 
2.224174000194e+00 -3.240489299571e+02 0.0 
0.0 0.0 -1.365443156816e+02 
-1.053125609908e+02 1.332052204676e+00 0.0 
1.332052204676e+00 -2.669907438423e+02 0.0 
0.0 0.0 -1.112909914499e+02 
-1.237587670421e+02 2.873281753571e+00 0.0 
2.873281753571e+00 -3.068725665198e+02 0.0 
0.0 0.0 -1.287894000686e+02 
-1.430463794739e+02 1.066111209258e+01 0.0 
1.066111209258e+01 -3.442470488013e+02 0.0 
0.0 0.0 -1.457880284826e+02 
-3.049900197470e+01 -6.245198145310e-01 0.0 
-6.245198145310e-01 -7.926755765266e+01 0.0 
0.0 0.0 -3.252996788821e+01 
-8.712393747188e+01 1.269132469916e+00 0.0 
1.269132469916e+00 -1.894477063575e+02 0.0 
0.0 0.0 -8.257149314882e+01 
-8.342581288773e+01 6.584797127217e-01 0.0 
6.584797127217e-01 -1.822238737121e+02 0.0 
0.0 0.0 -7.929490597995e+01 
-1.031139407289e+02 1.610886675055e+00 0.0 
1.610886675055e+00 -2.309006117210e+02 0.0 
0.0 0.0 -9.980436573496e+01 
-4.963186328012e+01 -8.652819602991e-01 0.0 
-8.652819602991e-01 -1.317916987673e+02 0.0 
0.0 0.0 -5.402706861424e+01 
-8.028972003669e+01 1.914244889701e-01 0.0 
1.914244889701e-01 -2.085707911769e+02 0.0 
0.0 0.0 -8.625815336408e+01 
-3.204450803155e+01 -1.346436434236e+00 0.0 
-1.346436434236e+00 -8.405282553398e+01 0.0 
0.0 0.0 -3.442920006966e+01 
-1.342915097326e+02 1.446736772665e+01 0.0 
1.446736772665e+01 -3.105121721503e+02 0.0 
0.0 0.0 -1.330411045649e+02 
-7.403340910459e+01 8.288432676541e+00 0.0 
8.288432676541e+00 -1.481086093427e+02 0.0 
0.0 0.0 -6.624260553419e+01 
-8.050760631834e+01 3.012011444176e+00 0.0 
3.012011444176e+00 -2.154611553142e+02 0.0 
0.0 0.0 -8.839062848977e+01 
-6.505896590608e+01 -2.174331231017e-01 0.0 
-2.174331231017e-01 -1.730890255896e+02 0.0 
0.0 0.0 -7.104439744870e+01 
-5.056593177548e+01 -9.266697665423e-01 0.0 
-9.266697665423e-01 -1.366239941678e+02 0.0 
0.0 0.0 -5.575697778297e+01 
-4.107100344955e+01 -1.073749672707e+00 0.0 
-1.073749672707e+00 -1.126417935792e+02 0.0 
0.0 0.0 -4.571383910862e+01 
-6.655506219261e+01 1.402254904150e+01 0.0 
1.402254904150e+01 -1.565933477723e+02 0.0 
0.0 0.0 -6.654452298948e+01 
-7.678146507312e+01 1.238534729990e+00 0.0 
1.238534729990e+00 -2.045427479506e+02 0.0 
0.0 0.0 -8.399726390711e+01 
-1.150665495774e+02 4.463512217152e+00 0.0 
4.463512217152e+00 -2.902893643539e+02 0.0 
0.0 0.0 -1.212067741794e+02 
-1.071041378110e+02 1.495068360642e+00 0.0 
1.495068360642e+00 -2.417533136370e+02 0.0 
0.0 0.0 -1.042572354344e+02 
-1.014238475815e+01 -7.754652730328e-01 0.0 
-7.754652730328e-01 -1.904869545171e+01 0.0 
0.0 0.0 -8.642622894081e+00 
-1.197013878524e+02 5.360693130506e+00 0.0 
5.360693130506e+00 -2.999932348006e+02 0.0 
0.0 0.0 -1.255083867959e+02 
-9.312326534709e+01 2.460101832178e+00 0.0 
2.460101832178e+00 -2.425061986826e+02 0.0 
0.0 0.0 -1.002888392089e+02 
-9.122929505822e+01 2.201798643040e+00 0.0 
2.201798643040e+00 -1.970443716429e+02 0.0 
0.0 0.0 -8.608210001033e+01 
-1.146826803570e+02 1.130461983964e+01 0.0 
1.130461983964e+01 -2.838710770351e+02 0.0 
0.0 0.0 -1.191661272176e+02 
-2.946104177772e+01 -1.404148422916e+00 0.0 
-1.404148422916e+00 -7.747296361521e+01 0.0 
0.0 0.0 -3.168020161788e+01 
-1.067253175705e+02 2.655199369460e+00 0.0 
2.655199369460e+00 -2.382425160513e+02 0.0 
0.0 0.0 -1.030903500866e+02 
-1.209903847629e+02 5.297272088751e+00 0.0 
5.297272088751e+00 -2.741432962837e+02 0.0 
0.0 0.0 -1.181401043140e+02 
-8.335475576661e+01 2.267431666727e+00 0.0 
2.267431666727e+00 -1.756295676522e+02 0.0 
0.0 0.0 -7.729529702564e+01 
-2.516662557353e+01 -1.296599160414e+00 0.0 
-1.296599160414e+00 -6.452406884273e+01 0.0 
0.0 0.0 -2.650720832488e+01 
-7.877748718014e+01 8.626958320518e-01 0.0 
8.626958320518e-01 -1.693948252135e+02 0.0 
0.0 0.0 -7.405169371810e+01 
-1.389367971654e+02 7.950136468162e+00 0.0 
7.950136468162e+00 -3.375864540094e+02 0.0 
0.0 0.0 -1.425569753524e+02 
-1.073743582486e+02 5.112472061208e+00 0.0 
5.112472061208e+00 -2.346523647876e+02 0.0 
0.0 0.0 -1.022080169108e+02 
-4.568229316683e+01 -8.209389257717e-01 0.0 
-8.209389257717e-01 -1.207524388386e+02 0.0 
0.0 0.0 -4.953041960162e+01 
-7.985674256150e+01 7.897512822601e+00 0.0 
7.897512822601e+00 -2.128587195597e+02 0.0 
0.0 0.0 -8.741463863635e+01 
-7.277422033545e+01 1.270815801668e+01 0.0 
1.270815801668e+01 -1.563447868654e+02 0.0 
0.0 0.0 -6.833570216024e+01 
-6.094409920179e+01 2.383916256091e+00 0.0 
2.383916256091e+00 -1.179494365466e+02 0.0 
0.0 0.0 -5.326806072450e+01 
-1.179360978667e+02 2.123425130598e+00 0.0 
2.123425130598e+00 -2.700311413844e+02 0.0 
0.0 0.0 -1.159901717753e+02 
-8.137300628991e+01 1.293861236429e+01 0.0 
1.293861236429e+01 -2.000987966609e+02 0.0 
0.0 0.0 -8.404154088525e+01 
-1.237337983310e+02 1.050107696429e+01 0.0 
1.050107696429e+01 -3.052300367780e+02 0.0 
0.0 0.0 -1.282891505327e+02 
-9.680906160434e+01 8.882081468244e+00 0.0 
8.882081468244e+00 -2.494813638985e+02 0.0 
0.0 0.0 -1.034871276509e+02 
-4.906871348770e+01 -6.327631201079e-01 0.0 
-6.327631201079e-01 -1.295200647085e+02 0.0 
0.0 0.0 -5.317663345886e+01 
-1.288922761508e+02 4.728920808533e+00 0.0 
4.728920808533e+00 -3.181882196797e+02 0.0 
0.0 0.0 -1.337241487491e+02 
-7.611555832134e+01 1.066632781505e+01 0.0 
1.066632781505e+01 -1.987983306253e+02 0.0 
0.0 0.0 -8.207416668399e+01 
-1.142644925503e+02 3.104506013017e+00 0.0 
3.104506013017e+00 -2.581279755491e+02 0.0 
0.0 0.0 -1.113177404298e+02 
-1.081571526485e+02 1.250162998583e+01 0.0 
1.250162998583e+01 -2.422704653745e+02 0.0 
0.0 0.0 -1.047282854069e+02 
-5.988582810526e+01 7.675161581093e+00 0.0 
7.675161581093e+00 -1.666027748667e+02 0.0 
0.0 0.0 -6.754658089159e+01 
-1.105781775262e+02 4.067733183695e+00 0.0 
4.067733183695e+00 -2.458974162175e+02 0.0 
0.0 0.0 -1.065426781231e+02 
-8.014931874436e+01 4.360285315147e+00 0.0 
4.360285315147e+00 -2.153788606217e+02 0.0 
0.0 0.0 -8.825845380981e+01 
-1.193126621507e+02 1.213116861236e+01 0.0 
1.213116861236e+01 -2.916866817293e+02 0.0 
0.0 0.0 -1.228998031640e+02 
-6.998497839999e+01 9.193029570959e+00 0.0 
9.193029570959e+00 -1.395591929714e+02 0.0 
0.0 0.0 -6.246325141141e+01 
-9.274805211219e+01 1.205883192233e+01 0.0 
1.205883192233e+01 -2.029894543476e+02 0.0 
0.0 0.0 -8.832125193793e+01 
-1.009972563898e+02 9.468608685798e+00 0.0 
9.468608685798e+00 -2.162035227131e+02 0.0 
0.0 0.0 -9.476023373089e+01 
-8.727215470314e+01 1.336548193984e+01 0.0 
1.336548193984e+01 -2.009229704223e+02 0.0 
0.0 0.0 -8.605853753765e+01 
-1.088216672146e+02 4.859575852860e-01 0.0 
4.859575852860e-01 -2.737403970880e+02 0.0 
0.0 0.0 -1.143686192908e+02 
-1.242920855549e+02 5.041681702327e+00 0.0 
5.041681702327e+00 -3.091607413244e+02 0.0 
0.0 0.0 -1.296358480638e+02 
-2.806925572840e+01 1.130146722714e+00 0.0 
1.130146722714e+00 -7.948344994171e+01 0.0 
0.0 0.0 -3.186581170103e+01 
-5.041338787879e+01 1.467999927372e+01 0.0 
1.467999927372e+01 -1.186572589571e+02 0.0 
0.0 0.0 -5.032119405078e+01 
-9.156887147306e+01 2.846851243450e+00 0.0 
2.846851243450e+00 -1.957268984986e+02 0.0 
0.0 0.0 -8.578873099150e+01 
-1.230180675952e+02 1.386814124696e+01 0.0 
1.386814124696e+01 -2.848478055744e+02 0.0 
0.0 0.0 -1.219597619509e+02 
-1.216049128902e+02 3.448721967906e+00 0.0 
3.448721967906e+00 -2.778378768247e+02 0.0 
0.0 0.0 -1.194328369145e+02 
-6.485086942808e+01 1.277218859434e+01 0.0 
1.277218859434e+01 -1.365228202082e+02 0.0 
0.0 0.0 -6.001210689089e+01 
-1.240784836711e+02 3.908100701666e+00 0.0 
3.908100701666e+00 -3.082037978086e+02 0.0 
0.0 0.0 -1.292846844439e+02 
-1.176319598994e+02 4.580139737853e+00 0.0 
4.580139737853e+00 -2.653202046128e+02 0.0 
0.0 0.0 -1.144856493537e+02 
-8.079774622606e+01 1.196113378312e+00 0.0 
1.196113378312e+00 -2.133579716226e+02 0.0 
0.0 0.0 -8.784671535459e+01 
-3.457285283333e+01 -2.282361247703e-01 0.0 
-2.282361247703e-01 -9.091621162718e+01 0.0 
0.0 0.0 -3.724671933815e+01 
-2.184727164816e+01 6.457455342028e+00 0.0 
6.457455342028e+00 -5.957693726842e+01 0.0 
0.0 0.0 -2.402726267498e+01 
-4.522398856353e+01 6.337591522116e+00 0.0 
6.337591522116e+00 -1.313215057721e+02 0.0 
0.0 0.0 -5.256364830068e+01 
-7.677264766661e+01 1.236566615417e+01 0.0 
1.236566615417e+01 -1.937278067251e+02 0.0 
0.0 0.0 -8.075013631751e+01 
-8.895255763247e+01 1.765835332158e+00 0.0 
1.765835332158e+00 -2.323946863452e+02 0.0 
0.0 0.0 -9.600417319331e+01 
-1.259295951686e+02 7.542859801510e+00 0.0 
7.542859801510e+00 -2.861953079056e+02 0.0 
0.0 0.0 -1.232374709223e+02 
-1.285901191550e+02 3.596593905112e+00 0.0 
3.596593905112e+00 -3.169927309948e+02 0.0 
0.0 0.0 -1.332748550449e+02 
-1.149970245011e+02 7.068224287761e+00 0.0 
7.068224287761e+00 -2.902726082836e+02 0.0 
0.0 0.0 -1.211808898354e+02 
-1.667472662729e+01 9.737130238367e+00 0.0 
9.737130238367e+00 -2.148022985264e+01 0.0 
0.0 0.0 -1.104648694398e+01 
-6.524929589358e+01 3.435972062619e+00 0.0 
3.435972062619e+00 -1.268428918637e+02 0.0 
0.0 0.0 -5.722765632717e+01 
-1.331112596157e+02 3.258960939471e+00 0.0 
3.258960939471e+00 -3.257779730972e+02 0.0 
0.0 0.0 -1.372667698139e+02 
-8.398808402107e+01 7.223170444383e+00 0.0 
7.223170444383e+00 -2.229779557025e+02 0.0 
0.0 0.0 -9.168981191707e+01 
-1.235690457953e+02 1.179158855978e+01 0.0 
1.179158855978e+01 -3.022555201651e+02 0.0 
0.0 0.0 -1.273473697881e+02 
-8.698024103497e+01 1.365121590097e-01 0.0 
1.365121590097e-01 -2.237802653381e+02 0.0 
0.0 0.0 -9.282815191192e+01 
-1.350338548146e+02 1.482903033428e+01 0.0 
1.482903033428e+01 -3.135041872576e+02 0.0 
0.0 0.0 -1.341614126217e+02 
-4.918498188559e+01 5.580545513913e+00 0.0 
5.580545513913e+00 -8.898204512480e+01 0.0 
0.0 0.0 -4.105010810312e+01 
-1.376715625614e+02 2.879894849903e+00 0.0 
2.879894849903e+00 -3.347905384322e+02 0.0 
0.0 0.0 -1.413386302981e+02 
-1.147145523098e+02 8.454233462285e+00 0.0 
8.454233462285e+00 -2.888096137864e+02 0.0 
0.0 0.0 -1.206572498288e+02 
-4.467010980373e+01 1.220145539704e+01 0.0 
1.220145539704e+01 -1.213012882459e+02 0.0 
0.0 0.0 -4.939141941489e+01 
-6.291478839776e+01 3.631767230818e-02 0.0 
3.631767230818e-02 -1.340512781692e+02 0.0 
0.0 0.0 -5.868981997007e+01 
-1.487085682302e+02 3.135793330640e+00 0.0 
3.135793330640e+00 -3.562879882166e+02 0.0 
0.0 0.0 -1.510989669340e+02 
-1.241448813238e+02 9.126340916405e+00 0.0 
9.126340916405e+00 -3.077585728112e+02 0.0 
0.0 0.0 -1.291710362405e+02 
-9.522593655492e+01 1.327670167507e+01 0.0 
1.327670167507e+01 -2.200269714548e+02 0.0 
0.0 0.0 -9.417587240291e+01 
-7.990878506182e+01 6.014373604646e+00 0.0 
6.014373604646e+00 -2.146034874328e+02 0.0 
0.0 0.0 -8.795368174840e+01 
-5.273576727187e+01 2.780046204953e+00 0.0 
2.780046204953e+00 -9.853108359125e+01 0.0 
0.0 0.0 -4.498005525894e+01 
-9.307383752853e+01 1.681939022522e+00 0.0 
1.681939022522e+00 -2.411687346743e+02 0.0 
0.0 0.0 -9.987277166086e+01 
-9.690217046361e+01 1.149773077345e+01 0.0 
1.149773077345e+01 -2.107811942605e+02 0.0 
0.0 0.0 -9.190500941722e+01 
-1.312217423408e+02 6.385766195136e+00 0.0 
6.385766195136e+00 -3.034405223728e+02 0.0 
0.0 0.0 -1.299986794141e+02 
-1.283716102638e+02 1.014869125240e+01 0.0 
1.014869125240e+01 -3.153503969788e+02 0.0 
0.0 0.0 -1.327166021728e+02 
-9.664177658349e+01 5.576910540913e+00 0.0 
5.576910540913e+00 -2.040779140036e+02 0.0 
0.0 0.0 -8.981590717613e+01 
-8.883305490827e+01 1.134880932523e+00 0.0 
1.134880932523e+00 -2.308160693119e+02 0.0 
0.0 0.0 -9.549473726604e+01 
-1.019537627400e+02 1.251545747187e+01 0.0 
1.251545747187e+01 -2.494522295777e+02 0.0 
0.0 0.0 -1.050217976953e+02 
-1.970800334352e+01 -6.744347438804e-01 0.0 
-6.744347438804e-01 -5.030483647847e+01 0.0 
0.0 0.0 -2.060385194660e+01 
-5.737449948572e+01 4.216344330311e+00 0.0 
4.216344330311e+00 -1.078837287517e+02 0.0 
0.0 0.0 -4.917746847123e+01 
-9.281768167872e+01 1.088143554431e+00 0.0 
1.088143554431e+00 -2.394305305749e+02 0.0 
0.0 0.0 -9.927446367610e+01 
-4.907292989120e+01 5.397016737089e+00 0.0 
5.397016737089e+00 -1.413836571393e+02 0.0 
0.0 0.0 -5.673697610914e+01 
-8.408248841994e+01 5.487104323020e+00 0.0 
5.487104323020e+00 -2.242180089417e+02 0.0 
0.0 0.0 -9.209014920848e+01 
-1.369218257104e+02 1.424823969477e+01 0.0 
1.424823969477e+01 -3.252556572824e+02 0.0 
0.0 0.0 -1.382532448978e+02 
-9.680621572634e+01 1.012931796005e+00 0.0 
1.012931796005e+00 -2.480355962528e+02 0.0 
0.0 0.0 -1.030525435937e+02 
-5.629360717435e+01 6.141902184346e+00 0.0 
6.141902184346e+00 -1.590765570374e+02 0.0 
0.0 0.0 -6.421104926351e+01 
-1.007884204039e+02 9.013111157944e-01 0.0 
9.013111157944e-01 -2.565811126243e+02 0.0 
0.0 0.0 -1.068108599085e+02 
-4.436790193385e+01 3.548873350001e+00 0.0 
3.548873350001e+00 -7.924046876463e+01 0.0 
0.0 0.0 -3.668251120955e+01 
-1.006731289695e+02 6.627160174521e+00 0.0 
6.627160174521e+00 -2.141297758562e+02 0.0 
0.0 0.0 -9.404087144770e+01 
-1.047891902163e+02 7.554772520297e-01 0.0 
7.554772520297e-01 -2.650537987048e+02 0.0 
0.0 0.0 -1.105528966763e+02 
-1.045255437125e+02 1.181097649314e+01 0.0 
1.181097649314e+01 -2.304927529658e+02 0.0 
0.0 0.0 -1.001054890035e+02 
-2.078989498131e+01 -9.582448959224e-01 0.0 
-9.582448959224e-01 -5.263512226663e+01 0.0 
0.0 0.0 -2.162750517438e+01 
-9.870700099514e+01 1.331266260552e+01 0.0 
1.331266260552e+01 -2.321030133175e+02 0.0 
0.0 0.0 -9.884300429378e+01 
-1.365877820678e+02 8.850917084858e-01 0.0 
8.850917084858e-01 -3.318629448824e+02 0.0 
0.0 0.0 -1.401352180851e+02 
-5.790228996451e+01 3.201699605865e-02 0.0 
3.201699605865e-02 -1.581798964637e+02 0.0 
0.0 0.0 -6.442465592847e+01 
-8.834424010690e+01 5.044281400297e+00 0.0 
5.044281400297e+00 -2.337652496780e+02 0.0 
0.0 0.0 -9.623284693546e+01 
-1.082231109934e+02 7.427819825039e+00 0.0 
7.427819825039e+00 -2.343112720387e+02 0.0 
0.0 0.0 -1.023603149096e+02 
-3.572447517518e+01 4.911644789601e+00 0.0 
4.911644789601e+00 -5.988360296520e+01 0.0 
0.0 0.0 -2.828242344211e+01 
-9.687488993016e+01 5.714349906436e+00 0.0 
5.714349906436e+00 -2.523598948623e+02 0.0 
0.0 0.0 -1.043704354377e+02 
-1.120975058624e+02 1.218775223978e+01 0.0 
1.218775223978e+01 -2.502209071327e+02 0.0 
0.0 0.0 -1.082955238985e+02 
-1.023747034852e+02 1.318359264392e+01 0.0 
1.318359264392e+01 -2.441220027160e+02 0.0 
0.0 0.0 -1.035490118604e+02 
-8.502783617089e+01 1.235202447290e+01 0.0 
1.235202447290e+01 -2.120658493645e+02 0.0 
0.0 0.0 -8.872810566061e+01 
-1.057649585445e+02 6.383879981292e+00 0.0 
6.383879981292e+00 -2.712290606053e+02 0.0 
0.0 0.0 -1.126982057449e+02 
-4.078800396124e+01 7.701410688510e+00 0.0 
7.701410688510e+00 -7.079295401423e+01 0.0 
0.0 0.0 -3.307428739264e+01 
-4.358391521579e+01 -1.331752041241e+00 0.0 
-1.331752041241e+00 -1.173659720075e+02 0.0 
0.0 0.0 -4.788496616699e+01 
-3.683148575053e+01 -1.582284233070e+00 0.0 
-1.582284233070e+00 -9.814072865205e+01 0.0 
0.0 0.0 -4.009166432077e+01 
-6.023887690098e+01 5.350256735067e+00 0.0 
5.350256735067e+00 -1.689198011621e+02 0.0 
0.0 0.0 -6.834760341892e+01 
-1.159052115088e+02 1.186941100680e+01 0.0 
1.186941100680e+01 -2.584899923818e+02 0.0 
0.0 0.0 -1.119185611672e+02 
-2.558620465622e+01 -3.738645091377e-01 0.0 
-3.738645091377e-01 -6.684129486535e+01 0.0 
0.0 0.0 -2.732824985647e+01 
-1.084507410739e+02 8.759940035189e+00 0.0 
8.759940035189e+00 -2.347877774164e+02 0.0 
0.0 0.0 -1.025715555471e+02 
-2.761090453353e+01 -1.761580910462e+00 0.0 
-1.761580910462e+00 -7.071627379871e+01 0.0 
0.0 0.0 -2.909815349967e+01 
-5.685361500860e+01 3.936963630611e+00 0.0 
3.936963630611e+00 -1.606486163511e+02 0.0 
0.0 0.0 -6.485066940792e+01 
-1.151943202127e+02 1.323244703357e+01 0.0 
1.323244703357e+01 -2.758846264617e+02 0.0 
0.0 0.0 -1.169236840023e+02 
-8.516461751771e+01 3.174719328355e-01 0.0 
3.174719328355e-01 -1.879301436528e+02 0.0 
0.0 0.0 -8.152842835114e+01 
-6.073762709206e+01 3.375691128846e+00 0.0 
3.375691128846e+00 -1.698638658586e+02 0.0 
0.0 0.0 -6.878044788520e+01 
-4.200440076706e+01 -2.336231686319e-01 0.0 
-2.336231686319e-01 -1.104915043103e+02 0.0 
0.0 0.0 -4.534877152321e+01 
-5.740196975289e+01 2.168201848169e+00 0.0 
2.168201848169e+00 -1.608742384854e+02 0.0 
0.0 0.0 -6.508286247150e+01 
-9.339926261126e+01 1.238154183439e+01 0.0 
1.238154183439e+01 -2.305992480010e+02 0.0 
0.0 0.0 -9.679955318369e+01 
-6.121194123993e+01 1.843437833797e+00 0.0 
1.843437833797e+00 -1.696896009620e+02 0.0 
0.0 0.0 -6.887046266059e+01 
-5.783752721189e+01 8.884784401620e-01 0.0 
8.884784401620e-01 -1.600899751302e+02 0.0 
0.0 0.0 -6.497825070263e+01 
-1.220309351778e+02 1.979666735252e+00 0.0 
1.979666735252e+00 -2.811733928472e+02 0.0 
0.0 0.0 -1.205612984075e+02 
-6.150254892276e+01 7.397400814706e-01 0.0 
7.397400814706e-01 -1.685164934072e+02 0.0 
0.0 0.0 -6.860571269898e+01 
-1.289333239584e+02 6.198269857698e-01 0.0 
6.198269857698e-01 -2.997030393410e+02 0.0 
0.0 0.0 -1.281909089898e+02 
-1.575064093905e+02 1.066922357324e+00 0.0 
1.066922357324e+00 -3.729006230738e+02 0.0 
0.0 0.0 -1.587221097393e+02 
-6.907137929298e+01 1.913831783280e-01 0.0 
1.913831783280e-01 -1.489961711126e+02 0.0 
0.0 0.0 -6.502026512169e+01 
-2.595861247729e+01 6.055970547443e+00 0.0 
6.055970547443e+00 -3.984221246261e+01 0.0 
0.0 0.0 -1.934024748197e+01 
-1.660031547363e+01 4.193288954857e-02 0.0 
4.193288954857e-02 -1.687245146381e+01 0.0 
0.0 0.0 -9.906382610664e+00 
-3.313355288277e+01 1.199553309339e+01 0.0 
1.199553309339e+01 -5.704770308228e+01 0.0 
0.0 0.0 -2.665437678952e+01 
-5.094785850534e+01 -5.507472357015e-01 0.0 
-5.507472357015e-01 -1.395680462102e+02 0.0 
0.0 0.0 -5.675477141467e+01 
-1.083936464330e+02 1.007520473879e+01 0.0 
1.007520473879e+01 -2.359653590024e+02 0.0 
0.0 0.0 -1.029077016306e+02 
-6.948928728085e+01 7.521325627956e-02 0.0 
7.521325627956e-02 -1.497518313582e+02 0.0 
0.0 0.0 -6.537233559172e+01 
-4.738252559835e+01 -1.037191399328e+00 0.0 
-1.037191399328e+00 -1.287174300370e+02 0.0 
0.0 0.0 -5.242998669061e+01 
-1.299844525492e+02 1.125280291561e+01 0.0 
1.125280291561e+01 -2.959289761507e+02 0.0 
0.0 0.0 -1.273740286100e+02 
-1.433262403958e+02 1.593322327746e+01 0.0 
1.593322327746e+01 -3.355064817211e+02 0.0 
0.0 0.0 -1.432498166351e+02 
-9.669584566266e+01 4.255864433043e-01 0.0 
4.255864433043e-01 -2.165020630975e+02 0.0 
0.0 0.0 -9.355937262803e+01 
-1.277726649350e+02 1.140553337920e+01 0.0 
1.140553337920e+01 -3.120823273794e+02 0.0 
0.0 0.0 -1.315564976943e+02 
-1.064764287404e+02 1.298184782981e+01 0.0 
1.298184782981e+01 -2.565117904695e+02 0.0 
0.0 0.0 -1.084964657630e+02 
-1.148551777099e+02 3.590925679697e-01 0.0 
3.590925679697e-01 -2.633171571287e+02 0.0 
0.0 0.0 -1.130517004516e+02 
-6.288820111586e+01 3.763838705100e-01 0.0 
3.763838705100e-01 -1.326678474927e+02 0.0 
0.0 0.0 -5.826681458257e+01 
-1.595706539144e+01 -1.408448001200e+00 0.0 
-1.408448001200e+00 -3.298114343398e+01 0.0 
0.0 0.0 -1.440448982311e+01 
-1.134730309736e+02 2.640693539240e-01 0.0 
2.640693539240e-01 -2.836871776466e+02 0.0 
0.0 0.0 -1.187480625861e+02 
-1.879147347658e+01 9.515580229164e+00 0.0 
9.515580229164e+00 -2.468822818425e+01 0.0 
0.0 0.0 -1.264391049825e+01 
-2.377426901695e+01 1.393432150386e+01 0.0 
1.393432150386e+01 -4.570585227412e+01 0.0 
0.0 0.0 -2.044403638732e+01 
-2.012604337454e+01 1.260851203625e+01 0.0 
1.260851203625e+01 -4.237759469419e+01 0.0 
0.0 0.0 -1.835109142062e+01 
-5.163957967213e+01 -4.792329922657e-01 0.0 
-4.792329922657e-01 -1.364473049383e+02 0.0 
0.0 0.0 -5.602606538312e+01 
-2.143518970988e+01 -1.768787852183e+00 0.0 
-1.768787852183e+00 -4.908597322190e+01 0.0 
0.0 0.0 -2.075634887953e+01 
-1.854237330542e+01 1.260581485660e+01 0.0 
1.260581485660e+01 -2.659820445799e+01 0.0 
0.0 0.0 -1.314217332902e+01 
-1.405352131759e+02 1.302261490359e+01 0.0 
1.302261490359e+01 -3.365445153036e+02 0.0 
0.0 0.0 -1.427239185439e+02 
-7.165706328415e+01 9.709595491871e-01 0.0 
9.709595491871e-01 -1.504787862232e+02 0.0 
0.0 0.0 -6.624075485220e+01 
-1.192503210028e+02 1.367184915069e+01 0.0 
1.367184915069e+01 -2.825114311599e+02 0.0 
0.0 0.0 -1.201285256488e+02 
-1.783877749923e+01 1.201123724781e+01 0.0 
1.201123724781e+01 -2.509573479358e+01 0.0 
0.0 0.0 -1.248035368785e+01 
-1.244276331702e+02 5.155796473288e+00 0.0 
5.155796473288e+00 -2.844985097361e+02 0.0 
0.0 0.0 -1.222778428719e+02 
-1.371179517370e+02 1.486906017466e+01 0.0 
1.486906017466e+01 -3.231640602658e+02 0.0 
0.0 0.0 -1.376846036008e+02 
-1.567896601072e+02 6.037387127210e+00 0.0 
6.037387127210e+00 -3.715862135289e+02 0.0 
0.0 0.0 -1.581127620908e+02 
-1.278214379557e+02 1.412335522429e+01 0.0 
1.412335522429e+01 -3.020217421138e+02 0.0 
0.0 0.0 -1.285529540208e+02 
-1.804716517256e+01 9.525346259889e+00 0.0 
9.525346259889e+00 -3.714988107941e+01 0.0 
0.0 0.0 -1.615911387559e+01 
-8.069682478080e+01 2.394757391469e+00 0.0 
2.394757391469e+00 -1.679029958777e+02 0.0 
0.0 0.0 -7.417994619755e+01 
-1.332346668191e+02 1.406415193452e+01 0.0 
1.406415193452e+01 -3.070451216178e+02 0.0 
0.0 0.0 -1.316839365310e+02 
-1.030930434998e+02 6.530506296898e-01 0.0 
6.530506296898e-01 -2.321338488660e+02 0.0 
0.0 0.0 -1.001680677097e+02 
-1.581695225810e+02 4.449054872586e+00 0.0 
4.449054872586e+00 -3.740348064390e+02 0.0 
0.0 0.0 -1.592612987060e+02 
-7.164163782098e+01 1.098219534904e+00 0.0 
1.098219534904e+00 -1.484007741211e+02 0.0 
0.0 0.0 -6.561272358261e+01 
-1.227797832597e+02 1.224445786531e+00 0.0 
1.224445786531e+00 -2.836186457082e+02 0.0 
0.0 0.0 -1.215195286904e+02 
-2.610467538925e+01 -8.609354824882e-02 0.0 
-8.609354824882e-02 -7.081266597256e+01 0.0 
0.0 0.0 -2.867520240854e+01 
-1.227544586120e+02 5.779040447700e-01 0.0 
5.779040447700e-01 -2.837642055064e+02 0.0 
0.0 0.0 -1.215555992355e+02 
-1.157496432713e+02 1.074183243589e+01 0.0 
1.074183243589e+01 -2.559887510633e+02 0.0 
0.0 0.0 -1.111215183004e+02 
-7.983355246449e+01 3.478410975621e-01 0.0 
3.478410975621e-01 -1.737656087390e+02 0.0 
0.0 0.0 -7.567974836104e+01 
-8.155186940275e+01 3.002881101185e+00 0.0 
3.002881101185e+00 -1.678629299578e+02 0.0 
0.0 0.0 -7.442443980818e+01 
-1.511004492174e+02 1.548374696282e+00 0.0 
1.548374696282e+00 -3.603875334592e+02 0.0 
0.0 0.0 -1.530463948030e+02 
-1.281521246689e+02 9.676946962805e+00 0.0 
9.676946962805e+00 -2.916556297481e+02 0.0 
0.0 0.0 -1.255423263251e+02 
-1.696689615371e+01 7.157200274660e+00 0.0 
7.157200274660e+00 -3.334601281983e+01 0.0 
0.0 0.0 -1.469387269206e+01 
-9.652722926410e+01 4.046671981836e-01 0.0 
4.046671981836e-01 -2.154374205376e+02 0.0 
0.0 0.0 -9.318939494051e+01 
-6.447238674927e+01 -2.161685567290e-01 0.0 
-2.161685567290e-01 -1.697739684750e+02 0.0 
0.0 0.0 -6.987390656727e+01 
-1.800429828410e+01 -7.357441441198e-01 0.0 
-7.357441441198e-01 -3.083700441871e+01 0.0 
0.0 0.0 -1.444483058181e+01 
-1.471715097954e+02 6.804878203097e+00 0.0 
6.804878203097e+00 -3.536280318318e+02 0.0 
0.0 0.0 -1.498398624882e+02 
-1.224507577308e+02 1.137054173105e+01 0.0 
1.137054173105e+01 -2.749419225486e+02 0.0 
0.0 0.0 -1.188178040838e+02 
-1.500299719946e+02 2.475237955844e+00 0.0 
2.475237955844e+00 -3.587653161964e+02 0.0 
0.0 0.0 -1.522385864573e+02 
-1.909282038743e+01 -3.020749855706e-01 0.0 
-3.020749855706e-01 -4.984036902362e+01 0.0 
0.0 0.0 -2.027995682331e+01 
-1.432069418150e+01 -1.237417346860e+00 0.0 
-1.237417346860e+00 -3.113178578885e+01 0.0 
0.0 0.0 -1.331766248095e+01 
-1.474172646350e+02 8.524661667672e+00 0.0 
8.524661667672e+00 -3.538000383295e+02 0.0 
0.0 0.0 -1.499651908894e+02 
-1.322162049848e+02 1.274805556010e+01 0.0 
1.274805556010e+01 -3.026773223010e+02 0.0 
0.0 0.0 -1.300680581857e+02 
-2.957167567922e+01 -4.857418417848e-01 0.0 
-4.857418417848e-01 -8.033085365456e+01 0.0 
0.0 0.0 -3.257075880013e+01 
-1.310236081065e+02 4.409261945487e+00 0.0 
4.409261945487e+00 -3.041983755139e+02 0.0 
0.0 0.0 -1.301665950861e+02 
-1.537979281035e+01 5.149126600814e+00 0.0 
5.149126600814e+00 -2.385685358700e+01 0.0 
0.0 0.0 -1.145279790425e+01 
-6.256658256733e+01 1.938471410537e-01 0.0 
1.938471410537e-01 -1.306320106858e+02 0.0 
0.0 0.0 -5.755957797594e+01 
-1.379667211306e+01 -7.407173319533e-01 0.0 
-7.407173319533e-01 -3.233365138340e+01 0.0 
0.0 0.0 -1.361486665361e+01 
-1.584206464525e+02 3.796172089132e+00 0.0 
3.796172089132e+00 -3.744583208547e+02 0.0 
0.0 0.0 -1.594636901922e+02 
-1.238820647519e+02 3.102341860262e+00 0.0 
3.102341860262e+00 -2.852012656828e+02 0.0 
0.0 0.0 -1.223249991304e+02 
-7.150929378558e+01 -2.498888187327e-01 0.0 
-2.498888187327e-01 -1.868623114819e+02 0.0 
0.0 0.0 -7.711148158024e+01 
-6.822317217565e+01 1.699533019043e+00 0.0 
1.699533019043e+00 -1.369764640401e+02 0.0 
0.0 0.0 -6.115989086474e+01 
-4.703072768208e+01 -4.367733831379e-01 0.0 
-4.367733831379e-01 -1.238172936479e+02 0.0 
0.0 0.0 -5.085440639900e+01 
-1.296499307041e+02 1.420403675582e+01 0.0 
1.420403675582e+01 -3.014164939162e+02 0.0 
0.0 0.0 -1.289199273861e+02 
-2.018820611648e+01 -1.766887128285e+00 0.0 
-1.766887128285e+00 -4.620397673046e+01 0.0 
0.0 0.0 -1.951765485408e+01 
-1.241814703537e+02 2.405633563556e+00 0.0 
2.405633563556e+00 -2.867560203878e+02 0.0 
0.0 0.0 -1.228812472225e+02 
-1.464031331170e+02 1.023751238393e+01 0.0 
1.023751238393e+01 -3.511481162326e+02 0.0 
0.0 0.0 -1.488653748049e+02 
-1.273037765994e+02 7.039842885432e+00 0.0 
7.039842885432e+00 -2.909213923036e+02 0.0 
0.0 0.0 -1.250675506709e+02 
-1.495018822082e+02 1.507596408704e+01 0.0 
1.507596408704e+01 -3.524762563099e+02 0.0 
0.0 0.0 -1.501934415554e+02 
-1.710687695988e+01 1.038732075044e+00 0.0 
1.038732075044e+00 -2.818050056315e+01 0.0 
0.0 0.0 -1.328806756384e+01 
-1.384806396032e+02 1.528289361341e+01 0.0 
1.528289361341e+01 -3.249399953448e+02 0.0 
0.0 0.0 -1.386261904844e+02 
-1.362459846377e+02 1.064091363443e+01 0.0 
1.064091363443e+01 -3.309153809929e+02 0.0 
0.0 0.0 -1.397484096892e+02 
-6.247036626679e+01 -9.583477207898e-02 0.0 
-9.583477207898e-02 -1.324633169070e+02 0.0 
0.0 0.0 -5.808010495212e+01 
-1.274748984772e+02 8.207261066847e+00 0.0 
8.207261066847e+00 -2.902376324512e+02 0.0 
0.0 0.0 -1.249137592785e+02 
-5.782137330017e+01 -4.692236899306e-01 0.0 
-4.692236899306e-01 -1.521459915904e+02 0.0 
0.0 0.0 -6.259020946718e+01 
-2.565127555149e+01 -8.349175004019e-01 0.0 
-8.349175004019e-01 -6.587872690312e+01 0.0 
0.0 0.0 -2.705900073638e+01 
-1.296903567972e+02 3.953328754049e-01 0.0 
3.953328754049e-01 -3.017462390444e+02 0.0 
0.0 0.0 -1.290309787525e+02 
-6.063753173679e+00 -3.275155802328e-02 0.0 
-3.275155802328e-02 -1.413620239401e+01 0.0 
0.0 0.0 -5.972337744972e+00 
-6.159886261149e+01 9.987950246413e-02 0.0 
9.987950246413e-02 -1.313681847073e+02 0.0 
0.0 0.0 -5.749011419565e+01 
-1.597467443071e+02 3.189829307235e-01 0.0 
3.189829307235e-01 -3.771195890920e+02 0.0 
0.0 0.0 -1.606599000197e+02 
-2.445071472267e+01 -6.353169559902e-01 0.0 
-6.353169559902e-01 -6.295691383486e+01 0.0 
0.0 0.0 -2.582228856726e+01 
-7.516588138291e+01 2.435382906145e-01 0.0 
2.435382906145e-01 -1.633646257076e+02 0.0 
0.0 0.0 -7.115915212715e+01 
-1.318143764135e+02 1.215377110715e+01 0.0 
1.215377110715e+01 -3.011907097063e+02 0.0 
0.0 0.0 -1.295015258359e+02 
-8.903101932229e+01 3.087202411293e-02 0.0 
3.087202411293e-02 -2.287805205171e+02 0.0 
0.0 0.0 -9.494346195183e+01 
-1.105444691228e+02 7.197773961190e-01 0.0 
7.197773961190e-01 -2.519923788466e+02 0.0 
0.0 0.0 -1.083610543908e+02 
-2.489684149551e+01 -1.705601617694e+00 0.0 
-1.705601617694e+00 -6.155750799923e+01 0.0 
0.0 0.0 -2.553630484842e+01 
-1.625149521452e+01 -4.940713791007e-01 0.0 
-4.940713791007e-01 -1.444366086911e+01 0.0 
0.0 0.0 -9.225819462623e+00 
-8.941653601529e+01 4.271786887640e-01 0.0 
4.271786887640e-01 -1.982642706782e+02 0.0 
0.0 0.0 -8.590424200804e+01 
-1.394375179539e+02 1.468526093387e+01 0.0 
1.468526093387e+01 -3.298581798743e+02 0.0 
0.0 0.0 -1.403887093485e+02 
-1.266728032110e+02 5.820012329400e+00 0.0 
5.820012329400e+00 -2.903995792321e+02 0.0 
0.0 0.0 -1.247217147329e+02 
-8.414607762873e+01 3.145282708127e-01 0.0 
3.145282708127e-01 -1.845754749645e+02 0.0 
0.0 0.0 -8.021646577796e+01 
-1.912119415214e+01 6.167273186939e+00 0.0 
6.167273186939e+00 -4.615190233164e+01 0.0 
0.0 0.0 -1.918192894513e+01 
-1.279924143861e+02 1.193197539363e+01 0.0 
1.193197539363e+01 -2.904662076024e+02 0.0 
0.0 0.0 -1.251375865966e+02 
-7.770515695360e+01 3.374007172861e-02 0.0 
3.374007172861e-02 -2.016257212410e+02 0.0 
0.0 0.0 -8.339926345837e+01 
-1.290337526985e+02 1.390940336268e+01 0.0 
1.390940336268e+01 -2.964804395604e+02 0.0 
0.0 0.0 -1.272542576777e+02 
-1.350310851967e+02 1.212096313012e+01 0.0 
1.212096313012e+01 -3.266080173648e+02 0.0 
0.0 0.0 -1.380917307685e+02 
-1.419512659758e+01 5.662054155953e+00 0.0 
5.662054155953e+00 -1.250030507311e+01 0.0 
0.0 0.0 -7.875708478313e+00 
-9.629509618814e+01 2.993936187163e-02 0.0 
2.993936187163e-02 -2.456361350188e+02 0.0 
0.0 0.0 -1.021793693621e+02 
-1.347682941387e+01 -7.535312316925e-01 0.0 
-7.535312316925e-01 -3.029248080347e+01 0.0 
0.0 0.0 -1.283234461471e+01 
-1.505975436385e+02 5.307843370110e+00 0.0 
5.307843370110e+00 -3.600800390290e+02 0.0 
0.0 0.0 -1.528032748002e+02 
-8.110045476726e+01 1.141872498529e-01 0.0 
1.141872498529e-01 -2.100564405557e+02 0.0 
0.0 0.0 -8.694706859690e+01 
-7.088610775886e+00 2.205717429275e+00 0.0 
2.205717429275e+00 -7.699214161475e+00 0.0 
0.0 0.0 -4.036347481208e+00 
-1.024534020038e+01 8.484648001224e-02 0.0 
8.484648001224e-02 -1.045163524608e+01 0.0 
0.0 0.0 -5.809092633936e+00 
-1.870321789756e+01 2.394754345382e+00 0.0 
2.394754345382e+00 -2.888015124198e+01 0.0 
0.0 0.0 -1.387501074186e+01 
-1.772564801454e+01 -2.962729930155e-02 0.0 
-2.962729930155e-02 -2.893211301623e+01 0.0 
0.0 0.0 -1.359732830923e+01 
-2.872161716810e+01 1.948794427462e+00 0.0 
1.948794427462e+00 -4.861725505915e+01 0.0 
0.0 0.0 -2.280166166818e+01 
-2.655974110079e+01 -2.861633301106e-02 0.0 
-2.861633301106e-02 -4.957029087270e+01 0.0 
0.0 0.0 -2.243900959205e+01 
-3.820290032177e+01 1.550153296079e+00 0.0 
1.550153296079e+00 -6.832229974853e+01 0.0 
0.0 0.0 -3.155756002109e+01 
-3.449841066961e+01 -1.814745217778e-02 0.0 
-1.814745217778e-02 -6.800783172823e+01 0.0 
0.0 0.0 -3.035187271935e+01 
-4.709559477457e+01 1.322707081675e+00 0.0 
1.322707081675e+00 -8.779911108788e+01 0.0 
0.0 0.0 -4.006841175874e+01 
-4.341569734855e+01 -6.187578389310e-02 0.0 
-6.187578389310e-02 -8.864937847851e+01 0.0 
0.0 0.0 -3.921952274812e+01 
-5.558532586785e+01 1.266677486879e+00 0.0 
1.266677486879e+00 -1.073648460475e+02 0.0 
0.0 0.0 -4.848505157460e+01 
-5.117268683995e+01 -1.608678685721e-01 0.0 
-1.608678685721e-01 -1.070410883332e+02 0.0 
0.0 0.0 -4.706413255194e+01 

TENSORS node_materi_strain_total float
-9.545166387126e-06 1.250042385557e-06 0.0 
1.250042385557e-06 1.063867195082e-04 0.0 
0.0 0.0 0.0 
-3.707313728589e-04 -1.782792950573e-05 0.0 
-1.782792950573e-05 8.182290665755e-03 0.0 
0.0 0.0 0.0 
4.543498527132e-05 4.069636621200e-05 0.0 
4.069636621200e-05 8.249091735663e-03 0.0 
0.0 0.0 0.0 
-2.402170598809e-05 -6.705296383381e-08 0.0 
-6.705296383381e-08 1.200669140662e-02 0.0 
0.0 0.0 0.0 
1.329617732352e-05 -5.947966331760e-06 0.0 
-5.947966331760e-06 3.018460326240e-04 0.0 
0.0 0.0 0.0 
6.093692499983e-05 8.947042720951e-06 0.0 
8.947042720951e-06 6.890547065317e-04 0.0 
0.0 0.0 0.0 
1.275735754019e-04 9.222627693636e-06 0.0 
9.222627693636e-06 1.045002194866e-03 0.0 
0.0 0.0 0.0 
1.896581696327e-04 7.719640142739e-06 0.0 
7.719640142739e-06 1.448507688268e-03 0.0 
0.0 0.0 0.0 
2.524970715861e-04 5.703944787772e-06 0.0 
5.703944787772e-06 1.839118781510e-03 0.0 
0.0 0.0 0.0 
3.165452315728e-04 5.649962785388e-06 0.0 
5.649962785388e-06 2.224827807285e-03 0.0 
0.0 0.0 0.0 
3.733648581098e-04 7.145071299028e-06 0.0 
7.145071299028e-06 2.614118209911e-03 0.0 
0.0 0.0 0.0 
4.218794560755e-04 7.460838489807e-06 0.0 
7.460838489807e-06 3.009113686358e-03 0.0 
0.0 0.0 0.0 
4.621428828132e-04 9.119504006299e-06 0.0 
9.119504006299e-06 3.410511588136e-03 0.0 
0.0 0.0 0.0 
4.884922185068e-04 1.369877388127e-05 0.0 
1.369877388127e-05 3.825583754893e-03 0.0 
0.0 0.0 0.0 
4.985644619870e-04 2.207535436258e-05 0.0 
2.207535436258e-05 4.262834563820e-03 0.0 
0.0 0.0 0.0 
5.069933103396e-04 2.469905499394e-05 0.0 
2.469905499394e-05 4.691531903803e-03 0.0 
0.0 0.0 0.0 
5.031846310714e-04 3.411180405396e-05 0.0 
3.411180405396e-05 5.089011755362e-03 0.0 
0.0 0.0 0.0 
4.759579385394e-04 2.035191500814e-05 0.0 
2.035191500814e-05 5.541216389971e-03 0.0 
0.0 0.0 0.0 
4.342805871901e-04 2.198269250197e-05 0.0 
2.198269250197e-05 6.015756429120e-03 0.0 
0.0 0.0 0.0 
3.782314896958e-04 2.437920054048e-05 0.0 
2.437920054048e-05 6.486599843529e-03 0.0 
0.0 0.0 0.0 
3.048930940628e-04 2.533390869974e-05 0.0 
2.533390869974e-05 6.973224444510e-03 0.0 
0.0 0.0 0.0 
2.141454156349e-04 3.067038223057e-05 0.0 
3.067038223057e-05 7.475227211675e-03 0.0 
0.0 0.0 0.0 
1.251689043427e-04 3.558034550632e-05 0.0 
3.558034550632e-05 7.962065267152e-03 0.0 
0.0 0.0 0.0 
-1.616144125312e-05 3.742467522635e-05 0.0 
3.742467522635e-05 1.202407185753e-02 0.0 
0.0 0.0 0.0 
-2.044400358958e-05 6.965216242288e-05 0.0 
6.965216242288e-05 1.200258915228e-02 0.0 
0.0 0.0 0.0 
-2.018961668260e-05 9.446733864906e-05 0.0 
9.446733864906e-05 1.200573452646e-02 0.0 
0.0 0.0 0.0 
-2.069755294524e-05 1.446031985920e-04 0.0 
1.446031985920e-04 1.200041381917e-02 0.0 
0.0 0.0 0.0 
-2.561464522359e-05 1.744610555675e-04 0.0 
1.744610555675e-04 1.198261597516e-02 0.0 
0.0 0.0 0.0 
-2.280889427031e-05 2.172405025300e-04 0.0 
2.172405025300e-04 1.198704759177e-02 0.0 
0.0 0.0 0.0 
-2.403933864000e-05 2.620468518277e-04 0.0 
2.620468518277e-04 1.197796556332e-02 0.0 
0.0 0.0 0.0 
-2.804245084653e-05 3.089643387507e-04 0.0 
3.089643387507e-04 1.195751548276e-02 0.0 
0.0 0.0 0.0 
-2.824599818267e-05 3.532235608577e-04 0.0 
3.532235608577e-04 1.195281483499e-02 0.0 
0.0 0.0 0.0 
-2.765997303456e-05 4.173277892241e-04 0.0 
4.173277892241e-04 1.192918425013e-02 0.0 
0.0 0.0 0.0 
-3.639892737632e-05 4.675704000585e-04 0.0 
4.675704000585e-04 1.189200009416e-02 0.0 
0.0 0.0 0.0 
-3.422210766231e-05 5.314898684232e-04 0.0 
5.314898684232e-04 1.186946436513e-02 0.0 
0.0 0.0 0.0 
-3.628456081976e-05 5.998707904531e-04 0.0 
5.998707904531e-04 1.183214986794e-02 0.0 
0.0 0.0 0.0 
-3.789617378247e-05 6.682193737589e-04 0.0 
6.682193737589e-04 1.177862416712e-02 0.0 
0.0 0.0 0.0 
-4.227992711344e-05 7.387163833416e-04 0.0 
7.387163833416e-04 1.171687087777e-02 0.0 
0.0 0.0 0.0 
-4.379402806668e-05 8.138023656481e-04 0.0 
8.138023656481e-04 1.163775581574e-02 0.0 
0.0 0.0 0.0 
-4.825134831118e-05 8.882989045350e-04 0.0 
8.882989045350e-04 1.155757685728e-02 0.0 
0.0 0.0 0.0 
-4.704938004626e-05 9.708824118022e-04 0.0 
9.708824118022e-04 1.147250989007e-02 0.0 
0.0 0.0 0.0 
-4.381666403064e-05 1.047631935111e-03 0.0 
1.047631935111e-03 1.137471542888e-02 0.0 
0.0 0.0 0.0 
-3.769203419538e-05 1.123074839096e-03 0.0 
1.123074839096e-03 1.126448083107e-02 0.0 
0.0 0.0 0.0 
-3.228755164460e-05 1.193810420110e-03 0.0 
1.193810420110e-03 1.113148368430e-02 0.0 
0.0 0.0 0.0 
-3.346782051705e-05 1.253963305731e-03 0.0 
1.253963305731e-03 1.098648113992e-02 0.0 
0.0 0.0 0.0 
-2.543764253660e-05 1.307575291513e-03 0.0 
1.307575291513e-03 1.083192995366e-02 0.0 
0.0 0.0 0.0 
-1.980958315810e-05 1.348859653194e-03 0.0 
1.348859653194e-03 1.066742430618e-02 0.0 
0.0 0.0 0.0 
-1.437147752052e-05 1.379181843075e-03 0.0 
1.379181843075e-03 1.050026380129e-02 0.0 
0.0 0.0 0.0 
-6.117440195297e-06 1.398882766338e-03 0.0 
1.398882766338e-03 1.033116475833e-02 0.0 
0.0 0.0 0.0 
8.452199036964e-07 1.401945008272e-03 0.0 
1.401945008272e-03 1.015850884238e-02 0.0 
0.0 0.0 0.0 
1.066617799868e-05 1.392353466304e-03 0.0 
1.392353466304e-03 9.985502058587e-03 0.0 
0.0 0.0 0.0 
1.469925757625e-05 1.368518966711e-03 0.0 
1.368518966711e-03 9.811066932309e-03 0.0 
0.0 0.0 0.0 
1.528102928838e-05 1.332232223424e-03 0.0 
1.332232223424e-03 9.666309980858e-03 0.0 
0.0 0.0 0.0 
2.932962960989e-05 1.295694895496e-03 0.0 
1.295694895496e-03 9.496173603144e-03 0.0 
0.0 0.0 0.0 
3.398940310303e-05 1.236138500119e-03 0.0 
1.236138500119e-03 9.325406136290e-03 0.0 
0.0 0.0 0.0 
3.717773103018e-05 1.167081629033e-03 0.0 
1.167081629033e-03 9.178380940545e-03 0.0 
0.0 0.0 0.0 
3.841338308138e-05 1.098324401929e-03 0.0 
1.098324401929e-03 9.060540467953e-03 0.0 
0.0 0.0 0.0 
4.310168364626e-05 1.027655212117e-03 0.0 
1.027655212117e-03 8.944405200631e-03 0.0 
0.0 0.0 0.0 
3.666593532599e-05 9.497154821140e-04 0.0 
9.497154821140e-04 8.839899481443e-03 0.0 
0.0 0.0 0.0 
4.646004416757e-05 8.752144011512e-04 0.0 
8.752144011512e-04 8.748878378066e-03 0.0 
0.0 0.0 0.0 
4.009547413567e-05 7.960778334004e-04 0.0 
7.960778334004e-04 8.657075810861e-03 0.0 
0.0 0.0 0.0 
4.818567245472e-05 7.191648821171e-04 0.0 
7.191648821171e-04 8.576565400341e-03 0.0 
0.0 0.0 0.0 
4.181244859066e-05 6.424628497786e-04 0.0 
6.424628497786e-04 8.502676680619e-03 0.0 
0.0 0.0 0.0 
3.541192144970e-05 5.700454133265e-04 0.0 
5.700454133265e-04 8.457769646472e-03 0.0 
0.0 0.0 0.0 
3.801404255954e-05 5.032906784486e-04 0.0 
5.032906784486e-04 8.434425880068e-03 0.0 
0.0 0.0 0.0 
4.207003411105e-05 4.339567116521e-04 0.0 
4.339567116521e-04 8.405908821726e-03 0.0 
0.0 0.0 0.0 
4.635525210528e-05 3.583437476853e-04 0.0 
3.583437476853e-04 8.302606069936e-03 0.0 
0.0 0.0 0.0 
3.981663174472e-05 2.939364684744e-04 0.0 
2.939364684744e-04 8.332386921400e-03 0.0 
0.0 0.0 0.0 
3.294080783456e-05 2.336316472614e-04 0.0 
2.336316472614e-04 8.290759318134e-03 0.0 
0.0 0.0 0.0 
2.895731025698e-05 1.719837849710e-04 0.0 
1.719837849710e-04 8.285922023977e-03 0.0 
0.0 0.0 0.0 
3.142183841328e-05 1.213167944177e-04 0.0 
1.213167944177e-04 8.292537224776e-03 0.0 
0.0 0.0 0.0 
3.046489143991e-05 6.632769708411e-05 0.0 
6.632769708411e-05 8.284348199254e-03 0.0 
0.0 0.0 0.0 
-3.566783421132e-04 -1.151659142300e-05 0.0 
-1.151659142300e-05 8.607003752605e-03 0.0 
0.0 0.0 0.0 
-3.488285804002e-04 -1.171278858948e-05 0.0 
-1.171278858948e-05 9.028806207466e-03 0.0 
0.0 0.0 0.0 
-3.291360518315e-04 -1.010897003548e-05 0.0 
-1.010897003548e-05 9.439130706207e-03 0.0 
0.0 0.0 0.0 
-3.034126103377e-04 -9.335793076917e-06 0.0 
-9.335793076917e-06 9.836438381002e-03 0.0 
0.0 0.0 0.0 
-2.708926670233e-04 -6.265627143253e-06 0.0 
-6.265627143253e-06 1.023662860642e-02 0.0 
0.0 0.0 0.0 
-2.277069271119e-04 -5.650139383453e-06 0.0 
-5.650139383453e-06 1.063109833045e-02 0.0 
0.0 0.0 0.0 
-1.823478864330e-04 -3.256611351764e-06 0.0 
-3.256611351764e-06 1.101757268218e-02 0.0 
0.0 0.0 0.0 
-1.273423101612e-04 -2.738114622473e-06 0.0 
-2.738114622473e-06 1.139651517708e-02 0.0 
0.0 0.0 0.0 
-7.152105531823e-05 -3.330789601318e-06 0.0 
-3.330789601318e-06 1.177926151249e-02 0.0 
0.0 0.0 0.0 
-6.388511486230e-04 3.763861158370e-04 0.0 
3.763861158370e-04 4.351814034116e-04 0.0 
0.0 0.0 0.0 
-6.128430271452e-04 1.251941710974e-04 0.0 
1.251941710974e-04 8.214168344935e-03 0.0 
0.0 0.0 0.0 
-6.881253570796e-04 9.084852237020e-04 0.0 
9.084852237020e-04 1.245083043179e-03 0.0 
0.0 0.0 0.0 
-6.806477912347e-04 1.076718275489e-03 0.0 
1.076718275489e-03 2.512101164478e-03 0.0 
0.0 0.0 0.0 
-6.135896816225e-04 1.067950047838e-03 0.0 
1.067950047838e-03 3.874550462658e-03 0.0 
0.0 0.0 0.0 
-5.188416277349e-04 6.771545932579e-04 0.0 
6.771545932579e-04 5.330350233992e-03 0.0 
0.0 0.0 0.0 
-4.226391180871e-04 3.476051764968e-04 0.0 
3.476051764968e-04 5.928786601093e-03 0.0 
0.0 0.0 0.0 
-4.944686527164e-04 2.624969018674e-04 0.0 
2.624969018674e-04 6.386524697963e-03 0.0 
0.0 0.0 0.0 
-5.575750695735e-04 1.968438476051e-04 0.0 
1.968438476051e-04 6.849317520462e-03 0.0 
0.0 0.0 0.0 
-5.960208552658e-04 1.508134144840e-04 0.0 
1.508134144840e-04 7.304483345324e-03 0.0 
0.0 0.0 0.0 
-6.105617907640e-04 1.293432383187e-04 0.0 
1.293432383187e-04 7.751110104858e-03 0.0 
0.0 0.0 0.0 
-3.936682910416e-04 -2.653565983378e-05 0.0 
-2.653565983378e-05 5.772358278761e-03 0.0 
0.0 0.0 0.0 
-3.699470987304e-04 -2.537795318773e-05 0.0 
-2.537795318773e-05 6.026001938015e-03 0.0 
0.0 0.0 0.0 
-3.595767551601e-04 -3.505584257829e-05 0.0 
-3.505584257829e-05 6.449572674049e-03 0.0 
0.0 0.0 0.0 
-3.615735894661e-04 -2.858220552706e-05 0.0 
-2.858220552706e-05 6.880741776553e-03 0.0 
0.0 0.0 0.0 
-3.642757833312e-04 -3.330575453937e-05 0.0 
-3.330575453937e-05 7.311152367498e-03 0.0 
0.0 0.0 0.0 
-3.650955050642e-04 -2.343060322914e-05 0.0 
-2.343060322914e-05 7.737534189872e-03 0.0 
0.0 0.0 0.0 
-3.662029240050e-04 7.291844349080e-06 0.0 
7.291844349080e-06 8.124038868688e-03 0.0 
0.0 0.0 0.0 
-3.670723787783e-04 -1.405558057025e-06 0.0 
-1.405558057025e-06 8.151267888578e-03 0.0 
0.0 0.0 0.0 
-3.741281862392e-04 -2.048653480817e-06 0.0 
-2.048653480817e-06 8.155769568815e-03 0.0 
0.0 0.0 0.0 
-3.808141628183e-04 -4.193203512605e-06 0.0 
-4.193203512605e-06 8.153218486816e-03 0.0 
0.0 0.0 0.0 
-3.871751172440e-04 -7.318493001397e-09 0.0 
-7.318493001397e-09 8.213343227950e-03 0.0 
0.0 0.0 0.0 
-3.992230614927e-04 -1.489478795606e-06 0.0 
-1.489478795606e-06 8.167902844553e-03 0.0 
0.0 0.0 0.0 
-4.105504663969e-04 -2.277161431514e-06 0.0 
-2.277161431514e-06 8.166993415916e-03 0.0 
0.0 0.0 0.0 
-4.248488562882e-04 2.672341329921e-06 0.0 
2.672341329921e-06 8.175704924243e-03 0.0 
0.0 0.0 0.0 
-4.468526116572e-04 5.805584179615e-06 0.0 
5.805584179615e-06 8.191208979561e-03 0.0 
0.0 0.0 0.0 
-4.681060812991e-04 1.362593470201e-05 0.0 
1.362593470201e-05 8.193485863152e-03 0.0 
0.0 0.0 0.0 
-4.882738746647e-04 2.307183652370e-05 0.0 
2.307183652370e-05 8.194251307560e-03 0.0 
0.0 0.0 0.0 
-5.142738151381e-04 3.660620887319e-05 0.0 
3.660620887319e-05 8.195175729888e-03 0.0 
0.0 0.0 0.0 
-5.403797798827e-04 5.904263701597e-05 0.0 
5.904263701597e-05 8.195357419639e-03 0.0 
0.0 0.0 0.0 
-5.705055297461e-04 8.832280075619e-05 0.0 
8.832280075619e-05 8.199646689377e-03 0.0 
0.0 0.0 0.0 
-7.412934607211e-04 1.212755319941e-04 0.0 
1.212755319941e-04 4.644305652307e-04 0.0 
0.0 0.0 0.0 
-8.312192177042e-04 1.385134223389e-05 0.0 
1.385134223389e-05 4.790025583452e-04 0.0 
0.0 0.0 0.0 
-8.266212225334e-04 -3.737069920697e-05 0.0 
-3.737069920697e-05 4.581253351332e-04 0.0 
0.0 0.0 0.0 
-7.618017126071e-04 -4.806024384078e-05 0.0 
-4.806024384078e-05 4.259713162139e-04 0.0 
0.0 0.0 0.0 
-6.730923998003e-04 -5.778000804802e-05 0.0 
-5.778000804802e-05 3.964659653477e-04 0.0 
0.0 0.0 0.0 
-6.022347762538e-04 -5.454039994955e-05 0.0 
-5.454039994955e-05 3.717220028548e-04 0.0 
0.0 0.0 0.0 
-5.284201286767e-04 -5.063018315442e-05 0.0 
-5.063018315442e-05 3.415174339438e-04 0.0 
0.0 0.0 0.0 
-4.542763242488e-04 -4.729666854582e-05 0.0 
-4.729666854582e-05 3.090629991345e-04 0.0 
0.0 0.0 0.0 
-3.852322459958e-04 -4.561628944035e-05 0.0 
-4.561628944035e-05 2.797173350652e-04 0.0 
0.0 0.0 0.0 
-3.201061456881e-04 -4.261131170185e-05 0.0 
-4.261131170185e-05 2.513380960576e-04 0.0 
0.0 0.0 0.0 
-2.577315826545e-04 -3.818983363580e-05 0.0 
-3.818983363580e-05 2.291108788876e-04 0.0 
0.0 0.0 0.0 
-2.221603167253e-04 -3.304183367931e-05 0.0 
-3.304183367931e-05 2.168641924811e-04 0.0 
0.0 0.0 0.0 
-1.658323368193e-04 -2.532207492846e-05 0.0 
-2.532207492846e-05 1.891189405306e-04 0.0 
0.0 0.0 0.0 
-1.121351207493e-04 -2.573774385718e-05 0.0 
-2.573774385718e-05 1.599934262381e-04 0.0 
0.0 0.0 0.0 
-7.632165937480e-05 -2.558202119360e-05 0.0 
-2.558202119360e-05 1.451511463324e-04 0.0 
0.0 0.0 0.0 
-5.596089728606e-05 -1.855163062321e-05 0.0 
-1.855163062321e-05 1.385718905024e-04 0.0 
0.0 0.0 0.0 
-3.613278429356e-05 -9.387114831282e-06 0.0 
-9.387114831282e-06 1.298166642276e-04 0.0 
0.0 0.0 0.0 
-1.156196338155e-05 7.865665169338e-07 0.0 
7.865665169338e-07 1.116408883880e-04 0.0 
0.0 0.0 0.0 
-3.292031227657e-06 5.388148799158e-06 0.0 
5.388148799158e-06 9.863129205330e-05 0.0 
0.0 0.0 0.0 
-3.790425851398e-04 2.236466005728e-05 0.0 
2.236466005728e-05 5.815200662048e-03 0.0 
0.0 0.0 0.0 
-3.424505125381e-04 7.902659809559e-06 0.0 
7.902659809559e-06 5.805412982267e-03 0.0 
0.0 0.0 0.0 
-3.396833582510e-04 -1.923269249893e-06 0.0 
-1.923269249893e-06 5.800579066924e-03 0.0 
0.0 0.0 0.0 
-3.356621404116e-04 -6.692224214904e-06 0.0 
-6.692224214904e-06 5.798341029238e-03 0.0 
0.0 0.0 0.0 
-3.283440579674e-04 -1.010500902532e-05 0.0 
-1.010500902532e-05 5.795479489883e-03 0.0 
0.0 0.0 0.0 
-3.178822304357e-04 -1.298031413673e-05 0.0 
-1.298031413673e-05 5.791490355727e-03 0.0 
0.0 0.0 0.0 
-3.043981534964e-04 -1.567343932679e-05 0.0 
-1.567343932679e-05 5.786183613532e-03 0.0 
0.0 0.0 0.0 
-2.879106558036e-04 -1.832884163743e-05 0.0 
-1.832884163743e-05 5.779491632786e-03 0.0 
0.0 0.0 0.0 
-2.684001749595e-04 -2.099822396517e-05 0.0 
-2.099822396517e-05 5.771410191047e-03 0.0 
0.0 0.0 0.0 
-2.458064146177e-04 -2.369244571466e-05 0.0 
-2.369244571466e-05 5.761931862253e-03 0.0 
0.0 0.0 0.0 
-2.200797842118e-04 -2.639780876257e-05 0.0 
-2.639780876257e-05 5.751064368966e-03 0.0 
0.0 0.0 0.0 
-1.912128135910e-04 -2.906294081115e-05 0.0 
-2.906294081115e-05 5.738845819446e-03 0.0 
0.0 0.0 0.0 
-1.592846619260e-04 -3.150255361597e-05 0.0 
-3.150255361597e-05 5.725508264310e-03 0.0 
0.0 0.0 0.0 
-1.247420169970e-04 -3.370542191559e-05 0.0 
-3.370542191559e-05 5.711274295274e-03 0.0 
0.0 0.0 0.0 
-8.818507305490e-05 -3.536053227564e-05 0.0 
-3.536053227564e-05 5.696538319143e-03 0.0 
0.0 0.0 0.0 
-5.106203552785e-05 -3.666512745858e-05 0.0 
-3.666512745858e-05 5.681366368050e-03 0.0 
0.0 0.0 0.0 
-1.469125466228e-05 -3.605338177993e-05 0.0 
-3.605338177993e-05 5.667115206473e-03 0.0 
0.0 0.0 0.0 
1.682714462055e-05 -3.444092679344e-05 0.0 
-3.444092679344e-05 5.653304801039e-03 0.0 
0.0 0.0 0.0 
4.130981546624e-05 -2.542906650914e-05 0.0 
-2.542906650914e-05 5.643943155829e-03 0.0 
0.0 0.0 0.0 
4.587899045738e-05 -1.136844495396e-05 0.0 
-1.136844495396e-05 5.633959514499e-03 0.0 
0.0 0.0 0.0 
3.518200905343e-05 3.806030933590e-05 0.0 
3.806030933590e-05 5.635160469423e-03 0.0 
0.0 0.0 0.0 
-4.329388192054e-05 9.509923923819e-05 0.0 
9.509923923819e-05 5.631777728527e-03 0.0 
0.0 0.0 0.0 
-2.018480209915e-04 1.777600148391e-04 0.0 
1.777600148391e-04 5.593176031431e-03 0.0 
0.0 0.0 0.0 
-2.320925703419e-04 1.467984913450e-04 0.0 
1.467984913450e-04 5.868588839040e-03 0.0 
0.0 0.0 0.0 
-2.073842629572e-04 8.304864708387e-05 0.0 
8.304864708387e-05 5.938049097981e-03 0.0 
0.0 0.0 0.0 
-1.543483580532e-04 1.965695656475e-05 0.0 
1.965695656475e-05 5.918175765064e-03 0.0 
0.0 0.0 0.0 
-1.419566499574e-04 -1.258033145592e-05 0.0 
-1.258033145592e-05 5.919831447065e-03 0.0 
0.0 0.0 0.0 
-1.404787994879e-04 -2.794121760228e-05 0.0 
-2.794121760228e-05 5.925518233193e-03 0.0 
0.0 0.0 0.0 
-1.503319203779e-04 -3.680259426910e-05 0.0 
-3.680259426910e-05 5.931428568249e-03 0.0 
0.0 0.0 0.0 
-1.656988129318e-04 -4.066559700028e-05 0.0 
-4.066559700028e-05 5.939819632859e-03 0.0 
0.0 0.0 0.0 
-1.847923714527e-04 -4.196202561481e-05 0.0 
-4.196202561481e-05 5.948664688957e-03 0.0 
0.0 0.0 0.0 
-2.052555354896e-04 -4.146045116960e-05 0.0 
-4.146045116960e-05 5.958102810938e-03 0.0 
0.0 0.0 0.0 
-2.260749500151e-04 -3.978866289527e-05 0.0 
-3.978866289527e-05 5.967565071952e-03 0.0 
0.0 0.0 0.0 
-2.460706197259e-04 -3.722000087041e-05 0.0 
-3.722000087041e-05 5.976680142345e-03 0.0 
0.0 0.0 0.0 
-2.646466287615e-04 -3.417854046376e-05 0.0 
-3.417854046376e-05 5.985006667986e-03 0.0 
0.0 0.0 0.0 
-2.815342084127e-04 -3.093503193239e-05 0.0 
-3.093503193239e-05 5.992448931459e-03 0.0 
0.0 0.0 0.0 
-2.965936851058e-04 -2.757436405845e-05 0.0 
-2.757436405845e-05 5.998954168698e-03 0.0 
0.0 0.0 0.0 
-3.097162027729e-04 -2.412417248143e-05 0.0 
-2.412417248143e-05 6.004466710949e-03 0.0 
0.0 0.0 0.0 
-3.208246583630e-04 -2.056781928073e-05 0.0 
-2.056781928073e-05 6.008959902502e-03 0.0 
0.0 0.0 0.0 
-3.299446704505e-04 -1.688288492074e-05 0.0 
-1.688288492074e-05 6.012500821637e-03 0.0 
0.0 0.0 0.0 
-3.372370793871e-04 -1.291353986439e-05 0.0 
-1.291353986439e-05 6.015338375088e-03 0.0 
0.0 0.0 0.0 
-3.429780072914e-04 -8.430720906553e-06 0.0 
-8.430720906553e-06 6.017853526159e-03 0.0 
0.0 0.0 0.0 
-3.478509299477e-04 -3.424117062225e-06 0.0 
-3.424117062225e-06 6.020725234517e-03 0.0 
0.0 0.0 0.0 
-3.542175827074e-04 5.747191922615e-07 0.0 
5.747191922615e-07 6.024997515068e-03 0.0 
0.0 0.0 0.0 
-3.670549412465e-04 1.941701540688e-05 0.0 
1.941701540688e-05 6.026754420221e-03 0.0 
0.0 0.0 0.0 
-3.611073464567e-04 5.228309600861e-06 0.0 
5.228309600861e-06 6.452711575094e-03 0.0 
0.0 0.0 0.0 
-3.585019158179e-04 -7.068908763129e-06 0.0 
-7.068908763129e-06 6.454035043032e-03 0.0 
0.0 0.0 0.0 
-3.545867152593e-04 -1.335330968759e-05 0.0 
-1.335330968759e-05 6.451894256010e-03 0.0 
0.0 0.0 0.0 
-3.509393322291e-04 -1.852921264259e-05 0.0 
-1.852921264259e-05 6.449821000765e-03 0.0 
0.0 0.0 0.0 
-3.472982080863e-04 -2.416330789525e-05 0.0 
-2.416330789525e-05 6.448154008377e-03 0.0 
0.0 0.0 0.0 
-3.433604043532e-04 -2.995511249414e-05 0.0 
-2.995511249414e-05 6.446615737740e-03 0.0 
0.0 0.0 0.0 
-3.388428957219e-04 -3.586264452226e-05 0.0 
-3.586264452226e-05 6.444843744850e-03 0.0 
0.0 0.0 0.0 
-3.335656296591e-04 -4.171002110812e-05 0.0 
-4.171002110812e-05 6.442543752070e-03 0.0 
0.0 0.0 0.0 
-3.276188482873e-04 -4.728021430475e-05 0.0 
-4.728021430475e-05 6.439791416700e-03 0.0 
0.0 0.0 0.0 
-3.214098238412e-04 -5.244844016598e-05 0.0 
-5.244844016598e-05 6.436758796840e-03 0.0 
0.0 0.0 0.0 
-3.151465689229e-04 -5.709408162012e-05 0.0 
-5.709408162012e-05 6.433474756810e-03 0.0 
0.0 0.0 0.0 
-3.091064600180e-04 -6.081673981593e-05 0.0 
-6.081673981593e-05 6.429900234482e-03 0.0 
0.0 0.0 0.0 
-3.038477164542e-04 -6.273244086551e-05 0.0 
-6.273244086551e-05 6.426038194325e-03 0.0 
0.0 0.0 0.0 
-3.006154944973e-04 -6.150754234623e-05 0.0 
-6.150754234623e-05 6.422963191810e-03 0.0 
0.0 0.0 0.0 
-3.011454212615e-04 -5.675365909780e-05 0.0 
-5.675365909780e-05 6.420596942601e-03 0.0 
0.0 0.0 0.0 
-3.065263776666e-04 -4.587125724878e-05 0.0 
-4.587125724878e-05 6.419939389446e-03 0.0 
0.0 0.0 0.0 
-3.190948275543e-04 -2.782347629452e-05 0.0 
-2.782347629452e-05 6.418048354020e-03 0.0 
0.0 0.0 0.0 
-3.373949550662e-04 6.526933937523e-06 0.0 
6.526933937523e-06 6.417897754880e-03 0.0 
0.0 0.0 0.0 
-3.799078898051e-04 6.566141320270e-05 0.0 
6.566141320270e-05 6.435062388322e-03 0.0 
0.0 0.0 0.0 
-3.965376636333e-04 1.242938191297e-04 0.0 
1.242938191297e-04 6.355641818782e-03 0.0 
0.0 0.0 0.0 
-4.889712726998e-04 9.934574635455e-05 0.0 
9.934574635455e-05 6.817337389656e-03 0.0 
0.0 0.0 0.0 
-4.781346642743e-04 5.326876631333e-05 0.0 
5.326876631333e-05 6.901986088780e-03 0.0 
0.0 0.0 0.0 
-4.431646762452e-04 6.845707231120e-06 0.0 
6.845707231120e-06 6.888257284668e-03 0.0 
0.0 0.0 0.0 
-4.216104928241e-04 -2.173794307522e-05 0.0 
-2.173794307522e-05 6.887215552881e-03 0.0 
0.0 0.0 0.0 
-4.026656390336e-04 -3.819197009908e-05 0.0 
-3.819197009908e-05 6.887238961294e-03 0.0 
0.0 0.0 0.0 
-3.899920662440e-04 -4.872934006793e-05 0.0 
-4.872934006793e-05 6.886083917912e-03 0.0 
0.0 0.0 0.0 
-3.810593550194e-04 -5.309034686340e-05 0.0 
-5.309034686340e-05 6.886682121850e-03 0.0 
0.0 0.0 0.0 
-3.744701326779e-04 -5.349061758972e-05 0.0 
-5.349061758972e-05 6.886449190264e-03 0.0 
0.0 0.0 0.0 
-3.697482724692e-04 -5.159588693325e-05 0.0 
-5.159588693325e-05 6.885957346769e-03 0.0 
0.0 0.0 0.0 
-3.662578887751e-04 -4.842234408507e-05 0.0 
-4.842234408507e-05 6.885348697770e-03 0.0 
0.0 0.0 0.0 
-3.641435463696e-04 -4.444250096349e-05 0.0 
-4.444250096349e-05 6.885155755371e-03 0.0 
0.0 0.0 0.0 
-3.629878344480e-04 -3.939733749421e-05 0.0 
-3.939733749421e-05 6.885065931533e-03 0.0 
0.0 0.0 0.0 
-3.618103770474e-04 -3.388716837517e-05 0.0 
-3.388716837517e-05 6.884496894423e-03 0.0 
0.0 0.0 0.0 
-3.611896546185e-04 -2.847679334316e-05 0.0 
-2.847679334316e-05 6.883939829844e-03 0.0 
0.0 0.0 0.0 
-3.610315016895e-04 -2.328050444894e-05 0.0 
-2.328050444894e-05 6.883742822119e-03 0.0 
0.0 0.0 0.0 
-3.615532476276e-04 -1.844586746107e-05 0.0 
-1.844586746107e-05 6.883971561523e-03 0.0 
0.0 0.0 0.0 
-3.623883403130e-04 -1.459005588238e-05 0.0 
-1.459005588238e-05 6.884329243884e-03 0.0 
0.0 0.0 0.0 
-3.630583146554e-04 -1.215812189422e-05 0.0 
-1.215812189422e-05 6.883719258758e-03 0.0 
0.0 0.0 0.0 
-3.621318440588e-04 1.076938258551e-05 0.0 
1.076938258551e-05 6.881768273728e-03 0.0 
0.0 0.0 0.0 
-3.660673611781e-04 5.321791180960e-06 0.0 
5.321791180960e-06 7.313460609077e-03 0.0 
0.0 0.0 0.0 
-3.666894685968e-04 -1.010199197491e-05 0.0 
-1.010199197491e-05 7.314168351030e-03 0.0 
0.0 0.0 0.0 
-3.682163167733e-04 -1.582112317947e-05 0.0 
-1.582112317947e-05 7.315162716755e-03 0.0 
0.0 0.0 0.0 
-3.706732866601e-04 -1.992800608669e-05 0.0 
-1.992800608669e-05 7.316679201230e-03 0.0 
0.0 0.0 0.0 
-3.734801468480e-04 -2.395088217099e-05 0.0 
-2.395088217099e-05 7.318114835207e-03 0.0 
0.0 0.0 0.0 
-3.781286969750e-04 -2.836881574546e-05 0.0 
-2.836881574546e-05 7.320465594798e-03 0.0 
0.0 0.0 0.0 
-3.837067716852e-04 -3.251620463624e-05 0.0 
-3.251620463624e-05 7.323189118175e-03 0.0 
0.0 0.0 0.0 
-3.908539678197e-04 -3.721476900940e-05 0.0 
-3.721476900940e-05 7.325766397976e-03 0.0 
0.0 0.0 0.0 
-3.984969618909e-04 -3.984197863044e-05 0.0 
-3.984197863044e-05 7.327376067740e-03 0.0 
0.0 0.0 0.0 
-4.090516511964e-04 -4.077370297862e-05 0.0 
-4.077370297862e-05 7.330689775374e-03 0.0 
0.0 0.0 0.0 
-4.215241940591e-04 -4.060296157663e-05 0.0 
-4.060296157663e-05 7.333952207564e-03 0.0 
0.0 0.0 0.0 
-4.359583233715e-04 -3.736242127436e-05 0.0 
-3.736242127436e-05 7.336326900443e-03 0.0 
0.0 0.0 0.0 
-4.538151757085e-04 -3.005354967999e-05 0.0 
-3.005354967999e-05 7.338558036387e-03 0.0 
0.0 0.0 0.0 
-4.741963174193e-04 -1.654569830202e-05 0.0 
-1.654569830202e-05 7.337216038163e-03 0.0 
0.0 0.0 0.0 
-4.965731616194e-04 8.934979717317e-06 0.0 
8.934979717317e-06 7.338510731467e-03 0.0 
0.0 0.0 0.0 
-5.304675188654e-04 4.543999956469e-05 0.0 
4.543999956469e-05 7.356204160991e-03 0.0 
0.0 0.0 0.0 
-5.423779053465e-04 7.949968187604e-05 0.0 
7.949968187604e-05 7.272681044326e-03 0.0 
0.0 0.0 0.0 
-5.634723733332e-04 7.795461426364e-05 0.0 
7.795461426364e-05 7.713588608254e-03 0.0 
0.0 0.0 0.0 
-5.530863516990e-04 5.136641825872e-05 0.0 
5.136641825872e-05 7.795754356624e-03 0.0 
0.0 0.0 0.0 
-5.226656684330e-04 2.307703308887e-05 0.0 
2.307703308887e-05 7.781116132908e-03 0.0 
0.0 0.0 0.0 
-4.952636453229e-04 5.729056568816e-06 0.0 
5.729056568816e-06 7.778646855439e-03 0.0 
0.0 0.0 0.0 
-4.730772164421e-04 -6.665582885167e-06 0.0 
-6.665582885167e-06 7.776768997648e-03 0.0 
0.0 0.0 0.0 
-4.533500181004e-04 -1.306716393656e-05 0.0 
-1.306716393656e-05 7.773530945803e-03 0.0 
0.0 0.0 0.0 
-4.360431800145e-04 -1.667787966767e-05 0.0 
-1.667787966767e-05 7.768055138363e-03 0.0 
0.0 0.0 0.0 
-4.212263966493e-04 -1.972074568294e-05 0.0 
-1.972074568294e-05 7.764092969632e-03 0.0 
0.0 0.0 0.0 
-4.068956617739e-04 -1.837439989169e-05 0.0 
-1.837439989169e-05 7.760808150711e-03 0.0 
0.0 0.0 0.0 
-3.970370020904e-04 -1.810177589004e-05 0.0 
-1.810177589004e-05 7.755965832497e-03 0.0 
0.0 0.0 0.0 
-3.877911434711e-04 -1.575933284973e-05 0.0 
-1.575933284973e-05 7.752181729060e-03 0.0 
0.0 0.0 0.0 
-3.807113046453e-04 -1.510574143921e-05 0.0 
-1.510574143921e-05 7.748618389234e-03 0.0 
0.0 0.0 0.0 
-3.759015712229e-04 -1.210519873360e-05 0.0 
-1.210519873360e-05 7.746911243546e-03 0.0 
0.0 0.0 0.0 
-3.709423982197e-04 -1.047058403651e-05 0.0 
-1.047058403651e-05 7.743155813078e-03 0.0 
0.0 0.0 0.0 
-3.684805737903e-04 -1.131150143462e-05 0.0 
-1.131150143462e-05 7.744202771769e-03 0.0 
0.0 0.0 0.0 
-3.698558584605e-04 1.421222619272e-05 0.0 
1.421222619272e-05 7.745875075701e-03 0.0 
0.0 0.0 0.0 
-6.508853678367e-04 6.938075904137e-04 0.0 
6.938075904137e-04 7.201617595135e-04 0.0 
0.0 0.0 0.0 
-6.988633670815e-04 1.025999412201e-03 0.0 
1.025999412201e-03 1.865588458313e-03 0.0 
0.0 0.0 0.0 
-6.464600364101e-04 1.091362064244e-03 0.0 
1.091362064244e-03 3.190100131425e-03 0.0 
0.0 0.0 0.0 
-6.100316760450e-04 1.001841038844e-03 0.0 
1.001841038844e-03 4.586642631053e-03 0.0 
0.0 0.0 0.0 
-4.668085430275e-04 4.570921232189e-04 0.0 
4.570921232189e-04 5.728400035285e-03 0.0 
0.0 0.0 0.0 
-4.730638104056e-04 3.215470110185e-04 0.0 
3.215470110185e-04 6.206725286712e-03 0.0 
0.0 0.0 0.0 
-5.464351832234e-04 2.406490511834e-04 0.0 
2.406490511834e-04 6.668884683940e-03 0.0 
0.0 0.0 0.0 
-5.886763296020e-04 1.827729140932e-04 0.0 
1.827729140932e-04 7.124013963641e-03 0.0 
0.0 0.0 0.0 
-6.110883286803e-04 1.484377525694e-04 0.0 
1.484377525694e-04 7.571732243610e-03 0.0 
0.0 0.0 0.0 
-6.097360955388e-04 1.355577920851e-04 0.0 
1.355577920851e-04 8.013807963509e-03 0.0 
0.0 0.0 0.0 
-4.829311729135e-04 9.691385591075e-04 0.0 
9.691385591075e-04 2.236699874213e-03 0.0 
0.0 0.0 0.0 
1.132885348483e-04 1.105066801659e-03 0.0 
1.105066801659e-03 8.899363423151e-03 0.0 
0.0 0.0 0.0 
-2.716818464109e-04 -7.592004556959e-05 0.0 
-7.592004556959e-05 3.685461303650e-04 0.0 
0.0 0.0 0.0 
-5.337084316906e-04 -7.372883404530e-05 0.0 
-7.372883404530e-05 4.713429595634e-04 0.0 
0.0 0.0 0.0 
1.267929956356e-04 7.449910793767e-04 0.0 
7.449910793767e-04 8.397723441000e-03 0.0 
0.0 0.0 0.0 
-5.335718769498e-04 1.041817539291e-03 0.0 
1.041817539291e-03 4.938398280612e-03 0.0 
0.0 0.0 0.0 
4.977550457049e-04 9.634610632540e-07 0.0 
9.634610632540e-07 4.058402825145e-03 0.0 
0.0 0.0 0.0 
5.999375811053e-05 1.319824179518e-03 0.0 
1.319824179518e-03 9.497656341033e-03 0.0 
0.0 0.0 0.0 
-6.348040268634e-04 4.909140030117e-04 0.0 
4.909140030117e-04 6.480600352838e-03 0.0 
0.0 0.0 0.0 
-2.524862824834e-05 1.362526046515e-03 0.0 
1.362526046515e-03 1.023965652676e-02 0.0 
0.0 0.0 0.0 
-6.724194679530e-04 2.666209389413e-04 0.0 
2.666209389413e-04 7.451078023579e-03 0.0 
0.0 0.0 0.0 
1.144370737594e-04 4.554665448573e-04 0.0 
4.554665448573e-04 8.210624039743e-03 0.0 
0.0 0.0 0.0 
-9.578110933052e-05 -4.434129474280e-05 0.0 
-4.434129474280e-05 2.806834773431e-04 0.0 
0.0 0.0 0.0 
-9.670543461876e-05 1.199452998787e-03 0.0 
1.199452998787e-03 1.091659636233e-02 0.0 
0.0 0.0 0.0 
-6.507957544349e-04 1.975969945116e-04 0.0 
1.975969945116e-04 8.360361277418e-03 0.0 
0.0 0.0 0.0 
3.496049233321e-04 -1.417054921869e-05 0.0 
-1.417054921869e-05 2.436951411427e-03 0.0 
0.0 0.0 0.0 
4.928096071948e-04 2.221248061225e-05 0.0 
2.221248061225e-05 5.246013090835e-03 0.0 
0.0 0.0 0.0 
-1.306301810248e-04 9.856027408915e-04 0.0 
9.856027408915e-04 1.128071388239e-02 0.0 
0.0 0.0 0.0 
-1.156645778577e-04 6.870969710009e-04 0.0 
6.870969710009e-04 1.161589850528e-02 0.0 
0.0 0.0 0.0 
-6.908844887504e-05 1.908712252320e-04 0.0 
1.908712252320e-04 1.183677422427e-02 0.0 
0.0 0.0 0.0 
-9.121475239964e-05 3.276522456675e-04 0.0 
3.276522456675e-04 1.177395540985e-02 0.0 
0.0 0.0 0.0 
-1.000550806748e-04 4.878863324915e-04 0.0 
4.878863324915e-04 1.174715784319e-02 0.0 
0.0 0.0 0.0 
-5.754412246192e-04 1.220567184141e-04 0.0 
1.220567184141e-04 8.578535482546e-03 0.0 
0.0 0.0 0.0 
-4.661182405897e-04 4.330887282017e-05 0.0 
4.330887282017e-05 8.581123264887e-03 0.0 
0.0 0.0 0.0 
-4.089237148428e-04 1.938491675823e-05 0.0 
1.938491675823e-05 8.594646564425e-03 0.0 
0.0 0.0 0.0 
-2.871054708870e-04 8.826237176635e-06 0.0 
8.826237176635e-06 1.004033059725e-02 0.0 
0.0 0.0 0.0 
1.044296329388e-04 2.625845048455e-04 0.0 
2.625845048455e-04 8.098271437131e-03 0.0 
0.0 0.0 0.0 
-5.700601693187e-04 8.710903030447e-05 0.0 
8.710903030447e-05 5.407654962992e-04 0.0 
0.0 0.0 0.0 
-1.290759066500e-05 -2.495918896043e-05 0.0 
-2.495918896043e-05 2.637576579938e-04 0.0 
0.0 0.0 0.0 
3.453075162722e-04 3.769040477361e-05 0.0 
3.769040477361e-05 6.712501121941e-03 0.0 
0.0 0.0 0.0 
-3.748992223056e-04 9.472814268124e-06 0.0 
9.472814268124e-06 8.531900280292e-03 0.0 
0.0 0.0 0.0 
1.558925415553e-04 -1.940619789776e-05 0.0 
-1.940619789776e-05 1.246172396402e-03 0.0 
0.0 0.0 0.0 
-1.454589776463e-04 8.204034155891e-04 0.0 
8.204034155891e-04 1.142752805034e-02 0.0 
0.0 0.0 0.0 
1.762348097093e-05 1.374100435007e-03 0.0 
1.374100435007e-03 9.899695585759e-03 0.0 
0.0 0.0 0.0 
-6.627578022903e-05 1.302450429002e-03 0.0 
1.302450429002e-03 1.059957783614e-02 0.0 
0.0 0.0 0.0 
9.658953138672e-05 1.235760416553e-03 0.0 
1.235760416553e-03 9.171932110233e-03 0.0 
0.0 0.0 0.0 
1.143465191289e-04 9.648059610559e-04 0.0 
9.648059610559e-04 8.679569968590e-03 0.0 
0.0 0.0 0.0 
-4.280579391613e-04 -8.477176110205e-05 0.0 
-8.477176110205e-05 4.466969835416e-04 0.0 
0.0 0.0 0.0 
-5.154557309232e-04 7.143057187344e-05 0.0 
7.143057187344e-05 8.571389026548e-03 0.0 
0.0 0.0 0.0 
1.380307630051e-04 5.849317765019e-04 0.0 
5.849317765019e-04 8.188896066899e-03 0.0 
0.0 0.0 0.0 
-2.110783180649e-04 1.686673010508e-05 0.0 
1.686673010508e-05 1.081717915287e-02 0.0 
0.0 0.0 0.0 
-1.736074025032e-04 -6.986193701168e-05 0.0 
-6.986193701168e-05 3.342814304690e-04 0.0 
0.0 0.0 0.0 
4.438510349020e-04 -9.212916267382e-06 0.0 
-9.212916267382e-06 3.211494743149e-03 0.0 
0.0 0.0 0.0 
-5.515105092087e-05 1.181349214649e-04 0.0 
1.181349214649e-04 1.190054600392e-02 0.0 
0.0 0.0 0.0 
-6.015139212798e-04 7.768350708857e-04 0.0 
7.768350708857e-04 5.919050774291e-03 0.0 
0.0 0.0 0.0 
-4.656439314761e-04 1.092141925209e-03 0.0 
1.092141925209e-03 3.548561008645e-03 0.0 
0.0 0.0 0.0 
-6.627751694000e-04 3.577995284183e-04 0.0 
3.577995284183e-04 6.982238870736e-03 0.0 
0.0 0.0 0.0 
-6.695535081735e-04 2.174912190203e-04 0.0 
2.174912190203e-04 7.905994914369e-03 0.0 
0.0 0.0 0.0 
-5.184588595608e-04 6.753177399777e-04 0.0 
6.753177399777e-04 1.054771448858e-03 0.0 
0.0 0.0 0.0 
-3.363149366767e-04 6.090651598198e-06 0.0 
6.090651598198e-06 9.267030542520e-03 0.0 
0.0 0.0 0.0 
8.030024246262e-05 1.441971660558e-04 0.0 
1.441971660558e-04 8.152264930319e-03 0.0 
0.0 0.0 0.0 
1.643406503760e-05 -3.737520333313e-06 0.0 
-3.737520333313e-06 2.334026085721e-04 0.0 
0.0 0.0 0.0 
-9.984832538407e-05 3.000481653681e-05 0.0 
3.000481653681e-05 1.156598253768e-02 0.0 
0.0 0.0 0.0 
-6.391965633665e-04 1.952003472560e-04 0.0 
1.952003472560e-04 8.565481804839e-03 0.0 
0.0 0.0 0.0 
-6.598970124613e-04 2.649504302185e-04 0.0 
2.649504302185e-04 8.707503040438e-03 0.0 
0.0 0.0 0.0 
-6.306416567194e-04 2.508177387417e-04 0.0 
2.508177387417e-04 8.917628961502e-03 0.0 
0.0 0.0 0.0 
-6.531065403333e-04 3.363028295884e-04 0.0 
3.363028295884e-04 9.067864656390e-03 0.0 
0.0 0.0 0.0 
-6.243284059407e-04 3.265212819948e-04 0.0 
3.265212819948e-04 9.299511215323e-03 0.0 
0.0 0.0 0.0 
-6.306277248705e-04 4.080691623749e-04 0.0 
4.080691623749e-04 9.421514332215e-03 0.0 
0.0 0.0 0.0 
-6.601970028844e-04 4.266330253616e-04 0.0 
4.266330253616e-04 9.183604533673e-03 0.0 
0.0 0.0 0.0 
-6.255502882380e-04 4.983518971687e-04 0.0 
4.983518971687e-04 9.526702394525e-03 0.0 
0.0 0.0 0.0 
-6.531171733812e-04 5.234674632510e-04 0.0 
5.234674632510e-04 9.275539500706e-03 0.0 
0.0 0.0 0.0 
-5.941441652471e-04 3.958156782170e-04 0.0 
3.958156782170e-04 9.656613388357e-03 0.0 
0.0 0.0 0.0 
-6.080891104762e-04 5.922378968972e-04 0.0 
5.922378968972e-04 9.611312968170e-03 0.0 
0.0 0.0 0.0 
-6.315881754205e-04 6.231246640730e-04 0.0 
6.231246640730e-04 9.345518695890e-03 0.0 
0.0 0.0 0.0 
-5.772618917217e-04 6.880095733234e-04 0.0 
6.880095733234e-04 9.674865383160e-03 0.0 
0.0 0.0 0.0 
-5.950792505987e-04 7.228257444241e-04 0.0 
7.228257444241e-04 9.393571109569e-03 0.0 
0.0 0.0 0.0 
-6.457321425969e-04 6.629211520300e-04 0.0 
6.629211520300e-04 9.068913238019e-03 0.0 
0.0 0.0 0.0 
-6.008349718268e-04 7.661750156851e-04 0.0 
7.661750156851e-04 9.098427292301e-03 0.0 
0.0 0.0 0.0 
-6.489984071766e-04 7.123892166287e-04 0.0 
7.123892166287e-04 8.778335829721e-03 0.0 
0.0 0.0 0.0 
-5.933184358566e-04 8.184645946623e-04 0.0 
8.184645946623e-04 8.786356115900e-03 0.0 
0.0 0.0 0.0 
-5.403322162721e-04 8.624002597901e-04 0.0 
8.624002597901e-04 9.106770778369e-03 0.0 
0.0 0.0 0.0 
-5.206910499897e-04 9.133373024495e-04 0.0 
9.133373024495e-04 8.772105404542e-03 0.0 
0.0 0.0 0.0 
-5.701469535297e-04 8.796200135541e-04 0.0 
8.796200135541e-04 8.453308879311e-03 0.0 
0.0 0.0 0.0 
-4.833359689202e-04 9.713739822893e-04 0.0 
9.713739822893e-04 8.414518131214e-03 0.0 
0.0 0.0 0.0 
-5.294647574559e-04 9.494137427619e-04 0.0 
9.494137427619e-04 8.096512261938e-03 0.0 
0.0 0.0 0.0 
-4.271832384231e-04 1.033400465585e-03 0.0 
1.033400465585e-03 8.031672705461e-03 0.0 
0.0 0.0 0.0 
-4.691961898879e-04 1.024670970466e-03 0.0 
1.024670970466e-03 7.710046815937e-03 0.0 
0.0 0.0 0.0 
-3.506813635250e-04 1.095712572044e-03 0.0 
1.095712572044e-03 7.619632651710e-03 0.0 
0.0 0.0 0.0 
-3.156211573629e-04 1.093500696523e-03 0.0 
1.093500696523e-03 7.957472086517e-03 0.0 
0.0 0.0 0.0 
-2.269982874704e-04 1.139238825406e-03 0.0 
1.139238825406e-03 7.525725307440e-03 0.0 
0.0 0.0 0.0 
-2.525742531446e-04 1.153016601619e-03 0.0 
1.153016601619e-03 7.176418614569e-03 0.0 
0.0 0.0 0.0 
-1.201942221962e-04 1.174359079446e-03 0.0 
1.174359079446e-03 7.067475041792e-03 0.0 
0.0 0.0 0.0 
-1.347923527850e-04 1.196411360430e-03 0.0 
1.196411360430e-03 6.701859815257e-03 0.0 
0.0 0.0 0.0 
1.387883005244e-06 1.191665591078e-03 0.0 
1.191665591078e-03 6.583818143435e-03 0.0 
0.0 0.0 0.0 
4.600260752829e-06 1.171198606041e-03 0.0 
1.171198606041e-03 6.971900478882e-03 0.0 
0.0 0.0 0.0 
1.241484938181e-04 1.163962280527e-03 0.0 
1.163962280527e-03 6.489161957057e-03 0.0 
0.0 0.0 0.0 
1.317391674717e-04 1.183097605504e-03 0.0 
1.183097605504e-03 6.078494520361e-03 0.0 
0.0 0.0 0.0 
2.469073845743e-04 1.132144426072e-03 0.0 
1.132144426072e-03 5.995672210646e-03 0.0 
0.0 0.0 0.0 
2.622384939768e-04 1.144208645359e-03 0.0 
1.144208645359e-03 5.563194518252e-03 0.0 
0.0 0.0 0.0 
3.657558853308e-04 1.074530030390e-03 0.0 
1.074530030390e-03 5.500411351254e-03 0.0 
0.0 0.0 0.0 
3.853408991599e-04 1.075248497957e-03 0.0 
1.075248497957e-03 5.047952926069e-03 0.0 
0.0 0.0 0.0 
4.732660389389e-04 9.895453957225e-04 0.0 
9.895453957225e-04 5.008879589984e-03 0.0 
0.0 0.0 0.0 
4.493107559369e-04 9.988572892500e-04 0.0 
9.988572892500e-04 5.467882752996e-03 0.0 
0.0 0.0 0.0 
5.417510309293e-04 9.041092613065e-04 0.0 
9.041092613065e-04 5.000195110083e-03 0.0 
0.0 0.0 0.0 
5.614427342534e-04 8.804470167142e-04 0.0 
8.804470167142e-04 4.531668187956e-03 0.0 
0.0 0.0 0.0 
6.145232249682e-04 7.907258654084e-04 0.0 
7.907258654084e-04 4.549672531000e-03 0.0 
0.0 0.0 0.0 
5.938297237153e-04 8.231496531292e-04 0.0 
8.231496531292e-04 5.019473443425e-03 0.0 
0.0 0.0 0.0 
6.527225835274e-04 7.094824197818e-04 0.0 
7.094824197818e-04 4.593565082138e-03 0.0 
0.0 0.0 0.0 
6.307701673117e-04 7.492883318416e-04 0.0 
7.492883318416e-04 5.063066079485e-03 0.0 
0.0 0.0 0.0 
6.779337196059e-04 6.376849862847e-04 0.0 
6.376849862847e-04 4.659535601462e-03 0.0 
0.0 0.0 0.0 
6.890880392925e-04 5.877863021685e-04 0.0 
5.877863021685e-04 4.195242119431e-03 0.0 
0.0 0.0 0.0 
7.045581923750e-04 5.214381384714e-04 0.0 
5.214381384714e-04 4.281737765344e-03 0.0 
0.0 0.0 0.0 
6.920849262978e-04 5.750218505848e-04 0.0 
5.750218505848e-04 4.743381105018e-03 0.0 
0.0 0.0 0.0 
7.109254204975e-04 4.644878144849e-04 0.0 
4.644878144849e-04 4.382411473230e-03 0.0 
0.0 0.0 0.0 
7.101373109070e-04 4.045748625890e-04 0.0 
4.045748625890e-04 3.930334627753e-03 0.0 
0.0 0.0 0.0 
7.114527828146e-04 3.568532011257e-04 0.0 
3.568532011257e-04 4.047432148244e-03 0.0 
0.0 0.0 0.0 
7.097851912384e-04 4.175200382636e-04 0.0 
4.175200382636e-04 4.497480298741e-03 0.0 
0.0 0.0 0.0 
7.066671404163e-04 3.177230726205e-04 0.0 
3.177230726205e-04 4.175776021795e-03 0.0 
0.0 0.0 0.0 
6.948436014218e-04 2.543870550178e-04 0.0 
2.543870550178e-04 3.736785774806e-03 0.0 
0.0 0.0 0.0 
6.888347827207e-04 2.245895491269e-04 0.0 
2.245895491269e-04 3.876060489705e-03 0.0 
0.0 0.0 0.0 
6.970186839957e-04 2.866671834035e-04 0.0 
2.866671834035e-04 4.315941639782e-03 0.0 
0.0 0.0 0.0 
6.790023284266e-04 2.010089730736e-04 0.0 
2.010089730736e-04 4.022756177684e-03 0.0 
0.0 0.0 0.0 
6.581848481905e-04 1.399909203188e-04 0.0 
1.399909203188e-04 3.594790257385e-03 0.0 
0.0 0.0 0.0 
6.499764841241e-04 1.251102655781e-04 0.0 
1.251102655781e-04 3.747225071830e-03 0.0 
0.0 0.0 0.0 
6.662095642428e-04 1.837642254835e-04 0.0 
1.837642254835e-04 4.177828281384e-03 0.0 
0.0 0.0 0.0 
6.394034913219e-04 1.146774299853e-04 0.0 
1.146774299853e-04 3.905365356134e-03 0.0 
0.0 0.0 0.0 
6.505041006674e-04 1.707847604790e-04 0.0 
1.707847604790e-04 4.338691566141e-03 0.0 
0.0 0.0 0.0 
6.115907700113e-04 5.897537584923e-05 0.0 
5.897537584923e-05 3.483168025153e-03 0.0 
0.0 0.0 0.0 
6.048784187329e-04 5.542105820467e-05 0.0 
5.542105820467e-05 3.645120204494e-03 0.0 
0.0 0.0 0.0 
5.660554446556e-04 4.553188266696e-06 0.0 
4.553188266696e-06 3.230322884103e-03 0.0 
0.0 0.0 0.0 
5.643402885040e-04 7.344046768988e-06 0.0 
7.344046768988e-06 3.396397725937e-03 0.0 
0.0 0.0 0.0 
1.167367148924e-04 1.149595168708e-03 0.0 
1.149595168708e-03 6.896401318777e-03 0.0 
0.0 0.0 0.0 
5.164028810285e-04 -3.725939168883e-05 0.0 
-3.725939168883e-05 2.989356162148e-03 0.0 
0.0 0.0 0.0 
5.108485039415e-04 -4.300280141582e-05 0.0 
-4.300280141582e-05 2.829461862256e-03 0.0 
0.0 0.0 0.0 
5.201055294927e-04 -2.940151386781e-05 0.0 
-2.940151386781e-05 3.157486123654e-03 0.0 
0.0 0.0 0.0 
5.607803057600e-04 1.225015094428e-05 0.0 
1.225015094428e-05 3.568352080594e-03 0.0 
0.0 0.0 0.0 
4.646640110269e-04 -6.743995289956e-05 0.0 
-6.743995289956e-05 2.756397224101e-03 0.0 
0.0 0.0 0.0 
4.738965811946e-04 -5.536570797182e-05 0.0 
-5.536570797182e-05 2.925856763943e-03 0.0 
0.0 0.0 0.0 
4.119124497156e-04 -8.578793585473e-05 0.0 
-8.578793585473e-05 2.530780906689e-03 0.0 
0.0 0.0 0.0 
2.772907978978e-04 1.156532054743e-03 0.0 
1.156532054743e-03 5.114645566267e-03 0.0 
0.0 0.0 0.0 
-4.668807948196e-04 9.477141520395e-04 0.0 
9.477141520395e-04 9.097705250437e-03 0.0 
0.0 0.0 0.0 
4.267538387418e-04 -7.060855540234e-05 0.0 
-7.060855540234e-05 2.700406215201e-03 0.0 
0.0 0.0 0.0 
3.603043739742e-04 -9.419265434968e-05 0.0 
-9.419265434968e-05 2.310129793444e-03 0.0 
0.0 0.0 0.0 
3.377717877281e-04 -1.098988515211e-04 0.0 
-1.098988515211e-04 2.143175490642e-03 0.0 
0.0 0.0 0.0 
2.848271758858e-04 -1.106526783003e-04 0.0 
-1.106526783003e-04 1.925991806856e-03 0.0 
0.0 0.0 0.0 
-5.881066651797e-04 3.182827616692e-04 0.0 
3.182827616692e-04 9.524830476259e-03 0.0 
0.0 0.0 0.0 
-5.516396109517e-04 3.872140310972e-04 0.0 
3.872140310972e-04 9.888916508989e-03 0.0 
0.0 0.0 0.0 
-5.484685546354e-04 3.101716115994e-04 0.0 
3.101716115994e-04 9.741223890493e-03 0.0 
0.0 0.0 0.0 
-5.068075535927e-04 3.784721768626e-04 0.0 
3.784721768626e-04 1.011635871602e-02 0.0 
0.0 0.0 0.0 
-5.058770118191e-04 3.065671231433e-04 0.0 
3.065671231433e-04 9.970336053008e-03 0.0 
0.0 0.0 0.0 
3.118009040926e-04 -9.411998280453e-05 0.0 
-9.411998280453e-05 2.091502156005e-03 0.0 
0.0 0.0 0.0 
-5.479530345252e-04 6.612642529275e-04 0.0 
6.612642529275e-04 9.946479027375e-03 0.0 
0.0 0.0 0.0 
-5.002595453571e-04 4.557227792797e-04 0.0 
4.557227792797e-04 1.024737994921e-02 0.0 
0.0 0.0 0.0 
-6.153593146172e-04 8.427262712544e-04 0.0 
8.427262712544e-04 8.143529401938e-03 0.0 
0.0 0.0 0.0 
-2.784992327083e-04 1.170874986001e-03 0.0 
1.170874986001e-03 6.834712680124e-03 0.0 
0.0 0.0 0.0 
5.646874620474e-04 8.515890253510e-04 0.0 
8.515890253510e-04 5.488630562258e-03 0.0 
0.0 0.0 0.0 
4.811850234765e-04 -4.292207749263e-05 0.0 
-4.292207749263e-05 3.097845175992e-03 0.0 
0.0 0.0 0.0 
4.393889782529e-04 -5.490639240810e-05 0.0 
-5.490639240810e-05 2.872397178532e-03 0.0 
0.0 0.0 0.0 
4.860043173410e-04 -3.105100825393e-05 0.0 
-3.105100825393e-05 3.272824585472e-03 0.0 
0.0 0.0 0.0 
6.659233820657e-04 2.424183152295e-04 0.0 
2.424183152295e-04 4.620612162273e-03 0.0 
0.0 0.0 0.0 
6.450950761584e-04 2.266919318114e-04 0.0 
2.266919318114e-04 4.782487953404e-03 0.0 
0.0 0.0 0.0 
6.492909403338e-04 3.004569294037e-04 0.0 
3.004569294037e-04 5.073293085835e-03 0.0 
0.0 0.0 0.0 
6.233845475511e-04 2.817163991135e-04 0.0 
2.817163991135e-04 5.235621873617e-03 0.0 
0.0 0.0 0.0 
6.165066372153e-04 3.571236426601e-04 0.0 
3.571236426601e-04 5.534694844632e-03 0.0 
0.0 0.0 0.0 
5.856493228750e-04 3.354481035405e-04 0.0 
3.354481035405e-04 5.697905035674e-03 0.0 
0.0 0.0 0.0 
5.946801990648e-04 2.644208979077e-04 0.0 
2.644208979077e-04 5.403879351589e-03 0.0 
0.0 0.0 0.0 
5.516289289631e-04 3.142432052865e-04 0.0 
3.142432052865e-04 5.867569252287e-03 0.0 
0.0 0.0 0.0 
5.636729135675e-04 2.476527845558e-04 0.0 
2.476527845558e-04 5.577460451541e-03 0.0 
0.0 0.0 0.0 
5.680528995095e-04 4.123111143282e-04 0.0 
4.123111143282e-04 6.004407832044e-03 0.0 
0.0 0.0 0.0 
6.001048333596e-04 4.378863522344e-04 0.0 
4.378863522344e-04 5.846967624028e-03 0.0 
0.0 0.0 0.0 
5.153171198888e-04 2.929939199701e-04 0.0 
2.929939199701e-04 6.042719573897e-03 0.0 
0.0 0.0 0.0 
5.308468252579e-04 2.306798364956e-04 0.0 
2.306798364956e-04 5.756100974750e-03 0.0 
0.0 0.0 0.0 
4.773345408694e-04 2.713011389189e-04 0.0 
2.713011389189e-04 6.223652178045e-03 0.0 
0.0 0.0 0.0 
4.967448376156e-04 2.121587679889e-04 0.0 
2.121587679889e-04 5.939353899300e-03 0.0 
0.0 0.0 0.0 
5.396631439263e-04 1.750428532038e-04 0.0 
1.750428532038e-04 5.478476201829e-03 0.0 
0.0 0.0 0.0 
5.102117056622e-04 1.600341328282e-04 0.0 
1.600341328282e-04 5.662836620657e-03 0.0 
0.0 0.0 0.0 
5.425503321833e-04 1.267165632285e-04 0.0 
1.267165632285e-04 5.211100267620e-03 0.0 
0.0 0.0 0.0 
5.994937436960e-04 7.856718112596e-04 0.0 
7.856718112596e-04 5.532830410851e-03 0.0 
0.0 0.0 0.0 
5.289859787845e-04 8.791530259871e-04 0.0 
8.791530259871e-04 5.956845847231e-03 0.0 
0.0 0.0 0.0 
5.606010807366e-04 8.211721737049e-04 0.0 
8.211721737049e-04 6.001861553368e-03 0.0 
0.0 0.0 0.0 
4.875185198409e-04 9.076895016519e-04 0.0 
9.076895016519e-04 6.422997949836e-03 0.0 
0.0 0.0 0.0 
5.142936368635e-04 8.576784601263e-04 0.0 
8.576784601263e-04 6.470779882145e-03 0.0 
0.0 0.0 0.0 
4.400567046617e-04 9.394169884159e-04 0.0 
9.394169884159e-04 6.888077483081e-03 0.0 
0.0 0.0 0.0 
4.599879607032e-04 8.973307078119e-04 0.0 
8.973307078119e-04 6.939361681159e-03 0.0 
0.0 0.0 0.0 
5.271778415676e-04 8.116350224378e-04 0.0 
8.116350224378e-04 6.537581689422e-03 0.0 
0.0 0.0 0.0 
-5.339217933510e-04 7.830281922946e-04 0.0 
7.830281922946e-04 9.716469525644e-03 0.0 
0.0 0.0 0.0 
6.246377980512e-04 7.518695566655e-04 0.0 
7.518695566655e-04 4.079127052108e-03 0.0 
0.0 0.0 0.0 
5.711102688873e-04 8.490587203636e-04 0.0 
8.490587203636e-04 4.060003152837e-03 0.0 
0.0 0.0 0.0 
6.196802020079e-04 7.041523691034e-04 0.0 
7.041523691034e-04 3.608861001829e-03 0.0 
0.0 0.0 0.0 
5.650716409672e-04 8.069385186253e-04 0.0 
8.069385186253e-04 3.587943180706e-03 0.0 
0.0 0.0 0.0 
5.932003381819e-04 6.457258166845e-04 0.0 
6.457258166845e-04 3.141895825865e-03 0.0 
0.0 0.0 0.0 
5.347686629054e-04 7.522704735213e-04 0.0 
7.522704735213e-04 3.120480621844e-03 0.0 
0.0 0.0 0.0 
5.355455912375e-04 5.768689093222e-04 0.0 
5.768689093222e-04 2.682662197274e-03 0.0 
0.0 0.0 0.0 
5.842478951865e-04 4.801199772006e-04 0.0 
4.801199772006e-04 2.738509999966e-03 0.0 
0.0 0.0 0.0 
4.967446007608e-04 4.035743708882e-04 0.0 
4.035743708882e-04 2.292551314747e-03 0.0 
0.0 0.0 0.0 
5.409706714999e-04 3.194259705737e-04 0.0 
3.194259705737e-04 2.379809363986e-03 0.0 
0.0 0.0 0.0 
4.238876141731e-04 2.405202517023e-04 0.0 
2.405202517023e-04 1.951157420015e-03 0.0 
0.0 0.0 0.0 
4.678513108157e-04 1.731321558120e-04 0.0 
1.731321558120e-04 2.063159787332e-03 0.0 
0.0 0.0 0.0 
-2.016352395849e-04 1.131733220076e-03 0.0 
1.131733220076e-03 7.881429504143e-03 0.0 
0.0 0.0 0.0 
4.055652562182e-04 9.842641119564e-04 0.0 
9.842641119564e-04 6.854761122075e-03 0.0 
0.0 0.0 0.0 
3.598552188236e-04 1.013698411056e-03 0.0 
1.013698411056e-03 7.314440244768e-03 0.0 
0.0 0.0 0.0 
3.194612023692e-04 1.050041031970e-03 0.0 
1.050041031970e-03 7.289286197471e-03 0.0 
0.0 0.0 0.0 
2.534897248537e-04 -1.259889187255e-04 0.0 
-1.259889187255e-04 1.761729862539e-03 0.0 
0.0 0.0 0.0 
4.621115428135e-04 1.913492387213e-04 0.0 
1.913492387213e-04 6.126881777450e-03 0.0 
0.0 0.0 0.0 
5.411019210263e-04 4.934771776994e-04 0.0 
4.934771776994e-04 6.324249911799e-03 0.0 
0.0 0.0 0.0 
5.733500031485e-04 5.221027702061e-04 0.0 
5.221027702061e-04 6.171724037249e-03 0.0 
0.0 0.0 0.0 
4.657179841958e-04 8.588080226200e-04 0.0 
8.588080226200e-04 7.012054496211e-03 0.0 
0.0 0.0 0.0 
2.367991957906e-04 -1.030364627170e-04 0.0 
-1.030364627170e-04 1.713366316067e-03 0.0 
0.0 0.0 0.0 
4.685534318863e-04 6.860178777283e-04 0.0 
6.860178777283e-04 2.664508376596e-03 0.0 
0.0 0.0 0.0 
4.549133146638e-04 8.667413687351e-04 0.0 
8.667413687351e-04 3.139463285658e-03 0.0 
0.0 0.0 0.0 
-4.573271699300e-04 3.694085797028e-04 0.0 
3.694085797028e-04 1.033871609628e-02 0.0 
0.0 0.0 0.0 
-4.590098634082e-04 3.026300591180e-04 0.0 
3.026300591180e-04 1.018918992128e-02 0.0 
0.0 0.0 0.0 
5.042933698218e-04 5.783353315906e-04 0.0 
5.783353315906e-04 6.657557019713e-03 0.0 
0.0 0.0 0.0 
2.667171341626e-04 -8.614215708516e-05 0.0 
-8.614215708516e-05 1.876643636526e-03 0.0 
0.0 0.0 0.0 
4.921115947658e-04 3.619214667670e-04 0.0 
3.619214667670e-04 6.340650294948e-03 0.0 
0.0 0.0 0.0 
3.662050095662e-04 3.241090796286e-04 0.0 
3.241090796286e-04 1.864399924946e-03 0.0 
0.0 0.0 0.0 
4.806457587000e-04 1.430836818295e-04 0.0 
1.430836818295e-04 5.850856807552e-03 0.0 
0.0 0.0 0.0 
4.268784381665e-04 1.682935328746e-04 0.0 
1.682935328746e-04 6.317600435890e-03 0.0 
0.0 0.0 0.0 
5.958565443432e-04 2.006535351420e-04 0.0 
2.006535351420e-04 5.122423678621e-03 0.0 
0.0 0.0 0.0 
2.784247006789e-04 1.079436518490e-03 0.0 
1.079436518490e-03 7.743640407906e-03 0.0 
0.0 0.0 0.0 
2.335286043301e-04 1.103409366285e-03 0.0 
1.103409366285e-03 7.722239107440e-03 0.0 
0.0 0.0 0.0 
5.697431031145e-04 2.509629014480e-04 0.0 
2.509629014480e-04 2.491046828056e-03 0.0 
0.0 0.0 0.0 
4.963448902832e-04 1.212517949186e-04 0.0 
1.212517949186e-04 2.193184455544e-03 0.0 
0.0 0.0 0.0 
3.728167434641e-04 5.048209673867e-05 0.0 
5.048209673867e-05 1.795940301226e-03 0.0 
0.0 0.0 0.0 
4.050734402775e-04 1.733364788790e-05 0.0 
1.733364788790e-05 1.938267943269e-03 0.0 
0.0 0.0 0.0 
5.209897048326e-04 8.340726326054e-05 0.0 
8.340726326054e-05 2.330862798503e-03 0.0 
0.0 0.0 0.0 
4.374650833220e-04 -1.053904536462e-05 0.0 
-1.053904536462e-05 2.071069109062e-03 0.0 
0.0 0.0 0.0 
3.122272835788e-04 -6.722458706152e-05 0.0 
-6.722458706152e-05 1.686616652927e-03 0.0 
0.0 0.0 0.0 
3.456512899275e-04 -8.135733372973e-05 0.0 
-8.135733372973e-05 1.831581790288e-03 0.0 
0.0 0.0 0.0 
4.615134457593e-04 -2.821706624347e-05 0.0 
-2.821706624347e-05 2.219469687580e-03 0.0 
0.0 0.0 0.0 
3.771626953825e-04 -9.011810577911e-05 0.0 
-9.011810577911e-05 1.982989045012e-03 0.0 
0.0 0.0 0.0 
2.505652304395e-04 -1.307610267929e-04 0.0 
-1.307610267929e-04 1.605434242562e-03 0.0 
0.0 0.0 0.0 
2.913195388715e-04 -1.304136636000e-04 0.0 
-1.304136636000e-04 1.757517872858e-03 0.0 
0.0 0.0 0.0 
3.978141816529e-04 2.203494386558e-04 0.0 
2.203494386558e-04 6.600070794551e-03 0.0 
0.0 0.0 0.0 
2.636679476788e-04 1.618000359728e-04 0.0 
1.618000359728e-04 1.545240269021e-03 0.0 
0.0 0.0 0.0 
-6.855911274536e-04 5.996981785858e-04 0.0 
5.996981785858e-04 8.745060049830e-03 0.0 
0.0 0.0 0.0 
4.666288699198e-04 5.481650126354e-04 0.0 
5.481650126354e-04 6.808397984658e-03 0.0 
0.0 0.0 0.0 
3.959148309654e-04 9.429961160936e-04 0.0 
9.429961160936e-04 7.406800782520e-03 0.0 
0.0 0.0 0.0 
-4.045580224273e-04 3.603894689984e-04 0.0 
3.603894689984e-04 1.055811945063e-02 0.0 
0.0 0.0 0.0 
-4.098783594982e-04 2.976621852354e-04 0.0 
2.976621852354e-04 1.040582099473e-02 0.0 
0.0 0.0 0.0 
-4.549486690162e-04 2.438609199783e-04 0.0 
2.438609199783e-04 1.002678083407e-02 0.0 
0.0 0.0 0.0 
-4.105322969072e-04 2.416613526079e-04 0.0 
2.416613526079e-04 1.024384014868e-02 0.0 
0.0 0.0 0.0 
-3.588694672283e-04 2.903206914148e-04 0.0 
2.903206914148e-04 1.062074657405e-02 0.0 
0.0 0.0 0.0 
-3.641492236187e-04 2.369657530970e-04 0.0 
2.369657530970e-04 1.045819764335e-02 0.0 
0.0 0.0 0.0 
-4.078092795295e-04 1.919951145594e-04 0.0 
1.919951145594e-04 1.007367249838e-02 0.0 
0.0 0.0 0.0 
-3.656050985742e-04 1.895788094775e-04 0.0 
1.895788094775e-04 1.028779194787e-02 0.0 
0.0 0.0 0.0 
-4.018017300289e-04 1.487840519164e-04 0.0 
1.487840519164e-04 9.896261961450e-03 0.0 
0.0 0.0 0.0 
-3.645538731387e-04 1.485302015766e-04 0.0 
1.485302015766e-04 1.011144100743e-02 0.0 
0.0 0.0 0.0 
-3.224201356817e-04 1.844769828517e-04 0.0 
1.844769828517e-04 1.050067765749e-02 0.0 
0.0 0.0 0.0 
-3.262151225490e-04 1.447500122401e-04 0.0 
1.447500122401e-04 1.032561298529e-02 0.0 
0.0 0.0 0.0 
-3.627250351534e-04 1.136021792342e-04 0.0 
1.136021792342e-04 9.931059056713e-03 0.0 
0.0 0.0 0.0 
-3.287631941125e-04 1.103556437707e-04 0.0 
1.103556437707e-04 1.014635191614e-02 0.0 
0.0 0.0 0.0 
-3.604332260994e-04 8.376661524453e-05 0.0 
8.376661524453e-05 9.746609952430e-03 0.0 
0.0 0.0 0.0 
-3.299513516905e-04 8.085434855280e-05 0.0 
8.085434855280e-05 9.961705606386e-03 0.0 
0.0 0.0 0.0 
-2.938621333883e-04 1.050787315299e-04 0.0 
1.050787315299e-04 1.036080278422e-02 0.0 
0.0 0.0 0.0 
1.950955535670e-04 -8.875551928822e-05 0.0 
-8.875551928822e-05 1.509716868545e-03 0.0 
0.0 0.0 0.0 
5.265824072343e-04 7.706826595782e-04 0.0 
7.706826595782e-04 6.622625121919e-03 0.0 
0.0 0.0 0.0 
4.560155513476e-04 8.245219330656e-04 0.0 
8.245219330656e-04 7.107228545170e-03 0.0 
0.0 0.0 0.0 
4.489700171812e-04 -4.289158998938e-05 0.0 
-4.289158998938e-05 3.057911009505e-03 0.0 
0.0 0.0 0.0 
4.916882382264e-04 -2.173464588996e-05 0.0 
-2.173464588996e-05 3.444928205371e-03 0.0 
0.0 0.0 0.0 
5.204399388132e-04 -1.177050288714e-06 0.0 
-1.177050288714e-06 3.680952188081e-03 0.0 
0.0 0.0 0.0 
5.197093259830e-04 5.718418751385e-06 0.0 
5.718418751385e-06 3.862635139686e-03 0.0 
0.0 0.0 0.0 
-3.001146791469e-04 7.590943947024e-05 0.0 
7.590943947024e-05 1.017572502551e-02 0.0 
0.0 0.0 0.0 
-2.602319248144e-04 9.687596552200e-05 0.0 
9.687596552200e-05 1.057493396081e-02 0.0 
0.0 0.0 0.0 
3.771241083069e-04 8.050082120146e-04 0.0 
8.050082120146e-04 2.693423690894e-03 0.0 
0.0 0.0 0.0 
3.482072551241e-04 9.829000048467e-04 0.0 
9.829000048467e-04 3.210368033160e-03 0.0 
0.0 0.0 0.0 
-3.928984339144e-04 4.296176638445e-04 0.0 
4.296176638445e-04 1.069856454985e-02 0.0 
0.0 0.0 0.0 
4.499944379253e-04 1.225125342708e-04 0.0 
1.225125342708e-04 6.044788645501e-03 0.0 
0.0 0.0 0.0 
4.934015018330e-04 1.017477484513e-04 0.0 
1.017477484513e-04 5.584845523896e-03 0.0 
0.0 0.0 0.0 
-1.497385512568e-04 1.221830375099e-03 0.0 
1.221830375099e-03 6.341119371579e-03 0.0 
0.0 0.0 0.0 
-3.050594362240e-04 1.189527052423e-03 0.0 
1.189527052423e-03 6.500938886185e-03 0.0 
0.0 0.0 0.0 
-1.652346106375e-04 1.247684759342e-03 0.0 
1.247684759342e-03 5.982487133949e-03 0.0 
0.0 0.0 0.0 
-3.326484065634e-04 1.204914704419e-03 0.0 
1.204914704419e-03 6.170718144027e-03 0.0 
0.0 0.0 0.0 
-4.562295451694e-04 1.111589423788e-03 0.0 
1.111589423788e-03 6.667496835683e-03 0.0 
0.0 0.0 0.0 
-1.838217049665e-04 1.270201453030e-03 0.0 
1.270201453030e-03 5.618209018003e-03 0.0 
0.0 0.0 0.0 
6.277113223971e-04 4.650564278601e-04 0.0 
4.650564278601e-04 5.693268058732e-03 0.0 
0.0 0.0 0.0 
-2.789563567065e-04 1.758904362477e-04 0.0 
1.758904362477e-04 1.071264806831e-02 0.0 
0.0 0.0 0.0 
3.111214251130e-04 -1.236766829611e-04 0.0 
-1.236766829611e-04 1.979762874279e-03 0.0 
0.0 0.0 0.0 
2.175931156494e-04 -1.378833692166e-04 0.0 
-1.378833692166e-04 1.602213317129e-03 0.0 
0.0 0.0 0.0 
3.896586311572e-04 1.424513352488e-04 0.0 
1.424513352488e-04 6.515694285604e-03 0.0 
0.0 0.0 0.0 
5.846306995925e-04 7.211616299589e-04 0.0 
7.211616299589e-04 6.146737668690e-03 0.0 
0.0 0.0 0.0 
-2.807638307450e-04 1.096797824415e-03 0.0 
1.096797824415e-03 8.303795964664e-03 0.0 
0.0 0.0 0.0 
-1.761559440393e-04 1.132197546541e-03 0.0 
1.132197546541e-03 8.243345861955e-03 0.0 
0.0 0.0 0.0 
-2.454731432330e-04 1.107812422986e-03 0.0 
1.107812422986e-03 8.657540663224e-03 0.0 
0.0 0.0 0.0 
-1.502048282261e-04 1.142693901990e-03 0.0 
1.142693901990e-03 8.610414558180e-03 0.0 
0.0 0.0 0.0 
-2.090069709099e-04 1.128329628956e-03 0.0 
1.128329628956e-03 9.017446521147e-03 0.0 
0.0 0.0 0.0 
-1.242227454017e-04 1.164625503991e-03 0.0 
1.164625503991e-03 8.981621959839e-03 0.0 
0.0 0.0 0.0 
-6.165350522589e-05 1.164936795623e-03 0.0 
1.164936795623e-03 8.570546016559e-03 0.0 
0.0 0.0 0.0 
2.013525938632e-04 1.137347777687e-03 0.0 
1.137347777687e-03 8.169830200755e-03 0.0 
0.0 0.0 0.0 
-4.802269421724e-05 1.191355945850e-03 0.0 
1.191355945850e-03 8.956311871853e-03 0.0 
0.0 0.0 0.0 
-3.304586060317e-04 5.963901138441e-05 0.0 
5.963901138441e-05 9.768033567731e-03 0.0 
0.0 0.0 0.0 
3.573506274418e-04 1.030189986076e-03 0.0 
1.030189986076e-03 6.834190564855e-03 0.0 
0.0 0.0 0.0 
4.807070026462e-04 -3.887055459081e-05 0.0 
-3.887055459081e-05 2.374549521905e-03 0.0 
0.0 0.0 0.0 
1.598033068067e-04 -1.056689535931e-04 0.0 
-1.056689535931e-04 1.343221503128e-03 0.0 
0.0 0.0 0.0 
1.553616379033e-04 -1.536672590716e-04 0.0 
-1.536672590716e-04 1.379631741075e-03 0.0 
0.0 0.0 0.0 
2.261640272297e-04 -7.176910852370e-05 0.0 
-7.176910852370e-05 1.657471730161e-03 0.0 
0.0 0.0 0.0 
2.936268713575e-04 -6.653710266597e-05 0.0 
-6.653710266597e-05 2.042081211254e-03 0.0 
0.0 0.0 0.0 
4.200953348166e-04 6.352442985153e-04 0.0 
6.352442985153e-04 7.148035881904e-03 0.0 
0.0 0.0 0.0 
-1.717636061105e-04 1.160580671552e-03 0.0 
1.160580671552e-03 9.382399333024e-03 0.0 
0.0 0.0 0.0 
-2.505691426801e-04 1.111301235236e-03 0.0 
1.111301235236e-03 9.403403734257e-03 0.0 
0.0 0.0 0.0 
-4.878803883013e-04 1.105015678999e-03 0.0 
1.105015678999e-03 6.372617602932e-03 0.0 
0.0 0.0 0.0 
-5.865378697307e-04 9.735941030017e-04 0.0 
9.735941030017e-04 6.823378783555e-03 0.0 
0.0 0.0 0.0 
2.342055318746e-04 1.119721555730e-03 0.0 
1.119721555730e-03 8.194685634781e-03 0.0 
0.0 0.0 0.0 
-5.348826907017e-04 2.459259462713e-04 0.0 
2.459259462713e-04 9.590021958782e-03 0.0 
0.0 0.0 0.0 
-4.378347248921e-04 1.466055293718e-04 0.0 
1.466055293718e-04 9.680790892963e-03 0.0 
0.0 0.0 0.0 
-4.246423481519e-04 1.090415818632e-04 0.0 
1.090415818632e-04 9.494828585555e-03 0.0 
0.0 0.0 0.0 
1.533367139044e-04 -7.532026214168e-05 0.0 
-7.532026214168e-05 1.246475441313e-03 0.0 
0.0 0.0 0.0 
1.055732615871e-04 -1.522629021474e-04 0.0 
-1.522629021474e-04 1.248305424397e-03 0.0 
0.0 0.0 0.0 
-3.070576818223e-04 2.802603699464e-04 0.0 
2.802603699464e-04 1.083373723772e-02 0.0 
0.0 0.0 0.0 
3.942428675876e-04 1.028763184605e-03 0.0 
1.028763184605e-03 3.658999497825e-03 0.0 
0.0 0.0 0.0 
2.687528487965e-04 1.133939704621e-03 0.0 
1.133939704621e-03 3.776155219568e-03 0.0 
0.0 0.0 0.0 
1.801855863841e-04 2.490774129474e-04 0.0 
2.490774129474e-04 1.458000379660e-03 0.0 
0.0 0.0 0.0 
5.046084424763e-05 9.385143898600e-05 0.0 
9.385143898600e-05 1.163074659266e-03 0.0 
0.0 0.0 0.0 
-2.686161313606e-04 7.116470269684e-05 0.0 
7.116470269684e-05 1.038554947614e-02 0.0 
0.0 0.0 0.0 
-2.248717631394e-04 8.536767216220e-05 0.0 
8.536767216220e-05 1.077885063572e-02 0.0 
0.0 0.0 0.0 
5.428842225973e-04 2.766051257335e-05 0.0 
2.766051257335e-05 4.098692381048e-03 0.0 
0.0 0.0 0.0 
5.341706972101e-04 2.901332630237e-05 0.0 
2.901332630237e-05 4.282000920964e-03 0.0 
0.0 0.0 0.0 
4.582402217989e-04 6.668561516924e-04 0.0 
6.668561516924e-04 7.006228513750e-03 0.0 
0.0 0.0 0.0 
2.069804733243e-04 -1.510318039631e-04 0.0 
-1.510318039631e-04 1.538833649075e-03 0.0 
0.0 0.0 0.0 
-2.095675354656e-04 1.150889237157e-04 0.0 
1.150889237157e-04 1.096340296978e-02 0.0 
0.0 0.0 0.0 
5.782695316094e-04 6.798785246272e-04 0.0 
6.798785246272e-04 6.247931856250e-03 0.0 
0.0 0.0 0.0 
6.302920295127e-04 6.268733334297e-04 0.0 
6.268733334297e-04 5.771846580639e-03 0.0 
0.0 0.0 0.0 
4.959927047849e-04 -5.304657230320e-06 0.0 
-5.304657230320e-06 3.622742535144e-03 0.0 
0.0 0.0 0.0 
2.498031032121e-04 9.254064635677e-04 0.0 
9.254064635677e-04 2.784975422311e-03 0.0 
0.0 0.0 0.0 
2.459724896277e-04 7.401872555032e-04 0.0 
7.401872555032e-04 2.271765915413e-03 0.0 
0.0 0.0 0.0 
5.524978692275e-04 3.260379194419e-05 0.0 
3.260379194419e-05 2.622533100098e-03 0.0 
0.0 0.0 0.0 
3.261716350797e-04 -1.266071905164e-04 0.0 
-1.266071905164e-04 1.913725312671e-03 0.0 
0.0 0.0 0.0 
2.538091542147e-04 -5.325445242993e-05 0.0 
-5.325445242993e-05 1.822549039968e-03 0.0 
0.0 0.0 0.0 
3.653276551433e-04 7.290773111196e-04 0.0 
7.290773111196e-04 7.502803432589e-03 0.0 
0.0 0.0 0.0 
-2.925845807702e-04 3.363740860003e-04 0.0 
3.363740860003e-04 1.098632001853e-02 0.0 
0.0 0.0 0.0 
1.464261924783e-05 1.175387478099e-03 0.0 
1.175387478099e-03 8.545104782144e-03 0.0 
0.0 0.0 0.0 
1.443251548679e-05 1.158854191001e-03 0.0 
1.158854191001e-03 8.143931470001e-03 0.0 
0.0 0.0 0.0 
1.802129164058e-05 1.208160370687e-03 0.0 
1.208160370687e-03 8.944240271200e-03 0.0 
0.0 0.0 0.0 
7.078287067012e-05 -1.588593194809e-04 0.0 
-1.588593194809e-04 1.177859248228e-03 0.0 
0.0 0.0 0.0 
3.737853529836e-04 6.021078932520e-04 0.0 
6.021078932520e-04 7.307599408225e-03 0.0 
0.0 0.0 0.0 
4.167331767998e-04 9.808678476559e-05 0.0 
9.808678476559e-05 6.244902115402e-03 0.0 
0.0 0.0 0.0 
-2.039591025906e-04 1.152976222347e-03 0.0 
1.152976222347e-03 9.749351280712e-03 0.0 
0.0 0.0 0.0 
-2.732604480688e-04 1.094429892290e-03 0.0 
1.094429892290e-03 9.767130421211e-03 0.0 
0.0 0.0 0.0 
2.900152601041e-04 1.158015001842e-03 0.0 
1.158015001842e-03 4.216074780053e-03 0.0 
0.0 0.0 0.0 
1.419488050138e-04 1.238627050646e-03 0.0 
1.238627050646e-03 4.385338584220e-03 0.0 
0.0 0.0 0.0 
1.125205574465e-04 1.216651925296e-03 0.0 
1.216651925296e-03 3.969998763827e-03 0.0 
0.0 0.0 0.0 
-2.528560706429e-05 1.293621797918e-03 0.0 
1.293621797918e-03 4.617995729511e-03 0.0 
0.0 0.0 0.0 
-6.845837934748e-04 4.518706300071e-04 0.0 
4.518706300071e-04 8.938075380224e-03 0.0 
0.0 0.0 0.0 
1.491177208106e-04 1.240400867825e-03 0.0 
1.240400867825e-03 4.806750337673e-03 0.0 
0.0 0.0 0.0 
-6.876705376029e-04 6.531470049588e-04 0.0 
6.531470049588e-04 8.462603395441e-03 0.0 
0.0 0.0 0.0 
-7.120172236715e-04 5.309365013527e-04 0.0 
5.309365013527e-04 8.421753459187e-03 0.0 
0.0 0.0 0.0 
-7.141513301580e-04 5.867426470613e-04 0.0 
5.867426470613e-04 8.149578494164e-03 0.0 
0.0 0.0 0.0 
-5.510711867354e-04 1.000053099727e-03 0.0 
1.000053099727e-03 7.104013313528e-03 0.0 
0.0 0.0 0.0 
-6.492988267610e-04 8.491243467751e-04 0.0 
8.491243467751e-04 7.206379962895e-03 0.0 
0.0 0.0 0.0 
4.997978316753e-04 9.525420242289e-04 0.0 
9.525420242289e-04 4.070581633409e-03 0.0 
0.0 0.0 0.0 
4.831036026342e-04 9.417178573127e-04 0.0 
9.417178573127e-04 5.930653843881e-03 0.0 
0.0 0.0 0.0 
5.491872657248e-04 2.374685014201e-05 0.0 
2.374685014201e-05 3.920050797191e-03 0.0 
0.0 0.0 0.0 
5.667164150305e-04 1.363179029744e-04 0.0 
1.363179029744e-04 5.029887565830e-03 0.0 
0.0 0.0 0.0 
6.715461953628e-04 3.220398379066e-04 0.0 
3.220398379066e-04 4.916719432971e-03 0.0 
0.0 0.0 0.0 
-2.686137475838e-04 2.192790281688e-04 0.0 
2.192790281688e-04 1.087990585290e-02 0.0 
0.0 0.0 0.0 
-2.214175905006e-04 2.052150900805e-04 0.0 
2.052150900805e-04 1.109233827766e-02 0.0 
0.0 0.0 0.0 
-3.886696446302e-04 8.324372493560e-05 0.0 
8.324372493560e-05 9.528335840130e-03 0.0 
0.0 0.0 0.0 
-3.798143942272e-04 5.694477526194e-05 0.0 
5.694477526194e-05 9.336842432735e-03 0.0 
0.0 0.0 0.0 
1.617369687230e-04 -1.302388605901e-04 0.0 
-1.302388605901e-04 1.384673207837e-03 0.0 
0.0 0.0 0.0 
1.128628780829e-04 -1.372499016400e-04 0.0 
-1.372499016400e-04 1.230568229155e-03 0.0 
0.0 0.0 0.0 
6.322672284286e-04 1.607625161232e-04 0.0 
1.607625161232e-04 4.505503290073e-03 0.0 
0.0 0.0 0.0 
4.223207679968e-04 5.178897774803e-04 0.0 
5.178897774803e-04 6.966209275871e-03 0.0 
0.0 0.0 0.0 
-3.344771922359e-04 4.147964168117e-04 0.0 
4.147964168117e-04 1.091426546705e-02 0.0 
0.0 0.0 0.0 
-3.128506703856e-04 4.864808679532e-04 0.0 
4.864808679532e-04 1.104634752642e-02 0.0 
0.0 0.0 0.0 
-3.741245429777e-04 5.045459684038e-04 0.0 
5.045459684038e-04 1.082504459111e-02 0.0 
0.0 0.0 0.0 
4.054099888742e-04 7.596734835171e-04 0.0 
7.596734835171e-04 7.362725026759e-03 0.0 
0.0 0.0 0.0 
6.589492672584e-04 6.119454193247e-04 0.0 
6.119454193247e-04 3.659317034643e-03 0.0 
0.0 0.0 0.0 
6.212819360101e-04 7.261720389103e-04 0.0 
7.261720389103e-04 5.595860791785e-03 0.0 
0.0 0.0 0.0 
1.323933618390e-04 3.131284671740e-05 0.0 
3.131284671740e-05 1.278764543257e-03 0.0 
0.0 0.0 0.0 
8.005721275961e-06 1.157641835776e-03 0.0 
1.157641835776e-03 7.360258095490e-03 0.0 
0.0 0.0 0.0 
6.508743921652e-05 -1.211375437950e-04 0.0 
-1.211375437950e-04 1.016087140536e-03 0.0 
0.0 0.0 0.0 
-4.810946301452e-04 9.070236020287e-04 0.0 
9.070236020287e-04 9.430158629183e-03 0.0 
0.0 0.0 0.0 
3.517702634696e-04 1.128003491778e-04 0.0 
1.128003491778e-04 6.719884266644e-03 0.0 
0.0 0.0 0.0 
3.155782912792e-04 1.609233136365e-04 0.0 
1.609233136365e-04 6.993823198775e-03 0.0 
0.0 0.0 0.0 
1.639873670523e-04 1.180046707405e-03 0.0 
1.180046707405e-03 8.604666148323e-03 0.0 
0.0 0.0 0.0 
-6.792956734616e-04 2.815005722251e-04 0.0 
2.815005722251e-04 8.486116701675e-03 0.0 
0.0 0.0 0.0 
1.091102198438e-04 1.142737868214e-03 0.0 
1.142737868214e-03 7.303371639229e-03 0.0 
0.0 0.0 0.0 
2.132129999305e-04 1.114842606075e-03 0.0 
1.114842606075e-03 6.846115836231e-03 0.0 
0.0 0.0 0.0 
-7.218799915851e-04 4.556678981039e-04 0.0 
4.556678981039e-04 8.097073098963e-03 0.0 
0.0 0.0 0.0 
-7.233875650024e-04 5.105498799594e-04 0.0 
5.105498799594e-04 7.838404952473e-03 0.0 
0.0 0.0 0.0 
-7.057026809631e-04 6.559902849500e-04 0.0 
6.559902849500e-04 7.862237474573e-03 0.0 
0.0 0.0 0.0 
-7.175760082687e-04 5.829909817307e-04 0.0 
5.829909817307e-04 7.559883221182e-03 0.0 
0.0 0.0 0.0 
5.609992420499e-04 1.840094261842e-05 0.0 
1.840094261842e-05 2.773996310213e-03 0.0 
0.0 0.0 0.0 
4.951849708380e-04 -4.409895902576e-05 0.0 
-4.409895902576e-05 2.528426102840e-03 0.0 
0.0 0.0 0.0 
-1.307801207281e-04 1.215107968922e-03 0.0 
1.215107968922e-03 9.777570196664e-03 0.0 
0.0 0.0 0.0 
-3.360397724868e-05 1.239368384904e-03 0.0 
1.239368384904e-03 9.337035442328e-03 0.0 
0.0 0.0 0.0 
-2.099893921460e-04 1.148292267140e-03 0.0 
1.148292267140e-03 1.010382457512e-02 0.0 
0.0 0.0 0.0 
-2.741273612886e-04 1.080471170839e-03 0.0 
1.080471170839e-03 1.012100212141e-02 0.0 
0.0 0.0 0.0 
1.872569333864e-04 1.170929091250e-03 0.0 
1.170929091250e-03 8.638421146561e-03 0.0 
0.0 0.0 0.0 
2.545345429619e-04 1.099759255837e-03 0.0 
1.099759255837e-03 8.230355718496e-03 0.0 
0.0 0.0 0.0 
3.145406126355e-04 -4.866925304734e-05 0.0 
-4.866925304734e-05 2.198331223415e-03 0.0 
0.0 0.0 0.0 
-6.726459742287e-04 7.852256944906e-04 0.0 
7.852256944906e-04 6.932909316335e-03 0.0 
0.0 0.0 0.0 
-2.350574949534e-04 3.202605007662e-04 0.0 
3.202605007662e-04 1.119834220764e-02 0.0 
0.0 0.0 0.0 
-7.131999106889e-04 4.119468165360e-04 0.0 
4.119468165360e-04 8.347730391897e-03 0.0 
0.0 0.0 0.0 
3.204278620416e-04 5.644852372812e-04 0.0 
5.644852372812e-04 7.457330276899e-03 0.0 
0.0 0.0 0.0 
3.750190537625e-04 4.862954278925e-04 0.0 
4.862954278925e-04 7.137773501264e-03 0.0 
0.0 0.0 0.0 
-1.089914411046e-04 -1.207376900952e-05 0.0 
-1.207376900952e-05 9.217365308567e-04 0.0 
0.0 0.0 0.0 
-1.690787167999e-05 -7.239583982994e-05 0.0 
-7.239583982994e-05 1.035630227064e-03 0.0 
0.0 0.0 0.0 
-1.730633330762e-04 9.784722428703e-05 0.0 
9.784722428703e-05 1.117108172365e-02 0.0 
0.0 0.0 0.0 
-7.979846626203e-05 1.252536070456e-03 0.0 
1.252536070456e-03 4.234900761748e-03 0.0 
0.0 0.0 0.0 
-2.250482282834e-04 1.279094501165e-03 0.0 
1.279094501165e-03 4.902860413774e-03 0.0 
0.0 0.0 0.0 
2.471038452393e-05 1.159075661049e-03 0.0 
1.159075661049e-03 3.571155373206e-03 0.0 
0.0 0.0 0.0 
1.652480655751e-04 4.656406876517e-05 0.0 
4.656406876517e-05 7.708752842916e-03 0.0 
0.0 0.0 0.0 
-3.620736000219e-04 1.931972832226e-06 0.0 
1.931972832226e-06 8.514358829681e-03 0.0 
0.0 0.0 0.0 
2.736005866865e-04 1.258545023267e-04 0.0 
1.258545023267e-04 7.203899880264e-03 0.0 
0.0 0.0 0.0 
-6.150529264932e-04 8.922218125455e-04 0.0 
8.922218125455e-04 7.492646476069e-03 0.0 
0.0 0.0 0.0 
-1.505756918960e-04 1.330539147433e-04 0.0 
1.330539147433e-04 1.135249261463e-02 0.0 
0.0 0.0 0.0 
1.949118152176e-04 1.116278860904e-03 0.0 
1.116278860904e-03 7.273005552037e-03 0.0 
0.0 0.0 0.0 
-2.892683343506e-06 1.246582085806e-03 0.0 
1.246582085806e-03 5.804140212946e-03 0.0 
0.0 0.0 0.0 
4.882309978384e-04 6.988308469580e-04 0.0 
6.988308469580e-04 6.870237427888e-03 0.0 
0.0 0.0 0.0 
-1.956086220469e-04 6.117386663880e-05 0.0 
6.117386663880e-05 1.096481802730e-02 0.0 
0.0 0.0 0.0 
-1.385542700131e-04 7.841343139320e-05 0.0 
7.841343139320e-05 1.138757996422e-02 0.0 
0.0 0.0 0.0 
-4.520643191098e-04 1.048068342167e-04 0.0 
1.048068342167e-04 9.276305302617e-03 0.0 
0.0 0.0 0.0 
-4.388620684478e-04 6.789294708861e-05 0.0 
6.789294708861e-05 9.073897170053e-03 0.0 
0.0 0.0 0.0 
-4.715751641943e-04 1.421241133565e-04 0.0 
1.421241133565e-04 9.452014533736e-03 0.0 
0.0 0.0 0.0 
2.898638701209e-04 4.221131411008e-04 0.0 
4.221131411008e-04 1.812181028648e-03 0.0 
0.0 0.0 0.0 
5.933420694050e-05 3.631889185229e-04 0.0 
3.631889185229e-04 1.384050065222e-03 0.0 
0.0 0.0 0.0 
-2.362913390529e-04 1.640411798651e-04 0.0 
1.640411798651e-04 1.092291052005e-02 0.0 
0.0 0.0 0.0 
3.975813757614e-04 -6.002971383807e-05 0.0 
-6.002971383807e-05 2.652686294294e-03 0.0 
0.0 0.0 0.0 
4.145864051251e-04 -3.789442486827e-05 0.0 
-3.789442486827e-05 2.866852437066e-03 0.0 
0.0 0.0 0.0 
2.486716197609e-04 -1.456218260522e-04 0.0 
-1.456218260522e-04 1.685572298979e-03 0.0 
0.0 0.0 0.0 
3.530751014221e-04 -1.208270754870e-04 0.0 
-1.208270754870e-04 2.060762429117e-03 0.0 
0.0 0.0 0.0 
5.623735671291e-04 5.812721677713e-05 0.0 
5.812721677713e-05 4.342858572054e-03 0.0 
0.0 0.0 0.0 
5.746411527678e-04 5.750076969280e-05 0.0 
5.750076969280e-05 4.164872392519e-03 0.0 
0.0 0.0 0.0 
-4.087162968833e-04 9.854664348659e-04 0.0 
9.854664348659e-04 9.429651462978e-03 0.0 
0.0 0.0 0.0 
-4.160186918195e-04 9.543071030827e-04 0.0 
9.543071030827e-04 9.761448710257e-03 0.0 
0.0 0.0 0.0 
-3.419381760268e-04 1.058726959997e-03 0.0 
1.058726959997e-03 8.702735322046e-03 0.0 
0.0 0.0 0.0 
6.193262653341e-04 5.862796415338e-04 0.0 
5.862796415338e-04 5.887482773505e-03 0.0 
0.0 0.0 0.0 
6.629698492925e-04 5.311723743292e-04 0.0 
5.311723743292e-04 5.415530307784e-03 0.0 
0.0 0.0 0.0 
6.696484397191e-04 5.743331798591e-04 0.0 
5.743331798591e-04 5.303886884649e-03 0.0 
0.0 0.0 0.0 
-2.045199328614e-04 2.500035342489e-04 0.0 
2.500035342489e-04 1.124342226477e-02 0.0 
0.0 0.0 0.0 
-1.481174189599e-04 2.342007878242e-04 0.0 
2.342007878242e-04 1.149330907758e-02 0.0 
0.0 0.0 0.0 
6.187337510406e-04 9.674722436708e-05 0.0 
9.674722436708e-05 3.033084919150e-03 0.0 
0.0 0.0 0.0 
6.144743057076e-04 1.213682170007e-04 0.0 
1.213682170007e-04 2.888220153298e-03 0.0 
0.0 0.0 0.0 
5.654952602890e-04 9.509725002160e-06 0.0 
9.509725002160e-06 2.923137851759e-03 0.0 
0.0 0.0 0.0 
-2.131830146212e-04 3.794274687957e-04 0.0 
3.794274687957e-04 1.134388545006e-02 0.0 
0.0 0.0 0.0 
2.304868847192e-04 1.813378420762e-04 0.0 
1.813378420762e-04 7.478527660060e-03 0.0 
0.0 0.0 0.0 
2.666818483686e-04 2.107028229991e-04 0.0 
2.107028229991e-04 7.273951535634e-03 0.0 
0.0 0.0 0.0 
2.233311851489e-06 -1.271036885539e-04 0.0 
-1.271036885539e-04 8.719719890568e-04 0.0 
0.0 0.0 0.0 
5.587261235620e-05 -1.450033343265e-04 0.0 
-1.450033343265e-04 1.078230825877e-03 0.0 
0.0 0.0 0.0 
7.981930222697e-05 8.632856881249e-04 0.0 
8.632856881249e-04 2.382475283403e-03 0.0 
0.0 0.0 0.0 
5.929220981056e-05 6.774867286486e-04 0.0 
6.774867286486e-04 1.864845045512e-03 0.0 
0.0 0.0 0.0 
-2.826391767223e-04 5.622948438215e-04 0.0 
5.622948438215e-04 1.115508376262e-02 0.0 
0.0 0.0 0.0 
-3.481677589466e-04 5.863941676529e-04 0.0 
5.863941676529e-04 1.094021792484e-02 0.0 
0.0 0.0 0.0 
-2.109481597846e-04 5.426711824909e-04 0.0 
5.426711824909e-04 1.140290752652e-02 0.0 
0.0 0.0 0.0 
2.720415455033e-04 -3.306359386781e-05 0.0 
-3.306359386781e-05 1.953138729265e-03 0.0 
0.0 0.0 0.0 
9.195596009555e-05 1.156128762221e-03 0.0 
1.156128762221e-03 8.130503968276e-03 0.0 
0.0 0.0 0.0 
3.038456613947e-04 8.250070343241e-04 0.0 
8.250070343241e-04 7.851877673116e-03 0.0 
0.0 0.0 0.0 
3.478530910537e-04 8.600629449632e-04 0.0 
8.600629449632e-04 7.723664222489e-03 0.0 
0.0 0.0 0.0 
2.443091285760e-04 7.991683986912e-04 0.0 
7.991683986912e-04 8.062942689912e-03 0.0 
0.0 0.0 0.0 
1.294680045653e-04 1.184681106655e-03 0.0 
1.184681106655e-03 8.576207936627e-03 0.0 
0.0 0.0 0.0 
9.891393515164e-05 1.227928419532e-03 0.0 
1.227928419532e-03 8.987414985667e-03 0.0 
0.0 0.0 0.0 
1.398579234642e-05 1.256296179580e-03 0.0 
1.256296179580e-03 9.345007555901e-03 0.0 
0.0 0.0 0.0 
-2.105013211106e-04 3.531748140066e-05 0.0 
3.531748140066e-05 8.019768103686e-04 0.0 
0.0 0.0 0.0 
-1.510307367803e-04 4.598405367170e-05 0.0 
4.598405367170e-05 1.125525425950e-02 0.0 
0.0 0.0 0.0 
-4.033685400793e-04 5.072909328936e-05 0.0 
5.072909328936e-05 9.096813874524e-03 0.0 
0.0 0.0 0.0 
-3.691309163374e-04 -3.304217895869e-05 0.0 
-3.304217895869e-05 6.575545067814e-04 0.0 
0.0 0.0 0.0 
-3.899790368580e-04 3.237623642935e-05 0.0 
3.237623642935e-05 8.904234785556e-03 0.0 
0.0 0.0 0.0 
-3.742995514814e-04 3.728411051030e-05 0.0 
3.728411051030e-05 9.140700028885e-03 0.0 
0.0 0.0 0.0 
-3.838888445839e-04 1.716002547108e-05 0.0 
1.716002547108e-05 8.685853647305e-03 0.0 
0.0 0.0 0.0 
2.105663635833e-04 -3.587221344715e-05 0.0 
-3.587221344715e-05 1.576680323114e-03 0.0 
0.0 0.0 0.0 
-4.810785817820e-04 8.815828268521e-05 0.0 
8.815828268521e-05 8.983712751479e-03 0.0 
0.0 0.0 0.0 
-5.044246584651e-04 1.359343495522e-04 0.0 
1.359343495522e-04 9.229401386299e-03 0.0 
0.0 0.0 0.0 
-7.883482659140e-05 -1.172039699435e-04 0.0 
-1.172039699435e-04 6.595998918044e-04 0.0 
0.0 0.0 0.0 
-1.494573288297e-04 3.555278245944e-04 0.0 
3.555278245944e-04 1.154841445737e-02 0.0 
0.0 0.0 0.0 
-3.397571053719e-05 -1.006921387398e-04 0.0 
-1.006921387398e-04 6.751970828189e-04 0.0 
0.0 0.0 0.0 
2.375882228946e-05 -9.749911990744e-05 0.0 
-9.749911990744e-05 8.116999759821e-04 0.0 
0.0 0.0 0.0 
2.810387037554e-04 5.352565242079e-04 0.0 
5.352565242079e-04 7.632967226100e-03 0.0 
0.0 0.0 0.0 
3.287323536901e-04 4.506127007047e-04 0.0 
4.506127007047e-04 7.309017772271e-03 0.0 
0.0 0.0 0.0 
2.230814749611e-04 4.901280338392e-04 0.0 
4.901280338392e-04 7.796438551005e-03 0.0 
0.0 0.0 0.0 
2.719688944102e-04 4.192423358303e-04 0.0 
4.192423358303e-04 7.474791866285e-03 0.0 
0.0 0.0 0.0 
3.713454248916e-04 3.773626979085e-04 0.0 
3.773626979085e-04 6.995050317197e-03 0.0 
0.0 0.0 0.0 
3.231704562170e-04 3.496518856923e-04 0.0 
3.496518856923e-04 7.189303221636e-03 0.0 
0.0 0.0 0.0 
-4.261977423839e-04 4.231372288739e-05 0.0 
4.231372288739e-05 8.865478374624e-03 0.0 
0.0 0.0 0.0 
2.101729594654e-04 3.951049546018e-04 0.0 
3.951049546018e-04 7.743133351652e-03 0.0 
0.0 0.0 0.0 
2.691503225733e-04 3.128827591879e-04 0.0 
3.128827591879e-04 7.394930064320e-03 0.0 
0.0 0.0 0.0 
1.588569663538e-04 3.485607114162e-04 0.0 
3.485607114162e-04 7.951172311444e-03 0.0 
0.0 0.0 0.0 
-7.122757538264e-04 4.185197844157e-04 0.0 
4.185197844157e-04 7.527901074533e-03 0.0 
0.0 0.0 0.0 
-1.990641523876e-04 1.296185574108e-03 0.0 
1.296185574108e-03 5.250110288120e-03 0.0 
0.0 0.0 0.0 
-3.962431137603e-04 1.199295302147e-03 0.0 
1.199295302147e-03 5.555294018279e-03 0.0 
0.0 0.0 0.0 
-4.366266353197e-04 1.120509004755e-03 0.0 
1.120509004755e-03 5.298149075779e-03 0.0 
0.0 0.0 0.0 
-1.825472560024e-04 1.152233010082e-03 0.0 
1.152233010082e-03 1.050369746042e-02 0.0 
0.0 0.0 0.0 
-2.634432606122e-04 1.062694275575e-03 0.0 
1.062694275575e-03 1.042779827384e-02 0.0 
0.0 0.0 0.0 
3.831192369796e-04 7.069271143219e-05 0.0 
7.069271143219e-05 6.462725919285e-03 0.0 
0.0 0.0 0.0 
4.383701186941e-04 6.010832676743e-05 0.0 
6.010832676743e-05 5.989898661313e-03 0.0 
0.0 0.0 0.0 
-3.724262010846e-04 2.228943371777e-05 0.0 
2.228943371777e-05 8.920811137170e-03 0.0 
0.0 0.0 0.0 
-3.618953858547e-04 1.325473295579e-05 0.0 
1.325473295579e-05 8.894804232624e-03 0.0 
0.0 0.0 0.0 
-3.521111715381e-04 3.251739913417e-05 0.0 
3.251739913417e-05 9.272641826327e-03 0.0 
0.0 0.0 0.0 
-3.459847485589e-04 1.784594778420e-05 0.0 
1.784594778420e-05 9.220010004299e-03 0.0 
0.0 0.0 0.0 
-3.307768310432e-04 3.627194740878e-05 0.0 
3.627194740878e-05 9.595335613366e-03 0.0 
0.0 0.0 0.0 
-3.250293247053e-04 1.776632475812e-05 0.0 
1.776632475812e-05 9.535056318891e-03 0.0 
0.0 0.0 0.0 
-3.034001231722e-04 2.897063032932e-05 0.0 
2.897063032932e-05 9.913498942599e-03 0.0 
0.0 0.0 0.0 
-2.514344930726e-05 1.299509154684e-03 0.0 
1.299509154684e-03 9.762649520875e-03 0.0 
0.0 0.0 0.0 
-1.949327061567e-04 1.180222933117e-03 0.0 
1.180222933117e-03 3.857906714459e-03 0.0 
0.0 0.0 0.0 
-7.053275070806e-04 3.301758230100e-04 0.0 
3.301758230100e-04 8.012819757131e-03 0.0 
0.0 0.0 0.0 
1.893928578952e-04 1.155604160121e-03 0.0 
1.155604160121e-03 8.679152896778e-03 0.0 
0.0 0.0 0.0 
2.568422275986e-04 1.073265649298e-03 0.0 
1.073265649298e-03 8.255300237476e-03 0.0 
0.0 0.0 0.0 
-7.023250485480e-04 6.735135737427e-04 0.0 
6.735135737427e-04 7.258335358629e-03 0.0 
0.0 0.0 0.0 
-6.957759361795e-04 5.721301095232e-04 0.0 
5.721301095232e-04 6.980324266731e-03 0.0 
0.0 0.0 0.0 
2.492292319319e-04 6.617388745886e-04 0.0 
6.617388745886e-04 7.873279916309e-03 0.0 
0.0 0.0 0.0 
2.893987101944e-04 1.164427425759e-03 0.0 
1.164427425759e-03 4.660420396832e-03 0.0 
0.0 0.0 0.0 
-1.079496382442e-04 4.220089161729e-04 0.0 
4.220089161729e-04 1.172795502378e-02 0.0 
0.0 0.0 0.0 
-5.198734275602e-04 2.588583282058e-04 0.0 
2.588583282058e-04 5.705470161709e-04 0.0 
0.0 0.0 0.0 
-2.453712569309e-04 2.600513464408e-04 0.0 
2.600513464408e-04 8.939034281624e-04 0.0 
0.0 0.0 0.0 
1.474511013756e-04 1.227161967175e-03 0.0 
1.227161967175e-03 5.228356278380e-03 0.0 
0.0 0.0 0.0 
-6.860057518557e-04 7.429631174144e-04 0.0 
7.429631174144e-04 7.549211857487e-03 0.0 
0.0 0.0 0.0 
-3.585536513263e-04 1.215405799748e-03 0.0 
1.215405799748e-03 5.844401871649e-03 0.0 
0.0 0.0 0.0 
-5.185560588160e-04 1.079382490247e-03 0.0 
1.079382490247e-03 6.100266688107e-03 0.0 
0.0 0.0 0.0 
5.624288772271e-04 6.430903799481e-04 0.0 
6.430903799481e-04 6.372494081052e-03 0.0 
0.0 0.0 0.0 
1.045279703904e-07 -1.494623077834e-04 0.0 
-1.494623077834e-04 9.440184033374e-04 0.0 
0.0 0.0 0.0 
7.330954009077e-05 1.027900857987e-03 0.0 
1.027900857987e-03 2.952244013956e-03 0.0 
0.0 0.0 0.0 
-3.082083611874e-04 5.510736409680e-05 0.0 
5.510736409680e-05 9.961242050969e-03 0.0 
0.0 0.0 0.0 
-1.431343481243e-04 9.745408072769e-04 0.0 
9.745408072769e-04 2.577834375965e-03 0.0 
0.0 0.0 0.0 
4.091392531145e-04 3.317557479253e-05 0.0 
3.317557479253e-05 6.232144284141e-03 0.0 
0.0 0.0 0.0 
4.010053826151e-04 1.072175546180e-03 0.0 
1.072175546180e-03 4.582763118608e-03 0.0 
0.0 0.0 0.0 
-5.111977169462e-04 1.014844828155e-03 0.0 
1.014844828155e-03 7.400337571067e-03 0.0 
0.0 0.0 0.0 
2.075717156165e-04 1.089725547941e-03 0.0 
1.089725547941e-03 3.353254320745e-03 0.0 
0.0 0.0 0.0 
-1.706825790411e-05 1.289480472189e-03 0.0 
1.289480472189e-03 5.018029103650e-03 0.0 
0.0 0.0 0.0 
-6.736754328485e-04 5.567727604919e-04 0.0 
5.567727604919e-04 9.015377607285e-03 0.0 
0.0 0.0 0.0 
-6.794960982524e-04 3.536043692255e-04 0.0 
3.536043692255e-04 8.836383886317e-03 0.0 
0.0 0.0 0.0 
-6.987931289890e-04 3.789564962903e-04 0.0 
3.789564962903e-04 8.595885048524e-03 0.0 
0.0 0.0 0.0 
4.908291445174e-04 9.751849862887e-04 0.0 
9.751849862887e-04 4.542436649532e-03 0.0 
0.0 0.0 0.0 
-6.169283629482e-04 9.227827043049e-04 0.0 
9.227827043049e-04 6.567728905953e-03 0.0 
0.0 0.0 0.0 
-6.245307949696e-04 8.002496830548e-04 0.0 
8.002496830548e-04 6.297808240426e-03 0.0 
0.0 0.0 0.0 
-6.394842106264e-04 7.720908888749e-04 0.0 
7.720908888749e-04 8.471095851477e-03 0.0 
0.0 0.0 0.0 
-4.320263246518e-04 5.216700189674e-04 0.0 
5.216700189674e-04 1.059802069377e-02 0.0 
0.0 0.0 0.0 
-4.069905944450e-04 6.049591658085e-04 0.0 
6.049591658085e-04 1.070510282448e-02 0.0 
0.0 0.0 0.0 
-3.146165068767e-04 6.670142149191e-04 0.0 
6.670142149191e-04 1.102532882527e-02 0.0 
0.0 0.0 0.0 
-3.751465661399e-04 6.900432775848e-04 0.0 
6.900432775848e-04 1.079480999314e-02 0.0 
0.0 0.0 0.0 
-4.614182545488e-04 6.229581259330e-04 0.0 
6.229581259330e-04 1.046416740835e-02 0.0 
0.0 0.0 0.0 
-4.279657440487e-04 7.101171210695e-04 0.0 
7.101171210695e-04 1.054724138014e-02 0.0 
0.0 0.0 0.0 
-3.286180397472e-04 7.774962675094e-04 0.0 
7.774962675094e-04 1.087288550399e-02 0.0 
0.0 0.0 0.0 
-3.814637081725e-04 8.030035316931e-04 0.0 
8.030035316931e-04 1.062167162083e-02 0.0 
0.0 0.0 0.0 
-2.608611257933e-04 8.797077464092e-04 0.0 
8.797077464092e-04 1.099918696474e-02 0.0 
0.0 0.0 0.0 
-3.300360087035e-04 8.930658180851e-04 0.0 
8.930658180851e-04 1.066648029796e-02 0.0 
0.0 0.0 0.0 
-4.250786700077e-04 8.249337718339e-04 0.0 
8.249337718339e-04 1.033599626279e-02 0.0 
0.0 0.0 0.0 
-3.756884599524e-04 9.097713738954e-04 0.0 
9.097713738954e-04 1.037033196003e-02 0.0 
0.0 0.0 0.0 
-2.874384746160e-04 9.778755204530e-04 0.0 
9.778755204530e-04 1.066776161648e-02 0.0 
0.0 0.0 0.0 
-4.606789565861e-04 8.465153221182e-04 0.0 
8.465153221182e-04 1.004300399464e-02 0.0 
0.0 0.0 0.0 
1.192140774630e-04 1.232247800250e-03 0.0 
1.232247800250e-03 9.076362784111e-03 0.0 
0.0 0.0 0.0 
1.398484128961e-04 1.204842384423e-03 0.0 
1.204842384423e-03 5.658066657508e-03 0.0 
0.0 0.0 0.0 
-6.301647443095e-05 1.711594467411e-04 0.0 
1.711594467411e-04 1.059972170662e-03 0.0 
0.0 0.0 0.0 
-1.256537927277e-04 4.490719713573e-04 0.0 
4.490719713573e-04 1.224010149410e-03 0.0 
0.0 0.0 0.0 
-5.735589649566e-04 9.244453496145e-04 0.0 
9.244453496145e-04 7.789044175613e-03 0.0 
0.0 0.0 0.0 
-1.332136323760e-04 9.123118771059e-04 0.0 
9.123118771059e-04 1.137012559584e-02 0.0 
0.0 0.0 0.0 
-1.300397173347e-04 7.498258753468e-04 0.0 
7.498258753468e-04 1.155026502469e-02 0.0 
0.0 0.0 0.0 
4.914417851461e-04 9.169909243081e-04 0.0 
9.169909243081e-04 3.601031791400e-03 0.0 
0.0 0.0 0.0 
-8.686387907223e-05 1.253772504747e-03 0.0 
1.253772504747e-03 1.076046791919e-02 0.0 
0.0 0.0 0.0 
-7.020404549466e-04 4.860042150582e-04 0.0 
4.860042150582e-04 8.683703316684e-03 0.0 
0.0 0.0 0.0 
4.367344586673e-04 5.010444837025e-04 0.0 
5.010444837025e-04 2.239792227394e-03 0.0 
0.0 0.0 0.0 
-4.867641044165e-05 1.336402859252e-03 0.0 
1.336402859252e-03 1.042502021713e-02 0.0 
0.0 0.0 0.0 
-4.854860004331e-04 5.377828733798e-04 0.0 
5.377828733798e-04 1.036395104060e-02 0.0 
0.0 0.0 0.0 
-5.334542412307e-04 5.519870251921e-04 0.0 
5.519870251921e-04 1.011954435217e-02 0.0 
0.0 0.0 0.0 
-5.473947514228e-04 4.675727059750e-04 0.0 
4.675727059750e-04 1.001212521180e-02 0.0 
0.0 0.0 0.0 
-1.109576570040e-04 6.154805020529e-04 0.0 
6.154805020529e-04 1.167504661274e-02 0.0 
0.0 0.0 0.0 
-4.872890915715e-04 1.892512519729e-04 0.0 
1.892512519729e-04 9.634759756005e-03 0.0 
0.0 0.0 0.0 
3.032740931145e-05 1.355298947661e-03 0.0 
1.355298947661e-03 9.728032066637e-03 0.0 
0.0 0.0 0.0 
4.465128190382e-04 9.611621907040e-04 0.0 
9.611621907040e-04 6.393638231536e-03 0.0 
0.0 0.0 0.0 
3.907887257511e-04 1.016328073792e-03 0.0 
1.016328073792e-03 6.379201775805e-03 0.0 
0.0 0.0 0.0 
4.216628096399e-04 1.006913762996e-03 0.0 
1.006913762996e-03 5.924040070650e-03 0.0 
0.0 0.0 0.0 
-4.724493650274e-04 7.308945017536e-04 0.0 
7.308945017536e-04 1.028134651913e-02 0.0 
0.0 0.0 0.0 
1.032599368037e-04 1.173264057666e-03 0.0 
1.173264057666e-03 9.032777084740e-03 0.0 
0.0 0.0 0.0 
2.003827325670e-04 1.072789774900e-03 0.0 
1.072789774900e-03 8.545826041687e-03 0.0 
0.0 0.0 0.0 
2.138087817789e-04 1.009680992957e-03 0.0 
1.009680992957e-03 8.416088316559e-03 0.0 
0.0 0.0 0.0 
2.938957221713e-04 9.801966097561e-04 0.0 
9.801966097561e-04 8.031022656155e-03 0.0 
0.0 0.0 0.0 
1.201245272359e-04 1.037783076382e-03 0.0 
1.037783076382e-03 8.775741926670e-03 0.0 
0.0 0.0 0.0 
-1.141780528556e-04 1.064862978564e-03 0.0 
1.064862978564e-03 1.119235022094e-02 0.0 
0.0 0.0 0.0 
-1.022838521156e-04 1.137029379043e-03 0.0 
1.137029379043e-03 1.107633861389e-02 0.0 
0.0 0.0 0.0 
5.395124320070e-04 5.352487617587e-05 0.0 
5.352487617587e-05 2.473364500786e-03 0.0 
0.0 0.0 0.0 
6.057039900861e-04 1.547048048015e-04 0.0 
1.547048048015e-04 2.749248265316e-03 0.0 
0.0 0.0 0.0 
6.623867967769e-04 2.254956342814e-04 0.0 
2.254956342814e-04 3.176349828623e-03 0.0 
0.0 0.0 0.0 
6.547213881259e-04 2.713071634080e-04 0.0 
2.713071634080e-04 3.049677999925e-03 0.0 
0.0 0.0 0.0 
5.911511363513e-04 1.973935828455e-04 0.0 
1.973935828455e-04 2.615923045152e-03 0.0 
0.0 0.0 0.0 
6.401642261346e-04 3.276608588797e-04 0.0 
3.276608588797e-04 2.930668309730e-03 0.0 
0.0 0.0 0.0 
6.820817209555e-04 3.984599881798e-04 0.0 
3.984599881798e-04 3.376633185925e-03 0.0 
0.0 0.0 0.0 
6.175497171317e-04 3.964824512422e-04 0.0 
3.964824512422e-04 2.823830373693e-03 0.0 
0.0 0.0 0.0 
-3.436190265134e-04 1.004322571126e-03 0.0 
1.004322571126e-03 1.009966204321e-02 0.0 
0.0 0.0 0.0 
1.222302035140e-04 8.937714365128e-04 0.0 
8.937714365128e-04 8.581502448188e-03 0.0 
0.0 0.0 0.0 
6.438196545689e-04 3.807660688638e-04 0.0 
3.807660688638e-04 5.377518429051e-03 0.0 
0.0 0.0 0.0 
6.661056990297e-04 4.069599126190e-04 0.0 
4.069599126190e-04 5.224594768783e-03 0.0 
0.0 0.0 0.0 
6.893780912848e-04 3.477303122282e-04 0.0 
3.477303122282e-04 4.766006579337e-03 0.0 
0.0 0.0 0.0 
5.555132528711e-04 1.788909517725e-05 0.0 
1.788909517725e-05 3.743674954713e-03 0.0 
0.0 0.0 0.0 
5.861597275058e-04 5.608713830620e-05 0.0 
5.608713830620e-05 3.988699733016e-03 0.0 
0.0 0.0 0.0 
5.959657883776e-04 1.005876752693e-04 0.0 
1.005876752693e-04 4.417077221176e-03 0.0 
0.0 0.0 0.0 
5.213861980371e-04 -1.085633285717e-05 0.0 
-1.085633285717e-05 3.505638024212e-03 0.0 
0.0 0.0 0.0 
-7.597997871619e-05 1.151555722218e-03 0.0 
1.151555722218e-03 8.187410106768e-03 0.0 
0.0 0.0 0.0 
1.224336142582e-04 8.171442987795e-04 0.0 
8.171442987795e-04 8.489955102748e-03 0.0 
0.0 0.0 0.0 
6.313130653759e-04 6.733266917207e-04 0.0 
6.733266917207e-04 5.675608814186e-03 0.0 
0.0 0.0 0.0 
5.963700681007e-04 5.502649814168e-05 0.0 
5.502649814168e-05 3.814481347745e-03 0.0 
0.0 0.0 0.0 
-5.480247857211e-04 9.126717088174e-05 0.0 
9.126717088174e-05 8.580064760396e-03 0.0 
0.0 0.0 0.0 
-5.664119752116e-04 1.599675129640e-04 0.0 
1.599675129640e-04 8.934140141618e-03 0.0 
0.0 0.0 0.0 
-6.032065272318e-04 1.933230621426e-04 0.0 
1.933230621426e-04 8.931035442064e-03 0.0 
0.0 0.0 0.0 
-5.743703746135e-04 2.363393041308e-04 0.0 
2.363393041308e-04 9.308798600599e-03 0.0 
0.0 0.0 0.0 
-5.349593498992e-04 1.274507497306e-04 0.0 
1.274507497306e-04 8.975860106767e-03 0.0 
0.0 0.0 0.0 
5.487346396111e-04 5.731578673858e-05 0.0 
5.731578673858e-05 4.524060095313e-03 0.0 
0.0 0.0 0.0 
5.350621274937e-04 5.442658908511e-05 0.0 
5.442658908511e-05 4.707528598646e-03 0.0 
0.0 0.0 0.0 
5.266830005238e-04 3.079458232590e-05 0.0 
3.079458232590e-05 4.466797410709e-03 0.0 
0.0 0.0 0.0 
5.216123077770e-04 4.808775676408e-05 0.0 
4.808775676408e-05 4.892789397573e-03 0.0 
0.0 0.0 0.0 
5.199443556546e-04 2.430704070695e-05 0.0 
2.430704070695e-05 4.641466431950e-03 0.0 
0.0 0.0 0.0 
5.190006404049e-04 1.196317919483e-05 0.0 
1.196317919483e-05 4.250160287832e-03 0.0 
0.0 0.0 0.0 
5.091349845140e-04 3.620707488994e-05 0.0 
3.620707488994e-05 5.071646432448e-03 0.0 
0.0 0.0 0.0 
5.112299849430e-04 1.878824580231e-05 0.0 
1.878824580231e-05 4.792368059975e-03 0.0 
0.0 0.0 0.0 
-4.919472099365e-04 5.153040061668e-05 0.0 
5.153040061668e-05 8.573213219439e-03 0.0 
0.0 0.0 0.0 
-4.750123454436e-04 -8.236007112541e-05 0.0 
-8.236007112541e-05 4.671980260434e-04 0.0 
0.0 0.0 0.0 
-2.395299231200e-04 -1.226069973506e-04 0.0 
-1.226069973506e-04 6.985750679786e-04 0.0 
0.0 0.0 0.0 
-2.219729681034e-04 -1.328682997416e-04 0.0 
-1.328682997416e-04 6.746273652124e-04 0.0 
0.0 0.0 0.0 
-5.763931201434e-05 -1.453978771234e-04 0.0 
-1.453978771234e-04 9.620484762419e-04 0.0 
0.0 0.0 0.0 
-4.112022346318e-05 -1.101050012449e-04 0.0 
-1.101050012449e-04 9.923080453014e-04 0.0 
0.0 0.0 0.0 
1.353481612113e-04 -1.104292109908e-04 0.0 
-1.104292109908e-04 1.299992061051e-03 0.0 
0.0 0.0 0.0 
1.226452394111e-04 -7.967879476547e-05 0.0 
-7.967879476547e-05 1.266812270096e-03 0.0 
0.0 0.0 0.0 
-2.527854839596e-04 -1.082708019303e-04 0.0 
-1.082708019303e-04 7.118509585793e-04 0.0 
0.0 0.0 0.0 
-3.752805863696e-04 -8.443951864711e-05 0.0 
-8.443951864711e-05 4.188523091831e-04 0.0 
0.0 0.0 0.0 
-1.879351827375e-04 -1.309648093474e-04 0.0 
-1.309648093474e-04 6.576817071282e-04 0.0 
0.0 0.0 0.0 
-3.191870388657e-04 -8.006273928601e-05 0.0 
-8.006273928601e-05 3.913035602425e-04 0.0 
0.0 0.0 0.0 
-1.588140889838e-04 -1.308591787900e-04 0.0 
-1.308591787900e-04 6.320698219292e-04 0.0 
0.0 0.0 0.0 
-1.173845823708e-05 -1.545648611403e-04 0.0 
-1.545648611403e-04 9.799025072205e-04 0.0 
0.0 0.0 0.0 
1.756995858391e-04 -1.478094479804e-04 0.0 
-1.478094479804e-04 1.455245301909e-03 0.0 
0.0 0.0 0.0 
1.104213871604e-04 2.005446281716e-04 0.0 
2.005446281716e-04 8.015236629749e-03 0.0 
0.0 0.0 0.0 
4.766112435851e-04 -2.819547136246e-06 0.0 
-2.819547136246e-06 3.614528360167e-03 0.0 
0.0 0.0 0.0 
4.621830080827e-04 -8.575926520926e-06 0.0 
-8.575926520926e-06 3.418581246007e-03 0.0 
0.0 0.0 0.0 
4.282112490792e-04 -1.712098061642e-05 0.0 
-1.712098061642e-05 3.030786152883e-03 0.0 
0.0 0.0 0.0 
4.510677701124e-04 -2.327474514809e-05 0.0 
-2.327474514809e-05 3.239848853221e-03 0.0 
0.0 0.0 0.0 
4.895342985562e-04 5.898935771019e-07 0.0 
5.898935771019e-07 3.778768312746e-03 0.0 
0.0 0.0 0.0 
4.002376012157e-04 -1.036596518818e-05 0.0 
-1.036596518818e-05 2.820008324561e-03 0.0 
0.0 0.0 0.0 
3.829232499831e-04 -2.286127849909e-05 0.0 
-2.286127849909e-05 2.678043610859e-03 0.0 
0.0 0.0 0.0 
5.806285012418e-06 -1.743571894275e-05 0.0 
-1.743571894275e-05 2.539045038946e-04 0.0 
0.0 0.0 0.0 
5.316450614860e-05 -3.074614441223e-05 0.0 
-3.074614441223e-05 5.513574024794e-04 0.0 
0.0 0.0 0.0 
4.479214680037e-05 -1.586990697486e-05 0.0 
-1.586990697486e-05 5.191635152117e-04 0.0 
0.0 0.0 0.0 
9.836230757761e-05 -2.513475632383e-05 0.0 
-2.513475632383e-05 8.859450670574e-04 0.0 
0.0 0.0 0.0 
9.568585209900e-05 -4.486019924029e-05 0.0 
-4.486019924029e-05 8.796649730575e-04 0.0 
0.0 0.0 0.0 
4.478050611754e-05 -4.005925674711e-05 0.0 
-4.005925674711e-05 5.587117542026e-04 0.0 
0.0 0.0 0.0 
3.082361190556e-05 -5.040536098223e-05 0.0 
-5.040536098223e-05 5.658883410861e-04 0.0 
0.0 0.0 0.0 
-3.113791441043e-05 -3.464576903801e-05 0.0 
-3.464576903801e-05 2.690422192269e-04 0.0 
0.0 0.0 0.0 
1.765397429558e-05 -6.366097714851e-05 0.0 
-6.366097714851e-05 5.712508932899e-04 0.0 
0.0 0.0 0.0 
8.348441566767e-05 -7.191076477500e-05 0.0 
-7.191076477500e-05 9.029804077818e-04 0.0 
0.0 0.0 0.0 
-5.507933562219e-05 -4.201524343768e-05 0.0 
-4.201524343768e-05 2.697393512417e-04 0.0 
0.0 0.0 0.0 
-2.507707725264e-04 1.394537163293e-05 0.0 
1.394537163293e-05 1.043881480467e-02 0.0 
0.0 0.0 0.0 
-2.295325362071e-04 3.648398380472e-05 0.0 
3.648398380472e-05 1.065427164953e-02 0.0 
0.0 0.0 0.0 
1.264382212064e-04 6.692936190357e-04 0.0 
6.692936190357e-04 8.320337417385e-03 0.0 
0.0 0.0 0.0 
-4.426387256261e-04 3.079243992375e-05 0.0 
3.079243992375e-05 8.609740739256e-03 0.0 
0.0 0.0 0.0 
-2.164352584960e-04 -6.722934981924e-05 0.0 
-6.722934981924e-05 3.518545024065e-04 0.0 
0.0 0.0 0.0 
-7.672307093868e-05 1.500345649427e-04 0.0 
1.500345649427e-04 1.178347278430e-02 0.0 
0.0 0.0 0.0 
-7.825357762549e-05 2.740078777440e-04 0.0 
2.740078777440e-04 1.181915618002e-02 0.0 
0.0 0.0 0.0 
-6.854644796694e-05 2.352196026437e-04 0.0 
2.352196026437e-04 1.183610951829e-02 0.0 
0.0 0.0 0.0 
2.635802286876e-04 4.384090487993e-05 0.0 
4.384090487993e-05 7.209401822269e-03 0.0 
0.0 0.0 0.0 
2.236447356727e-04 8.764406307684e-05 0.0 
8.764406307684e-05 7.457472660230e-03 0.0 
0.0 0.0 0.0 
-6.857669855866e-05 8.536013319449e-05 0.0 
8.536013319449e-05 1.180109647495e-02 0.0 
0.0 0.0 0.0 
3.943656208949e-04 -9.985584204177e-05 0.0 
-9.985584204177e-05 2.363200984663e-03 0.0 
0.0 0.0 0.0 
-2.786580669591e-04 7.567864937871e-04 0.0 
7.567864937871e-04 1.110673956906e-02 0.0 
0.0 0.0 0.0 
-1.939752970115e-04 1.504319853723e-04 0.0 
1.504319853723e-04 1.113290157682e-02 0.0 
0.0 0.0 0.0 
3.568865164220e-04 6.137079120828e-04 0.0 
6.137079120828e-04 2.229641129515e-03 0.0 
0.0 0.0 0.0 
4.250481092083e-04 -9.009720683094e-05 0.0 
-9.009720683094e-05 2.293230751042e-03 0.0 
0.0 0.0 0.0 
4.674747427326e-04 8.243133544325e-05 0.0 
8.243133544325e-05 5.780800139030e-03 0.0 
0.0 0.0 0.0 
5.684368978595e-04 1.883940604376e-04 0.0 
1.883940604376e-04 5.298777111038e-03 0.0 
0.0 0.0 0.0 
3.560907833235e-04 1.915593174543e-04 0.0 
1.915593174543e-04 6.791692494155e-03 0.0 
0.0 0.0 0.0 
5.178837374455e-04 1.154730612524e-04 0.0 
1.154730612524e-04 5.396457973863e-03 0.0 
0.0 0.0 0.0 
4.378383312831e-04 2.473176688090e-04 0.0 
2.473176688090e-04 6.409980736589e-03 0.0 
0.0 0.0 0.0 
2.356075004553e-04 9.354969953141e-04 0.0 
9.354969953141e-04 8.246259917327e-03 0.0 
0.0 0.0 0.0 
1.893735440389e-04 -5.648400388291e-05 0.0 
-5.648400388291e-05 1.450476572408e-03 0.0 
0.0 0.0 0.0 
-3.946726932564e-04 1.131587991203e-04 0.0 
1.131587991203e-04 9.712420311328e-03 0.0 
0.0 0.0 0.0 
-3.569802491628e-04 6.034819422104e-05 0.0 
6.034819422104e-05 9.557385840011e-03 0.0 
0.0 0.0 0.0 
-2.872770899135e-04 1.379301093995e-04 0.0 
1.379301093995e-04 1.053896450050e-02 0.0 
0.0 0.0 0.0 
3.790654418893e-04 -7.741499891401e-05 0.0 
-7.741499891401e-05 2.479094341531e-03 0.0 
0.0 0.0 0.0 
5.196029397359e-04 9.819463017902e-06 0.0 
9.819463017902e-06 4.059449764573e-03 0.0 
0.0 0.0 0.0 
2.014847217979e-04 -1.192358923865e-04 0.0 
-1.192358923865e-04 1.548717195306e-03 0.0 
0.0 0.0 0.0 
-1.053974886030e-04 1.256000333181e-03 0.0 
1.256000333181e-03 1.021020634466e-02 0.0 
0.0 0.0 0.0 
-6.783798436439e-04 7.183445541833e-04 0.0 
7.183445541833e-04 8.164569138204e-03 0.0 
0.0 0.0 0.0 
6.833900287955e-04 2.619738287425e-04 0.0 
2.619738287425e-04 4.464662997631e-03 0.0 
0.0 0.0 0.0 
5.218102779378e-04 -2.025800911180e-05 0.0 
-2.025800911180e-05 3.330195330097e-03 0.0 
0.0 0.0 0.0 
4.529274096708e-04 -7.800093758510e-05 0.0 
-7.800093758510e-05 2.592038081721e-03 0.0 
0.0 0.0 0.0 
4.039440322544e-04 -9.169260797568e-05 0.0 
-9.169260797568e-05 2.139988558816e-03 0.0 
0.0 0.0 0.0 
-1.146765667870e-06 1.217722841024e-03 0.0 
1.217722841024e-03 6.195400781726e-03 0.0 
0.0 0.0 0.0 
6.267960767159e-04 1.079908333616e-04 0.0 
1.079908333616e-04 4.070543185605e-03 0.0 
0.0 0.0 0.0 
5.317931675675e-04 3.876646833300e-04 0.0 
3.876646833300e-04 6.168994071802e-03 0.0 
0.0 0.0 0.0 
-2.488485989792e-04 1.281930402898e-04 0.0 
1.281930402898e-04 1.075168434921e-02 0.0 
0.0 0.0 0.0 
-1.365926777469e-04 -5.836142101148e-05 0.0 
-5.836142101148e-05 3.509053726851e-04 0.0 
0.0 0.0 0.0 
5.038258662738e-04 4.661799986181e-04 0.0 
4.661799986181e-04 6.481789364843e-03 0.0 
0.0 0.0 0.0 
6.215157607731e-04 2.130809690870e-04 0.0 
2.130809690870e-04 4.949919774364e-03 0.0 
0.0 0.0 0.0 
-4.485785525690e-04 1.924784333113e-04 0.0 
1.924784333113e-04 9.857254673312e-03 0.0 
0.0 0.0 0.0 
3.855572393590e-04 9.767720836483e-04 0.0 
9.767720836483e-04 7.352210641078e-03 0.0 
0.0 0.0 0.0 
2.048370856678e-04 -1.228421037467e-04 0.0 
-1.228421037467e-04 1.472631281839e-03 0.0 
0.0 0.0 0.0 
-3.166313439703e-04 2.295937195551e-04 0.0 
2.295937195551e-04 1.067018770363e-02 0.0 
0.0 0.0 0.0 
-2.520587886679e-04 4.625209730351e-04 0.0 
4.625209730351e-04 1.124674744765e-02 0.0 
0.0 0.0 0.0 
-5.214853952159e-04 1.837731361775e-04 0.0 
1.837731361775e-04 9.412335391840e-03 0.0 
0.0 0.0 0.0 
1.141691964452e-04 -1.148867494454e-04 0.0 
-1.148867494454e-04 1.173144939607e-03 0.0 
0.0 0.0 0.0 
-4.162265186217e-04 7.728444277256e-05 0.0 
7.728444277256e-05 9.300295307180e-03 0.0 
0.0 0.0 0.0 
3.126613763586e-04 6.912792090235e-04 0.0 
6.912792090235e-04 7.648598896417e-03 0.0 
0.0 0.0 0.0 
-4.486093223765e-04 4.428240954008e-04 0.0 
4.428240954008e-04 1.047566271785e-02 0.0 
0.0 0.0 0.0 
3.356690495816e-04 -7.669114633881e-05 0.0 
-7.669114633881e-05 2.259540437319e-03 0.0 
0.0 0.0 0.0 
6.545326160150e-04 6.832032007334e-04 0.0 
6.832032007334e-04 5.127356337506e-03 0.0 
0.0 0.0 0.0 
-3.860855807690e-04 1.101727742094e-03 0.0 
1.101727742094e-03 7.290939321016e-03 0.0 
0.0 0.0 0.0 
-6.575883524311e-04 2.020747156217e-04 0.0 
2.020747156217e-04 8.131534177873e-03 0.0 
0.0 0.0 0.0 
-1.766757755622e-04 1.880425229412e-04 0.0 
1.880425229412e-04 1.128975672629e-02 0.0 
0.0 0.0 0.0 
2.301883324303e-04 1.121137913599e-03 0.0 
1.121137913599e-03 6.421765875834e-03 0.0 
0.0 0.0 0.0 
3.913620044923e-04 9.134411544564e-04 0.0 
9.134411544564e-04 7.496507105694e-03 0.0 
0.0 0.0 0.0 
5.788578909348e-04 7.682741334567e-04 0.0 
7.682741334567e-04 6.065636533379e-03 0.0 
0.0 0.0 0.0 
3.564263850789e-04 -5.690578062473e-05 0.0 
-5.690578062473e-05 2.433136369700e-03 0.0 
0.0 0.0 0.0 
4.163530447190e-04 4.067483313235e-04 0.0 
4.067483313235e-04 6.822970084758e-03 0.0 
0.0 0.0 0.0 
5.153076467709e-04 9.236002219218e-04 0.0 
9.236002219218e-04 5.466011523161e-03 0.0 
0.0 0.0 0.0 
-2.558332946549e-04 2.674722506293e-04 0.0 
2.674722506293e-04 1.104366137769e-02 0.0 
0.0 0.0 0.0 
-2.970738542348e-04 1.080838589824e-03 0.0 
1.080838589824e-03 9.050296448436e-03 0.0 
0.0 0.0 0.0 
6.630843024819e-04 6.643573885916e-04 0.0 
6.643573885916e-04 4.125864048968e-03 0.0 
0.0 0.0 0.0 
-3.490672146969e-04 3.498556507762e-04 0.0 
3.498556507762e-04 1.077262928991e-02 0.0 
0.0 0.0 0.0 
7.020359399264e-04 3.787992129022e-04 0.0 
3.787992129022e-04 4.625037492256e-03 0.0 
0.0 0.0 0.0 
3.086564950084e-04 1.051866009118e-03 0.0 
1.051866009118e-03 7.773506897668e-03 0.0 
0.0 0.0 0.0 
-6.549743233689e-04 7.975706867290e-04 0.0 
7.975706867290e-04 7.844231148823e-03 0.0 
0.0 0.0 0.0 
-3.848562004458e-04 1.043946417432e-03 0.0 
1.043946417432e-03 8.362578035225e-03 0.0 
0.0 0.0 0.0 
-5.444180232275e-04 8.188803145566e-04 0.0 
8.188803145566e-04 9.419342848166e-03 0.0 
0.0 0.0 0.0 
-1.056559129293e-04 1.158268079935e-03 0.0 
1.158268079935e-03 7.437230193167e-03 0.0 
0.0 0.0 0.0 
4.811734941952e-04 5.075881171685e-05 0.0 
5.075881171685e-05 5.525552960504e-03 0.0 
0.0 0.0 0.0 
4.611573308924e-04 4.382405987311e-04 0.0 
4.382405987311e-04 6.649400114768e-03 0.0 
0.0 0.0 0.0 
3.242085432756e-04 9.823391777735e-05 0.0 
9.823391777735e-05 1.654909264890e-03 0.0 
0.0 0.0 0.0 
-7.964536782090e-06 1.272061235165e-03 0.0 
1.272061235165e-03 5.413432295429e-03 0.0 
0.0 0.0 0.0 
-4.961268205846e-04 2.441256867907e-04 0.0 
2.441256867907e-04 9.808156233624e-03 0.0 
0.0 0.0 0.0 
-9.834614940294e-05 1.198647708520e-03 0.0 
1.198647708520e-03 9.345713672222e-03 0.0 
0.0 0.0 0.0 
-1.832294044660e-04 3.022346580879e-04 0.0 
3.022346580879e-04 1.140477589571e-02 0.0 
0.0 0.0 0.0 
-4.213368258419e-04 1.108730704519e-03 0.0 
1.108730704519e-03 6.973363181013e-03 0.0 
0.0 0.0 0.0 
4.511169971543e-04 3.359283769845e-04 0.0 
3.359283769845e-04 6.516356097256e-03 0.0 
0.0 0.0 0.0 
-2.749089676427e-04 3.981305174115e-04 0.0 
3.981305174115e-04 1.112277634110e-02 0.0 
0.0 0.0 0.0 
6.121904785722e-04 1.038472464198e-04 0.0 
1.038472464198e-04 4.241758181978e-03 0.0 
0.0 0.0 0.0 
2.293650430349e-04 -1.809059190680e-05 0.0 
-1.809059190680e-05 1.673443216536e-03 0.0 
0.0 0.0 0.0 
1.925780641474e-04 5.583685130138e-04 0.0 
5.583685130138e-04 1.831149931487e-03 0.0 
0.0 0.0 0.0 
6.349020443632e-04 5.504844355202e-04 0.0 
5.504844355202e-04 3.195847841563e-03 0.0 
0.0 0.0 0.0 
3.432252064641e-04 1.071686122806e-03 0.0 
1.071686122806e-03 5.944017171180e-03 0.0 
0.0 0.0 0.0 
6.119709429325e-04 1.524857565185e-04 0.0 
1.524857565185e-04 4.677576433112e-03 0.0 
0.0 0.0 0.0 
-2.371664947042e-04 6.580108276125e-04 0.0 
6.580108276125e-04 1.129176397034e-02 0.0 
0.0 0.0 0.0 
4.083474782675e-04 3.098154253763e-04 0.0 
3.098154253763e-04 6.699172691207e-03 0.0 
0.0 0.0 0.0 
5.360838412285e-04 6.091369461666e-04 0.0 
6.091369461666e-04 6.512688629077e-03 0.0 
0.0 0.0 0.0 
-4.885647769043e-04 8.476577852194e-04 0.0 
8.476577852194e-04 1.620173156767e-03 0.0 
0.0 0.0 0.0 
-6.928282423087e-04 3.023568495544e-04 0.0 
3.023568495544e-04 8.250167253037e-03 0.0 
0.0 0.0 0.0 
3.636206229492e-04 2.803365438910e-04 0.0 
2.803365438910e-04 6.889464360482e-03 0.0 
0.0 0.0 0.0 
6.671642783229e-04 6.252530847762e-04 0.0 
6.252530847762e-04 5.208479587565e-03 0.0 
0.0 0.0 0.0 
3.236620510428e-04 1.022639751953e-03 0.0 
1.022639751953e-03 7.811715476166e-03 0.0 
0.0 0.0 0.0 
5.155490849747e-04 1.136994088580e-05 0.0 
1.136994088580e-05 4.384706261607e-03 0.0 
0.0 0.0 0.0 
-7.326893276495e-05 1.280560992255e-03 0.0 
1.280560992255e-03 1.001522838206e-02 0.0 
0.0 0.0 0.0 
-7.064337515382e-04 4.889113867536e-04 0.0 
4.889113867536e-04 7.263491595534e-03 0.0 
0.0 0.0 0.0 
3.165020150688e-04 2.472944103478e-04 0.0 
2.472944103478e-04 7.091672204243e-03 0.0 
0.0 0.0 0.0 
5.137453021986e-04 7.362468106006e-04 0.0 
7.362468106006e-04 6.737610225989e-03 0.0 
0.0 0.0 0.0 
4.078559724892e-04 1.058414050989e-03 0.0 
1.058414050989e-03 4.117305859449e-03 0.0 
0.0 0.0 0.0 
-3.660911124261e-04 5.037046237603e-06 0.0 
5.037046237603e-06 8.529951226878e-03 0.0 
0.0 0.0 0.0 
2.052117621113e-04 2.751049204412e-04 0.0 
2.751049204412e-04 7.655357034101e-03 0.0 
0.0 0.0 0.0 
4.324388327472e-04 7.920465913233e-04 0.0 
7.920465913233e-04 7.234421173246e-03 0.0 
0.0 0.0 0.0 
-9.098225352337e-05 1.150048237452e-03 0.0 
1.150048237452e-03 7.810422111555e-03 0.0 
0.0 0.0 0.0 
6.967978535181e-04 5.207797938427e-04 0.0 
5.207797938427e-04 4.841430629629e-03 0.0 
0.0 0.0 0.0 
-6.707607266629e-04 2.361784446568e-04 0.0 
2.361784446568e-04 7.679091427469e-03 0.0 
0.0 0.0 0.0 
5.900724098695e-04 1.447705246459e-04 0.0 
1.447705246459e-04 4.852980077151e-03 0.0 
0.0 0.0 0.0 
-4.353052295920e-04 9.941131616305e-04 0.0 
9.941131616305e-04 8.741615835699e-03 0.0 
0.0 0.0 0.0 
-1.009199084898e-04 5.543157856155e-04 0.0 
5.543157856155e-04 1.172064624679e-02 0.0 
0.0 0.0 0.0 
3.678356007737e-04 8.779430394217e-04 0.0 
8.779430394217e-04 7.591470465728e-03 0.0 
0.0 0.0 0.0 
-5.899167227223e-04 4.797463338039e-04 0.0 
4.797463338039e-04 9.770215494897e-03 0.0 
0.0 0.0 0.0 
5.784639934919e-04 9.706203668770e-05 0.0 
9.706203668770e-05 4.593281699763e-03 0.0 
0.0 0.0 0.0 
2.649989309646e-04 1.084039540328e-03 0.0 
1.084039540328e-03 7.271164088466e-03 0.0 
0.0 0.0 0.0 
9.156737840602e-05 -6.154147404006e-05 0.0 
-6.154147404006e-05 8.849080900222e-04 0.0 
0.0 0.0 0.0 
-7.104636903884e-04 3.678387136830e-04 0.0 
3.678387136830e-04 7.776524414775e-03 0.0 
0.0 0.0 0.0 
5.597814988173e-04 9.264242445403e-05 0.0 
9.264242445403e-05 4.772620072751e-03 0.0 
0.0 0.0 0.0 
6.635904853897e-04 4.680233985824e-04 0.0 
4.680233985824e-04 3.276730397914e-03 0.0 
0.0 0.0 0.0 
6.930451073875e-04 4.752854278137e-04 0.0 
4.752854278137e-04 4.953642245401e-03 0.0 
0.0 0.0 0.0 
1.224928206629e-04 1.241231364177e-03 0.0 
1.241231364177e-03 9.029266668379e-03 0.0 
0.0 0.0 0.0 
5.406057533467e-04 8.676732923184e-05 0.0 
8.676732923184e-05 4.955651453240e-03 0.0 
0.0 0.0 0.0 
6.855717761938e-04 5.316047702988e-04 0.0 
5.316047702988e-04 3.734420338079e-03 0.0 
0.0 0.0 0.0 
5.210937629980e-04 7.844132032942e-05 0.0 
7.844132032942e-05 5.141151733350e-03 0.0 
0.0 0.0 0.0 
-6.653208476872e-04 3.048643857821e-04 0.0 
3.048643857821e-04 7.220079456059e-03 0.0 
0.0 0.0 0.0 
-5.750284586576e-04 5.692765656515e-04 0.0 
5.692765656515e-04 9.869054394152e-03 0.0 
0.0 0.0 0.0 
5.023681473044e-04 6.554505148192e-05 0.0 
6.554505148192e-05 5.327739152609e-03 0.0 
0.0 0.0 0.0 
-3.843535781721e-04 1.020530190552e-03 0.0 
1.020530190552e-03 9.076925446108e-03 0.0 
0.0 0.0 0.0 
7.512717368106e-05 -9.296001305154e-05 0.0 
-9.296001305154e-05 9.410859812749e-04 0.0 
0.0 0.0 0.0 
1.108448595836e-05 1.152964515093e-03 0.0 
1.152964515093e-03 7.750163021889e-03 0.0 
0.0 0.0 0.0 
3.115404348105e-04 8.119312686759e-05 0.0 
8.119312686759e-05 6.950608030415e-03 0.0 
0.0 0.0 0.0 
5.664818377008e-04 4.801071768089e-06 0.0 
4.801071768089e-06 3.073314684864e-03 0.0 
0.0 0.0 0.0 
6.826993420326e-04 4.380659109076e-04 0.0 
4.380659109076e-04 5.081134868888e-03 0.0 
0.0 0.0 0.0 
-5.086911994828e-04 6.407006263102e-04 0.0 
6.407006263102e-04 1.021076555861e-02 0.0 
0.0 0.0 0.0 
-6.478327943646e-04 4.150644672494e-04 0.0 
4.150644672494e-04 6.740011922286e-03 0.0 
0.0 0.0 0.0 
6.489127231741e-04 4.953644463404e-04 0.0 
4.953644463404e-04 5.546618876935e-03 0.0 
0.0 0.0 0.0 
-3.303137914471e-04 1.053484338910e-03 0.0 
1.053484338910e-03 9.420313574522e-03 0.0 
0.0 0.0 0.0 
1.011009528603e-04 1.145042337306e-03 0.0 
1.145042337306e-03 7.713362442061e-03 0.0 
0.0 0.0 0.0 
3.191742334461e-04 1.070876303238e-03 0.0 
1.070876303238e-03 6.385715924869e-03 0.0 
0.0 0.0 0.0 
6.008465875762e-04 5.524669990638e-04 0.0 
5.524669990638e-04 6.024092913219e-03 0.0 
0.0 0.0 0.0 
-6.735464097306e-04 6.760858016814e-04 0.0 
6.760858016814e-04 6.686349764360e-03 0.0 
0.0 0.0 0.0 
3.741058441361e-04 -1.112582642164e-04 0.0 
-1.112582642164e-04 2.204712442618e-03 0.0 
0.0 0.0 0.0 
2.819441808343e-04 -1.361662059567e-04 0.0 
-1.361662059567e-04 1.828235355495e-03 0.0 
0.0 0.0 0.0 
7.020889642748e-04 4.627102782124e-04 0.0 
4.627102782124e-04 3.826175819203e-03 0.0 
0.0 0.0 0.0 
-3.460749763377e-04 1.027258665023e-03 0.0 
1.027258665023e-03 9.772409861860e-03 0.0 
0.0 0.0 0.0 
1.471504031283e-04 -4.389931685861e-05 0.0 
-4.389931685861e-05 1.208008263656e-03 0.0 
0.0 0.0 0.0 
-5.095635594724e-04 7.551570155292e-04 0.0 
7.551570155292e-04 1.000447983041e-02 0.0 
0.0 0.0 0.0 
1.298140820267e-04 -1.575412985825e-04 0.0 
-1.575412985825e-04 1.311215927516e-03 0.0 
0.0 0.0 0.0 
6.924632371547e-04 3.404641766992e-04 0.0 
3.404641766992e-04 3.487512314112e-03 0.0 
0.0 0.0 0.0 
1.540837438058e-04 1.149483867788e-03 0.0 
1.149483867788e-03 8.148543939474e-03 0.0 
0.0 0.0 0.0 
-3.157321050289e-04 3.464576000054e-06 0.0 
3.464576000054e-06 9.662541599957e-03 0.0 
0.0 0.0 0.0 
6.963742663703e-04 2.929202724670e-04 0.0 
2.929202724670e-04 3.607819397620e-03 0.0 
0.0 0.0 0.0 
2.907620078084e-04 -1.568520734186e-05 0.0 
-1.568520734186e-05 2.056382208223e-03 0.0 
0.0 0.0 0.0 
6.649312173305e-04 1.889036504247e-04 0.0 
1.889036504247e-04 3.309235330757e-03 0.0 
0.0 0.0 0.0 
2.933432427310e-04 1.073737642331e-03 0.0 
1.073737642331e-03 6.826544887706e-03 0.0 
0.0 0.0 0.0 
6.633461368656e-04 1.611023469757e-04 0.0 
1.611023469757e-04 3.449657020683e-03 0.0 
0.0 0.0 0.0 
6.192891938062e-04 7.883126800251e-05 0.0 
7.883126800251e-05 3.179797656947e-03 0.0 
0.0 0.0 0.0 
-1.331109141433e-04 1.688032104898e-04 0.0 
1.688032104898e-04 1.150212225974e-02 0.0 
0.0 0.0 0.0 
6.167066767162e-04 6.670379203419e-05 0.0 
6.670379203419e-05 3.329267625180e-03 0.0 
0.0 0.0 0.0 
-5.424354578841e-05 4.717905072075e-05 0.0 
4.717905072075e-05 1.186552525998e-02 0.0 
0.0 0.0 0.0 
1.058892325698e-04 8.945772923526e-05 0.0 
8.945772923526e-05 8.025715873166e-03 0.0 
0.0 0.0 0.0 
-3.537623199504e-04 -9.210238216761e-07 0.0 
-9.210238216761e-07 8.846438534105e-03 0.0 
0.0 0.0 0.0 
-5.869372276746e-04 5.359107710227e-04 0.0 
5.359107710227e-04 6.224613860807e-03 0.0 
0.0 0.0 0.0 
-5.775455680574e-04 5.321165438222e-06 0.0 
5.321165438222e-06 5.393632962010e-04 0.0 
0.0 0.0 0.0 
-5.538643305937e-04 1.030909947842e-03 0.0 
1.030909947842e-03 5.858492474439e-03 0.0 
0.0 0.0 0.0 
5.047058982751e-04 -4.530977641436e-05 0.0 
-4.530977641436e-05 2.677959411371e-03 0.0 
0.0 0.0 0.0 
-4.792899161138e-04 8.734284993184e-04 0.0 
8.734284993184e-04 9.742356640985e-03 0.0 
0.0 0.0 0.0 
-3.554626313004e-04 1.077693370276e-05 0.0 
1.077693370276e-05 8.864433747192e-03 0.0 
0.0 0.0 0.0 
4.396292474109e-04 -8.482803081423e-05 0.0 
-8.482803081423e-05 2.440843541071e-03 0.0 
0.0 0.0 0.0 
-2.229503990547e-04 9.758130332814e-04 0.0 
9.758130332814e-04 1.096043799226e-02 0.0 
0.0 0.0 0.0 
-7.608212858741e-06 1.372498858001e-03 0.0 
1.372498858001e-03 1.007654572917e-02 0.0 
0.0 0.0 0.0 
-2.716338486405e-04 3.092796130719e-05 0.0 
3.092796130719e-05 1.024773296610e-02 0.0 
0.0 0.0 0.0 
3.176799410257e-04 9.952072318257e-04 0.0 
9.952072318257e-04 7.867022046893e-03 0.0 
0.0 0.0 0.0 
1.756536262842e-04 1.127894878118e-03 0.0 
1.127894878118e-03 7.708985308850e-03 0.0 
0.0 0.0 0.0 
-1.635018941188e-04 2.138922250889e-05 0.0 
2.138922250889e-05 1.117396149122e-02 0.0 
0.0 0.0 0.0 
-3.956859504957e-04 4.812079429225e-06 0.0 
4.812079429225e-06 8.511962313380e-03 0.0 
0.0 0.0 0.0 
-1.313874710909e-04 -1.216388137004e-04 0.0 
-1.216388137004e-04 6.167538728304e-04 0.0 
0.0 0.0 0.0 
4.572151784125e-04 2.827009848307e-05 0.0 
2.827009848307e-05 5.757139271199e-03 0.0 
0.0 0.0 0.0 
-5.425072200990e-04 8.283016456971e-04 0.0 
8.283016456971e-04 5.508958682065e-03 0.0 
0.0 0.0 0.0 
-2.886405356560e-04 1.207930179609e-03 0.0 
1.207930179609e-03 4.539046125217e-03 0.0 
0.0 0.0 0.0 
-1.568208296861e-04 1.091972819964e-03 0.0 
1.091972819964e-03 3.196590070842e-03 0.0 
0.0 0.0 0.0 
3.687046114771e-04 -4.001991308297e-05 0.0 
-4.001991308297e-05 2.569703547459e-03 0.0 
0.0 0.0 0.0 
-4.952865079981e-05 -1.496136105000e-04 0.0 
-1.496136105000e-04 9.429800751191e-04 0.0 
0.0 0.0 0.0 
-4.662860051423e-04 1.096934000130e-03 0.0 
1.096934000130e-03 4.233995214673e-03 0.0 
0.0 0.0 0.0 
1.820768704440e-04 1.119462374792e-03 0.0 
1.119462374792e-03 8.656791230337e-03 0.0 
0.0 0.0 0.0 
-4.570759860685e-04 6.048484575236e-05 0.0 
6.048484575236e-05 8.905310460011e-03 0.0 
0.0 0.0 0.0 
8.025815151639e-05 1.180312860412e-03 0.0 
1.180312860412e-03 8.548738971816e-03 0.0 
0.0 0.0 0.0 
-4.629017367719e-04 1.044425758944e-03 0.0 
1.044425758944e-03 2.878932942525e-03 0.0 
0.0 0.0 0.0 
-1.907509735684e-04 4.395223410769e-04 0.0 
4.395223410769e-04 1.145479680057e-02 0.0 
0.0 0.0 0.0 
4.535953362198e-05 1.291974417692e-03 0.0 
1.291974417692e-03 9.426256527312e-03 0.0 
0.0 0.0 0.0 
1.108566723947e-04 5.145857147578e-04 0.0 
5.145857147578e-04 8.243085662884e-03 0.0 
0.0 0.0 0.0 
6.765042242357e-05 1.222530386936e-03 0.0 
1.222530386936e-03 8.966584784689e-03 0.0 
0.0 0.0 0.0 
-1.686094424737e-04 8.240677367326e-04 0.0 
8.240677367326e-04 1.997254540305e-03 0.0 
0.0 0.0 0.0 
-5.487053768978e-04 1.857502706758e-04 0.0 
1.857502706758e-04 9.243618079889e-03 0.0 
0.0 0.0 0.0 
-1.403437175319e-04 1.214199559137e-03 0.0 
1.214199559137e-03 1.038259365626e-02 0.0 
0.0 0.0 0.0 
-2.462072468116e-04 5.506004557858e-05 0.0 
5.506004557858e-05 1.056033209340e-02 0.0 
0.0 0.0 0.0 
1.046493325154e-04 4.151214589038e-04 0.0 
4.151214589038e-04 8.201426747175e-03 0.0 
0.0 0.0 0.0 
-5.052146204668e-04 9.433680223404e-05 0.0 
9.433680223404e-05 8.861544539470e-03 0.0 
0.0 0.0 0.0 
-1.106146834263e-04 1.118504099690e-04 0.0 
1.118504099690e-04 1.155753401849e-02 0.0 
0.0 0.0 0.0 
2.191704546860e-04 -1.370414284730e-05 0.0 
-1.370414284730e-05 1.412017264583e-03 0.0 
0.0 0.0 0.0 
-1.033245235602e-04 5.916712562514e-05 0.0 
5.916712562514e-05 1.156486625512e-02 0.0 
0.0 0.0 0.0 
-4.058927289754e-04 9.296910097127e-04 0.0 
9.296910097127e-04 1.007342614975e-02 0.0 
0.0 0.0 0.0 
-3.547902641743e-04 4.491315173328e-05 0.0 
4.491315173328e-05 9.377284996718e-03 0.0 
0.0 0.0 0.0 
-6.060434588910e-04 2.666302436366e-04 0.0 
2.666302436366e-04 9.198166035801e-03 0.0 
0.0 0.0 0.0 
1.733492849485e-04 1.384741547525e-04 0.0 
1.384741547525e-04 7.701145056107e-03 0.0 
0.0 0.0 0.0 
-2.360050800217e-04 8.263256126220e-04 0.0 
8.263256126220e-04 1.116203077574e-02 0.0 
0.0 0.0 0.0 
-1.953002141763e-04 6.282896159284e-04 0.0 
6.282896159284e-04 1.438757669122e-03 0.0 
0.0 0.0 0.0 
-2.789303790325e-04 5.366341819466e-05 0.0 
5.366341819466e-05 1.022655985768e-02 0.0 
0.0 0.0 0.0 
4.628494920777e-04 -2.837469315889e-05 0.0 
-2.837469315889e-05 3.243500208536e-03 0.0 
0.0 0.0 0.0 
-3.015648468630e-04 -7.529350133199e-05 0.0 
-7.529350133199e-05 6.867098472331e-04 0.0 
0.0 0.0 0.0 
2.241204303536e-04 6.088381899828e-04 0.0 
6.088381899828e-04 7.888672410961e-03 0.0 
0.0 0.0 0.0 
-3.239643748249e-04 9.846461989754e-04 0.0 
9.846461989754e-04 1.038902075958e-02 0.0 
0.0 0.0 0.0 
1.824664760859e-04 2.331687670069e-04 0.0 
2.331687670069e-04 7.694171009786e-03 0.0 
0.0 0.0 0.0 
9.546579917923e-05 -1.263407103190e-05 0.0 
-1.263407103190e-05 8.717047774145e-04 0.0 
0.0 0.0 0.0 
-8.788110938192e-05 -9.925799897571e-05 0.0 
-9.925799897571e-05 5.584456609013e-04 0.0 
0.0 0.0 0.0 
2.146026191832e-04 7.441846918312e-04 0.0 
7.441846918312e-04 8.095222901026e-03 0.0 
0.0 0.0 0.0 
-1.866960313888e-04 1.108337428386e-03 0.0 
1.108337428386e-03 1.075451982360e-02 0.0 
0.0 0.0 0.0 
2.669264597369e-04 -3.480711679351e-05 0.0 
-3.480711679351e-05 1.580475036846e-03 0.0 
0.0 0.0 0.0 
-7.486496953337e-05 3.798279284484e-04 0.0 
3.798279284484e-04 1.185124429940e-02 0.0 
0.0 0.0 0.0 
-3.404857532221e-04 4.408481695784e-04 0.0 
4.408481695784e-04 9.410746185033e-04 0.0 
0.0 0.0 0.0 
-4.223892637236e-04 1.989198025311e-05 0.0 
1.989198025311e-05 8.476894776074e-03 0.0 
0.0 0.0 0.0 
-1.146843186015e-05 -7.349137371471e-05 0.0 
-7.349137371471e-05 5.514741467648e-04 0.0 
0.0 0.0 0.0 
9.913478339523e-05 3.030795637229e-04 0.0 
3.030795637229e-04 8.151510518828e-03 0.0 
0.0 0.0 0.0 
-1.430341118317e-04 2.810921232981e-04 0.0 
2.810921232981e-04 1.155026247581e-02 0.0 
0.0 0.0 0.0 
4.839024439840e-04 -3.050498450027e-06 0.0 
-3.050498450027e-06 3.596360106055e-03 0.0 
0.0 0.0 0.0 
-6.036426786460e-04 1.611478125635e-04 0.0 
1.611478125635e-04 8.581867380840e-03 0.0 
0.0 0.0 0.0 
3.289958030854e-04 -2.869820644506e-05 0.0 
-2.869820644506e-05 2.318252869282e-03 0.0 
0.0 0.0 0.0 
-7.136450697098e-05 1.250913108938e-03 0.0 
1.250913108938e-03 9.642700655659e-03 0.0 
0.0 0.0 0.0 
-4.371227568452e-05 -1.475259046702e-04 0.0 
-1.475259046702e-04 8.658412855112e-04 0.0 
0.0 0.0 0.0 
-1.223832363511e-04 2.012336672973e-04 0.0 
2.012336672973e-04 1.159905020979e-02 0.0 
0.0 0.0 0.0 
2.062103322730e-04 8.841711021038e-04 0.0 
8.841711021038e-04 8.291424144480e-03 0.0 
0.0 0.0 0.0 
-1.996799120391e-04 6.147597188612e-04 0.0 
6.147597188612e-04 1.143033350245e-02 0.0 
0.0 0.0 0.0 
5.701437756889e-05 1.307165960941e-03 0.0 
1.307165960941e-03 9.466405319664e-03 0.0 
0.0 0.0 0.0 
-3.153937823299e-04 1.070567665523e-04 0.0 
1.070567665523e-04 7.290923720956e-04 0.0 
0.0 0.0 0.0 
3.774942859236e-06 1.319673149166e-03 0.0 
1.319673149166e-03 9.709983209106e-03 0.0 
0.0 0.0 0.0 
2.938066267203e-04 9.378452492361e-04 0.0 
9.378452492361e-04 8.000980208283e-03 0.0 
0.0 0.0 0.0 
-3.818195360854e-04 1.495239090208e-05 0.0 
1.495239090208e-05 8.502830655300e-03 0.0 
0.0 0.0 0.0 
-2.222427365846e-04 7.313279642184e-04 0.0 
7.313279642184e-04 1.128393498284e-02 0.0 
0.0 0.0 0.0 
4.106195405387e-04 -2.681844844597e-05 0.0 
-2.681844844597e-05 2.883968997569e-03 0.0 
0.0 0.0 0.0 
1.340316976003e-04 -9.471005026475e-05 0.0 
-9.471005026475e-05 1.196035865350e-03 0.0 
0.0 0.0 0.0 
-4.265476079750e-05 2.040985830918e-05 0.0 
2.040985830918e-05 1.190661253025e-02 0.0 
0.0 0.0 0.0 
2.111137596716e-06 -4.931473536801e-06 0.0 
-4.931473536801e-06 1.902328009415e-04 0.0 
0.0 0.0 0.0 
-3.629199021894e-04 -2.305101981946e-06 0.0 
-2.305101981946e-06 8.469333085015e-03 0.0 
0.0 0.0 0.0 
8.027852151034e-05 4.830065499117e-05 0.0 
4.830065499117e-05 8.129024139121e-03 0.0 
0.0 0.0 0.0 
1.379207851044e-04 -5.689895620368e-05 0.0 
-5.689895620368e-05 1.132887704405e-03 0.0 
0.0 0.0 0.0 
-3.435688285901e-04 8.074505418610e-06 0.0 
8.074505418610e-06 9.151588994623e-03 0.0 
0.0 0.0 0.0 
-1.957423053300e-04 1.048733821871e-03 0.0 
1.048733821871e-03 1.089749295114e-02 0.0 
0.0 0.0 0.0 
5.084770501799e-04 7.471607659956e-06 0.0 
7.471607659956e-06 4.496501413130e-03 0.0 
0.0 0.0 0.0 
-1.920248256247e-04 3.195636116855e-05 0.0 
3.195636116855e-05 1.095255133482e-02 0.0 
0.0 0.0 0.0 
7.405945737058e-05 -1.416021336421e-04 0.0 
-1.416021336421e-04 1.172918519387e-03 0.0 
0.0 0.0 0.0 
-5.995532542930e-04 -4.400682110372e-05 0.0 
-4.400682110372e-05 4.752488981047e-04 0.0 
0.0 0.0 0.0 
-3.021105929664e-04 1.660663935448e-05 0.0 
1.660663935448e-05 9.876729259902e-03 0.0 
0.0 0.0 0.0 
7.440477288889e-05 1.290740723026e-03 0.0 
1.290740723026e-03 9.328919765946e-03 0.0 
0.0 0.0 0.0 
-1.765842531907e-04 4.961371675874e-04 0.0 
4.961371675874e-04 1.152320788968e-02 0.0 
0.0 0.0 0.0 
-3.370606576315e-04 4.708732150784e-05 0.0 
4.708732150784e-05 9.599685772419e-03 0.0 
0.0 0.0 0.0 
1.232866381644e-05 5.111687613435e-04 0.0 
5.111687613435e-04 1.544230414854e-03 0.0 
0.0 0.0 0.0 
-2.538001092994e-04 1.039021849892e-03 0.0 
1.039021849892e-03 1.063918548088e-02 0.0 
0.0 0.0 0.0 
5.073876739223e-04 1.564636952721e-06 0.0 
1.564636952721e-06 3.906479424788e-03 0.0 
0.0 0.0 0.0 
-1.676660360020e-04 1.197730549681e-03 0.0 
1.197730549681e-03 1.006014110108e-02 0.0 
0.0 0.0 0.0 
2.479155899117e-04 1.046499346638e-03 0.0 
1.046499346638e-03 8.269229520378e-03 0.0 
0.0 0.0 0.0 
-5.398943790636e-04 4.818528670039e-04 0.0 
4.818528670039e-04 6.454217206528e-04 0.0 
0.0 0.0 0.0 
5.046637567145e-04 1.214300832627e-05 0.0 
1.214300832627e-05 4.873884521515e-03 0.0 
0.0 0.0 0.0 
-5.606473715378e-05 -8.022749341439e-05 0.0 
-8.022749341439e-05 5.265005806805e-04 0.0 
0.0 0.0 0.0 
1.840401712178e-04 4.503454913594e-04 0.0 
4.503454913594e-04 7.891481132341e-03 0.0 
0.0 0.0 0.0 
5.070671521108e-04 3.217121656932e-06 0.0 
3.217121656932e-06 4.087984153096e-03 0.0 
0.0 0.0 0.0 
-2.229018285240e-04 1.765912876553e-04 0.0 
1.765912876553e-04 5.733494508681e-03 0.0 
0.0 0.0 0.0 
-3.887472011029e-04 6.455674703255e-06 0.0 
6.455674703255e-06 5.833406446127e-03 0.0 
0.0 0.0 0.0 
-3.691052954258e-04 1.977802110837e-04 0.0 
1.977802110837e-04 6.150871686064e-03 0.0 
0.0 0.0 0.0 
-3.618796168105e-04 -4.385855347240e-06 0.0 
-4.385855347240e-06 6.224337111912e-03 0.0 
0.0 0.0 0.0 
-4.780530015912e-04 1.506424212419e-04 0.0 
1.506424212419e-04 6.613884603003e-03 0.0 
0.0 0.0 0.0 
-3.603344251568e-04 -4.434978509555e-06 0.0 
-4.434978509555e-06 6.677832293852e-03 0.0 
0.0 0.0 0.0 
-5.425609995621e-04 1.164910870246e-04 0.0 
1.164910870246e-04 7.067584928355e-03 0.0 
0.0 0.0 0.0 
-3.634982868350e-04 -3.763202364217e-06 0.0 
-3.763202364217e-06 7.084622946061e-03 0.0 
0.0 0.0 0.0 
-5.779928668424e-04 9.548498004672e-05 0.0 
9.548498004672e-05 7.515869332714e-03 0.0 
0.0 0.0 0.0 
-3.656826571072e-04 -1.548035165499e-06 0.0 
-1.548035165499e-06 7.539280955351e-03 0.0 
0.0 0.0 0.0 
-5.863267803661e-04 9.236390224291e-05 0.0 
9.236390224291e-05 7.953695771144e-03 0.0 
0.0 0.0 0.0 
-3.694073518003e-04 4.669361841903e-06 0.0 
4.669361841903e-06 7.943345743301e-03 0.0 
0.0 0.0 0.0 

TENSORS node_materi_strain_plasti float
-1.741775845201e-05 -2.168405097555e-06 0.0 
-2.168405097555e-06 1.395813736689e-04 0.0 
0.0 0.0 -3.282868849617e-05 
-7.193710724365e-04 -1.122442495585e-04 0.0 
-1.122442495585e-04 4.531072016065e-03 0.0 
0.0 0.0 -6.959116756397e-04 
-1.326721611229e-03 9.743109485010e-05 0.0 
9.743109485010e-05 8.921087027136e-03 0.0 
0.0 0.0 -1.332621093165e-03 
-1.328526300077e-03 -9.718698781146e-05 0.0 
-9.718698781146e-05 8.927311597372e-03 0.0 
0.0 0.0 -1.332621093165e-03 
-8.193859278095e-05 3.577520009443e-05 0.0 
3.577520009443e-05 3.368763971303e-04 0.0 
0.0 0.0 -8.453455331315e-05 
-1.695924659270e-04 1.267609683744e-04 0.0 
1.267609683744e-04 8.452299049113e-04 0.0 
0.0 0.0 -1.619080202416e-04 
-2.296336673595e-04 1.041833740940e-04 0.0 
1.041833740940e-04 1.224476071287e-03 0.0 
0.0 0.0 -2.266090766362e-04 
-2.971855348456e-04 9.450166671956e-05 0.0 
9.450166671956e-05 1.745895085854e-03 0.0 
0.0 0.0 -2.937643997455e-04 
-3.715291688780e-04 6.977872566512e-05 0.0 
6.977872566512e-05 2.214517262813e-03 0.0 
0.0 0.0 -3.610469555860e-04 
-4.249688263072e-04 6.584730845620e-05 0.0 
6.584730845620e-05 2.664484643095e-03 0.0 
0.0 0.0 -4.277228197774e-04 
-4.875317281637e-04 7.284843635981e-05 0.0 
7.284843635981e-05 3.123402469253e-03 0.0 
0.0 0.0 -4.940119848999e-04 
-5.560650258811e-04 6.506894170197e-05 0.0 
6.506894170197e-05 3.586726731214e-03 0.0 
0.0 0.0 -5.601824523721e-04 
-6.219544696599e-04 6.499150418632e-05 0.0 
6.499150418632e-05 4.044891981262e-03 0.0 
0.0 0.0 -6.267196139102e-04 
-6.989301157160e-04 8.304445482454e-05 0.0 
8.304445482454e-05 4.516508974108e-03 0.0 
0.0 0.0 -6.936951881209e-04 
-7.842461813792e-04 1.250766207628e-04 0.0 
1.250766207628e-04 5.027932232893e-03 0.0 
0.0 0.0 -7.607197531558e-04 
-8.342478146059e-04 1.327780010267e-04 0.0 
1.327780010267e-04 5.490101288132e-03 0.0 
0.0 0.0 -8.270758575053e-04 
-8.797786789151e-04 1.730981527132e-04 0.0 
1.730981527132e-04 5.870913224211e-03 0.0 
0.0 0.0 -8.903361771249e-04 
-9.530636179411e-04 6.774981962034e-05 0.0 
6.774981962034e-05 6.360455625450e-03 0.0 
0.0 0.0 -9.558084330571e-04 
-1.021468397639e-03 6.438406854751e-05 0.0 
6.438406854751e-05 6.838909130197e-03 0.0 
0.0 0.0 -1.024523475697e-03 
-1.087303877607e-03 6.616077821815e-05 0.0 
6.616077821815e-05 7.302617105742e-03 0.0 
0.0 0.0 -1.091244731156e-03 
-1.157611465321e-03 6.099216604955e-05 0.0 
6.099216604955e-05 7.775325521779e-03 0.0 
0.0 0.0 -1.158330123333e-03 
-1.229956863987e-03 7.577779225227e-05 0.0 
7.577779225227e-05 8.251739665694e-03 0.0 
0.0 0.0 -1.226073836101e-03 
-1.285597262298e-03 9.777469732990e-05 0.0 
9.777469732990e-05 8.717344745921e-03 0.0 
0.0 0.0 -1.289832767750e-03 
-1.328056332164e-03 -6.444803612954e-06 0.0 
-6.444803612954e-06 8.942057407760e-03 0.0 
0.0 0.0 -1.336902025401e-03 
-1.335490548137e-03 -3.051268407675e-06 0.0 
-3.051268407675e-06 8.928554519845e-03 0.0 
0.0 0.0 -1.332945767435e-03 
-1.336130347494e-03 -6.396074884473e-05 0.0 
-6.396074884473e-05 8.918857970665e-03 0.0 
0.0 0.0 -1.334903170087e-03 
-1.339230604727e-03 3.012709249355e-05 0.0 
3.012709249355e-05 8.923856553285e-03 0.0 
0.0 0.0 -1.334459899807e-03 
-1.337146058389e-03 -8.398799894841e-06 0.0 
-8.398799894841e-06 8.911324906834e-03 0.0 
0.0 0.0 -1.332067731643e-03 
-1.335355832928e-03 1.075181302777e-06 0.0 
1.075181302777e-06 8.911332561918e-03 0.0 
0.0 0.0 -1.335050935171e-03 
-1.325449513940e-03 2.957247518010e-06 0.0 
2.957247518010e-06 8.920139941522e-03 0.0 
0.0 0.0 -1.335055123498e-03 
-1.337345353037e-03 -9.523690686144e-06 0.0 
-9.523690686144e-06 8.921732771433e-03 0.0 
0.0 0.0 -1.333530254363e-03 
-1.334717977068e-03 -4.294761687244e-05 0.0 
-4.294761687244e-05 8.930458145260e-03 0.0 
0.0 0.0 -1.336259905589e-03 
-1.337792100019e-03 2.741258004608e-05 0.0 
2.741258004608e-05 8.934606220421e-03 0.0 
0.0 0.0 -1.335712483792e-03 
-1.336136187727e-03 -6.884802183735e-06 0.0 
-6.884802183735e-06 8.921957108707e-03 0.0 
0.0 0.0 -1.333313947604e-03 
-1.338126723765e-03 -4.814512478222e-06 0.0 
-4.814512478222e-06 8.924502617003e-03 0.0 
0.0 0.0 -1.335862559377e-03 
-1.327324523368e-03 -1.060172701726e-07 0.0 
-1.060172701726e-07 8.942333996565e-03 0.0 
0.0 0.0 -1.336097458551e-03 
-1.338609928482e-03 -2.842890241057e-06 0.0 
-2.842890241057e-06 8.932107808072e-03 0.0 
0.0 0.0 -1.335235043394e-03 
-1.329400644355e-03 -1.048596426291e-05 0.0 
-1.048596426291e-05 8.921074213048e-03 0.0 
0.0 0.0 -1.334297546486e-03 
-1.338340837827e-03 9.966400157393e-06 0.0 
9.966400157393e-06 8.903421378777e-03 0.0 
0.0 0.0 -1.332308435384e-03 
-1.339067962771e-03 -2.558483156539e-06 0.0 
-2.558483156539e-06 8.895896267544e-03 0.0 
0.0 0.0 -1.332019584455e-03 
-1.327125647707e-03 1.639257363236e-06 0.0 
1.639257363236e-06 8.917700513123e-03 0.0 
0.0 0.0 -1.333392124151e-03 
-1.334568721853e-03 -4.268105943771e-06 0.0 
-4.268105943771e-06 8.928545997729e-03 0.0 
0.0 0.0 -1.334727449481e-03 
-1.336827804858e-03 -5.001027102463e-06 0.0 
-5.001027102463e-06 8.928021219147e-03 0.0 
0.0 0.0 -1.336576889699e-03 
-1.337235537648e-03 1.693416763898e-05 0.0 
1.693416763898e-05 8.930023700079e-03 0.0 
0.0 0.0 -1.335888391555e-03 
-1.331872643832e-03 -1.070662442938e-06 0.0 
-1.070662442938e-06 8.931108733201e-03 0.0 
0.0 0.0 -1.334783226448e-03 
-1.335383687196e-03 3.225376233207e-06 0.0 
3.225376233207e-06 8.925108831379e-03 0.0 
0.0 0.0 -1.335053869153e-03 
-1.335647092677e-03 -1.629379981321e-06 0.0 
-1.629379981321e-06 8.920485307702e-03 0.0 
0.0 0.0 -1.334960189349e-03 
-1.336340449165e-03 -1.285585314741e-06 0.0 
-1.285585314741e-06 8.933772799625e-03 0.0 
0.0 0.0 -1.334889991128e-03 
-1.330589077276e-03 -4.874946038578e-06 0.0 
-4.874946038578e-06 8.935469598915e-03 0.0 
0.0 0.0 -1.335774086633e-03 
-1.341165284707e-03 -5.814943729737e-06 0.0 
-5.814943729737e-06 8.933862901487e-03 0.0 
0.0 0.0 -1.336605656894e-03 
-1.330240946256e-03 -4.520075279768e-06 0.0 
-4.520075279768e-06 8.938118272604e-03 0.0 
0.0 0.0 -1.336508443943e-03 
-1.338673330008e-03 -5.862543655791e-06 0.0 
-5.862543655791e-06 8.942517447788e-03 0.0 
0.0 0.0 -1.335343284290e-03 
-1.336600650314e-03 -3.582742261955e-05 0.0 
-3.582742261955e-05 8.951381047284e-03 0.0 
0.0 0.0 -1.337998490269e-03 
-1.341076503417e-03 3.451828262938e-05 0.0 
3.451828262938e-05 8.946627943271e-03 0.0 
0.0 0.0 -1.337247094005e-03 
-1.334448453648e-03 1.095281049642e-05 0.0 
1.095281049642e-05 8.923080866366e-03 0.0 
0.0 0.0 -1.333783489999e-03 
-1.333263826440e-03 -4.659210695767e-08 0.0 
-4.659210695767e-08 8.908320836892e-03 0.0 
0.0 0.0 -1.334548731617e-03 
-1.334150017560e-03 -8.272198035495e-06 0.0 
-8.272198035495e-06 8.929832025163e-03 0.0 
0.0 0.0 -1.334619746794e-03 
-1.331619300726e-03 -1.909948370354e-06 0.0 
-1.909948370354e-06 8.928586538444e-03 0.0 
0.0 0.0 -1.335242115105e-03 
-1.340870630612e-03 -1.061733168398e-05 0.0 
-1.061733168398e-05 8.926675419192e-03 0.0 
0.0 0.0 -1.335691437541e-03 
-1.329659514104e-03 -2.082049369214e-06 0.0 
-2.082049369214e-06 8.934711562866e-03 0.0 
0.0 0.0 -1.335646478247e-03 
-1.339117702311e-03 -4.029677061711e-07 0.0 
-4.029677061711e-07 8.924836081587e-03 0.0 
0.0 0.0 -1.334931242407e-03 
-1.328302087749e-03 -6.726834891379e-06 0.0 
-6.726834891379e-06 8.915098302923e-03 0.0 
0.0 0.0 -1.334100791702e-03 
-1.338339244626e-03 1.868410609583e-06 0.0 
1.868410609583e-06 8.913909047127e-03 0.0 
0.0 0.0 -1.332237298415e-03 
-1.340573467967e-03 -1.512560094748e-05 0.0 
-1.512560094748e-05 8.916790452845e-03 0.0 
0.0 0.0 -1.333749945600e-03 
-1.332872318884e-03 1.070088453609e-05 0.0 
1.070088453609e-05 8.939654193892e-03 0.0 
0.0 0.0 -1.336652505695e-03 
-1.326343527950e-03 -1.064817557575e-05 0.0 
-1.064817557575e-05 8.953327537606e-03 0.0 
0.0 0.0 -1.337094627689e-03 
-1.334975160234e-03 -1.103658676067e-05 0.0 
-1.103658676067e-05 8.887287544370e-03 0.0 
0.0 0.0 -1.328990728106e-03 
-1.326727222271e-03 3.789706117036e-06 0.0 
3.789706117036e-06 8.937395178325e-03 0.0 
0.0 0.0 -1.335900064369e-03 
-1.338702731113e-03 6.248103656107e-07 0.0 
6.248103656107e-07 8.926718973225e-03 0.0 
0.0 0.0 -1.332523500780e-03 
-1.338833780446e-03 -4.056504769858e-05 0.0 
-4.056504769858e-05 8.921997078910e-03 0.0 
0.0 0.0 -1.335219049675e-03 
-1.336003357241e-03 1.668194413567e-05 0.0 
1.668194413567e-05 8.951047853454e-03 0.0 
0.0 0.0 -1.336566422126e-03 
-1.338588357839e-03 -8.318316931957e-07 0.0 
-8.318316931957e-07 8.955066587464e-03 0.0 
0.0 0.0 -1.335855682064e-03 
-7.644479361829e-04 -7.854511718931e-05 0.0 
-7.854511718931e-05 4.967324475694e-03 0.0 
0.0 0.0 -7.648954205800e-04 
-8.429692067442e-04 -8.894340543483e-05 0.0 
-8.894340543483e-05 5.465473064469e-03 0.0 
0.0 0.0 -8.298981322982e-04 
-9.045101262401e-04 -8.649802336560e-05 0.0 
-8.649802336560e-05 5.927599153875e-03 0.0 
0.0 0.0 -8.959277352460e-04 
-9.682355907570e-04 -9.235019684024e-05 0.0 
-9.235019684024e-05 6.375436758553e-03 0.0 
0.0 0.0 -9.610467530554e-04 
-1.034301386645e-03 -8.131875668406e-05 0.0 
-8.131875668406e-05 6.841207604472e-03 0.0 
0.0 0.0 -1.026987810050e-03 
-1.084652817885e-03 -8.917462571028e-05 0.0 
-8.917462571028e-05 7.307643626561e-03 0.0 
0.0 0.0 -1.092790196867e-03 
-1.153469442186e-03 -7.930470280158e-05 0.0 
-7.930470280158e-05 7.768901773096e-03 0.0 
0.0 0.0 -1.158290425478e-03 
-1.218602686822e-03 -9.135197616377e-05 0.0 
-9.135197616377e-05 8.209166370611e-03 0.0 
0.0 0.0 -1.224481705251e-03 
-1.280117147855e-03 -1.008986322443e-04 0.0 
-1.008986322443e-04 8.709401710635e-03 0.0 
0.0 0.0 -1.288782062784e-03 
-1.752208263150e-05 3.240785673635e-05 0.0 
3.240785673635e-05 1.037696529891e-04 0.0 
0.0 0.0 -2.939528373048e-05 
-6.988773384999e-04 -6.414203901464e-06 0.0 
-6.414203901464e-06 4.541118799231e-03 0.0 
0.0 0.0 -6.945495707198e-04 
-1.068839245990e-04 4.195670543775e-05 0.0 
4.195670543775e-05 4.592598232628e-04 0.0 
0.0 0.0 -1.088012745759e-04 
-1.837805977244e-04 6.636119579704e-05 0.0 
6.636119579704e-05 9.280212819520e-04 0.0 
0.0 0.0 -1.795578361538e-04 
-2.541701604252e-04 6.773423425563e-05 0.0 
6.773423425563e-05 1.406381745625e-03 0.0 
0.0 0.0 -2.466011808795e-04 
-3.115492916812e-04 4.894854322312e-05 0.0 
4.894854322312e-05 1.833748522690e-03 0.0 
0.0 0.0 -3.092703671679e-04 
-3.467236823258e-04 1.624238360765e-05 0.0 
1.624238360765e-05 2.160989176577e-03 0.0 
0.0 0.0 -3.576084760620e-04 
-4.034182833337e-04 -4.200861776885e-06 0.0 
-4.200861776885e-06 2.629562399745e-03 0.0 
0.0 0.0 -4.246591878591e-04 
-4.761223259385e-04 6.452176695320e-07 0.0 
6.452176695320e-07 3.097474449594e-03 0.0 
0.0 0.0 -4.913636896408e-04 
-5.446829016033e-04 3.333337451862e-07 0.0 
3.333337451862e-07 3.565252150871e-03 0.0 
0.0 0.0 -5.580753662734e-04 
-6.120040484323e-04 -3.148004277967e-06 0.0 
-3.148004277967e-06 4.032884488981e-03 0.0 
0.0 0.0 -6.248674136757e-04 
-2.943841271753e-04 -2.027171959311e-04 0.0 
-2.027171959311e-04 1.938343519250e-03 0.0 
0.0 0.0 -3.155555555556e-04 
-3.640335269792e-04 -1.647957464760e-04 0.0 
-1.647957464760e-04 2.201281042858e-03 0.0 
0.0 0.0 -3.600000000000e-04 
-4.304425780172e-04 -2.046254239307e-04 0.0 
-2.046254239307e-04 2.664768429398e-03 0.0 
0.0 0.0 -4.266666666667e-04 
-4.966420638955e-04 -1.663109596129e-04 0.0 
-1.663109596129e-04 3.128374407042e-03 0.0 
0.0 0.0 -4.933333333333e-04 
-5.622839918589e-04 -2.001712001391e-04 0.0 
-2.001712001391e-04 3.590232611973e-03 0.0 
0.0 0.0 -5.600000000000e-04 
-6.246804992585e-04 -1.417515320003e-04 0.0 
-1.417515320003e-04 4.042867570769e-03 0.0 
0.0 0.0 -6.266666666667e-04 
-6.913130996728e-04 5.498609571761e-05 0.0 
5.498609571761e-05 4.454824349021e-03 0.0 
0.0 0.0 -6.874962403976e-04 
-6.868874145390e-04 4.265374631601e-06 0.0 
4.265374631601e-06 4.486723904769e-03 0.0 
0.0 0.0 -6.910932206029e-04 
-6.934978988668e-04 4.367505525864e-06 0.0 
4.367505525864e-06 4.491335876748e-03 0.0 
0.0 0.0 -6.911911970487e-04 
-6.907997940409e-04 -7.067285999277e-06 0.0 
-7.067285999277e-06 4.485601554890e-03 0.0 
0.0 0.0 -6.903356507966e-04 
-6.907918205776e-04 4.658551261973e-06 0.0 
4.658551261973e-06 4.562156077984e-03 0.0 
0.0 0.0 -6.980756478071e-04 
-6.892878188424e-04 5.414637571102e-06 0.0 
5.414637571102e-06 4.494915586897e-03 0.0 
0.0 0.0 -6.911448554634e-04 
-6.797647522223e-04 -6.151835168552e-06 0.0 
-6.151835168552e-06 4.487621365133e-03 0.0 
0.0 0.0 -6.903833977050e-04 
-6.832908759363e-04 1.181523808998e-05 0.0 
1.181523808998e-05 4.498914041665e-03 0.0 
0.0 0.0 -6.905588330458e-04 
-6.949806625349e-04 2.423611152461e-06 0.0 
2.423611152461e-06 4.508372842652e-03 0.0 
0.0 0.0 -6.922444453805e-04 
-6.970682970385e-04 1.264857313788e-05 0.0 
1.264857313788e-05 4.510203072304e-03 0.0 
0.0 0.0 -6.916098530255e-04 
-6.888508586807e-04 7.096050779000e-06 0.0 
7.096050779000e-06 4.506612582973e-03 0.0 
0.0 0.0 -6.911665914957e-04 
-6.923116819991e-04 3.442306794751e-06 0.0 
3.442306794751e-06 4.500662587744e-03 0.0 
0.0 0.0 -6.911615840689e-04 
-6.874005628903e-04 1.547082050475e-05 0.0 
1.547082050475e-05 4.496710901947e-03 0.0 
0.0 0.0 -6.914992001314e-04 
-6.904170598993e-04 2.109837221793e-05 0.0 
2.109837221793e-05 4.507680445908e-03 0.0 
0.0 0.0 -6.922481495424e-04 
-2.592440264177e-05 -1.590076434165e-05 0.0 
-1.590076434165e-05 1.361807839618e-04 0.0 
0.0 0.0 -2.981554499673e-05 
-3.446067835928e-05 -4.722769695024e-06 0.0 
-4.722769695024e-06 1.514232641040e-04 0.0 
0.0 0.0 -3.001360406192e-05 
-1.576164107189e-05 6.855840384423e-06 0.0 
6.855840384423e-06 1.420727738414e-04 0.0 
0.0 0.0 -2.891678940537e-05 
-1.058332407333e-05 -2.088674468884e-05 0.0 
-2.088674468884e-05 1.367187831327e-04 0.0 
0.0 0.0 -2.889836327124e-05 
-3.364373544555e-05 -3.089965635262e-05 0.0 
-3.089965635262e-05 1.595260388365e-04 0.0 
0.0 0.0 -3.040745255895e-05 
-4.176671741939e-05 -6.138377296836e-06 0.0 
-6.138377296836e-06 1.798263625009e-04 0.0 
0.0 0.0 -3.068777868300e-05 
-3.824342451589e-05 5.591674158895e-07 0.0 
5.591674158895e-07 1.791426173783e-04 0.0 
0.0 0.0 -3.058835961954e-05 
-3.226360630243e-05 -1.341036859016e-06 0.0 
-1.341036859016e-06 1.722310666212e-04 0.0 
0.0 0.0 -3.053879953887e-05 
-3.075195274388e-05 -3.753502375142e-06 0.0 
-3.753502375142e-06 1.736984769829e-04 0.0 
0.0 0.0 -3.044251428418e-05 
-2.638860610350e-05 -7.894449171776e-06 0.0 
-7.894449171776e-06 1.709687444737e-04 0.0 
0.0 0.0 -3.048531495051e-05 
-2.681419529697e-05 -1.626482453994e-05 0.0 
-1.626482453994e-05 1.776638784057e-04 0.0 
0.0 0.0 -3.060061046523e-05 
-4.178895109067e-05 4.651397470065e-06 0.0 
4.651397470065e-06 1.936858804511e-04 0.0 
0.0 0.0 -3.133350520012e-05 
-3.584663091306e-05 2.920944978623e-05 0.0 
2.920944978623e-05 1.814285478668e-04 0.0 
0.0 0.0 -3.101487170496e-05 
-1.892508329037e-05 9.286208390908e-06 0.0 
9.286208390908e-06 1.578481945027e-04 0.0 
0.0 0.0 -3.010388419214e-05 
-2.660519595212e-05 -4.398298942796e-06 0.0 
-4.398298942796e-06 1.591906609278e-04 0.0 
0.0 0.0 -3.041972112533e-05 
-4.134075465171e-05 1.617060886407e-06 0.0 
1.617060886407e-06 1.756452327158e-04 0.0 
0.0 0.0 -3.060566238437e-05 
-4.636580504519e-05 5.643116689764e-06 0.0 
5.643116689764e-06 1.798643178415e-04 0.0 
0.0 0.0 -3.058114983003e-05 
-3.066571027206e-05 2.752472550757e-05 0.0 
2.752472550757e-05 1.500341931888e-04 0.0 
0.0 0.0 -3.041506914824e-05 
-1.475246436927e-05 4.693943976204e-06 0.0 
4.693943976204e-06 1.322021267256e-04 0.0 
0.0 0.0 -2.944997384815e-05 
-3.376526747810e-04 7.694538375594e-05 0.0 
7.694538375594e-05 2.031816859109e-03 0.0 
0.0 0.0 -3.211111111111e-04 
-3.241115217613e-04 1.772933844285e-05 0.0 
1.772933844285e-05 2.017520555427e-03 0.0 
0.0 0.0 -3.229629629630e-04 
-3.234581304702e-04 -1.555049824813e-06 0.0 
-1.555049824813e-06 2.010986882864e-03 0.0 
0.0 0.0 -3.229629629630e-04 
-3.237787476884e-04 -3.359463521879e-06 0.0 
-3.359463521879e-06 2.010782231290e-03 0.0 
0.0 0.0 -3.229629629630e-04 
-3.244697793584e-04 -3.793402019158e-06 0.0 
-3.793402019158e-06 2.011406257075e-03 0.0 
0.0 0.0 -3.229629629630e-04 
-3.251755445811e-04 -3.990821487600e-06 0.0 
-3.990821487600e-06 2.012120405171e-03 0.0 
0.0 0.0 -3.229629629630e-04 
-3.257108401680e-04 -4.144079621719e-06 0.0 
-4.144079621719e-06 2.012624613347e-03 0.0 
0.0 0.0 -3.229629629630e-04 
-3.259973435855e-04 -4.127533488010e-06 0.0 
-4.127533488010e-06 2.012841759253e-03 0.0 
0.0 0.0 -3.229629629630e-04 
-3.261290302710e-04 -3.864656423820e-06 0.0 
-3.864656423820e-06 2.012845434775e-03 0.0 
0.0 0.0 -3.229629629630e-04 
-3.261634055132e-04 -3.331961941071e-06 0.0 
-3.331961941071e-06 2.012683831344e-03 0.0 
0.0 0.0 -3.229629629630e-04 
-3.261228987455e-04 -2.554403426601e-06 0.0 
-2.554403426601e-06 2.012389740488e-03 0.0 
0.0 0.0 -3.229629629630e-04 
-3.259480721875e-04 -1.452741980739e-06 0.0 
-1.452741980739e-06 2.011933672793e-03 0.0 
0.0 0.0 -3.229629629630e-04 
-3.257161735644e-04 4.227496914304e-07 0.0 
4.227496914304e-07 2.011641766521e-03 0.0 
0.0 0.0 -3.229629629630e-04 
-3.258314362534e-04 2.353245470635e-06 0.0 
2.353245470635e-06 2.011702516214e-03 0.0 
0.0 0.0 -3.229629629630e-04 
-3.261958731599e-04 4.499810978475e-06 0.0 
4.499810978475e-06 2.012400470627e-03 0.0 
0.0 0.0 -3.229629629630e-04 
-3.268488254454e-04 4.592338376199e-06 0.0 
4.592338376199e-06 2.012759463589e-03 0.0 
0.0 0.0 -3.229629629630e-04 
-3.267204764273e-04 6.702567599880e-06 0.0 
6.702567599880e-06 2.013977296178e-03 0.0 
0.0 0.0 -3.229629629630e-04 
-3.276901551616e-04 3.273719415494e-06 0.0 
3.273719415494e-06 2.013394576620e-03 0.0 
0.0 0.0 -3.229629629630e-04 
-3.255753538833e-04 9.401125701014e-06 0.0 
9.401125701014e-06 2.015759199647e-03 0.0 
0.0 0.0 -3.229629629630e-04 
-3.290418001751e-04 -2.060078796412e-06 0.0 
-2.060078796412e-06 2.010578916076e-03 0.0 
0.0 0.0 -3.229629629630e-04 
-3.144274761566e-04 2.897187263062e-05 0.0 
2.897187263062e-05 2.015224260826e-03 0.0 
0.0 0.0 -3.229629629630e-04 
-3.145414159461e-04 -2.317599591154e-05 0.0 
-2.317599591154e-05 1.995920985861e-03 0.0 
0.0 0.0 -3.202324263039e-04 
-2.460409106394e-04 3.186551668360e-07 0.0 
3.186551668360e-07 1.818159311872e-03 0.0 
0.0 0.0 -3.069765684051e-04 
-3.075534139628e-04 2.412740121268e-05 0.0 
2.412740121268e-05 2.105219673239e-03 0.0 
0.0 0.0 -3.519676952907e-04 
-3.514953782150e-04 -6.121431231864e-06 0.0 
-6.121431231864e-06 2.223151637376e-03 0.0 
0.0 0.0 -3.626389769158e-04 
-3.587315693994e-04 1.096665782617e-05 0.0 
1.096665782617e-05 2.201776320981e-03 0.0 
0.0 0.0 -3.600000000000e-04 
-3.644459387370e-04 2.098126894678e-06 0.0 
2.098126894678e-06 2.197482783051e-03 0.0 
0.0 0.0 -3.600000000000e-04 
-3.637653208407e-04 5.938369815788e-06 0.0 
5.938369815788e-06 2.200852497904e-03 0.0 
0.0 0.0 -3.600000000000e-04 
-3.646562371603e-04 4.863047388731e-06 0.0 
4.863047388731e-06 2.198597723898e-03 0.0 
0.0 0.0 -3.600000000000e-04 
-3.637142436613e-04 5.528885479162e-06 0.0 
5.528885479162e-06 2.198572806408e-03 0.0 
0.0 0.0 -3.600000000000e-04 
-3.631451218202e-04 4.030632283913e-06 0.0 
4.030632283913e-06 2.197230825920e-03 0.0 
0.0 0.0 -3.600000000000e-04 
-3.626391425452e-04 1.799883791411e-06 0.0 
1.799883791411e-06 2.196963521096e-03 0.0 
0.0 0.0 -3.600000000000e-04 
-3.629347040582e-04 -6.248683364205e-07 0.0 
-6.248683364205e-07 2.197222075070e-03 0.0 
0.0 0.0 -3.600000000000e-04 
-3.632350885949e-04 -1.950524288124e-06 0.0 
-1.950524288124e-06 2.197839748043e-03 0.0 
0.0 0.0 -3.600000000000e-04 
-3.632347660019e-04 -2.695279989995e-06 0.0 
-2.695279989995e-06 2.198148142526e-03 0.0 
0.0 0.0 -3.600000000000e-04 
-3.631062498386e-04 -3.344861292403e-06 0.0 
-3.344861292403e-06 2.198321706153e-03 0.0 
0.0 0.0 -3.600000000000e-04 
-3.629810469011e-04 -3.774035134459e-06 0.0 
-3.774035134459e-06 2.198420640153e-03 0.0 
0.0 0.0 -3.600000000000e-04 
-3.627935109947e-04 -3.861239186004e-06 0.0 
-3.861239186004e-06 2.198346847940e-03 0.0 
0.0 0.0 -3.600000000000e-04 
-3.623659696942e-04 -3.546956865480e-06 0.0 
-3.546956865480e-06 2.197968515867e-03 0.0 
0.0 0.0 -3.600000000000e-04 
-3.616855162426e-04 -3.197901034564e-06 0.0 
-3.197901034564e-06 2.197284235415e-03 0.0 
0.0 0.0 -3.600000000000e-04 
-3.610100603434e-04 -2.926270428563e-06 0.0 
-2.926270428563e-06 2.196608022425e-03 0.0 
0.0 0.0 -3.600000000000e-04 
-3.605838742006e-04 -2.658699863657e-06 0.0 
-2.658699863657e-06 2.196334608217e-03 0.0 
0.0 0.0 -3.600000000000e-04 
-3.608368736122e-04 -2.739324103129e-06 0.0 
-2.739324103129e-06 2.197020254621e-03 0.0 
0.0 0.0 -3.600000000000e-04 
-3.621715591980e-04 -7.667076261664e-06 0.0 
-7.667076261664e-06 2.198997385104e-03 0.0 
0.0 0.0 -3.600000000000e-04 
-3.636156739340e-04 1.080730155248e-04 0.0 
1.080730155248e-04 2.200856497118e-03 0.0 
0.0 0.0 -3.600000000000e-04 
-4.299402721253e-04 7.347302390735e-05 0.0 
7.347302390735e-05 2.663982272909e-03 0.0 
0.0 0.0 -4.266666666667e-04 
-4.281937864377e-04 1.451679010042e-05 0.0 
1.451679010042e-05 2.661695578936e-03 0.0 
0.0 0.0 -4.266666666667e-04 
-4.272255423018e-04 -2.022714610604e-06 0.0 
-2.022714610604e-06 2.660645160847e-03 0.0 
0.0 0.0 -4.266666666667e-04 
-4.272027915600e-04 -2.022654054614e-06 0.0 
-2.022654054614e-06 2.660662658724e-03 0.0 
0.0 0.0 -4.266666666667e-04 
-4.275839105044e-04 -1.776178352994e-06 0.0 
-1.776178352994e-06 2.661218520015e-03 0.0 
0.0 0.0 -4.266666666667e-04 
-4.282801255787e-04 -1.791669274209e-06 0.0 
-1.791669274209e-06 2.662030669155e-03 0.0 
0.0 0.0 -4.266666666667e-04 
-4.290001024384e-04 -2.498947391507e-06 0.0 
-2.498947391507e-06 2.662671095001e-03 0.0 
0.0 0.0 -4.266666666667e-04 
-4.292899889364e-04 -3.096368850652e-06 0.0 
-3.096368850652e-06 2.662653268105e-03 0.0 
0.0 0.0 -4.266666666667e-04 
-4.293129381118e-04 -2.811819826595e-06 0.0 
-2.811819826595e-06 2.662413292682e-03 0.0 
0.0 0.0 -4.266666666667e-04 
-4.297697120826e-04 -2.022907387695e-06 0.0 
-2.022907387695e-06 2.662395731629e-03 0.0 
0.0 0.0 -4.266666666667e-04 
-4.302589968875e-04 -1.629717038756e-06 0.0 
-1.629717038756e-06 2.662394761870e-03 0.0 
0.0 0.0 -4.266666666667e-04 
-4.302560929618e-04 -1.576122482626e-06 0.0 
-1.576122482626e-06 2.661898826988e-03 0.0 
0.0 0.0 -4.266666666667e-04 
-4.295703799059e-04 -3.345604087348e-07 0.0 
-3.345604087348e-07 2.660486684286e-03 0.0 
0.0 0.0 -4.266666666667e-04 
-4.292671254284e-04 3.968937228662e-06 0.0 
3.968937228662e-06 2.660659650919e-03 0.0 
0.0 0.0 -4.266666666667e-04 
-4.306471619154e-04 5.513996825656e-06 0.0 
5.513996825656e-06 2.661538482777e-03 0.0 
0.0 0.0 -4.266666666667e-04 
-4.319020466916e-04 7.766791381143e-06 0.0 
7.766791381143e-06 2.665023339729e-03 0.0 
0.0 0.0 -4.266666666667e-04 
-4.328473215747e-04 8.154616711599e-07 0.0 
8.154616711599e-07 2.662572037119e-03 0.0 
0.0 0.0 -4.266666666667e-04 
-4.258499713217e-04 1.095715842585e-05 0.0 
1.095715842585e-05 2.664926400988e-03 0.0 
0.0 0.0 -4.266666666667e-04 
-4.219848975642e-04 -8.971773474751e-06 0.0 
-8.971773474751e-06 2.691197449249e-03 0.0 
0.0 0.0 -4.293391642371e-04 
-3.746379728483e-04 4.166569321879e-06 0.0 
4.166569321879e-06 2.570236127041e-03 0.0 
0.0 0.0 -4.186734693878e-04 
-4.417760951276e-04 9.193159012164e-06 0.0 
9.193159012164e-06 3.032321566953e-03 0.0 
0.0 0.0 -4.852947845805e-04 
-4.904405177128e-04 -1.236587849360e-05 0.0 
-1.236587849360e-05 3.156055993877e-03 0.0 
0.0 0.0 -4.959669582118e-04 
-4.967982216663e-04 1.212517501771e-05 0.0 
1.212517501771e-05 3.134098180657e-03 0.0 
0.0 0.0 -4.933333333333e-04 
-5.004792842088e-04 7.599146367873e-06 0.0 
7.599146367873e-06 3.126678995157e-03 0.0 
0.0 0.0 -4.933333333333e-04 
-4.960205318575e-04 8.775115201583e-06 0.0 
8.775115201583e-06 3.126031319544e-03 0.0 
0.0 0.0 -4.933333333333e-04 
-4.965309946115e-04 8.850955263562e-07 0.0 
8.850955263562e-07 3.123763413131e-03 0.0 
0.0 0.0 -4.933333333333e-04 
-4.975874164433e-04 -1.339673929105e-06 0.0 
-1.339673929105e-06 3.126915566987e-03 0.0 
0.0 0.0 -4.933333333333e-04 
-4.976423867724e-04 -5.110045370361e-07 0.0 
-5.110045370361e-07 3.127848901976e-03 0.0 
0.0 0.0 -4.933333333333e-04 
-4.971264610240e-04 4.324488760150e-07 0.0 
4.324488760150e-07 3.127700753298e-03 0.0 
0.0 0.0 -4.933333333333e-04 
-4.956643920610e-04 -1.986474812840e-07 0.0 
-1.986474812840e-07 3.126840649999e-03 0.0 
0.0 0.0 -4.933333333333e-04 
-4.952008726881e-04 -2.496870911378e-06 0.0 
-2.496870911378e-06 3.127189740971e-03 0.0 
0.0 0.0 -4.933333333333e-04 
-4.957950968529e-04 -2.119478958571e-06 0.0 
-2.119478958571e-06 3.128109892710e-03 0.0 
0.0 0.0 -4.933333333333e-04 
-4.947282309581e-04 -5.907354459318e-07 0.0 
-5.907354459318e-07 3.127398294072e-03 0.0 
0.0 0.0 -4.933333333333e-04 
-4.939115212163e-04 -6.664772443702e-07 0.0 
-6.664772443702e-07 3.126242560420e-03 0.0 
0.0 0.0 -4.933333333333e-04 
-4.934010452771e-04 -1.579724324248e-06 0.0 
-1.579724324248e-06 3.125563968915e-03 0.0 
0.0 0.0 -4.933333333333e-04 
-4.934695658845e-04 -2.572403036763e-06 0.0 
-2.572403036763e-06 3.125197225552e-03 0.0 
0.0 0.0 -4.933333333333e-04 
-4.937822211755e-04 -5.749801901555e-06 0.0 
-5.749801901555e-06 3.125650090747e-03 0.0 
0.0 0.0 -4.933333333333e-04 
-4.958153218285e-04 -1.294595170896e-05 0.0 
-1.294595170896e-05 3.127747100962e-03 0.0 
0.0 0.0 -4.933333333333e-04 
-4.967157033350e-04 1.051029907090e-04 0.0 
1.051029907090e-04 3.128775367421e-03 0.0 
0.0 0.0 -4.933333333333e-04 
-5.657042211009e-04 7.172061321590e-05 0.0 
7.172061321590e-05 3.594572891729e-03 0.0 
0.0 0.0 -5.600000000000e-04 
-5.606564277313e-04 6.276433509278e-06 0.0 
6.276433509278e-06 3.589330402058e-03 0.0 
0.0 0.0 -5.600000000000e-04 
-5.593036989964e-04 -4.014653548484e-06 0.0 
-4.014653548484e-06 3.587906727700e-03 0.0 
0.0 0.0 -5.600000000000e-04 
-5.598957549004e-04 -3.280148762663e-06 0.0 
-3.280148762663e-06 3.589229298695e-03 0.0 
0.0 0.0 -5.600000000000e-04 
-5.585733264525e-04 -8.759229214119e-07 0.0 
-8.759229214119e-07 3.588940559384e-03 0.0 
0.0 0.0 -5.600000000000e-04 
-5.598002868746e-04 8.805971940518e-07 0.0 
8.805971940518e-07 3.590399635312e-03 0.0 
0.0 0.0 -5.600000000000e-04 
-5.606115027377e-04 2.079665756954e-06 0.0 
2.079665756954e-06 3.592266060973e-03 0.0 
0.0 0.0 -5.600000000000e-04 
-5.616801369451e-04 -2.737332668784e-06 0.0 
-2.737332668784e-06 3.592113678054e-03 0.0 
0.0 0.0 -5.600000000000e-04 
-5.603339834742e-04 8.452896902541e-07 0.0 
8.452896902541e-07 3.589104110670e-03 0.0 
0.0 0.0 -5.600000000000e-04 
-5.630816852247e-04 4.954130230072e-06 0.0 
4.954130230072e-06 3.591539403390e-03 0.0 
0.0 0.0 -5.600000000000e-04 
-5.648651149250e-04 2.409580910918e-06 0.0 
2.409580910918e-06 3.593050534195e-03 0.0 
0.0 0.0 -5.600000000000e-04 
-5.645521133458e-04 1.176363961043e-06 0.0 
1.176363961043e-06 3.591815920478e-03 0.0 
0.0 0.0 -5.600000000000e-04 
-5.658777849897e-04 2.204939376287e-07 0.0 
2.204939376287e-07 3.591458064609e-03 0.0 
0.0 0.0 -5.600000000000e-04 
-5.646691075266e-04 1.488981984683e-06 0.0 
1.488981984683e-06 3.584085442749e-03 0.0 
0.0 0.0 -5.600000000000e-04 
-5.620855148441e-04 2.241238949402e-05 0.0 
2.241238949402e-05 3.592013185388e-03 0.0 
0.0 0.0 -5.600000000000e-04 
-5.610961373632e-04 -4.661019393868e-06 0.0 
-4.661019393868e-06 3.625654344184e-03 0.0 
0.0 0.0 -5.626724975705e-04 
-5.133198511328e-04 5.424589988201e-06 0.0 
5.424589988201e-06 3.504617598641e-03 0.0 
0.0 0.0 -5.520068027211e-04 
-5.819676487161e-04 1.621050128555e-05 0.0 
1.621050128555e-05 3.968047816961e-03 0.0 
0.0 0.0 -6.186195084094e-04 
-6.343601883410e-04 -2.324978129531e-06 0.0 
-2.324978129531e-06 4.083322615344e-03 0.0 
0.0 0.0 -6.292929119699e-04 
-6.353679309005e-04 1.165699384269e-05 0.0 
1.165699384269e-05 4.057988551565e-03 0.0 
0.0 0.0 -6.266666666667e-04 
-6.295881338101e-04 1.024053571253e-05 0.0 
1.024053571253e-05 4.054182088558e-03 0.0 
0.0 0.0 -6.266666666667e-04 
-6.303664344858e-04 2.787103354690e-06 0.0 
2.787103354690e-06 4.057331405365e-03 0.0 
0.0 0.0 -6.266666666667e-04 
-6.305754933791e-04 7.671505889748e-06 0.0 
7.671505889748e-06 4.059447051202e-03 0.0 
0.0 0.0 -6.266666666667e-04 
-6.287463439775e-04 1.022004490749e-05 0.0 
1.022004490749e-05 4.054187203252e-03 0.0 
0.0 0.0 -6.266666666667e-04 
-6.280820473115e-04 -9.030982197207e-07 0.0 
-9.030982197207e-07 4.053941923266e-03 0.0 
0.0 0.0 -6.266666666667e-04 
-6.225272954157e-04 4.628296295730e-06 0.0 
4.628296295730e-06 4.057329077379e-03 0.0 
0.0 0.0 -6.266666666667e-04 
-6.249534833788e-04 2.617162154286e-07 0.0 
2.617162154286e-07 4.054948637219e-03 0.0 
0.0 0.0 -6.266666666667e-04 
-6.238122874528e-04 2.229418647887e-06 0.0 
2.229418647887e-06 4.053346801204e-03 0.0 
0.0 0.0 -6.266666666667e-04 
-6.234471408791e-04 -7.779197921562e-06 0.0 
-7.779197921562e-06 4.052220848929e-03 0.0 
0.0 0.0 -6.266666666667e-04 
-6.264844917596e-04 -3.145348627973e-06 0.0 
-3.145348627973e-06 4.054722692316e-03 0.0 
0.0 0.0 -6.266666666667e-04 
-6.251160575235e-04 -9.858748009992e-06 0.0 
-9.858748009992e-06 4.049423160403e-03 0.0 
0.0 0.0 -6.266666666667e-04 
-6.286316808085e-04 -3.394218781006e-05 0.0 
-3.394218781006e-05 4.059813257993e-03 0.0 
0.0 0.0 -6.266666666667e-04 
-6.381641142780e-04 1.124153375324e-04 0.0 
1.124153375324e-04 4.068774124134e-03 0.0 
0.0 0.0 -6.266666666667e-04 
-6.112648154112e-05 2.057582376636e-05 0.0 
2.057582376636e-05 2.373049901764e-04 0.0 
0.0 0.0 -7.119425116786e-05 
-1.546216371726e-04 6.400049167798e-05 0.0 
6.400049167798e-05 7.010998205819e-04 0.0 
0.0 0.0 -1.457676002711e-04 
-2.180259668060e-04 8.313364542154e-05 0.0 
8.313364542154e-05 1.168903010383e-03 0.0 
0.0 0.0 -2.130143027807e-04 
-2.888761379291e-04 8.199755792821e-05 0.0 
8.199755792821e-05 1.646730006385e-03 0.0 
0.0 0.0 -2.801731950103e-04 
-2.992106949204e-04 1.746855033810e-05 0.0 
1.746855033810e-05 1.971118758993e-03 0.0 
0.0 0.0 -3.310903933743e-04 
-3.554966514658e-04 3.194346604773e-05 0.0 
3.194346604773e-05 2.438311747236e-03 0.0 
0.0 0.0 -3.977576770754e-04 
-4.339038949759e-04 2.050581845428e-05 0.0 
2.050581845428e-05 2.896351248714e-03 0.0 
0.0 0.0 -4.650267612653e-04 
-4.998008163795e-04 2.874356037187e-05 0.0 
2.874356037187e-05 3.362017349155e-03 0.0 
0.0 0.0 -5.317697887215e-04 
-5.672864552025e-04 2.278912112824e-05 0.0 
2.278912112824e-05 3.826790215475e-03 0.0 
0.0 0.0 -5.985602557689e-04 
-6.332370943917e-04 2.492629895562e-05 0.0 
2.492629895562e-05 4.302559779817e-03 0.0 
0.0 0.0 -6.652967104836e-04 
-1.935964666812e-04 2.967460992407e-06 0.0 
2.967460992407e-06 9.892888486110e-04 0.0 
0.0 0.0 -1.870278901045e-04 
-1.298255034363e-03 -1.439677610189e-05 0.0 
-1.439677610189e-05 8.770849623045e-03 0.0 
0.0 0.0 -1.303388942653e-03 
-5.711706292197e-05 -1.132529147629e-05 0.0 
-1.132529147629e-05 2.965576224762e-04 0.0 
0.0 0.0 -5.718844814379e-05 
-5.424579011880e-05 -2.911933097956e-05 0.0 
-2.911933097956e-05 2.725297638318e-04 0.0 
0.0 0.0 -5.560925106412e-05 
-1.303094143304e-03 2.083700262778e-05 0.0 
2.083700262778e-05 8.775603321897e-03 0.0 
0.0 0.0 -1.303360877099e-03 
-3.337502689384e-04 2.573658945222e-05 0.0 
2.573658945222e-05 1.945399262405e-03 0.0 
0.0 0.0 -3.213286234882e-04 
-7.420382513691e-04 -8.331648497414e-06 0.0 
-8.331648497414e-06 4.783425200817e-03 0.0 
0.0 0.0 -7.300567563597e-04 
-1.300502925116e-03 1.312346542061e-05 0.0 
1.312346542061e-05 8.760360600138e-03 0.0 
0.0 0.0 -1.300998267065e-03 
-4.558051091763e-04 -3.180946065222e-05 0.0 
-3.180946065222e-05 2.815581106164e-03 0.0 
0.0 0.0 -4.497936382440e-04 
-1.301730818783e-03 3.906861163017e-06 0.0 
3.906861163017e-06 8.781071212001e-03 0.0 
0.0 0.0 -1.304014651794e-03 
-5.931132187702e-04 3.451249603908e-06 0.0 
3.451249603908e-06 3.770920661498e-03 0.0 
0.0 0.0 -5.857980290939e-04 
-1.294626432424e-03 1.231524946245e-05 0.0 
1.231524946245e-05 8.803233335001e-03 0.0 
0.0 0.0 -1.307658508868e-03 
-5.100449476861e-05 8.243347627880e-06 0.0 
8.243347627880e-06 2.661035943334e-04 0.0 
0.0 0.0 -5.457498774670e-05 
-1.304712708061e-03 6.002193481844e-06 0.0 
6.002193481844e-06 8.782841008775e-03 0.0 
0.0 0.0 -1.304481600125e-03 
-7.263025570844e-04 1.579439830822e-05 0.0 
1.579439830822e-05 4.732739805173e-03 0.0 
0.0 0.0 -7.203075318094e-04 
-4.572752679378e-04 6.754709539201e-06 0.0 
6.754709539201e-06 2.913924238746e-03 0.0 
0.0 0.0 -4.640473930190e-04 
-9.144584483085e-04 1.326427603797e-05 0.0 
1.326427603797e-05 6.048992087784e-03 0.0 
0.0 0.0 -9.125512086551e-04 
-1.295486455605e-03 -9.635721854313e-06 0.0 
-9.635721854313e-06 8.767400550756e-03 0.0 
0.0 0.0 -1.301280071178e-03 
-1.304620553661e-03 1.736330334078e-05 0.0 
1.736330334078e-05 8.785218481020e-03 0.0 
0.0 0.0 -1.304294760550e-03 
-1.308798115864e-03 -1.758872586471e-05 0.0 
-1.758872586471e-05 8.782113468746e-03 0.0 
0.0 0.0 -1.303238611779e-03 
-1.297364651419e-03 1.079949245934e-05 0.0 
1.079949245934e-05 8.741492182536e-03 0.0 
0.0 0.0 -1.297727402575e-03 
-1.310467176952e-03 -2.184753791197e-05 0.0 
-2.184753791197e-05 8.795852425490e-03 0.0 
0.0 0.0 -1.305306183856e-03 
-7.504043158260e-04 1.146340899481e-05 0.0 
1.146340899481e-05 4.928957716144e-03 0.0 
0.0 0.0 -7.522011426764e-04 
-7.523353912947e-04 1.162137769558e-05 0.0 
1.162137769558e-05 4.926512636401e-03 0.0 
0.0 0.0 -7.529849494387e-04 
-7.546537283985e-04 -1.241349829193e-05 0.0 
-1.241349829193e-05 4.950472109635e-03 0.0 
0.0 0.0 -7.580270452736e-04 
-9.976077557881e-04 -3.465320003210e-05 0.0 
-3.465320003210e-05 6.602229680106e-03 0.0 
0.0 0.0 -9.950081682429e-04 
-1.300592036334e-03 -1.108396441712e-05 0.0 
-1.108396441712e-05 8.788475349475e-03 0.0 
0.0 0.0 -1.302874185639e-03 
-4.947082956206e-05 -1.829296119633e-05 0.0 
-1.829296119633e-05 2.690780974868e-04 0.0 
0.0 0.0 -5.461765089471e-05 
-6.582489508632e-05 5.524694071877e-06 0.0 
5.524694071877e-06 3.064286723343e-04 0.0 
0.0 0.0 -5.841730026857e-05 
-1.120911548220e-03 -1.158571369170e-06 0.0 
-1.158571369170e-06 7.515613535503e-03 0.0 
0.0 0.0 -1.122886395833e-03 
-7.582082522979e-04 1.961281355472e-05 0.0 
1.961281355472e-05 4.902933380827e-03 0.0 
0.0 0.0 -7.500338828344e-04 
-2.694321437334e-04 2.278372598568e-06 0.0 
2.278372598568e-06 1.494554554088e-03 0.0 
0.0 0.0 -2.594501920933e-04 
-1.298427704971e-03 5.282056354371e-06 0.0 
5.282056354371e-06 8.696713485831e-03 0.0 
0.0 0.0 -1.293200138473e-03 
-1.306703206650e-03 1.354031549594e-05 0.0 
1.354031549594e-05 8.802982423650e-03 0.0 
0.0 0.0 -1.307307853467e-03 
-1.306558631645e-03 5.032010017816e-06 0.0 
5.032010017816e-06 8.775985095811e-03 0.0 
0.0 0.0 -1.304733450272e-03 
-1.299335994773e-03 1.249139207265e-05 0.0 
1.249139207265e-05 8.749655727550e-03 0.0 
0.0 0.0 -1.297928233296e-03 
-1.308929768589e-03 -1.641174944339e-05 0.0 
-1.641174944339e-05 8.785621003878e-03 0.0 
0.0 0.0 -1.305578568836e-03 
-6.266603041313e-05 2.501207789147e-06 0.0 
2.501207789147e-06 3.071735198218e-04 0.0 
0.0 0.0 -5.851952868525e-05 
-7.474245186294e-04 1.424161896041e-05 0.0 
1.424161896041e-05 4.916877911110e-03 0.0 
0.0 0.0 -7.500980793754e-04 
-1.296702677324e-03 1.017615489424e-05 0.0 
1.017615489424e-05 8.704965271547e-03 0.0 
0.0 0.0 -1.293180865222e-03 
-1.128899365850e-03 -3.031105506869e-05 0.0 
-3.031105506869e-05 7.537413441575e-03 0.0 
0.0 0.0 -1.123598490052e-03 
-5.732050020506e-05 -1.482205262673e-05 0.0 
-1.482205262673e-05 2.925850224953e-04 0.0 
0.0 0.0 -5.798785095130e-05 
-5.914251289981e-04 -6.471482804683e-06 0.0 
-6.471482804683e-06 3.820964198355e-03 0.0 
0.0 0.0 -5.937437734062e-04 
-1.319868342544e-03 -1.044247080549e-05 0.0 
-1.044247080549e-05 8.859569502417e-03 0.0 
0.0 0.0 -1.311981303940e-03 
-4.039407312574e-04 -1.513566039236e-05 0.0 
-1.513566039236e-05 2.425755132441e-03 0.0 
0.0 0.0 -3.897472533596e-04 
-2.622920170020e-04 7.443498411070e-06 0.0 
7.443498411070e-06 1.467365751784e-03 0.0 
0.0 0.0 -2.548795656134e-04 
-5.270389969687e-04 -7.501595445508e-06 0.0 
-7.501595445508e-06 3.294996993381e-03 0.0 
0.0 0.0 -5.178568985205e-04 
-6.568994839779e-04 -7.061170510206e-06 0.0 
-7.061170510206e-06 4.237934581571e-03 0.0 
0.0 0.0 -6.527703211191e-04 
-1.172487669236e-04 -1.455488225107e-05 0.0 
-1.455488225107e-05 4.809709659116e-04 0.0 
0.0 0.0 -1.118557093815e-04 
-8.696005125465e-04 -8.177489350844e-06 0.0 
-8.177489350844e-06 5.725890687358e-03 0.0 
0.0 0.0 -8.684787984471e-04 
-1.317974587429e-03 -1.269961975263e-05 0.0 
-1.269961975263e-05 8.865515668911e-03 0.0 
0.0 0.0 -1.313906642692e-03 
-5.185989643575e-05 2.926503183839e-05 0.0 
2.926503183839e-05 2.746618289318e-04 0.0 
0.0 0.0 -5.836448670120e-05 
-1.244012605559e-03 -1.337379541717e-07 0.0 
-1.337379541717e-07 8.417025004517e-03 0.0 
0.0 0.0 -1.253930875827e-03 
-7.490231005430e-04 1.074391793069e-05 0.0 
1.074391793069e-05 4.928373640173e-03 0.0 
0.0 0.0 -7.532271817479e-04 
-7.806985373677e-04 4.966139412135e-06 0.0 
4.966139412135e-06 5.109831204569e-03 0.0 
0.0 0.0 -7.809350190597e-04 
-8.062001814621e-04 2.173167671072e-05 0.0 
2.173167671072e-05 5.343609321704e-03 0.0 
0.0 0.0 -8.115578932774e-04 
-8.489268176994e-04 -8.110940848575e-06 0.0 
-8.110940848575e-06 5.566485028911e-03 0.0 
0.0 0.0 -8.428390908522e-04 
-8.804673106023e-04 1.251244415497e-07 0.0 
1.251244415497e-07 5.795279077470e-03 0.0 
0.0 0.0 -8.784658474099e-04 
-9.121627378672e-04 -7.430796722976e-06 0.0 
-7.430796722976e-06 6.000836909728e-03 0.0 
0.0 0.0 -9.060409163497e-04 
-8.756777626729e-04 -7.143189004739e-06 0.0 
-7.143189004739e-06 5.761383353658e-03 0.0 
0.0 0.0 -8.711257577414e-04 
-9.375016757268e-04 -9.018261483613e-06 0.0 
-9.018261483613e-06 6.200512371454e-03 0.0 
0.0 0.0 -9.341442283280e-04 
-9.034456709669e-04 -5.627619604468e-06 0.0 
-5.627619604468e-06 5.955351813444e-03 0.0 
0.0 0.0 -8.989774131092e-04 
-9.375397006910e-04 -9.487100187209e-06 0.0 
-9.487100187209e-06 6.248793060300e-03 0.0 
0.0 0.0 -9.415083590319e-04 
-9.651447206159e-04 -1.078565163388e-05 0.0 
-1.078565163388e-05 6.396664073005e-03 0.0 
0.0 0.0 -9.622976032585e-04 
-9.304266532056e-04 -6.330576673737e-06 0.0 
-6.330576673737e-06 6.148924780633e-03 0.0 
0.0 0.0 -9.268639294333e-04 
-9.923459703203e-04 -8.832674575543e-06 0.0 
-8.832674575543e-06 6.591396283472e-03 0.0 
0.0 0.0 -9.903372159162e-04 
-9.579486406670e-04 -6.976346530340e-06 0.0 
-6.976346530340e-06 6.343540435811e-03 0.0 
0.0 0.0 -9.547708836903e-04 
-8.957338589247e-04 -3.445195682082e-06 0.0 
-3.445195682082e-06 5.904490313780e-03 0.0 
0.0 0.0 -8.916807130884e-04 
-9.234034349690e-04 -3.140263271669e-06 0.0 
-3.140263271669e-06 6.097553141781e-03 0.0 
0.0 0.0 -9.194532194038e-04 
-8.597658352201e-04 -5.745984388493e-07 0.0 
-5.745984388493e-07 5.659471370407e-03 0.0 
0.0 0.0 -8.565021464485e-04 
-8.876676417698e-04 -1.521204235369e-06 0.0 
-1.521204235369e-06 5.852313305850e-03 0.0 
0.0 0.0 -8.841639842141e-04 
-9.508204613182e-04 -2.297031587581e-06 0.0 
-2.297031587581e-06 6.292146332209e-03 0.0 
0.0 0.0 -9.471984275390e-04 
-9.148993498348e-04 -3.275082318969e-06 0.0 
-3.275082318969e-06 6.045345094116e-03 0.0 
0.0 0.0 -9.118195294070e-04 
-8.520584533063e-04 -1.219021611582e-06 0.0 
-1.219021611582e-06 5.605756351829e-03 0.0 
0.0 0.0 -8.488396520500e-04 
-8.789321886970e-04 -2.050593653237e-06 0.0 
-2.050593653237e-06 5.797286878756e-03 0.0 
0.0 0.0 -8.764089341820e-04 
-8.161164546335e-04 3.435109532423e-07 0.0 
3.435109532423e-07 5.359457664966e-03 0.0 
0.0 0.0 -8.135623229517e-04 
-8.427829602136e-04 -1.073992276177e-06 0.0 
-1.073992276177e-06 5.550412011619e-03 0.0 
0.0 0.0 -8.410744910442e-04 
-7.803403629458e-04 1.482617335667e-07 0.0 
1.482617335667e-07 5.112144953619e-03 0.0 
0.0 0.0 -7.781617608290e-04 
-8.069161494671e-04 -9.832122125680e-07 0.0 
-9.832122125680e-07 5.303670065228e-03 0.0 
0.0 0.0 -8.056965831182e-04 
-8.693622760752e-04 -2.102828341516e-06 0.0 
-2.102828341516e-06 5.742393281941e-03 0.0 
0.0 0.0 -8.686949506212e-04 
-8.339431778097e-04 -6.526060623794e-07 0.0 
-6.526060623794e-07 5.495228078517e-03 0.0 
0.0 0.0 -8.332427817419e-04 
-7.711323033225e-04 2.736293389689e-07 0.0 
2.736293389689e-07 5.056666474078e-03 0.0 
0.0 0.0 -7.703313069557e-04 
-7.984646574761e-04 4.457733912313e-07 0.0 
4.457733912313e-07 5.248286890054e-03 0.0 
0.0 0.0 -7.977945042040e-04 
-7.355637814563e-04 1.290713586136e-06 0.0 
1.290713586136e-06 4.810484252267e-03 0.0 
0.0 0.0 -7.349073124327e-04 
-7.625544307913e-04 1.894462684370e-06 0.0 
1.894462684370e-06 4.999988831075e-03 0.0 
0.0 0.0 -7.622392297106e-04 
-8.257237067376e-04 1.120212681233e-06 0.0 
1.120212681233e-06 5.439584299338e-03 0.0 
0.0 0.0 -8.253152238873e-04 
-7.900934727742e-04 5.597935307123e-07 0.0 
5.597935307123e-07 5.191568262959e-03 0.0 
0.0 0.0 -7.896995018144e-04 
-7.266613947027e-04 4.187926819652e-07 0.0 
4.187926819652e-07 4.748654817893e-03 0.0 
0.0 0.0 -7.264132926704e-04 
-7.549260771137e-04 -7.052768559216e-07 0.0 
-7.052768559216e-07 4.942867002026e-03 0.0 
0.0 0.0 -7.539848323805e-04 
-6.914939078144e-04 -3.149044509648e-06 0.0 
-3.149044509648e-06 4.497991263930e-03 0.0 
0.0 0.0 -6.903858661722e-04 
-7.195945743336e-04 -6.350033788281e-09 0.0 
-6.350033788281e-09 4.694794432778e-03 0.0 
0.0 0.0 -7.182351804274e-04 
-6.554914090724e-04 -2.338725356815e-06 0.0 
-2.338725356815e-06 4.247612436471e-03 0.0 
0.0 0.0 -6.542402593883e-04 
-6.835277346368e-04 5.013350339312e-07 0.0 
5.013350339312e-07 4.443250069824e-03 0.0 
0.0 0.0 -6.821763112594e-04 
-7.475539329935e-04 -2.134179080111e-07 0.0 
-2.134179080111e-07 4.889262543532e-03 0.0 
0.0 0.0 -7.460902125261e-04 
-7.115638396740e-04 -9.716415015795e-07 0.0 
-9.716415015795e-07 4.638756710994e-03 0.0 
0.0 0.0 -7.100832486075e-04 
-6.472258987921e-04 -7.491708783287e-07 0.0 
-7.491708783287e-07 4.191362599469e-03 0.0 
0.0 0.0 -6.458624074531e-04 
-6.748538623222e-04 -1.344545062225e-06 0.0 
-1.344545062225e-06 4.385359401490e-03 0.0 
0.0 0.0 -6.737786430284e-04 
-7.391037565522e-04 -1.870094726740e-06 0.0 
-1.870094726740e-06 4.833803711944e-03 0.0 
0.0 0.0 -7.381473126730e-04 
-7.024920060125e-04 -1.771787760444e-06 0.0 
-1.771787760444e-06 4.579736205563e-03 0.0 
0.0 0.0 -7.017500108595e-04 
-7.668451599419e-04 -2.200372036207e-06 0.0 
-2.200372036207e-06 5.029184891420e-03 0.0 
0.0 0.0 -7.662494016216e-04 
-7.304037803270e-04 -1.328124908049e-06 0.0 
-1.328124908049e-06 4.775158829539e-03 0.0 
0.0 0.0 -7.297828278826e-04 
-6.661738894366e-04 -1.523527640999e-06 0.0 
-1.523527640999e-06 4.327585164653e-03 0.0 
0.0 0.0 -6.655364893108e-04 
-6.940255140087e-04 -3.189861403832e-07 0.0 
-3.189861403832e-07 4.522445273198e-03 0.0 
0.0 0.0 -6.934067383651e-04 
-7.582740677644e-04 -6.702170425340e-07 0.0 
-6.702170425340e-07 4.970550121083e-03 0.0 
0.0 0.0 -7.577868799165e-04 
-7.219132454205e-04 -3.552688472856e-07 0.0 
-3.552688472856e-07 4.715591284681e-03 0.0 
0.0 0.0 -7.212202614536e-04 
-6.579749567302e-04 -8.528343254354e-07 0.0 
-8.528343254354e-07 4.269380617603e-03 0.0 
0.0 0.0 -6.571136838490e-04 
-6.854396942303e-04 1.404532946377e-06 0.0 
1.404532946377e-06 4.463099019341e-03 0.0 
0.0 0.0 -6.848379476561e-04 
-7.499209568980e-04 9.788669448493e-07 0.0 
9.788669448493e-07 4.910836491420e-03 0.0 
0.0 0.0 -7.491645792950e-04 
-7.130866886284e-04 2.531462605045e-06 0.0 
2.531462605045e-06 4.656380230421e-03 0.0 
0.0 0.0 -7.127097857715e-04 
-6.490463142765e-04 2.026928070065e-06 0.0 
2.026928070065e-06 4.209801950481e-03 0.0 
0.0 0.0 -6.486049398320e-04 
-6.764658608434e-04 3.508718195911e-06 0.0 
3.508718195911e-06 4.404145734277e-03 0.0 
0.0 0.0 -6.763006240845e-04 
-7.410587565243e-04 2.977071001508e-06 0.0 
2.977071001508e-06 4.853988703533e-03 0.0 
0.0 0.0 -7.409416231994e-04 
-7.040690402047e-04 2.351563892175e-06 0.0 
2.351563892175e-06 4.597607851949e-03 0.0 
0.0 0.0 -7.042275185679e-04 
-6.395068044753e-04 3.551759029564e-06 0.0 
3.551759029564e-06 4.148883800447e-03 0.0 
0.0 0.0 -6.398389559308e-04 
-6.666949009553e-04 4.033462501281e-06 0.0 
4.033462501281e-06 4.341905952590e-03 0.0 
0.0 0.0 -6.674633383154e-04 
-7.319239687129e-04 2.339911819107e-06 0.0 
2.339911819107e-06 4.794577675996e-03 0.0 
0.0 0.0 -7.324886333286e-04 
-6.941465830902e-04 3.043408887488e-06 0.0 
3.043408887488e-06 4.534944571325e-03 0.0 
0.0 0.0 -6.954027321055e-04 
-7.599625173412e-04 1.739203305398e-06 0.0 
1.739203305398e-06 4.991507953981e-03 0.0 
0.0 0.0 -7.608997874520e-04 
-6.288087524292e-04 4.620726933277e-06 0.0 
4.620726933277e-06 4.080538413552e-03 0.0 
0.0 0.0 -6.302092384919e-04 
-6.562200550336e-04 2.527596513670e-06 0.0 
2.527596513670e-06 4.273760246295e-03 0.0 
0.0 0.0 -6.580989212857e-04 
-5.905021683275e-04 5.113861583814e-06 0.0 
5.113861583814e-06 3.817210818870e-03 0.0 
0.0 0.0 -5.925517106747e-04 
-6.180070563345e-04 1.748353135706e-06 0.0 
1.748353135706e-06 4.012241935297e-03 0.0 
0.0 0.0 -6.207111136070e-04 
-8.536335610934e-04 1.348609631281e-06 0.0 
1.348609631281e-06 5.632618076260e-03 0.0 
0.0 0.0 -8.529317679587e-04 
-5.517808621482e-04 4.295824092658e-06 0.0 
4.295824092658e-06 3.553884541992e-03 0.0 
0.0 0.0 -5.549884598765e-04 
-5.256512596246e-04 6.824695261283e-06 0.0 
6.824695261283e-06 3.365117692799e-03 0.0 
0.0 0.0 -5.276250340903e-04 
-5.798411198689e-04 -4.887552614994e-09 0.0 
-4.887552614994e-09 3.751124839276e-03 0.0 
0.0 0.0 -5.833260987948e-04 
-6.468648656295e-04 -6.634229100997e-07 0.0 
-6.634229100997e-07 4.212613913655e-03 0.0 
0.0 0.0 -6.493616581942e-04 
-5.137698154976e-04 1.586824553316e-06 0.0 
1.586824553316e-06 3.290773483107e-03 0.0 
0.0 0.0 -5.173870653820e-04 
-5.418307247047e-04 -1.136001153200e-06 0.0 
-1.136001153200e-06 3.490016299043e-03 0.0 
0.0 0.0 -5.459094278256e-04 
-4.770030151011e-04 2.075579507861e-06 0.0 
2.075579507861e-06 3.029794249274e-03 0.0 
0.0 0.0 -4.798161731008e-04 
-6.265889875599e-04 -3.099894472579e-06 0.0 
-3.099894472579e-06 4.044775427509e-03 0.0 
0.0 0.0 -6.252159162693e-04 
-9.779259260500e-04 -4.603917606282e-06 0.0 
-4.603917606282e-06 6.486620776824e-03 0.0 
0.0 0.0 -9.750716696758e-04 
-5.048311626822e-04 8.069914569194e-07 0.0 
8.069914569194e-07 3.230775089179e-03 0.0 
0.0 0.0 -5.084495576641e-04 
-4.414277464692e-04 -9.314775103438e-07 0.0 
-9.314775103438e-07 2.769397101649e-03 0.0 
0.0 0.0 -4.423119711188e-04 
-4.126781969751e-04 2.777234300749e-06 0.0 
2.777234300749e-06 2.568725273303e-03 0.0 
0.0 0.0 -4.136824817550e-04 
-3.752383636154e-04 2.627021531192e-07 0.0 
2.627021531192e-07 2.307149796782e-03 0.0 
0.0 0.0 -3.761903503575e-04 
-9.032923406135e-04 -1.942635711141e-05 0.0 
-1.942635711141e-05 6.054768473392e-03 0.0 
0.0 0.0 -9.126358703463e-04 
-9.750351070606e-04 8.331650578497e-07 0.0 
8.331650578497e-07 6.501449499714e-03 0.0 
0.0 0.0 -9.772611937912e-04 
-9.426936007590e-04 -8.476577603226e-06 0.0 
-8.476577603226e-06 6.285634427722e-03 0.0 
0.0 0.0 -9.468612964576e-04 
-1.013350986754e-03 -2.420793703350e-06 0.0 
-2.420793703350e-06 6.752430832338e-03 0.0 
0.0 0.0 -1.012955122490e-03 
-9.819905249802e-04 -9.218190891256e-06 0.0 
-9.218190891256e-06 6.546568860747e-03 0.0 
0.0 0.0 -9.835180958883e-04 
-4.033189249180e-04 -7.405594451594e-06 0.0 
-7.405594451594e-06 2.507023825451e-03 0.0 
0.0 0.0 -4.047791634435e-04 
-1.026297749493e-03 -7.873848128139e-06 0.0 
-7.873848128139e-06 6.842470359288e-03 0.0 
0.0 0.0 -1.026687169009e-03 
-1.041976492742e-03 3.297528438882e-06 0.0 
3.297528438882e-06 6.953471480802e-03 0.0 
0.0 0.0 -1.042264213861e-03 
-7.894126093117e-04 1.238093184258e-06 0.0 
1.238093184258e-06 5.169984540206e-03 0.0 
0.0 0.0 -7.861871271282e-04 
-7.083334352115e-04 1.160791963811e-06 0.0 
1.160791963811e-06 4.619009573669e-03 0.0 
0.0 0.0 -7.076088937226e-04 
-8.034448321061e-04 -3.641604808727e-06 0.0 
-3.641604808727e-06 5.283437919380e-03 0.0 
0.0 0.0 -8.027518904046e-04 
-5.699317647336e-04 -5.077104347375e-06 0.0 
-5.077104347375e-06 3.690391390143e-03 0.0 
0.0 0.0 -5.745905038755e-04 
-5.325923514100e-04 1.264931689698e-06 0.0 
1.264931689698e-06 3.434700451156e-03 0.0 
0.0 0.0 -5.371338854166e-04 
-6.021414154153e-04 -1.123287284899e-05 0.0 
-1.123287284899e-05 3.895898666929e-03 0.0 
0.0 0.0 -6.033452624549e-04 
-7.975586205945e-04 7.346724403241e-07 0.0 
7.346724403241e-07 5.250837552224e-03 0.0 
0.0 0.0 -7.980428604176e-04 
-8.260589898795e-04 8.470418804299e-07 0.0 
8.470418804299e-07 5.449813526142e-03 0.0 
0.0 0.0 -8.266132305475e-04 
-8.633840041631e-04 4.108677630606e-07 0.0 
4.108677630606e-07 5.709024598085e-03 0.0 
0.0 0.0 -8.638188500004e-04 
-8.921637692903e-04 4.125221994133e-07 0.0 
4.125221994133e-07 5.908664068470e-03 0.0 
0.0 0.0 -8.924533907576e-04 
-9.293171742377e-04 3.033539280222e-07 0.0 
3.033539280222e-07 6.168083546013e-03 0.0 
0.0 0.0 -9.297164513315e-04 
-9.582709124814e-04 8.513827699032e-07 0.0 
8.513827699032e-07 6.368400937687e-03 0.0 
0.0 0.0 -9.583747859490e-04 
-9.209100768105e-04 -4.256218772052e-07 0.0 
-4.256218772052e-07 6.108351576790e-03 0.0 
0.0 0.0 -9.210728288235e-04 
-9.873571107966e-04 -7.195723232426e-07 0.0 
-7.195723232426e-07 6.568673837727e-03 0.0 
0.0 0.0 -9.870277070005e-04 
-9.496224461858e-04 -1.641275595006e-06 0.0 
-1.641275595006e-06 6.308003890192e-03 0.0 
0.0 0.0 -9.497007337289e-04 
-9.952004913146e-04 1.269240357773e-06 0.0 
1.269240357773e-06 6.627713601016e-03 0.0 
0.0 0.0 -9.956835613869e-04 
-9.665012269537e-04 -8.709086142771e-07 0.0 
-8.709086142771e-07 6.427165842683e-03 0.0 
0.0 0.0 -9.668198671257e-04 
-1.015999965498e-03 -2.659789521436e-06 0.0 
-2.659789521436e-06 6.768164853944e-03 0.0 
0.0 0.0 -1.015681523326e-03 
-9.780689760981e-04 -1.773026811925e-06 0.0 
-1.773026811925e-06 6.507705614272e-03 0.0 
0.0 0.0 -9.783260305704e-04 
-1.043750394909e-03 -2.772279525269e-06 0.0 
-2.772279525269e-06 6.967527210065e-03 0.0 
0.0 0.0 -1.044362401637e-03 
-1.005977853166e-03 -2.262113223713e-06 0.0 
-2.262113223713e-06 6.706658029639e-03 0.0 
0.0 0.0 -1.007007767922e-03 
-9.404749716457e-04 -1.193534276241e-06 0.0 
-1.193534276241e-06 6.246239019973e-03 0.0 
0.0 0.0 -9.408676861799e-04 
-9.684909118554e-04 -8.529271608850e-07 0.0 
-8.529271608850e-07 6.444829778042e-03 0.0 
0.0 0.0 -9.695029660748e-04 
-9.037723104014e-04 -2.350012697862e-06 0.0 
-2.350012697862e-06 5.986848649888e-03 0.0 
0.0 0.0 -9.035672079865e-04 
-8.314464570683e-04 -3.616594317120e-06 0.0 
-3.616594317120e-06 5.479880314984e-03 0.0 
0.0 0.0 -8.309624794500e-04 
-8.682753299777e-04 -4.472916759998e-06 0.0 
-4.472916759998e-06 5.735257211893e-03 0.0 
0.0 0.0 -8.675775700443e-04 
-8.962132157839e-04 -3.994715245344e-06 0.0 
-3.994715245344e-06 5.931796623670e-03 0.0 
0.0 0.0 -8.958500940740e-04 
-9.334915543321e-04 -5.104595478867e-06 0.0 
-5.104595478867e-06 6.188168080628e-03 0.0 
0.0 0.0 -9.325549191312e-04 
-9.611906856985e-04 -4.832422115401e-06 0.0 
-4.832422115401e-06 6.384949120317e-03 0.0 
0.0 0.0 -9.609176734917e-04 
-9.993166695242e-04 -5.921015935425e-06 0.0 
-5.921015935425e-06 6.642197475408e-03 0.0 
0.0 0.0 -9.976363410588e-04 
-1.026869107811e-03 -5.279541534963e-06 0.0 
-5.279541534963e-06 6.837737939095e-03 0.0 
0.0 0.0 -1.026032504441e-03 
-9.888890578615e-04 -3.536873257987e-06 0.0 
-3.536873257987e-06 6.582021445560e-03 0.0 
0.0 0.0 -9.892761093609e-04 
-1.020948249731e-03 -5.775826579324e-06 0.0 
-5.775826579324e-06 6.785097853957e-03 0.0 
0.0 0.0 -1.018102500310e-03 
-6.106564943980e-04 -8.377932010431e-07 0.0 
-8.377932010431e-07 3.937861241286e-03 0.0 
0.0 0.0 -6.095594541484e-04 
-5.829707017919e-04 -8.761996171908e-07 0.0 
-8.761996171908e-07 3.743841342214e-03 0.0 
0.0 0.0 -5.816898710390e-04 
-5.468224651884e-04 3.532374184943e-07 0.0 
3.532374184943e-07 3.491149788400e-03 0.0 
0.0 0.0 -5.454521931755e-04 
-5.191424428682e-04 -2.726566040460e-07 0.0 
-2.726566040460e-07 3.297674531074e-03 0.0 
0.0 0.0 -5.176388733440e-04 
-4.833226440277e-04 2.092058671685e-06 0.0 
2.092058671685e-06 3.045002640289e-03 0.0 
0.0 0.0 -4.814163979944e-04 
-4.557758029646e-04 1.050100036916e-06 0.0 
1.050100036916e-06 2.852852491029e-03 0.0 
0.0 0.0 -4.537165770244e-04 
-4.203756978464e-04 3.745088126594e-06 0.0 
3.745088126594e-06 2.598843361212e-03 0.0 
0.0 0.0 -4.172264234068e-04 
-4.466735727578e-04 5.480427943032e-06 0.0 
5.480427943032e-06 2.790981770740e-03 0.0 
0.0 0.0 -4.450327826477e-04 
-3.836326554131e-04 7.904997896629e-06 0.0 
7.904997896629e-06 2.342835906920e-03 0.0 
0.0 0.0 -3.805252178390e-04 
-4.084193757355e-04 7.242552144220e-06 0.0 
7.242552144220e-06 2.535005811079e-03 0.0 
0.0 0.0 -4.085362445790e-04 
-3.461331758914e-04 8.763341315909e-06 0.0 
8.763341315909e-06 2.084280570054e-03 0.0 
0.0 0.0 -3.437934912881e-04 
-3.698709012629e-04 8.292346557788e-06 0.0 
8.292346557788e-06 2.277114687721e-03 0.0 
0.0 0.0 -3.717096690223e-04 
-8.965032625882e-04 -1.627591660557e-06 0.0 
-1.627591660557e-06 5.934603885101e-03 0.0 
0.0 0.0 -8.963565068603e-04 
-9.708908500796e-04 -5.045480792171e-06 0.0 
-5.045480792171e-06 6.444533853224e-03 0.0 
0.0 0.0 -9.691568884624e-04 
-1.036699855876e-03 -2.770010414097e-06 0.0 
-2.770010414097e-06 6.900219655108e-03 0.0 
0.0 0.0 -1.034312087004e-03 
-1.006639220865e-03 -3.033633605212e-06 0.0 
-3.033633605212e-06 6.698197690662e-03 0.0 
0.0 0.0 -1.005320805676e-03 
-3.491849021405e-04 5.274199755838e-07 0.0 
5.274199755838e-07 2.108115059856e-03 0.0 
0.0 0.0 -3.475522021424e-04 
-1.033063842021e-03 -2.635650059534e-06 0.0 
-2.635650059534e-06 6.905166544597e-03 0.0 
0.0 0.0 -1.035773625862e-03 
-1.032236772368e-03 -1.431372014475e-06 0.0 
-1.431372014475e-06 6.887149851833e-03 0.0 
0.0 0.0 -1.032922975483e-03 
-1.003745583219e-03 -3.564129010650e-06 0.0 
-3.564129010650e-06 6.683661322661e-03 0.0 
0.0 0.0 -1.003739924893e-03 
-1.054629030311e-03 -7.601280978040e-07 0.0 
-7.601280978040e-07 7.036563315422e-03 0.0 
0.0 0.0 -1.054598834243e-03 
-3.382801587767e-04 -2.979708598332e-06 0.0 
-2.979708598332e-06 2.049061231215e-03 0.0 
0.0 0.0 -3.392587823741e-04 
-3.925929468368e-04 -3.827429239524e-07 0.0 
-3.827429239524e-07 2.409736501278e-03 0.0 
0.0 0.0 -3.899405068163e-04 
-4.274717193387e-04 -8.415189164463e-08 0.0 
-8.415189164463e-08 2.658832617141e-03 0.0 
0.0 0.0 -4.261104576107e-04 
-1.049394948444e-03 -6.226283885141e-06 0.0 
-6.226283885141e-06 7.001982288460e-03 0.0 
0.0 0.0 -1.048874596840e-03 
-1.017918189327e-03 -8.563044135216e-06 0.0 
-8.563044135216e-06 6.794247194180e-03 0.0 
0.0 0.0 -1.019458214591e-03 
-1.069216758149e-03 -3.894499857360e-06 0.0 
-3.894499857360e-06 7.146438403505e-03 0.0 
0.0 0.0 -1.070157681403e-03 
-3.646275857635e-04 -4.854414982703e-06 0.0 
-4.854414982703e-06 2.250210390791e-03 0.0 
0.0 0.0 -3.675747464493e-04 
-1.054357939260e-03 -2.436299897868e-06 0.0 
-2.436299897868e-06 7.029823091953e-03 0.0 
0.0 0.0 -1.052997445444e-03 
-3.197645753905e-04 1.264604075079e-05 0.0 
1.264604075079e-05 1.895364248012e-03 0.0 
0.0 0.0 -3.160508651072e-04 
-9.953050425208e-04 1.480628501678e-06 0.0 
1.480628501678e-06 6.643084749548e-03 0.0 
0.0 0.0 -9.982306137915e-04 
-1.060585647238e-03 -1.664106558620e-06 0.0 
-1.664106558620e-06 7.103829563321e-03 0.0 
0.0 0.0 -1.064501221861e-03 
-8.833816014428e-04 -1.312725406902e-06 0.0 
-1.312725406902e-06 5.848632048973e-03 0.0 
0.0 0.0 -8.838659695519e-04 
-1.072126527592e-03 1.342848407697e-06 0.0 
1.342848407697e-06 7.156046509616e-03 0.0 
0.0 0.0 -1.070909199420e-03 
-1.040873144494e-03 -1.559728385230e-06 0.0 
-1.559728385230e-06 6.945723517804e-03 0.0 
0.0 0.0 -1.041442769611e-03 
-4.361432558223e-04 3.964498909213e-06 0.0 
3.964498909213e-06 2.732385665183e-03 0.0 
0.0 0.0 -4.368024751037e-04 
-4.014490958451e-04 -4.456139007959e-06 0.0 
-4.456139007959e-06 2.476345149205e-03 0.0 
0.0 0.0 -4.000028750317e-04 
-3.379276697082e-04 -9.389203744036e-07 0.0 
-9.389203744036e-07 2.030025360652e-03 0.0 
0.0 0.0 -3.362177140684e-04 
-3.635969428548e-04 1.373767669615e-06 0.0 
1.373767669615e-06 2.244616072891e-03 0.0 
0.0 0.0 -3.646174584383e-04 
-4.300938244296e-04 1.567544356571e-06 0.0 
1.567544356571e-06 2.681550340782e-03 0.0 
0.0 0.0 -4.284477484795e-04 
-3.889085083712e-04 9.835552762117e-06 0.0 
9.835552762117e-06 2.418297915731e-03 0.0 
0.0 0.0 -3.914172224959e-04 
-3.204770754165e-04 1.907323267821e-05 0.0 
1.907323267821e-05 1.962571053020e-03 0.0 
0.0 0.0 -3.275549428413e-04 
-3.502907991613e-04 7.488671343041e-06 0.0 
7.488671343041e-06 2.156719423536e-03 0.0 
0.0 0.0 -3.541853722931e-04 
-4.167106155497e-04 6.881429257357e-06 0.0 
6.881429257357e-06 2.610903268491e-03 0.0 
0.0 0.0 -4.192720002935e-04 
-3.788914181042e-04 4.343078442166e-06 0.0 
4.343078442166e-06 2.349536149817e-03 0.0 
0.0 0.0 -3.818909459020e-04 
-3.084459074470e-04 6.289188176843e-07 0.0 
6.289188176843e-07 1.890259859558e-03 0.0 
0.0 0.0 -3.163726278224e-04 
-3.419617535017e-04 -1.002237531295e-06 0.0 
-1.002237531295e-06 2.083935112305e-03 0.0 
0.0 0.0 -3.442135738104e-04 
-1.099071483736e-03 -4.059536723364e-06 0.0 
-4.059536723364e-06 7.365286043721e-03 0.0 
0.0 0.0 -1.101875158976e-03 
-2.778270531889e-04 5.606786557982e-06 0.0 
5.606786557982e-06 1.634146459113e-03 0.0 
0.0 0.0 -2.790856233436e-04 
-8.331232600789e-04 -1.470432704238e-06 0.0 
-1.470432704238e-06 5.468049203594e-03 0.0 
0.0 0.0 -8.288706041983e-04 
-1.097753538925e-03 -6.819421047846e-08 0.0 
-6.819421047846e-08 7.345996197340e-03 0.0 
0.0 0.0 -1.099012274073e-03 
-1.093116720620e-03 -8.666493399981e-07 0.0 
-8.666493399981e-07 7.286837829642e-03 0.0 
0.0 0.0 -1.090660416876e-03 
-1.084365567575e-03 -6.280824779061e-06 0.0 
-6.280824779061e-06 7.252032631151e-03 0.0 
0.0 0.0 -1.085032576515e-03 
-1.054657705810e-03 -6.435631966225e-06 0.0 
-6.435631966225e-06 7.045218181684e-03 0.0 
0.0 0.0 -1.055603631703e-03 
-9.875851288997e-04 -1.413805567798e-06 0.0 
-1.413805567798e-06 6.584177510452e-03 0.0 
0.0 0.0 -9.897378988699e-04 
-1.026769546168e-03 -2.237330550632e-06 0.0 
-2.237330550632e-06 6.840866959104e-03 0.0 
0.0 0.0 -1.026001677571e-03 
-1.092973095107e-03 -7.454569989655e-06 0.0 
-7.454569989655e-06 7.301089234385e-03 0.0 
0.0 0.0 -1.091942449670e-03 
-1.064751991023e-03 -3.501272267758e-06 0.0 
-3.501272267758e-06 7.095620902661e-03 0.0 
0.0 0.0 -1.062342898562e-03 
-9.988564979816e-04 -1.668871402209e-06 0.0 
-1.668871402209e-06 6.635005463114e-03 0.0 
0.0 0.0 -9.962627399151e-04 
-1.034436478479e-03 -1.481002808329e-06 0.0 
-1.481002808329e-06 6.886326563749e-03 0.0 
0.0 0.0 -1.032646955902e-03 
-9.669903561008e-04 -1.588757973743e-06 0.0 
-1.588757973743e-06 6.424013170772e-03 0.0 
0.0 0.0 -9.664557332607e-04 
-1.003700280699e-03 7.299281572322e-07 0.0 
7.299281572322e-07 6.676052297610e-03 0.0 
0.0 0.0 -1.002889032254e-03 
-1.069539961128e-03 -1.406306334187e-06 0.0 
-1.406306334187e-06 7.137459283332e-03 0.0 
0.0 0.0 -1.069134413525e-03 
-1.040251277345e-03 -2.304501535935e-06 0.0 
-2.304501535935e-06 6.929939891367e-03 0.0 
0.0 0.0 -1.039387411609e-03 
-9.757356294361e-04 3.492291009929e-06 0.0 
3.492291009929e-06 6.469291385121e-03 0.0 
0.0 0.0 -9.730575354659e-04 
-1.011311036558e-03 -3.920010342677e-06 0.0 
-3.920010342677e-06 6.721391753202e-03 0.0 
0.0 0.0 -1.009574527126e-03 
-9.473976655285e-04 1.069754497064e-06 0.0 
1.069754497064e-06 6.259448801403e-03 0.0 
0.0 0.0 -9.431603702596e-04 
-9.787243902099e-04 -9.076392670537e-06 0.0 
-9.076392670537e-06 6.505694726987e-03 0.0 
0.0 0.0 -9.796061197752e-04 
-1.045613844249e-03 -1.722974318840e-06 0.0 
-1.722974318840e-06 6.974649094867e-03 0.0 
0.0 0.0 -1.046101832713e-03 
-2.943775444909e-04 -6.928567679433e-07 0.0 
-6.928567679433e-07 1.805789486149e-03 0.0 
0.0 0.0 -3.035957800550e-04 
-1.017758437713e-03 8.339975111656e-07 0.0 
8.339975111656e-07 6.780275813963e-03 0.0 
0.0 0.0 -1.017732614895e-03 
-1.085695951343e-03 9.008470653870e-06 0.0 
9.008470653870e-06 7.238624846316e-03 0.0 
0.0 0.0 -1.083831836677e-03 
-5.709103913775e-04 -2.325431224873e-05 0.0 
-2.325431224873e-05 3.664168357293e-03 0.0 
0.0 0.0 -5.671321338944e-04 
-6.324387949388e-04 -2.542767452312e-05 0.0 
-2.542767452312e-05 4.079572971033e-03 0.0 
0.0 0.0 -6.325382687906e-04 
-6.703304024063e-04 2.057485422859e-06 0.0 
2.057485422859e-06 4.353279279577e-03 0.0 
0.0 0.0 -6.695659616924e-04 
-6.965174910300e-04 -2.385319859479e-06 0.0 
-2.385319859479e-06 4.560833435242e-03 0.0 
0.0 0.0 -6.986863204145e-04 
-1.013217864429e-03 -6.931448216259e-06 0.0 
-6.931448216259e-06 6.760757040862e-03 0.0 
0.0 0.0 -1.015477767897e-03 
-1.085754476307e-03 4.526117246910e-06 0.0 
4.526117246910e-06 7.228792746516e-03 0.0 
0.0 0.0 -1.082739357160e-03 
-3.632786350414e-04 -5.324944035324e-07 0.0 
-5.324944035324e-07 2.218076515491e-03 0.0 
0.0 0.0 -3.630904347118e-04 
-3.989196443091e-04 3.443700858761e-06 0.0 
3.443700858761e-06 2.465366928233e-03 0.0 
0.0 0.0 -3.987635198617e-04 
-1.114604240908e-03 -4.187271034226e-06 0.0 
-4.187271034226e-06 7.457266297093e-03 0.0 
0.0 0.0 -1.114382729655e-03 
-1.023827423401e-03 3.244776891224e-07 0.0 
3.244776891224e-07 6.846372715936e-03 0.0 
0.0 0.0 -1.027045364000e-03 
-9.591711885291e-04 5.195306824493e-06 0.0 
5.195306824493e-06 6.383348184143e-03 0.0 
0.0 0.0 -9.609938998495e-04 
-6.727539858769e-04 1.372459178944e-06 0.0 
1.372459178944e-06 4.373266699252e-03 0.0 
0.0 0.0 -6.721935305596e-04 
-6.457182263888e-04 2.843205903178e-06 0.0 
2.843205903178e-06 4.180265241662e-03 0.0 
0.0 0.0 -6.449639573754e-04 
-6.090109741668e-04 -1.269187225446e-06 0.0 
-1.269187225446e-06 3.932858286179e-03 0.0 
0.0 0.0 -6.093131083769e-04 
-5.816903259702e-04 4.641891431306e-06 0.0 
4.641891431306e-06 3.732340485873e-03 0.0 
0.0 0.0 -5.812298138028e-04 
-6.200283683434e-04 9.586645545084e-06 0.0 
9.586645545084e-06 3.992414838426e-03 0.0 
0.0 0.0 -6.173664885638e-04 
-5.434193891668e-04 -9.403867661896e-06 0.0 
-9.403867661896e-06 3.478668698049e-03 0.0 
0.0 0.0 -5.448148816535e-04 
-9.373928058819e-04 -1.601369738948e-06 0.0 
-1.601369738948e-06 6.221929865538e-03 0.0 
0.0 0.0 -9.373051277721e-04 
-1.105789133782e-03 -5.097961888882e-06 0.0 
-5.097961888882e-06 7.391609738888e-03 0.0 
0.0 0.0 -1.105708206284e-03 
-3.854345613970e-04 8.443027839789e-06 0.0 
8.443027839789e-06 2.371646984252e-03 0.0 
0.0 0.0 -3.852871208612e-04 
-3.201910169613e-04 4.758000015150e-06 0.0 
4.758000015150e-06 1.911169802832e-03 0.0 
0.0 0.0 -3.193625892355e-04 
-1.092402492623e-03 -1.167819157839e-06 0.0 
-1.167819157839e-06 7.309660398486e-03 0.0 
0.0 0.0 -1.093300181677e-03 
-9.522712570359e-04 -2.708707743108e-07 0.0 
-2.708707743108e-07 6.324723503682e-03 0.0 
0.0 0.0 -9.522822042369e-04 
-9.318364452749e-04 -3.558001127055e-06 0.0 
-3.558001127055e-06 6.182417451607e-03 0.0 
0.0 0.0 -9.319735432435e-04 
-9.592391997822e-04 -2.458009781572e-06 0.0 
-2.458009781572e-06 6.375907434676e-03 0.0 
0.0 0.0 -9.598347391831e-04 
-9.950739296231e-04 -4.572796618564e-06 0.0 
-4.572796618564e-06 6.625947379230e-03 0.0 
0.0 0.0 -9.957130113267e-04 
-1.022389104434e-03 -1.719325875494e-06 0.0 
-1.719325875494e-06 6.820013246431e-03 0.0 
0.0 0.0 -1.023751803962e-03 
-1.059370439720e-03 -5.405362556185e-06 0.0 
-5.405362556185e-06 7.072199763534e-03 0.0 
0.0 0.0 -1.059873349132e-03 
-1.087678763415e-03 -2.923161999974e-06 0.0 
-2.923161999974e-06 7.265128234670e-03 0.0 
0.0 0.0 -1.087854580038e-03 
-1.051303081443e-03 5.171402569017e-07 0.0 
5.171402569017e-07 7.018896459243e-03 0.0 
0.0 0.0 -1.051791170495e-03 
-1.103769166382e-03 7.691851827816e-06 0.0 
7.691851827816e-06 7.404894528321e-03 0.0 
0.0 0.0 -1.107463318235e-03 
-1.117712624745e-03 -3.586966882223e-06 0.0 
-3.586966882223e-06 7.467456065744e-03 0.0 
0.0 0.0 -1.115916943430e-03 
-9.389683298366e-04 8.173508751318e-06 0.0 
8.173508751318e-06 6.277342985551e-03 0.0 
0.0 0.0 -9.487150400336e-04 
-9.410739694122e-04 -1.111791304635e-06 0.0 
-1.111791304635e-06 6.241243045591e-03 0.0 
0.0 0.0 -9.398448712237e-04 
-4.457204000866e-04 5.557813324707e-06 0.0 
5.557813324707e-06 2.807268937135e-03 0.0 
0.0 0.0 -4.474652294669e-04 
-2.787239558753e-04 -1.594210911560e-05 0.0 
-1.594210911560e-05 1.590980471387e-03 0.0 
0.0 0.0 -2.752498982733e-04 
-2.801629165478e-04 1.388173637082e-07 0.0 
1.388173637082e-07 1.614413284500e-03 0.0 
0.0 0.0 -2.770275614452e-04 
-3.257086370933e-04 6.463444473936e-06 0.0 
6.463444473936e-06 1.982032803988e-03 0.0 
0.0 0.0 -3.299748606085e-04 
-3.924316838371e-04 3.341960258316e-06 0.0 
3.341960258316e-06 2.447443434601e-03 0.0 
0.0 0.0 -3.961554456411e-04 
-1.134349550786e-03 -1.652632845499e-06 0.0 
-1.652632845499e-06 7.607275251226e-03 0.0 
0.0 0.0 -1.136360603439e-03 
-1.125800754315e-03 -5.253853129321e-06 0.0 
-5.253853129321e-06 7.520991050392e-03 0.0 
0.0 0.0 -1.124065295910e-03 
-1.096791908378e-03 -5.220402544511e-06 0.0 
-5.220402544511e-06 7.320289406061e-03 0.0 
0.0 0.0 -1.095615423988e-03 
-5.557080703907e-04 2.060507655015e-05 0.0 
2.060507655015e-05 3.553838567094e-03 0.0 
0.0 0.0 -5.539799138139e-04 
-5.938414920039e-04 6.065843658319e-06 0.0 
6.065843658319e-06 3.806784454423e-03 0.0 
0.0 0.0 -5.905304635153e-04 
-1.132061157024e-03 2.994999273336e-06 0.0 
2.994999273336e-06 7.609332849678e-03 0.0 
0.0 0.0 -1.136278651916e-03 
-9.052603845710e-04 -1.496793008781e-06 0.0 
-1.496793008781e-06 6.089428360264e-03 0.0 
0.0 0.0 -9.177848451843e-04 
-9.302886435712e-04 -1.143901140707e-06 0.0 
-1.143901140707e-06 6.175006027383e-03 0.0 
0.0 0.0 -9.302130594432e-04 
-8.986318941469e-04 1.808913455713e-06 0.0 
1.808913455713e-06 5.958837749668e-03 0.0 
0.0 0.0 -9.001900590098e-04 
-2.448154097378e-04 -1.421673720988e-05 0.0 
-1.421673720988e-05 1.469020257813e-03 0.0 
0.0 0.0 -2.595221258752e-04 
-2.425141975508e-04 4.798340757522e-06 0.0 
4.798340757522e-06 1.427444744679e-03 0.0 
0.0 0.0 -2.525597767350e-04 
-1.129866785975e-03 -6.589135683467e-06 0.0 
-6.589135683467e-06 7.556758245339e-03 0.0 
0.0 0.0 -1.128363834889e-03 
-4.625030533362e-04 2.152653740950e-06 0.0 
2.152653740950e-06 2.905591162520e-03 0.0 
0.0 0.0 -4.615872697407e-04 
-4.348533942840e-04 3.201452625993e-06 0.0 
3.201452625993e-06 2.712395630356e-03 0.0 
0.0 0.0 -4.342639779644e-04 
-2.556862254963e-04 9.465200077415e-06 0.0 
9.465200077415e-06 1.446637132956e-03 0.0 
0.0 0.0 -2.508181872060e-04 
-2.123142658658e-04 2.153637717968e-06 0.0 
2.153637717968e-06 1.175585796085e-03 0.0 
0.0 0.0 -2.143868084631e-04 
-1.042731456099e-03 1.901936730490e-05 0.0 
1.901936730490e-05 6.995442815012e-03 0.0 
0.0 0.0 -1.051814883004e-03 
-1.110984337992e-03 1.360393105757e-05 0.0 
1.360393105757e-05 7.468547826848e-03 0.0 
0.0 0.0 -1.117859435171e-03 
-7.312716402703e-04 -2.190675999985e-06 0.0 
-2.190675999985e-06 4.814374156657e-03 0.0 
0.0 0.0 -7.356929296387e-04 
-7.645892286358e-04 -1.102166449944e-05 0.0 
-1.102166449944e-05 5.018862629850e-03 0.0 
0.0 0.0 -7.648299719236e-04 
-1.105578814045e-03 -4.864618337799e-06 0.0 
-4.864618337799e-06 7.407304501986e-03 0.0 
0.0 0.0 -1.107558395918e-03 
-3.066920262704e-04 -9.941053824373e-07 0.0 
-9.941053824373e-07 1.825477502809e-03 0.0 
0.0 0.0 -3.060794667268e-04 
-1.146252104278e-03 9.473611415330e-07 0.0 
9.473611415330e-07 7.693660702169e-03 0.0 
0.0 0.0 -1.149181664990e-03 
-9.819770468004e-04 3.151631864523e-06 0.0 
3.151631864523e-06 6.525650668115e-03 0.0 
0.0 0.0 -9.807908033776e-04 
-9.159380280943e-04 1.195442860157e-06 0.0 
1.195442860157e-06 6.068082639928e-03 0.0 
0.0 0.0 -9.152404036620e-04 
-6.511413906153e-04 1.424536279066e-05 0.0 
1.424536279066e-05 4.294241389317e-03 0.0 
0.0 0.0 -6.604623333687e-04 
-3.374810340453e-04 6.844433927075e-06 0.0 
6.844433927075e-06 2.031763814607e-03 0.0 
0.0 0.0 -3.366432492119e-04 
-3.027001806186e-04 4.554754580681e-06 0.0 
4.554754580681e-06 1.781580953442e-03 0.0 
0.0 0.0 -3.009099309908e-04 
-4.837618896288e-04 7.408810593364e-06 0.0 
7.408810593364e-06 3.065907824055e-03 0.0 
0.0 0.0 -4.845585894574e-04 
-3.706525314116e-04 2.979043878536e-06 0.0 
2.979043878536e-06 2.283251894813e-03 0.0 
0.0 0.0 -3.723415964733e-04 
-3.535775650443e-04 1.642795960159e-06 0.0 
1.642795960159e-06 2.183712345689e-03 0.0 
0.0 0.0 -3.583452993329e-04 
-1.171956394673e-03 7.296733533155e-06 0.0 
7.296733533155e-06 7.865937936914e-03 0.0 
0.0 0.0 -1.173829981771e-03 
-1.155496536768e-03 -7.585900876937e-06 0.0 
-7.585900876937e-06 7.757441294242e-03 0.0 
0.0 0.0 -1.157575248917e-03 
-1.081331483118e-03 -1.018192650105e-05 0.0 
-1.018192650105e-05 7.219793718708e-03 0.0 
0.0 0.0 -1.080172819833e-03 
-1.016976595983e-03 3.080934608953e-08 0.0 
3.080934608953e-08 6.767850029250e-03 0.0 
0.0 0.0 -1.015677837919e-03 
-1.139278177336e-03 -7.940019038874e-06 0.0 
-7.940019038874e-06 7.665797132760e-03 0.0 
0.0 0.0 -1.144955025780e-03 
-2.327287223155e-04 -5.619721676057e-06 0.0 
-5.619721676057e-06 1.369838176642e-03 0.0 
0.0 0.0 -2.399185640008e-04 
-1.167065302037e-03 -2.167295117523e-06 0.0 
-2.167295117523e-06 7.816099518397e-03 0.0 
0.0 0.0 -1.165794428787e-03 
-1.057599608467e-03 -1.462585030790e-06 0.0 
-1.462585030790e-06 7.053925433098e-03 0.0 
0.0 0.0 -1.056136825731e-03 
-1.166821884924e-03 8.580756338021e-06 0.0 
8.580756338021e-06 7.754116842770e-03 0.0 
0.0 0.0 -1.157598467365e-03 
-1.133408506306e-03 -8.435792570644e-07 0.0 
-8.435792570644e-07 7.569033753462e-03 0.0 
0.0 0.0 -1.131219827106e-03 
-4.984456519411e-04 4.300557589800e-06 0.0 
4.300557589800e-06 3.150357815837e-03 0.0 
0.0 0.0 -4.968499830348e-04 
-4.727344614058e-04 -4.063132868482e-06 0.0 
-4.063132868482e-06 2.963684111716e-03 0.0 
0.0 0.0 -4.705806478706e-04 
-4.091383170965e-04 2.862069894870e-06 0.0 
2.862069894870e-06 2.529363987017e-03 0.0 
0.0 0.0 -4.078257031896e-04 
-4.471058786427e-04 1.072951437623e-05 0.0 
1.072951437623e-05 2.788633828474e-03 0.0 
0.0 0.0 -4.438024830152e-04 
-8.440631779025e-04 -4.493147098223e-06 0.0 
-4.493147098223e-06 5.518369027804e-03 0.0 
0.0 0.0 -8.361670615231e-04 
-5.357092529258e-04 -9.292843076368e-07 0.0 
-9.292843076368e-07 3.402933662769e-03 0.0 
0.0 0.0 -5.333915535664e-04 
-7.972227851670e-04 -9.360487059463e-07 0.0 
-9.360487059463e-07 5.222669072684e-03 0.0 
0.0 0.0 -7.939299641313e-04 
-7.702508874020e-04 -1.538210288725e-06 0.0 
-1.538210288725e-06 5.031866795854e-03 0.0 
0.0 0.0 -7.665196690739e-04 
-7.355056886190e-04 7.347932432807e-07 0.0 
7.347932432807e-07 4.791036993934e-03 0.0 
0.0 0.0 -7.319524942586e-04 
-6.561872916337e-04 1.268419360752e-06 0.0 
1.268419360752e-06 4.239606973166e-03 0.0 
0.0 0.0 -6.527873785750e-04 
-6.291613184761e-04 -1.439650198991e-06 0.0 
-1.439650198991e-06 4.053875822961e-03 0.0 
0.0 0.0 -6.261871041946e-04 
-5.548406946331e-04 -1.134560045706e-06 0.0 
-1.134560045706e-06 3.546628030902e-03 0.0 
0.0 0.0 -5.534964465553e-04 
-8.399940984114e-04 -3.577201231007e-06 0.0 
-3.577201231007e-06 5.537581821643e-03 0.0 
0.0 0.0 -8.390310526140e-04 
-7.058409553932e-04 5.047899969827e-07 0.0 
5.047899969827e-07 4.614117323526e-03 0.0 
0.0 0.0 -7.069621042110e-04 
-8.747594299032e-04 -2.558061717916e-06 0.0 
-2.558061717916e-06 5.788017369400e-03 0.0 
0.0 0.0 -8.751042800696e-04 
-8.345970192924e-04 7.968047685435e-07 0.0 
7.968047685435e-07 5.508873449258e-03 0.0 
0.0 0.0 -8.350146568664e-04 
-1.135366159085e-03 -3.784163045626e-06 0.0 
-3.784163045626e-06 7.595187475630e-03 0.0 
0.0 0.0 -1.135109731873e-03 
-1.173430748718e-03 -9.063019793229e-06 0.0 
-9.063019793229e-06 7.855172062360e-03 0.0 
0.0 0.0 -1.171938512032e-03 
-9.103494794308e-04 9.134385712316e-06 0.0 
9.134385712316e-06 6.008446285683e-03 0.0 
0.0 0.0 -9.065739516476e-04 
-8.719468559850e-04 9.049287930879e-07 0.0 
9.049287930879e-07 5.790867004059e-03 0.0 
0.0 0.0 -8.764137937918e-04 
-2.822142401262e-04 -1.729015805274e-06 0.0 
-1.729015805274e-06 1.647043850495e-03 0.0 
0.0 0.0 -2.813159824896e-04 
-2.590672524343e-04 7.758668078462e-06 0.0 
7.758668078462e-06 1.453070456664e-03 0.0 
0.0 0.0 -2.532569443854e-04 
-7.885436432884e-04 5.287197585389e-07 0.0 
5.287197585389e-07 5.190389624089e-03 0.0 
0.0 0.0 -7.894497706086e-04 
-1.129157536929e-03 4.394584270014e-06 0.0 
4.394584270014e-06 7.545263270116e-03 0.0 
0.0 0.0 -1.127529358476e-03 
-1.150499129859e-03 -1.601096256566e-07 0.0 
-1.601096256566e-07 7.703368893988e-03 0.0 
0.0 0.0 -1.150095860580e-03 
-1.180515255213e-03 -2.827683268667e-06 0.0 
-2.827683268667e-06 7.908952217123e-03 0.0 
0.0 0.0 -1.179372829571e-03 
-1.142938913333e-03 -3.318694813184e-06 0.0 
-3.318694813184e-06 7.657003561438e-03 0.0 
0.0 0.0 -1.143369325256e-03 
-1.140111309187e-03 8.981293941602e-07 0.0 
8.981293941602e-07 7.659653688633e-03 0.0 
0.0 0.0 -1.144273392007e-03 
-5.742583376343e-04 1.322470559701e-07 0.0 
1.322470559701e-07 3.685291735877e-03 0.0 
0.0 0.0 -5.733740095480e-04 
-8.593234151620e-04 -2.874076437018e-06 0.0 
-2.874076437018e-06 5.675695790787e-03 0.0 
0.0 0.0 -8.590966742019e-04 
-2.435677437140e-04 -1.068446741351e-05 0.0 
-1.068446741351e-05 1.382271228051e-03 0.0 
0.0 0.0 -2.423215009416e-04 
-8.888171571715e-04 7.702896637583e-07 0.0 
7.702896637583e-07 5.879388839658e-03 0.0 
0.0 0.0 -8.884627649733e-04 
-2.162237035633e-04 -3.672272412215e-06 0.0 
-3.672272412215e-06 1.184819371308e-03 0.0 
0.0 0.0 -2.162536877156e-04 
-1.014212058360e-03 -1.424401912229e-06 0.0 
-1.424401912229e-06 6.732806316095e-03 0.0 
0.0 0.0 -1.010319580236e-03 
-1.121146682577e-03 5.393536552769e-07 0.0 
5.393536552769e-07 7.512550218556e-03 0.0 
0.0 0.0 -1.122815839103e-03 
-1.157064342210e-03 3.278319431561e-08 0.0 
3.278319431561e-08 7.769042756358e-03 0.0 
0.0 0.0 -1.159213750608e-03 
-1.166424981014e-03 1.813592645852e-06 0.0 
1.813592645852e-06 7.856112587899e-03 0.0 
0.0 0.0 -1.171959308352e-03 
-7.504080630279e-04 1.142017006419e-05 0.0 
1.142017006419e-05 4.900584458038e-03 0.0 
0.0 0.0 -7.470952864203e-04 
-9.172347539121e-04 2.804117413082e-06 0.0 
2.804117413082e-06 6.075069916316e-03 0.0 
0.0 0.0 -9.162722660995e-04 
-8.822868772852e-04 1.786082975063e-06 0.0 
1.786082975063e-06 5.828052429250e-03 0.0 
0.0 0.0 -8.808726170640e-04 
-7.075025449256e-04 3.734403441957e-06 0.0 
3.734403441957e-06 4.602949033639e-03 0.0 
0.0 0.0 -7.048691535495e-04 
-6.736902723486e-04 3.915004124880e-06 0.0 
3.915004124880e-06 4.364959797177e-03 0.0 
0.0 0.0 -6.707530558731e-04 
-7.003926698376e-04 3.499859416377e-06 0.0 
3.499859416377e-06 4.548937086678e-03 0.0 
0.0 0.0 -6.972958566626e-04 
-6.396081130526e-04 3.801189656251e-06 0.0 
3.801189656251e-06 4.126284090508e-03 0.0 
0.0 0.0 -6.359606378414e-04 
-5.113814833482e-04 4.985013341250e-06 0.0 
4.985013341250e-06 3.258506878652e-03 0.0 
0.0 0.0 -5.122594947013e-04 
-4.735906672379e-04 3.101741148840e-06 0.0 
3.101741148840e-06 2.998270021668e-03 0.0 
0.0 0.0 -4.750188804659e-04 
-1.196527535369e-03 2.030860363362e-06 0.0 
2.030860363362e-06 8.017120294099e-03 0.0 
0.0 0.0 -1.192042136895e-03 
-1.179471908673e-03 2.186350744697e-05 0.0 
2.186350744697e-05 7.917990259976e-03 0.0 
0.0 0.0 -1.178660172201e-03 
-1.197525366512e-03 -5.361254674999e-06 0.0 
-5.361254674999e-06 8.017772106938e-03 0.0 
0.0 0.0 -1.193029175878e-03 
-1.157007599871e-03 -4.254495392848e-07 0.0 
-4.254495392848e-07 7.831852404544e-03 0.0 
0.0 0.0 -1.168165168231e-03 
-1.184219832489e-03 -2.995135238664e-06 0.0 
-2.995135238664e-06 8.054139615854e-03 0.0 
0.0 0.0 -1.200910491468e-03 
-1.156433585434e-03 -1.143666503543e-06 0.0 
-1.143666503543e-06 7.807020133364e-03 0.0 
0.0 0.0 -1.164168769488e-03 
-4.264796299705e-04 -5.762809161323e-06 0.0 
-5.762809161323e-06 2.638842137297e-03 0.0 
0.0 0.0 -4.227350873389e-04 
-5.681760473818e-04 2.318592575022e-06 0.0 
2.318592575022e-06 3.626581176623e-03 0.0 
0.0 0.0 -5.646260317871e-04 
-1.184636686047e-03 -1.016095806196e-05 0.0 
-1.016095806196e-05 8.009054334469e-03 0.0 
0.0 0.0 -1.194151889699e-03 
-7.414862310133e-04 3.192804147294e-06 0.0 
3.192804147294e-06 4.838396811126e-03 0.0 
0.0 0.0 -7.390869131010e-04 
-1.198370689590e-03 -4.208230376703e-06 0.0 
-4.208230376703e-06 8.000236790466e-03 0.0 
0.0 0.0 -1.192835421428e-03 
-1.157965586969e-03 3.621187988871e-06 0.0 
3.621187988871e-06 7.751872966735e-03 0.0 
0.0 0.0 -1.156047193884e-03 
-1.679677723563e-04 -6.471467775008e-06 0.0 
-6.471467775008e-06 9.157850137993e-04 0.0 
0.0 0.0 -1.776502893165e-04 
-2.010012491603e-04 -2.186198543596e-05 0.0 
-2.186198543596e-05 1.109886420371e-03 0.0 
0.0 0.0 -2.034953494974e-04 
-1.179928424182e-03 1.756406795450e-06 0.0 
1.756406795450e-06 7.951460578279e-03 0.0 
0.0 0.0 -1.184588873336e-03 
-3.838885301584e-04 -2.308315346304e-07 0.0 
-2.308315346304e-07 2.344842445821e-03 0.0 
0.0 0.0 -3.811925308841e-04 
-4.219559892700e-04 7.989363516709e-06 0.0 
7.989363516709e-06 2.586701229719e-03 0.0 
0.0 0.0 -4.158690271831e-04 
-3.474814854535e-04 -1.898705035343e-06 0.0 
-1.898705035343e-06 2.092244309525e-03 0.0 
0.0 0.0 -3.459699425273e-04 
-1.258412294817e-03 4.723230244906e-06 0.0 
4.723230244906e-06 8.451854294521e-03 0.0 
0.0 0.0 -1.258310293365e-03 
-7.484881504012e-04 -2.960864060537e-06 0.0 
-2.960864060537e-06 4.893199602045e-03 0.0 
0.0 0.0 -7.479256703001e-04 
-1.180456674817e-03 2.203572108480e-06 0.0 
2.203572108480e-06 7.969948982011e-03 0.0 
0.0 0.0 -1.189418985649e-03 
-6.915459890032e-04 2.639723401845e-07 0.0 
2.639723401845e-07 4.488659587491e-03 0.0 
0.0 0.0 -6.884682336192e-04 
-1.207477073685e-03 3.654066082089e-06 0.0 
3.654066082089e-06 8.169097270233e-03 0.0 
0.0 0.0 -1.216510697198e-03 
-9.459891485395e-04 2.183343284728e-06 0.0 
2.183343284728e-06 6.276634781059e-03 0.0 
0.0 0.0 -9.449116413281e-04 
-6.354655665352e-04 7.994205054171e-06 0.0 
7.994205054171e-06 4.117898953292e-03 0.0 
0.0 0.0 -6.353966017694e-04 
-1.078683645923e-03 -8.754256551620e-06 0.0 
-8.754256551620e-06 7.202760317134e-03 0.0 
0.0 0.0 -1.078177493492e-03 
-1.141578224774e-03 -1.678015124370e-05 0.0 
-1.678015124370e-05 7.703318796330e-03 0.0 
0.0 0.0 -1.149140729088e-03 
-1.226390364052e-03 1.281801736300e-05 0.0 
1.281801736300e-05 8.221773688785e-03 0.0 
0.0 0.0 -1.221625961084e-03 
-8.548571335586e-04 9.585095622204e-06 0.0 
9.585095622204e-06 5.710330831809e-03 0.0 
0.0 0.0 -8.638707813346e-04 
-8.315226367926e-04 -1.796676276349e-05 0.0 
-1.796676276349e-05 5.471080815741e-03 0.0 
0.0 0.0 -8.327709333130e-04 
-8.913153694948e-04 3.187001622893e-06 0.0 
3.187001622893e-06 5.908304703834e-03 0.0 
0.0 0.0 -8.925140200429e-04 
-2.901697666163e-04 2.957652242808e-06 0.0 
2.957652242808e-06 1.700907778148e-03 0.0 
0.0 0.0 -2.887053311254e-04 
-2.259876589125e-04 -1.628476741887e-06 0.0 
-1.628476741887e-06 1.207242233754e-03 0.0 
0.0 0.0 -2.186270541161e-04 
-1.144042553285e-03 -3.972510573065e-06 0.0 
-3.972510573065e-06 7.644643748638e-03 0.0 
0.0 0.0 -1.142090266074e-03 
-5.015691225624e-04 -4.004972649539e-06 0.0 
-4.004972649539e-06 3.172327891301e-03 0.0 
0.0 0.0 -5.006138788623e-04 
-5.490396028458e-04 1.473261204918e-05 0.0 
1.473261204918e-05 3.431798845594e-03 0.0 
0.0 0.0 -5.359218444892e-04 
-3.334097721275e-04 4.182676571344e-07 0.0 
4.182676571344e-07 2.008435002854e-03 0.0 
0.0 0.0 -3.328711069468e-04 
-3.967994371980e-04 3.163349435490e-06 0.0 
3.163349435490e-06 2.463726324997e-03 0.0 
0.0 0.0 -3.985542937016e-04 
-7.704918098593e-04 -2.506920415004e-06 0.0 
-2.506920415004e-06 5.073323433467e-03 0.0 
0.0 0.0 -7.728092966600e-04 
-7.429755971663e-04 -1.604665723007e-06 0.0 
-1.604665723007e-06 4.873825415622e-03 0.0 
0.0 0.0 -7.441750962829e-04 
-1.041105417575e-03 -3.532804275432e-06 0.0 
-3.532804275432e-06 6.930458439110e-03 0.0 
0.0 0.0 -1.038692069610e-03 
-1.077691050121e-03 5.915919111278e-07 0.0 
5.915919111278e-07 7.178307862229e-03 0.0 
0.0 0.0 -1.074129358999e-03 
-9.680145315127e-04 -4.800744221103e-06 0.0 
-4.800744221103e-06 6.431374472253e-03 0.0 
0.0 0.0 -9.675620497173e-04 
-9.449072701309e-04 5.755247328024e-07 0.0 
5.755247328024e-07 6.268683015175e-03 0.0 
0.0 0.0 -9.439558448496e-04 
-8.793469056983e-04 2.651871179729e-07 0.0 
2.651871179729e-07 5.812169911194e-03 0.0 
0.0 0.0 -8.783802297791e-04 
-8.506353188412e-04 -1.205932606195e-06 0.0 
-1.205932606195e-06 5.614865789540e-03 0.0 
0.0 0.0 -8.502765121185e-04 
-1.205371287344e-03 -1.017172525851e-05 0.0 
-1.017172525851e-05 8.044519540676e-03 0.0 
0.0 0.0 -1.199867006878e-03 
-1.246871842620e-03 -1.782584577396e-06 0.0 
-1.782584577396e-06 8.370823131876e-03 0.0 
0.0 0.0 -1.242728214876e-03 
-5.491066158242e-04 3.796504913795e-06 0.0 
3.796504913795e-06 3.515286504074e-03 0.0 
0.0 0.0 -5.488632449009e-04 
-5.218883337208e-04 5.205294616476e-06 0.0 
5.205294616476e-06 3.322312941731e-03 0.0 
0.0 0.0 -5.212126360957e-04 
-5.377854580404e-04 4.143852354807e-06 0.0 
4.143852354807e-06 3.445251353484e-03 0.0 
0.0 0.0 -5.390128571062e-04 
-1.214529256448e-03 -6.301616693016e-06 0.0 
-6.301616693016e-06 8.215301645721e-03 0.0 
0.0 0.0 -1.223056365294e-03 
-1.220614911318e-03 1.691106897417e-05 0.0 
1.691106897417e-05 8.234319209605e-03 0.0 
0.0 0.0 -1.224004481682e-03 
-1.202636442924e-03 -1.450484537668e-05 0.0 
-1.450484537668e-05 8.019827799738e-03 0.0 
0.0 0.0 -1.195820777905e-03 
-1.923031463658e-04 -1.299529721394e-05 0.0 
-1.299529721394e-05 1.005842812599e-03 0.0 
0.0 0.0 -1.880780275778e-04 
-2.380587333974e-04 -7.138126159431e-06 0.0 
-7.138126159431e-06 1.256954979671e-03 0.0 
0.0 0.0 -2.247092568812e-04 
-2.809188805545e-04 -7.804988416244e-07 0.0 
-7.804988416244e-07 1.601881524077e-03 0.0 
0.0 0.0 -2.751197234063e-04 
-2.390831316058e-04 -1.697522519497e-05 0.0 
-1.697522519497e-05 1.345355817379e-03 0.0 
0.0 0.0 -2.407125716443e-04 
-1.208745358060e-03 2.226513834312e-07 0.0 
2.226513834312e-07 8.094728759758e-03 0.0 
0.0 0.0 -1.207258722210e-03 
-1.173002429905e-03 -1.580225167141e-08 0.0 
-1.580225167141e-08 7.865013445176e-03 0.0 
0.0 0.0 -1.172631524865e-03 
-1.245587066994e-03 -1.350830728559e-07 0.0 
-1.350830728559e-07 8.403006214559e-03 0.0 
0.0 0.0 -1.247471551777e-03 
-3.784912276641e-04 1.355145565503e-05 0.0 
1.355145565503e-05 2.351827936340e-03 0.0 
0.0 0.0 -3.801539159394e-04 
-1.045351836581e-03 6.057785964146e-06 0.0 
6.057785964146e-06 6.969505785323e-03 0.0 
0.0 0.0 -1.045322365442e-03 
-1.205298536187e-03 1.211257299848e-05 0.0 
1.211257299848e-05 8.100207033565e-03 0.0 
0.0 0.0 -1.207899217314e-03 
-1.178583019777e-03 1.757022163116e-05 0.0 
1.757022163116e-05 7.916687945301e-03 0.0 
0.0 0.0 -1.178012378629e-03 
-1.242442001561e-03 9.743401619654e-06 0.0 
9.743401619654e-06 8.382783963078e-03 0.0 
0.0 0.0 -1.244624083072e-03 
-1.137070212873e-03 -2.028754131543e-06 0.0 
-2.028754131543e-06 7.646903784891e-03 0.0 
0.0 0.0 -1.142102124289e-03 
-1.209034666392e-03 -7.012965144968e-06 0.0 
-7.012965144968e-06 8.081623741308e-03 0.0 
0.0 0.0 -1.205428683694e-03 
-1.206763234680e-03 6.340388102845e-06 0.0 
6.340388102845e-06 8.101632159503e-03 0.0 
0.0 0.0 -1.209323031234e-03 
-1.526588308959e-04 -1.278274148865e-05 0.0 
-1.278274148865e-05 7.096255753314e-04 0.0 
0.0 0.0 -1.515181680101e-04 
-1.197635794990e-03 -1.679642684382e-05 0.0 
-1.679642684382e-05 8.038463106290e-03 0.0 
0.0 0.0 -1.199992767657e-03 
-8.372255126924e-04 -1.581405743943e-06 0.0 
-1.581405743943e-06 5.516497338344e-03 0.0 
0.0 0.0 -8.371571859873e-04 
-1.098991945020e-04 -3.154449405114e-05 0.0 
-3.154449405114e-05 5.330743413542e-04 0.0 
0.0 0.0 -1.134605161963e-04 
-7.981850025034e-04 -4.161080113052e-07 0.0 
-4.161080113052e-07 5.308479178574e-03 0.0 
0.0 0.0 -8.070151920887e-04 
-8.429634412097e-04 -1.709371110710e-06 0.0 
-1.709371110710e-06 5.581100165216e-03 0.0 
0.0 0.0 -8.451615393777e-04 
-7.696584184699e-04 -4.438777502690e-06 0.0 
-4.438777502690e-06 5.046252634616e-03 0.0 
0.0 0.0 -7.748096441827e-04 
-3.107010397172e-04 9.959927229254e-06 0.0 
9.959927229254e-06 1.894638977858e-03 0.0 
0.0 0.0 -3.155299188714e-04 
-8.095068364426e-04 -1.064416675752e-05 0.0 
-1.064416675752e-05 5.359424365734e-03 0.0 
0.0 0.0 -8.174106193842e-04 
-8.516632903957e-04 -1.548663215885e-05 0.0 
-1.548663215885e-05 5.659882039523e-03 0.0 
0.0 0.0 -8.556612431672e-04 
-1.454483653541e-04 3.285604104571e-06 0.0 
3.285604104571e-06 7.139538730243e-04 0.0 
0.0 0.0 -1.421329337195e-04 
-1.249632985061e-03 3.450770483263e-06 0.0 
3.450770483263e-06 8.450128189206e-03 0.0 
0.0 0.0 -1.259301554906e-03 
-1.652376678941e-04 -1.286666981347e-05 0.0 
-1.286666981347e-05 7.455520390208e-04 0.0 
0.0 0.0 -1.556443337539e-04 
-1.771144640534e-04 -1.673852043297e-05 0.0 
-1.673852043297e-05 9.409763732996e-04 0.0 
0.0 0.0 -1.806578101979e-04 
-1.211541890789e-03 1.467961613660e-05 0.0 
1.467961613660e-05 8.216069586299e-03 0.0 
0.0 0.0 -1.221214701962e-03 
-1.182137557378e-03 -1.347893005180e-06 0.0 
-1.347893005180e-06 7.946617508211e-03 0.0 
0.0 0.0 -1.184344882880e-03 
-1.248636598491e-03 -6.710766209713e-06 0.0 
-6.710766209713e-06 8.399111666310e-03 0.0 
0.0 0.0 -1.247726601234e-03 
-1.216304493113e-03 1.376146948645e-05 0.0 
1.376146948645e-05 8.121468603000e-03 0.0 
0.0 0.0 -1.211018817991e-03 
-1.146160367712e-03 -4.978228076883e-06 0.0 
-4.978228076883e-06 7.680298396241e-03 0.0 
0.0 0.0 -1.147066289601e-03 
-1.174333499691e-03 6.447300312305e-06 0.0 
6.447300312305e-06 7.890872304648e-03 0.0 
0.0 0.0 -1.176490610025e-03 
-8.022613359354e-04 -1.465561338708e-05 0.0 
-1.465561338708e-05 5.265642214057e-03 0.0 
0.0 0.0 -7.985989294648e-04 
-1.243628943204e-03 1.764986030872e-05 0.0 
1.764986030872e-05 8.400828657624e-03 0.0 
0.0 0.0 -1.249018369598e-03 
-1.202560827820e-03 4.472912903621e-06 0.0 
4.472912903621e-06 8.095627160272e-03 0.0 
0.0 0.0 -1.207442871744e-03 
-1.280707394095e-03 9.871433926358e-06 0.0 
9.871433926358e-06 8.646120131381e-03 0.0 
0.0 0.0 -1.277927415301e-03 
-6.139046463498e-04 4.062295408134e-06 0.0 
4.062295408134e-06 3.949909662933e-03 0.0 
0.0 0.0 -6.108003466767e-04 
-4.855763441254e-04 3.057596715554e-06 0.0 
3.057596715554e-06 3.031592722143e-03 0.0 
0.0 0.0 -4.789358348571e-04 
-4.592668061051e-04 2.643196690481e-06 0.0 
2.643196690481e-06 2.831145132009e-03 0.0 
0.0 0.0 -4.527251363391e-04 
-3.939664762502e-04 4.015896243424e-05 0.0 
4.015896243424e-05 2.394779108390e-03 0.0 
0.0 0.0 -3.875663759467e-04 
-1.235451159508e-03 5.414867173193e-06 0.0 
5.414867173193e-06 8.338545045283e-03 0.0 
0.0 0.0 -1.240180566941e-03 
-1.197541601819e-03 2.184484790423e-05 0.0 
2.184484790423e-05 8.058909055166e-03 0.0 
0.0 0.0 -1.200590015451e-03 
-1.087867486780e-03 1.085013592512e-06 0.0 
1.085013592512e-06 7.270465583492e-03 0.0 
0.0 0.0 -1.087555896896e-03 
-1.022984886136e-03 4.510930018261e-06 0.0 
4.510930018261e-06 6.802736585016e-03 0.0 
0.0 0.0 -1.020738973070e-03 
-8.163996236660e-04 7.186741062483e-06 0.0 
7.186741062483e-06 5.339991771102e-03 0.0 
0.0 0.0 -8.108182148135e-04 
-8.104965103200e-04 -8.251273631999e-06 0.0 
-8.251273631999e-06 5.308853861974e-03 0.0 
0.0 0.0 -8.077352941366e-04 
-8.720514006204e-04 3.179792081286e-05 0.0 
3.179792081286e-05 5.733381675574e-03 0.0 
0.0 0.0 -8.678526801547e-04 
-8.648510791427e-04 -7.111218047989e-06 0.0 
-7.111218047989e-06 5.661166370703e-03 0.0 
0.0 0.0 -8.609153521579e-04 
-9.263549734801e-04 3.033239231777e-05 0.0 
3.033239231777e-05 6.105443762298e-03 0.0 
0.0 0.0 -9.200517378055e-04 
-9.083479877115e-04 -1.416522287398e-05 0.0 
-1.416522287398e-05 6.036653926986e-03 0.0 
0.0 0.0 -9.108947733944e-04 
-9.698621139042e-04 -2.949214397531e-05 0.0 
-2.949214397531e-05 6.467199866666e-03 0.0 
0.0 0.0 -9.726914458129e-04 
-1.247222366311e-03 2.606056517107e-05 0.0 
2.606056517107e-05 8.375150940582e-03 0.0 
0.0 0.0 -1.245087786853e-03 
-3.186375953883e-04 9.254464651470e-06 0.0 
9.254464651470e-06 1.904578218722e-03 0.0 
0.0 0.0 -3.180830487989e-04 
-6.795655702328e-04 3.950407328818e-06 0.0 
3.950407328818e-06 4.416747400763e-03 0.0 
0.0 0.0 -6.783069842581e-04 
-1.217523867403e-03 -1.107710803929e-05 0.0 
-1.107710803929e-05 8.250220171501e-03 0.0 
0.0 0.0 -1.228261380050e-03 
-1.189954932966e-03 -3.389414248165e-06 0.0 
-3.389414248165e-06 7.976695802146e-03 0.0 
0.0 0.0 -1.187396807988e-03 
-6.030585832721e-04 2.040094254680e-06 0.0 
2.040094254680e-06 3.869813641297e-03 0.0 
0.0 0.0 -6.000944487132e-04 
-5.459736888774e-04 1.094222006423e-05 0.0 
1.094222006423e-05 3.457763009941e-03 0.0 
0.0 0.0 -5.401620014017e-04 
-1.244604975369e-03 1.395843640121e-05 0.0 
1.395843640121e-05 8.345755076324e-03 0.0 
0.0 0.0 -1.238794375355e-03 
-5.618086059147e-04 1.672788938663e-06 0.0 
1.672788938663e-06 3.593027472553e-03 0.0 
0.0 0.0 -5.600314934590e-04 
-1.295241739404e-03 -3.069672707254e-06 0.0 
-3.069672707254e-06 8.734931616820e-03 0.0 
0.0 0.0 -1.295459716840e-03 
-4.726518995245e-05 -5.619949717432e-06 0.0 
-5.619949717432e-06 2.661811301103e-04 0.0 
0.0 0.0 -5.690003420296e-05 
-1.291194022148e-04 1.153791065657e-05 0.0 
1.153791065657e-05 6.783732708890e-04 0.0 
0.0 0.0 -1.353443326634e-04 
-5.978702258073e-04 2.845759188033e-06 0.0 
2.845759188033e-06 3.846572588730e-03 0.0 
0.0 0.0 -5.969207367497e-04 
-6.645061217588e-04 1.210892726750e-06 0.0 
1.210892726750e-06 4.303380572845e-03 0.0 
0.0 0.0 -6.620222007989e-04 
-5.132181813278e-04 9.130074641247e-06 0.0 
9.130074641247e-06 3.278288147999e-03 0.0 
0.0 0.0 -5.157319100482e-04 
-4.860075133993e-04 2.990028342235e-06 0.0 
2.990028342235e-06 3.124396954495e-03 0.0 
0.0 0.0 -4.917183783407e-04 
-1.011317378684e-03 6.487621353874e-07 0.0 
6.487621353874e-07 6.733904614894e-03 0.0 
0.0 0.0 -1.010552660601e-03 
-1.970258742010e-04 -2.540004491937e-06 0.0 
-2.540004491937e-06 1.065332307301e-03 0.0 
0.0 0.0 -1.995083582888e-04 
-3.139166667020e-04 -2.253789274914e-06 0.0 
-2.253789274914e-06 1.850494599455e-03 0.0 
0.0 0.0 -3.106934562087e-04 
-9.732483420248e-04 2.855591412463e-05 0.0 
2.855591412463e-05 6.524849625930e-03 0.0 
0.0 0.0 -9.796923013958e-04 
-2.492954901946e-04 5.421975703594e-07 0.0 
5.421975703594e-07 1.421478567984e-03 0.0 
0.0 0.0 -2.487700610537e-04 
-1.054075874997e-03 3.591188931439e-06 0.0 
3.591188931439e-06 7.044165573929e-03 0.0 
0.0 0.0 -1.055800198362e-03 
-5.906078188001e-04 -3.257939390625e-06 0.0 
-3.257939390625e-06 3.796619652219e-03 0.0 
0.0 0.0 -5.891999696964e-04 
-7.180999395262e-04 1.178684333613e-07 0.0 
1.178684333613e-07 4.675154024113e-03 0.0 
0.0 0.0 -7.153500975001e-04 
-3.728153202836e-04 5.624284337179e-06 0.0 
5.624284337179e-06 2.280349559801e-03 0.0 
0.0 0.0 -3.721998919698e-04 
-5.103591414383e-04 -9.070033727981e-06 0.0 
-9.070033727981e-06 3.229749929793e-03 0.0 
0.0 0.0 -5.080103017801e-04 
-8.695833745558e-04 -3.060324942188e-06 0.0 
-3.060324942188e-06 5.711345853531e-03 0.0 
0.0 0.0 -8.638580894607e-04 
-8.186088136840e-04 -7.130242765400e-06 0.0 
-7.130242765400e-06 5.325410070609e-03 0.0 
0.0 0.0 -8.086477316853e-04 
-7.808475722582e-04 4.208348100155e-06 0.0 
4.208348100155e-06 5.088284712977e-03 0.0 
0.0 0.0 -7.738406155293e-04 
-6.192436331633e-04 -2.766602775213e-06 0.0 
-2.766602775213e-06 3.995359302638e-03 0.0 
0.0 0.0 -6.178822433291e-04 
-5.311490319335e-04 1.040423507353e-05 0.0 
1.040423507353e-05 3.373878795457e-03 0.0 
0.0 0.0 -5.288330985435e-04 
-4.650941372061e-04 3.123945634371e-06 0.0 
3.123945634371e-06 2.898874049441e-03 0.0 
0.0 0.0 -4.617239487405e-04 
-8.245081772930e-04 8.576273435795e-07 0.0 
8.576273435795e-07 5.414129368543e-03 0.0 
0.0 0.0 -8.213029907542e-04 
-1.107776256753e-03 4.822798209685e-06 0.0 
4.822798209685e-06 7.407183480602e-03 0.0 
0.0 0.0 -1.107475121065e-03 
-1.139123580733e-03 8.505935532864e-06 0.0 
8.505935532864e-06 7.608538315330e-03 0.0 
0.0 0.0 -1.136341617999e-03 
-1.199876040135e-03 -5.928463900786e-08 0.0 
-5.928463900786e-08 8.046533922637e-03 0.0 
0.0 0.0 -1.199268560344e-03 
-1.168168474149e-03 4.195650786325e-06 0.0 
4.195650786325e-06 7.812169121329e-03 0.0 
0.0 0.0 -1.164598082371e-03 
-1.102136352719e-03 2.455120919214e-06 0.0 
2.455120919214e-06 7.358887921961e-03 0.0 
0.0 0.0 -1.100413285504e-03 
-1.128466826395e-03 -6.206260029605e-06 0.0 
-6.206260029605e-06 7.555420673368e-03 0.0 
0.0 0.0 -1.129075729544e-03 
-1.196306272628e-03 1.070052804672e-05 0.0 
1.070052804672e-05 8.004295185816e-03 0.0 
0.0 0.0 -1.193594387005e-03 
-1.153224420722e-03 -4.335162695894e-08 0.0 
-4.335162695894e-08 7.767660328472e-03 0.0 
0.0 0.0 -1.159256375294e-03 
-1.235596637609e-03 -1.164422989239e-05 0.0 
-1.164422989239e-05 8.301735673801e-03 0.0 
0.0 0.0 -1.234286862126e-03 
-1.186419994292e-03 -1.475121185168e-05 0.0 
-1.475121185168e-05 7.963391228364e-03 0.0 
0.0 0.0 -1.187309181180e-03 
-1.120005548931e-03 2.940168057839e-06 0.0 
2.940168057839e-06 7.498615446152e-03 0.0 
0.0 0.0 -1.120864512401e-03 
-1.154875778754e-03 1.588860619802e-06 0.0 
1.588860619802e-06 7.686132635796e-03 0.0 
0.0 0.0 -1.147759711419e-03 
-1.213465252650e-03 -6.064802065599e-06 0.0 
-6.064802065599e-06 8.128624196229e-03 0.0 
0.0 0.0 -1.207767947030e-03 
-1.084932373400e-03 -2.016919157366e-06 0.0 
-2.016919157366e-06 7.235951787837e-03 0.0 
0.0 0.0 -1.082593982084e-03 
-1.254330692315e-03 -4.481726023085e-06 0.0 
-4.481726023085e-06 8.484172233715e-03 0.0 
0.0 0.0 -1.264544343569e-03 
-6.624416308103e-04 2.474610527099e-06 0.0 
2.474610527099e-06 4.298662523578e-03 0.0 
0.0 0.0 -6.621140475474e-04 
-1.785384896330e-04 7.817361308898e-06 0.0 
7.817361308898e-06 9.797346640556e-04 0.0 
0.0 0.0 -1.850918921636e-04 
-1.812548087706e-04 3.762529197937e-05 0.0 
3.762529197937e-05 9.321215546565e-04 0.0 
0.0 0.0 -1.767209935827e-04 
-7.539589003549e-04 1.955358916881e-06 0.0 
1.955358916881e-06 4.924010090496e-03 0.0 
0.0 0.0 -7.509174086159e-04 
-1.304930514548e-03 2.715145444474e-06 0.0 
2.715145444474e-06 8.760435441101e-03 0.0 
0.0 0.0 -1.299806302097e-03 
-1.304281806298e-03 1.236291440943e-07 0.0 
1.236291440943e-07 8.779429009152e-03 0.0 
0.0 0.0 -1.301753673823e-03 
-4.909194379315e-04 2.965411161262e-07 0.0 
2.965411161262e-07 3.101621980483e-03 0.0 
0.0 0.0 -4.895692906686e-04 
-1.302172698065e-03 -1.121402078109e-06 0.0 
-1.121402078109e-06 8.776859442822e-03 0.0 
0.0 0.0 -1.303413959896e-03 
-8.069978020621e-04 -2.494686579821e-06 0.0 
-2.494686579821e-06 5.276076784830e-03 0.0 
0.0 0.0 -8.012154088905e-04 
-3.570511327706e-04 3.379375906443e-06 0.0 
3.379375906443e-06 2.154968683645e-03 0.0 
0.0 0.0 -3.530685601169e-04 
-1.302556100553e-03 -9.155318300848e-06 0.0 
-9.155318300848e-06 8.779430224672e-03 0.0 
0.0 0.0 -1.304286792737e-03 
-1.070880273795e-03 7.212077137813e-06 0.0 
7.212077137813e-06 7.154951258216e-03 0.0 
0.0 0.0 -1.071440646998e-03 
-1.034235002280e-03 -1.284962224397e-06 0.0 
-1.284962224397e-06 6.899499474228e-03 0.0 
0.0 0.0 -1.034857077839e-03 
-1.003722632452e-03 2.735580280944e-06 0.0 
2.735580280944e-06 6.699806917378e-03 0.0 
0.0 0.0 -1.006057961993e-03 
-1.300150248326e-03 -1.392366785444e-05 0.0 
-1.392366785444e-05 8.797329976127e-03 0.0 
0.0 0.0 -1.305867370806e-03 
-9.260727886855e-04 3.160967958008e-07 0.0 
3.160967958008e-07 6.120955206479e-03 0.0 
0.0 0.0 -9.232948652302e-04 
-1.306196713142e-03 -8.296229578648e-06 0.0 
-8.296229578648e-06 8.804073325104e-03 0.0 
0.0 0.0 -1.306016332489e-03 
-9.052728605033e-04 -4.849094365264e-06 0.0 
-4.849094365264e-06 5.990555075409e-03 0.0 
0.0 0.0 -9.039903713831e-04 
-8.761060883680e-04 -1.507187481079e-06 0.0 
-1.507187481079e-06 5.787161046779e-03 0.0 
0.0 0.0 -8.747633066757e-04 
-8.116067085345e-04 -5.312091983304e-07 0.0 
-5.312091983304e-07 5.336659872116e-03 0.0 
0.0 0.0 -8.101682821885e-04 
-1.090435695547e-03 -5.471004820644e-06 0.0 
-5.471004820644e-06 7.297274492399e-03 0.0 
0.0 0.0 -1.092245366321e-03 
-1.304752605299e-03 5.119868144755e-06 0.0 
5.119868144755e-06 8.772978853590e-03 0.0 
0.0 0.0 -1.302677999426e-03 
-1.251945645214e-03 -2.706015879738e-06 0.0 
-2.706015879738e-06 8.407016214184e-03 0.0 
0.0 0.0 -1.248400714067e-03 
-1.246920299523e-03 -1.300681603294e-05 0.0 
-1.300681603294e-05 8.402409073512e-03 0.0 
0.0 0.0 -1.248426544684e-03 
-1.200536970879e-03 5.026882822595e-07 0.0 
5.026882822595e-07 8.002917905198e-03 0.0 
0.0 0.0 -1.189114855724e-03 
-1.300430795451e-03 -3.697458702284e-07 0.0 
-3.697458702284e-07 8.777742711435e-03 0.0 
0.0 0.0 -1.303398793257e-03 
-1.305040401458e-03 -2.477912411200e-06 0.0 
-2.477912411200e-06 8.792831145886e-03 0.0 
0.0 0.0 -1.306665994082e-03 
-1.309321026579e-03 -3.535422289665e-06 0.0 
-3.535422289665e-06 8.803291043654e-03 0.0 
0.0 0.0 -1.308500709484e-03 
-4.563282024572e-04 7.998262252154e-06 0.0 
7.998262252154e-06 2.871636865217e-03 0.0 
0.0 0.0 -4.564773689951e-04 
-4.946429183726e-04 2.495592359726e-06 0.0 
2.495592359726e-06 3.130328514227e-03 0.0 
0.0 0.0 -4.934415926888e-04 
-5.584596756046e-04 8.667542273929e-07 0.0 
8.667542273929e-07 3.577137698620e-03 0.0 
0.0 0.0 -5.576035839405e-04 
-5.302623041630e-04 -1.383760276120e-07 0.0 
-1.383760276120e-07 3.381956619872e-03 0.0 
0.0 0.0 -5.298816096007e-04 
-4.659671190879e-04 -4.163529231182e-07 0.0 
-4.163529231182e-07 2.931155601344e-03 0.0 
0.0 0.0 -4.652367627802e-04 
-5.016537237260e-04 2.063261409906e-06 0.0 
2.063261409906e-06 3.184734037305e-03 0.0 
0.0 0.0 -5.016361848483e-04 
-5.661735479294e-04 -1.745642799752e-06 0.0 
-1.745642799752e-06 3.632429034736e-03 0.0 
0.0 0.0 -5.657331850765e-04 
-4.736975024202e-04 4.166873871265e-06 0.0 
4.166873871265e-06 2.986059562016e-03 0.0 
0.0 0.0 -4.731795164401e-04 
-1.136859235010e-03 -3.377117996664e-07 0.0 
-3.377117996664e-07 7.623291641590e-03 0.0 
0.0 0.0 -1.138512926666e-03 
-1.305247072706e-03 8.619226715474e-06 0.0 
8.619226715474e-06 8.792398553622e-03 0.0 
0.0 0.0 -1.305779161548e-03 
-9.003036646772e-04 5.242872870141e-08 0.0 
5.242872870141e-08 5.967493708530e-03 0.0 
0.0 0.0 -9.007942405787e-04 
-8.714438606503e-04 -2.881495110610e-08 0.0 
-2.881495110610e-08 5.762779516703e-03 0.0 
0.0 0.0 -8.713600568839e-04 
-8.060291522058e-04 2.568870967989e-06 0.0 
2.568870967989e-06 5.307363937555e-03 0.0 
0.0 0.0 -8.059887332522e-04 
-6.767854044606e-04 -2.452778344841e-06 0.0 
-2.452778344841e-06 4.414816973838e-03 0.0 
0.0 0.0 -6.781883600425e-04 
-7.139648610370e-04 -1.142183076152e-06 0.0 
-1.142183076152e-06 4.673969170683e-03 0.0 
0.0 0.0 -7.153987595530e-04 
-7.802120795526e-04 -1.536270118857e-06 0.0 
-1.536270118857e-06 5.133033430624e-03 0.0 
0.0 0.0 -7.812419408864e-04 
-6.404629301343e-04 -4.612028746758e-06 0.0 
-4.612028746758e-06 4.156213633446e-03 0.0 
0.0 0.0 -6.407943132712e-04 
-9.874131908799e-04 -6.712457213202e-07 0.0 
-6.712457213202e-07 6.570776206516e-03 0.0 
0.0 0.0 -9.876394229526e-04 
-1.303361853095e-03 -8.460317239555e-06 0.0 
-8.460317239555e-06 8.788997264875e-03 0.0 
0.0 0.0 -1.305003056577e-03 
-8.872565026320e-04 -1.178797543715e-06 0.0 
-1.178797543715e-06 5.871190587017e-03 0.0 
0.0 0.0 -8.871663004355e-04 
-6.846436599198e-04 7.853769409056e-07 0.0 
7.853769409056e-07 4.472455721995e-03 0.0 
0.0 0.0 -6.865966444657e-04 
-7.539028914794e-04 -4.959050989062e-06 0.0 
-4.959050989062e-06 4.922681506756e-03 0.0 
0.0 0.0 -7.516786372745e-04 
-8.065421024267e-04 1.420005202742e-05 0.0 
1.420005202742e-05 5.322326400601e-03 0.0 
0.0 0.0 -8.094822736869e-04 
-8.086043951130e-04 -1.965516725377e-05 0.0 
-1.965516725377e-05 5.337498560082e-03 0.0 
0.0 0.0 -8.097394517040e-04 
-8.597670883848e-04 -1.890965562489e-05 0.0 
-1.890965562489e-05 5.752558822544e-03 0.0 
0.0 0.0 -8.733121467894e-04 
-8.092120706638e-04 -2.844643670805e-05 0.0 
-2.844643670805e-05 5.361887279047e-03 0.0 
0.0 0.0 -8.155917408702e-04 
-8.008122296240e-04 -3.960466263523e-06 0.0 
-3.960466263523e-06 5.274822743462e-03 0.0 
0.0 0.0 -8.015266587451e-04 
-8.309313177437e-04 -3.374628280082e-06 0.0 
-3.374628280082e-06 5.475720121040e-03 0.0 
0.0 0.0 -8.302790088839e-04 
-7.940624788884e-04 8.919203165315e-07 0.0 
8.919203165315e-07 5.224020544311e-03 0.0 
0.0 0.0 -7.937858958383e-04 
-8.582675862213e-04 -3.216784494421e-06 0.0 
-3.216784494421e-06 5.673950666655e-03 0.0 
0.0 0.0 -8.590670690980e-04 
-8.174868470622e-04 -1.134099850246e-05 0.0 
-1.134099850246e-05 5.408679153658e-03 0.0 
0.0 0.0 -8.213578559547e-04 
-7.534944197864e-04 -1.238974191231e-05 0.0 
-1.238974191231e-05 4.986891128186e-03 0.0 
0.0 0.0 -7.608744282309e-04 
-8.810221771506e-04 -8.901330273947e-06 0.0 
-8.901330273947e-06 5.862708610279e-03 0.0 
0.0 0.0 -8.866101721103e-04 
-8.418977428013e-04 7.461726785164e-06 0.0 
7.461726785164e-06 5.581554122099e-03 0.0 
0.0 0.0 -8.437388122980e-04 
-7.467365547974e-04 -1.323074519901e-05 0.0 
-1.323074519901e-05 4.916042254111e-03 0.0 
0.0 0.0 -7.509531518293e-04 
-6.281984343026e-05 -8.116789961943e-06 0.0 
-8.116789961943e-06 3.039228182762e-04 0.0 
0.0 0.0 -5.875963060191e-05 
-1.355333239518e-04 1.033404854003e-05 0.0 
1.033404854003e-05 6.720001517331e-04 0.0 
0.0 0.0 -1.336704791874e-04 
-1.282422711095e-04 -8.546555161067e-06 0.0 
-8.546555161067e-06 6.602474725937e-04 0.0 
0.0 0.0 -1.318084371690e-04 
-1.928083139697e-04 -4.221005670837e-06 0.0 
-4.221005670837e-06 1.041957248050e-03 0.0 
0.0 0.0 -1.954650243430e-04 
-2.029746956204e-04 1.944205005130e-05 0.0 
1.944205005130e-05 1.074330231207e-03 0.0 
0.0 0.0 -1.996745964068e-04 
-2.516532851574e-04 2.529704688886e-06 0.0 
2.529704688886e-06 1.468491691138e-03 0.0 
0.0 0.0 -2.586654344069e-04 
-2.430663838691e-04 -2.535368885226e-05 0.0 
-2.535368885226e-05 1.426461466079e-03 0.0 
0.0 0.0 -2.494736616194e-04 
-1.355920943443e-04 -1.133959606150e-05 0.0 
-1.133959606150e-05 6.743890404386e-04 0.0 
0.0 0.0 -1.329747880817e-04 
-5.916993316141e-05 -2.320129164536e-06 0.0 
-2.320129164536e-06 2.981065881978e-04 0.0 
0.0 0.0 -5.794854899121e-05 
-1.308876834568e-04 2.474427721016e-06 0.0 
2.474427721016e-06 6.544145800914e-04 0.0 
0.0 0.0 -1.315689628225e-04 
-5.700489183938e-05 1.676517162928e-06 0.0 
1.676517162928e-06 2.920832994483e-04 0.0 
0.0 0.0 -5.719792189481e-05 
-1.267870388795e-04 3.184293720064e-07 0.0 
3.184293720064e-07 6.426508649646e-04 0.0 
0.0 0.0 -1.299421249981e-04 
-1.994525793345e-04 4.316150581251e-06 0.0 
4.316150581251e-06 1.086316860704e-03 0.0 
0.0 0.0 -2.038865569970e-04 
-2.958463202672e-04 -2.325840136610e-07 0.0 
-2.325840136610e-07 1.726726422813e-03 0.0 
0.0 0.0 -2.925150634556e-04 
-1.301927001702e-03 1.803371535174e-05 0.0 
1.803371535174e-05 8.724914391627e-03 0.0 
0.0 0.0 -1.294874803588e-03 
-6.623633125060e-04 4.679424212514e-06 0.0 
4.679424212514e-06 4.281040174428e-03 0.0 
0.0 0.0 -6.595503360071e-04 
-6.354861751499e-04 1.876466608724e-05 0.0 
1.876466608724e-05 4.076331016795e-03 0.0 
0.0 0.0 -6.264797819744e-04 
-5.600446600075e-04 1.786449294601e-05 0.0 
1.786449294601e-05 3.606391450714e-03 0.0 
0.0 0.0 -5.641716646261e-04 
-6.018396249448e-04 -5.225124560804e-06 0.0 
-5.225124560804e-06 3.865969919155e-03 0.0 
0.0 0.0 -5.974662984275e-04 
-6.971605018600e-04 2.093612217780e-05 0.0 
2.093612217780e-05 4.459125829408e-03 0.0 
0.0 0.0 -6.865721209800e-04 
-5.253766316691e-04 1.379974747340e-05 0.0 
1.379974747340e-05 3.365120840457e-03 0.0 
0.0 0.0 -5.286920563404e-04 
-4.997160733495e-04 2.272416899085e-05 0.0 
2.272416899085e-05 3.215754431319e-03 0.0 
0.0 0.0 -5.038291843518e-04 
-6.458044435334e-05 -2.268465343248e-06 0.0 
-2.268465343248e-06 3.061057402814e-04 0.0 
0.0 0.0 -5.826474687104e-05 
-1.365107396446e-04 -1.511681688148e-05 0.0 
-1.511681688148e-05 6.671209083265e-04 0.0 
0.0 0.0 -1.338235891287e-04 
-1.329944671513e-04 1.728312419837e-05 0.0 
1.728312419837e-05 6.296869018316e-04 0.0 
0.0 0.0 -1.329549719063e-04 
-2.100970973320e-04 9.757108245941e-06 0.0 
9.757108245941e-06 1.064616598962e-03 0.0 
0.0 0.0 -1.976702944042e-04 
-1.907673612491e-04 -8.037251829839e-06 0.0 
-8.037251829839e-06 1.054607848416e-03 0.0 
0.0 0.0 -1.960684762570e-04 
-1.291399276805e-04 5.589927261900e-07 0.0 
5.589927261900e-07 6.717799826530e-04 0.0 
0.0 0.0 -1.329856363161e-04 
-1.332115243411e-04 1.116366171221e-05 0.0 
1.116366171221e-05 6.698553752901e-04 0.0 
0.0 0.0 -1.328726424774e-04 
-6.123018265422e-05 -2.226991271356e-06 0.0 
-2.226991271356e-06 2.966407899736e-04 0.0 
0.0 0.0 -5.786540529839e-05 
-1.318562850822e-04 -3.804233771773e-06 0.0 
-3.804233771773e-06 6.638255964619e-04 0.0 
0.0 0.0 -1.308611123410e-04 
-1.930153503724e-04 1.076682971487e-05 0.0 
1.076682971487e-05 1.064256298509e-03 0.0 
0.0 0.0 -1.994574706984e-04 
-5.202007941149e-05 -5.137534308526e-06 0.0 
-5.137534308526e-06 2.737802621694e-04 0.0 
0.0 0.0 -5.534513975843e-05 
-1.060096701056e-03 -2.854203109808e-05 0.0 
-2.854203109808e-05 7.080511066382e-03 0.0 
0.0 0.0 -1.060427308513e-03 
-1.101245431622e-03 -2.265554676226e-05 0.0 
-2.265554676226e-05 7.326835296988e-03 0.0 
0.0 0.0 -1.097082233180e-03 
-1.303771853134e-03 -3.955883839581e-06 0.0 
-3.955883839581e-06 8.773017437093e-03 0.0 
0.0 0.0 -1.300897016293e-03 
-7.525731418623e-04 -2.553654618198e-05 0.0 
-2.553654618198e-05 4.964909214712e-03 0.0 
0.0 0.0 -7.584009903415e-04 
-5.671099606206e-05 2.025225744384e-06 0.0 
2.025225744384e-06 2.971089711715e-04 0.0 
0.0 0.0 -5.884959645352e-05 
-1.296052575560e-03 -1.034030829996e-06 0.0 
-1.034030829996e-06 8.715505616406e-03 0.0 
0.0 0.0 -1.292107529982e-03 
-1.300241625373e-03 -1.196764903613e-05 0.0 
-1.196764903613e-05 8.782711832524e-03 0.0 
0.0 0.0 -1.303172775453e-03 
-1.297505069925e-03 9.380535181827e-06 0.0 
9.380535181827e-06 8.784349503541e-03 0.0 
0.0 0.0 -1.304823151597e-03 
-1.190737660973e-03 8.854859890049e-06 0.0 
8.854859890049e-06 7.990764728896e-03 0.0 
0.0 0.0 -1.191058493115e-03 
-1.217720710694e-03 3.907545697867e-06 0.0 
3.907545697867e-06 8.218811643119e-03 0.0 
0.0 0.0 -1.224322658093e-03 
-1.301588133362e-03 5.941663257066e-06 0.0 
5.941663257066e-06 8.722214772172e-03 0.0 
0.0 0.0 -1.294569364341e-03 
-4.491538872292e-04 3.425462149076e-06 0.0 
3.425462149076e-06 2.829494640627e-03 0.0 
0.0 0.0 -4.512809064328e-04 
-1.219121534789e-03 1.093707084889e-05 0.0 
1.093707084889e-05 8.264877250953e-03 0.0 
0.0 0.0 -1.225740639889e-03 
-1.181600644536e-03 2.602984545298e-06 0.0 
2.602984545298e-06 7.898254142128e-03 0.0 
0.0 0.0 -1.178628832109e-03 
-3.271245572877e-04 -7.559619564438e-07 0.0 
-7.559619564438e-07 1.969290585494e-03 0.0 
0.0 0.0 -3.268383546744e-04 
-4.353641825210e-04 2.390544680942e-06 0.0 
2.390544680942e-06 2.735090082528e-03 0.0 
0.0 0.0 -4.373623857420e-04 
-9.887113880157e-04 2.647202920658e-06 0.0 
2.647202920658e-06 6.590846789922e-03 0.0 
0.0 0.0 -9.899674718230e-04 
-9.119629022756e-04 -1.217041315548e-06 0.0 
-1.217041315548e-06 6.048161892543e-03 0.0 
0.0 0.0 -9.123979313600e-04 
-1.130689760044e-03 -2.404858458438e-06 0.0 
-2.404858458438e-06 7.563292742476e-03 0.0 
0.0 0.0 -1.130390451587e-03 
-9.324694232769e-04 5.707369421319e-08 0.0 
5.707369421319e-08 6.185987888161e-03 0.0 
0.0 0.0 -9.322225209316e-04 
-1.071273223037e-03 -3.400166334330e-06 0.0 
-3.400166334330e-06 7.166794807332e-03 0.0 
0.0 0.0 -1.073123358692e-03 
-1.246132006402e-03 2.306789458162e-05 0.0 
2.306789458162e-05 8.374889379432e-03 0.0 
0.0 0.0 -1.244129926109e-03 
-2.805652380378e-04 -4.717906580444e-06 0.0 
-4.717906580444e-06 1.732830044642e-03 0.0 
0.0 0.0 -2.939217362394e-04 
-9.366102056303e-04 6.334636788540e-06 0.0 
6.334636788540e-06 6.210934504197e-03 0.0 
0.0 0.0 -9.364826870394e-04 
-9.120035044512e-04 6.559904903640e-06 0.0 
6.559904903640e-06 6.042070421320e-03 0.0 
0.0 0.0 -9.130351872960e-04 
-1.076387052139e-03 -3.360138210491e-06 0.0 
-3.360138210491e-06 7.184148688862e-03 0.0 
0.0 0.0 -1.075939795031e-03 
-4.728102684627e-04 -4.847791376172e-06 0.0 
-4.847791376172e-06 2.971951481931e-03 0.0 
0.0 0.0 -4.709579147287e-04 
-7.280869989337e-04 -1.354131871902e-05 0.0 
-1.354131871902e-05 4.780585004203e-03 0.0 
0.0 0.0 -7.304257169629e-04 
-3.156217836785e-04 -5.089469505394e-06 0.0 
-5.089469505394e-06 1.850033331779e-03 0.0 
0.0 0.0 -3.104331955072e-04 
-1.248490279357e-03 4.323593742190e-06 0.0 
4.323593742190e-06 8.417241528006e-03 0.0 
0.0 0.0 -1.251461238623e-03 
-7.622164195474e-04 2.744443286021e-08 0.0 
2.744443286021e-08 4.979735740211e-03 0.0 
0.0 0.0 -7.590395520047e-04 
-7.692339302932e-04 1.865673827908e-06 0.0 
1.865673827908e-06 5.052106796517e-03 0.0 
0.0 0.0 -7.694287042311e-04 
-6.089514047186e-04 -2.827610219313e-06 0.0 
-2.827610219313e-06 3.952389816829e-03 0.0 
0.0 0.0 -6.120242822960e-04 
-4.863994982411e-04 4.620884363803e-06 0.0 
4.620884363803e-06 3.095071946727e-03 0.0 
0.0 0.0 -4.894362539292e-04 
-4.085285658609e-04 2.731393984612e-06 0.0 
2.731393984612e-06 2.545768838986e-03 0.0 
0.0 0.0 -4.100935076628e-04 
-6.992575820323e-04 4.870514854700e-06 0.0 
4.870514854700e-06 4.559959934010e-03 0.0 
0.0 0.0 -6.990242139688e-04 
-7.223263303115e-04 1.302313524945e-06 0.0 
1.302313524945e-06 4.731940689569e-03 0.0 
0.0 0.0 -7.237531747479e-04 
-1.024699739881e-03 1.653915686907e-06 0.0 
1.653915686907e-06 6.828723699735e-03 0.0 
0.0 0.0 -1.024340108609e-03 
-1.114669738223e-03 -2.759101931756e-06 0.0 
-2.759101931756e-06 7.438940293733e-03 0.0 
0.0 0.0 -1.112552678551e-03 
-7.837510010110e-05 1.769113863605e-05 0.0 
1.769113863605e-05 3.475076993491e-04 0.0 
0.0 0.0 -7.176178390651e-05 
-1.061119640742e-03 3.173187948481e-06 0.0 
3.173187948481e-06 7.087064478518e-03 0.0 
0.0 0.0 -1.061672265243e-03 
-8.547259828445e-04 -2.557127369107e-07 0.0 
-2.557127369107e-07 5.648936137093e-03 0.0 
0.0 0.0 -8.552253422611e-04 
-9.623974161653e-04 3.311768495808e-06 0.0 
3.311768495808e-06 6.381924133008e-03 0.0 
0.0 0.0 -9.599091010803e-04 
-1.065648191468e-03 -5.923271574284e-06 0.0 
-5.923271574284e-06 7.096345784584e-03 0.0 
0.0 0.0 -1.062640036239e-03 
-2.783998705012e-04 -2.298480854645e-06 0.0 
-2.298480854645e-06 1.715267207971e-03 0.0 
0.0 0.0 -2.909097700217e-04 
-1.100348444179e-03 -1.047118262827e-06 0.0 
-1.047118262827e-06 7.347575470432e-03 0.0 
0.0 0.0 -1.098747615487e-03 
-1.217488030174e-03 6.848117353208e-06 0.0 
6.848117353208e-06 8.139341092548e-03 0.0 
0.0 0.0 -1.212453547082e-03 
-8.838417845426e-04 -2.547521654436e-05 0.0 
-2.547521654436e-05 5.856172789859e-03 0.0 
0.0 0.0 -8.875094802107e-04 
-2.462642296247e-04 -5.029644419161e-06 0.0 
-5.029644419161e-06 1.395111957816e-03 0.0 
0.0 0.0 -2.442495876194e-04 
-8.759046619095e-04 5.034941322805e-06 0.0 
5.034941322805e-06 5.740576630140e-03 0.0 
0.0 0.0 -8.692469099983e-04 
-1.203793389362e-03 4.534763565520e-06 0.0 
4.534763565520e-06 8.059936526886e-03 0.0 
0.0 0.0 -1.202705989510e-03 
-1.079080060508e-03 -5.136331411317e-07 0.0 
-5.136331411317e-07 7.205755043523e-03 0.0 
0.0 0.0 -1.078220320736e-03 
-4.314372885713e-04 -1.108621221051e-05 0.0 
-1.108621221051e-05 2.708353444584e-03 0.0 
0.0 0.0 -4.336020471383e-04 
-7.948364969143e-04 -2.495821117467e-06 0.0 
-2.495821117467e-06 5.224923007330e-03 0.0 
0.0 0.0 -7.943514531093e-04 
-7.442299034792e-04 7.080946298818e-07 0.0 
7.080946298818e-07 4.865637424934e-03 0.0 
0.0 0.0 -7.428158978947e-04 
-6.789224573102e-04 -9.062719812299e-06 0.0 
-9.062719812299e-06 4.471649261705e-03 0.0 
0.0 0.0 -6.865907729104e-04 
-1.214586438871e-03 8.024689912005e-06 0.0 
8.024689912005e-06 8.094834481891e-03 0.0 
0.0 0.0 -1.206557591227e-03 
-8.183792108392e-04 -4.169826119299e-07 0.0 
-4.169826119299e-07 5.384604412960e-03 0.0 
0.0 0.0 -8.172945450071e-04 
-1.123489439230e-03 6.695635103125e-06 0.0 
6.695635103125e-06 7.497291039553e-03 0.0 
0.0 0.0 -1.120054252910e-03 
-9.239887439885e-04 -3.012520915636e-06 0.0 
-3.012520915636e-06 6.128004255690e-03 0.0 
0.0 0.0 -9.240809108919e-04 
-4.625644487372e-04 -4.132620430772e-06 0.0 
-4.132620430772e-06 2.914638302916e-03 0.0 
0.0 0.0 -4.629711029823e-04 
-1.121328625940e-03 -6.182944165331e-06 0.0 
-6.182944165331e-06 7.491651595506e-03 0.0 
0.0 0.0 -1.118919378802e-03 
-7.755037056980e-04 -1.629710765715e-06 0.0 
-1.629710765715e-06 5.087191610180e-03 0.0 
0.0 0.0 -7.743986277066e-04 
-1.165062879850e-03 -3.169874331001e-06 0.0 
-3.169874331001e-06 7.809274989077e-03 0.0 
0.0 0.0 -1.164614768973e-03 
-1.031438669585e-03 -5.272017896808e-06 0.0 
-5.272017896808e-06 6.875819044251e-03 0.0 
0.0 0.0 -1.031533309622e-03 
-6.383681651354e-04 -1.646563539662e-06 0.0 
-1.646563539662e-06 4.132113027582e-03 0.0 
0.0 0.0 -6.375205594687e-04 
-1.120494149395e-03 -5.362450288189e-06 0.0 
-5.362450288189e-06 7.500323563236e-03 0.0 
0.0 0.0 -1.121170216299e-03 
-7.780649319143e-04 1.815637845550e-06 0.0 
1.815637845550e-06 5.106477756251e-03 0.0 
0.0 0.0 -7.773091661689e-04 
-1.101658644117e-03 9.961254280374e-07 0.0 
9.961254280374e-07 7.356355521752e-03 0.0 
0.0 0.0 -1.099429584637e-03 
-7.271456150642e-04 1.682914491909e-06 0.0 
1.682914491909e-06 4.735785920808e-03 0.0 
0.0 0.0 -7.240542973723e-04 
-9.053111554421e-04 -2.304698340665e-06 0.0 
-2.304698340665e-06 5.989601996014e-03 0.0 
0.0 0.0 -9.041109700986e-04 
-9.863008524358e-04 -3.464876425147e-06 0.0 
-3.464876425147e-06 6.537147458198e-03 0.0 
0.0 0.0 -9.824247929831e-04 
-8.612973840953e-04 -1.473763681906e-07 0.0 
-1.473763681906e-07 5.687311619382e-03 0.0 
0.0 0.0 -8.608216255090e-04 
-9.529955923155e-04 1.728497531747e-05 0.0 
1.728497531747e-05 6.336375010902e-03 0.0 
0.0 0.0 -9.534332399069e-04 
-1.092284604608e-03 2.589702392237e-06 0.0 
2.589702392237e-06 7.290468944473e-03 0.0 
0.0 0.0 -1.090315851396e-03 
-3.119597294078e-04 5.757369509455e-07 0.0 
5.757369509455e-07 1.828570008309e-03 0.0 
0.0 0.0 -3.071334217218e-04 
-5.718786607335e-04 -4.107371136136e-07 0.0 
-4.107371136136e-07 3.675898340669e-03 0.0 
0.0 0.0 -5.719042557127e-04 
-9.488327861295e-04 -5.202841949995e-06 0.0 
-5.202841949995e-06 6.331676782321e-03 0.0 
0.0 0.0 -9.536514739466e-04 
-1.157212024015e-03 -6.515732433154e-06 0.0 
-6.515732433154e-06 7.701144359915e-03 0.0 
0.0 0.0 -1.150585697120e-03 
-1.224312444037e-03 6.690841738661e-06 0.0 
6.690841738661e-06 8.269264616708e-03 0.0 
0.0 0.0 -1.229329624135e-03 
-6.820956806615e-04 3.615386019402e-06 0.0 
3.615386019402e-06 4.429302489243e-03 0.0 
0.0 0.0 -6.801182747099e-04 
-1.081664045678e-03 -5.547367653092e-06 0.0 
-5.547367653092e-06 7.227268260236e-03 0.0 
0.0 0.0 -1.081576975854e-03 
-1.187584404498e-03 2.370146928360e-06 0.0 
2.370146928360e-06 7.946791552093e-03 0.0 
0.0 0.0 -1.185355684152e-03 
-7.511569300737e-04 3.681739321803e-07 0.0 
3.681739321803e-07 4.931952546785e-03 0.0 
0.0 0.0 -7.524367508395e-04 
-3.356805227239e-04 3.379744479913e-06 0.0 
3.379744479913e-06 2.005119320146e-03 0.0 
0.0 0.0 -3.333104686742e-04 
-2.618377986137e-04 -2.555233257102e-06 0.0 
-2.555233257102e-06 1.542022096797e-03 0.0 
0.0 0.0 -2.654833071040e-04 
-5.104550227812e-04 2.453007206933e-06 0.0 
2.453007206933e-06 3.238650363468e-03 0.0 
0.0 0.0 -5.092532232582e-04 
-7.832353398933e-04 -9.887778139641e-09 0.0 
-9.887778139641e-09 5.137653853930e-03 0.0 
0.0 0.0 -7.817448632792e-04 
-8.173389799679e-04 -1.106611203733e-06 0.0 
-1.106611203733e-06 5.390375532825e-03 0.0 
0.0 0.0 -8.181699076276e-04 
-1.246124432281e-03 8.592622963333e-06 0.0 
8.592622963333e-06 8.369587963902e-03 0.0 
0.0 0.0 -1.242275372262e-03 
-1.107849420052e-03 -3.778759466968e-06 0.0 
-3.778759466968e-06 7.425444910215e-03 0.0 
0.0 0.0 -1.110186454522e-03 
-1.040708302916e-03 -6.884984212009e-06 0.0 
-6.884984212009e-06 6.941970815521e-03 0.0 
0.0 0.0 -1.040857148505e-03 
-1.527209700993e-04 7.546329121840e-06 0.0 
7.546329121840e-06 7.439800217049e-04 0.0 
0.0 0.0 -1.519369657486e-04 
-7.102565865705e-04 9.145208254823e-06 0.0 
9.145208254823e-06 4.653234839291e-03 0.0 
0.0 0.0 -7.126371066839e-04 
-1.135597595821e-03 -4.213475059683e-06 0.0 
-4.213475059683e-06 7.626732622695e-03 0.0 
0.0 0.0 -1.139074001596e-03 
-8.226822624901e-04 -1.510040807203e-06 0.0 
-1.510040807203e-06 5.420363658064e-03 0.0 
0.0 0.0 -8.223634564932e-04 
-1.130518051871e-03 1.404153544734e-06 0.0 
1.404153544734e-06 7.542933512680e-03 0.0 
0.0 0.0 -1.126725356868e-03 
-7.730615027956e-04 -9.222257900680e-07 0.0 
-9.222257900680e-07 5.135473060459e-03 0.0 
0.0 0.0 -7.817916451012e-04 
-1.247411460160e-03 -9.243273431626e-06 0.0 
-9.243273431626e-06 8.408376939558e-03 0.0 
0.0 0.0 -1.249754184115e-03 
-5.771690213087e-04 1.052821776230e-05 0.0 
1.052821776230e-05 3.703652171226e-03 0.0 
0.0 0.0 -5.757576642514e-04 
-1.170100609579e-03 -4.592953287668e-06 0.0 
-4.592953287668e-06 7.841109684677e-03 0.0 
0.0 0.0 -1.168790087466e-03 
-1.048740829087e-03 7.093154405119e-06 0.0 
7.093154405119e-06 6.993148920806e-03 0.0 
0.0 0.0 -1.047452346298e-03 
-5.261911269690e-04 1.909166491033e-06 0.0 
1.909166491033e-06 3.348024093927e-03 0.0 
0.0 0.0 -5.248669331578e-04 
-7.497340550745e-04 3.779029275121e-06 0.0 
3.779029275121e-06 4.910648048132e-03 0.0 
0.0 0.0 -7.498068730476e-04 
-1.245763281564e-03 6.672330238112e-06 0.0 
6.672330238112e-06 8.371772027766e-03 0.0 
0.0 0.0 -1.243807156011e-03 
-1.117703748533e-03 2.194090469623e-06 0.0 
2.194090469623e-06 7.455079503703e-03 0.0 
0.0 0.0 -1.114542488500e-03 
-9.240113812817e-04 -1.198482107008e-06 0.0 
-1.198482107008e-06 6.127698402996e-03 0.0 
0.0 0.0 -9.240346875991e-04 
-7.861216138726e-04 -9.318371198972e-07 0.0 
-9.318371198972e-07 5.164682558518e-03 0.0 
0.0 0.0 -7.856950878877e-04 
-6.177367695525e-04 -9.517786211564e-06 0.0 
-9.517786211564e-06 3.998918706787e-03 0.0 
0.0 0.0 -6.191377506773e-04 
-8.459389819467e-04 -1.995047945433e-06 0.0 
-1.995047945433e-06 5.590510800112e-03 0.0 
0.0 0.0 -8.467704336814e-04 
-9.417404110639e-04 -4.713677469938e-06 0.0 
-4.713677469938e-06 6.237570578551e-03 0.0 
0.0 0.0 -9.395224721591e-04 
-1.301810218994e-03 1.765430740852e-06 0.0 
1.765430740852e-06 8.802491938361e-03 0.0 
0.0 0.0 -1.306889097489e-03 
-1.157353199815e-03 -3.220404905657e-06 0.0 
-3.220404905657e-06 7.685679656852e-03 0.0 
0.0 0.0 -1.148622835147e-03 
-9.680073786691e-04 -7.171826150541e-06 0.0 
-7.171826150541e-06 6.444265355765e-03 0.0 
0.0 0.0 -9.696660045843e-04 
-8.086257517039e-04 -2.588621595282e-06 0.0 
-2.588621595282e-06 5.331381971752e-03 0.0 
0.0 0.0 -8.097439408559e-04 
-9.758814597954e-04 -1.266881133519e-06 0.0 
-1.266881133519e-06 6.485358460050e-03 0.0 
0.0 0.0 -9.749840279683e-04 
-1.830817571470e-04 -6.180925807514e-06 0.0 
-6.180925807514e-06 1.047535156776e-03 0.0 
0.0 0.0 -1.970089232863e-04 
-6.448165884168e-04 4.844410112051e-06 0.0 
4.844410112051e-06 4.184395435775e-03 0.0 
0.0 0.0 -6.447622526173e-04 
-8.380376970069e-04 -3.326700526570e-06 0.0 
-3.326700526570e-06 5.530905952602e-03 0.0 
0.0 0.0 -8.382314227178e-04 
-5.380831595536e-04 5.638960694152e-07 0.0 
5.638960694152e-07 3.435054469080e-03 0.0 
0.0 0.0 -5.374563060555e-04 
-8.145911171393e-04 -5.272270293875e-07 0.0 
-5.272270293875e-07 5.360444702331e-03 0.0 
0.0 0.0 -8.136389561866e-04 
-1.227174802196e-03 1.276784792674e-05 0.0 
1.276784792674e-05 8.302917635780e-03 0.0 
0.0 0.0 -1.234277959947e-03 
-8.676280294557e-04 -2.040186177104e-06 0.0 
-2.040186177104e-06 5.731120870230e-03 0.0 
0.0 0.0 -8.668853676281e-04 
-6.021329393957e-04 -1.386838022364e-06 0.0 
-1.386838022364e-06 3.881394728410e-03 0.0 
0.0 0.0 -6.015264011954e-04 
-8.964491756309e-04 6.553805878037e-07 0.0 
6.553805878037e-07 5.929532426753e-03 0.0 
0.0 0.0 -8.955981815692e-04 
-5.512424861372e-04 -5.409275769267e-06 0.0 
-5.409275769267e-06 3.527258760375e-03 0.0 
0.0 0.0 -5.519888345566e-04 
-9.985595773763e-04 -1.015463228059e-05 0.0 
-1.015463228059e-05 6.646851321069e-03 0.0 
0.0 0.0 -9.983267706061e-04 
-9.215064714085e-04 1.407126120283e-07 0.0 
1.407126120283e-07 6.123536504565e-03 0.0 
0.0 0.0 -9.243533921793e-04 
-1.004433427130e-03 -6.175544373031e-06 0.0 
-6.175544373031e-06 6.679704057184e-03 0.0 
0.0 0.0 -1.003151257071e-03 
-2.014979142818e-04 -1.982424414319e-05 0.0 
-1.982424414319e-05 1.118628598720e-03 0.0 
0.0 0.0 -2.040322045631e-04 
-9.524490800155e-04 -1.599154771322e-06 0.0 
-1.599154771322e-06 6.321577882661e-03 0.0 
0.0 0.0 -9.517466134248e-04 
-1.151323095747e-03 8.970357597644e-06 0.0 
8.970357597644e-06 7.737810625971e-03 0.0 
0.0 0.0 -1.155419075730e-03 
-5.642242598448e-04 4.052530886012e-06 0.0 
4.052530886012e-06 3.629354201895e-03 0.0 
0.0 0.0 -5.654343806685e-04 
-8.430123869833e-04 1.789712430402e-06 0.0 
1.789712430402e-06 5.558821852331e-03 0.0 
0.0 0.0 -8.420324705410e-04 
-1.064235786948e-03 -6.087517053086e-06 0.0 
-6.087517053086e-06 7.102031703649e-03 0.0 
0.0 0.0 -1.063653581392e-03 
-4.868392782287e-04 -2.122282903210e-05 0.0 
-2.122282903210e-05 3.049667270729e-03 0.0 
0.0 0.0 -4.839843007303e-04 
-9.081670479201e-04 2.415755652445e-07 0.0 
2.415755652445e-07 6.014517114267e-03 0.0 
0.0 0.0 -9.074658271045e-04 
-1.068096740287e-03 -5.575043742394e-06 0.0 
-5.575043742394e-06 7.125147388201e-03 0.0 
0.0 0.0 -1.067288052377e-03 
-9.808487270250e-04 4.928616331368e-06 0.0 
4.928616331368e-06 6.520553626334e-03 0.0 
0.0 0.0 -9.801762873724e-04 
-8.470889807538e-04 7.350311736697e-07 0.0 
7.350311736697e-07 5.583629027931e-03 0.0 
0.0 0.0 -8.455731917576e-04 
-9.738610544212e-04 -1.605198629571e-06 0.0 
-1.605198629571e-06 6.476533283027e-03 0.0 
0.0 0.0 -9.738262179588e-04 
-5.107285056984e-04 1.726041735429e-05 0.0 
1.726041735429e-05 3.222108758113e-03 0.0 
0.0 0.0 -5.057041985798e-04 
-4.224983753939e-04 8.320492048914e-06 0.0 
8.320492048914e-06 2.639215696168e-03 0.0 
0.0 0.0 -4.238464704258e-04 
-3.592226638991e-04 1.930188485338e-06 0.0 
1.930188485338e-06 2.185168436497e-03 0.0 
0.0 0.0 -3.586180353125e-04 
-6.301304693072e-04 -1.957277653439e-06 0.0 
-1.957277653439e-06 4.076615728565e-03 0.0 
0.0 0.0 -6.294631353604e-04 
-1.103647244802e-03 -2.847244465011e-06 0.0 
-2.847244465011e-06 7.378786394117e-03 0.0 
0.0 0.0 -1.103081964739e-03 
-2.559482480598e-04 -2.299545213337e-05 0.0 
-2.299545213337e-05 1.449439224095e-03 0.0 
0.0 0.0 -2.521214004998e-04 
-1.054932560315e-03 -8.075575040939e-06 0.0 
-8.075575040939e-06 7.041307941420e-03 0.0 
0.0 0.0 -1.054898413167e-03 
-2.650995954687e-04 -9.741906018430e-06 0.0 
-9.741906018430e-06 1.540523614087e-03 0.0 
0.0 0.0 -2.660187670962e-04 
-5.941857965255e-04 -1.478675907358e-06 0.0 
-1.478675907358e-06 3.826673915507e-03 0.0 
0.0 0.0 -5.935709857392e-04 
-1.072876015775e-03 5.343583090716e-06 0.0 
5.343583090716e-06 7.192683716525e-03 0.0 
0.0 0.0 -1.077081564483e-03 
-9.321388457541e-04 -4.809931635804e-05 0.0 
-4.809931635804e-05 6.189086367178e-03 0.0 
0.0 0.0 -9.315431351609e-04 
-6.217808576271e-04 7.207492673365e-07 0.0 
7.207492673365e-07 4.019499781701e-03 0.0 
0.0 0.0 -6.211106552582e-04 
-3.980785928310e-04 9.124267879156e-06 0.0 
9.124267879156e-06 2.462820491612e-03 0.0 
0.0 0.0 -3.989951351066e-04 
-5.857792725332e-04 1.985647166840e-06 0.0 
1.985647166840e-06 3.767357559114e-03 0.0 
0.0 0.0 -5.850331209179e-04 
-9.112445775697e-04 1.341366700746e-06 0.0 
1.341366700746e-06 6.030641515549e-03 0.0 
0.0 0.0 -9.098959706900e-04 
-6.128747489382e-04 2.675469426610e-06 0.0 
2.675469426610e-06 3.959229262623e-03 0.0 
0.0 0.0 -6.124823626799e-04 
-5.756573688348e-04 3.659606376946e-06 0.0 
3.659606376946e-06 3.704306399129e-03 0.0 
0.0 0.0 -5.760838601101e-04 
-1.248717565768e-03 -5.535813130846e-06 0.0 
-5.535813130846e-06 8.366851373819e-03 0.0 
0.0 0.0 -1.242975171717e-03 
-6.019390184711e-04 5.185969946797e-06 0.0 
5.185969946797e-06 3.892334269077e-03 0.0 
0.0 0.0 -6.030381679152e-04 
-1.295271260153e-03 -1.307857609192e-05 0.0 
-1.307857609192e-05 8.801391727423e-03 0.0 
0.0 0.0 -1.305370344976e-03 
-1.297876901994e-03 -6.017750132352e-06 0.0 
-6.017750132352e-06 8.756844234735e-03 0.0 
0.0 0.0 -1.298405437673e-03 
-8.024513087945e-04 -3.501513188687e-05 0.0 
-3.501513188687e-05 5.274019348334e-03 0.0 
0.0 0.0 -7.997855503562e-04 
-4.254874939528e-04 2.211998048868e-05 0.0 
2.211998048868e-05 2.578130903576e-03 0.0 
0.0 0.0 -4.121418992062e-04 
-6.508445551723e-05 3.373963354691e-06 0.0 
3.373963354691e-06 3.129607731290e-04 0.0 
0.0 0.0 -6.767973558354e-05 
-4.292600751843e-04 -1.740584050413e-05 0.0 
-1.740584050413e-05 2.722306669060e-03 0.0 
0.0 0.0 -4.369243393394e-04 
-4.999202719491e-04 4.843301359547e-06 0.0 
4.843301359547e-06 3.182731173833e-03 0.0 
0.0 0.0 -5.013603847490e-04 
-1.049593438910e-03 4.881772467556e-07 0.0 
4.881772467556e-07 6.980157933883e-03 0.0 
0.0 0.0 -1.045752072333e-03 
-8.016418655660e-04 8.516902983733e-06 0.0 
8.516902983733e-06 5.282246051091e-03 0.0 
0.0 0.0 -8.029817139903e-04 
-4.608886666597e-04 1.012378092174e-05 0.0 
1.012378092174e-05 2.916090626050e-03 0.0 
0.0 0.0 -4.630712860745e-04 
-1.246806949158e-03 1.140227857438e-06 0.0 
1.140227857438e-06 8.413894031447e-03 0.0 
0.0 0.0 -1.250093291501e-03 
-1.307722546221e-03 -1.676098542473e-05 0.0 
-1.676098542473e-05 8.791128539895e-03 0.0 
0.0 0.0 -1.306737725957e-03 
-1.028575866269e-03 -1.191239422504e-05 0.0 
-1.191239422504e-05 6.846657277970e-03 0.0 
0.0 0.0 -1.028769680629e-03 
-1.163087821654e-03 1.345534459019e-05 0.0 
1.345534459019e-05 7.719562356736e-03 0.0 
0.0 0.0 -1.152835590205e-03 
-1.010012111677e-03 5.602799068573e-06 0.0 
5.602799068573e-06 6.735304706068e-03 0.0 
0.0 0.0 -1.010595862668e-03 
-1.192917845756e-03 -1.946426676365e-05 0.0 
-1.946426676365e-05 7.943592006894e-03 0.0 
0.0 0.0 -1.185717314024e-03 
-7.402744024553e-04 -5.561571202994e-05 0.0 
-5.561571202994e-05 4.875197844443e-03 0.0 
0.0 0.0 -7.451086181774e-04 
-1.274079564101e-04 8.533594738719e-07 0.0 
8.533594738719e-07 6.386951496409e-04 0.0 
0.0 0.0 -1.305770345747e-04 
-9.879127130266e-04 1.076817561932e-05 0.0 
1.076817561932e-05 6.567110452730e-03 0.0 
0.0 0.0 -9.879584850274e-04 
-3.534515362331e-04 7.236051672507e-06 0.0 
7.236051672507e-06 2.087202708593e-03 0.0 
0.0 0.0 -3.437331075899e-04 
-3.524709716392e-04 5.779652154935e-07 0.0 
5.779652154935e-07 2.140761807693e-03 0.0 
0.0 0.0 -3.524505972177e-04 
-2.862323044565e-04 -1.529779689703e-06 0.0 
-1.529779689703e-06 1.660184670344e-03 0.0 
0.0 0.0 -2.832406441101e-04 
-4.971401695179e-04 3.027225826791e-06 0.0 
3.027225826791e-06 3.086653370969e-03 0.0 
0.0 0.0 -4.856826860430e-04 
-1.849802147030e-04 7.362673378462e-06 0.0 
7.362673378462e-06 1.024898749324e-03 0.0 
0.0 0.0 -1.942844358666e-04 
-2.871589559832e-04 8.860091783271e-06 0.0 
8.860091783271e-06 1.702387296045e-03 0.0 
0.0 0.0 -2.888902821290e-04 
-1.252722980053e-03 -1.832850037119e-05 0.0 
-1.832850037119e-05 8.369674222349e-03 0.0 
0.0 0.0 -1.245112051941e-03 
-7.926742292646e-04 -4.732996368771e-05 0.0 
-4.732996368771e-05 5.282443543312e-03 0.0 
0.0 0.0 -8.050116406322e-04 
-1.106262153398e-03 -9.161465296480e-06 0.0 
-9.161465296480e-06 7.422861484469e-03 0.0 
0.0 0.0 -1.110409235593e-03 
-2.195876704695e-04 6.903728268321e-06 0.0 
6.903728268321e-06 1.223775342103e-03 0.0 
0.0 0.0 -2.210826640180e-04 
-1.251801969841e-03 -1.462670654941e-05 0.0 
-1.462670654941e-05 8.397461752409e-03 0.0 
0.0 0.0 -1.247366155457e-03 
-1.250359073208e-03 6.645071777124e-06 0.0 
6.645071777124e-06 8.395286537502e-03 0.0 
0.0 0.0 -1.246608778627e-03 
-1.310061522222e-03 -1.730900586740e-05 0.0 
-1.730900586740e-05 8.803293803047e-03 0.0 
0.0 0.0 -1.306249356034e-03 
-1.172119357565e-03 -2.987465004728e-06 0.0 
-2.987465004728e-06 7.878008992010e-03 0.0 
0.0 0.0 -1.176371721005e-03 
-2.180388128944e-04 -2.924544915625e-06 0.0 
-2.924544915625e-06 1.180274271759e-03 0.0 
0.0 0.0 -2.130604828246e-04 
-8.442593127821e-04 -4.359073983633e-05 0.0 
-4.359073983633e-05 5.668047935442e-03 0.0 
0.0 0.0 -8.603500797662e-04 
-1.256774464996e-03 -9.387217043006e-06 0.0 
-9.387217043006e-06 8.415646483150e-03 0.0 
0.0 0.0 -1.250827372426e-03 
-1.072962494745e-03 -3.075351322395e-06 0.0 
-3.075351322395e-06 7.220489030587e-03 0.0 
0.0 0.0 -1.080253149739e-03 
-1.299956315864e-03 5.907340655945e-05 0.0 
5.907340655945e-05 8.822006705032e-03 0.0 
0.0 0.0 -1.309985050881e-03 
-7.806106637019e-04 -1.684448248671e-06 0.0 
-1.684448248671e-06 5.212548371629e-03 0.0 
0.0 0.0 -7.979019438933e-04 
-1.254167562389e-03 1.146355027263e-05 0.0 
1.146355027263e-05 8.413941643761e-03 0.0 
0.0 0.0 -1.252774941638e-03 
-2.773224831107e-04 -1.248540399814e-05 0.0 
-1.248540399814e-05 1.578602427722e-03 0.0 
0.0 0.0 -2.737139294578e-04 
-1.253589576776e-03 1.816421682348e-05 0.0 
1.816421682348e-05 8.411285343410e-03 0.0 
0.0 0.0 -1.254166199180e-03 
-1.115104807484e-03 -2.535602796044e-06 0.0 
-2.535602796044e-06 7.430825592014e-03 0.0 
0.0 0.0 -1.110316242656e-03 
-8.788088159188e-04 2.953384655579e-05 0.0 
2.953384655579e-05 5.848517526204e-03 0.0 
0.0 0.0 -8.840149073763e-04 
-8.453655219935e-04 1.276109640107e-05 0.0 
1.276109640107e-05 5.644378390582e-03 0.0 
0.0 0.0 -8.570326279659e-04 
-1.251636506986e-03 8.563362149488e-06 0.0 
8.563362149488e-06 8.428656629745e-03 0.0 
0.0 0.0 -1.256337174517e-03 
-1.259327999631e-03 -2.468624830886e-05 0.0 
-2.468624830886e-05 8.412107540714e-03 0.0 
0.0 0.0 -1.249505442739e-03 
-1.752421740853e-04 1.599785091571e-05 0.0 
1.599785091571e-05 9.248205746741e-04 0.0 
0.0 0.0 -1.769373265848e-04 
-1.014009013286e-03 3.718452203751e-05 0.0 
3.718452203751e-05 6.827048883928e-03 0.0 
0.0 0.0 -1.024357608964e-03 
-6.037112023629e-04 -1.928016981808e-05 0.0 
-1.928016981808e-05 3.870166564208e-03 0.0 
0.0 0.0 -5.984289768806e-04 
-1.136473903534e-04 -2.305801768321e-05 0.0 
-2.305801768321e-05 5.992740239483e-04 0.0 
0.0 0.0 -1.205697443559e-04 
-1.256657915508e-03 3.816415809549e-05 0.0 
3.816415809549e-05 8.403684845898e-03 0.0 
0.0 0.0 -1.249521112489e-03 
-1.181297459508e-03 -1.601502097637e-06 0.0 
-1.601502097637e-06 7.855797415999e-03 0.0 
0.0 0.0 -1.172189067419e-03 
-1.260809781498e-03 3.729628833418e-05 0.0 
3.729628833418e-05 8.413738862441e-03 0.0 
0.0 0.0 -1.251863004148e-03 
-2.027346260532e-04 2.709152210177e-05 0.0 
2.709152210177e-05 1.045860090397e-03 0.0 
0.0 0.0 -1.953152674555e-04 
-1.282550990439e-04 1.596967550426e-05 0.0 
1.596967550426e-05 5.957593377885e-04 0.0 
0.0 0.0 -1.273034037094e-04 
-1.264740521523e-03 1.076136126604e-05 0.0 
1.076136126604e-05 8.488256231164e-03 0.0 
0.0 0.0 -1.258522865334e-03 
-1.257630123801e-03 7.011893020697e-06 0.0 
7.011893020697e-06 8.461160637007e-03 0.0 
0.0 0.0 -1.257106814994e-03 
-2.964921431859e-04 1.458101898900e-05 0.0 
1.458101898900e-05 1.817377003358e-03 0.0 
0.0 0.0 -3.034980657766e-04 
-1.315300675602e-03 -4.616213654123e-06 0.0 
-4.616213654123e-06 8.874722920157e-03 0.0 
0.0 0.0 -1.314710167832e-03 
-1.230668747669e-04 -1.081893831763e-05 0.0 
-1.081893831763e-05 5.709731362741e-04 0.0 
0.0 0.0 -1.229206800733e-04 
-7.274132408296e-04 6.183789390236e-06 0.0 
6.183789390236e-06 4.811004360547e-03 0.0 
0.0 0.0 -7.389643750272e-04 
-1.204537552606e-04 -1.859174322418e-05 0.0 
-1.859174322418e-05 6.217166808925e-04 0.0 
0.0 0.0 -1.247417965529e-04 
-1.299793796178e-03 -5.184403467027e-05 0.0 
-5.184403467027e-05 8.811604799613e-03 0.0 
0.0 0.0 -1.308531455474e-03 
-1.262934174837e-03 2.444499081750e-05 0.0 
2.444499081750e-05 8.445031740868e-03 0.0 
0.0 0.0 -1.254845750201e-03 
-6.580718270354e-04 3.721306501361e-05 0.0 
3.721306501361e-05 4.264446760778e-03 0.0 
0.0 0.0 -6.564513288157e-04 
-7.456337922437e-04 2.770990182636e-05 0.0 
2.770990182636e-05 4.941313475091e-03 0.0 
0.0 0.0 -7.541421605440e-04 
-4.450321519268e-04 1.831097352044e-05 0.0 
1.831097352044e-05 2.791375237210e-03 0.0 
0.0 0.0 -4.426424662127e-04 
-1.211596464916e-03 3.979318020068e-05 0.0 
3.979318020068e-05 8.090084984478e-03 0.0 
0.0 0.0 -1.203498912175e-03 
-1.699334618160e-04 1.120862622912e-05 0.0 
1.120862622912e-05 9.446237105802e-04 0.0 
0.0 0.0 -1.843356288727e-04 
-1.269994123481e-03 -1.450914975506e-05 0.0 
-1.450914975506e-05 8.504040731719e-03 0.0 
0.0 0.0 -1.260296891839e-03 
-1.268600913962e-03 -6.159942340733e-06 0.0 
-6.159942340733e-06 8.509424202183e-03 0.0 
0.0 0.0 -1.261416966621e-03 
-1.266492101745e-03 9.280004247651e-06 0.0 
9.280004247651e-06 8.502341661499e-03 0.0 
0.0 0.0 -1.260618436842e-03 
-1.320646394007e-03 1.164813461446e-06 0.0 
1.164813461446e-06 8.896090470956e-03 0.0 
0.0 0.0 -1.317725628150e-03 
-1.063917710965e-04 3.406664009707e-05 0.0 
3.406664009707e-05 5.707022560973e-04 0.0 
0.0 0.0 -1.219614697575e-04 
-1.271929683323e-03 -9.688594658044e-06 0.0 
-9.688594658044e-06 8.520583266263e-03 0.0 
0.0 0.0 -1.263090216482e-03 
-1.211976787312e-03 3.126546850388e-05 0.0 
3.126546850388e-05 8.084092320638e-03 0.0 
0.0 0.0 -1.202239909569e-03 
-7.453046702514e-04 4.651614229786e-05 0.0 
4.651614229786e-05 4.880400084605e-03 0.0 
0.0 0.0 -7.439744481034e-04 
-1.252851707889e-03 4.006401018327e-05 0.0 
4.006401018327e-05 8.422629498426e-03 0.0 
0.0 0.0 -1.252574368527e-03 
-5.410687361656e-04 2.769520936269e-05 0.0 
2.769520936269e-05 3.454688790362e-03 0.0 
0.0 0.0 -5.383891422301e-04 
-2.371733345551e-04 -4.470106712651e-05 0.0 
-4.470106712651e-05 1.418248240622e-03 0.0 
0.0 0.0 -2.492021827984e-04 
-1.298998890690e-03 -2.770464845184e-05 0.0 
-2.770464845184e-05 8.833071909488e-03 0.0 
0.0 0.0 -1.313490227100e-03 
-4.294380069023e-05 -4.186010349566e-06 0.0 
-4.186010349566e-06 2.320436162997e-04 0.0 
0.0 0.0 -5.297760877488e-05 
-7.470694764219e-04 -2.192265105768e-05 0.0 
-2.192265105768e-05 4.855390412225e-03 0.0 
0.0 0.0 -7.402411036050e-04 
-1.312354484328e-03 4.131093532360e-05 0.0 
4.131093532360e-05 8.846630708308e-03 0.0 
0.0 0.0 -1.313492844077e-03 
-2.211400451138e-04 -3.676306702383e-06 0.0 
-3.676306702383e-06 1.335213202641e-03 0.0 
0.0 0.0 -2.401910970207e-04 
-8.452827785452e-04 -2.606429286929e-05 0.0 
-2.606429286929e-05 5.603903241888e-03 0.0 
0.0 0.0 -8.489638187885e-04 
-1.255507124853e-03 -9.186014831563e-06 0.0 
-9.186014831563e-06 8.480922712531e-03 0.0 
0.0 0.0 -1.260211869575e-03 
-8.025976065576e-04 9.592064473669e-06 0.0 
9.592064473669e-06 5.261098351640e-03 0.0 
0.0 0.0 -7.986629621775e-04 
-1.151240916671e-03 -6.084869299020e-05 0.0 
-6.084869299020e-05 7.669030971500e-03 0.0 
0.0 0.0 -1.148445367820e-03 
-2.192829735374e-04 1.243334644941e-05 0.0 
1.243334644941e-05 1.310510961281e-03 0.0 
0.0 0.0 -2.379222736554e-04 
-3.921137447330e-05 -2.374603163330e-06 0.0 
-2.374603163330e-06 2.327919393128e-04 0.0 
0.0 0.0 -4.855001867801e-05 
-9.645913781642e-04 -4.083102734347e-05 0.0 
-4.083102734347e-05 6.424950689754e-03 0.0 
0.0 0.0 -9.668795991591e-04 
-1.266746155896e-03 3.603621751388e-05 0.0 
3.603621751388e-05 8.474273100537e-03 0.0 
0.0 0.0 -1.258714341260e-03 
-1.271487619191e-03 -1.652780192113e-05 0.0 
-1.652780192113e-05 8.532655002207e-03 0.0 
0.0 0.0 -1.263997700767e-03 
-9.164544161814e-04 3.965640940816e-05 0.0 
3.965640940816e-05 6.111358236627e-03 0.0 
0.0 0.0 -9.199601189493e-04 
-2.093975888615e-04 -4.665649638245e-05 0.0 
-4.665649638245e-05 1.197818786362e-03 0.0 
0.0 0.0 -2.164625706183e-04 
-1.227420417668e-03 9.834631553132e-06 0.0 
9.834631553132e-06 8.219790599597e-03 0.0 
0.0 0.0 -1.221038716794e-03 
-6.921621610822e-04 -2.719005194183e-06 0.0 
-2.719005194183e-06 4.614590635001e-03 0.0 
0.0 0.0 -7.060606045913e-04 
-1.222382248160e-03 -1.550215016822e-05 0.0 
-1.550215016822e-05 8.147929268757e-03 0.0 
0.0 0.0 -1.208939113964e-03 
-1.221146925072e-03 -7.968249279300e-06 0.0 
-7.968249279300e-06 8.100682442682e-03 0.0 
0.0 0.0 -1.203806565432e-03 
-5.670525863280e-05 -1.771698635754e-05 0.0 
-1.771698635754e-05 2.585053466944e-04 0.0 
0.0 0.0 -6.449378323917e-05 
-8.615762060499e-04 1.909652726146e-05 0.0 
1.909652726146e-05 5.665696184107e-03 0.0 
0.0 0.0 -8.562696210230e-04 
-1.225143862683e-04 -2.984290666876e-05 0.0 
-2.984290666876e-05 5.860977302171e-04 0.0 
0.0 0.0 -1.223049983750e-04 
-1.270837356719e-03 -1.933520143365e-05 0.0 
-1.933520143365e-05 8.510135783999e-03 0.0 
0.0 0.0 -1.263714160583e-03 
-7.340830126836e-04 -1.335821332730e-05 0.0 
-1.335821332730e-05 4.821918862365e-03 0.0 
0.0 0.0 -7.344436328926e-04 
-2.777260844818e-04 -2.914177909710e-05 0.0 
-2.914177909710e-05 1.926657240019e-03 0.0 
0.0 0.0 -3.193537414966e-04 
-3.309390786780e-04 -1.795373795612e-06 0.0 
-1.795373795612e-06 2.009093472513e-03 0.0 
0.0 0.0 -3.266666666667e-04 
-3.365637611374e-04 -1.953033103217e-05 0.0 
-1.953033103217e-05 2.395340660532e-03 0.0 
0.0 0.0 -3.859030858720e-04 
-3.974252423505e-04 -3.636312148879e-06 0.0 
-3.636312148879e-06 2.393351786518e-03 0.0 
0.0 0.0 -3.933333333333e-04 
-4.176772664276e-04 -3.650619160961e-05 0.0 
-3.650619160961e-05 2.860283649269e-03 0.0 
0.0 0.0 -4.526870748299e-04 
-4.632043610658e-04 -3.909792630526e-06 0.0 
-3.909792630526e-06 2.935876671509e-03 0.0 
0.0 0.0 -4.600000000000e-04 
-4.858491939109e-04 -3.571106393789e-05 0.0 
-3.571106393789e-05 3.331481419020e-03 0.0 
0.0 0.0 -5.192176870747e-04 
-5.307983311464e-04 -4.380846350954e-06 0.0 
-4.380846350954e-06 3.321472726831e-03 0.0 
0.0 0.0 -5.266666666667e-04 
-5.549907469666e-04 -3.829926739680e-05 0.0 
-3.829926739680e-05 3.794910893621e-03 0.0 
0.0 0.0 -5.860204081633e-04 
-5.953475250696e-04 7.629065543805e-06 0.0 
7.629065543805e-06 3.863201785318e-03 0.0 
0.0 0.0 -5.933333333333e-04 
-6.234948668458e-04 -3.482962657325e-05 0.0 
-3.482962657325e-05 4.267925272266e-03 0.0 
0.0 0.0 -6.525251918948e-04 
-6.733326468399e-04 3.722248756964e-05 0.0 
3.722248756964e-05 4.248015244343e-03 0.0 
0.0 0.0 -6.600000000000e-04 

SCALARS node_materi_plasti_kappa_shear float
LOOKUP_TABLE default
1.154246033666e-04
3.030366954187e-03
5.919693902232e-03
5.923852315190e-03
2.859947626271e-04
6.218445993993e-04
8.718334659107e-04
1.197083009525e-03
1.504800919970e-03
1.797006115044e-03
2.096281833338e-03
2.401455262769e-03
2.703248692656e-03
3.016765538726e-03
3.359027883223e-03
3.663996831824e-03
3.908074174929e-03
4.228433772035e-03
4.543227631705e-03
4.848753617487e-03
5.161467818816e-03
5.477271259315e-03
5.779376537800e-03
5.932061195851e-03
5.925336573631e-03
5.920984287690e-03
5.924407700450e-03
5.915528138253e-03
5.915864416856e-03
5.918097125373e-03
5.921994664725e-03
5.927387718192e-03
5.930449677587e-03
5.921712747723e-03
5.924515498722e-03
5.931743115084e-03
5.928847067526e-03
5.919544915052e-03
5.911436947506e-03
5.907167024861e-03
5.916691287179e-03
5.925466264875e-03
5.926352037367e-03
5.927462665333e-03
5.926179788313e-03
5.923807961778e-03
5.921183308973e-03
5.929039143344e-03
5.928617810733e-03
5.930983770204e-03
5.930261081197e-03
5.934897168252e-03
5.940412066917e-03
5.938845524630e-03
5.922011629466e-03
5.913355498151e-03
5.926067531878e-03
5.924785671547e-03
5.926499683681e-03
5.927876554226e-03
5.924703349372e-03
5.915717987273e-03
5.917408892843e-03
5.920280365368e-03
5.931958681328e-03
5.938110150403e-03
5.906803770761e-03
5.928713183382e-03
5.925023434436e-03
5.923453604397e-03
5.939442334280e-03
5.942268996102e-03
3.313640150810e-03
3.643609585951e-03
3.947542440607e-03
4.242858391353e-03
4.550358348147e-03
4.852089997296e-03
5.156894848885e-03
5.448757344777e-03
5.772918013305e-03
9.252120421734e-05
3.026620073330e-03
3.625369357501e-04
6.731817662417e-04
9.805698534578e-04
1.246359956130e-03
1.455650881849e-03
1.761739050222e-03
2.071596637440e-03
2.380436576739e-03
2.688785350789e-03
1.321398755514e-03
1.503243346296e-03
1.805240586308e-03
2.108589051748e-03
2.410886229174e-03
2.706771452633e-03
2.974381815992e-03
2.988250338395e-03
2.992834626340e-03
2.988540146830e-03
3.040036634150e-03
2.993658303481e-03
2.986565369329e-03
2.994325014933e-03
3.003444053817e-03
3.004893136958e-03
3.000286560445e-03
2.997851424533e-03
2.994316307864e-03
3.001824735141e-03
9.621576344534e-05
1.072789967255e-04
9.631852337864e-05
9.634646192600e-05
1.161697218308e-04
1.255618245920e-04
1.234927640208e-04
1.176143698925e-04
1.181040846591e-04
1.155364499888e-04
1.206715439587e-04
1.365993450730e-04
1.279414962217e-04
1.070815165248e-04
1.087456221067e-04
1.225517974272e-04
1.266454771602e-04
1.116507655708e-04
1.010315185057e-04
1.375369627279e-03
1.352011908412e-03
1.347652221156e-03
1.347628248263e-03
1.348189243920e-03
1.348806099387e-03
1.349252444225e-03
1.349460629033e-03
1.349500073593e-03
1.349415305069e-03
1.349232117429e-03
1.348916661220e-03
1.348680481764e-03
1.348750868232e-03
1.349265019443e-03
1.349661015347e-03
1.350337871742e-03
1.350270556115e-03
1.351067276317e-03
1.349100889478e-03
1.348069457209e-03
1.337774974061e-03
1.209945172885e-03
1.406472201895e-03
1.491080212999e-03
1.478875045824e-03
1.477895659223e-03
1.479619060523e-03
1.478564647702e-03
1.478277220900e-03
1.477332716482e-03
1.477027418563e-03
1.477261296584e-03
1.477705681800e-03
1.477884862686e-03
1.477949264049e-03
1.477971194428e-03
1.477874591721e-03
1.477531872393e-03
1.476939422515e-03
1.476353314810e-03
1.476071760447e-03
1.476543377434e-03
1.479007895978e-03
1.494609376958e-03
1.795031686062e-03
1.783773745531e-03
1.782623055880e-03
1.782626379155e-03
1.783057178786e-03
1.783727354425e-03
1.784306026727e-03
1.784380359053e-03
1.784248010391e-03
1.784368936443e-03
1.784509361012e-03
1.784222028420e-03
1.783208560618e-03
1.783225774654e-03
1.784136159459e-03
1.786530570038e-03
1.785403695648e-03
1.784867355603e-03
1.800532715687e-03
1.713377617146e-03
2.018704063446e-03
2.107896464569e-03
2.095467463099e-03
2.092115637880e-03
2.090444484697e-03
2.089262768386e-03
2.091381496790e-03
2.091935832999e-03
2.091701405459e-03
2.090782435672e-03
2.090851254199e-03
2.091553502457e-03
2.090833695651e-03
2.089930293994e-03
2.089391547646e-03
2.089200621047e-03
2.089561437809e-03
2.092034405906e-03
2.102852006718e-03
2.407656875407e-03
2.395972459848e-03
2.394599199124e-03
2.395531468110e-03
2.394981263883e-03
2.396176998543e-03
2.397491354676e-03
2.397714307114e-03
2.395585196249e-03
2.397789855342e-03
2.399172565538e-03
2.398368259276e-03
2.398547875961e-03
2.393984296182e-03
2.398022086534e-03
2.418470853755e-03
2.331238587604e-03
2.637929620288e-03
2.723228742168e-03
2.707307494023e-03
2.703362484179e-03
2.705380261164e-03
2.706672240760e-03
2.703116806963e-03
2.702772263136e-03
2.703136713816e-03
2.702441216446e-03
2.701188865917e-03
2.700451988879e-03
2.702758821159e-03
2.699325300696e-03
2.707024502911e-03
2.723902039593e-03
2.292941970269e-04
5.236807730249e-04
8.235808296833e-04
1.134523506932e-03
1.324751298754e-03
1.629703414510e-03
1.935057087960e-03
2.241665025770e-03
2.548701800634e-03
2.861688706248e-03
7.103606478164e-04
5.814911313878e-03
2.047918518275e-04
1.970502068753e-04
5.819197632046e-03
1.328946267278e-03
3.191329080053e-03
5.810273490245e-03
1.892382905539e-03
5.822030968611e-03
2.522985579042e-03
5.833950524206e-03
1.864247367510e-04
5.824179591591e-03
3.155514371104e-03
1.957918245127e-03
4.023649944342e-03
5.811714724389e-03
5.825466270030e-03
5.824996473377e-03
5.797525205524e-03
5.833870913862e-03
3.279705906600e-03
3.278932509466e-03
3.299538154266e-03
4.392988308338e-03
5.825782847880e-03
1.875803799629e-04
2.130243859941e-04
4.990941270632e-03
3.266764248665e-03
1.027578116983e-03
5.770593586357e-03
5.837121425949e-03
5.820649096206e-03
5.802522940310e-03
5.827315517430e-03
2.124904197991e-04
3.271394634805e-03
5.775055632193e-03
5.005410343617e-03
2.049450714894e-04
2.556345996281e-03
5.876876022666e-03
1.638575426776e-03
1.018536859922e-03
2.209222523540e-03
2.829980156742e-03
3.757872655430e-04
3.812034731290e-03
5.879774981020e-03
2.000834389720e-04
5.582228690945e-03
3.282968380463e-03
3.405879163641e-03
3.554924991576e-03
3.706761369563e-03
3.858428676321e-03
3.994172834541e-03
3.835090176788e-03
4.124628089981e-03
3.963011153955e-03
4.154617485841e-03
4.253890367715e-03
4.090560016023e-03
4.382096032079e-03
4.218726563058e-03
3.929419603329e-03
4.056695462337e-03
3.767499058174e-03
3.894823734663e-03
4.184913419616e-03
4.022005877425e-03
3.732190171091e-03
3.858313833382e-03
3.569562641982e-03
3.695377336778e-03
3.406514106271e-03
3.532562577704e-03
3.821712444258e-03
3.658737601044e-03
3.369644961438e-03
3.495886750392e-03
3.207187652528e-03
3.332149617847e-03
3.621982769517e-03
3.458496973122e-03
3.166845774337e-03
3.294707675905e-03
3.002130027115e-03
3.131260622861e-03
2.837304896117e-03
2.965670032421e-03
3.259556182238e-03
3.094478366317e-03
2.799648397582e-03
2.927396624230e-03
3.222929756525e-03
3.055408384458e-03
3.351641860097e-03
3.184131490321e-03
2.889094859221e-03
3.017387565719e-03
3.312807633971e-03
3.144807155985e-03
2.850539984923e-03
2.978148191045e-03
3.273453875391e-03
3.105701933788e-03
2.811118638057e-03
2.939152856274e-03
3.235930558971e-03
3.066878938369e-03
2.770729598448e-03
2.897992444106e-03
3.196676201024e-03
3.025458962526e-03
3.326539777395e-03
2.725836099392e-03
2.853445082624e-03
2.552546008883e-03
2.681203652163e-03
3.749361599789e-03
2.379164116958e-03
2.254416588919e-03
2.509143601858e-03
2.813194765712e-03
2.206243071564e-03
2.337199456257e-03
2.035089294135e-03
2.704627779472e-03
4.313057656759e-03
2.166880539926e-03
1.864421071359e-03
1.732868546084e-03
1.561342170473e-03
4.024498791055e-03
4.321449536869e-03
4.179690524695e-03
4.487558501959e-03
4.351378253477e-03
1.692293086120e-03
4.547507496043e-03
4.620310667296e-03
3.444574795783e-03
3.081228819560e-03
3.519317618785e-03
2.468789982299e-03
2.300880945692e-03
2.604574973058e-03
3.497581244635e-03
3.628764160508e-03
3.799698635942e-03
3.931379681523e-03
4.102448612731e-03
4.234588908537e-03
4.063072780301e-03
4.366751221426e-03
4.194735028229e-03
4.405545622725e-03
4.273365102485e-03
4.498318737704e-03
4.326379418243e-03
4.629602997623e-03
4.457503609016e-03
4.153929470569e-03
4.284864263683e-03
3.982884066866e-03
3.648745610141e-03
3.817193794493e-03
3.946719407469e-03
4.115926409861e-03
4.245574739592e-03
4.415539763342e-03
4.544399560802e-03
4.375426891281e-03
4.509920023172e-03
2.632653377112e-03
2.504948411976e-03
2.338614636793e-03
2.211400256375e-03
2.045332097660e-03
1.919061142858e-03
1.752635209565e-03
1.878513981748e-03
1.584910331352e-03
1.710339413602e-03
1.415942396810e-03
1.540924270131e-03
3.948384266438e-03
4.285218450736e-03
4.585788453075e-03
4.452548000313e-03
1.432045145505e-03
4.588120534621e-03
4.576656745919e-03
4.442906503729e-03
4.675416510747e-03
1.391840176144e-03
1.627976054006e-03
1.791438559949e-03
4.652375729059e-03
4.515073750359e-03
4.747734229222e-03
1.522378979601e-03
4.671085369189e-03
1.291851135584e-03
4.415253925120e-03
4.718848314431e-03
3.891705484867e-03
4.754278458359e-03
4.616084921715e-03
1.839848146906e-03
1.672605894671e-03
1.378135101855e-03
1.515420670763e-03
1.805900116599e-03
1.632448232839e-03
1.332653763525e-03
1.460848178870e-03
1.759405537371e-03
1.587950129179e-03
1.285510927899e-03
1.415480434626e-03
4.891516996896e-03
1.121510096864e-03
3.641366942474e-03
4.879243427220e-03
4.841045972056e-03
4.817221487039e-03
4.680859314151e-03
4.376749942027e-03
4.546436710308e-03
4.850021688501e-03
4.714841530376e-03
4.411085338888e-03
4.576823668989e-03
4.271643822444e-03
4.438121527056e-03
4.742306724662e-03
4.605607762388e-03
4.302170490177e-03
4.468415119196e-03
4.164526586705e-03
4.326213013675e-03
4.634793358128e-03
1.226849014185e-03
4.506378239639e-03
4.809738295993e-03
2.453146888506e-03
2.728545033659e-03
2.907124081246e-03
3.043059147020e-03
4.493803980505e-03
4.803851567309e-03
1.501869364537e-03
1.664240495932e-03
4.952759396910e-03
4.548949919363e-03
4.244032685451e-03
2.918967585879e-03
2.792586959038e-03
2.629168594188e-03
2.499093692646e-03
2.668968419875e-03
2.332626947431e-03
4.138292167915e-03
4.909939925648e-03
1.603914124137e-03
1.302913386403e-03
4.855203702972e-03
4.205737706829e-03
4.111791117138e-03
4.239349827017e-03
4.404279031402e-03
4.532163345971e-03
4.698797086860e-03
4.826101189867e-03
4.663500232458e-03
4.917627217648e-03
4.959771601570e-03
4.174662190372e-03
4.151213148999e-03
1.888480938751e-03
1.096487228567e-03
1.112867725487e-03
1.347315636886e-03
1.652113615696e-03
5.051413102721e-03
4.995155339568e-03
4.862932033424e-03
2.379373966366e-03
2.546273267233e-03
5.051913667086e-03
4.046495241743e-03
4.106805891897e-03
3.964719198022e-03
1.001701890259e-03
9.814910827122e-04
5.018736248123e-03
1.953490702354e-03
1.826326942528e-03
1.000603477325e-03
8.270248169059e-04
4.649062039121e-03
4.959360782526e-03
3.209003612840e-03
3.344763241722e-03
4.919412739713e-03
1.246851632543e-03
5.108760944892e-03
4.338688324758e-03
4.036566623443e-03
2.862194265683e-03
1.379647792169e-03
1.216950747748e-03
2.058445277619e-03
1.544704251302e-03
1.478187698947e-03
5.222097844678e-03
5.150166074507e-03
4.796698922504e-03
4.498570299624e-03
5.089656245451e-03
9.457015925929e-04
5.189931181500e-03
4.686738709315e-03
5.150549732461e-03
5.027069730600e-03
2.114316632001e-03
1.991901980435e-03
1.705778784395e-03
1.877221421128e-03
3.675799238899e-03
2.280051155843e-03
3.479503618634e-03
3.353779208918e-03
3.194968393760e-03
2.831556800728e-03
2.708824037533e-03
2.375496384323e-03
3.686936591630e-03
3.078073203987e-03
3.851596386181e-03
3.667740788258e-03
5.044158210038e-03
5.215830386065e-03
3.998289725651e-03
3.853491964182e-03
1.131663708096e-03
1.005870343686e-03
3.457686078413e-03
5.011327749084e-03
5.115127262102e-03
5.250667570774e-03
5.084339547061e-03
5.085185550635e-03
2.466333230067e-03
3.777777636612e-03
9.588302078742e-04
3.912004250684e-03
8.314503266492e-04
4.475699055473e-03
4.989278594651e-03
5.157849786265e-03
5.214381496867e-03
3.266010047436e-03
4.041180497852e-03
3.878621153168e-03
3.070483235828e-03
2.913482248638e-03
3.035157386404e-03
2.755770959431e-03
2.184615498058e-03
2.013559352505e-03
5.319773126116e-03
5.255640298353e-03
5.321605394694e-03
5.197016645099e-03
5.342046142709e-03
5.180952194182e-03
1.777196002727e-03
2.427249311879e-03
5.314454420742e-03
3.225902650504e-03
5.312357786981e-03
5.147322410379e-03
6.540445478406e-04
7.723794913411e-04
5.277227190096e-03
1.587049601255e-03
1.745337399366e-03
1.421339300996e-03
5.610035015994e-03
3.257775872683e-03
5.289370763037e-03
2.995256057925e-03
5.420258365801e-03
4.174507003320e-03
2.750543209626e-03
4.785821545599e-03
5.111095174845e-03
5.457139877325e-03
3.797889722827e-03
3.646479732755e-03
3.931549897695e-03
1.164427047641e-03
8.448239735481e-04
5.077361997568e-03
2.130717764018e-03
2.299994958429e-03
1.365911109574e-03
1.662041853713e-03
3.380077755549e-03
3.249013876935e-03
4.605823304079e-03
4.769919328613e-03
4.276226867883e-03
4.169358572453e-03
3.867935193715e-03
3.737504250769e-03
5.341787835815e-03
5.553309217008e-03
2.353647089942e-03
2.227016294383e-03
2.307076216506e-03
5.450349556697e-03
5.463341176944e-03
5.325739410321e-03
7.148670898350e-04
8.870883348093e-04
1.101873869960e-03
9.316626042024e-04
5.373764850267e-03
5.221517258001e-03
5.572702457976e-03
1.582372335378e-03
4.632172669378e-03
5.375893312072e-03
5.254154539084e-03
5.559534277686e-03
5.076810545238e-03
5.365925183894e-03
5.378240200423e-03
5.392140300883e-04
5.334646512646e-03
3.675752576569e-03
3.994140177195e-04
3.535833562514e-03
3.716995656290e-03
3.370679194070e-03
1.282169154075e-03
3.567296707678e-03
3.765939256375e-03
5.126327859221e-04
5.605887865963e-03
5.560267422025e-04
6.660332016854e-04
5.449756143397e-03
5.274590684749e-03
5.572244234080e-03
5.392478454778e-03
5.099677131758e-03
5.238383322142e-03
3.509567093749e-03
5.572364392840e-03
5.374148307929e-03
5.737141131835e-03
2.638726436383e-03
2.039901378839e-03
1.905448348708e-03
1.617406521166e-03
5.530794330127e-03
5.348359015461e-03
4.829734702657e-03
4.521447046327e-03
3.557349194756e-03
3.532569652196e-03
3.813584889458e-03
3.767894522616e-03
4.058668074403e-03
4.012436085661e-03
4.295379223318e-03
5.556472121404e-03
1.300890945793e-03
2.946721722792e-03
5.471988497703e-03
5.293800497184e-03
2.587723201717e-03
2.314665718403e-03
5.537328889683e-03
2.406283520918e-03
5.792762283983e-03
1.858040090612e-04
4.857765212983e-04
2.573038789786e-03
2.873030274744e-03
2.199216706967e-03
2.091680435174e-03
4.476442988489e-03
7.504877515353e-04
1.263024816417e-03
4.334362747608e-03
9.849535248274e-04
4.679903303412e-03
2.540562741112e-03
3.118474233540e-03
1.542099058054e-03
2.168158947901e-03
3.802386178974e-03
3.549362578402e-03
3.391116114852e-03
2.670946485909e-03
2.260803135556e-03
1.949223813238e-03
3.605674145861e-03
4.919767447334e-03
5.053137848748e-03
5.341032503505e-03
5.187217989567e-03
4.888560595270e-03
5.017653317247e-03
5.314535410036e-03
5.156798542278e-03
5.508315270460e-03
5.286399283860e-03
4.980351695302e-03
5.106165886697e-03
5.394021959470e-03
4.807746362982e-03
5.628111934766e-03
2.871243858978e-03
6.965101933152e-04
6.551789095587e-04
3.282360146456e-03
5.809860564826e-03
5.821157866103e-03
2.082528349660e-03
5.819524766679e-03
3.515099545658e-03
1.460932159611e-03
5.821354656771e-03
4.753391499877e-03
4.585238946775e-03
4.452711673430e-03
5.831503303158e-03
4.073161563167e-03
5.837134571400e-03
3.985700881929e-03
3.851791908228e-03
3.554575317506e-03
4.847344029507e-03
5.817888275316e-03
5.575635814432e-03
5.571525256645e-03
5.311966086722e-03
5.819541179728e-03
5.830698806893e-03
5.838402623043e-03
1.930986719212e-03
2.101024040918e-03
2.394475490464e-03
2.266384359489e-03
1.970817861414e-03
2.136867911929e-03
2.431134490451e-03
2.006483688020e-03
5.062450549600e-03
5.830124137920e-03
3.970119493304e-03
3.835301643933e-03
3.534841884466e-03
2.946573758729e-03
3.117318954907e-03
3.419825569632e-03
2.776365598311e-03
4.367919564161e-03
5.827346570942e-03
3.906600699280e-03
2.984402664609e-03
3.276820545210e-03
3.539493379070e-03
3.549133742473e-03
3.824596042644e-03
3.567726925698e-03
3.513236360802e-03
3.646056828441e-03
3.479442829320e-03
3.776440321699e-03
3.600754084134e-03
3.319682840169e-03
3.899235541114e-03
3.712790048005e-03
3.270946734921e-03
2.113632266740e-04
4.663590485079e-04
4.566049970039e-04
7.156745567248e-04
7.373279452377e-04
1.003154234088e-03
9.722585000682e-04
4.717549759512e-04
2.060508248568e-04
4.540770013058e-04
2.016183866916e-04
4.467968440684e-04
7.550412036772e-04
1.182852220765e-03
5.788845613533e-03
2.859709310104e-03
2.724978007808e-03
2.413348020450e-03
2.580932184492e-03
2.979254934651e-03
2.254988964791e-03
2.151777952318e-03
2.124248935492e-04
4.645380525494e-04
4.620287622044e-04
7.358870940255e-04
7.228556758076e-04
4.637229493946e-04
4.638167508818e-04
2.058552859172e-04
4.611112548754e-04
7.280621305049e-04
1.906731245643e-04
4.704546691336e-03
4.866377932286e-03
5.817051415440e-03
3.306461396406e-03
2.060812032613e-04
5.781234699132e-03
5.822288119502e-03
5.823020880709e-03
5.305314190989e-03
5.454685450902e-03
5.787205338867e-03
1.904164271810e-03
5.481003932717e-03
5.244910374535e-03
1.337919885917e-03
1.840104844977e-03
4.380249884781e-03
4.023192351168e-03
5.022936148851e-03
4.114296708411e-03
4.760794110997e-03
5.555554324813e-03
1.179594138024e-03
4.131571153262e-03
4.020912679793e-03
4.773210184270e-03
1.997971753623e-03
3.186209854797e-03
1.264320056221e-03
5.581499467917e-03
3.319123411055e-03
3.366608306896e-03
2.641689808122e-03
2.077782102881e-03
1.716997042932e-03
3.042088607286e-03
3.155408692379e-03
4.538280633475e-03
4.941818270038e-03
2.600596271961e-04
4.708539861147e-03
3.760089428882e-03
4.244105085551e-03
4.715328609436e-03
1.167410736667e-03
4.880974533881e-03
5.403313920794e-03
3.898336749169e-03
9.671126416542e-04
3.824252090180e-03
5.351558397039e-03
4.786917829570e-03
1.824211420534e-03
3.480609807162e-03
3.243878701939e-03
2.980785244645e-03
5.375575519212e-03
3.585995865997e-03
4.980015277352e-03
4.076017659109e-03
1.959475074490e-03
4.975844888606e-03
3.389984283037e-03
5.185084528177e-03
4.569389381663e-03
2.760527645323e-03
4.981119205122e-03
3.402542523838e-03
4.886475886782e-03
3.158193069385e-03
3.984904577625e-03
4.346595079122e-03
3.785347613028e-03
4.212795144997e-03
4.843183184598e-03
1.250416126476e-03
2.458873987470e-03
4.209667670053e-03
5.115121627223e-03
5.486043343848e-03
2.956453768341e-03
4.801040750307e-03
5.276018678210e-03
3.287319671934e-03
1.360173557846e-03
1.054118268605e-03
2.172491032492e-03
3.423285296841e-03
3.589532674148e-03
5.552240847616e-03
4.931191158355e-03
4.613419327886e-03
5.464000382780e-04
3.101627176124e-03
5.063754079328e-03
3.609293720743e-03
5.009794558603e-03
3.416052821844e-03
5.575482653537e-03
2.475536180774e-03
5.206362114330e-03
4.647615435026e-03
2.244695150429e-03
3.268136202907e-03
5.555008699614e-03
4.952886856145e-03
4.075675641162e-03
3.440761170649e-03
2.670689667684e-03
3.721275175177e-03
4.148714793035e-03
5.835319629331e-03
5.106135759620e-03
4.284472671237e-03
3.550391241370e-03
4.312448323242e-03
7.156855192344e-04
2.792869111198e-03
3.682084945283e-03
2.301558692687e-03
3.569870679035e-03
5.507448749153e-03
3.814302881920e-03
2.595277141504e-03
3.945212643466e-03
2.359824458181e-03
4.418520852231e-03
4.072359630917e-03
4.440337999663e-03
7.757686492746e-04
4.203718467632e-03
5.137853672774e-03
2.428401079217e-03
3.700926420415e-03
4.718919712422e-03
2.045517196664e-03
4.001751556342e-03
4.734200010830e-03
4.335389309684e-03
3.717467635180e-03
4.306468150559e-03
2.158315669710e-03
1.778111948175e-03
1.480789573342e-03
2.723576269686e-03
4.901358873080e-03
9.907929562044e-04
4.678560104240e-03
1.061568277770e-03
2.558752785224e-03
4.777870338073e-03
4.115757970203e-03
2.685651994210e-03
1.661993244650e-03
2.519680303368e-03
4.012449715584e-03
2.645863061595e-03
2.477781824869e-03
5.552773111686e-03
2.601556434606e-03
5.832588277671e-03
5.807498199142e-03
3.510356051034e-03
1.737451315662e-03
2.405479085723e-04
1.829108936978e-03
2.134121346790e-03
4.639057668376e-03
3.513173410346e-03
1.958554503757e-03
5.579740788869e-03
5.830554327362e-03
4.549382429434e-03
5.128190593651e-03
4.477241356342e-03
5.275457844279e-03
3.249070074697e-03
4.477567605621e-04
4.366937944895e-03
1.414652943865e-03
1.454830351756e-03
1.141526190888e-03
2.071482774289e-03
7.048676555723e-04
1.168371653296e-03
5.554008919411e-03
3.515193931760e-03
4.930134979137e-03
8.572356047719e-04
5.572156000341e-03
5.569776879399e-03
5.838339516943e-03
5.230953075188e-03
8.277135440664e-04
3.767849181542e-03
5.583236268413e-03
4.792801184414e-03
5.849741729017e-03
3.467504393821e-03
5.585086652784e-03
1.085481836247e-03
5.581941862217e-03
4.937207249790e-03
3.891365713394e-03
3.752927955089e-03
5.593723576573e-03
5.582903556172e-03
6.530334131598e-04
4.532821262706e-03
2.586505146794e-03
4.309456059287e-04
5.577341518437e-03
5.218037136217e-03
5.584899765061e-03
7.371716874996e-04
4.403063957911e-04
5.630357557198e-03
5.612012503027e-03
1.230585207076e-03
5.884366405666e-03
4.092504687394e-04
3.203199811466e-03
4.370733977465e-04
5.843994283019e-03
5.604234858726e-03
2.845335710462e-03
3.286444788878e-03
1.873211432721e-03
5.369777350956e-03
6.577588307218e-04
5.641946929749e-03
5.644321122624e-03
5.639466704751e-03
5.898898139880e-03
4.211607310232e-04
5.652386425481e-03
5.366048530729e-03
3.253953958084e-03
5.587679770306e-03
2.309938481824e-03
9.687550335974e-04
5.854893632795e-03
1.859115235788e-04
3.234858844656e-03
5.866847427828e-03
9.109470946294e-04
3.727440323860e-03
5.623149802079e-03
3.507013142730e-03
5.092976750137e-03
8.975669244277e-04
1.659950822664e-04
4.270563646727e-03
5.623311015092e-03
5.659663736694e-03
4.061400799491e-03
8.220481444569e-04
5.453937277557e-03
3.071062049363e-03
5.407469273276e-03
5.377966207611e-03
2.102243503154e-04
3.774256867795e-03
4.259532598859e-04
5.646002650816e-03
3.210355763876e-03
1.287275284106e-03
1.374254474632e-03
1.593862915393e-03
1.630621312590e-03
1.904403431918e-03
1.978503866699e-03
2.215256382710e-03
2.237857692827e-03
2.521729557575e-03
2.586604075054e-03
2.833800295395e-03
2.849139881866e-03

SCALARS node_materi_plasti_phimob float
LOOKUP_TABLE default
1.827053106151e+01
1.254334233390e+01
2.058346263753e+01
1.968629101963e+01
-3.152965173237e+01
-6.251669885215e+00
4.094692233089e+00
1.011999853027e+01
1.365810329223e+01
1.582061038815e+01
1.736615232596e+01
1.850878123226e+01
1.932734894969e+01
1.996470803826e+01
2.045412313318e+01
2.069660472105e+01
2.081733835453e+01
2.095095882084e+01
2.099196253072e+01
2.097409339973e+01
2.091965118345e+01
2.082740855738e+01
2.070814424706e+01
1.970398282485e+01
1.969827243315e+01
1.970251717247e+01
1.970688223416e+01
1.969783346481e+01
1.970828958372e+01
1.970752697601e+01
1.972044703401e+01
1.973509242864e+01
1.974885492847e+01
1.974864479696e+01
1.977502872281e+01
1.979140294043e+01
1.982199286814e+01
1.983682597568e+01
1.986919466131e+01
1.990207499200e+01
1.994407251915e+01
2.000460604322e+01
2.006325069129e+01
2.011573625985e+01
2.016061955652e+01
2.024215398419e+01
2.030916140148e+01
2.037288000813e+01
2.041923494941e+01
2.049713932490e+01
2.051814147437e+01
2.057044164675e+01
2.058009830653e+01
2.062557252055e+01
2.062626511844e+01
2.062822907988e+01
2.063310346037e+01
2.063266167868e+01
2.063413922897e+01
2.062477341460e+01
2.062639462598e+01
2.061465185750e+01
2.062032298248e+01
2.060574720227e+01
2.058699726180e+01
2.057958083042e+01
2.061342916982e+01
2.056936596327e+01
2.058380162756e+01
2.057105241667e+01
2.056995197736e+01
2.057497255636e+01
1.413317598899e+01
1.536701625185e+01
1.631156166190e+01
1.706496508388e+01
1.770907660126e+01
1.824101376703e+01
1.870974449427e+01
1.911525349068e+01
1.947486163831e+01
-3.763059720239e+01
1.212667627839e+01
-1.569557481326e+01
-9.220745813725e+00
-9.749789017921e+00
-2.713381115638e+01
-2.801231307630e+01
-8.325650461897e+00
1.178689113025e+00
6.432733567529e+00
9.736533730841e+00
-5.498730131308e+01
-3.302374921283e+01
-9.271522556973e+00
1.292938903459e+00
6.852369526843e+00
1.017837819146e+01
1.225078653667e+01
1.234015796533e+01
1.234315904794e+01
1.230633248261e+01
1.251124378935e+01
1.228633149041e+01
1.222907629800e+01
1.222188103452e+01
1.223331783807e+01
1.219313187766e+01
1.213768584914e+01
1.209447913548e+01
1.205512959491e+01
1.205331638444e+01
-3.995778884301e+01
-3.707757514165e+01
-3.674001554445e+01
-3.906816399295e+01
-4.269516134980e+01
-4.554991348656e+01
-4.870628064686e+01
-5.194695114345e+01
-5.508172782500e+01
-5.769919132704e+01
-5.911481575263e+01
-5.785856296784e+01
-5.880538778729e+01
-6.126799125780e+01
-6.087662846178e+01
-5.997668043108e+01
-5.986211581570e+01
-9.586839830578e+00
4.022860899815e+01
-5.345478428186e+01
-5.564360801245e+01
-5.584151789758e+01
-5.580931915438e+01
-5.577441348453e+01
-5.574681263578e+01
-5.572572460050e+01
-5.570746182929e+01
-5.568911308650e+01
-5.566986573417e+01
-5.565005967911e+01
-5.563250520635e+01
-5.561105602623e+01
-5.558933920971e+01
-5.555766473184e+01
-5.551037079726e+01
-5.537198045884e+01
-5.528861707594e+01
-5.504946431120e+01
-5.494721035413e+01
-5.400740680254e+01
-1.461465305582e+01
4.584241318073e+01
-3.663836754732e+01
-3.269002154720e+01
-3.522768023071e+01
-3.560940447176e+01
-3.568881932845e+01
-3.586186487923e+01
-3.596206672507e+01
-3.606976805253e+01
-3.615475673743e+01
-3.623242015865e+01
-3.629707355460e+01
-3.635814572933e+01
-3.641242208731e+01
-3.645897188894e+01
-3.649932868503e+01
-3.653553987789e+01
-3.657011333639e+01
-3.660229463167e+01
-3.662761265414e+01
-3.661134155329e+01
-3.602028625262e+01
-3.375904497364e+01
-9.995221493124e+00
-1.008190165534e+01
-1.004694664536e+01
-1.001905671293e+01
-9.991329094869e+00
-9.963252832894e+00
-9.935310014635e+00
-9.909062522379e+00
-9.879935943131e+00
-9.845216677488e+00
-9.807059765304e+00
-9.770865331759e+00
-9.740143500069e+00
-9.699009033907e+00
-9.657208435544e+00
-9.605160816910e+00
-9.598803456254e+00
-9.535267881631e+00
-8.650129551401e+00
-1.066569839525e+01
2.190873016105e-01
1.369519672339e+00
1.020164471761e+00
9.903008157886e-01
9.946841621344e-01
9.930767988756e-01
1.013937336448e+00
1.023889836156e+00
1.026233359458e+00
1.023261009387e+00
1.024773075948e+00
1.029768903690e+00
1.026825962949e+00
1.020328154264e+00
1.014435894855e+00
1.008205911332e+00
1.010926769433e+00
1.101270015652e+00
1.350337614182e+00
6.745685129524e+00
6.714148951065e+00
6.704424719342e+00
6.702141891435e+00
6.691446761372e+00
6.684725924767e+00
6.676391699198e+00
6.658971079024e+00
6.630993838993e+00
6.618688580383e+00
6.599574425266e+00
6.568188600334e+00
6.537397201423e+00
6.489605783003e+00
6.487463601416e+00
6.688749645605e+00
5.944140207827e+00
9.430728673180e+00
9.948862253124e+00
9.852137128476e+00
9.877592468796e+00
9.920754755331e+00
9.961159649582e+00
9.982357631881e+00
1.001095380349e+01
1.004117905114e+01
1.006336833552e+01
1.007997330695e+01
1.009513483975e+01
1.011637044492e+01
1.011865599019e+01
1.016795674685e+01
1.025366600005e+01
-2.566429134111e+01
-1.115548931331e+01
-9.075368417360e+00
-1.226325195739e+01
-8.643527922143e+00
-1.422858770555e+01
-1.846589501546e+00
4.628844436505e+00
8.537442320204e+00
1.117403135756e+01
-7.995789743931e+00
2.075514709348e+01
-3.952031921473e+01
-3.412113384459e+01
2.077383248343e+01
-6.274192709886e+00
2.024271810542e+01
2.060124354574e+01
-1.944726239509e+00
2.026153514251e+01
8.171787111157e+00
2.070103323900e+01
-4.157320727387e+01
1.989128403924e+01
1.284311184752e+01
1.672561781088e+01
2.089928736368e+01
1.971651788788e+01
1.961577502307e+01
1.955378741539e+01
1.951993649962e+01
1.958399617732e+01
1.357551081828e+01
1.372344470693e+01
1.390142586492e+01
1.740053905599e+01
2.068857360297e+01
-3.427129541991e+01
-3.970931682976e+01
2.095331938370e+01
1.382845561471e+01
7.507744269079e+00
1.959680902682e+01
2.046289165646e+01
2.006118667321e+01
2.071542997153e+01
2.077565261574e+01
-3.528510972201e+01
1.359919751540e+01
2.078257047768e+01
1.848187918989e+01
-4.000861101933e+01
1.897139765897e+01
1.960319900691e+01
-7.325065359550e+00
-4.087823913411e+00
4.156005205131e+00
1.085559460591e+01
-2.035494774232e+01
1.592789222295e+01
2.066416594642e+01
-1.556037578914e+01
1.928008162768e+01
1.356064883888e+01
1.414359391729e+01
1.471746357747e+01
1.528112330934e+01
1.578027939140e+01
1.619451723038e+01
1.574449942882e+01
1.658746768113e+01
1.619308817043e+01
1.660997596052e+01
1.697206850580e+01
1.662942971423e+01
1.734571369199e+01
1.705491591882e+01
1.628080925551e+01
1.676696818342e+01
1.592507670259e+01
1.648469420536e+01
1.723163088732e+01
1.701219119770e+01
1.621646505841e+01
1.681334457170e+01
1.597226513002e+01
1.664375920261e+01
1.576259729104e+01
1.651040676463e+01
1.724237579926e+01
1.715898033339e+01
1.641795367234e+01
1.726558473259e+01
1.657241302453e+01
1.767997535736e+01
1.817774406905e+01
1.860260257965e+01
1.819554931532e+01
1.905775765494e+01
1.872546393987e+01
1.949916999475e+01
1.920840473762e+01
1.987696874351e+01
2.008679999088e+01
2.038051238650e+01
2.014411499154e+01
2.056525846031e+01
2.075539174650e+01
2.087663036950e+01
2.103003319883e+01
2.110263211952e+01
2.087638449824e+01
2.106836233613e+01
2.126066722109e+01
2.120207297241e+01
2.091309577620e+01
2.103924806211e+01
2.129172975697e+01
2.112544562572e+01
2.076440694498e+01
2.086645858948e+01
2.118317606522e+01
2.093985311364e+01
2.050576934390e+01
2.061029377253e+01
2.099308415498e+01
2.069270939555e+01
2.102800375189e+01
2.018650914073e+01
2.031616691100e+01
1.966324165254e+01
1.985708312943e+01
1.895647610581e+01
1.903728060642e+01
1.872958712858e+01
1.931450199555e+01
2.002882963169e+01
1.830610677064e+01
1.868127237246e+01
1.745524704897e+01
1.831839228233e+01
1.767063195900e+01
1.794998898332e+01
1.646507189506e+01
1.569933380711e+01
1.429977505493e+01
1.624506306348e+01
1.701221126580e+01
1.666496042547e+01
1.738318185553e+01
1.708504908220e+01
1.527792882659e+01
1.763846686920e+01
1.766668115043e+01
1.523180868108e+01
1.549857178713e+01
2.086861752398e+01
1.900262122031e+01
1.837373510038e+01
1.929946753266e+01
2.123403214222e+01
2.123435055193e+01
2.136666091368e+01
2.134126751154e+01
2.141581210281e+01
2.137150324935e+01
2.130655441016e+01
2.131921921997e+01
2.126517530814e+01
2.140037135220e+01
2.145099262595e+01
2.126050197164e+01
2.121856867297e+01
2.119633166765e+01
2.116797623476e+01
2.114997034582e+01
2.111751795610e+01
2.105619376753e+01
2.111258492354e+01
2.093609685390e+01
2.114969023895e+01
2.097283129123e+01
2.115396942541e+01
2.098661104344e+01
2.113289875519e+01
2.127122621143e+01
1.770926784525e+01
2.025192956762e+01
1.976859995347e+01
1.972844378111e+01
1.914143403436e+01
1.883792786085e+01
1.805065687645e+01
1.729369862367e+01
1.815966820022e+01
1.601690613456e+01
1.705859011043e+01
1.416507031496e+01
1.549113795768e+01
1.776931477410e+01
2.076916478509e+01
2.080185985890e+01
2.055171067230e+01
1.311946471248e+01
2.111529909871e+01
2.139669967360e+01
2.144819514662e+01
2.122013258242e+01
1.263078712567e+01
1.611398111550e+01
1.696030306088e+01
1.772729824220e+01
1.745745865731e+01
2.136128955135e+01
1.386795363513e+01
2.127599859852e+01
1.236395097199e+01
2.108182735182e+01
2.106485329897e+01
2.120448818483e+01
2.061370733155e+01
2.033665222539e+01
1.784363771371e+01
1.653263562424e+01
1.351086279345e+01
1.485247701497e+01
1.736266542331e+01
1.586901868157e+01
1.263727208480e+01
1.402711086726e+01
1.671449872988e+01
1.516538254948e+01
1.165211642103e+01
1.324817487245e+01
2.106575837134e+01
9.224256071936e+00
1.534191406486e+01
2.129792904361e+01
2.108583452213e+01
1.804707717985e+01
1.780356679137e+01
1.717548127897e+01
1.755236147767e+01
1.812709477158e+01
1.789594782078e+01
1.728652732692e+01
1.764951889095e+01
1.699685527950e+01
1.738685701489e+01
1.798058080192e+01
1.774207762129e+01
1.710911061539e+01
1.748665000367e+01
1.680568231457e+01
1.720384184529e+01
1.782801772603e+01
1.059353960780e+01
2.133690603624e+01
2.125985760491e+01
1.880376223182e+01
1.955604338057e+01
1.996295881937e+01
2.011394793606e+01
1.756557823301e+01
1.814379283693e+01
1.445518500987e+01
1.542067573648e+01
1.828356502492e+01
2.105012484037e+01
2.103019175995e+01
1.573443771926e+01
1.432774620308e+01
1.470017032377e+01
1.278691015880e+01
1.290954671353e+01
1.337740846099e+01
2.148754599892e+01
1.828586937602e+01
1.478974335834e+01
1.164150730307e+01
2.102483518792e+01
2.138556603694e+01
1.784675699092e+01
1.828608174496e+01
1.835806545892e+01
1.873186882910e+01
1.879768520586e+01
1.912104866629e+01
1.916818539864e+01
2.043428235587e+01
1.951596220381e+01
1.687648423047e+01
2.047210395356e+01
1.740933959454e+01
8.640412003420e+00
8.661601325263e+00
1.211400786750e+01
1.489417345527e+01
2.123707768890e+01
1.917977036978e+01
1.888846114132e+01
1.074835313378e+01
1.115255150004e+01
2.064626649079e+01
1.632298408742e+01
1.656843430247e+01
1.621958822677e+01
7.144151143603e+00
6.160257366535e+00
1.842371049051e+01
1.722612628087e+01
1.567730441587e+01
5.974941735849e+00
8.619638749558e-01
1.788399545310e+01
1.840910362063e+01
2.040331854454e+01
2.051714826003e+01
2.129730833805e+01
1.089084924309e+01
1.862837323048e+01
2.143117713622e+01
2.146177540599e+01
1.972426285679e+01
1.209276461820e+01
1.003485057114e+01
1.847828710983e+01
1.451435499658e+01
1.342937867641e+01
2.115782967996e+01
1.862475193984e+01
1.962432461860e+01
1.933003784684e+01
1.987560536186e+01
4.922720307863e+00
2.116721479262e+01
2.102879867474e+01
1.926011158308e+01
1.899734317867e+01
1.700020777878e+01
1.530778887958e+01
1.346674665382e+01
1.293208465896e+01
1.526158421067e+01
1.638793151334e+01
1.488826235162e+01
1.417539761790e+01
1.358392223563e+01
1.317363328655e+01
1.169011220880e+01
1.911441472984e+01
2.064061261245e+01
2.030652922987e+01
2.106206556594e+01
2.137847176276e+01
1.849236260987e+01
1.876109238947e+01
1.635356206599e+01
1.596665114851e+01
9.072782183103e+00
6.624495854606e+00
2.105045631180e+01
2.122697718898e+01
1.855966040033e+01
1.877244946497e+01
1.851036601288e+01
2.121123818439e+01
2.016479820471e+01
2.128384836708e+01
5.141832699080e+00
1.860954129188e+01
2.354912855135e+00
1.785650152368e+01
2.097427150063e+01
2.094927703697e+01
2.051284552355e+01
1.348262936380e+01
1.926731041813e+01
1.958304166400e+01
1.269849344227e+01
1.189307461069e+01
1.296172458591e+01
1.101688987221e+01
1.888010800145e+01
1.795811336837e+01
1.955182869010e+01
1.981955449193e+01
1.937120151377e+01
1.912100766453e+01
2.065008835810e+01
2.078951590788e+01
1.575554650248e+01
9.057567198566e+00
1.887726337673e+01
1.342859991740e+01
2.107728937429e+01
2.114396034031e+01
-5.408329442556e+00
-5.046886508532e-01
1.886953561135e+01
1.007162439753e+01
9.173702897841e+00
9.878738872781e+00
2.075320612600e+01
1.380836544082e+01
2.087483284578e+01
1.354428356456e+01
1.905636585370e+01
1.979702495145e+01
1.641507069155e+01
2.134153466174e+01
1.863778534516e+01
1.910836706332e+01
1.569622304323e+01
1.523905730600e+01
1.606687435793e+01
9.836186914360e+00
5.303361310231e-01
1.856552817114e+01
1.767636480716e+01
1.830580675488e+01
1.249186203304e+01
1.545097727017e+01
2.066782448845e+01
2.060588321186e+01
1.822730814238e+01
1.839133812965e+01
1.795026577886e+01
2.148641689475e+01
2.148877761939e+01
2.144395044044e+01
1.893992896794e+01
1.921308958293e+01
1.962440977654e+01
1.933226135030e+01
1.919364517235e+01
1.906178021091e+01
2.084882066317e+01
2.091668847208e+01
-1.970053407727e+00
3.312094953290e+00
6.203469373270e+00
2.711849029374e+00
1.897353776201e+01
1.873808487386e+01
1.923263717925e+01
1.431374154506e+01
1.978435231203e+01
2.105476485384e+01
2.113312631156e+01
2.096766533679e+01
2.028979313405e+01
2.042569121785e+01
2.010372781137e+01
-1.259378505874e+01
1.896987378139e+01
1.536964368461e+01
-2.103790957995e+01
1.489430910463e+01
1.554371247014e+01
1.427692307910e+01
1.133670051997e+01
1.490962683028e+01
1.552748814206e+01
-1.149744813862e+01
1.928659737274e+01
-9.177259628733e+00
-3.151571871916e+00
2.098084515141e+01
2.105399013400e+01
2.090334484281e+01
2.096632438781e+01
2.109878143603e+01
2.101567022327e+01
1.471815547255e+01
2.084809493858e+01
2.091852336986e+01
2.079710219237e+01
9.631308846206e+00
1.176504298330e+01
7.641956504884e+00
1.611713697840e+00
1.954562888791e+01
1.924825828493e+01
2.099350452154e+01
2.101259839780e+01
1.500407224861e+01
1.496470195112e+01
1.590552583355e+01
1.580150873301e+01
1.659508286713e+01
1.648324350200e+01
1.717254850756e+01
2.009041044187e+01
4.590396168389e+00
1.178228995628e+01
2.075898049065e+01
2.089453810053e+01
1.001659586137e+01
6.687092481700e+00
2.098074612319e+01
1.778760849931e+01
1.951455172321e+01
-3.461896909158e+01
-1.661435480752e+01
1.713419075775e+01
1.232059701562e+01
1.069998863232e+01
7.639251876799e+00
2.143842930272e+01
-5.374605176118e-01
8.632132966141e+00
1.723137245188e+01
7.734021792810e-01
2.099145085749e+01
1.881678968541e+01
1.464289126072e+01
1.323795890842e+01
1.448855596884e+01
1.577803593418e+01
1.473337367683e+01
1.412048074543e+01
1.957633133951e+01
8.138667239921e+00
2.399396333938e+00
1.557130640519e+01
1.823585901918e+01
1.848330668016e+01
1.894627714533e+01
1.872275175630e+01
1.821733192563e+01
1.847826554865e+01
1.895972156593e+01
1.874447181447e+01
1.926745531259e+01
1.900076930872e+01
1.851477123335e+01
1.878381585439e+01
1.920208380179e+01
1.827996912198e+01
2.064680237004e+01
1.771299850083e+01
-4.740012303600e+00
-7.941042849243e+00
1.491672034748e+01
1.968006663791e+01
1.962150089611e+01
1.833815144088e+01
1.995914008789e+01
1.473702723372e+01
1.460191242134e+01
2.015142059988e+01
1.794299577216e+01
1.763139409735e+01
1.732391220496e+01
1.960086768091e+01
1.643772622226e+01
2.052230559922e+01
2.071669440179e+01
2.036972304219e+01
2.024492905237e+01
1.822475411965e+01
2.074738677822e+01
2.088676893067e+01
2.090807298089e+01
2.103796794102e+01
2.077442557803e+01
1.979498179232e+01
1.985692891839e+01
1.797793021927e+01
1.896533516610e+01
1.998007440313e+01
1.968676426942e+01
1.847800582894e+01
1.930009071083e+01
2.018946170671e+01
1.880304994703e+01
1.885136883499e+01
2.077893448558e+01
2.144950593373e+01
2.146644337979e+01
2.137272476144e+01
2.017995069848e+01
2.052596207150e+01
2.085749622557e+01
1.977683460708e+01
1.878108006830e+01
2.077037532056e+01
2.139637524659e+01
2.042868811421e+01
1.359078427162e+01
1.470831375937e+01
1.470057562738e+01
1.568528492351e+01
1.483345186699e+01
2.073070527517e+01
2.078687129958e+01
2.061002598976e+01
2.082715897678e+01
2.067113630916e+01
2.039823334107e+01
2.085032408459e+01
2.072785018287e+01
1.364137408521e+01
-3.408176223601e+01
-1.381745482856e+01
-1.410837485051e+01
-1.568922402979e+00
-9.174011799325e-01
6.767343900848e+00
6.008732799474e+00
-1.416292530905e+01
-3.682322361641e+01
-1.409335165227e+01
-3.831304864040e+01
-1.437730850468e+01
-2.529787853779e-01
9.894805155100e+00
2.070894892551e+01
1.968010804090e+01
1.941392057427e+01
1.858476342591e+01
1.908425758104e+01
1.995613389598e+01
1.802417350863e+01
1.760749305520e+01
-3.969496677600e+01
-1.241955029309e+01
-1.426176469131e+01
3.447359731522e-01
6.666337858514e-02
-1.237093177496e+01
-1.251446334325e+01
-4.010128353192e+01
-1.295038655290e+01
2.426024536045e-01
-4.126941314180e+01
1.798989786637e+01
1.827814368944e+01
2.077384368264e+01
1.386629539409e+01
-3.984878191631e+01
1.949498260919e+01
1.954729051181e+01
1.955148985656e+01
2.087455837536e+01
2.081951139925e+01
1.951041909446e+01
1.686939101591e+01
1.914861007079e+01
1.882219956429e+01
1.268070718827e+01
1.683402811581e+01
2.101959560265e+01
2.117934395946e+01
2.101190688570e+01
2.104668495895e+01
2.112977329031e+01
2.096226719291e+01
9.957135946396e+00
1.668416697117e+01
1.646082381233e+01
1.806518726717e+01
1.712104361918e+01
2.027967675012e+01
1.111590453973e+01
1.978076891486e+01
1.442967147785e+01
2.121839052728e+01
1.955732630638e+01
1.786973817758e+01
1.610639911528e+01
1.710052610126e+01
2.076044501356e+01
2.134181222528e+01
1.836204499962e+01
-3.594610749161e+01
2.133348294557e+01
2.122345959936e+01
1.688564230451e+01
2.097906089808e+01
9.828265463858e+00
1.820789393286e+01
1.900326007313e+01
1.594002346129e+01
5.853046364413e+00
1.583212633661e+01
2.107038888716e+01
1.798527399302e+01
1.609673324744e+01
2.122628053257e+01
1.560199275077e+01
1.189436411473e+01
1.899892278404e+01
1.933724389898e+01
2.114552726917e+01
2.129505308919e+01
1.680522488950e+01
2.118661587802e+01
2.053514133472e+01
1.869306201186e+01
1.845455100783e+01
2.061093679556e+01
1.834538385250e+01
2.134531857241e+01
2.081384458279e+01
1.397681385920e+01
1.735718863086e+01
1.746450658896e+01
1.784572811709e+01
2.096989816894e+01
2.126470334816e+01
1.171291967756e+01
1.557164897242e+01
1.676807856435e+01
1.948550564006e+01
1.911356157090e+01
1.444598132551e+01
2.120193498895e+01
1.881690740520e+01
2.081485379399e+01
1.232418110137e+01
6.968581732015e+00
1.941766089666e+01
1.972669973155e+01
2.106222134534e+01
1.922703056109e+01
2.112254841009e+01
2.140918604864e+01
-1.268436038653e+01
1.267465639224e+01
2.104599436558e+01
2.136030147590e+01
2.094671094111e+01
2.047086772107e+01
1.990753478852e+01
8.251993219899e+00
2.098625383295e+01
2.136305952736e+01
1.822558329275e+01
1.384178748708e+01
2.084015148639e+01
2.125574042408e+01
1.834280189513e+01
2.136570062934e+01
9.605763674472e+00
2.106504448713e+01
1.750144058006e+01
1.959497555939e+01
2.115224908841e+01
1.695834395238e+01
2.088746057179e+01
2.022048295231e+01
-4.639258194984e-02
1.077847479233e+01
2.091382361254e+01
1.985580787586e+01
2.143036764177e+01
2.057111736340e+01
2.093600396687e+01
2.049217575969e+01
2.095119641802e+01
6.342778566826e+00
1.730584385058e+01
2.095297497414e+01
1.807830471796e+01
7.891852261206e-01
1.899007605089e+01
2.092144089026e+01
1.944695586934e+01
2.146243242171e+01
1.793433545993e+01
1.366572443481e+00
2.150147138207e+01
1.857166681624e+01
1.954167546406e+01
1.991821368366e+01
2.148142310279e+01
5.046256118297e+00
1.619710173605e+01
1.373898362588e+01
2.073596663009e+01
1.870570423213e+01
6.883060453561e+00
1.796553766577e+01
7.652367446981e+00
2.044022860894e+01
2.014529977074e+01
1.674319269623e+01
2.062723244201e+01
1.495615983730e+01
2.020181097997e+01
2.008046528823e+01
2.037457764588e+01
1.985334103908e+01
1.922386473957e+01
2.003535290970e+01
1.955506943926e+01
2.068489727740e+01
1.486035673385e+01
-7.295690195165e+00
-3.191883380024e+01
3.328466469869e+00
1.838390848458e+01
1.805803173074e+01
1.489842436996e+01
1.739168772088e+01
1.941995765280e+01
2.036892891931e+01
1.770856565041e+01
2.101328097587e+01
1.998671775282e+01
1.889051319006e+01
1.368417356386e+01
-1.422946830076e+01
2.098146401832e+01
-1.392880135793e+01
4.456794913152e+00
3.272190786430e+00
1.735204000681e+01
-1.666771407275e+00
-4.039784975385e+00
2.083738345313e+01
1.474874738611e+01
1.998892453545e+01
-5.509344612039e+00
1.923046542781e+01
2.037769787018e+01
2.073782818555e+01
2.018418465282e+01
-3.181532657149e+00
1.552999286669e+01
1.970010036167e+01
1.813312737971e+01
2.068576214111e+01
1.453168468245e+01
1.927842717487e+01
8.724649036990e+00
1.928678080339e+01
1.857745144878e+01
1.610553261824e+01
1.545146090062e+01
2.075716801042e+01
1.934024790688e+01
-9.128581070177e+00
1.766129482447e+01
1.917442476916e+01
-1.765911582872e+01
2.092996048097e+01
1.901723273949e+01
2.081016634468e+01
1.308674761548e-01
-1.549122783726e+01
2.093347069140e+01
1.957002316493e+01
1.106578817861e+01
1.962154063397e+01
-2.057239345633e+01
1.346526153014e+01
-1.477158065560e+01
2.067275316506e+01
1.928338431925e+01
1.969928973805e+01
1.358908264886e+01
1.627716989159e+01
1.977756912770e+01
-3.213008649810e+00
1.932712531055e+01
2.093223000558e+01
1.933504300799e+01
2.066326789240e+01
-1.978874843200e+01
2.030351779995e+01
2.105652894657e+01
1.370619458754e+01
1.930803589754e+01
1.826478995759e+01
6.382868024103e+00
1.959025628323e+01
-1.473089438117e+01
1.367467385322e+01
2.064744346129e+01
5.509731792466e+00
1.564898045421e+01
1.952902366361e+01
2.056728649335e+01
1.864198324025e+01
4.494815891058e+00
-3.486417246149e+01
1.712054244117e+01
2.052981849512e+01
1.934247912727e+01
1.658185723098e+01
-4.530721994971e-01
1.933307091652e+01
2.003954943193e+01
1.953709366073e+01
2.095422981056e+01
-3.087235460141e+01
2.077722530085e+01
-1.639296372029e+01
2.084550514176e+01
2.025550795987e+01
2.519485561371e+01
-4.968801198358e+01
-1.800863820152e+01
-1.829704647622e+01
-3.309615483023e+00
-2.344320823834e+00
3.908903854247e+00
4.485258280311e+00
8.095110808242e+00
8.889004943127e+00
1.087469809697e+01
1.143471578939e+01

SCALARS node_materi_stress_average_a_sig float
LOOKUP_TABLE default
-5.381948536966e+00
-7.515187648326e+01
-2.357811053223e+02
-1.897345665934e+02
-1.259325834362e+01
-2.409499305512e+01
-3.493420145670e+01
-4.737928778280e+01
-5.925512384954e+01
-7.109148009906e+01
-8.289875974875e+01
-9.469673352268e+01
-1.065551322830e+02
-1.185283005017e+02
-1.308302082047e+02
-1.429599931912e+02
-1.540914268634e+02
-1.662584688524e+02
-1.788573648129e+02
-1.911560774448e+02
-2.035985212652e+02
-2.162106381155e+02
-2.283167270215e+02
-1.904119296709e+02
-1.897304833484e+02
-1.899257949753e+02
-1.899392689097e+02
-1.896440853312e+02
-1.901354424048e+02
-1.904990548588e+02
-1.903900191908e+02
-1.911050406070e+02
-1.913038804190e+02
-1.912907787698e+02
-1.920300669970e+02
-1.929242422210e+02
-1.931828608811e+02
-1.938109893582e+02
-1.941134827171e+02
-1.950141236996e+02
-1.967416193873e+02
-1.982165448322e+02
-1.998298912029e+02
-2.013156404555e+02
-2.030163062503e+02
-2.047796775461e+02
-2.066869958196e+02
-2.088527903367e+02
-2.111222229541e+02
-2.131970217654e+02
-2.154083635280e+02
-2.172695065696e+02
-2.197062509274e+02
-2.214010993814e+02
-2.226165319581e+02
-2.243882830808e+02
-2.261169711476e+02
-2.276428176669e+02
-2.289743033533e+02
-2.302218016696e+02
-2.310731132964e+02
-2.318361293904e+02
-2.323496685356e+02
-2.332827241786e+02
-2.344682858893e+02
-2.351094737811e+02
-2.338943164627e+02
-2.356287337722e+02
-2.353187745148e+02
-2.358737880337e+02
-2.364114387281e+02
-2.364104212903e+02
-8.749144713816e+01
-9.955414435581e+01
-1.115667966910e+02
-1.232901253287e+02
-1.352415095314e+02
-1.473098211459e+02
-1.590987156334e+02
-1.707743716121e+02
-1.828326047588e+02
-8.901647476727e+00
-7.790616296338e+01
-1.298775782413e+01
-1.474360233282e+01
-1.454502313362e+01
-1.153849332003e+01
-1.556973106886e+01
-2.846636527981e+01
-4.091747938391e+01
-5.320713233305e+01
-6.533345831155e+01
-7.149200887778e+00
-1.443157512410e+01
-2.647079082281e+01
-3.857371861741e+01
-5.068006711601e+01
-6.273852150045e+01
-7.364315304954e+01
-7.444215778507e+01
-7.446747355462e+01
-7.438456915167e+01
-7.612080246425e+01
-7.471817687847e+01
-7.475622452876e+01
-7.495603658491e+01
-7.532544782819e+01
-7.544045152660e+01
-7.565770621458e+01
-7.585257606701e+01
-7.625192543255e+01
-7.681472253560e+01
-9.281403535253e+00
-1.038390102668e+01
-1.027923253559e+01
-9.861577849651e+00
-9.703135978525e+00
-9.387558359560e+00
-8.839401836403e+00
-8.287433528114e+00
-7.791131113628e+00
-7.368800782220e+00
-6.990005280112e+00
-6.995535323995e+00
-6.435843090091e+00
-5.692454084888e+00
-5.473480550181e+00
-5.394751623428e+00
-5.236767358804e+00
-4.915847657711e+00
-4.577133774179e+00
-8.100076342745e+00
-8.102804271434e+00
-8.055135268730e+00
-8.026279656903e+00
-7.969735294739e+00
-7.888931413458e+00
-7.786326136513e+00
-7.663015205786e+00
-7.518552077421e+00
-7.352159449677e+00
-7.163250434583e+00
-6.951629656598e+00
-6.718497104378e+00
-6.463957243270e+00
-6.195364114469e+00
-5.917301042494e+00
-5.657633071477e+00
-5.416878169701e+00
-5.283858153081e+00
-5.243454859040e+00
-5.602901049640e+00
-5.871443139990e+00
-4.484653127547e+00
-1.267523441589e+01
-1.442386764009e+01
-1.315688347381e+01
-1.285619225674e+01
-1.281726345864e+01
-1.282722715249e+01
-1.292588845191e+01
-1.304433399911e+01
-1.318513045545e+01
-1.332663228010e+01
-1.346660587704e+01
-1.359858338292e+01
-1.372042583251e+01
-1.383015553741e+01
-1.392670202628e+01
-1.401000794208e+01
-1.407969876648e+01
-1.413537499642e+01
-1.417760685603e+01
-1.420803012216e+01
-1.424224033599e+01
-1.438593346929e+01
-2.644713881850e+01
-2.639127498271e+01
-2.636806763910e+01
-2.634889414952e+01
-2.632640178191e+01
-2.629785679403e+01
-2.626254345960e+01
-2.622148112614e+01
-2.617826399363e+01
-2.613262974852e+01
-2.608926138036e+01
-2.605227866119e+01
-2.602573949804e+01
-2.602972701889e+01
-2.605966416068e+01
-2.616302018239e+01
-2.630130653015e+01
-2.664883703983e+01
-2.784348562572e+01
-2.612411716492e+01
-3.893668071138e+01
-4.068252197711e+01
-3.956925854877e+01
-3.917409980281e+01
-3.898463498448e+01
-3.880592375232e+01
-3.871298396308e+01
-3.864450988688e+01
-3.859623189134e+01
-3.856773477846e+01
-3.855387490769e+01
-3.854462540131e+01
-3.854146098839e+01
-3.853642746639e+01
-3.853481170678e+01
-3.853303348882e+01
-3.854075374167e+01
-3.855755210455e+01
-3.857195709688e+01
-5.068510945078e+01
-5.068160531534e+01
-5.068737452570e+01
-5.070826203197e+01
-5.073832347382e+01
-5.076994729935e+01
-5.081881931348e+01
-5.086068055358e+01
-5.091530443350e+01
-5.100191159152e+01
-5.111363423874e+01
-5.125285704243e+01
-5.142713440342e+01
-5.162162434765e+01
-5.201654292536e+01
-5.315302951981e+01
-5.143037478347e+01
-6.360737365998e+01
-6.523776793701e+01
-6.421879361903e+01
-6.393180097456e+01
-6.370758153758e+01
-6.352529954317e+01
-6.333452792824e+01
-6.320408295381e+01
-6.317778282950e+01
-6.305499570959e+01
-6.298096576870e+01
-6.292749945993e+01
-6.288202326959e+01
-6.281783776694e+01
-6.285990890673e+01
-6.284905157436e+01
-1.058385251313e+01
-1.424500536972e+01
-1.469731029507e+01
-1.446467714920e+01
-1.187507257203e+01
-2.361065136159e+01
-3.610915756668e+01
-4.845948828617e+01
-6.063246269012e+01
-7.272543510053e+01
-1.775844206914e+01
-2.198013762977e+02
-1.233570447003e+01
-1.376028905504e+01
-2.258967403971e+02
-2.000106594326e+01
-1.251176719666e+02
-2.123814364398e+02
-3.542771972507e+01
-2.049810700619e+02
-5.949315821054e+01
-2.296469594428e+02
-1.073938437559e+01
-1.974849338526e+02
-8.343522544475e+01
-7.755171080834e+01
-1.582164050576e+02
-1.926795599349e+02
-1.889764842689e+02
-1.853442760938e+02
-1.850078905703e+02
-1.873901072150e+02
-8.789762019837e+01
-8.659099744653e+01
-8.692293180115e+01
-1.293731581867e+02
-2.300203545123e+02
-1.335560212070e+01
-1.067850232862e+01
-1.969190327488e+02
-8.514457057989e+01
-4.110179608912e+01
-1.885944014826e+02
-2.095238910701e+02
-2.010057436960e+02
-2.153006865491e+02
-2.229973326680e+02
-1.365178884759e+01
-8.672905776025e+01
-2.256547759497e+02
-1.528715490628e+02
-1.181668722584e+01
-1.006710403217e+02
-1.868419887412e+02
-2.654774602375e+01
-1.898354343935e+01
-4.737101382771e+01
-7.136852301896e+01
-1.413913941263e+01
-1.065761234876e+02
-2.324613610301e+02
-1.001695021226e+01
-1.761146832175e+02
-8.906007947137e+01
-9.461106573066e+01
-9.996404459942e+01
-1.064839973909e+02
-1.123743750246e+02
-1.182716830387e+02
-1.125314719956e+02
-1.243419418462e+02
-1.185934793140e+02
-1.243092856914e+02
-1.304511609613e+02
-1.247607485224e+02
-1.366229799224e+02
-1.310249565608e+02
-1.191764923636e+02
-1.255211126341e+02
-1.136404205338e+02
-1.200925135073e+02
-1.319524631901e+02
-1.266207208021e+02
-1.147058010853e+02
-1.213329984229e+02
-1.094132735432e+02
-1.161573785421e+02
-1.042089213799e+02
-1.110823088460e+02
-1.229367208670e+02
-1.179316617525e+02
-1.061249093375e+02
-1.130349038672e+02
-1.013099503520e+02
-1.082393769105e+02
-1.198802693076e+02
-1.150873774982e+02
-1.035161557343e+02
-1.103558393591e+02
-9.887732087253e+01
-1.056986707701e+02
-9.432205532911e+01
-1.010444338561e+02
-1.123650202854e+02
-1.076228599094e+02
-9.640369029498e+01
-1.028290345245e+02
-1.140867476460e+02
-1.091317503764e+02
-1.204447230292e+02
-1.153420184965e+02
-1.041682723686e+02
-1.102069776285e+02
-1.214618319260e+02
-1.161497300084e+02
-1.050121539160e+02
-1.108084617778e+02
-1.220556508413e+02
-1.165603812436e+02
-1.053941711349e+02
-1.110078411951e+02
-1.223428413069e+02
-1.166065802186e+02
-1.053414945336e+02
-1.107911612968e+02
-1.222409836865e+02
-1.162550431962e+02
-1.278647489368e+02
-1.047930347084e+02
-1.101544840082e+02
-9.864924144049e+01
-1.039687112745e+02
-1.266644541776e+02
-9.243131085185e+01
-8.733581139581e+01
-9.771146101895e+01
-1.093796858490e+02
-8.612602183181e+01
-9.138008724897e+01
-7.975842259516e+01
-8.722277691448e+01
-1.384659846703e+02
-8.498575713561e+01
-7.331935109845e+01
-6.817087947020e+01
-6.171601298901e+01
-1.184702963778e+02
-1.302673591852e+02
-1.240804783913e+02
-1.362148606730e+02
-1.303278008280e+02
-6.681778281777e+01
-1.423910935677e+02
-1.421458890683e+02
-1.027317760479e+02
-9.427411787769e+01
-1.255160844046e+02
-9.667025396759e+01
-9.025829446929e+01
-1.019805077357e+02
-1.338839953361e+02
-1.396087912281e+02
-1.456709081387e+02
-1.514703509089e+02
-1.575830624154e+02
-1.634441348653e+02
-1.572288464377e+02
-1.692608435503e+02
-1.629511552271e+02
-1.696079891536e+02
-1.636152937320e+02
-1.750335547235e+02
-1.686364078757e+02
-1.807694931765e+02
-1.742878911465e+02
-1.621746666076e+02
-1.677396045540e+02
-1.557033399102e+02
-1.319235028557e+02
-1.371018367487e+02
-1.435525689778e+02
-1.488227147115e+02
-1.553222918915e+02
-1.606578133420e+02
-1.671917511170e+02
-1.617605978807e+02
-1.428309088740e+02
-9.175206302861e+01
-8.535548272020e+01
-8.088627937924e+01
-7.454292125033e+01
-7.026453919330e+01
-6.401136740018e+01
-5.989986949111e+01
-6.587969219848e+01
-5.563898671148e+01
-6.133979252346e+01
-5.116672578286e+01
-5.656513821221e+01
-1.297123411774e+02
-1.540500410640e+02
-1.659654871754e+02
-1.591994561055e+02
-5.662908669739e+01
-1.799130887947e+02
-1.757092401527e+02
-1.695534238221e+02
-1.737059706461e+02
-5.528538286907e+01
-5.383153351920e+01
-5.752468118719e+01
-1.422206337451e+02
-1.363919437398e+02
-1.817633726274e+02
-6.036470705515e+01
-1.813874784746e+02
-4.573863810063e+01
-1.732883710123e+02
-1.854952087910e+02
-1.509786637647e+02
-1.712353274759e+02
-1.643007192380e+02
-6.701028672599e+01
-6.198428957926e+01
-5.174924613266e+01
-5.725341195498e+01
-6.749566966929e+01
-6.206808607185e+01
-5.162384396312e+01
-5.644136827361e+01
-6.719528571672e+01
-6.140238141478e+01
-5.055921537222e+01
-5.537091109453e+01
-1.921223787720e+02
-4.133786090890e+01
-1.072731177181e+02
-1.878966656033e+02
-1.790530635251e+02
-1.482865952054e+02
-1.425250706190e+02
-1.305520254110e+02
-1.368018507258e+02
-1.487338638855e+02
-1.430662162959e+02
-1.310945022293e+02
-1.374092613480e+02
-1.254091489437e+02
-1.317766712470e+02
-1.437501417076e+02
-1.381804407343e+02
-1.261802262431e+02
-1.326180404355e+02
-1.205826662096e+02
-1.270330151505e+02
-1.390869427978e+02
-4.917336942131e+01
-1.681579050481e+02
-1.802561960242e+02
-9.583365351223e+01
-1.071490637211e+02
-1.137297438625e+02
-1.191949952262e+02
-1.334678585232e+02
-1.455344990617e+02
-4.754924919073e+01
-5.078322658622e+01
-1.540758777302e+02
-1.788347000305e+02
-1.666771475120e+02
-8.956710230975e+01
-8.233075324097e+01
-7.774530934608e+01
-7.005451203519e+01
-7.493687301698e+01
-6.558023192478e+01
-1.574558491055e+02
-1.501385665136e+02
-6.309960337143e+01
-5.168680656198e+01
-1.910592630949e+02
-1.562331284406e+02
-1.347560669300e+02
-1.415041592257e+02
-1.465979304106e+02
-1.533378100600e+02
-1.584477917986e+02
-1.651400286340e+02
-1.601112719654e+02
-1.764403209272e+02
-1.719192718518e+02
-1.213107328482e+02
-1.472454285696e+02
-7.239504734792e+01
-4.389141891262e+01
-4.410004679983e+01
-5.369555814956e+01
-6.543710857627e+01
-1.940442108579e+02
-1.702358417643e+02
-1.634778449908e+02
-6.245531653267e+01
-6.759240418322e+01
-1.833236704758e+02
-1.183641839839e+02
-1.191036305090e+02
-1.133275479575e+02
-4.113197392899e+01
-3.990977306879e+01
-1.549875345017e+02
-6.108735154020e+01
-5.399908963133e+01
-3.610463853547e+01
-3.173589358731e+01
-1.398291824066e+02
-1.518101184647e+02
-1.256281648832e+02
-1.310485586903e+02
-1.877995778063e+02
-4.921870860469e+01
-1.575578933970e+02
-1.625333452182e+02
-1.506493173743e+02
-1.125579136580e+02
-4.103107908188e+01
-3.810155832473e+01
-7.811033925369e+01
-6.038949620105e+01
-5.877861762236e+01
-2.000829189302e+02
-1.605646423351e+02
-1.669330058129e+02
-1.550126293737e+02
-1.788989514077e+02
-3.825723910967e+01
-2.003487402537e+02
-1.843759531466e+02
-1.747401640441e+02
-1.685423251743e+02
-6.464881503242e+01
-5.744631640587e+01
-4.660531537281e+01
-4.973985507433e+01
-1.067081689917e+02
-6.856953735236e+01
-1.016599528123e+02
-9.528760052973e+01
-8.965906110652e+01
-7.994526958372e+01
-7.292216580754e+01
-7.871484878560e+01
-1.305328674908e+02
-1.202100400215e+02
-1.502068936627e+02
-1.398070498495e+02
-1.556063565331e+02
-1.620403955036e+02
-1.141296652350e+02
-1.085179043722e+02
-4.514365630609e+01
-4.028449495132e+01
-1.334894419345e+02
-1.939231174973e+02
-1.599731591418e+02
-1.657358235347e+02
-1.598377226518e+02
-1.936105197156e+02
-8.708388216118e+01
-1.382376636774e+02
-3.669626783373e+01
-1.315322834207e+02
-3.380699671325e+01
-1.437207161946e+02
-1.966914990717e+02
-2.033014564569e+02
-1.884219631266e+02
-8.903897495543e+01
-1.382846328520e+02
-1.334107413137e+02
-8.333280022388e+01
-7.763601635984e+01
-8.405976008130e+01
-7.196389581871e+01
-8.336694496116e+01
-7.749606026341e+01
-1.828471008694e+02
-1.836040350322e+02
-1.799397816119e+02
-1.740472612670e+02
-1.953904051095e+02
-1.900195145266e+02
-7.017312893366e+01
-6.051081996594e+01
-1.668343076820e+02
-8.902521410941e+01
-2.061246577087e+02
-1.999394508292e+02
-2.716449780965e+01
-3.144907989526e+01
-1.639460024613e+02
-3.871341145963e+01
-4.122877245047e+01
-3.639724421981e+01
-2.220928603128e+02
-8.480805762275e+01
-2.090826244788e+02
-8.524846108167e+01
-1.697587133141e+02
-1.451217027315e+02
-8.481835271286e+01
-1.813950497651e+02
-1.575371929494e+02
-1.705510047515e+02
-1.070328471012e+02
-1.008677551296e+02
-1.124699199847e+02
-4.015758016222e+01
-2.988261809692e+01
-1.564833667350e+02
-8.378790768688e+01
-9.016851751536e+01
-5.383976561903e+01
-6.505921370145e+01
-1.320384033457e+02
-1.265912006343e+02
-1.502766529116e+02
-1.555057563999e+02
-1.398665859227e+02
-1.568704714035e+02
-1.450419953555e+02
-1.389772020180e+02
-1.671448044741e+02
-1.749127023389e+02
-8.900804031133e+01
-8.361566279717e+01
-8.846698716653e+01
-1.723656095823e+02
-2.154761289010e+02
-2.098400371840e+02
-2.917297640407e+01
-3.535956243239e+01
-3.198496552900e+01
-2.957696673059e+01
-1.711969122785e+02
-1.657845881960e+02
-1.781358298852e+02
-6.279748132915e+01
-1.619357854418e+02
-2.053875844489e+02
-1.988763328095e+02
-2.134473090306e+02
-1.813627853561e+02
-1.930127967854e+02
-1.906131797303e+02
-2.264496385828e+01
-1.663728579596e+02
-1.014564701794e+02
-1.949678512125e+01
-9.593249552547e+01
-1.027811583825e+02
-8.962634261874e+01
-5.128716709810e+01
-9.852219979613e+01
-1.061436750267e+02
-2.263819072012e+01
-1.783049341566e+02
-2.306956363583e+01
-2.764504496596e+01
-2.122759453552e+02
-2.058154550176e+02
-2.177523424213e+02
-2.112127369048e+02
-1.993383745473e+02
-2.053094701351e+02
-9.470521901483e+01
-2.189062785075e+02
-2.114245294381e+02
-2.249703502792e+02
-6.569647786700e+01
-5.315426373094e+01
-4.471297249757e+01
-3.157648955267e+01
-1.869748189850e+02
-1.784899500653e+02
-1.902928090902e+02
-1.779487606032e+02
-9.638517208608e+01
-9.568514062833e+01
-1.066490394477e+02
-1.051169206440e+02
-1.161079925864e+02
-1.144379234917e+02
-1.256367994233e+02
-1.955009079855e+02
-2.834432100436e+01
-7.722034597105e+01
-2.020175572938e+02
-1.957360482158e+02
-6.606868514969e+01
-5.378755431089e+01
-2.141736239547e+02
-7.569006868538e+01
-1.853114197227e+02
-1.226119352874e+01
-2.030001232357e+01
-8.000049209684e+01
-7.849168363465e+01
-5.735667163005e+01
-5.007234775311e+01
-1.689910940036e+02
-3.112677761822e+01
-3.430949443962e+01
-1.270910681049e+02
-2.552959123860e+01
-1.844892808806e+02
-8.291970263719e+01
-9.214373782876e+01
-4.378799895045e+01
-6.139897253305e+01
-1.128908122473e+02
-1.006620347184e+02
-9.489109734320e+01
-8.980521073370e+01
-5.497198790006e+01
-4.074618789024e+01
-1.081360968131e+02
-1.539859125505e+02
-1.598720013486e+02
-1.712288412824e+02
-1.658330223636e+02
-1.541691878917e+02
-1.602143435922e+02
-1.717621323419e+02
-1.667050869729e+02
-1.801931182808e+02
-1.727937249481e+02
-1.606749165475e+02
-1.665792795198e+02
-1.778086042562e+02
-1.547617180123e+02
-2.071970395837e+02
-9.179187336137e+01
-2.692440242473e+01
-2.345823282846e+01
-9.739575552571e+01
-1.911127603485e+02
-1.894320042021e+02
-6.793877074211e+01
-1.990703179552e+02
-1.009872573465e+02
-4.988440749875e+01
-2.029770692726e+02
-1.481318622820e+02
-1.421920482741e+02
-1.361944573473e+02
-1.886804333436e+02
-1.183771008143e+02
-2.112886932085e+02
-1.422290008552e+02
-1.354480923791e+02
-1.238150981182e+02
-1.544369433861e+02
-2.180711568934e+02
-2.088525729882e+02
-2.103165397406e+02
-1.985939840648e+02
-2.213220086784e+02
-1.947867727614e+02
-1.965094903862e+02
-7.278656997783e+01
-7.819613205148e+01
-8.896660612570e+01
-8.336065506253e+01
-7.262498844737e+01
-7.762654854716e+01
-8.833589611758e+01
-7.177510060882e+01
-1.672677077901e+02
-2.242929948221e+02
-1.516387362781e+02
-1.455546171854e+02
-1.338639305855e+02
-1.148125261971e+02
-1.211182446969e+02
-1.328967598518e+02
-1.084246814183e+02
-1.482482195651e+02
-2.252703234596e+02
-1.444730005586e+02
-1.156155455819e+02
-8.731564416314e+01
-9.829529463006e+01
-9.900612948787e+01
-1.103922380419e+02
-9.898729872377e+01
-1.374681124178e+02
-1.428714567969e+02
-1.364574928137e+02
-1.482577593111e+02
-1.415435336456e+02
-1.306335692120e+02
-1.534173866394e+02
-1.458184231523e+02
-8.657087875731e+01
-1.399369433190e+01
-2.240355689083e+01
-2.208662653297e+01
-3.062560585415e+01
-3.110774991479e+01
-4.043516291444e+01
-3.886719787909e+01
-2.246843416391e+01
-1.318349329869e+01
-2.183157315165e+01
-1.269765160176e+01
-2.136140885116e+01
-3.187914900843e+01
-4.701243124956e+01
-2.286723095021e+02
-1.124265703951e+02
-1.066326331313e+02
-9.529072114338e+01
-1.013567685078e+02
-1.170697233035e+02
-8.904015576813e+01
-8.482303244672e+01
-1.053581910613e+01
-2.022082985348e+01
-1.921449072702e+01
-3.010749845489e+01
-3.003562673998e+01
-2.053657489636e+01
-2.061149038837e+01
-1.074630700338e+01
-2.064296244567e+01
-3.062464398121e+01
-1.062245939342e+01
-1.414014161777e+02
-1.478802197884e+02
-2.263657315386e+02
-8.743227809595e+01
-1.213538205954e+01
-1.833456201318e+02
-1.857811571234e+02
-1.858120246322e+02
-2.095781968379e+02
-2.157268342656e+02
-1.834997582608e+02
-7.456651347080e+01
-1.772139643216e+02
-1.628811629093e+02
-4.414433794648e+01
-7.144020199025e+01
-1.722088241353e+02
-1.566035910638e+02
-1.976751226512e+02
-1.611980987610e+02
-1.864735778768e+02
-2.110271522526e+02
-4.743217583852e+01
-1.197143789927e+02
-1.149815308599e+02
-1.446063060616e+02
-7.848354355390e+01
-1.250395548592e+02
-5.017551121173e+01
-1.926149288159e+02
-9.612820799384e+01
-1.281197967075e+02
-1.030641296481e+02
-8.098230124207e+01
-6.647554537911e+01
-9.656431098481e+01
-1.217738256436e+02
-1.755208960369e+02
-1.510382289608e+02
-1.261123436798e+01
-1.817343364830e+02
-1.453061010795e+02
-1.247852555705e+02
-1.725732948699e+02
-4.620473567027e+01
-1.493527279028e+02
-1.710912617869e+02
-1.120932068148e+02
-3.873263424705e+01
-1.074080020372e+02
-2.063600755091e+02
-1.480782466490e+02
-7.198838386900e+01
-1.267100335858e+02
-9.915156978702e+01
-7.738719882428e+01
-1.679858036755e+02
-1.218377812787e+02
-1.857509952139e+02
-1.499258510512e+02
-7.725513721835e+01
-1.936015481932e+02
-1.189960185435e+02
-1.612367361764e+02
-1.517186344766e+02
-9.801172795451e+01
-1.543394239556e+02
-1.279288777253e+02
-1.779663823480e+02
-9.066914092760e+01
-1.280195861326e+02
-1.373203376113e+02
-1.247512208877e+02
-1.656435611978e+02
-1.876962249810e+02
-4.647283912371e+01
-7.313061362890e+01
-1.243615003211e+02
-1.766085450401e+02
-1.729585422098e+02
-8.712859884240e+01
-1.871889886412e+02
-1.658126046219e+02
-1.273341444011e+02
-5.424526126622e+01
-3.515049053052e+01
-7.636971421210e+01
-1.170835302364e+02
-1.391171390570e+02
-1.784541246655e+02
-1.929525683982e+02
-1.754835075400e+02
-1.640048114130e+01
-8.310661469480e+01
-1.987186675089e+02
-1.328852838802e+02
-1.843906452495e+02
-1.345295527617e+02
-1.942331515646e+02
-5.973904503784e+01
-2.046002437639e+02
-1.747271386417e+02
-7.178760582151e+01
-8.521862884566e+01
-2.186985077936e+02
-1.870248301252e+02
-1.364762601375e+02
-1.274886514143e+02
-6.541563537402e+01
-1.447051146212e+02
-1.331961247138e+02
-1.882203147092e+02
-1.921462031385e+02
-1.301785325877e+02
-1.383812871621e+02
-1.521425966710e+02
-3.020556392286e+01
-7.147856556956e+01
-1.438408919766e+02
-8.239785437987e+01
-1.334635488567e+02
-2.001435759635e+02
-1.492981185243e+02
-9.319373782507e+01
-1.547267976456e+02
-5.343029396934e+01
-1.362812587578e+02
-1.601319618658e+02
-1.450412618939e+02
-3.168417414077e+01
-1.432176728688e+02
-2.028619816785e+02
-9.350228078557e+01
-1.394474455734e+02
-1.482982326472e+02
-4.129683386083e+01
-1.512017400767e+02
-1.568713122979e+02
-1.500152393538e+02
-1.286072637320e+02
-1.632307416316e+02
-4.821841512270e+01
-6.961161779676e+01
-5.835462624112e+01
-9.916876049399e+01
-1.621045883526e+02
-3.991858312602e+01
-1.486033580125e+02
-4.247511061064e+01
-9.411763358921e+01
-1.693342102256e+02
-1.182077298405e+02
-9.979398027863e+01
-6.594822553352e+01
-9.445302356994e+01
-1.402660212653e+02
-9.992400162085e+01
-9.430191768157e+01
-1.745885421442e+02
-9.954158500963e+01
-1.856090907631e+02
-2.297097140679e+02
-9.436260517577e+01
-2.838035747396e+01
-1.445971651603e+01
-3.894521091819e+01
-8.242355871007e+01
-1.490889023553e+02
-9.487115141027e+01
-7.617664744200e+01
-1.844291524366e+02
-2.073608462507e+02
-1.355857604627e+02
-1.904704966696e+02
-1.571615616576e+02
-1.637413450967e+02
-8.460762106372e+01
-2.111423288284e+01
-1.719694237354e+02
-1.870787071969e+01
-2.997471922613e+01
-2.695157649645e+01
-8.137098333117e+01
-3.042583727044e+01
-1.942758369748e+01
-2.066012156745e+02
-9.612553478651e+01
-1.739634259371e+02
-1.847162199355e+01
-1.770679952594e+02
-1.993222052012e+02
-2.288295452423e+02
-1.861320446968e+02
-2.378538670919e+01
-1.075932556187e+02
-1.906545749893e+02
-1.451316533585e+02
-2.304885425753e+02
-9.521837850822e+01
-1.759726525527e+02
-4.186418125678e+01
-1.760247544513e+02
-1.609533042117e+02
-1.097596365215e+02
-1.079464130563e+02
-2.215114591598e+02
-1.817833602474e+02
-2.166892722187e+01
-1.350513482474e+02
-1.013734205972e+02
-2.109537776154e+01
-2.168798013718e+02
-1.720701614544e+02
-2.203446248827e+02
-2.973771541145e+01
-1.959004748377e+01
-2.170608312846e+02
-1.883205284905e+02
-4.749109604464e+01
-1.884628595688e+02
-1.689648143387e+01
-8.358605707635e+01
-1.991506338335e+01
-2.307808858331e+02
-1.771361098551e+02
-1.118276956159e+02
-8.878650902684e+01
-7.390080924300e+01
-1.866621173355e+02
-2.863661256701e+01
-1.779395793213e+02
-2.154722080515e+02
-1.810975731913e+02
-2.173905266912e+02
-1.952514836229e+01
-2.006822751441e+02
-2.023032584399e+02
-8.433792937529e+01
-1.808754300690e+02
-9.085252478593e+01
-3.952966773033e+01
-1.868225248647e+02
-8.724097770887e+00
-8.348572050483e+01
-2.325087444730e+02
-3.774330570826e+01
-1.032298864059e+02
-1.875022039852e+02
-1.375850005971e+02
-1.569659674534e+02
-3.733021811438e+01
-1.330699184875e+01
-1.245283495672e+02
-2.032281357256e+02
-1.805980323920e+02
-1.163126727904e+02
-2.815167514297e+01
-1.811987361950e+02
-1.209100472176e+02
-1.842561499788e+02
-1.999102777767e+02
-1.152371338300e+01
-1.480368668563e+02
-1.886721827735e+01
-2.211602858226e+02
-1.260346546400e+02
-6.274724139523e+00
-8.835356026797e+00
-2.048612662713e+01
-2.008502978000e+01
-3.338017796514e+01
-3.285634718851e+01
-4.602758669713e+01
-4.428603837240e+01
-5.832103920706e+01
-5.709486619173e+01
-7.047840782997e+01
-6.842596924170e+01

SCALARS node_materi_stress_size_dev_sd_sig float
LOOKUP_TABLE default
3.863231538288e+00
5.256744345076e+01
1.790183915778e+02
1.433596109947e+02
1.000447449945e+01
1.991126145565e+01
2.895685595949e+01
3.922842926493e+01
4.917910619521e+01
5.882638427775e+01
6.848539511497e+01
7.810474700577e+01
8.760699370772e+01
9.714898740631e+01
1.068240203513e+02
1.158450798413e+02
1.239205259226e+02
1.328045036590e+02
1.416942676630e+02
1.501464292142e+02
1.585216291448e+02
1.667999354214e+02
1.745454444269e+02
1.439133753709e+02
1.435033249043e+02
1.436456327837e+02
1.436993892036e+02
1.434258969334e+02
1.437822972281e+02
1.439183855381e+02
1.439973730307e+02
1.444961546506e+02
1.447259478353e+02
1.446575665064e+02
1.452947106332e+02
1.458512272297e+02
1.462746564125e+02
1.466640364744e+02
1.471148283196e+02
1.478660781606e+02
1.491254140240e+02
1.505043474841e+02
1.519486629124e+02
1.532714297523e+02
1.546122336801e+02
1.561997660945e+02
1.578056843518e+02
1.595776392368e+02
1.613431341378e+02
1.631330903211e+02
1.647461382122e+02
1.662751047214e+02
1.679910819787e+02
1.693796875601e+02
1.702160690899e+02
1.714412567305e+02
1.726518809167e+02
1.736966879224e+02
1.746176074238e+02
1.754253254856e+02
1.760173836955e+02
1.764796754303e+02
1.768607395909e+02
1.774240684246e+02
1.781392963590e+02
1.785398736966e+02
1.778765805574e+02
1.788412354791e+02
1.787045744864e+02
1.790171932009e+02
1.793801619533e+02
1.794063064296e+02
6.171874077470e+01
7.109655992231e+01
8.035480869268e+01
8.952463069348e+01
9.898388990610e+01
1.084655600664e+02
1.180310297438e+02
1.275883942465e+02
1.374231863700e+02
8.291689849613e+00
5.115600613143e+01
1.555488592473e+01
1.804832665990e+01
1.786379920064e+01
1.165401362900e+01
9.147341663507e+00
1.609260471393e+01
2.417182067838e+01
3.271690015638e+01
4.155263090584e+01
3.608976788604e+00
7.176744023699e+00
1.598062531896e+01
2.495121864812e+01
3.398129247766e+01
4.296306661068e+01
5.122307973243e+01
5.170200471250e+01
5.171366134549e+01
5.153506928235e+01
5.264922037913e+01
5.150414452440e+01
5.126013026840e+01
5.126211763077e+01
5.137754709095e+01
5.121379019607e+01
5.100153962810e+01
5.084749713238e+01
5.073135822289e+01
5.079107995216e+01
7.265682947923e+00
7.698615461420e+00
7.927982052900e+00
7.243869072229e+00
5.863180132445e+00
5.027011863745e+00
4.364983237005e+00
3.769914725719e+00
3.271916769776e+00
2.939272947592e+00
2.779644920239e+00
3.012771852355e+00
3.075756691700e+00
2.925354804194e+00
3.228021239800e+00
3.599675774313e+00
3.808773639003e+00
3.697681481829e+00
3.371639763100e+00
3.439460328351e+00
3.450512791421e+00
3.433037474781e+00
3.429252171379e+00
3.422793348478e+00
3.417099760790e+00
3.416569243888e+00
3.426363089505e+00
3.452553151025e+00
3.502009533917e+00
3.581983447306e+00
3.698884304006e+00
3.859666918689e+00
4.067912632775e+00
4.322847524362e+00
4.607156470785e+00
4.906407857161e+00
5.177516059355e+00
5.391208103431e+00
5.458975152041e+00
5.371300651563e+00
4.829172441506e+00
3.629346941331e+00
7.132688923025e+00
8.833315562244e+00
8.568511412291e+00
8.576613891497e+00
8.569817336189e+00
8.471056854819e+00
8.342570479950e+00
8.185419135261e+00
8.030330179736e+00
7.884642914170e+00
7.752472951948e+00
7.632283553838e+00
7.526866266849e+00
7.436966395638e+00
7.361267149143e+00
7.297645744218e+00
7.244426724155e+00
7.201498638376e+00
7.168355414707e+00
7.143364705695e+00
7.118525592989e+00
7.130655524139e+00
1.590846888322e+01
1.587113749401e+01
1.589004775818e+01
1.592216014438e+01
1.595750995151e+01
1.599666150691e+01
1.603888024914e+01
1.608161772104e+01
1.612860825750e+01
1.618317210545e+01
1.624057514561e+01
1.629317287318e+01
1.633407337749e+01
1.637526355294e+01
1.640438760396e+01
1.642009053119e+01
1.636167849432e+01
1.629449472854e+01
1.660987836527e+01
1.479947604227e+01
2.304105576713e+01
2.491435937866e+01
2.462563469889e+01
2.465823418662e+01
2.470992158118e+01
2.475037621680e+01
2.481241558805e+01
2.484816441235e+01
2.486608575614e+01
2.486936368902e+01
2.487803240673e+01
2.489184899812e+01
2.488910032603e+01
2.488097388320e+01
2.487362990865e+01
2.486524669596e+01
2.486335768176e+01
2.489317709991e+01
2.493698850610e+01
3.399303099823e+01
3.391165392882e+01
3.387759129205e+01
3.386894212004e+01
3.383727794827e+01
3.381648959554e+01
3.379083265271e+01
3.374198143738e+01
3.366484259231e+01
3.362721277334e+01
3.356893520550e+01
3.347723220371e+01
3.338793479436e+01
3.324778172634e+01
3.321600622047e+01
3.358670610656e+01
3.168651924138e+01
4.052614478290e+01
4.242325434073e+01
4.210182100694e+01
4.217252426561e+01
4.231019058071e+01
4.244027694938e+01
4.250482502940e+01
4.259638868865e+01
4.269473934848e+01
4.276750998287e+01
4.282095458465e+01
4.287086375798e+01
4.294260778383e+01
4.294263689134e+01
4.305511533693e+01
4.316272971333e+01
1.241359795191e+01
1.725700227500e+01
1.812434937523e+01
1.672930253589e+01
8.782888020066e+00
1.301816414579e+01
2.070394459274e+01
2.908270563691e+01
3.780594763912e+01
4.683343549961e+01
1.786850709850e+01
1.689241922203e+02
6.022501721890e+00
5.293713682558e+00
1.732159619918e+02
1.927753938130e+01
1.023415234047e+02
1.630789405404e+02
2.096507038900e+01
1.564401947298e+02
3.685291374884e+01
1.754243661511e+02
6.767333589081e+00
1.495148505369e+02
5.486640085429e+01
6.411006224579e+01
1.270552384995e+02
1.449543613474e+02
1.419886236333e+02
1.395868809612e+02
1.389994973885e+02
1.408840236341e+02
5.906251361822e+01
5.954523464357e+01
6.053509354951e+01
9.426984077627e+01
1.756175376724e+02
5.314442501034e+00
8.004191766510e+00
1.540480293637e+02
5.981867093364e+01
3.410426320251e+01
1.415485790923e+02
1.604688517087e+02
1.528189982246e+02
1.656299159842e+02
1.712280532259e+02
5.708436965683e+00
5.895951593326e+01
1.730902824118e+02
1.130770101803e+02
6.674990404198e+00
8.294627352155e+01
1.409214541163e+02
1.849630326618e+01
2.007823000899e+01
2.835825732499e+01
4.560795836507e+01
1.257492064300e+01
7.639126647447e+01
1.771679284089e+02
7.779345148285e+00
1.319421818341e+02
5.910013148974e+01
6.310851859516e+01
6.742188445088e+01
7.227340408618e+01
7.700697461085e+01
8.150587897847e+01
7.681082924266e+01
8.621786181430e+01
8.159576580760e+01
8.637792673212e+01
9.117784854907e+01
8.666679641250e+01
9.637543022087e+01
9.203537904639e+01
8.239262292592e+01
8.795570506337e+01
7.832545780591e+01
8.413928483991e+01
9.378829155665e+01
9.021596883181e+01
8.061937294682e+01
8.695638625494e+01
7.745758443277e+01
8.407108832463e+01
7.469020159457e+01
8.157323261386e+01
9.077059982775e+01
8.843633709427e+01
7.946711693400e+01
8.641416979684e+01
7.771180702882e+01
8.461757090948e+01
9.315649249404e+01
9.125703189374e+01
8.292288043801e+01
8.938476930774e+01
8.120877192226e+01
8.743415304512e+01
7.933946011999e+01
8.524896694816e+01
9.332054512715e+01
9.086129899977e+01
8.275274049486e+01
8.805133654579e+01
9.621300360348e+01
9.311791551145e+01
1.013283774144e+02
9.798747795406e+01
8.970444824606e+01
9.434186908589e+01
1.026717840494e+02
9.881340685787e+01
9.037663026521e+01
9.468858998011e+01
1.031748667678e+02
9.889922002195e+01
9.028696282001e+01
9.439354308009e+01
1.030761659993e+02
9.844204302322e+01
8.963426486241e+01
9.360176111307e+01
1.024794611468e+02
9.754849333093e+01
1.064715643234e+02
8.850304608437e+01
9.243257562406e+01
8.320225527554e+01
8.717122565880e+01
9.966285564656e+01
7.778591007919e+01
7.388962071659e+01
8.180853757330e+01
9.119550886897e+01
7.228782467655e+01
7.636668752366e+01
6.674657101479e+01
7.295712207909e+01
9.984008056383e+01
7.087975328247e+01
6.118235485366e+01
5.698768196653e+01
5.136410966072e+01
8.192098738243e+01
9.143783745292e+01
8.673149063302e+01
9.654853449399e+01
9.204332120811e+01
5.557647718099e+01
1.010079545782e+02
1.011683182958e+02
7.105163313118e+01
7.055308688459e+01
1.043795987261e+02
8.044383532014e+01
7.501493557911e+01
8.455991471888e+01
1.112671204124e+02
1.152629984475e+02
1.199308101161e+02
1.239102044673e+02
1.284595874017e+02
1.324136821822e+02
1.278219758282e+02
1.362950324264e+02
1.316755330881e+02
1.368495448593e+02
1.328277607287e+02
1.401069279526e+02
1.354731607239e+02
1.438560321857e+02
1.392201531447e+02
1.307092862677e+02
1.344627566626e+02
1.258708818995e+02
1.095282961573e+02
1.125773339702e+02
1.177334136305e+02
1.208052867575e+02
1.259449793115e+02
1.290523735270e+02
1.341358764332e+02
1.308611670749e+02
1.018028009665e+02
7.986330550991e+01
7.462173231528e+01
7.160263949970e+01
6.642547223982e+01
6.319240265011e+01
5.806445680488e+01
5.450606758845e+01
5.939350333320e+01
5.034292611659e+01
5.504767374046e+01
4.563692820355e+01
5.019199742164e+01
9.745161602448e+01
1.237127720011e+02
1.320356240396e+02
1.264705408059e+02
4.713080377235e+01
1.429280969375e+02
1.411204228830e+02
1.369937754788e+02
1.390167909232e+02
4.582462691495e+01
4.942378146058e+01
5.263038167410e+01
1.017385682818e+02
9.724424618024e+01
1.452272074782e+02
5.004238709152e+01
1.446146083803e+02
4.089649733655e+01
1.381847503815e+02
1.466031950078e+02
1.230980272216e+02
1.349362997364e+02
1.291545784535e+02
5.962080745991e+01
5.469343326971e+01
4.516039479029e+01
4.972505091519e+01
5.917938587359e+01
5.379815986502e+01
4.406252192280e+01
4.822324427535e+01
5.800709999381e+01
5.243016820684e+01
4.238881752642e+01
4.667899730226e+01
1.512143056646e+02
3.577635765280e+01
7.285202766004e+01
1.492625079236e+02
1.422068016900e+02
1.070049013005e+02
1.025401247242e+02
9.285053034550e+01
9.820601291751e+01
1.079421561904e+02
1.035845056670e+02
9.394275850344e+01
9.926923852655e+01
8.969563610976e+01
9.500919024248e+01
1.046226609662e+02
1.003643939612e+02
9.083215682263e+01
9.613954396561e+01
8.666128472823e+01
9.187210330400e+01
1.014655069033e+02
4.049601158384e+01
1.355865635920e+02
1.437543114314e+02
7.946810311608e+01
8.854875202453e+01
9.393236668035e+01
9.799445872769e+01
9.711388966251e+01
1.068383299740e+02
4.404193038086e+01
4.686307988806e+01
1.115984806444e+02
1.419140336127e+02
1.333934031909e+02
6.909804638551e+01
6.168374633074e+01
6.055506909878e+01
5.272195137084e+01
5.406355303034e+01
5.193602729893e+01
1.286253414889e+02
1.100325909795e+02
5.281232368692e+01
4.289433065750e+01
1.502984260770e+02
1.274011186736e+02
9.999495992439e+01
1.065336849271e+02
1.092952688669e+02
1.157022013479e+02
1.186697726043e+02
1.249218245193e+02
1.220396150045e+02
1.377847357710e+02
1.311281234140e+02
8.742537953947e+01
1.180394007366e+02
6.221216159248e+01
3.620122079717e+01
3.634100455411e+01
4.441303104624e+01
5.423278101714e+01
1.533007498407e+02
1.280777102447e+02
1.218216917589e+02
4.485733807834e+01
4.649557986693e+01
1.433513110844e+02
8.244723349471e+01
8.444429054576e+01
8.023931431600e+01
3.375081245346e+01
3.229142789334e+01
1.133700111373e+02
5.509224747271e+01
4.893434976242e+01
3.087625339190e+01
2.540471541538e+01
1.022471257492e+02
1.119196750644e+02
1.031423306845e+02
1.071589550660e+02
1.491907739947e+02
4.089193364915e+01
1.165283348694e+02
1.319918853677e+02
1.237436038409e+02
9.255029328723e+01
3.835362328716e+01
3.515976329238e+01
6.757280428694e+01
5.096582551338e+01
4.862435461943e+01
1.571647101863e+02
1.177608981494e+02
1.282475492575e+02
1.193153956505e+02
1.371956450707e+02
3.059698993696e+01
1.573924097429e+02
1.456745442897e+02
1.310585664367e+02
1.252519451626e+02
5.687125580238e+01
5.035104202581e+01
4.241996031463e+01
4.336741574305e+01
7.220947956704e+01
5.822218297532e+01
6.876433516922e+01
6.342423677621e+01
5.935082006257e+01
5.588752819447e+01
4.888639267606e+01
6.906058528990e+01
1.071608864194e+02
9.920135768873e+01
1.220749292464e+02
1.158574595507e+02
1.143181374548e+02
1.198361907140e+02
8.140350943919e+01
7.718113792248e+01
3.716003399004e+01
3.288774657343e+01
1.104367164463e+02
1.531729911695e+02
1.168308632744e+02
1.215497010836e+02
1.162626352198e+02
1.528841039486e+02
7.655745548318e+01
1.144553567652e+02
3.032533060116e+01
1.017735977413e+02
2.722789739435e+01
1.034705249467e+02
1.539828995741e+02
1.584514612248e+02
1.462811988341e+02
5.874153216381e+01
1.081522481963e+02
1.059229926719e+02
5.422604619989e+01
5.012841156758e+01
5.551815743057e+01
4.626151945500e+01
7.164826540733e+01
6.626599895782e+01
1.382099683483e+02
1.401122420538e+02
1.347937782651e+02
1.291306178219e+02
1.516457861776e+02
1.485597917202e+02
5.820307852070e+01
3.943912198444e+01
1.231693210118e+02
5.848101757413e+01
1.610016959314e+02
1.570019738293e+02
1.957470866240e+01
2.420364534797e+01
1.218253855695e+02
3.535636846858e+01
3.552052752435e+01
3.426117795076e+01
1.704862051265e+02
5.963685618780e+01
1.621039402228e+02
5.841976339389e+01
1.264682787611e+02
1.143683267123e+02
6.774598284828e+01
1.448860131325e+02
1.166339196403e+02
1.274155504202e+02
7.501953962354e+01
7.065957714796e+01
7.896757162324e+01
3.587992989268e+01
2.494208859592e+01
1.154295405341e+02
6.961813928350e+01
7.484194362643e+01
4.496297163829e+01
5.486420650497e+01
1.082849241006e+02
1.043770457801e+02
1.095158822973e+02
1.132534931146e+02
1.028501800915e+02
1.282081064043e+02
1.198891369051e+02
1.154792345566e+02
1.239970155154e+02
1.306105388935e+02
7.676719790334e+01
7.266644773337e+01
7.554485579988e+01
1.276961656036e+02
1.663992076988e+02
1.628269673324e+02
2.291703424843e+01
2.848131155044e+01
2.964410209048e+01
2.635976580818e+01
1.261646562722e+02
1.212004326559e+02
1.323132016197e+02
5.195529983917e+01
1.255234024682e+02
1.603857787461e+02
1.562132494724e+02
1.655681949405e+02
1.405451761896e+02
1.490373390582e+02
1.460171597082e+02
1.497564921358e+01
1.239889744393e+02
7.160161303707e+01
1.037645617780e+01
6.750169594166e+01
7.296553824594e+01
6.288725737181e+01
4.235421207036e+01
6.823248176650e+01
7.372230950022e+01
1.666491098694e+01
1.330231520271e+02
1.786654238329e+01
2.192405465979e+01
1.648187889856e+02
1.606798565401e+02
1.682394033917e+02
1.640142088610e+02
1.563799110855e+02
1.601508956872e+02
6.625556329378e+01
1.687609421749e+02
1.639291958052e+02
1.726916960425e+02
4.122448932924e+01
4.359007598800e+01
3.507324293269e+01
2.600007783493e+01
1.402960717621e+02
1.326466198551e+02
1.496309197560e+02
1.411473269367e+02
6.828033152036e+01
6.785925979949e+01
7.627065185416e+01
7.519806200827e+01
8.372024510783e+01
8.241945613923e+01
9.115428819008e+01
1.492591920822e+02
2.730735686147e+01
4.962950311288e+01
1.566934333481e+02
1.529673842919e+02
4.250514295817e+01
3.334839950665e+01
1.661351366063e+02
6.480480431486e+01
1.390669554274e+02
6.344017298828e+00
1.312971977844e+01
6.624940259887e+01
5.199208785773e+01
4.371209919959e+01
3.597043106724e+01
1.365602544108e+02
2.430062414816e+01
3.239287195966e+01
9.213246926527e+01
2.402855871023e+01
1.455975634298e+02
7.120391931304e+01
6.528748679034e+01
4.079480855379e+01
5.136269155623e+01
7.713304947748e+01
6.763331016824e+01
6.305093828023e+01
7.716461810550e+01
3.703489629514e+01
2.664914977079e+01
7.451827464170e+01
1.110898336537e+02
1.159973035265e+02
1.258672381158e+02
1.210490309061e+02
1.109814196520e+02
1.160868324538e+02
1.262617324848e+02
1.216705407907e+02
1.336954406084e+02
1.271903207036e+02
1.166619702394e+02
1.220362177855e+02
1.317805212001e+02
1.118401836094e+02
1.597339964968e+02
7.455953093136e+01
2.025590737146e+01
1.816326607279e+01
6.795303382464e+01
1.437575956066e+02
1.422554881036e+02
6.092487770268e+01
1.509416757767e+02
6.773595466306e+01
4.546011016304e+01
1.545801283554e+02
1.059640262409e+02
1.008733268455e+02
9.604026158926e+01
1.416790235628e+02
8.327739847277e+01
1.619574134635e+02
1.154127291929e+02
1.096909593879e+02
1.014505353345e+02
1.111633020075e+02
1.676939870341e+02
1.620050135397e+02
1.631214172119e+02
1.555904085273e+02
1.700655321337e+02
1.469622040103e+02
1.485957495971e+02
6.339233351930e+01
6.849099438857e+01
7.745617236600e+01
7.316936390370e+01
6.411810287965e+01
6.871324795280e+01
7.745243481132e+01
6.410764658443e+01
1.230712041738e+02
1.721365449783e+02
1.243996376115e+02
1.201777907430e+02
1.116732358386e+02
9.522504048016e+01
1.004199980968e+02
1.094441797793e+02
8.993621268925e+01
1.129860340937e+02
1.727679850165e+02
1.191844812945e+02
9.641815457240e+01
5.903753576501e+01
6.699968363588e+01
6.709676118818e+01
7.590486254630e+01
6.789258969982e+01
1.121996584561e+02
1.160908215537e+02
1.111313438504e+02
1.199319541372e+02
1.148047773064e+02
1.065230794244e+02
1.235687686055e+02
1.179274837160e+02
5.913594901554e+01
5.629417954777e+00
1.432512916575e+01
1.424672982431e+01
2.310765323287e+01
2.374744708038e+01
3.310962451546e+01
3.172314509633e+01
1.413669359896e+01
5.740055496159e+00
1.452846284187e+01
5.847627482057e+00
1.452960879096e+01
2.468529783539e+01
3.881888318568e+01
1.747921974133e+02
9.234635987810e+01
8.786487426392e+01
7.864359442287e+01
8.366457070247e+01
9.614220474410e+01
7.354333949867e+01
7.010749480468e+01
8.139808231823e+00
1.659787377354e+01
1.581333680469e+01
2.503213979452e+01
2.468851946023e+01
1.658715290411e+01
1.650415682193e+01
7.739801200419e+00
1.630345034778e+01
2.496369560367e+01
7.203225292538e+00
1.037991617624e+02
1.090428571117e+02
1.735397487872e+02
6.042793575849e+01
6.440176774712e+00
1.379339763084e+02
1.397039568283e+02
1.397781023732e+02
1.624462719160e+02
1.664271370906e+02
1.381930023172e+02
6.260047569482e+01
1.308827395407e+02
1.208508095509e+02
4.044186241504e+01
6.069233979614e+01
1.371931903734e+02
1.269330572228e+02
1.548349370348e+02
1.296516300379e+02
1.475569037008e+02
1.638669832407e+02
3.902665453438e+01
8.548502317456e+01
8.241176126852e+01
1.057389584729e+02
6.537427214965e+01
1.023918236286e+02
4.156895234106e+01
1.458390592166e+02
6.496682021763e+01
1.072006755113e+02
8.586755107211e+01
6.825824419434e+01
5.665745800424e+01
7.614782797452e+01
1.015142530030e+02
1.407707321905e+02
1.111411839378e+02
8.030485253750e+00
1.450933672743e+02
1.192038815958e+02
8.862850797743e+01
1.372823148830e+02
3.837914432358e+01
1.089623711073e+02
1.264506502687e+02
7.799964573977e+01
3.165530078166e+01
7.600134486539e+01
1.611319515374e+02
1.063401955037e+02
5.979675163066e+01
1.062341586150e+02
7.238398235663e+01
5.008761913229e+01
1.250231482764e+02
9.759895343319e+01
1.471182616512e+02
1.226663410757e+02
6.408332271271e+01
1.527715842313e+02
9.898437818824e+01
1.187665188088e+02
1.123294760440e+02
8.487789672219e+01
1.123188962498e+02
1.074344101053e+02
1.403539241746e+02
6.150339467945e+01
9.344169757030e+01
9.763500737150e+01
9.519039756736e+01
1.324509174843e+02
1.489817374830e+02
4.055011740701e+01
5.949808534287e+01
8.759248952712e+01
1.340105106706e+02
1.285521628264e+02
6.322695683747e+01
1.483609612471e+02
1.220637074604e+02
1.054886421946e+02
4.495349669452e+01
3.131693774599e+01
6.809415928409e+01
9.552616021054e+01
1.143772277685e+02
1.323996113416e+02
1.520387689245e+02
1.410100924000e+02
1.562586707929e+01
5.408399088069e+01
1.557111957766e+02
1.109461173856e+02
1.453389627592e+02
1.093877088390e+02
1.475755765427e+02
3.712280489569e+01
1.595229780324e+02
1.402954833788e+02
6.313718025593e+01
5.988212819348e+01
1.685788275176e+02
1.484727794855e+02
1.040392953385e+02
1.071830095811e+02
4.111547414489e+01
1.182650226442e+02
9.646784935919e+01
1.414066771489e+02
1.516058752667e+02
9.097899740829e+01
1.133183495379e+02
1.205061274598e+02
2.464309503095e+01
4.535586662417e+01
1.171720173110e+02
7.284649457792e+01
1.115653888145e+02
1.545524517607e+02
1.210173319398e+02
8.134867958695e+01
1.248247244416e+02
3.246489340574e+01
9.591881643090e+01
1.285715342381e+02
1.060268964125e+02
2.570215171999e+01
1.104779110943e+02
1.580181372095e+02
7.934773868094e+01
1.158696546348e+02
1.059476079093e+02
2.437503958326e+01
1.242692947206e+02
1.156526282731e+02
1.167579894304e+02
1.037303923061e+02
1.326687535079e+02
3.021239603348e+01
5.859619583019e+01
4.883362106708e+01
8.595311354777e+01
1.192683180504e+02
3.300068970766e+01
1.063597044564e+02
3.469376365682e+01
8.186900088366e+01
1.318376936186e+02
8.543204898859e+01
8.613836173355e+01
5.460638326904e+01
8.158778671628e+01
1.120380467659e+02
8.565618062009e+01
8.074141755109e+01
1.305734034019e+02
8.463231582123e+01
1.397397138044e+02
1.753809289609e+02
6.697401592053e+01
1.709713764991e+01
5.580306462347e+00
2.829003046374e+01
7.011209197624e+01
1.074213450650e+02
6.727792733875e+01
6.446464703451e+01
1.374953611432e+02
1.585550187270e+02
9.912846729020e+01
1.498382031773e+02
1.230642066907e+02
1.219626896751e+02
5.895455862774e+01
1.471081391476e+01
1.368770881227e+02
1.592594777674e+01
2.766005561618e+01
2.600898757952e+01
6.752911786496e+01
2.299540484443e+01
2.023662322195e+01
1.602169276051e+02
6.669308536883e+01
1.343436961560e+02
1.920193476967e+01
1.317856154321e+02
1.531259156606e+02
1.750513493136e+02
1.433347091063e+02
2.124055969717e+01
7.408509792345e+01
1.439338116573e+02
1.065795652394e+02
1.759217978816e+02
6.529270158618e+01
1.318532609357e+02
3.550127856551e+01
1.319585940685e+02
1.174269472309e+02
7.844753501788e+01
7.367779999806e+01
1.701074198843e+02
1.352721905515e+02
1.759448326792e+01
9.848237917231e+01
8.386080187332e+01
1.223791154342e+01
1.677685625756e+02
1.270396649104e+02
1.695733595540e+02
2.463863162655e+01
1.426124203327e+01
1.679136736304e+02
1.412216256258e+02
4.028205133648e+01
1.418848649225e+02
1.155023050696e+01
5.772861359368e+01
1.524617469454e+01
1.760516225905e+02
1.324295213796e+02
9.198427860303e+01
5.928009313993e+01
6.119783431185e+01
1.419740335040e+02
2.166534156719e+01
1.333189641624e+02
1.668069924428e+02
1.348833792412e+02
1.668143879688e+02
1.103731234634e+01
1.537111440694e+02
1.582536213739e+02
5.902317302063e+01
1.344549550975e+02
7.514748731866e+01
3.230780708280e+01
1.407541121501e+02
6.628924377065e+00
5.871589585249e+01
1.771131418022e+02
3.090852495376e+01
7.370499214969e+01
1.403057997475e+02
1.117694711239e+02
1.163978011061e+02
2.977356164776e+01
5.206370869758e+00
9.034385513689e+01
1.564752960744e+02
1.347375893835e+02
8.365186203369e+01
2.370832406029e+01
1.348995535800e+02
9.893808038762e+01
1.388523066542e+02
1.561313392474e+02
9.247477180656e+00
1.196066045287e+02
1.404094849533e+01
1.703139036423e+02
1.029883890873e+02
4.175199647873e+00
3.711210295541e+00
1.134966795861e+01
1.122183541278e+01
1.932281846819e+01
2.067669514429e+01
2.779330080082e+01
2.920073230541e+01
3.649143517776e+01
3.876006277535e+01
4.548988764321e+01
4.738336205660e+01

SCALARS node_materi_strain_total_average_a_ept float
LOOKUP_TABLE default
3.228051770704e-05
2.603853097632e-03
2.764842240311e-03
3.994223233545e-03
1.050474033158e-04
2.499972105105e-04
3.908585900895e-04
5.460552859669e-04
6.972052843653e-04
8.471243462860e-04
9.958276893403e-04
1.143664380811e-03
1.290884823650e-03
1.438025324466e-03
1.587133008602e-03
1.732841738048e-03
1.864065462144e-03
2.005724776170e-03
2.150012338770e-03
2.288277111075e-03
2.426039179524e-03
2.563124209103e-03
2.695744723831e-03
4.002636805425e-03
3.994048382896e-03
3.995181636593e-03
3.993238755407e-03
3.985667109979e-03
3.988079565834e-03
3.984642074894e-03
3.976491010637e-03
3.974856278936e-03
3.967174759032e-03
3.951867055595e-03
3.945080752489e-03
3.931955102373e-03
3.913575997779e-03
3.891530316885e-03
3.864653929223e-03
3.836441836323e-03
3.808486836675e-03
3.776966254950e-03
3.742262932292e-03
3.699732044217e-03
3.651004439800e-03
3.602164103707e-03
3.549204907675e-03
3.495297441257e-03
3.441682439379e-03
3.386451354096e-03
3.332056078862e-03
3.275255396628e-03
3.227197003382e-03
3.175167744251e-03
3.119798513131e-03
3.071852890525e-03
3.032984617011e-03
2.995835628092e-03
2.958855138923e-03
2.931779474078e-03
2.899057094999e-03
2.874917024265e-03
2.848163043070e-03
2.831060522641e-03
2.824146640876e-03
2.815992951946e-03
2.782987107347e-03
2.790734517715e-03
2.774566708656e-03
2.771626444745e-03
2.774653021063e-03
2.771604363565e-03
2.750108470164e-03
2.893325875689e-03
3.036664884792e-03
3.177675256888e-03
3.321911979800e-03
3.467797134447e-03
3.611741598582e-03
3.756390955641e-03
3.902580152391e-03
-6.788991507048e-05
2.533775105930e-03
1.856525620331e-04
6.104844577476e-04
1.086986927012e-03
1.603836202086e-03
1.835382494335e-03
1.964018681749e-03
2.097247483629e-03
2.236154163353e-03
2.380182771365e-03
1.792896662573e-03
1.885351613095e-03
2.029998639630e-03
2.173056062362e-03
2.315625528056e-03
2.457479561603e-03
2.585945314894e-03
2.594731836600e-03
2.593880460858e-03
2.590801441332e-03
2.608722703569e-03
2.589559927687e-03
2.585480983173e-03
2.583618689318e-03
2.581452122635e-03
2.575126593951e-03
2.568659144298e-03
2.560300638250e-03
2.551659213252e-03
2.543047053210e-03
-9.228763183014e-05
-1.174055531197e-04
-1.228319624667e-04
-1.119434654644e-04
-9.220881148421e-05
-7.683759113301e-05
-6.230089824428e-05
-4.840444170479e-05
-3.517163697687e-05
-2.292268321017e-05
-9.540234588977e-06
-1.765374748090e-06
7.762201237092e-06
1.595276849627e-05
2.294316231920e-05
2.753699773878e-05
3.122795997802e-05
3.335964166883e-05
3.177975360855e-05
1.812052692303e-03
1.820987489910e-03
1.820298569558e-03
1.820892962942e-03
1.822378477305e-03
1.824536041764e-03
1.827261820012e-03
1.830526992328e-03
1.834336672029e-03
1.838708482545e-03
1.843661528251e-03
1.849211001952e-03
1.855407867461e-03
1.862177426092e-03
1.869451082029e-03
1.876768110841e-03
1.884141317270e-03
1.890043981887e-03
1.895084323765e-03
1.893279501652e-03
1.890114159492e-03
1.862827948869e-03
1.797109336813e-03
1.878832089566e-03
1.910221611675e-03
1.921275802337e-03
1.925958265703e-03
1.928346477902e-03
1.927032215957e-03
1.924706939976e-03
1.921290772501e-03
1.917615758483e-03
1.913830040646e-03
1.910203174206e-03
1.906786679742e-03
1.903638241015e-03
1.900786827864e-03
1.898250169392e-03
1.896045081380e-03
1.894185383729e-03
1.892700431900e-03
1.891625172956e-03
1.890958101523e-03
1.890259977453e-03
1.886566492991e-03
2.030534742879e-03
2.031844375738e-03
2.032435846917e-03
2.032960556179e-03
2.033618600097e-03
2.034418444462e-03
2.035333616376e-03
2.036326040804e-03
2.037390856138e-03
2.038449657666e-03
2.039442729296e-03
2.040264591488e-03
2.040730159290e-03
2.040782565771e-03
2.039817173780e-03
2.037804337260e-03
2.032984508822e-03
2.026834266605e-03
2.018384832839e-03
1.986368051716e-03
2.109455372319e-03
2.141283808169e-03
2.148364202808e-03
2.155201686686e-03
2.161524440754e-03
2.165363950556e-03
2.168540922277e-03
2.170659685862e-03
2.172069691433e-03
2.173030269665e-03
2.173670736334e-03
2.174026032362e-03
2.174228839125e-03
2.174250058408e-03
2.174237106810e-03
2.174139437965e-03
2.173980301190e-03
2.173553648034e-03
2.173212143223e-03
2.315797749300e-03
2.315826294144e-03
2.315648799994e-03
2.315335304857e-03
2.314878229453e-03
2.314112299274e-03
2.313160782163e-03
2.311637476719e-03
2.309626368616e-03
2.307212708059e-03
2.304142671168e-03
2.300122859024e-03
2.294914286893e-03
2.287673240248e-03
2.280645856616e-03
2.275245547375e-03
2.243434379660e-03
2.383372078307e-03
2.414222668308e-03
2.419483488158e-03
2.427794403372e-03
2.434563927069e-03
2.440060309234e-03
2.444003986116e-03
2.447622190994e-03
2.451304162979e-03
2.452976276802e-03
2.454796861863e-03
2.455969028196e-03
2.457003224108e-03
2.457404471619e-03
2.458574065993e-03
2.458673072414e-03
2.309213055894e-05
3.889083637439e-04
8.478800316718e-04
1.325536985003e-03
1.753863830752e-03
1.911220492102e-03
2.040816500239e-03
2.178445878013e-03
2.320214638310e-03
2.468023955990e-03
5.845895670999e-04
3.004217319333e-03
3.228809465137e-05
-2.078849070908e-05
2.841505478878e-03
1.468275467888e-03
1.518719290283e-03
3.185883366381e-03
1.948598775325e-03
3.404802632837e-03
2.259552851875e-03
2.775020371168e-03
6.163412267086e-05
3.606630309237e-03
2.569855174328e-03
9.288521115864e-04
1.912940899343e-03
3.716694567122e-03
3.833411309142e-03
3.922561925130e-03
3.894246885816e-03
3.882367587506e-03
2.667698085976e-03
2.705001674766e-03
2.728574283194e-03
3.251075042120e-03
2.734233690023e-03
-9.764891006496e-06
8.361668910961e-05
2.352602879404e-03
2.719000352662e-03
4.673549793190e-04
3.760689690897e-03
3.305773022243e-03
3.511100685302e-03
3.089507213873e-03
2.931305495906e-03
6.213014793409e-06
2.685311098542e-03
2.775642276635e-03
3.535366944936e-03
5.355800932194e-05
1.218448592684e-03
3.948464984333e-03
1.772512284337e-03
1.027639025723e-03
2.106487900446e-03
2.412147135399e-03
1.787708630990e-04
2.976905201948e-03
2.744188390927e-03
8.327889120322e-05
3.822044737430e-03
2.642095080491e-03
2.682535342659e-03
2.762329101594e-03
2.804919372019e-03
2.891727603127e-03
2.930295535781e-03
2.841135843596e-03
2.967050702096e-03
2.874140775775e-03
3.020823074370e-03
3.001074619231e-03
2.904643506823e-03
3.032534497146e-03
2.932830619657e-03
2.807727031808e-03
2.832530773492e-03
2.709779140848e-03
2.731012560014e-03
2.855479520699e-03
2.750471451517e-03
2.627720641927e-03
2.643727387431e-03
2.522349168161e-03
2.534829822346e-03
2.413616875350e-03
2.422983762728e-03
2.547283643051e-03
2.432909006657e-03
2.307948120475e-03
2.315760273199e-03
2.189022487491e-03
2.195068675480e-03
2.325500246545e-03
2.204436816958e-03
2.070077895944e-03
2.080859865074e-03
1.941811004076e-03
1.955389078862e-03
1.811097941743e-03
1.827381876307e-03
1.972397836311e-03
1.847315380337e-03
1.697703640736e-03
1.721398585323e-03
1.871101055713e-03
1.748762555222e-03
1.897945415599e-03
1.779156440356e-03
1.628110052908e-03
1.662098652573e-03
1.811822010439e-03
1.697778964576e-03
1.546823979553e-03
1.586294977019e-03
1.735755163326e-03
1.627481054070e-03
1.477209792076e-03
1.521631757475e-03
1.670986774592e-03
1.567252835370e-03
1.417658368525e-03
1.465733851985e-03
1.614679281876e-03
1.514922949152e-03
1.663065222269e-03
1.364919598388e-03
1.416666207742e-03
1.265459442919e-03
1.320246004814e-03
2.337712677890e-03
1.168586347726e-03
1.113436788733e-03
1.225863884382e-03
1.376377462118e-03
1.073687078376e-03
1.133251115046e-03
9.808977854682e-04
1.797312121388e-03
2.876941485206e-03
1.042386684647e-03
8.901447224728e-04
8.269824261234e-04
7.369396609139e-04
2.978907937027e-03
3.112425632679e-03
3.064251778619e-03
3.203183720811e-03
3.154819680396e-03
8.011010200326e-04
3.132841997616e-03
3.249040134617e-03
2.509390029107e-03
2.185404482472e-03
2.017772674768e-03
1.193010066490e-03
1.103928718928e-03
1.252942967604e-03
1.762178514779e-03
1.809194343188e-03
1.907528008723e-03
1.953002140389e-03
2.050400493949e-03
2.094518119516e-03
1.999519850218e-03
2.139732727083e-03
2.047044455036e-03
2.190820243851e-03
2.149024152462e-03
2.186012231262e-03
2.095649266669e-03
2.233662239638e-03
2.145366245639e-03
2.006046448585e-03
2.057682775440e-03
1.917883533268e-03
2.044108051516e-03
2.161943942005e-03
2.187487544702e-03
2.303505489892e-03
2.328357839670e-03
2.442711395914e-03
2.466449880621e-03
2.354919843663e-03
3.060849244098e-03
1.567921616720e-03
1.543704473908e-03
1.409513734612e-03
1.384338273891e-03
1.245032054682e-03
1.218416428250e-03
1.072735929504e-03
1.107585965051e-03
9.297653051692e-04
9.735933451619e-04
7.916816780626e-04
8.436703660493e-04
2.559931421519e-03
2.420108792764e-03
2.558098487864e-03
2.536249133280e-03
6.717398624643e-04
2.196331106754e-03
2.288450610942e-03
2.248358013466e-03
2.492590826802e-03
6.500551706192e-04
1.044353936161e-03
1.198125533441e-03
3.293796308782e-03
3.243393352624e-03
2.387283463178e-03
7.144535902295e-04
2.277587296571e-03
7.435349781707e-04
2.110500855417e-03
2.248159624685e-03
1.906093407655e-03
2.674021702862e-03
2.651922570590e-03
1.020263310390e-03
8.965097819425e-04
7.229190148968e-04
7.811137945154e-04
9.506175011119e-04
8.361780641278e-04
6.662813121686e-04
7.257443600718e-04
8.936610444464e-04
7.867172467981e-04
6.186664910005e-04
6.829458039097e-04
2.332628325401e-03
6.029694055665e-04
2.686489640792e-03
2.425008951526e-03
2.600905204495e-03
3.384520476066e-03
3.331980878409e-03
3.190610721684e-03
3.277769283924e-03
3.420625702273e-03
3.364682806577e-03
3.221954406283e-03
3.307395616430e-03
3.164820077140e-03
3.248962378098e-03
3.392752507270e-03
3.333132620915e-03
3.189444673853e-03
3.272529574010e-03
3.128725575443e-03
3.210584751565e-03
3.355646883609e-03
5.682708073707e-04
2.383069176384e-03
2.521081365506e-03
1.168960342229e-03
1.312205481199e-03
1.400464042298e-03
1.460781488556e-03
3.291870115454e-03
3.438234011999e-03
1.023515933067e-03
1.186191762761e-03
3.435222038644e-03
2.164927694476e-03
2.026082341910e-03
2.063793606774e-03
2.065293149987e-03
1.939084174437e-03
1.946023245821e-03
2.070422430171e-03
1.811462437679e-03
2.106993127043e-03
3.477897237202e-03
7.636280997974e-04
6.066021442595e-04
2.301784305587e-03
2.243789456094e-03
2.674344044640e-03
2.689063305972e-03
2.804022506664e-03
2.820069909985e-03
2.936146516746e-03
2.952466404812e-03
2.836297503778e-03
2.790394264873e-03
2.969429725879e-03
3.145858320566e-03
2.397180397432e-03
9.517521748503e-04
5.010082699781e-04
5.116644596594e-04
6.278785857968e-04
7.785693608705e-04
2.522710405574e-03
3.070211908971e-03
3.050944863859e-03
1.961579071544e-03
2.078946971275e-03
2.809630388885e-03
3.018379756027e-03
3.080985389357e-03
3.023395412468e-03
4.666040517392e-04
4.512928953281e-04
3.508893185299e-03
1.351080788471e-03
1.348302689455e-03
5.460619886814e-04
4.045118345046e-04
3.372311114925e-03
3.517992957528e-03
1.547192201215e-03
1.605390539391e-03
2.488156245183e-03
5.819380407997e-04
3.584611811440e-03
2.275400462620e-03
2.134046203384e-03
1.372911746643e-03
1.011592841841e-03
8.392461350135e-04
1.058343656442e-03
7.466323159171e-04
6.921193980610e-04
2.622710362577e-03
3.564578479252e-03
2.853249133797e-03
2.719454661829e-03
2.987420520947e-03
4.162140396328e-04
2.560461587070e-03
2.220545097401e-03
3.181797392707e-03
3.164623324381e-03
1.502030013386e-03
1.509095796411e-03
1.360839773758e-03
1.530903374149e-03
2.751163862250e-03
1.651956019495e-03
2.591644285946e-03
2.569912078505e-03
2.478475721335e-03
2.184314042264e-03
2.185693712045e-03
1.523459821695e-03
2.137919148838e-03
1.489746020972e-03
1.865534660287e-03
1.862755209444e-03
3.537097368440e-03
3.623640229054e-03
3.046555398500e-03
2.985676012836e-03
5.154700588534e-04
4.478103690795e-04
1.712590172834e-03
2.462843347956e-03
3.526596091605e-03
3.577832285345e-03
3.483640016043e-03
2.589378338544e-03
1.439422100634e-03
2.072380909265e-03
4.703859683655e-04
2.456087938922e-03
3.603915265843e-04
2.983021333013e-03
2.357218176705e-03
2.436467163351e-03
2.922884505125e-03
2.602273676071e-03
2.470827286358e-03
2.353109612054e-03
2.458397702459e-03
2.371672462490e-03
2.385511597870e-03
2.280769070971e-03
1.111665184088e-03
1.007870357893e-03
3.215596691979e-03
3.101143821693e-03
3.297945060991e-03
3.282291586707e-03
2.941892693316e-03
2.828296753819e-03
8.376239453501e-04
2.086754447369e-03
3.654428237561e-03
2.544843493736e-03
2.592586046313e-03
2.504264185009e-03
2.709150299174e-04
3.395741184613e-04
3.666006130191e-03
1.385034098495e-03
1.559270728497e-03
1.198621919243e-03
2.624666969497e-03
2.717428409886e-03
2.492500155650e-03
2.292531183192e-03
3.733972307577e-03
2.489305789085e-03
1.933749176534e-03
2.452822808576e-03
3.589736468419e-03
3.749675231402e-03
2.941413661169e-03
2.878345033868e-03
2.993479789847e-03
7.006816329230e-04
4.811280907209e-04
3.562206393666e-03
1.016755890018e-03
1.093812947397e-03
6.447479729133e-04
8.046125101798e-04
1.635077379728e-03
1.579837848429e-03
3.006978388698e-03
3.115143339479e-03
2.786932382006e-03
2.168936346280e-03
2.026166719026e-03
1.991178441456e-03
3.679634110636e-03
3.781730552873e-03
1.217272890063e-03
1.167564819669e-03
1.162877704016e-03
3.710234145145e-03
2.569671514927e-03
2.513544461334e-03
2.914017669694e-04
3.780344794110e-04
8.207648618767e-04
6.413790851075e-04
3.624148195301e-03
3.530683388630e-03
3.730653122246e-03
7.417267582562e-04
2.740819976124e-03
2.718574444837e-03
2.690505771181e-03
2.769083939496e-03
2.901891980397e-03
3.028776306940e-03
3.119664449416e-03
1.971584964193e-04
3.701407840906e-03
2.897815111482e-03
9.614119681466e-05
2.838085249566e-03
2.922133492468e-03
2.767321600907e-03
5.957488955659e-04
2.834211389899e-03
2.908325575945e-03
1.935883550710e-04
3.799652376182e-03
2.137404574272e-04
2.784862660905e-04
2.638001976619e-03
2.545916708654e-03
2.673173341989e-03
2.582253586899e-03
2.455465247363e-03
2.504157892618e-03
2.813093544080e-03
2.651102103706e-03
2.554693462298e-03
2.703343092599e-03
2.271875106902e-03
1.683682045244e-03
1.719683634840e-03
1.620507480153e-03
3.440383401473e-03
3.388118337742e-03
2.281948385422e-03
2.142756260003e-03
2.849461645362e-03
2.844302948923e-03
2.973510218263e-03
2.958008418580e-03
3.088186260774e-03
3.070008998062e-03
3.203366273142e-03
3.245835357189e-03
1.220991336101e-03
2.435830750017e-03
2.956181918224e-03
2.837380821692e-03
2.185336770027e-03
2.094849443517e-03
2.707503049414e-03
1.649939702342e-03
3.873335128512e-03
1.689119620355e-05
2.161773904105e-04
1.791935793252e-03
2.287735368544e-03
1.828616073441e-03
1.860570209764e-03
2.311640986093e-03
3.147076437692e-04
1.008517851349e-03
3.217677896594e-03
8.115666759470e-04
2.213761179085e-03
1.661256167074e-03
2.296379951373e-03
1.186942012121e-03
1.666986948582e-03
2.780567391479e-03
2.718962596021e-03
2.632363973178e-03
1.677755264683e-03
1.983600181002e-03
1.891092481819e-03
2.610537213617e-03
3.388664789706e-03
3.432704076678e-03
3.570237439466e-03
3.473221142333e-03
3.334249717934e-03
3.373091878696e-03
3.514755821414e-03
3.413402637552e-03
3.579441946316e-03
3.445481429752e-03
3.303639197593e-03
3.331547833360e-03
3.460107713954e-03
3.194108346018e-03
3.065192287191e-03
1.932638356801e-03
3.323185654104e-04
3.661187855609e-04
2.405161736885e-03
3.745637321156e-03
3.806741769120e-03
1.364157858849e-03
3.557868013374e-03
2.660554287246e-03
8.921755620203e-04
3.458781268897e-03
3.292821680055e-03
3.195363370312e-03
3.154910153460e-03
3.854696318579e-03
3.049156888144e-03
3.252786491983e-03
2.280050350191e-03
2.256663500519e-03
2.115234293430e-03
3.269632384702e-03
3.045345673848e-03
2.915402924751e-03
2.876632366113e-03
2.774972792775e-03
2.965288817969e-03
3.692724056029e-03
3.658018253924e-03
1.004292310931e-03
1.118317418467e-03
1.279578875133e-03
1.234799796017e-03
1.069024727168e-03
1.190277511955e-03
1.352904968960e-03
1.147126696942e-03
3.252014338900e-03
2.901244217234e-03
2.007112694540e-03
1.963566822604e-03
1.818461556874e-03
1.433062735861e-03
1.524953153507e-03
1.671014336518e-03
1.342341407416e-03
2.703810042684e-03
2.870796239002e-03
2.102307293187e-03
1.470283805282e-03
2.677346658225e-03
2.789242722136e-03
2.775942971611e-03
2.911476075328e-03
2.813633585622e-03
1.690931578308e-03
1.747530242047e-03
1.664493470411e-03
1.804800568450e-03
1.720470262535e-03
1.589720309412e-03
1.860260472321e-03
1.767866014973e-03
2.693755336501e-03
-2.604773133377e-06
1.530150482862e-04
1.508847990363e-04
3.014697214092e-04
3.170626072794e-04
4.784467407541e-04
4.631525031689e-04
1.530218248732e-04
1.452390760450e-05
1.565821747969e-04
2.403884045893e-05
1.577519109818e-04
3.227213496611e-04
5.436482959159e-04
2.708552672303e-03
1.363713201251e-03
1.293588084697e-03
1.152999133987e-03
1.230305541111e-03
1.422767537101e-03
1.073415308592e-03
1.020322286947e-03
8.657026296900e-05
2.015073028760e-04
1.879852206707e-04
3.281024582117e-04
3.251169417188e-04
2.011640867734e-04
1.989039843306e-04
7.930143493883e-05
1.963016225285e-04
3.288216078165e-04
7.155333853983e-05
3.396014677380e-03
3.474913037776e-03
2.815591879530e-03
2.722367337877e-03
4.513974797015e-05
3.902249904454e-03
3.913634200800e-03
3.922521023443e-03
2.490994016985e-03
2.560372465301e-03
3.910839925465e-03
9.191888685193e-04
3.609360500701e-03
3.646308759937e-03
8.621758819790e-04
9.060929534167e-04
2.082758293921e-03
1.955738002966e-03
2.382594425826e-03
1.971447237103e-03
2.282606355957e-03
2.827289139261e-03
5.466167054823e-04
3.105915872691e-03
3.066801863616e-03
3.417229136862e-03
9.527199278067e-04
1.526350901436e-03
5.834006390346e-04
3.368269618684e-03
2.495396431520e-03
1.716017675476e-03
1.284001869345e-03
1.014988497130e-03
8.479775303568e-04
2.064751338686e-03
1.565779754107e-03
2.233595746457e-03
3.500945250078e-03
7.143756497941e-05
2.328538410372e-03
1.857145178379e-03
3.136225373581e-03
2.579255960146e-03
5.591561225023e-04
3.451185453220e-03
3.664896219662e-03
2.963616665541e-03
4.291047120172e-04
2.961356262853e-03
2.653753424258e-03
3.342351131824e-03
8.650698289669e-04
1.927296317840e-03
2.301617913416e-03
2.491315275147e-03
3.704360316908e-03
2.217318069422e-03
2.629289703396e-03
2.214831474771e-03
9.298542515928e-04
2.413107709826e-03
1.993773056644e-03
3.595942694345e-03
2.917740864734e-03
1.596316117150e-03
3.474520691737e-03
1.775691144061e-03
2.694054464225e-03
2.396418941818e-03
2.659240611593e-03
2.958308274980e-03
2.443858093412e-03
2.002242151566e-03
2.370185815220e-03
6.597059360550e-04
1.801822586216e-03
3.104009804346e-03
3.082455840940e-03
3.740515497083e-03
2.184008785057e-03
2.322491031470e-03
3.615955791152e-03
1.617982886850e-03
6.342694198570e-04
6.745759985449e-04
1.276916628642e-03
2.095747459215e-03
1.763182458682e-03
3.684865825213e-03
2.369173389825e-03
2.349590823435e-03
3.772027932877e-04
2.519113003576e-03
2.417694994477e-03
1.958547955296e-03
2.711792509070e-03
1.633418448861e-03
3.313986483098e-03
2.185685947999e-03
2.469391406437e-03
2.417118509396e-03
1.508387277313e-03
2.721286704817e-03
2.620189598737e-03
2.555620001998e-03
2.573146619344e-03
1.846076161049e-03
2.336110233602e-03
1.814350829007e-03
2.768770202036e-03
3.873242112767e-03
2.653102022167e-03
3.060099590725e-03
1.723915231085e-03
2.512054339810e-03
3.254918228094e-04
2.355353574796e-03
1.777467190523e-03
1.313440294434e-03
1.882229117596e-03
3.050586496347e-03
1.832085735529e-03
1.473330704758e-03
1.887415165449e-03
2.184919536124e-03
3.098008645165e-03
1.943369099971e-03
2.897523955979e-03
3.387377183187e-04
2.587082502616e-03
2.420716155075e-03
1.213265507522e-03
1.921278070307e-03
3.234024786377e-03
2.030726375974e-03
2.065177200036e-03
3.029999927692e-03
2.604821131640e-03
2.234963386105e-03
2.208313166932e-03
2.004267784876e-03
8.596060955846e-04
7.033931787764e-04
1.509421594493e-03
3.142111628508e-03
4.517195555947e-04
3.164972090313e-03
4.803433365143e-04
1.393325183755e-03
2.767542561093e-03
3.115603164976e-03
1.434731221330e-03
7.823814053440e-04
1.324722182696e-03
2.373296043479e-03
1.371001052516e-03
1.266362283584e-03
3.789670448533e-03
1.315324767299e-03
3.937093904731e-03
2.710535035245e-03
2.830892071385e-03
1.879225544378e-03
-1.272742395214e-05
1.768209381282e-03
1.060888436549e-03
3.087688908290e-03
2.836323705297e-03
9.601575961606e-04
3.579162531069e-03
3.356312505436e-03
3.325366372486e-03
2.728233995973e-03
2.628212978378e-03
3.670153199033e-03
2.705425454295e-03
1.617888005798e-04
2.071451483204e-03
1.655483820655e-03
1.416801863187e-03
1.013256413719e-03
9.794693863121e-04
2.978171414398e-04
1.255903069844e-03
2.946289366927e-03
2.816078157981e-03
2.876332374444e-03
8.053437352510e-04
3.754681942335e-03
3.157205353645e-03
2.784647445093e-03
3.011411735704e-03
6.095483659439e-04
2.898304234330e-03
3.414083312911e-03
3.438041615529e-03
2.768692026563e-03
2.785443306334e-03
3.815639778353e-03
5.437292397563e-04
3.820513910520e-03
3.222511140258e-03
3.007498244181e-03
2.864040858970e-03
2.624831447019e-03
3.642008565238e-03
4.144858183151e-04
3.315876492882e-03
1.235449900205e-03
1.283816667900e-04
2.704264280438e-03
3.355018794918e-03
2.625545828624e-03
3.223901921979e-04
1.568548505065e-04
2.769941840070e-03
3.522607930737e-03
6.158004988611e-04
3.925459776622e-03
2.001962884271e-04
2.684835170783e-03
1.800019049682e-04
2.750215100741e-03
3.802409454660e-03
1.360087516680e-03
2.659408234065e-03
8.824162241225e-04
3.190445382896e-03
2.740430032756e-04
3.825555657815e-03
2.832544825584e-03
3.743551196803e-03
3.174473232411e-03
1.378995299219e-04
3.237919383988e-03
2.764928945001e-03
2.707003706405e-03
3.687230748750e-03
1.098196179369e-03
4.433558543167e-04
3.954652589818e-03
6.411464617939e-05
2.702137727609e-03
2.736434220210e-03
4.236028298365e-04
2.936006722011e-03
3.567250215271e-03
1.668326154437e-03
3.586842169731e-03
4.156593255859e-04
-4.143478539609e-05
3.191539555645e-03
3.134441512945e-03
3.782207878830e-03
3.087541704929e-03
5.188530262235e-04
3.461795123859e-03
1.471289032904e-03
3.297491688359e-03
2.839048370097e-03
3.517578052972e-05
1.792849426077e-03
1.568119478422e-04
2.691840434519e-03
1.531683768402e-03
1.836864226719e-03
1.814886415008e-03
1.927255463546e-03
1.954152498367e-03
2.045277200471e-03
2.105832622898e-03
2.175007976264e-03
2.240374886409e-03
2.312625488624e-03
2.391199432748e-03
2.455789663593e-03
2.524646130500e-03

SCALARS node_materi_strain_total_size_dev_sd_ept float
LOOKUP_TABLE default
9.102897357826e-05
6.837236656554e-03
6.717129844530e-03
9.813244003236e-03
2.413580359529e-04
5.396053935791e-04
8.063271084365e-04
1.113433789666e-03
1.409926277503e-03
1.702135284179e-03
1.999524712570e-03
2.304116779441e-03
2.616520740194e-03
2.944544196413e-03
3.296107723180e-03
3.641498653084e-03
3.966023513298e-03
4.343230112186e-03
4.744600336157e-03
5.148940557969e-03
5.573428412065e-03
6.018134622624e-03
6.450702570013e-03
9.824360653568e-03
9.808924492950e-03
9.811803522723e-03
9.808889494584e-03
9.797345972422e-03
9.801524433202e-03
9.796808492361e-03
9.784499913212e-03
9.783745027815e-03
9.769293741561e-03
9.747126530634e-03
9.734440507662e-03
9.712876207178e-03
9.678957918186e-03
9.640862509488e-03
9.589430480810e-03
9.539559895597e-03
9.486422201317e-03
9.422564091473e-03
9.348740434315e-03
9.257282891921e-03
9.157468843446e-03
9.045667537029e-03
8.924270953179e-03
8.798222487529e-03
8.666672639152e-03
8.527722081931e-03
8.383308913646e-03
8.235353362393e-03
8.108209793427e-03
7.955548581980e-03
7.798782172982e-03
7.658941009566e-03
7.543905824046e-03
7.429084686995e-03
7.326978574240e-03
7.231254334622e-03
7.141460141702e-03
7.056822832654e-03
6.984746085791e-03
6.938322123894e-03
6.907979101033e-03
6.873737043697e-03
6.779172893943e-03
6.799886544788e-03
6.764043272992e-03
6.758014479875e-03
6.760214369645e-03
6.752390663943e-03
7.177653412351e-03
7.518463501310e-03
7.844853251938e-03
8.158118253293e-03
8.470934362538e-03
8.774697436809e-03
9.071171238876e-03
9.357636999005e-03
9.647058810426e-03
9.311388396244e-04
6.972763904903e-03
1.889719152009e-03
2.823916490687e-03
3.758330274995e-03
4.677823772725e-03
5.046276488794e-03
5.440395028526e-03
5.840050892948e-03
6.225355479582e-03
6.594705666614e-03
4.881912307307e-03
5.078109508354e-03
5.419045812152e-03
5.771521358415e-03
6.123846795529e-03
6.471955706470e-03
6.787700564154e-03
6.810287392043e-03
6.817030879909e-03
6.817864032161e-03
6.869687701729e-03
6.837876754574e-03
6.842090891603e-03
6.855465355934e-03
6.877787727797e-03
6.889040158149e-03
6.898637625549e-03
6.911052362345e-03
6.923147505751e-03
6.940750627981e-03
8.769699157798e-04
9.377634917374e-04
9.223402482499e-04
8.537089476301e-04
7.690307563824e-04
6.993577320341e-04
6.239748514200e-04
5.471123248364e-04
4.765461472645e-04
4.095044353733e-04
3.486563380759e-04
3.139418102288e-04
2.537084887338e-04
1.968084657592e-04
1.631672899095e-04
1.440390854131e-04
1.241314779117e-04
9.622893148248e-05
8.226284287825e-05
4.910257375966e-03
4.885921697802e-03
4.880742673655e-03
4.877147095189e-03
4.871591794972e-03
4.863738410619e-03
4.853494934801e-03
4.840826454556e-03
4.825735489955e-03
4.808207107782e-03
4.788246723359e-03
4.765905894926e-03
4.741432931727e-03
4.715227720784e-03
4.687886956695e-03
4.660090576053e-03
4.633470058038e-03
4.609307097681e-03
4.591629377399e-03
4.581521729920e-03
4.587109531771e-03
4.618062209747e-03
4.658191932770e-03
4.893594941828e-03
4.936637485272e-03
4.896478169845e-03
4.892537874961e-03
4.896682717084e-03
4.905791875366e-03
4.919220500718e-03
4.934592863437e-03
4.951040929646e-03
4.967682837396e-03
4.983713317445e-03
4.998517047394e-03
5.011896248036e-03
5.023740432024e-03
5.033949487605e-03
5.042460985452e-03
5.049335092421e-03
5.054840586883e-03
5.059407054687e-03
5.063890642878e-03
5.070189095684e-03
5.077386415774e-03
5.422059187370e-03
5.421993839689e-03
5.418546062887e-03
5.415279323481e-03
5.412361782069e-03
5.409433448466e-03
5.406075181886e-03
5.401966701580e-03
5.397206123141e-03
5.392108932578e-03
5.386785157819e-03
5.381312327942e-03
5.375911297527e-03
5.371965352843e-03
5.370161386065e-03
5.371764047125e-03
5.375466159864e-03
5.383229580529e-03
5.416765528283e-03
5.361468907271e-03
5.778020010449e-03
5.840925509579e-03
5.813619426291e-03
5.803253882518e-03
5.795045612941e-03
5.788660597955e-03
5.785285200796e-03
5.782200481410e-03
5.779687396762e-03
5.777601519588e-03
5.776451086946e-03
5.775796895820e-03
5.774745689983e-03
5.773960291998e-03
5.773683569453e-03
5.774064324515e-03
5.774700783328e-03
5.774486248182e-03
5.772482390325e-03
6.126337436787e-03
6.127199169287e-03
6.128703072402e-03
6.131040266404e-03
6.133470127040e-03
6.137463662992e-03
6.142174365964e-03
6.147469930681e-03
6.152177886360e-03
6.159542952617e-03
6.167707392759e-03
6.175989673818e-03
6.185652265224e-03
6.193529066369e-03
6.204550568617e-03
6.234503840028e-03
6.172496279142e-03
6.541232054109e-03
6.602995853594e-03
6.577105117395e-03
6.562784594138e-03
6.551390876031e-03
6.540028147318e-03
6.527932608290e-03
6.518188856147e-03
6.509201653854e-03
6.500924694289e-03
6.493775276789e-03
6.487767936967e-03
6.484260508992e-03
6.479025332815e-03
6.478807844793e-03
6.480783763413e-03
1.379645942798e-03
2.370744765500e-03
3.289390535253e-03
4.259771743787e-03
4.921608333446e-03
5.291098355325e-03
5.691541294402e-03
6.076845178309e-03
6.449685088720e-03
6.808540318612e-03
2.467645244497e-03
7.387684603200e-03
4.669447711949e-04
7.187379727613e-04
6.886610103126e-03
4.513950104662e-03
3.130314774132e-03
7.952571186761e-03
5.611776781096e-03
8.589884447907e-03
6.387186221902e-03
6.688806196299e-03
2.837133076976e-04
9.112379300118e-03
7.112299072478e-03
1.863614406848e-03
4.097129823865e-03
9.368721361554e-03
9.581312753457e-03
9.696771871598e-03
9.661965725941e-03
9.657300880960e-03
7.252748450040e-03
7.204553548755e-03
7.190310623695e-03
8.317593225799e-03
6.580479119873e-03
7.951640243770e-04
2.236188234057e-04
5.345608365895e-03
7.124265754085e-03
9.605932005886e-04
9.461887672678e-03
8.306394010940e-03
8.874948617112e-03
7.651974340836e-03
7.171614554623e-03
6.301019700702e-04
7.218858775480e-03
6.681975120337e-03
8.919642904784e-03
3.782057698645e-04
2.461101595439e-03
9.740781352216e-03
5.213302899934e-03
3.467929003170e-03
6.011247603792e-03
6.752207116092e-03
1.482421476423e-03
7.707473208552e-03
6.626895766024e-03
1.843059226891e-04
9.484705815320e-03
7.273943765505e-03
7.403275162615e-03
7.560175135128e-03
7.699103760531e-03
7.873859378063e-03
7.983468465586e-03
7.805275468866e-03
8.076875094823e-03
7.888483748134e-03
8.157230742329e-03
8.150414356390e-03
7.950052220415e-03
8.203302346660e-03
7.989603575137e-03
7.738933580985e-03
7.761877248299e-03
7.514430563076e-03
7.517749685797e-03
7.762178267115e-03
7.496268594253e-03
7.253703466376e-03
7.208119059030e-03
6.967774441572e-03
6.895650681888e-03
6.654940187640e-03
6.555181180064e-03
6.807826701289e-03
6.444118335674e-03
6.184157086596e-03
6.052573971756e-03
5.781041073738e-03
5.633100173416e-03
5.926801465325e-03
5.500511530260e-03
5.187410071006e-03
5.057926174118e-03
4.724874516556e-03
4.607265200082e-03
4.254692439335e-03
4.153707031723e-03
4.519291321705e-03
4.085651733552e-03
3.708775465399e-03
3.665789744811e-03
4.049671667041e-03
3.655011097002e-03
4.043363047748e-03
3.672595473933e-03
3.288412566488e-03
3.329528526603e-03
3.713737890242e-03
3.390439926639e-03
3.016818465565e-03
3.097348092928e-03
3.470047846777e-03
3.192537547033e-03
2.833611616884e-03
2.941620232597e-03
3.301659132820e-03
3.058688655566e-03
2.713973738814e-03
2.837312663668e-03
3.184973369339e-03
2.966823653320e-03
3.317887454292e-03
2.631433529681e-03
2.763709963358e-03
2.439525232500e-03
2.573899144167e-03
5.815704172408e-03
2.260291257333e-03
2.133376351770e-03
2.394520931588e-03
2.713791904352e-03
2.089096160510e-03
2.222289861102e-03
1.924256117870e-03
4.384133854863e-03
7.742878392462e-03
2.055376778398e-03
1.762722478410e-03
1.636993182654e-03
1.478451486910e-03
8.040472336376e-03
8.326659920821e-03
8.198521611187e-03
8.491342184672e-03
8.366171030736e-03
1.601258780398e-03
8.406137130000e-03
8.602652878629e-03
7.016052906606e-03
5.933361395712e-03
4.436228737770e-03
2.358399735938e-03
2.189470666595e-03
2.497981395800e-03
3.548975152095e-03
3.683960454643e-03
3.927396196037e-03
4.064039969733e-03
4.319210054218e-03
4.457929937351e-03
4.207274000341e-03
4.603780246682e-03
4.356292350464e-03
4.724036240075e-03
4.590831155553e-03
4.755602383653e-03
4.510619204795e-03
4.913365680549e-03
4.669573200703e-03
4.277096064176e-03
4.435885617457e-03
4.055515909893e-03
4.435203751257e-03
4.825728325809e-03
4.830109510206e-03
5.217467279027e-03
5.229050030490e-03
5.612820412351e-03
5.632637856587e-03
5.262931809511e-03
8.234969613712e-03
3.284041863001e-03
3.332044935657e-03
2.905056883596e-03
2.957323858390e-03
2.531206279803e-03
2.588741545018e-03
2.167199552122e-03
2.149784407336e-03
1.798582971875e-03
1.821141337860e-03
1.490676467898e-03
1.549233224598e-03
6.712635943712e-03
5.614178942240e-03
6.004506406784e-03
6.011924988546e-03
1.358672968739e-03
4.832581656183e-03
5.006490696036e-03
4.878396166081e-03
5.676431700328e-03
1.321066176583e-03
2.233464311934e-03
2.694279618889e-03
8.650077553759e-03
8.523769699636e-03
5.305558762695e-03
1.440985257679e-03
5.014557069197e-03
1.470256368419e-03
4.598026753477e-03
4.998827942702e-03
3.971802715512e-03
6.396927174330e-03
6.405033718843e-03
1.879647464642e-03
1.635429892823e-03
1.342257452078e-03
1.446081513150e-03
1.734140796145e-03
1.543808223778e-03
1.272559444552e-03
1.381046730461e-03
1.656726463021e-03
1.494646352210e-03
1.235376158460e-03
1.344807302633e-03
5.243360911958e-03
1.191188678073e-03
7.484230522220e-03
5.434242370096e-03
6.041672457767e-03
8.805247191715e-03
8.678711118285e-03
8.385836759113e-03
8.543435125363e-03
8.831510443135e-03
8.698019140822e-03
8.400948736458e-03
8.557313434129e-03
8.251876178548e-03
8.411360865633e-03
8.712286772029e-03
8.569555750126e-03
8.262302485784e-03
8.423333647785e-03
8.110091256431e-03
8.272481972975e-03
8.583331191564e-03
1.168018514866e-03
5.318580634185e-03
5.745673751446e-03
2.335951273091e-03
2.635257630435e-03
2.817156529274e-03
2.964534657337e-03
8.434319565344e-03
8.743646806213e-03
2.355859847026e-03
2.852848286500e-03
8.920792785196e-03
4.765631924323e-03
4.374885233675e-03
5.517265925736e-03
5.691125503122e-03
5.258397759313e-03
5.452617430688e-03
5.854483275902e-03
4.998069423525e-03
4.463363926772e-03
8.866409227977e-03
1.515739357196e-03
1.244411282622e-03
5.172239135014e-03
4.905155639306e-03
7.069755192325e-03
6.989587977459e-03
7.340309085784e-03
7.274263960692e-03
7.618491456673e-03
7.566141409886e-03
7.213769130104e-03
6.783427441253e-03
7.523559517521e-03
8.114278931288e-03
5.631786695979e-03
1.776257269486e-03
1.048372595540e-03
1.090571719191e-03
1.275135191995e-03
1.564179029377e-03
5.743323456480e-03
7.904062972491e-03
7.939267842103e-03
5.634449780272e-03
5.986003184361e-03
6.784777729766e-03
8.064969358283e-03
8.091661449528e-03
7.933039245187e-03
9.671615346507e-04
1.002389294018e-03
8.982440901466e-03
3.191262172370e-03
3.383704244798e-03
1.178032249755e-03
9.391568943825e-04
8.592117003950e-03
8.894939025555e-03
3.148669814226e-03
3.300108697482e-03
5.622619659957e-03
1.200214763069e-03
9.039816847392e-03
4.976261242354e-03
4.564533026576e-03
2.777709222670e-03
2.541905526546e-03
2.050408486399e-03
1.955705981408e-03
1.458907750256e-03
1.398101705793e-03
6.070650884127e-03
9.104530143484e-03
7.166520057386e-03
6.842763563382e-03
7.492997908153e-03
9.607980067771e-04
5.881998114149e-03
4.939559638016e-03
8.208450164564e-03
8.235444077890e-03
3.711214141994e-03
3.935432318620e-03
3.630203879366e-03
4.200290848127e-03
7.619679311791e-03
4.244690502045e-03
7.265802688097e-03
7.223803895271e-03
7.013248171776e-03
6.201388030956e-03
6.282018341266e-03
3.416330756482e-03
4.844338374997e-03
3.001916572819e-03
3.900954095488e-03
3.797756268972e-03
9.000416541268e-03
9.153191528260e-03
7.944155563813e-03
7.783610167639e-03
1.086404582302e-03
9.813811119495e-04
3.457183191259e-03
5.571898606385e-03
9.070090287987e-03
9.175529679534e-03
9.023494309715e-03
5.950936408792e-03
2.891013963635e-03
4.457579276467e-03
9.954591254215e-04
6.225482204016e-03
8.224183264247e-04
8.006839490358e-03
5.351317792390e-03
5.590691236791e-03
7.156984724943e-03
7.233161105301e-03
6.135786793447e-03
5.726179822539e-03
6.954697129894e-03
6.753570412752e-03
6.789804425584e-03
6.537643608351e-03
2.074380491495e-03
1.895950467255e-03
8.218927599544e-03
7.835952338874e-03
8.493479379807e-03
8.516123030659e-03
7.171843353070e-03
6.798874638140e-03
1.682703698145e-03
6.056996830684e-03
9.251957445402e-03
7.148704214393e-03
6.015582167764e-03
5.722534316844e-03
8.009894244250e-04
8.587004208665e-04
9.193658853389e-03
3.914522590390e-03
4.479606769973e-03
3.336253971580e-03
6.228152506084e-03
7.104376084419e-03
5.776247778590e-03
6.507154767299e-03
9.333248132957e-03
6.069335007360e-03
5.057452732277e-03
5.510557298252e-03
9.034066517949e-03
9.355654922917e-03
7.766622701189e-03
7.594920557212e-03
7.919633618544e-03
1.500505214728e-03
1.220030652561e-03
9.019516820214e-03
2.025004948071e-03
2.191875102832e-03
1.303189601047e-03
1.567928029673e-03
3.341108803891e-03
3.193011790687e-03
7.993866825435e-03
8.256391614525e-03
7.402388334033e-03
4.649796925111e-03
4.244494198163e-03
4.164731391553e-03
9.271583176386e-03
9.451102285819e-03
2.270659764396e-03
2.158525420305e-03
2.192680322355e-03
9.365874346503e-03
6.019770087668e-03
5.840938643140e-03
7.334206591656e-04
8.826240387296e-04
2.269827984717e-03
1.779055297754e-03
9.259847688470e-03
9.115927253921e-03
9.429022486641e-03
1.496819344134e-03
6.800774638367e-03
6.397940086976e-03
6.287999953804e-03
6.583661172791e-03
7.149273528668e-03
7.501904474579e-03
7.828729346008e-03
7.572039628873e-04
9.252379574014e-03
7.597886447406e-03
7.369462292396e-04
7.434742332822e-03
7.620937274292e-03
7.253813247651e-03
1.211644513238e-03
7.540279342349e-03
7.752301433328e-03
5.969347825649e-04
9.504153802474e-03
5.833252212429e-04
6.676598596653e-04
6.167414955653e-03
5.872889723603e-03
6.314832005226e-03
6.024442549728e-03
5.591556387378e-03
5.763906018080e-03
7.418992274264e-03
6.263184136830e-03
5.947591759309e-03
6.447105875679e-03
6.484034195873e-03
4.739105714247e-03
5.002297798655e-03
4.784764761995e-03
8.803837334503e-03
8.753798022942e-03
5.128521841161e-03
4.722718198911e-03
7.440582722667e-03
7.414761236018e-03
7.718982732499e-03
7.673296909943e-03
7.973194278940e-03
7.921408246416e-03
8.221102424540e-03
8.190303074292e-03
3.637971384248e-03
6.864472679859e-03
7.198428440232e-03
6.809372839459e-03
6.305302794067e-03
6.057929858749e-03
6.398025495349e-03
4.043284467397e-03
9.638702721921e-03
8.537866296565e-04
9.242974660821e-04
4.553702068309e-03
6.547059843855e-03
5.216177359159e-03
5.424677193740e-03
5.071595940410e-03
7.992033636824e-04
2.789794720914e-03
8.262388038356e-03
2.566954552207e-03
4.930213268231e-03
3.896450662319e-03
6.423866178464e-03
3.071792648598e-03
4.491090149016e-03
7.691306699693e-03
7.524306907488e-03
7.340078159997e-03
3.785766407819e-03
5.780545855853e-03
5.532136489018e-03
7.274334335929e-03
8.865654032116e-03
8.952454812906e-03
9.181878296684e-03
9.023922754174e-03
8.782721472546e-03
8.848883635457e-03
9.081635559654e-03
8.905116463419e-03
9.173915189782e-03
8.936656644201e-03
8.696691683177e-03
8.720244365146e-03
8.937516639045e-03
8.479407192737e-03
7.566057850369e-03
4.871477513800e-03
9.245519478624e-04
1.230931394100e-03
6.734461264499e-03
9.427233477242e-03
9.543383124718e-03
3.050886708780e-03
8.997990428927e-03
7.425383285766e-03
1.822516298467e-03
8.738756062894e-03
8.700435323385e-03
8.524558021968e-03
8.433218040121e-03
9.617723555121e-03
8.077475168757e-03
8.158880942204e-03
5.227787318625e-03
5.256917934308e-03
4.886425338386e-03
8.655993322614e-03
7.518805141477e-03
7.062175949069e-03
6.934704525289e-03
6.588159711544e-03
7.266584505178e-03
9.308113319051e-03
9.227031920145e-03
1.840795019928e-03
2.054558092599e-03
2.391168076785e-03
2.302654890425e-03
1.960102011471e-03
2.227794557082e-03
2.587155253478e-03
2.173035509212e-03
8.509511342903e-03
7.071288795422e-03
4.187680705957e-03
4.062577511967e-03
3.675797370045e-03
2.857154312488e-03
3.046826867301e-03
3.392508720849e-03
2.675058108161e-03
6.910850319285e-03
6.978922847333e-03
4.500971161958e-03
2.902891254800e-03
7.240852606316e-03
7.539975922852e-03
7.555423326969e-03
7.852723504331e-03
7.558778452043e-03
3.492427643055e-03
3.645744869563e-03
3.452528807242e-03
3.800549575745e-03
3.596481706272e-03
3.279005700795e-03
3.949902631474e-03
3.721935380343e-03
7.209601534684e-03
6.763554775154e-04
7.107783383473e-04
6.865882192944e-04
8.357563445725e-04
8.420369714813e-04
1.022718853647e-03
9.944957916004e-04
7.237612759533e-04
5.743692265053e-04
6.546865593428e-04
5.158345945461e-04
6.199398581679e-04
8.340743966075e-04
1.142647841664e-03
6.505987601699e-03
2.777201533533e-03
2.623041662448e-03
2.319783357422e-03
2.481977231767e-03
2.906188585234e-03
2.157820826743e-03
2.048516625616e-03
2.064606193494e-04
4.323153032663e-04
4.074622317036e-04
6.876653605444e-04
6.854838033754e-04
4.426879676391e-04
4.556014985839e-04
2.385116167292e-04
4.681257362013e-04
7.129618723166e-04
2.529109950448e-04
8.627478332995e-03
8.794531816367e-03
6.808614863807e-03
7.217451712366e-03
4.166204416465e-04
9.654971521392e-03
9.690156814590e-03
9.697954945734e-03
5.782182947970e-03
6.001062983026e-03
9.664426869278e-03
1.795956844472e-03
9.246638096927e-03
9.172659417046e-03
1.903129160182e-03
1.729969613990e-03
4.542700342300e-03
4.122670325722e-03
5.412671145692e-03
4.213883916162e-03
5.076515751736e-03
6.769485293870e-03
1.117924882780e-03
8.097675249208e-03
7.953774059538e-03
8.726854265879e-03
1.891708155355e-03
3.124111269919e-03
1.202699681276e-03
8.566141210166e-03
7.033591982088e-03
3.421015667917e-03
2.533244022036e-03
1.960960988936e-03
1.613176743510e-03
5.344071081542e-03
3.103307988700e-03
4.865491729377e-03
8.883898690855e-03
3.650948836231e-04
5.141576418785e-03
3.825157509381e-03
8.242151389368e-03
6.012831211546e-03
1.141409120704e-03
8.850228499493e-03
9.310548865807e-03
7.910908826187e-03
9.291442425756e-04
7.769928592924e-03
6.198978496002e-03
8.764645617249e-03
1.727692778133e-03
4.063042689155e-03
6.312062359938e-03
6.929356644596e-03
9.294820341288e-03
5.390404976631e-03
6.105738240086e-03
4.857064742859e-03
1.860048953565e-03
5.439475396374e-03
4.463575436555e-03
9.131187136753e-03
7.667653326327e-03
3.271162023609e-03
8.955406499929e-03
3.565328433093e-03
6.400135479319e-03
6.782677970166e-03
7.144633793565e-03
8.006670785352e-03
6.331618976681e-03
4.329144888342e-03
5.287528271211e-03
1.247998354789e-03
4.775133330754e-03
8.225608465685e-03
7.856267983751e-03
9.397383107625e-03
6.078996891411e-03
5.168191686317e-03
9.213215260791e-03
3.245805337846e-03
1.283270030068e-03
1.627448568032e-03
2.516160175814e-03
4.956782598304e-03
3.601985061973e-03
9.364370216794e-03
5.329041748013e-03
5.184868714808e-03
1.968211929401e-03
7.049136048553e-03
5.497123705040e-03
4.104573101897e-03
6.415433273885e-03
3.389326027910e-03
8.404898664505e-03
6.277241297104e-03
5.676320592972e-03
5.405188142862e-03
3.540245486704e-03
7.118843823946e-03
6.180759501985e-03
5.846789535959e-03
6.617623641016e-03
3.774044170428e-03
6.569451464824e-03
3.750454811829e-03
7.455440612269e-03
9.643249030196e-03
6.179841729533e-03
8.256681968600e-03
3.540628231145e-03
6.029849423188e-03
6.936763211193e-04
6.678819497532e-03
3.691917399226e-03
2.537721421871e-03
3.852572664947e-03
7.530321224461e-03
3.846580119848e-03
2.910154822107e-03
4.003533179122e-03
6.199714802441e-03
8.341706736805e-03
4.161216188213e-03
7.709366494110e-03
7.512258774799e-04
6.530299874568e-03
5.553520862693e-03
2.313043741480e-03
3.948909363573e-03
8.600159629786e-03
5.815535764118e-03
4.345338876891e-03
7.970468923619e-03
6.463214841717e-03
5.309200332103e-03
4.757227184955e-03
5.832996991205e-03
1.675917963763e-03
1.405252153754e-03
2.953928107889e-03
8.252980471875e-03
9.341519338539e-04
8.452138838014e-03
1.045747705320e-03
2.655186242820e-03
6.788759899707e-03
8.021438255999e-03
2.738163885594e-03
1.573969628887e-03
2.489954737023e-03
5.665332124515e-03
2.598680036488e-03
2.386637945409e-03
9.449270750478e-03
2.506593526385e-03
9.710610616185e-03
6.511400206187e-03
7.371755181352e-03
5.391683206055e-03
7.899634903674e-04
5.232070064776e-03
2.013416941414e-03
8.250304118488e-03
7.387189935389e-03
1.843820714819e-03
9.146262446655e-03
8.456348919297e-03
8.480421241659e-03
6.453065092608e-03
6.425036343984e-03
9.191027677097e-03
7.117031364396e-03
5.905193995363e-04
4.525766560759e-03
4.877830156508e-03
4.193144543741e-03
3.089906867995e-03
1.965818344372e-03
8.187477175597e-04
3.977284117991e-03
7.172009154243e-03
7.465246218564e-03
7.145193663660e-03
2.956086541634e-03
9.452100612491e-03
7.892460228768e-03
6.725144101262e-03
7.495837408110e-03
2.064214737142e-03
7.785502990776e-03
8.706239941931e-03
8.725073334829e-03
6.679972844966e-03
7.451438053413e-03
9.483487147174e-03
1.074839333227e-03
9.485506277056e-03
8.497857371228e-03
7.805654832066e-03
7.778659289641e-03
6.221480125910e-03
9.285449817031e-03
1.543459104197e-03
8.466461920767e-03
2.481355301799e-03
7.241577429902e-04
6.409650096734e-03
8.729679730131e-03
6.217863314349e-03
6.763844093455e-04
5.152461682582e-04
6.608220367123e-03
8.995836584420e-03
1.197473751098e-03
9.722059007459e-03
1.126947443885e-03
7.100135874310e-03
4.667495753867e-04
6.629450700224e-03
9.498004769328e-03
2.760157973688e-03
7.269622617067e-03
1.774318629983e-03
8.098117732906e-03
7.548648732759e-04
9.525193180743e-03
6.803221556995e-03
9.455460241524e-03
7.924746374769e-03
7.726075242007e-04
8.143371341217e-03
6.551840797635e-03
7.103573414794e-03
9.362651864174e-03
2.206630802654e-03
9.363295540227e-04
9.739211630328e-03
1.546271345992e-04
7.068003925468e-03
6.605144001258e-03
8.778460023567e-04
7.616386587266e-03
9.100413761666e-03
3.482419998500e-03
9.022249522254e-03
9.502667835991e-04
7.642305255405e-04
8.190471844710e-03
7.803341111576e-03
9.507497932125e-03
7.979553239924e-03
1.449055273892e-03
8.914243577688e-03
3.003989745171e-03
8.454780512121e-03
6.815523004304e-03
1.081067760275e-03
3.790356651815e-03
4.684539002398e-04
6.401324284486e-03
3.151283347034e-03
4.781506343171e-03
4.929340767832e-03
5.186979311316e-03
5.236146660533e-03
5.609626904887e-03
5.605330612359e-03
6.006687141348e-03
5.938535402001e-03
6.387166225446e-03
6.310386813875e-03
6.747548375428e-03
6.641666413056e-03


CELL_DATA 2186

SCALARS element_number int
LOOKUP_TABLE default
407
408
409
410
411
412
413
414
415
416
417
418
419
420
421
422
423
424
425
426
427
428
429
430
431
432
433
434
435
436
437
438
439
440
441
442
443
444
445
446
447
448
449
450
451
452
453
454
455
456
457
458
459
460
461
462
463
464
465
466
467
468
469
470
471
472
473
474
475
476
477
478
479
480
481
482
483
484
485
486
487
488
489
490
491
492
493
494
495
496
497
498
499
500
501
502
503
504
505
506
507
508
509
510
511
512
513
514
515
516
517
518
519
520
521
522
523
524
525
526
527
528
529
530
531
532
533
534
535
536
537
538
539
540
541
542
543
544
545
546
547
548
549
550
551
552
553
554
555
556
557
558
559
560
561
562
563
564
565
566
567
568
569
570
571
572
573
574
575
576
577
578
579
580
581
582
583
584
585
586
587
588
589
590
591
592
593
594
595
596
597
598
599
600
601
602
603
604
605
606
607
608
609
610
611
612
613
614
615
616
617
618
619
620
621
622
623
624
625
626
627
628
629
630
631
632
633
634
635
636
637
638
639
640
641
642
643
644
645
646
647
648
649
650
651
652
653
654
655
656
657
658
659
660
661
662
663
664
665
666
667
668
669
670
671
672
673
674
675
676
677
678
679
680
681
682
683
684
685
686
687
688
689
690
691
692
693
694
695
696
697
698
699
700
701
702
703
704
705
706
707
708
709
710
711
712
713
714
715
716
717
718
719
720
721
722
723
724
725
726
727
728
729
730
731
732
733
734
735
736
737
738
739
740
741
742
743
744
745
746
747
748
749
750
751
752
753
754
755
756
757
758
759
760
761
762
763
764
765
766
767
768
769
770
771
772
773
774
775
776
777
778
779
780
781
782
783
784
785
786
787
788
789
790
791
792
793
794
795
796
797
798
799
800
801
802
803
804
805
806
807
808
809
810
811
812
813
814
815
816
817
818
819
820
821
822
823
824
825
826
827
828
829
830
831
832
833
834
835
836
837
838
839
840
841
842
843
844
845
846
847
848
849
850
851
852
853
854
855
856
857
858
859
860
861
862
863
864
865
866
867
868
869
870
871
872
873
874
875
876
877
878
879
880
881
882
883
884
885
886
887
888
889
890
891
892
893
894
895
896
897
898
899
900
901
902
903
904
905
906
907
908
909
910
911
912
913
914
915
916
917
918
919
920
921
922
923
924
925
926
927
928
929
930
931
932
933
934
935
936
937
938
939
940
941
942
943
944
945
946
947
948
949
950
951
952
953
954
955
956
957
958
959
960
961
962
963
964
965
966
967
968
969
970
971
972
973
974
975
976
977
978
979
980
981
982
983
984
985
986
987
988
989
990
991
992
993
994
995
996
997
998
999
1000
1001
1002
1003
1004
1005
1006
1007
1008
1009
1010
1011
1012
1013
1014
1015
1016
1017
1018
1019
1020
1021
1022
1023
1024
1025
1026
1027
1028
1029
1030
1031
1032
1033
1034
1035
1036
1037
1038
1039
1040
1041
1042
1043
1044
1045
1046
1047
1048
1049
1050
1051
1052
1053
1054
1055
1056
1057
1058
1059
1060
1061
1062
1063
1064
1065
1066
1067
1068
1069
1070
1071
1072
1073
1074
1075
1076
1077
1078
1079
1080
1081
1082
1083
1084
1085
1086
1087
1088
1089
1090
1091
1092
1093
1094
1095
1096
1097
1098
1099
1100
1101
1102
1103
1104
1105
1106
1107
1108
1109
1110
1111
1112
1113
1114
1115
1116
1117
1118
1119
1120
1121
1122
1123
1124
1125
1126
1127
1128
1129
1130
1131
1132
1133
1134
1135
1136
1137
1138
1139
1140
1141
1142
1143
1144
1145
1146
1147
1148
1149
1150
1151
1152
1153
1154
1155
1156
1157
1158
1159
1160
1161
1162
1163
1164
1165
1166
1167
1168
1169
1170
1171
1172
1173
1174
1175
1176
1177
1178
1179
1180
1181
1182
1183
1184
1185
1186
1187
1188
1189
1190
1191
1192
1193
1194
1195
1196
1197
1198
1199
1200
1201
1202
1203
1204
1205
1206
1207
1208
1209
1210
1211
1212
1213
1214
1215
1216
1217
1218
1219
1220
1221
1222
1223
1224
1225
1226
1227
1228
1229
1230
1231
1232
1233
1234
1235
1236
1237
1238
1239
1240
1241
1242
1243
1244
1245
1246
1247
1248
1249
1250
1251
1252
1253
1254
1255
1256
1257
1258
1259
1260
1261
1262
1263
1264
1265
1266
1267
1268
1269
1270
1271
1272
1273
1274
1275
1276
1277
1278
1279
1280
1281
1282
1283
1284
1285
1286
1287
1288
1289
1290
1291
1292
1293
1294
1295
1296
1297
1298
1299
1300
1301
1302
1303
1304
1305
1306
1307
1308
1309
1310
1311
1312
1313
1314
1315
1316
1317
1318
1319
1320
1321
1322
1323
1324
1325
1326
1327
1328
1329
1330
1331
1332
1333
1334
1335
1336
1337
1338
1339
1340
1341
1342
1343
1344
1345
1346
1347
1348
1349
1350
1351
1352
1353
1354
1355
1356
1357
1358
1359
1360
1361
1362
1363
1364
1365
1366
1367
1368
1369
1370
1371
1372
1373
1374
1375
1376
1377
1378
1379
1380
1381
1382
1383
1384
1385
1386
1387
1388
1389
1390
1391
1392
1393
1394
1395
1396
1397
1398
1399
1400
1401
1402
1403
1404
1405
1406
1407
1408
1409
1410
1411
1412
1413
1414
1415
1416
1417
1418
1419
1420
1421
1422
1423
1424
1425
1426
1427
1428
1429
1430
1431
1432
1433
1434
1435
1436
1437
1438
1439
1440
1441
1442
1443
1444
1445
1446
1447
1448
1449
1450
1451
1452
1453
1454
1455
1456
1457
1458
1459
1460
1461
1462
1463
1464
1465
1466
1467
1468
1469
1470
1471
1472
1473
1474
1475
1476
1477
1478
1479
1480
1481
1482
1483
1484
1485
1486
1487
1488
1489
1490
1491
1492
1493
1494
1495
1496
1497
1498
1499
1500
1501
1502
1503
1504
1505
1506
1507
1508
1509
1510
1511
1512
1513
1514
1515
1516
1517
1518
1519
1520
1521
1522
1523
1524
1525
1526
1527
1528
1529
1530
1531
1532
1533
1534
1535
1536
1537
1538
1539
1540
1541
1542
1543
1544
1545
1546
1547
1548
1549
1550
1551
1552
1553
1554
1555
1556
1557
1558
1559
1560
1561
1562
1563
1564
1565
1566
1567
1568
1569
1570
1571
1572
1573
1574
1575
1576
1577
1578
1579
1580
1581
1582
1583
1584
1585
1586
1587
1588
1589
1590
1591
1592
1593
1594
1595
1596
1597
1598
1599
1600
1601
1602
1603
1604
1605
1606
1607
1608
1609
1610
1611
1612
1613
1614
1615
1616
1617
1618
1619
1620
1621
1622
1623
1624
1625
1626
1627
1628
1629
1630
1631
1632
1633
1634
1635
1636
1637
1638
1639
1640
1641
1642
1643
1644
1645
1646
1647
1648
1649
1650
1651
1652
1653
1654
1655
1656
1657
1658
1659
1660
1661
1662
1663
1664
1665
1666
1667
1668
1669
1670
1671
1672
1673
1674
1675
1676
1677
1678
1679
1680
1681
1682
1683
1684
1685
1686
1687
1688
1689
1690
1691
1692
1693
1694
1695
1696
1697
1698
1699
1700
1701
1702
1703
1704
1705
1706
1707
1708
1709
1710
1711
1712
1713
1714
1715
1716
1717
1718
1719
1720
1721
1722
1723
1724
1725
1726
1727
1728
1729
1730
1731
1732
1733
1734
1735
1736
1737
1738
1739
1740
1741
1742
1743
1744
1745
1746
1747
1748
1749
1750
1751
1752
1753
1754
1755
1756
1757
1758
1759
1760
1761
1762
1763
1764
1765
1766
1767
1768
1769
1770
1771
1772
1773
1774
1775
1776
1777
1778
1779
1780
1781
1782
1783
1784
1785
1786
1787
1788
1789
1790
1791
1792
1793
1794
1795
1796
1797
1798
1799
1800
1801
1802
1803
1804
1805
1806
1807
1808
1809
1810
1811
1812
1813
1814
1815
1816
1817
1818
1819
1820
1821
1822
1823
1824
1825
1826
1827
1828
1829
1830
1831
1832
1833
1834
1835
1836
1837
1838
1839
1840
1841
1842
1843
1844
1845
1846
1847
1848
1849
1850
1851
1852
1853
1854
1855
1856
1857
1858
1859
1860
1861
1862
1863
1864
1865
1866
1867
1868
1869
1870
1871
1872
1873
1874
1875
1876
1877
1878
1879
1880
1881
1882
1883
1884
1885
1886
1887
1888
1889
1890
1891
1892
1893
1894
1895
1896
1897
1898
1899
1900
1901
1902
1903
1904
1905
1906
1907
1908
1909
1910
1911
1912
1913
1914
1915
1916
1917
1918
1919
1920
1921
1922
1923
1924
1925
1926
1927
1928
1929
1930
1931
1932
1933
1934
1935
1936
1937
1938
1939
1940
1941
1942
1943
1944
1945
1946
1947
1948
1949
1950
1951
1952
1953
1954
1955
1956
1957
1958
1959
1960
1961
1962
1963
1964
1965
1966
1967
1968
1969
1970
1971
1972
1973
1974
1975
1976
1977
1978
1979
1980
1981
1982
1983
1984
1985
1986
1987
1988
1989
1990
1991
1992
1993
1994
1995
1996
1997
1998
1999
2000
2001
2002
2003
2004
2005
2006
2007
2008
2009
2010
2011
2012
2013
2014
2015
2016
2017
2018
2019
2020
2021
2022
2023
2024
2025
2026
2027
2028
2029
2030
2031
2032
2033
2034
2035
2036
2037
2038
2039
2040
2041
2042
2043
2044
2045
2046
2047
2048
2049
2050
2051
2052
2053
2054
2055
2056
2057
2058
2059
2060
2061
2062
2063
2064
2065
2066
2067
2068
2069
2070
2071
2072
2073
2074
2075
2076
2077
2078
2079
2080
2081
2082
2083
2084
2085
2086
2087
2088
2089
2090
2091
2092
2093
2094
2095
2096
2097
2098
2099
2100
2101
2102
2103
2104
2105
2106
2107
2108
2109
2110
2111
2112
2113
2114
2115
2116
2117
2118
2119
2120
2121
2122
2123
2124
2125
2126
2127
2128
2129
2130
2131
2132
2133
2134
2135
2136
2137
2138
2139
2140
2141
2142
2143
2144
2145
2146
2147
2148
2149
2150
2151
2152
2153
2154
2155
2156
2157
2158
2159
2160
2161
2162
2163
2164
2165
2166
2167
2168
2169
2170
2171
2172
2173
2174
2175
2176
2177
2178
2179
2180
2181
2182
2183
2184
2185
2186
2187
2188
2189
2190
2191
2192
2193
2194
2195
2196
2197
2198
2199
2200
2201
2202
2203
2204
2205
2206
2207
2208
2209
2210
2211
2212
2213
2214
2215
2216
2217
2218
2219
2220
2221
2222
2223
2224
2225
2226
2227
2228
2229
2230
2231
2232
2233
2234
2235
2236
2237
2238
2239
2240
2241
2242
2243
2244
2245
2246
2247
2248
2249
2250
2251
2252
2253
2254
2255
2256
2257
2258
2259
2260
2261
2262
2263
2264
2265
2266
2267
2268
2269
2270
2271
2272
2273
2274
2275
2276
2277
2278
2279
2280
2281
2282
2283
2284
2285
2286
2287
2288
2289
2290
2291
2292
2293
2294
2295
2296
2297
2298
2299
2300
2301
2302
2303
2304
2305
2306
2307
2308
2309
2310
2311
2312
2313
2314
2315
2316
2317
2318
2319
2320
2321
2322
2323
2324
2325
2564
2565
2566
2567
2568
2569
2570
2571
2572
2573
2574
2575
2576
2577
2578
2579
2580
2581
2582
2583
2584
2585
2586
2587
2588
2589
2590
2591
2592
2593
2594
2595
2596
2597
2598
2599
2600
2601
2602
2603
2604
2605
2606
2607
2608
2609
2610
2611
2612
2613
2614
2615
2616
2617
2618
2619
2620
2621
2622
2623
2624
2625
2626
2627
2628
2629
2630
2631
2632
2633
2634
2635
2636
2637
2638
2639
2640
2641
2642
2643
2644
2645
2646
2647
2648
2649
2650
2651
2652
2653
2654
2655
2656
2657
2658
2659
2660
2661
2662
2663
2664
2665
2666
2667
2668
2669
2670
2671
2672
2673
2674
2675
2676
2677
2678
2679
2680
2681
2682
2683
2684
2685
2686
2687
2688
2689
2690
2691
2692
2693
2694
2695
2696
2697
2698
2699
2700
2701
2702
2703
2704
2705
2706
2707
2708
2709
2710
2711
2712
2713
2714
2715
2716
2717
2718
2719
2720
2721
2722
2723
2724
2725
2726
2727
2728
2729
2730
2731
2732
2733
2734
2735
2736
2737
2738
2739
2740
2741
2742
2743
2744
2745
2746
2747
2748
2749
2750
2751
2752
2753
2754
2755
2756
2757
2758
2759
2760
2761
2762
2763
2764
2765
2766
2767
2768
2769
2770
2771
2772
2773
2774
2775
2776
2777
2778
2779
2780
2781
2782
2783
2784
2785
2786
2787
2788
2789
2790
2791
2792
2793
2794
2795
2796
2797
2798
2799
2800
2801
2802
2803
2804
2805
2806
2807
2808
2809
2810
2811
2812
2813
2814
2815
2816
2817
2818
2819
2820
2821
2822
2823
2824
2825
2826
2827
2828
2829
2830

SCALARS element_group int
LOOKUP_TABLE default
0
0
0
0
0
0
0
0
0
0
0
0
0
0
0
0
0
0
0
0
0
0
0
0
0
0
0
0
0
0
0
0
0
0
0
0
0
0
0
0
0
0
0
0
0
0
0
0
0
0
0
0
0
0
0
0
0
0
0
0
0
0
0
0
0
0
0
0
0
0
0
0
0
0
0
0
0
0
0
0
0
0
0
0
0
0
0
0
0
0
0
0
0
0
0
0
0
0
0
0
0
0
0
0
0
0
0
0
0
0
0
0
0
0
0
0
0
0
0
0
0
0
0
0
0
0
0
0
0
0
0
0
0
0
0
0
0
0
0
0
0
0
0
0
0
0
0
0
0
0
0
0
0
0
0
0
0
0
0
0
0
0
0
0
0
0
0
0
0
0
0
0
0
0
0
0
0
0
0
0
0
0
0
0
0
0
0
0
0
0
0
0
0
0
0
0
0
0
0
0
0
0
0
0
0
0
0
0
0
0
0
0
0
0
0
0
0
0
0
0
0
0
0
0
0
0
0
0
0
0
0
0
0
0
0
0
0
0
0
0
0
0
0
0
0
0
0
0
0
0
0
0
0
0
0
0
0
0
0
0
0
0
0
0
0
0
0
0
0
0
0
0
0
0
0
0
0
0
0
0
0
0
0
0
0
0
0
0
0
0
0
0
0
0
0
0
0
0
0
0
0
0
0
0
0
0
0
0
0
0
0
0
0
0
0
0
0
0
0
0
0
0
0
0
0
0
0
0
0
0
0
0
0
0
0
0
0
0
0
0
0
0
0
0
0
0
0
0
0
0
0
0
0
0
0
0
0
0
0
0
0
0
0
0
0
0
0
0
0
0
0
0
0
0
0
0
0
0
0
0
0
0
0
0
0
0
0
0
0
0
0
0
0
0
0
0
0
0
0
0
0
0
0
0
0
0
0
0
0
0
0
0
0
0
0
0
0
0
0
0
0
0
0
0
0
0
0
0
0
0
0
0
0
0
0
0
0
0
0
0
0
0
0
0
0
0
0
0
0
0
0
0
0
0
0
0
0
0
0
0
0
0
0
0
0
0
0
0
0
0
0
0
0
0
0
0
0
0
0
0
0
0
0
0
0
0
0
0
0
0
0
0
0
0
0
0
0
0
0
0
0
0
0
0
0
0
0
0
0
0
0
0
0
0
0
0
0
0
0
0
0
0
0
0
0
0
0
0
0
0
0
0
0
0
0
0
0
0
0
0
0
0
0
0
0
0
0
0
0
0
0
0
0
0
0
0
0
0
0
0
0
0
0
0
0
0
0
0
0
0
0
0
0
0
0
0
0
0
0
0
0
0
0
0
0
0
0
0
0
0
0
0
0
0
0
0
0
0
0
0
0
0
0
0
0
0
0
0
0
0
0
0
0
0
0
0
0
0
0
0
0
0
0
0
0
0
0
0
0
0
0
0
0
0
0
0
0
0
0
0
0
0
0
0
0
0
0
0
0
0
0
0
0
0
0
0
0
0
0
0
0
0
0
0
0
0
0
0
0
0
0
0
0
0
0
0
0
0
0
0
0
0
0
0
0
0
0
0
0
0
0
0
0
0
0
0
0
0
0
0
0
0
0
0
0
0
0
0
0
0
0
0
0
0
0
0
0
0
0
0
0
0
0
0
0
0
0
0
0
0
0
0
0
0
0
0
0
0
0
0
0
0
0
0
0
0
0
0
0
0
0
0
0
0
0
0
0
0
0
0
0
0
0
0
0
0
0
0
0
0
0
0
0
0
0
0
0
0
0
0
0
0
0
0
0
0
0
0
0
0
0
0
0
0
0
0
0
0
0
0
0
0
0
0
0
0
0
0
0
0
0
0
0
0
0
0
0
0
0
0
0
0
0
0
0
0
0
0
0
0
0
0
0
0
0
0
0
0
0
0
0
0
0
0
0
0
0
0
0
0
0
0
0
0
0
0
0
0
0
0
0
0
0
0
0
0
0
0
0
0
0
0
0
0
0
0
0
0
0
0
0
0
0
0
0
0
0
0
0
0
0
0
0
0
0
0
0
0
0
0
0
0
0
0
0
0
0
0
0
0
0
0
0
0
0
0
0
0
0
0
0
0
0
0
0
0
0
0
0
0
0
0
0
0
0
0
0
0
0
0
0
0
0
0
0
0
0
0
0
0
0
0
0
0
0
0
0
0
0
0
0
0
0
0
0
0
0
0
0
0
0
0
0
0
0
0
0
0
0
0
0
0
0
0
0
0
0
0
0
0
0
0
0
0
0
0
0
0
0
0
0
0
0
0
0
0
0
0
0
0
0
0
0
0
0
0
0
0
0
0
0
0
0
0
0
0
0
0
0
0
0
0
0
0
0
0
0
0
0
0
0
0
0
0
0
0
0
0
0
0
0
0
0
0
0
0
0
0
0
0
0
0
0
0
0
0
0
0
0
0
0
0
0
0
0
0
0
0
0
0
0
0
0
0
0
0
0
0
0
0
0
0
0
0
0
0
0
0
0
0
0
0
0
0
0
0
0
0
0
0
0
0
0
0
0
0
0
0
0
0
0
0
0
0
0
0
0
0
0
0
0
0
0
0
0
0
0
0
0
0
0
0
0
0
0
0
0
0
0
0
0
0
0
0
0
0
0
0
0
0
0
0
0
0
0
0
0
0
0
0
0
0
0
0
0
0
0
0
0
0
0
0
0
0
0
0
0
0
0
0
0
0
0
0
0
0
0
0
0
0
0
0
0
0
0
0
0
0
0
0
0
0
0
0
0
0
0
0
0
0
0
0
0
0
0
0
0
0
0
0
0
0
0
0
0
0
0
0
0
0
0
0
0
0
0
0
0
0
0
0
0
0
0
0
0
0
0
0
0
0
0
0
0
0
0
0
0
0
0
0
0
0
0
0
0
0
0
0
0
0
0
0
0
0
0
0
0
0
0
0
0
0
0
0
0
0
0
0
0
0
0
0
0
0
0
0
0
0
0
0
0
0
0
0
0
0
0
0
0
0
0
0
0
0
0
0
0
0
0
0
0
0
0
0
0
0
0
0
0
0
0
0
0
0
0
0
0
0
0
0
0
0
0
0
0
0
0
0
0
0
0
0
0
0
0
0
0
0
0
0
0
0
0
0
0
0
0
0
0
0
0
0
0
0
0
0
0
0
0
0
0
0
0
0
0
0
0
0
0
0
0
0
0
0
0
0
0
0
0
0
0
0
0
0
0
0
0
0
0
0
0
0
0
0
0
0
0
0
0
0
0
0
0
0
0
0
0
0
0
0
0
0
0
0
0
0
0
0
0
0
0
0
0
0
0
0
0
0
0
0
0
0
0
0
0
0
0
0
0
0
0
0
0
0
0
0
0
0
0
0
0
0
0
0
0
0
0
0
0
0
0
0
0
0
0
0
0
0
0
0
0
0
0
0
0
0
0
0
0
0
0
0
0
0
0
0
0
0
0
0
0
0
0
0
0
0
0
0
0
0
0
0
0
0
0
0
0
0
0
0
0
0
0
0
0
0
0
0
0
0
0
0
0
0
0
0
0
0
0
0
0
0
0
0
0
0
0
0
0
0
0
0
0
0
0
0
0
0
0
0
0
0
0
0
0
0
0
0
0
0
0
0
0
0
0
0
0
0
0
0
0
0
0
0
0
0
0
0
0
0
0
0
0
0
0
0
0
0
0
0
0
0
0
0
0
0
0
0
0
0
0
0
0
0
0
0
0
0
0
0
0
0
0
0
0
0
0
0
0
0
0
0
0
0
0
0
0
0
0
0
0
0
0
0
0
0
0
0
0
0
0
0
0
0
0
0
0
0
0
0
0
0
0
0
0
0
0
0
0
0
0
0
0
0
0
0
0
0
0
0
0
0
0
0
0
0
0
0
0
0
0
0
0
0
0
0
0
0
0
0
0
0
0
0
0
0
0
0
0
0
0
0
0
0
0
0
0
0
0
0
0
0
0
0
0
0
0
0
0
0
0
0
0
0
0
0
0
0
0
0
0
0
0
0
0
0
0
0
0
0
0
0
0
0
0
0
0
0
0
0
0
0
0
0
0
0
0
0
0
0
0
0
0
0
0
0
0
0
0
0
0
0
0
0
0
0
0
0
0
0
0
0
0
0
0
0
0
0
0
0
0
0
0
0
0
0
0
0
0
0
0
0
0
0
0
0
0
0
0
0
0
0
0
0
0
0
0
0
0
0
0
0
0
0
0
0
0
0
0
0
0
0
0
0
0
0
0
0
0
0
0
0
0
0
0
0
0
0
0
0
0
0
0
0
0
0
0
0
0
0
0
0
0
0
0
0
0
0
0
0
0
0
0
0
0
0
0
0
0
0
0
0
0
0
0
0
0
0
0
0
0
0
0
0
0
0
0
0
0
0
0
0
0
0
0
0
0
0
0
0
0
0
0
0
0
0
0
0
0
0
0
0
0
0
0
0
0
0
0
0
0
0
0
0
0
0
0
0
0
0
0
0
0
0
0
0
0
0
0
0
0
0
0
0
0
0
0
0
0
0
0
0
0
0
0
0
0
0
0
0
0
0
0
0
0
0
0
0
0
0
0
0
0
0
0
0
0
0
0
0
0
0
0
0
0
0
0
0
0
0
0
0
0
0
0
0
0
0
0
0
0
0
0
0
0
0
0
0
0
0
0
0
0
0
0
0
0
0
0
0
0
0
0
0
0
0
0
0
0
0
0
0
0
0
0
0
0
0
0
0
0
0
0
0
0
0
0
0
0
0
0
0
0
0
0
0
0
0
0
0
0
0
0
0
0
0
0
0
0
0
0
0
0
0
0
0
0
0
0
0
0
0
0
0
0
0
0
0
0
0
0
0
0
0
0
0
0
0
0
0
0
0
0
0
0
0
0
0
0
0
0
0
0
0
0
0
0
0
0
0
0
0
0
0
0
0
0
0
0
0
0
0
0
0
0
0
0
0
0
0
0
0
0
0
0
0


VECTORS element_materi_velocity float
1.774634774025e-03 9.351154079030e-03 0.0 
1.919388409510e-03 8.620253776679e-03 0.0 
6.437456062461e-04 9.649127818181e-04 0.0 
8.351823118843e-05 1.492861049775e-03 0.0 
8.360247569355e-04 8.352465233727e-03 0.0 
-5.185129898412e-04 1.617683628597e-03 0.0 
6.286600952965e-04 8.283367828546e-03 0.0 
1.715329310198e-03 8.072701875483e-03 0.0 
6.959017047067e-04 8.333185642372e-03 0.0 
1.222296607745e-04 1.527707029794e-03 0.0 
1.219500591738e-04 -2.378990877915e-04 0.0 
1.338963059103e-03 8.325040214085e-03 0.0 
5.770485366622e-05 -4.915136804144e-06 0.0 
1.271747883240e-03 7.405133245245e-03 0.0 
4.770320635024e-05 3.310683105255e-07 0.0 
6.738981230399e-05 1.054815626256e-03 0.0 
1.080798796687e-03 8.662758686955e-03 0.0 
-4.443762806505e-04 1.382173638616e-03 0.0 
4.439652167850e-05 -6.447578395969e-04 0.0 
3.837206044004e-05 -6.381212067149e-04 0.0 
1.452859725638e-04 1.565035142785e-03 0.0 
2.108558027201e-03 9.858321255698e-03 0.0 
2.278621834029e-03 9.569044885582e-03 0.0 
8.007987903022e-04 1.900572086126e-04 0.0 
1.474951759715e-03 6.383995687354e-03 0.0 
1.354718691651e-04 -2.062842881046e-04 0.0 
1.697122622631e-03 9.288564211988e-03 0.0 
9.384772275735e-04 6.361616122015e-04 0.0 
1.565358503889e-03 6.363956744617e-03 0.0 
6.563269806989e-04 1.555622251789e-04 0.0 
-1.383141893420e-05 1.465374385815e-04 0.0 
-7.323367631688e-05 -5.292262678825e-04 0.0 
7.409567570445e-04 1.189081871367e-03 0.0 
3.958758879341e-05 -7.923858780993e-05 0.0 
3.179935967301e-04 3.751651256679e-05 0.0 
8.922910879876e-05 7.728971552048e-06 0.0 
8.151745950862e-05 6.432024109163e-06 0.0 
7.743354638030e-04 3.074760743592e-04 0.0 
5.222129372560e-04 9.243035683006e-03 0.0 
4.748858502551e-04 9.256227014743e-03 0.0 
2.356333691464e-03 9.657878122105e-03 0.0 
3.129784800486e-04 5.375008717821e-05 0.0 
5.880180662310e-04 6.314826399556e-03 0.0 
1.778190973870e-03 8.926236821379e-03 0.0 
4.466440109769e-05 2.115070731184e-03 0.0 
5.579699900152e-04 5.489606933684e-03 0.0 
-1.650035538474e-04 1.685780899630e-04 0.0 
5.076552050630e-05 1.796214871331e-03 0.0 
-3.613375806884e-04 8.365707957837e-05 0.0 
1.246215255407e-03 7.871120433206e-03 0.0 
2.338824357821e-03 9.669675097908e-03 0.0 
5.616692092280e-05 -6.240163439626e-04 0.0 
3.566809713155e-04 1.951217100144e-04 0.0 
2.254579523026e-03 9.997840074867e-03 0.0 
4.696818165719e-04 1.011175153519e-03 0.0 
1.231270068805e-04 -5.738930877770e-04 0.0 
4.807414748668e-05 -6.143061417012e-04 0.0 
8.027083687204e-05 -7.984500111474e-05 0.0 
6.672763478503e-05 -6.488455737820e-04 0.0 
8.082398505663e-05 1.063407018717e-03 0.0 
-6.253758537001e-04 4.482620938483e-04 0.0 
1.346855389124e-03 7.776947145599e-04 0.0 
2.777737006489e-03 6.193035630404e-03 0.0 
2.337268195133e-04 1.519519163674e-04 0.0 
9.414310632505e-05 -2.502264830340e-06 0.0 
2.197916342345e-03 1.000055823903e-02 0.0 
-6.114780084193e-04 5.620172643919e-04 0.0 
7.916512129840e-04 1.138824584014e-03 0.0 
1.352078855164e-04 -4.048334249039e-04 0.0 
7.581135004020e-04 7.308783098851e-04 0.0 
2.050807670268e-04 -1.719153811621e-04 0.0 
7.943105213766e-05 2.966892539538e-04 0.0 
1.228496984033e-03 8.614289207049e-04 0.0 
2.523381427278e-06 -6.697784668688e-04 0.0 
1.145716394379e-04 -5.592318010362e-04 0.0 
2.801901099568e-04 1.369293965154e-03 0.0 
5.851852404505e-04 1.222197195056e-03 0.0 
-2.920281765556e-04 3.707185218756e-03 0.0 
8.336579246450e-05 -6.433804400171e-04 0.0 
-3.286431788025e-04 4.209938551962e-03 0.0 
1.421699233131e-04 -3.536304624386e-04 0.0 
1.018582711180e-03 8.399983945480e-03 0.0 
2.166133105379e-03 9.339561634559e-03 0.0 
1.918909693717e-03 9.668788903061e-03 0.0 
7.881113285672e-04 7.781261468942e-03 0.0 
7.214917863217e-04 7.751689184650e-03 0.0 
1.206151821808e-04 -1.505436347358e-04 0.0 
2.127327847408e-05 -1.000581339561e-04 0.0 
1.873867126411e-03 3.228302739374e-03 0.0 
8.999260048581e-04 8.314906498045e-03 0.0 
-6.669569242566e-05 -5.056515816232e-04 0.0 
1.731238251581e-03 8.097526334431e-03 0.0 
1.353375315702e-04 4.228079874334e-03 0.0 
1.641010875483e-04 4.571112950157e-03 0.0 
1.582812770277e-04 5.497890621198e-04 0.0 
5.605932739850e-04 2.266472082288e-04 0.0 
1.144384725502e-03 8.420907078795e-03 0.0 
3.584627765696e-04 5.578822008228e-05 0.0 
1.008847712274e-04 6.712803845792e-03 0.0 
2.631755726184e-03 6.773676559288e-03 0.0 
8.104174286691e-04 8.841605057026e-03 0.0 
6.135009258968e-05 1.023889376972e-06 0.0 
2.245114948859e-03 1.294944474801e-03 0.0 
1.331144401177e-03 7.270380220351e-04 0.0 
2.130723863026e-03 4.258298824260e-03 0.0 
-2.167126644656e-04 6.220127797908e-05 0.0 
6.690978868080e-05 -2.677893058288e-05 0.0 
1.368866456168e-04 3.643455975236e-03 0.0 
-4.849061743322e-04 2.007339312921e-04 0.0 
1.134114935141e-04 6.436380461418e-06 0.0 
2.050678471201e-03 3.620032847584e-03 0.0 
3.255892681731e-06 -6.713819469940e-04 0.0 
2.833737228145e-03 3.480220745369e-03 0.0 
2.124334280180e-03 8.832900590290e-03 0.0 
2.245002805482e-04 -4.900942616076e-04 0.0 
2.423343527777e-03 6.735115935490e-03 0.0 
2.747708895743e-03 5.633034494834e-03 0.0 
2.262043869152e-04 2.930725057393e-05 0.0 
1.280319287943e-04 7.126075704939e-03 0.0 
2.547751443613e-03 5.547994164245e-03 0.0 
1.183114690429e-04 -5.169562570386e-04 0.0 
1.798838997677e-03 8.324287209110e-03 0.0 
1.080150198864e-04 3.340423782703e-03 0.0 
2.485343217970e-03 4.970665368022e-03 0.0 
-7.358656966050e-04 2.590887515269e-03 0.0 
2.287359243979e-03 9.384132317980e-03 0.0 
1.918462026274e-04 -5.053204434571e-04 0.0 
2.238214494093e-03 9.766414479084e-03 0.0 
2.128869152919e-04 9.688046267875e-04 0.0 
-4.812969600300e-04 2.413557970834e-03 0.0 
1.905841541591e-04 -2.010541063774e-04 0.0 
6.619522454411e-05 1.477894207869e-03 0.0 
2.943843920301e-03 7.253458534733e-03 0.0 
2.331743389636e-03 9.567628452881e-03 0.0 
3.431992685522e-04 4.450239900134e-05 0.0 
3.954491225691e-05 -5.407531518139e-06 0.0 
1.702700123331e-04 -1.480076381485e-04 0.0 
2.963869512231e-03 7.035786887359e-03 0.0 
4.599735164617e-04 1.034443469619e-04 0.0 
2.750477000724e-03 8.175652714939e-03 0.0 
1.639881961354e-04 1.087275198998e-03 0.0 
8.773695967995e-04 9.033097993849e-04 0.0 
1.348465582436e-03 7.351912050798e-03 0.0 
3.167741241646e-04 5.541145343079e-03 0.0 
2.831789017296e-03 7.827725022079e-03 0.0 
2.260387700967e-03 9.927712410644e-03 0.0 
3.035269280862e-03 6.491527518987e-03 0.0 
2.519780839893e-03 4.055605851041e-03 0.0 
6.004143480987e-04 8.767039258074e-03 0.0 
2.738489140661e-03 3.101495351786e-03 0.0 
-3.685499057319e-05 -5.550949666434e-04 0.0 
1.452602511408e-04 8.029724675362e-03 0.0 
3.176240743132e-05 -6.546113478204e-04 0.0 
2.216638459531e-03 9.136001268337e-03 0.0 
3.709291252204e-04 8.055465402307e-05 0.0 
2.229544243958e-03 4.817458073333e-03 0.0 
9.180122110193e-05 -1.252887470613e-04 0.0 
1.092702635036e-03 6.744376494286e-03 0.0 
2.292044567496e-03 1.415712776791e-03 0.0 
3.393112279746e-04 8.446905113829e-03 0.0 
2.576895874984e-03 3.007427253485e-03 0.0 
9.059938127371e-05 -5.971494509325e-05 0.0 
1.274960667185e-04 -4.855806625964e-04 0.0 
9.383557244354e-05 -2.580683295601e-05 0.0 
2.382065031536e-03 7.696246942550e-03 0.0 
1.294681048855e-04 3.864412731663e-06 0.0 
1.440805740655e-04 8.528482167899e-03 0.0 
2.282846183830e-03 3.910994034117e-03 0.0 
2.119379306613e-03 9.250238914004e-03 0.0 
7.798379803725e-05 -2.471218545439e-04 0.0 
1.052393514906e-03 7.670908492478e-03 0.0 
2.473169001638e-03 2.649734086813e-03 0.0 
2.765977669664e-04 5.020012484325e-03 0.0 
3.867733291729e-04 8.782756775239e-03 0.0 
2.607529449560e-03 3.710381567721e-03 0.0 
2.190361667134e-03 9.539970000763e-03 0.0 
1.845102535673e-03 2.203316095160e-03 0.0 
2.375468778727e-04 -4.584027664631e-04 0.0 
7.566737051314e-04 4.800090137700e-04 0.0 
9.208138374921e-04 8.584979294393e-04 0.0 
2.240673491710e-03 7.303692191980e-03 0.0 
2.130635561946e-04 -4.443424626166e-04 0.0 
1.203539908564e-03 3.417127779643e-04 0.0 
2.611821863308e-03 8.755866609682e-03 0.0 
1.948038937916e-03 7.214806667249e-03 0.0 
2.208329812189e-03 8.324309156265e-03 0.0 
2.783736714384e-03 3.811741102963e-03 0.0 
1.194288121026e-04 1.151061539587e-03 0.0 
1.797985686704e-03 3.770831155655e-03 0.0 
6.337369423468e-05 -4.215357163563e-05 0.0 
7.010455660721e-05 4.489966381618e-03 0.0 
2.175862811615e-03 2.211303820990e-03 0.0 
1.792466293604e-03 3.267902941320e-03 0.0 
-1.356853846076e-03 1.790097123359e-03 0.0 
2.521202937812e-03 9.062034956459e-03 0.0 
1.280577137371e-03 2.633543449706e-04 0.0 
4.047837523234e-05 -6.392233366917e-04 0.0 
6.822029690339e-04 1.295834607874e-03 0.0 
1.654899547806e-03 5.303699510317e-03 0.0 
8.812432180839e-04 -2.991410776946e-04 0.0 
1.343182743690e-03 3.069035537965e-04 0.0 
1.732390173156e-03 7.590646854744e-03 0.0 
1.454189869127e-03 6.849867406931e-03 0.0 
6.186549636968e-04 1.365143698996e-04 0.0 
5.189871762755e-04 -4.720384008678e-04 0.0 
3.132630025306e-03 5.654050247624e-03 0.0 
2.543280307195e-03 7.030750688893e-03 0.0 
1.544675408952e-03 4.836756109492e-03 0.0 
2.339252095205e-03 7.299134783053e-03 0.0 
2.310432062400e-03 8.212569537510e-03 0.0 
2.499693232168e-03 1.413254388261e-03 0.0 
2.010737437930e-03 2.582399300056e-03 0.0 
-9.580661795158e-04 1.529985519979e-03 0.0 
2.250514454688e-03 8.017198081721e-03 0.0 
2.637499125554e-03 7.360080343427e-03 0.0 
3.093736559137e-03 6.163463592007e-03 0.0 
1.631048677327e-03 3.341199905255e-03 0.0 
1.792373908909e-05 1.540683629426e-03 0.0 
1.276616323682e-03 2.073909300681e-04 0.0 
4.355875894523e-04 8.657547442444e-03 0.0 
2.281909116603e-03 2.537180430080e-03 0.0 
1.246336587725e-03 1.439947436129e-04 0.0 
-3.488239003509e-06 -6.035863171306e-04 0.0 
1.509880497564e-03 4.351780994924e-03 0.0 
-1.973031357748e-05 -6.088564031568e-04 0.0 
5.431394429217e-05 -6.440463908916e-04 0.0 
8.159401993239e-05 5.133607414088e-03 0.0 
4.118899951578e-04 -5.014260656145e-04 0.0 
1.376211666526e-03 3.887843301770e-03 0.0 
3.715387045351e-04 -4.987990852186e-04 0.0 
7.540519370495e-04 3.438884283247e-03 0.0 
2.938802241867e-04 -1.210494297158e-04 0.0 
1.759185621753e-04 -5.305620880485e-04 0.0 
1.318023290990e-03 3.536911138295e-04 0.0 
2.485318921310e-03 7.553511129640e-03 0.0 
1.121642059802e-04 -1.091938920056e-06 0.0 
-1.188231544077e-03 1.553975220055e-03 0.0 
1.371824599558e-03 3.366790694405e-03 0.0 
2.536818187967e-03 2.421257555731e-03 0.0 
2.531197451755e-03 9.023544798368e-03 0.0 
1.344235805824e-03 2.504874069052e-04 0.0 
1.402294233499e-04 7.824943731043e-06 0.0 
1.862642829481e-03 4.238773596862e-03 0.0 
1.488776775421e-03 1.853017520929e-03 0.0 
1.260131651884e-03 3.097086424841e-04 0.0 
1.003136518805e-04 -1.796815594766e-04 0.0 
3.020031013306e-03 6.264467192107e-03 0.0 
1.725065277453e-03 4.797174137746e-03 0.0 
1.131546584200e-03 6.555568442453e-04 0.0 
2.430112792136e-03 2.120453013274e-03 0.0 
1.117485493039e-03 3.643060918062e-03 0.0 
2.317987599114e-03 6.383960029906e-03 0.0 
1.283076644113e-04 5.040172606076e-04 0.0 
3.167596666953e-03 5.323956757923e-03 0.0 
2.550668678539e-03 1.499028126706e-03 0.0 
3.284090512113e-04 7.847981989587e-03 0.0 
5.980577860436e-05 -3.138311091514e-04 0.0 
2.238139372730e-03 7.402516028808e-03 0.0 
1.579767483116e-03 2.154196096309e-03 0.0 
4.863822072295e-04 1.441917623911e-03 0.0 
7.866388660588e-05 2.317915848186e-04 0.0 
1.294647003147e-03 3.898639880262e-03 0.0 
2.487544512858e-03 6.657755903804e-03 0.0 
2.623457493100e-03 4.556117935873e-03 0.0 
1.157217818044e-03 3.428916847044e-03 0.0 
1.883273947704e-03 3.727915579148e-03 0.0 
2.910560265392e-03 6.264203611646e-03 0.0 
1.613189428993e-04 1.569501925128e-05 0.0 
2.505540594595e-03 1.353703447443e-03 0.0 
2.772635451357e-03 6.172548763893e-03 0.0 
2.954949383577e-03 3.541597784967e-03 0.0 
2.537856978540e-03 1.389356043508e-03 0.0 
9.236803873995e-04 1.381676705014e-03 0.0 
1.576410020013e-03 8.242734297708e-03 0.0 
2.362726572955e-03 1.679067664262e-03 0.0 
1.101715767066e-03 3.552116368763e-04 0.0 
1.773540607477e-03 4.276505027202e-03 0.0 
-1.225629060227e-03 1.359729109890e-03 0.0 
2.184906177785e-03 6.979579237267e-03 0.0 
1.638250279546e-03 1.692556594812e-03 0.0 
1.274542914853e-03 2.932877278630e-03 0.0 
8.706321638363e-04 1.155137779891e-03 0.0 
2.333106212610e-03 5.885195648911e-03 0.0 
-7.437346210146e-06 -5.066499046229e-04 0.0 
2.739149697666e-03 7.777235741476e-03 0.0 
2.461774355101e-03 1.247907825756e-03 0.0 
2.386770190642e-03 6.783404185053e-03 0.0 
1.572013730170e-03 7.625707239790e-03 0.0 
-1.943779145805e-04 1.231018180690e-03 0.0 
1.166559639061e-03 4.928529117313e-04 0.0 
8.860998228878e-04 1.723058108140e-04 0.0 
2.438927890125e-03 8.035025609370e-03 0.0 
1.816501403144e-03 4.763062986675e-03 0.0 
2.777027639531e-03 7.283866019575e-03 0.0 
2.214379985701e-03 1.592283969781e-03 0.0 
2.260417300819e-03 2.023052935265e-03 0.0 
1.364135263517e-05 1.301091236878e-03 0.0 
2.967502315773e-03 3.225034816262e-03 0.0 
5.945477338492e-05 3.061242926772e-03 0.0 
2.414931954552e-04 4.965346315980e-04 0.0 
3.137402973002e-04 5.114316125077e-04 0.0 
3.174889949654e-03 4.861324970910e-03 0.0 
1.237664305629e-03 1.738470966575e-03 0.0 
8.857232121492e-04 2.409537253490e-03 0.0 
2.787390546381e-03 5.672501058177e-03 0.0 
1.045302838034e-03 1.905618533323e-03 0.0 
9.400944629487e-04 2.921260005990e-04 0.0 
2.946245602950e-03 6.538815112956e-03 0.0 
2.131298149865e-04 1.321296808637e-03 0.0 
1.963337195649e-03 2.094243522907e-03 0.0 
2.568065758292e-03 1.569237485427e-03 0.0 
3.581667491678e-04 2.842731232836e-03 0.0 
2.303893975044e-04 6.310831342540e-05 0.0 
1.115218905611e-03 2.212246665419e-03 0.0 
3.052641030354e-03 5.753948940026e-03 0.0 
2.405162991066e-04 1.133924148292e-03 0.0 
1.843380456594e-03 4.732331795024e-04 0.0 
2.470924667925e-03 1.932745833507e-03 0.0 
9.794738226490e-04 1.204457584048e-04 0.0 
2.642550430836e-03 6.867887921354e-03 0.0 
3.262808807919e-04 3.737020522746e-04 0.0 
1.965854162018e-03 1.646875679494e-03 0.0 
2.372389192546e-03 1.094766516672e-03 0.0 
3.281804143919e-04 2.483821447901e-03 0.0 
1.064567711274e-03 5.836987040652e-03 0.0 
1.316790822415e-03 1.850763807256e-04 0.0 
1.592611256589e-03 4.409110531125e-03 0.0 
1.058480439017e-03 6.331940854346e-03 0.0 
3.881173744878e-04 3.239824004941e-04 0.0 
1.159418172729e-03 1.859993446651e-04 0.0 
3.308473960845e-04 4.246925422835e-04 0.0 
1.298905007795e-03 6.356242869639e-03 0.0 
2.129888543661e-03 3.553814451845e-03 0.0 
9.033466899887e-04 4.488161353353e-03 0.0 
2.609672990882e-03 7.746798103110e-03 0.0 
2.681490655553e-03 6.352518112888e-03 0.0 
2.610301783304e-03 6.007324836872e-03 0.0 
3.175936625934e-03 5.077251257754e-03 0.0 
3.970894698960e-04 2.711331437006e-04 0.0 
1.641879684109e-03 6.794408803325e-03 0.0 
2.178850058850e-03 7.911367807061e-03 0.0 
2.152882589353e-03 1.748562061018e-03 0.0 
2.965610152644e-04 -5.209494594199e-04 0.0 
2.421892878755e-03 8.461225122586e-03 0.0 
1.818305265869e-03 4.064316069702e-03 0.0 
2.912201725537e-04 8.754881115281e-03 0.0 
9.210982069150e-04 2.130920432309e-05 0.0 
1.860863257517e-03 1.804306255659e-03 0.0 
1.542550805456e-03 3.854767690052e-03 0.0 
1.700619981243e-03 3.556065181836e-03 0.0 
2.682378888213e-03 7.213310943893e-03 0.0 
2.285547840437e-03 9.798934910909e-04 0.0 
1.261401171300e-03 -3.486625383140e-05 0.0 
3.507158382557e-04 1.800250608916e-04 0.0 
2.571061049274e-03 8.757750959128e-03 0.0 
1.115602887927e-03 7.362164844358e-04 0.0 
8.652484276412e-04 -3.013200363454e-04 0.0 
1.869662671950e-03 6.492979911173e-03 0.0 
1.706391777355e-03 5.027171582321e-03 0.0 
1.604702157675e-03 2.858786928651e-03 0.0 
3.003834738827e-03 5.520314436446e-03 0.0 
2.608557808020e-03 8.654092774304e-03 0.0 
2.616342074091e-03 8.092051579612e-03 0.0 
3.148187510387e-04 1.133875325831e-04 0.0 
7.895626277807e-04 2.951650093444e-04 0.0 
1.528572802399e-03 2.889168316080e-03 0.0 
1.597294649026e-03 4.332731957453e-03 0.0 
1.293509622826e-03 -3.231660816436e-05 0.0 
2.917259953287e-03 6.186149288474e-03 0.0 
1.164586988901e-03 1.478220254111e-03 0.0 
1.547465136065e-03 1.438422430853e-03 0.0 
3.106772764078e-03 5.471595922524e-03 0.0 
1.927830183221e-03 5.295354246486e-04 0.0 
6.318849485356e-04 -3.586569060153e-04 0.0 
1.301388224943e-03 2.945962781053e-03 0.0 
1.054039853218e-03 5.724476141791e-04 0.0 
3.121542582200e-03 4.732979234656e-03 0.0 
2.826775694078e-03 6.487330703927e-03 0.0 
2.987773491537e-03 5.183021341969e-03 0.0 
3.244714410089e-04 4.671663168578e-04 0.0 
2.856991007282e-04 5.215174096455e-04 0.0 
7.188477449353e-04 1.289699138283e-03 0.0 
1.299995466336e-03 8.742169055001e-06 0.0 
1.083036062890e-03 3.427049479174e-03 0.0 
1.220586865444e-03 4.177129866916e-03 0.0 
1.863420079864e-03 1.401962410600e-03 0.0 
4.584503639777e-04 1.210209961983e-03 0.0 
2.834232075100e-03 7.622655652839e-03 0.0 
1.422377929916e-03 8.291933770330e-03 0.0 
1.216809897982e-03 6.356158532647e-03 0.0 
5.835724799615e-04 1.615169960431e-04 0.0 
1.756450802018e-03 2.794136584530e-03 0.0 
2.217236308732e-03 6.476753836364e-03 0.0 
2.614673315217e-03 5.513547763581e-03 0.0 
6.490835371790e-04 1.073259446502e-03 0.0 
-6.735095947501e-05 -3.642379842881e-04 0.0 
2.777455485527e-03 2.828888161990e-03 0.0 
3.174268137280e-03 4.282614639405e-03 0.0 
2.885256505208e-03 2.891050586869e-03 0.0 
-7.882791071379e-04 2.941208371314e-03 0.0 
2.730648904428e-04 7.590371199503e-03 0.0 
2.463860826993e-04 -5.134415808071e-04 0.0 
1.491011625422e-03 2.704727432535e-03 0.0 
1.224811761706e-04 3.517081373574e-05 0.0 
2.303149923916e-03 1.121987673029e-03 0.0 
2.082296173711e-03 7.988190980009e-03 0.0 
1.901350572418e-05 -6.588349458312e-04 0.0 
3.165825776370e-03 5.449809245368e-03 0.0 
2.679511406179e-03 2.506343532608e-03 0.0 
2.429970055530e-03 5.776583760503e-03 0.0 
3.526053200875e-04 3.617027389522e-04 0.0 
2.511883147620e-03 7.924135521317e-03 0.0 
2.866509907930e-03 5.479300573783e-03 0.0 
6.917022657564e-04 -3.420018057038e-04 0.0 
1.310554133782e-03 3.416797575439e-03 0.0 
1.249629073016e-03 6.664092544826e-06 0.0 
3.820239046517e-04 3.540433741883e-04 0.0 
1.681004666925e-04 2.278646408997e-04 0.0 
1.131634177107e-04 2.471471585020e-04 0.0 
1.573693229838e-04 2.721299365495e-04 0.0 
2.422894827267e-03 5.288452235633e-03 0.0 
1.389479121250e-03 3.402771001192e-03 0.0 
1.471207014034e-03 2.418556511961e-03 0.0 
3.011952045898e-03 5.659702048432e-03 0.0 
2.910807186959e-03 6.690575893507e-03 0.0 
5.289655003020e-04 -4.065866283494e-04 0.0 
1.376625121775e-03 2.930596789172e-03 0.0 
3.948346857138e-04 2.979458850973e-04 0.0 
1.082907299008e-03 2.963783632658e-03 0.0 
2.455048612337e-03 1.263315344644e-03 0.0 
1.154678951367e-03 2.962460939546e-03 0.0 
2.695751601638e-03 2.496508969571e-03 0.0 
3.142038075580e-03 4.317178578741e-03 0.0 
2.770494236146e-03 8.038486892757e-03 0.0 
5.895850060882e-04 2.280364249514e-03 0.0 
3.056430649003e-04 1.072279524604e-03 0.0 
2.863053288180e-03 5.149467446442e-03 0.0 
1.248194271106e-03 9.796158350753e-04 0.0 
5.842647862016e-04 -3.933522239601e-04 0.0 
7.372306821230e-04 -1.142813818339e-04 0.0 
4.534664236419e-04 1.204668161684e-04 0.0 
1.889188421601e-03 3.275819448803e-03 0.0 
1.627469293921e-04 1.968279013837e-04 0.0 
5.143659423176e-04 9.796866096843e-04 0.0 
2.999223052528e-03 5.044145390987e-03 0.0 
-1.605459675656e-04 -3.521503153095e-04 0.0 
1.890713686876e-04 1.848285880614e-04 0.0 
5.398978400768e-04 1.750006494571e-04 0.0 
7.853083177344e-04 -3.012239428249e-05 0.0 
2.268769512018e-03 9.956775089860e-04 0.0 
3.527604378589e-04 1.653763202494e-04 0.0 
-2.400507751861e-04 -3.771135176352e-04 0.0 
3.047457478063e-03 4.735882052731e-03 0.0 
2.853955034889e-03 5.003177797510e-03 0.0 
3.108677804917e-03 4.998484423690e-03 0.0 
2.935539384221e-03 5.756221187218e-03 0.0 
9.526066768698e-04 2.771718108219e-03 0.0 
1.951648385238e-04 1.547676143672e-04 0.0 
2.107406477882e-03 1.360897768111e-03 0.0 
-1.608784633834e-04 9.988804206016e-04 0.0 
2.084117899886e-04 1.969357816476e-05 0.0 
-1.730554395610e-04 -3.916656868579e-04 0.0 
2.696180443916e-03 8.186140263128e-03 0.0 
7.685582533883e-05 2.461545788684e-05 0.0 
2.323695683310e-03 8.606923325868e-03 0.0 
2.814653546686e-04 9.194745952635e-05 0.0 
1.974196227059e-04 1.279548729706e-04 0.0 
2.515625764250e-03 6.149699860250e-03 0.0 
-1.236699001239e-04 -4.137804281366e-05 0.0 
-3.393145843532e-04 9.337690639798e-04 0.0 
1.872645476732e-05 -5.692321152448e-05 0.0 
6.397883067447e-04 2.636488187120e-05 0.0 
1.499394750192e-03 8.579162736231e-03 0.0 
2.040730401564e-03 7.558064899253e-03 0.0 
1.774031145278e-04 9.506317945333e-05 0.0 
1.347317254015e-03 8.620680417294e-03 0.0 
2.113555937238e-04 4.879911964116e-04 0.0 
2.558067195448e-03 2.199894659440e-03 0.0 
1.124901060641e-03 6.856358840037e-03 0.0 
2.108321053919e-03 5.916184176432e-03 0.0 
2.348885121363e-03 1.125958053454e-03 0.0 
2.727305288123e-04 1.605224202768e-03 0.0 
1.794477141309e-04 8.041443881112e-05 0.0 
1.563709743164e-04 2.393016759581e-04 0.0 
1.283297777445e-04 2.493874730960e-04 0.0 
1.172263557976e-03 -3.286713282213e-05 0.0 
4.319721253093e-04 -4.490099417360e-04 0.0 
3.099161118463e-03 3.942472405262e-03 0.0 
1.116946258731e-03 -2.914328064132e-05 0.0 
1.693610460278e-04 6.396811409328e-05 0.0 
1.398571080900e-03 2.346277674052e-03 0.0 
1.191423700373e-03 2.944424253718e-04 0.0 
1.192108697107e-03 1.348854123602e-04 0.0 
9.823028079470e-04 6.312687683101e-03 0.0 
2.055138373828e-04 5.125228857263e-05 0.0 
-1.661125118110e-04 -1.152460809590e-04 0.0 
1.360076496576e-04 4.252804103650e-05 0.0 
9.940877101160e-04 -1.490767791748e-05 0.0 
1.635339513999e-04 1.768741508908e-04 0.0 
1.541554825570e-03 2.393506369787e-03 0.0 
-3.115899088393e-04 -3.194539218793e-04 0.0 
3.026476033342e-03 3.925566616059e-03 0.0 
9.447830968140e-04 2.950482816712e-03 0.0 
1.929525359641e-04 1.692147861269e-04 0.0 
2.512922067901e-03 5.167791262089e-03 0.0 
2.390443755383e-03 1.793758750899e-03 0.0 
4.327475728941e-05 2.365350446549e-03 0.0 
8.524342247257e-04 2.583593108605e-04 0.0 
9.890899869132e-04 -1.197921453135e-04 0.0 
1.121395626939e-03 3.961755183912e-05 0.0 
-3.865861502700e-04 -4.514343774021e-06 0.0 
1.996698471901e-04 1.431782707300e-04 0.0 
7.300636039940e-04 1.531506033553e-03 0.0 
1.090869464759e-03 1.969519928650e-04 0.0 
1.104447966739e-03 7.404171113507e-03 0.0 
6.189356391260e-04 -3.706047649614e-04 0.0 
1.123176396018e-03 1.794967366852e-04 0.0 
2.700617282490e-03 5.358693333880e-03 0.0 
1.733127237279e-04 8.496188143829e-05 0.0 
4.236154906419e-04 -4.273178760434e-04 0.0 
1.195138282953e-03 7.680613225170e-05 0.0 
3.165384789888e-03 4.131274254100e-03 0.0 
1.660527387319e-03 2.810582247185e-04 0.0 
1.339703671333e-03 3.600396065680e-04 0.0 
1.267665098470e-03 4.590617004115e-05 0.0 
3.186046233989e-03 4.543043729114e-03 0.0 
2.663250499254e-03 2.991449886856e-03 0.0 
2.168733592150e-03 9.900400516103e-04 0.0 
3.161088122103e-03 3.894407522217e-03 0.0 
7.610829757683e-04 -3.384902600153e-04 0.0 
1.776861750484e-03 2.858395115276e-03 0.0 
4.827381656927e-04 -4.387084572516e-04 0.0 
2.546829519338e-03 2.052099251010e-03 0.0 
2.351934770522e-03 1.061846009619e-03 0.0 
2.584888258283e-04 7.769885477223e-05 0.0 
9.289750349329e-04 2.509458383621e-03 0.0 
5.266655567874e-04 -4.038664306626e-04 0.0 
1.454577050110e-04 4.941941848985e-05 0.0 
6.324544127193e-04 1.945689105316e-04 0.0 
2.881517930274e-03 2.628919283839e-03 0.0 
-2.844038457343e-04 -9.983818351862e-05 0.0 
1.855241160851e-04 4.224400655937e-05 0.0 
1.128585477995e-03 2.514704828318e-03 0.0 
8.119999002903e-04 -1.440930425933e-04 0.0 
1.079082213337e-04 2.793749968966e-05 0.0 
1.126068002746e-03 7.720194353617e-06 0.0 
2.957896897859e-03 7.036541756833e-03 0.0 
2.084051091758e-03 7.058304934763e-03 0.0 
2.409003549132e-03 1.179334722638e-03 0.0 
1.182438856950e-03 -7.798371570495e-05 0.0 
1.756954859930e-03 3.922682376835e-04 0.0 
1.747875264844e-03 5.283166576042e-03 0.0 
2.886315078371e-03 7.344611025482e-03 0.0 
2.142820487767e-03 1.071874828766e-03 0.0 
2.581450619866e-04 7.018201156575e-03 0.0 
6.999213175935e-04 -3.597688556088e-04 0.0 
2.153938463359e-03 8.844096566297e-04 0.0 
9.267089593234e-04 -1.859771261597e-04 0.0 
6.077093113309e-04 -1.680852014657e-04 0.0 
-4.027942339917e-04 -2.023183467059e-04 0.0 
2.158996027031e-03 3.436765546526e-03 0.0 
9.330670391027e-04 -9.615093728254e-05 0.0 
6.173651921847e-04 -3.379161675312e-04 0.0 
3.014523843152e-03 2.954034378306e-03 0.0 
1.199421327445e-03 4.323841966913e-05 0.0 
9.680301631481e-04 6.801955322097e-03 0.0 
7.607364655178e-04 -2.126345042178e-04 0.0 
9.760561604902e-05 2.331478888297e-05 0.0 
2.918372824881e-03 4.803929365486e-03 0.0 
5.390153593566e-04 -3.282907227774e-04 0.0 
3.049934384894e-03 4.804668395733e-03 0.0 
5.588562394922e-04 -3.510814962173e-04 0.0 
-3.163573713875e-04 -2.749970286489e-04 0.0 
2.017793508802e-03 6.623380178963e-03 0.0 
1.475077777104e-04 -4.795977195459e-04 0.0 
-2.618788263133e-05 -6.248892562382e-04 0.0 
4.471998054487e-04 -3.720039009596e-04 0.0 
1.110235834915e-03 7.245003290206e-05 0.0 
2.696828809288e-04 3.075121674182e-03 0.0 
1.816523321192e-03 3.993239497180e-04 0.0 
1.749011339287e-03 3.565260080608e-04 0.0 
2.013087612473e-03 8.492010334481e-03 0.0 
1.343596900614e-03 9.245534016532e-03 0.0 
3.658076027761e-04 9.942941172625e-04 0.0 
3.141828348846e-03 4.718306961778e-03 0.0 
-2.589600198102e-05 -6.322301169077e-04 0.0 
1.627340353592e-04 -5.551735008308e-04 0.0 
-2.174252990908e-04 -2.416031813852e-04 0.0 
4.871850963749e-04 -4.748172155862e-04 0.0 
1.891110032095e-03 2.131556513042e-03 0.0 
3.081106380205e-04 3.106946284075e-03 0.0 
6.797502892330e-04 7.039080379173e-06 0.0 
4.575083921481e-04 -5.032015364765e-04 0.0 
5.499933831764e-04 -1.804034396120e-04 0.0 
9.578745285504e-04 1.716993961935e-04 0.0 
2.307684966116e-04 9.272096085086e-04 0.0 
1.043781136150e-04 -4.814271540245e-04 0.0 
6.875913536965e-05 -5.476273864990e-04 0.0 
1.704982093486e-04 3.497848869647e-05 0.0 
8.791850003608e-05 1.892921767639e-05 0.0 
1.116045186220e-04 -4.315427983868e-04 0.0 
4.819428945898e-04 -3.387833643101e-04 0.0 
1.143667636946e-03 -7.390651818550e-05 0.0 
9.137881446955e-04 1.996770689685e-04 0.0 
2.083124485535e-04 -5.618809775969e-04 0.0 
9.842218710701e-04 1.361657368527e-04 0.0 
3.911216894796e-05 -6.501580109582e-04 0.0 
4.634927406667e-04 -3.954864023003e-04 0.0 
6.575873948354e-04 -3.020318370891e-04 0.0 
1.916229868849e-05 -6.595298232493e-04 0.0 
8.786525605588e-05 -4.567448571486e-04 0.0 
8.650325878932e-04 2.498024935545e-03 0.0 
-1.127406673095e-05 -6.481602685569e-04 0.0 
1.486448403112e-03 9.165379900626e-03 0.0 
1.549996067789e-03 9.418039727392e-03 0.0 
1.830831569310e-03 5.002865111194e-04 0.0 
3.406475298013e-05 -5.501735617809e-04 0.0 
8.194225767404e-04 -2.308773797532e-04 0.0 
6.864548055847e-04 3.001454889178e-03 0.0 
4.329879715617e-04 1.949428672912e-05 0.0 
7.542029956970e-04 5.865217674915e-04 0.0 
5.582607328508e-04 3.735627804906e-03 0.0 
2.030906167568e-03 5.241536369971e-03 0.0 
5.092283273296e-05 -5.291216557760e-04 0.0 
2.710516376432e-03 7.871321793116e-03 0.0 
9.519527684972e-04 9.287786927440e-03 0.0 
8.902620260491e-04 9.600089071127e-03 0.0 
-1.060525986364e-05 -6.427496302822e-04 0.0 
1.884670322194e-05 -6.511485657475e-04 0.0 
2.638794187359e-05 -6.625660256809e-04 0.0 
3.157098892434e-04 -5.593479559274e-04 0.0 
1.236615144611e-05 -6.631654244759e-04 0.0 
9.255211132990e-05 -4.039237904732e-04 0.0 
-6.301122816403e-04 2.229932793964e-04 0.0 
3.982205164691e-04 -5.290283146356e-04 0.0 
2.296150602420e-04 5.895008475090e-03 0.0 
1.267945271299e-03 9.565742253546e-03 0.0 
1.618703350031e-03 1.906277595066e-03 0.0 
1.055265056409e-03 1.019900991926e-05 0.0 
2.065118094838e-04 6.791733955041e-03 0.0 
1.856620690865e-05 -5.295147795829e-04 0.0 
2.633207249620e-05 -6.625787022491e-04 0.0 
4.565735278393e-05 2.676004310761e-04 0.0 
1.041169238626e-04 5.569184051409e-04 0.0 
1.023754700317e-03 7.369020766812e-03 0.0 
1.078156519669e-03 9.299395274646e-03 0.0 
9.291214788266e-05 -5.260259168526e-04 0.0 
6.785617318674e-05 5.293477118603e-04 0.0 
3.746742528413e-04 -5.377439822175e-04 0.0 
1.405711229436e-03 9.503004533964e-03 0.0 
1.207086995957e-03 9.290588904718e-03 0.0 
2.411833231822e-03 8.834465382273e-03 0.0 
9.819217601311e-05 2.408440379096e-04 0.0 
8.218606252543e-05 5.273114320573e-04 0.0 
1.161754621151e-05 -6.558283780742e-04 0.0 
-1.165297338766e-06 -6.550760788475e-04 0.0 
1.064293601172e-04 -5.679462135102e-04 0.0 
7.196921743327e-04 -2.857343129085e-04 0.0 
4.348635631440e-05 -1.488446470293e-05 0.0 
-7.678075514693e-04 3.552701393469e-04 0.0 
7.241939947097e-05 3.885787759711e-03 0.0 
-5.094775636606e-04 1.857392134452e-05 0.0 
1.666656681941e-03 3.504625318549e-04 0.0 
-5.086155883774e-04 -5.560930792836e-05 0.0 
-6.294351013871e-04 1.290046928012e-04 0.0 
1.586910516388e-03 2.512451395038e-04 0.0 
1.737811342879e-04 -1.760640733002e-05 0.0 
1.926700848725e-04 6.228284429492e-03 0.0 
2.883929436647e-03 7.074699577959e-03 0.0 
1.611408352827e-05 -6.651896892439e-04 0.0 
4.524868265198e-04 -1.684939869605e-04 0.0 
1.624668604416e-05 3.159404993799e-04 0.0 
3.202563423279e-05 5.352508023807e-04 0.0 
1.137052928986e-03 9.594200602150e-03 0.0 
1.722566408662e-03 4.450843668288e-04 0.0 
3.652870974150e-05 2.597110009811e-04 0.0 
2.368678821666e-03 1.667861873374e-03 0.0 
1.634183343380e-05 -6.661375586198e-04 0.0 
9.858768294592e-06 -6.681271583068e-04 0.0 
1.003064882273e-05 -6.690877042509e-04 0.0 
2.115900607174e-05 -4.828275623441e-04 0.0 
3.501176067101e-05 2.127000416360e-06 0.0 
8.710213408364e-06 1.455851000910e-03 0.0 
3.948788213004e-06 -6.691060558017e-04 0.0 
4.765384269206e-05 -4.026702719580e-04 0.0 
1.184875744946e-05 7.151609112116e-07 0.0 
4.955971269196e-05 3.576117744035e-06 0.0 
1.567786134728e-04 2.893846936667e-05 0.0 
4.061436946399e-05 4.860406635771e-03 0.0 
1.595843705629e-05 3.394985432613e-03 0.0 
2.316300322155e-05 1.411839505148e-06 0.0 
2.639670947041e-05 2.164278238887e-06 0.0 
3.545300706059e-05 3.886265502300e-03 0.0 
1.782384295716e-06 -6.710158601591e-04 0.0 
6.675080300336e-04 9.614143714622e-03 0.0 
1.013011583595e-03 9.604321149478e-03 0.0 
3.243132447674e-06 -6.634873992825e-04 0.0 
4.423823779172e-05 5.722543459324e-06 0.0 
1.471600324014e-04 2.413028230266e-05 0.0 
7.296112824113e-05 1.124108395606e-05 0.0 
1.081084448244e-06 -6.664905615454e-04 0.0 
-2.743563860226e-06 -6.590994988292e-04 0.0 
8.257970931255e-05 1.604927102007e-05 0.0 
7.419890416023e-05 1.288919834660e-05 0.0 
2.111979945969e-05 5.361989639022e-03 0.0 
3.493011589954e-04 9.626402902770e-03 0.0 
1.949457000430e-05 4.367932791570e-03 0.0 
2.578182335693e-05 7.338013205209e-03 0.0 
1.494112563642e-04 9.624349481990e-03 0.0 
-4.784269689244e-05 -6.098249583464e-04 0.0 
-1.190394654011e-04 -5.375932096731e-04 0.0 
-1.701631214784e-04 -4.828513605202e-04 0.0 
-2.346402368353e-04 -4.110696303076e-04 0.0 
2.451514166668e-05 -3.745275694814e-04 0.0 
2.313870102538e-05 -4.307470007428e-04 0.0 
-1.230482181103e-04 -5.183252331652e-04 0.0 
2.612936333291e-05 -2.051012047584e-04 0.0 
-1.755334228985e-04 -4.566130940611e-04 0.0 
7.885022489007e-05 2.530998081660e-04 0.0 
3.132746344523e-05 2.696367108792e-04 0.0 
5.845957107867e-05 2.893179740647e-04 0.0 
7.580418259013e-06 -6.504364245081e-04 0.0 
1.549854607148e-05 -5.699358050566e-04 0.0 
2.968085879680e-05 3.245318918409e-04 0.0 
1.831431031933e-05 -5.908358573554e-05 0.0 
1.577894818864e-05 2.193103030009e-04 0.0 
1.345756103960e-05 -2.702276944338e-05 0.0 
8.178390509355e-06 -6.854613399630e-06 0.0 
4.429770709712e-05 -4.572025780198e-04 0.0 
6.100832224203e-05 5.941686027201e-04 0.0 
4.545980698543e-05 5.438421948418e-04 0.0 
3.177187135894e-05 -4.212862558273e-05 0.0 
2.163595154896e-05 -1.515324961633e-05 0.0 
2.698313030284e-04 -1.380484922606e-04 0.0 
-4.059333102415e-04 -1.454501517778e-04 0.0 
3.737739961652e-04 -4.352357312998e-04 0.0 
6.732666538968e-06 -6.449856282462e-04 0.0 
4.023588527731e-04 1.059953292527e-05 0.0 
5.180767099435e-04 -3.850566390907e-04 0.0 
3.132157218756e-04 -5.544513949222e-05 0.0 
2.846615785395e-04 -5.636398173443e-04 0.0 
4.989734864867e-05 -6.313917531066e-04 0.0 
2.175212238398e-04 -2.818358937765e-05 0.0 
3.934665777785e-04 -3.803466999260e-04 0.0 
7.937677156488e-05 -5.057458324830e-04 0.0 
2.744605532257e-04 -6.163368552000e-05 0.0 
9.934216261808e-05 2.463601025990e-03 0.0 
3.972521298039e-05 -5.066885199314e-04 0.0 
1.082596000657e-03 9.874932442340e-05 0.0 
7.892770257847e-04 -1.207918272381e-04 0.0 
3.184068136784e-04 -1.318627007911e-04 0.0 
2.317910855660e-04 -1.161639882370e-04 0.0 
1.943474999381e-03 1.272262590454e-03 0.0 
2.784977469870e-03 7.910210365717e-03 0.0 
3.036076484387e-03 3.253749229112e-03 0.0 
5.065939745637e-04 -1.587134790262e-04 0.0 
1.951991391608e-04 -5.095743014770e-05 0.0 
1.524913943402e-04 -9.947994635929e-05 0.0 
4.042011708189e-04 -4.687211257662e-04 0.0 
1.882491491949e-04 2.539911363535e-03 0.0 
2.409512084326e-04 3.518748439662e-03 0.0 
4.501806868222e-04 8.129496819353e-03 0.0 
5.671855479498e-04 -1.161214481374e-04 0.0 
4.098874267613e-04 -1.462506332802e-04 0.0 
1.284577074145e-04 2.514792703506e-03 0.0 
1.646200274280e-04 3.019201787980e-03 0.0 
8.393455885724e-04 -1.366036863557e-04 0.0 
1.474646816801e-04 -2.120431226702e-05 0.0 
5.063188162053e-04 3.706298016418e-03 0.0 
1.083874201859e-04 -1.013842950826e-04 0.0 
2.957532494243e-04 7.473802914976e-06 0.0 
2.194429302794e-04 2.564497351338e-03 0.0 
4.262285900988e-04 5.087342680108e-03 0.0 
1.043715933071e-03 4.136113588513e-05 0.0 
1.539765101553e-04 -6.099931739101e-04 0.0 
3.771557253271e-04 -4.219250418408e-04 0.0 
5.222525062330e-05 -5.555001994653e-04 0.0 
-3.046129809891e-04 -1.665907622495e-04 0.0 
1.991342123749e-04 3.018065860451e-03 0.0 
1.566713183703e-04 -3.654099955306e-05 0.0 
-2.323087657391e-04 -2.931412528564e-04 0.0 
1.334954662264e-03 2.475144535235e-03 0.0 
5.291098466947e-04 7.634065655636e-03 0.0 
3.630720282247e-04 -7.166837897226e-05 0.0 
1.981368260962e-04 -7.206560722749e-05 0.0 
8.085959117760e-04 -2.949070640300e-04 0.0 
1.599089085820e-04 -7.618264771734e-05 0.0 
5.085374920382e-04 8.146436057599e-03 0.0 
2.099637740937e-03 8.827425796797e-04 0.0 
2.253551504515e-04 1.006397060633e-05 0.0 
8.107067746663e-05 -6.196301678275e-04 0.0 
3.760709301453e-04 2.839788722519e-05 0.0 
3.288722635529e-04 4.542064315516e-03 0.0 
1.312942107512e-04 -6.013564092500e-04 0.0 
4.884659079745e-04 -4.411656294409e-04 0.0 
2.170269187884e-04 -3.146307460402e-04 0.0 
5.811643607814e-04 6.153875593929e-03 0.0 
4.346525104797e-04 -4.872907884155e-04 0.0 
2.430384940187e-04 3.993778290964e-03 0.0 
3.682886230492e-04 5.542413519404e-03 0.0 
4.579809847964e-04 -3.144479812975e-04 0.0 
1.855600254085e-04 -1.208484017507e-04 0.0 
2.369503720118e-04 -9.067849235572e-05 0.0 
2.829206737666e-04 4.507179062755e-03 0.0 
1.527673100995e-04 -6.211541849819e-04 0.0 
3.727140591273e-04 -3.554870371797e-04 0.0 
1.720292348576e-03 8.839569267877e-04 0.0 
3.743089350852e-04 4.093010966959e-03 0.0 
3.599180185199e-04 -4.117470565231e-04 0.0 
7.270107385043e-04 -1.385386639349e-04 0.0 
4.931595195901e-04 3.901607089460e-05 0.0 
3.740638556373e-04 5.056165913411e-03 0.0 
-3.136469163638e-04 7.433175842283e-04 0.0 
5.790294069351e-05 -6.097537737610e-04 0.0 
6.154285824916e-04 8.734667822414e-04 0.0 
2.297325920224e-04 -4.619792490929e-05 0.0 
4.744841461143e-04 5.603788168319e-03 0.0 
1.586836140127e-04 -2.634092314915e-04 0.0 
6.118188001724e-04 7.163192646783e-03 0.0 
9.110982238823e-04 1.454452315478e-04 0.0 
3.754871681209e-04 -2.973700684122e-04 0.0 
2.787406462797e-04 -8.500607588664e-05 0.0 
1.293486228441e-04 -6.136240156681e-04 0.0 
3.236497129603e-04 1.419796168017e-05 0.0 
4.024853770040e-04 -3.228088552007e-04 0.0 
1.036802713332e-04 -6.047242897306e-04 0.0 
3.206711270100e-04 -3.611731310501e-04 0.0 
3.884347671696e-04 -4.783621226116e-04 0.0 
3.610849115267e-04 -5.421127398679e-04 0.0 
2.094883281969e-04 -2.568740786414e-04 0.0 
-4.687915127278e-05 -6.006452967965e-04 0.0 
-7.891711412167e-05 -5.656874802524e-04 0.0 
3.592376396585e-04 -1.540919529983e-04 0.0 
1.459353704913e-04 -6.197254627652e-04 0.0 
5.135216379780e-04 -1.274680371761e-04 0.0 
6.179738126899e-04 -1.350486518413e-04 0.0 
6.445211315843e-04 -3.953186535692e-04 0.0 
6.477746140571e-04 -2.538815457840e-04 0.0 
4.347410686117e-04 3.200095237919e-03 0.0 
-3.844012544204e-04 1.755196692213e-03 0.0 
3.367328767339e-04 -4.646610253987e-04 0.0 
8.672237453762e-04 1.728581466527e-04 0.0 
1.157008775828e-04 -6.320546196011e-04 0.0 
5.679213895924e-04 6.641716149616e-03 0.0 
5.900895835235e-04 7.665253517462e-03 0.0 
1.913843797177e-04 -5.802967313585e-04 0.0 
6.271414095478e-04 5.594401675260e-05 0.0 
6.467663325707e-04 4.725498755984e-03 0.0 
1.677255765356e-04 -6.146335355612e-04 0.0 
4.486153604665e-04 2.768561920130e-03 0.0 
4.050342517458e-04 2.736966466739e-03 0.0 
2.048719405512e-04 -5.996516454417e-04 0.0 
2.369367355952e-03 6.069434676017e-03 0.0 
2.866873066327e-04 -5.726216700677e-04 0.0 
3.221568704838e-04 -1.043057802985e-04 0.0 
2.924762289014e-04 -2.779825282692e-04 0.0 
1.060801191887e-03 2.517176412564e-03 0.0 
3.903165242637e-04 3.169817926968e-03 0.0 
4.146328140763e-04 -1.168722301864e-04 0.0 
4.641598772491e-04 -1.078701420165e-04 0.0 
2.280489587860e-04 -5.809463365318e-04 0.0 
3.677330837789e-04 -9.715662941187e-05 0.0 
5.883697114805e-04 4.696963032410e-03 0.0 
2.399047550443e-04 -2.834568006368e-04 0.0 
5.311896872511e-04 5.635765981727e-03 0.0 
5.233740605644e-04 4.185591892582e-03 0.0 
2.480501001540e-03 1.445547655452e-03 0.0 
3.646978168047e-04 3.614920472789e-03 0.0 
2.906760382241e-04 -3.927132809768e-04 0.0 
3.214626966855e-04 -3.041367009877e-04 0.0 
3.032674816944e-04 -5.127133318579e-04 0.0 
6.864569809715e-04 -3.999151294306e-04 0.0 
5.348028016622e-04 5.150801186462e-03 0.0 
1.060707759088e-03 -1.590020918324e-04 0.0 
2.768162651294e-04 -5.739551035059e-04 0.0 
1.005462706682e-04 -5.873323804423e-04 0.0 
5.923665854656e-04 5.181090238855e-03 0.0 
3.085160652883e-04 -5.641021215901e-04 0.0 
3.992743255567e-04 3.613285623174e-05 0.0 
4.270009618254e-04 4.605118679519e-03 0.0 
4.062177090779e-04 -6.375833113202e-05 0.0 
4.965031034817e-04 1.466865343366e-04 0.0 
3.091704110827e-04 -4.184275437035e-04 0.0 
2.314427720006e-04 -5.923765050522e-04 0.0 
1.399228770745e-04 -5.929754215245e-04 0.0 
5.655984424354e-04 -8.638119638853e-05 0.0 
4.118996572472e-04 6.060458614421e-03 0.0 
5.847765003155e-05 -5.953965585860e-04 0.0 
3.891450878476e-04 -4.973961166312e-04 0.0 
8.285902377971e-05 -6.295358370428e-04 0.0 
6.425391670621e-04 6.184731735260e-03 0.0 
3.430370130708e-04 -4.860953510178e-04 0.0 
6.759257573389e-04 -1.208127709961e-04 0.0 
2.613942291235e-04 -5.171614675116e-04 0.0 
2.803060959019e-04 3.551218265590e-03 0.0 
3.757818138649e-04 -5.294624993090e-04 0.0 
7.264031653804e-04 -4.323266559331e-05 0.0 
3.502341220854e-04 -4.602648559180e-04 0.0 
6.777239403400e-04 -8.903177483757e-05 0.0 
2.445536694114e-04 -3.402813543314e-04 0.0 
5.081804830195e-04 -7.010213681244e-05 0.0 
1.417470769577e-03 4.923022609047e-04 0.0 
1.035230297392e-04 -6.268975653639e-04 0.0 
4.923106895496e-04 7.100763501074e-03 0.0 
1.585096290367e-03 2.849072170175e-04 0.0 
3.140845468982e-03 5.142549024562e-03 0.0 
4.659304458507e-04 6.090656496639e-03 0.0 
4.693224228736e-04 -3.930821129107e-04 0.0 
8.457004019362e-04 5.777229480276e-03 0.0 
9.791642414176e-05 -6.355958804418e-04 0.0 
5.135831899479e-04 1.632585346171e-05 0.0 
1.644817117956e-03 3.762253293832e-04 0.0 
2.084192418345e-03 9.672444513582e-04 0.0 
3.260492390951e-04 2.220632776422e-03 0.0 
1.068479026632e-03 -1.087168027650e-04 0.0 
1.708903115310e-04 -6.139747065217e-04 0.0 
9.183666599873e-04 -7.824165133723e-05 0.0 
5.259124069890e-04 5.090785854570e-05 0.0 
7.653984020025e-04 -2.860574668080e-04 0.0 
4.604058278050e-04 -8.024449340174e-05 0.0 
4.788696322519e-04 4.636599372464e-03 0.0 
6.118511629861e-04 -1.585469205620e-04 0.0 
7.957176315902e-04 -8.689918485360e-05 0.0 
8.764298052198e-04 7.274378966833e-03 0.0 
1.605961421070e-04 -5.836745382654e-04 0.0 
4.280095533893e-04 -5.035464310739e-04 0.0 
3.155022341573e-03 3.833140936310e-03 0.0 
6.181848901767e-04 -7.352740393384e-05 0.0 
2.996594067853e-03 6.597831719402e-03 0.0 
3.125905579252e-03 3.573717043310e-03 0.0 
7.137613723061e-04 5.238192096589e-03 0.0 
5.093930157984e-04 6.610474865733e-03 0.0 
8.953349914470e-04 6.780135923710e-03 0.0 
2.964179734514e-04 -3.352615816466e-04 0.0 
7.727606498583e-04 7.847108681303e-05 0.0 
1.044365177244e-03 -6.102003426896e-05 0.0 
6.759793935604e-04 7.199810500145e-03 0.0 
1.228719295466e-03 1.977523650959e-03 0.0 
2.025785613444e-03 1.024073063843e-03 0.0 
7.352495273109e-04 -7.286502539193e-05 0.0 
4.714377651392e-04 4.155517285029e-03 0.0 
6.414829400442e-04 -4.107157964173e-04 0.0 
5.298879496415e-04 -4.608871195619e-04 0.0 
2.083741067470e-04 -5.943098686900e-04 0.0 
9.877052026716e-04 -1.837013941332e-05 0.0 
4.847082301851e-04 -4.579553099114e-04 0.0 
7.131264430854e-04 5.725477309611e-03 0.0 
8.392423797738e-04 6.268378991561e-03 0.0 
2.250709094674e-03 9.673535131252e-04 0.0 
5.010573467741e-04 -4.858787805645e-04 0.0 
1.667644031883e-03 1.305258822806e-03 0.0 
4.726005267303e-04 -4.903698934736e-04 0.0 
5.801789795086e-04 -4.438030053609e-04 0.0 
2.359641438897e-04 -5.902770636429e-04 0.0 
9.313250038904e-04 1.094694053984e-04 0.0 
9.581345875273e-04 -2.520665037112e-04 0.0 
4.099579764321e-04 3.645946097914e-03 0.0 
1.096168296172e-03 -1.699437966771e-04 0.0 
9.859270675215e-04 -5.272570860662e-05 0.0 
1.031882457490e-03 -1.500024144535e-04 0.0 
2.942211099604e-03 2.663188662426e-03 0.0 
2.124194094165e-04 -6.001789167116e-04 0.0 
6.657144150463e-04 7.169057217789e-05 0.0 
5.785111445857e-04 7.629212066139e-05 0.0 
2.796434572828e-03 3.182248005732e-03 0.0 
6.975441359006e-04 -3.891007375214e-04 0.0 
1.024493866174e-03 -9.955417102924e-05 0.0 
6.501282773351e-04 5.696911175451e-03 0.0 
5.886819174132e-04 -4.122469216091e-04 0.0 
2.995267886323e-03 4.303175607613e-03 0.0 
3.366828316518e-04 -5.394028985885e-04 0.0 
6.057131720935e-04 -3.110512563136e-04 0.0 
7.617439856155e-04 -3.524249990797e-04 0.0 
2.902861291547e-04 -5.619061210631e-04 0.0 
1.872203622214e-04 -5.938403985138e-04 0.0 
9.598160777758e-04 -1.798389551240e-04 0.0 
8.582396883962e-04 -6.657871953143e-05 0.0 
1.975720977622e-03 1.983196712442e-03 0.0 
-7.580767286208e-05 -5.799244664887e-04 0.0 
1.419292540373e-03 6.639647687099e-05 0.0 
1.177101728655e-03 -1.221072997993e-04 0.0 
8.241651930888e-04 -3.252975426784e-04 0.0 
7.711950470017e-04 6.242429394556e-03 0.0 
1.009108469191e-03 -2.016713599230e-04 0.0 
3.434031485441e-04 -5.235921585690e-04 0.0 
8.897633628500e-04 -2.852196258890e-04 0.0 
3.283449712743e-04 4.061133369653e-03 0.0 
3.029232964898e-04 -5.311761453895e-04 0.0 
8.955045702809e-05 -6.158370844074e-04 0.0 
1.612884233765e-04 -6.078077523069e-04 0.0 
6.646508488164e-04 -3.249843018022e-04 0.0 
6.166573168298e-04 -4.336902063262e-04 0.0 
1.331346743422e-03 -1.726553217669e-05 0.0 
1.022750704222e-03 -2.093124000220e-04 0.0 
3.070761230471e-04 -4.048259399849e-04 0.0 
1.473493626338e-04 -6.175707370699e-04 0.0 
1.205277299810e-03 6.869901881939e-03 0.0 
2.563662820479e-04 -5.692666744172e-04 0.0 
9.829552172136e-04 9.174304467886e-05 0.0 
2.205217441086e-03 2.107337005580e-03 0.0 
2.135968952375e-03 6.058717729287e-03 0.0 
6.908945093277e-04 3.336236885829e-03 0.0 
1.711620955890e-03 1.797506766764e-03 0.0 
2.378112513185e-03 1.250827871662e-03 0.0 
2.536102053440e-03 2.640565253364e-03 0.0 
4.305720239645e-04 -3.257492036342e-04 0.0 
8.170653336241e-04 -3.001067888443e-04 0.0 
2.697672304709e-03 2.282824999834e-03 0.0 
7.366266285064e-04 1.155543124772e-04 0.0 
2.459175277753e-04 -3.287265773791e-04 0.0 
5.353526960060e-04 -4.447281786582e-04 0.0 
1.101551000299e-03 -1.711170787747e-04 0.0 
1.250190784772e-03 -7.457441007638e-05 0.0 
2.622831324905e-04 -5.543474387630e-04 0.0 
1.136075548234e-03 -1.217936776633e-04 0.0 
1.335630945861e-03 -4.130691415356e-06 0.0 
1.590054789049e-03 2.001589655400e-04 0.0 
5.664405112233e-04 -4.559630233606e-04 0.0 
1.876944857629e-03 6.006448246892e-04 0.0 
7.782879983848e-04 5.263994670248e-03 0.0 
1.686148143773e-03 3.322326486266e-04 0.0 
8.186475886845e-04 9.898521593823e-05 0.0 
5.736585296927e-04 -2.296056228877e-04 0.0 
7.165623739808e-04 1.441904310175e-04 0.0 
1.236365610530e-03 -7.873473478366e-05 0.0 
1.393852248900e-03 1.525727639317e-03 0.0 
2.753771063609e-03 4.722417382872e-03 0.0 
5.026548284893e-04 -3.458874017210e-04 0.0 
2.234549114440e-03 5.488874438437e-03 0.0 
8.791807418444e-04 2.939242969306e-03 0.0 
1.375950003072e-03 2.109097458622e-05 0.0 
2.495936697645e-03 3.284793111827e-03 0.0 
2.308033265861e-03 4.917078588490e-03 0.0 
3.188863800851e-03 4.633117528512e-03 0.0 
3.271600160688e-04 -3.558448129680e-04 0.0 
3.414813911663e-04 1.409179861165e-03 0.0 
2.188715969570e-04 -4.289106668613e-04 0.0 
1.211296376813e-03 4.652556666634e-04 0.0 
2.878937578768e-04 2.644708482704e-03 0.0 
1.677405211865e-03 4.598087784452e-04 0.0 
6.934567892610e-04 6.709190144309e-03 0.0 
7.278392795375e-04 3.813319572637e-03 0.0 
1.500867084866e-03 1.191935320764e-04 0.0 
2.256087485178e-03 9.161846272520e-04 0.0 
5.344281818526e-04 2.375268590463e-03 0.0 
7.826841367836e-04 -2.530113164953e-05 0.0 
8.361541787429e-04 4.800333406435e-03 0.0 
1.490813165385e-03 2.557492526185e-04 0.0 
4.595142832043e-04 -2.666371353305e-04 0.0 
8.846234744506e-04 4.335864556702e-03 0.0 
9.238430337140e-04 6.955375239114e-04 0.0 
6.091202014571e-04 9.097040568851e-05 0.0 
8.833245132325e-04 -2.739636111193e-04 0.0 
7.591145034503e-04 6.738321669444e-03 0.0 
8.082566499951e-04 7.258514309572e-03 0.0 
1.157893850287e-03 -1.250943424090e-04 0.0 
9.159576622613e-04 -1.192038873848e-05 0.0 
9.588321599399e-04 4.160297268254e-05 0.0 
1.295017727724e-04 -6.071229103146e-04 0.0 
1.324914315212e-03 1.338632644505e-03 0.0 
1.872228444228e-03 5.018860403010e-04 0.0 
1.594076599365e-03 2.335200344056e-04 0.0 
3.096208637312e-03 3.587217987019e-03 0.0 
4.250648998716e-04 1.893311762443e-03 0.0 
1.264529808125e-03 2.492483683451e-03 0.0 
3.248394844925e-04 2.676554500472e-03 0.0 
3.006213961911e-03 6.878106509405e-03 0.0 
1.063063081864e-03 3.896799170911e-03 0.0 
8.540525555202e-04 -3.461302612598e-05 0.0 
4.040080211444e-04 2.300081807892e-03 0.0 
1.049327068631e-03 4.851838145897e-03 0.0 
9.380535028791e-04 -2.331694488425e-04 0.0 
1.976719348761e-03 6.975495988603e-04 0.0 
8.177338054185e-04 4.316125703389e-03 0.0 
5.901224323170e-04 2.838831768571e-03 0.0 
6.337125983001e-04 4.243457404644e-03 0.0 
7.703048070184e-04 4.777759193428e-03 0.0 
6.836254863288e-04 4.230444235206e-05 0.0 
1.444238057186e-03 6.179960023894e-04 0.0 
8.281941261918e-04 6.289782154926e-05 0.0 
9.059131659690e-04 -1.143739757770e-04 0.0 
2.477547491595e-03 8.993510167011e-03 0.0 
1.679530397681e-03 5.319017531842e-04 0.0 
1.456413084578e-03 4.852732979932e-03 0.0 
2.163255865731e-04 -5.885907972494e-04 0.0 
1.775561869690e-03 3.905270107552e-04 0.0 
1.779681974264e-03 3.545342719044e-04 0.0 
2.197357678840e-03 8.530772517511e-04 0.0 
8.745329072236e-04 5.038491787001e-04 0.0 
1.877471268105e-03 5.632548019121e-04 0.0 
2.075148849902e-03 7.770632655279e-04 0.0 
2.796927760661e-03 7.325480448182e-03 0.0 
9.175864130617e-04 -2.203367214224e-04 0.0 
1.142520931068e-03 5.847661677051e-03 0.0 
7.369139186857e-04 8.851897749964e-03 0.0 
-1.111922298299e-03 3.522917595363e-03 0.0 
9.536022624336e-04 -1.273921698067e-04 0.0 
1.546238392077e-03 4.050390235764e-04 0.0 
1.014356650759e-03 2.095713594331e-03 0.0 
2.212122213742e-03 8.710872352847e-04 0.0 
9.255210431761e-04 -1.663913422129e-04 0.0 
9.160656584083e-04 5.799718773428e-03 0.0 
-7.832267142032e-04 5.102038493120e-03 0.0 
1.749442096617e-03 5.302814288696e-04 0.0 
2.094891966142e-03 7.019409594684e-04 0.0 
2.775459355651e-03 7.012723075461e-03 0.0 
8.986337428684e-04 1.689059739151e-05 0.0 
6.942107390869e-04 1.226266146236e-05 0.0 
9.257112783411e-04 6.568558995492e-05 0.0 
7.817641787621e-04 1.266466704855e-04 0.0 
1.953086187994e-03 6.880296567903e-04 0.0 
6.927244466691e-04 4.269915268428e-03 0.0 
2.230682145738e-03 1.664401659050e-03 0.0 
7.422104107439e-04 1.068829863302e-04 0.0 
-4.898790373384e-05 7.975530148494e-03 0.0 
9.868270483768e-04 5.327073272387e-03 0.0 
1.535236611963e-03 7.929685277141e-04 0.0 
6.686792925127e-04 3.789683350683e-03 0.0 
2.101789736964e-03 7.615148785444e-04 0.0 
2.070580499454e-03 7.599642197472e-04 0.0 
5.443696615739e-04 -2.705322780529e-04 0.0 
3.739300133726e-05 8.622389370064e-04 0.0 
5.302640939779e-04 3.261020479799e-03 0.0 
1.918944062661e-04 -5.797893692872e-04 0.0 
9.783103631031e-04 1.006061524675e-02 0.0 
2.407289115148e-03 2.053333127901e-03 0.0 
2.902790161899e-04 2.190498121106e-03 0.0 
5.225427699548e-04 -1.225022463655e-04 0.0 
3.127317263356e-03 4.020270097831e-03 0.0 
9.753682695703e-04 4.838087355727e-03 0.0 
7.577050633831e-04 -2.483707425120e-04 0.0 
8.254313889498e-04 3.611688399750e-04 0.0 
2.284337931179e-03 3.155788907556e-03 0.0 
2.649007574483e-04 -2.689144756867e-04 0.0 
5.568247104442e-04 -3.585165189249e-05 0.0 
3.999213584386e-04 -1.638444563326e-04 0.0 
2.188351745606e-03 8.222888949649e-04 0.0 
1.827172112429e-04 4.790674355929e-04 0.0 
1.598172463379e-03 1.085121415171e-02 0.0 
5.505513425649e-04 2.811266862064e-05 0.0 
2.149344161031e-03 1.233832222088e-03 0.0 
1.218980713060e-03 5.356746466913e-03 0.0 
4.150476067953e-04 8.037027579387e-04 0.0 
6.778791120347e-04 1.242331194960e-04 0.0 
3.750855049816e-04 -2.369206429719e-04 0.0 
2.256833924887e-04 -5.408973746489e-04 0.0 
1.958119455306e-03 7.753623894808e-04 0.0 
1.399961949427e-03 3.198172586662e-05 0.0 
1.684909363531e-03 8.114473174245e-04 0.0 
2.801210111179e-03 4.649879683705e-03 0.0 
1.340053509811e-03 4.378554443857e-03 0.0 
1.228270918015e-03 5.008526424276e-04 0.0 
9.145026265815e-04 5.309058176408e-03 0.0 
1.075064084057e-03 2.088858441345e-03 0.0 
9.211037070802e-04 3.872311821757e-03 0.0 
9.424099522605e-04 3.410243855292e-03 0.0 
7.786087379012e-04 1.795197149397e-03 0.0 
5.549997963477e-04 -5.702060005076e-07 0.0 
1.025964068271e-03 4.366743567141e-03 0.0 
2.646546117301e-03 1.706319049711e-03 0.0 
1.905777448128e-03 1.096900228722e-02 0.0 
1.025111073745e-03 4.250607439756e-04 0.0 
1.036306576358e-03 1.030312579573e-03 0.0 
2.269164810604e-04 -5.596205323686e-04 0.0 
1.842740450320e-03 8.779800201064e-04 0.0 
1.773190447451e-05 -6.413663644068e-04 0.0 
3.039913890187e-03 2.954163318190e-03 0.0 
1.744304486520e-03 6.022313499068e-04 0.0 
7.462756309211e-04 2.476959382823e-03 0.0 
7.094990000894e-04 2.027402218830e-03 0.0 
1.890357515819e-03 6.879958576933e-04 0.0 
7.498874730789e-04 3.358362061368e-03 0.0 
2.384894559604e-03 1.525060179014e-03 0.0 
2.367737777144e-03 2.434854206195e-03 0.0 
2.010925572566e-03 1.070582241031e-02 0.0 
1.396457233886e-03 2.012431199983e-03 0.0 
1.978171235550e-03 1.018671915237e-02 0.0 
1.925109677152e-03 9.856169666083e-03 0.0 
2.351743144721e-03 1.129939618112e-03 0.0 
1.849906377222e-03 9.492498176100e-03 0.0 
2.836701587466e-03 2.164096304512e-03 0.0 
2.791877809124e-03 2.343238326186e-03 0.0 
1.950730792368e-03 5.590542930808e-04 0.0 
6.578105570782e-04 3.019336620166e-04 0.0 
2.172643126611e-03 9.092252207861e-04 0.0 
5.400587152850e-04 2.814849266487e-03 0.0 
1.168596298972e-03 2.003730286805e-03 0.0 
6.568048747117e-04 -3.202577268189e-05 0.0 
1.475206048369e-03 6.730530299261e-04 0.0 
1.485820696358e-03 9.791362183339e-05 0.0 
8.753768782851e-04 3.395984358526e-03 0.0 
2.049834766939e-03 6.828376755789e-04 0.0 
4.411955439502e-04 -4.307619562398e-06 0.0 
8.537219123209e-04 3.855183601488e-03 0.0 
1.138086837524e-03 3.902364947387e-03 0.0 
1.913173133525e-03 5.853743185554e-04 0.0 
2.284937061324e-03 1.187048416281e-03 0.0 
2.005729276477e-03 1.897253637103e-03 0.0 
2.679552672760e-03 4.884732434847e-03 0.0 
6.230004366956e-04 1.761393243038e-04 0.0 
9.785677174950e-04 8.369282683943e-04 0.0 
2.873740722796e-03 4.250727134114e-03 0.0 
3.114917106649e-03 4.289021563712e-03 0.0 
3.381536190738e-04 -5.279289632811e-06 0.0 
1.100890369080e-03 4.376971419528e-03 0.0 
2.180501724797e-03 1.008031870391e-03 0.0 
2.889561581733e-03 3.555834720047e-03 0.0 
1.529282922585e-03 4.633577502432e-04 0.0 
5.816708052708e-04 3.288618161791e-03 0.0 
1.756600137696e-03 1.744283118909e-03 0.0 
1.304857686709e-03 5.852993782001e-03 0.0 
1.144408947260e-03 2.312105163334e-04 0.0 
2.113310513163e-03 7.358323987773e-04 0.0 
1.468027801733e-03 4.069676710598e-04 0.0 
3.091163473363e-03 3.240377225286e-03 0.0 
5.847168431178e-04 2.409668811077e-03 0.0 
1.440762358336e-03 1.488716393134e-03 0.0 
2.018063513364e-03 6.284252013832e-04 0.0 
7.792383502861e-04 7.619608044520e-04 0.0 
2.041317619392e-03 1.422503554482e-03 0.0 
2.973393838085e-03 2.644325140057e-03 0.0 
2.278485655498e-03 1.311210938511e-03 0.0 
2.015955350952e-03 6.572107636730e-04 0.0 
1.099546883708e-03 1.514672532984e-04 0.0 
7.367665747237e-04 5.926505850144e-04 0.0 
2.063816005136e-03 6.605818552480e-04 0.0 
2.216551395953e-03 5.008888902885e-03 0.0 
3.073777200409e-04 -1.202760736724e-05 0.0 
2.268105430952e-03 4.448552695793e-03 0.0 
2.236289829392e-03 1.776180627623e-03 0.0 
2.138163144587e-03 5.569602712356e-03 0.0 
1.920317758841e-03 6.677344466217e-03 0.0 
2.705907396472e-03 4.274314180950e-03 0.0 
1.609477122778e-03 6.777530241347e-04 0.0 
6.319299314530e-04 -8.109192333606e-06 0.0 
1.204495015268e-03 4.867313766241e-03 0.0 
6.563443980869e-04 2.017576513514e-03 0.0 
2.037381238472e-03 6.126618374390e-03 0.0 
1.843073263207e-03 1.066965935086e-03 0.0 
1.845664141976e-03 1.278657572284e-03 0.0 
4.440446646701e-04 2.318771472256e-03 0.0 
2.904847225584e-03 2.413411384362e-03 0.0 
2.987131967748e-03 2.670637931959e-03 0.0 
2.044958951043e-03 1.040639650673e-03 0.0 
1.257675099342e-03 4.384146878851e-03 0.0 
3.082033707490e-03 6.055835615037e-03 0.0 
2.740125760570e-03 1.939307677615e-03 0.0 
3.090938919207e-03 5.622132549099e-03 0.0 
1.922693294452e-03 8.408054206821e-04 0.0 
1.382934871079e-03 8.982586812269e-04 0.0 
1.967945360103e-03 7.777805507144e-04 0.0 
4.147721225470e-05 6.806581525813e-04 0.0 
8.185396767126e-04 2.038249507158e-03 0.0 
3.084706832116e-03 6.332370935050e-03 0.0 
1.636736342475e-03 2.223724178317e-04 0.0 
1.621018620829e-03 1.052610356041e-03 0.0 
1.286255989870e-03 4.868923449088e-03 0.0 
7.609062038949e-04 1.054033974672e-06 0.0 
2.595790962285e-03 2.010031843190e-03 0.0 
-1.311265844766e-04 6.268481564249e-04 0.0 
2.182486004976e-04 -8.580636477620e-06 0.0 
3.074734258467e-03 3.636921373418e-03 0.0 
2.298660115267e-03 1.226137201976e-03 0.0 
1.800720640523e-03 1.587164581805e-03 0.0 
-4.601098846650e-04 6.996148816818e-04 0.0 
8.149507032386e-04 2.055312562821e-05 0.0 
1.831714925372e-03 2.283672437441e-03 0.0 
1.390804678321e-03 5.847644217269e-03 0.0 
7.537391854095e-04 -1.923162344099e-04 0.0 
2.069665108983e-03 9.390018212060e-04 0.0 
4.048867737870e-04 -1.346228335528e-05 0.0 
2.890916732355e-03 2.376615175917e-03 0.0 
1.902619531720e-03 9.624085413282e-04 0.0 
3.002465369659e-03 3.506055339258e-03 0.0 
-1.162096937965e-04 4.586902436049e-04 0.0 
2.552765254590e-03 2.496180899942e-03 0.0 
1.865716182626e-03 7.562208307353e-04 0.0 
1.151296999285e-03 1.253924501165e-03 0.0 
2.223635801907e-03 1.999836267283e-03 0.0 
1.304818432103e-03 8.148078979609e-04 0.0 
6.061121864789e-04 -4.615376157678e-05 0.0 
3.847450997211e-04 1.860797146320e-03 0.0 
8.098056715648e-04 3.600709895591e-04 0.0 
1.798276200749e-03 7.993427543532e-04 0.0 
2.493734453785e-03 1.595617440573e-03 0.0 
2.811440309236e-03 2.998341695795e-03 0.0 
2.479184973929e-04 -2.336173144323e-05 0.0 
1.665067457854e-04 -3.192328166691e-04 0.0 
2.402819339117e-03 2.182969114477e-03 0.0 
1.138739067232e-03 5.351498698956e-03 0.0 
5.132412691387e-04 -1.230892522076e-05 0.0 
7.776319681607e-04 4.247773251358e-05 0.0 
2.966066111288e-04 9.337147243095e-03 0.0 
1.980528434963e-04 9.338525143178e-03 0.0 
2.090619870354e-03 4.608645539807e-03 0.0 
2.694919436812e-03 2.663159223498e-03 0.0 
6.508525044967e-04 -1.886049165949e-04 0.0 
2.575458364226e-03 3.988992092425e-03 0.0 
2.856424772141e-03 2.181900050704e-03 0.0 
1.051800316439e-03 2.905594146062e-04 0.0 
2.596432761497e-03 1.826910935504e-03 0.0 
1.633752601199e-04 4.913232058493e-04 0.0 
1.936974702199e-03 7.641740151152e-03 0.0 
2.924378046693e-03 2.420731714011e-03 0.0 
8.186164996805e-04 -1.733724975532e-04 0.0 
1.249682126232e-03 1.117263895090e-03 0.0 
8.492807883868e-04 -2.453712166280e-04 0.0 
2.918210774080e-03 3.148034151961e-03 0.0 
3.016858467995e-03 4.365036467558e-03 0.0 
1.386688679274e-03 5.353006585028e-03 0.0 
2.491741180484e-03 3.566489558086e-03 0.0 
2.330613593481e-03 3.277098931296e-03 0.0 
3.675147903938e-05 -6.572121770256e-04 0.0 
8.034886985957e-04 -2.843471217732e-04 0.0 
3.121829407701e-03 5.948810078113e-03 0.0 
2.482876357456e-03 4.698545069509e-03 0.0 
2.352921281913e-03 4.350680150356e-03 0.0 
1.385145334544e-03 5.208478004761e-04 0.0 
1.015148621550e-05 -6.306712409153e-04 0.0 
5.241341693262e-04 3.824131842414e-04 0.0 
3.110368544803e-03 3.471745552148e-03 0.0 
7.392872889028e-04 -3.049635430392e-04 0.0 
2.009233372550e-03 9.769741851251e-03 0.0 
1.936567296637e-03 9.427544734103e-03 0.0 
1.474467363513e-03 5.342408550866e-03 0.0 
5.523865994164e-04 1.972652277516e-03 0.0 
7.268383391873e-04 -2.288323712519e-04 0.0 
1.479284973140e-03 3.489573776584e-04 0.0 
5.539886686979e-04 5.304497685141e-04 0.0 
7.618943464368e-04 5.349165144877e-04 0.0 
7.575116677803e-04 2.915851241612e-03 0.0 
5.729169983939e-04 -2.936393468007e-04 0.0 
5.394787160112e-04 -3.397590044875e-05 0.0 
4.642664576462e-05 -6.529809798035e-04 0.0 
1.460258941225e-03 2.799473331543e-04 0.0 
3.068147988229e-03 3.386530145525e-03 0.0 
3.712777424113e-05 -6.586975939997e-04 0.0 
6.994040573334e-04 2.895357164723e-03 0.0 
3.960794685639e-04 6.299959636489e-04 0.0 
2.563562995042e-03 4.570340671968e-03 0.0 
3.048690645820e-03 4.129567097449e-03 0.0 
1.664629965532e-03 2.537194822130e-04 0.0 
1.345943155594e-03 8.976767700872e-05 0.0 
6.916396308323e-04 2.467827151895e-03 0.0 
1.267544236449e-03 1.153229657973e-04 0.0 
3.016704506604e-03 2.887145621033e-03 0.0 
3.081692219443e-03 3.199672320031e-03 0.0 
-1.198854472361e-03 2.973425281561e-03 0.0 
2.158845692977e-04 5.719220297938e-04 0.0 
2.051372989312e-03 1.617537876565e-03 0.0 
1.844067698153e-03 6.223334893283e-03 0.0 
1.850111828241e-03 1.361912925794e-03 0.0 
1.936368648218e-03 2.629421697925e-03 0.0 
1.549525850842e-03 3.365289230131e-03 0.0 
1.819761741083e-03 1.508969212649e-03 0.0 
2.025645965602e-03 8.923778595558e-03 0.0 
2.043188737859e-03 1.711557529650e-03 0.0 
4.941334602931e-04 -4.507048322972e-05 0.0 
2.809395436261e-03 2.625072566275e-03 0.0 
8.230922677442e-04 -2.286240674974e-04 0.0 
8.571028578195e-04 -1.901419593807e-04 0.0 
8.785941813072e-04 2.047290229213e-03 0.0 
1.381465412862e-03 5.752365624903e-05 0.0 
2.988821913720e-03 3.729949597408e-03 0.0 
2.625644368882e-03 1.570745150576e-03 0.0 
1.146290799971e-03 1.317772015887e-04 0.0 
2.824916700348e-03 2.163569987015e-03 0.0 
1.410730428946e-03 7.225324705363e-04 0.0 
1.908916568463e-03 4.913684244868e-04 0.0 
1.671944208151e-03 9.820830712302e-04 0.0 
2.507332353647e-03 4.122703531468e-03 0.0 
1.582445120195e-03 8.016025024375e-04 0.0 
2.766324896929e-03 4.110594784569e-03 0.0 
1.567358941338e-03 6.162017979856e-04 0.0 
1.699180907482e-03 6.532069382573e-04 0.0 
2.772640453218e-03 2.127666307426e-03 0.0 
1.568990106734e-03 5.817007240370e-03 0.0 
4.315872432574e-04 -3.255817179462e-05 0.0 
3.914461472567e-04 -4.110366310762e-05 0.0 
4.248253666131e-05 2.061508711174e-03 0.0 
2.691139071471e-03 3.692943445048e-03 0.0 
2.426230786177e-04 -3.677940945998e-06 0.0 
2.496890205770e-03 8.868709720400e-03 0.0 
5.699841080579e-04 -2.362332408942e-04 0.0 
-1.038822885888e-03 3.136754528006e-03 0.0 
3.339697787534e-04 -2.875609240272e-05 0.0 
1.381158811545e-03 1.002470997436e-03 0.0 
1.385798678570e-04 -2.945940241158e-04 0.0 
2.357419795604e-03 1.353012966493e-03 0.0 
1.661159966653e-03 5.794275070260e-03 0.0 
1.748404084193e-03 6.258601915208e-03 0.0 
2.993002061620e-03 3.049045235771e-03 0.0 
2.089215871383e-03 1.032288496981e-02 0.0 
2.062040377215e-03 1.007118494755e-02 0.0 
2.988850342255e-04 -3.518752094708e-05 0.0 
1.350105338065e-03 1.256167601823e-04 0.0 
1.687388097980e-03 2.705162130258e-04 0.0 
1.532702502222e-03 3.348680950816e-04 0.0 
1.918464471056e-03 5.003662580322e-04 0.0 
1.576569896344e-03 1.090676138805e-03 0.0 
2.010039331351e-03 1.047181775549e-02 0.0 
1.882819642432e-03 7.195944473916e-03 0.0 
2.491393994564e-04 9.627004377263e-03 0.0 
1.645531150862e-03 5.865839892162e-04 0.0 
2.679076748014e-03 1.884132073388e-03 0.0 
1.050494613404e-03 4.612093344577e-04 0.0 
1.261334788294e-04 -5.795694041918e-05 0.0 
1.968073937600e-03 5.488990970011e-04 0.0 
2.030008786778e-04 5.660544479791e-06 0.0 
1.567704365376e-03 5.637655214821e-04 0.0 
1.309270027404e-03 6.394641488711e-04 0.0 
2.970234905356e-03 2.821733943396e-03 0.0 
2.667670512765e-03 2.163229553183e-03 0.0 
1.057978410370e-03 2.327768419777e-04 0.0 
8.167806518239e-04 -3.340576495390e-04 0.0 
2.858952510645e-03 3.750449404325e-03 0.0 
1.822465754991e-03 3.980459077044e-04 0.0 
2.926380664807e-03 4.160033651793e-03 0.0 
2.174037223483e-03 2.765869392481e-03 0.0 
2.497218995431e-03 1.764375099226e-03 0.0 
1.758065501764e-03 3.453749132071e-04 0.0 
7.122019870211e-04 -1.732942599093e-04 0.0 
2.878606354059e-03 4.359449554467e-03 0.0 
-9.116209538864e-04 2.188096265772e-03 0.0 
2.534558269447e-03 1.419144906492e-03 0.0 
-5.475166892434e-04 3.100861522167e-03 0.0 
1.086277061922e-04 -6.279552648146e-04 0.0 
6.297695001795e-04 -2.235044142015e-04 0.0 
2.146093285317e-03 2.313174627642e-03 0.0 
1.849799297651e-03 5.738475114061e-03 0.0 
2.050507344072e-03 1.062897142570e-02 0.0 
8.452503522978e-05 2.382233976833e-04 0.0 
-1.284301412092e-03 2.527251640734e-03 0.0 
2.088568506607e-03 1.050943587734e-02 0.0 
1.635745492940e-03 2.398381074971e-04 0.0 
4.865061127431e-04 -2.808482710170e-04 0.0 
2.508492583895e-03 8.642629257506e-03 0.0 
1.366272765177e-03 1.552589304031e-04 0.0 
1.409377076667e-03 9.930708670643e-05 0.0 
2.915333736280e-03 2.941415276367e-03 0.0 
2.374448377612e-03 1.253454445987e-03 0.0 
1.684341123465e-03 2.357266298921e-03 0.0 
2.901897870919e-04 1.872267740528e-03 0.0 
6.329800811802e-04 -2.805457897985e-04 0.0 
4.553793548670e-04 -2.565343181745e-04 0.0 
4.759615583435e-04 -4.947964165289e-04 0.0 
1.927860374131e-03 8.547073098243e-03 0.0 
1.945637088010e-03 5.695722882422e-03 0.0 
4.537032746873e-05 -1.245689992396e-04 0.0 
3.370593251558e-05 -6.576729797679e-04 0.0 
-6.556028959515e-04 8.216433310952e-04 0.0 
2.716719079346e-04 -5.447774434275e-04 0.0 
3.998560180372e-04 -2.646952416665e-04 0.0 
1.749738631747e-03 5.643036299047e-04 0.0 
1.322537746282e-03 1.952718366182e-04 0.0 
1.334034670613e-03 5.643463545634e-04 0.0 
5.333511842206e-04 -2.136519814339e-04 0.0 
1.999541967822e-03 4.667112031371e-03 0.0 
3.672430527706e-04 -2.396814365568e-04 0.0 
1.845647984573e-03 7.078126609304e-04 0.0 
2.735992374440e-03 3.532213967477e-03 0.0 
1.159291578076e-03 7.883701343371e-03 0.0 
2.069320394200e-03 1.120266945362e-03 0.0 
3.138877350703e-04 -2.462020905840e-04 0.0 
4.766099798604e-04 -2.236370657501e-04 0.0 
1.838468467124e-03 1.059377676040e-02 0.0 
1.678131376828e-03 3.803135990008e-04 0.0 
2.796949913682e-04 -2.209360375244e-04 0.0 
4.454395297471e-05 5.844383075486e-03 0.0 
4.920597687195e-05 6.815079044613e-03 0.0 
1.968941611606e-03 1.066875407750e-02 0.0 
4.391450307724e-04 -2.001690318624e-04 0.0 
1.101000591180e-03 -6.911300609317e-05 0.0 
6.052617832057e-05 3.472004927160e-03 0.0 
1.284622448856e-03 5.920582604463e-04 0.0 
2.673967232366e-04 -4.828349367576e-04 0.0 
1.136864799331e-03 -8.831015523224e-05 0.0 
2.629071402553e-03 1.585126494672e-03 0.0 
1.980442318150e-03 1.087073293964e-02 0.0 
2.278670583520e-04 -2.261337532142e-04 0.0 
2.804592860089e-05 -5.872465923510e-04 0.0 
1.893313236004e-03 8.126928995671e-03 0.0 
3.853014405124e-04 -2.080524791771e-04 0.0 
1.547114777485e-03 1.475319909157e-04 0.0 
6.642181364818e-04 -2.447098943579e-04 0.0 
-7.452474393324e-04 1.767569518665e-03 0.0 
5.552645667663e-05 2.998500764294e-03 0.0 
1.413295394620e-03 9.075315614745e-05 0.0 
1.254811217287e-03 3.845899968071e-04 0.0 
2.639824922575e-03 2.001402278924e-03 0.0 
3.479934491570e-04 -1.842187539933e-04 0.0 
2.957423177131e-04 -1.905816583134e-04 0.0 
1.620840369018e-03 4.961796654916e-04 0.0 
6.516908956529e-05 -4.255781513632e-04 0.0 
-7.385289356308e-04 2.015224273641e-03 0.0 
2.584109975646e-04 -1.666406487880e-04 0.0 
1.111095508675e-03 2.677257593025e-04 0.0 
9.031542573146e-04 -2.528692935823e-04 0.0 
2.633417371953e-03 3.146801164324e-03 0.0 
2.403050962899e-03 8.589259471532e-03 0.0 
2.547004387272e-03 3.434160307090e-03 0.0 
3.864842674075e-04 6.842381669484e-05 0.0 
-1.072617734937e-03 9.656697296038e-04 0.0 
8.141242897621e-06 2.613982743268e-04 0.0 
9.516116982110e-06 7.190184387019e-07 0.0 
3.077065508274e-05 8.356313242154e-03 0.0 
1.173676660641e-03 -1.148938460682e-04 0.0 
2.792552023499e-03 2.439588558316e-03 0.0 
1.805028314130e-03 7.908028220772e-04 0.0 
8.261545119057e-05 -6.269064541444e-04 0.0 
-1.144800698684e-03 2.656313073726e-03 0.0 
2.299516458247e-04 2.155581273264e-03 0.0 
2.029087523569e-03 5.148083668368e-03 0.0 
1.853757807844e-03 9.043794801316e-03 0.0 
3.804209768046e-04 2.355856453261e-04 0.0 
2.269886874491e-05 -6.177158809620e-04 0.0 
3.604044686265e-04 2.026939518089e-04 0.0 
1.935149180894e-03 5.206303193331e-03 0.0 
9.569989840261e-04 -2.572278486563e-04 0.0 
2.875723167253e-03 2.528619976033e-03 0.0 
1.087393104320e-03 -1.621216816327e-04 0.0 
4.730286661018e-04 4.206130748545e-03 0.0 
9.302713656179e-04 -2.576248638963e-04 0.0 
2.039008993013e-03 4.137391528791e-03 0.0 
1.258335755531e-04 -3.942346933469e-05 0.0 
1.314726677252e-03 3.681960812389e-05 0.0 
2.435593387512e-03 3.042440742749e-03 0.0 
-9.190920303239e-04 7.777482883637e-04 0.0 
1.567030230974e-03 3.186179811591e-04 0.0 
1.627360638216e-03 3.832651910872e-03 0.0 
7.432722894215e-04 -3.719994978495e-04 0.0 
7.520464298586e-04 -3.393499315703e-04 0.0 
2.839715662770e-03 2.326321689531e-03 0.0 
3.208136039149e-04 -3.519750499280e-05 0.0 
1.351492266303e-03 1.002008842700e-02 0.0 
1.621038611795e-03 1.044498591551e-02 0.0 
6.448954104936e-04 -4.118435963553e-04 0.0 
1.548596485504e-03 1.719942578631e-04 0.0 
2.774012301543e-03 1.956100180780e-03 0.0 
2.477153069226e-03 2.915811077554e-03 0.0 
1.062905067037e-03 1.574760806726e-03 0.0 
1.779557543212e-03 1.097269622876e-02 0.0 
8.248591529135e-05 4.837954167521e-03 0.0 
1.237770182138e-03 1.187715186970e-03 0.0 
1.655982957661e-03 7.148796470419e-04 0.0 
-5.938674614748e-04 3.502120159394e-03 0.0 
2.563744256463e-03 8.407683927490e-03 0.0 
1.425311498073e-03 6.732281611322e-05 0.0 
2.269761464847e-03 3.382143770816e-03 0.0 
1.510617525554e-03 1.278319364759e-04 0.0 
-1.715348503220e-04 1.730536307197e-03 0.0 
1.504734258334e-03 1.912993323771e-04 0.0 
9.767985505769e-04 5.127996506022e-03 0.0 
2.689205423699e-03 1.742383477516e-03 0.0 
1.491202121828e-03 1.532685679579e-04 0.0 
2.728698928827e-03 2.075462997554e-03 0.0 
3.129995720760e-04 6.029377968319e-03 0.0 
5.942997703127e-04 -4.408479478691e-04 0.0 
-2.467488092599e-04 2.895164581142e-03 0.0 
1.427071395644e-03 1.731869342992e-04 0.0 
1.493675255042e-03 6.226186593173e-03 0.0 
-6.945534183084e-04 9.827248634510e-04 0.0 
2.065026542663e-05 1.962230305120e-03 0.0 
2.789848907456e-05 2.927175593536e-03 0.0 
-1.139920139508e-04 -4.375209859161e-04 0.0 
1.414964528717e-03 2.039747770269e-04 0.0 
3.765968568047e-04 -5.246856743900e-04 0.0 
4.088663400898e-04 -5.208348400228e-04 0.0 
2.106461521596e-03 2.408310780387e-03 0.0 
2.683324171515e-03 1.900967857044e-03 0.0 
2.338621920231e-03 2.554748752917e-03 0.0 
1.479862147982e-03 2.139282765977e-04 0.0 
5.637405437530e-04 9.663324377064e-03 0.0 
2.752240382348e-04 4.221768622680e-05 0.0 
3.113564588523e-04 -5.458866780017e-04 0.0 
1.430549720565e-03 4.529584118557e-04 0.0 
2.785989552227e-03 1.967109914821e-03 0.0 
6.397972847434e-05 -6.405586460598e-04 0.0 
2.289038607124e-03 3.905018057997e-03 0.0 
1.772787926621e-03 4.999767227405e-04 0.0 
-4.041333297795e-05 -3.178038726997e-04 0.0 
1.401885416153e-03 3.054803421396e-04 0.0 
2.409704899465e-05 -1.488550917548e-04 0.0 
2.125012683703e-03 4.069108999173e-03 0.0 
2.061138003882e-04 -4.685798495568e-04 0.0 
9.301302800643e-05 -3.035649522323e-04 0.0 
2.207713887553e-03 2.878843508408e-03 0.0 
1.921658216121e-03 1.046683510989e-03 0.0 
7.815818374205e-04 -3.410073335716e-04 0.0 
5.746820679735e-05 -5.844612706321e-04 0.0 
2.704609708053e-03 1.767774555652e-03 0.0 
2.342415351502e-05 6.351818217432e-03 0.0 
-8.762122239531e-05 -1.945736105545e-04 0.0 
9.063048542847e-04 7.557917043771e-04 0.0 
5.790519147910e-04 9.634653429559e-04 0.0 
1.071237895216e-04 7.700546328657e-03 0.0 
3.832924470994e-04 1.459511677581e-03 0.0 
6.351239771388e-04 8.379060204377e-04 0.0 
1.498891749428e-03 1.769112802185e-04 0.0 
1.236142796341e-03 -3.763249532111e-05 0.0 
6.880976223996e-04 2.328979390588e-04 0.0 
-1.049737981347e-03 1.144903709132e-03 0.0 
1.254738252941e-05 -6.037779814190e-04 0.0 
6.915051302553e-05 -2.816029263603e-04 0.0 
7.240682654608e-04 -3.767702232313e-04 0.0 
1.172285560193e-03 9.053431694339e-06 0.0 
4.664774551321e-04 8.347117762130e-03 0.0 
9.753153708097e-04 9.337913689229e-03 0.0 
9.948154551104e-04 7.832389792114e-03 0.0 
1.532788518039e-03 3.701571404857e-04 0.0 
1.580619027991e-04 -5.685482619193e-04 0.0 
2.197087601979e-03 1.449512045135e-03 0.0 
9.462316245436e-05 1.268719258761e-05 0.0 
1.233460529038e-04 1.820573308435e-05 0.0 
1.251049919197e-03 -5.422611558390e-05 0.0 
1.276355144198e-03 8.404231718642e-03 0.0 
-7.520223747850e-04 7.331729497407e-04 0.0 
-3.886251612483e-04 5.473285229094e-03 0.0 
2.216192889447e-04 3.033202654167e-05 0.0 
3.224358723461e-05 6.869770784112e-03 0.0 
2.678469101072e-03 1.757776064638e-03 0.0 
9.672431301241e-04 -1.991194427668e-04 0.0 
1.286733649255e-03 6.430838600026e-05 0.0 
-2.949442255381e-04 2.984712149863e-04 0.0 
6.358215529140e-05 2.648674057800e-03 0.0 
1.065488365865e-03 -1.521316110596e-04 0.0 
1.999285753191e-04 2.107194751791e-03 0.0 
1.679899402929e-04 3.514434847919e-03 0.0 
2.438792894178e-05 5.773387737067e-04 0.0 
2.136487443157e-05 1.434179349913e-06 0.0 
5.655247843967e-05 7.810208630106e-03 0.0 
1.016264976882e-03 -2.138650836539e-04 0.0 
1.296171775076e-03 1.065189612096e-02 0.0 
1.026997804847e-03 -2.156470270647e-04 0.0 
3.601446949252e-05 4.176130043537e-06 0.0 
-9.077292917806e-04 3.728630075898e-03 0.0 
-7.117552684322e-04 4.482332848459e-03 0.0 
1.353460009830e-03 4.771240056377e-04 0.0 
9.548816190633e-04 8.720086311132e-03 0.0 
1.204012256118e-04 2.019026063438e-03 0.0 
2.257430474796e-03 2.776514570857e-03 0.0 
1.562654077024e-03 8.553466787652e-04 0.0 
1.828291346218e-03 2.758569928064e-03 0.0 
3.635627188293e-04 7.470629445972e-03 0.0 
6.134962629894e-04 -4.128515726328e-04 0.0 
6.631337103947e-04 -3.761207975075e-04 0.0 
1.031842208687e-04 5.322119084995e-03 0.0 
1.791180976076e-03 1.043057851143e-03 0.0 
1.630590698606e-03 9.045696548896e-03 0.0 
1.952241165233e-04 8.782663671525e-03 0.0 
2.336711285607e-04 7.923289986260e-03 0.0 
4.173976219309e-04 7.586109540240e-03 0.0 
5.127763851352e-05 3.649240288833e-04 0.0 
5.310985429078e-04 -4.446347388650e-04 0.0 
1.765155782286e-04 1.287323774966e-03 0.0 
4.020068076472e-04 6.549260106365e-03 0.0 
5.706799420882e-04 2.430935329466e-04 0.0 
1.160295193922e-03 1.634718497924e-03 0.0 
2.362763041271e-03 3.805245836649e-03 0.0 
5.659797943375e-04 2.015708063401e-03 0.0 
2.821422493590e-04 -4.466827840812e-04 0.0 
2.602796211309e-04 -4.953100522725e-04 0.0 
4.712586168759e-04 6.464823700779e-05 0.0 
-4.702219298002e-04 3.091712547162e-04 0.0 
6.734493946764e-05 -5.975829204392e-04 0.0 
1.830013540987e-04 1.076307723555e-04 0.0 
1.100746400583e-05 -6.573945589449e-04 0.0 
2.409242339083e-04 8.488876777795e-03 0.0 
9.006311152564e-04 2.576198137468e-04 0.0 
1.016297145978e-05 -5.652092489910e-04 0.0 
-4.467243847763e-06 -6.295951606235e-04 0.0 
1.073361833523e-04 4.966459807184e-04 0.0 
8.328248618727e-04 9.374361277755e-03 0.0 
2.603097066099e-04 1.390867929704e-03 0.0 
8.981986172083e-04 3.012495509559e-04 0.0 
7.220908404033e-04 9.385521292802e-03 0.0 
-8.657741412649e-04 1.140927932476e-03 0.0 
4.242910036865e-05 1.081936755677e-03 0.0 
1.023205568327e-04 -6.340767339082e-04 0.0 
2.904503795199e-04 1.815827868428e-03 0.0 
2.830282020238e-05 2.879182600651e-06 0.0 
9.638171069797e-04 1.639787694866e-03 0.0 
3.611085047709e-04 3.343831684981e-04 0.0 
1.421473600833e-03 7.731671678721e-03 0.0 
1.702695824094e-04 -4.548724025147e-04 0.0 
2.159721175275e-03 1.337758020656e-03 0.0 
3.016996740855e-04 1.303571372937e-04 0.0 
9.833250824204e-05 4.345002580731e-03 0.0 
2.916130059823e-04 1.139108125759e-04 0.0 
-2.840221900991e-04 4.294350999257e-04 0.0 
1.702953444138e-04 1.352531730047e-05 0.0 
4.848965154882e-04 1.173573880449e-04 0.0 
4.921387709967e-05 -6.533156278933e-04 0.0 
5.079481387486e-04 1.271149130479e-04 0.0 
4.612189185587e-04 1.197167556584e-03 0.0 
2.338583963508e-04 9.761759066767e-04 0.0 
5.412714816692e-04 8.661295348953e-03 0.0 
1.790920902045e-03 7.195119129800e-03 0.0 
4.268352855683e-04 3.690922627292e-03 0.0 
7.540775604525e-04 9.573564010132e-04 0.0 
1.285885480148e-04 -5.223305761213e-04 0.0 
-4.119975598519e-04 2.143535671540e-03 0.0 
1.965129378559e-03 1.143406284294e-03 0.0 
4.464661117614e-04 9.673953808781e-03 0.0 
6.214961289049e-04 1.644145449062e-03 0.0 
3.432896804727e-06 5.486150506597e-04 0.0 
3.432896804727e-06 2.315405130461e-04 0.0 
9.176082363017e-07 -6.727998217165e-04 0.0 
7.325112544533e-07 -6.726778686533e-04 0.0 
2.408618057527e-05 9.324205061515e-03 0.0 
5.735879098374e-05 9.662369274038e-03 0.0 
3.691886523040e-06 3.332415828616e-07 0.0 
3.691886523040e-06 -1.260369465297e-07 0.0 
4.950749789013e-06 -6.709715421277e-04 0.0 
-7.777553680611e-04 4.721016303747e-04 0.0 
1.697711928252e-04 -2.487777689447e-06 0.0 
1.409879027780e-03 9.718654980414e-04 0.0 
1.076429853704e-04 -6.366801920389e-04 0.0 
2.831442912631e-04 2.140997682003e-05 0.0 
4.141836847562e-05 -2.332443201512e-04 0.0 
4.181121998787e-05 -3.450397869964e-04 0.0 
2.729730074064e-04 6.169893404630e-03 0.0 
1.890883782163e-04 -1.626608754701e-04 0.0 
2.457951167965e-03 1.623980027122e-03 0.0 
7.826657878831e-05 -6.414042259720e-04 0.0 
2.444703814565e-04 -3.927685763509e-04 0.0 
1.007994923182e-03 1.318232655788e-03 0.0 
1.194005201827e-05 2.424508460978e-03 0.0 
8.096274011148e-05 -3.376350540119e-04 0.0 
1.769111976302e-04 7.158933399163e-03 0.0 
1.357043413294e-03 1.135036807727e-03 0.0 
1.744843199327e-03 2.323725010153e-03 0.0 
2.091066230109e-03 3.054619227488e-03 0.0 
6.166083803192e-04 9.349893580975e-03 0.0 
2.501580584073e-03 1.536313307670e-03 0.0 
7.753793536600e-04 1.669672374403e-03 0.0 
9.804730677031e-05 -5.923872446036e-04 0.0 
-1.218805356391e-04 -4.685122804469e-04 0.0 
1.597418167093e-03 1.406686691256e-03 0.0 
1.482023860003e-03 5.058550541062e-04 0.0 
7.838699647140e-05 -1.380483641752e-04 0.0 
1.428837889905e-04 5.426894838379e-03 0.0 
9.391914426576e-05 3.883332614931e-06 0.0 
1.630244628090e-03 1.262509160136e-03 0.0 
1.376265340288e-03 1.044262134155e-03 0.0 
5.022641232756e-05 -1.787127643174e-04 0.0 
-9.276472099538e-04 1.731902554530e-03 0.0 
4.278908024199e-04 9.322181739193e-03 0.0 
1.407819246799e-03 5.435026070781e-03 0.0 
1.494094131267e-03 7.401873586704e-03 0.0 
2.555182337798e-03 1.686512066309e-03 0.0 
2.271945628992e-04 1.759609609536e-03 0.0 
5.990261830191e-04 2.138128632213e-04 0.0 
-1.187248744203e-04 -2.541781322498e-04 0.0 
-4.869953380972e-05 -4.435704321189e-04 0.0 
-4.680236701619e-04 6.384229133246e-03 0.0 
2.343758485205e-04 4.978665915674e-03 0.0 
1.881270783865e-04 -5.459399352214e-04 0.0 
5.263251422145e-04 1.624932427324e-03 0.0 
6.380801228744e-05 -6.465156051510e-04 0.0 
1.023363696521e-03 3.771527031967e-04 0.0 
9.201857317144e-04 7.759567390521e-03 0.0 
7.065504363988e-04 3.721409380996e-04 0.0 
2.029488009351e-03 1.333510818093e-03 0.0 
1.640813935482e-03 7.332701746002e-03 0.0 
4.210282006905e-04 8.480279300333e-05 0.0 
4.055353930874e-04 1.185159599936e-03 0.0 
3.489262773286e-05 1.266699310130e-03 0.0 
-9.890020964911e-04 4.206089431757e-03 0.0 
5.171646170699e-04 1.978043799472e-03 0.0 
7.398890802656e-04 6.364306081097e-04 0.0 
1.042928246568e-03 3.641521689706e-04 0.0 
1.818173180163e-03 1.121408360463e-03 0.0 
5.038492466264e-05 6.964649128285e-06 0.0 
2.024917743070e-03 3.126517687168e-03 0.0 
-1.291638071164e-03 1.960855148762e-03 0.0 
-2.329424905794e-04 2.558181885854e-03 0.0 
1.467402987582e-03 2.011757785583e-03 0.0 
1.364090108819e-03 6.816765024485e-03 0.0 
8.857208148646e-05 -1.341997236206e-05 0.0 
1.605357269057e-03 9.843538806101e-04 0.0 
1.777304790362e-04 2.086188154462e-05 0.0 
2.045914108259e-04 3.988328771692e-03 0.0 
6.633573249132e-04 3.179432990126e-04 0.0 
5.215083594330e-04 8.880204597400e-05 0.0 
5.507135019924e-04 1.023010756262e-04 0.0 
1.393919682823e-04 -5.385595387482e-04 0.0 
8.025270728425e-05 9.898673502861e-06 0.0 
1.211776515454e-03 8.753931969053e-03 0.0 
1.456784824452e-04 2.045280650996e-03 0.0 
-1.456795132922e-05 -4.098028020394e-04 0.0 
9.506276314708e-05 2.840551679920e-03 0.0 
2.151730856951e-04 5.377953806444e-03 0.0 
5.950427174092e-06 -6.667677002766e-04 0.0 
2.107681048763e-04 4.243458189157e-04 0.0 
1.954941909119e-03 2.653130179616e-03 0.0 
1.897872524552e-04 1.050651015760e-03 0.0 
7.396267417101e-05 1.952867544017e-03 0.0 
8.514222906164e-04 3.999015726694e-04 0.0 
4.389552700019e-04 7.069746623924e-03 0.0 
-4.654718108724e-05 -5.722882025054e-04 0.0 
-5.962903201116e-04 1.267414708337e-03 0.0 
-1.091063428759e-05 -5.897443389535e-04 0.0 
7.021506733620e-05 -4.666562063602e-04 0.0 
-1.380127618461e-03 2.179441847650e-03 0.0 
2.164940759452e-04 -4.145405971353e-04 0.0 
1.113634479059e-04 -1.169992145470e-05 0.0 
9.407097462032e-04 1.707576701191e-03 0.0 
1.732755404495e-03 6.711786144026e-03 0.0 
2.958487373649e-04 -4.694275909996e-04 0.0 
4.572328847777e-04 5.501053031739e-05 0.0 
8.511411029571e-04 2.159860896090e-04 0.0 
8.484544762624e-04 4.710046590393e-04 0.0 
1.184794034489e-03 1.020228433448e-03 0.0 
1.574239542496e-03 1.955955630499e-03 0.0 
2.670290717473e-06 -4.755600496493e-04 0.0 
-4.454020490804e-04 5.538903101992e-04 0.0 
1.557010001688e-04 -6.691690607427e-06 0.0 
1.395646889244e-05 -6.650073079754e-04 0.0 
3.427045746814e-06 -6.627940682428e-04 0.0 
-9.323557016777e-04 2.469321464126e-03 0.0 
2.229846031695e-05 -5.857194411796e-04 0.0 
3.182029008677e-04 6.254141655969e-05 0.0 
6.648139524490e-04 7.033490145789e-04 0.0 
2.038129191498e-04 1.756538779462e-03 0.0 
6.756212322181e-04 3.865195541868e-04 0.0 
1.017247555655e-03 2.605548672897e-04 0.0 
3.546212213607e-04 6.519447636588e-03 0.0 
4.887661227367e-05 2.073280066537e-04 0.0 
4.611366786562e-04 8.658062863389e-06 0.0 
7.779305908642e-04 9.699785789394e-03 0.0 
1.448193099586e-05 -2.018307250600e-04 0.0 
1.316256320515e-05 -6.391720192570e-04 0.0 
5.469952967279e-05 5.043460839538e-06 0.0 
1.644058303749e-03 8.456608283607e-03 0.0 
4.964604167881e-05 -6.547883682992e-04 0.0 
1.508791808801e-04 -4.314997782315e-04 0.0 
7.627966337675e-04 8.658354479928e-04 0.0 
3.248280528485e-04 1.863681446507e-03 0.0 
3.912919447363e-04 9.290880334165e-04 0.0 
7.961520665746e-05 -5.646043080557e-04 0.0 
-5.247280750112e-04 1.051147893789e-03 0.0 
2.363505752558e-04 2.624085557488e-05 0.0 
1.157413970235e-05 4.929387873729e-04 0.0 
1.320800350515e-05 1.052260021563e-06 0.0 
5.485683565801e-05 8.784463807820e-03 0.0 
7.677206797298e-04 2.086598751244e-04 0.0 
6.652518897367e-05 -6.496283480459e-04 0.0 
4.905965385538e-04 1.632196208139e-03 0.0 
1.026779586420e-06 -6.227419690921e-04 0.0 
3.824767286602e-04 9.307119918787e-05 0.0 
5.212883898398e-04 1.202884517428e-03 0.0 
-8.114998555841e-04 1.331763633158e-03 0.0 
1.652410463795e-03 1.209472526365e-03 0.0 
2.022516721279e-04 4.460382974832e-03 0.0 
1.260409080639e-04 9.969967189044e-04 0.0 
1.222519599545e-04 4.994269848259e-05 0.0 
8.473682855635e-05 5.826964989709e-03 0.0 
6.133349307981e-04 7.210170737498e-04 0.0 
6.665943584884e-04 1.643559289314e-03 0.0 
1.684208617974e-04 5.122287655660e-03 0.0 
1.000630471339e-03 1.177523835066e-03 0.0 
1.581828357924e-04 -5.002210572731e-04 0.0 
3.913768216187e-04 9.379988436366e-03 0.0 
1.151964714383e-03 7.078643354812e-04 0.0 
1.214311021309e-05 1.049318104493e-03 0.0 
2.612465343584e-06 -6.719208005409e-04 0.0 
1.067504249904e-04 9.376090547838e-03 0.0 
1.187027703239e-05 -1.721542699912e-06 0.0 
1.229192118428e-04 -6.308716846237e-04 0.0 
9.699786468920e-04 3.071426616831e-04 0.0 
8.433575370040e-04 1.720567323767e-03 0.0 
1.479326881829e-04 1.294178654790e-03 0.0 
7.708070199541e-05 -6.441911112119e-04 0.0 
-5.351776919158e-04 2.008884048228e-03 0.0 
1.729607832119e-05 -3.163907950763e-04 0.0 
8.055279706875e-05 3.465832860781e-03 0.0 
-9.309271783193e-04 6.304321395414e-04 0.0 
3.012952264443e-04 9.230327264325e-04 0.0 
1.526910375186e-04 6.015836943564e-03 0.0 
1.849447649349e-04 -2.374497348017e-04 0.0 
2.876612845396e-04 6.729636560565e-03 0.0 
8.744708460171e-04 5.358797431774e-04 0.0 
3.258508346390e-05 -2.870240362199e-04 0.0 
-1.243524508436e-03 2.287353001636e-03 0.0 
1.780125113123e-04 -5.306124987910e-04 0.0 
2.226011662025e-04 -3.662481991090e-04 0.0 
1.528900514271e-05 -2.585722410620e-04 0.0 
1.116758811004e-03 5.484458059928e-04 0.0 
1.147631760279e-04 -3.818294087589e-04 0.0 
1.489935933370e-04 -3.446040841857e-04 0.0 
2.914614626299e-05 -6.139186345317e-04 0.0 
3.049363896595e-04 2.671514856119e-05 0.0 
1.583305963121e-03 1.477862153020e-03 0.0 
-1.644353110294e-04 1.984317851185e-03 0.0 
2.028435311071e-05 9.936418412058e-04 0.0 
2.138639401450e-05 -5.432457318192e-07 0.0 
1.042484696646e-04 8.836084705400e-03 0.0 
1.152958234521e-04 6.232124932834e-03 0.0 
1.579672242789e-04 -3.866456275465e-04 0.0 
1.775612631311e-04 -3.659688583343e-04 0.0 
1.090164275137e-04 -3.540353934120e-04 0.0 
1.199175602146e-03 4.085313375990e-04 0.0 
8.359739055321e-05 -2.574624832069e-04 0.0 
1.335334605116e-03 1.230084594712e-03 0.0 
1.891506882509e-04 7.718319387453e-03 0.0 
3.641319790870e-04 1.207299791234e-03 0.0 
1.152000949042e-03 3.688939710189e-04 0.0 
3.377347806138e-04 6.924454059878e-03 0.0 
1.328332155534e-03 1.709394143334e-03 0.0 
1.111215719716e-03 5.736415281058e-04 0.0 
8.397442089253e-04 4.296447374095e-04 0.0 
-1.083289047237e-03 2.135189236274e-03 0.0 
1.374666634586e-03 1.687133277018e-03 0.0 
1.176575192506e-03 1.365652103432e-03 0.0 
2.807556005567e-05 -6.244872441404e-04 0.0 
1.750308218391e-04 -4.086969891056e-04 0.0 
-1.092596799603e-03 1.926650280009e-03 0.0 
1.105086131099e-03 1.393581715597e-03 0.0 
1.558843431345e-04 1.532605201171e-02 0.0 
1.970482462735e-04 1.566336331312e-02 0.0 
2.503899833843e-04 1.532239870589e-02 0.0 
2.877397770864e-04 1.565782874758e-02 0.0 
3.452744743546e-04 1.532072756277e-02 0.0 
3.833667179845e-04 1.565753946010e-02 0.0 
4.412098747144e-04 1.532201047741e-02 0.0 
4.806012003144e-04 1.565960149522e-02 0.0 
5.358379334819e-04 1.532423323384e-02 0.0 
5.756832636058e-04 1.566142636266e-02 0.0 
6.270177260899e-04 1.532544953500e-02 0.0 
6.661164519679e-04 1.566114481479e-02 0.0 
7.130365674521e-04 1.532382069303e-02 0.0 
7.500681621378e-04 1.565694927538e-02 0.0 
7.924309414830e-04 1.531741524260e-02 0.0 
8.259440022629e-04 1.564681663343e-02 0.0 
8.638043469186e-04 1.530400762959e-02 0.0 
8.921509736693e-04 1.562831872051e-02 0.0 
3.865178244791e-04 1.141271202792e-02 0.0 
9.257316987660e-04 1.528091649023e-02 0.0 
9.469916738564e-04 1.559848869025e-02 0.0 
9.767146626940e-04 1.524487759479e-02 0.0 
-4.086625921928e-05 1.153312755151e-02 0.0 
9.886257910625e-04 1.555369817022e-02 0.0 
5.827385805139e-04 1.164537223937e-02 0.0 
1.015179345556e-03 1.519191615490e-02 0.0 
1.015061741431e-03 1.548955451993e-02 0.0 
1.039503327307e-03 1.511719774816e-02 0.0 
1.024099805518e-03 1.540063222382e-02 0.0 
1.048007855734e-03 1.501467586517e-02 0.0 
1.013439888897e-03 1.528017992804e-02 0.0 
1.039218527825e-03 1.487681650916e-02 0.0 
9.808010741331e-04 1.511963620986e-02 0.0 
5.867310975829e-04 1.070067945019e-02 0.0 
1.011921603148e-03 1.469408235699e-02 0.0 
9.243962970575e-04 1.490860917478e-02 0.0 
9.659531552705e-04 1.445487861659e-02 0.0 
8.428460625669e-04 1.463360406794e-02 0.0 
7.363403631342e-04 1.427827710268e-02 0.0 
9.017894916671e-04 1.414390071499e-02 0.0 
6.065078252802e-04 1.381846767226e-02 0.0 
8.229643960334e-04 1.374207755093e-02 0.0 
4.609746114199e-04 1.322463513446e-02 0.0 
3.110030674403e-04 1.244890768638e-02 0.0 
7.346627729757e-04 1.322117899343e-02 0.0 
6.470215580117e-04 1.254523040266e-02 0.0 
1.593470138845e-04 1.082109497377e-02 0.0 
2.149136492451e-05 1.549332025837e-02 0.0 
1.068032161252e-04 1.549375558787e-02 0.0 
7.098904000072e-05 1.583617142622e-02 0.0 
5.730554104897e-05 1.515090442003e-02 0.0 
3.501711014880e-06 1.016529882030e-02 0.0 
1.408962663723e-04 1.464587091405e-02 0.0 
1.741725617296e-04 1.430837919626e-02 0.0 
2.425023756025e-04 1.464759568669e-02 0.0 
2.745018451569e-04 1.430942403231e-02 0.0 
3.399241502069e-04 1.464712586670e-02 0.0 
3.723525318369e-04 1.431036378402e-02 0.0 
4.355460127145e-04 1.464843649739e-02 0.0 
4.683455640027e-04 1.431276305484e-02 0.0 
5.292461591701e-04 1.465096877347e-02 0.0 
5.620793181184e-04 1.431572491274e-02 0.0 
6.200055549143e-04 1.465301254544e-02 0.0 
6.527438103784e-04 1.431759567344e-02 0.0 
7.066760970382e-04 1.465270854123e-02 0.0 
7.394198335338e-04 1.431649450996e-02 0.0 
7.881430832929e-04 1.464807262898e-02 0.0 
8.211846984796e-04 1.431030690347e-02 0.0 
8.633329013254e-04 1.463684051326e-02 0.0 
1.225152087107e-03 1.185797807287e-02 0.0 
8.971448601333e-04 1.429654878190e-02 0.0 
9.311970308232e-04 1.461631366796e-02 0.0 
1.314255723053e-03 1.194831503602e-02 0.0 
9.664527049343e-04 1.427222666063e-02 0.0 
9.907103617147e-04 1.458321838744e-02 0.0 
1.028331566572e-03 1.423369061369e-02 0.0 
1.040889422045e-03 1.453356780573e-02 0.0 
1.082123892008e-03 1.417647525965e-02 0.0 
1.004634019747e-03 1.204406881585e-02 0.0 
1.080855401395e-03 1.446246683705e-02 0.0 
1.127384129789e-03 1.409502633654e-02 0.0 
1.109940105917e-03 1.436380088899e-02 0.0 
1.164044285481e-03 1.398237993573e-02 0.0 
1.127890674225e-03 1.422989149303e-02 0.0 
1.192596451002e-03 1.382973922955e-02 0.0 
1.135044833618e-03 1.405111039280e-02 0.0 
1.214420375738e-03 1.362615144682e-02 0.0 
1.132854003481e-03 1.381539285281e-02 0.0 
1.232138281249e-03 1.335744817145e-02 0.0 
1.359182575323e-03 1.136049821736e-02 0.0 
1.250364282287e-03 1.300624083958e-02 0.0 
1.124180862138e-03 1.350723058227e-02 0.0 
1.273934497621e-03 1.254822824802e-02 0.0 
1.114596944715e-03 1.310671142055e-02 0.0 
1.110456896634e-03 1.258630569958e-02 0.0 
1.138664507963e-03 1.154658896034e-02 0.0 
1.725505879690e-05 1.447206376018e-02 0.0 
8.757883323539e-05 1.447446962070e-02 0.0 
5.176465711093e-05 1.413473383036e-02 0.0 
5.306923492136e-05 1.481179955052e-02 0.0 
1.052787559301e-03 1.124421510014e-02 0.0 
1.335685541721e-04 1.329182677024e-02 0.0 
1.696512400776e-04 1.363138600955e-02 0.0 
2.341232410672e-04 1.329540394268e-02 0.0 
2.706440322736e-04 1.363422547501e-02 0.0 
3.329136413425e-04 1.329785742612e-02 0.0 
3.691998358557e-04 1.363629390074e-02 0.0 
4.298671253343e-04 1.330095427587e-02 0.0 
4.658193726037e-04 1.363935071660e-02 0.0 
5.252471249536e-04 1.330476184099e-02 0.0 
5.606064753009e-04 1.364293031849e-02 0.0 
6.190080061439e-04 1.330821863613e-02 0.0 
6.532191044255e-04 1.364559635837e-02 0.0 
7.108428670226e-04 1.330976011031e-02 0.0 
7.431113094712e-04 1.364554539411e-02 0.0 
8.003507893031e-04 1.330749479147e-02 0.0 
8.297009285525e-04 1.364067818182e-02 0.0 
1.630107439039e-03 1.181463604459e-02 0.0 
8.871350652042e-04 1.329915973065e-02 0.0 
9.124307939393e-04 1.362849672095e-02 0.0 
1.502684757580e-03 1.205727338505e-02 0.0 
9.708685390334e-04 1.328201692820e-02 0.0 
9.908382793386e-04 1.360598198182e-02 0.0 
1.661647870820e-03 1.180611569659e-02 0.0 
1.051366011234e-03 1.325274016673e-02 0.0 
1.064601641687e-03 1.356945707179e-02 0.0 
1.128625321348e-03 1.320726494636e-02 0.0 
1.133589716196e-03 1.351440594218e-02 0.0 
1.202896366020e-03 1.314058714649e-02 0.0 
1.197959270226e-03 1.343521596344e-02 0.0 
1.741344813275e-03 1.141998023906e-02 0.0 
1.274759842706e-03 1.304637733802e-02 0.0 
1.258288881833e-03 1.332476675786e-02 0.0 
1.345364038480e-03 1.291682134949e-02 0.0 
1.315825218905e-03 1.317428226388e-02 0.0 
1.372579423069e-03 1.297247773198e-02 0.0 
1.416432648852e-03 1.274197971229e-02 0.0 
1.431874240673e-03 1.270557201786e-02 0.0 
1.490749010236e-03 1.250984298438e-02 0.0 
1.496964590808e-03 1.235565093871e-02 0.0 
1.570517130084e-03 1.220476452781e-02 0.0 
1.613922131816e-03 1.166261757952e-02 0.0 
1.663729928224e-05 1.345813587496e-02 0.0 
8.415468317258e-05 1.345938152383e-02 0.0 
5.114689759627e-05 1.379669669060e-02 0.0 
4.964508485855e-05 1.312082070820e-02 0.0 
1.588970698275e-03 1.151558177894e-02 0.0 
1.327463277396e-04 1.261576759526e-02 0.0 
1.672318769675e-04 1.227875385216e-02 0.0 
2.325261043897e-04 1.261883096027e-02 0.0 
2.676936616739e-04 1.228202309474e-02 0.0 
3.315604074204e-04 1.262222802825e-02 0.0 
3.673517262211e-04 1.228589198648e-02 0.0 
4.293722496218e-04 1.262618175948e-02 0.0 
4.662155864897e-04 1.229031738063e-02 0.0 
5.261382145521e-04 1.263050102141e-02 0.0 
5.645004271481e-04 1.229475796045e-02 0.0 
6.220108683926e-04 1.263430709766e-02 0.0 
6.623172492290e-04 1.229813939793e-02 0.0 
7.169381495774e-04 1.263621468834e-02 0.0 
7.597083433864e-04 1.229888173848e-02 0.0 
8.108525406636e-04 1.263437655782e-02 0.0 
1.793761010656e-03 1.143465343206e-02 0.0 
8.567204587145e-04 1.229497977890e-02 0.0 
1.788932768377e-03 1.136402664395e-02 0.0 
9.036528440057e-04 1.262657956139e-02 0.0 
9.533955726817e-04 1.228394735766e-02 0.0 
9.953155389743e-04 1.261004773418e-02 0.0 
1.049928957244e-03 1.226265880059e-02 0.0 
1.086009689199e-03 1.258138617953e-02 0.0 
1.146724861213e-03 1.222732555792e-02 0.0 
1.722961476169e-03 1.170689259272e-02 0.0 
1.176104862910e-03 1.253648741969e-02 0.0 
1.244403612971e-03 1.217332029003e-02 0.0 
1.266230721234e-03 1.247027902101e-02 0.0 
1.343878966453e-03 1.209495737260e-02 0.0 
1.357345183720e-03 1.237642687266e-02 0.0 
1.446298527192e-03 1.198485279641e-02 0.0 
1.450788342826e-03 1.224685785339e-02 0.0 
1.553403399114e-03 1.183433335888e-02 0.0 
1.666468937979e-03 1.163219073983e-02 0.0 
1.548586524715e-03 1.207199430340e-02 0.0 
1.890560450182e-03 1.111878277964e-02 0.0 
1.652484649284e-03 1.183954140113e-02 0.0 
1.819760915695e-03 1.139102194029e-02 0.0 
1.643992459039e-05 1.244458545512e-02 0.0 
8.313508204823e-05 1.244545650950e-02 0.0 
5.012729647192e-05 1.210708709578e-02 0.0 
4.944771016670e-05 1.278295486883e-02 0.0 
1.831999849621e-03 1.133935863326e-02 0.0 
1.315806333997e-04 1.126333853198e-02 0.0 
1.664537385269e-04 1.160240840306e-02 0.0 
2.308439785050e-04 1.126634164733e-02 0.0 
2.667896742299e-04 1.160587923089e-02 0.0 
3.303286646843e-04 1.127031265182e-02 0.0 
3.670239709291e-04 1.161012047388e-02 0.0 
4.299647170179e-04 1.127486059806e-02 0.0 
4.671358091778e-04 1.161476773180e-02 0.0 
5.299350073040e-04 1.127941598155e-02 0.0 
5.673769972118e-04 1.161922256942e-02 0.0 
6.305979292550e-04 1.128324626766e-02 0.0 
6.680277400277e-04 1.162261395897e-02 0.0 
7.322276359930e-04 1.128506062657e-02 0.0 
1.801130591176e-03 1.084335100686e-02 0.0 
7.692873390033e-04 1.162325311567e-02 0.0 
8.352007717037e-04 1.128310004523e-02 0.0 
1.766975006512e-03 1.114195623923e-02 0.0 
8.714896941378e-04 1.161933188912e-02 0.0 
9.398822463167e-04 1.127535499800e-02 0.0 
1.773777035444e-03 1.072789452016e-02 0.0 
9.748557395693e-04 1.160837068405e-02 0.0 
1.046623542628e-03 1.125896664930e-02 0.0 
1.079776794011e-03 1.158715438933e-02 0.0 
1.156009136823e-03 1.123048965783e-02 0.0 
1.186876472071e-03 1.155193344749e-02 0.0 
1.890228139126e-03 1.057263221690e-02 0.0 
1.268824325753e-03 1.118589962182e-02 0.0 
1.296971464957e-03 1.149812460259e-02 0.0 
1.411073124294e-03 1.142009321035e-02 0.0 
1.385992731060e-03 1.112021917131e-02 0.0 
1.530477728506e-03 1.131086867166e-02 0.0 
1.508718542876e-03 1.102757858566e-02 0.0 
1.655696990937e-03 1.116160849775e-02 0.0 
1.637261135963e-03 1.090014886752e-02 0.0 
1.856072554462e-03 1.087123744927e-02 0.0 
1.632524962779e-05 1.143071596899e-02 0.0 
8.263285118627e-05 1.143139157073e-02 0.0 
5.001262150932e-05 1.176910577120e-02 0.0 
4.894547930475e-05 1.109300176852e-02 0.0 
1.892014605022e-03 1.088595719269e-02 0.0 
1.311658719266e-04 1.058715166453e-02 0.0 
1.652926541987e-04 1.024980807627e-02 0.0 
2.300976556499e-04 1.058992818798e-02 0.0 
2.653028137755e-04 1.025294882779e-02 0.0 
3.295881270850e-04 1.059379570806e-02 0.0 
3.661192606326e-04 1.025710691721e-02 0.0 
4.298005443207e-04 1.059836398514e-02 0.0 
4.680717328263e-04 1.026162534312e-02 0.0 
5.310351036496e-04 1.060277020579e-02 0.0 
5.714317203927e-04 1.026557043959e-02 0.0 
6.335525560903e-04 1.060623991360e-02 0.0 
6.767610291649e-04 1.026824398472e-02 0.0 
1.709843707218e-03 1.009650188561e-02 0.0 
7.380062982950e-04 1.060769700638e-02 0.0 
1.665559674163e-03 9.949210720467e-03 0.0 
7.845930496245e-04 1.026786123287e-02 0.0 
8.447278200230e-04 1.060507178262e-02 0.0 
8.955025254391e-04 1.026272413251e-02 0.0 
9.543680292987e-04 1.059677550400e-02 0.0 
1.010186345007e-03 1.025067466466e-02 0.0 
1.067468365083e-03 1.057985012391e-02 0.0 
1.129190012989e-03 1.022830193623e-02 0.0 
1.703836843562e-03 1.040900524270e-02 0.0 
1.184577533346e-03 1.055075373013e-02 0.0 
1.253298724686e-03 1.019180574487e-02 0.0 
1.306678181845e-03 1.050550784690e-02 0.0 
1.383439057280e-03 1.013691487301e-02 0.0 
1.520426304125e-03 1.005815070436e-02 0.0 
1.434606467292e-03 1.043940121664e-02 0.0 
1.569457986474e-03 1.034645403434e-02 0.0 
1.786944420829e-03 9.863693460860e-03 0.0 
1.780937557172e-03 1.017619681796e-02 0.0 
1.621901979895e-05 1.041651781507e-02 0.0 
8.211185988438e-05 1.041709992062e-02 0.0 
4.949163020742e-05 1.007872074983e-02 0.0 
4.883924947591e-05 1.075489698587e-02 0.0 
1.832441894080e-03 1.023362646518e-02 0.0 

VECTORS element_materi_displacement float
0.0 0.0 0.0 
0.0 0.0 0.0 
0.0 0.0 0.0 
0.0 0.0 0.0 
0.0 0.0 0.0 
0.0 0.0 0.0 
0.0 0.0 0.0 
0.0 0.0 0.0 
0.0 0.0 0.0 
0.0 0.0 0.0 
0.0 0.0 0.0 
0.0 0.0 0.0 
0.0 0.0 0.0 
0.0 0.0 0.0 
0.0 0.0 0.0 
0.0 0.0 0.0 
0.0 0.0 0.0 
0.0 0.0 0.0 
0.0 0.0 0.0 
0.0 0.0 0.0 
0.0 0.0 0.0 
0.0 0.0 0.0 
0.0 0.0 0.0 
0.0 0.0 0.0 
0.0 0.0 0.0 
0.0 0.0 0.0 
0.0 0.0 0.0 
0.0 0.0 0.0 
0.0 0.0 0.0 
0.0 0.0 0.0 
0.0 0.0 0.0 
0.0 0.0 0.0 
0.0 0.0 0.0 
0.0 0.0 0.0 
0.0 0.0 0.0 
0.0 0.0 0.0 
0.0 0.0 0.0 
0.0 0.0 0.0 
0.0 0.0 0.0 
0.0 0.0 0.0 
0.0 0.0 0.0 
0.0 0.0 0.0 
0.0 0.0 0.0 
0.0 0.0 0.0 
0.0 0.0 0.0 
0.0 0.0 0.0 
0.0 0.0 0.0 
0.0 0.0 0.0 
0.0 0.0 0.0 
0.0 0.0 0.0 
0.0 0.0 0.0 
0.0 0.0 0.0 
0.0 0.0 0.0 
0.0 0.0 0.0 
0.0 0.0 0.0 
0.0 0.0 0.0 
0.0 0.0 0.0 
0.0 0.0 0.0 
0.0 0.0 0.0 
0.0 0.0 0.0 
0.0 0.0 0.0 
0.0 0.0 0.0 
0.0 0.0 0.0 
0.0 0.0 0.0 
0.0 0.0 0.0 
0.0 0.0 0.0 
0.0 0.0 0.0 
0.0 0.0 0.0 
0.0 0.0 0.0 
0.0 0.0 0.0 
0.0 0.0 0.0 
0.0 0.0 0.0 
0.0 0.0 0.0 
0.0 0.0 0.0 
0.0 0.0 0.0 
0.0 0.0 0.0 
0.0 0.0 0.0 
0.0 0.0 0.0 
0.0 0.0 0.0 
0.0 0.0 0.0 
0.0 0.0 0.0 
0.0 0.0 0.0 
0.0 0.0 0.0 
0.0 0.0 0.0 
0.0 0.0 0.0 
0.0 0.0 0.0 
0.0 0.0 0.0 
0.0 0.0 0.0 
0.0 0.0 0.0 
0.0 0.0 0.0 
0.0 0.0 0.0 
0.0 0.0 0.0 
0.0 0.0 0.0 
0.0 0.0 0.0 
0.0 0.0 0.0 
0.0 0.0 0.0 
0.0 0.0 0.0 
0.0 0.0 0.0 
0.0 0.0 0.0 
0.0 0.0 0.0 
0.0 0.0 0.0 
0.0 0.0 0.0 
0.0 0.0 0.0 
0.0 0.0 0.0 
0.0 0.0 0.0 
0.0 0.0 0.0 
0.0 0.0 0.0 
0.0 0.0 0.0 
0.0 0.0 0.0 
0.0 0.0 0.0 
0.0 0.0 0.0 
0.0 0.0 0.0 
0.0 0.0 0.0 
0.0 0.0 0.0 
0.0 0.0 0.0 
0.0 0.0 0.0 
0.0 0.0 0.0 
0.0 0.0 0.0 
0.0 0.0 0.0 
0.0 0.0 0.0 
0.0 0.0 0.0 
0.0 0.0 0.0 
0.0 0.0 0.0 
0.0 0.0 0.0 
0.0 0.0 0.0 
0.0 0.0 0.0 
0.0 0.0 0.0 
0.0 0.0 0.0 
0.0 0.0 0.0 
0.0 0.0 0.0 
0.0 0.0 0.0 
0.0 0.0 0.0 
0.0 0.0 0.0 
0.0 0.0 0.0 
0.0 0.0 0.0 
0.0 0.0 0.0 
0.0 0.0 0.0 
0.0 0.0 0.0 
0.0 0.0 0.0 
0.0 0.0 0.0 
0.0 0.0 0.0 
0.0 0.0 0.0 
0.0 0.0 0.0 
0.0 0.0 0.0 
0.0 0.0 0.0 
0.0 0.0 0.0 
0.0 0.0 0.0 
0.0 0.0 0.0 
0.0 0.0 0.0 
0.0 0.0 0.0 
0.0 0.0 0.0 
0.0 0.0 0.0 
0.0 0.0 0.0 
0.0 0.0 0.0 
0.0 0.0 0.0 
0.0 0.0 0.0 
0.0 0.0 0.0 
0.0 0.0 0.0 
0.0 0.0 0.0 
0.0 0.0 0.0 
0.0 0.0 0.0 
0.0 0.0 0.0 
0.0 0.0 0.0 
0.0 0.0 0.0 
0.0 0.0 0.0 
0.0 0.0 0.0 
0.0 0.0 0.0 
0.0 0.0 0.0 
0.0 0.0 0.0 
0.0 0.0 0.0 
0.0 0.0 0.0 
0.0 0.0 0.0 
0.0 0.0 0.0 
0.0 0.0 0.0 
0.0 0.0 0.0 
0.0 0.0 0.0 
0.0 0.0 0.0 
0.0 0.0 0.0 
0.0 0.0 0.0 
0.0 0.0 0.0 
0.0 0.0 0.0 
0.0 0.0 0.0 
0.0 0.0 0.0 
0.0 0.0 0.0 
0.0 0.0 0.0 
0.0 0.0 0.0 
0.0 0.0 0.0 
0.0 0.0 0.0 
0.0 0.0 0.0 
0.0 0.0 0.0 
0.0 0.0 0.0 
0.0 0.0 0.0 
0.0 0.0 0.0 
0.0 0.0 0.0 
0.0 0.0 0.0 
0.0 0.0 0.0 
0.0 0.0 0.0 
0.0 0.0 0.0 
0.0 0.0 0.0 
0.0 0.0 0.0 
0.0 0.0 0.0 
0.0 0.0 0.0 
0.0 0.0 0.0 
0.0 0.0 0.0 
0.0 0.0 0.0 
0.0 0.0 0.0 
0.0 0.0 0.0 
0.0 0.0 0.0 
0.0 0.0 0.0 
0.0 0.0 0.0 
0.0 0.0 0.0 
0.0 0.0 0.0 
0.0 0.0 0.0 
0.0 0.0 0.0 
0.0 0.0 0.0 
0.0 0.0 0.0 
0.0 0.0 0.0 
0.0 0.0 0.0 
0.0 0.0 0.0 
0.0 0.0 0.0 
0.0 0.0 0.0 
0.0 0.0 0.0 
0.0 0.0 0.0 
0.0 0.0 0.0 
0.0 0.0 0.0 
0.0 0.0 0.0 
0.0 0.0 0.0 
0.0 0.0 0.0 
0.0 0.0 0.0 
0.0 0.0 0.0 
0.0 0.0 0.0 
0.0 0.0 0.0 
0.0 0.0 0.0 
0.0 0.0 0.0 
0.0 0.0 0.0 
0.0 0.0 0.0 
0.0 0.0 0.0 
0.0 0.0 0.0 
0.0 0.0 0.0 
0.0 0.0 0.0 
0.0 0.0 0.0 
0.0 0.0 0.0 
0.0 0.0 0.0 
0.0 0.0 0.0 
0.0 0.0 0.0 
0.0 0.0 0.0 
0.0 0.0 0.0 
0.0 0.0 0.0 
0.0 0.0 0.0 
0.0 0.0 0.0 
0.0 0.0 0.0 
0.0 0.0 0.0 
0.0 0.0 0.0 
0.0 0.0 0.0 
0.0 0.0 0.0 
0.0 0.0 0.0 
0.0 0.0 0.0 
0.0 0.0 0.0 
0.0 0.0 0.0 
0.0 0.0 0.0 
0.0 0.0 0.0 
0.0 0.0 0.0 
0.0 0.0 0.0 
0.0 0.0 0.0 
0.0 0.0 0.0 
0.0 0.0 0.0 
0.0 0.0 0.0 
0.0 0.0 0.0 
0.0 0.0 0.0 
0.0 0.0 0.0 
0.0 0.0 0.0 
0.0 0.0 0.0 
0.0 0.0 0.0 
0.0 0.0 0.0 
0.0 0.0 0.0 
0.0 0.0 0.0 
0.0 0.0 0.0 
0.0 0.0 0.0 
0.0 0.0 0.0 
0.0 0.0 0.0 
0.0 0.0 0.0 
0.0 0.0 0.0 
0.0 0.0 0.0 
0.0 0.0 0.0 
0.0 0.0 0.0 
0.0 0.0 0.0 
0.0 0.0 0.0 
0.0 0.0 0.0 
0.0 0.0 0.0 
0.0 0.0 0.0 
0.0 0.0 0.0 
0.0 0.0 0.0 
0.0 0.0 0.0 
0.0 0.0 0.0 
0.0 0.0 0.0 
0.0 0.0 0.0 
0.0 0.0 0.0 
0.0 0.0 0.0 
0.0 0.0 0.0 
0.0 0.0 0.0 
0.0 0.0 0.0 
0.0 0.0 0.0 
0.0 0.0 0.0 
0.0 0.0 0.0 
0.0 0.0 0.0 
0.0 0.0 0.0 
0.0 0.0 0.0 
0.0 0.0 0.0 
0.0 0.0 0.0 
0.0 0.0 0.0 
0.0 0.0 0.0 
0.0 0.0 0.0 
0.0 0.0 0.0 
0.0 0.0 0.0 
0.0 0.0 0.0 
0.0 0.0 0.0 
0.0 0.0 0.0 
0.0 0.0 0.0 
0.0 0.0 0.0 
0.0 0.0 0.0 
0.0 0.0 0.0 
0.0 0.0 0.0 
0.0 0.0 0.0 
0.0 0.0 0.0 
0.0 0.0 0.0 
0.0 0.0 0.0 
0.0 0.0 0.0 
0.0 0.0 0.0 
0.0 0.0 0.0 
0.0 0.0 0.0 
0.0 0.0 0.0 
0.0 0.0 0.0 
0.0 0.0 0.0 
0.0 0.0 0.0 
0.0 0.0 0.0 
0.0 0.0 0.0 
0.0 0.0 0.0 
0.0 0.0 0.0 
0.0 0.0 0.0 
0.0 0.0 0.0 
0.0 0.0 0.0 
0.0 0.0 0.0 
0.0 0.0 0.0 
0.0 0.0 0.0 
0.0 0.0 0.0 
0.0 0.0 0.0 
0.0 0.0 0.0 
0.0 0.0 0.0 
0.0 0.0 0.0 
0.0 0.0 0.0 
0.0 0.0 0.0 
0.0 0.0 0.0 
0.0 0.0 0.0 
0.0 0.0 0.0 
0.0 0.0 0.0 
0.0 0.0 0.0 
0.0 0.0 0.0 
0.0 0.0 0.0 
0.0 0.0 0.0 
0.0 0.0 0.0 
0.0 0.0 0.0 
0.0 0.0 0.0 
0.0 0.0 0.0 
0.0 0.0 0.0 
0.0 0.0 0.0 
0.0 0.0 0.0 
0.0 0.0 0.0 
0.0 0.0 0.0 
0.0 0.0 0.0 
0.0 0.0 0.0 
0.0 0.0 0.0 
0.0 0.0 0.0 
0.0 0.0 0.0 
0.0 0.0 0.0 
0.0 0.0 0.0 
0.0 0.0 0.0 
0.0 0.0 0.0 
0.0 0.0 0.0 
0.0 0.0 0.0 
0.0 0.0 0.0 
0.0 0.0 0.0 
0.0 0.0 0.0 
0.0 0.0 0.0 
0.0 0.0 0.0 
0.0 0.0 0.0 
0.0 0.0 0.0 
0.0 0.0 0.0 
0.0 0.0 0.0 
0.0 0.0 0.0 
0.0 0.0 0.0 
0.0 0.0 0.0 
0.0 0.0 0.0 
0.0 0.0 0.0 
0.0 0.0 0.0 
0.0 0.0 0.0 
0.0 0.0 0.0 
0.0 0.0 0.0 
0.0 0.0 0.0 
0.0 0.0 0.0 
0.0 0.0 0.0 
0.0 0.0 0.0 
0.0 0.0 0.0 
0.0 0.0 0.0 
0.0 0.0 0.0 
0.0 0.0 0.0 
0.0 0.0 0.0 
0.0 0.0 0.0 
0.0 0.0 0.0 
0.0 0.0 0.0 
0.0 0.0 0.0 
0.0 0.0 0.0 
0.0 0.0 0.0 
0.0 0.0 0.0 
0.0 0.0 0.0 
0.0 0.0 0.0 
0.0 0.0 0.0 
0.0 0.0 0.0 
0.0 0.0 0.0 
0.0 0.0 0.0 
0.0 0.0 0.0 
0.0 0.0 0.0 
0.0 0.0 0.0 
0.0 0.0 0.0 
0.0 0.0 0.0 
0.0 0.0 0.0 
0.0 0.0 0.0 
0.0 0.0 0.0 
0.0 0.0 0.0 
0.0 0.0 0.0 
0.0 0.0 0.0 
0.0 0.0 0.0 
0.0 0.0 0.0 
0.0 0.0 0.0 
0.0 0.0 0.0 
0.0 0.0 0.0 
0.0 0.0 0.0 
0.0 0.0 0.0 
0.0 0.0 0.0 
0.0 0.0 0.0 
0.0 0.0 0.0 
0.0 0.0 0.0 
0.0 0.0 0.0 
0.0 0.0 0.0 
0.0 0.0 0.0 
0.0 0.0 0.0 
0.0 0.0 0.0 
0.0 0.0 0.0 
0.0 0.0 0.0 
0.0 0.0 0.0 
0.0 0.0 0.0 
0.0 0.0 0.0 
0.0 0.0 0.0 
0.0 0.0 0.0 
0.0 0.0 0.0 
0.0 0.0 0.0 
0.0 0.0 0.0 
0.0 0.0 0.0 
0.0 0.0 0.0 
0.0 0.0 0.0 
0.0 0.0 0.0 
0.0 0.0 0.0 
0.0 0.0 0.0 
0.0 0.0 0.0 
0.0 0.0 0.0 
0.0 0.0 0.0 
0.0 0.0 0.0 
0.0 0.0 0.0 
0.0 0.0 0.0 
0.0 0.0 0.0 
0.0 0.0 0.0 
0.0 0.0 0.0 
0.0 0.0 0.0 
0.0 0.0 0.0 
0.0 0.0 0.0 
0.0 0.0 0.0 
0.0 0.0 0.0 
0.0 0.0 0.0 
0.0 0.0 0.0 
0.0 0.0 0.0 
0.0 0.0 0.0 
0.0 0.0 0.0 
0.0 0.0 0.0 
0.0 0.0 0.0 
0.0 0.0 0.0 
0.0 0.0 0.0 
0.0 0.0 0.0 
0.0 0.0 0.0 
0.0 0.0 0.0 
0.0 0.0 0.0 
0.0 0.0 0.0 
0.0 0.0 0.0 
0.0 0.0 0.0 
0.0 0.0 0.0 
0.0 0.0 0.0 
0.0 0.0 0.0 
0.0 0.0 0.0 
0.0 0.0 0.0 
0.0 0.0 0.0 
0.0 0.0 0.0 
0.0 0.0 0.0 
0.0 0.0 0.0 
0.0 0.0 0.0 
0.0 0.0 0.0 
0.0 0.0 0.0 
0.0 0.0 0.0 
0.0 0.0 0.0 
0.0 0.0 0.0 
0.0 0.0 0.0 
0.0 0.0 0.0 
0.0 0.0 0.0 
0.0 0.0 0.0 
0.0 0.0 0.0 
0.0 0.0 0.0 
0.0 0.0 0.0 
0.0 0.0 0.0 
0.0 0.0 0.0 
0.0 0.0 0.0 
0.0 0.0 0.0 
0.0 0.0 0.0 
0.0 0.0 0.0 
0.0 0.0 0.0 
0.0 0.0 0.0 
0.0 0.0 0.0 
0.0 0.0 0.0 
0.0 0.0 0.0 
0.0 0.0 0.0 
0.0 0.0 0.0 
0.0 0.0 0.0 
0.0 0.0 0.0 
0.0 0.0 0.0 
0.0 0.0 0.0 
0.0 0.0 0.0 
0.0 0.0 0.0 
0.0 0.0 0.0 
0.0 0.0 0.0 
0.0 0.0 0.0 
0.0 0.0 0.0 
0.0 0.0 0.0 
0.0 0.0 0.0 
0.0 0.0 0.0 
0.0 0.0 0.0 
0.0 0.0 0.0 
0.0 0.0 0.0 
0.0 0.0 0.0 
0.0 0.0 0.0 
0.0 0.0 0.0 
0.0 0.0 0.0 
0.0 0.0 0.0 
0.0 0.0 0.0 
0.0 0.0 0.0 
0.0 0.0 0.0 
0.0 0.0 0.0 
0.0 0.0 0.0 
0.0 0.0 0.0 
0.0 0.0 0.0 
0.0 0.0 0.0 
0.0 0.0 0.0 
0.0 0.0 0.0 
0.0 0.0 0.0 
0.0 0.0 0.0 
0.0 0.0 0.0 
0.0 0.0 0.0 
0.0 0.0 0.0 
0.0 0.0 0.0 
0.0 0.0 0.0 
0.0 0.0 0.0 
0.0 0.0 0.0 
0.0 0.0 0.0 
0.0 0.0 0.0 
0.0 0.0 0.0 
0.0 0.0 0.0 
0.0 0.0 0.0 
0.0 0.0 0.0 
0.0 0.0 0.0 
0.0 0.0 0.0 
0.0 0.0 0.0 
0.0 0.0 0.0 
0.0 0.0 0.0 
0.0 0.0 0.0 
0.0 0.0 0.0 
0.0 0.0 0.0 
0.0 0.0 0.0 
0.0 0.0 0.0 
0.0 0.0 0.0 
0.0 0.0 0.0 
0.0 0.0 0.0 
0.0 0.0 0.0 
0.0 0.0 0.0 
0.0 0.0 0.0 
0.0 0.0 0.0 
0.0 0.0 0.0 
0.0 0.0 0.0 
0.0 0.0 0.0 
0.0 0.0 0.0 
0.0 0.0 0.0 
0.0 0.0 0.0 
0.0 0.0 0.0 
0.0 0.0 0.0 
0.0 0.0 0.0 
0.0 0.0 0.0 
0.0 0.0 0.0 
0.0 0.0 0.0 
0.0 0.0 0.0 
0.0 0.0 0.0 
0.0 0.0 0.0 
0.0 0.0 0.0 
0.0 0.0 0.0 
0.0 0.0 0.0 
0.0 0.0 0.0 
0.0 0.0 0.0 
0.0 0.0 0.0 
0.0 0.0 0.0 
0.0 0.0 0.0 
0.0 0.0 0.0 
0.0 0.0 0.0 
0.0 0.0 0.0 
0.0 0.0 0.0 
0.0 0.0 0.0 
0.0 0.0 0.0 
0.0 0.0 0.0 
0.0 0.0 0.0 
0.0 0.0 0.0 
0.0 0.0 0.0 
0.0 0.0 0.0 
0.0 0.0 0.0 
0.0 0.0 0.0 
0.0 0.0 0.0 
0.0 0.0 0.0 
0.0 0.0 0.0 
0.0 0.0 0.0 
0.0 0.0 0.0 
0.0 0.0 0.0 
0.0 0.0 0.0 
0.0 0.0 0.0 
0.0 0.0 0.0 
0.0 0.0 0.0 
0.0 0.0 0.0 
0.0 0.0 0.0 
0.0 0.0 0.0 
0.0 0.0 0.0 
0.0 0.0 0.0 
0.0 0.0 0.0 
0.0 0.0 0.0 
0.0 0.0 0.0 
0.0 0.0 0.0 
0.0 0.0 0.0 
0.0 0.0 0.0 
0.0 0.0 0.0 
0.0 0.0 0.0 
0.0 0.0 0.0 
0.0 0.0 0.0 
0.0 0.0 0.0 
0.0 0.0 0.0 
0.0 0.0 0.0 
0.0 0.0 0.0 
0.0 0.0 0.0 
0.0 0.0 0.0 
0.0 0.0 0.0 
0.0 0.0 0.0 
0.0 0.0 0.0 
0.0 0.0 0.0 
0.0 0.0 0.0 
0.0 0.0 0.0 
0.0 0.0 0.0 
0.0 0.0 0.0 
0.0 0.0 0.0 
0.0 0.0 0.0 
0.0 0.0 0.0 
0.0 0.0 0.0 
0.0 0.0 0.0 
0.0 0.0 0.0 
0.0 0.0 0.0 
0.0 0.0 0.0 
0.0 0.0 0.0 
0.0 0.0 0.0 
0.0 0.0 0.0 
0.0 0.0 0.0 
0.0 0.0 0.0 
0.0 0.0 0.0 
0.0 0.0 0.0 
0.0 0.0 0.0 
0.0 0.0 0.0 
0.0 0.0 0.0 
0.0 0.0 0.0 
0.0 0.0 0.0 
0.0 0.0 0.0 
0.0 0.0 0.0 
0.0 0.0 0.0 
0.0 0.0 0.0 
0.0 0.0 0.0 
0.0 0.0 0.0 
0.0 0.0 0.0 
0.0 0.0 0.0 
0.0 0.0 0.0 
0.0 0.0 0.0 
0.0 0.0 0.0 
0.0 0.0 0.0 
0.0 0.0 0.0 
0.0 0.0 0.0 
0.0 0.0 0.0 
0.0 0.0 0.0 
0.0 0.0 0.0 
0.0 0.0 0.0 
0.0 0.0 0.0 
0.0 0.0 0.0 
0.0 0.0 0.0 
0.0 0.0 0.0 
0.0 0.0 0.0 
0.0 0.0 0.0 
0.0 0.0 0.0 
0.0 0.0 0.0 
0.0 0.0 0.0 
0.0 0.0 0.0 
0.0 0.0 0.0 
0.0 0.0 0.0 
0.0 0.0 0.0 
0.0 0.0 0.0 
0.0 0.0 0.0 
0.0 0.0 0.0 
0.0 0.0 0.0 
0.0 0.0 0.0 
0.0 0.0 0.0 
0.0 0.0 0.0 
0.0 0.0 0.0 
0.0 0.0 0.0 
0.0 0.0 0.0 
0.0 0.0 0.0 
0.0 0.0 0.0 
0.0 0.0 0.0 
0.0 0.0 0.0 
0.0 0.0 0.0 
0.0 0.0 0.0 
0.0 0.0 0.0 
0.0 0.0 0.0 
0.0 0.0 0.0 
0.0 0.0 0.0 
0.0 0.0 0.0 
0.0 0.0 0.0 
0.0 0.0 0.0 
0.0 0.0 0.0 
0.0 0.0 0.0 
0.0 0.0 0.0 
0.0 0.0 0.0 
0.0 0.0 0.0 
0.0 0.0 0.0 
0.0 0.0 0.0 
0.0 0.0 0.0 
0.0 0.0 0.0 
0.0 0.0 0.0 
0.0 0.0 0.0 
0.0 0.0 0.0 
0.0 0.0 0.0 
0.0 0.0 0.0 
0.0 0.0 0.0 
0.0 0.0 0.0 
0.0 0.0 0.0 
0.0 0.0 0.0 
0.0 0.0 0.0 
0.0 0.0 0.0 
0.0 0.0 0.0 
0.0 0.0 0.0 
0.0 0.0 0.0 
0.0 0.0 0.0 
0.0 0.0 0.0 
0.0 0.0 0.0 
0.0 0.0 0.0 
0.0 0.0 0.0 
0.0 0.0 0.0 
0.0 0.0 0.0 
0.0 0.0 0.0 
0.0 0.0 0.0 
0.0 0.0 0.0 
0.0 0.0 0.0 
0.0 0.0 0.0 
0.0 0.0 0.0 
0.0 0.0 0.0 
0.0 0.0 0.0 
0.0 0.0 0.0 
0.0 0.0 0.0 
0.0 0.0 0.0 
0.0 0.0 0.0 
0.0 0.0 0.0 
0.0 0.0 0.0 
0.0 0.0 0.0 
0.0 0.0 0.0 
0.0 0.0 0.0 
0.0 0.0 0.0 
0.0 0.0 0.0 
0.0 0.0 0.0 
0.0 0.0 0.0 
0.0 0.0 0.0 
0.0 0.0 0.0 
0.0 0.0 0.0 
0.0 0.0 0.0 
0.0 0.0 0.0 
0.0 0.0 0.0 
0.0 0.0 0.0 
0.0 0.0 0.0 
0.0 0.0 0.0 
0.0 0.0 0.0 
0.0 0.0 0.0 
0.0 0.0 0.0 
0.0 0.0 0.0 
0.0 0.0 0.0 
0.0 0.0 0.0 
0.0 0.0 0.0 
0.0 0.0 0.0 
0.0 0.0 0.0 
0.0 0.0 0.0 
0.0 0.0 0.0 
0.0 0.0 0.0 
0.0 0.0 0.0 
0.0 0.0 0.0 
0.0 0.0 0.0 
0.0 0.0 0.0 
0.0 0.0 0.0 
0.0 0.0 0.0 
0.0 0.0 0.0 
0.0 0.0 0.0 
0.0 0.0 0.0 
0.0 0.0 0.0 
0.0 0.0 0.0 
0.0 0.0 0.0 
0.0 0.0 0.0 
0.0 0.0 0.0 
0.0 0.0 0.0 
0.0 0.0 0.0 
0.0 0.0 0.0 
0.0 0.0 0.0 
0.0 0.0 0.0 
0.0 0.0 0.0 
0.0 0.0 0.0 
0.0 0.0 0.0 
0.0 0.0 0.0 
0.0 0.0 0.0 
0.0 0.0 0.0 
0.0 0.0 0.0 
0.0 0.0 0.0 
0.0 0.0 0.0 
0.0 0.0 0.0 
0.0 0.0 0.0 
0.0 0.0 0.0 
0.0 0.0 0.0 
0.0 0.0 0.0 
0.0 0.0 0.0 
0.0 0.0 0.0 
0.0 0.0 0.0 
0.0 0.0 0.0 
0.0 0.0 0.0 
0.0 0.0 0.0 
0.0 0.0 0.0 
0.0 0.0 0.0 
0.0 0.0 0.0 
0.0 0.0 0.0 
0.0 0.0 0.0 
0.0 0.0 0.0 
0.0 0.0 0.0 
0.0 0.0 0.0 
0.0 0.0 0.0 
0.0 0.0 0.0 
0.0 0.0 0.0 
0.0 0.0 0.0 
0.0 0.0 0.0 
0.0 0.0 0.0 
0.0 0.0 0.0 
0.0 0.0 0.0 
0.0 0.0 0.0 
0.0 0.0 0.0 
0.0 0.0 0.0 
0.0 0.0 0.0 
0.0 0.0 0.0 
0.0 0.0 0.0 
0.0 0.0 0.0 
0.0 0.0 0.0 
0.0 0.0 0.0 
0.0 0.0 0.0 
0.0 0.0 0.0 
0.0 0.0 0.0 
0.0 0.0 0.0 
0.0 0.0 0.0 
0.0 0.0 0.0 
0.0 0.0 0.0 
0.0 0.0 0.0 
0.0 0.0 0.0 
0.0 0.0 0.0 
0.0 0.0 0.0 
0.0 0.0 0.0 
0.0 0.0 0.0 
0.0 0.0 0.0 
0.0 0.0 0.0 
0.0 0.0 0.0 
0.0 0.0 0.0 
0.0 0.0 0.0 
0.0 0.0 0.0 
0.0 0.0 0.0 
0.0 0.0 0.0 
0.0 0.0 0.0 
0.0 0.0 0.0 
0.0 0.0 0.0 
0.0 0.0 0.0 
0.0 0.0 0.0 
0.0 0.0 0.0 
0.0 0.0 0.0 
0.0 0.0 0.0 
0.0 0.0 0.0 
0.0 0.0 0.0 
0.0 0.0 0.0 
0.0 0.0 0.0 
0.0 0.0 0.0 
0.0 0.0 0.0 
0.0 0.0 0.0 
0.0 0.0 0.0 
0.0 0.0 0.0 
0.0 0.0 0.0 
0.0 0.0 0.0 
0.0 0.0 0.0 
0.0 0.0 0.0 
0.0 0.0 0.0 
0.0 0.0 0.0 
0.0 0.0 0.0 
0.0 0.0 0.0 
0.0 0.0 0.0 
0.0 0.0 0.0 
0.0 0.0 0.0 
0.0 0.0 0.0 
0.0 0.0 0.0 
0.0 0.0 0.0 
0.0 0.0 0.0 
0.0 0.0 0.0 
0.0 0.0 0.0 
0.0 0.0 0.0 
0.0 0.0 0.0 
0.0 0.0 0.0 
0.0 0.0 0.0 
0.0 0.0 0.0 
0.0 0.0 0.0 
0.0 0.0 0.0 
0.0 0.0 0.0 
0.0 0.0 0.0 
0.0 0.0 0.0 
0.0 0.0 0.0 
0.0 0.0 0.0 
0.0 0.0 0.0 
0.0 0.0 0.0 
0.0 0.0 0.0 
0.0 0.0 0.0 
0.0 0.0 0.0 
0.0 0.0 0.0 
0.0 0.0 0.0 
0.0 0.0 0.0 
0.0 0.0 0.0 
0.0 0.0 0.0 
0.0 0.0 0.0 
0.0 0.0 0.0 
0.0 0.0 0.0 
0.0 0.0 0.0 
0.0 0.0 0.0 
0.0 0.0 0.0 
0.0 0.0 0.0 
0.0 0.0 0.0 
0.0 0.0 0.0 
0.0 0.0 0.0 
0.0 0.0 0.0 
0.0 0.0 0.0 
0.0 0.0 0.0 
0.0 0.0 0.0 
0.0 0.0 0.0 
0.0 0.0 0.0 
0.0 0.0 0.0 
0.0 0.0 0.0 
0.0 0.0 0.0 
0.0 0.0 0.0 
0.0 0.0 0.0 
0.0 0.0 0.0 
0.0 0.0 0.0 
0.0 0.0 0.0 
0.0 0.0 0.0 
0.0 0.0 0.0 
0.0 0.0 0.0 
0.0 0.0 0.0 
0.0 0.0 0.0 
0.0 0.0 0.0 
0.0 0.0 0.0 
0.0 0.0 0.0 
0.0 0.0 0.0 
0.0 0.0 0.0 
0.0 0.0 0.0 
0.0 0.0 0.0 
0.0 0.0 0.0 
0.0 0.0 0.0 
0.0 0.0 0.0 
0.0 0.0 0.0 
0.0 0.0 0.0 
0.0 0.0 0.0 
0.0 0.0 0.0 
0.0 0.0 0.0 
0.0 0.0 0.0 
0.0 0.0 0.0 
0.0 0.0 0.0 
0.0 0.0 0.0 
0.0 0.0 0.0 
0.0 0.0 0.0 
0.0 0.0 0.0 
0.0 0.0 0.0 
0.0 0.0 0.0 
0.0 0.0 0.0 
0.0 0.0 0.0 
0.0 0.0 0.0 
0.0 0.0 0.0 
0.0 0.0 0.0 
0.0 0.0 0.0 
0.0 0.0 0.0 
0.0 0.0 0.0 
0.0 0.0 0.0 
0.0 0.0 0.0 
0.0 0.0 0.0 
0.0 0.0 0.0 
0.0 0.0 0.0 
0.0 0.0 0.0 
0.0 0.0 0.0 
0.0 0.0 0.0 
0.0 0.0 0.0 
0.0 0.0 0.0 
0.0 0.0 0.0 
0.0 0.0 0.0 
0.0 0.0 0.0 
0.0 0.0 0.0 
0.0 0.0 0.0 
0.0 0.0 0.0 
0.0 0.0 0.0 
0.0 0.0 0.0 
0.0 0.0 0.0 
0.0 0.0 0.0 
0.0 0.0 0.0 
0.0 0.0 0.0 
0.0 0.0 0.0 
0.0 0.0 0.0 
0.0 0.0 0.0 
0.0 0.0 0.0 
0.0 0.0 0.0 
0.0 0.0 0.0 
0.0 0.0 0.0 
0.0 0.0 0.0 
0.0 0.0 0.0 
0.0 0.0 0.0 
0.0 0.0 0.0 
0.0 0.0 0.0 
0.0 0.0 0.0 
0.0 0.0 0.0 
0.0 0.0 0.0 
0.0 0.0 0.0 
0.0 0.0 0.0 
0.0 0.0 0.0 
0.0 0.0 0.0 
0.0 0.0 0.0 
0.0 0.0 0.0 
0.0 0.0 0.0 
0.0 0.0 0.0 
0.0 0.0 0.0 
0.0 0.0 0.0 
0.0 0.0 0.0 
0.0 0.0 0.0 
0.0 0.0 0.0 
0.0 0.0 0.0 
0.0 0.0 0.0 
0.0 0.0 0.0 
0.0 0.0 0.0 
0.0 0.0 0.0 
0.0 0.0 0.0 
0.0 0.0 0.0 
0.0 0.0 0.0 
0.0 0.0 0.0 
0.0 0.0 0.0 
0.0 0.0 0.0 
0.0 0.0 0.0 
0.0 0.0 0.0 
0.0 0.0 0.0 
0.0 0.0 0.0 
0.0 0.0 0.0 
0.0 0.0 0.0 
0.0 0.0 0.0 
0.0 0.0 0.0 
0.0 0.0 0.0 
0.0 0.0 0.0 
0.0 0.0 0.0 
0.0 0.0 0.0 
0.0 0.0 0.0 
0.0 0.0 0.0 
0.0 0.0 0.0 
0.0 0.0 0.0 
0.0 0.0 0.0 
0.0 0.0 0.0 
0.0 0.0 0.0 
0.0 0.0 0.0 
0.0 0.0 0.0 
0.0 0.0 0.0 
0.0 0.0 0.0 
0.0 0.0 0.0 
0.0 0.0 0.0 
0.0 0.0 0.0 
0.0 0.0 0.0 
0.0 0.0 0.0 
0.0 0.0 0.0 
0.0 0.0 0.0 
0.0 0.0 0.0 
0.0 0.0 0.0 
0.0 0.0 0.0 
0.0 0.0 0.0 
0.0 0.0 0.0 
0.0 0.0 0.0 
0.0 0.0 0.0 
0.0 0.0 0.0 
0.0 0.0 0.0 
0.0 0.0 0.0 
0.0 0.0 0.0 
0.0 0.0 0.0 
0.0 0.0 0.0 
0.0 0.0 0.0 
0.0 0.0 0.0 
0.0 0.0 0.0 
0.0 0.0 0.0 
0.0 0.0 0.0 
0.0 0.0 0.0 
0.0 0.0 0.0 
0.0 0.0 0.0 
0.0 0.0 0.0 
0.0 0.0 0.0 
0.0 0.0 0.0 
0.0 0.0 0.0 
0.0 0.0 0.0 
0.0 0.0 0.0 
0.0 0.0 0.0 
0.0 0.0 0.0 
0.0 0.0 0.0 
0.0 0.0 0.0 
0.0 0.0 0.0 
0.0 0.0 0.0 
0.0 0.0 0.0 
0.0 0.0 0.0 
0.0 0.0 0.0 
0.0 0.0 0.0 
0.0 0.0 0.0 
0.0 0.0 0.0 
0.0 0.0 0.0 
0.0 0.0 0.0 
0.0 0.0 0.0 
0.0 0.0 0.0 
0.0 0.0 0.0 
0.0 0.0 0.0 
0.0 0.0 0.0 
0.0 0.0 0.0 
0.0 0.0 0.0 
0.0 0.0 0.0 
0.0 0.0 0.0 
0.0 0.0 0.0 
0.0 0.0 0.0 
0.0 0.0 0.0 
0.0 0.0 0.0 
0.0 0.0 0.0 
0.0 0.0 0.0 
0.0 0.0 0.0 
0.0 0.0 0.0 
0.0 0.0 0.0 
0.0 0.0 0.0 
0.0 0.0 0.0 
0.0 0.0 0.0 
0.0 0.0 0.0 
0.0 0.0 0.0 
0.0 0.0 0.0 
0.0 0.0 0.0 
0.0 0.0 0.0 
0.0 0.0 0.0 
0.0 0.0 0.0 
0.0 0.0 0.0 
0.0 0.0 0.0 
0.0 0.0 0.0 
0.0 0.0 0.0 
0.0 0.0 0.0 
0.0 0.0 0.0 
0.0 0.0 0.0 
0.0 0.0 0.0 
0.0 0.0 0.0 
0.0 0.0 0.0 
0.0 0.0 0.0 
0.0 0.0 0.0 
0.0 0.0 0.0 
0.0 0.0 0.0 
0.0 0.0 0.0 
0.0 0.0 0.0 
0.0 0.0 0.0 
0.0 0.0 0.0 
0.0 0.0 0.0 
0.0 0.0 0.0 
0.0 0.0 0.0 
0.0 0.0 0.0 
0.0 0.0 0.0 
0.0 0.0 0.0 
0.0 0.0 0.0 
0.0 0.0 0.0 
0.0 0.0 0.0 
0.0 0.0 0.0 
0.0 0.0 0.0 
0.0 0.0 0.0 
0.0 0.0 0.0 
0.0 0.0 0.0 
0.0 0.0 0.0 
0.0 0.0 0.0 
0.0 0.0 0.0 
0.0 0.0 0.0 
0.0 0.0 0.0 
0.0 0.0 0.0 
0.0 0.0 0.0 
0.0 0.0 0.0 
0.0 0.0 0.0 
0.0 0.0 0.0 
0.0 0.0 0.0 
0.0 0.0 0.0 
0.0 0.0 0.0 
0.0 0.0 0.0 
0.0 0.0 0.0 
0.0 0.0 0.0 
0.0 0.0 0.0 
0.0 0.0 0.0 
0.0 0.0 0.0 
0.0 0.0 0.0 
0.0 0.0 0.0 
0.0 0.0 0.0 
0.0 0.0 0.0 
0.0 0.0 0.0 
0.0 0.0 0.0 
0.0 0.0 0.0 
0.0 0.0 0.0 
0.0 0.0 0.0 
0.0 0.0 0.0 
0.0 0.0 0.0 
0.0 0.0 0.0 
0.0 0.0 0.0 
0.0 0.0 0.0 
0.0 0.0 0.0 
0.0 0.0 0.0 
0.0 0.0 0.0 
0.0 0.0 0.0 
0.0 0.0 0.0 
0.0 0.0 0.0 
0.0 0.0 0.0 
0.0 0.0 0.0 
0.0 0.0 0.0 
0.0 0.0 0.0 
0.0 0.0 0.0 
0.0 0.0 0.0 
0.0 0.0 0.0 
0.0 0.0 0.0 
0.0 0.0 0.0 
0.0 0.0 0.0 
0.0 0.0 0.0 
0.0 0.0 0.0 
0.0 0.0 0.0 
0.0 0.0 0.0 
0.0 0.0 0.0 
0.0 0.0 0.0 
0.0 0.0 0.0 
0.0 0.0 0.0 
0.0 0.0 0.0 
0.0 0.0 0.0 
0.0 0.0 0.0 
0.0 0.0 0.0 
0.0 0.0 0.0 
0.0 0.0 0.0 
0.0 0.0 0.0 
0.0 0.0 0.0 
0.0 0.0 0.0 
0.0 0.0 0.0 
0.0 0.0 0.0 
0.0 0.0 0.0 
0.0 0.0 0.0 
0.0 0.0 0.0 
0.0 0.0 0.0 
0.0 0.0 0.0 
0.0 0.0 0.0 
0.0 0.0 0.0 
0.0 0.0 0.0 
0.0 0.0 0.0 
0.0 0.0 0.0 
0.0 0.0 0.0 
0.0 0.0 0.0 
0.0 0.0 0.0 
0.0 0.0 0.0 
0.0 0.0 0.0 
0.0 0.0 0.0 
0.0 0.0 0.0 
0.0 0.0 0.0 
0.0 0.0 0.0 
0.0 0.0 0.0 
0.0 0.0 0.0 
0.0 0.0 0.0 
0.0 0.0 0.0 
0.0 0.0 0.0 
0.0 0.0 0.0 
0.0 0.0 0.0 
0.0 0.0 0.0 
0.0 0.0 0.0 
0.0 0.0 0.0 
0.0 0.0 0.0 
0.0 0.0 0.0 
0.0 0.0 0.0 
0.0 0.0 0.0 
0.0 0.0 0.0 
0.0 0.0 0.0 
0.0 0.0 0.0 
0.0 0.0 0.0 
0.0 0.0 0.0 
0.0 0.0 0.0 
0.0 0.0 0.0 
0.0 0.0 0.0 
0.0 0.0 0.0 
0.0 0.0 0.0 
0.0 0.0 0.0 
0.0 0.0 0.0 
0.0 0.0 0.0 
0.0 0.0 0.0 
0.0 0.0 0.0 
0.0 0.0 0.0 
0.0 0.0 0.0 
0.0 0.0 0.0 
0.0 0.0 0.0 
0.0 0.0 0.0 
0.0 0.0 0.0 
0.0 0.0 0.0 
0.0 0.0 0.0 
0.0 0.0 0.0 
0.0 0.0 0.0 
0.0 0.0 0.0 
0.0 0.0 0.0 
0.0 0.0 0.0 
0.0 0.0 0.0 
0.0 0.0 0.0 
0.0 0.0 0.0 
0.0 0.0 0.0 
0.0 0.0 0.0 
0.0 0.0 0.0 
0.0 0.0 0.0 
0.0 0.0 0.0 
0.0 0.0 0.0 
0.0 0.0 0.0 
0.0 0.0 0.0 
0.0 0.0 0.0 
0.0 0.0 0.0 
0.0 0.0 0.0 
0.0 0.0 0.0 
0.0 0.0 0.0 
0.0 0.0 0.0 
0.0 0.0 0.0 
0.0 0.0 0.0 
0.0 0.0 0.0 
0.0 0.0 0.0 
0.0 0.0 0.0 
0.0 0.0 0.0 
0.0 0.0 0.0 
0.0 0.0 0.0 
0.0 0.0 0.0 
0.0 0.0 0.0 
0.0 0.0 0.0 
0.0 0.0 0.0 
0.0 0.0 0.0 
0.0 0.0 0.0 
0.0 0.0 0.0 
0.0 0.0 0.0 
0.0 0.0 0.0 
0.0 0.0 0.0 
0.0 0.0 0.0 
0.0 0.0 0.0 
0.0 0.0 0.0 
0.0 0.0 0.0 
0.0 0.0 0.0 
0.0 0.0 0.0 
0.0 0.0 0.0 
0.0 0.0 0.0 
0.0 0.0 0.0 
0.0 0.0 0.0 
0.0 0.0 0.0 
0.0 0.0 0.0 
0.0 0.0 0.0 
0.0 0.0 0.0 
0.0 0.0 0.0 
0.0 0.0 0.0 
0.0 0.0 0.0 
0.0 0.0 0.0 
0.0 0.0 0.0 
0.0 0.0 0.0 
0.0 0.0 0.0 
0.0 0.0 0.0 
0.0 0.0 0.0 
0.0 0.0 0.0 
0.0 0.0 0.0 
0.0 0.0 0.0 
0.0 0.0 0.0 
0.0 0.0 0.0 
0.0 0.0 0.0 
0.0 0.0 0.0 
0.0 0.0 0.0 
0.0 0.0 0.0 
0.0 0.0 0.0 
0.0 0.0 0.0 
0.0 0.0 0.0 
0.0 0.0 0.0 
0.0 0.0 0.0 
0.0 0.0 0.0 
0.0 0.0 0.0 
0.0 0.0 0.0 
0.0 0.0 0.0 
0.0 0.0 0.0 
0.0 0.0 0.0 
0.0 0.0 0.0 
0.0 0.0 0.0 
0.0 0.0 0.0 
0.0 0.0 0.0 
0.0 0.0 0.0 
0.0 0.0 0.0 
0.0 0.0 0.0 
0.0 0.0 0.0 
0.0 0.0 0.0 
0.0 0.0 0.0 
0.0 0.0 0.0 
0.0 0.0 0.0 
0.0 0.0 0.0 
0.0 0.0 0.0 
0.0 0.0 0.0 
0.0 0.0 0.0 
0.0 0.0 0.0 
0.0 0.0 0.0 
0.0 0.0 0.0 
0.0 0.0 0.0 
0.0 0.0 0.0 
0.0 0.0 0.0 
0.0 0.0 0.0 
0.0 0.0 0.0 
0.0 0.0 0.0 
0.0 0.0 0.0 
0.0 0.0 0.0 
0.0 0.0 0.0 
0.0 0.0 0.0 
0.0 0.0 0.0 
0.0 0.0 0.0 
0.0 0.0 0.0 
0.0 0.0 0.0 
0.0 0.0 0.0 
0.0 0.0 0.0 
0.0 0.0 0.0 
0.0 0.0 0.0 
0.0 0.0 0.0 
0.0 0.0 0.0 
0.0 0.0 0.0 
0.0 0.0 0.0 
0.0 0.0 0.0 
0.0 0.0 0.0 
0.0 0.0 0.0 
0.0 0.0 0.0 
0.0 0.0 0.0 
0.0 0.0 0.0 
0.0 0.0 0.0 
0.0 0.0 0.0 
0.0 0.0 0.0 
0.0 0.0 0.0 
0.0 0.0 0.0 
0.0 0.0 0.0 
0.0 0.0 0.0 
0.0 0.0 0.0 
0.0 0.0 0.0 
0.0 0.0 0.0 
0.0 0.0 0.0 
0.0 0.0 0.0 
0.0 0.0 0.0 
0.0 0.0 0.0 
0.0 0.0 0.0 
0.0 0.0 0.0 
0.0 0.0 0.0 
0.0 0.0 0.0 
0.0 0.0 0.0 
0.0 0.0 0.0 
0.0 0.0 0.0 
0.0 0.0 0.0 
0.0 0.0 0.0 
0.0 0.0 0.0 
0.0 0.0 0.0 
0.0 0.0 0.0 
0.0 0.0 0.0 
0.0 0.0 0.0 
0.0 0.0 0.0 
0.0 0.0 0.0 
0.0 0.0 0.0 
0.0 0.0 0.0 
0.0 0.0 0.0 
0.0 0.0 0.0 
0.0 0.0 0.0 
0.0 0.0 0.0 
0.0 0.0 0.0 
0.0 0.0 0.0 
0.0 0.0 0.0 
0.0 0.0 0.0 
0.0 0.0 0.0 
0.0 0.0 0.0 
0.0 0.0 0.0 
0.0 0.0 0.0 
0.0 0.0 0.0 
0.0 0.0 0.0 
0.0 0.0 0.0 
0.0 0.0 0.0 
0.0 0.0 0.0 
0.0 0.0 0.0 
0.0 0.0 0.0 
0.0 0.0 0.0 
0.0 0.0 0.0 
0.0 0.0 0.0 
0.0 0.0 0.0 
0.0 0.0 0.0 
0.0 0.0 0.0 
0.0 0.0 0.0 
0.0 0.0 0.0 
0.0 0.0 0.0 
0.0 0.0 0.0 
0.0 0.0 0.0 
0.0 0.0 0.0 
0.0 0.0 0.0 
0.0 0.0 0.0 
0.0 0.0 0.0 
0.0 0.0 0.0 
0.0 0.0 0.0 
0.0 0.0 0.0 
0.0 0.0 0.0 
0.0 0.0 0.0 
0.0 0.0 0.0 
0.0 0.0 0.0 
0.0 0.0 0.0 
0.0 0.0 0.0 
0.0 0.0 0.0 
0.0 0.0 0.0 
0.0 0.0 0.0 
0.0 0.0 0.0 
0.0 0.0 0.0 
0.0 0.0 0.0 
0.0 0.0 0.0 
0.0 0.0 0.0 
0.0 0.0 0.0 
0.0 0.0 0.0 
0.0 0.0 0.0 
0.0 0.0 0.0 
0.0 0.0 0.0 
0.0 0.0 0.0 
0.0 0.0 0.0 
0.0 0.0 0.0 
0.0 0.0 0.0 
0.0 0.0 0.0 
0.0 0.0 0.0 
0.0 0.0 0.0 
0.0 0.0 0.0 
0.0 0.0 0.0 
0.0 0.0 0.0 
0.0 0.0 0.0 
0.0 0.0 0.0 
0.0 0.0 0.0 
0.0 0.0 0.0 
0.0 0.0 0.0 
0.0 0.0 0.0 
0.0 0.0 0.0 
0.0 0.0 0.0 
0.0 0.0 0.0 
0.0 0.0 0.0 
0.0 0.0 0.0 
0.0 0.0 0.0 
0.0 0.0 0.0 
0.0 0.0 0.0 
0.0 0.0 0.0 
0.0 0.0 0.0 
0.0 0.0 0.0 
0.0 0.0 0.0 
0.0 0.0 0.0 
0.0 0.0 0.0 
0.0 0.0 0.0 
0.0 0.0 0.0 
0.0 0.0 0.0 
0.0 0.0 0.0 
0.0 0.0 0.0 
0.0 0.0 0.0 
0.0 0.0 0.0 
0.0 0.0 0.0 
0.0 0.0 0.0 
0.0 0.0 0.0 
0.0 0.0 0.0 
0.0 0.0 0.0 
0.0 0.0 0.0 
0.0 0.0 0.0 
0.0 0.0 0.0 
0.0 0.0 0.0 
0.0 0.0 0.0 
0.0 0.0 0.0 
0.0 0.0 0.0 
0.0 0.0 0.0 
0.0 0.0 0.0 
0.0 0.0 0.0 
0.0 0.0 0.0 
0.0 0.0 0.0 
0.0 0.0 0.0 
0.0 0.0 0.0 
0.0 0.0 0.0 
0.0 0.0 0.0 
0.0 0.0 0.0 
0.0 0.0 0.0 
0.0 0.0 0.0 
0.0 0.0 0.0 
0.0 0.0 0.0 
0.0 0.0 0.0 
0.0 0.0 0.0 
0.0 0.0 0.0 
0.0 0.0 0.0 
0.0 0.0 0.0 
0.0 0.0 0.0 
0.0 0.0 0.0 
0.0 0.0 0.0 
0.0 0.0 0.0 
0.0 0.0 0.0 
0.0 0.0 0.0 
0.0 0.0 0.0 
0.0 0.0 0.0 
0.0 0.0 0.0 
0.0 0.0 0.0 
0.0 0.0 0.0 
0.0 0.0 0.0 
0.0 0.0 0.0 
0.0 0.0 0.0 
0.0 0.0 0.0 
0.0 0.0 0.0 
0.0 0.0 0.0 
0.0 0.0 0.0 
0.0 0.0 0.0 
0.0 0.0 0.0 
0.0 0.0 0.0 
0.0 0.0 0.0 
0.0 0.0 0.0 
0.0 0.0 0.0 
0.0 0.0 0.0 
0.0 0.0 0.0 
0.0 0.0 0.0 
0.0 0.0 0.0 
0.0 0.0 0.0 
0.0 0.0 0.0 
0.0 0.0 0.0 
0.0 0.0 0.0 
0.0 0.0 0.0 
0.0 0.0 0.0 
0.0 0.0 0.0 
0.0 0.0 0.0 
0.0 0.0 0.0 
0.0 0.0 0.0 
0.0 0.0 0.0 
0.0 0.0 0.0 
0.0 0.0 0.0 
0.0 0.0 0.0 
0.0 0.0 0.0 
0.0 0.0 0.0 
0.0 0.0 0.0 
0.0 0.0 0.0 
0.0 0.0 0.0 
0.0 0.0 0.0 
0.0 0.0 0.0 
0.0 0.0 0.0 
0.0 0.0 0.0 
0.0 0.0 0.0 
0.0 0.0 0.0 
0.0 0.0 0.0 
0.0 0.0 0.0 
0.0 0.0 0.0 
0.0 0.0 0.0 
0.0 0.0 0.0 
0.0 0.0 0.0 
0.0 0.0 0.0 
0.0 0.0 0.0 
0.0 0.0 0.0 
0.0 0.0 0.0 
0.0 0.0 0.0 
0.0 0.0 0.0 
0.0 0.0 0.0 
0.0 0.0 0.0 
0.0 0.0 0.0 
0.0 0.0 0.0 
0.0 0.0 0.0 
0.0 0.0 0.0 
0.0 0.0 0.0 
0.0 0.0 0.0 
0.0 0.0 0.0 
0.0 0.0 0.0 
0.0 0.0 0.0 
0.0 0.0 0.0 
0.0 0.0 0.0 
0.0 0.0 0.0 
0.0 0.0 0.0 
0.0 0.0 0.0 
0.0 0.0 0.0 
0.0 0.0 0.0 
0.0 0.0 0.0 
0.0 0.0 0.0 
0.0 0.0 0.0 
0.0 0.0 0.0 
0.0 0.0 0.0 
0.0 0.0 0.0 
0.0 0.0 0.0 
0.0 0.0 0.0 
0.0 0.0 0.0 
0.0 0.0 0.0 
0.0 0.0 0.0 
0.0 0.0 0.0 
0.0 0.0 0.0 
0.0 0.0 0.0 
0.0 0.0 0.0 
0.0 0.0 0.0 
0.0 0.0 0.0 
0.0 0.0 0.0 
0.0 0.0 0.0 
0.0 0.0 0.0 
0.0 0.0 0.0 
0.0 0.0 0.0 
0.0 0.0 0.0 
0.0 0.0 0.0 
0.0 0.0 0.0 
0.0 0.0 0.0 
0.0 0.0 0.0 
0.0 0.0 0.0 
0.0 0.0 0.0 
0.0 0.0 0.0 
0.0 0.0 0.0 
0.0 0.0 0.0 
0.0 0.0 0.0 
0.0 0.0 0.0 
0.0 0.0 0.0 
0.0 0.0 0.0 
0.0 0.0 0.0 
0.0 0.0 0.0 
0.0 0.0 0.0 
0.0 0.0 0.0 
0.0 0.0 0.0 
0.0 0.0 0.0 
0.0 0.0 0.0 
0.0 0.0 0.0 
0.0 0.0 0.0 
0.0 0.0 0.0 
0.0 0.0 0.0 
0.0 0.0 0.0 
0.0 0.0 0.0 
0.0 0.0 0.0 
0.0 0.0 0.0 
0.0 0.0 0.0 
0.0 0.0 0.0 
0.0 0.0 0.0 
0.0 0.0 0.0 
0.0 0.0 0.0 
0.0 0.0 0.0 
0.0 0.0 0.0 
0.0 0.0 0.0 
0.0 0.0 0.0 
0.0 0.0 0.0 
0.0 0.0 0.0 
0.0 0.0 0.0 
0.0 0.0 0.0 
0.0 0.0 0.0 
0.0 0.0 0.0 
0.0 0.0 0.0 
0.0 0.0 0.0 
0.0 0.0 0.0 
0.0 0.0 0.0 
0.0 0.0 0.0 
0.0 0.0 0.0 
0.0 0.0 0.0 
0.0 0.0 0.0 
0.0 0.0 0.0 
0.0 0.0 0.0 
0.0 0.0 0.0 
0.0 0.0 0.0 
0.0 0.0 0.0 
0.0 0.0 0.0 
0.0 0.0 0.0 
0.0 0.0 0.0 
0.0 0.0 0.0 
0.0 0.0 0.0 
0.0 0.0 0.0 
0.0 0.0 0.0 
0.0 0.0 0.0 
0.0 0.0 0.0 
0.0 0.0 0.0 
0.0 0.0 0.0 
0.0 0.0 0.0 
0.0 0.0 0.0 
0.0 0.0 0.0 
0.0 0.0 0.0 
0.0 0.0 0.0 
0.0 0.0 0.0 
0.0 0.0 0.0 
0.0 0.0 0.0 
0.0 0.0 0.0 
0.0 0.0 0.0 
0.0 0.0 0.0 
0.0 0.0 0.0 
0.0 0.0 0.0 
0.0 0.0 0.0 
0.0 0.0 0.0 
0.0 0.0 0.0 
0.0 0.0 0.0 
0.0 0.0 0.0 
0.0 0.0 0.0 
0.0 0.0 0.0 
0.0 0.0 0.0 
0.0 0.0 0.0 
0.0 0.0 0.0 
0.0 0.0 0.0 
0.0 0.0 0.0 
0.0 0.0 0.0 
0.0 0.0 0.0 
0.0 0.0 0.0 
0.0 0.0 0.0 
0.0 0.0 0.0 
0.0 0.0 0.0 
0.0 0.0 0.0 
0.0 0.0 0.0 
0.0 0.0 0.0 
0.0 0.0 0.0 
0.0 0.0 0.0 
0.0 0.0 0.0 
0.0 0.0 0.0 
0.0 0.0 0.0 
0.0 0.0 0.0 
0.0 0.0 0.0 
0.0 0.0 0.0 
0.0 0.0 0.0 
0.0 0.0 0.0 
0.0 0.0 0.0 
0.0 0.0 0.0 
0.0 0.0 0.0 
0.0 0.0 0.0 
0.0 0.0 0.0 
0.0 0.0 0.0 
0.0 0.0 0.0 
0.0 0.0 0.0 
0.0 0.0 0.0 
0.0 0.0 0.0 
0.0 0.0 0.0 
0.0 0.0 0.0 
0.0 0.0 0.0 
0.0 0.0 0.0 
0.0 0.0 0.0 
0.0 0.0 0.0 
0.0 0.0 0.0 
0.0 0.0 0.0 
0.0 0.0 0.0 
0.0 0.0 0.0 
0.0 0.0 0.0 
0.0 0.0 0.0 
0.0 0.0 0.0 
0.0 0.0 0.0 
0.0 0.0 0.0 
0.0 0.0 0.0 
0.0 0.0 0.0 
0.0 0.0 0.0 
0.0 0.0 0.0 
0.0 0.0 0.0 
0.0 0.0 0.0 
0.0 0.0 0.0 
0.0 0.0 0.0 
0.0 0.0 0.0 
0.0 0.0 0.0 
0.0 0.0 0.0 
0.0 0.0 0.0 
0.0 0.0 0.0 
0.0 0.0 0.0 
0.0 0.0 0.0 
0.0 0.0 0.0 
0.0 0.0 0.0 
0.0 0.0 0.0 
0.0 0.0 0.0 
0.0 0.0 0.0 
0.0 0.0 0.0 
0.0 0.0 0.0 
0.0 0.0 0.0 
0.0 0.0 0.0 
0.0 0.0 0.0 
0.0 0.0 0.0 
0.0 0.0 0.0 
0.0 0.0 0.0 
0.0 0.0 0.0 
0.0 0.0 0.0 
0.0 0.0 0.0 
0.0 0.0 0.0 
0.0 0.0 0.0 
0.0 0.0 0.0 
0.0 0.0 0.0 
0.0 0.0 0.0 
0.0 0.0 0.0 
0.0 0.0 0.0 
0.0 0.0 0.0 
0.0 0.0 0.0 
0.0 0.0 0.0 
0.0 0.0 0.0 
0.0 0.0 0.0 
0.0 0.0 0.0 
0.0 0.0 0.0 
0.0 0.0 0.0 
0.0 0.0 0.0 
0.0 0.0 0.0 
0.0 0.0 0.0 
0.0 0.0 0.0 
0.0 0.0 0.0 
0.0 0.0 0.0 
0.0 0.0 0.0 
0.0 0.0 0.0 
0.0 0.0 0.0 
0.0 0.0 0.0 
0.0 0.0 0.0 
0.0 0.0 0.0 
0.0 0.0 0.0 
0.0 0.0 0.0 
0.0 0.0 0.0 
0.0 0.0 0.0 
0.0 0.0 0.0 
0.0 0.0 0.0 
0.0 0.0 0.0 
0.0 0.0 0.0 
0.0 0.0 0.0 
0.0 0.0 0.0 
0.0 0.0 0.0 
0.0 0.0 0.0 
0.0 0.0 0.0 
0.0 0.0 0.0 
0.0 0.0 0.0 
0.0 0.0 0.0 
0.0 0.0 0.0 
0.0 0.0 0.0 
0.0 0.0 0.0 
0.0 0.0 0.0 
0.0 0.0 0.0 
0.0 0.0 0.0 
0.0 0.0 0.0 
0.0 0.0 0.0 
0.0 0.0 0.0 
0.0 0.0 0.0 
0.0 0.0 0.0 
0.0 0.0 0.0 
0.0 0.0 0.0 
0.0 0.0 0.0 
0.0 0.0 0.0 
0.0 0.0 0.0 
0.0 0.0 0.0 
0.0 0.0 0.0 
0.0 0.0 0.0 
0.0 0.0 0.0 
0.0 0.0 0.0 
0.0 0.0 0.0 
0.0 0.0 0.0 
0.0 0.0 0.0 
0.0 0.0 0.0 
0.0 0.0 0.0 
0.0 0.0 0.0 
0.0 0.0 0.0 
0.0 0.0 0.0 
0.0 0.0 0.0 
0.0 0.0 0.0 
0.0 0.0 0.0 
0.0 0.0 0.0 
0.0 0.0 0.0 
0.0 0.0 0.0 
0.0 0.0 0.0 
0.0 0.0 0.0 
0.0 0.0 0.0 
0.0 0.0 0.0 
0.0 0.0 0.0 
0.0 0.0 0.0 
0.0 0.0 0.0 
0.0 0.0 0.0 
0.0 0.0 0.0 
0.0 0.0 0.0 
0.0 0.0 0.0 
0.0 0.0 0.0 
0.0 0.0 0.0 
0.0 0.0 0.0 
0.0 0.0 0.0 
0.0 0.0 0.0 
0.0 0.0 0.0 
0.0 0.0 0.0 
0.0 0.0 0.0 
0.0 0.0 0.0 
0.0 0.0 0.0 
0.0 0.0 0.0 
0.0 0.0 0.0 
0.0 0.0 0.0 
0.0 0.0 0.0 
0.0 0.0 0.0 
0.0 0.0 0.0 
0.0 0.0 0.0 
0.0 0.0 0.0 
0.0 0.0 0.0 
0.0 0.0 0.0 
0.0 0.0 0.0 
0.0 0.0 0.0 
0.0 0.0 0.0 
0.0 0.0 0.0 
0.0 0.0 0.0 
0.0 0.0 0.0 
0.0 0.0 0.0 
0.0 0.0 0.0 
0.0 0.0 0.0 
0.0 0.0 0.0 
0.0 0.0 0.0 
0.0 0.0 0.0 
0.0 0.0 0.0 
0.0 0.0 0.0 
0.0 0.0 0.0 
0.0 0.0 0.0 
0.0 0.0 0.0 
0.0 0.0 0.0 
0.0 0.0 0.0 
0.0 0.0 0.0 
0.0 0.0 0.0 
0.0 0.0 0.0 
0.0 0.0 0.0 
0.0 0.0 0.0 
0.0 0.0 0.0 
0.0 0.0 0.0 
0.0 0.0 0.0 
0.0 0.0 0.0 
0.0 0.0 0.0 
0.0 0.0 0.0 
0.0 0.0 0.0 
0.0 0.0 0.0 
0.0 0.0 0.0 
0.0 0.0 0.0 
0.0 0.0 0.0 
0.0 0.0 0.0 
0.0 0.0 0.0 
0.0 0.0 0.0 
0.0 0.0 0.0 
0.0 0.0 0.0 
0.0 0.0 0.0 
0.0 0.0 0.0 
0.0 0.0 0.0 
0.0 0.0 0.0 
0.0 0.0 0.0 
0.0 0.0 0.0 
0.0 0.0 0.0 
0.0 0.0 0.0 
0.0 0.0 0.0 
0.0 0.0 0.0 
0.0 0.0 0.0 
0.0 0.0 0.0 
0.0 0.0 0.0 
0.0 0.0 0.0 
0.0 0.0 0.0 
0.0 0.0 0.0 
0.0 0.0 0.0 
0.0 0.0 0.0 
0.0 0.0 0.0 
0.0 0.0 0.0 
0.0 0.0 0.0 
0.0 0.0 0.0 
0.0 0.0 0.0 
0.0 0.0 0.0 
0.0 0.0 0.0 
0.0 0.0 0.0 
0.0 0.0 0.0 
0.0 0.0 0.0 
0.0 0.0 0.0 
0.0 0.0 0.0 
0.0 0.0 0.0 
0.0 0.0 0.0 
0.0 0.0 0.0 
0.0 0.0 0.0 
0.0 0.0 0.0 
0.0 0.0 0.0 
0.0 0.0 0.0 
0.0 0.0 0.0 
0.0 0.0 0.0 
0.0 0.0 0.0 
0.0 0.0 0.0 
0.0 0.0 0.0 
0.0 0.0 0.0 
0.0 0.0 0.0 
0.0 0.0 0.0 
0.0 0.0 0.0 
0.0 0.0 0.0 
0.0 0.0 0.0 
0.0 0.0 0.0 
0.0 0.0 0.0 
0.0 0.0 0.0 
0.0 0.0 0.0 
0.0 0.0 0.0 
0.0 0.0 0.0 
0.0 0.0 0.0 
0.0 0.0 0.0 
0.0 0.0 0.0 
0.0 0.0 0.0 
0.0 0.0 0.0 
0.0 0.0 0.0 
0.0 0.0 0.0 
0.0 0.0 0.0 
0.0 0.0 0.0 
0.0 0.0 0.0 
0.0 0.0 0.0 
0.0 0.0 0.0 
0.0 0.0 0.0 
0.0 0.0 0.0 
0.0 0.0 0.0 
0.0 0.0 0.0 
0.0 0.0 0.0 
0.0 0.0 0.0 
0.0 0.0 0.0 
0.0 0.0 0.0 
0.0 0.0 0.0 
0.0 0.0 0.0 
0.0 0.0 0.0 
0.0 0.0 0.0 
0.0 0.0 0.0 
0.0 0.0 0.0 
0.0 0.0 0.0 
0.0 0.0 0.0 
0.0 0.0 0.0 
0.0 0.0 0.0 
0.0 0.0 0.0 
0.0 0.0 0.0 
0.0 0.0 0.0 
0.0 0.0 0.0 
0.0 0.0 0.0 
0.0 0.0 0.0 
0.0 0.0 0.0 
0.0 0.0 0.0 
0.0 0.0 0.0 
0.0 0.0 0.0 
0.0 0.0 0.0 
0.0 0.0 0.0 
0.0 0.0 0.0 
0.0 0.0 0.0 
0.0 0.0 0.0 
0.0 0.0 0.0 
0.0 0.0 0.0 
0.0 0.0 0.0 
0.0 0.0 0.0 
0.0 0.0 0.0 
0.0 0.0 0.0 
0.0 0.0 0.0 
0.0 0.0 0.0 
0.0 0.0 0.0 
0.0 0.0 0.0 
0.0 0.0 0.0 
0.0 0.0 0.0 
0.0 0.0 0.0 
0.0 0.0 0.0 
0.0 0.0 0.0 
0.0 0.0 0.0 
0.0 0.0 0.0 
0.0 0.0 0.0 
0.0 0.0 0.0 
0.0 0.0 0.0 
0.0 0.0 0.0 
0.0 0.0 0.0 
0.0 0.0 0.0 
0.0 0.0 0.0 
0.0 0.0 0.0 
0.0 0.0 0.0 
0.0 0.0 0.0 
0.0 0.0 0.0 
0.0 0.0 0.0 
0.0 0.0 0.0 
0.0 0.0 0.0 
0.0 0.0 0.0 
0.0 0.0 0.0 
0.0 0.0 0.0 
0.0 0.0 0.0 
0.0 0.0 0.0 
0.0 0.0 0.0 
0.0 0.0 0.0 
0.0 0.0 0.0 
0.0 0.0 0.0 
0.0 0.0 0.0 
0.0 0.0 0.0 
0.0 0.0 0.0 
0.0 0.0 0.0 
0.0 0.0 0.0 
0.0 0.0 0.0 
0.0 0.0 0.0 
0.0 0.0 0.0 
0.0 0.0 0.0 
0.0 0.0 0.0 

TENSORS element_materi_stress float
-2.837985376171e+01 7.466207783718e+00 0.0 
7.466207783718e+00 -4.920223597532e+01 0.0 
0.0 0.0 -2.287462692111e+01 
-3.157980458128e+01 1.123760680025e+01 0.0 
1.123760680025e+01 -4.641478731553e+01 0.0 
0.0 0.0 -2.299837756904e+01 
-1.301559045640e+02 1.049110307397e+01 0.0 
1.049110307397e+01 -2.989195653265e+02 0.0 
0.0 0.0 -1.283226409671e+02 
-1.234277381284e+02 1.684871794701e+00 0.0 
1.684871794701e+00 -2.851213975733e+02 0.0 
0.0 0.0 -1.221647407105e+02 
-6.988731165149e+01 -3.689295877037e-01 0.0 
-3.689295877037e-01 -1.480219606183e+02 0.0 
0.0 0.0 -6.497278168095e+01 
-1.761946197883e+01 4.154742409298e+00 0.0 
4.154742409298e+00 -3.992182025686e+01 0.0 
0.0 0.0 -1.686238467071e+01 
-6.962013152106e+01 -6.989940972035e-01 0.0 
-6.989940972035e-01 -1.482711481997e+02 0.0 
0.0 0.0 -6.496738391623e+01 
-3.011597008323e+01 1.268006954613e+01 0.0 
1.268006954613e+01 -5.031526612667e+01 0.0 
0.0 0.0 -2.372937086297e+01 
-7.013733555168e+01 1.605797344705e+00 0.0 
1.605797344705e+00 -1.488432917242e+02 0.0 
0.0 0.0 -6.529418818277e+01 
-1.228219815109e+02 6.751707465924e-01 0.0 
6.751707465924e-01 -2.835024157392e+02 0.0 
0.0 0.0 -1.214973191750e+02 
-9.896194528087e+01 -3.165927570278e-01 0.0 
-3.165927570278e-01 -2.514978928036e+02 0.0 
0.0 0.0 -1.047379514253e+02 
-2.169460155735e+01 9.818217687242e+00 0.0 
9.818217687242e+00 -3.083330437429e+01 0.0 
0.0 0.0 -1.535837177949e+01 
-1.515316471646e+02 2.190034465534e-01 0.0 
2.190034465534e-01 -3.616023297369e+02 0.0 
0.0 0.0 -1.535401930705e+02 
-7.868470203347e+01 9.680713382579e-01 0.0 
9.680713382579e-01 -1.653500837823e+02 0.0 
0.0 0.0 -7.281043574473e+01 
-1.560563126889e+02 2.265768242505e+00 0.0 
2.265768242505e+00 -3.694315721336e+02 0.0 
0.0 0.0 -1.572463654467e+02 
-1.260130376548e+02 4.556430355140e-01 0.0 
4.556430355140e-01 -2.931786601012e+02 0.0 
0.0 0.0 -1.253575093268e+02 
-6.885700184865e+01 7.427331261003e-01 0.0 
7.427331261003e-01 -1.439597597782e+02 0.0 
0.0 0.0 -6.344502848806e+01 
-1.817034057910e+01 2.740915785332e+00 0.0 
2.740915785332e+00 -4.065521530521e+01 0.0 
0.0 0.0 -1.724766676529e+01 
-2.941236251378e+01 4.201932599757e-02 0.0 
4.201932599757e-02 -7.697207772584e+01 0.0 
0.0 0.0 -3.151533207189e+01 
-3.003555683525e+01 -6.363898540036e-01 0.0 
-6.363898540036e-01 -7.967761286727e+01 0.0 
0.0 0.0 -3.251395091076e+01 
-1.236818575730e+02 2.619494014355e+00 0.0 
2.619494014355e+00 -2.843347926406e+02 0.0 
0.0 0.0 -1.220049950641e+02 
-3.463514600908e+01 4.992015042947e+00 0.0 
4.992015042947e+00 -5.744230091715e+01 0.0 
0.0 0.0 -2.722323407787e+01 
-4.201703061785e+01 7.499176322354e+00 0.0 
7.499176322354e+00 -7.207567353958e+01 0.0 
0.0 0.0 -3.382781124723e+01 
-1.385177087795e+02 1.074417569611e+01 0.0 
1.074417569611e+01 -3.349843546956e+02 0.0 
0.0 0.0 -1.416506190425e+02 
-8.703825484681e+01 2.096649881870e+00 0.0 
2.096649881870e+00 -1.835747924467e+02 0.0 
0.0 0.0 -8.078391418805e+01 
-1.046095118331e+02 1.014376582653e+00 0.0 
1.014376582653e+00 -2.644564965104e+02 0.0 
0.0 0.0 -1.103198025031e+02 
-6.407556591117e+01 1.663370780575e+00 0.0 
1.663370780575e+00 -1.280308434863e+02 0.0 
0.0 0.0 -5.723192281924e+01 
-1.384817340341e+02 1.561609457495e+01 0.0 
1.561609457495e+01 -3.229662294902e+02 0.0 
0.0 0.0 -1.380343890573e+02 
-8.843325398346e+01 4.425106324521e+00 0.0 
4.425106324521e+00 -1.844568159654e+02 0.0 
0.0 0.0 -8.146702098467e+01 
-1.422756189062e+02 9.371697303754e+00 0.0 
9.371697303754e+00 -3.440365967058e+02 0.0 
0.0 0.0 -1.454936646836e+02 
-2.466351684839e+01 -8.731759137616e-01 0.0 
-8.731759137616e-01 -5.803507699540e+01 0.0 
0.0 0.0 -2.440957815314e+01 
-1.353144185655e+01 -1.211006791659e+00 0.0 
-1.211006791659e+00 -2.592936927836e+01 0.0 
0.0 0.0 -1.143824334047e+01 
-1.313136810224e+02 1.022766233365e+01 0.0 
1.022766233365e+01 -2.995708099762e+02 0.0 
0.0 0.0 -1.288653472996e+02 
-1.274003311743e+02 1.072715095547e+00 0.0 
1.072715095547e+00 -3.128735696308e+02 0.0 
0.0 0.0 -1.316821702415e+02 
-1.491477268771e+02 7.154478792127e+00 0.0 
7.154478792127e+00 -3.566388254007e+02 0.0 
0.0 0.0 -1.513359656834e+02 
-1.586573005862e+02 2.815629320506e+00 0.0 
2.815629320506e+00 -3.763699135644e+02 0.0 
0.0 0.0 -1.601081642452e+02 
-1.593784340690e+02 5.607069255659e+00 0.0 
5.607069255659e+00 -3.764323930775e+02 0.0 
0.0 0.0 -1.603432481440e+02 
-1.419040414266e+02 1.303720581986e+01 0.0 
1.303720581986e+01 -3.386360208381e+02 0.0 
0.0 0.0 -1.437620186794e+02 
-6.162905003507e+01 1.371758009291e+00 0.0 
1.371758009291e+00 -1.294802634441e+02 0.0 
0.0 0.0 -5.693279404376e+01 
-6.154640008339e+01 -1.341438816686e+00 0.0 
-1.341438816686e+00 -1.300822548735e+02 0.0 
0.0 0.0 -5.708859648706e+01 
-5.014628621024e+01 5.713731171643e+00 0.0 
5.713731171643e+00 -8.990483523287e+01 0.0 
0.0 0.0 -4.161533643293e+01 
-1.514486804822e+02 7.729538975955e+00 0.0 
7.729538975955e+00 -3.595068176139e+02 0.0 
0.0 0.0 -1.528866494288e+02 
-1.929889550812e+01 1.234299105992e+01 0.0 
1.234299105992e+01 -3.599298758921e+01 0.0 
0.0 0.0 -1.618756492920e+01 
-6.502349828807e+01 1.373175046913e+00 0.0 
1.373175046913e+00 -1.286908193253e+02 0.0 
0.0 0.0 -5.771429528401e+01 
-1.191706143202e+02 7.455444209157e-01 0.0 
7.455444209157e-01 -2.738545524521e+02 0.0 
0.0 0.0 -1.175075500317e+02 
-2.168753290124e+01 1.424635093241e+01 0.0 
1.424635093241e+01 -3.676473612463e+01 0.0 
0.0 0.0 -1.713568070776e+01 
-1.852640968948e+01 -1.409505193752e+00 0.0 
-1.409505193752e+00 -4.334756914942e+01 0.0 
0.0 0.0 -1.816219365167e+01 
-1.193745052703e+02 2.879966215976e-01 0.0 
2.879966215976e-01 -2.754189725600e+02 0.0 
0.0 0.0 -1.180380433491e+02 
-1.495963947347e+01 -1.247592516599e+00 0.0 
-1.247592516599e+00 -2.572054786598e+01 0.0 
0.0 0.0 -1.219392963314e+01 
-7.576692670237e+01 2.189797021781e+00 0.0 
2.189797021781e+00 -1.568650033128e+02 0.0 
0.0 0.0 -6.938957900456e+01 
-4.617068887672e+01 6.505858960153e+00 0.0 
6.505858960153e+00 -8.125729467163e+01 0.0 
0.0 0.0 -3.782839506451e+01 
-3.730332377518e+01 -1.731838783584e-01 0.0 
-1.731838783584e-01 -9.675711524220e+01 0.0 
0.0 0.0 -3.981813170521e+01 
-2.907635184995e+01 -2.456020459975e-02 0.0 
-2.456020459975e-02 -7.963543643586e+01 0.0 
0.0 0.0 -3.221353648574e+01 
-4.345580188005e+01 3.318268750655e+00 0.0 
3.318268750655e+00 -7.701557921483e+01 0.0 
0.0 0.0 -3.574141432846e+01 
-1.285164705514e+02 7.801170257747e+00 0.0 
7.801170257747e+00 -2.955238358240e+02 0.0 
0.0 0.0 -1.268120919126e+02 
-4.858018566299e+01 3.543935757551e-02 0.0 
3.543935757551e-02 -1.276312237749e+02 0.0 
0.0 0.0 -5.246342283137e+01 
-3.775772184799e+01 -7.649513325968e-01 0.0 
-7.649513325968e-01 -9.976834863086e+01 0.0 
0.0 0.0 -4.085782114365e+01 
-1.271065571255e+02 -2.494134592952e-01 0.0 
-2.494134592952e-01 -3.127997097492e+02 0.0 
0.0 0.0 -1.315718800624e+02 
-2.325317499234e+01 -8.725238330782e-01 0.0 
-8.725238330782e-01 -5.902915146378e+01 0.0 
0.0 0.0 -2.428469793683e+01 
-1.263957528857e+02 2.207968726787e+00 0.0 
2.207968726787e+00 -2.933783050186e+02 0.0 
0.0 0.0 -1.255322173713e+02 
-1.832879693652e+01 -5.803477186511e-01 0.0 
-5.803477186511e-01 -2.235342505067e+01 0.0 
0.0 0.0 -1.180466659616e+01 
-1.316349511117e+02 1.350699720182e+01 0.0 
1.350699720182e+01 -3.117163904637e+02 0.0 
0.0 0.0 -1.326054024726e+02 
-4.784920457555e+01 1.231659531393e+01 0.0 
1.231659531393e+01 -9.916643462701e+01 0.0 
0.0 0.0 -4.370469176077e+01 
-2.691011237648e+01 -4.770255090998e-01 0.0 
-4.770255090998e-01 -7.259043866257e+01 0.0 
0.0 0.0 -2.945016531171e+01 
-1.512520172079e+02 2.814657230727e+00 0.0 
2.814657230727e+00 -3.609029378153e+02 0.0 
0.0 0.0 -1.532464865070e+02 
-3.882783830698e+01 4.029794968117e+00 0.0 
4.029794968117e+00 -6.655747346107e+01 0.0 
0.0 0.0 -3.121559353041e+01 
-1.493245601508e+01 -8.439883452707e-01 0.0 
-8.439883452707e-01 -2.101997393590e+01 0.0 
0.0 0.0 -1.108768294004e+01 
-1.326207140951e+02 1.153340108771e+01 0.0 
1.153340108771e+01 -3.010497396241e+02 0.0 
0.0 0.0 -1.297011361158e+02 
-2.544569106685e+01 -1.323303462246e+00 0.0 
-1.323303462246e+00 -6.352424456030e+01 0.0 
0.0 0.0 -2.629098068815e+01 
-1.341480423828e+02 1.336194369912e+01 0.0 
1.336194369912e+01 -3.102742735233e+02 0.0 
0.0 0.0 -1.329266947718e+02 
-1.093447564247e+02 1.456404515288e+00 0.0 
1.456404515288e+00 -2.748308932342e+02 0.0 
0.0 0.0 -1.148526948977e+02 
-1.316319799659e+02 5.014147975201e+00 0.0 
5.014147975201e+00 -3.084746199205e+02 0.0 
0.0 0.0 -1.316319799659e+02 
-1.322614146310e+02 1.416549645593e+01 0.0 
1.416549645593e+01 -3.076261251659e+02 0.0 
0.0 0.0 -1.315662619391e+02 
-1.158338306144e+01 -9.359081574396e-01 0.0 
-9.359081574396e-01 -2.978854301132e+01 0.0 
0.0 0.0 -1.201157782183e+01 
-5.016529796065e+01 -9.061290133123e-01 0.0 
-9.061290133123e-01 -1.328829456203e+02 0.0 
0.0 0.0 -5.451447307428e+01 
-1.255216264977e+02 4.402477341343e+00 0.0 
4.402477341343e+00 -2.879139772759e+02 0.0 
0.0 0.0 -1.236306811321e+02 
-1.304305621013e+02 8.467047659485e+00 0.0 
8.467047659485e+00 -2.970568657778e+02 0.0 
0.0 0.0 -1.278462283637e+02 
-1.897586245171e+01 1.209502320973e+01 0.0 
1.209502320973e+01 -3.408508075998e+01 0.0 
0.0 0.0 -1.551828296351e+01 
-2.268488901486e+01 -9.010617373247e-01 0.0 
-9.010617373247e-01 -5.902581586700e+01 0.0 
0.0 0.0 -2.411321146456e+01 
-1.781004216314e+01 1.231888738032e+01 0.0 
1.231888738032e+01 -3.357231556798e+01 0.0 
0.0 0.0 -1.501470731934e+01 
-2.451574300607e+01 -2.416747211300e+00 0.0 
-2.416747211300e+00 -6.288903804691e+01 0.0 
0.0 0.0 -2.582143431589e+01 
-6.888189933206e+01 5.451767954808e-01 0.0 
5.451767954808e-01 -1.436122545218e+02 0.0 
0.0 0.0 -6.334824615616e+01 
-3.825290598957e+01 8.815717987678e+00 0.0 
8.815717987678e+00 -6.410157985881e+01 0.0 
0.0 0.0 -3.030634575452e+01 
-2.971350407879e+01 5.961871663363e+00 0.0 
5.961871663363e+00 -4.647765310704e+01 0.0 
0.0 0.0 -2.245734715575e+01 
-7.467392187477e+01 1.704726578025e+00 0.0 
1.704726578025e+00 -1.591338276585e+02 0.0 
0.0 0.0 -6.974232485999e+01 
-7.403922936056e+01 -2.686823608261e-01 0.0 
-2.686823608261e-01 -1.588331589540e+02 0.0 
0.0 0.0 -6.946171649437e+01 
-1.132937151111e+02 1.278643394668e+00 0.0 
1.278643394668e+00 -2.833278045615e+02 0.0 
0.0 0.0 -1.185864559018e+02 
-1.232451911636e+02 -6.988783428194e-01 0.0 
-6.988783428194e-01 -3.045910534534e+02 0.0 
0.0 0.0 -1.279508733851e+02 
-1.131828592554e+02 1.031815246027e+01 0.0 
1.031815246027e+01 -2.458546090152e+02 0.0 
0.0 0.0 -1.073112404812e+02 
-7.031323732431e+01 1.833537323026e+00 0.0 
1.833537323026e+00 -1.474963704044e+02 0.0 
0.0 0.0 -6.494288231861e+01 
-1.285592463116e+01 -1.221104010028e+00 0.0 
-1.221104010028e+00 -2.574278914855e+01 0.0 
0.0 0.0 -1.153572935324e+01 
-7.235859140076e+01 2.056522580599e+00 0.0 
2.056522580599e+00 -1.462335450692e+02 0.0 
0.0 0.0 -6.517764094098e+01 
-1.006309720288e+02 8.636022345473e-01 0.0 
8.636022345473e-01 -2.271116800167e+02 0.0 
0.0 0.0 -9.792279561367e+01 
-9.976525515060e+01 1.153024815222e-01 0.0 
1.153024815222e-01 -2.236215527073e+02 0.0 
0.0 0.0 -9.661604235738e+01 
-1.338616464770e+02 5.575328721941e+00 0.0 
5.575328721941e+00 -3.098029419685e+02 0.0 
0.0 0.0 -1.326993765336e+02 
-1.468352703472e+02 1.520582207630e+01 0.0 
1.520582207630e+01 -3.458282094332e+02 0.0 
0.0 0.0 -1.473990439341e+02 
-6.942360033897e+01 1.285036190895e+00 0.0 
1.285036190895e+00 -1.433240346397e+02 0.0 
0.0 0.0 -6.342429049359e+01 
-1.493083452255e+02 7.689760702504e+00 0.0 
7.689760702504e+00 -3.593296284992e+02 0.0 
0.0 0.0 -1.521913921174e+02 
-8.138058354633e+01 7.313660303899e-01 0.0 
7.313660303899e-01 -1.784772578742e+02 0.0 
0.0 0.0 -7.755735242615e+01 
-4.447358646828e+01 1.432065896064e+01 0.0 
1.432065896064e+01 -8.591853568885e+01 0.0 
0.0 0.0 -3.871763664714e+01 
-6.637885065338e+01 1.135624317997e+00 0.0 
1.135624317997e+00 -1.388825091791e+02 0.0 
0.0 0.0 -6.117840794976e+01 
-1.554842359456e+02 9.440629148503e-01 0.0 
9.440629148503e-01 -3.690687525906e+02 0.0 
0.0 0.0 -1.569658965608e+02 
-1.111696403179e+02 1.397262380169e+01 0.0 
1.397262380169e+01 -2.666908973039e+02 0.0 
0.0 0.0 -1.129581612865e+02 
-1.328365365875e+02 1.535387552232e+01 0.0 
1.535387552232e+01 -3.126459000605e+02 0.0 
0.0 0.0 -1.332447309944e+02 
-3.820676602279e+01 1.586266843552e+01 0.0 
1.586266843552e+01 -9.039878229082e+01 0.0 
0.0 0.0 -3.818166449408e+01 
-2.165469214051e+01 -1.592125535951e+00 0.0 
-1.592125535951e+00 -4.254251536169e+01 0.0 
0.0 0.0 -1.885916225066e+01 
-1.415750818170e+02 1.681569774905e+00 0.0 
1.681569774905e+00 -3.417220986778e+02 0.0 
0.0 0.0 -1.445891541485e+02 
-1.071615570575e+02 3.770909345355e-01 0.0 
3.770909345355e-01 -2.426549112259e+02 0.0 
0.0 0.0 -1.045449404850e+02 
-1.843257216404e+01 -1.064798106999e+00 0.0 
-1.064798106999e+00 -2.552619074813e+01 0.0 
0.0 0.0 -1.278762887365e+01 
-1.550293868032e+02 3.627784399678e+00 0.0 
3.627784399678e+00 -3.663719775541e+02 0.0 
0.0 0.0 -1.560204093072e+02 
-1.075548896269e+02 8.318106442621e+00 0.0 
8.318106442621e+00 -2.343750037141e+02 0.0 
0.0 0.0 -1.021789680023e+02 
-8.727970200604e+00 3.840375840088e-01 0.0 
3.840375840088e-01 -2.205565081875e+01 0.0 
0.0 0.0 -8.835086305805e+00 
-5.781290794746e+01 1.321422628625e+01 0.0 
1.321422628625e+01 -1.408945966758e+02 0.0 
0.0 0.0 -5.921225138699e+01 
-6.590016102405e+01 3.818374538475e+00 0.0 
3.818374538475e+00 -1.277161494089e+02 0.0 
0.0 0.0 -5.768489312990e+01 
-6.093454814020e+01 -1.126347718556e-01 0.0 
-1.126347718556e-01 -1.612915328836e+02 0.0 
0.0 0.0 -6.626782430715e+01 
-3.956298554530e+01 1.217436509290e+01 0.0 
1.217436509290e+01 -7.788714505305e+01 0.0 
0.0 0.0 -3.483503917950e+01 
-4.755328528762e+01 1.551438619707e+01 0.0 
1.551438619707e+01 -9.938246038096e+01 0.0 
0.0 0.0 -4.368072370057e+01 
-1.527366873979e+02 5.429501433181e+00 0.0 
5.429501433181e+00 -3.638431703930e+02 0.0 
0.0 0.0 -1.545739573373e+02 
-7.887405339105e+01 -5.780084518163e-01 0.0 
-5.780084518163e-01 -1.718940560369e+02 0.0 
0.0 0.0 -7.483043282838e+01 
-4.320346918471e+01 1.357488507810e+01 0.0 
1.357488507810e+01 -9.419981540555e+01 0.0 
0.0 0.0 -4.082098537708e+01 
-2.448032011661e+01 -1.064098619634e+00 0.0 
-1.064098619634e+00 -6.081615309474e+01 0.0 
0.0 0.0 -2.518894196341e+01 
-7.215079729244e+01 1.861511086959e+00 0.0 
1.861511086959e+00 -1.456629295123e+02 0.0 
0.0 0.0 -6.494411804141e+01 
-1.076709263869e+02 8.987352143563e-01 0.0 
8.987352143563e-01 -2.442495768327e+02 0.0 
0.0 0.0 -1.051761509659e+02 
-4.275850688281e+01 1.610861735189e+01 0.0 
1.610861735189e+01 -9.418325402087e+01 0.0 
0.0 0.0 -4.068252827111e+01 
-1.722528060626e+01 8.455947763963e+00 0.0 
8.455947763963e+00 -2.961972769368e+01 0.0 
0.0 0.0 -1.365350248998e+01 
-5.812456259719e+01 4.533579068035e+00 0.0 
4.533579068035e+00 -1.088667090722e+02 0.0 
0.0 0.0 -4.969738150081e+01 
-6.082778166735e+01 -6.070893181853e-01 0.0 
-6.070893181853e-01 -1.599282608436e+02 0.0 
0.0 0.0 -6.582681275327e+01 
-5.203247803108e+01 2.303904905539e+00 0.0 
2.303904905539e+00 -9.713843016994e+01 0.0 
0.0 0.0 -4.435127246031e+01 
-1.277041587155e+02 3.501403011827e+00 0.0 
3.501403011827e+00 -2.959344692247e+02 0.0 
0.0 0.0 -1.266915883820e+02 
-1.754815635774e+01 8.387655832596e+00 0.0 
8.387655832596e+00 -4.073627373557e+01 0.0 
0.0 0.0 -1.708532902800e+01 
-1.041630151937e+02 -1.235411622489e-01 0.0 
-1.235411622489e-01 -2.634739089494e+02 0.0 
0.0 0.0 -1.098910772429e+02 
-1.230990011476e+02 -3.434516823766e-02 0.0 
-3.434516823766e-02 -2.850536533320e+02 0.0 
0.0 0.0 -1.220457963439e+02 
-6.144194236273e+01 8.484231939883e+00 0.0 
8.484231939883e+00 -1.206776604996e+02 0.0 
0.0 0.0 -5.423588085869e+01 
-5.428281369970e+01 5.019211071927e+00 0.0 
5.019211071927e+00 -9.969266857843e+01 0.0 
0.0 0.0 -4.579264468344e+01 
-1.481333540527e+02 5.587472810039e+00 0.0 
5.587472810039e+00 -3.562491671322e+02 0.0 
0.0 0.0 -1.509147563555e+02 
-1.519693402715e+02 1.974462384878e+00 0.0 
1.974462384878e+00 -3.622670989031e+02 0.0 
0.0 0.0 -1.538709317524e+02 
-1.130809976004e+02 -3.038228976680e-02 0.0 
-3.038228976680e-02 -2.832873165470e+02 0.0 
0.0 0.0 -1.185104942442e+02 
-6.645954399663e+01 1.041750909548e+01 0.0 
1.041750909548e+01 -1.299804692745e+02 0.0 
0.0 0.0 -5.853200398134e+01 
-1.482386554040e+02 9.835072175083e+00 0.0 
9.835072175083e+00 -3.563326695298e+02 0.0 
0.0 0.0 -1.509713974801e+02 
-5.722282124105e+01 6.564434852500e+00 0.0 
6.564434852500e+00 -1.089617147643e+02 0.0 
0.0 0.0 -4.945536080161e+01 
-1.257947049150e+02 2.827802379370e+00 0.0 
2.827802379370e+00 -2.909125083040e+02 0.0 
0.0 0.0 -1.246121639657e+02 
-1.350219431059e+02 1.346664071752e+01 0.0 
1.346664071752e+01 -3.102586407224e+02 0.0 
0.0 0.0 -1.331841751485e+02 
-7.932485704787e+01 3.047269484999e+00 0.0 
3.047269484999e+00 -1.650260075729e+02 0.0 
0.0 0.0 -7.290525938623e+01 
-9.155624486820e+01 -2.312878252527e-02 0.0 
-2.312878252527e-02 -2.027643033753e+02 0.0 
0.0 0.0 -8.789616447304e+01 
-5.830285608425e+01 9.897836447598e+00 0.0 
9.897836447598e+00 -1.096243613999e+02 0.0 
0.0 0.0 -4.997816524526e+01 
-4.780260349709e+01 2.587904350519e+00 0.0 
2.587904350519e+00 -8.758098465319e+01 0.0 
0.0 0.0 -4.021507644508e+01 
-6.947962008402e+01 9.029120522604e+00 0.0 
9.029120522604e+00 -1.408450761833e+02 0.0 
0.0 0.0 -6.269740888020e+01 
-4.586619598493e+01 1.577358185172e+01 0.0 
1.577358185172e+01 -1.093652173002e+02 0.0 
0.0 0.0 -4.616942398554e+01 
-6.688658069376e+01 1.069667557120e+00 0.0 
1.069667557120e+00 -1.416374794070e+02 0.0 
0.0 0.0 -6.215721803022e+01 
-5.708596332689e+01 1.479263528009e+01 0.0 
1.479263528009e+01 -1.408621610764e+02 0.0 
0.0 0.0 -5.898443732099e+01 
-1.203973622398e+01 -9.167325999696e-01 0.0 
-9.167325999696e-01 -2.509353276563e+01 0.0 
0.0 0.0 -1.115815828898e+01 
-7.232692905541e+01 1.662437352791e-01 0.0 
1.662437352791e-01 -1.565741615969e+02 0.0 
0.0 0.0 -6.827032719570e+01 
-2.219780519071e+01 -3.047386758628e-01 0.0 
-3.047386758628e-01 -6.005779727101e+01 0.0 
0.0 0.0 -2.427668073851e+01 
-6.202759523576e+01 4.156943533833e+00 0.0 
4.156943533833e+00 -1.184464384348e+02 0.0 
0.0 0.0 -5.374221010118e+01 
-1.507060015340e+02 9.335109785374e+00 0.0 
9.335109785374e+00 -3.575903455074e+02 0.0 
0.0 0.0 -1.520889041124e+02 
-3.842014720828e+01 1.418245827942e+01 0.0 
1.418245827942e+01 -9.031252673005e+01 0.0 
0.0 0.0 -3.821980218150e+01 
-1.179381599225e+02 -3.980117389046e-01 0.0 
-3.980117389046e-01 -2.935110100341e+02 0.0 
0.0 0.0 -1.230347509870e+02 
-2.394977064901e+01 1.448470073171e+01 0.0 
1.448470073171e+01 -3.791697616734e+01 0.0 
0.0 0.0 -1.816002404491e+01 
-1.106893784106e+02 1.223441268409e+01 0.0 
1.223441268409e+01 -2.662611734541e+02 0.0 
0.0 0.0 -1.126851655594e+02 
-6.666858822520e+01 1.073702588772e-01 0.0 
1.073702588772e-01 -1.431442149925e+02 0.0 
0.0 0.0 -6.254384096530e+01 
-5.289233616155e+01 1.289810548914e+01 0.0 
1.289810548914e+01 -1.353687869449e+02 0.0 
0.0 0.0 -5.607833693195e+01 
-1.317784751876e+02 1.651782934818e+00 0.0 
1.651782934818e+00 -3.221462784468e+02 0.0 
0.0 0.0 -1.357774260903e+02 
-2.415117399013e+01 -2.299585786930e+00 0.0 
-2.299585786930e+00 -6.034272769068e+01 0.0 
0.0 0.0 -2.494817050424e+01 
-1.413183738495e+02 1.720560082506e-01 0.0 
1.720560082506e-01 -3.413845127136e+02 0.0 
0.0 0.0 -1.444108659689e+02 
-7.286371658030e+01 3.958325859509e+00 0.0 
3.958325859509e+00 -1.454898180207e+02 0.0 
0.0 0.0 -6.510606038029e+01 
-1.524294816403e+02 3.001042730227e+00 0.0 
3.001042730227e+00 -3.649171442989e+02 0.0 
0.0 0.0 -1.548039877818e+02 
-6.611188018288e+01 -4.449081430431e-02 0.0 
-4.449081430431e-02 -1.420796126078e+02 0.0 
0.0 0.0 -6.205744783721e+01 
-4.191542781602e+01 1.374489165864e+01 0.0 
1.374489165864e+01 -1.040743278371e+02 0.0 
0.0 0.0 -4.339692669595e+01 
-6.032533475498e+01 1.864817484894e+00 0.0 
1.864817484894e+00 -1.164829189126e+02 0.0 
0.0 0.0 -5.264247610027e+01 
-9.895745115839e+01 6.800781154145e-01 0.0 
6.800781154145e-01 -2.524523259282e+02 0.0 
0.0 0.0 -1.050229331260e+02 
-2.173763363254e+01 1.176435134633e+01 0.0 
1.176435134633e+01 -3.809983811556e+01 0.0 
0.0 0.0 -1.755124152443e+01 
-5.258033750210e+01 1.393296888542e+01 0.0 
1.393296888542e+01 -1.354370432242e+02 0.0 
0.0 0.0 -5.600521421788e+01 
-9.584367247875e+01 1.660002685148e+00 0.0 
1.660002685148e+00 -2.135038103563e+02 0.0 
0.0 0.0 -9.240424485051e+01 
-6.624431804546e+01 -4.827096196099e-01 0.0 
-4.827096196099e-01 -1.418890049581e+02 0.0 
0.0 0.0 -6.203999690108e+01 
-4.974982703146e+01 1.356728625540e+01 0.0 
1.356728625540e+01 -1.221049006998e+02 0.0 
0.0 0.0 -5.115641831937e+01 
-5.601983653387e+01 2.061222701073e+00 0.0 
2.061222701073e+00 -1.066199848911e+02 0.0 
0.0 0.0 -4.839194642750e+01 
-1.192088403351e+02 1.106547359453e+01 0.0 
1.106547359453e+01 -2.681894842972e+02 0.0 
0.0 0.0 -1.158194973897e+02 
-6.820442454860e+01 3.280089341098e-02 0.0 
3.280089341098e-02 -1.782747171069e+02 0.0 
0.0 0.0 -7.354374249665e+01 
-1.390060473685e+02 1.470806487547e+01 0.0 
1.470806487547e+01 -3.250214614279e+02 0.0 
0.0 0.0 -1.388082526389e+02 
-1.361309882413e+02 1.452279006077e+01 0.0 
1.452279006077e+01 -3.126331612174e+02 0.0 
0.0 0.0 -1.342292448376e+02 
-3.624499024047e+01 1.418630382954e+01 0.0 
1.418630382954e+01 -6.541065953726e+01 0.0 
0.0 0.0 -3.009669493332e+01 
-6.846145182953e+01 -4.617252091766e-01 0.0 
-4.617252091766e-01 -1.793570988561e+02 0.0 
0.0 0.0 -7.394556520570e+01 
-1.289262289113e+02 1.150590992954e+01 0.0 
1.150590992954e+01 -3.149575131185e+02 0.0 
0.0 0.0 -1.327651226089e+02 
-5.428524783874e+01 7.808484551494e+00 0.0 
7.808484551494e+00 -9.906699349505e+01 0.0 
0.0 0.0 -4.560567240014e+01 
-3.082331365160e+01 1.120714798899e+01 0.0 
1.120714798899e+01 -5.679033546176e+01 0.0 
0.0 0.0 -2.588409473401e+01 
-6.858215984138e+01 2.749839746800e+00 0.0 
2.749839746800e+00 -1.359488463292e+02 0.0 
0.0 0.0 -6.095930185116e+01 
-5.384032549675e+01 1.550133744638e+01 0.0 
1.550133744638e+01 -1.281460666830e+02 0.0 
0.0 0.0 -5.419591765393e+01 
-1.246920338934e+02 1.493493774419e+00 0.0 
1.493493774419e+00 -2.897781516404e+02 0.0 
0.0 0.0 -1.239410556601e+02 
-1.074195704564e+02 6.960459099968e+00 0.0 
6.960459099968e+00 -2.336293990859e+02 0.0 
0.0 0.0 -1.019146908627e+02 
-1.366757071246e+02 -3.669911938176e-01 0.0 
-3.669911938176e-01 -3.321486868346e+02 0.0 
0.0 0.0 -1.402473181878e+02 
-2.040970628845e+01 1.355948957800e+01 0.0 
1.355948957800e+01 -3.575293809715e+01 0.0 
0.0 0.0 -1.644879331568e+01 
-4.854830650814e+01 1.259695337115e+01 0.0 
1.259695337115e+01 -1.303398122984e+02 0.0 
0.0 0.0 -5.326643564196e+01 
-1.113255633987e+02 8.041316276594e+00 0.0 
8.041316276594e+00 -2.442439914305e+02 0.0 
0.0 0.0 -1.062708664488e+02 
-1.417555365139e+01 2.558386417488e+00 0.0 
2.558386417488e+00 -4.591407573032e+00 0.0 
0.0 0.0 -5.230088367327e+00 
-5.278441360681e+01 4.704717657740e+00 0.0 
4.704717657740e+00 -9.833929845741e+01 0.0 
0.0 0.0 -4.493711361927e+01 
-1.200936304222e+02 9.546020694524e+00 0.0 
9.546020694524e+00 -2.988260400876e+02 0.0 
0.0 0.0 -1.252759011530e+02 
-1.720396379361e+01 -5.711382880299e-01 0.0 
-5.711382880299e-01 -4.256226516432e+01 0.0 
0.0 0.0 -1.752986868738e+01 
-1.285377896837e+02 7.993422158484e+00 0.0 
7.993422158484e+00 -2.929464556429e+02 0.0 
0.0 0.0 -1.260452735980e+02 
-9.565811955621e+01 3.956748122683e+00 0.0 
3.956748122683e+00 -2.037748874639e+02 0.0 
0.0 0.0 -8.942990210602e+01 
-6.073722184590e+01 -1.624117004266e-01 0.0 
-1.624117004266e-01 -1.671153185434e+02 0.0 
0.0 0.0 -6.795576211680e+01 
-1.188503789853e+02 8.047333596593e+00 0.0 
8.047333596593e+00 -2.981487447249e+02 0.0 
0.0 0.0 -1.246997371131e+02 
-7.902076258680e+01 2.963679109828e+00 0.0 
2.963679109828e+00 -1.615911175590e+02 0.0 
0.0 0.0 -7.178356404375e+01 
-8.510366340456e+01 3.361331225528e+00 0.0 
3.361331225528e+00 -1.768216239990e+02 0.0 
0.0 0.0 -7.817758622106e+01 
-1.434199445680e+02 1.023275110580e+01 0.0 
1.023275110580e+01 -3.441871853257e+02 0.0 
0.0 0.0 -1.458821389681e+02 
-4.640465705567e+01 -1.758446013439e+00 0.0 
-1.758446013439e+00 -1.265403969335e+02 0.0 
0.0 0.0 -5.148351619674e+01 
-7.326281556689e+01 1.041330488022e+01 0.0 
1.041330488022e+01 -1.532454650119e+02 0.0 
0.0 0.0 -6.755248417363e+01 
-7.715413572957e+01 5.282662848735e+00 0.0 
5.282662848735e+00 -1.556147444984e+02 0.0 
0.0 0.0 -6.943066406840e+01 
-1.009772503393e+02 5.860022079723e+00 0.0 
5.860022079723e+00 -2.151078757997e+02 0.0 
0.0 0.0 -9.442553784170e+01 
-7.823931619924e+01 5.969808986871e+00 0.0 
5.969808986871e+00 -1.560816593273e+02 0.0 
0.0 0.0 -6.989629265797e+01 
-7.008893327388e+01 5.045094005620e+00 0.0 
5.045094005620e+00 -1.365759776897e+02 0.0 
0.0 0.0 -6.159947328908e+01 
-9.763329712247e+01 1.308940319236e+01 0.0 
1.308940319236e+01 -2.400396963229e+02 0.0 
0.0 0.0 -1.009018980336e+02 
-1.163194526053e+02 1.235741102383e+01 0.0 
1.235741102383e+01 -2.571200122904e+02 0.0 
0.0 0.0 -1.116318394687e+02 
-1.738915088290e+01 2.397129654319e+00 0.0 
2.397129654319e+00 -2.130146503733e+01 0.0 
0.0 0.0 -1.120718477607e+01 
-3.690368585728e+01 1.066653730205e+01 0.0 
1.066653730205e+01 -6.630746697020e+01 0.0 
0.0 0.0 -3.056334584825e+01 
-4.425104135306e+01 1.072777375047e+01 0.0 
1.072777375047e+01 -8.498559164767e+01 0.0 
0.0 0.0 -3.837098990022e+01 
-6.994139823318e+01 1.196255599469e+01 0.0 
1.196255599469e+01 -1.416123222409e+02 0.0 
0.0 0.0 -6.306611614224e+01 
-1.129109494861e+02 8.923763082758e+00 0.0 
8.923763082758e+00 -2.451642781888e+02 0.0 
0.0 0.0 -1.070225683025e+02 
-2.058780154278e+01 4.688698899295e+00 0.0 
4.688698899295e+00 -5.947534510536e+01 0.0 
0.0 0.0 -2.361894399444e+01 
-1.154441224114e+02 8.453049787501e+00 0.0 
8.453049787501e+00 -2.900554137757e+02 0.0 
0.0 0.0 -1.212498608562e+02 
-6.614569774761e+01 1.098303413496e+00 0.0 
1.098303413496e+00 -1.406337950095e+02 0.0 
0.0 0.0 -6.163384782713e+01 
-4.847370472134e+01 1.205830428084e+01 0.0 
1.205830428084e+01 -1.301995558067e+02 0.0 
0.0 0.0 -5.320197815840e+01 
-1.109266813339e+02 7.377191272730e+00 0.0 
7.377191272730e+00 -2.811835484945e+02 0.0 
0.0 0.0 -1.172330689485e+02 
-1.271312330132e+01 -3.048119714251e-01 0.0 
-3.048119714251e-01 -2.865594154759e+01 0.0 
0.0 0.0 -1.201071945467e+01 
-1.032770801127e+02 4.752213003494e+00 0.0 
4.752213003494e+00 -2.236589809194e+02 0.0 
0.0 0.0 -9.768081830962e+01 
-1.185871807384e+01 -9.296350805832e-01 0.0 
-9.296350805832e-01 -2.409134931773e+01 0.0 
0.0 0.0 -1.038502021747e+01 
-1.672111674898e+01 -8.863821940071e-01 0.0 
-8.863821940071e-01 -4.295975920489e+01 0.0 
0.0 0.0 -1.750426278616e+01 
-1.790395666553e+01 1.252631530847e+01 0.0 
1.252631530847e+01 -3.475504759944e+01 0.0 
0.0 0.0 -1.539770127949e+01 
-3.950701732026e+01 -1.985578919834e+00 0.0 
-1.985578919834e+00 -1.072451917122e+02 0.0 
0.0 0.0 -4.362566270974e+01 
-1.084652852227e+02 6.582431836968e+00 0.0 
6.582431836968e+00 -2.349299678910e+02 0.0 
0.0 0.0 -1.026185759341e+02 
-3.798445336471e+01 -1.003294538002e+00 0.0 
-1.003294538002e+00 -1.007044213776e+02 0.0 
0.0 0.0 -4.120666242270e+01 
-2.422405967718e+01 1.224967612056e+01 0.0 
1.224967612056e+01 -6.523543358996e+01 0.0 
0.0 0.0 -2.643784798014e+01 
-2.970146624568e+01 -9.284777346025e-01 0.0 
-9.284777346025e-01 -7.826013930389e+01 0.0 
0.0 0.0 -3.198848166487e+01 
-2.659080432731e+01 -2.302829594129e+00 0.0 
-2.302829594129e+00 -6.851015176655e+01 0.0 
0.0 0.0 -2.813028682816e+01 
-1.233511935070e+02 9.122040364125e+00 0.0 
9.122040364125e+00 -3.061622877415e+02 0.0 
0.0 0.0 -1.284540443746e+02 
-7.437653754286e+01 6.464810831128e+00 0.0 
6.464810831128e+00 -1.462767747644e+02 0.0 
0.0 0.0 -6.579599369218e+01 
-1.508869976459e+02 1.289612354376e+00 0.0 
1.289612354376e+00 -3.608668405713e+02 0.0 
0.0 0.0 -1.531261514651e+02 
-1.299059166701e+01 1.333839222675e+00 0.0 
1.333839222675e+00 -8.573773931945e+00 0.0 
0.0 0.0 -7.011009204540e+00 
-3.027732021517e+01 1.273727266079e+01 0.0 
1.273727266079e+01 -8.225264844639e+01 0.0 
0.0 0.0 -3.335899059847e+01 
-5.655666774475e+01 1.198512186142e+01 0.0 
1.198512186142e+01 -1.483625629359e+02 0.0 
0.0 0.0 -6.107576920419e+01 
-4.826745290098e+01 5.432211991793e+00 0.0 
5.432211991793e+00 -8.830826967704e+01 0.0 
0.0 0.0 -4.057271677341e+01 
-1.142437229529e+02 7.054967812006e+00 0.0 
7.054967812006e+00 -2.894050249845e+02 0.0 
0.0 0.0 -1.206946243812e+02 
-1.533311672898e+02 2.750000448817e+00 0.0 
2.750000448817e+00 -3.664348421910e+02 0.0 
0.0 0.0 -1.555298028442e+02 
-1.054180693146e+02 8.121344555919e+00 0.0 
8.121344555919e+00 -2.248719749062e+02 0.0 
0.0 0.0 -9.868701326624e+01 
-3.802150843520e+01 1.028945955896e+01 0.0 
1.028945955896e+01 -1.077090510111e+02 0.0 
0.0 0.0 -4.331916783390e+01 
-1.243402954087e+02 1.041598030348e+01 0.0 
1.041598030348e+01 -3.065988972188e+02 0.0 
0.0 0.0 -1.288817577883e+02 
-1.084380071245e+02 -6.797555288775e-01 0.0 
-6.797555288775e-01 -2.730659627256e+02 0.0 
0.0 0.0 -1.140511909550e+02 
-7.434366049862e+01 1.089272451805e+01 0.0 
1.089272451805e+01 -1.499755159500e+02 0.0 
0.0 0.0 -6.689575293459e+01 
-9.956617820730e+01 4.847813222441e+00 0.0 
4.847813222441e+00 -2.132617663542e+02 0.0 
0.0 0.0 -9.344838336844e+01 
-1.358323733393e+02 1.533926043994e+01 0.0 
1.533926043994e+01 -3.175604474208e+02 0.0 
0.0 0.0 -1.356178462280e+02 
-5.645197216713e+01 1.285370819508e+01 0.0 
1.285370819508e+01 -1.485009437811e+02 0.0 
0.0 0.0 -6.108587478447e+01 
-2.765063113082e+01 1.405705901086e+01 0.0 
1.405705901086e+01 -6.869931457654e+01 0.0 
0.0 0.0 -2.850498371221e+01 
-8.618679528061e+01 6.823382428803e+00 0.0 
6.823382428803e+00 -1.754805413325e+02 0.0 
0.0 0.0 -7.810020098392e+01 
-1.334141956552e+02 4.472696866838e+00 0.0 
4.472696866838e+00 -3.096815435639e+02 0.0 
0.0 0.0 -1.325287217657e+02 
-7.324406508843e+01 1.313868741718e+01 0.0 
1.313868741718e+01 -1.537289752971e+02 0.0 
0.0 0.0 -6.769191211567e+01 
-7.633227328006e+01 1.205255124727e+01 0.0 
1.205255124727e+01 -1.964957416413e+02 0.0 
0.0 0.0 -8.144840447641e+01 
-7.406444608712e+01 4.774729266936e-01 0.0 
4.774729266936e-01 -1.603550711655e+02 0.0 
0.0 0.0 -6.992585517579e+01 
-2.447139154936e+01 -1.635086180838e+00 0.0 
-1.635086180838e+00 -5.741812298525e+01 0.0 
0.0 0.0 -2.416685436038e+01 
-7.643581466507e+01 3.605285018885e+00 0.0 
3.605285018885e+00 -1.547833496887e+02 0.0 
0.0 0.0 -6.896574930613e+01 
-3.708007209298e+01 1.033207287258e+01 0.0 
1.033207287258e+01 -1.073191657134e+02 0.0 
0.0 0.0 -4.291977134191e+01 
-2.542983079913e+01 5.624463458556e+00 0.0 
5.624463458556e+00 -7.739796291583e+01 0.0 
0.0 0.0 -3.044833811449e+01 
-2.363589384191e+01 -5.948144630182e-01 0.0 
-5.948144630182e-01 -6.147589234980e+01 0.0 
0.0 0.0 -2.513353585751e+01 
-1.068098086617e+02 4.659085676800e+00 0.0 
4.659085676800e+00 -2.338715866214e+02 0.0 
0.0 0.0 -1.018044185849e+02 
-8.243382483316e+01 7.238151397593e+00 0.0 
7.238151397593e+00 -1.660638775594e+02 0.0 
0.0 0.0 -7.414931071777e+01 
-4.704772479331e+01 1.391347012646e+01 0.0 
1.391347012646e+01 -1.094368966473e+02 0.0 
0.0 0.0 -4.654538643218e+01 
-1.118812928963e+02 6.412238083359e+00 0.0 
6.412238083359e+00 -2.450992567663e+02 0.0 
0.0 0.0 -1.066941648988e+02 
-1.093160521554e+02 9.196681722218e+00 0.0 
9.196681722218e+00 -2.350791473856e+02 0.0 
0.0 0.0 -1.029185598623e+02 
-7.851362510649e+01 9.962404409902e+00 0.0 
9.962404409902e+00 -1.585395249971e+02 0.0 
0.0 0.0 -7.071594503107e+01 
-1.545869320971e+02 4.372159414935e+00 0.0 
4.372159414935e+00 -3.658736833103e+02 0.0 
0.0 0.0 -1.557381846222e+02 
-8.022657412739e+01 1.030279325351e+01 0.0 
1.030279325351e+01 -2.078670907042e+02 0.0 
0.0 0.0 -8.602809944949e+01 
-8.254188353099e+01 9.187350437676e+00 0.0 
9.187350437676e+00 -1.673030144208e+02 0.0 
0.0 0.0 -7.455346938554e+01 
-6.201073500058e+01 1.509060261960e+01 0.0 
1.509060261960e+01 -1.471033081935e+02 0.0 
0.0 0.0 -6.233421295824e+01 
-8.469127058461e+01 1.222569617602e+01 0.0 
1.222569617602e+01 -2.147863498011e+02 0.0 
0.0 0.0 -8.944328611571e+01 
-3.091004784166e+01 6.361122688950e+00 0.0 
6.361122688950e+00 -9.462859971445e+01 0.0 
0.0 0.0 -3.726159426683e+01 
-7.070147464052e+01 1.444251719516e+00 0.0 
1.444251719516e+00 -1.443578266536e+02 0.0 
0.0 0.0 -6.411779038824e+01 
-6.018817579649e+01 1.169686423101e+01 0.0 
1.169686423101e+01 -1.604840675414e+02 0.0 
0.0 0.0 -6.580167300138e+01 
-4.368841654879e+01 3.422616375155e+00 0.0 
3.422616375155e+00 -1.249853824605e+02 0.0 
0.0 0.0 -5.020213970278e+01 
-1.035781217064e+02 5.921037215084e+00 0.0 
5.921037215084e+00 -2.234991184776e+02 0.0 
0.0 0.0 -9.772317205520e+01 
-1.770677484195e+01 5.809790809302e-01 0.0 
5.809790809302e-01 -6.416461636534e+00 0.0 
0.0 0.0 -6.836970943545e+00 
-8.201345875122e+01 5.707682238492e+00 0.0 
5.707682238492e+00 -1.656812933319e+02 0.0 
0.0 0.0 -7.390842562495e+01 
-4.066411639379e+01 9.019357104213e+00 0.0 
9.019357104213e+00 -1.187763104853e+02 0.0 
0.0 0.0 -4.743212806372e+01 
-3.095155375454e+01 1.294220142411e+01 0.0 
1.294220142411e+01 -8.257970390717e+01 0.0 
0.0 0.0 -3.365937729851e+01 
-3.285320026008e+01 6.018595891829e+00 0.0 
6.018595891829e+00 -9.536663056470e+01 0.0 
0.0 0.0 -3.806594924743e+01 
-8.871969000911e+01 5.670856979261e+00 0.0 
5.670856979261e+00 -1.844947974666e+02 0.0 
0.0 0.0 -8.156434624271e+01 
-1.882427367420e+01 -1.345040470385e+00 0.0 
-1.345040470385e+00 -4.140933961952e+01 0.0 
0.0 0.0 -1.767008398811e+01 
-4.871512386247e+01 9.092299811345e+00 0.0 
9.092299811345e+00 -9.205686586167e+01 0.0 
0.0 0.0 -4.183159691724e+01 
-8.865384134777e+01 1.046432573596e+01 0.0 
1.046432573596e+01 -2.262108062848e+02 0.0 
0.0 0.0 -9.405939428976e+01 
-8.077432698481e+01 4.819040269492e+00 0.0 
4.819040269492e+00 -1.647625235270e+02 0.0 
0.0 0.0 -7.326105515353e+01 
-7.827261969635e+01 2.491216652494e+00 0.0 
2.491216652494e+00 -1.618876942709e+02 0.0 
0.0 0.0 -7.164809419017e+01 
-1.954839773535e+01 3.052302078082e+00 0.0 
3.052302078082e+00 -5.219671853288e+01 0.0 
0.0 0.0 -2.112353488047e+01 
-4.174404928026e+01 3.235122867632e+00 0.0 
3.235122867632e+00 -1.241201502915e+02 0.0 
0.0 0.0 -4.935925987151e+01 
-4.086058531966e+01 2.017808653978e+00 0.0 
2.017808653978e+00 -1.160915156209e+02 0.0 
0.0 0.0 -4.668563028218e+01 
-4.100578823175e+01 1.254734017737e+01 0.0 
1.254734017737e+01 -7.220410768072e+01 0.0 
0.0 0.0 -3.356296877374e+01 
-1.013557886086e+02 7.091842269328e+00 0.0 
7.091842269328e+00 -2.146189009158e+02 0.0 
0.0 0.0 -9.439240685732e+01 
-4.933110353023e+01 1.291104245625e+01 0.0 
1.291104245625e+01 -9.313647757294e+01 0.0 
0.0 0.0 -4.234027433095e+01 
-5.580575931111e+01 9.773021568331e+00 0.0 
9.773021568331e+00 -1.538841180137e+02 0.0 
0.0 0.0 -6.250696319745e+01 
-5.211916780742e+01 1.091325604363e+01 0.0 
1.091325604363e+01 -1.423950389409e+02 0.0 
0.0 0.0 -5.795426202451e+01 
-2.283841709805e+01 4.131247218773e+00 0.0 
4.131247218773e+00 -6.010686382389e+01 0.0 
0.0 0.0 -2.448358427658e+01 
-6.618183601166e+01 1.302517371362e+01 0.0 
1.302517371362e+01 -1.600468971934e+02 0.0 
0.0 0.0 -6.746861996153e+01 
-2.115409174961e+01 1.133566720209e+01 0.0 
1.133566720209e+01 -4.913689556734e+01 0.0 
0.0 0.0 -2.068729619508e+01 
-1.363449467625e+02 8.821361428039e+00 0.0 
8.821361428039e+00 -3.140280621484e+02 0.0 
0.0 0.0 -1.347119026733e+02 
-1.368294964159e+02 1.066873348680e+01 0.0 
1.066873348680e+01 -3.158479694582e+02 0.0 
0.0 0.0 -1.354032397623e+02 
-7.686541673336e+01 1.145306333014e+01 0.0 
1.145306333014e+01 -1.659924878189e+02 0.0 
0.0 0.0 -7.245737136568e+01 
-3.380133118544e+01 8.423776477344e+00 0.0 
8.423776477344e+00 -1.014436009476e+02 0.0 
0.0 0.0 -4.017347963991e+01 
-2.845374170680e+01 1.085713570729e+01 0.0 
1.085713570729e+01 -7.853660389254e+01 0.0 
0.0 0.0 -3.169710367980e+01 
-8.530307707798e+01 7.913276895995e+00 0.0 
7.913276895995e+00 -1.773776400920e+02 0.0 
0.0 0.0 -7.840421515099e+01 
-3.178965320486e+01 9.521771442465e+00 0.0 
9.521771442465e+00 -9.067113367371e+01 0.0 
0.0 0.0 -3.633823606357e+01 
-3.887518405286e+01 1.671618609223e+00 0.0 
1.671618609223e+00 -1.151734477221e+02 0.0 
0.0 0.0 -4.581458953248e+01 
-7.351017487093e+01 8.083229456227e+00 0.0 
8.083229456227e+00 -1.489076103587e+02 0.0 
0.0 0.0 -6.632533556890e+01 
-1.266481067029e+02 3.236698836905e+00 0.0 
3.236698836905e+00 -2.918097060256e+02 0.0 
0.0 0.0 -1.251373438186e+02 
-4.436001414065e+01 1.068991955595e+01 0.0 
1.068991955595e+01 -1.247109569079e+02 0.0 
0.0 0.0 -5.032129131457e+01 
-9.761455680338e+01 1.176950760316e+01 0.0 
1.176950760316e+01 -2.398047247463e+02 0.0 
0.0 0.0 -1.008257844649e+02 
-2.207074303526e+01 1.057865435236e+01 0.0 
1.057865435236e+01 -6.138695374466e+01 0.0 
0.0 0.0 -2.463730903398e+01 
-1.552369628411e+02 1.221484171326e+01 0.0 
1.221484171326e+01 -3.681081674420e+02 0.0 
0.0 0.0 -1.566035390849e+02 
-3.042098212619e+01 9.803590903038e+00 0.0 
9.803590903038e+00 -9.015707152103e+01 0.0 
0.0 0.0 -3.577341609416e+01 
-7.740746240189e+01 9.464730853660e+00 0.0 
9.464730853660e+00 -1.608878199113e+02 0.0 
0.0 0.0 -7.108858469397e+01 
-2.343491617812e+01 3.516852124107e+00 0.0 
3.516852124107e+00 -6.971304776267e+01 0.0 
0.0 0.0 -2.754438918224e+01 
-9.631389280138e+01 7.523316345186e+00 0.0 
7.523316345186e+00 -2.502360863946e+02 0.0 
0.0 0.0 -1.035649937588e+02 
-6.015796836522e+01 1.098022131483e+01 0.0 
1.098022131483e+01 -1.603076981957e+02 0.0 
0.0 0.0 -6.573969996826e+01 
-4.255965189695e+01 1.163482061732e+00 0.0 
1.163482061732e+00 -1.244667273413e+02 0.0 
0.0 0.0 -4.970791377147e+01 
-7.858869605667e+01 7.835680818587e+00 0.0 
7.835680818587e+00 -1.566932737289e+02 0.0 
0.0 0.0 -7.018459093568e+01 
-1.399703105040e+02 1.342196763765e+01 0.0 
1.342196763765e+01 -3.236105953897e+02 0.0 
0.0 0.0 -1.386742717681e+02 
-4.805269629054e+01 9.466240132095e+00 0.0 
9.466240132095e+00 -1.362425483064e+02 0.0 
0.0 0.0 -5.488857337907e+01 
-8.881739195094e+01 1.153804202911e+01 0.0 
1.153804202911e+01 -2.264966158996e+02 0.0 
0.0 0.0 -9.419420235516e+01 
-2.346740739236e+01 9.959827848095e+00 0.0 
9.959827848095e+00 -6.185920220111e+01 0.0 
0.0 0.0 -2.519798287804e+01 
-9.067187285202e+01 1.536991839882e+00 0.0 
1.536991839882e+00 -1.958136471457e+02 0.0 
0.0 0.0 -8.554565599933e+01 
-1.097300300746e+02 6.067973249564e+00 0.0 
6.067973249564e+00 -2.804379743163e+02 0.0 
0.0 0.0 -1.166504013173e+02 
-3.076793836815e+01 1.547099335419e+01 0.0 
1.547099335419e+01 -7.166978008380e+01 0.0 
0.0 0.0 -3.033131553558e+01 
-8.780759855495e+01 2.785435794791e+00 0.0 
2.785435794791e+00 -1.875583138487e+02 0.0 
0.0 0.0 -8.220977372109e+01 
-1.427664370961e+02 1.553213260991e+01 0.0 
1.553213260991e+01 -3.315579632187e+02 0.0 
0.0 0.0 -1.418973200944e+02 
-1.191754360629e+02 6.751413251854e+00 0.0 
6.751413251854e+00 -2.995093767693e+02 0.0 
0.0 0.0 -1.252054438497e+02 
-1.391835402281e+02 1.250802511150e+01 0.0 
1.250802511150e+01 -3.210208435459e+02 0.0 
0.0 0.0 -1.376613151322e+02 
-8.828776244591e+01 3.487343025877e+00 0.0 
3.487343025877e+00 -1.861655908845e+02 0.0 
0.0 0.0 -8.193600599913e+01 
-1.091403194947e+02 1.048972575818e+01 0.0 
1.048972575818e+01 -2.356706611255e+02 0.0 
0.0 0.0 -1.030432941861e+02 
-2.483642448717e+01 1.465089205839e+01 0.0 
1.465089205839e+01 -5.369379161430e+01 0.0 
0.0 0.0 -2.315906483044e+01 
-7.060368859386e+01 7.033787864692e+00 0.0 
7.033787864692e+00 -1.371491518467e+02 0.0 
0.0 0.0 -6.192585213217e+01 
-8.129658905097e+01 6.604548161111e+00 0.0 
6.604548161111e+00 -1.662470425842e+02 0.0 
0.0 0.0 -7.386308949054e+01 
-8.644385537772e+01 8.535262141431e+00 0.0 
8.535262141431e+00 -1.763647347994e+02 0.0 
0.0 0.0 -7.844257705313e+01 
-6.858957317434e+01 1.407530683194e+01 0.0 
1.407530683194e+01 -1.465541798883e+02 0.0 
0.0 0.0 -6.414312591880e+01 
-1.449248721149e+02 1.650913121700e+01 0.0 
1.650913121700e+01 -3.380004814048e+02 0.0 
0.0 0.0 -1.444776060559e+02 
-8.445608456039e+01 2.614618150513e+00 0.0 
2.614618150513e+00 -1.759084808836e+02 0.0 
0.0 0.0 -7.770936963319e+01 
-7.399981417603e+01 4.761422537409e+00 0.0 
4.761422537409e+00 -1.466334804990e+02 0.0 
0.0 0.0 -6.578998840250e+01 
-5.239310260672e+01 1.139150240932e+01 0.0 
1.139150240932e+01 -1.426149053243e+02 0.0 
0.0 0.0 -5.810240237929e+01 
-3.298520909248e+01 -2.244558174201e+00 0.0 
-2.244558174201e+00 -8.806696167198e+01 0.0 
0.0 0.0 -3.591565122934e+01 
-6.626078426405e+01 5.583533039890e+00 0.0 
5.583533039890e+00 -1.270766825746e+02 0.0 
0.0 0.0 -5.760124005161e+01 
-3.400942401901e+01 1.373208567963e+01 0.0 
1.373208567963e+01 -8.605101121375e+01 0.0 
0.0 0.0 -3.561813056983e+01 
-6.669692861326e+01 2.733018330170e-01 0.0 
2.733018330170e-01 -1.428223106368e+02 0.0 
0.0 0.0 -6.245577177503e+01 
-4.450353731774e+01 1.536392608985e+00 0.0 
1.536392608985e+00 -1.253703213687e+02 0.0 
0.0 0.0 -5.056215760593e+01 
-4.495547900380e+01 1.092661878221e+01 0.0 
1.092661878221e+01 -1.250120319731e+02 0.0 
0.0 0.0 -5.059025329308e+01 
-1.071958705203e+02 5.700410624295e+00 0.0 
5.700410624295e+00 -2.336250192684e+02 0.0 
0.0 0.0 -1.018462669366e+02 
-3.410096516804e+01 1.468217373287e+01 0.0 
1.468217373287e+01 -8.626699163209e+01 0.0 
0.0 0.0 -3.571038704004e+01 
-7.327740789317e+01 5.817097733810e+00 0.0 
5.817097733810e+00 -1.464433915138e+02 0.0 
0.0 0.0 -6.551623982210e+01 
-9.260274383688e+01 9.792280981725e+00 0.0 
9.792280981725e+00 -2.372708010403e+02 0.0 
0.0 0.0 -9.856206346315e+01 
-8.389007163525e+01 2.819831473350e+00 0.0 
2.819831473350e+00 -2.244708047054e+02 0.0 
0.0 0.0 -9.210826290218e+01 
-1.486109480121e+02 1.661878541873e+01 0.0 
1.661878541873e+01 -3.485997520642e+02 0.0 
0.0 0.0 -1.487632100229e+02 
-5.845015759889e+01 6.878843771970e+00 0.0 
6.878843771970e+00 -1.087880959563e+02 0.0 
0.0 0.0 -4.977147606656e+01 
-3.799524840691e+01 4.103503971140e+00 0.0 
4.103503971140e+00 -1.144874568194e+02 0.0 
0.0 0.0 -4.534481156790e+01 
-5.867790175034e+01 8.548006171553e-01 0.0 
8.548006171553e-01 -1.597320741791e+02 0.0 
0.0 0.0 -6.512299277884e+01 
-3.068087426558e+01 1.556705136782e+01 0.0 
1.556705136782e+01 -5.762610597884e+01 0.0 
0.0 0.0 -2.609209407332e+01 
-3.054694999252e+01 1.397646913550e+01 0.0 
1.397646913550e+01 -7.134040618254e+01 0.0 
0.0 0.0 -3.016620685252e+01 
-1.166227868596e+02 9.917941727346e+00 0.0 
9.917941727346e+00 -2.554958985022e+02 0.0 
0.0 0.0 -1.112356056085e+02 
-8.210634473117e+01 1.127555745188e+01 0.0 
1.127555745188e+01 -1.697754937709e+02 0.0 
0.0 0.0 -7.516455155063e+01 
-4.998593654032e+01 9.107995063548e+00 0.0 
9.107995063548e+00 -8.947879212893e+01 0.0 
0.0 0.0 -4.143941860077e+01 
-6.510637825294e+01 4.911352073574e+00 0.0 
4.911352073574e+00 -1.267589411775e+02 0.0 
0.0 0.0 -5.715959582913e+01 
-1.520572880682e+02 1.462763135993e+01 0.0 
1.462763135993e+01 -3.601322529382e+02 0.0 
0.0 0.0 -1.532568623019e+02 
-1.424648121399e+02 1.449258199227e+01 0.0 
1.449258199227e+01 -3.396178730046e+02 0.0 
0.0 0.0 -1.442248055434e+02 
-1.148995449569e+02 7.749607610158e+00 0.0 
7.749607610158e+00 -2.540966495940e+02 0.0 
0.0 0.0 -1.102988583653e+02 
-1.050716742839e+02 6.820868305108e+00 0.0 
6.820868305108e+00 -2.249328641293e+02 0.0 
0.0 0.0 -9.860136152399e+01 
-8.103256895103e+01 4.128886885635e+00 0.0 
4.128886885635e+00 -2.159954501064e+02 0.0 
0.0 0.0 -8.870840571723e+01 
-5.260360441046e+01 1.439288429587e+01 0.0 
1.439288429587e+01 -1.063503054629e+02 0.0 
0.0 0.0 -4.728617296200e+01 
-3.530908073165e+01 8.182644040706e+00 0.0 
8.182644040706e+00 -1.020273646274e+02 0.0 
0.0 0.0 -4.080093360771e+01 
-4.177907713287e+01 9.015645132773e+00 0.0 
9.015645132773e+00 -1.192479965284e+02 0.0 
0.0 0.0 -4.790812209837e+01 
-7.778323739109e+01 1.216994039542e+01 0.0 
1.216994039542e+01 -1.616183753443e+02 0.0 
0.0 0.0 -7.142048382063e+01 
-9.284892151877e+01 9.138119454684e+00 0.0 
9.138119454684e+00 -2.405792116194e+02 0.0 
0.0 0.0 -9.962843994145e+01 
-7.342393463309e+01 1.048694141346e+00 0.0 
1.048694141346e+00 -1.937931407561e+02 0.0 
0.0 0.0 -7.976512261676e+01 
-1.145147182908e+02 6.542960770157e+00 0.0 
6.542960770157e+00 -2.538792790766e+02 0.0 
0.0 0.0 -1.101181992102e+02 
-3.998039624893e+01 4.092838143992e+00 0.0 
4.092838143992e+00 -1.153260339163e+02 0.0 
0.0 0.0 -4.619192904956e+01 
-6.378693244921e+01 1.482899336442e+01 0.0 
1.482899336442e+01 -1.399627866396e+02 0.0 
0.0 0.0 -6.072491572664e+01 
-7.740374802394e+01 7.257737712769e+00 0.0 
7.257737712769e+00 -1.573266887524e+02 0.0 
0.0 0.0 -7.001913103290e+01 
-5.579101805531e+01 1.515694869301e+01 0.0 
1.515694869301e+01 -1.201653358514e+02 0.0 
0.0 0.0 -5.238690617202e+01 
-1.386527160333e+02 1.164216755393e+01 0.0 
1.164216755393e+01 -3.187045078161e+02 0.0 
0.0 0.0 -1.368071671548e+02 
-1.360499030933e+02 9.443999831517e+00 0.0 
9.443999831517e+00 -3.144259965689e+02 0.0 
0.0 0.0 -1.347427698987e+02 
-1.299997640003e+02 1.023618315422e+01 0.0 
1.023618315422e+01 -2.940417306384e+02 0.0 
0.0 0.0 -1.268124483916e+02 
-8.920501286268e+01 4.876596355789e+00 0.0 
4.876596355789e+00 -2.345332864121e+02 0.0 
0.0 0.0 -9.672148978243e+01 
-1.103014292332e+02 4.536759401300e+00 0.0 
4.536759401300e+00 -2.440843047239e+02 0.0 
0.0 0.0 -1.059157201871e+02 
-2.705811924601e+01 1.345109258577e+01 0.0 
1.345109258577e+01 -6.834637644679e+01 0.0 
0.0 0.0 -2.822134870784e+01 
-4.880989167296e+01 9.690673394868e+00 0.0 
9.690673394868e+00 -1.366127532460e+02 0.0 
0.0 0.0 -5.522679347569e+01 
-2.755890517375e+01 4.970601398839e+00 0.0 
4.970601398839e+00 -7.813834261541e+01 0.0 
0.0 0.0 -3.130917433675e+01 
-5.400210087216e+01 1.124749924555e+01 0.0 
1.124749924555e+01 -1.011675827744e+02 0.0 
0.0 0.0 -4.615090509395e+01 
-7.069185136709e+01 1.380718234894e+00 0.0 
1.380718234894e+00 -1.443305009196e+02 0.0 
0.0 0.0 -6.410670568600e+01 
-8.678626786457e+01 1.480681309786e+00 0.0 
1.480681309786e+00 -1.852539817585e+02 0.0 
0.0 0.0 -8.121207488693e+01 
-1.460252323507e+02 1.185001085593e+01 0.0 
1.185001085593e+01 -3.508469550243e+02 0.0 
0.0 0.0 -1.486616562125e+02 
-1.148041496842e+02 8.950269360246e+00 0.0 
8.950269360246e+00 -2.545615833942e+02 0.0 
0.0 0.0 -1.104097199235e+02 
-8.460106003720e+01 4.513684380582e+00 0.0 
4.513684380582e+00 -1.743037392206e+02 0.0 
0.0 0.0 -7.727143977735e+01 
-8.907140347731e+01 7.323354250247e+00 0.0 
7.323354250247e+00 -1.860796122392e+02 0.0 
0.0 0.0 -8.214530471495e+01 
-2.852079584412e+01 4.354947955044e+00 0.0 
4.354947955044e+00 -8.719721385262e+01 0.0 
0.0 0.0 -3.431540290902e+01 
-1.999984302750e+01 -1.854858184640e+00 0.0 
-1.854858184640e+00 -4.204342003490e+01 0.0 
0.0 0.0 -1.821297891872e+01 
-6.128369402261e+01 1.269321458036e+01 0.0 
1.269321458036e+01 -1.541615627931e+02 0.0 
0.0 0.0 -6.423357704471e+01 
-7.174919067420e+01 1.455205378794e+01 0.0 
1.455205378794e+01 -1.594808867237e+02 0.0 
0.0 0.0 -6.896902321936e+01 
-6.536353791930e+01 1.451065300037e+01 0.0 
1.451065300037e+01 -1.600033540735e+02 0.0 
0.0 0.0 -6.721006759783e+01 
-1.704805717110e+01 1.027369090095e+01 0.0 
1.027369090095e+01 -2.949150177081e+01 0.0 
0.0 0.0 -1.356186768257e+01 
-7.336963466857e+01 -9.261193891260e-02 0.0 
-9.261193891260e-02 -1.594344518442e+02 0.0 
0.0 0.0 -6.944122595382e+01 
-3.125088516860e+01 -1.195660029094e+00 0.0 
-1.195660029094e+00 -8.097423414923e+01 0.0 
0.0 0.0 -3.326753579535e+01 
-3.360703520307e+01 1.159195249249e+01 0.0 
1.159195249249e+01 -9.518118113690e+01 0.0 
0.0 0.0 -3.823646490199e+01 
-1.571743774540e+02 1.210398752417e+01 0.0 
1.210398752417e+01 -3.680735473927e+02 0.0 
0.0 0.0 -1.571743774540e+02 
-1.019720910797e+02 1.268413639313e+01 0.0 
1.268413639313e+01 -2.523191822819e+02 0.0 
0.0 0.0 -1.058873820085e+02 
-7.209076260446e+01 2.525274235646e+00 0.0 
2.525274235646e+00 -1.454300588810e+02 0.0 
0.0 0.0 -6.485624644565e+01 
-2.297755407592e+01 -7.728267212698e-01 0.0 
-7.728267212698e-01 -5.910577660513e+01 0.0 
0.0 0.0 -2.422499920432e+01 
-6.900706125598e+01 1.143358975126e+01 0.0 
1.143358975126e+01 -1.462126317551e+02 0.0 
0.0 0.0 -6.416590790332e+01 
-6.077272978920e+01 1.387286173292e+01 0.0 
1.387286173292e+01 -1.541822963712e+02 0.0 
0.0 0.0 -6.408650784811e+01 
-9.021061879731e+01 8.028149309427e+00 0.0 
8.028149309427e+00 -1.855572411401e+02 0.0 
0.0 0.0 -8.233035798123e+01 
-1.406857292753e+02 1.400646515253e+01 0.0 
1.400646515253e+01 -3.260299881813e+02 0.0 
0.0 0.0 -1.396147152370e+02 
-6.899859829266e+01 4.376348045155e+00 0.0 
4.376348045155e+00 -1.360365299505e+02 0.0 
0.0 0.0 -6.111053847296e+01 
-8.623924108585e+01 1.048090534775e+01 0.0 
1.048090534775e+01 -1.782478462587e+02 0.0 
0.0 0.0 -7.894612620336e+01 
-7.223493259276e+01 -2.567318897908e-01 0.0 
-2.567318897908e-01 -1.930092589786e+02 0.0 
0.0 0.0 -7.917325747142e+01 
-1.107313463352e+02 5.593696066000e+00 0.0 
5.593696066000e+00 -2.437868194528e+02 0.0 
0.0 0.0 -1.059554497364e+02 
-9.231051309244e+01 3.488004437831e+00 0.0 
3.488004437831e+00 -2.432622281532e+02 0.0 
0.0 0.0 -1.002718223737e+02 
-1.421271665614e+02 1.500301492673e+01 0.0 
1.500301492673e+01 -3.287658805895e+02 0.0 
0.0 0.0 -1.408679141453e+02 
-1.360089941201e+02 1.147126557755e+01 0.0 
1.147126557755e+01 -3.186876529469e+02 0.0 
0.0 0.0 -1.360089941201e+02 
-1.332276576413e+02 8.036184456104e+00 0.0 
8.036184456104e+00 -3.121978678296e+02 0.0 
0.0 0.0 -1.332276576413e+02 
-1.338250458535e+02 9.658692979038e+00 0.0 
9.658692979038e+00 -3.135917736583e+02 0.0 
0.0 0.0 -1.338250458535e+02 
-9.278522361697e+01 6.847048315108e+00 0.0 
6.847048315108e+00 -1.950466777538e+02 0.0 
0.0 0.0 -8.594957041123e+01 
-1.123789204096e+02 7.531853343347e+00 0.0 
7.531853343347e+00 -2.448488799740e+02 0.0 
0.0 0.0 -1.067683401151e+02 
-1.186924024144e+02 8.834326957192e+00 0.0 
8.834326957192e+00 -2.650533430427e+02 0.0 
0.0 0.0 -1.147237236371e+02 
-5.646797701941e+01 1.245728016885e+01 0.0 
1.245728016885e+01 -1.199825373160e+02 0.0 
0.0 0.0 -5.253515430061e+01 
-5.273177514829e+01 1.111887804222e+01 0.0 
1.111887804222e+01 -1.058144145826e+02 0.0 
0.0 0.0 -4.716385691926e+01 
-6.942135366092e+01 6.730668285348e-01 0.0 
6.730668285348e-01 -1.831849433951e+02 0.0 
0.0 0.0 -7.538188911682e+01 
-1.162725215327e+02 8.627345567697e+00 0.0 
8.627345567697e+00 -2.550664220886e+02 0.0 
0.0 0.0 -1.110016830864e+02 
-1.437772847119e+02 1.613381395174e+01 0.0 
1.613381395174e+01 -3.346072012705e+02 0.0 
0.0 0.0 -1.431153457947e+02 
-1.141208379980e+02 5.407482717685e+00 0.0 
5.407482717685e+00 -2.537846495344e+02 0.0 
0.0 0.0 -1.099716462597e+02 
-9.325667434301e+01 1.243430957319e+01 0.0 
1.243430957319e+01 -2.334496077854e+02 0.0 
0.0 0.0 -9.761188463851e+01 
-1.156677325623e+02 7.293739301982e+00 0.0 
7.293739301982e+00 -2.548102052179e+02 0.0 
0.0 0.0 -1.107433813341e+02 
-1.036508004467e+02 1.409668913080e+01 0.0 
1.409668913080e+01 -2.370511280569e+02 0.0 
0.0 0.0 -1.018105785511e+02 
-6.787345844448e+01 1.292389635502e+01 0.0 
1.292389635502e+01 -1.531236279780e+02 0.0 
0.0 0.0 -6.589912592674e+01 
-5.294597929262e+01 7.746281243363e+00 0.0 
7.746281243363e+00 -1.001929074787e+02 0.0 
0.0 0.0 -4.554166603139e+01 
-2.472074628894e+01 9.172418750803e+00 0.0 
9.172418750803e+00 -7.320253039430e+01 0.0 
0.0 0.0 -2.897698300497e+01 
-1.264137115126e+02 4.777306683404e+00 0.0 
4.777306683404e+00 -2.925819493567e+02 0.0 
0.0 0.0 -1.252986982608e+02 
-5.188204564061e+01 1.341839631842e+01 0.0 
1.341839631842e+01 -1.146374964754e+02 0.0 
0.0 0.0 -4.955586263481e+01 
-1.313949114754e+02 1.395857737516e+01 0.0 
1.395857737516e+01 -3.035171204429e+02 0.0 
0.0 0.0 -1.300736095755e+02 
-6.832493423645e+01 -6.774103064152e-01 0.0 
-6.774103064152e-01 -1.824301535812e+02 0.0 
0.0 0.0 -7.482652634530e+01 
-4.159734059689e+01 4.442626671101e-01 0.0 
4.442626671101e-01 -1.156268511189e+02 0.0 
0.0 0.0 -4.676725751472e+01 
-1.488492115659e+02 1.074263447308e+01 0.0 
1.074263447308e+01 -3.534315468929e+02 0.0 
0.0 0.0 -1.502842275376e+02 
-3.738202953363e+01 1.297821556707e+01 0.0 
1.297821556707e+01 -9.964410640025e+01 0.0 
0.0 0.0 -4.070784078016e+01 
-1.370871300146e+02 1.235876274458e+01 0.0 
1.235876274458e+01 -3.212033033674e+02 0.0 
0.0 0.0 -1.370871300146e+02 
-1.288432116995e+02 8.478269802310e+00 0.0 
8.478269802310e+00 -2.966380424806e+02 0.0 
0.0 0.0 -1.272443762540e+02 
-8.518290855160e+01 9.835976025023e+00 0.0 
9.835976025023e+00 -1.807898909030e+02 0.0 
0.0 0.0 -7.939183983639e+01 
-1.339993832698e+01 -1.322887883138e+00 0.0 
-1.322887883138e+00 -2.483575622693e+01 0.0 
0.0 0.0 -1.149775719500e+01 
-1.392324734548e+02 1.384315697119e+01 0.0 
1.384315697119e+01 -3.262091047279e+02 0.0 
0.0 0.0 -1.392324734548e+02 
-1.469982206070e+02 1.252496225454e+01 0.0 
1.252496225454e+01 -3.483554463499e+02 0.0 
0.0 0.0 -1.482061000871e+02 
-3.966729383165e+01 -8.541421371813e-02 0.0 
-8.541421371813e-02 -1.146943522658e+02 0.0 
0.0 0.0 -4.590849382922e+01 
-9.743110876972e+01 1.183756797321e+01 0.0 
1.183756797321e+01 -2.450673640267e+02 0.0 
0.0 0.0 -1.023495418389e+02 
-1.492058781692e+02 1.629789285715e+01 0.0 
1.629789285715e+01 -3.515606866212e+02 0.0 
0.0 0.0 -1.498299694371e+02 
-9.467209960145e+00 -5.468260420363e-01 0.0 
-5.468260420363e-01 -8.913587417516e+00 0.0 
0.0 0.0 -6.084152356086e+00 
-5.997852103617e+01 1.318691057375e+01 0.0 
1.318691057375e+01 -1.340203201042e+02 0.0 
0.0 0.0 -5.779965234210e+01 
-8.915390898665e+01 9.118638607462e+00 0.0 
9.118638607462e+00 -1.888464129382e+02 0.0 
0.0 0.0 -8.300009657746e+01 
-8.109629412505e+01 1.062022168797e+01 0.0 
1.062022168797e+01 -1.731641412691e+02 0.0 
0.0 0.0 -7.587813061824e+01 
-8.138306745052e+01 8.621084248430e+00 0.0 
8.621084248430e+00 -1.689358298458e+02 0.0 
0.0 0.0 -7.469566918891e+01 
-2.714804415300e+01 1.109542447844e+01 0.0 
1.109542447844e+01 -7.803443495842e+01 0.0 
0.0 0.0 -3.115474373342e+01 
-1.418654540430e+02 1.509548428032e+01 0.0 
1.509548428032e+01 -3.323527261004e+02 0.0 
0.0 0.0 -1.418654540430e+02 
-5.627384255676e+01 1.021981415848e+01 0.0 
1.021981415848e+01 -1.541829882608e+02 0.0 
0.0 0.0 -6.273704924528e+01 
-2.173159624403e+01 1.835958149418e+00 0.0 
1.835958149418e+00 -5.282830174597e+01 0.0 
0.0 0.0 -2.196796939700e+01 
-1.522284806456e+02 4.888100973188e+00 0.0 
4.888100973188e+00 -3.646428088292e+02 0.0 
0.0 0.0 -1.546613868424e+02 
-1.505841260499e+01 -1.267755124284e+00 0.0 
-1.267755124284e+00 -2.516220295202e+01 0.0 
0.0 0.0 -1.166618466710e+01 
-6.113525234858e+01 5.611237988600e+00 0.0 
5.611237988600e+00 -1.176757306918e+02 0.0 
0.0 0.0 -5.324329491210e+01 
-2.243238242974e+01 -1.250924746015e+00 0.0 
-1.250924746015e+00 -5.858021147042e+01 0.0 
0.0 0.0 -2.390377817005e+01 
-6.457159123140e+01 2.980763066091e+00 0.0 
2.980763066091e+00 -1.258870204067e+02 0.0 
0.0 0.0 -5.673758349143e+01 
-1.531865915598e+02 1.391784328931e+01 0.0 
1.391784328931e+01 -3.629101935456e+02 0.0 
0.0 0.0 -1.544290355316e+02 
-1.450013823942e+02 1.576383098788e+01 0.0 
1.576383098788e+01 -3.396698922531e+02 0.0 
0.0 0.0 -1.450013823942e+02 
-8.500235904357e+01 6.072160435935e+00 0.0 
6.072160435935e+00 -1.752631120652e+02 0.0 
0.0 0.0 -7.767964133263e+01 
-1.794069094112e+01 -1.596201425426e+00 0.0 
-1.596201425426e+00 -4.199001620587e+01 0.0 
0.0 0.0 -1.757921214410e+01 
-1.833664037453e+01 1.028394725876e+00 0.0 
1.028394725876e+00 -4.320757324136e+01 0.0 
0.0 0.0 -1.806326408477e+01 
-2.477127773716e+01 -1.573715157672e+00 0.0 
-1.573715157672e+00 -5.808448600483e+01 0.0 
0.0 0.0 -2.445672912259e+01 
-1.294326381323e+02 6.013066261834e+00 0.0 
6.013066261834e+00 -3.189707414166e+02 0.0 
0.0 0.0 -1.341210138647e+02 
-7.063362673573e+01 1.416334347855e+00 0.0 
1.416334347855e+00 -1.443983454030e+02 0.0 
0.0 0.0 -6.410959164163e+01 
-7.761617507142e+01 4.675343166499e+00 0.0 
4.675343166499e+00 -1.558777497255e+02 0.0 
0.0 0.0 -6.964817743906e+01 
-1.481264731036e+02 1.587450242834e+01 0.0 
1.587450242834e+01 -3.469617705751e+02 0.0 
0.0 0.0 -1.481264731036e+02 
-6.984307669497e+01 1.394079986819e+00 0.0 
1.394079986819e+00 -1.442361205903e+02 0.0 
0.0 0.0 -6.382375918559e+01 
-1.352308752045e+02 7.813010996245e+00 0.0 
7.813010996245e+00 -3.128888165254e+02 0.0 
0.0 0.0 -1.340359075190e+02 
-1.071754837272e+02 1.240909075071e+01 0.0 
1.240909075071e+01 -2.486085498849e+02 0.0 
0.0 0.0 -1.063352100836e+02 
-8.248552000413e+01 9.351009642683e-01 0.0 
9.351009642683e-01 -1.758812819034e+02 0.0 
0.0 0.0 -7.711004057226e+01 
-3.479274462000e+01 1.387522599701e+01 0.0 
1.387522599701e+01 -7.431116449029e+01 0.0 
0.0 0.0 -3.233117273308e+01 
-9.718826043134e+01 1.064332479126e+01 0.0 
1.064332479126e+01 -2.447255653549e+02 0.0 
0.0 0.0 -1.021741477359e+02 
-2.494350257040e+01 6.188974091314e+00 0.0 
6.188974091314e+00 -6.824925127607e+01 0.0 
0.0 0.0 -2.755782615394e+01 
-1.509251646220e+02 1.539358964900e+01 0.0 
1.539358964900e+01 -3.534920507848e+02 0.0 
0.0 0.0 -1.509251646220e+02 
-1.348779712987e+02 1.046566320731e+01 0.0 
1.046566320731e+01 -3.160485996969e+02 0.0 
0.0 0.0 -1.348779712987e+02 
-1.336678791218e+02 8.894893689925e+00 0.0 
8.894893689925e+00 -3.132250512841e+02 0.0 
0.0 0.0 -1.336678791218e+02 
-9.359766146372e+01 4.620161266273e+00 0.0 
4.620161266273e+00 -2.440485745976e+02 0.0 
0.0 0.0 -1.008938708184e+02 
-6.537878127120e+01 4.103349074090e-01 0.0 
4.103349074090e-01 -1.723890642188e+02 0.0 
0.0 0.0 -7.093035364699e+01 
-6.691737428657e+01 1.497353323427e+01 0.0 
1.497353323427e+01 -1.531683833092e+02 0.0 
0.0 0.0 -6.562572727873e+01 
-9.669795099514e+01 3.194776912406e+00 0.0 
3.194776912406e+00 -2.524890956121e+02 0.0 
0.0 0.0 -1.043561139822e+02 
-1.534478531638e+02 1.436223115548e+01 0.0 
1.436223115548e+01 -3.593783240489e+02 0.0 
0.0 0.0 -1.534478531638e+02 
-3.440073490576e+01 1.163741337737e+01 0.0 
1.163741337737e+01 -9.552743469766e+01 0.0 
0.0 0.0 -3.857845088103e+01 
-4.551875388960e+01 2.521885750431e+00 0.0 
2.521885750431e+00 -1.335023719875e+02 0.0 
0.0 0.0 -5.330633776312e+01 
-4.930051736590e+01 1.970037587633e+00 0.0 
1.970037587633e+00 -1.426740708872e+02 0.0 
0.0 0.0 -5.719237647594e+01 
-8.664788118978e+01 1.056366876787e+00 0.0 
1.056366876787e+00 -1.867834629046e+02 0.0 
0.0 0.0 -8.162940322832e+01 
-1.560389061996e+02 1.136993235944e+01 0.0 
1.136993235944e+01 -3.702523985116e+02 0.0 
0.0 0.0 -1.574873914134e+02 
-2.122933659099e+01 -1.678958455963e+00 0.0 
-1.678958455963e+00 -4.167259283481e+01 0.0 
0.0 0.0 -1.847057882774e+01 
-1.559554707273e+02 1.287196334896e+01 0.0 
1.287196334896e+01 -3.652294316971e+02 0.0 
0.0 0.0 -1.559554707273e+02 
-4.617262238502e+01 6.803368303626e-01 0.0 
6.803368303626e-01 -1.332401703355e+02 0.0 
0.0 0.0 -5.342383781617e+01 
-1.383468337927e+02 1.318149336325e+01 0.0 
1.318149336325e+01 -3.241426121829e+02 0.0 
0.0 0.0 -1.383468337927e+02 
-1.204329586717e+02 1.094701775869e+01 0.0 
1.094701775869e+01 -2.663056219113e+02 0.0 
0.0 0.0 -1.156215741749e+02 
-1.053109745125e+01 -5.282295333761e-01 0.0 
-5.282295333761e-01 -7.874744234675e+00 0.0 
0.0 0.0 -5.121752505777e+00 
-6.304493986816e+01 1.329188150465e+01 0.0 
1.329188150465e+01 -1.471514835386e+02 0.0 
0.0 0.0 -6.265892702202e+01 
-1.153274743236e+02 6.251635479843e+00 0.0 
6.251635479843e+00 -2.554420837112e+02 0.0 
0.0 0.0 -1.108308674105e+02 
-1.406257869198e+02 1.457878091966e+01 0.0 
1.457878091966e+01 -3.294601694795e+02 0.0 
0.0 0.0 -1.406257869198e+02 
-9.410513081954e+01 9.207823615843e+00 0.0 
9.207823615843e+00 -1.960522328281e+02 0.0 
0.0 0.0 -8.664720909430e+01 
-1.107951231237e+02 1.253824659492e+01 0.0 
1.253824659492e+01 -2.605523723088e+02 0.0 
0.0 0.0 -1.110042486297e+02 
-2.019040545502e+01 8.554406262534e+00 0.0 
8.554406262534e+00 -5.663181385939e+01 0.0 
0.0 0.0 -2.264666579432e+01 
-1.393419970659e+02 1.137783718102e+01 0.0 
1.137783718102e+01 -3.343300603267e+02 0.0 
0.0 0.0 -1.417016172178e+02 
-4.988215031984e+01 3.749635630675e-01 0.0 
3.749635630675e-01 -1.420386519929e+02 0.0 
0.0 0.0 -5.717624069383e+01 
-5.106782534398e+01 2.390987314360e+00 0.0 
2.390987314360e+00 -1.435055040393e+02 0.0 
0.0 0.0 -5.797199881499e+01 
-1.784999644523e+01 -1.397767616681e+00 0.0 
-1.397767616681e+00 -2.584108969326e+01 0.0 
0.0 0.0 -1.270732584155e+01 
-1.433691145569e+02 1.549019826278e+01 0.0 
1.549019826278e+01 -3.358612672994e+02 0.0 
0.0 0.0 -1.433691145569e+02 
-2.958204136923e+01 7.240985235575e+00 0.0 
7.240985235575e+00 -8.496976364709e+01 0.0 
0.0 0.0 -3.396554150490e+01 
-1.249323924876e+02 9.120156773104e+00 0.0 
9.120156773104e+00 -3.092985206455e+02 0.0 
0.0 0.0 -1.298692739400e+02 
-7.913500174535e+01 2.379132075538e+00 0.0 
2.379132075538e+00 -1.664463196250e+02 0.0 
0.0 0.0 -7.327439641110e+01 
-4.505857988634e+01 -3.645973688924e-01 0.0 
-3.645973688924e-01 -1.225874065116e+02 0.0 
0.0 0.0 -4.989379591937e+01 
-4.734787235095e+01 2.882710347659e+00 0.0 
2.882710347659e+00 -1.343530077725e+02 0.0 
0.0 0.0 -5.411026403703e+01 
-9.024657266888e+01 9.775351518408e+00 0.0 
9.775351518408e+00 -1.870534743795e+02 0.0 
0.0 0.0 -8.279001411452e+01 
-1.495738411240e+02 1.578179498174e+01 0.0 
1.578179498174e+01 -3.503389626226e+02 0.0 
0.0 0.0 -1.495738411240e+02 
-6.809071172275e+01 -8.575407515727e-01 0.0 
-8.575407515727e-01 -1.804303256205e+02 0.0 
0.0 0.0 -7.415631120296e+01 
-1.065027260668e+02 6.324341151964e+00 0.0 
6.324341151964e+00 -2.720735707826e+02 0.0 
0.0 0.0 -1.131728890548e+02 
-8.027826302553e+01 1.213046537368e+01 0.0 
1.213046537368e+01 -1.786915927400e+02 0.0 
0.0 0.0 -7.729095672966e+01 
-9.288764791800e+01 7.419205675359e+00 0.0 
7.419205675359e+00 -2.423850240453e+02 0.0 
0.0 0.0 -1.001818015890e+02 
-5.029366376162e+01 4.323620350233e+00 0.0 
4.323620350233e+00 -1.427850846275e+02 0.0 
0.0 0.0 -5.752362451672e+01 
-9.768840406255e+01 5.604367861684e+00 0.0 
5.604367861684e+00 -2.532135010246e+02 0.0 
0.0 0.0 -1.048705715261e+02 
-7.649843843492e+01 1.390092653575e+01 0.0 
1.390092653575e+01 -1.663043214024e+02 0.0 
0.0 0.0 -7.244082795118e+01 
-1.044901996809e+02 1.342677191932e+01 0.0 
1.342677191932e+01 -2.326804824994e+02 0.0 
0.0 0.0 -1.007512046541e+02 
-1.058589859719e+02 1.088000092665e+01 0.0 
1.088000092665e+01 -2.633554804625e+02 0.0 
0.0 0.0 -1.103643399303e+02 
-7.574407401387e+01 1.267449529948e+01 0.0 
1.267449529948e+01 -1.722121590247e+02 0.0 
0.0 0.0 -7.398686991158e+01 
-6.832192596981e+01 -2.677817150157e-01 0.0 
-2.677817150157e-01 -1.842525010716e+02 0.0 
0.0 0.0 -7.537232811241e+01 
-3.749208085536e+01 1.346088262090e+01 0.0 
1.346088262090e+01 -9.979024018123e+01 0.0 
0.0 0.0 -4.078469631098e+01 
-6.438492446602e+01 -9.781086750581e-01 0.0 
-9.781086750581e-01 -1.716693384135e+02 0.0 
0.0 0.0 -7.041627886386e+01 
-1.072452029319e+02 1.426696274901e+01 0.0 
1.426696274901e+01 -2.491058184759e+02 0.0 
0.0 0.0 -1.065053064223e+02 
-8.409846139405e+01 9.534430906194e+00 0.0 
9.534430906194e+00 -2.189096432262e+02 0.0 
0.0 0.0 -9.050243138608e+01 
-1.542611961844e+02 1.318614339042e+01 0.0 
1.318614339042e+01 -3.656542383357e+02 0.0 
0.0 0.0 -1.555746303560e+02 
-1.190882000728e+02 7.089649506101e+00 0.0 
7.089649506101e+00 -2.648673351402e+02 0.0 
0.0 0.0 -1.147866605639e+02 
-4.035269166305e+01 -1.763292563803e+00 0.0 
-1.763292563803e+00 -1.112113529685e+02 0.0 
0.0 0.0 -4.506921338946e+01 
-1.547296201396e+02 1.360997923013e+01 0.0 
1.360997923013e+01 -3.623691136591e+02 0.0 
0.0 0.0 -1.547296201396e+02 
-1.454522370120e+02 1.274036077775e+01 0.0 
1.274036077775e+01 -3.486034995785e+02 0.0 
0.0 0.0 -1.478167209771e+02 
-6.953736193777e+01 1.254156217931e+01 0.0 
1.254156217931e+01 -1.726574699394e+02 0.0 
0.0 0.0 -7.225844956316e+01 
-1.462479918981e+01 -1.333248253885e+00 0.0 
-1.333248253885e+00 -2.543282716646e+01 0.0 
0.0 0.0 -1.199507142858e+01 
-1.569753739268e+02 1.038119366337e+01 0.0 
1.038119366337e+01 -3.722791766012e+02 0.0 
0.0 0.0 -1.583763651584e+02 
-1.193266334453e+02 8.185612633698e+00 0.0 
8.185612633698e+00 -2.645362924778e+02 0.0 
0.0 0.0 -1.147588777769e+02 
-4.320177363438e+01 -3.801390815312e-01 0.0 
-3.801390815312e-01 -1.234365199428e+02 0.0 
0.0 0.0 -4.959148807315e+01 
-1.580956278462e+02 1.128690798072e+01 0.0 
1.128690798072e+01 -3.702231316412e+02 0.0 
0.0 0.0 -1.580956278462e+02 
-1.022137163734e+02 5.325847422600e+00 0.0 
5.325847422600e+00 -2.628589929863e+02 0.0 
0.0 0.0 -1.091218128079e+02 
-5.713139471126e+01 9.757855602266e+00 0.0 
9.757855602266e+00 -1.127457254501e+02 0.0 
0.0 0.0 -5.056313604840e+01 
-8.048485084129e+01 3.452111383633e+00 0.0 
3.452111383633e+00 -1.645813647888e+02 0.0 
0.0 0.0 -7.311986468902e+01 
-8.036744989621e+01 1.125438975576e+01 0.0 
1.125438975576e+01 -2.080988238860e+02 0.0 
0.0 0.0 -8.613988213465e+01 
-8.525992927367e+01 3.906929186933e+00 0.0 
3.906929186933e+00 -2.252772772308e+02 0.0 
0.0 0.0 -9.276116195134e+01 
-9.715185276348e+01 8.564216055765e+00 0.0 
8.564216055765e+00 -2.508333457176e+02 0.0 
0.0 0.0 -1.039955595443e+02 
-9.739260285604e+01 6.038060208941e+00 0.0 
6.038060208941e+00 -2.049362832481e+02 0.0 
0.0 0.0 -9.029866583126e+01 
-6.546107588131e+01 7.368364620197e+00 0.0 
7.368364620197e+00 -1.289620348690e+02 0.0 
0.0 0.0 -5.792693322510e+01 
-1.104392764061e+02 1.156137800009e+01 0.0 
1.156137800009e+01 -2.708342375549e+02 0.0 
0.0 0.0 -1.139820541883e+02 
-8.048937836663e+01 3.954397715997e-01 0.0 
3.954397715997e-01 -1.761169518659e+02 0.0 
0.0 0.0 -7.658189906976e+01 
-6.962599929027e+01 9.646650318360e-01 0.0 
9.646650318360e-01 -1.850703908093e+02 0.0 
0.0 0.0 -7.600891702986e+01 
-1.012279842328e+02 1.008786221404e+01 0.0 
1.008786221404e+01 -2.557574561028e+02 0.0 
0.0 0.0 -1.066956321007e+02 
-5.159411739688e+01 1.028724230752e+00 0.0 
1.028724230752e+00 -1.428856592106e+02 0.0 
0.0 0.0 -5.794393298224e+01 
-1.009172112615e+02 1.131866869547e+00 0.0 
1.131866869547e+00 -2.589325448416e+02 0.0 
0.0 0.0 -1.075549268309e+02 
-1.179094882013e+01 -5.229461846881e-01 0.0 
-5.229461846881e-01 -8.010003945414e+00 0.0 
0.0 0.0 -5.540285829662e+00 
-4.118605891920e+01 1.489171533951e+01 0.0 
1.489171533951e+01 -1.040207978440e+02 0.0 
0.0 0.0 -4.316205702895e+01 
-4.801495837899e+01 1.233266615316e+00 0.0 
1.233266615316e+00 -1.341344585167e+02 0.0 
0.0 0.0 -5.424482506872e+01 
-7.616849019649e+01 -2.226512284975e-01 0.0 
-2.226512284975e-01 -2.017816747031e+02 0.0 
0.0 0.0 -8.298504946987e+01 
-7.430147463827e+01 1.279337574726e+01 0.0 
1.279337574726e+01 -1.787102929980e+02 0.0 
0.0 0.0 -7.550353029089e+01 
-1.009914146447e+02 4.125755103014e+00 0.0 
4.125755103014e+00 -2.620873723830e+02 0.0 
0.0 0.0 -1.085236361083e+02 
-8.387624060141e+01 2.261984309723e+00 0.0 
2.261984309723e+00 -1.785962651507e+02 0.0 
0.0 0.0 -7.834175172564e+01 
-4.497080945557e+01 3.196735243627e-01 0.0 
3.196735243627e-01 -1.243417107126e+02 0.0 
0.0 0.0 -5.039375605045e+01 
-1.590559184742e+02 1.040168785831e+01 0.0 
1.040168785831e+01 -3.724638097732e+02 0.0 
0.0 0.0 -1.590559184742e+02 
-8.980749809060e+01 1.160680539052e+01 0.0 
1.160680539052e+01 -1.896118801067e+02 0.0 
0.0 0.0 -8.342581345918e+01 
-8.008758597121e+01 -2.095197135687e-01 0.0 
-2.095197135687e-01 -2.104197613535e+02 0.0 
0.0 0.0 -8.675220419741e+01 
-8.554193237853e+01 1.235032655195e+01 0.0 
1.235032655195e+01 -1.814452713591e+02 0.0 
0.0 0.0 -7.969616112128e+01 
-7.722831102171e+01 1.104348132828e+00 0.0 
1.104348132828e+00 -2.025139187360e+02 0.0 
0.0 0.0 -8.352266892730e+01 
-1.038190356862e+01 -5.628064013466e-01 0.0 
-5.628064013466e-01 -8.959498728972e+00 0.0 
0.0 0.0 -6.376666668527e+00 
-8.575407168247e+01 5.377620404228e+00 0.0 
5.377620404228e+00 -1.754140764794e+02 0.0 
0.0 0.0 -7.795044444857e+01 
-6.416043333234e+01 -9.850458325549e-01 0.0 
-9.850458325549e-01 -1.686685683360e+02 0.0 
0.0 0.0 -6.944870050049e+01 
-5.811718101063e+00 -3.636002374362e-01 0.0 
-3.636002374362e-01 -8.771681612109e+00 0.0 
0.0 0.0 -4.929694702598e+00 
-7.593438749161e+01 -5.863010748444e-01 0.0 
-5.863010748444e-01 -1.996853930487e+02 0.0 
0.0 0.0 -8.228593416211e+01 
-1.099587289203e+02 4.757195792239e+00 0.0 
4.757195792239e+00 -2.809433657098e+02 0.0 
0.0 0.0 -1.168706283890e+02 
-1.106164533874e+02 7.848627016945e-01 0.0 
7.848627016945e-01 -2.513892256598e+02 0.0 
0.0 0.0 -1.082017037142e+02 
-8.861926058887e+01 7.964855358347e+00 0.0 
7.964855358347e+00 -2.324540439827e+02 0.0 
0.0 0.0 -9.592199137146e+01 
-9.190132293205e+01 6.433200273747e+00 0.0 
6.433200273747e+00 -2.417253691706e+02 0.0 
0.0 0.0 -9.968800763081e+01 
-6.980978845581e+01 3.595023442989e+00 0.0 
3.595023442989e+00 -1.375402025006e+02 0.0 
0.0 0.0 -6.180499728691e+01 
-6.205288797561e+01 6.547019426939e-01 0.0 
6.547019426939e-01 -1.261570618830e+02 0.0 
0.0 0.0 -5.606298495757e+01 
-1.279914098652e+02 6.523250563665e+00 0.0 
6.523250563665e+00 -2.946822156752e+02 0.0 
0.0 0.0 -1.264020876621e+02 
-8.110183136506e+01 1.313840964596e+01 0.0 
1.313840964596e+01 -1.736358064027e+02 0.0 
0.0 0.0 -7.602129133034e+01 
-4.621242992105e+00 -2.600617843769e-01 0.0 
-2.600617843769e-01 -7.319877686252e+00 0.0 
0.0 0.0 -3.182336203507e+00 
-2.708475349652e+01 -1.097514544224e+00 0.0 
-1.097514544224e+00 -6.902151128780e+01 0.0 
0.0 0.0 -2.843187943530e+01 
-1.419849994477e+01 -1.314095690467e+00 0.0 
-1.314095690467e+00 -2.517857779147e+01 0.0 
0.0 0.0 -1.180663657827e+01 
-4.468539958701e+01 -8.001471150175e-01 0.0 
-8.001471150175e-01 -1.197396983847e+02 0.0 
0.0 0.0 -4.892752939151e+01 
-1.201050361558e+02 1.317533328851e+01 0.0 
1.317533328851e+01 -2.687054439397e+02 0.0 
0.0 0.0 -1.162431440287e+02 
-1.113007063786e+02 2.458006821631e+00 0.0 
2.458006821631e+00 -2.519670101669e+02 0.0 
0.0 0.0 -1.085803149637e+02 
-1.237205284441e+02 3.782641768839e+00 0.0 
3.782641768839e+00 -3.084386748167e+02 0.0 
0.0 0.0 -1.292477609782e+02 
-5.090130864074e+01 -3.530830785758e-01 0.0 
-3.530830785758e-01 -1.357148169821e+02 0.0 
0.0 0.0 -5.558483768684e+01 
-1.018208924789e+02 2.478926851229e+00 0.0 
2.478926851229e+00 -2.596257253739e+02 0.0 
0.0 0.0 -1.080339853558e+02 
-1.287381398013e+02 7.381660347651e+00 0.0 
7.381660347651e+00 -3.183295226113e+02 0.0 
0.0 0.0 -1.337202987238e+02 
-2.590868178019e+01 2.819973776715e+00 0.0 
2.819973776715e+00 -7.059468871954e+01 0.0 
0.0 0.0 -2.855101114992e+01 
-6.446875479022e+01 6.788212175678e-01 0.0 
6.788212175678e-01 -1.688434377745e+02 0.0 
0.0 0.0 -6.959365776941e+01 
-5.294523054050e+01 -9.170154407846e-01 0.0 
-9.170154407846e-01 -1.391152570260e+02 0.0 
0.0 0.0 -5.721814626995e+01 
-1.573702894682e+02 9.369654932457e+00 0.0 
9.369654932457e+00 -3.736401293536e+02 0.0 
0.0 0.0 -1.589031256465e+02 
-1.597976121427e+02 9.549037064945e+00 0.0 
9.549037064945e+00 -3.741944283331e+02 0.0 
0.0 0.0 -1.597976121427e+02 
-7.174666099659e+01 5.573186838844e-01 0.0 
5.573186838844e-01 -1.873628614856e+02 0.0 
0.0 0.0 -7.733285674464e+01 
-8.111003992597e+01 1.157709292943e+00 0.0 
1.157709292943e+00 -2.111519335716e+02 0.0 
0.0 0.0 -8.727859204927e+01 
-8.816488781565e+01 2.555961277525e+00 0.0 
2.555961277525e+00 -2.336158275970e+02 0.0 
0.0 0.0 -9.613421462380e+01 
-1.334346743106e+02 8.553279953517e+00 0.0 
8.553279953517e+00 -3.271091109653e+02 0.0 
0.0 0.0 -1.377631355828e+02 
-2.918206400176e+01 -2.274633846275e+00 0.0 
-2.274633846275e+00 -7.641709766644e+01 0.0 
0.0 0.0 -3.127974850046e+01 
-1.239307528511e+02 6.343574662900e+00 0.0 
6.343574662900e+00 -3.091668075415e+02 0.0 
0.0 0.0 -1.295292681178e+02 
-1.745484844995e+01 -9.167695905429e-01 0.0 
-9.167695905429e-01 -4.293192869022e+01 0.0 
0.0 0.0 -1.771603314205e+01 
-7.304558463517e+01 7.629704469355e-01 0.0 
7.629704469355e-01 -1.918287459640e+02 0.0 
0.0 0.0 -7.906229917974e+01 
-8.134309801421e+01 1.563528369215e+00 0.0 
1.563528369215e+00 -2.130258785246e+02 0.0 
0.0 0.0 -8.791069296166e+01 
-1.031489059111e+01 -4.902435271913e-01 0.0 
-4.902435271913e-01 -2.554718340318e+01 0.0 
0.0 0.0 -1.073921736806e+01 
-6.823482709682e+01 -8.229036514562e-01 0.0 
-8.229036514562e-01 -1.780217584066e+02 0.0 
0.0 0.0 -7.347697565103e+01 
-1.173066487533e+02 5.347218213970e+00 0.0 
5.347218213970e+00 -2.636803389479e+02 0.0 
0.0 0.0 -1.138960963103e+02 
-3.998817419893e+00 -2.403410108722e-01 0.0 
-2.403410108722e-01 -7.797079333713e+00 0.0 
0.0 0.0 -3.138769026082e+00 
-6.295649726507e+01 8.250013041993e-01 0.0 
8.250013041993e-01 -1.265567370438e+02 0.0 
0.0 0.0 -5.645397029267e+01 
-6.320749327679e+01 1.125064203451e+00 0.0 
1.125064203451e+00 -1.271068977958e+02 0.0 
0.0 0.0 -5.669431732178e+01 
-1.015338998360e+02 9.680907635542e+00 0.0 
9.680907635542e+00 -2.590421146168e+02 0.0 
0.0 0.0 -1.077728043358e+02 
-5.298770905401e+01 5.776407999603e-01 0.0 
5.776407999603e-01 -1.390547115586e+02 0.0 
0.0 0.0 -5.721272618379e+01 
-4.675367290972e+01 -5.757620840623e-01 0.0 
-5.757620840623e-01 -1.321194456569e+02 0.0 
0.0 0.0 -5.326193557000e+01 
-2.537789212982e+01 1.216621747407e+01 0.0 
1.216621747407e+01 -6.571048739029e+01 0.0 
0.0 0.0 -2.692651385603e+01 
-1.377735273864e+02 3.950175992800e+00 0.0 
3.950175992800e+00 -3.358242703317e+02 0.0 
0.0 0.0 -1.416793393154e+02 
-1.366459605406e+02 1.445073355668e+01 0.0 
1.445073355668e+01 -3.178215896255e+02 0.0 
0.0 0.0 -1.359402650498e+02 
-1.072915307111e+02 3.188125785401e+00 0.0 
3.188125785401e+00 -2.393758558946e+02 0.0 
0.0 0.0 -1.036002159817e+02 
-3.433617164363e+01 1.596235101240e+01 0.0 
1.596235101240e+01 -7.449193573537e+01 0.0 
0.0 0.0 -3.224843221370e+01 
-1.957244171031e+01 -2.367711650350e+00 0.0 
-2.367711650350e+00 -4.763314560610e+01 0.0 
0.0 0.0 -1.976167619492e+01 
-6.667446154613e+01 7.772976706589e+00 0.0 
7.772976706589e+00 -1.279553944915e+02 0.0 
0.0 0.0 -5.798895681128e+01 
-6.142964029593e+01 2.356930247098e-01 0.0 
2.356930247098e-01 -1.267421247843e+02 0.0 
0.0 0.0 -5.605152952407e+01 
-6.075722893724e+01 3.325906947145e-01 0.0 
3.325906947145e-01 -1.264860899391e+02 0.0 
0.0 0.0 -5.577299566290e+01 
-5.344103619377e+00 -3.090043028270e-01 0.0 
-3.090043028270e-01 -8.989984718650e+00 0.0 
0.0 0.0 -4.869113952048e+00 
-1.052701554677e+01 -5.803688107306e-01 0.0 
-5.803688107306e-01 -2.540145621909e+01 0.0 
0.0 0.0 -1.079987089971e+01 
-1.571545603908e+01 -1.622472357681e-01 0.0 
-1.622472357681e-01 -4.206478838801e+01 0.0 
0.0 0.0 -1.693407332813e+01 
-3.905393129994e+01 -2.063913319963e+00 0.0 
-2.063913319963e+00 -1.045139048750e+02 0.0 
0.0 0.0 -4.267035085249e+01 
-1.036530150101e+01 -3.714248300148e-01 0.0 
-3.714248300148e-01 -2.584095903109e+01 0.0 
0.0 0.0 -1.046187815963e+01 
-7.567480899468e+01 -7.222156796128e-01 0.0 
-7.222156796128e-01 -1.975693960747e+02 0.0 
0.0 0.0 -8.157326152081e+01 
-1.281219738867e+01 -5.546899377470e-01 0.0 
-5.546899377470e-01 -8.872103310733e+00 0.0 
0.0 0.0 -7.073625574973e+00 
-4.608126637764e+01 -1.844028693717e+00 0.0 
-1.844028693717e+00 -1.240587236913e+02 0.0 
0.0 0.0 -5.064199702068e+01 
-8.738566202965e+01 1.840179181853e-01 0.0 
1.840179181853e-01 -1.931462010751e+02 0.0 
0.0 0.0 -8.375955893142e+01 
-6.190015168184e+01 5.262641961564e-01 0.0 
5.262641961564e-01 -1.264002389475e+02 0.0 
0.0 0.0 -5.609011718881e+01 
-1.237975537518e+02 1.289906325161e+01 0.0 
1.289906325161e+01 -2.768205863374e+02 0.0 
0.0 0.0 -1.197854420268e+02 
-1.055014690350e+02 3.814025293097e+00 0.0 
3.814025293097e+00 -2.713686044293e+02 0.0 
0.0 0.0 -1.126610220393e+02 
-7.996885826970e+01 -4.749687080759e-02 0.0 
-4.749687080759e-02 -1.754779203378e+02 0.0 
0.0 0.0 -7.623403358224e+01 
-5.653058834561e+01 -7.852666976618e-01 0.0 
-7.852666976618e-01 -1.485049769839e+02 0.0 
0.0 0.0 -6.111066959886e+01 
-1.695510435709e+01 -4.127036412416e-01 0.0 
-4.127036412416e-01 -4.268579291013e+01 0.0 
0.0 0.0 -1.749226918016e+01 
-1.312663457114e+02 3.356770315671e+00 0.0 
3.356770315671e+00 -3.076214733266e+02 0.0 
0.0 0.0 -1.312663457114e+02 
-1.327581608031e+02 3.632141412300e+00 0.0 
3.632141412300e+00 -3.083069114949e+02 0.0 
0.0 0.0 -1.319195216894e+02 
-7.811484347671e+01 3.110223858610e-01 0.0 
3.110223858610e-01 -1.657892400137e+02 0.0 
0.0 0.0 -7.277122504714e+01 
-6.133639922373e+01 3.400930363111e-01 0.0 
3.400930363111e-01 -1.262702307263e+02 0.0 
0.0 0.0 -5.588198898501e+01 
-5.746706542336e+01 1.617350807939e-01 0.0 
1.617350807939e-01 -1.505540075352e+02 0.0 
0.0 0.0 -6.200632188758e+01 
-1.324911753111e+02 2.630132001278e+00 0.0 
2.630132001278e+00 -3.078827940768e+02 0.0 
0.0 0.0 -1.317121908164e+02 
-4.372179526050e+01 -6.946486447033e-01 0.0 
-6.946486447033e-01 -1.161915379170e+02 0.0 
0.0 0.0 -4.757399995325e+01 
-6.245784943648e+01 8.193200865108e-01 0.0 
8.193200865108e-01 -1.265174407904e+02 0.0 
0.0 0.0 -5.629258706806e+01 
-6.209056649460e+01 4.290662933197e-01 0.0 
4.290662933197e-01 -1.262226786806e+02 0.0 
0.0 0.0 -5.609397355255e+01 
-6.065414640172e+01 3.405539930386e+00 0.0 
3.405539930386e+00 -1.164955925710e+02 0.0 
0.0 0.0 -5.274492169183e+01 
-1.330392997467e+02 7.330679047323e+00 0.0 
7.330679047323e+00 -3.117583660757e+02 0.0 
0.0 0.0 -1.330392997467e+02 
-1.333228070622e+02 2.999917475014e+00 0.0 
2.999917475014e+00 -3.085377737376e+02 0.0 
0.0 0.0 -1.321581742399e+02 
-1.065439122549e+01 -5.033754798895e-01 0.0 
-5.033754798895e-01 -2.564073036504e+01 0.0 
0.0 0.0 -1.048853647716e+01 
-5.110612253280e+00 -2.136104415773e-01 0.0 
-2.136104415773e-01 -9.096822583613e+00 0.0 
0.0 0.0 -4.839485258364e+00 
-2.269310334747e+01 -2.136526247075e+00 0.0 
-2.136526247075e+00 -5.718069207272e+01 0.0 
0.0 0.0 -2.356213862606e+01 
-8.019930540727e+01 2.526526487069e-01 0.0 
2.526526487069e-01 -2.122616004258e+02 0.0 
0.0 0.0 -8.733827174992e+01 
-1.465683770371e+02 -3.537328534344e-01 0.0 
-3.537328534344e-01 -3.518994214083e+02 0.0 
0.0 0.0 -1.491403395336e+02 
-1.583822949984e+01 -3.599493129373e-01 0.0 
-3.599493129373e-01 -7.185130695936e+00 0.0 
0.0 0.0 -6.507008058733e+00 
-1.042153941109e+02 1.118777784730e+00 0.0 
1.118777784730e+00 -2.356013930141e+02 0.0 
0.0 0.0 -1.015450361375e+02 
-1.211946172213e+01 -6.054008870987e-01 0.0 
-6.054008870987e-01 -9.025747233919e+00 0.0 
0.0 0.0 -6.924512727551e+00 
-1.005898916362e+02 6.970200417016e+00 0.0 
6.970200417016e+00 -2.602250544988e+02 0.0 
0.0 0.0 -1.078444838405e+02 
-1.316099788295e+01 -6.256586822964e-01 0.0 
-6.256586822964e-01 -8.206982328276e+00 0.0 
0.0 0.0 -6.010394063367e+00 
-1.451136370248e+01 -5.506362064133e-01 0.0 
-5.506362064133e-01 -8.134735742012e+00 0.0 
0.0 0.0 -6.393829833348e+00 
-9.616861759287e+01 5.896569240726e+00 0.0 
5.896569240726e+00 -2.514820258525e+02 0.0 
0.0 0.0 -1.038951930336e+02 
-1.413692984747e+02 1.268007731875e+00 0.0 
1.268007731875e+00 -3.418621888787e+02 0.0 
0.0 0.0 -1.445694462060e+02 
-8.709573506394e+01 7.284982568218e-01 0.0 
7.284982568218e-01 -1.919315298655e+02 0.0 
0.0 0.0 -8.330817947884e+01 
-7.065579506844e+01 9.367229213190e+00 0.0 
9.367229213190e+00 -1.386844511927e+02 0.0 
0.0 0.0 -6.240207387834e+01 
-1.007807694744e+01 -2.681505556882e-01 0.0 
-2.681505556882e-01 -2.553830716848e+01 0.0 
0.0 0.0 -1.066740935928e+01 
-1.058890332939e+02 2.352413553386e+00 0.0 
2.352413553386e+00 -2.682145439650e+02 0.0 
0.0 0.0 -1.118310731776e+02 
-1.306013300306e+02 1.111495315697e+00 0.0 
1.111495315697e+00 -3.060697700714e+02 0.0 
0.0 0.0 -1.306013300306e+02 
-1.320833785680e+02 1.773763295998e+00 0.0 
1.773763295998e+00 -3.073399095628e+02 0.0 
0.0 0.0 -1.314269864392e+02 
-6.144119154974e+01 3.504246069372e-01 0.0 
3.504246069372e-01 -1.263017372668e+02 0.0 
0.0 0.0 -5.592287864497e+01 
-1.051121970987e+02 8.024714609354e+00 0.0 
8.024714609354e+00 -2.687443038531e+02 0.0 
0.0 0.0 -1.117569502855e+02 
-1.313042862939e+02 2.662981642461e+00 0.0 
2.662981642461e+00 -3.077100013525e+02 0.0 
0.0 0.0 -1.313042862939e+02 
-1.110753757931e+02 1.437061425070e+01 0.0 
1.437061425070e+01 -2.610522902345e+02 0.0 
0.0 0.0 -1.112382998083e+02 
-1.624013572404e+01 -4.591774320954e-01 0.0 
-4.591774320954e-01 -4.154015679045e+01 0.0 
0.0 0.0 -1.693408775435e+01 
-1.008602271300e+01 -2.421858773343e-01 0.0 
-2.421858773343e-01 -2.562739861031e+01 0.0 
0.0 0.0 -1.031402639699e+01 
-9.686430178989e+00 -6.084005589907e-02 0.0 
-6.084005589907e-02 -2.512938842233e+01 0.0 
0.0 0.0 -1.028601309443e+01 
-6.427708925106e+01 -7.477749678494e-01 0.0 
-7.477749678494e-01 -1.681855797593e+02 0.0 
0.0 0.0 -6.933880070311e+01 
-1.612377638393e+02 2.608348613218e+00 0.0 
2.608348613218e+00 -3.813130947179e+02 0.0 
0.0 0.0 -1.623652575671e+02 
-1.236917323261e+02 1.000403064520e+00 0.0 
1.000403064520e+00 -2.857657637028e+02 0.0 
0.0 0.0 -1.224372488087e+02 
-4.420342029873e+00 -4.040322256140e-02 0.0 
-4.040322256140e-02 -9.069625984068e+00 0.0 
0.0 0.0 -4.615668515853e+00 
-7.603497785323e+01 6.920240117071e-01 0.0 
6.920240117071e-01 -1.977266677678e+02 0.0 
0.0 0.0 -8.172849368630e+01 
-1.637491093733e+02 1.699569294973e+00 0.0 
1.699569294973e+00 -3.834145885377e+02 0.0 
0.0 0.0 -1.637491093733e+02 
-1.605728042186e+02 2.615854482702e+00 0.0 
2.615854482702e+00 -3.805170604013e+02 0.0 
0.0 0.0 -1.619269593860e+02 
-1.580006034171e+02 8.534200779842e+00 0.0 
8.534200779842e+00 -3.748922120313e+02 0.0 
0.0 0.0 -1.594678446345e+02 
-9.636535362592e+01 -7.075294716001e-01 0.0 
-7.075294716001e-01 -2.160483586275e+02 0.0 
0.0 0.0 -9.332411367602e+01 
-1.083378611271e+02 9.078871020287e-01 0.0 
9.078871020287e-01 -2.458593363081e+02 0.0 
0.0 0.0 -1.058591592306e+02 
-1.628542697449e+02 2.347454320204e+00 0.0 
2.347454320204e+00 -3.813266294047e+02 0.0 
0.0 0.0 -1.628542697449e+02 
-1.630346871690e+02 3.113126499815e+00 0.0 
3.113126499815e+00 -3.817476033944e+02 0.0 
0.0 0.0 -1.630346871690e+02 
-1.043393044486e+02 -5.052060163171e-01 0.0 
-5.052060163171e-01 -2.357363060654e+02 0.0 
0.0 0.0 -1.016226831542e+02 
-2.836232237420e+00 -3.266800198460e-01 0.0 
-3.266800198460e-01 -6.793859961369e+00 0.0 
0.0 0.0 -2.489027659637e+00 
-6.000249277014e+01 9.443186701705e-02 0.0 
9.443186701705e-02 -1.256605258497e+02 0.0 
0.0 0.0 -5.529890558594e+01 
-6.110904829874e+01 1.552000245499e-01 0.0 
1.552000245499e-01 -1.265516375148e+02 0.0 
0.0 0.0 -5.589820574407e+01 
-4.752440643670e+00 -1.243210135340e-01 0.0 
-1.243210135340e-01 -9.067331063863e+00 0.0 
0.0 0.0 -4.722083254611e+00 
-1.625517007144e+02 5.284359690675e+00 0.0 
5.284359690675e+00 -3.806206350004e+02 0.0 
0.0 0.0 -1.625517007144e+02 
-1.580662816835e+02 7.499336174787e+00 0.0 
7.499336174787e+00 -3.756832412771e+02 0.0 
0.0 0.0 -1.597248568882e+02 
-1.611068357972e+02 6.875853221042e+00 0.0 
6.875853221042e+00 -3.772492835268e+02 0.0 
0.0 0.0 -1.611068357972e+02 
-3.166869032007e+00 -8.207893502218e-02 0.0 
-8.207893502218e-02 -7.923802145826e+00 0.0 
0.0 0.0 -2.927201353350e+00 
-3.489220647130e+00 -2.162079690802e-01 0.0 
-2.162079690802e-01 -8.027070688183e+00 0.0 
0.0 0.0 -3.054887400594e+00 
-1.602972667494e+02 8.644822830603e+00 0.0 
8.644822830603e+00 -3.753602890819e+02 0.0 
0.0 0.0 -1.602972667494e+02 
-1.608176188886e+02 7.831571374420e+00 0.0 
7.831571374420e+00 -3.765744440733e+02 0.0 
0.0 0.0 -1.608176188886e+02 
-9.220690728518e+01 9.529382478649e-01 0.0 
9.529382478649e-01 -2.061023387720e+02 0.0 
0.0 0.0 -8.909277381716e+01 
-5.931631778999e+01 -1.076683129123e-01 0.0 
-1.076683129123e-01 -1.253118736115e+02 0.0 
0.0 0.0 -5.498845742044e+01 
-1.005147658612e+02 9.451441498467e-01 0.0 
9.451441498467e-01 -2.259727264302e+02 0.0 
0.0 0.0 -9.754624768743e+01 
-7.612586203694e+01 9.066011752621e-01 0.0 
9.066011752621e-01 -1.666542366421e+02 0.0 
0.0 0.0 -7.243402960370e+01 
-5.939486612757e+01 -5.097840052663e-02 0.0 
-5.097840052663e-02 -1.254183655645e+02 0.0 
0.0 0.0 -5.504396950762e+01 
-5.469675285404e+00 -4.279827184705e-01 0.0 
-4.279827184705e-01 -7.603813534875e+00 0.0 
0.0 0.0 -3.522046646083e+00 
-7.404705038339e+00 -2.368192668771e-01 0.0 
-2.368192668771e-01 -8.292520456612e+00 0.0 
0.0 0.0 -4.309167648485e+00 
-8.248397020538e+00 -3.833308276882e-01 0.0 
-3.833308276882e-01 -7.869659068410e+00 0.0 
0.0 0.0 -4.435416826684e+00 
-9.330533733766e+00 -4.390053641068e-01 0.0 
-4.390053641068e-01 -7.998417110235e+00 0.0 
0.0 0.0 -4.798685253200e+00 
-8.002563991934e+01 -8.832666659733e-01 0.0 
-8.832666659733e-01 -2.077376643451e+02 0.0 
0.0 0.0 -8.592899127933e+01 
-7.209991282754e+01 -7.718768910376e-01 0.0 
-7.718768910376e-01 -1.878787561453e+02 0.0 
0.0 0.0 -7.759360069185e+01 
-7.745629963633e+00 -4.202991065595e-01 0.0 
-4.202991065595e-01 -9.002950029447e+00 0.0 
0.0 0.0 -5.601601468859e+00 
-1.050556627565e+02 -8.057606061502e-01 0.0 
-8.057606061502e-01 -2.654063364893e+02 0.0 
0.0 0.0 -1.107385997737e+02 
-8.772399814041e+00 -5.160360545269e-01 0.0 
-5.160360545269e-01 -8.970876227788e+00 0.0 
0.0 0.0 -5.894821985322e+00 
-1.320417994069e+02 5.714812573447e+00 0.0 
5.714812573447e+00 -3.094308652827e+02 0.0 
0.0 0.0 -1.320417994069e+02 
-1.309571340382e+02 2.208140998214e+00 0.0 
2.208140998214e+00 -3.068999794225e+02 0.0 
0.0 0.0 -1.309571340382e+02 
-1.313164801494e+02 3.870840798353e+00 0.0 
3.870840798353e+00 -3.077384536818e+02 0.0 
0.0 0.0 -1.313164801494e+02 
-2.644522627147e+01 -9.477250370773e-01 0.0 
-9.477250370773e-01 -6.886687576765e+01 0.0 
0.0 0.0 -2.819363061174e+01 
-4.903312126178e+01 -8.058830327905e-01 0.0 
-8.058830327905e-01 -1.287264602874e+02 0.0 
0.0 0.0 -5.292787446477e+01 
-1.306606183070e+02 1.804738589426e+00 0.0 
1.804738589426e+00 -3.062081093831e+02 0.0 
0.0 0.0 -1.306606183070e+02 
-1.324916549501e+02 -6.750317416407e-01 0.0 
-6.750317416407e-01 -3.237095050149e+02 0.0 
0.0 0.0 -1.364603479895e+02 
-1.315098730943e+02 1.491777610009e+00 0.0 
1.491777610009e+00 -3.081897038868e+02 0.0 
0.0 0.0 -1.315098730943e+02 
-1.420113176348e+02 -7.200373811056e-01 0.0 
-7.200373811056e-01 -3.429519221838e+02 0.0 
0.0 0.0 -1.450889719456e+02 
-1.518213345567e+02 -8.012726219613e-01 0.0 
-8.012726219613e-01 -3.621227857473e+02 0.0 
0.0 0.0 -1.537832360912e+02 
-6.817442786660e+01 7.104740404957e-01 0.0 
7.104740404957e-01 -1.779966884171e+02 0.0 
0.0 0.0 -7.345133488510e+01 
-1.320462205206e+02 2.171520795568e+00 0.0 
2.171520795568e+00 -3.070716060058e+02 0.0 
0.0 0.0 -1.313353479579e+02 
-1.319469964582e+02 1.187548689439e+00 0.0 
1.187548689439e+00 -3.073719451687e+02 0.0 
0.0 0.0 -1.313956824880e+02 
-1.369033026410e+02 1.216378473033e+00 0.0 
1.216378473033e+00 -3.323835986420e+02 0.0 
0.0 0.0 -1.403860703849e+02 
-1.467499962342e+02 1.271438368220e+00 0.0 
1.271438368220e+00 -3.521085998274e+02 0.0 
0.0 0.0 -1.492575788185e+02 
-1.140804635233e+02 1.959927505200e+00 0.0 
1.959927505200e+00 -2.853059115027e+02 0.0 
0.0 0.0 -1.194159125078e+02 
-1.126135253637e+01 -6.136562936357e-01 0.0 
-6.136562936357e-01 -8.937514752054e+00 0.0 
0.0 0.0 -6.636136369408e+00 
-6.873594751373e+01 5.487698735206e-01 0.0 
5.487698735206e-01 -1.809884320951e+02 0.0 
0.0 0.0 -7.451731388266e+01 
-1.090129976680e+01 -4.747650358035e-01 0.0 
-4.747650358035e-01 -2.535772881986e+01 0.0 
0.0 0.0 -1.047770857600e+01 
-1.383849854893e+02 5.235372325583e+00 0.0 
5.235372325583e+00 -3.362710156467e+02 0.0 
0.0 0.0 -1.419968003408e+02 
-7.213891064218e+01 -6.026678820495e-01 0.0 
-6.026678820495e-01 -1.911482894738e+02 0.0 
0.0 0.0 -7.858616003481e+01 
-1.275736393591e+02 1.404241066391e+00 0.0 
1.404241066391e+00 -3.143833603297e+02 0.0 
0.0 0.0 -1.321870999066e+02 
-3.666376157103e+01 -9.197047017076e-01 0.0 
-9.197047017076e-01 -9.661251240845e+01 0.0 
0.0 0.0 -3.958288219384e+01 
-1.681633932134e+01 -1.353481210693e+00 0.0 
-1.353481210693e+00 -4.149505293588e+01 0.0 
0.0 0.0 -1.709341767717e+01 
-1.372749679697e+02 3.041128350497e+00 0.0 
3.041128350497e+00 -3.336336678159e+02 0.0 
0.0 0.0 -1.408725907357e+02 
-7.695947650634e+01 8.615363967748e-01 0.0 
8.615363967748e-01 -2.004523336062e+02 0.0 
0.0 0.0 -8.282354303375e+01 
-6.011705044780e+01 -8.975292901158e-01 0.0 
-8.975292901158e-01 -1.584156390574e+02 0.0 
0.0 0.0 -6.515980685156e+01 
-1.280299720608e+02 2.779043476782e+00 0.0 
2.779043476782e+00 -3.148891965174e+02 0.0 
0.0 0.0 -1.324757505735e+02 
-1.151117228650e+02 -1.667932458364e-02 0.0 
-1.667932458364e-02 -2.636115994577e+02 0.0 
0.0 0.0 -1.132169966968e+02 
-6.048608331097e+01 6.651082376243e-01 0.0 
6.651082376243e-01 -1.585315298139e+02 0.0 
0.0 0.0 -6.530528393745e+01 
-1.155929175065e+02 7.015903209891e+00 0.0 
7.015903209891e+00 -2.909980330402e+02 0.0 
0.0 0.0 -1.215772851640e+02 
-1.010761383567e+02 1.941790568756e+00 0.0 
1.941790568756e+00 -2.604952087952e+02 0.0 
0.0 0.0 -1.080714041456e+02 
-1.135408610114e+02 5.578108863533e-01 0.0 
5.578108863533e-01 -2.847676952815e+02 0.0 
0.0 0.0 -1.190925668878e+02 
-1.177885941440e+02 3.690031739030e-01 0.0 
3.690031739030e-01 -2.935498818071e+02 0.0 
0.0 0.0 -1.230015427853e+02 
-5.174502119381e+01 8.270066656516e+00 0.0 
8.270066656516e+00 -1.470736724198e+02 0.0 
0.0 0.0 -5.924560808407e+01 
-6.262872690149e+01 8.661615655565e+00 0.0 
8.661615655565e+00 -1.189308738203e+02 0.0 
0.0 0.0 -5.406788021653e+01 
-7.012751755727e+01 1.475029264290e+01 0.0 
1.475029264290e+01 -1.660345896691e+02 0.0 
0.0 0.0 -7.044863216791e+01 
-1.051164767983e+02 9.682827127196e-01 0.0 
9.682827127196e-01 -2.675817055816e+02 0.0 
0.0 0.0 -1.114094547140e+02 
-1.323079505298e+02 2.488810542517e+00 0.0 
2.488810542517e+00 -3.235376806665e+02 0.0 
0.0 0.0 -1.363536893589e+02 
-1.220867907387e+02 4.855088596518e-02 0.0 
4.855088596518e-02 -3.024432040559e+02 0.0 
0.0 0.0 -1.269589984384e+02 
-3.682951710302e+01 -2.155223913742e+00 0.0 
-2.155223913742e+00 -9.993291431184e+01 0.0 
0.0 0.0 -4.062872942446e+01 
-1.150135078004e+02 4.891574328327e-01 0.0 
4.891574328327e-01 -2.625145983012e+02 0.0 
0.0 0.0 -1.128584318305e+02 
-1.069869527851e+02 3.349108838917e-01 0.0 
3.349108838917e-01 -2.424057516328e+02 0.0 
0.0 0.0 -1.044178113254e+02 
-7.066918981142e+01 -6.324055323630e-01 0.0 
-6.324055323630e-01 -1.520328356964e+02 0.0 
0.0 0.0 -6.641060765235e+01 
-1.097081581725e+02 1.558616405295e+00 0.0 
1.558616405295e+00 -2.780280170182e+02 0.0 
0.0 0.0 -1.159208525572e+02 
-1.093332368298e+02 7.814947757666e-01 0.0 
7.814947757666e-01 -2.762107603805e+02 0.0 
0.0 0.0 -1.152631991631e+02 
-1.155842098611e+02 1.718401231808e+00 0.0 
1.718401231808e+00 -2.645110156802e+02 0.0 
0.0 0.0 -1.136285676624e+02 
-1.111730791134e+02 2.724993625317e-01 0.0 
2.724993625317e-01 -2.532027663199e+02 0.0 
0.0 0.0 -1.089127536300e+02 
-9.793064941357e+01 3.388694086415e+00 0.0 
3.388694086415e+00 -2.523934269534e+02 0.0 
0.0 0.0 -1.046972229101e+02 
-1.416990915846e+02 2.641074306826e+00 0.0 
2.641074306826e+00 -3.421794899862e+02 0.0 
0.0 0.0 -1.447635744713e+02 
-1.062783792629e+02 1.499917120523e+00 0.0 
1.499917120523e+00 -2.386600237000e+02 0.0 
0.0 0.0 -1.030815208889e+02 
-1.223766006547e+02 1.400165565213e+00 0.0 
1.400165565213e+00 -3.025655913894e+02 0.0 
0.0 0.0 -1.270826576132e+02 
-1.434305804204e+02 5.006211974171e+00 0.0 
5.006211974171e+00 -3.459717688032e+02 0.0 
0.0 0.0 -1.464207047671e+02 
-1.153822645026e+02 2.315344845154e+00 0.0 
2.315344845154e+00 -2.631038889218e+02 0.0 
0.0 0.0 -1.131458460273e+02 
-9.580290867855e+01 1.948537497472e+00 0.0 
1.948537497472e+00 -2.122417499289e+02 0.0 
0.0 0.0 -9.201339758223e+01 
-1.110948901644e+02 5.998191074580e+00 0.0 
5.998191074580e+00 -2.816938309476e+02 0.0 
0.0 0.0 -1.174366163336e+02 
-3.771311511291e+01 -1.540480848127e+00 0.0 
-1.540480848127e+00 -9.953602333743e+01 0.0 
0.0 0.0 -4.077474153510e+01 
-3.402505229955e+01 -2.121517753573e+00 0.0 
-2.121517753573e+00 -9.208845936001e+01 0.0 
0.0 0.0 -3.743405349787e+01 
-1.981830710669e+01 -8.229227385958e-01 0.0 
-8.229227385958e-01 -4.803871128488e+01 0.0 
0.0 0.0 -1.995710551747e+01 
-1.698869906295e+01 -1.379662766170e+00 0.0 
-1.379662766170e+00 -2.562513930293e+01 0.0 
0.0 0.0 -1.238415150977e+01 
-1.116732859173e+02 1.910161464960e+00 0.0 
1.910161464960e+00 -2.536439781984e+02 0.0 
0.0 0.0 -1.091951792347e+02 
-1.363585915238e+02 6.648860378818e-01 0.0 
6.648860378818e-01 -3.315760585923e+02 0.0 
0.0 0.0 -1.399803950348e+02 
-1.599430947515e+01 -1.372333329721e+00 0.0 
-1.372333329721e+00 -2.525712434568e+01 0.0 
0.0 0.0 -1.197543014625e+01 
-1.200459050411e+02 9.581922601235e+00 0.0 
9.581922601235e+00 -2.649414411976e+02 0.0 
0.0 0.0 -1.150962038716e+02 
-7.487400637404e+01 -3.822815708019e-01 0.0 
-3.822815708019e-01 -1.610811068499e+02 0.0 
0.0 0.0 -7.038653396718e+01 
-1.238235615790e+02 3.098376796830e+00 0.0 
3.098376796830e+00 -3.063681469617e+02 0.0 
0.0 0.0 -1.286575125622e+02 
-1.268932465496e+02 5.194679113604e-01 0.0 
5.194679113604e-01 -3.125047954719e+02 0.0 
0.0 0.0 -1.314194126065e+02 
-5.021497128001e+01 -6.631007952630e-01 0.0 
-6.631007952630e-01 -1.404423082996e+02 0.0 
0.0 0.0 -5.679718387389e+01 
-1.272034610933e+02 1.945287790340e+00 0.0 
1.945287790340e+00 -3.129299787463e+02 0.0 
0.0 0.0 -1.316400319519e+02 
-7.114271787363e+01 1.426898151714e+00 0.0 
1.426898151714e+00 -1.521704082831e+02 0.0 
0.0 0.0 -6.659393784703e+01 
-1.061779480841e+02 1.218312055690e+01 0.0 
1.218312055690e+01 -2.637652956264e+02 0.0 
0.0 0.0 -1.105829731131e+02 
-1.479032001648e+02 2.980449275209e+00 0.0 
2.980449275209e+00 -3.547351583847e+02 0.0 
0.0 0.0 -1.503915075649e+02 
-3.648678753871e+01 -9.740429904260e-01 0.0 
-9.740429904260e-01 -9.619371396391e+01 0.0 
0.0 0.0 -3.940415045079e+01 
-1.433348419794e+02 6.047031708863e+00 0.0 
6.047031708863e+00 -3.463197410927e+02 0.0 
0.0 0.0 -1.464963749216e+02 
-9.992156255050e+01 1.786642063233e+00 0.0 
1.786642063233e+00 -2.231408733448e+02 0.0 
0.0 0.0 -9.651873076861e+01 
-4.094400221359e+01 -1.379804036523e+00 0.0 
-1.379804036523e+00 -1.080686440289e+02 0.0 
0.0 0.0 -4.430379387274e+01 
-4.167807418864e+01 -8.334265844674e-01 0.0 
-8.334265844674e-01 -1.119581254947e+02 0.0 
0.0 0.0 -4.569085990500e+01 
-8.746444419079e+01 -5.114421506391e-01 0.0 
-5.114421506391e-01 -2.256907497713e+02 0.0 
0.0 0.0 -9.354655818861e+01 
-8.673711542141e+01 2.627837807897e-01 0.0 
2.627837807897e-01 -1.900938918899e+02 0.0 
0.0 0.0 -8.264930219339e+01 
-5.684295290985e+01 -1.340588076074e+00 0.0 
-1.340588076074e+00 -1.521568781226e+02 0.0 
0.0 0.0 -6.229994930975e+01 
-1.039861987556e+02 1.729463962268e+00 0.0 
1.729463962268e+00 -2.339357734699e+02 0.0 
0.0 0.0 -1.009765916676e+02 
-9.185148079832e+01 1.708091191637e+00 0.0 
1.708091191637e+00 -2.028007578390e+02 0.0 
0.0 0.0 -8.799567159120e+01 
-8.402981073614e+01 -1.772098952052e-01 0.0 
-1.772098952052e-01 -2.190988945212e+02 0.0 
0.0 0.0 -9.053861157721e+01 
-1.180451701259e+02 1.706232304554e+00 0.0 
1.706232304554e+00 -2.937957091500e+02 0.0 
0.0 0.0 -1.231522637828e+02 
-1.230538993742e+02 2.252709437946e+00 0.0 
2.252709437946e+00 -3.044492353880e+02 0.0 
0.0 0.0 -1.278509404287e+02 
-9.910419458089e+01 8.168257424864e-02 0.0 
8.168257424864e-02 -2.224469952149e+02 0.0 
0.0 0.0 -9.606535693875e+01 
-3.199952112716e+01 -5.361524524682e-01 0.0 
-5.361524524682e-01 -8.331748502769e+01 0.0 
0.0 0.0 -3.419510184645e+01 
-7.981325721789e+01 -4.748617230565e-01 0.0 
-4.748617230565e-01 -2.084416234860e+02 0.0 
0.0 0.0 -8.607646421118e+01 
-1.236195141790e+02 1.255872108482e+01 0.0 
1.255872108482e+01 -2.972270569350e+02 0.0 
0.0 0.0 -1.258539713342e+02 
-1.036645756992e+02 2.190529308023e+00 0.0 
2.190529308023e+00 -2.321323337548e+02 0.0 
0.0 0.0 -1.003390728362e+02 
-7.172021728412e+01 -8.821436369777e-01 0.0 
-8.821436369777e-01 -1.886941287612e+02 0.0 
0.0 0.0 -7.772430381361e+01 
-1.021493725546e+02 3.244851637876e+00 0.0 
3.244851637876e+00 -2.612488953162e+02 0.0 
0.0 0.0 -1.086194803613e+02 
-1.389760325700e+02 6.556906407941e+00 0.0 
6.556906407941e+00 -3.376447473266e+02 0.0 
0.0 0.0 -1.425862339690e+02 
-9.521526661628e+01 2.819139006084e-01 0.0 
2.819139006084e-01 -2.117134944523e+02 0.0 
0.0 0.0 -9.167862832057e+01 
-2.014816589204e+01 5.770877887833e-01 0.0 
5.770877887833e-01 -4.391093458239e+01 0.0 
0.0 0.0 -1.881773014233e+01 
-1.895230250047e+01 -5.582352520671e-01 0.0 
-5.582352520671e-01 -4.670325893965e+01 0.0 
0.0 0.0 -1.929666843204e+01 
-3.070357563680e+01 3.921511832541e+00 0.0 
3.921511832541e+00 -8.801802227985e+01 0.0 
0.0 0.0 -3.521647937499e+01 
-1.319279963851e+02 1.035803017739e+00 0.0 
1.035803017739e+00 -3.230624146884e+02 0.0 
0.0 0.0 -1.360971233221e+02 
-9.091402077514e+01 3.057746132324e-01 0.0 
3.057746132324e-01 -2.008896175321e+02 0.0 
0.0 0.0 -8.714109149218e+01 
-9.630484042559e+01 1.171264322583e+00 0.0 
1.171264322583e+00 -2.453426398024e+02 0.0 
0.0 0.0 -1.020942440684e+02 
-7.878701827633e+01 -2.870692983339e-02 0.0 
-2.870692983339e-02 -1.704754945280e+02 0.0 
0.0 0.0 -7.437875384129e+01 
-1.296702118213e+02 8.695619504671e+00 0.0 
8.695619504671e+00 -3.189975166385e+02 0.0 
0.0 0.0 -1.342003185379e+02 
-8.794034571894e+01 -1.915296134723e-01 0.0 
-1.915296134723e-01 -2.277244378561e+02 0.0 
0.0 0.0 -9.429943507252e+01 
-1.226573473493e+02 8.266056401925e-01 0.0 
8.266056401925e-01 -3.039683694105e+02 0.0 
0.0 0.0 -1.275877150279e+02 
-3.825264540029e+01 -1.184491913037e-01 0.0 
-1.184491913037e-01 -1.000940894931e+02 0.0 
0.0 0.0 -4.110402046801e+01 
-1.428087581488e+02 3.408554582084e+00 0.0 
3.408554582084e+00 -3.458003207923e+02 0.0 
0.0 0.0 -1.461827236824e+02 
-8.486874072101e+01 1.209916658466e+00 0.0 
1.209916658466e+00 -2.197671613961e+02 0.0 
0.0 0.0 -9.099077063513e+01 
-4.138553867766e+01 1.562713755122e-01 0.0 
1.562713755122e-01 -1.085977746794e+02 0.0 
0.0 0.0 -4.459499400711e+01 
-8.054274251569e+01 9.957901097643e-01 0.0 
9.957901097643e-01 -2.090945626278e+02 0.0 
0.0 0.0 -8.649119154304e+01 
-6.042884983699e+01 -1.163939145150e+00 0.0 
-1.163939145150e+00 -1.607642183510e+02 0.0 
0.0 0.0 -6.595792045638e+01 
-4.701173594211e+01 -4.873463182220e-01 0.0 
-4.873463182220e-01 -1.247563767570e+02 0.0 
0.0 0.0 -5.113043380972e+01 
-9.569617119499e+01 -3.162214344227e-01 0.0 
-3.162214344227e-01 -2.446737911139e+02 0.0 
0.0 0.0 -1.017109886927e+02 
-6.722829562951e+00 -3.989386617580e-01 0.0 
-3.989386617580e-01 -9.275621988955e+00 0.0 
0.0 0.0 -5.395204692295e+00 
-7.716415759157e+00 -4.322813184853e-01 0.0 
-4.322813184853e-01 -9.522061885658e+00 0.0 
0.0 0.0 -5.781551027450e+00 
-1.099669491352e+02 2.182718929955e+00 0.0 
2.182718929955e+00 -2.767875049765e+02 0.0 
0.0 0.0 -1.156263362335e+02 
-3.524066864846e+01 -3.891503505741e-01 0.0 
-3.891503505741e-01 -9.188160658973e+01 0.0 
0.0 0.0 -3.773668257146e+01 
-1.105476778150e+02 2.930690524831e+00 0.0 
2.930690524831e+00 -2.786856112770e+02 0.0 
0.0 0.0 -1.163699867276e+02 
-1.063579381165e+02 3.091282660051e+00 0.0 
3.091282660051e+00 -2.700195789082e+02 0.0 
0.0 0.0 -1.125132551074e+02 
-6.451617605489e+01 -7.503363640938e-01 0.0 
-7.503363640938e-01 -1.736929367734e+02 0.0 
0.0 0.0 -7.106273384847e+01 
-4.021403999686e+01 -1.191647782236e+00 0.0 
-1.191647782236e+00 -1.132301826988e+02 0.0 
0.0 0.0 -4.563326680871e+01 
-1.111534811995e+02 3.100264492352e+00 0.0 
3.100264492352e+00 -2.502270195043e+02 0.0 
0.0 0.0 -1.080141502111e+02 
-1.725438392294e+01 4.609618433334e+00 0.0 
4.609618433334e+00 -4.287199456548e+01 0.0 
0.0 0.0 -1.763791354653e+01 
-6.402263306125e+01 -9.726106492467e-01 0.0 
-9.726106492467e-01 -1.695574002632e+02 0.0 
0.0 0.0 -6.967400999734e+01 
-1.342182707092e+02 9.687511797037e+00 0.0 
9.687511797037e+00 -3.272948764727e+02 0.0 
0.0 0.0 -1.380539441546e+02 
-3.034491781435e+01 -1.583013018267e+00 0.0 
-1.583013018267e+00 -7.931439610343e+01 0.0 
0.0 0.0 -3.249779417533e+01 
-8.365398848178e+01 1.614655552747e+00 0.0 
1.614655552747e+00 -1.817529131851e+02 0.0 
0.0 0.0 -7.922207050005e+01 
-7.548073428059e+01 1.422008922418e+00 0.0 
1.422008922418e+00 -1.616842626990e+02 0.0 
0.0 0.0 -7.074949909386e+01 
-2.983140515837e+01 -1.016986405106e+00 0.0 
-1.016986405106e+00 -7.699562367044e+01 0.0 
0.0 0.0 -3.164810864865e+01 
-1.342250803123e+02 6.898724648999e+00 0.0 
6.898724648999e+00 -3.284674663503e+02 0.0 
0.0 0.0 -1.384077639988e+02 
-9.957242004251e+01 2.784898712477e+00 0.0 
2.784898712477e+00 -2.195475851133e+02 0.0 
0.0 0.0 -9.533600154675e+01 
-3.461325990005e+01 -1.670600547255e+00 0.0 
-1.670600547255e+00 -9.124832980087e+01 0.0 
0.0 0.0 -3.735847691028e+01 
-1.147538743690e+02 3.534230951227e+00 0.0 
3.534230951227e+00 -2.590263171284e+02 0.0 
0.0 0.0 -1.117340574492e+02 
-1.136291098018e+02 2.000027012365e+00 0.0 
2.000027012365e+00 -2.582069317755e+02 0.0 
0.0 0.0 -1.111508124732e+02 
-3.907085416362e+01 -3.841303588355e-01 0.0 
-3.841303588355e-01 -1.025697818352e+02 0.0 
0.0 0.0 -4.209219079966e+01 
-3.875907740505e+01 1.592654675619e+01 0.0 
1.592654675619e+01 -7.805945371722e+01 0.0 
0.0 0.0 -3.464555933668e+01 
-3.984549090615e+01 -7.235470217901e-01 0.0 
-7.235470217901e-01 -1.051487648297e+02 0.0 
0.0 0.0 -4.309827672074e+01 
-1.189538310634e+02 2.504348424374e+00 0.0 
2.504348424374e+00 -2.959028336434e+02 0.0 
0.0 0.0 -1.240569994120e+02 
-9.183272688089e+01 -2.435174169596e-01 0.0 
-2.435174169596e-01 -2.363039353919e+02 0.0 
0.0 0.0 -9.804099868185e+01 
-1.176018675232e+02 6.439490056961e+00 0.0 
6.439490056961e+00 -2.633757854456e+02 0.0 
0.0 0.0 -1.138932958906e+02 
-1.102163413779e+02 1.381628924348e+00 0.0 
1.381628924348e+00 -2.495393790953e+02 0.0 
0.0 0.0 -1.075267161420e+02 
-1.147472555602e+02 2.732088794446e+00 0.0 
2.732088794446e+00 -2.873215765325e+02 0.0 
0.0 0.0 -1.202206496278e+02 
-1.140323935196e+02 1.343840159447e+00 0.0 
1.343840159447e+00 -2.867142530409e+02 0.0 
0.0 0.0 -1.198239939681e+02 
-3.221097264548e+01 -2.173222820951e+00 0.0 
-2.173222820951e+00 -8.497479156966e+01 0.0 
0.0 0.0 -3.475572926454e+01 
-1.183520099366e+02 1.096079021472e+00 0.0 
1.096079021472e+00 -2.953390842803e+02 0.0 
0.0 0.0 -1.237073282651e+02 
-9.855068628234e+01 1.069504180711e+00 0.0 
1.069504180711e+00 -2.188259773071e+02 0.0 
0.0 0.0 -9.481299907682e+01 
-9.244608250140e+01 1.152608062314e+00 0.0 
1.152608062314e+00 -2.368735526694e+02 0.0 
0.0 0.0 -9.839589055125e+01 
-9.172794843771e+01 1.963367011975e+00 0.0 
1.963367011975e+00 -2.015121362683e+02 0.0 
0.0 0.0 -8.757202541181e+01 
-1.034979499326e+02 2.727204211963e+00 0.0 
2.727204211963e+00 -2.303362270143e+02 0.0 
0.0 0.0 -9.975025308410e+01 
-7.194116197373e+01 1.015446697368e+01 0.0 
1.015446697368e+01 -1.896928506126e+02 0.0 
0.0 0.0 -7.809020377589e+01 
-1.065529174243e+02 9.195864924009e-01 0.0 
9.195864924009e-01 -2.405105707740e+02 0.0 
0.0 0.0 -1.037190464595e+02 
-7.584096558502e+01 -7.646665523632e-01 0.0 
-7.646665523632e-01 -1.985764455367e+02 0.0 
0.0 0.0 -8.192522333651e+01 
-8.860246660182e+01 1.224032112395e+00 0.0 
1.224032112395e+00 -2.283236495575e+02 0.0 
0.0 0.0 -9.467783484781e+01 
-5.653357495535e+01 -1.426379949153e+00 0.0 
-1.426379949153e+00 -1.501510106337e+02 0.0 
0.0 0.0 -6.160537567672e+01 
-5.850342467169e+01 2.760826701239e-01 0.0 
2.760826701239e-01 -1.574003999432e+02 0.0 
0.0 0.0 -6.437114738447e+01 
-9.472502506681e+01 6.472987644415e-01 0.0 
6.472987644415e-01 -2.098346637047e+02 0.0 
0.0 0.0 -9.096790663144e+01 
-8.131565932875e+01 2.991576355271e+00 0.0 
2.991576355271e+00 -2.155998393705e+02 0.0 
0.0 0.0 -8.867464960978e+01 
-4.309237206540e+01 -4.923056558831e-01 0.0 
-4.923056558831e-01 -1.137184393849e+02 0.0 
0.0 0.0 -4.664324343509e+01 
-2.304599707817e+01 -1.051040941801e+00 0.0 
-1.051040941801e+00 -5.752555795124e+01 0.0 
0.0 0.0 -2.377146650882e+01 
-9.567605942502e+01 2.332989966129e+00 0.0 
2.332989966129e+00 -2.105210620673e+02 0.0 
0.0 0.0 -9.145913644770e+01 
-4.229629857806e+01 -1.891033063478e+00 0.0 
-1.891033063478e+00 -1.130708123838e+02 0.0 
0.0 0.0 -4.621013328855e+01 
-1.431293597639e+02 4.727826794330e+00 0.0 
4.727826794330e+00 -3.460430653917e+02 0.0 
0.0 0.0 -1.463517275467e+02 
-9.884717506626e+01 6.097393428630e-01 0.0 
6.097393428630e-01 -2.206615846700e+02 0.0 
0.0 0.0 -9.545262792089e+01 
-1.231966667405e+02 1.703505540841e+00 0.0 
1.703505540841e+00 -3.057992742818e+02 0.0 
0.0 0.0 -1.282987823067e+02 
-1.478336036151e+02 1.176170161124e+01 0.0 
1.176170161124e+01 -3.508096964478e+02 0.0 
0.0 0.0 -1.491929900189e+02 
-7.256513283510e+01 7.428046991668e-01 0.0 
7.428046991668e-01 -1.895375094771e+02 0.0 
0.0 0.0 -7.823079269367e+01 
-3.842444492864e+01 -1.855487858337e+00 0.0 
-1.855487858337e+00 -1.019706535585e+02 0.0 
0.0 0.0 -4.171852954614e+01 
-2.543628152176e+01 -2.193783562546e+00 0.0 
-2.193783562546e+00 -6.521738130405e+01 0.0 
0.0 0.0 -2.679609884774e+01 
-1.152158944200e+02 3.590675110671e+00 0.0 
3.590675110671e+00 -2.890047961026e+02 0.0 
0.0 0.0 -1.208662071568e+02 
-8.717424865368e+01 -1.657973357397e-02 0.0 
-1.657973357397e-02 -1.920244969539e+02 0.0 
0.0 0.0 -8.335962368227e+01 
-1.916107867454e+01 -1.876234584526e+00 0.0 
-1.876234584526e+00 -4.632752101785e+01 0.0 
0.0 0.0 -1.924657990772e+01 
-5.788196312380e+01 3.703598388527e-02 0.0 
3.703598388527e-02 -1.529001749429e+02 0.0 
0.0 0.0 -6.283464142001e+01 
-3.440250396846e+01 2.485801833964e-02 0.0 
2.485801833964e-02 -8.927516526361e+01 0.0 
0.0 0.0 -3.670330076962e+01 
-8.769855720353e+01 1.915500893194e+00 0.0 
1.915500893194e+00 -1.907769957381e+02 0.0 
0.0 0.0 -8.314266588248e+01 
-6.154515309081e+01 2.741307922335e-01 0.0 
2.741307922335e-01 -1.615524362186e+02 0.0 
0.0 0.0 -6.652927679281e+01 
-1.053970900224e+02 1.760018872602e+00 0.0 
1.760018872602e+00 -2.693106466468e+02 0.0 
0.0 0.0 -1.120123210008e+02 
-5.700518201662e+01 1.888332715208e-01 0.0 
1.888332715208e-01 -1.505931088428e+02 0.0 
0.0 0.0 -6.187948725782e+01 
-1.076639686840e+02 2.100464119965e+00 0.0 
2.100464119965e+00 -2.430231097060e+02 0.0 
0.0 0.0 -1.048061235170e+02 
-4.949925247540e+01 -1.668762995914e+00 0.0 
-1.668762995914e+00 -1.326771438202e+02 0.0 
0.0 0.0 -5.425291888868e+01 
-1.154864813971e+02 4.574403605313e+00 0.0 
4.574403605313e+00 -2.902540055362e+02 0.0 
0.0 0.0 -1.213221460800e+02 
-3.517466272435e+01 -1.145469191634e+00 0.0 
-1.145469191634e+00 -9.279436303556e+01 0.0 
0.0 0.0 -3.799070772797e+01 
-1.108979003164e+02 3.798911842248e+00 0.0 
3.798911842248e+00 -2.802069213748e+02 0.0 
0.0 0.0 -1.169314465074e+02 
-8.437227690636e+01 8.525913411390e-01 0.0 
8.525913411390e-01 -2.181020372437e+02 0.0 
0.0 0.0 -9.034229424503e+01 
-1.187675695243e+02 1.977797710078e+00 0.0 
1.977797710078e+00 -2.971024994916e+02 0.0 
0.0 0.0 -1.243610207048e+02 
-4.861512275240e+01 4.068331375118e+00 0.0 
4.068331375118e+00 -1.420214416211e+02 0.0 
0.0 0.0 -5.679096931204e+01 
-3.359837402237e+01 -1.452545896293e+00 0.0 
-1.452545896293e+00 -8.840469705967e+01 0.0 
0.0 0.0 -3.620092132461e+01 
-7.984188580603e+01 1.353767974972e+00 0.0 
1.353767974972e+00 -1.727364559257e+02 0.0 
0.0 0.0 -7.537350251951e+01 
-1.015447017469e+02 8.074150706592e+00 0.0 
8.074150706592e+00 -2.608649251548e+02 0.0 
0.0 0.0 -1.083228880705e+02 
-6.454466158540e+01 1.239277012050e+01 0.0 
1.239277012050e+01 -1.397979037778e+02 0.0 
0.0 0.0 -6.090276960897e+01 
-8.777535072876e+01 1.684054099799e+00 0.0 
1.684054099799e+00 -1.923614322044e+02 0.0 
0.0 0.0 -8.364103487996e+01 
-3.847834677835e+01 -8.493039320164e-01 0.0 
-8.493039320164e-01 -1.034848490101e+02 0.0 
0.0 0.0 -4.218895873653e+01 
-9.061021178408e+01 1.093687527430e+00 0.0 
1.093687527430e+00 -1.974287030824e+02 0.0 
0.0 0.0 -8.601167445996e+01 
-3.068505721185e+01 -1.087259019439e-01 0.0 
-1.087259019439e-01 -8.025752204646e+01 0.0 
0.0 0.0 -3.288277377749e+01 
-1.340085829623e+02 5.675534004236e+00 0.0 
5.675534004236e+00 -3.279679545077e+02 0.0 
0.0 0.0 -1.381929612410e+02 
-1.059468165290e+02 9.172595614940e+00 0.0 
9.172595614940e+00 -2.693446303553e+02 0.0 
0.0 0.0 -1.121874340653e+02 
-1.107784530684e+02 1.296925123603e+01 0.0 
1.296925123603e+01 -2.712580635865e+02 0.0 
0.0 0.0 -1.142109549965e+02 
-1.186847639911e+02 3.453480918033e+00 0.0 
3.453480918033e+00 -2.704637900710e+02 0.0 
0.0 0.0 -1.163445662186e+02 
-8.948396830981e+01 3.701000425590e+00 0.0 
3.701000425590e+00 -2.344217750156e+02 0.0 
0.0 0.0 -9.677172299761e+01 
-3.143877050919e+01 -1.913844593212e+00 0.0 
-1.913844593212e+00 -8.265121854235e+01 0.0 
0.0 0.0 -3.382699671546e+01 
-1.022560306501e+02 4.182858288317e+00 0.0 
4.182858288317e+00 -2.623508237218e+02 0.0 
0.0 0.0 -1.089820563116e+02 
-1.381659793832e+02 5.156551272226e+00 0.0 
5.156551272226e+00 -3.369909432308e+02 0.0 
0.0 0.0 -1.421470767842e+02 
-4.839775158884e+01 2.398086108182e-01 0.0 
2.398086108182e-01 -1.329872942694e+02 0.0 
0.0 0.0 -5.401551375748e+01 
-1.195285135745e+02 3.364598715883e+00 0.0 
3.364598715883e+00 -2.977277242260e+02 0.0 
0.0 0.0 -1.247768713401e+02 
-9.965201426233e+01 2.300981542927e+00 0.0 
2.300981542927e+00 -2.212871001004e+02 0.0 
0.0 0.0 -9.588173430882e+01 
-3.692017128227e+01 -1.019700095591e+00 0.0 
-1.019700095591e+00 -1.046285972594e+02 0.0 
0.0 0.0 -4.206463056249e+01 
-1.065795731640e+02 3.991435196523e+00 0.0 
3.991435196523e+00 -2.713274277647e+02 0.0 
0.0 0.0 -1.129721002786e+02 
-7.953084467589e+01 1.876753794821e+00 0.0 
1.876753794821e+00 -1.692682711990e+02 0.0 
0.0 0.0 -7.423973476247e+01 
-4.560640080583e+01 -1.568676559942e-02 0.0 
-1.568676559942e-02 -1.198078077061e+02 0.0 
0.0 0.0 -4.922426255358e+01 
-5.435366020874e+01 -1.625047160114e-01 0.0 
-1.625047160114e-01 -1.442988274995e+02 0.0 
0.0 0.0 -5.919574631246e+01 
-7.970011539702e+01 1.430943925050e+01 0.0 
1.430943925050e+01 -1.788920416501e+02 0.0 
0.0 0.0 -7.717764711414e+01 
-1.143334213814e+02 2.232011640781e+00 0.0 
2.232011640781e+00 -2.883314388760e+02 0.0 
0.0 0.0 -1.203994580772e+02 
-5.738803903035e+01 1.306512200047e+01 0.0 
1.306512200047e+01 -1.135203776021e+02 0.0 
0.0 0.0 -5.087252498973e+01 
-7.493405633368e+01 1.465601104111e+01 0.0 
1.465601104111e+01 -1.722927066166e+02 0.0 
0.0 0.0 -7.376802888507e+01 
-9.457917204306e+01 1.089954504399e+00 0.0 
1.089954504399e+00 -2.080949508101e+02 0.0 
0.0 0.0 -9.040223685595e+01 
-8.288698485273e+01 -6.843781266595e-02 0.0 
-6.843781266595e-02 -1.811469015868e+02 0.0 
0.0 0.0 -7.881016593187e+01 
-8.260073283902e+01 5.753539781054e-01 0.0 
5.753539781054e-01 -1.777359273488e+02 0.0 
0.0 0.0 -7.770099805635e+01 
-8.377746343604e+01 -3.732134904898e-01 0.0 
-3.732134904898e-01 -2.174682076543e+02 0.0 
0.0 0.0 -8.997370132710e+01 
-1.295847434585e+02 7.277160218532e+00 0.0 
7.277160218532e+00 -3.192612516439e+02 0.0 
0.0 0.0 -1.342537985307e+02 
-9.792967469613e+01 4.390814726348e+00 0.0 
4.390814726348e+00 -2.532672655972e+02 0.0 
0.0 0.0 -1.049590820880e+02 
-7.944474960382e+01 1.535332239602e+00 0.0 
1.535332239602e+00 -1.710114939385e+02 0.0 
0.0 0.0 -7.473687306270e+01 
-1.244816752189e+02 1.098467031269e+01 0.0 
1.098467031269e+01 -2.769863088704e+02 0.0 
0.0 0.0 -1.200403952268e+02 
-1.153831731215e+02 1.367433093197e+01 0.0 
1.367433093197e+01 -2.786296708618e+02 0.0 
0.0 0.0 -1.178038531950e+02 
-1.099097116504e+02 2.464998044915e+00 0.0 
2.464998044915e+00 -2.794940325662e+02 0.0 
0.0 0.0 -1.164211232650e+02 
-1.025567212452e+02 1.022947234389e+00 0.0 
1.022947234389e+00 -2.296503083750e+02 0.0 
0.0 0.0 -9.926210888605e+01 
-6.206091318502e+01 4.203456910763e-01 0.0 
4.203456910763e-01 -1.658426261661e+02 0.0 
0.0 0.0 -6.797106180535e+01 
-5.822289968799e+01 6.900931254910e-02 0.0 
6.900931254910e-02 -1.551332035392e+02 0.0 
0.0 0.0 -6.360683096817e+01 
-3.267264774014e+01 -8.228227694899e-01 0.0 
-8.228227694899e-01 -8.546788585319e+01 0.0 
0.0 0.0 -3.504216007800e+01 
-1.066400105580e+02 5.055527436701e+00 0.0 
5.055527436701e+00 -2.721206232291e+02 0.0 
0.0 0.0 -1.132281901361e+02 
-6.179945595741e+01 2.394824829083e-01 0.0 
2.394824829083e-01 -1.637607610141e+02 0.0 
0.0 0.0 -6.726806509144e+01 
-9.168899432837e+01 2.358307159875e+00 0.0 
2.358307159875e+00 -1.997357863188e+02 0.0 
0.0 0.0 -8.702743419414e+01 
-8.770397561308e+01 2.366290099700e+00 0.0 
2.366290099700e+00 -1.890309892453e+02 0.0 
0.0 0.0 -8.262048945751e+01 
-7.612714062971e+01 1.008482659959e+01 0.0 
1.008482659959e+01 -2.010430211292e+02 0.0 
0.0 0.0 -8.275104852768e+01 
-4.979494438341e+01 -1.627919655264e+00 0.0 
-1.627919655264e+00 -1.349828467832e+02 0.0 
0.0 0.0 -5.503333734999e+01 
-4.430797474262e+01 7.755877933428e+00 0.0 
7.755877933428e+00 -1.295180338442e+02 0.0 
0.0 0.0 -5.174780257606e+01 
-5.328858078571e+01 -1.495285970467e+00 0.0 
-1.495285970467e+00 -1.435518504450e+02 0.0 
0.0 0.0 -5.865212936921e+01 
-5.704306853435e+01 -1.212709808056e+00 0.0 
-1.212709808056e+00 -1.543501674567e+02 0.0 
0.0 0.0 -6.301797079733e+01 
-3.527323424438e+01 -2.037355969325e+00 0.0 
-2.037355969325e+00 -9.350330248234e+01 0.0 
0.0 0.0 -3.823296101802e+01 
-1.249095270156e+02 7.680549931183e+00 0.0 
7.680549931183e+00 -3.098599928428e+02 0.0 
0.0 0.0 -1.300308559575e+02 
-6.821917126857e+01 4.452244241383e-01 0.0 
4.452244241383e-01 -1.859317304178e+02 0.0 
0.0 0.0 -7.584527050590e+01 
-1.074102406760e+02 2.621536129727e+00 0.0 
2.621536129727e+00 -2.411617726518e+02 0.0 
0.0 0.0 -1.041716039983e+02 
-7.197045641456e+01 1.249761695896e+00 0.0 
1.249761695896e+00 -1.959976263419e+02 0.0 
0.0 0.0 -7.999042482693e+01 
-1.010932357518e+02 2.932451987805e+00 0.0 
2.932451987805e+00 -2.615848403346e+02 0.0 
0.0 0.0 -1.084034228259e+02 
-8.408840160157e+01 1.698976327447e+00 0.0 
1.698976327447e+00 -2.237274116811e+02 0.0 
0.0 0.0 -9.194474398481e+01 
-7.349472325110e+01 1.427120335088e+01 0.0 
1.427120335088e+01 -1.786877165173e+02 0.0 
0.0 0.0 -7.525473193051e+01 
-3.592793090639e+01 -6.699340034320e-01 0.0 
-6.699340034320e-01 -9.410382019507e+01 0.0 
0.0 0.0 -3.860952533044e+01 
-1.333061565581e+02 5.585790598646e+00 0.0 
5.585790598646e+00 -3.277322768858e+02 0.0 
0.0 0.0 -1.379115300332e+02 
-1.395325158833e+02 8.025431206797e+00 0.0 
8.025431206797e+00 -3.389952691708e+02 0.0 
0.0 0.0 -1.431583355162e+02 
-1.000825523604e+02 1.169302172132e+01 0.0 
1.169302172132e+01 -2.245699721485e+02 0.0 
0.0 0.0 -9.699575735266e+01 
-6.075190422946e+01 -8.173858494411e-01 0.0 
-8.173858494411e-01 -1.650144208636e+02 0.0 
0.0 0.0 -6.732989752791e+01 
-9.245343783039e+01 2.323927389544e+00 0.0 
2.323927389544e+00 -2.426578393127e+02 0.0 
0.0 0.0 -1.001333831429e+02 
-9.064871476798e+01 6.219388416525e-01 0.0 
6.219388416525e-01 -1.990048087598e+02 0.0 
0.0 0.0 -8.649605705834e+01 
-6.572385965171e+01 5.421713993787e-01 0.0 
5.421713993787e-01 -1.744883943973e+02 0.0 
0.0 0.0 -7.166367621471e+01 
-5.892829784402e+01 1.533553350315e+01 0.0 
1.533553350315e+01 -1.340499064830e+02 0.0 
0.0 0.0 -5.749346129810e+01 
-5.032900388462e+01 -2.677545747639e-01 0.0 
-2.677545747639e-01 -1.333384717692e+02 0.0 
0.0 0.0 -5.470024269615e+01 
-4.180070845690e+01 -3.932201450352e-01 0.0 
-3.932201450352e-01 -1.140788429712e+02 0.0 
0.0 0.0 -4.636386542842e+01 
-6.586445055636e+01 8.984072964861e-01 0.0 
8.984072964861e-01 -1.763986803697e+02 0.0 
0.0 0.0 -7.227893927782e+01 
-4.559955435628e+01 -1.681583855974e+00 0.0 
-1.681583855974e+00 -1.216477076386e+02 0.0 
0.0 0.0 -4.977417859847e+01 
-4.232368330137e+01 -1.966346945569e-01 0.0 
-1.966346945569e-01 -1.111859615547e+02 0.0 
0.0 0.0 -4.565289345681e+01 
-8.542237357212e+01 2.870294502592e+00 0.0 
2.870294502592e+00 -2.245498473993e+02 0.0 
0.0 0.0 -9.259166629144e+01 
-1.054973384338e+02 2.692404499170e+00 0.0 
2.692404499170e+00 -2.705836101575e+02 0.0 
0.0 0.0 -1.124242845774e+02 
-1.191025949707e+02 1.214164364832e+01 0.0 
1.214164364832e+01 -2.711702912309e+02 0.0 
0.0 0.0 -1.166818658605e+02 
-6.590165584317e+00 -5.551601520571e-01 0.0 
-5.551601520571e-01 -9.050908338956e+00 0.0 
0.0 0.0 -4.292322176982e+00 
-6.761160148817e+01 2.901585135783e+00 0.0 
2.901585135783e+00 -1.875419408878e+02 0.0 
0.0 0.0 -7.614606271279e+01 
-6.796114761793e+01 1.489864106374e+00 0.0 
1.489864106374e+00 -1.871149230460e+02 0.0 
0.0 0.0 -7.612282119919e+01 
-6.446204575476e+01 -2.579134809193e-01 0.0 
-2.579134809193e-01 -1.755646438653e+02 0.0 
0.0 0.0 -7.160800688601e+01 
-8.661866327957e+01 6.104912471555e-01 0.0 
6.104912471555e-01 -1.882807595340e+02 0.0 
0.0 0.0 -8.206982684408e+01 
-7.600311763082e+01 1.063706344040e+00 0.0 
1.063706344040e+00 -2.048029800392e+02 0.0 
0.0 0.0 -8.384182930102e+01 
-5.297078170058e+01 -1.513644545561e+00 0.0 
-1.513644545561e+00 -1.413229114202e+02 0.0 
0.0 0.0 -5.788810793625e+01 
-6.966334957869e+01 1.514968298928e+00 0.0 
1.514968298928e+00 -1.867785388901e+02 0.0 
0.0 0.0 -7.653256654063e+01 
-1.028262052927e+02 5.169607201400e-01 0.0 
5.169607201400e-01 -2.314976317606e+02 0.0 
0.0 0.0 -9.989715111599e+01 
-5.360776971708e+01 -5.220101530486e-02 0.0 
-5.220101530486e-02 -1.419175409685e+02 0.0 
0.0 0.0 -5.825759320566e+01 
-2.166695829080e+01 -1.833826208322e+00 0.0 
-1.833826208322e+00 -5.438622326719e+01 0.0 
0.0 0.0 -2.241595446740e+01 
-2.844666668056e+01 -2.003662728759e+00 0.0 
-2.003662728759e+00 -7.413803722599e+01 0.0 
0.0 0.0 -3.037541117197e+01 
-4.357583304199e+01 -1.282276364451e+00 0.0 
-1.282276364451e+00 -1.217688253662e+02 0.0 
0.0 0.0 -4.920339752246e+01 
-5.347240965325e+01 -1.290671496058e+00 0.0 
-1.290671496058e+00 -1.458483543510e+02 0.0 
0.0 0.0 -5.939622920128e+01 
-7.166697555098e+01 2.481103947151e+00 0.0 
2.481103947151e+00 -1.966865977358e+02 0.0 
0.0 0.0 -8.010607198602e+01 
-7.344456624817e+01 2.269695450799e+00 0.0 
2.269695450799e+00 -1.968608282520e+02 0.0 
0.0 0.0 -8.069161835005e+01 
-3.198581818486e+01 -1.110480578842e+00 0.0 
-1.110480578842e+00 -8.387388525695e+01 0.0 
0.0 0.0 -3.435791103254e+01 
-2.850779810866e+01 -6.309985411970e-01 0.0 
-6.309985411970e-01 -7.445268890492e+01 0.0 
0.0 0.0 -3.048814610407e+01 
-8.356383407411e+01 2.906651351807e+00 0.0 
2.906651351807e+00 -1.763238877406e+02 0.0 
0.0 0.0 -7.756631654441e+01 
-4.635531471251e+01 -2.314900231225e-01 0.0 
-2.314900231225e-01 -1.222844413909e+02 0.0 
0.0 0.0 -5.019192683101e+01 
-1.191843808855e+02 5.373663520909e+00 0.0 
5.373663520909e+00 -2.997721496892e+02 0.0 
0.0 0.0 -1.252869591724e+02 
-1.153952131684e+02 1.223586395467e+01 0.0 
1.223586395467e+01 -2.636067463387e+02 0.0 
0.0 0.0 -1.133005878521e+02 
-8.991294191843e+01 6.463717149537e+00 0.0 
6.463717149537e+00 -1.850800109366e+02 0.0 
0.0 0.0 -8.209788585652e+01 
-1.099317243777e+02 2.771502235766e+00 0.0 
2.771502235766e+00 -2.462847318635e+02 0.0 
0.0 0.0 -1.064649368723e+02 
-1.227153714529e+02 1.196093043422e+01 0.0 
1.196093043422e+01 -2.789596911315e+02 0.0 
0.0 0.0 -1.201025187753e+02 
-7.210403268705e+01 1.096064113443e+01 0.0 
1.096064113443e+01 -1.899347987923e+02 0.0 
0.0 0.0 -7.821164944382e+01 
-1.077423893682e+02 1.190306785911e+01 0.0 
1.190306785911e+01 -2.440715530376e+02 0.0 
0.0 0.0 -1.051441827217e+02 
-3.550069704299e+01 -9.419066687314e-01 0.0 
-9.419066687314e-01 -9.500591931281e+01 0.0 
0.0 0.0 -3.875198490674e+01 
-7.351124464864e+01 1.518813226555e+00 0.0 
1.518813226555e+00 -1.954645436260e+02 0.0 
0.0 0.0 -8.029273648240e+01 
-6.482142432632e+01 1.195761264229e+01 0.0 
1.195761264229e+01 -1.666355479624e+02 0.0 
0.0 0.0 -6.903709168662e+01 
-3.637939282838e+01 4.750275227688e-01 0.0 
4.750275227688e-01 -1.062849957238e+02 0.0 
0.0 0.0 -4.239931656564e+01 
-2.957341095778e+01 -1.274990029277e+00 0.0 
-1.274990029277e+00 -7.590931593547e+01 0.0 
0.0 0.0 -3.124481806797e+01 
-6.069926746400e+01 -1.103800467959e+00 0.0 
-1.103800467959e+00 -1.630005627363e+02 0.0 
0.0 0.0 -6.670994906009e+01 
-6.948187744426e+01 2.405371212935e+00 0.0 
2.405371212935e+00 -1.879836137791e+02 0.0 
0.0 0.0 -7.683964736700e+01 
-7.315186467267e+01 3.376119302370e+00 0.0 
3.376119302370e+00 -1.975203994000e+02 0.0 
0.0 0.0 -8.080167922181e+01 
-4.892875530966e+01 -1.445017747068e+00 0.0 
-1.445017747068e+00 -1.302391194166e+02 0.0 
0.0 0.0 -5.335036241789e+01 
-7.990565521909e+01 1.902931897112e+00 0.0 
1.902931897112e+00 -2.147639183640e+02 0.0 
0.0 0.0 -8.800087207494e+01 
-6.909956230706e+01 3.671932007165e+00 0.0 
3.671932007165e+00 -1.883614701020e+02 0.0 
0.0 0.0 -7.683830972273e+01 
-7.135261272530e+01 4.083383037699e+00 0.0 
4.083383037699e+00 -1.965558716876e+02 0.0 
0.0 0.0 -7.997254532387e+01 
-5.473866672852e+01 -1.038591585405e-01 0.0 
-1.038591585405e-01 -1.466379483196e+02 0.0 
0.0 0.0 -6.001298451444e+01 
-1.060032465142e+02 1.074210251968e+01 0.0 
1.074210251968e+01 -2.670404154279e+02 0.0 
0.0 0.0 -1.115130985826e+02 
-9.566317060018e+01 2.836699293203e+00 0.0 
2.836699293203e+00 -2.088451471966e+02 0.0 
0.0 0.0 -9.095249533903e+01 
-6.731117192414e+01 4.686572710563e+00 0.0 
4.686572710563e+00 -1.870834753157e+02 0.0 
0.0 0.0 -7.591839417196e+01 
-1.286595387272e+02 5.975573096908e+00 0.0 
5.975573096908e+00 -3.185867673683e+02 0.0 
0.0 0.0 -1.337738918286e+02 
-3.859498609470e+01 -3.641417540330e-01 0.0 
-3.641417540330e-01 -1.054794348230e+02 0.0 
0.0 0.0 -4.282232627531e+01 
-1.385806348805e+02 8.107174377806e+00 0.0 
8.107174377806e+00 -3.376152698970e+02 0.0 
0.0 0.0 -1.424587714333e+02 
-7.575589002579e+01 2.150019225407e+00 0.0 
2.150019225407e+00 -2.057120312187e+02 0.0 
0.0 0.0 -8.404037637335e+01 
-1.268636095150e+02 1.175603468088e+01 0.0 
1.175603468088e+01 -2.887152529278e+02 0.0 
0.0 0.0 -1.242736587328e+02 
-9.391542545686e+01 1.092209147291e+01 0.0 
1.092209147291e+01 -1.980875167277e+02 0.0 
0.0 0.0 -8.720088265537e+01 
-3.715986087065e+01 -1.789807662047e+00 0.0 
-1.789807662047e+00 -1.027194846475e+02 0.0 
0.0 0.0 -4.156380365545e+01 
-9.392836000783e+01 7.596270575543e+00 0.0 
7.596270575543e+00 -1.949853695315e+02 0.0 
0.0 0.0 -8.627411886179e+01 
-1.138199375843e+02 4.381868794745e+00 0.0 
4.381868794745e+00 -2.544629264480e+02 0.0 
0.0 0.0 -1.100848592097e+02 
-7.964209212432e+01 3.162808068025e+00 0.0 
3.162808068025e+00 -2.151936649093e+02 0.0 
0.0 0.0 -8.805072711009e+01 
-4.880833556202e+01 1.488526915222e+01 0.0 
1.488526915222e+01 -1.219790675809e+02 0.0 
0.0 0.0 -5.083622094287e+01 
-9.785353161431e+01 8.732507906862e+00 0.0 
8.732507906862e+00 -2.052052467734e+02 0.0 
0.0 0.0 -9.051763351632e+01 
-7.244076732565e+01 1.224737423379e+01 0.0 
1.224737423379e+01 -1.592761250304e+02 0.0 
0.0 0.0 -6.911506770680e+01 
-3.099393654655e+01 -2.180928816397e+00 0.0 
-2.180928816397e+00 -8.320399815247e+01 0.0 
0.0 0.0 -3.385938040971e+01 
-1.248748713281e+02 3.707711419145e+00 0.0 
3.707711419145e+00 -2.866804505240e+02 0.0 
0.0 0.0 -1.230665965556e+02 
-2.785118742907e+01 -2.336857669485e+00 0.0 
-2.336857669485e+00 -7.269591731584e+01 0.0 
0.0 0.0 -2.976413142347e+01 
-1.334058369371e+02 1.381484619014e+01 0.0 
1.381484619014e+01 -3.202650083169e+02 0.0 
0.0 0.0 -1.357012535762e+02 
-1.140509904023e+02 1.232905138040e+00 0.0 
1.232905138040e+00 -2.602238125520e+02 0.0 
0.0 0.0 -1.118824408863e+02 
-1.104512576405e+02 1.024984666329e+01 0.0 
1.024984666329e+01 -2.776269365006e+02 0.0 
0.0 0.0 -1.160234582423e+02 
-8.255600392484e+01 1.472712997703e-01 0.0 
1.472712997703e-01 -1.791148349088e+02 0.0 
0.0 0.0 -7.810125165009e+01 
-1.073676018824e+02 3.910056696514e+00 0.0 
3.910056696514e+00 -2.379049279207e+02 0.0 
0.0 0.0 -1.031817589409e+02 
-7.272580763410e+01 4.836524083703e+00 0.0 
4.836524083703e+00 -1.973122719546e+02 0.0 
0.0 0.0 -8.061142387661e+01 
-8.444422032324e+01 1.048132309469e+01 0.0 
1.048132309469e+01 -2.192479540650e+02 0.0 
0.0 0.0 -9.070765231646e+01 
-1.174692053684e+02 3.265504711876e+00 0.0 
3.265504711876e+00 -2.661660511479e+02 0.0 
0.0 0.0 -1.146905769549e+02 
-1.144896204961e+02 3.246456134762e+00 0.0 
3.246456134762e+00 -2.895355481583e+02 0.0 
0.0 0.0 -1.208075505963e+02 
-9.968602627655e+01 3.372622746248e+00 0.0 
3.372622746248e+00 -2.180303348259e+02 0.0 
0.0 0.0 -9.491490833074e+01 
-1.050244318938e+02 6.474792067201e+00 0.0 
6.474792067201e+00 -2.702276597198e+02 0.0 
0.0 0.0 -1.121756274841e+02 
-3.403599565881e+01 -1.708559103316e+00 0.0 
-1.708559103316e+00 -9.421282086118e+01 0.0 
0.0 0.0 -3.807464495600e+01 
-1.036975152088e+02 4.001000485330e+00 0.0 
4.001000485330e+00 -2.272427236671e+02 0.0 
0.0 0.0 -9.888207166278e+01 
-1.383571714035e+02 1.540699359295e+01 0.0 
1.540699359295e+01 -3.199921567604e+02 0.0 
0.0 0.0 -1.371047984492e+02 
-1.387597386358e+02 6.505847567515e+00 0.0 
6.505847567515e+00 -3.381874812930e+02 0.0 
0.0 0.0 -1.426841659786e+02 
-7.214948650773e+01 3.428551395856e-01 0.0 
3.428551395856e-01 -1.946306754282e+02 0.0 
0.0 0.0 -7.963404858077e+01 
-8.353269132701e+01 1.961285377849e+00 0.0 
1.961285377849e+00 -1.797730528857e+02 0.0 
0.0 0.0 -7.859172326380e+01 
-7.841832698984e+01 9.624185789098e-02 0.0 
9.624185789098e-02 -1.685025829356e+02 0.0 
0.0 0.0 -7.367627297763e+01 
-7.720152280521e+01 3.163469996617e+00 0.0 
3.163469996617e+00 -2.065474502602e+02 0.0 
0.0 0.0 -8.472469191961e+01 
-1.099891348268e+02 3.520107471512e+00 0.0 
3.520107471512e+00 -2.805026583307e+02 0.0 
0.0 0.0 -1.167475379473e+02 
-1.145570700265e+02 4.413512890322e+00 0.0 
4.413512890322e+00 -2.902355844492e+02 0.0 
0.0 0.0 -1.210377963427e+02 
-2.581631370023e+01 -7.462076684340e-01 0.0 
-7.462076684340e-01 -6.570415716824e+01 0.0 
0.0 0.0 -2.705614126054e+01 
-3.730709686325e+01 7.113031620812e+00 0.0 
7.113031620812e+00 -1.120708604298e+02 0.0 
0.0 0.0 -4.441338718791e+01 
-7.122976231559e+01 5.989822203454e+00 0.0 
5.989822203454e+00 -1.955309095132e+02 0.0 
0.0 0.0 -7.962820154865e+01 
-6.863376468102e+01 5.346407522235e+00 0.0 
5.346407522235e+00 -1.878012797880e+02 0.0 
0.0 0.0 -7.653051334071e+01 
-7.104797043140e+01 1.300381053397e+01 0.0 
1.300381053397e+01 -1.660554247301e+02 0.0 
0.0 0.0 -7.073101854846e+01 
-1.221943431763e+02 4.771746227740e+00 0.0 
4.771746227740e+00 -2.773318373995e+02 0.0 
0.0 0.0 -1.194578541727e+02 
-1.181938774572e+02 7.730826939986e+00 0.0 
7.730826939986e+00 -2.638460249477e+02 0.0 
0.0 0.0 -1.142119707215e+02 
-1.148539537677e+02 2.880543542816e+00 0.0 
2.880543542816e+00 -2.607512287565e+02 0.0 
0.0 0.0 -1.122815547573e+02 
-6.198258089534e+01 1.170166126650e+01 0.0 
1.170166126650e+01 -1.213225885911e+02 0.0 
0.0 0.0 -5.459155084592e+01 
-1.064455359309e+02 3.707646248894e+00 0.0 
3.707646248894e+00 -2.345047935986e+02 0.0 
0.0 0.0 -1.018850988588e+02 
-1.110621250303e+02 4.810509619573e+00 0.0 
4.810509619573e+00 -2.812383594183e+02 0.0 
0.0 0.0 -1.172901453346e+02 
-1.174523963660e+02 2.403725589407e+00 0.0 
2.403725589407e+00 -2.677605961013e+02 0.0 
0.0 0.0 -1.151638977402e+02 
-9.999892293776e+01 4.071142115597e+00 0.0 
4.071142115597e+00 -2.166131626528e+02 0.0 
0.0 0.0 -9.458362567716e+01 
-7.740028757508e+01 2.197408264620e+00 0.0 
2.197408264620e+00 -2.056466354953e+02 0.0 
0.0 0.0 -8.451407692112e+01 
-6.723816024683e+01 6.781097044344e+00 0.0 
6.781097044344e+00 -1.855494374596e+02 0.0 
0.0 0.0 -7.543627931193e+01 
-1.023390242124e+02 2.206532584383e+00 0.0 
2.206532584383e+00 -2.263650620383e+02 0.0 
0.0 0.0 -9.821122587524e+01 
-1.148887220866e+02 4.422463970653e+00 0.0 
4.422463970653e+00 -2.578454943558e+02 0.0 
0.0 0.0 -1.114202649327e+02 
-1.023721708054e+02 1.550513251762e+00 0.0 
1.550513251762e+00 -2.279239252692e+02 0.0 
0.0 0.0 -9.868882882238e+01 
-9.846356143906e+01 1.607858139212e+00 0.0 
1.607858139212e+00 -2.172160287830e+02 0.0 
0.0 0.0 -9.430387706661e+01 
-1.285245063438e+02 4.630562318844e+00 0.0 
4.630562318844e+00 -3.182639302537e+02 0.0 
0.0 0.0 -1.336365309792e+02 
-1.289373617841e+02 1.397648934852e+01 0.0 
1.397648934852e+01 -3.092675907372e+02 0.0 
0.0 0.0 -1.310614857564e+02 
-1.238699511978e+02 4.990413676608e+00 0.0 
4.990413676608e+00 -3.090916162879e+02 0.0 
0.0 0.0 -1.294884702457e+02 
-9.675965500394e+01 2.123612588639e+00 0.0 
2.123612588639e+00 -2.516110682604e+02 0.0 
0.0 0.0 -1.041112169793e+02 
-5.667711873773e+01 3.929420671624e+00 0.0 
3.929420671624e+00 -1.070404173145e+02 0.0 
0.0 0.0 -4.871526081565e+01 
-1.149226575977e+02 1.124874585917e+01 0.0 
1.124874585917e+01 -2.855768881414e+02 0.0 
0.0 0.0 -1.197498637217e+02 
-9.929126247346e+01 3.884275169904e+00 0.0 
3.884275169904e+00 -2.139863576593e+02 0.0 
0.0 0.0 -9.358328603984e+01 
-4.167697309274e+01 -1.614653557146e+00 0.0 
-1.614653557146e+00 -1.106049172727e+02 0.0 
0.0 0.0 -4.528456710963e+01 
-7.234072088638e+01 6.673037985539e+00 0.0 
6.673037985539e+00 -1.961587945956e+02 0.0 
0.0 0.0 -8.014985464459e+01 
-8.347022485746e+01 5.890669002836e+00 0.0 
5.890669002836e+00 -2.234221637581e+02 0.0 
0.0 0.0 -9.166771658467e+01 
-9.295889224986e+01 1.086641946769e+01 0.0 
1.086641946769e+01 -2.376436523784e+02 0.0 
0.0 0.0 -9.878076338847e+01 
-3.531273500335e+01 2.363968318106e+00 0.0 
2.363968318106e+00 -1.060107670773e+02 0.0 
0.0 0.0 -4.199705062418e+01 
-6.824074943988e+01 7.380041832287e+00 0.0 
7.380041832287e+00 -1.861178981352e+02 0.0 
0.0 0.0 -7.590759427254e+01 
-1.016541773053e+02 1.127005683238e+01 0.0 
1.127005683238e+01 -2.561892012628e+02 0.0 
0.0 0.0 -1.069530135704e+02 
-6.941179020784e+01 6.512138871061e+00 0.0 
6.512138871061e+00 -1.375749371835e+02 0.0 
0.0 0.0 -6.169601821741e+01 
-8.008449068295e+01 9.413953555422e-01 0.0 
9.413953555422e-01 -2.136400947483e+02 0.0 
0.0 0.0 -8.771737562936e+01 
-9.210209859470e+01 3.446206679270e+00 0.0 
3.446206679270e+00 -1.966653992416e+02 0.0 
0.0 0.0 -8.623024935088e+01 
-6.568055314833e+01 -3.718150135179e-01 0.0 
-3.718150135179e-01 -1.386372359847e+02 0.0 
0.0 0.0 -6.089533673992e+01 
-1.810512668212e+01 1.216601967445e+01 0.0 
1.216601967445e+01 -1.631613270050e+01 0.0 
0.0 0.0 -9.926377814786e+00 
-9.370900572944e+01 3.535498420299e+00 0.0 
3.535498420299e+00 -2.434550587728e+02 0.0 
0.0 0.0 -1.007492193507e+02 
-1.141197889237e+02 8.554517498152e+00 0.0 
8.554517498152e+00 -2.873502723385e+02 0.0 
0.0 0.0 -1.200410183787e+02 
-1.215729984479e+02 7.272470067941e+00 0.0 
7.272470067941e+00 -2.734887637204e+02 0.0 
0.0 0.0 -1.181185286505e+02 
-7.962750013748e+01 8.454123962699e+00 0.0 
8.454123962699e+00 -2.113744179137e+02 0.0 
0.0 0.0 -8.690057541534e+01 
-8.828804175471e+01 1.535039071763e+00 0.0 
1.535039071763e+00 -2.326337944861e+02 0.0 
0.0 0.0 -9.587655087225e+01 
-9.175936367843e+01 2.835527358100e+00 0.0 
2.835527358100e+00 -1.981995920720e+02 0.0 
0.0 0.0 -8.658768672512e+01 
-1.648685133777e+01 1.188841673940e+01 0.0 
1.188841673940e+01 -1.679115629783e+01 0.0 
0.0 0.0 -9.583402290679e+00 
-1.096890519867e+02 9.043010229998e+00 0.0 
9.043010229998e+00 -2.770434687185e+02 0.0 
0.0 0.0 -1.156197562116e+02 
-8.860816478658e+01 9.774732523641e+00 0.0 
9.774732523641e+00 -2.300654814006e+02 0.0 
0.0 0.0 -9.520209385616e+01 
-7.470532134993e+01 8.547856396096e+00 0.0 
8.547856396096e+00 -1.476184435719e+02 0.0 
0.0 0.0 -6.629712947655e+01 
-1.156034690661e+02 5.699316197973e+00 0.0 
5.699316197973e+00 -2.909571201405e+02 0.0 
0.0 0.0 -1.215681767620e+02 
-3.836753568540e+01 6.127912104101e-01 0.0 
6.127912104101e-01 -1.071556708361e+02 0.0 
0.0 0.0 -4.325696195644e+01 
-1.202216141988e+02 6.654885614830e+00 0.0 
6.654885614830e+00 -3.004907596534e+02 0.0 
0.0 0.0 -1.258137121556e+02 
-1.335057522546e+02 6.950729086163e+00 0.0 
6.950729086163e+00 -3.280253886218e+02 0.0 
0.0 0.0 -1.380593422629e+02 
-1.053830350871e+02 9.552632007515e+00 0.0 
9.552632007515e+00 -2.665220045034e+02 0.0 
0.0 0.0 -1.111715118771e+02 
-1.034675151614e+02 3.306028390757e+00 0.0 
3.306028390757e+00 -2.286902790936e+02 0.0 
0.0 0.0 -9.924733827652e+01 
-1.155372525782e+02 1.450606038842e+01 0.0 
1.450606038842e+01 -2.685124239488e+02 0.0 
0.0 0.0 -1.148149029581e+02 
-1.345635659748e+02 8.389611675427e+00 0.0 
8.389611675427e+00 -3.287363286826e+02 0.0 
0.0 0.0 -1.385899683972e+02 
-1.596572536677e+01 9.553757784752e+00 0.0 
9.553757784752e+00 -1.687150461209e+01 0.0 
0.0 0.0 -9.451168993657e+00 
-9.591776556795e+01 3.393126957914e+00 0.0 
3.393126957914e+00 -2.073838420327e+02 0.0 
0.0 0.0 -9.059048228020e+01 
-1.286323846018e+02 1.470753798208e+01 0.0 
1.470753798208e+01 -3.050494087750e+02 0.0 
0.0 0.0 -1.297045380130e+02 
-1.061487170298e+02 2.123420697334e+00 0.0 
2.123420697334e+00 -2.370839162034e+02 0.0 
0.0 0.0 -1.025697899699e+02 
-9.664947475035e+01 9.162552488819e+00 0.0 
9.162552488819e+00 -2.480155015881e+02 0.0 
0.0 0.0 -1.029994929015e+02 
-7.207273808575e+01 8.778212747852e+00 0.0 
8.778212747852e+00 -1.937146238050e+02 0.0 
0.0 0.0 -7.933620856722e+01 
-8.822097583130e+01 2.186863798959e-01 0.0 
2.186863798959e-01 -2.295867935886e+02 0.0 
0.0 0.0 -9.494233082598e+01 
-2.185354624952e+01 1.559846008119e+00 0.0 
1.559846008119e+00 -6.100135769786e+01 0.0 
0.0 0.0 -2.445647118422e+01 
-1.099909201268e+02 1.989280693702e+00 0.0 
1.989280693702e+00 -2.478022623693e+02 0.0 
0.0 0.0 -1.069379547488e+02 
-4.505946582143e+01 -1.471042503553e+00 0.0 
-1.471042503553e+00 -1.193065876651e+02 0.0 
0.0 0.0 -4.890981604596e+01 
-1.683197637743e+01 4.109683102816e+00 0.0 
4.109683102816e+00 -2.293288385880e+01 0.0 
0.0 0.0 -1.152945807087e+01 
-1.117079355078e+02 1.424405210832e+01 0.0 
1.424405210832e+01 -2.565264708620e+02 0.0 
0.0 0.0 -1.100703219109e+02 
-1.179326710641e+02 1.704973570036e+00 0.0 
1.704973570036e+00 -2.698237288760e+02 0.0 
0.0 0.0 -1.159269199820e+02 
-3.551078085594e+01 -2.728726018231e-01 0.0 
-2.728726018231e-01 -9.704730930246e+01 0.0 
0.0 0.0 -3.936742704752e+01 
-8.437995158026e+01 1.378228305357e+01 0.0 
1.378228305357e+01 -1.859331895805e+02 0.0 
0.0 0.0 -8.069394234823e+01 
-9.856437443348e+01 2.231221587274e+00 0.0 
2.231221587274e+00 -2.157002968105e+02 0.0 
0.0 0.0 -9.387940137320e+01 
-8.542421196882e+01 2.111560607725e+00 0.0 
2.111560607725e+00 -2.232932967101e+02 0.0 
0.0 0.0 -9.221525260368e+01 
-3.750537176995e+01 2.450957746973e+00 0.0 
2.450957746973e+00 -1.069589587575e+02 0.0 
0.0 0.0 -4.293929915824e+01 
-4.497131921519e+01 1.304332951025e+01 0.0 
1.304332951025e+01 -1.172290413957e+02 0.0 
0.0 0.0 -4.826010818328e+01 
-2.848281480578e+01 -1.968581050712e+00 0.0 
-1.968581050712e+00 -7.528232801340e+01 0.0 
0.0 0.0 -3.072954284575e+01 
-3.379964048649e+01 -7.491546257043e-01 0.0 
-7.491546257043e-01 -9.623487901216e+01 0.0 
0.0 0.0 -3.861035584960e+01 
-3.109644962915e+01 -1.526889412101e+00 0.0 
-1.526889412101e+00 -8.611988553963e+01 0.0 
0.0 0.0 -3.476490055063e+01 
-8.806166098226e+01 8.806775515232e+00 0.0 
8.806775515232e+00 -2.296272407123e+02 0.0 
0.0 0.0 -9.490667050838e+01 
-1.355983091388e+02 7.059477642908e+00 0.0 
7.059477642908e+00 -3.125304461440e+02 0.0 
0.0 0.0 -1.340386265848e+02 
-2.512677130375e+01 2.591272872414e+00 0.0 
2.591272872414e+00 -4.066967601561e+01 0.0 
0.0 0.0 -1.933893419581e+01 
-1.332516588441e+02 4.285446821564e+00 0.0 
4.285446821564e+00 -3.273248257791e+02 0.0 
0.0 0.0 -1.377729453870e+02 
-5.951803582998e+01 8.677573417568e+00 0.0 
8.677573417568e+00 -1.647926178460e+02 0.0 
0.0 0.0 -6.689319610280e+01 
-9.631637877697e+01 4.150772254425e+00 0.0 
4.150772254425e+00 -2.061591734853e+02 0.0 
0.0 0.0 -9.034266567869e+01 
-2.640847996930e+01 2.416686245666e+00 0.0 
2.416686245666e+00 -7.895370388871e+01 0.0 
0.0 0.0 -3.120865515740e+01 
-1.393922952245e+02 9.399308726495e+00 0.0 
9.399308726495e+00 -3.378571524081e+02 0.0 
0.0 0.0 -1.427748342898e+02 
-3.278414276059e+01 -9.994910686072e-01 0.0 
-9.994910686072e-01 -8.691144818296e+01 0.0 
0.0 0.0 -3.550867728307e+01 
-5.278007874383e+01 -1.315709127885e+00 0.0 
-1.315709127885e+00 -1.395871010272e+02 0.0 
0.0 0.0 -5.731015393130e+01 
-1.099778464799e+02 1.043545030458e+01 0.0 
1.043545030458e+01 -2.743489429291e+02 0.0 
0.0 0.0 -1.148980368227e+02 
-7.683454675112e+01 4.444199733914e+00 0.0 
4.444199733914e+00 -2.066318751116e+02 0.0 
0.0 0.0 -8.463992655883e+01 
-1.243557326383e+02 1.411653018004e+01 0.0 
1.411653018004e+01 -2.978301932242e+02 0.0 
0.0 0.0 -1.262557777588e+02 
-5.094173756834e+01 1.573278709536e+01 0.0 
1.573278709536e+01 -1.146534420557e+02 0.0 
0.0 0.0 -4.927855388720e+01 
-1.044385862300e+02 5.697865583435e+00 0.0 
5.697865583435e+00 -2.252059605536e+02 0.0 
0.0 0.0 -9.849336403509e+01 
-1.326505791316e+02 1.226656052912e+01 0.0 
1.226656052912e+01 -3.196057950072e+02 0.0 
0.0 0.0 -1.352769122417e+02 
-9.457128850619e+01 1.603343030765e+00 0.0 
1.603343030765e+00 -2.065273718535e+02 0.0 
0.0 0.0 -8.992959810790e+01 
-1.228424634844e+02 9.267776864556e+00 0.0 
9.267776864556e+00 -2.744556992951e+02 0.0 
0.0 0.0 -1.187894488338e+02 
-1.076129285305e+02 4.686564083049e+00 0.0 
4.686564083049e+00 -2.364632357588e+02 0.0 
0.0 0.0 -1.028228492868e+02 
-1.114881718174e+02 5.434422398856e+00 0.0 
5.434422398856e+00 -2.458805787728e+02 0.0 
0.0 0.0 -1.068106251771e+02 
-2.774765530721e+01 7.776494289668e+00 0.0 
7.776494289668e+00 -8.432557647712e+01 0.0 
0.0 0.0 -3.322196953530e+01 
-1.283015680784e+02 3.475811174937e+00 0.0 
3.475811174937e+00 -3.172904270446e+02 0.0 
0.0 0.0 -1.332775985369e+02 
-1.025517897089e+02 2.947342533751e+00 0.0 
2.947342533751e+00 -2.250694581125e+02 0.0 
0.0 0.0 -9.788637434641e+01 
-7.646025308991e+01 1.109227626426e+01 0.0 
1.109227626426e+01 -1.963588676624e+02 0.0 
0.0 0.0 -8.144573622570e+01 
-3.410039304077e+01 1.675500865331e+00 0.0 
1.675500865331e+00 -5.974929111509e+01 0.0 
0.0 0.0 -2.775490524676e+01 
-1.381724101856e+02 1.466505649849e+01 0.0 
1.466505649849e+01 -3.280858050658e+02 0.0 
0.0 0.0 -1.394774645754e+02 
-3.438754091131e+01 5.157194351913e+00 0.0 
5.157194351913e+00 -1.047432664957e+02 0.0 
0.0 0.0 -4.133924222210e+01 
-4.974956676330e+01 3.320497081579e-02 0.0 
3.320497081579e-02 -1.308936057314e+02 0.0 
0.0 0.0 -5.379295174841e+01 
-1.191678044752e+02 1.188552830352e+01 0.0 
1.188552830352e+01 -2.896897512922e+02 0.0 
0.0 0.0 -1.222572667302e+02 
-3.062650492857e+01 3.990131362601e-01 0.0 
3.990131362601e-01 -8.014510072501e+01 0.0 
0.0 0.0 -3.283148169607e+01 
-7.822785108603e+01 1.447587239539e+01 0.0 
1.447587239539e+01 -1.849222443931e+02 0.0 
0.0 0.0 -7.854502864374e+01 
-1.142425278499e+02 1.000676083568e+01 0.0 
1.000676083568e+01 -2.850505034421e+02 0.0 
0.0 0.0 -1.193879093876e+02 
-1.184283235131e+02 5.912128708944e+00 0.0 
5.912128708944e+00 -2.652261123161e+02 0.0 
0.0 0.0 -1.146963307488e+02 
-1.222226005322e+02 6.788680815658e+00 0.0 
6.788680815658e+00 -2.752288750138e+02 0.0 
0.0 0.0 -1.188354426638e+02 
-1.104989003993e+02 1.171239706500e+01 0.0 
1.171239706500e+01 -2.748361619524e+02 0.0 
0.0 0.0 -1.152005187055e+02 
-1.112118127654e+02 4.575192470085e+00 0.0 
4.575192470085e+00 -2.471371906526e+02 0.0 
0.0 0.0 -1.071047010254e+02 
-6.378419876671e+01 9.983841557284e+00 0.0 
9.983841557284e+00 -1.717113214330e+02 0.0 
0.0 0.0 -7.024865605991e+01 
-1.122898939347e+02 1.369798898197e+01 0.0 
1.369798898197e+01 -2.524008444798e+02 0.0 
0.0 0.0 -1.090072215243e+02 
-4.296379387193e+01 1.076582037742e+00 0.0 
1.076582037742e+00 -7.912033617889e+01 0.0 
0.0 0.0 -3.622523901525e+01 
-1.218328653245e+02 9.870591891683e+00 0.0 
9.870591891683e+00 -2.746503950591e+02 0.0 
0.0 0.0 -1.185449781151e+02 
-5.143200423753e+01 8.354121638151e-01 0.0 
8.354121638151e-01 -9.849148959807e+01 0.0 
0.0 0.0 -4.457704815068e+01 
-5.604659208500e+01 8.926999886618e-01 0.0 
8.926999886618e-01 -1.081735191170e+02 0.0 
0.0 0.0 -4.886603336059e+01 
-7.572185796363e+01 9.273124525678e+00 0.0 
9.273124525678e+00 -2.007006781152e+02 0.0 
0.0 0.0 -8.252676082366e+01 
-5.975325446911e+01 6.879951042359e-01 0.0 
6.879951042359e-01 -1.180756041116e+02 0.0 
0.0 0.0 -5.294865757422e+01 
-8.986220899740e+01 1.397115200671e+01 0.0 
1.397115200671e+01 -2.160174676535e+02 0.0 
0.0 0.0 -9.136390299525e+01 
-6.886459393245e+01 1.374754593028e+01 0.0 
1.374754593028e+01 -1.726331774755e+02 0.0 
0.0 0.0 -7.204933142239e+01 
-7.618631436650e+01 8.008050856661e+00 0.0 
8.008050856661e+00 -2.041069590835e+02 0.0 
0.0 0.0 -8.368798203501e+01 
-3.277223724952e+01 8.272229065722e-01 0.0 
8.272229065722e-01 -9.675320148055e+01 0.0 
0.0 0.0 -3.845763161902e+01 
-7.136970720312e+01 8.082592113414e+00 0.0 
8.082592113414e+00 -1.932654276701e+02 0.0 
0.0 0.0 -7.899054046196e+01 
-1.136841923234e+02 2.629455464184e+00 0.0 
2.629455464184e+00 -2.570274636823e+02 0.0 
0.0 0.0 -1.108134968017e+02 
-1.227054388171e+02 8.525583618764e+00 0.0 
8.525583618764e+00 -2.760490404941e+02 0.0 
0.0 0.0 -1.192263437934e+02 
-1.189921451198e+02 2.978119213568e+00 0.0 
2.978119213568e+00 -2.984473166752e+02 0.0 
0.0 0.0 -1.248318385385e+02 
-1.280444204589e+02 1.242286896485e+01 0.0 
1.242286896485e+01 -3.085577702167e+02 0.0 
0.0 0.0 -1.305806572027e+02 
-7.544004074607e+01 3.573240260455e+00 0.0 
3.573240260455e+00 -2.058464346418e+02 0.0 
0.0 0.0 -8.398594261636e+01 
-1.100734737576e+02 3.588312222629e+00 0.0 
3.588312222629e+00 -2.449599989056e+02 0.0 
0.0 0.0 -1.061100417990e+02 
-7.532225969649e+01 7.256170997313e+00 0.0 
7.256170997313e+00 -2.035796747264e+02 0.0 
0.0 0.0 -8.327058032686e+01 
-1.329375639438e+02 3.127217527781e+00 0.0 
3.127217527781e+00 -3.260965140981e+02 0.0 
0.0 0.0 -1.373102234126e+02 
-1.061972130480e+02 2.892883125511e+00 0.0 
2.892883125511e+00 -2.355585877013e+02 0.0 
0.0 0.0 -1.021267402248e+02 
-1.079641147897e+02 5.575373016779e+00 0.0 
5.575373016779e+00 -2.354831099464e+02 0.0 
0.0 0.0 -1.026341674209e+02 
-1.008226988082e+02 8.571965508301e+00 0.0 
8.571965508301e+00 -2.584986873470e+02 0.0 
0.0 0.0 -1.073964158466e+02 
-6.752005436099e+01 8.999820170257e+00 0.0 
8.999820170257e+00 -1.826649686369e+02 0.0 
0.0 0.0 -7.465550689937e+01 
-1.197795006868e+02 1.396611322506e+01 0.0 
1.396611322506e+01 -2.716351045756e+02 0.0 
0.0 0.0 -1.170243815787e+02 
-9.297477702098e+01 8.505326703783e+00 0.0 
8.505326703783e+00 -1.972196789459e+02 0.0 
0.0 0.0 -8.665833679006e+01 
-3.477181626373e+01 1.105970558968e+00 0.0 
1.105970558968e+00 -9.766345661624e+01 0.0 
0.0 0.0 -3.933058186399e+01 
-3.636034419740e+01 4.954588110205e+00 0.0 
4.954588110205e+00 -1.055319255097e+02 0.0 
0.0 0.0 -4.216768091214e+01 
-5.503451639797e+01 1.359153286699e+01 0.0 
1.359153286699e+01 -1.282370303568e+02 0.0 
0.0 0.0 -5.458146402644e+01 
-8.464227541042e+01 1.148591054823e+01 0.0 
1.148591054823e+01 -1.855853172202e+02 0.0 
0.0 0.0 -8.066827778919e+01 
-1.375863819453e+02 2.715579383603e+00 0.0 
2.715579383603e+00 -3.350186131205e+02 0.0 
0.0 0.0 -1.413814985197e+02 
-1.039956902027e+02 4.803165839678e+00 0.0 
4.803165839678e+00 -2.259995092867e+02 0.0 
0.0 0.0 -9.859855984684e+01 
-6.803234731314e+01 9.651013183052e+00 0.0 
9.651013183052e+00 -1.830247790587e+02 0.0 
0.0 0.0 -7.491713791154e+01 
-9.667004851657e+01 1.324957447419e+01 0.0 
1.324957447419e+01 -2.129521236533e+02 0.0 
0.0 0.0 -9.248665165096e+01 
-1.187547641730e+02 9.564946850520e+00 0.0 
9.564946850520e+00 -2.957290536031e+02 0.0 
0.0 0.0 -1.239451453328e+02 
-1.110810515888e+02 3.773827397803e+00 0.0 
3.773827397803e+00 -2.485788574779e+02 0.0 
0.0 0.0 -1.074979727200e+02 
-1.233856725902e+02 1.372198380717e+01 0.0 
1.372198380717e+01 -2.795164339845e+02 0.0 
0.0 0.0 -1.204706319724e+02 
-9.108339652036e+01 2.263174872360e+00 0.0 
2.263174872360e+00 -1.948963699126e+02 0.0 
0.0 0.0 -8.539392992990e+01 
-1.239160227452e+02 7.758020735660e+00 0.0 
7.758020735660e+00 -3.085702164788e+02 0.0 
0.0 0.0 -1.293458717672e+02 
-8.023340120972e+01 9.294047892502e+00 0.0 
9.294047892502e+00 -2.118124066596e+02 0.0 
0.0 0.0 -8.721374236080e+01 
-1.195200991132e+02 1.082118505287e+01 0.0 
1.082118505287e+01 -2.962215086708e+02 0.0 
0.0 0.0 -1.243224823352e+02 
-7.900678976004e+01 1.275498562111e+01 0.0 
1.275498562111e+01 -1.848843005465e+02 0.0 
0.0 0.0 -7.876732709196e+01 
-1.184340080411e+02 5.005928153026e+00 0.0 
5.005928153026e+00 -2.668324569091e+02 0.0 
0.0 0.0 -1.151799394851e+02 
-1.281794768740e+02 1.395974213855e+01 0.0 
1.395974213855e+01 -2.894709631320e+02 0.0 
0.0 0.0 -1.248951320018e+02 
-9.213268312872e+01 8.132473525090e+00 0.0 
8.132473525090e+00 -2.400502964279e+02 0.0 
0.0 0.0 -9.925489386699e+01 
-3.183903914402e+01 3.259291454310e+00 0.0 
3.259291454310e+00 -9.671056900107e+01 0.0 
0.0 0.0 -3.816488244353e+01 
-1.188389219746e+02 1.288433504689e+01 0.0 
1.288433504689e+01 -2.796920897970e+02 0.0 
0.0 0.0 -1.191593035315e+02 
-8.633248116371e+01 1.427208919599e+01 0.0 
1.427208919599e+01 -2.038006458318e+02 0.0 
0.0 0.0 -8.663993809865e+01 
-6.406642411555e+01 1.062884213948e+01 0.0 
1.062884213948e+01 -1.719749315358e+02 0.0 
0.0 0.0 -7.041240669541e+01 
-9.720227353298e+01 1.024570634066e+01 0.0 
1.024570634066e+01 -2.484817869854e+02 0.0 
0.0 0.0 -1.033052181555e+02 
-1.202101920223e+02 8.042930442527e+00 0.0 
8.042930442527e+00 -3.001891311417e+02 0.0 
0.0 0.0 -1.257197969492e+02 
-3.401841960524e+01 3.089211929279e+00 0.0 
3.089211929279e+00 -9.759342308754e+01 0.0 
0.0 0.0 -3.908355280784e+01 
-8.363191448555e+01 7.706850670957e+00 0.0 
7.706850670957e+00 -2.217449076331e+02 0.0 
0.0 0.0 -9.121304663559e+01 
-9.637206262312e+01 6.483702080632e+00 0.0 
6.483702080632e+00 -2.041438525144e+02 0.0 
0.0 0.0 -8.975477454127e+01 
-1.381715579682e+02 4.170124876471e+00 0.0 
4.170124876471e+00 -3.355584743485e+02 0.0 
0.0 0.0 -1.417190096950e+02 
-1.002973446594e+02 7.618188503857e+00 0.0 
7.618188503857e+00 -2.146702078102e+02 0.0 
0.0 0.0 -9.409026574088e+01 
-1.150725498989e+02 1.266715686593e+01 0.0 
1.266715686593e+01 -2.679322747338e+02 0.0 
0.0 0.0 -1.145014473898e+02 
-9.233053020291e+01 5.366945851501e+00 0.0 
5.366945851501e+00 -1.938858776351e+02 0.0 
0.0 0.0 -8.546492235140e+01 
-8.375593421799e+01 3.170870120390e+00 0.0 
3.170870120390e+00 -1.740715702939e+02 0.0 
0.0 0.0 -7.694825135356e+01 
-9.675707128659e+01 9.582110937664e+00 0.0 
9.582110937664e+00 -2.086331323552e+02 0.0 
0.0 0.0 -9.121706109255e+01 
-1.235106536818e+02 1.162756256398e+01 0.0 
1.162756256398e+01 -3.008564535978e+02 0.0 
0.0 0.0 -1.269101321839e+02 
-1.246386804437e+02 5.141024819787e+00 0.0 
5.141024819787e+00 -3.091366945135e+02 0.0 
0.0 0.0 -1.297326124871e+02 
-9.888911387290e+01 3.022372788875e+00 0.0 
3.022372788875e+00 -2.146985908624e+02 0.0 
0.0 0.0 -9.367631142058e+01 
-1.210697761508e+02 5.095794035209e+00 0.0 
5.095794035209e+00 -2.744347670325e+02 0.0 
0.0 0.0 -1.182513629550e+02 
-8.821669260954e+01 4.268581203344e+00 0.0 
4.268581203344e+00 -1.839306670343e+02 0.0 
0.0 0.0 -8.124420789316e+01 
-5.268504934515e+01 8.563295026638e+00 0.0 
8.563295026638e+00 -1.475390279968e+02 0.0 
0.0 0.0 -5.966722320258e+01 
-1.236577900935e+02 1.487725090934e+01 0.0 
1.487725090934e+01 -2.878195630002e+02 0.0 
0.0 0.0 -1.230432059281e+02 
-1.186245205281e+02 4.296515981778e+00 0.0 
4.296515981778e+00 -2.685723565352e+02 0.0 
0.0 0.0 -1.157590631190e+02 
-7.759473840705e+01 1.235061634861e+01 0.0 
1.235061634861e+01 -1.909055592140e+02 0.0 
0.0 0.0 -8.015008928633e+01 
-8.230400855464e+01 1.257272393763e+01 0.0 
1.257272393763e+01 -1.972442226757e+02 0.0 
0.0 0.0 -8.346446936911e+01 
-6.020768672040e+01 9.158660663160e+00 0.0 
9.158660663160e+00 -1.651925771499e+02 0.0 
0.0 0.0 -6.722007916110e+01 
-1.028509176806e+02 3.793510605573e+00 0.0 
3.793510605573e+00 -2.241699701136e+02 0.0 
0.0 0.0 -9.770626633827e+01 
-6.099823117282e+01 1.135962967388e+01 0.0 
1.135962967388e+01 -1.262639289883e+02 0.0 
0.0 0.0 -5.577864804833e+01 
-9.382538323043e+01 1.211702465950e+01 0.0 
1.211702465950e+01 -2.277979420842e+02 0.0 
0.0 0.0 -9.608699759440e+01 
-6.064129950850e+01 1.423055127366e+01 0.0 
1.423055127366e+01 -1.266711361474e+02 0.0 
0.0 0.0 -5.579373069677e+01 
-1.145965648380e+02 1.120671661035e+01 0.0 
1.120671661035e+01 -2.820636799794e+02 0.0 
0.0 0.0 -1.185980734452e+02 
-1.315255728556e+02 1.514019732312e+01 0.0 
1.514019732312e+01 -3.063309432830e+02 0.0 
0.0 0.0 -1.309569548416e+02 
-6.419060587786e+01 8.213237419494e+00 0.0 
8.213237419494e+00 -1.758049691814e+02 0.0 
0.0 0.0 -7.159867251778e+01 
-2.421614314465e+01 1.261103371981e+00 0.0 
1.261103371981e+00 -6.193204362009e+01 0.0 
0.0 0.0 -2.544445602942e+01 
-1.213103576597e+02 6.181883842602e+00 0.0 
6.181883842602e+00 -2.740031313506e+02 0.0 
0.0 0.0 -1.181940467031e+02 
-6.532526461338e+01 1.016498608376e+01 0.0 
1.016498608376e+01 -1.331409941562e+02 0.0 
0.0 0.0 -5.913987763086e+01 
-7.937488170696e+01 4.719812470941e+00 0.0 
4.719812470941e+00 -2.147693262885e+02 0.0 
0.0 0.0 -8.784326239863e+01 
-1.272139078239e+02 1.333758514485e+01 0.0 
1.333758514485e+01 -2.991157141443e+02 0.0 
0.0 0.0 -1.274988865905e+02 
-1.003961935792e+02 4.887896844881e+00 0.0 
4.887896844881e+00 -2.156573889146e+02 0.0 
0.0 0.0 -9.441607474814e+01 
-1.201186177843e+02 5.417789461142e+00 0.0 
5.417789461142e+00 -3.001067731866e+02 0.0 
0.0 0.0 -1.256676172913e+02 
-6.442832559294e+01 1.287171075899e+01 0.0 
1.287171075899e+01 -1.666657057866e+02 0.0 
0.0 0.0 -6.892820941386e+01 
-2.034381442059e+01 1.604682723078e-01 0.0 
1.604682723078e-01 -5.175610168823e+01 0.0 
0.0 0.0 -2.122997483264e+01 
-1.428575637269e+02 3.849547952138e+00 0.0 
3.849547952138e+00 -3.453887641711e+02 0.0 
0.0 0.0 -1.460738983694e+02 
-8.806503525427e+01 1.205506650084e+01 0.0 
1.205506650084e+01 -1.979950123675e+02 0.0 
0.0 0.0 -8.541801428653e+01 
-1.064384770531e+02 1.336211196671e+01 0.0 
1.336211196671e+01 -2.591773505720e+02 0.0 
0.0 0.0 -1.092847482875e+02 
-1.231372612759e+02 1.277342198750e+01 0.0 
1.277342198750e+01 -2.834080885967e+02 0.0 
0.0 0.0 -1.215636049618e+02 
-1.727309856243e+01 4.625153494449e-02 0.0 
4.625153494449e-02 -3.456020770985e+01 0.0 
0.0 0.0 -1.514999188169e+01 
-1.191363302608e+02 4.086894417949e+00 0.0 
4.086894417949e+00 -2.993957268892e+02 0.0 
0.0 0.0 -1.251596171450e+02 
-4.116349308017e+01 1.221629430879e+01 0.0 
1.221629430879e+01 -1.127646264225e+02 0.0 
0.0 0.0 -4.577843585081e+01 
-9.272368636501e+01 4.154382004586e+00 0.0 
4.154382004586e+00 -1.959007490279e+02 0.0 
0.0 0.0 -8.618733061787e+01 
-9.366839457673e+01 2.683007942761e+00 0.0 
2.683007942761e+00 -2.422932124752e+02 0.0 
0.0 0.0 -1.003884821156e+02 
-6.332693354349e+01 7.673192283828e+00 0.0 
7.673192283828e+00 -1.753114296127e+02 0.0 
0.0 0.0 -7.119150894686e+01 
-1.336055282060e+02 4.490557436200e+00 0.0 
4.490557436200e+00 -3.266806327941e+02 0.0 
0.0 0.0 -1.376858483000e+02 
-9.032967549757e+01 1.242704694833e+01 0.0 
1.242704694833e+01 -2.158790073716e+02 0.0 
0.0 0.0 -9.146260486074e+01 
-5.552806043653e+01 7.192098380668e+00 0.0 
7.192098380668e+00 -1.575207544863e+02 0.0 
0.0 0.0 -6.351464447685e+01 
-9.225568533305e+01 1.373278195665e+01 0.0 
1.373278195665e+01 -2.054643125667e+02 0.0 
0.0 0.0 -8.891599936993e+01 
-2.255567319527e+01 -1.946678357376e-01 0.0 
-1.946678357376e-01 -5.259810109448e+01 0.0 
0.0 0.0 -2.214613228692e+01 
-1.080603339691e+02 1.391172978389e+01 0.0 
1.391172978389e+01 -2.445993266672e+02 0.0 
0.0 0.0 -1.053978981909e+02 
-1.150807875996e+02 1.260046610675e+01 0.0 
1.260046610675e+01 -2.825677738027e+02 0.0 
0.0 0.0 -1.188945684207e+02 
-1.297209557113e+02 1.308461785739e+01 0.0 
1.308461785739e+01 -2.948175277325e+02 0.0 
0.0 0.0 -1.269615450331e+02 
-1.159636433401e+02 1.419122490502e+01 0.0 
1.419122490502e+01 -2.642349215044e+02 0.0 
0.0 0.0 -1.136595694534e+02 
-4.262860347861e+01 5.919123451511e+00 0.0 
5.919123451511e+00 -1.229994502219e+02 0.0 
0.0 0.0 -4.928841611015e+01 
-1.198987977668e+02 4.327819749921e+00 0.0 
4.327819749921e+00 -2.991355081266e+02 0.0 
0.0 0.0 -1.253102917680e+02 
-1.212288660228e+02 3.137919937420e+00 0.0 
3.137919937420e+00 -2.768265922013e+02 0.0 
0.0 0.0 -1.190166374672e+02 
-1.420437610550e+02 1.538015189505e+01 0.0 
1.538015189505e+01 -3.349701093342e+02 0.0 
0.0 0.0 -1.427041611167e+02 
-1.197139479163e+02 1.338653221478e+01 0.0 
1.338653221478e+01 -2.902422188733e+02 0.0 
0.0 0.0 -1.225868500369e+02 
-6.817843388926e+01 1.189820139807e+01 0.0 
1.189820139807e+01 -1.784356527112e+02 0.0 
0.0 0.0 -7.358422598014e+01 
-1.001427103236e+02 1.377323423173e+01 0.0 
1.377323423173e+01 -2.249928884023e+02 0.0 
0.0 0.0 -9.714067961776e+01 
-1.367784297695e+02 1.694551365500e+00 0.0 
1.694551365500e+00 -3.330904835665e+02 0.0 
0.0 0.0 -1.405606740008e+02 
-8.788451338590e+01 9.380429568135e-01 0.0 
9.380429568135e-01 -2.262469988870e+02 0.0 
0.0 0.0 -9.383945368187e+01 
-1.113746530977e+02 1.236236137770e+01 0.0 
1.236236137770e+01 -2.559991367678e+02 0.0 
0.0 0.0 -1.098121369597e+02 
-9.483732463584e+01 2.252929318983e+00 0.0 
2.252929318983e+00 -2.052208757091e+02 0.0 
0.0 0.0 -8.961746010347e+01 
-1.291227469746e+02 4.833322109454e+00 0.0 
4.833322109454e+00 -3.179367988071e+02 0.0 
0.0 0.0 -1.337178637345e+02 
-1.248198923642e+02 6.319135985355e+00 0.0 
6.319135985355e+00 -3.097886013837e+02 0.0 
0.0 0.0 -1.299825481244e+02 
-5.930833353933e+01 6.174967272964e-02 0.0 
6.174967272964e-02 -1.255952301053e+02 0.0 
0.0 0.0 -5.507106909339e+01 
-5.924563014288e+01 -1.272618416056e-01 0.0 
-1.272618416056e-01 -1.255527694827e+02 0.0 
0.0 0.0 -5.503951988768e+01 
-1.016418821264e+02 8.417396626144e+00 0.0 
8.417396626144e+00 -2.148658296897e+02 0.0 
0.0 0.0 -9.455231354482e+01 
-1.036194484991e+02 1.214516980509e+01 0.0 
1.214516980509e+01 -2.366117948831e+02 0.0 
0.0 0.0 -1.016693730147e+02 
-9.777718170947e+01 2.580455126402e+00 0.0 
2.580455126402e+00 -2.510515751464e+02 0.0 
0.0 0.0 -1.042486270568e+02 
-1.014654659713e+02 1.136463727759e+01 0.0 
1.136463727759e+01 -2.178112396419e+02 0.0 
0.0 0.0 -9.538301168395e+01 
-8.567562955166e+01 1.219882831550e+01 0.0 
1.219882831550e+01 -2.092454692293e+02 0.0 
0.0 0.0 -8.807632963428e+01 
-1.322919154909e+02 9.936777369068e+00 0.0 
9.936777369068e+00 -3.234407678027e+02 0.0 
0.0 0.0 -1.363198049881e+02 
-6.828164467752e+01 1.105879576942e+01 0.0 
1.105879576942e+01 -1.782997375595e+02 0.0 
0.0 0.0 -7.357441467110e+01 
-1.342852302652e+02 6.389805386655e+00 0.0 
6.389805386655e+00 -3.109780822923e+02 0.0 
0.0 0.0 -1.331789937673e+02 
-7.632222681657e+01 2.549096082477e+00 0.0 
2.549096082477e+00 -1.551921033479e+02 0.0 
0.0 0.0 -6.905429904935e+01 
-8.166413995561e+01 1.409883478837e+01 0.0 
1.409883478837e+01 -1.973067167464e+02 0.0 
0.0 0.0 -8.329125701059e+01 
-9.251428869649e+01 1.402175936443e+00 0.0 
1.402175936443e+00 -2.415088386292e+02 0.0 
0.0 0.0 -9.980693819772e+01 
-3.890746211593e+01 6.974852077563e+00 0.0 
6.974852077563e+00 -1.127178116287e+02 0.0 
0.0 0.0 -4.508758212338e+01 
-8.139592124517e+01 2.144361172069e+00 0.0 
2.144361172069e+00 -2.144625994559e+02 0.0 
0.0 0.0 -8.835755621033e+01 
-9.583303609637e+01 1.205256806195e+01 0.0 
1.205256806195e+01 -2.172751811244e+02 0.0 
0.0 0.0 -9.353246516624e+01 
-8.882448998605e+01 1.081891305684e+01 0.0 
1.081891305684e+01 -1.928764807252e+02 0.0 
0.0 0.0 -8.411029121338e+01 
-9.523472082120e+01 3.064370214109e+00 0.0 
3.064370214109e+00 -2.044291724024e+02 0.0 
0.0 0.0 -8.949916796708e+01 
-1.042593949153e+02 1.005556556281e+01 0.0 
1.005556556281e+01 -2.283802093649e+02 0.0 
0.0 0.0 -9.939188128404e+01 
-1.088922133051e+02 1.181912169851e+01 0.0 
1.181912169851e+01 -2.374499582402e+02 0.0 
0.0 0.0 -1.035026514636e+02 
-2.302909658179e+01 -2.841970416527e-02 0.0 
-2.841970416527e-02 -5.915635361369e+01 0.0 
0.0 0.0 -2.425563505864e+01 
-7.614735977916e+01 2.863752215691e-01 0.0 
2.863752215691e-01 -2.034119389499e+02 0.0 
0.0 0.0 -8.346778961871e+01 
-6.532438987146e+01 1.314128391479e+01 0.0 
1.314128391479e+01 -1.336371406923e+02 0.0 
0.0 0.0 -5.928845916913e+01 
-9.664983722508e+01 8.015114317168e+00 0.0 
8.015114317168e+00 -2.057753531167e+02 0.0 
0.0 0.0 -9.032755710252e+01 
-1.016980857987e+02 9.862588565805e+00 0.0 
9.862588565805e+00 -2.158989880561e+02 0.0 
0.0 0.0 -9.487912215645e+01 
-1.277458015615e+02 1.138562772509e+01 0.0 
1.138562772509e+01 -3.110668574315e+02 0.0 
0.0 0.0 -1.312437976979e+02 
-3.372481364656e+01 -8.196755566957e-01 0.0 
-8.196755566957e-01 -8.912500946472e+01 0.0 
0.0 0.0 -3.645494693339e+01 
-3.173812622718e+01 1.442506444817e+00 0.0 
1.442506444817e+00 -8.889728589223e+01 0.0 
0.0 0.0 -3.579062363582e+01 
-8.360898094732e+01 1.248034574022e+01 0.0 
1.248034574022e+01 -1.912857924090e+02 0.0 
0.0 0.0 -8.206843200689e+01 
-7.740962127480e+01 1.537000794393e+00 0.0 
1.537000794393e+00 -2.042170679887e+02 0.0 
0.0 0.0 -8.408800677904e+01 
-5.743249229160e+01 3.200504001881e+00 0.0 
3.200504001881e+00 -1.094370875632e+02 0.0 
0.0 0.0 -4.966087395645e+01 
-6.153583540591e+01 2.883848449050e+00 0.0 
2.883848449050e+00 -1.192690482643e+02 0.0 
0.0 0.0 -5.384146510106e+01 
-9.681701127209e+01 4.957798223856e+00 0.0 
4.957798223856e+00 -2.054205291562e+02 0.0 
0.0 0.0 -9.027126212850e+01 
-2.641171202191e+01 8.618359160178e+00 0.0 
8.618359160178e+00 -7.378296679554e+01 0.0 
0.0 0.0 -2.965840364524e+01 
-8.836044138724e+01 7.779467911016e-01 0.0 
7.779467911016e-01 -2.313364390583e+02 0.0 
0.0 0.0 -9.550906413366e+01 
-1.150292352847e+02 9.809399182069e+00 0.0 
9.809399182069e+00 -2.880084738027e+02 0.0 
0.0 0.0 -1.205113127262e+02 
-2.950743127620e+01 1.525162214240e+00 0.0 
1.525162214240e+00 -8.798780243487e+01 0.0 
0.0 0.0 -3.484857011332e+01 
-1.377046838325e+02 1.484624223131e+01 0.0 
1.484624223131e+01 -3.212360987154e+02 0.0 
0.0 0.0 -1.372822347644e+02 
-1.147946751007e+02 5.154013142698e+00 0.0 
5.154013142698e+00 -2.559969499390e+02 0.0 
0.0 0.0 -1.108374875119e+02 
-8.526128489010e+01 1.558572621433e+00 0.0 
1.558572621433e+00 -2.216752770785e+02 0.0 
0.0 0.0 -9.168096859059e+01 
-1.235169636432e+02 2.692507142332e+00 0.0 
2.692507142332e+00 -3.072760416845e+02 0.0 
0.0 0.0 -1.288379015983e+02 
-1.610912491729e+01 -7.273360113664e-01 0.0 
-7.273360113664e-01 -4.235333094459e+01 0.0 
0.0 0.0 -1.713873675856e+01 
-1.105312212631e+02 8.752668845529e+00 0.0 
8.752668845529e+00 -2.795560588064e+02 0.0 
0.0 0.0 -1.166261840209e+02 
-8.765825663385e+01 1.413537051146e+01 0.0 
1.413537051146e+01 -1.982578542185e+02 0.0 
0.0 0.0 -8.537483325569e+01 
-1.632929253667e+01 -5.922174151763e-01 0.0 
-5.922174151763e-01 -4.227257374438e+01 0.0 
0.0 0.0 -1.718055988432e+01 
-1.135789619549e+02 3.509434058198e+00 0.0 
3.509434058198e+00 -2.552685343479e+02 0.0 
0.0 0.0 -1.102542488908e+02 
-2.870756385888e+01 2.136191934725e+00 0.0 
2.136191934725e+00 -7.986048065715e+01 0.0 
0.0 0.0 -3.217041335481e+01 
-9.782430670178e+01 1.032461671677e+01 0.0 
1.032461671677e+01 -2.067784108953e+02 0.0 
0.0 0.0 -9.098081527912e+01 
-8.890284855021e+01 1.316650432068e+01 0.0 
1.316650432068e+01 -1.933623987137e+02 0.0 
0.0 0.0 -8.427957417918e+01 
-7.645067655549e+01 6.080989761895e+00 0.0 
6.080989761895e+00 -2.058989259021e+02 0.0 
0.0 0.0 -8.430488073726e+01 
-9.641250749291e+01 4.459477791669e+00 0.0 
4.459477791669e+00 -2.524344211426e+02 0.0 
0.0 0.0 -1.042540785907e+02 
-1.171813508669e+02 4.251471998438e+00 0.0 
4.251471998438e+00 -2.645466275575e+02 0.0 
0.0 0.0 -1.141183935273e+02 
-1.052820911532e+02 5.077530946194e+00 0.0 
5.077530946194e+00 -2.712913919165e+02 0.0 
0.0 0.0 -1.125720449209e+02 
-8.693597838810e+01 1.255745782196e+01 0.0 
1.255745782196e+01 -2.036844773203e+02 0.0 
0.0 0.0 -8.678613671251e+01 
-8.296417361423e+01 1.441107485335e+01 0.0 
1.441107485335e+01 -1.914196324635e+02 0.0 
0.0 0.0 -8.191514182330e+01 
-1.788169530330e+01 1.156311900495e+01 0.0 
1.156311900495e+01 -1.493191335060e+01 0.0 
0.0 0.0 -9.444082596169e+00 
-2.460374263660e+01 8.136585415974e-01 0.0 
8.136585415974e-01 -7.017610343919e+01 0.0 
0.0 0.0 -2.803395382274e+01 
-1.196058732614e+02 1.450689596448e+01 0.0 
1.450689596448e+01 -2.758324393153e+02 0.0 
0.0 0.0 -1.182314937730e+02 
-8.943881860766e+01 5.325960115582e+00 0.0 
5.325960115582e+00 -1.852218400152e+02 0.0 
0.0 0.0 -8.199819758687e+01 
-1.227679961632e+02 1.316095362204e+01 0.0 
1.316095362204e+01 -2.869976662596e+02 0.0 
0.0 0.0 -1.225296987268e+02 
-4.080075287081e+01 1.190893601718e+01 0.0 
1.190893601718e+01 -1.125442041660e+02 0.0 
0.0 0.0 -4.560348711104e+01 
-1.110073350994e+02 6.763320811697e+00 0.0 
6.763320811697e+00 -2.437536539936e+02 0.0 
0.0 0.0 -1.060282967279e+02 
-1.237752317232e+02 1.460571805784e+01 0.0 
1.460571805784e+01 -2.838715996531e+02 0.0 
0.0 0.0 -1.218940494129e+02 
-6.442417964917e+01 1.643253073581e+00 0.0 
1.643253073581e+00 -1.266178960133e+02 0.0 
0.0 0.0 -5.691262269874e+01 
-1.190076719756e+02 1.275741466258e+01 0.0 
1.275741466258e+01 -2.751428262063e+02 0.0 
0.0 0.0 -1.178451494546e+02 
-1.243059956341e+02 4.057538708782e+00 0.0 
4.057538708782e+00 -3.079194404091e+02 0.0 
0.0 0.0 -1.292676308130e+02 
-9.928578202266e+01 1.233236194572e+01 0.0 
1.233236194572e+01 -2.293986228984e+02 0.0 
0.0 0.0 -9.820532147630e+01 
-8.421005768114e+01 8.447298254106e-01 0.0 
8.447298254106e-01 -2.225013262052e+02 0.0 
0.0 0.0 -9.161341516589e+01 
-8.953795148440e+01 2.775590889511e+00 0.0 
2.775590889511e+00 -2.334350049934e+02 0.0 
0.0 0.0 -9.649188694334e+01 
-1.230867681149e+02 8.184820874733e+00 0.0 
8.184820874733e+00 -2.756081967103e+02 0.0 
0.0 0.0 -1.192084894475e+02 
-8.787958365224e+01 3.825199707879e+00 0.0 
3.825199707879e+00 -2.337531459597e+02 0.0 
0.0 0.0 -9.608981888359e+01 
-9.237277122086e+01 1.155413820651e+01 0.0 
1.155413820651e+01 -2.050881065151e+02 0.0 
0.0 0.0 -8.883826332079e+01 
-8.473392280922e+01 1.111490251110e+01 0.0 
1.111490251110e+01 -2.146049930200e+02 0.0 
0.0 0.0 -8.940167474876e+01 
-1.144956851015e+02 5.716787722390e+00 0.0 
5.716787722390e+00 -2.902602052039e+02 0.0 
0.0 0.0 -1.210267670916e+02 
-7.700627758220e+01 1.364037422129e+01 0.0 
1.364037422129e+01 -1.909253063746e+02 0.0 
0.0 0.0 -7.997947518705e+01 
-4.473666782106e+01 4.912742708801e+00 0.0 
4.912742708801e+00 -1.322363323588e+02 0.0 
0.0 0.0 -5.269190005395e+01 
-8.772467934549e+01 7.032021854064e+00 0.0 
7.032021854064e+00 -2.318535593614e+02 0.0 
0.0 0.0 -9.547347161205e+01 
-4.804586180274e+01 6.624705148264e+00 0.0 
6.624705148264e+00 -1.398566733280e+02 0.0 
0.0 0.0 -5.597076053921e+01 
-1.004838902172e+02 9.085362893254e+00 0.0 
9.085362893254e+00 -2.169293443351e+02 0.0 
0.0 0.0 -9.482397036571e+01 
-4.941216369923e+01 6.796707003021e+00 0.0 
6.796707003021e+00 -1.404737531433e+02 0.0 
0.0 0.0 -5.656577505277e+01 
-9.747379690622e+01 1.194192773573e+01 0.0 
1.194192773573e+01 -2.093962874618e+02 0.0 
0.0 0.0 -9.166102531039e+01 
-1.241293331669e+02 1.310568134929e+01 0.0 
1.310568134929e+01 -3.014443143992e+02 0.0 
0.0 0.0 -1.272720942698e+02 
-1.188446857013e+02 1.086005282901e+01 0.0 
1.086005282901e+01 -2.929456497236e+02 0.0 
0.0 0.0 -1.231371006275e+02 
-7.289857865999e+01 1.185234089655e+01 0.0 
1.185234089655e+01 -1.846445801430e+02 0.0 
0.0 0.0 -7.686294764089e+01 
-9.157756951372e+01 3.068532609591e+00 0.0 
3.068532609591e+00 -1.942769911553e+02 0.0 
0.0 0.0 -8.535636820070e+01 
-1.280519165280e+02 2.378420506125e+00 0.0 
2.378420506125e+00 -3.160469581759e+02 0.0 
0.0 0.0 -1.328296624112e+02 
-1.287019402512e+02 3.757829339719e+00 0.0 
3.757829339719e+00 -3.166395025341e+02 0.0 
0.0 0.0 -1.332024328356e+02 
-2.179823108097e+01 7.716693954962e+00 0.0 
7.716693954962e+00 -5.710599138880e+01 0.0 
0.0 0.0 -2.327126674093e+01 
-1.004086720494e+02 1.051530640267e+01 0.0 
1.051530640267e+01 -2.202208328718e+02 0.0 
0.0 0.0 -9.578885147635e+01 
-1.426638627630e+02 2.133614086346e+00 0.0 
2.133614086346e+00 -3.447473940727e+02 0.0 
0.0 0.0 -1.458233770507e+02 
-4.407688018958e+01 6.655201120340e+00 0.0 
6.655201120340e+00 -7.957357493246e+01 0.0 
0.0 0.0 -3.669513653661e+01 
-9.341249070421e+01 2.016030771333e+00 0.0 
2.016030771333e+00 -2.406691555069e+02 0.0 
0.0 0.0 -9.982449386334e+01 
-1.656081982715e+01 1.067852477161e+01 0.0 
1.067852477161e+01 -1.574665700361e+01 0.0 
0.0 0.0 -9.292243049228e+00 
-1.325502327955e+02 2.041254094708e+00 0.0 
2.041254094708e+00 -3.247236576099e+02 0.0 
0.0 0.0 -1.367821671216e+02 
-4.096722873221e+01 5.940106261221e+00 0.0 
5.940106261221e+00 -1.223001688458e+02 0.0 
0.0 0.0 -4.858021927339e+01 
-9.057970251476e+01 -3.588836056982e-01 0.0 
-3.588836056982e-01 -2.324762101734e+02 0.0 
0.0 0.0 -9.651677380646e+01 
-1.061156473771e+02 1.180868610510e+01 0.0 
1.180868610510e+01 -2.587745414183e+02 0.0 
0.0 0.0 -1.090670566386e+02 
-9.328775022333e+01 5.050908695124e+00 0.0 
5.050908695124e+00 -1.953724456443e+02 0.0 
0.0 0.0 -8.619805876030e+01 
-8.817146191834e+01 3.235874824933e+00 0.0 
3.235874824933e+00 -1.842935504606e+02 0.0 
0.0 0.0 -8.133950371368e+01 
-9.145092759136e+01 1.236334522338e+01 0.0 
1.236334522338e+01 -2.103347647446e+02 0.0 
0.0 0.0 -9.013570770079e+01 
-4.921465083897e+01 3.595492268587e+00 0.0 
3.595492268587e+00 -9.011052123080e+01 0.0 
0.0 0.0 -4.139755162093e+01 
-5.343828723913e+01 3.182609641262e+00 0.0 
3.182609641262e+00 -9.987223364677e+01 0.0 
0.0 0.0 -4.559315626577e+01 
-1.330077283451e+02 3.390276724257e+00 0.0 
3.390276724257e+00 -3.252344568245e+02 0.0 
0.0 0.0 -1.370726555509e+02 
-1.018610682138e+02 6.660173411367e+00 0.0 
6.660173411367e+00 -2.621655956547e+02 0.0 
0.0 0.0 -1.088079991606e+02 
-8.454203441986e+01 6.764495014364e+00 0.0 
6.764495014364e+00 -2.240821392278e+02 0.0 
0.0 0.0 -9.218725209431e+01 
-1.095391249504e+02 7.515010642988e+00 0.0 
7.515010642988e+00 -2.789133403123e+02 0.0 
0.0 0.0 -1.161357395788e+02 
-7.936861892925e+01 6.531218437694e+00 0.0 
6.531218437694e+00 -2.136400231882e+02 0.0 
0.0 0.0 -8.750259263522e+01 
-4.555340584735e+01 7.832164559878e+00 0.0 
7.832164559878e+00 -1.300626567347e+02 0.0 
0.0 0.0 -5.228481877462e+01 
-4.758478839100e+01 1.003468645220e+00 0.0 
1.003468645220e+00 -8.857862253669e+01 0.0 
0.0 0.0 -4.044902327831e+01 
-8.133234069684e+01 4.338225766731e+00 0.0 
4.338225766731e+00 -1.658374999118e+02 0.0 
0.0 0.0 -7.375095218260e+01 
-5.940192951169e+01 -2.109477081720e-02 0.0 
-2.109477081720e-02 -1.257726149788e+02 0.0 
0.0 0.0 -5.515236334714e+01 
-1.194513341118e+02 1.221259189682e+01 0.0 
1.221259189682e+01 -2.934774303605e+02 0.0 
0.0 0.0 -1.234786293417e+02 
-7.249962283155e+01 1.290275437680e+01 0.0 
1.290275437680e+01 -1.846932717146e+02 0.0 
0.0 0.0 -7.675786836385e+01 
-1.369258211022e+02 1.317008340344e+01 0.0 
1.317008340344e+01 -3.271380483720e+02 0.0 
0.0 0.0 -1.388191608423e+02 
-1.315038034076e+02 6.017891160174e-02 0.0 
6.017891160174e-02 -3.217292137310e+02 0.0 
0.0 0.0 -1.355699051416e+02 
-8.439794668149e+01 8.588738080479e+00 0.0 
8.588738080479e+00 -2.222683460671e+02 0.0 
0.0 0.0 -9.159988782458e+01 
-1.483277351130e+02 4.500302901316e+00 0.0 
4.500302901316e+00 -3.551479881921e+02 0.0 
0.0 0.0 -1.506427169915e+02 
-5.334249120045e+01 5.935932481006e+00 0.0 
5.935932481006e+00 -1.506342532261e+02 0.0 
0.0 0.0 -6.079302332795e+01 
-1.319713134112e+02 1.316016414741e+01 0.0 
1.316016414741e+01 -3.156116878579e+02 0.0 
0.0 0.0 -1.338749003808e+02 
-9.101461104400e+01 1.424529748869e+01 0.0 
1.424529748869e+01 -2.105553013783e+02 0.0 
0.0 0.0 -9.007097372670e+01 
-1.027603841150e+02 1.244074336545e+01 0.0 
1.244074336545e+01 -2.413522080425e+02 0.0 
0.0 0.0 -1.028337776472e+02 
-1.293639575763e+02 1.006106092673e+01 0.0 
1.006106092673e+01 -3.174014912585e+02 0.0 
0.0 0.0 -1.336296346504e+02 
-6.221124657976e+01 8.422356910777e-01 0.0 
8.422356910777e-01 -1.679565265816e+02 0.0 
0.0 0.0 -6.865033194840e+01 
-9.647925745766e+01 1.102877051301e+01 0.0 
1.102877051301e+01 -2.125085527625e+02 0.0 
0.0 0.0 -9.229634306606e+01 
-8.034777372388e+01 7.331519932876e+00 0.0 
7.331519932876e+00 -2.142295978576e+02 0.0 
0.0 0.0 -8.797321147443e+01 
-9.323889694181e+01 1.253509096274e+01 0.0 
1.253509096274e+01 -2.011490637157e+02 0.0 
0.0 0.0 -8.791638819724e+01 
-4.467438750130e+01 1.373832484834e+01 0.0 
1.373832484834e+01 -1.172485738739e+02 0.0 
0.0 0.0 -4.817688841257e+01 
-1.063681349535e+02 1.238527899374e+01 0.0 
1.238527899374e+01 -2.533400206302e+02 0.0 
0.0 0.0 -1.075124466751e+02 
-7.526711910729e+01 5.298755444965e+00 0.0 
5.298755444965e+00 -2.052187715629e+02 0.0 
0.0 0.0 -8.374576720107e+01 
-9.673907060832e+01 1.276318909357e+00 0.0 
1.276318909357e+00 -2.503024634434e+02 0.0 
0.0 0.0 -1.037124602155e+02 
-9.284376311292e+01 1.017283810557e+01 0.0 
1.017283810557e+01 -2.005294407532e+02 0.0 
0.0 0.0 -8.761196115984e+01 
-1.617141368896e+01 6.401671762668e+00 0.0 
6.401671762668e+00 -2.476999726913e+01 0.0 
0.0 0.0 -1.188242328743e+01 
-9.316483874115e+01 1.116487608505e+01 0.0 
1.116487608505e+01 -2.331650802320e+02 0.0 
0.0 0.0 -9.749897569196e+01 
-1.825710413799e+01 1.067038920450e+01 0.0 
1.067038920450e+01 -3.243878171875e+01 0.0 
0.0 0.0 -1.480876575702e+01 
-2.454894616054e+01 -1.915440003747e+00 0.0 
-1.915440003747e+00 -6.335391889187e+01 0.0 
0.0 0.0 -2.597085951572e+01 
-9.243196575083e+01 7.047435241618e-01 0.0 
7.047435241618e-01 -2.399259370567e+02 0.0 
0.0 0.0 -9.930737084225e+01 
-1.162366989464e+02 1.343295376172e+01 0.0 
1.343295376172e+01 -2.603266322632e+02 0.0 
0.0 0.0 -1.125689993629e+02 
-9.197455211259e+01 4.123471531162e+00 0.0 
4.123471531162e+00 -1.935293359283e+02 0.0 
0.0 0.0 -8.525116641226e+01 
-4.092542278259e+01 4.497106645002e+00 0.0 
4.497106645002e+00 -7.125764209344e+01 0.0 
0.0 0.0 -3.325491946281e+01 
-1.326878075119e+02 6.376436355130e+00 0.0 
6.376436355130e+00 -3.109382175279e+02 0.0 
0.0 0.0 -1.326878075119e+02 
-1.663841749617e+01 1.002376559224e+01 0.0 
1.002376559224e+01 -1.187272191258e+01 0.0 
0.0 0.0 -8.260919839045e+00 
-4.502861343184e+01 3.755811729181e+00 0.0 
3.755811729181e+00 -8.062968104096e+01 0.0 
0.0 0.0 -3.729748834184e+01 
-8.763815445116e+01 5.330846332728e+00 0.0 
5.330846332728e+00 -2.330184887439e+02 0.0 
0.0 0.0 -9.579699295851e+01 
-8.913824944327e+01 1.562731259592e+00 0.0 
1.562731259592e+00 -2.302895932601e+02 0.0 
0.0 0.0 -9.542835281102e+01 
-6.247587744690e+01 6.106410334353e+00 0.0 
6.106410334353e+00 -1.180685548043e+02 0.0 
0.0 0.0 -5.376332967536e+01 
-5.633756278197e+01 2.732159885836e+00 0.0 
2.732159885836e+00 -1.606060038006e+02 0.0 
0.0 0.0 -6.468306997476e+01 
-9.314850002905e+01 5.921499082464e+00 0.0 
5.921499082464e+00 -2.433766725289e+02 0.0 
0.0 0.0 -1.005575517674e+02 
-9.564521747968e+01 1.406796884693e+01 0.0 
1.406796884693e+01 -2.176279021231e+02 0.0 
0.0 0.0 -9.358193588083e+01 
-1.017487913356e+02 1.134328023855e+01 0.0 
1.134328023855e+01 -2.519659259338e+02 0.0 
0.0 0.0 -1.057144151808e+02 
-1.182901501285e+02 9.969607429233e+00 0.0 
9.969607429233e+00 -2.651168978053e+02 0.0 
0.0 0.0 -1.146221143801e+02 
-2.268055039198e+01 7.064362515085e+00 0.0 
7.064362515085e+00 -6.755463491822e+01 0.0 
0.0 0.0 -2.667055559306e+01 
-8.420564113457e+01 2.420904569659e-01 0.0 
2.420904569659e-01 -2.209364717744e+02 0.0 
0.0 0.0 -9.114263387268e+01 
-9.224136311509e+01 1.698147272840e-01 0.0 
1.698147272840e-01 -2.382442300821e+02 0.0 
0.0 0.0 -9.874567795917e+01 
-4.753049765365e+01 -4.863256434642e-01 0.0 
-4.863256434642e-01 -1.271885019139e+02 0.0 
0.0 0.0 -5.201569987026e+01 
-6.817278194562e+01 1.432071372170e+00 0.0 
1.432071372170e+00 -1.362442701124e+02 0.0 
0.0 0.0 -6.092511561740e+01 
-9.353117670102e+01 6.241658522429e+00 0.0 
6.241658522429e+00 -1.946153371609e+02 0.0 
0.0 0.0 -8.604395415857e+01 
-1.182214469423e+02 1.045883056731e+00 0.0 
1.045883056731e+00 -2.936838986448e+02 0.0 
0.0 0.0 -1.231716036761e+02 
-1.716999711377e+01 -6.579429383176e-01 0.0 
-6.579429383176e-01 -4.251425826499e+01 0.0 
0.0 0.0 -1.750527661363e+01 
-1.683808841525e+01 1.454563085048e-01 0.0 
1.454563085048e-01 -2.588418957531e+01 0.0 
0.0 0.0 -1.241668339717e+01 
-3.394809384340e+01 -1.109714610244e+00 0.0 
-1.109714610244e+00 -8.875574313729e+01 0.0 
0.0 0.0 -3.641115109421e+01 
-9.301686573632e+01 1.531385931282e+00 0.0 
1.531385931282e+00 -2.388910947368e+02 0.0 
0.0 0.0 -9.917238814194e+01 
-6.062728763290e+01 6.696048422894e+00 0.0 
6.696048422894e+00 -1.683249140798e+02 0.0 
0.0 0.0 -6.828566051382e+01 
-5.411675924029e+01 3.737678192365e+00 0.0 
3.737678192365e+00 -1.522292570027e+02 0.0 
0.0 0.0 -6.150380487289e+01 
-4.642230400082e+01 5.041216001222e+00 0.0 
5.041216001222e+00 -1.329785463546e+02 0.0 
0.0 0.0 -5.342025510663e+01 
-9.652009266484e+01 6.139184304038e-01 0.0 
6.139184304038e-01 -2.485491397571e+02 0.0 
0.0 0.0 -1.031207697266e+02 
-9.995210358460e+01 6.156183955184e+00 0.0 
6.156183955184e+00 -2.135227754613e+02 0.0 
0.0 0.0 -9.364246371377e+01 
-9.624304391621e+01 9.020526231984e-02 0.0 
9.020526231984e-02 -2.468416515835e+02 0.0 
0.0 0.0 -1.025254086499e+02 
-5.943553944910e+01 6.256882826979e+00 0.0 
6.256882826979e+00 -1.677178678467e+02 0.0 
0.0 0.0 -6.774602218873e+01 
-1.009686363137e+02 1.279245092095e+01 0.0 
1.279245092095e+01 -2.208829879978e+02 0.0 
0.0 0.0 -9.615548729343e+01 
-7.462084632933e+01 5.681625613034e-01 0.0 
5.681625613034e-01 -1.564044008089e+02 0.0 
0.0 0.0 -6.890757414147e+01 
-1.149596132292e+02 1.206473899674e+01 0.0 
1.206473899674e+01 -2.781666642342e+02 0.0 
0.0 0.0 -1.175378832390e+02 
-9.689652609287e+01 1.474232409254e+00 0.0 
1.474232409254e+00 -2.474495808065e+02 0.0 
0.0 0.0 -1.029038320698e+02 
-9.737291831360e+01 1.947679758074e+00 0.0 
1.947679758074e+00 -2.492442712547e+02 0.0 
0.0 0.0 -1.035851568705e+02 
-3.262123107799e+01 5.869781855962e+00 0.0 
5.869781855962e+00 -5.195551669682e+01 0.0 
0.0 0.0 -2.497302433244e+01 
-6.462406948787e+01 5.962802737030e+00 0.0 
5.962802737030e+00 -1.782227197960e+02 0.0 
0.0 0.0 -7.245403678515e+01 
-1.002363520626e+02 -1.208006203840e-02 0.0 
-1.208006203840e-02 -2.553305006164e+02 0.0 
0.0 0.0 -1.062700558037e+02 
-8.865103300385e+01 -5.539605528420e-01 0.0 
-5.539605528420e-01 -1.967417338691e+02 0.0 
0.0 0.0 -8.521783006189e+01 
-8.122581490389e+01 -6.356749158660e-01 0.0 
-6.356749158660e-01 -1.785345933941e+02 0.0 
0.0 0.0 -7.752812248941e+01 
-3.669435592467e+01 5.003877005125e+00 0.0 
5.003877005125e+00 -6.174071778514e+01 0.0 
0.0 0.0 -2.913052211294e+01 
-1.006267759898e+02 4.928104341609e-01 0.0 
4.928104341609e-01 -2.571769771310e+02 0.0 
0.0 0.0 -1.069411259362e+02 
-5.472703687856e+01 2.050920188198e+00 0.0 
2.050920188198e+00 -1.523077909091e+02 0.0 
0.0 0.0 -6.171044833631e+01 
-1.980284902628e+01 1.177696780885e+01 0.0 
1.177696780885e+01 -4.854918793674e+01 0.0 
0.0 0.0 -2.010561108891e+01 
-1.332365018720e+02 1.466694071573e+01 0.0 
1.466694071573e+01 -3.166296591218e+02 0.0 
0.0 0.0 -1.345598482982e+02 
-3.031820231455e+01 -2.351783683532e+00 0.0 
-2.351783683532e+00 -8.030400733417e+01 0.0 
0.0 0.0 -3.278666289462e+01 
-5.683255680292e+01 1.117790653428e+00 0.0 
1.117790653428e+00 -1.602789797761e+02 0.0 
0.0 0.0 -6.473346097369e+01 
-8.913627000271e+01 1.300923613246e+01 0.0 
1.300923613246e+01 -2.214276241429e+02 0.0 
0.0 0.0 -9.276916824368e+01 
-3.884868380131e+01 1.420417453005e+00 0.0 
1.420417453005e+00 -6.905409035250e+01 0.0 
0.0 0.0 -3.197083224614e+01 
-1.008296382202e+02 1.385481065711e+00 0.0 
1.385481065711e+00 -2.560770406024e+02 0.0 
0.0 0.0 -1.066720036468e+02 
-4.550521448862e+01 6.781533644778e-01 0.0 
6.781533644778e-01 -1.195423106773e+02 0.0 
0.0 0.0 -4.911425754977e+01 
-7.284347235180e+01 3.394008966465e+00 0.0 
3.394008966465e+00 -1.447059336884e+02 0.0 
0.0 0.0 -6.486482181207e+01 
-1.013363272870e+02 1.845694662907e+00 0.0 
1.845694662907e+00 -2.578153527286e+02 0.0 
0.0 0.0 -1.073455040047e+02 
-8.061888320675e+01 5.577399947773e+00 0.0 
5.577399947773e+00 -2.155017401375e+02 0.0 
0.0 0.0 -8.843618700327e+01 
-8.946597113861e+01 2.069161841350e+00 0.0 
2.069161841350e+00 -2.321027808660e+02 0.0 
0.0 0.0 -9.607062560138e+01 
-1.761753907075e+01 4.044578065364e+00 0.0 
4.044578065364e+00 -3.116130224192e+01 0.0 
0.0 0.0 -1.423365239380e+01 
-1.113065628600e+02 1.087054235091e+00 0.0 
1.087054235091e+00 -2.544912972857e+02 0.0 
0.0 0.0 -1.093393580437e+02 
-6.515304517738e+01 4.058127156938e+00 0.0 
4.058127156938e+00 -1.792791485604e+02 0.0 
0.0 0.0 -7.292965812135e+01 
-1.280009178358e+02 1.023835644110e+01 0.0 
1.023835644110e+01 -3.146560108677e+02 0.0 
0.0 0.0 -1.323970786111e+02 
-1.027191513894e+02 1.422545463812e+01 0.0 
1.422545463812e+01 -2.418087862532e+02 0.0 
0.0 0.0 -1.029583812928e+02 
-1.047230434092e+02 3.371808718825e-01 0.0 
3.371808718825e-01 -2.657393238724e+02 0.0 
0.0 0.0 -1.107387101845e+02 
-1.052952296557e+02 1.672633550442e+00 0.0 
1.672633550442e+00 -2.663102661384e+02 0.0 
0.0 0.0 -1.110816487382e+02 
-5.582135228625e+01 4.778480609398e+00 0.0 
4.778480609398e+00 -1.597556400168e+02 0.0 
0.0 0.0 -6.427309769091e+01 
-2.314510000842e+01 -2.148086359670e+00 0.0 
-2.148086359670e+00 -5.447054882475e+01 0.0 
0.0 0.0 -2.288469464995e+01 
-1.471310327815e+01 5.397389755497e+00 0.0 
5.397389755497e+00 -3.032398834152e+01 0.0 
0.0 0.0 -1.311112748590e+01 
-1.088661497411e+02 1.539656050243e-01 0.0 
1.539656050243e-01 -2.743001826880e+02 0.0 
0.0 0.0 -1.145498997287e+02 
-1.283050028053e+02 8.929629241444e+00 0.0 
8.929629241444e+00 -3.170060470988e+02 0.0 
0.0 0.0 -1.331933149712e+02 
-5.516264844593e+01 9.042790382601e-01 0.0 
9.042790382601e-01 -1.514363214290e+02 0.0 
0.0 0.0 -6.157969096247e+01 
-1.040887491041e+02 1.127207190480e+01 0.0 
1.127207190480e+01 -2.320868579730e+02 0.0 
0.0 0.0 -1.004526821231e+02 
-3.964357087765e+01 7.814110266291e+00 0.0 
7.814110266291e+00 -7.017455240290e+01 0.0 
0.0 0.0 -3.254543698417e+01 
-1.050807570866e+02 1.231079821880e+01 0.0 
1.231079821880e+01 -2.291806201400e+02 0.0 
0.0 0.0 -9.987841316799e+01 
-1.490066080275e+02 7.938596518880e+00 0.0 
7.938596518880e+00 -3.585477502681e+02 0.0 
0.0 0.0 -1.518663074887e+02 
-1.814564455964e+01 -3.714252940309e-01 0.0 
-3.714252940309e-01 -6.987961114848e+00 0.0 
0.0 0.0 -7.140081702346e+00 
-1.311801865988e+02 7.492292620420e-01 0.0 
7.492292620420e-01 -3.074204353971e+02 0.0 
0.0 0.0 -1.311801865988e+02 
-1.635273349058e+02 1.043478855832e+00 0.0 
1.043478855832e+00 -3.828971147803e+02 0.0 
0.0 0.0 -1.635273349058e+02 
-6.811389757904e+01 7.858148496018e-01 0.0 
7.858148496018e-01 -1.468464285284e+02 0.0 
0.0 0.0 -6.408809783224e+01 
-6.562235706967e+01 2.588557986763e+00 0.0 
2.588557986763e+00 -1.792461264087e+02 0.0 
0.0 0.0 -7.306054504352e+01 
-9.911230415840e+01 1.420047594840e+01 0.0 
1.420047594840e+01 -2.297675246023e+02 0.0 
0.0 0.0 -9.826394862822e+01 
-5.662614260415e+01 7.556897912429e+00 0.0 
7.556897912429e+00 -1.580690509231e+02 0.0 
0.0 0.0 -6.400855805819e+01 
-2.201307050037e+01 -6.494598120246e-01 0.0 
-6.494598120246e-01 -5.510938759819e+01 0.0 
0.0 0.0 -2.273673742957e+01 
-1.550023024600e+01 9.134507090691e+00 0.0 
9.134507090691e+00 -1.393059276884e+01 0.0 
0.0 0.0 -8.429246904452e+00 
-1.185494136403e+02 2.528754425210e+00 0.0 
2.528754425210e+00 -2.715126782942e+02 0.0 
0.0 0.0 -1.166186275803e+02 
-9.770432958729e+01 7.353935560433e+00 0.0 
7.353935560433e+00 -2.047600249619e+02 0.0 
0.0 0.0 -9.033930636475e+01 
-6.567514701747e+01 2.890871313493e+00 0.0 
2.890871313493e+00 -1.299851135974e+02 0.0 
0.0 0.0 -5.829807818446e+01 
-1.464010493695e+02 1.675012490881e+01 0.0 
1.675012490881e+01 -3.416316530677e+02 0.0 
0.0 0.0 -1.460098107312e+02 
-3.798919596644e+01 6.257707367728e-01 0.0 
6.257707367728e-01 -1.000240828330e+02 0.0 
0.0 0.0 -4.100398363984e+01 
-1.470068266703e+02 1.676172334148e+01 0.0 
1.676172334148e+01 -3.449728985057e+02 0.0 
0.0 0.0 -1.471939175528e+02 
-9.603036101534e+01 5.118617491177e+00 0.0 
5.118617491177e+00 -2.035058604145e+02 0.0 
0.0 0.0 -8.946086642895e+01 
-6.591101256459e+01 1.540859162920e+00 0.0 
1.540859162920e+00 -1.782758285335e+02 0.0 
0.0 0.0 -7.285605232943e+01 
-9.484677703339e+01 1.245076059728e+01 0.0 
1.245076059728e+01 -2.224777129819e+02 0.0 
0.0 0.0 -9.479734700460e+01 
-6.057295805355e+01 8.382786650256e-01 0.0 
8.382786650256e-01 -1.688108659983e+02 0.0 
0.0 0.0 -6.841514721557e+01 
-2.101564945782e+01 1.276750432454e+01 0.0 
1.276750432454e+01 -5.079609826939e+01 0.0 
0.0 0.0 -2.114352431816e+01 
-5.714493773383e+01 -4.146921384965e-02 0.0 
-4.146921384965e-02 -1.588931347037e+02 0.0 
0.0 0.0 -6.441142173125e+01 
-1.038390347695e+02 7.200323216909e+00 0.0 
7.200323216909e+00 -2.238593027704e+02 0.0 
0.0 0.0 -9.790950126196e+01 
-1.366752510208e+02 2.111953815158e+00 0.0 
2.111953815158e+00 -3.320468788909e+02 0.0 
0.0 0.0 -1.402166389735e+02 
-6.014682418111e+01 2.220269002276e+00 0.0 
2.220269002276e+00 -1.694657813401e+02 0.0 
0.0 0.0 -6.848378165636e+01 
-1.079521715931e+02 1.090773429449e+01 0.0 
1.090773429449e+01 -2.399667823115e+02 0.0 
0.0 0.0 -1.039756861714e+02 
-1.447852308412e+01 -5.083225663188e-01 0.0 
-5.083225663188e-01 -8.402627829463e+00 0.0 
0.0 0.0 -7.365600797315e+00 
-5.971727893069e+01 4.057789410505e+00 0.0 
4.057789410505e+00 -1.691898940841e+02 0.0 
0.0 0.0 -6.827215190445e+01 
-1.090046198975e+02 7.876994184809e+00 0.0 
7.876994184809e+00 -2.349492075802e+02 0.0 
0.0 0.0 -1.027861482433e+02 
-5.708798403174e+01 -8.032238867650e-01 0.0 
-8.032238867650e-01 -1.565430001905e+02 0.0 
0.0 0.0 -6.368929526666e+01 
-5.176584338075e+01 1.892699777227e-01 0.0 
1.892699777227e-01 -1.412703028552e+02 0.0 
0.0 0.0 -5.751084387077e+01 
-9.448041553395e+01 1.416511885925e+01 0.0 
1.416511885925e+01 -2.227253022801e+02 0.0 
0.0 0.0 -9.476171534421e+01 
-2.810526163571e+01 -1.451142448098e+00 0.0 
-1.451142448098e+00 -7.748665410290e+01 0.0 
0.0 0.0 -3.127757472158e+01 
-2.357635889662e+01 7.306626517158e+00 0.0 
7.306626517158e+00 -3.083776071590e+01 0.0 
0.0 0.0 -1.592423588376e+01 
-2.849737734787e+01 6.856791347181e+00 0.0 
6.856791347181e+00 -4.289014917539e+01 0.0 
0.0 0.0 -2.101625795698e+01 
-5.008706219763e+01 -1.292303472574e+00 0.0 
-1.292303472574e+00 -1.377696473235e+02 0.0 
0.0 0.0 -5.595701285634e+01 
-8.878634344107e+01 6.297400344749e+00 0.0 
6.297400344749e+00 -2.337622438446e+02 0.0 
0.0 0.0 -9.636457618569e+01 
-8.104435649694e+01 1.176666824633e+01 0.0 
1.176666824633e+01 -2.028198976484e+02 0.0 
0.0 0.0 -8.475927624361e+01 
-1.086542761281e+02 1.306749721709e+01 0.0 
1.306749721709e+01 -2.406184365007e+02 0.0 
0.0 0.0 -1.043818137886e+02 
-1.253657239503e+02 9.887197146534e+00 0.0 
9.887197146534e+00 -2.850854720367e+02 0.0 
0.0 0.0 -1.227353587961e+02 
-2.955124911454e+01 2.075223543105e+00 0.0 
2.075223543105e+00 -4.952993539141e+01 0.0 
0.0 0.0 -2.332435535179e+01 
-9.666603061379e+01 1.206328975266e+00 0.0 
1.206328975266e+00 -2.163865076892e+02 0.0 
0.0 0.0 -9.351576149089e+01 
-1.290160682205e+02 1.269452740886e+01 0.0 
1.269452740886e+01 -2.972654033741e+02 0.0 
0.0 0.0 -1.274844414784e+02 
-5.190882987325e+01 5.627170853367e+00 0.0 
5.627170853367e+00 -1.499576161317e+02 0.0 
0.0 0.0 -6.015993380148e+01 
-1.751260694401e+01 1.145108271908e+01 0.0 
1.145108271908e+01 -3.207944309772e+01 0.0 
0.0 0.0 -1.447761501252e+01 
-4.610249008372e+01 1.043224339145e+01 0.0 
1.043224339145e+01 -8.139004243448e+01 0.0 
0.0 0.0 -3.784775975546e+01 
-8.482571634407e+01 5.171392053152e+00 0.0 
5.171392053152e+00 -2.249253335219e+02 0.0 
0.0 0.0 -9.252531495980e+01 
-1.077978634596e+02 9.630498022459e+00 0.0 
9.630498022459e+00 -2.365879978301e+02 0.0 
0.0 0.0 -1.029157583869e+02 
-8.353463329386e+01 4.232671827566e+00 0.0 
4.232671827566e+00 -2.241741154078e+02 0.0 
0.0 0.0 -9.191262461051e+01 
-2.125622697232e+01 6.022730155772e+00 0.0 
6.022730155772e+00 -5.237007414651e+01 0.0 
0.0 0.0 -2.168789033565e+01 
-9.729971706241e+01 7.002745535327e+00 0.0 
7.002745535327e+00 -2.522010220538e+02 0.0 
0.0 0.0 -1.044502217349e+02 
-2.349547464951e+01 1.363684246834e+01 0.0 
1.363684246834e+01 -5.319462698272e+01 0.0 
0.0 0.0 -2.260703048967e+01 
-8.072679733907e+01 1.293958291978e+01 0.0 
1.293958291978e+01 -2.029249168075e+02 0.0 
0.0 0.0 -8.469551424398e+01 
-9.189066388110e+01 4.817525385969e+00 0.0 
4.817525385969e+00 -2.425999868048e+02 0.0 
0.0 0.0 -9.994719520576e+01 
-9.832297374065e+01 1.239342222462e+01 0.0 
1.239342222462e+01 -2.344865457448e+02 0.0 
0.0 0.0 -9.944285584562e+01 
-8.741403120662e+01 1.224995392960e+00 0.0 
1.224995392960e+00 -1.919640081402e+02 0.0 
0.0 0.0 -8.341341180405e+01 
-5.145441517838e+01 -2.927966324885e-01 0.0 
-2.927966324885e-01 -1.385459167054e+02 0.0 
0.0 0.0 -5.660009956514e+01 
-1.837025138035e+01 1.012031121287e+01 0.0 
1.012031121287e+01 -4.497064699471e+01 0.0 
0.0 0.0 -1.860226951252e+01 
-1.006368829017e+02 5.424678231820e+00 0.0 
5.424678231820e+00 -2.613816709889e+02 0.0 
0.0 0.0 -1.082055661672e+02 
-2.661758259032e+01 1.335930746368e+01 0.0 
1.335930746368e+01 -5.503402781215e+01 0.0 
0.0 0.0 -2.409548312074e+01 
-1.543881582687e+01 2.720928154339e-01 0.0 
2.720928154339e-01 -2.530653791602e+01 0.0 
0.0 0.0 -1.182360612287e+01 
-1.186814001295e+02 -4.135568674224e-01 0.0 
-4.135568674224e-01 -2.732752100494e+02 0.0 
0.0 0.0 -1.171869830537e+02 
-1.116532468734e+02 -5.474993691367e-01 0.0 
-5.474993691367e-01 -2.547321974309e+02 0.0 
0.0 0.0 -1.095156332913e+02 
-1.305347013438e+01 -1.121684469047e+00 0.0 
-1.121684469047e+00 -2.470154639337e+01 0.0 
0.0 0.0 -1.130855279189e+01 
-1.061529975897e+02 7.695732776076e+00 0.0 
7.695732776076e+00 -2.709141822609e+02 0.0 
0.0 0.0 -1.127201539552e+02 
-4.066904077091e+01 -9.343498249014e-01 0.0 
-9.343498249014e-01 -1.080495904772e+02 0.0 
0.0 0.0 -4.421558937444e+01 
-4.270687890722e+01 -2.025664730789e+00 0.0 
-2.025664730789e+00 -1.154324526236e+02 0.0 
0.0 0.0 -4.704179945925e+01 
-1.154738682988e+02 1.136457919288e+01 0.0 
1.136457919288e+01 -2.598113828328e+02 0.0 
0.0 0.0 -1.121855753395e+02 
-9.812586123962e+01 1.394179134440e+01 0.0 
1.394179134440e+01 -2.347036714996e+02 0.0 
0.0 0.0 -9.944885982177e+01 
-1.116774076749e+02 1.164238203269e+01 0.0 
1.164238203269e+01 -2.517646177563e+02 0.0 
0.0 0.0 -1.086326076294e+02 
-6.118667949001e+01 4.554401524429e+00 0.0 
4.554401524429e+00 -1.699404406921e+02 0.0 
0.0 0.0 -6.893813605463e+01 
-5.981054434192e+01 -2.012156421448e-02 0.0 
-2.012156421448e-02 -1.256305305148e+02 0.0 
0.0 0.0 -5.523232245703e+01 
-1.518482972909e+02 7.188238520180e+00 0.0 
7.188238520180e+00 -3.606647277444e+02 0.0 
0.0 0.0 -1.533539075106e+02 
-3.589510011144e+01 -2.216209331236e+00 0.0 
-2.216209331236e+00 -9.602246353596e+01 0.0 
0.0 0.0 -3.917526909422e+01 
-1.238495864458e+02 1.175402314757e+01 0.0 
1.175402314757e+01 -3.036538466665e+02 0.0 
0.0 0.0 -1.278510299337e+02 
-8.525289574602e+01 1.357635226562e+01 0.0 
1.357635226562e+01 -2.093898307527e+02 0.0 
0.0 0.0 -8.799281794963e+01 
-2.930894900794e+01 -1.111488264287e+00 0.0 
-1.111488264287e+00 -7.615099111765e+01 0.0 
0.0 0.0 -3.123798203768e+01 
-1.040415838546e+02 8.635907177465e+00 0.0 
8.635907177465e+00 -2.253571505414e+02 0.0 
0.0 0.0 -9.841962031881e+01 
-6.337025830940e+01 5.418327791697e+00 0.0 
5.418327791697e+00 -1.775583912910e+02 0.0 
0.0 0.0 -7.187859488013e+01 
-1.816375558554e+01 -1.724215648343e+00 0.0 
-1.724215648343e+00 -4.201321055193e+01 0.0 
0.0 0.0 -1.765308984124e+01 
-5.249039484987e+01 3.351661331649e+00 0.0 
3.351661331649e+00 -1.514588548225e+02 0.0 
0.0 0.0 -6.078477490171e+01 
-1.141562365740e+02 -7.004050060121e-01 0.0 
-7.004050060121e-01 -2.852685450035e+02 0.0 
0.0 0.0 -1.194274344733e+02 
-1.054860472376e+02 9.485060092520e+00 0.0 
9.485060092520e+00 -2.253146101829e+02 0.0 
0.0 0.0 -9.884019722614e+01 
-2.887404128395e+01 -1.355527749451e+00 0.0 
-1.355527749451e+00 -7.335036875689e+01 0.0 
0.0 0.0 -3.026732301225e+01 
-9.121917099045e+01 5.922700830418e-01 0.0 
5.922700830418e-01 -2.330386616523e+02 0.0 
0.0 0.0 -9.687734979282e+01 
-1.117334591247e+02 1.054230200120e+01 0.0 
1.054230200120e+01 -2.482760397992e+02 0.0 
0.0 0.0 -1.076028496772e+02 
-1.198899109921e+02 1.417335562569e+01 0.0 
1.417335562569e+01 -2.859468968862e+02 0.0 
0.0 0.0 -1.213510423635e+02 
-5.360109986234e+01 -7.288550900038e-01 0.0 
-7.288550900038e-01 -1.484321245399e+02 0.0 
0.0 0.0 -6.020996732066e+01 
-4.525644265895e+01 -9.418171118248e-01 0.0 
-9.418171118248e-01 -1.194869366044e+02 0.0 
0.0 0.0 -4.902301377901e+01 
-8.927277463141e+01 1.170540476210e+01 0.0 
1.170540476210e+01 -2.212278338153e+02 0.0 
0.0 0.0 -9.275018253401e+01 
-8.453698906181e+01 8.762290283957e-01 0.0 
8.762290283957e-01 -1.862310964375e+02 0.0 
0.0 0.0 -8.083042564978e+01 
-1.829275267709e+01 -1.632710112737e+00 0.0 
-1.632710112737e+00 -4.141061549640e+01 0.0 
0.0 0.0 -1.751101045205e+01 
-1.371451234377e+02 1.494350523190e+01 0.0 
1.494350523190e+01 -3.167483317509e+02 0.0 
0.0 0.0 -1.357680365566e+02 
-1.290448104158e+02 9.570737570900e+00 0.0 
9.570737570900e+00 -2.980568035704e+02 0.0 
0.0 0.0 -1.277304841959e+02 
-7.322819907343e+01 8.388972091007e-01 0.0 
8.388972091007e-01 -1.587172475602e+02 0.0 
0.0 0.0 -6.918363399010e+01 
-1.261363597040e+02 5.689354327509e+00 0.0 
5.689354327509e+00 -2.876192295881e+02 0.0 
0.0 0.0 -1.237266767876e+02 
-1.313379504534e+02 1.092161772126e+01 0.0 
1.092161772126e+01 -3.033748549602e+02 0.0 
0.0 0.0 -1.300138416241e+02 
-6.366223441354e+01 3.430576231897e+00 0.0 
3.430576231897e+00 -1.784875840799e+02 0.0 
0.0 0.0 -7.224494554802e+01 
-6.173743991066e+01 2.869861036771e+00 0.0 
2.869861036771e+00 -1.703068706605e+02 0.0 
0.0 0.0 -6.921329317136e+01 
-1.444207845863e+02 1.361233221152e+01 0.0 
1.361233221152e+01 -3.458366944829e+02 0.0 
0.0 0.0 -1.466772437207e+02 
-1.414134322005e+01 3.516559966876e-01 0.0 
3.516559966876e-01 -8.682196978770e+00 0.0 
0.0 0.0 -7.397674242432e+00 
-4.132811852102e+01 -8.163596508582e-01 0.0 
-8.163596508582e-01 -1.089596369881e+02 0.0 
0.0 0.0 -4.468632665273e+01 
-9.257264550090e+01 -7.257019914859e-01 0.0 
-7.257019914859e-01 -2.374669881856e+02 0.0 
0.0 0.0 -9.861189010595e+01 
-5.509828571695e+01 1.895563453144e-01 0.0 
1.895563453144e-01 -1.493003347480e+02 0.0 
0.0 0.0 -6.091958613947e+01 
-5.302854423576e+01 1.491757236639e+00 0.0 
1.491757236639e+00 -1.514817715481e+02 0.0 
0.0 0.0 -6.095309473516e+01 
-1.777555411949e+01 1.047667657044e+01 0.0 
1.047667657044e+01 -1.507617732059e+01 0.0 
0.0 0.0 -9.455519432026e+00 
-2.175947051527e+01 1.073720749622e+01 0.0 
1.073720749622e+01 -2.652777701356e+01 0.0 
0.0 0.0 -1.408617425865e+01 
-7.576142770710e+01 1.719074123835e+00 0.0 
1.719074123835e+00 -1.593356742336e+02 0.0 
0.0 0.0 -7.012913058221e+01 
-5.727301475876e+01 5.188091438879e+00 0.0 
5.188091438879e+00 -1.604672477048e+02 0.0 
0.0 0.0 -6.492207873906e+01 
-4.792767116871e+01 -1.146482858768e+00 0.0 
-1.146482858768e+00 -1.271828483324e+02 0.0 
0.0 0.0 -5.213315585034e+01 
-1.145614285669e+02 1.262715082922e+01 0.0 
1.262715082922e+01 -2.723891736032e+02 0.0 
0.0 0.0 -1.156851806510e+02 
-1.602260721209e+02 5.932404431217e+00 0.0 
5.932404431217e+00 -3.791442285607e+02 0.0 
0.0 0.0 -1.614110902045e+02 
-1.589316385135e+02 7.098648587686e+00 0.0 
7.098648587686e+00 -3.770471436385e+02 0.0 
0.0 0.0 -1.603936346456e+02 
-6.406143178197e+01 1.819474267567e+00 0.0 
1.819474267567e+00 -1.783849454700e+02 0.0 
0.0 0.0 -7.233391317560e+01 
-6.943981525404e+01 5.699785468314e-01 0.0 
5.699785468314e-01 -1.430747731548e+02 0.0 
0.0 0.0 -6.335437652266e+01 
-1.835208600318e+01 -8.959648242677e-02 0.0 
-8.959648242677e-02 -2.082350453523e+01 0.0 
0.0 0.0 -1.135267716152e+01 
-1.839540989864e+01 1.281306524312e+01 0.0 
1.281306524312e+01 -1.781898077805e+01 0.0 
0.0 0.0 -1.046431720300e+01 
-2.865389706606e+01 -6.695565030674e-01 0.0 
-6.695565030674e-01 -7.302870733337e+01 0.0 
0.0 0.0 -3.010478131983e+01 
-1.858724913065e+01 1.261247020750e+01 0.0 
1.261247020750e+01 -1.751167777223e+01 0.0 
0.0 0.0 -1.042967807086e+01 
-9.357383836644e+01 1.355082323121e+01 0.0 
1.355082323121e+01 -2.279305287468e+02 0.0 
0.0 0.0 -9.605131013397e+01 
-5.354652455366e+01 1.674042574195e-01 0.0 
1.674042574195e-01 -1.506169844216e+02 0.0 
0.0 0.0 -6.084905269259e+01 
-5.793941650835e+01 3.258612971701e+00 0.0 
3.258612971701e+00 -1.614042366787e+02 0.0 
0.0 0.0 -6.540309595610e+01 
-2.100179087814e+01 -6.622442130106e-01 0.0 
-6.622442130106e-01 -4.144922028772e+01 0.0 
0.0 0.0 -1.833530334976e+01 
-1.123187105785e+02 3.835481811040e-01 0.0 
3.835481811040e-01 -2.577571351756e+02 0.0 
0.0 0.0 -1.106227537262e+02 
-5.844490382079e+01 1.826664393225e+00 0.0 
1.826664393225e+00 -1.611098174585e+02 0.0 
0.0 0.0 -6.546641638379e+01 
-1.180606280911e+02 1.004544821322e+00 0.0 
1.004544821322e+00 -2.709667221320e+02 0.0 
0.0 0.0 -1.163082050669e+02 
-1.071304653476e+02 1.294941129463e+00 0.0 
1.294941129463e+00 -2.422898050371e+02 0.0 
0.0 0.0 -1.044260811154e+02 
-1.319706141943e+02 6.031222285708e-01 0.0 
6.031222285708e-01 -3.071994715047e+02 0.0 
0.0 0.0 -1.313510257097e+02 
-1.617406632262e+02 1.167653392074e+00 0.0 
1.167653392074e+00 -3.822888419094e+02 0.0 
0.0 0.0 -1.628088515407e+02 
-7.322583848296e+01 -5.584536127430e-01 0.0 
-5.584536127430e-01 -1.591778130400e+02 0.0 
0.0 0.0 -6.932109545690e+01 
-6.215319066356e+01 1.635713500892e+00 0.0 
1.635713500892e+00 -1.696727267701e+02 0.0 
0.0 0.0 -6.914777523010e+01 
-1.962596830149e+01 2.688355425795e+00 0.0 
2.688355425795e+00 -2.980326333940e+01 0.0 
0.0 0.0 -1.442876949227e+01 
-6.439102897833e+01 6.109481221330e-01 0.0 
6.109481221330e-01 -1.774098777131e+02 0.0 
0.0 0.0 -7.214027200744e+01 
-1.628948082008e+02 4.730161806567e+00 0.0 
4.730161806567e+00 -3.814212191352e+02 0.0 
0.0 0.0 -1.628948082008e+02 
-1.741491665585e+01 1.175178086404e+01 0.0 
1.175178086404e+01 -1.676112709393e+01 0.0 
0.0 0.0 -9.852813124934e+00 
-1.772631655444e+01 1.224599178171e+01 0.0 
1.224599178171e+01 -1.727249560409e+01 0.0 
0.0 0.0 -1.009964364756e+01 
-1.281308050915e+02 1.265830024920e+01 0.0 
1.265830024920e+01 -3.113773585660e+02 0.0 
0.0 0.0 -1.314524490973e+02 
-6.854023261421e+01 5.771321140130e-01 0.0 
5.771321140130e-01 -1.435081972440e+02 0.0 
0.0 0.0 -6.321452895747e+01 
-1.186251286386e+02 3.417943118467e-01 0.0 
3.417943118467e-01 -2.729573986508e+02 0.0 
0.0 0.0 -1.170747581868e+02 
-1.125906125333e+02 1.271136693983e+01 0.0 
1.271136693983e+01 -2.488375911317e+02 0.0 
0.0 0.0 -1.080284610995e+02 
-1.274536251574e+02 1.307379734340e+01 0.0 
1.307379734340e+01 -3.039678646684e+02 0.0 
0.0 0.0 -1.290264469478e+02 
-1.167430256629e+02 1.134242872700e+01 0.0 
1.134242872700e+01 -2.561856478370e+02 0.0 
0.0 0.0 -1.114786020500e+02 
-7.515526195163e+01 -3.956838302177e-01 0.0 
-3.956838302177e-01 -1.627166723559e+02 0.0 
0.0 0.0 -7.096158029227e+01 
-4.827044117726e+01 -3.826742962604e-01 0.0 
-3.826742962604e-01 -1.307008762477e+02 0.0 
0.0 0.0 -5.329139522749e+01 
-4.686441869708e+01 -1.279476878408e+00 0.0 
-1.279476878408e+00 -1.299349915471e+02 0.0 
0.0 0.0 -5.263982307326e+01 
-9.258110922689e+01 -4.570574797888e-01 0.0 
-4.570574797888e-01 -2.058788932544e+02 0.0 
0.0 0.0 -8.913800074440e+01 
-1.239620160006e+02 1.478693719443e+01 0.0 
1.478693719443e+01 -2.924910076524e+02 0.0 
0.0 0.0 -1.245359070959e+02 
-6.379209013275e+01 1.040063986465e+00 0.0 
1.040063986465e+00 -1.273240428395e+02 0.0 
0.0 0.0 -5.693483989169e+01 
-6.640275467084e+01 2.924416956363e-02 0.0 
2.924416956363e-02 -1.422523370020e+02 0.0 
0.0 0.0 -6.219652750184e+01 
-7.324558285376e+01 4.357563181793e-01 0.0 
4.357563181793e-01 -1.581705419721e+02 0.0 
0.0 0.0 -6.902483744776e+01 
-7.562579607517e+01 1.337719025112e+00 0.0 
1.337719025112e+00 -1.638001954229e+02 0.0 
0.0 0.0 -7.142779744943e+01 
-2.314702389563e+01 -2.835223136802e-01 0.0 
-2.835223136802e-01 -6.119520116033e+01 0.0 
0.0 0.0 -2.490266751679e+01 
-4.339317839417e+01 -1.696780866190e+00 0.0 
-1.696780866190e+00 -1.190080446274e+02 0.0 
0.0 0.0 -4.832036690647e+01 
-1.264207449465e+02 2.315079022239e+00 0.0 
2.315079022239e+00 -2.918293303719e+02 0.0 
0.0 0.0 -1.250750225955e+02 
-8.387381573778e+01 1.461393607272e+00 0.0 
1.461393607272e+00 -1.830812599712e+02 0.0 
0.0 0.0 -7.968652271269e+01 
-1.453909846475e+02 1.400628007110e+01 0.0 
1.400628007110e+01 -3.447977585824e+02 0.0 
0.0 0.0 -1.466566229690e+02 
-1.280169762073e+02 1.181444836474e+01 0.0 
1.181444836474e+01 -2.874709104209e+02 0.0 
0.0 0.0 -1.242463659885e+02 
-1.052858345415e+02 1.088806244433e+01 0.0 
1.088806244433e+01 -2.264818893343e+02 0.0 
0.0 0.0 -9.913031716274e+01 
-1.214283180841e+02 5.514047496522e+00 0.0 
5.514047496522e+00 -2.749430155499e+02 0.0 
0.0 0.0 -1.185114000902e+02 
-6.744151629989e+01 -7.725746338062e-01 0.0 
-7.725746338062e-01 -1.772718722089e+02 0.0 
0.0 0.0 -7.301401655263e+01 
-6.106538767454e+01 -9.396710983097e-01 0.0 
-9.396710983097e-01 -1.618339924581e+02 0.0 
0.0 0.0 -6.646981403978e+01 
-1.429914092199e+02 6.194074711298e+00 0.0 
6.194074711298e+00 -3.455404290287e+02 0.0 
0.0 0.0 -1.461595514746e+02 
-1.487661763910e+01 -1.126880857502e+00 0.0 
-1.126880857502e+00 -2.426166294700e+01 0.0 
0.0 0.0 -1.179416884685e+01 
-4.418971111933e+01 -1.825350177625e-01 0.0 
-1.825350177625e-01 -1.151677101281e+02 0.0 
0.0 0.0 -4.740722637423e+01 
-1.465503468563e+02 1.599328315801e+01 0.0 
1.599328315801e+01 -3.432841426647e+02 0.0 
0.0 0.0 -1.465503468563e+02 
-2.193921601195e+01 5.612129485026e-01 0.0 
5.612129485026e-01 -5.764647003470e+01 0.0 
0.0 0.0 -2.347570581400e+01 
-6.643315390854e+01 1.966970961651e-03 0.0 
1.966970961651e-03 -1.423124068093e+02 0.0 
0.0 0.0 -6.222366821536e+01 
-1.379552138301e+02 1.185962513537e+01 0.0 
1.185962513537e+01 -3.348376286732e+02 0.0 
0.0 0.0 -1.414378527510e+02 
-1.760743696530e+01 -1.714644092515e+00 0.0 
-1.714644092515e+00 -3.915563652192e+01 0.0 
0.0 0.0 -1.662892204617e+01 
-1.099629156345e+01 -4.772890524175e-01 0.0 
-4.772890524175e-01 -2.400646290183e+01 0.0 
0.0 0.0 -1.010082633958e+01 
-1.334623671279e+02 4.614784162285e+00 0.0 
4.614784162285e+00 -3.093084548326e+02 0.0 
0.0 0.0 -1.324312465881e+02 
-6.047222335848e+01 -2.272826047970e-01 0.0 
-2.272826047970e-01 -1.256054383918e+02 0.0 
0.0 0.0 -5.542329852507e+01 
-1.253661584441e+02 2.675729260372e+00 0.0 
2.675729260372e+00 -2.881894904156e+02 0.0 
0.0 0.0 -1.236666946579e+02 
-1.384360574961e+02 1.192289046062e+01 0.0 
1.192289046062e+01 -3.324454243498e+02 0.0 
0.0 0.0 -1.408644445538e+02 
-6.019541652116e+01 3.258526891189e-01 0.0 
3.258526891189e-01 -1.253091972888e+02 0.0 
0.0 0.0 -5.525138414299e+01 
-1.880770720631e+01 4.936694489902e-01 0.0 
4.936694489902e-01 -2.202014229701e+01 0.0 
0.0 0.0 -1.184835485100e+01 
-1.248911000029e+02 1.059970008853e+00 0.0 
1.059970008853e+00 -2.903316484948e+02 0.0 
0.0 0.0 -1.241668245493e+02 
-2.441877406944e+01 -2.847506162600e-01 0.0 
-2.847506162600e-01 -6.341598074636e+01 0.0 
0.0 0.0 -2.595042644474e+01 
-1.202696020478e+02 2.492607000340e+00 0.0 
2.492607000340e+00 -2.767112916263e+02 0.0 
0.0 0.0 -1.186942681022e+02 
-1.631303480760e+02 3.640772281837e+00 0.0 
3.640772281837e+00 -3.819708121774e+02 0.0 
0.0 0.0 -1.631303480760e+02 
-1.254103522950e+02 9.873948151550e+00 0.0 
9.873948151550e+00 -2.832513305533e+02 0.0 
0.0 0.0 -1.221985048545e+02 
-2.739254313570e+01 8.274182339330e-02 0.0 
8.274182339330e-02 -7.902077890601e+01 0.0 
0.0 0.0 -3.152399661251e+01 
-7.752613941624e+01 1.892982808633e+00 0.0 
1.892982808633e+00 -1.610195830737e+02 0.0 
0.0 0.0 -7.116371674698e+01 
-6.861588218201e+01 3.133469137607e-01 0.0 
3.133469137607e-01 -1.800971340407e+02 0.0 
0.0 0.0 -7.421390486682e+01 
-1.151226811501e+02 1.416328991220e+01 0.0 
1.416328991220e+01 -2.727933280621e+02 0.0 
0.0 0.0 -1.159748027637e+02 
-1.509688464611e+02 1.627640410622e+01 0.0 
1.627640410622e+01 -3.551958815375e+02 0.0 
0.0 0.0 -1.514494183996e+02 
-1.007966679227e+02 -1.040732324053e-01 0.0 
-1.040732324053e-01 -2.270691078974e+02 0.0 
0.0 0.0 -9.795973274604e+01 
-1.512989868346e+02 1.482548711911e+01 0.0 
1.482548711911e+01 -3.581903455780e+02 0.0 
0.0 0.0 -1.524467997238e+02 
-1.829000734497e+01 -9.465384876211e-01 0.0 
-9.465384876211e-01 -4.025606773095e+01 0.0 
0.0 0.0 -1.716382252278e+01 
-1.538579831190e+02 5.135971491396e+00 0.0 
5.135971491396e+00 -3.662441188837e+02 0.0 
0.0 0.0 -1.556306306008e+02 
-3.143240696394e+01 9.353395033257e-02 0.0 
9.353395033257e-02 -8.922053620055e+01 0.0 
0.0 0.0 -3.579588294935e+01 
-2.186801547475e+01 -8.807796716053e-01 0.0 
-8.807796716053e-01 -5.760789429267e+01 0.0 
0.0 0.0 -2.344277293023e+01 
-1.476891163080e+02 1.149291095817e+01 0.0 
1.149291095817e+01 -3.540682486947e+02 0.0 
0.0 0.0 -1.501272095008e+02 
-1.299046704349e+02 7.190762119448e+00 0.0 
7.190762119448e+00 -2.961786264581e+02 0.0 
0.0 0.0 -1.274249890679e+02 
-1.282976537415e+02 4.972757094640e+00 0.0 
4.972757094640e+00 -2.961748575997e+02 0.0 
0.0 0.0 -1.269417534023e+02 
-6.624837250111e+01 -5.814634715917e-01 0.0 
-5.814634715917e-01 -1.410452970544e+02 0.0 
0.0 0.0 -6.178810086667e+01 
-7.962828167979e+01 2.217686822756e+00 0.0 
2.217686822756e+00 -1.640780416154e+02 0.0 
0.0 0.0 -7.271189698856e+01 
-2.274215085984e+01 1.313319991606e+01 0.0 
1.313319991606e+01 -5.150994753391e+01 0.0 
0.0 0.0 -2.187562951813e+01 
-1.345602846834e+02 1.248070555562e+01 0.0 
1.248070555562e+01 -3.064109318434e+02 0.0 
0.0 0.0 -1.318913649580e+02 
-5.735736056768e+01 -9.131448364002e-01 0.0 
-9.131448364002e-01 -1.505701641310e+02 0.0 
0.0 0.0 -6.197825740960e+01 
-1.783172613669e+01 6.524420186755e+00 0.0 
6.524420186755e+00 -4.153064743537e+01 0.0 
0.0 0.0 -1.740871207162e+01 
-1.193346971766e+02 1.278626118101e+01 0.0 
1.278626118101e+01 -2.854487988297e+02 0.0 
0.0 0.0 -1.210350488019e+02 
-5.942996483440e+01 1.218098605303e-01 0.0 
1.218098605303e-01 -1.249231235742e+02 0.0 
0.0 0.0 -5.490592652259e+01 
-1.237195577659e+02 5.997676348122e+00 0.0 
5.997676348122e+00 -2.822103442670e+02 0.0 
0.0 0.0 -1.213789706098e+02 
-1.313426009341e+02 7.954198016262e-01 0.0 
7.954198016262e-01 -3.056365945584e+02 0.0 
0.0 0.0 -1.306937586477e+02 
-1.314002566354e+02 3.244211431869e-01 0.0 
3.244211431869e-01 -3.079339321493e+02 0.0 
0.0 0.0 -1.314002566354e+02 
-2.862047483057e+00 3.270739150953e-01 0.0 
3.270739150953e-01 -6.641473554606e+00 0.0 
0.0 0.0 -2.451056311299e+00 
-5.040026985894e+00 -2.732067243030e-01 0.0 
-2.732067243030e-01 -1.042197864693e+01 0.0 
0.0 0.0 -4.875108240008e+00 
-6.001383596745e+01 6.685238325186e-01 0.0 
6.685238325186e-01 -1.273644061095e+02 0.0 
0.0 0.0 -5.581347262309e+01 
-5.865020220550e+01 -1.053014175266e-01 0.0 
-1.053014175266e-01 -1.248589136212e+02 0.0 
0.0 0.0 -5.465273474802e+01 
-1.637484424557e+02 4.561788846433e-01 0.0 
4.561788846433e-01 -3.834130323966e+02 0.0 
0.0 0.0 -1.637484424557e+02 
-1.611899609905e+02 -6.412369126368e-01 0.0 
-6.412369126368e-01 -3.804844348754e+02 0.0 
0.0 0.0 -1.621023187598e+02 
-9.469278346051e+00 -7.065401746663e-01 0.0 
-7.065401746663e-01 -2.301576877405e+01 0.0 
0.0 0.0 -9.345514136029e+00 
-1.385272300094e+01 -4.096611200070e-01 0.0 
-4.096611200070e-01 -8.247855701015e+00 0.0 
0.0 0.0 -7.130599957792e+00 
-1.463207802754e+02 2.088260795955e+00 0.0 
2.088260795955e+00 -3.510078070363e+02 0.0 
0.0 0.0 -1.487985761935e+02 
-1.310333929309e+02 1.369604437300e+01 0.0 
1.369604437300e+01 -3.065266494323e+02 0.0 
0.0 0.0 -1.308680127090e+02 
-2.909124011839e+01 -4.591985061722e-01 0.0 
-4.591985061722e-01 -7.418837630913e+01 0.0 
0.0 0.0 -3.058388492826e+01 
-1.473435143465e+02 5.408092725158e+00 0.0 
5.408092725158e+00 -3.529048833299e+02 0.0 
0.0 0.0 -1.496745193029e+02 
-9.981609625124e+01 3.280045344287e-01 0.0 
3.280045344287e-01 -2.531831585291e+02 0.0 
0.0 0.0 -1.054997764341e+02 
-8.463666927380e+01 7.930555304558e-01 0.0 
7.930555304558e-01 -2.188320824212e+02 0.0 
0.0 0.0 -9.064062550851e+01 
-8.740846123332e+01 9.060178427897e-02 0.0 
9.060178427897e-02 -1.929693926001e+02 0.0 
0.0 0.0 -8.371335615002e+01 
-2.689993591016e+01 -1.677728317570e+00 0.0 
-1.677728317570e+00 -6.896972949566e+01 0.0 
0.0 0.0 -2.836089962175e+01 
-1.066249646446e+02 1.404924427738e+01 0.0 
1.404924427738e+01 -2.537560027676e+02 0.0 
0.0 0.0 -1.077142902236e+02 
-2.380705427488e+01 -1.047062146695e+00 0.0 
-1.047062146695e+00 -5.954949132492e+01 0.0 
0.0 0.0 -2.460696367994e+01 
-7.670156230084e+01 7.211472167509e-01 0.0 
7.211472167509e-01 -1.991454955403e+02 0.0 
0.0 0.0 -8.235411735235e+01 
-1.280050659056e+02 1.087944761780e+01 0.0 
1.087944761780e+01 -2.921819480190e+02 0.0 
0.0 0.0 -1.256561041774e+02 
-1.160005314977e+02 8.994648072666e-01 0.0 
8.994648072666e-01 -2.657925503784e+02 0.0 
0.0 0.0 -1.141379245628e+02 
-8.475055344623e+01 -3.686582558026e-01 0.0 
-3.686582558026e-01 -2.179549851166e+02 0.0 
0.0 0.0 -9.041166156886e+01 
-7.898480238100e+01 9.279998025108e-01 0.0 
9.279998025108e-01 -1.725157351826e+02 0.0 
0.0 0.0 -7.505016126908e+01 
-1.313411524519e+02 1.424147647103e+01 0.0 
1.424147647103e+01 -3.030142872972e+02 0.0 
0.0 0.0 -1.299066319247e+02 
-1.202358831610e+02 1.218531395793e+01 0.0 
1.218531395793e+01 -2.664050150176e+02 0.0 
0.0 0.0 -1.155922694536e+02 
-1.127800377864e+02 1.155099443037e+01 0.0 
1.155099443037e+01 -2.463827325152e+02 0.0 
0.0 0.0 -1.073488310905e+02 
-5.986645800743e+01 4.207882194546e-02 0.0 
4.207882194546e-02 -1.255456670432e+02 0.0 
0.0 0.0 -5.522363751520e+01 
-1.021718067486e+02 1.371975572533e+01 0.0 
1.371975572533e+01 -2.469511384730e+02 0.0 
0.0 0.0 -1.043368835665e+02 
-1.234846118045e+02 7.329301368526e+00 0.0 
7.329301368526e+00 -2.812823024483e+02 0.0 
0.0 0.0 -1.210300742759e+02 
-4.316330321565e+01 -8.196650429679e-01 0.0 
-8.196650429679e-01 -1.145786926615e+02 0.0 
0.0 0.0 -4.692259876315e+01 
-1.431366231749e+01 -9.726667804836e-01 0.0 
-9.726667804836e-01 -2.511835849692e+01 0.0 
0.0 0.0 -1.142960624432e+01 
-1.264369927531e+02 1.415706515055e+01 0.0 
1.415706515055e+01 -2.891232703527e+02 0.0 
0.0 0.0 -1.242680789318e+02 
-1.231123151386e+02 1.052727730927e+01 0.0 
1.052727730927e+01 -3.032215105098e+02 0.0 
0.0 0.0 -1.275001476945e+02 
-2.287135213318e+01 -1.469898670054e+00 0.0 
-1.469898670054e+00 -5.749174621065e+01 0.0 
0.0 0.0 -2.370892950315e+01 
-9.314142702834e+01 9.784189112784e-01 0.0 
9.784189112784e-01 -2.070981398079e+02 0.0 
0.0 0.0 -8.967187005087e+01 
-1.542510063283e+02 2.849560777805e+00 0.0 
2.849560777805e+00 -3.655567430643e+02 0.0 
0.0 0.0 -1.555423248178e+02 
-1.260632993583e+02 1.334428361927e+01 0.0 
1.334428361927e+01 -2.930639614119e+02 0.0 
0.0 0.0 -1.253381782311e+02 
-1.320032135111e+02 1.498077777537e+01 0.0 
1.498077777537e+01 -3.056873929707e+02 0.0 
0.0 0.0 -1.309071819445e+02 
-1.087906201674e+02 1.038061945938e+00 0.0 
1.038061945938e+00 -2.732658449102e+02 0.0 
0.0 0.0 -1.142169395233e+02 
-1.374160893729e+01 3.591181847401e+00 0.0 
3.591181847401e+00 -2.151842513714e+01 0.0 
0.0 0.0 -1.045480127155e+01 
-1.099010755827e+01 4.781448045587e+00 0.0 
4.781448045587e+00 -1.290404409723e+01 0.0 
0.0 0.0 -6.768245496649e+00 
-2.759635780349e+01 1.553573636711e+01 0.0 
1.553573636711e+01 -5.533175896866e+01 0.0 
0.0 0.0 -2.447843503164e+01 
-7.804835290159e+01 1.957629948549e+00 0.0 
1.957629948549e+00 -1.609899105686e+02 0.0 
0.0 0.0 -7.131147904106e+01 
-1.020871349434e+02 1.210636438526e+01 0.0 
1.210636438526e+01 -2.466369894004e+02 0.0 
0.0 0.0 -1.042172373032e+02 
-1.213780777271e+02 2.957564743734e+00 0.0 
2.957564743734e+00 -2.789877034206e+02 0.0 
0.0 0.0 -1.197097343443e+02 
-1.453029861034e+02 1.275599867263e+01 0.0 
1.275599867263e+01 -3.449937495611e+02 0.0 
0.0 0.0 -1.466890206993e+02 
-2.077176032806e+01 -1.564057024241e+00 0.0 
-1.564057024241e+00 -4.164207716372e+01 0.0 
0.0 0.0 -1.832415124753e+01 
-1.930769530010e+01 -1.947224530227e+00 0.0 
-1.947224530227e+00 -4.041023461688e+01 0.0 
0.0 0.0 -1.751537897510e+01 
-1.538119572838e+01 1.109369638820e+01 0.0 
1.109369638820e+01 -1.674579688438e+01 0.0 
0.0 0.0 -9.238097783826e+00 
-9.540403449338e+01 -4.700918243542e-01 0.0 
-4.700918243542e-01 -2.127226906575e+02 0.0 
0.0 0.0 -9.203801754526e+01 
-5.328909762308e+01 1.191375643419e-01 0.0 
1.191375643419e-01 -1.403424377887e+02 0.0 
0.0 0.0 -5.768946062355e+01 
-1.243833544195e+02 6.226307670490e+00 0.0 
6.226307670490e+00 -2.829705030148e+02 0.0 
0.0 0.0 -1.218061572303e+02 
-2.770099916836e+01 4.021993509718e-02 0.0 
4.021993509718e-02 -7.110265517125e+01 0.0 
0.0 0.0 -2.924109630188e+01 
-1.363375727287e+02 1.211055225681e+01 0.0 
1.211055225681e+01 -3.278665769786e+02 0.0 
0.0 0.0 -1.388612449122e+02 
-7.478851944308e+01 1.798773895813e-01 0.0 
1.798773895813e-01 -1.584414347121e+02 0.0 
0.0 0.0 -6.956898624654e+01 
-1.418144336764e+02 1.491311936927e+01 0.0 
1.491311936927e+01 -3.326085935286e+02 0.0 
0.0 0.0 -1.419269081615e+02 
-1.196658333187e+02 1.479902344482e+01 0.0 
1.479902344482e+01 -2.805539490852e+02 0.0 
0.0 0.0 -1.196659347212e+02 
-7.895717070727e+01 2.906050781170e+00 0.0 
2.906050781170e+00 -1.614643578261e+02 0.0 
0.0 0.0 -7.172645856002e+01 
-1.490690904056e+02 9.591179468726e+00 0.0 
9.591179468726e+00 -3.577747339309e+02 0.0 
0.0 0.0 -1.516531473010e+02 
-1.290187507980e+02 6.014117695766e+00 0.0 
6.014117695766e+00 -2.957171851790e+02 0.0 
0.0 0.0 -1.270207807931e+02 
-1.263966305935e+02 2.850200348229e-01 0.0 
2.850200348229e-01 -2.918090702736e+02 0.0 
0.0 0.0 -1.250617102601e+02 
-1.759292022626e+01 1.220465753195e+01 0.0 
1.220465753195e+01 -1.680394663780e+01 0.0 
0.0 0.0 -9.919060059219e+00 
-1.203744453485e+02 4.045943578238e+00 0.0 
4.045943578238e+00 -2.743336433733e+02 0.0 
0.0 0.0 -1.180124266166e+02 
-1.353624862133e+02 1.383979049208e+01 0.0 
1.383979049208e+01 -3.143520470129e+02 0.0 
0.0 0.0 -1.345143599679e+02 
-1.362490660009e+02 1.324133382771e+01 0.0 
1.324133382771e+01 -3.285067734447e+02 0.0 
0.0 0.0 -1.390267518337e+02 
-1.228552698038e+02 1.286843234247e+01 0.0 
1.286843234247e+01 -2.913923297265e+02 0.0 
0.0 0.0 -1.238742798591e+02 
-1.620867259280e+02 6.019628668973e+00 0.0 
6.019628668973e+00 -3.795356938321e+02 0.0 
0.0 0.0 -1.620867259280e+02 
-1.113162394609e+02 9.256040599928e+00 0.0 
9.256040599928e+00 -2.453117226681e+02 0.0 
0.0 0.0 -1.065883886387e+02 
-1.342781235738e+01 3.213801633533e+00 0.0 
3.213801633533e+00 -9.175311541086e+00 0.0 
0.0 0.0 -7.332680070065e+00 
-1.983414138190e+01 9.244082644453e+00 0.0 
9.244082644453e+00 -4.564235456293e+01 0.0 
0.0 0.0 -1.924294878345e+01 
-1.235119464841e+02 1.184925785061e+01 0.0 
1.184925785061e+01 -2.758932436963e+02 0.0 
0.0 0.0 -1.194215570541e+02 
-8.348111113375e+01 1.714573489637e+00 0.0 
1.714573489637e+00 -1.756578541743e+02 0.0 
0.0 0.0 -7.734168959243e+01 
-1.462610676215e+02 2.239045946933e+00 0.0 
2.239045946933e+00 -3.507337406305e+02 0.0 
0.0 0.0 -1.486984424756e+02 
-1.281862290729e+02 1.515009174132e+01 0.0 
1.515009174132e+01 -2.999169601115e+02 0.0 
0.0 0.0 -1.280309567553e+02 
-1.546078649298e+02 5.437625323036e+00 0.0 
5.437625323036e+00 -3.659751921811e+02 0.0 
0.0 0.0 -1.557749171333e+02 
-1.038437543412e+02 -1.028124977231e-01 0.0 
-1.028124977231e-01 -2.335605985934e+02 0.0 
0.0 0.0 -1.008213058804e+02 
-1.429567131031e+02 1.475235814901e+01 0.0 
1.475235814901e+01 -3.361756937154e+02 0.0 
0.0 0.0 -1.433397220455e+02 
-1.441178168031e+02 8.801184102237e+00 0.0 
8.801184102237e+00 -3.466091275793e+02 0.0 
0.0 0.0 -1.468180833147e+02 
-1.432816140996e+02 7.654137651134e+00 0.0 
7.654137651134e+00 -3.461032454717e+02 0.0 
0.0 0.0 -1.464154578714e+02 
-5.550597595904e+01 1.117793446418e-02 0.0 
1.117793446418e-02 -1.457699274638e+02 0.0 
0.0 0.0 -5.998277102685e+01 
-1.608505889020e+02 5.191352329526e+00 0.0 
5.191352329526e+00 -3.802650973013e+02 0.0 
0.0 0.0 -1.619347058610e+02 
-6.895700048017e+01 8.781233537108e-01 0.0 
8.781233537108e-01 -1.423356586891e+02 0.0 
0.0 0.0 -6.298779775078e+01 
-1.193950607397e+02 1.981226103743e+00 0.0 
1.981226103743e+00 -2.735736971658e+02 0.0 
0.0 0.0 -1.174906273717e+02 
-1.790212538901e+01 -1.556093972388e+00 0.0 
-1.556093972388e+00 -4.112248011479e+01 0.0 
0.0 0.0 -1.730738165114e+01 
-1.138736423295e+02 1.073637557557e+00 0.0 
1.073637557557e+00 -2.587601470529e+02 0.0 
0.0 0.0 -1.113901368147e+02 
-9.415114193595e+01 6.313626252460e-01 0.0 
6.313626252460e-01 -2.089297533985e+02 0.0 
0.0 0.0 -9.052426860033e+01 
-1.643420776853e+01 1.490905341895e-01 0.0 
1.490905341895e-01 -4.205098069507e+01 0.0 
0.0 0.0 -1.714555653908e+01 
-2.646612723582e+01 7.806193775117e-01 0.0 
7.806193775117e-01 -7.095824832079e+01 0.0 
0.0 0.0 -2.882731266698e+01 
-1.151325234282e+02 1.014660947091e+01 0.0 
1.014660947091e+01 -2.565304905368e+02 0.0 
0.0 0.0 -1.110989041895e+02 
-1.256905470824e+02 3.330710506576e+00 0.0 
3.330710506576e+00 -2.915315919280e+02 0.0 
0.0 0.0 -1.247666417031e+02 
-1.200110560459e+02 1.290878726814e+00 0.0 
1.290878726814e+00 -2.762076828715e+02 0.0 
0.0 0.0 -1.184656216752e+02 
-1.407822795373e+02 1.396452089922e+01 0.0 
1.396452089922e+01 -3.344650881647e+02 0.0 
0.0 0.0 -1.421742103106e+02 
-7.900259154740e+01 -4.633198594730e-01 0.0 
-4.633198594730e-01 -1.719926956306e+02 0.0 
0.0 0.0 -7.489858615340e+01 
-1.271595701146e+01 -1.106385503255e+00 0.0 
-1.106385503255e+00 -2.461733916823e+01 0.0 
0.0 0.0 -1.079998885391e+01 
-1.834614024976e+01 2.103075707719e+00 0.0 
2.103075707719e+00 -3.513709285408e+01 0.0 
0.0 0.0 -1.564496993115e+01 
-1.267948401397e+01 -1.701044223666e+00 0.0 
-1.701044223666e+00 -2.812764591488e+01 0.0 
0.0 0.0 -1.183355383579e+01 
-2.319874359356e+01 -1.340063032109e+00 0.0 
-1.340063032109e+00 -5.451202776726e+01 0.0 
0.0 0.0 -2.291323140825e+01 
-1.336925601008e+01 6.695656899823e+00 0.0 
6.695656899823e+00 -6.927937782960e+00 0.0 
0.0 0.0 -5.884779937232e+00 
-7.479596277935e+01 -5.015329952852e-01 0.0 
-5.015329952852e-01 -1.942229118780e+02 0.0 
0.0 0.0 -8.030566239721e+01 
-1.460174146757e+02 8.077103961225e-01 0.0 
8.077103961225e-01 -3.505858678480e+02 0.0 
0.0 0.0 -1.485809847571e+02 
-1.249920156111e+02 8.476203603711e+00 0.0 
8.476203603711e+00 -2.833574740024e+02 0.0 
0.0 0.0 -1.221048468840e+02 
-8.569704747951e+01 4.312370641658e+00 0.0 
4.312370641658e+00 -1.762726519050e+02 0.0 
0.0 0.0 -7.819090981536e+01 
-6.471605708313e+01 7.112368269154e-01 0.0 
7.112368269154e-01 -1.701977277174e+02 0.0 
0.0 0.0 -7.007413544016e+01 
-1.435761431881e+02 7.364844271464e+00 0.0 
7.364844271464e+00 -3.463562067548e+02 0.0 
0.0 0.0 -1.465797049828e+02 
-1.374975243554e+02 9.664663162612e+00 0.0 
9.664663162612e+00 -3.349466880873e+02 0.0 
0.0 0.0 -1.413332637328e+02 
-1.408300475991e+02 1.540832017592e+01 0.0 
1.540832017592e+01 -3.316863237399e+02 0.0 
0.0 0.0 -1.413549114017e+02 
-1.308647390864e+02 1.380292013217e+01 0.0 
1.380292013217e+01 -3.019795470247e+02 0.0 
0.0 0.0 -1.294532858333e+02 
-1.221674134122e+02 1.088784287989e+01 0.0 
1.088784287989e+01 -2.759333142282e+02 0.0 
0.0 0.0 -1.190302182921e+02 
-1.738736629132e+01 -1.842967747032e+00 0.0 
-1.842967747032e+00 -4.050459232864e+01 0.0 
0.0 0.0 -1.696758758599e+01 
-2.059612089078e+01 -2.544652426627e-01 0.0 
-2.544652426627e-01 -3.568167656002e+01 0.0 
0.0 0.0 -1.648333923524e+01 
-1.462615940829e+02 3.147713120857e+00 0.0 
3.147713120857e+00 -3.514780460111e+02 0.0 
0.0 0.0 -1.489218920282e+02 
-1.538569985840e+01 -3.504348002327e-01 0.0 
-3.504348002327e-01 -4.124858923721e+01 0.0 
0.0 0.0 -1.659028672868e+01 
-1.872742422232e+01 -1.097416889042e+00 0.0 
-1.097416889042e+00 -4.915002854598e+01 0.0 
0.0 0.0 -1.996323583049e+01 
-1.583227660992e+01 8.316991898041e+00 0.0 
8.316991898041e+00 -2.516098652830e+01 0.0 
0.0 0.0 -1.189797894147e+01 
-1.656085669278e+01 -7.482803148930e-01 0.0 
-7.482803148930e-01 -3.866477457359e+01 0.0 
0.0 0.0 -1.616768937991e+01 
-1.516111938394e+02 8.638210597382e+00 0.0 
8.638210597382e+00 -3.599653343972e+02 0.0 
0.0 0.0 -1.530729584710e+02 
-1.339395161469e+02 1.315006405913e+01 0.0 
1.315006405913e+01 -3.095601715948e+02 0.0 
0.0 0.0 -1.326499063225e+02 
-1.208514805987e+02 1.435809363754e+00 0.0 
1.435809363754e+00 -2.788876964072e+02 0.0 
0.0 0.0 -1.195217531018e+02 
-1.409168991728e+02 1.508487615340e+01 0.0 
1.508487615340e+01 -3.308112173993e+02 0.0 
0.0 0.0 -1.411184349716e+02 
-1.330150254599e+02 1.098181030673e+01 0.0 
1.098181030673e+01 -3.239368688924e+02 0.0 
0.0 0.0 -1.366855683057e+02 
-8.374282168971e+01 -5.088461905487e-01 0.0 
-5.088461905487e-01 -1.832857548175e+02 0.0 
0.0 0.0 -7.970857295216e+01 
-1.322396652924e+02 4.484668591842e+00 0.0 
4.484668591842e+00 -3.098925523488e+02 0.0 
0.0 0.0 -1.322396652924e+02 
-3.325202418316e+01 -3.857003361765e-01 0.0 
-3.857003361765e-01 -9.002334919214e+01 0.0 
0.0 0.0 -3.658261201259e+01 
-6.010586915532e+01 1.068563164671e-01 0.0 
1.068563164671e-01 -1.247256725845e+02 0.0 
0.0 0.0 -5.504946252196e+01 
-2.443683117225e+01 -1.968411321165e+00 0.0 
-1.968411321165e+00 -5.570130613007e+01 0.0 
0.0 0.0 -2.364144119070e+01 
-1.054695817369e+01 -8.461894836827e-01 0.0 
-8.461894836827e-01 -2.435868616921e+01 0.0 
0.0 0.0 -1.061855318335e+01 
-1.612338960247e+02 3.355234059668e+00 0.0 
3.355234059668e+00 -3.810815792733e+02 0.0 
0.0 0.0 -1.622946425894e+02 
-7.193849002874e+01 2.202554632746e+00 0.0 
2.202554632746e+00 -1.459166040082e+02 0.0 
0.0 0.0 -6.495652821108e+01 
-2.276284890118e+01 -7.511258699535e-01 0.0 
-7.511258699535e-01 -5.727684571421e+01 0.0 
0.0 0.0 -2.361190838462e+01 
-7.124203606038e+01 -9.848014549013e-01 0.0 
-9.848014549013e-01 -1.868356427011e+02 0.0 
0.0 0.0 -7.702330362845e+01 
-1.353599532664e+02 1.296383008700e+01 0.0 
1.296383008700e+01 -3.099670479223e+02 0.0 
0.0 0.0 -1.331981003566e+02 
-1.214359094824e+02 3.775963697117e+00 0.0 
3.775963697117e+00 -2.777642484186e+02 0.0 
0.0 0.0 -1.193600473703e+02 
-1.282162588477e+02 7.174981352115e+00 0.0 
7.174981352115e+00 -2.963251675647e+02 0.0 
0.0 0.0 -1.269624279237e+02 
-5.082942547494e+01 1.940665294647e-01 0.0 
1.940665294647e-01 -1.331562530982e+02 0.0 
0.0 0.0 -5.479570357196e+01 
-1.867693252498e+01 8.182527441873e-01 0.0 
8.182527441873e-01 -3.581062264744e+01 0.0 
0.0 0.0 -1.594626655172e+01 
-1.521489717529e+02 6.306514319168e+00 0.0 
6.306514319168e+00 -3.639718525681e+02 0.0 
0.0 0.0 -1.544362472963e+02 
-1.328330422761e+02 3.333637997536e-01 0.0 
3.333637997536e-01 -3.083916600492e+02 0.0 
0.0 0.0 -1.319674106976e+02 
-1.616582587608e+02 8.106980917414e-01 0.0 
8.106980917414e-01 -3.823664256333e+02 0.0 
0.0 0.0 -1.628074053182e+02 
-6.502424296580e+01 -4.935552031015e-01 0.0 
-4.935552031015e-01 -1.392702844216e+02 0.0 
0.0 0.0 -6.088835821623e+01 
-1.404702440521e+02 1.076169219838e+01 0.0 
1.076169219838e+01 -3.374149515087e+02 0.0 
0.0 0.0 -1.429655586682e+02 
-2.262358159986e+01 -4.454623953906e-01 0.0 
-4.454623953906e-01 -5.838285873886e+01 0.0 
0.0 0.0 -2.390193210162e+01 
-1.234511855432e+02 4.783882622905e+00 0.0 
4.783882622905e+00 -2.827387522312e+02 0.0 
0.0 0.0 -1.214569813323e+02 
-1.067339941242e+01 -7.576828417244e-01 0.0 
-7.576828417244e-01 -2.337291325899e+01 0.0 
0.0 0.0 -1.032165154896e+01 
-1.503923303989e+02 1.025513037685e+01 0.0 
1.025513037685e+01 -3.571158809068e+02 0.0 
0.0 0.0 -1.518524633917e+02 
-1.295818722844e+02 7.320505924940e+00 0.0 
7.320505924940e+00 -2.963617971550e+02 0.0 
0.0 0.0 -1.273831008318e+02 
-1.426478899151e+01 1.506569658889e+00 0.0 
1.506569658889e+00 -2.262810710121e+01 0.0 
0.0 0.0 -1.117714036244e+01 
-1.268883330894e+02 1.483358155553e+01 0.0 
1.483358155553e+01 -2.941783406000e+02 0.0 
0.0 0.0 -1.259200021068e+02 
-1.000262570732e+02 1.370179495794e+00 0.0 
1.370179495794e+00 -2.235645456156e+02 0.0 
0.0 0.0 -9.667724080663e+01 
-1.259068512261e+02 2.523810675600e+00 0.0 
2.523810675600e+00 -2.925150557707e+02 0.0 
0.0 0.0 -1.251265720991e+02 
-1.530153227507e+02 1.506582706247e+01 0.0 
1.506582706247e+01 -3.583690864182e+02 0.0 
0.0 0.0 -1.530153227507e+02 
-8.877616909732e+01 1.369861317516e+00 0.0 
1.369861317516e+00 -1.967623705966e+02 0.0 
0.0 0.0 -8.526156190818e+01 
-1.331460925817e+02 1.211597825189e+01 0.0 
1.211597825189e+01 -3.079879391242e+02 0.0 
0.0 0.0 -1.319402095117e+02 
-1.250965236642e+02 7.515288682535e+00 0.0 
7.515288682535e+00 -2.835310260733e+02 0.0 
0.0 0.0 -1.221882649212e+02 
-9.328945766739e+01 3.765832127101e-01 0.0 
3.765832127101e-01 -2.083485603092e+02 0.0 
0.0 0.0 -9.009140539298e+01 
-1.296068049900e+02 1.197719707063e+01 0.0 
1.197719707063e+01 -2.960289636954e+02 0.0 
0.0 0.0 -1.272907306056e+02 
-6.104649864845e+01 1.514787083644e-01 0.0 
1.514787083644e-01 -1.595871588644e+02 0.0 
0.0 0.0 -6.579009725386e+01 
-5.898545062306e+01 1.248613018745e-01 0.0 
1.248613018745e-01 -1.247884061195e+02 0.0 
0.0 0.0 -5.473215702277e+01 
-1.347476049677e+02 1.428074407015e+01 0.0 
1.428074407015e+01 -3.173244709024e+02 0.0 
0.0 0.0 -1.352216227610e+02 
-1.265475140551e+02 -1.647969481181e-01 0.0 
-1.647969481181e-01 -2.937030581383e+02 0.0 
0.0 0.0 -1.256751716580e+02 
-4.219442852788e+00 1.048776097487e-01 0.0 
1.048776097487e-01 -8.546140175720e+00 0.0 
0.0 0.0 -4.354923731719e+00 
-5.883736420735e+01 -2.154957840327e-01 0.0 
-2.154957840327e-01 -1.250396693509e+02 0.0 
0.0 0.0 -5.476311006748e+01 
-1.560757506127e+02 9.818825021839e-01 0.0 
9.818825021839e-01 -3.698830741351e+02 0.0 
0.0 0.0 -1.573876474244e+02 
-2.825442027990e+01 -1.482514495557e+00 0.0 
-1.482514495557e+00 -7.321397026817e+01 0.0 
0.0 0.0 -3.004051716442e+01 
-1.369279373883e+02 1.218534823424e+01 0.0 
1.218534823424e+01 -3.325026513630e+02 0.0 
0.0 0.0 -1.404291766254e+02 
-1.260783170972e+02 8.768264345430e+00 0.0 
8.768264345430e+00 -2.832644959062e+02 0.0 
0.0 0.0 -1.224028439010e+02 
-1.263501972702e+02 2.795904012453e+00 0.0 
2.795904012453e+00 -2.915603159688e+02 0.0 
0.0 0.0 -1.249731539717e+02 
-2.729812846921e+01 -1.139436778099e+00 0.0 
-1.139436778099e+00 -7.041431525729e+01 0.0 
0.0 0.0 -2.891373311795e+01 
-1.944631639821e+01 6.616324723098e+00 0.0 
6.616324723098e+00 -4.128046873526e+01 0.0 
0.0 0.0 -1.781803554004e+01 
-8.806651549400e+01 -1.310429649749e+00 0.0 
-1.310429649749e+00 -2.273721007331e+02 0.0 
0.0 0.0 -9.423158486812e+01 
-1.075525034592e+02 1.559117924871e-01 0.0 
1.559117924871e-01 -2.447037378859e+02 0.0 
0.0 0.0 -1.052768724035e+02 
-1.756438624728e+01 -5.325120419297e-01 0.0 
-5.325120419297e-01 -5.814578162408e+00 0.0 
0.0 0.0 -6.613689322908e+00 
-1.277489464659e+02 5.951509526689e+00 0.0 
5.951509526689e+00 -2.957969874182e+02 0.0 
0.0 0.0 -1.266637801652e+02 
-8.616685923087e+01 1.276600053951e-01 0.0 
1.276600053951e-01 -1.907481399870e+02 0.0 
0.0 0.0 -8.267449976535e+01 
-2.780144131495e+01 -1.323722953907e+00 0.0 
-1.323722953907e+00 -6.929425115573e+01 0.0 
0.0 0.0 -2.872870774120e+01 
-8.056404622877e+01 1.101065341458e-01 0.0 
1.101065341458e-01 -1.769411450288e+02 0.0 
0.0 0.0 -7.685155737728e+01 
-1.400762729374e+02 1.630126722762e+01 0.0 
1.630126722762e+01 -3.273175172615e+02 0.0 
0.0 0.0 -1.398181370597e+02 
-9.294056122837e+01 1.204696428218e+00 0.0 
1.204696428218e+00 -2.380183049940e+02 0.0 
0.0 0.0 -9.888765986672e+01 
-1.414347273351e+01 6.940874072459e+00 0.0 
6.940874072459e+00 -1.103086750919e+01 0.0 
0.0 0.0 -7.126299397434e+00 
-5.436924965835e+01 -9.885409378959e-01 0.0 
-9.885409378959e-01 -1.448744466494e+02 0.0 
0.0 0.0 -5.937310889232e+01 
-8.050330947620e+01 -2.831016909804e-01 0.0 
-2.831016909804e-01 -2.090379984586e+02 0.0 
0.0 0.0 -8.646239238043e+01 
-9.718872680178e+01 -1.337380277217e+00 0.0 
-1.337380277217e+00 -2.470598974569e+02 0.0 
0.0 0.0 -1.028745872776e+02 
-1.365712772847e+02 1.514757710779e+01 0.0 
1.514757710779e+01 -3.227193508438e+02 0.0 
0.0 0.0 -1.373871884385e+02 
-7.825579687528e+01 6.739752256134e-01 0.0 
6.739752256134e-01 -2.037683149440e+02 0.0 
0.0 0.0 -8.420723354578e+01 
-8.381133945463e+01 -2.130724869519e-01 0.0 
-2.130724869519e-01 -2.162829894195e+02 0.0 
0.0 0.0 -8.962829866224e+01 
-1.559582586793e+01 -1.337003149557e+00 0.0 
-1.337003149557e+00 -3.713567202290e+01 0.0 
0.0 0.0 -1.541944936725e+01 
-1.466588865174e+02 4.498883509999e+00 0.0 
4.498883509999e+00 -3.529054582366e+02 0.0 
0.0 0.0 -1.494693034262e+02 
-1.256372834858e+02 1.276417677829e+01 0.0 
1.276417677829e+01 -2.889928538007e+02 0.0 
0.0 0.0 -1.239890411860e+02 
-1.981731733053e+01 7.063272435737e+00 0.0 
7.063272435737e+00 -5.270632677559e+01 0.0 
0.0 0.0 -2.135709323184e+01 
-1.263283700851e+02 6.882565805761e-01 0.0 
6.882565805761e-01 -2.930659503267e+02 0.0 
0.0 0.0 -1.254182961235e+02 
-1.560613087158e+02 -1.260791231411e-02 0.0 
-1.260791231411e-02 -3.694509784197e+02 0.0 
0.0 0.0 -1.572536861407e+02 
-6.546866771133e+01 6.452260844629e-01 0.0 
6.452260844629e-01 -1.403076500334e+02 0.0 
0.0 0.0 -6.133289532343e+01 
-8.641711549302e+01 1.170106894188e-01 0.0 
1.170106894188e-01 -1.908338097451e+02 0.0 
0.0 0.0 -8.277527757144e+01 
-7.846914921914e+01 -5.934185623549e-01 0.0 
-5.934185623549e-01 -2.036569800713e+02 0.0 
0.0 0.0 -8.423783878713e+01 
-8.132982186942e+01 4.740778103024e-01 0.0 
4.740778103024e-01 -2.098921715641e+02 0.0 
0.0 0.0 -8.696659803006e+01 
-8.363616641785e+01 2.293742626554e-01 0.0 
2.293742626554e-01 -2.166817467797e+02 0.0 
0.0 0.0 -8.969537395927e+01 
-1.313837089365e+02 1.120967211871e+01 0.0 
1.120967211871e+01 -3.197022246856e+02 0.0 
0.0 0.0 -1.349257800867e+02 
-2.247464694699e+01 -2.088246825777e+00 0.0 
-2.088246825777e+00 -5.633050700402e+01 0.0 
0.0 0.0 -2.324154618530e+01 
-1.308885957152e+02 1.458137828133e+01 0.0 
1.458137828133e+01 -2.992922393265e+02 0.0 
0.0 0.0 -1.286542505125e+02 
-7.241542301368e+01 -1.374408420021e-01 0.0 
-1.374408420021e-01 -1.571219281612e+02 0.0 
0.0 0.0 -6.846120535247e+01 
-1.287617788285e+02 6.124244131149e+00 0.0 
6.124244131149e+00 -2.947744683172e+02 0.0 
0.0 0.0 -1.266608741437e+02 
-1.321586561617e+02 1.204557100935e+01 0.0 
1.204557100935e+01 -3.198830129809e+02 0.0 
0.0 0.0 -1.352125007428e+02 
-8.160102778521e+01 6.557838332272e-01 0.0 
6.557838332272e-01 -1.777170742358e+02 0.0 
0.0 0.0 -7.739543060631e+01 
-1.246736799428e+02 1.098979616421e+01 0.0 
1.098979616421e+01 -2.827989278010e+02 0.0 
0.0 0.0 -1.218417823231e+02 
-1.353366399073e+02 1.381023342730e+01 0.0 
1.381023342730e+01 -3.215350432583e+02 0.0 
0.0 0.0 -1.366615049497e+02 
-1.415406799374e+02 1.575161508605e+01 0.0 
1.575161508605e+01 -3.343957233892e+02 0.0 
0.0 0.0 -1.423809209980e+02 
-1.434717631157e+01 6.438779044899e+00 0.0 
6.438779044899e+00 -1.799330940672e+01 0.0 
0.0 0.0 -9.516178576547e+00 
-1.258254732559e+02 1.234143210441e+01 0.0 
1.234143210441e+01 -2.835041367433e+02 0.0 
0.0 0.0 -1.223988829997e+02 
-1.296480566881e+02 1.184598356894e+01 0.0 
1.184598356894e+01 -2.954315821388e+02 0.0 
0.0 0.0 -1.271238916481e+02 
-1.654308041382e+01 -4.385231151728e-01 0.0 
-4.385231151728e-01 -3.820652787014e+01 0.0 
0.0 0.0 -1.602488248519e+01 
-7.443113607665e+01 3.852686519389e-01 0.0 
3.852686519389e-01 -1.937987699334e+02 0.0 
0.0 0.0 -8.006897180302e+01 
-1.568791557538e+01 5.021159129052e+00 0.0 
5.021159129052e+00 -1.737409912557e+01 0.0 
0.0 0.0 -9.518604410286e+00 
-1.302080570537e+02 1.250546805998e+01 0.0 
1.250546805998e+01 -2.945674276337e+02 0.0 
0.0 0.0 -1.270326454062e+02 
-1.025429206006e+01 4.491643468372e-01 0.0 
4.491643468372e-01 -1.148292283429e+01 0.0 
0.0 0.0 -6.121164468304e+00 
-9.167062293192e+00 -1.260365966483e-01 0.0 
-1.260365966483e-01 -9.766826549101e+00 0.0 
0.0 0.0 -5.280166652688e+00 
-9.419060122406e+00 8.920349889327e-02 0.0 
8.920349889327e-02 -9.847676853480e+00 0.0 
0.0 0.0 -5.380021092766e+00 
-9.134000239140e+00 3.532771959766e-03 0.0 
3.532771959766e-03 -9.684788129534e+00 0.0 
0.0 0.0 -5.245636510602e+00 
-9.284187795618e+00 -4.247300579814e-03 0.0 
-4.247300579814e-03 -9.750084158803e+00 0.0 
0.0 0.0 -5.310281586326e+00 
-9.129761049119e+00 -3.894585229294e-02 0.0 
-3.894585229294e-02 -9.706576642072e+00 0.0 
0.0 0.0 -5.250901307357e+00 
-9.176181913681e+00 -5.496353765045e-02 0.0 
-5.496353765045e-02 -9.730176316521e+00 0.0 
0.0 0.0 -5.271907469061e+00 
-9.031780944518e+00 -7.959996423231e-02 0.0 
-7.959996423231e-02 -9.715151528031e+00 0.0 
0.0 0.0 -5.224079741765e+00 
-9.051672284166e+00 -8.794375463342e-02 0.0 
-8.794375463342e-02 -9.726087992404e+00 0.0 
0.0 0.0 -5.233328082971e+00 
-8.859593822497e+00 -1.165900201407e-01 0.0 
-1.165900201407e-01 -9.713880853499e+00 0.0 
0.0 0.0 -5.172042402799e+00 
-8.903289053703e+00 -1.117549705571e-01 0.0 
-1.117549705571e-01 -9.730180952504e+00 0.0 
0.0 0.0 -5.190041001862e+00 
-8.625770210820e+00 -1.519016652112e-01 0.0 
-1.519016652112e-01 -9.706041046304e+00 0.0 
0.0 0.0 -5.099543377137e+00 
-8.728666418729e+00 -1.314022877843e-01 0.0 
-1.314022877843e-01 -9.739172702483e+00 0.0 
0.0 0.0 -5.140351736364e+00 
-8.335827217908e+00 -1.875137225559e-01 0.0 
-1.875137225559e-01 -9.692934118077e+00 0.0 
0.0 0.0 -5.008628400796e+00 
-8.527905554782e+00 -1.503565509044e-01 0.0 
-1.503565509044e-01 -9.751742969257e+00 0.0 
0.0 0.0 -5.083894557212e+00 
-7.989785257129e+00 -2.251515497736e-01 0.0 
-2.251515497736e-01 -9.676525538285e+00 0.0 
0.0 0.0 -4.899893238624e+00 
-8.298793465927e+00 -1.697785203271e-01 0.0 
-1.697785203271e-01 -9.767670282001e+00 0.0 
0.0 0.0 -5.019939124378e+00 
-7.584979317983e+00 -2.650432444353e-01 0.0 
-2.650432444353e-01 -9.656837443895e+00 0.0 
0.0 0.0 -4.772545028563e+00 
-6.145548452264e+00 2.822829620789e+00 0.0 
2.822829620789e+00 -1.202829381914e+01 0.0 
0.0 0.0 -5.052152681421e+00 
-8.041728814311e+00 -1.902565204653e-01 0.0 
-1.902565204653e-01 -9.787190482399e+00 0.0 
0.0 0.0 -4.948675789013e+00 
-7.117983603986e+00 -3.071547839346e-01 0.0 
-3.071547839346e-01 -9.633922681346e+00 0.0 
0.0 0.0 -4.625571885600e+00 
-7.759332660990e+00 -2.114239182691e-01 0.0 
-2.114239182691e-01 -9.811046690072e+00 0.0 
0.0 0.0 -4.871113805319e+00 
3.832421552574e-01 -9.995521807678e-02 0.0 
-9.995521807678e-02 -5.193548705462e+00 0.0 
0.0 0.0 -1.043091965061e+00 
-6.585890929403e+00 -3.509807725788e-01 0.0 
-3.509807725788e-01 -9.606634135160e+00 0.0 
0.0 0.0 -4.457757519369e+00 
-1.047850635526e+01 1.538477940701e+00 0.0 
1.538477940701e+00 -1.083992271160e+01 0.0 
0.0 0.0 -5.995528720057e+00 
-7.458338199486e+00 -2.331432610897e-01 0.0 
-2.331432610897e-01 -9.840148898399e+00 0.0 
0.0 0.0 -4.789546129366e+00 
-5.986268385961e+00 -3.967572293586e-01 0.0 
-3.967572293586e-01 -9.572463228037e+00 0.0 
0.0 0.0 -4.267619484199e+00 
-7.148249440252e+00 -2.577144512754e-01 0.0 
-2.577144512754e-01 -9.875761411854e+00 0.0 
0.0 0.0 -4.707203255632e+00 
-5.314603321038e+00 -4.433181507319e-01 0.0 
-4.433181507319e-01 -9.538403397012e+00 0.0 
0.0 0.0 -4.055902015415e+00 
-6.830651994286e+00 -2.783361563376e-01 0.0 
-2.783361563376e-01 -9.919371486881e+00 0.0 
0.0 0.0 -4.625007044350e+00 
-4.575509318235e+00 -4.858010846928e-01 0.0 
-4.858010846928e-01 -9.495010628261e+00 0.0 
0.0 0.0 -3.821155983949e+00 
-6.533105356361e+00 -2.982169309280e-01 0.0 
-2.982169309280e-01 -9.972830856600e+00 0.0 
0.0 0.0 -4.551780863889e+00 
-3.776254892847e+00 -5.178817531635e-01 0.0 
-5.178817531635e-01 -9.461348201714e+00 0.0 
0.0 0.0 -3.571280928368e+00 
-1.455328388133e+01 5.164148751130e+00 0.0 
5.164148751130e+00 -1.261032336262e+01 0.0 
0.0 0.0 -7.749082173183e+00 
-6.271620753617e+00 -2.951083792851e-01 0.0 
-2.951083792851e-01 -1.003737090167e+01 0.0 
0.0 0.0 -4.492697496587e+00 
-2.951847893365e+00 -5.356701360902e-01 0.0 
-5.356701360902e-01 -9.390564574050e+00 0.0 
0.0 0.0 -3.302723740225e+00 
-6.141389621259e+00 -3.022043753493e-01 0.0 
-3.022043753493e-01 -1.011794811476e+01 0.0 
0.0 0.0 -4.477801320805e+00 
-2.112629906065e+00 -5.261331432482e-01 0.0 
-5.261331432482e-01 -9.376925769960e+00 0.0 
0.0 0.0 -3.046866702807e+00 
-1.359388457901e+00 -4.847969408031e-01 0.0 
-4.847969408031e-01 -9.256110317958e+00 0.0 
0.0 0.0 -2.784649632758e+00 
-6.109232329364e+00 -2.379163717590e-01 0.0 
-2.379163717590e-01 -1.021025439361e+01 0.0 
0.0 0.0 -4.495846016891e+00 
-7.136160790578e-01 -3.400327010354e-01 0.0 
-3.400327010354e-01 -9.381303733945e+00 0.0 
0.0 0.0 -2.628475943901e+00 
-6.457701406059e+00 -2.181190667647e-01 0.0 
-2.181190667647e-01 -1.033551337257e+01 0.0 
0.0 0.0 -4.637964433588e+00 
-5.463607657542e-01 -8.123704484068e-02 0.0 
-8.123704484068e-02 -9.223265099336e+00 0.0 
0.0 0.0 -2.530887759527e+00 
-1.048640302088e+00 6.626739886159e-01 0.0 
6.626739886159e-01 -1.007748771705e+01 0.0 
0.0 0.0 -2.937838405741e+00 
-6.908658443095e+00 6.340186125376e-02 0.0 
6.340186125376e-02 -1.045071413370e+01 0.0 
0.0 0.0 -4.807811773039e+00 
-8.196336880551e+00 2.345990453990e-01 0.0 
2.345990453990e-01 -1.062030111735e+01 0.0 
0.0 0.0 -5.244991399369e+00 
-8.038852925212e+00 9.358465632596e-01 0.0 
9.358465632596e-01 -9.646907586791e-01 0.0 
0.0 0.0 -2.301063105167e+00 
-1.044098541642e+01 1.493838502317e+00 0.0 
1.493838502317e+00 -9.457921630958e+00 0.0 
0.0 0.0 -5.569672114214e+00 
-1.009392563349e+01 -1.299420058021e+00 0.0 
-1.299420058021e+00 -1.152288597438e+01 0.0 
0.0 0.0 -6.085043482361e+00 
-8.415747799468e+00 2.328446853390e-01 0.0 
2.328446853390e-01 -5.297041558283e+00 0.0 
0.0 0.0 -3.713836807325e+00 
-1.203070195213e+01 -8.787720958553e-02 0.0 
-8.787720958553e-02 -1.552869182069e+01 0.0 
0.0 0.0 -7.867818131845e+00 
-9.831949990394e+00 5.311824752131e+00 0.0 
5.311824752131e+00 -8.324875273910e+00 0.0 
0.0 0.0 -5.047047579291e+00 
-1.719002816658e+01 2.110047075094e-01 0.0 
2.110047075094e-01 -2.766630708284e+01 0.0 
0.0 0.0 -1.305690057483e+01 
-1.790909637520e+01 -2.841876707215e-01 0.0 
-2.841876707215e-01 -2.931726444582e+01 0.0 
0.0 0.0 -1.376790824631e+01 
-1.774679939038e+01 -3.396124042514e-02 0.0 
-3.396124042514e-02 -2.927906847875e+01 0.0 
0.0 0.0 -1.370776036074e+01 
-1.792394327650e+01 -1.050586396322e-01 0.0 
-1.050586396322e-01 -2.945654815319e+01 0.0 
0.0 0.0 -1.381414742891e+01 
-1.768787666048e+01 -9.170059095390e-02 0.0 
-9.170059095390e-02 -2.935869151015e+01 0.0 
0.0 0.0 -1.371397045119e+01 
-1.787916742905e+01 -1.532865858284e-01 0.0 
-1.532865858284e-01 -2.948809678646e+01 0.0 
0.0 0.0 -1.381017926465e+01 
-1.759247822953e+01 -1.484895078678e-01 0.0 
-1.484895078678e-01 -2.936820105351e+01 0.0 
0.0 0.0 -1.368820378491e+01 
-1.782553776310e+01 -2.191790969992e-01 0.0 
-2.191790969992e-01 -2.951186587995e+01 0.0 
0.0 0.0 -1.380122109291e+01 
-1.746962324547e+01 -2.025444605472e-01 0.0 
-2.025444605472e-01 -2.936797356878e+01 0.0 
0.0 0.0 -1.365127904427e+01 
-1.776410919939e+01 -2.863410376903e-01 0.0 
-2.863410376903e-01 -2.953326204164e+01 0.0 
0.0 0.0 -1.378921137231e+01 
-1.731609486994e+01 -2.529442920555e-01 0.0 
-2.529442920555e-01 -2.936006119039e+01 0.0 
0.0 0.0 -1.360284681810e+01 
-1.769073682000e+01 -3.527810431712e-01 0.0 
-3.527810431712e-01 -2.955242697110e+01 0.0 
0.0 0.0 -1.377294913733e+01 
-1.713184637097e+01 -3.003624153123e-01 0.0 
-3.003624153123e-01 -2.934659259105e+01 0.0 
0.0 0.0 -1.354353168861e+01 
-1.761087465097e+01 -4.188221296555e-01 0.0 
-4.188221296555e-01 -2.956989462161e+01 0.0 
0.0 0.0 -1.375423078177e+01 
-1.691659763431e+01 -3.480196322175e-01 0.0 
-3.480196322175e-01 -2.932535782148e+01 0.0 
0.0 0.0 -1.347258663674e+01 
-1.752565232471e+01 -4.886555807463e-01 0.0 
-4.886555807463e-01 -2.958850175084e+01 0.0 
0.0 0.0 -1.373424622266e+01 
-1.667047910195e+01 -3.963929231159e-01 0.0 
-3.963929231159e-01 -2.930160343273e+01 0.0 
0.0 0.0 -1.339162476040e+01 
-1.852210960053e+01 2.994146528815e+00 0.0 
2.994146528815e+00 -3.243731812185e+01 0.0 
0.0 0.0 -1.488782831671e+01 
-1.743130909414e+01 -5.600095093427e-01 0.0 
-5.600095093427e-01 -2.960794547191e+01 0.0 
0.0 0.0 -1.371177636982e+01 
-1.639487618049e+01 -4.443916790498e-01 0.0 
-4.443916790498e-01 -2.927786767015e+01 0.0 
0.0 0.0 -1.330182315519e+01 
-2.100770123126e+01 1.359774287590e+00 0.0 
1.359774287590e+00 -3.069734055548e+01 0.0 
0.0 0.0 -1.511151253602e+01 
-1.733073563204e+01 -6.305931652102e-01 0.0 
-6.305931652102e-01 -2.962908692618e+01 0.0 
0.0 0.0 -1.368794676747e+01 
-1.609335688981e+01 -4.890884270619e-01 0.0 
-4.890884270619e-01 -2.925710322399e+01 0.0 
0.0 0.0 -1.320513803414e+01 
-1.723584749985e+01 -6.959496966593e-01 0.0 
-6.959496966593e-01 -2.965185964918e+01 0.0 
0.0 0.0 -1.366631214471e+01 
-1.577097961876e+01 -5.286650669344e-01 0.0 
-5.286650669344e-01 -2.923631221003e+01 0.0 
0.0 0.0 -1.310218754864e+01 
-1.716027435216e+01 -7.536353355814e-01 0.0 
-7.536353355814e-01 -2.967448861272e+01 0.0 
0.0 0.0 -1.365042888947e+01 
-1.473890120250e+01 1.355817888369e+00 0.0 
1.355817888369e+00 -2.588628453523e+01 0.0 
0.0 0.0 -1.178755572132e+01 
-1.543468727157e+01 -5.630543368647e-01 0.0 
-5.630543368647e-01 -2.921078301827e+01 0.0 
0.0 0.0 -1.299364108695e+01 
-1.712574974678e+01 -8.089925536805e-01 0.0 
-8.089925536805e-01 -2.970939885057e+01 0.0 
0.0 0.0 -1.365054457920e+01 
-1.509619655257e+01 -5.812269479386e-01 0.0 
-5.812269479386e-01 -2.920564212289e+01 0.0 
0.0 0.0 -1.289055160264e+01 
-1.709921016176e+01 -8.315733628435e-01 0.0 
-8.315733628435e-01 -2.974053503874e+01 0.0 
0.0 0.0 -1.365192356015e+01 
-1.477890820302e+01 -5.694307158050e-01 0.0 
-5.694307158050e-01 -2.921303749881e+01 0.0 
0.0 0.0 -1.279758371055e+01 
-1.718496496765e+01 -8.237487607613e-01 0.0 
-8.237487607613e-01 -2.980209535576e+01 0.0 
0.0 0.0 -1.369611809702e+01 
-1.451546034547e+01 -5.023085189704e-01 0.0 
-5.023085189704e-01 -2.927299661601e+01 0.0 
0.0 0.0 -1.273653708844e+01 
-1.728272960291e+01 -7.077034644835e-01 0.0 
-7.077034644835e-01 -2.982272794258e+01 0.0 
0.0 0.0 -1.373163726365e+01 
-1.435836571648e+01 -3.732132925232e-01 0.0 
-3.732132925232e-01 -2.929089233695e+01 0.0 
0.0 0.0 -1.269477741603e+01 
-1.775864296340e+01 -5.800874829162e-01 0.0 
-5.800874829162e-01 -2.995327737512e+01 0.0 
0.0 0.0 -1.391357610156e+01 
-2.316986017029e+01 3.482567566184e+00 0.0 
3.482567566184e+00 -3.351678056990e+01 0.0 
0.0 0.0 -1.660599222206e+01 
-1.808617036283e+01 -1.535010986672e-01 0.0 
-1.535010986672e-01 -2.993777444582e+01 0.0 
0.0 0.0 -1.400718344259e+01 
-1.437930542872e+01 -1.203962772161e-01 0.0 
-1.203962772161e-01 -2.950709162544e+01 0.0 
0.0 0.0 -1.276591911625e+01 
-1.933765012994e+01 1.763603690485e-01 0.0 
1.763603690485e-01 -3.029730842483e+01 0.0 
0.0 0.0 -1.449048756643e+01 
-1.468466524302e+01 2.711562619073e-01 0.0 
2.711562619073e-01 -2.953176232548e+01 0.0 
0.0 0.0 -1.286492827055e+01 
-1.547669465066e+01 1.028484420705e+00 0.0 
1.028484420705e+00 -3.044279861803e+01 0.0 
0.0 0.0 -1.337584798061e+01 
-1.838200061692e+01 1.746485398160e+00 0.0 
1.746485398160e+00 -2.368022174095e+01 0.0 
0.0 0.0 -1.221866670736e+01 
-1.752989401157e+01 1.429422509325e+00 0.0 
1.429422509325e+00 -2.993229351553e+01 0.0 
0.0 0.0 -1.383865625813e+01 
-1.788270282973e+01 -1.465910688539e+00 0.0 
-1.465910688539e+00 -2.785872303772e+01 0.0 
0.0 0.0 -1.332242776023e+01 
-1.986966524942e+01 1.216741663585e-01 0.0 
1.216741663585e-01 -3.403294498859e+01 0.0 
0.0 0.0 -1.577078307140e+01 
-1.562032996745e+01 -2.036951843515e-01 0.0 
-2.036951843515e-01 -2.390449052310e+01 0.0 
0.0 0.0 -1.145744614716e+01 
-1.710321656274e+01 3.789738943739e+00 0.0 
3.789738943739e+00 -2.629757986237e+01 0.0 
0.0 0.0 -1.262023892753e+01 
-2.710236905576e+01 2.072641517697e-01 0.0 
2.072641517697e-01 -5.076073037260e+01 0.0 
0.0 0.0 -2.295892982851e+01 
-2.633074278072e+01 -3.325327360207e-01 0.0 
-3.325327360207e-01 -4.896777272537e+01 0.0 
0.0 0.0 -2.218955465183e+01 
-2.636738618129e+01 -8.818984647166e-02 0.0 
-8.818984647166e-02 -4.894845861065e+01 0.0 
0.0 0.0 -2.219475343758e+01 
-2.621481395811e+01 -1.479601307291e-01 0.0 
-1.479601307291e-01 -4.880191307695e+01 0.0 
0.0 0.0 -2.210501811052e+01 
-2.633508721865e+01 -1.564031161950e-01 0.0 
-1.564031161950e-01 -4.885471873347e+01 0.0 
0.0 0.0 -2.215694178564e+01 
-2.615147362436e+01 -2.000337938969e-01 0.0 
-2.000337938969e-01 -4.879014457552e+01 0.0 
0.0 0.0 -2.208248545997e+01 
-2.632646810617e+01 -2.188056609562e-01 0.0 
-2.188056609562e-01 -4.886909401107e+01 0.0 
0.0 0.0 -2.215866863517e+01 
-2.608665720749e+01 -2.729820508945e-01 0.0 
-2.729820508945e-01 -4.878781125019e+01 0.0 
0.0 0.0 -2.206234053731e+01 
-2.632993436609e+01 -2.806023659069e-01 0.0 
-2.806023659069e-01 -4.889168883389e+01 0.0 
0.0 0.0 -2.216648695999e+01 
-2.601402776054e+01 -3.497122838756e-01 0.0 
-3.497122838756e-01 -4.878307201766e+01 0.0 
0.0 0.0 -2.203912993346e+01 
-2.633478609306e+01 -3.434584911426e-01 0.0 
-3.434584911426e-01 -4.891188473775e+01 0.0 
0.0 0.0 -2.217400124924e+01 
-2.593074662436e+01 -4.265590113983e-01 0.0 
-4.265590113983e-01 -4.877911651461e+01 0.0 
0.0 0.0 -2.201295894169e+01 
-2.634110872086e+01 -3.987158302173e-01 0.0 
-3.987158302173e-01 -4.893048374972e+01 0.0 
0.0 0.0 -2.218147774118e+01 
-2.583590687233e+01 -4.990560120802e-01 0.0 
-4.990560120802e-01 -4.876163647145e+01 0.0 
0.0 0.0 -2.197926300313e+01 
-2.636354003400e+01 -4.539218575415e-01 0.0 
-4.539218575415e-01 -4.894399484091e+01 0.0 
0.0 0.0 -2.219226046247e+01 
-2.573266367306e+01 -5.719596350295e-01 0.0 
-5.719596350295e-01 -4.873819489700e+01 0.0 
0.0 0.0 -2.194125757102e+01 
-2.872047752711e+01 2.389576359618e+00 0.0 
2.389576359618e+00 -5.208019604079e+01 0.0 
0.0 0.0 -2.384020207037e+01 
-2.640788898178e+01 -5.133028062327e-01 0.0 
-5.133028062327e-01 -4.896050935946e+01 0.0 
0.0 0.0 -2.221051950237e+01 
-2.562443565620e+01 -6.455929264798e-01 0.0 
-6.455929264798e-01 -4.872524078339e+01 0.0 
0.0 0.0 -2.190490293188e+01 
-2.583455092462e+01 1.208257004573e+00 0.0 
1.208257004573e+00 -4.545674361241e+01 0.0 
0.0 0.0 -2.098738836111e+01 
-2.644670087592e+01 -5.702182130055e-01 0.0 
-5.702182130055e-01 -4.897921231496e+01 0.0 
0.0 0.0 -2.222777395726e+01 
-2.551333540756e+01 -7.102166472906e-01 0.0 
-7.102166472906e-01 -4.872181973574e+01 0.0 
0.0 0.0 -2.187054654299e+01 
-3.063829506036e+01 1.100250505361e+00 0.0 
1.100250505361e+00 -5.040083818059e+01 0.0 
0.0 0.0 -2.391173997229e+01 
-2.651167553971e+01 -6.121320927353e-01 0.0 
-6.121320927353e-01 -4.900633523483e+01 0.0 
0.0 0.0 -2.225540323236e+01 
-2.540881282882e+01 -7.582738780170e-01 0.0 
-7.582738780170e-01 -4.872211208344e+01 0.0 
0.0 0.0 -2.183927747368e+01 
-2.662198574771e+01 -6.347542395750e-01 0.0 
-6.347542395750e-01 -4.903921490484e+01 0.0 
0.0 0.0 -2.229836019577e+01 
-2.532428287998e+01 -7.845533768598e-01 0.0 
-7.845533768598e-01 -4.872384184431e+01 0.0 
0.0 0.0 -2.181443741729e+01 
-2.677797668316e+01 -6.353872970999e-01 0.0 
-6.353872970999e-01 -4.907048761802e+01 0.0 
0.0 0.0 -2.235453929036e+01 
-2.527237797309e+01 -7.858112995315e-01 0.0 
-7.858112995315e-01 -4.871819804530e+01 0.0 
0.0 0.0 -2.179717280552e+01 
-3.227048978733e+01 2.508047494412e+00 0.0 
2.508047494412e+00 -5.316876155107e+01 0.0 
0.0 0.0 -2.523177540152e+01 
-2.703140137376e+01 -6.432895837721e-01 0.0 
-6.432895837721e-01 -4.913599761209e+01 0.0 
0.0 0.0 -2.245021969575e+01 
-2.528420197526e+01 -7.447070110421e-01 0.0 
-7.447070110421e-01 -4.883884927023e+01 0.0 
0.0 0.0 -2.183691537365e+01 
-2.725908920064e+01 -5.365551545033e-01 0.0 
-5.365551545033e-01 -4.920665820375e+01 0.0 
0.0 0.0 -2.253972422132e+01 
-2.536826380617e+01 -6.139535919348e-01 0.0 
-6.139535919348e-01 -4.889645931230e+01 0.0 
0.0 0.0 -2.187941693554e+01 
-2.561370300669e+01 -3.606086921409e-01 0.0 
-3.606086921409e-01 -4.926166588471e+01 0.0 
0.0 0.0 -2.206261066742e+01 
-2.772449271160e+01 -4.362298675104e-01 0.0 
-4.362298675104e-01 -4.935779681964e+01 0.0 
0.0 0.0 -2.272468685937e+01 
-2.600627190690e+01 5.311516731563e-02 0.0 
5.311516731563e-02 -4.919774490994e+01 0.0 
0.0 0.0 -2.216120504505e+01 
-2.804900280437e+01 1.402957881806e-02 0.0 
1.402957881806e-02 -4.942306596743e+01 0.0 
0.0 0.0 -2.284162063154e+01 
-2.675702603847e+01 6.736440548569e-01 0.0 
6.736440548569e-01 -5.016977102232e+01 0.0 
0.0 0.0 -2.267803911824e+01 
-2.927625141668e+01 1.998040406376e-01 0.0 
1.998040406376e-01 -4.980072382508e+01 0.0 
0.0 0.0 -2.332309257253e+01 
-2.806095043336e+01 1.689296851245e+00 0.0 
1.689296851245e+00 -4.376331903235e+01 0.0 
0.0 0.0 -2.114728083971e+01 
-2.674769663439e+01 1.443426461380e+00 0.0 
1.443426461380e+00 -4.863604115647e+01 0.0 
0.0 0.0 -2.221512133726e+01 
-2.641384437817e+01 -1.475401443725e+00 0.0 
-1.475401443725e+00 -5.058622235223e+01 0.0 
0.0 0.0 -2.270002001912e+01 
-2.434728071285e+01 1.096400654158e-01 0.0 
1.096400654158e-01 -4.448071440328e+01 0.0 
0.0 0.0 -2.024839853484e+01 
-2.873014267774e+01 -1.921304151154e-01 0.0 
-1.921304151154e-01 -5.457818557884e+01 0.0 
0.0 0.0 -2.459249847697e+01 
-2.745308117333e+01 2.998556376214e+00 0.0 
2.998556376214e+00 -4.573656042032e+01 0.0 
0.0 0.0 -2.155689247810e+01 
-3.398017664204e+01 2.153324973315e-01 0.0 
2.153324973315e-01 -6.680894807391e+01 0.0 
0.0 0.0 -2.983673741479e+01 
-3.475673104969e+01 -2.948222600183e-01 0.0 
-2.948222600183e-01 -6.846689126373e+01 0.0 
0.0 0.0 -3.056708669403e+01 
-3.474155638204e+01 -1.006388401112e-01 0.0 
-1.006388401112e-01 -6.848818907905e+01 0.0 
0.0 0.0 -3.056892363833e+01 
-3.488324213396e+01 -1.441561616058e-01 0.0 
-1.441561616058e-01 -6.857424995101e+01 0.0 
0.0 0.0 -3.063724762549e+01 
-3.476146868548e+01 -1.737010924600e-01 0.0 
-1.737010924600e-01 -6.851627548940e+01 0.0 
0.0 0.0 -3.058332325247e+01 
-3.491161884206e+01 -2.153963296420e-01 0.0 
-2.153963296420e-01 -6.859277731680e+01 0.0 
0.0 0.0 -3.065131884766e+01 
-3.474920059751e+01 -2.236368798055e-01 0.0 
-2.236368798055e-01 -6.852213649085e+01 0.0 
0.0 0.0 -3.058140112651e+01 
-3.498106358450e+01 -2.791858493905e-01 0.0 
-2.791858493905e-01 -6.861251368321e+01 0.0 
0.0 0.0 -3.067807318031e+01 
-3.473800251804e+01 -2.818316590566e-01 0.0 
-2.818316590566e-01 -6.851051452177e+01 0.0 
0.0 0.0 -3.057455511194e+01 
-3.504410851684e+01 -3.526830118386e-01 0.0 
-3.526830118386e-01 -6.862943017717e+01 0.0 
0.0 0.0 -3.070206160820e+01 
-3.473278714907e+01 -3.401121304010e-01 0.0 
-3.401121304010e-01 -6.850722053511e+01 0.0 
0.0 0.0 -3.057200230526e+01 
-3.512774229072e+01 -4.264495659049e-01 0.0 
-4.264495659049e-01 -6.865399350024e+01 0.0 
0.0 0.0 -3.073452073729e+01 
-3.473381564910e+01 -3.902911699345e-01 0.0 
-3.902911699345e-01 -6.851346658228e+01 0.0 
0.0 0.0 -3.057418466941e+01 
-3.519858422307e+01 -4.797819742104e-01 0.0 
-4.797819742104e-01 -6.865992236552e+01 0.0 
0.0 0.0 -3.075755197658e+01 
-3.474883184728e+01 -4.323745570494e-01 0.0 
-4.323745570494e-01 -6.850967573855e+01 0.0 
0.0 0.0 -3.057755227575e+01 
-3.830889426889e+01 2.069097925918e+00 0.0 
2.069097925918e+00 -7.160562904255e+01 0.0 
0.0 0.0 -3.257435699343e+01 
-3.535993369111e+01 -5.325195517018e-01 0.0 
-5.325195517018e-01 -6.866670382732e+01 0.0 
0.0 0.0 -3.080799125553e+01 
-3.973350869321e+01 7.946624178116e-01 0.0 
7.946624178116e-01 -7.016402290324e+01 0.0 
0.0 0.0 -3.256925947893e+01 
-3.476849956729e+01 -4.862799737544e-01 0.0 
-4.862799737544e-01 -6.846860072566e+01 0.0 
0.0 0.0 -3.057113008788e+01 
-3.549752722404e+01 -6.084386133297e-01 0.0 
-6.084386133297e-01 -6.868486729796e+01 0.0 
0.0 0.0 -3.085471835660e+01 
-3.480816500857e+01 -5.216073371968e-01 0.0 
-5.216073371968e-01 -6.848929529113e+01 0.0 
0.0 0.0 -3.058923808991e+01 
-3.565285979973e+01 -6.460148566190e-01 0.0 
-6.460148566190e-01 -6.871610999811e+01 0.0 
0.0 0.0 -3.091069093935e+01 
-3.487927509412e+01 -5.268031788554e-01 0.0 
-5.268031788554e-01 -6.853073419511e+01 0.0 
0.0 0.0 -3.062300278677e+01 
-3.589181010000e+01 -6.472272814243e-01 0.0 
-6.472272814243e-01 -6.875687296244e+01 0.0 
0.0 0.0 -3.099460491873e+01 
-3.582967588715e+01 1.007756401161e+00 0.0 
1.007756401161e+00 -6.509204758952e+01 0.0 
0.0 0.0 -2.987651704300e+01 
-3.499017185937e+01 -5.063173131686e-01 0.0 
-5.063173131686e-01 -6.856498249872e+01 0.0 
0.0 0.0 -3.066654630743e+01 
-3.617508136902e+01 -6.210175590939e-01 0.0 
-6.210175590939e-01 -6.880003162003e+01 0.0 
0.0 0.0 -3.109253389672e+01 
-3.515864597804e+01 -4.470824379690e-01 0.0 
-4.470824379690e-01 -6.862538263942e+01 0.0 
0.0 0.0 -3.073520858524e+01 
-3.648842173433e+01 -5.318821445325e-01 0.0 
-5.318821445325e-01 -6.882754777763e+01 0.0 
0.0 0.0 -3.119479085359e+01 
-3.539693372642e+01 -3.607548561718e-01 0.0 
-3.607548561718e-01 -6.865557310163e+01 0.0 
0.0 0.0 -3.081575204841e+01 
-3.707059240820e+01 -4.966259409904e-01 0.0 
-4.966259409904e-01 -6.902326496605e+01 0.0 
0.0 0.0 -3.142815721227e+01 
-3.573861867115e+01 -1.658809096652e-01 0.0 
-1.658809096652e-01 -6.899222696829e+01 0.0 
0.0 0.0 -3.101925369183e+01 
-3.727740370060e+01 -1.536693796187e-01 0.0 
-1.536693796187e-01 -6.909224022054e+01 0.0 
0.0 0.0 -3.151089317634e+01 
-3.850790908924e+01 3.531495888913e-02 0.0 
3.531495888913e-02 -6.960083401357e+01 0.0 
0.0 0.0 -3.203262293084e+01 
-3.620286091796e+01 1.383070083676e-01 0.0 
1.383070083676e-01 -6.914065596781e+01 0.0 
0.0 0.0 -3.120305506573e+01 
-4.131949690149e+01 1.827626116930e+00 0.0 
1.827626116930e+00 -7.285419216910e+01 0.0 
0.0 0.0 -3.385210672118e+01 
-3.686124460510e+01 6.634029943489e-01 0.0 
6.634029943489e-01 -6.998496350248e+01 0.0 
0.0 0.0 -3.165386243227e+01 
-3.735353422957e+01 1.296132740310e+00 0.0 
1.296132740310e+00 -6.373733019295e+01 0.0 
0.0 0.0 -2.992725932676e+01 
-3.430734942816e+01 1.452154007890e+00 0.0 
1.452154007890e+00 -6.895902372735e+01 0.0 
0.0 0.0 -3.057991194665e+01 
-3.464691939534e+01 -1.462989048395e+00 0.0 
-1.462989048395e+00 -6.697444247242e+01 0.0 
0.0 0.0 -3.008640856033e+01 
-3.670050216682e+01 1.229287807456e-01 0.0 
1.229287807456e-01 -7.309930744348e+01 0.0 
0.0 0.0 -3.253994288309e+01 
-3.233887168811e+01 -1.846835489516e-01 0.0 
-1.846835489516e-01 -6.299855326969e+01 0.0 
0.0 0.0 -2.820122748734e+01 
-3.690073462560e+01 2.281969962568e+00 0.0 
2.281969962568e+00 -6.501319716615e+01 0.0 
0.0 0.0 -3.017417953753e+01 
-4.383934333922e+01 2.757806381649e-01 0.0 
2.757806381649e-01 -8.989190757176e+01 0.0 
0.0 0.0 -3.971937527330e+01 
-4.315918466670e+01 -2.595791467692e-01 0.0 
-2.595791467692e-01 -8.807261637009e+01 0.0 
0.0 0.0 -3.896954031104e+01 
-4.332505196058e+01 -1.654383197354e-02 0.0 
-1.654383197354e-02 -8.810232620463e+01 0.0 
0.0 0.0 -3.902821344956e+01 
-4.315242025374e+01 -1.008895946445e-01 0.0 
-1.008895946445e-01 -8.786899889717e+01 0.0 
0.0 0.0 -3.890642574527e+01 
-4.333865754596e+01 -1.457244925261e-01 0.0 
-1.457244925261e-01 -8.795896804430e+01 0.0 
0.0 0.0 -3.898928767708e+01 
-4.319409872241e+01 -1.764720802528e-01 0.0 
-1.764720802528e-01 -8.791856370430e+01 0.0 
0.0 0.0 -3.893379872801e+01 
-4.339000059817e+01 -1.575296826089e-01 0.0 
-1.575296826089e-01 -8.799388983229e+01 0.0 
0.0 0.0 -3.901516712914e+01 
-4.323139675614e+01 -2.138667579024e-01 0.0 
-2.138667579024e-01 -8.786329108370e+01 0.0 
0.0 0.0 -3.892840635195e+01 
-4.357642370973e+01 -2.172273626672e-01 0.0 
-2.172273626672e-01 -8.800643687570e+01 0.0 
0.0 0.0 -3.907485817563e+01 
-4.329712844879e+01 -2.830229467801e-01 0.0 
-2.830229467801e-01 -8.788647668506e+01 0.0 
0.0 0.0 -3.895508154016e+01 
-4.366824491424e+01 -2.591297236672e-01 0.0 
-2.591297236672e-01 -8.802375451607e+01 0.0 
0.0 0.0 -3.910759982909e+01 
-4.336635200767e+01 -3.330797681959e-01 0.0 
-3.330797681959e-01 -8.787741617312e+01 0.0 
0.0 0.0 -3.897313045424e+01 
-4.387652053330e+01 -3.124867460252e-01 0.0 
-3.124867460252e-01 -8.806574264981e+01 0.0 
0.0 0.0 -3.918267895493e+01 
-4.725169791953e+01 1.777521771938e+00 0.0 
1.777521771938e+00 -9.104621861338e+01 0.0 
0.0 0.0 -4.108937495987e+01 
-4.346636875621e+01 -3.810210652096e-01 0.0 
-3.810210652096e-01 -8.795141960950e+01 0.0 
0.0 0.0 -3.902533650971e+01 
-4.401591652563e+01 -2.702509578760e-01 0.0 
-2.702509578760e-01 -8.808522275893e+01 0.0 
0.0 0.0 -3.923034178537e+01 
-4.489558356755e+01 8.478839149464e-01 0.0 
8.478839149464e-01 -8.450540779628e+01 0.0 
0.0 0.0 -3.842029740915e+01 
-4.357445708598e+01 -3.857051560689e-01 0.0 
-3.857051560689e-01 -8.783392508202e+01 0.0 
0.0 0.0 -3.902251465040e+01 
-4.428197964676e+01 -3.450950345357e-01 0.0 
-3.450950345357e-01 -8.806376187724e+01 0.0 
0.0 0.0 -3.930372245720e+01 
-4.828511333077e+01 7.288887550294e-01 0.0 
7.288887550294e-01 -8.957508886856e+01 0.0 
0.0 0.0 -4.095806065980e+01 
-4.373091970666e+01 -4.295125266106e-01 0.0 
-4.295125266106e-01 -8.789611642408e+01 0.0 
0.0 0.0 -3.908811083922e+01 
-4.450235238526e+01 -3.678978897144e-01 0.0 
-3.678978897144e-01 -8.811638671721e+01 0.0 
0.0 0.0 -3.938562173074e+01 
-4.392172936162e+01 -4.208127214749e-01 0.0 
-4.208127214749e-01 -8.801013897585e+01 0.0 
0.0 0.0 -3.917956050124e+01 
-4.481175680001e+01 -2.969354892862e-01 0.0 
-2.969354892862e-01 -8.819207198402e+01 0.0 
0.0 0.0 -3.950114863521e+01 
-4.416021654548e+01 -3.565893053309e-01 0.0 
-3.565893053309e-01 -8.804982133524e+01 0.0 
0.0 0.0 -3.926301136422e+01 
-5.001088085973e+01 1.491329575005e+00 0.0 
1.491329575005e+00 -9.225869252303e+01 0.0 
0.0 0.0 -4.228087201483e+01 
-4.523118252166e+01 -2.321975801616e-01 0.0 
-2.321975801616e-01 -8.826124951081e+01 0.0 
0.0 0.0 -3.964772960974e+01 
-4.446845062865e+01 -2.640004169281e-01 0.0 
-2.640004169281e-01 -8.815122655916e+01 0.0 
0.0 0.0 -3.938590315634e+01 
-4.486487776032e+01 -8.814840970488e-02 0.0 
-8.814840970488e-02 -8.837261183829e+01 0.0 
0.0 0.0 -3.957124687958e+01 
-4.562982325512e+01 -1.361318766887e-01 0.0 
-1.361318766887e-01 -8.835206750268e+01 0.0 
0.0 0.0 -3.979456722734e+01 
-4.531647175244e+01 1.326541620724e-01 0.0 
1.326541620724e-01 -8.826365010261e+01 0.0 
0.0 0.0 -3.967403655651e+01 
-4.595056443958e+01 1.477440843328e-01 0.0 
1.477440843328e-01 -8.837659674464e+01 0.0 
0.0 0.0 -3.989814835527e+01 
-4.598611861084e+01 4.841402569633e-01 0.0 
4.841402569633e-01 -8.941257501109e+01 0.0 
0.0 0.0 -4.021960808658e+01 
-4.706711793889e+01 4.214384764457e-02 0.0 
4.214384764457e-02 -8.883492938513e+01 0.0 
0.0 0.0 -4.037061419721e+01 
-4.622421675148e+01 1.174093064808e+00 0.0 
1.174093064808e+00 -8.338612541885e+01 0.0 
0.0 0.0 -3.848310265110e+01 
-4.362934556565e+01 1.414760885819e+00 0.0 
1.414760885819e+00 -8.760594830784e+01 0.0 
0.0 0.0 -3.897058816205e+01 
-4.325327509229e+01 -1.507894388951e+00 0.0 
-1.507894388951e+00 -8.979109372765e+01 0.0 
0.0 0.0 -3.951331064598e+01 
-4.118414830550e+01 9.230304232344e-02 0.0 
9.230304232344e-02 -8.356114843374e+01 0.0 
0.0 0.0 -3.702358902177e+01 
-4.559602043077e+01 -2.466726747640e-01 0.0 
-2.466726747640e-01 -9.363932344482e+01 0.0 
0.0 0.0 -4.137060316268e+01 
-4.579281495102e+01 1.800692510253e+00 0.0 
1.800692510253e+00 -8.430240417147e+01 0.0 
0.0 0.0 -3.862856573675e+01 
-5.089519820606e+01 4.190830885354e-01 0.0 
4.190830885354e-01 -1.063555689277e+02 0.0 
0.0 0.0 -4.677523014014e+01 
-5.175700878859e+01 -1.378314803257e-02 0.0 
-1.378314803257e-02 -1.075966984402e+02 0.0 
0.0 0.0 -4.740611216864e+01 
-5.166260416555e+01 -1.313965966600e-02 0.0 
-1.313965966600e-02 -1.075566146829e+02 0.0 
0.0 0.0 -4.736576565453e+01 
-5.161695255233e+01 -1.869762823996e-02 0.0 
-1.869762823996e-02 -1.076076687403e+02 0.0 
0.0 0.0 -4.736738638779e+01 
-5.178177090963e+01 -8.862702590089e-02 0.0 
-8.862702590089e-02 -1.076595658929e+02 0.0 
0.0 0.0 -4.743240104074e+01 
-5.179645784538e+01 -1.186746748112e-01 0.0 
-1.186746748112e-01 -1.077655337407e+02 0.0 
0.0 0.0 -4.746859747584e+01 
-5.189167807652e+01 -4.214681141167e-02 0.0 
-4.214681141167e-02 -1.078311372818e+02 0.0 
0.0 0.0 -4.751684460749e+01 
-5.204795789272e+01 -2.384324493660e-02 0.0 
-2.384324493660e-02 -1.076984407103e+02 0.0 
0.0 0.0 -4.752391958090e+01 
-5.198736744563e+01 -1.218883120570e-01 0.0 
-1.218883120570e-01 -1.076319722595e+02 0.0 
0.0 0.0 -4.748580191153e+01 
-5.214813436264e+01 -1.750008419415e-01 0.0 
-1.750008419415e-01 -1.077515738965e+02 0.0 
0.0 0.0 -4.756991247774e+01 
-5.213447972868e+01 -1.119337326028e-01 0.0 
-1.119337326028e-01 -1.077783024164e+02 0.0 
0.0 0.0 -4.757383464353e+01 
-5.232663230761e+01 -1.200020750530e-01 0.0 
-1.200020750530e-01 -1.077501847704e+02 0.0 
0.0 0.0 -4.762304512342e+01 
-5.576670457389e+01 1.799230125752e+00 0.0 
1.799230125752e+00 -1.105251066016e+02 0.0 
0.0 0.0 -4.948754335265e+01 
-5.230815013604e+01 -1.256272312233e-01 0.0 
-1.256272312233e-01 -1.077395450562e+02 0.0 
0.0 0.0 -4.761430855768e+01 
-5.589281468293e+01 6.215736253985e-01 0.0 
6.215736253985e-01 -1.089377572871e+02 0.0 
0.0 0.0 -4.904917159100e+01 
-5.289900259007e+01 -2.262130634432e-01 0.0 
-2.262130634432e-01 -1.079096505989e+02 0.0 
0.0 0.0 -4.784259595671e+01 
-5.247494934456e+01 -1.166850312686e-01 0.0 
-1.166850312686e-01 -1.078229660031e+02 0.0 
0.0 0.0 -4.768937460430e+01 
-5.271619643304e+01 -9.324707656202e-02 0.0 
-9.324707656202e-02 -1.077236807627e+02 0.0 
0.0 0.0 -4.773196315871e+01 
-5.269422357248e+01 -1.230380449020e-01 0.0 
-1.230380449020e-01 -1.076923310373e+02 0.0 
0.0 0.0 -4.771596638292e+01 
-5.308434998369e+01 -1.891677961220e-01 0.0 
-1.891677961220e-01 -1.078273414464e+02 0.0 
0.0 0.0 -4.787350742902e+01 
-5.298553320965e+01 -5.368193190545e-02 0.0 
-5.368193190545e-02 -1.079104753075e+02 0.0 
0.0 0.0 -4.786880255514e+01 
-5.359480511857e+01 -9.736922286628e-02 0.0 
-9.736922286628e-02 -1.079935022608e+02 0.0 
0.0 0.0 -4.807649221381e+01 
-5.359108871332e+01 8.578151176955e-01 0.0 
8.578151176955e-01 -1.040575278588e+02 0.0 
0.0 0.0 -4.689458497164e+01 
-5.332714986182e+01 6.649531730160e-02 0.0 
6.649531730160e-02 -1.080613224616e+02 0.0 
0.0 0.0 -4.801654169702e+01 
-5.403434931797e+01 7.676727228813e-02 0.0 
7.676727228813e-02 -1.080467000985e+02 0.0 
0.0 0.0 -4.822431482493e+01 
-5.371604547536e+01 1.845197000920e-01 0.0 
1.845197000920e-01 -1.080592630695e+02 0.0 
0.0 0.0 -4.813259256345e+01 
-5.459644327471e+01 1.535460275073e-01 0.0 
1.535460275073e-01 -1.081741597463e+02 0.0 
0.0 0.0 -4.843118090630e+01 
-5.520899542411e+01 2.926960972245e-01 0.0 
2.926960972245e-01 -1.084437361396e+02 0.0 
0.0 0.0 -4.869581946910e+01 
-5.415999430508e+01 3.364110570480e-01 0.0 
3.364110570480e-01 -1.082557999526e+02 0.0 
0.0 0.0 -4.832473827730e+01 
-5.467673090862e+01 6.415584747710e-01 0.0 
6.415584747710e-01 -1.087376518391e+02 0.0 
0.0 0.0 -4.862431482430e+01 
-5.835372959786e+01 1.334656057521e+00 0.0 
1.334656057521e+00 -1.118520581510e+02 0.0 
0.0 0.0 -5.066173632467e+01 
-5.462978058633e+01 1.075008646549e+00 0.0 
1.075008646549e+00 -1.030246915785e+02 0.0 
0.0 0.0 -4.689634164944e+01 
-5.103835792551e+01 1.288045689907e+00 0.0 
1.288045689907e+00 -1.076473715016e+02 0.0 
0.0 0.0 -4.720571882812e+01 
-5.125954664437e+01 -1.581316298849e+00 0.0 
-1.581316298849e+00 -1.063432977400e+02 0.0 
0.0 0.0 -4.688085331531e+01 
-5.320766075035e+01 -8.384370766079e-02 0.0 
-8.384370766079e-02 -1.121596502259e+02 0.0 
0.0 0.0 -4.921019329287e+01 
-4.918518203956e+01 -2.663571576860e-01 0.0 
-2.663571576860e-01 -1.020140338653e+02 0.0 
0.0 0.0 -4.495976477147e+01 
-5.435693369394e+01 1.647728549870e+00 0.0 
1.647728549870e+00 -1.037426697160e+02 0.0 
0.0 0.0 -4.702988102297e+01 

TENSORS element_materi_strain_total float
-5.292363330007e-04 7.642142566029e-04 0.0 
7.642142566029e-04 6.094621798863e-03 0.0 
0.0 0.0 0.0 
-7.031609943836e-04 8.420793737211e-04 0.0 
8.420793737211e-04 6.167421008829e-03 0.0 
0.0 0.0 0.0 
-1.399876573021e-04 8.937763971501e-04 0.0 
8.937763971501e-04 1.117501204912e-02 0.0 
0.0 0.0 0.0 
-1.153262092283e-04 5.862645928153e-05 0.0 
5.862645928153e-05 1.158929687236e-02 0.0 
0.0 0.0 0.0 
-4.280679509563e-04 8.318060380464e-05 0.0 
8.318060380464e-05 8.856833446448e-03 0.0 
0.0 0.0 0.0 
-9.220207607274e-05 4.704580257733e-04 0.0 
4.704580257733e-04 1.174794147768e-03 0.0 
0.0 0.0 0.0 
-3.900324833068e-04 7.418295475508e-05 0.0 
7.418295475508e-05 8.853670039264e-03 0.0 
0.0 0.0 0.0 
-5.617637449601e-04 1.119343977671e-03 0.0 
1.119343977671e-03 5.700568172860e-03 0.0 
0.0 0.0 0.0 
-4.248976162992e-04 -4.719222602906e-06 0.0 
-4.719222602906e-06 8.862186725251e-03 0.0 
0.0 0.0 0.0 
-1.103334058847e-04 1.706195184088e-04 0.0 
1.706195184088e-04 1.155528022754e-02 0.0 
0.0 0.0 0.0 
5.088344686281e-04 4.658378339560e-05 0.0 
4.658378339560e-05 5.001553345857e-03 0.0 
0.0 0.0 0.0 
-5.569571987145e-04 8.510217482896e-04 0.0 
8.510217482896e-04 5.695083381746e-03 0.0 
0.0 0.0 0.0 
1.813786941653e-04 1.319329766313e-04 0.0 
1.319329766313e-04 7.717705945428e-03 0.0 
0.0 0.0 0.0 
-5.044010217505e-04 1.769072133226e-04 0.0 
1.769072133226e-04 9.208546664547e-03 0.0 
0.0 0.0 0.0 
1.044873458709e-04 1.047241530799e-04 0.0 
1.047241530799e-04 7.944055878252e-03 0.0 
0.0 0.0 0.0 
-7.200891722225e-05 1.414713538935e-04 0.0 
1.414713538935e-04 1.173868495329e-02 0.0 
0.0 0.0 0.0 
-4.838797591397e-04 6.671488078928e-05 0.0 
6.671488078928e-05 8.768423068138e-03 0.0 
0.0 0.0 0.0 
-7.144449739571e-05 1.383166575670e-04 0.0 
1.383166575670e-04 1.092096673786e-03 0.0 
0.0 0.0 0.0 
1.494655841496e-04 -5.580081190360e-05 0.0 
-5.580081190360e-05 1.408909425905e-03 0.0 
0.0 0.0 0.0 
2.161786484522e-04 -9.166069733679e-08 0.0 
-9.166069733679e-08 1.453870012920e-03 0.0 
0.0 0.0 0.0 
-1.319179987527e-04 1.133557040568e-04 0.0 
1.133557040568e-04 1.156506950561e-02 0.0 
0.0 0.0 0.0 
-6.401347472338e-04 4.788201597681e-04 0.0 
4.788201597681e-04 6.708500205363e-03 0.0 
0.0 0.0 0.0 
-7.159246674646e-04 5.999130845361e-04 0.0 
5.999130845361e-04 6.788813949860e-03 0.0 
0.0 0.0 0.0 
2.739774528668e-04 8.551102349614e-04 0.0 
8.551102349614e-04 7.962112672360e-03 0.0 
0.0 0.0 0.0 
-5.294333350389e-04 2.915585228415e-04 0.0 
2.915585228415e-04 9.539254367047e-03 0.0 
0.0 0.0 0.0 
4.953925036482e-04 1.537206854664e-05 0.0 
1.537206854664e-05 5.308690401415e-03 0.0 
0.0 0.0 0.0 
-5.914130075018e-04 1.350096747758e-04 0.0 
1.350096747758e-04 8.389819066047e-03 0.0 
0.0 0.0 0.0 
-4.773616728404e-05 1.359995979979e-03 0.0 
1.359995979979e-03 1.005693063759e-02 0.0 
0.0 0.0 0.0 
-6.008272249597e-04 2.568779096005e-04 0.0 
2.568779096005e-04 9.542368673094e-03 0.0 
0.0 0.0 0.0 
2.681399814750e-04 8.872509956813e-04 0.0 
8.872509956813e-04 8.096521379111e-03 0.0 
0.0 0.0 0.0 
-1.966077519711e-05 -5.889934214126e-05 0.0 
-5.889934214126e-05 1.190257071334e-03 0.0 
0.0 0.0 0.0 
-1.857127224342e-04 -8.949160944226e-05 0.0 
-8.949160944226e-05 4.819053527014e-04 0.0 
0.0 0.0 0.0 
-2.421733811995e-04 9.142124769908e-04 0.0 
9.142124769908e-04 1.122270907967e-02 0.0 
0.0 0.0 0.0 
3.751237568450e-04 8.108638854308e-07 0.0 
8.108638854308e-07 6.463799008177e-03 0.0 
0.0 0.0 0.0 
2.150099990423e-04 5.159640208173e-04 0.0 
5.159640208173e-04 7.891778928834e-03 0.0 
0.0 0.0 0.0 
1.066997369181e-04 4.375691727957e-04 0.0 
4.375691727957e-04 8.237823707446e-03 0.0 
0.0 0.0 0.0 
7.872127150299e-05 2.818133193236e-04 0.0 
2.818133193236e-04 8.228245168670e-03 0.0 
0.0 0.0 0.0 
1.747197699766e-04 1.217646396032e-03 0.0 
1.217646396032e-03 8.909239482769e-03 0.0 
0.0 0.0 0.0 
-3.951020656029e-04 -3.981667393132e-05 0.0 
-3.981667393132e-05 8.438906513659e-03 0.0 
0.0 0.0 0.0 
-3.785818092888e-04 6.214164030418e-05 0.0 
6.214164030418e-05 8.455502655318e-03 0.0 
0.0 0.0 0.0 
-7.382689413106e-04 4.268976325946e-04 0.0 
4.268976325946e-04 7.365047390324e-03 0.0 
0.0 0.0 0.0 
1.425027465578e-04 6.749918288886e-04 0.0 
6.749918288886e-04 8.127393814206e-03 0.0 
0.0 0.0 0.0 
-2.714733036662e-04 1.178699598730e-03 0.0 
1.178699598730e-03 4.351232009611e-03 0.0 
0.0 0.0 0.0 
-6.212848770620e-04 1.466726582474e-04 0.0 
1.466726582474e-04 8.421261890725e-03 0.0 
0.0 0.0 0.0 
-1.563296224816e-04 1.553097670162e-05 0.0 
1.553097670162e-05 1.137667378346e-02 0.0 
0.0 0.0 0.0 
-3.953064032430e-04 1.139469963879e-03 0.0 
1.139469963879e-03 4.347915420012e-03 0.0 
0.0 0.0 0.0 
-2.676037136762e-05 -1.243461485933e-04 0.0 
-1.243461485933e-04 8.139414622224e-04 0.0 
0.0 0.0 0.0 
-1.015848073613e-04 5.654444244755e-05 0.0 
5.654444244755e-05 1.140668270601e-02 0.0 
0.0 0.0 0.0 
-2.396825210487e-04 -1.058327105547e-04 0.0 
-1.058327105547e-04 5.228911916453e-04 0.0 
0.0 0.0 0.0 
-5.319646014164e-04 9.918255526860e-05 0.0 
9.918255526860e-05 9.032639230749e-03 0.0 
0.0 0.0 0.0 
-7.279059253738e-04 5.071881325136e-04 0.0 
5.071881325136e-04 7.079592791628e-03 0.0 
0.0 0.0 0.0 
2.234851629919e-04 -5.022365926717e-05 0.0 
-5.022365926717e-05 1.787991811878e-03 0.0 
0.0 0.0 0.0 
2.692631754406e-04 -7.551835855123e-05 0.0 
-7.551835855123e-05 1.624864075922e-03 0.0 
0.0 0.0 0.0 
-6.617935613453e-04 3.522607253292e-04 0.0 
3.522607253292e-04 7.179958313899e-03 0.0 
0.0 0.0 0.0 
-1.321033727409e-04 6.721548047545e-04 0.0 
6.721548047545e-04 1.145096950831e-02 0.0 
0.0 0.0 0.0 
3.280495696418e-04 -6.953795116421e-05 0.0 
-6.953795116421e-05 2.393420022812e-03 0.0 
0.0 0.0 0.0 
2.769086479233e-04 5.912991472038e-06 0.0 
5.912991472038e-06 1.846919259590e-03 0.0 
0.0 0.0 0.0 
3.866441890332e-04 6.973871440982e-05 0.0 
6.973871440982e-05 6.465694270596e-03 0.0 
0.0 0.0 0.0 
8.679475393047e-05 -6.472032819403e-05 0.0 
-6.472032819403e-05 1.063610785158e-03 0.0 
0.0 0.0 0.0 
-8.108482849856e-05 8.844717080838e-05 0.0 
8.844717080838e-05 1.173944030491e-02 0.0 
0.0 0.0 0.0 
-5.641611689033e-04 -1.134670827805e-04 0.0 
-1.134670827805e-04 5.915680042576e-04 0.0 
0.0 0.0 0.0 
8.782233222604e-05 1.284692793586e-03 0.0 
1.284692793586e-03 9.181088436048e-03 0.0 
0.0 0.0 0.0 
-3.602079344528e-04 1.180622931676e-03 0.0 
1.180622931676e-03 6.009889532637e-03 0.0 
0.0 0.0 0.0 
2.337728104367e-04 1.923990514570e-05 0.0 
1.923990514570e-05 1.386618500649e-03 0.0 
0.0 0.0 0.0 
1.766096596951e-04 1.527028961445e-04 0.0 
1.527028961445e-04 7.726585529064e-03 0.0 
0.0 0.0 0.0 
-6.678693904906e-04 4.015471806082e-04 0.0 
4.015471806082e-04 6.952122497909e-03 0.0 
0.0 0.0 0.0 
-3.312889365057e-04 -5.045122969647e-05 0.0 
-5.045122969647e-05 4.770259722890e-04 0.0 
0.0 0.0 0.0 
-2.563436501339e-04 9.598873104720e-04 0.0 
9.598873104720e-04 1.113832736824e-02 0.0 
0.0 0.0 0.0 
6.899213404710e-05 -2.198549139151e-04 0.0 
-2.198549139151e-04 1.191127691596e-03 0.0 
0.0 0.0 0.0 
-9.700168732685e-05 1.156141780978e-03 0.0 
1.156141780978e-03 1.068509853901e-02 0.0 
0.0 0.0 0.0 
4.838367796769e-04 4.147443671480e-05 0.0 
4.147443671480e-05 5.555561765445e-03 0.0 
0.0 0.0 0.0 
0.0 4.321682856509e-04 0.0 
4.321682856509e-04 1.190262217147e-02 0.0 
0.0 0.0 0.0 
-6.482895593352e-05 1.228516222082e-03 0.0 
1.228516222082e-03 9.774930605037e-03 0.0 
0.0 0.0 0.0 
3.601212652682e-05 2.897092203456e-05 0.0 
2.897092203456e-05 4.873578527633e-04 0.0 
0.0 0.0 0.0 
3.683752981283e-04 -2.575628932469e-06 0.0 
-2.575628932469e-06 2.499038512102e-03 0.0 
0.0 0.0 0.0 
-1.553889080947e-04 2.949648210201e-04 0.0 
2.949648210201e-04 1.158729228759e-02 0.0 
0.0 0.0 0.0 
-2.375900623109e-04 7.310792641815e-04 0.0 
7.310792641815e-04 1.141964617029e-02 0.0 
0.0 0.0 0.0 
-2.986282448840e-04 9.530311478217e-04 0.0 
9.530311478217e-04 3.006206237801e-03 0.0 
0.0 0.0 0.0 
1.470603818281e-04 -8.410642074108e-05 0.0 
-8.410642074108e-05 1.059953084599e-03 0.0 
0.0 0.0 0.0 
-2.515949810886e-04 1.167684756971e-03 0.0 
1.167684756971e-03 3.015281673515e-03 0.0 
0.0 0.0 0.0 
1.010439729547e-04 -1.007888662824e-04 0.0 
-1.007888662824e-04 1.172601539426e-03 0.0 
0.0 0.0 0.0 
-4.633902466885e-04 6.324829493136e-05 0.0 
6.324829493136e-05 8.766137758998e-03 0.0 
0.0 0.0 0.0 
-7.062828873899e-04 7.143561932141e-04 0.0 
7.143561932141e-04 6.495993076586e-03 0.0 
0.0 0.0 0.0 
-6.396133723945e-04 5.274590189571e-04 0.0 
5.274590189571e-04 6.403194259722e-03 0.0 
0.0 0.0 0.0 
-4.476987632166e-04 2.441082202829e-05 0.0 
2.441082202829e-05 9.084224296376e-03 0.0 
0.0 0.0 0.0 
-4.044406376177e-04 8.812679709573e-05 0.0 
8.812679709573e-05 9.083575188787e-03 0.0 
0.0 0.0 0.0 
4.557999863664e-04 1.845189847446e-05 0.0 
1.845189847446e-05 5.750779431825e-03 0.0 
0.0 0.0 0.0 
4.108209245053e-04 3.655430646949e-05 0.0 
3.655430646949e-05 6.260808152117e-03 0.0 
0.0 0.0 0.0 
-5.104884543581e-04 7.892460523835e-04 0.0 
7.892460523835e-04 1.017518702360e-02 0.0 
0.0 0.0 0.0 
-4.609785296668e-04 1.212152059824e-05 0.0 
1.212152059824e-05 8.841430107797e-03 0.0 
0.0 0.0 0.0 
-1.136208359501e-04 -8.729908545736e-05 0.0 
-8.729908545736e-05 4.583036366270e-04 0.0 
0.0 0.0 0.0 
-6.179580094050e-04 1.886500081783e-04 0.0 
1.886500081783e-04 8.790513598762e-03 0.0 
0.0 0.0 0.0 
-2.456853985484e-04 1.974398288159e-05 0.0 
1.974398288159e-05 1.046221847943e-02 0.0 
0.0 0.0 0.0 
-2.723704346739e-04 6.621695866742e-05 0.0 
6.621695866742e-05 1.039221886009e-02 0.0 
0.0 0.0 0.0 
-1.091967821290e-04 4.725462729764e-04 0.0 
4.725462729764e-04 1.189232341946e-02 0.0 
0.0 0.0 0.0 
4.263126706006e-05 1.243387269902e-03 0.0 
1.243387269902e-03 9.298309473239e-03 0.0 
0.0 0.0 0.0 
-5.021770706497e-04 5.643463626524e-05 0.0 
5.643463626524e-05 8.762856292888e-03 0.0 
0.0 0.0 0.0 
2.282537940228e-04 6.656098056959e-04 0.0 
6.656098056959e-04 8.105455430004e-03 0.0 
0.0 0.0 0.0 
-3.221804622223e-04 -1.392804050997e-05 0.0 
-1.392804050997e-05 9.465937456844e-03 0.0 
0.0 0.0 0.0 
-4.942424965309e-04 1.172265941552e-03 0.0 
1.172265941552e-03 6.228019538151e-03 0.0 
0.0 0.0 0.0 
-4.401226510010e-04 7.848060906828e-06 0.0 
7.848060906828e-06 8.652436925560e-03 0.0 
0.0 0.0 0.0 
1.158764204314e-04 1.785095493826e-04 0.0 
1.785095493826e-04 7.939431539401e-03 0.0 
0.0 0.0 0.0 
1.566181765595e-04 1.100020651082e-03 0.0 
1.100020651082e-03 7.937654122533e-03 0.0 
0.0 0.0 0.0 
3.199741666227e-05 1.223180278579e-03 0.0 
1.223180278579e-03 9.191224718555e-03 0.0 
0.0 0.0 0.0 
-4.622130083121e-06 1.272664592081e-03 0.0 
1.272664592081e-03 4.821899572868e-03 0.0 
0.0 0.0 0.0 
-2.398801924062e-04 -1.091111218825e-04 0.0 
-1.091111218825e-04 9.009595604106e-04 0.0 
0.0 0.0 0.0 
2.651355622822e-04 4.600235591419e-05 0.0 
4.600235591419e-05 7.201032177658e-03 0.0 
0.0 0.0 0.0 
-2.377468900171e-04 6.914102941065e-05 0.0 
6.914102941065e-05 1.076874673718e-02 0.0 
0.0 0.0 0.0 
-4.914968293354e-04 -1.144886718642e-04 0.0 
-1.144886718642e-04 6.094909153536e-04 0.0 
0.0 0.0 0.0 
1.164234554061e-04 2.714063034327e-04 0.0 
2.714063034327e-04 7.906608594025e-03 0.0 
0.0 0.0 0.0 
-4.690321064766e-04 8.124365274723e-04 0.0 
8.124365274723e-04 9.879164763055e-03 0.0 
0.0 0.0 0.0 
9.142194689948e-06 -5.155132185262e-05 0.0 
-5.155132185262e-05 3.090999858668e-04 0.0 
0.0 0.0 0.0 
1.220987175883e-04 1.249748666974e-03 0.0 
1.249748666974e-03 5.432451897066e-03 0.0 
0.0 0.0 0.0 
-7.072421251886e-04 2.574056743500e-04 0.0 
2.574056743500e-04 8.308995041531e-03 0.0 
0.0 0.0 0.0 
4.567960038355e-04 -4.544011183785e-05 0.0 
-4.544011183785e-05 3.064896903967e-03 0.0 
0.0 0.0 0.0 
-3.945283551718e-04 1.138861221448e-03 0.0 
1.138861221448e-03 5.701874815838e-03 0.0 
0.0 0.0 0.0 
-3.349295497693e-04 1.232419428886e-03 0.0 
1.232419428886e-03 6.005972912974e-03 0.0 
0.0 0.0 0.0 
1.473786345128e-04 5.258505463415e-04 0.0 
5.258505463415e-04 8.037610441147e-03 0.0 
0.0 0.0 0.0 
-3.307543041688e-04 4.298632874843e-05 0.0 
4.298632874843e-05 9.330180522751e-03 0.0 
0.0 0.0 0.0 
-2.032402079911e-04 1.294464148674e-03 0.0 
1.294464148674e-03 5.431809677599e-03 0.0 
0.0 0.0 0.0 
5.078432474459e-05 -2.085810095496e-04 0.0 
-2.085810095496e-04 1.131171825194e-03 0.0 
0.0 0.0 0.0 
-6.124410557827e-04 2.254827627400e-04 0.0 
2.254827627400e-04 8.726403301561e-03 0.0 
0.0 0.0 0.0 
-1.907959685894e-04 3.199448721412e-05 0.0 
3.199448721412e-05 1.079802020008e-02 0.0 
0.0 0.0 0.0 
-1.799650100647e-04 1.270610835070e-03 0.0 
1.270610835070e-03 5.432942147080e-03 0.0 
0.0 0.0 0.0 
-2.993238948634e-04 6.561126979066e-04 0.0 
6.561126979066e-04 1.778317739769e-03 0.0 
0.0 0.0 0.0 
-7.303242158454e-04 3.167556481298e-04 0.0 
3.167556481298e-04 7.838216213734e-03 0.0 
0.0 0.0 0.0 
4.098770155878e-04 -1.656232365724e-05 0.0 
-1.656232365724e-05 3.047910283255e-03 0.0 
0.0 0.0 0.0 
-6.615191971316e-04 2.775775222179e-04 0.0 
2.775775222179e-04 7.636483789512e-03 0.0 
0.0 0.0 0.0 
-8.873756120231e-05 3.862880290256e-04 0.0 
3.862880290256e-04 1.170995848484e-02 0.0 
0.0 0.0 0.0 
-5.461424896003e-05 8.155454020200e-04 0.0 
8.155454020200e-04 1.684475013862e-03 0.0 
0.0 0.0 0.0 
5.039520336771e-04 7.350313347186e-05 0.0 
7.350313347186e-05 5.279833215224e-03 0.0 
0.0 0.0 0.0 
-1.065298952987e-04 1.118029555255e-04 0.0 
1.118029555255e-04 1.159087714242e-02 0.0 
0.0 0.0 0.0 
-6.265777002030e-04 8.234659880596e-04 0.0 
8.234659880596e-04 7.358991934156e-03 0.0 
0.0 0.0 0.0 
-7.366502901517e-04 3.574754729023e-04 0.0 
3.574754729023e-04 7.606035703208e-03 0.0 
0.0 0.0 0.0 
2.542751738377e-04 6.102842045326e-04 0.0 
6.102842045326e-04 7.893670459965e-03 0.0 
0.0 0.0 0.0 
1.698109653856e-04 3.996424428887e-05 0.0 
3.996424428887e-05 7.735362183198e-03 0.0 
0.0 0.0 0.0 
4.676067707137e-04 8.610028122182e-05 0.0 
8.610028122182e-05 5.752609193498e-03 0.0 
0.0 0.0 0.0 
-6.896749802682e-04 8.153407786448e-04 0.0 
8.153407786448e-04 7.696876439585e-03 0.0 
0.0 0.0 0.0 
2.351432870098e-04 8.888870358959e-04 0.0 
8.888870358959e-04 8.359673533579e-03 0.0 
0.0 0.0 0.0 
-6.751673380411e-04 6.585051214124e-04 0.0 
6.585051214124e-04 7.412071303825e-03 0.0 
0.0 0.0 0.0 
-7.339909116821e-05 2.410807553259e-04 0.0 
2.410807553259e-04 1.166813415788e-02 0.0 
0.0 0.0 0.0 
-1.681161492678e-04 1.205275726272e-03 0.0 
1.205275726272e-03 1.075493023945e-02 0.0 
0.0 0.0 0.0 
-5.585097727120e-04 1.293316112413e-04 0.0 
1.293316112413e-04 9.199619942013e-03 0.0 
0.0 0.0 0.0 
-3.067465273265e-04 9.531263445203e-05 0.0 
9.531263445203e-05 9.975544234778e-03 0.0 
0.0 0.0 0.0 
-7.236826255365e-04 7.664625846751e-04 0.0 
7.664625846751e-04 7.407555747081e-03 0.0 
0.0 0.0 0.0 
-6.648066377781e-04 3.054366260181e-04 0.0 
3.054366260181e-04 7.400094362238e-03 0.0 
0.0 0.0 0.0 
-5.915766679829e-04 8.729882048203e-04 0.0 
8.729882048203e-04 7.650331958750e-03 0.0 
0.0 0.0 0.0 
2.419512992979e-05 1.282566607935e-03 0.0 
1.282566607935e-03 5.225737440845e-03 0.0 
0.0 0.0 0.0 
-4.065898051907e-04 -5.720315208266e-06 0.0 
-5.720315208266e-06 8.703288466314e-03 0.0 
0.0 0.0 0.0 
1.626200724829e-04 1.173840517361e-03 0.0 
1.173840517361e-03 5.441605510723e-03 0.0 
0.0 0.0 0.0 
-7.307469953222e-05 -1.160805656331e-04 0.0 
-1.160805656331e-04 4.303824815197e-04 0.0 
0.0 0.0 0.0 
-3.563530810458e-04 7.596465139309e-06 0.0 
7.596465139309e-06 9.008363821432e-03 0.0 
0.0 0.0 0.0 
1.466199237325e-04 -2.484297205585e-05 0.0 
-2.484297205585e-05 1.073140883066e-03 0.0 
0.0 0.0 0.0 
-7.196452702413e-04 2.833211947148e-04 0.0 
2.833211947148e-04 8.072768812283e-03 0.0 
0.0 0.0 0.0 
1.378974643029e-04 8.111429222726e-04 0.0 
8.111429222726e-04 8.303427581546e-03 0.0 
0.0 0.0 0.0 
-2.475648592837e-05 1.343364979300e-03 0.0 
1.343364979300e-03 4.816702865433e-03 0.0 
0.0 0.0 0.0 
4.419242295912e-04 6.770534203411e-05 0.0 
6.770534203411e-05 5.992212306277e-03 0.0 
0.0 0.0 0.0 
-4.967445180099e-04 1.144296883048e-03 0.0 
1.144296883048e-03 5.046309887416e-03 0.0 
0.0 0.0 0.0 
1.745914762303e-04 1.178723763354e-03 0.0 
1.178723763354e-03 7.930501845750e-03 0.0 
0.0 0.0 0.0 
-3.688755877005e-04 1.250033447691e-05 0.0 
1.250033447691e-05 8.730171938367e-03 0.0 
0.0 0.0 0.0 
2.744980364866e-04 1.221898639867e-03 0.0 
1.221898639867e-03 4.872698523574e-03 0.0 
0.0 0.0 0.0 
3.457450878122e-04 3.517026181029e-05 0.0 
3.517026181029e-05 6.703762432697e-03 0.0 
0.0 0.0 0.0 
8.561924961215e-05 -1.114718246570e-04 0.0 
-1.114718246570e-04 1.112512334554e-03 0.0 
0.0 0.0 0.0 
2.784756470682e-04 1.249503553611e-04 0.0 
1.249503553611e-04 7.192652165804e-03 0.0 
0.0 0.0 0.0 
-6.782635410277e-04 4.330070684994e-04 0.0 
4.330070684994e-04 8.519369566810e-03 0.0 
0.0 0.0 0.0 
1.917136557688e-04 2.665485761195e-04 0.0 
2.665485761195e-04 7.882471108126e-03 0.0 
0.0 0.0 0.0 
-3.557883885239e-04 8.277321491257e-06 0.0 
8.277321491257e-06 8.700295629999e-03 0.0 
0.0 0.0 0.0 
1.241727009329e-04 1.272459911213e-03 0.0 
1.272459911213e-03 4.586764811026e-03 0.0 
0.0 0.0 0.0 
-6.497800161837e-04 2.387882172964e-04 0.0 
2.387882172964e-04 8.087377077301e-03 0.0 
0.0 0.0 0.0 
4.971641698572e-04 -3.435228709395e-06 0.0 
-3.435228709395e-06 5.034856269948e-03 0.0 
0.0 0.0 0.0 
-3.770263305483e-04 1.143085676076e-03 0.0 
1.143085676076e-03 5.043633292807e-03 0.0 
0.0 0.0 0.0 
2.955087708025e-04 1.101859600802e-03 0.0 
1.101859600802e-03 4.888873980112e-03 0.0 
0.0 0.0 0.0 
-3.026630037758e-04 2.789072017476e-05 0.0 
2.789072017476e-05 1.018917912762e-02 0.0 
0.0 0.0 0.0 
-3.796671482894e-04 3.529047911499e-05 0.0 
3.529047911499e-05 8.706336347959e-03 0.0 
0.0 0.0 0.0 
1.208602568983e-04 1.261426289254e-03 0.0 
1.261426289254e-03 5.001271523757e-03 0.0 
0.0 0.0 0.0 
-6.649114214413e-04 2.515105121273e-04 0.0 
2.515105121273e-04 7.861343480910e-03 0.0 
0.0 0.0 0.0 
-2.892885159022e-04 1.062470507674e-03 0.0 
1.062470507674e-03 9.950087606661e-03 0.0 
0.0 0.0 0.0 
4.572895677151e-04 -2.544418630726e-05 0.0 
-2.544418630726e-05 3.421431416801e-03 0.0 
0.0 0.0 0.0 
-1.522334089010e-06 1.301491503544e-03 0.0 
1.301491503544e-03 9.961722089774e-03 0.0 
0.0 0.0 0.0 
-1.729156076444e-04 1.241403443572e-03 0.0 
1.241403443572e-03 1.061509516048e-02 0.0 
0.0 0.0 0.0 
-5.307332100899e-04 1.161133691763e-03 0.0 
1.161133691763e-03 5.995494472081e-03 0.0 
0.0 0.0 0.0 
4.944894455954e-04 -4.063915617715e-06 0.0 
-4.063915617715e-06 3.433605972500e-03 0.0 
0.0 0.0 0.0 
3.278649826597e-04 8.995884945906e-04 0.0 
8.995884945906e-04 7.746805101800e-03 0.0 
0.0 0.0 0.0 
-7.543683825295e-04 5.983042031503e-04 0.0 
5.983042031503e-04 7.415661252476e-03 0.0 
0.0 0.0 0.0 
-4.439021725682e-04 1.053633410230e-03 0.0 
1.053633410230e-03 5.455862411824e-03 0.0 
0.0 0.0 0.0 
-6.655147760594e-04 3.269766480940e-04 0.0 
3.269766480940e-04 8.424830027868e-03 0.0 
0.0 0.0 0.0 
3.035203163959e-05 1.258804043212e-03 0.0 
1.258804043212e-03 5.611814828014e-03 0.0 
0.0 0.0 0.0 
-7.478866892829e-05 1.910277977409e-04 0.0 
1.910277977409e-04 1.166616933115e-02 0.0 
0.0 0.0 0.0 
-4.769423388237e-04 7.001569136687e-04 0.0 
7.001569136687e-04 1.011479045465e-02 0.0 
0.0 0.0 0.0 
3.132630628198e-04 8.244885036250e-05 0.0 
8.244885036250e-05 6.950835434974e-03 0.0 
0.0 0.0 0.0 
-3.462831301452e-04 1.066480258886e-03 0.0 
1.066480258886e-03 3.668083478269e-03 0.0 
0.0 0.0 0.0 
4.079671130020e-04 9.934031374336e-04 0.0 
9.934031374336e-04 4.354692134577e-03 0.0 
0.0 0.0 0.0 
-4.345610266858e-04 7.939447553116e-04 0.0 
7.939447553116e-04 1.017273512776e-02 0.0 
0.0 0.0 0.0 
-7.591813793844e-04 2.127823306110e-04 0.0 
2.127823306110e-04 5.174321003485e-04 0.0 
0.0 0.0 0.0 
-6.862414507322e-04 4.855101219149e-04 0.0 
4.855101219149e-04 7.417806878162e-03 0.0 
0.0 0.0 0.0 
4.489377976269e-04 7.114990659368e-04 0.0 
7.114990659368e-04 6.991112166817e-03 0.0 
0.0 0.0 0.0 
1.232281477814e-05 -9.058654621433e-05 0.0 
-9.058654621433e-05 7.512613689700e-04 0.0 
0.0 0.0 0.0 
-1.970964311248e-04 8.104891108996e-04 0.0 
8.104891108996e-04 1.126493075673e-02 0.0 
0.0 0.0 0.0 
-5.361371730871e-04 4.402343588521e-04 0.0 
4.402343588521e-04 9.835046239335e-03 0.0 
0.0 0.0 0.0 
6.269318077237e-04 7.987789174188e-05 0.0 
7.987789174188e-05 3.266146992460e-03 0.0 
0.0 0.0 0.0 
5.047317989515e-04 8.170463219993e-04 0.0 
8.170463219993e-04 6.983871055856e-03 0.0 
0.0 0.0 0.0 
-6.231344635664e-04 2.517379107905e-04 0.0 
2.517379107905e-04 9.060061439148e-03 0.0 
0.0 0.0 0.0 
-5.764922476964e-04 2.105712486570e-04 0.0 
2.105712486570e-04 9.411007308430e-03 0.0 
0.0 0.0 0.0 
2.160708569436e-04 8.156841402072e-04 0.0 
8.156841402072e-04 8.078710400161e-03 0.0 
0.0 0.0 0.0 
4.429051918577e-04 -5.057761478748e-05 0.0 
-5.057761478748e-05 2.388772639398e-03 0.0 
0.0 0.0 0.0 
-4.976747669112e-04 9.951807408990e-04 0.0 
9.951807408990e-04 7.560133697539e-03 0.0 
0.0 0.0 0.0 
-6.733182477906e-04 5.460745507642e-04 0.0 
5.460745507642e-04 8.589726464868e-03 0.0 
0.0 0.0 0.0 
-5.667965885188e-04 4.117517791366e-04 0.0 
4.117517791366e-04 1.007292066924e-02 0.0 
0.0 0.0 0.0 
-7.307017729047e-04 4.263420514914e-04 0.0 
4.263420514914e-04 8.769123472806e-03 0.0 
0.0 0.0 0.0 
-7.366844998002e-04 3.566439209108e-04 0.0 
3.566439209108e-04 8.424999060571e-03 0.0 
0.0 0.0 0.0 
2.827050634997e-04 1.035405614843e-03 0.0 
1.035405614843e-03 7.050648039337e-03 0.0 
0.0 0.0 0.0 
-4.079146031142e-04 9.673300083388e-04 0.0 
9.673300083388e-04 9.933759313295e-03 0.0 
0.0 0.0 0.0 
-5.218987588032e-04 2.051870632235e-04 0.0 
2.051870632235e-04 7.629900752284e-04 0.0 
0.0 0.0 0.0 
-5.297615309668e-04 9.783592858250e-04 0.0 
9.783592858250e-04 5.973116306600e-03 0.0 
0.0 0.0 0.0 
-5.147799168119e-04 1.022504893080e-03 0.0 
1.022504893080e-03 6.252559971704e-03 0.0 
0.0 0.0 0.0 
-5.991936867505e-04 9.470405572888e-04 0.0 
9.470405572888e-04 7.640295508957e-03 0.0 
0.0 0.0 0.0 
-5.105598609509e-04 6.684265993764e-04 0.0 
6.684265993764e-04 1.038523360306e-02 0.0 
0.0 0.0 0.0 
2.791223695795e-04 4.975674715298e-04 0.0 
4.975674715298e-04 1.544113432592e-03 0.0 
0.0 0.0 0.0 
5.038524935901e-04 6.220145608323e-04 0.0 
6.220145608323e-04 6.621544113967e-03 0.0 
0.0 0.0 0.0 
-3.856901331569e-04 -2.204000454078e-05 0.0 
-2.204000454078e-05 8.676725392208e-03 0.0 
0.0 0.0 0.0 
4.076136055775e-04 1.143263857045e-03 0.0 
1.143263857045e-03 4.333591410188e-03 0.0 
0.0 0.0 0.0 
5.468879906003e-04 5.342001224513e-04 0.0 
5.342001224513e-04 6.271554414736e-03 0.0 
0.0 0.0 0.0 
-6.862519224793e-05 -1.227375285549e-04 0.0 
-1.227375285549e-04 5.141181948149e-04 0.0 
0.0 0.0 0.0 
-4.827469346670e-04 5.131497811178e-04 0.0 
5.131497811178e-04 1.018963313635e-02 0.0 
0.0 0.0 0.0 
-1.228671939701e-04 -4.625363773152e-05 0.0 
-4.625363773152e-05 4.068898426430e-04 0.0 
0.0 0.0 0.0 
7.844208464847e-05 -7.948348964821e-05 0.0 
-7.948348964821e-05 7.460934888097e-04 0.0 
0.0 0.0 0.0 
-2.094544706240e-04 1.201442264290e-03 0.0 
1.201442264290e-03 3.674823966365e-03 0.0 
0.0 0.0 0.0 
3.578842972649e-04 -8.541209203338e-05 0.0 
-8.541209203338e-05 2.002531560600e-03 0.0 
0.0 0.0 0.0 
-5.064221729794e-04 4.775927029729e-04 0.0 
4.775927029729e-04 1.042744564867e-02 0.0 
0.0 0.0 0.0 
2.779040116390e-04 -1.833941539316e-04 0.0 
-1.833941539316e-04 1.883104023120e-03 0.0 
0.0 0.0 0.0 
1.909238315418e-04 1.149888495895e-03 0.0 
1.149888495895e-03 3.129688575845e-03 0.0 
0.0 0.0 0.0 
1.994060979720e-04 -1.709334833419e-04 0.0 
-1.709334833419e-04 1.497993969318e-03 0.0 
0.0 0.0 0.0 
1.326177803249e-04 -1.049482304329e-04 0.0 
-1.049482304329e-04 1.262106117028e-03 0.0 
0.0 0.0 0.0 
4.393740299387e-04 8.904197874243e-04 0.0 
8.904197874243e-04 7.344622462711e-03 0.0 
0.0 0.0 0.0 
-7.466445656025e-04 4.662316265912e-04 0.0 
4.662316265912e-04 8.518105145805e-03 0.0 
0.0 0.0 0.0 
1.946009080009e-04 2.356927497708e-04 0.0 
2.356927497708e-04 7.731145805268e-03 0.0 
0.0 0.0 0.0 
-5.182304800808e-04 1.155993992985e-04 0.0 
1.155993992985e-04 3.340333118307e-04 0.0 
0.0 0.0 0.0 
2.666109248115e-04 1.196549578838e-03 0.0 
1.196549578838e-03 3.538966847570e-03 0.0 
0.0 0.0 0.0 
3.908016287368e-04 1.141028620253e-03 0.0 
1.141028620253e-03 4.804743582377e-03 0.0 
0.0 0.0 0.0 
-6.700242479381e-04 5.633075050190e-04 0.0 
5.633075050190e-04 7.122882946714e-03 0.0 
0.0 0.0 0.0 
5.572450817224e-04 7.229540767069e-04 0.0 
7.229540767069e-04 6.614556629192e-03 0.0 
0.0 0.0 0.0 
1.810792948329e-04 3.362072868350e-04 0.0 
3.362072868350e-04 7.936549362419e-03 0.0 
0.0 0.0 0.0 
-5.835722374808e-04 6.010426996571e-04 0.0 
6.010426996571e-04 1.004414270696e-02 0.0 
0.0 0.0 0.0 
4.576580149958e-04 7.975422930640e-04 0.0 
7.975422930640e-04 3.375867067062e-03 0.0 
0.0 0.0 0.0 
3.889287261472e-04 8.071008789778e-04 0.0 
8.071008789778e-04 7.345196319604e-03 0.0 
0.0 0.0 0.0 
4.804528910889e-04 6.965105187153e-05 0.0 
6.965105187153e-05 5.505843755617e-03 0.0 
0.0 0.0 0.0 
-6.487988358701e-04 8.546546539617e-04 0.0 
8.546546539617e-04 7.992302432432e-03 0.0 
0.0 0.0 0.0 
-5.265082175115e-04 5.223962294767e-04 0.0 
5.223962294767e-04 9.943824503138e-03 0.0 
0.0 0.0 0.0 
-2.136653640805e-05 1.249840930987e-03 0.0 
1.249840930987e-03 9.535525901006e-03 0.0 
0.0 0.0 0.0 
3.999928676972e-04 1.011070478641e-03 0.0 
1.011070478641e-03 4.823793779418e-03 0.0 
0.0 0.0 0.0 
7.315508306993e-05 1.132717554102e-03 0.0 
1.132717554102e-03 3.769634429463e-03 0.0 
0.0 0.0 0.0 
-7.064033294780e-04 4.962063042364e-04 0.0 
4.962063042364e-04 9.108830533658e-03 0.0 
0.0 0.0 0.0 
-8.297991910367e-05 4.372656015324e-04 0.0 
4.372656015324e-04 1.192468267222e-02 0.0 
0.0 0.0 0.0 
-4.832358903882e-04 1.044771696956e-03 0.0 
1.044771696956e-03 7.553826889133e-03 0.0 
0.0 0.0 0.0 
4.421713277467e-04 9.488083956112e-04 0.0 
9.488083956112e-04 5.700825823982e-03 0.0 
0.0 0.0 0.0 
-3.697018706494e-04 1.526084382559e-05 0.0 
1.526084382559e-05 9.092868418836e-03 0.0 
0.0 0.0 0.0 
-2.227478055572e-05 -2.004755477801e-04 0.0 
-2.004755477801e-04 1.104679140006e-03 0.0 
0.0 0.0 0.0 
-6.622292016027e-04 4.046147264296e-04 0.0 
4.046147264296e-04 8.772126348574e-03 0.0 
0.0 0.0 0.0 
5.047993811391e-04 9.893450363529e-04 0.0 
9.893450363529e-04 3.346666962947e-03 0.0 
0.0 0.0 0.0 
4.313622351315e-04 5.751886492237e-04 0.0 
5.751886492237e-04 1.997874832836e-03 0.0 
0.0 0.0 0.0 
1.352030969251e-04 -1.475554788917e-04 0.0 
-1.475554788917e-04 1.198468122366e-03 0.0 
0.0 0.0 0.0 
-4.343813018530e-04 5.011888036382e-04 0.0 
5.011888036382e-04 1.042410790011e-02 0.0 
0.0 0.0 0.0 
-7.234314191571e-04 5.362508445650e-04 0.0 
5.362508445650e-04 8.850750229485e-03 0.0 
0.0 0.0 0.0 
-4.143375221122e-05 1.295215907534e-03 0.0 
1.295215907534e-03 5.224127784649e-03 0.0 
0.0 0.0 0.0 
-4.503463555174e-04 4.597132060173e-04 0.0 
4.597132060173e-04 1.065664036465e-02 0.0 
0.0 0.0 0.0 
-5.513743428363e-04 6.926944811302e-04 0.0 
6.926944811302e-04 1.011708000419e-02 0.0 
0.0 0.0 0.0 
-6.795136716548e-04 7.741094124782e-04 0.0 
7.741094124782e-04 8.315310633710e-03 0.0 
0.0 0.0 0.0 
1.302840902937e-04 4.167573254875e-04 0.0 
4.167573254875e-04 7.977575613174e-03 0.0 
0.0 0.0 0.0 
5.015766510792e-04 9.895075668952e-04 0.0 
9.895075668952e-04 5.689257119876e-03 0.0 
0.0 0.0 0.0 
-6.948304599248e-04 7.046328300713e-04 0.0 
7.046328300713e-04 8.620288317830e-03 0.0 
0.0 0.0 0.0 
2.867171019605e-05 1.218301719516e-03 0.0 
1.218301719516e-03 6.004006898818e-03 0.0 
0.0 0.0 0.0 
4.107587254483e-04 9.602194176855e-04 0.0 
9.602194176855e-04 6.155831228207e-03 0.0 
0.0 0.0 0.0 
5.471006295865e-04 6.470625406720e-04 0.0 
6.470625406720e-04 2.431129273484e-03 0.0 
0.0 0.0 0.0 
-5.897677966491e-04 1.476199324808e-04 0.0 
1.476199324808e-04 8.771080361079e-03 0.0 
0.0 0.0 0.0 
4.849363231414e-04 9.178032328651e-04 0.0 
9.178032328651e-04 4.783504164063e-03 0.0 
0.0 0.0 0.0 
5.649947546837e-04 2.012283022753e-04 0.0 
2.012283022753e-04 2.719727228337e-03 0.0 
0.0 0.0 0.0 
-5.074039521398e-04 6.105063986797e-04 0.0 
6.105063986797e-04 1.004166614275e-02 0.0 
0.0 0.0 0.0 
-9.464685226981e-04 3.544486607285e-05 0.0 
3.544486607285e-05 5.418262835128e-04 0.0 
0.0 0.0 0.0 
-7.098368181384e-04 3.949182320266e-04 0.0 
3.949182320266e-04 9.012475114672e-03 0.0 
0.0 0.0 0.0 
5.851273147335e-04 8.769234432547e-04 0.0 
8.769234432547e-04 3.332445465557e-03 0.0 
0.0 0.0 0.0 
2.350964335245e-04 1.032160521348e-03 0.0 
1.032160521348e-03 3.561959316157e-03 0.0 
0.0 0.0 0.0 
4.471071168906e-04 4.291252301629e-04 0.0 
4.291252301629e-04 2.468832385339e-03 0.0 
0.0 0.0 0.0 
-6.247126844272e-04 5.825058340893e-04 0.0 
5.825058340893e-04 9.183964653764e-03 0.0 
0.0 0.0 0.0 
-9.260099733266e-05 -1.751270523919e-04 0.0 
-1.751270523919e-04 7.789120812538e-04 0.0 
0.0 0.0 0.0 
-5.994220033205e-04 8.794498313114e-04 0.0 
8.794498313114e-04 6.713995946326e-03 0.0 
0.0 0.0 0.0 
4.672814314306e-04 1.002358085394e-03 0.0 
1.002358085394e-03 6.154230207632e-03 0.0 
0.0 0.0 0.0 
-6.598831831970e-04 5.081191484378e-04 0.0 
5.081191484378e-04 8.855145020333e-03 0.0 
0.0 0.0 0.0 
-5.923372062979e-04 2.030554415147e-04 0.0 
2.030554415147e-04 9.100421424263e-03 0.0 
0.0 0.0 0.0 
1.251184493127e-04 3.593597022745e-04 0.0 
3.593597022745e-04 1.228209150164e-03 0.0 
0.0 0.0 0.0 
6.597997749400e-04 3.783507289653e-04 0.0 
3.783507289653e-04 2.691872005010e-03 0.0 
0.0 0.0 0.0 
5.020515742724e-04 7.344011625698e-05 0.0 
7.344011625698e-05 2.411057472095e-03 0.0 
0.0 0.0 0.0 
-6.472908433245e-04 1.003169907816e-03 0.0 
1.003169907816e-03 6.450535024267e-03 0.0 
0.0 0.0 0.0 
-6.043693387464e-04 5.084212197547e-04 0.0 
5.084212197547e-04 9.947127055970e-03 0.0 
0.0 0.0 0.0 
-6.088334891374e-04 1.033559562710e-03 0.0 
1.033559562710e-03 6.690983693527e-03 0.0 
0.0 0.0 0.0 
5.796177928938e-04 9.417161787054e-04 0.0 
9.417161787054e-04 4.279641988474e-03 0.0 
0.0 0.0 0.0 
5.041483098747e-04 1.042427582905e-03 0.0 
1.042427582905e-03 4.290883824973e-03 0.0 
0.0 0.0 0.0 
1.264340114788e-04 2.562069875170e-04 0.0 
2.562069875170e-04 1.631778100155e-03 0.0 
0.0 0.0 0.0 
1.115880759546e-04 1.227838479243e-03 0.0 
1.227838479243e-03 5.863868678716e-03 0.0 
0.0 0.0 0.0 
-4.773507095135e-05 8.877037337968e-04 0.0 
8.877037337968e-04 2.754680560122e-03 0.0 
0.0 0.0 0.0 
-1.268397813403e-04 7.632126907780e-04 0.0 
7.632126907780e-04 1.171301247500e-02 0.0 
0.0 0.0 0.0 
-1.447540449335e-04 9.098209825207e-04 0.0 
9.098209825207e-04 1.155844370702e-02 0.0 
0.0 0.0 0.0 
-3.840130853852e-04 1.086116329125e-03 0.0 
1.086116329125e-03 7.458789652766e-03 0.0 
0.0 0.0 0.0 
5.503693792204e-04 8.248334967856e-04 0.0 
8.248334967856e-04 2.865568802435e-03 0.0 
0.0 0.0 0.0 
2.822293717328e-04 8.490838120184e-04 0.0 
8.490838120184e-04 2.997702504231e-03 0.0 
0.0 0.0 0.0 
-6.013572849205e-04 7.787287425341e-04 0.0 
7.787287425341e-04 8.633389162100e-03 0.0 
0.0 0.0 0.0 
3.923107372388e-04 7.308837625383e-04 0.0 
7.308837625383e-04 2.922516221242e-03 0.0 
0.0 0.0 0.0 
6.021532595857e-04 2.438885581606e-04 0.0 
2.438885581606e-04 2.383995001632e-03 0.0 
0.0 0.0 0.0 
-6.259370796132e-04 7.893109510445e-04 0.0 
7.893109510445e-04 8.003740749766e-03 0.0 
0.0 0.0 0.0 
-1.522773231085e-04 2.612135565333e-04 0.0 
2.612135565333e-04 1.167230723704e-02 0.0 
0.0 0.0 0.0 
5.152191329361e-04 1.023707879265e-03 0.0 
1.023707879265e-03 3.816630462937e-03 0.0 
0.0 0.0 0.0 
2.763181105496e-04 1.118070475566e-03 0.0 
1.118070475566e-03 7.040734834765e-03 0.0 
0.0 0.0 0.0 
2.193418799310e-04 1.008046076175e-03 0.0 
1.008046076175e-03 2.556196883218e-03 0.0 
0.0 0.0 0.0 
1.293050509388e-04 1.062366221619e-03 0.0 
1.062366221619e-03 8.944987557182e-03 0.0 
0.0 0.0 0.0 
4.630745375429e-04 9.430654332838e-04 0.0 
9.430654332838e-04 2.887785945586e-03 0.0 
0.0 0.0 0.0 
-5.503086024815e-04 9.131986755989e-04 0.0 
9.131986755989e-04 7.949307864881e-03 0.0 
0.0 0.0 0.0 
3.477218272372e-04 4.082683289932e-04 0.0 
4.082683289932e-04 1.624018447800e-03 0.0 
0.0 0.0 0.0 
6.286241020470e-04 7.465570440592e-04 0.0 
7.465570440592e-04 5.899497044762e-03 0.0 
0.0 0.0 0.0 
4.826694481685e-04 1.047610866758e-03 0.0 
1.047610866758e-03 4.762834138283e-03 0.0 
0.0 0.0 0.0 
6.176789904251e-04 1.964100029709e-04 0.0 
1.964100029709e-04 2.523033097289e-03 0.0 
0.0 0.0 0.0 
-7.324787041398e-04 5.866237022904e-04 0.0 
5.866237022904e-04 8.584769647887e-03 0.0 
0.0 0.0 0.0 
-1.130761025862e-04 1.153371229748e-03 0.0 
1.153371229748e-03 1.126539757649e-02 0.0 
0.0 0.0 0.0 
5.907050702822e-04 9.148101129314e-04 0.0 
9.148101129314e-04 3.805821454059e-03 0.0 
0.0 0.0 0.0 
4.651412661230e-04 9.014373702973e-04 0.0 
9.014373702973e-04 6.168447126701e-03 0.0 
0.0 0.0 0.0 
1.489249530420e-04 7.786824782799e-04 0.0 
7.786824782799e-04 2.587854318801e-03 0.0 
0.0 0.0 0.0 
-4.451111837749e-04 2.381847264375e-04 0.0 
2.381847264375e-04 9.831345548522e-03 0.0 
0.0 0.0 0.0 
6.002491856809e-04 6.294688848566e-04 0.0 
6.294688848566e-04 6.259309105310e-03 0.0 
0.0 0.0 0.0 
-4.000236507828e-05 1.251516151587e-03 0.0 
1.251516151587e-03 4.426560950100e-03 0.0 
0.0 0.0 0.0 
-4.922317913405e-04 1.476888649570e-04 0.0 
1.476888649570e-04 9.664777516772e-03 0.0 
0.0 0.0 0.0 
-7.631292760979e-05 1.352733913220e-03 0.0 
1.352733913220e-03 1.083194192120e-02 0.0 
0.0 0.0 0.0 
5.218433901737e-04 6.800233917480e-04 0.0 
6.800233917480e-04 6.753383453734e-03 0.0 
0.0 0.0 0.0 
-1.314499920919e-04 1.075462477970e-03 0.0 
1.075462477970e-03 1.137650882731e-02 0.0 
0.0 0.0 0.0 
-5.387797736195e-04 1.973440225697e-04 0.0 
1.973440225697e-04 9.614914767081e-03 0.0 
0.0 0.0 0.0 
-5.311359830803e-04 8.147938473334e-04 0.0 
8.147938473334e-04 9.879322143594e-03 0.0 
0.0 0.0 0.0 
-1.473046957903e-04 1.172049395502e-03 0.0 
1.172049395502e-03 4.040113637841e-03 0.0 
0.0 0.0 0.0 
-7.551950367258e-04 5.194129014264e-04 0.0 
5.194129014264e-04 8.259705878941e-03 0.0 
0.0 0.0 0.0 
-6.471685390589e-04 6.642717061535e-04 0.0 
6.642717061535e-04 8.625803046797e-03 0.0 
0.0 0.0 0.0 
-6.965016507859e-04 6.463607688835e-04 0.0 
6.463607688835e-04 8.907863504238e-03 0.0 
0.0 0.0 0.0 
-3.862257760822e-04 1.127089240138e-03 0.0 
1.127089240138e-03 7.131912445294e-03 0.0 
0.0 0.0 0.0 
-4.311443256155e-05 1.424932710925e-03 0.0 
1.424932710925e-03 1.050324953367e-02 0.0 
0.0 0.0 0.0 
-5.691862918051e-04 2.985358376667e-04 0.0 
2.985358376667e-04 9.354929728814e-03 0.0 
0.0 0.0 0.0 
-7.193649825393e-04 3.261545623168e-04 0.0 
3.261545623168e-04 8.664861814517e-03 0.0 
0.0 0.0 0.0 
4.936101253286e-04 8.904815778565e-04 0.0 
8.904815778565e-04 4.313962001982e-03 0.0 
0.0 0.0 0.0 
2.525096844577e-04 -1.000500775333e-04 0.0 
-1.000500775333e-04 1.632859333065e-03 0.0 
0.0 0.0 0.0 
-7.521668151658e-04 3.933033401000e-04 0.0 
3.933033401000e-04 8.176978259794e-03 0.0 
0.0 0.0 0.0 
1.376801391086e-04 1.283646180037e-03 0.0 
1.283646180037e-03 4.158026344782e-03 0.0 
0.0 0.0 0.0 
-3.703247091347e-04 2.985848107223e-06 0.0 
2.985848107223e-06 8.719541212719e-03 0.0 
0.0 0.0 0.0 
5.239524973149e-04 4.053623145218e-05 0.0 
4.053623145218e-05 2.546686053599e-03 0.0 
0.0 0.0 0.0 
4.871372386281e-04 8.504218549811e-04 0.0 
8.504218549811e-04 3.841499921927e-03 0.0 
0.0 0.0 0.0 
-4.628362201350e-04 5.973713316279e-04 0.0 
5.973713316279e-04 1.029360903939e-02 0.0 
0.0 0.0 0.0 
1.389522580952e-04 1.180773397929e-03 0.0 
1.180773397929e-03 4.171417094174e-03 0.0 
0.0 0.0 0.0 
-6.771295116118e-04 5.957867258897e-04 0.0 
5.957867258897e-04 8.313316797887e-03 0.0 
0.0 0.0 0.0 
5.155981550957e-04 9.426525366484e-04 0.0 
9.426525366484e-04 6.180396544334e-03 0.0 
0.0 0.0 0.0 
7.124133752616e-04 3.433304276906e-04 0.0 
3.433304276906e-04 4.680049019439e-03 0.0 
0.0 0.0 0.0 
3.199853399605e-05 1.439246789960e-03 0.0 
1.439246789960e-03 9.983340678527e-03 0.0 
0.0 0.0 0.0 
-7.577119996127e-04 5.122563215405e-04 0.0 
5.122563215405e-04 7.679138631081e-03 0.0 
0.0 0.0 0.0 
6.356831180752e-04 4.538396063980e-04 0.0 
4.538396063980e-04 2.579241691390e-03 0.0 
0.0 0.0 0.0 
5.596368357421e-04 -1.541611228124e-05 0.0 
-1.541611228124e-05 3.131257094271e-03 0.0 
0.0 0.0 0.0 
-4.074570814526e-04 1.275022104625e-03 0.0 
1.275022104625e-03 5.423889116658e-03 0.0 
0.0 0.0 0.0 
-3.442745334281e-05 1.308986787715e-03 0.0 
1.308986787715e-03 4.420220898551e-03 0.0 
0.0 0.0 0.0 
-4.670223191928e-04 7.591883713361e-04 0.0 
7.591883713361e-04 1.045083098471e-02 0.0 
0.0 0.0 0.0 
-6.041642925710e-04 8.838473503691e-04 0.0 
8.838473503691e-04 8.297322265967e-03 0.0 
0.0 0.0 0.0 
-7.452391546093e-04 6.954114128037e-04 0.0 
6.954114128037e-04 7.112040859820e-03 0.0 
0.0 0.0 0.0 
-6.922675856318e-04 5.181205386188e-04 0.0 
5.181205386188e-04 8.001730335301e-03 0.0 
0.0 0.0 0.0 
1.019682093091e-04 1.279294164155e-03 0.0 
1.279294164155e-03 9.319380313414e-03 0.0 
0.0 0.0 0.0 
1.493507648596e-04 1.183686753761e-03 0.0 
1.183686753761e-03 8.922241487921e-03 0.0 
0.0 0.0 0.0 
-3.942363016749e-04 7.709558896988e-04 0.0 
7.709558896988e-04 1.044740894043e-02 0.0 
0.0 0.0 0.0 
-5.594402291668e-04 4.935531252481e-04 0.0 
4.935531252481e-04 1.019362357343e-02 0.0 
0.0 0.0 0.0 
6.654768014664e-04 2.634117982171e-04 0.0 
2.634117982171e-04 4.546237236409e-03 0.0 
0.0 0.0 0.0 
-4.627888227166e-04 1.157649824747e-03 0.0 
1.157649824747e-03 6.521146702385e-03 0.0 
0.0 0.0 0.0 
4.727122326160e-04 6.149684057842e-04 0.0 
6.149684057842e-04 2.899279876758e-03 0.0 
0.0 0.0 0.0 
5.294599767613e-04 6.870932692732e-04 0.0 
6.870932692732e-04 3.361817722861e-03 0.0 
0.0 0.0 0.0 
-5.538012297430e-04 9.636092651181e-04 0.0 
9.636092651181e-04 7.941893591118e-03 0.0 
0.0 0.0 0.0 
5.875130488726e-04 6.948277035883e-04 0.0 
6.948277035883e-04 5.836079225485e-03 0.0 
0.0 0.0 0.0 
5.514331291743e-04 -8.413381951631e-06 0.0 
-8.413381951631e-06 3.782327113682e-03 0.0 
0.0 0.0 0.0 
-3.847793370618e-04 6.683947963638e-04 0.0 
6.683947963638e-04 1.063384931669e-02 0.0 
0.0 0.0 0.0 
5.388924921541e-04 2.610605019842e-04 0.0 
2.610605019842e-04 2.609808763601e-03 0.0 
0.0 0.0 0.0 
-2.655521563041e-04 1.192149637778e-03 0.0 
1.192149637778e-03 6.668082948833e-03 0.0 
0.0 0.0 0.0 
-6.424909945060e-04 7.198734043465e-04 0.0 
7.198734043465e-04 8.325392882877e-03 0.0 
0.0 0.0 0.0 
-2.948261523039e-04 1.215519520343e-03 0.0 
1.215519520343e-03 6.337675704951e-03 0.0 
0.0 0.0 0.0 
-1.411481401388e-04 9.987614775216e-04 0.0 
9.987614775216e-04 1.147364663657e-02 0.0 
0.0 0.0 0.0 
-1.313820842000e-04 8.450033265193e-04 0.0 
8.450033265193e-04 1.163158457781e-02 0.0 
0.0 0.0 0.0 
-2.614387091672e-04 7.744231767924e-04 0.0 
7.744231767924e-04 1.127062041167e-02 0.0 
0.0 0.0 0.0 
6.519230310416e-04 3.255349942079e-04 0.0 
3.255349942079e-04 4.999469393448e-03 0.0 
0.0 0.0 0.0 
-3.803715760737e-04 4.895927781473e-04 0.0 
4.895927781473e-04 1.065253427263e-02 0.0 
0.0 0.0 0.0 
9.872730467220e-05 1.254708689281e-03 0.0 
1.254708689281e-03 3.755386916873e-03 0.0 
0.0 0.0 0.0 
5.549716081565e-04 7.454375556573e-04 0.0 
7.454375556573e-04 3.832032724033e-03 0.0 
0.0 0.0 0.0 
3.207221799353e-04 3.439847071916e-04 0.0 
3.439847071916e-04 2.038022137996e-03 0.0 
0.0 0.0 0.0 
-6.831795918403e-04 8.860866801102e-04 0.0 
8.860866801102e-04 7.066603903778e-03 0.0 
0.0 0.0 0.0 
-5.546564451183e-04 1.107223275362e-04 0.0 
1.107223275362e-04 8.780388095586e-03 0.0 
0.0 0.0 0.0 
-4.808129681405e-04 2.353379805930e-04 0.0 
2.353379805930e-04 9.611199380519e-03 0.0 
0.0 0.0 0.0 
2.215869143813e-04 1.025909044394e-03 0.0 
1.025909044394e-03 8.547797553699e-03 0.0 
0.0 0.0 0.0 
-3.790914010097e-04 8.829301216973e-04 0.0 
8.829301216973e-04 1.020667425490e-02 0.0 
0.0 0.0 0.0 
-6.384484555279e-04 4.810233174211e-04 0.0 
4.810233174211e-04 9.110751791299e-03 0.0 
0.0 0.0 0.0 
-6.044671627944e-04 7.268221709855e-04 0.0 
7.268221709855e-04 8.943037239113e-03 0.0 
0.0 0.0 0.0 
4.980327845845e-04 4.758699553656e-04 0.0 
4.758699553656e-04 2.048775156032e-03 0.0 
0.0 0.0 0.0 
-1.668550657141e-04 -1.417567995047e-04 0.0 
-1.417567995047e-04 8.238699679495e-04 0.0 
0.0 0.0 0.0 
2.544714348029e-04 1.200483169241e-03 0.0 
1.200483169241e-03 5.332989261056e-03 0.0 
0.0 0.0 0.0 
-2.415835794455e-04 1.168124923141e-03 0.0 
1.168124923141e-03 7.005877722616e-03 0.0 
0.0 0.0 0.0 
1.596404663518e-04 1.158841754203e-03 0.0 
1.158841754203e-03 5.873477698668e-03 0.0 
0.0 0.0 0.0 
-3.108575445929e-04 9.857569380596e-04 0.0 
9.857569380596e-04 1.784956210627e-03 0.0 
0.0 0.0 0.0 
-3.496232978847e-04 3.173593508843e-05 0.0 
3.173593508843e-05 9.075786466002e-03 0.0 
0.0 0.0 0.0 
1.707230217181e-04 -2.021279255764e-04 0.0 
-2.021279255764e-04 1.506123098097e-03 0.0 
0.0 0.0 0.0 
4.005930146429e-04 1.100867863980e-03 0.0 
1.100867863980e-03 3.410412523485e-03 0.0 
0.0 0.0 0.0 
0.0 1.048955623003e-03 0.0 
1.048955623003e-03 9.005719993606e-03 0.0 
0.0 0.0 0.0 
3.375107509698e-04 9.976863654022e-04 0.0 
9.976863654022e-04 7.068666118803e-03 0.0 
0.0 0.0 0.0 
-6.518565226968e-04 3.109146997036e-04 0.0 
3.109146997036e-04 8.666472426093e-03 0.0 
0.0 0.0 0.0 
9.940329781233e-05 3.625096399773e-06 0.0 
3.625096399773e-06 1.055990802878e-03 0.0 
0.0 0.0 0.0 
-4.217340301418e-04 1.085180006939e-03 0.0 
1.085180006939e-03 7.137829975432e-03 0.0 
0.0 0.0 0.0 
2.858448440752e-04 1.100081780934e-03 0.0 
1.100081780934e-03 5.346962539758e-03 0.0 
0.0 0.0 0.0 
-6.869737770425e-04 5.989469327647e-04 0.0 
5.989469327647e-04 9.182127800764e-03 0.0 
0.0 0.0 0.0 
-9.686265493380e-05 1.233955860166e-03 0.0 
1.233955860166e-03 1.112910134546e-02 0.0 
0.0 0.0 0.0 
-6.873372761583e-04 4.714895011544e-04 0.0 
4.714895011544e-04 8.264896819732e-03 0.0 
0.0 0.0 0.0 
-6.352794472398e-04 8.139643597456e-04 0.0 
8.139643597456e-04 8.629001647470e-03 0.0 
0.0 0.0 0.0 
6.032243050744e-04 7.568822866975e-05 0.0 
7.568822866975e-05 3.769451140292e-03 0.0 
0.0 0.0 0.0 
-4.138403186736e-04 5.844873189199e-04 0.0 
5.844873189199e-04 1.053797954228e-02 0.0 
0.0 0.0 0.0 
6.904701738100e-04 4.003448868041e-04 0.0 
4.003448868041e-04 5.137266483530e-03 0.0 
0.0 0.0 0.0 
-1.004034615512e-04 1.295920364989e-03 0.0 
1.295920364989e-03 1.098688058658e-02 0.0 
0.0 0.0 0.0 
0.0 9.953972666676e-04 0.0 
9.953972666676e-04 1.142485187345e-02 0.0 
0.0 0.0 0.0 
0.0 6.931199286888e-04 0.0 
6.931199286888e-04 1.175117299354e-02 0.0 
0.0 0.0 0.0 
0.0 8.365872398671e-04 0.0 
8.365872398671e-04 1.159525570464e-02 0.0 
0.0 0.0 0.0 
-5.958506170810e-04 6.849355147357e-04 0.0 
6.849355147357e-04 9.235497664455e-03 0.0 
0.0 0.0 0.0 
-4.876301269771e-04 5.605429803920e-04 0.0 
5.605429803920e-04 1.054141530347e-02 0.0 
0.0 0.0 0.0 
-3.389033946605e-04 8.698377487150e-04 0.0 
8.698377487150e-04 1.050366574784e-02 0.0 
0.0 0.0 0.0 
-3.425745041780e-04 1.181190111365e-03 0.0 
1.181190111365e-03 6.342037744436e-03 0.0 
0.0 0.0 0.0 
-4.864296701580e-04 1.063490920231e-03 0.0 
1.063490920231e-03 6.533106179189e-03 0.0 
0.0 0.0 0.0 
5.187923771317e-04 -4.198656407944e-05 0.0 
-4.198656407944e-05 3.540892834733e-03 0.0 
0.0 0.0 0.0 
-4.595950356171e-04 6.473685007349e-04 0.0 
6.473685007349e-04 1.063737034630e-02 0.0 
0.0 0.0 0.0 
-5.942874947429e-05 1.395780448807e-03 0.0 
1.395780448807e-03 1.066730474088e-02 0.0 
0.0 0.0 0.0 
-3.586430688760e-04 5.662097404360e-04 0.0 
5.662097404360e-04 1.076908066732e-02 0.0 
0.0 0.0 0.0 
3.757687112900e-04 9.757548001714e-04 0.0 
9.757548001714e-04 6.612386478997e-03 0.0 
0.0 0.0 0.0 
-4.285247300113e-04 5.408283418202e-04 0.0 
5.408283418202e-04 1.077287003960e-02 0.0 
0.0 0.0 0.0 
-1.586900339478e-04 1.126213222519e-03 0.0 
1.126213222519e-03 8.428773560593e-03 0.0 
0.0 0.0 0.0 
-1.717292807386e-04 1.212153542702e-03 0.0 
1.212153542702e-03 6.522964260104e-03 0.0 
0.0 0.0 0.0 
-6.454685426334e-04 7.590906153958e-04 0.0 
7.590906153958e-04 7.079800041857e-03 0.0 
0.0 0.0 0.0 
3.686783938153e-04 8.895892774723e-04 0.0 
8.895892774723e-04 2.448822072180e-03 0.0 
0.0 0.0 0.0 
-1.019033832738e-04 4.610356782636e-04 0.0 
4.610356782636e-04 1.160109109052e-02 0.0 
0.0 0.0 0.0 
-2.005634759599e-04 1.262086409498e-03 0.0 
1.262086409498e-03 5.807586266782e-03 0.0 
0.0 0.0 0.0 
-9.123580428061e-05 1.204987525706e-03 0.0 
1.204987525706e-03 9.959114281634e-03 0.0 
0.0 0.0 0.0 
5.657677591340e-04 3.850141481385e-05 0.0 
3.850141481385e-05 3.528561884350e-03 0.0 
0.0 0.0 0.0 
4.504935352325e-04 -5.274536738999e-05 0.0 
-5.274536738999e-05 2.277843648804e-03 0.0 
0.0 0.0 0.0 
1.350787219199e-04 9.527100337593e-04 0.0 
9.527100337593e-04 8.487689768260e-03 0.0 
0.0 0.0 0.0 
2.864327840706e-04 1.218122437723e-03 0.0 
1.218122437723e-03 3.976798642538e-03 0.0 
0.0 0.0 0.0 
0.0 1.072036060695e-03 0.0 
1.072036060695e-03 1.132278558588e-02 0.0 
0.0 0.0 0.0 
-1.523230034161e-04 7.276886352896e-04 0.0 
7.276886352896e-04 1.139995025199e-02 0.0 
0.0 0.0 0.0 
-5.051462400222e-04 9.446066382526e-04 0.0 
9.446066382526e-04 8.260133131906e-03 0.0 
0.0 0.0 0.0 
-1.648526867277e-04 -1.157492598080e-04 0.0 
-1.157492598080e-04 4.717400688685e-04 0.0 
0.0 0.0 0.0 
0.0 1.203658173318e-03 0.0 
1.203658173318e-03 1.106009037658e-02 0.0 
0.0 0.0 0.0 
1.085282854101e-04 1.074346451107e-03 0.0 
1.074346451107e-03 8.752627596463e-03 0.0 
0.0 0.0 0.0 
5.401755880317e-04 9.258406181628e-05 0.0 
9.258406181628e-05 2.255434948131e-03 0.0 
0.0 0.0 0.0 
4.250751111459e-04 9.270721216921e-04 0.0 
9.270721216921e-04 6.629523377083e-03 0.0 
0.0 0.0 0.0 
4.409777272874e-05 1.414656438188e-03 0.0 
1.414656438188e-03 9.806885145069e-03 0.0 
0.0 0.0 0.0 
-2.931983256851e-04 -4.739159030982e-05 0.0 
-4.739159030982e-05 2.487070184256e-04 0.0 
0.0 0.0 0.0 
-1.891127884606e-04 1.235033693269e-03 0.0 
1.235033693269e-03 6.166514141226e-03 0.0 
0.0 0.0 0.0 
-5.368682196900e-04 8.828754782950e-04 0.0 
8.828754782950e-04 8.616996218649e-03 0.0 
0.0 0.0 0.0 
-4.547664305593e-04 1.014166864972e-03 0.0 
1.014166864972e-03 7.874800490216e-03 0.0 
0.0 0.0 0.0 
-5.834334055127e-04 8.412365840738e-04 0.0 
8.412365840738e-04 8.303192464874e-03 0.0 
0.0 0.0 0.0 
3.469823354556e-04 1.057444208064e-03 0.0 
1.057444208064e-03 2.965973194824e-03 0.0 
0.0 0.0 0.0 
0.0 1.307680582434e-03 0.0 
1.307680582434e-03 1.075137548319e-02 0.0 
0.0 0.0 0.0 
5.590894477592e-04 7.905992606537e-04 0.0 
7.905992606537e-04 4.303531077761e-03 0.0 
0.0 0.0 0.0 
1.760827708797e-05 7.134755264916e-05 0.0 
7.134755264916e-05 1.277143451510e-03 0.0 
0.0 0.0 0.0 
2.040644033787e-04 4.534571641791e-04 0.0 
4.534571641791e-04 7.994943319556e-03 0.0 
0.0 0.0 0.0 
-2.942765134459e-04 -1.074107006521e-04 0.0 
-1.074107006521e-04 5.074782393983e-04 0.0 
0.0 0.0 0.0 
-6.871458060770e-04 5.790621512252e-04 0.0 
5.790621512252e-04 7.723228199465e-03 0.0 
0.0 0.0 0.0 
1.339890385172e-04 -1.023524717849e-04 0.0 
-1.023524717849e-04 1.085054732233e-03 0.0 
0.0 0.0 0.0 
-6.781027663788e-04 3.510054419602e-04 0.0 
3.510054419602e-04 8.182033498669e-03 0.0 
0.0 0.0 0.0 
1.115331930905e-04 1.202318813746e-03 0.0 
1.202318813746e-03 9.177106051686e-03 0.0 
0.0 0.0 0.0 
0.0 1.369494889960e-03 0.0 
1.369494889960e-03 1.041394917574e-02 0.0 
0.0 0.0 0.0 
-6.406482037891e-04 6.186074988579e-04 0.0 
6.186074988579e-04 8.911447405704e-03 0.0 
0.0 0.0 0.0 
-4.889480669901e-05 -1.515554353982e-04 0.0 
-1.515554353982e-04 7.979640577562e-04 0.0 
0.0 0.0 0.0 
-2.251558926047e-05 1.869111441347e-04 0.0 
1.869111441347e-04 9.674714059480e-04 0.0 
0.0 0.0 0.0 
-4.551423362642e-05 -1.143654876694e-04 0.0 
-1.143654876694e-04 1.165671387853e-03 0.0 
0.0 0.0 0.0 
4.029970457058e-04 4.221540569561e-04 0.0 
4.221540569561e-04 6.898917587326e-03 0.0 
0.0 0.0 0.0 
-5.653700127820e-04 1.372690351622e-04 0.0 
1.372690351622e-04 8.752327933678e-03 0.0 
0.0 0.0 0.0 
-6.964422460720e-04 2.994972216784e-04 0.0 
2.994972216784e-04 8.888934925829e-03 0.0 
0.0 0.0 0.0 
0.0 1.378648244137e-03 0.0 
1.378648244137e-03 1.007268493086e-02 0.0 
0.0 0.0 0.0 
-5.402448660194e-04 9.945762490783e-05 0.0 
9.945762490783e-05 8.761627244200e-03 0.0 
0.0 0.0 0.0 
-1.136885213474e-04 6.855396326987e-04 0.0 
6.855396326987e-04 1.177739173511e-02 0.0 
0.0 0.0 0.0 
-7.143853196334e-05 1.171420544538e-03 0.0 
1.171420544538e-03 8.375484105864e-03 0.0 
0.0 0.0 0.0 
-4.693584671753e-04 1.817753832305e-04 0.0 
1.817753832305e-04 9.433207869186e-03 0.0 
0.0 0.0 0.0 
-2.366644992373e-04 1.293320258564e-03 0.0 
1.293320258564e-03 5.065798540576e-03 0.0 
0.0 0.0 0.0 
4.302122391442e-04 1.017698230020e-03 0.0 
1.017698230020e-03 6.616845654466e-03 0.0 
0.0 0.0 0.0 
2.338205973631e-04 4.514627021498e-04 0.0 
4.514627021498e-04 2.037279220508e-03 0.0 
0.0 0.0 0.0 
0.0 1.331735097133e-03 0.0 
1.331735097133e-03 9.725835085485e-03 0.0 
0.0 0.0 0.0 
0.0 9.184884912173e-04 0.0 
9.184884912173e-04 1.151903116019e-02 0.0 
0.0 0.0 0.0 
0.0 7.598165305580e-04 0.0 
7.598165305580e-04 1.168642716476e-02 0.0 
0.0 0.0 0.0 
6.329258095588e-04 3.032496288958e-04 0.0 
3.032496288958e-04 5.151987344992e-03 0.0 
0.0 0.0 0.0 
4.838744728819e-04 -6.608820451782e-05 0.0 
-6.608820451782e-05 3.305314457932e-03 0.0 
0.0 0.0 0.0 
-1.125211756989e-04 1.206949866245e-03 0.0 
1.206949866245e-03 6.523414101917e-03 0.0 
0.0 0.0 0.0 
6.642170387479e-04 3.744661051508e-04 0.0 
3.744661051508e-04 5.293817383758e-03 0.0 
0.0 0.0 0.0 
0.0 1.246532754373e-03 0.0 
1.246532754373e-03 9.413850245073e-03 0.0 
0.0 0.0 0.0 
3.612678378457e-04 9.147781903859e-04 0.0 
9.147781903859e-04 3.438374714676e-03 0.0 
0.0 0.0 0.0 
6.750649123342e-04 3.152877278207e-04 0.0 
3.152877278207e-04 2.817005067606e-03 0.0 
0.0 0.0 0.0 
6.826270445666e-04 2.633558046932e-04 0.0 
2.633558046932e-04 2.949295969865e-03 0.0 
0.0 0.0 0.0 
-4.367905911696e-04 1.877347861434e-04 0.0 
1.877347861434e-04 9.660051284004e-03 0.0 
0.0 0.0 0.0 
1.099978059780e-04 9.730823804933e-04 0.0 
9.730823804933e-04 8.840019025446e-03 0.0 
0.0 0.0 0.0 
-2.293287128795e-04 -1.358127734183e-04 0.0 
-1.358127734183e-04 8.592214866978e-04 0.0 
0.0 0.0 0.0 
0.0 1.116337491524e-03 0.0 
1.116337491524e-03 9.115048919566e-03 0.0 
0.0 0.0 0.0 
6.271583827053e-04 1.567715149885e-04 0.0 
1.567715149885e-04 2.666542011732e-03 0.0 
0.0 0.0 0.0 
0.0 1.143817226845e-03 0.0 
1.143817226845e-03 1.120525933084e-02 0.0 
0.0 0.0 0.0 
-4.204054241393e-04 8.544555815598e-04 0.0 
8.544555815598e-04 1.050688443790e-02 0.0 
0.0 0.0 0.0 
-4.679897872210e-04 -4.527965859928e-05 0.0 
-4.527965859928e-05 3.105556922869e-04 0.0 
0.0 0.0 0.0 
-3.437154618746e-05 1.245581140715e-03 0.0 
1.245581140715e-03 6.000236281973e-03 0.0 
0.0 0.0 0.0 
-3.895262483539e-04 4.424632693247e-04 0.0 
4.424632693247e-04 1.087884315887e-02 0.0 
0.0 0.0 0.0 
0.0 1.262311378886e-03 0.0 
1.262311378886e-03 1.091247245659e-02 0.0 
0.0 0.0 0.0 
-6.499514440885e-04 7.018540259524e-04 0.0 
7.018540259524e-04 9.233505813843e-03 0.0 
0.0 0.0 0.0 
1.677376731268e-05 1.185169511665e-03 0.0 
1.185169511665e-03 8.336842276147e-03 0.0 
0.0 0.0 0.0 
2.097446101981e-04 8.379671608938e-04 0.0 
8.379671608938e-04 2.037312074521e-03 0.0 
0.0 0.0 0.0 
2.244988521747e-04 9.891944143528e-04 0.0 
9.891944143528e-04 8.262927836582e-03 0.0 
0.0 0.0 0.0 
6.313243369851e-04 1.279775915728e-04 0.0 
1.279775915728e-04 2.816789319697e-03 0.0 
0.0 0.0 0.0 
5.978436986982e-04 1.170484851161e-04 0.0 
1.170484851161e-04 2.969212055457e-03 0.0 
0.0 0.0 0.0 
-4.515371670378e-04 -1.130179283068e-04 0.0 
-1.130179283068e-04 6.005442961570e-04 0.0 
0.0 0.0 0.0 
0.0 1.343117928340e-03 0.0 
1.343117928340e-03 1.058359269448e-02 0.0 
0.0 0.0 0.0 
3.760818058756e-04 5.350358195988e-04 0.0 
5.350358195988e-04 2.454119578674e-03 0.0 
0.0 0.0 0.0 
4.283785716739e-04 6.877963156822e-04 0.0 
6.877963156822e-04 7.126702636269e-03 0.0 
0.0 0.0 0.0 
-5.048741442474e-04 9.042650937062e-05 0.0 
9.042650937062e-05 9.236062619096e-03 0.0 
0.0 0.0 0.0 
4.199913292988e-04 -1.251425341990e-04 0.0 
-1.251425341990e-04 2.340800644825e-03 0.0 
0.0 0.0 0.0 
5.849633268065e-04 1.541067895884e-04 0.0 
1.541067895884e-04 2.840720403951e-03 0.0 
0.0 0.0 0.0 
-6.496653455749e-04 7.535190811441e-04 0.0 
7.535190811441e-04 8.939633708244e-03 0.0 
0.0 0.0 0.0 
0.0 1.359165364813e-03 0.0 
1.359165364813e-03 9.900480566371e-03 0.0 
0.0 0.0 0.0 
5.238945264092e-04 1.998375360491e-05 0.0 
1.998375360491e-05 3.471575352101e-03 0.0 
0.0 0.0 0.0 
5.782405217283e-04 4.471224465007e-04 0.0 
4.471224465007e-04 5.935928989169e-03 0.0 
0.0 0.0 0.0 
-2.599946932494e-04 1.144457010713e-03 0.0 
1.144457010713e-03 7.352643736554e-03 0.0 
0.0 0.0 0.0 
6.314604950606e-04 5.486651625010e-04 0.0 
5.486651625010e-04 5.542566274160e-03 0.0 
0.0 0.0 0.0 
6.272416801452e-04 2.815261543132e-04 0.0 
2.815261543132e-04 3.160796235065e-03 0.0 
0.0 0.0 0.0 
6.229277154770e-04 3.868173259010e-04 0.0 
3.868173259010e-04 5.462518078700e-03 0.0 
0.0 0.0 0.0 
-3.523015336434e-04 1.111322691658e-03 0.0 
1.111322691658e-03 7.455283024478e-03 0.0 
0.0 0.0 0.0 
-3.239444904848e-04 1.065463306964e-03 0.0 
1.065463306964e-03 8.878624756876e-03 0.0 
0.0 0.0 0.0 
3.891853141980e-04 1.038539805906e-03 0.0 
1.038539805906e-03 7.077372384988e-03 0.0 
0.0 0.0 0.0 
-1.532403401311e-04 1.191621816749e-03 0.0 
1.191621816749e-03 6.884595808626e-03 0.0 
0.0 0.0 0.0 
6.130071683179e-04 7.467016594212e-05 0.0 
7.467016594212e-05 3.595789377993e-03 0.0 
0.0 0.0 0.0 
2.848316776340e-04 1.075164427907e-03 0.0 
1.075164427907e-03 3.997376893487e-03 0.0 
0.0 0.0 0.0 
5.253870996265e-04 1.074485204737e-05 0.0 
1.074485204737e-05 3.293551069278e-03 0.0 
0.0 0.0 0.0 
-6.528179839482e-05 1.141318118701e-03 0.0 
1.141318118701e-03 8.380725103244e-03 0.0 
0.0 0.0 0.0 
5.541554005182e-04 9.200260548838e-04 0.0 
9.200260548838e-04 5.712666895966e-03 0.0 
0.0 0.0 0.0 
1.152401492441e-04 1.129680091261e-03 0.0 
1.129680091261e-03 9.060852490687e-03 0.0 
0.0 0.0 0.0 
-3.679900477761e-04 5.197328991149e-04 0.0 
5.197328991149e-04 1.099944513168e-02 0.0 
0.0 0.0 0.0 
4.102859154269e-04 -5.770614440042e-05 0.0 
-5.770614440042e-05 2.096013748630e-03 0.0 
0.0 0.0 0.0 
0.0 1.182588581830e-03 0.0 
1.182588581830e-03 9.242987850382e-03 0.0 
0.0 0.0 0.0 
2.248932544138e-04 1.100640518060e-03 0.0 
1.100640518060e-03 8.683141283916e-03 0.0 
0.0 0.0 0.0 
2.352832239423e-04 1.179696259471e-03 0.0 
1.179696259471e-03 5.773359503669e-03 0.0 
0.0 0.0 0.0 
-2.278561386488e-04 -1.203120145432e-04 0.0 
-1.203120145432e-04 5.098698152046e-04 0.0 
0.0 0.0 0.0 
1.393801325027e-04 9.016301529722e-04 0.0 
9.016301529722e-04 8.748848585718e-03 0.0 
0.0 0.0 0.0 
-4.002236845818e-04 6.255120190342e-04 0.0 
6.255120190342e-04 1.087463613740e-02 0.0 
0.0 0.0 0.0 
5.551296694422e-04 6.770040585989e-05 0.0 
6.770040585989e-05 2.406773475365e-03 0.0 
0.0 0.0 0.0 
0.0 9.716437917294e-04 0.0 
9.716437917294e-04 8.882508051105e-03 0.0 
0.0 0.0 0.0 
5.992203817791e-04 3.634653108049e-04 0.0 
3.634653108049e-04 5.616743088191e-03 0.0 
0.0 0.0 0.0 
-5.731045031631e-04 9.360980922321e-04 0.0 
9.360980922321e-04 6.975310214794e-03 0.0 
0.0 0.0 0.0 
-6.372468184651e-04 3.855267731978e-04 0.0 
3.855267731978e-04 9.013432688216e-03 0.0 
0.0 0.0 0.0 
4.997081412059e-04 8.767586487199e-04 0.0 
8.767586487199e-04 5.703490484903e-03 0.0 
0.0 0.0 0.0 
6.505331706177e-04 2.409773326178e-04 0.0 
2.409773326178e-04 4.695185837611e-03 0.0 
0.0 0.0 0.0 
5.930249308821e-04 6.474073973222e-04 0.0 
6.474073973222e-04 5.915867847367e-03 0.0 
0.0 0.0 0.0 
-6.127393655859e-04 4.243509620188e-04 0.0 
4.243509620188e-04 9.837703149316e-03 0.0 
0.0 0.0 0.0 
-6.561107944655e-04 7.296962605536e-04 0.0 
7.296962605536e-04 7.708382658195e-03 0.0 
0.0 0.0 0.0 
3.064442404435e-04 1.101487189722e-03 0.0 
1.101487189722e-03 7.512078563542e-03 0.0 
0.0 0.0 0.0 
-3.522485344444e-04 2.173852737997e-05 0.0 
2.173852737997e-05 9.422516291534e-03 0.0 
0.0 0.0 0.0 
5.558568677670e-04 -1.363066935496e-05 0.0 
-1.363066935496e-05 3.609370727777e-03 0.0 
0.0 0.0 0.0 
4.721275665061e-04 9.675617286980e-04 0.0 
9.675617286980e-04 6.646740338519e-03 0.0 
0.0 0.0 0.0 
5.514861655098e-04 2.413457896927e-07 0.0 
2.413457896927e-07 2.833354971802e-03 0.0 
0.0 0.0 0.0 
5.757517129659e-04 1.940348379491e-04 0.0 
1.940348379491e-04 5.244127346589e-03 0.0 
0.0 0.0 0.0 
-5.477186541841e-04 -4.783379225481e-05 0.0 
-4.783379225481e-05 3.427989016727e-04 0.0 
0.0 0.0 0.0 
1.690770779588e-04 1.204095784893e-03 0.0 
1.204095784893e-03 4.597125039930e-03 0.0 
0.0 0.0 0.0 
5.401649193153e-04 1.630241032837e-05 0.0 
1.630241032837e-05 2.686906867084e-03 0.0 
0.0 0.0 0.0 
5.919210865650e-04 7.714594445943e-05 0.0 
7.714594445943e-05 3.946428942085e-03 0.0 
0.0 0.0 0.0 
1.040401799417e-04 1.202988390421e-03 0.0 
1.202988390421e-03 6.279296089095e-03 0.0 
0.0 0.0 0.0 
6.531568080408e-04 4.562531556261e-04 0.0 
4.562531556261e-04 5.602778195137e-03 0.0 
0.0 0.0 0.0 
-4.736218962167e-04 1.026545495080e-04 0.0 
1.026545495080e-04 9.485889231658e-03 0.0 
0.0 0.0 0.0 
4.714002355914e-04 -6.578296861827e-05 0.0 
-6.578296861827e-05 2.428024211428e-03 0.0 
0.0 0.0 0.0 
0.0 9.044202741193e-04 0.0 
9.044202741193e-04 8.797171367779e-03 0.0 
0.0 0.0 0.0 
-5.559901161426e-04 9.111896705882e-04 0.0 
9.111896705882e-04 8.613207546996e-03 0.0 
0.0 0.0 0.0 
5.794150342695e-04 7.882818570849e-05 0.0 
7.882818570849e-05 4.123357124588e-03 0.0 
0.0 0.0 0.0 
-5.086017493582e-04 9.770536622601e-04 0.0 
9.770536622601e-04 8.255616227540e-03 0.0 
0.0 0.0 0.0 
5.455114156887e-04 -2.095122754103e-06 0.0 
-2.095122754103e-06 3.958480607616e-03 0.0 
0.0 0.0 0.0 
-3.471205313414e-04 -4.877655478337e-05 0.0 
-4.877655478337e-05 2.738344034439e-04 0.0 
0.0 0.0 0.0 
-6.817452369415e-04 3.725431435720e-04 0.0 
3.725431435720e-04 9.248738604079e-03 0.0 
0.0 0.0 0.0 
4.524845522673e-04 1.903070731740e-05 0.0 
1.903070731740e-05 3.219606073541e-03 0.0 
0.0 0.0 0.0 
-7.644202786694e-05 -3.151202057781e-05 0.0 
-3.151202057781e-05 1.477459513359e-04 0.0 
0.0 0.0 0.0 
5.531587043224e-04 5.078574135808e-05 0.0 
5.078574135808e-05 3.880779059654e-03 0.0 
0.0 0.0 0.0 
5.987076063383e-04 5.097577061066e-04 0.0 
5.097577061066e-04 6.076562178621e-03 0.0 
0.0 0.0 0.0 
-2.081816566722e-04 1.656450940595e-04 0.0 
1.656450940595e-04 1.094159079021e-02 0.0 
0.0 0.0 0.0 
6.326404346593e-04 5.952499314312e-04 0.0 
5.952499314312e-04 5.448027837527e-03 0.0 
0.0 0.0 0.0 
6.747014839772e-04 6.521309498969e-04 0.0 
6.521309498969e-04 5.524460485994e-03 0.0 
0.0 0.0 0.0 
-6.940922792779e-04 2.365475383999e-04 0.0 
2.365475383999e-04 8.538940190010e-03 0.0 
0.0 0.0 0.0 
-5.378186186153e-04 5.291630246554e-05 0.0 
5.291630246554e-05 8.402109436374e-03 0.0 
0.0 0.0 0.0 
-1.114444385467e-04 5.540886681584e-04 0.0 
5.540886681584e-04 1.155753770096e-02 0.0 
0.0 0.0 0.0 
-4.416857363404e-04 1.044180925727e-03 0.0 
1.044180925727e-03 7.870836574851e-03 0.0 
0.0 0.0 0.0 
-1.053606078852e-04 -2.676040295895e-05 0.0 
-2.676040295895e-05 1.540148601162e-04 0.0 
0.0 0.0 0.0 
1.057346948736e-04 -1.940805306381e-04 0.0 
-1.940805306381e-04 1.277933918718e-03 0.0 
0.0 0.0 0.0 
-2.071241915432e-04 -1.222987581606e-04 0.0 
-1.222987581606e-04 4.941833673067e-04 0.0 
0.0 0.0 0.0 
3.694886355854e-04 -1.487491708326e-04 0.0 
-1.487491708326e-04 2.257643227380e-03 0.0 
0.0 0.0 0.0 
-3.369852374094e-04 1.039335598704e-03 0.0 
1.039335598704e-03 9.951125263249e-03 0.0 
0.0 0.0 0.0 
-2.383502098877e-04 1.136036656874e-04 0.0 
1.136036656874e-04 1.094792797681e-02 0.0 
0.0 0.0 0.0 
4.757334860899e-04 4.241849222622e-04 0.0 
4.241849222622e-04 6.572757025916e-03 0.0 
0.0 0.0 0.0 
4.092676385883e-04 -1.280665710100e-04 0.0 
-1.280665710100e-04 2.563865337512e-03 0.0 
0.0 0.0 0.0 
5.383382497046e-04 1.172556119932e-04 0.0 
1.172556119932e-04 5.256731068936e-03 0.0 
0.0 0.0 0.0 
4.383885687649e-04 7.351335376874e-04 0.0 
7.351335376874e-04 7.243717885678e-03 0.0 
0.0 0.0 0.0 
2.322519016833e-04 1.586442386517e-04 0.0 
1.586442386517e-04 1.665995615107e-03 0.0 
0.0 0.0 0.0 
4.421149065625e-04 -5.331602713281e-05 0.0 
-5.331602713281e-05 3.220908099962e-03 0.0 
0.0 0.0 0.0 
3.862155901830e-04 1.746595166161e-05 0.0 
1.746595166161e-05 2.621128877249e-03 0.0 
0.0 0.0 0.0 
1.202864224070e-04 8.200044507723e-04 0.0 
8.200044507723e-04 8.656462825484e-03 0.0 
0.0 0.0 0.0 
0.0 8.195927763621e-04 0.0 
8.195927763621e-04 8.700615180700e-03 0.0 
0.0 0.0 0.0 
4.742163092100e-04 -3.648684748465e-05 0.0 
-3.648684748465e-05 3.606823397381e-03 0.0 
0.0 0.0 0.0 
5.406697278947e-04 2.754130737649e-06 0.0 
2.754130737649e-06 4.135193560054e-03 0.0 
0.0 0.0 0.0 
6.910116118872e-04 3.188017572236e-04 0.0 
3.188017572236e-04 4.836358518804e-03 0.0 
0.0 0.0 0.0 
3.893703064386e-04 8.302228864688e-04 0.0 
8.302228864688e-04 7.606967026882e-03 0.0 
0.0 0.0 0.0 
1.799123697694e-04 -9.732490814758e-05 0.0 
-9.732490814758e-05 1.403982801663e-03 0.0 
0.0 0.0 0.0 
4.883810108249e-04 6.466542117803e-04 0.0 
6.466542117803e-04 6.893631098640e-03 0.0 
0.0 0.0 0.0 
2.365392959103e-05 -6.295348707053e-05 0.0 
-6.295348707053e-05 7.467199303479e-04 0.0 
0.0 0.0 0.0 
5.167149626402e-04 -3.197411477345e-05 0.0 
-3.197411477345e-05 3.717136085420e-03 0.0 
0.0 0.0 0.0 
5.698897841644e-04 3.676825086966e-05 0.0 
3.676825086966e-05 4.207356629854e-03 0.0 
0.0 0.0 0.0 
3.689631146098e-05 -3.533099893902e-05 0.0 
-3.533099893902e-05 3.888693871565e-04 0.0 
0.0 0.0 0.0 
4.702893854458e-04 2.677946630939e-05 0.0 
2.677946630939e-05 3.408915817726e-03 0.0 
0.0 0.0 0.0 
-2.978699612689e-04 5.495639173827e-04 0.0 
5.495639173827e-04 1.099372395149e-02 0.0 
0.0 0.0 0.0 
-8.243859907064e-05 -2.320528771016e-05 0.0 
-2.320528771016e-05 1.455449214318e-04 0.0 
0.0 0.0 0.0 
-5.625302084195e-04 7.831204608935e-05 0.0 
7.831204608935e-05 8.403449603427e-03 0.0 
0.0 0.0 0.0 
-5.562202077402e-04 9.806752531247e-05 0.0 
9.806752531247e-05 8.381148569148e-03 0.0 
0.0 0.0 0.0 
5.411670011228e-04 7.417436942003e-04 0.0 
7.417436942003e-04 6.306132643749e-03 0.0 
0.0 0.0 0.0 
3.727535149869e-04 -4.539976836183e-05 0.0 
-4.539976836183e-05 2.618815546028e-03 0.0 
0.0 0.0 0.0 
5.654818885212e-04 4.918396673270e-05 0.0 
4.918396673270e-05 2.563349755210e-03 0.0 
0.0 0.0 0.0 
1.326616852957e-04 9.695929293966e-04 0.0 
9.695929293966e-04 3.153303560614e-03 0.0 
0.0 0.0 0.0 
3.415564453260e-04 4.296244301465e-04 0.0 
4.296244301465e-04 7.226022498394e-03 0.0 
0.0 0.0 0.0 
-6.307914908310e-05 1.248441858313e-03 0.0 
1.248441858313e-03 1.036505010787e-02 0.0 
0.0 0.0 0.0 
-3.198589352006e-04 1.782568149898e-04 0.0 
1.782568149898e-04 1.069608151238e-02 0.0 
0.0 0.0 0.0 
-1.855853470618e-04 1.301552096787e-03 0.0 
1.301552096787e-03 5.064563745331e-03 0.0 
0.0 0.0 0.0 
-7.158907241234e-06 -8.585067631988e-05 0.0 
-8.585067631988e-05 8.712386823462e-04 0.0 
0.0 0.0 0.0 
-7.557261129024e-04 5.837954305514e-04 0.0 
5.837954305514e-04 7.993500044192e-03 0.0 
0.0 0.0 0.0 
-4.529842249537e-04 2.014856933764e-05 0.0 
2.014856933764e-05 8.403071557396e-03 0.0 
0.0 0.0 0.0 
-4.396669613423e-04 1.152894425557e-05 0.0 
1.152894425557e-05 8.388297588952e-03 0.0 
0.0 0.0 0.0 
-4.116577116853e-05 -2.678037291168e-05 0.0 
-2.678037291168e-05 1.358936574491e-04 0.0 
0.0 0.0 0.0 
2.370121252238e-05 -4.560297246903e-05 0.0 
-4.560297246903e-05 3.940895570829e-04 0.0 
0.0 0.0 0.0 
9.617045625010e-05 -3.966557283519e-05 0.0 
-3.966557283519e-05 7.201894383861e-04 0.0 
0.0 0.0 0.0 
3.141878596873e-04 -7.918383167917e-05 0.0 
-7.918383167917e-05 1.944320188877e-03 0.0 
0.0 0.0 0.0 
-2.789319232588e-06 -3.107341226937e-05 0.0 
-3.107341226937e-05 3.971853310845e-04 0.0 
0.0 0.0 0.0 
4.852442183683e-04 3.120678329318e-05 0.0 
3.120678329318e-05 3.823665013552e-03 0.0 
0.0 0.0 0.0 
-4.973428905203e-04 -4.807312793807e-05 0.0 
-4.807312793807e-05 3.366892460330e-04 0.0 
0.0 0.0 0.0 
3.968215662256e-04 -5.852543957712e-05 0.0 
-5.852543957712e-05 2.328930280831e-03 0.0 
0.0 0.0 0.0 
-3.044664531978e-04 4.563692667982e-05 0.0 
4.563692667982e-05 9.775050239872e-03 0.0 
0.0 0.0 0.0 
-5.029059721138e-04 5.065005203671e-05 0.0 
5.065005203671e-05 8.387099015024e-03 0.0 
0.0 0.0 0.0 
-3.330528415834e-04 1.016985770307e-03 0.0 
1.016985770307e-03 1.027046027454e-02 0.0 
0.0 0.0 0.0 
6.210044096402e-04 4.282244829804e-04 0.0 
4.282244829804e-04 5.759752919365e-03 0.0 
0.0 0.0 0.0 
-3.273030662194e-04 3.503639460931e-05 0.0 
3.503639460931e-05 9.410021471715e-03 0.0 
0.0 0.0 0.0 
3.990112918379e-04 3.344490725950e-05 0.0 
3.344490725950e-05 2.809104666541e-03 0.0 
0.0 0.0 0.0 
5.106292578994e-05 -4.290064059703e-05 0.0 
-4.290064059703e-05 7.313684861709e-04 0.0 
0.0 0.0 0.0 
0.0 2.805362767514e-04 0.0 
2.805362767514e-04 1.196821162344e-02 0.0 
0.0 0.0 0.0 
-8.412735253960e-05 3.142519298465e-04 0.0 
3.142519298465e-04 1.195776603222e-02 0.0 
0.0 0.0 0.0 
-4.525740950161e-04 1.424645869298e-04 0.0 
1.424645869298e-04 9.232098681702e-03 0.0 
0.0 0.0 0.0 
-4.863656641815e-04 2.572132500611e-05 0.0 
2.572132500611e-05 8.400158549079e-03 0.0 
0.0 0.0 0.0 
3.996990540920e-04 -4.628189696567e-05 0.0 
-4.628189696567e-05 2.848323361683e-03 0.0 
0.0 0.0 0.0 
-6.842668281093e-05 2.165260534251e-04 0.0 
2.165260534251e-04 1.198703826208e-02 0.0 
0.0 0.0 0.0 
3.347709142509e-04 -1.561305607727e-04 0.0 
-1.561305607727e-04 2.176421894032e-03 0.0 
0.0 0.0 0.0 
-5.275285633721e-04 6.892568912931e-05 0.0 
6.892568912931e-05 8.380486249112e-03 0.0 
0.0 0.0 0.0 
-5.015588533089e-04 4.079923136732e-05 0.0 
4.079923136732e-05 8.398331741211e-03 0.0 
0.0 0.0 0.0 
-6.868145534111e-04 3.851588010276e-04 0.0 
3.851588010276e-04 7.945578277399e-03 0.0 
0.0 0.0 0.0 
0.0 6.259985598890e-04 0.0 
6.259985598890e-04 1.180730777271e-02 0.0 
0.0 0.0 0.0 
-7.211801592000e-05 2.680297506308e-04 0.0 
2.680297506308e-04 1.197775196774e-02 0.0 
0.0 0.0 0.0 
-2.347746971243e-05 -4.012663055512e-05 0.0 
-4.012663055512e-05 4.035771130773e-04 0.0 
0.0 0.0 0.0 
-2.349767289267e-05 -1.851290493670e-05 0.0 
-1.851290493670e-05 1.313182648022e-04 0.0 
0.0 0.0 0.0 
5.839385904083e-05 -8.834102608215e-05 0.0 
-8.834102608215e-05 1.041764597781e-03 0.0 
0.0 0.0 0.0 
6.200054609711e-04 1.198276356339e-04 0.0 
1.198276356339e-04 4.194722631321e-03 0.0 
0.0 0.0 0.0 
2.237234995361e-04 8.673006293889e-05 0.0 
8.673006293889e-05 7.457788515883e-03 0.0 
0.0 0.0 0.0 
-8.021485570252e-04 -6.498698499924e-05 0.0 
-6.498698499924e-05 4.405191876902e-04 0.0 
0.0 0.0 0.0 
-2.339479339069e-04 -9.800793046558e-06 0.0 
-9.800793046558e-06 1.062787307452e-02 0.0 
0.0 0.0 0.0 
-4.502289128638e-04 -5.246807688189e-05 0.0 
-5.246807688189e-05 3.213830447519e-04 0.0 
0.0 0.0 0.0 
6.282700070326e-04 7.011923669016e-04 0.0 
7.011923669016e-04 5.997804438220e-03 0.0 
0.0 0.0 0.0 
-6.366896640422e-04 -5.087321176002e-05 0.0 
-5.087321176002e-05 3.815935014926e-04 0.0 
0.0 0.0 0.0 
-7.197857518555e-04 -6.027991120674e-05 0.0 
-6.027991120674e-05 4.121894623199e-04 0.0 
0.0 0.0 0.0 
6.683163203534e-04 6.081852724320e-04 0.0 
6.081852724320e-04 5.637844397071e-03 0.0 
0.0 0.0 0.0 
2.792653352828e-04 2.076243410891e-04 0.0 
2.076243410891e-04 7.231752140231e-03 0.0 
0.0 0.0 0.0 
-3.274706947941e-04 1.594822257541e-05 0.0 
1.594822257541e-05 9.746466015987e-03 0.0 
0.0 0.0 0.0 
-7.177475820133e-04 7.234332713493e-04 0.0 
7.234332713493e-04 8.013752654209e-03 0.0 
0.0 0.0 0.0 
5.118506860580e-05 -3.003357167025e-05 0.0 
-3.003357167025e-05 3.809982656697e-04 0.0 
0.0 0.0 0.0 
5.145151341162e-04 1.057387122589e-04 0.0 
1.057387122589e-04 5.439132244442e-03 0.0 
0.0 0.0 0.0 
0.0 8.367545627080e-05 0.0 
8.367545627080e-05 1.198927242782e-02 0.0 
0.0 0.0 0.0 
-6.056885004779e-05 8.096040037820e-05 0.0 
8.096040037820e-05 1.200252909787e-02 0.0 
0.0 0.0 0.0 
-4.780210742655e-04 3.623944310924e-05 0.0 
3.623944310924e-05 8.385224757531e-03 0.0 
0.0 0.0 0.0 
5.762339465079e-04 7.904710181414e-04 0.0 
7.904710181414e-04 6.373648729139e-03 0.0 
0.0 0.0 0.0 
0.0 2.375745281008e-04 0.0 
2.375745281008e-04 1.198793309878e-02 0.0 
0.0 0.0 0.0 
1.251625890530e-05 1.141335635999e-03 0.0 
1.141335635999e-03 8.343230613540e-03 0.0 
0.0 0.0 0.0 
5.160309121077e-05 -1.924823299129e-05 0.0 
-1.924823299129e-05 7.115316773652e-04 0.0 
0.0 0.0 0.0 
1.596559823547e-05 -2.578107182382e-05 0.0 
-2.578107182382e-05 3.878012030007e-04 0.0 
0.0 0.0 0.0 
5.299989679952e-05 -2.684777655583e-05 0.0 
-2.684777655583e-05 3.762553442839e-04 0.0 
0.0 0.0 0.0 
4.448552253562e-04 3.287614556845e-05 0.0 
3.287614556845e-05 3.207526298242e-03 0.0 
0.0 0.0 0.0 
8.687193077095e-05 1.659462546096e-04 0.0 
1.659462546096e-04 8.283725921999e-03 0.0 
0.0 0.0 0.0 
-9.949071571136e-05 -2.956756294345e-05 0.0 
-2.956756294345e-05 1.160194317592e-02 0.0 
0.0 0.0 0.0 
1.692829545163e-05 -3.501612621988e-06 0.0 
-3.501612621988e-06 1.068447162029e-04 0.0 
0.0 0.0 0.0 
4.883441254036e-04 -3.289905138583e-05 0.0 
-3.289905138583e-05 3.823757466176e-03 0.0 
0.0 0.0 0.0 
0.0 1.500431993066e-04 0.0 
1.500431993066e-04 8.303250025211e-03 0.0 
0.0 0.0 0.0 
9.882242350367e-05 2.450945443876e-04 0.0 
2.450945443876e-04 8.290476534510e-03 0.0 
0.0 0.0 0.0 
1.445570173642e-04 7.403460794787e-04 0.0 
7.403460794787e-04 8.575536444945e-03 0.0 
0.0 0.0 0.0 
-2.708753054219e-04 4.580276379319e-05 0.0 
4.580276379319e-05 1.023819191994e-02 0.0 
0.0 0.0 0.0 
-2.069910229013e-04 -2.945333956843e-05 0.0 
-2.945333956843e-05 1.082903908739e-02 0.0 
0.0 0.0 0.0 
0.0 1.999619009968e-04 0.0 
1.999619009968e-04 8.270790124721e-03 0.0 
0.0 0.0 0.0 
0.0 2.558384963998e-04 0.0 
2.558384963998e-04 8.311011295172e-03 0.0 
0.0 0.0 0.0 
-2.273090406555e-04 4.402691594170e-05 0.0 
4.402691594170e-05 1.062976959633e-02 0.0 
0.0 0.0 0.0 
-7.793226328934e-06 9.311469604253e-06 0.0 
9.311469604253e-06 1.002238081209e-04 0.0 
0.0 0.0 0.0 
-4.066833312302e-04 7.421232744014e-06 0.0 
7.421232744014e-06 8.365373562411e-03 0.0 
0.0 0.0 0.0 
-4.596318362220e-04 2.853197029326e-05 0.0 
2.853197029326e-05 8.395599865712e-03 0.0 
0.0 0.0 0.0 
-2.630973718443e-06 -1.077448783962e-05 0.0 
-1.077448783962e-05 1.227433665694e-04 0.0 
0.0 0.0 0.0 
0.0 4.632544857867e-04 0.0 
4.632544857867e-04 8.420367616853e-03 0.0 
0.0 0.0 0.0 
1.254373457720e-04 6.626445240582e-04 0.0 
6.626445240582e-04 8.501564274743e-03 0.0 
0.0 0.0 0.0 
0.0 5.962317314719e-04 0.0 
5.962317314719e-04 8.466455437436e-03 0.0 
0.0 0.0 0.0 
-4.382095926736e-05 -3.450157431464e-06 0.0 
-3.450157431464e-06 1.278541408403e-04 0.0 
0.0 0.0 0.0 
-6.194641989488e-05 -1.393669922277e-05 0.0 
-1.393669922277e-05 1.388524852732e-04 0.0 
0.0 0.0 0.0 
0.0 7.486362730668e-04 0.0 
7.486362730668e-04 8.614149426400e-03 0.0 
0.0 0.0 0.0 
0.0 6.685122938057e-04 0.0 
6.685122938057e-04 8.540010329679e-03 0.0 
0.0 0.0 0.0 
-2.929819778690e-04 -3.307565069932e-05 0.0 
-3.307565069932e-05 1.003720759169e-02 0.0 
0.0 0.0 0.0 
-3.782721998391e-04 6.541898389567e-06 0.0 
6.541898389567e-06 8.346536347474e-03 0.0 
0.0 0.0 0.0 
-2.488207177790e-04 -3.152399452363e-05 0.0 
-3.152399452363e-05 1.043448630764e-02 0.0 
0.0 0.0 0.0 
-3.429342199954e-04 -3.376762577199e-05 0.0 
-3.376762577199e-05 9.221765010772e-03 0.0 
0.0 0.0 0.0 
-3.623325965108e-04 2.160754473705e-06 0.0 
2.160754473705e-06 8.340582738601e-03 0.0 
0.0 0.0 0.0 
-1.546027264957e-04 -1.894080803480e-05 0.0 
-1.894080803480e-05 1.782194672622e-04 0.0 
0.0 0.0 0.0 
-2.709592115893e-04 -3.921038737096e-05 0.0 
-3.921038737096e-05 2.369032921361e-04 0.0 
0.0 0.0 0.0 
-3.164197334939e-04 -3.893319096795e-05 0.0 
-3.893319096795e-05 2.451224116335e-04 0.0 
0.0 0.0 0.0 
-3.945086250814e-04 -4.417761941195e-05 0.0 
-4.417761941195e-05 2.798892944831e-04 0.0 
0.0 0.0 0.0 
4.976596428863e-04 3.932090895255e-05 0.0 
3.932090895255e-05 4.037926079433e-03 0.0 
0.0 0.0 0.0 
4.794728872306e-04 3.467446407709e-05 0.0 
3.467446407709e-05 3.615067719069e-03 0.0 
0.0 0.0 0.0 
-1.858158028804e-04 -3.642592256849e-05 0.0 
-3.642592256849e-05 2.053069328931e-04 0.0 
0.0 0.0 0.0 
4.948228472714e-04 4.054336930813e-05 0.0 
4.054336930813e-05 5.323721025750e-03 0.0 
0.0 0.0 0.0 
-2.493900784890e-04 -4.472312472567e-05 0.0 
-4.472312472567e-05 2.290025820562e-04 0.0 
0.0 0.0 0.0 
0.0 4.979966415481e-04 0.0 
4.979966415481e-04 1.188105469155e-02 0.0 
0.0 0.0 0.0 
0.0 1.976209260642e-04 0.0 
1.976209260642e-04 1.198617141445e-02 0.0 
0.0 0.0 0.0 
0.0 3.321048096542e-04 0.0 
3.321048096542e-04 1.194656879262e-02 0.0 
0.0 0.0 0.0 
1.598205966036e-04 3.674591862871e-05 0.0 
3.674591862871e-05 1.245059555048e-03 0.0 
0.0 0.0 0.0 
3.483297675047e-04 3.339007499942e-05 0.0 
3.339007499942e-05 2.414434417164e-03 0.0 
0.0 0.0 0.0 
0.0 1.540139135318e-04 0.0 
1.540139135318e-04 1.197916579396e-02 0.0 
0.0 0.0 0.0 
3.487497877370e-04 3.577243126651e-05 0.0 
3.577243126651e-05 6.735192370292e-03 0.0 
0.0 0.0 0.0 
0.0 1.187661592982e-04 0.0 
1.187661592982e-04 1.202540205369e-02 0.0 
0.0 0.0 0.0 
2.636102810651e-04 3.802798792558e-05 0.0 
3.802798792558e-05 7.228757748330e-03 0.0 
0.0 0.0 0.0 
1.653962128034e-04 4.634829353483e-05 0.0 
4.634829353483e-05 7.734650044834e-03 0.0 
0.0 0.0 0.0 
4.621005358527e-04 -4.019209762665e-05 0.0 
-4.019209762665e-05 3.408940747099e-03 0.0 
0.0 0.0 0.0 
-7.684393567076e-05 1.717483271064e-04 0.0 
1.717483271064e-04 1.198251071708e-02 0.0 
0.0 0.0 0.0 
-6.209265883572e-05 1.610295229461e-04 0.0 
1.610295229461e-04 1.199667360985e-02 0.0 
0.0 0.0 0.0 
3.023192133862e-04 2.201306907134e-06 0.0 
2.201306907134e-06 6.955723214906e-03 0.0 
0.0 0.0 0.0 
2.134297530361e-04 7.634865231299e-06 0.0 
7.634865231299e-06 7.462273841861e-03 0.0 
0.0 0.0 0.0 
4.677839301190e-04 7.653297455039e-05 0.0 
7.653297455039e-05 5.815821201486e-03 0.0 
0.0 0.0 0.0 
-4.008520678037e-04 -5.318354544843e-05 0.0 
-5.318354544843e-05 3.001598986663e-04 0.0 
0.0 0.0 0.0 
4.835687130083e-04 -5.355429771511e-05 0.0 
-5.355429771511e-05 3.482157138190e-03 0.0 
0.0 0.0 0.0 
-3.994918614070e-05 -5.364644564537e-05 0.0 
-5.364644564537e-05 4.038298015183e-04 0.0 
0.0 0.0 0.0 
3.133103217263e-04 3.670514679837e-04 0.0 
3.670514679837e-04 7.232425950861e-03 0.0 
0.0 0.0 0.0 
5.596537495332e-04 4.418228057541e-05 0.0 
4.418228057541e-05 3.705358345811e-03 0.0 
0.0 0.0 0.0 
4.030687028937e-04 2.148889973040e-04 0.0 
2.148889973040e-04 6.546317541324e-03 0.0 
0.0 0.0 0.0 
2.505949637843e-04 -1.770257991826e-04 0.0 
-1.770257991826e-04 1.794208157905e-03 0.0 
0.0 0.0 0.0 
4.253266193333e-05 -5.697175734594e-05 0.0 
-5.697175734594e-05 7.197025875043e-04 0.0 
0.0 0.0 0.0 
3.128606933842e-04 1.688289127218e-04 0.0 
1.688289127218e-04 7.031563447726e-03 0.0 
0.0 0.0 0.0 
5.204503023393e-04 -2.408660371790e-05 0.0 
-2.408660371790e-05 3.893011841009e-03 0.0 
0.0 0.0 0.0 
4.219743051623e-04 2.251355263586e-05 0.0 
2.251355263586e-05 3.011967401571e-03 0.0 
0.0 0.0 0.0 
3.879133051665e-04 1.453758820671e-04 0.0 
1.453758820671e-04 6.557447822997e-03 0.0 
0.0 0.0 0.0 
-1.539371546716e-04 9.603437099973e-05 0.0 
9.603437099973e-05 1.117675622467e-02 0.0 
0.0 0.0 0.0 
4.217718510322e-04 -4.393853735853e-05 0.0 
-4.393853735853e-05 3.010710094292e-03 0.0 
0.0 0.0 0.0 
5.188882660569e-04 5.064646484886e-04 0.0 
5.064646484886e-04 6.418826207116e-03 0.0 
0.0 0.0 0.0 
6.064057223023e-04 2.648623514665e-04 0.0 
2.648623514665e-04 5.340051269636e-03 0.0 
0.0 0.0 0.0 
4.846509542418e-04 1.495057372849e-04 0.0 
1.495057372849e-04 5.804471231471e-03 0.0 
0.0 0.0 0.0 
4.516364373957e-04 1.250789142380e-04 0.0 
1.250789142380e-04 6.006200535627e-03 0.0 
0.0 0.0 0.0 
6.486675689035e-04 8.113076363773e-04 0.0 
8.113076363773e-04 3.825029670715e-03 0.0 
0.0 0.0 0.0 
-7.448210726199e-04 6.643079711408e-04 0.0 
6.643079711408e-04 7.711393062082e-03 0.0 
0.0 0.0 0.0 
2.788108181639e-05 1.186017376293e-03 0.0 
1.186017376293e-03 6.392919004998e-03 0.0 
0.0 0.0 0.0 
5.458291376654e-04 1.811557310614e-04 0.0 
1.811557310614e-04 5.427324076851e-03 0.0 
0.0 0.0 0.0 
3.509881600086e-04 1.134521512794e-04 0.0 
1.134521512794e-04 6.761006413906e-03 0.0 
0.0 0.0 0.0 
4.187384926668e-04 1.018197047961e-04 0.0 
1.018197047961e-04 6.216346666402e-03 0.0 
0.0 0.0 0.0 
3.325423605687e-04 -8.698480232555e-05 0.0 
-8.698480232555e-05 1.866144132242e-03 0.0 
0.0 0.0 0.0 
-1.678403793365e-04 1.518361847693e-04 0.0 
1.518361847693e-04 1.115310396771e-02 0.0 
0.0 0.0 0.0 
-2.252030970912e-04 1.333930214352e-04 0.0 
1.333930214352e-04 1.076709845753e-02 0.0 
0.0 0.0 0.0 
-3.724246174419e-04 6.225375767114e-05 0.0 
6.225375767114e-05 8.925156114656e-03 0.0 
0.0 0.0 0.0 
5.388305074048e-04 2.320445349816e-04 0.0 
2.320445349816e-04 5.699940032099e-03 0.0 
0.0 0.0 0.0 
5.152658390934e-04 1.662671729758e-04 0.0 
1.662671729758e-04 5.614380448962e-03 0.0 
0.0 0.0 0.0 
-1.790157297799e-04 4.331504679435e-05 0.0 
4.331504679435e-05 1.119211395898e-02 0.0 
0.0 0.0 0.0 
-1.961633494676e-04 1.162735404241e-04 0.0 
1.162735404241e-04 1.097681245341e-02 0.0 
0.0 0.0 0.0 
5.868274791403e-04 1.961067206378e-04 0.0 
1.961067206378e-04 5.180676235873e-03 0.0 
0.0 0.0 0.0 
2.726917210030e-04 1.316847603373e-04 0.0 
1.316847603373e-04 7.238592851666e-03 0.0 
0.0 0.0 0.0 
-2.768484884794e-04 2.266244846119e-04 0.0 
2.266244846119e-04 1.069023515639e-02 0.0 
0.0 0.0 0.0 
4.082594236305e-04 3.094429915432e-05 0.0 
3.094429915432e-05 6.216279978368e-03 0.0 
0.0 0.0 0.0 
2.618598245645e-04 3.244029998205e-04 0.0 
3.244029998205e-04 7.447622000026e-03 0.0 
0.0 0.0 0.0 
-1.955369279649e-04 9.745390649034e-05 0.0 
9.745390649034e-05 1.116230009996e-02 0.0 
0.0 0.0 0.0 
-3.290172467755e-04 6.566142511295e-05 0.0 
6.566142511295e-05 1.016611957641e-02 0.0 
0.0 0.0 0.0 
5.502992726307e-04 4.224950113878e-04 0.0 
4.224950113878e-04 6.090040373682e-03 0.0 
0.0 0.0 0.0 
2.679316278362e-04 -3.837316315413e-05 0.0 
-3.837316315413e-05 1.845095184088e-03 0.0 
0.0 0.0 0.0 
2.972537167194e-04 -8.774570324716e-05 0.0 
-8.774570324716e-05 1.718229791179e-03 0.0 
0.0 0.0 0.0 
-5.136077605550e-06 -1.882185329363e-04 0.0 
-1.882185329363e-04 8.851698141927e-04 0.0 
0.0 0.0 0.0 
-4.011836845716e-04 -1.187757896720e-04 0.0 
-1.187757896720e-04 5.666313449770e-04 0.0 
0.0 0.0 0.0 
-2.104258001494e-04 6.372061631271e-05 0.0 
6.372061631271e-05 1.098195820898e-02 0.0 
0.0 0.0 0.0 
3.173579219446e-04 1.541017896853e-04 0.0 
1.541017896853e-04 6.950606755347e-03 0.0 
0.0 0.0 0.0 
-3.476843887733e-04 -1.157686715635e-04 0.0 
-1.157686715635e-04 5.355059390320e-04 0.0 
0.0 0.0 0.0 
-4.215782823755e-04 7.331360874555e-04 0.0 
7.331360874555e-04 1.071751674703e-02 0.0 
0.0 0.0 0.0 
-3.692937967583e-04 7.353826106577e-05 0.0 
7.353826106577e-05 9.120609784982e-03 0.0 
0.0 0.0 0.0 
4.232605299095e-04 1.685083264567e-04 0.0 
1.685083264567e-04 6.367361186743e-03 0.0 
0.0 0.0 0.0 
3.916126295538e-04 1.413501103797e-04 0.0 
1.413501103797e-04 6.470964198692e-03 0.0 
0.0 0.0 0.0 
5.711527323204e-04 3.525767005580e-05 0.0 
3.525767005580e-05 2.715960129726e-03 0.0 
0.0 0.0 0.0 
3.840396204298e-04 6.931110596507e-05 0.0 
6.931110596507e-05 6.481362260567e-03 0.0 
0.0 0.0 0.0 
-3.894836629390e-04 -1.171563256232e-05 0.0 
-1.171563256232e-05 8.923515906059e-03 0.0 
0.0 0.0 0.0 
3.792805553455e-04 9.570264200196e-04 0.0 
9.570264200196e-04 7.089418858590e-03 0.0 
0.0 0.0 0.0 
2.274486065708e-04 3.700419808729e-04 0.0 
3.700419808729e-04 7.650341250988e-03 0.0 
0.0 0.0 0.0 
2.551463727152e-04 -1.079640244698e-05 0.0 
-1.079640244698e-05 1.780165357320e-03 0.0 
0.0 0.0 0.0 
2.677427347360e-04 4.403581858374e-04 0.0 
4.403581858374e-04 7.555319441606e-03 0.0 
0.0 0.0 0.0 
-2.944741645133e-04 6.076320448279e-05 0.0 
6.076320448279e-05 1.038222589784e-02 0.0 
0.0 0.0 0.0 
2.952826198026e-04 -1.772453383116e-05 0.0 
-1.772453383116e-05 2.010056545114e-03 0.0 
0.0 0.0 0.0 
3.506692017317e-04 -1.620067073611e-04 0.0 
-1.620067073611e-04 2.110710129043e-03 0.0 
0.0 0.0 0.0 
5.285171757521e-04 5.532758048149e-05 0.0 
5.532758048149e-05 4.429244505393e-03 0.0 
0.0 0.0 0.0 
-3.611334104692e-04 1.241757080309e-04 0.0 
1.241757080309e-04 9.728749281844e-03 0.0 
0.0 0.0 0.0 
4.769997602525e-04 -1.960215937119e-05 0.0 
-1.960215937119e-05 2.890667815240e-03 0.0 
0.0 0.0 0.0 
-2.606189741496e-04 4.932525856677e-05 0.0 
4.932525856677e-05 1.059683171324e-02 0.0 
0.0 0.0 0.0 
-3.283108334597e-04 3.608715529578e-05 0.0 
3.608715529578e-05 9.973396539753e-03 0.0 
0.0 0.0 0.0 
5.660149547935e-04 7.865059947353e-05 0.0 
7.865059947353e-05 4.304128168076e-03 0.0 
0.0 0.0 0.0 
4.378918091961e-04 5.562843492381e-05 0.0 
5.562843492381e-05 6.011164391510e-03 0.0 
0.0 0.0 0.0 
4.164800715565e-04 9.533243829095e-05 0.0 
9.533243829095e-05 6.283374639612e-03 0.0 
0.0 0.0 0.0 
-2.706271089681e-04 1.158666468733e-04 0.0 
1.158666468733e-04 1.037427304868e-02 0.0 
0.0 0.0 0.0 
1.927838230307e-04 -1.383786928512e-04 0.0 
-1.383786928512e-04 1.535715998924e-03 0.0 
0.0 0.0 0.0 
5.451276281898e-04 5.232664365189e-05 0.0 
5.232664365189e-05 4.063183835620e-03 0.0 
0.0 0.0 0.0 
1.985977956402e-04 1.192566324539e-03 0.0 
1.192566324539e-03 8.387676180926e-03 0.0 
0.0 0.0 0.0 
-2.884463169678e-04 9.063840825291e-05 0.0 
9.063840825291e-05 1.056102554843e-02 0.0 
0.0 0.0 0.0 
5.248524241599e-04 3.178321951118e-05 0.0 
3.178321951118e-05 3.641053652110e-03 0.0 
0.0 0.0 0.0 
5.611378931336e-04 1.835824441230e-04 0.0 
1.835824441230e-04 5.353378192376e-03 0.0 
0.0 0.0 0.0 
3.127822443763e-04 4.669710515164e-04 0.0 
4.669710515164e-04 7.391347585763e-03 0.0 
0.0 0.0 0.0 
-2.978664368377e-04 1.195362755428e-04 0.0 
1.195362755428e-04 1.015973130438e-02 0.0 
0.0 0.0 0.0 
-1.255598626362e-04 -5.670289575109e-05 0.0 
-5.670289575109e-05 9.937296742772e-04 0.0 
0.0 0.0 0.0 
1.638393056314e-05 -1.513735456207e-04 0.0 
-1.513735456207e-04 8.504383789765e-04 0.0 
0.0 0.0 0.0 
3.862566006221e-04 2.492664911779e-04 0.0 
2.492664911779e-04 2.086937525484e-03 0.0 
0.0 0.0 0.0 
3.603059160522e-04 1.898479267059e-04 0.0 
1.898479267059e-04 6.749417583776e-03 0.0 
0.0 0.0 0.0 
-3.311436188400e-04 1.231910625606e-04 0.0 
1.231910625606e-04 9.945330719241e-03 0.0 
0.0 0.0 0.0 
5.158962397687e-04 -5.898611870831e-06 0.0 
-5.898611870831e-06 4.867082698638e-03 0.0 
0.0 0.0 0.0 
-3.805585399717e-04 9.232514520447e-05 0.0 
9.232514520447e-05 9.323318202475e-03 0.0 
0.0 0.0 0.0 
3.944761997767e-04 6.565471900558e-04 0.0 
6.565471900558e-04 7.255332630462e-03 0.0 
0.0 0.0 0.0 
5.518394197297e-04 7.802903414057e-05 0.0 
7.802903414057e-05 4.486272335803e-03 0.0 
0.0 0.0 0.0 
4.306517046055e-04 1.693495027701e-04 0.0 
1.693495027701e-04 6.271955054639e-03 0.0 
0.0 0.0 0.0 
2.529953238173e-04 -1.015242403697e-04 0.0 
-1.015242403697e-04 1.855414382056e-03 0.0 
0.0 0.0 0.0 
2.905509197906e-04 4.153056050378e-04 0.0 
4.153056050378e-04 7.451385762077e-03 0.0 
0.0 0.0 0.0 
5.318840180439e-04 5.532563936860e-06 0.0 
5.532563936860e-06 4.315857821877e-03 0.0 
0.0 0.0 0.0 
2.742926867845e-04 -8.350689289436e-05 0.0 
-8.350689289436e-05 2.020411684447e-03 0.0 
0.0 0.0 0.0 
5.152155693062e-04 -2.072629048871e-05 0.0 
-2.072629048871e-05 4.075320777132e-03 0.0 
0.0 0.0 0.0 
4.838631799040e-04 -7.875737564750e-06 0.0 
-7.875737564750e-06 3.062981176550e-03 0.0 
0.0 0.0 0.0 
3.580392098377e-04 -1.395831553466e-04 0.0 
-1.395831553466e-04 2.341827971694e-03 0.0 
0.0 0.0 0.0 
5.236439243275e-04 6.650422871899e-05 0.0 
6.650422871899e-05 4.853006474076e-03 0.0 
0.0 0.0 0.0 
-1.150608221235e-04 -3.457468401902e-05 0.0 
-3.457468401902e-05 1.799438307828e-04 0.0 
0.0 0.0 0.0 
-1.676882767480e-04 -3.746438093540e-05 0.0 
-3.746438093540e-05 2.044957617602e-04 0.0 
0.0 0.0 0.0 
4.906881379745e-04 9.271269139285e-05 0.0 
9.271269139285e-05 5.625822038832e-03 0.0 
0.0 0.0 0.0 
2.238045693039e-04 -1.214747716556e-04 0.0 
-1.214747716556e-04 1.696046143929e-03 0.0 
0.0 0.0 0.0 
5.053764575487e-04 1.552440420011e-04 0.0 
1.552440420011e-04 5.711934622876e-03 0.0 
0.0 0.0 0.0 
5.338527982683e-04 1.705223612365e-04 0.0 
1.705223612365e-04 5.530800063621e-03 0.0 
0.0 0.0 0.0 
5.701870537405e-04 3.288970050870e-05 0.0 
3.288970050870e-05 3.353579201786e-03 0.0 
0.0 0.0 0.0 
4.724144970705e-04 -4.182326375516e-06 0.0 
-4.182326375516e-06 2.165370413137e-03 0.0 
0.0 0.0 0.0 
-2.710710331381e-04 1.667433797715e-04 0.0 
1.667433797715e-04 1.090673053088e-02 0.0 
0.0 0.0 0.0 
2.240429254852e-05 3.553534832381e-04 0.0 
3.553534832381e-04 1.290265959805e-03 0.0 
0.0 0.0 0.0 
4.880957465738e-04 2.488431247459e-06 0.0 
2.488431247459e-06 3.240526806199e-03 0.0 
0.0 0.0 0.0 
3.358243743696e-04 7.563567225467e-04 0.0 
7.563567225467e-04 7.600306185197e-03 0.0 
0.0 0.0 0.0 
2.020572817503e-04 -4.276033936253e-05 0.0 
-4.276033936253e-05 1.448694651756e-03 0.0 
0.0 0.0 0.0 
-3.888182398062e-04 4.386421281811e-05 0.0 
4.386421281811e-05 9.548381293623e-03 0.0 
0.0 0.0 0.0 
-4.024236938794e-04 1.183508464025e-05 0.0 
1.183508464025e-05 9.129009214789e-03 0.0 
0.0 0.0 0.0 
1.587540556793e-04 -1.843376259824e-04 0.0 
-1.843376259824e-04 1.418812379053e-03 0.0 
0.0 0.0 0.0 
3.612948893164e-04 5.081948174470e-04 0.0 
5.081948174470e-04 7.212425667309e-03 0.0 
0.0 0.0 0.0 
-3.678476490441e-04 1.420584592722e-04 0.0 
1.420584592722e-04 1.031090191945e-02 0.0 
0.0 0.0 0.0 
2.384349473070e-04 -5.546489852329e-05 0.0 
-5.546489852329e-05 1.682629494611e-03 0.0 
0.0 0.0 0.0 
-2.603491905728e-04 2.138206768497e-04 0.0 
2.138206768497e-04 1.106887206256e-02 0.0 
0.0 0.0 0.0 
-2.176025700646e-04 2.583892105437e-04 0.0 
2.583892105437e-04 1.106165611681e-02 0.0 
0.0 0.0 0.0 
2.649912050696e-04 -1.363925645224e-04 0.0 
-1.363925645224e-04 1.904963666457e-03 0.0 
0.0 0.0 0.0 
-3.641733640420e-04 1.273801126254e-03 0.0 
1.273801126254e-03 5.688844752698e-03 0.0 
0.0 0.0 0.0 
2.825334668877e-04 -1.603031999460e-04 0.0 
-1.603031999460e-04 1.957170536061e-03 0.0 
0.0 0.0 0.0 
4.487635296331e-04 1.192756384903e-04 0.0 
1.192756384903e-04 6.086909210174e-03 0.0 
0.0 0.0 0.0 
5.373333124816e-04 7.427281089904e-05 0.0 
7.427281089904e-05 4.671005247870e-03 0.0 
0.0 0.0 0.0 
-3.269453693641e-04 6.499895383212e-04 0.0 
6.499895383212e-04 1.086986660744e-02 0.0 
0.0 0.0 0.0 
-2.343036311719e-04 2.152091221316e-04 0.0 
2.152091221316e-04 1.090091432053e-02 0.0 
0.0 0.0 0.0 
4.768932344663e-04 1.383780006732e-04 0.0 
1.383780006732e-04 5.897946116413e-03 0.0 
0.0 0.0 0.0 
5.033904310834e-04 2.134211379986e-04 0.0 
2.134211379986e-04 5.886302214397e-03 0.0 
0.0 0.0 0.0 
2.193507202553e-04 -8.962178329549e-05 0.0 
-8.962178329549e-05 1.566045349221e-03 0.0 
0.0 0.0 0.0 
4.676128567909e-04 1.923628501596e-04 0.0 
1.923628501596e-04 6.075611799461e-03 0.0 
0.0 0.0 0.0 
-3.251122224013e-04 1.911455831496e-04 0.0 
1.911455831496e-04 1.030502437594e-02 0.0 
0.0 0.0 0.0 
5.184923097536e-04 4.819881967189e-06 0.0 
4.819881967189e-06 4.681877347150e-03 0.0 
0.0 0.0 0.0 
-3.633471091894e-04 7.036012344209e-05 0.0 
7.036012344209e-05 9.951587259269e-03 0.0 
0.0 0.0 0.0 
-3.244279583566e-04 1.356473850564e-04 0.0 
1.356473850564e-04 1.052369289342e-02 0.0 
0.0 0.0 0.0 
5.314549077728e-04 9.750625568017e-04 0.0 
9.750625568017e-04 5.221221145603e-03 0.0 
0.0 0.0 0.0 
-2.476452061828e-04 1.773634119650e-04 0.0 
1.773634119650e-04 1.073038713225e-02 0.0 
0.0 0.0 0.0 
5.190026439159e-04 3.890600026994e-05 0.0 
3.890600026994e-05 3.845981318468e-03 0.0 
0.0 0.0 0.0 
5.247648341720e-04 6.251435314252e-06 0.0 
6.251435314252e-06 4.497725079131e-03 0.0 
0.0 0.0 0.0 
4.402736425158e-04 -1.165803070542e-05 0.0 
-1.165803070542e-05 2.845040529548e-03 0.0 
0.0 0.0 0.0 
5.113366961131e-04 -6.688623696524e-05 0.0 
-6.688623696524e-05 3.033363202330e-03 0.0 
0.0 0.0 0.0 
-3.285872026331e-04 1.544606612442e-04 0.0 
1.544606612442e-04 1.012701512825e-02 0.0 
0.0 0.0 0.0 
6.387046930274e-04 1.636896567759e-04 0.0 
1.636896567759e-04 4.403283623919e-03 0.0 
0.0 0.0 0.0 
3.098380906243e-04 -1.423965673473e-04 0.0 
-1.423965673473e-04 2.122451887794e-03 0.0 
0.0 0.0 0.0 
5.789088944108e-05 -1.743593541967e-04 0.0 
-1.743593541967e-04 1.052551877560e-03 0.0 
0.0 0.0 0.0 
-3.657212237249e-04 1.037283214868e-04 0.0 
1.037283214868e-04 1.013306246627e-02 0.0 
0.0 0.0 0.0 
3.402777094792e-04 -6.566692180533e-05 0.0 
-6.566692180533e-05 2.110382072359e-03 0.0 
0.0 0.0 0.0 
3.011928862646e-04 5.102771910574e-04 0.0 
5.102771910574e-04 7.548229777136e-03 0.0 
0.0 0.0 0.0 
-2.931177826504e-04 1.504501332414e-04 0.0 
1.504501332414e-04 1.034090602497e-02 0.0 
0.0 0.0 0.0 
4.446875357829e-04 2.436053494907e-04 0.0 
2.436053494907e-04 6.355841046358e-03 0.0 
0.0 0.0 0.0 
1.195363269311e-04 1.007077444255e-03 0.0 
1.007077444255e-03 8.607404196587e-03 0.0 
0.0 0.0 0.0 
4.936073879871e-04 -4.389245671809e-05 0.0 
-4.389245671809e-05 3.657259413777e-03 0.0 
0.0 0.0 0.0 
2.867259721924e-04 -6.350415391374e-05 0.0 
-6.350415391374e-05 1.893584532390e-03 0.0 
0.0 0.0 0.0 
1.164913996934e-04 -8.505596479332e-05 0.0 
-8.505596479332e-05 1.188363800158e-03 0.0 
0.0 0.0 0.0 
4.903299024805e-04 2.123465455001e-04 0.0 
2.123465455001e-04 5.993280918789e-03 0.0 
0.0 0.0 0.0 
-3.335410418143e-04 9.896385114200e-05 0.0 
9.896385114200e-05 9.761887768628e-03 0.0 
0.0 0.0 0.0 
1.450825031002e-05 -7.654277197100e-05 0.0 
-7.654277197100e-05 8.321962770683e-04 0.0 
0.0 0.0 0.0 
4.386307450146e-04 -9.580214586505e-05 0.0 
-9.580214586505e-05 2.902597038505e-03 0.0 
0.0 0.0 0.0 
2.175211190054e-04 -8.533030048710e-05 0.0 
-8.533030048710e-05 1.642866847327e-03 0.0 
0.0 0.0 0.0 
-3.953541897461e-04 7.287485251874e-05 0.0 
7.287485251874e-05 9.734802175174e-03 0.0 
0.0 0.0 0.0 
4.527292652687e-04 -8.125999457825e-05 0.0 
-8.125999457825e-05 3.074392581861e-03 0.0 
0.0 0.0 0.0 
5.733985573355e-04 2.487382657012e-04 0.0 
2.487382657012e-04 5.518161926663e-03 0.0 
0.0 0.0 0.0 
4.133497995020e-04 -8.789070491436e-05 0.0 
-8.789070491436e-05 2.853067577616e-03 0.0 
0.0 0.0 0.0 
-2.502173515795e-04 7.848471922734e-05 0.0 
7.848471922734e-05 1.077436629432e-02 0.0 
0.0 0.0 0.0 
4.143459723216e-04 -4.501632806309e-05 0.0 
-4.501632806309e-05 2.497910493311e-03 0.0 
0.0 0.0 0.0 
5.052643173904e-04 2.978865822711e-04 0.0 
2.978865822711e-04 6.107676940393e-03 0.0 
0.0 0.0 0.0 
2.444088755751e-04 -1.948914671535e-04 0.0 
-1.948914671535e-04 1.735337064170e-03 0.0 
0.0 0.0 0.0 
5.230430589411e-04 2.305952360033e-04 0.0 
2.305952360033e-04 5.813274286294e-03 0.0 
0.0 0.0 0.0 
5.147976571642e-04 -8.570785965903e-06 0.0 
-8.570785965903e-06 4.267286608490e-03 0.0 
0.0 0.0 0.0 
4.857170583279e-04 2.680765799030e-04 0.0 
2.680765799030e-04 6.166437306314e-03 0.0 
0.0 0.0 0.0 
7.075339012226e-04 4.464128636496e-04 0.0 
4.464128636496e-04 3.137424816909e-03 0.0 
0.0 0.0 0.0 
2.276168031634e-04 -2.064434455027e-05 0.0 
-2.064434455027e-05 1.626379423545e-03 0.0 
0.0 0.0 0.0 
-3.794640490714e-04 2.078368489019e-05 0.0 
2.078368489019e-05 9.357892669841e-03 0.0 
0.0 0.0 0.0 
5.859789397706e-04 6.036588515246e-04 0.0 
6.036588515246e-04 6.012536041023e-03 0.0 
0.0 0.0 0.0 
-3.169014347068e-04 1.169846084499e-03 0.0 
1.169846084499e-03 6.671444764905e-03 0.0 
0.0 0.0 0.0 
-3.598289324157e-04 4.168632166266e-05 0.0 
4.168632166266e-05 9.763767729901e-03 0.0 
0.0 0.0 0.0 
3.218697404566e-04 -1.703083186104e-04 0.0 
-1.703083186104e-04 1.955917010765e-03 0.0 
0.0 0.0 0.0 
-4.007068362453e-04 1.915684459530e-04 0.0 
1.915684459530e-04 9.876527239774e-03 0.0 
0.0 0.0 0.0 
1.825785575071e-04 -1.058377920500e-04 0.0 
-1.058377920500e-04 1.473200595589e-03 0.0 
0.0 0.0 0.0 
3.598694690985e-04 3.893021284849e-04 0.0 
3.893021284849e-04 7.072998980408e-03 0.0 
0.0 0.0 0.0 
5.404642099627e-04 6.995982591285e-04 0.0 
6.995982591285e-04 6.387475308905e-03 0.0 
0.0 0.0 0.0 
2.950862900091e-04 1.027002369323e-03 0.0 
1.027002369323e-03 7.522474101573e-03 0.0 
0.0 0.0 0.0 
-2.079638674637e-04 1.960989268187e-04 0.0 
1.960989268187e-04 1.128907048323e-02 0.0 
0.0 0.0 0.0 
6.321545022667e-04 2.238596729037e-04 0.0 
2.238596729037e-04 4.850977867848e-03 0.0 
0.0 0.0 0.0 
2.041464186817e-04 -7.052031350237e-05 0.0 
-7.052031350237e-05 1.520782103356e-03 0.0 
0.0 0.0 0.0 
5.830958558508e-04 2.652419020954e-04 0.0 
2.652419020954e-04 5.470428222413e-03 0.0 
0.0 0.0 0.0 
3.439492845183e-04 5.502860565846e-04 0.0 
5.502860565846e-04 7.378257840893e-03 0.0 
0.0 0.0 0.0 
4.879763197674e-04 -7.151124107865e-05 0.0 
-7.151124107865e-05 2.581374616852e-03 0.0 
0.0 0.0 0.0 
4.568246688483e-04 1.918197675489e-04 0.0 
1.918197675489e-04 6.178228301326e-03 0.0 
0.0 0.0 0.0 
-3.273662045867e-04 9.801045702297e-05 0.0 
9.801045702297e-05 1.034715278870e-02 0.0 
0.0 0.0 0.0 
4.501220611182e-04 1.133204411594e-05 0.0 
1.133204411594e-05 2.008908813697e-03 0.0 
0.0 0.0 0.0 
5.541094254466e-04 2.478390014908e-04 0.0 
2.478390014908e-04 5.639138159010e-03 0.0 
0.0 0.0 0.0 
-4.508934817867e-04 6.609806463399e-05 0.0 
6.609806463399e-05 9.294253034855e-03 0.0 
0.0 0.0 0.0 
3.166230654561e-04 -9.503345700104e-05 0.0 
-9.503345700104e-05 2.239808456950e-03 0.0 
0.0 0.0 0.0 
4.246985538809e-04 -1.119635137017e-04 0.0 
-1.119635137017e-04 2.732434036741e-03 0.0 
0.0 0.0 0.0 
-2.193222034252e-04 1.146686679710e-03 0.0 
1.146686679710e-03 7.352117456147e-03 0.0 
0.0 0.0 0.0 
5.256261271174e-04 2.898320755511e-04 0.0 
2.898320755511e-04 5.981148621035e-03 0.0 
0.0 0.0 0.0 
-5.682579607648e-04 1.042879531415e-03 0.0 
1.042879531415e-03 6.960272763717e-03 0.0 
0.0 0.0 0.0 
-1.015510006082e-04 1.177969549610e-03 0.0 
1.177969549610e-03 6.886347274349e-03 0.0 
0.0 0.0 0.0 
-3.634633167082e-04 1.927703438338e-04 0.0 
1.927703438338e-04 1.009138378396e-02 0.0 
0.0 0.0 0.0 
-3.583280458762e-04 9.932226295286e-05 0.0 
9.932226295286e-05 9.541843430700e-03 0.0 
0.0 0.0 0.0 
-4.247430000048e-04 1.460575875596e-04 0.0 
1.460575875596e-04 9.479955224225e-03 0.0 
0.0 0.0 0.0 
5.361927138190e-04 5.266657125936e-05 0.0 
5.266657125936e-05 4.253645676221e-03 0.0 
0.0 0.0 0.0 
4.049238487336e-04 5.357704715717e-04 0.0 
5.357704715717e-04 7.057752388661e-03 0.0 
0.0 0.0 0.0 
6.095752826949e-04 2.833271845751e-04 0.0 
2.833271845751e-04 5.307740295901e-03 0.0 
0.0 0.0 0.0 
-4.178582694011e-04 4.262380064355e-05 0.0 
4.262380064355e-05 9.329123876578e-03 0.0 
0.0 0.0 0.0 
-3.716488717695e-04 8.248037756263e-04 0.0 
8.248037756263e-04 1.080621647220e-02 0.0 
0.0 0.0 0.0 
2.089085742449e-04 1.083659319522e-03 0.0 
1.083659319522e-03 7.952777508362e-03 0.0 
0.0 0.0 0.0 
5.639428242457e-04 3.102994085500e-04 0.0 
3.102994085500e-04 5.800758875268e-03 0.0 
0.0 0.0 0.0 
-2.860759235915e-04 1.855076654808e-04 0.0 
1.855076654808e-04 1.051773025917e-02 0.0 
0.0 0.0 0.0 
5.157693101130e-04 -6.064716514642e-05 0.0 
-6.064716514642e-05 3.196558807147e-03 0.0 
0.0 0.0 0.0 
4.706777035302e-04 -9.178259689557e-05 0.0 
-9.178259689557e-05 2.960977635086e-03 0.0 
0.0 0.0 0.0 
1.983963308390e-04 -1.717118244489e-04 0.0 
-1.717118244489e-04 1.578795231307e-03 0.0 
0.0 0.0 0.0 
5.711992291515e-04 3.412487219568e-04 0.0 
3.412487219568e-04 5.773218690969e-03 0.0 
0.0 0.0 0.0 
4.783548831797e-04 -7.890906968432e-05 0.0 
-7.890906968432e-05 3.131959498449e-03 0.0 
0.0 0.0 0.0 
-4.029717517959e-04 1.054650930342e-04 0.0 
1.054650930342e-04 9.917135469517e-03 0.0 
0.0 0.0 0.0 
-4.391000372962e-04 1.046001027623e-04 0.0 
1.046001027623e-04 9.700600391644e-03 0.0 
0.0 0.0 0.0 
5.736452793914e-04 7.770345094259e-04 0.0 
7.770345094259e-04 5.259642683041e-03 0.0 
0.0 0.0 0.0 
4.573971734321e-04 -4.275258679622e-05 0.0 
-4.275258679622e-05 2.551347168527e-03 0.0 
0.0 0.0 0.0 
6.430286372414e-04 7.669448756539e-04 0.0 
7.669448756539e-04 3.354041795796e-03 0.0 
0.0 0.0 0.0 
4.683017574394e-04 -3.157260742991e-05 0.0 
-3.157260742991e-05 2.719717320045e-03 0.0 
0.0 0.0 0.0 
5.214395610180e-04 -6.970333905275e-06 0.0 
-6.970333905275e-06 2.947594404133e-03 0.0 
0.0 0.0 0.0 
2.558750076689e-04 -7.808707380079e-05 0.0 
-7.808707380079e-05 1.729839711865e-03 0.0 
0.0 0.0 0.0 
4.446455857334e-04 5.658947478867e-04 0.0 
5.658947478867e-04 6.905586846822e-03 0.0 
0.0 0.0 0.0 
6.619673761792e-04 1.347650485872e-04 0.0 
1.347650485872e-04 3.682725752083e-03 0.0 
0.0 0.0 0.0 
-2.810111055015e-04 1.256105804341e-04 0.0 
1.256105804341e-04 1.073658524947e-02 0.0 
0.0 0.0 0.0 
6.952588662656e-04 2.047101737613e-04 0.0 
2.047101737613e-04 3.950219445282e-03 0.0 
0.0 0.0 0.0 
6.338234812784e-04 3.520100504923e-04 0.0 
3.520100504923e-04 5.456896689607e-03 0.0 
0.0 0.0 0.0 
6.814012155696e-04 2.450319852393e-04 0.0 
2.450319852393e-04 4.550005665452e-03 0.0 
0.0 0.0 0.0 
1.520019768235e-04 1.143203373391e-03 0.0 
1.143203373391e-03 6.288046147022e-03 0.0 
0.0 0.0 0.0 
2.337128084622e-04 -1.539581529888e-04 0.0 
-1.539581529888e-04 1.742522100665e-03 0.0 
0.0 0.0 0.0 
3.924576727938e-04 5.751845278338e-04 0.0 
5.751845278338e-04 7.199783522314e-03 0.0 
0.0 0.0 0.0 
3.046705652354e-04 5.886062644231e-04 0.0 
5.886062644231e-04 7.581342676770e-03 0.0 
0.0 0.0 0.0 
-2.672748271639e-04 1.105426392238e-03 0.0 
1.105426392238e-03 8.481443310774e-03 0.0 
0.0 0.0 0.0 
5.727199841159e-04 2.901295861683e-05 0.0 
2.901295861683e-05 3.182382565552e-03 0.0 
0.0 0.0 0.0 
6.658613968473e-04 2.990372276729e-04 0.0 
2.990372276729e-04 4.998877103708e-03 0.0 
0.0 0.0 0.0 
-3.622070751578e-04 1.560134086828e-04 0.0 
1.560134086828e-04 9.911138029464e-03 0.0 
0.0 0.0 0.0 
5.182127196697e-04 -5.153438702002e-05 0.0 
-5.153438702002e-05 3.366822415676e-03 0.0 
0.0 0.0 0.0 
-1.251443601514e-04 1.239114369884e-03 0.0 
1.239114369884e-03 6.165504495423e-03 0.0 
0.0 0.0 0.0 
3.770714180602e-04 -1.217192039309e-04 0.0 
-1.217192039309e-04 2.509973690543e-03 0.0 
0.0 0.0 0.0 
3.971390517687e-04 -1.281309923720e-04 0.0 
-1.281309923720e-04 2.184936601324e-03 0.0 
0.0 0.0 0.0 
5.585013469696e-04 -1.823070995234e-05 0.0 
-1.823070995234e-05 3.440705675364e-03 0.0 
0.0 0.0 0.0 
3.622538435220e-04 -5.077374960493e-05 0.0 
-5.077374960493e-05 2.278232644963e-03 0.0 
0.0 0.0 0.0 
2.917153131610e-04 -1.172936187466e-04 0.0 
-1.172936187466e-04 2.070872917147e-03 0.0 
0.0 0.0 0.0 
6.223259597191e-04 1.522070109509e-04 0.0 
1.522070109509e-04 4.564581674669e-03 0.0 
0.0 0.0 0.0 
6.003009216629e-04 3.310388226742e-04 0.0 
3.310388226742e-04 5.626112218300e-03 0.0 
0.0 0.0 0.0 
-2.131211085002e-04 1.139744272569e-03 0.0 
1.139744272569e-03 9.581362770208e-03 0.0 
0.0 0.0 0.0 
-2.278334618387e-04 -2.245073273157e-05 0.0 
-2.245073273157e-05 2.091935235469e-04 0.0 
0.0 0.0 0.0 
7.394127333298e-04 3.457283765159e-04 0.0 
3.457283765159e-04 3.940065225513e-03 0.0 
0.0 0.0 0.0 
7.073083222802e-04 2.239425498815e-04 0.0 
2.239425498815e-04 3.793758618457e-03 0.0 
0.0 0.0 0.0 
6.207902821371e-04 7.598959765037e-05 0.0 
7.598959765037e-05 3.426780530803e-03 0.0 
0.0 0.0 0.0 
-3.940513467158e-04 1.525471297531e-04 0.0 
1.525471297531e-04 9.694954592352e-03 0.0 
0.0 0.0 0.0 
6.802492821920e-04 1.902304442652e-04 0.0 
1.902304442652e-04 4.110748015670e-03 0.0 
0.0 0.0 0.0 
4.287765829210e-04 -2.954798148213e-05 0.0 
-2.954798148213e-05 2.668854216864e-03 0.0 
0.0 0.0 0.0 
5.970860580657e-04 3.742830085627e-05 0.0 
3.742830085627e-05 3.698025386595e-03 0.0 
0.0 0.0 0.0 
-2.602508525850e-04 1.434229425466e-04 0.0 
1.434229425466e-04 1.055480835327e-02 0.0 
0.0 0.0 0.0 
3.920604538934e-04 -1.032944642530e-04 0.0 
-1.032944642530e-04 2.680517527863e-03 0.0 
0.0 0.0 0.0 
7.129159336450e-05 -6.989103975144e-05 0.0 
-6.989103975144e-05 9.713072935655e-04 0.0 
0.0 0.0 0.0 
1.634707339440e-04 -8.110337858350e-05 0.0 
-8.110337858350e-05 1.354357271394e-03 0.0 
0.0 0.0 0.0 
4.898300231582e-04 -1.279976583314e-05 0.0 
-1.279976583314e-05 2.324241533476e-03 0.0 
0.0 0.0 0.0 
5.162515026578e-04 -1.457055137245e-05 0.0 
-1.457055137245e-05 2.781356514424e-03 0.0 
0.0 0.0 0.0 
7.309864439367e-04 3.119094365917e-04 0.0 
3.119094365917e-04 4.082595224734e-03 0.0 
0.0 0.0 0.0 
6.290664202675e-04 1.037308243190e-04 0.0 
1.037308243190e-04 3.967218055281e-03 0.0 
0.0 0.0 0.0 
2.037483466226e-04 -2.045792229470e-04 0.0 
-2.045792229470e-04 1.576206249446e-03 0.0 
0.0 0.0 0.0 
1.533070311914e-04 -1.600346109945e-04 0.0 
-1.600346109945e-04 1.366006753249e-03 0.0 
0.0 0.0 0.0 
-5.342243614146e-04 1.360078369475e-04 0.0 
1.360078369475e-04 9.432891482982e-03 0.0 
0.0 0.0 0.0 
3.335711708496e-04 -1.237989355299e-04 0.0 
-1.237989355299e-04 2.289525791503e-03 0.0 
0.0 0.0 0.0 
5.301753689897e-04 5.618836642770e-04 0.0 
5.618836642770e-04 6.556957278983e-03 0.0 
0.0 0.0 0.0 
-1.815839694361e-04 1.153418023989e-03 0.0 
1.153418023989e-03 9.199779074953e-03 0.0 
0.0 0.0 0.0 
-6.814973326101e-04 4.646963798033e-04 0.0 
4.646963798033e-04 9.358029288308e-03 0.0 
0.0 0.0 0.0 
-3.017642811249e-04 3.350412288957e-04 0.0 
3.350412288957e-04 1.080423159174e-02 0.0 
0.0 0.0 0.0 
-2.175994912060e-04 1.123815635570e-03 0.0 
1.123815635570e-03 9.937737577838e-03 0.0 
0.0 0.0 0.0 
5.281430519499e-04 8.531058151340e-04 0.0 
8.531058151340e-04 5.239504282559e-03 0.0 
0.0 0.0 0.0 
-2.250817957733e-04 1.124561089205e-03 0.0 
1.124561089205e-03 8.837299887413e-03 0.0 
0.0 0.0 0.0 
2.847750684438e-04 -1.760833669641e-04 0.0 
-1.760833669641e-04 1.799940750072e-03 0.0 
0.0 0.0 0.0 
5.897110192712e-04 3.532250829655e-05 0.0 
3.532250829655e-05 3.861899901271e-03 0.0 
0.0 0.0 0.0 
3.635197887835e-04 1.129201982863e-03 0.0 
1.129201982863e-03 5.266742882724e-03 0.0 
0.0 0.0 0.0 
5.172392237236e-04 1.301054691055e-04 0.0 
1.301054691055e-04 2.113843952001e-03 0.0 
0.0 0.0 0.0 
1.453313609574e-04 -2.082274447412e-04 0.0 
-2.082274447412e-04 1.433216744742e-03 0.0 
0.0 0.0 0.0 
5.243468288851e-04 1.635699251746e-06 0.0 
1.635699251746e-06 3.119384278094e-03 0.0 
0.0 0.0 0.0 
6.381697743798e-04 1.160579378201e-04 0.0 
1.160579378201e-04 3.812872260537e-03 0.0 
0.0 0.0 0.0 
6.630952812323e-04 1.993692496661e-04 0.0 
1.993692496661e-04 4.101042309502e-03 0.0 
0.0 0.0 0.0 
3.806591820894e-04 -3.535565868325e-05 0.0 
-3.535565868325e-05 2.447462177448e-03 0.0 
0.0 0.0 0.0 
7.017350990257e-04 2.621494866168e-04 0.0 
2.621494866168e-04 4.387861460002e-03 0.0 
0.0 0.0 0.0 
6.703959715080e-04 2.260863419557e-04 0.0 
2.260863419557e-04 3.961273596934e-03 0.0 
0.0 0.0 0.0 
7.461594108773e-04 4.482019205822e-04 0.0 
4.482019205822e-04 4.258050564004e-03 0.0 
0.0 0.0 0.0 
4.609002321534e-04 -1.034950213604e-04 0.0 
-1.034950213604e-04 2.794881479303e-03 0.0 
0.0 0.0 0.0 
4.779466109248e-04 8.323304974933e-04 0.0 
8.323304974933e-04 6.709492880981e-03 0.0 
0.0 0.0 0.0 
-4.105170914117e-04 1.457531961617e-04 0.0 
1.457531961617e-04 1.009697029146e-02 0.0 
0.0 0.0 0.0 
7.453231436545e-04 4.996342235070e-04 0.0 
4.996342235070e-04 4.139488265962e-03 0.0 
0.0 0.0 0.0 
4.456642256048e-04 6.144007076774e-04 0.0 
6.144007076774e-04 7.045609857697e-03 0.0 
0.0 0.0 0.0 
3.695206761012e-04 -1.256241850529e-04 0.0 
-1.256241850529e-04 2.029897563048e-03 0.0 
0.0 0.0 0.0 
3.396909962747e-04 8.054172260793e-04 0.0 
8.054172260793e-04 7.766648374982e-03 0.0 
0.0 0.0 0.0 
7.179387017231e-04 2.838991601500e-04 0.0 
2.838991601500e-04 4.231005344177e-03 0.0 
0.0 0.0 0.0 
-2.008971968107e-04 1.135166134555e-03 0.0 
1.135166134555e-03 1.030734848339e-02 0.0 
0.0 0.0 0.0 
-5.850083143576e-04 8.515694335736e-04 0.0 
8.515694335736e-04 8.948183274575e-03 0.0 
0.0 0.0 0.0 
3.845481334170e-04 -5.606789243907e-05 0.0 
-5.606789243907e-05 1.938021813876e-03 0.0 
0.0 0.0 0.0 
-6.670258666350e-04 5.615956065433e-04 0.0 
5.615956065433e-04 9.445525307491e-03 0.0 
0.0 0.0 0.0 
-3.236535636100e-04 4.753322691727e-04 0.0 
4.753322691727e-04 1.087442840883e-02 0.0 
0.0 0.0 0.0 
7.283261332198e-04 3.708870160761e-04 0.0 
3.708870160761e-04 4.529353515673e-03 0.0 
0.0 0.0 0.0 
1.742774931579e-04 1.197253646384e-03 0.0 
1.197253646384e-03 5.010295387143e-03 0.0 
0.0 0.0 0.0 
-6.377776056214e-04 6.591378739233e-04 0.0 
6.591378739233e-04 9.512630755972e-03 0.0 
0.0 0.0 0.0 
-2.890031689730e-04 1.155886487747e-03 0.0 
1.155886487747e-03 7.007993938994e-03 0.0 
0.0 0.0 0.0 
2.557222275694e-04 -8.769747739212e-05 0.0 
-8.769747739212e-05 1.556791621809e-03 0.0 
0.0 0.0 0.0 
-1.449434534880e-04 4.240495787508e-04 0.0 
4.240495787508e-04 1.152929054626e-02 0.0 
0.0 0.0 0.0 
1.573317852686e-04 -1.008556291518e-04 0.0 
-1.008556291518e-04 1.347846599429e-03 0.0 
0.0 0.0 0.0 
2.126369398454e-04 1.099322442829e-03 0.0 
1.099322442829e-03 8.465844075803e-03 0.0 
0.0 0.0 0.0 
-1.930035523504e-04 2.011369124859e-04 0.0 
2.011369124859e-04 1.110885208732e-02 0.0 
0.0 0.0 0.0 
4.836666267027e-04 7.899195615480e-04 0.0 
7.899195615480e-04 6.779129659988e-03 0.0 
0.0 0.0 0.0 
-3.882952183870e-04 1.235986303978e-04 0.0 
1.235986303978e-04 9.505640211087e-03 0.0 
0.0 0.0 0.0 
-3.647042186857e-04 2.368038859889e-04 0.0 
2.368038859889e-04 1.065103844590e-02 0.0 
0.0 0.0 0.0 
6.830981989621e-04 3.266743099800e-04 0.0 
3.266743099800e-04 4.278212168315e-03 0.0 
0.0 0.0 0.0 
5.423147189796e-04 8.103635982057e-04 0.0 
8.103635982057e-04 5.728220775385e-03 0.0 
0.0 0.0 0.0 
-2.282809225820e-04 3.787660865308e-04 0.0 
3.787660865308e-04 1.116384796289e-02 0.0 
0.0 0.0 0.0 
5.466623027071e-04 3.787547022613e-04 0.0 
3.787547022613e-04 6.094833358055e-03 0.0 
0.0 0.0 0.0 
-4.150752396442e-04 1.925266889751e-04 0.0 
1.925266889751e-04 1.027087531359e-02 0.0 
0.0 0.0 0.0 
6.177776251182e-04 6.628291497138e-04 0.0 
6.628291497138e-04 6.117793607373e-03 0.0 
0.0 0.0 0.0 
3.545787454939e-04 -5.061987147113e-05 0.0 
-5.061987147113e-05 1.779767128614e-03 0.0 
0.0 0.0 0.0 
-4.164752379346e-04 2.455498016835e-04 0.0 
2.455498016835e-04 1.043737518006e-02 0.0 
0.0 0.0 0.0 
-8.566961656142e-05 1.333798333353e-03 0.0 
1.333798333353e-03 1.026435137852e-02 0.0 
0.0 0.0 0.0 
3.423443524375e-04 6.730624999610e-04 0.0 
6.730624999610e-04 7.562132200189e-03 0.0 
0.0 0.0 0.0 
6.501746376359e-04 1.273464864350e-04 0.0 
1.273464864350e-04 3.847520354938e-03 0.0 
0.0 0.0 0.0 
-4.251565777358e-04 6.845368033531e-05 0.0 
6.845368033531e-05 9.510851390374e-03 0.0 
0.0 0.0 0.0 
-4.139096453722e-04 1.164929261347e-04 0.0 
1.164929261347e-04 9.288356879879e-03 0.0 
0.0 0.0 0.0 
6.522430246785e-04 1.780747671627e-04 0.0 
1.780747671627e-04 4.247639088149e-03 0.0 
0.0 0.0 0.0 
5.859826669805e-04 4.035084095529e-04 0.0 
4.035084095529e-04 5.923878430055e-03 0.0 
0.0 0.0 0.0 
5.627475806149e-04 4.805500363462e-04 0.0 
4.805500363462e-04 6.233405595815e-03 0.0 
0.0 0.0 0.0 
1.139585719270e-04 -1.696025864370e-04 0.0 
-1.696025864370e-04 1.201665215890e-03 0.0 
0.0 0.0 0.0 
6.132850591056e-04 7.122619329661e-04 0.0 
7.122619329661e-04 2.887904796387e-03 0.0 
0.0 0.0 0.0 
7.271789602206e-04 6.134877466388e-04 0.0 
6.134877466388e-04 4.498140133373e-03 0.0 
0.0 0.0 0.0 
6.834308887427e-04 3.692823068112e-04 0.0 
3.692823068112e-04 4.161789356387e-03 0.0 
0.0 0.0 0.0 
-2.812874008784e-05 1.221648464133e-03 0.0 
1.221648464133e-03 6.387959723934e-03 0.0 
0.0 0.0 0.0 
-2.191500073440e-04 3.174699665373e-04 0.0 
3.174699665373e-04 1.137801243826e-02 0.0 
0.0 0.0 0.0 
-3.483236658571e-04 7.564183490378e-04 0.0 
7.564183490378e-04 1.071457399807e-02 0.0 
0.0 0.0 0.0 
-2.234343292231e-04 1.513233864869e-04 0.0 
1.513233864869e-04 1.111279635393e-02 0.0 
0.0 0.0 0.0 
-6.437799971900e-04 9.235421201776e-04 0.0 
9.235421201776e-04 7.350017935703e-03 0.0 
0.0 0.0 0.0 
-3.952717888215e-04 4.158810982186e-04 0.0 
4.158810982186e-04 1.051902431721e-02 0.0 
0.0 0.0 0.0 
5.394937823260e-04 3.196407144717e-04 0.0 
3.196407144717e-04 5.936895962698e-03 0.0 
0.0 0.0 0.0 
-2.038221834298e-04 3.084050690203e-04 0.0 
3.084050690203e-04 1.122640425003e-02 0.0 
0.0 0.0 0.0 
-4.666117972844e-04 2.513643103581e-04 0.0 
2.513643103581e-04 1.022151090359e-02 0.0 
0.0 0.0 0.0 
6.178771735907e-04 9.456347544927e-05 0.0 
9.456347544927e-05 4.125954572238e-03 0.0 
0.0 0.0 0.0 
7.098308218207e-04 6.814025441895e-04 0.0 
6.814025441895e-04 4.411064905891e-03 0.0 
0.0 0.0 0.0 
-3.603326836005e-04 2.872274962215e-04 0.0 
2.872274962215e-04 1.043232683655e-02 0.0 
0.0 0.0 0.0 
-2.995517631429e-04 2.782596784563e-04 0.0 
2.782596784563e-04 1.102277037950e-02 0.0 
0.0 0.0 0.0 
-3.204255606082e-04 2.331291700301e-04 0.0 
2.331291700301e-04 1.047813008736e-02 0.0 
0.0 0.0 0.0 
-3.634004190796e-04 2.369750133859e-04 0.0 
2.369750133859e-04 1.026552849012e-02 0.0 
0.0 0.0 0.0 
4.398405163191e-04 5.030233676656e-04 0.0 
5.030233676656e-04 6.885503975974e-03 0.0 
0.0 0.0 0.0 
1.959433430418e-04 1.112102436049e-03 0.0 
1.112102436049e-03 8.423194734203e-03 0.0 
0.0 0.0 0.0 
4.885707589306e-04 5.313284848094e-04 0.0 
5.313284848094e-04 6.714773699205e-03 0.0 
0.0 0.0 0.0 
6.373417899856e-04 2.814365890814e-04 0.0 
2.814365890814e-04 5.166870004303e-03 0.0 
0.0 0.0 0.0 
-6.899752033729e-04 4.235425315239e-04 0.0 
4.235425315239e-04 7.699283482187e-03 0.0 
0.0 0.0 0.0 
4.175600445282e-04 8.791221609533e-04 0.0 
8.791221609533e-04 7.175748389450e-03 0.0 
0.0 0.0 0.0 
-4.942926645367e-04 4.328760552977e-04 0.0 
4.328760552977e-04 1.006951484008e-02 0.0 
0.0 0.0 0.0 
3.134251422976e-04 -4.785392590905e-05 0.0 
-4.785392590905e-05 2.060254412923e-03 0.0 
0.0 0.0 0.0 
6.763075752489e-04 4.842993105144e-04 0.0 
4.842993105144e-04 4.519280261401e-03 0.0 
0.0 0.0 0.0 
7.100122932664e-04 6.037212087093e-04 0.0 
6.037212087093e-04 5.059860505199e-03 0.0 
0.0 0.0 0.0 
5.040190833361e-04 8.434045927595e-04 0.0 
8.434045927595e-04 6.194765954278e-03 0.0 
0.0 0.0 0.0 
5.800087449792e-04 3.046079280342e-04 0.0 
3.046079280342e-04 2.255275343625e-03 0.0 
0.0 0.0 0.0 
6.638935683472e-04 5.451895481438e-04 0.0 
5.451895481438e-04 4.434341480063e-03 0.0 
0.0 0.0 0.0 
4.586082221290e-04 8.777030514063e-04 0.0 
8.777030514063e-04 6.660138568129e-03 0.0 
0.0 0.0 0.0 
-6.726647177004e-04 6.556466248797e-04 0.0 
6.556466248797e-04 8.023168229294e-03 0.0 
0.0 0.0 0.0 
6.624662799055e-04 1.789859901934e-04 0.0 
1.789859901934e-04 4.277575844897e-03 0.0 
0.0 0.0 0.0 
-5.019957775829e-04 1.965127196717e-04 0.0 
1.965127196717e-04 9.835136738047e-03 0.0 
0.0 0.0 0.0 
-4.119588352126e-04 5.503527609175e-05 0.0 
5.503527609175e-05 8.653613665320e-03 0.0 
0.0 0.0 0.0 
-7.347698419785e-04 1.158523161340e-03 0.0 
1.158523161340e-03 2.082122284877e-03 0.0 
0.0 0.0 0.0 
6.106094786495e-04 2.092454407637e-04 0.0 
2.092454407637e-04 5.012918925769e-03 0.0 
0.0 0.0 0.0 
5.138141763061e-04 8.366613187368e-04 0.0 
8.366613187368e-04 6.851366995451e-03 0.0 
0.0 0.0 0.0 
-2.967392018927e-04 7.314231211942e-04 0.0 
7.314231211942e-04 1.095251215914e-02 0.0 
0.0 0.0 0.0 
6.295094313189e-04 8.269929925019e-04 0.0 
8.269929925019e-04 5.285992252210e-03 0.0 
0.0 0.0 0.0 
6.582179038981e-04 2.307702533380e-04 0.0 
2.307702533380e-04 4.717566482980e-03 0.0 
0.0 0.0 0.0 
-4.520459884199e-04 1.470177043048e-04 0.0 
1.470177043048e-04 9.881721986471e-03 0.0 
0.0 0.0 0.0 
-6.297313893856e-04 1.140263647734e-03 0.0 
1.140263647734e-03 3.426067522588e-03 0.0 
0.0 0.0 0.0 
5.142235897562e-04 8.780939252811e-04 0.0 
8.780939252811e-04 6.765673587716e-03 0.0 
0.0 0.0 0.0 
5.712032524214e-04 7.495865467051e-04 0.0 
7.495865467051e-04 5.772705011215e-03 0.0 
0.0 0.0 0.0 
-7.319250163759e-04 6.476936610016e-04 0.0 
6.476936610016e-04 8.306049679370e-03 0.0 
0.0 0.0 0.0 
5.170842380389e-04 3.978400237454e-04 0.0 
3.978400237454e-04 6.246150982376e-03 0.0 
0.0 0.0 0.0 
4.248403552281e-04 -3.263230203856e-05 0.0 
-3.263230203856e-05 2.135121267903e-03 0.0 
0.0 0.0 0.0 
4.857934315270e-04 4.797119995905e-04 0.0 
4.797119995905e-04 6.569707836579e-03 0.0 
0.0 0.0 0.0 
3.947535338629e-04 7.023460456464e-04 0.0 
7.023460456464e-04 7.389079054084e-03 0.0 
0.0 0.0 0.0 
5.007725063724e-04 9.209357710226e-04 0.0 
9.209357710226e-04 6.696075942896e-03 0.0 
0.0 0.0 0.0 
-3.679765545932e-04 1.867866741815e-04 0.0 
1.867866741815e-04 1.048383711485e-02 0.0 
0.0 0.0 0.0 
-6.081077561204e-05 1.156719485891e-03 0.0 
1.156719485891e-03 8.768833689297e-03 0.0 
0.0 0.0 0.0 
3.526514530967e-04 6.256228880453e-04 0.0 
6.256228880453e-04 7.398975803720e-03 0.0 
0.0 0.0 0.0 
-6.027682564792e-04 9.438415107795e-04 0.0 
9.438415107795e-04 4.826147631113e-03 0.0 
0.0 0.0 0.0 
-4.601816583327e-04 1.961148794496e-04 0.0 
1.961148794496e-04 1.005522003524e-02 0.0 
0.0 0.0 0.0 
9.809597798638e-05 1.179158976717e-03 0.0 
1.179158976717e-03 8.791632687330e-03 0.0 
0.0 0.0 0.0 
-3.134062261089e-04 2.814747598293e-04 0.0 
2.814747598293e-04 1.064557965910e-02 0.0 
0.0 0.0 0.0 
5.496829808325e-04 8.877429787071e-04 0.0 
8.877429787071e-04 6.226422916673e-03 0.0 
0.0 0.0 0.0 
6.289510466244e-04 6.646251938290e-04 0.0 
6.646251938290e-04 4.834281981718e-03 0.0 
0.0 0.0 0.0 
5.833930354557e-04 1.124960081499e-04 0.0 
1.124960081499e-04 4.549528653659e-03 0.0 
0.0 0.0 0.0 
2.319790515048e-04 2.406376675987e-04 0.0 
2.406376675987e-04 1.320857513224e-03 0.0 
0.0 0.0 0.0 
-2.659522680470e-04 2.718396022460e-04 0.0 
2.718396022460e-04 1.085585973840e-02 0.0 
0.0 0.0 0.0 
3.372132780717e-04 -2.927360289318e-05 0.0 
-2.927360289318e-05 2.231239782168e-03 0.0 
0.0 0.0 0.0 
-4.894648210200e-04 4.478303195549e-04 0.0 
4.478303195549e-04 5.840281529834e-03 0.0 
0.0 0.0 0.0 
-1.394462061652e-04 1.140311305458e-03 0.0 
1.140311305458e-03 8.798138058357e-03 0.0 
0.0 0.0 0.0 
-1.741301119421e-04 2.435265147303e-04 0.0 
2.435265147303e-04 1.128286186060e-02 0.0 
0.0 0.0 0.0 
3.367804555365e-04 -1.140423871081e-04 0.0 
-1.140423871081e-04 1.883782960680e-03 0.0 
0.0 0.0 0.0 
-3.202379701991e-04 1.100190118528e-03 0.0 
1.100190118528e-03 7.789208072927e-03 0.0 
0.0 0.0 0.0 
-4.060188595546e-04 2.904196107417e-04 0.0 
2.904196107417e-04 1.021683185778e-02 0.0 
0.0 0.0 0.0 
5.896557674632e-04 8.528725429393e-05 0.0 
8.528725429393e-05 4.463490359190e-03 0.0 
0.0 0.0 0.0 
4.726095923442e-04 1.166413892685e-04 0.0 
1.166413892685e-04 2.285602626129e-03 0.0 
0.0 0.0 0.0 
2.821236659860e-04 1.224602967268e-03 0.0 
1.224602967268e-03 4.419307823339e-03 0.0 
0.0 0.0 0.0 
2.169556417289e-04 -8.830522699627e-05 0.0 
-8.830522699627e-05 1.412710969352e-03 0.0 
0.0 0.0 0.0 
4.223785047852e-04 3.226967841667e-05 0.0 
3.226967841667e-05 1.865323015153e-03 0.0 
0.0 0.0 0.0 
3.168774628719e-04 -3.555682966987e-05 0.0 
-3.555682966987e-05 1.636956034905e-03 0.0 
0.0 0.0 0.0 
5.926872486544e-04 8.570340031280e-04 0.0 
8.570340031280e-04 5.756577786722e-03 0.0 
0.0 0.0 0.0 
-1.088536824593e-04 6.142139519023e-04 0.0 
6.142139519023e-04 1.183164429040e-02 0.0 
0.0 0.0 0.0 
-5.238931846879e-04 3.109056822840e-04 0.0 
3.109056822840e-04 6.363884513859e-03 0.0 
0.0 0.0 0.0 
3.892503423395e-04 4.671432171855e-04 0.0 
4.671432171855e-04 7.060188350316e-03 0.0 
0.0 0.0 0.0 
6.380394604257e-04 8.464820042308e-04 0.0 
8.464820042308e-04 4.298290246875e-03 0.0 
0.0 0.0 0.0 
-5.148051879449e-04 2.560298096668e-04 0.0 
2.560298096668e-04 1.000477195826e-02 0.0 
0.0 0.0 0.0 
4.122447633350e-04 3.086207563914e-04 0.0 
3.086207563914e-04 1.722650667257e-03 0.0 
0.0 0.0 0.0 
2.888322578110e-04 7.186631447017e-04 0.0 
7.186631447017e-04 7.761736465131e-03 0.0 
0.0 0.0 0.0 
2.460283384433e-04 -1.736327731923e-04 0.0 
-1.736327731923e-04 1.650178240783e-03 0.0 
0.0 0.0 0.0 
4.017149655478e-04 -1.540828820144e-05 0.0 
-1.540828820144e-05 2.632142410563e-03 0.0 
0.0 0.0 0.0 
4.239813681661e-04 9.976309059380e-04 0.0 
9.976309059380e-04 7.112029085842e-03 0.0 
0.0 0.0 0.0 
6.762887423957e-04 2.905264397203e-04 0.0 
2.905264397203e-04 4.405416208196e-03 0.0 
0.0 0.0 0.0 
1.708728507330e-04 1.126734609264e-03 0.0 
1.126734609264e-03 8.396361462163e-03 0.0 
0.0 0.0 0.0 
-1.427982338029e-04 1.266411988520e-03 0.0 
1.266411988520e-03 5.806815318932e-03 0.0 
0.0 0.0 0.0 
-5.169176095879e-04 3.977775535148e-04 0.0 
3.977775535148e-04 1.030065750080e-02 0.0 
0.0 0.0 0.0 
2.470469286904e-04 1.160934378028e-03 0.0 
1.160934378028e-03 8.456219411602e-03 0.0 
0.0 0.0 0.0 
-4.051101023764e-04 2.381296385758e-04 0.0 
2.381296385758e-04 1.005041166886e-02 0.0 
0.0 0.0 0.0 
-3.612184718291e-04 7.111428791438e-04 0.0 
7.111428791438e-04 1.095591800124e-02 0.0 
0.0 0.0 0.0 
-4.138058005209e-04 3.049428946207e-04 0.0 
3.049428946207e-04 1.059491074315e-02 0.0 
0.0 0.0 0.0 
-4.055115505556e-04 3.701705112968e-04 0.0 
3.701705112968e-04 1.074334003611e-02 0.0 
0.0 0.0 0.0 
4.727458067808e-04 7.633232409906e-04 0.0 
7.633232409906e-04 2.414436506982e-03 0.0 
0.0 0.0 0.0 
4.296456817729e-04 3.925808474572e-04 0.0 
3.925808474572e-04 6.747413777734e-03 0.0 
0.0 0.0 0.0 
-4.033446878272e-04 3.496709291690e-04 0.0 
3.496709291690e-04 1.037419504228e-02 0.0 
0.0 0.0 0.0 
4.302051430105e-04 1.056430222100e-03 0.0 
1.056430222100e-03 5.685913565096e-03 0.0 
0.0 0.0 0.0 
-5.799531877839e-04 2.374241280092e-04 0.0 
2.374241280092e-04 6.833982999133e-03 0.0 
0.0 0.0 0.0 
1.381341489257e-04 1.174031900315e-03 0.0 
1.174031900315e-03 8.861373079386e-03 0.0 
0.0 0.0 0.0 
5.995127572753e-04 5.460710010810e-04 0.0 
5.460710010810e-04 2.489101145340e-03 0.0 
0.0 0.0 0.0 
3.574302110201e-04 -1.065711362709e-04 0.0 
-1.065711362709e-04 2.457887542725e-03 0.0 
0.0 0.0 0.0 
2.684438361815e-04 1.130690462634e-03 0.0 
1.130690462634e-03 7.963809120990e-03 0.0 
0.0 0.0 0.0 
1.882353921165e-04 -4.752174884689e-05 0.0 
-4.752174884689e-05 1.460955665289e-03 0.0 
0.0 0.0 0.0 
2.748858943602e-05 1.162162546241e-03 0.0 
1.162162546241e-03 6.780824550288e-03 0.0 
0.0 0.0 0.0 
4.438550031862e-04 9.578578387101e-04 0.0 
9.578578387101e-04 7.165117181403e-03 0.0 
0.0 0.0 0.0 
-3.237657409738e-04 4.219144364068e-04 0.0 
4.219144364068e-04 1.108918849185e-02 0.0 
0.0 0.0 0.0 
-2.991295319795e-04 5.000839582894e-04 0.0 
5.000839582894e-04 1.122290645618e-02 0.0 
0.0 0.0 0.0 
4.055700094512e-04 9.156440534110e-04 0.0 
9.156440534110e-04 7.124062104510e-03 0.0 
0.0 0.0 0.0 
-3.569266081564e-04 2.932761708596e-04 0.0 
2.932761708596e-04 1.080940514853e-02 0.0 
0.0 0.0 0.0 
5.583450937248e-04 9.603352483366e-04 0.0 
9.603352483366e-04 4.751997558058e-03 0.0 
0.0 0.0 0.0 
-2.843973400996e-04 1.087872245025e-03 0.0 
1.087872245025e-03 9.230491710053e-03 0.0 
0.0 0.0 0.0 
-6.121752429894e-04 1.870574123623e-04 0.0 
1.870574123623e-04 7.288189799750e-03 0.0 
0.0 0.0 0.0 
-2.946611384964e-04 9.450184588106e-04 0.0 
9.450184588106e-04 1.052869101761e-02 0.0 
0.0 0.0 0.0 
-6.234165985799e-04 1.644033616110e-04 0.0 
1.644033616110e-04 7.734549189891e-03 0.0 
0.0 0.0 0.0 
-6.043304789690e-04 1.508436877889e-04 0.0 
1.508436877889e-04 7.953317076919e-03 0.0 
0.0 0.0 0.0 
5.887918008707e-04 8.983583483688e-04 0.0 
8.983583483688e-04 5.241770282040e-03 0.0 
0.0 0.0 0.0 
-6.105773389704e-04 1.612875930109e-04 0.0 
1.612875930109e-04 8.176912187933e-03 0.0 
0.0 0.0 0.0 
1.286957954927e-04 1.117796855734e-03 0.0 
1.117796855734e-03 7.103246746655e-03 0.0 
0.0 0.0 0.0 
2.746712059052e-04 1.096946925439e-03 0.0 
1.096946925439e-03 5.785635223635e-03 0.0 
0.0 0.0 0.0 
6.496429801217e-04 5.977797058298e-04 0.0 
5.977797058298e-04 4.899204477057e-03 0.0 
0.0 0.0 0.0 
4.935875977974e-04 1.699760818101e-04 0.0 
1.699760818101e-04 1.967893640880e-03 0.0 
0.0 0.0 0.0 
6.597314249537e-04 7.951781624900e-04 0.0 
7.951781624900e-04 4.814288407598e-03 0.0 
0.0 0.0 0.0 
-2.507510826073e-04 3.239073704538e-04 0.0 
3.239073704538e-04 1.101716524040e-02 0.0 
0.0 0.0 0.0 
-2.953930793619e-04 8.600993173273e-04 0.0 
8.600993173273e-04 1.080439083276e-02 0.0 
0.0 0.0 0.0 
5.047734703920e-04 3.531459799265e-04 0.0 
3.531459799265e-04 6.270565634169e-03 0.0 
0.0 0.0 0.0 
2.262583764587e-04 1.173616606076e-03 0.0 
1.173616606076e-03 8.413869666367e-03 0.0 
0.0 0.0 0.0 
7.398207523657e-04 4.054135309596e-04 0.0 
4.054135309596e-04 4.387093707077e-03 0.0 
0.0 0.0 0.0 
-3.413523788510e-04 4.072446975485e-04 0.0 
4.072446975485e-04 1.073863668643e-02 0.0 
0.0 0.0 0.0 
6.881049405005e-04 7.236251790772e-04 0.0 
7.236251790772e-04 4.880180630670e-03 0.0 
0.0 0.0 0.0 
3.832095505332e-04 3.657610338102e-04 0.0 
3.657610338102e-04 6.932693456782e-03 0.0 
0.0 0.0 0.0 
-3.530137738673e-04 3.440255648394e-04 0.0 
3.440255648394e-04 1.059010224150e-02 0.0 
0.0 0.0 0.0 
-4.630558760716e-04 3.842660569068e-04 0.0 
3.842660569068e-04 1.052321710542e-02 0.0 
0.0 0.0 0.0 
5.698292743912e-04 8.372514379626e-04 0.0 
8.372514379626e-04 6.291412634959e-03 0.0 
0.0 0.0 0.0 
6.167815680600e-04 8.746708284563e-04 0.0 
8.746708284563e-04 4.770494650129e-03 0.0 
0.0 0.0 0.0 
-2.404031384686e-04 1.118935359529e-03 0.0 
1.118935359529e-03 9.582792777606e-03 0.0 
0.0 0.0 0.0 
-5.517320033569e-04 8.301304726815e-04 0.0 
8.301304726815e-04 8.950932684360e-03 0.0 
0.0 0.0 0.0 
3.904280939757e-04 -6.540845090232e-06 0.0 
-6.540845090232e-06 1.996714040528e-03 0.0 
0.0 0.0 0.0 
5.027328318281e-04 3.375153892251e-04 0.0 
3.375153892251e-04 2.523117920654e-03 0.0 
0.0 0.0 0.0 
-3.896265314607e-05 1.267942574537e-03 0.0 
1.267942574537e-03 5.610826876380e-03 0.0 
0.0 0.0 0.0 
-3.458551623324e-04 1.088008356514e-03 0.0 
1.088008356514e-03 7.791034848683e-03 0.0 
0.0 0.0 0.0 
3.332280117114e-04 3.347051314568e-04 0.0 
3.347051314568e-04 7.127265119119e-03 0.0 
0.0 0.0 0.0 
-4.680619279878e-04 3.144266831368e-04 0.0 
3.144266831368e-04 1.037860987859e-02 0.0 
0.0 0.0 0.0 
5.958852170660e-04 7.405502549005e-04 0.0 
7.405502549005e-04 4.791140355182e-03 0.0 
0.0 0.0 0.0 
-3.624217999422e-04 1.051845814074e-03 0.0 
1.051845814074e-03 8.533996399249e-03 0.0 
0.0 0.0 0.0 
4.502296182582e-04 9.271367564106e-04 0.0 
9.271367564106e-04 7.246233669356e-03 0.0 
0.0 0.0 0.0 
-3.121685192642e-04 2.260752960540e-04 0.0 
2.260752960540e-04 1.086163810969e-02 0.0 
0.0 0.0 0.0 
-2.670329195421e-04 1.117632863063e-03 0.0 
1.117632863063e-03 9.938546002158e-03 0.0 
0.0 0.0 0.0 
-4.905944786520e-04 2.889603150318e-04 0.0 
2.889603150318e-04 9.782274636600e-03 0.0 
0.0 0.0 0.0 
4.691286522434e-04 7.686976708416e-04 0.0 
7.686976708416e-04 7.114125567352e-03 0.0 
0.0 0.0 0.0 
6.046788810814e-04 7.082739537257e-04 0.0 
7.082739537257e-04 5.304010521672e-03 0.0 
0.0 0.0 0.0 
4.148138496234e-04 8.419144127901e-04 0.0 
8.419144127901e-04 7.254174675303e-03 0.0 
0.0 0.0 0.0 
-2.140281246665e-05 1.199207219772e-03 0.0 
1.199207219772e-03 6.775562217948e-03 0.0 
0.0 0.0 0.0 
-2.833419142483e-04 3.393923571885e-04 0.0 
3.393923571885e-04 1.116802589809e-02 0.0 
0.0 0.0 0.0 
-2.669408848198e-04 1.105053378225e-03 0.0 
1.105053378225e-03 1.030925352278e-02 0.0 
0.0 0.0 0.0 
6.170916926436e-04 7.991578967637e-04 0.0 
7.991578967637e-04 5.819561302087e-03 0.0 
0.0 0.0 0.0 
5.468255133645e-04 3.835981583169e-04 0.0 
3.835981583169e-04 2.138543755631e-03 0.0 
0.0 0.0 0.0 
2.483036708889e-05 1.208317823493e-03 0.0 
1.208317823493e-03 8.739794260757e-03 0.0 
0.0 0.0 0.0 
2.617989826814e-05 1.144382121119e-03 0.0 
1.144382121119e-03 7.168792305236e-03 0.0 
0.0 0.0 0.0 
5.486282875753e-04 8.257461754938e-04 0.0 
8.257461754938e-04 4.773044092504e-03 0.0 
0.0 0.0 0.0 
5.289222265314e-04 7.901070241661e-04 0.0 
7.901070241661e-04 6.241136349234e-03 0.0 
0.0 0.0 0.0 
4.779735895790e-04 5.949822632008e-04 0.0 
5.949822632008e-04 6.764603377720e-03 0.0 
0.0 0.0 0.0 
4.416813285986e-04 1.759342394837e-04 0.0 
1.759342394837e-04 2.172868709014e-03 0.0 
0.0 0.0 0.0 
6.565689297204e-04 7.617797732911e-04 0.0 
7.617797732911e-04 5.349476117900e-03 0.0 
0.0 0.0 0.0 
-5.771885017160e-04 6.516262223814e-04 0.0 
6.516262223814e-04 9.513365992896e-03 0.0 
0.0 0.0 0.0 
3.124629739049e-04 2.580268783524e-04 0.0 
2.580268783524e-04 7.138097867847e-03 0.0 
0.0 0.0 0.0 
-5.398077333999e-04 7.482159052020e-04 0.0 
7.482159052020e-04 9.559236016841e-03 0.0 
0.0 0.0 0.0 
-4.971748653260e-05 1.194681807485e-03 0.0 
1.194681807485e-03 8.763252866442e-03 0.0 
0.0 0.0 0.0 
-6.006153716088e-04 5.547773374130e-04 0.0 
5.547773374130e-04 9.446135429714e-03 0.0 
0.0 0.0 0.0 
-6.119366910829e-04 3.741602900885e-04 0.0 
3.741602900885e-04 9.248054565858e-03 0.0 
0.0 0.0 0.0 
-4.836266098438e-04 9.230485521474e-04 0.0 
9.230485521474e-04 8.937939858946e-03 0.0 
0.0 0.0 0.0 
2.972276794853e-04 1.110183670273e-03 0.0 
1.110183670273e-03 7.997140391852e-03 0.0 
0.0 0.0 0.0 
4.406222433073e-04 3.451248155952e-04 0.0 
3.451248155952e-04 6.585544786848e-03 0.0 
0.0 0.0 0.0 
-4.514628418371e-04 3.537193491660e-04 0.0 
3.537193491660e-04 1.015541182372e-02 0.0 
0.0 0.0 0.0 
-2.431589761276e-04 5.295273571432e-04 0.0 
5.295273571432e-04 1.121899469130e-02 0.0 
0.0 0.0 0.0 
-6.124073556231e-04 4.610903061491e-04 0.0 
4.610903061491e-04 9.358199715466e-03 0.0 
0.0 0.0 0.0 
6.040125982989e-04 6.468813334277e-04 0.0 
6.468813334277e-04 3.851718301564e-03 0.0 
0.0 0.0 0.0 
-5.338824731438e-05 1.188760504824e-03 0.0 
1.188760504824e-03 9.153341691998e-03 0.0 
0.0 0.0 0.0 
-2.419565240084e-04 2.607854891518e-04 0.0 
2.607854891518e-04 1.123202886507e-02 0.0 
0.0 0.0 0.0 
2.206754221803e-04 1.163873267309e-03 0.0 
1.163873267309e-03 6.201526237011e-03 0.0 
0.0 0.0 0.0 
1.003186706303e-04 1.184127241305e-03 0.0 
1.184127241305e-03 6.688427275453e-03 0.0 
0.0 0.0 0.0 
6.069820927457e-04 6.978268887463e-04 0.0 
6.978268887463e-04 4.321747388924e-03 0.0 
0.0 0.0 0.0 
-4.465832151552e-04 4.244061741802e-04 0.0 
4.244061741802e-04 1.029681916348e-02 0.0 
0.0 0.0 0.0 
-4.559367318087e-04 1.080902887686e-03 0.0 
1.080902887686e-03 6.828539611617e-03 0.0 
0.0 0.0 0.0 
1.944098196145e-04 1.148336154622e-03 0.0 
1.148336154622e-03 7.051826506005e-03 0.0 
0.0 0.0 0.0 
-4.213895813905e-04 1.143423267285e-03 0.0 
1.143423267285e-03 6.819878012758e-03 0.0 
0.0 0.0 0.0 
3.451781578476e-04 1.068778219655e-03 0.0 
1.068778219655e-03 7.536964719864e-03 0.0 
0.0 0.0 0.0 
-4.764228930143e-05 1.234646139764e-03 0.0 
1.234646139764e-03 9.530425925282e-03 0.0 
0.0 0.0 0.0 
6.411142667633e-04 6.160593226591e-04 0.0 
6.160593226591e-04 4.367296390053e-03 0.0 
0.0 0.0 0.0 
1.164949911823e-04 7.720923284300e-06 0.0 
7.720923284300e-06 1.359279045917e-03 0.0 
0.0 0.0 0.0 
-2.673167383019e-04 6.338266859809e-04 0.0 
6.338266859809e-04 1.111023479051e-02 0.0 
0.0 0.0 0.0 
-5.395145265643e-04 9.709532262821e-04 0.0 
9.709532262821e-04 7.259365079265e-03 0.0 
0.0 0.0 0.0 
7.332125797965e-04 5.030234615045e-04 0.0 
5.030234615045e-04 4.712145055110e-03 0.0 
0.0 0.0 0.0 
4.221558019379e-05 1.256201008351e-03 0.0 
1.256201008351e-03 9.135279413110e-03 0.0 
0.0 0.0 0.0 
-5.195273697066e-04 3.237521166084e-04 0.0 
3.237521166084e-04 1.015921428924e-02 0.0 
0.0 0.0 0.0 
4.796137487080e-04 3.724317982857e-04 0.0 
3.724317982857e-04 6.412524024307e-03 0.0 
0.0 0.0 0.0 
3.892168174979e-04 1.022497258293e-03 0.0 
1.022497258293e-03 5.282640633850e-03 0.0 
0.0 0.0 0.0 
8.475819760734e-05 1.131942420003e-04 0.0 
1.131942420003e-04 1.059966864720e-03 0.0 
0.0 0.0 0.0 
2.628681015475e-04 2.173860400061e-04 0.0 
2.173860400061e-04 7.367172006982e-03 0.0 
0.0 0.0 0.0 
-2.299373697360e-04 1.137694519140e-03 0.0 
1.137694519140e-03 7.703913357270e-03 0.0 
0.0 0.0 0.0 
2.452599485323e-04 1.051011998316e-03 0.0 
1.051011998316e-03 7.498176125798e-03 0.0 
0.0 0.0 0.0 
-1.390202281892e-04 1.199876055195e-03 0.0 
1.199876055195e-03 9.571635291373e-03 0.0 
0.0 0.0 0.0 
-1.954262596441e-04 7.518893526030e-05 0.0 
7.518893526030e-05 7.476157481301e-04 0.0 
0.0 0.0 0.0 
5.219222666444e-04 4.538124516627e-04 0.0 
4.538124516627e-04 6.399681673322e-03 0.0 
0.0 0.0 0.0 
3.987096284441e-04 9.640050389308e-04 0.0 
9.640050389308e-04 3.893080867967e-03 0.0 
0.0 0.0 0.0 
-5.618118355448e-04 2.594114161371e-04 0.0 
2.594114161371e-04 9.785840559633e-03 0.0 
0.0 0.0 0.0 
5.832682612839e-04 1.350041839423e-04 0.0 
1.350041839423e-04 4.903883378897e-03 0.0 
0.0 0.0 0.0 
6.808227239365e-04 7.590790406225e-04 0.0 
7.590790406225e-04 4.343318452387e-03 0.0 
0.0 0.0 0.0 
3.568641089760e-04 2.906850760444e-04 0.0 
2.906850760444e-04 6.944427040950e-03 0.0 
0.0 0.0 0.0 
9.776459268251e-05 1.172348416427e-03 0.0 
1.172348416427e-03 7.095122671227e-03 0.0 
0.0 0.0 0.0 
6.910356201741e-04 7.181202165571e-04 0.0 
7.181202165571e-04 3.874445626807e-03 0.0 
0.0 0.0 0.0 
-2.893317444947e-04 1.094893568306e-03 0.0 
1.094893568306e-03 8.131329603529e-03 0.0 
0.0 0.0 0.0 
-2.267473578543e-05 -1.121263587387e-04 0.0 
-1.121263587387e-04 1.101264413005e-03 0.0 
0.0 0.0 0.0 
-2.293153543411e-04 1.108923665063e-03 0.0 
1.108923665063e-03 8.839455506509e-03 0.0 
0.0 0.0 0.0 
3.264196273756e-04 9.932127454907e-04 0.0 
9.932127454907e-04 7.548382317750e-03 0.0 
0.0 0.0 0.0 
-2.352921844407e-04 1.060784946427e-03 0.0 
1.060784946427e-03 1.058601292331e-02 0.0 
0.0 0.0 0.0 
-1.991200749767e-04 1.131343458907e-03 0.0 
1.131343458907e-03 9.202913064604e-03 0.0 
0.0 0.0 0.0 
5.763002059869e-04 4.204442803753e-04 0.0 
4.204442803753e-04 2.974894627430e-03 0.0 
0.0 0.0 0.0 
4.692529212464e-04 2.762042375183e-04 0.0 
2.762042375183e-04 6.282893086223e-03 0.0 
0.0 0.0 0.0 
-1.706546700361e-04 3.623744134672e-04 0.0 
3.623744134672e-04 1.137622835971e-02 0.0 
0.0 0.0 0.0 
6.371165252705e-05 1.241320176897e-03 0.0 
1.241320176897e-03 9.253037322173e-03 0.0 
0.0 0.0 0.0 
2.464871053469e-04 1.065001550084e-03 0.0 
1.065001550084e-03 7.973738433107e-03 0.0 
0.0 0.0 0.0 
4.671532764930e-04 9.357349436167e-04 0.0 
9.357349436167e-04 5.244908931644e-03 0.0 
0.0 0.0 0.0 
-2.594268395277e-04 1.097064701636e-03 0.0 
1.097064701636e-03 8.482524283365e-03 0.0 
0.0 0.0 0.0 
3.192475110578e-04 2.326796369424e-04 0.0 
2.326796369424e-04 7.020484436604e-03 0.0 
0.0 0.0 0.0 
5.118723648567e-04 -1.478845976530e-05 0.0 
-1.478845976530e-05 4.442173373698e-03 0.0 
0.0 0.0 0.0 
-1.345432908324e-04 1.163859291548e-03 0.0 
1.163859291548e-03 8.794739883348e-03 0.0 
0.0 0.0 0.0 
-4.497727375680e-04 2.905692732111e-04 0.0 
2.905692732111e-04 1.000063992123e-02 0.0 
0.0 0.0 0.0 
4.004810808929e-04 3.198562795688e-04 0.0 
3.198562795688e-04 6.758747239002e-03 0.0 
0.0 0.0 0.0 
4.468369218873e-04 4.538369955544e-04 0.0 
4.538369955544e-04 6.727016401763e-03 0.0 
0.0 0.0 0.0 
-3.701959209647e-04 6.190597809405e-07 0.0 
6.190597809405e-07 8.350512695298e-03 0.0 
0.0 0.0 0.0 
-3.640311210376e-04 5.984035378019e-06 0.0 
5.984035378019e-06 8.345638822602e-03 0.0 
0.0 0.0 0.0 
-6.168720831151e-04 6.264571615555e-04 0.0 
6.264571615555e-04 9.781247469387e-03 0.0 
0.0 0.0 0.0 
-1.677955521070e-04 1.145435382811e-03 0.0 
1.145435382811e-03 8.425896234410e-03 0.0 
0.0 0.0 0.0 
5.615457959962e-04 1.272957446722e-04 0.0 
1.272957446722e-04 5.079792563615e-03 0.0 
0.0 0.0 0.0 
-5.301280649147e-04 8.887070426765e-04 0.0 
8.887070426765e-04 9.270978961182e-03 0.0 
0.0 0.0 0.0 
2.070952083839e-04 1.151497513164e-03 0.0 
1.151497513164e-03 6.625967470616e-03 0.0 
0.0 0.0 0.0 
3.358310253265e-04 9.268527713366e-04 0.0 
9.268527713366e-04 7.808958307000e-03 0.0 
0.0 0.0 0.0 
4.572752746075e-04 1.053290824465e-03 0.0 
1.053290824465e-03 5.227392114003e-03 0.0 
0.0 0.0 0.0 
-1.026663229869e-04 5.370731041533e-04 0.0 
5.370731041533e-04 1.186984086313e-02 0.0 
0.0 0.0 0.0 
-6.221805544369e-04 2.978355879164e-04 0.0 
2.978355879164e-04 8.888972067197e-03 0.0 
0.0 0.0 0.0 
1.403661238968e-04 1.127418864497e-03 0.0 
1.127418864497e-03 6.696851443473e-03 0.0 
0.0 0.0 0.0 
6.325652807417e-04 2.181748017387e-04 0.0 
2.181748017387e-04 4.890150421581e-03 0.0 
0.0 0.0 0.0 
5.335557519508e-04 5.117243452671e-04 0.0 
5.117243452671e-04 2.919725706336e-03 0.0 
0.0 0.0 0.0 
6.046109008038e-04 8.912393665494e-05 0.0 
8.912393665494e-05 4.291843442012e-03 0.0 
0.0 0.0 0.0 
-1.992517513881e-04 1.137589009151e-03 0.0 
1.137589009151e-03 8.061944279445e-03 0.0 
0.0 0.0 0.0 
-4.107016764858e-04 1.030742828473e-03 0.0 
1.030742828473e-03 8.199939366412e-03 0.0 
0.0 0.0 0.0 
-4.970603572292e-04 3.575297322498e-04 0.0 
3.575297322498e-04 9.934503050587e-03 0.0 
0.0 0.0 0.0 
-4.246962467697e-04 9.650238265952e-04 0.0 
9.650238265952e-04 9.265320826018e-03 0.0 
0.0 0.0 0.0 
-4.706820039430e-04 9.279921794412e-04 0.0 
9.279921794412e-04 9.596129141725e-03 0.0 
0.0 0.0 0.0 
9.677437486921e-05 -5.396840558196e-05 0.0 
-5.396840558196e-05 1.057371212994e-03 0.0 
0.0 0.0 0.0 
6.359364490880e-04 1.226026031405e-04 0.0 
1.226026031405e-04 4.018464998274e-03 0.0 
0.0 0.0 0.0 
-5.258334009214e-04 1.045942740566e-03 0.0 
1.045942740566e-03 7.250574276074e-03 0.0 
0.0 0.0 0.0 
-5.523336083129e-04 7.841855724183e-04 0.0 
7.841855724183e-04 9.262846445455e-03 0.0 
0.0 0.0 0.0 
-5.947544950885e-04 7.586255743130e-04 0.0 
7.586255743130e-04 9.557709960850e-03 0.0 
0.0 0.0 0.0 
3.075201703531e-04 1.076635258526e-03 0.0 
1.076635258526e-03 8.031521425121e-03 0.0 
0.0 0.0 0.0 
2.209185201780e-04 3.393475064640e-05 0.0 
3.393475064640e-05 1.639507844466e-03 0.0 
0.0 0.0 0.0 
3.557236615908e-04 3.667812353153e-05 0.0 
3.667812353153e-05 1.870552668802e-03 0.0 
0.0 0.0 0.0 
-1.341442060280e-04 1.175198991442e-03 0.0 
1.175198991442e-03 7.251776082366e-03 0.0 
0.0 0.0 0.0 
5.804845990856e-04 3.550615215607e-05 0.0 
3.550615215607e-05 4.031911940866e-03 0.0 
0.0 0.0 0.0 
-6.793203256201e-04 1.700777702723e-04 0.0 
1.700777702723e-04 7.950152520108e-03 0.0 
0.0 0.0 0.0 
-6.671538136180e-04 1.643286335363e-04 0.0 
1.643286335363e-04 8.176762641343e-03 0.0 
0.0 0.0 0.0 
-5.664641053408e-04 3.344914293247e-04 0.0 
3.344914293247e-04 9.937443451958e-03 0.0 
0.0 0.0 0.0 
2.837058027310e-04 6.541037457841e-04 0.0 
6.541037457841e-04 2.489278895141e-03 0.0 
0.0 0.0 0.0 
6.203540218614e-04 1.629603935343e-04 0.0 
1.629603935343e-04 4.626482143126e-03 0.0 
0.0 0.0 0.0 
4.744307271189e-04 7.539888784656e-04 0.0 
7.539888784656e-04 6.864139762092e-03 0.0 
0.0 0.0 0.0 
4.634969395840e-04 2.349551727443e-04 0.0 
2.349551727443e-04 1.826765735544e-03 0.0 
0.0 0.0 0.0 
-4.076651496954e-05 1.272345875773e-03 0.0 
1.272345875773e-03 1.016657284738e-02 0.0 
0.0 0.0 0.0 
-3.436627314191e-04 3.561355827181e-04 0.0 
3.561355827181e-04 1.095308178941e-02 0.0 
0.0 0.0 0.0 
5.588974568755e-04 3.826062760973e-05 0.0 
3.826062760973e-05 4.382952731049e-03 0.0 
0.0 0.0 0.0 
4.619265853141e-04 3.286581018413e-04 0.0 
3.286581018413e-04 6.452972059557e-03 0.0 
0.0 0.0 0.0 
8.715916451618e-05 -6.569626234979e-05 0.0 
-6.569626234979e-05 7.288126156395e-04 0.0 
0.0 0.0 0.0 
5.262416509648e-04 6.585355990460e-04 0.0 
6.585355990460e-04 6.491991466043e-03 0.0 
0.0 0.0 0.0 
-1.983532821848e-04 1.131205632902e-03 0.0 
1.131205632902e-03 7.704693139376e-03 0.0 
0.0 0.0 0.0 
9.531952702591e-05 -4.829510249715e-05 0.0 
-4.829510249715e-05 7.205876119210e-04 0.0 
0.0 0.0 0.0 
-2.856419953666e-04 3.935089940706e-04 0.0 
3.935089940706e-04 1.094963913042e-02 0.0 
0.0 0.0 0.0 
2.928205395343e-04 9.074669209940e-05 0.0 
9.074669209940e-05 1.759178127158e-03 0.0 
0.0 0.0 0.0 
-5.968602668335e-04 8.005387709290e-04 0.0 
8.005387709290e-04 9.260607862793e-03 0.0 
0.0 0.0 0.0 
-4.014886754622e-04 1.046250155566e-03 0.0 
1.046250155566e-03 8.197808725064e-03 0.0 
0.0 0.0 0.0 
6.799697118751e-04 4.318118403720e-04 0.0 
4.318118403720e-04 4.617844721989e-03 0.0 
0.0 0.0 0.0 
6.787710892349e-04 4.858003719273e-04 0.0 
4.858003719273e-04 5.447867889604e-03 0.0 
0.0 0.0 0.0 
-2.689171880061e-04 4.579810037271e-04 0.0 
4.579810037271e-04 1.108691738968e-02 0.0 
0.0 0.0 0.0 
6.316792364207e-04 5.409392437788e-04 0.0 
5.409392437788e-04 5.921735124855e-03 0.0 
0.0 0.0 0.0 
-1.347801083251e-05 1.181842288421e-03 0.0 
1.181842288421e-03 7.163345113048e-03 0.0 
0.0 0.0 0.0 
-9.150477051834e-05 1.155470219390e-03 0.0 
1.155470219390e-03 7.254451411318e-03 0.0 
0.0 0.0 0.0 
-7.228994907389e-04 1.080616626697e-03 0.0 
1.080616626697e-03 1.446369626251e-03 0.0 
0.0 0.0 0.0 
2.962164388332e-04 1.644299378114e-04 0.0 
1.644299378114e-04 1.443480645461e-03 0.0 
0.0 0.0 0.0 
-1.196606459607e-04 1.168495506456e-03 0.0 
1.168495506456e-03 9.167199766093e-03 0.0 
0.0 0.0 0.0 
-6.497860348823e-04 3.540296651946e-04 0.0 
3.540296651946e-04 9.481241696632e-03 0.0 
0.0 0.0 0.0 
-2.938937697261e-05 1.231160546954e-03 0.0 
1.231160546954e-03 9.145448956529e-03 0.0 
0.0 0.0 0.0 
4.152556658197e-04 1.128418550072e-03 0.0 
1.128418550072e-03 3.868085024388e-03 0.0 
0.0 0.0 0.0 
-4.335013178168e-04 6.843973001139e-04 0.0 
6.843973001139e-04 1.038134464594e-02 0.0 
0.0 0.0 0.0 
-1.676054576495e-04 1.170849477594e-03 0.0 
1.170849477594e-03 9.573787669418e-03 0.0 
0.0 0.0 0.0 
-6.377033550075e-04 2.310043104863e-04 0.0 
2.310043104863e-04 8.312600710033e-03 0.0 
0.0 0.0 0.0 
-1.028487679426e-04 1.189061654095e-03 0.0 
1.189061654095e-03 9.163488120188e-03 0.0 
0.0 0.0 0.0 
4.311546507301e-04 2.526892931992e-04 0.0 
2.526892931992e-04 6.465181076352e-03 0.0 
0.0 0.0 0.0 
-9.321889084690e-05 1.163069974433e-03 0.0 
1.163069974433e-03 7.997044936610e-03 0.0 
0.0 0.0 0.0 
6.424496940218e-04 1.707358966395e-04 0.0 
1.707358966395e-04 4.450115720205e-03 0.0 
0.0 0.0 0.0 
6.035326322231e-04 1.427520089625e-04 0.0 
1.427520089625e-04 4.731336575675e-03 0.0 
0.0 0.0 0.0 
-3.395865993503e-04 6.077778002440e-04 0.0 
6.077778002440e-04 1.111981031248e-02 0.0 
0.0 0.0 0.0 
7.110717552981e-04 4.292892196474e-04 0.0 
4.292892196474e-04 4.984150431366e-03 0.0 
0.0 0.0 0.0 
-3.068760219531e-04 1.093967461083e-03 0.0 
1.093967461083e-03 8.131537911626e-03 0.0 
0.0 0.0 0.0 
4.029707064384e-04 1.061432893761e-03 0.0 
1.061432893761e-03 6.143158789086e-03 0.0 
0.0 0.0 0.0 
5.656963977467e-04 5.941324539106e-04 0.0 
5.941324539106e-04 6.405737308996e-03 0.0 
0.0 0.0 0.0 
2.565648593944e-04 1.087720332445e-03 0.0 
1.087720332445e-03 6.212443836878e-03 0.0 
0.0 0.0 0.0 
6.882723781521e-04 5.220402134761e-04 0.0 
5.220402134761e-04 3.029980649276e-03 0.0 
0.0 0.0 0.0 
6.713743918174e-04 7.037871240264e-04 0.0 
7.037871240264e-04 5.429720443979e-03 0.0 
0.0 0.0 0.0 
6.852309014178e-04 6.691375774146e-04 0.0 
6.691375774146e-04 3.407437493705e-03 0.0 
0.0 0.0 0.0 
-4.946380383264e-04 8.804072867327e-04 0.0 
8.804072867327e-04 9.271982028359e-03 0.0 
0.0 0.0 0.0 
6.197361765903e-04 4.949540649088e-04 0.0 
4.949540649088e-04 3.434889345154e-03 0.0 
0.0 0.0 0.0 
-5.061715269798e-04 9.379290897237e-04 0.0 
9.379290897237e-04 8.936023107018e-03 0.0 
0.0 0.0 0.0 
2.668321963557e-04 1.039377349315e-03 0.0 
1.039377349315e-03 8.008214272394e-03 0.0 
0.0 0.0 0.0 
3.697942036394e-04 1.034642519892e-03 0.0 
1.034642519892e-03 7.576601251042e-03 0.0 
0.0 0.0 0.0 
3.422476191999e-04 1.121426398376e-03 0.0 
1.121426398376e-03 5.713022315663e-03 0.0 
0.0 0.0 0.0 
-5.352144696990e-04 3.611606594429e-04 0.0 
3.611606594429e-04 9.707933240637e-03 0.0 
0.0 0.0 0.0 
4.164488931586e-04 3.012427677936e-04 0.0 
3.012427677936e-04 6.641015274601e-03 0.0 
0.0 0.0 0.0 
3.921971808507e-04 2.264722549187e-04 0.0 
2.264722549187e-04 6.653181414582e-03 0.0 
0.0 0.0 0.0 
1.211783273301e-04 5.776475558393e-04 0.0 
5.776475558393e-04 2.082470388885e-03 0.0 
0.0 0.0 0.0 
-4.031486669224e-04 1.004392850408e-03 0.0 
1.004392850408e-03 8.910809065853e-03 0.0 
0.0 0.0 0.0 
2.807623634224e-04 3.070522030213e-04 0.0 
3.070522030213e-04 7.346555335727e-03 0.0 
0.0 0.0 0.0 
-6.476922312004e-04 6.654133416584e-04 0.0 
6.654133416584e-04 6.826492554457e-03 0.0 
0.0 0.0 0.0 
5.559495789589e-04 7.834673532040e-05 0.0 
7.834673532040e-05 4.815230690042e-03 0.0 
0.0 0.0 0.0 
-6.389207685270e-04 8.388584485676e-04 0.0 
8.388584485676e-04 2.068273463811e-03 0.0 
0.0 0.0 0.0 
3.705225690935e-04 2.708871547800e-04 0.0 
2.708871547800e-04 6.832799445795e-03 0.0 
0.0 0.0 0.0 
6.577027060026e-04 6.111252408571e-04 0.0 
6.111252408571e-04 2.944978908646e-03 0.0 
0.0 0.0 0.0 
5.212441194693e-04 3.987762471018e-05 0.0 
3.987762471018e-05 4.575414192743e-03 0.0 
0.0 0.0 0.0 
2.562767110792e-04 1.132118139927e-03 0.0 
1.132118139927e-03 7.488452091311e-03 0.0 
0.0 0.0 0.0 
-6.109326645278e-04 3.427699045291e-04 0.0 
3.427699045291e-04 9.710640612689e-03 0.0 
0.0 0.0 0.0 
-5.776529065384e-04 3.675107159650e-04 0.0 
3.675107159650e-04 9.479180354264e-03 0.0 
0.0 0.0 0.0 
-1.143846932875e-04 1.165203602259e-03 0.0 
1.165203602259e-03 7.622804767931e-03 0.0 
0.0 0.0 0.0 
-6.853940941808e-04 2.131458226362e-04 0.0 
2.131458226362e-04 7.498975806969e-03 0.0 
0.0 0.0 0.0 
-6.802474169749e-04 1.968462581000e-04 0.0 
1.968462581000e-04 7.729778405722e-03 0.0 
0.0 0.0 0.0 
3.531485713868e-04 1.977345489845e-04 0.0 
1.977345489845e-04 6.844924132503e-03 0.0 
0.0 0.0 0.0 
6.014925634810e-04 4.734060234264e-04 0.0 
4.734060234264e-04 5.788780074927e-03 0.0 
0.0 0.0 0.0 
6.624721580557e-04 4.914253153341e-04 0.0 
4.914253153341e-04 5.078715364891e-03 0.0 
0.0 0.0 0.0 
5.708847568073e-04 7.534569214486e-04 0.0 
7.534569214486e-04 6.479990275937e-03 0.0 
0.0 0.0 0.0 
7.042596640805e-04 6.598674033894e-04 0.0 
6.598674033894e-04 4.963643627693e-03 0.0 
0.0 0.0 0.0 
5.821698980295e-04 5.852052360894e-04 0.0 
5.852052360894e-04 3.382906025165e-03 0.0 
0.0 0.0 0.0 
-6.021680144034e-04 1.612349047295e-04 0.0 
1.612349047295e-04 7.509750867968e-03 0.0 
0.0 0.0 0.0 
-6.690876950015e-04 2.882539610775e-04 0.0 
2.882539610775e-04 9.119055087158e-03 0.0 
0.0 0.0 0.0 
-3.721610598365e-04 1.964638774681e-06 0.0 
1.964638774681e-06 8.352871966432e-03 0.0 
0.0 0.0 0.0 
3.437232243357e-04 9.616444384473e-04 0.0 
9.616444384473e-04 7.587071905919e-03 0.0 
0.0 0.0 0.0 
3.676046059911e-04 1.023816792905e-03 0.0 
1.023816792905e-03 5.727034937647e-03 0.0 
0.0 0.0 0.0 
1.874789821987e-04 1.229703112342e-03 0.0 
1.229703112342e-03 8.849899670931e-03 0.0 
0.0 0.0 0.0 
3.552886083054e-04 1.171721824576e-04 0.0 
1.171721824576e-04 6.692909907081e-03 0.0 
0.0 0.0 0.0 
6.239403005852e-04 6.478931890869e-04 0.0 
6.478931890869e-04 5.367622650046e-03 0.0 
0.0 0.0 0.0 
1.991401552659e-04 2.830673616037e-04 0.0 
2.830673616037e-04 7.659698812212e-03 0.0 
0.0 0.0 0.0 
6.452457155397e-04 4.186914745456e-04 0.0 
4.186914745456e-04 3.513555442826e-03 0.0 
0.0 0.0 0.0 
1.614193804924e-04 1.233017613148e-03 0.0 
1.233017613148e-03 8.812486576272e-03 0.0 
0.0 0.0 0.0 
-8.207051472464e-05 1.140687745199e-03 0.0 
1.140687745199e-03 7.626310644961e-03 0.0 
0.0 0.0 0.0 
5.909919434055e-06 1.171776378673e-03 0.0 
1.171776378673e-03 7.940975177425e-03 0.0 
0.0 0.0 0.0 
3.713694597547e-04 7.798337678759e-04 0.0 
7.798337678759e-04 7.484530859175e-03 0.0 
0.0 0.0 0.0 
5.595113404369e-04 -1.861620603607e-05 0.0 
-1.861620603607e-05 3.281335977884e-03 0.0 
0.0 0.0 0.0 
-3.645545102440e-04 1.049632741601e-03 0.0 
1.049632741601e-03 8.534255715637e-03 0.0 
0.0 0.0 0.0 
6.607585855285e-04 5.409996520141e-04 0.0 
5.409996520141e-04 4.982002460946e-03 0.0 
0.0 0.0 0.0 
-4.630945185877e-04 9.912395037930e-04 0.0 
9.912395037930e-04 8.577930093359e-03 0.0 
0.0 0.0 0.0 
3.023706891556e-04 1.097685843188e-03 0.0 
1.097685843188e-03 4.437755256635e-03 0.0 
0.0 0.0 0.0 
9.779682414512e-05 1.178586631382e-03 0.0 
1.178586631382e-03 7.914128906177e-03 0.0 
0.0 0.0 0.0 
7.343617925866e-04 5.536972851222e-04 0.0 
5.536972851222e-04 4.598015669637e-03 0.0 
0.0 0.0 0.0 
6.049346294572e-04 2.061907089437e-04 0.0 
2.061907089437e-04 5.066402573363e-03 0.0 
0.0 0.0 0.0 
-4.564815129245e-04 9.734115903689e-04 0.0 
9.734115903689e-04 8.580282421068e-03 0.0 
0.0 0.0 0.0 
-4.103882881231e-04 5.032691386195e-04 0.0 
5.032691386195e-04 1.260239433441e-03 0.0 
0.0 0.0 0.0 
3.746263296844e-04 1.070076442873e-03 0.0 
1.070076442873e-03 6.599647207405e-03 0.0 
0.0 0.0 0.0 
-2.955004075682e-04 8.196767028046e-04 0.0 
8.196767028046e-04 2.376970413818e-03 0.0 
0.0 0.0 0.0 
1.122136752987e-04 -6.300948356029e-05 0.0 
-6.300948356029e-05 1.148415225624e-03 0.0 
0.0 0.0 0.0 
5.966541938560e-04 1.545863317624e-04 0.0 
1.545863317624e-04 4.801566560263e-03 0.0 
0.0 0.0 0.0 
-3.201305172925e-04 1.064429341001e-03 0.0 
1.064429341001e-03 9.597573032237e-03 0.0 
0.0 0.0 0.0 
-5.776168468609e-04 4.459984627422e-04 0.0 
4.459984627422e-04 9.595868277904e-03 0.0 
0.0 0.0 0.0 
-6.749280787038e-04 2.921931896589e-04 0.0 
2.921931896589e-04 7.035405014318e-03 0.0 
0.0 0.0 0.0 
0.0 5.593998595680e-04 0.0 
5.593998595680e-04 1.185749754070e-02 0.0 
0.0 0.0 0.0 
-7.129289730937e-04 9.358036108492e-04 0.0 
9.358036108492e-04 8.445768217420e-04 0.0 
0.0 0.0 0.0 
-6.739713454865e-04 2.590327775112e-04 0.0 
2.590327775112e-04 7.276688679797e-03 0.0 
0.0 0.0 0.0 
7.066037732952e-04 5.548065112820e-04 0.0 
5.548065112820e-04 5.169690840124e-03 0.0 
0.0 0.0 0.0 
5.458511934857e-04 3.777374898354e-05 0.0 
3.777374898354e-05 4.561991194899e-03 0.0 
0.0 0.0 0.0 
-7.574986824176e-04 4.465223062963e-04 0.0 
4.465223062963e-04 7.933549022612e-03 0.0 
0.0 0.0 0.0 
7.226881622682e-04 3.279407805115e-04 0.0 
3.279407805115e-04 3.377488094909e-03 0.0 
0.0 0.0 0.0 
6.414704293169e-04 4.139726772264e-04 0.0 
4.139726772264e-04 5.316296336053e-03 0.0 
0.0 0.0 0.0 
-1.785525964181e-04 1.123812988697e-03 0.0 
1.123812988697e-03 8.063891877306e-03 0.0 
0.0 0.0 0.0 
3.432806700627e-04 1.084518463148e-03 0.0 
1.084518463148e-03 7.056949890122e-03 0.0 
0.0 0.0 0.0 
-3.287688883250e-04 9.656023138323e-04 0.0 
9.656023138323e-04 1.023878289132e-02 0.0 
0.0 0.0 0.0 
3.436028506500e-04 7.031333147495e-04 0.0 
7.031333147495e-04 1.984857742948e-03 0.0 
0.0 0.0 0.0 
6.022121390434e-04 1.160967322636e-04 0.0 
1.160967322636e-04 4.370658319924e-03 0.0 
0.0 0.0 0.0 
5.638298639903e-04 1.081386401010e-04 0.0 
1.081386401010e-04 4.732040033876e-03 0.0 
0.0 0.0 0.0 
3.914287476707e-04 -1.437558846505e-04 0.0 
-1.437558846505e-04 2.397464895518e-03 0.0 
0.0 0.0 0.0 
-6.278013280323e-04 2.334751099564e-04 0.0 
2.334751099564e-04 8.538906736779e-03 0.0 
0.0 0.0 0.0 
-6.502741838326e-04 4.405931065031e-04 0.0 
4.405931065031e-04 9.596983133348e-03 0.0 
0.0 0.0 0.0 
4.320629950816e-04 -6.700077197967e-06 0.0 
-6.700077197967e-06 5.994071989312e-03 0.0 
0.0 0.0 0.0 
3.700852305522e-05 -5.272181450986e-05 0.0 
-5.272181450986e-05 7.332614432127e-04 0.0 
0.0 0.0 0.0 
-3.916102638953e-04 -1.139438777707e-04 0.0 
-1.139438777707e-04 6.362292780770e-04 0.0 
0.0 0.0 0.0 
2.126999638907e-04 -1.883250155538e-04 0.0 
-1.883250155538e-04 1.648466542882e-03 0.0 
0.0 0.0 0.0 
5.329883876235e-04 3.577013379592e-05 0.0 
3.577013379592e-05 4.744071017349e-03 0.0 
0.0 0.0 0.0 
6.634054244941e-04 4.862581049852e-04 0.0 
4.862581049852e-04 3.973049516580e-03 0.0 
0.0 0.0 0.0 
6.400603728416e-04 2.321128009865e-04 0.0 
2.321128009865e-04 3.276199095195e-03 0.0 
0.0 0.0 0.0 
6.063503334819e-04 3.431593762541e-04 0.0 
3.431593762541e-04 3.057184505451e-03 0.0 
0.0 0.0 0.0 
5.720589587015e-04 1.463881561489e-04 0.0 
1.463881561489e-04 4.981877165534e-03 0.0 
0.0 0.0 0.0 
-5.463177378254e-04 6.267348226736e-04 0.0 
6.267348226736e-04 9.780523658922e-03 0.0 
0.0 0.0 0.0 
5.437208208661e-04 1.015895866062e-04 0.0 
1.015895866062e-04 4.917033762323e-03 0.0 
0.0 0.0 0.0 
7.192752115539e-04 6.353619379851e-04 0.0 
6.353619379851e-04 3.948312622879e-03 0.0 
0.0 0.0 0.0 
-4.183806418936e-04 1.008073193889e-03 0.0 
1.008073193889e-03 8.910394611258e-03 0.0 
0.0 0.0 0.0 
-4.817253547864e-04 1.313065991731e-04 0.0 
1.313065991731e-04 9.033060451232e-03 0.0 
0.0 0.0 0.0 
2.276639751211e-04 1.152158899142e-03 0.0 
1.152158899142e-03 7.944296233096e-03 0.0 
0.0 0.0 0.0 
5.197259900893e-04 3.064653375469e-05 0.0 
3.064653375469e-05 4.929064149401e-03 0.0 
0.0 0.0 0.0 
5.376063623119e-04 7.271125802045e-05 0.0 
7.271125802045e-05 4.995052698496e-03 0.0 
0.0 0.0 0.0 
-6.725520238576e-04 4.096181447699e-04 0.0 
4.096181447699e-04 6.572667771662e-03 0.0 
0.0 0.0 0.0 
6.776369640034e-04 4.235716469762e-04 0.0 
4.235716469762e-04 4.061788650145e-03 0.0 
0.0 0.0 0.0 
5.233875729753e-04 9.110523816718e-05 0.0 
9.110523816718e-05 5.102070707462e-03 0.0 
0.0 0.0 0.0 
-3.039356757513e-04 3.683751331196e-05 0.0 
3.683751331196e-05 9.845533936214e-03 0.0 
0.0 0.0 0.0 
-3.311537581062e-04 3.520995750895e-05 0.0 
3.520995750895e-05 9.469053492742e-03 0.0 
0.0 0.0 0.0 
-6.642008727025e-04 3.561838143909e-04 0.0 
3.561838143909e-04 6.812371607532e-03 0.0 
0.0 0.0 0.0 
5.469541506005e-04 1.370499098879e-04 0.0 
1.370499098879e-04 5.166484351461e-03 0.0 
0.0 0.0 0.0 
6.051721503493e-04 8.857785579585e-05 0.0 
8.857785579585e-05 3.103739525764e-03 0.0 
0.0 0.0 0.0 
2.282059435155e-05 1.119550924585e-03 0.0 
1.119550924585e-03 2.757860356256e-03 0.0 
0.0 0.0 0.0 
1.286798210027e-04 1.175186114688e-03 0.0 
1.175186114688e-03 8.825970316878e-03 0.0 
0.0 0.0 0.0 
2.139417646068e-04 -1.062825297926e-04 0.0 
-1.062825297926e-04 1.489866143181e-03 0.0 
0.0 0.0 0.0 
6.841033180724e-04 1.899008369137e-04 0.0 
1.899008369137e-04 3.229465201281e-03 0.0 
0.0 0.0 0.0 
3.133264502149e-04 1.028126802866e-03 0.0 
1.028126802866e-03 6.609956743504e-03 0.0 
0.0 0.0 0.0 
-5.781565214988e-04 1.933653635806e-04 0.0 
1.933653635806e-04 7.063282975780e-03 0.0 
0.0 0.0 0.0 
5.070907370346e-04 2.117784707737e-05 0.0 
2.117784707737e-05 5.119712459477e-03 0.0 
0.0 0.0 0.0 
3.151971191810e-04 -5.017149510801e-05 0.0 
-5.017149510801e-05 2.233615209700e-03 0.0 
0.0 0.0 0.0 
-6.670091442521e-04 2.114324236564e-04 0.0 
2.114324236564e-04 8.722791896721e-03 0.0 
0.0 0.0 0.0 
5.185349346881e-04 6.534444697955e-05 0.0 
6.534444697955e-05 5.179226855935e-03 0.0 
0.0 0.0 0.0 
6.764504935539e-04 3.899951661832e-04 0.0 
3.899951661832e-04 4.731535575950e-03 0.0 
0.0 0.0 0.0 
5.736775567620e-04 8.258578502020e-05 0.0 
8.258578502020e-05 4.639753243643e-03 0.0 
0.0 0.0 0.0 
-2.899615125089e-04 2.928658889798e-04 0.0 
2.928658889798e-04 1.104707415289e-03 0.0 
0.0 0.0 0.0 
-2.015432927411e-04 -5.583973065278e-06 0.0 
-5.583973065278e-06 1.100245664395e-02 0.0 
0.0 0.0 0.0 
6.735684534320e-04 2.616111173895e-04 0.0 
2.616111173895e-04 3.835091160596e-03 0.0 
0.0 0.0 0.0 
3.730825666661e-04 9.906140730475e-04 0.0 
9.906140730475e-04 7.751525542742e-03 0.0 
0.0 0.0 0.0 
1.888012151841e-05 1.134938869587e-03 0.0 
1.134938869587e-03 7.947686743474e-03 0.0 
0.0 0.0 0.0 
5.213442282004e-04 1.257254340193e-04 0.0 
1.257254340193e-04 5.353701903545e-03 0.0 
0.0 0.0 0.0 
4.998490311685e-04 5.623668244960e-05 0.0 
5.623668244960e-05 5.365813021434e-03 0.0 
0.0 0.0 0.0 
7.318239985055e-04 5.067377806370e-04 0.0 
5.067377806370e-04 3.584193005564e-03 0.0 
0.0 0.0 0.0 
-6.709766483093e-06 -1.069619993576e-04 0.0 
-1.069619993576e-04 1.024313824821e-03 0.0 
0.0 0.0 0.0 
-1.334304985625e-04 5.274432167616e-04 0.0 
5.274432167616e-04 1.056744967702e-03 0.0 
0.0 0.0 0.0 
4.960927292941e-04 1.097729710107e-04 0.0 
1.097729710107e-04 5.543443746612e-03 0.0 
0.0 0.0 0.0 
4.115365617596e-04 8.681018423081e-04 0.0 
8.681018423081e-04 7.487691070674e-03 0.0 
0.0 0.0 0.0 
5.575283808501e-04 -8.673962607693e-06 0.0 
-8.673962607693e-06 2.982280961444e-03 0.0 
0.0 0.0 0.0 
-3.150527864324e-04 1.071920311216e-03 0.0 
1.071920311216e-03 8.877697138481e-03 0.0 
0.0 0.0 0.0 
-6.163696033268e-04 7.721097452470e-04 0.0 
7.721097452470e-04 6.499776208118e-03 0.0 
0.0 0.0 0.0 
-4.535136534874e-04 9.671835506863e-04 0.0 
9.671835506863e-04 9.265159683605e-03 0.0 
0.0 0.0 0.0 
2.385887686360e-04 7.424472930722e-04 0.0 
7.424472930722e-04 8.166068206718e-03 0.0 
0.0 0.0 0.0 
-9.627378190211e-04 -2.436769241745e-05 0.0 
-2.436769241745e-05 5.293094702572e-04 0.0 
0.0 0.0 0.0 
0.0 4.781535548218e-05 0.0 
4.781535548218e-05 1.201604227084e-02 0.0 
0.0 0.0 0.0 
0.0 9.214451004622e-05 0.0 
9.214451004622e-05 8.283500362388e-03 0.0 
0.0 0.0 0.0 
-3.537329212406e-04 -3.056836297201e-05 0.0 
-3.056836297201e-05 8.800954320693e-03 0.0 
0.0 0.0 0.0 
6.447485603800e-04 1.357604978784e-04 0.0 
1.357604978784e-04 3.669712023996e-03 0.0 
0.0 0.0 0.0 
-7.316053657835e-05 1.135536094447e-03 0.0 
1.135536094447e-03 8.001457756872e-03 0.0 
0.0 0.0 0.0 
6.392758997180e-04 5.596969249794e-04 0.0 
5.596969249794e-04 3.900063812758e-03 0.0 
0.0 0.0 0.0 
7.077357294571e-05 -1.456793973460e-04 0.0 
-1.456793973460e-04 9.971178779169e-04 0.0 
0.0 0.0 0.0 
-6.285476074063e-04 7.090354335600e-04 0.0 
7.090354335600e-04 1.444302681543e-03 0.0 
0.0 0.0 0.0 
-1.819521093039e-04 1.390777086842e-04 0.0 
1.390777086842e-04 1.132209175309e-02 0.0 
0.0 0.0 0.0 
-6.405151019568e-04 5.322362308162e-04 0.0 
5.322362308162e-04 9.701079950609e-03 0.0 
0.0 0.0 0.0 
-6.674464117035e-04 1.589387816798e-04 0.0 
1.589387816798e-04 8.418045198411e-03 0.0 
0.0 0.0 0.0 
-1.835232058589e-05 1.446895318909e-03 0.0 
1.446895318909e-03 1.033551487641e-02 0.0 
0.0 0.0 0.0 
2.504638865477e-04 -5.055422474784e-05 0.0 
-5.055422474784e-05 1.851414705072e-03 0.0 
0.0 0.0 0.0 
2.535659711089e-06 1.446928690533e-03 0.0 
1.446928690533e-03 1.015881137344e-02 0.0 
0.0 0.0 0.0 
-5.679923837966e-04 5.367180223277e-04 0.0 
5.367180223277e-04 9.699786849703e-03 0.0 
0.0 0.0 0.0 
6.032577555251e-04 4.440762229568e-05 0.0 
4.440762229568e-05 3.543993511091e-03 0.0 
0.0 0.0 0.0 
-4.506289284723e-06 1.171979019679e-03 0.0 
1.171979019679e-03 7.551022685647e-03 0.0 
0.0 0.0 0.0 
6.796152974806e-04 1.635124907285e-04 0.0 
1.635124907285e-04 3.373457737333e-03 0.0 
0.0 0.0 0.0 
1.091646327400e-05 1.212466843444e-03 0.0 
1.212466843444e-03 3.370374531531e-03 0.0 
0.0 0.0 0.0 
6.311465266839e-04 9.068130484466e-05 0.0 
9.068130484466e-05 3.115267249270e-03 0.0 
0.0 0.0 0.0 
-5.126394670696e-04 7.204994388802e-04 0.0 
7.204994388802e-04 9.841089870141e-03 0.0 
0.0 0.0 0.0 
3.113346405752e-04 8.141475529992e-05 0.0 
8.141475529992e-05 6.962456064274e-03 0.0 
0.0 0.0 0.0 
7.220213749968e-04 2.833340772241e-04 0.0 
2.833340772241e-04 3.506480574419e-03 0.0 
0.0 0.0 0.0 
-3.458377899619e-04 1.039804819884e-03 0.0 
1.039804819884e-03 9.248250020137e-03 0.0 
0.0 0.0 0.0 
-6.164532648560e-04 -4.405462241429e-05 0.0 
-4.405462241429e-05 3.445457773568e-04 0.0 
0.0 0.0 0.0 
7.403844176117e-04 4.413098287410e-04 0.0 
4.413098287410e-04 3.690857554487e-03 0.0 
0.0 0.0 0.0 
-5.401674896849e-04 5.796738463653e-04 0.0 
5.796738463653e-04 1.029741579831e-02 0.0 
0.0 0.0 0.0 
5.734730181608e-04 2.604972628663e-05 0.0 
2.604972628663e-05 3.017369352683e-03 0.0 
0.0 0.0 0.0 
4.997564086868e-04 -7.191242171152e-05 0.0 
-7.191242171152e-05 2.731187370049e-03 0.0 
0.0 0.0 0.0 
2.414465154699e-05 1.134611423810e-03 0.0 
1.134611423810e-03 7.556955152818e-03 0.0 
0.0 0.0 0.0 
2.930462822182e-04 -2.453754813436e-05 0.0 
-2.453754813436e-05 1.479099336583e-03 0.0 
0.0 0.0 0.0 
-7.002338261111e-04 5.735557327671e-04 0.0 
5.735557327671e-04 6.156245453001e-03 0.0 
0.0 0.0 0.0 
-6.263479456163e-04 5.043248190771e-04 0.0 
5.043248190771e-04 6.339362289840e-03 0.0 
0.0 0.0 0.0 
5.097608497733e-04 -1.954503908468e-05 0.0 
-1.954503908468e-05 2.625371924855e-03 0.0 
0.0 0.0 0.0 
6.552595730216e-04 4.504174056344e-04 0.0 
4.504174056344e-04 5.189720569382e-03 0.0 
0.0 0.0 0.0 
3.204347070722e-04 1.115638909086e-03 0.0 
1.115638909086e-03 6.156434474143e-03 0.0 
0.0 0.0 0.0 
-3.701879303352e-04 1.031806417229e-03 0.0 
1.031806417229e-03 9.249242157312e-03 0.0 
0.0 0.0 0.0 
-2.253379958290e-04 9.232666903240e-04 0.0 
9.232666903240e-04 1.082794433143e-02 0.0 
0.0 0.0 0.0 
-5.263150644382e-04 2.443044194234e-04 0.0 
2.443044194234e-04 6.605595501391e-03 0.0 
0.0 0.0 0.0 
-2.706846467638e-04 -1.893375067882e-05 0.0 
-1.893375067882e-05 1.024315247824e-02 0.0 
0.0 0.0 0.0 
-1.366670817063e-04 1.161805660545e-03 0.0 
1.161805660545e-03 1.026814335453e-02 0.0 
0.0 0.0 0.0 
7.144044073515e-04 5.828823986605e-04 0.0 
5.828823986605e-04 3.487347627867e-03 0.0 
0.0 0.0 0.0 
-2.573691269844e-04 1.097536928502e-03 0.0 
1.097536928502e-03 2.387038754151e-03 0.0 
0.0 0.0 0.0 
-7.148743217682e-04 8.259022856644e-04 0.0 
8.259022856644e-04 6.798522591773e-03 0.0 
0.0 0.0 0.0 
6.670574514214e-04 3.539284175302e-04 0.0 
3.539284175302e-04 4.856779879688e-03 0.0 
0.0 0.0 0.0 
-4.280161787666e-04 9.324630552293e-04 0.0 
9.324630552293e-04 9.595392102077e-03 0.0 
0.0 0.0 0.0 
7.242720666019e-04 4.620447069441e-04 0.0 
4.620447069441e-04 4.840046066950e-03 0.0 
0.0 0.0 0.0 
2.590689913240e-05 4.650601017605e-04 0.0 
4.650601017605e-04 1.727092992287e-03 0.0 
0.0 0.0 0.0 
6.191141574883e-04 5.062168556625e-04 0.0 
5.062168556625e-04 5.653543836079e-03 0.0 
0.0 0.0 0.0 
-8.216400041161e-05 1.289428872699e-03 0.0 
1.289428872699e-03 4.046129252734e-03 0.0 
0.0 0.0 0.0 
3.422943041163e-04 1.025084081920e-03 0.0 
1.025084081920e-03 6.169253897655e-03 0.0 
0.0 0.0 0.0 
6.970647765359e-04 5.187430384630e-04 0.0 
5.187430384630e-04 5.299815929889e-03 0.0 
0.0 0.0 0.0 
9.523904911379e-05 1.168945304361e-03 0.0 
1.168945304361e-03 7.502880615098e-03 0.0 
0.0 0.0 0.0 
-3.247329416621e-04 2.077975408642e-05 0.0 
2.077975408642e-05 9.750102409857e-03 0.0 
0.0 0.0 0.0 
4.486816102531e-04 -1.128539665435e-04 0.0 
-1.128539665435e-04 2.638405793153e-03 0.0 
0.0 0.0 0.0 
1.760616729074e-05 9.697454061514e-04 0.0 
9.697454061514e-04 2.184249933642e-03 0.0 
0.0 0.0 0.0 
6.555633229879e-04 5.740477113369e-04 0.0 
5.740477113369e-04 5.773409195061e-03 0.0 
0.0 0.0 0.0 
-2.125354009842e-04 1.257159233346e-03 0.0 
1.257159233346e-03 4.721697267140e-03 0.0 
0.0 0.0 0.0 
-3.007914823826e-04 1.283162087547e-04 0.0 
1.283162087547e-04 6.106781319548e-04 0.0 
0.0 0.0 0.0 
-1.231301610096e-04 4.995717587510e-05 0.0 
4.995717587510e-05 1.136850395658e-02 0.0 
0.0 0.0 0.0 
-1.806465826349e-04 4.828746231221e-05 0.0 
4.828746231221e-05 1.100458056039e-02 0.0 
0.0 0.0 0.0 
-1.510651580358e-04 -1.053140725643e-04 0.0 
-1.053140725643e-04 4.547135492996e-04 0.0 
0.0 0.0 0.0 
5.692072262864e-04 5.627400085331e-04 0.0 
5.627400085331e-04 6.129769564426e-03 0.0 
0.0 0.0 0.0 
3.064205072365e-04 -1.691508135504e-04 0.0 
-1.691508135504e-04 2.020686001252e-03 0.0 
0.0 0.0 0.0 
3.765076852016e-04 -6.990400944414e-05 0.0 
-6.990400944414e-05 2.161176331558e-03 0.0 
0.0 0.0 0.0 
-2.846934144624e-04 1.081621642832e-03 0.0 
1.081621642832e-03 9.596437881572e-03 0.0 
0.0 0.0 0.0 
1.144074106125e-04 1.114389054329e-03 0.0 
1.114389054329e-03 7.510198143574e-03 0.0 
0.0 0.0 0.0 
-2.637787822835e-04 1.103408169304e-03 0.0 
1.103408169304e-03 9.228423040483e-03 0.0 
0.0 0.0 0.0 
6.710014398865e-04 3.040299940231e-04 0.0 
3.040299940231e-04 3.716699524892e-03 0.0 
0.0 0.0 0.0 
-3.928607743661e-04 8.653120876971e-06 0.0 
8.653120876971e-06 8.360005798505e-03 0.0 
0.0 0.0 0.0 
1.178784235218e-04 6.036571822870e-04 0.0 
6.036571822870e-04 8.072064210733e-03 0.0 
0.0 0.0 0.0 
2.842466205171e-04 -9.066508313778e-05 0.0 
-9.066508313778e-05 1.781764672051e-03 0.0 
0.0 0.0 0.0 
3.428069798079e-04 9.309734024751e-04 0.0 
9.309734024751e-04 7.635681182253e-03 0.0 
0.0 0.0 0.0 
2.359936736542e-04 1.080678595091e-03 0.0 
1.080678595091e-03 6.637371792886e-03 0.0 
0.0 0.0 0.0 
2.016012941852e-04 -1.299044588069e-05 0.0 
-1.299044588069e-05 1.386278483337e-03 0.0 
0.0 0.0 0.0 
-4.895144826527e-04 8.419764614494e-04 0.0 
8.419764614494e-04 9.581762075803e-03 0.0 
0.0 0.0 0.0 
7.370089427756e-04 5.624463550480e-04 0.0 
5.624463550480e-04 4.037387801120e-03 0.0 
0.0 0.0 0.0 
-3.363407704504e-05 -1.392131615018e-04 0.0 
-1.392131615018e-04 7.807796472117e-04 0.0 
0.0 0.0 0.0 
7.183709920615e-04 3.814537030460e-04 0.0 
3.814537030460e-04 3.254051227865e-03 0.0 
0.0 0.0 0.0 
4.599578419835e-04 3.609384823439e-05 0.0 
3.609384823439e-05 5.792389145932e-03 0.0 
0.0 0.0 0.0 
-5.792859594081e-04 7.221208379976e-04 0.0 
7.221208379976e-04 9.841622193722e-03 0.0 
0.0 0.0 0.0 
1.251983511534e-04 -2.118362714868e-04 0.0 
-2.118362714868e-04 1.365516047043e-03 0.0 
0.0 0.0 0.0 
5.193530860124e-04 -7.674413608319e-06 0.0 
-7.674413608319e-06 4.585690861874e-03 0.0 
0.0 0.0 0.0 
-3.603137727906e-04 1.012958589379e-03 0.0 
1.012958589379e-03 9.601093790990e-03 0.0 
0.0 0.0 0.0 
1.336285312581e-04 1.138277051024e-03 0.0 
1.138277051024e-03 8.374060698992e-03 0.0 
0.0 0.0 0.0 
5.737506774508e-04 2.712187171296e-05 0.0 
2.712187171296e-05 2.862874305794e-03 0.0 
0.0 0.0 0.0 
3.293250616048e-04 1.495871256647e-05 0.0 
1.495871256647e-05 2.235054830060e-03 0.0 
0.0 0.0 0.0 
3.000255591807e-04 1.114296536705e-03 0.0 
1.114296536705e-03 6.598119851939e-03 0.0 
0.0 0.0 0.0 
-3.133201773929e-04 -3.176924184339e-05 0.0 
-3.176924184339e-05 9.626573615107e-03 0.0 
0.0 0.0 0.0 
-5.888439435575e-05 -1.490082571099e-04 0.0 
-1.490082571099e-04 7.778469246875e-04 0.0 
0.0 0.0 0.0 
-1.242842649058e-04 1.295941624403e-03 0.0 
1.295941624403e-03 1.045047591237e-02 0.0 
0.0 0.0 0.0 
-1.312185706823e-04 8.388114372348e-04 0.0 
8.388114372348e-04 1.127191094250e-02 0.0 
0.0 0.0 0.0 
-3.410482756029e-04 -2.315433336180e-05 0.0 
-2.315433336180e-05 9.051547481076e-03 0.0 
0.0 0.0 0.0 
-1.987545569018e-04 3.789768572705e-04 0.0 
3.789768572705e-04 1.153597063895e-02 0.0 
0.0 0.0 0.0 
-1.148516464820e-04 9.903315155680e-04 0.0 
9.903315155680e-04 1.109593653964e-02 0.0 
0.0 0.0 0.0 
7.430470115435e-04 3.896211754756e-04 0.0 
3.896211754756e-04 3.811384414647e-03 0.0 
0.0 0.0 0.0 
6.471889582775e-04 1.590931982337e-04 0.0 
1.590931982337e-04 3.529822926768e-03 0.0 
0.0 0.0 0.0 
1.780621133403e-04 1.161343773166e-03 0.0 
1.161343773166e-03 8.838361519108e-03 0.0 
0.0 0.0 0.0 
-5.844513113935e-04 3.047685304626e-05 0.0 
3.047685304626e-05 3.658719212656e-04 0.0 
0.0 0.0 0.0 
2.861088080326e-04 3.373130846476e-05 0.0 
3.373130846476e-05 2.026433794991e-03 0.0 
0.0 0.0 0.0 
5.048878259224e-04 4.327632089665e-05 0.0 
4.327632089665e-05 4.689610990789e-03 0.0 
0.0 0.0 0.0 
5.055873466906e-04 -7.021074081561e-05 0.0 
-7.021074081561e-05 2.880904386092e-03 0.0 
0.0 0.0 0.0 
6.851823461922e-04 2.215314442029e-04 0.0 
2.215314442029e-04 3.086131140054e-03 0.0 
0.0 0.0 0.0 
-7.429746551567e-04 8.425758890079e-04 0.0 
8.425758890079e-04 5.530650836061e-03 0.0 
0.0 0.0 0.0 
-6.697805307688e-04 8.398000875937e-04 0.0 
8.398000875937e-04 5.779134074902e-03 0.0 
0.0 0.0 0.0 
-4.789294019464e-04 6.651247133701e-05 0.0 
6.651247133701e-05 9.087350388300e-03 0.0 
0.0 0.0 0.0 
6.622740382585e-04 3.559379528873e-04 0.0 
3.559379528873e-04 3.609778387322e-03 0.0 
0.0 0.0 0.0 
3.571478550837e-04 -1.443362002144e-05 0.0 
-1.443362002144e-05 2.387801818738e-03 0.0 
0.0 0.0 0.0 
9.323301163944e-05 1.195368896168e-03 0.0 
1.195368896168e-03 8.333905339410e-03 0.0 
0.0 0.0 0.0 
1.140421276786e-04 5.126032670564e-04 0.0 
5.126032670564e-04 8.435185236806e-03 0.0 
0.0 0.0 0.0 
1.062357643491e-04 5.798902260049e-04 0.0 
5.798902260049e-04 8.459128715435e-03 0.0 
0.0 0.0 0.0 
7.164741169869e-04 2.504692187880e-04 0.0 
2.504692187880e-04 3.647981164609e-03 0.0 
0.0 0.0 0.0 
-5.105252374077e-04 1.014873333004e-04 0.0 
1.014873333004e-04 8.754881814696e-03 0.0 
0.0 0.0 0.0 
-6.021595746969e-04 2.312575479203e-05 0.0 
2.312575479203e-05 6.009588737734e-04 0.0 
0.0 0.0 0.0 
-6.941550816644e-04 1.000310568131e-03 0.0 
1.000310568131e-03 4.096219630006e-03 0.0 
0.0 0.0 0.0 
1.299220263737e-04 -1.088265861552e-04 0.0 
-1.088265861552e-04 1.473662923898e-03 0.0 
0.0 0.0 0.0 
-7.104441978384e-04 9.984056781041e-04 0.0 
9.984056781041e-04 4.832416026665e-03 0.0 
0.0 0.0 0.0 
2.130579432569e-04 1.076449981132e-03 0.0 
1.076449981132e-03 7.060162649285e-03 0.0 
0.0 0.0 0.0 
6.323699653306e-04 1.059078768187e-04 0.0 
1.059078768187e-04 2.967657426244e-03 0.0 
0.0 0.0 0.0 
6.459191560946e-04 1.909844901782e-04 0.0 
1.909844901782e-04 3.399772616258e-03 0.0 
0.0 0.0 0.0 
-2.543758423132e-04 -1.299929857313e-04 0.0 
-1.299929857313e-04 9.109062209638e-04 0.0 
0.0 0.0 0.0 
-1.599556520830e-04 4.874765002872e-05 0.0 
4.874765002872e-05 1.107245560417e-02 0.0 
0.0 0.0 0.0 
6.079465699962e-04 6.787783931182e-05 0.0 
6.787783931182e-05 3.247503070109e-03 0.0 
0.0 0.0 0.0 
-1.468273258898e-04 1.856746248264e-04 0.0 
1.856746248264e-04 1.131464675354e-02 0.0 
0.0 0.0 0.0 
-2.198040826423e-04 4.055905802022e-05 0.0 
4.055905802022e-05 1.076080834559e-02 0.0 
0.0 0.0 0.0 
-6.133201076874e-05 7.746567551567e-05 0.0 
7.746567551567e-05 1.200245275817e-02 0.0 
0.0 0.0 0.0 
9.426551523983e-05 1.217626739002e-04 0.0 
1.217626739002e-04 8.290861286729e-03 0.0 
0.0 0.0 0.0 
-3.498185999645e-04 2.919762297557e-05 0.0 
2.919762297557e-05 9.063699290933e-03 0.0 
0.0 0.0 0.0 
6.071284224956e-04 5.368205891911e-05 0.0 
5.368205891911e-05 3.392619497282e-03 0.0 
0.0 0.0 0.0 
-4.392546612504e-04 3.100000277094e-04 0.0 
3.100000277094e-04 6.129645502611e-03 0.0 
0.0 0.0 0.0 
6.721387121271e-04 1.469899866850e-04 0.0 
1.469899866850e-04 3.526321406705e-03 0.0 
0.0 0.0 0.0 
0.0 3.987361964226e-04 0.0 
3.987361964226e-04 8.392766072278e-03 0.0 
0.0 0.0 0.0 
-6.601693478298e-04 9.144791753713e-04 0.0 
9.144791753713e-04 2.720838117994e-03 0.0 
0.0 0.0 0.0 
-6.626445359487e-04 9.766700552418e-04 0.0 
9.766700552418e-04 3.410889781126e-03 0.0 
0.0 0.0 0.0 
2.767883958967e-04 1.022296845973e-03 0.0 
1.022296845973e-03 8.035931635782e-03 0.0 
0.0 0.0 0.0 
-4.504577123527e-04 5.548819656339e-05 0.0 
5.548819656339e-05 8.753348790002e-03 0.0 
0.0 0.0 0.0 
-1.339366261769e-04 1.325544075138e-04 0.0 
1.325544075138e-04 1.135794661942e-02 0.0 
0.0 0.0 0.0 
-3.972543143473e-04 9.998356432097e-04 0.0 
9.998356432097e-04 9.601955315394e-03 0.0 
0.0 0.0 0.0 
1.380313971417e-04 1.231428562286e-03 0.0 
1.231428562286e-03 8.777837717324e-03 0.0 
0.0 0.0 0.0 
-4.611315428045e-04 8.726465913195e-04 0.0 
8.726465913195e-04 1.021026747653e-02 0.0 
0.0 0.0 0.0 
-3.503845709746e-04 5.683715694695e-05 0.0 
5.683715694695e-05 9.145887562454e-03 0.0 
0.0 0.0 0.0 
4.369770952526e-04 -1.188268671992e-04 0.0 
-1.188268671992e-04 2.490426159320e-03 0.0 
0.0 0.0 0.0 
5.024030117966e-04 -1.848546138804e-05 0.0 
-1.848546138804e-05 2.476992322114e-03 0.0 
0.0 0.0 0.0 
-2.797958516448e-04 5.348637647275e-05 0.0 
5.348637647275e-05 1.003317989756e-02 0.0 
0.0 0.0 0.0 
5.489442478890e-05 1.165611315091e-03 0.0 
1.165611315091e-03 8.760354088582e-03 0.0 
0.0 0.0 0.0 
-5.831068655966e-04 1.099011016305e-04 0.0 
1.099011016305e-04 8.405374021830e-03 0.0 
0.0 0.0 0.0 
-3.640321244961e-04 7.244022208562e-06 0.0 
7.244022208562e-06 8.704567953081e-03 0.0 
0.0 0.0 0.0 
-3.570451106720e-04 5.620763060401e-06 0.0 
5.620763060401e-06 9.043882648686e-03 0.0 
0.0 0.0 0.0 
-3.802394793797e-04 -4.076531470408e-06 0.0 
-4.076531470408e-06 9.168532185710e-03 0.0 
0.0 0.0 0.0 
1.397899652025e-04 5.901549473588e-05 0.0 
5.901549473588e-05 1.232674476187e-03 0.0 
0.0 0.0 0.0 
4.299621017432e-04 -5.841552643781e-05 0.0 
-5.841552643781e-05 2.244441502320e-03 0.0 
0.0 0.0 0.0 
-1.299102253619e-04 2.446734741714e-04 0.0 
2.446734741714e-04 1.168455712536e-02 0.0 
0.0 0.0 0.0 
-3.558277225013e-04 1.841192121107e-05 0.0 
1.841192121107e-05 9.570429928930e-03 0.0 
0.0 0.0 0.0 
1.086086440896e-04 1.287397946009e-03 0.0 
1.287397946009e-03 9.286317676164e-03 0.0 
0.0 0.0 0.0 
-3.292592273263e-04 9.410126534749e-04 0.0 
9.410126534749e-04 1.082547978076e-02 0.0 
0.0 0.0 0.0 
-5.384072481511e-04 8.475482214973e-04 0.0 
8.475482214973e-04 9.581148715738e-03 0.0 
0.0 0.0 0.0 
-2.632627436527e-04 4.038552002686e-04 0.0 
4.038552002686e-04 1.129082862309e-02 0.0 
0.0 0.0 0.0 
5.007902396106e-04 8.040073336385e-06 0.0 
8.040073336385e-06 3.396734160102e-03 0.0 
0.0 0.0 0.0 
4.401567312087e-04 -3.756395984127e-06 0.0 
-3.756395984127e-06 3.082600499964e-03 0.0 
0.0 0.0 0.0 
2.611721258923e-04 6.068831366593e-04 0.0 
6.068831366593e-04 7.677653190094e-03 0.0 
0.0 0.0 0.0 
-2.645171472866e-04 -6.585317295578e-05 0.0 
-6.585317295578e-05 5.129164008801e-04 0.0 
0.0 0.0 0.0 
2.865685235611e-04 -4.798853669856e-05 0.0 
-4.798853669856e-05 2.144855449928e-03 0.0 
0.0 0.0 0.0 
0.0 1.380258090147e-03 0.0 
1.380258090147e-03 1.024403022285e-02 0.0 
0.0 0.0 0.0 
1.315243480204e-04 -4.795720680909e-05 0.0 
-4.795720680909e-05 1.025280429707e-03 0.0 
0.0 0.0 0.0 
-3.558017390871e-04 1.142467317619e-05 0.0 
1.142467317619e-05 8.706574711137e-03 0.0 
0.0 0.0 0.0 
2.799894015668e-04 1.004847839959e-03 0.0 
1.004847839959e-03 8.233035968460e-03 0.0 
0.0 0.0 0.0 
-7.453954604386e-05 -7.836026742339e-05 0.0 
-7.836026742339e-05 7.112871939901e-04 0.0 
0.0 0.0 0.0 
-7.531141104589e-05 -6.369929668868e-05 0.0 
-6.369929668868e-05 3.914406240197e-04 0.0 
0.0 0.0 0.0 
-8.473799454800e-05 3.450163924298e-04 0.0 
3.450163924298e-04 1.195162780565e-02 0.0 
0.0 0.0 0.0 
-4.261930491098e-04 2.523118399993e-05 0.0 
2.523118399993e-05 8.372766758638e-03 0.0 
0.0 0.0 0.0 
-1.379117673962e-04 3.420047403200e-04 0.0 
3.420047403200e-04 1.159370840421e-02 0.0 
0.0 0.0 0.0 
1.939354583302e-04 1.038881799488e-03 0.0 
1.038881799488e-03 8.393737320425e-03 0.0 
0.0 0.0 0.0 
-4.204776044155e-04 6.872920047980e-07 0.0 
6.872920047980e-07 8.362098005920e-03 0.0 
0.0 0.0 0.0 
-5.846152601565e-04 3.769553407703e-05 0.0 
3.769553407703e-05 6.879496207222e-04 0.0 
0.0 0.0 0.0 
-6.427100734485e-05 4.351863149620e-05 0.0 
4.351863149620e-05 1.169456207276e-02 0.0 
0.0 0.0 0.0 
1.318092266713e-04 -1.404848165997e-04 0.0 
-1.404848165997e-04 1.152318777964e-03 0.0 
0.0 0.0 0.0 
-1.477394118068e-04 2.784339067133e-04 0.0 
2.784339067133e-04 1.140153746831e-02 0.0 
0.0 0.0 0.0 
0.0 3.152563021993e-04 0.0 
3.152563021993e-04 8.351589331349e-03 0.0 
0.0 0.0 0.0 
-2.951432449569e-04 7.819082569740e-04 0.0 
7.819082569740e-04 1.101970861976e-02 0.0 
0.0 0.0 0.0 
3.572183661167e-04 1.069507392662e-04 0.0 
1.069507392662e-04 1.553556598120e-03 0.0 
0.0 0.0 0.0 
-5.444135048702e-04 1.750665825370e-04 0.0 
1.750665825370e-04 9.093317755576e-03 0.0 
0.0 0.0 0.0 
4.525395745425e-04 -3.891136317207e-05 0.0 
-3.891136317207e-05 3.458079120693e-03 0.0 
0.0 0.0 0.0 
7.844040308913e-05 1.126678431855e-03 0.0 
1.126678431855e-03 8.339064489866e-03 0.0 
0.0 0.0 0.0 
4.584308786515e-05 1.364492656676e-03 0.0 
1.364492656676e-03 9.672728884556e-03 0.0 
0.0 0.0 0.0 
-2.529869906315e-04 5.410108831167e-05 0.0 
5.410108831167e-05 1.045941545133e-02 0.0 
0.0 0.0 0.0 
8.798888882966e-05 1.340083015654e-03 0.0 
1.340083015654e-03 9.474304591825e-03 0.0 
0.0 0.0 0.0 
-6.987643922407e-05 7.133940550750e-06 0.0 
7.133940550750e-06 8.018998233703e-04 0.0 
0.0 0.0 0.0 
1.600527330321e-04 3.826651470663e-04 0.0 
3.826651470663e-04 7.994375566930e-03 0.0 
0.0 0.0 0.0 
3.706795658636e-04 7.134683946565e-05 0.0 
7.134683946565e-05 1.762060783105e-03 0.0 
0.0 0.0 0.0 
1.395581332415e-04 -3.257830399947e-05 0.0 
-3.257830399947e-05 1.027128353173e-03 0.0 
0.0 0.0 0.0 
2.007350046460e-04 9.455674854106e-04 0.0 
9.455674854106e-04 8.482340814487e-03 0.0 
0.0 0.0 0.0 
-2.135149874705e-04 5.946822230594e-04 0.0 
5.946822230594e-04 1.154463094661e-02 0.0 
0.0 0.0 0.0 
-1.178693728129e-04 3.480201387655e-04 0.0 
3.480201387655e-04 1.170970462757e-02 0.0 
0.0 0.0 0.0 
-3.820507790737e-04 5.213706588560e-05 0.0 
5.213706588560e-05 8.695315301928e-03 0.0 
0.0 0.0 0.0 
-6.026806745911e-04 2.923315168325e-04 0.0 
2.923315168325e-04 9.115605339966e-03 0.0 
0.0 0.0 0.0 
-7.815567962410e-05 1.032622988073e-03 0.0 
1.032622988073e-03 3.361734147681e-03 0.0 
0.0 0.0 0.0 
-2.207201514830e-04 1.041199630585e-03 0.0 
1.041199630585e-03 1.107152170357e-02 0.0 
0.0 0.0 0.0 
4.189964451482e-04 6.859803208605e-06 0.0 
6.859803208605e-06 2.850499778749e-03 0.0 
0.0 0.0 0.0 
-3.426044385191e-06 4.808510476313e-04 0.0 
4.808510476313e-04 1.599169053986e-03 0.0 
0.0 0.0 0.0 
1.535599005764e-04 1.201044410273e-03 0.0 
1.201044410273e-03 8.365686246607e-03 0.0 
0.0 0.0 0.0 
-3.830988217869e-04 4.705738929074e-07 0.0 
4.705738929074e-07 8.337285741078e-03 0.0 
0.0 0.0 0.0 
-2.018716627321e-04 5.959340076572e-04 0.0 
5.959340076572e-04 1.129747879882e-02 0.0 
0.0 0.0 0.0 
-4.804341197617e-05 -2.415581191572e-05 0.0 
-2.415581191572e-05 1.198253559471e-02 0.0 
0.0 0.0 0.0 
0.0 2.402170598805e-05 0.0 
2.402170598805e-05 1.203084721854e-02 0.0 
0.0 0.0 0.0 
-1.382454352805e-05 -2.236416051670e-06 0.0 
-2.236416051670e-06 1.036931797747e-04 0.0 
0.0 0.0 0.0 
-5.265789246200e-06 4.736500822784e-06 0.0 
4.736500822784e-06 1.090802592418e-04 0.0 
0.0 0.0 0.0 
-3.591518475580e-04 -2.688375255043e-05 0.0 
-2.688375255043e-05 8.381480366418e-03 0.0 
0.0 0.0 0.0 
-3.720400362848e-04 4.530197945442e-06 0.0 
4.530197945442e-06 8.331540654153e-03 0.0 
0.0 0.0 0.0 
0.0 4.543498527139e-05 0.0 
4.543498527139e-05 8.285049482815e-03 0.0 
0.0 0.0 0.0 
9.086997054264e-05 3.595774715261e-05 0.0 
3.595774715261e-05 8.213133988510e-03 0.0 
0.0 0.0 0.0 
8.762149893871e-06 1.530447655261e-05 0.0 
1.530447655261e-05 3.373136915596e-04 0.0 
0.0 0.0 0.0 
-5.825839970729e-04 -3.550396373394e-05 0.0 
-3.550396373394e-05 3.368740031657e-04 0.0 
0.0 0.0 0.0 
2.044953085356e-04 2.440666720698e-04 0.0 
2.440666720698e-04 7.488444019217e-03 0.0 
0.0 0.0 0.0 
-1.204439346858e-05 1.310008239953e-03 0.0 
1.310008239953e-03 9.544744609966e-03 0.0 
0.0 0.0 0.0 
1.489330340438e-04 -1.128686092862e-04 0.0 
-1.128686092862e-04 1.359124762400e-03 0.0 
0.0 0.0 0.0 
1.969501386274e-04 4.031044597485e-04 0.0 
4.031044597485e-04 7.685689948815e-03 0.0 
0.0 0.0 0.0 
4.999072435063e-04 2.353792391339e-06 0.0 
2.353792391339e-06 5.039887839029e-03 0.0 
0.0 0.0 0.0 
4.984133563426e-04 -2.867185379387e-05 0.0 
-2.867185379387e-05 4.281049408427e-03 0.0 
0.0 0.0 0.0 
-3.362690217940e-04 5.684616976956e-05 0.0 
5.684616976956e-05 9.772693708666e-03 0.0 
0.0 0.0 0.0 
1.411276369412e-04 -7.058503198153e-05 0.0 
-7.058503198153e-05 1.326381443622e-03 0.0 
0.0 0.0 0.0 
9.515778656399e-05 1.116079214570e-03 0.0 
1.116079214570e-03 7.922192614911e-03 0.0 
0.0 0.0 0.0 
7.779617949177e-05 -7.450460064637e-05 0.0 
-7.450460064637e-05 1.072692542136e-03 0.0 
0.0 0.0 0.0 
5.103657832213e-04 -3.213230022093e-05 0.0 
-3.213230022093e-05 3.852748357020e-03 0.0 
0.0 0.0 0.0 
-1.911897230742e-04 9.991803992648e-04 0.0 
9.991803992648e-04 1.080341822992e-02 0.0 
0.0 0.0 0.0 
-1.594060537626e-04 -2.860395679907e-05 0.0 
-2.860395679907e-05 1.121909839876e-02 0.0 
0.0 0.0 0.0 
5.220519042197e-04 2.324067794586e-05 0.0 
2.324067794586e-05 4.251487907589e-03 0.0 
0.0 0.0 0.0 
-3.459331381556e-04 -1.155429057374e-05 0.0 
-1.155429057374e-05 9.344935429041e-03 0.0 
0.0 0.0 0.0 
-1.405071985330e-04 1.275061485222e-03 0.0 
1.275061485222e-03 1.004840600358e-02 0.0 
0.0 0.0 0.0 
-4.030760986334e-04 9.477595745138e-04 0.0 
9.477595745138e-04 1.024178031105e-02 0.0 
0.0 0.0 0.0 
-4.754713522449e-04 8.967506178976e-04 0.0 
8.967506178976e-04 9.909106502546e-03 0.0 
0.0 0.0 0.0 
-4.018263282449e-04 8.807199523139e-06 0.0 
8.807199523139e-06 8.362295486496e-03 0.0 
0.0 0.0 0.0 
1.861530820642e-04 1.083112550170e-03 0.0 
1.083112550170e-03 7.492023549464e-03 0.0 
0.0 0.0 0.0 
-2.188000924329e-04 6.964148511466e-04 0.0 
6.964148511466e-04 1.116389647466e-02 0.0 
0.0 0.0 0.0 
3.158478790442e-04 -1.177906337182e-05 0.0 
-1.177906337182e-05 2.138488812428e-03 0.0 
0.0 0.0 0.0 
-2.476523777284e-04 -1.065031657537e-04 0.0 
-1.065031657537e-04 4.914860985274e-04 0.0 
0.0 0.0 0.0 
-1.985181076206e-04 1.154374025661e-03 0.0 
1.154374025661e-03 9.909192124435e-03 0.0 
0.0 0.0 0.0 
3.773141156762e-04 1.001242099565e-03 0.0 
1.001242099565e-03 7.630952366739e-03 0.0 
0.0 0.0 0.0 
9.546028008289e-05 -1.814038678683e-04 0.0 
-1.814038678683e-04 1.072080633852e-03 0.0 
0.0 0.0 0.0 
-3.048341379395e-04 4.830990982240e-06 0.0 
4.830990982240e-06 1.005789530621e-02 0.0 
0.0 0.0 0.0 
1.001683677204e-04 2.259045019090e-04 0.0 
2.259045019090e-04 7.864500953276e-03 0.0 
0.0 0.0 0.0 
-6.919751126333e-05 1.216885196440e-03 0.0 
1.216885196440e-03 9.511385464021e-03 0.0 
0.0 0.0 0.0 
-1.093765375606e-04 1.283722016636e-03 0.0 
1.283722016636e-03 9.869470542189e-03 0.0 
0.0 0.0 0.0 
4.730931263632e-04 -1.558147251809e-05 0.0 
-1.558147251809e-05 5.507538998229e-03 0.0 
0.0 0.0 0.0 
-2.776342534703e-04 3.363950733884e-04 0.0 
3.363950733884e-04 6.320382010903e-04 0.0 
0.0 0.0 0.0 
-3.657973853066e-04 4.650248275182e-04 0.0 
4.650248275182e-04 5.496291824810e-03 0.0 
0.0 0.0 0.0 
-2.736195876214e-04 1.238526525952e-03 0.0 
1.238526525952e-03 4.720992914392e-03 0.0 
0.0 0.0 0.0 
-5.519268855519e-04 1.860717585528e-04 0.0 
1.860717585528e-04 9.107305279528e-03 0.0 
0.0 0.0 0.0 
1.851245252078e-04 1.157314949604e-03 0.0 
1.157314949604e-03 7.483087629130e-03 0.0 
0.0 0.0 0.0 
-1.514019018678e-04 1.743783804766e-04 0.0 
1.743783804766e-04 1.145469521063e-02 0.0 
0.0 0.0 0.0 
1.194678196721e-04 1.139692561994e-03 0.0 
1.139692561994e-03 8.866199177389e-03 0.0 
0.0 0.0 0.0 
-2.074606866216e-04 -1.510022055460e-04 0.0 
-1.510022055460e-04 8.400112524010e-04 0.0 
0.0 0.0 0.0 
-1.531034851155e-04 -1.420215005703e-04 0.0 
-1.420215005703e-04 7.726713665259e-04 0.0 
0.0 0.0 0.0 
-5.168825738175e-04 1.063275927648e-03 0.0 
1.063275927648e-03 4.101364235380e-03 0.0 
0.0 0.0 0.0 
-2.761510262821e-04 9.920634607465e-05 0.0 
9.920634607465e-05 1.017501282918e-02 0.0 
0.0 0.0 0.0 
3.684289352941e-04 -8.071457936036e-05 0.0 
-8.071457936036e-05 2.649938207053e-03 0.0 
0.0 0.0 0.0 
-2.244083345889e-04 4.642103638633e-04 0.0 
4.642103638633e-04 1.139595712787e-02 0.0 
0.0 0.0 0.0 
1.488831085918e-04 -8.321496173012e-05 0.0 
-8.321496173012e-05 1.295221223461e-03 0.0 
0.0 0.0 0.0 
2.144685950736e-04 1.098003089764e-03 0.0 
1.098003089764e-03 8.459999843186e-03 0.0 
0.0 0.0 0.0 
-4.316240396881e-04 1.050537453318e-04 0.0 
1.050537453318e-04 9.078285254960e-03 0.0 
0.0 0.0 0.0 
2.873543633997e-05 1.293160068028e-03 0.0 
1.293160068028e-03 9.638739165681e-03 0.0 
0.0 0.0 0.0 
1.313086152699e-06 1.165413515379e-03 0.0 
1.165413515379e-03 8.748022513714e-03 0.0 
0.0 0.0 0.0 
-6.003894309443e-04 2.077044100823e-04 0.0 
2.077044100823e-04 9.106303423017e-03 0.0 
0.0 0.0 0.0 
2.222146474877e-04 8.069749393159e-04 0.0 
8.069749393159e-04 8.283646514793e-03 0.0 
0.0 0.0 0.0 
-1.831091870471e-04 5.601716992651e-04 0.0 
5.601716992651e-04 1.158284696391e-02 0.0 
0.0 0.0 0.0 
-1.016569028727e-04 5.582225041214e-05 0.0 
5.582225041214e-05 1.171372038695e-02 0.0 
0.0 0.0 0.0 
-6.470041838960e-04 1.157152489755e-03 0.0 
1.157152489755e-03 2.733343090562e-03 0.0 
0.0 0.0 0.0 
-2.046272331634e-04 4.379099664960e-04 0.0 
4.379099664960e-04 1.128816521589e-02 0.0 
0.0 0.0 0.0 
-7.454959030118e-05 1.214124146838e-03 0.0 
1.214124146838e-03 1.053131885131e-02 0.0 
0.0 0.0 0.0 
2.371764713884e-04 1.095166270581e-03 0.0 
1.095166270581e-03 8.460208033996e-03 0.0 
0.0 0.0 0.0 
1.001080828518e-04 1.227760593705e-03 0.0 
1.227760593705e-03 8.745401152717e-03 0.0 
0.0 0.0 0.0 
0.0 5.340142825027e-04 0.0 
5.340142825027e-04 8.447724786546e-03 0.0 
0.0 0.0 0.0 
-4.131942517873e-04 9.070387925031e-04 0.0 
9.070387925031e-04 9.907408306150e-03 0.0 
0.0 0.0 0.0 
-5.282447982339e-04 2.785294749062e-04 0.0 
2.785294749062e-04 3.184824529670e-04 0.0 
0.0 0.0 0.0 
-6.896672614864e-05 6.975692734530e-04 0.0 
6.975692734530e-04 2.174557930114e-03 0.0 
0.0 0.0 0.0 
-3.700723649396e-04 9.379751761532e-04 0.0 
9.379751761532e-04 1.053069168194e-02 0.0 
0.0 0.0 0.0 
-5.121844736584e-04 2.277101523910e-04 0.0 
2.277101523910e-04 9.406840113900e-03 0.0 
0.0 0.0 0.0 
2.233440455988e-04 9.628438332664e-05 0.0 
9.628438332664e-05 7.440294973407e-03 0.0 
0.0 0.0 0.0 
-6.951119129295e-06 1.202508778371e-03 0.0 
1.202508778371e-03 9.143602594906e-03 0.0 
0.0 0.0 0.0 
1.120217188719e-04 4.468475738873e-04 0.0 
4.468475738873e-04 8.031079676024e-03 0.0 
0.0 0.0 0.0 
-2.370152753364e-04 1.089345382141e-04 0.0 
1.089345382141e-04 1.058959463560e-02 0.0 
0.0 0.0 0.0 
2.674343654974e-05 1.271813438027e-03 0.0 
1.271813438027e-03 9.484246502747e-03 0.0 
0.0 0.0 0.0 
2.270722707411e-04 6.805712934201e-04 0.0 
6.805712934201e-04 7.892913896186e-03 0.0 
0.0 0.0 0.0 
2.703143902025e-04 7.474093823661e-04 0.0 
7.474093823661e-04 7.886755959190e-03 0.0 
0.0 0.0 0.0 
3.784446258150e-04 -5.736912889683e-05 0.0 
-5.736912889683e-05 2.750611547008e-03 0.0 
0.0 0.0 0.0 
1.262101023332e-04 4.398794527470e-04 0.0 
4.398794527470e-04 8.404592776047e-03 0.0 
0.0 0.0 0.0 
-4.996808380738e-04 8.327288716287e-05 0.0 
8.327288716287e-05 8.724284907785e-03 0.0 
0.0 0.0 0.0 
-1.509981135472e-04 7.938354990788e-05 0.0 
7.938354990788e-05 1.136455513339e-02 0.0 
0.0 0.0 0.0 
-2.273162486344e-05 -1.729027396407e-04 0.0 
-1.729027396407e-04 7.619457395331e-04 0.0 
0.0 0.0 0.0 
-1.917971791606e-04 3.089953360834e-05 0.0 
3.089953360834e-05 1.108046827121e-02 0.0 
0.0 0.0 0.0 
-3.064295542734e-04 4.007899744033e-05 0.0 
4.007899744033e-05 1.009111180680e-02 0.0 
0.0 0.0 0.0 
5.542286689098e-05 -4.100896513298e-05 0.0 
-4.100896513298e-05 7.151396669871e-04 0.0 
0.0 0.0 0.0 
1.797753139945e-04 -4.435715878872e-05 0.0 
-4.435715878872e-05 1.475921814253e-03 0.0 
0.0 0.0 0.0 
-3.537142400575e-04 9.883481682100e-04 0.0 
9.883481682100e-04 9.933211410908e-03 0.0 
0.0 0.0 0.0 
-8.759968301664e-05 2.789349973763e-04 0.0 
2.789349973763e-04 1.167076606181e-02 0.0 
0.0 0.0 0.0 
-1.425800049235e-04 2.814734824425e-05 0.0 
2.814734824425e-05 1.141848896747e-02 0.0 
0.0 0.0 0.0 
1.309517130135e-04 1.327353503694e-03 0.0 
1.327353503694e-03 9.254543771035e-03 0.0 
0.0 0.0 0.0 
-3.548917032981e-04 8.292112346744e-05 0.0 
8.292112346744e-05 9.348493512064e-03 0.0 
0.0 0.0 0.0 
-1.583937018353e-04 -1.004987561198e-04 0.0 
-1.004987561198e-04 4.466947618036e-04 0.0 
0.0 0.0 0.0 
-1.997610174855e-04 2.788862500452e-04 0.0 
2.788862500452e-04 9.387757187409e-04 0.0 
0.0 0.0 0.0 
-9.568009546457e-05 -4.455022698815e-05 0.0 
-4.455022698815e-05 4.950016934444e-04 0.0 
0.0 0.0 0.0 
-5.734529577417e-06 -2.021752783171e-04 0.0 
-2.021752783171e-04 1.025838991927e-03 0.0 
0.0 0.0 0.0 
-6.291272682508e-04 6.378465419939e-04 0.0 
6.378465419939e-04 4.696296569193e-04 0.0 
0.0 0.0 0.0 
4.964038654487e-04 2.145418464543e-05 0.0 
2.145418464543e-05 3.751437107341e-03 0.0 
0.0 0.0 0.0 
2.383995439295e-04 1.666909699501e-04 0.0 
1.666909699501e-04 7.438796471088e-03 0.0 
0.0 0.0 0.0 
-2.500514941027e-04 8.222727151180e-04 0.0 
8.222727151180e-04 1.102520482507e-02 0.0 
0.0 0.0 0.0 
-6.348264335480e-04 2.828415428109e-04 0.0 
2.828415428109e-04 9.353930248059e-03 0.0 
0.0 0.0 0.0 
4.592149180185e-04 -7.527284500160e-05 0.0 
-7.527284500160e-05 3.251838061845e-03 0.0 
0.0 0.0 0.0 
2.590226344932e-04 5.577566207392e-04 0.0 
5.577566207392e-04 7.694518764010e-03 0.0 
0.0 0.0 0.0 
3.373864866920e-04 9.515144762722e-04 0.0 
9.515144762722e-04 7.985134173265e-03 0.0 
0.0 0.0 0.0 
3.871474639539e-05 1.379217843550e-03 0.0 
1.379217843550e-03 9.711071266939e-03 0.0 
0.0 0.0 0.0 
-1.276088982543e-04 1.177771172089e-03 0.0 
1.177771172089e-03 1.017384038397e-02 0.0 
0.0 0.0 0.0 
-2.746678597897e-04 1.043041397711e-03 0.0 
1.043041397711e-03 1.026867334282e-02 0.0 
0.0 0.0 0.0 
-3.028197238308e-05 -1.135680054651e-04 0.0 
-1.135680054651e-04 7.444365047489e-04 0.0 
0.0 0.0 0.0 
-3.251695469452e-04 -9.913047737861e-05 0.0 
-9.913047737861e-05 8.259426616375e-04 0.0 
0.0 0.0 0.0 
2.213541404039e-04 1.936313351654e-04 0.0 
1.936313351654e-04 7.504293163045e-03 0.0 
0.0 0.0 0.0 
9.960270159071e-05 -1.670845087848e-05 0.0 
-1.670845087848e-05 6.974463876557e-04 0.0 
0.0 0.0 0.0 
9.137578158169e-05 3.887917126128e-05 0.0 
3.887917126128e-05 8.646665998446e-04 0.0 
0.0 0.0 0.0 
-3.308393552971e-04 8.155665665260e-04 0.0 
8.155665665260e-04 1.198819218603e-03 0.0 
0.0 0.0 0.0 
-3.771750403359e-05 -1.568001787141e-04 0.0 
-1.568001787141e-04 7.088621737488e-04 0.0 
0.0 0.0 0.0 
1.148230188488e-04 7.435205509818e-04 0.0 
7.435205509818e-04 8.246729928246e-03 0.0 
0.0 0.0 0.0 
-1.178486546329e-04 1.101766086996e-03 0.0 
1.101766086996e-03 1.088347708691e-02 0.0 
0.0 0.0 0.0 
-1.361326486856e-04 2.188122347833e-04 0.0 
2.188122347833e-04 1.145724309215e-02 0.0 
0.0 0.0 0.0 
3.756509383113e-06 1.307400973831e-03 0.0 
1.307400973831e-03 9.833526099106e-03 0.0 
0.0 0.0 0.0 
3.034782788103e-04 8.755944618928e-04 0.0 
8.755944618928e-04 7.815549532580e-03 0.0 
0.0 0.0 0.0 
-3.335925694260e-04 8.827875211913e-05 0.0 
8.827875211913e-05 9.576840524439e-03 0.0 
0.0 0.0 0.0 
0.0 3.825494804889e-04 0.0 
3.825494804889e-04 1.196024790671e-02 0.0 
0.0 0.0 0.0 
3.048748980887e-04 -9.054695253158e-05 0.0 
-9.054695253158e-05 1.756544600923e-03 0.0 
0.0 0.0 0.0 
-4.131941788789e-04 1.065808826222e-05 0.0 
1.065808826222e-05 8.343558524932e-03 0.0 
0.0 0.0 0.0 
-5.867400460824e-05 -1.402414412765e-04 0.0 
-1.402414412765e-04 1.099506366605e-03 0.0 
0.0 0.0 0.0 
7.752990374144e-06 -4.969292184356e-05 0.0 
-4.969292184356e-05 3.855112130107e-04 0.0 
0.0 0.0 0.0 
1.194498952342e-04 3.107146068241e-04 0.0 
3.107146068241e-04 8.334560137679e-03 0.0 
0.0 0.0 0.0 
-5.956522565278e-04 1.611706698092e-04 0.0 
1.611706698092e-04 8.757832406117e-03 0.0 
0.0 0.0 0.0 
9.522969541731e-05 -5.175316993092e-05 0.0 
-5.175316993092e-05 1.021344735701e-03 0.0 
0.0 0.0 0.0 
4.814533204678e-04 3.144850503719e-05 0.0 
3.144850503719e-05 3.597154966740e-03 0.0 
0.0 0.0 0.0 
-1.809452760496e-04 1.132488913684e-03 0.0 
1.132488913684e-03 1.095284525086e-02 0.0 
0.0 0.0 0.0 
-1.896423738306e-04 2.448734155478e-04 0.0 
2.448734155478e-04 1.141299320768e-02 0.0 
0.0 0.0 0.0 
-1.182443122003e-04 6.183599766097e-04 0.0 
6.183599766097e-04 1.153176723065e-02 0.0 
0.0 0.0 0.0 
3.458084865320e-04 -5.526677106980e-05 0.0 
-5.526677106980e-05 2.498659588362e-03 0.0 
0.0 0.0 0.0 
-2.271044688447e-04 -7.864626223963e-06 0.0 
-7.864626223963e-06 8.561366238244e-04 0.0 
0.0 0.0 0.0 
1.854617889556e-04 4.883083927542e-04 0.0 
4.883083927542e-04 8.047785121349e-03 0.0 
0.0 0.0 0.0 
-4.848432375937e-05 4.043696420882e-05 0.0 
4.043696420882e-05 1.202532608320e-02 0.0 
0.0 0.0 0.0 
9.139467431973e-05 6.140359593472e-05 0.0 
6.140359593472e-05 8.284494752558e-03 0.0 
0.0 0.0 0.0 
-3.571502575409e-04 2.290234125345e-05 0.0 
2.290234125345e-05 8.638576570704e-03 0.0 
0.0 0.0 0.0 
2.123479412059e-04 9.304166967197e-04 0.0 
9.304166967197e-04 8.162223060109e-03 0.0 
0.0 0.0 0.0 
1.478926064911e-04 -8.606216675860e-05 0.0 
-8.606216675860e-05 1.041831348501e-03 0.0 
0.0 0.0 0.0 
-1.888397486585e-04 4.976374768013e-04 0.0 
4.976374768013e-04 1.139859836212e-02 0.0 
0.0 0.0 0.0 
-3.040247448094e-05 -7.106732140499e-05 0.0 
-7.106732140499e-05 3.798611480150e-04 0.0 
0.0 0.0 0.0 
1.109625312907e-04 8.834658533239e-04 0.0 
8.834658533239e-04 8.439874595063e-03 0.0 
0.0 0.0 0.0 
-2.031114795173e-04 6.901947924757e-04 0.0 
6.901947924757e-04 1.147107708909e-02 0.0 
0.0 0.0 0.0 
-2.646966827802e-04 9.825046610872e-05 0.0 
9.825046610872e-05 5.519217652357e-04 0.0 
0.0 0.0 0.0 
-1.013751366289e-04 1.215433869579e-03 0.0 
1.215433869579e-03 9.512972057083e-03 0.0 
0.0 0.0 0.0 
-2.646213996516e-04 2.576470627746e-05 0.0 
2.576470627746e-05 1.038840550250e-02 0.0 
0.0 0.0 0.0 
-6.742467254062e-05 2.034330542083e-04 0.0 
2.034330542083e-04 1.171124249792e-02 0.0 
0.0 0.0 0.0 
0.0 1.300468916462e-03 0.0 
1.300468916462e-03 9.600365972533e-03 0.0 
0.0 0.0 0.0 
-3.043593678709e-04 -3.115982913995e-05 0.0 
-3.115982913995e-05 9.844717759838e-03 0.0 
0.0 0.0 0.0 
-1.049704244909e-04 1.056776956817e-03 0.0 
1.056776956817e-03 1.102195109276e-02 0.0 
0.0 0.0 0.0 
-2.616571182753e-04 5.746275945043e-04 0.0 
5.746275945043e-04 1.130671344707e-02 0.0 
0.0 0.0 0.0 
-2.750794802814e-04 3.705008251346e-05 0.0 
3.705008251346e-05 1.008605028982e-02 0.0 
0.0 0.0 0.0 
-1.928026715888e-04 1.030855409993e-03 0.0 
1.030855409993e-03 1.074334379678e-02 0.0 
0.0 0.0 0.0 
4.339982312429e-04 -5.153202276189e-05 0.0 
-5.153202276189e-05 3.033412201790e-03 0.0 
0.0 0.0 0.0 
-3.820597679052e-04 -1.100734260884e-06 0.0 
-1.100734260884e-06 8.338303139936e-03 0.0 
0.0 0.0 0.0 
2.983678649748e-05 1.309887426420e-03 0.0 
1.309887426420e-03 9.544123065055e-03 0.0 
0.0 0.0 0.0 
-6.702903826716e-05 4.373100605521e-05 0.0 
4.373100605521e-05 1.175330576685e-02 0.0 
0.0 0.0 0.0 
1.174167617402e-05 9.089392844890e-06 0.0 
9.089392844890e-06 9.197688826434e-05 0.0 
0.0 0.0 0.0 
-3.638126538289e-04 8.623924719317e-06 0.0 
8.623924719317e-06 8.333435209901e-03 0.0 
0.0 0.0 0.0 
1.192405296819e-04 2.443499583152e-05 0.0 
2.443499583152e-05 7.938411768112e-03 0.0 
0.0 0.0 0.0 
1.645596659665e-04 -6.158580405041e-05 0.0 
-6.158580405041e-05 1.336090159650e-03 0.0 
0.0 0.0 0.0 
2.723784317329e-04 1.072331693225e-03 0.0 
1.072331693225e-03 8.344160693629e-03 0.0 
0.0 0.0 0.0 
-3.054040936384e-04 6.909679595746e-04 0.0 
6.909679595746e-04 1.117125126052e-02 0.0 
0.0 0.0 0.0 
-1.270467332997e-04 1.648711928470e-04 0.0 
1.648711928470e-04 1.168751312292e-02 0.0 
0.0 0.0 0.0 
1.580403817802e-04 -3.088617859929e-05 0.0 
-3.088617859929e-05 1.278912861189e-03 0.0 
0.0 0.0 0.0 
-1.350791690427e-04 5.992392420335e-04 0.0 
5.992392420335e-04 1.493538256488e-03 0.0 
0.0 0.0 0.0 
4.996203867322e-04 5.557700792904e-05 0.0 
5.557700792904e-05 4.469528203600e-03 0.0 
0.0 0.0 0.0 
-2.160320355495e-04 5.372410805684e-05 0.0 
5.372410805684e-05 1.080935595467e-02 0.0 
0.0 0.0 0.0 
-9.006725837232e-04 -4.368978278917e-05 0.0 
-4.368978278917e-05 5.005207577857e-04 0.0 
0.0 0.0 0.0 
-9.944581989851e-05 5.009474306459e-04 0.0 
5.009474306459e-04 1.162451012164e-02 0.0 
0.0 0.0 0.0 
-3.021204185469e-04 3.027856178463e-05 0.0 
3.027856178463e-05 9.724419996898e-03 0.0 
0.0 0.0 0.0 
1.086273360495e-04 -1.980392772986e-04 0.0 
-1.980392772986e-04 1.311567033054e-03 0.0 
0.0 0.0 0.0 
-3.369032158098e-04 4.242544343864e-05 0.0 
4.242544343864e-05 9.445265952425e-03 0.0 
0.0 0.0 0.0 
-3.206679157175e-05 1.352018571043e-03 0.0 
1.352018571043e-03 9.925669713425e-03 0.0 
0.0 0.0 0.0 
5.065357418501e-04 -4.091809340963e-05 0.0 
-4.091809340963e-05 4.701641106504e-03 0.0 
0.0 0.0 0.0 
-6.105998621656e-04 5.077726183982e-04 0.0 
5.077726183982e-04 8.462787998793e-04 0.0 
0.0 0.0 0.0 
4.117813848996e-04 -1.548857012249e-05 0.0 
-1.548857012249e-05 2.737411177042e-03 0.0 
0.0 0.0 0.0 
5.220432709885e-04 2.877358325367e-05 0.0 
2.877358325367e-05 4.061715850108e-03 0.0 
0.0 0.0 0.0 
5.148238024364e-04 5.943825046240e-05 0.0 
5.943825046240e-05 4.903426401306e-03 0.0 
0.0 0.0 0.0 
6.271537474301e-05 1.240807664293e-03 0.0 
1.240807664293e-03 9.179662352988e-03 0.0 
0.0 0.0 0.0 
4.956756152539e-04 -2.795086492888e-05 0.0 
-2.795086492888e-05 3.954997660476e-03 0.0 
0.0 0.0 0.0 
5.218765778296e-04 2.506658867264e-05 0.0 
2.506658867264e-05 4.217534993372e-03 0.0 
0.0 0.0 0.0 
-3.272365235019e-05 -5.214858058981e-05 0.0 
-5.214858058981e-05 6.505657788605e-04 0.0 
0.0 0.0 0.0 
2.217028062552e-04 4.600098662277e-04 0.0 
4.600098662277e-04 7.697907595960e-03 0.0 
0.0 0.0 0.0 
-1.656591132225e-04 1.187294758061e-03 0.0 
1.187294758061e-03 9.912578718492e-03 0.0 
0.0 0.0 0.0 
1.518373408291e-04 6.553399320541e-04 0.0 
6.553399320541e-04 1.611085811705e-03 0.0 
0.0 0.0 0.0 
-4.971702998480e-05 1.801542720952e-05 0.0 
1.801542720952e-05 1.174104798796e-02 0.0 
0.0 0.0 0.0 
9.988743300737e-05 7.427195076562e-05 0.0 
7.427195076562e-05 7.924030703608e-03 0.0 
0.0 0.0 0.0 
-3.624447157344e-04 -2.069822127751e-05 0.0 
-2.069822127751e-05 8.661632623900e-03 0.0 
0.0 0.0 0.0 
-3.194431888297e-04 2.559709667273e-05 0.0 
2.559709667273e-05 9.723433338999e-03 0.0 
0.0 0.0 0.0 
5.059903141720e-04 3.050168868875e-05 0.0 
3.050168868875e-05 3.948445475330e-03 0.0 
0.0 0.0 0.0 
5.148967958379e-04 -1.402943150762e-05 0.0 
-1.402943150762e-05 4.083006395934e-03 0.0 
0.0 0.0 0.0 
4.968964574603e-04 2.497627359758e-06 0.0 
2.497627359758e-06 4.235936240367e-03 0.0 
0.0 0.0 0.0 
2.924627930345e-04 1.048169988113e-03 0.0 
1.048169988113e-03 8.078296410969e-03 0.0 
0.0 0.0 0.0 
8.375603838751e-05 -1.177410497858e-04 0.0 
-1.177410497858e-04 1.055057119803e-03 0.0 
0.0 0.0 0.0 
-2.060368623794e-04 1.194151307374e-03 0.0 
1.194151307374e-03 1.025668827492e-02 0.0 
0.0 0.0 0.0 
-3.437553439773e-04 2.449835714085e-05 0.0 
2.449835714085e-05 9.022917718816e-03 0.0 
0.0 0.0 0.0 
-1.871181757606e-04 4.577188673614e-04 0.0 
4.577188673614e-04 1.161412687286e-02 0.0 
0.0 0.0 0.0 
2.436247950726e-04 9.779469817811e-04 0.0 
9.779469817811e-04 8.069745142871e-03 0.0 
0.0 0.0 0.0 
-3.538055394658e-04 2.710648812547e-05 0.0 
2.710648812547e-05 9.453526266709e-03 0.0 
0.0 0.0 0.0 
-2.556228085662e-04 1.012164814134e-03 0.0 
1.012164814134e-03 1.052641135567e-02 0.0 
0.0 0.0 0.0 
1.012240638840e-04 1.259977422168e-03 0.0 
1.259977422168e-03 9.171645861531e-03 0.0 
0.0 0.0 0.0 
5.038927625423e-05 1.353751586949e-03 0.0 
1.353751586949e-03 9.554500341426e-03 0.0 
0.0 0.0 0.0 
-4.174490712789e-04 5.804590719136e-04 0.0 
5.804590719136e-04 7.344117379378e-04 0.0 
0.0 0.0 0.0 
-3.115782286954e-04 1.001333917508e-03 0.0 
1.001333917508e-03 1.052778497467e-02 0.0 
0.0 0.0 0.0 
-2.251712523531e-04 1.118853486943e-03 0.0 
1.118853486943e-03 1.060650964429e-02 0.0 
0.0 0.0 0.0 
-2.570517271971e-05 -1.089303987908e-04 0.0 
-1.089303987908e-04 6.810679390690e-04 0.0 
0.0 0.0 0.0 
4.946260138656e-04 -2.517990314298e-05 0.0 
-2.517990314298e-05 3.741523362999e-03 0.0 
0.0 0.0 0.0 
-5.140508953888e-04 4.046566278075e-04 0.0 
4.046566278075e-04 8.583059555605e-04 0.0 
0.0 0.0 0.0 
-2.838255852933e-04 1.031901620881e-03 0.0 
1.031901620881e-03 1.079187763297e-02 0.0 
0.0 0.0 0.0 
-3.614292074741e-04 3.381905383039e-06 0.0 
3.381905383039e-06 5.856893988772e-03 0.0 
0.0 0.0 0.0 
-3.385859766519e-04 1.802362364881e-05 0.0 
1.802362364881e-05 5.807983700298e-03 0.0 
0.0 0.0 0.0 
-3.513382454671e-04 4.640142303625e-06 0.0 
4.640142303625e-06 5.806844025680e-03 0.0 
0.0 0.0 0.0 
-3.374273154952e-04 1.044213476244e-06 0.0 
1.044213476244e-06 5.801411220823e-03 0.0 
0.0 0.0 0.0 
-3.449199882823e-04 -2.013910858494e-06 0.0 
-2.013910858494e-06 5.801044203686e-03 0.0 
0.0 0.0 0.0 
-3.367027709753e-04 -4.800110367429e-06 0.0 
-4.800110367429e-06 5.799281776263e-03 0.0 
0.0 0.0 0.0 
-3.390883569505e-04 -6.514013891686e-06 0.0 
-6.514013891686e-06 5.799001744542e-03 0.0 
0.0 0.0 0.0 
-3.311952933089e-04 -8.762548385598e-06 0.0 
-8.762548385598e-06 5.796739566910e-03 0.0 
0.0 0.0 0.0 
-3.322944004986e-04 -9.447526301398e-06 0.0 
-9.447526301398e-06 5.796603644338e-03 0.0 
0.0 0.0 0.0 
-3.215424800946e-04 -1.210495238897e-05 0.0 
-1.210495238897e-05 5.793095258400e-03 0.0 
0.0 0.0 0.0 
-3.239149807718e-04 -1.160522652181e-05 0.0 
-1.160522652181e-05 5.793265985576e-03 0.0 
0.0 0.0 0.0 
-3.081892304406e-04 -1.523076349941e-05 0.0 
-1.523076349941e-05 5.788109823204e-03 0.0 
0.0 0.0 0.0 
-3.136711982856e-04 -1.343761464261e-05 0.0 
-1.343761464261e-05 5.788782509541e-03 0.0 
0.0 0.0 0.0 
-2.913340317630e-04 -1.835193983834e-05 0.0 
-1.835193983834e-05 5.781658507852e-03 0.0 
0.0 0.0 0.0 
-3.014323936948e-04 -1.510349954591e-05 0.0 
-1.510349954591e-05 5.783093832624e-03 0.0 
0.0 0.0 0.0 
-2.709655419529e-04 -2.153108552803e-05 0.0 
-2.153108552803e-05 5.773722557883e-03 0.0 
0.0 0.0 0.0 
-2.872640795267e-04 -1.667659265502e-05 0.0 
-1.667659265502e-05 5.776246046372e-03 0.0 
0.0 0.0 0.0 
-2.469709033989e-04 -2.478699371247e-05 0.0 
-2.478699371247e-05 5.764261968887e-03 0.0 
0.0 0.0 0.0 
-1.388948058139e-04 1.704878414213e-04 0.0 
1.704878414213e-04 5.698207645883e-03 0.0 
0.0 0.0 0.0 
-2.712558122809e-04 -1.818042873655e-05 0.0 
-1.818042873655e-05 5.768282068445e-03 0.0 
0.0 0.0 0.0 
-2.191925281734e-04 -2.810991469498e-05 0.0 
-2.810991469498e-05 5.753251549426e-03 0.0 
0.0 0.0 0.0 
-2.535615530478e-04 -1.962572893913e-05 0.0 
-1.962572893913e-05 5.759274539971e-03 0.0 
0.0 0.0 0.0 
1.592697987904e-04 3.155950279381e-06 0.0 
3.155950279381e-06 5.449388250664e-03 0.0 
0.0 0.0 0.0 
-1.874852714143e-04 -3.145778265360e-05 0.0 
-3.145778265360e-05 5.740667017500e-03 0.0 
0.0 0.0 0.0 
-3.398155265550e-04 1.392566517417e-04 0.0 
1.392566517417e-04 5.779669015748e-03 0.0 
0.0 0.0 0.0 
-2.343958050602e-04 -2.098262775568e-05 0.0 
-2.098262775568e-05 5.749324714973e-03 0.0 
0.0 0.0 0.0 
-1.517573642984e-04 -3.474841202418e-05 0.0 
-3.474841202418e-05 5.726545725866e-03 0.0 
0.0 0.0 0.0 
-2.141864896865e-04 -2.198131521125e-05 0.0 
-2.198131521125e-05 5.738747980109e-03 0.0 
0.0 0.0 0.0 
-1.119101317930e-04 -3.777793361247e-05 0.0 
-3.777793361247e-05 5.711231086957e-03 0.0 
0.0 0.0 0.0 
-1.940273884053e-04 -2.283061790608e-05 0.0 
-2.283061790608e-05 5.727935777375e-03 0.0 
0.0 0.0 0.0 
-6.828853079277e-05 -4.050771422823e-05 0.0 
-4.050771422823e-05 5.694656021489e-03 0.0 
0.0 0.0 0.0 
-1.748739232301e-04 -2.302738720505e-05 0.0 
-2.302738720505e-05 5.717389747666e-03 0.0 
0.0 0.0 0.0 
-2.139276514179e-05 -4.254649539365e-05 0.0 
-4.254649539365e-05 5.677569188272e-03 0.0 
0.0 0.0 0.0 
-5.109946593045e-04 4.597734104086e-04 0.0 
4.597734104086e-04 5.924552938535e-03 0.0 
0.0 0.0 0.0 
-1.588706142639e-04 -2.356431176171e-05 0.0 
-2.356431176171e-05 5.707406666382e-03 0.0 
0.0 0.0 0.0 
2.707727282214e-05 -4.388457522037e-05 0.0 
-4.388457522037e-05 5.659123249496e-03 0.0 
0.0 0.0 0.0 
-1.471603158267e-04 -2.148022233197e-05 0.0 
-2.148022233197e-05 5.699480088360e-03 0.0 
0.0 0.0 0.0 
7.600927901774e-05 -4.279534778744e-05 0.0 
-4.279534778744e-05 5.642742281562e-03 0.0 
0.0 0.0 0.0 
1.209820976433e-04 -3.948537715258e-05 0.0 
-3.948537715258e-05 5.623333582907e-03 0.0 
0.0 0.0 0.0 
-1.465099427994e-04 -2.104205544030e-05 0.0 
-2.104205544030e-05 5.693838538649e-03 0.0 
0.0 0.0 0.0 
1.584331260827e-04 -2.682091708989e-05 0.0 
-2.682091708989e-05 5.613622264013e-03 0.0 
0.0 0.0 0.0 
-1.554857773273e-04 -9.980905284958e-06 0.0 
-9.980905284958e-06 5.694873620567e-03 0.0 
0.0 0.0 0.0 
1.744961066326e-04 -2.668856221054e-06 0.0 
-2.668856221054e-06 5.588458207737e-03 0.0 
0.0 0.0 0.0 
1.462650058963e-04 6.749651351042e-05 0.0 
6.749651351042e-05 5.599846001813e-03 0.0 
0.0 0.0 0.0 
-1.952922613431e-04 -4.615561550943e-06 0.0 
-4.615561550943e-06 5.699798071746e-03 0.0 
0.0 0.0 0.0 
-2.152150853686e-04 4.935327071833e-05 0.0 
4.935327071833e-05 5.717177198719e-03 0.0 
0.0 0.0 0.0 
-4.009876477680e-04 7.294794851202e-05 0.0 
7.294794851202e-05 5.861829199643e-03 0.0 
0.0 0.0 0.0 
-3.743919918394e-04 -5.441559921829e-05 0.0 
-5.441559921829e-05 5.808458677233e-03 0.0 
0.0 0.0 0.0 
-4.032105661892e-04 6.670883164656e-05 0.0 
6.670883164656e-05 5.859667078836e-03 0.0 
0.0 0.0 0.0 
-4.129445902439e-04 1.344279550729e-06 0.0 
1.344279550729e-06 5.736257880288e-03 0.0 
0.0 0.0 0.0 
-3.644416561391e-04 1.218518683402e-05 0.0 
1.218518683402e-05 5.929242148152e-03 0.0 
0.0 0.0 0.0 
-3.638262139971e-04 4.571761457260e-04 0.0 
4.571761457260e-04 5.468310643987e-03 0.0 
0.0 0.0 0.0 
-3.614292074741e-04 -1.830740473208e-05 0.0 
-1.830740473208e-05 6.200564878384e-03 0.0 
0.0 0.0 0.0 
-3.611846137104e-04 1.654041547246e-06 0.0 
1.654041547246e-06 6.238528205895e-03 0.0 
0.0 0.0 0.0 
-3.513382454671e-04 -5.943992997072e-06 0.0 
-5.943992997072e-06 6.239170291378e-03 0.0 
0.0 0.0 0.0 
-3.571617966923e-04 -9.298215521596e-06 0.0 
-9.298215521596e-06 6.237988080560e-03 0.0 
0.0 0.0 0.0 
-3.449199882823e-04 -8.972938776057e-06 0.0 
-8.972938776057e-06 6.237893584975e-03 0.0 
0.0 0.0 0.0 
-3.531485823076e-04 -1.429752300087e-05 0.0 
-1.429752300087e-05 6.235030185361e-03 0.0 
0.0 0.0 0.0 
-3.390883569505e-04 -1.398582854478e-05 0.0 
-1.398582854478e-05 6.234869662126e-03 0.0 
0.0 0.0 0.0 
-3.494616681156e-04 -1.987338381950e-05 0.0 
-1.987338381950e-05 6.232615256442e-03 0.0 
0.0 0.0 0.0 
-3.322944004986e-04 -1.889793824336e-05 0.0 
-1.889793824336e-05 6.232200376171e-03 0.0 
0.0 0.0 0.0 
-3.457067800673e-04 -2.576283023280e-05 0.0 
-2.576283023280e-05 6.230403119456e-03 0.0 
0.0 0.0 0.0 
-3.239149807718e-04 -2.347883583613e-05 0.0 
-2.347883583613e-05 6.229436545883e-03 0.0 
0.0 0.0 0.0 
-3.415863616226e-04 -3.181159950297e-05 0.0 
-3.181159950297e-05 6.228009425959e-03 0.0 
0.0 0.0 0.0 
-3.136711982856e-04 -2.784287568146e-05 0.0 
-2.784287568146e-05 6.226155124852e-03 0.0 
0.0 0.0 0.0 
-3.367560009133e-04 -3.799803878901e-05 0.0 
-3.799803878901e-05 6.225130552439e-03 0.0 
0.0 0.0 0.0 
-3.014323936948e-04 -3.201106639126e-05 0.0 
-3.201106639126e-05 6.221979738384e-03 0.0 
0.0 0.0 0.0 
-3.312036222387e-04 -4.411553086262e-05 0.0 
-4.411553086262e-05 6.221768592270e-03 0.0 
0.0 0.0 0.0 
-2.872640795267e-04 -3.600840936787e-05 0.0 
-3.600840936787e-05 6.216914244657e-03 0.0 
0.0 0.0 0.0 
-3.521345520110e-04 1.825773398727e-04 0.0 
1.825773398727e-04 6.179865748663e-03 0.0 
0.0 0.0 0.0 
-3.251945634621e-04 -5.014680967371e-05 0.0 
-5.014680967371e-05 6.218016099750e-03 0.0 
0.0 0.0 0.0 
-2.712558122809e-04 -3.981095744872e-05 0.0 
-3.981095744872e-05 6.210973160642e-03 0.0 
0.0 0.0 0.0 
-4.530367018983e-04 1.265182342120e-04 0.0 
1.265182342120e-04 6.252079378264e-03 0.0 
0.0 0.0 0.0 
-3.190525137384e-04 -5.599001073449e-05 0.0 
-5.599001073449e-05 6.214023447843e-03 0.0 
0.0 0.0 0.0 
-2.535615530478e-04 -4.335420222867e-05 0.0 
-4.335420222867e-05 6.204235241589e-03 0.0 
0.0 0.0 0.0 
-3.130237307249e-04 -6.149585423439e-05 0.0 
-6.149585423439e-05 6.209902155548e-03 0.0 
0.0 0.0 0.0 
-2.343958050602e-04 -4.640380941098e-05 0.0 
-4.640380941098e-05 6.196677184488e-03 0.0 
0.0 0.0 0.0 
-3.075277462985e-04 -6.625523760731e-05 0.0 
-6.625523760731e-05 6.205832074857e-03 0.0 
0.0 0.0 0.0 
-2.152150853686e-04 1.368242192967e-04 0.0 
1.368242192967e-04 5.989065703674e-03 0.0 
0.0 0.0 0.0 
-2.141864896865e-04 -4.836057536224e-05 0.0 
-4.836057536224e-05 6.188262751420e-03 0.0 
0.0 0.0 0.0 
-3.031953249611e-04 -6.910076952711e-05 0.0 
-6.910076952711e-05 6.202481048073e-03 0.0 
0.0 0.0 0.0 
-1.940273884053e-04 -4.871149539844e-05 0.0 
-4.871149539844e-05 6.179958221691e-03 0.0 
0.0 0.0 0.0 
-3.026630746524e-04 -7.009256477018e-05 0.0 
-7.009256477018e-05 6.200478110469e-03 0.0 
0.0 0.0 0.0 
-1.748739232301e-04 -4.660237418088e-05 0.0 
-4.660237418088e-05 6.171570255051e-03 0.0 
0.0 0.0 0.0 
-3.053110374609e-04 -6.706936831470e-05 0.0 
-6.706936831470e-05 6.200353099576e-03 0.0 
0.0 0.0 0.0 
-1.588706142639e-04 -4.118364514567e-05 0.0 
-4.118364514567e-05 6.164628840205e-03 0.0 
0.0 0.0 0.0 
-3.170069349084e-04 -6.118131967072e-05 0.0 
-6.118131967072e-05 6.202265347788e-03 0.0 
0.0 0.0 0.0 
-1.471603158267e-04 -2.952149148418e-05 0.0 
-2.952149148418e-05 6.155667217264e-03 0.0 
0.0 0.0 0.0 
-3.315415586927e-04 -4.286454617154e-05 0.0 
-4.286454617154e-05 6.207738666009e-03 0.0 
0.0 0.0 0.0 
-4.803123402234e-04 3.161912442373e-04 0.0 
3.161912442373e-04 6.281684299674e-03 0.0 
0.0 0.0 0.0 
-3.687305571345e-04 -2.249063918372e-05 0.0 
-2.249063918372e-05 6.215472516502e-03 0.0 
0.0 0.0 0.0 
-1.465099427994e-04 -9.943642398241e-06 0.0 
-9.943642398241e-06 6.153642607316e-03 0.0 
0.0 0.0 0.0 
-3.829671970612e-04 3.854660933064e-05 0.0 
3.854660933064e-05 6.223033440540e-03 0.0 
0.0 0.0 0.0 
-1.554857773273e-04 2.746063072426e-05 0.0 
2.746063072426e-05 6.137827816452e-03 0.0 
0.0 0.0 0.0 
-1.952922613431e-04 9.335188325936e-05 0.0 
9.335188325936e-05 6.139899377064e-03 0.0 
0.0 0.0 0.0 
-4.287592041002e-04 1.555280409280e-04 0.0 
1.555280409280e-04 6.152870992244e-03 0.0 
0.0 0.0 0.0 
-3.765130908040e-04 -6.069506908724e-05 0.0 
-6.069506908724e-05 6.249688158451e-03 0.0 
0.0 0.0 0.0 
-3.473773540632e-04 5.111990458916e-05 0.0 
5.111990458916e-05 6.197539658958e-03 0.0 
0.0 0.0 0.0 
-3.591863662357e-04 -9.381925611479e-06 0.0 
-9.381925611479e-06 6.333501862014e-03 0.0 
0.0 0.0 0.0 
-3.644416561391e-04 1.413668720592e-06 0.0 
1.413668720592e-06 6.116618768224e-03 0.0 
0.0 0.0 0.0 
-3.398155265550e-04 3.323322518747e-04 0.0 
3.323322518747e-04 5.972904122042e-03 0.0 
0.0 0.0 0.0 
-3.622912211585e-04 -2.033720874865e-05 0.0 
-2.033720874865e-05 6.705253323391e-03 0.0 
0.0 0.0 0.0 
-3.611846137104e-04 -2.853099838455e-06 0.0 
-2.853099838455e-06 6.671034803239e-03 0.0 
0.0 0.0 0.0 
-3.629804286347e-04 -1.236674490172e-05 0.0 
-1.236674490172e-05 6.670087928271e-03 0.0 
0.0 0.0 0.0 
-3.571617966923e-04 -1.360544086718e-05 0.0 
-1.360544086718e-05 6.667400948851e-03 0.0 
0.0 0.0 0.0 
-3.619795452738e-04 -1.534211416627e-05 0.0 
-1.534211416627e-05 6.667167547692e-03 0.0 
0.0 0.0 0.0 
-3.531485823076e-04 -1.860362579358e-05 0.0 
-1.860362579358e-05 6.665885188618e-03 0.0 
0.0 0.0 0.0 
-3.613271355775e-04 -1.986956122372e-05 0.0 
-1.986956122372e-05 6.665713787065e-03 0.0 
0.0 0.0 0.0 
-3.494616681156e-04 -2.454535347311e-05 0.0 
-2.454535347311e-05 6.664811924975e-03 0.0 
0.0 0.0 0.0 
-3.611579516534e-04 -2.493224912337e-05 0.0 
-2.493224912337e-05 6.664897955492e-03 0.0 
0.0 0.0 0.0 
-3.457067800673e-04 -3.096809247937e-05 0.0 
-3.096809247937e-05 6.663995417726e-03 0.0 
0.0 0.0 0.0 
-3.616611619675e-04 -3.012735451976e-05 0.0 
-3.012735451976e-05 6.664606612706e-03 0.0 
0.0 0.0 0.0 
-3.415863616226e-04 -3.758196239384e-05 0.0 
-3.758196239384e-05 6.663243304711e-03 0.0 
0.0 0.0 0.0 
-3.627014509738e-04 -3.560624573481e-05 0.0 
-3.560624573481e-05 6.664581455152e-03 0.0 
0.0 0.0 0.0 
-3.367560009133e-04 -4.433514503145e-05 0.0 
-4.433514503145e-05 6.661942605986e-03 0.0 
0.0 0.0 0.0 
-3.640421379557e-04 -4.093899942262e-05 0.0 
-4.093899942262e-05 6.664392509708e-03 0.0 
0.0 0.0 0.0 
-3.312036222387e-04 -5.086134615176e-05 0.0 
-5.086134615176e-05 6.660048513632e-03 0.0 
0.0 0.0 0.0 
-4.741395367862e-04 1.328041665996e-04 0.0 
1.328041665996e-04 6.658278151377e-03 0.0 
0.0 0.0 0.0 
-3.656526387952e-04 -4.575006900167e-05 0.0 
-4.575006900167e-05 6.664092569809e-03 0.0 
0.0 0.0 0.0 
-3.251945634621e-04 -5.679912077087e-05 0.0 
-5.679912077087e-05 6.657908480083e-03 0.0 
0.0 0.0 0.0 
-3.829671970612e-04 1.111468213640e-04 0.0 
1.111468213640e-04 6.485797937278e-03 0.0 
0.0 0.0 0.0 
-3.687089763653e-04 -4.990808668590e-05 0.0 
-4.990808668590e-05 6.664073647926e-03 0.0 
0.0 0.0 0.0 
-3.190525137384e-04 -6.203565568221e-05 0.0 
-6.203565568221e-05 6.655557944795e-03 0.0 
0.0 0.0 0.0 
-5.263344061310e-04 1.054435985897e-04 0.0 
1.054435985897e-04 6.698687436723e-03 0.0 
0.0 0.0 0.0 
-3.731653715628e-04 -5.346276898570e-05 0.0 
-5.346276898570e-05 6.664365317343e-03 0.0 
0.0 0.0 0.0 
-3.130237307249e-04 -6.622599785525e-05 0.0 
-6.622599785525e-05 6.652764433741e-03 0.0 
0.0 0.0 0.0 
-3.791400010006e-04 -5.593550780360e-05 0.0 
-5.593550780360e-05 6.664889192088e-03 0.0 
0.0 0.0 0.0 
-3.075277462985e-04 -6.858403198402e-05 0.0 
-6.858403198402e-05 6.649336366173e-03 0.0 
0.0 0.0 0.0 
-3.874536665193e-04 -5.644166403473e-05 0.0 
-5.644166403473e-05 6.665671080655e-03 0.0 
0.0 0.0 0.0 
-3.031953249611e-04 -6.765236667769e-05 0.0 
-6.765236667769e-05 6.644645844771e-03 0.0 
0.0 0.0 0.0 
-5.431793499796e-04 2.297825786645e-04 0.0 
2.297825786645e-04 6.728317216039e-03 0.0 
0.0 0.0 0.0 
-3.979487793513e-04 -5.170327360557e-05 0.0 
-5.170327360557e-05 6.667417508075e-03 0.0 
0.0 0.0 0.0 
-3.026630746524e-04 -6.178478409841e-05 0.0 
-6.178478409841e-05 6.642798417782e-03 0.0 
0.0 0.0 0.0 
-4.160503801119e-04 -4.509838233969e-05 0.0 
-4.509838233969e-05 6.671258308921e-03 0.0 
0.0 0.0 0.0 
-3.053110374609e-04 -4.987448088295e-05 0.0 
-4.987448088295e-05 6.637123463809e-03 0.0 
0.0 0.0 0.0 
-3.170069349084e-04 -2.884971997061e-05 0.0 
-2.884971997061e-05 6.639043237275e-03 0.0 
0.0 0.0 0.0 
-4.356517069970e-04 -2.706900950803e-05 0.0 
-2.706900950803e-05 6.676222348024e-03 0.0 
0.0 0.0 0.0 
-3.315415586927e-04 6.228752257553e-06 0.0 
6.228752257553e-06 6.621459142975e-03 0.0 
0.0 0.0 0.0 
-4.703116622966e-04 -1.075253272763e-05 0.0 
-1.075253272763e-05 6.682116512808e-03 0.0 
0.0 0.0 0.0 
-3.687305571345e-04 6.671870499433e-05 0.0 
6.671870499433e-05 6.626339419383e-03 0.0 
0.0 0.0 0.0 
-4.773155559434e-04 4.151297412676e-05 0.0 
4.151297412676e-05 6.682734177094e-03 0.0 
0.0 0.0 0.0 
-5.119259225379e-04 1.288361183394e-04 0.0 
1.288361183394e-04 6.583145107319e-03 0.0 
0.0 0.0 0.0 
-3.434211973652e-04 -5.997494150581e-05 0.0 
-5.997494150581e-05 6.648615375749e-03 0.0 
0.0 0.0 0.0 
-3.770190290661e-04 5.010360370979e-05 0.0 
5.010360370979e-05 6.708784568892e-03 0.0 
0.0 0.0 0.0 
-3.591863662357e-04 -1.017143410865e-05 0.0 
-1.017143410865e-05 6.566485299982e-03 0.0 
0.0 0.0 0.0 
-3.617111079602e-04 2.302857866453e-06 0.0 
2.302857866453e-06 6.787443930785e-03 0.0 
0.0 0.0 0.0 
-4.530367018983e-04 2.473632482728e-04 0.0 
2.473632482728e-04 6.449895672225e-03 0.0 
0.0 0.0 0.0 
-3.622912211585e-04 -2.073663995233e-05 0.0 
-2.073663995233e-05 7.058970617530e-03 0.0 
0.0 0.0 0.0 
-3.666219746358e-04 -2.311249177986e-06 0.0 
-2.311249177986e-06 7.097887365014e-03 0.0 
0.0 0.0 0.0 
-3.629804286347e-04 -1.434378874621e-05 0.0 
-1.434378874621e-05 7.099081515106e-03 0.0 
0.0 0.0 0.0 
-3.672482973683e-04 -1.526340395441e-05 0.0 
-1.526340395441e-05 7.101031922156e-03 0.0 
0.0 0.0 0.0 
-3.619795452738e-04 -1.661884265852e-05 0.0 
-1.661884265852e-05 7.101205601231e-03 0.0 
0.0 0.0 0.0 
-3.695575417552e-04 -1.965601348110e-05 0.0 
-1.965601348110e-05 7.101876870901e-03 0.0 
0.0 0.0 0.0 
-3.613271355775e-04 -2.058504744324e-05 0.0 
-2.058504744324e-05 7.101980373631e-03 0.0 
0.0 0.0 0.0 
-3.717571675600e-04 -2.479964983640e-05 0.0 
-2.479964983640e-05 7.102590312680e-03 0.0 
0.0 0.0 0.0 
-3.611579516534e-04 -2.495116559379e-05 0.0 
-2.495116559379e-05 7.102462578870e-03 0.0 
0.0 0.0 0.0 
-3.757929204024e-04 -3.021921031804e-05 0.0 
-3.021921031804e-05 7.104080667761e-03 0.0 
0.0 0.0 0.0 
-3.616611619675e-04 -2.966268802464e-05 0.0 
-2.966268802464e-05 7.103595746508e-03 0.0 
0.0 0.0 0.0 
-3.805506747795e-04 -3.597787468059e-05 0.0 
-3.597787468059e-05 7.106032363183e-03 0.0 
0.0 0.0 0.0 
-3.627014509738e-04 -3.436688489737e-05 0.0 
-3.436688489737e-05 7.104921884280e-03 0.0 
0.0 0.0 0.0 
-3.876838279155e-04 -4.218678524938e-05 0.0 
-4.218678524938e-05 7.108398764960e-03 0.0 
0.0 0.0 0.0 
-3.640421379557e-04 -3.894996462964e-05 0.0 
-3.894996462964e-05 7.106158369114e-03 0.0 
0.0 0.0 0.0 
-5.515079807985e-04 9.935843587587e-05 0.0 
9.935843587587e-05 7.125267692963e-03 0.0 
0.0 0.0 0.0 
-3.942681024771e-04 -4.806223065290e-05 0.0 
-4.806223065290e-05 7.110188826719e-03 0.0 
0.0 0.0 0.0 
-5.686386739487e-04 7.872636458265e-05 0.0 
7.872636458265e-05 7.147305522489e-03 0.0 
0.0 0.0 0.0 
-3.656526387952e-04 -4.209239592235e-05 0.0 
-4.209239592235e-05 7.106053743241e-03 0.0 
0.0 0.0 0.0 
-4.036295388673e-04 -5.173865054541e-05 0.0 
-5.173865054541e-05 7.112946367598e-03 0.0 
0.0 0.0 0.0 
-3.687089763653e-04 -4.424574158421e-05 0.0 
-4.424574158421e-05 7.107017377961e-03 0.0 
0.0 0.0 0.0 
-4.156884252204e-04 -5.468666034233e-05 0.0 
-5.468666034233e-05 7.116571618567e-03 0.0 
0.0 0.0 0.0 
-3.731653715628e-04 -4.523640831916e-05 0.0 
-4.523640831916e-05 7.108158174022e-03 0.0 
0.0 0.0 0.0 
-4.291863202154e-04 -5.622661036172e-05 0.0 
-5.622661036172e-05 7.120222156003e-03 0.0 
0.0 0.0 0.0 
-4.773155559434e-04 9.631788925045e-05 0.0 
9.631788925045e-05 6.956418543801e-03 0.0 
0.0 0.0 0.0 
-3.791400010006e-04 -4.385641221290e-05 0.0 
-4.385641221290e-05 7.108295868385e-03 0.0 
0.0 0.0 0.0 
-4.456410487780e-04 -5.461944145721e-05 0.0 
-5.461944145721e-05 7.124065318800e-03 0.0 
0.0 0.0 0.0 
-3.874536665193e-04 -3.910502368794e-05 0.0 
-3.910502368794e-05 7.107834905000e-03 0.0 
0.0 0.0 0.0 
-4.659521807616e-04 -4.966028229216e-05 0.0 
-4.966028229216e-05 7.127278691084e-03 0.0 
0.0 0.0 0.0 
-3.979487793513e-04 -2.781343010951e-05 0.0 
-2.781343010951e-05 7.103655477885e-03 0.0 
0.0 0.0 0.0 
-4.853324406227e-04 -3.228253359665e-05 0.0 
-3.228253359665e-05 7.132203341212e-03 0.0 
0.0 0.0 0.0 
-4.160503801119e-04 -1.046941684464e-05 0.0 
-1.046941684464e-05 7.106100713891e-03 0.0 
0.0 0.0 0.0 
-5.209477452656e-04 -1.623784436600e-05 0.0 
-1.623784436600e-05 7.136941652323e-03 0.0 
0.0 0.0 0.0 
-5.300543839755e-04 2.793454927538e-05 0.0 
2.793454927538e-05 7.137913750250e-03 0.0 
0.0 0.0 0.0 
-4.356517069970e-04 1.832147548997e-05 0.0 
1.832147548997e-05 7.095646830318e-03 0.0 
0.0 0.0 0.0 
-5.836233065909e-04 1.711006199392e-04 0.0 
1.711006199392e-04 7.176077565584e-03 0.0 
0.0 0.0 0.0 
-4.703116622966e-04 6.148948082763e-05 0.0 
6.148948082763e-05 7.098601029330e-03 0.0 
0.0 0.0 0.0 
-5.577971549154e-04 9.918740303289e-05 0.0 
9.918740303289e-05 7.012575911072e-03 0.0 
0.0 0.0 0.0 
-3.794509445786e-04 -5.922775739897e-05 0.0 
-5.922775739897e-05 7.112139672852e-03 0.0 
0.0 0.0 0.0 
-3.477673770492e-04 5.071266370769e-05 0.0 
5.071266370769e-05 7.055389074944e-03 0.0 
0.0 0.0 0.0 
-3.650637177521e-04 -9.108734695684e-06 0.0 
-9.108734695684e-06 7.196194909622e-03 0.0 
0.0 0.0 0.0 
-3.617111079602e-04 2.571018930092e-06 0.0 
2.571018930092e-06 6.974768126825e-03 0.0 
0.0 0.0 0.0 
-5.263344061310e-04 1.868939081332e-04 0.0 
1.868939081332e-04 6.927268849860e-03 0.0 
0.0 0.0 0.0 
-3.715485968599e-04 -1.961634535905e-05 0.0 
-1.961634535905e-05 7.568263081193e-03 0.0 
0.0 0.0 0.0 
-3.666219746358e-04 -1.735603731047e-06 0.0 
-1.735603731047e-06 7.530241147852e-03 0.0 
0.0 0.0 0.0 
-3.694158389377e-04 -1.326475924153e-05 0.0 
-1.326475924153e-05 7.528894443966e-03 0.0 
0.0 0.0 0.0 
-3.672482973683e-04 -1.369314699827e-05 0.0 
-1.369314699827e-05 7.527873712083e-03 0.0 
0.0 0.0 0.0 
-3.737066771191e-04 -1.310182266550e-05 0.0 
-1.310182266550e-05 7.528028344939e-03 0.0 
0.0 0.0 0.0 
-3.695575417552e-04 -1.659350931900e-05 0.0 
-1.659350931900e-05 7.530959849217e-03 0.0 
0.0 0.0 0.0 
-3.800831657526e-04 -1.700138236774e-05 0.0 
-1.700138236774e-05 7.531009562465e-03 0.0 
0.0 0.0 0.0 
-3.717571675600e-04 -2.093243407268e-05 0.0 
-2.093243407268e-05 7.531658238487e-03 0.0 
0.0 0.0 0.0 
-3.846227535100e-04 -1.875133876384e-05 0.0 
-1.875133876384e-05 7.532577972097e-03 0.0 
0.0 0.0 0.0 
-3.757929204024e-04 -2.405149444121e-05 0.0 
-2.405149444121e-05 7.535319241347e-03 0.0 
0.0 0.0 0.0 
-3.944238295189e-04 -2.219091187725e-05 0.0 
-2.219091187725e-05 7.536556118866e-03 0.0 
0.0 0.0 0.0 
-3.805506747795e-04 -2.811071513104e-05 0.0 
-2.811071513104e-05 7.537209431122e-03 0.0 
0.0 0.0 0.0 
-4.030701737475e-04 -2.348890171917e-05 0.0 
-2.348890171917e-05 7.540067076996e-03 0.0 
0.0 0.0 0.0 
-5.898578152194e-04 7.886310284165e-05 0.0 
7.886310284165e-05 7.578125752105e-03 0.0 
0.0 0.0 0.0 
-3.876838279155e-04 -3.096606613989e-05 0.0 
-3.096606613989e-05 7.542505188511e-03 0.0 
0.0 0.0 0.0 
-4.171778081771e-04 -2.846622013990e-05 0.0 
-2.846622013990e-05 7.545314471346e-03 0.0 
0.0 0.0 0.0 
-5.300543839755e-04 8.000516763184e-05 0.0 
8.000516763184e-05 7.414852742216e-03 0.0 
0.0 0.0 0.0 
-3.942681024771e-04 -3.465734724470e-05 0.0 
-3.465734724470e-05 7.542032767204e-03 0.0 
0.0 0.0 0.0 
-4.295338498611e-04 -2.781783408563e-05 0.0 
-2.781783408563e-05 7.548124728783e-03 0.0 
0.0 0.0 0.0 
-5.857588513591e-04 7.449634946924e-05 0.0 
7.449634946924e-05 7.581467764512e-03 0.0 
0.0 0.0 0.0 
-4.036295388673e-04 -3.468341333168e-05 0.0 
-3.468341333168e-05 7.544909972894e-03 0.0 
0.0 0.0 0.0 
-4.469650026379e-04 -2.609974478259e-05 0.0 
-2.609974478259e-05 7.553707932223e-03 0.0 
0.0 0.0 0.0 
-4.156884252204e-04 -3.318800728548e-05 0.0 
-3.318800728548e-05 7.548985382998e-03 0.0 
0.0 0.0 0.0 
-4.662303019204e-04 -2.484566832430e-05 0.0 
-2.484566832430e-05 7.559673649967e-03 0.0 
0.0 0.0 0.0 
-4.291863202154e-04 -2.943441482677e-05 0.0 
-2.943441482677e-05 7.550102263824e-03 0.0 
0.0 0.0 0.0 
-6.054896142411e-04 1.392994620371e-04 0.0 
1.392994620371e-04 7.618901776407e-03 0.0 
0.0 0.0 0.0 
-4.869552012414e-04 -1.920816357904e-05 0.0 
-1.920816357904e-05 7.564516917698e-03 0.0 
0.0 0.0 0.0 
-4.456410487780e-04 -2.082948520854e-05 0.0 
-2.082948520854e-05 7.550758877945e-03 0.0 
0.0 0.0 0.0 
-4.659521807616e-04 -7.254379828181e-06 0.0 
-7.254379828181e-06 7.551754868881e-03 0.0 
0.0 0.0 0.0 
-5.122509286523e-04 -8.852685605911e-06 0.0 
-8.852685605911e-06 7.569655556613e-03 0.0 
0.0 0.0 0.0 
-4.853324406227e-04 1.655004625445e-05 0.0 
1.655004625445e-05 7.536352854596e-03 0.0 
0.0 0.0 0.0 
-5.446598823959e-04 1.186389759926e-06 0.0 
1.186389759926e-06 7.572050995319e-03 0.0 
0.0 0.0 0.0 
-5.209477452656e-04 5.469719661072e-05 0.0 
5.469719661072e-05 7.548480635215e-03 0.0 
0.0 0.0 0.0 
-5.508282178279e-04 4.135243024603e-05 0.0 
4.135243024603e-05 7.570985191566e-03 0.0 
0.0 0.0 0.0 
-5.865696539338e-04 8.377218767632e-05 0.0 
8.377218767632e-05 7.451597060127e-03 0.0 
0.0 0.0 0.0 
-3.475247532418e-04 -5.727557459587e-05 0.0 
-5.727557459587e-05 7.508080126263e-03 0.0 
0.0 0.0 0.0 
-3.835603095814e-04 5.298119012303e-05 0.0 
5.298119012303e-05 7.572543915208e-03 0.0 
0.0 0.0 0.0 
-3.650637177521e-04 -7.610951466946e-06 0.0 
-7.610951466946e-06 7.428194761254e-03 0.0 
0.0 0.0 0.0 
-3.665818478534e-04 5.713195277782e-06 0.0 
5.713195277782e-06 7.648305018679e-03 0.0 
0.0 0.0 0.0 
-5.686386739487e-04 1.450703412624e-04 0.0 
1.450703412624e-04 7.385816161544e-03 0.0 
0.0 0.0 0.0 
-3.715485968599e-04 -2.144029367099e-05 0.0 
-2.144029367099e-05 7.928897108371e-03 0.0 
0.0 0.0 0.0 
-3.623325965108e-04 -3.669153990021e-06 0.0 
-3.669153990021e-06 7.954185011130e-03 0.0 
0.0 0.0 0.0 
-3.694158389377e-04 -8.142852615094e-06 0.0 
-8.142852615094e-06 7.954735838104e-03 0.0 
0.0 0.0 0.0 
-3.721610598365e-04 -6.730770363441e-06 0.0 
-6.730770363441e-06 7.959592954602e-03 0.0 
0.0 0.0 0.0 
-3.737066771191e-04 -7.890152335217e-06 0.0 
-7.890152335217e-06 7.959809584773e-03 0.0 
0.0 0.0 0.0 
-3.782721998391e-04 -6.796595131435e-06 0.0 
-6.796595131435e-06 7.965293864310e-03 0.0 
0.0 0.0 0.0 
-3.800831657526e-04 -1.124773058269e-05 0.0 
-1.124773058269e-05 7.966366255569e-03 0.0 
0.0 0.0 0.0 
-3.830988217869e-04 -1.302663338310e-05 0.0 
-1.302663338310e-05 7.965525572527e-03 0.0 
0.0 0.0 0.0 
-3.846227535100e-04 -9.674929465226e-06 0.0 
-9.674929465226e-06 7.964572734258e-03 0.0 
0.0 0.0 0.0 
-3.928607743661e-04 -8.798327745427e-06 0.0 
-8.798327745427e-06 7.971603580303e-03 0.0 
0.0 0.0 0.0 
-3.944238295189e-04 -1.108899480542e-05 0.0 
-1.108899480542e-05 7.972460727488e-03 0.0 
0.0 0.0 0.0 
-4.066833312302e-04 -1.393110336692e-05 0.0 
-1.393110336692e-05 7.975677912117e-03 0.0 
0.0 0.0 0.0 
-6.038828133206e-04 7.410808178288e-05 0.0 
7.410808178288e-05 8.020698626359e-03 0.0 
0.0 0.0 0.0 
-4.030701737475e-04 -9.800028440430e-06 0.0 
-9.800028440430e-06 7.973823728397e-03 0.0 
0.0 0.0 0.0 
-5.914130075018e-04 7.475765604091e-05 0.0 
7.475765604091e-05 8.017698391020e-03 0.0 
0.0 0.0 0.0 
-4.131941788789e-04 -8.698449792774e-06 0.0 
-8.698449792774e-06 7.981428761720e-03 0.0 
0.0 0.0 0.0 
-4.171778081771e-04 -8.826733117959e-06 0.0 
-8.826733117959e-06 7.981709677294e-03 0.0 
0.0 0.0 0.0 
-4.396669613423e-04 -1.385898562746e-05 0.0 
-1.385898562746e-05 7.986468233926e-03 0.0 
0.0 0.0 0.0 
-4.295338498611e-04 -4.697353881996e-06 0.0 
-4.697353881996e-06 7.980907939243e-03 0.0 
0.0 0.0 0.0 
-4.596318362220e-04 -6.819639299320e-06 0.0 
-6.819639299320e-06 7.992908692140e-03 0.0 
0.0 0.0 0.0 
-4.469650026379e-04 5.070737519111e-08 0.0 
5.070737519111e-08 7.987771564896e-03 0.0 
0.0 0.0 0.0 
-4.780210742655e-04 -1.968198272449e-06 0.0 
-1.968198272449e-06 7.999251749554e-03 0.0 
0.0 0.0 0.0 
-5.508282178279e-04 8.587962322549e-05 0.0 
8.587962322549e-05 7.859485237421e-03 0.0 
0.0 0.0 0.0 
-4.662303019204e-04 7.647927670252e-06 0.0 
7.647927670252e-06 7.991795395181e-03 0.0 
0.0 0.0 0.0 
-5.029059721138e-04 5.062563231108e-06 0.0 
5.062563231108e-06 8.003805186857e-03 0.0 
0.0 0.0 0.0 
-4.869552012414e-04 2.078425851776e-05 0.0 
2.078425851776e-05 7.990720572363e-03 0.0 
0.0 0.0 0.0 
-5.275285633721e-04 2.129838785870e-05 0.0 
2.129838785870e-05 8.006833919598e-03 0.0 
0.0 0.0 0.0 
-5.562202077402e-04 4.647014627608e-05 0.0 
4.647014627608e-05 8.010830888133e-03 0.0 
0.0 0.0 0.0 
-5.122509286523e-04 4.118202742994e-05 0.0 
4.118202742994e-05 7.989395288419e-03 0.0 
0.0 0.0 0.0 
-5.446598823959e-04 6.573070050138e-05 0.0 
6.573070050138e-05 7.993009200083e-03 0.0 
0.0 0.0 0.0 
-6.038837339564e-04 1.255847521440e-04 0.0 
1.255847521440e-04 8.054743054050e-03 0.0 
0.0 0.0 0.0 
-5.867123563597e-04 8.388315181929e-05 0.0 
8.388315181929e-05 7.879856166745e-03 0.0 
0.0 0.0 0.0 
-3.796935713081e-04 -5.075848252609e-05 0.0 
-5.075848252609e-05 7.960662840589e-03 0.0 
0.0 0.0 0.0 
-3.593139517550e-04 5.903716185795e-05 0.0 
5.903716185795e-05 7.924152556799e-03 0.0 
0.0 0.0 0.0 
-3.720400362848e-04 1.800319108152e-06 0.0 
1.800319108152e-06 8.055478801860e-03 0.0 
0.0 0.0 0.0 
-3.665818478534e-04 8.598448927595e-06 0.0 
8.598448927595e-06 7.833088773956e-03 0.0 
0.0 0.0 0.0 
-5.857588513591e-04 1.274189342110e-04 0.0 
1.274189342110e-04 7.841256654063e-03 0.0 
0.0 0.0 0.0 

TENSORS element_materi_strain_plasti float
-4.741889373871e-04 2.342858306946e-04 0.0 
2.342858306946e-04 2.814002888893e-03 0.0 
0.0 0.0 -4.220722639049e-04 
-3.897703972720e-04 -2.636930979350e-04 0.0 
-2.636930979350e-04 2.518846771568e-03 0.0 
0.0 0.0 -4.303330772826e-04 
-1.259341393326e-03 -3.090507185477e-05 0.0 
-3.090507185477e-05 8.411433358411e-03 0.0 
0.0 0.0 -1.278236581085e-03 
-1.261464826866e-03 -1.747915258518e-04 0.0 
-1.747915258518e-04 8.480496286503e-03 0.0 
0.0 0.0 -1.255598393855e-03 
-7.983281552709e-04 2.303090028113e-04 0.0 
2.303090028113e-04 5.254489729699e-03 0.0 
0.0 0.0 -7.961861350945e-04 
-2.059346616286e-04 2.207607006017e-04 0.0 
2.207607006017e-04 1.009101900264e-03 0.0 
0.0 0.0 -1.793459522598e-04 
-7.878967474187e-04 2.695248863588e-04 0.0 
2.695248863588e-04 5.204562819075e-03 0.0 
0.0 0.0 -8.011023898636e-04 
-4.128254064944e-04 4.080923401224e-05 0.0 
4.080923401224e-05 2.687408780313e-03 0.0 
0.0 0.0 -4.045669272905e-04 
-8.029485881417e-04 -2.877766516214e-04 0.0 
-2.877766516214e-04 5.280709952101e-03 0.0 
0.0 0.0 -7.977904104816e-04 
-1.248589478216e-03 2.242094407416e-04 0.0 
2.242094407416e-04 8.399546616313e-03 0.0 
0.0 0.0 -1.253060141438e-03 
-8.734037686266e-04 1.480436446760e-04 0.0 
1.480436446760e-04 5.724300399011e-03 0.0 
0.0 0.0 -8.816510380685e-04 
-3.813204680076e-04 2.190974573020e-07 0.0 
2.190974573020e-07 2.153866306060e-03 0.0 
0.0 0.0 -3.735031833740e-04 
-1.251882997596e-03 2.259053558601e-04 0.0 
2.259053558601e-04 8.467796470942e-03 0.0 
0.0 0.0 -1.259187713256e-03 
-8.479147549375e-04 1.860153946805e-04 0.0 
1.860153946805e-04 5.638680799524e-03 0.0 
0.0 0.0 -8.526168115438e-04 
-1.288189434839e-03 -1.832848558744e-04 0.0 
-1.832848558744e-04 8.626562874010e-03 0.0 
0.0 0.0 -1.289538875031e-03 
-1.301181403367e-03 2.039645816312e-04 0.0 
2.039645816312e-04 8.626062176419e-03 0.0 
0.0 0.0 -1.285984941237e-03 
-7.889097476292e-04 4.689353054498e-06 0.0 
4.689353054498e-06 5.256085596916e-03 0.0 
0.0 0.0 -7.740676797406e-04 
-1.741032192830e-04 -1.984587543237e-04 0.0 
-1.984587543237e-04 9.106845467383e-04 0.0 
0.0 0.0 -1.826237857505e-04 
-3.103934600629e-04 -1.188849736468e-04 0.0 
-1.188849736468e-04 1.808737160777e-03 0.0 
0.0 0.0 -2.776016825098e-04 
-3.017260514233e-04 1.101242532993e-04 0.0 
1.101242532993e-04 1.644506395847e-03 0.0 
0.0 0.0 -3.031105466646e-04 
-1.236978180346e-03 -2.273342210413e-04 0.0 
-2.273342210413e-04 8.474882909105e-03 0.0 
0.0 0.0 -1.250388265701e-03 
-4.788832533263e-04 9.235771209212e-05 0.0 
9.235771209212e-05 2.938553769608e-03 0.0 
0.0 0.0 -4.811142067971e-04 
-5.153479436011e-04 -1.000310601358e-04 0.0 
-1.000310601358e-04 3.322116646267e-03 0.0 
0.0 0.0 -5.091556215902e-04 
-1.207914407075e-03 -1.521033174033e-04 0.0 
-1.521033174033e-04 8.119148175608e-03 0.0 
0.0 0.0 -1.210372970477e-03 
-9.004893154001e-04 2.196977328254e-04 0.0 
2.196977328254e-04 6.011080091783e-03 0.0 
0.0 0.0 -9.130988374533e-04 
-9.174590915307e-04 -1.450811372332e-04 0.0 
-1.450811372332e-04 6.162434229051e-03 0.0 
0.0 0.0 -9.179597371190e-04 
-7.131055436639e-04 -1.829825241457e-05 0.0 
-1.829825241457e-05 4.865076399380e-03 0.0 
0.0 0.0 -7.148082707961e-04 
-1.275014108034e-03 1.320223363471e-05 0.0 
1.320223363471e-05 8.706353732723e-03 0.0 
0.0 0.0 -1.266047838742e-03 
-9.084778585211e-04 -2.532626103826e-04 0.0 
-2.532626103826e-04 6.055345996359e-03 0.0 
0.0 0.0 -9.113908267906e-04 
-1.248671644075e-03 1.500744587119e-04 0.0 
1.500744587119e-04 8.319441606585e-03 0.0 
0.0 0.0 -1.237914324842e-03 
-2.162503473685e-04 3.355180743616e-05 0.0 
3.355180743616e-05 1.390767343688e-03 0.0 
0.0 0.0 -2.185975924268e-04 
-1.102777646679e-04 3.092462500308e-05 0.0 
3.092462500308e-05 6.008114765358e-04 0.0 
0.0 0.0 -1.059755802940e-04 
-1.291285801941e-03 5.563014948252e-05 0.0 
5.563014948252e-05 8.705630370944e-03 0.0 
0.0 0.0 -1.261301343383e-03 
-1.086169392383e-03 -1.843155554573e-04 0.0 
-1.843155554573e-04 7.250914267634e-03 0.0 
0.0 0.0 -1.090200430068e-03 
-1.229627234356e-03 -2.081816156675e-04 0.0 
-2.081816156675e-04 8.461501921680e-03 0.0 
0.0 0.0 -1.254989870190e-03 
-1.333928130876e-03 3.870959300371e-04 0.0 
3.870959300371e-04 8.918766405510e-03 0.0 
0.0 0.0 -1.314886350686e-03 
-1.319549054242e-03 -4.082653656671e-04 0.0 
-4.082653656671e-04 8.897494246722e-03 0.0 
0.0 0.0 -1.314653105918e-03 
-1.251043943053e-03 1.755104499557e-04 0.0 
1.755104499557e-04 8.438640087517e-03 0.0 
0.0 0.0 -1.264739017786e-03 
-7.261695585194e-04 -3.174047361397e-04 0.0 
-3.174047361397e-04 4.739951691414e-03 0.0 
0.0 0.0 -7.380763454960e-04 
-7.293562810949e-04 3.567993421673e-04 0.0 
3.567993421673e-04 4.808642079977e-03 0.0 
0.0 0.0 -7.371174501546e-04 
-5.783756129442e-04 -1.365848045621e-04 0.0 
-1.365848045621e-04 3.784424820314e-03 0.0 
0.0 0.0 -5.794556523337e-04 
-1.262877717034e-03 1.019690194500e-05 0.0 
1.019690194500e-05 8.450550888573e-03 0.0 
0.0 0.0 -1.280756488215e-03 
-3.226099019571e-04 2.179474137412e-04 0.0 
2.179474137412e-04 1.923375161646e-03 0.0 
0.0 0.0 -3.207852484642e-04 
-7.228265239816e-04 5.532830836335e-05 0.0 
5.532830836335e-05 4.629144605835e-03 0.0 
0.0 0.0 -7.350059072715e-04 
-1.225055898073e-03 -9.816574622214e-05 0.0 
-9.816574622214e-05 8.293394798268e-03 0.0 
0.0 0.0 -1.212858513926e-03 
-3.206551623609e-04 -1.904275671922e-04 0.0 
-1.904275671922e-04 1.917970267075e-03 0.0 
0.0 0.0 -3.198426158856e-04 
-1.782809379457e-04 -4.378063602815e-06 0.0 
-4.378063602815e-06 7.801372807209e-04 0.0 
0.0 0.0 -1.830859565219e-04 
-1.220501464306e-03 6.316947048485e-05 0.0 
6.316947048485e-05 8.106622909265e-03 0.0 
0.0 0.0 -1.234743356787e-03 
-9.829459878545e-05 4.583948434493e-06 0.0 
4.583948434493e-06 3.276774367732e-04 0.0 
0.0 0.0 -9.830693056618e-05 
-8.022047642295e-04 -1.811997065716e-04 0.0 
-1.811997065716e-04 5.439298518069e-03 0.0 
0.0 0.0 -8.229436299569e-04 
-5.489987759976e-04 -1.133059547326e-04 0.0 
-1.133059547326e-04 3.572814356686e-03 0.0 
0.0 0.0 -5.440916476828e-04 
-3.388458973027e-04 -7.042877961888e-05 0.0 
-7.042877961888e-05 2.248035829402e-03 0.0 
0.0 0.0 -3.443810396916e-04 
-3.074157494333e-04 -1.467796149718e-04 0.0 
-1.467796149718e-04 1.814374481458e-03 0.0 
0.0 0.0 -3.047895897720e-04 
-5.421593945536e-04 1.293548672114e-04 0.0 
1.293548672114e-04 3.418474043213e-03 0.0 
0.0 0.0 -5.489460876789e-04 
-1.266579725590e-03 -7.893235167104e-06 0.0 
-7.893235167104e-06 8.468672292321e-03 0.0 
0.0 0.0 -1.282189168212e-03 
-4.597210026087e-04 -1.452187243082e-04 0.0 
-1.452187243082e-04 2.937502524048e-03 0.0 
0.0 0.0 -4.512233509908e-04 
-3.611878323951e-04 1.444175472609e-04 0.0 
1.444175472609e-04 2.127268062759e-03 0.0 
0.0 0.0 -3.694212080277e-04 
-1.088084509005e-03 1.827090950975e-04 0.0 
1.827090950975e-04 7.290496234404e-03 0.0 
0.0 0.0 -1.087734043503e-03 
-2.215722591698e-04 2.179680801215e-05 0.0 
2.179680801215e-05 1.355906413413e-03 0.0 
0.0 0.0 -2.189683579105e-04 
-1.291565119731e-03 -2.058202376930e-04 0.0 
-2.058202376930e-04 8.638287399564e-03 0.0 
0.0 0.0 -1.285320035817e-03 
-9.406322495114e-05 -1.263405609948e-04 0.0 
-1.263405609948e-04 5.178868060056e-04 0.0 
0.0 0.0 -9.532668554595e-05 
-1.207108165930e-03 2.281727388557e-04 0.0 
2.281727388557e-04 8.099161405669e-03 0.0 
0.0 0.0 -1.210824713543e-03 
-5.507253245742e-04 2.263693422712e-04 0.0 
2.263693422712e-04 3.467321570737e-03 0.0 
0.0 0.0 -5.497085007362e-04 
-2.633068753573e-04 1.211642318687e-04 0.0 
1.211642318687e-04 1.594924151360e-03 0.0 
0.0 0.0 -2.769417647402e-04 
-1.253722868311e-03 -1.824681277037e-04 0.0 
-1.824681277037e-04 8.465445333241e-03 0.0 
0.0 0.0 -1.257478522087e-03 
-5.218987792326e-04 1.045965667427e-04 0.0 
1.045965667427e-04 3.169150320614e-03 0.0 
0.0 0.0 -5.137572693775e-04 
-6.027079853021e-05 4.538885378733e-05 0.0 
4.538885378733e-05 2.053936984274e-04 0.0 
0.0 0.0 -6.219552852736e-05 
-1.264974411680e-03 -7.934823425824e-05 0.0 
-7.934823425824e-05 8.671954395754e-03 0.0 
0.0 0.0 -1.261660853087e-03 
-2.446973118895e-04 -2.103372277075e-04 0.0 
-2.103372277075e-04 1.398643057908e-03 0.0 
0.0 0.0 -2.404310120911e-04 
-1.273528016320e-03 -3.786679226438e-06 0.0 
-3.786679226438e-06 8.448618323595e-03 0.0 
0.0 0.0 -1.282376455277e-03 
-9.491469453000e-04 -1.694945758870e-04 0.0 
-1.694945758870e-04 6.388198818832e-03 0.0 
0.0 0.0 -9.556290573178e-04 
-1.338499280800e-03 -4.782411066386e-06 0.0 
-4.782411066386e-06 8.836661036334e-03 0.0 
0.0 0.0 -1.338499280800e-03 
-1.237491500558e-03 1.679725136134e-06 0.0 
1.679725136134e-06 8.119391193773e-03 0.0 
0.0 0.0 -1.232909111256e-03 
-1.306267830690e-04 2.201659246920e-04 0.0 
2.201659246920e-04 5.612930774450e-04 0.0 
0.0 0.0 -1.295286970291e-04 
-4.862904107144e-04 1.519111044425e-04 0.0 
1.519111044425e-04 2.949318680170e-03 0.0 
0.0 0.0 -4.777371989943e-04 
-1.254133957623e-03 -1.731664304593e-04 0.0 
-1.731664304593e-04 8.495066883004e-03 0.0 
0.0 0.0 -1.262626981217e-03 
-1.278966520388e-03 -5.463065947739e-06 0.0 
-5.463065947739e-06 8.716306064884e-03 0.0 
0.0 0.0 -1.265352048664e-03 
-2.500278062254e-04 -1.904083940436e-04 0.0 
-1.904083940436e-04 1.447205075698e-03 0.0 
0.0 0.0 -2.510564503189e-04 
-2.134033531635e-04 -1.202880701253e-05 0.0 
-1.202880701253e-05 1.118917748560e-03 0.0 
0.0 0.0 -2.366757893512e-04 
-2.618885880878e-04 2.000957013545e-04 0.0 
2.000957013545e-04 1.434490946595e-03 0.0 
0.0 0.0 -2.525559601288e-04 
-2.561151872773e-04 2.173251173938e-04 0.0 
2.173251173938e-04 1.315804408785e-03 0.0 
0.0 0.0 -2.439992467140e-04 
-7.756433689863e-04 3.199927864604e-05 0.0 
3.199927864604e-05 4.983308918424e-03 0.0 
0.0 0.0 -7.918363975426e-04 
-4.925212314280e-04 -9.934539810259e-05 0.0 
-9.934539810259e-05 3.122416797223e-03 0.0 
0.0 0.0 -4.749402310763e-04 
-4.545793902690e-04 2.152694959795e-05 0.0 
2.152694959795e-05 2.617959458630e-03 0.0 
0.0 0.0 -4.438329512050e-04 
-8.539707940100e-04 -2.466642961344e-04 0.0 
-2.466642961344e-04 5.506675063211e-03 0.0 
0.0 0.0 -8.336771054075e-04 
-8.435305426983e-04 2.228252034013e-04 0.0 
2.228252034013e-04 5.474459253188e-03 0.0 
0.0 0.0 -8.358076868167e-04 
-9.896151407778e-04 -1.847277247936e-04 0.0 
-1.847277247936e-04 6.561076695027e-03 0.0 
0.0 0.0 -9.867109252839e-04 
-1.055581697673e-03 1.942475256944e-04 0.0 
1.942475256944e-04 7.096214809641e-03 0.0 
0.0 0.0 -1.058576829647e-03 
-1.087556198862e-03 -2.099876550133e-04 0.0 
-2.099876550133e-04 7.325766427452e-03 0.0 
0.0 0.0 -1.085941371602e-03 
-7.938707313230e-04 -2.935700947946e-04 0.0 
-2.935700947946e-04 5.166210845136e-03 0.0 
0.0 0.0 -7.983229688164e-04 
-9.891997245645e-05 3.705985749018e-05 0.0 
3.705985749018e-05 3.315907805062e-04 0.0 
0.0 0.0 -9.971606059273e-05 
-7.885073175136e-04 2.083610238614e-05 0.0 
2.083610238614e-05 5.061448418496e-03 0.0 
0.0 0.0 -7.928983479555e-04 
-1.080416093341e-03 -1.102030882250e-04 0.0 
-1.102030882250e-04 7.033104683541e-03 0.0 
0.0 0.0 -1.069439317440e-03 
-1.045886068578e-03 1.124481538710e-04 0.0 
1.124481538710e-04 7.095766026653e-03 0.0 
0.0 0.0 -1.046447409317e-03 
-1.328437641777e-03 -2.129776585030e-05 0.0 
-2.129776585030e-05 9.108372857470e-03 0.0 
0.0 0.0 -1.319970921405e-03 
-1.300424073257e-03 -1.489012867547e-04 0.0 
-1.489012867547e-04 8.723441004214e-03 0.0 
0.0 0.0 -1.294194962782e-03 
-7.712114504191e-04 -1.098703338913e-04 0.0 
-1.098703338913e-04 4.988523523052e-03 0.0 
0.0 0.0 -7.889745663688e-04 
-1.284794183645e-03 -1.672243708716e-06 0.0 
-1.672243708716e-06 8.719527791253e-03 0.0 
0.0 0.0 -1.263183913703e-03 
-8.948346215206e-04 -1.546261929542e-04 0.0 
-1.546261929542e-04 5.902983939671e-03 0.0 
0.0 0.0 -9.040008563810e-04 
-5.152734121650e-04 -1.377156700746e-04 0.0 
-1.377156700746e-04 3.387112186572e-03 0.0 
0.0 0.0 -5.198799001330e-04 
-7.537468891923e-04 -1.811454266392e-04 0.0 
-1.811454266392e-04 5.032849217033e-03 0.0 
0.0 0.0 -7.643292725053e-04 
-1.300051982580e-03 1.933815268577e-04 0.0 
1.933815268577e-04 8.643096299671e-03 0.0 
0.0 0.0 -1.287517816355e-03 
-1.042138929644e-03 -2.218801567961e-04 0.0 
-2.218801567961e-04 6.995297199161e-03 0.0 
0.0 0.0 -1.043751955586e-03 
-1.212978672895e-03 -2.149778667110e-04 0.0 
-2.149778667110e-04 8.151603330808e-03 0.0 
0.0 0.0 -1.209599240962e-03 
-4.772009659135e-04 -2.042000113292e-04 0.0 
-2.042000113292e-04 3.047489558792e-03 0.0 
0.0 0.0 -4.747543016519e-04 
-1.600906628411e-04 5.774618246661e-05 0.0 
5.774618246661e-05 1.025327310925e-03 0.0 
0.0 0.0 -1.624897275554e-04 
-1.185986913304e-03 -1.994673824885e-04 0.0 
-1.994673824885e-04 7.973913807476e-03 0.0 
0.0 0.0 -1.189902873528e-03 
-1.119764034804e-03 7.291963016848e-05 0.0 
7.291963016848e-05 7.561876066393e-03 0.0 
0.0 0.0 -1.108790581071e-03 
-1.060815689674e-04 -4.441233851537e-05 0.0 
-4.441233851537e-05 6.067820639570e-04 0.0 
0.0 0.0 -1.038131581323e-04 
-1.254593141611e-03 -8.600335574532e-05 0.0 
-8.600335574532e-05 8.491952788715e-03 0.0 
0.0 0.0 -1.285127980003e-03 
-1.054610615232e-03 1.830679382236e-04 0.0 
1.830679382236e-04 6.961937164299e-03 0.0 
0.0 0.0 -1.051491716222e-03 
-1.014932494026e-04 -1.696691582668e-04 0.0 
-1.696691582668e-04 3.826202340035e-04 0.0 
0.0 0.0 -1.013520483084e-04 
-6.301709070232e-04 2.090314443316e-04 0.0 
2.090314443316e-04 4.024350450833e-03 0.0 
0.0 0.0 -6.309931931857e-04 
-7.106440805021e-04 -1.470402379689e-04 0.0 
-1.470402379689e-04 4.709551499753e-03 0.0 
0.0 0.0 -7.153918394734e-04 
-5.826588176687e-04 -7.135686322073e-05 0.0 
-7.135686322073e-05 3.565625895428e-03 0.0 
0.0 0.0 -5.772375537024e-04 
-4.700128970004e-04 1.674991601262e-04 0.0 
1.674991601262e-04 2.986365482111e-03 0.0 
0.0 0.0 -4.852398935310e-04 
-5.464898507642e-04 -2.243214163868e-04 0.0 
-2.243214163868e-04 3.519571152392e-03 0.0 
0.0 0.0 -5.471823052058e-04 
-1.295684493703e-03 1.105875109316e-04 0.0 
1.105875109316e-04 8.547279304038e-03 0.0 
0.0 0.0 -1.283833066805e-03 
-8.570047827625e-04 1.861607891450e-04 0.0 
1.861607891450e-04 5.815261551137e-03 0.0 
0.0 0.0 -8.766975940251e-04 
-5.090056138741e-04 2.359482171436e-04 0.0 
2.359482171436e-04 3.233178911117e-03 0.0 
0.0 0.0 -5.122473358773e-04 
-2.401563577846e-04 -2.327182583627e-04 0.0 
-2.327182583627e-04 1.352155075276e-03 0.0 
0.0 0.0 -2.295267891405e-04 
-7.623542819022e-04 1.283036037405e-04 0.0 
1.283036037405e-04 5.225810972112e-03 0.0 
0.0 0.0 -7.744920945421e-04 
-1.103870852233e-03 -9.179179606017e-05 0.0 
-9.179179606017e-05 7.387674560017e-03 0.0 
0.0 0.0 -1.129288753466e-03 
-5.110192863145e-04 -2.509386708552e-04 0.0 
-2.509386708552e-04 3.262724462356e-03 0.0 
0.0 0.0 -5.109724225979e-04 
-1.701414425471e-04 -1.534722166071e-04 0.0 
-1.534722166071e-04 9.835208087659e-04 0.0 
0.0 0.0 -1.803716510945e-04 
-6.470086521654e-04 -1.523090755331e-04 0.0 
-1.523090755331e-04 4.254329431162e-03 0.0 
0.0 0.0 -6.470401313398e-04 
-5.812575166428e-04 7.210416783764e-05 0.0 
7.210416783764e-05 3.739643384108e-03 0.0 
0.0 0.0 -5.578851714504e-04 
-6.125337073477e-04 1.558115274756e-04 0.0 
1.558115274756e-04 3.923971555451e-03 0.0 
0.0 0.0 -6.167189930164e-04 
-1.291653437089e-03 1.656662026679e-04 0.0 
1.656662026679e-04 8.654933890924e-03 0.0 
0.0 0.0 -1.290671971449e-03 
-2.237296866694e-04 1.772304597235e-04 0.0 
1.772304597235e-04 1.151710267161e-03 0.0 
0.0 0.0 -2.092271396208e-04 
-9.141643905242e-04 1.684200684002e-04 0.0 
1.684200684002e-04 6.033430644026e-03 0.0 
0.0 0.0 -9.216843799351e-04 
-1.271942419784e-03 2.295590735456e-04 0.0 
2.295590735456e-04 8.471227576744e-03 0.0 
0.0 0.0 -1.256690274141e-03 
-6.609256603744e-04 1.763317732061e-04 0.0 
1.763317732061e-04 4.239720102404e-03 0.0 
0.0 0.0 -6.588732905211e-04 
-6.147586220519e-04 -1.550456399962e-04 0.0 
-1.550456399962e-04 4.029116054442e-03 0.0 
0.0 0.0 -6.139229799761e-04 
-1.241743830704e-03 2.520731219918e-04 0.0 
2.520731219918e-04 8.466488124430e-03 0.0 
0.0 0.0 -1.254964138299e-03 
-1.256064603940e-03 -2.623116581345e-04 0.0 
-2.623116581345e-04 8.488036362470e-03 0.0 
0.0 0.0 -1.261070974318e-03 
-9.903209289541e-04 1.774668260032e-04 0.0 
1.774668260032e-04 6.556735258886e-03 0.0 
0.0 0.0 -9.873713238705e-04 
-6.942353831373e-04 -1.750200192602e-04 0.0 
-1.750200192602e-04 4.553149239605e-03 0.0 
0.0 0.0 -6.916138708610e-04 
-1.272024970549e-03 7.302822811060e-05 0.0 
7.302822811060e-05 8.719688557752e-03 0.0 
0.0 0.0 -1.270330610962e-03 
-6.345922402826e-04 1.791748683913e-04 0.0 
1.791748683913e-04 4.059488016012e-03 0.0 
0.0 0.0 -6.326048069937e-04 
-1.254086704545e-03 -7.990901772481e-06 0.0 
-7.990901772481e-06 8.463054394802e-03 0.0 
0.0 0.0 -1.283174495648e-03 
-1.276280299661e-03 7.633372817429e-05 0.0 
7.633372817429e-05 8.703927362015e-03 0.0 
0.0 0.0 -1.267437373369e-03 
-8.565153591279e-04 -2.695301549172e-04 0.0 
-2.695301549172e-04 5.568894745570e-03 0.0 
0.0 0.0 -8.543707170918e-04 
-9.713226980400e-04 1.946342578751e-04 0.0 
1.946342578751e-04 6.532485670191e-03 0.0 
0.0 0.0 -9.817831382938e-04 
-6.315283379598e-04 -1.826998149000e-04 0.0 
-1.826998149000e-04 4.113094555245e-03 0.0 
0.0 0.0 -6.293189184696e-04 
-5.902450977428e-04 1.623031646130e-04 0.0 
1.623031646130e-04 3.689468477665e-03 0.0 
0.0 0.0 -5.830241378053e-04 
-7.249782629771e-04 1.809288523893e-04 0.0 
1.809288523893e-04 4.673091201127e-03 0.0 
0.0 0.0 -7.211932326589e-04 
-5.403888112139e-04 -1.689543050932e-04 0.0 
-1.689543050932e-04 3.513114326182e-03 0.0 
0.0 0.0 -5.383041810906e-04 
-7.661110268238e-04 -1.968496736506e-04 0.0 
-1.968496736506e-04 5.166653984338e-03 0.0 
0.0 0.0 -7.693993191400e-04 
-6.294182824657e-04 -2.163757471590e-04 0.0 
-2.163757471590e-04 4.099286379753e-03 0.0 
0.0 0.0 -6.275039421266e-04 
-9.046107145180e-05 -7.326081393818e-05 0.0 
-7.326081393818e-05 3.093039216746e-04 0.0 
0.0 0.0 -9.378979295261e-05 
-8.218888591145e-04 -1.362265050310e-05 0.0 
-1.362265050310e-05 5.568518320124e-03 0.0 
0.0 0.0 -8.171079392438e-04 
-2.708662158631e-04 3.135426371183e-06 0.0 
3.135426371183e-06 1.198400692882e-03 0.0 
0.0 0.0 -2.373169254524e-04 
-6.825469564227e-04 -1.538944897681e-04 0.0 
-1.538944897681e-04 4.493577698030e-03 0.0 
0.0 0.0 -6.809683978454e-04 
-1.266750237588e-03 4.200148413704e-06 0.0 
4.200148413704e-06 8.473073137795e-03 0.0 
0.0 0.0 -1.284796145094e-03 
-4.841925383156e-04 2.284371901656e-04 0.0 
2.284371901656e-04 3.002882293729e-03 0.0 
0.0 0.0 -4.767992880414e-04 
-1.020870051268e-03 2.043993854784e-04 0.0 
2.043993854784e-04 6.818231983257e-03 0.0 
0.0 0.0 -1.021089721936e-03 
-3.490407114895e-04 -2.220876940667e-04 0.0 
-2.220876940667e-04 2.148206482994e-03 0.0 
0.0 0.0 -3.540742325023e-04 
-1.043282338519e-03 2.368159947985e-04 0.0 
2.368159947985e-04 6.958410863996e-03 0.0 
0.0 0.0 -1.044905595188e-03 
-8.013630412541e-04 6.389824081770e-06 0.0 
6.389824081770e-06 5.002686662292e-03 0.0 
0.0 0.0 -7.899655494116e-04 
-5.947683694498e-04 2.081256616157e-04 0.0 
2.081256616157e-04 3.787155443009e-03 0.0 
0.0 0.0 -5.931463391684e-04 
-1.121794229525e-03 -2.159685184144e-04 0.0 
-2.159685184144e-04 7.508906289541e-03 0.0 
0.0 0.0 -1.120963572432e-03 
-2.180914166738e-04 1.756512204205e-04 0.0 
1.756512204205e-04 1.241780399830e-03 0.0 
0.0 0.0 -2.346376350630e-04 
-1.178651579784e-03 2.200776692921e-04 0.0 
2.200776692921e-04 7.962810812677e-03 0.0 
0.0 0.0 -1.189111243166e-03 
-7.770557330009e-04 1.799043213504e-04 0.0 
1.799043213504e-04 5.036915018676e-03 0.0 
0.0 0.0 -7.711223959738e-04 
-1.280064085681e-03 1.291641233302e-05 0.0 
1.291641233302e-05 8.715123744244e-03 0.0 
0.0 0.0 -1.265987209193e-03 
-7.886647595986e-04 2.426638412859e-05 0.0 
2.426638412859e-05 5.002569468986e-03 0.0 
0.0 0.0 -7.842605076999e-04 
-5.085061027867e-04 1.624719349291e-04 0.0 
1.624719349291e-04 3.132188298831e-03 0.0 
0.0 0.0 -5.042822341261e-04 
-6.680122214844e-04 1.543414038777e-04 0.0 
1.543414038777e-04 4.389762745766e-03 0.0 
0.0 0.0 -6.840799553763e-04 
-9.007934225225e-04 -1.247506640906e-04 0.0 
-1.247506640906e-04 5.946782140169e-03 0.0 
0.0 0.0 -8.722824885218e-04 
-3.656654935952e-04 2.470171187882e-04 0.0 
2.470171187882e-04 2.250740956869e-03 0.0 
0.0 0.0 -3.514598124168e-04 
-5.924594186081e-04 -2.113287385342e-04 0.0 
-2.113287385342e-04 3.843594924053e-03 0.0 
0.0 0.0 -5.911455407098e-04 
-1.021044424836e-03 -2.319523584095e-04 0.0 
-2.319523584095e-04 6.800629387681e-03 0.0 
0.0 0.0 -1.016465148841e-03 
-7.832948860766e-04 1.542506256290e-04 0.0 
1.542506256290e-04 5.221219062028e-03 0.0 
0.0 0.0 -7.680022369673e-04 
-5.676669992827e-04 1.711896275724e-04 0.0 
1.711896275724e-04 3.564089172862e-03 0.0 
0.0 0.0 -5.666226778950e-04 
-6.536822883720e-04 1.457424227354e-04 0.0 
1.457424227354e-04 4.156474681675e-03 0.0 
0.0 0.0 -6.498546761489e-04 
-1.132270982308e-03 2.069255922965e-04 0.0 
2.069255922965e-04 7.587995835191e-03 0.0 
0.0 0.0 -1.136725521675e-03 
-6.243703934397e-04 -5.657386080576e-05 0.0 
-5.657386080576e-05 4.179915537147e-03 0.0 
0.0 0.0 -6.189190723244e-04 
-1.269582323065e-03 5.358509534076e-05 0.0 
5.358509534076e-05 8.454036067307e-03 0.0 
0.0 0.0 -1.285202198870e-03 
-1.273584082277e-03 -3.447672338956e-05 0.0 
-3.447672338956e-05 8.706627272042e-03 0.0 
0.0 0.0 -1.265486236287e-03 
-4.574522532321e-04 -1.366919469267e-04 0.0 
-1.366919469267e-04 2.968706494426e-03 0.0 
0.0 0.0 -4.595713030950e-04 
-6.193411254741e-04 7.190453835518e-05 0.0 
7.190453835518e-05 3.976368456989e-03 0.0 
0.0 0.0 -6.385407451345e-04 
-1.157661612575e-03 -1.951807319382e-04 0.0 
-1.951807319382e-04 7.743964299132e-03 0.0 
0.0 0.0 -1.152822474774e-03 
-6.058642039219e-04 -1.568622492917e-04 0.0 
-1.568622492917e-04 3.943482715706e-03 0.0 
0.0 0.0 -6.037256927378e-04 
-4.410111678775e-04 1.646945023676e-04 0.0 
1.646945023676e-04 2.528625053889e-03 0.0 
0.0 0.0 -4.251746348339e-04 
-7.492101616992e-04 1.773144067427e-04 0.0 
1.773144067427e-04 4.849787455535e-03 0.0 
0.0 0.0 -7.443430781256e-04 
-6.015846242072e-04 -1.692904042825e-04 0.0 
-1.692904042825e-04 3.951833046067e-03 0.0 
0.0 0.0 -6.011186688906e-04 
-1.288763796550e-03 1.231833412492e-04 0.0 
1.231833412492e-04 8.478545606423e-03 0.0 
0.0 0.0 -1.279059907835e-03 
-1.060544670799e-03 1.938342500095e-04 0.0 
1.938342500095e-04 7.027045279308e-03 0.0 
0.0 0.0 -1.060691896764e-03 
-1.152244772895e-03 2.285095076534e-04 0.0 
2.285095076534e-04 7.745399107629e-03 0.0 
0.0 0.0 -1.155968210243e-03 
-2.882194771885e-04 -2.173510090808e-04 0.0 
-2.173510090808e-04 1.694759427097e-03 0.0 
0.0 0.0 -2.852154713500e-04 
-5.567709701176e-04 -1.966656427987e-04 0.0 
-1.966656427987e-04 3.599381630168e-03 0.0 
0.0 0.0 -5.558335581882e-04 
-1.085941057106e-03 1.940613560134e-04 0.0 
1.940613560134e-04 7.224719901000e-03 0.0 
0.0 0.0 -1.089453766084e-03 
-2.843827826583e-05 -1.788898447607e-05 0.0 
-1.788898447607e-05 1.853186358372e-04 0.0 
0.0 0.0 -4.453055683374e-05 
-6.135292459430e-04 1.555358498215e-04 0.0 
1.555358498215e-04 3.889243112960e-03 0.0 
0.0 0.0 -6.073871274648e-04 
-1.080867878280e-03 -2.316454551772e-04 0.0 
-2.316454551772e-04 7.249333231753e-03 0.0 
0.0 0.0 -1.080675545910e-03 
-1.764831160191e-04 -8.217578917013e-05 0.0 
-8.217578917013e-05 1.019550636912e-03 0.0 
0.0 0.0 -1.605608400042e-04 
-1.238595889810e-03 2.354517143287e-04 0.0 
2.354517143287e-04 8.471121261651e-03 0.0 
0.0 0.0 -1.257517519450e-03 
-9.713207705101e-04 1.946323764391e-04 0.0 
1.946323764391e-04 6.442137433534e-03 0.0 
0.0 0.0 -9.749624431058e-04 
-5.981973631964e-04 1.879071448910e-04 0.0 
1.879071448910e-04 3.813329018576e-03 0.0 
0.0 0.0 -5.995223474422e-04 
-1.084348145166e-03 2.392214872559e-04 0.0 
2.392214872559e-04 7.212887026288e-03 0.0 
0.0 0.0 -1.082135573043e-03 
-8.219004318722e-04 -1.022855745583e-05 0.0 
-1.022855745583e-05 5.626191621955e-03 0.0 
0.0 0.0 -8.259898420369e-04 
-8.600931526374e-04 -1.614882484442e-04 0.0 
-1.614882484442e-04 5.932770930688e-03 0.0 
0.0 0.0 -8.838609275114e-04 
-1.235110349403e-03 -1.423085779250e-04 0.0 
-1.423085779250e-04 8.282740067778e-03 0.0 
0.0 0.0 -1.237791025003e-03 
-4.556209105529e-04 2.036420794211e-04 0.0 
2.036420794211e-04 2.823352627341e-03 0.0 
0.0 0.0 -4.583583101839e-04 
-7.508195319224e-04 1.853886358928e-04 0.0 
1.853886358928e-04 4.860963236206e-03 0.0 
0.0 0.0 -7.480401524272e-04 
-8.027906713221e-04 1.764875410810e-04 0.0 
1.764875410810e-04 5.221920557136e-03 0.0 
0.0 0.0 -7.988399675000e-04 
-1.007530328557e-03 -1.922336022121e-04 0.0 
-1.922336022121e-04 6.759039767950e-03 0.0 
0.0 0.0 -1.008548823165e-03 
-8.112396533279e-04 -1.820827880749e-04 0.0 
-1.820827880749e-04 5.334789694812e-03 0.0 
0.0 0.0 -8.035999206669e-04 
-7.424823838501e-04 -1.611951191526e-04 0.0 
-1.611951191526e-04 4.887914283700e-03 0.0 
0.0 0.0 -7.415510827328e-04 
-9.420049562242e-04 -1.980186569885e-04 0.0 
-1.980186569885e-04 6.275886053793e-03 0.0 
0.0 0.0 -9.414312740916e-04 
-1.106765657790e-03 -2.072912274522e-04 0.0 
-2.072912274522e-04 7.417848919971e-03 0.0 
0.0 0.0 -1.105110859848e-03 
-8.771550322174e-05 -5.128346968203e-06 0.0 
-5.128346968203e-06 5.622743997178e-04 0.0 
0.0 0.0 -1.015871403443e-04 
-4.452411510456e-04 1.078521059613e-04 0.0 
1.078521059613e-04 2.907946245102e-03 0.0 
0.0 0.0 -4.649757541953e-04 
-5.301149448615e-04 1.855290027464e-04 0.0 
1.855290027464e-04 3.290005967673e-03 0.0 
0.0 0.0 -5.249394872960e-04 
-7.215069587740e-04 -1.794285911688e-04 0.0 
-1.794285911688e-04 4.739905292165e-03 0.0 
0.0 0.0 -7.181710532390e-04 
-1.095309768585e-03 -2.099324022586e-04 0.0 
-2.099324022586e-04 7.373113916822e-03 0.0 
0.0 0.0 -1.095076276885e-03 
-2.412241836648e-04 1.824271338485e-04 0.0 
1.824271338485e-04 1.391269291466e-03 0.0 
0.0 0.0 -2.576475407671e-04 
-1.042666947128e-03 -2.211661748355e-04 0.0 
-2.211661748355e-04 6.991049176526e-03 0.0 
0.0 0.0 -1.043355442177e-03 
-7.709980970025e-04 -2.344526007542e-04 0.0 
-2.344526007542e-04 5.001364750652e-03 0.0 
0.0 0.0 -7.763349569542e-04 
-5.598484848317e-04 1.964216387435e-04 0.0 
1.964216387435e-04 3.545883977612e-03 0.0 
0.0 0.0 -5.576783925304e-04 
-1.005904581142e-03 -2.103129090372e-04 0.0 
-2.103129090372e-04 6.739916943409e-03 0.0 
0.0 0.0 -1.006238978475e-03 
-1.328137378895e-04 -1.926409820628e-04 0.0 
-1.926409820628e-04 5.524811366159e-04 0.0 
0.0 0.0 -1.250635456846e-04 
-1.037748486931e-03 2.025826416299e-04 0.0 
2.025826416299e-04 6.894254509779e-03 0.0 
0.0 0.0 -1.040010908530e-03 
-9.586550230840e-05 6.862947183806e-05 0.0 
6.862947183806e-05 5.313753155377e-04 0.0 
0.0 0.0 -1.007187892234e-04 
-1.713724236673e-04 -5.327399001851e-06 0.0 
-5.327399001851e-06 7.517172537926e-04 0.0 
0.0 0.0 -1.819418517600e-04 
-2.796122854916e-04 2.316565417802e-04 0.0 
2.316565417802e-04 1.675994704222e-03 0.0 
0.0 0.0 -2.873666149908e-04 
-3.926605428350e-04 1.733428287045e-04 0.0 
1.733428287045e-04 2.352552718651e-03 0.0 
0.0 0.0 -3.935955730116e-04 
-1.073504857728e-03 -1.857694457952e-04 0.0 
-1.857694457952e-04 7.207934761623e-03 0.0 
0.0 0.0 -1.073797489760e-03 
-3.651136453237e-04 -1.928839212762e-04 0.0 
-1.928839212762e-04 2.293609592088e-03 0.0 
0.0 0.0 -3.637595386041e-04 
-3.442210319020e-04 1.764997975594e-04 0.0 
1.764997975594e-04 2.032847714738e-03 0.0 
0.0 0.0 -3.432832105208e-04 
-2.910729329916e-04 -1.809308260194e-04 0.0 
-1.809308260194e-04 1.763076573158e-03 0.0 
0.0 0.0 -2.922710279673e-04 
-2.622356291375e-04 1.892606687833e-04 0.0 
1.892606687833e-04 1.448318780245e-03 0.0 
0.0 0.0 -2.614315927221e-04 
-1.120397219207e-03 1.996859117335e-04 0.0 
1.996859117335e-04 7.447331785752e-03 0.0 
0.0 0.0 -1.117524173959e-03 
-7.717946648580e-04 -1.881039575464e-04 0.0 
-1.881039575464e-04 5.076611576994e-03 0.0 
0.0 0.0 -7.687972329812e-04 
-1.256202704630e-03 2.478526914498e-04 0.0 
2.478526914498e-04 8.487594918351e-03 0.0 
0.0 0.0 -1.256743614961e-03 
0.0 0.0 0.0 
0.0 0.0 0.0 
0.0 0.0 0.0 
-4.048716956913e-04 1.853052298050e-04 0.0 
1.853052298050e-04 2.461420572415e-03 0.0 
0.0 0.0 -4.044045206172e-04 
-6.239445424560e-04 2.046361178611e-04 0.0 
2.046361178611e-04 3.992995746549e-03 0.0 
0.0 0.0 -6.230907113744e-04 
-5.740868944919e-04 1.850315981272e-04 0.0 
1.850315981272e-04 3.613473978480e-03 0.0 
0.0 0.0 -5.709397776106e-04 
-1.047068133195e-03 2.230470659995e-04 0.0 
2.230470659995e-04 6.949500072304e-03 0.0 
0.0 0.0 -1.045235091131e-03 
-1.285400109254e-03 1.957478292084e-04 0.0 
1.957478292084e-04 8.698618921316e-03 0.0 
0.0 0.0 -1.275930989368e-03 
-1.029713153133e-03 -2.056143237118e-04 0.0 
-2.056143237118e-04 6.913851891301e-03 0.0 
0.0 0.0 -1.029499106509e-03 
-4.579566149125e-04 -1.884217374258e-04 0.0 
-1.884217374258e-04 2.912212194121e-03 0.0 
0.0 0.0 -4.564841486881e-04 
-1.120831572504e-03 -1.912348279819e-04 0.0 
-1.912348279819e-04 7.467678576310e-03 0.0 
0.0 0.0 -1.116166892424e-03 
-9.572670568062e-04 2.571263954152e-04 0.0 
2.571263954152e-04 6.316374419588e-03 0.0 
0.0 0.0 -9.512440159151e-04 
-7.570218913511e-04 -1.787629418727e-04 0.0 
-1.787629418727e-04 4.987297939344e-03 0.0 
0.0 0.0 -7.537083776970e-04 
-9.994998658216e-04 2.045048337303e-04 0.0 
2.045048337303e-04 6.629510214408e-03 0.0 
0.0 0.0 -1.003200534345e-03 
-1.242505065463e-03 -1.591232809489e-04 0.0 
-1.591232809489e-04 8.294319035880e-03 0.0 
0.0 0.0 -1.239730878702e-03 
-6.222328359965e-04 -2.058351298643e-04 0.0 
-2.058351298643e-04 4.057741749781e-03 0.0 
0.0 0.0 -6.206208101913e-04 
-3.761575650769e-04 -1.711217870111e-04 0.0 
-1.711217870111e-04 2.346047162404e-03 0.0 
0.0 0.0 -3.752687577596e-04 
-8.718273414275e-04 -1.903070125198e-04 0.0 
-1.903070125198e-04 5.767456116596e-03 0.0 
0.0 0.0 -8.662621843288e-04 
-1.329807574370e-03 9.926374614617e-05 0.0 
9.926374614617e-05 9.094631735092e-03 0.0 
0.0 0.0 -1.323568725688e-03 
-7.473763321356e-04 -1.878290917318e-04 0.0 
-1.878290917318e-04 4.922460573441e-03 0.0 
0.0 0.0 -7.453270327204e-04 
-7.780710127091e-04 -1.914920916377e-04 0.0 
-1.914920916377e-04 5.142441463468e-03 0.0 
0.0 0.0 -7.768443034385e-04 
-8.403853568470e-04 -5.224028630905e-05 0.0 
-5.224028630905e-05 5.665674692091e-03 0.0 
0.0 0.0 -8.293613651800e-04 
-2.119957057011e-04 -1.175361575482e-04 0.0 
-1.175361575482e-04 1.307524346166e-03 0.0 
0.0 0.0 -2.161141481901e-04 
-8.208799096496e-04 1.843133829192e-04 0.0 
1.843133829192e-04 5.271529166893e-03 0.0 
0.0 0.0 -8.060563724883e-04 
-4.603670611931e-04 1.877974414593e-04 0.0 
1.877974414593e-04 2.847786037855e-03 0.0 
0.0 0.0 -4.590591740919e-04 
-3.265147701176e-04 1.754702989645e-04 0.0 
1.754702989645e-04 1.892353118097e-03 0.0 
0.0 0.0 -3.229397045850e-04 
-2.372523115321e-04 -1.920097841935e-04 0.0 
-1.920097841935e-04 1.297568945568e-03 0.0 
0.0 0.0 -2.426597671045e-04 
-1.076566808285e-03 1.948027566312e-04 0.0 
1.948027566312e-04 7.152792080089e-03 0.0 
0.0 0.0 -1.075985979751e-03 
-8.366892688468e-04 -1.821112197861e-04 0.0 
-1.821112197861e-04 5.525859000099e-03 0.0 
0.0 0.0 -8.312490730234e-04 
-5.408471440859e-04 1.787636598150e-04 0.0 
1.787636598150e-04 3.420100638870e-03 0.0 
0.0 0.0 -5.429493831729e-04 
-1.110558394075e-03 -1.920281890810e-04 0.0 
-1.920281890810e-04 7.461731149687e-03 0.0 
0.0 0.0 -1.109763131677e-03 
-1.054698518121e-03 -2.087025362573e-04 0.0 
-2.087025362573e-04 7.108835153234e-03 0.0 
0.0 0.0 -1.057773507355e-03 
-7.924197653506e-04 -1.785979394266e-04 0.0 
-1.785979394266e-04 5.231483760846e-03 0.0 
0.0 0.0 -7.887050335656e-04 
-1.257903229921e-03 7.567368571961e-05 0.0 
7.567368571961e-05 8.498216080292e-03 0.0 
0.0 0.0 -1.288412101370e-03 
-8.091181034430e-04 1.931976365145e-04 0.0 
1.931976365145e-04 5.284760522789e-03 0.0 
0.0 0.0 -8.078958932737e-04 
-8.263277637735e-04 -1.832084157212e-04 0.0 
-1.832084157212e-04 5.471677470531e-03 0.0 
0.0 0.0 -8.238265297874e-04 
-6.650106902351e-04 -1.791010150323e-04 0.0 
-1.791010150323e-04 4.378261468460e-03 0.0 
0.0 0.0 -6.656476441012e-04 
-8.423857986256e-04 -1.986818351392e-04 0.0 
-1.986818351392e-04 5.587318921638e-03 0.0 
0.0 0.0 -8.413031780454e-04 
-3.899474951329e-04 1.915304819261e-04 0.0 
1.915304819261e-04 2.337472328750e-03 0.0 
0.0 0.0 -3.865807678710e-04 
-8.089876515704e-04 4.490290024565e-05 0.0 
4.490290024565e-05 5.014601975749e-03 0.0 
0.0 0.0 -7.898058234521e-04 
-6.502027287347e-04 -1.918500009783e-04 0.0 
-1.918500009783e-04 4.255074906530e-03 0.0 
0.0 0.0 -6.486359607860e-04 
-4.676332506753e-04 -1.907969004763e-04 0.0 
-1.907969004763e-04 2.994133619140e-03 0.0 
0.0 0.0 -4.681053320140e-04 
-1.032293230965e-03 1.946996800783e-04 0.0 
1.946996800783e-04 6.836459352288e-03 0.0 
0.0 0.0 -1.032318248600e-03 
-4.933492965949e-05 -2.981330854887e-05 0.0 
-2.981330854887e-05 2.232237160482e-04 0.0 
0.0 0.0 -4.491607815645e-05 
-8.460396934351e-04 -1.994951239522e-04 0.0 
-1.994951239522e-04 5.571843201912e-03 0.0 
0.0 0.0 -8.386390795737e-04 
-4.884576987713e-04 1.904916551125e-04 0.0 
1.904916551125e-04 3.043938579203e-03 0.0 
0.0 0.0 -4.870240021111e-04 
-4.011070509712e-04 -1.789938708172e-04 0.0 
-1.789938708172e-04 2.527031405991e-03 0.0 
0.0 0.0 -4.015254440178e-04 
-3.881231226590e-04 -1.849728275913e-04 0.0 
-1.849728275913e-04 2.413136850469e-03 0.0 
0.0 0.0 -3.834586606452e-04 
-9.010939454830e-04 1.820631251066e-04 0.0 
1.820631251066e-04 5.900115668490e-03 0.0 
0.0 0.0 -8.965110541436e-04 
-1.535639171873e-04 -1.171137565838e-04 0.0 
-1.171137565838e-04 9.290832055630e-04 0.0 
0.0 0.0 -1.609926926485e-04 
-5.642000446768e-04 1.829010286562e-04 0.0 
1.829010286562e-04 3.554613982315e-03 0.0 
0.0 0.0 -5.613503766092e-04 
-8.738800955345e-04 1.908997098880e-04 0.0 
1.908997098880e-04 5.736495439307e-03 0.0 
0.0 0.0 -8.726802719924e-04 
-8.424168210171e-04 1.809379834970e-04 0.0 
1.809379834970e-04 5.460364861261e-03 0.0 
0.0 0.0 -8.336838631977e-04 
-8.483140592107e-04 -2.570000340293e-05 0.0 
-2.570000340293e-05 5.646419876325e-03 0.0 
0.0 0.0 -8.301023967811e-04 
-2.301022018194e-04 1.896537110149e-04 0.0 
1.896537110149e-04 1.205962353600e-03 0.0 
0.0 0.0 -2.187087652219e-04 
-4.708793642351e-04 1.959468275411e-04 0.0 
1.959468275411e-04 2.928096743676e-03 0.0 
0.0 0.0 -4.706942212664e-04 
-4.339228685621e-04 -2.028732675089e-04 0.0 
-2.028732675089e-04 2.736979889631e-03 0.0 
0.0 0.0 -4.311372127493e-04 
-4.979504220913e-04 -1.685324817792e-04 0.0 
-1.685324817792e-04 3.206245351086e-03 0.0 
0.0 0.0 -4.957039317942e-04 
-1.001539925556e-03 -2.124102205074e-04 0.0 
-2.124102205074e-04 6.704131800771e-03 0.0 
0.0 0.0 -1.000663671924e-03 
-5.607402459632e-04 -1.707949003296e-04 0.0 
-1.707949003296e-04 3.631087283813e-03 0.0 
0.0 0.0 -5.577786207633e-04 
-6.163072057109e-04 1.894419522334e-04 0.0 
1.894419522334e-04 3.933506140839e-03 0.0 
0.0 0.0 -6.151539951222e-04 
-5.883906607910e-04 1.932241182488e-04 0.0 
1.932241182488e-04 3.740119885148e-03 0.0 
0.0 0.0 -5.868308051845e-04 
-2.691521273047e-04 -2.036688762200e-04 0.0 
-2.036688762200e-04 1.523725894567e-03 0.0 
0.0 0.0 -2.530049833111e-04 
-6.958714508919e-04 1.979801814587e-04 0.0 
1.979801814587e-04 4.490850522134e-03 0.0 
0.0 0.0 -6.959382511914e-04 
-2.861043400587e-04 -1.894415141015e-04 0.0 
-1.894415141015e-04 1.663430798726e-03 0.0 
0.0 0.0 -2.788248838327e-04 
-1.306755613337e-03 -2.610599304152e-06 0.0 
-2.610599304152e-06 9.100164486650e-03 0.0 
0.0 0.0 -1.321446319728e-03 
-1.339174511630e-03 -2.960517267117e-05 0.0 
-2.960517267117e-05 9.091242340448e-03 0.0 
0.0 0.0 -1.318029376683e-03 
-7.775136936644e-04 1.870350143580e-04 0.0 
1.870350143580e-04 5.054396183358e-03 0.0 
0.0 0.0 -7.755312068111e-04 
-4.251819947504e-04 1.895457374981e-04 0.0 
1.895457374981e-04 2.596133538266e-03 0.0 
0.0 0.0 -4.232985079168e-04 
-3.648329347482e-04 -1.837358985601e-04 0.0 
-1.837358985601e-04 2.280199425849e-03 0.0 
0.0 0.0 -3.659709354871e-04 
-8.573750887322e-04 1.858228230958e-04 0.0 
1.858228230958e-04 5.602884265534e-03 0.0 
0.0 0.0 -8.539191708179e-04 
-3.949528212466e-04 -1.886728582839e-04 0.0 
-1.886728582839e-04 2.475291397225e-03 0.0 
0.0 0.0 -3.930530440640e-04 
-4.332493895502e-04 1.980298907225e-04 0.0 
1.980298907225e-04 2.665937605433e-03 0.0 
0.0 0.0 -4.339875075689e-04 
-7.596321613464e-04 1.775287963430e-04 0.0 
1.775287963430e-04 4.918201734153e-03 0.0 
0.0 0.0 -7.563811545761e-04 
-1.287984799363e-03 -3.860068533034e-05 0.0 
-3.860068533034e-05 8.730948327736e-03 0.0 
0.0 0.0 -1.266640259566e-03 
-5.240495846065e-04 1.944963688322e-04 0.0 
1.944963688322e-04 3.293655739786e-03 0.0 
0.0 0.0 -5.226246958029e-04 
-9.447998235248e-04 1.960929665843e-04 0.0 
1.960929665843e-04 6.232881478096e-03 0.0 
0.0 0.0 -9.428115367422e-04 
-3.107562741713e-04 1.824587312734e-04 0.0 
1.824587312734e-04 1.780558679157e-03 0.0 
0.0 0.0 -3.076624342134e-04 
-1.311994729519e-03 7.493212939778e-06 0.0 
7.493212939778e-06 9.101970930917e-03 0.0 
0.0 0.0 -1.322863172658e-03 
-3.967767638387e-04 1.868417767078e-04 0.0 
1.868417767078e-04 2.404071077719e-03 0.0 
0.0 0.0 -3.959736908235e-04 
-7.861913752228e-04 1.858440032300e-04 0.0 
1.858440032300e-04 5.109311146391e-03 0.0 
0.0 0.0 -7.835188407615e-04 
-2.939612478105e-04 2.069489564744e-04 0.0 
2.069489564744e-04 1.627899719100e-03 0.0 
0.0 0.0 -2.855287480241e-04 
-9.209672284179e-04 1.890725882862e-04 0.0 
1.890725882862e-04 6.061382275032e-03 0.0 
0.0 0.0 -9.211625808215e-04 
-6.527425537756e-04 1.919833722786e-04 0.0 
1.919833722786e-04 4.182126969127e-03 0.0 
0.0 0.0 -6.516619296807e-04 
-4.643737788932e-04 1.911497819082e-04 0.0 
1.911497819082e-04 2.873282577301e-03 0.0 
0.0 0.0 -4.625367401933e-04 
-8.005133107045e-04 -1.849372706410e-04 0.0 
-1.849372706410e-04 5.279390117932e-03 0.0 
0.0 0.0 -7.963903837170e-04 
-1.325618080026e-03 -1.973193103059e-05 0.0 
-1.973193103059e-05 9.091764273344e-03 0.0 
0.0 0.0 -1.324865334549e-03 
-5.527714494018e-04 1.888052696331e-04 0.0 
1.888052696331e-04 3.488692206257e-03 0.0 
0.0 0.0 -5.510338386786e-04 
-8.711724193670e-04 -1.970525444519e-04 0.0 
-1.970525444519e-04 5.796794660819e-03 0.0 
0.0 0.0 -8.703234504572e-04 
-3.052115937337e-04 -1.690052037767e-04 0.0 
-1.690052037767e-04 1.853679927902e-03 0.0 
0.0 0.0 -3.041533380165e-04 
-9.585285003453e-04 2.099575339621e-04 0.0 
2.099575339621e-04 6.326919234623e-03 0.0 
0.0 0.0 -9.576894438039e-04 
-1.007861502229e-03 2.071557397888e-04 0.0 
2.071557397888e-04 6.684066242240e-03 0.0 
0.0 0.0 -1.008345180213e-03 
-4.131133098155e-04 -1.786065448845e-04 0.0 
-1.786065448845e-04 2.602572281114e-03 0.0 
0.0 0.0 -4.109515902261e-04 
-9.327998617517e-04 -1.874311411833e-04 0.0 
-1.874311411833e-04 6.181670543660e-03 0.0 
0.0 0.0 -9.257128893455e-04 
-1.323570257858e-03 1.323150738928e-05 0.0 
1.323150738928e-05 9.099733073090e-03 0.0 
0.0 0.0 -1.322580803729e-03 
-1.076618962997e-03 1.898018198415e-04 0.0 
1.898018198415e-04 7.144327477010e-03 0.0 
0.0 0.0 -1.075861678316e-03 
-1.321614991336e-03 -1.713273005325e-05 0.0 
-1.713273005325e-05 9.105058184061e-03 0.0 
0.0 0.0 -1.322091174222e-03 
-9.079440508188e-04 -2.097847460127e-04 0.0 
-2.097847460127e-04 6.119714420928e-03 0.0 
0.0 0.0 -9.196498359204e-04 
-1.050990778737e-03 -1.886314367517e-04 0.0 
-1.886314367517e-04 7.044669431277e-03 0.0 
0.0 0.0 -1.048263655743e-03 
-3.511245847016e-04 -1.953891657846e-04 0.0 
-1.953891657846e-04 2.144448464187e-03 0.0 
0.0 0.0 -3.491910591611e-04 
-7.374872672360e-04 -1.803640936936e-04 0.0 
-1.803640936936e-04 4.844525720206e-03 0.0 
0.0 0.0 -7.343713905235e-04 
-8.293244045423e-04 1.837550643812e-04 0.0 
1.837550643812e-04 5.409584064822e-03 0.0 
0.0 0.0 -8.263924940540e-04 
-8.620298851759e-04 -1.867239000810e-04 0.0 
-1.867239000810e-04 5.715504193618e-03 0.0 
0.0 0.0 -8.589723558544e-04 
-7.110415388043e-04 -1.855413705945e-04 0.0 
-1.855413705945e-04 4.678427107823e-03 0.0 
0.0 0.0 -7.101745248689e-04 
-1.326686360804e-03 -1.171732242914e-05 0.0 
-1.171732242914e-05 9.109208916885e-03 0.0 
0.0 0.0 -1.322334986692e-03 
-8.655458594576e-04 1.438711959111e-04 0.0 
1.438711959111e-04 5.877137978370e-03 0.0 
0.0 0.0 -8.810748613436e-04 
-7.842175920213e-04 -1.730041151839e-04 0.0 
-1.730041151839e-04 5.148772658244e-03 0.0 
0.0 0.0 -7.763708431881e-04 
-5.855858139709e-04 -1.935639285695e-04 0.0 
-1.935639285695e-04 3.803586164403e-03 0.0 
0.0 0.0 -5.843899590101e-04 
-3.295388154563e-04 1.889565951281e-04 0.0 
1.889565951281e-04 1.906230365352e-03 0.0 
0.0 0.0 -3.280768480529e-04 
-7.085854070096e-04 -1.812057133810e-04 0.0 
-1.812057133810e-04 4.648076014877e-03 0.0 
0.0 0.0 -7.069124235890e-04 
-4.422183154957e-04 1.870641756047e-04 0.0 
1.870641756047e-04 2.708861584455e-03 0.0 
0.0 0.0 -4.404772202000e-04 
-7.723719974628e-04 -4.140062150849e-05 0.0 
-4.140062150849e-05 5.256708913763e-03 0.0 
0.0 0.0 -7.696142143080e-04 
-4.606920221105e-04 -1.852355893197e-04 0.0 
-1.852355893197e-04 2.942829590752e-03 0.0 
0.0 0.0 -4.595640944490e-04 
-5.214756889107e-04 -1.931035456201e-04 0.0 
-1.931035456201e-04 3.354332559651e-03 0.0 
0.0 0.0 -5.202658224677e-04 
-1.068256360121e-03 2.066714883780e-04 0.0 
2.066714883780e-04 7.094366600133e-03 0.0 
0.0 0.0 -1.069052450572e-03 
-4.377877323945e-04 -1.833633178396e-04 0.0 
-1.833633178396e-04 2.778061496653e-03 0.0 
0.0 0.0 -4.372567615832e-04 
-7.685639283948e-04 1.832765112524e-04 0.0 
1.832765112524e-04 4.976704183313e-03 0.0 
0.0 0.0 -7.640689829422e-04 
-9.023009032283e-04 1.879763697979e-04 0.0 
1.879763697979e-04 5.928541464361e-03 0.0 
0.0 0.0 -9.014246907137e-04 
-8.033627654917e-04 1.978900666673e-04 0.0 
1.978900666673e-04 5.248675409053e-03 0.0 
0.0 0.0 -8.035328976187e-04 
-1.305960172853e-03 -2.095892658932e-06 0.0 
-2.095892658932e-06 9.102496999303e-03 0.0 
0.0 0.0 -1.324762665914e-03 
-6.445820078638e-04 -1.678202773937e-04 0.0 
-1.678202773937e-04 4.194265313441e-03 0.0 
0.0 0.0 -6.390224077203e-04 
-4.435428954874e-04 1.964051911317e-04 0.0 
1.964051911317e-04 2.726576725320e-03 0.0 
0.0 0.0 -4.422638729430e-04 
-5.680634224624e-04 -1.789976648694e-04 0.0 
-1.789976648694e-04 3.709617648682e-03 0.0 
0.0 0.0 -5.691257024010e-04 
-4.282333792406e-04 -1.482446945054e-04 0.0 
-1.482446945054e-04 2.644915346169e-03 0.0 
0.0 0.0 -4.184705811166e-04 
-4.155606553471e-04 1.953855919425e-04 0.0 
1.953855919425e-04 2.537485002560e-03 0.0 
0.0 0.0 -4.141309408042e-04 
-1.124019592153e-03 -2.007331567345e-04 0.0 
-2.007331567345e-04 7.565647962713e-03 0.0 
0.0 0.0 -1.123886314723e-03 
-8.186901870458e-04 -1.867352575880e-04 0.0 
-1.867352575880e-04 5.417532343352e-03 0.0 
0.0 0.0 -8.161479701220e-04 
-5.717796681142e-04 -1.878963187409e-04 0.0 
-1.878963187409e-04 3.680777609877e-03 0.0 
0.0 0.0 -5.672387349321e-04 
-7.059258560286e-04 1.849400511514e-04 0.0 
1.849400511514e-04 4.547028472385e-03 0.0 
0.0 0.0 -7.023794137935e-04 
-1.322670125945e-03 2.313222592219e-05 0.0 
2.313222592219e-05 9.105794211902e-03 0.0 
0.0 0.0 -1.320675234999e-03 
-1.261246667212e-03 -1.446740378058e-04 0.0 
-1.446740378058e-04 8.590068615086e-03 0.0 
0.0 0.0 -1.258064670439e-03 
-1.122100566517e-03 1.986464603035e-04 0.0 
1.986464603035e-04 7.484284741315e-03 0.0 
0.0 0.0 -1.126590436115e-03 
-1.036201990782e-03 -1.951775890560e-04 0.0 
-1.951775890560e-04 6.963709654535e-03 0.0 
0.0 0.0 -1.037522200811e-03 
-7.719052834795e-04 -1.888501304093e-04 0.0 
-1.888501304093e-04 5.114447170550e-03 0.0 
0.0 0.0 -7.721428985420e-04 
-5.862259843954e-04 -1.794669617907e-04 0.0 
-1.794669617907e-04 3.806767764826e-03 0.0 
0.0 0.0 -5.842812205453e-04 
-4.235649518208e-04 -1.883881554874e-04 0.0 
-1.883881554874e-04 2.667804805964e-03 0.0 
0.0 0.0 -4.203166018451e-04 
-4.860729007888e-04 -1.885252844674e-04 0.0 
-1.885252844674e-04 3.110387779236e-03 0.0 
0.0 0.0 -4.843489805398e-04 
-7.832353818819e-04 -1.822378049694e-04 0.0 
-1.822378049694e-04 5.173491727743e-03 0.0 
0.0 0.0 -7.808727949117e-04 
-8.901416230108e-04 -1.942852983019e-04 0.0 
-1.942852983019e-04 5.937129717394e-03 0.0 
0.0 0.0 -8.900964085843e-04 
-6.791455967192e-04 -1.986004150700e-04 0.0 
-1.986004150700e-04 4.477294610112e-03 0.0 
0.0 0.0 -6.810091006415e-04 
-1.137984490542e-03 2.026763925672e-04 0.0 
2.026763925672e-04 7.560494271962e-03 0.0 
0.0 0.0 -1.134236807130e-03 
-4.390058928460e-04 -1.873042743236e-04 0.0 
-1.873042743236e-04 2.794180260139e-03 0.0 
0.0 0.0 -4.395655422792e-04 
-6.752152374307e-04 -1.860595742761e-04 0.0 
-1.860595742761e-04 4.431501668800e-03 0.0 
0.0 0.0 -6.750378637491e-04 
-7.938192706807e-04 1.817389384797e-04 0.0 
1.817389384797e-04 5.160116736331e-03 0.0 
0.0 0.0 -7.913284153978e-04 
-6.120290380758e-04 -1.961653994373e-04 0.0 
-1.961653994373e-04 3.987310124629e-03 0.0 
0.0 0.0 -6.122259156574e-04 
-1.301288756895e-03 -2.045275430422e-05 0.0 
-2.045275430422e-05 9.103514886723e-03 0.0 
0.0 0.0 -1.320088186226e-03 
-1.336559860406e-03 5.304668224230e-05 0.0 
5.304668224230e-05 9.092320412842e-03 0.0 
0.0 0.0 -1.318462653075e-03 
-1.241699233934e-03 -2.254253931459e-04 0.0 
-2.254253931459e-04 8.519567921102e-03 0.0 
0.0 0.0 -1.256494544188e-03 
-8.370305663979e-04 -1.942067132543e-04 0.0 
-1.942067132543e-04 5.564466733165e-03 0.0 
0.0 0.0 -8.375255977276e-04 
-1.112341827327e-03 1.928139267360e-04 0.0 
1.928139267360e-04 7.404901105712e-03 0.0 
0.0 0.0 -1.112065035246e-03 
-3.806812841049e-04 1.778946636947e-04 0.0 
1.778946636947e-04 2.279220825059e-03 0.0 
0.0 0.0 -3.785953687517e-04 
-5.494616984378e-04 -1.888416104626e-04 0.0 
-1.888416104626e-04 3.555923799118e-03 0.0 
0.0 0.0 -5.483018170244e-04 
-3.235962926905e-04 -1.736014947489e-04 0.0 
-1.736014947489e-04 1.973084689826e-03 0.0 
0.0 0.0 -3.192951451658e-04 
-5.963652417522e-04 -1.773931756758e-04 0.0 
-1.773931756758e-04 3.870665993091e-03 0.0 
0.0 0.0 -5.936226173563e-04 
-7.754418230907e-04 -1.787983897596e-05 0.0 
-1.787983897596e-05 4.998811631156e-03 0.0 
0.0 0.0 -7.914980036671e-04 
-9.191665137011e-04 2.140245341565e-04 0.0 
2.140245341565e-04 6.074527525348e-03 0.0 
0.0 0.0 -9.214502702889e-04 
-1.272306740568e-03 -2.183792906096e-06 0.0 
-2.183792906096e-06 8.701539900471e-03 0.0 
0.0 0.0 -1.265403586923e-03 
-1.115465796477e-03 2.144802209519e-04 0.0 
2.144802209519e-04 7.405352776166e-03 0.0 
0.0 0.0 -1.117224974728e-03 
-8.719756485575e-04 1.796746755414e-04 0.0 
1.796746755414e-04 5.704231125349e-03 0.0 
0.0 0.0 -8.687609488834e-04 
-8.934000445298e-04 1.842629385947e-04 0.0 
1.842629385947e-04 5.848617048582e-03 0.0 
0.0 0.0 -8.891947744737e-04 
-3.538517022685e-04 1.968822651903e-04 0.0 
1.968822651903e-04 2.082939193951e-03 0.0 
0.0 0.0 -3.496852078947e-04 
-1.730179310379e-04 3.799515299487e-05 0.0 
3.799515299487e-05 9.814996314958e-04 0.0 
0.0 0.0 -1.610244214183e-04 
-6.605957920443e-04 2.008091445533e-04 0.0 
2.008091445533e-04 4.241664916870e-03 0.0 
0.0 0.0 -6.594106982652e-04 
-7.382500259092e-04 -1.861061436274e-04 0.0 
-1.861061436274e-04 4.870305797290e-03 0.0 
0.0 0.0 -7.376142925499e-04 
-6.935826622016e-04 -1.974963449897e-04 0.0 
-1.974963449897e-04 4.557561403421e-03 0.0 
0.0 0.0 -6.931905564145e-04 
-1.927200046455e-04 1.907407866214e-04 0.0 
1.907407866214e-04 9.362068114562e-04 0.0 
0.0 0.0 -1.839988823918e-04 
-8.553897316391e-04 7.952460625503e-05 0.0 
7.952460625503e-05 5.374666730048e-03 0.0 
0.0 0.0 -8.462285223656e-04 
-3.012637912477e-04 -1.970081127765e-04 0.0 
-1.970081127765e-04 1.826424334369e-03 0.0 
0.0 0.0 -2.972104253142e-04 
-4.320291499202e-04 1.924639625952e-04 0.0 
1.924639625952e-04 2.652618994648e-03 0.0 
0.0 0.0 -4.314049239902e-04 
-1.341153861134e-03 -1.132581839769e-07 0.0 
-1.132581839769e-07 8.854160665758e-03 0.0 
0.0 0.0 -1.341153861134e-03 
-9.735832254612e-04 -2.032109106710e-04 0.0 
-2.032109106710e-04 6.501326132665e-03 0.0 
0.0 0.0 -9.717687626070e-04 
-8.038658590279e-04 1.841151985618e-04 0.0 
1.841151985618e-04 5.090192522503e-03 0.0 
0.0 0.0 -7.790007367612e-04 
-2.263569738137e-04 1.412068244863e-04 0.0 
1.412068244863e-04 1.378581130634e-03 0.0 
0.0 0.0 -2.176483604987e-04 
-7.148393686400e-04 1.885377903274e-04 0.0 
1.885377903274e-04 4.617805235716e-03 0.0 
0.0 0.0 -7.126719623954e-04 
-6.583475203356e-04 -2.044658051723e-04 0.0 
-2.044658051723e-04 4.303955154821e-03 0.0 
0.0 0.0 -6.569982659716e-04 
-8.980808506786e-04 -1.936520147713e-04 0.0 
-1.936520147713e-04 5.958242186783e-03 0.0 
0.0 0.0 -8.940630110299e-04 
-1.327874025612e-03 4.012442722688e-05 0.0 
4.012442722688e-05 9.098102111315e-03 0.0 
0.0 0.0 -1.323832587333e-03 
-7.403554818969e-04 1.844120078152e-04 0.0 
1.844120078152e-04 4.792048619543e-03 0.0 
0.0 0.0 -7.366500567795e-04 
-8.545868996671e-04 -1.887615407860e-04 0.0 
-1.887615407860e-04 5.662533660862e-03 0.0 
0.0 0.0 -8.513774089097e-04 
-6.818667097911e-04 1.958766515699e-04 0.0 
1.958766515699e-04 4.409131248910e-03 0.0 
0.0 0.0 -6.837695253815e-04 
-1.105187862003e-03 1.994006530664e-04 0.0 
1.994006530664e-04 7.356411437885e-03 0.0 
0.0 0.0 -1.105258581891e-03 
-8.686753316721e-04 1.961023377174e-04 0.0 
1.961023377174e-04 5.708119835605e-03 0.0 
0.0 0.0 -8.691653677727e-04 
-1.313443091824e-03 -8.681857321595e-06 0.0 
-8.681857321595e-06 9.107589922997e-03 0.0 
0.0 0.0 -1.322174839672e-03 
-1.340103718614e-03 2.441833226493e-06 0.0 
2.441833226493e-06 8.842216911178e-03 0.0 
0.0 0.0 -1.340103718614e-03 
-1.341028575724e-03 -6.698781680326e-06 0.0 
-6.698781680326e-06 8.834191149721e-03 0.0 
0.0 0.0 -1.341028575724e-03 
-1.338044909071e-03 -9.989699658839e-07 0.0 
-9.989699658839e-07 8.789076720715e-03 0.0 
0.0 0.0 -1.338044909071e-03 
-9.278953530001e-04 1.830493215193e-04 0.0 
1.830493215193e-04 6.094694774967e-03 0.0 
0.0 0.0 -9.244680137507e-04 
-1.104382085207e-03 -1.844352853961e-04 0.0 
-1.844352853961e-04 7.413030585339e-03 0.0 
0.0 0.0 -1.103002250422e-03 
-1.150866030357e-03 2.083921581833e-04 0.0 
2.083921581833e-04 7.696092280171e-03 0.0 
0.0 0.0 -1.155914796392e-03 
-6.164628833105e-04 2.031183267964e-04 0.0 
2.031183267964e-04 3.927882065765e-03 0.0 
0.0 0.0 -6.147330147620e-04 
-5.911685103851e-04 1.997096464783e-04 0.0 
1.997096464783e-04 3.740736628945e-03 0.0 
0.0 0.0 -5.872917534094e-04 
-6.414807696811e-04 -2.006380451049e-04 0.0 
-2.006380451049e-04 4.218783169970e-03 0.0 
0.0 0.0 -6.436934073013e-04 
-1.134641282245e-03 -2.006695635977e-04 0.0 
-2.006695635977e-04 7.623716292157e-03 0.0 
0.0 0.0 -1.131852245309e-03 
-1.324500994006e-03 -4.966854021263e-06 0.0 
-4.966854021263e-06 9.095768239117e-03 0.0 
0.0 0.0 -1.322440284024e-03 
-1.140227253108e-03 1.951224764734e-04 0.0 
1.951224764734e-04 7.603009729401e-03 0.0 
0.0 0.0 -1.141180801552e-03 
-9.080174246261e-04 -2.037707256770e-04 0.0 
-2.037707256770e-04 6.042971740774e-03 0.0 
0.0 0.0 -9.063345769726e-04 
-1.140612365318e-03 -1.825914620366e-04 0.0 
-1.825914620366e-04 7.661221724928e-03 0.0 
0.0 0.0 -1.138864741757e-03 
-9.895587303989e-04 -1.909996709670e-04 0.0 
-1.909996709670e-04 6.631323534056e-03 0.0 
0.0 0.0 -9.903545940741e-04 
-7.055944550106e-04 1.841650505336e-04 0.0 
1.841650505336e-04 4.559451876543e-03 0.0 
0.0 0.0 -7.049739924763e-04 
-6.005001548621e-04 1.754924819421e-04 0.0 
1.754924819421e-04 3.808564972462e-03 0.0 
0.0 0.0 -5.967387615352e-04 
-3.335508235582e-04 1.892926381389e-04 0.0 
1.892926381389e-04 1.961394351476e-03 0.0 
0.0 0.0 -3.333553686509e-04 
-1.287482303742e-03 9.400486473720e-05 0.0 
9.400486473720e-05 8.494651886702e-03 0.0 
0.0 0.0 -1.282213402295e-03 
-5.782088747012e-04 1.983174571351e-04 0.0 
1.983174571351e-04 3.685190236892e-03 0.0 
0.0 0.0 -5.792479259103e-04 
-1.207490032650e-03 -9.511693616597e-06 0.0 
-9.511693616597e-06 8.106813054446e-03 0.0 
0.0 0.0 -1.230767059693e-03 
-6.442432414831e-04 1.944206160730e-04 0.0 
1.944206160730e-04 4.149320661563e-03 0.0 
0.0 0.0 -6.465396845166e-04 
-4.198574354174e-04 -1.824962637457e-04 0.0 
-1.824962637457e-04 2.680260699037e-03 0.0 
0.0 0.0 -4.222915044375e-04 
-1.273602229187e-03 4.336342551849e-05 0.0 
4.336342551849e-05 8.460076842639e-03 0.0 
0.0 0.0 -1.284312900220e-03 
-4.687866799151e-04 1.866875104872e-04 0.0 
1.866875104872e-04 2.893520146277e-03 0.0 
0.0 0.0 -4.669824892858e-04 
-1.341987455608e-03 1.886578995446e-06 0.0 
1.886578995446e-06 8.838362897947e-03 0.0 
0.0 0.0 -1.341987455608e-03 
-1.296411374061e-03 -1.418949515450e-05 0.0 
-1.418949515450e-05 8.470243795444e-03 0.0 
0.0 0.0 -1.282654109251e-03 
-8.495078228820e-04 1.843107655011e-04 0.0 
1.843107655011e-04 5.547072023185e-03 0.0 
0.0 0.0 -8.462542048450e-04 
-9.255048927816e-05 -2.197953205318e-06 0.0 
-2.197953205318e-06 3.085086574748e-04 0.0 
0.0 0.0 -9.255350065570e-05 
-1.340954708391e-03 7.835804962292e-06 0.0 
7.835804962292e-06 8.838032502772e-03 0.0 
0.0 0.0 -1.340954708391e-03 
-1.280816053348e-03 -2.230055523915e-05 0.0 
-2.230055523915e-05 8.460310632468e-03 0.0 
0.0 0.0 -1.284661450484e-03 
-4.260944399250e-04 1.999732540104e-04 0.0 
1.999732540104e-04 2.608418284960e-03 0.0 
0.0 0.0 -4.253660281670e-04 
-9.365021749047e-04 -1.977008719716e-04 0.0 
-1.977008719716e-04 6.250684752616e-03 0.0 
0.0 0.0 -9.353130867196e-04 
-1.333005063589e-03 4.344781136885e-06 0.0 
4.344781136885e-06 9.114671664273e-03 0.0 
0.0 0.0 -1.323014926434e-03 
0.0 0.0 0.0 
0.0 0.0 0.0 
0.0 0.0 0.0 
-6.428281947913e-04 1.843362204216e-04 0.0 
1.843362204216e-04 4.123262309836e-03 0.0 
0.0 0.0 -6.425506931502e-04 
-8.851411761515e-04 1.851869312966e-04 0.0 
1.851869312966e-04 5.794563189636e-03 0.0 
0.0 0.0 -8.816033652580e-04 
-8.134395165507e-04 1.874953040298e-04 0.0 
1.874953040298e-04 5.300126487808e-03 0.0 
0.0 0.0 -8.109139232486e-04 
-8.225202755535e-04 1.881518984198e-04 0.0 
1.881518984198e-04 5.356080317152e-03 0.0 
0.0 0.0 -8.186613860469e-04 
-3.691769062860e-04 1.916815065322e-04 0.0 
1.916815065322e-04 2.210779207524e-03 0.0 
0.0 0.0 -3.689119447714e-04 
-1.341360672448e-03 -1.189443720151e-06 0.0 
-1.189443720151e-06 8.827889647213e-03 0.0 
0.0 0.0 -1.341360672448e-03 
-6.134329689946e-04 -1.902359328294e-04 0.0 
-1.902359328294e-04 4.002222739953e-03 0.0 
0.0 0.0 -6.123778370825e-04 
-2.202070906780e-04 -1.755376406009e-04 0.0 
-1.755376406009e-04 1.255756531969e-03 0.0 
0.0 0.0 -2.173296945085e-04 
-1.279142293538e-03 5.964349300566e-05 0.0 
5.964349300566e-05 8.727032320364e-03 0.0 
0.0 0.0 -1.272354826527e-03 
-1.022272037246e-04 4.922820238373e-06 0.0 
4.922820238373e-06 5.965869288915e-04 0.0 
0.0 0.0 -1.019437782286e-04 
-6.710661406479e-04 1.855097177597e-04 0.0 
1.855097177597e-04 4.303579593448e-03 0.0 
0.0 0.0 -6.678899790657e-04 
-2.300720776572e-04 1.212201240613e-05 0.0 
1.212201240613e-05 1.125450156733e-03 0.0 
0.0 0.0 -2.365401520142e-04 
-7.086437154644e-04 1.853452857981e-04 0.0 
1.853452857981e-04 4.588815352963e-03 0.0 
0.0 0.0 -7.094882865497e-04 
-1.317968381893e-03 -7.788542654244e-06 0.0 
-7.788542654244e-06 9.086616382280e-03 0.0 
0.0 0.0 -1.321823097425e-03 
-1.341255375116e-03 6.592408687468e-06 0.0 
6.592408687468e-06 8.854311445215e-03 0.0 
0.0 0.0 -1.341255375116e-03 
-8.673920198819e-04 1.847071888204e-04 0.0 
1.847071888204e-04 5.656037287956e-03 0.0 
0.0 0.0 -8.613793510407e-04 
-1.969643249742e-04 -2.643595705593e-05 0.0 
-2.643595705593e-05 7.486662135306e-04 0.0 
0.0 0.0 -1.793976806842e-04 
-1.826266447966e-04 1.955672024510e-04 0.0 
1.955672024510e-04 9.200601904336e-04 0.0 
0.0 0.0 -1.838036673156e-04 
-2.361898229358e-04 4.404631865767e-05 0.0 
4.404631865767e-05 1.375633081646e-03 0.0 
0.0 0.0 -2.179364692381e-04 
-1.125162068454e-03 -1.979567048057e-04 0.0 
-1.979567048057e-04 7.560228932207e-03 0.0 
0.0 0.0 -1.121833217354e-03 
-7.703836607526e-04 2.904011669623e-05 0.0 
2.904011669623e-05 5.271332940567e-03 0.0 
0.0 0.0 -7.704300227928e-04 
-8.168157235620e-04 -2.113983721697e-04 0.0 
-2.113983721697e-04 5.355765378531e-03 0.0 
0.0 0.0 -8.109332722942e-04 
-1.342502730507e-03 5.716067361721e-06 0.0 
5.716067361721e-06 8.856705817959e-03 0.0 
0.0 0.0 -1.342502730507e-03 
-7.906151483404e-04 -4.272528123303e-05 0.0 
-4.272528123303e-05 5.268742702063e-03 0.0 
0.0 0.0 -7.720444664677e-04 
-1.332977220355e-03 1.682402604833e-05 0.0 
1.682402604833e-05 9.104707937730e-03 0.0 
0.0 0.0 -1.322852565091e-03 
-1.019613459442e-03 1.919320256201e-04 0.0 
1.919320256201e-04 6.758525883042e-03 0.0 
0.0 0.0 -1.020998643257e-03 
-8.942284646778e-04 2.014665993211e-04 0.0 
2.014665993211e-04 5.869620442183e-03 0.0 
0.0 0.0 -8.907448815977e-04 
-4.710891496910e-04 1.816013443133e-04 0.0 
1.816013443133e-04 2.782078830397e-03 0.0 
0.0 0.0 -4.477608806526e-04 
-9.397641453592e-04 1.905534962230e-04 0.0 
1.905534962230e-04 6.187842394577e-03 0.0 
0.0 0.0 -9.378661514434e-04 
-2.865699781098e-04 -1.698301048615e-04 0.0 
-1.698301048615e-04 1.797113955836e-03 0.0 
0.0 0.0 -2.938158648993e-04 
-1.340754991027e-03 -4.752011562165e-06 0.0 
-4.752011562165e-06 8.857728678543e-03 0.0 
0.0 0.0 -1.340754991027e-03 
-1.339984467612e-03 2.292869316744e-05 0.0 
2.292869316744e-05 8.807369741469e-03 0.0 
0.0 0.0 -1.339984467612e-03 
-1.340417744004e-03 -2.214851180424e-05 0.0 
-2.214851180424e-05 8.828867002772e-03 0.0 
0.0 0.0 -1.340417744004e-03 
-8.660623943402e-04 -1.943286950292e-04 0.0 
-1.943286950292e-04 5.772294168294e-03 0.0 
0.0 0.0 -8.666500598261e-04 
-6.034856013852e-04 -2.033011263199e-04 0.0 
-2.033011263199e-04 3.957936150372e-03 0.0 
0.0 0.0 -6.062238016986e-04 
-7.026976706331e-04 -1.815126947840e-04 0.0 
-1.815126947840e-04 4.627441659305e-03 0.0 
0.0 0.0 -7.021192356133e-04 
-8.976477462119e-04 1.951708788180e-04 0.0 
1.951708788180e-04 5.904473226514e-03 0.0 
0.0 0.0 -8.981573260837e-04 
-1.339627896631e-03 3.612108461994e-06 0.0 
3.612108461994e-06 8.853033835610e-03 0.0 
0.0 0.0 -1.339627896631e-03 
-4.295950600907e-04 -1.875952713054e-04 0.0 
-1.875952713054e-04 2.717501457664e-03 0.0 
0.0 0.0 -4.287941800800e-04 
-4.990450639494e-04 1.934485922333e-04 0.0 
1.934485922333e-04 3.125390132284e-03 0.0 
0.0 0.0 -4.991860405784e-04 
-5.285799076226e-04 1.852384275300e-04 0.0 
1.852384275300e-04 3.322934541718e-03 0.0 
0.0 0.0 -5.272458293186e-04 
-9.298142287186e-04 1.923659803104e-04 0.0 
1.923659803104e-04 6.128652270364e-03 0.0 
0.0 0.0 -9.279583942086e-04 
-1.339074735525e-03 -2.462351465060e-05 0.0 
-2.462351465060e-05 9.096799452257e-03 0.0 
0.0 0.0 -1.323537156312e-03 
-1.500618556416e-04 1.939391886362e-05 0.0 
1.939391886362e-05 9.791726158994e-04 0.0 
0.0 0.0 -1.598254822437e-04 
-1.340775759057e-03 1.534669228290e-06 0.0 
1.534669228290e-06 8.827931576809e-03 0.0 
0.0 0.0 -1.340775759057e-03 
-4.918224965486e-04 1.956179793808e-04 0.0 
1.956179793808e-04 3.063033243647e-03 0.0 
0.0 0.0 -4.905422085546e-04 
-1.342877878941e-03 2.842270727755e-06 0.0 
2.842270727755e-06 8.853936486152e-03 0.0 
0.0 0.0 -1.342877878941e-03 
-1.156184618631e-03 -1.885719150538e-04 0.0 
-1.885719150538e-04 7.774113329411e-03 0.0 
0.0 0.0 -1.152765850879e-03 
-4.494164570379e-05 1.000468586625e-06 0.0 
1.000468586625e-06 2.551504228595e-04 0.0 
0.0 0.0 -4.576175375704e-05 
-6.699730055747e-04 1.872361539573e-04 0.0 
1.872361539573e-04 4.302808495342e-03 0.0 
0.0 0.0 -6.690559060524e-04 
-1.145839910847e-03 -1.986902778568e-04 0.0 
-1.986902778568e-04 7.714207575352e-03 0.0 
0.0 0.0 -1.146019594970e-03 
-1.341220131281e-03 -2.365934969512e-06 0.0 
-2.365934969512e-06 8.847703773833e-03 0.0 
0.0 0.0 -1.341220131281e-03 
-9.256050002818e-04 -1.923147081747e-04 0.0 
-1.923147081747e-04 6.153846390776e-03 0.0 
0.0 0.0 -9.220067723808e-04 
-1.050351148173e-03 1.970429468760e-04 0.0 
1.970429468760e-04 6.958336458839e-03 0.0 
0.0 0.0 -1.049000704964e-03 
-2.748725954192e-04 1.931705696151e-04 0.0 
1.931705696151e-04 1.524979906539e-03 0.0 
0.0 0.0 -2.717413095444e-04 
-1.208683908170e-03 6.230383996262e-06 0.0 
6.230383996262e-06 8.102506712124e-03 0.0 
0.0 0.0 -1.228682347183e-03 
-5.192327213786e-04 1.909614988805e-04 0.0 
1.909614988805e-04 3.260562468968e-03 0.0 
0.0 0.0 -5.184025592846e-04 
-5.248109421633e-04 -1.803408309235e-04 0.0 
-1.803408309235e-04 3.388681347671e-03 0.0 
0.0 0.0 -5.242929400402e-04 
-1.101238409147e-04 1.624386361107e-05 0.0 
1.624386361107e-05 6.254833965552e-04 0.0 
0.0 0.0 -1.042847928631e-04 
-1.341079611575e-03 1.268157797452e-06 0.0 
1.268157797452e-06 8.837798036775e-03 0.0 
0.0 0.0 -1.341079611575e-03 
-3.602734137551e-04 -1.850324683020e-04 0.0 
-1.850324683020e-04 2.230825920775e-03 0.0 
0.0 0.0 -3.564518745397e-04 
-1.109985979917e-03 -2.052345426402e-04 0.0 
-2.052345426402e-04 7.476883123942e-03 0.0 
0.0 0.0 -1.110501492391e-03 
-8.524872272040e-04 -2.315298743519e-04 0.0 
-2.315298743519e-04 5.680178330686e-03 0.0 
0.0 0.0 -8.555322119248e-04 
-4.402194268269e-04 -1.870881911234e-04 0.0 
-1.870881911234e-04 2.811358430465e-03 0.0 
0.0 0.0 -4.411586999297e-04 
-4.975783628974e-04 -1.914562144175e-04 0.0 
-1.914562144175e-04 3.191209784275e-03 0.0 
0.0 0.0 -4.964677435772e-04 
-8.901378245668e-04 -1.873561009026e-04 0.0 
-1.873561009026e-04 5.908561179355e-03 0.0 
0.0 0.0 -8.867075537039e-04 
-1.342259935407e-03 -1.718040054209e-05 0.0 
-1.718040054209e-05 8.855152000548e-03 0.0 
0.0 0.0 -1.342259935407e-03 
-6.396775884645e-04 1.886079041491e-04 0.0 
1.886079041491e-04 4.098241029371e-03 0.0 
0.0 0.0 -6.378868265889e-04 
-9.691742763952e-04 -2.019742400056e-04 0.0 
-2.019742400056e-04 6.483311990656e-03 0.0 
0.0 0.0 -9.693340058278e-04 
-8.041747505047e-04 1.863000233207e-04 0.0 
1.863000233207e-04 5.244246416891e-03 0.0 
0.0 0.0 -8.030799362305e-04 
-8.818155169255e-04 -1.886653253936e-04 0.0 
-1.886653253936e-04 5.877887840043e-03 0.0 
0.0 0.0 -8.811160271665e-04 
-5.320000478192e-04 -1.863752187474e-04 0.0 
-1.863752187474e-04 3.439757636019e-03 0.0 
0.0 0.0 -5.326451291888e-04 
-9.026994633867e-04 -1.977891108898e-04 0.0 
-1.977891108898e-04 6.021154653626e-03 0.0 
0.0 0.0 -9.031726653527e-04 
-7.735880944809e-04 -1.868485495488e-04 0.0 
-1.868485495488e-04 5.115539884919e-03 0.0 
0.0 0.0 -7.729461360948e-04 
-9.981479559481e-04 -1.963805187542e-04 0.0 
-1.963805187542e-04 6.683666354433e-03 0.0 
0.0 0.0 -9.982497011217e-04 
-1.004413229733e-03 1.912127845263e-04 0.0 
1.912127845263e-04 6.639387752267e-03 0.0 
0.0 0.0 -1.003134534203e-03 
-7.686187780919e-04 1.863311149205e-04 0.0 
1.863311149205e-04 4.996748422869e-03 0.0 
0.0 0.0 -7.676694601592e-04 
-6.531466934909e-04 1.957558291536e-04 0.0 
1.957558291536e-04 4.207071568820e-03 0.0 
0.0 0.0 -6.551190094499e-04 
-4.645380568116e-04 -1.828907984747e-04 0.0 
-1.828907984747e-04 2.961721166152e-03 0.0 
0.0 0.0 -4.640097282922e-04 
-6.064572421459e-04 1.910285411048e-04 0.0 
1.910285411048e-04 3.887705448155e-03 0.0 
0.0 0.0 -6.091269606258e-04 
-1.019361563877e-03 -1.903039724259e-04 0.0 
-1.903039724259e-04 6.831244999586e-03 0.0 
0.0 0.0 -1.018204129641e-03 
-8.373723247002e-04 1.874174193606e-04 0.0 
1.874174193606e-04 5.476720692713e-03 0.0 
0.0 0.0 -8.365169925761e-04 
-1.320520432489e-03 -2.623800515080e-05 0.0 
-2.623800515080e-05 9.107403832922e-03 0.0 
0.0 0.0 -1.321929620191e-03 
-1.169515206127e-03 -1.894067828277e-04 0.0 
-1.894067828277e-04 7.912550107300e-03 0.0 
0.0 0.0 -1.174325249119e-03 
-4.054788487746e-04 1.902250889250e-04 0.0 
1.902250889250e-04 2.477005508033e-03 0.0 
0.0 0.0 -4.069995479128e-04 
-1.341047338368e-03 6.114097105082e-06 0.0 
6.114097105082e-06 8.810414551587e-03 0.0 
0.0 0.0 -1.341047338368e-03 
-1.246442799579e-03 -7.048165356662e-06 0.0 
-7.048165356662e-06 8.701531217890e-03 0.0 
0.0 0.0 -1.266414110344e-03 
-7.243231333996e-04 1.855217411942e-04 0.0 
1.855217411942e-04 4.688371918965e-03 0.0 
0.0 0.0 -7.237787631415e-04 
-9.766466055391e-05 -9.527665079689e-06 0.0 
-9.527665079689e-06 3.256739367154e-04 0.0 
0.0 0.0 -9.771826121206e-05 
-1.305508824941e-03 3.853404293039e-06 0.0 
3.853404293039e-06 9.105182867572e-03 0.0 
0.0 0.0 -1.323469717371e-03 
-1.171509388478e-03 -1.678154851061e-04 0.0 
-1.678154851061e-04 7.861802012676e-03 0.0 
0.0 0.0 -1.167157861819e-03 
-4.521694521813e-04 2.012915858519e-04 0.0 
2.012915858519e-04 2.804008720375e-03 0.0 
0.0 0.0 -4.535238702637e-04 
-1.341709311524e-03 -1.310979986686e-05 0.0 
-1.310979986686e-05 8.829628018658e-03 0.0 
0.0 0.0 -1.341709311524e-03 
-9.320413057689e-04 -1.962162649741e-04 0.0 
-1.962162649741e-04 6.231458751848e-03 0.0 
0.0 0.0 -9.325599965574e-04 
-6.268046795760e-04 1.808345467380e-04 0.0 
1.808345467380e-04 3.989844982223e-03 0.0 
0.0 0.0 -6.229492605273e-04 
-8.398341044081e-04 1.726875732325e-04 0.0 
1.726875732325e-04 5.514357495571e-03 0.0 
0.0 0.0 -8.408860858065e-04 
-8.060358487983e-04 -1.972435935582e-04 0.0 
-1.972435935582e-04 5.343400692596e-03 0.0 
0.0 0.0 -8.054665293395e-04 
-8.004419744920e-04 -1.952463938329e-04 0.0 
-1.952463938329e-04 5.314426112526e-03 0.0 
0.0 0.0 -8.008683130455e-04 
-9.182717976000e-04 -1.896493216883e-04 0.0 
-1.896493216883e-04 6.134019344383e-03 0.0 
0.0 0.0 -9.181754741429e-04 
-9.700343521080e-04 -1.978951788456e-04 0.0 
-1.978951788456e-04 6.510189924062e-03 0.0 
0.0 0.0 -9.721028620036e-04 
-6.977402691425e-04 1.822093202730e-04 0.0 
1.822093202730e-04 4.487185732323e-03 0.0 
0.0 0.0 -6.945885048819e-04 
-1.040005538332e-03 1.990021927621e-04 0.0 
1.990021927621e-04 6.900874594821e-03 0.0 
0.0 0.0 -1.039409037654e-03 
-8.975501320031e-04 -2.506583898402e-05 0.0 
-2.506583898402e-05 6.020256954513e-03 0.0 
0.0 0.0 -8.839498032872e-04 
-6.495260709226e-04 -1.944699442282e-04 0.0 
-1.944699442282e-04 4.277277504375e-03 0.0 
0.0 0.0 -6.521967345917e-04 
-9.682052284533e-04 1.865606736299e-04 0.0 
1.865606736299e-04 6.381518702333e-03 0.0 
0.0 0.0 -9.664699797409e-04 
-5.143750252182e-04 -1.778295084176e-04 0.0 
-1.778295084176e-04 3.324024151635e-03 0.0 
0.0 0.0 -5.155438399970e-04 
-9.088890292892e-04 1.918794185100e-04 0.0 
1.918794185100e-04 5.978978740211e-03 0.0 
0.0 0.0 -9.093720595694e-04 
-5.184917320349e-05 -5.023579163672e-06 0.0 
-5.023579163672e-06 2.615427770040e-04 0.0 
0.0 0.0 -4.585464485956e-05 
-5.019069719293e-04 -1.730390890632e-04 0.0 
-1.730390890632e-04 3.221983585288e-03 0.0 
0.0 0.0 -4.997308803768e-04 
-4.873333685603e-04 -1.811613926647e-04 0.0 
-1.811613926647e-04 3.131270652529e-03 0.0 
0.0 0.0 -4.875765080988e-04 
-7.115036268068e-04 1.928847685251e-04 0.0 
1.928847685251e-04 4.611615726792e-03 0.0 
0.0 0.0 -7.126562430122e-04 
-7.596608402965e-04 1.884583179831e-04 0.0 
1.884583179831e-04 4.937228765552e-03 0.0 
0.0 0.0 -7.595228636782e-04 
-9.346957466832e-04 1.973754267299e-04 0.0 
1.973754267299e-04 6.167461615292e-03 0.0 
0.0 0.0 -9.350600278798e-04 
-8.902631525082e-04 -1.867681813360e-04 0.0 
-1.867681813360e-04 5.973122971149e-03 0.0 
0.0 0.0 -8.962969588583e-04 
-4.491438895743e-04 -1.869760147927e-04 0.0 
-1.869760147927e-04 2.875737731611e-03 0.0 
0.0 0.0 -4.505554202764e-04 
-1.341827844788e-03 5.881319465524e-06 0.0 
5.881319465524e-06 8.853598786661e-03 0.0 
0.0 0.0 -1.341827844788e-03 
-8.819043585379e-04 -1.894669265130e-04 0.0 
-1.894669265130e-04 5.856756576790e-03 0.0 
0.0 0.0 -8.789935771182e-04 
-7.395748600620e-04 1.939731217689e-04 0.0 
1.939731217689e-04 4.808423671935e-03 0.0 
0.0 0.0 -7.413896480605e-04 
-8.456344442179e-04 -1.866159444842e-04 0.0 
-1.866159444842e-04 5.609212261315e-03 0.0 
0.0 0.0 -8.436662038215e-04 
-7.098621749807e-04 -1.956105885316e-04 0.0 
-1.956105885316e-04 4.679646247114e-03 0.0 
0.0 0.0 -7.098625721847e-04 
0.0 0.0 0.0 
0.0 0.0 0.0 
0.0 0.0 0.0 
-8.787853985481e-04 -1.870345829221e-04 0.0 
-1.870345829221e-04 5.815290073788e-03 0.0 
0.0 0.0 -8.733545218784e-04 
-6.014622352257e-04 2.088026922776e-04 0.0 
2.088026922776e-04 3.826503758406e-03 0.0 
0.0 0.0 -5.956302995864e-04 
0.0 0.0 0.0 
0.0 0.0 0.0 
0.0 0.0 0.0 
-7.014361857610e-04 2.031970023559e-04 0.0 
2.031970023559e-04 4.544280328863e-03 0.0 
0.0 0.0 -7.041275119738e-04 
-1.001578329479e-03 1.949348082252e-04 0.0 
1.949348082252e-04 6.625301000395e-03 0.0 
0.0 0.0 -1.001254648526e-03 
-1.145850176714e-03 1.952473198253e-04 0.0 
1.952473198253e-04 7.640587141445e-03 0.0 
0.0 0.0 -1.146946825052e-03 
-8.534899184108e-04 -1.900750659178e-04 0.0 
-1.900750659178e-04 5.682294137052e-03 0.0 
0.0 0.0 -8.532270185794e-04 
-8.843005196867e-04 1.891738523443e-04 0.0 
1.891738523443e-04 5.802847869315e-03 0.0 
0.0 0.0 -8.841559964380e-04 
-7.498668879057e-04 -1.500423199850e-04 0.0 
-1.500423199850e-04 4.956000169468e-03 0.0 
0.0 0.0 -7.495231765994e-04 
-7.499562203702e-04 -7.649065135862e-06 0.0 
-7.649065135862e-06 4.585920683461e-03 0.0 
0.0 0.0 -7.312625299843e-04 
-1.259814766287e-03 -2.251942805186e-05 0.0 
-2.251942805186e-05 8.482919934012e-03 0.0 
0.0 0.0 -1.286111585339e-03 
-8.096577215198e-04 -1.889624871780e-04 0.0 
-1.889624871780e-04 5.361431513159e-03 0.0 
0.0 0.0 -8.082854548548e-04 
-2.601123029567e-05 -8.443429959233e-06 0.0 
-8.443429959233e-06 2.242861713756e-04 0.0 
0.0 0.0 -4.535587742227e-05 
-2.679801948708e-04 -1.979252069441e-04 0.0 
-1.979252069441e-04 1.544873028567e-03 0.0 
0.0 0.0 -2.569639750501e-04 
-9.553383276932e-05 -1.682092997359e-05 0.0 
-1.682092997359e-05 3.188442541893e-04 0.0 
0.0 0.0 -9.570446632286e-05 
-4.265759374031e-04 -1.588061750622e-04 0.0 
-1.588061750622e-04 2.743578014403e-03 0.0 
0.0 0.0 -4.284133232656e-04 
-1.136810990824e-03 -2.050532392672e-04 0.0 
-2.050532392672e-04 7.627868260152e-03 0.0 
0.0 0.0 -1.134523071099e-03 
-1.147232605264e-03 -1.988471843745e-04 0.0 
-1.988471843745e-04 7.696346442353e-03 0.0 
0.0 0.0 -1.144649651339e-03 
-1.090721102207e-03 1.927119379256e-04 0.0 
1.927119379256e-04 7.225314130525e-03 0.0 
0.0 0.0 -1.087427768671e-03 
-4.794185500659e-04 -1.949320750668e-04 0.0 
-1.949320750668e-04 3.096205477872e-03 0.0 
0.0 0.0 -4.827803379924e-04 
-9.064466102036e-04 -1.951694302266e-04 0.0 
-1.951694302266e-04 6.052913189119e-03 0.0 
0.0 0.0 -9.063168105749e-04 
-1.135504702689e-03 1.907792817819e-04 0.0 
1.907792817819e-04 7.600364314815e-03 0.0 
0.0 0.0 -1.142106164842e-03 
-2.788698608247e-04 -1.715069773272e-04 0.0 
-1.715069773272e-04 1.706769297964e-03 0.0 
0.0 0.0 -2.821198837983e-04 
-5.962549057610e-04 -2.242943986440e-04 0.0 
-2.242943986440e-04 3.850260609285e-03 0.0 
0.0 0.0 -5.942115541274e-04 
-4.821057558984e-04 1.938812463926e-04 0.0 
1.938812463926e-04 3.093517382698e-03 0.0 
0.0 0.0 -4.980019828625e-04 
-1.334956243324e-03 1.593537991859e-05 0.0 
1.593537991859e-05 9.100113722888e-03 0.0 
0.0 0.0 -1.322396863610e-03 
-1.341641872583e-03 -1.598087186621e-05 0.0 
-1.598087186621e-05 8.845353034364e-03 0.0 
0.0 0.0 -1.341641872583e-03 
-6.679494605950e-04 -1.695756001759e-04 0.0 
-1.695756001759e-04 4.277020538631e-03 0.0 
0.0 0.0 -6.580288049735e-04 
-7.324961324261e-04 -1.951613493015e-04 0.0 
-1.951613493015e-04 4.877737690436e-03 0.0 
0.0 0.0 -7.385580096348e-04 
-8.320090833607e-04 1.945702263429e-04 0.0 
1.945702263429e-04 5.445258436908e-03 0.0 
0.0 0.0 -8.323457052078e-04 
-1.163041303964e-03 1.778772476613e-04 0.0 
1.778772476613e-04 7.881722024609e-03 0.0 
0.0 0.0 -1.177278300149e-03 
-2.899237030429e-04 1.996200503925e-04 0.0 
1.996200503925e-04 1.630038568431e-03 0.0 
0.0 0.0 -2.880367495917e-04 
-1.101530990218e-03 1.937554819912e-04 0.0 
1.937554819912e-04 7.342981690998e-03 0.0 
0.0 0.0 -1.104707344597e-03 
-1.602377275387e-04 3.299975488637e-05 0.0 
3.299975488637e-05 1.021185104458e-03 0.0 
0.0 0.0 -1.612556504808e-04 
-6.771993620365e-04 -1.961964403491e-04 0.0 
-1.961964403491e-04 4.422374575330e-03 0.0 
0.0 0.0 -6.724657308136e-04 
-7.463531003114e-04 -1.974750822580e-04 0.0 
-1.974750822580e-04 4.938620865557e-03 0.0 
0.0 0.0 -7.470513223635e-04 
-9.733051936627e-05 1.431354683513e-05 0.0 
1.431354683513e-05 3.247181541802e-04 0.0 
0.0 0.0 -9.745184349170e-05 
-6.107893375516e-04 1.961955655378e-04 0.0 
1.961955655378e-04 4.041501780348e-03 0.0 
0.0 0.0 -6.267591816330e-04 
-1.179150888516e-03 1.722766776771e-04 0.0 
1.722766776771e-04 7.845621701176e-03 0.0 
0.0 0.0 -1.176862138969e-03 
-5.380435756070e-05 -4.751466869154e-06 0.0 
-4.751466869154e-06 2.532858114077e-04 0.0 
0.0 0.0 -4.590328595372e-05 
-7.312532489837e-04 1.362386611749e-05 0.0 
1.362386611749e-05 4.573834094121e-03 0.0 
0.0 0.0 -7.322753781719e-04 
-7.047922472484e-04 1.123922026685e-06 0.0 
1.123922026685e-06 4.847576831705e-03 0.0 
0.0 0.0 -7.130472889423e-04 
-9.547380700052e-04 -1.945366017599e-04 0.0 
-1.945366017599e-04 6.390005998802e-03 0.0 
0.0 0.0 -9.552000144736e-04 
-4.877659469443e-04 -1.909239420501e-04 0.0 
-1.909239420501e-04 3.137535928941e-03 0.0 
0.0 0.0 -4.943513106837e-04 
-4.803168808599e-04 1.981666947029e-04 0.0 
1.981666947029e-04 2.999843219209e-03 0.0 
0.0 0.0 -4.817493388239e-04 
-3.413576717745e-04 -1.696251700452e-04 0.0 
-1.696251700452e-04 2.103971295735e-03 0.0 
0.0 0.0 -3.398054741319e-04 
-1.177842708252e-03 1.745516882076e-04 0.0 
1.745516882076e-04 7.866046843566e-03 0.0 
0.0 0.0 -1.180895453064e-03 
-1.288113258455e-03 -7.910099866532e-06 0.0 
-7.910099866532e-06 8.468043511099e-03 0.0 
0.0 0.0 -1.286194385238e-03 
-1.101033919243e-03 -1.960948394900e-04 0.0 
-1.960948394900e-04 7.394725323298e-03 0.0 
0.0 0.0 -1.101088927253e-03 
-4.503494869687e-04 -1.637033152419e-04 0.0 
-1.637033152419e-04 2.832512250195e-03 0.0 
0.0 0.0 -4.457015571677e-04 
-2.141424004700e-04 2.387020000876e-04 0.0 
2.387020000876e-04 9.652683007768e-04 0.0 
0.0 0.0 -1.905831712289e-04 
-7.028954825784e-04 -1.797251013726e-04 0.0 
-1.797251013726e-04 4.605141056062e-03 0.0 
0.0 0.0 -6.999131133628e-04 
-7.213924053117e-04 -5.563189410970e-07 0.0 
-5.563189410970e-07 4.593100885078e-03 0.0 
0.0 0.0 -7.345111139194e-04 
-7.221802994753e-04 -3.459116523938e-05 0.0 
-3.459116523938e-05 4.860709319501e-03 0.0 
0.0 0.0 -7.144802219086e-04 
0.0 0.0 0.0 
0.0 0.0 0.0 
0.0 0.0 0.0 
-9.462674636507e-05 9.391315588563e-06 0.0 
9.391315588563e-06 3.155479012844e-04 0.0 
0.0 0.0 -9.468049496542e-05 
-1.889846684321e-04 -5.120829147058e-05 0.0 
-5.120829147058e-05 7.312686420689e-04 0.0 
0.0 0.0 -1.795416262981e-04 
-3.813293178289e-04 1.993773121019e-04 0.0 
1.993773121019e-04 2.301443442693e-03 0.0 
0.0 0.0 -3.820941496288e-04 
-1.147287239146e-04 2.233479330491e-06 0.0 
2.233479330491e-06 6.267336868549e-04 0.0 
0.0 0.0 -1.035694276016e-04 
-7.177698882455e-04 1.875976177193e-04 0.0 
1.875976177193e-04 4.537921580666e-03 0.0 
0.0 0.0 -6.918148876825e-04 
0.0 0.0 0.0 
0.0 0.0 0.0 
0.0 0.0 0.0 
-4.466789787724e-04 2.025807610901e-04 0.0 
2.025807610901e-04 2.763058809203e-03 0.0 
0.0 0.0 -4.482372226011e-04 
-9.484602570363e-04 5.937741420751e-05 0.0 
5.937741420751e-05 6.186307546056e-03 0.0 
0.0 0.0 -9.582560723523e-04 
-7.114040901391e-04 1.008097673964e-05 0.0 
1.008097673964e-05 4.858827396879e-03 0.0 
0.0 0.0 -7.120344407548e-04 
-1.154819602250e-03 -2.018660896655e-04 0.0 
-2.018660896655e-04 7.854075905782e-03 0.0 
0.0 0.0 -1.169483110168e-03 
-9.636351090390e-04 1.953512484906e-04 0.0 
1.953512484906e-04 6.363047776900e-03 0.0 
0.0 0.0 -9.641449249716e-04 
-9.024629704431e-04 7.830558015861e-05 0.0 
7.830558015861e-05 5.773999043953e-03 0.0 
0.0 0.0 -8.988447104697e-04 
-5.248669465082e-04 2.030027087804e-04 0.0 
2.030027087804e-04 3.352814556998e-03 0.0 
0.0 0.0 -5.269378630653e-04 
-1.557908844091e-04 -1.426598337885e-05 0.0 
-1.426598337885e-05 1.017280518651e-03 0.0 
0.0 0.0 -1.602995255322e-04 
-1.340974968048e-03 -2.076763454680e-05 0.0 
-2.076763454680e-05 8.825339797415e-03 0.0 
0.0 0.0 -1.340974968048e-03 
-1.331740677566e-03 -1.067318438910e-06 0.0 
-1.067318438910e-06 9.107204473734e-03 0.0 
0.0 0.0 -1.320295381545e-03 
-8.482992821085e-04 2.310186269771e-04 0.0 
2.310186269771e-04 5.616583664962e-03 0.0 
0.0 0.0 -8.588387843224e-04 
-7.462574470129e-04 -7.506809615043e-06 0.0 
-7.506809615043e-06 4.590636784032e-03 0.0 
0.0 0.0 -7.326073368541e-04 
-5.251543525857e-04 -1.205978746023e-04 0.0 
-1.205978746023e-04 3.428806267578e-03 0.0 
0.0 0.0 -5.314511797787e-04 
-1.323491096028e-03 -2.283744003803e-05 0.0 
-2.283744003803e-05 9.085754239402e-03 0.0 
0.0 0.0 -1.322576402756e-03 
-4.157468964118e-04 -1.918553564634e-04 0.0 
-1.918553564634e-04 2.636700862140e-03 0.0 
0.0 0.0 -4.166600706249e-04 
-7.057672473389e-04 -4.164103403237e-06 0.0 
-4.164103403237e-06 4.837446989167e-03 0.0 
0.0 0.0 -7.125614225629e-04 
-7.131316839303e-04 7.226971892557e-06 0.0 
7.226971892557e-06 4.584933787265e-03 0.0 
0.0 0.0 -7.312775522649e-04 
-6.769264019625e-04 1.800240141216e-04 0.0 
1.800240141216e-04 4.359211225872e-03 0.0 
0.0 0.0 -6.755779900756e-04 
-1.341823989366e-03 -1.865391509118e-05 0.0 
-1.865391509118e-05 8.857424336763e-03 0.0 
0.0 0.0 -1.341823989366e-03 
-1.293765856573e-03 1.607380559243e-05 0.0 
1.607380559243e-05 9.094492997413e-03 0.0 
0.0 0.0 -1.322582685247e-03 
-1.126722208426e-04 6.998488737266e-06 0.0 
6.998488737266e-06 6.134703062313e-04 0.0 
0.0 0.0 -1.035688293187e-04 
0.0 0.0 0.0 
0.0 0.0 0.0 
0.0 0.0 0.0 
-2.390355384623e-04 1.936491639953e-04 0.0 
1.936491639953e-04 1.192457136132e-03 0.0 
0.0 0.0 -2.221130066924e-04 
-7.484754656573e-04 1.958621454920e-04 0.0 
1.958621454920e-04 4.871290639516e-03 0.0 
0.0 0.0 -7.497705102653e-04 
-1.223848934685e-03 2.347738204731e-04 0.0 
2.347738204731e-04 8.231542695031e-03 0.0 
0.0 0.0 -1.224669017856e-03 
-3.851215442265e-05 -6.758275575601e-05 0.0 
-6.758275575601e-05 2.149841041377e-04 0.0 
0.0 0.0 -4.506945562690e-05 
-1.095035538177e-03 -2.135230687797e-04 0.0 
-2.135230687797e-04 7.297496536284e-03 0.0 
0.0 0.0 -1.092518628633e-03 
0.0 0.0 0.0 
0.0 0.0 0.0 
0.0 0.0 0.0 
-9.497696422961e-04 1.942166615206e-04 0.0 
1.942166615206e-04 6.260470679264e-03 0.0 
0.0 0.0 -9.493083249531e-04 
-6.288110034417e-05 6.701081411341e-06 0.0 
6.701081411341e-06 2.758850751309e-04 0.0 
0.0 0.0 -4.591043399907e-05 
-6.241905191399e-05 -2.511621330185e-05 0.0 
-2.511621330185e-05 2.635940123717e-04 0.0 
0.0 0.0 -4.615290204994e-05 
-9.135771074388e-04 1.942985431381e-04 0.0 
1.942985431381e-04 6.003773453710e-03 0.0 
0.0 0.0 -9.122568895951e-04 
-1.191044637578e-03 1.954606753198e-04 0.0 
1.954606753198e-04 7.975629465802e-03 0.0 
0.0 0.0 -1.192963836147e-03 
-9.353430265023e-04 -9.437658603161e-05 0.0 
-9.437658603161e-05 6.401376295666e-03 0.0 
0.0 0.0 -9.361271490834e-04 
-7.292657224304e-04 -1.767865209210e-04 0.0 
-1.767865209210e-04 4.795789678295e-03 0.0 
0.0 0.0 -7.268406435589e-04 
-9.710718174905e-05 -1.358771368788e-05 0.0 
-1.358771368788e-05 3.239463226279e-04 0.0 
0.0 0.0 -9.721677466237e-05 
-9.353638871597e-04 -1.962742580692e-04 0.0 
-1.962742580692e-04 6.250401807132e-03 0.0 
0.0 0.0 -9.349022313484e-04 
-1.337797817327e-03 -2.530827551252e-05 0.0 
-2.530827551252e-05 8.814034455446e-03 0.0 
0.0 0.0 -1.337797817327e-03 
-1.326036287352e-03 -1.455315038832e-04 0.0 
-1.455315038832e-04 9.082015863419e-03 0.0 
0.0 0.0 -1.322354755130e-03 
-7.123437340294e-04 1.173862101604e-05 0.0 
1.173862101604e-05 4.855322276952e-03 0.0 
0.0 0.0 -7.125764448434e-04 
-9.860203699540e-04 1.899915039947e-04 0.0 
1.899915039947e-04 6.516626141221e-03 0.0 
0.0 0.0 -9.863757069361e-04 
-1.341607717199e-03 1.356557150840e-05 0.0 
1.356557150840e-05 8.840587029738e-03 0.0 
0.0 0.0 -1.341607717199e-03 
-1.048314093038e-03 -2.082351981232e-04 0.0 
-2.082351981232e-04 7.019832661667e-03 0.0 
0.0 0.0 -1.046710270629e-03 
-1.675301838823e-04 4.109428891396e-05 0.0 
4.109428891396e-05 9.648536059596e-04 0.0 
0.0 0.0 -1.589907658001e-04 
-1.067672517152e-04 -9.583258243014e-06 0.0 
-9.583258243014e-06 6.200113654204e-04 0.0 
0.0 0.0 -1.029725306715e-04 
-1.028842676796e-04 -4.314994342249e-05 0.0 
-4.314994342249e-05 3.453649952318e-04 0.0 
0.0 0.0 -1.039203118081e-04 
-5.871622493136e-04 1.953666188975e-04 0.0 
1.953666188975e-04 3.814212399553e-03 0.0 
0.0 0.0 -5.933358154923e-04 
-1.333672766825e-03 -1.202212504053e-04 0.0 
-1.202212504053e-04 9.086271765214e-03 0.0 
0.0 0.0 -1.322828574513e-03 
-1.249098589656e-03 -2.325383237370e-04 0.0 
-2.325383237370e-04 8.487130897030e-03 0.0 
0.0 0.0 -1.258329778789e-03 
0.0 0.0 0.0 
0.0 0.0 0.0 
0.0 0.0 0.0 
-6.989700289776e-04 -1.857489314676e-04 0.0 
-1.857489314676e-04 4.509333602690e-03 0.0 
0.0 0.0 -6.938761155152e-04 
-1.344798314370e-03 5.494387484636e-06 0.0 
5.494387484636e-06 8.860415151620e-03 0.0 
0.0 0.0 -1.344798314369e-03 
-1.337322942170e-03 3.677431177348e-05 0.0 
3.677431177348e-05 9.118625106116e-03 0.0 
0.0 0.0 -1.318785251170e-03 
-1.303755075695e-03 1.430690451397e-06 0.0 
1.430690451397e-06 9.096198326928e-03 0.0 
0.0 0.0 -1.321151187552e-03 
-1.034449558172e-03 2.142439693304e-04 0.0 
2.142439693304e-04 6.840882471351e-03 0.0 
0.0 0.0 -1.027148381742e-03 
-1.117879717661e-03 -2.162737768218e-04 0.0 
-2.162737768218e-04 7.549121072968e-03 0.0 
0.0 0.0 -1.125709525796e-03 
-1.338030260144e-03 -6.968280175093e-06 0.0 
-6.968280175093e-06 8.819304319896e-03 0.0 
0.0 0.0 -1.338030260144e-03 
-1.340754991027e-03 -2.793160050155e-05 0.0 
-2.793160050155e-05 8.842227493663e-03 0.0 
0.0 0.0 -1.340754991027e-03 
-1.084387157107e-03 1.756228747117e-04 0.0 
1.756228747117e-04 7.304356114432e-03 0.0 
0.0 0.0 -1.092518628633e-03 
-2.311762207506e-05 7.524747598181e-05 0.0 
7.524747598181e-05 1.841595127813e-04 0.0 
0.0 0.0 -4.541545915403e-05 
-7.129930244863e-04 -1.525724794926e-06 0.0 
-1.525724794926e-06 4.814692496190e-03 0.0 
0.0 0.0 -7.139539158865e-04 
-7.213897068280e-04 3.016260299788e-05 0.0 
3.016260299788e-05 4.878464797693e-03 0.0 
0.0 0.0 -7.133642253441e-04 
0.0 0.0 0.0 
0.0 0.0 0.0 
0.0 0.0 0.0 
-1.342313591240e-03 1.055329185635e-05 0.0 
1.055329185635e-05 8.873951644271e-03 0.0 
0.0 0.0 -1.342313591240e-03 
-1.336661786255e-03 2.540411115345e-05 0.0 
2.540411115345e-05 9.107640988403e-03 0.0 
0.0 0.0 -1.318355947622e-03 
-1.337959751097e-03 6.489046299360e-07 0.0 
6.489046299360e-07 8.814031058647e-03 0.0 
0.0 0.0 -1.337959751097e-03 
-6.887950874113e-05 7.326700540917e-06 0.0 
7.326700540917e-06 2.659430667850e-04 0.0 
0.0 0.0 -4.582974829071e-05 
-7.021790639444e-05 9.602649528375e-06 0.0 
9.602649528375e-06 2.736498867396e-04 0.0 
0.0 0.0 -4.591370119938e-05 
-1.340754991027e-03 -1.163411170894e-06 0.0 
-1.163411170894e-06 8.829041487509e-03 0.0 
0.0 0.0 -1.340754991027e-03 
-1.340396196526e-03 -2.044778395464e-05 0.0 
-2.044778395464e-05 8.820055094331e-03 0.0 
0.0 0.0 -1.340396196526e-03 
-1.016763022878e-03 -2.313272643619e-04 0.0 
-2.313272643619e-04 6.613286649783e-03 0.0 
0.0 0.0 -9.936726122374e-04 
-7.156761650400e-04 3.174630435060e-05 0.0 
3.174630435060e-05 4.813106322843e-03 0.0 
0.0 0.0 -7.124851972278e-04 
-1.051691578887e-03 -2.268729750207e-04 0.0 
-2.268729750207e-04 7.069453692283e-03 0.0 
0.0 0.0 -1.060142436171e-03 
-8.856361613045e-04 -2.246794552561e-04 0.0 
-2.246794552561e-04 5.656932423438e-03 0.0 
0.0 0.0 -8.626607521899e-04 
-6.974461573381e-04 1.315776503869e-05 0.0 
1.315776503869e-05 4.815685979733e-03 0.0 
0.0 0.0 -7.121912678902e-04 
-3.076401957545e-05 3.630205513196e-05 0.0 
3.630205513196e-05 2.492584121326e-04 0.0 
0.0 0.0 -4.495577515415e-05 
-4.859098010828e-05 -3.737210181655e-05 0.0 
-3.737210181655e-05 2.860304098853e-04 0.0 
0.0 0.0 -4.591167563965e-05 
-3.185160578265e-05 -1.142237180327e-05 0.0 
-1.142237180327e-05 2.469612253318e-04 0.0 
0.0 0.0 -4.589015575604e-05 
-4.731421252786e-05 -1.226097571205e-05 0.0 
-1.226097571205e-05 2.659450080892e-04 0.0 
0.0 0.0 -4.556578909549e-05 
-7.410966517880e-04 2.317413733405e-04 0.0 
2.317413733405e-04 4.761489269815e-03 0.0 
0.0 0.0 -7.271325101417e-04 
-6.567236663823e-04 2.031409226007e-04 0.0 
2.031409226007e-04 4.278704049819e-03 0.0 
0.0 0.0 -6.600769387058e-04 
0.0 0.0 0.0 
0.0 0.0 0.0 
0.0 0.0 0.0 
-9.198692932468e-04 2.207519103490e-04 0.0 
2.207519103490e-04 6.164531821473e-03 0.0 
0.0 0.0 -9.221709323543e-04 
0.0 0.0 0.0 
0.0 0.0 0.0 
0.0 0.0 0.0 
-1.341471640605e-03 5.425770365484e-06 0.0 
5.425770365484e-06 8.820837432317e-03 0.0 
0.0 0.0 -1.341471640605e-03 
-1.340968685557e-03 1.249741243797e-05 0.0 
1.249741243797e-05 8.807656416615e-03 0.0 
0.0 0.0 -1.340968685557e-03 
-1.339320413496e-03 -6.736119072726e-06 0.0 
-6.736119072726e-06 8.832654043149e-03 0.0 
0.0 0.0 -1.339320413496e-03 
-2.516213945074e-04 2.377641770175e-04 0.0 
2.377641770175e-04 1.477950192533e-03 0.0 
0.0 0.0 -2.599136149544e-04 
-4.499622910387e-04 2.064665423492e-04 0.0 
2.064665423492e-04 2.879856921820e-03 0.0 
0.0 0.0 -4.607467809507e-04 
-1.337132911908e-03 -4.793528436985e-06 0.0 
-4.793528436985e-06 8.820087587172e-03 0.0 
0.0 0.0 -1.337132911908e-03 
-1.120160542764e-03 1.885503644174e-04 0.0 
1.885503644174e-04 7.560722239950e-03 0.0 
0.0 0.0 -1.124956933753e-03 
-1.344556937803e-03 -2.104246713843e-05 0.0 
-2.104246713843e-05 8.860523593132e-03 0.0 
0.0 0.0 -1.344556937803e-03 
-1.195658010449e-03 2.008624552428e-04 0.0 
2.008624552428e-04 8.028011251528e-03 0.0 
0.0 0.0 -1.192538251246e-03 
-1.264541089761e-03 2.315838415429e-04 0.0 
2.315838415429e-04 8.498729307699e-03 0.0 
0.0 0.0 -1.259905836238e-03 
-6.219774932840e-04 -2.035330289392e-04 0.0 
-2.035330289392e-04 4.041759494414e-03 0.0 
0.0 0.0 -6.267460875326e-04 
-1.333336577702e-03 -3.290028368550e-05 0.0 
-3.290028368550e-05 9.106230716714e-03 0.0 
0.0 0.0 -1.318101597465e-03 
-1.336001964470e-03 1.162172730561e-04 0.0 
1.162172730561e-04 9.090958479552e-03 0.0 
0.0 0.0 -1.321689849711e-03 
-1.157015842751e-03 -2.064363215115e-04 0.0 
-2.064363215115e-04 7.737243073859e-03 0.0 
0.0 0.0 -1.157495185000e-03 
-1.229671491752e-03 -2.051129200289e-04 0.0 
-2.051129200289e-04 8.228478437854e-03 0.0 
0.0 0.0 -1.225777420818e-03 
-9.871372975694e-04 -1.866548184672e-04 0.0 
-1.866548184672e-04 6.644402027939e-03 0.0 
0.0 0.0 -9.925156490314e-04 
0.0 0.0 0.0 
0.0 0.0 0.0 
0.0 0.0 0.0 
-6.525071487266e-04 -2.022287068405e-04 0.0 
-2.022287068405e-04 4.165983179946e-03 0.0 
0.0 0.0 -6.350241097613e-04 
-1.062777711570e-04 -2.500028508481e-05 0.0 
-2.500028508481e-05 5.975407209184e-04 0.0 
0.0 0.0 -1.030398215525e-04 
-1.177532662352e-03 -1.733616004669e-04 0.0 
-1.733616004669e-04 7.926724853394e-03 0.0 
0.0 0.0 -1.177819030284e-03 
-6.744770170929e-04 1.928269940394e-04 0.0 
1.928269940394e-04 4.352241427477e-03 0.0 
0.0 0.0 -6.753691525988e-04 
-1.095781442937e-03 1.863762097668e-04 0.0 
1.863762097668e-04 7.297090200674e-03 0.0 
0.0 0.0 -1.099016898379e-03 
-3.528730048210e-04 -1.946361167359e-04 0.0 
-1.946361167359e-04 2.176757571714e-03 0.0 
0.0 0.0 -3.504775146279e-04 
-1.550760112037e-04 1.206598951615e-04 0.0 
1.206598951615e-04 7.508446244136e-04 0.0 
0.0 0.0 -1.735952156319e-04 
-1.160601579575e-03 -1.894710886425e-04 0.0 
-1.894710886425e-04 7.820833929290e-03 0.0 
0.0 0.0 -1.161668299909e-03 
-6.889768412053e-04 -1.975061828768e-04 0.0 
-1.975061828768e-04 4.617261067584e-03 0.0 
0.0 0.0 -7.012080445024e-04 
-5.762009062567e-04 2.005988488918e-04 0.0 
2.005988488918e-04 3.584897669436e-03 0.0 
0.0 0.0 -5.611363230934e-04 
-1.093490207039e-03 -1.909491051748e-04 0.0 
-1.909491051748e-04 7.367841895943e-03 0.0 
0.0 0.0 -1.096102707776e-03 
-1.178635420303e-03 1.949598249273e-04 0.0 
1.949598249273e-04 7.912911661083e-03 0.0 
0.0 0.0 -1.188907866872e-03 
-5.561658818215e-04 -2.031625025719e-04 0.0 
-2.031625025719e-04 3.593153237093e-03 0.0 
0.0 0.0 -5.602736785587e-04 
-1.035403721303e-03 -2.031605927371e-04 0.0 
-2.031605927371e-04 6.949569291118e-03 0.0 
0.0 0.0 -1.035646790376e-03 
-9.180249208977e-04 1.931476710153e-04 0.0 
1.931476710153e-04 6.042341158293e-03 0.0 
0.0 0.0 -9.181742748318e-04 
-9.917755747799e-04 2.023242542686e-04 0.0 
2.023242542686e-04 6.575747416083e-03 0.0 
0.0 0.0 -9.952786863929e-04 
-1.024377024952e-03 1.861972783327e-04 0.0 
1.861972783327e-04 6.794579129447e-03 0.0 
0.0 0.0 -1.024224580100e-03 
-5.802650742356e-04 1.891370522918e-04 0.0 
1.891370522918e-04 3.679117002713e-03 0.0 
0.0 0.0 -5.788817793163e-04 
-6.680148396562e-04 -1.727307713497e-04 0.0 
-1.727307713497e-04 4.367645791481e-03 0.0 
0.0 0.0 -6.651338130661e-04 
-7.292546132971e-04 -1.846826388501e-04 0.0 
-1.846826388501e-04 4.813421317749e-03 0.0 
0.0 0.0 -7.293057621917e-04 
-9.374184943370e-04 1.944757919182e-04 0.0 
1.944757919182e-04 6.178932175003e-03 0.0 
0.0 0.0 -9.378562126457e-04 
-1.124743441142e-03 -2.044895248108e-04 0.0 
-2.044895248108e-04 7.578873023721e-03 0.0 
0.0 0.0 -1.125100902632e-03 
-1.057275381377e-03 1.952239226915e-04 0.0 
1.952239226915e-04 7.019062258927e-03 0.0 
0.0 0.0 -1.053755873404e-03 
-3.652721065736e-04 1.996025403975e-04 0.0 
1.996025403975e-04 2.192815232503e-03 0.0 
0.0 0.0 -3.685493992842e-04 
-1.164581229115e-03 2.188850811810e-04 0.0 
2.188850811810e-04 7.900774321480e-03 0.0 
0.0 0.0 -1.183514100502e-03 
-1.119628239997e-03 2.087348229959e-04 0.0 
2.087348229959e-04 7.433542979005e-03 0.0 
0.0 0.0 -1.117084069417e-03 
-8.143956589139e-04 2.341244742852e-04 0.0 
2.341244742852e-04 5.337741611520e-03 0.0 
0.0 0.0 -8.110481619253e-04 
-9.749777922597e-04 1.939288930454e-04 0.0 
1.939288930454e-04 6.440647276838e-03 0.0 
0.0 0.0 -9.753747863247e-04 
-9.652234430735e-04 1.970752514855e-04 0.0 
1.970752514855e-04 6.378006768513e-03 0.0 
0.0 0.0 -9.665592132828e-04 
-1.194888926874e-03 -2.112261199247e-04 0.0 
-2.112261199247e-04 8.020188826812e-03 0.0 
0.0 0.0 -1.185362187646e-03 
-1.151241251503e-03 1.853138580095e-04 0.0 
1.853138580095e-04 7.714994671460e-03 0.0 
0.0 0.0 -1.150972777267e-03 
-8.863019395197e-04 -1.951602003697e-04 0.0 
-1.951602003697e-04 5.913977900844e-03 0.0 
0.0 0.0 -8.866930489607e-04 
-1.183768845123e-03 -1.944166925086e-04 0.0 
-1.944166925086e-04 8.022430172969e-03 0.0 
0.0 0.0 -1.190872049285e-03 
-1.103203670140e-03 1.932633349998e-04 0.0 
1.932633349998e-04 7.339211362922e-03 0.0 
0.0 0.0 -1.103416240745e-03 
-1.053347130920e-03 -1.808067663282e-04 0.0 
-1.808067663282e-04 7.018991585010e-03 0.0 
0.0 0.0 -1.053748284807e-03 
-1.207301516059e-03 -2.189374092153e-04 0.0 
-2.189374092153e-04 8.148472988394e-03 0.0 
0.0 0.0 -1.210017230578e-03 
-1.183451424094e-03 -2.064186268461e-04 0.0 
-2.064186268461e-04 7.961006455012e-03 0.0 
0.0 0.0 -1.181737430652e-03 
-1.012410866899e-03 -2.064236493359e-04 0.0 
-2.064236493359e-04 6.767125967856e-03 0.0 
0.0 0.0 -1.011817915138e-03 
-9.978825943573e-04 -1.946964301517e-04 0.0 
-1.946964301517e-04 6.692413921007e-03 0.0 
0.0 0.0 -9.985655989919e-04 
-3.618458064176e-04 1.902703540338e-04 0.0 
1.902703540338e-04 2.182295586331e-03 0.0 
0.0 0.0 -3.644364776638e-04 
-3.396688960244e-04 1.922383374584e-04 0.0 
1.922383374584e-04 2.020949841441e-03 0.0 
0.0 0.0 -3.414758422231e-04 
-2.048022796594e-04 -2.337971245160e-04 0.0 
-2.337971245160e-04 1.038657557028e-03 0.0 
0.0 0.0 -1.876370064529e-04 
-1.053265806660e-04 1.589966792158e-06 0.0 
1.589966792158e-06 6.159987105294e-04 0.0 
0.0 0.0 -1.032036840373e-04 
-1.146654591444e-03 -2.036534213010e-04 0.0 
-2.036534213010e-04 7.733548266154e-03 0.0 
0.0 0.0 -1.150998037120e-03 
-1.153371435519e-03 1.929566661377e-04 0.0 
1.929566661377e-04 7.706474852566e-03 0.0 
0.0 0.0 -1.156839719840e-03 
-1.023100123297e-04 6.333767357888e-06 0.0 
6.333767357888e-06 5.922537874641e-04 0.0 
0.0 0.0 -1.029284987275e-04 
-1.152902847458e-03 -1.945944093031e-04 0.0 
-1.945944093031e-04 7.806589318492e-03 0.0 
0.0 0.0 -1.160298666437e-03 
-8.240593874314e-04 2.133386610705e-04 0.0 
2.133386610705e-04 5.515954645069e-03 0.0 
0.0 0.0 -8.436798659344e-04 
-1.063159338098e-03 -2.000353252039e-04 0.0 
-2.000353252039e-04 7.170931875512e-03 0.0 
0.0 0.0 -1.067477449466e-03 
-1.091085119062e-03 1.926591161235e-04 0.0 
1.926591161235e-04 7.245677048731e-03 0.0 
0.0 0.0 -1.090430023688e-03 
-5.083685843408e-04 1.854528112905e-04 0.0 
1.854528112905e-04 3.184990427277e-03 0.0 
0.0 0.0 -5.090628918580e-04 
-1.088419020765e-03 -1.985610050621e-04 0.0 
-1.985610050621e-04 7.308442647816e-03 0.0 
0.0 0.0 -1.087955833448e-03 
-8.052736907314e-04 -2.707602780884e-04 0.0 
-2.707602780884e-04 5.346563189152e-03 0.0 
0.0 0.0 -8.100176300978e-04 
-1.002877096566e-03 -1.976880564896e-04 0.0 
-1.976880564896e-04 6.706443384887e-03 0.0 
0.0 0.0 -1.000388816061e-03 
-1.231169607282e-03 2.234727540430e-04 0.0 
2.234727540430e-04 8.305282306820e-03 0.0 
0.0 0.0 -1.242964905849e-03 
-3.519355017218e-04 1.472413134465e-04 0.0 
1.472413134465e-04 2.089181619658e-03 0.0 
0.0 0.0 -3.542437553904e-04 
-1.221302329282e-03 -1.674357911947e-04 0.0 
-1.674357911947e-04 8.209373583472e-03 0.0 
0.0 0.0 -1.215045542354e-03 
-1.047850802636e-03 -1.881582153281e-04 0.0 
-1.881582153281e-04 7.026769425363e-03 0.0 
0.0 0.0 -1.048288725887e-03 
-3.889604497647e-04 2.037169653349e-04 0.0 
2.037169653349e-04 2.380154464468e-03 0.0 
0.0 0.0 -3.930611257745e-04 
-4.005955795872e-04 -1.795528067479e-04 0.0 
-1.795528067479e-04 2.551679544192e-03 0.0 
0.0 0.0 -4.034900192350e-04 
-7.895600060851e-04 1.993051337404e-04 0.0 
1.993051337404e-04 5.154958880860e-03 0.0 
0.0 0.0 -7.909606353592e-04 
-9.478370252283e-04 2.028022273916e-04 0.0 
2.028022273916e-04 6.213549732246e-03 0.0 
0.0 0.0 -9.409807611877e-04 
-5.389171118930e-04 1.931642811105e-04 0.0 
1.931642811105e-04 3.423254400861e-03 0.0 
0.0 0.0 -5.429771841545e-04 
-1.084906178257e-03 -2.011232363262e-04 0.0 
-2.011232363262e-04 7.274950011924e-03 0.0 
0.0 0.0 -1.085119818393e-03 
-9.758201311386e-04 -2.238948292921e-04 0.0 
-2.238948292921e-04 6.526325342415e-03 0.0 
0.0 0.0 -9.816794289629e-04 
-7.681741524081e-04 1.880175807826e-04 0.0 
1.880175807826e-04 5.011383542904e-03 0.0 
0.0 0.0 -7.700930343086e-04 
-1.026480683520e-03 -1.844900629417e-04 0.0 
-1.844900629417e-04 6.842321728991e-03 0.0 
0.0 0.0 -1.021757709120e-03 
-1.057960421125e-03 -1.998047593287e-04 0.0 
-1.998047593287e-04 7.113469784678e-03 0.0 
0.0 0.0 -1.058696934625e-03 
-1.057942238941e-03 2.175749808768e-04 0.0 
2.175749808768e-04 6.964480207197e-03 0.0 
0.0 0.0 -1.050681058959e-03 
-3.033747618520e-04 -1.838242939413e-04 0.0 
-1.838242939413e-04 1.857406959021e-03 0.0 
0.0 0.0 -3.058749225436e-04 
-7.305418871957e-04 1.869626526336e-04 0.0 
1.869626526336e-04 4.754815575901e-03 0.0 
0.0 0.0 -7.328582426338e-04 
-1.136183616218e-03 2.082876610418e-04 0.0 
2.082876610418e-04 7.610878515336e-03 0.0 
0.0 0.0 -1.141128458404e-03 
-1.078434925953e-03 -1.984149302182e-04 0.0 
-1.984149302182e-04 7.234990828440e-03 0.0 
0.0 0.0 -1.078198857115e-03 
-6.621852882438e-04 2.164713360985e-04 0.0 
2.164713360985e-04 4.271535496369e-03 0.0 
0.0 0.0 -6.666835465145e-04 
-9.149083998474e-04 -1.952760623192e-04 0.0 
-1.952760623192e-04 6.113676858772e-03 0.0 
0.0 0.0 -9.153036164073e-04 
-1.187688204395e-03 -2.025883410103e-04 0.0 
-2.025883410103e-04 8.016876824675e-03 0.0 
0.0 0.0 -1.187586327529e-03 
-1.005326890981e-03 1.902074749802e-04 0.0 
1.902074749802e-04 6.713852212323e-03 0.0 
0.0 0.0 -1.013969106439e-03 
-1.909283182059e-04 -2.134343415579e-04 0.0 
-2.134343415579e-04 9.857203047885e-04 0.0 
0.0 0.0 -1.806728872115e-04 
-1.970147197368e-04 -2.059863142165e-04 0.0 
-2.059863142165e-04 1.002592449070e-03 0.0 
0.0 0.0 -1.835536028976e-04 
-3.515992897123e-04 -1.811957352846e-04 0.0 
-1.811957352846e-04 2.155411981566e-03 0.0 
0.0 0.0 -3.467375663575e-04 
-1.128856114321e-03 2.001566636704e-04 0.0 
2.001566636704e-04 7.510015093798e-03 0.0 
0.0 0.0 -1.127837695838e-03 
-9.816567297486e-04 1.933811921609e-04 0.0 
1.933811921609e-04 6.465198559992e-03 0.0 
0.0 0.0 -9.775003154318e-04 
-8.371572204409e-04 -2.148163729894e-04 0.0 
-2.148163729894e-04 5.710338305934e-03 0.0 
0.0 0.0 -8.513051444990e-04 
-8.730704368828e-04 1.896261582467e-04 0.0 
1.896261582467e-04 5.754508324044e-03 0.0 
0.0 0.0 -8.745614812816e-04 
-1.137329719499e-03 -1.941463340313e-04 0.0 
-1.941463340313e-04 7.669003078820e-03 0.0 
0.0 0.0 -1.139196670502e-03 
-7.981531024245e-04 1.892565346163e-04 0.0 
1.892565346163e-04 5.212239015909e-03 0.0 
0.0 0.0 -7.988714448434e-04 
-1.058279653052e-03 1.954206945734e-04 0.0 
1.954206945734e-04 7.042085544045e-03 0.0 
0.0 0.0 -1.061632825506e-03 
-3.556360797851e-04 -1.825172875801e-04 0.0 
-1.825172875801e-04 2.253382462632e-03 0.0 
0.0 0.0 -3.615122310665e-04 
-1.213390557451e-03 2.397950825144e-04 0.0 
2.397950825144e-04 8.136808344214e-03 0.0 
0.0 0.0 -1.211531131004e-03 
-7.660046426258e-04 -1.986537595937e-04 0.0 
-1.986537595937e-04 5.080766734255e-03 0.0 
0.0 0.0 -7.673127347790e-04 
-3.927767409547e-04 -1.941008242108e-04 0.0 
-1.941008242108e-04 2.469153154105e-03 0.0 
0.0 0.0 -3.889166325194e-04 
-7.314298842455e-04 -2.140562000032e-04 0.0 
-2.140562000032e-04 4.812028074598e-03 0.0 
0.0 0.0 -7.311132045151e-04 
-5.669903072896e-04 1.859979766966e-04 0.0 
1.859979766966e-04 3.622850524897e-03 0.0 
0.0 0.0 -5.716673668464e-04 
-4.441913073698e-04 -1.946929488681e-04 0.0 
-1.946929488681e-04 2.835535865590e-03 0.0 
0.0 0.0 -4.452767020142e-04 
-8.541353571324e-04 1.878201727379e-04 0.0 
1.878201727379e-04 5.598851307335e-03 0.0 
0.0 0.0 -8.564950983273e-04 
0.0 0.0 0.0 
0.0 0.0 0.0 
0.0 0.0 0.0 
0.0 0.0 0.0 
0.0 0.0 0.0 
0.0 0.0 0.0 
-9.633926432213e-04 -1.929125650732e-04 0.0 
-1.929125650732e-04 6.449382072422e-03 0.0 
0.0 0.0 -9.636005660098e-04 
-3.261615758852e-04 -1.754968158783e-04 0.0 
-1.754968158783e-04 2.064243752771e-03 0.0 
0.0 0.0 -3.336449385292e-04 
-9.716625480636e-04 -1.974982736352e-04 0.0 
-1.974982736352e-04 6.511810819199e-03 0.0 
0.0 0.0 -9.724388998541e-04 
-9.434553557208e-04 -1.947776052692e-04 0.0 
-1.947776052692e-04 6.314151919472e-03 0.0 
0.0 0.0 -9.438473481109e-04 
-6.149570530548e-04 1.958377041270e-04 0.0 
1.958377041270e-04 3.946002749694e-03 0.0 
0.0 0.0 -6.177757646845e-04 
-4.134741271649e-04 1.981876295031e-04 0.0 
1.981876295031e-04 2.543324249367e-03 0.0 
0.0 0.0 -4.162223005415e-04 
-1.136715502842e-03 -2.038924191314e-04 0.0 
-2.038924191314e-04 7.650435027918e-03 0.0 
0.0 0.0 -1.137719822027e-03 
-2.155883669570e-04 -8.829356196837e-05 0.0 
-8.829356196837e-05 9.573383583193e-04 0.0 
0.0 0.0 -2.047534254615e-04 
-6.021718484836e-04 1.735627083644e-04 0.0 
1.735627083644e-04 3.837011647565e-03 0.0 
0.0 0.0 -6.004815939293e-04 
-1.172134314024e-03 -1.664552663930e-04 0.0 
-1.664552663930e-04 7.890382462293e-03 0.0 
0.0 0.0 -1.175533656463e-03 
-2.822824235296e-04 1.888682444412e-04 0.0 
1.888682444412e-04 1.684200929602e-03 0.0 
0.0 0.0 -2.977570873278e-04 
-9.136045934539e-04 -1.921452035066e-04 0.0 
-1.921452035066e-04 6.056651557430e-03 0.0 
0.0 0.0 -9.088859120638e-04 
-8.340119380580e-04 -2.228113772719e-04 0.0 
-2.228113772719e-04 5.573887948833e-03 0.0 
0.0 0.0 -8.416286270284e-04 
-2.829330432203e-04 -1.923976084130e-04 0.0 
-1.923976084130e-04 1.716244531209e-03 0.0 
0.0 0.0 -2.842394630762e-04 
-1.159926400282e-03 -1.793893042658e-04 0.0 
-1.793893042658e-04 7.808824689671e-03 0.0 
0.0 0.0 -1.158722036769e-03 
-1.035589941137e-03 -1.985988582849e-04 0.0 
-1.985988582849e-04 6.933992631060e-03 0.0 
0.0 0.0 -1.034898561726e-03 
-3.359494272763e-04 1.786409644777e-04 0.0 
1.786409644777e-04 1.989232140030e-03 0.0 
0.0 0.0 -3.364655670308e-04 
-1.165152170532e-03 -1.849586778466e-04 0.0 
-1.849586778466e-04 7.849581652679e-03 0.0 
0.0 0.0 -1.166520446339e-03 
-1.171818434168e-03 1.701070722775e-04 0.0 
1.701070722775e-04 7.787163600185e-03 0.0 
0.0 0.0 -1.169001632583e-03 
-3.670484435220e-04 -2.062025335132e-04 0.0 
-2.062025335132e-04 2.310354927649e-03 0.0 
0.0 0.0 -3.701904734684e-04 
-4.878019895888e-04 -2.129991852320e-04 0.0 
-2.129991852320e-04 3.076179585064e-03 0.0 
0.0 0.0 -4.801335248058e-04 
-3.784853096696e-04 -1.951915827816e-04 0.0 
-1.951915827816e-04 2.373996755404e-03 0.0 
0.0 0.0 -3.791106726259e-04 
-1.023434568927e-03 -1.955357832441e-04 0.0 
-1.955357832441e-04 6.907952393425e-03 0.0 
0.0 0.0 -1.029923508343e-03 
-8.283537341300e-04 1.907553074044e-04 0.0 
1.907553074044e-04 5.413544228672e-03 0.0 
0.0 0.0 -8.276368238623e-04 
-1.175065292852e-03 1.838008001023e-04 0.0 
1.838008001023e-04 7.798269859187e-03 0.0 
0.0 0.0 -1.169529464977e-03 
-1.141233486497e-03 1.909358973763e-04 0.0 
1.909358973763e-04 7.594915182305e-03 0.0 
0.0 0.0 -1.140030709108e-03 
-9.986353517479e-04 -1.968060563576e-04 0.0 
-1.968060563576e-04 6.710344376514e-03 0.0 
0.0 0.0 -1.001167767022e-03 
-1.002641746751e-03 1.939099816930e-04 0.0 
1.939099816930e-04 6.639482721891e-03 0.0 
0.0 0.0 -1.004093472296e-03 
-3.170641866385e-04 1.974483890405e-04 0.0 
1.974483890405e-04 1.842860083610e-03 0.0 
0.0 0.0 -3.158693332420e-04 
-1.029368673375e-03 1.947386699308e-04 0.0 
1.947386699308e-04 6.837075470330e-03 0.0 
0.0 0.0 -1.032853941699e-03 
-1.038324079738e-03 1.969104416427e-04 0.0 
1.969104416427e-04 6.879456010501e-03 0.0 
0.0 0.0 -1.037144748481e-03 
-8.220289990508e-04 -1.901456335334e-04 0.0 
-1.901456335334e-04 5.481743507948e-03 0.0 
0.0 0.0 -8.248712778174e-04 
-9.784412971014e-04 -1.995967018582e-04 0.0 
-1.995967018582e-04 6.519224964638e-03 0.0 
0.0 0.0 -9.752741834902e-04 
-1.071043316413e-03 -2.014206266275e-04 0.0 
-2.014206266275e-04 7.187990111684e-03 0.0 
0.0 0.0 -1.071415751597e-03 
-7.449992410114e-04 1.900175048328e-04 0.0 
1.900175048328e-04 4.830596508428e-03 0.0 
0.0 0.0 -7.435371925967e-04 
-1.112301323396e-03 1.953318319138e-04 0.0 
1.953318319138e-04 7.388703494557e-03 0.0 
0.0 0.0 -1.110258267496e-03 
-7.048168666413e-04 2.103542029495e-04 0.0 
2.103542029495e-04 4.551180166485e-03 0.0 
0.0 0.0 -6.965171720951e-04 
-7.978310569570e-04 -1.996626955199e-04 0.0 
-1.996626955199e-04 5.282133349968e-03 0.0 
0.0 0.0 -7.960639764766e-04 
-5.335116196934e-04 2.239231297756e-04 0.0 
2.239231297756e-04 3.386453430155e-03 0.0 
0.0 0.0 -5.342291996904e-04 
-5.553576446558e-04 -1.816268034186e-04 0.0 
-1.816268034186e-04 3.628347878161e-03 0.0 
0.0 0.0 -5.581583723280e-04 
-1.010310088917e-03 1.967228699852e-04 0.0 
1.967228699852e-04 6.672709965049e-03 0.0 
0.0 0.0 -1.007339817349e-03 
-7.628577911211e-04 -1.911605880285e-04 0.0 
-1.911605880285e-04 5.057166832743e-03 0.0 
0.0 0.0 -7.637833264599e-04 
-4.056535220845e-04 -1.994601543415e-04 0.0 
-1.994601543415e-04 2.573810220736e-03 0.0 
0.0 0.0 -4.077494273363e-04 
-2.235505229119e-04 -1.665382784812e-04 0.0 
-1.665382784812e-04 1.264629605483e-03 0.0 
0.0 0.0 -2.185673950299e-04 
-1.005369566171e-03 -1.969282844887e-04 0.0 
-1.969282844887e-04 6.726819346583e-03 0.0 
0.0 0.0 -1.005115000480e-03 
-4.096373717980e-04 1.964452207256e-04 0.0 
1.964452207256e-04 2.501615904785e-03 0.0 
0.0 0.0 -4.107160730352e-04 
-1.196795855234e-03 2.010644044309e-04 0.0 
2.010644044309e-04 8.139442919111e-03 0.0 
0.0 0.0 -1.218716866995e-03 
-1.042807145316e-03 1.952121137200e-04 0.0 
1.952121137200e-04 6.924647329534e-03 0.0 
0.0 0.0 -1.043883448597e-03 
-1.067869276877e-03 1.919364052357e-04 0.0 
1.919364052357e-04 7.100655193935e-03 0.0 
0.0 0.0 -1.070373463590e-03 
-1.283006779812e-03 -2.454005743877e-05 0.0 
-2.454005743877e-05 8.441304095904e-03 0.0 
0.0 0.0 -1.284729618418e-03 
-6.611541786482e-04 -2.165377279584e-04 0.0 
-2.165377279584e-04 4.358180230514e-03 0.0 
0.0 0.0 -6.637377122259e-04 
-3.719232158052e-04 1.946095876176e-04 0.0 
1.946095876176e-04 2.237835984063e-03 0.0 
0.0 0.0 -3.731618544808e-04 
-2.509805120976e-04 2.101438879213e-04 0.0 
2.101438879213e-04 1.370179870162e-03 0.0 
0.0 0.0 -2.496210768721e-04 
-1.009272610852e-03 -1.976905948495e-04 0.0 
-1.976905948495e-04 6.773236228030e-03 0.0 
0.0 0.0 -1.009908742814e-03 
-9.502891484141e-04 2.008015227702e-04 0.0 
2.008015227702e-04 6.263291661127e-03 0.0 
0.0 0.0 -9.473489374553e-04 
-1.787867007396e-04 1.721284507091e-04 0.0 
1.721284507091e-04 9.234900215078e-04 0.0 
0.0 0.0 -1.858848441742e-04 
-5.306487836806e-04 -1.980238622702e-04 0.0 
-1.980238622702e-04 3.494279541485e-03 0.0 
0.0 0.0 -5.400474096907e-04 
-3.064883048416e-04 -1.749693241531e-04 0.0 
-1.749693241531e-04 2.001263288358e-03 0.0 
0.0 0.0 -3.246070344129e-04 
-9.392936976825e-04 -1.862704497827e-04 0.0 
-1.862704497827e-04 6.266809515345e-03 0.0 
0.0 0.0 -9.387834224271e-04 
-5.480159981423e-04 -2.100359931436e-04 0.0 
-2.100359931436e-04 3.693369469425e-03 0.0 
0.0 0.0 -5.687878759048e-04 
-9.467150260524e-04 1.924065934846e-04 0.0 
1.924065934846e-04 6.242240235616e-03 0.0 
0.0 0.0 -9.467935652644e-04 
-5.428455294621e-04 -2.085125102257e-04 0.0 
-2.085125102257e-04 3.415670535466e-03 0.0 
0.0 0.0 -5.337555413937e-04 
-1.117346964304e-03 -2.071110090059e-04 0.0 
-2.071110090059e-04 7.492505049919e-03 0.0 
0.0 0.0 -1.114809527198e-03 
-4.745048492879e-04 1.992195964989e-04 0.0 
1.992195964989e-04 2.965213732964e-03 0.0 
0.0 0.0 -4.768663991247e-04 
-1.019084130149e-03 -1.971234603786e-04 0.0 
-1.971234603786e-04 6.834832976306e-03 0.0 
0.0 0.0 -1.018590841688e-03 
-3.372917149944e-04 -1.912349410904e-04 0.0 
-1.912349410904e-04 2.104646860584e-03 0.0 
0.0 0.0 -3.376433569222e-04 
-9.810862783946e-04 -1.972875806497e-04 0.0 
-1.972875806497e-04 6.573374097127e-03 0.0 
0.0 0.0 -9.812220007866e-04 
-7.630262787413e-04 -1.649240710626e-04 0.0 
-1.649240710626e-04 5.040550269951e-03 0.0 
0.0 0.0 -7.604224332210e-04 
-1.040603755793e-03 1.933348900592e-04 0.0 
1.933348900592e-04 6.902261502476e-03 0.0 
0.0 0.0 -1.041555045145e-03 
-5.360677599798e-04 1.876482889455e-04 0.0 
1.876482889455e-04 3.380336319222e-03 0.0 
0.0 0.0 -5.350282927002e-04 
-3.256683131977e-04 2.104859329235e-04 0.0 
2.104859329235e-04 1.909139084910e-03 0.0 
0.0 0.0 -3.277310168338e-04 
-8.709310065230e-04 -1.930857458815e-04 0.0 
-1.930857458815e-04 5.840506173078e-03 0.0 
0.0 0.0 -8.787268422831e-04 
-9.478935846187e-04 -1.922017527602e-04 0.0 
-1.922017527602e-04 6.329496652854e-03 0.0 
0.0 0.0 -9.464297096767e-04 
-6.788789609642e-04 1.916120147782e-04 0.0 
1.916120147782e-04 4.369175427210e-03 0.0 
0.0 0.0 -6.776081642141e-04 
-9.468425740779e-04 -2.085300673065e-04 0.0 
-2.085300673065e-04 6.298374618209e-03 0.0 
0.0 0.0 -9.453210152248e-04 
-3.756080425156e-04 -1.934039556713e-04 0.0 
-1.934039556713e-04 2.352414382127e-03 0.0 
0.0 0.0 -3.758914132629e-04 
-9.664473934007e-04 1.935643871515e-04 0.0 
1.935643871515e-04 6.379409966944e-03 0.0 
0.0 0.0 -9.642804585795e-04 
-3.026576237448e-04 -1.928297610964e-04 0.0 
-1.928297610964e-04 1.798935007683e-03 0.0 
0.0 0.0 -2.947674122297e-04 
-1.153179427147e-03 -2.051549704311e-04 0.0 
-2.051549704311e-04 7.761192827607e-03 0.0 
0.0 0.0 -1.150402778756e-03 
-9.838604339423e-04 -1.907200549992e-04 0.0 
-1.907200549992e-04 6.585836583388e-03 0.0 
0.0 0.0 -9.834711240942e-04 
-1.039448222436e-03 -1.939988089318e-04 0.0 
-1.939988089318e-04 6.961176011231e-03 0.0 
0.0 0.0 -1.037051012011e-03 
-1.209610339595e-03 -2.064055054885e-04 0.0 
-2.064055054885e-04 8.130245976668e-03 0.0 
0.0 0.0 -1.204463612412e-03 
-8.289278457568e-04 -1.937873946282e-04 0.0 
-1.937873946282e-04 5.514638524943e-03 0.0 
0.0 0.0 -8.294769417472e-04 
-3.109821114722e-04 1.906924358187e-04 0.0 
1.906924358187e-04 1.784796369805e-03 0.0 
0.0 0.0 -3.081489256106e-04 
-9.237752216618e-04 -1.945449657842e-04 0.0 
-1.945449657842e-04 6.173770782065e-03 0.0 
0.0 0.0 -9.239488535170e-04 
-1.191042257491e-03 2.067698926501e-04 0.0 
2.067698926501e-04 7.951909524646e-03 0.0 
0.0 0.0 -1.189963100592e-03 
-4.775062598439e-04 -1.845893080325e-04 0.0 
-1.845893080325e-04 3.071724244623e-03 0.0 
0.0 0.0 -4.786098583285e-04 
-1.036708665275e-03 -1.995575756552e-04 0.0 
-1.995575756552e-04 6.972509629402e-03 0.0 
0.0 0.0 -1.038675661098e-03 
-1.042240091366e-03 -2.028158867280e-04 0.0 
-2.028158867280e-04 6.979443732142e-03 0.0 
0.0 0.0 -1.041631482750e-03 
-3.838009065761e-04 1.994121048010e-04 0.0 
1.994121048010e-04 2.344808306372e-03 0.0 
0.0 0.0 -3.880698300753e-04 
-9.524861751472e-04 -1.961707644156e-04 0.0 
-1.961707644156e-04 6.373861031903e-03 0.0 
0.0 0.0 -9.525765839929e-04 
-8.586433483391e-04 -1.931078618343e-04 0.0 
-1.931078618343e-04 5.748348032680e-03 0.0 
0.0 0.0 -8.663127257150e-04 
-4.249902311886e-04 -1.873478746315e-04 0.0 
-1.873478746315e-04 2.710801804411e-03 0.0 
0.0 0.0 -4.280652785065e-04 
-5.063403877371e-04 -1.957595432947e-04 0.0 
-1.957595432947e-04 3.295220362808e-03 0.0 
0.0 0.0 -5.113914792957e-04 
-8.011417777980e-04 -1.869294440003e-04 0.0 
-1.869294440003e-04 5.307962758149e-03 0.0 
0.0 0.0 -8.004334922225e-04 
-1.012906793309e-03 1.927821333669e-04 0.0 
1.927821333669e-04 6.702583928550e-03 0.0 
0.0 0.0 -1.012809740122e-03 
-6.237702296699e-04 -1.788620839172e-04 0.0 
-1.788620839172e-04 4.053757856152e-03 0.0 
0.0 0.0 -6.201901524263e-04 
-7.654836975307e-04 -1.844361479045e-04 0.0 
-1.844361479045e-04 5.061981616524e-03 0.0 
0.0 0.0 -7.649884091348e-04 
-1.002132587578e-03 1.966152402384e-04 0.0 
1.966152402384e-04 6.628701174112e-03 0.0 
0.0 0.0 -1.000670320419e-03 
-9.160037735611e-04 2.105070801011e-04 0.0 
2.105070801011e-04 6.003693375901e-03 0.0 
0.0 0.0 -9.110000341593e-04 
-8.984996443820e-04 1.923871522477e-04 0.0 
1.923871522477e-04 5.918711205323e-03 0.0 
0.0 0.0 -8.984003255416e-04 
-7.635747983665e-04 1.700234808703e-04 0.0 
1.700234808703e-04 4.971193028469e-03 0.0 
0.0 0.0 -7.627602282935e-04 
-1.130358647028e-03 -1.898334947356e-04 0.0 
-1.898334947356e-04 7.609563538776e-03 0.0 
0.0 0.0 -1.130631056169e-03 
-8.949695730274e-04 -1.944201834166e-04 0.0 
-1.944201834166e-04 5.973169188704e-03 0.0 
0.0 0.0 -8.953295484280e-04 
-8.818948229552e-04 -1.808766535772e-04 0.0 
-1.808766535772e-04 5.810855732820e-03 0.0 
0.0 0.0 -8.720525204519e-04 
-1.180322083838e-03 -2.544019696132e-04 0.0 
-2.544019696132e-04 8.044684295215e-03 0.0 
0.0 0.0 -1.193584144721e-03 
-1.074317409630e-03 -2.028987224978e-04 0.0 
-2.028987224978e-04 7.209609754448e-03 0.0 
0.0 0.0 -1.073433710836e-03 
-9.845138767756e-04 1.933324893146e-04 0.0 
1.933324893146e-04 6.502529959442e-03 0.0 
0.0 0.0 -9.841343610905e-04 
-1.074220521467e-03 1.937044770007e-04 0.0 
1.937044770007e-04 7.133220182241e-03 0.0 
0.0 0.0 -1.073677668998e-03 
-5.827062234071e-04 -1.941542500794e-04 0.0 
-1.941542500794e-04 3.817750575136e-03 0.0 
0.0 0.0 -5.862626530914e-04 
-5.447661780291e-04 -1.955268079663e-04 0.0 
-1.955268079663e-04 3.556218869368e-03 0.0 
0.0 0.0 -5.488365039436e-04 
-3.200298242822e-04 -2.008010355195e-04 0.0 
-2.008010355195e-04 1.912733596730e-03 0.0 
0.0 0.0 -3.130684191733e-04 
-9.610361432964e-04 -1.937939784480e-04 0.0 
-1.937939784480e-04 6.432925566233e-03 0.0 
0.0 0.0 -9.612598090090e-04 
-5.730915420071e-04 -1.993284364061e-04 0.0 
-1.993284364061e-04 3.756322275087e-03 0.0 
0.0 0.0 -5.775003002374e-04 
-9.676234080517e-04 -1.978430549766e-04 0.0 
-1.978430549766e-04 6.470709836540e-03 0.0 
0.0 0.0 -9.686535345556e-04 
-9.307775843259e-04 -2.009567450900e-04 0.0 
-2.009567450900e-04 6.218061512745e-03 0.0 
0.0 0.0 -9.322463471790e-04 
-7.694630900906e-04 -1.939675917432e-04 0.0 
-1.939675917432e-04 5.091771385308e-03 0.0 
0.0 0.0 -7.690363516573e-04 
-4.826168522865e-04 1.966675666533e-04 0.0 
1.966675666533e-04 3.022691758794e-03 0.0 
0.0 0.0 -4.860199686152e-04 
-5.166152208989e-04 1.895375761803e-04 0.0 
1.895375761803e-04 3.232772262981e-03 0.0 
0.0 0.0 -5.148587792422e-04 
-5.108840173734e-04 1.960376866878e-04 0.0 
1.960376866878e-04 3.223531247209e-03 0.0 
0.0 0.0 -5.143448975765e-04 
-5.481816317278e-04 1.962623655857e-04 0.0 
1.962623655857e-04 3.484569495256e-03 0.0 
0.0 0.0 -5.517963299543e-04 
-3.453277696027e-04 1.969675537481e-04 0.0 
1.969675537481e-04 2.040898908983e-03 0.0 
0.0 0.0 -3.446931235564e-04 
-1.101052151537e-03 -1.995058256316e-04 0.0 
-1.995058256316e-04 7.411556171306e-03 0.0 
0.0 0.0 -1.101849228970e-03 
-6.632570071378e-04 1.923578636572e-04 0.0 
1.923578636572e-04 4.270077985980e-03 0.0 
0.0 0.0 -6.642957827475e-04 
-1.108318305334e-03 -2.031784349512e-04 0.0 
-2.031784349512e-04 7.443886566257e-03 0.0 
0.0 0.0 -1.107989045227e-03 
-7.011090036509e-04 1.927949869006e-04 0.0 
1.927949869006e-04 4.532588404756e-03 0.0 
0.0 0.0 -7.013039408444e-04 
-9.265731680826e-04 1.957284230982e-04 0.0 
1.957284230982e-04 6.103426765876e-03 0.0 
0.0 0.0 -9.268471029391e-04 
-7.946469523286e-04 1.955747403876e-04 0.0 
1.955747403876e-04 5.185524606882e-03 0.0 
0.0 0.0 -7.951651613512e-04 
-7.572756681298e-04 -1.872685007043e-04 0.0 
-1.872685007043e-04 5.004494979539e-03 0.0 
0.0 0.0 -7.567435594048e-04 
-3.404029927324e-04 -1.917944120495e-04 0.0 
-1.917944120495e-04 2.114741006724e-03 0.0 
0.0 0.0 -3.417109511102e-04 
-1.168366620594e-03 1.821653519024e-04 0.0 
1.821653519024e-04 7.733894625141e-03 0.0 
0.0 0.0 -1.161691925552e-03 
-1.208283455631e-03 -2.138622136652e-04 0.0 
-2.138622136652e-04 8.118515122607e-03 0.0 
0.0 0.0 -1.198716319349e-03 
-9.647894746907e-04 1.840623527821e-04 0.0 
1.840623527821e-04 6.374025584992e-03 0.0 
0.0 0.0 -9.650368815299e-04 
-5.866113351029e-04 1.997061311368e-04 0.0 
1.997061311368e-04 3.745701321029e-03 0.0 
0.0 0.0 -5.892385666867e-04 
-8.606873822814e-04 1.952603744915e-04 0.0 
1.952603744915e-04 5.644314043148e-03 0.0 
0.0 0.0 -8.609535187098e-04 
-9.731621015164e-04 2.042240848124e-04 0.0 
2.042240848124e-04 6.416634786867e-03 0.0 
0.0 0.0 -9.708520278613e-04 
-6.114505218062e-04 -1.970451499323e-04 0.0 
-1.970451499323e-04 4.016656707276e-03 0.0 
0.0 0.0 -6.148791393494e-04 
-6.402153518211e-04 -1.799304007788e-04 0.0 
-1.799304007788e-04 4.195134185683e-03 0.0 
0.0 0.0 -6.394234923164e-04 
-4.756790629450e-04 -1.970276149026e-04 0.0 
-1.970276149026e-04 3.037216567460e-03 0.0 
0.0 0.0 -4.739097840058e-04 
-4.115649622256e-04 -1.881038262712e-04 0.0 
-1.881038262712e-04 2.615008917890e-03 0.0 
0.0 0.0 -4.132304097957e-04 
-6.210949620284e-04 -1.921853512956e-04 0.0 
-1.921853512956e-04 4.079647892730e-03 0.0 
0.0 0.0 -6.236739531379e-04 
-4.389003653302e-04 1.899270358256e-04 0.0 
1.899270358256e-04 2.702990318359e-03 0.0 
0.0 0.0 -4.393534411964e-04 
-3.957050609939e-04 -2.005038904366e-04 0.0 
-2.005038904366e-04 2.512628569390e-03 0.0 
0.0 0.0 -3.988888273503e-04 
-7.912937221892e-04 -1.931036918808e-04 0.0 
-1.931036918808e-04 5.255690323409e-03 0.0 
0.0 0.0 -7.922809795675e-04 
-9.555190717992e-04 1.953941988256e-04 0.0 
1.953941988256e-04 6.303135181036e-03 0.0 
0.0 0.0 -9.554846610150e-04 
-1.131935364223e-03 1.749369794293e-04 0.0 
1.749369794293e-04 7.516475401832e-03 0.0 
0.0 0.0 -1.128610778606e-03 
-7.677587316374e-05 5.132629422675e-05 0.0 
5.132629422675e-05 2.950272314679e-04 0.0 
0.0 0.0 -4.808883996072e-05 
-6.821273879062e-04 1.885153294960e-04 0.0 
1.885153294960e-04 4.394625922574e-03 0.0 
0.0 0.0 -6.818868151028e-04 
-6.732798359077e-04 1.896419879915e-04 0.0 
1.896419879915e-04 4.334337175818e-03 0.0 
0.0 0.0 -6.732431144785e-04 
-6.253359345237e-04 1.966841986601e-04 0.0 
1.966841986601e-04 4.007688208335e-03 0.0 
0.0 0.0 -6.268095852860e-04 
-9.342352764228e-04 1.992757766658e-04 0.0 
1.992757766658e-04 6.164738867849e-03 0.0 
0.0 0.0 -9.344164207832e-04 
-7.286499736730e-04 1.960851222301e-04 0.0 
1.960851222301e-04 4.727094990714e-03 0.0 
0.0 0.0 -7.295442444478e-04 
-5.028967805497e-04 2.032690915997e-04 0.0 
2.032690915997e-04 3.169465929495e-03 0.0 
0.0 0.0 -5.055050897130e-04 
-6.594115462037e-04 -1.877379034349e-04 0.0 
-1.877379034349e-04 4.343026444268e-03 0.0 
0.0 0.0 -6.611654675676e-04 
-1.086852433707e-03 1.972393602690e-04 0.0 
1.972393602690e-04 7.180508805687e-03 0.0 
0.0 0.0 -1.080452943103e-03 
-5.134906191046e-04 -1.975407525199e-04 0.0 
-1.975407525199e-04 3.241783811479e-03 0.0 
0.0 0.0 -5.025663706543e-04 
-2.068765507079e-04 1.780811299395e-04 0.0 
1.780811299395e-04 1.103158600140e-03 0.0 
0.0 0.0 -2.132551421006e-04 
-2.821446593327e-04 1.850947824845e-04 0.0 
1.850947824845e-04 1.595379339776e-03 0.0 
0.0 0.0 -2.784575373548e-04 
-4.423162808512e-04 1.966617048386e-04 0.0 
1.966617048386e-04 2.737975260110e-03 0.0 
0.0 0.0 -4.444240490352e-04 
-5.210766744925e-04 1.945752899052e-04 0.0 
1.945752899052e-04 3.285513932228e-03 0.0 
0.0 0.0 -5.239304829885e-04 
-7.103179674583e-04 1.937608556774e-04 0.0 
1.937608556774e-04 4.594082704701e-03 0.0 
0.0 0.0 -7.099160536912e-04 
-6.974191009827e-04 -1.859522295004e-04 0.0 
-1.859522295004e-04 4.604175499566e-03 0.0 
0.0 0.0 -6.984076724203e-04 
-3.111089899344e-04 -2.166751455614e-04 0.0 
-2.166751455614e-04 1.884393958953e-03 0.0 
0.0 0.0 -3.092759564244e-04 
-2.948433446490e-04 -2.106961415148e-04 0.0 
-2.106961415148e-04 1.651650768654e-03 0.0 
0.0 0.0 -2.765202162382e-04 
-9.029473964606e-04 -2.318038937515e-04 0.0 
-2.318038937515e-04 5.899437226641e-03 0.0 
0.0 0.0 -8.885078876198e-04 
-4.353328022797e-04 -2.074729337185e-04 0.0 
-2.074729337185e-04 2.774644133328e-03 0.0 
0.0 0.0 -4.363975895258e-04 
-1.066115861838e-03 1.923323182630e-04 0.0 
1.923323182630e-04 7.082058213666e-03 0.0 
0.0 0.0 -1.067401112627e-03 
-1.093430528172e-03 1.859529625014e-04 0.0 
1.859529625014e-04 7.265648937776e-03 0.0 
0.0 0.0 -1.093380752811e-03 
-9.055761456836e-04 -1.909848796465e-04 0.0 
-1.909848796465e-04 6.010442057108e-03 0.0 
0.0 0.0 -9.013836717722e-04 
-1.127393681638e-03 1.896887369254e-04 0.0 
1.896887369254e-04 7.503433377312e-03 0.0 
0.0 0.0 -1.126084317643e-03 
-1.155463123535e-03 1.744033292086e-04 0.0 
1.744033292086e-04 7.751673747269e-03 0.0 
0.0 0.0 -1.164310864388e-03 
-7.420687839785e-04 -1.936328330324e-04 0.0 
-1.936328330324e-04 4.896453187980e-03 0.0 
0.0 0.0 -7.408850503417e-04 
-1.028946225618e-03 1.859237494966e-04 0.0 
1.859237494966e-04 6.817745899264e-03 0.0 
0.0 0.0 -1.029042339204e-03 
-3.444765648254e-04 -1.889029113480e-04 0.0 
-1.889029113480e-04 2.157321474185e-03 0.0 
0.0 0.0 -3.474733517438e-04 
-6.874756161390e-04 -1.926159426764e-04 0.0 
-1.926159426764e-04 4.537720382930e-03 0.0 
0.0 0.0 -6.894573431515e-04 
-6.898061862194e-04 1.857511077275e-04 0.0 
1.857511077275e-04 4.440388507088e-03 0.0 
0.0 0.0 -6.879681371099e-04 
-4.019279772504e-04 1.778728342644e-04 0.0 
1.778728342644e-04 2.433102799940e-03 0.0 
0.0 0.0 -3.974404770784e-04 
-2.808996377464e-04 -1.954566177411e-04 0.0 
-1.954566177411e-04 1.711546538442e-03 0.0 
0.0 0.0 -2.813757158202e-04 
-5.769851111882e-04 1.945968129496e-04 0.0 
1.945968129496e-04 3.685550638925e-03 0.0 
0.0 0.0 -5.804062017457e-04 
-6.698465200997e-04 -1.848151346019e-04 0.0 
-1.848151346019e-04 4.407215399786e-03 0.0 
0.0 0.0 -6.703429011759e-04 
-7.069533997817e-04 -1.864555130785e-04 0.0 
-1.864555130785e-04 4.664424843705e-03 0.0 
0.0 0.0 -7.070647534220e-04 
-4.705619805672e-04 1.797584254587e-04 0.0 
1.797584254587e-04 2.905608131468e-03 0.0 
0.0 0.0 -4.680152132766e-04 
-7.664680765081e-04 1.944574444010e-04 0.0 
1.944574444010e-04 4.988010799345e-03 0.0 
0.0 0.0 -7.666177146937e-04 
-6.793079833930e-04 -1.842955306638e-04 0.0 
-1.842955306638e-04 4.467105658874e-03 0.0 
0.0 0.0 -6.790125122095e-04 
-7.192535587873e-04 1.886174479633e-04 0.0 
1.886174479633e-04 4.651675493154e-03 0.0 
0.0 0.0 -7.183521444552e-04 
-5.167516635029e-04 -1.889877885738e-04 0.0 
-1.889877885738e-04 3.361424050145e-03 0.0 
0.0 0.0 -5.205443542100e-04 
-9.916854113120e-04 -1.973034417571e-04 0.0 
-1.973034417571e-04 6.645632539252e-03 0.0 
0.0 0.0 -9.921115096417e-04 
-1.000725886826e-03 -2.001881518317e-04 0.0 
-2.001881518317e-04 6.682457666445e-03 0.0 
0.0 0.0 -9.984673180476e-04 
-6.910740697018e-04 1.869291771832e-04 0.0 
1.869291771832e-04 4.454330638785e-03 0.0 
0.0 0.0 -6.904379518788e-04 
-1.131075422052e-03 1.930354118908e-04 0.0 
1.930354118908e-04 7.540452433703e-03 0.0 
0.0 0.0 -1.133495712197e-03 
-3.818178823842e-04 -1.881304660734e-04 0.0 
-1.881304660734e-04 2.417279904182e-03 0.0 
0.0 0.0 -3.849690761666e-04 
-1.204919198583e-03 2.055908933390e-04 0.0 
2.055908933390e-04 8.107807864514e-03 0.0 
0.0 0.0 -1.208505026952e-03 
-7.381856154466e-04 1.951283212295e-04 0.0 
1.951283212295e-04 4.788651758778e-03 0.0 
0.0 0.0 -7.381355003807e-04 
-1.179893914325e-03 2.326195910896e-04 0.0 
2.326195910896e-04 8.057192319457e-03 0.0 
0.0 0.0 -1.203459118631e-03 
-9.174882615910e-04 -1.900236548234e-04 0.0 
-1.900236548234e-04 6.103327033778e-03 0.0 
0.0 0.0 -9.144069900286e-04 
-3.759838339719e-04 1.980975432100e-04 0.0 
1.980975432100e-04 2.280850535288e-03 0.0 
0.0 0.0 -3.788569260404e-04 
-9.329446838714e-04 -1.934956866743e-04 0.0 
-1.934956866743e-04 6.203824333692e-03 0.0 
0.0 0.0 -9.292863832265e-04 
-1.148316362968e-03 1.911406139228e-04 0.0 
1.911406139228e-04 7.656686617329e-03 0.0 
0.0 0.0 -1.148369591821e-03 
-7.751955477395e-04 1.935539670278e-04 0.0 
1.935539670278e-04 5.048248374235e-03 0.0 
0.0 0.0 -7.747733155264e-04 
-5.636121724150e-04 -1.856060269500e-04 0.0 
-1.856060269500e-04 3.652721039859e-03 0.0 
0.0 0.0 -5.621395992319e-04 
-9.592421645063e-04 -1.953589560094e-04 0.0 
-1.953589560094e-04 6.397497054977e-03 0.0 
0.0 0.0 -9.572423940436e-04 
-7.410203931500e-04 1.888947749690e-04 0.0 
1.888947749690e-04 4.805195564350e-03 0.0 
0.0 0.0 -7.402445244775e-04 
-3.049241937385e-04 2.026327067246e-04 0.0 
2.026327067246e-04 1.807680481835e-03 0.0 
0.0 0.0 -3.123079531677e-04 
-1.247303547099e-03 2.054291781832e-04 0.0 
2.054291781832e-04 8.428743189038e-03 0.0 
0.0 0.0 -1.259077240559e-03 
-2.832321787005e-04 2.033440710739e-04 0.0 
2.033440710739e-04 1.568411261078e-03 0.0 
0.0 0.0 -2.747754844540e-04 
-1.180725818141e-03 -1.959284539653e-04 0.0 
-1.959284539653e-04 8.086063063664e-03 0.0 
0.0 0.0 -1.194426649262e-03 
-1.181044415914e-03 1.885702677114e-04 0.0 
1.885702677114e-04 7.848025462359e-03 0.0 
0.0 0.0 -1.175981821618e-03 
-1.019774229423e-03 -1.968009652078e-04 0.0 
-1.968009652078e-04 6.844195853493e-03 0.0 
0.0 0.0 -1.020516803968e-03 
-9.063963003822e-04 2.216702355021e-04 0.0 
2.216702355021e-04 5.948302852210e-03 0.0 
0.0 0.0 -9.041796124736e-04 
-1.096159842107e-03 -2.041353887512e-04 0.0 
-2.041353887512e-04 7.354511593932e-03 0.0 
0.0 0.0 -1.094228678348e-03 
-7.158215028595e-04 -1.849822212151e-04 0.0 
-1.849822212151e-04 4.721957550486e-03 0.0 
0.0 0.0 -7.154996274706e-04 
-8.342688439829e-04 -1.960354733344e-04 0.0 
-1.960354733344e-04 5.542507863884e-03 0.0 
0.0 0.0 -8.337527902170e-04 
-1.179248762261e-03 1.915113563363e-04 0.0 
1.915113563363e-04 7.953436829066e-03 0.0 
0.0 0.0 -1.191782302182e-03 
-1.022355738208e-03 1.947903411638e-04 0.0 
1.947903411638e-04 6.764095762216e-03 0.0 
0.0 0.0 -1.021464098896e-03 
-1.029803380413e-03 -1.995345647328e-04 0.0 
-1.995345647328e-04 6.892395198165e-03 0.0 
0.0 0.0 -1.028225029406e-03 
-9.800703698298e-04 2.033610077795e-04 0.0 
2.033610077795e-04 6.469215121367e-03 0.0 
0.0 0.0 -9.780777104595e-04 
-3.460311380533e-04 1.949105016325e-04 0.0 
1.949105016325e-04 2.083431817991e-03 0.0 
0.0 0.0 -3.505936111242e-04 
-1.056998258985e-03 -2.024071474235e-04 0.0 
-2.024071474235e-04 7.098571223248e-03 0.0 
0.0 0.0 -1.057861461704e-03 
-1.245215734681e-03 -2.948889405552e-06 0.0 
-2.948889405552e-06 8.708064260567e-03 0.0 
0.0 0.0 -1.268085107495e-03 
-1.199968332554e-03 2.184447548860e-04 0.0 
2.184447548860e-04 8.021680446852e-03 0.0 
0.0 0.0 -1.202195648613e-03 
-6.908555778158e-04 1.952647486752e-04 0.0 
1.952647486752e-04 4.467406980685e-03 0.0 
0.0 0.0 -6.923681691211e-04 
-8.989504497264e-04 -2.030487714899e-04 0.0 
-2.030487714899e-04 5.998411166372e-03 0.0 
0.0 0.0 -9.020111041354e-04 
-8.706850616849e-04 2.163039302349e-04 0.0 
2.163039302349e-04 5.704755713039e-03 0.0 
0.0 0.0 -8.677534307045e-04 
-7.350398663415e-04 -1.921852650881e-04 0.0 
-1.921852650881e-04 4.858429528850e-03 0.0 
0.0 0.0 -7.352749011056e-04 
-9.925381973485e-04 1.968648573770e-04 0.0 
1.968648573770e-04 6.563559215451e-03 0.0 
0.0 0.0 -9.927925938930e-04 
-1.029028532084e-03 1.960911717032e-04 0.0 
1.960911717032e-04 6.822296250893e-03 0.0 
0.0 0.0 -1.030113165296e-03 
-2.401332151859e-04 -2.098625103455e-04 0.0 
-2.098625103455e-04 1.444865681486e-03 0.0 
0.0 0.0 -2.466400652194e-04 
-4.534206567438e-04 1.915983849915e-04 0.0 
1.915983849915e-04 2.786638049384e-03 0.0 
0.0 0.0 -4.508272210452e-04 
-7.276651503282e-04 1.887396446790e-04 0.0 
1.887396446790e-04 4.711996878728e-03 0.0 
0.0 0.0 -7.269793770173e-04 
-6.885109501689e-04 -1.881460235649e-04 0.0 
-1.881460235649e-04 4.526125077483e-03 0.0 
0.0 0.0 -6.875569550716e-04 
-7.327380615621e-04 1.893031023786e-04 0.0 
1.893031023786e-04 4.746976141071e-03 0.0 
0.0 0.0 -7.320784846625e-04 
-1.207414471784e-03 -1.921627464004e-04 0.0 
-1.921627464004e-04 8.251115158096e-03 0.0 
0.0 0.0 -1.225426844749e-03 
-1.165911235799e-03 1.728266951446e-04 0.0 
1.728266951446e-04 7.751919212480e-03 0.0 
0.0 0.0 -1.162686153705e-03 
-1.174125183305e-03 -1.966474411142e-04 0.0 
-1.966474411142e-04 7.895985343999e-03 0.0 
0.0 0.0 -1.173632101657e-03 
-6.588438363322e-04 -1.812037125043e-04 0.0 
-1.812037125043e-04 4.301364332342e-03 0.0 
0.0 0.0 -6.556197767577e-04 
-1.082747471146e-03 1.891035132956e-04 0.0 
1.891035132956e-04 7.201407994731e-03 0.0 
0.0 0.0 -1.082713561900e-03 
-9.901836726999e-04 -1.945402384493e-04 0.0 
-1.945402384493e-04 6.633588115461e-03 0.0 
0.0 0.0 -9.899156953211e-04 
-1.203900706285e-03 2.001643692101e-04 0.0 
2.001643692101e-04 8.020307122063e-03 0.0 
0.0 0.0 -1.198415070424e-03 
-1.018917370980e-03 -2.029360126540e-04 0.0 
-2.029360126540e-04 6.841232066874e-03 0.0 
0.0 0.0 -1.021631336281e-03 
-7.252862927281e-04 -1.917571483022e-04 0.0 
-1.917571483022e-04 4.797885526737e-03 0.0 
0.0 0.0 -7.266350563285e-04 
-6.996186826149e-04 1.874149340260e-04 0.0 
1.874149340260e-04 4.515630015583e-03 0.0 
0.0 0.0 -6.989458521267e-04 
-1.062701287971e-03 1.919893444833e-04 0.0 
1.919893444833e-04 7.044103527011e-03 0.0 
0.0 0.0 -1.060111126929e-03 
-1.159236038185e-03 -2.100410646672e-04 0.0 
-2.100410646672e-04 7.815649065545e-03 0.0 
0.0 0.0 -1.160283895044e-03 
-1.068044840095e-03 1.975027097548e-04 0.0 
1.975027097548e-04 7.089380260529e-03 0.0 
0.0 0.0 -1.066842251349e-03 
-1.033322736071e-03 1.952546159751e-04 0.0 
1.952546159751e-04 6.838585495745e-03 0.0 
0.0 0.0 -1.030428295937e-03 
-1.127957771235e-03 2.034159333983e-04 0.0 
2.034159333983e-04 7.486625778373e-03 0.0 
0.0 0.0 -1.124756152480e-03 
-1.155677614868e-03 -1.983866149799e-04 0.0 
-1.983866149799e-04 7.868967508162e-03 0.0 
0.0 0.0 -1.167530213646e-03 
-1.094507555949e-03 1.976519323401e-04 0.0 
1.976519323401e-04 7.281086392671e-03 0.0 
0.0 0.0 -1.096139997395e-03 
-8.893531318376e-04 1.947803294654e-04 0.0 
1.947803294654e-04 5.843023406601e-03 0.0 
0.0 0.0 -8.895595506239e-04 
-6.419372915529e-04 1.659854799663e-04 0.0 
1.659854799663e-04 4.112940198776e-03 0.0 
0.0 0.0 -6.419897747600e-04 
-1.057958817333e-03 -1.915382936823e-04 0.0 
-1.915382936823e-04 7.093836536897e-03 0.0 
0.0 0.0 -1.057160997780e-03 
-1.010397126926e-03 1.924777478121e-04 0.0 
1.924777478121e-04 6.699973834187e-03 0.0 
0.0 0.0 -1.010795753303e-03 
-4.010552004861e-04 1.841654314205e-04 0.0 
1.841654314205e-04 2.442507368575e-03 0.0 
0.0 0.0 -4.018221946533e-04 
-7.246063133898e-04 -1.880612964647e-04 0.0 
-1.880612964647e-04 4.782342909510e-03 0.0 
0.0 0.0 -7.241222962603e-04 
-8.198364604857e-04 1.863931235936e-04 0.0 
1.863931235936e-04 5.353653336719e-03 0.0 
0.0 0.0 -8.193994707270e-04 
-8.991995514688e-04 -1.967035222148e-04 0.0 
-1.967035222148e-04 5.995025760983e-03 0.0 
0.0 0.0 -8.986564694586e-04 
-4.050243053020e-04 1.994613475966e-04 0.0 
1.994613475966e-04 2.469637685563e-03 0.0 
0.0 0.0 -4.057256964758e-04 
-6.967689891126e-04 -1.888281546421e-04 0.0 
-1.888281546421e-04 4.585730407348e-03 0.0 
0.0 0.0 -6.962026719631e-04 
-9.643194553962e-04 -1.980704148002e-04 0.0 
-1.980704148002e-04 6.448875351116e-03 0.0 
0.0 0.0 -9.636952012155e-04 
-7.333735645701e-04 1.825225121088e-04 0.0 
1.825225121088e-04 4.734280668460e-03 0.0 
0.0 0.0 -7.294090860402e-04 
-7.570403720069e-04 1.947967854262e-04 0.0 
1.947967854262e-04 4.925685443404e-03 0.0 
0.0 0.0 -7.579899565570e-04 
-9.487659951765e-04 -2.043170517301e-04 0.0 
-2.043170517301e-04 6.373556266418e-03 0.0 
0.0 0.0 -9.556638187253e-04 
-7.610430462996e-04 1.745184878599e-04 0.0 
1.745184878599e-04 5.044670069107e-03 0.0 
0.0 0.0 -7.638029664831e-04 
-1.838096952562e-04 2.082695791091e-04 0.0 
2.082695791091e-04 7.724611367138e-04 0.0 
0.0 0.0 -1.578647551136e-04 
-8.576241388509e-04 -1.943288446579e-04 0.0 
-1.943288446579e-04 5.714280224429e-03 0.0 
0.0 0.0 -8.580817703278e-04 
-1.051194806149e-03 1.905396044606e-04 0.0 
1.905396044606e-04 6.972468322912e-03 0.0 
0.0 0.0 -1.051835763028e-03 
-1.194223105728e-03 2.022847639454e-04 0.0 
2.022847639454e-04 8.008401190618e-03 0.0 
0.0 0.0 -1.196871286280e-03 
-8.007996408172e-04 1.886044981360e-04 0.0 
1.886044981360e-04 5.220729595959e-03 0.0 
0.0 0.0 -7.999758813884e-04 
-8.231738978703e-04 1.954670675703e-04 0.0 
1.954670675703e-04 5.384433434041e-03 0.0 
0.0 0.0 -8.237210115815e-04 
-9.659298580920e-04 -1.974560001278e-04 0.0 
-1.974560001278e-04 6.432078237772e-03 0.0 
0.0 0.0 -9.620958722924e-04 
-2.561485936918e-04 2.198683939719e-04 0.0 
2.198683939719e-04 1.251380499118e-03 0.0 
0.0 0.0 -2.247161217206e-04 
-1.023132414130e-03 1.887327440293e-04 0.0 
1.887327440293e-04 6.775332410064e-03 0.0 
0.0 0.0 -1.023361637732e-03 
-8.622181034216e-04 -1.951138773542e-04 0.0 
-1.951138773542e-04 5.740266887697e-03 0.0 
0.0 0.0 -8.619475031456e-04 
-7.647880329061e-04 -1.862411199868e-04 0.0 
-1.862411199868e-04 5.038541863179e-03 0.0 
0.0 0.0 -7.615729788896e-04 
-1.027082371763e-03 -1.922014268245e-04 0.0 
-1.922014268245e-04 6.892038875610e-03 0.0 
0.0 0.0 -1.027225276160e-03 
-3.935518598362e-04 -1.714817472149e-04 0.0 
-1.714817472149e-04 2.494688902106e-03 0.0 
0.0 0.0 -3.946419382404e-04 
-1.063411595146e-03 -1.940895073896e-04 0.0 
-1.940895073896e-04 7.151260433919e-03 0.0 
0.0 0.0 -1.064556537081e-03 
-1.170769687049e-03 1.998990496914e-04 0.0 
1.998990496914e-04 7.807167189230e-03 0.0 
0.0 0.0 -1.170878753521e-03 
-9.957874322238e-04 1.860819940759e-04 0.0 
1.860819940759e-04 6.577964668805e-03 0.0 
0.0 0.0 -9.948919501216e-04 
-1.066802879167e-03 -1.994715727017e-04 0.0 
-1.994715727017e-04 7.144842154603e-03 0.0 
0.0 0.0 -1.064574987933e-03 
-1.080893362265e-03 -2.009448288779e-04 0.0 
-2.009448288779e-04 7.278345089593e-03 0.0 
0.0 0.0 -1.082686220397e-03 
-1.164339334361e-03 -2.029535809835e-04 0.0 
-2.029535809835e-04 7.872490943299e-03 0.0 
0.0 0.0 -1.168035910845e-03 
-3.299141803929e-04 2.316983388685e-04 0.0 
2.316983388685e-04 1.731538717207e-03 0.0 
0.0 0.0 -2.917408095836e-04 
-9.904023149971e-04 -1.959122471391e-04 0.0 
-1.959122471391e-04 6.637118298013e-03 0.0 
0.0 0.0 -9.919185416031e-04 
-1.168730602385e-03 -1.909886301281e-04 0.0 
-1.909886301281e-04 7.900162167174e-03 0.0 
0.0 0.0 -1.173906618061e-03 
-1.099721820410e-03 1.948899321208e-04 0.0 
1.948899321208e-04 7.299287446510e-03 0.0 
0.0 0.0 -1.096489272820e-03 
-9.304220125415e-04 1.873101926856e-04 0.0 
1.873101926856e-04 6.124362452359e-03 0.0 
0.0 0.0 -9.297700869391e-04 
-7.330744366569e-04 -1.923064886364e-04 0.0 
-1.923064886364e-04 4.838398720579e-03 0.0 
0.0 0.0 -7.325247082200e-04 
-8.060696050279e-04 1.870863771178e-04 0.0 
1.870863771178e-04 5.268149186535e-03 0.0 
0.0 0.0 -8.069452076110e-04 
-2.418248245405e-04 2.109020271233e-04 0.0 
2.109020271233e-04 1.359709000534e-03 0.0 
0.0 0.0 -2.482170483719e-04 
-1.134273257583e-03 1.988705509170e-04 0.0 
1.988705509170e-04 7.550007886780e-03 0.0 
0.0 0.0 -1.132911322290e-03 
-4.274524748729e-04 1.964334948294e-04 0.0 
1.964334948294e-04 2.645397720372e-03 0.0 
0.0 0.0 -4.309687334850e-04 
-3.881418594362e-04 1.833155679551e-04 0.0 
1.833155679551e-04 2.160044348329e-03 0.0 
0.0 0.0 -3.582286249851e-04 
-1.052002855886e-03 -1.883464211934e-04 0.0 
-1.883464211934e-04 7.074906707182e-03 0.0 
0.0 0.0 -1.054483161448e-03 
-1.207081545900e-03 1.915242773209e-04 0.0 
1.915242773209e-04 8.072287243083e-03 0.0 
0.0 0.0 -1.206783194404e-03 
-3.547804392101e-04 -1.807868565668e-04 0.0 
-1.807868565668e-04 2.226917608772e-03 0.0 
0.0 0.0 -3.573182248098e-04 
-8.366419951608e-04 -1.885488255625e-04 0.0 
-1.885488255625e-04 5.554595282055e-03 0.0 
0.0 0.0 -8.358581584049e-04 
-1.023802301552e-03 1.940941463559e-04 0.0 
1.940941463559e-04 6.787907294573e-03 0.0 
0.0 0.0 -1.023814440555e-03 
-7.829083596588e-04 -1.954293300844e-04 0.0 
-1.954293300844e-04 5.194152372337e-03 0.0 
0.0 0.0 -7.840072721007e-04 
-4.010673323253e-04 -1.915498976051e-04 0.0 
-1.915498976051e-04 2.542328077149e-03 0.0 
0.0 0.0 -4.027365510179e-04 
-5.321744599270e-04 1.883621527590e-04 0.0 
1.883621527590e-04 3.333505553591e-03 0.0 
0.0 0.0 -5.292697486782e-04 
-2.639771075776e-04 1.646102614642e-04 0.0 
1.646102614642e-04 1.613590548762e-03 0.0 
0.0 0.0 -2.862163191752e-04 
-3.553659692625e-04 1.943928252887e-04 0.0 
1.943928252887e-04 2.154693693141e-03 0.0 
0.0 0.0 -3.608158092454e-04 
-3.249476260035e-04 1.935471720910e-04 0.0 
1.935471720910e-04 1.899890607766e-03 0.0 
0.0 0.0 -3.238926756799e-04 
-8.653379371192e-04 1.875602502825e-04 0.0 
1.875602502825e-04 5.671952828596e-03 0.0 
0.0 0.0 -8.647910268431e-04 
-1.297827382279e-03 4.785112367276e-06 0.0 
4.785112367276e-06 9.109555355960e-03 0.0 
0.0 0.0 -1.324146187826e-03 
-4.467143920627e-04 1.726574000164e-04 0.0 
1.726574000164e-04 2.617142877359e-03 0.0 
0.0 0.0 -4.244337567297e-04 
-1.156016819955e-03 1.914756519666e-04 0.0 
1.914756519666e-04 7.686772050836e-03 0.0 
0.0 0.0 -1.153422328581e-03 
-6.441918423609e-04 1.888512827499e-04 0.0 
1.888512827499e-04 4.126863023303e-03 0.0 
0.0 0.0 -6.430507458085e-04 
-9.827241532880e-04 -2.074075714334e-04 0.0 
-2.074075714334e-04 6.589898560790e-03 0.0 
0.0 0.0 -9.856407671940e-04 
-3.167090590366e-04 1.983492302007e-04 0.0 
1.983492302007e-04 1.826080605665e-03 0.0 
0.0 0.0 -3.129386394028e-04 
-1.211080746195e-03 -1.918872231890e-04 0.0 
-1.918872231890e-04 8.120902711811e-03 0.0 
0.0 0.0 -1.206759618350e-03 
-3.103668027408e-04 -1.740204278261e-04 0.0 
-1.740204278261e-04 1.967988296131e-03 0.0 
0.0 0.0 -3.202688159031e-04 
-4.904887743195e-04 1.972396724306e-04 0.0 
1.972396724306e-04 3.115116694861e-03 0.0 
0.0 0.0 -4.995972236199e-04 
-1.033982221523e-03 1.864504257492e-04 0.0 
1.864504257492e-04 6.836114975340e-03 0.0 
0.0 0.0 -1.031547093314e-03 
-7.437947252400e-04 -1.892750744378e-04 0.0 
-1.892750744378e-04 4.914077369227e-03 0.0 
0.0 0.0 -7.436172176343e-04 
-1.132860593058e-03 -1.933960126786e-04 0.0 
-1.933960126786e-04 7.665930668868e-03 0.0 
0.0 0.0 -1.139062866688e-03 
-5.749455652610e-04 -1.941924528230e-04 0.0 
-1.941924528230e-04 3.751246786669e-03 0.0 
0.0 0.0 -5.762899171568e-04 
-1.046111348023e-03 -1.920749274325e-04 0.0 
-1.920749274325e-04 7.006833931181e-03 0.0 
0.0 0.0 -1.044446328659e-03 
-1.179461128015e-03 1.956649310083e-04 0.0 
1.956649310083e-04 7.993560630903e-03 0.0 
0.0 0.0 -1.198892520503e-03 
-9.969097330870e-04 1.983464851524e-04 0.0 
1.983464851524e-04 6.585106213615e-03 0.0 
0.0 0.0 -9.940794652285e-04 
-1.204741342101e-03 -1.841288982354e-04 0.0 
-1.841288982354e-04 8.066681748081e-03 0.0 
0.0 0.0 -1.194784139986e-03 
-1.085983696521e-03 -2.024519851537e-04 0.0 
-2.024519851537e-04 7.301290877674e-03 0.0 
0.0 0.0 -1.087318097122e-03 
-1.116801267184e-03 -2.016255265415e-04 0.0 
-2.016255265415e-04 7.509256724676e-03 0.0 
0.0 0.0 -1.116677092124e-03 
-3.616370043148e-04 1.787208051054e-04 0.0 
1.787208051054e-04 2.150891016686e-03 0.0 
0.0 0.0 -3.599422446610e-04 
-1.117518330453e-03 1.826877579253e-04 0.0 
1.826877579253e-04 7.419146366892e-03 0.0 
0.0 0.0 -1.115908039155e-03 
-1.052373239860e-03 1.884691524878e-04 0.0 
1.884691524878e-04 6.996291933739e-03 0.0 
0.0 0.0 -1.053364550114e-03 
-7.811189844041e-04 1.901992250615e-04 0.0 
1.901992250615e-04 5.082233377235e-03 0.0 
0.0 0.0 -7.792489223127e-04 
-5.208782508076e-04 1.844281060277e-04 0.0 
1.844281060277e-04 3.081353701983e-03 0.0 
0.0 0.0 -4.908673385051e-04 
-1.207263385308e-03 -1.938793257757e-04 0.0 
-1.938793257757e-04 8.301996435605e-03 0.0 
0.0 0.0 -1.232292820449e-03 
-4.172393042970e-04 1.982283144972e-04 0.0 
1.982283144972e-04 2.530985310794e-03 0.0 
0.0 0.0 -4.142712813041e-04 
-4.585162122278e-04 -2.188978008166e-04 0.0 
-2.188978008166e-04 2.969334744373e-03 0.0 
0.0 0.0 -4.655197245388e-04 
-1.104373486365e-03 2.012226859916e-04 0.0 
2.012226859916e-04 7.350396136819e-03 0.0 
0.0 0.0 -1.105063927110e-03 
-2.968425273524e-04 -1.642057746455e-04 0.0 
-1.642057746455e-04 1.792416919804e-03 0.0 
0.0 0.0 -2.939799329518e-04 
-7.924236500379e-04 -1.848261227191e-04 0.0 
-1.848261227191e-04 5.252920665959e-03 0.0 
0.0 0.0 -7.924235178053e-04 
-1.061921988885e-03 1.812104659022e-04 0.0 
1.812104659022e-04 7.031393709581e-03 0.0 
0.0 0.0 -1.059843925468e-03 
-1.181481514864e-03 -1.809401034034e-04 0.0 
-1.809401034034e-04 7.945597505832e-03 0.0 
0.0 0.0 -1.181155146799e-03 
-1.216519596998e-03 -1.765367581353e-04 0.0 
-1.765367581353e-04 8.170458135963e-03 0.0 
0.0 0.0 -1.210943746944e-03 
-1.030728582983e-03 -1.988607177778e-04 0.0 
-1.988607177778e-04 6.902267769970e-03 0.0 
0.0 0.0 -1.028825005900e-03 
-1.124714132978e-03 -2.064810197621e-04 0.0 
-2.064810197621e-04 7.559899990810e-03 0.0 
0.0 0.0 -1.123737208958e-03 
-6.812903531147e-04 1.901379600772e-04 0.0 
1.901379600772e-04 4.380740483724e-03 0.0 
0.0 0.0 -6.793824814286e-04 
-1.062351922354e-03 -1.985736001597e-04 0.0 
-1.985736001597e-04 7.130265690032e-03 0.0 
0.0 0.0 -1.062452857821e-03 
-5.858181118698e-04 1.875072715160e-04 0.0 
1.875072715160e-04 3.545318163494e-03 0.0 
0.0 0.0 -5.576509564599e-04 
-1.191462796189e-03 1.791343230628e-04 0.0 
1.791343230628e-04 7.859967464318e-03 0.0 
0.0 0.0 -1.181751882508e-03 
-6.536967362184e-04 1.840019481607e-04 0.0 
1.840019481607e-04 4.012532136349e-03 0.0 
0.0 0.0 -6.243763318321e-04 
-6.397657085006e-04 1.469527108765e-04 0.0 
1.469527108765e-04 4.231461376740e-03 0.0 
0.0 0.0 -6.577503189808e-04 
-7.727292442473e-04 1.893751122867e-04 0.0 
1.893751122867e-04 5.025497285819e-03 0.0 
0.0 0.0 -7.717627972493e-04 
-7.120157842107e-04 2.033227012876e-04 0.0 
2.033227012876e-04 4.491531755345e-03 0.0 
0.0 0.0 -6.911701761307e-04 
-8.847543506959e-04 -1.860726363621e-04 0.0 
-1.860726363621e-04 5.886975687793e-03 0.0 
0.0 0.0 -8.833033330409e-04 
-7.223081526863e-04 -1.890141103709e-04 0.0 
-1.890141103709e-04 4.756005682412e-03 0.0 
0.0 0.0 -7.209687761305e-04 
-7.611226546141e-04 -1.925027368284e-04 0.0 
-1.925027368284e-04 5.033487039423e-03 0.0 
0.0 0.0 -7.606211034647e-04 
-3.677272213406e-04 1.965668598143e-04 0.0 
1.965668598143e-04 2.206714062611e-03 0.0 
0.0 0.0 -3.685806404478e-04 
-7.360898597851e-04 1.893736919884e-04 0.0 
1.893736919884e-04 4.769891666687e-03 0.0 
0.0 0.0 -7.353490689725e-04 
-1.164475384932e-03 1.920424604491e-04 0.0 
1.920424604491e-04 7.760458237861e-03 0.0 
0.0 0.0 -1.162517914204e-03 
-1.189135404011e-03 2.424308074022e-04 0.0 
2.424308074022e-04 8.008663372928e-03 0.0 
0.0 0.0 -1.195263893373e-03 
-1.051433761328e-03 1.900846295012e-04 0.0 
1.900846295012e-04 6.962500509983e-03 0.0 
0.0 0.0 -1.050100468764e-03 
-1.163815806160e-03 1.939359249112e-04 0.0 
1.939359249112e-04 7.801481486737e-03 0.0 
0.0 0.0 -1.170266998156e-03 
-7.471505649134e-04 1.914654167736e-04 0.0 
1.914654167736e-04 4.846432176661e-03 0.0 
0.0 0.0 -7.463264885205e-04 
-1.116874559966e-03 1.925152765080e-04 0.0 
1.925152765080e-04 7.452691656896e-03 0.0 
0.0 0.0 -1.119019617531e-03 
-7.641727686352e-04 1.895140519536e-04 0.0 
1.895140519536e-04 4.965709915575e-03 0.0 
0.0 0.0 -7.634232545038e-04 
-1.140149646673e-03 1.894710294717e-04 0.0 
1.894710294717e-04 7.619303377370e-03 0.0 
0.0 0.0 -1.144395376583e-03 
-1.089871366962e-03 1.866180545902e-04 0.0 
1.866180545902e-04 7.246015693997e-03 0.0 
0.0 0.0 -1.089631904438e-03 
-1.081578605974e-03 -1.978658757614e-04 0.0 
-1.978658757614e-04 7.257137764756e-03 0.0 
0.0 0.0 -1.080451501872e-03 
-9.579838523443e-04 1.886955211530e-04 0.0 
1.886955211530e-04 6.320335730528e-03 0.0 
0.0 0.0 -9.580909834143e-04 
-7.089543903964e-04 1.893728274013e-04 0.0 
1.893728274013e-04 4.575360328887e-03 0.0 
0.0 0.0 -7.073300717972e-04 
-1.127664739308e-03 -1.829222399519e-04 0.0 
-1.829222399519e-04 7.564515174457e-03 0.0 
0.0 0.0 -1.126038590206e-03 
-9.212765999104e-04 1.860043167073e-04 0.0 
1.860043167073e-04 6.042010505937e-03 0.0 
0.0 0.0 -9.169694165663e-04 
-3.707997860418e-04 -2.047832537350e-04 0.0 
-2.047832537350e-04 2.273008460466e-03 0.0 
0.0 0.0 -3.661348613279e-04 
-4.119491099640e-04 -1.837644939853e-04 0.0 
-1.837644939853e-04 2.602040481245e-03 0.0 
0.0 0.0 -4.113794265144e-04 
-6.058388203502e-04 1.800194521297e-04 0.0 
1.800194521297e-04 3.855006073365e-03 0.0 
0.0 0.0 -6.061407060701e-04 
-8.399206414718e-04 1.851255513351e-04 0.0 
1.851255513351e-04 5.491811110990e-03 0.0 
0.0 0.0 -8.384786063130e-04 
-1.169227413895e-03 1.987098364224e-04 0.0 
1.987098364224e-04 7.826180536376e-03 0.0 
0.0 0.0 -1.173545322487e-03 
-1.051413170775e-03 -2.036953792706e-04 0.0 
-2.036953792706e-04 7.051256599190e-03 0.0 
0.0 0.0 -1.051102540299e-03 
-7.053171708153e-04 -1.917417752613e-04 0.0 
-1.917417752613e-04 4.643848416984e-03 0.0 
0.0 0.0 -7.045205360201e-04 
-9.343548124899e-04 -1.929012807103e-04 0.0 
-1.929012807103e-04 6.238086933522e-03 0.0 
0.0 0.0 -9.344940742331e-04 
-1.088202517562e-03 1.963493920645e-04 0.0 
1.963493920645e-04 7.240451625201e-03 0.0 
0.0 0.0 -1.088599101970e-03 
-1.132213948578e-03 -2.019794901778e-04 0.0 
-2.019794901778e-04 7.607209750872e-03 0.0 
0.0 0.0 -1.130578931274e-03 
-1.175177652279e-03 -1.432114671164e-04 0.0 
-1.432114671164e-04 7.818239968608e-03 0.0 
0.0 0.0 -1.160781586281e-03 
-9.493017134459e-04 1.856369855212e-04 0.0 
1.856369855212e-04 6.294032018234e-03 0.0 
0.0 0.0 -9.517943393003e-04 
-1.114893974024e-03 1.926717475023e-04 0.0 
1.926717475023e-04 7.405468821271e-03 0.0 
0.0 0.0 -1.113435711030e-03 
-7.974711636665e-04 -1.944203939156e-04 0.0 
-1.944203939156e-04 5.288608064412e-03 0.0 
0.0 0.0 -7.971871449874e-04 
-1.087511397267e-03 -1.918432502510e-04 0.0 
-1.918432502510e-04 7.293095143965e-03 0.0 
0.0 0.0 -1.086118700983e-03 
-7.957657220236e-04 1.875502652183e-04 0.0 
1.875502652183e-04 5.187404479596e-03 0.0 
0.0 0.0 -7.951163407912e-04 
-1.190027282138e-03 -1.889094988141e-04 0.0 
-1.889094988141e-04 8.016045742998e-03 0.0 
0.0 0.0 -1.188704642750e-03 
-1.182786985987e-03 -2.095818808978e-04 0.0 
-2.095818808978e-04 8.112308359412e-03 0.0 
0.0 0.0 -1.200489323427e-03 
-8.931557397796e-04 1.886870491784e-04 0.0 
1.886870491784e-04 5.866647832542e-03 0.0 
0.0 0.0 -8.929891684399e-04 
-3.790334035775e-04 2.022524645534e-04 0.0 
2.022524645534e-04 2.272501623496e-03 0.0 
0.0 0.0 -3.776191643183e-04 
-1.116621675417e-03 1.833509055246e-04 0.0 
1.833509055246e-04 7.407703431036e-03 0.0 
0.0 0.0 -1.113685640909e-03 
-8.560269120280e-04 -1.850645517349e-04 0.0 
-1.850645517349e-04 5.691539379015e-03 0.0 
0.0 0.0 -8.555605426019e-04 
-6.779302938367e-04 -1.908402865228e-04 0.0 
-1.908402865228e-04 4.449768302467e-03 0.0 
0.0 0.0 -6.765734244908e-04 
-9.269459503729e-04 -1.957083840496e-04 0.0 
-1.957083840496e-04 6.192523979842e-03 0.0 
0.0 0.0 -9.269463096178e-04 
-1.072502528949e-03 -2.041434169699e-04 0.0 
-2.041434169699e-04 7.210267326329e-03 0.0 
0.0 0.0 -1.072977024862e-03 
-3.719606472363e-04 -1.835949221075e-04 0.0 
-1.835949221075e-04 2.345098090713e-03 0.0 
0.0 0.0 -3.746637649435e-04 
-8.285830534024e-04 1.877054302829e-04 0.0 
1.877054302829e-04 5.415216649357e-03 0.0 
0.0 0.0 -8.281205301186e-04 
-9.633029216945e-04 1.794107507866e-04 0.0 
1.794107507866e-04 6.339174664891e-03 0.0 
0.0 0.0 -9.596127204057e-04 
-1.165821597608e-03 -2.067678885502e-04 0.0 
-2.067678885502e-04 7.892442231831e-03 0.0 
0.0 0.0 -1.170838755190e-03 
-9.895100639472e-04 1.759458030688e-04 0.0 
1.759458030688e-04 6.529075947432e-03 0.0 
0.0 0.0 -9.876491701490e-04 
-1.085596099012e-03 1.937230915425e-04 0.0 
1.937230915425e-04 7.212019617214e-03 0.0 
0.0 0.0 -1.085374163265e-03 
-9.372562607785e-04 1.792840605658e-04 0.0 
1.792840605658e-04 6.146041579427e-03 0.0 
0.0 0.0 -9.316602363005e-04 
-8.975747507543e-04 1.987030926428e-04 0.0 
1.987030926428e-04 5.753154163109e-03 0.0 
0.0 0.0 -8.756372412555e-04 
-9.482059618595e-04 1.851978750998e-04 0.0 
1.851978750998e-04 6.234676071384e-03 0.0 
0.0 0.0 -9.447135688329e-04 
-1.130898821175e-03 2.049231627906e-04 0.0 
2.049231627906e-04 7.550084487667e-03 0.0 
0.0 0.0 -1.133505030480e-03 
-1.085374007423e-03 -2.008613375727e-04 0.0 
-2.008613375727e-04 7.297255264970e-03 0.0 
0.0 0.0 -1.084522140297e-03 
-1.016986910713e-03 1.835607482604e-04 0.0 
1.835607482604e-04 6.748472102274e-03 0.0 
0.0 0.0 -1.017300281410e-03 
-1.211783257084e-03 1.757837481836e-04 0.0 
1.757837481836e-04 8.121141767087e-03 0.0 
0.0 0.0 -1.212886757924e-03 
-9.118555854047e-04 1.822932037185e-04 0.0 
1.822932037185e-04 5.952136168219e-03 0.0 
0.0 0.0 -9.037302385344e-04 
-5.771676927997e-04 -1.905418044285e-04 0.0 
-1.905418044285e-04 3.749121588691e-03 0.0 
0.0 0.0 -5.760585567884e-04 
-1.146857850750e-03 -2.012024813042e-04 0.0 
-2.012024813042e-04 7.726356069459e-03 0.0 
0.0 0.0 -1.146733564437e-03 
-1.190361811188e-03 -2.231584585378e-04 0.0 
-2.231584585378e-04 8.068085284209e-03 0.0 
0.0 0.0 -1.196744929305e-03 
-7.877111731868e-04 1.869730341934e-04 0.0 
1.869730341934e-04 5.130080362463e-03 0.0 
0.0 0.0 -7.869228524964e-04 
-8.229073892259e-04 1.889823334213e-04 0.0 
1.889823334213e-04 5.378866845597e-03 0.0 
0.0 0.0 -8.226527892688e-04 
-6.410005540226e-04 -1.918474041219e-04 0.0 
-1.918474041219e-04 4.195976321249e-03 0.0 
0.0 0.0 -6.402419685743e-04 
-1.047323379365e-03 1.912705100611e-04 0.0 
1.912705100611e-04 6.951134229714e-03 0.0 
0.0 0.0 -1.046609947212e-03 
-6.536475585395e-04 1.928032985675e-04 0.0 
1.928032985675e-04 4.182884861133e-03 0.0 
0.0 0.0 -6.500746975200e-04 
-9.153598550125e-04 1.963880349302e-04 0.0 
1.963880349302e-04 6.020758345298e-03 0.0 
0.0 0.0 -9.137630964162e-04 
-6.488950437602e-04 -1.797823528638e-04 0.0 
-1.797823528638e-04 4.242459853736e-03 0.0 
0.0 0.0 -6.476280927198e-04 
-1.069873888271e-03 1.950588935170e-04 0.0 
1.950588935170e-04 7.095085750561e-03 0.0 
0.0 0.0 -1.068254633495e-03 
-1.209590731991e-03 -1.550085898134e-04 0.0 
-1.550085898134e-04 8.118970202182e-03 0.0 
0.0 0.0 -1.211228670573e-03 
-6.691229637013e-04 -1.915091740608e-04 0.0 
-1.915091740608e-04 4.390308397494e-03 0.0 
0.0 0.0 -6.682047883386e-04 
-2.351166358341e-04 -2.031494045747e-04 0.0 
-2.031494045747e-04 1.435993492405e-03 0.0 
0.0 0.0 -2.451578436693e-04 
-1.204420763458e-03 1.961268392442e-04 0.0 
1.961268392442e-04 8.059775147050e-03 0.0 
0.0 0.0 -1.207184308065e-03 
-6.887858324241e-04 1.799755313790e-04 0.0 
1.799755313790e-04 4.424727357305e-03 0.0 
0.0 0.0 -6.853381776776e-04 
-7.835288517237e-04 1.879460947127e-04 0.0 
1.879460947127e-04 5.099659123499e-03 0.0 
0.0 0.0 -7.828151049093e-04 
-1.160407951921e-03 2.005539249279e-04 0.0 
2.005539249279e-04 7.864449254895e-03 0.0 
0.0 0.0 -1.177925372349e-03 
-1.016320152694e-03 -1.997312198958e-04 0.0 
-1.997312198958e-04 6.802485040097e-03 0.0 
0.0 0.0 -1.015069748350e-03 
-1.057178896244e-03 -1.942199100265e-04 0.0 
-1.942199100265e-04 7.094939907720e-03 0.0 
0.0 0.0 -1.055879354346e-03 
-6.858748156510e-04 -1.861020149715e-04 0.0 
-1.861020149715e-04 4.508466491458e-03 0.0 
0.0 0.0 -6.851017020021e-04 
-2.031820811394e-04 1.985739834672e-04 0.0 
1.985739834672e-04 1.096275256380e-03 0.0 
0.0 0.0 -2.111397097017e-04 
-1.218012060933e-03 -2.324828983585e-04 0.0 
-2.324828983585e-04 8.157957467951e-03 0.0 
0.0 0.0 -1.202131160132e-03 
-8.665795831995e-04 1.858441781355e-04 0.0 
1.858441781355e-04 5.682543428283e-03 0.0 
0.0 0.0 -8.660506973337e-04 
-1.008559534197e-03 -2.140754109309e-04 0.0 
-2.140754109309e-04 6.735537996686e-03 0.0 
0.0 0.0 -1.007142642412e-03 
-1.160459194418e-03 1.856922992242e-04 0.0 
1.856922992242e-04 7.735308684736e-03 0.0 
0.0 0.0 -1.157822513452e-03 
-1.616552956257e-04 1.423609377969e-04 0.0 
1.423609377969e-04 6.732585101887e-04 0.0 
0.0 0.0 -1.502316149797e-04 
-1.058859563023e-03 1.992298708810e-04 0.0 
1.992298708810e-04 7.024120321951e-03 0.0 
0.0 0.0 -1.058763633038e-03 
-4.932099791950e-04 -1.894809356614e-04 0.0 
-1.894809356614e-04 3.157806772283e-03 0.0 
0.0 0.0 -4.919579008500e-04 
-9.451714429142e-04 -2.012700485207e-04 0.0 
-2.012700485207e-04 6.343190678808e-03 0.0 
0.0 0.0 -9.498437721210e-04 
-8.487405687036e-04 -1.950463421940e-04 0.0 
-1.950463421940e-04 5.654542604036e-03 0.0 
0.0 0.0 -8.496012432876e-04 
-6.717289225013e-04 1.881380853814e-04 0.0 
1.881380853814e-04 4.320340016049e-03 0.0 
0.0 0.0 -6.709551114794e-04 
-1.138399201716e-03 -1.969931368524e-04 0.0 
-1.969931368524e-04 7.687743728139e-03 0.0 
0.0 0.0 -1.141635569211e-03 
-8.863371368954e-04 1.906753618111e-04 0.0 
1.906753618111e-04 5.821740968712e-03 0.0 
0.0 0.0 -8.859145181037e-04 
-6.078808339746e-04 1.896100471318e-04 0.0 
1.896100471318e-04 3.873866771809e-03 0.0 
0.0 0.0 -6.067458373204e-04 
-8.988471733596e-04 -1.905617358742e-04 0.0 
-1.905617358742e-04 5.993481774552e-03 0.0 
0.0 0.0 -8.989548790023e-04 
-1.952954180545e-04 -1.905102926163e-04 0.0 
-1.905102926163e-04 1.173502522438e-03 0.0 
0.0 0.0 -2.081142276587e-04 
-1.024988576596e-03 -1.935191657477e-04 0.0 
-1.935191657477e-04 6.880398785368e-03 0.0 
0.0 0.0 -1.026417656363e-03 
-1.069604476726e-03 -1.976553008557e-04 0.0 
-1.976553008557e-04 7.163110056360e-03 0.0 
0.0 0.0 -1.065496432940e-03 
-1.229744167387e-03 -1.464305357593e-04 0.0 
-1.464305357593e-04 8.209785373221e-03 0.0 
0.0 0.0 -1.233600908384e-03 
-1.090183204667e-03 -1.971253990561e-04 0.0 
-1.971253990561e-04 7.328950110722e-03 0.0 
0.0 0.0 -1.090749533212e-03 
-4.766984691118e-04 -1.850928375114e-04 0.0 
-1.850928375114e-04 3.048442125330e-03 0.0 
0.0 0.0 -4.758149136988e-04 
-1.046974953030e-03 -1.977469482829e-04 0.0 
-1.977469482829e-04 7.033167652259e-03 0.0 
0.0 0.0 -1.047231727503e-03 
-1.207083647933e-03 1.808427044483e-04 0.0 
1.808427044483e-04 8.205581432035e-03 0.0 
0.0 0.0 -1.228155452712e-03 
-1.260668266969e-03 -1.832526413473e-04 0.0 
-1.832526413473e-04 8.522719369677e-03 0.0 
0.0 0.0 -1.267145247477e-03 
-1.104740620517e-03 -1.903291503950e-04 0.0 
-1.903291503950e-04 7.419136809817e-03 0.0 
0.0 0.0 -1.102242875413e-03 
-7.141399757063e-04 -1.908850217655e-04 0.0 
-1.908850217655e-04 4.699621454475e-03 0.0 
0.0 0.0 -7.127912709901e-04 
-9.617225215176e-04 -1.932311968947e-04 0.0 
-1.932311968947e-04 6.435112240426e-03 0.0 
0.0 0.0 -9.624716764950e-04 
-1.172863749534e-03 1.716370371983e-04 0.0 
1.716370371983e-04 7.752633284680e-03 0.0 
0.0 0.0 -1.164316760544e-03 
-7.921196063416e-04 -1.921710320450e-04 0.0 
-1.921710320450e-04 5.233600587143e-03 0.0 
0.0 0.0 -7.878971455476e-04 
-1.056322180914e-03 1.849092776284e-04 0.0 
1.849092776284e-04 7.010189158039e-03 0.0 
0.0 0.0 -1.057196955382e-03 
-9.850942903468e-04 1.906307977985e-04 0.0 
1.906307977985e-04 6.538331902211e-03 0.0 
0.0 0.0 -9.877098122506e-04 
-1.110739431392e-03 -1.980632731678e-04 0.0 
-1.980632731678e-04 7.489376108620e-03 0.0 
0.0 0.0 -1.112977059762e-03 
-1.093828226484e-03 -1.876429130193e-04 0.0 
-1.876429130193e-04 7.351584596061e-03 0.0 
0.0 0.0 -1.093234982489e-03 
-7.343177045735e-04 -9.465157044590e-06 0.0 
-9.465157044590e-06 4.570354151395e-03 0.0 
0.0 0.0 -7.313513689239e-04 
-7.305590051733e-04 3.402678996767e-05 0.0 
3.402678996767e-05 4.568649633296e-03 0.0 
0.0 0.0 -7.310574395863e-04 
-9.952316992060e-04 -2.061010920873e-04 0.0 
-2.061010920873e-04 6.656041030992e-03 0.0 
0.0 0.0 -9.927888931629e-04 
-9.918488233690e-04 1.857079994066e-04 0.0 
1.857079994066e-04 6.564735410895e-03 0.0 
0.0 0.0 -9.930598132463e-04 
-8.773556303313e-04 -1.926873992318e-04 0.0 
-1.926873992318e-04 5.856781784187e-03 0.0 
0.0 0.0 -8.780428295617e-04 
-9.805249871409e-04 -1.924563760952e-04 0.0 
-1.924563760952e-04 6.542490604406e-03 0.0 
0.0 0.0 -9.775429604617e-04 
-8.511934619470e-04 1.885314516425e-04 0.0 
1.885314516425e-04 5.570767617800e-03 0.0 
0.0 0.0 -8.502279965035e-04 
-1.193540881150e-03 1.313307987014e-04 0.0 
1.313307987014e-04 7.848740983510e-03 0.0 
0.0 0.0 -1.180288150054e-03 
-7.169159808387e-04 1.897237155631e-04 0.0 
1.897237155631e-04 4.633470113633e-03 0.0 
0.0 0.0 -7.154845226688e-04 
-1.330586332229e-03 -3.342005871353e-05 0.0 
-3.342005871353e-05 9.092648121720e-03 0.0 
0.0 0.0 -1.323793839065e-03 
-8.042874267729e-04 1.538278548702e-04 0.0 
1.538278548702e-04 5.332999869485e-03 0.0 
0.0 0.0 -8.119939454945e-04 
-8.205821157683e-04 -1.889603009902e-04 0.0 
-1.889603009902e-04 5.445817958641e-03 0.0 
0.0 0.0 -8.199314282332e-04 
-8.518598072760e-04 1.933057744939e-04 0.0 
1.933057744939e-04 5.584111954891e-03 0.0 
0.0 0.0 -8.523954645778e-04 
-4.499586564247e-04 -1.855256695766e-04 0.0 
-1.855256695766e-04 2.857022821909e-03 0.0 
0.0 0.0 -4.479040077299e-04 
-7.538979209402e-04 -1.934413965155e-04 0.0 
-1.934413965155e-04 4.995274109938e-03 0.0 
0.0 0.0 -7.551671247638e-04 
-9.291971374277e-04 1.860662208979e-04 0.0 
1.860662208979e-04 6.122384862718e-03 0.0 
0.0 0.0 -9.293281999836e-04 
-8.759687264254e-04 1.862073937602e-04 0.0 
1.862073937602e-04 5.739375914108e-03 0.0 
0.0 0.0 -8.738309435711e-04 
-9.814387768267e-04 1.839019607207e-04 0.0 
1.839019607207e-04 6.501334764277e-03 0.0 
0.0 0.0 -9.814596669550e-04 
-1.010867161751e-03 1.870829556364e-04 0.0 
1.870829556364e-04 6.678666577386e-03 0.0 
0.0 0.0 -1.008022096355e-03 
-1.044436862417e-03 -1.926634021926e-04 0.0 
-1.926634021926e-04 6.979659342720e-03 0.0 
0.0 0.0 -1.040850218070e-03 
-2.258973833718e-04 -1.030107291086e-04 0.0 
-1.030107291086e-04 1.399562224303e-03 0.0 
0.0 0.0 -2.163717569139e-04 
-7.194022022389e-04 1.955668345424e-04 0.0 
1.955668345424e-04 4.667671693721e-03 0.0 
0.0 0.0 -7.209013985657e-04 
-6.852716132608e-04 -1.859370640984e-04 0.0 
-1.859370640984e-04 4.485062449844e-03 0.0 
0.0 0.0 -6.825522065409e-04 
-9.565981315295e-04 1.790846631941e-04 0.0 
1.790846631941e-04 6.284252226282e-03 0.0 
0.0 0.0 -9.521954671713e-04 
-9.888411307371e-04 -1.922642027801e-04 0.0 
-1.922642027801e-04 6.601876220435e-03 0.0 
0.0 0.0 -9.850634846466e-04 
-1.155748252282e-03 1.797617113703e-04 0.0 
1.797617113703e-04 7.721330663973e-03 0.0 
0.0 0.0 -1.160108757481e-03 
-3.430926826770e-04 2.099465977867e-04 0.0 
2.099465977867e-04 1.967318145224e-03 0.0 
0.0 0.0 -3.273996513303e-04 
-3.332214715971e-04 -1.766782033718e-04 0.0 
-1.766782033718e-04 2.091595055548e-03 0.0 
0.0 0.0 -3.377286911054e-04 
-8.312276761858e-04 1.871380545801e-04 0.0 
1.871380545801e-04 5.435579353952e-03 0.0 
0.0 0.0 -8.305977116616e-04 
-7.164446669360e-04 -1.954011667160e-04 0.0 
-1.954011667160e-04 4.735861933211e-03 0.0 
0.0 0.0 -7.181358556540e-04 
-6.612400540538e-04 -2.145984864481e-04 0.0 
-2.145984864481e-04 4.300984587983e-03 0.0 
0.0 0.0 -6.554599841463e-04 
-6.892288823092e-04 -1.712097974294e-04 0.0 
-1.712097974294e-04 4.548932917262e-03 0.0 
0.0 0.0 -6.889204951115e-04 
-9.785151366904e-04 -1.903688334857e-04 0.0 
-1.903688334857e-04 6.552823194572e-03 0.0 
0.0 0.0 -9.793492904611e-04 
-3.279214625417e-04 -1.856414295293e-04 0.0 
-1.856414295293e-04 2.036611823989e-03 0.0 
0.0 0.0 -3.302473245842e-04 
-8.146691974455e-04 1.910766766110e-04 0.0 
1.910766766110e-04 5.328191831945e-03 0.0 
0.0 0.0 -8.154759146177e-04 
-1.049892567768e-03 -1.923181012939e-04 0.0 
-1.923181012939e-04 7.038288222671e-03 0.0 
0.0 0.0 -1.049209916622e-03 
-3.402244297759e-04 2.055488950203e-04 0.0 
2.055488950203e-04 2.007315154740e-03 0.0 
0.0 0.0 -3.408226701431e-04 
-1.289740643797e-03 -2.865690188005e-05 0.0 
-2.865690188005e-05 8.457698383589e-03 0.0 
0.0 0.0 -1.285586381397e-03 
-1.153161816539e-03 -1.810911126316e-04 0.0 
-1.810911126316e-04 7.745860400322e-03 0.0 
0.0 0.0 -1.152455342817e-03 
-7.730865248008e-04 -1.936313324955e-04 0.0 
-1.936313324955e-04 5.137233279798e-03 0.0 
0.0 0.0 -7.756113943005e-04 
-1.077943790440e-03 1.906149656784e-04 0.0 
1.906149656784e-04 7.162163658694e-03 0.0 
0.0 0.0 -1.078722419643e-03 
-1.818286327115e-04 -5.320949396074e-06 0.0 
-5.320949396074e-06 7.441773179852e-04 0.0 
0.0 0.0 -1.797547709840e-04 
-1.014460031072e-03 -2.000580684662e-04 0.0 
-2.000580684662e-04 6.784645211728e-03 0.0 
0.0 0.0 -1.012471576362e-03 
-8.638932840094e-04 -1.877196228479e-04 0.0 
-1.877196228479e-04 5.746441231772e-03 0.0 
0.0 0.0 -8.634366945984e-04 
-1.573089574218e-04 6.060813636257e-06 0.0 
6.060813636257e-06 7.379677460024e-04 0.0 
0.0 0.0 -1.788519809851e-04 
-1.152359323407e-03 1.787160847201e-04 0.0 
1.787160847201e-04 7.696182759720e-03 0.0 
0.0 0.0 -1.154859126927e-03 
-3.172722260096e-04 -1.887798844868e-04 0.0 
-1.887798844868e-04 1.899275964143e-03 0.0 
0.0 0.0 -3.099791425632e-04 
-9.534030089958e-04 -1.885226890488e-04 0.0 
-1.885226890488e-04 6.348031499756e-03 0.0 
0.0 0.0 -9.496453321265e-04 
-8.720767110959e-04 -1.896937711200e-04 0.0 
-1.896937711200e-04 5.800514782336e-03 0.0 
0.0 0.0 -8.712718144564e-04 
-7.527095169076e-04 -1.904145446511e-04 0.0 
-1.904145446511e-04 4.974920507200e-03 0.0 
0.0 0.0 -7.519815330289e-04 
-9.060865555047e-04 1.986245932987e-04 0.0 
1.986245932987e-04 5.963263483029e-03 0.0 
0.0 0.0 -9.052548162676e-04 
-1.186359257630e-03 1.790401943917e-04 0.0 
1.790401943917e-04 7.910120458871e-03 0.0 
0.0 0.0 -1.182898372388e-03 
-9.717172959483e-04 2.017731235506e-04 0.0 
2.017731235506e-04 6.421670982773e-03 0.0 
0.0 0.0 -9.716005391689e-04 
-8.586682738839e-04 1.870585543685e-04 0.0 
1.870585543685e-04 5.626729716629e-03 0.0 
0.0 0.0 -8.581765416018e-04 
-8.285502932263e-04 -1.869792024667e-04 0.0 
-1.869792024667e-04 5.500044709232e-03 0.0 
0.0 0.0 -8.279616112547e-04 
-1.157597014143e-04 1.569592925357e-04 0.0 
1.569592925357e-04 5.309685908670e-04 0.0 
0.0 0.0 -1.241199786263e-04 
-2.771697128881e-04 1.878257284126e-04 0.0 
1.878257284126e-04 1.577050393967e-03 0.0 
0.0 0.0 -2.761011822561e-04 
-1.118878802421e-03 -1.775376209316e-04 0.0 
-1.775376209316e-04 7.515980410063e-03 0.0 
0.0 0.0 -1.118331045454e-03 
-9.134689604251e-04 -2.151070896450e-04 0.0 
-2.151070896450e-04 6.054442910930e-03 0.0 
0.0 0.0 -9.085367473448e-04 
-1.157427958602e-03 1.810891327533e-04 0.0 
1.810891327533e-04 7.664331777096e-03 0.0 
0.0 0.0 -1.148691026115e-03 
-4.952790128067e-04 1.926215238326e-04 0.0 
1.926215238326e-04 3.096112546519e-03 0.0 
0.0 0.0 -4.942977111402e-04 
-1.099935257767e-03 1.964856595336e-04 0.0 
1.964856595336e-04 7.292900558944e-03 0.0 
0.0 0.0 -1.097950598811e-03 
-1.159977421736e-03 -1.899588415039e-04 0.0 
-1.899588415039e-04 7.782799989863e-03 0.0 
0.0 0.0 -1.155407764312e-03 
-7.046437970110e-04 1.771780882184e-04 0.0 
1.771780882184e-04 4.649202442725e-03 0.0 
0.0 0.0 -7.179420443741e-04 
-1.123089437587e-03 1.668381000104e-04 0.0 
1.668381000104e-04 7.448723404798e-03 0.0 
0.0 0.0 -1.120992621467e-03 
-1.074800466033e-03 -1.979281231238e-04 0.0 
-1.979281231238e-04 7.231750290380e-03 0.0 
0.0 0.0 -1.075946734593e-03 
-9.566951811484e-04 1.885305449409e-04 0.0 
1.885305449409e-04 6.314170866049e-03 0.0 
0.0 0.0 -9.571162043194e-04 
-7.858129650109e-04 1.950519568745e-04 0.0 
1.950519568745e-04 5.127464531984e-03 0.0 
0.0 0.0 -7.866383436874e-04 
-8.200429817129e-04 -1.955984029235e-04 0.0 
-1.955984029235e-04 5.453789901756e-03 0.0 
0.0 0.0 -8.209012074946e-04 
-1.208173698565e-03 -2.031466844656e-04 0.0 
-2.031466844656e-04 8.155254103189e-03 0.0 
0.0 0.0 -1.204704583718e-03 
-8.401419513637e-04 1.955438232624e-04 0.0 
1.955438232624e-04 5.506398965405e-03 0.0 
0.0 0.0 -8.396599866114e-04 
-9.021075521636e-04 1.852176330369e-04 0.0 
1.852176330369e-04 5.931413313431e-03 0.0 
0.0 0.0 -9.015555482168e-04 
-8.449278259679e-04 1.962826855989e-04 0.0 
1.962826855989e-04 5.533739272216e-03 0.0 
0.0 0.0 -8.433600309793e-04 
-1.038695295048e-03 1.973550359402e-04 0.0 
1.973550359402e-04 6.882197727615e-03 0.0 
0.0 0.0 -1.038364586984e-03 
-7.853544279650e-04 -1.888908667992e-04 0.0 
-1.888908667992e-04 5.195025610649e-03 0.0 
0.0 0.0 -7.842421616061e-04 
-5.077615371431e-04 1.925383574265e-04 0.0 
1.925383574265e-04 3.178371744144e-03 0.0 
0.0 0.0 -5.065804551108e-04 
-8.563679286656e-04 1.886904600152e-04 0.0 
1.886904600152e-04 5.609470178926e-03 0.0 
0.0 0.0 -8.561803240471e-04 
-5.442096767108e-04 1.899929291301e-04 0.0 
1.899929291301e-04 3.427592308512e-03 0.0 
0.0 0.0 -5.426160209679e-04 
-9.840239484115e-04 1.860183386348e-04 0.0 
1.860183386348e-04 6.482342277994e-03 0.0 
0.0 0.0 -9.799122972177e-04 
-5.401920244119e-04 -1.881877507061e-04 0.0 
-1.881877507061e-04 3.494301074598e-03 0.0 
0.0 0.0 -5.399485503622e-04 
-9.444560097486e-04 -1.940759614132e-04 0.0 
-1.940759614132e-04 6.297600198433e-03 0.0 
0.0 0.0 -9.420580210740e-04 
-1.136089878121e-03 -1.928967352453e-04 0.0 
-1.928967352453e-04 7.622114445815e-03 0.0 
0.0 0.0 -1.130549445556e-03 
-1.098744179893e-03 1.868758827566e-04 0.0 
1.868758827566e-04 7.288601580292e-03 0.0 
0.0 0.0 -1.096529089934e-03 
-7.525839073148e-04 1.884470413513e-04 0.0 
1.884470413513e-04 4.883223458127e-03 0.0 
0.0 0.0 -7.512528815036e-04 
-9.420690742012e-04 1.904423332235e-04 0.0 
1.904423332235e-04 6.250031840530e-03 0.0 
0.0 0.0 -9.460253849645e-04 
-1.105063984059e-03 1.902259811921e-04 0.0 
1.902259811921e-04 7.362332298091e-03 0.0 
0.0 0.0 -1.107441567342e-03 
-1.102593190183e-03 -1.984125757140e-04 0.0 
-1.984125757140e-04 7.431259929710e-03 0.0 
0.0 0.0 -1.104747680386e-03 
-2.748138935716e-04 -1.822651738482e-04 0.0 
-1.822651738482e-04 1.604872033163e-03 0.0 
0.0 0.0 -2.683291303717e-04 
-9.752435611011e-04 1.861325910200e-04 0.0 
1.861325910200e-04 6.426869973039e-03 0.0 
0.0 0.0 -9.724793438395e-04 
-1.198880595075e-03 2.442779644092e-04 0.0 
2.442779644092e-04 8.051846061103e-03 0.0 
0.0 0.0 -1.205818386895e-03 
-5.437300718267e-04 1.772584891247e-04 0.0 
1.772584891247e-04 3.388245147726e-03 0.0 
0.0 0.0 -5.357889572170e-04 
-8.407105615714e-04 -1.927518630570e-04 0.0 
-1.927518630570e-04 5.595089898141e-03 0.0 
0.0 0.0 -8.409532000723e-04 
-1.642955148473e-04 -1.732273966109e-04 0.0 
-1.732273966109e-04 7.998697341648e-04 0.0 
0.0 0.0 -1.553180670733e-04 
-1.132480187466e-03 1.879569331440e-04 0.0 
1.879569331440e-04 7.560437012022e-03 0.0 
0.0 0.0 -1.136235114959e-03 
-4.806530012621e-04 1.926320631025e-04 0.0 
1.926320631025e-04 2.980823159841e-03 0.0 
0.0 0.0 -4.785631936959e-04 
-8.099198933222e-04 1.419617410747e-04 0.0 
1.419617410747e-04 5.272582332729e-03 0.0 
0.0 0.0 -8.166178341775e-04 
-1.008233793579e-03 2.173973549694e-04 0.0 
2.173973549694e-04 6.687663611020e-03 0.0 
0.0 0.0 -1.008721701990e-03 
-9.403782054792e-04 -1.899510314299e-04 0.0 
-1.899510314299e-04 6.304690927512e-03 0.0 
0.0 0.0 -9.438854677472e-04 
-8.963572268652e-04 1.741364622751e-04 0.0 
1.741364622751e-04 5.997227966099e-03 0.0 
0.0 0.0 -9.108073647308e-04 
-8.940895927013e-04 1.874273657985e-04 0.0 
1.874273657985e-04 5.875054319372e-03 0.0 
0.0 0.0 -8.936906232635e-04 
-5.964027012772e-04 -1.969270146159e-04 0.0 
-1.969270146159e-04 3.828565622584e-03 0.0 
0.0 0.0 -5.884905393267e-04 
-6.222186473161e-04 -1.579598216188e-04 0.0 
-1.579598216188e-04 4.074275639624e-03 0.0 
0.0 0.0 -6.218825813656e-04 
-1.132545466856e-03 -1.921788675688e-04 0.0 
-1.921788675688e-04 7.631342050474e-03 0.0 
0.0 0.0 -1.133400347077e-03 
-9.399834973732e-04 -2.076180111174e-04 0.0 
-2.076180111174e-04 6.274716467853e-03 0.0 
0.0 0.0 -9.394087121358e-04 
-8.165998643398e-04 -1.896618384882e-04 0.0 
-1.896618384882e-04 5.425461381261e-03 0.0 
0.0 0.0 -8.164864906097e-04 
-1.015808219044e-03 2.043119981127e-04 0.0 
2.043119981127e-04 6.724239760090e-03 0.0 
0.0 0.0 -1.014986374720e-03 
-7.921952984756e-04 1.876569442452e-04 0.0 
1.876569442452e-04 5.161072896404e-03 0.0 
0.0 0.0 -7.915105747054e-04 
-5.132154280476e-04 -1.871647182001e-04 0.0 
-1.871647182001e-04 3.302371768383e-03 0.0 
0.0 0.0 -5.119962057136e-04 
-5.745746208367e-04 1.485352442875e-04 0.0 
1.485352442875e-04 3.755895310226e-03 0.0 
0.0 0.0 -5.908395828668e-04 
-8.562635021512e-04 -1.754512107452e-04 0.0 
-1.754512107452e-04 5.627343192984e-03 0.0 
0.0 0.0 -8.442294783838e-04 
-7.160648306052e-04 7.585704491009e-06 0.0 
7.585704491009e-06 4.849167370763e-03 0.0 
0.0 0.0 -7.121995050294e-04 
-1.098907698795e-03 -1.935603852202e-04 0.0 
-1.935603852202e-04 7.356586615962e-03 0.0 
0.0 0.0 -1.093598669875e-03 
-7.500784032912e-04 -1.888438395023e-04 0.0 
-1.888438395023e-04 4.947212343952e-03 0.0 
0.0 0.0 -7.486350631497e-04 
-1.210182417684e-03 1.765917680884e-04 0.0 
1.765917680884e-04 8.247529209770e-03 0.0 
0.0 0.0 -1.233571955743e-03 
-1.118284649088e-03 2.239133535709e-04 0.0 
2.239133535709e-04 7.476894485255e-03 0.0 
0.0 0.0 -1.121177773779e-03 
-8.254740426919e-04 -1.929282224425e-04 0.0 
-1.929282224425e-04 5.485443478807e-03 0.0 
0.0 0.0 -8.252461108756e-04 
-1.242964237003e-03 -2.139177796874e-04 0.0 
-2.139177796874e-04 8.349538837109e-03 0.0 
0.0 0.0 -1.241472629463e-03 
-5.687293433059e-04 -1.915120142833e-04 0.0 
-1.915120142833e-04 3.690790191525e-03 0.0 
0.0 0.0 -5.682622744621e-04 
-1.208040625364e-03 1.849401074130e-04 0.0 
1.849401074130e-04 8.046920265334e-03 0.0 
0.0 0.0 -1.204482468497e-03 
-8.913551845653e-04 -1.878094076417e-04 0.0 
-1.878094076417e-04 5.940020385334e-03 0.0 
0.0 0.0 -8.910665706739e-04 
-9.852542746410e-04 1.871572406668e-04 0.0 
1.871572406668e-04 6.505324580404e-03 0.0 
0.0 0.0 -9.848034212814e-04 
-1.145107580505e-03 -1.842496915473e-04 0.0 
-1.842496915473e-04 7.703101384869e-03 0.0 
0.0 0.0 -1.146785027167e-03 
-5.943655314034e-04 -1.832199318589e-04 0.0 
-1.832199318589e-04 3.893020220943e-03 0.0 
0.0 0.0 -5.958228065582e-04 
-9.389816814797e-04 1.876119276122e-04 0.0 
1.876119276122e-04 6.182064030220e-03 0.0 
0.0 0.0 -9.369464185080e-04 
-7.887299262109e-04 -1.887974843369e-04 0.0 
-1.887974843369e-04 5.230247920474e-03 0.0 
0.0 0.0 -7.886172400246e-04 
-9.083774489983e-04 -1.902700926230e-04 0.0 
-1.902700926230e-04 6.046157002466e-03 0.0 
0.0 0.0 -9.065670216064e-04 
-5.279887302567e-04 -1.859379540021e-04 0.0 
-1.859379540021e-04 3.395303897193e-03 0.0 
0.0 0.0 -5.268093404353e-04 
-1.014606245907e-03 2.103915705160e-04 0.0 
2.103915705160e-04 6.713973890446e-03 0.0 
0.0 0.0 -1.013229387512e-03 
-7.553250635679e-04 1.889436264505e-04 0.0 
1.889436264505e-04 4.904153081957e-03 0.0 
0.0 0.0 -7.548706880268e-04 
-8.804539724126e-04 1.911528069323e-04 0.0 
1.911528069323e-04 5.783141817002e-03 0.0 
0.0 0.0 -8.810281692460e-04 
-9.122003311205e-04 1.835312424394e-04 0.0 
1.835312424394e-04 5.985147494673e-03 0.0 
0.0 0.0 -9.091416541300e-04 
-1.779440610295e-04 -1.030848282903e-04 0.0 
-1.030848282903e-04 7.740733373014e-04 0.0 
0.0 0.0 -1.392682743729e-04 
-9.092484897749e-04 2.049076976716e-04 0.0 
2.049076976716e-04 5.988548295435e-03 0.0 
0.0 0.0 -9.082496170556e-04 
-2.130732635602e-04 -2.101807231715e-04 0.0 
-2.101807231715e-04 1.221567911034e-03 0.0 
0.0 0.0 -2.164288490095e-04 
-2.520548988868e-04 2.059906335289e-04 0.0 
2.059906335289e-04 1.360441870585e-03 0.0 
0.0 0.0 -2.410360834028e-04 
-8.430214645806e-04 1.870171193368e-04 0.0 
1.870171193368e-04 5.521874591652e-03 0.0 
0.0 0.0 -8.438072171805e-04 
-1.100618043992e-03 -1.995199700289e-04 0.0 
-1.995199700289e-04 7.372933681793e-03 0.0 
0.0 0.0 -1.098354823938e-03 
-9.336786887582e-04 1.772618600829e-04 0.0 
1.772618600829e-04 6.184069199665e-03 0.0 
0.0 0.0 -9.387552692590e-04 
-5.316814076804e-04 -1.951121058158e-04 0.0 
-1.951121058158e-04 3.374217008638e-03 0.0 
0.0 0.0 -5.215302833573e-04 
-1.342322198460e-03 1.355075091338e-05 0.0 
1.355075091338e-05 8.860022296973e-03 0.0 
0.0 0.0 -1.342322198460e-03 
-6.904184216633e-05 1.341545190439e-04 0.0 
1.341545190439e-04 2.607547295547e-04 0.0 
0.0 0.0 -8.216266602360e-05 
-5.589210723321e-04 -1.329418113690e-04 0.0 
-1.329418113690e-04 3.609084095352e-03 0.0 
0.0 0.0 -5.549805679787e-04 
-8.477696331988e-04 1.855996582246e-04 0.0 
1.855996582246e-04 5.547050172852e-03 0.0 
0.0 0.0 -8.472740691907e-04 
-8.035495844310e-04 -1.953259203623e-04 0.0 
-1.953259203623e-04 5.337013229194e-03 0.0 
0.0 0.0 -8.042584860449e-04 
-6.757348554203e-04 -1.653998453619e-04 0.0 
-1.653998453619e-04 4.426804148949e-03 0.0 
0.0 0.0 -6.733236465360e-04 
-5.914609098287e-04 1.823071808114e-04 0.0 
1.823071808114e-04 3.765270744377e-03 0.0 
0.0 0.0 -5.908717820549e-04 
-8.740292955769e-04 -1.984478198410e-04 0.0 
-1.984478198410e-04 5.813273429386e-03 0.0 
0.0 0.0 -8.733819075714e-04 
-9.264128048314e-04 -1.908219560731e-04 0.0 
-1.908219560731e-04 6.187717693911e-03 0.0 
0.0 0.0 -9.266779469803e-04 
-9.738255750276e-04 2.028683516140e-04 0.0 
2.028683516140e-04 6.450883656299e-03 0.0 
0.0 0.0 -9.734188451722e-04 
-1.155174733819e-03 2.031393399309e-04 0.0 
2.031393399309e-04 7.608098909853e-03 0.0 
0.0 0.0 -1.144302277022e-03 
-2.998307148874e-04 1.817771268844e-04 0.0 
1.817771268844e-04 1.707947677580e-03 0.0 
0.0 0.0 -2.976331147772e-04 
-7.774732960360e-04 1.902311186531e-04 0.0 
1.902311186531e-04 5.067412702539e-03 0.0 
0.0 0.0 -7.784793977761e-04 
-8.354929195800e-04 1.868427274729e-04 0.0 
1.868427274729e-04 5.469964258699e-03 0.0 
0.0 0.0 -8.356154970834e-04 
-4.516910884492e-04 -2.032153244339e-04 0.0 
-2.032153244339e-04 2.897475389763e-03 0.0 
0.0 0.0 -4.544023106810e-04 
-7.514806211766e-04 2.187245154034e-04 0.0 
2.187245154034e-04 4.887888210751e-03 0.0 
0.0 0.0 -7.518103749233e-04 
-9.376130433125e-04 -2.007012642149e-04 0.0 
-2.007012642149e-04 6.245928942655e-03 0.0 
0.0 0.0 -9.362314798257e-04 
-1.020402468730e-03 -1.946865508960e-04 0.0 
-1.946865508960e-04 6.790144563629e-03 0.0 
0.0 0.0 -1.023451880212e-03 
-1.525732992224e-04 8.599813621991e-06 0.0 
8.599813621991e-06 1.000033467602e-03 0.0 
0.0 0.0 -1.605242656235e-04 
-1.269812495822e-04 -2.531001823489e-04 0.0 
-2.531001823489e-04 4.902479252968e-04 0.0 
0.0 0.0 -1.185594205871e-04 
-3.241357878482e-04 -1.842994986653e-04 0.0 
-1.842994986653e-04 2.004473459914e-03 0.0 
0.0 0.0 -3.233707900025e-04 
-8.334989762747e-04 -1.938999604970e-04 0.0 
-1.938999604970e-04 5.537569679809e-03 0.0 
0.0 0.0 -8.330087554115e-04 
-6.325222328161e-04 -1.881321833313e-04 0.0 
-1.881321833313e-04 4.138956718805e-03 0.0 
0.0 0.0 -6.322020076307e-04 
-5.606822046863e-04 -1.836386180369e-04 0.0 
-1.836386180369e-04 3.638290895272e-03 0.0 
0.0 0.0 -5.605319560360e-04 
-5.042968556974e-04 -1.874920210369e-04 0.0 
-1.874920210369e-04 3.240689773487e-03 0.0 
0.0 0.0 -5.041580933422e-04 
-8.721332834429e-04 1.863637843611e-04 0.0 
1.863637843611e-04 5.722466013089e-03 0.0 
0.0 0.0 -8.721335634590e-04 
-9.951021354220e-04 1.863977597818e-04 0.0 
1.863977597818e-04 6.578139400737e-03 0.0 
0.0 0.0 -9.956198530692e-04 
-8.650795473337e-04 1.875435944103e-04 0.0 
1.875435944103e-04 5.670505538654e-03 0.0 
0.0 0.0 -8.643287579461e-04 
-6.358273554876e-04 1.861975192937e-04 0.0 
1.861975192937e-04 4.071155698746e-03 0.0 
0.0 0.0 -6.348607296063e-04 
-9.711834339353e-04 -2.012117718550e-04 0.0 
-2.012117718550e-04 6.487584772475e-03 0.0 
0.0 0.0 -9.699423737970e-04 
-8.101971348646e-04 1.641316877204e-04 0.0 
1.641316877204e-04 5.432076920036e-03 0.0 
0.0 0.0 -8.236220363599e-04 
-1.071983661584e-03 2.130963721819e-04 0.0 
2.130963721819e-04 7.145357950686e-03 0.0 
0.0 0.0 -1.076197569190e-03 
-8.626714893425e-04 -1.942405500946e-04 0.0 
-1.942405500946e-04 5.738328913224e-03 0.0 
0.0 0.0 -8.617642947636e-04 
-8.702702279884e-04 -1.921753086919e-04 0.0 
-1.921753086919e-04 5.792753129953e-03 0.0 
0.0 0.0 -8.694825820363e-04 
-4.645559553229e-04 -1.981925654935e-04 0.0 
-1.981925654935e-04 2.889937884798e-03 0.0 
0.0 0.0 -4.548485160793e-04 
-6.608554486331e-04 -1.864091804662e-04 0.0 
-1.864091804662e-04 4.336541054874e-03 0.0 
0.0 0.0 -6.598952468720e-04 
-8.926027030231e-04 1.843043537544e-04 0.0 
1.843043537544e-04 5.864339266433e-03 0.0 
0.0 0.0 -8.930692851043e-04 
-9.679615503639e-04 1.696948557832e-04 0.0 
1.696948557832e-04 6.395623785343e-03 0.0 
0.0 0.0 -9.615701295831e-04 
-9.079120183865e-04 1.806035671013e-04 0.0 
1.806035671013e-04 6.008465197653e-03 0.0 
0.0 0.0 -8.972249362023e-04 
-4.966173735405e-04 -1.549710521065e-04 0.0 
-1.549710521065e-04 3.153972529156e-03 0.0 
0.0 0.0 -4.879487645214e-04 
-9.010013592765e-04 1.886793445213e-04 0.0 
1.886793445213e-04 5.923625585035e-03 0.0 
0.0 0.0 -9.007118478549e-04 
-5.518253028037e-04 -1.783371210293e-04 0.0 
-1.783371210293e-04 3.577417440001e-03 0.0 
0.0 0.0 -5.517684601482e-04 
-2.845535083016e-04 1.977607623022e-04 0.0 
1.977607623022e-04 1.633750881917e-03 0.0 
0.0 0.0 -2.811347238918e-04 
-1.188918642902e-03 -1.918974946843e-04 0.0 
-1.918974946843e-04 8.111302423947e-03 0.0 
0.0 0.0 -1.202908440308e-03 
-3.019785591690e-04 1.950774455603e-04 0.0 
1.950774455603e-04 1.726883632229e-03 0.0 
0.0 0.0 -3.019870735033e-04 
-5.828626320579e-04 1.860512938998e-04 0.0 
1.860512938998e-04 3.705650589538e-03 0.0 
0.0 0.0 -5.822209219963e-04 
-8.781768956791e-04 -1.986806572288e-04 0.0 
-1.986806572288e-04 5.833892611307e-03 0.0 
0.0 0.0 -8.766521650092e-04 
-5.060723315699e-04 1.405250353070e-04 0.0 
1.405250353070e-04 3.287884117067e-03 0.0 
0.0 0.0 -5.239962781855e-04 
-8.898132346488e-04 -1.977943572352e-04 0.0 
-1.977943572352e-04 5.946896776319e-03 0.0 
0.0 0.0 -8.905656347129e-04 
-4.258375091185e-04 -2.178895733922e-04 0.0 
-2.178895733922e-04 2.688533932087e-03 0.0 
0.0 0.0 -4.282508963332e-04 
-7.578747057613e-04 -1.654300402080e-04 0.0 
-1.654300402080e-04 5.036141076678e-03 0.0 
0.0 0.0 -7.823486082854e-04 
-9.004251462807e-04 -1.892315142781e-04 0.0 
-1.892315142781e-04 5.992307029229e-03 0.0 
0.0 0.0 -8.981647654366e-04 
-7.810617461966e-04 -1.867589919143e-04 0.0 
-1.867589919143e-04 5.170374097518e-03 0.0 
0.0 0.0 -7.800125773855e-04 
-8.113930582064e-04 -1.934831491269e-04 0.0 
-1.934831491269e-04 5.398532171848e-03 0.0 
0.0 0.0 -8.126672281948e-04 
-1.456223754453e-04 -1.153284200368e-04 0.0 
-1.153284200368e-04 8.334024863152e-04 0.0 
0.0 0.0 -1.489310416055e-04 
-1.183619524390e-03 -1.995906802130e-04 0.0 
-1.995906802130e-04 7.793015624773e-03 0.0 
0.0 0.0 -1.152567315725e-03 
-6.518619288048e-04 -1.801864724235e-04 0.0 
-1.801864724235e-04 4.278312019353e-03 0.0 
0.0 0.0 -6.514572604261e-04 
-1.161957516655e-03 2.065796963047e-04 0.0 
2.065796963047e-04 7.737413579119e-03 0.0 
0.0 0.0 -1.154039482800e-03 
-9.839722502603e-04 -1.958677314331e-04 0.0 
-1.958677314331e-04 6.578387584555e-03 0.0 
0.0 0.0 -9.821191134873e-04 
-9.294100606496e-04 1.930061835790e-04 0.0 
1.930061835790e-04 6.122204066633e-03 0.0 
0.0 0.0 -9.293965016571e-04 
-9.285061071557e-04 -1.774497838441e-04 0.0 
-1.774497838441e-04 6.189509746344e-03 0.0 
0.0 0.0 -9.268654845074e-04 
-5.996189068560e-04 1.852055889782e-04 0.0 
1.852055889782e-04 3.820597089734e-03 0.0 
0.0 0.0 -5.989583036242e-04 
-1.944838745679e-04 1.584109702943e-04 0.0 
1.584109702943e-04 1.163625171840e-03 0.0 
0.0 0.0 -2.103425724855e-04 
-1.545095455242e-04 1.193388759037e-04 0.0 
1.193388759037e-04 6.563556231282e-04 0.0 
0.0 0.0 -1.599169489567e-04 
-9.548054477989e-04 1.928585704838e-04 0.0 
1.928585704838e-04 6.318843775437e-03 0.0 
0.0 0.0 -9.583065114986e-04 
-1.160173340718e-03 1.884012827660e-04 0.0 
1.884012827660e-04 7.692007981726e-03 0.0 
0.0 0.0 -1.148056181429e-03 
-5.412400896945e-04 -1.740896251805e-04 0.0 
-1.740896251805e-04 3.519775267643e-03 0.0 
0.0 0.0 -5.426247857783e-04 
-1.000629830532e-03 1.900148255986e-04 0.0 
1.900148255986e-04 6.622819157878e-03 0.0 
0.0 0.0 -1.000702849114e-03 
-5.014074309498e-04 1.897737110036e-04 0.0 
1.897737110036e-04 3.104700833587e-03 0.0 
0.0 0.0 -5.002094317253e-04 
-1.008257874699e-03 -1.995045898854e-04 0.0 
-1.995045898854e-04 6.739421236299e-03 0.0 
0.0 0.0 -1.005614027492e-03 
-1.275786431467e-03 1.088711895384e-04 0.0 
1.088711895384e-04 8.693642459064e-03 0.0 
0.0 0.0 -1.266534580134e-03 
-5.404710541836e-05 1.564499946379e-05 0.0 
1.564499946379e-05 2.310460762638e-04 0.0 
0.0 0.0 -4.512473402930e-05 
-1.341620833825e-03 -3.423569445624e-05 0.0 
-3.423569445624e-05 8.854172159817e-03 0.0 
0.0 0.0 -1.341620833825e-03 
-1.340051318819e-03 3.419351748214e-06 0.0 
3.419351748214e-06 8.881496154702e-03 0.0 
0.0 0.0 -1.340051318819e-03 
-8.003500561082e-04 -1.973446332083e-04 0.0 
-1.973446332083e-04 5.182732733425e-03 0.0 
0.0 0.0 -7.955197795907e-04 
-6.427190039752e-04 -1.771623886154e-04 0.0 
-1.771623886154e-04 4.219584582941e-03 0.0 
0.0 0.0 -6.428246066218e-04 
-9.539959357727e-04 -1.903436421629e-04 0.0 
-1.903436421629e-04 6.384067375959e-03 0.0 
0.0 0.0 -9.543595451431e-04 
-6.046483611248e-04 -1.904684548622e-04 0.0 
-1.904684548622e-04 3.941030960147e-03 0.0 
0.0 0.0 -6.041149214933e-04 
-2.015327089857e-04 -1.787857606077e-04 0.0 
-1.787857606077e-04 1.215175486256e-03 0.0 
0.0 0.0 -2.095884814006e-04 
-1.358502302165e-04 -1.652436952664e-04 0.0 
-1.652436952664e-04 5.860561493667e-04 0.0 
0.0 0.0 -1.201211790779e-04 
-1.224116731780e-03 -1.601620163346e-04 0.0 
-1.601620163346e-04 8.159917680932e-03 0.0 
0.0 0.0 -1.209499414335e-03 
-9.670306227229e-04 -2.102097021759e-04 0.0 
-2.102097021759e-04 6.456763428288e-03 0.0 
0.0 0.0 -9.648175333861e-04 
-7.505793698933e-04 -1.832067976458e-04 0.0 
-1.832067976458e-04 4.862883335491e-03 0.0 
0.0 0.0 -7.224789237172e-04 
-1.308106101880e-03 -9.564346375638e-06 0.0 
-9.564346375638e-06 9.104818726286e-03 0.0 
0.0 0.0 -1.323661129950e-03 
-3.723881451928e-04 -2.095753772030e-04 0.0 
-2.095753772030e-04 2.251170567838e-03 0.0 
0.0 0.0 -3.615704333793e-04 
-1.338587368780e-03 -1.150799812337e-05 0.0 
-1.150799812337e-05 9.097604261257e-03 0.0 
0.0 0.0 -1.324908485340e-03 
-9.656783964585e-04 1.862090128514e-04 0.0 
1.862090128514e-04 6.391762053029e-03 0.0 
0.0 0.0 -9.670422101491e-04 
-6.322851321105e-04 -1.782670103148e-04 0.0 
-1.782670103148e-04 4.156088603212e-03 0.0 
0.0 0.0 -6.336394413500e-04 
-9.215195886709e-04 1.858262024962e-04 0.0 
1.858262024962e-04 6.065159777351e-03 0.0 
0.0 0.0 -9.212972352143e-04 
-6.095245585205e-04 1.817233461859e-04 0.0 
1.817233461859e-04 3.888318231073e-03 0.0 
0.0 0.0 -6.094834619596e-04 
-3.161972729321e-04 2.118996039674e-04 0.0 
2.118996039674e-04 1.862493464303e-03 0.0 
0.0 0.0 -3.160312483096e-04 
-5.714172847083e-04 1.885506067566e-04 0.0 
1.885506067566e-04 3.631122930928e-03 0.0 
0.0 0.0 -5.728018649490e-04 
-1.022496320278e-03 1.929428534962e-04 0.0 
1.929428534962e-04 6.770909400157e-03 0.0 
0.0 0.0 -1.023749757194e-03 
-1.150976429886e-03 -2.032424840275e-04 0.0 
-2.032424840275e-04 7.758939253249e-03 0.0 
0.0 0.0 -1.155390781228e-03 
-6.187002398341e-04 1.818215273869e-04 0.0 
1.818215273869e-04 3.950326342677e-03 0.0 
0.0 0.0 -6.181853003094e-04 
-1.037480631671e-03 1.889356953886e-04 0.0 
1.889356953886e-04 6.873009589990e-03 0.0 
0.0 0.0 -1.036271578259e-03 
0.0 0.0 0.0 
0.0 0.0 0.0 
0.0 0.0 0.0 
-6.276661230388e-04 1.792694929945e-04 0.0 
1.792694929945e-04 4.010933515786e-03 0.0 
0.0 0.0 -6.266282162577e-04 
-1.067618640436e-03 -2.059979659696e-04 0.0 
-2.059979659696e-04 7.168819223232e-03 0.0 
0.0 0.0 -1.066385360782e-03 
-5.602476022505e-04 1.913249262792e-04 0.0 
1.913249262792e-04 3.548859392025e-03 0.0 
0.0 0.0 -5.616069800515e-04 
-5.034317169211e-04 -1.766316395616e-04 0.0 
-1.766316395616e-04 3.262973984744e-03 0.0 
0.0 0.0 -5.052880831394e-04 
-9.189958469858e-04 -1.860644213167e-04 0.0 
-1.860644213167e-04 6.131142810909e-03 0.0 
0.0 0.0 -9.187611816440e-04 
-2.798438621563e-04 2.024562614015e-04 0.0 
2.024562614015e-04 1.659164072585e-03 0.0 
0.0 0.0 -2.979563435985e-04 
-4.237702008277e-04 -1.193704641066e-04 0.0 
-1.193704641066e-04 2.381332436810e-03 0.0 
0.0 0.0 -3.867203691650e-04 
-3.975764326489e-04 -1.798608620237e-04 0.0 
-1.798608620237e-04 2.707475849368e-03 0.0 
0.0 0.0 -4.195921675762e-04 
-4.963058465455e-04 1.849091904100e-04 0.0 
1.849091904100e-04 3.099739962777e-03 0.0 
0.0 0.0 -4.973376392308e-04 
-8.459383987435e-04 -1.907145818210e-04 0.0 
-1.907145818210e-04 5.622335891913e-03 0.0 
0.0 0.0 -8.444178005646e-04 
-8.162577903273e-04 1.917219888079e-04 0.0 
1.917219888079e-04 5.328762658263e-03 0.0 
0.0 0.0 -8.147327860213e-04 
-1.033805230839e-03 -2.014200165048e-04 0.0 
-2.014200165048e-04 6.928519613423e-03 0.0 
0.0 0.0 -1.033897369924e-03 
-1.221633880436e-03 1.327525419154e-04 0.0 
1.327525419154e-04 8.105302040654e-03 0.0 
0.0 0.0 -1.224260864640e-03 
-4.437323643489e-04 1.289034247085e-04 0.0 
1.289034247085e-04 2.824272473931e-03 0.0 
0.0 0.0 -4.570814260163e-04 
-1.026282183515e-03 -2.469645237371e-04 0.0 
-2.469645237371e-04 6.837925098464e-03 0.0 
0.0 0.0 -1.028620860735e-03 
-1.232340650598e-03 1.232265702215e-04 0.0 
1.232265702215e-04 8.131356307241e-03 0.0 
0.0 0.0 -1.228414553209e-03 
-5.714514367838e-04 1.903885160707e-04 0.0 
1.903885160707e-04 3.625837711505e-03 0.0 
0.0 0.0 -5.707601703556e-04 
-2.135565257302e-04 2.102195190307e-04 0.0 
2.102195190307e-04 1.190116728888e-03 0.0 
0.0 0.0 -2.192200328082e-04 
-5.324811030586e-04 -1.564509498563e-04 0.0 
-1.564509498563e-04 3.456619354267e-03 0.0 
0.0 0.0 -5.330167430730e-04 
-8.085387987626e-04 -1.885177874860e-04 0.0 
-1.885177874860e-04 5.361946972923e-03 0.0 
0.0 0.0 -8.082977034869e-04 
-1.047924752938e-03 1.956397865657e-04 0.0 
1.956397865657e-04 6.924645327261e-03 0.0 
0.0 0.0 -1.043024347135e-03 
-8.126482086337e-04 1.904262971100e-04 0.0 
1.904262971100e-04 5.297787546946e-03 0.0 
0.0 0.0 -8.108276944599e-04 
-2.458088517301e-04 -1.138196901462e-04 0.0 
-1.138196901462e-04 1.452613291321e-03 0.0 
0.0 0.0 -2.343049260409e-04 
-9.102031090638e-04 -2.013755147983e-04 0.0 
-2.013755147983e-04 6.070783801232e-03 0.0 
0.0 0.0 -9.096068616062e-04 
-3.560167896549e-04 2.151383842189e-04 0.0 
2.151383842189e-04 2.131802985450e-03 0.0 
0.0 0.0 -3.508512830963e-04 
-8.140185260576e-04 -1.926928755880e-04 0.0 
-1.926928755880e-04 5.389465675351e-03 0.0 
0.0 0.0 -8.123573650817e-04 
-8.767776688194e-04 2.024483433581e-04 0.0 
2.024483433581e-04 5.751188307413e-03 0.0 
0.0 0.0 -8.756097305517e-04 
-9.509565837624e-04 1.896974231217e-04 0.0 
1.896974231217e-04 6.265385166788e-03 0.0 
0.0 0.0 -9.491391837787e-04 
-9.274205801970e-04 -1.707730266069e-04 0.0 
-1.707730266069e-04 6.212775611049e-03 0.0 
0.0 0.0 -9.494079867578e-04 
-4.906398001625e-04 -1.749565167891e-04 0.0 
-1.749565167891e-04 3.179973922092e-03 0.0 
0.0 0.0 -4.933620968966e-04 
-2.484574972914e-04 1.853035354059e-04 0.0 
1.853035354059e-04 1.372800011643e-03 0.0 
0.0 0.0 -2.459554264611e-04 
-9.419221611826e-04 2.078178624915e-04 0.0 
2.078178624915e-04 6.213877196692e-03 0.0 
0.0 0.0 -9.415329344942e-04 
-3.796687070467e-04 1.987051729866e-04 0.0 
1.987051729866e-04 2.349690832434e-03 0.0 
0.0 0.0 -3.857152600925e-04 
-1.079925297708e-04 2.094696628342e-04 0.0 
2.094696628342e-04 4.385964497386e-04 0.0 
0.0 0.0 -1.205192217350e-04 
-1.217003238982e-03 1.715975421034e-04 0.0 
1.715975421034e-04 8.115367819263e-03 0.0 
0.0 0.0 -1.223389224544e-03 
-1.152822377069e-03 1.914748152748e-04 0.0 
1.914748152748e-04 7.732583850779e-03 0.0 
0.0 0.0 -1.157435638217e-03 
-9.394432781398e-05 -1.620283716039e-05 0.0 
-1.620283716039e-05 3.135234532214e-04 0.0 
0.0 0.0 -9.410533946034e-05 
-9.757772886518e-04 -2.084469974537e-04 0.0 
-2.084469974537e-04 6.524951865197e-03 0.0 
0.0 0.0 -9.758309632659e-04 
-3.896708157340e-04 -1.763476574511e-04 0.0 
-1.763476574511e-04 2.457499880861e-03 0.0 
0.0 0.0 -3.887237773309e-04 
-4.187709573894e-04 2.113072011152e-04 0.0 
2.113072011152e-04 2.560835545987e-03 0.0 
0.0 0.0 -4.195855280820e-04 
-1.100445862982e-03 1.933828922323e-04 0.0 
1.933828922323e-04 7.327011461119e-03 0.0 
0.0 0.0 -1.100737838324e-03 
-9.470047501208e-04 -1.877990577056e-04 0.0 
-1.877990577056e-04 6.324416518396e-03 0.0 
0.0 0.0 -9.467522836136e-04 
-1.064750852218e-03 1.888034529427e-04 0.0 
1.888034529427e-04 7.071897550473e-03 0.0 
0.0 0.0 -1.064854740548e-03 
-6.246803119835e-04 -1.813696095215e-04 0.0 
-1.813696095215e-04 4.082455365693e-03 0.0 
0.0 0.0 -6.238888496032e-04 
-7.066733059565e-04 2.079397955112e-05 0.0 
2.079397955112e-05 4.859565834242e-03 0.0 
0.0 0.0 -7.105917616147e-04 
-1.294146159652e-03 -3.864697892398e-05 0.0 
-3.864697892398e-05 8.444131533072e-03 0.0 
0.0 0.0 -1.281538364137e-03 
-3.542163761970e-04 2.028127844720e-04 0.0 
2.028127844720e-04 2.096644602115e-03 0.0 
0.0 0.0 -3.541816848729e-04 
-1.125206372116e-03 -1.754172072947e-04 0.0 
-1.754172072947e-04 7.521489804146e-03 0.0 
0.0 0.0 -1.121221582973e-03 
-8.491762958406e-04 -1.918772025260e-04 0.0 
-1.918772025260e-04 5.637172269943e-03 0.0 
0.0 0.0 -8.477100451819e-04 
-2.548170229509e-04 1.666770740484e-04 0.0 
1.666770740484e-04 1.576109573106e-03 0.0 
0.0 0.0 -2.892354545592e-04 
-1.017444257442e-03 1.870623454717e-04 0.0 
1.870623454717e-04 6.717348757917e-03 0.0 
0.0 0.0 -1.015166614560e-03 
-6.631831128869e-04 1.857158928685e-04 0.0 
1.857158928685e-04 4.263729749942e-03 0.0 
0.0 0.0 -6.628028861993e-04 
-1.684732311542e-04 2.043772270918e-05 0.0 
2.043772270918e-05 7.313008481942e-04 0.0 
0.0 0.0 -1.790968519484e-04 
-5.636882380034e-04 1.819527752727e-04 0.0 
1.819527752727e-04 3.574156729662e-03 0.0 
0.0 0.0 -5.632129589051e-04 
-9.884210265131e-04 1.935912308442e-04 0.0 
1.935912308442e-04 6.630368017320e-03 0.0 
0.0 0.0 -9.915417172310e-04 
-1.024292652289e-03 -1.998354067082e-04 0.0 
-1.998354067082e-04 6.855679602380e-03 0.0 
0.0 0.0 -1.020980360542e-03 
-2.668718187998e-04 -1.887143997354e-04 0.0 
-1.887143997354e-04 1.647579462571e-03 0.0 
0.0 0.0 -2.713190868338e-04 
-7.786512140660e-04 -1.180089749439e-04 0.0 
-1.180089749439e-04 5.426201302135e-03 0.0 
0.0 0.0 -8.076288038732e-04 
-1.074110154891e-03 1.985848318847e-04 0.0 
1.985848318847e-04 7.134481455861e-03 0.0 
0.0 0.0 -1.071782534217e-03 
-1.102896231441e-03 -1.801608730721e-04 0.0 
-1.801608730721e-04 7.447194143767e-03 0.0 
0.0 0.0 -1.109893377180e-03 
-5.341916501155e-04 1.805786256932e-04 0.0 
1.805786256932e-04 3.363027861628e-03 0.0 
0.0 0.0 -5.351738145117e-04 
-4.305045173780e-04 1.931657245159e-04 0.0 
1.931657245159e-04 2.621086994850e-03 0.0 
0.0 0.0 -4.333934152438e-04 
-8.799765506504e-04 1.996562479781e-04 0.0 
1.996562479781e-04 5.778741680504e-03 0.0 
0.0 0.0 -8.786267582723e-04 
-9.199821990293e-04 -2.154181819420e-04 0.0 
-2.154181819420e-04 6.117399840533e-03 0.0 
0.0 0.0 -9.278975173457e-04 
-1.674260928547e-04 -1.501342801196e-05 0.0 
-1.501342801196e-05 7.277150164985e-04 0.0 
0.0 0.0 -1.762926913357e-04 
-1.274115998275e-03 1.675675276387e-06 0.0 
1.675675276387e-06 8.713591812970e-03 0.0 
0.0 0.0 -1.269179263065e-03 
-1.298508155882e-03 1.869502884704e-05 0.0 
1.869502884704e-05 8.443421948614e-03 0.0 
0.0 0.0 -1.281197857596e-03 
-8.292940884850e-04 -1.917175163011e-04 0.0 
-1.917175163011e-04 5.414946975704e-03 0.0 
0.0 0.0 -8.387747867703e-04 
-1.244952979202e-03 -2.282010355606e-04 0.0 
-2.282010355606e-04 8.516132030964e-03 0.0 
0.0 0.0 -1.255037608383e-03 
-1.285595461777e-03 8.758262611811e-05 0.0 
8.758262611811e-05 8.470225568410e-03 0.0 
0.0 0.0 -1.285499913836e-03 
-6.550628368552e-04 1.846091374224e-04 0.0 
1.846091374224e-04 4.205898052995e-03 0.0 
0.0 0.0 -6.542748834104e-04 
-6.160633711768e-04 -1.792561832397e-04 0.0 
-1.792561832397e-04 4.023102319788e-03 0.0 
0.0 0.0 -6.153450468602e-04 
-1.283033344166e-03 -3.678337033124e-05 0.0 
-3.678337033124e-05 8.728014596535e-03 0.0 
0.0 0.0 -1.265535665854e-03 
0.0 0.0 0.0 
0.0 0.0 0.0 
0.0 0.0 0.0 
-3.991066787644e-04 2.089649564116e-04 0.0 
2.089649564116e-04 2.425063075378e-03 0.0 
0.0 0.0 -3.941707820484e-04 
-8.514609378297e-04 2.123409869842e-04 0.0 
2.123409869842e-04 5.409120252618e-03 0.0 
0.0 0.0 -8.329475646481e-04 
-5.302799896406e-04 -1.732779148191e-04 0.0 
-1.732779148191e-04 3.448271069514e-03 0.0 
0.0 0.0 -5.313546330462e-04 
-5.563051708704e-04 1.844916340551e-04 0.0 
1.844916340551e-04 3.512912497570e-03 0.0 
0.0 0.0 -5.546931404481e-04 
-3.415568276898e-04 -1.308054941934e-04 0.0 
-1.308054941934e-04 1.889315350148e-03 0.0 
0.0 0.0 -3.196518454468e-04 
-3.575678493770e-04 -1.815157908242e-04 0.0 
-1.815157908242e-04 2.264784395116e-03 0.0 
0.0 0.0 -3.528063275151e-04 
-8.197996438863e-04 -1.649479054574e-04 0.0 
-1.649479054574e-04 5.559213606059e-03 0.0 
0.0 0.0 -8.290026594306e-04 
-5.969369916122e-04 -1.873932769643e-04 0.0 
-1.873932769643e-04 3.888936242251e-03 0.0 
0.0 0.0 -5.962921515785e-04 
-4.656748358331e-04 1.698564554769e-04 0.0 
1.698564554769e-04 2.821912241395e-03 0.0 
0.0 0.0 -4.583473518421e-04 
-1.081990949278e-03 2.020316486048e-04 0.0 
2.020316486048e-04 7.171935137813e-03 0.0 
0.0 0.0 -1.077832113627e-03 
-1.313638198111e-03 -3.076900631442e-06 0.0 
-3.076900631442e-06 9.102354608081e-03 0.0 
0.0 0.0 -1.324978758543e-03 
-1.341095485501e-03 -7.065196985574e-05 0.0 
-7.065196985574e-05 9.093683970561e-03 0.0 
0.0 0.0 -1.320624918399e-03 
-6.462169745443e-04 1.855628978644e-04 0.0 
1.855628978644e-04 4.145339439620e-03 0.0 
0.0 0.0 -6.457427040837e-04 
-7.708747032324e-04 1.041783851500e-04 0.0 
1.041783851500e-04 4.982091340538e-03 0.0 
0.0 0.0 -7.877541558771e-04 
-8.769640556113e-05 6.178156653804e-05 0.0 
6.178156653804e-05 4.782988861832e-04 0.0 
0.0 0.0 -9.215226380795e-05 
-2.633621526955e-04 -2.203101725457e-04 0.0 
-2.203101725457e-04 1.488332341374e-03 0.0 
0.0 0.0 -2.565684379859e-04 
-2.684503074307e-04 -1.015967117788e-04 0.0 
-1.015967117788e-04 1.723596733048e-03 0.0 
0.0 0.0 -2.726290318112e-04 
-2.937144985059e-04 -1.893501464246e-04 0.0 
-1.893501464246e-04 1.729218905568e-03 0.0 
0.0 0.0 -2.902597925154e-04 
-9.132607495649e-04 -1.959093978123e-04 0.0 
-1.959093978123e-04 6.073898974161e-03 0.0 
0.0 0.0 -9.116044729693e-04 
-5.464820601322e-04 1.827990156846e-04 0.0 
1.827990156846e-04 3.450683961523e-03 0.0 
0.0 0.0 -5.459662534218e-04 
-5.889189184564e-04 -1.828572680718e-04 0.0 
-1.828572680718e-04 3.834736165113e-03 0.0 
0.0 0.0 -5.879858557453e-04 
-1.839870051548e-04 -1.451969745408e-04 0.0 
-1.451969745408e-04 1.010884541365e-03 0.0 
0.0 0.0 -1.607067486349e-04 
-1.189299804196e-03 3.101361533276e-05 0.0 
3.101361533276e-05 7.702189552740e-03 0.0 
0.0 0.0 -1.176327079312e-03 
-5.798619533544e-04 -1.808661495353e-04 0.0 
-1.808661495353e-04 3.773380412779e-03 0.0 
0.0 0.0 -5.792774345575e-04 
-1.207908513450e-03 1.972281472903e-04 0.0 
1.972281472903e-04 8.083641670665e-03 0.0 
0.0 0.0 -1.212957849656e-03 
-1.102884565855e-03 -1.433383463998e-04 0.0 
-1.433383463998e-04 7.411218118786e-03 0.0 
0.0 0.0 -1.117460450001e-03 
-1.327052993259e-03 5.039016474574e-05 0.0 
5.039016474574e-05 9.117456944274e-03 0.0 
0.0 0.0 -1.319418651152e-03 
-1.323160438534e-03 4.113209317417e-05 0.0 
4.113209317417e-05 9.111232254039e-03 0.0 
0.0 0.0 -1.324849633189e-03 
-8.429214028197e-04 1.551938721599e-04 0.0 
1.551938721599e-04 5.556754036543e-03 0.0 
0.0 0.0 -8.315138651140e-04 
-6.054182665991e-04 -1.761595556497e-04 0.0 
-1.761595556497e-04 3.962557590825e-03 0.0 
0.0 0.0 -6.063493599945e-04 
-3.773225086312e-04 1.540184482811e-04 0.0 
1.540184482811e-04 2.369883884178e-03 0.0 
0.0 0.0 -3.884917441798e-04 
-6.362526417499e-04 1.880822988670e-04 0.0 
1.880822988670e-04 4.081289822239e-03 0.0 
0.0 0.0 -6.367902913543e-04 
-1.343328350294e-03 -2.242232029302e-05 0.0 
-2.242232029302e-05 8.871791449146e-03 0.0 
0.0 0.0 -1.343328350294e-03 
-1.941237960476e-04 -2.080169990243e-04 0.0 
-2.080169990243e-04 1.015510769409e-03 0.0 
0.0 0.0 -1.893367542308e-04 
-2.245210048569e-04 -1.692984650136e-04 0.0 
-1.692984650136e-04 1.259236592297e-03 0.0 
0.0 0.0 -2.228547875044e-04 
-1.167115373107e-03 -1.495116845835e-04 0.0 
-1.495116845835e-04 7.791699083978e-03 0.0 
0.0 0.0 -1.156027955174e-03 
-7.604196719999e-04 1.094016003118e-05 0.0 
1.094016003118e-05 5.257478836262e-03 0.0 
0.0 0.0 -7.715229432315e-04 
-1.218850929264e-03 2.058644676408e-04 0.0 
2.058644676408e-04 8.144525734943e-03 0.0 
0.0 0.0 -1.219279742240e-03 
-1.071479820018e-03 -2.036323164842e-04 0.0 
-2.036323164842e-04 7.177512432405e-03 0.0 
0.0 0.0 -1.069611963270e-03 
-1.173316210076e-03 1.967322517175e-04 0.0 
1.967322517175e-04 7.835584524311e-03 0.0 
0.0 0.0 -1.175036385391e-03 
-1.118458415257e-03 -2.207277967068e-04 0.0 
-2.207277967068e-04 7.508134580034e-03 0.0 
0.0 0.0 -1.113576918908e-03 
-8.412072480000e-04 1.822595111316e-04 0.0 
1.822595111316e-04 5.484810982914e-03 0.0 
0.0 0.0 -8.542750875040e-04 
-4.656106938285e-04 -1.713235230467e-04 0.0 
-1.713235230467e-04 3.001776381545e-03 0.0 
0.0 0.0 -4.674384380614e-04 
-4.697017346435e-04 1.848050694814e-04 0.0 
1.848050694814e-04 2.920597782787e-03 0.0 
0.0 0.0 -4.715697005044e-04 
-9.776991098989e-04 1.861960494422e-04 0.0 
1.861960494422e-04 6.549106674112e-03 0.0 
0.0 0.0 -9.963059934037e-04 
-1.137349181097e-03 -2.318464835195e-04 0.0 
-2.318464835195e-04 7.668040183404e-03 0.0 
0.0 0.0 -1.142506377625e-03 
-7.233340711098e-04 3.952444560700e-05 0.0 
3.952444560700e-05 4.569127107640e-03 0.0 
0.0 0.0 -7.345222264051e-04 
-7.670993363219e-04 9.419055026096e-06 0.0 
9.419055026096e-06 5.242908179151e-03 0.0 
0.0 0.0 -7.676068998053e-04 
-8.154774784067e-04 -6.428956903028e-05 0.0 
-6.428956903028e-05 5.577286133226e-03 0.0 
0.0 0.0 -8.242303029217e-04 
-8.631530775677e-04 -2.400243606270e-04 0.0 
-2.400243606270e-04 5.666444636218e-03 0.0 
0.0 0.0 -8.467401457521e-04 
-2.520894261651e-04 1.671748571763e-04 0.0 
1.671748571763e-04 1.368563506489e-03 0.0 
0.0 0.0 -2.397236108670e-04 
-4.305788114654e-04 1.772776305973e-04 0.0 
1.772776305973e-04 2.648122848143e-03 0.0 
0.0 0.0 -4.335179088089e-04 
-1.282591321733e-03 8.806658448807e-05 0.0 
8.806658448807e-05 8.712918664304e-03 0.0 
0.0 0.0 -1.269310366786e-03 
-9.079866980401e-04 -2.164843828384e-04 0.0 
-2.164843828384e-04 6.067165963346e-03 0.0 
0.0 0.0 -9.150577043801e-04 
-1.296402067617e-03 1.470406796951e-04 0.0 
1.470406796951e-04 8.670707295504e-03 0.0 
0.0 0.0 -1.295322057178e-03 
-1.218050556302e-03 -1.658124096046e-04 0.0 
-1.658124096046e-04 8.300187960416e-03 0.0 
0.0 0.0 -1.215577547940e-03 
-1.017494637499e-03 -1.921677140224e-04 0.0 
-1.921677140224e-04 6.789033766802e-03 0.0 
0.0 0.0 -1.012565562176e-03 
-1.225370251071e-03 -1.480578321934e-04 0.0 
-1.480578321934e-04 8.186203026488e-03 0.0 
0.0 0.0 -1.214907066889e-03 
-6.126094482220e-04 1.499930831992e-04 0.0 
1.499930831992e-04 3.952786327319e-03 0.0 
0.0 0.0 -6.304496659280e-04 
-5.949124951754e-04 1.553635317388e-04 0.0 
1.553635317388e-04 3.760564116659e-03 0.0 
0.0 0.0 -5.666856080635e-04 
-1.240251440986e-03 1.401266566938e-04 0.0 
1.401266566938e-04 8.128078577480e-03 0.0 
0.0 0.0 -1.226851238141e-03 
-8.681779237156e-05 6.361966938885e-05 0.0 
6.361966938885e-05 2.955256088907e-04 0.0 
0.0 0.0 -8.944620707962e-05 
-3.994468741372e-04 -6.433767031829e-05 0.0 
-6.433767031829e-05 2.663800316761e-03 0.0 
0.0 0.0 -4.071640756073e-04 
-1.342405754833e-03 -1.165290042756e-05 0.0 
-1.165290042756e-05 8.847278625245e-03 0.0 
0.0 0.0 -1.342405754833e-03 
-2.282183831112e-04 -1.931913246920e-04 0.0 
-1.931913246920e-04 1.161289386138e-03 0.0 
0.0 0.0 -2.265802816212e-04 
-7.779914563104e-04 2.250840471903e-05 0.0 
2.250840471903e-05 4.976100040424e-03 0.0 
0.0 0.0 -7.870118106326e-04 
-1.235301241696e-03 -4.597267687938e-05 0.0 
-4.597267687938e-05 8.352549433381e-03 0.0 
0.0 0.0 -1.213461936786e-03 
-1.459711515859e-04 1.404844411891e-04 0.0 
1.404844411891e-04 8.229618690863e-04 0.0 
0.0 0.0 -1.562362318668e-04 
-9.769154927044e-05 -4.466849095833e-05 0.0 
-4.466849095833e-05 5.434427193163e-04 0.0 
0.0 0.0 -9.998712429274e-05 
-1.319764072821e-03 -1.098631366031e-04 0.0 
-1.098631366031e-04 9.086194502793e-03 0.0 
0.0 0.0 -1.324389858384e-03 
-7.180738404627e-04 8.985801949801e-05 0.0 
8.985801949801e-05 4.589525670273e-03 0.0 
0.0 0.0 -7.294542769151e-04 
-1.252043255197e-03 2.202164088421e-04 0.0 
2.202164088421e-04 8.539160480101e-03 0.0 
0.0 0.0 -1.261418349269e-03 
-1.248383097869e-03 1.112925246997e-05 0.0 
1.112925246997e-05 8.098072079257e-03 0.0 
0.0 0.0 -1.231858344535e-03 
-7.209227692000e-04 -5.510654877102e-05 0.0 
-5.510654877102e-05 4.575450219389e-03 0.0 
0.0 0.0 -7.289279708929e-04 
-7.887389828812e-05 -1.017830300424e-05 0.0 
-1.017830300424e-05 5.525360744204e-04 0.0 
0.0 0.0 -9.740250892546e-05 
-1.285641185581e-03 -9.669087187551e-05 0.0 
-9.669087187551e-05 8.464210102403e-03 0.0 
0.0 0.0 -1.284140717545e-03 
-2.442885352264e-04 -2.316128597143e-04 0.0 
-2.316128597143e-04 1.339036366238e-03 0.0 
0.0 0.0 -2.433545560381e-04 
-1.243394787484e-03 1.248159333678e-04 0.0 
1.248159333678e-04 8.192432393622e-03 0.0 
0.0 0.0 -1.232184317627e-03 
-1.343095105526e-03 -5.545911197491e-07 0.0 
-5.545911197491e-07 8.861098076103e-03 0.0 
0.0 0.0 -1.343095105526e-03 
-1.242483488035e-03 -1.476678323207e-04 0.0 
-1.476678323207e-04 8.164481882699e-03 0.0 
0.0 0.0 -1.225700354592e-03 
-3.053173479734e-04 1.995595624776e-04 0.0 
1.995595624776e-04 1.753941284829e-03 0.0 
0.0 0.0 -3.044764127662e-04 
-8.209179416884e-04 2.201614491102e-05 0.0 
2.201614491102e-05 5.636691216409e-03 0.0 
0.0 0.0 -8.279144014868e-04 
-6.598213782971e-04 -1.321361913960e-04 0.0 
-1.321361913960e-04 4.200506500251e-03 0.0 
0.0 0.0 -6.271989868224e-04 
-1.073009497438e-03 -2.016133877390e-04 0.0 
-2.016133877390e-04 7.190278966189e-03 0.0 
0.0 0.0 -1.077599360682e-03 
-1.322804215539e-03 -9.225806505936e-05 0.0 
-9.225806505936e-05 9.099454060859e-03 0.0 
0.0 0.0 -1.326997735404e-03 
-1.068734190482e-03 1.262415369069e-04 0.0 
1.262415369069e-04 7.132952485478e-03 0.0 
0.0 0.0 -1.061614915164e-03 
-1.337358869243e-03 1.104149306633e-04 0.0 
1.104149306633e-04 9.089889591754e-03 0.0 
0.0 0.0 -1.325870641008e-03 
-1.438532979018e-04 1.783345522892e-04 0.0 
1.783345522892e-04 7.477808023261e-04 0.0 
0.0 0.0 -1.715795432680e-04 
-1.271233225915e-03 -1.249047643759e-04 0.0 
-1.249047643759e-04 8.707020070809e-03 0.0 
0.0 0.0 -1.277656510522e-03 
-3.430844418630e-04 1.264811275403e-04 0.0 
1.264811275403e-04 2.040518818998e-03 0.0 
0.0 0.0 -3.355960889912e-04 
-2.267326677211e-04 8.751186841265e-05 0.0 
8.751186841265e-05 1.117406703756e-03 0.0 
0.0 0.0 -2.298118214877e-04 
-1.280901782935e-03 -1.009695952617e-04 0.0 
-1.009695952617e-04 8.719202259105e-03 0.0 
0.0 0.0 -1.270335377537e-03 
-1.269212628500e-03 -5.703432125204e-05 0.0 
-5.703432125204e-05 8.728165820739e-03 0.0 
0.0 0.0 -1.270603359501e-03 
-1.290208848841e-03 -1.659042855401e-04 0.0 
-1.659042855401e-04 8.665328582140e-03 0.0 
0.0 0.0 -1.289850838753e-03 
-7.717572245572e-04 2.050611335138e-04 0.0 
2.050611335138e-04 5.043252484980e-03 0.0 
0.0 0.0 -7.762633204683e-04 
-8.522136042615e-04 2.002639843872e-04 0.0 
2.002639843872e-04 5.495330100218e-03 0.0 
0.0 0.0 -8.489529362435e-04 
-3.165071740037e-04 -2.111753426379e-04 0.0 
-2.111753426379e-04 1.888408226457e-03 0.0 
0.0 0.0 -3.134500106614e-04 
-1.262455248765e-03 -8.092303513725e-05 0.0 
-8.092303513725e-05 8.720636871640e-03 0.0 
0.0 0.0 -1.273041473476e-03 
-5.172296523503e-04 1.719980447266e-04 0.0 
1.719980447266e-04 3.374654497821e-03 0.0 
0.0 0.0 -5.357483711987e-04 
-1.781924616035e-04 -1.691974037748e-04 0.0 
-1.691974037748e-04 1.076416545497e-03 0.0 
0.0 0.0 -2.114276361914e-04 
-1.103945436021e-03 1.858035491712e-04 0.0 
1.858035491712e-04 7.419563175353e-03 0.0 
0.0 0.0 -1.110141529071e-03 
-7.006483677025e-04 -2.017256137277e-05 0.0 
-2.017256137277e-05 4.817249357728e-03 0.0 
0.0 0.0 -7.096328662732e-04 
-1.236750495474e-03 1.522707816399e-04 0.0 
1.522707816399e-04 8.254648441428e-03 0.0 
0.0 0.0 -1.237729719596e-03 
-1.313320395878e-03 -1.861843894466e-04 0.0 
-1.861843894466e-04 8.989774958204e-03 0.0 
0.0 0.0 -1.321509982054e-03 
-1.343732204276e-03 -8.189586176291e-06 0.0 
-8.189586176291e-06 8.864848236539e-03 0.0 
0.0 0.0 -1.343732204276e-03 
-2.113977103276e-05 -6.116564405319e-05 0.0 
-6.116564405319e-05 2.124468673954e-04 0.0 
0.0 0.0 -4.293446239042e-05 
-1.369574587126e-05 5.682883385809e-05 0.0 
5.682883385809e-05 6.671587994240e-05 0.0 
0.0 0.0 -2.272291460191e-05 
-7.269437089926e-04 -1.696449694041e-04 0.0 
-1.696449694041e-04 4.683701017331e-03 0.0 
0.0 0.0 -7.318233512793e-04 
-7.351939856936e-04 2.731264159549e-05 0.0 
2.731264159549e-05 4.828327016366e-03 0.0 
0.0 0.0 -7.096011290571e-04 
-1.343732204276e-03 1.179896387127e-05 0.0 
1.179896387127e-05 8.857063084495e-03 0.0 
0.0 0.0 -1.343732204276e-03 
-1.309711018183e-03 1.830632258289e-04 0.0 
1.830632258289e-04 8.985110969777e-03 0.0 
0.0 0.0 -1.321509982054e-03 
-7.839023714454e-05 1.530759167140e-04 0.0 
1.530759167140e-04 4.984351001574e-04 0.0 
0.0 0.0 -9.787861857360e-05 
0.0 0.0 0.0 
0.0 0.0 0.0 
0.0 0.0 0.0 
-1.240428741391e-03 1.261681395074e-04 0.0 
1.261681395074e-04 8.137366373926e-03 0.0 
0.0 0.0 -1.230181737024e-03 
-1.207075559038e-03 2.460354552528e-04 0.0 
2.460354552528e-04 8.184062138694e-03 0.0 
0.0 0.0 -1.209364118140e-03 
-2.516969952369e-04 -1.461428108360e-04 0.0 
-1.461428108360e-04 1.687102641450e-03 0.0 
0.0 0.0 -2.712674790923e-04 
-1.245262172265e-03 -1.311938195304e-04 0.0 
-1.311938195304e-04 8.282968492479e-03 0.0 
0.0 0.0 -1.240191881334e-03 
-8.815159713630e-04 -5.214653451830e-05 0.0 
-5.214653451830e-05 5.742054567636e-03 0.0 
0.0 0.0 -8.888375990210e-04 
-7.830091470663e-04 -1.948066662001e-04 0.0 
-1.948066662001e-04 5.082527524584e-03 0.0 
0.0 0.0 -7.610796297342e-04 
-9.561048422874e-04 9.798803026410e-05 0.0 
9.798803026410e-05 6.427121213030e-03 0.0 
0.0 0.0 -9.400782610458e-04 
-2.481095332731e-04 1.496361777490e-04 0.0 
1.496361777490e-04 1.515795619755e-03 0.0 
0.0 0.0 -2.626203152100e-04 
-1.010907895305e-03 -2.030439122721e-04 0.0 
-2.030439122721e-04 6.762603191826e-03 0.0 
0.0 0.0 -1.011657465016e-03 
-2.096777059838e-04 3.248157080114e-05 0.0 
3.248157080114e-05 1.393633952846e-03 0.0 
0.0 0.0 -2.181484037039e-04 
-6.792638343957e-04 -1.892634513453e-04 0.0 
-1.892634513453e-04 4.524953282507e-03 0.0 
0.0 0.0 -6.997415131527e-04 
-1.228132135990e-03 1.125898781112e-04 0.0 
1.125898781112e-04 8.215057351811e-03 0.0 
0.0 0.0 -1.240519096027e-03 
-1.189706231828e-03 -2.131151468577e-04 0.0 
-2.131151468577e-04 8.025000395541e-03 0.0 
0.0 0.0 -1.191726112421e-03 
-7.376716687014e-04 1.103821202308e-04 0.0 
1.103821202308e-04 4.884590449632e-03 0.0 
0.0 0.0 -7.690942022927e-04 
-8.794968587204e-04 -1.839618802493e-04 0.0 
-1.839618802493e-04 5.894695197839e-03 0.0 
0.0 0.0 -8.745659502648e-04 
-1.233301431487e-03 8.160038213142e-05 0.0 
8.160038213142e-05 8.358065301524e-03 0.0 
0.0 0.0 -1.217119345309e-03 
-1.141574387304e-03 -2.166019370136e-04 0.0 
-2.166019370136e-04 7.685657586840e-03 0.0 
0.0 0.0 -1.140944809982e-03 
-1.081193771009e-03 -2.086711321348e-04 0.0 
-2.086711321348e-04 7.235399972245e-03 0.0 
0.0 0.0 -1.076426999079e-03 
-7.306608964195e-04 1.032073657573e-05 0.0 
1.032073657573e-05 4.566565227243e-03 0.0 
0.0 0.0 -7.312123441678e-04 
-9.778650762194e-04 -2.118658920496e-04 0.0 
-2.118658920496e-04 6.529297964408e-03 0.0 
0.0 0.0 -9.763781674015e-04 
-1.237478436388e-03 1.224174650820e-04 0.0 
1.224174650820e-04 8.159420566097e-03 0.0 
0.0 0.0 -1.231404929774e-03 
-4.267545194732e-04 1.185171473708e-04 0.0 
1.185171473708e-04 2.513528635352e-03 0.0 
0.0 0.0 -4.167967844001e-04 
-9.921663346532e-05 -4.441075622368e-05 0.0 
-4.441075622368e-05 6.032903446550e-04 0.0 
0.0 0.0 -1.015157820784e-04 
-1.196520802042e-03 -1.451432414406e-04 0.0 
-1.451432414406e-04 7.939655555732e-03 0.0 
0.0 0.0 -1.185975225609e-03 
-1.126502929027e-03 1.777561321906e-04 0.0 
1.777561321906e-04 7.477268686063e-03 0.0 
0.0 0.0 -1.123538223191e-03 
-2.078344596569e-04 -1.080252995940e-04 0.0 
-1.080252995940e-04 1.116725601039e-03 0.0 
0.0 0.0 -2.307047010092e-04 
-9.934730169899e-04 -1.599306293238e-04 0.0 
-1.599306293238e-04 6.730831912440e-03 0.0 
0.0 0.0 -9.893338170986e-04 
-1.294485487258e-03 -4.211486433476e-05 0.0 
-4.211486433476e-05 8.454062998903e-03 0.0 
0.0 0.0 -1.282739585886e-03 
-1.188427124013e-03 1.207612322075e-04 0.0 
1.207612322075e-04 7.845258460139e-03 0.0 
0.0 0.0 -1.182073443778e-03 
-1.229516741237e-03 -2.922411445840e-05 0.0 
-2.922411445840e-05 8.351941012253e-03 0.0 
0.0 0.0 -1.215129606110e-03 
-9.509005340635e-04 -2.110936823322e-04 0.0 
-2.110936823322e-04 6.286467037558e-03 0.0 
0.0 0.0 -9.537126495859e-04 
-9.113657589557e-05 5.031862656050e-05 0.0 
5.031862656050e-05 3.206408784025e-04 0.0 
0.0 0.0 -9.835898678870e-05 
-3.211470424961e-04 1.012653271346e-04 0.0 
1.012653271346e-04 1.877306534774e-03 0.0 
0.0 0.0 -3.212443691966e-04 
-3.868345573261e-04 -2.158079183948e-04 0.0 
-2.158079183948e-04 2.373525116556e-03 0.0 
0.0 0.0 -3.834349432650e-04 
-8.152074782471e-04 3.282099269051e-05 0.0 
3.282099269051e-05 5.366100763401e-03 0.0 
0.0 0.0 -8.471429939415e-04 
-9.776446367943e-04 2.161934057613e-04 0.0 
2.161934057613e-04 6.478555405996e-03 0.0 
0.0 0.0 -9.781602908260e-04 
-1.243353399719e-03 -1.638877946273e-04 0.0 
-1.638877946273e-04 8.293874922919e-03 0.0 
0.0 0.0 -1.236541257690e-03 
-1.282980388071e-03 6.834535406589e-05 0.0 
6.834535406589e-05 8.446722746771e-03 0.0 
0.0 0.0 -1.282325209426e-03 
-1.534406041715e-04 -3.090119355694e-05 0.0 
-3.090119355694e-05 9.940803017300e-04 0.0 
0.0 0.0 -1.581060378624e-04 
-1.515974677088e-04 5.347591743209e-05 0.0 
5.347591743209e-05 9.499659581657e-04 0.0 
0.0 0.0 -1.538280640939e-04 
-2.429997348883e-04 2.036444813407e-04 0.0 
2.036444813407e-04 1.479432396381e-03 0.0 
0.0 0.0 -2.585189829319e-04 
-1.003671688667e-03 2.798952750374e-04 0.0 
2.798952750374e-04 6.711627995117e-03 0.0 
0.0 0.0 -1.019242131223e-03 
-5.082641639813e-04 -1.820796698733e-04 0.0 
-1.820796698733e-04 3.225266612081e-03 0.0 
0.0 0.0 -4.953283059016e-04 
-1.242349672414e-03 -1.508059351584e-04 0.0 
-1.508059351584e-04 8.332022443394e-03 0.0 
0.0 0.0 -1.241298427557e-03 
-2.469827383889e-04 -1.734013788771e-04 0.0 
-1.734013788771e-04 1.596418989747e-03 0.0 
0.0 0.0 -2.623907620756e-04 
-1.225402262687e-03 9.684378834706e-05 0.0 
9.684378834706e-05 8.090992196229e-03 0.0 
0.0 0.0 -1.221152601860e-03 
-8.136377301275e-04 1.789287431362e-04 0.0 
1.789287431362e-04 5.446005510680e-03 0.0 
0.0 0.0 -8.343732341398e-04 
-1.267827958096e-03 1.379445383963e-06 0.0 
1.379445383963e-06 8.495733417342e-03 0.0 
0.0 0.0 -1.286815605725e-03 
-1.109817670536e-03 -2.343370330106e-04 0.0 
-2.343370330106e-04 7.482609533300e-03 0.0 
0.0 0.0 -1.111121968474e-03 
-8.202418952196e-04 -8.830664857145e-05 0.0 
-8.830664857145e-05 5.379056120884e-03 0.0 
0.0 0.0 -8.465141837044e-04 
-1.270879538861e-03 -4.852122928063e-05 0.0 
-4.852122928063e-05 8.726187780208e-03 0.0 
0.0 0.0 -1.269142588751e-03 
-1.282679052200e-03 7.789633126417e-05 0.0 
7.789633126417e-05 8.731686959293e-03 0.0 
0.0 0.0 -1.272727265576e-03 
-1.257303152988e-03 6.224102812164e-05 0.0 
6.224102812164e-05 8.713074082016e-03 0.0 
0.0 0.0 -1.271339345674e-03 
-1.734083018693e-04 1.988310073063e-04 0.0 
1.988310073063e-04 9.960919397328e-04 0.0 
0.0 0.0 -1.914719991171e-04 
-1.218228496203e-03 1.745230460975e-04 0.0 
1.745230460975e-04 8.126336924162e-03 0.0 
0.0 0.0 -1.218309553141e-03 
-1.287690608828e-03 2.935127504917e-05 0.0 
2.935127504917e-05 8.450884291377e-03 0.0 
0.0 0.0 -1.286645293131e-03 
-1.215292120313e-03 -1.048319889730e-04 0.0 
-1.048319889730e-04 8.264175100215e-03 0.0 
0.0 0.0 -1.211735819529e-03 
-1.131460186021e-03 2.249929147143e-04 0.0 
2.249929147143e-04 7.604741910755e-03 0.0 
0.0 0.0 -1.143254064081e-03 
-1.342665167303e-03 2.462626238337e-05 0.0 
2.462626238337e-05 8.842656329326e-03 0.0 
0.0 0.0 -1.342665167303e-03 
-1.082512435834e-03 2.096972143521e-04 0.0 
2.096972143521e-04 7.169850347795e-03 0.0 
0.0 0.0 -1.079065255302e-03 
0.0 0.0 0.0 
0.0 0.0 0.0 
0.0 0.0 0.0 
-2.601109826526e-04 -2.071691114659e-04 0.0 
-2.071691114659e-04 1.415839820494e-03 0.0 
0.0 0.0 -2.423809483696e-04 
-1.192508312149e-03 -1.779210084662e-04 0.0 
-1.779210084662e-04 7.961128754995e-03 0.0 
0.0 0.0 -1.176936364471e-03 
-8.685626322098e-04 1.582275665783e-04 0.0 
1.582275665783e-04 5.835782021141e-03 0.0 
0.0 0.0 -8.884613587993e-04 
-1.209889234857e-03 -1.955325308150e-04 0.0 
-1.955325308150e-04 8.188769710119e-03 0.0 
0.0 0.0 -1.221994126432e-03 
-1.170503729369e-03 -2.209983450852e-04 0.0 
-2.209983450852e-04 7.908922597115e-03 0.0 
0.0 0.0 -1.177009544428e-03 
-1.281372639421e-03 -4.882657488487e-05 0.0 
-4.882657488487e-05 8.503605837596e-03 0.0 
0.0 0.0 -1.292249833993e-03 
-1.060591200895e-03 2.356899093670e-04 0.0 
2.356899093670e-04 7.243032913762e-03 0.0 
0.0 0.0 -1.085521458831e-03 
-1.295424128128e-03 -1.344853644126e-05 0.0 
-1.344853644126e-05 8.497735658802e-03 0.0 
0.0 0.0 -1.288973456333e-03 
-1.240273266268e-03 -1.643959908807e-04 0.0 
-1.643959908807e-04 8.288290248441e-03 0.0 
0.0 0.0 -1.233322439334e-03 
-1.236328969747e-03 1.681015718690e-04 0.0 
1.681015718690e-04 8.249087621686e-03 0.0 
0.0 0.0 -1.235043566395e-03 
-5.200406812990e-04 -1.166757664341e-04 0.0 
-1.166757664341e-04 3.385215487565e-03 0.0 
0.0 0.0 -5.104964012366e-04 
-1.293388642315e-03 -2.007549829058e-05 0.0 
-2.007549829058e-05 9.114239519402e-03 0.0 
0.0 0.0 -1.325641941534e-03 
-7.485652657637e-04 1.433772634919e-05 0.0 
1.433772634919e-05 5.220751556451e-03 0.0 
0.0 0.0 -7.662153309038e-04 
-1.203353616891e-03 -1.846454248329e-04 0.0 
-1.846454248329e-04 8.194731648824e-03 0.0 
0.0 0.0 -1.217406395242e-03 
-1.473848137133e-04 -7.608252406758e-05 0.0 
-7.608252406758e-05 7.058205605385e-04 0.0 
0.0 0.0 -1.761976461317e-04 
-1.139762521842e-03 -1.242981094265e-04 0.0 
-1.242981094265e-04 7.914367669760e-03 0.0 
0.0 0.0 -1.163202487293e-03 
-9.847139031094e-04 -2.927819349531e-05 0.0 
-2.927819349531e-05 6.802999958382e-03 0.0 
0.0 0.0 -9.926133712568e-04 
-1.690893902523e-04 -1.078602895255e-04 0.0 
-1.078602895255e-04 9.402080020993e-04 0.0 
0.0 0.0 -1.628620303624e-04 
-2.985531882030e-04 -2.240216763461e-04 0.0 
-2.240216763461e-04 1.642242196626e-03 0.0 
0.0 0.0 -2.736924314970e-04 
-1.111715101682e-03 2.179506947960e-04 0.0 
2.179506947960e-04 7.377812155317e-03 0.0 
0.0 0.0 -1.107581195644e-03 
-1.292896746142e-03 -1.945315972067e-05 0.0 
-1.945315972067e-05 8.475231004044e-03 0.0 
0.0 0.0 -1.285368862661e-03 
-1.232559661219e-03 -1.674576161592e-04 0.0 
-1.674576161592e-04 8.301292046622e-03 0.0 
0.0 0.0 -1.223917301752e-03 
-1.254461742942e-03 2.341900515223e-04 0.0 
2.341900515223e-04 8.559507473306e-03 0.0 
0.0 0.0 -1.264779455601e-03 
-8.799678260909e-04 2.461510225769e-04 0.0 
2.461510225769e-04 5.779390736262e-03 0.0 
0.0 0.0 -8.807565902733e-04 
-9.459318500233e-05 -9.224025008730e-06 0.0 
-9.224025008730e-06 5.593643268762e-04 0.0 
0.0 0.0 -1.022500568216e-04 
-1.184228338263e-04 1.932393774192e-04 0.0 
1.932393774192e-04 8.360742900508e-04 0.0 
0.0 0.0 -1.527632439532e-04 
-1.485774023437e-04 2.057472114591e-04 0.0 
2.057472114591e-04 4.943058849460e-04 0.0 
0.0 0.0 -1.262112556552e-04 
-1.889957332613e-04 -1.720729644020e-04 0.0 
-1.720729644020e-04 1.198989706623e-03 0.0 
0.0 0.0 -2.080055930776e-04 
-2.412796962869e-05 1.151125546851e-04 0.0 
1.151125546851e-04 1.259903231300e-04 0.0 
0.0 0.0 -4.365529435769e-05 
-6.564338874859e-04 1.298407551403e-04 0.0 
1.298407551403e-04 4.516305724261e-03 0.0 
0.0 0.0 -6.753304527203e-04 
-1.206082523732e-03 1.933788045722e-04 0.0 
1.933788045722e-04 8.180269090487e-03 0.0 
0.0 0.0 -1.222305993939e-03 
-1.222663318362e-03 1.753368055927e-04 0.0 
1.753368055927e-04 8.227435580213e-03 0.0 
0.0 0.0 -1.222833113937e-03 
-8.669258191564e-04 -1.817944922656e-04 0.0 
-1.817944922656e-04 5.844176131481e-03 0.0 
0.0 0.0 -8.826313165011e-04 
-6.040048573085e-04 -2.738267400019e-04 0.0 
-2.738267400019e-04 3.891940944486e-03 0.0 
0.0 0.0 -5.988529843847e-04 
-1.222353962553e-03 -1.610597655754e-04 0.0 
-1.610597655754e-04 8.260198203253e-03 0.0 
0.0 0.0 -1.221067908166e-03 
-1.203746913663e-03 2.278206710251e-04 0.0 
2.278206710251e-04 8.189793790316e-03 0.0 
0.0 0.0 -1.208702654310e-03 
-1.279025858978e-03 8.766018994021e-05 0.0 
8.766018994021e-05 8.741593274881e-03 0.0 
0.0 0.0 -1.272252409145e-03 
-1.242705220595e-03 -3.696381206599e-05 0.0 
-3.696381206599e-05 8.148871227430e-03 0.0 
0.0 0.0 -1.237422270938e-03 
-1.174009678725e-03 1.988566962408e-04 0.0 
1.988566962408e-04 7.816359446438e-03 0.0 
0.0 0.0 -1.171232062679e-03 
-1.672054198288e-04 9.231173188879e-05 0.0 
9.231173188879e-05 7.047171557342e-04 0.0 
0.0 0.0 -1.733042685746e-04 
-1.128922232108e-04 -1.541536460290e-04 0.0 
-1.541536460290e-04 8.181726866748e-04 0.0 
0.0 0.0 -1.441637530793e-04 
-1.232867888531e-03 -1.583409372845e-04 0.0 
-1.583409372845e-04 8.274546276780e-03 0.0 
0.0 0.0 -1.223662873675e-03 
-1.809471586290e-04 2.732513028338e-05 0.0 
2.732513028338e-05 7.150332979246e-04 0.0 
0.0 0.0 -1.761523314621e-04 
-2.090612244597e-04 2.679772699566e-04 0.0 
2.679772699566e-04 1.034188635190e-03 0.0 
0.0 0.0 -1.933333333332e-04 
-1.375589269253e-04 1.895212040583e-04 0.0 
1.895212040583e-04 6.272580356086e-04 0.0 
0.0 0.0 -1.476920362276e-04 
-1.616726848356e-04 -1.838984361800e-04 0.0 
-1.838984361800e-04 7.928606863594e-04 0.0 
0.0 0.0 -1.580296812506e-04 
-1.300434401275e-03 -1.024873491582e-05 0.0 
-1.024873491582e-05 8.484073046421e-03 0.0 
0.0 0.0 -1.288571152055e-03 
-1.296196106557e-03 -7.581226292437e-05 0.0 
-7.581226292437e-05 8.500775829958e-03 0.0 
0.0 0.0 -1.290113636706e-03 
-1.257797356609e-03 1.887508465158e-04 0.0 
1.887508465158e-04 8.298916238051e-03 0.0 
0.0 0.0 -1.236907757659e-03 
-1.306315150684e-03 9.008107202712e-08 0.0 
9.008107202712e-08 8.523760771155e-03 0.0 
0.0 0.0 -1.292605224168e-03 
-1.191514572737e-03 -1.523248627148e-04 0.0 
-1.523248627148e-04 7.914354314681e-03 0.0 
0.0 0.0 -1.176879138244e-03 
-9.009707231897e-04 2.647575106000e-04 0.0 
2.647575106000e-04 6.062013665177e-03 0.0 
0.0 0.0 -9.170130443517e-04 
-1.345069444888e-03 -1.224359494155e-05 0.0 
-1.224359494155e-05 8.872525889838e-03 0.0 
0.0 0.0 -1.345069444888e-03 
-3.168516228751e-04 -1.142391801259e-04 0.0 
-1.142391801259e-04 2.071683762697e-03 0.0 
0.0 0.0 -3.330755757467e-04 
-6.832796589934e-04 2.794415003479e-06 0.0 
2.794415003479e-06 4.812526626932e-03 0.0 
0.0 0.0 -7.083073883397e-04 
-1.983733277546e-04 6.070841311558e-05 0.0 
6.070841311558e-05 1.303830959688e-03 0.0 
0.0 0.0 -2.086331215474e-04 
-8.213992574581e-05 4.728700015121e-05 0.0 
4.728700015121e-05 2.774119614064e-04 0.0 
0.0 0.0 -8.368801528309e-05 
-1.296331570259e-03 3.985530997241e-05 0.0 
3.985530997241e-05 9.108859965209e-03 0.0 
0.0 0.0 -1.323850096553e-03 
-7.636750152913e-04 -5.943479672422e-05 0.0 
-5.943479672422e-05 5.297273347084e-03 0.0 
0.0 0.0 -7.731261162940e-04 
-1.898896061389e-04 2.668881093009e-05 0.0 
2.668881093009e-05 1.324161255717e-03 0.0 
0.0 0.0 -2.115341463249e-04 
-6.766397334691e-04 2.335959289239e-04 0.0 
2.335959289239e-04 4.262192913851e-03 0.0 
0.0 0.0 -6.570498647039e-04 
-1.270388897102e-03 1.791394562199e-05 0.0 
1.791394562199e-05 8.744228481245e-03 0.0 
0.0 0.0 -1.276804206569e-03 
-1.238351285998e-03 -1.647535430714e-04 0.0 
-1.647535430714e-04 8.287386498838e-03 0.0 
0.0 0.0 -1.228616961883e-03 
-1.299245503170e-03 -6.943481147167e-06 0.0 
-6.943481147167e-06 8.501206471558e-03 0.0 
0.0 0.0 -1.289666537713e-03 
-4.674755872492e-04 -1.441717405802e-04 0.0 
-1.441717405802e-04 3.063014272079e-03 0.0 
0.0 0.0 -4.695399720401e-04 
-1.457689473944e-04 -1.575597281071e-04 0.0 
-1.575597281071e-04 7.498700715420e-04 0.0 
0.0 0.0 -1.553221962317e-04 
-1.285913149297e-03 -1.165123631474e-04 0.0 
-1.165123631474e-04 8.730182768681e-03 0.0 
0.0 0.0 -1.273144391159e-03 
-1.298815958390e-03 2.309086979367e-05 0.0 
2.309086979367e-05 9.107151826923e-03 0.0 
0.0 0.0 -1.325353038101e-03 
-1.331981550421e-03 -1.771381069907e-05 0.0 
-1.771381069907e-05 9.126640523196e-03 0.0 
0.0 0.0 -1.323783523096e-03 
-7.660500434480e-04 1.313542510445e-04 0.0 
1.313542510445e-04 5.035539676325e-03 0.0 
0.0 0.0 -7.673431308700e-04 
-1.235780327313e-03 -4.526587612997e-06 0.0 
-4.526587612997e-06 8.115023081303e-03 0.0 
0.0 0.0 -1.231867668451e-03 
-1.953177882174e-04 -9.491085164949e-05 0.0 
-9.491085164949e-05 1.122964739939e-03 0.0 
0.0 0.0 -2.324200178898e-04 
-1.257584227981e-03 1.660686322992e-04 0.0 
1.660686322992e-04 8.340961353616e-03 0.0 
0.0 0.0 -1.241575510934e-03 
-8.170589745739e-05 -1.080295024441e-05 0.0 
-1.080295024441e-05 2.725451190137e-04 0.0 
0.0 0.0 -8.178823780987e-05 
-1.306295822847e-03 -1.062422533943e-05 0.0 
-1.062422533943e-05 8.506048519693e-03 0.0 
0.0 0.0 -1.290713494763e-03 
-1.281136683791e-03 1.115018912951e-04 0.0 
1.115018912951e-04 8.702368548138e-03 0.0 
0.0 0.0 -1.268585396830e-03 
-8.090064620301e-05 -6.463780865666e-05 0.0 
-6.463780865666e-05 2.764343947345e-04 0.0 
0.0 0.0 -8.380017794208e-05 
-1.195471399734e-03 -1.402863971345e-04 0.0 
-1.402863971345e-04 7.949772117529e-03 0.0 
0.0 0.0 -1.178018281593e-03 
-1.028233004996e-03 -1.859683667160e-04 0.0 
-1.859683667160e-04 6.977936374390e-03 0.0 
0.0 0.0 -1.053859681778e-03 
-1.289487723471e-03 -3.059440868742e-05 0.0 
-3.059440868742e-05 8.509289695588e-03 0.0 
0.0 0.0 -1.289687241943e-03 
-1.346242744377e-03 -1.047219123713e-05 0.0 
-1.047219123713e-05 8.896960402449e-03 0.0 
0.0 0.0 -1.346242744377e-03 
-9.624911099011e-04 -2.997622866494e-04 0.0 
-2.997622866494e-04 6.376553401582e-03 0.0 
0.0 0.0 -9.627310317561e-04 
-1.292971171235e-03 1.345101664033e-05 0.0 
1.345101664033e-05 8.530939079912e-03 0.0 
0.0 0.0 -1.292510612804e-03 
-1.246115197789e-03 -1.533948492975e-04 0.0 
-1.533948492975e-04 8.325319025632e-03 0.0 
0.0 0.0 -1.236507170568e-03 
-1.007540401079e-03 8.825741490512e-06 0.0 
8.825741490512e-06 6.546914065101e-03 0.0 
0.0 0.0 -1.009625451247e-03 
-1.239682124839e-03 -1.433667225738e-05 0.0 
-1.433667225738e-05 8.247508066060e-03 0.0 
0.0 0.0 -1.247605899893e-03 
-5.439659078653e-04 -1.293203549736e-04 0.0 
-1.293203549736e-04 3.573225901759e-03 0.0 
0.0 0.0 -5.668522599723e-04 
-7.422257193807e-04 -2.384409418001e-05 0.0 
-2.384409418001e-05 4.553525172640e-03 0.0 
0.0 0.0 -7.287847301676e-04 
-1.250463763405e-03 1.444458806810e-04 0.0 
1.444458806810e-04 8.323970461278e-03 0.0 
0.0 0.0 -1.239219007812e-03 
-1.277932458032e-03 1.160268164509e-04 0.0 
1.160268164509e-04 8.651299276670e-03 0.0 
0.0 0.0 -1.286506427510e-03 
0.0 0.0 0.0 
0.0 0.0 0.0 
0.0 0.0 0.0 
-7.391696919878e-04 5.460045200431e-05 0.0 
5.460045200431e-05 4.572310123870e-03 0.0 
0.0 0.0 -7.284590636140e-04 
-1.282539678950e-03 -1.213229753822e-04 0.0 
-1.213229753822e-04 8.668193960288e-03 0.0 
0.0 0.0 -1.288082484959e-03 
-2.668000831652e-04 1.337975711291e-04 0.0 
1.337975711291e-04 1.552550494018e-03 0.0 
0.0 0.0 -2.765646858065e-04 
-1.244314668154e-03 3.253635918239e-05 0.0 
3.253635918239e-05 8.351662046828e-03 0.0 
0.0 0.0 -1.213252366005e-03 
-1.212806318798e-03 -1.378965673921e-04 0.0 
-1.378965673921e-04 8.296055804055e-03 0.0 
0.0 0.0 -1.225943235494e-03 
-1.276740815873e-03 -1.548809764645e-04 0.0 
-1.548809764645e-04 8.705204137735e-03 0.0 
0.0 0.0 -1.269037835114e-03 
-2.467774251027e-04 1.357300176719e-04 0.0 
1.357300176719e-04 1.515114324046e-03 0.0 
0.0 0.0 -2.647987373252e-04 
-1.846190942981e-04 5.164886539666e-05 0.0 
5.164886539666e-05 1.204409405256e-03 0.0 
0.0 0.0 -1.906575996298e-04 
-8.286327452832e-04 3.382951551479e-04 0.0 
3.382951551479e-04 5.239779904281e-03 0.0 
0.0 0.0 -7.939471195916e-04 
-1.139651880695e-03 8.042350541592e-05 0.0 
8.042350541592e-05 7.547907450212e-03 0.0 
0.0 0.0 -1.120841203304e-03 
6.762182202679e-06 4.922521689476e-06 0.0 
4.922521689476e-06 1.951722452603e-04 0.0 
0.0 0.0 -4.162563418682e-05 
-1.297631582513e-03 -2.970012333432e-05 0.0 
-2.970012333432e-05 8.538118962210e-03 0.0 
0.0 0.0 -1.292233508669e-03 
-9.496420787081e-04 3.842938930079e-05 0.0 
3.842938930079e-05 6.134769422350e-03 0.0 
0.0 0.0 -9.501928138396e-04 
-2.319252204205e-04 -1.666332425867e-04 0.0 
-1.666332425867e-04 1.531261602253e-03 0.0 
0.0 0.0 -2.601894661948e-04 
-9.182086126088e-04 6.576575429200e-05 0.0 
6.576575429200e-05 5.823601520571e-03 0.0 
0.0 0.0 -9.030544305944e-04 
-1.281338578084e-03 -1.215158440346e-04 0.0 
-1.215158440346e-04 8.719272788120e-03 0.0 
0.0 0.0 -1.271643562581e-03 
-8.361599263990e-04 -2.906502343770e-04 0.0 
-2.906502343770e-04 5.524370676589e-03 0.0 
0.0 0.0 -8.272804529249e-04 
-9.020963282834e-05 -1.875396024300e-04 0.0 
-1.875396024300e-04 3.251699178446e-04 0.0 
0.0 0.0 -8.776479312228e-05 
-5.428499226707e-04 1.403699556570e-04 0.0 
1.403699556570e-04 3.200704680557e-03 0.0 
0.0 0.0 -5.209635072927e-04 
-7.264103312116e-04 1.066181262773e-04 0.0 
1.066181262773e-04 4.783605203211e-03 0.0 
0.0 0.0 -7.319997505002e-04 
-8.379507721355e-04 3.506890823091e-04 0.0 
3.506890823091e-04 5.706153283525e-03 0.0 
0.0 0.0 -8.599999999992e-04 
-1.240777117315e-03 -1.439647034317e-04 0.0 
-1.439647034317e-04 8.329527072644e-03 0.0 
0.0 0.0 -1.232780192057e-03 
-7.376665261259e-04 -1.727241022974e-04 0.0 
-1.727241022974e-04 4.617911229220e-03 0.0 
0.0 0.0 -7.175509632692e-04 
-7.419227856638e-04 8.706574175029e-05 0.0 
8.706574175029e-05 4.905660942002e-03 0.0 
0.0 0.0 -7.596628988333e-04 
-1.725607618193e-04 1.274500514102e-04 0.0 
1.274500514102e-04 7.075820556251e-04 0.0 
0.0 0.0 -1.551230728613e-04 
-1.262496529076e-03 1.402132573888e-04 0.0 
1.402132573888e-04 8.306889500876e-03 0.0 
0.0 0.0 -1.240629869904e-03 
-1.209173557273e-03 1.621322078836e-04 0.0 
1.621322078836e-04 7.950506271258e-03 0.0 
0.0 0.0 -1.186362110037e-03 
-2.227791697187e-04 8.637930858051e-05 0.0 
8.637930858051e-05 1.298316331417e-03 0.0 
0.0 0.0 -2.411692657676e-04 
-1.261193436875e-03 -8.326695288083e-05 0.0 
-8.326695288083e-05 8.552285249105e-03 0.0 
0.0 0.0 -1.290349483557e-03 
-1.293807969811e-03 1.507292729990e-04 0.0 
1.507292729990e-04 8.596145003785e-03 0.0 
0.0 0.0 -1.290356026000e-03 
-7.679899519873e-04 -1.532356305286e-04 0.0 
-1.532356305286e-04 5.157074227234e-03 0.0 
0.0 0.0 -7.639788432047e-04 
-9.396515753232e-04 3.091234051286e-05 0.0 
3.091234051286e-05 6.333492038285e-03 0.0 
0.0 0.0 -9.358343396975e-04 
-7.048143922743e-04 1.638625948524e-04 0.0 
1.638625948524e-04 4.692848505541e-03 0.0 
0.0 0.0 -7.108516105536e-04 
-7.079275106751e-04 -1.102323501343e-04 0.0 
-1.102323501343e-04 4.802970885948e-03 0.0 
0.0 0.0 -7.343037059241e-04 
-7.780838486787e-04 -3.476295080742e-05 0.0 
-3.476295080742e-05 5.090202749114e-03 0.0 
0.0 0.0 -7.498489858827e-04 
-1.195445771267e-03 1.533301423155e-04 0.0 
1.533301423155e-04 7.905914704818e-03 0.0 
0.0 0.0 -1.180929064624e-03 
-2.101723265820e-04 1.264806835631e-04 0.0 
1.264806835631e-04 1.084941023670e-03 0.0 
0.0 0.0 -2.274637643159e-04 
-1.230210229403e-03 -1.391362873496e-04 0.0 
-1.391362873496e-04 8.342547987840e-03 0.0 
0.0 0.0 -1.217816617926e-03 
-8.387293036437e-04 7.281979356206e-05 0.0 
7.281979356206e-05 5.326094164637e-03 0.0 
0.0 0.0 -8.376728236383e-04 
-1.277193560845e-03 -1.460979146763e-04 0.0 
-1.460979146763e-04 8.720485292524e-03 0.0 
0.0 0.0 -1.272153791098e-03 
-1.202298967755e-03 -1.320050113913e-04 0.0 
-1.320050113913e-04 7.883588282291e-03 0.0 
0.0 0.0 -1.181257232468e-03 
-8.795673226242e-04 -5.945622150844e-05 0.0 
-5.945622150844e-05 6.031279173311e-03 0.0 
0.0 0.0 -8.902468719968e-04 
-1.211224544084e-03 1.194316264715e-04 0.0 
1.194316264715e-04 8.008237221313e-03 0.0 
0.0 0.0 -1.201032862555e-03 
-1.250364770317e-03 1.261810502704e-04 0.0 
1.261810502704e-04 8.225945087578e-03 0.0 
0.0 0.0 -1.236767197193e-03 
-1.292703020779e-03 -2.277677435045e-05 0.0 
-2.277677435045e-05 8.758650210356e-03 0.0 
0.0 0.0 -1.270271405117e-03 
-9.288790837536e-05 4.486310937797e-05 0.0 
4.486310937797e-05 3.125136257933e-04 0.0 
0.0 0.0 -9.412530746485e-05 
-1.213293100967e-03 -1.365137297491e-04 0.0 
-1.365137297491e-04 8.055302576551e-03 0.0 
0.0 0.0 -1.198686027802e-03 
-1.233489147260e-03 1.844031552690e-04 0.0 
1.844031552690e-04 8.360738709544e-03 0.0 
0.0 0.0 -1.227078865044e-03 
-1.296260318671e-04 -1.418501242849e-04 0.0 
-1.418501242849e-04 8.665050242929e-04 0.0 
0.0 0.0 -1.488313462956e-04 
-6.781230104505e-04 -1.171397059554e-04 0.0 
-1.171397059554e-04 4.366860208538e-03 0.0 
0.0 0.0 -6.841365946973e-04 
-7.630078233159e-05 -6.102099342081e-05 0.0 
-6.102099342081e-05 5.288528667040e-04 0.0 
0.0 0.0 -9.692352125104e-05 
-1.239413171189e-03 -1.038112219683e-04 0.0 
-1.038112219683e-04 8.427166424518e-03 0.0 
0.0 0.0 -1.230789928679e-03 
-3.410025939663e-04 -7.109134268571e-05 0.0 
-7.109134268571e-05 1.939357491602e-03 0.0 
0.0 0.0 -3.377777777778e-04 
-3.172772433638e-04 5.789359071666e-05 0.0 
5.789359071666e-05 2.125716446876e-03 0.0 
0.0 0.0 -3.155555555556e-04 
-3.390659740094e-04 -6.181655200917e-06 0.0 
-6.181655200917e-06 1.811818636053e-03 0.0 
0.0 0.0 -3.377777777778e-04 
-3.159913479109e-04 1.476079812796e-06 0.0 
1.476079812796e-06 2.115026583353e-03 0.0 
0.0 0.0 -3.155555555556e-04 
-3.382925612548e-04 -3.291622949820e-06 0.0 
-3.291622949820e-06 1.803604871078e-03 0.0 
0.0 0.0 -3.377777777778e-04 
-3.160904822448e-04 -2.849606337414e-06 0.0 
-2.849606337414e-06 2.114329194161e-03 0.0 
0.0 0.0 -3.155555555556e-04 
-3.384956828612e-04 -3.501014590628e-06 0.0 
-3.501014590628e-06 1.803162822433e-03 0.0 
0.0 0.0 -3.377777777778e-04 
-3.167500779592e-04 -3.727769637596e-06 0.0 
-3.727769637596e-06 2.114854677275e-03 0.0 
0.0 0.0 -3.155555555556e-04 
-3.391490141729e-04 -3.651468466337e-06 0.0 
-3.651468466337e-06 1.803753947600e-03 0.0 
0.0 0.0 -3.377777777778e-04 
-3.175102459430e-04 -4.000967953540e-06 0.0 
-4.000967953540e-06 2.115610146350e-03 0.0 
0.0 0.0 -3.155555555556e-04 
-3.398779273900e-04 -3.839591480390e-06 0.0 
-3.839591480390e-06 1.804522559076e-03 0.0 
0.0 0.0 -3.377777777778e-04 
-3.181384604103e-04 -4.131905028872e-06 0.0 
-4.131905028872e-06 2.116228510088e-03 0.0 
0.0 0.0 -3.155555555556e-04 
-3.404617035917e-04 -4.098832735945e-06 0.0 
-4.098832735945e-06 1.805124771049e-03 0.0 
0.0 0.0 -3.377777777778e-04 
-3.185323565021e-04 -4.201501100340e-06 0.0 
-4.201501100340e-06 2.116520558905e-03 0.0 
0.0 0.0 -3.155555555556e-04 
-3.407292183498e-04 -4.145196935056e-06 0.0 
-4.145196935056e-06 1.805418472779e-03 0.0 
0.0 0.0 -3.377777777778e-04 
-3.187304559047e-04 -4.035902428633e-06 0.0 
-4.035902428633e-06 2.116586246076e-03 0.0 
0.0 0.0 -3.155555555556e-04 
-3.408744810369e-04 -3.924908453343e-06 0.0 
-3.924908453343e-06 1.805493857811e-03 0.0 
0.0 0.0 -3.377777777778e-04 
-3.187821538714e-04 -3.633158389483e-06 0.0 
-3.633158389483e-06 2.116456200438e-03 0.0 
0.0 0.0 -3.155555555556e-04 
-3.690431360596e-04 -1.483147847608e-04 0.0 
-1.483147847608e-04 2.100743052422e-03 0.0 
0.0 0.0 -3.249092970522e-04 
-3.409689945328e-04 -3.383060592438e-06 0.0 
-3.383060592438e-06 1.805397786316e-03 0.0 
0.0 0.0 -3.377777777778e-04 
-3.187390681354e-04 -2.979666841293e-06 0.0 
-2.979666841293e-06 2.116197507279e-03 0.0 
0.0 0.0 -3.155555555556e-04 
-3.410270300007e-04 -2.604645378297e-06 0.0 
-2.604645378297e-06 1.805179834428e-03 0.0 
0.0 0.0 -3.377777777778e-04 
-2.670328998004e-04 2.363747169207e-05 0.0 
2.363747169207e-05 1.918142120546e-03 0.0 
0.0 0.0 -3.026870748299e-04 
-3.186025981003e-04 -2.078898060211e-06 0.0 
-2.078898060211e-06 2.115791879757e-03 0.0 
0.0 0.0 -3.155555555556e-04 
-2.890685759485e-04 1.184379376187e-05 0.0 
1.184379376187e-05 1.817294272793e-03 0.0 
0.0 0.0 -3.377777777778e-04 
-3.408782700942e-04 -1.553756922472e-06 0.0 
-1.553756922472e-06 1.804821399400e-03 0.0 
0.0 0.0 -3.377777777778e-04 
-3.183633483679e-04 -7.255709595321e-07 0.0 
-7.255709595321e-07 2.115187739220e-03 0.0 
0.0 0.0 -3.155555555556e-04 
-3.404069314639e-04 7.078744652276e-07 0.0 
7.078744652276e-07 1.804467464759e-03 0.0 
0.0 0.0 -3.377777777778e-04 
-3.183782408613e-04 1.285945568596e-06 0.0 
1.285945568596e-06 2.115270095584e-03 0.0 
0.0 0.0 -3.155555555556e-04 
-3.406492705220e-04 2.583697953022e-06 0.0 
2.583697953022e-06 1.804558473506e-03 0.0 
0.0 0.0 -3.377777777778e-04 
-3.184667973768e-04 3.190092890288e-06 0.0 
3.190092890288e-06 2.115278979552e-03 0.0 
0.0 0.0 -3.155555555556e-04 
-3.409369116603e-04 5.636160284098e-06 0.0 
5.636160284098e-06 1.804991858146e-03 0.0 
0.0 0.0 -3.377777777778e-04 
-3.191839104425e-04 4.673179761038e-06 0.0 
4.673179761038e-06 2.116930574184e-03 0.0 
0.0 0.0 -3.155555555556e-04 
-2.573175860954e-04 2.442770395467e-05 0.0 
2.442770395467e-05 1.988241460667e-03 0.0 
0.0 0.0 -3.360204081633e-04 
-3.424750430990e-04 4.023495552667e-06 0.0 
4.023495552667e-06 1.805722805934e-03 0.0 
0.0 0.0 -3.377777777778e-04 
-3.188875227946e-04 5.080339814892e-06 0.0 
5.080339814892e-06 2.115625010649e-03 0.0 
0.0 0.0 -3.155555555556e-04 
-3.407604408985e-04 9.421647063264e-06 0.0 
9.421647063264e-06 1.806070588280e-03 0.0 
0.0 0.0 -3.377777777778e-04 
-3.205134655889e-04 5.605715921484e-06 0.0 
5.605715921484e-06 2.120236289604e-03 0.0 
0.0 0.0 -3.155555555556e-04 
-3.180960930665e-04 5.060715434049e-06 0.0 
5.060715434049e-06 2.113082397847e-03 0.0 
0.0 0.0 -3.155555555556e-04 
-3.444609068295e-04 -8.452731090518e-07 0.0 
-8.452731090518e-07 1.806865042408e-03 0.0 
0.0 0.0 -3.377777777778e-04 
-3.230769510926e-04 5.297167333025e-06 0.0 
5.297167333025e-06 2.127756228039e-03 0.0 
0.0 0.0 -3.155555555556e-04 
-3.355530174909e-04 1.784549433597e-05 0.0 
1.784549433597e-05 1.806438973056e-03 0.0 
0.0 0.0 -3.377777777778e-04 
-3.130517883833e-04 8.743375330276e-06 0.0 
8.743375330276e-06 2.097353132742e-03 0.0 
0.0 0.0 -3.155555555556e-04 
-3.330210519758e-04 2.012953566074e-05 0.0 
2.012953566074e-05 2.147504497682e-03 0.0 
0.0 0.0 -3.155555555556e-04 
-3.509966610493e-04 -2.022077905254e-05 0.0 
-2.022077905254e-05 1.806627387448e-03 0.0 
0.0 0.0 -3.377777777778e-04 
-2.972095881106e-04 5.804270690083e-05 0.0 
5.804270690083e-05 1.800815152055e-03 0.0 
0.0 0.0 -3.377777777778e-04 
-2.175107159718e-04 -1.631750727429e-05 0.0 
-1.631750727429e-05 1.699502326440e-03 0.0 
0.0 0.0 -3.137981859410e-04 
-2.788781723147e-04 -3.677632055048e-04 0.0 
-3.677632055048e-04 1.918773635351e-03 0.0 
0.0 0.0 -3.266666666667e-04 
-3.824407797580e-04 3.586504733501e-04 0.0 
3.586504733501e-04 2.104280094810e-03 0.0 
0.0 0.0 -3.266666666667e-04 
-3.098900820360e-04 -3.767118635730e-05 0.0 
-3.767118635730e-05 1.957913403149e-03 0.0 
0.0 0.0 -3.044444444444e-04 
-3.525472806035e-04 3.960242332954e-05 0.0 
3.960242332954e-05 2.055406756740e-03 0.0 
0.0 0.0 -3.488888888889e-04 
-2.535791161460e-04 -6.363998917272e-06 0.0 
-6.363998917272e-06 1.836833488631e-03 0.0 
0.0 0.0 -3.044444444444e-04 
-3.854470384108e-04 -7.318895876579e-05 0.0 
-7.318895876579e-05 2.462268997968e-03 0.0 
0.0 0.0 -3.822222222222e-04 
-4.067260869842e-04 5.256727935288e-05 0.0 
5.256727935288e-05 2.270583520964e-03 0.0 
0.0 0.0 -4.044444444444e-04 
-3.835104184538e-04 -6.001370987119e-06 0.0 
-6.001370987119e-06 2.584239217162e-03 0.0 
0.0 0.0 -3.822222222222e-04 
-4.054239343453e-04 -3.862668402766e-07 0.0 
-3.862668402766e-07 2.278107254443e-03 0.0 
0.0 0.0 -4.044444444444e-04 
-3.827370056993e-04 -2.051108453439e-06 0.0 
-2.051108453439e-06 2.589324965641e-03 0.0 
0.0 0.0 -3.822222222222e-04 
-4.049473858376e-04 -2.025371124830e-06 0.0 
-2.025371124830e-06 2.278227481696e-03 0.0 
0.0 0.0 -4.044444444444e-04 
-3.829401273056e-04 -2.233475725811e-06 0.0 
-2.233475725811e-06 2.589358314293e-03 0.0 
0.0 0.0 -3.822222222222e-04 
-4.051320011440e-04 -1.755724159139e-06 0.0 
-1.755724159139e-06 2.278648915763e-03 0.0 
0.0 0.0 -4.044444444444e-04 
-3.835934586173e-04 -2.688169991867e-06 0.0 
-2.688169991867e-06 2.589869457183e-03 0.0 
0.0 0.0 -3.822222222222e-04 
-4.056600794980e-04 -1.893213932616e-06 0.0 
-1.893213932616e-06 2.279331955242e-03 0.0 
0.0 0.0 -4.044444444444e-04 
-3.843223718344e-04 -3.113994382631e-06 0.0 
-3.113994382631e-06 2.590617347037e-03 0.0 
0.0 0.0 -3.822222222222e-04 
-4.064892069025e-04 -2.474484856258e-06 0.0 
-2.474484856258e-06 2.280008615997e-03 0.0 
0.0 0.0 -4.044444444444e-04 
-3.849061480361e-04 -3.622932708783e-06 0.0 
-3.622932708783e-06 2.591309291953e-03 0.0 
0.0 0.0 -3.822222222222e-04 
-4.069579766942e-04 -3.400241771074e-06 0.0 
-3.400241771074e-06 2.280265863003e-03 0.0 
0.0 0.0 -4.044444444444e-04 
-3.851736627943e-04 -3.698729864826e-06 0.0 
-3.698729864826e-06 2.591442129951e-03 0.0 
0.0 0.0 -3.822222222222e-04 
-4.070595378395e-04 -3.530761062565e-06 0.0 
-3.530761062565e-06 2.280248515823e-03 0.0 
0.0 0.0 -4.044444444444e-04 
-3.853189254814e-04 -3.308712062330e-06 0.0 
-3.308712062330e-06 2.591334618481e-03 0.0 
0.0 0.0 -3.822222222222e-04 
-4.286221488409e-04 -1.538307185825e-04 0.0 
-1.538307185825e-04 2.567067218455e-03 0.0 
0.0 0.0 -3.914586414276e-04 
-4.072795051318e-04 -3.225304394693e-06 0.0 
-3.225304394693e-06 2.280128533043e-03 0.0 
0.0 0.0 -4.044444444444e-04 
-3.854134389773e-04 -2.594023862129e-06 0.0 
-2.594023862129e-06 2.591119240828e-03 0.0 
0.0 0.0 -3.822222222222e-04 
-3.464781260891e-04 1.734225857501e-05 0.0 
1.734225857501e-05 2.287295584395e-03 0.0 
0.0 0.0 -4.044444444444e-04 
-4.077885899199e-04 -2.677206165872e-06 0.0 
-2.677206165872e-06 2.280033372710e-03 0.0 
0.0 0.0 -4.044444444444e-04 
-3.854714744452e-04 -1.933077099942e-06 0.0 
-1.933077099942e-06 2.590961113598e-03 0.0 
0.0 0.0 -3.822222222222e-04 
-4.081084443904e-04 -2.360427714506e-06 0.0 
-2.360427714506e-06 2.279760717046e-03 0.0 
0.0 0.0 -4.044444444444e-04 
-3.853227145387e-04 -1.172340553314e-06 0.0 
-1.172340553314e-06 2.590523544031e-03 0.0 
0.0 0.0 -3.822222222222e-04 
-4.077855839762e-04 -1.880350380502e-06 0.0 
-1.880350380502e-06 2.279028361984e-03 0.0 
0.0 0.0 -4.044444444444e-04 
-3.286682295382e-04 3.864000460943e-05 0.0 
3.864000460943e-05 2.388312332005e-03 0.0 
0.0 0.0 -3.692364192054e-04 
-3.848513759083e-04 8.749343320701e-07 0.0 
8.749343320701e-07 2.589303941023e-03 0.0 
0.0 0.0 -3.822222222222e-04 
-4.064553215493e-04 2.023836917076e-06 0.0 
2.023836917076e-06 2.278692862703e-03 0.0 
0.0 0.0 -4.044444444444e-04 
-3.850937149665e-04 3.323013512475e-06 0.0 
3.323013512475e-06 2.589488289002e-03 0.0 
0.0 0.0 -3.822222222222e-04 
-4.083426802907e-04 3.954253352499e-06 0.0 
3.954253352499e-06 2.279268883058e-03 0.0 
0.0 0.0 -4.044444444444e-04 
-3.853813561047e-04 5.496575711093e-06 0.0 
5.496575711093e-06 2.589798472255e-03 0.0 
0.0 0.0 -3.822222222222e-04 
-4.073887531178e-04 8.644381902543e-06 0.0 
8.644381902543e-06 2.280648906445e-03 0.0 
0.0 0.0 -4.044444444444e-04 
-3.869194875435e-04 4.699519663534e-06 0.0 
4.699519663534e-06 2.593344221483e-03 0.0 
0.0 0.0 -3.822222222222e-04 
-4.136900432831e-04 3.059611690251e-07 0.0 
3.059611690251e-07 2.281270984406e-03 0.0 
0.0 0.0 -4.044444444444e-04 
-3.852048853429e-04 5.647321069003e-06 0.0 
5.647321069003e-06 2.589552732633e-03 0.0 
0.0 0.0 -3.822222222222e-04 
-4.027468751105e-04 1.481940469571e-05 0.0 
1.481940469571e-05 2.282290554162e-03 0.0 
0.0 0.0 -4.044444444444e-04 
-3.140135372488e-04 2.873744366936e-05 0.0 
2.873744366936e-05 2.457976087612e-03 0.0 
0.0 0.0 -4.025697525387e-04 
-4.196628018256e-04 -1.837442126513e-05 0.0 
-1.837442126513e-05 2.280568181227e-03 0.0 
0.0 0.0 -4.044444444444e-04 
-3.889053512739e-04 9.814032543116e-07 0.0 
9.814032543116e-07 2.600099780335e-03 0.0 
0.0 0.0 -3.822222222222e-04 
-3.673242193347e-04 4.652408802621e-05 0.0 
4.652408802621e-05 2.277402359379e-03 0.0 
0.0 0.0 -4.044444444444e-04 
-3.799974619353e-04 7.920842717923e-06 0.0 
7.920842717923e-06 2.577842323435e-03 0.0 
0.0 0.0 -3.822222222222e-04 
-3.954411054938e-04 8.433133596448e-06 0.0 
8.433133596448e-06 2.614590654529e-03 0.0 
0.0 0.0 -3.822222222222e-04 
-2.749511289216e-04 8.331946175053e-06 0.0 
8.331946175053e-06 2.168007004057e-03 0.0 
0.0 0.0 -3.803475303165e-04 
-4.499391521728e-04 -3.691567064575e-04 0.0 
-3.691567064575e-04 2.484470054093e-03 0.0 
0.0 0.0 -3.933333333333e-04 
-3.454868480400e-04 3.563309951917e-04 0.0 
3.563309951917e-04 2.297351916339e-03 0.0 
0.0 0.0 -3.933333333333e-04 
-4.195054663634e-04 -3.985404005844e-05 0.0 
-3.985404005844e-05 2.445111450393e-03 0.0 
0.0 0.0 -4.155555555556e-04 
-3.747695028257e-04 3.813450272878e-05 0.0 
3.813450272878e-05 2.346473725249e-03 0.0 
0.0 0.0 -3.711111111111e-04 
-3.224019092818e-04 7.776420168150e-06 0.0 
7.776420168150e-06 2.309384780839e-03 0.0 
0.0 0.0 -3.711111111111e-04 
-4.743042659076e-04 -7.660020380403e-05 0.0 
-7.660020380403e-05 2.865853814990e-03 0.0 
0.0 0.0 -4.711111111111e-04 
-4.511705314287e-04 5.193280790002e-05 0.0 
5.193280790002e-05 3.054035925169e-03 0.0 
0.0 0.0 -4.488888888889e-04 
-4.724633686243e-04 -9.447249748348e-06 0.0 
-9.447249748348e-06 2.739853487714e-03 0.0 
0.0 0.0 -4.711111111111e-04 
-4.498683787897e-04 -1.564459074637e-06 0.0 
-1.564459074637e-06 3.043354068164e-03 0.0 
0.0 0.0 -4.488888888889e-04 
-4.709847188569e-04 -3.574354858744e-06 0.0 
-3.574354858744e-06 2.732085994282e-03 0.0 
0.0 0.0 -4.711111111111e-04 
-4.493918302821e-04 -2.534727311695e-06 0.0 
-2.534727311695e-06 3.042771200855e-03 0.0 
0.0 0.0 -4.488888888889e-04 
-4.712289592021e-04 -1.812807881703e-06 0.0 
-1.812807881703e-06 2.731728430754e-03 0.0 
0.0 0.0 -4.711111111111e-04 
-4.495764455885e-04 -1.773818124506e-06 0.0 
-1.773818124506e-06 3.043241608981e-03 0.0 
0.0 0.0 -4.488888888889e-04 
-4.714369542364e-04 -1.226754822871e-06 0.0 
-1.226754822871e-06 2.732193229008e-03 0.0 
0.0 0.0 -4.711111111111e-04 
-4.501045239424e-04 -1.319389086964e-06 0.0 
-1.319389086964e-06 3.044025953912e-03 0.0 
0.0 0.0 -4.488888888889e-04 
-4.721709199478e-04 -7.219039081363e-07 0.0 
-7.219039081363e-07 2.733000959488e-03 0.0 
0.0 0.0 -4.711111111111e-04 
-4.509336513469e-04 -1.227029478650e-06 0.0 
-1.227029478650e-06 3.045199183253e-03 0.0 
0.0 0.0 -4.488888888889e-04 
-4.733112105120e-04 -2.101747565281e-06 0.0 
-2.101747565281e-06 2.733939753671e-03 0.0 
0.0 0.0 -4.711111111111e-04 
-4.514024211387e-04 -2.167247968994e-06 0.0 
-2.167247968994e-06 3.045303862128e-03 0.0 
0.0 0.0 -4.488888888889e-04 
-4.736423528678e-04 -3.198210204722e-06 0.0 
-3.198210204722e-06 2.733987266950e-03 0.0 
0.0 0.0 -4.711111111111e-04 
-4.515039822839e-04 -2.583022231729e-06 0.0 
-2.583022231729e-06 3.044671970773e-03 0.0 
0.0 0.0 -4.488888888889e-04 
-5.094249609211e-04 -1.485849024678e-04 0.0 
-1.485849024678e-04 3.037014136749e-03 0.0 
0.0 0.0 -4.582426303855e-04 
-4.729917283577e-04 -2.527651589676e-06 0.0 
-2.527651589676e-06 2.733536135201e-03 0.0 
0.0 0.0 -4.711111111111e-04 
-4.517239495762e-04 -1.695467618579e-06 0.0 
-1.695467618579e-06 3.044559982769e-03 0.0 
0.0 0.0 -4.488888888889e-04 
-3.989001830536e-04 1.286242860201e-05 0.0 
1.286242860201e-05 2.848856344771e-03 0.0 
0.0 0.0 -4.360204081633e-04 
-4.741797545259e-04 -9.783497841846e-07 0.0 
-9.783497841846e-07 2.733642750037e-03 0.0 
0.0 0.0 -4.711111111111e-04 
-4.522330343643e-04 -9.670925007112e-07 0.0 
-9.670925007112e-07 3.044890510388e-03 0.0 
0.0 0.0 -4.488888888889e-04 
-4.144774096089e-04 2.017710958343e-05 0.0 
2.017710958343e-05 2.745520392554e-03 0.0 
0.0 0.0 -4.711111111111e-04 
-4.753995493702e-04 -8.226418972766e-07 0.0 
-8.226418972766e-07 2.733890535335e-03 0.0 
0.0 0.0 -4.711111111111e-04 
-4.525528888349e-04 -1.017856854227e-06 0.0 
-1.017856854227e-06 3.044832322142e-03 0.0 
0.0 0.0 -4.488888888889e-04 
-4.755368976101e-04 -1.846947414200e-06 0.0 
-1.846947414200e-06 2.733541044653e-03 0.0 
0.0 0.0 -4.711111111111e-04 
-4.522300284206e-04 -1.178811979009e-06 0.0 
-1.178811979009e-06 3.043706972071e-03 0.0 
0.0 0.0 -4.488888888889e-04 
-4.752002035872e-04 -2.749529905470e-06 0.0 
-2.749529905470e-06 2.732164380164e-03 0.0 
0.0 0.0 -4.711111111111e-04 
-4.508997659937e-04 9.025585634263e-07 0.0 
9.025585634263e-07 3.040023587775e-03 0.0 
0.0 0.0 -4.488888888889e-04 
-4.025111780395e-04 2.483692496437e-05 0.0 
2.483692496437e-05 2.925236968048e-03 0.0 
0.0 0.0 -4.693537414966e-04 
-4.720241450351e-04 8.096980642689e-06 0.0 
8.096980642689e-06 2.731296038601e-03 0.0 
0.0 0.0 -4.711111111111e-04 
-4.527871247351e-04 5.512980383803e-06 0.0 
5.512980383803e-06 3.045188244375e-03 0.0 
0.0 0.0 -4.488888888889e-04 
-4.781498596819e-04 2.806128767860e-06 0.0 
2.806128767860e-06 2.733503698510e-03 0.0 
0.0 0.0 -4.711111111111e-04 
-4.518331975622e-04 6.669660836139e-06 0.0 
6.669660836139e-06 3.040822692017e-03 0.0 
0.0 0.0 -4.488888888889e-04 
-4.581344877275e-04 4.806066696545e-06 0.0 
4.806066696545e-06 3.058516911663e-03 0.0 
0.0 0.0 -4.488888888889e-04 
-4.734463109153e-04 2.147515801907e-05 0.0 
2.147515801907e-05 2.735536322359e-03 0.0 
0.0 0.0 -4.711111111111e-04 
-4.471913195549e-04 3.250875513730e-06 0.0 
3.250875513730e-06 3.026848153488e-03 0.0 
0.0 0.0 -4.488888888889e-04 
-4.901163184293e-04 -2.393685911706e-05 0.0 
-2.393685911706e-05 2.736952886364e-03 0.0 
0.0 0.0 -4.711111111111e-04 
-4.641072462701e-04 1.667244048014e-05 0.0 
1.667244048014e-05 3.071178406626e-03 0.0 
0.0 0.0 -4.488888888889e-04 
-4.324862338949e-04 4.839324787632e-05 0.0 
4.839324787632e-05 2.728573330093e-03 0.0 
0.0 0.0 -4.711111111111e-04 
-3.598727436964e-04 -3.513921753698e-05 0.0 
-3.513921753698e-05 2.630027147507e-03 0.0 
0.0 0.0 -4.471315192744e-04 
-4.105980049468e-04 -3.701438029842e-04 0.0 
-3.701438029842e-04 2.845095093414e-03 0.0 
0.0 0.0 -4.600000000000e-04 
-5.151542512817e-04 3.559434576652e-04 0.0 
3.559434576652e-04 3.032255437761e-03 0.0 
0.0 0.0 -4.600000000000e-04 
-4.417276885857e-04 -3.934714622270e-05 0.0 
-3.934714622270e-05 2.884397119692e-03 0.0 
0.0 0.0 -4.377777777778e-04 
-4.853374994491e-04 3.790832101958e-05 0.0 
3.790832101958e-05 2.981759035169e-03 0.0 
0.0 0.0 -4.822222222222e-04 
-3.798114594225e-04 -2.502327533143e-05 0.0 
-2.502327533143e-05 2.763244671662e-03 0.0 
0.0 0.0 -4.377777777778e-04 
-5.187487103520e-04 -7.879757944213e-05 0.0 
-7.879757944213e-05 3.392117763543e-03 0.0 
0.0 0.0 -5.155555555556e-04 
-5.412972415894e-04 4.648002671386e-05 0.0 
4.648002671386e-05 3.200314872167e-03 0.0 
0.0 0.0 -5.377777777778e-04 
-5.169078130687e-04 -1.124351187313e-05 0.0 
-1.124351187313e-05 3.514306742191e-03 0.0 
0.0 0.0 -5.155555555556e-04 
-5.370398844120e-04 -5.539739897160e-06 0.0 
-5.539739897160e-06 3.206683234812e-03 0.0 
0.0 0.0 -5.377777777778e-04 
-5.154291633013e-04 -3.129495957312e-06 0.0 
-3.129495957312e-06 3.517617017321e-03 0.0 
0.0 0.0 -5.155555555556e-04 
-5.381093200183e-04 -1.976663157598e-06 0.0 
-1.976663157598e-06 3.207914382671e-03 0.0 
0.0 0.0 -5.377777777778e-04 
-5.156734036465e-04 -2.406369053526e-06 0.0 
-2.406369053526e-06 3.519066327430e-03 0.0 
0.0 0.0 -5.155555555556e-04 
-5.366091103083e-04 -1.207085778447e-06 0.0 
-1.207085778447e-06 3.208019600709e-03 0.0 
0.0 0.0 -5.377777777778e-04 
-5.158813986808e-04 -1.051510284434e-06 0.0 
-1.051510284434e-06 3.519134616611e-03 0.0 
0.0 0.0 -5.155555555556e-04 
-5.372599660982e-04 6.933014159414e-07 0.0 
6.933014159414e-07 3.208897054849e-03 0.0 
0.0 0.0 -5.377777777778e-04 
-5.166153643922e-04 -3.726067797574e-07 0.0 
-3.726067797574e-07 3.520203548651e-03 0.0 
0.0 0.0 -5.155555555556e-04 
-5.375825845931e-04 1.962175395656e-06 0.0 
1.962175395656e-06 3.210164447084e-03 0.0 
0.0 0.0 -5.377777777778e-04 
-5.177556549564e-04 -1.083300339423e-06 0.0 
-1.083300339423e-06 3.521881872284e-03 0.0 
0.0 0.0 -5.155555555556e-04 
-5.405721443305e-04 -1.211361635616e-06 0.0 
-1.211361635616e-06 3.211048643113e-03 0.0 
0.0 0.0 -5.377777777778e-04 
-5.180867973122e-04 -2.955006037389e-06 0.0 
-2.955006037389e-06 3.522497958112e-03 0.0 
0.0 0.0 -5.155555555556e-04 
-5.792879928889e-04 -1.599267687407e-04 0.0 
-1.599267687407e-04 3.507819207063e-03 0.0 
0.0 0.0 -5.247732426303e-04 
-5.375442025049e-04 -3.821072344149e-06 0.0 
-3.821072344149e-06 3.209055027385e-03 0.0 
0.0 0.0 -5.377777777778e-04 
-4.855148531560e-04 1.971124341130e-05 0.0 
1.971124341130e-05 3.223296130373e-03 0.0 
0.0 0.0 -5.377777777778e-04 
-5.174361728022e-04 1.037369393987e-07 0.0 
1.037369393987e-07 3.519390087404e-03 0.0 
0.0 0.0 -5.155555555556e-04 
-5.390305481335e-04 1.985391886319e-06 0.0 
1.985391886319e-06 3.209337053627e-03 0.0 
0.0 0.0 -5.377777777778e-04 
-5.186241989704e-04 1.920455279018e-06 0.0 
1.920455279018e-06 3.520577890956e-03 0.0 
0.0 0.0 -5.155555555556e-04 
-5.424782350988e-04 2.602587795957e-06 0.0 
2.602587795957e-06 3.210819048104e-03 0.0 
0.0 0.0 -5.377777777778e-04 
-5.198439938146e-04 8.397343632878e-07 0.0 
8.397343632878e-07 3.522383784968e-03 0.0 
0.0 0.0 -5.155555555556e-04 
-5.425396489500e-04 -2.671586099047e-07 0.0 
-2.671586099047e-07 3.210729830903e-03 0.0 
0.0 0.0 -5.377777777778e-04 
-4.639261431919e-04 1.795800229973e-05 0.0 
1.795800229973e-05 3.319383572120e-03 0.0 
0.0 0.0 -5.025510204081e-04 
-5.199813420545e-04 4.884319010429e-08 0.0 
4.884319010429e-08 3.521715893853e-03 0.0 
0.0 0.0 -5.155555555556e-04 
-5.429313789558e-04 -1.595839338139e-06 0.0 
-1.595839338139e-06 3.209826232599e-03 0.0 
0.0 0.0 -5.377777777778e-04 
-5.196446480316e-04 -7.157581279135e-07 0.0 
-7.157581279135e-07 3.520538878585e-03 0.0 
0.0 0.0 -5.155555555556e-04 
-5.449486155419e-04 -7.127659532018e-06 0.0 
-7.127659532018e-06 3.206562068945e-03 0.0 
0.0 0.0 -5.377777777778e-04 
-5.164685894796e-04 6.903981517424e-06 0.0 
6.903981517424e-06 3.511995524719e-03 0.0 
0.0 0.0 -5.155555555556e-04 
-5.340991680871e-04 2.151676257836e-05 0.0 
2.151676257836e-05 3.208223790984e-03 0.0 
0.0 0.0 -5.377777777778e-04 
-5.225943041263e-04 7.813857319362e-06 0.0 
7.813857319362e-06 3.525980620072e-03 0.0 
0.0 0.0 -5.155555555556e-04 
-5.589612776076e-04 -5.839662931428e-06 0.0 
-5.839662931428e-06 3.211769507264e-03 0.0 
0.0 0.0 -5.377777777778e-04 
-5.066406946919e-04 4.974783900998e-05 0.0 
4.974783900998e-05 3.211603155197e-03 0.0 
0.0 0.0 -5.377777777778e-04 
-5.178907553598e-04 1.266973619623e-05 0.0 
1.266973619623e-05 3.512461130721e-03 0.0 
0.0 0.0 -5.155555555556e-04 
-4.723338447053e-04 2.541271294392e-05 0.0 
2.541271294392e-05 3.400544018691e-03 0.0 
0.0 0.0 -5.358843537414e-04 
-5.345607628738e-04 7.989109301456e-06 0.0 
7.989109301456e-06 3.549518677637e-03 0.0 
0.0 0.0 -5.155555555556e-04 
-4.278487948575e-04 -2.628820225453e-05 0.0 
-2.628820225453e-05 3.098178878207e-03 0.0 
0.0 0.0 -5.136621315192e-04 
-5.830730295149e-04 -3.701622094988e-04 0.0 
-3.701622094988e-04 3.411662693846e-03 0.0 
0.0 0.0 -5.266666666667e-04 
-4.791897713482e-04 3.550100958038e-04 0.0 
3.550100958038e-04 3.225685347325e-03 0.0 
0.0 0.0 -5.266666666667e-04 
-5.533708020514e-04 -3.952512472061e-05 0.0 
-3.952512472061e-05 3.373562060412e-03 0.0 
0.0 0.0 -5.488888888889e-04 
-5.075597216713e-04 3.715385301179e-05 0.0 
3.715385301179e-05 3.274980805740e-03 0.0 
0.0 0.0 -5.044444444444e-04 
-4.478107429422e-04 -2.175364391212e-05 0.0 
-2.175364391212e-05 3.231094822119e-03 0.0 
0.0 0.0 -5.044444444444e-04 
-6.189291422575e-04 -8.703466800000e-05 0.0 
-8.703466800000e-05 3.800993658171e-03 0.0 
0.0 0.0 -6.044444444444e-04 
-5.857416860338e-04 4.152251131124e-05 0.0 
4.152251131124e-05 3.981396628525e-03 0.0 
0.0 0.0 -5.822222222222e-04 
-6.014676124271e-04 -2.366192094099e-05 0.0 
-2.366192094099e-05 3.666428660517e-03 0.0 
0.0 0.0 -6.044444444444e-04 
-5.814843288565e-04 -9.898764258159e-06 0.0 
-9.898764258159e-06 3.966852274136e-03 0.0 
0.0 0.0 -5.822222222222e-04 
-6.012057329273e-04 -9.447332931530e-07 0.0 
-9.447332931530e-07 3.656511754543e-03 0.0 
0.0 0.0 -6.044444444444e-04 
-5.825537644628e-04 -2.598524727520e-06 0.0 
-2.598524727520e-06 3.971861702718e-03 0.0 
0.0 0.0 -5.822222222222e-04 
-6.053753762140e-04 -6.697619749929e-06 0.0 
-6.697619749929e-06 3.660276641183e-03 0.0 
0.0 0.0 -6.044444444444e-04 
-5.810535547528e-04 -4.794630108956e-06 0.0 
-4.794630108956e-06 3.968237137461e-03 0.0 
0.0 0.0 -5.822222222222e-04 
-5.989315183322e-04 1.500653346346e-07 0.0 
1.500653346346e-07 3.657759237214e-03 0.0 
0.0 0.0 -6.044444444444e-04 
-5.817044105427e-04 9.543218927896e-07 0.0 
9.543218927896e-07 3.971595709461e-03 0.0 
0.0 0.0 -5.822222222222e-04 
-6.036123665841e-04 5.339950144767e-07 0.0 
5.339950144767e-07 3.660400636182e-03 0.0 
0.0 0.0 -6.044444444444e-04 
-5.820270290375e-04 1.512396225205e-06 0.0 
1.512396225205e-06 3.971136415647e-03 0.0 
0.0 0.0 -5.822222222222e-04 
-6.007150147338e-04 7.186565872699e-06 0.0 
7.186565872699e-06 3.661043708330e-03 0.0 
0.0 0.0 -6.044444444444e-04 
-6.473657891011e-04 -1.503775681194e-04 0.0 
-1.503775681194e-04 3.972322043345e-03 0.0 
0.0 0.0 -5.915759637188e-04 
-5.850165887749e-04 4.111519023205e-06 0.0 
4.111519023205e-06 3.978321279382e-03 0.0 
0.0 0.0 -5.822222222222e-04 
-6.068724417991e-04 -1.008894091463e-05 0.0 
-1.008894091463e-05 3.663848600166e-03 0.0 
0.0 0.0 -6.044444444444e-04 
-5.382166584107e-04 1.304379000631e-05 0.0 
1.304379000631e-05 3.784609928148e-03 0.0 
0.0 0.0 -5.693537414966e-04 
-5.819886469493e-04 -2.459134104127e-06 0.0 
-2.459134104127e-06 3.967910560167e-03 0.0 
0.0 0.0 -5.822222222222e-04 
-6.025293378773e-04 4.180804481603e-06 0.0 
4.180804481603e-06 3.658439256297e-03 0.0 
0.0 0.0 -6.044444444444e-04 
-5.551920643197e-04 2.265198140005e-05 0.0 
2.265198140005e-05 3.679387987049e-03 0.0 
0.0 0.0 -6.044444444444e-04 
-5.834749925779e-04 5.082011282481e-06 0.0 
5.082011282481e-06 3.970492679137e-03 0.0 
0.0 0.0 -5.822222222222e-04 
-6.079594570241e-04 1.156947798532e-05 0.0 
1.156947798532e-05 3.661485342161e-03 0.0 
0.0 0.0 -6.044444444444e-04 
-5.869226795433e-04 6.564857151342e-06 0.0 
6.564857151342e-06 3.976524406353e-03 0.0 
0.0 0.0 -5.822222222222e-04 
-6.104220387485e-04 1.777481494349e-06 0.0 
1.777481494349e-06 3.663998117975e-03 0.0 
0.0 0.0 -6.044444444444e-04 
-5.869840933945e-04 2.939983270480e-06 0.0 
2.939983270480e-06 3.973848016868e-03 0.0 
0.0 0.0 -5.822222222222e-04 
-5.382425891796e-04 2.010179773991e-05 0.0 
2.010179773991e-05 3.859360506165e-03 0.0 
0.0 0.0 -6.026870748299e-04 
-6.075003933196e-04 1.831253403250e-06 0.0 
1.831253403250e-06 3.662133086902e-03 0.0 
0.0 0.0 -6.044444444444e-04 
-5.873758234003e-04 4.101101850468e-06 0.0 
4.101101850468e-06 3.972642461745e-03 0.0 
0.0 0.0 -5.822222222222e-04 
-5.893930599864e-04 7.702980258157e-07 0.0 
7.702980258157e-07 3.976762054191e-03 0.0 
0.0 0.0 -5.822222222222e-04 
-6.109731840224e-04 5.890820747558e-06 0.0 
5.890820747558e-06 3.662416691587e-03 0.0 
0.0 0.0 -6.044444444444e-04 
-5.785436125316e-04 1.010670441635e-05 0.0 
1.010670441635e-05 3.943008250813e-03 0.0 
0.0 0.0 -5.822222222222e-04 
-6.245615995330e-04 -2.323619509783e-05 0.0 
-2.323619509783e-05 3.657960966842e-03 0.0 
0.0 0.0 -6.044444444444e-04 
-6.034057220520e-04 2.547674868114e-05 0.0 
2.547674868114e-05 4.007426657562e-03 0.0 
0.0 0.0 -5.822222222222e-04 
-5.749090046599e-04 7.539992690033e-05 0.0 
7.539992690033e-05 3.655670285631e-03 0.0 
0.0 0.0 -6.044444444444e-04 
-4.961379511751e-04 -3.596508921407e-05 0.0 
-3.596508921407e-05 3.563351096824e-03 0.0 
0.0 0.0 -5.804648526077e-04 
-5.370991115959e-04 -3.597763694004e-04 0.0 
-3.597763694004e-04 3.763144672232e-03 0.0 
0.0 0.0 -5.933333333333e-04 
-6.527633909014e-04 3.673307409976e-04 0.0 
3.673307409976e-04 3.969951782286e-03 0.0 
0.0 0.0 -5.933333333333e-04 
-5.755930242736e-04 -3.122109693662e-05 0.0 
-3.122109693662e-05 3.812561021402e-03 0.0 
0.0 0.0 -5.711111111111e-04 
-6.159345735075e-04 5.418298751467e-05 0.0 
5.418298751467e-05 3.907149665354e-03 0.0 
0.0 0.0 -6.155555555556e-04 
-5.188481864893e-04 -2.197935258578e-05 0.0 
-2.197935258578e-05 3.695326603665e-03 0.0 
0.0 0.0 -5.711111111111e-04 
-6.633735867020e-04 -1.155216560215e-04 0.0 
-1.155216560215e-04 4.354748692185e-03 0.0 
0.0 0.0 -6.488888888889e-04 
-6.563660005590e-04 -4.949228987729e-06 0.0 
-4.949228987729e-06 4.121813599109e-03 0.0 
0.0 0.0 -6.711111111111e-04 
-6.459120568716e-04 -1.400816422142e-05 0.0 
-1.400816422142e-05 4.433498309450e-03 0.0 
0.0 0.0 -6.488888888889e-04 
-6.749764366868e-04 -1.022061849862e-05 0.0 
-1.022061849862e-05 4.131528536263e-03 0.0 
0.0 0.0 -6.711111111111e-04 
-6.456501773717e-04 -4.182868476139e-07 0.0 
-4.182868476139e-07 4.441719427511e-03 0.0 
0.0 0.0 -6.488888888889e-04 
-6.743020789233e-04 6.977086704405e-06 0.0 
6.977086704405e-06 4.142139451712e-03 0.0 
0.0 0.0 -6.711111111111e-04 
-6.498198206585e-04 -1.519001385402e-05 0.0 
-1.519001385402e-05 4.455827176230e-03 0.0 
0.0 0.0 -6.488888888889e-04 
-6.621266125404e-04 -2.192043764385e-05 0.0 
-2.192043764385e-05 4.131761848184e-03 0.0 
0.0 0.0 -6.711111111111e-04 
-6.433759627766e-04 1.777448492757e-06 0.0 
1.777448492757e-06 4.439463053302e-03 0.0 
0.0 0.0 -6.488888888889e-04 
-6.671926554529e-04 1.273682377901e-05 0.0 
1.273682377901e-05 4.138458681040e-03 0.0 
0.0 0.0 -6.711111111111e-04 
-6.480568110285e-04 -2.776142626350e-06 0.0 
-2.776142626350e-06 4.452403490028e-03 0.0 
0.0 0.0 -6.488888888889e-04 
-6.701502197109e-04 -7.061847057976e-06 0.0 
-7.061847057976e-06 4.137807792637e-03 0.0 
0.0 0.0 -6.711111111111e-04 
-7.177695882629e-04 -1.636503915645e-04 0.0 
-1.636503915645e-04 4.444156976963e-03 0.0 
0.0 0.0 -6.580807474504e-04 
-6.451594591783e-04 2.175329864517e-06 0.0 
2.175329864517e-06 4.446899780493e-03 0.0 
0.0 0.0 -6.488888888889e-04 
-6.694083839789e-04 4.177588367940e-05 0.0 
4.177588367940e-05 4.159153595791e-03 0.0 
0.0 0.0 -6.711111111111e-04 
-6.460833817648e-04 2.181336474461e-05 0.0 
2.181336474461e-05 4.138351275158e-03 0.0 
0.0 0.0 -6.711111111111e-04 
-6.513168862435e-04 2.571939183972e-06 0.0 
2.571939183972e-06 4.455509820746e-03 0.0 
0.0 0.0 -6.488888888889e-04 
-6.788111886778e-04 -1.155514465084e-05 0.0 
-1.155514465084e-05 4.136861537379e-03 0.0 
0.0 0.0 -6.711111111111e-04 
-6.469737823218e-04 1.193188668569e-05 0.0 
1.193188668569e-05 4.441081764841e-03 0.0 
0.0 0.0 -6.488888888889e-04 
-6.791365925950e-04 1.914980606251e-05 0.0 
1.914980606251e-05 4.140018751422e-03 0.0 
0.0 0.0 -6.711111111111e-04 
-6.524039014686e-04 9.406282947327e-06 0.0 
9.406282947327e-06 4.453605425654e-03 0.0 
0.0 0.0 -6.488888888889e-04 
-6.708784002972e-04 1.294093541859e-05 0.0 
1.294093541859e-05 4.143170398070e-03 0.0 
0.0 0.0 -6.711111111111e-04 
-6.063230854436e-04 2.307129271710e-05 0.0 
2.307129271710e-05 4.258254267781e-03 0.0 
0.0 0.0 -6.358585252281e-04 
-6.548664831930e-04 3.770000341560e-06 0.0 
3.770000341560e-06 4.457898616998e-03 0.0 
0.0 0.0 -6.488888888889e-04 
-6.704807604954e-04 -3.181200734393e-06 0.0 
-3.181200734393e-06 4.139523021675e-03 0.0 
0.0 0.0 -6.711111111111e-04 
-6.519448377641e-04 9.585102352892e-06 0.0 
9.585102352892e-06 4.446587571773e-03 0.0 
0.0 0.0 -6.488888888889e-04 
-6.643169358871e-04 1.598213094946e-05 0.0 
1.598213094946e-05 4.135669863508e-03 0.0 
0.0 0.0 -6.711111111111e-04 
-6.628560694171e-04 4.220630236658e-05 0.0 
4.220630236658e-05 4.140094777351e-03 0.0 
0.0 0.0 -6.711111111111e-04 
-6.554176284668e-04 2.405280497155e-05 0.0 
2.405280497155e-05 4.445642855833e-03 0.0 
0.0 0.0 -6.488888888889e-04 
-6.690060439774e-04 2.025793204246e-05 0.0 
2.025793204246e-05 4.465053963584e-03 0.0 
0.0 0.0 -6.488888888889e-04 
-6.064361755080e-04 1.982912098429e-05 0.0 
1.982912098429e-05 4.335884925808e-03 0.0 
0.0 0.0 -6.691918585615e-04 
-5.634506181685e-04 -1.856852842989e-05 0.0 
-1.856852842989e-05 4.033404918511e-03 0.0 
0.0 0.0 -6.469696363393e-04 
-7.075315162010e-04 -3.247782179694e-04 0.0 
-3.247782179694e-04 4.305606072287e-03 0.0 
0.0 0.0 -6.600000000000e-04 
-6.398271965703e-04 3.921691488498e-04 0.0 
3.921691488498e-04 4.184231073606e-03 0.0 
0.0 0.0 -6.600000000000e-04 
-7.078150788587e-04 1.813354754417e-05 0.0 
1.813354754417e-05 4.306653958276e-03 0.0 
0.0 0.0 -6.822222222222e-04 
-6.381567957297e-04 6.336547185409e-05 0.0 
6.336547185409e-05 4.195569873202e-03 0.0 
0.0 0.0 -6.377777777778e-04 
-5.885253976530e-04 -3.076841355540e-05 0.0 
-3.076841355540e-05 4.174142785234e-03 0.0 
0.0 0.0 -6.377777777778e-04 

SCALARS element_materi_plasti_kappa_shear float
LOOKUP_TABLE default
1.898088649643e-03
1.711557051641e-03
5.588972410085e-03
5.625547274701e-03
3.501560146999e-03
7.282216725179e-04
3.474037579751e-03
1.788007566792e-03
3.522688057585e-03
5.576154387884e-03
3.814443258077e-03
1.461439354055e-03
5.618312958953e-03
3.751010953381e-03
5.727607835366e-03
5.730745783213e-03
3.485806207147e-03
6.593526459412e-04
1.219931793149e-03
1.129439279567e-03
5.615624188563e-03
1.975862239362e-03
2.216034645177e-03
5.387839390641e-03
4.000079313324e-03
4.090296639934e-03
3.221108468051e-03
5.760173945043e-03
4.029373913921e-03
5.523089313001e-03
9.290964436138e-04
4.104778426902e-04
5.763354464700e-03
4.818108341585e-03
5.606378478043e-03
5.926561905728e-03
5.911514681661e-03
5.601049808397e-03
3.175213616511e-03
3.219440155070e-03
2.522875806809e-03
5.613228156909e-03
1.314389251867e-03
3.093978597461e-03
5.492839635271e-03
1.306192107028e-03
5.547525844143e-04
5.389503964808e-03
2.459813448032e-04
3.614080566478e-03
2.381012112028e-03
1.496795143349e-03
1.233026261794e-03
2.292287135613e-03
5.625167383412e-03
1.964314716114e-03
1.446321564822e-03
4.840724010361e-03
9.102679910466e-04
5.734895616735e-03
3.755633206834e-04
5.378892164199e-03
2.330546822697e-03
1.083603178692e-03
5.615414212048e-03
2.131250052149e-03
1.604920622130e-04
5.736681007187e-03
9.706183660792e-04
5.615641150241e-03
4.241478972054e-03
5.874633494774e-03
5.400876667698e-03
4.558558305771e-04
1.986901141796e-03
5.633818988721e-03
5.766849763577e-03
9.985176399269e-04
7.761145875021e-04
9.970078257236e-04
9.298249562962e-04
3.329770783062e-03
2.084397622031e-03
1.770967893659e-03
3.674764228873e-03
3.652269385491e-03
4.362468712188e-03
4.711312884167e-03
4.861505206044e-03
3.454836133152e-03
2.515307574216e-04
3.378806059228e-03
4.682474906469e-03
4.702091845048e-03
6.023290360785e-03
5.787399672559e-03
3.332335907633e-03
5.769769997493e-03
3.930413862469e-03
2.258576815211e-03
3.348854702644e-03
5.740322727268e-03
4.646182631344e-03
5.409941681963e-03
2.044498184613e-03
6.875243722321e-04
5.293361504948e-03
5.009713215505e-03
4.133118292856e-04
5.636662395566e-03
4.631075715070e-03
3.269354662114e-04
2.695643369684e-03
3.134173944672e-03
2.394513305480e-03
2.006953041182e-03
2.358433690428e-03
5.680496234391e-03
3.862421047183e-03
2.174327584433e-03
9.453599785676e-04
3.463155550842e-03
4.910807945138e-03
2.193161772477e-03
6.864169327036e-04
2.833893873667e-03
2.488998346477e-03
2.624989890950e-03
5.744770783808e-03
8.095945313104e-04
4.016900758618e-03
5.625509815893e-03
2.834287320742e-03
2.685380764041e-03
5.614532063030e-03
5.633315586868e-03
4.360056895282e-03
3.033874980370e-03
5.768691703590e-03
2.715472649556e-03
5.618615457511e-03
5.760030365689e-03
3.718873437018e-03
4.339715431150e-03
2.744759010980e-03
2.474141180373e-03
3.120734003300e-03
2.345781934128e-03
3.431883328348e-03
2.738129196427e-03
2.430742527300e-04
3.688149105754e-03
8.387704164436e-04
2.991941880911e-03
5.628507851818e-03
2.024064835673e-03
4.530584219247e-03
1.460229167458e-03
4.626313542846e-03
3.347690434935e-03
2.537984777281e-03
4.987375735797e-03
8.656817948043e-04
5.285431651825e-03
3.359806122999e-03
5.766679500674e-03
3.342388058740e-03
2.107011085319e-03
2.928826646772e-03
3.947216798782e-03
1.526615979923e-03
2.569483147169e-03
4.520478967461e-03
3.465735922799e-03
2.391304591019e-03
2.779864257648e-03
5.040184275248e-03
2.772760665208e-03
5.618703717082e-03
5.759844672989e-03
1.983421498389e-03
2.659866027685e-03
5.141665672042e-03
2.630630496975e-03
1.717879912429e-03
3.236040194099e-03
2.634227826825e-03
5.637705462983e-03
4.673436176070e-03
5.143211062278e-03
1.164471534235e-03
2.407331954242e-03
4.803098661724e-03
1.296887470610e-04
2.602557350130e-03
4.814963733127e-03
6.908847608837e-04
5.616315559470e-03
4.285635638516e-03
2.554299594861e-03
4.795742518615e-03
3.724002802598e-03
3.932058578281e-03
5.497749636997e-03
1.904823798155e-03
3.244463136207e-03
3.481704692684e-03
4.488443812894e-03
3.550879868320e-03
3.254436741122e-03
4.171787960097e-03
4.925574717127e-03
3.793743182903e-04
1.944678655638e-03
2.211850110251e-03
3.157287865959e-03
4.893684273428e-03
9.647028340037e-04
4.643736636012e-03
3.342449784473e-03
2.377945774862e-03
4.477091166639e-03
4.380675775184e-04
4.584675247436e-03
3.699679224087e-04
5.360497299544e-04
1.154789664667e-03
1.594668909351e-03
4.784983334352e-03
1.546697935713e-03
1.383435816543e-03
1.200027858935e-03
1.005332530085e-03
4.949781021208e-03
3.380950736680e-03
5.631197498489e-03
0.0
1.665063222897e-03
2.673189362063e-03
2.423854183086e-03
4.621677125616e-03
5.764868817004e-03
4.590764537563e-03
1.954446704586e-03
4.960919873089e-03
4.205568891908e-03
3.320344157998e-03
4.410423547979e-03
5.507586445396e-03
2.709349539675e-03
1.580698985764e-03
3.836309747163e-03
6.017571415290e-03
3.278275707600e-03
3.423215564413e-03
3.753460771055e-03
8.863145511107e-04
3.518014179913e-03
1.918797851399e-03
1.292004175147e-03
9.082232253616e-04
4.755046881876e-03
3.676362788182e-03
2.294435875197e-03
4.952708212390e-03
4.718723855839e-03
3.481414558201e-03
5.642033395162e-03
3.523250685796e-03
3.640046674313e-03
2.917421140027e-03
3.717192777981e-03
1.585318004735e-03
3.357027743210e-03
2.838102944494e-03
2.007874057392e-03
4.547203828395e-03
1.589585432750e-04
3.708601455527e-03
2.047895045112e-03
1.700131027140e-03
1.626515464048e-03
3.929577795643e-03
6.380620704985e-04
2.384202047897e-03
3.820927590901e-03
3.640893065081e-03
3.744578397567e-03
8.473399745818e-04
1.972105034185e-03
1.841129336947e-03
2.144602490372e-03
4.453686851147e-03
2.425319558498e-03
2.633326203696e-03
2.506076668662e-03
1.050423010888e-03
3.001112002867e-03
1.139329181863e-03
6.012684016247e-03
6.015982038197e-03
3.371674230462e-03
1.754085065341e-03
1.538449888003e-03
3.733462517399e-03
1.667297713938e-03
1.800453244169e-03
3.281965826456e-03
5.778410886410e-03
2.212308197419e-03
4.148099921920e-03
1.220247403596e-03
6.015650448016e-03
1.627598388192e-03
3.408069598847e-03
1.126335977517e-03
4.035749165321e-03
2.797696233239e-03
1.935926706622e-03
3.513914298156e-03
6.014293587579e-03
2.340466570169e-03
3.854547700326e-03
1.257539573865e-03
4.211250131042e-03
4.445904991403e-03
1.749623395989e-03
4.109773335894e-03
6.017625920184e-03
4.749940685194e-03
6.020004411071e-03
4.066219120171e-03
4.677049970116e-03
1.453454976364e-03
3.226922138058e-03
3.605874528002e-03
3.801247617448e-03
3.116888250637e-03
6.023922603081e-03
3.900035487012e-03
3.427519582657e-03
2.541127325687e-03
1.304161433012e-03
3.097491959287e-03
1.828369059598e-03
3.480341907346e-03
1.973411461228e-03
2.245667589757e-03
4.717451703464e-03
1.865551334307e-03
3.320796694163e-03
3.948013352555e-03
3.499794145216e-03
6.014761074790e-03
2.797145162977e-03
1.840410315571e-03
2.476504328130e-03
1.777663760712e-03
1.715690849975e-03
5.020957594454e-03
3.604591250536e-03
2.461088412607e-03
3.037406839291e-03
6.020345341033e-03
5.688581187916e-03
4.974163615528e-03
4.623253995230e-03
3.403798714710e-03
2.542077870463e-03
1.793786123597e-03
2.084462978973e-03
3.443262116423e-03
3.946499106711e-03
2.984226002412e-03
5.025076478443e-03
1.876215262827e-03
2.954178187483e-03
3.441589599408e-03
2.662722220519e-03
6.012685245852e-03
6.016133295997e-03
5.644449372993e-03
3.701147822208e-03
4.921131353075e-03
1.545366707812e-03
2.377422492958e-03
1.336075859690e-03
2.584345771663e-03
3.338459339121e-03
4.044137853151e-03
5.756411723275e-03
4.924677558882e-03
3.800097117390e-03
3.895652219981e-03
1.419401544672e-03
6.642135258918e-04
2.837095037860e-03
3.243261720869e-03
3.038062407003e-03
6.767206337308e-04
3.595162726105e-03
1.242964933884e-03
1.791112892290e-03
5.886267587663e-03
4.319899469577e-03
3.400768600181e-03
9.348339381145e-04
3.083946857624e-03
2.871885156030e-03
3.962075947404e-03
6.018407561000e-03
3.198386693765e-03
3.766468143188e-03
2.946356736400e-03
4.889394747190e-03
3.802316230935e-03
6.019114699465e-03
5.878766063712e-03
5.874669666802e-03
5.846896484413e-03
4.057636266581e-03
4.920589971590e-03
5.113499940864e-03
2.631031740165e-03
2.507872621076e-03
2.813875816799e-03
5.059815959048e-03
6.015552509770e-03
5.051955043481e-03
4.017840351881e-03
5.084516464713e-03
4.404291654299e-03
3.045170865042e-03
2.550534457101e-03
1.338384591573e-03
5.646979922164e-03
2.469749811606e-03
5.384355873580e-03
2.775047533559e-03
1.799833226776e-03
5.623003894310e-03
1.949666713895e-03
5.877628319843e-03
5.634831675280e-03
3.696725743160e-03
2.315629071755e-04
5.876846230322e-03
5.625196717779e-03
1.763143550620e-03
4.153888461443e-03
6.029088701749e-03
0.0
2.757791127203e-03
3.859953108443e-03
3.533917503000e-03
3.571063382657e-03
1.501745143730e-03
5.871219529997e-03
2.671327868410e-03
8.692276940893e-04
5.775417212412e-03
4.034087724254e-04
2.877183319107e-03
7.845786155791e-04
3.064343649170e-03
6.008207932276e-03
5.886416939798e-03
3.769097730369e-03
5.416058611577e-04
6.663225248162e-04
9.264097944293e-04
5.017458723071e-03
3.488320970718e-03
3.568311924561e-03
5.888518575312e-03
3.493284622980e-03
6.023303222970e-03
4.495210095570e-03
3.909299515792e-03
1.880309591682e-03
4.118987834466e-03
1.217020428602e-03
5.888099209517e-03
5.858622551973e-03
5.871281062107e-03
3.837749785842e-03
2.642161995129e-03
3.082539161524e-03
3.932200029967e-03
5.884737103442e-03
1.826405636236e-03
2.101531865548e-03
2.230991329468e-03
4.079210194315e-03
6.020724823755e-03
6.550876827097e-04
5.870906118256e-03
2.061330388785e-03
5.887134204678e-03
5.158371209842e-03
1.735033884423e-04
2.876871465872e-03
5.119259939334e-03
5.882578435152e-03
4.090807838191e-03
4.627625074893e-03
1.056059908013e-03
5.381604359168e-03
2.190366286691e-03
2.266492401597e-03
4.233392830062e-04
5.876777887152e-03
1.506277909376e-03
4.962026184372e-03
3.779613678589e-03
1.886868617371e-03
2.137991957806e-03
3.928710791902e-03
5.887503593490e-03
2.741417539434e-03
4.307478873942e-03
3.496708023987e-03
3.907072451988e-03
2.300842511533e-03
4.002515627125e-03
3.405034769092e-03
4.439472514518e-03
4.416922306321e-03
3.333573885478e-03
2.813436354788e-03
1.986436464636e-03
2.602497471918e-03
4.536209320527e-03
3.650011259562e-03
6.021028889714e-03
5.248340798342e-03
1.675475904991e-03
5.860952443923e-03
5.749243689854e-03
3.130366137552e-03
2.446157471383e-04
6.015808451350e-03
5.216828897001e-03
1.891089920309e-03
5.872438978963e-03
4.140650168509e-03
2.670441489397e-03
3.672959727573e-03
3.555689535213e-03
3.535938459604e-03
4.076028772190e-03
4.323837798527e-03
2.998150908977e-03
4.588814172264e-03
3.990156233101e-03
2.851900776380e-03
4.246963853771e-03
2.223560657060e-03
3.981478068334e-03
1.793397212350e-04
2.156315504880e-03
2.097111767555e-03
3.079683430517e-03
3.294455684710e-03
4.105285117446e-03
3.968717882503e-03
1.929111457824e-03
5.886335248325e-03
3.894339398565e-03
3.209529361218e-03
3.730809639925e-03
3.117776647955e-03
0.0
3.867784336933e-03
2.563323944442e-03
0.0
3.036200146822e-03
4.407600196631e-03
5.076924335598e-03
3.778145075046e-03
3.865417070565e-03
3.297599931106e-03
3.075297279978e-03
5.632622103086e-03
3.567491943935e-03
1.510039486835e-04
1.062090790194e-03
2.398810579769e-04
1.837694429977e-03
5.063783013299e-03
5.108968424711e-03
4.804181478442e-03
2.074537259418e-03
4.022688107491e-03
5.049168604237e-03
1.160096365863e-03
2.576389109968e-03
2.078055360937e-03
6.021089235366e-03
5.881485963002e-03
2.857156921414e-03
3.246692301346e-03
3.629498285744e-03
5.229137518708e-03
1.125785695799e-03
4.880206649917e-03
6.831862832839e-04
2.949407645451e-03
3.288357648769e-03
2.441249237017e-04
2.697767110358e-03
5.212641935745e-03
1.752329176366e-04
3.063219008196e-03
3.208047659791e-03
4.245083115866e-03
2.103654506232e-03
2.019431576275e-03
1.421520152248e-03
5.225289819944e-03
5.632171442564e-03
4.908962959162e-03
1.901082200919e-03
7.152422822502e-04
3.069002747989e-03
3.072118229683e-03
3.221248037221e-03
0.0
2.370160903131e-04
5.310782124113e-04
1.561897998935e-03
4.249046179326e-04
3.032717901044e-03
0.0
1.864630217503e-03
4.122518464148e-03
3.216172429738e-03
5.209439031162e-03
4.234717777356e-03
3.854408568460e-03
2.248560931312e-03
6.787283102328e-04
5.869561306561e-03
6.023626633703e-03
3.742684779077e-03
3.077333598062e-03
2.287820883481e-03
6.009559958077e-03
1.773006016400e-03
3.202342050267e-03
3.064099742472e-03
2.912794716067e-03
5.888568312805e-03
6.006021539653e-03
4.166942996851e-04
0.0
8.441431879688e-04
3.250853044043e-03
5.464355466467e-03
1.629622625435e-04
4.849407318231e-03
0.0
4.167229288684e-03
1.911385708274e-04
1.855469029488e-04
3.998077199970e-03
5.296543687334e-03
4.237134437895e-03
3.194088539209e-03
2.435063913800e-04
4.153210895562e-03
5.861217735276e-03
6.009791560538e-03
3.214582083037e-03
4.335922088801e-03
5.878708529905e-03
4.662336340161e-03
6.526260522665e-04
4.186243951470e-04
2.626649538589e-04
2.550412609600e-03
6.014031515604e-03
5.628686910939e-03
0.0
3.011280459441e-03
5.891985303537e-03
6.031512279974e-03
6.009444186578e-03
4.549765932770e-03
5.010826545378e-03
5.864343994050e-03
5.879214029285e-03
4.848773824588e-03
1.474383398766e-04
3.191688509645e-03
3.230904037540e-03
0.0
5.898372924748e-03
6.024797090299e-03
5.861254662737e-03
1.875139568358e-04
1.924224746449e-04
5.871534849748e-03
5.866174925494e-03
4.404639489746e-03
3.191281210692e-03
4.696669621923e-03
3.777426634559e-03
3.187300555971e-03
1.702406008909e-04
1.962141474448e-04
1.658004844312e-04
1.808088655351e-04
3.181347729344e-03
2.857668427393e-03
0.0
4.096797302130e-03
0.0
5.867214387611e-03
5.859324762587e-03
5.872796053912e-03
1.028821985916e-03
1.936630062470e-03
5.864275948506e-03
5.016839626708e-03
5.891943567254e-03
5.328174982673e-03
5.640245512770e-03
2.701665040976e-03
6.022983703665e-03
6.017003585591e-03
5.139388847066e-03
5.463393282501e-03
4.411575174769e-03
0.0
2.784277416710e-03
4.061884078683e-04
5.259286228377e-03
2.908833121132e-03
4.850143225763e-03
1.472710261241e-03
5.420604269260e-04
5.189202363176e-03
3.073447472489e-03
2.406449859391e-03
4.889636581614e-03
5.255592395657e-03
2.405392247394e-03
4.614670723085e-03
4.023251322217e-03
4.374804059547e-03
4.518070815714e-03
2.466020010935e-03
2.911636777842e-03
3.205404967252e-03
4.113353234630e-03
5.029297459228e-03
4.665945937406e-03
1.491277829959e-03
5.243929663885e-03
4.941851688277e-03
3.558682000750e-03
4.285917425276e-03
4.244579152953e-03
5.321773155122e-03
5.122199489663e-03
3.931103671375e-03
5.320806263415e-03
4.878121851522e-03
4.664188533065e-03
5.406777608810e-03
5.283094587084e-03
4.496087669439e-03
4.444458481023e-03
1.481875117849e-03
1.376911560334e-03
7.503612397896e-04
4.158489178226e-04
5.132283977735e-03
5.119873486994e-03
4.012352521065e-04
5.178558947058e-03
3.672287986049e-03
4.759407346754e-03
4.816897172186e-03
2.140610803278e-03
4.851861367702e-03
3.563436395175e-03
4.454648778840e-03
5.513811741196e-03
1.417713283077e-03
5.445572691693e-03
4.665806061983e-03
1.612851643597e-03
1.714759419245e-03
3.438255392646e-03
4.137623841864e-03
2.296870595819e-03
4.830815432738e-03
4.338838747335e-03
3.342675223842e-03
4.545437980776e-03
4.722218982109e-03
4.634762812797e-03
1.261713162161e-03
3.173154214210e-03
5.055839016286e-03
4.803789849080e-03
2.857994266569e-03
4.062765352512e-03
5.318088809597e-03
4.463221862301e-03
7.092725784376e-04
7.188837629253e-04
1.457330486298e-03
4.991375457445e-03
4.302592537165e-03
3.790381226361e-03
3.831560113468e-03
5.088582652342e-03
3.475465703060e-03
4.681796565250e-03
1.519021719428e-03
5.403126934034e-03
3.381852318330e-03
1.662591917742e-03
3.207575975263e-03
2.427493216678e-03
1.903845874229e-03
3.731045389275e-03
0.0
0.0
4.284173046855e-03
1.393362755241e-03
4.325320826384e-03
4.194819161297e-03
2.641355429632e-03
1.719362769164e-03
5.077648961166e-03
6.798414436796e-04
2.568347176664e-03
5.235874665598e-03
1.155384575714e-03
4.027503858662e-03
3.708502873321e-03
1.170523382264e-03
5.180869859233e-03
4.605325228012e-03
1.354425768675e-03
5.208339196432e-03
5.174454579939e-03
1.560392004205e-03
2.066462287853e-03
1.601268088310e-03
4.585233918786e-03
3.608599847271e-03
5.182420533551e-03
5.047083544607e-03
4.455861124158e-03
4.416860348408e-03
1.262227011679e-03
4.546872248422e-03
4.575231375888e-03
3.645268122884e-03
4.332465809534e-03
4.772714813264e-03
3.224253829144e-03
4.911353602778e-03
3.039446067918e-03
3.515433690721e-03
2.274449684327e-03
2.423089078890e-03
4.439297428605e-03
3.365892711140e-03
1.732320824868e-03
8.737837506730e-04
4.468449371054e-03
1.692563081125e-03
5.400363428095e-03
4.604462714681e-03
4.720726376404e-03
5.614884535387e-03
2.906736885669e-03
1.519615723243e-03
9.588952552173e-04
4.497763875840e-03
4.168753252709e-03
6.612546370243e-04
2.334923660638e-03
1.349036943465e-03
4.164466221195e-03
2.463752493733e-03
4.155025201166e-03
2.292333716335e-03
4.974481416777e-03
1.996568548932e-03
4.538601579327e-03
1.422865093935e-03
4.366068561899e-03
3.354002373652e-03
4.590163414602e-03
2.268610930299e-03
1.307910686375e-03
3.881907493683e-03
4.205574957263e-03
2.920421497113e-03
4.187784013099e-03
1.586935699350e-03
4.244922793799e-03
1.226338966711e-03
5.150001748039e-03
4.374413810112e-03
4.622543358684e-03
5.394833408084e-03
3.667741289077e-03
1.224125341458e-03
4.102435654437e-03
5.282422523208e-03
2.057763750215e-03
4.628995763583e-03
4.635584555752e-03
1.589158083945e-03
4.234441115403e-03
3.821646127754e-03
1.821001696294e-03
2.204998645608e-03
3.531838972984e-03
4.458682283978e-03
2.705458114869e-03
3.369397376081e-03
4.409627360570e-03
3.999189459908e-03
3.940589006345e-03
3.315097548747e-03
5.049644574621e-03
3.970188919273e-03
3.865457449799e-03
5.335960465199e-03
4.786774600188e-03
4.326858616178e-03
4.742369029763e-03
2.549037087326e-03
2.376936366428e-03
1.302651264701e-03
4.273366818875e-03
2.508792953611e-03
4.299375558000e-03
4.132696996014e-03
3.389416804488e-03
2.034302780513e-03
2.172486861284e-03
2.165955219120e-03
2.337607654919e-03
1.391516248166e-03
4.919034255652e-03
2.855049591197e-03
4.941701353565e-03
3.027877065094e-03
4.063567962409e-03
3.458337729904e-03
3.331673446639e-03
1.430769057123e-03
5.141025598269e-03
5.386317345378e-03
4.241134245443e-03
2.509978051558e-03
3.760813505748e-03
4.270720268813e-03
2.680282115890e-03
2.797254708148e-03
2.037210772217e-03
1.757966815576e-03
2.721514213298e-03
1.824017326780e-03
1.691969220267e-03
3.496848774705e-03
4.195328690588e-03
4.995266969494e-03
2.135838877742e-04
2.937051639141e-03
2.897351463058e-03
2.682523461315e-03
4.103488450026e-03
3.156230924954e-03
2.130711016344e-03
2.894759596741e-03
4.775391991284e-03
2.173955602432e-03
7.788298120350e-04
1.098630592693e-03
1.847249263452e-03
2.207153680070e-03
3.068504768790e-03
3.066805177260e-03
1.285438509384e-03
1.138227833186e-03
3.930039062681e-03
1.865163626252e-03
4.708651258612e-03
4.829683528524e-03
3.996321467094e-03
4.986241804288e-03
5.148048922335e-03
3.260814721480e-03
4.534131096749e-03
1.457572490377e-03
3.023482251318e-03
2.967208668201e-03
1.645155887212e-03
1.166961927379e-03
2.469642956954e-03
2.937206611966e-03
3.106798960592e-03
1.956772177710e-03
3.328078992345e-03
2.976908204584e-03
3.106378807451e-03
2.248119148986e-03
4.413942525391e-03
4.439751776256e-03
2.976392922480e-03
5.010927287276e-03
1.627877766205e-03
5.381669347488e-03
3.196867194148e-03
5.344914307263e-03
4.057033022443e-03
1.547485956853e-03
4.123901821043e-03
5.087178339347e-03
3.367611906554e-03
2.440942977478e-03
4.251329185006e-03
3.207452396218e-03
1.238538391459e-03
5.593643574323e-03
1.085824202323e-03
5.357726211726e-03
5.214885560155e-03
4.544742657186e-03
3.963126868919e-03
4.882709138368e-03
3.144855381723e-03
3.686700440280e-03
5.279854728997e-03
4.499470890681e-03
4.577778607108e-03
4.305077680676e-03
1.417434976899e-03
4.713217591497e-03
5.753142823153e-03
5.329243380658e-03
2.984954618286e-03
3.988249552619e-03
3.801645055376e-03
3.235172335353e-03
4.367027888534e-03
4.537516687745e-03
9.970547420202e-04
1.879690939538e-03
3.146058965649e-03
3.016269873665e-03
3.169182906176e-03
5.469468509572e-03
5.150681403781e-03
5.240179499594e-03
2.868576175316e-03
4.786586511308e-03
4.405806436379e-03
5.327777423767e-03
4.543377517499e-03
3.194953866718e-03
3.016658390279e-03
4.683655011930e-03
5.186209915555e-03
4.713484120123e-03
4.548206090170e-03
4.976866936040e-03
5.217579174467e-03
4.840160058745e-03
3.891876227783e-03
2.750258353967e-03
4.710107048531e-03
4.455858956637e-03
1.652249011372e-03
3.184856128294e-03
3.569010409292e-03
3.985083673358e-03
1.671830613806e-03
3.055529241679e-03
4.284410717116e-03
3.160882025297e-03
3.286974656951e-03
4.234469480443e-03
3.357266040902e-03
5.832224582001e-04
3.799395819487e-03
4.636565872287e-03
5.317751045333e-03
3.481406310990e-03
3.589447844127e-03
4.274698478407e-03
8.890581030902e-04
4.506465777264e-03
3.816858646073e-03
3.354799917759e-03
4.576186082816e-03
1.676633756965e-03
4.747043128416e-03
5.187298868340e-03
4.376407166304e-03
4.744547438801e-03
4.830907234008e-03
5.222428902797e-03
1.201860364892e-03
4.408544086062e-03
5.240903661220e-03
4.852152895878e-03
4.077198400922e-03
3.222276421180e-03
3.512191017662e-03
9.501978410136e-04
5.017421712005e-03
1.785962296740e-03
1.474080171039e-03
4.696567737555e-03
5.360782323002e-03
1.502195583134e-03
3.694570648950e-03
4.514270677664e-03
3.456703744762e-03
1.710610669055e-03
2.238950842234e-03
1.102844825229e-03
1.463725195595e-03
1.298709706981e-03
3.778806340878e-03
6.016319104850e-03
1.770958764898e-03
5.108227611126e-03
2.760707398476e-03
4.377813891094e-03
1.251866579467e-03
5.389992930062e-03
1.329712956055e-03
2.093643212440e-03
4.546924323321e-03
3.272001809033e-03
5.085454575005e-03
2.505652950449e-03
4.652855770583e-03
5.305274251484e-03
4.381154287587e-03
5.353154153797e-03
4.847010383273e-03
4.984300817298e-03
1.461091507052e-03
4.931565832531e-03
4.651005362573e-03
3.390008201393e-03
2.079335679828e-03
5.500831082514e-03
1.712811546916e-03
1.993152190864e-03
4.885708378640e-03
1.216541976104e-03
3.495171392387e-03
4.675591106622e-03
5.272532937545e-03
5.420840566733e-03
4.583883740699e-03
5.018032232522e-03
2.928193951873e-03
4.734205484299e-03
2.384407325899e-03
5.226115629599e-03
2.691920380854e-03
2.821439891355e-03
3.352681362175e-03
3.005156168196e-03
3.913667205993e-03
3.168162756046e-03
3.350908701417e-03
1.499540076307e-03
3.184302201097e-03
5.155825657334e-03
5.317650690563e-03
4.630365567379e-03
5.181610671434e-03
3.234889799458e-03
4.952004252636e-03
3.313357221722e-03
5.062045811440e-03
4.816274352400e-03
4.818099421099e-03
4.206405183177e-03
3.056304276052e-03
5.021296019776e-03
4.023314824600e-03
1.538746154334e-03
1.749640413363e-03
2.581840747201e-03
3.659895849796e-03
5.198547264467e-03
4.682421595145e-03
3.094059173860e-03
4.145541869622e-03
4.812672239436e-03
5.049278077315e-03
5.190177469339e-03
4.186777916003e-03
4.922584909275e-03
3.519092201106e-03
4.841945469779e-03
3.459285380478e-03
5.318103245047e-03
5.375730321285e-03
3.907284938938e-03
1.543762532817e-03
4.924088818987e-03
3.784631978290e-03
2.966232018542e-03
4.115084444643e-03
4.786551662215e-03
1.580177343230e-03
3.609609721518e-03
4.218839080460e-03
5.235324707913e-03
4.343885302361e-03
4.794481932196e-03
4.091858975395e-03
3.838629298260e-03
4.150165290363e-03
5.016907512540e-03
4.843633938430e-03
4.487236376390e-03
5.391551705940e-03
3.964776956212e-03
2.504722224904e-03
5.126866157334e-03
5.351865102208e-03
3.421523486689e-03
3.585506366848e-03
2.798993443276e-03
4.621665338398e-03
2.797993190934e-03
4.008922037687e-03
2.829376981743e-03
4.717608549950e-03
5.388550033297e-03
2.927070685157e-03
9.888206599125e-04
5.353078015974e-03
2.956776001860e-03
3.401650254318e-03
5.219422455657e-03
4.518245132016e-03
4.710258760874e-03
3.004500417497e-03
7.783076031665e-04
5.413634110948e-03
3.785549847173e-03
4.475770357229e-03
5.138569278830e-03
4.994909691428e-04
4.670933741567e-03
2.116054709690e-03
4.214096454066e-03
3.759983120660e-03
2.888083435173e-03
5.100516085727e-03
3.877479781614e-03
2.594149316670e-03
3.983879265493e-03
8.165376085929e-04
4.568690469439e-03
4.756083401336e-03
5.452995028681e-03
4.864947734128e-03
2.043386112127e-03
4.669335817464e-03
5.443502610785e-03
5.653283028556e-03
4.924221690428e-03
3.131071400812e-03
4.275149951314e-03
5.153531541623e-03
3.483038301481e-03
4.661124208018e-03
4.348587759454e-03
4.969873350217e-03
4.879399467596e-03
3.061812406022e-03
3.059832632554e-03
4.421565437881e-03
4.367095910945e-03
3.892926071110e-03
4.346817112173e-03
3.712232804534e-03
5.218395199065e-03
3.094455246611e-03
6.015990180958e-03
3.548926640244e-03
3.622651461457e-03
3.720989189851e-03
1.917689178557e-03
3.325283759535e-03
4.075520205487e-03
3.823291195348e-03
4.324099751295e-03
4.442674123027e-03
4.635684442584e-03
9.413748427401e-04
3.116803001466e-03
2.990095831993e-03
4.183071766205e-03
4.385629020003e-03
5.129593891230e-03
1.345885066556e-03
1.412365657132e-03
3.622797484364e-03
3.154436867303e-03
2.871305297426e-03
3.029007655749e-03
4.352626062824e-03
1.378394098464e-03
3.551958554456e-03
4.673475020981e-03
1.371021261255e-03
5.626560674904e-03
5.140839489265e-03
3.418542020247e-03
4.761469995819e-03
5.340586268801e-04
4.506684223349e-03
3.820960628806e-03
5.232531716934e-04
5.112554520633e-03
1.291496177796e-03
4.218615333140e-03
3.856857888662e-03
3.312116629244e-03
3.970751915483e-03
5.253907736522e-03
4.273307236225e-03
3.748874096129e-03
3.658427402968e-03
4.072848571604e-04
1.086582957134e-03
4.988340503471e-03
4.027251590836e-03
5.093944963423e-03
2.082136659873e-03
4.849015704641e-03
5.165290452317e-03
3.099958031898e-03
4.951145023831e-03
4.800202598035e-03
4.202189340322e-03
3.419837614494e-03
3.627723820665e-03
5.408792691943e-03
3.669252203194e-03
3.949521165470e-03
3.687500356751e-03
4.577290825851e-03
3.457616430748e-03
2.136542330794e-03
3.737765005846e-03
2.300519927022e-03
4.313534934977e-03
2.336835197399e-03
4.185013498204e-03
5.058632123647e-03
4.845402042790e-03
3.258903797757e-03
4.157867652743e-03
4.893039108893e-03
4.931637404463e-03
1.098595117713e-03
4.276866742041e-03
5.348494697504e-03
2.274754905370e-03
3.720777205156e-03
5.805350037142e-04
5.023459904507e-03
2.007146323956e-03
3.516536072154e-03
4.448684330717e-03
4.188265097601e-03
3.987994876210e-03
3.912543751932e-03
2.560060998670e-03
2.716022476841e-03
5.063727723485e-03
4.170414237267e-03
3.608810319198e-03
4.473149988466e-03
3.442042596625e-03
2.210516303654e-03
2.509306508329e-03
3.743956289805e-03
3.211982025181e-03
4.884087041847e-03
3.294332851053e-03
5.470028085312e-03
4.968312631613e-03
3.648648400585e-03
5.541933827682e-03
2.466546029825e-03
5.345527466215e-03
3.948482313971e-03
4.328605554235e-03
5.112321421619e-03
2.597683647667e-03
4.115029269880e-03
3.480150837066e-03
4.019186076767e-03
2.272393606485e-03
4.466658165346e-03
3.272828574776e-03
3.852140252587e-03
3.985530946530e-03
5.486019707335e-04
3.987424940170e-03
8.554820142323e-04
9.504026979452e-04
3.679756779392e-03
4.895621551102e-03
4.114719913355e-03
2.260582699587e-03
5.890341927598e-03
2.361196323926e-04
2.408933314321e-03
3.696570178526e-03
3.550836608979e-03
2.949897068498e-03
2.521788525811e-03
3.865826064652e-03
4.111851899734e-03
4.291338337804e-03
5.060421643315e-03
1.172731196860e-03
3.380194152908e-03
3.645284340248e-03
1.945070109137e-03
3.263324571413e-03
4.151874911649e-03
4.514501832049e-03
6.678202814271e-04
4.351335771458e-04
1.356777941614e-03
3.683303970356e-03
2.761138937455e-03
2.431180347952e-03
2.170243072616e-03
3.811952085602e-03
4.376533666742e-03
3.777763179950e-03
2.723670872440e-03
4.310662224790e-03
3.611591761329e-03
4.750283438547e-03
3.815774579288e-03
3.851468414051e-03
1.944050795949e-03
2.890987107893e-03
3.905608017060e-03
4.252910968047e-03
3.994175970999e-03
2.110867462038e-03
3.944631663858e-03
2.390664015243e-03
1.124080825948e-03
5.376953591042e-03
1.187499430943e-03
2.482769913719e-03
3.879865431681e-03
2.200126612380e-03
3.952345974418e-03
1.811928905985e-03
3.356343314340e-03
3.983365723056e-03
3.440832380153e-03
3.590886272855e-03
5.778240294564e-04
5.177570466669e-03
2.852018100216e-03
5.139923105349e-03
4.369987342579e-03
4.075819768185e-03
4.112944593259e-03
2.558534294897e-03
8.044732495801e-04
4.846447285547e-04
4.204879470093e-03
5.110788681143e-03
2.351481271792e-03
4.405521083047e-03
2.090274329685e-03
4.476809174747e-03
5.754213561495e-03
1.628784469015e-04
5.886643384746e-03
5.901414175980e-03
3.458575707159e-03
2.812867409509e-03
4.241011420016e-03
2.631198119222e-03
8.395301720451e-04
4.442063176974e-04
5.416028733597e-03
4.290643224770e-03
3.238039868260e-03
6.016407931761e-03
1.526058316679e-03
6.021404174662e-03
4.252293004767e-03
2.770700704573e-03
4.037975120995e-03
2.603169544957e-03
1.275543801189e-03
2.434051418874e-03
4.504021302162e-03
5.149429450184e-03
2.644039120232e-03
4.570681309338e-03
0.0
2.683791218028e-03
4.759413754436e-03
2.380487600569e-03
2.182231533104e-03
4.074582213105e-03
1.142827734401e-03
1.613360141681e-03
1.808060117334e-03
2.084692713343e-03
3.738888209100e-03
3.552566181395e-03
4.601487464017e-03
5.387303345294e-03
1.895037985309e-03
4.547788030597e-03
5.406404464742e-03
2.430574595185e-03
8.388200309560e-04
2.308570276636e-03
3.567446514914e-03
4.605708546548e-03
3.532472732913e-03
9.838862332244e-04
4.035330324993e-03
1.450893591273e-03
3.586284318698e-03
3.831672797715e-03
4.170149154859e-03
4.132286282917e-03
2.127223100425e-03
9.534914560383e-04
4.136513997941e-03
1.590009906794e-03
3.818359164413e-04
5.392622240487e-03
5.134895118372e-03
2.358553379801e-04
4.335577273877e-03
1.652975194542e-03
1.733439247888e-03
4.869520458032e-03
4.202282593856e-03
4.701518647351e-03
2.723483443401e-03
3.214868672807e-03
5.618894135867e-03
1.429456025818e-03
4.994104156300e-03
3.749384831161e-03
1.080098481845e-03
4.468944246879e-03
2.850501028317e-03
5.229780796343e-04
2.395768144624e-03
4.403868178899e-03
4.552935884602e-03
1.122570998338e-03
3.592706244326e-03
4.742720139637e-03
4.941703297220e-03
2.257577943858e-03
1.773224354185e-03
3.849204691396e-03
4.071024716265e-03
5.196053913260e-04
5.764981452673e-03
5.619546678147e-03
3.612944456398e-03
5.643094491975e-03
5.633179208426e-03
2.812315344072e-03
2.684208433063e-03
5.774953852408e-03
0.0
1.642459376677e-03
3.615456688328e-03
2.303853360214e-03
2.356132906425e-03
1.288375400597e-03
1.523495052579e-03
3.689273836909e-03
2.596505031526e-03
1.903570888892e-03
4.768488117706e-03
6.016953446853e-03
6.019036760985e-03
2.772486331110e-03
3.327990862488e-03
3.338379874677e-04
1.033148740315e-03
1.155791037094e-03
1.182207438934e-03
4.038315348238e-03
2.314844929729e-03
2.560267431529e-03
6.984958962329e-04
5.129856721972e-03
2.519676737210e-03
5.369560606069e-03
4.921920194395e-03
6.028148600870e-03
6.024927523322e-03
3.694826416134e-03
2.643467046654e-03
1.596779775992e-03
2.730315514544e-03
5.897744789275e-03
7.273837460651e-04
8.727452914998e-04
5.171338012505e-03
3.477662201300e-03
5.409990092851e-03
4.766370635139e-03
5.205506796534e-03
4.984047288898e-03
3.660646591583e-03
2.009740382611e-03
1.966632147612e-03
4.354966851432e-03
5.090565716970e-03
3.059094088471e-03
3.470038770667e-03
3.693952598066e-03
3.772778857696e-03
9.470076460965e-04
1.787152598033e-03
5.767752696873e-03
4.034960654971e-03
5.756079931259e-03
5.497145112359e-03
4.509775173530e-03
5.432774287522e-03
2.645253503307e-03
2.511337306943e-03
5.406759837386e-03
2.304638287393e-04
1.771966949554e-03
5.883028560639e-03
8.247074295860e-04
3.324809475671e-03
5.529445601793e-03
5.796810560745e-04
3.735041338849e-04
6.010222977965e-03
3.068950323843e-03
5.659948107382e-03
5.391425944959e-03
3.060672020253e-03
3.701494320501e-04
5.629476601577e-03
9.427571928059e-04
5.445974576444e-03
5.891393706380e-03
5.428284510192e-03
1.205305933195e-03
3.730388698424e-03
2.799861645862e-03
4.776394335281e-03
6.019211625133e-03
4.734875419906e-03
6.017874104347e-03
5.525430350756e-04
5.764155817737e-03
1.379826528368e-03
7.818426790371e-04
5.771398210854e-03
5.772672408195e-03
5.750122728571e-03
3.364853212441e-03
3.669284283972e-03
1.289535518306e-03
5.767367083341e-03
2.258902969130e-03
7.533765705700e-04
4.926344783199e-03
3.188420317882e-03
5.482259513434e-03
5.953772275136e-03
5.893932355244e-03
1.556562156404e-04
7.519299109275e-05
3.129847729158e-03
3.204854259840e-03
5.889443725007e-03
5.949944079457e-03
3.717729449494e-04
0.0
5.412787547920e-03
5.428215329942e-03
1.134510679474e-03
5.501228040530e-03
3.826590884489e-03
3.385765392231e-03
4.259215926484e-03
1.033495775153e-03
4.492845514927e-03
9.286955643622e-04
3.016528213225e-03
5.456768976603e-03
5.324962882905e-03
3.256994374191e-03
3.913984556786e-03
5.533514411026e-03
5.100824001865e-03
4.804745634301e-03
3.058531543379e-03
4.339009031687e-03
5.424931143324e-03
1.698845153725e-03
4.086781350246e-04
5.273729960381e-03
4.969714239598e-03
7.789488230220e-04
4.461302677928e-03
5.625097067298e-03
5.215165969830e-03
5.527785936845e-03
4.184635835076e-03
2.450732908034e-04
1.273338932172e-03
1.607268086115e-03
3.578185125380e-03
4.310413086534e-03
5.506795170732e-03
5.617673364480e-03
6.645911850498e-04
6.388748237895e-04
1.019502716968e-03
4.467708076661e-03
2.159520161712e-03
5.529519713859e-03
1.082739524012e-03
5.378468444182e-03
3.624426704377e-03
5.642484205688e-03
4.966747949266e-03
3.587861483021e-03
5.771512121934e-03
5.779451194585e-03
5.760792399076e-03
7.089390944598e-04
5.397932790268e-03
5.622343722044e-03
5.472950722519e-03
5.052268972403e-03
5.880549672383e-03
4.768122438881e-03
0.0
9.845756963829e-04
5.283361989644e-03
3.879740068610e-03
5.433335536349e-03
5.248543119057e-03
5.652713428879e-03
4.807093912347e-03
5.652238210164e-03
5.501769948461e-03
5.478616351915e-03
2.254971077609e-03
6.018212737185e-03
3.451522871175e-03
5.433186761320e-03
5.068656971482e-04
5.235659828438e-03
4.498616084438e-03
6.477069853907e-04
1.135724772342e-03
4.905082491478e-03
5.637492893173e-03
5.504426529729e-03
5.673913725339e-03
3.852881204388e-03
3.799041860716e-04
5.935897059171e-04
4.188938165998e-04
8.250409444332e-04
1.478748655910e-04
2.994768496769e-03
5.427348189453e-03
5.458882754827e-03
3.883455718842e-03
2.608660953034e-03
5.476751558409e-03
5.429576111220e-03
5.784117117048e-03
5.420830804507e-03
5.193598780718e-03
5.135394386581e-04
5.681154926279e-04
5.488737210922e-03
5.166391021769e-04
7.619709822300e-04
4.832364846617e-04
5.799786674799e-04
5.645675802182e-03
5.655037542831e-03
5.514781828190e-03
5.671443408193e-03
5.255264111174e-03
4.033418773149e-03
5.899144122698e-03
1.388436502105e-03
3.180255969687e-03
8.723897877041e-04
2.133422569491e-04
6.015531814482e-03
3.502525969212e-03
8.808568387309e-04
2.855369314806e-03
5.783822611068e-03
5.499347830224e-03
5.655534667044e-03
2.044016280955e-03
5.432286145459e-04
5.780287558169e-03
6.015607847563e-03
6.035949087319e-03
3.352497016113e-03
5.397561630392e-03
7.778562056283e-04
5.539597143375e-03
2.048357633213e-04
5.660676748682e-03
5.761438663708e-03
2.169999861618e-04
5.276842850465e-03
4.633513032721e-03
5.657467102238e-03
5.913925366103e-03
4.247858577439e-03
5.671720231098e-03
5.525428271373e-03
4.362177274661e-03
5.479739394229e-03
2.387201356291e-03
3.053723610195e-03
5.526446984933e-03
5.736294853841e-03
0.0
3.063983621229e-03
5.747940021174e-03
1.061697143843e-03
5.531390322422e-03
5.495470709881e-03
5.762937850711e-03
1.031440225739e-03
8.053626735849e-04
3.509970528096e-03
5.010988788466e-03
1.260771232344e-04
5.677193264911e-03
4.090526400836e-03
1.039673297651e-03
3.888574816327e-03
5.772338171833e-03
3.681185629208e-03
3.038880930972e-04
2.159618659613e-03
3.184608949978e-03
3.800834338169e-03
5.524986598456e-03
3.091083311451e-03
3.266927546245e-03
5.190819916672e-04
5.520367014093e-03
5.284258696945e-03
8.877738012255e-04
5.674860832192e-03
5.710960226183e-03
3.423111596940e-03
4.198163726001e-03
3.122389092001e-03
3.191264477013e-03
3.380114392671e-03
5.252725700940e-03
7.633269386086e-04
5.525012493520e-03
3.559702453178e-03
5.772557366742e-03
5.241338347213e-03
3.993508198578e-03
5.321259532480e-03
5.468684898978e-03
5.796731642521e-03
2.386710946758e-04
5.348756869277e-03
5.540450075665e-03
5.978130445140e-04
2.916813067191e-03
3.606876982127e-04
5.579480516134e-03
1.317555908262e-03
1.411154381567e-03
1.241457495901e-03
1.403423847767e-03
1.236480862040e-03
1.403051953662e-03
1.236284882551e-03
1.403547908576e-03
1.236815340164e-03
1.404204483020e-03
1.237470339378e-03
1.404743475763e-03
1.237987658795e-03
1.405026198117e-03
1.238234757460e-03
1.405120931524e-03
1.238319585092e-03
1.405059704162e-03
1.421124237200e-03
1.238289863139e-03
1.404896347905e-03
1.238178938020e-03
1.272248389348e-03
1.404621066361e-03
1.230468354784e-03
1.237927192510e-03
1.404201724790e-03
1.237585739367e-03
1.404253981136e-03
1.237710869377e-03
1.404287754182e-03
1.238054426352e-03
1.405452877794e-03
1.320006507428e-03
1.238915382257e-03
1.404614785989e-03
1.238649182603e-03
1.407749646635e-03
1.402917868988e-03
1.240144152721e-03
1.412832891455e-03
1.237451068507e-03
1.392398719858e-03
1.427258914911e-03
1.242071057120e-03
1.224550736858e-03
1.135722002448e-03
1.334507275476e-03
1.464477983734e-03
1.308290235552e-03
1.389742403768e-03
1.221865126859e-03
1.644828616560e-03
1.545981159414e-03
1.713069814165e-03
1.549054825424e-03
1.715773419310e-03
1.548987889924e-03
1.715851555196e-03
1.549284187277e-03
1.716336015095e-03
1.549831225943e-03
1.716979131492e-03
1.550462280830e-03
1.717548348098e-03
1.550748049988e-03
1.717702537870e-03
1.550767686370e-03
1.717681668252e-03
1.725803895536e-03
1.550761344641e-03
1.717583419006e-03
1.537714373053e-03
1.550852574204e-03
1.717508033845e-03
1.550787156715e-03
1.717211703352e-03
1.550270291517e-03
1.580962922022e-03
1.716371127971e-03
1.549692184463e-03
1.716550609062e-03
1.550574202923e-03
1.716818436997e-03
1.551114104077e-03
1.719308097921e-03
1.553274409557e-03
1.716626027886e-03
1.550768170919e-03
1.626829546040e-03
1.554713128758e-03
1.723777182374e-03
1.538464917325e-03
1.708370553989e-03
1.734059786548e-03
1.441855297972e-03
1.718205167646e-03
1.580532811126e-03
1.653228733294e-03
1.570518538296e-03
1.533736984822e-03
1.929041500633e-03
2.023740013828e-03
1.854265828309e-03
2.016530832047e-03
1.849333680069e-03
2.016057688508e-03
1.849195180988e-03
2.016381773036e-03
1.849523099890e-03
2.016986771475e-03
1.850201123651e-03
2.017903593159e-03
1.851073613590e-03
2.018100274694e-03
1.851198313231e-03
2.017765292166e-03
2.038346331878e-03
1.850748802689e-03
2.017763268230e-03
1.885943985980e-03
1.851152239863e-03
2.018100772715e-03
1.841102677324e-03
1.851647953070e-03
2.018159675524e-03
1.851486642937e-03
2.017416700478e-03
1.850595558474e-03
2.014905500803e-03
1.941018760619e-03
1.849191983526e-03
2.018440167145e-03
1.852222603884e-03
2.015647441730e-03
2.027681622993e-03
1.852157743951e-03
2.006230484387e-03
1.857841458147e-03
2.036787414556e-03
1.836927752623e-03
1.752304649195e-03
1.929925313480e-03
2.063297522828e-03
1.919603130811e-03
2.001189499676e-03
1.831777990773e-03
2.258393672976e-03
2.159705713490e-03
2.327059706199e-03
2.161659692035e-03
2.328518888195e-03
2.162672994817e-03
2.329425293706e-03
2.162300175437e-03
2.329523762820e-03
2.162994370433e-03
2.330352635693e-03
2.163819996874e-03
2.331651210941e-03
2.165193397044e-03
2.332104205239e-03
2.349563023748e-03
2.163170879264e-03
2.156618435812e-03
2.330120032603e-03
2.163760401777e-03
2.331149868869e-03
2.165613130817e-03
2.332544467419e-03
2.165577836067e-03
2.195603305539e-03
2.332198422978e-03
2.165170022173e-03
2.331421633703e-03
2.163880370449e-03
2.325581563359e-03
2.161800956061e-03
2.335429634205e-03
2.170950976162e-03
2.156347734429e-03
2.326285427350e-03
2.254719671384e-03
2.352490791724e-03
2.061139530170e-03
2.319973192991e-03
2.181921643346e-03
2.266267734125e-03
2.183268200846e-03
2.140663700466e-03
2.549158764665e-03
2.636150175904e-03
2.465044416633e-03
2.626215054828e-03
2.459129987657e-03
2.629398577210e-03
2.462515755855e-03
2.626876011636e-03
2.459194547671e-03
2.628998715299e-03
2.462069348223e-03
2.628826924734e-03
2.461615336322e-03
2.655480925391e-03
2.633841262143e-03
2.465021985990e-03
2.504855940460e-03
2.626954113001e-03
2.460627946581e-03
2.459281500191e-03
2.628877804265e-03
2.463978196257e-03
2.633359730070e-03
2.466114496976e-03
2.631825731881e-03
2.557842814581e-03
2.464193016864e-03
2.631244525693e-03
2.634203394462e-03
2.465367309286e-03
2.611601312478e-03
2.466838180282e-03
2.656093472301e-03
2.452256167998e-03
2.368738549867e-03
2.524902431016e-03
2.677255740190e-03
2.532401558563e-03
2.611856570448e-03
2.448380073333e-03
2.895347462543e-03
2.762954093961e-03
2.933492103758e-03
2.773940618943e-03
2.938129622360e-03
2.779861874844e-03
2.947517109028e-03
2.770436758339e-03
2.936171750745e-03
2.775705167697e-03
2.944993665868e-03
2.776162261490e-03
2.967674935110e-03
2.940979762039e-03
2.788576165275e-03
2.769633692862e-03
2.947728243539e-03
2.778133822446e-03
2.938167467260e-03
2.780092728751e-03
2.946956698666e-03
2.779489675693e-03
2.817224370005e-03
2.950134646900e-03
2.777240784832e-03
2.942772889533e-03
2.773283112852e-03
2.775691965232e-03
2.943314050847e-03
2.958430064026e-03
2.871806310958e-03
2.678495565508e-03
2.898963514100e-03
2.818430404747e-03
2.887802313650e-03
2.791363294968e-03
2.764226645725e-03

SCALARS element_materi_plasti_phimob float
LOOKUP_TABLE default
-9.752447999794e-01
-4.065580209077e-01
1.951953656698e+01
1.930618877502e+01
1.469518863964e+01
-6.012843953344e+00
1.475175154355e+01
1.940468124865e+00
1.476215528895e+01
1.927456910427e+01
2.080754943689e+01
-8.685691856062e+00
2.077666068334e+01
1.549819616100e+01
2.065394196318e+01
1.947504204020e+01
1.436543205001e+01
-6.011160498674e+00
9.736766422351e+00
1.059351794488e+01
1.926062697495e+01
8.470861032897e-01
5.408433753058e+00
2.099241615150e+01
1.626095438804e+01
2.092982027410e+01
1.297569744548e+01
2.014817733871e+01
1.623183268086e+01
2.104442211961e+01
2.556333351167e+00
-2.095710611391e+01
1.947442792721e+01
2.095680507396e+01
2.084101667189e+01
2.077059716971e+01
2.068651073256e+01
2.076923560920e+01
1.346067382555e+01
1.354862612838e+01
8.438825050782e+00
2.069490377903e+01
-2.061709281422e-01
1.294639852652e+01
1.909049374908e+01
2.214212919500e+00
-4.329234922381e+00
1.914537856038e+01
-2.186406677787e+01
1.499523016825e+01
7.081645697528e+00
1.303083655240e+01
1.120846280813e+01
5.970223708104e+00
1.945518258536e+01
1.658564725810e+01
1.384121073051e+01
2.100545883165e+01
4.108825344031e+00
1.946295139493e+01
-2.771915135689e+01
2.032053615190e+01
1.142639214139e+01
9.303036749467e+00
2.077698233902e+01
3.480767559849e+00
-2.976268516074e+01
1.947190945207e+01
5.353736963168e+00
1.975205415834e+01
2.097169651368e+01
1.977440387526e+01
1.985755532423e+01
-1.496253662716e+01
1.718284872912e+01
1.930418895257e+01
1.940941214156e+01
-1.584861747103e+00
4.548620481254e+00
-8.345740303725e-01
5.798146763131e+00
1.432298994508e+01
3.887209476886e+00
-3.259015235251e+00
1.532310803909e+01
1.535249995260e+01
2.098557287860e+01
2.100310142992e+01
1.825026304712e+01
1.460154654736e+01
-2.135744598214e+01
1.424493711493e+01
1.804205951050e+01
1.790593462593e+01
1.967337588833e+01
2.058500715896e+01
1.423452862967e+01
2.103663171066e+01
1.636503424151e+01
9.861457918309e+00
1.406427539166e+01
2.071351718297e+01
2.009729847986e+01
2.026094262620e+01
1.441832678739e+01
-5.644005679108e+00
2.086603592055e+01
1.840915202545e+01
-2.262123819976e+01
2.059215262389e+01
1.800714522955e+01
-2.616748069615e+01
1.712596977540e+01
1.276201005651e+01
1.889765089888e+01
8.363910655750e+00
1.221406954940e+01
2.078783305588e+01
1.605555177650e+01
1.193786457669e+01
4.360300257799e+00
1.420219415987e+01
1.845609806635e+01
1.329295029327e+01
-1.049261533386e+01
1.092007400527e+01
1.867540328408e+01
9.476207026626e+00
1.949066152775e+01
-1.348624892638e+00
2.092322912552e+01
1.932167772604e+01
1.257901240739e+01
9.812246368447e+00
2.095688313687e+01
2.076113833480e+01
2.102443585193e+01
1.335393944864e+01
2.102390179161e+01
1.118791906917e+01
1.940222762701e+01
1.970419634751e+01
1.542412308275e+01
1.725525244829e+01
1.146393680248e+01
8.007675609968e+00
1.419477803320e+01
1.570703871797e+01
1.432538927940e+01
1.772685428651e+01
-2.227021118502e+01
1.531013253638e+01
5.586452893674e+00
1.192987014147e+01
2.069898779227e+01
1.345907196007e+01
2.101796278467e+01
2.018696482770e+00
2.006145684125e+01
1.451670956165e+01
1.790180527517e+01
2.096074348519e+01
4.462062260411e+00
2.087941754099e+01
1.414243097515e+01
2.089867624605e+01
1.445959864314e+01
1.551870868063e+01
1.177778169293e+01
2.092048659625e+01
-1.277285950883e+00
1.826553302200e+01
1.760462274698e+01
1.442374067545e+01
1.639070133213e+01
1.071458575651e+01
1.892471740581e+01
1.937498578672e+01
2.019249387230e+01
1.974334979413e+01
6.384981856755e+00
1.947353585513e+01
2.105225037924e+01
9.953608724262e+00
3.384254800093e+00
1.348046087722e+01
1.652158131915e+01
1.941928677650e+01
1.795542731202e+01
2.092692219647e+01
1.188571444821e+00
1.863320471679e+01
1.825822547495e+01
-4.009133248780e+01
9.737877764223e+00
2.124344213336e+01
-4.346630019246e+00
1.935404541199e+01
1.700703982429e+01
2.007244238890e+01
2.139002487298e+01
1.513338560695e+01
1.590525116740e+01
2.087855683503e+01
1.735156253613e+01
1.515437527068e+01
1.478804145960e+01
1.734052848107e+01
1.474426437411e+01
1.344890895675e+01
2.020747396313e+01
1.862879118777e+01
-2.729272652444e+01
5.339185588541e+00
8.963792574259e+00
1.441420168870e+01
1.820958457499e+01
7.354717667051e+00
2.132793657348e+01
1.429445867728e+01
1.852376487059e+01
2.138242753675e+01
-1.717613319178e+01
1.766737447286e+01
-2.344721376867e+01
-3.502008688845e+00
2.097867491547e-01
1.538312376383e+01
1.794632137732e+01
1.404110110318e+01
1.187864297858e+01
1.017159203792e+01
7.509566052216e+00
2.126279103197e+01
1.414513316324e+01
2.082738766702e+01
-4.573275036882e+01
1.487510827833e+01
1.893862344566e+01
8.329778374494e+00
2.148089077982e+01
2.086721178514e+01
1.762640412738e+01
1.760101144176e+01
2.114686147430e+01
2.098463436979e+01
1.474961174888e+01
1.732170897773e+01
2.014327155951e+01
1.914944559518e+01
1.224551764521e+01
1.576267489557e+01
1.968828366645e+01
1.535856274902e+01
2.024561984685e+01
1.549526876472e+01
2.356301015924e+00
1.473976124522e+01
1.802782176647e+01
1.349746606266e+01
5.387485585292e+00
1.798591795390e+01
1.531271888511e+01
1.453523937374e+01
1.824235762748e+01
1.793482994061e+01
1.511085178697e+01
2.063199368277e+01
2.056637489545e+01
1.548190515719e+01
1.713741646306e+01
2.037137486036e+01
1.678560170541e+01
1.421101133045e+01
1.980334875953e+01
1.835307213963e+01
1.764927864319e+01
-3.404928367243e+01
1.527441878519e+01
1.895682158609e+01
1.465853519491e+01
1.574208665310e+01
1.623120645767e+01
-5.845292733119e+00
9.529691336070e+00
2.065559426782e+01
1.528957454510e+01
1.522983003845e+01
2.592217361699e+00
1.910296838014e+01
1.730921238544e+01
6.922182667181e+00
1.730045126108e+01
1.027754337957e+01
2.003010266657e+01
1.939016646222e+01
5.760220272194e+00
1.771444347494e+01
5.001829951794e+00
1.971298408363e+01
1.976981885525e+01
1.600531157144e+01
1.770479743170e+01
1.376018831226e+01
1.602924416750e+01
1.562995590735e+01
1.809863126094e+01
1.458244270739e+01
1.938870528964e+01
1.889965432611e+01
2.009909519286e+01
1.045577050775e+01
2.084552044510e+01
1.642567279636e+01
1.541371205623e+01
1.072449654965e+01
2.145077387186e+01
1.969045830459e+01
1.868958475945e+01
1.483466413325e+01
1.990256255694e+01
1.964040285955e+01
2.071628241467e+01
9.196857352756e+00
1.685332627944e+01
2.153731149490e+01
1.239384264520e+01
1.650488163805e+01
2.011990450681e+01
2.142097938591e+01
1.984429340343e+01
1.636386212868e+01
1.800440697079e+01
8.381109633208e+00
1.354367545779e+01
1.541873471211e+01
1.586289789620e+01
1.521025871092e+01
2.032561728411e+01
1.588059696437e+01
1.416705804411e+01
1.939446624898e+01
1.238464179737e+01
1.270173738390e+01
1.436242332031e+01
1.447762573753e+01
1.796220989254e+01
1.872859376536e+01
1.795527688211e+01
1.485833453551e+01
1.425638909671e+01
2.095454397451e+01
2.145155137108e+01
2.056357262462e+01
1.102285773817e+01
1.854159224549e+01
1.946567484039e+01
7.435106136078e+00
1.134195775164e+01
1.848750605924e+01
1.582265739273e+01
8.825915611165e+00
1.276711460712e+01
2.082383051822e+01
2.080477388038e+01
1.850295135611e+01
1.763416691571e+01
2.116402963792e+01
1.224776987673e+01
1.693160859362e+01
1.849813187285e+01
1.557364328716e+01
2.125940660860e+01
2.019120951615e+01
1.850384193184e+01
1.769622486534e+01
1.511612153531e+01
1.499268711925e+01
1.382324791461e+01
1.978189675828e+01
1.974950534016e+01
1.933587861905e+01
2.132091364411e+01
1.828117719797e+01
1.206525349838e+01
1.941029606226e+01
1.213396680023e+01
1.080458694206e+01
1.420846787010e+01
1.641021085924e+01
2.101490326388e+01
1.854840728574e+01
1.575881141882e+01
1.635828144657e+01
1.521591820365e+01
-5.578439049784e+00
1.834519383996e+01
1.610935362566e+01
1.822811316509e+01
-7.095479132766e+00
1.547844066955e+01
1.040812871801e+01
1.672537968854e+01
2.052833793117e+01
2.055291227039e+01
1.419161005816e+01
4.365669573339e+00
1.495569033823e+01
1.873234382469e+01
1.623761351876e+01
1.995414166934e+01
1.348448239681e+01
1.610157380594e+01
2.044818685268e+01
1.824556655576e+01
2.154042123332e+01
1.998295807857e+01
2.005600093845e+01
1.988150145969e+01
1.994208626005e+01
1.668692920288e+01
1.820926842917e+01
1.878382838553e+01
1.343280751762e+01
1.171316291239e+01
1.979440905064e+01
1.847028620868e+01
2.022595691668e+01
1.851441645350e+01
2.047410651443e+01
1.848057414713e+01
1.855018347224e+01
1.583275213458e+01
1.033841658665e+01
1.337382218292e+01
1.944093170757e+01
1.357717395307e+01
1.966893423161e+01
2.004047835215e+01
1.674849657915e+01
2.071253905288e+01
1.639457353506e+01
2.011352378779e+01
1.948592884222e+01
1.637094576104e+01
-2.283611142976e+01
2.021940138107e+01
2.066849870096e+01
1.749929609359e+01
2.077300118815e+01
2.068643428650e+01
-5.580536176424e+01
1.481206682665e+01
1.660547035057e+01
1.616750896670e+01
1.571157639431e+01
1.458171940518e+01
2.032705823583e+01
1.995375878745e+01
1.012435371138e+00
2.092735672151e+01
-2.238721986095e+01
1.199601832557e+01
4.478525192865e+00
1.264890662858e+01
2.083017620313e+01
2.041855368836e+01
1.583442730286e+01
-5.155533122641e+00
-4.418900361497e+00
2.589508100504e+00
2.117127921159e+01
1.422275859443e+01
1.475171546924e+01
2.048361490856e+01
1.429143643371e+01
1.972508600817e+01
1.889419045287e+01
1.605032551530e+01
9.887248628229e+00
2.072663805118e+01
9.546254134374e+00
2.051765376382e+01
1.999431986072e+01
1.991599238372e+01
2.132514423994e+01
1.933037784032e+01
1.650840929910e+01
2.150586140094e+01
2.052786473126e+01
1.637255902165e+01
1.953261477308e+01
1.986763214934e+01
1.653778182157e+01
2.085746025502e+01
-6.177618836293e+00
2.052741093068e+01
1.910812012257e+01
2.017366572914e+01
1.876039714751e+01
-5.293520382732e+01
1.642407636314e+01
1.852227755442e+01
2.027949920991e+01
1.670470616579e+01
1.943340043240e+01
7.887013830942e+00
2.080827132970e+01
1.943827198097e+01
1.927954441758e+01
-2.189664572135e+01
2.037446905192e+01
1.423643510301e+01
2.123897290658e+01
1.556369548420e+01
1.693505579629e+01
1.888491965509e+01
1.639939683599e+01
2.050723688992e+01
1.978534382475e+01
2.139797171668e+01
1.673768725821e+01
2.139373784325e+01
1.955481864093e+01
2.139289617984e+01
1.619044355588e+01
1.824538010471e+01
2.077211591993e+01
1.667737149491e+01
2.034252749007e+01
1.655189526289e+01
1.956107889994e+01
1.905600446012e+01
2.090683608055e+01
2.084356151927e+01
1.872879780844e+01
1.613842346723e+01
2.052710010584e+01
2.095954395098e+01
1.871558635719e+01
-2.216685883408e+01
2.083738493706e+01
1.871090806765e+01
1.808166282279e+01
2.052412665978e+01
2.137558203134e+01
1.207429201938e+01
1.527567845904e+01
2.062721315585e+01
2.119334116425e+01
2.135053302313e+01
1.697265455806e+01
1.313571675415e+01
2.057078922560e+01
1.625544675958e+01
2.003963487478e+01
2.098249364755e+01
1.887921609735e+01
2.118787966107e+01
-4.938076750590e+01
1.629436641860e+01
1.846779580494e+01
2.053982031518e+01
1.819373007617e+01
2.155713051701e+01
1.615223504586e+01
1.744315713562e+01
2.052083077211e+01
1.668656664591e+01
2.060843519293e+01
1.648512331625e+01
2.032634840679e+01
-5.352488209712e+01
1.576231930612e+01
1.909793340256e+01
-5.862081829904e+01
2.029943758992e+01
2.151145635371e+01
1.861082417127e+01
2.132647865271e+01
2.153605264888e+01
1.355324303647e+01
1.295893648546e+01
1.944227560688e+01
1.631618190123e+01
-6.314121493685e+01
7.316044769694e+00
-2.247045575227e+01
1.634931069866e+01
1.892769382492e+01
1.859706092454e+01
2.129121065182e+01
1.752997756047e+01
2.106041739373e+01
2.127411181344e+01
9.198325542657e+00
1.901601717991e+01
1.744221893299e+01
2.085544005225e+01
2.051610453464e+01
1.970805335714e+01
2.041515616274e+01
2.143945892386e+01
2.118833496818e+01
9.752172501685e+00
2.135781374070e+01
-4.157626345089e+00
2.000235947687e+01
2.061445550900e+01
-2.085975365869e+01
1.932418045946e+01
1.877316943547e+01
-6.153152574999e+01
1.290369743957e+01
1.295032889892e+01
2.125829659187e+01
1.740625576539e+01
1.855961881733e+01
1.118822994831e+01
2.106357823081e+01
1.997780380798e+01
1.823728779489e+01
1.161688548913e+01
-1.308524002988e+00
1.288870146156e+01
1.311390431371e+01
1.316239058673e+01
-5.795714469851e+01
-2.127419056937e+01
-3.562874991490e+00
1.476133902793e+01
-2.040579912372e+01
2.005983057913e+01
-4.707280856810e+01
1.686287356009e+01
1.694145319321e+01
1.301036625567e+01
1.904310305102e+01
2.150110903627e+01
1.625149840831e+01
1.802981230293e+01
-4.021077807764e+00
1.974147644672e+01
1.967093527634e+01
1.559232664259e+01
1.306148717561e+01
1.808321087559e+01
1.966697689482e+01
1.582960534630e+01
1.295940880641e+01
1.296228965123e+01
1.177856582197e+01
1.985939113656e+01
1.964524120261e+01
-2.085147686003e+01
-5.765169968383e+01
3.449311859143e+00
2.083567823983e+01
2.083500022122e+01
-3.883636531805e+01
1.824813196478e+01
-4.885950398575e+01
2.151606576110e+01
-4.561392631069e+01
-4.217631016323e+01
2.157953245290e+01
2.091244952503e+01
1.687969352691e+01
1.384439446291e+01
-2.070560379995e+01
2.105409696669e+01
1.970552211487e+01
1.966793824929e+01
1.305287699537e+01
2.141258943788e+01
1.973586327872e+01
1.953498105590e+01
-4.554887454160e+00
-2.055752245091e+01
-2.111533525426e+01
1.896488358298e+01
2.073410488407e+01
1.931551721255e+01
-5.766134369373e+01
1.997142058360e+01
2.049667254398e+01
2.077881785458e+01
2.083331828404e+01
1.771762494582e+01
1.849162642119e+01
2.048237982196e+01
2.049020720614e+01
1.824546021798e+01
8.999999999681e+01
1.314320395225e+01
1.312747406541e+01
-5.774035579287e+01
2.050020282266e+01
2.086458296248e+01
2.049338798754e+01
-6.109917579481e+01
-6.074681585942e+01
2.050763929105e+01
2.050299799742e+01
1.742365019605e+01
1.318113228625e+01
1.798595466191e+01
1.586747738164e+01
1.318585971059e+01
-6.204194053752e+01
-5.998716021816e+01
-5.957250498421e+01
-5.650461788344e+01
2.024530182169e+01
1.967740170950e+01
-5.778478205553e+01
2.092985978938e+01
-5.702045111347e+01
1.979815462728e+01
1.972202857762e+01
1.974892937897e+01
7.677176417911e+00
1.666238890955e+01
1.971058335235e+01
2.096237369532e+01
1.973409115324e+01
2.088896683541e+01
2.077044677789e+01
1.933976155658e+01
1.966088846446e+01
1.967597219689e+01
2.090761301964e+01
2.082281205885e+01
2.102146106560e+01
-5.112414812400e+01
1.965743735649e+01
-2.134166362978e+01
2.100714863926e+01
2.018743854995e+01
2.106277868549e+01
1.335666808117e+01
-4.978230865676e+00
2.095817898679e+01
2.009926535877e+01
1.865189536402e+01
2.102936928361e+01
1.889185468640e+01
1.853164781087e+01
2.134985435370e+01
2.133065666734e+01
2.107650833236e+01
2.105295277991e+01
2.018257309602e+01
1.220305761187e+01
1.768957935055e+01
2.115409354124e+01
2.098986562063e+01
2.103137001170e+01
1.448322785008e+01
1.884773365548e+01
1.840855154335e+01
1.503123171459e+01
2.122681367985e+01
2.111669067959e+01
1.890449302012e+01
1.866135718253e+01
2.119199558042e+01
2.088779216043e+01
1.826420176819e+01
2.098777962104e+01
2.092232557552e+01
1.885469951590e+01
1.753023269150e+01
2.136270610072e+01
1.381230685196e+01
1.330518710951e+01
-1.454129216121e+00
-2.204957535617e+01
1.865181807518e+01
2.093571594771e+01
-2.238951286299e+01
1.870204908256e+01
1.548131380330e+01
2.106970698806e+01
2.102020672426e+01
1.893267426380e+01
2.100431451281e+01
1.499913730593e+01
2.080782763333e+01
2.084775514124e+01
1.330947832280e+01
2.098215294621e+01
1.786946196628e+01
1.484705143444e+01
1.563650195254e+01
2.059336267876e+01
1.677594830909e+01
1.867787434941e+01
1.817607132955e+01
1.723716042863e+01
2.067016660656e+01
2.102846923885e+01
2.103547878093e+01
1.788771068052e+01
1.093435350848e+01
2.040790213035e+01
2.048975350069e+01
1.810233473608e+01
1.993390930942e+01
2.117351227531e+01
2.103801241280e+01
1.753926112736e+01
-4.391885729884e+00
-1.928620314037e+00
1.400974607537e+01
2.101165998123e+01
1.718230857498e+01
2.074248920144e+01
1.594146013060e+01
2.118669836037e+01
2.072852956428e+01
2.106243073689e+01
1.366833767897e+01
2.099958245108e+01
2.052798341887e+01
1.475648053290e+01
2.028795348268e+01
1.899522767571e+01
1.657390368879e+01
2.081238052911e+01
-5.707389953604e+01
-5.628820539706e+01
2.104414353194e+01
1.242359593213e+01
2.112093386166e+01
2.114968393735e+01
1.987237567570e+01
1.679385881925e+01
1.852406846113e+01
-2.614533948053e+00
1.931009725195e+01
2.108832162992e+01
1.027085430498e+01
1.642047302820e+01
1.548085187276e+01
9.493120072416e+00
2.112387441767e+01
1.768851530693e+01
1.260009056920e+01
1.871075743977e+01
1.874003331340e+01
1.405667405760e+01
1.039623695240e+01
1.448758709763e+01
2.105191734655e+01
2.078135662917e+01
1.874968094940e+01
1.854763572077e+01
2.108878746724e+01
2.117050522019e+01
1.159568509413e+01
2.111291675324e+01
1.771644408923e+01
2.069544238977e+01
1.716184680771e+01
1.801738378484e+01
2.044234095347e+01
1.834108866396e+01
2.016161581561e+01
2.063065073430e+01
1.838613195095e+01
1.907122427637e+01
1.745973826606e+01
2.100107414358e+01
1.542720720277e+01
3.267466922221e+00
1.743355749267e+01
1.568069412193e+01
2.097723028866e+01
1.780246675477e+01
2.113069630820e+01
2.070169125589e+01
1.979304151956e+01
1.425838390161e+01
6.468859002477e+00
2.116734501264e+01
1.687879428277e+01
-2.234019269757e+00
1.840564786137e+01
1.190726548946e+01
1.674771735478e+01
1.871832124672e+01
2.128095435596e+01
1.827607644703e+01
1.839661242172e+01
1.744846902267e+01
2.124856496072e+01
1.282881074050e+01
2.121240376371e+01
2.043947327688e+01
2.120307777891e+01
2.012483178366e+01
1.208765859990e+01
1.603758485526e+01
2.139473070669e+01
1.483125513718e+01
1.685529396651e+01
1.469397885960e+01
1.697070220814e+01
1.042129383705e+01
2.109898437753e+01
2.132513753583e+01
2.061059716397e+01
1.897974956959e+01
2.120486209799e+01
1.107393066948e+01
2.128581525559e+01
2.110644834089e+01
1.800285897776e+01
2.111918185533e+01
1.778330692699e+01
1.594852238579e+01
2.125218858724e+01
1.577166304271e+01
1.591231565001e+01
1.800863150637e+01
1.690117652024e+01
2.127421128833e+01
1.251603241079e+01
1.717735993614e+01
1.736054623948e+01
1.643822320093e+01
1.619129378185e+01
2.051987022970e+01
2.119306041008e+01
2.131125997383e+01
1.592914331918e+01
1.897685390659e+01
2.040976897125e+01
2.134133619925e+01
1.804203516793e+01
1.934069054719e+01
1.872660240659e+01
1.143202101606e+01
2.134243117998e+01
1.904552069508e+01
1.704622349901e+01
1.662107274577e+01
2.081474488315e+01
1.786891323282e+01
1.961435806007e+01
1.830762695546e+01
1.904487250336e+01
1.308348795795e+01
2.125726960734e+01
2.065376128734e+01
1.831989135326e+01
2.100329506480e+01
2.145862899446e+01
2.128237742217e+01
1.863184346800e+01
1.286129004767e+01
2.120742179561e+01
2.108033149641e+01
1.808196328449e+01
1.967918757190e+01
2.141337884553e+01
1.707585546203e+01
1.958109251866e+01
1.571320015678e+01
1.721406604317e+01
1.619375404662e+01
1.986808261695e+01
1.644609129101e+01
1.506297743514e+01
2.103174029330e+01
2.140324111480e+01
1.908011778285e+01
-5.730032328830e+01
2.115739803165e+01
2.094269633808e+01
2.021818998770e+01
1.665212333563e+01
2.104059975062e+01
1.794524511694e+01
2.031217051408e+01
1.812434908017e+01
1.779183675062e+01
2.220504365896e+00
9.111721489523e+00
1.746278977068e+01
1.872906077457e+01
2.122516303886e+01
2.067404271484e+01
1.120158782930e+01
9.132976057694e+00
1.600097317560e+01
1.622713954177e+01
2.141633830555e+01
1.898487954081e+01
1.618804985965e+01
1.840827095507e+01
1.918420562938e+01
2.049620641250e+01
1.856644613905e+01
1.345115803753e+01
2.042732304183e+01
1.923717023487e+01
1.678115565333e+01
9.158029362666e+00
1.932137832182e+01
2.058271587690e+01
2.089206951306e+01
1.710188297159e+01
2.128307910146e+01
2.080419143667e+01
2.134813599872e+01
1.835864796512e+01
2.113072768204e+01
1.733046364898e+01
2.124391476014e+01
2.128437962810e+01
1.527129463666e+01
2.113653741883e+01
2.126192773442e+01
1.932972583512e+01
1.691118050555e+01
1.521439275124e+01
1.660319901120e+01
1.855942836783e+01
2.144102684705e+01
1.713823255816e+01
1.700768505130e+01
1.589168957913e+01
1.162274464755e+01
1.928926431556e+01
8.835362385761e+00
2.076458332940e+01
1.880532848897e+01
2.121951651730e+01
1.630663025410e+01
1.815835710587e+01
2.104297892847e+01
2.091242953014e+01
1.886328828202e+01
2.137101659383e+01
1.759237284963e+01
2.154526697549e+01
1.406783700560e+01
1.783646174207e+01
1.990120190233e+01
2.112160266121e+01
2.072870781541e+01
1.627645192146e+01
1.580492453320e+01
2.095641415458e+01
2.143993508731e+01
2.144212795959e+01
6.335286424009e+00
1.861157033270e+01
2.130607805666e+01
2.093506085492e+01
1.712923165677e+01
1.906666805531e+01
1.874688587187e+01
1.878216387536e+01
1.288042849484e+01
1.803907798051e+01
2.129896786396e+01
1.893318687673e+01
1.748778511514e+01
2.074697429100e+01
2.112412203226e+01
1.787562868161e+01
1.865124389055e+01
1.795965206746e+01
1.762734359152e+01
2.126016511096e+01
2.063202255903e+01
2.133881134227e+01
2.137542925558e+01
1.076837054565e+01
2.109425399593e+01
1.737828188083e+01
1.525207696476e+01
2.107315836478e+01
2.151210158570e+01
2.096598297063e+01
1.738509262723e+01
2.090811118502e+01
2.098638872710e+01
1.370245889939e+01
2.106525661067e+01
1.680663986590e+01
1.411170552336e+01
-8.775016279010e+00
2.120309274422e+01
2.134546137474e+01
1.895936924246e+01
2.111738875001e+01
2.127065190839e+01
1.693752021163e+01
-9.980065233728e+00
2.128312138926e+01
2.111833925813e+01
1.434519389120e+01
2.131391874931e+01
1.593453375549e+01
2.129771496835e+01
2.121981203260e+01
2.116723602647e+01
1.793059249130e+01
1.937380474476e+01
2.111649276431e+01
-1.694221524520e+01
1.721958242472e+01
2.033703470802e+01
1.819139220475e+01
2.117457723942e+01
2.091440182769e+01
2.089324396659e+01
6.561955317751e+00
1.847782688185e+01
1.606205168108e+01
-2.283655831001e+01
1.894482366475e+01
1.899290339654e+01
1.417073335196e+01
1.697595890678e+01
1.752936171633e+01
2.085386550107e+01
1.642583700899e+01
1.727854137257e+01
9.647214041008e+00
1.491252992343e+01
1.273856239167e+01
2.116050615291e+01
1.968574035773e+01
-7.593670158146e+00
2.116398254796e+01
2.051152008897e+01
1.711455663524e+01
1.290125266040e+01
2.104149682462e+01
1.196571543186e+01
1.762798983249e+01
2.099226571821e+01
2.111483962000e+01
2.047084891049e+01
1.470715301975e+01
1.768166273660e+01
2.078802530753e+01
1.726076145164e+01
1.894521921530e+01
1.806966257344e+01
1.829917613131e+01
1.539548795192e+01
2.120140761355e+01
1.778892501395e+01
2.010092203425e+01
1.381364106032e+00
2.060458305106e+01
1.780569355164e+01
1.687427089029e+01
2.063632874047e+01
1.041189073179e+01
1.816727776260e+01
2.113859892944e+01
1.877635225051e+01
1.898987432815e+01
2.098345450800e+01
1.837464555755e+01
2.027828828449e+01
1.870111289884e+01
6.530316516282e+00
1.902467909555e+01
9.805431882942e+00
1.096390767141e+01
2.083309274418e+01
1.208220236050e+01
1.925911398486e+01
1.909437621740e+01
2.110596315821e+01
1.573537254272e+01
2.102879800368e+01
1.868238662994e+01
1.901364209677e+01
2.129512805835e+01
2.067465247770e+01
2.140810269866e+01
1.833524789469e+01
2.125711645728e+01
2.110285113209e+01
1.810920458729e+01
1.800025291746e+01
2.132310565023e+01
2.071176000256e+01
1.909087644524e+01
1.686129956662e+01
1.484560489400e+01
1.686615605701e+01
1.556818007176e+01
1.683685739423e+01
2.101770708078e+01
1.775037348523e+01
2.064774843291e+01
1.771204425211e+01
2.122257288164e+01
1.845061215689e+01
1.919616977252e+01
1.675700962474e+01
2.133698619129e+01
2.104774927115e+01
2.115586933567e+01
1.772267336193e+01
1.884196510388e+01
1.931660024094e+01
2.133695458535e+01
1.646183626656e+01
1.974977861984e+01
1.858116855127e+01
2.028767136224e+01
2.114178122722e+01
2.130527382128e+01
1.540063860097e+01
2.131909657890e+01
1.700994504357e+01
2.097158415274e+01
1.739497070846e+01
1.930688863693e+01
1.661458737965e+01
1.579753470949e+01
1.733663291529e+01
2.081833393206e+01
2.119283086570e+01
1.744691942201e+01
1.901359485342e+01
1.620771874411e+01
1.990866264634e+01
1.968258528544e+01
1.890360208599e+01
1.904489709130e+01
1.861369500217e+01
2.036695953846e+01
1.772027552474e+01
1.359652927660e+01
1.959921178156e+01
1.395097828708e+01
2.080934756300e+01
1.992320238430e+01
2.067882058370e+01
5.279875413608e+00
1.898812836411e+01
1.384334131459e+01
2.150138904290e+01
1.999340711687e+01
1.740689012323e+01
2.125724046067e+01
1.950238702072e+01
1.128303238619e+00
2.096115848755e+01
1.742475501798e+01
2.031332805220e+01
1.935508307489e+01
-1.158038919508e+01
2.136979459660e+01
1.781500575950e+01
1.670805185516e+01
2.105985978785e+01
2.086589133673e+01
2.104440646089e+01
1.898534307684e+01
2.058810324847e+01
1.761812527500e+01
3.478472104699e-01
1.861576871724e+01
2.081900515496e+01
1.942194971572e+01
1.901432339491e+01
1.859081396282e+01
2.119136755948e+01
1.909639131654e+01
2.052748028195e+01
2.064541232500e+01
2.006680730376e+01
1.815616838484e+01
2.099302875176e+01
2.055329579299e+01
1.890358054430e+01
1.715619227227e+01
2.111871862292e+01
2.123853005730e+01
1.322085733072e+01
1.322294611711e+01
1.731891904622e+01
1.848266612322e+01
2.106275037527e+01
1.758011759162e+01
1.933536394206e+01
2.111773777081e+01
1.992052278796e+01
1.969785421412e+01
1.477579055757e+01
1.896417207766e+01
2.124962164624e+01
1.788563090553e+01
2.080637389272e+01
1.799695407189e+01
1.697361211288e+01
1.707686683282e+01
1.794875566551e+01
1.814513018621e+01
4.335650881244e+00
2.078803442973e+01
1.413117620308e+01
1.712527470330e+01
1.740992968119e+01
2.092334102386e+01
1.227092844110e+01
1.344757105393e+01
1.736533933530e+01
2.052642199616e+01
1.104901953842e+01
1.207207161878e+01
1.703511403499e+01
1.214598290841e+01
2.108126597113e+01
2.125813753978e+01
1.455231591223e+01
2.010347463624e+01
1.857444465204e+01
2.067760906604e+01
2.121215721368e+01
-3.586133323494e+00
2.134526802632e+01
1.754896496184e+01
-3.875756956796e+00
1.860909784996e+01
1.166463237422e+01
1.715285038224e+01
1.708327152435e+01
2.118729955448e+01
2.159345629824e+01
1.881331310563e+01
2.156627343940e+01
1.823206198931e+01
1.774958774702e+01
-1.080962166551e+01
9.739495122980e+00
1.929011455768e+01
1.621745022285e+01
1.969260137821e+01
1.786409618618e+01
1.823783619771e+01
1.936689856368e+01
1.274139411035e+01
1.926656119918e+01
2.112983115284e+01
1.844070018444e+01
2.107874870441e+01
2.104996646133e+01
1.896691152059e+01
2.155620937178e+01
1.751528667720e+01
2.025165440446e+01
2.148118747950e+01
1.936386610718e+01
1.975446168086e+01
2.145500667435e+01
2.010501930687e+01
1.754770436260e+01
1.963779443551e+01
1.739238333075e+01
2.081078929543e+01
2.098017922632e+01
1.949597668858e+01
1.667694276094e+01
2.112732587809e+01
2.106852676848e+01
6.342810182608e+00
1.778067685152e+01
2.092891012783e+01
6.996013894107e+00
2.092017198020e+01
-1.388182999540e+01
2.104641585250e+01
1.926812247886e+01
2.062984726289e+01
2.025595794616e+01
1.663536061264e+01
1.622656572858e+01
1.793727108477e+01
8.441640838710e+00
9.856878623172e+00
2.101642562531e+01
2.141754784235e+01
2.132808107886e+01
2.146059381192e+01
2.141347123276e+01
1.914975351506e+01
8.225195796536e+00
1.532370135457e+01
1.323334485914e+01
2.096086185154e+01
1.974458701896e+01
2.069040909219e+01
2.097136066683e+01
2.121428649714e+01
2.082285814104e+01
2.001846928459e+01
2.059394588334e+01
1.824114358430e+01
1.907444623220e+01
2.114070159695e+01
1.967950969870e+01
1.763601106264e+01
2.124046421272e+01
1.722290615599e+01
1.761777389735e+01
1.962061406604e+01
2.142486830141e+01
2.122128315183e+01
1.714091343815e+01
-1.782021237790e+01
2.038097152053e+01
-4.831821180002e+00
5.979336906461e+00
2.107402628553e+01
1.880468389423e+01
1.660078481669e+01
4.777952781583e+00
1.982907732702e+01
-1.659709348897e+01
6.762636306912e+00
2.156725083323e+01
2.074233593580e+01
1.191538498604e+01
2.059998720116e+01
2.139476355142e+01
1.808981823315e+01
2.049052140172e+01
1.882863697682e+01
1.126261696922e+01
2.086863078124e+01
2.091544933226e+01
1.696088670040e+01
1.354431283327e+01
1.658129558302e+01
2.097759740373e+01
-4.357599302819e+00
-2.199636720499e+01
1.199827709162e+01
2.079976679323e+01
2.056917789844e+01
1.988511943969e+01
1.913223854754e+01
2.106714769982e+01
1.732577455149e+01
2.093352192410e+01
2.088368799796e+01
1.783575264132e+01
1.505650834803e+01
2.037277067730e+01
2.084740215242e+01
2.094459276060e+01
-9.994103661530e-01
2.078452435815e+01
2.093989621976e+01
1.708783166647e+01
1.638379421493e+01
2.244077377689e+00
2.105681424309e+01
1.958607632095e+01
6.162099569928e+00
2.051083766108e+01
1.080526198908e+01
2.030301765518e+01
2.008463668553e+01
4.099357943610e+00
2.088647594045e+01
1.589276302684e+01
1.404489154900e+01
2.096587874796e+01
2.126247231861e+01
2.089108135114e+01
-1.379572055874e+01
1.871580419332e+01
2.068696414274e+01
2.116144989009e+01
1.926078083440e+01
2.104248558440e+01
2.097799387947e+01
2.073250978609e+01
1.286482908654e+00
-1.313608949222e+01
2.101855816595e+01
2.127642627558e+01
1.920490484680e+01
1.819044332787e+01
5.288014661095e+00
1.798522539929e+01
2.103008980961e+01
-3.344199314864e+01
1.972166639864e+01
2.049059023021e+01
1.476414043083e+01
2.047035184405e+01
1.867095560795e+01
2.028215806804e+01
2.338452942898e+00
-1.968000928529e+01
1.903103446722e+01
1.695998600264e+01
1.306544712575e+01
2.038089403538e+01
1.379670220754e+01
2.054954594164e+01
1.697316851771e+01
2.018298096766e+01
1.867692267615e+01
2.044921224526e+01
7.595684640828e+00
1.990137950214e+01
1.766944623747e+01
2.092416553153e+01
2.075150552711e+01
1.832290279716e+01
-4.277837203011e+01
2.092454065920e+01
1.792748190428e+01
1.946325576361e+01
1.843540144042e+01
1.894060787344e+01
1.092390853190e+01
-1.122503298740e+01
-4.550557257683e+00
1.838560771652e+01
2.138016032358e+01
1.972121826746e+01
1.835482729059e+01
1.924716855045e+01
-2.781519766844e+00
1.771578557863e+01
1.955152612365e+01
2.046705152303e+01
-3.247746288109e+00
7.850778821348e+00
2.130261769670e+01
1.813185934825e+01
2.154285225345e+01
2.643736016289e+00
2.141399293007e+01
7.953011622825e+00
1.993362827285e+01
2.159799133331e+01
1.931674308123e+01
1.685582804578e+01
1.794935785645e+01
3.140912769178e+00
2.159107633703e+01
6.466448148023e+00
-2.251751311580e+01
1.909589779950e+01
1.870326160164e+01
-2.300386341767e+01
2.139390196630e+01
1.497363702186e+01
1.616408969540e+01
1.879118816813e+01
1.950284271083e+01
1.866909628595e+01
2.052558360862e+01
1.316298542716e+01
2.071062736218e+01
1.365312097740e+01
2.101823009642e+01
1.959394590818e+01
9.442338387968e+00
1.776583841655e+01
2.109438729206e+01
-5.175568439274e+00
2.039548095838e+01
2.099518875852e+01
1.767331606495e+01
8.368885404372e+00
2.053259500634e+01
1.847453234474e+01
2.022622333504e+01
1.922183614053e+01
1.600271373421e+01
1.992419856350e+01
1.668341338912e+01
-5.675717944730e+00
1.983932179237e+01
1.954039985905e+01
1.542606478006e+01
1.926319254064e+01
1.962547020810e+01
2.106495041617e+01
2.032210316554e+01
2.094200935882e+01
-4.374144860389e+01
1.490667922805e+01
2.073413359340e+01
1.877901638394e+01
2.011375945474e+01
-1.405094384508e+01
-9.086839667358e+00
1.523190671238e+01
2.031065978660e+01
1.678423110429e+01
1.988651292047e+01
2.076059751036e+01
2.082366216689e+01
2.086427936617e+01
1.420052625689e+01
-3.055669956041e+01
-6.608997965855e+00
8.318283118579e+00
-7.187236772786e+00
1.978641580382e+01
1.970137500569e+01
2.013440375626e+01
-6.410211856659e+00
1.880327633685e+01
1.983850159908e+01
1.903424981781e+01
1.839379557100e+01
1.966762878593e+01
2.072259315789e+01
1.546943094309e+01
2.002467303549e+01
-1.646860069551e+01
2.056496672362e+01
2.050085305150e+01
-1.014284558830e+01
-8.501664444486e+00
2.092460487168e+01
1.434938069176e+01
1.908549568102e+01
1.848730246139e+01
2.039133992246e+01
1.853733072984e+01
1.560549418518e+01
1.750168926476e+01
1.797989996129e+01
1.737748477231e+01
2.007189800559e+01
1.290787657169e+01
1.444629728725e+01
1.537051338252e+01
1.566160216139e+01
5.575405477065e+00
1.681259825275e+01
1.939997629765e+01
1.650364158815e+01
2.070409902692e+01
1.921168876671e+01
1.778544198788e+01
1.901632075167e+01
1.946754066594e+01
1.895771231423e+01
2.098018013779e+01
-2.410879441856e+01
1.529689009664e+01
2.045825712451e+01
4.182735899610e+00
1.444965359074e+01
2.111511751727e+01
-7.289427737053e+00
-2.347543722156e+01
1.967247066327e+01
1.307738158778e+01
1.931721246985e+01
2.082818274085e+01
1.307136700260e+01
-2.839944293785e+01
1.942893596989e+01
5.989439053482e+00
1.914905888445e+01
2.049575572550e+01
1.916864868804e+01
1.209343387024e+01
1.521618309625e+01
1.954638496182e+01
1.989153995849e+01
2.067838044572e+01
1.802642982910e+01
2.080459212035e+01
-6.660445400926e+00
2.078768018450e+01
1.373473159166e+01
4.232090850944e+00
2.097922791629e+01
1.939406240249e+01
1.947241006868e+01
1.432741082285e+01
1.529734469940e+01
7.106224840482e+00
1.957557087486e+01
1.813561485530e+01
-2.809892194405e+00
2.022250933250e+01
1.311347935994e+01
1.918845234484e+01
1.964513453729e+01
1.972744750197e+01
8.999999999681e+01
-5.345893787379e+01
1.337379297909e+01
1.320249084319e+01
2.049387477073e+01
2.067305050433e+01
-2.471388033356e+01
-4.436844520619e+01
2.081009299326e+01
1.996756687470e+01
8.599907507088e+00
2.081997081342e+01
2.079483316474e+01
2.046392656454e+01
1.692672489766e+01
7.466399053521e+00
1.971100903004e+01
4.043937253770e+00
1.998076081726e+01
1.938793806464e+01
1.893434545998e+01
2.031057174215e+01
1.609880239837e+01
1.965771620035e+01
1.879876380623e+01
1.832838219217e+01
1.314440846432e+01
1.995652115781e+01
1.917552959701e+01
1.564755303512e+01
-2.240040124860e+01
1.940940923264e+01
2.108048937783e+01
3.423191270652e+00
1.741224609443e+01
2.064945272896e+01
1.963889422954e+01
1.976586529799e+01
2.092782791463e+01
-2.581890075627e+01
-3.654324547026e+01
8.294571233935e+00
1.516163162657e+01
1.983806306182e+01
1.917900601561e+01
2.069270578238e+01
-6.110022379514e+00
-6.646705610465e+00
-1.266030385418e+01
1.758774541612e+01
1.757049017885e+01
1.918144518681e+01
7.965063285187e+00
2.082268176636e+01
1.523791303399e+01
2.035017632257e+01
1.976746993822e+01
1.512689759889e+01
2.099273092255e+01
1.941875553217e+01
1.939741926928e+01
-8.744375573865e+00
1.904630296805e+01
1.987707477956e+01
2.093394719003e+01
2.009361705747e+01
2.050019145238e+01
1.833226146883e+01
-4.110255491985e+01
1.538431827194e+00
1.900344389085e+01
1.594277536049e+01
2.079881569461e+01
1.996677415330e+01
2.064836207961e+01
1.816302802220e+01
2.044286217847e+01
2.092148326764e+01
2.100144577260e+01
1.785369844189e+01
2.073768661709e+01
1.417163000940e+01
1.906631605380e+01
-5.811511659464e+00
1.874774686427e+01
1.744798041512e+01
-4.216637410227e+00
8.780069731741e+00
1.863933351879e+01
1.943515722858e+01
1.914049249135e+01
2.065179483680e+01
1.605140498036e+01
-2.276420114633e+01
-1.095701094909e+01
-1.757277611309e+01
1.229791924811e+00
-3.169790419953e+01
1.981835953733e+01
2.082309019943e+01
1.918188444104e+01
1.581907963350e+01
1.917423418003e+01
2.096548005736e+01
2.114345127862e+01
2.046675939581e+01
1.963963555452e+01
1.907350404033e+01
-6.123100812584e+00
-1.129340677854e+01
2.086522208810e+01
-4.101595063694e+00
4.241643817465e-01
-1.414660690635e+01
-7.559523004797e+00
2.072160368460e+01
1.973495260059e+01
1.920310046052e+01
2.036368074557e+01
2.105742759855e+01
1.652822858918e+01
1.978387724368e+01
1.290630627190e+01
1.300157814528e+01
1.582636114637e+00
-2.308020006506e+01
2.072213495819e+01
1.425739207466e+01
3.291948295373e+00
1.979095408473e+01
1.966778103151e+01
1.912678772372e+01
1.949865057364e+01
1.694736649632e+01
-1.065765474518e+01
2.090632284818e+01
1.966283457394e+01
2.074045266813e+01
1.426159455704e+01
2.084891056761e+01
4.140360452006e+00
1.921853429076e+01
-2.477993428040e+01
2.073504136538e+01
1.942124542795e+01
-2.641212041207e+01
1.965796391204e+01
1.788479452320e+01
1.945865383855e+01
2.054426071004e+01
1.708085717668e+01
1.970846992281e+01
1.917280429102e+01
1.748001914198e+01
1.945933452223e+01
1.852390887809e+01
1.315066809665e+01
2.027517550238e+01
1.946393316510e+01
-5.931417299918e+01
1.320395564038e+01
2.068093545897e+01
8.732435824923e+00
2.111410750271e+01
1.911526349489e+01
1.939488994040e+01
7.919196078819e+00
-4.146026293861e+00
2.065314101330e+01
1.848699074044e+01
-3.399968145460e+01
1.949615031846e+01
1.687389867374e+01
6.980109827172e+00
1.631568041712e+01
2.026870179650e+01
2.070935104039e+01
-2.869787633484e+01
1.813532432861e+01
2.028838687862e+01
2.072732210946e+01
2.045223642502e+01
2.019606817024e+01
2.034698924547e+01
-8.592485878936e+00
2.092551324607e+01
1.942901319035e+01
4.661355422544e+00
1.945193163786e+01
2.064890390428e+01
1.433153524642e+01
1.685822548867e+01
2.011468293340e+01
2.016789217369e+01
2.045190727657e+01
2.099807042186e+01
3.021743189308e+00
1.954969412578e+01
1.535435077973e+01
1.939751030815e+01
2.089684119735e+01
1.628282420515e+01
1.920970542735e+01
2.051864774206e+01
2.058355129324e+01
-2.518788806056e+01
1.918934229535e+01
1.943192477204e+01
-7.969051481640e+00
1.986721425126e+01
-2.767554949229e+01
1.937504756563e+01
-5.029524383582e+01
-5.560085791143e+01
-5.540118434607e+01
-5.592878177985e+01
-5.574230383663e+01
-5.585346807626e+01
-5.577662004592e+01
-5.579786934097e+01
-5.575945989358e+01
-5.576591121904e+01
-5.572239504293e+01
-5.575213164536e+01
-5.567291813563e+01
-5.575212402051e+01
-5.561185287771e+01
-5.575840858965e+01
-5.553853428440e+01
-5.577039638543e+01
-4.535097313530e+01
-5.545162274505e+01
-5.578757807204e+01
-5.534910888210e+01
8.852607961037e+01
-5.581349208319e+01
-4.855312958078e+01
-5.522860049026e+01
-5.585542304560e+01
-5.508546644281e+01
-5.589227859029e+01
-5.491927507013e+01
-5.595646396872e+01
-5.472436706823e+01
-5.599216315857e+01
-3.239568401705e+01
-5.450969251826e+01
-5.602925671494e+01
-5.425077489212e+01
-5.583590976946e+01
-5.603554771581e+01
-5.399439374255e+01
-5.545929183341e+01
-5.365355338437e+01
-5.599617480361e+01
-5.308058911757e+01
-5.338616442538e+01
-5.294545648645e+01
8.999999999681e+01
-5.040149724698e+01
-4.834993000101e+01
-5.957310537919e+01
-4.042751530714e+01
-4.099884006499e+01
-1.958341302773e+01
-1.761084343176e+01
-1.763017496289e+01
-1.744999359214e+01
-1.751561080214e+01
-1.739853339610e+01
-1.747913976780e+01
-1.735312332168e+01
-1.744755542007e+01
-1.730766191386e+01
-1.741769652887e+01
-1.726111376567e+01
-1.738698414886e+01
-1.721414622128e+01
-1.735794670618e+01
-1.716307584212e+01
-1.732401303360e+01
-1.329991085705e+01
-1.710754603643e+01
-1.728242003897e+01
-1.642156113459e+01
-1.704750612305e+01
-1.723063851476e+01
-1.698668855757e+01
-1.717391279970e+01
-1.693117994337e+01
-2.123215663512e+01
-1.711993823014e+01
-1.687020734504e+01
-1.704137474618e+01
-1.682161383931e+01
-1.695551362260e+01
-1.676838054138e+01
-1.682228344140e+01
-1.678701496499e+01
-1.677216674368e+01
-1.676097696713e+01
-1.273982465801e+01
-1.689588667674e+01
-1.651869385574e+01
-1.675999379752e+01
-1.655835145536e+01
-1.554872648821e+01
-2.476266065590e+01
-1.653454095868e+01
-1.916672433159e+01
-1.275547727607e+01
-2.473144333855e+01
-1.925621280808e+01
-1.697034748936e+00
-2.566690229138e+00
-2.590335752061e+00
-2.643371964026e+00
-2.638749609825e+00
-2.635420507912e+00
-2.627283883837e+00
-2.620839400267e+00
-2.613348552265e+00
-2.605445961070e+00
-2.600874504065e+00
-2.586724323829e+00
-2.589637903942e+00
-2.573253724237e+00
-2.584886560410e+00
-2.561066080054e+00
-1.137647830792e+00
-2.582914096954e+00
-2.541000569634e+00
-4.621011667637e+00
-2.578222378068e+00
-2.514604918771e+00
-2.634182459591e+00
-2.574841819366e+00
-2.488078658309e+00
-2.579020831999e+00
-2.466311199600e+00
-2.595430768371e+00
-2.457793513896e+00
-1.280561442586e+00
-2.612906716017e+00
-2.390158043003e+00
-2.626547813609e+00
-2.381036753362e+00
-2.227796106493e+00
-2.644453093846e+00
-2.359573767285e+00
-2.685292187945e+00
-1.943832972168e+00
-2.732643050716e+00
-6.199240991078e+00
-2.786370087136e+00
-1.571886993754e+00
-5.009701906011e+00
-9.324308437372e-03
-4.443656292488e+00
4.185358711430e+00
4.633550997286e+00
4.642771115333e+00
4.646056872494e+00
4.649189954682e+00
4.647550106567e+00
4.653949408316e+00
4.641661874166e+00
4.652475923015e+00
4.636258451211e+00
4.652903568756e+00
4.629782473381e+00
4.655506467395e+00
4.619054279244e+00
4.651830864091e+00
5.103243840521e+00
4.591361752927e+00
4.297473848320e+00
4.634312576086e+00
4.572824349466e+00
4.634566175428e+00
4.554895161336e+00
4.635607936189e+00
4.523650497673e+00
3.196156417161e+00
4.626021892746e+00
4.484320358851e+00
4.614044567063e+00
4.432717788298e+00
4.577829436177e+00
4.390699752856e+00
4.629188356403e+00
4.372101878604e+00
4.318703291988e+00
4.592552320542e+00
4.951729977249e+00
4.767272606321e+00
2.384485182055e+00
4.924896547290e+00
4.152359562668e+00
5.821223549168e+00
3.042553462118e+00
3.044540692922e+00
9.124381957650e+00
8.810347809459e+00
8.789631551301e+00
8.762535360518e+00
8.753525736104e+00
8.767690285689e+00
8.753458259613e+00
8.748541414256e+00
8.726143022480e+00
8.743599883104e+00
8.715434880604e+00
8.730376291545e+00
8.691693744486e+00
8.870977547312e+00
8.731936939138e+00
8.673371965941e+00
7.651852222167e+00
8.686270672805e+00
8.625345322263e+00
8.345436452022e+00
8.675848360410e+00
8.602194113889e+00
8.671803321769e+00
8.569566238487e+00
8.641923396144e+00
8.707608340407e+00
8.517818584790e+00
8.615396871798e+00
8.603144488965e+00
8.474759133565e+00
8.504266886485e+00
8.428976345236e+00
8.669623806600e+00
8.358900927546e+00
7.150005123081e+00
8.639719726204e+00
9.214620163819e+00
8.023638284709e+00
9.678041597775e+00
7.479534155082e+00
1.136317463682e+01
1.145691320998e+01
1.146329131586e+01
1.147859257932e+01
1.146435939801e+01
1.148066783420e+01
1.147852115591e+01
1.143352616270e+01
1.143061902356e+01
1.142879659813e+01
1.143524643384e+01
1.140334806679e+01
1.141864721953e+01
1.140411059586e+01
1.111525227213e+01
1.135085002522e+01
1.139511103618e+01
1.134397482596e+01
1.134164899781e+01
1.131051423880e+01
1.133859475811e+01
1.126784403269e+01
1.056749335708e+01
1.131695543255e+01
1.121578272736e+01
1.126248215266e+01
1.115989838532e+01
1.112224435457e+01
1.123519968464e+01
1.124849876387e+01
1.128308899881e+01
1.022956281246e+01
1.157650735275e+01
1.132253355515e+01
1.202057816058e+01
1.081924408910e+01
1.041335468338e+01


