# vtk DataFile Version 2.0
Calculation C:\Users\johan\Documents\GitHub\TOCHNOG\standsicherheit_phiC at time 1.000000000000e+01 
ASCII
DATASET UNSTRUCTURED_GRID
Field FieldData 1
Time 1 1 double
1.000000000000e+01

POINTS 1047 float
0.0 0.0 0.0 
5.000000000000e+01 -1.000000000000e+01 0.0 
0.0 -2.000000000000e+01 0.0 
5.000000000000e+01 -2.000000000000e+01 0.0 
0.0 -9.999999999991e-01 0.0 
0.0 -1.999999999998e+00 0.0 
0.0 -2.999999999997e+00 0.0 
0.0 -3.999999999994e+00 0.0 
0.0 -4.999999999991e+00 0.0 
0.0 -5.999999999988e+00 0.0 
0.0 -6.999999999985e+00 0.0 
0.0 -7.999999999982e+00 0.0 
0.0 -8.999999999983e+00 0.0 
0.0 -9.999999999985e+00 0.0 
0.0 -1.099999999999e+01 0.0 
0.0 -1.199999999999e+01 0.0 
0.0 -1.299999999999e+01 0.0 
0.0 -1.399999999999e+01 0.0 
0.0 -1.499999999999e+01 0.0 
0.0 -1.599999999999e+01 0.0 
0.0 -1.700000000000e+01 0.0 
0.0 -1.800000000000e+01 0.0 
0.0 -1.900000000000e+01 0.0 
4.900000000001e+01 -2.000000000000e+01 0.0 
4.800000000001e+01 -2.000000000000e+01 0.0 
4.700000000002e+01 -2.000000000000e+01 0.0 
4.600000000003e+01 -2.000000000000e+01 0.0 
4.500000000004e+01 -2.000000000000e+01 0.0 
4.400000000004e+01 -2.000000000000e+01 0.0 
4.300000000005e+01 -2.000000000000e+01 0.0 
4.200000000006e+01 -2.000000000000e+01 0.0 
4.100000000006e+01 -2.000000000000e+01 0.0 
4.000000000007e+01 -2.000000000000e+01 0.0 
3.900000000008e+01 -2.000000000000e+01 0.0 
3.800000000009e+01 -2.000000000000e+01 0.0 
3.700000000009e+01 -2.000000000000e+01 0.0 
3.600000000010e+01 -2.000000000000e+01 0.0 
3.500000000011e+01 -2.000000000000e+01 0.0 
3.400000000011e+01 -2.000000000000e+01 0.0 
3.300000000012e+01 -2.000000000000e+01 0.0 
3.200000000013e+01 -2.000000000000e+01 0.0 
3.100000000013e+01 -2.000000000000e+01 0.0 
3.000000000013e+01 -2.000000000000e+01 0.0 
2.900000000013e+01 -2.000000000000e+01 0.0 
2.800000000013e+01 -2.000000000000e+01 0.0 
2.700000000013e+01 -2.000000000000e+01 0.0 
2.600000000013e+01 -2.000000000000e+01 0.0 
2.500000000013e+01 -2.000000000000e+01 0.0 
2.400000000013e+01 -2.000000000000e+01 0.0 
2.300000000013e+01 -2.000000000000e+01 0.0 
2.200000000013e+01 -2.000000000000e+01 0.0 
2.100000000013e+01 -2.000000000000e+01 0.0 
2.000000000013e+01 -2.000000000000e+01 0.0 
1.900000000013e+01 -2.000000000000e+01 0.0 
1.800000000013e+01 -2.000000000000e+01 0.0 
1.700000000012e+01 -2.000000000000e+01 0.0 
1.600000000011e+01 -2.000000000000e+01 0.0 
1.500000000011e+01 -2.000000000000e+01 0.0 
1.400000000010e+01 -2.000000000000e+01 0.0 
1.300000000009e+01 -2.000000000000e+01 0.0 
1.200000000009e+01 -2.000000000000e+01 0.0 
1.100000000008e+01 -2.000000000000e+01 0.0 
1.000000000007e+01 -2.000000000000e+01 0.0 
9.000000000064e+00 -2.000000000000e+01 0.0 
8.000000000057e+00 -2.000000000000e+01 0.0 
7.000000000050e+00 -2.000000000000e+01 0.0 
6.000000000043e+00 -2.000000000000e+01 0.0 
5.000000000036e+00 -2.000000000000e+01 0.0 
4.000000000028e+00 -2.000000000000e+01 0.0 
3.000000000021e+00 -2.000000000000e+01 0.0 
2.000000000014e+00 -2.000000000000e+01 0.0 
1.000000000007e+00 -2.000000000000e+01 0.0 
5.000000000000e+01 -1.100000000000e+01 0.0 
5.000000000000e+01 -1.200000000000e+01 0.0 
5.000000000000e+01 -1.300000000000e+01 0.0 
5.000000000000e+01 -1.400000000000e+01 0.0 
5.000000000000e+01 -1.500000000000e+01 0.0 
5.000000000000e+01 -1.600000000000e+01 0.0 
5.000000000000e+01 -1.700000000000e+01 0.0 
5.000000000000e+01 -1.800000000000e+01 0.0 
5.000000000000e+01 -1.900000000000e+01 0.0 
2.000000000000e+01 0.0 0.0 
3.500000000000e+01 -1.000000000000e+01 0.0 
2.150000000000e+01 -1.000000000000e+00 0.0 
2.300000000000e+01 -2.000000000000e+00 0.0 
2.450000000000e+01 -3.000000000000e+00 0.0 
2.600000000000e+01 -4.000000000000e+00 0.0 
2.750000000000e+01 -5.000000000000e+00 0.0 
2.900000000000e+01 -6.000000000000e+00 0.0 
3.050000000000e+01 -7.000000000000e+00 0.0 
3.200000000000e+01 -8.000000000000e+00 0.0 
3.350000000000e+01 -9.000000000000e+00 0.0 
5.000000000000e+01 -9.000000000000e+00 0.0 
4.900000000000e+01 -1.000000000000e+01 0.0 
4.800000000000e+01 -1.000000000000e+01 0.0 
4.700000000000e+01 -1.000000000000e+01 0.0 
4.600000000000e+01 -1.000000000000e+01 0.0 
4.500000000000e+01 -1.000000000000e+01 0.0 
4.400000000000e+01 -1.000000000000e+01 0.0 
4.300000000000e+01 -1.000000000000e+01 0.0 
4.200000000000e+01 -1.000000000000e+01 0.0 
4.100000000000e+01 -1.000000000000e+01 0.0 
4.000000000000e+01 -1.000000000000e+01 0.0 
3.900000000000e+01 -1.000000000000e+01 0.0 
3.800000000000e+01 -1.000000000000e+01 0.0 
3.700000000000e+01 -1.000000000000e+01 0.0 
3.600000000000e+01 -1.000000000000e+01 0.0 
1.900000000000e+01 0.0 0.0 
1.800000000000e+01 0.0 0.0 
1.700000000000e+01 0.0 0.0 
1.600000000000e+01 0.0 0.0 
1.500000000000e+01 0.0 0.0 
1.400000000000e+01 0.0 0.0 
1.300000000000e+01 0.0 0.0 
1.200000000000e+01 0.0 0.0 
1.100000000000e+01 0.0 0.0 
1.000000000000e+01 0.0 0.0 
9.000000000000e+00 0.0 0.0 
8.000000000000e+00 0.0 0.0 
7.000000000000e+00 0.0 0.0 
6.000000000000e+00 0.0 0.0 
5.000000000000e+00 0.0 0.0 
4.000000000000e+00 0.0 0.0 
3.000000000000e+00 0.0 0.0 
2.000000000000e+00 0.0 0.0 
1.000000000000e+00 0.0 0.0 
3.447058823527e+01 -9.000000000000e+00 0.0 
3.544117647055e+01 -9.000000000000e+00 0.0 
3.641176470582e+01 -9.000000000000e+00 0.0 
3.738235294109e+01 -9.000000000000e+00 0.0 
3.835294117637e+01 -9.000000000000e+00 0.0 
3.932352941164e+01 -9.000000000000e+00 0.0 
4.029411764691e+01 -9.000000000000e+00 0.0 
4.126470588219e+01 -9.000000000000e+00 0.0 
4.223529411748e+01 -9.000000000000e+00 0.0 
4.320588235279e+01 -9.000000000000e+00 0.0 
4.417647058811e+01 -9.000000000000e+00 0.0 
4.514705882342e+01 -9.000000000000e+00 0.0 
4.611764705874e+01 -9.000000000000e+00 0.0 
4.708823529405e+01 -9.000000000000e+00 0.0 
4.805882352937e+01 -9.000000000000e+00 0.0 
4.902941176468e+01 -9.000000000000e+00 0.0 
2.075000000000e+01 -5.000000000006e-01 0.0 
2.225000000000e+01 -1.500000000000e+00 0.0 
2.375000000000e+01 -2.500000000000e+00 0.0 
2.525000000000e+01 -3.500000000000e+00 0.0 
2.675000000000e+01 -4.500000000000e+00 0.0 
2.825000000000e+01 -5.500000000000e+00 0.0 
2.975000000000e+01 -6.500000000000e+00 0.0 
3.125000000000e+01 -7.500000000000e+00 0.0 
3.275000000000e+01 -8.500000000000e+00 0.0 
3.425000000000e+01 -9.500000000000e+00 0.0 
2.226951693683e+01 -2.403913980114e+00 0.0 
1.650149491944e+01 -1.913490915758e+01 0.0 
1.050042386896e+01 -8.504605092970e-01 0.0 
1.553146524712e+01 -8.281255032105e-01 0.0 
1.150000000008e+01 -1.913397459621e+01 0.0 
2.530060260647e+01 -4.428336431260e+00 0.0 
8.651114563942e-01 -1.052096295641e+01 0.0 
2.050000000013e+01 -1.913397459622e+01 0.0 
2.819198729811e+01 -6.399519052838e+00 0.0 
2.445670302931e+01 -1.915649188023e+01 0.0 
3.117591465718e+01 -8.394293040695e+00 0.0 
7.465053044742e+00 -1.920411160581e+01 0.0 
6.398295709691e+00 -8.230098819370e-01 0.0 
2.849659607461e+01 -1.914296187762e+01 0.0 
3.418732642882e+01 -1.040265792588e+01 0.0 
8.386450935063e-01 -6.533605142809e+00 0.0 
9.178661865596e-01 -1.329769195597e+01 0.0 
3.149448624493e+01 -1.910466733764e+01 0.0 
3.552916747426e+01 -1.914628590759e+01 0.0 
4.449210346537e+01 -1.914359085008e+01 0.0 
4.140975975145e+01 -1.906941860733e+01 0.0 
3.847475958753e+01 -1.916622382724e+01 0.0 
3.653774794640e+01 -1.088712800241e+01 0.0 
4.047886341787e+01 -1.090139014048e+01 0.0 
4.348006339825e+01 -1.092792621489e+01 0.0 
4.919519968029e+01 -1.451526755068e+01 0.0 
4.500000000032e+00 -1.913397459621e+01 0.0 
1.856136921614e+01 -8.212235170404e-01 0.0 
3.499895312306e+00 -8.661165539723e-01 0.0 
9.076088696565e-01 -1.642306201891e+01 0.0 
4.655174095477e+01 -1.086183387525e+01 0.0 
9.430688970604e-01 -3.496112672958e+00 0.0 
3.353992337063e+01 -1.901202090820e+01 0.0 
2.249746016977e+01 -1.921262287282e+01 0.0 
2.650122741777e+01 -1.916123026018e+01 0.0 
1.863571384842e+01 -1.908325534840e+01 0.0 
1.450089971693e+01 -1.917691901860e+01 0.0 
1.350044695317e+01 -8.659695299584e-01 0.0 
3.849987469880e+01 -1.084154983397e+01 0.0 
9.454419857884e+00 -1.900818879936e+01 0.0 
4.917398660523e+01 -1.645692866081e+01 0.0 
8.500000000000e+00 -8.660254037844e-01 0.0 
8.660319230785e-01 -8.500111697188e+00 0.0 
4.649022621545e+01 -1.930506220113e+01 0.0 
2.667688107845e+01 -5.420288124331e+00 0.0 
2.379251615665e+01 -3.412225477429e+00 0.0 
2.966631491830e+01 -7.389030232731e+00 0.0 
3.267915035995e+01 -9.396934932445e+00 0.0 
2.074836922338e+01 -1.320054020319e+00 0.0 
4.915985743621e+01 -1.261973384855e+01 0.0 
2.527129768623e+00 -1.931592414663e+01 0.0 
1.538676247410e+00 -8.436956619311e-01 0.0 
4.908096641539e+01 -1.842484004551e+01 0.0 
3.478612492673e+01 -1.090889364140e+01 0.0 
3.409757055860e+01 -1.131991530427e+01 0.0 
3.501895309466e+01 -1.177687842717e+01 0.0 
3.407758073088e+01 -1.224293381580e+01 0.0 
3.484541875390e+01 -1.277051428430e+01 0.0 
3.400322025842e+01 -1.319022775640e+01 0.0 
3.321672625034e+01 -1.266779191233e+01 0.0 
3.315244139236e+01 -1.360984106532e+01 0.0 
3.236335186892e+01 -1.308463225210e+01 0.0 
3.478337442841e+01 -1.372341158982e+01 0.0 
3.230105923633e+01 -1.403023731610e+01 0.0 
3.150954055289e+01 -1.350301767700e+01 0.0 
3.144604792090e+01 -1.444931742516e+01 0.0 
3.065653897123e+01 -1.392357262981e+01 0.0 
3.071897610812e+01 -1.297447031198e+01 0.0 
2.986790411740e+01 -1.339226181535e+01 0.0 
2.993181466745e+01 -1.244703272398e+01 0.0 
2.908023061869e+01 -1.286254537734e+01 0.0 
2.901619051372e+01 -1.380881655279e+01 0.0 
2.822986160390e+01 -1.327695262116e+01 0.0 
2.829453476870e+01 -1.233265343811e+01 0.0 
2.744542905518e+01 -1.274510491105e+01 0.0 
2.751120089246e+01 -1.180368086886e+01 0.0 
2.666218649885e+01 -1.221619339205e+01 0.0 
2.672371209234e+01 -1.127125228527e+01 0.0 
2.587763216302e+01 -1.168539979114e+01 0.0 
2.581165585299e+01 -1.262994410089e+01 0.0 
2.502890882577e+01 -1.209827323619e+01 0.0 
2.509631327757e+01 -1.115492410304e+01 0.0 
2.424662989877e+01 -1.156630981079e+01 0.0 
2.431704046904e+01 -1.062389179334e+01 0.0 
2.346445438728e+01 -1.103427680694e+01 0.0 
2.339382552877e+01 -1.197964871788e+01 0.0 
2.260936050780e+01 -1.144513277642e+01 0.0 
2.268075012022e+01 -1.049911928216e+01 0.0 
2.182525737661e+01 -1.090920811464e+01 0.0 
2.189682319817e+01 -9.961716944568e+00 0.0 
2.104174127792e+01 -1.037266986667e+01 0.0 
2.111304367575e+01 -9.424179358711e+00 0.0 
2.025306185381e+01 -9.832727364719e+00 0.0 
2.018141124247e+01 -1.079140628871e+01 0.0 
1.938594498257e+01 -1.025147354112e+01 0.0 
1.946106490453e+01 -9.288010758448e+00 0.0 
1.858929958352e+01 -9.706319802516e+00 0.0 
1.851540991219e+01 -1.067205988724e+01 0.0 
1.771485303178e+01 -1.012504443115e+01 0.0 
1.764134552256e+01 -1.109360378538e+01 0.0 
1.683745148095e+01 -1.054496365337e+01 0.0 
1.691852964353e+01 -9.582555261178e+00 0.0 
1.603603813062e+01 -1.000160132379e+01 0.0 
1.595824239350e+01 -1.096750698862e+01 0.0 
1.515080624291e+01 -1.041639501931e+01 0.0 
1.523171602559e+01 -9.451711491453e+00 0.0 
1.434621060709e+01 -9.871956467464e+00 0.0 
1.426777178765e+01 -1.083749501371e+01 0.0 
1.345775282374e+01 -1.028803175500e+01 0.0 
1.354103873368e+01 -9.324918457162e+00 0.0 
1.265072018622e+01 -9.742612837270e+00 0.0 
1.257285762070e+01 -1.071557782384e+01 0.0 
1.175874815690e+01 -1.015972324288e+01 0.0 
1.184203019714e+01 -9.193604071377e+00 0.0 
1.094927709905e+01 -9.612103238656e+00 0.0 
1.086938022910e+01 -1.058685085646e+01 0.0 
1.005424098961e+01 -1.002939116380e+01 0.0 
9.977974613295e+00 -1.101324897989e+01 0.0 
1.012915646404e+01 -9.051815821181e+00 0.0 
9.237127782494e+00 -9.471239055559e+00 0.0 
9.308426593771e+00 -8.483376461131e+00 0.0 
8.418806073345e+00 -8.910712374517e+00 0.0 
2.253688464062e+01 -1.239459402279e+01 0.0 
8.495126726666e+00 -7.921646665254e+00 0.0 
9.389727383206e+00 -7.512103628377e+00 0.0 
7.601560812974e+00 -8.349460349344e+00 0.0 
7.525680547759e+00 -9.339736686940e+00 0.0 
7.677888324502e+00 -7.359727833346e+00 0.0 
6.782001206724e+00 -7.788454494773e+00 0.0 
6.858778622885e+00 -6.797338062822e+00 0.0 
2.196596590865e+01 -8.979025665442e+00 0.0 
2.816540108272e+01 -1.422634142353e+01 0.0 
5.961601194403e+00 -7.226824010712e+00 0.0 
6.038171749656e+00 -6.234825887079e+00 0.0 
6.936257279557e+00 -5.805287640737e+00 0.0 
6.115068918323e+00 -5.242109758768e+00 0.0 
3.564391741903e+01 -1.329240553876e+01 0.0 
3.558115605778e+01 -1.425902892003e+01 0.0 
3.645445282201e+01 -1.381970786460e+01 0.0 
3.639744204358e+01 -1.479198128612e+01 0.0 
3.727266909778e+01 -1.435399586226e+01 0.0 
5.216667013081e+00 -5.671788584287e+00 0.0 
3.220697293295e+01 -1.499594545107e+01 0.0 
3.551112158269e+01 -1.523479869250e+01 0.0 
2.836056961467e+01 -1.139032434851e+01 0.0 
2.516730388602e+01 -1.021382726837e+01 0.0 
1.844436907403e+01 -1.164097215196e+01 0.0 
5.885434318740e+00 -8.218694781467e+00 0.0 
5.064071066867e+00 -7.656614643901e+00 0.0 
4.988089103470e+00 -8.649722082718e+00 0.0 
1.079421050408e+01 -1.157014985435e+01 0.0 
9.902420005256e+00 -1.199903342656e+01 0.0 
1.071994252214e+01 -1.255727909771e+01 0.0 
9.826974788171e+00 -1.298659581767e+01 0.0 
1.064607883789e+01 -1.354595476388e+01 0.0 
9.751541265343e+00 -1.397556905071e+01 0.0 
8.932296185869e+00 -1.341553353988e+01 0.0 
8.856399248106e+00 -1.440570715508e+01 0.0 
8.036186803543e+00 -1.384470558472e+01 0.0 
1.057112875118e+01 -1.453516759081e+01 0.0 
1.146582585687e+01 -1.410539926903e+01 0.0 
7.959894480382e+00 -1.483563350928e+01 0.0 
7.138792279156e+00 -1.427465094140e+01 0.0 
7.062506792418e+00 -1.526615385482e+01 0.0 
6.240693558277e+00 -1.470508863040e+01 0.0 
6.316957575451e+00 -1.371212581281e+01 0.0 
5.418183007107e+00 -1.414253605022e+01 0.0 
5.494748364428e+00 -1.314886770603e+01 0.0 
1.756825565873e+01 -1.206433872514e+01 0.0 
1.837565773345e+01 -1.261356468266e+01 0.0 
1.749574831391e+01 -1.303769280014e+01 0.0 
1.830539187332e+01 -1.358828364284e+01 0.0 
1.742278925170e+01 -1.401367746928e+01 0.0 
1.823303007798e+01 -1.456432294258e+01 0.0 
1.734941694138e+01 -1.499213734361e+01 0.0 
1.653760041637e+01 -1.443920312098e+01 0.0 
3.056237977307e+01 -1.487132260174e+01 0.0 
1.866469084762e+01 -8.742953000418e+00 0.0 
1.953669694916e+01 -8.326038909849e+00 0.0 
1.874194303780e+01 -7.780688158966e+00 0.0 
1.961032016741e+01 -7.366854697285e+00 0.0 
1.881715755159e+01 -6.821102209649e+00 0.0 
1.968369797150e+01 -6.407747217358e+00 0.0 
1.889237123259e+01 -5.858375520026e+00 0.0 
1.802038875366e+01 -6.276202618170e+00 0.0 
1.809793837984e+01 -5.307629520489e+00 0.0 
1.721985207997e+01 -5.728242054488e+00 0.0 
1.729850893523e+01 -4.756990819347e+00 0.0 
1.641745664240e+01 -5.174636548624e+00 0.0 
2.495978509456e+01 -1.304406404294e+01 0.0 
1.911567814831e+01 -1.413854250293e+01 0.0 
1.904387332608e+01 -1.511463127723e+01 0.0 
1.992115934240e+01 -1.468788025898e+01 0.0 
7.013706899628e+00 -4.812582868662e+00 0.0 
5.342091874585e+00 -1.513658157269e+01 0.0 
1.139098043784e+01 -1.509488509480e+01 0.0 
1.228151810610e+01 -1.465617481983e+01 0.0 
1.646373110164e+01 -1.541993323337e+01 0.0 
5.293328636712e+00 -4.678385108584e+00 0.0 
1.975965862987e+01 -5.448124345648e+00 0.0 
2.054318374236e+01 -5.992561293251e+00 0.0 
3.721453439063e+01 -1.533216152738e+01 0.0 
3.809302733893e+01 -1.489235527381e+01 0.0 
1.220852788900e+01 -1.565304565230e+01 0.0 
4.394120899730e+00 -5.108397613210e+00 0.0 
8.779354620288e+00 -1.539524721159e+01 0.0 
1.817791047702e+01 -4.338570146253e+00 0.0 
4.518860013839e+00 -1.457343189307e+01 0.0 
4.442712140414e+00 -1.556841391069e+01 0.0 
8.115343466391e+00 -1.285760324283e+01 0.0 
1.985334703171e+01 -1.566478400426e+01 0.0 
2.071953850276e+01 -1.522074243119e+01 0.0 
1.634012953883e+01 -6.154777738301e+00 0.0 
1.553479994708e+01 -5.593730508879e+00 0.0 
1.561265946942e+01 -4.617761762647e+00 0.0 
1.470674212978e+01 -5.064576488228e+00 0.0 
1.464498299883e+01 -6.026514471420e+00 0.0 
1.383271561817e+01 -5.467796261169e+00 0.0 
1.389241253067e+01 -4.504338666645e+00 0.0 
1.301868735463e+01 -4.907185188626e+00 0.0 
1.294514184846e+01 -5.888160903592e+00 0.0 
1.212955968622e+01 -5.328262335277e+00 0.0 
1.220721122383e+01 -4.341264976687e+00 0.0 
1.131324345897e+01 -4.766773516508e+00 0.0 
5.266597955397e+00 -1.613148974258e+01 0.0 
1.737805990867e+01 -3.786677807525e+00 0.0 
3.078438094513e+01 -1.203225297748e+01 0.0 
1.131569882285e+01 -1.608511932110e+01 0.0 
1.728478341782e+01 -1.596017432313e+01 0.0 
3.803465906019e+01 -1.587509751228e+01 0.0 
3.891681276677e+01 -1.543395196905e+01 0.0 
3.897340985302e+01 -1.444710288980e+01 0.0 
3.980095968193e+01 -1.499059496613e+01 0.0 
3.974334598189e+01 -1.597921884150e+01 0.0 
4.062964983717e+01 -1.553518690417e+01 0.0 
4.068729602479e+01 -1.454434445295e+01 0.0 
4.151772679790e+01 -1.508974196007e+01 0.0 
4.157505195739e+01 -1.409694289912e+01 0.0 
4.240699932656e+01 -1.464347955968e+01 0.0 
4.234898051011e+01 -1.563721375790e+01 0.0 
4.323934606035e+01 -1.519082036405e+01 0.0 
4.329740528208e+01 -1.419587509788e+01 0.0 
4.413056841369e+01 -1.474359631875e+01 0.0 
4.418850110108e+01 -1.374786684042e+01 0.0 
4.502219770667e+01 -1.429605103525e+01 0.0 
4.496411937907e+01 -1.529215882720e+01 0.0 
4.490027319897e+00 -4.154167794594e+00 0.0 
1.565080385988e+01 -1.486411982419e+01 0.0 
1.557610691279e+01 -1.584855627870e+01 0.0 
4.195350646612e+00 -8.089117689096e+00 0.0 
4.124027797830e+00 -9.082831955007e+00 0.0 
4.917944318925e+00 -9.643530901533e+00 0.0 
4.020105689502e+00 -1.007439673661e+01 0.0 
4.587185899277e+01 -1.484039992728e+01 0.0 
4.580078661551e+01 -1.584043391042e+01 0.0 
2.061956522375e+01 -5.046701343981e+00 0.0 
2.139572955529e+01 -5.579553449826e+00 0.0 
3.715344357292e+01 -1.631485124583e+01 0.0 
3.618886196443e+00 -1.500471207167e+01 0.0 
3.695606940204e+00 -1.400939692294e+01 0.0 
2.438890661143e+01 -9.686110599723e+00 0.0 
2.523267572778e+01 -9.276766000622e+00 0.0 
2.446094171539e+01 -8.751904591412e+00 0.0 
2.529089822738e+01 -8.321495612547e+00 0.0 
2.606882688827e+01 -8.864724051119e+00 0.0 
2.452116646430e+01 -7.792756462004e+00 0.0 
1.235543269617e+01 -1.365845617339e+01 0.0 
4.318116874181e+01 -1.618567469992e+01 0.0 
7.835066111909e+00 -5.376366223896e+00 0.0 
7.905687335704e+00 -4.382539065697e+00 0.0 
3.542640009567e+00 -1.600035116542e+01 0.0 
1.572431503071e+01 -1.388358386695e+01 0.0 
2.574684696680e+01 -1.357896141127e+01 0.0 
2.488842657651e+01 -1.399674354505e+01 0.0 
2.568301775611e+01 -1.453552048595e+01 0.0 
2.481535572009e+01 -1.495542756508e+01 0.0 
2.561729699688e+01 -1.549784648532e+01 0.0 
2.474623061296e+01 -1.592058894178e+01 0.0 
2.394234041695e+01 -1.537572575827e+01 0.0 
2.065825452567e+01 -1.621899055217e+01 0.0 
2.387180528935e+01 -1.634552264687e+01 0.0 
4.585364400844e+01 -1.383912334080e+01 0.0 
1.998744432052e+01 -1.370317155541e+01 0.0 
1.205356951443e+01 -6.313580285498e+00 0.0 
5.396543905849e+00 -3.731818611283e+00 0.0 
1.139652573295e+01 -3.745819399350e+00 0.0 
3.574124306703e+00 -4.551456826011e+00 0.0 
3.494140761930e+00 -5.539787055649e+00 0.0 
1.213651452413e+01 -1.664505033022e+01 0.0 
2.555045568519e+01 -1.646529356744e+01 0.0 
2.641671114986e+01 -1.603899382371e+01 0.0 
2.612920721894e+01 -7.906435260873e+00 0.0 
2.690339829698e+01 -8.456969591431e+00 0.0 
1.978024383368e+01 -1.664410216353e+01 0.0 
3.732829979082e+01 -1.336926601859e+01 0.0 
4.074336584605e+01 -1.355133328401e+01 0.0 
4.163204691081e+01 -1.310280943992e+01 0.0 
3.773826114429e+00 -3.493444309145e+00 0.0 
1.228783001032e+01 -3.374822835872e+00 0.0 
4.057110462520e+01 -1.652588478000e+01 0.0 
2.132535497898e+01 -6.523623360525e+00 0.0 
2.216932532211e+01 -6.110044769206e+00 0.0 
1.825781152128e+01 -3.370146817147e+00 0.0 
1.745679445888e+01 -2.812942552063e+00 0.0 
4.666517057280e+01 -1.539981381543e+01 0.0 
4.660575894464e+01 -1.639014410186e+01 0.0 
4.838230979954e+00 -1.063643436446e+01 0.0 
3.938942630206e+00 -1.106778981745e+01 0.0 
1.302967218620e+01 -1.621373452436e+01 0.0 
1.049548003190e+01 -4.204825123240e+00 0.0 
4.573571907195e+01 -1.683820511148e+01 0.0 
1.483686335807e+01 -1.430849689310e+01 0.0 
1.490982658890e+01 -1.332679386284e+01 0.0 
3.190805600162e+00 -9.510968358545e+00 0.0 
2.146625721848e+01 -4.642437303115e+00 0.0 
2.069866208266e+01 -4.111852942193e+00 0.0 
1.286859345584e+01 -6.873252723348e+00 0.0 
1.041794493184e+01 -5.194814260291e+00 0.0 
2.671081808965e+00 -4.976806516331e+00 0.0 
1.295786792925e+01 -1.720506531799e+01 0.0 
3.968438206511e+01 -1.696869067241e+01 0.0 
2.308550456051e+01 -1.579963151273e+01 0.0 
2.315593682844e+01 -1.482967445235e+01 0.0 
2.299471449450e+01 -1.677069968132e+01 0.0 
1.057344714696e+01 -3.214252277840e+00 0.0 
1.124057603753e+01 -1.707713739755e+01 0.0 
2.718402535754e+00 -1.543629882103e+01 0.0 
2.638549692805e+01 -1.696744916809e+01 0.0 
2.723416349007e+01 -1.658104204545e+01 0.0 
2.210193351704e+01 -7.046769643417e+00 0.0 
2.295180925161e+01 -6.657397605239e+00 0.0 
2.301355235833e+01 -5.709111896800e+00 0.0 
2.379052718281e+01 -6.254965406962e+00 0.0 
3.243528601237e+01 -1.214181853533e+01 0.0 
2.287977995457e+01 -7.583722368300e+00 0.0 
2.999876029544e+01 -1.150837653096e+01 0.0 
3.084435366963e+01 -1.109693775882e+01 0.0 
3.006650579669e+01 -1.057778994262e+01 0.0 
2.683802665066e+01 -9.386863216633e+00 0.0 
2.768641973621e+01 -8.988883915666e+00 0.0 
2.040296980397e+01 -7.903629133404e+00 0.0 
1.925235024054e+01 -1.218872783130e+01 0.0 
5.735667000424e+00 -1.020577277283e+01 0.0 
6.396559909872e+00 -1.272326295703e+01 0.0 
1.161199420714e+01 -1.212812778229e+01 0.0 
4.229046132615e+01 -1.663084237572e+01 0.0 
4.312275399692e+01 -1.718087491556e+01 0.0 
4.335502068163e+01 -1.320039231514e+01 0.0 
4.424630298089e+01 -1.275160688731e+01 0.0 
7.090116643816e+00 -3.818998061530e+00 0.0 
7.989472176569e+00 -3.389238711200e+00 0.0 
9.085824861778e+00 -1.144036167408e+01 0.0 
1.041972423731e+01 -1.651614080893e+01 0.0 
3.797525112640e+01 -1.686052038746e+01 0.0 
3.709114253394e+01 -1.730125999865e+01 0.0 
3.626966748340e+01 -1.675477052919e+01 0.0 
1.385164591440e+01 -1.677597757552e+01 0.0 
1.787152588784e+01 -8.198993896093e+00 0.0 
1.668849729812e+01 -1.248560611628e+01 0.0 
1.659546177905e+01 -3.232482605530e+00 0.0 
2.332214717345e+01 -1.292598167641e+01 0.0 
7.168238450786e+00 -2.824711686516e+00 0.0 
2.894878403906e+01 -1.475427524446e+01 0.0 
2.646763248247e+00 -1.643270107952e+01 0.0 
3.467431944285e+00 -1.699648837348e+01 0.0 
2.059475877282e+01 -1.719473628526e+01 0.0 
3.333868355437e+01 -1.080596971682e+01 0.0 
2.246451062637e+01 -1.334557761546e+01 0.0 
2.167821896388e+01 -1.280847834858e+01 0.0 
3.089653185767e+01 -1.017198487212e+01 0.0 
3.012604365669e+01 -9.657298805968e+00 0.0 
2.929627299435e+01 -1.006100135274e+01 0.0 
2.936201435219e+01 -9.136748899251e+00 0.0 
1.198219052702e+01 -7.291887238230e+00 0.0 
1.116702076035e+01 -6.731976101053e+00 0.0 
2.551388807505e+01 -1.746927036981e+01 0.0 
2.378639090370e+01 -1.728678807149e+01 0.0 
2.718543627188e+01 -1.748668016909e+01 0.0 
2.804681050301e+01 -1.712626668293e+01 0.0 
1.970737034667e+01 -1.762317646822e+01 0.0 
1.889535776135e+01 -1.707158098231e+01 0.0 
2.593777711283e+00 -5.971157087874e+00 0.0 
2.773468281110e+01 -8.067164273938e+00 0.0 
4.051205884347e+01 -1.751819982458e+01 0.0 
3.166903145421e+01 -1.068032992414e+01 0.0 
1.033042452886e+01 -1.748285844336e+01 0.0 
9.519274604626e+00 -1.694349240233e+01 0.0 
1.668308673328e+01 -2.255861778986e+00 0.0 
1.570531902832e+01 -2.676795860126e+00 0.0 
4.655826903379e+01 -1.736656245706e+01 0.0 
2.384148070773e+01 -5.328744256413e+00 0.0 
2.460255123641e+01 -5.852182672816e+00 0.0 
2.306638135119e+01 -4.798935440613e+00 0.0 
8.467720450578e-01 -1.849576263072e+01 0.0 
4.849657322345e+01 -1.084860705506e+01 0.0 
2.565860899507e+00 -1.742859793981e+01 0.0 
2.764418872564e+01 -9.927142821799e+00 0.0 
4.565165880064e+01 -1.785336695404e+01 0.0 
2.162231831329e+01 -1.376528337468e+01 0.0 
2.360646352969e+01 -9.136041963102e+00 0.0 
1.392738739903e+01 -1.578285505772e+01 0.0 
4.756405947478e+01 -1.683706841809e+01 0.0 
4.740895034054e+01 -1.793766756892e+01 0.0 
4.080779328826e+01 -1.257387192544e+01 0.0 
4.168907939671e+01 -1.210739129181e+01 0.0 
3.991197722154e+01 -1.300815793917e+01 0.0 
1.905536506762e+01 -3.940076697685e+00 0.0 
1.923879596617e+01 -2.875000734166e+00 0.0 
4.401386745746e+01 -1.673483229438e+01 0.0 
4.247233362525e+00 -7.094581653070e+00 0.0 
3.286051630211e+00 -7.635300020553e+00 0.0 
9.609533347623e+00 -4.594311677967e+00 0.0 
9.523554636369e+00 -5.595597029530e+00 0.0 
5.660336628893e+00 -1.119290329628e+01 0.0 
6.558070063295e+00 -1.076385809362e+01 0.0 
2.809866407414e+01 -1.518037766799e+01 0.0 
2.888868674504e+01 -1.570360690070e+01 0.0 
2.654431550819e+01 -1.411217777162e+01 0.0 
1.402158265969e+01 -1.375404617952e+01 0.0 
1.409592494026e+01 -1.277071998942e+01 0.0 
1.499355196178e+01 -1.235270737023e+01 0.0 
4.221535326155e+01 -1.759335617494e+01 0.0 
4.305583287033e+01 -1.822663146802e+01 0.0 
1.280748808359e+01 -7.834332838285e+00 0.0 
1.368988389326e+01 -7.420529606172e+00 0.0 
1.110091796060e+01 -7.683966794328e+00 0.0 
3.963446145980e+01 -1.794331310122e+01 0.0 
3.423932362213e+00 -1.796415590455e+01 0.0 
4.280814572302e+00 -1.752272834860e+01 0.0 
8.050136380041e+00 -2.421582378631e+00 0.0 
8.888674091650e+00 -2.984264211327e+00 0.0 
2.152839430898e+01 -3.732609965436e+00 0.0 
2.077799585292e+01 -3.183896021866e+00 0.0 
3.618719395821e+01 -1.770276572576e+01 0.0 
3.538165138340e+01 -1.718709995539e+01 0.0 
3.702925326420e+01 -1.828844288807e+01 0.0 
1.756739438711e+00 -5.353284859169e+00 0.0 
2.233710191104e+01 -1.527265621324e+01 0.0 
1.389483555057e+01 -1.771797164730e+01 0.0 
1.475634224300e+01 -1.728357428390e+01 0.0 
1.298797563052e+01 -1.825968924755e+01 0.0 
2.145331271866e+01 -1.673705379077e+01 0.0 
2.133282821169e+01 -1.769400773673e+01 0.0 
2.292139194136e+01 -1.774915400288e+01 0.0 
1.750750053243e+01 -1.861475593469e+00 0.0 
4.830478841772e+01 -1.752611802221e+01 0.0 
4.341203507805e+01 -1.220326745522e+01 0.0 
1.685254151866e+01 -1.443085301632e+00 0.0 
4.431538535165e+01 -1.171841387375e+01 0.0 
4.511308610496e+01 -1.229557320599e+01 0.0 
4.510133242889e+01 -1.123680627466e+01 0.0 
1.846818030617e+00 -4.410877617069e+00 0.0 
3.995468694584e+01 -1.186571542989e+01 0.0 
3.901387459804e+01 -1.242507616755e+01 0.0 
8.966735877533e+00 -1.837818700423e+00 0.0 
4.049310011091e+01 -1.848269508791e+01 0.0 
7.278862053803e+00 -1.918523922691e+00 0.0 
6.429715522129e+00 -2.316676521184e+00 0.0 
9.443505505022e+00 -1.792198868094e+01 0.0 
8.620386951051e+00 -1.737590365556e+01 0.0 
8.571868171503e+00 -1.834436667826e+01 0.0 
7.758629848526e+00 -1.775677907213e+01 0.0 
7.806648388584e+00 -1.680761266021e+01 0.0 
6.908555145436e+00 -1.723746463044e+01 0.0 
4.251709122090e+01 -1.156937480156e+01 0.0 
6.931136405615e+00 -1.832465719263e+01 0.0 
6.015545461353e+00 -1.768865355295e+01 0.0 
5.960535926343e+00 -1.872011001764e+01 0.0 
3.023253444786e+01 -8.761960642196e+00 0.0 
2.454622702599e+01 -6.749421992767e+00 0.0 
2.537499741604e+01 -6.347634963783e+00 0.0 
2.544077378460e+01 -5.431358513649e+00 0.0 
2.801367161747e+01 -1.820907270221e+01 0.0 
2.884507806914e+01 -1.762032095326e+01 0.0 
1.821474531936e+00 -1.588901260460e+01 0.0 
1.821006262604e+00 -1.489370287756e+01 0.0 
4.599962488908e+01 -1.176478780598e+01 0.0 
4.705457470007e+01 -1.172182804229e+01 0.0 
4.667668314802e+01 -1.263464558483e+01 0.0 
4.759648056504e+01 -1.252380987933e+01 0.0 
4.728041618103e+01 -1.341928568376e+01 0.0 
4.825209352360e+01 -1.330491640804e+01 0.0 
4.778118233428e+01 -1.420151961695e+01 0.0 
2.388192727579e+01 -1.826934810142e+01 0.0 
2.381714684947e+01 -4.385917965223e+00 0.0 
3.172733219247e+01 -9.758744265248e+00 0.0 
1.882012070658e+01 -1.805540597212e+01 0.0 
1.805667505243e+01 -1.742221226236e+01 0.0 
2.852599958080e+01 -8.597196079481e+00 0.0 
2.856486123437e+01 -7.661382718527e+00 0.0 
1.111792842875e+01 -1.818223852980e+01 0.0 
2.203322722466e+01 -7.986646678802e+00 0.0 
3.955703676900e+01 -1.903246763601e+01 0.0 
1.944842206513e+01 -8.038750575182e-01 0.0 
1.909882767783e+01 -1.746322740933e+00 0.0 
2.281147422941e+01 -8.525912918334e+00 0.0 
2.850633001468e+01 -9.533271335986e+00 0.0 
2.532883344309e+01 -7.308951659710e+00 0.0 
2.620475466461e+01 -6.979208585400e+00 0.0 
1.396278270396e+01 -1.475095389807e+01 0.0 
9.791001166724e+00 -2.554159793552e+00 0.0 
2.229293380421e+01 -4.269762271052e+00 0.0 
4.677238984118e+01 -1.430071795514e+01 0.0 
2.228658385918e+01 -3.344747535984e+00 0.0 
8.940223674553e-01 -1.543595733415e+01 0.0 
2.118566862474e+01 -8.435876987696e+00 0.0 
2.678325936437e+01 -1.032621195706e+01 0.0 
2.223400220487e+01 -5.179046761770e+00 0.0 
2.375370625384e+01 -7.251580562134e+00 0.0 
3.156971327386e+01 -1.255534750737e+01 0.0 
3.328226391312e+01 -1.172914813316e+01 0.0 
3.250948774219e+01 -1.120157009348e+01 0.0 
2.032993445717e+01 -8.867880112202e+00 0.0 
2.697226974856e+01 -7.536633082045e+00 0.0 
2.707377810386e+01 -6.590835263295e+00 0.0 
2.914099246827e+01 -1.191678458549e+01 0.0 
3.544824072239e+01 -1.621126558525e+01 0.0 
3.456511855436e+01 -1.665054783843e+01 0.0 
3.448395810225e+01 -1.759117813016e+01 0.0 
3.368378673938e+01 -1.708037781328e+01 0.0 
3.375560452567e+01 -1.610973066913e+01 0.0 
3.288001547988e+01 -1.654324255651e+01 0.0 
3.282475929147e+01 -1.749725654692e+01 0.0 
3.199880906313e+01 -1.697294088625e+01 0.0 
3.197001272932e+01 -1.811667776864e+01 0.0 
3.111884713021e+01 -1.742166785755e+01 0.0 
3.120418962865e+01 -1.642155709385e+01 0.0 
3.034666704371e+01 -1.683123833816e+01 0.0 
3.026224379976e+01 -1.772592851714e+01 0.0 
3.046632362943e+01 -1.582232843075e+01 0.0 
1.961344017324e+01 -1.857459447985e+01 0.0 
2.274975894774e+01 -9.532738811922e+00 0.0 
1.833923246887e+01 -2.396746883672e+00 0.0 
1.988859500848e+01 -2.249244376594e+00 0.0 
2.758045562861e+01 -1.086434261689e+01 0.0 
3.247300178163e+01 -1.909930104252e+01 0.0 
3.461947482503e+01 -1.911879848019e+01 0.0 
2.047161538662e+01 -6.941478180358e+00 0.0 
2.750230940214e+01 -1.915490590764e+01 0.0 
3.165081350803e+01 -1.161860780120e+01 0.0 
1.897456727641e+01 -4.889634688522e+00 0.0 
2.549338539756e+01 -1.914858252089e+01 0.0 
3.462873135081e+01 -1.567482276144e+01 0.0 
3.384432415243e+01 -1.512280684518e+01 0.0 
3.471433767690e+01 -1.469086942990e+01 0.0 
3.651470373046e+01 -1.918207952149e+01 0.0 
3.901742690249e+01 -1.345028556517e+01 0.0 
2.153224102692e+01 -1.920169709333e+01 0.0 
1.918382939341e+01 -1.316226275662e+01 0.0 
2.005389162382e+01 -1.271962165174e+01 0.0 
2.011472087878e+01 -1.175029352900e+01 0.0 
3.210679478412e+01 -1.598038618242e+01 0.0 
1.752175226543e+01 -1.914713022656e+01 0.0 
1.696897240059e+01 -1.832772588765e+01 0.0 
1.599682523337e+01 -1.832599992024e+01 0.0 
1.644507199462e+01 -1.743697981535e+01 0.0 
1.549987712903e+01 -1.915192375101e+01 0.0 
3.050250861901e+01 -1.918943550234e+01 0.0 
2.949944061527e+01 -1.922950455235e+01 0.0 
1.375892575273e+01 -6.447160534926e+00 0.0 
1.457223670180e+01 -7.006709243857e+00 0.0 
1.450818793236e+01 -7.965943451779e+00 0.0 
1.538804712402e+01 -7.553409623699e+00 0.0 
1.545817644768e+01 -6.580929593419e+00 0.0 
1.626506893751e+01 -7.129032608911e+00 0.0 
1.619833811522e+01 -8.086588580887e+00 0.0 
1.714448609609e+01 -6.697429609777e+00 0.0 
2.887616543568e+01 -1.668015232137e+01 0.0 
1.349814589130e+01 -1.918225301544e+01 0.0 
1.153887772210e+01 -1.311384581217e+01 0.0 
1.242708159886e+01 -1.267046795531e+01 0.0 
1.249799674267e+01 -1.169005616014e+01 0.0 
6.631723893693e+00 -9.774184881867e+00 0.0 
7.451471631867e+00 -1.033148796006e+01 0.0 
7.377795355458e+00 -1.132196345268e+01 0.0 
5.810931797536e+00 -9.211654212252e+00 0.0 
2.402683899133e+01 -1.441378562320e+01 0.0 
1.249768692036e+01 -1.917388426624e+01 0.0 
1.580373499437e+01 -1.290751860664e+01 0.0 
8.344650507834e+00 -9.898403995170e+00 0.0 
3.750622115305e+01 -1.086526401533e+01 0.0 
3.699391251667e+01 -1.171695900794e+01 0.0 
3.606517829518e+01 -1.173717504500e+01 0.0 
3.650257641795e+01 -1.270047380221e+01 0.0 
3.808951488918e+01 -1.183518714175e+01 0.0 
4.760380962420e+00 -1.162484888315e+01 0.0 
3.861210370848e+00 -1.205657631736e+01 0.0 
3.038284309476e+00 -1.149851280664e+01 0.0 
2.961598794889e+00 -1.248856794980e+01 0.0 
2.138953225512e+00 -1.193212674534e+01 0.0 
2.227383593457e+00 -1.096258903918e+01 0.0 
2.043265419276e+00 -1.292158472959e+01 0.0 
1.252449446028e+00 -1.225502002753e+01 0.0 
3.949985210740e+01 -1.086594001795e+01 0.0 
1.453499444792e+01 -8.768805922472e-01 0.0 
1.403518950933e+01 -1.749965556633e+00 0.0 
1.300715031023e+01 -1.714737233040e+00 0.0 
1.350929389899e+01 -2.527443911291e+00 0.0 
1.449600910711e+01 -2.595486162864e+00 0.0 
1.395693872901e+01 -3.484211041558e+00 0.0 
1.495105865208e+01 -3.364609636216e+00 0.0 
1.508822528740e+01 -1.766586020494e+00 0.0 
1.250223858430e+01 -8.634590186802e-01 0.0 
1.200279523409e+01 -1.709044504992e+00 0.0 
1.150086239419e+01 -8.592789190668e-01 0.0 
1.101482754194e+01 -1.677730591922e+00 0.0 
1.148018564526e+01 -2.659323866909e+00 0.0 
8.800552119754e+00 -3.989875954728e+00 0.0 
3.452790439430e+00 -1.901136170646e+01 0.0 
8.658451825200e-01 -9.503462241795e+00 0.0 
1.694787786797e+00 -9.000589234502e+00 0.0 
1.703436717094e+00 -8.038819004041e+00 0.0 
2.594197971110e+00 -8.563955242845e+00 0.0 
1.630513735412e+00 -9.907244747511e+00 0.0 
8.566859292791e-01 -7.512203837972e+00 0.0 
1.685461277022e+00 -7.164280248030e+00 0.0 
2.506394468801e+00 -8.623386730818e-01 0.0 
2.007475081581e+00 -1.727729545205e+00 0.0 
9.211534699767e-01 -1.628791366312e+00 0.0 
1.500000000020e+00 -2.598063549486e+00 0.0 
2.482078929963e+00 -2.553580088725e+00 0.0 
2.999795253092e+00 -1.732169015019e+00 0.0 
3.999712607169e+00 -1.728832897453e+00 0.0 
4.499752199340e+00 -8.656478679175e-01 0.0 
4.964377774841e+00 -1.730129617941e+00 0.0 
4.425017908337e+00 -2.597541756243e+00 0.0 
5.446573195014e+00 -8.410144840023e-01 0.0 
4.915722346614e+01 -1.550640962770e+01 0.0 
4.826794919243e+01 -1.600000000000e+01 0.0 
1.053139533193e+01 -1.911782884365e+01 0.0 
4.156049861949e+01 -1.095160998589e+01 0.0 
9.494526624416e+00 -8.650570090219e-01 0.0 
4.555762166964e+01 -1.897098103585e+01 0.0 
4.250656411371e+01 -1.914387356218e+01 0.0 
4.350906466345e+01 -1.917234727395e+01 0.0 
8.759665722424e-01 -1.746422130609e+01 0.0 
1.698936011838e+00 -1.795012186674e+01 0.0 
4.742476811029e+01 -1.900090177972e+01 0.0 
7.749196752349e+00 -6.368049313489e+00 0.0 
3.361572113416e+01 -1.798765193915e+01 0.0 
4.484660149212e+01 -1.728661231383e+01 0.0 
1.984038172228e+01 -4.502575320116e+00 0.0 
1.035080352627e+01 -6.166639575753e+00 0.0 
2.753558010652e+00 -1.444909521181e+01 0.0 
7.217069543032e+00 -1.328635391078e+01 0.0 
4.364336727739e+00 -1.655585677381e+01 0.0 
4.595208426108e+00 -1.357919665443e+01 0.0 
6.164967006980e+00 -1.569873454630e+01 0.0 
1.487855768353e+01 -1.826523774028e+01 0.0 
2.791876456372e+00 -4.019632415181e+00 0.0 
4.246464893515e+01 -1.364898659620e+01 0.0 
4.503855590351e+01 -1.329552780944e+01 0.0 
4.407239109604e+01 -1.573900004093e+01 0.0 
5.141054449252e+00 -6.664290382472e+00 0.0 
3.141083947149e+00 -1.055790764912e+01 0.0 
6.196463198741e+00 -4.256497932609e+00 0.0 
2.599618716181e+01 -1.836893455464e+01 0.0 
2.923057372337e+01 -1.098461757645e+01 0.0 
1.168343877486e+01 -1.114079645041e+01 0.0 
6.706222096238e+00 -8.780364234441e+00 0.0 
8.567858614669e+00 -6.943121440850e+00 0.0 
1.123755132901e+01 -5.753525820030e+00 0.0 
2.353456234423e+01 -1.008536320953e+01 0.0 
9.162073319168e+00 -1.045593739109e+01 0.0 
9.676343469685e+00 -1.496493008366e+01 0.0 
4.490637882905e+01 -1.628778970202e+01 0.0 
7.398129387772e+00 -9.639977982323e-01 0.0 
1.049641705805e+01 -1.552503975272e+01 0.0 
9.010356286268e+00 -1.242805042052e+01 0.0 
3.985573925497e+01 -1.399863651620e+01 0.0 
1.816196318262e+01 -1.554066497931e+01 0.0 
1.306332244168e+01 -3.963646550326e+00 0.0 
4.145850903932e+01 -1.608094559275e+01 0.0 
3.794664933633e+01 -1.779020121986e+01 0.0 
3.819614412903e+01 -1.290749321016e+01 0.0 
6.270014188119e+00 -3.255093186826e+00 0.0 
4.251165370388e+01 -1.263870364997e+01 0.0 
1.207347709171e+01 -1.763942826023e+01 0.0 
3.633240829927e+01 -1.577330481104e+01 0.0 
4.319052668832e+00 -6.101812561904e+00 0.0 
1.676492415806e+01 -1.151547901392e+01 0.0 
2.594059220037e+01 -1.074225223009e+01 0.0 
3.340750911501e+01 -9.898764354137e+00 0.0 
4.397619591281e+01 -1.769773736461e+01 0.0 
2.175611595028e+01 -1.185718747128e+01 0.0 
1.641818733106e+01 -1.640685203215e+01 0.0 
1.661211421753e+01 -1.346121366338e+01 0.0 
3.428853504935e+00 -6.551993389271e+00 0.0 
8.700728832502e+00 -1.638460872825e+01 0.0 
1.931369795309e+01 -1.121629383702e+01 0.0 
4.139798872363e+01 -1.706922153459e+01 0.0 
2.647837478700e+01 -1.507353829290e+01 0.0 
1.779469616424e+01 -9.161615782908e+00 0.0 
3.885879219319e+01 -1.642026488918e+01 0.0 
1.338194936770e+01 -1.125916521471e+01 0.0 
1.897071181111e+01 -1.609204322578e+01 0.0 
2.844308548793e+01 -1.046221003096e+01 0.0 
2.659854702194e+01 -1.316109415760e+01 0.0 
2.979604503271e+01 -1.433296157755e+01 0.0 
2.417694041347e+01 -1.251231397779e+01 0.0 
1.807401327411e+00 -1.388891148480e+01 0.0 
9.599810618782e+00 -1.595439365034e+01 0.0 
1.652144692160e+01 -4.205392788472e+00 0.0 
2.367839450246e+01 -8.188385218643e+00 0.0 
3.814894930468e+01 -1.390748338767e+01 0.0 
2.466448215774e+01 -1.685878545680e+01 0.0 
4.134044524611e+01 -1.806610045954e+01 0.0 
2.600511411958e+01 -9.801774120648e+00 0.0 
7.882158050716e+00 -1.582364037353e+01 0.0 
3.881607873422e+01 -1.737970515013e+01 0.0 
8.270182347708e+00 -1.088622154920e+01 0.0 
8.672520392520e-01 -4.532984309881e+00 0.0 
1.993447205337e+01 -3.579061902667e+00 0.0 
1.794616079549e+01 -7.238038888498e+00 0.0 
2.097277068165e+01 -1.132450168636e+01 0.0 
8.194803300681e+00 -1.187214224265e+01 0.0 
3.522279404911e+01 -1.823342818178e+01 0.0 
6.984481050295e+00 -1.625271465557e+01 0.0 
1.309433007797e+01 -1.521718594215e+01 0.0 
2.150246167611e+01 -1.885399038185e+00 0.0 
3.250689370209e+01 -1.028789870535e+01 0.0 
6.085886272238e+00 -1.668342132851e+01 0.0 
1.588455661727e+01 -1.193498985921e+01 0.0 
1.809323400821e+01 -1.651110084195e+01 0.0 
1.348885082381e+00 -1.136065576512e+01 0.0 
2.497670221995e+01 -1.834631276173e+01 0.0 
2.937062818424e+01 -8.233711194470e+00 0.0 
5.185823744469e+00 -1.711566910207e+01 0.0 
1.477497877209e+01 -1.530177014512e+01 0.0 
2.125346158933e+01 -7.473003997367e+00 0.0 
4.751561118290e+01 -1.084897772632e+01 0.0 
5.056026576843e+00 -1.825750475525e+01 0.0 
1.473948554523e+01 -1.634577436309e+01 0.0 
2.410566630936e+01 -1.345970002612e+01 0.0 
1.507337507513e+01 -1.138527895328e+01 0.0 
3.189857338687e+01 -8.887781229006e+00 0.0 
7.298712468334e+00 -1.230231046246e+01 0.0 
2.738235495295e+01 -1.368931690364e+01 0.0 
3.750141041969e+01 -1.920449893070e+01 0.0 
1.557271965640e+01 -1.683317951731e+01 0.0 
3.393731848929e+01 -1.413034777044e+01 0.0 
6.482156824153e+00 -1.174575135362e+01 0.0 
2.077971718439e+01 -1.421279621836e+01 0.0 
3.455084320178e+00 -2.562590040585e+00 0.0 
3.099056096250e+01 -9.270280416035e+00 0.0 
5.580176125418e+00 -1.217387969259e+01 0.0 
1.707247630389e+01 -7.660651981710e+00 0.0 
1.418658814174e+01 -1.180390575393e+01 0.0 
2.049103025389e+01 -1.811296706038e+01 0.0 
4.680386172316e+00 -1.260396879301e+01 0.0 
1.699679896554e+01 -8.624561788199e+00 0.0 
3.779470168555e+00 -1.303424899720e+01 0.0 
3.036589870126e+01 -7.879832518349e+00 0.0 
3.306993001774e+01 -1.457671062095e+01 0.0 
2.840150110165e+00 -1.346530088269e+01 0.0 
2.732011135052e+01 -1.464591214560e+01 0.0 
5.423639259568e+00 -2.659711955016e+00 0.0 
2.324455961696e+01 -1.387269388211e+01 0.0 
1.752768355571e+00 -1.693128613594e+01 0.0 
1.020244783051e+01 -8.076834012808e+00 0.0 
1.330873875224e+01 -1.222417528206e+01 0.0 
3.297727364880e+01 -1.555480372087e+01 0.0 
2.890929955439e+01 -6.868664170731e+00 0.0 
1.323294664622e+01 -1.320754260334e+01 0.0 
2.726532861246e+01 -1.560593120806e+01 0.0 
2.240020643398e+01 -1.429299177247e+01 0.0 
2.090445823633e+01 -1.228128621332e+01 0.0 
1.315809881502e+01 -1.420739326938e+01 0.0 
2.781328038068e+01 -7.181956082300e+00 0.0 
8.614200829057e+00 -5.936933226306e+00 0.0 
8.714765730069e+00 -4.979270529687e+00 0.0 
1.611881701099e+01 -9.041973294003e+00 0.0 
2.806830314340e+01 -1.614622947108e+01 0.0 
2.084435391396e+00 -3.385085422913e+00 0.0 
3.133211811152e+01 -1.542347619750e+01 0.0 
9.693114650768e+00 -3.590281506442e+00 0.0 
1.531883592202e+01 -8.504584946143e+00 0.0 
2.151589117094e+01 -1.578915763018e+01 0.0 
4.918943882696e+01 -1.355538828056e+01 0.0 
1.443236615188e+01 -8.918701794549e+00 0.0 
8.276250966452e-01 -5.537685192197e+00 0.0 
1.362790867918e+01 -8.374718262212e+00 0.0 
2.083767477370e+01 -1.324843956035e+01 0.0 
1.273834678703e+01 -8.790890389337e+00 0.0 
1.192275845670e+01 -8.242261327467e+00 0.0 
4.477236023583e+01 -1.824312396664e+01 0.0 
1.102989384254e+01 -8.649855800911e+00 0.0 
4.849096516045e+01 -1.917293752213e+01 0.0 
1.588996752238e+00 -1.910230934687e+01 0.0 
4.904245197583e+01 -1.159839008158e+01 0.0 
2.753852929608e+01 -5.782128488093e+00 0.0 
1.756133602833e+01 -8.306130313187e-01 0.0 
2.615423700951e+01 -6.153865090092e+00 0.0 
1.028818761294e+01 -7.122020845892e+00 0.0 
2.970818901196e+01 -1.527821347593e+01 0.0 
4.801461623449e+01 -1.164472570985e+01 0.0 
9.455722100419e+00 -6.546069291118e+00 0.0 
3.089099236677e+01 -1.835339328261e+01 0.0 
2.350000000013e+01 -1.920825896750e+01 0.0 
4.830620531887e+01 -1.506626155470e+01 0.0 
1.725381944701e+01 -1.688794487850e+01 0.0 
2.156246225273e+01 -1.475893794002e+01 0.0 
4.919319648787e+01 -1.742767505896e+01 0.0 
4.437935623576e+01 -1.077662927266e+01 0.0 
1.001520521978e+01 -1.652692675208e+00 0.0 
9.067160240050e-01 -1.441937727541e+01 0.0 
2.603365149390e+01 -4.755996613848e+00 0.0 
2.458344439002e+01 -4.873645517696e+00 0.0 
2.304312390142e+01 -3.836552768096e+00 0.0 
2.546923202198e+00 -6.902480355749e+00 0.0 
1.251534969393e+01 -2.490989965776e+00 0.0 
2.454061833377e+01 -3.933354231935e+00 0.0 
1.788186558740e+01 -1.827424884923e+01 0.0 
4.090785243552e+01 -1.166553231904e+01 0.0 
2.230128851568e+01 -1.623015738726e+01 0.0 
2.302362347568e+01 -2.916239960270e+00 0.0 
3.878119254461e+01 -1.830091164002e+01 0.0 
2.210081359958e+01 -1.829238229150e+01 0.0 
8.443704882233e+00 -1.921993252862e+01 0.0 
2.218405824691e+01 -1.724557581508e+01 0.0 
2.151157503963e+01 -2.790636689331e+00 0.0 
3.741658958955e+01 -1.250400191722e+01 0.0 
2.697247663737e+01 -1.838290202309e+01 0.0 
4.743362342862e+01 -1.585850773010e+01 0.0 
6.671345075358e+00 -1.924977576322e+01 0.0 
3.900825404537e+01 -1.157220003875e+01 0.0 
4.649692961375e+01 -1.836335837481e+01 0.0 
1.578831424832e+01 -3.678284023361e+00 0.0 
4.814208768888e+01 -1.841249298770e+01 0.0 
2.964123298315e+01 -1.625739458193e+01 0.0 
4.580760351902e+01 -1.284294554687e+01 0.0 
3.561520879615e+01 -1.245548941949e+01 0.0 
2.555418095658e+00 -1.841101588290e+01 0.0 
3.288468366144e+01 -1.834258164109e+01 0.0 
2.065894391445e+01 -2.240688571739e+00 0.0 
4.739171429915e+01 -1.496536413446e+01 0.0 
3.478086729185e+00 -8.576434653209e+00 0.0 
1.606010630246e+01 -1.588421807951e+00 0.0 
1.018329200594e+01 -1.834320874317e+01 0.0 
2.957213339430e+01 -1.720496954591e+01 0.0 
4.142712790164e+00 -1.837794506222e+01 0.0 
6.698721532573e-01 -2.499999999997e+00 0.0 
8.037039123140e+00 -1.571229354954e+00 0.0 
1.203541361428e+01 -1.847784298001e+01 0.0 
2.899968332038e+01 -1.848264722179e+01 0.0 
1.469229460948e+01 -4.219485753730e+00 0.0 
4.049590781957e+01 -1.932812501995e+01 0.0 
1.996211678340e+01 -1.506329754720e+00 0.0 
4.250588298353e+01 -1.067383247529e+01 0.0 
5.831497011152e+00 -1.635396227234e+00 0.0 
5.317606125670e+00 -1.923927974868e+01 0.0 
4.208546426993e+01 -1.842830665025e+01 0.0 
2.327553405011e+00 -9.459409929662e+00 0.0 
3.568351902251e+01 -1.096637218582e+01 0.0 
1.682104374890e+00 -6.231413350963e+00 0.0 
2.451812238018e+01 -1.766524914339e+01 0.0 
1.058003429638e+01 -2.391839617098e+00 0.0 
4.399988753123e+01 -1.851998776342e+01 0.0 
1.400000000010e+01 -1.852293523028e+01 0.0 
3.604719565984e+01 -1.850662876800e+01 0.0 
1.951297136734e+01 -1.938092349694e+01 0.0 
1.821365318472e+01 -1.531276353287e+00 0.0 
2.298031859732e+01 -1.854635324722e+01 0.0 
1.552168066204e+01 -1.764280741977e+01 0.0 
4.572957713638e+01 -1.073347898229e+01 0.0 
3.429637429624e+01 -1.838861552790e+01 0.0 
2.427434426052e+00 -7.705577451869e+00 0.0 
4.662792031485e+00 -3.359424455416e+00 0.0 
4.926794919243e+01 -1.926794919243e+01 0.0 
7.320508075690e-01 -7.320508075688e-01 0.0 
4.926794919243e+01 -1.073205080757e+01 0.0 
7.320508075705e-01 -1.926794919243e+01 0.0 
2.917460242467e+00 -3.202866455310e+00 0.0 
4.838200575963e+01 -1.232674147454e+01 0.0 
2.998445708009e+01 -1.854403752148e+01 0.0 
5.949940090766e-01 -1.152762038165e+01 0.0 
4.844763495759e+01 -1.678092548787e+01 0.0 
1.301685480160e+01 -3.170056592566e+00 0.0 
1.650046335855e+01 -6.731535384067e-01 0.0 
4.854881540991e+01 -1.405224059779e+01 0.0 
2.119545114693e+01 -1.846813384545e+01 0.0 
3.797852849897e+01 -1.857978513215e+01 0.0 
4.649823708745e+01 -1.338351810816e+01 0.0 
2.012685900976e+01 -2.889659035009e+00 0.0 
2.953271913273e+01 -1.791558075192e+01 0.0 
2.408509097292e+00 -1.021949208421e+01 0.0 
2.642589566221e+01 -1.773216561448e+01 0.0 
1.730010270775e+01 -1.763165076721e+01 0.0 
2.017406551304e+01 -8.513536440582e-01 0.0 
5.254761581934e-01 -1.249999999999e+01 0.0 
6.640448215642e+00 -1.545337834885e+00 0.0 
7.843361506349e+00 -1.852719839527e+01 0.0 
1.588442191088e+00 -1.066158564320e+01 0.0 
3.480610198624e+01 -9.413633635267e+00 0.0 
4.951470588234e+01 -9.500000000000e+00 0.0 

CELLS 1956 7824 
3 196 666 942 
3 666 196 944 
3 676 169 687 
3 789 554 978 
3 556 616 782 
3 646 559 685 
3 176 598 600 
3 196 623 944 
3 598 176 616 
3 549 784 978 
3 168 743 744 
3 623 196 958 
3 788 940 984 
3 605 736 826 
3 940 202 984 
3 195 789 978 
3 604 175 745 
3 559 646 684 
3 183 603 925 
3 603 183 863 
3 784 549 937 
3 914 160 920 
3 641 914 920 
3 591 590 800 
3 290 446 735 
3 743 168 852 
3 106 82 1005 
3 635 161 877 
3 288 290 735 
3 800 590 1010 
3 540 750 752 
3 193 606 783 
3 676 687 985 
3 19 181 656 
3 191 610 612 
3 619 66 976 
3 66 619 1002 
3 638 187 682 
3 602 97 955 
3 97 602 1016 
3 878 620 904 
3 156 642 781 
3 959 157 963 
3 82 205 1005 
3 597 204 954 
3 636 959 963 
3 750 540 753 
3 204 597 980 
3 746 747 753 
3 736 605 977 
3 198 641 878 
3 588 603 863 
3 366 979 997 
3 198 878 904 
3 688 170 868 
3 961 533 1006 
3 588 863 932 
3 181 626 656 
3 449 777 895 
3 784 195 978 
3 155 989 1030 
3 969 595 971 
3 415 443 649 
3 979 752 997 
3 760 579 984 
3 641 198 914 
3 989 599 1030 
3 169 676 949 
3 476 437 758 
3 165 624 690 
3 852 795 906 
3 33 32 644 
3 635 877 1007 
3 4 5 770 
3 767 961 1006 
3 607 172 858 
3 688 868 1017 
3 655 960 967 
3 777 449 1019 
3 960 197 967 
3 437 450 758 
3 175 604 965 
3 160 666 920 
3 666 160 942 
3 616 556 828 
3 598 616 828 
3 627 852 957 
3 18 19 656 
3 681 678 926 
3 556 782 965 
3 783 606 956 
3 207 734 1005 
3 780 951 975 
3 975 951 987 
3 173 33 644 
3 682 187 1012 
3 604 745 977 
3 781 642 990 
3 201 633 930 
3 649 443 650 
3 782 616 1000 
3 202 760 984 
3 363 929 953 
3 594 969 971 
3 484 482 660 
3 747 750 753 
3 787 788 910 
3 553 780 975 
3 155 746 753 
3 883 178 1002 
3 328 681 926 
3 4 770 1021 
3 551 647 683 
3 518 834 872 
3 562 764 988 
3 622 649 650 
3 417 415 649 
3 191 612 970 
3 633 201 1025 
3 621 417 649 
3 652 582 927 
3 205 207 1005 
3 780 553 1028 
3 417 621 660 
3 972 871 986 
3 637 887 896 
3 764 562 1018 
3 887 162 896 
3 172 607 998 
3 584 972 986 
3 743 852 906 
3 554 789 980 
3 491 548 648 
3 162 620 896 
3 610 191 990 
3 788 545 940 
3 627 795 852 
3 648 548 848 
3 592 720 1010 
3 524 640 648 
3 574 785 786 
3 624 165 996 
3 826 736 973 
3 433 405 654 
3 640 491 648 
3 620 162 904 
3 548 686 848 
3 660 486 855 
3 176 600 955 
3 647 282 683 
3 606 193 994 
3 941 947 1025 
3 771 183 925 
3 199 637 872 
3 720 592 729 
3 621 484 660 
3 656 627 957 
3 623 157 959 
3 929 589 953 
3 182 628 629 
3 643 282 647 
3 626 181 910 
3 476 652 927 
3 788 547 910 
3 663 536 691 
3 178 883 992 
3 941 546 947 
3 482 486 660 
3 834 199 872 
3 168 744 1041 
3 157 623 958 
3 282 643 657 
3 405 456 654 
3 628 182 1016 
3 486 647 855 
3 637 199 887 
3 530 719 924 
3 764 465 988 
3 161 635 950 
3 690 624 974 
3 622 650 944 
3 465 764 1004 
3 707 837 891 
3 640 524 878 
3 623 622 944 
3 663 518 872 
3 647 551 855 
3 171 784 937 
3 294 703 913 
3 181 787 910 
3 636 197 960 
3 492 657 881 
3 678 703 926 
3 81 107 645 
3 524 620 878 
3 880 552 884 
3 776 908 1001 
3 791 184 1017 
3 289 214 696 
3 911 270 938 
3 400 880 884 
3 734 207 983 
3 735 446 973 
3 590 592 1010 
3 921 812 948 
3 658 229 686 
3 488 378 691 
3 295 289 696 
3 485 663 691 
3 536 663 872 
3 434 894 934 
3 719 568 924 
3 645 179 646 
3 650 666 944 
3 650 443 665 
3 548 658 686 
3 703 673 913 
3 559 558 864 
3 552 651 870 
3 602 628 1016 
3 657 643 881 
3 348 870 919 
3 608 818 1042 
3 694 295 696 
3 818 164 1042 
3 776 777 908 
3 197 636 963 
3 921 564 922 
3 668 295 694 
3 564 563 922 
3 544 653 659 
3 370 751 823 
3 582 759 927 
3 837 400 891 
3 536 488 691 
3 579 760 992 
3 107 179 645 
3 453 483 659 
3 243 282 657 
3 641 640 878 
3 651 552 880 
3 619 883 1002 
3 905 294 913 
3 352 334 689 
3 400 884 891 
3 852 168 957 
3 686 296 848 
3 695 696 892 
3 595 969 1014 
3 243 657 664 
3 483 544 659 
3 213 485 661 
3 644 32 998 
3 229 658 833 
3 702 245 841 
3 629 628 630 
3 758 450 962 
3 485 662 663 
3 452 352 689 
3 558 692 793 
3 540 752 979 
3 295 668 830 
3 378 661 691 
3 417 660 855 
3 668 507 830 
3 703 294 926 
3 296 667 809 
3 163 617 976 
3 493 702 841 
3 221 487 667 
3 551 683 814 
3 493 701 702 
3 335 351 692 
3 733 174 734 
3 247 244 664 
3 364 715 716 
3 695 905 913 
3 107 108 179 
3 485 211 662 
3 334 332 689 
3 408 453 659 
3 337 335 692 
3 216 213 661 
3 606 652 956 
3 444 534 665 
3 493 700 701 
3 661 485 691 
3 733 734 735 
3 454 559 684 
3 364 716 718 
3 365 368 715 
3 650 665 666 
3 695 892 905 
3 443 444 665 
3 330 247 664 
3 657 492 664 
3 454 558 559 
3 683 239 814 
3 583 653 655 
3 37 170 688 
3 39 184 687 
3 230 229 833 
3 351 334 352 
3 407 408 466 
3 222 221 667 
3 351 352 407 
3 364 365 715 
3 296 809 848 
3 785 574 1003 
3 689 492 881 
3 894 550 934 
3 583 466 653 
3 188 57 708 
3 407 352 408 
3 227 296 686 
3 454 358 558 
3 730 423 838 
3 244 243 664 
3 368 712 715 
3 487 378 488 
3 42 709 710 
3 332 330 492 
3 493 321 700 
3 467 466 583 
3 698 383 821 
3 870 651 919 
3 483 484 542 
3 557 698 821 
3 186 45 690 
3 460 552 870 
3 41 169 709 
3 826 446 856 
3 681 328 946 
3 544 542 636 
3 489 488 521 
3 221 378 487 
3 221 219 378 
3 297 833 859 
3 161 47 693 
3 288 735 983 
3 662 518 663 
3 492 330 664 
3 563 759 922 
3 521 536 637 
3 483 482 484 
3 182 629 882 
3 368 711 712 
3 332 492 689 
3 672 694 695 
3 453 482 483 
3 487 488 489 
3 321 323 700 
3 496 723 810 
3 50 185 699 
3 524 522 620 
3 336 338 718 
3 577 911 938 
3 543 622 623 
3 542 484 543 
3 678 675 703 
3 227 225 296 
3 534 640 641 
3 489 521 522 
3 54 187 704 
3 187 638 964 
3 675 673 703 
3 695 694 696 
3 723 263 810 
3 415 416 443 
3 335 334 351 
3 333 332 334 
3 229 227 686 
3 510 730 838 
3 278 724 725 
3 671 669 672 
3 338 364 718 
3 412 297 413 
3 667 487 809 
3 414 413 415 
3 169 40 687 
3 184 38 688 
3 184 791 985 
3 496 722 723 
3 507 409 830 
3 483 542 544 
3 331 330 332 
3 558 358 692 
3 444 491 534 
3 732 733 736 
3 698 826 856 
3 708 706 800 
3 679 678 681 
3 213 211 485 
3 220 219 221 
3 358 337 692 
3 755 757 758 
3 282 241 683 
3 235 233 297 
3 241 239 683 
3 152 871 972 
3 629 630 631 
3 759 563 927 
3 408 452 453 
3 57 56 708 
3 342 344 434 
3 206 518 662 
3 183 771 993 
3 833 658 859 
3 243 241 282 
3 219 216 661 
3 165 43 710 
3 521 488 536 
3 225 222 667 
3 278 725 731 
3 669 668 694 
3 496 721 722 
3 44 165 690 
3 41 40 169 
3 37 36 170 
3 39 38 184 
3 218 216 219 
3 672 669 694 
3 677 675 678 
3 415 413 416 
3 443 416 444 
3 727 724 811 
3 671 672 673 
3 46 186 693 
3 586 507 668 
3 700 434 701 
3 586 668 669 
3 427 425 728 
3 235 297 412 
3 534 491 640 
3 407 466 467 
3 173 644 968 
3 414 415 417 
3 808 527 877 
3 724 278 811 
3 369 372 711 
3 188 708 800 
3 453 481 482 
3 42 41 709 
3 184 688 1017 
3 226 225 227 
3 755 756 757 
3 44 43 165 
3 153 704 705 
3 368 369 711 
3 323 342 700 
3 159 51 699 
3 115 154 756 
3 412 413 414 
3 224 222 225 
3 228 227 229 
3 296 225 667 
3 466 408 659 
3 46 45 186 
3 329 247 330 
3 455 454 684 
3 617 163 1043 
3 756 154 757 
3 523 522 524 
3 750 751 752 
3 637 536 872 
3 153 55 704 
3 48 47 161 
3 378 219 661 
3 747 749 750 
3 596 455 684 
3 750 749 751 
3 840 538 853 
3 732 174 733 
3 208 206 662 
3 50 49 185 
3 190 732 736 
3 170 36 697 
3 430 427 728 
3 557 605 698 
3 543 621 622 
3 342 434 700 
3 558 793 864 
3 52 51 159 
3 40 39 687 
3 38 37 688 
3 496 304 721 
3 299 301 727 
3 235 412 814 
3 304 306 721 
3 54 53 187 
3 408 352 452 
3 715 714 716 
3 712 713 714 
3 447 557 821 
3 58 188 720 
3 747 748 749 
3 56 55 153 
3 711 576 712 
3 43 42 710 
3 677 678 679 
3 114 115 756 
3 412 551 814 
3 506 409 507 
3 45 44 690 
3 218 219 220 
3 473 430 474 
3 467 583 584 
3 706 705 707 
3 468 575 576 
3 712 576 713 
3 746 189 747 
3 47 46 693 
3 692 351 793 
3 460 508 552 
3 557 604 605 
3 794 526 813 
3 712 714 715 
3 220 221 222 
3 51 50 699 
3 301 403 727 
3 312 348 418 
3 232 230 233 
3 571 464 572 
3 716 714 717 
3 721 418 722 
3 233 230 833 
3 569 426 843 
3 342 343 344 
3 234 233 235 
3 271 273 731 
3 453 452 481 
3 299 727 811 
3 474 430 728 
3 298 321 493 
3 56 153 708 
3 585 507 586 
3 469 794 813 
3 55 54 704 
3 153 705 706 
3 240 239 241 
3 747 189 748 
3 59 720 729 
3 670 669 671 
3 372 468 711 
3 58 57 188 
3 306 312 721 
3 444 490 491 
3 211 208 662 
3 298 493 841 
3 302 496 810 
3 464 423 730 
3 696 214 892 
3 523 648 848 
3 344 362 363 
3 631 630 632 
3 273 278 731 
3 323 325 342 
3 468 525 575 
3 495 317 796 
3 113 114 754 
3 482 481 486 
3 468 576 711 
3 724 566 725 
3 238 236 239 
3 312 418 721 
3 447 555 557 
3 372 435 468 
3 59 58 720 
3 224 225 226 
3 494 565 566 
3 226 227 228 
3 494 566 724 
3 754 114 756 
3 210 208 211 
3 763 762 764 
3 164 120 778 
3 403 458 494 
3 312 347 348 
3 792 462 817 
3 572 730 874 
3 572 464 730 
3 206 166 518 
3 190 104 732 
3 587 697 890 
3 228 229 230 
3 120 121 778 
3 582 502 759 
3 748 754 755 
3 564 921 948 
3 480 530 924 
3 560 792 817 
3 357 840 853 
3 281 279 790 
3 319 317 495 
3 460 471 508 
3 377 358 454 
3 194 762 763 
3 167 766 767 
3 156 60 729 
3 60 59 729 
3 762 761 765 
3 494 458 565 
3 302 304 496 
3 508 590 591 
3 502 421 759 
3 355 440 460 
3 776 774 777 
3 403 494 727 
3 725 566 726 
3 180 773 774 
3 194 761 762 
3 506 507 585 
3 121 122 775 
3 105 174 732 
3 105 106 174 
3 423 327 838 
3 167 10 766 
3 468 435 525 
3 653 466 659 
3 613 611 614 
3 693 186 808 
3 497 391 824 
3 543 484 621 
3 606 582 652 
3 489 522 523 
3 101 175 782 
3 100 101 782 
3 121 775 778 
3 775 774 776 
3 769 771 772 
3 345 286 420 
3 180 768 773 
3 761 158 765 
3 155 111 746 
3 286 281 790 
3 634 632 654 
3 103 104 190 
3 530 625 719 
3 306 311 312 
3 631 632 633 
3 10 11 766 
3 769 772 773 
3 30 29 785 
3 172 30 785 
3 557 555 604 
3 175 102 745 
3 766 763 767 
3 28 171 786 
3 420 286 790 
3 104 105 732 
3 103 190 745 
3 521 637 896 
3 36 35 697 
3 785 29 786 
3 180 774 775 
3 122 180 775 
3 581 502 582 
3 725 726 862 
3 787 545 788 
3 110 111 155 
3 192 779 780 
3 112 189 746 
3 463 423 464 
3 112 113 189 
3 111 112 746 
3 570 464 571 
3 516 579 580 
3 633 632 634 
3 809 523 848 
3 768 769 773 
3 318 319 798 
3 25 24 789 
3 195 25 789 
3 102 103 745 
3 399 327 423 
3 29 28 786 
3 473 474 589 
3 769 770 771 
3 768 203 769 
3 769 203 770 
3 11 12 194 
3 202 69 760 
3 80 79 204 
3 124 203 768 
3 13 158 761 
3 70 69 202 
3 68 178 760 
3 61 156 781 
3 76 177 779 
3 78 77 192 
3 69 68 760 
3 68 67 178 
3 192 77 779 
3 124 125 203 
3 98 99 176 
3 101 102 175 
3 180 123 768 
3 65 64 163 
3 191 62 781 
3 63 62 191 
3 123 124 768 
3 122 123 180 
3 61 60 156 
3 62 61 781 
3 76 75 177 
3 95 96 182 
3 77 76 779 
3 74 73 201 
3 93 94 546 
3 119 120 164 
3 117 118 193 
3 116 117 783 
3 115 116 154 
3 13 14 158 
3 12 13 761 
3 117 193 783 
3 16 17 168 
3 154 116 783 
3 34 33 173 
3 28 27 171 
3 31 30 172 
3 6 7 183 
3 9 10 167 
3 27 26 784 
3 19 20 181 
3 26 25 195 
3 20 21 787 
3 21 22 545 
3 194 12 761 
3 171 27 784 
3 26 195 784 
3 181 20 787 
3 21 545 787 
3 410 411 795 
3 189 113 754 
3 301 402 403 
3 775 776 778 
3 613 614 615 
3 494 724 727 
3 376 360 797 
3 345 420 421 
3 908 609 1001 
3 516 580 797 
3 403 404 458 
3 194 763 766 
3 360 422 797 
3 553 554 597 
3 11 194 766 
3 348 347 355 
3 310 308 361 
3 410 359 411 
3 478 410 795 
3 329 330 331 
3 523 524 648 
3 239 236 814 
3 318 317 319 
3 422 515 516 
3 626 478 627 
3 469 563 564 
3 541 462 549 
3 457 406 462 
3 602 601 628 
3 316 314 317 
3 359 318 798 
3 553 541 554 
3 457 541 553 
3 361 308 820 
3 516 547 579 
3 419 391 497 
3 626 627 656 
3 617 615 618 
3 549 462 792 
3 396 394 397 
3 312 311 347 
3 356 438 439 
3 375 461 469 
3 581 582 606 
3 748 189 754 
3 457 462 541 
3 516 515 547 
3 755 754 756 
3 674 673 675 
3 600 500 601 
3 346 360 376 
3 422 478 515 
3 525 526 577 
3 515 478 626 
3 600 601 602 
3 342 325 343 
3 617 618 619 
3 588 470 603 
3 612 611 613 
3 405 397 406 
3 439 470 533 
3 469 564 794 
3 741 739 742 
3 393 395 499 
3 280 284 299 
3 456 406 457 
3 396 405 433 
3 565 458 737 
3 627 478 795 
3 422 410 478 
3 405 406 456 
3 398 350 436 
3 458 404 459 
3 431 517 593 
3 397 804 817 
3 403 402 404 
3 310 361 796 
3 610 538 611 
3 396 397 405 
3 539 455 596 
3 513 608 609 
3 339 337 358 
3 422 516 797 
3 395 394 396 
3 743 741 744 
3 499 500 598 
3 460 440 471 
3 737 459 738 
3 360 410 422 
3 439 438 470 
3 613 615 617 
3 458 459 737 
3 533 470 588 
3 459 404 806 
3 299 300 301 
3 285 281 286 
3 740 741 743 
3 119 164 818 
3 193 118 818 
3 411 359 798 
3 356 398 438 
3 316 317 318 
3 317 314 796 
3 273 277 278 
3 372 373 435 
3 419 497 498 
3 685 559 1035 
3 301 401 402 
3 508 471 590 
3 438 398 449 
3 499 395 500 
3 598 500 600 
3 501 421 502 
3 537 504 538 
3 390 388 391 
3 356 350 398 
3 573 497 842 
3 498 497 573 
3 293 350 356 
3 622 621 649 
3 287 286 345 
3 360 359 410 
3 738 739 740 
3 586 669 670 
3 419 498 560 
3 346 318 359 
3 316 318 346 
3 345 421 501 
3 346 359 360 
3 390 391 392 
3 740 739 741 
3 393 394 395 
3 392 391 419 
3 245 246 841 
3 804 560 817 
3 404 465 806 
3 738 459 739 
3 401 300 561 
3 275 272 276 
3 393 392 394 
3 267 269 302 
3 285 287 293 
3 513 502 581 
3 390 392 393 
3 285 286 287 
3 610 611 612 
3 397 394 804 
3 346 376 799 
3 153 706 708 
3 404 402 465 
3 293 287 350 
3 501 502 513 
3 315 314 316 
3 396 433 803 
3 513 581 608 
3 299 284 300 
3 603 470 801 
3 393 499 802 
3 301 300 401 
3 314 310 796 
3 401 561 562 
3 462 406 817 
3 284 281 285 
3 309 313 357 
3 469 461 563 
3 313 310 314 
3 742 739 806 
3 315 316 799 
3 716 717 898 
3 470 438 801 
3 601 500 803 
3 463 464 570 
3 413 297 859 
3 395 396 803 
3 375 469 813 
3 387 389 447 
3 438 449 801 
3 614 611 840 
3 399 423 463 
3 344 343 362 
3 498 573 574 
3 302 303 304 
3 436 350 807 
3 307 305 308 
3 537 538 610 
3 525 435 526 
3 316 346 799 
3 394 392 804 
3 369 371 372 
3 309 308 310 
3 555 448 556 
3 439 533 839 
3 280 281 284 
3 232 233 234 
3 313 314 315 
3 444 416 490 
3 234 235 236 
3 389 388 390 
3 500 395 803 
3 447 448 555 
3 739 459 806 
3 477 379 504 
3 304 305 306 
3 499 598 828 
3 676 675 677 
3 363 362 431 
3 309 310 313 
3 392 419 804 
3 273 275 277 
3 277 279 280 
3 345 501 807 
3 306 307 311 
3 280 299 811 
3 389 390 802 
3 447 389 448 
3 249 251 298 
3 790 279 812 
3 331 332 333 
3 280 279 281 
3 277 275 279 
3 287 345 807 
3 355 379 440 
3 268 266 270 
3 419 560 804 
3 264 266 267 
3 306 305 307 
3 302 269 303 
3 238 239 240 
3 350 287 807 
3 477 504 537 
3 477 537 642 
3 424 426 569 
3 273 272 275 
3 304 303 305 
3 390 393 802 
3 278 277 811 
3 412 414 551 
3 284 285 805 
3 435 373 813 
3 271 272 273 
3 285 293 805 
3 356 439 831 
3 303 269 503 
3 307 308 309 
3 442 479 480 
3 118 119 818 
3 260 258 261 
3 264 262 265 
3 271 270 272 
3 448 389 802 
3 267 268 269 
3 300 284 805 
3 268 270 271 
3 406 397 817 
3 561 300 805 
3 513 609 827 
3 807 501 827 
3 526 435 813 
3 275 276 812 
3 260 262 263 
3 267 266 268 
3 375 437 461 
3 436 807 827 
3 698 605 826 
3 805 293 831 
3 355 347 379 
3 428 441 442 
3 212 211 213 
3 451 385 472 
3 480 529 530 
3 246 249 841 
3 426 428 843 
3 373 374 375 
3 271 731 815 
3 242 241 243 
3 365 367 368 
3 437 374 450 
3 277 280 811 
3 264 265 266 
3 263 262 264 
3 561 805 831 
3 267 302 810 
3 260 261 262 
3 256 258 259 
3 279 275 812 
3 326 324 327 
3 387 388 389 
3 256 254 257 
3 440 379 477 
3 372 371 373 
3 590 471 592 
3 263 264 810 
3 530 624 625 
3 223 222 224 
3 373 375 813 
3 215 213 216 
3 505 409 506 
3 263 723 846 
3 486 643 647 
3 217 216 218 
3 297 233 833 
3 375 374 437 
3 607 578 644 
3 461 437 476 
3 638 532 639 
3 792 560 835 
3 349 327 399 
3 802 499 828 
3 386 385 451 
3 259 258 260 
3 298 320 321 
3 535 472 578 
3 309 357 816 
3 384 386 387 
3 463 570 651 
3 373 371 374 
3 384 382 385 
3 693 808 877 
3 477 642 829 
3 268 271 815 
3 448 802 828 
3 556 448 828 
3 264 267 810 
3 311 307 816 
3 347 311 819 
3 501 513 827 
3 333 334 335 
3 252 254 255 
3 256 257 258 
3 236 235 814 
3 535 578 607 
3 671 673 674 
3 560 498 835 
3 491 490 548 
3 381 353 409 
3 307 309 816 
3 573 842 858 
3 354 382 383 
3 269 268 815 
3 252 250 253 
3 384 385 386 
3 451 472 535 
3 391 388 824 
3 387 386 388 
3 538 504 853 
3 531 445 532 
3 504 379 819 
3 308 305 820 
3 620 522 896 
3 326 349 380 
3 291 289 295 
3 293 356 831 
3 255 254 256 
3 572 874 886 
3 321 322 323 
3 338 340 364 
3 252 253 254 
3 323 324 325 
3 489 523 809 
3 503 269 815 
3 383 698 856 
3 616 176 1000 
3 84 143 152 
3 305 303 820 
3 349 399 400 
3 670 671 791 
3 298 251 320 
3 303 503 820 
3 387 447 821 
3 85 144 197 
3 326 327 349 
3 322 320 510 
3 487 489 809 
3 311 816 819 
3 368 367 369 
3 379 347 819 
3 471 440 829 
3 325 324 326 
3 388 386 824 
3 432 430 473 
3 440 477 829 
3 86 145 157 
3 383 384 821 
3 593 517 594 
3 386 451 824 
3 323 322 324 
3 251 250 252 
3 893 565 897 
3 377 454 455 
3 497 824 842 
3 831 439 839 
3 87 146 196 
3 429 427 430 
3 498 574 835 
3 369 370 371 
3 231 230 232 
3 383 382 384 
3 862 726 867 
3 364 340 365 
3 486 481 643 
3 450 374 823 
3 369 367 370 
3 371 370 823 
3 321 320 322 
3 697 35 890 
3 88 147 160 
3 611 538 840 
3 248 247 329 
3 292 354 856 
3 339 358 377 
3 592 471 829 
3 374 371 823 
3 562 561 839 
3 343 325 822 
3 260 263 846 
3 431 445 517 
3 414 417 855 
3 291 295 830 
3 531 532 638 
3 384 387 821 
3 671 674 791 
3 382 381 845 
3 381 409 505 
3 351 407 793 
3 614 840 860 
3 354 381 382 
3 245 702 866 
3 89 148 198 
3 531 638 682 
3 336 335 337 
3 561 831 839 
3 431 362 445 
3 183 7 863 
3 237 236 238 
3 326 380 822 
3 505 506 825 
3 506 585 587 
3 325 326 822 
3 472 385 845 
3 246 244 247 
3 428 442 843 
3 90 149 162 
3 677 679 680 
3 91 150 199 
3 151 91 834 
3 249 298 841 
3 82 151 166 
3 519 274 520 
3 240 241 242 
3 252 255 832 
3 365 340 366 
3 249 250 251 
3 451 535 842 
3 674 675 676 
3 357 313 860 
3 517 445 531 
3 259 260 846 
3 381 505 845 
3 251 252 832 
3 615 614 869 
3 385 382 845 
3 409 353 830 
3 327 324 838 
3 246 248 249 
3 442 441 479 
3 220 222 223 
3 365 366 367 
3 336 337 338 
3 551 414 855 
3 228 230 231 
3 618 615 873 
3 354 353 381 
3 249 248 250 
3 424 569 849 
3 380 349 837 
3 824 451 842 
3 480 479 529 
3 446 292 856 
3 552 508 884 
3 320 251 832 
3 349 400 837 
3 234 236 237 
3 578 472 861 
3 530 529 624 
3 322 510 838 
3 338 337 339 
3 432 473 475 
3 237 274 512 
3 246 247 248 
3 324 322 838 
3 355 460 870 
3 338 339 340 
3 510 320 832 
3 215 216 217 
3 618 873 879 
3 217 218 328 
3 429 430 432 
3 212 213 215 
3 209 208 210 
3 223 224 283 
3 532 445 847 
3 840 357 860 
3 292 353 354 
3 506 587 825 
3 210 211 212 
3 329 331 509 
3 432 475 528 
3 842 535 858 
3 238 240 836 
3 237 238 274 
3 248 329 844 
3 353 291 830 
3 490 416 859 
3 519 520 550 
3 416 413 859 
3 362 343 847 
3 528 595 635 
3 253 250 844 
3 377 455 511 
3 585 586 868 
3 548 490 658 
3 886 259 899 
3 528 475 595 
3 292 291 353 
3 816 357 853 
3 242 243 244 
3 511 455 539 
3 879 580 883 
3 231 232 341 
3 344 363 894 
3 479 441 527 
3 539 596 599 
3 819 816 853 
3 452 689 881 
3 290 292 446 
3 361 867 888 
3 250 248 844 
3 615 869 873 
3 512 274 519 
3 329 509 844 
3 231 341 424 
3 511 539 540 
3 426 427 428 
3 343 822 847 
3 625 624 996 
3 428 429 441 
3 336 718 865 
3 313 315 860 
3 535 607 858 
3 682 159 900 
3 445 362 847 
3 245 244 246 
3 424 425 426 
3 797 580 879 
3 741 742 876 
3 428 427 429 
3 354 383 856 
3 614 860 869 
3 504 819 853 
3 95 182 882 
3 546 94 882 
3 215 217 294 
3 426 425 427 
3 495 796 888 
3 223 283 514 
3 520 274 836 
3 707 891 1015 
3 242 244 245 
3 34 173 890 
3 207 206 208 
3 274 238 836 
3 361 820 867 
3 333 335 336 
3 503 815 862 
3 424 341 425 
3 226 228 849 
3 290 291 292 
3 514 283 567 
3 514 567 568 
3 772 771 925 
3 815 731 862 
3 658 490 859 
3 218 220 850 
3 328 218 850 
3 639 532 875 
3 7 8 863 
3 366 340 854 
3 232 234 851 
3 731 725 862 
3 91 199 834 
3 166 151 834 
3 290 289 291 
3 407 467 793 
3 867 726 888 
3 400 399 880 
3 340 339 854 
3 161 693 877 
3 845 505 861 
3 566 565 893 
3 860 315 869 
3 777 774 895 
3 463 651 880 
3 341 232 851 
3 773 772 895 
3 472 845 861 
3 339 377 854 
3 220 223 850 
3 228 231 849 
3 256 259 886 
3 722 418 915 
3 505 825 861 
3 418 348 919 
3 237 512 851 
3 234 237 851 
3 143 83 871 
3 377 511 854 
3 429 432 857 
3 209 210 214 
3 432 528 857 
3 481 452 881 
3 673 672 913 
3 527 441 857 
3 518 166 834 
3 441 429 857 
3 315 799 869 
3 728 425 885 
3 503 862 867 
3 820 503 867 
3 586 670 868 
3 723 722 912 
3 231 424 849 
3 702 701 918 
3 348 355 870 
3 836 240 866 
3 865 718 898 
3 730 510 874 
3 509 331 865 
3 223 514 850 
3 509 865 898 
3 283 224 889 
3 532 847 875 
3 847 822 875 
3 240 242 866 
3 288 289 290 
3 869 799 873 
3 799 376 873 
3 467 584 864 
3 283 889 907 
3 618 879 883 
3 534 641 920 
3 495 893 897 
3 152 143 871 
3 873 376 879 
3 333 336 865 
3 744 741 876 
3 894 363 953 
3 288 214 289 
3 209 214 288 
3 341 851 885 
3 90 162 887 
3 199 150 887 
3 376 797 879 
3 915 418 919 
3 572 886 899 
3 399 463 880 
3 832 255 874 
3 331 333 865 
3 150 90 887 
3 207 208 209 
3 94 95 882 
3 822 380 875 
3 242 245 866 
3 531 682 900 
3 515 626 910 
3 510 832 874 
3 619 618 883 
3 898 717 902 
3 594 517 900 
3 851 512 885 
3 474 728 909 
3 508 591 884 
3 272 270 911 
3 849 569 889 
3 874 255 886 
3 226 849 889 
3 643 481 881 
3 589 474 917 
3 255 256 886 
3 796 361 888 
3 224 226 889 
3 986 200 999 
3 701 434 934 
3 655 152 972 
3 436 827 908 
3 495 888 893 
3 442 480 916 
3 214 210 892 
3 89 198 904 
3 35 34 890 
3 83 142 200 
3 162 149 904 
3 571 572 899 
3 565 737 897 
3 522 521 896 
3 928 713 931 
3 912 722 915 
3 425 341 885 
3 434 344 894 
3 679 981 991 
3 793 467 864 
3 726 566 893 
3 897 737 901 
3 790 812 921 
3 205 166 206 
3 210 212 892 
3 18 656 957 
3 774 773 895 
3 599 596 943 
3 759 421 922 
3 737 738 901 
3 253 902 923 
3 714 713 928 
3 718 716 898 
3 319 495 897 
3 215 294 905 
3 901 738 903 
3 253 844 902 
3 889 569 907 
3 605 604 977 
3 363 431 929 
3 738 740 903 
3 319 897 901 
3 88 160 914 
3 257 254 923 
3 903 740 906 
3 177 75 930 
3 74 201 930 
3 198 148 914 
3 798 319 901 
3 576 575 933 
3 655 653 960 
3 517 531 900 
3 563 461 927 
3 933 575 935 
3 918 701 934 
3 149 89 904 
3 740 743 906 
3 9 167 932 
3 205 206 207 
3 798 901 903 
3 259 846 899 
3 888 726 893 
3 646 685 999 
3 954 192 1028 
3 261 258 931 
3 837 707 952 
3 474 909 917 
3 411 798 903 
3 411 903 906 
3 902 717 923 
3 476 758 1008 
3 685 986 999 
3 795 411 906 
3 884 591 891 
3 525 577 936 
3 569 843 907 
3 666 665 920 
3 567 283 907 
3 642 156 995 
3 108 109 943 
3 24 23 939 
3 71 70 940 
3 73 72 941 
3 265 262 935 
3 728 885 909 
3 844 509 902 
3 827 609 908 
3 83 200 871 
3 792 835 937 
3 212 215 905 
3 82 166 205 
3 48 161 950 
3 863 8 932 
3 185 49 950 
3 892 212 905 
3 270 266 938 
3 885 512 909 
3 265 935 936 
3 544 636 960 
3 936 577 938 
3 294 217 926 
3 547 515 910 
3 261 931 933 
3 567 907 916 
3 943 109 1030 
3 257 923 928 
3 672 695 913 
3 276 272 911 
3 577 526 945 
3 512 519 909 
3 751 370 997 
3 87 196 942 
3 160 147 942 
3 276 945 948 
3 571 899 912 
3 836 866 918 
3 907 843 916 
3 676 677 949 
3 148 88 914 
3 779 177 951 
3 624 529 974 
3 509 898 902 
3 152 655 967 
3 665 534 920 
3 846 723 912 
3 514 568 946 
3 899 846 912 
3 559 864 1035 
3 570 571 915 
3 636 542 959 
3 866 702 918 
3 571 912 915 
3 909 519 917 
3 433 654 1034 
3 812 276 948 
3 583 655 972 
3 570 915 919 
3 543 623 959 
3 943 596 1013 
3 204 79 954 
3 78 192 954 
3 757 154 956 
3 651 570 919 
3 420 921 922 
3 420 790 921 
3 916 480 924 
3 519 550 917 
3 843 442 916 
3 257 928 931 
3 97 98 955 
3 191 781 990 
3 421 420 922 
3 380 837 952 
3 520 836 918 
3 603 801 925 
3 328 850 946 
3 254 253 923 
3 755 758 962 
3 717 714 928 
3 17 18 957 
3 217 328 926 
3 461 476 927 
3 744 876 1027 
3 568 567 924 
3 431 593 929 
3 911 577 945 
3 932 167 1006 
3 520 918 934 
3 75 74 930 
3 749 748 962 
3 808 186 974 
3 687 184 985 
3 201 941 1025 
3 644 578 968 
3 709 169 949 
3 258 257 931 
3 261 933 935 
3 705 704 964 
3 179 108 943 
3 8 9 932 
3 744 1027 1041 
3 276 911 945 
3 713 576 933 
3 86 157 958 
3 196 146 958 
3 604 555 965 
3 923 717 928 
3 839 533 961 
3 473 589 966 
3 163 64 970 
3 63 191 970 
3 262 261 935 
3 190 736 977 
3 599 943 1030 
3 85 197 963 
3 752 751 997 
3 157 145 963 
3 550 520 934 
3 575 525 936 
3 931 713 933 
3 753 540 989 
3 597 954 1028 
3 935 575 936 
3 549 792 937 
3 457 553 975 
3 789 24 939 
3 70 202 940 
3 201 73 941 
3 265 936 938 
3 147 87 942 
3 266 265 938 
3 66 65 976 
3 84 152 967 
3 197 144 967 
3 639 875 952 
3 782 175 965 
3 554 541 978 
3 567 916 924 
3 593 594 971 
3 679 681 981 
3 630 628 982 
3 945 794 948 
3 526 794 945 
3 951 177 1031 
3 966 593 971 
3 174 106 1005 
3 546 882 947 
3 629 631 947 
3 628 601 982 
3 511 540 979 
3 794 564 948 
3 574 786 1009 
3 803 433 982 
3 159 682 1012 
3 677 680 949 
3 850 514 946 
3 861 825 968 
3 465 402 988 
3 401 562 988 
3 642 537 990 
3 155 753 989 
3 588 932 1006 
3 49 48 950 
3 6 183 993 
3 882 629 947 
3 706 707 1015 
3 581 606 994 
3 164 778 1001 
3 31 172 998 
3 100 782 1000 
3 858 172 1003 
3 705 964 1039 
3 176 99 1000 
3 179 943 1013 
3 789 939 980 
3 436 908 1019 
3 574 573 1003 
3 67 66 1002 
3 674 676 985 
3 366 854 979 
3 736 733 973 
3 764 762 1004 
3 589 929 966 
3 52 159 1012 
3 780 779 951 
3 187 53 1012 
3 540 539 989 
3 617 619 976 
3 367 366 997 
3 772 925 1024 
3 188 800 1010 
3 697 587 1011 
3 607 644 998 
3 600 602 955 
3 207 209 983 
3 653 544 960 
3 709 949 1026 
3 767 763 1018 
3 584 986 1035 
3 929 593 966 
3 96 97 1016 
3 587 585 1011 
3 3 80 1020 
3 23 3 1020 
3 125 0 1021 
3 0 4 1021 
3 72 1 1022 
3 1 93 1022 
3 2 71 1023 
3 22 2 1023 
3 770 203 1021 
3 110 155 1030 
3 883 580 992 
3 528 635 1007 
3 449 398 1019 
3 613 617 1043 
3 16 168 1041 
3 158 14 1027 
3 654 632 1034 
3 823 751 1029 
3 589 917 953 
3 908 777 1019 
3 806 465 1037 
3 949 680 1026 
3 79 78 954 
3 876 158 1027 
3 631 633 1025 
3 527 808 1038 
3 981 719 991 
3 946 568 981 
3 98 176 955 
3 550 894 953 
3 868 670 1017 
3 533 588 1006 
3 154 783 956 
3 479 527 1038 
3 875 380 952 
3 751 749 1029 
3 634 951 1031 
3 760 178 992 
3 527 857 1007 
3 877 527 1007 
3 168 17 957 
3 645 646 999 
3 146 86 958 
3 542 543 959 
3 733 735 973 
3 917 550 953 
3 835 574 1009 
3 704 187 964 
3 748 755 962 
3 757 956 1008 
3 145 85 963 
3 654 456 987 
3 562 839 961 
3 825 587 1033 
3 925 801 1024 
3 638 639 964 
3 555 556 965 
3 699 185 969 
3 475 473 966 
3 735 734 983 
3 729 592 995 
3 587 890 1033 
3 939 204 980 
3 144 84 967 
3 578 861 968 
3 186 690 974 
3 964 639 1039 
3 475 966 971 
3 64 63 970 
3 681 946 981 
3 81 645 1040 
3 584 583 972 
3 680 679 991 
3 446 826 973 
3 547 788 984 
3 595 475 971 
3 163 970 1043 
3 456 457 975 
3 159 699 1032 
3 829 642 995 
3 592 829 995 
3 961 767 1018 
3 65 163 976 
3 745 190 977 
3 541 549 978 
3 758 757 1008 
3 553 597 1028 
3 634 654 987 
3 770 5 993 
3 854 511 979 
3 568 719 981 
3 172 785 1003 
3 597 554 980 
3 900 159 1032 
3 601 803 982 
3 193 818 994 
3 684 646 1013 
3 818 608 994 
3 652 476 1008 
3 142 81 1040 
3 465 1004 1037 
3 579 547 984 
3 791 674 985 
3 209 288 983 
3 402 401 988 
3 537 610 990 
3 591 800 1015 
3 969 185 1014 
3 808 974 1038 
3 719 625 991 
3 956 652 1008 
3 539 599 989 
3 580 579 992 
3 771 770 993 
3 5 6 993 
3 871 200 986 
3 608 581 994 
3 156 729 995 
3 165 710 996 
3 937 835 1009 
3 185 950 1014 
3 891 591 1015 
3 982 433 1034 
3 32 31 998 
3 370 367 997 
3 99 100 1000 
3 749 962 1029 
3 778 776 1001 
3 178 67 1002 
3 734 174 1005 
3 895 772 1024 
3 762 765 1004 
3 996 710 1026 
3 573 858 1003 
3 170 697 1011 
3 167 767 1006 
3 596 684 1013 
3 970 612 1043 
3 939 23 1020 
3 71 940 1023 
3 941 72 1022 
3 800 706 1015 
3 449 895 1024 
3 968 825 1033 
3 164 1001 1042 
3 720 188 1010 
3 868 170 1011 
3 646 179 1013 
3 857 528 1007 
3 456 975 987 
3 786 171 1009 
3 53 52 1012 
3 177 930 1031 
3 710 709 1026 
3 585 868 1011 
3 951 634 987 
3 996 1026 1036 
3 763 764 1018 
3 182 96 1016 
3 635 595 1014 
3 80 204 1020 
3 203 125 1021 
3 93 546 1022 
3 545 22 1023 
3 398 436 1019 
3 707 705 1039 
3 670 791 1017 
3 171 937 1009 
3 801 449 1024 
3 986 685 1035 
3 14 15 1027 
3 192 780 1028 
3 109 110 1030 
3 890 173 1033 
3 633 634 1031 
3 450 823 1029 
3 632 630 1034 
3 950 635 1014 
3 1027 15 1041 
3 200 142 1040 
3 562 961 1018 
3 742 806 1037 
3 15 16 1041 
3 594 900 1032 
3 765 158 1044 
3 876 742 1044 
3 609 608 1042 
3 612 613 1043 
3 529 479 1038 
3 864 584 1035 
3 204 939 1020 
3 940 545 1023 
3 546 941 1022 
3 930 633 1031 
3 1037 765 1044 
3 742 1037 1044 
3 158 876 1044 
3 639 952 1039 
3 962 450 1029 
3 974 529 1038 
3 947 631 1025 
3 173 968 1033 
3 952 707 1039 
3 630 982 1034 
3 680 991 1036 
3 969 594 1032 
3 699 969 1032 
3 999 200 1040 
3 991 625 1036 
3 625 996 1036 
3 1001 609 1042 
3 1004 765 1037 
3 645 999 1040 
3 1026 680 1036 
3 140 141 93 
3 140 93 94 
3 139 140 94 
3 139 94 95 
3 138 139 95 
3 138 95 96 
3 137 138 96 
3 137 96 97 
3 136 137 97 
3 136 97 98 
3 135 136 98 
3 135 98 99 
3 127 82 1045 
3 134 135 99 
3 106 82 127 
3 134 99 100 
3 133 134 100 
3 101 133 100 
3 132 133 101 
3 102 132 101 
3 131 132 102 
3 131 102 103 
3 126 127 1045 
3 131 103 130 
3 103 104 130 
3 104 129 130 
3 104 105 129 
3 105 106 128 
3 129 105 128 
3 128 106 127 
3 82 151 1045 
3 151 126 1045 
3 92 1 1046 
3 93 141 1046 
3 1 93 1046 
3 141 92 1046 
3 151 91 126 

CELL_TYPES 1956
5
5
5
5
5
5
5
5
5
5
5
5
5
5
5
5
5
5
5
5
5
5
5
5
5
5
5
5
5
5
5
5
5
5
5
5
5
5
5
5
5
5
5
5
5
5
5
5
5
5
5
5
5
5
5
5
5
5
5
5
5
5
5
5
5
5
5
5
5
5
5
5
5
5
5
5
5
5
5
5
5
5
5
5
5
5
5
5
5
5
5
5
5
5
5
5
5
5
5
5
5
5
5
5
5
5
5
5
5
5
5
5
5
5
5
5
5
5
5
5
5
5
5
5
5
5
5
5
5
5
5
5
5
5
5
5
5
5
5
5
5
5
5
5
5
5
5
5
5
5
5
5
5
5
5
5
5
5
5
5
5
5
5
5
5
5
5
5
5
5
5
5
5
5
5
5
5
5
5
5
5
5
5
5
5
5
5
5
5
5
5
5
5
5
5
5
5
5
5
5
5
5
5
5
5
5
5
5
5
5
5
5
5
5
5
5
5
5
5
5
5
5
5
5
5
5
5
5
5
5
5
5
5
5
5
5
5
5
5
5
5
5
5
5
5
5
5
5
5
5
5
5
5
5
5
5
5
5
5
5
5
5
5
5
5
5
5
5
5
5
5
5
5
5
5
5
5
5
5
5
5
5
5
5
5
5
5
5
5
5
5
5
5
5
5
5
5
5
5
5
5
5
5
5
5
5
5
5
5
5
5
5
5
5
5
5
5
5
5
5
5
5
5
5
5
5
5
5
5
5
5
5
5
5
5
5
5
5
5
5
5
5
5
5
5
5
5
5
5
5
5
5
5
5
5
5
5
5
5
5
5
5
5
5
5
5
5
5
5
5
5
5
5
5
5
5
5
5
5
5
5
5
5
5
5
5
5
5
5
5
5
5
5
5
5
5
5
5
5
5
5
5
5
5
5
5
5
5
5
5
5
5
5
5
5
5
5
5
5
5
5
5
5
5
5
5
5
5
5
5
5
5
5
5
5
5
5
5
5
5
5
5
5
5
5
5
5
5
5
5
5
5
5
5
5
5
5
5
5
5
5
5
5
5
5
5
5
5
5
5
5
5
5
5
5
5
5
5
5
5
5
5
5
5
5
5
5
5
5
5
5
5
5
5
5
5
5
5
5
5
5
5
5
5
5
5
5
5
5
5
5
5
5
5
5
5
5
5
5
5
5
5
5
5
5
5
5
5
5
5
5
5
5
5
5
5
5
5
5
5
5
5
5
5
5
5
5
5
5
5
5
5
5
5
5
5
5
5
5
5
5
5
5
5
5
5
5
5
5
5
5
5
5
5
5
5
5
5
5
5
5
5
5
5
5
5
5
5
5
5
5
5
5
5
5
5
5
5
5
5
5
5
5
5
5
5
5
5
5
5
5
5
5
5
5
5
5
5
5
5
5
5
5
5
5
5
5
5
5
5
5
5
5
5
5
5
5
5
5
5
5
5
5
5
5
5
5
5
5
5
5
5
5
5
5
5
5
5
5
5
5
5
5
5
5
5
5
5
5
5
5
5
5
5
5
5
5
5
5
5
5
5
5
5
5
5
5
5
5
5
5
5
5
5
5
5
5
5
5
5
5
5
5
5
5
5
5
5
5
5
5
5
5
5
5
5
5
5
5
5
5
5
5
5
5
5
5
5
5
5
5
5
5
5
5
5
5
5
5
5
5
5
5
5
5
5
5
5
5
5
5
5
5
5
5
5
5
5
5
5
5
5
5
5
5
5
5
5
5
5
5
5
5
5
5
5
5
5
5
5
5
5
5
5
5
5
5
5
5
5
5
5
5
5
5
5
5
5
5
5
5
5
5
5
5
5
5
5
5
5
5
5
5
5
5
5
5
5
5
5
5
5
5
5
5
5
5
5
5
5
5
5
5
5
5
5
5
5
5
5
5
5
5
5
5
5
5
5
5
5
5
5
5
5
5
5
5
5
5
5
5
5
5
5
5
5
5
5
5
5
5
5
5
5
5
5
5
5
5
5
5
5
5
5
5
5
5
5
5
5
5
5
5
5
5
5
5
5
5
5
5
5
5
5
5
5
5
5
5
5
5
5
5
5
5
5
5
5
5
5
5
5
5
5
5
5
5
5
5
5
5
5
5
5
5
5
5
5
5
5
5
5
5
5
5
5
5
5
5
5
5
5
5
5
5
5
5
5
5
5
5
5
5
5
5
5
5
5
5
5
5
5
5
5
5
5
5
5
5
5
5
5
5
5
5
5
5
5
5
5
5
5
5
5
5
5
5
5
5
5
5
5
5
5
5
5
5
5
5
5
5
5
5
5
5
5
5
5
5
5
5
5
5
5
5
5
5
5
5
5
5
5
5
5
5
5
5
5
5
5
5
5
5
5
5
5
5
5
5
5
5
5
5
5
5
5
5
5
5
5
5
5
5
5
5
5
5
5
5
5
5
5
5
5
5
5
5
5
5
5
5
5
5
5
5
5
5
5
5
5
5
5
5
5
5
5
5
5
5
5
5
5
5
5
5
5
5
5
5
5
5
5
5
5
5
5
5
5
5
5
5
5
5
5
5
5
5
5
5
5
5
5
5
5
5
5
5
5
5
5
5
5
5
5
5
5
5
5
5
5
5
5
5
5
5
5
5
5
5
5
5
5
5
5
5
5
5
5
5
5
5
5
5
5
5
5
5
5
5
5
5
5
5
5
5
5
5
5
5
5
5
5
5
5
5
5
5
5
5
5
5
5
5
5
5
5
5
5
5
5
5
5
5
5
5
5
5
5
5
5
5
5
5
5
5
5
5
5
5
5
5
5
5
5
5
5
5
5
5
5
5
5
5
5
5
5
5
5
5
5
5
5
5
5
5
5
5
5
5
5
5
5
5
5
5
5
5
5
5
5
5
5
5
5
5
5
5
5
5
5
5
5
5
5
5
5
5
5
5
5
5
5
5
5
5
5
5
5
5
5
5
5
5
5
5
5
5
5
5
5
5
5
5
5
5
5
5
5
5
5
5
5
5
5
5
5
5
5
5
5
5
5
5
5
5
5
5
5
5
5
5
5
5
5
5
5
5
5
5
5
5
5
5
5
5
5
5
5
5
5
5
5
5
5
5
5
5
5
5
5
5
5
5
5
5
5
5
5
5
5
5
5
5
5
5
5
5
5
5
5
5
5
5
5
5
5
5
5
5
5
5
5
5
5
5
5
5
5
5
5
5
5
5
5
5
5
5
5
5
5
5
5
5
5
5
5
5
5
5
5
5
5
5
5
5
5
5
5
5
5
5
5
5
5
5
5
5
5
5
5
5
5
5
5
5
5
5
5
5
5
5
5
5
5
5
5
5
5
5
5
5
5
5
5
5
5
5
5
5
5
5
5
5
5
5
5
5
5
5
5
5
5
5
5
5
5
5
5
5
5
5
5
5
5
5
5
5
5
5
5
5
5
5
5
5
5
5
5
5
5
5
5
5
5
5
5
5
5
5
5
5
5
5
5
5
5
5
5
5
5
5
5
5
5
5
5
5
5
5
5
5
5
5
5
5
5
5
5
5
5
5
5
5
5
5
5
5
5
5
5
5
5
5
5
5
5
5
5
5
5
5
5
5
5
5
5
5
5
5
5
5
5
5
5
5
5
5
5
5
5
5
5
5
5
5
5
5
5
5
5
5
5
5
5
5
5
5
5
5
5
5
5
5
5
5
5
5
5
5
5
5
5
5
5
5
5
5
5
5
5
5
5
5
5
5
5
5
5
5
5
5
5
5
5
5
5
5
5
5
5
5
5
5
5
5
5
5
5
5
5
5
5
5
5
5
5
5
5
5
5
5
5
5
5
5
5
5
5
5
5
5
5
5
5
5
5
5
5
5
5
5
5
5
5
5
5
5
5
5
5
5
5
5
5
5
5
5
5
5
5
5
5
5
5
5
5
5
5
5
5
5
5
5
5
5
5
5
5
5
5
5
5
5
5
5
5
5
5
5
5
5
5
5
5
5
5
5
5
5
5
5
5
5
5
5
5
5
5
5
5
5
5
5
5
5
5
5
5
5
5
5
5
5
5
5
5
5
5
5
5
5
5
5
5
5
5
5
5
5
5
5
5
5
5
5
5
5
5
5
5
5
5
5
5
5
5
5
5
5
5
5
5
5
5
5
5
5
5
5
5
5
5
5
5
5
5
5
5
5
5
5
5
5
5
5
5
5
5
5
5
5
5
5
5
5
5
5
5
5
5
5
5
5
5
5
5
5
5
5
5
5
5
5
5
5
5
5
5
5
5
5
5
5
5
5
5
5
5
5
5
5
5
5
5
5
5
5
5
5
5
5
5
5
5
5
5
5
5
5
5
5
5
5
5
5
5
5
5
5
5
5
5
5
5
5
5
5
5
5
5
5
5
5
5
5
5
5
5
5
5
5
5
5
5
5
5
5
5
5
5
5
5
5
5
5
5

POINT_DATA 1047

VECTORS coord float
0.0 0.0 0.0 
5.000000000000e+01 -1.000000000000e+01 0.0 
0.0 -2.000000000000e+01 0.0 
5.000000000000e+01 -2.000000000000e+01 0.0 
0.0 -9.999999999991e-01 0.0 
0.0 -1.999999999998e+00 0.0 
0.0 -2.999999999997e+00 0.0 
0.0 -3.999999999994e+00 0.0 
0.0 -4.999999999991e+00 0.0 
0.0 -5.999999999988e+00 0.0 
0.0 -6.999999999985e+00 0.0 
0.0 -7.999999999982e+00 0.0 
0.0 -8.999999999983e+00 0.0 
0.0 -9.999999999985e+00 0.0 
0.0 -1.099999999999e+01 0.0 
0.0 -1.199999999999e+01 0.0 
0.0 -1.299999999999e+01 0.0 
0.0 -1.399999999999e+01 0.0 
0.0 -1.499999999999e+01 0.0 
0.0 -1.599999999999e+01 0.0 
0.0 -1.700000000000e+01 0.0 
0.0 -1.800000000000e+01 0.0 
0.0 -1.900000000000e+01 0.0 
4.900000000001e+01 -2.000000000000e+01 0.0 
4.800000000001e+01 -2.000000000000e+01 0.0 
4.700000000002e+01 -2.000000000000e+01 0.0 
4.600000000003e+01 -2.000000000000e+01 0.0 
4.500000000004e+01 -2.000000000000e+01 0.0 
4.400000000004e+01 -2.000000000000e+01 0.0 
4.300000000005e+01 -2.000000000000e+01 0.0 
4.200000000006e+01 -2.000000000000e+01 0.0 
4.100000000006e+01 -2.000000000000e+01 0.0 
4.000000000007e+01 -2.000000000000e+01 0.0 
3.900000000008e+01 -2.000000000000e+01 0.0 
3.800000000009e+01 -2.000000000000e+01 0.0 
3.700000000009e+01 -2.000000000000e+01 0.0 
3.600000000010e+01 -2.000000000000e+01 0.0 
3.500000000011e+01 -2.000000000000e+01 0.0 
3.400000000011e+01 -2.000000000000e+01 0.0 
3.300000000012e+01 -2.000000000000e+01 0.0 
3.200000000013e+01 -2.000000000000e+01 0.0 
3.100000000013e+01 -2.000000000000e+01 0.0 
3.000000000013e+01 -2.000000000000e+01 0.0 
2.900000000013e+01 -2.000000000000e+01 0.0 
2.800000000013e+01 -2.000000000000e+01 0.0 
2.700000000013e+01 -2.000000000000e+01 0.0 
2.600000000013e+01 -2.000000000000e+01 0.0 
2.500000000013e+01 -2.000000000000e+01 0.0 
2.400000000013e+01 -2.000000000000e+01 0.0 
2.300000000013e+01 -2.000000000000e+01 0.0 
2.200000000013e+01 -2.000000000000e+01 0.0 
2.100000000013e+01 -2.000000000000e+01 0.0 
2.000000000013e+01 -2.000000000000e+01 0.0 
1.900000000013e+01 -2.000000000000e+01 0.0 
1.800000000013e+01 -2.000000000000e+01 0.0 
1.700000000012e+01 -2.000000000000e+01 0.0 
1.600000000011e+01 -2.000000000000e+01 0.0 
1.500000000011e+01 -2.000000000000e+01 0.0 
1.400000000010e+01 -2.000000000000e+01 0.0 
1.300000000009e+01 -2.000000000000e+01 0.0 
1.200000000009e+01 -2.000000000000e+01 0.0 
1.100000000008e+01 -2.000000000000e+01 0.0 
1.000000000007e+01 -2.000000000000e+01 0.0 
9.000000000064e+00 -2.000000000000e+01 0.0 
8.000000000057e+00 -2.000000000000e+01 0.0 
7.000000000050e+00 -2.000000000000e+01 0.0 
6.000000000043e+00 -2.000000000000e+01 0.0 
5.000000000036e+00 -2.000000000000e+01 0.0 
4.000000000028e+00 -2.000000000000e+01 0.0 
3.000000000021e+00 -2.000000000000e+01 0.0 
2.000000000014e+00 -2.000000000000e+01 0.0 
1.000000000007e+00 -2.000000000000e+01 0.0 
5.000000000000e+01 -1.100000000000e+01 0.0 
5.000000000000e+01 -1.200000000000e+01 0.0 
5.000000000000e+01 -1.300000000000e+01 0.0 
5.000000000000e+01 -1.400000000000e+01 0.0 
5.000000000000e+01 -1.500000000000e+01 0.0 
5.000000000000e+01 -1.600000000000e+01 0.0 
5.000000000000e+01 -1.700000000000e+01 0.0 
5.000000000000e+01 -1.800000000000e+01 0.0 
5.000000000000e+01 -1.900000000000e+01 0.0 
2.000000000000e+01 0.0 0.0 
3.500000000000e+01 -1.000000000000e+01 0.0 
2.150000000000e+01 -1.000000000000e+00 0.0 
2.300000000000e+01 -2.000000000000e+00 0.0 
2.450000000000e+01 -3.000000000000e+00 0.0 
2.600000000000e+01 -4.000000000000e+00 0.0 
2.750000000000e+01 -5.000000000000e+00 0.0 
2.900000000000e+01 -6.000000000000e+00 0.0 
3.050000000000e+01 -7.000000000000e+00 0.0 
3.200000000000e+01 -8.000000000000e+00 0.0 
3.350000000000e+01 -9.000000000000e+00 0.0 
5.000000000000e+01 -9.000000000000e+00 0.0 
4.900000000000e+01 -1.000000000000e+01 0.0 
4.800000000000e+01 -1.000000000000e+01 0.0 
4.700000000000e+01 -1.000000000000e+01 0.0 
4.600000000000e+01 -1.000000000000e+01 0.0 
4.500000000000e+01 -1.000000000000e+01 0.0 
4.400000000000e+01 -1.000000000000e+01 0.0 
4.300000000000e+01 -1.000000000000e+01 0.0 
4.200000000000e+01 -1.000000000000e+01 0.0 
4.100000000000e+01 -1.000000000000e+01 0.0 
4.000000000000e+01 -1.000000000000e+01 0.0 
3.900000000000e+01 -1.000000000000e+01 0.0 
3.800000000000e+01 -1.000000000000e+01 0.0 
3.700000000000e+01 -1.000000000000e+01 0.0 
3.600000000000e+01 -1.000000000000e+01 0.0 
1.900000000000e+01 0.0 0.0 
1.800000000000e+01 0.0 0.0 
1.700000000000e+01 0.0 0.0 
1.600000000000e+01 0.0 0.0 
1.500000000000e+01 0.0 0.0 
1.400000000000e+01 0.0 0.0 
1.300000000000e+01 0.0 0.0 
1.200000000000e+01 0.0 0.0 
1.100000000000e+01 0.0 0.0 
1.000000000000e+01 0.0 0.0 
9.000000000000e+00 0.0 0.0 
8.000000000000e+00 0.0 0.0 
7.000000000000e+00 0.0 0.0 
6.000000000000e+00 0.0 0.0 
5.000000000000e+00 0.0 0.0 
4.000000000000e+00 0.0 0.0 
3.000000000000e+00 0.0 0.0 
2.000000000000e+00 0.0 0.0 
1.000000000000e+00 0.0 0.0 
3.447058823527e+01 -9.000000000000e+00 0.0 
3.544117647055e+01 -9.000000000000e+00 0.0 
3.641176470582e+01 -9.000000000000e+00 0.0 
3.738235294109e+01 -9.000000000000e+00 0.0 
3.835294117637e+01 -9.000000000000e+00 0.0 
3.932352941164e+01 -9.000000000000e+00 0.0 
4.029411764691e+01 -9.000000000000e+00 0.0 
4.126470588219e+01 -9.000000000000e+00 0.0 
4.223529411748e+01 -9.000000000000e+00 0.0 
4.320588235279e+01 -9.000000000000e+00 0.0 
4.417647058811e+01 -9.000000000000e+00 0.0 
4.514705882342e+01 -9.000000000000e+00 0.0 
4.611764705874e+01 -9.000000000000e+00 0.0 
4.708823529405e+01 -9.000000000000e+00 0.0 
4.805882352937e+01 -9.000000000000e+00 0.0 
4.902941176468e+01 -9.000000000000e+00 0.0 
2.075000000000e+01 -5.000000000006e-01 0.0 
2.225000000000e+01 -1.500000000000e+00 0.0 
2.375000000000e+01 -2.500000000000e+00 0.0 
2.525000000000e+01 -3.500000000000e+00 0.0 
2.675000000000e+01 -4.500000000000e+00 0.0 
2.825000000000e+01 -5.500000000000e+00 0.0 
2.975000000000e+01 -6.500000000000e+00 0.0 
3.125000000000e+01 -7.500000000000e+00 0.0 
3.275000000000e+01 -8.500000000000e+00 0.0 
3.425000000000e+01 -9.500000000000e+00 0.0 
2.226951693683e+01 -2.403913980114e+00 0.0 
1.650149491944e+01 -1.913490915758e+01 0.0 
1.050042386896e+01 -8.504605092970e-01 0.0 
1.553146524712e+01 -8.281255032105e-01 0.0 
1.150000000008e+01 -1.913397459621e+01 0.0 
2.530060260647e+01 -4.428336431260e+00 0.0 
8.651114563942e-01 -1.052096295641e+01 0.0 
2.050000000013e+01 -1.913397459622e+01 0.0 
2.819198729811e+01 -6.399519052838e+00 0.0 
2.445670302931e+01 -1.915649188023e+01 0.0 
3.117591465718e+01 -8.394293040695e+00 0.0 
7.465053044742e+00 -1.920411160581e+01 0.0 
6.398295709691e+00 -8.230098819370e-01 0.0 
2.849659607461e+01 -1.914296187762e+01 0.0 
3.418732642882e+01 -1.040265792588e+01 0.0 
8.386450935063e-01 -6.533605142809e+00 0.0 
9.178661865596e-01 -1.329769195597e+01 0.0 
3.149448624493e+01 -1.910466733764e+01 0.0 
3.552916747426e+01 -1.914628590759e+01 0.0 
4.449210346537e+01 -1.914359085008e+01 0.0 
4.140975975145e+01 -1.906941860733e+01 0.0 
3.847475958753e+01 -1.916622382724e+01 0.0 
3.653774794640e+01 -1.088712800241e+01 0.0 
4.047886341787e+01 -1.090139014048e+01 0.0 
4.348006339825e+01 -1.092792621489e+01 0.0 
4.919519968029e+01 -1.451526755068e+01 0.0 
4.500000000032e+00 -1.913397459621e+01 0.0 
1.856136921614e+01 -8.212235170404e-01 0.0 
3.499895312306e+00 -8.661165539723e-01 0.0 
9.076088696565e-01 -1.642306201891e+01 0.0 
4.655174095477e+01 -1.086183387525e+01 0.0 
9.430688970604e-01 -3.496112672958e+00 0.0 
3.353992337063e+01 -1.901202090820e+01 0.0 
2.249746016977e+01 -1.921262287282e+01 0.0 
2.650122741777e+01 -1.916123026018e+01 0.0 
1.863571384842e+01 -1.908325534840e+01 0.0 
1.450089971693e+01 -1.917691901860e+01 0.0 
1.350044695317e+01 -8.659695299584e-01 0.0 
3.849987469880e+01 -1.084154983397e+01 0.0 
9.454419857884e+00 -1.900818879936e+01 0.0 
4.917398660523e+01 -1.645692866081e+01 0.0 
8.500000000000e+00 -8.660254037844e-01 0.0 
8.660319230785e-01 -8.500111697188e+00 0.0 
4.649022621545e+01 -1.930506220113e+01 0.0 
2.667688107845e+01 -5.420288124331e+00 0.0 
2.379251615665e+01 -3.412225477429e+00 0.0 
2.966631491830e+01 -7.389030232731e+00 0.0 
3.267915035995e+01 -9.396934932445e+00 0.0 
2.074836922338e+01 -1.320054020319e+00 0.0 
4.915985743621e+01 -1.261973384855e+01 0.0 
2.527129768623e+00 -1.931592414663e+01 0.0 
1.538676247410e+00 -8.436956619311e-01 0.0 
4.908096641539e+01 -1.842484004551e+01 0.0 
3.478612492673e+01 -1.090889364140e+01 0.0 
3.409757055860e+01 -1.131991530427e+01 0.0 
3.501895309466e+01 -1.177687842717e+01 0.0 
3.407758073088e+01 -1.224293381580e+01 0.0 
3.484541875390e+01 -1.277051428430e+01 0.0 
3.400322025842e+01 -1.319022775640e+01 0.0 
3.321672625034e+01 -1.266779191233e+01 0.0 
3.315244139236e+01 -1.360984106532e+01 0.0 
3.236335186892e+01 -1.308463225210e+01 0.0 
3.478337442841e+01 -1.372341158982e+01 0.0 
3.230105923633e+01 -1.403023731610e+01 0.0 
3.150954055289e+01 -1.350301767700e+01 0.0 
3.144604792090e+01 -1.444931742516e+01 0.0 
3.065653897123e+01 -1.392357262981e+01 0.0 
3.071897610812e+01 -1.297447031198e+01 0.0 
2.986790411740e+01 -1.339226181535e+01 0.0 
2.993181466745e+01 -1.244703272398e+01 0.0 
2.908023061869e+01 -1.286254537734e+01 0.0 
2.901619051372e+01 -1.380881655279e+01 0.0 
2.822986160390e+01 -1.327695262116e+01 0.0 
2.829453476870e+01 -1.233265343811e+01 0.0 
2.744542905518e+01 -1.274510491105e+01 0.0 
2.751120089246e+01 -1.180368086886e+01 0.0 
2.666218649885e+01 -1.221619339205e+01 0.0 
2.672371209234e+01 -1.127125228527e+01 0.0 
2.587763216302e+01 -1.168539979114e+01 0.0 
2.581165585299e+01 -1.262994410089e+01 0.0 
2.502890882577e+01 -1.209827323619e+01 0.0 
2.509631327757e+01 -1.115492410304e+01 0.0 
2.424662989877e+01 -1.156630981079e+01 0.0 
2.431704046904e+01 -1.062389179334e+01 0.0 
2.346445438728e+01 -1.103427680694e+01 0.0 
2.339382552877e+01 -1.197964871788e+01 0.0 
2.260936050780e+01 -1.144513277642e+01 0.0 
2.268075012022e+01 -1.049911928216e+01 0.0 
2.182525737661e+01 -1.090920811464e+01 0.0 
2.189682319817e+01 -9.961716944568e+00 0.0 
2.104174127792e+01 -1.037266986667e+01 0.0 
2.111304367575e+01 -9.424179358711e+00 0.0 
2.025306185381e+01 -9.832727364719e+00 0.0 
2.018141124247e+01 -1.079140628871e+01 0.0 
1.938594498257e+01 -1.025147354112e+01 0.0 
1.946106490453e+01 -9.288010758448e+00 0.0 
1.858929958352e+01 -9.706319802516e+00 0.0 
1.851540991219e+01 -1.067205988724e+01 0.0 
1.771485303178e+01 -1.012504443115e+01 0.0 
1.764134552256e+01 -1.109360378538e+01 0.0 
1.683745148095e+01 -1.054496365337e+01 0.0 
1.691852964353e+01 -9.582555261178e+00 0.0 
1.603603813062e+01 -1.000160132379e+01 0.0 
1.595824239350e+01 -1.096750698862e+01 0.0 
1.515080624291e+01 -1.041639501931e+01 0.0 
1.523171602559e+01 -9.451711491453e+00 0.0 
1.434621060709e+01 -9.871956467464e+00 0.0 
1.426777178765e+01 -1.083749501371e+01 0.0 
1.345775282374e+01 -1.028803175500e+01 0.0 
1.354103873368e+01 -9.324918457162e+00 0.0 
1.265072018622e+01 -9.742612837270e+00 0.0 
1.257285762070e+01 -1.071557782384e+01 0.0 
1.175874815690e+01 -1.015972324288e+01 0.0 
1.184203019714e+01 -9.193604071377e+00 0.0 
1.094927709905e+01 -9.612103238656e+00 0.0 
1.086938022910e+01 -1.058685085646e+01 0.0 
1.005424098961e+01 -1.002939116380e+01 0.0 
9.977974613295e+00 -1.101324897989e+01 0.0 
1.012915646404e+01 -9.051815821181e+00 0.0 
9.237127782494e+00 -9.471239055559e+00 0.0 
9.308426593771e+00 -8.483376461131e+00 0.0 
8.418806073345e+00 -8.910712374517e+00 0.0 
2.253688464062e+01 -1.239459402279e+01 0.0 
8.495126726666e+00 -7.921646665254e+00 0.0 
9.389727383206e+00 -7.512103628377e+00 0.0 
7.601560812974e+00 -8.349460349344e+00 0.0 
7.525680547759e+00 -9.339736686940e+00 0.0 
7.677888324502e+00 -7.359727833346e+00 0.0 
6.782001206724e+00 -7.788454494773e+00 0.0 
6.858778622885e+00 -6.797338062822e+00 0.0 
2.196596590865e+01 -8.979025665442e+00 0.0 
2.816540108272e+01 -1.422634142353e+01 0.0 
5.961601194403e+00 -7.226824010712e+00 0.0 
6.038171749656e+00 -6.234825887079e+00 0.0 
6.936257279557e+00 -5.805287640737e+00 0.0 
6.115068918323e+00 -5.242109758768e+00 0.0 
3.564391741903e+01 -1.329240553876e+01 0.0 
3.558115605778e+01 -1.425902892003e+01 0.0 
3.645445282201e+01 -1.381970786460e+01 0.0 
3.639744204358e+01 -1.479198128612e+01 0.0 
3.727266909778e+01 -1.435399586226e+01 0.0 
5.216667013081e+00 -5.671788584287e+00 0.0 
3.220697293295e+01 -1.499594545107e+01 0.0 
3.551112158269e+01 -1.523479869250e+01 0.0 
2.836056961467e+01 -1.139032434851e+01 0.0 
2.516730388602e+01 -1.021382726837e+01 0.0 
1.844436907403e+01 -1.164097215196e+01 0.0 
5.885434318740e+00 -8.218694781467e+00 0.0 
5.064071066867e+00 -7.656614643901e+00 0.0 
4.988089103470e+00 -8.649722082718e+00 0.0 
1.079421050408e+01 -1.157014985435e+01 0.0 
9.902420005256e+00 -1.199903342656e+01 0.0 
1.071994252214e+01 -1.255727909771e+01 0.0 
9.826974788171e+00 -1.298659581767e+01 0.0 
1.064607883789e+01 -1.354595476388e+01 0.0 
9.751541265343e+00 -1.397556905071e+01 0.0 
8.932296185869e+00 -1.341553353988e+01 0.0 
8.856399248106e+00 -1.440570715508e+01 0.0 
8.036186803543e+00 -1.384470558472e+01 0.0 
1.057112875118e+01 -1.453516759081e+01 0.0 
1.146582585687e+01 -1.410539926903e+01 0.0 
7.959894480382e+00 -1.483563350928e+01 0.0 
7.138792279156e+00 -1.427465094140e+01 0.0 
7.062506792418e+00 -1.526615385482e+01 0.0 
6.240693558277e+00 -1.470508863040e+01 0.0 
6.316957575451e+00 -1.371212581281e+01 0.0 
5.418183007107e+00 -1.414253605022e+01 0.0 
5.494748364428e+00 -1.314886770603e+01 0.0 
1.756825565873e+01 -1.206433872514e+01 0.0 
1.837565773345e+01 -1.261356468266e+01 0.0 
1.749574831391e+01 -1.303769280014e+01 0.0 
1.830539187332e+01 -1.358828364284e+01 0.0 
1.742278925170e+01 -1.401367746928e+01 0.0 
1.823303007798e+01 -1.456432294258e+01 0.0 
1.734941694138e+01 -1.499213734361e+01 0.0 
1.653760041637e+01 -1.443920312098e+01 0.0 
3.056237977307e+01 -1.487132260174e+01 0.0 
1.866469084762e+01 -8.742953000418e+00 0.0 
1.953669694916e+01 -8.326038909849e+00 0.0 
1.874194303780e+01 -7.780688158966e+00 0.0 
1.961032016741e+01 -7.366854697285e+00 0.0 
1.881715755159e+01 -6.821102209649e+00 0.0 
1.968369797150e+01 -6.407747217358e+00 0.0 
1.889237123259e+01 -5.858375520026e+00 0.0 
1.802038875366e+01 -6.276202618170e+00 0.0 
1.809793837984e+01 -5.307629520489e+00 0.0 
1.721985207997e+01 -5.728242054488e+00 0.0 
1.729850893523e+01 -4.756990819347e+00 0.0 
1.641745664240e+01 -5.174636548624e+00 0.0 
2.495978509456e+01 -1.304406404294e+01 0.0 
1.911567814831e+01 -1.413854250293e+01 0.0 
1.904387332608e+01 -1.511463127723e+01 0.0 
1.992115934240e+01 -1.468788025898e+01 0.0 
7.013706899628e+00 -4.812582868662e+00 0.0 
5.342091874585e+00 -1.513658157269e+01 0.0 
1.139098043784e+01 -1.509488509480e+01 0.0 
1.228151810610e+01 -1.465617481983e+01 0.0 
1.646373110164e+01 -1.541993323337e+01 0.0 
5.293328636712e+00 -4.678385108584e+00 0.0 
1.975965862987e+01 -5.448124345648e+00 0.0 
2.054318374236e+01 -5.992561293251e+00 0.0 
3.721453439063e+01 -1.533216152738e+01 0.0 
3.809302733893e+01 -1.489235527381e+01 0.0 
1.220852788900e+01 -1.565304565230e+01 0.0 
4.394120899730e+00 -5.108397613210e+00 0.0 
8.779354620288e+00 -1.539524721159e+01 0.0 
1.817791047702e+01 -4.338570146253e+00 0.0 
4.518860013839e+00 -1.457343189307e+01 0.0 
4.442712140414e+00 -1.556841391069e+01 0.0 
8.115343466391e+00 -1.285760324283e+01 0.0 
1.985334703171e+01 -1.566478400426e+01 0.0 
2.071953850276e+01 -1.522074243119e+01 0.0 
1.634012953883e+01 -6.154777738301e+00 0.0 
1.553479994708e+01 -5.593730508879e+00 0.0 
1.561265946942e+01 -4.617761762647e+00 0.0 
1.470674212978e+01 -5.064576488228e+00 0.0 
1.464498299883e+01 -6.026514471420e+00 0.0 
1.383271561817e+01 -5.467796261169e+00 0.0 
1.389241253067e+01 -4.504338666645e+00 0.0 
1.301868735463e+01 -4.907185188626e+00 0.0 
1.294514184846e+01 -5.888160903592e+00 0.0 
1.212955968622e+01 -5.328262335277e+00 0.0 
1.220721122383e+01 -4.341264976687e+00 0.0 
1.131324345897e+01 -4.766773516508e+00 0.0 
5.266597955397e+00 -1.613148974258e+01 0.0 
1.737805990867e+01 -3.786677807525e+00 0.0 
3.078438094513e+01 -1.203225297748e+01 0.0 
1.131569882285e+01 -1.608511932110e+01 0.0 
1.728478341782e+01 -1.596017432313e+01 0.0 
3.803465906019e+01 -1.587509751228e+01 0.0 
3.891681276677e+01 -1.543395196905e+01 0.0 
3.897340985302e+01 -1.444710288980e+01 0.0 
3.980095968193e+01 -1.499059496613e+01 0.0 
3.974334598189e+01 -1.597921884150e+01 0.0 
4.062964983717e+01 -1.553518690417e+01 0.0 
4.068729602479e+01 -1.454434445295e+01 0.0 
4.151772679790e+01 -1.508974196007e+01 0.0 
4.157505195739e+01 -1.409694289912e+01 0.0 
4.240699932656e+01 -1.464347955968e+01 0.0 
4.234898051011e+01 -1.563721375790e+01 0.0 
4.323934606035e+01 -1.519082036405e+01 0.0 
4.329740528208e+01 -1.419587509788e+01 0.0 
4.413056841369e+01 -1.474359631875e+01 0.0 
4.418850110108e+01 -1.374786684042e+01 0.0 
4.502219770667e+01 -1.429605103525e+01 0.0 
4.496411937907e+01 -1.529215882720e+01 0.0 
4.490027319897e+00 -4.154167794594e+00 0.0 
1.565080385988e+01 -1.486411982419e+01 0.0 
1.557610691279e+01 -1.584855627870e+01 0.0 
4.195350646612e+00 -8.089117689096e+00 0.0 
4.124027797830e+00 -9.082831955007e+00 0.0 
4.917944318925e+00 -9.643530901533e+00 0.0 
4.020105689502e+00 -1.007439673661e+01 0.0 
4.587185899277e+01 -1.484039992728e+01 0.0 
4.580078661551e+01 -1.584043391042e+01 0.0 
2.061956522375e+01 -5.046701343981e+00 0.0 
2.139572955529e+01 -5.579553449826e+00 0.0 
3.715344357292e+01 -1.631485124583e+01 0.0 
3.618886196443e+00 -1.500471207167e+01 0.0 
3.695606940204e+00 -1.400939692294e+01 0.0 
2.438890661143e+01 -9.686110599723e+00 0.0 
2.523267572778e+01 -9.276766000622e+00 0.0 
2.446094171539e+01 -8.751904591412e+00 0.0 
2.529089822738e+01 -8.321495612547e+00 0.0 
2.606882688827e+01 -8.864724051119e+00 0.0 
2.452116646430e+01 -7.792756462004e+00 0.0 
1.235543269617e+01 -1.365845617339e+01 0.0 
4.318116874181e+01 -1.618567469992e+01 0.0 
7.835066111909e+00 -5.376366223896e+00 0.0 
7.905687335704e+00 -4.382539065697e+00 0.0 
3.542640009567e+00 -1.600035116542e+01 0.0 
1.572431503071e+01 -1.388358386695e+01 0.0 
2.574684696680e+01 -1.357896141127e+01 0.0 
2.488842657651e+01 -1.399674354505e+01 0.0 
2.568301775611e+01 -1.453552048595e+01 0.0 
2.481535572009e+01 -1.495542756508e+01 0.0 
2.561729699688e+01 -1.549784648532e+01 0.0 
2.474623061296e+01 -1.592058894178e+01 0.0 
2.394234041695e+01 -1.537572575827e+01 0.0 
2.065825452567e+01 -1.621899055217e+01 0.0 
2.387180528935e+01 -1.634552264687e+01 0.0 
4.585364400844e+01 -1.383912334080e+01 0.0 
1.998744432052e+01 -1.370317155541e+01 0.0 
1.205356951443e+01 -6.313580285498e+00 0.0 
5.396543905849e+00 -3.731818611283e+00 0.0 
1.139652573295e+01 -3.745819399350e+00 0.0 
3.574124306703e+00 -4.551456826011e+00 0.0 
3.494140761930e+00 -5.539787055649e+00 0.0 
1.213651452413e+01 -1.664505033022e+01 0.0 
2.555045568519e+01 -1.646529356744e+01 0.0 
2.641671114986e+01 -1.603899382371e+01 0.0 
2.612920721894e+01 -7.906435260873e+00 0.0 
2.690339829698e+01 -8.456969591431e+00 0.0 
1.978024383368e+01 -1.664410216353e+01 0.0 
3.732829979082e+01 -1.336926601859e+01 0.0 
4.074336584605e+01 -1.355133328401e+01 0.0 
4.163204691081e+01 -1.310280943992e+01 0.0 
3.773826114429e+00 -3.493444309145e+00 0.0 
1.228783001032e+01 -3.374822835872e+00 0.0 
4.057110462520e+01 -1.652588478000e+01 0.0 
2.132535497898e+01 -6.523623360525e+00 0.0 
2.216932532211e+01 -6.110044769206e+00 0.0 
1.825781152128e+01 -3.370146817147e+00 0.0 
1.745679445888e+01 -2.812942552063e+00 0.0 
4.666517057280e+01 -1.539981381543e+01 0.0 
4.660575894464e+01 -1.639014410186e+01 0.0 
4.838230979954e+00 -1.063643436446e+01 0.0 
3.938942630206e+00 -1.106778981745e+01 0.0 
1.302967218620e+01 -1.621373452436e+01 0.0 
1.049548003190e+01 -4.204825123240e+00 0.0 
4.573571907195e+01 -1.683820511148e+01 0.0 
1.483686335807e+01 -1.430849689310e+01 0.0 
1.490982658890e+01 -1.332679386284e+01 0.0 
3.190805600162e+00 -9.510968358545e+00 0.0 
2.146625721848e+01 -4.642437303115e+00 0.0 
2.069866208266e+01 -4.111852942193e+00 0.0 
1.286859345584e+01 -6.873252723348e+00 0.0 
1.041794493184e+01 -5.194814260291e+00 0.0 
2.671081808965e+00 -4.976806516331e+00 0.0 
1.295786792925e+01 -1.720506531799e+01 0.0 
3.968438206511e+01 -1.696869067241e+01 0.0 
2.308550456051e+01 -1.579963151273e+01 0.0 
2.315593682844e+01 -1.482967445235e+01 0.0 
2.299471449450e+01 -1.677069968132e+01 0.0 
1.057344714696e+01 -3.214252277840e+00 0.0 
1.124057603753e+01 -1.707713739755e+01 0.0 
2.718402535754e+00 -1.543629882103e+01 0.0 
2.638549692805e+01 -1.696744916809e+01 0.0 
2.723416349007e+01 -1.658104204545e+01 0.0 
2.210193351704e+01 -7.046769643417e+00 0.0 
2.295180925161e+01 -6.657397605239e+00 0.0 
2.301355235833e+01 -5.709111896800e+00 0.0 
2.379052718281e+01 -6.254965406962e+00 0.0 
3.243528601237e+01 -1.214181853533e+01 0.0 
2.287977995457e+01 -7.583722368300e+00 0.0 
2.999876029544e+01 -1.150837653096e+01 0.0 
3.084435366963e+01 -1.109693775882e+01 0.0 
3.006650579669e+01 -1.057778994262e+01 0.0 
2.683802665066e+01 -9.386863216633e+00 0.0 
2.768641973621e+01 -8.988883915666e+00 0.0 
2.040296980397e+01 -7.903629133404e+00 0.0 
1.925235024054e+01 -1.218872783130e+01 0.0 
5.735667000424e+00 -1.020577277283e+01 0.0 
6.396559909872e+00 -1.272326295703e+01 0.0 
1.161199420714e+01 -1.212812778229e+01 0.0 
4.229046132615e+01 -1.663084237572e+01 0.0 
4.312275399692e+01 -1.718087491556e+01 0.0 
4.335502068163e+01 -1.320039231514e+01 0.0 
4.424630298089e+01 -1.275160688731e+01 0.0 
7.090116643816e+00 -3.818998061530e+00 0.0 
7.989472176569e+00 -3.389238711200e+00 0.0 
9.085824861778e+00 -1.144036167408e+01 0.0 
1.041972423731e+01 -1.651614080893e+01 0.0 
3.797525112640e+01 -1.686052038746e+01 0.0 
3.709114253394e+01 -1.730125999865e+01 0.0 
3.626966748340e+01 -1.675477052919e+01 0.0 
1.385164591440e+01 -1.677597757552e+01 0.0 
1.787152588784e+01 -8.198993896093e+00 0.0 
1.668849729812e+01 -1.248560611628e+01 0.0 
1.659546177905e+01 -3.232482605530e+00 0.0 
2.332214717345e+01 -1.292598167641e+01 0.0 
7.168238450786e+00 -2.824711686516e+00 0.0 
2.894878403906e+01 -1.475427524446e+01 0.0 
2.646763248247e+00 -1.643270107952e+01 0.0 
3.467431944285e+00 -1.699648837348e+01 0.0 
2.059475877282e+01 -1.719473628526e+01 0.0 
3.333868355437e+01 -1.080596971682e+01 0.0 
2.246451062637e+01 -1.334557761546e+01 0.0 
2.167821896388e+01 -1.280847834858e+01 0.0 
3.089653185767e+01 -1.017198487212e+01 0.0 
3.012604365669e+01 -9.657298805968e+00 0.0 
2.929627299435e+01 -1.006100135274e+01 0.0 
2.936201435219e+01 -9.136748899251e+00 0.0 
1.198219052702e+01 -7.291887238230e+00 0.0 
1.116702076035e+01 -6.731976101053e+00 0.0 
2.551388807505e+01 -1.746927036981e+01 0.0 
2.378639090370e+01 -1.728678807149e+01 0.0 
2.718543627188e+01 -1.748668016909e+01 0.0 
2.804681050301e+01 -1.712626668293e+01 0.0 
1.970737034667e+01 -1.762317646822e+01 0.0 
1.889535776135e+01 -1.707158098231e+01 0.0 
2.593777711283e+00 -5.971157087874e+00 0.0 
2.773468281110e+01 -8.067164273938e+00 0.0 
4.051205884347e+01 -1.751819982458e+01 0.0 
3.166903145421e+01 -1.068032992414e+01 0.0 
1.033042452886e+01 -1.748285844336e+01 0.0 
9.519274604626e+00 -1.694349240233e+01 0.0 
1.668308673328e+01 -2.255861778986e+00 0.0 
1.570531902832e+01 -2.676795860126e+00 0.0 
4.655826903379e+01 -1.736656245706e+01 0.0 
2.384148070773e+01 -5.328744256413e+00 0.0 
2.460255123641e+01 -5.852182672816e+00 0.0 
2.306638135119e+01 -4.798935440613e+00 0.0 
8.467720450578e-01 -1.849576263072e+01 0.0 
4.849657322345e+01 -1.084860705506e+01 0.0 
2.565860899507e+00 -1.742859793981e+01 0.0 
2.764418872564e+01 -9.927142821799e+00 0.0 
4.565165880064e+01 -1.785336695404e+01 0.0 
2.162231831329e+01 -1.376528337468e+01 0.0 
2.360646352969e+01 -9.136041963102e+00 0.0 
1.392738739903e+01 -1.578285505772e+01 0.0 
4.756405947478e+01 -1.683706841809e+01 0.0 
4.740895034054e+01 -1.793766756892e+01 0.0 
4.080779328826e+01 -1.257387192544e+01 0.0 
4.168907939671e+01 -1.210739129181e+01 0.0 
3.991197722154e+01 -1.300815793917e+01 0.0 
1.905536506762e+01 -3.940076697685e+00 0.0 
1.923879596617e+01 -2.875000734166e+00 0.0 
4.401386745746e+01 -1.673483229438e+01 0.0 
4.247233362525e+00 -7.094581653070e+00 0.0 
3.286051630211e+00 -7.635300020553e+00 0.0 
9.609533347623e+00 -4.594311677967e+00 0.0 
9.523554636369e+00 -5.595597029530e+00 0.0 
5.660336628893e+00 -1.119290329628e+01 0.0 
6.558070063295e+00 -1.076385809362e+01 0.0 
2.809866407414e+01 -1.518037766799e+01 0.0 
2.888868674504e+01 -1.570360690070e+01 0.0 
2.654431550819e+01 -1.411217777162e+01 0.0 
1.402158265969e+01 -1.375404617952e+01 0.0 
1.409592494026e+01 -1.277071998942e+01 0.0 
1.499355196178e+01 -1.235270737023e+01 0.0 
4.221535326155e+01 -1.759335617494e+01 0.0 
4.305583287033e+01 -1.822663146802e+01 0.0 
1.280748808359e+01 -7.834332838285e+00 0.0 
1.368988389326e+01 -7.420529606172e+00 0.0 
1.110091796060e+01 -7.683966794328e+00 0.0 
3.963446145980e+01 -1.794331310122e+01 0.0 
3.423932362213e+00 -1.796415590455e+01 0.0 
4.280814572302e+00 -1.752272834860e+01 0.0 
8.050136380041e+00 -2.421582378631e+00 0.0 
8.888674091650e+00 -2.984264211327e+00 0.0 
2.152839430898e+01 -3.732609965436e+00 0.0 
2.077799585292e+01 -3.183896021866e+00 0.0 
3.618719395821e+01 -1.770276572576e+01 0.0 
3.538165138340e+01 -1.718709995539e+01 0.0 
3.702925326420e+01 -1.828844288807e+01 0.0 
1.756739438711e+00 -5.353284859169e+00 0.0 
2.233710191104e+01 -1.527265621324e+01 0.0 
1.389483555057e+01 -1.771797164730e+01 0.0 
1.475634224300e+01 -1.728357428390e+01 0.0 
1.298797563052e+01 -1.825968924755e+01 0.0 
2.145331271866e+01 -1.673705379077e+01 0.0 
2.133282821169e+01 -1.769400773673e+01 0.0 
2.292139194136e+01 -1.774915400288e+01 0.0 
1.750750053243e+01 -1.861475593469e+00 0.0 
4.830478841772e+01 -1.752611802221e+01 0.0 
4.341203507805e+01 -1.220326745522e+01 0.0 
1.685254151866e+01 -1.443085301632e+00 0.0 
4.431538535165e+01 -1.171841387375e+01 0.0 
4.511308610496e+01 -1.229557320599e+01 0.0 
4.510133242889e+01 -1.123680627466e+01 0.0 
1.846818030617e+00 -4.410877617069e+00 0.0 
3.995468694584e+01 -1.186571542989e+01 0.0 
3.901387459804e+01 -1.242507616755e+01 0.0 
8.966735877533e+00 -1.837818700423e+00 0.0 
4.049310011091e+01 -1.848269508791e+01 0.0 
7.278862053803e+00 -1.918523922691e+00 0.0 
6.429715522129e+00 -2.316676521184e+00 0.0 
9.443505505022e+00 -1.792198868094e+01 0.0 
8.620386951051e+00 -1.737590365556e+01 0.0 
8.571868171503e+00 -1.834436667826e+01 0.0 
7.758629848526e+00 -1.775677907213e+01 0.0 
7.806648388584e+00 -1.680761266021e+01 0.0 
6.908555145436e+00 -1.723746463044e+01 0.0 
4.251709122090e+01 -1.156937480156e+01 0.0 
6.931136405615e+00 -1.832465719263e+01 0.0 
6.015545461353e+00 -1.768865355295e+01 0.0 
5.960535926343e+00 -1.872011001764e+01 0.0 
3.023253444786e+01 -8.761960642196e+00 0.0 
2.454622702599e+01 -6.749421992767e+00 0.0 
2.537499741604e+01 -6.347634963783e+00 0.0 
2.544077378460e+01 -5.431358513649e+00 0.0 
2.801367161747e+01 -1.820907270221e+01 0.0 
2.884507806914e+01 -1.762032095326e+01 0.0 
1.821474531936e+00 -1.588901260460e+01 0.0 
1.821006262604e+00 -1.489370287756e+01 0.0 
4.599962488908e+01 -1.176478780598e+01 0.0 
4.705457470007e+01 -1.172182804229e+01 0.0 
4.667668314802e+01 -1.263464558483e+01 0.0 
4.759648056504e+01 -1.252380987933e+01 0.0 
4.728041618103e+01 -1.341928568376e+01 0.0 
4.825209352360e+01 -1.330491640804e+01 0.0 
4.778118233428e+01 -1.420151961695e+01 0.0 
2.388192727579e+01 -1.826934810142e+01 0.0 
2.381714684947e+01 -4.385917965223e+00 0.0 
3.172733219247e+01 -9.758744265248e+00 0.0 
1.882012070658e+01 -1.805540597212e+01 0.0 
1.805667505243e+01 -1.742221226236e+01 0.0 
2.852599958080e+01 -8.597196079481e+00 0.0 
2.856486123437e+01 -7.661382718527e+00 0.0 
1.111792842875e+01 -1.818223852980e+01 0.0 
2.203322722466e+01 -7.986646678802e+00 0.0 
3.955703676900e+01 -1.903246763601e+01 0.0 
1.944842206513e+01 -8.038750575182e-01 0.0 
1.909882767783e+01 -1.746322740933e+00 0.0 
2.281147422941e+01 -8.525912918334e+00 0.0 
2.850633001468e+01 -9.533271335986e+00 0.0 
2.532883344309e+01 -7.308951659710e+00 0.0 
2.620475466461e+01 -6.979208585400e+00 0.0 
1.396278270396e+01 -1.475095389807e+01 0.0 
9.791001166724e+00 -2.554159793552e+00 0.0 
2.229293380421e+01 -4.269762271052e+00 0.0 
4.677238984118e+01 -1.430071795514e+01 0.0 
2.228658385918e+01 -3.344747535984e+00 0.0 
8.940223674553e-01 -1.543595733415e+01 0.0 
2.118566862474e+01 -8.435876987696e+00 0.0 
2.678325936437e+01 -1.032621195706e+01 0.0 
2.223400220487e+01 -5.179046761770e+00 0.0 
2.375370625384e+01 -7.251580562134e+00 0.0 
3.156971327386e+01 -1.255534750737e+01 0.0 
3.328226391312e+01 -1.172914813316e+01 0.0 
3.250948774219e+01 -1.120157009348e+01 0.0 
2.032993445717e+01 -8.867880112202e+00 0.0 
2.697226974856e+01 -7.536633082045e+00 0.0 
2.707377810386e+01 -6.590835263295e+00 0.0 
2.914099246827e+01 -1.191678458549e+01 0.0 
3.544824072239e+01 -1.621126558525e+01 0.0 
3.456511855436e+01 -1.665054783843e+01 0.0 
3.448395810225e+01 -1.759117813016e+01 0.0 
3.368378673938e+01 -1.708037781328e+01 0.0 
3.375560452567e+01 -1.610973066913e+01 0.0 
3.288001547988e+01 -1.654324255651e+01 0.0 
3.282475929147e+01 -1.749725654692e+01 0.0 
3.199880906313e+01 -1.697294088625e+01 0.0 
3.197001272932e+01 -1.811667776864e+01 0.0 
3.111884713021e+01 -1.742166785755e+01 0.0 
3.120418962865e+01 -1.642155709385e+01 0.0 
3.034666704371e+01 -1.683123833816e+01 0.0 
3.026224379976e+01 -1.772592851714e+01 0.0 
3.046632362943e+01 -1.582232843075e+01 0.0 
1.961344017324e+01 -1.857459447985e+01 0.0 
2.274975894774e+01 -9.532738811922e+00 0.0 
1.833923246887e+01 -2.396746883672e+00 0.0 
1.988859500848e+01 -2.249244376594e+00 0.0 
2.758045562861e+01 -1.086434261689e+01 0.0 
3.247300178163e+01 -1.909930104252e+01 0.0 
3.461947482503e+01 -1.911879848019e+01 0.0 
2.047161538662e+01 -6.941478180358e+00 0.0 
2.750230940214e+01 -1.915490590764e+01 0.0 
3.165081350803e+01 -1.161860780120e+01 0.0 
1.897456727641e+01 -4.889634688522e+00 0.0 
2.549338539756e+01 -1.914858252089e+01 0.0 
3.462873135081e+01 -1.567482276144e+01 0.0 
3.384432415243e+01 -1.512280684518e+01 0.0 
3.471433767690e+01 -1.469086942990e+01 0.0 
3.651470373046e+01 -1.918207952149e+01 0.0 
3.901742690249e+01 -1.345028556517e+01 0.0 
2.153224102692e+01 -1.920169709333e+01 0.0 
1.918382939341e+01 -1.316226275662e+01 0.0 
2.005389162382e+01 -1.271962165174e+01 0.0 
2.011472087878e+01 -1.175029352900e+01 0.0 
3.210679478412e+01 -1.598038618242e+01 0.0 
1.752175226543e+01 -1.914713022656e+01 0.0 
1.696897240059e+01 -1.832772588765e+01 0.0 
1.599682523337e+01 -1.832599992024e+01 0.0 
1.644507199462e+01 -1.743697981535e+01 0.0 
1.549987712903e+01 -1.915192375101e+01 0.0 
3.050250861901e+01 -1.918943550234e+01 0.0 
2.949944061527e+01 -1.922950455235e+01 0.0 
1.375892575273e+01 -6.447160534926e+00 0.0 
1.457223670180e+01 -7.006709243857e+00 0.0 
1.450818793236e+01 -7.965943451779e+00 0.0 
1.538804712402e+01 -7.553409623699e+00 0.0 
1.545817644768e+01 -6.580929593419e+00 0.0 
1.626506893751e+01 -7.129032608911e+00 0.0 
1.619833811522e+01 -8.086588580887e+00 0.0 
1.714448609609e+01 -6.697429609777e+00 0.0 
2.887616543568e+01 -1.668015232137e+01 0.0 
1.349814589130e+01 -1.918225301544e+01 0.0 
1.153887772210e+01 -1.311384581217e+01 0.0 
1.242708159886e+01 -1.267046795531e+01 0.0 
1.249799674267e+01 -1.169005616014e+01 0.0 
6.631723893693e+00 -9.774184881867e+00 0.0 
7.451471631867e+00 -1.033148796006e+01 0.0 
7.377795355458e+00 -1.132196345268e+01 0.0 
5.810931797536e+00 -9.211654212252e+00 0.0 
2.402683899133e+01 -1.441378562320e+01 0.0 
1.249768692036e+01 -1.917388426624e+01 0.0 
1.580373499437e+01 -1.290751860664e+01 0.0 
8.344650507834e+00 -9.898403995170e+00 0.0 
3.750622115305e+01 -1.086526401533e+01 0.0 
3.699391251667e+01 -1.171695900794e+01 0.0 
3.606517829518e+01 -1.173717504500e+01 0.0 
3.650257641795e+01 -1.270047380221e+01 0.0 
3.808951488918e+01 -1.183518714175e+01 0.0 
4.760380962420e+00 -1.162484888315e+01 0.0 
3.861210370848e+00 -1.205657631736e+01 0.0 
3.038284309476e+00 -1.149851280664e+01 0.0 
2.961598794889e+00 -1.248856794980e+01 0.0 
2.138953225512e+00 -1.193212674534e+01 0.0 
2.227383593457e+00 -1.096258903918e+01 0.0 
2.043265419276e+00 -1.292158472959e+01 0.0 
1.252449446028e+00 -1.225502002753e+01 0.0 
3.949985210740e+01 -1.086594001795e+01 0.0 
1.453499444792e+01 -8.768805922472e-01 0.0 
1.403518950933e+01 -1.749965556633e+00 0.0 
1.300715031023e+01 -1.714737233040e+00 0.0 
1.350929389899e+01 -2.527443911291e+00 0.0 
1.449600910711e+01 -2.595486162864e+00 0.0 
1.395693872901e+01 -3.484211041558e+00 0.0 
1.495105865208e+01 -3.364609636216e+00 0.0 
1.508822528740e+01 -1.766586020494e+00 0.0 
1.250223858430e+01 -8.634590186802e-01 0.0 
1.200279523409e+01 -1.709044504992e+00 0.0 
1.150086239419e+01 -8.592789190668e-01 0.0 
1.101482754194e+01 -1.677730591922e+00 0.0 
1.148018564526e+01 -2.659323866909e+00 0.0 
8.800552119754e+00 -3.989875954728e+00 0.0 
3.452790439430e+00 -1.901136170646e+01 0.0 
8.658451825200e-01 -9.503462241795e+00 0.0 
1.694787786797e+00 -9.000589234502e+00 0.0 
1.703436717094e+00 -8.038819004041e+00 0.0 
2.594197971110e+00 -8.563955242845e+00 0.0 
1.630513735412e+00 -9.907244747511e+00 0.0 
8.566859292791e-01 -7.512203837972e+00 0.0 
1.685461277022e+00 -7.164280248030e+00 0.0 
2.506394468801e+00 -8.623386730818e-01 0.0 
2.007475081581e+00 -1.727729545205e+00 0.0 
9.211534699767e-01 -1.628791366312e+00 0.0 
1.500000000020e+00 -2.598063549486e+00 0.0 
2.482078929963e+00 -2.553580088725e+00 0.0 
2.999795253092e+00 -1.732169015019e+00 0.0 
3.999712607169e+00 -1.728832897453e+00 0.0 
4.499752199340e+00 -8.656478679175e-01 0.0 
4.964377774841e+00 -1.730129617941e+00 0.0 
4.425017908337e+00 -2.597541756243e+00 0.0 
5.446573195014e+00 -8.410144840023e-01 0.0 
4.915722346614e+01 -1.550640962770e+01 0.0 
4.826794919243e+01 -1.600000000000e+01 0.0 
1.053139533193e+01 -1.911782884365e+01 0.0 
4.156049861949e+01 -1.095160998589e+01 0.0 
9.494526624416e+00 -8.650570090219e-01 0.0 
4.555762166964e+01 -1.897098103585e+01 0.0 
4.250656411371e+01 -1.914387356218e+01 0.0 
4.350906466345e+01 -1.917234727395e+01 0.0 
8.759665722424e-01 -1.746422130609e+01 0.0 
1.698936011838e+00 -1.795012186674e+01 0.0 
4.742476811029e+01 -1.900090177972e+01 0.0 
7.749196752349e+00 -6.368049313489e+00 0.0 
3.361572113416e+01 -1.798765193915e+01 0.0 
4.484660149212e+01 -1.728661231383e+01 0.0 
1.984038172228e+01 -4.502575320116e+00 0.0 
1.035080352627e+01 -6.166639575753e+00 0.0 
2.753558010652e+00 -1.444909521181e+01 0.0 
7.217069543032e+00 -1.328635391078e+01 0.0 
4.364336727739e+00 -1.655585677381e+01 0.0 
4.595208426108e+00 -1.357919665443e+01 0.0 
6.164967006980e+00 -1.569873454630e+01 0.0 
1.487855768353e+01 -1.826523774028e+01 0.0 
2.791876456372e+00 -4.019632415181e+00 0.0 
4.246464893515e+01 -1.364898659620e+01 0.0 
4.503855590351e+01 -1.329552780944e+01 0.0 
4.407239109604e+01 -1.573900004093e+01 0.0 
5.141054449252e+00 -6.664290382472e+00 0.0 
3.141083947149e+00 -1.055790764912e+01 0.0 
6.196463198741e+00 -4.256497932609e+00 0.0 
2.599618716181e+01 -1.836893455464e+01 0.0 
2.923057372337e+01 -1.098461757645e+01 0.0 
1.168343877486e+01 -1.114079645041e+01 0.0 
6.706222096238e+00 -8.780364234441e+00 0.0 
8.567858614669e+00 -6.943121440850e+00 0.0 
1.123755132901e+01 -5.753525820030e+00 0.0 
2.353456234423e+01 -1.008536320953e+01 0.0 
9.162073319168e+00 -1.045593739109e+01 0.0 
9.676343469685e+00 -1.496493008366e+01 0.0 
4.490637882905e+01 -1.628778970202e+01 0.0 
7.398129387772e+00 -9.639977982323e-01 0.0 
1.049641705805e+01 -1.552503975272e+01 0.0 
9.010356286268e+00 -1.242805042052e+01 0.0 
3.985573925497e+01 -1.399863651620e+01 0.0 
1.816196318262e+01 -1.554066497931e+01 0.0 
1.306332244168e+01 -3.963646550326e+00 0.0 
4.145850903932e+01 -1.608094559275e+01 0.0 
3.794664933633e+01 -1.779020121986e+01 0.0 
3.819614412903e+01 -1.290749321016e+01 0.0 
6.270014188119e+00 -3.255093186826e+00 0.0 
4.251165370388e+01 -1.263870364997e+01 0.0 
1.207347709171e+01 -1.763942826023e+01 0.0 
3.633240829927e+01 -1.577330481104e+01 0.0 
4.319052668832e+00 -6.101812561904e+00 0.0 
1.676492415806e+01 -1.151547901392e+01 0.0 
2.594059220037e+01 -1.074225223009e+01 0.0 
3.340750911501e+01 -9.898764354137e+00 0.0 
4.397619591281e+01 -1.769773736461e+01 0.0 
2.175611595028e+01 -1.185718747128e+01 0.0 
1.641818733106e+01 -1.640685203215e+01 0.0 
1.661211421753e+01 -1.346121366338e+01 0.0 
3.428853504935e+00 -6.551993389271e+00 0.0 
8.700728832502e+00 -1.638460872825e+01 0.0 
1.931369795309e+01 -1.121629383702e+01 0.0 
4.139798872363e+01 -1.706922153459e+01 0.0 
2.647837478700e+01 -1.507353829290e+01 0.0 
1.779469616424e+01 -9.161615782908e+00 0.0 
3.885879219319e+01 -1.642026488918e+01 0.0 
1.338194936770e+01 -1.125916521471e+01 0.0 
1.897071181111e+01 -1.609204322578e+01 0.0 
2.844308548793e+01 -1.046221003096e+01 0.0 
2.659854702194e+01 -1.316109415760e+01 0.0 
2.979604503271e+01 -1.433296157755e+01 0.0 
2.417694041347e+01 -1.251231397779e+01 0.0 
1.807401327411e+00 -1.388891148480e+01 0.0 
9.599810618782e+00 -1.595439365034e+01 0.0 
1.652144692160e+01 -4.205392788472e+00 0.0 
2.367839450246e+01 -8.188385218643e+00 0.0 
3.814894930468e+01 -1.390748338767e+01 0.0 
2.466448215774e+01 -1.685878545680e+01 0.0 
4.134044524611e+01 -1.806610045954e+01 0.0 
2.600511411958e+01 -9.801774120648e+00 0.0 
7.882158050716e+00 -1.582364037353e+01 0.0 
3.881607873422e+01 -1.737970515013e+01 0.0 
8.270182347708e+00 -1.088622154920e+01 0.0 
8.672520392520e-01 -4.532984309881e+00 0.0 
1.993447205337e+01 -3.579061902667e+00 0.0 
1.794616079549e+01 -7.238038888498e+00 0.0 
2.097277068165e+01 -1.132450168636e+01 0.0 
8.194803300681e+00 -1.187214224265e+01 0.0 
3.522279404911e+01 -1.823342818178e+01 0.0 
6.984481050295e+00 -1.625271465557e+01 0.0 
1.309433007797e+01 -1.521718594215e+01 0.0 
2.150246167611e+01 -1.885399038185e+00 0.0 
3.250689370209e+01 -1.028789870535e+01 0.0 
6.085886272238e+00 -1.668342132851e+01 0.0 
1.588455661727e+01 -1.193498985921e+01 0.0 
1.809323400821e+01 -1.651110084195e+01 0.0 
1.348885082381e+00 -1.136065576512e+01 0.0 
2.497670221995e+01 -1.834631276173e+01 0.0 
2.937062818424e+01 -8.233711194470e+00 0.0 
5.185823744469e+00 -1.711566910207e+01 0.0 
1.477497877209e+01 -1.530177014512e+01 0.0 
2.125346158933e+01 -7.473003997367e+00 0.0 
4.751561118290e+01 -1.084897772632e+01 0.0 
5.056026576843e+00 -1.825750475525e+01 0.0 
1.473948554523e+01 -1.634577436309e+01 0.0 
2.410566630936e+01 -1.345970002612e+01 0.0 
1.507337507513e+01 -1.138527895328e+01 0.0 
3.189857338687e+01 -8.887781229006e+00 0.0 
7.298712468334e+00 -1.230231046246e+01 0.0 
2.738235495295e+01 -1.368931690364e+01 0.0 
3.750141041969e+01 -1.920449893070e+01 0.0 
1.557271965640e+01 -1.683317951731e+01 0.0 
3.393731848929e+01 -1.413034777044e+01 0.0 
6.482156824153e+00 -1.174575135362e+01 0.0 
2.077971718439e+01 -1.421279621836e+01 0.0 
3.455084320178e+00 -2.562590040585e+00 0.0 
3.099056096250e+01 -9.270280416035e+00 0.0 
5.580176125418e+00 -1.217387969259e+01 0.0 
1.707247630389e+01 -7.660651981710e+00 0.0 
1.418658814174e+01 -1.180390575393e+01 0.0 
2.049103025389e+01 -1.811296706038e+01 0.0 
4.680386172316e+00 -1.260396879301e+01 0.0 
1.699679896554e+01 -8.624561788199e+00 0.0 
3.779470168555e+00 -1.303424899720e+01 0.0 
3.036589870126e+01 -7.879832518349e+00 0.0 
3.306993001774e+01 -1.457671062095e+01 0.0 
2.840150110165e+00 -1.346530088269e+01 0.0 
2.732011135052e+01 -1.464591214560e+01 0.0 
5.423639259568e+00 -2.659711955016e+00 0.0 
2.324455961696e+01 -1.387269388211e+01 0.0 
1.752768355571e+00 -1.693128613594e+01 0.0 
1.020244783051e+01 -8.076834012808e+00 0.0 
1.330873875224e+01 -1.222417528206e+01 0.0 
3.297727364880e+01 -1.555480372087e+01 0.0 
2.890929955439e+01 -6.868664170731e+00 0.0 
1.323294664622e+01 -1.320754260334e+01 0.0 
2.726532861246e+01 -1.560593120806e+01 0.0 
2.240020643398e+01 -1.429299177247e+01 0.0 
2.090445823633e+01 -1.228128621332e+01 0.0 
1.315809881502e+01 -1.420739326938e+01 0.0 
2.781328038068e+01 -7.181956082300e+00 0.0 
8.614200829057e+00 -5.936933226306e+00 0.0 
8.714765730069e+00 -4.979270529687e+00 0.0 
1.611881701099e+01 -9.041973294003e+00 0.0 
2.806830314340e+01 -1.614622947108e+01 0.0 
2.084435391396e+00 -3.385085422913e+00 0.0 
3.133211811152e+01 -1.542347619750e+01 0.0 
9.693114650768e+00 -3.590281506442e+00 0.0 
1.531883592202e+01 -8.504584946143e+00 0.0 
2.151589117094e+01 -1.578915763018e+01 0.0 
4.918943882696e+01 -1.355538828056e+01 0.0 
1.443236615188e+01 -8.918701794549e+00 0.0 
8.276250966452e-01 -5.537685192197e+00 0.0 
1.362790867918e+01 -8.374718262212e+00 0.0 
2.083767477370e+01 -1.324843956035e+01 0.0 
1.273834678703e+01 -8.790890389337e+00 0.0 
1.192275845670e+01 -8.242261327467e+00 0.0 
4.477236023583e+01 -1.824312396664e+01 0.0 
1.102989384254e+01 -8.649855800911e+00 0.0 
4.849096516045e+01 -1.917293752213e+01 0.0 
1.588996752238e+00 -1.910230934687e+01 0.0 
4.904245197583e+01 -1.159839008158e+01 0.0 
2.753852929608e+01 -5.782128488093e+00 0.0 
1.756133602833e+01 -8.306130313187e-01 0.0 
2.615423700951e+01 -6.153865090092e+00 0.0 
1.028818761294e+01 -7.122020845892e+00 0.0 
2.970818901196e+01 -1.527821347593e+01 0.0 
4.801461623449e+01 -1.164472570985e+01 0.0 
9.455722100419e+00 -6.546069291118e+00 0.0 
3.089099236677e+01 -1.835339328261e+01 0.0 
2.350000000013e+01 -1.920825896750e+01 0.0 
4.830620531887e+01 -1.506626155470e+01 0.0 
1.725381944701e+01 -1.688794487850e+01 0.0 
2.156246225273e+01 -1.475893794002e+01 0.0 
4.919319648787e+01 -1.742767505896e+01 0.0 
4.437935623576e+01 -1.077662927266e+01 0.0 
1.001520521978e+01 -1.652692675208e+00 0.0 
9.067160240050e-01 -1.441937727541e+01 0.0 
2.603365149390e+01 -4.755996613848e+00 0.0 
2.458344439002e+01 -4.873645517696e+00 0.0 
2.304312390142e+01 -3.836552768096e+00 0.0 
2.546923202198e+00 -6.902480355749e+00 0.0 
1.251534969393e+01 -2.490989965776e+00 0.0 
2.454061833377e+01 -3.933354231935e+00 0.0 
1.788186558740e+01 -1.827424884923e+01 0.0 
4.090785243552e+01 -1.166553231904e+01 0.0 
2.230128851568e+01 -1.623015738726e+01 0.0 
2.302362347568e+01 -2.916239960270e+00 0.0 
3.878119254461e+01 -1.830091164002e+01 0.0 
2.210081359958e+01 -1.829238229150e+01 0.0 
8.443704882233e+00 -1.921993252862e+01 0.0 
2.218405824691e+01 -1.724557581508e+01 0.0 
2.151157503963e+01 -2.790636689331e+00 0.0 
3.741658958955e+01 -1.250400191722e+01 0.0 
2.697247663737e+01 -1.838290202309e+01 0.0 
4.743362342862e+01 -1.585850773010e+01 0.0 
6.671345075358e+00 -1.924977576322e+01 0.0 
3.900825404537e+01 -1.157220003875e+01 0.0 
4.649692961375e+01 -1.836335837481e+01 0.0 
1.578831424832e+01 -3.678284023361e+00 0.0 
4.814208768888e+01 -1.841249298770e+01 0.0 
2.964123298315e+01 -1.625739458193e+01 0.0 
4.580760351902e+01 -1.284294554687e+01 0.0 
3.561520879615e+01 -1.245548941949e+01 0.0 
2.555418095658e+00 -1.841101588290e+01 0.0 
3.288468366144e+01 -1.834258164109e+01 0.0 
2.065894391445e+01 -2.240688571739e+00 0.0 
4.739171429915e+01 -1.496536413446e+01 0.0 
3.478086729185e+00 -8.576434653209e+00 0.0 
1.606010630246e+01 -1.588421807951e+00 0.0 
1.018329200594e+01 -1.834320874317e+01 0.0 
2.957213339430e+01 -1.720496954591e+01 0.0 
4.142712790164e+00 -1.837794506222e+01 0.0 
6.698721532573e-01 -2.499999999997e+00 0.0 
8.037039123140e+00 -1.571229354954e+00 0.0 
1.203541361428e+01 -1.847784298001e+01 0.0 
2.899968332038e+01 -1.848264722179e+01 0.0 
1.469229460948e+01 -4.219485753730e+00 0.0 
4.049590781957e+01 -1.932812501995e+01 0.0 
1.996211678340e+01 -1.506329754720e+00 0.0 
4.250588298353e+01 -1.067383247529e+01 0.0 
5.831497011152e+00 -1.635396227234e+00 0.0 
5.317606125670e+00 -1.923927974868e+01 0.0 
4.208546426993e+01 -1.842830665025e+01 0.0 
2.327553405011e+00 -9.459409929662e+00 0.0 
3.568351902251e+01 -1.096637218582e+01 0.0 
1.682104374890e+00 -6.231413350963e+00 0.0 
2.451812238018e+01 -1.766524914339e+01 0.0 
1.058003429638e+01 -2.391839617098e+00 0.0 
4.399988753123e+01 -1.851998776342e+01 0.0 
1.400000000010e+01 -1.852293523028e+01 0.0 
3.604719565984e+01 -1.850662876800e+01 0.0 
1.951297136734e+01 -1.938092349694e+01 0.0 
1.821365318472e+01 -1.531276353287e+00 0.0 
2.298031859732e+01 -1.854635324722e+01 0.0 
1.552168066204e+01 -1.764280741977e+01 0.0 
4.572957713638e+01 -1.073347898229e+01 0.0 
3.429637429624e+01 -1.838861552790e+01 0.0 
2.427434426052e+00 -7.705577451869e+00 0.0 
4.662792031485e+00 -3.359424455416e+00 0.0 
4.926794919243e+01 -1.926794919243e+01 0.0 
7.320508075690e-01 -7.320508075688e-01 0.0 
4.926794919243e+01 -1.073205080757e+01 0.0 
7.320508075705e-01 -1.926794919243e+01 0.0 
2.917460242467e+00 -3.202866455310e+00 0.0 
4.838200575963e+01 -1.232674147454e+01 0.0 
2.998445708009e+01 -1.854403752148e+01 0.0 
5.949940090766e-01 -1.152762038165e+01 0.0 
4.844763495759e+01 -1.678092548787e+01 0.0 
1.301685480160e+01 -3.170056592566e+00 0.0 
1.650046335855e+01 -6.731535384067e-01 0.0 
4.854881540991e+01 -1.405224059779e+01 0.0 
2.119545114693e+01 -1.846813384545e+01 0.0 
3.797852849897e+01 -1.857978513215e+01 0.0 
4.649823708745e+01 -1.338351810816e+01 0.0 
2.012685900976e+01 -2.889659035009e+00 0.0 
2.953271913273e+01 -1.791558075192e+01 0.0 
2.408509097292e+00 -1.021949208421e+01 0.0 
2.642589566221e+01 -1.773216561448e+01 0.0 
1.730010270775e+01 -1.763165076721e+01 0.0 
2.017406551304e+01 -8.513536440582e-01 0.0 
5.254761581934e-01 -1.249999999999e+01 0.0 
6.640448215642e+00 -1.545337834885e+00 0.0 
7.843361506349e+00 -1.852719839527e+01 0.0 
1.588442191088e+00 -1.066158564320e+01 0.0 
3.480610198624e+01 -9.413633635267e+00 0.0 
4.951470588234e+01 -9.500000000000e+00 0.0 

SCALARS node_number int
LOOKUP_TABLE default
1
2
3
4
5
6
7
8
9
10
11
12
13
14
15
16
17
18
19
20
21
22
23
24
25
26
27
28
29
30
31
32
33
34
35
36
37
38
39
40
41
42
43
44
45
46
47
48
49
50
51
52
53
54
55
56
57
58
59
60
61
62
63
64
65
66
67
68
69
70
71
72
73
74
75
76
77
78
79
80
81
82
84
85
86
87
88
89
90
91
92
93
102
104
105
106
107
108
109
110
111
112
113
114
115
116
117
118
119
120
121
122
123
124
125
126
127
128
129
130
131
132
133
134
135
136
346
347
348
349
350
351
352
353
354
355
356
357
358
359
360
361
362
363
364
365
366
367
368
369
370
371
372
373
374
375
376
377
378
379
380
381
382
383
384
385
386
387
388
389
390
391
392
393
394
395
396
397
398
399
400
401
402
403
404
405
406
407
408
409
410
411
412
413
414
415
416
417
418
419
420
421
422
423
424
425
426
427
428
429
430
431
432
433
434
435
436
437
438
439
440
441
442
443
444
445
446
447
448
449
450
451
452
453
454
455
456
457
458
459
460
461
462
463
464
465
466
467
468
469
470
471
472
473
474
475
476
477
478
479
480
481
482
483
484
485
486
487
488
489
490
491
492
493
494
495
496
497
498
499
500
501
502
503
504
505
506
507
508
509
510
511
512
513
514
515
516
517
518
519
520
521
522
523
524
525
526
527
528
529
530
531
532
533
534
535
536
537
538
539
540
541
542
543
544
545
546
547
548
549
550
551
552
553
554
555
556
557
558
559
560
561
562
563
564
565
566
567
568
569
570
571
572
573
574
575
576
577
578
579
580
581
582
583
584
585
586
587
588
589
590
591
592
593
594
595
596
597
598
599
600
601
602
603
604
605
606
607
608
609
610
611
612
613
614
615
616
617
618
619
620
621
622
623
624
625
626
627
628
629
630
631
632
633
634
635
636
637
638
639
640
641
642
643
644
645
646
647
648
649
650
651
652
653
654
655
656
657
658
659
660
661
662
663
664
665
666
667
668
669
670
671
672
673
674
675
676
677
678
679
680
681
682
683
684
685
686
687
688
689
690
691
692
693
694
695
696
697
698
699
700
701
702
703
704
705
706
707
708
709
710
711
712
713
714
715
716
717
718
719
720
721
722
723
724
725
726
727
728
729
730
731
732
733
734
735
736
737
738
739
740
741
742
743
744
745
746
747
748
749
750
751
752
753
754
755
756
757
758
759
760
761
762
763
764
765
766
767
768
769
770
771
772
773
774
775
776
777
778
779
780
781
782
783
784
785
786
787
788
789
790
791
792
793
794
795
796
797
798
799
800
801
802
803
804
805
806
807
808
809
810
811
812
813
814
815
816
817
818
819
820
821
822
823
824
825
826
827
828
829
830
831
832
833
834
835
836
837
838
839
840
841
842
843
844
845
846
847
848
849
850
851
852
853
854
855
856
857
858
859
860
861
862
863
864
865
866
867
868
869
870
871
872
873
874
875
876
877
878
879
880
881
882
883
884
885
886
887
888
889
890
891
892
893
894
895
896
897
898
899
900
901
902
903
904
905
906
907
908
909
910
911
912
913
914
915
916
917
918
919
920
921
922
923
924
925
926
927
928
929
930
931
932
933
934
935
936
937
938
939
940
941
942
943
944
945
946
947
948
949
950
951
952
953
954
955
956
957
958
959
960
961
962
963
964
965
966
967
968
969
970
971
972
973
974
975
976
977
978
979
980
981
982
983
984
985
986
987
988
989
990
991
992
993
994
995
996
997
998
999
1000
1001
1002
1003
1004
1005
1006
1007
1008
1009
1010
1011
1012
1013
1014
1015
1016
1017
1018
1019
1020
1021
1022
1023
1024
1025
1026
1027
1028
1029
1030
1031
1032
1033
1034
1035
1036
1037
1038
1039
1040
1041
1042
1043
1044
1045
1046
1047
1048
1049
1050
1051
1052
1053
1054
1055
1056
1057
1058
1059
1060
1061
1062
1063
1064
1065
1066
1067
1068
1069
1070
1071
1072
1073
1074
1075
1076
1077
1078
1079
1080
1081
1082
1083
1084
1085
1086
1087
1088
1089
1090
1091
1092
1093
1094
1095
1096
1097
1098
1099
1100
1101
1102
1103
1104
1105
1106
1107
1108
1109
1110
1111
1112
1113
1114
1115
1116
1117
1118
1119
1120
1121
1122
1123
1124
1125
1126
1127
1128
1129
1130
1131
1132
1133
1134
1135
1136
1137
1138
1139
1140
1141
1142
1143
1144
1145
1146
1147
1148
1149
1150
1151
1152
1153
1154
1155
1156
1157
1158
1159
1160
1161
1162
1163
1164
1165
1166
1167
1168
1169
1170
1171
1172
1173
1174
1175
1176
1177
1178
1179
1180
1181
1182
1183
1184
1185
1186
1187
1188
1189
1190
1191
1192
1193
1194
1195
1196
1197
1198
1199
1200
1201
1202
1203
1204
1205
1206
1207
1208
1209
1210
1211
1212
1213
1214
1215
1216
1217
1218
1219
1220
1221
1222
1223
1224
1225
1226
1227
1228
1229
1230
1231
1232
1233
1234
1235
1236
1237
1238
1239
1240
1241
1242
1243
1244
1245
1246
1247
1248
1249
1250
1251
1252
1253
1254
1255
1256
1257
1258
1259
1260
1261
1262
1263
1264
1283
1284

VECTORS node_mesh_deformation float
0.0 7.435994831727e-02 0.0 
0.000000000000e+00 1.525110828347e-01 0.0 
0.0 0.000000000000e+00 0.0 
0.000000000000e+00 0.000000000000e+00 0.0 
0.0 7.456966773963e-02 0.0 
0.0 7.430148339871e-02 0.0 
0.0 7.356912176994e-02 0.0 
0.0 7.238478403139e-02 0.0 
0.0 7.074828606625e-02 0.0 
0.0 6.870242567817e-02 0.0 
0.0 6.626936195118e-02 0.0 
0.0 6.346167971973e-02 0.0 
0.0 6.029215371054e-02 0.0 
0.0 5.676364872356e-02 0.0 
0.0 5.286767165527e-02 0.0 
0.0 4.859893469762e-02 0.0 
0.0 4.395618530334e-02 0.0 
0.0 3.894650810424e-02 0.0 
0.0 3.352449635023e-02 0.0 
0.0 2.768655688215e-02 0.0 
0.0 2.142473044407e-02 0.0 
0.0 1.472263933923e-02 0.0 
0.0 7.573292781590e-03 0.0 
0.000000000000e+00 0.000000000000e+00 0.0 
0.000000000000e+00 0.000000000000e+00 0.0 
0.000000000000e+00 0.000000000000e+00 0.0 
0.000000000000e+00 0.000000000000e+00 0.0 
0.000000000000e+00 0.000000000000e+00 0.0 
0.000000000000e+00 0.000000000000e+00 0.0 
0.000000000000e+00 0.000000000000e+00 0.0 
0.000000000000e+00 0.000000000000e+00 0.0 
0.000000000000e+00 0.000000000000e+00 0.0 
0.000000000000e+00 0.000000000000e+00 0.0 
0.000000000000e+00 0.000000000000e+00 0.0 
0.000000000000e+00 0.000000000000e+00 0.0 
0.000000000000e+00 0.000000000000e+00 0.0 
0.000000000000e+00 0.000000000000e+00 0.0 
0.000000000000e+00 0.000000000000e+00 0.0 
0.000000000000e+00 0.000000000000e+00 0.0 
0.000000000000e+00 0.000000000000e+00 0.0 
0.000000000000e+00 0.000000000000e+00 0.0 
0.000000000000e+00 0.000000000000e+00 0.0 
0.000000000000e+00 0.000000000000e+00 0.0 
0.000000000000e+00 0.000000000000e+00 0.0 
0.000000000000e+00 0.000000000000e+00 0.0 
0.000000000000e+00 0.000000000000e+00 0.0 
0.000000000000e+00 0.000000000000e+00 0.0 
0.000000000000e+00 0.000000000000e+00 0.0 
0.000000000000e+00 0.000000000000e+00 0.0 
0.000000000000e+00 0.000000000000e+00 0.0 
0.000000000000e+00 0.000000000000e+00 0.0 
0.000000000000e+00 0.000000000000e+00 0.0 
0.000000000000e+00 0.000000000000e+00 0.0 
0.000000000000e+00 0.000000000000e+00 0.0 
0.000000000000e+00 0.000000000000e+00 0.0 
0.000000000000e+00 0.000000000000e+00 0.0 
0.000000000000e+00 0.000000000000e+00 0.0 
0.000000000000e+00 0.000000000000e+00 0.0 
0.000000000000e+00 0.000000000000e+00 0.0 
0.000000000000e+00 0.000000000000e+00 0.0 
0.000000000000e+00 0.000000000000e+00 0.0 
0.000000000000e+00 0.000000000000e+00 0.0 
0.000000000000e+00 0.000000000000e+00 0.0 
0.000000000000e+00 0.000000000000e+00 0.0 
0.000000000000e+00 0.000000000000e+00 0.0 
0.000000000000e+00 0.000000000000e+00 0.0 
0.000000000000e+00 0.000000000000e+00 0.0 
0.000000000000e+00 0.000000000000e+00 0.0 
0.000000000000e+00 0.000000000000e+00 0.0 
0.000000000000e+00 0.000000000000e+00 0.0 
0.000000000000e+00 0.000000000000e+00 0.0 
0.000000000000e+00 0.000000000000e+00 0.0 
0.000000000000e+00 1.389218475263e-01 0.0 
0.000000000000e+00 1.249168633917e-01 0.0 
0.000000000000e+00 1.105055717804e-01 0.0 
0.000000000000e+00 9.571238748086e-02 0.0 
0.000000000000e+00 8.054944631892e-02 0.0 
0.000000000000e+00 6.504291858706e-02 0.0 
0.000000000000e+00 4.921330333844e-02 0.0 
0.000000000000e+00 3.308282258640e-02 0.0 
0.000000000000e+00 1.667662243958e-02 0.0 
-1.383513925519e-02 4.727869799328e-02 0.0 
2.016030983288e-02 1.435623900034e-01 0.0 
-6.392947767406e-03 7.221690344191e-02 0.0 
-4.896244001849e-04 9.208742019750e-02 0.0 
4.433369850585e-03 1.089044994677e-01 0.0 
8.498051095003e-03 1.227982113335e-01 0.0 
1.238280268571e-02 1.341192547004e-01 0.0 
1.597224414593e-02 1.427570451312e-01 0.0 
1.896970191474e-02 1.484454542358e-01 0.0 
2.096982692009e-02 1.509346634202e-01 0.0 
2.084989745283e-02 1.497361689187e-01 0.0 
0.000000000000e+00 1.656996475805e-01 0.0 
1.221936971653e-03 1.525346799232e-01 0.0 
2.432149383012e-03 1.525714059010e-01 0.0 
3.642420580732e-03 1.526075638678e-01 0.0 
4.856879468846e-03 1.526401676551e-01 0.0 
6.074380848268e-03 1.526668511679e-01 0.0 
7.299197640357e-03 1.526545868265e-01 0.0 
8.540252441385e-03 1.526009737154e-01 0.0 
9.783513051609e-03 1.524545208331e-01 0.0 
1.105994656555e-02 1.522003530138e-01 0.0 
1.236674521870e-02 1.517683226595e-01 0.0 
1.371047573659e-02 1.510874979014e-01 0.0 
1.511862344905e-02 1.500716033652e-01 0.0 
1.662277298887e-02 1.485993283314e-01 0.0 
1.827395790195e-02 1.465005892672e-01 0.0 
-1.106589912042e-02 3.311460040388e-02 0.0 
-6.932009161794e-03 2.550819468741e-02 0.0 
-2.463391654810e-03 2.240079978552e-02 0.0 
2.239614952234e-03 2.396304879638e-02 0.0 
5.537409217753e-03 3.235819530922e-02 0.0 
7.298846282723e-03 4.247143741756e-02 0.0 
7.995332150067e-03 4.921596995292e-02 0.0 
8.133840776855e-03 5.447152748284e-02 0.0 
7.686170205639e-03 5.870011813312e-02 0.0 
7.194847423673e-03 6.211011592243e-02 0.0 
6.681298650724e-03 6.489853472758e-02 0.0 
6.072316898003e-03 6.713628792321e-02 0.0 
5.467614262106e-03 6.899473965048e-02 0.0 
4.722183353326e-03 7.051651502953e-02 0.0 
3.968420434223e-03 7.174436745929e-02 0.0 
3.226407502657e-03 7.269985697524e-02 0.0 
2.471563073129e-03 7.343538408764e-02 0.0 
1.695859222555e-03 7.396940793996e-02 0.0 
8.592060523274e-04 7.426764478342e-02 0.0 
1.832096480262e-02 1.549396888837e-01 0.0 
1.699976454307e-02 1.582495170206e-01 0.0 
1.576257452918e-02 1.606543601922e-01 0.0 
1.466033694769e-02 1.623973499608e-01 0.0 
1.360358794317e-02 1.636375248197e-01 0.0 
1.255524408091e-02 1.645002024656e-01 0.0 
1.149363671564e-02 1.650753608424e-01 0.0 
1.040646249515e-02 1.654421114327e-01 0.0 
9.299623307413e-03 1.656670071872e-01 0.0 
8.177486764858e-03 1.657865287957e-01 0.0 
7.038775309539e-03 1.658308576508e-01 0.0 
5.887917360695e-03 1.658349751588e-01 0.0 
4.731816075591e-03 1.658129020425e-01 0.0 
3.574135632945e-03 1.657756224676e-01 0.0 
2.418690695876e-03 1.657415492095e-01 0.0 
1.237738028131e-03 1.656916610782e-01 0.0 
-9.677203821635e-03 6.113504220956e-02 0.0 
-3.333736295108e-03 8.253068987242e-02 0.0 
2.099782227937e-03 1.008779799890e-01 0.0 
6.545371709954e-03 1.161972013294e-01 0.0 
1.052232653905e-02 1.288405101499e-01 0.0 
1.427980275801e-02 1.388409872325e-01 0.0 
1.758986773442e-02 1.459806213143e-01 0.0 
2.014723207844e-02 1.501056400393e-01 0.0 
2.134650729662e-02 1.508408121325e-01 0.0 
2.060588874957e-02 1.471354094195e-01 0.0 
4.051343881102e-03 8.126892831871e-02 0.0 
3.055439509122e-03 6.697670415726e-03 0.0 
4.660009901722e-03 6.045805425690e-02 0.0 
8.417567795149e-05 2.967656192245e-02 0.0 
1.273094371509e-03 6.371511423737e-03 0.0 
1.267390383901e-02 1.123887760106e-01 0.0 
5.632930213151e-05 5.472563468303e-02 0.0 
4.708185147475e-03 7.578419055836e-03 0.0 
1.956563410820e-02 1.314605147140e-01 0.0 
5.750849602620e-03 8.704458215636e-03 0.0 
2.383178610365e-02 1.402269030707e-01 0.0 
4.065878120079e-04 5.939049691992e-03 0.0 
3.821573371662e-03 7.005985987057e-02 0.0 
6.154148783921e-03 1.051669793416e-02 0.0 
2.264380689937e-02 1.349012407488e-01 0.0 
2.806082259155e-05 6.737611265176e-02 0.0 
1.077839130634e-04 4.248184108801e-02 0.0 
5.959449644003e-03 1.227662661416e-02 0.0 
4.380768141537e-03 1.305266323461e-02 0.0 
1.247420642372e-03 1.421656381388e-02 0.0 
2.339668092652e-03 1.526150555936e-02 0.0 
3.146152749046e-03 1.335161793274e-02 0.0 
1.846972016735e-02 1.355985253465e-01 0.0 
1.203834810123e-02 1.397112645495e-01 0.0 
7.977149297098e-03 1.400274457261e-01 0.0 
7.989770240187e-04 8.794642641992e-02 0.0 
1.328341807989e-04 6.529790265777e-03 0.0 
-3.633033809344e-03 3.222257446387e-02 0.0 
2.241906131553e-03 7.324025873368e-02 0.0 
8.361258301592e-05 2.507246555250e-02 0.0 
4.140440625470e-03 1.409319720576e-01 0.0 
2.301707655864e-04 7.296384655632e-02 0.0 
5.867508163469e-03 1.440399775885e-02 0.0 
4.919567939218e-03 7.463022365567e-03 0.0 
5.994191133205e-03 9.451446074916e-03 0.0 
4.177618108947e-03 7.506258444980e-03 0.0 
2.139609959283e-03 6.163216636782e-03 0.0 
2.822165959833e-03 4.574355482397e-02 0.0 
1.501785381101e-02 1.391442002416e-01 0.0 
8.877482205776e-04 7.291633360413e-03 0.0 
6.102530883965e-04 5.784476132042e-02 0.0 
4.516511370175e-03 6.610610278404e-02 0.0 
2.407228987333e-05 6.184758868809e-02 0.0 
6.186822119716e-04 1.158563927300e-02 0.0 
1.645191882340e-02 1.223828721219e-01 0.0 
8.719526145125e-03 9.846046111595e-02 0.0 
2.219801147351e-02 1.372579379669e-01 0.0 
2.383407869232e-02 1.395675715368e-01 0.0 
-2.111003536331e-03 6.086261309727e-02 0.0 
9.545237737569e-04 1.160437713505e-01 0.0 
4.633125874776e-05 5.206968280710e-03 0.0 
1.025144890203e-03 7.432525241667e-02 0.0 
3.373285662533e-04 2.613904894733e-02 0.0 
2.200761642503e-02 1.304271938854e-01 0.0 
2.382276172754e-02 1.223631168456e-01 0.0 
2.214495651976e-02 1.193558681674e-01 0.0 
2.404310230696e-02 1.099399809594e-01 0.0 
2.238104137803e-02 1.051065876822e-01 0.0 
2.365384291408e-02 9.691605973320e-02 0.0 
2.544858714444e-02 1.012513966192e-01 0.0 
2.460497452995e-02 8.868908154236e-02 0.0 
2.646036185515e-02 9.275262268982e-02 0.0 
2.167012315245e-02 9.164938249704e-02 0.0 
2.517291261206e-02 8.055811485615e-02 0.0 
2.706442110184e-02 8.441277220591e-02 0.0 
2.534615887401e-02 7.263827775871e-02 0.0 
2.724914545714e-02 7.632318553224e-02 0.0 
2.866836145530e-02 8.749165586454e-02 0.0 
2.885557943171e-02 7.930300305059e-02 0.0 
2.994146081343e-02 8.975910727866e-02 0.0 
3.012017471158e-02 8.148766661673e-02 0.0 
2.863043462545e-02 7.150334654846e-02 0.0 
2.987938355166e-02 7.366723130190e-02 0.0 
3.102461567519e-02 8.290901966322e-02 0.0 
3.075571126142e-02 7.509447418442e-02 0.0 
3.155442113601e-02 8.357090368747e-02 0.0 
3.124909718142e-02 7.577579042798e-02 0.0 
3.171288372876e-02 8.349659895219e-02 0.0 
3.136635240642e-02 7.577503952766e-02 0.0 
3.053215542873e-02 6.851994168866e-02 0.0 
3.060238406835e-02 6.864126616301e-02 0.0 
3.111335783307e-02 7.512272715748e-02 0.0 
3.029244484503e-02 6.814343459923e-02 0.0 
3.050104461562e-02 7.385475349596e-02 0.0 
2.961119889566e-02 6.706585350616e-02 0.0 
2.908620385535e-02 6.178032400305e-02 0.0 
2.833629623933e-02 6.095493800760e-02 0.0 
2.856754531779e-02 6.546316208825e-02 0.0 
2.721796897257e-02 5.967013758697e-02 0.0 
2.717286053463e-02 6.339449853904e-02 0.0 
2.574412781111e-02 5.799145751552e-02 0.0 
2.544072754354e-02 6.092097296372e-02 0.0 
2.391538577178e-02 5.598622449161e-02 0.0 
2.401906854886e-02 5.331961165497e-02 0.0 
2.212463543883e-02 5.183014926387e-02 0.0 
2.174742388324e-02 5.376302872052e-02 0.0 
1.991209457447e-02 5.023747501602e-02 0.0 
2.016400705300e-02 4.841348925323e-02 0.0 
1.796226886505e-02 4.747192736342e-02 0.0 
1.811862124806e-02 4.563393019022e-02 0.0 
1.598436893248e-02 4.532796746592e-02 0.0 
1.554359842974e-02 4.664268006860e-02 0.0 
1.367803808438e-02 4.518135771880e-02 0.0 
1.404945939340e-02 4.366036082098e-02 0.0 
1.189621779673e-02 4.414047399632e-02 0.0 
1.126145825936e-02 4.532543190289e-02 0.0 
9.706192549970e-03 4.489529785913e-02 0.0 
1.024836198809e-02 4.335502395980e-02 0.0 
8.286432618082e-03 4.463157300779e-02 0.0 
7.561947000545e-03 4.600880200531e-02 0.0 
6.411858228073e-03 4.620311345489e-02 0.0 
7.026517539035e-03 4.438195517671e-02 0.0 
5.396313874868e-03 4.633875189058e-02 0.0 
4.691465091009e-03 4.809884376545e-02 0.0 
3.939801975047e-03 4.851442007145e-02 0.0 
4.512387028601e-03 4.631446949203e-02 0.0 
3.280952194009e-03 4.872995746455e-02 0.0 
3.732227976629e-03 4.611026883075e-02 0.0 
2.678720142669e-03 5.094604627716e-02 0.0 
2.240503054740e-03 5.128898867154e-02 0.0 
1.666646534646e-03 5.355831685476e-02 0.0 
1.414654708269e-03 5.394495218501e-02 0.0 
2.754349691895e-02 5.602466284823e-02 0.0 
9.354258047676e-04 5.623477925180e-02 0.0 
1.066037320784e-03 5.546052261075e-02 0.0 
8.128378378753e-04 5.662888767052e-02 0.0 
1.182643769714e-03 5.402230180279e-02 0.0 
4.596631721236e-04 5.892537950824e-02 0.0 
4.186048700694e-04 5.927653481843e-02 0.0 
2.103179634396e-04 6.155011844331e-02 0.0 
2.656267138485e-02 6.680171223159e-02 0.0 
2.800147340010e-02 6.412419255602e-02 0.0 
2.030190759168e-04 6.182336607542e-02 0.0 
1.403339516211e-04 6.403439262503e-02 0.0 
1.336941537931e-04 6.353478695561e-02 0.0 
2.367104600598e-04 6.593627312710e-02 0.0 
2.048511449685e-02 9.970314920729e-02 0.0 
1.953702524292e-02 8.572387323257e-02 0.0 
1.850055306848e-02 9.364504250938e-02 0.0 
1.729935029759e-02 7.928784699985e-02 0.0 
1.642608708028e-02 8.695184531337e-02 0.0 
1.905751318780e-04 6.631648091247e-02 0.0 
2.316176184372e-02 6.786957015266e-02 0.0 
1.791020524522e-02 7.145265553076e-02 0.0 
3.142501901264e-02 9.190203303400e-02 0.0 
3.095455472796e-02 8.131878829053e-02 0.0 
2.000181331956e-02 4.598039422611e-02 0.0 
3.655338392203e-04 5.930172762911e-02 0.0 
1.799999053942e-04 6.178087444062e-02 0.0 
3.081811604222e-04 5.902079554360e-02 0.0 
4.891831825130e-03 4.365482890633e-02 0.0 
4.005610840412e-03 4.306304993617e-02 0.0 
5.051052455563e-03 4.052151274789e-02 0.0 
4.085417187211e-03 3.956152412252e-02 0.0 
4.980683911896e-03 3.689727615848e-02 0.0 
3.967185205575e-03 3.558155142113e-02 0.0 
3.246625021969e-03 3.842360716643e-02 0.0 
3.095614652215e-03 3.409469946149e-02 0.0 
2.528299414008e-03 3.708953666087e-02 0.0 
4.684094900840e-03 3.276520080952e-02 0.0 
5.871393638916e-03 3.428550354935e-02 0.0 
2.358654740885e-03 3.242662386058e-02 0.0 
1.923337756918e-03 3.554837866784e-02 0.0 
1.747940218088e-03 3.056513369270e-02 0.0 
1.424065221631e-03 3.379995905823e-02 0.0 
1.507773458833e-03 3.864252429242e-02 0.0 
1.112697574794e-03 3.698499947701e-02 0.0 
1.132055738156e-03 4.169018369021e-02 0.0 
1.786763859554e-02 4.316587627128e-02 0.0 
1.940882323107e-02 4.293690156945e-02 0.0 
1.719600684412e-02 4.007720539036e-02 0.0 
1.836220099142e-02 3.928378331732e-02 0.0 
1.609260625508e-02 3.637042859255e-02 0.0 
1.685436384428e-02 3.502436982685e-02 0.0 
1.455161034661e-02 3.204633032610e-02 0.0 
1.387692361376e-02 3.375487177280e-02 0.0 
2.512696599748e-02 6.487984662952e-02 0.0 
1.925980617919e-02 5.144207792864e-02 0.0 
2.095124750976e-02 5.511853805733e-02 0.0 
1.822841152916e-02 5.201505939422e-02 0.0 
1.975086142691e-02 5.588512994621e-02 0.0 
1.683809574057e-02 5.192212156938e-02 0.0 
1.816864714518e-02 5.607316249932e-02 0.0 
1.511854801448e-02 5.114425405912e-02 0.0 
1.364246080191e-02 4.813333029291e-02 0.0 
1.175452062046e-02 4.640393957559e-02 0.0 
1.021130208091e-02 4.484298570694e-02 0.0 
8.159759152090e-03 4.231307669368e-02 0.0 
6.694573380724e-03 4.242838762264e-02 0.0 
2.943525769130e-02 6.181610260787e-02 0.0 
1.918716000238e-02 3.831544021920e-02 0.0 
1.724918716782e-02 3.345791368335e-02 0.0 
1.962112410843e-02 3.707968122505e-02 0.0 
2.660944063697e-04 6.523331072354e-02 0.0 
1.020671786855e-03 3.184654074177e-02 0.0 
5.351390119808e-03 2.996204477262e-02 0.0 
6.704008721810e-03 3.174994136313e-02 0.0 
1.233090368493e-02 2.930123918238e-02 0.0 
4.220220305831e-04 6.808221423428e-02 0.0 
1.622476599962e-02 5.571419173455e-02 0.0 
1.901053078903e-02 6.161270258426e-02 0.0 
1.502350578087e-02 7.224114083145e-02 0.0 
1.432888986170e-02 7.975537583321e-02 0.0 
5.916435791468e-03 2.715990790790e-02 0.0 
3.011069359671e-04 6.835449330777e-02 0.0 
2.785195012487e-03 2.928324988032e-02 0.0 
9.590052421274e-03 4.380312068410e-02 0.0 
7.933343472200e-04 3.511814451367e-02 0.0 
7.025912831269e-04 2.970122717060e-02 0.0 
2.561663788580e-03 4.127631293133e-02 0.0 
1.723304738364e-02 3.159340713048e-02 0.0 
1.967088836853e-02 3.558556110163e-02 0.0 
8.721149782641e-03 4.454510995446e-02 0.0 
5.461966330554e-03 4.355612841900e-02 0.0 
3.335341422231e-03 4.126414524062e-02 0.0 
2.580949366504e-03 4.388542899346e-02 0.0 
4.507823763001e-03 4.525086665867e-02 0.0 
2.060195009882e-03 4.642033965630e-02 0.0 
3.623424770023e-04 4.537183344283e-02 0.0 
2.589256154337e-04 4.857529497736e-02 0.0 
1.737915721389e-03 4.887733854358e-02 0.0 
3.275915823604e-04 5.139350010995e-02 0.0 
-6.974655709087e-04 5.152054469272e-02 0.0 
-3.980994290593e-04 5.440937842303e-02 0.0 
8.645020423312e-04 2.625417077127e-02 0.0 
5.889099887000e-03 3.892887116455e-02 0.0 
2.933026973911e-02 9.841155809568e-02 0.0 
4.599154769158e-03 2.508090468946e-02 0.0 
1.260930469681e-02 2.717437318098e-02 0.0 
1.275476441472e-02 6.473429376871e-02 0.0 
1.224325712864e-02 7.214170344032e-02 0.0 
1.344504218871e-02 8.721945007292e-02 0.0 
1.154231045030e-02 7.947210997706e-02 0.0 
1.020765193923e-02 6.417301520125e-02 0.0 
9.689022286260e-03 7.144866581815e-02 0.0 
1.070641989716e-02 8.670292960433e-02 0.0 
9.023016839734e-03 7.862745137075e-02 0.0 
9.779727887384e-03 9.379200803837e-02 0.0 
8.249960040217e-03 8.568613259487e-02 0.0 
7.410401895839e-03 7.033294937198e-02 0.0 
6.781636918760e-03 7.740724264314e-02 0.0 
7.402594926909e-03 9.263113703229e-02 0.0 
6.058843961242e-03 8.437920019670e-02 0.0 
6.503436990172e-03 9.944983360567e-02 0.0 
5.263500510161e-03 9.124363374571e-02 0.0 
4.794257444338e-03 7.599014615729e-02 0.0 
6.078985489477e-04 6.986405124998e-02 0.0 
1.176384442959e-02 3.135745628697e-02 0.0 
1.023381473025e-02 2.671759745628e-02 0.0 
1.527861544250e-04 6.140785725139e-02 0.0 
2.565236863639e-04 5.841956662523e-02 0.0 
4.647149710255e-04 5.591804734976e-02 0.0 
3.625064533308e-04 5.511615055036e-02 0.0 
4.080525713306e-03 8.298257376632e-02 0.0 
3.629579124279e-03 6.749518345443e-02 0.0 
1.670395636816e-02 6.194369291020e-02 0.0 
1.916693605032e-02 6.857252097225e-02 0.0 
1.302069166226e-02 5.728239527236e-02 0.0 
5.405545624915e-04 3.305317782971e-02 0.0 
5.855492539175e-04 3.830058640573e-02 0.0 
3.006649179343e-02 7.925263295138e-02 0.0 
3.009138542271e-02 8.719922522813e-02 0.0 
2.896159663586e-02 8.437904872149e-02 0.0 
2.844293007269e-02 9.290775646289e-02 0.0 
2.957922928739e-02 9.581915085984e-02 0.0 
2.707761664646e-02 8.931889541597e-02 0.0 
7.220901280702e-03 3.576629721636e-02 0.0 
5.898787039577e-03 6.187041410310e-02 0.0 
9.143733682837e-05 6.268756888318e-02 0.0 
2.720560181304e-04 6.419564216634e-02 0.0 
4.588115245432e-04 2.737440051962e-02 0.0 
1.290674420145e-02 3.536435845185e-02 0.0 
2.901636110751e-02 6.092602194677e-02 0.0 
2.760750970977e-02 5.458990531483e-02 0.0 
2.680890976884e-02 5.293877815820e-02 0.0 
2.510661564437e-02 4.694939666813e-02 0.0 
2.389285625986e-02 4.454200858331e-02 0.0 
2.191063496990e-02 3.888466947168e-02 0.0 
2.313182864473e-02 4.142059556507e-02 0.0 
1.675701544194e-02 2.932509844376e-02 0.0 
1.969137973465e-02 3.361803518812e-02 0.0 
4.484124457441e-03 9.813857776491e-02 0.0 
2.149521650290e-02 4.202815018644e-02 0.0 
1.529717238066e-03 5.104484739807e-02 0.0 
8.376270906716e-04 6.939049387344e-02 0.0 
-7.241501619095e-04 5.498310336091e-02 0.0 
4.116342163494e-04 7.009633352031e-02 0.0 
1.973043035943e-04 6.833222396426e-02 0.0 
4.881887884151e-03 2.200871427885e-02 0.0 
2.023971031691e-02 3.571959828603e-02 0.0 
2.225010645036e-02 4.149477317483e-02 0.0 
2.734863995842e-02 1.021697196877e-01 0.0 
2.851785619207e-02 1.050653470153e-01 0.0 
1.429358696324e-02 2.550614924606e-02 0.0 
1.722999987647e-02 1.015608921912e-01 0.0 
1.133992890386e-02 1.016900780819e-01 0.0 
1.021336122042e-02 1.086434786476e-01 0.0 
8.019028586519e-04 7.146033111038e-02 0.0 
-9.785105127200e-04 5.155270941649e-02 0.0 
8.265970473090e-03 5.593584941406e-02 0.0 
2.147748307821e-02 6.721437380553e-02 0.0 
2.138969504229e-02 7.467168764208e-02 0.0 
6.916515206328e-03 4.064183882139e-02 0.0 
3.482462552050e-03 3.515902911036e-02 0.0 
3.037780249997e-03 7.438000269838e-02 0.0 
2.613763118092e-03 5.887314492087e-02 0.0 
6.153964084170e-04 5.248091412282e-02 0.0 
4.713430478485e-04 5.143076415965e-02 0.0 
6.326269779839e-03 2.430524836507e-02 0.0 
-4.271463218295e-04 5.764498185506e-02 0.0 
3.014830661314e-03 5.172818838060e-02 0.0 
1.092270684445e-02 3.331551087753e-02 0.0 
1.169756766625e-02 3.694266211699e-02 0.0 
1.919062333022e-04 5.762607717340e-02 0.0 
1.629269115835e-02 6.971887334514e-02 0.0 
1.378235811959e-02 6.203541372097e-02 0.0 
3.183189422179e-03 4.883249553961e-02 0.0 
-1.295383816462e-04 5.669496396856e-02 0.0 
2.513476744621e-04 6.999905985593e-02 0.0 
4.960975472233e-03 1.884685111246e-02 0.0 
8.412305578929e-03 4.863630429404e-02 0.0 
2.095018478657e-02 3.635565345681e-02 0.0 
2.392365639465e-02 4.342891086061e-02 0.0 
1.730239591518e-02 2.876488076287e-02 0.0 
-3.918257380775e-05 5.846200501874e-02 0.0 
3.638625089263e-03 1.961837965741e-02 0.0 
3.456439631746e-04 3.080704226099e-02 0.0 
1.832261033325e-02 3.239482096481e-02 0.0 
2.019087081485e-02 3.781710798157e-02 0.0 
2.365785829592e-02 7.237514317141e-02 0.0 
2.345952736882e-02 8.024420977434e-02 0.0 
2.054429388261e-02 8.327920221941e-02 0.0 
2.248893836270e-02 8.903436349088e-02 0.0 
2.700492774208e-02 1.048143212535e-01 0.0 
2.562034885962e-02 7.703208080379e-02 0.0 
3.026779951891e-02 9.996576842770e-02 0.0 
2.922936456155e-02 1.090687906318e-01 0.0 
2.980273803139e-02 1.099233200628e-01 0.0 
3.038851099639e-02 9.809878447416e-02 0.0 
2.935242583836e-02 1.073995446793e-01 0.0 
2.234528019668e-02 5.981180022909e-02 0.0 
2.159454586662e-02 4.625815153841e-02 0.0 
7.832845846600e-04 5.326760435279e-02 0.0 
1.499781422109e-03 4.303324698605e-02 0.0 
6.149492006031e-03 4.132875854285e-02 0.0 
6.257524955288e-03 5.469182380582e-02 0.0 
4.742163874624e-03 4.604850870125e-02 0.0 
7.787996988803e-03 1.075144508445e-01 0.0 
6.762516985795e-03 1.141615166384e-01 0.0 
6.919304993520e-04 6.663129967296e-02 0.0 
8.336882931923e-04 6.539805937927e-02 0.0 
3.048316893015e-03 4.569048749391e-02 0.0 
3.469309984528e-03 2.289877613999e-02 0.0 
1.061773401305e-02 4.948360597804e-02 0.0 
1.040160409372e-02 4.210917532897e-02 0.0 
1.298465669824e-02 4.981006561306e-02 0.0 
6.516130818607e-03 2.136216300417e-02 0.0 
1.651232273444e-02 4.921356021467e-02 0.0 
1.574233159146e-02 4.079360726948e-02 0.0 
2.611268585827e-03 3.575627801560e-02 0.0 
2.797060225243e-02 5.611018985952e-02 0.0 
1.484964217679e-03 6.768544174377e-02 0.0 
2.641696478825e-02 6.128002318324e-02 0.0 
2.793306248905e-04 2.488098352507e-02 0.0 
3.498860024385e-04 2.124815740439e-02 0.0 
1.331905180964e-02 2.263003917593e-02 0.0 
2.492598138065e-02 1.257700858258e-01 0.0 
2.619070078186e-02 5.066621836379e-02 0.0 
2.572975411652e-02 5.088222533626e-02 0.0 
2.832857710640e-02 1.194028243297e-01 0.0 
2.852848689938e-02 1.195659390417e-01 0.0 
3.001370848125e-02 1.099556101464e-01 0.0 
2.833349409687e-02 1.189634768941e-01 0.0 
2.722720852708e-03 5.039753449572e-02 0.0 
1.371258589282e-03 5.284294470577e-02 0.0 
1.567241688864e-02 2.619722180166e-02 0.0 
1.567287800124e-02 2.558759922687e-02 0.0 
1.591431558547e-02 2.825071770742e-02 0.0 
1.771851140378e-02 3.340468135444e-02 0.0 
1.081604207384e-02 1.883021082853e-02 0.0 
1.185238450201e-02 2.192872794546e-02 0.0 
1.157848425368e-04 6.803326154058e-02 0.0 
2.694648440331e-02 1.147543849168e-01 0.0 
6.424603058328e-03 4.017110580684e-02 0.0 
2.777142335558e-02 1.184275694337e-01 0.0 
2.621213195726e-03 1.728074013787e-02 0.0 
2.529377413898e-03 2.059256968226e-02 0.0 
7.796278204886e-04 3.170106213270e-02 0.0 
-3.402106870887e-05 3.501805496124e-02 0.0 
2.066382724216e-03 4.329070139532e-02 0.0 
1.892622454042e-02 9.268887800113e-02 0.0 
2.074617748009e-02 9.847729226423e-02 0.0 
1.701309521797e-02 8.608222678364e-02 0.0 
2.768647495344e-05 1.123646988070e-02 0.0 
1.795240081400e-03 1.410445618905e-01 0.0 
1.977484579441e-04 1.851735858557e-02 0.0 
3.089411430019e-02 9.977568585175e-02 0.0 
2.234331779768e-03 3.539374691358e-02 0.0 
2.421105538000e-02 4.581317656637e-02 0.0 
2.883469736904e-02 7.666162565933e-02 0.0 
7.971236694770e-03 2.655872933846e-02 0.0 
1.673828297726e-03 5.180358110693e-02 0.0 
1.244384052207e-03 3.407578362675e-02 0.0 
1.159761809795e-02 1.161142888268e-01 0.0 
1.037366704286e-02 1.231358894458e-01 0.0 
1.289914630716e-02 1.093213598844e-01 0.0 
1.057786095959e-02 4.764935560386e-02 0.0 
6.993091907944e-03 4.574900480690e-02 0.0 
4.516274144038e-03 5.326229048283e-02 0.0 
1.050645723684e-04 6.408532848255e-02 0.0 
7.941200712303e-05 6.342327999222e-02 0.0 
-1.659240000542e-04 5.976851471695e-02 0.0 
4.098501628391e-05 5.851911024947e-02 0.0 
9.605429213897e-04 4.975352279988e-02 0.0 
1.220977606056e-03 5.054122583555e-02 0.0 
2.538587247469e-02 5.425965847315e-02 0.0 
2.345919704481e-02 5.079564020017e-02 0.0 
2.820319755029e-02 5.943516686584e-02 0.0 
9.867922392690e-03 3.524952410482e-02 0.0 
1.031630117815e-02 3.855987695554e-02 0.0 
1.212954881974e-02 3.994867171109e-02 0.0 
4.842509659497e-03 3.929458124756e-02 0.0 
3.237796065115e-03 2.915841813924e-02 0.0 
4.483268042241e-03 4.836681741903e-02 0.0 
5.287518252313e-03 4.720620756295e-02 0.0 
2.318278330369e-03 5.172556467598e-02 0.0 
6.187052967753e-03 3.314869139093e-02 0.0 
2.371341649976e-04 1.485864723755e-02 0.0 
4.076680303244e-04 1.775378516364e-02 0.0 
1.840777574600e-03 6.630836036530e-02 0.0 
9.323919890143e-04 6.376226214313e-02 0.0 
1.254416990696e-02 7.075962000512e-02 0.0 
9.751228165307e-03 6.216445585859e-02 0.0 
9.981271898852e-03 3.535342610677e-02 0.0 
1.262712233664e-02 4.250420283145e-02 0.0 
7.167800851107e-03 2.678836891688e-02 0.0 
1.369609124626e-04 6.974318764774e-02 0.0 
2.173986525179e-02 3.848893188993e-02 0.0 
4.952890522935e-03 1.586919660478e-02 0.0 
6.617962995733e-03 1.861808408253e-02 0.0 
3.320415276171e-03 1.236864488251e-02 0.0 
1.593144309725e-02 2.687968315953e-02 0.0 
1.200126338289e-02 1.964601309689e-02 0.0 
1.292978976702e-02 2.067598757212e-02 0.0 
8.284068345041e-04 3.112439566514e-02 0.0 
9.335906623775e-04 4.074683386531e-02 0.0 
7.967017752534e-03 1.220419730990e-01 0.0 
-4.580279828446e-04 2.816088913189e-02 0.0 
6.849588981986e-03 1.290000838819e-01 0.0 
5.764176132729e-03 1.207822698453e-01 0.0 
5.906140440381e-03 1.357621684550e-01 0.0 
2.617053290408e-04 7.138955507170e-02 0.0 
1.300286614313e-02 1.259106364505e-01 0.0 
1.452471835080e-02 1.171975717266e-01 0.0 
2.520038766413e-03 6.460881009213e-02 0.0 
4.203207216577e-03 2.466707888098e-02 0.0 
2.522084530578e-03 6.822185777914e-02 0.0 
2.001080238044e-03 6.940590680542e-02 0.0 
1.793472677255e-03 1.458460676062e-02 0.0 
1.769017457166e-03 1.811619147108e-02 0.0 
1.137227530336e-03 1.188597307950e-02 0.0 
1.201707185890e-03 1.582978571859e-02 0.0 
1.661955430009e-03 2.170691593286e-02 0.0 
1.126379147022e-03 1.923826976623e-02 0.0 
9.236240590262e-03 1.309610551711e-01 0.0 
7.121067512008e-04 1.214511883739e-02 0.0 
7.136481389027e-04 1.646916845235e-02 0.0 
3.876926290953e-04 9.446274606649e-03 0.0 
2.635544013314e-02 1.291687714619e-01 0.0 
2.411852945594e-02 9.413740005741e-02 0.0 
2.234145271779e-02 1.038697907957e-01 0.0 
1.811686050593e-02 1.090868934294e-01 0.0 
1.203069525421e-02 2.119982127940e-02 0.0 
1.514861958357e-02 2.892701775638e-02 0.0 
1.982770561819e-04 2.826835663489e-02 0.0 
2.246717217504e-04 3.400460436429e-02 0.0 
4.744032034168e-03 1.283491297031e-01 0.0 
3.470198175620e-03 1.289231282424e-01 0.0 
3.808836543485e-03 1.158817463477e-01 0.0 
2.747767829291e-03 1.174653225995e-01 0.0 
2.973948361117e-03 1.043890943633e-01 0.0 
1.912537270023e-03 1.060609169150e-01 0.0 
2.280657324086e-03 9.270606199565e-02 0.0 
1.080363299996e-02 1.693137237998e-02 0.0 
1.447648312623e-02 9.556803217758e-02 0.0 
2.638299469888e-02 1.292816149483e-01 0.0 
8.370654753548e-03 1.521613359029e-02 0.0 
9.787083658548e-03 1.910801959585e-02 0.0 
2.781591841740e-02 1.171406358176e-01 0.0 
2.476242292923e-02 1.251177912053e-01 0.0 
2.353750826940e-03 1.284617275442e-02 0.0 
2.535344514958e-02 6.981605295706e-02 0.0 
3.177908650905e-03 1.564701651414e-02 0.0 
-4.582684606785e-03 4.143546111182e-02 0.0 
1.568249442396e-03 4.071150062245e-02 0.0 
2.718914975832e-02 7.358903878013e-02 0.0 
2.986198742889e-02 1.091264282576e-01 0.0 
2.578790116755e-02 9.855607684083e-02 0.0 
2.429396721266e-02 1.083305120483e-01 0.0 
9.096358957406e-03 3.129307834457e-02 0.0 
1.115433317954e-03 6.169674915480e-02 0.0 
1.492957329934e-02 7.874860326415e-02 0.0 
3.325503795544e-03 9.121065787783e-02 0.0 
1.018155060173e-02 8.004468858622e-02 0.0 
9.859351388364e-05 3.100725561935e-02 0.0 
2.460472131177e-02 6.349005017141e-02 0.0 
3.143806817434e-02 9.094862715011e-02 0.0 
1.851883409288e-02 7.677415888311e-02 0.0 
2.545380191216e-02 8.517138542183e-02 0.0 
2.806011277137e-02 9.602355359122e-02 0.0 
2.557031630097e-02 1.136746802429e-01 0.0 
2.677068973873e-02 1.167402431558e-01 0.0 
2.336219522294e-02 5.816554855608e-02 0.0 
2.578735284824e-02 1.118590637947e-01 0.0 
2.196807693352e-02 1.190609427182e-01 0.0 
3.087139925735e-02 9.122581448777e-02 0.0 
1.560307116925e-02 5.704292560149e-02 0.0 
1.537005111496e-02 4.950292930266e-02 0.0 
1.198306273017e-02 3.570624010717e-02 0.0 
1.476626499697e-02 4.224916324689e-02 0.0 
1.808976671742e-02 5.605760840576e-02 0.0 
1.759471044773e-02 4.862235564947e-02 0.0 
1.378544820851e-02 3.538208770132e-02 0.0 
1.670713108656e-02 4.147019727620e-02 0.0 
1.140449747406e-02 2.603033092347e-02 0.0 
1.529110476114e-02 3.435015028183e-02 0.0 
1.952962495271e-02 4.733302917574e-02 0.0 
1.838588500668e-02 4.066471277164e-02 0.0 
1.418326176697e-02 2.938699059007e-02 0.0 
2.225925573307e-02 5.323490577658e-02 0.0 
6.883074227449e-03 1.176455760847e-02 0.0 
2.821471473534e-02 6.966067856262e-02 0.0 
3.688932034560e-03 3.727400486756e-02 0.0 
4.549594557840e-03 5.068266342766e-02 0.0 
3.161369055617e-02 9.180618847573e-02 0.0 
5.702352581373e-03 1.275158932162e-02 0.0 
4.883196450301e-03 1.319308567927e-02 0.0 
2.087958819686e-02 6.093373414689e-02 0.0 
6.092398347352e-03 9.945973996839e-03 0.0 
2.826294384128e-02 1.074476038510e-01 0.0 
1.309060345476e-02 4.968753701434e-02 0.0 
5.970886832014e-03 9.183232524034e-03 0.0 
1.818809248855e-02 6.366631567384e-02 0.0 
2.069227213548e-02 6.999777115190e-02 0.0 
2.028282141369e-02 7.785413924177e-02 0.0 
3.848154487116e-03 1.272781029640e-02 0.0 
1.418472573149e-02 1.021757310484e-01 0.0 
4.672073549973e-03 7.265630045847e-03 0.0 
2.063130756420e-02 4.258255125428e-02 0.0 
2.284597256993e-02 4.640013651255e-02 0.0 
2.366878771442e-02 5.014057873749e-02 0.0 
2.034375961175e-02 5.479562131150e-02 0.0 
3.432317797852e-03 6.744454402725e-03 0.0 
5.973520990860e-03 1.257100336314e-02 0.0 
5.221655798870e-03 1.231727090125e-02 0.0 
8.050227867809e-03 1.823669405248e-02 0.0 
2.601590383637e-03 6.459788193109e-03 0.0 
5.610915944825e-03 1.074349162308e-02 0.0 
5.478521756491e-03 9.842508347457e-03 0.0 
3.758764281836e-03 4.706527101138e-02 0.0 
6.251585200651e-03 4.605011881184e-02 0.0 
7.720896356702e-03 4.623210832276e-02 0.0 
9.026298788511e-03 4.581359397114e-02 0.0 
7.392227234737e-03 4.506453479664e-02 0.0 
1.046955293531e-02 4.579904877826e-02 0.0 
1.189796836579e-02 4.628361796293e-02 0.0 
1.203135869672e-02 4.645915995661e-02 0.0 
1.961901066277e-02 3.982869635631e-02 0.0 
1.807951192143e-03 6.086863066511e-03 0.0 
6.140622251023e-03 3.807798369857e-02 0.0 
7.443328606762e-03 3.918956091873e-02 0.0 
7.373879383264e-03 4.205304502362e-02 0.0 
9.730287860741e-04 5.378399998960e-02 0.0 
1.518687367800e-03 5.107511752148e-02 0.0 
1.781184302803e-03 4.777087601085e-02 0.0 
5.736706011925e-04 5.645380745851e-02 0.0 
2.589484744647e-02 4.876764872339e-02 0.0 
1.481505572849e-03 6.100302761602e-03 0.0 
1.367419464727e-02 3.874968328672e-02 0.0 
1.856420295022e-03 5.133235192683e-02 0.0 
1.669913676594e-02 1.375982140550e-01 0.0 
1.811953017148e-02 1.248349175825e-01 0.0 
1.995474796435e-02 1.227086521537e-01 0.0 
1.914297673313e-02 1.099325237499e-01 0.0 
1.613915564783e-02 1.247538090051e-01 0.0 
7.384707461124e-04 4.869743095148e-02 0.0 
5.508982790259e-04 4.739556238167e-02 0.0 
3.460493522289e-04 5.013754469446e-02 0.0 
3.925300132104e-04 4.586232301610e-02 0.0 
2.347443233730e-04 4.860184084780e-02 0.0 
1.989625319134e-04 5.263414795861e-02 0.0 
2.543492373834e-04 4.411789837351e-02 0.0 
1.314508193815e-04 4.736476141473e-02 0.0 
1.348010182770e-02 1.396630314368e-01 0.0 
1.138742658281e-03 3.766737232717e-02 0.0 
-5.080933940942e-04 4.188601435749e-02 0.0 
5.656651125729e-04 4.853446432361e-02 0.0 
-1.123285536908e-03 4.549717560728e-02 0.0 
-1.167339987381e-03 4.003946520003e-02 0.0 
-9.909240430996e-04 4.394540247309e-02 0.0 
-1.609780432066e-04 3.973710765212e-02 0.0 
-1.074539590496e-03 3.510930742533e-02 0.0 
3.832768256059e-03 5.175019582707e-02 0.0 
1.426573667992e-03 5.386971831807e-02 0.0 
4.400056349624e-03 5.660801727473e-02 0.0 
2.146957597859e-03 5.816928238272e-02 0.0 
-2.793114951949e-05 5.553551837376e-02 0.0 
2.177191187194e-04 6.272261608528e-02 0.0 
1.013963884633e-04 7.462221225879e-03 0.0 
4.057869438145e-05 5.849283758309e-02 0.0 
6.693571668670e-05 6.001636564112e-02 0.0 
3.793426668786e-05 6.305514886716e-02 0.0 
8.519665230633e-05 6.107531410132e-02 0.0 
9.199924279790e-05 5.686334451440e-02 0.0 
1.670378751517e-05 6.480103846669e-02 0.0 
3.895613615357e-05 6.553719541667e-02 0.0 
1.640595343522e-03 7.388137725102e-02 0.0 
9.813583630707e-04 7.399854013582e-02 0.0 
4.813278814682e-04 7.439136067928e-02 0.0 
5.264682064270e-04 7.370151205645e-02 0.0 
8.685497999177e-04 7.327986478507e-02 0.0 
1.445414426078e-03 7.344013064948e-02 0.0 
1.878846622958e-03 7.268221423931e-02 0.0 
2.811487820013e-03 7.238821525759e-02 0.0 
2.242454725739e-03 7.173017707986e-02 0.0 
1.409138862829e-03 7.175230881857e-02 0.0 
3.335025447278e-03 7.136121172451e-02 0.0 
7.378106859903e-04 7.273890477597e-02 0.0 
1.410520967895e-03 6.503751582546e-02 0.0 
1.015952815202e-03 6.481659059496e-03 0.0 
1.053916448063e-02 1.394071872032e-01 0.0 
4.627264205707e-03 6.359506349566e-02 0.0 
1.172171548156e-03 1.709803525560e-02 0.0 
1.819651188278e-03 1.411851428526e-02 0.0 
1.459462295372e-03 1.370737750866e-02 0.0 
5.537812419498e-05 1.835804896804e-02 0.0 
9.014416832520e-05 1.504207727899e-02 0.0 
6.311378964412e-04 1.664177365975e-02 0.0 
1.902367668825e-04 6.095153191644e-02 0.0 
1.097381515375e-02 2.923080414829e-02 0.0 
3.284933606032e-03 4.449851613456e-02 0.0 
1.388330169760e-02 5.490122400289e-02 0.0 
4.789972030981e-04 5.559106618901e-02 0.0 
3.816099507201e-04 3.626286224165e-02 0.0 
1.988615480438e-03 4.006234145248e-02 0.0 
5.675703563250e-04 2.388556558624e-02 0.0 
8.303167192869e-04 4.010090308964e-02 0.0 
1.253644983406e-03 2.850216423837e-02 0.0 
4.589056231923e-03 1.252060553496e-02 0.0 
4.811361639647e-04 7.148420052690e-02 0.0 
8.797838033487e-03 1.007258406508e-01 0.0 
5.620020751742e-03 1.062079813678e-01 0.0 
5.402734524537e-03 6.897682761379e-02 0.0 
1.269615200119e-04 6.421191223170e-02 0.0 
2.840711291627e-04 5.384361369759e-02 0.0 
5.482638773682e-04 6.749939535788e-02 0.0 
1.089324868610e-02 1.765607401784e-02 0.0 
3.083072466436e-02 1.007857890418e-01 0.0 
5.894918287824e-03 4.408411391790e-02 0.0 
6.909797032577e-04 5.669547084301e-02 0.0 
4.827558436666e-04 5.821715095359e-02 0.0 
4.188424354279e-04 5.372654735932e-02 0.0 
2.953469250314e-02 7.201589282965e-02 0.0 
2.711096497414e-03 4.868055548279e-02 0.0 
3.657458198051e-03 3.110540027262e-02 0.0 
4.138084020681e-03 6.041781053496e-02 0.0 
3.996773403335e-03 6.838318424939e-02 0.0 
4.174359886424e-03 2.810570155966e-02 0.0 
3.231999928346e-03 4.227569041348e-02 0.0 
1.243426598415e-02 9.455836052532e-02 0.0 
1.488591149368e-02 3.016655635707e-02 0.0 
-8.855328956709e-04 4.814508613191e-02 0.0 
7.920215778576e-03 6.319348210380e-02 0.0 
8.056589919221e-03 3.496099239339e-02 0.0 
1.587094382914e-02 1.093922592609e-01 0.0 
1.150012595171e-03 6.875376064647e-02 0.0 
9.107552634958e-03 1.156307737805e-01 0.0 
3.622886489858e-03 1.624491745726e-02 0.0 
1.546600209800e-02 6.462452209421e-02 0.0 
1.414014775163e-04 6.639521993659e-02 0.0 
1.606620183056e-02 4.337470163394e-02 0.0 
3.150702340409e-02 8.271687057972e-02 0.0 
2.342593553774e-02 1.376799563960e-01 0.0 
3.421914090779e-03 3.780795165973e-02 0.0 
2.674433784755e-02 5.552466111921e-02 0.0 
1.040781008628e-02 2.420920578650e-02 0.0 
1.501293202414e-02 3.758321697140e-02 0.0 
9.486662511682e-05 6.613037185494e-02 0.0 
2.334124651897e-03 2.396729539956e-02 0.0 
2.207411412124e-02 4.932859401728e-02 0.0 
6.459107294084e-03 4.755006779539e-02 0.0 
2.559659671733e-02 5.064934440684e-02 0.0 
1.742907696087e-02 4.867731195442e-02 0.0 
1.053401354483e-02 5.684868634217e-02 0.0 
8.735898749366e-03 4.270220799039e-02 0.0 
1.480935065131e-02 2.800154609201e-02 0.0 
3.104739543246e-02 1.006644988007e-01 0.0 
3.007737515929e-02 6.776410363193e-02 0.0 
2.705090866003e-02 6.865975477649e-02 0.0 
2.945510151105e-02 6.208258120792e-02 0.0 
2.287265452963e-04 3.938044349731e-02 0.0 
3.169637767293e-03 2.611490254278e-02 0.0 
4.614143091075e-03 3.939691888264e-02 0.0 
2.747782360039e-02 8.102905160822e-02 0.0 
1.535506918638e-02 9.459454828055e-02 0.0 
1.811976521332e-02 3.062921069342e-02 0.0 
4.609716206204e-03 3.154731809959e-02 0.0 
3.092615784841e-02 8.939325989832e-02 0.0 
2.062015312964e-03 2.730150919972e-02 0.0 
8.368485819695e-03 4.179507320849e-02 0.0 
2.213668569603e-03 4.836509865991e-02 0.0 
1.127831043628e-04 7.148397373464e-02 0.0 
1.090100048510e-02 5.393531948551e-02 0.0 
1.523778097727e-02 4.904706623086e-02 0.0 
2.556645534850e-02 5.459357856073e-02 0.0 
2.455517985032e-03 4.502241179497e-02 0.0 
8.732491798348e-03 2.672215467438e-02 0.0 
1.474769882674e-03 2.513815784813e-02 0.0 
7.413952715268e-03 2.918072876210e-02 0.0 
1.264607094754e-03 7.139328905003e-02 0.0 
2.588243571685e-02 1.278221914991e-01 0.0 
1.011762825022e-03 2.279023336416e-02 0.0 
1.406000570584e-02 4.151894183335e-02 0.0 
1.246510424104e-02 2.474035746744e-02 0.0 
1.191472976820e-04 5.123796178722e-02 0.0 
1.075437894926e-02 1.705736932323e-02 0.0 
2.584573939817e-02 1.271822946133e-01 0.0 
6.583657950374e-04 2.026645452846e-02 0.0 
9.793990794524e-03 2.903221624351e-02 0.0 
2.327666392143e-02 6.553825175878e-02 0.0 
2.975048682778e-03 1.410664219724e-01 0.0 
3.790406448632e-04 1.274440098541e-02 0.0 
8.263100219958e-03 2.386223845793e-02 0.0 
2.799576049361e-02 5.564888127437e-02 0.0 
1.219322875243e-02 4.234204231405e-02 0.0 
2.411844963922e-02 1.402876305401e-01 0.0 
1.940811416985e-03 4.412568139750e-02 0.0 
2.923967956596e-02 6.634145232416e-02 0.0 
3.355917174837e-03 1.258246863165e-02 0.0 
8.427348710423e-03 2.147291036076e-02 0.0 
2.254818950026e-02 8.390605572674e-02 0.0 
1.403633187535e-03 4.696568421181e-02 0.0 
2.201364323717e-02 4.131092391565e-02 0.0 
1.178310411603e-03 7.263073747280e-02 0.0 
2.657394598312e-02 1.296377633919e-01 0.0 
1.081674350394e-03 4.589911889532e-02 0.0 
1.354990782039e-02 4.725318855852e-02 0.0 
1.045749317446e-02 4.124218776724e-02 0.0 
9.522008078587e-03 1.575910476803e-02 0.0 
8.131476308160e-04 4.458144157138e-02 0.0 
1.473069997602e-02 4.729551384321e-02 0.0 
5.904188736339e-04 4.303526137276e-02 0.0 
2.321281561365e-02 1.387945034972e-01 0.0 
2.303037923384e-02 7.562052124629e-02 0.0 
3.995503703922e-04 4.128242992930e-02 0.0 
2.698654466673e-02 5.718912570413e-02 0.0 
1.554640986238e-03 7.057672227798e-02 0.0 
2.626110542197e-02 5.002372910679e-02 0.0 
1.471326146165e-04 2.181366217761e-02 0.0 
1.962785192132e-03 5.280666512732e-02 0.0 
8.880915011376e-03 4.024764851750e-02 0.0 
2.070985281417e-02 6.225831298798e-02 0.0 
2.089336957154e-02 1.347358850721e-01 0.0 
8.709632051275e-03 3.719173893707e-02 0.0 
2.399495341502e-02 4.772128726027e-02 0.0 
2.429594596139e-02 4.491076336916e-02 0.0 
2.489421609484e-02 5.069130182189e-02 0.0 
8.217026074243e-03 3.350491172859e-02 0.0 
2.370641985282e-02 1.219894119408e-01 0.0 
1.278148463975e-04 6.005169374349e-02 0.0 
2.004538592004e-06 6.145227065931e-02 0.0 
1.296322914034e-02 4.606350497795e-02 0.0 
2.197871630757e-02 4.407659295777e-02 0.0 
5.015448137944e-04 7.268586819226e-02 0.0 
2.287466721936e-02 6.022115843224e-02 0.0 
9.961254340851e-05 6.085448901763e-02 0.0 
1.032538024168e-02 4.588341589080e-02 0.0 
1.918971986132e-02 3.347158297164e-02 0.0 
8.684533230081e-04 1.023394680514e-01 0.0 
8.876356371806e-03 4.584753121893e-02 0.0 
5.446393824871e-05 6.962174479180e-02 0.0 
6.576344365786e-03 4.684495057762e-02 0.0 
2.370634322501e-02 4.624497838721e-02 0.0 
5.578592116294e-03 4.749784145881e-02 0.0 
3.794732234509e-03 4.941761381399e-02 0.0 
2.293809329657e-03 2.900332853195e-02 0.0 
3.202341811651e-03 5.028798180924e-02 0.0 
3.111077860893e-04 1.379564945306e-02 0.0 
3.214490687631e-05 6.835393484963e-03 0.0 
1.123423534402e-03 1.306062018376e-01 0.0 
1.716897068001e-02 1.292240498630e-01 0.0 
-2.191306995776e-03 2.654923679820e-02 0.0 
2.085453853086e-02 1.126179678152e-01 0.0 
1.216218129512e-03 5.429883461150e-02 0.0 
2.452085379372e-02 5.771705089858e-02 0.0 
2.334957581020e-03 1.299756856061e-01 0.0 
4.878213059527e-04 5.711267003816e-02 0.0 
1.056951169779e-02 2.194790041496e-02 0.0 
5.193150343633e-03 7.824677284137e-03 0.0 
1.583448092148e-03 7.954264082513e-02 0.0 
1.037578520176e-02 2.194834798514e-02 0.0 
2.205081969245e-02 4.002098186162e-02 0.0 
4.617372177620e-04 4.234492796135e-02 0.0 
6.830334731639e-03 1.421166665463e-01 0.0 
2.651326687138e-03 6.170518223146e-02 0.0 
1.091920833248e-04 3.669090385394e-02 0.0 
1.349494055243e-02 1.191012719546e-01 0.0 
1.617697283753e-02 1.023404583441e-01 0.0 
1.228715279946e-02 8.816056000915e-02 0.0 
6.307725938903e-05 6.583562286387e-02 0.0 
-4.499420191326e-04 5.089465719195e-02 0.0 
1.086262656880e-02 1.056654419193e-01 0.0 
6.827064374860e-03 1.325930188631e-02 0.0 
1.152668806264e-02 1.291826165417e-01 0.0 
1.866815908298e-02 3.176470516804e-02 0.0 
6.570399757496e-03 9.014457927037e-02 0.0 
5.831024570114e-03 2.719904663389e-02 0.0 
9.777947055785e-03 1.541384339524e-02 0.0 
5.401034933907e-04 5.784948289030e-03 0.0 
1.464056329100e-02 2.397710135998e-02 0.0 
7.467088575268e-03 7.098475355353e-02 0.0 
1.738616938815e-02 1.142536491649e-01 0.0 
1.093926582171e-02 1.830263435306e-02 0.0 
2.158632440597e-03 6.725346083663e-02 0.0 
2.820365801810e-04 5.618747453589e-03 0.0 
1.448175380929e-02 1.293865415194e-01 0.0 
1.385348279292e-03 2.710528333976e-02 0.0 
1.789582792547e-03 3.825011780325e-02 0.0 
6.980450891731e-04 2.632555202086e-02 0.0 
2.110245788705e-02 4.622878999518e-02 0.0 
4.806091690760e-03 1.128560643458e-01 0.0 
2.093495490335e-02 1.114876839167e-01 0.0 
1.148975544258e-04 1.180071068576e-02 0.0 
9.686696426719e-03 2.361590364159e-02 0.0 
4.593812479708e-03 6.004969644376e-02 0.0 
2.484494954231e-03 8.108423038290e-02 0.0 
1.429600925906e-04 6.048979152995e-02 0.0 
-6.553900800874e-04 2.999100406979e-02 0.0 
1.749807480548e-03 1.179449322621e-02 0.0 
1.701734227270e-02 3.486524973260e-02 0.0 
2.495544041805e-04 1.195071448700e-02 0.0 
2.440511590686e-04 7.394379484617e-02 0.0 
3.077156491317e-03 6.691621654849e-02 0.0 
2.429664916688e-03 1.086674232950e-02 0.0 
1.027516496337e-02 1.881643976676e-02 0.0 
8.237833198930e-04 4.241774918471e-02 0.0 
1.958582388959e-03 1.096458462357e-02 0.0 
6.448172025131e-05 4.990851375485e-02 0.0 
9.235887146872e-03 1.433981927928e-01 0.0 
2.605410127942e-03 7.070265638183e-02 0.0 
1.787826029593e-04 5.731235059592e-03 0.0 
3.407861801563e-03 2.577012737751e-02 0.0 
1.204510547166e-04 5.821103194941e-02 0.0 
2.021913243136e-02 1.324678060131e-01 0.0 
6.816800896248e-05 6.787659895459e-02 0.0 
1.422979137574e-02 2.311215297851e-02 0.0 
9.868173566865e-04 5.922369956179e-02 0.0 
2.299727113780e-03 2.443737024376e-02 0.0 
3.426072182803e-03 1.067302069597e-02 0.0 
6.972859277752e-03 2.300128423291e-02 0.0 
3.105761707101e-03 5.258587586091e-03 0.0 
6.388120126388e-05 3.285501342356e-02 0.0 
8.851547048963e-03 1.373611181814e-02 0.0 
6.597691656326e-03 1.663429389526e-02 0.0 
5.156168341991e-03 1.427075671921e-01 0.0 
8.617794310744e-03 2.386711367608e-02 0.0 
5.820346175112e-05 6.371420592365e-02 0.0 
1.002782484322e-03 7.072844337851e-02 0.0 
1.329905846887e-04 1.222699068218e-02 0.0 
5.109548760168e-04 7.446981518596e-02 0.0 
8.736096401876e-04 1.426099465271e-01 0.0 
1.405661253806e-05 5.584913040067e-03 0.0 
7.515515131971e-04 7.241049003047e-02 0.0 
1.858051825188e-03 1.202718604274e-01 0.0 
9.720235263810e-03 1.878501000217e-02 0.0 
4.925645591825e-05 5.063962547920e-02 0.0 
1.069563650290e-03 5.269399676645e-02 0.0 
-1.129657544469e-03 4.818432748274e-02 0.0 
-7.057505998311e-04 2.490906405795e-02 0.0 
1.504167598164e-03 9.493775727321e-02 0.0 
8.340933896736e-03 1.336981948317e-02 0.0 
5.448318165755e-03 2.255121235296e-02 0.0 
3.869057921960e-03 1.049157895521e-01 0.0 
7.950579705575e-03 5.463525701719e-02 0.0 
1.339473761448e-02 2.620135269633e-02 0.0 
1.677821825723e-04 5.544510789833e-02 0.0 
1.450042899346e-02 2.468819637396e-02 0.0 
8.355609940132e-03 1.733399455997e-02 0.0 
-5.176264212132e-03 5.179547737143e-02 0.0 
5.716883935369e-05 4.630915325890e-02 0.0 
2.934890900445e-03 6.951318218401e-02 0.0 
8.323252425990e-04 1.067759537867e-02 0.0 
1.156973772094e-04 5.400765553425e-02 0.0 
1.909594716699e-02 1.507043879570e-01 0.0 
6.105267962369e-04 1.591565910348e-01 0.0 

VECTORS node_bounda_dof_materi_velocity_x float
1.000000000000e+00 0.0 0.0 
1.000000000000e+00 0.0 0.0 
1.000000000000e+00 0.0 0.0 
1.000000000000e+00 0.0 0.0 
1.000000000000e+00 0.0 0.0 
1.000000000000e+00 0.0 0.0 
1.000000000000e+00 0.0 0.0 
1.000000000000e+00 0.0 0.0 
1.000000000000e+00 0.0 0.0 
1.000000000000e+00 0.0 0.0 
1.000000000000e+00 0.0 0.0 
1.000000000000e+00 0.0 0.0 
1.000000000000e+00 0.0 0.0 
1.000000000000e+00 0.0 0.0 
1.000000000000e+00 0.0 0.0 
1.000000000000e+00 0.0 0.0 
1.000000000000e+00 0.0 0.0 
1.000000000000e+00 0.0 0.0 
1.000000000000e+00 0.0 0.0 
1.000000000000e+00 0.0 0.0 
1.000000000000e+00 0.0 0.0 
1.000000000000e+00 0.0 0.0 
1.000000000000e+00 0.0 0.0 
1.000000000000e+00 0.0 0.0 
1.000000000000e+00 0.0 0.0 
1.000000000000e+00 0.0 0.0 
1.000000000000e+00 0.0 0.0 
1.000000000000e+00 0.0 0.0 
1.000000000000e+00 0.0 0.0 
1.000000000000e+00 0.0 0.0 
1.000000000000e+00 0.0 0.0 
1.000000000000e+00 0.0 0.0 
1.000000000000e+00 0.0 0.0 
1.000000000000e+00 0.0 0.0 
1.000000000000e+00 0.0 0.0 
1.000000000000e+00 0.0 0.0 
1.000000000000e+00 0.0 0.0 
1.000000000000e+00 0.0 0.0 
1.000000000000e+00 0.0 0.0 
1.000000000000e+00 0.0 0.0 
1.000000000000e+00 0.0 0.0 
1.000000000000e+00 0.0 0.0 
1.000000000000e+00 0.0 0.0 
1.000000000000e+00 0.0 0.0 
1.000000000000e+00 0.0 0.0 
1.000000000000e+00 0.0 0.0 
1.000000000000e+00 0.0 0.0 
1.000000000000e+00 0.0 0.0 
1.000000000000e+00 0.0 0.0 
1.000000000000e+00 0.0 0.0 
1.000000000000e+00 0.0 0.0 
1.000000000000e+00 0.0 0.0 
1.000000000000e+00 0.0 0.0 
1.000000000000e+00 0.0 0.0 
1.000000000000e+00 0.0 0.0 
1.000000000000e+00 0.0 0.0 
1.000000000000e+00 0.0 0.0 
1.000000000000e+00 0.0 0.0 
1.000000000000e+00 0.0 0.0 
1.000000000000e+00 0.0 0.0 
1.000000000000e+00 0.0 0.0 
1.000000000000e+00 0.0 0.0 
1.000000000000e+00 0.0 0.0 
1.000000000000e+00 0.0 0.0 
1.000000000000e+00 0.0 0.0 
1.000000000000e+00 0.0 0.0 
1.000000000000e+00 0.0 0.0 
1.000000000000e+00 0.0 0.0 
1.000000000000e+00 0.0 0.0 
1.000000000000e+00 0.0 0.0 
1.000000000000e+00 0.0 0.0 
1.000000000000e+00 0.0 0.0 
1.000000000000e+00 0.0 0.0 
1.000000000000e+00 0.0 0.0 
1.000000000000e+00 0.0 0.0 
1.000000000000e+00 0.0 0.0 
1.000000000000e+00 0.0 0.0 
1.000000000000e+00 0.0 0.0 
1.000000000000e+00 0.0 0.0 
1.000000000000e+00 0.0 0.0 
1.000000000000e+00 0.0 0.0 
0.0 0.0 0.0 
0.0 0.0 0.0 
0.0 0.0 0.0 
0.0 0.0 0.0 
0.0 0.0 0.0 
0.0 0.0 0.0 
0.0 0.0 0.0 
0.0 0.0 0.0 
0.0 0.0 0.0 
0.0 0.0 0.0 
0.0 0.0 0.0 
1.000000000000e+00 0.0 0.0 
0.0 0.0 0.0 
0.0 0.0 0.0 
0.0 0.0 0.0 
0.0 0.0 0.0 
0.0 0.0 0.0 
0.0 0.0 0.0 
0.0 0.0 0.0 
0.0 0.0 0.0 
0.0 0.0 0.0 
0.0 0.0 0.0 
0.0 0.0 0.0 
0.0 0.0 0.0 
0.0 0.0 0.0 
0.0 0.0 0.0 
0.0 0.0 0.0 
0.0 0.0 0.0 
0.0 0.0 0.0 
0.0 0.0 0.0 
0.0 0.0 0.0 
0.0 0.0 0.0 
0.0 0.0 0.0 
0.0 0.0 0.0 
0.0 0.0 0.0 
0.0 0.0 0.0 
0.0 0.0 0.0 
0.0 0.0 0.0 
0.0 0.0 0.0 
0.0 0.0 0.0 
0.0 0.0 0.0 
0.0 0.0 0.0 
0.0 0.0 0.0 
0.0 0.0 0.0 
0.0 0.0 0.0 
0.0 0.0 0.0 
0.0 0.0 0.0 
0.0 0.0 0.0 
0.0 0.0 0.0 
0.0 0.0 0.0 
0.0 0.0 0.0 
0.0 0.0 0.0 
0.0 0.0 0.0 
0.0 0.0 0.0 
0.0 0.0 0.0 
0.0 0.0 0.0 
0.0 0.0 0.0 
0.0 0.0 0.0 
0.0 0.0 0.0 
0.0 0.0 0.0 
0.0 0.0 0.0 
0.0 0.0 0.0 
0.0 0.0 0.0 
0.0 0.0 0.0 
0.0 0.0 0.0 
0.0 0.0 0.0 
0.0 0.0 0.0 
0.0 0.0 0.0 
0.0 0.0 0.0 
0.0 0.0 0.0 
0.0 0.0 0.0 
0.0 0.0 0.0 
0.0 0.0 0.0 
0.0 0.0 0.0 
0.0 0.0 0.0 
0.0 0.0 0.0 
0.0 0.0 0.0 
0.0 0.0 0.0 
0.0 0.0 0.0 
0.0 0.0 0.0 
0.0 0.0 0.0 
0.0 0.0 0.0 
0.0 0.0 0.0 
0.0 0.0 0.0 
0.0 0.0 0.0 
0.0 0.0 0.0 
0.0 0.0 0.0 
0.0 0.0 0.0 
0.0 0.0 0.0 
0.0 0.0 0.0 
0.0 0.0 0.0 
0.0 0.0 0.0 
0.0 0.0 0.0 
0.0 0.0 0.0 
0.0 0.0 0.0 
0.0 0.0 0.0 
0.0 0.0 0.0 
0.0 0.0 0.0 
0.0 0.0 0.0 
0.0 0.0 0.0 
0.0 0.0 0.0 
0.0 0.0 0.0 
0.0 0.0 0.0 
0.0 0.0 0.0 
0.0 0.0 0.0 
0.0 0.0 0.0 
0.0 0.0 0.0 
0.0 0.0 0.0 
0.0 0.0 0.0 
0.0 0.0 0.0 
0.0 0.0 0.0 
0.0 0.0 0.0 
0.0 0.0 0.0 
0.0 0.0 0.0 
0.0 0.0 0.0 
0.0 0.0 0.0 
0.0 0.0 0.0 
0.0 0.0 0.0 
0.0 0.0 0.0 
0.0 0.0 0.0 
0.0 0.0 0.0 
0.0 0.0 0.0 
0.0 0.0 0.0 
0.0 0.0 0.0 
0.0 0.0 0.0 
0.0 0.0 0.0 
0.0 0.0 0.0 
0.0 0.0 0.0 
0.0 0.0 0.0 
0.0 0.0 0.0 
0.0 0.0 0.0 
0.0 0.0 0.0 
0.0 0.0 0.0 
0.0 0.0 0.0 
0.0 0.0 0.0 
0.0 0.0 0.0 
0.0 0.0 0.0 
0.0 0.0 0.0 
0.0 0.0 0.0 
0.0 0.0 0.0 
0.0 0.0 0.0 
0.0 0.0 0.0 
0.0 0.0 0.0 
0.0 0.0 0.0 
0.0 0.0 0.0 
0.0 0.0 0.0 
0.0 0.0 0.0 
0.0 0.0 0.0 
0.0 0.0 0.0 
0.0 0.0 0.0 
0.0 0.0 0.0 
0.0 0.0 0.0 
0.0 0.0 0.0 
0.0 0.0 0.0 
0.0 0.0 0.0 
0.0 0.0 0.0 
0.0 0.0 0.0 
0.0 0.0 0.0 
0.0 0.0 0.0 
0.0 0.0 0.0 
0.0 0.0 0.0 
0.0 0.0 0.0 
0.0 0.0 0.0 
0.0 0.0 0.0 
0.0 0.0 0.0 
0.0 0.0 0.0 
0.0 0.0 0.0 
0.0 0.0 0.0 
0.0 0.0 0.0 
0.0 0.0 0.0 
0.0 0.0 0.0 
0.0 0.0 0.0 
0.0 0.0 0.0 
0.0 0.0 0.0 
0.0 0.0 0.0 
0.0 0.0 0.0 
0.0 0.0 0.0 
0.0 0.0 0.0 
0.0 0.0 0.0 
0.0 0.0 0.0 
0.0 0.0 0.0 
0.0 0.0 0.0 
0.0 0.0 0.0 
0.0 0.0 0.0 
0.0 0.0 0.0 
0.0 0.0 0.0 
0.0 0.0 0.0 
0.0 0.0 0.0 
0.0 0.0 0.0 
0.0 0.0 0.0 
0.0 0.0 0.0 
0.0 0.0 0.0 
0.0 0.0 0.0 
0.0 0.0 0.0 
0.0 0.0 0.0 
0.0 0.0 0.0 
0.0 0.0 0.0 
0.0 0.0 0.0 
0.0 0.0 0.0 
0.0 0.0 0.0 
0.0 0.0 0.0 
0.0 0.0 0.0 
0.0 0.0 0.0 
0.0 0.0 0.0 
0.0 0.0 0.0 
0.0 0.0 0.0 
0.0 0.0 0.0 
0.0 0.0 0.0 
0.0 0.0 0.0 
0.0 0.0 0.0 
0.0 0.0 0.0 
0.0 0.0 0.0 
0.0 0.0 0.0 
0.0 0.0 0.0 
0.0 0.0 0.0 
0.0 0.0 0.0 
0.0 0.0 0.0 
0.0 0.0 0.0 
0.0 0.0 0.0 
0.0 0.0 0.0 
0.0 0.0 0.0 
0.0 0.0 0.0 
0.0 0.0 0.0 
0.0 0.0 0.0 
0.0 0.0 0.0 
0.0 0.0 0.0 
0.0 0.0 0.0 
0.0 0.0 0.0 
0.0 0.0 0.0 
0.0 0.0 0.0 
0.0 0.0 0.0 
0.0 0.0 0.0 
0.0 0.0 0.0 
0.0 0.0 0.0 
0.0 0.0 0.0 
0.0 0.0 0.0 
0.0 0.0 0.0 
0.0 0.0 0.0 
0.0 0.0 0.0 
0.0 0.0 0.0 
0.0 0.0 0.0 
0.0 0.0 0.0 
0.0 0.0 0.0 
0.0 0.0 0.0 
0.0 0.0 0.0 
0.0 0.0 0.0 
0.0 0.0 0.0 
0.0 0.0 0.0 
0.0 0.0 0.0 
0.0 0.0 0.0 
0.0 0.0 0.0 
0.0 0.0 0.0 
0.0 0.0 0.0 
0.0 0.0 0.0 
0.0 0.0 0.0 
0.0 0.0 0.0 
0.0 0.0 0.0 
0.0 0.0 0.0 
0.0 0.0 0.0 
0.0 0.0 0.0 
0.0 0.0 0.0 
0.0 0.0 0.0 
0.0 0.0 0.0 
0.0 0.0 0.0 
0.0 0.0 0.0 
0.0 0.0 0.0 
0.0 0.0 0.0 
0.0 0.0 0.0 
0.0 0.0 0.0 
0.0 0.0 0.0 
0.0 0.0 0.0 
0.0 0.0 0.0 
0.0 0.0 0.0 
0.0 0.0 0.0 
0.0 0.0 0.0 
0.0 0.0 0.0 
0.0 0.0 0.0 
0.0 0.0 0.0 
0.0 0.0 0.0 
0.0 0.0 0.0 
0.0 0.0 0.0 
0.0 0.0 0.0 
0.0 0.0 0.0 
0.0 0.0 0.0 
0.0 0.0 0.0 
0.0 0.0 0.0 
0.0 0.0 0.0 
0.0 0.0 0.0 
0.0 0.0 0.0 
0.0 0.0 0.0 
0.0 0.0 0.0 
0.0 0.0 0.0 
0.0 0.0 0.0 
0.0 0.0 0.0 
0.0 0.0 0.0 
0.0 0.0 0.0 
0.0 0.0 0.0 
0.0 0.0 0.0 
0.0 0.0 0.0 
0.0 0.0 0.0 
0.0 0.0 0.0 
0.0 0.0 0.0 
0.0 0.0 0.0 
0.0 0.0 0.0 
0.0 0.0 0.0 
0.0 0.0 0.0 
0.0 0.0 0.0 
0.0 0.0 0.0 
0.0 0.0 0.0 
0.0 0.0 0.0 
0.0 0.0 0.0 
0.0 0.0 0.0 
0.0 0.0 0.0 
0.0 0.0 0.0 
0.0 0.0 0.0 
0.0 0.0 0.0 
0.0 0.0 0.0 
0.0 0.0 0.0 
0.0 0.0 0.0 
0.0 0.0 0.0 
0.0 0.0 0.0 
0.0 0.0 0.0 
0.0 0.0 0.0 
0.0 0.0 0.0 
0.0 0.0 0.0 
0.0 0.0 0.0 
0.0 0.0 0.0 
0.0 0.0 0.0 
0.0 0.0 0.0 
0.0 0.0 0.0 
0.0 0.0 0.0 
0.0 0.0 0.0 
0.0 0.0 0.0 
0.0 0.0 0.0 
0.0 0.0 0.0 
0.0 0.0 0.0 
0.0 0.0 0.0 
0.0 0.0 0.0 
0.0 0.0 0.0 
0.0 0.0 0.0 
0.0 0.0 0.0 
0.0 0.0 0.0 
0.0 0.0 0.0 
0.0 0.0 0.0 
0.0 0.0 0.0 
0.0 0.0 0.0 
0.0 0.0 0.0 
0.0 0.0 0.0 
0.0 0.0 0.0 
0.0 0.0 0.0 
0.0 0.0 0.0 
0.0 0.0 0.0 
0.0 0.0 0.0 
0.0 0.0 0.0 
0.0 0.0 0.0 
0.0 0.0 0.0 
0.0 0.0 0.0 
0.0 0.0 0.0 
0.0 0.0 0.0 
0.0 0.0 0.0 
0.0 0.0 0.0 
0.0 0.0 0.0 
0.0 0.0 0.0 
0.0 0.0 0.0 
0.0 0.0 0.0 
0.0 0.0 0.0 
0.0 0.0 0.0 
0.0 0.0 0.0 
0.0 0.0 0.0 
0.0 0.0 0.0 
0.0 0.0 0.0 
0.0 0.0 0.0 
0.0 0.0 0.0 
0.0 0.0 0.0 
0.0 0.0 0.0 
0.0 0.0 0.0 
0.0 0.0 0.0 
0.0 0.0 0.0 
0.0 0.0 0.0 
0.0 0.0 0.0 
0.0 0.0 0.0 
0.0 0.0 0.0 
0.0 0.0 0.0 
0.0 0.0 0.0 
0.0 0.0 0.0 
0.0 0.0 0.0 
0.0 0.0 0.0 
0.0 0.0 0.0 
0.0 0.0 0.0 
0.0 0.0 0.0 
0.0 0.0 0.0 
0.0 0.0 0.0 
0.0 0.0 0.0 
0.0 0.0 0.0 
0.0 0.0 0.0 
0.0 0.0 0.0 
0.0 0.0 0.0 
0.0 0.0 0.0 
0.0 0.0 0.0 
0.0 0.0 0.0 
0.0 0.0 0.0 
0.0 0.0 0.0 
0.0 0.0 0.0 
0.0 0.0 0.0 
0.0 0.0 0.0 
0.0 0.0 0.0 
0.0 0.0 0.0 
0.0 0.0 0.0 
0.0 0.0 0.0 
0.0 0.0 0.0 
0.0 0.0 0.0 
0.0 0.0 0.0 
0.0 0.0 0.0 
0.0 0.0 0.0 
0.0 0.0 0.0 
0.0 0.0 0.0 
0.0 0.0 0.0 
0.0 0.0 0.0 
0.0 0.0 0.0 
0.0 0.0 0.0 
0.0 0.0 0.0 
0.0 0.0 0.0 
0.0 0.0 0.0 
0.0 0.0 0.0 
0.0 0.0 0.0 
0.0 0.0 0.0 
0.0 0.0 0.0 
0.0 0.0 0.0 
0.0 0.0 0.0 
0.0 0.0 0.0 
0.0 0.0 0.0 
0.0 0.0 0.0 
0.0 0.0 0.0 
0.0 0.0 0.0 
0.0 0.0 0.0 
0.0 0.0 0.0 
0.0 0.0 0.0 
0.0 0.0 0.0 
0.0 0.0 0.0 
0.0 0.0 0.0 
0.0 0.0 0.0 
0.0 0.0 0.0 
0.0 0.0 0.0 
0.0 0.0 0.0 
0.0 0.0 0.0 
0.0 0.0 0.0 
0.0 0.0 0.0 
0.0 0.0 0.0 
0.0 0.0 0.0 
0.0 0.0 0.0 
0.0 0.0 0.0 
0.0 0.0 0.0 
0.0 0.0 0.0 
0.0 0.0 0.0 
0.0 0.0 0.0 
0.0 0.0 0.0 
0.0 0.0 0.0 
0.0 0.0 0.0 
0.0 0.0 0.0 
0.0 0.0 0.0 
0.0 0.0 0.0 
0.0 0.0 0.0 
0.0 0.0 0.0 
0.0 0.0 0.0 
0.0 0.0 0.0 
0.0 0.0 0.0 
0.0 0.0 0.0 
0.0 0.0 0.0 
0.0 0.0 0.0 
0.0 0.0 0.0 
0.0 0.0 0.0 
0.0 0.0 0.0 
0.0 0.0 0.0 
0.0 0.0 0.0 
0.0 0.0 0.0 
0.0 0.0 0.0 
0.0 0.0 0.0 
0.0 0.0 0.0 
0.0 0.0 0.0 
0.0 0.0 0.0 
0.0 0.0 0.0 
0.0 0.0 0.0 
0.0 0.0 0.0 
0.0 0.0 0.0 
0.0 0.0 0.0 
0.0 0.0 0.0 
0.0 0.0 0.0 
0.0 0.0 0.0 
0.0 0.0 0.0 
0.0 0.0 0.0 
0.0 0.0 0.0 
0.0 0.0 0.0 
0.0 0.0 0.0 
0.0 0.0 0.0 
0.0 0.0 0.0 
0.0 0.0 0.0 
0.0 0.0 0.0 
0.0 0.0 0.0 
0.0 0.0 0.0 
0.0 0.0 0.0 
0.0 0.0 0.0 
0.0 0.0 0.0 
0.0 0.0 0.0 
0.0 0.0 0.0 
0.0 0.0 0.0 
0.0 0.0 0.0 
0.0 0.0 0.0 
0.0 0.0 0.0 
0.0 0.0 0.0 
0.0 0.0 0.0 
0.0 0.0 0.0 
0.0 0.0 0.0 
0.0 0.0 0.0 
0.0 0.0 0.0 
0.0 0.0 0.0 
0.0 0.0 0.0 
0.0 0.0 0.0 
0.0 0.0 0.0 
0.0 0.0 0.0 
0.0 0.0 0.0 
0.0 0.0 0.0 
0.0 0.0 0.0 
0.0 0.0 0.0 
0.0 0.0 0.0 
0.0 0.0 0.0 
0.0 0.0 0.0 
0.0 0.0 0.0 
0.0 0.0 0.0 
0.0 0.0 0.0 
0.0 0.0 0.0 
0.0 0.0 0.0 
0.0 0.0 0.0 
0.0 0.0 0.0 
0.0 0.0 0.0 
0.0 0.0 0.0 
0.0 0.0 0.0 
0.0 0.0 0.0 
0.0 0.0 0.0 
0.0 0.0 0.0 
0.0 0.0 0.0 
0.0 0.0 0.0 
0.0 0.0 0.0 
0.0 0.0 0.0 
0.0 0.0 0.0 
0.0 0.0 0.0 
0.0 0.0 0.0 
0.0 0.0 0.0 
0.0 0.0 0.0 
0.0 0.0 0.0 
0.0 0.0 0.0 
0.0 0.0 0.0 
0.0 0.0 0.0 
0.0 0.0 0.0 
0.0 0.0 0.0 
0.0 0.0 0.0 
0.0 0.0 0.0 
0.0 0.0 0.0 
0.0 0.0 0.0 
0.0 0.0 0.0 
0.0 0.0 0.0 
0.0 0.0 0.0 
0.0 0.0 0.0 
0.0 0.0 0.0 
0.0 0.0 0.0 
0.0 0.0 0.0 
0.0 0.0 0.0 
0.0 0.0 0.0 
0.0 0.0 0.0 
0.0 0.0 0.0 
0.0 0.0 0.0 
0.0 0.0 0.0 
0.0 0.0 0.0 
0.0 0.0 0.0 
0.0 0.0 0.0 
0.0 0.0 0.0 
0.0 0.0 0.0 
0.0 0.0 0.0 
0.0 0.0 0.0 
0.0 0.0 0.0 
0.0 0.0 0.0 
0.0 0.0 0.0 
0.0 0.0 0.0 
0.0 0.0 0.0 
0.0 0.0 0.0 
0.0 0.0 0.0 
0.0 0.0 0.0 
0.0 0.0 0.0 
0.0 0.0 0.0 
0.0 0.0 0.0 
0.0 0.0 0.0 
0.0 0.0 0.0 
0.0 0.0 0.0 
0.0 0.0 0.0 
0.0 0.0 0.0 
0.0 0.0 0.0 
0.0 0.0 0.0 
0.0 0.0 0.0 
0.0 0.0 0.0 
0.0 0.0 0.0 
0.0 0.0 0.0 
0.0 0.0 0.0 
0.0 0.0 0.0 
0.0 0.0 0.0 
0.0 0.0 0.0 
0.0 0.0 0.0 
0.0 0.0 0.0 
0.0 0.0 0.0 
0.0 0.0 0.0 
0.0 0.0 0.0 
0.0 0.0 0.0 
0.0 0.0 0.0 
0.0 0.0 0.0 
0.0 0.0 0.0 
0.0 0.0 0.0 
0.0 0.0 0.0 
0.0 0.0 0.0 
0.0 0.0 0.0 
0.0 0.0 0.0 
0.0 0.0 0.0 
0.0 0.0 0.0 
0.0 0.0 0.0 
0.0 0.0 0.0 
0.0 0.0 0.0 
0.0 0.0 0.0 
0.0 0.0 0.0 
0.0 0.0 0.0 
0.0 0.0 0.0 
0.0 0.0 0.0 
0.0 0.0 0.0 
0.0 0.0 0.0 
0.0 0.0 0.0 
0.0 0.0 0.0 
0.0 0.0 0.0 
0.0 0.0 0.0 
0.0 0.0 0.0 
0.0 0.0 0.0 
0.0 0.0 0.0 
0.0 0.0 0.0 
0.0 0.0 0.0 
0.0 0.0 0.0 
0.0 0.0 0.0 
0.0 0.0 0.0 
0.0 0.0 0.0 
0.0 0.0 0.0 
0.0 0.0 0.0 
0.0 0.0 0.0 
0.0 0.0 0.0 
0.0 0.0 0.0 
0.0 0.0 0.0 
0.0 0.0 0.0 
0.0 0.0 0.0 
0.0 0.0 0.0 
0.0 0.0 0.0 
0.0 0.0 0.0 
0.0 0.0 0.0 
0.0 0.0 0.0 
0.0 0.0 0.0 
0.0 0.0 0.0 
0.0 0.0 0.0 
0.0 0.0 0.0 
0.0 0.0 0.0 
0.0 0.0 0.0 
0.0 0.0 0.0 
0.0 0.0 0.0 
0.0 0.0 0.0 
0.0 0.0 0.0 
0.0 0.0 0.0 
0.0 0.0 0.0 
0.0 0.0 0.0 
0.0 0.0 0.0 
0.0 0.0 0.0 
0.0 0.0 0.0 
0.0 0.0 0.0 
0.0 0.0 0.0 
0.0 0.0 0.0 
0.0 0.0 0.0 
0.0 0.0 0.0 
0.0 0.0 0.0 
0.0 0.0 0.0 
0.0 0.0 0.0 
0.0 0.0 0.0 
0.0 0.0 0.0 
0.0 0.0 0.0 
0.0 0.0 0.0 
0.0 0.0 0.0 
0.0 0.0 0.0 
0.0 0.0 0.0 
0.0 0.0 0.0 
0.0 0.0 0.0 
0.0 0.0 0.0 
0.0 0.0 0.0 
0.0 0.0 0.0 
0.0 0.0 0.0 
0.0 0.0 0.0 
0.0 0.0 0.0 
0.0 0.0 0.0 
0.0 0.0 0.0 
0.0 0.0 0.0 
0.0 0.0 0.0 
0.0 0.0 0.0 
0.0 0.0 0.0 
0.0 0.0 0.0 
0.0 0.0 0.0 
0.0 0.0 0.0 
0.0 0.0 0.0 
0.0 0.0 0.0 
0.0 0.0 0.0 
0.0 0.0 0.0 
0.0 0.0 0.0 
0.0 0.0 0.0 
0.0 0.0 0.0 
0.0 0.0 0.0 
0.0 0.0 0.0 
0.0 0.0 0.0 
0.0 0.0 0.0 
0.0 0.0 0.0 
0.0 0.0 0.0 
0.0 0.0 0.0 
0.0 0.0 0.0 
0.0 0.0 0.0 
0.0 0.0 0.0 
0.0 0.0 0.0 
0.0 0.0 0.0 
0.0 0.0 0.0 
0.0 0.0 0.0 
0.0 0.0 0.0 
0.0 0.0 0.0 
0.0 0.0 0.0 
0.0 0.0 0.0 
0.0 0.0 0.0 
0.0 0.0 0.0 
0.0 0.0 0.0 
0.0 0.0 0.0 
0.0 0.0 0.0 
0.0 0.0 0.0 
0.0 0.0 0.0 
0.0 0.0 0.0 
0.0 0.0 0.0 
0.0 0.0 0.0 
0.0 0.0 0.0 
0.0 0.0 0.0 
0.0 0.0 0.0 
0.0 0.0 0.0 
0.0 0.0 0.0 
0.0 0.0 0.0 
0.0 0.0 0.0 
0.0 0.0 0.0 
0.0 0.0 0.0 
0.0 0.0 0.0 
0.0 0.0 0.0 
0.0 0.0 0.0 
0.0 0.0 0.0 
0.0 0.0 0.0 
0.0 0.0 0.0 
0.0 0.0 0.0 
0.0 0.0 0.0 
0.0 0.0 0.0 
0.0 0.0 0.0 
0.0 0.0 0.0 
0.0 0.0 0.0 
0.0 0.0 0.0 
0.0 0.0 0.0 
0.0 0.0 0.0 
0.0 0.0 0.0 
0.0 0.0 0.0 
0.0 0.0 0.0 
0.0 0.0 0.0 
0.0 0.0 0.0 
0.0 0.0 0.0 
0.0 0.0 0.0 
0.0 0.0 0.0 
0.0 0.0 0.0 
0.0 0.0 0.0 
0.0 0.0 0.0 
0.0 0.0 0.0 
0.0 0.0 0.0 
0.0 0.0 0.0 
0.0 0.0 0.0 
0.0 0.0 0.0 
0.0 0.0 0.0 
0.0 0.0 0.0 
0.0 0.0 0.0 
0.0 0.0 0.0 
0.0 0.0 0.0 
0.0 0.0 0.0 
0.0 0.0 0.0 
0.0 0.0 0.0 
0.0 0.0 0.0 
0.0 0.0 0.0 
0.0 0.0 0.0 
0.0 0.0 0.0 
0.0 0.0 0.0 
0.0 0.0 0.0 
0.0 0.0 0.0 
0.0 0.0 0.0 
0.0 0.0 0.0 
0.0 0.0 0.0 
0.0 0.0 0.0 
0.0 0.0 0.0 
0.0 0.0 0.0 
0.0 0.0 0.0 
0.0 0.0 0.0 
0.0 0.0 0.0 
0.0 0.0 0.0 
0.0 0.0 0.0 
0.0 0.0 0.0 
0.0 0.0 0.0 
0.0 0.0 0.0 
0.0 0.0 0.0 
0.0 0.0 0.0 
0.0 0.0 0.0 
0.0 0.0 0.0 
0.0 0.0 0.0 
0.0 0.0 0.0 
0.0 0.0 0.0 
0.0 0.0 0.0 
0.0 0.0 0.0 
0.0 0.0 0.0 
0.0 0.0 0.0 
0.0 0.0 0.0 
0.0 0.0 0.0 
0.0 0.0 0.0 
0.0 0.0 0.0 
0.0 0.0 0.0 
0.0 0.0 0.0 
0.0 0.0 0.0 
0.0 0.0 0.0 
0.0 0.0 0.0 
0.0 0.0 0.0 
0.0 0.0 0.0 
0.0 0.0 0.0 
0.0 0.0 0.0 
0.0 0.0 0.0 
0.0 0.0 0.0 
0.0 0.0 0.0 
0.0 0.0 0.0 
0.0 0.0 0.0 
0.0 0.0 0.0 
0.0 0.0 0.0 
0.0 0.0 0.0 
0.0 0.0 0.0 
0.0 0.0 0.0 
0.0 0.0 0.0 
0.0 0.0 0.0 
0.0 0.0 0.0 
0.0 0.0 0.0 
0.0 0.0 0.0 
0.0 0.0 0.0 
0.0 0.0 0.0 
0.0 0.0 0.0 
0.0 0.0 0.0 
0.0 0.0 0.0 
0.0 0.0 0.0 
0.0 0.0 0.0 
0.0 0.0 0.0 
0.0 0.0 0.0 
0.0 0.0 0.0 
0.0 0.0 0.0 
0.0 0.0 0.0 
0.0 0.0 0.0 
0.0 0.0 0.0 
0.0 0.0 0.0 
0.0 0.0 0.0 
0.0 0.0 0.0 
0.0 0.0 0.0 
0.0 0.0 0.0 
0.0 0.0 0.0 
0.0 0.0 0.0 
0.0 0.0 0.0 
0.0 0.0 0.0 
0.0 0.0 0.0 
0.0 0.0 0.0 
0.0 0.0 0.0 
0.0 0.0 0.0 
0.0 0.0 0.0 
0.0 0.0 0.0 
0.0 0.0 0.0 
0.0 0.0 0.0 
0.0 0.0 0.0 
0.0 0.0 0.0 
0.0 0.0 0.0 
0.0 0.0 0.0 
0.0 0.0 0.0 
0.0 0.0 0.0 
0.0 0.0 0.0 
0.0 0.0 0.0 
0.0 0.0 0.0 
0.0 0.0 0.0 
0.0 0.0 0.0 
0.0 0.0 0.0 
0.0 0.0 0.0 
0.0 0.0 0.0 
0.0 0.0 0.0 
0.0 0.0 0.0 
0.0 0.0 0.0 
0.0 0.0 0.0 
0.0 0.0 0.0 
0.0 0.0 0.0 
0.0 0.0 0.0 
0.0 0.0 0.0 
0.0 0.0 0.0 
0.0 0.0 0.0 
0.0 0.0 0.0 
0.0 0.0 0.0 
0.0 0.0 0.0 
0.0 0.0 0.0 
0.0 0.0 0.0 
0.0 0.0 0.0 
0.0 0.0 0.0 
0.0 0.0 0.0 
0.0 0.0 0.0 
0.0 0.0 0.0 
0.0 0.0 0.0 
0.0 0.0 0.0 
0.0 0.0 0.0 
0.0 0.0 0.0 
0.0 0.0 0.0 
0.0 0.0 0.0 
0.0 0.0 0.0 
0.0 0.0 0.0 
0.0 0.0 0.0 
0.0 0.0 0.0 
0.0 0.0 0.0 
0.0 0.0 0.0 
0.0 0.0 0.0 
0.0 0.0 0.0 
0.0 0.0 0.0 
0.0 0.0 0.0 
0.0 0.0 0.0 
0.0 0.0 0.0 
0.0 0.0 0.0 
0.0 0.0 0.0 
0.0 0.0 0.0 
0.0 0.0 0.0 
0.0 0.0 0.0 
0.0 0.0 0.0 
0.0 0.0 0.0 
0.0 0.0 0.0 
0.0 0.0 0.0 
0.0 0.0 0.0 
0.0 0.0 0.0 
0.0 0.0 0.0 
0.0 0.0 0.0 
0.0 0.0 0.0 
0.0 0.0 0.0 
0.0 0.0 0.0 
0.0 0.0 0.0 
0.0 0.0 0.0 
0.0 0.0 0.0 
0.0 0.0 0.0 
0.0 0.0 0.0 
0.0 0.0 0.0 
0.0 0.0 0.0 
0.0 0.0 0.0 
0.0 0.0 0.0 
0.0 0.0 0.0 
0.0 0.0 0.0 
0.0 0.0 0.0 
0.0 0.0 0.0 
0.0 0.0 0.0 
0.0 0.0 0.0 
0.0 0.0 0.0 
0.0 0.0 0.0 
0.0 0.0 0.0 
0.0 0.0 0.0 
0.0 0.0 0.0 

VECTORS node_bounda_dof_materi_velocity_y float
0.0 0.0 0.0 
0.0 0.0 0.0 
0.0 1.000000000000e+00 0.0 
0.0 1.000000000000e+00 0.0 
0.0 0.0 0.0 
0.0 0.0 0.0 
0.0 0.0 0.0 
0.0 0.0 0.0 
0.0 0.0 0.0 
0.0 0.0 0.0 
0.0 0.0 0.0 
0.0 0.0 0.0 
0.0 0.0 0.0 
0.0 0.0 0.0 
0.0 0.0 0.0 
0.0 0.0 0.0 
0.0 0.0 0.0 
0.0 0.0 0.0 
0.0 0.0 0.0 
0.0 0.0 0.0 
0.0 0.0 0.0 
0.0 0.0 0.0 
0.0 0.0 0.0 
0.0 1.000000000000e+00 0.0 
0.0 1.000000000000e+00 0.0 
0.0 1.000000000000e+00 0.0 
0.0 1.000000000000e+00 0.0 
0.0 1.000000000000e+00 0.0 
0.0 1.000000000000e+00 0.0 
0.0 1.000000000000e+00 0.0 
0.0 1.000000000000e+00 0.0 
0.0 1.000000000000e+00 0.0 
0.0 1.000000000000e+00 0.0 
0.0 1.000000000000e+00 0.0 
0.0 1.000000000000e+00 0.0 
0.0 1.000000000000e+00 0.0 
0.0 1.000000000000e+00 0.0 
0.0 1.000000000000e+00 0.0 
0.0 1.000000000000e+00 0.0 
0.0 1.000000000000e+00 0.0 
0.0 1.000000000000e+00 0.0 
0.0 1.000000000000e+00 0.0 
0.0 1.000000000000e+00 0.0 
0.0 1.000000000000e+00 0.0 
0.0 1.000000000000e+00 0.0 
0.0 1.000000000000e+00 0.0 
0.0 1.000000000000e+00 0.0 
0.0 1.000000000000e+00 0.0 
0.0 1.000000000000e+00 0.0 
0.0 1.000000000000e+00 0.0 
0.0 1.000000000000e+00 0.0 
0.0 1.000000000000e+00 0.0 
0.0 1.000000000000e+00 0.0 
0.0 1.000000000000e+00 0.0 
0.0 1.000000000000e+00 0.0 
0.0 1.000000000000e+00 0.0 
0.0 1.000000000000e+00 0.0 
0.0 1.000000000000e+00 0.0 
0.0 1.000000000000e+00 0.0 
0.0 1.000000000000e+00 0.0 
0.0 1.000000000000e+00 0.0 
0.0 1.000000000000e+00 0.0 
0.0 1.000000000000e+00 0.0 
0.0 1.000000000000e+00 0.0 
0.0 1.000000000000e+00 0.0 
0.0 1.000000000000e+00 0.0 
0.0 1.000000000000e+00 0.0 
0.0 1.000000000000e+00 0.0 
0.0 1.000000000000e+00 0.0 
0.0 1.000000000000e+00 0.0 
0.0 1.000000000000e+00 0.0 
0.0 1.000000000000e+00 0.0 
0.0 0.0 0.0 
0.0 0.0 0.0 
0.0 0.0 0.0 
0.0 0.0 0.0 
0.0 0.0 0.0 
0.0 0.0 0.0 
0.0 0.0 0.0 
0.0 0.0 0.0 
0.0 0.0 0.0 
0.0 0.0 0.0 
0.0 0.0 0.0 
0.0 0.0 0.0 
0.0 0.0 0.0 
0.0 0.0 0.0 
0.0 0.0 0.0 
0.0 0.0 0.0 
0.0 0.0 0.0 
0.0 0.0 0.0 
0.0 0.0 0.0 
0.0 0.0 0.0 
0.0 0.0 0.0 
0.0 0.0 0.0 
0.0 0.0 0.0 
0.0 0.0 0.0 
0.0 0.0 0.0 
0.0 0.0 0.0 
0.0 0.0 0.0 
0.0 0.0 0.0 
0.0 0.0 0.0 
0.0 0.0 0.0 
0.0 0.0 0.0 
0.0 0.0 0.0 
0.0 0.0 0.0 
0.0 0.0 0.0 
0.0 0.0 0.0 
0.0 0.0 0.0 
0.0 0.0 0.0 
0.0 0.0 0.0 
0.0 0.0 0.0 
0.0 0.0 0.0 
0.0 0.0 0.0 
0.0 0.0 0.0 
0.0 0.0 0.0 
0.0 0.0 0.0 
0.0 0.0 0.0 
0.0 0.0 0.0 
0.0 0.0 0.0 
0.0 0.0 0.0 
0.0 0.0 0.0 
0.0 0.0 0.0 
0.0 0.0 0.0 
0.0 0.0 0.0 
0.0 0.0 0.0 
0.0 0.0 0.0 
0.0 0.0 0.0 
0.0 0.0 0.0 
0.0 0.0 0.0 
0.0 0.0 0.0 
0.0 0.0 0.0 
0.0 0.0 0.0 
0.0 0.0 0.0 
0.0 0.0 0.0 
0.0 0.0 0.0 
0.0 0.0 0.0 
0.0 0.0 0.0 
0.0 0.0 0.0 
0.0 0.0 0.0 
0.0 0.0 0.0 
0.0 0.0 0.0 
0.0 0.0 0.0 
0.0 0.0 0.0 
0.0 0.0 0.0 
0.0 0.0 0.0 
0.0 0.0 0.0 
0.0 0.0 0.0 
0.0 0.0 0.0 
0.0 0.0 0.0 
0.0 0.0 0.0 
0.0 0.0 0.0 
0.0 0.0 0.0 
0.0 0.0 0.0 
0.0 0.0 0.0 
0.0 0.0 0.0 
0.0 0.0 0.0 
0.0 0.0 0.0 
0.0 0.0 0.0 
0.0 0.0 0.0 
0.0 0.0 0.0 
0.0 0.0 0.0 
0.0 0.0 0.0 
0.0 0.0 0.0 
0.0 0.0 0.0 
0.0 0.0 0.0 
0.0 0.0 0.0 
0.0 0.0 0.0 
0.0 0.0 0.0 
0.0 0.0 0.0 
0.0 0.0 0.0 
0.0 0.0 0.0 
0.0 0.0 0.0 
0.0 0.0 0.0 
0.0 0.0 0.0 
0.0 0.0 0.0 
0.0 0.0 0.0 
0.0 0.0 0.0 
0.0 0.0 0.0 
0.0 0.0 0.0 
0.0 0.0 0.0 
0.0 0.0 0.0 
0.0 0.0 0.0 
0.0 0.0 0.0 
0.0 0.0 0.0 
0.0 0.0 0.0 
0.0 0.0 0.0 
0.0 0.0 0.0 
0.0 0.0 0.0 
0.0 0.0 0.0 
0.0 0.0 0.0 
0.0 0.0 0.0 
0.0 0.0 0.0 
0.0 0.0 0.0 
0.0 0.0 0.0 
0.0 0.0 0.0 
0.0 0.0 0.0 
0.0 0.0 0.0 
0.0 0.0 0.0 
0.0 0.0 0.0 
0.0 0.0 0.0 
0.0 0.0 0.0 
0.0 0.0 0.0 
0.0 0.0 0.0 
0.0 0.0 0.0 
0.0 0.0 0.0 
0.0 0.0 0.0 
0.0 0.0 0.0 
0.0 0.0 0.0 
0.0 0.0 0.0 
0.0 0.0 0.0 
0.0 0.0 0.0 
0.0 0.0 0.0 
0.0 0.0 0.0 
0.0 0.0 0.0 
0.0 0.0 0.0 
0.0 0.0 0.0 
0.0 0.0 0.0 
0.0 0.0 0.0 
0.0 0.0 0.0 
0.0 0.0 0.0 
0.0 0.0 0.0 
0.0 0.0 0.0 
0.0 0.0 0.0 
0.0 0.0 0.0 
0.0 0.0 0.0 
0.0 0.0 0.0 
0.0 0.0 0.0 
0.0 0.0 0.0 
0.0 0.0 0.0 
0.0 0.0 0.0 
0.0 0.0 0.0 
0.0 0.0 0.0 
0.0 0.0 0.0 
0.0 0.0 0.0 
0.0 0.0 0.0 
0.0 0.0 0.0 
0.0 0.0 0.0 
0.0 0.0 0.0 
0.0 0.0 0.0 
0.0 0.0 0.0 
0.0 0.0 0.0 
0.0 0.0 0.0 
0.0 0.0 0.0 
0.0 0.0 0.0 
0.0 0.0 0.0 
0.0 0.0 0.0 
0.0 0.0 0.0 
0.0 0.0 0.0 
0.0 0.0 0.0 
0.0 0.0 0.0 
0.0 0.0 0.0 
0.0 0.0 0.0 
0.0 0.0 0.0 
0.0 0.0 0.0 
0.0 0.0 0.0 
0.0 0.0 0.0 
0.0 0.0 0.0 
0.0 0.0 0.0 
0.0 0.0 0.0 
0.0 0.0 0.0 
0.0 0.0 0.0 
0.0 0.0 0.0 
0.0 0.0 0.0 
0.0 0.0 0.0 
0.0 0.0 0.0 
0.0 0.0 0.0 
0.0 0.0 0.0 
0.0 0.0 0.0 
0.0 0.0 0.0 
0.0 0.0 0.0 
0.0 0.0 0.0 
0.0 0.0 0.0 
0.0 0.0 0.0 
0.0 0.0 0.0 
0.0 0.0 0.0 
0.0 0.0 0.0 
0.0 0.0 0.0 
0.0 0.0 0.0 
0.0 0.0 0.0 
0.0 0.0 0.0 
0.0 0.0 0.0 
0.0 0.0 0.0 
0.0 0.0 0.0 
0.0 0.0 0.0 
0.0 0.0 0.0 
0.0 0.0 0.0 
0.0 0.0 0.0 
0.0 0.0 0.0 
0.0 0.0 0.0 
0.0 0.0 0.0 
0.0 0.0 0.0 
0.0 0.0 0.0 
0.0 0.0 0.0 
0.0 0.0 0.0 
0.0 0.0 0.0 
0.0 0.0 0.0 
0.0 0.0 0.0 
0.0 0.0 0.0 
0.0 0.0 0.0 
0.0 0.0 0.0 
0.0 0.0 0.0 
0.0 0.0 0.0 
0.0 0.0 0.0 
0.0 0.0 0.0 
0.0 0.0 0.0 
0.0 0.0 0.0 
0.0 0.0 0.0 
0.0 0.0 0.0 
0.0 0.0 0.0 
0.0 0.0 0.0 
0.0 0.0 0.0 
0.0 0.0 0.0 
0.0 0.0 0.0 
0.0 0.0 0.0 
0.0 0.0 0.0 
0.0 0.0 0.0 
0.0 0.0 0.0 
0.0 0.0 0.0 
0.0 0.0 0.0 
0.0 0.0 0.0 
0.0 0.0 0.0 
0.0 0.0 0.0 
0.0 0.0 0.0 
0.0 0.0 0.0 
0.0 0.0 0.0 
0.0 0.0 0.0 
0.0 0.0 0.0 
0.0 0.0 0.0 
0.0 0.0 0.0 
0.0 0.0 0.0 
0.0 0.0 0.0 
0.0 0.0 0.0 
0.0 0.0 0.0 
0.0 0.0 0.0 
0.0 0.0 0.0 
0.0 0.0 0.0 
0.0 0.0 0.0 
0.0 0.0 0.0 
0.0 0.0 0.0 
0.0 0.0 0.0 
0.0 0.0 0.0 
0.0 0.0 0.0 
0.0 0.0 0.0 
0.0 0.0 0.0 
0.0 0.0 0.0 
0.0 0.0 0.0 
0.0 0.0 0.0 
0.0 0.0 0.0 
0.0 0.0 0.0 
0.0 0.0 0.0 
0.0 0.0 0.0 
0.0 0.0 0.0 
0.0 0.0 0.0 
0.0 0.0 0.0 
0.0 0.0 0.0 
0.0 0.0 0.0 
0.0 0.0 0.0 
0.0 0.0 0.0 
0.0 0.0 0.0 
0.0 0.0 0.0 
0.0 0.0 0.0 
0.0 0.0 0.0 
0.0 0.0 0.0 
0.0 0.0 0.0 
0.0 0.0 0.0 
0.0 0.0 0.0 
0.0 0.0 0.0 
0.0 0.0 0.0 
0.0 0.0 0.0 
0.0 0.0 0.0 
0.0 0.0 0.0 
0.0 0.0 0.0 
0.0 0.0 0.0 
0.0 0.0 0.0 
0.0 0.0 0.0 
0.0 0.0 0.0 
0.0 0.0 0.0 
0.0 0.0 0.0 
0.0 0.0 0.0 
0.0 0.0 0.0 
0.0 0.0 0.0 
0.0 0.0 0.0 
0.0 0.0 0.0 
0.0 0.0 0.0 
0.0 0.0 0.0 
0.0 0.0 0.0 
0.0 0.0 0.0 
0.0 0.0 0.0 
0.0 0.0 0.0 
0.0 0.0 0.0 
0.0 0.0 0.0 
0.0 0.0 0.0 
0.0 0.0 0.0 
0.0 0.0 0.0 
0.0 0.0 0.0 
0.0 0.0 0.0 
0.0 0.0 0.0 
0.0 0.0 0.0 
0.0 0.0 0.0 
0.0 0.0 0.0 
0.0 0.0 0.0 
0.0 0.0 0.0 
0.0 0.0 0.0 
0.0 0.0 0.0 
0.0 0.0 0.0 
0.0 0.0 0.0 
0.0 0.0 0.0 
0.0 0.0 0.0 
0.0 0.0 0.0 
0.0 0.0 0.0 
0.0 0.0 0.0 
0.0 0.0 0.0 
0.0 0.0 0.0 
0.0 0.0 0.0 
0.0 0.0 0.0 
0.0 0.0 0.0 
0.0 0.0 0.0 
0.0 0.0 0.0 
0.0 0.0 0.0 
0.0 0.0 0.0 
0.0 0.0 0.0 
0.0 0.0 0.0 
0.0 0.0 0.0 
0.0 0.0 0.0 
0.0 0.0 0.0 
0.0 0.0 0.0 
0.0 0.0 0.0 
0.0 0.0 0.0 
0.0 0.0 0.0 
0.0 0.0 0.0 
0.0 0.0 0.0 
0.0 0.0 0.0 
0.0 0.0 0.0 
0.0 0.0 0.0 
0.0 0.0 0.0 
0.0 0.0 0.0 
0.0 0.0 0.0 
0.0 0.0 0.0 
0.0 0.0 0.0 
0.0 0.0 0.0 
0.0 0.0 0.0 
0.0 0.0 0.0 
0.0 0.0 0.0 
0.0 0.0 0.0 
0.0 0.0 0.0 
0.0 0.0 0.0 
0.0 0.0 0.0 
0.0 0.0 0.0 
0.0 0.0 0.0 
0.0 0.0 0.0 
0.0 0.0 0.0 
0.0 0.0 0.0 
0.0 0.0 0.0 
0.0 0.0 0.0 
0.0 0.0 0.0 
0.0 0.0 0.0 
0.0 0.0 0.0 
0.0 0.0 0.0 
0.0 0.0 0.0 
0.0 0.0 0.0 
0.0 0.0 0.0 
0.0 0.0 0.0 
0.0 0.0 0.0 
0.0 0.0 0.0 
0.0 0.0 0.0 
0.0 0.0 0.0 
0.0 0.0 0.0 
0.0 0.0 0.0 
0.0 0.0 0.0 
0.0 0.0 0.0 
0.0 0.0 0.0 
0.0 0.0 0.0 
0.0 0.0 0.0 
0.0 0.0 0.0 
0.0 0.0 0.0 
0.0 0.0 0.0 
0.0 0.0 0.0 
0.0 0.0 0.0 
0.0 0.0 0.0 
0.0 0.0 0.0 
0.0 0.0 0.0 
0.0 0.0 0.0 
0.0 0.0 0.0 
0.0 0.0 0.0 
0.0 0.0 0.0 
0.0 0.0 0.0 
0.0 0.0 0.0 
0.0 0.0 0.0 
0.0 0.0 0.0 
0.0 0.0 0.0 
0.0 0.0 0.0 
0.0 0.0 0.0 
0.0 0.0 0.0 
0.0 0.0 0.0 
0.0 0.0 0.0 
0.0 0.0 0.0 
0.0 0.0 0.0 
0.0 0.0 0.0 
0.0 0.0 0.0 
0.0 0.0 0.0 
0.0 0.0 0.0 
0.0 0.0 0.0 
0.0 0.0 0.0 
0.0 0.0 0.0 
0.0 0.0 0.0 
0.0 0.0 0.0 
0.0 0.0 0.0 
0.0 0.0 0.0 
0.0 0.0 0.0 
0.0 0.0 0.0 
0.0 0.0 0.0 
0.0 0.0 0.0 
0.0 0.0 0.0 
0.0 0.0 0.0 
0.0 0.0 0.0 
0.0 0.0 0.0 
0.0 0.0 0.0 
0.0 0.0 0.0 
0.0 0.0 0.0 
0.0 0.0 0.0 
0.0 0.0 0.0 
0.0 0.0 0.0 
0.0 0.0 0.0 
0.0 0.0 0.0 
0.0 0.0 0.0 
0.0 0.0 0.0 
0.0 0.0 0.0 
0.0 0.0 0.0 
0.0 0.0 0.0 
0.0 0.0 0.0 
0.0 0.0 0.0 
0.0 0.0 0.0 
0.0 0.0 0.0 
0.0 0.0 0.0 
0.0 0.0 0.0 
0.0 0.0 0.0 
0.0 0.0 0.0 
0.0 0.0 0.0 
0.0 0.0 0.0 
0.0 0.0 0.0 
0.0 0.0 0.0 
0.0 0.0 0.0 
0.0 0.0 0.0 
0.0 0.0 0.0 
0.0 0.0 0.0 
0.0 0.0 0.0 
0.0 0.0 0.0 
0.0 0.0 0.0 
0.0 0.0 0.0 
0.0 0.0 0.0 
0.0 0.0 0.0 
0.0 0.0 0.0 
0.0 0.0 0.0 
0.0 0.0 0.0 
0.0 0.0 0.0 
0.0 0.0 0.0 
0.0 0.0 0.0 
0.0 0.0 0.0 
0.0 0.0 0.0 
0.0 0.0 0.0 
0.0 0.0 0.0 
0.0 0.0 0.0 
0.0 0.0 0.0 
0.0 0.0 0.0 
0.0 0.0 0.0 
0.0 0.0 0.0 
0.0 0.0 0.0 
0.0 0.0 0.0 
0.0 0.0 0.0 
0.0 0.0 0.0 
0.0 0.0 0.0 
0.0 0.0 0.0 
0.0 0.0 0.0 
0.0 0.0 0.0 
0.0 0.0 0.0 
0.0 0.0 0.0 
0.0 0.0 0.0 
0.0 0.0 0.0 
0.0 0.0 0.0 
0.0 0.0 0.0 
0.0 0.0 0.0 
0.0 0.0 0.0 
0.0 0.0 0.0 
0.0 0.0 0.0 
0.0 0.0 0.0 
0.0 0.0 0.0 
0.0 0.0 0.0 
0.0 0.0 0.0 
0.0 0.0 0.0 
0.0 0.0 0.0 
0.0 0.0 0.0 
0.0 0.0 0.0 
0.0 0.0 0.0 
0.0 0.0 0.0 
0.0 0.0 0.0 
0.0 0.0 0.0 
0.0 0.0 0.0 
0.0 0.0 0.0 
0.0 0.0 0.0 
0.0 0.0 0.0 
0.0 0.0 0.0 
0.0 0.0 0.0 
0.0 0.0 0.0 
0.0 0.0 0.0 
0.0 0.0 0.0 
0.0 0.0 0.0 
0.0 0.0 0.0 
0.0 0.0 0.0 
0.0 0.0 0.0 
0.0 0.0 0.0 
0.0 0.0 0.0 
0.0 0.0 0.0 
0.0 0.0 0.0 
0.0 0.0 0.0 
0.0 0.0 0.0 
0.0 0.0 0.0 
0.0 0.0 0.0 
0.0 0.0 0.0 
0.0 0.0 0.0 
0.0 0.0 0.0 
0.0 0.0 0.0 
0.0 0.0 0.0 
0.0 0.0 0.0 
0.0 0.0 0.0 
0.0 0.0 0.0 
0.0 0.0 0.0 
0.0 0.0 0.0 
0.0 0.0 0.0 
0.0 0.0 0.0 
0.0 0.0 0.0 
0.0 0.0 0.0 
0.0 0.0 0.0 
0.0 0.0 0.0 
0.0 0.0 0.0 
0.0 0.0 0.0 
0.0 0.0 0.0 
0.0 0.0 0.0 
0.0 0.0 0.0 
0.0 0.0 0.0 
0.0 0.0 0.0 
0.0 0.0 0.0 
0.0 0.0 0.0 
0.0 0.0 0.0 
0.0 0.0 0.0 
0.0 0.0 0.0 
0.0 0.0 0.0 
0.0 0.0 0.0 
0.0 0.0 0.0 
0.0 0.0 0.0 
0.0 0.0 0.0 
0.0 0.0 0.0 
0.0 0.0 0.0 
0.0 0.0 0.0 
0.0 0.0 0.0 
0.0 0.0 0.0 
0.0 0.0 0.0 
0.0 0.0 0.0 
0.0 0.0 0.0 
0.0 0.0 0.0 
0.0 0.0 0.0 
0.0 0.0 0.0 
0.0 0.0 0.0 
0.0 0.0 0.0 
0.0 0.0 0.0 
0.0 0.0 0.0 
0.0 0.0 0.0 
0.0 0.0 0.0 
0.0 0.0 0.0 
0.0 0.0 0.0 
0.0 0.0 0.0 
0.0 0.0 0.0 
0.0 0.0 0.0 
0.0 0.0 0.0 
0.0 0.0 0.0 
0.0 0.0 0.0 
0.0 0.0 0.0 
0.0 0.0 0.0 
0.0 0.0 0.0 
0.0 0.0 0.0 
0.0 0.0 0.0 
0.0 0.0 0.0 
0.0 0.0 0.0 
0.0 0.0 0.0 
0.0 0.0 0.0 
0.0 0.0 0.0 
0.0 0.0 0.0 
0.0 0.0 0.0 
0.0 0.0 0.0 
0.0 0.0 0.0 
0.0 0.0 0.0 
0.0 0.0 0.0 
0.0 0.0 0.0 
0.0 0.0 0.0 
0.0 0.0 0.0 
0.0 0.0 0.0 
0.0 0.0 0.0 
0.0 0.0 0.0 
0.0 0.0 0.0 
0.0 0.0 0.0 
0.0 0.0 0.0 
0.0 0.0 0.0 
0.0 0.0 0.0 
0.0 0.0 0.0 
0.0 0.0 0.0 
0.0 0.0 0.0 
0.0 0.0 0.0 
0.0 0.0 0.0 
0.0 0.0 0.0 
0.0 0.0 0.0 
0.0 0.0 0.0 
0.0 0.0 0.0 
0.0 0.0 0.0 
0.0 0.0 0.0 
0.0 0.0 0.0 
0.0 0.0 0.0 
0.0 0.0 0.0 
0.0 0.0 0.0 
0.0 0.0 0.0 
0.0 0.0 0.0 
0.0 0.0 0.0 
0.0 0.0 0.0 
0.0 0.0 0.0 
0.0 0.0 0.0 
0.0 0.0 0.0 
0.0 0.0 0.0 
0.0 0.0 0.0 
0.0 0.0 0.0 
0.0 0.0 0.0 
0.0 0.0 0.0 
0.0 0.0 0.0 
0.0 0.0 0.0 
0.0 0.0 0.0 
0.0 0.0 0.0 
0.0 0.0 0.0 
0.0 0.0 0.0 
0.0 0.0 0.0 
0.0 0.0 0.0 
0.0 0.0 0.0 
0.0 0.0 0.0 
0.0 0.0 0.0 
0.0 0.0 0.0 
0.0 0.0 0.0 
0.0 0.0 0.0 
0.0 0.0 0.0 
0.0 0.0 0.0 
0.0 0.0 0.0 
0.0 0.0 0.0 
0.0 0.0 0.0 
0.0 0.0 0.0 
0.0 0.0 0.0 
0.0 0.0 0.0 
0.0 0.0 0.0 
0.0 0.0 0.0 
0.0 0.0 0.0 
0.0 0.0 0.0 
0.0 0.0 0.0 
0.0 0.0 0.0 
0.0 0.0 0.0 
0.0 0.0 0.0 
0.0 0.0 0.0 
0.0 0.0 0.0 
0.0 0.0 0.0 
0.0 0.0 0.0 
0.0 0.0 0.0 
0.0 0.0 0.0 
0.0 0.0 0.0 
0.0 0.0 0.0 
0.0 0.0 0.0 
0.0 0.0 0.0 
0.0 0.0 0.0 
0.0 0.0 0.0 
0.0 0.0 0.0 
0.0 0.0 0.0 
0.0 0.0 0.0 
0.0 0.0 0.0 
0.0 0.0 0.0 
0.0 0.0 0.0 
0.0 0.0 0.0 
0.0 0.0 0.0 
0.0 0.0 0.0 
0.0 0.0 0.0 
0.0 0.0 0.0 
0.0 0.0 0.0 
0.0 0.0 0.0 
0.0 0.0 0.0 
0.0 0.0 0.0 
0.0 0.0 0.0 
0.0 0.0 0.0 
0.0 0.0 0.0 
0.0 0.0 0.0 
0.0 0.0 0.0 
0.0 0.0 0.0 
0.0 0.0 0.0 
0.0 0.0 0.0 
0.0 0.0 0.0 
0.0 0.0 0.0 
0.0 0.0 0.0 
0.0 0.0 0.0 
0.0 0.0 0.0 
0.0 0.0 0.0 
0.0 0.0 0.0 
0.0 0.0 0.0 
0.0 0.0 0.0 
0.0 0.0 0.0 
0.0 0.0 0.0 
0.0 0.0 0.0 
0.0 0.0 0.0 
0.0 0.0 0.0 
0.0 0.0 0.0 
0.0 0.0 0.0 
0.0 0.0 0.0 
0.0 0.0 0.0 
0.0 0.0 0.0 
0.0 0.0 0.0 
0.0 0.0 0.0 
0.0 0.0 0.0 
0.0 0.0 0.0 
0.0 0.0 0.0 
0.0 0.0 0.0 
0.0 0.0 0.0 
0.0 0.0 0.0 
0.0 0.0 0.0 
0.0 0.0 0.0 
0.0 0.0 0.0 
0.0 0.0 0.0 
0.0 0.0 0.0 
0.0 0.0 0.0 
0.0 0.0 0.0 
0.0 0.0 0.0 
0.0 0.0 0.0 
0.0 0.0 0.0 
0.0 0.0 0.0 
0.0 0.0 0.0 
0.0 0.0 0.0 
0.0 0.0 0.0 
0.0 0.0 0.0 
0.0 0.0 0.0 
0.0 0.0 0.0 
0.0 0.0 0.0 
0.0 0.0 0.0 
0.0 0.0 0.0 
0.0 0.0 0.0 
0.0 0.0 0.0 
0.0 0.0 0.0 
0.0 0.0 0.0 
0.0 0.0 0.0 
0.0 0.0 0.0 
0.0 0.0 0.0 
0.0 0.0 0.0 
0.0 0.0 0.0 
0.0 0.0 0.0 
0.0 0.0 0.0 
0.0 0.0 0.0 
0.0 0.0 0.0 
0.0 0.0 0.0 
0.0 0.0 0.0 
0.0 0.0 0.0 
0.0 0.0 0.0 
0.0 0.0 0.0 
0.0 0.0 0.0 
0.0 0.0 0.0 
0.0 0.0 0.0 
0.0 0.0 0.0 
0.0 0.0 0.0 
0.0 0.0 0.0 
0.0 0.0 0.0 
0.0 0.0 0.0 
0.0 0.0 0.0 
0.0 0.0 0.0 
0.0 0.0 0.0 
0.0 0.0 0.0 
0.0 0.0 0.0 
0.0 0.0 0.0 
0.0 0.0 0.0 
0.0 0.0 0.0 
0.0 0.0 0.0 
0.0 0.0 0.0 
0.0 0.0 0.0 
0.0 0.0 0.0 
0.0 0.0 0.0 
0.0 0.0 0.0 
0.0 0.0 0.0 
0.0 0.0 0.0 
0.0 0.0 0.0 
0.0 0.0 0.0 
0.0 0.0 0.0 
0.0 0.0 0.0 
0.0 0.0 0.0 
0.0 0.0 0.0 
0.0 0.0 0.0 
0.0 0.0 0.0 
0.0 0.0 0.0 
0.0 0.0 0.0 
0.0 0.0 0.0 
0.0 0.0 0.0 
0.0 0.0 0.0 
0.0 0.0 0.0 
0.0 0.0 0.0 
0.0 0.0 0.0 
0.0 0.0 0.0 
0.0 0.0 0.0 
0.0 0.0 0.0 
0.0 0.0 0.0 
0.0 0.0 0.0 
0.0 0.0 0.0 
0.0 0.0 0.0 
0.0 0.0 0.0 
0.0 0.0 0.0 
0.0 0.0 0.0 
0.0 0.0 0.0 
0.0 0.0 0.0 
0.0 0.0 0.0 
0.0 0.0 0.0 
0.0 0.0 0.0 
0.0 0.0 0.0 
0.0 0.0 0.0 
0.0 0.0 0.0 
0.0 0.0 0.0 
0.0 0.0 0.0 
0.0 0.0 0.0 
0.0 0.0 0.0 
0.0 0.0 0.0 
0.0 0.0 0.0 
0.0 0.0 0.0 
0.0 0.0 0.0 
0.0 0.0 0.0 
0.0 0.0 0.0 
0.0 0.0 0.0 
0.0 0.0 0.0 
0.0 0.0 0.0 
0.0 0.0 0.0 
0.0 0.0 0.0 
0.0 0.0 0.0 
0.0 0.0 0.0 
0.0 0.0 0.0 
0.0 0.0 0.0 
0.0 0.0 0.0 
0.0 0.0 0.0 
0.0 0.0 0.0 
0.0 0.0 0.0 
0.0 0.0 0.0 
0.0 0.0 0.0 
0.0 0.0 0.0 
0.0 0.0 0.0 
0.0 0.0 0.0 
0.0 0.0 0.0 
0.0 0.0 0.0 
0.0 0.0 0.0 
0.0 0.0 0.0 
0.0 0.0 0.0 
0.0 0.0 0.0 
0.0 0.0 0.0 
0.0 0.0 0.0 
0.0 0.0 0.0 
0.0 0.0 0.0 
0.0 0.0 0.0 
0.0 0.0 0.0 
0.0 0.0 0.0 
0.0 0.0 0.0 
0.0 0.0 0.0 
0.0 0.0 0.0 
0.0 0.0 0.0 
0.0 0.0 0.0 
0.0 0.0 0.0 
0.0 0.0 0.0 
0.0 0.0 0.0 
0.0 0.0 0.0 
0.0 0.0 0.0 
0.0 0.0 0.0 
0.0 0.0 0.0 
0.0 0.0 0.0 
0.0 0.0 0.0 
0.0 0.0 0.0 
0.0 0.0 0.0 
0.0 0.0 0.0 
0.0 0.0 0.0 
0.0 0.0 0.0 
0.0 0.0 0.0 
0.0 0.0 0.0 
0.0 0.0 0.0 
0.0 0.0 0.0 
0.0 0.0 0.0 
0.0 0.0 0.0 
0.0 0.0 0.0 
0.0 0.0 0.0 
0.0 0.0 0.0 
0.0 0.0 0.0 
0.0 0.0 0.0 
0.0 0.0 0.0 
0.0 0.0 0.0 
0.0 0.0 0.0 
0.0 0.0 0.0 
0.0 0.0 0.0 
0.0 0.0 0.0 
0.0 0.0 0.0 
0.0 0.0 0.0 
0.0 0.0 0.0 
0.0 0.0 0.0 
0.0 0.0 0.0 
0.0 0.0 0.0 
0.0 0.0 0.0 
0.0 0.0 0.0 
0.0 0.0 0.0 
0.0 0.0 0.0 
0.0 0.0 0.0 
0.0 0.0 0.0 
0.0 0.0 0.0 
0.0 0.0 0.0 
0.0 0.0 0.0 
0.0 0.0 0.0 
0.0 0.0 0.0 
0.0 0.0 0.0 
0.0 0.0 0.0 
0.0 0.0 0.0 
0.0 0.0 0.0 
0.0 0.0 0.0 
0.0 0.0 0.0 
0.0 0.0 0.0 
0.0 0.0 0.0 
0.0 0.0 0.0 
0.0 0.0 0.0 
0.0 0.0 0.0 
0.0 0.0 0.0 
0.0 0.0 0.0 
0.0 0.0 0.0 
0.0 0.0 0.0 
0.0 0.0 0.0 
0.0 0.0 0.0 
0.0 0.0 0.0 
0.0 0.0 0.0 
0.0 0.0 0.0 
0.0 0.0 0.0 
0.0 0.0 0.0 
0.0 0.0 0.0 
0.0 0.0 0.0 
0.0 0.0 0.0 
0.0 0.0 0.0 
0.0 0.0 0.0 
0.0 0.0 0.0 
0.0 0.0 0.0 
0.0 0.0 0.0 
0.0 0.0 0.0 
0.0 0.0 0.0 
0.0 0.0 0.0 
0.0 0.0 0.0 
0.0 0.0 0.0 
0.0 0.0 0.0 

SCALARS node_boundary float
LOOKUP_TABLE default
1.000000000000e+00 
1.000000000000e+00 
1.000000000000e+00 
1.000000000000e+00 
1.000000000000e+00 
1.000000000000e+00 
1.000000000000e+00 
1.000000000000e+00 
1.000000000000e+00 
1.000000000000e+00 
1.000000000000e+00 
1.000000000000e+00 
1.000000000000e+00 
1.000000000000e+00 
1.000000000000e+00 
1.000000000000e+00 
1.000000000000e+00 
1.000000000000e+00 
1.000000000000e+00 
1.000000000000e+00 
1.000000000000e+00 
1.000000000000e+00 
1.000000000000e+00 
1.000000000000e+00 
1.000000000000e+00 
1.000000000000e+00 
1.000000000000e+00 
1.000000000000e+00 
1.000000000000e+00 
1.000000000000e+00 
1.000000000000e+00 
1.000000000000e+00 
1.000000000000e+00 
1.000000000000e+00 
1.000000000000e+00 
1.000000000000e+00 
1.000000000000e+00 
1.000000000000e+00 
1.000000000000e+00 
1.000000000000e+00 
1.000000000000e+00 
1.000000000000e+00 
1.000000000000e+00 
1.000000000000e+00 
1.000000000000e+00 
1.000000000000e+00 
1.000000000000e+00 
1.000000000000e+00 
1.000000000000e+00 
1.000000000000e+00 
1.000000000000e+00 
1.000000000000e+00 
1.000000000000e+00 
1.000000000000e+00 
1.000000000000e+00 
1.000000000000e+00 
1.000000000000e+00 
1.000000000000e+00 
1.000000000000e+00 
1.000000000000e+00 
1.000000000000e+00 
1.000000000000e+00 
1.000000000000e+00 
1.000000000000e+00 
1.000000000000e+00 
1.000000000000e+00 
1.000000000000e+00 
1.000000000000e+00 
1.000000000000e+00 
1.000000000000e+00 
1.000000000000e+00 
1.000000000000e+00 
1.000000000000e+00 
1.000000000000e+00 
1.000000000000e+00 
1.000000000000e+00 
1.000000000000e+00 
1.000000000000e+00 
1.000000000000e+00 
1.000000000000e+00 
1.000000000000e+00 
1.000000000000e+00 
0.0
1.000000000000e+00 
1.000000000000e+00 
1.000000000000e+00 
1.000000000000e+00 
1.000000000000e+00 
1.000000000000e+00 
1.000000000000e+00 
1.000000000000e+00 
1.000000000000e+00 
1.000000000000e+00 
0.0
0.0
0.0
0.0
0.0
0.0
0.0
0.0
0.0
0.0
0.0
0.0
0.0
0.0
1.000000000000e+00 
1.000000000000e+00 
1.000000000000e+00 
1.000000000000e+00 
1.000000000000e+00 
1.000000000000e+00 
1.000000000000e+00 
1.000000000000e+00 
1.000000000000e+00 
1.000000000000e+00 
1.000000000000e+00 
1.000000000000e+00 
1.000000000000e+00 
1.000000000000e+00 
1.000000000000e+00 
1.000000000000e+00 
1.000000000000e+00 
1.000000000000e+00 
1.000000000000e+00 
1.000000000000e+00 
1.000000000000e+00 
1.000000000000e+00 
1.000000000000e+00 
1.000000000000e+00 
1.000000000000e+00 
1.000000000000e+00 
1.000000000000e+00 
1.000000000000e+00 
1.000000000000e+00 
1.000000000000e+00 
1.000000000000e+00 
1.000000000000e+00 
1.000000000000e+00 
1.000000000000e+00 
1.000000000000e+00 
1.000000000000e+00 
1.000000000000e+00 
1.000000000000e+00 
1.000000000000e+00 
1.000000000000e+00 
1.000000000000e+00 
1.000000000000e+00 
1.000000000000e+00 
1.000000000000e+00 
0.0
0.0
0.0
0.0
0.0
0.0
0.0
0.0
0.0
0.0
0.0
0.0
0.0
0.0
0.0
0.0
0.0
0.0
0.0
0.0
0.0
0.0
0.0
0.0
0.0
0.0
0.0
0.0
0.0
0.0
0.0
0.0
0.0
0.0
0.0
0.0
0.0
0.0
0.0
0.0
0.0
0.0
0.0
0.0
0.0
0.0
0.0
0.0
0.0
0.0
0.0
0.0
0.0
0.0
0.0
0.0
0.0
0.0
0.0
0.0
0.0
0.0
0.0
0.0
0.0
0.0
0.0
0.0
0.0
0.0
0.0
0.0
0.0
0.0
0.0
0.0
0.0
0.0
0.0
0.0
0.0
0.0
0.0
0.0
0.0
0.0
0.0
0.0
0.0
0.0
0.0
0.0
0.0
0.0
0.0
0.0
0.0
0.0
0.0
0.0
0.0
0.0
0.0
0.0
0.0
0.0
0.0
0.0
0.0
0.0
0.0
0.0
0.0
0.0
0.0
0.0
0.0
0.0
0.0
0.0
0.0
0.0
0.0
0.0
0.0
0.0
0.0
0.0
0.0
0.0
0.0
0.0
0.0
0.0
0.0
0.0
0.0
0.0
0.0
0.0
0.0
0.0
0.0
0.0
0.0
0.0
0.0
0.0
0.0
0.0
0.0
0.0
0.0
0.0
0.0
0.0
0.0
0.0
0.0
0.0
0.0
0.0
0.0
0.0
0.0
0.0
0.0
0.0
0.0
0.0
0.0
0.0
0.0
0.0
0.0
0.0
0.0
0.0
0.0
0.0
0.0
0.0
0.0
0.0
0.0
0.0
0.0
0.0
0.0
0.0
0.0
0.0
0.0
0.0
0.0
0.0
0.0
0.0
0.0
0.0
0.0
0.0
0.0
0.0
0.0
0.0
0.0
0.0
0.0
0.0
0.0
0.0
0.0
0.0
0.0
0.0
0.0
0.0
0.0
0.0
0.0
0.0
0.0
0.0
0.0
0.0
0.0
0.0
0.0
0.0
0.0
0.0
0.0
0.0
0.0
0.0
0.0
0.0
0.0
0.0
0.0
0.0
0.0
0.0
0.0
0.0
0.0
0.0
0.0
0.0
0.0
0.0
0.0
0.0
0.0
0.0
0.0
0.0
0.0
0.0
0.0
0.0
0.0
0.0
0.0
0.0
0.0
0.0
0.0
0.0
0.0
0.0
0.0
0.0
0.0
0.0
0.0
0.0
0.0
0.0
0.0
0.0
0.0
0.0
0.0
0.0
0.0
0.0
0.0
0.0
0.0
0.0
0.0
0.0
0.0
0.0
0.0
0.0
0.0
0.0
0.0
0.0
0.0
0.0
0.0
0.0
0.0
0.0
0.0
0.0
0.0
0.0
0.0
0.0
0.0
0.0
0.0
0.0
0.0
0.0
0.0
0.0
0.0
0.0
0.0
0.0
0.0
0.0
0.0
0.0
0.0
0.0
0.0
0.0
0.0
0.0
0.0
0.0
0.0
0.0
0.0
0.0
0.0
0.0
0.0
0.0
0.0
0.0
0.0
0.0
0.0
0.0
0.0
0.0
0.0
0.0
0.0
0.0
0.0
0.0
0.0
0.0
0.0
0.0
0.0
0.0
0.0
0.0
0.0
0.0
0.0
0.0
0.0
0.0
0.0
0.0
0.0
0.0
0.0
0.0
0.0
0.0
0.0
0.0
0.0
0.0
0.0
0.0
0.0
0.0
0.0
0.0
0.0
0.0
0.0
0.0
0.0
0.0
0.0
0.0
0.0
0.0
0.0
0.0
0.0
0.0
0.0
0.0
0.0
0.0
0.0
0.0
0.0
0.0
0.0
0.0
0.0
0.0
0.0
0.0
0.0
0.0
0.0
0.0
0.0
0.0
0.0
0.0
0.0
0.0
0.0
0.0
0.0
0.0
0.0
0.0
0.0
0.0
0.0
0.0
0.0
0.0
0.0
0.0
0.0
0.0
0.0
0.0
0.0
0.0
0.0
0.0
0.0
0.0
0.0
0.0
0.0
0.0
0.0
0.0
0.0
0.0
0.0
0.0
0.0
0.0
0.0
0.0
0.0
0.0
0.0
0.0
0.0
0.0
0.0
0.0
0.0
0.0
0.0
0.0
0.0
0.0
0.0
0.0
0.0
0.0
0.0
0.0
0.0
0.0
0.0
0.0
0.0
0.0
0.0
0.0
0.0
0.0
0.0
0.0
0.0
0.0
0.0
0.0
0.0
0.0
0.0
0.0
0.0
0.0
0.0
0.0
0.0
0.0
0.0
0.0
0.0
0.0
0.0
0.0
0.0
0.0
0.0
0.0
0.0
0.0
0.0
0.0
0.0
0.0
0.0
0.0
0.0
0.0
0.0
0.0
0.0
0.0
0.0
0.0
0.0
0.0
0.0
0.0
0.0
0.0
0.0
0.0
0.0
0.0
0.0
0.0
0.0
0.0
0.0
0.0
0.0
0.0
0.0
0.0
0.0
0.0
0.0
0.0
0.0
0.0
0.0
0.0
0.0
0.0
0.0
0.0
0.0
0.0
0.0
0.0
0.0
0.0
0.0
0.0
0.0
0.0
0.0
0.0
0.0
0.0
0.0
0.0
0.0
0.0
0.0
0.0
0.0
0.0
0.0
0.0
0.0
0.0
0.0
0.0
0.0
0.0
0.0
0.0
0.0
0.0
0.0
0.0
0.0
0.0
0.0
0.0
0.0
0.0
0.0
0.0
0.0
0.0
0.0
0.0
0.0
0.0
0.0
0.0
0.0
0.0
0.0
0.0
0.0
0.0
0.0
0.0
0.0
0.0
0.0
0.0
0.0
0.0
0.0
0.0
0.0
0.0
0.0
0.0
0.0
0.0
0.0
0.0
0.0
0.0
0.0
0.0
0.0
0.0
0.0
0.0
0.0
0.0
0.0
0.0
0.0
0.0
0.0
0.0
0.0
0.0
0.0
0.0
0.0
0.0
0.0
0.0
0.0
0.0
0.0
0.0
0.0
0.0
0.0
0.0
0.0
0.0
0.0
0.0
0.0
0.0
0.0
0.0
0.0
0.0
0.0
0.0
0.0
0.0
0.0
0.0
0.0
0.0
0.0
0.0
0.0
0.0
0.0
0.0
0.0
0.0
0.0
0.0
0.0
0.0
0.0
0.0
0.0
0.0
0.0
0.0
0.0
0.0
0.0
0.0
0.0
0.0
0.0
0.0
0.0
0.0
0.0
0.0
0.0
0.0
0.0
0.0
0.0
0.0
0.0
0.0
0.0
0.0
0.0
0.0
0.0
0.0
0.0
0.0
0.0
0.0
0.0
0.0
0.0
0.0
0.0
0.0
0.0
0.0
0.0
0.0
0.0
0.0
0.0
0.0
0.0
0.0
0.0
0.0
0.0
0.0
0.0
0.0
0.0
0.0
0.0
0.0
0.0
0.0
0.0
0.0
0.0
0.0
0.0
0.0
0.0
0.0
0.0
0.0
0.0
0.0
0.0
0.0
0.0
0.0
0.0
0.0
0.0
0.0
0.0
0.0
0.0
0.0
0.0
0.0
0.0
0.0
0.0
0.0
0.0
0.0
0.0
0.0
0.0
0.0
0.0
0.0
0.0
0.0
0.0
0.0
0.0
0.0
0.0
0.0
0.0
0.0
0.0
0.0
0.0
0.0
0.0
0.0
0.0
0.0
0.0
0.0
0.0
0.0
0.0
0.0
0.0
0.0
0.0
0.0
0.0
0.0
0.0
0.0
0.0
0.0
0.0
0.0
0.0
0.0
0.0
0.0
0.0
0.0
0.0
0.0
0.0
0.0
0.0
0.0
0.0
0.0
0.0
0.0
0.0
0.0
0.0
0.0
0.0
0.0
0.0
0.0
0.0
0.0
0.0
0.0
0.0
0.0
0.0
0.0
0.0
0.0
0.0
0.0
0.0
0.0
0.0
0.0
0.0
0.0
0.0
0.0
0.0
0.0
0.0
0.0

VECTORS node_force_edge float
0.0 0.0 0.0 
0.0 0.0 0.0 
0.0 0.0 0.0 
0.0 0.0 0.0 
0.0 0.0 0.0 
0.0 0.0 0.0 
0.0 0.0 0.0 
0.0 0.0 0.0 
0.0 0.0 0.0 
0.0 0.0 0.0 
0.0 0.0 0.0 
0.0 0.0 0.0 
0.0 0.0 0.0 
0.0 0.0 0.0 
0.0 0.0 0.0 
0.0 0.0 0.0 
0.0 0.0 0.0 
0.0 0.0 0.0 
0.0 0.0 0.0 
0.0 0.0 0.0 
0.0 0.0 0.0 
0.0 0.0 0.0 
0.0 0.0 0.0 
0.0 0.0 0.0 
0.0 0.0 0.0 
0.0 0.0 0.0 
0.0 0.0 0.0 
0.0 0.0 0.0 
0.0 0.0 0.0 
0.0 0.0 0.0 
0.0 0.0 0.0 
0.0 0.0 0.0 
0.0 0.0 0.0 
0.0 0.0 0.0 
0.0 0.0 0.0 
0.0 0.0 0.0 
0.0 0.0 0.0 
0.0 0.0 0.0 
0.0 0.0 0.0 
0.0 0.0 0.0 
0.0 0.0 0.0 
0.0 0.0 0.0 
0.0 0.0 0.0 
0.0 0.0 0.0 
0.0 0.0 0.0 
0.0 0.0 0.0 
0.0 0.0 0.0 
0.0 0.0 0.0 
0.0 0.0 0.0 
0.0 0.0 0.0 
0.0 0.0 0.0 
0.0 0.0 0.0 
0.0 0.0 0.0 
0.0 0.0 0.0 
0.0 0.0 0.0 
0.0 0.0 0.0 
0.0 0.0 0.0 
0.0 0.0 0.0 
0.0 0.0 0.0 
0.0 0.0 0.0 
0.0 0.0 0.0 
0.0 0.0 0.0 
0.0 0.0 0.0 
0.0 0.0 0.0 
0.0 0.0 0.0 
0.0 0.0 0.0 
0.0 0.0 0.0 
0.0 0.0 0.0 
0.0 0.0 0.0 
0.0 0.0 0.0 
0.0 0.0 0.0 
0.0 0.0 0.0 
0.0 0.0 0.0 
0.0 0.0 0.0 
0.0 0.0 0.0 
0.0 0.0 0.0 
0.0 0.0 0.0 
0.0 0.0 0.0 
0.0 0.0 0.0 
0.0 0.0 0.0 
0.0 0.0 0.0 
0.0 -1.000000000000e+02 0.0 
0.0 0.0 0.0 
0.0 0.0 0.0 
0.0 0.0 0.0 
0.0 0.0 0.0 
0.0 0.0 0.0 
0.0 0.0 0.0 
0.0 0.0 0.0 
0.0 0.0 0.0 
0.0 0.0 0.0 
0.0 0.0 0.0 
0.0 0.0 0.0 
0.0 0.0 0.0 
0.0 0.0 0.0 
0.0 0.0 0.0 
0.0 0.0 0.0 
0.0 0.0 0.0 
0.0 0.0 0.0 
0.0 0.0 0.0 
0.0 0.0 0.0 
0.0 0.0 0.0 
0.0 0.0 0.0 
0.0 0.0 0.0 
0.0 0.0 0.0 
0.0 0.0 0.0 
0.0 0.0 0.0 
0.0 -1.000000000000e+02 0.0 
0.0 -1.000000000000e+02 0.0 
0.0 -1.000000000000e+02 0.0 
0.0 -1.000000000000e+02 0.0 
0.0 -1.000000000000e+02 0.0 
0.0 0.0 0.0 
0.0 0.0 0.0 
0.0 0.0 0.0 
0.0 0.0 0.0 
0.0 0.0 0.0 
0.0 0.0 0.0 
0.0 0.0 0.0 
0.0 0.0 0.0 
0.0 0.0 0.0 
0.0 0.0 0.0 
0.0 0.0 0.0 
0.0 0.0 0.0 
0.0 0.0 0.0 
0.0 0.0 0.0 
0.0 0.0 0.0 
0.0 0.0 0.0 
0.0 0.0 0.0 
0.0 0.0 0.0 
0.0 0.0 0.0 
0.0 0.0 0.0 
0.0 0.0 0.0 
0.0 0.0 0.0 
0.0 0.0 0.0 
0.0 0.0 0.0 
0.0 0.0 0.0 
0.0 0.0 0.0 
0.0 0.0 0.0 
0.0 0.0 0.0 
0.0 0.0 0.0 
0.0 0.0 0.0 
0.0 0.0 0.0 
0.0 0.0 0.0 
0.0 0.0 0.0 
0.0 0.0 0.0 
0.0 0.0 0.0 
0.0 0.0 0.0 
0.0 0.0 0.0 
0.0 0.0 0.0 
0.0 0.0 0.0 
0.0 0.0 0.0 
0.0 0.0 0.0 
0.0 0.0 0.0 
0.0 0.0 0.0 
0.0 0.0 0.0 
0.0 0.0 0.0 
0.0 0.0 0.0 
0.0 0.0 0.0 
0.0 0.0 0.0 
0.0 0.0 0.0 
0.0 0.0 0.0 
0.0 0.0 0.0 
0.0 0.0 0.0 
0.0 0.0 0.0 
0.0 0.0 0.0 
0.0 0.0 0.0 
0.0 0.0 0.0 
0.0 0.0 0.0 
0.0 0.0 0.0 
0.0 0.0 0.0 
0.0 0.0 0.0 
0.0 0.0 0.0 
0.0 0.0 0.0 
0.0 0.0 0.0 
0.0 0.0 0.0 
0.0 0.0 0.0 
0.0 0.0 0.0 
0.0 0.0 0.0 
0.0 0.0 0.0 
0.0 0.0 0.0 
0.0 0.0 0.0 
0.0 0.0 0.0 
0.0 0.0 0.0 
0.0 0.0 0.0 
0.0 0.0 0.0 
0.0 0.0 0.0 
0.0 0.0 0.0 
0.0 0.0 0.0 
0.0 0.0 0.0 
0.0 0.0 0.0 
0.0 0.0 0.0 
0.0 0.0 0.0 
0.0 0.0 0.0 
0.0 0.0 0.0 
0.0 0.0 0.0 
0.0 0.0 0.0 
0.0 0.0 0.0 
0.0 0.0 0.0 
0.0 0.0 0.0 
0.0 0.0 0.0 
0.0 0.0 0.0 
0.0 0.0 0.0 
0.0 0.0 0.0 
0.0 0.0 0.0 
0.0 0.0 0.0 
0.0 0.0 0.0 
0.0 0.0 0.0 
0.0 0.0 0.0 
0.0 0.0 0.0 
0.0 0.0 0.0 
0.0 0.0 0.0 
0.0 0.0 0.0 
0.0 0.0 0.0 
0.0 0.0 0.0 
0.0 0.0 0.0 
0.0 0.0 0.0 
0.0 0.0 0.0 
0.0 0.0 0.0 
0.0 0.0 0.0 
0.0 0.0 0.0 
0.0 0.0 0.0 
0.0 0.0 0.0 
0.0 0.0 0.0 
0.0 0.0 0.0 
0.0 0.0 0.0 
0.0 0.0 0.0 
0.0 0.0 0.0 
0.0 0.0 0.0 
0.0 0.0 0.0 
0.0 0.0 0.0 
0.0 0.0 0.0 
0.0 0.0 0.0 
0.0 0.0 0.0 
0.0 0.0 0.0 
0.0 0.0 0.0 
0.0 0.0 0.0 
0.0 0.0 0.0 
0.0 0.0 0.0 
0.0 0.0 0.0 
0.0 0.0 0.0 
0.0 0.0 0.0 
0.0 0.0 0.0 
0.0 0.0 0.0 
0.0 0.0 0.0 
0.0 0.0 0.0 
0.0 0.0 0.0 
0.0 0.0 0.0 
0.0 0.0 0.0 
0.0 0.0 0.0 
0.0 0.0 0.0 
0.0 0.0 0.0 
0.0 0.0 0.0 
0.0 0.0 0.0 
0.0 0.0 0.0 
0.0 0.0 0.0 
0.0 0.0 0.0 
0.0 0.0 0.0 
0.0 0.0 0.0 
0.0 0.0 0.0 
0.0 0.0 0.0 
0.0 0.0 0.0 
0.0 0.0 0.0 
0.0 0.0 0.0 
0.0 0.0 0.0 
0.0 0.0 0.0 
0.0 0.0 0.0 
0.0 0.0 0.0 
0.0 0.0 0.0 
0.0 0.0 0.0 
0.0 0.0 0.0 
0.0 0.0 0.0 
0.0 0.0 0.0 
0.0 0.0 0.0 
0.0 0.0 0.0 
0.0 0.0 0.0 
0.0 0.0 0.0 
0.0 0.0 0.0 
0.0 0.0 0.0 
0.0 0.0 0.0 
0.0 0.0 0.0 
0.0 0.0 0.0 
0.0 0.0 0.0 
0.0 0.0 0.0 
0.0 0.0 0.0 
0.0 0.0 0.0 
0.0 0.0 0.0 
0.0 0.0 0.0 
0.0 0.0 0.0 
0.0 0.0 0.0 
0.0 0.0 0.0 
0.0 0.0 0.0 
0.0 0.0 0.0 
0.0 0.0 0.0 
0.0 0.0 0.0 
0.0 0.0 0.0 
0.0 0.0 0.0 
0.0 0.0 0.0 
0.0 0.0 0.0 
0.0 0.0 0.0 
0.0 0.0 0.0 
0.0 0.0 0.0 
0.0 0.0 0.0 
0.0 0.0 0.0 
0.0 0.0 0.0 
0.0 0.0 0.0 
0.0 0.0 0.0 
0.0 0.0 0.0 
0.0 0.0 0.0 
0.0 0.0 0.0 
0.0 0.0 0.0 
0.0 0.0 0.0 
0.0 0.0 0.0 
0.0 0.0 0.0 
0.0 0.0 0.0 
0.0 0.0 0.0 
0.0 0.0 0.0 
0.0 0.0 0.0 
0.0 0.0 0.0 
0.0 0.0 0.0 
0.0 0.0 0.0 
0.0 0.0 0.0 
0.0 0.0 0.0 
0.0 0.0 0.0 
0.0 0.0 0.0 
0.0 0.0 0.0 
0.0 0.0 0.0 
0.0 0.0 0.0 
0.0 0.0 0.0 
0.0 0.0 0.0 
0.0 0.0 0.0 
0.0 0.0 0.0 
0.0 0.0 0.0 
0.0 0.0 0.0 
0.0 0.0 0.0 
0.0 0.0 0.0 
0.0 0.0 0.0 
0.0 0.0 0.0 
0.0 0.0 0.0 
0.0 0.0 0.0 
0.0 0.0 0.0 
0.0 0.0 0.0 
0.0 0.0 0.0 
0.0 0.0 0.0 
0.0 0.0 0.0 
0.0 0.0 0.0 
0.0 0.0 0.0 
0.0 0.0 0.0 
0.0 0.0 0.0 
0.0 0.0 0.0 
0.0 0.0 0.0 
0.0 0.0 0.0 
0.0 0.0 0.0 
0.0 0.0 0.0 
0.0 0.0 0.0 
0.0 0.0 0.0 
0.0 0.0 0.0 
0.0 0.0 0.0 
0.0 0.0 0.0 
0.0 0.0 0.0 
0.0 0.0 0.0 
0.0 0.0 0.0 
0.0 0.0 0.0 
0.0 0.0 0.0 
0.0 0.0 0.0 
0.0 0.0 0.0 
0.0 0.0 0.0 
0.0 0.0 0.0 
0.0 0.0 0.0 
0.0 0.0 0.0 
0.0 0.0 0.0 
0.0 0.0 0.0 
0.0 0.0 0.0 
0.0 0.0 0.0 
0.0 0.0 0.0 
0.0 0.0 0.0 
0.0 0.0 0.0 
0.0 0.0 0.0 
0.0 0.0 0.0 
0.0 0.0 0.0 
0.0 0.0 0.0 
0.0 0.0 0.0 
0.0 0.0 0.0 
0.0 0.0 0.0 
0.0 0.0 0.0 
0.0 0.0 0.0 
0.0 0.0 0.0 
0.0 0.0 0.0 
0.0 0.0 0.0 
0.0 0.0 0.0 
0.0 0.0 0.0 
0.0 0.0 0.0 
0.0 0.0 0.0 
0.0 0.0 0.0 
0.0 0.0 0.0 
0.0 0.0 0.0 
0.0 0.0 0.0 
0.0 0.0 0.0 
0.0 0.0 0.0 
0.0 0.0 0.0 
0.0 0.0 0.0 
0.0 0.0 0.0 
0.0 0.0 0.0 
0.0 0.0 0.0 
0.0 0.0 0.0 
0.0 0.0 0.0 
0.0 0.0 0.0 
0.0 0.0 0.0 
0.0 0.0 0.0 
0.0 0.0 0.0 
0.0 0.0 0.0 
0.0 0.0 0.0 
0.0 0.0 0.0 
0.0 0.0 0.0 
0.0 0.0 0.0 
0.0 0.0 0.0 
0.0 0.0 0.0 
0.0 0.0 0.0 
0.0 0.0 0.0 
0.0 0.0 0.0 
0.0 0.0 0.0 
0.0 0.0 0.0 
0.0 0.0 0.0 
0.0 0.0 0.0 
0.0 0.0 0.0 
0.0 0.0 0.0 
0.0 0.0 0.0 
0.0 0.0 0.0 
0.0 0.0 0.0 
0.0 0.0 0.0 
0.0 0.0 0.0 
0.0 0.0 0.0 
0.0 0.0 0.0 
0.0 0.0 0.0 
0.0 0.0 0.0 
0.0 0.0 0.0 
0.0 0.0 0.0 
0.0 0.0 0.0 
0.0 0.0 0.0 
0.0 0.0 0.0 
0.0 0.0 0.0 
0.0 0.0 0.0 
0.0 0.0 0.0 
0.0 0.0 0.0 
0.0 0.0 0.0 
0.0 0.0 0.0 
0.0 0.0 0.0 
0.0 0.0 0.0 
0.0 0.0 0.0 
0.0 0.0 0.0 
0.0 0.0 0.0 
0.0 0.0 0.0 
0.0 0.0 0.0 
0.0 0.0 0.0 
0.0 0.0 0.0 
0.0 0.0 0.0 
0.0 0.0 0.0 
0.0 0.0 0.0 
0.0 0.0 0.0 
0.0 0.0 0.0 
0.0 0.0 0.0 
0.0 0.0 0.0 
0.0 0.0 0.0 
0.0 0.0 0.0 
0.0 0.0 0.0 
0.0 0.0 0.0 
0.0 0.0 0.0 
0.0 0.0 0.0 
0.0 0.0 0.0 
0.0 0.0 0.0 
0.0 0.0 0.0 
0.0 0.0 0.0 
0.0 0.0 0.0 
0.0 0.0 0.0 
0.0 0.0 0.0 
0.0 0.0 0.0 
0.0 0.0 0.0 
0.0 0.0 0.0 
0.0 0.0 0.0 
0.0 0.0 0.0 
0.0 0.0 0.0 
0.0 0.0 0.0 
0.0 0.0 0.0 
0.0 0.0 0.0 
0.0 0.0 0.0 
0.0 0.0 0.0 
0.0 0.0 0.0 
0.0 0.0 0.0 
0.0 0.0 0.0 
0.0 0.0 0.0 
0.0 0.0 0.0 
0.0 0.0 0.0 
0.0 0.0 0.0 
0.0 0.0 0.0 
0.0 0.0 0.0 
0.0 0.0 0.0 
0.0 0.0 0.0 
0.0 0.0 0.0 
0.0 0.0 0.0 
0.0 0.0 0.0 
0.0 0.0 0.0 
0.0 0.0 0.0 
0.0 0.0 0.0 
0.0 0.0 0.0 
0.0 0.0 0.0 
0.0 0.0 0.0 
0.0 0.0 0.0 
0.0 0.0 0.0 
0.0 0.0 0.0 
0.0 0.0 0.0 
0.0 0.0 0.0 
0.0 0.0 0.0 
0.0 0.0 0.0 
0.0 0.0 0.0 
0.0 0.0 0.0 
0.0 0.0 0.0 
0.0 0.0 0.0 
0.0 0.0 0.0 
0.0 0.0 0.0 
0.0 0.0 0.0 
0.0 0.0 0.0 
0.0 0.0 0.0 
0.0 0.0 0.0 
0.0 0.0 0.0 
0.0 0.0 0.0 
0.0 0.0 0.0 
0.0 0.0 0.0 
0.0 0.0 0.0 
0.0 0.0 0.0 
0.0 0.0 0.0 
0.0 0.0 0.0 
0.0 0.0 0.0 
0.0 0.0 0.0 
0.0 0.0 0.0 
0.0 0.0 0.0 
0.0 0.0 0.0 
0.0 0.0 0.0 
0.0 0.0 0.0 
0.0 0.0 0.0 
0.0 0.0 0.0 
0.0 0.0 0.0 
0.0 0.0 0.0 
0.0 0.0 0.0 
0.0 0.0 0.0 
0.0 0.0 0.0 
0.0 0.0 0.0 
0.0 0.0 0.0 
0.0 0.0 0.0 
0.0 0.0 0.0 
0.0 0.0 0.0 
0.0 0.0 0.0 
0.0 0.0 0.0 
0.0 0.0 0.0 
0.0 0.0 0.0 
0.0 0.0 0.0 
0.0 0.0 0.0 
0.0 0.0 0.0 
0.0 0.0 0.0 
0.0 0.0 0.0 
0.0 0.0 0.0 
0.0 0.0 0.0 
0.0 0.0 0.0 
0.0 0.0 0.0 
0.0 0.0 0.0 
0.0 0.0 0.0 
0.0 0.0 0.0 
0.0 0.0 0.0 
0.0 0.0 0.0 
0.0 0.0 0.0 
0.0 0.0 0.0 
0.0 0.0 0.0 
0.0 0.0 0.0 
0.0 0.0 0.0 
0.0 0.0 0.0 
0.0 0.0 0.0 
0.0 0.0 0.0 
0.0 0.0 0.0 
0.0 0.0 0.0 
0.0 0.0 0.0 
0.0 0.0 0.0 
0.0 0.0 0.0 
0.0 0.0 0.0 
0.0 0.0 0.0 
0.0 0.0 0.0 
0.0 0.0 0.0 
0.0 0.0 0.0 
0.0 0.0 0.0 
0.0 0.0 0.0 
0.0 0.0 0.0 
0.0 0.0 0.0 
0.0 0.0 0.0 
0.0 0.0 0.0 
0.0 0.0 0.0 
0.0 0.0 0.0 
0.0 0.0 0.0 
0.0 0.0 0.0 
0.0 0.0 0.0 
0.0 0.0 0.0 
0.0 0.0 0.0 
0.0 0.0 0.0 
0.0 0.0 0.0 
0.0 0.0 0.0 
0.0 0.0 0.0 
0.0 0.0 0.0 
0.0 0.0 0.0 
0.0 0.0 0.0 
0.0 0.0 0.0 
0.0 0.0 0.0 
0.0 0.0 0.0 
0.0 0.0 0.0 
0.0 0.0 0.0 
0.0 0.0 0.0 
0.0 0.0 0.0 
0.0 0.0 0.0 
0.0 0.0 0.0 
0.0 0.0 0.0 
0.0 0.0 0.0 
0.0 0.0 0.0 
0.0 0.0 0.0 
0.0 0.0 0.0 
0.0 0.0 0.0 
0.0 0.0 0.0 
0.0 0.0 0.0 
0.0 0.0 0.0 
0.0 0.0 0.0 
0.0 0.0 0.0 
0.0 0.0 0.0 
0.0 0.0 0.0 
0.0 0.0 0.0 
0.0 0.0 0.0 
0.0 0.0 0.0 
0.0 0.0 0.0 
0.0 0.0 0.0 
0.0 0.0 0.0 
0.0 0.0 0.0 
0.0 0.0 0.0 
0.0 0.0 0.0 
0.0 0.0 0.0 
0.0 0.0 0.0 
0.0 0.0 0.0 
0.0 0.0 0.0 
0.0 0.0 0.0 
0.0 0.0 0.0 
0.0 0.0 0.0 
0.0 0.0 0.0 
0.0 0.0 0.0 
0.0 0.0 0.0 
0.0 0.0 0.0 
0.0 0.0 0.0 
0.0 0.0 0.0 
0.0 0.0 0.0 
0.0 0.0 0.0 
0.0 0.0 0.0 
0.0 0.0 0.0 
0.0 0.0 0.0 
0.0 0.0 0.0 
0.0 0.0 0.0 
0.0 0.0 0.0 
0.0 0.0 0.0 
0.0 0.0 0.0 
0.0 0.0 0.0 
0.0 0.0 0.0 
0.0 0.0 0.0 
0.0 0.0 0.0 
0.0 0.0 0.0 
0.0 0.0 0.0 
0.0 0.0 0.0 
0.0 0.0 0.0 
0.0 0.0 0.0 
0.0 0.0 0.0 
0.0 0.0 0.0 
0.0 0.0 0.0 
0.0 0.0 0.0 
0.0 0.0 0.0 
0.0 0.0 0.0 
0.0 0.0 0.0 
0.0 0.0 0.0 
0.0 0.0 0.0 
0.0 0.0 0.0 
0.0 0.0 0.0 
0.0 0.0 0.0 
0.0 0.0 0.0 
0.0 0.0 0.0 
0.0 0.0 0.0 
0.0 0.0 0.0 
0.0 0.0 0.0 
0.0 0.0 0.0 
0.0 0.0 0.0 
0.0 0.0 0.0 
0.0 0.0 0.0 
0.0 0.0 0.0 
0.0 0.0 0.0 
0.0 0.0 0.0 
0.0 0.0 0.0 
0.0 0.0 0.0 
0.0 0.0 0.0 
0.0 0.0 0.0 
0.0 0.0 0.0 
0.0 0.0 0.0 
0.0 0.0 0.0 
0.0 0.0 0.0 
0.0 0.0 0.0 
0.0 0.0 0.0 
0.0 0.0 0.0 
0.0 0.0 0.0 
0.0 0.0 0.0 
0.0 0.0 0.0 
0.0 0.0 0.0 
0.0 0.0 0.0 
0.0 0.0 0.0 
0.0 0.0 0.0 
0.0 0.0 0.0 
0.0 0.0 0.0 
0.0 0.0 0.0 
0.0 0.0 0.0 
0.0 0.0 0.0 
0.0 0.0 0.0 
0.0 0.0 0.0 
0.0 0.0 0.0 
0.0 0.0 0.0 
0.0 0.0 0.0 
0.0 0.0 0.0 
0.0 0.0 0.0 
0.0 0.0 0.0 
0.0 0.0 0.0 
0.0 0.0 0.0 
0.0 0.0 0.0 
0.0 0.0 0.0 
0.0 0.0 0.0 
0.0 0.0 0.0 
0.0 0.0 0.0 
0.0 0.0 0.0 
0.0 0.0 0.0 
0.0 0.0 0.0 
0.0 0.0 0.0 
0.0 0.0 0.0 
0.0 0.0 0.0 
0.0 0.0 0.0 
0.0 0.0 0.0 
0.0 0.0 0.0 
0.0 0.0 0.0 
0.0 0.0 0.0 
0.0 0.0 0.0 
0.0 0.0 0.0 
0.0 0.0 0.0 
0.0 0.0 0.0 
0.0 0.0 0.0 
0.0 0.0 0.0 
0.0 0.0 0.0 
0.0 0.0 0.0 
0.0 0.0 0.0 
0.0 0.0 0.0 
0.0 0.0 0.0 
0.0 0.0 0.0 
0.0 0.0 0.0 
0.0 0.0 0.0 
0.0 0.0 0.0 
0.0 0.0 0.0 
0.0 0.0 0.0 
0.0 0.0 0.0 
0.0 0.0 0.0 
0.0 0.0 0.0 
0.0 0.0 0.0 
0.0 0.0 0.0 
0.0 0.0 0.0 
0.0 0.0 0.0 
0.0 0.0 0.0 
0.0 0.0 0.0 
0.0 0.0 0.0 
0.0 0.0 0.0 
0.0 0.0 0.0 
0.0 0.0 0.0 
0.0 0.0 0.0 
0.0 0.0 0.0 
0.0 0.0 0.0 
0.0 0.0 0.0 
0.0 0.0 0.0 
0.0 0.0 0.0 
0.0 0.0 0.0 
0.0 0.0 0.0 
0.0 0.0 0.0 
0.0 0.0 0.0 
0.0 0.0 0.0 
0.0 0.0 0.0 
0.0 0.0 0.0 
0.0 0.0 0.0 
0.0 0.0 0.0 
0.0 0.0 0.0 
0.0 0.0 0.0 
0.0 0.0 0.0 
0.0 0.0 0.0 
0.0 0.0 0.0 
0.0 0.0 0.0 
0.0 0.0 0.0 
0.0 0.0 0.0 
0.0 0.0 0.0 
0.0 0.0 0.0 
0.0 0.0 0.0 
0.0 0.0 0.0 
0.0 0.0 0.0 
0.0 0.0 0.0 
0.0 0.0 0.0 
0.0 0.0 0.0 
0.0 0.0 0.0 
0.0 0.0 0.0 
0.0 0.0 0.0 
0.0 0.0 0.0 
0.0 0.0 0.0 
0.0 0.0 0.0 
0.0 0.0 0.0 
0.0 0.0 0.0 
0.0 0.0 0.0 
0.0 0.0 0.0 
0.0 0.0 0.0 
0.0 0.0 0.0 
0.0 0.0 0.0 
0.0 0.0 0.0 
0.0 0.0 0.0 
0.0 0.0 0.0 
0.0 0.0 0.0 
0.0 0.0 0.0 
0.0 0.0 0.0 
0.0 0.0 0.0 
0.0 0.0 0.0 
0.0 0.0 0.0 
0.0 0.0 0.0 
0.0 0.0 0.0 
0.0 0.0 0.0 
0.0 0.0 0.0 
0.0 0.0 0.0 
0.0 0.0 0.0 
0.0 0.0 0.0 
0.0 0.0 0.0 
0.0 0.0 0.0 
0.0 0.0 0.0 
0.0 0.0 0.0 
0.0 0.0 0.0 
0.0 0.0 0.0 
0.0 0.0 0.0 
0.0 0.0 0.0 
0.0 0.0 0.0 
0.0 0.0 0.0 
0.0 0.0 0.0 
0.0 0.0 0.0 
0.0 0.0 0.0 
0.0 0.0 0.0 
0.0 0.0 0.0 
0.0 0.0 0.0 
0.0 0.0 0.0 
0.0 0.0 0.0 
0.0 0.0 0.0 
0.0 0.0 0.0 
0.0 0.0 0.0 
0.0 0.0 0.0 
0.0 0.0 0.0 
0.0 0.0 0.0 
0.0 0.0 0.0 
0.0 0.0 0.0 
0.0 0.0 0.0 
0.0 0.0 0.0 
0.0 0.0 0.0 
0.0 0.0 0.0 
0.0 0.0 0.0 
0.0 0.0 0.0 
0.0 0.0 0.0 
0.0 0.0 0.0 
0.0 0.0 0.0 
0.0 0.0 0.0 
0.0 0.0 0.0 
0.0 0.0 0.0 
0.0 0.0 0.0 
0.0 0.0 0.0 
0.0 0.0 0.0 
0.0 0.0 0.0 
0.0 0.0 0.0 
0.0 0.0 0.0 
0.0 0.0 0.0 
0.0 0.0 0.0 
0.0 0.0 0.0 
0.0 0.0 0.0 
0.0 0.0 0.0 
0.0 0.0 0.0 
0.0 0.0 0.0 
0.0 0.0 0.0 
0.0 0.0 0.0 
0.0 0.0 0.0 
0.0 0.0 0.0 
0.0 0.0 0.0 
0.0 0.0 0.0 
0.0 0.0 0.0 
0.0 0.0 0.0 
0.0 0.0 0.0 
0.0 0.0 0.0 
0.0 0.0 0.0 
0.0 0.0 0.0 
0.0 0.0 0.0 
0.0 0.0 0.0 
0.0 0.0 0.0 
0.0 0.0 0.0 
0.0 0.0 0.0 
0.0 0.0 0.0 
0.0 0.0 0.0 
0.0 0.0 0.0 
0.0 0.0 0.0 
0.0 0.0 0.0 
0.0 0.0 0.0 
0.0 0.0 0.0 
0.0 0.0 0.0 
0.0 0.0 0.0 
0.0 0.0 0.0 
0.0 0.0 0.0 
0.0 0.0 0.0 
0.0 0.0 0.0 
0.0 0.0 0.0 
0.0 0.0 0.0 
0.0 0.0 0.0 
0.0 0.0 0.0 
0.0 0.0 0.0 
0.0 0.0 0.0 
0.0 0.0 0.0 
0.0 0.0 0.0 
0.0 0.0 0.0 
0.0 0.0 0.0 
0.0 0.0 0.0 
0.0 0.0 0.0 
0.0 0.0 0.0 
0.0 0.0 0.0 
0.0 0.0 0.0 
0.0 0.0 0.0 
0.0 0.0 0.0 
0.0 0.0 0.0 
0.0 0.0 0.0 
0.0 0.0 0.0 
0.0 0.0 0.0 
0.0 0.0 0.0 
0.0 0.0 0.0 
0.0 0.0 0.0 
0.0 0.0 0.0 
0.0 0.0 0.0 
0.0 0.0 0.0 
0.0 0.0 0.0 
0.0 0.0 0.0 
0.0 0.0 0.0 
0.0 0.0 0.0 
0.0 0.0 0.0 
0.0 0.0 0.0 
0.0 0.0 0.0 
0.0 0.0 0.0 
0.0 0.0 0.0 
0.0 0.0 0.0 
0.0 0.0 0.0 
0.0 0.0 0.0 
0.0 0.0 0.0 
0.0 0.0 0.0 
0.0 0.0 0.0 
0.0 0.0 0.0 
0.0 0.0 0.0 
0.0 0.0 0.0 
0.0 0.0 0.0 
0.0 0.0 0.0 
0.0 0.0 0.0 
0.0 0.0 0.0 
0.0 0.0 0.0 
0.0 0.0 0.0 
0.0 0.0 0.0 
0.0 0.0 0.0 
0.0 0.0 0.0 
0.0 0.0 0.0 
0.0 0.0 0.0 
0.0 0.0 0.0 
0.0 0.0 0.0 
0.0 0.0 0.0 
0.0 0.0 0.0 
0.0 0.0 0.0 
0.0 0.0 0.0 
0.0 0.0 0.0 
0.0 0.0 0.0 
0.0 0.0 0.0 
0.0 0.0 0.0 
0.0 0.0 0.0 
0.0 0.0 0.0 
0.0 0.0 0.0 
0.0 0.0 0.0 
0.0 0.0 0.0 
0.0 0.0 0.0 
0.0 0.0 0.0 
0.0 0.0 0.0 
0.0 0.0 0.0 
0.0 0.0 0.0 
0.0 0.0 0.0 
0.0 0.0 0.0 
0.0 0.0 0.0 
0.0 0.0 0.0 
0.0 0.0 0.0 
0.0 0.0 0.0 
0.0 0.0 0.0 
0.0 0.0 0.0 
0.0 0.0 0.0 
0.0 0.0 0.0 
0.0 0.0 0.0 
0.0 0.0 0.0 
0.0 0.0 0.0 
0.0 0.0 0.0 
0.0 0.0 0.0 
0.0 0.0 0.0 
0.0 0.0 0.0 
0.0 0.0 0.0 
0.0 0.0 0.0 
0.0 0.0 0.0 
0.0 0.0 0.0 
0.0 0.0 0.0 
0.0 0.0 0.0 
0.0 0.0 0.0 
0.0 0.0 0.0 
0.0 0.0 0.0 
0.0 0.0 0.0 
0.0 0.0 0.0 
0.0 0.0 0.0 
0.0 0.0 0.0 
0.0 0.0 0.0 
0.0 0.0 0.0 
0.0 0.0 0.0 
0.0 0.0 0.0 
0.0 0.0 0.0 
0.0 0.0 0.0 
0.0 0.0 0.0 
0.0 0.0 0.0 
0.0 0.0 0.0 
0.0 0.0 0.0 
0.0 0.0 0.0 
0.0 0.0 0.0 
0.0 0.0 0.0 
0.0 0.0 0.0 
0.0 0.0 0.0 
0.0 0.0 0.0 
0.0 0.0 0.0 
0.0 0.0 0.0 
0.0 0.0 0.0 
0.0 0.0 0.0 
0.0 0.0 0.0 
0.0 0.0 0.0 
0.0 0.0 0.0 
0.0 0.0 0.0 
0.0 0.0 0.0 
0.0 0.0 0.0 
0.0 0.0 0.0 
0.0 0.0 0.0 

VECTORS node_force_gravity float
0.0 -1.962000000000e+01 0.0 
0.0 -1.962000000000e+01 0.0 
0.0 -1.962000000000e+01 0.0 
0.0 -1.962000000000e+01 0.0 
0.0 -1.962000000000e+01 0.0 
0.0 -1.962000000000e+01 0.0 
0.0 -1.962000000000e+01 0.0 
0.0 -1.962000000000e+01 0.0 
0.0 -1.962000000000e+01 0.0 
0.0 -1.962000000000e+01 0.0 
0.0 -1.962000000000e+01 0.0 
0.0 -1.962000000000e+01 0.0 
0.0 -1.962000000000e+01 0.0 
0.0 -1.962000000000e+01 0.0 
0.0 -1.962000000000e+01 0.0 
0.0 -1.962000000000e+01 0.0 
0.0 -1.962000000000e+01 0.0 
0.0 -1.962000000000e+01 0.0 
0.0 -1.962000000000e+01 0.0 
0.0 -1.962000000000e+01 0.0 
0.0 -1.962000000000e+01 0.0 
0.0 -1.962000000000e+01 0.0 
0.0 -1.962000000000e+01 0.0 
0.0 -1.962000000000e+01 0.0 
0.0 -1.962000000000e+01 0.0 
0.0 -1.962000000000e+01 0.0 
0.0 -1.962000000000e+01 0.0 
0.0 -1.962000000000e+01 0.0 
0.0 -1.962000000000e+01 0.0 
0.0 -1.962000000000e+01 0.0 
0.0 -1.962000000000e+01 0.0 
0.0 -1.962000000000e+01 0.0 
0.0 -1.962000000000e+01 0.0 
0.0 -1.962000000000e+01 0.0 
0.0 -1.962000000000e+01 0.0 
0.0 -1.962000000000e+01 0.0 
0.0 -1.962000000000e+01 0.0 
0.0 -1.962000000000e+01 0.0 
0.0 -1.962000000000e+01 0.0 
0.0 -1.962000000000e+01 0.0 
0.0 -1.962000000000e+01 0.0 
0.0 -1.962000000000e+01 0.0 
0.0 -1.962000000000e+01 0.0 
0.0 -1.962000000000e+01 0.0 
0.0 -1.962000000000e+01 0.0 
0.0 -1.962000000000e+01 0.0 
0.0 -1.962000000000e+01 0.0 
0.0 -1.962000000000e+01 0.0 
0.0 -1.962000000000e+01 0.0 
0.0 -1.962000000000e+01 0.0 
0.0 -1.962000000000e+01 0.0 
0.0 -1.962000000000e+01 0.0 
0.0 -1.962000000000e+01 0.0 
0.0 -1.962000000000e+01 0.0 
0.0 -1.962000000000e+01 0.0 
0.0 -1.962000000000e+01 0.0 
0.0 -1.962000000000e+01 0.0 
0.0 -1.962000000000e+01 0.0 
0.0 -1.962000000000e+01 0.0 
0.0 -1.962000000000e+01 0.0 
0.0 -1.962000000000e+01 0.0 
0.0 -1.962000000000e+01 0.0 
0.0 -1.962000000000e+01 0.0 
0.0 -1.962000000000e+01 0.0 
0.0 -1.962000000000e+01 0.0 
0.0 -1.962000000000e+01 0.0 
0.0 -1.962000000000e+01 0.0 
0.0 -1.962000000000e+01 0.0 
0.0 -1.962000000000e+01 0.0 
0.0 -1.962000000000e+01 0.0 
0.0 -1.962000000000e+01 0.0 
0.0 -1.962000000000e+01 0.0 
0.0 -1.962000000000e+01 0.0 
0.0 -1.962000000000e+01 0.0 
0.0 -1.962000000000e+01 0.0 
0.0 -1.962000000000e+01 0.0 
0.0 -1.962000000000e+01 0.0 
0.0 -1.962000000000e+01 0.0 
0.0 -1.962000000000e+01 0.0 
0.0 -1.962000000000e+01 0.0 
0.0 -1.962000000000e+01 0.0 
0.0 -1.962000000000e+01 0.0 
0.0 -1.962000000000e+01 0.0 
0.0 -1.962000000000e+01 0.0 
0.0 -1.962000000000e+01 0.0 
0.0 -1.962000000000e+01 0.0 
0.0 -1.962000000000e+01 0.0 
0.0 -1.962000000000e+01 0.0 
0.0 -1.962000000000e+01 0.0 
0.0 -1.962000000000e+01 0.0 
0.0 -1.962000000000e+01 0.0 
0.0 -1.962000000000e+01 0.0 
0.0 -1.962000000000e+01 0.0 
0.0 -1.962000000000e+01 0.0 
0.0 -1.962000000000e+01 0.0 
0.0 -1.962000000000e+01 0.0 
0.0 -1.962000000000e+01 0.0 
0.0 -1.962000000000e+01 0.0 
0.0 -1.962000000000e+01 0.0 
0.0 -1.962000000000e+01 0.0 
0.0 -1.962000000000e+01 0.0 
0.0 -1.962000000000e+01 0.0 
0.0 -1.962000000000e+01 0.0 
0.0 -1.962000000000e+01 0.0 
0.0 -1.962000000000e+01 0.0 
0.0 -1.962000000000e+01 0.0 
0.0 -1.962000000000e+01 0.0 
0.0 -1.962000000000e+01 0.0 
0.0 -1.962000000000e+01 0.0 
0.0 -1.962000000000e+01 0.0 
0.0 -1.962000000000e+01 0.0 
0.0 -1.962000000000e+01 0.0 
0.0 -1.962000000000e+01 0.0 
0.0 -1.962000000000e+01 0.0 
0.0 -1.962000000000e+01 0.0 
0.0 -1.962000000000e+01 0.0 
0.0 -1.962000000000e+01 0.0 
0.0 -1.962000000000e+01 0.0 
0.0 -1.962000000000e+01 0.0 
0.0 -1.962000000000e+01 0.0 
0.0 -1.962000000000e+01 0.0 
0.0 -1.962000000000e+01 0.0 
0.0 -1.962000000000e+01 0.0 
0.0 -1.962000000000e+01 0.0 
0.0 -1.962000000000e+01 0.0 
0.0 -1.962000000000e+01 0.0 
0.0 -1.962000000000e+01 0.0 
0.0 -1.962000000000e+01 0.0 
0.0 -1.962000000000e+01 0.0 
0.0 -1.962000000000e+01 0.0 
0.0 -1.962000000000e+01 0.0 
0.0 -1.962000000000e+01 0.0 
0.0 -1.962000000000e+01 0.0 
0.0 -1.962000000000e+01 0.0 
0.0 -1.962000000000e+01 0.0 
0.0 -1.962000000000e+01 0.0 
0.0 -1.962000000000e+01 0.0 
0.0 -1.962000000000e+01 0.0 
0.0 -1.962000000000e+01 0.0 
0.0 -1.962000000000e+01 0.0 
0.0 -1.962000000000e+01 0.0 
0.0 -1.962000000000e+01 0.0 
0.0 -1.962000000000e+01 0.0 
0.0 -1.962000000000e+01 0.0 
0.0 -1.962000000000e+01 0.0 
0.0 -1.962000000000e+01 0.0 
0.0 -1.962000000000e+01 0.0 
0.0 -1.962000000000e+01 0.0 
0.0 -1.962000000000e+01 0.0 
0.0 -1.962000000000e+01 0.0 
0.0 -1.962000000000e+01 0.0 
0.0 -1.962000000000e+01 0.0 
0.0 -1.962000000000e+01 0.0 
0.0 -1.962000000000e+01 0.0 
0.0 -1.962000000000e+01 0.0 
0.0 -1.962000000000e+01 0.0 
0.0 -1.962000000000e+01 0.0 
0.0 -1.962000000000e+01 0.0 
0.0 -1.962000000000e+01 0.0 
0.0 -1.962000000000e+01 0.0 
0.0 -1.962000000000e+01 0.0 
0.0 -1.962000000000e+01 0.0 
0.0 -1.962000000000e+01 0.0 
0.0 -1.962000000000e+01 0.0 
0.0 -1.962000000000e+01 0.0 
0.0 -1.962000000000e+01 0.0 
0.0 -1.962000000000e+01 0.0 
0.0 -1.962000000000e+01 0.0 
0.0 -1.962000000000e+01 0.0 
0.0 -1.962000000000e+01 0.0 
0.0 -1.962000000000e+01 0.0 
0.0 -1.962000000000e+01 0.0 
0.0 -1.962000000000e+01 0.0 
0.0 -1.962000000000e+01 0.0 
0.0 -1.962000000000e+01 0.0 
0.0 -1.962000000000e+01 0.0 
0.0 -1.962000000000e+01 0.0 
0.0 -1.962000000000e+01 0.0 
0.0 -1.962000000000e+01 0.0 
0.0 -1.962000000000e+01 0.0 
0.0 -1.962000000000e+01 0.0 
0.0 -1.962000000000e+01 0.0 
0.0 -1.962000000000e+01 0.0 
0.0 -1.962000000000e+01 0.0 
0.0 -1.962000000000e+01 0.0 
0.0 -1.962000000000e+01 0.0 
0.0 -1.962000000000e+01 0.0 
0.0 -1.962000000000e+01 0.0 
0.0 -1.962000000000e+01 0.0 
0.0 -1.962000000000e+01 0.0 
0.0 -1.962000000000e+01 0.0 
0.0 -1.962000000000e+01 0.0 
0.0 -1.962000000000e+01 0.0 
0.0 -1.962000000000e+01 0.0 
0.0 -1.962000000000e+01 0.0 
0.0 -1.962000000000e+01 0.0 
0.0 -1.962000000000e+01 0.0 
0.0 -1.962000000000e+01 0.0 
0.0 -1.962000000000e+01 0.0 
0.0 -1.962000000000e+01 0.0 
0.0 -1.962000000000e+01 0.0 
0.0 -1.962000000000e+01 0.0 
0.0 -1.962000000000e+01 0.0 
0.0 -1.962000000000e+01 0.0 
0.0 -1.962000000000e+01 0.0 
0.0 -1.962000000000e+01 0.0 
0.0 -1.962000000000e+01 0.0 
0.0 -1.962000000000e+01 0.0 
0.0 -1.962000000000e+01 0.0 
0.0 -1.962000000000e+01 0.0 
0.0 -1.962000000000e+01 0.0 
0.0 -1.962000000000e+01 0.0 
0.0 -1.962000000000e+01 0.0 
0.0 -1.962000000000e+01 0.0 
0.0 -1.962000000000e+01 0.0 
0.0 -1.962000000000e+01 0.0 
0.0 -1.962000000000e+01 0.0 
0.0 -1.962000000000e+01 0.0 
0.0 -1.962000000000e+01 0.0 
0.0 -1.962000000000e+01 0.0 
0.0 -1.962000000000e+01 0.0 
0.0 -1.962000000000e+01 0.0 
0.0 -1.962000000000e+01 0.0 
0.0 -1.962000000000e+01 0.0 
0.0 -1.962000000000e+01 0.0 
0.0 -1.962000000000e+01 0.0 
0.0 -1.962000000000e+01 0.0 
0.0 -1.962000000000e+01 0.0 
0.0 -1.962000000000e+01 0.0 
0.0 -1.962000000000e+01 0.0 
0.0 -1.962000000000e+01 0.0 
0.0 -1.962000000000e+01 0.0 
0.0 -1.962000000000e+01 0.0 
0.0 -1.962000000000e+01 0.0 
0.0 -1.962000000000e+01 0.0 
0.0 -1.962000000000e+01 0.0 
0.0 -1.962000000000e+01 0.0 
0.0 -1.962000000000e+01 0.0 
0.0 -1.962000000000e+01 0.0 
0.0 -1.962000000000e+01 0.0 
0.0 -1.962000000000e+01 0.0 
0.0 -1.962000000000e+01 0.0 
0.0 -1.962000000000e+01 0.0 
0.0 -1.962000000000e+01 0.0 
0.0 -1.962000000000e+01 0.0 
0.0 -1.962000000000e+01 0.0 
0.0 -1.962000000000e+01 0.0 
0.0 -1.962000000000e+01 0.0 
0.0 -1.962000000000e+01 0.0 
0.0 -1.962000000000e+01 0.0 
0.0 -1.962000000000e+01 0.0 
0.0 -1.962000000000e+01 0.0 
0.0 -1.962000000000e+01 0.0 
0.0 -1.962000000000e+01 0.0 
0.0 -1.962000000000e+01 0.0 
0.0 -1.962000000000e+01 0.0 
0.0 -1.962000000000e+01 0.0 
0.0 -1.962000000000e+01 0.0 
0.0 -1.962000000000e+01 0.0 
0.0 -1.962000000000e+01 0.0 
0.0 -1.962000000000e+01 0.0 
0.0 -1.962000000000e+01 0.0 
0.0 -1.962000000000e+01 0.0 
0.0 -1.962000000000e+01 0.0 
0.0 -1.962000000000e+01 0.0 
0.0 -1.962000000000e+01 0.0 
0.0 -1.962000000000e+01 0.0 
0.0 -1.962000000000e+01 0.0 
0.0 -1.962000000000e+01 0.0 
0.0 -1.962000000000e+01 0.0 
0.0 -1.962000000000e+01 0.0 
0.0 -1.962000000000e+01 0.0 
0.0 -1.962000000000e+01 0.0 
0.0 -1.962000000000e+01 0.0 
0.0 -1.962000000000e+01 0.0 
0.0 -1.962000000000e+01 0.0 
0.0 -1.962000000000e+01 0.0 
0.0 -1.962000000000e+01 0.0 
0.0 -1.962000000000e+01 0.0 
0.0 -1.962000000000e+01 0.0 
0.0 -1.962000000000e+01 0.0 
0.0 -1.962000000000e+01 0.0 
0.0 -1.962000000000e+01 0.0 
0.0 -1.962000000000e+01 0.0 
0.0 -1.962000000000e+01 0.0 
0.0 -1.962000000000e+01 0.0 
0.0 -1.962000000000e+01 0.0 
0.0 -1.962000000000e+01 0.0 
0.0 -1.962000000000e+01 0.0 
0.0 -1.962000000000e+01 0.0 
0.0 -1.962000000000e+01 0.0 
0.0 -1.962000000000e+01 0.0 
0.0 -1.962000000000e+01 0.0 
0.0 -1.962000000000e+01 0.0 
0.0 -1.962000000000e+01 0.0 
0.0 -1.962000000000e+01 0.0 
0.0 -1.962000000000e+01 0.0 
0.0 -1.962000000000e+01 0.0 
0.0 -1.962000000000e+01 0.0 
0.0 -1.962000000000e+01 0.0 
0.0 -1.962000000000e+01 0.0 
0.0 -1.962000000000e+01 0.0 
0.0 -1.962000000000e+01 0.0 
0.0 -1.962000000000e+01 0.0 
0.0 -1.962000000000e+01 0.0 
0.0 -1.962000000000e+01 0.0 
0.0 -1.962000000000e+01 0.0 
0.0 -1.962000000000e+01 0.0 
0.0 -1.962000000000e+01 0.0 
0.0 -1.962000000000e+01 0.0 
0.0 -1.962000000000e+01 0.0 
0.0 -1.962000000000e+01 0.0 
0.0 -1.962000000000e+01 0.0 
0.0 -1.962000000000e+01 0.0 
0.0 -1.962000000000e+01 0.0 
0.0 -1.962000000000e+01 0.0 
0.0 -1.962000000000e+01 0.0 
0.0 -1.962000000000e+01 0.0 
0.0 -1.962000000000e+01 0.0 
0.0 -1.962000000000e+01 0.0 
0.0 -1.962000000000e+01 0.0 
0.0 -1.962000000000e+01 0.0 
0.0 -1.962000000000e+01 0.0 
0.0 -1.962000000000e+01 0.0 
0.0 -1.962000000000e+01 0.0 
0.0 -1.962000000000e+01 0.0 
0.0 -1.962000000000e+01 0.0 
0.0 -1.962000000000e+01 0.0 
0.0 -1.962000000000e+01 0.0 
0.0 -1.962000000000e+01 0.0 
0.0 -1.962000000000e+01 0.0 
0.0 -1.962000000000e+01 0.0 
0.0 -1.962000000000e+01 0.0 
0.0 -1.962000000000e+01 0.0 
0.0 -1.962000000000e+01 0.0 
0.0 -1.962000000000e+01 0.0 
0.0 -1.962000000000e+01 0.0 
0.0 -1.962000000000e+01 0.0 
0.0 -1.962000000000e+01 0.0 
0.0 -1.962000000000e+01 0.0 
0.0 -1.962000000000e+01 0.0 
0.0 -1.962000000000e+01 0.0 
0.0 -1.962000000000e+01 0.0 
0.0 -1.962000000000e+01 0.0 
0.0 -1.962000000000e+01 0.0 
0.0 -1.962000000000e+01 0.0 
0.0 -1.962000000000e+01 0.0 
0.0 -1.962000000000e+01 0.0 
0.0 -1.962000000000e+01 0.0 
0.0 -1.962000000000e+01 0.0 
0.0 -1.962000000000e+01 0.0 
0.0 -1.962000000000e+01 0.0 
0.0 -1.962000000000e+01 0.0 
0.0 -1.962000000000e+01 0.0 
0.0 -1.962000000000e+01 0.0 
0.0 -1.962000000000e+01 0.0 
0.0 -1.962000000000e+01 0.0 
0.0 -1.962000000000e+01 0.0 
0.0 -1.962000000000e+01 0.0 
0.0 -1.962000000000e+01 0.0 
0.0 -1.962000000000e+01 0.0 
0.0 -1.962000000000e+01 0.0 
0.0 -1.962000000000e+01 0.0 
0.0 -1.962000000000e+01 0.0 
0.0 -1.962000000000e+01 0.0 
0.0 -1.962000000000e+01 0.0 
0.0 -1.962000000000e+01 0.0 
0.0 -1.962000000000e+01 0.0 
0.0 -1.962000000000e+01 0.0 
0.0 -1.962000000000e+01 0.0 
0.0 -1.962000000000e+01 0.0 
0.0 -1.962000000000e+01 0.0 
0.0 -1.962000000000e+01 0.0 
0.0 -1.962000000000e+01 0.0 
0.0 -1.962000000000e+01 0.0 
0.0 -1.962000000000e+01 0.0 
0.0 -1.962000000000e+01 0.0 
0.0 -1.962000000000e+01 0.0 
0.0 -1.962000000000e+01 0.0 
0.0 -1.962000000000e+01 0.0 
0.0 -1.962000000000e+01 0.0 
0.0 -1.962000000000e+01 0.0 
0.0 -1.962000000000e+01 0.0 
0.0 -1.962000000000e+01 0.0 
0.0 -1.962000000000e+01 0.0 
0.0 -1.962000000000e+01 0.0 
0.0 -1.962000000000e+01 0.0 
0.0 -1.962000000000e+01 0.0 
0.0 -1.962000000000e+01 0.0 
0.0 -1.962000000000e+01 0.0 
0.0 -1.962000000000e+01 0.0 
0.0 -1.962000000000e+01 0.0 
0.0 -1.962000000000e+01 0.0 
0.0 -1.962000000000e+01 0.0 
0.0 -1.962000000000e+01 0.0 
0.0 -1.962000000000e+01 0.0 
0.0 -1.962000000000e+01 0.0 
0.0 -1.962000000000e+01 0.0 
0.0 -1.962000000000e+01 0.0 
0.0 -1.962000000000e+01 0.0 
0.0 -1.962000000000e+01 0.0 
0.0 -1.962000000000e+01 0.0 
0.0 -1.962000000000e+01 0.0 
0.0 -1.962000000000e+01 0.0 
0.0 -1.962000000000e+01 0.0 
0.0 -1.962000000000e+01 0.0 
0.0 -1.962000000000e+01 0.0 
0.0 -1.962000000000e+01 0.0 
0.0 -1.962000000000e+01 0.0 
0.0 -1.962000000000e+01 0.0 
0.0 -1.962000000000e+01 0.0 
0.0 -1.962000000000e+01 0.0 
0.0 -1.962000000000e+01 0.0 
0.0 -1.962000000000e+01 0.0 
0.0 -1.962000000000e+01 0.0 
0.0 -1.962000000000e+01 0.0 
0.0 -1.962000000000e+01 0.0 
0.0 -1.962000000000e+01 0.0 
0.0 -1.962000000000e+01 0.0 
0.0 -1.962000000000e+01 0.0 
0.0 -1.962000000000e+01 0.0 
0.0 -1.962000000000e+01 0.0 
0.0 -1.962000000000e+01 0.0 
0.0 -1.962000000000e+01 0.0 
0.0 -1.962000000000e+01 0.0 
0.0 -1.962000000000e+01 0.0 
0.0 -1.962000000000e+01 0.0 
0.0 -1.962000000000e+01 0.0 
0.0 -1.962000000000e+01 0.0 
0.0 -1.962000000000e+01 0.0 
0.0 -1.962000000000e+01 0.0 
0.0 -1.962000000000e+01 0.0 
0.0 -1.962000000000e+01 0.0 
0.0 -1.962000000000e+01 0.0 
0.0 -1.962000000000e+01 0.0 
0.0 -1.962000000000e+01 0.0 
0.0 -1.962000000000e+01 0.0 
0.0 -1.962000000000e+01 0.0 
0.0 -1.962000000000e+01 0.0 
0.0 -1.962000000000e+01 0.0 
0.0 -1.962000000000e+01 0.0 
0.0 -1.962000000000e+01 0.0 
0.0 -1.962000000000e+01 0.0 
0.0 -1.962000000000e+01 0.0 
0.0 -1.962000000000e+01 0.0 
0.0 -1.962000000000e+01 0.0 
0.0 -1.962000000000e+01 0.0 
0.0 -1.962000000000e+01 0.0 
0.0 -1.962000000000e+01 0.0 
0.0 -1.962000000000e+01 0.0 
0.0 -1.962000000000e+01 0.0 
0.0 -1.962000000000e+01 0.0 
0.0 -1.962000000000e+01 0.0 
0.0 -1.962000000000e+01 0.0 
0.0 -1.962000000000e+01 0.0 
0.0 -1.962000000000e+01 0.0 
0.0 -1.962000000000e+01 0.0 
0.0 -1.962000000000e+01 0.0 
0.0 -1.962000000000e+01 0.0 
0.0 -1.962000000000e+01 0.0 
0.0 -1.962000000000e+01 0.0 
0.0 -1.962000000000e+01 0.0 
0.0 -1.962000000000e+01 0.0 
0.0 -1.962000000000e+01 0.0 
0.0 -1.962000000000e+01 0.0 
0.0 -1.962000000000e+01 0.0 
0.0 -1.962000000000e+01 0.0 
0.0 -1.962000000000e+01 0.0 
0.0 -1.962000000000e+01 0.0 
0.0 -1.962000000000e+01 0.0 
0.0 -1.962000000000e+01 0.0 
0.0 -1.962000000000e+01 0.0 
0.0 -1.962000000000e+01 0.0 
0.0 -1.962000000000e+01 0.0 
0.0 -1.962000000000e+01 0.0 
0.0 -1.962000000000e+01 0.0 
0.0 -1.962000000000e+01 0.0 
0.0 -1.962000000000e+01 0.0 
0.0 -1.962000000000e+01 0.0 
0.0 -1.962000000000e+01 0.0 
0.0 -1.962000000000e+01 0.0 
0.0 -1.962000000000e+01 0.0 
0.0 -1.962000000000e+01 0.0 
0.0 -1.962000000000e+01 0.0 
0.0 -1.962000000000e+01 0.0 
0.0 -1.962000000000e+01 0.0 
0.0 -1.962000000000e+01 0.0 
0.0 -1.962000000000e+01 0.0 
0.0 -1.962000000000e+01 0.0 
0.0 -1.962000000000e+01 0.0 
0.0 -1.962000000000e+01 0.0 
0.0 -1.962000000000e+01 0.0 
0.0 -1.962000000000e+01 0.0 
0.0 -1.962000000000e+01 0.0 
0.0 -1.962000000000e+01 0.0 
0.0 -1.962000000000e+01 0.0 
0.0 -1.962000000000e+01 0.0 
0.0 -1.962000000000e+01 0.0 
0.0 -1.962000000000e+01 0.0 
0.0 -1.962000000000e+01 0.0 
0.0 -1.962000000000e+01 0.0 
0.0 -1.962000000000e+01 0.0 
0.0 -1.962000000000e+01 0.0 
0.0 -1.962000000000e+01 0.0 
0.0 -1.962000000000e+01 0.0 
0.0 -1.962000000000e+01 0.0 
0.0 -1.962000000000e+01 0.0 
0.0 -1.962000000000e+01 0.0 
0.0 -1.962000000000e+01 0.0 
0.0 -1.962000000000e+01 0.0 
0.0 -1.962000000000e+01 0.0 
0.0 -1.962000000000e+01 0.0 
0.0 -1.962000000000e+01 0.0 
0.0 -1.962000000000e+01 0.0 
0.0 -1.962000000000e+01 0.0 
0.0 -1.962000000000e+01 0.0 
0.0 -1.962000000000e+01 0.0 
0.0 -1.962000000000e+01 0.0 
0.0 -1.962000000000e+01 0.0 
0.0 -1.962000000000e+01 0.0 
0.0 -1.962000000000e+01 0.0 
0.0 -1.962000000000e+01 0.0 
0.0 -1.962000000000e+01 0.0 
0.0 -1.962000000000e+01 0.0 
0.0 -1.962000000000e+01 0.0 
0.0 -1.962000000000e+01 0.0 
0.0 -1.962000000000e+01 0.0 
0.0 -1.962000000000e+01 0.0 
0.0 -1.962000000000e+01 0.0 
0.0 -1.962000000000e+01 0.0 
0.0 -1.962000000000e+01 0.0 
0.0 -1.962000000000e+01 0.0 
0.0 -1.962000000000e+01 0.0 
0.0 -1.962000000000e+01 0.0 
0.0 -1.962000000000e+01 0.0 
0.0 -1.962000000000e+01 0.0 
0.0 -1.962000000000e+01 0.0 
0.0 -1.962000000000e+01 0.0 
0.0 -1.962000000000e+01 0.0 
0.0 -1.962000000000e+01 0.0 
0.0 -1.962000000000e+01 0.0 
0.0 -1.962000000000e+01 0.0 
0.0 -1.962000000000e+01 0.0 
0.0 -1.962000000000e+01 0.0 
0.0 -1.962000000000e+01 0.0 
0.0 -1.962000000000e+01 0.0 
0.0 -1.962000000000e+01 0.0 
0.0 -1.962000000000e+01 0.0 
0.0 -1.962000000000e+01 0.0 
0.0 -1.962000000000e+01 0.0 
0.0 -1.962000000000e+01 0.0 
0.0 -1.962000000000e+01 0.0 
0.0 -1.962000000000e+01 0.0 
0.0 -1.962000000000e+01 0.0 
0.0 -1.962000000000e+01 0.0 
0.0 -1.962000000000e+01 0.0 
0.0 -1.962000000000e+01 0.0 
0.0 -1.962000000000e+01 0.0 
0.0 -1.962000000000e+01 0.0 
0.0 -1.962000000000e+01 0.0 
0.0 -1.962000000000e+01 0.0 
0.0 -1.962000000000e+01 0.0 
0.0 -1.962000000000e+01 0.0 
0.0 -1.962000000000e+01 0.0 
0.0 -1.962000000000e+01 0.0 
0.0 -1.962000000000e+01 0.0 
0.0 -1.962000000000e+01 0.0 
0.0 -1.962000000000e+01 0.0 
0.0 -1.962000000000e+01 0.0 
0.0 -1.962000000000e+01 0.0 
0.0 -1.962000000000e+01 0.0 
0.0 -1.962000000000e+01 0.0 
0.0 -1.962000000000e+01 0.0 
0.0 -1.962000000000e+01 0.0 
0.0 -1.962000000000e+01 0.0 
0.0 -1.962000000000e+01 0.0 
0.0 -1.962000000000e+01 0.0 
0.0 -1.962000000000e+01 0.0 
0.0 -1.962000000000e+01 0.0 
0.0 -1.962000000000e+01 0.0 
0.0 -1.962000000000e+01 0.0 
0.0 -1.962000000000e+01 0.0 
0.0 -1.962000000000e+01 0.0 
0.0 -1.962000000000e+01 0.0 
0.0 -1.962000000000e+01 0.0 
0.0 -1.962000000000e+01 0.0 
0.0 -1.962000000000e+01 0.0 
0.0 -1.962000000000e+01 0.0 
0.0 -1.962000000000e+01 0.0 
0.0 -1.962000000000e+01 0.0 
0.0 -1.962000000000e+01 0.0 
0.0 -1.962000000000e+01 0.0 
0.0 -1.962000000000e+01 0.0 
0.0 -1.962000000000e+01 0.0 
0.0 -1.962000000000e+01 0.0 
0.0 -1.962000000000e+01 0.0 
0.0 -1.962000000000e+01 0.0 
0.0 -1.962000000000e+01 0.0 
0.0 -1.962000000000e+01 0.0 
0.0 -1.962000000000e+01 0.0 
0.0 -1.962000000000e+01 0.0 
0.0 -1.962000000000e+01 0.0 
0.0 -1.962000000000e+01 0.0 
0.0 -1.962000000000e+01 0.0 
0.0 -1.962000000000e+01 0.0 
0.0 -1.962000000000e+01 0.0 
0.0 -1.962000000000e+01 0.0 
0.0 -1.962000000000e+01 0.0 
0.0 -1.962000000000e+01 0.0 
0.0 -1.962000000000e+01 0.0 
0.0 -1.962000000000e+01 0.0 
0.0 -1.962000000000e+01 0.0 
0.0 -1.962000000000e+01 0.0 
0.0 -1.962000000000e+01 0.0 
0.0 -1.962000000000e+01 0.0 
0.0 -1.962000000000e+01 0.0 
0.0 -1.962000000000e+01 0.0 
0.0 -1.962000000000e+01 0.0 
0.0 -1.962000000000e+01 0.0 
0.0 -1.962000000000e+01 0.0 
0.0 -1.962000000000e+01 0.0 
0.0 -1.962000000000e+01 0.0 
0.0 -1.962000000000e+01 0.0 
0.0 -1.962000000000e+01 0.0 
0.0 -1.962000000000e+01 0.0 
0.0 -1.962000000000e+01 0.0 
0.0 -1.962000000000e+01 0.0 
0.0 -1.962000000000e+01 0.0 
0.0 -1.962000000000e+01 0.0 
0.0 -1.962000000000e+01 0.0 
0.0 -1.962000000000e+01 0.0 
0.0 -1.962000000000e+01 0.0 
0.0 -1.962000000000e+01 0.0 
0.0 -1.962000000000e+01 0.0 
0.0 -1.962000000000e+01 0.0 
0.0 -1.962000000000e+01 0.0 
0.0 -1.962000000000e+01 0.0 
0.0 -1.962000000000e+01 0.0 
0.0 -1.962000000000e+01 0.0 
0.0 -1.962000000000e+01 0.0 
0.0 -1.962000000000e+01 0.0 
0.0 -1.962000000000e+01 0.0 
0.0 -1.962000000000e+01 0.0 
0.0 -1.962000000000e+01 0.0 
0.0 -1.962000000000e+01 0.0 
0.0 -1.962000000000e+01 0.0 
0.0 -1.962000000000e+01 0.0 
0.0 -1.962000000000e+01 0.0 
0.0 -1.962000000000e+01 0.0 
0.0 -1.962000000000e+01 0.0 
0.0 -1.962000000000e+01 0.0 
0.0 -1.962000000000e+01 0.0 
0.0 -1.962000000000e+01 0.0 
0.0 -1.962000000000e+01 0.0 
0.0 -1.962000000000e+01 0.0 
0.0 -1.962000000000e+01 0.0 
0.0 -1.962000000000e+01 0.0 
0.0 -1.962000000000e+01 0.0 
0.0 -1.962000000000e+01 0.0 
0.0 -1.962000000000e+01 0.0 
0.0 -1.962000000000e+01 0.0 
0.0 -1.962000000000e+01 0.0 
0.0 -1.962000000000e+01 0.0 
0.0 -1.962000000000e+01 0.0 
0.0 -1.962000000000e+01 0.0 
0.0 -1.962000000000e+01 0.0 
0.0 -1.962000000000e+01 0.0 
0.0 -1.962000000000e+01 0.0 
0.0 -1.962000000000e+01 0.0 
0.0 -1.962000000000e+01 0.0 
0.0 -1.962000000000e+01 0.0 
0.0 -1.962000000000e+01 0.0 
0.0 -1.962000000000e+01 0.0 
0.0 -1.962000000000e+01 0.0 
0.0 -1.962000000000e+01 0.0 
0.0 -1.962000000000e+01 0.0 
0.0 -1.962000000000e+01 0.0 
0.0 -1.962000000000e+01 0.0 
0.0 -1.962000000000e+01 0.0 
0.0 -1.962000000000e+01 0.0 
0.0 -1.962000000000e+01 0.0 
0.0 -1.962000000000e+01 0.0 
0.0 -1.962000000000e+01 0.0 
0.0 -1.962000000000e+01 0.0 
0.0 -1.962000000000e+01 0.0 
0.0 -1.962000000000e+01 0.0 
0.0 -1.962000000000e+01 0.0 
0.0 -1.962000000000e+01 0.0 
0.0 -1.962000000000e+01 0.0 
0.0 -1.962000000000e+01 0.0 
0.0 -1.962000000000e+01 0.0 
0.0 -1.962000000000e+01 0.0 
0.0 -1.962000000000e+01 0.0 
0.0 -1.962000000000e+01 0.0 
0.0 -1.962000000000e+01 0.0 
0.0 -1.962000000000e+01 0.0 
0.0 -1.962000000000e+01 0.0 
0.0 -1.962000000000e+01 0.0 
0.0 -1.962000000000e+01 0.0 
0.0 -1.962000000000e+01 0.0 
0.0 -1.962000000000e+01 0.0 
0.0 -1.962000000000e+01 0.0 
0.0 -1.962000000000e+01 0.0 
0.0 -1.962000000000e+01 0.0 
0.0 -1.962000000000e+01 0.0 
0.0 -1.962000000000e+01 0.0 
0.0 -1.962000000000e+01 0.0 
0.0 -1.962000000000e+01 0.0 
0.0 -1.962000000000e+01 0.0 
0.0 -1.962000000000e+01 0.0 
0.0 -1.962000000000e+01 0.0 
0.0 -1.962000000000e+01 0.0 
0.0 -1.962000000000e+01 0.0 
0.0 -1.962000000000e+01 0.0 
0.0 -1.962000000000e+01 0.0 
0.0 -1.962000000000e+01 0.0 
0.0 -1.962000000000e+01 0.0 
0.0 -1.962000000000e+01 0.0 
0.0 -1.962000000000e+01 0.0 
0.0 -1.962000000000e+01 0.0 
0.0 -1.962000000000e+01 0.0 
0.0 -1.962000000000e+01 0.0 
0.0 -1.962000000000e+01 0.0 
0.0 -1.962000000000e+01 0.0 
0.0 -1.962000000000e+01 0.0 
0.0 -1.962000000000e+01 0.0 
0.0 -1.962000000000e+01 0.0 
0.0 -1.962000000000e+01 0.0 
0.0 -1.962000000000e+01 0.0 
0.0 -1.962000000000e+01 0.0 
0.0 -1.962000000000e+01 0.0 
0.0 -1.962000000000e+01 0.0 
0.0 -1.962000000000e+01 0.0 
0.0 -1.962000000000e+01 0.0 
0.0 -1.962000000000e+01 0.0 
0.0 -1.962000000000e+01 0.0 
0.0 -1.962000000000e+01 0.0 
0.0 -1.962000000000e+01 0.0 
0.0 -1.962000000000e+01 0.0 
0.0 -1.962000000000e+01 0.0 
0.0 -1.962000000000e+01 0.0 
0.0 -1.962000000000e+01 0.0 
0.0 -1.962000000000e+01 0.0 
0.0 -1.962000000000e+01 0.0 
0.0 -1.962000000000e+01 0.0 
0.0 -1.962000000000e+01 0.0 
0.0 -1.962000000000e+01 0.0 
0.0 -1.962000000000e+01 0.0 
0.0 -1.962000000000e+01 0.0 
0.0 -1.962000000000e+01 0.0 
0.0 -1.962000000000e+01 0.0 
0.0 -1.962000000000e+01 0.0 
0.0 -1.962000000000e+01 0.0 
0.0 -1.962000000000e+01 0.0 
0.0 -1.962000000000e+01 0.0 
0.0 -1.962000000000e+01 0.0 
0.0 -1.962000000000e+01 0.0 
0.0 -1.962000000000e+01 0.0 
0.0 -1.962000000000e+01 0.0 
0.0 -1.962000000000e+01 0.0 
0.0 -1.962000000000e+01 0.0 
0.0 -1.962000000000e+01 0.0 
0.0 -1.962000000000e+01 0.0 
0.0 -1.962000000000e+01 0.0 
0.0 -1.962000000000e+01 0.0 
0.0 -1.962000000000e+01 0.0 
0.0 -1.962000000000e+01 0.0 
0.0 -1.962000000000e+01 0.0 
0.0 -1.962000000000e+01 0.0 
0.0 -1.962000000000e+01 0.0 
0.0 -1.962000000000e+01 0.0 
0.0 -1.962000000000e+01 0.0 
0.0 -1.962000000000e+01 0.0 
0.0 -1.962000000000e+01 0.0 
0.0 -1.962000000000e+01 0.0 
0.0 -1.962000000000e+01 0.0 
0.0 -1.962000000000e+01 0.0 
0.0 -1.962000000000e+01 0.0 
0.0 -1.962000000000e+01 0.0 
0.0 -1.962000000000e+01 0.0 
0.0 -1.962000000000e+01 0.0 
0.0 -1.962000000000e+01 0.0 
0.0 -1.962000000000e+01 0.0 
0.0 -1.962000000000e+01 0.0 
0.0 -1.962000000000e+01 0.0 
0.0 -1.962000000000e+01 0.0 
0.0 -1.962000000000e+01 0.0 
0.0 -1.962000000000e+01 0.0 
0.0 -1.962000000000e+01 0.0 
0.0 -1.962000000000e+01 0.0 
0.0 -1.962000000000e+01 0.0 
0.0 -1.962000000000e+01 0.0 
0.0 -1.962000000000e+01 0.0 
0.0 -1.962000000000e+01 0.0 
0.0 -1.962000000000e+01 0.0 
0.0 -1.962000000000e+01 0.0 
0.0 -1.962000000000e+01 0.0 
0.0 -1.962000000000e+01 0.0 
0.0 -1.962000000000e+01 0.0 
0.0 -1.962000000000e+01 0.0 
0.0 -1.962000000000e+01 0.0 
0.0 -1.962000000000e+01 0.0 
0.0 -1.962000000000e+01 0.0 
0.0 -1.962000000000e+01 0.0 
0.0 -1.962000000000e+01 0.0 
0.0 -1.962000000000e+01 0.0 
0.0 -1.962000000000e+01 0.0 
0.0 -1.962000000000e+01 0.0 
0.0 -1.962000000000e+01 0.0 
0.0 -1.962000000000e+01 0.0 
0.0 -1.962000000000e+01 0.0 
0.0 -1.962000000000e+01 0.0 
0.0 -1.962000000000e+01 0.0 
0.0 -1.962000000000e+01 0.0 
0.0 -1.962000000000e+01 0.0 
0.0 -1.962000000000e+01 0.0 
0.0 -1.962000000000e+01 0.0 
0.0 -1.962000000000e+01 0.0 
0.0 -1.962000000000e+01 0.0 
0.0 -1.962000000000e+01 0.0 
0.0 -1.962000000000e+01 0.0 
0.0 -1.962000000000e+01 0.0 
0.0 -1.962000000000e+01 0.0 
0.0 -1.962000000000e+01 0.0 
0.0 -1.962000000000e+01 0.0 
0.0 -1.962000000000e+01 0.0 
0.0 -1.962000000000e+01 0.0 
0.0 -1.962000000000e+01 0.0 
0.0 -1.962000000000e+01 0.0 
0.0 -1.962000000000e+01 0.0 
0.0 -1.962000000000e+01 0.0 
0.0 -1.962000000000e+01 0.0 
0.0 -1.962000000000e+01 0.0 
0.0 -1.962000000000e+01 0.0 
0.0 -1.962000000000e+01 0.0 
0.0 -1.962000000000e+01 0.0 
0.0 -1.962000000000e+01 0.0 
0.0 -1.962000000000e+01 0.0 
0.0 -1.962000000000e+01 0.0 
0.0 -1.962000000000e+01 0.0 
0.0 -1.962000000000e+01 0.0 
0.0 -1.962000000000e+01 0.0 
0.0 -1.962000000000e+01 0.0 
0.0 -1.962000000000e+01 0.0 
0.0 -1.962000000000e+01 0.0 
0.0 -1.962000000000e+01 0.0 
0.0 -1.962000000000e+01 0.0 
0.0 -1.962000000000e+01 0.0 
0.0 -1.962000000000e+01 0.0 
0.0 -1.962000000000e+01 0.0 
0.0 -1.962000000000e+01 0.0 
0.0 -1.962000000000e+01 0.0 
0.0 -1.962000000000e+01 0.0 
0.0 -1.962000000000e+01 0.0 
0.0 -1.962000000000e+01 0.0 
0.0 -1.962000000000e+01 0.0 
0.0 -1.962000000000e+01 0.0 
0.0 -1.962000000000e+01 0.0 
0.0 -1.962000000000e+01 0.0 
0.0 -1.962000000000e+01 0.0 
0.0 -1.962000000000e+01 0.0 
0.0 -1.962000000000e+01 0.0 
0.0 -1.962000000000e+01 0.0 
0.0 -1.962000000000e+01 0.0 
0.0 -1.962000000000e+01 0.0 
0.0 -1.962000000000e+01 0.0 
0.0 -1.962000000000e+01 0.0 
0.0 -1.962000000000e+01 0.0 
0.0 -1.962000000000e+01 0.0 
0.0 -1.962000000000e+01 0.0 
0.0 -1.962000000000e+01 0.0 
0.0 -1.962000000000e+01 0.0 
0.0 -1.962000000000e+01 0.0 
0.0 -1.962000000000e+01 0.0 
0.0 -1.962000000000e+01 0.0 
0.0 -1.962000000000e+01 0.0 
0.0 -1.962000000000e+01 0.0 
0.0 -1.962000000000e+01 0.0 
0.0 -1.962000000000e+01 0.0 
0.0 -1.962000000000e+01 0.0 
0.0 -1.962000000000e+01 0.0 
0.0 -1.962000000000e+01 0.0 
0.0 -1.962000000000e+01 0.0 
0.0 -1.962000000000e+01 0.0 
0.0 -1.962000000000e+01 0.0 
0.0 -1.962000000000e+01 0.0 
0.0 -1.962000000000e+01 0.0 
0.0 -1.962000000000e+01 0.0 
0.0 -1.962000000000e+01 0.0 
0.0 -1.962000000000e+01 0.0 
0.0 -1.962000000000e+01 0.0 
0.0 -1.962000000000e+01 0.0 
0.0 -1.962000000000e+01 0.0 
0.0 -1.962000000000e+01 0.0 
0.0 -1.962000000000e+01 0.0 
0.0 -1.962000000000e+01 0.0 
0.0 -1.962000000000e+01 0.0 
0.0 -1.962000000000e+01 0.0 
0.0 -1.962000000000e+01 0.0 
0.0 -1.962000000000e+01 0.0 
0.0 -1.962000000000e+01 0.0 
0.0 -1.962000000000e+01 0.0 
0.0 -1.962000000000e+01 0.0 
0.0 -1.962000000000e+01 0.0 
0.0 -1.962000000000e+01 0.0 
0.0 -1.962000000000e+01 0.0 
0.0 -1.962000000000e+01 0.0 
0.0 -1.962000000000e+01 0.0 
0.0 -1.962000000000e+01 0.0 
0.0 -1.962000000000e+01 0.0 
0.0 -1.962000000000e+01 0.0 
0.0 -1.962000000000e+01 0.0 
0.0 -1.962000000000e+01 0.0 
0.0 -1.962000000000e+01 0.0 
0.0 -1.962000000000e+01 0.0 
0.0 -1.962000000000e+01 0.0 
0.0 -1.962000000000e+01 0.0 
0.0 -1.962000000000e+01 0.0 
0.0 -1.962000000000e+01 0.0 
0.0 -1.962000000000e+01 0.0 
0.0 -1.962000000000e+01 0.0 
0.0 -1.962000000000e+01 0.0 
0.0 -1.962000000000e+01 0.0 
0.0 -1.962000000000e+01 0.0 
0.0 -1.962000000000e+01 0.0 
0.0 -1.962000000000e+01 0.0 
0.0 -1.962000000000e+01 0.0 
0.0 -1.962000000000e+01 0.0 
0.0 -1.962000000000e+01 0.0 
0.0 -1.962000000000e+01 0.0 
0.0 -1.962000000000e+01 0.0 
0.0 -1.962000000000e+01 0.0 
0.0 -1.962000000000e+01 0.0 
0.0 -1.962000000000e+01 0.0 
0.0 -1.962000000000e+01 0.0 
0.0 -1.962000000000e+01 0.0 
0.0 -1.962000000000e+01 0.0 
0.0 -1.962000000000e+01 0.0 
0.0 -1.962000000000e+01 0.0 
0.0 -1.962000000000e+01 0.0 
0.0 -1.962000000000e+01 0.0 
0.0 -1.962000000000e+01 0.0 
0.0 -1.962000000000e+01 0.0 
0.0 -1.962000000000e+01 0.0 
0.0 -1.962000000000e+01 0.0 
0.0 -1.962000000000e+01 0.0 
0.0 -1.962000000000e+01 0.0 
0.0 -1.962000000000e+01 0.0 
0.0 -1.962000000000e+01 0.0 
0.0 -1.962000000000e+01 0.0 
0.0 -1.962000000000e+01 0.0 
0.0 -1.962000000000e+01 0.0 
0.0 -1.962000000000e+01 0.0 
0.0 -1.962000000000e+01 0.0 
0.0 -1.962000000000e+01 0.0 
0.0 -1.962000000000e+01 0.0 
0.0 -1.962000000000e+01 0.0 
0.0 -1.962000000000e+01 0.0 
0.0 -1.962000000000e+01 0.0 
0.0 -1.962000000000e+01 0.0 
0.0 -1.962000000000e+01 0.0 
0.0 -1.962000000000e+01 0.0 
0.0 -1.962000000000e+01 0.0 
0.0 -1.962000000000e+01 0.0 
0.0 -1.962000000000e+01 0.0 
0.0 -1.962000000000e+01 0.0 
0.0 -1.962000000000e+01 0.0 
0.0 -1.962000000000e+01 0.0 
0.0 -1.962000000000e+01 0.0 
0.0 -1.962000000000e+01 0.0 
0.0 -1.962000000000e+01 0.0 
0.0 -1.962000000000e+01 0.0 
0.0 -1.962000000000e+01 0.0 
0.0 -1.962000000000e+01 0.0 
0.0 -1.962000000000e+01 0.0 
0.0 -1.962000000000e+01 0.0 
0.0 -1.962000000000e+01 0.0 
0.0 -1.962000000000e+01 0.0 
0.0 -1.962000000000e+01 0.0 
0.0 -1.962000000000e+01 0.0 
0.0 -1.962000000000e+01 0.0 
0.0 -1.962000000000e+01 0.0 
0.0 -1.962000000000e+01 0.0 
0.0 -1.962000000000e+01 0.0 
0.0 -1.962000000000e+01 0.0 
0.0 -1.962000000000e+01 0.0 
0.0 -1.962000000000e+01 0.0 
0.0 -1.962000000000e+01 0.0 
0.0 -1.962000000000e+01 0.0 
0.0 -1.962000000000e+01 0.0 
0.0 -1.962000000000e+01 0.0 
0.0 -1.962000000000e+01 0.0 
0.0 -1.962000000000e+01 0.0 
0.0 -1.962000000000e+01 0.0 
0.0 -1.962000000000e+01 0.0 
0.0 -1.962000000000e+01 0.0 
0.0 -1.962000000000e+01 0.0 
0.0 -1.962000000000e+01 0.0 
0.0 -1.962000000000e+01 0.0 
0.0 -1.962000000000e+01 0.0 
0.0 -1.962000000000e+01 0.0 
0.0 -1.962000000000e+01 0.0 
0.0 -1.962000000000e+01 0.0 
0.0 -1.962000000000e+01 0.0 
0.0 -1.962000000000e+01 0.0 
0.0 -1.962000000000e+01 0.0 
0.0 -1.962000000000e+01 0.0 
0.0 -1.962000000000e+01 0.0 
0.0 -1.962000000000e+01 0.0 
0.0 -1.962000000000e+01 0.0 
0.0 -1.962000000000e+01 0.0 
0.0 -1.962000000000e+01 0.0 
0.0 -1.962000000000e+01 0.0 
0.0 -1.962000000000e+01 0.0 
0.0 -1.962000000000e+01 0.0 
0.0 -1.962000000000e+01 0.0 
0.0 -1.962000000000e+01 0.0 
0.0 -1.962000000000e+01 0.0 
0.0 -1.962000000000e+01 0.0 
0.0 -1.962000000000e+01 0.0 
0.0 -1.962000000000e+01 0.0 
0.0 -1.962000000000e+01 0.0 
0.0 -1.962000000000e+01 0.0 
0.0 -1.962000000000e+01 0.0 
0.0 -1.962000000000e+01 0.0 
0.0 -1.962000000000e+01 0.0 
0.0 -1.962000000000e+01 0.0 
0.0 -1.962000000000e+01 0.0 
0.0 -1.962000000000e+01 0.0 
0.0 -1.962000000000e+01 0.0 
0.0 -1.962000000000e+01 0.0 
0.0 -1.962000000000e+01 0.0 
0.0 -1.962000000000e+01 0.0 
0.0 -1.962000000000e+01 0.0 
0.0 -1.962000000000e+01 0.0 
0.0 -1.962000000000e+01 0.0 
0.0 -1.962000000000e+01 0.0 
0.0 -1.962000000000e+01 0.0 
0.0 -1.962000000000e+01 0.0 
0.0 -1.962000000000e+01 0.0 
0.0 -1.962000000000e+01 0.0 
0.0 -1.962000000000e+01 0.0 
0.0 -1.962000000000e+01 0.0 
0.0 -1.962000000000e+01 0.0 
0.0 -1.962000000000e+01 0.0 
0.0 -1.962000000000e+01 0.0 
0.0 -1.962000000000e+01 0.0 

VECTORS node_rhside_materi_fixed float
5.284628093816e-01 0.0 0.0 
2.629188895312e+01 0.0 0.0 
-8.357765681656e+01 -1.995491574683e+02 0.0 
4.617731323071e+01 -1.113137059422e+02 0.0 
-1.959243075678e+00 0.0 0.0 
-1.036523952106e+01 0.0 0.0 
-1.921062204015e+01 0.0 0.0 
-2.942840391413e+01 0.0 0.0 
-3.837653986158e+01 0.0 0.0 
-4.726328431873e+01 0.0 0.0 
-5.590188104396e+01 0.0 0.0 
-6.433776789756e+01 0.0 0.0 
-7.261469483297e+01 0.0 0.0 
-8.078419140054e+01 0.0 0.0 
-8.945196646667e+01 0.0 0.0 
-9.803300793559e+01 0.0 0.0 
-1.061444869263e+02 0.0 0.0 
-1.150879092845e+02 0.0 0.0 
-1.239787818560e+02 0.0 0.0 
-1.330245676155e+02 0.0 0.0 
-1.422216673111e+02 0.0 0.0 
-1.515053502128e+02 0.0 0.0 
-1.612684638727e+02 0.0 0.0 
1.153880760898e+00 -2.213567154227e+02 0.0 
2.008518113433e+00 -2.228705144568e+02 0.0 
5.373741719693e+00 -2.221508883928e+02 0.0 
4.352205113132e+00 -2.225741705590e+02 0.0 
7.636459894873e+00 -2.240216039594e+02 0.0 
8.982508146366e+00 -2.239214905322e+02 0.0 
1.052716211817e+01 -2.256749289013e+02 0.0 
1.257831722391e+01 -2.274810854193e+02 0.0 
1.622706566833e+01 -2.284461341408e+02 0.0 
1.593711033224e+01 -2.307467749050e+02 0.0 
2.045994942656e+01 -2.347882688453e+02 0.0 
2.278300893304e+01 -2.371446007729e+02 0.0 
2.518773775293e+01 -2.423199839486e+02 0.0 
2.770482183410e+01 -2.467293422198e+02 0.0 
3.054485172418e+01 -2.524175475313e+02 0.0 
3.270151614925e+01 -2.593848259338e+02 0.0 
3.609373228313e+01 -2.664174460466e+02 0.0 
3.767112852341e+01 -2.742925763768e+02 0.0 
3.930551945746e+01 -2.825695762629e+02 0.0 
4.034237126917e+01 -2.908322112052e+02 0.0 
4.070266653149e+01 -2.995549932597e+02 0.0 
4.145622061575e+01 -3.089029462699e+02 0.0 
4.115133752298e+01 -3.176246043312e+02 0.0 
4.069616838011e+01 -3.263094047918e+02 0.0 
3.983035932905e+01 -3.349511200539e+02 0.0 
3.833049006537e+01 -3.430234339697e+02 0.0 
3.672249042135e+01 -3.506469654077e+02 0.0 
3.477600520090e+01 -3.578575639423e+02 0.0 
3.281898368195e+01 -3.646449202423e+02 0.0 
3.006686650079e+01 -3.705658369335e+02 0.0 
2.812193261798e+01 -3.758051518190e+02 0.0 
2.526645474959e+01 -3.809105132651e+02 0.0 
2.274653797224e+01 -3.847825499105e+02 0.0 
2.024403753462e+01 -3.883545939799e+02 0.0 
1.769445084088e+01 -3.911908173460e+02 0.0 
1.540889164251e+01 -3.935329856090e+02 0.0 
1.329520283835e+01 -3.952859702946e+02 0.0 
1.121737343508e+01 -3.967382833188e+02 0.0 
9.452360714350e+00 -3.976308248104e+02 0.0 
7.881038415941e+00 -3.986636790234e+02 0.0 
6.386328247360e+00 -3.988821602113e+02 0.0 
5.252498787624e+00 -3.989922437759e+02 0.0 
4.214876914290e+00 -3.989049424092e+02 0.0 
3.286281524068e+00 -3.996307888274e+02 0.0 
2.416161741953e+00 -3.987468484740e+02 0.0 
1.735889215357e+00 -3.993355294979e+02 0.0 
1.642730647502e+00 -3.986647700237e+02 0.0 
7.635020151868e-01 -3.987891256738e+02 0.0 
4.075229392010e-01 -3.985878832853e+02 0.0 
3.379035502277e+01 0.0 0.0 
4.211859873493e+01 0.0 0.0 
4.985093235805e+01 0.0 0.0 
5.715553840689e+01 0.0 0.0 
6.426413818647e+01 0.0 0.0 
7.141253393879e+01 0.0 0.0 
7.771074430648e+01 0.0 0.0 
8.323448725778e+01 0.0 0.0 
8.999760564972e+01 0.0 0.0 
0.0 0.0 0.0 
0.0 0.0 0.0 
0.0 0.0 0.0 
0.0 0.0 0.0 
0.0 0.0 0.0 
0.0 0.0 0.0 
0.0 0.0 0.0 
0.0 0.0 0.0 
0.0 0.0 0.0 
0.0 0.0 0.0 
0.0 0.0 0.0 
1.044585986095e+01 0.0 0.0 
0.0 0.0 0.0 
0.0 0.0 0.0 
0.0 0.0 0.0 
0.0 0.0 0.0 
0.0 0.0 0.0 
0.0 0.0 0.0 
0.0 0.0 0.0 
0.0 0.0 0.0 
0.0 0.0 0.0 
0.0 0.0 0.0 
0.0 0.0 0.0 
0.0 0.0 0.0 
0.0 0.0 0.0 
0.0 0.0 0.0 
0.0 0.0 0.0 
0.0 0.0 0.0 
0.0 0.0 0.0 
0.0 0.0 0.0 
0.0 0.0 0.0 
0.0 0.0 0.0 
0.0 0.0 0.0 
0.0 0.0 0.0 
0.0 0.0 0.0 
0.0 0.0 0.0 
0.0 0.0 0.0 
0.0 0.0 0.0 
0.0 0.0 0.0 
0.0 0.0 0.0 
0.0 0.0 0.0 
0.0 0.0 0.0 
0.0 0.0 0.0 
0.0 0.0 0.0 
0.0 0.0 0.0 
0.0 0.0 0.0 
0.0 0.0 0.0 
0.0 0.0 0.0 
0.0 0.0 0.0 
0.0 0.0 0.0 
0.0 0.0 0.0 
0.0 0.0 0.0 
0.0 0.0 0.0 
0.0 0.0 0.0 
0.0 0.0 0.0 
0.0 0.0 0.0 
0.0 0.0 0.0 
0.0 0.0 0.0 
0.0 0.0 0.0 
0.0 0.0 0.0 
0.0 0.0 0.0 
0.0 0.0 0.0 
0.0 0.0 0.0 
0.0 0.0 0.0 
0.0 0.0 0.0 
0.0 0.0 0.0 
0.0 0.0 0.0 
0.0 0.0 0.0 
0.0 0.0 0.0 
0.0 0.0 0.0 
0.0 0.0 0.0 
0.0 0.0 0.0 
0.0 0.0 0.0 
0.0 0.0 0.0 
0.0 0.0 0.0 
0.0 0.0 0.0 
0.0 0.0 0.0 
0.0 0.0 0.0 
0.0 0.0 0.0 
0.0 0.0 0.0 
0.0 0.0 0.0 
0.0 0.0 0.0 
0.0 0.0 0.0 
0.0 0.0 0.0 
0.0 0.0 0.0 
0.0 0.0 0.0 
0.0 0.0 0.0 
0.0 0.0 0.0 
0.0 0.0 0.0 
0.0 0.0 0.0 
0.0 0.0 0.0 
0.0 0.0 0.0 
0.0 0.0 0.0 
0.0 0.0 0.0 
0.0 0.0 0.0 
0.0 0.0 0.0 
0.0 0.0 0.0 
0.0 0.0 0.0 
0.0 0.0 0.0 
0.0 0.0 0.0 
0.0 0.0 0.0 
0.0 0.0 0.0 
0.0 0.0 0.0 
0.0 0.0 0.0 
0.0 0.0 0.0 
0.0 0.0 0.0 
0.0 0.0 0.0 
0.0 0.0 0.0 
0.0 0.0 0.0 
0.0 0.0 0.0 
0.0 0.0 0.0 
0.0 0.0 0.0 
0.0 0.0 0.0 
0.0 0.0 0.0 
0.0 0.0 0.0 
0.0 0.0 0.0 
0.0 0.0 0.0 
0.0 0.0 0.0 
0.0 0.0 0.0 
0.0 0.0 0.0 
0.0 0.0 0.0 
0.0 0.0 0.0 
0.0 0.0 0.0 
0.0 0.0 0.0 
0.0 0.0 0.0 
0.0 0.0 0.0 
0.0 0.0 0.0 
0.0 0.0 0.0 
0.0 0.0 0.0 
0.0 0.0 0.0 
0.0 0.0 0.0 
0.0 0.0 0.0 
0.0 0.0 0.0 
0.0 0.0 0.0 
0.0 0.0 0.0 
0.0 0.0 0.0 
0.0 0.0 0.0 
0.0 0.0 0.0 
0.0 0.0 0.0 
0.0 0.0 0.0 
0.0 0.0 0.0 
0.0 0.0 0.0 
0.0 0.0 0.0 
0.0 0.0 0.0 
0.0 0.0 0.0 
0.0 0.0 0.0 
0.0 0.0 0.0 
0.0 0.0 0.0 
0.0 0.0 0.0 
0.0 0.0 0.0 
0.0 0.0 0.0 
0.0 0.0 0.0 
0.0 0.0 0.0 
0.0 0.0 0.0 
0.0 0.0 0.0 
0.0 0.0 0.0 
0.0 0.0 0.0 
0.0 0.0 0.0 
0.0 0.0 0.0 
0.0 0.0 0.0 
0.0 0.0 0.0 
0.0 0.0 0.0 
0.0 0.0 0.0 
0.0 0.0 0.0 
0.0 0.0 0.0 
0.0 0.0 0.0 
0.0 0.0 0.0 
0.0 0.0 0.0 
0.0 0.0 0.0 
0.0 0.0 0.0 
0.0 0.0 0.0 
0.0 0.0 0.0 
0.0 0.0 0.0 
0.0 0.0 0.0 
0.0 0.0 0.0 
0.0 0.0 0.0 
0.0 0.0 0.0 
0.0 0.0 0.0 
0.0 0.0 0.0 
0.0 0.0 0.0 
0.0 0.0 0.0 
0.0 0.0 0.0 
0.0 0.0 0.0 
0.0 0.0 0.0 
0.0 0.0 0.0 
0.0 0.0 0.0 
0.0 0.0 0.0 
0.0 0.0 0.0 
0.0 0.0 0.0 
0.0 0.0 0.0 
0.0 0.0 0.0 
0.0 0.0 0.0 
0.0 0.0 0.0 
0.0 0.0 0.0 
0.0 0.0 0.0 
0.0 0.0 0.0 
0.0 0.0 0.0 
0.0 0.0 0.0 
0.0 0.0 0.0 
0.0 0.0 0.0 
0.0 0.0 0.0 
0.0 0.0 0.0 
0.0 0.0 0.0 
0.0 0.0 0.0 
0.0 0.0 0.0 
0.0 0.0 0.0 
0.0 0.0 0.0 
0.0 0.0 0.0 
0.0 0.0 0.0 
0.0 0.0 0.0 
0.0 0.0 0.0 
0.0 0.0 0.0 
0.0 0.0 0.0 
0.0 0.0 0.0 
0.0 0.0 0.0 
0.0 0.0 0.0 
0.0 0.0 0.0 
0.0 0.0 0.0 
0.0 0.0 0.0 
0.0 0.0 0.0 
0.0 0.0 0.0 
0.0 0.0 0.0 
0.0 0.0 0.0 
0.0 0.0 0.0 
0.0 0.0 0.0 
0.0 0.0 0.0 
0.0 0.0 0.0 
0.0 0.0 0.0 
0.0 0.0 0.0 
0.0 0.0 0.0 
0.0 0.0 0.0 
0.0 0.0 0.0 
0.0 0.0 0.0 
0.0 0.0 0.0 
0.0 0.0 0.0 
0.0 0.0 0.0 
0.0 0.0 0.0 
0.0 0.0 0.0 
0.0 0.0 0.0 
0.0 0.0 0.0 
0.0 0.0 0.0 
0.0 0.0 0.0 
0.0 0.0 0.0 
0.0 0.0 0.0 
0.0 0.0 0.0 
0.0 0.0 0.0 
0.0 0.0 0.0 
0.0 0.0 0.0 
0.0 0.0 0.0 
0.0 0.0 0.0 
0.0 0.0 0.0 
0.0 0.0 0.0 
0.0 0.0 0.0 
0.0 0.0 0.0 
0.0 0.0 0.0 
0.0 0.0 0.0 
0.0 0.0 0.0 
0.0 0.0 0.0 
0.0 0.0 0.0 
0.0 0.0 0.0 
0.0 0.0 0.0 
0.0 0.0 0.0 
0.0 0.0 0.0 
0.0 0.0 0.0 
0.0 0.0 0.0 
0.0 0.0 0.0 
0.0 0.0 0.0 
0.0 0.0 0.0 
0.0 0.0 0.0 
0.0 0.0 0.0 
0.0 0.0 0.0 
0.0 0.0 0.0 
0.0 0.0 0.0 
0.0 0.0 0.0 
0.0 0.0 0.0 
0.0 0.0 0.0 
0.0 0.0 0.0 
0.0 0.0 0.0 
0.0 0.0 0.0 
0.0 0.0 0.0 
0.0 0.0 0.0 
0.0 0.0 0.0 
0.0 0.0 0.0 
0.0 0.0 0.0 
0.0 0.0 0.0 
0.0 0.0 0.0 
0.0 0.0 0.0 
0.0 0.0 0.0 
0.0 0.0 0.0 
0.0 0.0 0.0 
0.0 0.0 0.0 
0.0 0.0 0.0 
0.0 0.0 0.0 
0.0 0.0 0.0 
0.0 0.0 0.0 
0.0 0.0 0.0 
0.0 0.0 0.0 
0.0 0.0 0.0 
0.0 0.0 0.0 
0.0 0.0 0.0 
0.0 0.0 0.0 
0.0 0.0 0.0 
0.0 0.0 0.0 
0.0 0.0 0.0 
0.0 0.0 0.0 
0.0 0.0 0.0 
0.0 0.0 0.0 
0.0 0.0 0.0 
0.0 0.0 0.0 
0.0 0.0 0.0 
0.0 0.0 0.0 
0.0 0.0 0.0 
0.0 0.0 0.0 
0.0 0.0 0.0 
0.0 0.0 0.0 
0.0 0.0 0.0 
0.0 0.0 0.0 
0.0 0.0 0.0 
0.0 0.0 0.0 
0.0 0.0 0.0 
0.0 0.0 0.0 
0.0 0.0 0.0 
0.0 0.0 0.0 
0.0 0.0 0.0 
0.0 0.0 0.0 
0.0 0.0 0.0 
0.0 0.0 0.0 
0.0 0.0 0.0 
0.0 0.0 0.0 
0.0 0.0 0.0 
0.0 0.0 0.0 
0.0 0.0 0.0 
0.0 0.0 0.0 
0.0 0.0 0.0 
0.0 0.0 0.0 
0.0 0.0 0.0 
0.0 0.0 0.0 
0.0 0.0 0.0 
0.0 0.0 0.0 
0.0 0.0 0.0 
0.0 0.0 0.0 
0.0 0.0 0.0 
0.0 0.0 0.0 
0.0 0.0 0.0 
0.0 0.0 0.0 
0.0 0.0 0.0 
0.0 0.0 0.0 
0.0 0.0 0.0 
0.0 0.0 0.0 
0.0 0.0 0.0 
0.0 0.0 0.0 
0.0 0.0 0.0 
0.0 0.0 0.0 
0.0 0.0 0.0 
0.0 0.0 0.0 
0.0 0.0 0.0 
0.0 0.0 0.0 
0.0 0.0 0.0 
0.0 0.0 0.0 
0.0 0.0 0.0 
0.0 0.0 0.0 
0.0 0.0 0.0 
0.0 0.0 0.0 
0.0 0.0 0.0 
0.0 0.0 0.0 
0.0 0.0 0.0 
0.0 0.0 0.0 
0.0 0.0 0.0 
0.0 0.0 0.0 
0.0 0.0 0.0 
0.0 0.0 0.0 
0.0 0.0 0.0 
0.0 0.0 0.0 
0.0 0.0 0.0 
0.0 0.0 0.0 
0.0 0.0 0.0 
0.0 0.0 0.0 
0.0 0.0 0.0 
0.0 0.0 0.0 
0.0 0.0 0.0 
0.0 0.0 0.0 
0.0 0.0 0.0 
0.0 0.0 0.0 
0.0 0.0 0.0 
0.0 0.0 0.0 
0.0 0.0 0.0 
0.0 0.0 0.0 
0.0 0.0 0.0 
0.0 0.0 0.0 
0.0 0.0 0.0 
0.0 0.0 0.0 
0.0 0.0 0.0 
0.0 0.0 0.0 
0.0 0.0 0.0 
0.0 0.0 0.0 
0.0 0.0 0.0 
0.0 0.0 0.0 
0.0 0.0 0.0 
0.0 0.0 0.0 
0.0 0.0 0.0 
0.0 0.0 0.0 
0.0 0.0 0.0 
0.0 0.0 0.0 
0.0 0.0 0.0 
0.0 0.0 0.0 
0.0 0.0 0.0 
0.0 0.0 0.0 
0.0 0.0 0.0 
0.0 0.0 0.0 
0.0 0.0 0.0 
0.0 0.0 0.0 
0.0 0.0 0.0 
0.0 0.0 0.0 
0.0 0.0 0.0 
0.0 0.0 0.0 
0.0 0.0 0.0 
0.0 0.0 0.0 
0.0 0.0 0.0 
0.0 0.0 0.0 
0.0 0.0 0.0 
0.0 0.0 0.0 
0.0 0.0 0.0 
0.0 0.0 0.0 
0.0 0.0 0.0 
0.0 0.0 0.0 
0.0 0.0 0.0 
0.0 0.0 0.0 
0.0 0.0 0.0 
0.0 0.0 0.0 
0.0 0.0 0.0 
0.0 0.0 0.0 
0.0 0.0 0.0 
0.0 0.0 0.0 
0.0 0.0 0.0 
0.0 0.0 0.0 
0.0 0.0 0.0 
0.0 0.0 0.0 
0.0 0.0 0.0 
0.0 0.0 0.0 
0.0 0.0 0.0 
0.0 0.0 0.0 
0.0 0.0 0.0 
0.0 0.0 0.0 
0.0 0.0 0.0 
0.0 0.0 0.0 
0.0 0.0 0.0 
0.0 0.0 0.0 
0.0 0.0 0.0 
0.0 0.0 0.0 
0.0 0.0 0.0 
0.0 0.0 0.0 
0.0 0.0 0.0 
0.0 0.0 0.0 
0.0 0.0 0.0 
0.0 0.0 0.0 
0.0 0.0 0.0 
0.0 0.0 0.0 
0.0 0.0 0.0 
0.0 0.0 0.0 
0.0 0.0 0.0 
0.0 0.0 0.0 
0.0 0.0 0.0 
0.0 0.0 0.0 
0.0 0.0 0.0 
0.0 0.0 0.0 
0.0 0.0 0.0 
0.0 0.0 0.0 
0.0 0.0 0.0 
0.0 0.0 0.0 
0.0 0.0 0.0 
0.0 0.0 0.0 
0.0 0.0 0.0 
0.0 0.0 0.0 
0.0 0.0 0.0 
0.0 0.0 0.0 
0.0 0.0 0.0 
0.0 0.0 0.0 
0.0 0.0 0.0 
0.0 0.0 0.0 
0.0 0.0 0.0 
0.0 0.0 0.0 
0.0 0.0 0.0 
0.0 0.0 0.0 
0.0 0.0 0.0 
0.0 0.0 0.0 
0.0 0.0 0.0 
0.0 0.0 0.0 
0.0 0.0 0.0 
0.0 0.0 0.0 
0.0 0.0 0.0 
0.0 0.0 0.0 
0.0 0.0 0.0 
0.0 0.0 0.0 
0.0 0.0 0.0 
0.0 0.0 0.0 
0.0 0.0 0.0 
0.0 0.0 0.0 
0.0 0.0 0.0 
0.0 0.0 0.0 
0.0 0.0 0.0 
0.0 0.0 0.0 
0.0 0.0 0.0 
0.0 0.0 0.0 
0.0 0.0 0.0 
0.0 0.0 0.0 
0.0 0.0 0.0 
0.0 0.0 0.0 
0.0 0.0 0.0 
0.0 0.0 0.0 
0.0 0.0 0.0 
0.0 0.0 0.0 
0.0 0.0 0.0 
0.0 0.0 0.0 
0.0 0.0 0.0 
0.0 0.0 0.0 
0.0 0.0 0.0 
0.0 0.0 0.0 
0.0 0.0 0.0 
0.0 0.0 0.0 
0.0 0.0 0.0 
0.0 0.0 0.0 
0.0 0.0 0.0 
0.0 0.0 0.0 
0.0 0.0 0.0 
0.0 0.0 0.0 
0.0 0.0 0.0 
0.0 0.0 0.0 
0.0 0.0 0.0 
0.0 0.0 0.0 
0.0 0.0 0.0 
0.0 0.0 0.0 
0.0 0.0 0.0 
0.0 0.0 0.0 
0.0 0.0 0.0 
0.0 0.0 0.0 
0.0 0.0 0.0 
0.0 0.0 0.0 
0.0 0.0 0.0 
0.0 0.0 0.0 
0.0 0.0 0.0 
0.0 0.0 0.0 
0.0 0.0 0.0 
0.0 0.0 0.0 
0.0 0.0 0.0 
0.0 0.0 0.0 
0.0 0.0 0.0 
0.0 0.0 0.0 
0.0 0.0 0.0 
0.0 0.0 0.0 
0.0 0.0 0.0 
0.0 0.0 0.0 
0.0 0.0 0.0 
0.0 0.0 0.0 
0.0 0.0 0.0 
0.0 0.0 0.0 
0.0 0.0 0.0 
0.0 0.0 0.0 
0.0 0.0 0.0 
0.0 0.0 0.0 
0.0 0.0 0.0 
0.0 0.0 0.0 
0.0 0.0 0.0 
0.0 0.0 0.0 
0.0 0.0 0.0 
0.0 0.0 0.0 
0.0 0.0 0.0 
0.0 0.0 0.0 
0.0 0.0 0.0 
0.0 0.0 0.0 
0.0 0.0 0.0 
0.0 0.0 0.0 
0.0 0.0 0.0 
0.0 0.0 0.0 
0.0 0.0 0.0 
0.0 0.0 0.0 
0.0 0.0 0.0 
0.0 0.0 0.0 
0.0 0.0 0.0 
0.0 0.0 0.0 
0.0 0.0 0.0 
0.0 0.0 0.0 
0.0 0.0 0.0 
0.0 0.0 0.0 
0.0 0.0 0.0 
0.0 0.0 0.0 
0.0 0.0 0.0 
0.0 0.0 0.0 
0.0 0.0 0.0 
0.0 0.0 0.0 
0.0 0.0 0.0 
0.0 0.0 0.0 
0.0 0.0 0.0 
0.0 0.0 0.0 
0.0 0.0 0.0 
0.0 0.0 0.0 
0.0 0.0 0.0 
0.0 0.0 0.0 
0.0 0.0 0.0 
0.0 0.0 0.0 
0.0 0.0 0.0 
0.0 0.0 0.0 
0.0 0.0 0.0 
0.0 0.0 0.0 
0.0 0.0 0.0 
0.0 0.0 0.0 
0.0 0.0 0.0 
0.0 0.0 0.0 
0.0 0.0 0.0 
0.0 0.0 0.0 
0.0 0.0 0.0 
0.0 0.0 0.0 
0.0 0.0 0.0 
0.0 0.0 0.0 
0.0 0.0 0.0 
0.0 0.0 0.0 
0.0 0.0 0.0 
0.0 0.0 0.0 
0.0 0.0 0.0 
0.0 0.0 0.0 
0.0 0.0 0.0 
0.0 0.0 0.0 
0.0 0.0 0.0 
0.0 0.0 0.0 
0.0 0.0 0.0 
0.0 0.0 0.0 
0.0 0.0 0.0 
0.0 0.0 0.0 
0.0 0.0 0.0 
0.0 0.0 0.0 
0.0 0.0 0.0 
0.0 0.0 0.0 
0.0 0.0 0.0 
0.0 0.0 0.0 
0.0 0.0 0.0 
0.0 0.0 0.0 
0.0 0.0 0.0 
0.0 0.0 0.0 
0.0 0.0 0.0 
0.0 0.0 0.0 
0.0 0.0 0.0 
0.0 0.0 0.0 
0.0 0.0 0.0 
0.0 0.0 0.0 
0.0 0.0 0.0 
0.0 0.0 0.0 
0.0 0.0 0.0 
0.0 0.0 0.0 
0.0 0.0 0.0 
0.0 0.0 0.0 
0.0 0.0 0.0 
0.0 0.0 0.0 
0.0 0.0 0.0 
0.0 0.0 0.0 
0.0 0.0 0.0 
0.0 0.0 0.0 
0.0 0.0 0.0 
0.0 0.0 0.0 
0.0 0.0 0.0 
0.0 0.0 0.0 
0.0 0.0 0.0 
0.0 0.0 0.0 
0.0 0.0 0.0 
0.0 0.0 0.0 
0.0 0.0 0.0 
0.0 0.0 0.0 
0.0 0.0 0.0 
0.0 0.0 0.0 
0.0 0.0 0.0 
0.0 0.0 0.0 
0.0 0.0 0.0 
0.0 0.0 0.0 
0.0 0.0 0.0 
0.0 0.0 0.0 
0.0 0.0 0.0 
0.0 0.0 0.0 
0.0 0.0 0.0 
0.0 0.0 0.0 
0.0 0.0 0.0 
0.0 0.0 0.0 
0.0 0.0 0.0 
0.0 0.0 0.0 
0.0 0.0 0.0 
0.0 0.0 0.0 
0.0 0.0 0.0 
0.0 0.0 0.0 
0.0 0.0 0.0 
0.0 0.0 0.0 
0.0 0.0 0.0 
0.0 0.0 0.0 
0.0 0.0 0.0 
0.0 0.0 0.0 
0.0 0.0 0.0 
0.0 0.0 0.0 
0.0 0.0 0.0 
0.0 0.0 0.0 
0.0 0.0 0.0 
0.0 0.0 0.0 
0.0 0.0 0.0 
0.0 0.0 0.0 
0.0 0.0 0.0 
0.0 0.0 0.0 
0.0 0.0 0.0 
0.0 0.0 0.0 
0.0 0.0 0.0 
0.0 0.0 0.0 
0.0 0.0 0.0 
0.0 0.0 0.0 
0.0 0.0 0.0 
0.0 0.0 0.0 
0.0 0.0 0.0 
0.0 0.0 0.0 
0.0 0.0 0.0 
0.0 0.0 0.0 
0.0 0.0 0.0 
0.0 0.0 0.0 
0.0 0.0 0.0 
0.0 0.0 0.0 
0.0 0.0 0.0 
0.0 0.0 0.0 
0.0 0.0 0.0 
0.0 0.0 0.0 
0.0 0.0 0.0 
0.0 0.0 0.0 
0.0 0.0 0.0 
0.0 0.0 0.0 
0.0 0.0 0.0 
0.0 0.0 0.0 
0.0 0.0 0.0 
0.0 0.0 0.0 
0.0 0.0 0.0 
0.0 0.0 0.0 
0.0 0.0 0.0 
0.0 0.0 0.0 
0.0 0.0 0.0 
0.0 0.0 0.0 
0.0 0.0 0.0 
0.0 0.0 0.0 
0.0 0.0 0.0 
0.0 0.0 0.0 
0.0 0.0 0.0 
0.0 0.0 0.0 
0.0 0.0 0.0 
0.0 0.0 0.0 
0.0 0.0 0.0 
0.0 0.0 0.0 
0.0 0.0 0.0 
0.0 0.0 0.0 
0.0 0.0 0.0 
0.0 0.0 0.0 
0.0 0.0 0.0 
0.0 0.0 0.0 
0.0 0.0 0.0 
0.0 0.0 0.0 
0.0 0.0 0.0 
0.0 0.0 0.0 
0.0 0.0 0.0 
0.0 0.0 0.0 
0.0 0.0 0.0 
0.0 0.0 0.0 
0.0 0.0 0.0 
0.0 0.0 0.0 
0.0 0.0 0.0 
0.0 0.0 0.0 
0.0 0.0 0.0 
0.0 0.0 0.0 
0.0 0.0 0.0 
0.0 0.0 0.0 
0.0 0.0 0.0 
0.0 0.0 0.0 
0.0 0.0 0.0 
0.0 0.0 0.0 
0.0 0.0 0.0 
0.0 0.0 0.0 
0.0 0.0 0.0 
0.0 0.0 0.0 
0.0 0.0 0.0 
0.0 0.0 0.0 
0.0 0.0 0.0 
0.0 0.0 0.0 
0.0 0.0 0.0 
0.0 0.0 0.0 
0.0 0.0 0.0 
0.0 0.0 0.0 
0.0 0.0 0.0 
0.0 0.0 0.0 
0.0 0.0 0.0 
0.0 0.0 0.0 
0.0 0.0 0.0 
0.0 0.0 0.0 
0.0 0.0 0.0 
0.0 0.0 0.0 
0.0 0.0 0.0 
0.0 0.0 0.0 
0.0 0.0 0.0 
0.0 0.0 0.0 
0.0 0.0 0.0 
0.0 0.0 0.0 
0.0 0.0 0.0 
0.0 0.0 0.0 
0.0 0.0 0.0 
0.0 0.0 0.0 
0.0 0.0 0.0 
0.0 0.0 0.0 
0.0 0.0 0.0 
0.0 0.0 0.0 
0.0 0.0 0.0 
0.0 0.0 0.0 
0.0 0.0 0.0 
0.0 0.0 0.0 
0.0 0.0 0.0 
0.0 0.0 0.0 
0.0 0.0 0.0 
0.0 0.0 0.0 
0.0 0.0 0.0 
0.0 0.0 0.0 
0.0 0.0 0.0 
0.0 0.0 0.0 
0.0 0.0 0.0 
0.0 0.0 0.0 
0.0 0.0 0.0 
0.0 0.0 0.0 
0.0 0.0 0.0 
0.0 0.0 0.0 
0.0 0.0 0.0 
0.0 0.0 0.0 
0.0 0.0 0.0 
0.0 0.0 0.0 
0.0 0.0 0.0 
0.0 0.0 0.0 
0.0 0.0 0.0 
0.0 0.0 0.0 
0.0 0.0 0.0 
0.0 0.0 0.0 
0.0 0.0 0.0 
0.0 0.0 0.0 
0.0 0.0 0.0 
0.0 0.0 0.0 
0.0 0.0 0.0 
0.0 0.0 0.0 
0.0 0.0 0.0 
0.0 0.0 0.0 
0.0 0.0 0.0 
0.0 0.0 0.0 
0.0 0.0 0.0 
0.0 0.0 0.0 
0.0 0.0 0.0 
0.0 0.0 0.0 
0.0 0.0 0.0 
0.0 0.0 0.0 
0.0 0.0 0.0 
0.0 0.0 0.0 
0.0 0.0 0.0 
0.0 0.0 0.0 
0.0 0.0 0.0 
0.0 0.0 0.0 
0.0 0.0 0.0 
0.0 0.0 0.0 
0.0 0.0 0.0 
0.0 0.0 0.0 
0.0 0.0 0.0 
0.0 0.0 0.0 
0.0 0.0 0.0 
0.0 0.0 0.0 
0.0 0.0 0.0 
0.0 0.0 0.0 
0.0 0.0 0.0 
0.0 0.0 0.0 
0.0 0.0 0.0 
0.0 0.0 0.0 
0.0 0.0 0.0 
0.0 0.0 0.0 
0.0 0.0 0.0 
0.0 0.0 0.0 
0.0 0.0 0.0 
0.0 0.0 0.0 
0.0 0.0 0.0 
0.0 0.0 0.0 
0.0 0.0 0.0 
0.0 0.0 0.0 
0.0 0.0 0.0 
0.0 0.0 0.0 
0.0 0.0 0.0 
0.0 0.0 0.0 
0.0 0.0 0.0 
0.0 0.0 0.0 
0.0 0.0 0.0 
0.0 0.0 0.0 
0.0 0.0 0.0 
0.0 0.0 0.0 
0.0 0.0 0.0 
0.0 0.0 0.0 
0.0 0.0 0.0 
0.0 0.0 0.0 
0.0 0.0 0.0 
0.0 0.0 0.0 
0.0 0.0 0.0 
0.0 0.0 0.0 
0.0 0.0 0.0 
0.0 0.0 0.0 
0.0 0.0 0.0 
0.0 0.0 0.0 
0.0 0.0 0.0 
0.0 0.0 0.0 
0.0 0.0 0.0 
0.0 0.0 0.0 
0.0 0.0 0.0 
0.0 0.0 0.0 
0.0 0.0 0.0 
0.0 0.0 0.0 
0.0 0.0 0.0 
0.0 0.0 0.0 
0.0 0.0 0.0 
0.0 0.0 0.0 
0.0 0.0 0.0 
0.0 0.0 0.0 
0.0 0.0 0.0 
0.0 0.0 0.0 
0.0 0.0 0.0 
0.0 0.0 0.0 
0.0 0.0 0.0 
0.0 0.0 0.0 
0.0 0.0 0.0 
0.0 0.0 0.0 
0.0 0.0 0.0 
0.0 0.0 0.0 
0.0 0.0 0.0 
0.0 0.0 0.0 
0.0 0.0 0.0 
0.0 0.0 0.0 
0.0 0.0 0.0 
0.0 0.0 0.0 
0.0 0.0 0.0 
0.0 0.0 0.0 
0.0 0.0 0.0 
0.0 0.0 0.0 
0.0 0.0 0.0 
0.0 0.0 0.0 
0.0 0.0 0.0 
0.0 0.0 0.0 
0.0 0.0 0.0 
0.0 0.0 0.0 
0.0 0.0 0.0 
0.0 0.0 0.0 
0.0 0.0 0.0 
0.0 0.0 0.0 
0.0 0.0 0.0 
0.0 0.0 0.0 
0.0 0.0 0.0 
0.0 0.0 0.0 
0.0 0.0 0.0 
0.0 0.0 0.0 
0.0 0.0 0.0 
0.0 0.0 0.0 
0.0 0.0 0.0 
0.0 0.0 0.0 
0.0 0.0 0.0 
0.0 0.0 0.0 
0.0 0.0 0.0 
0.0 0.0 0.0 
0.0 0.0 0.0 
0.0 0.0 0.0 
0.0 0.0 0.0 
0.0 0.0 0.0 
0.0 0.0 0.0 
0.0 0.0 0.0 
0.0 0.0 0.0 

VECTORS node_materi_velocity float
0.0 -2.364230564770e-04 0.0 
0.0 1.000372690747e-02 0.0 
0.0 0.0 0.0 
0.0 0.0 0.0 
0.0 -2.292371933101e-04 0.0 
0.0 -2.158859849218e-04 0.0 
0.0 -2.026104788448e-04 0.0 
0.0 -1.895658649424e-04 0.0 
0.0 -1.762309481372e-04 0.0 
0.0 -1.622906679924e-04 0.0 
0.0 -1.476279365778e-04 0.0 
0.0 -1.322383694332e-04 0.0 
0.0 -1.162703452608e-04 0.0 
0.0 -9.994773877348e-05 0.0 
0.0 -8.361197936020e-05 0.0 
0.0 -6.768019671960e-05 0.0 
0.0 -5.248369387541e-05 0.0 
0.0 -3.815130512374e-05 0.0 
0.0 -2.551191254890e-05 0.0 
0.0 -1.490692618789e-05 0.0 
0.0 -6.668825612800e-06 0.0 
0.0 -1.316644811013e-06 0.0 
0.0 7.510295968204e-07 0.0 
0.0 0.0 0.0 
0.0 0.0 0.0 
0.0 0.0 0.0 
0.0 0.0 0.0 
0.0 0.0 0.0 
0.0 0.0 0.0 
0.0 0.0 0.0 
0.0 0.0 0.0 
0.0 0.0 0.0 
0.0 0.0 0.0 
0.0 0.0 0.0 
0.0 0.0 0.0 
0.0 0.0 0.0 
0.0 0.0 0.0 
0.0 0.0 0.0 
0.0 0.0 0.0 
0.0 0.0 0.0 
0.0 0.0 0.0 
0.0 0.0 0.0 
0.0 0.0 0.0 
0.0 0.0 0.0 
0.0 0.0 0.0 
0.0 0.0 0.0 
0.0 0.0 0.0 
0.0 0.0 0.0 
0.0 0.0 0.0 
0.0 0.0 0.0 
0.0 0.0 0.0 
0.0 0.0 0.0 
0.0 0.0 0.0 
0.0 0.0 0.0 
0.0 0.0 0.0 
0.0 0.0 0.0 
0.0 0.0 0.0 
0.0 0.0 0.0 
0.0 0.0 0.0 
0.0 0.0 0.0 
0.0 0.0 0.0 
0.0 0.0 0.0 
0.0 0.0 0.0 
0.0 0.0 0.0 
0.0 0.0 0.0 
0.0 0.0 0.0 
0.0 0.0 0.0 
0.0 0.0 0.0 
0.0 0.0 0.0 
0.0 0.0 0.0 
0.0 0.0 0.0 
0.0 0.0 0.0 
0.0 8.985944320912e-03 0.0 
0.0 7.966508022475e-03 0.0 
0.0 6.946697531698e-03 0.0 
0.0 5.927568962257e-03 0.0 
0.0 4.912002360512e-03 0.0 
0.0 3.902668872696e-03 0.0 
0.0 2.903109003292e-03 0.0 
0.0 1.917338006924e-03 0.0 
0.0 9.492452222168e-04 0.0 
2.233087520373e-04 -1.708080606181e-04 0.0 
1.581305636236e-03 7.536642983997e-03 0.0 
2.401730321143e-04 -1.008174969967e-04 0.0 
2.518143535766e-04 1.352286535484e-06 0.0 
2.651549351155e-04 1.526896961397e-04 0.0 
2.885948031188e-04 3.803571447041e-04 0.0 
3.345974188876e-04 7.210647786583e-04 0.0 
4.428696808924e-04 1.240477180187e-03 0.0 
7.389631998274e-04 2.051519532695e-03 0.0 
1.829181958474e-03 3.385179496306e-03 0.0 
1.486501522633e-03 6.172327954919e-03 0.0 
0.0 1.103993816802e-02 0.0 
1.335805269826e-04 1.001602559648e-02 0.0 
2.605156091359e-04 1.002369692003e-02 0.0 
3.779360932277e-04 1.002878359804e-02 0.0 
4.915310034429e-04 1.003506933042e-02 0.0 
5.995149451996e-04 1.003491107063e-02 0.0 
7.018278205971e-04 1.003016205497e-02 0.0 
7.968893314873e-04 1.001338448906e-02 0.0 
8.814074643742e-04 9.977215815179e-03 0.0 
9.566755021213e-04 9.910150176244e-03 0.0 
1.022849387573e-03 9.806668609186e-03 0.0 
1.082951044726e-03 9.638094864433e-03 0.0 
1.144826354140e-03 9.376318274749e-03 0.0 
1.226631109576e-03 8.985042607827e-03 0.0 
1.357575252562e-03 8.400888919293e-03 0.0 
2.333424991243e-04 -2.106466680972e-04 0.0 
2.460751523113e-04 -2.447317499875e-04 0.0 
2.581511030003e-04 -2.708480900767e-04 0.0 
2.683901652842e-04 -2.892690887006e-04 0.0 
2.746611865857e-04 -3.015154614509e-04 0.0 
2.770830271975e-04 -3.080340725389e-04 0.0 
2.755774752286e-04 -3.098125331428e-04 0.0 
2.701923060405e-04 -3.081764990127e-04 0.0 
2.612256546093e-04 -3.039035194521e-04 0.0 
2.489285439623e-04 -2.977202252638e-04 0.0 
2.336203387380e-04 -2.905490880734e-04 0.0 
2.158593026394e-04 -2.825683731193e-04 0.0 
1.958360127621e-04 -2.744742215848e-04 0.0 
1.740630749098e-04 -2.664967329920e-04 0.0 
1.507000982579e-04 -2.589704127433e-04 0.0 
1.255356606854e-04 -2.519774541199e-04 0.0 
9.683672390917e-05 -2.514866202287e-04 0.0 
6.592942161871e-05 -2.464132154940e-04 0.0 
2.984126205295e-05 -2.425192955219e-04 0.0 
5.515454345600e-04 8.211119604515e-03 0.0 
5.707951132304e-04 8.993024629289e-03 0.0 
6.279103952835e-04 9.670134774764e-03 0.0 
7.220417395540e-04 1.013319310257e-02 0.0 
8.037503175758e-04 1.045702730095e-02 0.0 
8.597817059139e-04 1.068113987914e-02 0.0 
8.816064187584e-04 1.082608742479e-02 0.0 
8.657409055036e-04 1.092087131831e-02 0.0 
8.258262808024e-04 1.098839023160e-02 0.0 
7.641693496591e-04 1.102256667301e-02 0.0 
6.853015468175e-04 1.104069366095e-02 0.0 
5.908679574649e-04 1.104835378156e-02 0.0 
4.921142238713e-04 1.105132744959e-02 0.0 
3.897028213850e-04 1.104348699525e-02 0.0 
2.899635018388e-04 1.104187950096e-02 0.0 
1.746989708356e-04 1.104725473950e-02 0.0 
2.340544429947e-04 -1.378443196585e-04 0.0 
2.461818632711e-04 -5.467822617580e-05 0.0 
2.580746971481e-04 6.965526723190e-05 0.0 
2.747819189135e-04 2.540919273415e-04 0.0 
3.051449123552e-04 5.320958594244e-04 0.0 
3.763763806174e-04 9.556829737266e-04 0.0 
5.523292231438e-04 1.600694242784e-03 0.0 
1.088237937493e-03 2.623625581566e-03 0.0 
1.942866633584e-03 4.795355560962e-03 0.0 
1.484592088887e-03 7.026248559277e-03 0.0 
2.838429431541e-04 -5.630055686403e-05 0.0 
1.299883753622e-04 1.344807577316e-05 0.0 
2.530443925165e-04 -2.961763886991e-04 0.0 
2.847305616717e-04 -2.973857508808e-04 0.0 
6.626584627648e-05 3.894161789180e-06 0.0 
3.575649470758e-04 2.569502746509e-04 0.0 
2.451179003459e-05 -9.187712736783e-05 0.0 
2.178110705659e-04 3.556030332385e-05 0.0 
5.951035196408e-04 9.278222120367e-04 0.0 
3.396424044381e-04 8.350986671898e-05 0.0 
1.629518149390e-03 2.718345320491e-03 0.0 
3.288544129524e-05 1.829774592520e-06 0.0 
1.779410502729e-04 -2.618715816518e-04 0.0 
5.086942321740e-04 1.949556171569e-04 0.0 
2.088708913574e-03 6.108404706270e-03 0.0 
2.393072351178e-05 -1.551975674557e-04 0.0 
2.252626267581e-05 -4.817547987795e-05 0.0 
6.249974034406e-04 3.487809340438e-04 0.0 
5.723625821405e-04 5.596377796291e-04 0.0 
1.652339006682e-04 7.989640665669e-04 0.0 
3.230942024079e-04 8.316061049719e-04 0.0 
4.360936168143e-04 6.741349382716e-04 0.0 
1.703352041394e-03 7.814415640254e-03 0.0 
1.110846301419e-03 8.949362358950e-03 0.0 
7.784697200891e-04 9.082640427113e-03 0.0 
8.940733094870e-05 5.404290691362e-03 0.0 
1.904321739671e-05 1.279918737217e-06 0.0 
2.661945140600e-04 -2.308222404458e-04 0.0 
1.135068337497e-04 -2.408754555262e-04 0.0 
1.412709540587e-05 -1.117186604946e-05 0.0 
4.237185621744e-04 9.153226549016e-03 0.0 
2.673154495202e-05 -1.967433456636e-04 0.0 
7.003847173630e-04 5.187136483321e-04 0.0 
2.538528204520e-04 5.082188653805e-05 0.0 
4.169689614637e-04 1.267623013371e-04 0.0 
1.811638399251e-04 2.418863937509e-05 0.0 
9.465108912907e-05 7.554768915800e-06 0.0 
2.819666829502e-04 -3.081940326383e-04 0.0 
1.347021087558e-03 8.659600192875e-03 0.0 
5.608691064802e-05 2.609634232253e-06 0.0 
7.329639579955e-05 3.444082514094e-03 0.0 
2.202979907762e-04 -2.798793350746e-04 0.0 
2.509513406962e-05 -1.249138965620e-04 0.0 
8.082704745995e-05 6.534544658809e-04 0.0 
4.411730136823e-04 5.065754903844e-04 0.0 
3.117584530412e-04 7.030859347818e-05 0.0 
9.221501992599e-04 1.566422153790e-03 0.0 
1.943093265044e-03 4.414362617410e-03 0.0 
2.602049324215e-04 -1.410273385484e-04 0.0 
1.007194037140e-04 7.336329277412e-03 0.0 
8.425172096141e-06 9.276067795473e-07 0.0 
4.351421026290e-05 -2.312501258923e-04 0.0 
4.247531011134e-05 1.501329275591e-03 0.0 
2.151746183330e-03 6.372875567266e-03 0.0 
2.420348848245e-03 5.317240985646e-03 0.0 
2.347411671801e-03 5.822302340600e-03 0.0 
2.557585286549e-03 4.654189335530e-03 0.0 
2.485575162425e-03 4.879396255138e-03 0.0 
2.584640283926e-03 3.987763125779e-03 0.0 
2.630102364746e-03 3.696165090664e-03 0.0 
2.595109064744e-03 3.185884830460e-03 0.0 
2.609134382022e-03 2.894910148147e-03 0.0 
2.469556451398e-03 4.123003385380e-03 0.0 
2.533002647562e-03 2.502309606434e-03 0.0 
2.524834499408e-03 2.242383548785e-03 0.0 
2.416161986619e-03 1.939315777973e-03 0.0 
2.397219988906e-03 1.722208205682e-03 0.0 
2.448868341142e-03 1.938614184621e-03 0.0 
2.321008819426e-03 1.475987107335e-03 0.0 
2.317382976888e-03 1.620040262951e-03 0.0 
2.198478874229e-03 1.220731819914e-03 0.0 
2.170835141788e-03 1.114145045614e-03 0.0 
2.061685707315e-03 9.123470876293e-04 0.0 
2.043634166958e-03 9.740219454086e-04 0.0 
1.924782712985e-03 7.174457642525e-04 0.0 
1.870157137446e-03 7.469862072610e-04 0.0 
1.771629896337e-03 5.378366646949e-04 0.0 
1.688104183283e-03 5.447391746392e-04 0.0 
1.611237183151e-03 3.782397425175e-04 0.0 
1.661273144806e-03 3.800823721175e-04 0.0 
1.521876414237e-03 2.535264579150e-04 0.0 
1.452419131683e-03 2.417713422692e-04 0.0 
1.382574814995e-03 1.443852402905e-04 0.0 
1.301253573270e-03 1.281445088149e-04 0.0 
1.248615007170e-03 5.286827116675e-05 0.0 
1.302032083354e-03 7.424133850587e-05 0.0 
1.184486839752e-03 -6.060899056712e-09 0.0 
1.123061549323e-03 -2.234515836334e-05 0.0 
1.073159654876e-03 -6.152373725960e-05 0.0 
1.007924610910e-03 -8.328416783822e-05 0.0 
9.698447154279e-04 -1.116538734408e-04 0.0 
9.039885962034e-04 -1.320011046750e-04 0.0 
8.747774649227e-04 -1.521546740186e-04 0.0 
9.223455742727e-04 -1.275962550611e-04 0.0 
8.362542780046e-04 -1.617087245594e-04 0.0 
7.882800881191e-04 -1.845203038923e-04 0.0 
7.570444973737e-04 -1.890964775354e-04 0.0 
7.899811276074e-04 -1.630073038537e-04 0.0 
7.182324315187e-04 -1.865618856069e-04 0.0 
7.377845991962e-04 -1.581026011149e-04 0.0 
6.735923769661e-04 -1.786956123544e-04 0.0 
6.524896740284e-04 -2.051966690949e-04 0.0 
6.138790055301e-04 -1.950817183472e-04 0.0 
6.248558439967e-04 -1.669944465692e-04 0.0 
5.710534470997e-04 -1.818357053757e-04 0.0 
5.581399024817e-04 -2.081978566179e-04 0.0 
5.206550155824e-04 -1.935032858383e-04 0.0 
5.258146006684e-04 -1.663659871906e-04 0.0 
4.803144607036e-04 -1.771301722221e-04 0.0 
4.734562341823e-04 -2.026244442692e-04 0.0 
4.373554925449e-04 -1.855442471300e-04 0.0 
4.386277073783e-04 -1.596196848339e-04 0.0 
3.995500387183e-04 -1.677924040410e-04 0.0 
3.967100512446e-04 -1.920773065513e-04 0.0 
3.624113217538e-04 -1.740650473373e-04 0.0 
3.610707310460e-04 -1.497826737333e-04 0.0 
3.271230822706e-04 -1.561361941272e-04 0.0 
3.223791380888e-04 -1.322239777702e-04 0.0 
3.265829321963e-04 -1.790418892451e-04 0.0 
2.942891795945e-04 -1.612143817098e-04 0.0 
2.925154332156e-04 -1.829431464503e-04 0.0 
2.626807862062e-04 -1.652897114658e-04 0.0 
1.213128763031e-03 2.546673694759e-05 0.0 
2.605887814115e-04 -1.857663939157e-04 0.0 
2.878642100550e-04 -2.030704388065e-04 0.0 
2.324437187904e-04 -1.685750390911e-04 0.0 
2.321890580503e-04 -1.482725440651e-04 0.0 
2.302642624170e-04 -1.878352884935e-04 0.0 
2.034380024884e-04 -1.712606715913e-04 0.0 
2.015152855179e-04 -1.894076415086e-04 0.0 
9.176500808283e-04 -9.950379566053e-05 0.0 
2.004613567152e-03 8.349395887744e-04 0.0 
1.756577290502e-04 -1.736036345368e-04 0.0 
1.742433411726e-04 -1.907073025055e-04 0.0 
1.986012758124e-04 -2.063244129608e-04 0.0 
1.724339218604e-04 -2.066652118868e-04 0.0 
2.350014739697e-03 4.952372528128e-03 0.0 
2.304222834350e-03 4.126236691602e-03 0.0 
2.180457977185e-03 4.894811581376e-03 0.0 
2.100421975140e-03 4.019990292423e-03 0.0 
1.982441334255e-03 4.712608457953e-03 0.0 
1.483098899763e-04 -1.919643768640e-04 0.0 
2.364936054338e-03 2.083990878113e-03 0.0 
2.157339378232e-03 3.336842929149e-03 0.0 
1.954291760364e-03 1.021492393812e-03 0.0 
1.339970219049e-03 2.314928765909e-04 0.0 
8.057465005775e-04 -1.328799755967e-04 0.0 
1.759964837536e-04 -1.554979849145e-04 0.0 
1.492070350361e-04 -1.587218093290e-04 0.0 
1.482932876368e-04 -1.408068491215e-04 0.0 
3.535105636609e-04 -1.246141468622e-04 0.0 
3.116888192074e-04 -1.080339380490e-04 0.0 
3.387660549662e-04 -9.937050737350e-05 0.0 
2.945067639635e-04 -8.428786505288e-05 0.0 
3.163188040294e-04 -7.494923512268e-05 0.0 
2.705610835216e-04 -6.180719196917e-05 0.0 
2.525092514498e-04 -7.048874141214e-05 0.0 
2.279931872442e-04 -5.002680494469e-05 0.0 
2.131295331216e-04 -5.806183967902e-05 0.0 
2.860049387245e-04 -5.229325539785e-05 0.0 
3.359634070696e-04 -6.449611638105e-05 0.0 
1.888526410073e-04 -3.964964418054e-05 0.0 
1.766244903317e-04 -4.705875628273e-05 0.0 
1.532881423032e-04 -3.070427795027e-05 0.0 
1.432016303297e-04 -3.747517257175e-05 0.0 
1.617517032920e-04 -5.417171650136e-05 0.0 
1.302169150136e-04 -4.416347007285e-05 0.0 
1.447187654883e-04 -6.102644484199e-05 0.0 
7.404156518528e-04 -1.266884420351e-04 0.0 
8.011813652806e-04 -1.002442375974e-04 0.0 
7.236846009484e-04 -9.386406244601e-05 0.0 
7.734216770219e-04 -6.711176861626e-05 0.0 
6.857327269196e-04 -6.149956010441e-05 0.0 
7.208870199631e-04 -3.571337633097e-05 0.0 
6.254724496179e-04 -3.160297056205e-05 0.0 
6.007804725713e-04 -5.384757098380e-05 0.0 
2.256261803408e-03 1.475714717274e-03 0.0 
7.104427314933e-04 -2.100481004064e-04 0.0 
7.272326080213e-04 -2.012796699565e-04 0.0 
6.539834516691e-04 -2.252058105680e-04 0.0 
6.576509262852e-04 -2.115907090199e-04 0.0 
5.915606916114e-04 -2.344256285430e-04 0.0 
5.839963870451e-04 -2.155405710187e-04 0.0 
5.267404164648e-04 -2.380064425728e-04 0.0 
5.340195973566e-04 -2.525113483396e-04 0.0 
4.773464046144e-04 -2.561835687236e-04 0.0 
4.835727618008e-04 -2.668133836780e-04 0.0 
4.345891332215e-04 -2.708615199988e-04 0.0 
4.391599188418e-04 -2.779627689316e-04 0.0 
1.541818141081e-03 2.629668626363e-04 0.0 
8.202722216978e-04 -3.671329507804e-05 0.0 
7.495940688704e-04 -7.695807080316e-06 0.0 
8.613039249475e-04 -3.071216325431e-06 0.0 
1.954707663839e-04 -2.218658454696e-04 0.0 
1.129524543032e-04 -2.922743534174e-05 0.0 
2.979927097998e-04 -4.201983888234e-05 0.0 
3.527321375246e-04 -5.312972270654e-05 0.0 
5.353014617420e-04 -2.621573199951e-05 0.0 
1.476971701555e-04 -2.070864569184e-04 0.0 
5.106154735745e-04 -2.137307731215e-04 0.0 
5.656724351665e-04 -1.857501157641e-04 0.0 
1.870136725337e-03 3.802587297593e-03 0.0 
1.765867154114e-03 4.432375278885e-03 0.0 
3.054951863410e-04 -3.113294100897e-05 0.0 
1.235235218158e-04 -1.933498066744e-04 0.0 
1.977944716958e-04 -3.198851930035e-05 0.0 
4.226573122532e-04 -2.555595673686e-04 0.0 
1.014145073477e-04 -3.548306558031e-05 0.0 
8.592658724091e-05 -2.220638256322e-05 0.0 
2.325217874314e-04 -7.832843101599e-05 0.0 
7.688162173002e-04 2.204145740856e-05 0.0 
8.949864319275e-04 3.264756020628e-05 0.0 
4.823810231641e-04 -2.696827220719e-04 0.0 
4.371490007470e-04 -2.782910365914e-04 0.0 
4.001193205742e-04 -2.864257945863e-04 0.0 
3.978585006274e-04 -2.844329871357e-04 0.0 
4.291684205459e-04 -2.729140492463e-04 0.0 
3.890823030984e-04 -2.772136085453e-04 0.0 
3.624791374852e-04 -2.881259179017e-04 0.0 
3.533998721729e-04 -2.797220516978e-04 0.0 
3.758022798138e-04 -2.661442630431e-04 0.0 
3.402277358873e-04 -2.676307869400e-04 0.0 
3.217731761919e-04 -2.805139106161e-04 0.0 
3.083628768941e-04 -2.677586499828e-04 0.0 
9.316127774958e-05 -1.675091587402e-05 0.0 
3.880930343436e-04 -2.712407928866e-04 0.0 
2.411936775850e-03 2.132849825893e-03 0.0 
2.513296691341e-04 -2.295733786254e-05 0.0 
5.443571686846e-04 -6.549732982810e-06 0.0 
1.622335174915e-03 3.498463927487e-03 0.0 
1.536900476294e-03 4.075710322676e-03 0.0 
1.622552821868e-03 5.057982605717e-03 0.0 
1.418156666236e-03 4.647518848613e-03 0.0 
1.302185366666e-03 3.661141900629e-03 0.0 
1.209184342072e-03 4.193341379768e-03 0.0 
1.279696733436e-03 5.204267606620e-03 0.0 
1.096705054051e-03 4.714813427998e-03 0.0 
1.133570271182e-03 5.739158619849e-03 0.0 
9.744185833781e-04 5.221411616854e-03 0.0 
9.134281466348e-04 4.201703787261e-03 0.0 
8.136027761124e-04 4.688757422316e-03 0.0 
8.495690059139e-04 5.713575136363e-03 0.0 
7.076462038343e-04 5.166115203184e-03 0.0 
7.267279252139e-04 6.191942472673e-03 0.0 
5.994882604672e-04 5.634514247756e-03 0.0 
5.680470370821e-04 4.613658405387e-03 0.0 
1.246906480669e-04 -2.073630064594e-04 0.0 
5.199331536103e-04 -4.529595079586e-05 0.0 
4.512530653811e-04 -2.028484667433e-05 0.0 
1.233809657576e-04 -1.451545992823e-04 0.0 
1.216084774566e-04 -1.274794786998e-04 0.0 
1.459523136841e-04 -1.223318789838e-04 0.0 
1.175078980261e-04 -1.093934557418e-04 0.0 
4.717629023421e-04 5.079603660933e-03 0.0 
4.354949801891e-04 4.061176466166e-03 0.0 
4.856259475805e-04 -1.785165738986e-04 0.0 
5.365395707773e-04 -1.434145524822e-04 0.0 
1.662284180342e-03 2.929361598470e-03 0.0 
7.541532916084e-05 -2.808314580363e-05 0.0 
8.722952020769e-05 -4.194094222178e-05 0.0 
1.185918338073e-03 1.163135355087e-04 0.0 
1.192339077210e-03 2.247593821778e-04 0.0 
1.045305155570e-03 1.113116098731e-04 0.0 
1.016669122758e-03 2.239749203959e-04 0.0 
1.177664961545e-03 3.655646418518e-04 0.0 
8.847888036388e-04 1.133464326314e-04 0.0 
3.897316782280e-04 -7.833121487168e-05 0.0 
7.353439927867e-04 3.674894790416e-03 0.0 
2.217226679565e-04 -2.223298413399e-04 0.0 
2.168555037188e-04 -2.371626305079e-04 0.0 
6.213590184812e-05 -1.642119035161e-05 0.0 
5.709989570404e-04 -7.421210952904e-05 0.0 
1.654468664390e-03 3.762728217043e-04 0.0 
1.507742021081e-03 2.672657349471e-04 0.0 
1.586807445292e-03 3.640460230406e-04 0.0 
1.416388553448e-03 2.637243574126e-04 0.0 
1.454938915052e-03 3.403876551928e-04 0.0 
1.266352758975e-03 2.500070051811e-04 0.0 
1.246422019422e-03 1.904368378241e-04 0.0 
7.743051718978e-04 5.209291840376e-05 0.0 
1.082336147966e-03 1.830301100293e-04 0.0 
4.993011756481e-04 6.105305126537e-03 0.0 
9.219593239312e-04 -3.359480005718e-05 0.0 
3.584149264931e-04 -2.521083188816e-04 0.0 
1.486977836178e-04 -2.208067274669e-04 0.0 
2.934732504258e-04 -2.803503089785e-04 0.0 
9.981333581382e-05 -1.948808665787e-04 0.0 
9.880308183404e-05 -1.805630793964e-04 0.0 
2.487704518320e-04 -1.347410732009e-05 0.0 
1.258131971618e-03 3.025541431779e-04 0.0 
1.464107096033e-03 4.116053878399e-04 0.0 
9.688061962919e-04 3.706750893885e-04 0.0 
1.141116331080e-03 5.467214282737e-04 0.0 
6.436137839754e-04 3.921412967386e-05 0.0 
1.991441663133e-03 5.672904031801e-03 0.0 
1.285300505042e-03 6.233769466930e-03 0.0 
1.118670170713e-03 6.773463177508e-03 0.0 
1.048905315941e-04 -2.102039758741e-04 0.0 
3.048768181004e-04 -2.906525833394e-04 0.0 
1.069005225324e-03 3.205691242910e-03 0.0 
6.294738160800e-04 -1.508437127387e-04 0.0 
5.974574014031e-04 -1.001274815085e-04 0.0 
3.724485489015e-04 -2.518058192996e-04 0.0 
3.458195175252e-04 -2.689890828730e-04 0.0 
3.567510503892e-04 4.510144831531e-03 0.0 
3.169921733099e-04 3.508641888640e-03 0.0 
1.414552332510e-04 -1.036052094944e-04 0.0 
1.125361690251e-04 -9.138127305584e-05 0.0 
3.072745336885e-04 -1.987353426615e-05 0.0 
2.798605143081e-04 -2.668668917920e-04 0.0 
3.732549569356e-04 3.056061777384e-03 0.0 
4.985932149827e-04 -6.309698713849e-05 0.0 
5.378312223785e-04 -9.240296378873e-05 0.0 
9.309298297030e-05 -1.152662001864e-04 0.0 
4.512805290733e-04 -1.315661209821e-04 0.0 
4.133512794052e-04 -1.675789927652e-04 0.0 
3.970588532070e-04 -2.495795514792e-04 0.0 
2.916165020967e-04 -2.530700560258e-04 0.0 
7.501320437980e-05 -1.835089203392e-04 0.0 
2.387455053262e-04 -4.593733415094e-06 0.0 
1.107423114892e-03 2.704022051639e-03 0.0 
1.082370625185e-03 1.389917647869e-04 0.0 
1.207339561642e-03 1.309271020769e-04 0.0 
9.066141208594e-04 1.346382129602e-04 0.0 
2.694110374609e-04 -2.784878264420e-04 0.0 
1.965783362622e-04 -8.330596511098e-06 0.0 
5.227930064354e-05 -2.180722465532e-05 0.0 
1.228105493668e-03 3.497688555557e-04 0.0 
1.438386308916e-03 4.717292865380e-04 0.0 
7.040327429598e-04 -1.073716724665e-04 0.0 
6.732142255997e-04 -4.534750678323e-05 0.0 
5.541423195666e-04 -3.235900842578e-05 0.0 
6.257393152426e-04 3.630671609218e-05 0.0 
2.594756141393e-03 3.285940861813e-03 0.0 
7.944472785031e-04 -5.219588794199e-05 0.0 
2.230807951778e-03 1.743167358010e-03 0.0 
2.284359836972e-03 2.298770437507e-03 0.0 
2.067084912866e-03 1.845149303914e-03 0.0 
1.360804010979e-03 5.433355526421e-04 0.0 
1.345306142375e-03 7.755686718359e-04 0.0 
7.329409192619e-04 -1.826001600826e-04 0.0 
8.772918768301e-04 -1.022355416264e-04 0.0 
1.712165326671e-04 -1.172001732760e-04 0.0 
1.768826487410e-04 -7.255101009122e-05 0.0 
3.848051788784e-04 -1.155109265415e-04 0.0 
7.997273127295e-04 3.197967987713e-03 0.0 
6.108651083185e-04 2.677821490910e-03 0.0 
8.505056899687e-04 6.743448026988e-03 0.0 
7.210703391215e-04 7.219800600820e-03 0.0 
1.929848272023e-04 -2.359664872964e-04 0.0 
2.133203403350e-04 -2.504648945347e-04 0.0 
2.841605397174e-04 -1.154957476471e-04 0.0 
2.026624788135e-04 -1.594201215674e-05 0.0 
1.387031082448e-03 2.599622910271e-03 0.0 
1.358356287876e-03 2.092168713438e-03 0.0 
1.647337657608e-03 2.382237362701e-03 0.0 
3.016630953960e-04 -8.565475905881e-06 0.0 
6.410742500742e-04 -2.299805402320e-04 0.0 
6.730338996951e-04 -1.170318807532e-04 0.0 
3.584516248095e-04 -2.837463058585e-04 0.0 
1.315916957928e-03 9.647579517475e-05 0.0 
1.920387698022e-04 -2.485769335028e-04 0.0 
2.062839316471e-03 9.888883484937e-04 0.0 
4.168140338054e-05 -1.164720421830e-05 0.0 
4.765214543800e-05 -7.415274075881e-06 0.0 
6.195653529231e-04 6.062692519126e-05 0.0 
2.370450572139e-03 4.761306921165e-03 0.0 
1.204401421614e-03 5.140515102182e-05 0.0 
1.118466072583e-03 -6.764669253972e-06 0.0 
2.079176183759e-03 2.430646097522e-03 0.0 
1.846971928367e-03 1.918102224277e-03 0.0 
1.835825802589e-03 1.440964200350e-03 0.0 
1.585818965308e-03 1.470162760192e-03 0.0 
3.749105487802e-04 -2.340799955960e-04 0.0 
3.376242627598e-04 -2.363475950172e-04 0.0 
9.902937921121e-04 2.483800902276e-04 0.0 
8.710995238588e-04 1.611265108242e-04 0.0 
1.149689288028e-03 3.750464706480e-04 0.0 
1.365969190106e-03 5.084138676472e-04 0.0 
4.883008167930e-04 4.546109439260e-05 0.0 
5.228337512785e-04 3.016069206650e-05 0.0 
7.370569392108e-05 -1.691115583130e-04 0.0 
1.084047826550e-03 7.767412905560e-04 0.0 
8.563491290274e-04 2.244646941921e-03 0.0 
2.294590046382e-03 2.996519799289e-03 0.0 
1.519809706209e-04 -4.285667082516e-06 0.0 
1.596965999627e-04 -1.055547756264e-05 0.0 
3.231507347042e-04 -2.829600809142e-04 0.0 
3.323862557198e-04 -2.947664501677e-04 0.0 
2.569623217126e-04 2.533829080206e-03 0.0 
5.015708129314e-04 5.270308488865e-05 0.0 
5.635384020875e-04 1.367125639749e-04 0.0 
4.515262209826e-04 -1.685096640779e-05 0.0 
5.918078760080e-06 3.937436766404e-07 0.0 
1.874581743476e-04 9.150458227493e-03 0.0 
3.029961595524e-05 -4.228157445734e-06 0.0 
1.577166204785e-03 7.783448249453e-04 0.0 
2.848166938312e-04 2.049626296028e-03 0.0 
1.092501356268e-03 2.238436474041e-05 0.0 
1.045620546222e-03 2.362635536609e-05 0.0 
3.722616007094e-04 -2.703671610970e-05 0.0 
2.039645708213e-04 3.062385182266e-03 0.0 
1.558063090925e-04 1.974211057106e-03 0.0 
1.232633146651e-03 7.256533034680e-03 0.0 
1.065060228320e-03 7.808575184990e-03 0.0 
1.423698264501e-03 6.693276275891e-03 0.0 
4.044893910426e-04 -2.309504850464e-04 0.0 
3.456127510019e-04 -2.189589072203e-04 0.0 
5.679500522114e-04 3.140429236405e-03 0.0 
1.233991485509e-04 -1.619769878649e-04 0.0 
9.561890515929e-05 -1.472110490379e-04 0.0 
2.627099362543e-04 -2.526678820670e-04 0.0 
2.717630906081e-04 -2.374839831512e-04 0.0 
1.652524941834e-04 -9.785762822929e-05 0.0 
1.967025107428e-04 -1.118940448392e-04 0.0 
1.870049987602e-03 7.406785508045e-04 0.0 
1.875213936745e-03 8.487259517881e-04 0.0 
1.754394932421e-03 4.998148028885e-04 0.0 
4.729719846785e-04 -7.914437085775e-05 0.0 
5.027191782648e-04 -1.082601516331e-04 0.0 
5.626726444902e-04 -1.228399879712e-04 0.0 
6.373403536560e-04 2.246080711864e-03 0.0 
4.296382226993e-04 1.654645414976e-03 0.0 
4.156393166199e-04 -2.307104062273e-04 0.0 
4.395968747026e-04 -2.455427624824e-04 0.0 
3.496072470558e-04 -2.177439073439e-04 0.0 
8.374638284200e-04 1.794584366220e-03 0.0 
3.308875754777e-05 -1.626711691146e-06 0.0 
5.033911284904e-05 -3.877160232525e-06 0.0 
2.112639370899e-04 -2.616232568512e-04 0.0 
2.317489863033e-04 -2.641341095512e-04 0.0 
3.786718359285e-04 -1.183042828752e-04 0.0 
3.506816477767e-04 -1.547924150581e-04 0.0 
1.290387062467e-03 1.642522096694e-03 0.0 
1.575799896224e-03 1.878983603030e-03 0.0 
9.569633069039e-04 1.291854053341e-03 0.0 
4.954934556404e-05 -1.743412780593e-04 0.0 
1.062807695475e-03 9.427982292771e-05 0.0 
2.267036184381e-04 3.567796116125e-06 0.0 
2.948615633010e-04 1.441284073631e-06 0.0 
1.577918659088e-04 4.985026858712e-06 0.0 
7.666045692779e-04 8.002417514747e-05 0.0 
5.785044132757e-04 7.643974941957e-05 0.0 
6.818700452536e-04 1.174497452673e-04 0.0 
3.086603826310e-04 -2.653900114399e-04 0.0 
1.146883384755e-04 2.379773417546e-03 0.0 
8.260035381068e-04 7.773735240415e-03 0.0 
2.969616237564e-04 -2.784101004443e-04 0.0 
6.982531528387e-04 8.282643808974e-03 0.0 
6.032044353300e-04 7.691964848924e-03 0.0 
5.964765927010e-04 8.776158103596e-03 0.0 
5.182011398459e-05 -1.873229758271e-04 0.0 
1.311329322090e-03 7.889918989980e-03 0.0 
1.547262914521e-03 7.136357784218e-03 0.0 
2.285895722779e-04 -2.759967580444e-04 0.0 
5.748167954046e-04 1.342699323766e-03 0.0 
1.938852035209e-04 -2.591588819030e-04 0.0 
1.743010962626e-04 -2.472547834222e-04 0.0 
1.125578622609e-04 -1.775340279932e-06 0.0 
1.221689352625e-04 -6.164642065179e-06 0.0 
7.940274394758e-05 4.266227621328e-07 0.0 
9.219574545684e-05 -2.867992366257e-06 0.0 
1.270678326166e-04 -1.138029690544e-05 0.0 
9.615787705207e-05 -6.986675081566e-06 0.0 
9.203036255176e-04 8.403246781266e-03 0.0 
6.118069158444e-05 -2.301669439919e-08 0.0 
6.931524746252e-05 -3.479207449744e-06 0.0 
3.929605454028e-05 6.405059132001e-07 0.0 
1.583839783430e-03 1.982062289390e-03 0.0 
7.068396704147e-04 1.200359194291e-04 0.0 
6.390747442638e-04 2.445308520682e-04 0.0 
4.846251121603e-04 2.649119166961e-04 0.0 
9.421967345460e-04 3.440392246085e-04 0.0 
1.259012526027e-03 5.252510200665e-04 0.0 
3.197764284148e-05 -1.640567978944e-05 0.0 
3.774783366129e-05 -2.741996339336e-05 0.0 
4.900035642202e-04 8.233657183600e-03 0.0 
3.605943611253e-04 8.269901355847e-03 0.0 
4.046631330048e-04 7.338115326112e-03 0.0 
2.910755528980e-04 7.444160821224e-03 0.0 
3.243289268321e-04 6.529935888517e-03 0.0 
2.074173652318e-04 6.640874874377e-03 0.0 
2.548806500108e-04 5.727974125749e-03 0.0 
6.104647209126e-04 1.279636783998e-04 0.0 
3.955671573517e-04 6.264559627110e-05 0.0 
2.049539013973e-03 3.179285078978e-03 0.0 
3.684600294322e-04 3.428434139749e-05 0.0 
4.255692404197e-04 2.474490105924e-05 0.0 
1.307982612145e-03 1.069220569317e-03 0.0 
9.925528284333e-04 1.066033277499e-03 0.0 
1.268508812422e-04 1.636833215149e-06 0.0 
8.113859305547e-04 -1.076860043928e-04 0.0 
4.424048810845e-04 8.178852454862e-04 0.0 
2.568058950171e-04 -1.969499212846e-04 0.0 
2.954730338404e-04 -2.166351757245e-04 0.0 
9.148988706292e-04 -5.092115713947e-05 0.0 
1.589966839536e-03 1.081689876091e-03 0.0 
8.195366079135e-04 2.291827686752e-04 0.0 
7.638615746318e-04 3.886570158317e-04 0.0 
4.301049108607e-04 -5.173419721239e-05 0.0 
2.479105592627e-04 -2.772603730301e-04 0.0 
4.117826035229e-04 -7.303974468406e-05 0.0 
3.747596958605e-04 5.630869395692e-03 0.0 
3.397498911905e-04 -6.300936833037e-05 0.0 
1.695358343553e-05 -2.073926118554e-05 0.0 
8.185783830194e-04 -1.460763942421e-04 0.0 
1.548725788947e-03 5.457885216076e-04 0.0 
4.978440311784e-04 -8.768192684824e-05 0.0 
7.731978544117e-04 2.612872648007e-05 0.0 
2.544795568107e-03 2.527019236312e-03 0.0 
2.566305738657e-03 4.225777853753e-03 0.0 
2.472773030558e-03 3.667998245717e-03 0.0 
8.099235943772e-04 -1.707954530977e-04 0.0 
9.077102648087e-04 5.590016294206e-04 0.0 
6.710913873725e-04 5.877016835332e-04 0.0 
2.146083634948e-03 1.307379143513e-03 0.0 
1.913951036856e-03 2.590862764275e-03 0.0 
1.841325303838e-03 2.049723164399e-03 0.0 
1.456225964859e-03 1.441950638130e-03 0.0 
1.711099486024e-03 1.578709925099e-03 0.0 
2.067811544667e-03 2.138267898490e-03 0.0 
1.930887983716e-03 1.649563608053e-03 0.0 
1.533693015470e-03 1.186491804962e-03 0.0 
1.746278908484e-03 1.242066111437e-03 0.0 
1.215807700051e-03 7.802089199628e-04 0.0 
1.514886868394e-03 9.065062517240e-04 0.0 
1.910107918650e-03 1.247109236286e-03 0.0 
1.698378656614e-03 9.346693183819e-04 0.0 
1.323539497438e-03 6.802510032936e-04 0.0 
2.031022224472e-03 1.218742919074e-03 0.0 
3.086382567405e-04 3.955312538555e-05 0.0 
1.032083022970e-03 -3.982093313916e-05 0.0 
3.275571880191e-04 -2.453236187703e-04 0.0 
3.106070460510e-04 -1.881947395376e-04 0.0 
1.753150262820e-03 7.676102640650e-04 0.0 
6.412145359424e-04 4.085280598702e-04 0.0 
6.147700614125e-04 5.248593705467e-04 0.0 
6.493067819721e-04 -1.874821752560e-04 0.0 
4.610727255349e-04 1.573941899688e-04 0.0 
2.472315008793e-03 2.800840294017e-03 0.0 
4.629485783775e-04 -2.364232407751e-04 0.0 
3.824253354119e-04 1.047827564374e-04 0.0 
2.145609085340e-03 2.702344989778e-03 0.0 
2.334568973369e-03 2.735826466959e-03 0.0 
2.355946592829e-03 3.401456706458e-03 0.0 
5.178884928267e-04 5.819201600126e-04 0.0 
1.624354598598e-03 6.077041291857e-03 0.0 
2.270348152234e-04 4.088602950800e-05 0.0 
8.623399460583e-04 -6.916467352965e-05 0.0 
9.503557328256e-04 -6.634991551430e-05 0.0 
9.487487420681e-04 -9.849091555765e-05 0.0 
2.103327334525e-03 1.661887088851e-03 0.0 
1.463520655764e-04 1.636430088230e-05 0.0 
2.561450484989e-04 1.970131099800e-05 0.0 
2.254124994714e-04 1.414614516948e-05 0.0 
3.477240862344e-04 1.225515996153e-05 0.0 
1.118662929610e-04 1.053894071884e-05 0.0 
5.462116135760e-04 2.667049564825e-04 0.0 
4.924363139730e-04 2.121944512791e-04 0.0 
4.153964516058e-04 -2.629336351225e-04 0.0 
4.595063621819e-04 -2.577279856640e-04 0.0 
4.862542156994e-04 -2.394509324948e-04 0.0 
5.081883567776e-04 -2.503583187012e-04 0.0 
4.740937630197e-04 -2.662198806400e-04 0.0 
5.239939198010e-04 -2.571991576026e-04 0.0 
5.614626756129e-04 -2.405848497212e-04 0.0 
5.327265741021e-04 -2.584649065970e-04 0.0 
1.604352422684e-03 6.956031573352e-04 0.0 
8.287357962094e-05 6.407807666002e-06 0.0 
3.649396536755e-04 -8.941865666309e-05 0.0 
4.158685303854e-04 -1.051792465429e-04 0.0 
4.318095721291e-04 -1.325889553829e-04 0.0 
2.015866184896e-04 -1.321249121315e-04 0.0 
2.288983139168e-04 -1.272795115169e-04 0.0 
2.220125627263e-04 -1.060972342120e-04 0.0 
1.747025044869e-04 -1.366072400230e-04 0.0 
1.357965476651e-03 1.879115264350e-04 0.0 
7.227621998108e-05 4.720664749593e-06 0.0 
6.051075385752e-04 -1.052074851559e-04 0.0 
2.615727803541e-04 -1.438396146171e-04 0.0 
1.508506021206e-03 8.307875406087e-03 0.0 
1.856661704964e-03 7.193195429740e-03 0.0 
2.080450023877e-03 6.652721854090e-03 0.0 
2.142873601972e-03 5.959755138471e-03 0.0 
1.648282890823e-03 7.506458777200e-03 0.0 
1.348796396853e-04 -8.514182862251e-05 0.0 
1.058894121284e-04 -7.382520676429e-05 0.0 
8.461498935052e-05 -8.053428223004e-05 0.0 
7.841196991892e-05 -6.386134974950e-05 0.0 
5.794373582130e-05 -7.097819766127e-05 0.0 
6.276807604277e-05 -8.723613397234e-05 0.0 
5.207082160934e-05 -5.508528730535e-05 0.0 
3.314489144199e-05 -6.431572601990e-05 0.0 
1.223447303623e-03 8.852173239375e-03 0.0 
2.855759369696e-04 -3.054463287424e-04 0.0 
2.974218617090e-04 -3.053911756402e-04 0.0 
2.880942246906e-04 -3.048171634345e-04 0.0 
3.070362798754e-04 -3.019733710617e-04 0.0 
3.197315320834e-04 -3.012882191993e-04 0.0 
3.356001570481e-04 -2.969503139070e-04 0.0 
3.463321951757e-04 -2.962072409417e-04 0.0 
3.039807760956e-04 -3.011666941371e-04 0.0 
2.753675732634e-04 -3.068095150188e-04 0.0 
2.768185577949e-04 -3.007825897285e-04 0.0 
2.656165363678e-04 -3.025803236919e-04 0.0 
2.629324000027e-04 -2.946696043591e-04 0.0 
2.795530993089e-04 -2.911246574671e-04 0.0 
2.367190979321e-04 -2.517468680256e-04 0.0 
1.661726799766e-05 1.240616572870e-06 0.0 
2.498763831454e-05 -1.086318170970e-04 0.0 
4.917285521301e-05 -1.184757835512e-04 0.0 
4.940388542732e-05 -1.340577181832e-04 0.0 
7.558582596538e-05 -1.286632663499e-04 0.0 
4.691063531421e-05 -1.033811593544e-04 0.0 
2.470556835523e-05 -1.404671426736e-04 0.0 
4.848402615479e-05 -1.476618174212e-04 0.0 
7.762695389002e-05 -2.360176007261e-04 0.0 
5.860058944698e-05 -2.210092006294e-04 0.0 
2.662537737276e-05 -2.202531255092e-04 0.0 
4.303922095030e-05 -2.090698544828e-04 0.0 
7.078321538393e-05 -2.128197996095e-04 0.0 
8.851139953453e-05 -2.257039119480e-04 0.0 
1.163133745659e-04 -2.345676391841e-04 0.0 
1.349694082844e-04 -2.467022802401e-04 0.0 
1.405252357299e-04 -2.412794498611e-04 0.0 
1.237913422656e-04 -2.269557170099e-04 0.0 
1.566139438530e-04 -2.540245328703e-04 0.0 
8.594212968965e-05 4.399842632927e-03 0.0 
1.670952125503e-04 3.901939903885e-03 0.0 
5.812931590625e-05 2.955062377470e-06 0.0 
9.966023713845e-04 8.990181022947e-03 0.0 
2.377950337454e-04 -2.882328201931e-04 0.0 
1.533624426839e-04 9.654566496602e-04 0.0 
2.491070449823e-04 7.800623798855e-04 0.0 
1.961410490896e-04 7.645531374370e-04 0.0 
1.004489575966e-05 -3.826123189743e-06 0.0 
1.609131958571e-05 -1.536151950990e-06 0.0 
8.165499305831e-05 9.436200695241e-04 0.0 
2.262045310419e-04 -2.057681506165e-04 0.0 
1.286567868962e-03 1.072781333624e-03 0.0 
4.159322346210e-04 2.601228085120e-03 0.0 
4.421619293726e-04 -2.071983030516e-04 0.0 
3.034064526477e-04 -2.374465926478e-04 0.0 
6.104751043406e-05 -3.410126224983e-05 0.0 
1.959051798850e-04 -6.550881452325e-05 0.0 
6.868514534776e-05 -1.152750678545e-05 0.0 
1.148002334902e-04 -5.081669164467e-05 0.0 
1.213742881914e-04 -2.309897537979e-05 0.0 
2.023223155000e-04 9.954530148383e-06 0.0 
7.793995778157e-05 -1.967982733931e-04 0.0 
9.885812898641e-04 6.251320572989e-03 0.0 
6.134477044615e-04 6.663565573807e-03 0.0 
6.564904732365e-04 4.147264735787e-03 0.0 
1.490454587266e-04 -1.758335837487e-04 0.0 
9.019693887994e-05 -9.700057249141e-05 0.0 
1.711161589032e-04 -2.213353867294e-04 0.0 
7.240530757234e-04 2.021929104313e-04 0.0 
2.024654978003e-03 1.388169988316e-03 0.0 
3.960327047459e-04 -1.419801841058e-04 0.0 
2.036639310982e-04 -1.520773822497e-04 0.0 
2.559640074989e-04 -2.046582844920e-04 0.0 
3.233877733399e-04 -2.531820789730e-04 0.0 
1.160628176213e-03 3.506421934624e-05 0.0 
2.916829900080e-04 -1.385688268978e-04 0.0 
2.398971788455e-04 -4.145201902906e-05 0.0 
5.080683159279e-04 3.602086028983e-03 0.0 
1.983780957358e-04 -2.692136029415e-04 0.0 
2.480066177539e-04 -3.232856339697e-05 0.0 
2.712427283461e-04 -9.254941314457e-05 0.0 
1.457228375924e-03 5.662116872567e-03 0.0 
6.431920459611e-04 -8.351945968886e-06 0.0 
3.317272931001e-04 -2.900237211461e-04 0.0 
1.001568962913e-03 3.707945522012e-03 0.0 
1.077172741501e-03 1.789599398466e-03 0.0 
1.769080056713e-03 6.427843817010e-03 0.0 
1.707928105185e-04 -2.349073243629e-04 0.0 
9.665690735231e-04 7.299400610340e-03 0.0 
1.830261636690e-04 -1.076623700743e-06 0.0 
1.922243596199e-03 3.180512576160e-03 0.0 
1.234848859792e-04 -1.780988758972e-04 0.0 
6.815449579923e-04 -1.487890824619e-04 0.0 
1.508590568336e-03 3.726027817023e-04 0.0 
2.038905649235e-03 5.355661572171e-03 0.0 
4.424159655769e-04 2.184534299355e-03 0.0 
1.111934532169e-03 -3.511568433610e-05 0.0 
4.515923913754e-04 -3.706591832768e-06 0.0 
6.464867137457e-04 -8.476454325719e-05 0.0 
9.846701270617e-05 -1.651182839089e-04 0.0 
1.623204365494e-04 -1.713613379416e-05 0.0 
8.669401833079e-04 -1.338881285316e-04 0.0 
8.443374743197e-04 2.726318944849e-03 0.0 
1.644066817837e-03 4.624597021742e-04 0.0 
6.851483161324e-04 -2.107297422383e-04 0.0 
1.364960065762e-03 3.126760285035e-03 0.0 
4.789963141408e-04 -1.497403399198e-04 0.0 
6.501883877595e-04 1.548050592943e-05 0.0 
1.803599964711e-03 1.062101489039e-03 0.0 
1.794477061480e-03 5.228920037967e-04 0.0 
2.240180118334e-03 1.309394178607e-03 0.0 
1.422590209799e-03 1.619480963459e-04 0.0 
4.225910525298e-05 -4.053279190442e-05 0.0 
2.027475085643e-04 -2.407720228946e-05 0.0 
3.978130456945e-04 -2.823001252076e-04 0.0 
9.127778497782e-04 2.037240176808e-05 0.0 
1.816029504070e-03 5.405993457758e-03 0.0 
1.062700948093e-03 2.228430038347e-04 0.0 
6.193993396475e-04 1.764231746744e-03 0.0 
1.360562121040e-03 3.671301715078e-04 0.0 
1.599550603263e-04 -2.388276036271e-05 0.0 
1.114031166218e-03 2.238892366542e-03 0.0 
2.565081977103e-04 -1.218187545780e-04 0.0 
2.439145228866e-05 -1.831786947812e-04 0.0 
3.819317617773e-04 -1.972860753036e-04 0.0 
5.895829302874e-04 -2.438935884014e-04 0.0 
1.014623341044e-03 -8.575218478851e-05 0.0 
2.469769023461e-04 -9.979563287667e-05 0.0 
1.107196945238e-03 1.138225408000e-03 0.0 
1.262899324737e-04 -1.717867113866e-05 0.0 
3.648977311177e-04 -4.053937306477e-05 0.0 
2.725582819526e-04 -1.033774159863e-04 0.0 
2.246413476608e-03 3.943693305286e-03 0.0 
9.677927890971e-05 -1.170544843275e-05 0.0 
6.228038022626e-04 -1.366450831263e-04 0.0 
5.412527835536e-04 1.255274902408e-05 0.0 
3.726479892335e-05 -7.881350661010e-05 0.0 
6.578895543465e-04 1.607217326797e-04 0.0 
1.255523512860e-03 1.441759520100e-03 0.0 
7.132850224104e-05 -7.323837668585e-06 0.0 
4.440650028818e-04 -3.642951075417e-05 0.0 
7.250777258349e-04 -1.522236828414e-04 0.0 
3.084328298854e-04 9.159059197887e-03 0.0 
4.354510128870e-05 -3.889731782649e-07 0.0 
3.716182669387e-04 -1.334323907551e-05 0.0 
1.415903666448e-03 1.775549272327e-04 0.0 
5.732458032711e-04 -1.529929722025e-04 0.0 
1.878641571098e-03 3.438381034185e-03 0.0 
2.110728245717e-04 -8.539915173310e-05 0.0 
1.912196431377e-03 6.768752030640e-04 0.0 
4.606713614600e-04 6.073944684811e-04 0.0 
3.694906210237e-04 -8.163895071243e-07 0.0 
2.508127742321e-03 3.368626615313e-03 0.0 
1.886117911004e-04 -9.190243864213e-05 0.0 
9.782535544464e-04 5.376705097169e-06 0.0 
9.752163061653e-05 -2.193877637814e-04 0.0 
1.854988392203e-03 2.565987465567e-03 0.0 
1.564444559553e-04 -7.897312873334e-05 0.0 
5.792035602423e-04 -2.454195175293e-04 0.0 
5.203943172260e-04 -1.376104730167e-04 0.0 
4.427032158676e-04 5.522447723323e-05 0.0 
1.260248685304e-04 -6.742520711723e-05 0.0 
6.202027947610e-04 -2.275473940097e-04 0.0 
9.743157791395e-05 -5.724113399113e-05 0.0 
1.200766719271e-03 2.009520624751e-03 0.0 
2.466382967893e-03 2.665736154179e-03 0.0 
6.983942819247e-05 -4.827731311602e-05 0.0 
1.828067201548e-03 6.225756701242e-04 0.0 
1.493320317508e-04 -2.343688106231e-04 0.0 
1.285703864326e-03 1.163304493827e-04 0.0 
2.401880576626e-05 -7.390560563512e-06 0.0 
3.216435857054e-04 -2.005398671106e-04 0.0 
4.680181860640e-04 -1.216679701779e-04 0.0 
2.246020893361e-03 2.152640127498e-03 0.0 
7.191129627295e-04 1.199991811711e-03 0.0 
4.458082185930e-04 -9.322925876871e-05 0.0 
1.670932737115e-03 5.546184828379e-04 0.0 
1.156321182063e-03 7.520927781825e-05 0.0 
1.033432923696e-03 -5.614012807418e-05 0.0 
4.114524003447e-04 -6.567527179831e-05 0.0 
8.250952457395e-04 7.970762101722e-04 0.0 
2.487453736178e-04 -2.221364287938e-04 0.0 
2.429308405894e-04 -2.377090466945e-04 0.0 
5.921086166427e-04 -2.198039709901e-04 0.0 
1.659832656252e-03 6.352727825765e-04 0.0 
5.870054186470e-05 -2.011754449732e-04 0.0 
2.211847483481e-03 1.599237760132e-03 0.0 
2.542883554268e-04 -2.657433095021e-04 0.0 
5.369840332908e-04 -2.310378329124e-04 0.0 
9.126746619647e-04 7.027356683419e-05 0.0 
9.498113641546e-05 6.381601867251e-03 0.0 
5.072278600728e-04 -2.179681645141e-04 0.0 
2.338592899068e-05 -1.694542548564e-04 0.0 
4.597999265493e-04 -2.255085433836e-04 0.0 
1.022076658891e-03 -2.486631161633e-05 0.0 
4.297201817798e-04 -2.092630493316e-04 0.0 
3.883146762005e-04 -2.142597901242e-04 0.0 
2.985517163942e-04 1.661232908503e-03 0.0 
3.584005636873e-04 -1.967812810136e-04 0.0 
4.062535379311e-05 7.807460685788e-04 0.0 
6.748545123372e-06 1.326552323014e-06 0.0 
1.166564019294e-04 8.379328690595e-03 0.0 
4.761700304334e-04 7.293356885118e-04 0.0 
2.748735571878e-04 -2.609336267975e-04 0.0 
5.953013838287e-04 3.893150837680e-04 0.0 
3.140248576278e-04 -2.200682757262e-04 0.0 
2.074732608890e-03 1.121206583327e-03 0.0 
2.428891965824e-04 8.340249557032e-03 0.0 
2.803580924940e-04 -2.213154893811e-04 0.0 
1.046373545975e-03 5.663591067776e-04 0.0 
2.854239624335e-04 6.265741858322e-05 0.0 
1.817940365658e-04 4.845656999361e-03 0.0 
4.481030896902e-04 1.127909794392e-05 0.0 
1.025075217132e-03 4.912046468636e-05 0.0 
5.667618607309e-05 2.479013408670e-03 0.0 
6.741327032220e-04 9.243878930355e-03 0.0 
2.470666843562e-04 -2.868275267675e-04 0.0 
1.991598239076e-05 -3.283161253700e-05 0.0 
3.705689235953e-04 3.837631056707e-04 0.0 
4.312804490276e-04 1.478609764016e-04 0.0 
3.624471549421e-04 -6.971082854915e-06 0.0 
7.321759219803e-05 -1.549620363018e-04 0.0 
2.934231592479e-04 -2.986743238098e-04 0.0 
3.331385453535e-04 1.533777892726e-04 0.0 
2.948915184805e-04 2.608017230685e-05 0.0 
1.143570896680e-03 8.206350752286e-03 0.0 
9.312128987248e-04 1.051805190724e-04 0.0 
2.971838128924e-04 5.344076122172e-08 0.0 
7.952171931404e-04 1.419435473765e-03 0.0 
4.922951982868e-04 8.212970190085e-05 0.0 
3.798161243254e-05 1.842599408578e-06 0.0 
7.361101808033e-04 1.015952743085e-04 0.0 
3.176925397874e-04 -1.097661602876e-04 0.0 
1.896943091696e-03 6.570118438008e-03 0.0 
7.871874476889e-04 2.485588348937e-04 0.0 
2.553505445827e-04 4.045383933589e-03 0.0 
2.651573872586e-05 1.485924380574e-06 0.0 
1.423953857127e-03 8.022577449181e-03 0.0 
1.766877267475e-04 1.555449556956e-03 0.0 
3.673425161056e-04 -2.909235088281e-04 0.0 
8.843006738222e-05 1.512701739899e-03 0.0 
1.819961258379e-03 9.189593337095e-04 0.0 
5.142388542479e-04 7.128580711809e-03 0.0 
2.313388620435e-03 5.664173496643e-03 0.0 
1.918779876862e-05 1.675513494116e-07 0.0 
1.096546885595e-03 7.952452175975e-04 0.0 
3.009673741830e-04 -1.523204535649e-04 0.0 
2.856617423688e-04 4.951467107714e-03 0.0 
1.019521529252e-04 -1.326396174522e-04 0.0 
3.019869385011e-04 -2.913999955430e-04 0.0 
1.018180886156e-04 1.227587437433e-06 0.0 
1.489055925246e-03 7.081162325904e-04 0.0 
3.263582033320e-05 -7.256018387791e-08 0.0 
1.934570612341e-05 -2.092837700598e-04 0.0 
2.101961895271e-04 -2.694873078380e-04 0.0 
1.221363801922e-04 3.633409344322e-06 0.0 
8.767585587686e-04 3.646632362421e-04 0.0 
3.694751573226e-04 -2.918707423510e-04 0.0 
2.731352317284e-04 5.844641413688e-04 0.0 
2.775916854211e-04 -1.798326971902e-04 0.0 
8.747326204853e-04 9.316024726099e-03 0.0 
1.617031585042e-04 -2.491922266406e-04 0.0 
2.058104412917e-05 1.368661838415e-06 0.0 
4.584581843947e-04 1.442336468416e-03 0.0 
6.757755258486e-05 -1.128302710484e-04 0.0 
1.940126691096e-03 7.143832692059e-03 0.0 
4.788217662596e-05 -1.616120706873e-04 0.0 
8.365338956190e-04 1.822607509243e-04 0.0 
2.613979274481e-04 -2.856957867098e-04 0.0 
3.035349347621e-04 1.388108937674e-03 0.0 
1.550681840449e-04 7.729507318631e-06 0.0 
9.116330507338e-04 1.039561446341e-03 0.0 
1.382949806967e-04 2.082935657734e-05 0.0 
2.936997021975e-04 -2.450758569686e-04 0.0 
4.712642104221e-04 9.076322473364e-05 0.0 
2.879727621293e-04 8.822979564620e-06 0.0 
5.208352135597e-04 9.288765533937e-03 0.0 
1.052806323973e-03 9.343294350291e-04 0.0 
7.039132164420e-05 -1.418591342064e-04 0.0 
1.291386763023e-04 -2.193030237674e-04 0.0 
1.711234600361e-05 6.920109681189e-04 0.0 
1.462738776978e-05 -2.309731505556e-04 0.0 
9.120951485908e-05 9.262667139727e-03 0.0 
2.610075721671e-06 9.866494480894e-07 0.0 
8.176860265224e-05 -2.077685734576e-04 0.0 
1.956640922587e-04 7.639890189942e-03 0.0 
8.988144312962e-04 4.248725098861e-04 0.0 
1.627156028214e-05 -7.530883795055e-05 0.0 
1.288996377772e-04 3.120174020355e-03 0.0 
3.134646686347e-04 -2.961640863673e-04 0.0 
2.778416148709e-04 -2.832885948001e-04 0.0 
1.669035545522e-04 5.877197230667e-03 0.0 
4.005155884982e-04 6.079461677011e-05 0.0 
7.413053089937e-04 1.133103982847e-03 0.0 
4.220071132095e-04 6.571375016514e-03 0.0 
3.404991025936e-04 -1.827581100070e-04 0.0 
1.182867145389e-03 5.417520704455e-04 0.0 
6.915224178086e-05 -1.002960111499e-04 0.0 
9.889061838519e-04 2.879999722324e-04 0.0 
3.608352827372e-04 1.933045226445e-05 0.0 
2.511955461902e-04 -1.662328444058e-04 0.0 
1.370112605065e-05 -6.001199930824e-05 0.0 
1.804471156809e-04 -2.570897818132e-04 0.0 
6.324968091253e-05 6.521427424356e-07 0.0 
4.494546642763e-05 -9.081739536472e-05 0.0 
1.057634173164e-03 8.008879450151e-03 0.0 
7.658737163478e-05 1.052024218757e-02 0.0 

VECTORS node_materi_displacement float
0.0 7.435994831727e-02 0.0 
0.0 1.525110828347e-01 0.0 
0.0 0.0 0.0 
0.0 0.0 0.0 
0.0 7.456966773963e-02 0.0 
0.0 7.430148339871e-02 0.0 
0.0 7.356912176994e-02 0.0 
0.0 7.238478403139e-02 0.0 
0.0 7.074828606625e-02 0.0 
0.0 6.870242567817e-02 0.0 
0.0 6.626936195118e-02 0.0 
0.0 6.346167971973e-02 0.0 
0.0 6.029215371054e-02 0.0 
0.0 5.676364872356e-02 0.0 
0.0 5.286767165527e-02 0.0 
0.0 4.859893469762e-02 0.0 
0.0 4.395618530333e-02 0.0 
0.0 3.894650810424e-02 0.0 
0.0 3.352449635023e-02 0.0 
0.0 2.768655688215e-02 0.0 
0.0 2.142473044407e-02 0.0 
0.0 1.472263933923e-02 0.0 
0.0 7.573292781590e-03 0.0 
0.0 0.0 0.0 
0.0 0.0 0.0 
0.0 0.0 0.0 
0.0 0.0 0.0 
0.0 0.0 0.0 
0.0 0.0 0.0 
0.0 0.0 0.0 
0.0 0.0 0.0 
0.0 0.0 0.0 
0.0 0.0 0.0 
0.0 0.0 0.0 
0.0 0.0 0.0 
0.0 0.0 0.0 
0.0 0.0 0.0 
0.0 0.0 0.0 
0.0 0.0 0.0 
0.0 0.0 0.0 
0.0 0.0 0.0 
0.0 0.0 0.0 
0.0 0.0 0.0 
0.0 0.0 0.0 
0.0 0.0 0.0 
0.0 0.0 0.0 
0.0 0.0 0.0 
0.0 0.0 0.0 
0.0 0.0 0.0 
0.0 0.0 0.0 
0.0 0.0 0.0 
0.0 0.0 0.0 
0.0 0.0 0.0 
0.0 0.0 0.0 
0.0 0.0 0.0 
0.0 0.0 0.0 
0.0 0.0 0.0 
0.0 0.0 0.0 
0.0 0.0 0.0 
0.0 0.0 0.0 
0.0 0.0 0.0 
0.0 0.0 0.0 
0.0 0.0 0.0 
0.0 0.0 0.0 
0.0 0.0 0.0 
0.0 0.0 0.0 
0.0 0.0 0.0 
0.0 0.0 0.0 
0.0 0.0 0.0 
0.0 0.0 0.0 
0.0 0.0 0.0 
0.0 0.0 0.0 
0.0 1.389218475263e-01 0.0 
0.0 1.249168633917e-01 0.0 
0.0 1.105055717804e-01 0.0 
0.0 9.571238748086e-02 0.0 
0.0 8.054944631892e-02 0.0 
0.0 6.504291858706e-02 0.0 
0.0 4.921330333844e-02 0.0 
0.0 3.308282258640e-02 0.0 
0.0 1.667662243958e-02 0.0 
-1.383513925519e-02 4.727869799328e-02 0.0 
2.016030983288e-02 1.435623900034e-01 0.0 
-6.392947767405e-03 7.221690344191e-02 0.0 
-4.896244001855e-04 9.208742019750e-02 0.0 
4.433369850586e-03 1.089044994677e-01 0.0 
8.498051095003e-03 1.227982113335e-01 0.0 
1.238280268571e-02 1.341192547004e-01 0.0 
1.597224414593e-02 1.427570451312e-01 0.0 
1.896970191474e-02 1.484454542358e-01 0.0 
2.096982692009e-02 1.509346634202e-01 0.0 
2.084989745284e-02 1.497361689187e-01 0.0 
0.0 1.656996475805e-01 0.0 
1.221936971652e-03 1.525346799232e-01 0.0 
2.432149383013e-03 1.525714059010e-01 0.0 
3.642420580732e-03 1.526075638678e-01 0.0 
4.856879468848e-03 1.526401676551e-01 0.0 
6.074380848267e-03 1.526668511679e-01 0.0 
7.299197640361e-03 1.526545868265e-01 0.0 
8.540252441388e-03 1.526009737154e-01 0.0 
9.783513051612e-03 1.524545208331e-01 0.0 
1.105994656554e-02 1.522003530138e-01 0.0 
1.236674521870e-02 1.517683226595e-01 0.0 
1.371047573659e-02 1.510874979014e-01 0.0 
1.511862344905e-02 1.500716033652e-01 0.0 
1.662277298887e-02 1.485993283314e-01 0.0 
1.827395790194e-02 1.465005892672e-01 0.0 
-1.106589912042e-02 3.311460040388e-02 0.0 
-6.932009161795e-03 2.550819468741e-02 0.0 
-2.463391654810e-03 2.240079978552e-02 0.0 
2.239614952234e-03 2.396304879638e-02 0.0 
5.537409217753e-03 3.235819530922e-02 0.0 
7.298846282723e-03 4.247143741756e-02 0.0 
7.995332150067e-03 4.921596995292e-02 0.0 
8.133840776855e-03 5.447152748284e-02 0.0 
7.686170205639e-03 5.870011813312e-02 0.0 
7.194847423672e-03 6.211011592243e-02 0.0 
6.681298650724e-03 6.489853472758e-02 0.0 
6.072316898002e-03 6.713628792321e-02 0.0 
5.467614262106e-03 6.899473965048e-02 0.0 
4.722183353326e-03 7.051651502953e-02 0.0 
3.968420434223e-03 7.174436745929e-02 0.0 
3.226407502657e-03 7.269985697524e-02 0.0 
2.471563073129e-03 7.343538408764e-02 0.0 
1.695859222555e-03 7.396940793996e-02 0.0 
8.592060523273e-04 7.426764478342e-02 0.0 
1.832096480262e-02 1.549396888837e-01 0.0 
1.699976454307e-02 1.582495170206e-01 0.0 
1.576257452918e-02 1.606543601922e-01 0.0 
1.466033694769e-02 1.623973499608e-01 0.0 
1.360358794316e-02 1.636375248197e-01 0.0 
1.255524408091e-02 1.645002024656e-01 0.0 
1.149363671564e-02 1.650753608424e-01 0.0 
1.040646249515e-02 1.654421114327e-01 0.0 
9.299623307416e-03 1.656670071872e-01 0.0 
8.177486764856e-03 1.657865287957e-01 0.0 
7.038775309540e-03 1.658308576508e-01 0.0 
5.887917360693e-03 1.658349751588e-01 0.0 
4.731816075588e-03 1.658129020425e-01 0.0 
3.574135632948e-03 1.657756224676e-01 0.0 
2.418690695877e-03 1.657415492095e-01 0.0 
1.237738028132e-03 1.656916610782e-01 0.0 
-9.677203821633e-03 6.113504220956e-02 0.0 
-3.333736295107e-03 8.253068987242e-02 0.0 
2.099782227935e-03 1.008779799890e-01 0.0 
6.545371709956e-03 1.161972013294e-01 0.0 
1.052232653905e-02 1.288405101499e-01 0.0 
1.427980275801e-02 1.388409872325e-01 0.0 
1.758986773442e-02 1.459806213143e-01 0.0 
2.014723207844e-02 1.501056400393e-01 0.0 
2.134650729662e-02 1.508408121325e-01 0.0 
2.060588874957e-02 1.471354094195e-01 0.0 
4.051343881102e-03 8.126892831871e-02 0.0 
3.055439509123e-03 6.697670415726e-03 0.0 
4.660009901722e-03 6.045805425690e-02 0.0 
8.417567795176e-05 2.967656192245e-02 0.0 
1.273094371509e-03 6.371511423737e-03 0.0 
1.267390383901e-02 1.123887760106e-01 0.0 
5.632930213153e-05 5.472563468303e-02 0.0 
4.708185147475e-03 7.578419055834e-03 0.0 
1.956563410820e-02 1.314605147140e-01 0.0 
5.750849602619e-03 8.704458215635e-03 0.0 
2.383178610365e-02 1.402269030707e-01 0.0 
4.065878120074e-04 5.939049691992e-03 0.0 
3.821573371662e-03 7.005985987057e-02 0.0 
6.154148783920e-03 1.051669793416e-02 0.0 
2.264380689937e-02 1.349012407488e-01 0.0 
2.806082259158e-05 6.737611265176e-02 0.0 
1.077839130635e-04 4.248184108801e-02 0.0 
5.959449644004e-03 1.227662661416e-02 0.0 
4.380768141540e-03 1.305266323461e-02 0.0 
1.247420642370e-03 1.421656381388e-02 0.0 
2.339668092656e-03 1.526150555935e-02 0.0 
3.146152749049e-03 1.335161793274e-02 0.0 
1.846972016734e-02 1.355985253465e-01 0.0 
1.203834810123e-02 1.397112645495e-01 0.0 
7.977149297098e-03 1.400274457261e-01 0.0 
7.989770240181e-04 8.794642641992e-02 0.0 
1.328341807992e-04 6.529790265775e-03 0.0 
-3.633033809343e-03 3.222257446387e-02 0.0 
2.241906131552e-03 7.324025873368e-02 0.0 
8.361258301595e-05 2.507246555250e-02 0.0 
4.140440625473e-03 1.409319720576e-01 0.0 
2.301707655864e-04 7.296384655632e-02 0.0 
5.867508163470e-03 1.440399775885e-02 0.0 
4.919567939220e-03 7.463022365566e-03 0.0 
5.994191133205e-03 9.451446074917e-03 0.0 
4.177618108949e-03 7.506258444979e-03 0.0 
2.139609959283e-03 6.163216636783e-03 0.0 
2.822165959832e-03 4.574355482397e-02 0.0 
1.501785381101e-02 1.391442002416e-01 0.0 
8.877482205772e-04 7.291633360412e-03 0.0 
6.102530883990e-04 5.784476132043e-02 0.0 
4.516511370175e-03 6.610610278404e-02 0.0 
2.407228987332e-05 6.184758868809e-02 0.0 
6.186822119684e-04 1.158563927300e-02 0.0 
1.645191882340e-02 1.223828721220e-01 0.0 
8.719526145123e-03 9.846046111595e-02 0.0 
2.219801147350e-02 1.372579379669e-01 0.0 
2.383407869232e-02 1.395675715368e-01 0.0 
-2.111003536332e-03 6.086261309727e-02 0.0 
9.545237737587e-04 1.160437713505e-01 0.0 
4.633125874790e-05 5.206968280711e-03 0.0 
1.025144890203e-03 7.432525241667e-02 0.0 
3.373285662552e-04 2.613904894733e-02 0.0 
2.200761642503e-02 1.304271938854e-01 0.0 
2.382276172754e-02 1.223631168456e-01 0.0 
2.214495651976e-02 1.193558681674e-01 0.0 
2.404310230696e-02 1.099399809594e-01 0.0 
2.238104137802e-02 1.051065876822e-01 0.0 
2.365384291408e-02 9.691605973320e-02 0.0 
2.544858714444e-02 1.012513966192e-01 0.0 
2.460497452995e-02 8.868908154236e-02 0.0 
2.646036185515e-02 9.275262268982e-02 0.0 
2.167012315245e-02 9.164938249704e-02 0.0 
2.517291261206e-02 8.055811485615e-02 0.0 
2.706442110184e-02 8.441277220591e-02 0.0 
2.534615887401e-02 7.263827775871e-02 0.0 
2.724914545715e-02 7.632318553224e-02 0.0 
2.866836145530e-02 8.749165586454e-02 0.0 
2.885557943171e-02 7.930300305059e-02 0.0 
2.994146081342e-02 8.975910727866e-02 0.0 
3.012017471158e-02 8.148766661673e-02 0.0 
2.863043462545e-02 7.150334654846e-02 0.0 
2.987938355166e-02 7.366723130190e-02 0.0 
3.102461567519e-02 8.290901966322e-02 0.0 
3.075571126142e-02 7.509447418442e-02 0.0 
3.155442113602e-02 8.357090368747e-02 0.0 
3.124909718142e-02 7.577579042798e-02 0.0 
3.171288372876e-02 8.349659895220e-02 0.0 
3.136635240642e-02 7.577503952766e-02 0.0 
3.053215542873e-02 6.851994168866e-02 0.0 
3.060238406835e-02 6.864126616301e-02 0.0 
3.111335783307e-02 7.512272715748e-02 0.0 
3.029244484504e-02 6.814343459923e-02 0.0 
3.050104461561e-02 7.385475349596e-02 0.0 
2.961119889566e-02 6.706585350616e-02 0.0 
2.908620385534e-02 6.178032400305e-02 0.0 
2.833629623933e-02 6.095493800761e-02 0.0 
2.856754531779e-02 6.546316208825e-02 0.0 
2.721796897257e-02 5.967013758697e-02 0.0 
2.717286053463e-02 6.339449853904e-02 0.0 
2.574412781111e-02 5.799145751552e-02 0.0 
2.544072754354e-02 6.092097296372e-02 0.0 
2.391538577178e-02 5.598622449161e-02 0.0 
2.401906854886e-02 5.331961165497e-02 0.0 
2.212463543883e-02 5.183014926387e-02 0.0 
2.174742388324e-02 5.376302872052e-02 0.0 
1.991209457447e-02 5.023747501602e-02 0.0 
2.016400705300e-02 4.841348925323e-02 0.0 
1.796226886505e-02 4.747192736342e-02 0.0 
1.811862124806e-02 4.563393019022e-02 0.0 
1.598436893248e-02 4.532796746592e-02 0.0 
1.554359842975e-02 4.664268006860e-02 0.0 
1.367803808438e-02 4.518135771880e-02 0.0 
1.404945939340e-02 4.366036082098e-02 0.0 
1.189621779673e-02 4.414047399632e-02 0.0 
1.126145825935e-02 4.532543190289e-02 0.0 
9.706192549971e-03 4.489529785913e-02 0.0 
1.024836198809e-02 4.335502395980e-02 0.0 
8.286432618081e-03 4.463157300779e-02 0.0 
7.561947000545e-03 4.600880200531e-02 0.0 
6.411858228073e-03 4.620311345489e-02 0.0 
7.026517539035e-03 4.438195517671e-02 0.0 
5.396313874868e-03 4.633875189058e-02 0.0 
4.691465091009e-03 4.809884376545e-02 0.0 
3.939801975047e-03 4.851442007145e-02 0.0 
4.512387028601e-03 4.631446949203e-02 0.0 
3.280952194010e-03 4.872995746455e-02 0.0 
3.732227976628e-03 4.611026883075e-02 0.0 
2.678720142668e-03 5.094604627717e-02 0.0 
2.240503054740e-03 5.128898867154e-02 0.0 
1.666646534646e-03 5.355831685476e-02 0.0 
1.414654708268e-03 5.394495218501e-02 0.0 
2.754349691895e-02 5.602466284823e-02 0.0 
9.354258047669e-04 5.623477925180e-02 0.0 
1.066037320784e-03 5.546052261075e-02 0.0 
8.128378378757e-04 5.662888767052e-02 0.0 
1.182643769714e-03 5.402230180279e-02 0.0 
4.596631721239e-04 5.892537950824e-02 0.0 
4.186048700692e-04 5.927653481843e-02 0.0 
2.103179634399e-04 6.155011844331e-02 0.0 
2.656267138485e-02 6.680171223160e-02 0.0 
2.800147340010e-02 6.412419255601e-02 0.0 
2.030190759164e-04 6.182336607542e-02 0.0 
1.403339516212e-04 6.403439262503e-02 0.0 
1.336941537933e-04 6.353478695561e-02 0.0 
2.367104600596e-04 6.593627312710e-02 0.0 
2.048511449685e-02 9.970314920729e-02 0.0 
1.953702524292e-02 8.572387323257e-02 0.0 
1.850055306847e-02 9.364504250938e-02 0.0 
1.729935029759e-02 7.928784699985e-02 0.0 
1.642608708028e-02 8.695184531337e-02 0.0 
1.905751318783e-04 6.631648091247e-02 0.0 
2.316176184373e-02 6.786957015266e-02 0.0 
1.791020524522e-02 7.145265553076e-02 0.0 
3.142501901264e-02 9.190203303400e-02 0.0 
3.095455472796e-02 8.131878829053e-02 0.0 
2.000181331955e-02 4.598039422611e-02 0.0 
3.655338392200e-04 5.930172762911e-02 0.0 
1.799999053945e-04 6.178087444062e-02 0.0 
3.081811604219e-04 5.902079554360e-02 0.0 
4.891831825130e-03 4.365482890633e-02 0.0 
4.005610840413e-03 4.306304993617e-02 0.0 
5.051052455564e-03 4.052151274789e-02 0.0 
4.085417187211e-03 3.956152412252e-02 0.0 
4.980683911896e-03 3.689727615848e-02 0.0 
3.967185205574e-03 3.558155142113e-02 0.0 
3.246625021970e-03 3.842360716643e-02 0.0 
3.095614652216e-03 3.409469946149e-02 0.0 
2.528299414008e-03 3.708953666087e-02 0.0 
4.684094900840e-03 3.276520080952e-02 0.0 
5.871393638917e-03 3.428550354935e-02 0.0 
2.358654740885e-03 3.242662386058e-02 0.0 
1.923337756918e-03 3.554837866784e-02 0.0 
1.747940218088e-03 3.056513369270e-02 0.0 
1.424065221631e-03 3.379995905823e-02 0.0 
1.507773458833e-03 3.864252429242e-02 0.0 
1.112697574795e-03 3.698499947701e-02 0.0 
1.132055738156e-03 4.169018369021e-02 0.0 
1.786763859554e-02 4.316587627128e-02 0.0 
1.940882323107e-02 4.293690156945e-02 0.0 
1.719600684412e-02 4.007720539036e-02 0.0 
1.836220099142e-02 3.928378331732e-02 0.0 
1.609260625508e-02 3.637042859255e-02 0.0 
1.685436384428e-02 3.502436982685e-02 0.0 
1.455161034661e-02 3.204633032610e-02 0.0 
1.387692361376e-02 3.375487177280e-02 0.0 
2.512696599748e-02 6.487984662952e-02 0.0 
1.925980617919e-02 5.144207792864e-02 0.0 
2.095124750976e-02 5.511853805733e-02 0.0 
1.822841152916e-02 5.201505939422e-02 0.0 
1.975086142691e-02 5.588512994621e-02 0.0 
1.683809574057e-02 5.192212156938e-02 0.0 
1.816864714518e-02 5.607316249932e-02 0.0 
1.511854801448e-02 5.114425405912e-02 0.0 
1.364246080191e-02 4.813333029291e-02 0.0 
1.175452062046e-02 4.640393957559e-02 0.0 
1.021130208091e-02 4.484298570694e-02 0.0 
8.159759152090e-03 4.231307669368e-02 0.0 
6.694573380724e-03 4.242838762264e-02 0.0 
2.943525769130e-02 6.181610260787e-02 0.0 
1.918716000238e-02 3.831544021920e-02 0.0 
1.724918716782e-02 3.345791368335e-02 0.0 
1.962112410842e-02 3.707968122505e-02 0.0 
2.660944063697e-04 6.523331072354e-02 0.0 
1.020671786855e-03 3.184654074177e-02 0.0 
5.351390119807e-03 2.996204477262e-02 0.0 
6.704008721810e-03 3.174994136313e-02 0.0 
1.233090368493e-02 2.930123918238e-02 0.0 
4.220220305835e-04 6.808221423428e-02 0.0 
1.622476599963e-02 5.571419173455e-02 0.0 
1.901053078903e-02 6.161270258426e-02 0.0 
1.502350578087e-02 7.224114083145e-02 0.0 
1.432888986170e-02 7.975537583321e-02 0.0 
5.916435791467e-03 2.715990790790e-02 0.0 
3.011069359670e-04 6.835449330777e-02 0.0 
2.785195012488e-03 2.928324988032e-02 0.0 
9.590052421273e-03 4.380312068410e-02 0.0 
7.933343472199e-04 3.511814451367e-02 0.0 
7.025912831268e-04 2.970122717060e-02 0.0 
2.561663788580e-03 4.127631293133e-02 0.0 
1.723304738364e-02 3.159340713048e-02 0.0 
1.967088836853e-02 3.558556110163e-02 0.0 
8.721149782642e-03 4.454510995446e-02 0.0 
5.461966330554e-03 4.355612841900e-02 0.0 
3.335341422230e-03 4.126414524062e-02 0.0 
2.580949366503e-03 4.388542899346e-02 0.0 
4.507823763001e-03 4.525086665867e-02 0.0 
2.060195009882e-03 4.642033965630e-02 0.0 
3.623424770026e-04 4.537183344283e-02 0.0 
2.589256154343e-04 4.857529497736e-02 0.0 
1.737915721390e-03 4.887733854358e-02 0.0 
3.275915823605e-04 5.139350010995e-02 0.0 
-6.974655709093e-04 5.152054469272e-02 0.0 
-3.980994290601e-04 5.440937842303e-02 0.0 
8.645020423314e-04 2.625417077127e-02 0.0 
5.889099887001e-03 3.892887116455e-02 0.0 
2.933026973911e-02 9.841155809568e-02 0.0 
4.599154769157e-03 2.508090468946e-02 0.0 
1.260930469681e-02 2.717437318098e-02 0.0 
1.275476441473e-02 6.473429376871e-02 0.0 
1.224325712864e-02 7.214170344032e-02 0.0 
1.344504218871e-02 8.721945007292e-02 0.0 
1.154231045029e-02 7.947210997706e-02 0.0 
1.020765193924e-02 6.417301520125e-02 0.0 
9.689022286259e-03 7.144866581815e-02 0.0 
1.070641989716e-02 8.670292960433e-02 0.0 
9.023016839737e-03 7.862745137076e-02 0.0 
9.779727887382e-03 9.379200803837e-02 0.0 
8.249960040218e-03 8.568613259487e-02 0.0 
7.410401895841e-03 7.033294937198e-02 0.0 
6.781636918761e-03 7.740724264314e-02 0.0 
7.402594926910e-03 9.263113703229e-02 0.0 
6.058843961239e-03 8.437920019670e-02 0.0 
6.503436990176e-03 9.944983360567e-02 0.0 
5.263500510161e-03 9.124363374571e-02 0.0 
4.794257444340e-03 7.599014615729e-02 0.0 
6.078985489476e-04 6.986405124998e-02 0.0 
1.176384442959e-02 3.135745628697e-02 0.0 
1.023381473025e-02 2.671759745628e-02 0.0 
1.527861544248e-04 6.140785725139e-02 0.0 
2.565236863639e-04 5.841956662523e-02 0.0 
4.647149710253e-04 5.591804734976e-02 0.0 
3.625064533312e-04 5.511615055036e-02 0.0 
4.080525713304e-03 8.298257376632e-02 0.0 
3.629579124276e-03 6.749518345443e-02 0.0 
1.670395636816e-02 6.194369291020e-02 0.0 
1.916693605032e-02 6.857252097225e-02 0.0 
1.302069166226e-02 5.728239527236e-02 0.0 
5.405545624914e-04 3.305317782971e-02 0.0 
5.855492539175e-04 3.830058640573e-02 0.0 
3.006649179343e-02 7.925263295138e-02 0.0 
3.009138542271e-02 8.719922522813e-02 0.0 
2.896159663586e-02 8.437904872149e-02 0.0 
2.844293007269e-02 9.290775646289e-02 0.0 
2.957922928739e-02 9.581915085984e-02 0.0 
2.707761664645e-02 8.931889541597e-02 0.0 
7.220901280701e-03 3.576629721635e-02 0.0 
5.898787039580e-03 6.187041410310e-02 0.0 
9.143733682860e-05 6.268756888318e-02 0.0 
2.720560181307e-04 6.419564216634e-02 0.0 
4.588115245433e-04 2.737440051962e-02 0.0 
1.290674420145e-02 3.536435845185e-02 0.0 
2.901636110751e-02 6.092602194677e-02 0.0 
2.760750970977e-02 5.458990531483e-02 0.0 
2.680890976884e-02 5.293877815820e-02 0.0 
2.510661564437e-02 4.694939666813e-02 0.0 
2.389285625986e-02 4.454200858331e-02 0.0 
2.191063496989e-02 3.888466947168e-02 0.0 
2.313182864473e-02 4.142059556507e-02 0.0 
1.675701544194e-02 2.932509844376e-02 0.0 
1.969137973465e-02 3.361803518812e-02 0.0 
4.484124457443e-03 9.813857776491e-02 0.0 
2.149521650290e-02 4.202815018644e-02 0.0 
1.529717238065e-03 5.104484739807e-02 0.0 
8.376270906715e-04 6.939049387344e-02 0.0 
-7.241501619104e-04 5.498310336091e-02 0.0 
4.116342163492e-04 7.009633352031e-02 0.0 
1.973043035943e-04 6.833222396426e-02 0.0 
4.881887884152e-03 2.200871427885e-02 0.0 
2.023971031691e-02 3.571959828603e-02 0.0 
2.225010645036e-02 4.149477317483e-02 0.0 
2.734863995842e-02 1.021697196877e-01 0.0 
2.851785619207e-02 1.050653470153e-01 0.0 
1.429358696324e-02 2.550614924606e-02 0.0 
1.722999987647e-02 1.015608921912e-01 0.0 
1.133992890386e-02 1.016900780819e-01 0.0 
1.021336122041e-02 1.086434786476e-01 0.0 
8.019028586518e-04 7.146033111038e-02 0.0 
-9.785105127198e-04 5.155270941649e-02 0.0 
8.265970473091e-03 5.593584941406e-02 0.0 
2.147748307821e-02 6.721437380553e-02 0.0 
2.138969504229e-02 7.467168764208e-02 0.0 
6.916515206327e-03 4.064183882139e-02 0.0 
3.482462552050e-03 3.515902911036e-02 0.0 
3.037780250000e-03 7.438000269838e-02 0.0 
2.613763118091e-03 5.887314492087e-02 0.0 
6.153964084169e-04 5.248091412282e-02 0.0 
4.713430478486e-04 5.143076415965e-02 0.0 
6.326269779839e-03 2.430524836507e-02 0.0 
-4.271463218297e-04 5.764498185506e-02 0.0 
3.014830661316e-03 5.172818838060e-02 0.0 
1.092270684445e-02 3.331551087753e-02 0.0 
1.169756766625e-02 3.694266211699e-02 0.0 
1.919062333024e-04 5.762607717340e-02 0.0 
1.629269115835e-02 6.971887334514e-02 0.0 
1.378235811959e-02 6.203541372097e-02 0.0 
3.183189422180e-03 4.883249553961e-02 0.0 
-1.295383816461e-04 5.669496396856e-02 0.0 
2.513476744619e-04 6.999905985593e-02 0.0 
4.960975472234e-03 1.884685111246e-02 0.0 
8.412305578930e-03 4.863630429403e-02 0.0 
2.095018478657e-02 3.635565345681e-02 0.0 
2.392365639465e-02 4.342891086061e-02 0.0 
1.730239591518e-02 2.876488076287e-02 0.0 
-3.918257380728e-05 5.846200501874e-02 0.0 
3.638625089263e-03 1.961837965741e-02 0.0 
3.456439631746e-04 3.080704226099e-02 0.0 
1.832261033325e-02 3.239482096481e-02 0.0 
2.019087081485e-02 3.781710798157e-02 0.0 
2.365785829592e-02 7.237514317141e-02 0.0 
2.345952736882e-02 8.024420977434e-02 0.0 
2.054429388261e-02 8.327920221941e-02 0.0 
2.248893836270e-02 8.903436349088e-02 0.0 
2.700492774208e-02 1.048143212535e-01 0.0 
2.562034885962e-02 7.703208080379e-02 0.0 
3.026779951891e-02 9.996576842770e-02 0.0 
2.922936456155e-02 1.090687906318e-01 0.0 
2.980273803139e-02 1.099233200628e-01 0.0 
3.038851099638e-02 9.809878447416e-02 0.0 
2.935242583836e-02 1.073995446793e-01 0.0 
2.234528019668e-02 5.981180022909e-02 0.0 
2.159454586662e-02 4.625815153841e-02 0.0 
7.832845846600e-04 5.326760435279e-02 0.0 
1.499781422109e-03 4.303324698605e-02 0.0 
6.149492006032e-03 4.132875854285e-02 0.0 
6.257524955290e-03 5.469182380582e-02 0.0 
4.742163874626e-03 4.604850870125e-02 0.0 
7.787996988803e-03 1.075144508445e-01 0.0 
6.762516985794e-03 1.141615166384e-01 0.0 
6.919304993519e-04 6.663129967296e-02 0.0 
8.336882931921e-04 6.539805937927e-02 0.0 
3.048316893016e-03 4.569048749391e-02 0.0 
3.469309984528e-03 2.289877613999e-02 0.0 
1.061773401306e-02 4.948360597804e-02 0.0 
1.040160409371e-02 4.210917532898e-02 0.0 
1.298465669824e-02 4.981006561306e-02 0.0 
6.516130818607e-03 2.136216300417e-02 0.0 
1.651232273444e-02 4.921356021467e-02 0.0 
1.574233159146e-02 4.079360726948e-02 0.0 
2.611268585829e-03 3.575627801560e-02 0.0 
2.797060225243e-02 5.611018985952e-02 0.0 
1.484964217679e-03 6.768544174377e-02 0.0 
2.641696478825e-02 6.128002318324e-02 0.0 
2.793306248905e-04 2.488098352507e-02 0.0 
3.498860024386e-04 2.124815740439e-02 0.0 
1.331905180964e-02 2.263003917593e-02 0.0 
2.492598138065e-02 1.257700858258e-01 0.0 
2.619070078186e-02 5.066621836379e-02 0.0 
2.572975411652e-02 5.088222533626e-02 0.0 
2.832857710640e-02 1.194028243297e-01 0.0 
2.852848689938e-02 1.195659390417e-01 0.0 
3.001370848125e-02 1.099556101464e-01 0.0 
2.833349409687e-02 1.189634768941e-01 0.0 
2.722720852708e-03 5.039753449572e-02 0.0 
1.371258589282e-03 5.284294470577e-02 0.0 
1.567241688864e-02 2.619722180166e-02 0.0 
1.567287800124e-02 2.558759922687e-02 0.0 
1.591431558547e-02 2.825071770742e-02 0.0 
1.771851140378e-02 3.340468135444e-02 0.0 
1.081604207384e-02 1.883021082853e-02 0.0 
1.185238450201e-02 2.192872794546e-02 0.0 
1.157848425370e-04 6.803326154058e-02 0.0 
2.694648440331e-02 1.147543849168e-01 0.0 
6.424603058330e-03 4.017110580684e-02 0.0 
2.777142335558e-02 1.184275694337e-01 0.0 
2.621213195725e-03 1.728074013787e-02 0.0 
2.529377413898e-03 2.059256968226e-02 0.0 
7.796278204892e-04 3.170106213270e-02 0.0 
-3.402106870930e-05 3.501805496124e-02 0.0 
2.066382724217e-03 4.329070139532e-02 0.0 
1.892622454042e-02 9.268887800114e-02 0.0 
2.074617748009e-02 9.847729226423e-02 0.0 
1.701309521797e-02 8.608222678364e-02 0.0 
2.768647495346e-05 1.123646988070e-02 0.0 
1.795240081398e-03 1.410445618905e-01 0.0 
1.977484579440e-04 1.851735858557e-02 0.0 
3.089411430019e-02 9.977568585175e-02 0.0 
2.234331779769e-03 3.539374691358e-02 0.0 
2.421105538001e-02 4.581317656637e-02 0.0 
2.883469736904e-02 7.666162565933e-02 0.0 
7.971236694770e-03 2.655872933846e-02 0.0 
1.673828297723e-03 5.180358110693e-02 0.0 
1.244384052209e-03 3.407578362675e-02 0.0 
1.159761809795e-02 1.161142888268e-01 0.0 
1.037366704286e-02 1.231358894458e-01 0.0 
1.289914630715e-02 1.093213598844e-01 0.0 
1.057786095959e-02 4.764935560386e-02 0.0 
6.993091907944e-03 4.574900480690e-02 0.0 
4.516274144039e-03 5.326229048283e-02 0.0 
1.050645723685e-04 6.408532848255e-02 0.0 
7.941200712311e-05 6.342327999222e-02 0.0 
-1.659240000535e-04 5.976851471695e-02 0.0 
4.098501628441e-05 5.851911024947e-02 0.0 
9.605429213900e-04 4.975352279988e-02 0.0 
1.220977606056e-03 5.054122583555e-02 0.0 
2.538587247469e-02 5.425965847315e-02 0.0 
2.345919704481e-02 5.079564020017e-02 0.0 
2.820319755029e-02 5.943516686584e-02 0.0 
9.867922392690e-03 3.524952410482e-02 0.0 
1.031630117815e-02 3.855987695554e-02 0.0 
1.212954881974e-02 3.994867171109e-02 0.0 
4.842509659498e-03 3.929458124756e-02 0.0 
3.237796065115e-03 2.915841813924e-02 0.0 
4.483268042241e-03 4.836681741903e-02 0.0 
5.287518252313e-03 4.720620756295e-02 0.0 
2.318278330369e-03 5.172556467598e-02 0.0 
6.187052967752e-03 3.314869139093e-02 0.0 
2.371341649975e-04 1.485864723755e-02 0.0 
4.076680303242e-04 1.775378516364e-02 0.0 
1.840777574601e-03 6.630836036530e-02 0.0 
9.323919890139e-04 6.376226214313e-02 0.0 
1.254416990696e-02 7.075962000512e-02 0.0 
9.751228165307e-03 6.216445585859e-02 0.0 
9.981271898854e-03 3.535342610677e-02 0.0 
1.262712233664e-02 4.250420283145e-02 0.0 
7.167800851108e-03 2.678836891688e-02 0.0 
1.369609124627e-04 6.974318764774e-02 0.0 
2.173986525179e-02 3.848893188993e-02 0.0 
4.952890522935e-03 1.586919660477e-02 0.0 
6.617962995734e-03 1.861808408253e-02 0.0 
3.320415276171e-03 1.236864488251e-02 0.0 
1.593144309725e-02 2.687968315953e-02 0.0 
1.200126338289e-02 1.964601309689e-02 0.0 
1.292978976703e-02 2.067598757212e-02 0.0 
8.284068345051e-04 3.112439566514e-02 0.0 
9.335906623789e-04 4.074683386531e-02 0.0 
7.967017752535e-03 1.220419730990e-01 0.0 
-4.580279828462e-04 2.816088913189e-02 0.0 
6.849588981985e-03 1.290000838819e-01 0.0 
5.764176132729e-03 1.207822698453e-01 0.0 
5.906140440379e-03 1.357621684550e-01 0.0 
2.617053290408e-04 7.138955507170e-02 0.0 
1.300286614313e-02 1.259106364505e-01 0.0 
1.452471835080e-02 1.171975717266e-01 0.0 
2.520038766413e-03 6.460881009213e-02 0.0 
4.203207216580e-03 2.466707888098e-02 0.0 
2.522084530578e-03 6.822185777914e-02 0.0 
2.001080238043e-03 6.940590680542e-02 0.0 
1.793472677254e-03 1.458460676062e-02 0.0 
1.769017457166e-03 1.811619147108e-02 0.0 
1.137227530336e-03 1.188597307951e-02 0.0 
1.201707185890e-03 1.582978571859e-02 0.0 
1.661955430010e-03 2.170691593286e-02 0.0 
1.126379147021e-03 1.923826976623e-02 0.0 
9.236240590262e-03 1.309610551711e-01 0.0 
7.121067512007e-04 1.214511883739e-02 0.0 
7.136481389025e-04 1.646916845235e-02 0.0 
3.876926290951e-04 9.446274606649e-03 0.0 
2.635544013315e-02 1.291687714619e-01 0.0 
2.411852945594e-02 9.413740005741e-02 0.0 
2.234145271779e-02 1.038697907957e-01 0.0 
1.811686050593e-02 1.090868934294e-01 0.0 
1.203069525421e-02 2.119982127940e-02 0.0 
1.514861958357e-02 2.892701775638e-02 0.0 
1.982770561819e-04 2.826835663489e-02 0.0 
2.246717217504e-04 3.400460436429e-02 0.0 
4.744032034165e-03 1.283491297031e-01 0.0 
3.470198175621e-03 1.289231282424e-01 0.0 
3.808836543483e-03 1.158817463477e-01 0.0 
2.747767829292e-03 1.174653225995e-01 0.0 
2.973948361114e-03 1.043890943633e-01 0.0 
1.912537270024e-03 1.060609169150e-01 0.0 
2.280657324088e-03 9.270606199565e-02 0.0 
1.080363299996e-02 1.693137237998e-02 0.0 
1.447648312623e-02 9.556803217758e-02 0.0 
2.638299469888e-02 1.292816149483e-01 0.0 
8.370654753550e-03 1.521613359029e-02 0.0 
9.787083658549e-03 1.910801959586e-02 0.0 
2.781591841740e-02 1.171406358176e-01 0.0 
2.476242292923e-02 1.251177912053e-01 0.0 
2.353750826940e-03 1.284617275442e-02 0.0 
2.535344514958e-02 6.981605295706e-02 0.0 
3.177908650907e-03 1.564701651414e-02 0.0 
-4.582684606786e-03 4.143546111182e-02 0.0 
1.568249442396e-03 4.071150062245e-02 0.0 
2.718914975832e-02 7.358903878013e-02 0.0 
2.986198742889e-02 1.091264282576e-01 0.0 
2.578790116755e-02 9.855607684083e-02 0.0 
2.429396721266e-02 1.083305120483e-01 0.0 
9.096358957406e-03 3.129307834457e-02 0.0 
1.115433317955e-03 6.169674915480e-02 0.0 
1.492957329934e-02 7.874860326415e-02 0.0 
3.325503795542e-03 9.121065787783e-02 0.0 
1.018155060173e-02 8.004468858622e-02 0.0 
9.859351388360e-05 3.100725561935e-02 0.0 
2.460472131177e-02 6.349005017141e-02 0.0 
3.143806817433e-02 9.094862715011e-02 0.0 
1.851883409288e-02 7.677415888311e-02 0.0 
2.545380191216e-02 8.517138542183e-02 0.0 
2.806011277137e-02 9.602355359122e-02 0.0 
2.557031630097e-02 1.136746802429e-01 0.0 
2.677068973872e-02 1.167402431558e-01 0.0 
2.336219522294e-02 5.816554855608e-02 0.0 
2.578735284824e-02 1.118590637947e-01 0.0 
2.196807693352e-02 1.190609427182e-01 0.0 
3.087139925735e-02 9.122581448777e-02 0.0 
1.560307116924e-02 5.704292560149e-02 0.0 
1.537005111496e-02 4.950292930266e-02 0.0 
1.198306273017e-02 3.570624010717e-02 0.0 
1.476626499697e-02 4.224916324689e-02 0.0 
1.808976671743e-02 5.605760840576e-02 0.0 
1.759471044773e-02 4.862235564947e-02 0.0 
1.378544820851e-02 3.538208770132e-02 0.0 
1.670713108656e-02 4.147019727620e-02 0.0 
1.140449747406e-02 2.603033092347e-02 0.0 
1.529110476114e-02 3.435015028183e-02 0.0 
1.952962495271e-02 4.733302917574e-02 0.0 
1.838588500668e-02 4.066471277164e-02 0.0 
1.418326176697e-02 2.938699059007e-02 0.0 
2.225925573307e-02 5.323490577658e-02 0.0 
6.883074227449e-03 1.176455760847e-02 0.0 
2.821471473534e-02 6.966067856262e-02 0.0 
3.688932034559e-03 3.727400486756e-02 0.0 
4.549594557839e-03 5.068266342766e-02 0.0 
3.161369055617e-02 9.180618847573e-02 0.0 
5.702352581372e-03 1.275158932162e-02 0.0 
4.883196450302e-03 1.319308567927e-02 0.0 
2.087958819686e-02 6.093373414689e-02 0.0 
6.092398347354e-03 9.945973996838e-03 0.0 
2.826294384128e-02 1.074476038510e-01 0.0 
1.309060345476e-02 4.968753701434e-02 0.0 
5.970886832014e-03 9.183232524032e-03 0.0 
1.818809248855e-02 6.366631567384e-02 0.0 
2.069227213549e-02 6.999777115190e-02 0.0 
2.028282141369e-02 7.785413924177e-02 0.0 
3.848154487114e-03 1.272781029640e-02 0.0 
1.418472573149e-02 1.021757310484e-01 0.0 
4.672073549972e-03 7.265630045848e-03 0.0 
2.063130756420e-02 4.258255125428e-02 0.0 
2.284597256993e-02 4.640013651255e-02 0.0 
2.366878771442e-02 5.014057873749e-02 0.0 
2.034375961175e-02 5.479562131150e-02 0.0 
3.432317797854e-03 6.744454402724e-03 0.0 
5.973520990860e-03 1.257100336314e-02 0.0 
5.221655798869e-03 1.231727090124e-02 0.0 
8.050227867809e-03 1.823669405248e-02 0.0 
2.601590383638e-03 6.459788193108e-03 0.0 
5.610915944823e-03 1.074349162308e-02 0.0 
5.478521756491e-03 9.842508347458e-03 0.0 
3.758764281836e-03 4.706527101138e-02 0.0 
6.251585200652e-03 4.605011881184e-02 0.0 
7.720896356702e-03 4.623210832276e-02 0.0 
9.026298788510e-03 4.581359397114e-02 0.0 
7.392227234737e-03 4.506453479664e-02 0.0 
1.046955293530e-02 4.579904877826e-02 0.0 
1.189796836580e-02 4.628361796293e-02 0.0 
1.203135869672e-02 4.645915995661e-02 0.0 
1.961901066277e-02 3.982869635631e-02 0.0 
1.807951192143e-03 6.086863066509e-03 0.0 
6.140622251022e-03 3.807798369857e-02 0.0 
7.443328606762e-03 3.918956091873e-02 0.0 
7.373879383265e-03 4.205304502362e-02 0.0 
9.730287860739e-04 5.378399998960e-02 0.0 
1.518687367800e-03 5.107511752148e-02 0.0 
1.781184302802e-03 4.777087601085e-02 0.0 
5.736706011929e-04 5.645380745851e-02 0.0 
2.589484744647e-02 4.876764872339e-02 0.0 
1.481505572849e-03 6.100302761602e-03 0.0 
1.367419464727e-02 3.874968328672e-02 0.0 
1.856420295022e-03 5.133235192683e-02 0.0 
1.669913676594e-02 1.375982140550e-01 0.0 
1.811953017147e-02 1.248349175825e-01 0.0 
1.995474796434e-02 1.227086521537e-01 0.0 
1.914297673313e-02 1.099325237499e-01 0.0 
1.613915564783e-02 1.247538090051e-01 0.0 
7.384707461122e-04 4.869743095148e-02 0.0 
5.508982790259e-04 4.739556238167e-02 0.0 
3.460493522287e-04 5.013754469446e-02 0.0 
3.925300132104e-04 4.586232301610e-02 0.0 
2.347443233728e-04 4.860184084780e-02 0.0 
1.989625319133e-04 5.263414795861e-02 0.0 
2.543492373836e-04 4.411789837351e-02 0.0 
1.314508193815e-04 4.736476141473e-02 0.0 
1.348010182770e-02 1.396630314368e-01 0.0 
1.138742658282e-03 3.766737232717e-02 0.0 
-5.080933940938e-04 4.188601435749e-02 0.0 
5.656651125726e-04 4.853446432361e-02 0.0 
-1.123285536908e-03 4.549717560728e-02 0.0 
-1.167339987381e-03 4.003946520003e-02 0.0 
-9.909240431001e-04 4.394540247309e-02 0.0 
-1.609780432065e-04 3.973710765212e-02 0.0 
-1.074539590496e-03 3.510930742533e-02 0.0 
3.832768256059e-03 5.175019582707e-02 0.0 
1.426573667991e-03 5.386971831807e-02 0.0 
4.400056349624e-03 5.660801727473e-02 0.0 
2.146957597858e-03 5.816928238272e-02 0.0 
-2.793114951907e-05 5.553551837376e-02 0.0 
2.177191187189e-04 6.272261608528e-02 0.0 
1.013963884634e-04 7.462221225879e-03 0.0 
4.057869438144e-05 5.849283758309e-02 0.0 
6.693571668672e-05 6.001636564112e-02 0.0 
3.793426668776e-05 6.305514886716e-02 0.0 
8.519665230622e-05 6.107531410132e-02 0.0 
9.199924279784e-05 5.686334451440e-02 0.0 
1.670378751514e-05 6.480103846669e-02 0.0 
3.895613615367e-05 6.553719541667e-02 0.0 
1.640595343522e-03 7.388137725102e-02 0.0 
9.813583630706e-04 7.399854013582e-02 0.0 
4.813278814681e-04 7.439136067928e-02 0.0 
5.264682064270e-04 7.370151205645e-02 0.0 
8.685497999178e-04 7.327986478507e-02 0.0 
1.445414426078e-03 7.344013064948e-02 0.0 
1.878846622958e-03 7.268221423931e-02 0.0 
2.811487820014e-03 7.238821525759e-02 0.0 
2.242454725739e-03 7.173017707986e-02 0.0 
1.409138862828e-03 7.175230881857e-02 0.0 
3.335025447278e-03 7.136121172451e-02 0.0 
7.378106859882e-04 7.273890477597e-02 0.0 
1.410520967891e-03 6.503751582546e-02 0.0 
1.015952815202e-03 6.481659059495e-03 0.0 
1.053916448063e-02 1.394071872032e-01 0.0 
4.627264205708e-03 6.359506349566e-02 0.0 
1.172171548153e-03 1.709803525560e-02 0.0 
1.819651188280e-03 1.411851428526e-02 0.0 
1.459462295372e-03 1.370737750866e-02 0.0 
5.537812419502e-05 1.835804896803e-02 0.0 
9.014416832531e-05 1.504207727900e-02 0.0 
6.311378964435e-04 1.664177365975e-02 0.0 
1.902367668827e-04 6.095153191644e-02 0.0 
1.097381515375e-02 2.923080414829e-02 0.0 
3.284933606029e-03 4.449851613456e-02 0.0 
1.388330169760e-02 5.490122400289e-02 0.0 
4.789972030986e-04 5.559106618901e-02 0.0 
3.816099507203e-04 3.626286224165e-02 0.0 
1.988615480438e-03 4.006234145248e-02 0.0 
5.675703563253e-04 2.388556558624e-02 0.0 
8.303167192872e-04 4.010090308964e-02 0.0 
1.253644983405e-03 2.850216423837e-02 0.0 
4.589056231923e-03 1.252060553496e-02 0.0 
4.811361639646e-04 7.148420052690e-02 0.0 
8.797838033490e-03 1.007258406508e-01 0.0 
5.620020751740e-03 1.062079813678e-01 0.0 
5.402734524539e-03 6.897682761379e-02 0.0 
1.269615200118e-04 6.421191223170e-02 0.0 
2.840711291625e-04 5.384361369759e-02 0.0 
5.482638773679e-04 6.749939535788e-02 0.0 
1.089324868610e-02 1.765607401784e-02 0.0 
3.083072466436e-02 1.007857890418e-01 0.0 
5.894918287824e-03 4.408411391790e-02 0.0 
6.909797032578e-04 5.669547084301e-02 0.0 
4.827558436658e-04 5.821715095359e-02 0.0 
4.188424354279e-04 5.372654735931e-02 0.0 
2.953469250314e-02 7.201589282965e-02 0.0 
2.711096497415e-03 4.868055548279e-02 0.0 
3.657458198051e-03 3.110540027262e-02 0.0 
4.138084020681e-03 6.041781053496e-02 0.0 
3.996773403335e-03 6.838318424939e-02 0.0 
4.174359886423e-03 2.810570155966e-02 0.0 
3.231999928346e-03 4.227569041348e-02 0.0 
1.243426598415e-02 9.455836052532e-02 0.0 
1.488591149368e-02 3.016655635707e-02 0.0 
-8.855328956704e-04 4.814508613192e-02 0.0 
7.920215778576e-03 6.319348210380e-02 0.0 
8.056589919218e-03 3.496099239339e-02 0.0 
1.587094382914e-02 1.093922592609e-01 0.0 
1.150012595171e-03 6.875376064647e-02 0.0 
9.107552634960e-03 1.156307737805e-01 0.0 
3.622886489858e-03 1.624491745727e-02 0.0 
1.546600209800e-02 6.462452209421e-02 0.0 
1.414014775161e-04 6.639521993659e-02 0.0 
1.606620183056e-02 4.337470163394e-02 0.0 
3.150702340409e-02 8.271687057972e-02 0.0 
2.342593553773e-02 1.376799563960e-01 0.0 
3.421914090780e-03 3.780795165973e-02 0.0 
2.674433784755e-02 5.552466111922e-02 0.0 
1.040781008629e-02 2.420920578650e-02 0.0 
1.501293202414e-02 3.758321697140e-02 0.0 
9.486662511688e-05 6.613037185494e-02 0.0 
2.334124651897e-03 2.396729539956e-02 0.0 
2.207411412124e-02 4.932859401728e-02 0.0 
6.459107294083e-03 4.755006779539e-02 0.0 
2.559659671733e-02 5.064934440684e-02 0.0 
1.742907696087e-02 4.867731195442e-02 0.0 
1.053401354483e-02 5.684868634217e-02 0.0 
8.735898749366e-03 4.270220799039e-02 0.0 
1.480935065131e-02 2.800154609201e-02 0.0 
3.104739543246e-02 1.006644988007e-01 0.0 
3.007737515929e-02 6.776410363193e-02 0.0 
2.705090866003e-02 6.865975477648e-02 0.0 
2.945510151105e-02 6.208258120792e-02 0.0 
2.287265452963e-04 3.938044349731e-02 0.0 
3.169637767293e-03 2.611490254278e-02 0.0 
4.614143091076e-03 3.939691888264e-02 0.0 
2.747782360039e-02 8.102905160822e-02 0.0 
1.535506918638e-02 9.459454828055e-02 0.0 
1.811976521332e-02 3.062921069342e-02 0.0 
4.609716206205e-03 3.154731809960e-02 0.0 
3.092615784841e-02 8.939325989832e-02 0.0 
2.062015312964e-03 2.730150919972e-02 0.0 
8.368485819693e-03 4.179507320849e-02 0.0 
2.213668569603e-03 4.836509865991e-02 0.0 
1.127831043628e-04 7.148397373464e-02 0.0 
1.090100048510e-02 5.393531948551e-02 0.0 
1.523778097727e-02 4.904706623086e-02 0.0 
2.556645534850e-02 5.459357856073e-02 0.0 
2.455517985032e-03 4.502241179497e-02 0.0 
8.732491798345e-03 2.672215467438e-02 0.0 
1.474769882674e-03 2.513815784813e-02 0.0 
7.413952715267e-03 2.918072876210e-02 0.0 
1.264607094754e-03 7.139328905003e-02 0.0 
2.588243571685e-02 1.278221914991e-01 0.0 
1.011762825021e-03 2.279023336416e-02 0.0 
1.406000570584e-02 4.151894183335e-02 0.0 
1.246510424104e-02 2.474035746744e-02 0.0 
1.191472976821e-04 5.123796178722e-02 0.0 
1.075437894926e-02 1.705736932323e-02 0.0 
2.584573939817e-02 1.271822946133e-01 0.0 
6.583657950378e-04 2.026645452847e-02 0.0 
9.793990794525e-03 2.903221624352e-02 0.0 
2.327666392143e-02 6.553825175878e-02 0.0 
2.975048682777e-03 1.410664219724e-01 0.0 
3.790406448633e-04 1.274440098541e-02 0.0 
8.263100219958e-03 2.386223845793e-02 0.0 
2.799576049361e-02 5.564888127437e-02 0.0 
1.219322875243e-02 4.234204231405e-02 0.0 
2.411844963922e-02 1.402876305401e-01 0.0 
1.940811416985e-03 4.412568139750e-02 0.0 
2.923967956596e-02 6.634145232416e-02 0.0 
3.355917174837e-03 1.258246863165e-02 0.0 
8.427348710423e-03 2.147291036076e-02 0.0 
2.254818950026e-02 8.390605572674e-02 0.0 
1.403633187535e-03 4.696568421181e-02 0.0 
2.201364323717e-02 4.131092391565e-02 0.0 
1.178310411603e-03 7.263073747280e-02 0.0 
2.657394598312e-02 1.296377633919e-01 0.0 
1.081674350395e-03 4.589911889532e-02 0.0 
1.354990782039e-02 4.725318855852e-02 0.0 
1.045749317446e-02 4.124218776724e-02 0.0 
9.522008078586e-03 1.575910476803e-02 0.0 
8.131476308161e-04 4.458144157138e-02 0.0 
1.473069997603e-02 4.729551384321e-02 0.0 
5.904188736340e-04 4.303526137276e-02 0.0 
2.321281561365e-02 1.387945034972e-01 0.0 
2.303037923384e-02 7.562052124629e-02 0.0 
3.995503703921e-04 4.128242992930e-02 0.0 
2.698654466673e-02 5.718912570413e-02 0.0 
1.554640986238e-03 7.057672227798e-02 0.0 
2.626110542197e-02 5.002372910679e-02 0.0 
1.471326146164e-04 2.181366217761e-02 0.0 
1.962785192132e-03 5.280666512732e-02 0.0 
8.880915011376e-03 4.024764851750e-02 0.0 
2.070985281417e-02 6.225831298798e-02 0.0 
2.089336957154e-02 1.347358850720e-01 0.0 
8.709632051274e-03 3.719173893707e-02 0.0 
2.399495341502e-02 4.772128726027e-02 0.0 
2.429594596140e-02 4.491076336916e-02 0.0 
2.489421609484e-02 5.069130182189e-02 0.0 
8.217026074243e-03 3.350491172859e-02 0.0 
2.370641985282e-02 1.219894119408e-01 0.0 
1.278148463981e-04 6.005169374349e-02 0.0 
2.004538591372e-06 6.145227065931e-02 0.0 
1.296322914034e-02 4.606350497794e-02 0.0 
2.197871630757e-02 4.407659295777e-02 0.0 
5.015448137943e-04 7.268586819226e-02 0.0 
2.287466721936e-02 6.022115843224e-02 0.0 
9.961254340835e-05 6.085448901763e-02 0.0 
1.032538024168e-02 4.588341589080e-02 0.0 
1.918971986132e-02 3.347158297164e-02 0.0 
8.684533230108e-04 1.023394680514e-01 0.0 
8.876356371806e-03 4.584753121893e-02 0.0 
5.446393824870e-05 6.962174479180e-02 0.0 
6.576344365787e-03 4.684495057762e-02 0.0 
2.370634322501e-02 4.624497838721e-02 0.0 
5.578592116293e-03 4.749784145881e-02 0.0 
3.794732234509e-03 4.941761381399e-02 0.0 
2.293809329658e-03 2.900332853195e-02 0.0 
3.202341811652e-03 5.028798180924e-02 0.0 
3.111077860883e-04 1.379564945306e-02 0.0 
3.214490687630e-05 6.835393484964e-03 0.0 
1.123423534399e-03 1.306062018376e-01 0.0 
1.716897068002e-02 1.292240498630e-01 0.0 
-2.191306995775e-03 2.654923679820e-02 0.0 
2.085453853086e-02 1.126179678152e-01 0.0 
1.216218129512e-03 5.429883461150e-02 0.0 
2.452085379372e-02 5.771705089858e-02 0.0 
2.334957581017e-03 1.299756856061e-01 0.0 
4.878213059527e-04 5.711267003816e-02 0.0 
1.056951169779e-02 2.194790041496e-02 0.0 
5.193150343634e-03 7.824677284139e-03 0.0 
1.583448092146e-03 7.954264082513e-02 0.0 
1.037578520176e-02 2.194834798514e-02 0.0 
2.205081969245e-02 4.002098186162e-02 0.0 
4.617372177618e-04 4.234492796135e-02 0.0 
6.830334731641e-03 1.421166665463e-01 0.0 
2.651326687139e-03 6.170518223146e-02 0.0 
1.091920833248e-04 3.669090385394e-02 0.0 
1.349494055243e-02 1.191012719546e-01 0.0 
1.617697283753e-02 1.023404583441e-01 0.0 
1.228715279946e-02 8.816056000915e-02 0.0 
6.307725938905e-05 6.583562286387e-02 0.0 
-4.499420191330e-04 5.089465719195e-02 0.0 
1.086262656880e-02 1.056654419193e-01 0.0 
6.827064374859e-03 1.325930188631e-02 0.0 
1.152668806263e-02 1.291826165417e-01 0.0 
1.866815908299e-02 3.176470516804e-02 0.0 
6.570399757496e-03 9.014457927037e-02 0.0 
5.831024570111e-03 2.719904663389e-02 0.0 
9.777947055785e-03 1.541384339524e-02 0.0 
5.401034933916e-04 5.784948289030e-03 0.0 
1.464056329100e-02 2.397710135998e-02 0.0 
7.467088575268e-03 7.098475355353e-02 0.0 
1.738616938814e-02 1.142536491649e-01 0.0 
1.093926582171e-02 1.830263435306e-02 0.0 
2.158632440595e-03 6.725346083663e-02 0.0 
2.820365801806e-04 5.618747453589e-03 0.0 
1.448175380929e-02 1.293865415194e-01 0.0 
1.385348279293e-03 2.710528333976e-02 0.0 
1.789582792548e-03 3.825011780325e-02 0.0 
6.980450891759e-04 2.632555202086e-02 0.0 
2.110245788705e-02 4.622878999518e-02 0.0 
4.806091690760e-03 1.128560643458e-01 0.0 
2.093495490335e-02 1.114876839167e-01 0.0 
1.148975544258e-04 1.180071068576e-02 0.0 
9.686696426718e-03 2.361590364159e-02 0.0 
4.593812479707e-03 6.004969644376e-02 0.0 
2.484494954233e-03 8.108423038290e-02 0.0 
1.429600925906e-04 6.048979152995e-02 0.0 
-6.553900800881e-04 2.999100406979e-02 0.0 
1.749807480549e-03 1.179449322621e-02 0.0 
1.701734227270e-02 3.486524973260e-02 0.0 
2.495544041809e-04 1.195071448700e-02 0.0 
2.440511590686e-04 7.394379484617e-02 0.0 
3.077156491316e-03 6.691621654849e-02 0.0 
2.429664916687e-03 1.086674232950e-02 0.0 
1.027516496337e-02 1.881643976676e-02 0.0 
8.237833198924e-04 4.241774918471e-02 0.0 
1.958582388960e-03 1.096458462357e-02 0.0 
6.448172024967e-05 4.990851375485e-02 0.0 
9.235887146874e-03 1.433981927928e-01 0.0 
2.605410127942e-03 7.070265638183e-02 0.0 
1.787826029595e-04 5.731235059591e-03 0.0 
3.407861801560e-03 2.577012737750e-02 0.0 
1.204510547166e-04 5.821103194941e-02 0.0 
2.021913243137e-02 1.324678060131e-01 0.0 
6.816800896242e-05 6.787659895459e-02 0.0 
1.422979137574e-02 2.311215297851e-02 0.0 
9.868173566856e-04 5.922369956179e-02 0.0 
2.299727113781e-03 2.443737024376e-02 0.0 
3.426072182803e-03 1.067302069597e-02 0.0 
6.972859277750e-03 2.300128423291e-02 0.0 
3.105761707101e-03 5.258587586093e-03 0.0 
6.388120126521e-05 3.285501342356e-02 0.0 
8.851547048961e-03 1.373611181814e-02 0.0 
6.597691656327e-03 1.663429389526e-02 0.0 
5.156168341988e-03 1.427075671921e-01 0.0 
8.617794310744e-03 2.386711367608e-02 0.0 
5.820346175133e-05 6.371420592365e-02 0.0 
1.002782484322e-03 7.072844337851e-02 0.0 
1.329905846916e-04 1.222699068218e-02 0.0 
5.109548760168e-04 7.446981518596e-02 0.0 
8.736096401855e-04 1.426099465270e-01 0.0 
1.405661253811e-05 5.584913040067e-03 0.0 
7.515515131971e-04 7.241049003047e-02 0.0 
1.858051825187e-03 1.202718604274e-01 0.0 
9.720235263809e-03 1.878501000217e-02 0.0 
4.925645591824e-05 5.063962547920e-02 0.0 
1.069563650293e-03 5.269399676645e-02 0.0 
-1.129657544469e-03 4.818432748274e-02 0.0 
-7.057505998324e-04 2.490906405795e-02 0.0 
1.504167598161e-03 9.493775727321e-02 0.0 
8.340933896737e-03 1.336981948317e-02 0.0 
5.448318165754e-03 2.255121235296e-02 0.0 
3.869057921959e-03 1.049157895521e-01 0.0 
7.950579705577e-03 5.463525701719e-02 0.0 
1.339473761448e-02 2.620135269633e-02 0.0 
1.677821825723e-04 5.544510789833e-02 0.0 
1.450042899346e-02 2.468819637396e-02 0.0 
8.355609940130e-03 1.733399455997e-02 0.0 
-5.176264212131e-03 5.179547737143e-02 0.0 
5.716883935372e-05 4.630915325890e-02 0.0 
2.934890900444e-03 6.951318218401e-02 0.0 
8.323252425987e-04 1.067759537867e-02 0.0 
1.156973772095e-04 5.400765553425e-02 0.0 
1.909594716699e-02 1.507043879570e-01 0.0 
6.105267962360e-04 1.591565910348e-01 0.0 

TENSORS node_materi_stress float
6.261932493825e-01 -1.343302929658e-01 0.0 
-1.343302929658e-01 -8.523065235306e+00 0.0 
0.0 0.0 -1.114291469847e+00 
-2.632790600315e+01 4.244408636309e-01 0.0 
4.244408636309e-01 -2.031100100655e+01 0.0 
0.0 0.0 -1.359167210291e+01 
-1.662667136127e+02 -2.084938877682e-01 0.0 
-2.084938877682e-01 -3.901882273156e+02 0.0 
0.0 0.0 -1.665364822785e+02 
-9.191877814029e+01 9.570391573427e-01 0.0 
9.570391573427e-01 -2.124622841667e+02 0.0 
0.0 0.0 -9.091431869208e+01 
-2.781916578027e+00 -3.702973549129e-01 0.0 
-3.702973549129e-01 -2.086369617939e+01 0.0 
0.0 0.0 -6.120084035883e+00 
-1.043332816313e+01 -6.481181834029e-01 0.0 
-6.481181834029e-01 -4.046057650568e+01 0.0 
0.0 0.0 -1.486817140064e+01 
-1.955199420800e+01 -6.252011012775e-01 0.0 
-6.252011012775e-01 -5.881734600321e+01 0.0 
0.0 0.0 -2.311080206336e+01 
-2.931032787435e+01 -6.466420134547e-01 0.0 
-6.466420134547e-01 -7.979774064951e+01 0.0 
0.0 0.0 -3.233242055716e+01 
-3.843356953768e+01 -5.855939882573e-01 0.0 
-5.855939882573e-01 -1.001707423678e+02 0.0 
0.0 0.0 -4.118129357164e+01 
-4.738169358705e+01 -5.923985985991e-01 0.0 
-5.923985985991e-01 -1.203812046946e+02 0.0 
0.0 0.0 -4.992886948449e+01 
-5.597786205854e+01 -6.430852001132e-01 0.0 
-6.430852001132e-01 -1.406665582602e+02 0.0 
0.0 0.0 -5.859332609562e+01 
-6.433444868461e+01 -6.147686064293e-01 0.0 
-6.147686064293e-01 -1.610029327141e+02 0.0 
0.0 0.0 -6.720121441962e+01 
-7.262580953237e+01 -6.007375502548e-01 0.0 
-6.007375502548e-01 -1.813332318950e+02 0.0 
0.0 0.0 -7.578771242821e+01 
-8.086725733116e+01 -6.428746602255e-01 0.0 
-6.428746602255e-01 -2.018364167533e+02 0.0 
0.0 0.0 -8.441110222532e+01 
-8.930060551226e+01 -7.491916849810e-01 0.0 
-7.491916849810e-01 -2.227852508473e+02 0.0 
0.0 0.0 -9.322575690786e+01 
-9.794436667373e+01 -6.901525044508e-01 0.0 
-6.901525044508e-01 -2.429227576527e+02 0.0 
0.0 0.0 -1.018601372979e+02 
-1.059263527654e+02 -8.302522924187e-01 0.0 
-8.302522924187e-01 -2.611369294176e+02 0.0 
0.0 0.0 -1.097189846549e+02 
-1.145661971016e+02 -3.686218613580e-01 0.0 
-3.686218613580e-01 -2.811375017563e+02 0.0 
0.0 0.0 -1.183111096574e+02 
-1.237053788447e+02 -2.954661818876e-01 0.0 
-2.954661818876e-01 -3.014632635016e+02 0.0 
0.0 0.0 -1.271505927039e+02 
-1.327628868502e+02 -2.461761813876e-01 0.0 
-2.461761813876e-01 -3.210410494307e+02 0.0 
0.0 0.0 -1.357411808843e+02 
-1.420008423550e+02 -1.789011922601e-01 0.0 
-1.789011922601e-01 -3.406465435069e+02 0.0 
0.0 0.0 -1.443942157586e+02 
-1.514410712527e+02 -1.880851953879e-01 0.0 
-1.880851953879e-01 -3.603003741416e+02 0.0 
0.0 0.0 -1.531224336183e+02 
-1.605962426394e+02 -2.523646842667e-01 0.0 
-2.523646842667e-01 -3.789987322380e+02 0.0 
0.0 0.0 -1.614784924632e+02 
-9.216118553808e+01 1.503544999782e+00 0.0 
1.503544999782e+00 -2.137206381441e+02 0.0 
0.0 0.0 -9.136454710465e+01 
-9.166872128484e+01 2.715307572279e+00 0.0 
2.715307572279e+00 -2.127555417298e+02 0.0 
0.0 0.0 -9.092727890438e+01 
-9.190971785184e+01 4.295619756098e+00 0.0 
4.295619756098e+00 -2.132086248496e+02 0.0 
0.0 0.0 -9.113550281044e+01 
-9.197529765644e+01 5.334485535265e+00 0.0 
5.334485535265e+00 -2.135353502989e+02 0.0 
0.0 0.0 -9.125319438660e+01 
-9.221639663842e+01 6.928337765398e+00 0.0 
6.928337765398e+00 -2.133860289457e+02 0.0 
0.0 0.0 -9.128072767523e+01 
-9.276772363389e+01 8.581539555048e+00 0.0 
8.581539555048e+00 -2.146854373494e+02 0.0 
0.0 0.0 -9.183594829500e+01 
-9.372957454633e+01 1.042168235841e+01 0.0 
1.042168235841e+01 -2.160575227216e+02 0.0 
0.0 0.0 -9.253612918039e+01 
-9.401616365039e+01 1.251027739048e+01 0.0 
1.251027739048e+01 -2.170630947778e+02 0.0 
0.0 0.0 -9.292377752845e+01 
-9.530452495674e+01 1.472948314518e+01 0.0 
1.472948314518e+01 -2.196241825713e+02 0.0 
0.0 0.0 -9.407861225841e+01 
-9.601611563212e+01 1.667876613511e+01 0.0 
1.667876613511e+01 -2.217465048697e+02 0.0 
0.0 0.0 -9.492878615054e+01 
-9.739270688298e+01 1.910707912627e+01 0.0 
1.910707912627e+01 -2.238245416078e+02 0.0 
0.0 0.0 -9.596517454725e+01 
-9.894997210705e+01 2.167827849826e+01 0.0 
2.167827849826e+01 -2.278324529172e+02 0.0 
0.0 0.0 -9.763472750727e+01 
-1.013602050291e+02 2.428212701585e+01 0.0 
2.428212701585e+01 -2.327393192929e+02 0.0 
0.0 0.0 -9.982985729661e+01 
-1.028577707506e+02 2.681364092314e+01 0.0 
2.681364092314e+01 -2.371282143248e+02 0.0 
0.0 0.0 -1.015957955226e+02 
-1.054420902720e+02 2.928351801260e+01 0.0 
2.928351801260e+01 -2.425108593617e+02 0.0 
0.0 0.0 -1.039858848901e+02 
-1.074396455330e+02 3.140833312522e+01 0.0 
3.140833312522e+01 -2.481937366142e+02 0.0 
0.0 0.0 -1.062900146441e+02 
-1.105419578407e+02 3.357938088304e+01 0.0 
3.357938088304e+01 -2.554038405847e+02 0.0 
0.0 0.0 -1.093837395276e+02 
-1.143641820068e+02 3.553799329697e+01 0.0 
3.553799329697e+01 -2.644128377668e+02 0.0 
0.0 0.0 -1.132331059321e+02 
-1.177036134691e+02 3.711140589954e+01 0.0 
3.711140589954e+01 -2.732770453695e+02 0.0 
0.0 0.0 -1.168941976516e+02 
-1.212207421464e+02 3.829900170121e+01 0.0 
3.829900170121e+01 -2.824541905904e+02 0.0 
0.0 0.0 -1.207024798210e+02 
-1.245804661940e+02 3.890940019835e+01 0.0 
3.890940019835e+01 -2.914202933035e+02 0.0 
0.0 0.0 -1.244002278493e+02 
-1.283532902803e+02 3.930060353722e+01 0.0 
3.930060353722e+01 -3.004344955700e+02 0.0 
0.0 0.0 -1.282363357551e+02 
-1.318294458752e+02 3.916900176758e+01 0.0 
3.916900176758e+01 -3.095582925313e+02 0.0 
0.0 0.0 -1.320163215219e+02 
-1.353567940731e+02 3.865974881328e+01 0.0 
3.865974881328e+01 -3.184666521515e+02 0.0 
0.0 0.0 -1.357470338674e+02 
-1.389278148263e+02 3.778852202294e+01 0.0 
3.778852202294e+01 -3.273457634000e+02 0.0 
0.0 0.0 -1.394820734679e+02 
-1.424204193091e+02 3.665924273175e+01 0.0 
3.665924273175e+01 -3.359053505541e+02 0.0 
0.0 0.0 -1.430977309589e+02 
-1.455672255805e+02 3.513049404415e+01 0.0 
3.513049404415e+01 -3.438781928025e+02 0.0 
0.0 0.0 -1.464336255149e+02 
-1.484959860429e+02 3.333983293990e+01 0.0 
3.333983293990e+01 -3.511713773786e+02 0.0 
0.0 0.0 -1.495002090264e+02 
-1.511024743844e+02 3.128012227820e+01 0.0 
3.128012227820e+01 -3.576950728681e+02 0.0 
0.0 0.0 -1.522392641757e+02 
-1.541480608579e+02 2.932229096349e+01 0.0 
2.932229096349e+01 -3.642738740075e+02 0.0 
0.0 0.0 -1.551265804596e+02 
-1.559891155372e+02 2.669022684081e+01 0.0 
2.669022684081e+01 -3.695918144557e+02 0.0 
0.0 0.0 -1.572742789979e+02 
-1.575057519960e+02 2.442669539674e+01 0.0 
2.442669539674e+01 -3.734889928307e+02 0.0 
0.0 0.0 -1.588984234480e+02 
-1.594428494216e+02 2.187749597787e+01 0.0 
2.187749597787e+01 -3.778295955520e+02 0.0 
0.0 0.0 -1.607817334921e+02 
-1.610387700536e+02 1.954185017947e+01 0.0 
1.954185017947e+01 -3.813994585314e+02 0.0 
0.0 0.0 -1.623314685755e+02 
-1.623819555833e+02 1.721549691446e+01 0.0 
1.721549691446e+01 -3.843974493274e+02 0.0 
0.0 0.0 -1.636338214732e+02 
-1.635778791432e+02 1.501045638915e+01 0.0 
1.501045638915e+01 -3.867403140837e+02 0.0 
0.0 0.0 -1.646954579681e+02 
-1.643437957107e+02 1.294916903287e+01 0.0 
1.294916903287e+01 -3.884599934730e+02 0.0 
0.0 0.0 -1.654411367551e+02 
-1.649591995960e+02 1.098809285112e+01 0.0 
1.098809285112e+01 -3.895656964782e+02 0.0 
0.0 0.0 -1.659574688223e+02 
-1.652751361091e+02 9.306595814760e+00 0.0 
9.306595814760e+00 -3.901579146286e+02 0.0 
0.0 0.0 -1.662299152213e+02 
-1.654546986824e+02 7.677363533467e+00 0.0 
7.677363533467e+00 -3.903685085482e+02 0.0 
0.0 0.0 -1.663469621692e+02 
-1.659457119916e+02 6.441843304522e+00 0.0 
6.441843304522e+00 -3.909906005258e+02 0.0 
0.0 0.0 -1.666808937552e+02 
-1.666083185180e+02 5.159242610559e+00 0.0 
5.159242610559e+00 -3.919238460644e+02 0.0 
0.0 0.0 -1.671596493747e+02 
-1.668583521786e+02 4.267220401467e+00 0.0 
4.267220401467e+00 -3.921805009509e+02 0.0 
0.0 0.0 -1.673116559389e+02 
-1.655102730477e+02 3.287865688142e+00 0.0 
3.287865688142e+00 -3.896766917020e+02 0.0 
0.0 0.0 -1.661560894249e+02 
-1.667369686682e+02 2.451261703544e+00 0.0 
2.451261703544e+00 -3.914925939495e+02 0.0 
0.0 0.0 -1.670688687853e+02 
-1.662571443351e+02 1.852487689484e+00 0.0 
1.852487689484e+00 -3.905447212333e+02 0.0 
0.0 0.0 -1.666405596705e+02 
-1.665433380799e+02 1.519663382153e+00 0.0 
1.519663382153e+00 -3.909078135090e+02 0.0 
0.0 0.0 -1.668353454767e+02 
-1.668280646897e+02 8.037861636681e-01 0.0 
8.037861636681e-01 -3.914139594067e+02 0.0 
0.0 0.0 -1.670726072289e+02 
-1.667385109618e+02 4.800456397466e-01 0.0 
4.800456397466e-01 -3.912377563955e+02 0.0 
0.0 0.0 -1.669928802072e+02 
-3.452680701465e+01 2.916797032926e-01 0.0 
2.916797032926e-01 -4.009189030117e+01 0.0 
0.0 0.0 -2.198560919475e+01 
-4.232018716964e+01 3.785014319069e-01 0.0 
3.785014319069e-01 -5.981976574965e+01 0.0 
0.0 0.0 -3.024198587579e+01 
-5.004634106960e+01 4.156896857270e-01 0.0 
4.156896857270e-01 -7.948715084513e+01 0.0 
0.0 0.0 -3.846004757442e+01 
-5.727472151628e+01 5.039037500319e-01 0.0 
5.039037500319e-01 -9.887937539025e+01 0.0 
0.0 0.0 -4.644622907196e+01 
-6.434522829821e+01 5.184518873218e-01 0.0 
5.184518873218e-01 -1.188700876180e+02 0.0 
0.0 0.0 -5.456459477485e+01 
-7.135565038270e+01 6.262307053497e-01 0.0 
6.262307053497e-01 -1.391404104585e+02 0.0 
0.0 0.0 -6.274881825236e+01 
-7.762881547603e+01 6.349182383303e-01 0.0 
6.349182383303e-01 -1.593187778400e+02 0.0 
0.0 0.0 -7.068427799482e+01 
-8.339719121280e+01 7.830911591641e-01 0.0 
7.830911591641e-01 -1.794343723807e+02 0.0 
0.0 0.0 -7.844946907806e+01 
-8.949729798942e+01 8.619355351714e-01 0.0 
8.619355351714e-01 -2.004699760199e+02 0.0 
0.0 0.0 -8.659018220278e+01 
-6.177712180179e+01 2.889853901058e+01 0.0 
2.889853901058e+01 -6.960024684031e+01 0.0 
0.0 0.0 -3.983659474854e+01 
-4.099798953289e+01 8.067734683217e+00 0.0 
8.067734683217e+00 -2.457569051003e+01 0.0 
0.0 0.0 -1.927210401288e+01 
-4.446807628139e+01 3.140494718476e+01 0.0 
3.140494718476e+01 -2.989499047999e+01 0.0 
0.0 0.0 -2.198924821749e+01 
-4.119117976459e+01 2.836183500013e+01 0.0 
2.836183500013e+01 -2.852233800696e+01 0.0 
0.0 0.0 -1.920606695033e+01 
-3.932746579710e+01 2.680100566431e+01 0.0 
2.680100566431e+01 -2.714390999118e+01 0.0 
0.0 0.0 -1.879417900958e+01 
-3.637794317001e+01 2.507343417128e+01 0.0 
2.507343417128e+01 -2.514792142242e+01 0.0 
0.0 0.0 -1.805775937773e+01 
-3.461485981912e+01 2.376116251056e+01 0.0 
2.376116251056e+01 -2.479643829501e+01 0.0 
0.0 0.0 -1.742338943424e+01 
-3.358570605615e+01 2.293229044186e+01 0.0 
2.293229044186e+01 -2.453468570252e+01 0.0 
0.0 0.0 -1.703611752760e+01 
-3.321442918297e+01 2.231734433157e+01 0.0 
2.231734433157e+01 -2.433862515376e+01 0.0 
0.0 0.0 -1.686591630102e+01 
-3.547863283953e+01 2.210503756050e+01 0.0 
2.210503756050e+01 -2.404971704196e+01 0.0 
0.0 0.0 -1.745850496445e+01 
-4.475408711946e+01 1.607475394631e+01 0.0 
1.607475394631e+01 -2.039356655810e+01 0.0 
0.0 0.0 -1.914429610327e+01 
-2.139601830377e+01 5.195803570615e-01 0.0 
5.195803570615e-01 -7.075325216356e+00 0.0 
0.0 0.0 -8.141403056037e+00 
-2.538164077606e+01 -1.521367422834e-01 0.0 
-1.521367422834e-01 -1.758563614496e+01 0.0 
0.0 0.0 -1.249018307630e+01 
-2.579308019777e+01 5.356651079171e-02 0.0 
5.356651079171e-02 -1.871512556699e+01 0.0 
0.0 0.0 -1.295246172943e+01 
-2.573014576838e+01 -2.091476949413e-03 0.0 
-2.091476949413e-03 -1.876605897114e+01 0.0 
0.0 0.0 -1.294886142186e+01 
-2.571243260139e+01 6.381618291269e-03 0.0 
6.381618291269e-03 -1.853936405408e+01 0.0 
0.0 0.0 -1.287553899664e+01 
-2.705818965834e+01 -3.986952028936e-02 0.0 
-3.986952028936e-02 -2.118842500858e+01 0.0 
0.0 0.0 -1.407398440008e+01 
-2.604870945365e+01 -1.160718485213e-01 0.0 
-1.160718485213e-01 -1.885040424510e+01 0.0 
0.0 0.0 -1.306973410963e+01 
-2.621035450029e+01 -7.893382145186e-02 0.0 
-7.893382145186e-02 -1.867091574248e+01 0.0 
0.0 0.0 -1.306438107283e+01 
-2.637393829312e+01 -1.519405324130e-01 0.0 
-1.519405324130e-01 -1.887192110097e+01 0.0 
0.0 0.0 -1.317375781823e+01 
-2.683231839156e+01 -4.733748067632e-02 0.0 
-4.733748067632e-02 -1.935274250255e+01 0.0 
0.0 0.0 -1.345551826823e+01 
-2.723979548423e+01 3.079625701946e-02 0.0 
3.079625701946e-02 -1.932667532843e+01 0.0 
0.0 0.0 -1.356994124380e+01 
-2.800345018720e+01 3.661922886726e-01 0.0 
3.661922886726e-01 -1.937266191050e+01 0.0 
0.0 0.0 -1.381283362931e+01 
-2.917646366788e+01 9.194455640528e-01 0.0 
9.194455640528e-01 -1.955944496498e+01 0.0 
0.0 0.0 -1.422077258986e+01 
-3.126072499589e+01 1.905293455023e+00 0.0 
1.905293455023e+00 -2.014954379287e+01 0.0 
0.0 0.0 -1.502308063663e+01 
-3.445006774048e+01 3.821793898230e+00 0.0 
3.821793898230e+00 -2.130692450101e+01 0.0 
0.0 0.0 -1.632709767245e+01 
-8.480987854235e+01 1.389091639424e+01 0.0 
1.389091639424e+01 -9.660750820577e+01 0.0 
0.0 0.0 -5.478634904100e+01 
-1.002162009941e+02 2.434278466987e+00 0.0 
2.434278466987e+00 -1.044409487319e+02 0.0 
0.0 0.0 -6.176421970632e+01 
-1.043303601481e+02 -2.778547788963e+00 0.0 
-2.778547788963e+00 -1.040915464275e+02 0.0 
0.0 0.0 -6.286074232151e+01 
-9.295925575864e+01 -1.045632667494e+01 0.0 
-1.045632667494e+01 -9.585980308683e+01 0.0 
0.0 0.0 -5.697933521845e+01 
-6.051687749481e+01 -1.962654500188e+01 0.0 
-1.962654500188e+01 -5.781359757941e+01 0.0 
0.0 0.0 -3.577635504679e+01 
-3.124878882562e+01 -1.276833789943e+01 0.0 
-1.276833789943e+01 -1.947459783056e+01 0.0 
0.0 0.0 -1.506806868225e+01 
-1.634943341919e+01 -3.256339535520e+00 0.0 
-3.256339535520e+00 -1.015279004402e+01 0.0 
0.0 0.0 -7.671141647067e+00 
-1.049508440272e+01 -1.027692332898e+00 0.0 
-1.027692332898e+00 -8.521117483728e+00 0.0 
0.0 0.0 -4.875969040224e+00 
-7.339788050039e+00 -6.729832476124e-01 0.0 
-6.729832476124e-01 -8.097223852616e+00 0.0 
0.0 0.0 -3.241466676841e+00 
-5.092703603030e+00 -5.196541916223e-01 0.0 
-5.196541916223e-01 -8.271581235205e+00 0.0 
0.0 0.0 -3.106636763230e+00 
-3.721333987387e+00 -2.460164573043e-01 0.0 
-2.460164573043e-01 -8.323661252761e+00 0.0 
0.0 0.0 -2.967037268481e+00 
-2.935943481346e+00 -3.415354871543e-01 0.0 
-3.415354871543e-01 -8.778321015559e+00 0.0 
0.0 0.0 -2.593938236012e+00 
-2.105773192698e+00 -3.334206018862e-01 0.0 
-3.334206018862e-01 -8.523444019435e+00 0.0 
0.0 0.0 -2.230620180089e+00 
-1.216759549516e+00 -3.568975170223e-01 0.0 
-3.568975170223e-01 -7.795004902145e+00 0.0 
0.0 0.0 -1.812217713879e+00 
-4.461291915455e-01 -3.423530571421e-01 0.0 
-3.423530571421e-01 -7.965105323204e+00 0.0 
0.0 0.0 -1.626979195340e+00 
1.738546670186e-01 -3.225855386927e-01 0.0 
-3.225855386927e-01 -8.239038384577e+00 0.0 
0.0 0.0 -1.452884341513e+00 
5.976061418187e-01 -2.189765421119e-01 0.0 
-2.189765421119e-01 -8.300867709796e+00 0.0 
0.0 0.0 -1.276974336061e+00 
8.771613164573e-01 -1.734194276780e-01 0.0 
-1.734194276780e-01 -7.921064031596e+00 0.0 
0.0 0.0 -1.048831522842e+00 
9.383038017368e-01 1.062476041281e-02 0.0 
1.062476041281e-02 -7.301835004864e+00 0.0 
0.0 0.0 -8.218756553393e-01 
-3.362212701435e+01 5.008316640236e+00 0.0 
5.008316640236e+00 -5.495931648086e+00 0.0 
0.0 0.0 -1.119245985554e+01 
-2.709080930768e+01 2.849430536523e+00 0.0 
2.849430536523e+00 -1.035291520358e+01 0.0 
0.0 0.0 -1.083311735338e+01 
-2.378020156402e+01 1.276332689402e+00 0.0 
1.276332689402e+00 -1.034564537884e+01 0.0 
0.0 0.0 -9.837754082856e+00 
-2.194917118137e+01 4.665791479909e-01 0.0 
4.665791479909e-01 -9.943468743181e+00 0.0 
0.0 0.0 -9.167791977366e+00 
-2.112550415400e+01 1.251964950689e-01 0.0 
1.251964950689e-01 -9.836233400150e+00 0.0 
0.0 0.0 -8.888521266246e+00 
-2.087821012570e+01 -9.603159027042e-02 0.0 
-9.603159027042e-02 -9.832095945903e+00 0.0 
0.0 0.0 -8.813091821481e+00 
-2.094868673611e+01 -2.097389996139e-01 0.0 
-2.097389996139e-01 -9.775903063266e+00 0.0 
0.0 0.0 -8.817376939813e+00 
-2.111728976783e+01 -1.451774507293e-01 0.0 
-1.451774507293e-01 -9.765601723301e+00 0.0 
0.0 0.0 -8.864867447340e+00 
-2.142208259169e+01 -1.660643695542e-01 0.0 
-1.660643695542e-01 -9.835428833513e+00 0.0 
0.0 0.0 -8.977253427561e+00 
-2.154180538613e+01 -1.352454135012e-01 0.0 
-1.352454135012e-01 -9.842256621643e+00 0.0 
0.0 0.0 -9.015218602331e+00 
-2.169861594287e+01 -1.257232962954e-01 0.0 
-1.257232962954e-01 -9.843562087903e+00 0.0 
0.0 0.0 -9.062653409232e+00 
-2.182343125802e+01 -2.762997692420e-02 0.0 
-2.762997692420e-02 -9.854775088840e+00 0.0 
0.0 0.0 -9.103461904058e+00 
-2.181516693413e+01 -2.421160423981e-02 0.0 
-2.421160423981e-02 -9.876585458131e+00 0.0 
0.0 0.0 -9.107525717677e+00 
-2.177258154151e+01 9.600587036016e-02 0.0 
9.600587036016e-02 -9.725205908595e+00 0.0 
0.0 0.0 -9.049336235031e+00 
-2.171900803682e+01 3.454990927961e-01 0.0 
3.454990927961e-01 -9.232072071144e+00 0.0 
0.0 0.0 -8.885324032390e+00 
-2.143077754855e+01 -3.361668350088e-01 0.0 
-3.361668350088e-01 -7.039979019636e+00 0.0 
0.0 0.0 -8.141226970456e+00 
-4.730557349066e+01 3.538916680804e+01 0.0 
3.538916680804e+01 -3.939799854911e+01 0.0 
0.0 0.0 -2.651686187156e+01 
-4.247684723347e+01 2.964119375628e+01 0.0 
2.964119375628e+01 -2.924390223503e+01 0.0 
0.0 0.0 -2.052536974146e+01 
-4.012794941713e+01 2.734033545727e+01 0.0 
2.734033545727e+01 -2.772165526602e+01 0.0 
0.0 0.0 -1.844384214163e+01 
-3.817514682261e+01 2.601962239876e+01 0.0 
2.601962239876e+01 -2.673887683122e+01 0.0 
0.0 0.0 -1.896737631209e+01 
-3.639438900869e+01 2.520713456035e+01 0.0 
2.520713456035e+01 -2.563231816133e+01 0.0 
0.0 0.0 -1.820801215101e+01 
-3.445311519939e+01 2.388007948839e+01 0.0 
2.388007948839e+01 -2.484790572463e+01 0.0 
0.0 0.0 -1.739030627720e+01 
-3.317560478680e+01 2.257386712895e+01 0.0 
2.257386712895e+01 -2.443248863320e+01 0.0 
0.0 0.0 -1.688242802600e+01 
-3.352877888449e+01 2.205380588742e+01 0.0 
2.205380588742e+01 -2.409367343025e+01 0.0 
0.0 0.0 -1.688673569442e+01 
-4.109186400058e+01 2.199842893541e+01 0.0 
2.199842893541e+01 -2.401454212351e+01 0.0 
0.0 0.0 -1.913192183723e+01 
-4.176613887864e+01 1.009143244851e+01 0.0 
1.009143244851e+01 -1.687747648827e+01 0.0 
0.0 0.0 -1.712160573848e+01 
-4.220123525721e+01 2.990815906707e+01 0.0 
2.990815906707e+01 -3.954458840441e+01 0.0 
0.0 0.0 -2.302783956091e+01 
-1.533040963291e+02 2.017867962838e+01 0.0 
2.017867962838e+01 -3.719475075592e+02 0.0 
0.0 0.0 -1.571754811665e+02 
-1.038073934995e+01 -1.989360298034e+00 0.0 
-1.989360298034e+00 -1.728923318769e+01 0.0 
0.0 0.0 -7.996946186725e+00 
-6.009381091190e+01 -1.957812304557e+01 0.0 
-1.957812304557e+01 -8.718882625768e+01 0.0 
0.0 0.0 -4.487937589444e+01 
-1.590558496911e+02 9.769268037942e+00 0.0 
9.769268037942e+00 -3.819931061371e+02 0.0 
0.0 0.0 -1.619146867484e+02 
-3.785880515588e+01 2.636136160461e+01 0.0 
2.636136160461e+01 -3.594771333489e+01 0.0 
0.0 0.0 -2.172923541239e+01 
-8.537790560308e+01 -5.456872196559e-01 0.0 
-5.456872196559e-01 -2.131469004900e+02 0.0 
0.0 0.0 -8.915744182793e+01 
-1.451040894517e+02 2.927416664394e+01 0.0 
2.927416664394e+01 -3.522501264105e+02 0.0 
0.0 0.0 -1.488062647587e+02 
-3.583568304987e+01 2.472646962849e+01 0.0 
2.472646962849e+01 -3.476259917286e+01 0.0 
0.0 0.0 -2.077948466682e+01 
-1.354043771764e+02 3.633598097077e+01 0.0 
3.633598097077e+01 -3.238307126673e+02 0.0 
0.0 0.0 -1.373705269531e+02 
-3.831202904472e+01 2.395705368032e+01 0.0 
2.395705368032e+01 -3.507140136729e+01 0.0 
0.0 0.0 -2.161502912360e+01 
-1.620284308547e+02 4.432069482710e+00 0.0 
4.432069482710e+00 -3.845077925723e+02 0.0 
0.0 0.0 -1.635608670281e+02 
-3.681356234868e+00 -6.035248866544e-01 0.0 
-6.035248866544e-01 -1.617088783399e+01 0.0 
0.0 0.0 -5.382163146891e+00 
-1.234046502785e+02 3.829954706752e+01 0.0 
3.829954706752e+01 -2.877787103307e+02 0.0 
0.0 0.0 -1.229550081827e+02 
-4.984580462239e+01 1.474946518197e+01 0.0 
1.474946518197e+01 -4.139028344763e+01 0.0 
0.0 0.0 -2.697082642101e+01 
-5.214661200222e+01 -7.015334402679e-01 0.0 
-7.015334402679e-01 -1.315086143301e+02 0.0 
0.0 0.0 -5.469656789971e+01 
-1.087170297730e+02 -3.266914979496e-01 0.0 
-3.266914979496e-01 -2.681573582189e+02 0.0 
0.0 0.0 -1.126623163976e+02 
-1.146992224197e+02 3.559674125102e+01 0.0 
3.559674125102e+01 -2.600682176031e+02 0.0 
0.0 0.0 -1.120302320069e+02 
-1.040890604291e+02 2.719944484665e+01 0.0 
2.719944484665e+01 -2.312185398833e+02 0.0 
0.0 0.0 -1.001922800937e+02 
-9.161228862422e+01 7.647292924297e+00 0.0 
7.647292924297e+00 -2.061108255115e+02 0.0 
0.0 0.0 -8.891693424070e+01 
-9.399206412850e+01 1.301754540236e+01 0.0 
1.301754540236e+01 -2.079971901118e+02 0.0 
0.0 0.0 -9.019677627208e+01 
-9.843725983725e+01 2.003842853253e+01 0.0 
2.003842853253e+01 -2.180631516251e+02 0.0 
0.0 0.0 -9.455012343870e+01 
-4.513213224622e+01 5.685193852685e+00 0.0 
5.685193852685e+00 -4.057038834387e+01 0.0 
0.0 0.0 -2.531075617703e+01 
-3.699302373174e+01 8.033071673482e-01 0.0 
8.033071673482e-01 -3.737176546317e+01 0.0 
0.0 0.0 -2.190943675847e+01 
-3.542001576453e+01 3.863577959761e-01 0.0 
3.863577959761e-01 -3.839891498342e+01 0.0 
0.0 0.0 -2.174567922438e+01 
-6.098589489513e+01 5.706091617508e-01 0.0 
5.706091617508e-01 -1.089533725353e+02 0.0 
0.0 0.0 -5.058178022912e+01 
-1.620493230866e+02 2.187458841167e+00 0.0 
2.187458841167e+00 -3.830107822677e+02 0.0 
0.0 0.0 -1.631180316063e+02 
-6.994185197710e+01 1.078091758056e+01 0.0 
1.078091758056e+01 -1.066677443171e+02 0.0 
0.0 0.0 -5.380240752538e+01 
-2.145556360924e+00 -3.884001513672e-01 0.0 
-3.884001513672e-01 -1.722973300438e+01 0.0 
0.0 0.0 -5.040843498204e+00 
-1.370021196702e+02 1.583187517405e-01 0.0 
1.583187517405e-01 -3.302156273942e+02 0.0 
0.0 0.0 -1.397653241193e+02 
-3.312085054707e+01 2.961846805706e-02 0.0 
2.961846805706e-02 -3.603895698073e+01 0.0 
0.0 0.0 -2.034794225834e+01 
-2.438824205219e+01 -4.737079402373e-01 0.0 
-4.737079402373e-01 -6.921916967349e+01 0.0 
0.0 0.0 -2.768222351770e+01 
-1.080544166472e+02 3.137910001555e+01 0.0 
3.137910001555e+01 -2.404397721886e+02 0.0 
0.0 0.0 -1.041482566507e+02 
-1.412826718556e+02 3.346023922411e+01 0.0 
3.346023922411e+01 -3.402404789835e+02 0.0 
0.0 0.0 -1.440569452517e+02 
-1.294759439278e+02 3.807728930764e+01 0.0 
3.807728930764e+01 -3.061467330599e+02 0.0 
0.0 0.0 -1.302868030963e+02 
-1.483563848019e+02 2.503692166096e+01 0.0 
2.503692166096e+01 -3.617425762031e+02 0.0 
0.0 0.0 -1.526296883015e+02 
-1.566131322346e+02 1.571190869343e+01 0.0 
1.571190869343e+01 -3.781443108325e+02 0.0 
0.0 0.0 -1.600272329201e+02 
-3.038850334753e+01 -1.216574334409e+01 0.0 
-1.216574334409e+01 -2.435526623358e+01 0.0 
0.0 0.0 -1.605609453987e+01 
-3.955779377724e+01 2.106808207479e+00 0.0 
2.106808207479e+00 -3.745940964038e+01 0.0 
0.0 0.0 -2.270516102529e+01 
-1.587007743887e+02 6.617314711919e+00 0.0 
6.617314711919e+00 -3.803327213984e+02 0.0 
0.0 0.0 -1.613100487361e+02 
-7.429671733502e+01 8.711591959747e-01 0.0 
8.711591959747e-01 -1.487337941144e+02 0.0 
0.0 0.0 -6.650915343483e+01 
-6.277565708701e+00 -8.898150274431e-01 0.0 
-8.898150274431e-01 -1.723985636850e+01 0.0 
0.0 0.0 -6.767952032967e+00 
-6.850252784166e+01 -6.799952062822e-01 0.0 
-6.799952062822e-01 -1.713434749512e+02 0.0 
0.0 0.0 -7.155380083787e+01 
-9.149700482139e+01 4.674477904702e+00 0.0 
4.674477904702e+00 -2.080823425453e+02 0.0 
0.0 0.0 -8.947380420999e+01 
-3.679324253132e+01 2.570273624057e+01 0.0 
2.570273624057e+01 -3.736677724746e+01 0.0 
0.0 0.0 -2.184800593363e+01 
-4.001724719731e+01 2.784430328972e+01 0.0 
2.784430328972e+01 -3.723692428707e+01 0.0 
0.0 0.0 -2.169595666348e+01 
-3.615095273755e+01 2.415721793133e+01 0.0 
2.415721793133e+01 -3.539086293887e+01 0.0 
0.0 0.0 -2.106254470293e+01 
-4.624795594501e+01 2.202580792849e+01 0.0 
2.202580792849e+01 -3.527027677049e+01 0.0 
0.0 0.0 -2.405546981465e+01 
-4.616637790490e+01 3.457777399345e+01 0.0 
3.457777399345e+01 -4.547096038475e+01 0.0 
0.0 0.0 -2.770589889659e+01 
-4.697776140223e+01 2.013321406351e-01 0.0 
2.013321406351e-01 -7.118867614274e+01 0.0 
0.0 0.0 -3.504993126349e+01 
-1.637570108607e+02 1.126002837132e+00 0.0 
1.126002837132e+00 -3.858042881041e+02 0.0 
0.0 0.0 -1.644683896894e+02 
-1.419205258569e+00 -2.540310676676e-01 0.0 
-2.540310676676e-01 -1.640172544885e+01 0.0 
0.0 0.0 -4.422403166675e+00 
-8.602469002179e+01 1.127908512540e+00 0.0 
1.127908512540e+00 -1.887054096846e+02 0.0 
0.0 0.0 -8.201902991191e+01 
-5.255263316015e+01 1.273876988862e+01 0.0 
1.273876988862e+01 -4.769248616777e+01 0.0 
0.0 0.0 -2.967353579837e+01 
-5.760757838992e+01 1.739203379602e+01 0.0 
1.739203379602e+01 -6.324916425203e+01 0.0 
0.0 0.0 -3.585702279258e+01 
-5.999682647036e+01 1.441970488671e+01 0.0 
1.441970488671e+01 -6.794017441346e+01 0.0 
0.0 0.0 -3.798110026515e+01 
-6.570953677482e+01 1.952383925037e+01 0.0 
1.952383925037e+01 -8.642409914561e+01 0.0 
0.0 0.0 -4.524009077613e+01 
-6.864588945021e+01 1.732895798413e+01 0.0 
1.732895798413e+01 -9.227839576324e+01 0.0 
0.0 0.0 -4.787728556404e+01 
-7.323106528694e+01 2.112207952645e+01 0.0 
2.112207952645e+01 -1.088740366182e+02 0.0 
0.0 0.0 -5.423153057153e+01 
-7.023036916539e+01 2.308827645880e+01 0.0 
2.308827645880e+01 -1.042763455333e+02 0.0 
0.0 0.0 -5.195201440962e+01 
-7.745796265878e+01 2.424592264893e+01 0.0 
2.424592264893e+01 -1.262515082704e+02 0.0 
0.0 0.0 -6.071284127874e+01 
-7.414518689595e+01 2.582569149621e+01 0.0 
2.582569149621e+01 -1.224793965964e+02 0.0 
0.0 0.0 -5.858737504770e+01 
-7.637030794857e+01 1.935198893976e+01 0.0 
1.935198893976e+01 -1.150866070938e+02 0.0 
0.0 0.0 -5.703707451270e+01 
-8.128681875962e+01 2.671376919052e+01 0.0 
2.671376919052e+01 -1.440055653202e+02 0.0 
0.0 0.0 -6.718771522394e+01 
-7.785090631610e+01 2.788488983189e+01 0.0 
2.788488983189e+01 -1.408005729638e+02 0.0 
0.0 0.0 -6.519544378396e+01 
-8.495009115873e+01 2.862421271364e+01 0.0 
2.862421271364e+01 -1.619506396814e+02 0.0 
0.0 0.0 -7.367021925205e+01 
-8.146492467531e+01 2.944449475049e+01 0.0 
2.944449475049e+01 -1.591168796069e+02 0.0 
0.0 0.0 -7.177454128465e+01 
-7.427010150271e+01 2.886775566566e+01 0.0 
2.886775566566e+01 -1.385311750426e+02 0.0 
0.0 0.0 -6.344038296358e+01 
-7.780957971254e+01 3.004501155243e+01 0.0 
3.004501155243e+01 -1.570265235816e+02 0.0 
0.0 0.0 -7.005083098824e+01 
-7.061378804447e+01 2.959121243471e+01 0.0 
2.959121243471e+01 -1.368554683918e+02 0.0 
0.0 0.0 -6.184077693088e+01 
-7.408339683000e+01 3.040857317246e+01 0.0 
3.040857317246e+01 -1.554823051313e+02 0.0 
0.0 0.0 -6.846971058840e+01 
-8.135079956599e+01 3.080515345607e+01 0.0 
3.080515345607e+01 -1.752657230743e+02 0.0 
0.0 0.0 -7.658495679208e+01 
-7.756654390008e+01 3.083111161818e+01 0.0 
3.083111161818e+01 -1.737801109678e+02 0.0 
0.0 0.0 -7.500399646038e+01 
-7.029891294981e+01 3.051761628128e+01 0.0 
3.051761628128e+01 -1.543340094949e+02 0.0 
0.0 0.0 -6.698987673340e+01 
-7.369508307182e+01 3.062814237650e+01 0.0 
3.062814237650e+01 -1.725437731375e+02 0.0 
0.0 0.0 -7.347165686279e+01 
-6.657701569979e+01 3.036458650711e+01 0.0 
3.036458650711e+01 -1.534593035816e+02 0.0 
0.0 0.0 -6.561089578442e+01 
-6.988136097011e+01 3.017765839585e+01 0.0 
3.017765839585e+01 -1.715286349741e+02 0.0 
0.0 0.0 -7.202299878325e+01 
-6.297113964446e+01 2.995951432827e+01 0.0 
2.995951432827e+01 -1.527263231064e+02 0.0 
0.0 0.0 -6.430923882526e+01 
-6.614047879742e+01 2.950861803324e+01 0.0 
2.950861803324e+01 -1.706026520836e+02 0.0 
0.0 0.0 -7.062293926431e+01 
-7.328008345737e+01 2.968261228890e+01 0.0 
2.968261228890e+01 -1.890818994152e+02 0.0 
0.0 0.0 -7.830859486177e+01 
-6.938624467431e+01 2.875376653668e+01 0.0 
2.875376653668e+01 -1.878735651907e+02 0.0 
0.0 0.0 -7.677794295952e+01 
-6.247875239093e+01 2.865840298173e+01 0.0 
2.865840298173e+01 -1.696857213029e+02 0.0 
0.0 0.0 -6.924934210815e+01 
-6.556068983691e+01 2.762256112011e+01 0.0 
2.762256112011e+01 -1.866429081577e+02 0.0 
0.0 0.0 -7.526107939838e+01 
-5.892873969202e+01 2.761538584216e+01 0.0 
2.761538584216e+01 -1.687553542448e+02 0.0 
0.0 0.0 -6.790522818105e+01 
-6.181742480558e+01 2.626632310685e+01 0.0 
2.626632310685e+01 -1.853295842012e+02 0.0 
0.0 0.0 -7.374410270202e+01 
-6.884507637848e+01 2.630515284546e+01 0.0 
2.630515284546e+01 -2.028954367117e+02 0.0 
0.0 0.0 -8.112215392704e+01 
-6.495810386600e+01 2.464170054994e+01 0.0 
2.464170054994e+01 -2.011251820632e+02 0.0 
0.0 0.0 -7.942498577877e+01 
-5.813640508462e+01 2.467168369505e+01 0.0 
2.467168369505e+01 -1.838605385753e+02 0.0 
0.0 0.0 -7.219908309798e+01 
-6.114354602141e+01 2.270561483536e+01 0.0 
2.270561483536e+01 -1.991669117337e+02 0.0 
0.0 0.0 -7.769313732654e+01 
-5.452911788430e+01 2.281566673253e+01 0.0 
2.281566673253e+01 -1.822448563976e+02 0.0 
0.0 0.0 -7.063219228458e+01 
-5.743368182720e+01 2.045184606417e+01 0.0 
2.045184606417e+01 -1.970034282716e+02 0.0 
0.0 0.0 -7.593113302963e+01 
-5.100296637107e+01 2.062937146235e+01 0.0 
2.062937146235e+01 -1.804692784305e+02 0.0 
0.0 0.0 -6.904167344047e+01 
-5.382402560315e+01 1.781028274586e+01 0.0 
1.781028274586e+01 -1.944941612883e+02 0.0 
0.0 0.0 -7.409545606742e+01 
-6.081166030202e+01 1.793751150289e+01 0.0 
1.793751150289e+01 -2.106723386139e+02 0.0 
0.0 0.0 -8.104519967477e+01 
-5.723506260493e+01 1.494649545003e+01 0.0 
1.494649545003e+01 -2.073427559287e+02 0.0 
0.0 0.0 -7.897334556009e+01 
-5.038624676041e+01 1.473374984766e+01 0.0 
1.473374984766e+01 -1.915824740123e+02 0.0 
0.0 0.0 -7.219061623180e+01 
-5.387863285964e+01 1.152322791173e+01 0.0 
1.152322791173e+01 -2.033536190708e+02 0.0 
0.0 0.0 -7.676967557914e+01 
-6.120667184986e+01 1.219210224578e+01 0.0 
1.219210224578e+01 -2.190672245928e+02 0.0 
0.0 0.0 -8.368216893281e+01 
-5.798132435409e+01 8.599519601416e+00 0.0 
8.599519601416e+00 -2.139283439413e+02 0.0 
0.0 0.0 -8.117290048861e+01 
-6.569853996853e+01 9.701381847436e+00 0.0 
9.701381847436e+00 -2.297705325816e+02 0.0 
0.0 0.0 -8.824072176504e+01 
-6.261017062038e+01 6.095046684899e+00 0.0 
6.095046684899e+00 -2.235150563031e+02 0.0 
0.0 0.0 -8.543756807705e+01 
-5.517622648968e+01 4.702924465897e+00 0.0 
4.702924465897e+00 -2.078862686133e+02 0.0 
0.0 0.0 -7.851874853088e+01 
-5.995840065031e+01 2.327851685582e+00 0.0 
2.327851685582e+00 -2.162684592491e+02 0.0 
0.0 0.0 -8.246805796984e+01 
-6.764362423460e+01 4.074384285012e+00 0.0 
4.074384285012e+00 -2.323186565551e+02 0.0 
0.0 0.0 -8.958868423690e+01 
-6.507083213161e+01 5.656461797310e-01 0.0 
5.656461797310e-01 -2.240077582158e+02 0.0 
0.0 0.0 -8.632357710423e+01 
-5.778479514028e+01 -1.465099419496e+00 0.0 
-1.465099419496e+00 -2.078720061090e+02 0.0 
0.0 0.0 -7.929704037479e+01 
-6.294358650880e+01 -2.806721875555e+00 0.0 
-2.806721875555e+00 -2.146620118562e+02 0.0 
0.0 0.0 -8.288167950950e+01 
-7.040229631852e+01 -6.235616317089e-01 0.0 
-6.235616317089e-01 -2.314040913305e+02 0.0 
0.0 0.0 -9.014191629472e+01 
-6.821783536449e+01 -3.546209436588e+00 0.0 
-3.546209436588e+00 -2.213262742938e+02 0.0 
0.0 0.0 -8.646323289749e+01 
-6.118680628891e+01 -5.857578375927e+00 0.0 
-5.857578375927e+00 -2.042216245509e+02 0.0 
0.0 0.0 -7.922252925195e+01 
-6.630524511328e+01 -6.069625309193e+00 0.0 
-6.069625309193e+00 -2.103448399634e+02 0.0 
0.0 0.0 -8.259502552300e+01 
-7.355568947194e+01 -3.805046436150e+00 0.0 
-3.805046436150e+00 -2.281086270534e+02 0.0 
0.0 0.0 -9.009929495759e+01 
-7.138577791452e+01 -5.868699425594e+00 0.0 
-5.868699425594e+00 -2.166956695176e+02 0.0 
0.0 0.0 -8.602443422962e+01 
-6.453125422758e+01 -8.054538936212e+00 0.0 
-8.054538936212e+00 -1.984844014138e+02 0.0 
0.0 0.0 -7.850469669240e+01 
-6.929046284848e+01 -7.419735605991e+00 0.0 
-7.419735605991e+00 -2.046425776365e+02 0.0 
0.0 0.0 -8.177991214549e+01 
-7.643123185464e+01 -5.403992945564e+00 0.0 
-5.403992945564e+00 -2.233773542741e+02 0.0 
0.0 0.0 -8.954257583864e+01 
-7.397720124698e+01 -6.609849542110e+00 0.0 
-6.609849542110e+00 -2.111777747875e+02 0.0 
0.0 0.0 -8.514649281034e+01 
-8.141100016030e+01 -4.776741154205e+00 0.0 
-4.776741154205e+00 -2.302969748210e+02 0.0 
0.0 0.0 -9.311239249440e+01 
-6.706579715277e+01 -8.392431493882e+00 0.0 
-8.392431493882e+00 -1.919314020667e+02 0.0 
0.0 0.0 -7.729915976585e+01 
-7.138008073069e+01 -7.302214982242e+00 0.0 
-7.302214982242e+00 -1.985716722779e+02 0.0 
0.0 0.0 -8.058552590258e+01 
-6.458829371922e+01 -8.770957339918e+00 0.0 
-8.770957339918e+00 -1.788015803796e+02 0.0 
0.0 0.0 -7.261696222965e+01 
-6.855935078309e+01 -7.491886865983e+00 0.0 
-7.491886865983e+00 -1.857519686927e+02 0.0 
0.0 0.0 -7.589339584272e+01 
-7.241162344922e+01 2.477832300735e+01 0.0 
2.477832300735e+01 -2.183924833571e+02 0.0 
0.0 0.0 -8.684123204191e+01 
-6.175871532374e+01 -8.572125736973e+00 0.0 
-8.572125736973e+00 -1.655830493920e+02 0.0 
0.0 0.0 -6.780252941473e+01 
-5.826708546162e+01 -1.000592503339e+01 0.0 
-1.000592503339e+01 -1.589256666707e+02 0.0 
0.0 0.0 -6.475782563970e+01 
-6.541143264137e+01 -7.227308988482e+00 0.0 
-7.227308988482e+00 -1.729046940968e+02 0.0 
0.0 0.0 -7.109483802145e+01 
-7.259781302599e+01 -6.282532374308e+00 0.0 
-6.282532374308e+00 -1.931656143645e+02 0.0 
0.0 0.0 -7.932902821715e+01 
-5.845751403247e+01 -7.903922508928e+00 0.0 
-7.903922508928e+00 -1.524424360933e+02 0.0 
0.0 0.0 -6.286998503773e+01 
-6.186933439740e+01 -6.614103822950e+00 0.0 
-6.614103822950e+00 -1.601400931994e+02 0.0 
0.0 0.0 -6.620282827903e+01 
-5.464826054192e+01 -6.929868575154e+00 0.0 
-6.929868575154e+00 -1.395215297762e+02 0.0 
0.0 0.0 -5.785093709543e+01 
-4.857803501709e+01 2.318653324295e+01 0.0 
2.318653324295e+01 -1.649680228925e+02 0.0 
0.0 0.0 -6.366381737289e+01 
-8.500741826691e+01 3.122847581564e+01 0.0 
3.122847581564e+01 -1.932353672773e+02 0.0 
0.0 0.0 -8.307283566326e+01 
-5.790593976061e+01 -5.762460420942e+00 0.0 
-5.762460420942e+00 -1.475638970096e+02 0.0 
0.0 0.0 -6.124095103106e+01 
-5.032597410720e+01 -5.748792543526e+00 0.0 
-5.748792543526e+00 -1.268977418946e+02 0.0 
0.0 0.0 -5.276711480055e+01 
-4.739110332906e+01 -6.837633370808e+00 0.0 
-6.837633370808e+00 -1.187270191059e+02 0.0 
0.0 0.0 -4.943543673048e+01 
-4.261790574424e+01 -5.387452175809e+00 0.0 
-5.387452175809e+00 -1.061879207042e+02 0.0 
0.0 0.0 -4.424174793453e+01 
-7.176023377465e+01 1.584149253103e+01 0.0 
1.584149253103e+01 -9.994806557713e+01 0.0 
0.0 0.0 -5.111248980553e+01 
-7.871802221055e+01 1.774697876829e+01 0.0 
1.774697876829e+01 -1.221613565191e+02 0.0 
0.0 0.0 -5.986381361890e+01 
-7.360666391449e+01 1.420946485208e+01 0.0 
1.420946485208e+01 -1.071110515911e+02 0.0 
0.0 0.0 -5.381531465168e+01 
-8.078763887532e+01 1.650171088630e+01 0.0 
1.650171088630e+01 -1.297804325650e+02 0.0 
0.0 0.0 -6.277042143209e+01 
-7.590366814867e+01 1.319159180500e+01 0.0 
1.319159180500e+01 -1.161118924356e+02 0.0 
0.0 0.0 -5.720466817528e+01 
-4.558435837576e+01 -4.510490613608e+00 0.0 
-4.510490613608e+00 -1.145743889968e+02 0.0 
0.0 0.0 -4.764762421176e+01 
-8.820212038807e+01 2.765117268596e+01 0.0 
2.765117268596e+01 -1.657582132210e+02 0.0 
0.0 0.0 -7.578810008273e+01 
-8.532702757819e+01 1.972417529781e+01 0.0 
1.972417529781e+01 -1.444286118980e+02 0.0 
0.0 0.0 -6.852669184287e+01 
-6.328526883212e+01 3.018979570840e+01 0.0 
3.018979570840e+01 -1.348571919111e+02 0.0 
0.0 0.0 -5.904273822297e+01 
-5.618571003589e+01 2.859916392537e+01 0.0 
2.859916392537e+01 -1.514459836198e+02 0.0 
0.0 0.0 -6.188950809670e+01 
-6.915446603783e+01 1.306599187683e+01 0.0 
1.306599187683e+01 -2.351867497682e+02 0.0 
0.0 0.0 -9.090236474180e+01 
-6.542464542502e+01 -5.425565852561e+00 0.0 
-5.425565852561e+00 -1.680732492251e+02 0.0 
0.0 0.0 -6.964936839503e+01 
-6.135037060042e+01 -4.703358408485e+00 0.0 
-4.703358408485e+00 -1.557940072910e+02 0.0 
0.0 0.0 -6.474331336743e+01 
-6.905056454139e+01 -4.331698943493e+00 0.0 
-4.331698943493e+00 -1.762393439801e+02 0.0 
0.0 0.0 -7.318697255646e+01 
-8.414929937351e+01 -3.391365924120e+00 0.0 
-3.391365924120e+00 -2.421036113922e+02 0.0 
0.0 0.0 -9.747587322972e+01 
-8.935237321134e+01 -2.941359894293e+00 0.0 
-2.941359894293e+00 -2.492944918888e+02 0.0 
0.0 0.0 -1.011940595300e+02 
-9.241064485692e+01 -1.430339272869e+00 0.0 
-1.430339272869e+00 -2.607624890150e+02 0.0 
0.0 0.0 -1.055519401616e+02 
-9.778809140639e+01 -1.149830321266e+00 0.0 
-1.149830321266e+00 -2.681618798493e+02 0.0 
0.0 0.0 -1.093849913767e+02 
-1.011940353074e+02 4.441243266782e-01 0.0 
4.441243266782e-01 -2.793417970750e+02 0.0 
0.0 0.0 -1.137607497147e+02 
-1.067019763475e+02 5.532459407983e-01 0.0 
5.532459407983e-01 -2.869135103512e+02 0.0 
0.0 0.0 -1.176846460096e+02 
-1.030615196196e+02 -8.135298003783e-01 0.0 
-8.135298003783e-01 -2.756251647360e+02 0.0 
0.0 0.0 -1.132060053067e+02 
-1.120919418400e+02 7.074614352326e-01 0.0 
7.074614352326e-01 -2.945094168085e+02 0.0 
0.0 0.0 -1.215804075946e+02 
-1.082239032042e+02 -4.664752504833e-01 0.0 
-4.664752504833e-01 -2.831686095838e+02 0.0 
0.0 0.0 -1.170177538364e+02 
-1.104743089978e+02 2.194263140798e+00 0.0 
2.194263140798e+00 -2.978377960050e+02 0.0 
0.0 0.0 -1.220936315008e+02 
-1.047280697349e+02 2.322285740937e+00 0.0 
2.322285740937e+00 -2.900390454479e+02 0.0 
0.0 0.0 -1.180301345548e+02 
-1.173526923610e+02 8.648970239166e-01 0.0 
8.648970239166e-01 -3.021446406148e+02 0.0 
0.0 0.0 -1.254491998927e+02 
-1.132674007974e+02 -1.462749106509e-01 0.0 
-1.462749106509e-01 -2.907893077586e+02 0.0 
0.0 0.0 -1.208170125668e+02 
-1.224793635117e+02 9.946305770608e-01 0.0 
9.946305770608e-01 -3.098316881402e+02 0.0 
0.0 0.0 -1.292933154956e+02 
-1.181868670320e+02 1.265352398382e-01 0.0 
1.265352398382e-01 -2.984902502327e+02 0.0 
0.0 0.0 -1.246031351794e+02 
-1.092117916131e+02 -9.178252557019e-01 0.0 
-9.178252557019e-01 -2.792216772994e+02 0.0 
0.0 0.0 -1.161300406737e+02 
-1.139107941136e+02 -5.296121215104e-01 0.0 
-5.296121215104e-01 -2.869743619669e+02 0.0 
0.0 0.0 -1.198655468241e+02 
-1.051673431071e+02 -1.437705087957e+00 0.0 
-1.437705087957e+00 -2.675938377589e+02 0.0 
0.0 0.0 -1.114283542598e+02 
-7.399360559294e+01 1.092707442962e+01 0.0 
1.092707442962e+01 -2.460219020418e+02 0.0 
0.0 0.0 -9.560465229042e+01 
-7.768759959087e+01 1.409891696244e+01 0.0 
1.409891696244e+01 -2.516587223261e+02 0.0 
0.0 0.0 -9.840389657510e+01 
-8.284958940893e+01 1.224087488104e+01 0.0 
1.224087488104e+01 -2.626158597025e+02 0.0 
0.0 0.0 -1.032396347334e+02 
-8.680079417271e+01 1.525140709474e+01 0.0 
1.525140709474e+01 -2.684401254414e+02 0.0 
0.0 0.0 -1.061722758842e+02 
-9.227918787764e+01 1.362569446790e+01 0.0 
1.362569446790e+01 -2.794987296972e+02 0.0 
0.0 0.0 -1.111333752725e+02 
-9.648781240854e+01 1.650396429814e+01 0.0 
1.650396429814e+01 -2.854550974027e+02 0.0 
0.0 0.0 -1.141828729434e+02 
-1.022792068185e+02 1.506512054058e+01 0.0 
1.506512054058e+01 -2.965754406441e+02 0.0 
0.0 0.0 -1.192563942388e+02 
-9.803672659501e+01 1.219599847070e+01 0.0 
1.219599847070e+01 -2.898891175052e+02 0.0 
0.0 0.0 -1.159777532301e+02 
-8.855817637910e+01 3.012778282706e+01 0.0 
3.012778282706e+01 -1.798890280713e+02 0.0 
0.0 0.0 -8.013416133513e+01 
-4.717528710700e+01 1.111195727885e+01 0.0 
1.111195727885e+01 -1.880855999026e+02 0.0 
0.0 0.0 -7.017826610289e+01 
-4.424602388432e+01 1.486202686981e+01 0.0 
1.486202686981e+01 -1.761714233568e+02 0.0 
0.0 0.0 -6.572523417233e+01 
-4.115685171806e+01 1.103851848281e+01 0.0 
1.103851848281e+01 -1.733554195456e+02 0.0 
0.0 0.0 -6.395368137909e+01 
-3.893717211465e+01 1.542900740534e+01 0.0 
1.542900740534e+01 -1.611857423923e+02 0.0 
0.0 0.0 -5.963687435208e+01 
-3.592391007995e+01 1.143526261724e+01 0.0 
1.143526261724e+01 -1.592461975559e+02 0.0 
0.0 0.0 -5.815103229076e+01 
-3.462719969724e+01 1.656981228258e+01 0.0 
1.656981228258e+01 -1.466095778064e+02 0.0 
0.0 0.0 -5.397103325111e+01 
-3.179069484475e+01 1.243747340874e+01 0.0 
1.243747340874e+01 -1.458007147308e+02 0.0 
0.0 0.0 -5.282246586281e+01 
-3.331674188683e+01 6.384804574473e+00 0.0 
6.384804574473e+00 -1.564623130476e+02 0.0 
0.0 0.0 -5.650968087232e+01 
-2.982307547953e+01 6.819814639389e+00 0.0 
6.819814639389e+00 -1.442698670027e+02 0.0 
0.0 0.0 -5.193119690718e+01 
-3.174943487893e+01 1.996846853517e-01 0.0 
1.996846853517e-01 -1.519373726797e+02 0.0 
0.0 0.0 -5.458141594843e+01 
-2.877128325771e+01 -2.498049809854e-01 0.0 
-2.498049809854e-01 -1.406696846688e+02 0.0 
0.0 0.0 -5.099350774134e+01 
-3.133544603499e+01 -6.661290286995e+00 0.0 
-6.661290286995e+00 -1.446938277490e+02 0.0 
0.0 0.0 -5.252439600734e+01 
-7.683339407930e+01 2.894218719160e+01 0.0 
2.894218719160e+01 -2.060725984054e+02 0.0 
0.0 0.0 -8.447179774542e+01 
-9.098782459756e+01 1.808817098492e+01 0.0 
1.808817098492e+01 -2.736299312879e+02 0.0 
0.0 0.0 -1.089853267656e+02 
-1.009306882372e+02 1.925407862712e+01 0.0 
1.925407862712e+01 -2.908328673055e+02 0.0 
0.0 0.0 -1.171290666628e+02 
-9.532859838647e+01 2.073080742736e+01 0.0 
2.073080742736e+01 -2.782271519993e+02 0.0 
0.0 0.0 -1.116667251157e+02 
-3.987777470296e+01 -6.260726092970e+00 0.0 
-6.260726092970e+00 -9.787082853592e+01 0.0 
0.0 0.0 -4.092458097166e+01 
-1.229828080586e+02 3.326996487299e-01 0.0 
3.326996487299e-01 -3.062886719892e+02 0.0 
0.0 0.0 -1.283814440143e+02 
-1.144228969179e+02 4.083837853409e+00 0.0 
4.083837853409e+00 -3.083161821762e+02 0.0 
0.0 0.0 -1.264217237282e+02 
-1.084515589486e+02 4.435115051197e+00 0.0 
4.435115051197e+00 -3.001737271223e+02 0.0 
0.0 0.0 -1.221875858213e+02 
-1.083238413691e+02 1.377188787075e+01 0.0 
1.377188787075e+01 -3.070845787977e+02 0.0 
0.0 0.0 -1.242225260500e+02 
-3.748365909322e+01 -4.030078655665e+00 0.0 
-4.030078655665e+00 -9.421258897191e+01 0.0 
0.0 0.0 -3.910887441954e+01 
-3.191088844156e+01 1.843201484554e+01 0.0 
1.843201484554e+01 -1.324916419726e+02 0.0 
0.0 0.0 -4.888622007371e+01 
-3.444143620006e+01 2.130440364872e+01 0.0 
2.130440364872e+01 -1.315888988217e+02 0.0 
0.0 0.0 -4.940910050652e+01 
-8.265690114518e+01 1.547952179532e+01 0.0 
1.547952179532e+01 -1.380644479646e+02 0.0 
0.0 0.0 -6.581640473294e+01 
-7.785895798705e+01 1.241783384812e+01 0.0 
1.241783384812e+01 -1.251197641338e+02 0.0 
0.0 0.0 -6.049361663626e+01 
-1.186249037124e+02 6.172621789805e+00 0.0 
6.172621789805e+00 -3.183309989987e+02 0.0 
0.0 0.0 -1.306867708133e+02 
-4.056044687057e+01 -3.382006155896e+00 0.0 
-3.382006155896e+00 -1.026996601793e+02 0.0 
0.0 0.0 -4.257803211496e+01 
-1.215404135070e+02 2.107706739129e+00 0.0 
2.107706739129e+00 -3.132601887303e+02 0.0 
0.0 0.0 -1.300401806712e+02 
-2.795215384815e+01 8.034218197485e+00 0.0 
8.034218197485e+00 -1.335661228487e+02 0.0 
0.0 0.0 -4.912850644160e+01 
-1.185138631300e+02 -2.266544090216e-01 0.0 
-2.266544090216e-01 -2.948472880096e+02 0.0 
0.0 0.0 -1.236083453419e+02 
-1.276316184382e+02 4.654185386215e-01 0.0 
4.654185386215e-01 -3.141805083957e+02 0.0 
0.0 0.0 -1.321436380502e+02 
-9.949913187500e+01 -1.882175700030e+00 0.0 
-1.882175700030e+00 -2.640725974372e+02 0.0 
0.0 0.0 -1.086715187937e+02 
-1.055395299578e+02 2.187061939222e+01 0.0 
2.187061939222e+01 -2.957156562279e+02 0.0 
0.0 0.0 -1.199765558557e+02 
-9.980585390529e+01 2.316115000738e+01 0.0 
2.316115000738e+01 -2.823639909762e+02 0.0 
0.0 0.0 -1.142509534645e+02 
-3.517084642966e+01 -4.918558842803e+00 0.0 
-4.918558842803e+00 -1.574525083324e+02 0.0 
0.0 0.0 -5.736184475865e+01 
-3.516727982059e+01 -1.092726219730e+01 0.0 
-1.092726219730e+01 -1.474393994004e+02 0.0 
0.0 0.0 -5.431290510073e+01 
-3.255980121483e+01 -1.354878793028e+01 0.0 
-1.354878793028e+01 -1.339455432548e+02 0.0 
0.0 0.0 -4.988494764141e+01 
-3.685945325696e+01 -1.608161019052e+01 0.0 
-1.608161019052e+01 -1.347549444759e+02 0.0 
0.0 0.0 -5.090897196638e+01 
-3.968020364334e+01 -1.302365260633e+01 0.0 
-1.302365260633e+01 -1.500890392270e+02 0.0 
0.0 0.0 -5.652390907987e+01 
-4.049175324808e+01 -1.655958855871e+01 0.0 
-1.655958855871e+01 -1.358832899977e+02 0.0 
0.0 0.0 -5.241413322104e+01 
-3.907180957540e+01 -1.954292952905e+01 0.0 
-1.954292952905e+01 -1.185530743613e+02 0.0 
0.0 0.0 -4.629987515977e+01 
-4.147058804604e+01 -1.825680203063e+01 0.0 
-1.825680203063e+01 -1.196194894441e+02 0.0 
0.0 0.0 -4.758202213672e+01 
-4.422979707284e+01 -1.583470927776e+01 0.0 
-1.583470927776e+01 -1.385498039038e+02 0.0 
0.0 0.0 -5.443388029299e+01 
-4.397235039159e+01 -1.638531307341e+01 0.0 
-1.638531307341e+01 -1.227481323118e+02 0.0 
0.0 0.0 -4.956376460973e+01 
-4.196737982953e+01 -1.747432512930e+01 0.0 
-1.747432512930e+01 -1.020037520859e+02 0.0 
0.0 0.0 -4.206768374689e+01 
-4.285648928879e+01 -1.509701475830e+01 0.0 
-1.509701475830e+01 -1.063978569893e+02 0.0 
0.0 0.0 -4.420220643757e+01 
-1.322755083833e+02 1.093663523906e+00 0.0 
1.093663523906e+00 -3.254021974004e+02 0.0 
0.0 0.0 -1.369033117351e+02 
-2.700860358188e+01 -3.416152766507e-01 0.0 
-3.416152766507e-01 -1.309021808033e+02 0.0 
0.0 0.0 -4.858266040838e+01 
-6.706959148858e+01 2.831379925393e+01 0.0 
2.831379925393e+01 -1.178869850241e+02 0.0 
0.0 0.0 -5.508697295382e+01 
-1.246109732291e+02 5.671302665481e+00 0.0 
5.671302665481e+00 -3.265154083015e+02 0.0 
0.0 0.0 -1.349379144592e+02 
-1.128077951196e+02 1.654648891501e+01 0.0 
1.654648891501e+01 -3.136128846404e+02 0.0 
0.0 0.0 -1.275262039280e+02 
-8.433119321198e+01 1.465413311771e+01 0.0 
1.465413311771e+01 -1.468666208700e+02 0.0 
0.0 0.0 -6.895934422460e+01 
-7.969746855362e+01 1.181458082143e+01 0.0 
1.181458082143e+01 -1.345849940701e+02 0.0 
0.0 0.0 -6.388473878711e+01 
-7.266963022762e+01 9.515012009253e+00 0.0 
9.515012009253e+00 -1.130628189384e+02 0.0 
0.0 0.0 -5.531973474979e+01 
-7.481469471447e+01 9.181984056309e+00 0.0 
9.181984056309e+00 -1.231539324294e+02 0.0 
0.0 0.0 -5.899058814316e+01 
-8.141956747232e+01 1.132604270668e+01 0.0 
1.132604270668e+01 -1.444810837274e+02 0.0 
0.0 0.0 -6.737019535993e+01 
-7.685888745436e+01 8.895168723914e+00 0.0 
8.895168723914e+00 -1.334143853529e+02 0.0 
0.0 0.0 -6.268198184217e+01 
-6.978576664838e+01 6.903513829558e+00 0.0 
6.903513829558e+00 -1.123950044028e+02 0.0 
0.0 0.0 -5.425423131536e+01 
-7.220467397500e+01 6.783343170991e+00 0.0 
6.783343170991e+00 -1.228864193968e+02 0.0 
0.0 0.0 -5.812732801153e+01 
-6.476687630351e+01 5.000636558876e+00 0.0 
5.000636558876e+00 -1.021628957343e+02 0.0 
0.0 0.0 -4.967893161134e+01 
-6.753125163685e+01 5.015397891495e+00 0.0 
5.015397891495e+00 -1.128401038010e+02 0.0 
0.0 0.0 -5.371140663136e+01 
-7.455673643305e+01 6.631237963758e+00 0.0 
6.631237963758e+00 -1.334981210736e+02 0.0 
0.0 0.0 -6.201645725198e+01 
-7.022326438873e+01 4.988863535311e+00 0.0 
4.988863535311e+00 -1.236525902479e+02 0.0 
0.0 0.0 -5.776275639100e+01 
-6.289829829429e+01 3.579934500301e+00 0.0 
3.579934500301e+00 -1.032362176958e+02 0.0 
0.0 0.0 -4.944035479702e+01 
-6.591779127605e+01 3.638091064285e+00 0.0 
3.638091064285e+00 -1.140973623179e+02 0.0 
0.0 0.0 -5.360454607819e+01 
-5.837142397752e+01 2.478258082695e+00 0.0 
2.478258082695e+00 -9.385630449110e+01 0.0 
0.0 0.0 -4.526831854059e+01 
-6.171271195623e+01 2.579598910384e+00 0.0 
2.579598910384e+00 -1.046736907978e+02 0.0 
0.0 0.0 -4.951592082621e+01 
-6.889338378223e+01 3.539881103927e+00 0.0 
3.539881103927e+00 -1.250561386754e+02 0.0 
0.0 0.0 -5.778485673730e+01 
-3.236562466489e+01 -2.911625832664e+00 0.0 
-2.911625832664e+00 -8.308152457992e+01 0.0 
0.0 0.0 -3.423414477344e+01 
-1.040251461463e+02 1.096435859270e+01 0.0 
1.096435859270e+01 -2.997412768017e+02 0.0 
0.0 0.0 -1.207299268844e+02 
-1.146372553977e+02 1.262114529832e+01 0.0 
1.262114529832e+01 -3.172008542522e+02 0.0 
0.0 0.0 -1.291514328950e+02 
-6.504071002092e+01 -3.626082133420e+00 0.0 
-3.626082133420e+00 -1.647814750547e+02 0.0 
0.0 0.0 -6.854665552269e+01 
-7.262878810760e+01 -3.306272939457e+00 0.0 
-3.306272939457e+00 -1.842644351884e+02 0.0 
0.0 0.0 -7.666796698879e+01 
-7.679941636434e+01 -3.889384425324e+00 0.0 
-3.889384425324e+00 -1.964640989250e+02 0.0 
0.0 0.0 -8.157905458681e+01 
-8.081567104654e+01 -2.950301015241e+00 0.0 
-2.950301015241e+00 -2.048134224716e+02 0.0 
0.0 0.0 -8.528872805543e+01 
-6.493492078456e+01 2.495739108476e+00 0.0 
2.495739108476e+00 -1.155483343019e+02 0.0 
0.0 0.0 -5.374497652593e+01 
-7.175618762682e+01 3.290389442699e+00 0.0 
3.290389442699e+00 -1.360822069534e+02 0.0 
0.0 0.0 -6.195151837407e+01 
-3.334646243998e+01 2.367370550149e+01 0.0 
2.367370550149e+01 -1.163555455254e+02 0.0 
0.0 0.0 -4.436163705331e+01 
-3.519698640713e+01 2.512832250149e+01 0.0 
2.512832250149e+01 -1.144753257335e+02 0.0 
0.0 0.0 -4.443376519191e+01 
-8.867035448503e+01 1.762225296680e+01 0.0 
1.762225296680e+01 -1.600010430835e+02 0.0 
0.0 0.0 -7.420141927056e+01 
-1.230115934727e+02 9.178218986908e-03 0.0 
9.178218986908e-03 -3.028951862169e+02 0.0 
0.0 0.0 -1.273720339069e+02 
-1.140733818912e+02 -5.872480510356e-01 0.0 
-5.872480510356e-01 -2.834218008949e+02 0.0 
0.0 0.0 -1.188485548358e+02 
-5.300553423204e+01 2.766739694511e+01 0.0 
2.766739694511e+01 -1.507913425345e+02 0.0 
0.0 0.0 -6.073906302996e+01 
-5.060223556629e+01 2.849451657121e+01 0.0 
2.849451657121e+01 -1.330542866671e+02 0.0 
0.0 0.0 -5.469695667002e+01 
-4.789822520410e+01 2.774839853983e+01 0.0 
2.774839853983e+01 -1.325932036331e+02 0.0 
0.0 0.0 -5.374742865117e+01 
-4.579367845899e+01 2.829038032744e+01 0.0 
2.829038032744e+01 -1.141165949667e+02 0.0 
0.0 0.0 -4.757308202770e+01 
-4.815305560985e+01 2.882453469361e+01 0.0 
2.882453469361e+01 -1.146381177061e+02 0.0 
0.0 0.0 -4.843735199479e+01 
-4.367044091481e+01 2.782432170104e+01 0.0 
2.782432170104e+01 -1.137123490056e+02 0.0 
0.0 0.0 -4.681483697611e+01 
-9.881222777249e+01 2.531701938969e+00 0.0 
2.531701938969e+00 -2.819844670406e+02 0.0 
0.0 0.0 -1.138390084439e+02 
-7.687904432874e+01 6.421535320713e+00 0.0 
6.421535320713e+00 -1.443206146307e+02 0.0 
0.0 0.0 -6.595989768784e+01 
-4.474630829105e+01 -8.018376956554e+00 0.0 
-8.018376956554e+00 -1.108030695128e+02 0.0 
0.0 0.0 -4.626481334116e+01 
-3.758854256207e+01 -7.178895373804e+00 0.0 
-7.178895373804e+00 -8.981391423219e+01 0.0 
0.0 0.0 -3.782073703828e+01 
-1.321212122030e+02 5.290183550497e-01 0.0 
5.290183550497e-01 -3.222354088610e+02 0.0 
0.0 0.0 -1.359069863192e+02 
-9.404660162056e+01 9.265664538328e+00 0.0 
9.265664538328e+00 -2.824889007471e+02 0.0 
0.0 0.0 -1.125606507103e+02 
-8.087699812609e+01 2.995456282525e+01 0.0 
2.995456282525e+01 -2.075771957735e+02 0.0 
0.0 0.0 -8.613625816987e+01 
-8.477595263176e+01 2.927584142841e+01 0.0 
2.927584142841e+01 -2.243580521033e+02 0.0 
0.0 0.0 -9.234020142051e+01 
-8.891275288106e+01 3.039550621075e+01 0.0 
3.039550621075e+01 -2.262014773802e+02 0.0 
0.0 0.0 -9.413426907837e+01 
-9.320198389395e+01 2.981311395400e+01 0.0 
2.981311395400e+01 -2.428042463014e+02 0.0 
0.0 0.0 -1.004018690586e+02 
-9.733862965794e+01 3.106689983577e+01 0.0 
3.106689983577e+01 -2.449307879112e+02 0.0 
0.0 0.0 -1.022808252707e+02 
-1.020398668952e+02 3.062437555590e+01 0.0 
3.062437555590e+01 -2.612727926107e+02 0.0 
0.0 0.0 -1.085937978518e+02 
-9.781156157683e+01 2.909697006112e+01 0.0 
2.909697006112e+01 -2.588146771965e+02 0.0 
0.0 0.0 -1.065878716320e+02 
-1.102307563960e+02 2.436170194460e+01 0.0 
2.436170194460e+01 -3.001305672491e+02 0.0 
0.0 0.0 -1.227083970935e+02 
-1.071106134903e+02 3.010362578257e+01 0.0 
3.010362578257e+01 -2.770325542069e+02 0.0 
0.0 0.0 -1.148429503092e+02 
-5.761424861790e+01 1.668456310148e+00 0.0 
1.668456310148e+00 -9.508674382324e+01 0.0 
0.0 0.0 -4.541029773234e+01 
-8.570510407128e+01 1.973769941511e+01 0.0 
1.973769941511e+01 -2.608844460907e+02 0.0 
0.0 0.0 -1.035768650486e+02 
-4.797225274889e+01 -1.451764285401e+01 0.0 
-1.451764285401e+01 -1.426320692545e+02 0.0 
0.0 0.0 -5.678129660101e+01 
-2.899723824313e+01 -3.206131154907e+00 0.0 
-3.206131154907e+00 -7.420063600634e+01 0.0 
0.0 0.0 -3.055936227484e+01 
-3.946658347193e+01 -1.436682350467e+01 0.0 
-1.436682350467e+01 -8.391556584576e+01 0.0 
0.0 0.0 -3.574198639910e+01 
-3.519497295019e+01 -2.432065518595e+00 0.0 
-2.432065518595e+00 -9.083833710731e+01 0.0 
0.0 0.0 -3.740999301725e+01 
-4.384209527722e+01 -2.763983510546e+00 0.0 
-2.763983510546e+00 -1.112079181223e+02 0.0 
0.0 0.0 -4.611500401986e+01 
-1.292970540188e+02 7.739950108033e+00 0.0 
7.739950108033e+00 -3.363988739850e+02 0.0 
0.0 0.0 -1.393087784011e+02 
-1.060747979285e+02 3.205414865768e+01 0.0 
3.205414865768e+01 -2.636026377134e+02 0.0 
0.0 0.0 -1.105032306926e+02 
-1.012347779033e+02 3.214300309284e+01 0.0 
3.214300309284e+01 -2.469174455303e+02 0.0 
0.0 0.0 -1.040456670301e+02 
-4.366500424187e+01 2.831743274056e+01 0.0 
2.831743274056e+01 -9.540139409234e+01 0.0 
0.0 0.0 -4.131991950026e+01 
-4.561435948196e+01 2.863074109353e+01 0.0 
2.863074109353e+01 -9.579380788225e+01 0.0 
0.0 0.0 -4.202245020926e+01 
-1.164040180027e+02 2.319783760856e+01 0.0 
2.319783760856e+01 -3.132480809575e+02 0.0 
0.0 0.0 -1.284956296880e+02 
-6.824878919325e+01 1.071554121909e+01 0.0 
1.071554121909e+01 -9.406587858021e+01 0.0 
0.0 0.0 -4.829440033204e+01 
-6.192653401756e+01 4.938131299165e+00 0.0 
4.938131299165e+00 -9.164586166464e+01 0.0 
0.0 0.0 -4.567171870466e+01 
-5.650411281256e+01 3.297313394154e+00 0.0 
3.297313394154e+00 -8.165190910733e+01 0.0 
0.0 0.0 -4.104680657597e+01 
-2.563799421350e+01 -1.864486665238e+00 0.0 
-1.864486665238e+00 -6.912161738678e+01 0.0 
0.0 0.0 -2.802788348009e+01 
-3.976116441656e+01 -1.717660576389e+01 0.0 
-1.717660576389e+01 -7.989929240320e+01 0.0 
0.0 0.0 -3.396706138108e+01 
-8.311181837304e+01 1.084152888144e+01 0.0 
1.084152888144e+01 -1.546426935421e+02 0.0 
0.0 0.0 -7.092635357453e+01 
-3.718331931095e+01 2.331921430944e+01 0.0 
2.331921430944e+01 -1.309334933334e+02 0.0 
0.0 0.0 -5.003504379330e+01 
-3.729703824486e+01 2.604996748008e+01 0.0 
2.604996748008e+01 -1.133724801616e+02 0.0 
0.0 0.0 -4.480085552194e+01 
-2.786669629480e+01 1.065901066183e+01 0.0 
1.065901066183e+01 -1.239836595365e+02 0.0 
0.0 0.0 -4.690509199849e+01 
-2.819803974196e+01 1.470719104672e-01 0.0 
1.470719104672e-01 -1.238757022117e+02 0.0 
0.0 0.0 -4.748692300116e+01 
-6.812009210109e+01 2.185891264115e+00 0.0 
2.185891264115e+00 -1.262736385447e+02 0.0 
0.0 0.0 -5.791811919374e+01 
-7.469758839699e+01 2.876252627516e+00 0.0 
2.876252627516e+00 -1.467270342025e+02 0.0 
0.0 0.0 -6.602738677984e+01 
-8.484724780050e+01 -3.226185359043e+00 0.0 
-3.226185359043e+00 -2.166359111043e+02 0.0 
0.0 0.0 -9.004494767145e+01 
-8.889214720965e+01 -2.355737189090e+00 0.0 
-2.355737189090e+00 -2.248414444964e+02 0.0 
0.0 0.0 -9.372007751181e+01 
-1.231276019813e+02 8.434174012941e+00 0.0 
8.434174012941e+00 -3.278602500767e+02 0.0 
0.0 0.0 -1.348963556174e+02 
-3.996800014395e+01 -1.240447646211e+01 0.0 
-1.240447646211e+01 -9.064046532222e+01 0.0 
0.0 0.0 -3.859484755938e+01 
-7.823628119366e+01 4.158052177685e+00 0.0 
4.158052177685e+00 -1.567279268036e+02 0.0 
0.0 0.0 -7.008926239919e+01 
-9.997888774068e+01 8.168109769516e+00 0.0 
8.168109769516e+00 -2.917043591262e+02 0.0 
0.0 0.0 -1.171049740601e+02 
-9.036637529182e+01 6.335892026258e+00 0.0 
6.335892026258e+00 -2.743613188912e+02 0.0 
0.0 0.0 -1.090183082549e+02 
-7.661100286607e+01 -2.542359198181e+00 0.0 
-2.542359198181e+00 -1.926446416415e+02 0.0 
0.0 0.0 -8.037669335226e+01 
-3.579642607935e+01 2.733068598462e+01 0.0 
2.733068598462e+01 -9.772503520540e+01 0.0 
0.0 0.0 -3.912240163891e+01 
-3.505124500172e+01 2.666591714029e+01 0.0 
2.666591714029e+01 -1.008371327682e+02 0.0 
0.0 0.0 -4.010174741727e+01 
-4.864185148000e+01 -1.331105980329e+01 0.0 
-1.331105980329e+01 -1.571102888482e+02 0.0 
0.0 0.0 -6.132564209845e+01 
-4.468788919615e+01 -1.305045629949e+01 0.0 
-1.305045629949e+01 -1.123334854498e+02 0.0 
0.0 0.0 -4.670641239379e+01 
-3.863625504132e+01 -1.883572334154e+00 0.0 
-1.883572334154e+00 -9.943764550144e+01 0.0 
0.0 0.0 -4.102217016283e+01 
-1.342099837033e+02 9.961723675731e+00 0.0 
9.961723675731e+00 -3.457245760544e+02 0.0 
0.0 0.0 -1.435803679273e+02 
-8.719238967880e+01 1.330982998802e+01 0.0 
1.330982998802e+01 -1.658576972391e+02 0.0 
0.0 0.0 -7.551502607536e+01 
-1.028697404121e+02 2.833456973154e+01 0.0 
2.833456973154e+01 -2.742059240805e+02 0.0 
0.0 0.0 -1.127226993478e+02 
-9.343620786377e+01 2.745327668267e+01 0.0 
2.745327668267e+01 -2.561188793737e+02 0.0 
0.0 0.0 -1.044665261712e+02 
-1.128624076195e+02 2.947473705062e+01 0.0 
2.947473705062e+01 -2.924194261441e+02 0.0 
0.0 0.0 -1.211845501291e+02 
-3.472234311778e+01 -1.048241366486e+01 0.0 
-1.048241366486e+01 -6.870759983110e+01 0.0 
0.0 0.0 -3.002995947903e+01 
-1.354233701117e+02 7.079173085201e+00 0.0 
7.079173085201e+00 -3.449003914603e+02 0.0 
0.0 0.0 -1.436971284716e+02 
-1.273668483230e+02 1.553507196885e-01 0.0 
1.553507196885e-01 -3.111197861123e+02 0.0 
0.0 0.0 -1.311459903306e+02 
-1.094505395761e+02 3.324891480294e+01 0.0 
3.324891480294e+01 -2.650125465917e+02 0.0 
0.0 0.0 -1.119389258504e+02 
-1.048825953958e+02 3.304955318473e+01 0.0 
3.304955318473e+01 -2.490273336434e+02 0.0 
0.0 0.0 -1.057729787118e+02 
-3.978528739344e+01 2.476420493700e+01 0.0 
2.476420493700e+01 -1.305710052668e+02 0.0 
0.0 0.0 -5.070688779809e+01 
-3.942724516204e+01 2.670727345539e+01 0.0 
2.670727345539e+01 -1.130009038945e+02 0.0 
0.0 0.0 -4.532844471698e+01 
-3.773338183954e+01 2.766047562651e+01 0.0 
2.766047562651e+01 -9.481318131109e+01 0.0 
0.0 0.0 -3.936396894519e+01 
-3.910538336041e+01 2.770859735936e+01 0.0 
2.770859735936e+01 -9.455052547304e+01 0.0 
0.0 0.0 -3.969677265003e+01 
-6.671950586500e+01 2.494401918169e+01 0.0 
2.494401918169e+01 -1.008021855300e+02 0.0 
0.0 0.0 -4.985650741850e+01 
-4.239393146087e+01 2.590533868545e+01 0.0 
2.590533868545e+01 -1.307789843032e+02 0.0 
0.0 0.0 -5.155187472922e+01 
-6.344573522860e+01 2.911571990608e+01 0.0 
2.911571990608e+01 -1.165549896321e+02 0.0 
0.0 0.0 -5.360021745820e+01 
-5.983847180235e+01 2.767188378324e+01 0.0 
2.767188378324e+01 -9.714639721867e+01 0.0 
0.0 0.0 -4.669546070630e+01 
-5.647033950406e+01 2.850989291225e+01 0.0 
2.850989291225e+01 -9.637984527085e+01 0.0 
0.0 0.0 -4.545505543247e+01 
-5.070578549790e+01 2.926672779766e+01 0.0 
2.926672779766e+01 -1.148610236972e+02 0.0 
0.0 0.0 -4.927004275853e+01 
-4.780826287901e+01 2.888317636130e+01 0.0 
2.888317636130e+01 -9.584851656238e+01 0.0 
0.0 0.0 -4.269703383242e+01 
-4.208039138826e+01 1.860932098117e+01 0.0 
1.860932098117e+01 -1.625743115936e+02 0.0 
0.0 0.0 -6.099641089457e+01 
-7.287551622653e+01 1.615547260121e+01 0.0 
1.615547260121e+01 -2.398475274549e+02 0.0 
0.0 0.0 -9.341691310444e+01 
-8.072194263397e+01 -4.158991660188e+00 0.0 
-4.158991660188e+00 -2.086585062165e+02 0.0 
0.0 0.0 -8.641413465513e+01 
-1.006033290129e+02 -2.004997592050e+00 0.0 
-2.004997592050e+00 -2.598902489029e+02 0.0 
0.0 0.0 -1.077480733748e+02 
-8.693779961042e+01 -1.604420874638e+00 0.0 
-1.604420874638e+00 -2.533774578366e+02 0.0 
0.0 0.0 -1.016945772341e+02 
-8.079602850232e+01 8.239217547940e+00 0.0 
8.239217547940e+00 -1.542626922320e+02 0.0 
0.0 0.0 -7.011761622030e+01 
-8.282925566201e+01 7.822435810169e+00 0.0 
7.822435810169e+00 -1.652114196635e+02 0.0 
0.0 0.0 -7.401220259765e+01 
-5.496857591260e+01 2.289233773401e+00 0.0 
2.289233773401e+00 -8.303921894349e+01 0.0 
0.0 0.0 -4.100233845683e+01 
-5.042366830045e+01 1.464569462453e+00 0.0 
1.464569462453e+00 -7.374458836804e+01 0.0 
0.0 0.0 -3.685047700055e+01 
-3.193518108271e+01 -5.187064711800e+00 0.0 
-5.187064711800e+00 -7.707462445069e+01 0.0 
0.0 0.0 -3.230294166002e+01 
-2.977839121036e+01 -5.741278838396e+00 0.0 
-5.741278838396e+00 -6.886758403366e+01 0.0 
0.0 0.0 -2.919169760730e+01 
-8.632766611159e+01 -4.069204166535e+00 0.0 
-4.069204166535e+00 -2.374615678406e+02 0.0 
0.0 0.0 -9.673677018567e+01 
-1.304352863171e+02 5.206365981124e+00 0.0 
5.206365981124e+00 -3.345223070225e+02 0.0 
0.0 0.0 -1.390872780019e+02 
-8.981949249136e+01 1.670256439841e+01 0.0 
1.670256439841e+01 -1.683710382310e+02 0.0 
0.0 0.0 -7.705715921670e+01 
-9.377112721412e+01 1.968827958144e+01 0.0 
1.968827958144e+01 -1.816879250920e+02 0.0 
0.0 0.0 -8.223771569185e+01 
-9.271781352415e+01 2.064144018635e+01 0.0 
2.064144018635e+01 -1.737937103017e+02 0.0 
0.0 0.0 -7.955345714776e+01 
-1.277876281844e+02 1.083743533414e+01 0.0 
1.083743533414e+01 -3.366405338686e+02 0.0 
0.0 0.0 -1.389284486159e+02 
-4.433563350056e+01 6.917336695191e+00 0.0 
6.917336695191e+00 -1.837827531510e+02 0.0 
0.0 0.0 -6.803551599547e+01 
-7.919147850540e+01 9.082360661107e+00 0.0 
9.082360661107e+00 -2.560702200985e+02 0.0 
0.0 0.0 -1.001785095812e+02 
-2.848931219908e+01 -1.068376594380e+01 0.0 
-1.068376594380e+01 -1.246108691311e+02 0.0 
0.0 0.0 -4.718410512211e+01 
-7.647797924763e+01 2.649266600822e+01 0.0 
2.649266600822e+01 -2.204965972615e+02 0.0 
0.0 0.0 -8.869237295274e+01 
-2.332933138024e+01 -3.776227636657e+00 0.0 
-3.776227636657e+00 -5.668493500834e+01 0.0 
0.0 0.0 -2.360427991657e+01 
-8.868100772572e+01 3.132168310179e+01 0.0 
3.132168310179e+01 -1.950608021927e+02 0.0 
0.0 0.0 -8.472254297554e+01 
-1.366002110248e+02 5.052304443520e-01 0.0 
5.052304443520e-01 -3.304933648641e+02 0.0 
0.0 0.0 -1.397280727667e+02 
-1.414205453086e+02 9.467631482889e-01 0.0 
9.467631482889e-01 -3.413290519982e+02 0.0 
0.0 0.0 -1.444248791920e+02 
-1.211650907058e+02 2.574520511308e+01 0.0 
2.574520511308e+01 -3.176915147998e+02 0.0 
0.0 0.0 -1.312569816517e+02 
-5.501949095160e+01 2.018450637659e+01 0.0 
2.018450637659e+01 -5.985881984291e+01 0.0 
0.0 0.0 -3.406349323835e+01 
-8.045734764262e+01 2.511206214709e+01 0.0 
2.511206214709e+01 -2.357254428620e+02 0.0 
0.0 0.0 -9.445483715140e+01 
-7.633476668427e+01 2.309812381151e+01 0.0 
2.309812381151e+01 -2.331051393058e+02 0.0 
0.0 0.0 -9.243197179703e+01 
-5.283948176979e+01 2.688718692574e+01 0.0 
2.688718692574e+01 -7.668253856127e+01 0.0 
0.0 0.0 -3.845660609932e+01 
-4.958572812406e+01 2.767173803925e+01 0.0 
2.767173803925e+01 -7.624880412767e+01 0.0 
0.0 0.0 -3.735035967552e+01 
-5.320936568043e+01 2.891790767731e+01 0.0 
2.891790767731e+01 -9.595354077702e+01 0.0 
0.0 0.0 -4.434887193724e+01 
-4.691870423544e+01 2.797331545524e+01 0.0 
2.797331545524e+01 -7.634004274187e+01 0.0 
0.0 0.0 -3.657762409319e+01 
-5.283457850927e+01 -1.241989315253e+01 0.0 
-1.241989315253e+01 -1.617811135754e+02 0.0 
0.0 0.0 -6.398470762541e+01 
-5.150200184524e+01 -1.298328401480e+01 0.0 
-1.298328401480e+01 -1.475966099168e+02 0.0 
0.0 0.0 -5.932958352862e+01 
-1.158189676582e+02 3.366279464132e+01 0.0 
3.366279464132e+01 -2.834435695095e+02 0.0 
0.0 0.0 -1.193787611503e+02 
-1.167146321577e+02 3.144660761381e+01 0.0 
3.144660761381e+01 -2.950076502627e+02 0.0 
0.0 0.0 -1.231166847261e+02 
-1.128421795398e+02 3.456183490925e+01 0.0 
3.456183490925e+01 -2.676974094294e+02 0.0 
0.0 0.0 -1.137618766907e+02 
-1.085054153766e+02 3.397507870749e+01 0.0 
3.397507870749e+01 -2.517961256159e+02 0.0 
0.0 0.0 -1.076904622977e+02 
-1.278373155090e+02 2.468662995404e+01 0.0 
2.468662995404e+01 -3.306946730263e+02 0.0 
0.0 0.0 -1.371595965606e+02 
-1.226477064513e+02 2.199759591072e+01 0.0 
2.199759591072e+01 -3.254515531197e+02 0.0 
0.0 0.0 -1.340297778713e+02 
-4.693633771437e+01 -2.046462107561e+00 0.0 
-2.046462107561e+00 -1.192015000179e+02 0.0 
0.0 0.0 -4.944135131969e+01 
-4.298341784070e+01 2.789738306956e+01 0.0 
2.789738306956e+01 -7.668150986692e+01 0.0 
0.0 0.0 -3.549947831229e+01 
-8.866713386504e+01 1.267341074680e+01 0.0 
1.267341074680e+01 -1.758785281491e+02 0.0 
0.0 0.0 -7.896369860425e+01 
-5.601926386090e+01 2.555114898427e+01 0.0 
2.555114898427e+01 -7.749352211096e+01 0.0 
0.0 0.0 -3.965383579156e+01 
-1.411172558350e+02 6.396334797829e+00 0.0 
6.396334797829e+00 -3.525215548885e+02 0.0 
0.0 0.0 -1.476916432171e+02 
-1.361267851995e+02 4.782618159477e+00 0.0 
4.782618159477e+00 -3.424536309794e+02 0.0 
0.0 0.0 -1.431741248537e+02 
-3.417421821578e+01 -1.107339188846e+01 0.0 
-1.107339188846e+01 -1.195439658796e+02 0.0 
0.0 0.0 -4.797009573168e+01 
-3.369903709697e+01 -2.162043485022e+01 0.0 
-2.162043485022e+01 -1.099395300920e+02 0.0 
0.0 0.0 -4.387163499981e+01 
-8.097606112281e+01 3.581675775250e+00 0.0 
3.581675775250e+00 -1.677243254642e+02 0.0 
0.0 0.0 -7.421011597611e+01 
-3.815184615323e+01 2.813374339150e+01 0.0 
2.813374339150e+01 -7.560416067045e+01 0.0 
0.0 0.0 -3.372680204710e+01 
-3.858255333408e+01 2.776250169720e+01 0.0 
2.776250169720e+01 -7.508873979088e+01 0.0 
0.0 0.0 -3.370138793749e+01 
-3.781676050081e+01 2.850146831002e+01 0.0 
2.850146831002e+01 -7.628745696153e+01 0.0 
0.0 0.0 -3.353049102597e+01 
-1.559163938244e+02 2.958199757740e-01 0.0 
2.958199757740e-01 -3.693501335614e+02 0.0 
0.0 0.0 -1.571799582157e+02 
-3.282276451334e+01 4.040204637933e-02 0.0 
4.040204637933e-02 -3.559424815838e+01 0.0 
0.0 0.0 -2.012510380152e+01 
-1.460214448493e+02 7.803675803413e-01 0.0 
7.803675803413e-01 -3.497323578899e+02 0.0 
0.0 0.0 -1.483261408218e+02 
-5.353793044397e+01 2.958948778226e+01 0.0 
2.958948778226e+01 -1.150718834555e+02 0.0 
0.0 0.0 -5.018294416985e+01 
-8.438402707578e+01 4.967765827868e+00 0.0 
4.967765827868e+00 -1.779271320180e+02 0.0 
0.0 0.0 -7.829334772814e+01 
-8.488854520921e+01 2.364302880451e+01 0.0 
2.364302880451e+01 -2.503562761861e+02 0.0 
0.0 0.0 -1.001734464186e+02 
-4.980434015543e+01 2.656760981191e+01 0.0 
2.656760981191e+01 -1.498013221663e+02 0.0 
0.0 0.0 -5.948169869653e+01 
-1.168224049847e+02 9.202761140611e+00 0.0 
9.202761140611e+00 -3.189657909206e+02 0.0 
0.0 0.0 -1.303364587716e+02 
-7.733799687219e+01 2.346228540853e+00 0.0 
2.346228540853e+00 -1.565908212043e+02 0.0 
0.0 0.0 -6.977864542295e+01 
-8.373642866576e+01 2.799283482187e+00 0.0 
2.799283482187e+00 -1.792472352228e+02 0.0 
0.0 0.0 -7.849509916656e+01 
-5.316376230179e+01 3.076157154170e+00 0.0 
3.076157154170e+00 -7.109691767792e+01 0.0 
0.0 0.0 -3.687820399392e+01 
-4.739116685519e+01 1.899161600462e+00 0.0 
1.899161600462e+00 -6.091091203037e+01 0.0 
0.0 0.0 -3.209062366567e+01 
-5.866574604227e+01 4.834643515544e+00 0.0 
4.834643515544e+00 -8.064106597019e+01 0.0 
0.0 0.0 -4.139204360374e+01 
-2.920601601903e+01 1.725442443368e+01 0.0 
1.725442443368e+01 -1.217118818974e+02 0.0 
0.0 0.0 -4.581580599177e+01 
-3.189067206781e+01 2.286308823183e+01 0.0 
2.286308823183e+01 -1.082408546883e+02 0.0 
0.0 0.0 -4.304236925294e+01 
-7.912301280559e+01 6.052706145403e+00 0.0 
6.052706145403e+00 -1.551482563437e+02 0.0 
0.0 0.0 -6.988138074480e+01 
-5.688840521876e+01 -3.808491281222e+00 0.0 
-3.808491281222e+00 -1.437369563029e+02 0.0 
0.0 0.0 -5.978760845650e+01 
-6.105973881467e+01 -2.948197107473e+00 0.0 
-2.948197107473e+00 -1.543025220235e+02 0.0 
0.0 0.0 -6.420867825144e+01 
-4.105447972354e+01 -1.075590237989e+01 0.0 
-1.075590237989e+01 -9.701455862025e+01 0.0 
0.0 0.0 -4.101263290122e+01 
-4.669592476632e+01 -1.120483763016e+01 0.0 
-1.120483763016e+01 -1.182427257338e+02 0.0 
0.0 0.0 -4.908159515005e+01 
-8.867899573276e+01 -3.290189597813e+00 0.0 
-3.290189597813e+00 -2.285854435942e+02 0.0 
0.0 0.0 -9.477933179810e+01 
-8.438210121023e+01 -4.180977709764e+00 0.0 
-4.180977709764e+00 -2.208214939032e+02 0.0 
0.0 0.0 -9.116107853402e+01 
-9.262186587493e+01 3.180334992064e+01 0.0 
3.180334992064e+01 -2.127420409046e+02 0.0 
0.0 0.0 -9.120917203387e+01 
-9.613121768169e+01 3.206873415743e+01 0.0 
3.206873415743e+01 -2.148902620814e+02 0.0 
0.0 0.0 -9.290644392892e+01 
-8.488941023471e+01 3.078111759795e+01 0.0 
3.078111759795e+01 -2.091072181188e+02 0.0 
0.0 0.0 -8.779898850607e+01 
-9.626312307409e+01 5.446487348735e+00 0.0 
5.446487348735e+00 -2.830195626662e+02 0.0 
0.0 0.0 -1.133848057221e+02 
-8.703219864119e+01 3.492708300035e+00 0.0 
3.492708300035e+00 -2.655348207416e+02 0.0 
0.0 0.0 -1.053701058148e+02 
-8.137066609781e+01 4.472250333459e+00 0.0 
4.472250333459e+00 -2.573059114929e+02 0.0 
0.0 0.0 -1.012029732772e+02 
-8.605348664034e+01 9.735498515539e+00 0.0 
9.735498515539e+00 -1.748525847812e+02 0.0 
0.0 0.0 -7.787182142647e+01 
-8.860804672181e+01 9.119375563531e+00 0.0 
9.119375563531e+00 -1.882591067632e+02 0.0 
0.0 0.0 -8.266014604550e+01 
-5.383179803304e+01 -1.080269632155e+01 0.0 
-1.080269632155e+01 -1.751405191454e+02 0.0 
0.0 0.0 -6.829169515353e+01 
-4.916093641871e+01 -1.087306478999e+01 0.0 
-1.087306478999e+01 -1.703802938182e+02 0.0 
0.0 0.0 -6.546236907108e+01 
-5.682889880406e+01 -1.128079295804e+01 0.0 
-1.128079295804e+01 -1.669300851001e+02 0.0 
0.0 0.0 -6.672769517125e+01 
-9.225199014720e+01 1.519301472210e+01 0.0 
1.519301472210e+01 -1.873548341623e+02 0.0 
0.0 0.0 -8.348204729285e+01 
-1.507329994609e+02 1.200585637551e+00 0.0 
1.200585637551e+00 -3.601443893420e+02 0.0 
0.0 0.0 -1.528632166409e+02 
-1.462378475954e+02 1.549105188313e+00 0.0 
1.549105188313e+00 -3.520403395903e+02 0.0 
0.0 0.0 -1.490834561557e+02 
-2.096520466489e+01 -3.830420446563e+00 0.0 
-3.830420446563e+00 -4.855943141529e+01 0.0 
0.0 0.0 -2.045529585815e+01 
-2.789687616107e+01 -6.113430069413e+00 0.0 
-6.113430069413e+00 -6.059908159352e+01 0.0 
0.0 0.0 -2.605325033704e+01 
-3.807269193207e+01 2.935590839477e+01 0.0 
2.935590839477e+01 -7.997903035942e+01 0.0 
0.0 0.0 -3.402546105358e+01 
-3.731744083147e+01 3.001404085340e+01 0.0 
3.001404085340e+01 -8.421023864369e+01 0.0 
0.0 0.0 -3.595303241528e+01 
-9.722338392705e+01 2.261009511074e+01 0.0 
2.261009511074e+01 -1.951980389141e+02 0.0 
0.0 0.0 -8.732642685233e+01 
-9.669930979313e+01 2.367807826676e+01 0.0 
2.367807826676e+01 -1.886986057093e+02 0.0 
0.0 0.0 -8.521937465072e+01 
-9.853089861133e+01 2.186371300901e+01 0.0 
2.186371300901e+01 -2.050203257489e+02 0.0 
0.0 0.0 -9.066536730808e+01 
-4.132534321744e+01 -1.319378287907e+00 0.0 
-1.319378287907e+00 -1.062064355991e+02 0.0 
0.0 0.0 -4.385953364495e+01 
-9.844237430576e+01 2.640937337280e+01 0.0 
2.640937337280e+01 -2.710804879909e+02 0.0 
0.0 0.0 -1.104568586890e+02 
-1.389144693947e+02 1.236410870491e+01 0.0 
1.236410870491e+01 -3.534857755676e+02 0.0 
0.0 0.0 -1.473200734887e+02 
-1.320956641705e+02 1.337895454968e+01 0.0 
1.337895454968e+01 -3.440921554449e+02 0.0 
0.0 0.0 -1.424563458846e+02 
-1.467996958223e+02 1.148550650503e+01 0.0 
1.148550650503e+01 -3.647641075001e+02 0.0 
0.0 0.0 -1.530691409967e+02 
-1.147432244314e+02 2.673302768074e+01 0.0 
2.673302768074e+01 -3.039569618500e+02 0.0 
0.0 0.0 -1.252100558844e+02 
-1.256489224918e+02 2.805691144838e+01 0.0 
2.805691144838e+01 -3.213665837819e+02 0.0 
0.0 0.0 -1.337046518821e+02 
-1.233365446034e+02 3.088581575826e+01 0.0 
3.088581575826e+01 -3.101909128934e+02 0.0 
0.0 0.0 -1.296582372490e+02 
-4.080245720748e+01 8.084514011324e-01 0.0 
8.084514011324e-01 -1.213823259049e+02 0.0 
0.0 0.0 -5.049269454349e+01 
-8.134546992507e+01 1.850237097191e+00 0.0 
1.850237097191e+00 -1.718300507018e+02 0.0 
0.0 0.0 -7.555265618805e+01 
-4.611467793511e+01 1.213685208755e+00 0.0 
1.213685208755e+00 -6.207826769456e+01 0.0 
0.0 0.0 -3.205788368890e+01 
-5.128896381874e+01 -7.302059504743e+00 0.0 
-7.302059504743e+00 -1.167499892336e+02 0.0 
0.0 0.0 -5.185398444961e+01 
-4.158260203402e+01 6.678765765678e-01 0.0 
6.678765765678e-01 -5.311564680378e+01 0.0 
0.0 0.0 -2.800947465134e+01 
-4.588248362057e+01 8.829066294684e-01 0.0 
8.829066294684e-01 -6.447317519461e+01 0.0 
0.0 0.0 -3.270669764456e+01 
-3.675016474117e+01 3.393498685223e-01 0.0 
3.393498685223e-01 -4.304219290654e+01 0.0 
0.0 0.0 -2.353770729432e+01 
-3.265277809697e+01 -1.169127794268e+00 0.0 
-1.169127794268e+00 -8.644910499874e+01 0.0 
0.0 0.0 -3.533056492871e+01 
-4.785981933621e+01 2.725620673049e+00 0.0 
2.725620673049e+00 -5.694014618973e+01 0.0 
0.0 0.0 -3.103998965778e+01 
-5.554954651960e+01 5.022659365620e+00 0.0 
5.022659365620e+00 -7.023303898601e+01 0.0 
0.0 0.0 -3.733477565168e+01 
-1.739058287284e+01 -3.420554130844e+00 0.0 
-3.420554130844e+00 -3.696469412726e+01 0.0 
0.0 0.0 -1.594258886103e+01 
-9.282739229961e+01 1.415455133876e+01 0.0 
1.415455133876e+01 -1.967960012465e+02 0.0 
0.0 0.0 -8.648701806382e+01 
-1.435720630754e+01 -2.219925543917e+00 0.0 
-2.219925543917e+00 -3.777482429496e+01 0.0 
0.0 0.0 -1.523960918075e+01 
-1.708055800242e+01 -2.327068806085e+00 0.0 
-2.327068806085e+00 -4.568639925616e+01 0.0 
0.0 0.0 -1.843008717757e+01 
-1.467164676447e+02 5.739227200931e+00 0.0 
5.739227200931e+00 -3.606572907939e+02 0.0 
0.0 0.0 -1.518121275316e+02 
-1.415183406580e+02 4.334144737960e+00 0.0 
4.334144737960e+00 -3.502081069545e+02 0.0 
0.0 0.0 -1.471179342838e+02 
-1.517132799911e+02 5.131932969343e+00 0.0 
5.131932969343e+00 -3.679747552331e+02 0.0 
0.0 0.0 -1.555064105673e+02 
-1.464382880965e+02 3.855097947326e+00 0.0 
3.855097947326e+00 -3.573844077109e+02 0.0 
0.0 0.0 -1.507468087422e+02 
-1.366311526193e+02 3.099875906829e+00 0.0 
3.099875906829e+00 -3.394728461369e+02 0.0 
0.0 0.0 -1.424311996269e+02 
-1.418776522961e+02 2.827177007480e+00 0.0 
2.827177007480e+00 -3.475558277727e+02 0.0 
0.0 0.0 -1.464300440206e+02 
-4.180017699329e+01 1.012321743774e+00 0.0 
1.012321743774e+00 -5.093698677605e+01 0.0 
0.0 0.0 -2.742114913080e+01 
-1.530296121675e+02 3.552458052568e+00 0.0 
3.552458052568e+00 -3.680884804395e+02 0.0 
0.0 0.0 -1.559354277821e+02 
-1.471392582100e+02 2.523786336621e+00 0.0 
2.523786336621e+00 -3.558962775394e+02 0.0 
0.0 0.0 -1.505106607248e+02 
-1.579045801989e+02 2.996106065530e+00 0.0 
2.996106065530e+00 -3.765318502706e+02 0.0 
0.0 0.0 -1.599309291408e+02 
-4.302295862468e+01 2.629785461915e+01 0.0 
2.629785461915e+01 -5.621675565507e+01 0.0 
0.0 0.0 -2.937191428392e+01 
-4.041569285677e+01 2.792622848026e+01 0.0 
2.792622848026e+01 -9.431589975836e+01 0.0 
0.0 0.0 -4.001947778454e+01 
-3.915385432186e+01 2.752961630453e+01 0.0 
2.752961630453e+01 -7.499677869987e+01 0.0 
0.0 0.0 -3.384518990652e+01 
-3.777172481896e+01 2.685616539007e+01 0.0 
2.685616539007e+01 -5.405834335163e+01 0.0 
0.0 0.0 -2.714902045117e+01 
-1.171381070610e+02 3.597664872447e+01 0.0 
3.597664872447e+01 -2.733555681024e+02 0.0 
0.0 0.0 -1.167481025490e+02 
-1.108093673745e+02 3.449812272626e+01 0.0 
3.449812272626e+01 -2.533674621402e+02 0.0 
0.0 0.0 -1.088530488544e+02 
-1.319585606642e+02 1.965252057007e-01 0.0 
1.965252057007e-01 -3.200400094632e+02 0.0 
0.0 0.0 -1.351995710382e+02 
-1.228393485097e+02 -7.842704362291e-02 0.0 
-7.842704362291e-02 -3.004092172512e+02 0.0 
0.0 0.0 -1.265745697283e+02 
-4.103714754359e+01 4.177498085182e-01 0.0 
4.177498085182e-01 -5.422924755581e+01 0.0 
0.0 0.0 -2.817991852982e+01 
-4.024676494747e+01 3.227689394178e-01 0.0 
3.227689394178e-01 -5.317617209756e+01 0.0 
0.0 0.0 -2.762688111351e+01 
-4.762904455641e+01 5.389532263387e-01 0.0 
5.389532263387e-01 -7.109763232284e+01 0.0 
0.0 0.0 -3.521800306378e+01 
-4.628390893488e+01 4.632278406422e-01 0.0 
4.632278406422e-01 -6.867010420370e+01 0.0 
0.0 0.0 -3.408620394157e+01 
-5.342422818587e+01 7.281580985261e-01 0.0 
7.281580985261e-01 -8.676173151611e+01 0.0 
0.0 0.0 -4.165578791060e+01 
-5.213658516145e+01 5.796968772735e-01 0.0 
5.796968772735e-01 -8.402866371742e+01 0.0 
0.0 0.0 -4.044957466366e+01 
-5.922903277609e+01 1.105752269886e+00 0.0 
1.105752269886e+00 -1.025819527033e+02 0.0 
0.0 0.0 -4.814329564382e+01 
-1.271712714858e+02 3.337260779774e+01 0.0 
3.337260779774e+01 -3.126777959829e+02 0.0 
0.0 0.0 -1.315547202406e+02 
-3.861849271027e+01 2.823470489186e+01 0.0 
2.823470489186e+01 -5.653590587312e+01 0.0 
0.0 0.0 -2.781162992853e+01 
-4.920880961061e+01 2.463407013670e+01 0.0 
2.463407013670e+01 -5.647018793827e+01 0.0 
0.0 0.0 -3.130369926466e+01 
-1.344410728427e+02 2.349949703460e+01 0.0 
2.349949703460e+01 -3.427523076904e+02 0.0 
0.0 0.0 -1.427580141599e+02 
-1.282909744732e+02 2.067061435588e+01 0.0 
2.067061435588e+01 -3.357270835044e+02 0.0 
0.0 0.0 -1.388054173933e+02 
-4.462897760325e+01 2.793301615772e+01 0.0 
2.793301615772e+01 -7.637217892612e+01 0.0 
0.0 0.0 -3.590034695881e+01 
-3.985867958228e+01 2.639965740024e+01 0.0 
2.639965740024e+01 -5.665355812592e+01 0.0 
0.0 0.0 -2.855367131246e+01 
-1.479087817706e+02 8.234146964217e+00 0.0 
8.234146964217e+00 -3.649294623952e+02 0.0 
0.0 0.0 -1.534514732497e+02 
-4.356476115679e+01 2.383898126045e+01 0.0 
2.383898126045e+01 -1.476379676907e+02 0.0 
0.0 0.0 -5.696081865425e+01 
-9.642018587456e+01 1.711189038371e+01 0.0 
1.711189038371e+01 -2.116051237448e+02 0.0 
0.0 0.0 -9.200759288581e+01 
-5.852655705639e+01 2.501905515321e+01 0.0 
2.501905515321e+01 -8.662931341001e+01 0.0 
0.0 0.0 -4.434674499935e+01 
-4.203454104227e+01 2.384563620820e+01 0.0 
2.384563620820e+01 -1.020809688264e+02 0.0 
0.0 0.0 -4.461061345501e+01 
-4.658516377765e+01 2.529587744932e+01 0.0 
2.529587744932e+01 -1.484507063216e+02 0.0 
0.0 0.0 -5.811076102978e+01 
-5.037499697947e+01 2.901966014066e+01 0.0 
2.901966014066e+01 -9.587754452773e+01 0.0 
0.0 0.0 -4.347576245216e+01 
-4.190320229054e+01 2.802175379623e+01 0.0 
2.802175379623e+01 -9.445887827426e+01 0.0 
0.0 0.0 -4.050862416944e+01 
-4.048323055240e+01 2.779431605173e+01 0.0 
2.779431605173e+01 -7.619097236498e+01 0.0 
0.0 0.0 -3.460226087521e+01 
-1.061488047257e+02 7.361901900654e+00 0.0 
7.361901900654e+00 -3.008504629107e+02 0.0 
0.0 0.0 -1.216997802909e+02 
-2.704505952496e+01 -6.784466666615e+00 0.0 
-6.784466666615e+00 -5.333931434549e+01 0.0 
0.0 0.0 -2.339673535049e+01 
-3.811395707434e+01 2.889779197812e+01 0.0 
2.889779197812e+01 -7.779982621624e+01 0.0 
0.0 0.0 -3.343983819148e+01 
-6.064586699770e+01 1.421893247079e+00 0.0 
1.421893247079e+00 -1.048833842911e+02 0.0 
0.0 0.0 -4.925877538664e+01 
-4.033254885209e+01 2.975921655981e+01 0.0 
2.975921655981e+01 -5.906070044081e+01 0.0 
0.0 0.0 -2.794083163086e+01 
-1.277938491451e+02 2.077819035482e-02 0.0 
2.077819035482e-02 -3.105379485696e+02 0.0 
0.0 0.0 -1.310995393144e+02 
-4.532294024782e+01 2.115895882433e+01 0.0 
2.115895882433e+01 -1.637959434437e+02 0.0 
0.0 0.0 -6.233566510745e+01 
-5.654634925023e+01 2.968570147217e+01 0.0 
2.968570147217e+01 -1.338205101302e+02 0.0 
0.0 0.0 -5.671005781414e+01 
-3.654681195089e+01 2.759937258985e+01 0.0 
2.759937258985e+01 -9.583002751257e+01 0.0 
0.0 0.0 -3.913065185672e+01 
-4.159497414599e+01 2.733333291085e+01 0.0 
2.733333291085e+01 -1.133782305599e+02 0.0 
0.0 0.0 -4.609196141177e+01 
-7.060721104563e+01 2.721038069682e+01 0.0 
2.721038069682e+01 -1.197664536882e+02 0.0 
0.0 0.0 -5.671209942015e+01 
-6.245597522488e+01 2.184883634692e+01 0.0 
2.184883634692e+01 -8.188774922690e+01 0.0 
0.0 0.0 -4.290311733554e+01 
-5.933318433291e+01 2.391694077005e+01 0.0 
2.391694077005e+01 -7.927396390415e+01 0.0 
0.0 0.0 -4.118214447112e+01 
-4.755462059117e+01 1.802523911767e+01 0.0 
1.802523911767e+01 -1.784463588891e+02 0.0 
0.0 0.0 -6.740029384407e+01 
-4.141659731445e+01 2.775161495643e+01 0.0 
2.775161495643e+01 -7.633419059417e+01 0.0 
0.0 0.0 -3.492523637259e+01 
-3.801308720724e+01 2.647859037322e+01 0.0 
2.647859037322e+01 -5.435779687798e+01 0.0 
0.0 0.0 -2.731126522557e+01 
-6.689029329994e+01 3.003270355873e+01 0.0 
3.003270355873e+01 -1.356355780189e+02 0.0 
0.0 0.0 -6.035776139565e+01 
-9.131050102562e+01 2.162776592983e+01 0.0 
2.162776592983e+01 -1.665795778954e+02 0.0 
0.0 0.0 -7.696702367632e+01 
-9.515099278200e+01 2.452392158978e+01 0.0 
2.452392158978e+01 -1.818876342663e+02 0.0 
0.0 0.0 -8.271158811450e+01 
-1.001523821618e+02 2.642487498099e+01 0.0 
2.642487498099e+01 -2.032474310203e+02 0.0 
0.0 0.0 -9.061994395465e+01 
-9.904022218036e+01 2.724325952541e+01 0.0 
2.724325952541e+01 -1.978511403717e+02 0.0 
0.0 0.0 -8.866740876561e+01 
-9.342302965977e+01 2.556927733743e+01 0.0 
2.556927733743e+01 -1.761015241068e+02 0.0 
0.0 0.0 -8.045736612997e+01 
-9.727262476797e+01 2.809015042877e+01 0.0 
2.809015042877e+01 -1.926129000518e+02 0.0 
0.0 0.0 -8.656565744594e+01 
-1.026590244716e+02 2.964009520015e+01 0.0 
2.964009520015e+01 -2.138923541701e+02 0.0 
0.0 0.0 -9.456541359250e+01 
-1.013948259276e+02 3.032953988326e+01 0.0 
3.032953988326e+01 -2.101424409449e+02 0.0 
0.0 0.0 -9.306118006174e+01 
-1.079804858748e+02 3.250027055574e+01 0.0 
3.250027055574e+01 -2.346132755866e+02 0.0 
0.0 0.0 -1.023781284384e+02 
-1.053443162231e+02 3.238149346085e+01 0.0 
3.238149346085e+01 -2.272894733302e+02 0.0 
0.0 0.0 -9.939013686600e+01 
-9.865141976330e+01 3.071141861390e+01 0.0 
3.071141861390e+01 -2.053562586006e+02 0.0 
0.0 0.0 -9.080230350917e+01 
-1.023896652834e+02 3.223161039710e+01 0.0 
3.223161039710e+01 -2.220347541149e+02 0.0 
0.0 0.0 -9.692732581951e+01 
-1.089752573296e+02 3.397560970172e+01 0.0 
3.397560970172e+01 -2.422693201909e+02 0.0 
0.0 0.0 -1.049733732562e+02 
-9.560569326173e+01 3.106271368651e+01 0.0 
3.106271368651e+01 -2.010248013358e+02 0.0 
0.0 0.0 -8.858914837926e+01 
-1.399906071725e+02 2.622576497495e+01 0.0 
2.622576497495e+01 -3.477972645878e+02 0.0 
0.0 0.0 -1.459363615281e+02 
-5.193701716299e+01 2.486508493504e+01 0.0 
2.486508493504e+01 -1.662877735717e+02 0.0 
0.0 0.0 -6.506743722040e+01 
-3.320616366103e+01 1.249615321880e+01 0.0 
1.249615321880e+01 -1.178205815810e+02 0.0 
0.0 0.0 -4.724171654606e+01 
-3.817856205496e+01 3.144343453995e+01 0.0 
3.144343453995e+01 -9.033421437375e+01 0.0 
0.0 0.0 -3.930989200630e+01 
-5.981072643709e+01 3.005441131764e+01 0.0 
3.005441131764e+01 -1.342886829360e+02 0.0 
0.0 0.0 -5.782982281192e+01 
-1.115083727197e+02 3.390522256225e+01 0.0 
3.390522256225e+01 -2.514062748057e+02 0.0 
0.0 0.0 -1.084743942576e+02 
-1.064579424666e+02 2.943483613874e+01 0.0 
2.943483613874e+01 -2.363790691817e+02 0.0 
0.0 0.0 -1.024511034945e+02 
-3.764401035689e+01 1.967374341359e+01 0.0 
1.967374341359e+01 -1.470016763852e+02 0.0 
0.0 0.0 -5.499370602264e+01 
-1.264234368528e+02 3.840952947684e+01 0.0 
3.840952947684e+01 -2.966913658643e+02 0.0 
0.0 0.0 -1.265344408151e+02 
-6.333618025991e+01 2.646161153027e+01 0.0 
2.646161153027e+01 -9.861321149291e+01 0.0 
0.0 0.0 -4.818481752585e+01 
-2.970079083474e+01 1.421345478035e+01 0.0 
1.421345478035e+01 -1.333049689481e+02 0.0 
0.0 0.0 -4.893444562518e+01 
-1.325174426122e+02 3.742544037262e+01 0.0 
3.742544037262e+01 -3.150608357245e+02 0.0 
0.0 0.0 -1.338734835010e+02 
-8.951314966594e+01 2.275821480053e+01 0.0 
2.275821480053e+01 -1.599045442916e+02 0.0 
0.0 0.0 -7.442530818726e+01 
-8.721651294691e+01 2.402475482204e+01 0.0 
2.402475482204e+01 -1.537362773115e+02 0.0 
0.0 0.0 -7.188583707751e+01 
-8.316500791221e+01 2.104258258657e+01 0.0 
2.104258258657e+01 -1.375074870130e+02 0.0 
0.0 0.0 -6.580174847757e+01 
-1.024515166714e+02 2.493123638825e+01 0.0 
2.493123638825e+01 -2.265611842824e+02 0.0 
0.0 0.0 -9.830381028612e+01 
-6.452482924254e+01 7.158579474468e+00 0.0 
7.158579474468e+00 -9.154269478351e+01 0.0 
0.0 0.0 -4.642025720781e+01 
-1.436535548771e+02 3.176837476319e+01 0.0 
3.176837476319e+01 -3.466290924807e+02 0.0 
0.0 0.0 -1.466847942073e+02 
-8.162815206753e+01 1.704914996308e+01 0.0 
1.704914996308e+01 -2.566063084798e+02 0.0 
0.0 0.0 -1.010703381642e+02 
-7.676350853148e+01 1.893368704392e+01 0.0 
1.893368704392e+01 -2.438252069656e+02 0.0 
0.0 0.0 -9.577661464911e+01 
-6.845249339753e+01 1.832446267532e+01 0.0 
1.832446267532e+01 -2.270772433136e+02 0.0 
0.0 0.0 -8.825892101332e+01 
-9.485566767237e+01 2.881018160817e+01 0.0 
2.881018160817e+01 -1.878084184790e+02 0.0 
0.0 0.0 -8.439922584542e+01 
-1.514623189015e+02 2.248041338021e+01 0.0 
2.248041338021e+01 -3.680455209766e+02 0.0 
0.0 0.0 -1.554523519634e+02 
-1.415666070527e+02 1.983040156281e+01 0.0 
1.983040156281e+01 -3.561254827319e+02 0.0 
0.0 0.0 -1.489076269354e+02 
-1.432872009819e+02 1.776967029326e+01 0.0 
1.776967029326e+01 -3.593548704883e+02 0.0 
0.0 0.0 -1.503926214411e+02 
-1.313561627335e+02 1.722611324652e+01 0.0 
1.722611324652e+01 -3.424145515687e+02 0.0 
0.0 0.0 -1.417312142907e+02 
-1.548372689293e+02 1.781794350099e+01 0.0 
1.781794350099e+01 -3.751574884873e+02 0.0 
0.0 0.0 -1.585984272250e+02 
-1.177895776489e+02 3.699834940209e+01 0.0 
3.699834940209e+01 -2.702346719515e+02 0.0 
0.0 0.0 -1.160072748801e+02 
-1.208183094599e+02 3.796090144030e+01 0.0 
3.796090144030e+01 -2.796534106722e+02 0.0 
0.0 0.0 -1.197415160396e+02 
-4.423510611394e+01 -1.364336226404e+01 0.0 
-1.364336226404e+01 -1.531811264331e+02 0.0 
0.0 0.0 -5.882486976411e+01 
-4.439827565164e+01 -1.014670726421e+01 0.0 
-1.014670726421e+01 -1.660787196547e+02 0.0 
0.0 0.0 -6.274309859189e+01 
-4.993078595925e+01 -7.499311404257e+00 0.0 
-7.499311404257e+00 -1.821530831689e+02 0.0 
0.0 0.0 -6.922516073845e+01 
-4.506653087744e+01 -5.823212048069e+00 0.0 
-5.823212048069e+00 -1.769191763755e+02 0.0 
0.0 0.0 -6.619571217589e+01 
-3.962547484300e+01 -8.286356174044e+00 0.0 
-8.286356174044e+00 -1.619154468319e+02 0.0 
0.0 0.0 -6.006227650246e+01 
-4.042815461861e+01 -3.030561755001e+00 0.0 
-3.030561755001e+00 -1.712444648756e+02 0.0 
0.0 0.0 -6.310178584825e+01 
-4.636331290956e+01 -1.181169141002e+00 0.0 
-1.181169141002e+00 -1.857138364588e+02 0.0 
0.0 0.0 -6.922314481050e+01 
-3.630956185333e+01 1.049848820062e+00 0.0 
1.049848820062e+00 -1.646354315926e+02 0.0 
0.0 0.0 -5.988349803377e+01 
-1.036809127088e+02 3.312365554676e+01 0.0 
3.312365554676e+01 -2.345683579919e+02 0.0 
0.0 0.0 -1.010747812102e+02 
-1.576847191735e+02 1.352273097282e+01 0.0 
1.352273097282e+01 -3.801402979448e+02 0.0 
0.0 0.0 -1.609475051355e+02 
-9.555586910529e+01 4.152996377226e-01 0.0 
4.152996377226e-01 -2.717116962876e+02 0.0 
0.0 0.0 -1.097802696179e+02 
-8.979675932292e+01 5.130444275122e-01 0.0 
5.130444275122e-01 -2.639061488819e+02 0.0 
0.0 0.0 -1.057108724614e+02 
-8.138833184567e+01 -1.607575584891e+00 0.0 
-1.607575584891e+00 -2.459711360454e+02 0.0 
0.0 0.0 -9.780784036731e+01 
-7.666021173166e+01 -5.161124496747e+00 0.0 
-5.161124496747e+00 -2.008527501384e+02 0.0 
0.0 0.0 -8.285388856101e+01 
-8.006960311934e+01 -5.154348628264e+00 0.0 
-5.154348628264e+00 -2.131867689676e+02 0.0 
0.0 0.0 -8.757691162608e+01 
-8.785405254389e+01 -3.921818917161e+00 0.0 
-3.921818917161e+00 -2.329152436367e+02 0.0 
0.0 0.0 -9.583078885418e+01 
-7.298129364418e+01 -4.869347469985e+00 0.0 
-4.869347469985e+00 -1.885079015838e+02 0.0 
0.0 0.0 -7.804675856839e+01 
-8.893053828861e+01 2.841420440123e+01 0.0 
2.841420440123e+01 -2.405507703802e+02 0.0 
0.0 0.0 -9.844439260065e+01 
-1.586070002172e+02 1.168793915665e+01 0.0 
1.168793915665e+01 -3.814414612829e+02 0.0 
0.0 0.0 -1.616145384500e+02 
-8.467397487077e+01 7.553168362107e+00 0.0 
7.553168362107e+00 -2.654691375509e+02 0.0 
0.0 0.0 -1.046429337265e+02 
-7.572430100989e+01 -6.207089654221e+00 0.0 
-6.207089654221e+00 -2.057115698223e+02 0.0 
0.0 0.0 -8.403076124967e+01 
-4.213550622373e+01 3.611506841768e+00 0.0 
3.611506841768e+00 -3.871302376171e+01 0.0 
0.0 0.0 -2.385455899563e+01 
-5.339658793230e+01 7.118769193137e+00 0.0 
7.118769193137e+00 -5.840636190113e+01 0.0 
0.0 0.0 -3.314088495003e+01 
-5.686421197787e+01 1.042337898515e+01 0.0 
1.042337898515e+01 -6.163239000529e+01 0.0 
0.0 0.0 -3.514898059495e+01 
-6.444027787524e+01 1.149921753363e+01 0.0 
1.149921753363e+01 -8.144313041899e+01 0.0 
0.0 0.0 -4.336502248827e+01 
-5.168839122032e+01 5.268610795848e+00 0.0 
5.268610795848e+00 -5.849110854945e+01 0.0 
0.0 0.0 -3.265384993093e+01 
-9.290939134226e+01 -2.483421270680e+00 0.0 
-2.483421270680e+00 -2.365172620349e+02 0.0 
0.0 0.0 -9.842799601314e+01 
-9.707934848770e+01 -1.781004030682e+00 0.0 
-1.781004030682e+00 -2.445754557106e+02 0.0 
0.0 0.0 -1.020964412595e+02 
-9.293607843077e+01 -1.669661202232e+00 0.0 
-1.669661202232e+00 -2.331659511988e+02 0.0 
0.0 0.0 -9.743060888886e+01 
-1.012152576804e+02 -1.181474993029e+00 0.0 
-1.181474993029e+00 -2.527326304470e+02 0.0 
0.0 0.0 -1.057843664382e+02 
-9.675038633406e+01 -1.007470393940e+00 0.0 
-1.007470393940e+00 -2.410452180477e+02 0.0 
0.0 0.0 -1.009386813145e+02 
-8.916759926890e+01 -1.338353751233e+00 0.0 
-1.338353751233e+00 -2.228067552003e+02 0.0 
0.0 0.0 -9.319230634075e+01 
-1.051732520076e+02 -6.589919115498e-01 0.0 
-6.589919115498e-01 -2.606137852409e+02 0.0 
0.0 0.0 -1.093361111746e+02 
-9.992157377642e+01 -5.998048451494e-01 0.0 
-5.998048451494e-01 -2.477843043886e+02 0.0 
0.0 0.0 -1.039117634495e+02 
-3.820562595191e+01 1.437708608019e+00 0.0 
1.437708608019e+00 -3.718653718113e+01 0.0 
0.0 0.0 -2.221764893991e+01 
-4.381450112306e+01 -2.177279085637e+01 0.0 
-2.177279085637e+01 -4.790216658758e+01 0.0 
0.0 0.0 -2.786371824099e+01 
-4.029578579266e+01 -2.399521266998e+01 0.0 
-2.399521266998e+01 -5.722039328641e+01 0.0 
0.0 0.0 -2.894109638912e+01 
-3.403418118348e+01 -1.582449566836e+01 0.0 
-1.582449566836e+01 -4.287469166364e+01 0.0 
0.0 0.0 -2.208162894559e+01 
-3.969699662891e+01 -2.243873378793e+01 0.0 
-2.243873378793e+01 -7.023437289881e+01 0.0 
0.0 0.0 -3.184896832243e+01 
-3.813679520684e+01 -2.546964315967e+01 0.0 
-2.546964315967e+01 -8.779556608851e+01 0.0 
0.0 0.0 -3.752651320019e+01 
-3.906533416356e+01 -2.243205487383e+01 0.0 
-2.243205487383e+01 -9.821595867411e+01 0.0 
0.0 0.0 -4.010035069536e+01 
-3.535205474728e+01 -2.243431719179e+01 0.0 
-2.243431719179e+01 -1.092109710049e+02 0.0 
0.0 0.0 -4.317330520840e+01 
-4.163180625372e+01 -2.726340252324e+01 0.0 
-2.726340252324e+01 -8.421210587104e+01 0.0 
0.0 0.0 -3.833655906990e+01 
-2.059914407944e+01 -5.925667464821e+00 0.0 
-5.925667464821e+00 -1.965566833468e+01 0.0 
0.0 0.0 -1.177996862081e+01 
-2.753924113545e+01 -1.000757439516e+01 0.0 
-1.000757439516e+01 -3.780893552948e+01 0.0 
0.0 0.0 -1.855954115016e+01 
-1.428116059620e+01 -3.238495565742e+00 0.0 
-3.238495565742e+00 -1.770257114659e+01 0.0 
0.0 0.0 -9.077937963205e+00 
-2.203743677223e+01 -6.331153693161e+00 0.0 
-6.331153693161e+00 -3.502998702906e+01 0.0 
0.0 0.0 -1.642273030848e+01 
-3.352439061228e+01 -1.190678693671e+01 0.0 
-1.190678693671e+01 -5.826893634229e+01 0.0 
0.0 0.0 -2.589913138213e+01 
-3.588184936675e+01 -8.133053465337e+00 0.0 
-8.133053465337e+00 -8.230555938705e+01 0.0 
0.0 0.0 -3.504229158428e+01 
-1.608897984685e+02 1.439010276827e+00 0.0 
1.439010276827e+00 -3.803902501810e+02 0.0 
0.0 0.0 -1.619840145949e+02 
-7.663524317387e+01 -6.834215123250e-01 0.0 
-6.834215123250e-01 -1.915025372259e+02 0.0 
0.0 0.0 -8.004133411993e+01 
-7.254032305235e+01 -1.450147872232e+00 0.0 
-1.450147872232e+00 -1.818667723052e+02 0.0 
0.0 0.0 -7.592212860727e+01 
-6.475362550021e+01 -1.507031082267e+00 0.0 
-1.507031082267e+00 -1.622498754562e+02 0.0 
0.0 0.0 -6.770105028691e+01 
-6.889996825922e+01 -2.160923737689e+00 0.0 
-2.160923737689e+00 -1.731565958508e+02 0.0 
0.0 0.0 -7.221696923299e+01 
-7.970190524644e+01 -1.305918387483e+00 0.0 
-1.305918387483e+00 -1.996457626156e+02 0.0 
0.0 0.0 -8.340430035861e+01 
-6.033974485450e+01 -7.727039175425e-01 0.0 
-7.727039175425e-01 -1.513340077827e+02 0.0 
0.0 0.0 -6.310212579115e+01 
-5.739024031707e+01 -1.514160987837e+00 0.0 
-1.514160987837e+00 -1.442010305713e+02 0.0 
0.0 0.0 -6.007738126651e+01 
-1.787540548334e+00 -2.356074941130e-01 0.0 
-2.356074941130e-01 -1.719730929212e+01 0.0 
0.0 0.0 -4.851093231386e+00 
-7.785175582523e+00 -3.670487843705e-01 0.0 
-3.670487843705e-01 -3.380561613908e+01 0.0 
0.0 0.0 -1.199491366136e+01 
-7.043762608135e+00 -2.664459238047e-01 0.0 
-2.664459238047e-01 -3.215270239642e+01 0.0 
0.0 0.0 -1.118304742601e+01 
-1.564041733048e+01 -5.631220883172e-01 0.0 
-5.631220883172e-01 -5.065722617266e+01 0.0 
0.0 0.0 -1.948929305094e+01 
-1.596442711656e+01 -8.320971378880e-01 0.0 
-8.320971378880e-01 -5.033852350550e+01 0.0 
0.0 0.0 -1.949088518662e+01 
-8.414007979769e+00 -6.273921226064e-01 0.0 
-6.273921226064e-01 -3.413782343686e+01 0.0 
0.0 0.0 -1.231016543566e+01 
-8.952551494584e+00 -8.716793586406e-01 0.0 
-8.716793586406e-01 -3.414543768006e+01 0.0 
0.0 0.0 -1.250678470204e+01 
-2.518423666794e+00 -4.680462559664e-01 0.0 
-4.680462559664e-01 -1.704718539264e+01 0.0 
0.0 0.0 -5.191841783646e+00 
-9.534725115234e+00 -1.042008137001e+00 0.0 
-1.042008137001e+00 -3.396637525828e+01 0.0 
0.0 0.0 -1.270957151174e+01 
-1.755030015455e+01 -1.660991175829e+00 0.0 
-1.660991175829e+00 -5.121595353201e+01 0.0 
0.0 0.0 -2.022987610597e+01 
-2.928823765382e+00 -5.294472172795e-01 0.0 
-5.294472172795e-01 -1.646813131969e+01 0.0 
0.0 0.0 -5.231974383616e+00 
-6.801814792559e+01 7.179210458486e-01 0.0 
7.179210458486e-01 -1.291703814452e+02 0.0 
0.0 0.0 -5.875655881123e+01 
-7.162229133418e+01 1.454724155691e+00 0.0 
1.454724155691e+00 -1.401680436361e+02 0.0 
0.0 0.0 -6.313710049110e+01 
-1.593846751650e+02 8.319501997825e+00 0.0 
8.319501997825e+00 -3.821466646585e+02 0.0 
0.0 0.0 -1.620594019470e+02 
-3.690690804953e+01 7.588011566840e-01 0.0 
7.588011566840e-01 -3.891175922471e+01 0.0 
0.0 0.0 -2.234560018227e+01 
-8.207007866144e+00 -1.420109418766e+00 0.0 
-1.420109418766e+00 -1.747669299837e+01 0.0 
0.0 0.0 -7.555218428937e+00 
-9.030062384844e+01 5.818122787669e+00 0.0 
5.818122787669e+00 -2.021056914078e+02 0.0 
0.0 0.0 -8.732189457687e+01 
-9.338500476845e+01 1.102266934203e+01 0.0 
1.102266934203e+01 -2.081875977475e+02 0.0 
0.0 0.0 -9.007178075479e+01 
-9.253714045656e+01 9.190463417783e+00 0.0 
9.190463417783e+00 -2.073726108223e+02 0.0 
0.0 0.0 -8.957292538366e+01 
-1.464676729192e+02 2.156117105372e-01 0.0 
2.156117105372e-01 -3.500182255584e+02 0.0 
0.0 0.0 -1.485457695433e+02 
-1.510996539044e+02 5.593510577256e-01 0.0 
5.593510577256e-01 -3.597195787621e+02 0.0 
0.0 0.0 -1.528457698000e+02 
-8.959523927652e+01 3.210065454855e+00 0.0 
3.210065454855e+00 -2.019554881769e+02 0.0 
0.0 0.0 -8.706521823603e+01 
-5.159726043484e+01 -8.199912040104e+00 0.0 
-8.199912040104e+00 -1.316666198484e+02 0.0 
0.0 0.0 -5.457916408497e+01 
-1.044033148838e+02 2.919376576643e+01 0.0 
2.919376576643e+01 -2.190008369203e+02 0.0 
0.0 0.0 -9.662124554123e+01 
-8.143304714795e+01 5.558923806177e+00 0.0 
5.558923806177e+00 -1.661408776083e+02 0.0 
0.0 0.0 -7.387217742687e+01 
-3.146716140443e+01 2.126320339445e+01 0.0 
2.126320339445e+01 -1.189903649809e+02 0.0 
0.0 0.0 -4.500787306299e+01 
-4.958294486670e+01 -1.253300543656e+01 0.0 
-1.253300543656e+01 -1.330450198490e+02 0.0 
0.0 0.0 -5.438838941470e+01 
-1.184370363490e+02 -2.731374242586e-01 0.0 
-2.731374242586e-01 -2.916667653960e+02 0.0 
0.0 0.0 -1.226311405235e+02 
-1.044178561003e+02 -1.374524993237e+00 0.0 
-1.374524993237e+00 -2.716116719942e+02 0.0 
0.0 0.0 -1.124088584283e+02 
-1.368547575821e+02 1.046602646914e+00 0.0 
1.046602646914e+00 -3.332494109995e+02 0.0 
0.0 0.0 -1.406312505745e+02 
-1.096550762976e+02 -9.622555082764e-01 0.0 
-9.622555082764e-01 -2.754546855964e+02 0.0 
0.0 0.0 -1.151329285682e+02 
-1.274653152226e+02 1.076593255183e+00 0.0 
1.076593255183e+00 -3.175883700021e+02 0.0 
0.0 0.0 -1.331161055674e+02 
-1.440527739958e+02 1.515167199039e+01 0.0 
1.515167199039e+01 -3.611880376447e+02 0.0 
0.0 0.0 -1.511722434922e+02 
-3.006809855717e+01 -1.600501991307e+00 0.0 
-1.600501991307e+00 -7.984820054891e+01 0.0 
0.0 0.0 -3.257488973182e+01 
-5.977029462221e+01 3.451796147632e+00 0.0 
3.451796147632e+00 -9.234864750176e+01 0.0 
0.0 0.0 -4.523568263719e+01 
-5.405976658932e+01 1.611649432754e+00 0.0 
1.611649432754e+00 -8.455310351726e+01 0.0 
0.0 0.0 -4.118386103197e+01 
-7.286603846627e+01 4.848716424410e+00 0.0 
4.848716424410e+00 -1.345603161259e+02 0.0 
0.0 0.0 -6.182790637764e+01 
-5.346282762829e+01 -4.740041366887e+00 0.0 
-4.740041366887e+00 -1.351864584592e+02 0.0 
0.0 0.0 -5.619478582625e+01 
-8.504655126060e+01 -2.059919458690e+00 0.0 
-2.059919458690e+00 -2.139567843405e+02 0.0 
0.0 0.0 -8.930100068032e+01 
-3.447722212200e+01 -4.611082557157e+00 0.0 
-4.611082557157e+00 -8.561428981194e+01 0.0 
0.0 0.0 -3.562745358018e+01 
-1.233730629527e+02 3.570577165047e+01 0.0 
3.570577165047e+01 -2.958170937654e+02 0.0 
0.0 0.0 -1.253570470154e+02 
-5.993247253235e+01 2.957663155657e+01 0.0 
2.957663155657e+01 -1.157466826032e+02 0.0 
0.0 0.0 -5.230374654068e+01 
-7.887170179379e+01 -3.711879873705e+00 0.0 
-3.711879873705e+00 -2.350272824625e+02 0.0 
0.0 0.0 -9.376969527688e+01 
-6.917505919764e+01 -5.995111405286e+00 0.0 
-5.995111405286e+00 -1.805925948855e+02 0.0 
0.0 0.0 -7.453029622495e+01 
-5.523682887092e+01 -9.317897866878e+00 0.0 
-9.317897866878e+00 -1.451506910658e+02 0.0 
0.0 0.0 -5.971625598103e+01 
-4.675081739936e+01 -1.439664728289e+01 0.0 
-1.439664728289e+01 -1.275053780612e+02 0.0 
0.0 0.0 -5.187685863817e+01 
-5.543685754210e+01 2.635491997942e+01 0.0 
2.635491997942e+01 -1.676734928422e+02 0.0 
0.0 0.0 -6.653310511529e+01 
-7.863113428943e+01 -5.712608333044e+00 0.0 
-5.712608333044e+00 -2.181223016855e+02 0.0 
0.0 0.0 -8.862603079249e+01 
-1.160735625304e+02 2.136206132360e+00 0.0 
2.136206132360e+00 -3.055548459654e+02 0.0 
0.0 0.0 -1.260885225487e+02 
-7.546182112625e+01 4.586784889694e+00 0.0 
4.586784889694e+00 -1.455590893796e+02 0.0 
0.0 0.0 -6.590627315175e+01 
-5.746138917501e+00 -9.396429609218e-01 0.0 
-9.396429609218e-01 -1.913291173453e+01 0.0 
0.0 0.0 -6.931513004754e+00 
-1.202330401673e+02 3.794396958142e+00 0.0 
3.794396958142e+00 -3.162462273918e+02 0.0 
0.0 0.0 -1.305437802677e+02 
-9.447116626341e+01 -2.418893885994e+00 0.0 
-2.418893885994e+00 -2.566188922938e+02 0.0 
0.0 0.0 -1.049270175672e+02 
-6.726819125194e+01 6.998960780354e+00 0.0 
6.998960780354e+00 -1.020021291354e+02 0.0 
0.0 0.0 -5.038109611619e+01 
-1.067496038844e+02 1.784504965244e+01 0.0 
1.784504965244e+01 -3.026135709795e+02 0.0 
0.0 0.0 -1.224089524592e+02 
-4.142056831270e+01 -2.000689729121e+01 0.0 
-2.000689729121e+01 -1.001179497828e+02 0.0 
0.0 0.0 -4.082647408081e+01 
-7.887525882507e+01 8.566833045092e+00 0.0 
8.566833045092e+00 -1.438264511956e+02 0.0 
0.0 0.0 -6.641051300619e+01 
-9.416965096377e+01 1.853908024275e+01 0.0 
1.853908024275e+01 -1.890561868139e+02 0.0 
0.0 0.0 -8.456775133329e+01 
-6.177873957455e+01 7.645406663929e+00 0.0 
7.645406663929e+00 -8.130083431746e+01 0.0 
0.0 0.0 -4.252387216760e+01 
-2.589251102875e+01 -3.541452092396e+00 0.0 
-3.541452092396e+00 -6.524271471603e+01 0.0 
0.0 0.0 -2.694056772343e+01 
-5.117729377105e+01 2.051378233410e+00 0.0 
2.051378233410e+00 -7.185114186715e+01 0.0 
0.0 0.0 -3.650853069146e+01 
-1.405940543319e+02 9.061988082076e+00 0.0 
9.061988082076e+00 -3.542901970876e+02 0.0 
0.0 0.0 -1.480652754259e+02 
-8.712177387552e+01 1.858646775484e+01 0.0 
1.858646775484e+01 -1.518835366089e+02 0.0 
0.0 0.0 -7.130159314532e+01 
-4.880764212533e+01 -3.679879492778e+00 0.0 
-3.679879492778e+00 -1.230781294944e+02 0.0 
0.0 0.0 -5.116573148592e+01 
-7.062434625453e+01 7.566653146414e+00 0.0 
7.566653146414e+00 -2.396065914326e+02 0.0 
0.0 0.0 -9.266928130615e+01 
-5.950733001868e+01 2.936253531961e+01 0.0 
2.936253531961e+01 -1.520703955023e+02 0.0 
0.0 0.0 -6.307331765631e+01 
-4.762576019702e+01 1.795847678568e+01 0.0 
1.795847678568e+01 -3.615513985345e+01 0.0 
0.0 0.0 -2.473427001514e+01 
-8.448231029942e+01 7.053479197509e+00 0.0 
7.053479197509e+00 -1.754340440636e+02 0.0 
0.0 0.0 -7.757490630892e+01 
-6.842407793499e+01 2.280479041028e+01 0.0 
2.280479041028e+01 -2.160609419580e+02 0.0 
0.0 0.0 -8.494550596790e+01 
-1.191848639241e+02 1.538464030051e+01 0.0 
1.538464030051e+01 -3.243300706557e+02 0.0 
0.0 0.0 -1.326544803739e+02 
-8.832425166029e+01 1.062638459019e+01 0.0 
1.062638459019e+01 -2.728523537115e+02 0.0 
0.0 0.0 -1.079529816115e+02 
-5.224128135783e+01 -2.917849096302e+00 0.0 
-2.917849096302e+00 -1.318009038986e+02 0.0 
0.0 0.0 -5.481265557693e+01 
-1.313862742303e+02 3.342580399648e+00 0.0 
3.342580399648e+00 -3.318700646993e+02 0.0 
0.0 0.0 -1.385769016789e+02 
-6.473579956595e+01 1.543644249068e+01 0.0 
1.543644249068e+01 -2.234259772706e+02 0.0 
0.0 0.0 -8.604853305098e+01 
-8.481636261241e+01 1.031040328621e+01 0.0 
1.031040328621e+01 -1.649532233399e+02 0.0 
0.0 0.0 -7.453087578568e+01 
-9.293271177017e+01 3.132945771372e+01 0.0 
3.132945771372e+01 -2.280589440980e+02 0.0 
0.0 0.0 -9.589749676044e+01 
-5.086040092546e+01 7.660497487842e+00 0.0 
7.660497487842e+00 -1.985728256902e+02 0.0 
0.0 0.0 -7.442996798470e+01 
-8.573425574804e+01 1.395001728220e+01 0.0 
1.395001728220e+01 -1.560354550692e+02 0.0 
0.0 0.0 -7.213091324519e+01 
-7.585149085886e+01 -1.317382764822e+00 0.0 
-1.317382764822e+00 -2.386409377945e+02 0.0 
0.0 0.0 -9.394772859601e+01 
-1.114768233928e+02 2.055020159897e+01 0.0 
2.055020159897e+01 -3.081589439564e+02 0.0 
0.0 0.0 -1.254907302048e+02 
-5.660011841454e+01 2.971720747179e+01 0.0 
2.971720747179e+01 -1.153259169529e+02 0.0 
0.0 0.0 -5.117781061023e+01 
-7.718924781159e+01 3.042149945289e+01 0.0 
3.042149945289e+01 -1.902854247843e+02 0.0 
0.0 0.0 -7.984240177877e+01 
-8.502295626836e+01 3.056845521380e+01 0.0 
3.056845521380e+01 -1.772141811127e+02 0.0 
0.0 0.0 -7.827114121433e+01 
-7.280719956648e+01 2.773050541705e+01 0.0 
2.773050541705e+01 -2.045197137408e+02 0.0 
0.0 0.0 -8.279807399217e+01 
-1.139102536621e+02 -4.250736394299e-01 0.0 
-4.250736394299e-01 -2.805685427783e+02 0.0 
0.0 0.0 -1.179436389321e+02 
-1.258895920449e+02 3.565466508710e+00 0.0 
3.565466508710e+00 -3.240893434496e+02 0.0 
0.0 0.0 -1.345936806484e+02 
-2.921120772991e+01 -8.416147451668e+00 0.0 
-8.416147451668e+00 -1.337654572663e+02 0.0 
0.0 0.0 -4.964210533638e+01 
-4.518675722635e+01 2.691877272444e+01 0.0 
2.691877272444e+01 -1.317954993429e+02 0.0 
0.0 0.0 -5.269467697079e+01 
-7.037530635900e+01 1.000570691959e+01 0.0 
1.000570691959e+01 -1.032819844600e+02 0.0 
0.0 0.0 -5.169718724571e+01 
-1.110542226291e+02 3.174392907336e+01 0.0 
3.174392907336e+01 -2.793362343074e+02 0.0 
0.0 0.0 -1.167171370809e+02 
-9.001030828072e+01 1.181934734405e+01 0.0 
1.181934734405e+01 -1.860148201069e+02 0.0 
0.0 0.0 -8.240753851629e+01 
-5.347082072675e+01 2.916957813438e+01 0.0 
2.916957813438e+01 -1.334580230231e+02 0.0 
0.0 0.0 -5.567865312496e+01 
-1.268505959073e+02 2.071339613327e+00 0.0 
2.071339613327e+00 -3.209483537481e+02 0.0 
0.0 0.0 -1.339396848966e+02 
-9.071380954953e+01 1.587355520059e+01 0.0 
1.587355520059e+01 -1.770982748015e+02 0.0 
0.0 0.0 -7.994362530531e+01 
-8.326455449043e+01 -4.803620112048e+00 0.0 
-4.803620112048e+00 -2.254054113027e+02 0.0 
0.0 0.0 -9.220098973794e+01 
-3.471966231300e+01 -5.671738125891e-01 0.0 
-5.671738125891e-01 -9.155246815183e+01 0.0 
0.0 0.0 -3.748163913945e+01 
-3.365006486767e+01 2.543219285831e+01 0.0 
2.543219285831e+01 -1.051524181880e+02 0.0 
0.0 0.0 -4.163294650814e+01 
-3.844451299558e+01 6.454683426792e+00 0.0 
6.454683426792e+00 -1.696885248197e+02 0.0 
0.0 0.0 -6.203991134458e+01 
-6.454588916867e+01 2.054515213209e+01 0.0 
2.054515213209e+01 -2.135212149669e+02 0.0 
0.0 0.0 -8.302013124068e+01 
-9.118563121184e+01 -3.341717797658e+00 0.0 
-3.341717797658e+00 -2.448443360369e+02 0.0 
0.0 0.0 -1.004089901746e+02 
-1.017163789129e+02 2.605384627199e+01 0.0 
2.605384627199e+01 -2.130529599992e+02 0.0 
0.0 0.0 -9.403080167363e+01 
-1.320072650163e+02 2.004057554014e+00 0.0 
2.004057554014e+00 -3.286679215883e+02 0.0 
0.0 0.0 -1.378025559814e+02 
-1.124776813354e+02 6.745095863344e+00 0.0 
6.745095863344e+00 -3.098271639843e+02 0.0 
0.0 0.0 -1.262914535959e+02 
-4.376950125413e+01 3.165365967381e+01 0.0 
3.165365967381e+01 -4.154609546927e+01 0.0 
0.0 0.0 -2.489211269271e+01 
-5.213290589185e+01 2.268037200603e+01 0.0 
2.268037200603e+01 -5.760118141705e+01 0.0 
0.0 0.0 -3.252022619267e+01 
-1.370151814398e+02 1.897226263563e+00 0.0 
1.897226263563e+00 -3.365114302204e+02 0.0 
0.0 0.0 -1.416579834981e+02 
-7.587929422193e+01 5.824282648958e+00 0.0 
5.824282648958e+00 -2.487344153115e+02 0.0 
0.0 0.0 -9.698411286004e+01 
-1.174637124141e+02 1.923988831308e+01 0.0 
1.923988831308e+01 -3.195818312244e+02 0.0 
0.0 0.0 -1.307136630915e+02 
-9.203155553274e+01 -8.112241840236e-01 0.0 
-8.112241840236e-01 -2.289124156648e+02 0.0 
0.0 0.0 -9.588319135925e+01 
-1.255791217929e+02 3.489992990826e+01 0.0 
3.489992990826e+01 -3.042873137696e+02 0.0 
0.0 0.0 -1.285599306687e+02 
-4.108860947322e+01 2.636649225244e+01 0.0 
2.636649225244e+01 -5.646740704726e+01 0.0 
0.0 0.0 -2.886680495614e+01 
-1.419075616122e+02 1.721175270151e+00 0.0 
1.721175270151e+00 -3.447255733646e+02 0.0 
0.0 0.0 -1.455899404930e+02 
-1.102856888125e+02 9.979926823027e+00 0.0 
9.979926823027e+00 -3.094335128723e+02 0.0 
0.0 0.0 -1.255157605055e+02 
-4.062950952004e+01 2.201769609852e+01 0.0 
2.201769609852e+01 -1.472812691732e+02 0.0 
0.0 0.0 -5.597323360799e+01 
-3.313532440779e+01 6.904129633147e-02 0.0 
6.904129633147e-02 -3.616196893655e+01 0.0 
0.0 0.0 -2.038918800330e+01 
-1.530348386421e+02 2.165460040310e+00 0.0 
2.165460040310e+00 -3.662138172909e+02 0.0 
0.0 0.0 -1.553745967799e+02 
-1.212716524551e+02 1.172072533215e+01 0.0 
1.172072533215e+01 -3.272094738242e+02 0.0 
0.0 0.0 -1.341443378838e+02 
-8.060768924217e+01 2.798343543660e+01 0.0 
2.798343543660e+01 -2.224591311173e+02 0.0 
0.0 0.0 -9.052004610783e+01 
-7.294772420154e+01 2.547756918712e+00 0.0 
2.547756918712e+00 -2.405271597211e+02 0.0 
0.0 0.0 -9.364246517679e+01 
-4.126925867143e+01 2.364504886512e+01 0.0 
2.364504886512e+01 -3.449510460641e+01 0.0 
0.0 0.0 -2.232930898335e+01 
-9.595834640483e+01 -2.644720030947e+00 0.0 
-2.644720030947e+00 -2.523492880804e+02 0.0 
0.0 0.0 -1.040922903456e+02 
-8.112679852601e+01 3.094302335623e+01 0.0 
3.094302335623e+01 -1.916365913608e+02 0.0 
0.0 0.0 -8.142901696603e+01 
-1.003901198162e+02 2.244994896046e+01 0.0 
2.244994896046e+01 -2.223520464185e+02 0.0 
0.0 0.0 -9.642264987041e+01 
-1.256947083250e+02 1.427974267445e+01 0.0 
1.427974267445e+01 -3.342293282390e+02 0.0 
0.0 0.0 -1.375772109692e+02 
-8.051628891102e+01 2.259170533512e+01 0.0 
2.259170533512e+01 -1.312045419630e+02 0.0 
0.0 0.0 -6.311624926219e+01 
-9.235688351942e+01 -3.107404684666e+00 0.0 
-3.107404684666e+00 -2.404842845957e+02 0.0 
0.0 0.0 -9.945235043455e+01 
-8.987981852388e+01 2.217988702331e+01 0.0 
2.217988702331e+01 -2.645808339652e+02 0.0 
0.0 0.0 -1.059381957467e+02 
-1.657248960340e+01 -1.168941720872e+00 0.0 
-1.168941720872e+00 -5.051595622041e+01 0.0 
0.0 0.0 -1.972653374714e+01 
-4.562169553942e+01 2.587803853785e+01 0.0 
2.587803853785e+01 -5.586191630757e+01 0.0 
0.0 0.0 -3.004508355410e+01 
-9.678602430459e+01 -2.368063575099e+00 0.0 
-2.368063575099e+00 -2.481979667086e+02 0.0 
0.0 0.0 -1.030951973039e+02 
-4.203084484917e+01 2.157697950993e+00 0.0 
2.157697950993e+00 -1.783328272443e+02 0.0 
0.0 0.0 -6.570910162805e+01 
-7.843359521499e+01 1.479556121617e+00 0.0 
1.479556121617e+00 -2.483642486963e+02 0.0 
0.0 0.0 -9.763935317338e+01 
-1.323379540266e+02 2.730154496127e+01 0.0 
2.730154496127e+01 -3.347754697288e+02 0.0 
0.0 0.0 -1.397340271266e+02 
-1.011538402190e+02 -1.722769331799e+00 0.0 
-1.722769331799e+00 -2.560813308133e+02 0.0 
0.0 0.0 -1.067705513097e+02 
-4.832167612191e+01 3.386701557724e+00 0.0 
3.386701557724e+00 -1.928075019152e+02 0.0 
0.0 0.0 -7.193875341113e+01 
-1.054461256739e+02 -1.177092395682e+00 0.0 
-1.177092395682e+00 -2.640681067674e+02 0.0 
0.0 0.0 -1.104542697324e+02 
-3.685531291695e+01 2.400366749511e+01 0.0 
2.400366749511e+01 -3.525645833140e+01 0.0 
0.0 0.0 -2.123353137451e+01 
-8.447530279825e+01 2.540156665010e+01 0.0 
2.540156665010e+01 -1.483516364944e+02 0.0 
0.0 0.0 -6.944808178780e+01 
-1.096903024863e+02 -7.148958743570e-01 0.0 
-7.148958743570e-01 -2.721095828246e+02 0.0 
0.0 0.0 -1.141399655933e+02 
-8.883589102950e+01 3.138545545937e+01 0.0 
3.138545545937e+01 -2.108174465182e+02 0.0 
0.0 0.0 -8.949600126431e+01 
-1.920671617012e+01 -2.126304731933e+00 0.0 
-2.126304731933e+00 -5.287891867320e+01 0.0 
0.0 0.0 -2.122569045300e+01 
-8.467253748542e+01 2.687717585973e+01 0.0 
2.687717585973e+01 -2.381914226073e+02 0.0 
0.0 0.0 -9.645918802783e+01 
-1.413882978592e+02 3.832109217645e-01 0.0 
3.832109217645e-01 -3.397417126911e+02 0.0 
0.0 0.0 -1.439390031651e+02 
-6.069771792219e+01 -1.004204376946e+01 0.0 
-1.004204376946e+01 -1.725393961692e+02 0.0 
0.0 0.0 -6.957113422742e+01 
-8.404105650153e+01 8.211123493845e-01 0.0 
8.211123493845e-01 -2.560670739290e+02 0.0 
0.0 0.0 -1.016324391291e+02 
-9.106929894889e+01 2.665042001114e+01 0.0 
2.665042001114e+01 -1.706260269247e+02 0.0 
0.0 0.0 -7.810859776208e+01 
-3.578760601690e+01 2.425460881890e+01 0.0 
2.425460881890e+01 -3.518353819145e+01 0.0 
0.0 0.0 -2.089134326251e+01 
-9.285872341072e+01 2.878841414349e+00 0.0 
2.878841414349e+00 -2.737355291243e+02 0.0 
0.0 0.0 -1.095782757605e+02 
-9.679167054810e+01 3.206708860403e+01 0.0 
3.206708860403e+01 -2.300480781724e+02 0.0 
0.0 0.0 -9.765192461616e+01 
-8.910975065628e+01 2.566158187382e+01 0.0 
2.566158187382e+01 -2.532529726114e+02 0.0 
0.0 0.0 -1.023088169803e+02 
-7.232695274321e+01 2.086999316621e+01 0.0 
2.086999316621e+01 -2.302584721825e+02 0.0 
0.0 0.0 -9.037562747773e+01 
-1.023283818267e+02 4.860435715243e+00 0.0 
4.860435715243e+00 -2.916916310886e+02 0.0 
0.0 0.0 -1.178060038746e+02 
-3.906291036527e+01 2.652497407605e+01 0.0 
2.652497407605e+01 -5.673756365821e+01 0.0 
0.0 0.0 -2.834014220704e+01 
-4.890760390229e+01 -9.622396366440e+00 0.0 
-9.622396366440e+00 -1.244357065050e+02 0.0 
0.0 0.0 -5.160299312220e+01 
-4.260193780452e+01 -9.266383591523e+00 0.0 
-9.266383591523e+00 -1.035842477942e+02 0.0 
0.0 0.0 -4.345585567961e+01 
-5.286820787227e+01 5.866949137962e-01 0.0 
5.866949137962e-01 -2.007256811810e+02 0.0 
0.0 0.0 -7.567816671600e+01 
-1.004436172078e+02 3.265009428028e+01 0.0 
3.265009428028e+01 -2.321869080243e+02 0.0 
0.0 0.0 -9.938915756962e+01 
-2.374867833006e+01 -8.781120189425e-01 0.0 
-8.781120189425e-01 -6.713246791668e+01 0.0 
0.0 0.0 -2.686434387402e+01 
-9.193657753116e+01 2.955641330264e+01 0.0 
2.955641330264e+01 -1.835155390528e+02 0.0 
0.0 0.0 -8.223563497519e+01 
-3.465180747342e+01 -9.123065506103e+00 0.0 
-9.123065506103e+00 -7.511777384363e+01 0.0 
0.0 0.0 -3.241079073118e+01 
-5.112660364019e+01 -3.567199326866e+00 0.0 
-3.567199326866e+00 -1.922164761036e+02 0.0 
0.0 0.0 -7.260292392313e+01 
-1.042552113964e+02 2.544360879985e+01 0.0 
2.544360879985e+01 -2.860965335446e+02 0.0 
0.0 0.0 -1.167055234823e+02 
-5.434588788107e+01 4.887794748551e-01 0.0 
4.887794748551e-01 -9.036417217607e+01 0.0 
0.0 0.0 -4.301301801714e+01 
-5.611305198838e+01 -5.079198363163e+00 0.0 
-5.079198363163e+00 -1.982780709771e+02 0.0 
0.0 0.0 -7.591733688964e+01 
-4.358464180748e+01 -6.580882537777e-01 0.0 
-6.580882537777e-01 -1.116036462362e+02 0.0 
0.0 0.0 -4.615648641309e+01 
-5.483089068435e+01 -8.279299838763e+00 0.0 
-8.279299838763e+00 -1.873383028348e+02 0.0 
0.0 0.0 -7.225075805576e+01 
-8.075603445355e+01 2.139762877089e+01 0.0 
2.139762877089e+01 -2.472458069715e+02 0.0 
0.0 0.0 -9.800055242752e+01 
-5.971658911384e+01 -8.393985809061e+00 0.0 
-8.393985809061e+00 -1.927716090651e+02 0.0 
0.0 0.0 -7.534645945367e+01 
-5.835398775836e+01 -1.024396885981e+01 0.0 
-1.024396885981e+01 -1.802890641249e+02 0.0 
0.0 0.0 -7.119291556496e+01 
-8.694522380412e+01 6.515620861856e+00 0.0 
6.515620861856e+00 -1.868636175372e+02 0.0 
0.0 0.0 -8.174265240239e+01 
-6.275485341693e+01 -9.401017620980e+00 0.0 
-9.401017620980e+00 -1.858694266306e+02 0.0 
0.0 0.0 -7.418728401426e+01 
-9.073101631117e+01 1.933356083026e+00 0.0 
1.933356083026e+00 -2.054003843839e+02 0.0 
0.0 0.0 -8.843942020852e+01 
-1.616542393030e+02 6.676678906713e-01 0.0 
6.676678906713e-01 -3.812791780768e+02 0.0 
0.0 0.0 -1.624800252139e+02 
-3.910358796778e+01 2.094834915940e-01 0.0 
2.094834915940e-01 -5.122462655063e+01 0.0 
0.0 0.0 -2.669846435553e+01 
-3.544667571234e+01 2.481203717316e+01 0.0 
2.481203717316e+01 -3.213383446599e+01 0.0 
0.0 0.0 -1.987415305350e+01 
-7.265088676707e+01 1.250339442341e+00 0.0 
1.250339442341e+00 -1.114067374975e+02 0.0 
0.0 0.0 -5.609703584256e+01 
-3.860445919579e+01 2.691903454430e+01 0.0 
2.691903454430e+01 -5.962458633574e+01 0.0 
0.0 0.0 -2.906871365946e+01 
-5.489954630715e+01 -1.147214115231e+01 0.0 
-1.147214115231e+01 -1.530133361683e+02 0.0 
0.0 0.0 -6.197386474265e+01 
-9.221121224221e+01 3.125833752486e+01 0.0 
3.125833752486e+01 -1.975322363881e+02 0.0 
0.0 0.0 -8.652303458908e+01 
-3.956335869640e+01 1.415058935956e-01 0.0 
1.415058935956e-01 -5.190673471698e+01 0.0 
0.0 0.0 -2.704102802401e+01 
-5.237426696788e+01 -1.089008814951e+01 0.0 
-1.089008814951e+01 -1.388096867873e+02 0.0 
0.0 0.0 -5.695518612656e+01 
-1.117023798181e+02 3.447299353991e+01 0.0 
3.447299353991e+01 -2.493045455411e+02 0.0 
0.0 0.0 -1.079020776078e+02 
-1.386760847444e+02 3.517804809128e+01 0.0 
3.517804809128e+01 -3.324601706671e+02 0.0 
0.0 0.0 -1.409408766234e+02 
-6.481899273169e+01 1.091280003036e+00 0.0 
1.091280003036e+00 -1.192796342892e+02 0.0 
0.0 0.0 -5.482958810628e+01 
-1.235549339215e+02 1.799037722345e+01 0.0 
1.799037722345e+01 -3.298651547791e+02 0.0 
0.0 0.0 -1.356260266102e+02 
-9.422200406773e+01 2.442669597620e+01 0.0 
2.442669597620e+01 -2.681236539038e+02 0.0 
0.0 0.0 -1.083036973915e+02 
-7.977827687062e+01 9.655695171480e-01 0.0 
9.655695171480e-01 -1.673562718553e+02 0.0 
0.0 0.0 -7.374036461776e+01 
-3.336559889837e+01 4.008910763375e-01 0.0 
4.008910763375e-01 -3.480094996484e+01 0.0 
0.0 0.0 -2.004996465896e+01 
-1.885647040534e+01 -4.336267238984e+00 0.0 
-4.336267238984e+00 -3.421164809697e+01 0.0 
0.0 0.0 -1.548105167683e+01 
-1.186279095711e+02 -1.489067188491e-01 0.0 
-1.489067188491e-01 -2.904641811935e+02 0.0 
0.0 0.0 -1.223276272294e+02 
-3.665169392347e+01 2.575497503818e+01 0.0 
2.575497503818e+01 -3.235490636411e+01 0.0 
0.0 0.0 -2.030198008627e+01 
-3.817407221480e+01 2.758358168510e+01 0.0 
2.758358168510e+01 -5.590595745443e+01 0.0 
0.0 0.0 -2.782400890077e+01 
-3.956812402869e+01 2.889161721281e+01 0.0 
2.889161721281e+01 -5.746904018128e+01 0.0 
0.0 0.0 -2.756929219496e+01 
-5.487175270682e+01 -2.167883829081e+00 0.0 
-2.167883829081e+00 -1.386688741473e+02 0.0 
0.0 0.0 -5.766218805623e+01 
-3.671718026215e+01 -1.654252475263e+01 0.0 
-1.654252475263e+01 -5.976855884008e+01 0.0 
0.0 0.0 -2.719022086153e+01 
-3.882181403845e+01 2.709281596742e+01 0.0 
2.709281596742e+01 -3.674672160157e+01 0.0 
0.0 0.0 -2.198861764527e+01 
-1.393824118190e+02 2.184683170247e+01 0.0 
2.184683170247e+01 -3.514030451158e+02 0.0 
0.0 0.0 -1.468356370804e+02 
-4.469360556060e+01 1.917974027595e+00 0.0 
1.917974027595e+00 -5.295888149753e+01 0.0 
0.0 0.0 -2.889574611744e+01 
-1.084425609833e+02 2.753227766783e+01 0.0 
2.753227766783e+01 -2.890598050300e+02 0.0 
0.0 0.0 -1.188507098040e+02 
-4.103327275145e+01 2.859640192464e+01 0.0 
2.859640192464e+01 -3.820915798334e+01 0.0 
0.0 0.0 -2.179693667346e+01 
-9.503449537104e+01 1.783649011289e+01 0.0 
1.783649011289e+01 -1.981313197549e+02 0.0 
0.0 0.0 -8.754974453779e+01 
-1.313714387675e+02 3.070587369711e+01 0.0 
3.070587369711e+01 -3.270585424194e+02 0.0 
0.0 0.0 -1.371289943561e+02 
-1.613698753984e+02 5.533240588723e+00 0.0 
5.533240588723e+00 -3.841526140723e+02 0.0 
0.0 0.0 -1.632567468412e+02 
-1.191416407734e+02 2.884655114621e+01 0.0 
2.884655114621e+01 -3.074250676120e+02 0.0 
0.0 0.0 -1.275700125156e+02 
-4.098286081080e+01 3.138973771553e+01 0.0 
3.138973771553e+01 -6.157025746019e+01 0.0 
0.0 0.0 -2.948089327822e+01 
-6.030329737134e+01 8.541381978317e+00 0.0 
8.541381978317e+00 -7.428363645804e+01 0.0 
0.0 0.0 -3.997608014882e+01 
-1.208820518741e+02 3.622356491188e+01 0.0 
3.622356491188e+01 -2.865766686451e+02 0.0 
0.0 0.0 -1.218376161558e+02 
-7.077066619834e+01 1.891577616710e+00 0.0 
1.891577616710e+00 -1.353337677238e+02 0.0 
0.0 0.0 -6.143133017665e+01 
-1.626991827693e+02 3.572339382671e+00 0.0 
3.572339382671e+00 -3.851938058554e+02 0.0 
0.0 0.0 -1.639678965874e+02 
-4.677300211766e+01 3.076897866244e+00 0.0 
3.076897866244e+00 -5.141307700763e+01 0.0 
0.0 0.0 -2.905582373759e+01 
-8.648220428994e+01 4.132347177139e+00 0.0 
4.132347177139e+00 -1.887867301363e+02 0.0 
0.0 0.0 -8.218068032787e+01 
-3.145057069748e+01 -1.705112001414e+01 0.0 
-1.705112001414e+01 -1.230367245986e+02 0.0 
0.0 0.0 -4.691619649865e+01 
-8.597707924504e+01 2.049977363369e+00 0.0 
2.049977363369e+00 -1.886588640868e+02 0.0 
0.0 0.0 -8.199078299954e+01 
-9.947898969066e+01 3.224908961333e+01 0.0 
3.224908961333e+01 -2.180259868727e+02 0.0 
0.0 0.0 -9.485149296902e+01 
-5.018973759607e+01 9.201753606936e-01 0.0 
9.201753606936e-01 -7.600951546029e+01 0.0 
0.0 0.0 -3.745977591691e+01 
-6.469710618990e+01 1.381238675622e+01 0.0 
1.381238675622e+01 -8.006874271485e+01 0.0 
0.0 0.0 -4.302975467143e+01 
-1.554797779287e+02 9.522562011472e-01 0.0 
9.522562011472e-01 -3.688925601633e+02 0.0 
0.0 0.0 -1.569117014276e+02 
-1.070068376074e+02 3.143568398552e+01 0.0 
3.143568398552e+01 -2.317746217111e+02 0.0 
0.0 0.0 -1.012344377955e+02 
-4.097613563653e+01 3.348765852589e+01 0.0 
3.348765852589e+01 -6.923254857636e+01 0.0 
0.0 0.0 -3.291690825996e+01 
-6.507621998869e+01 1.382409203814e+00 0.0 
1.382409203814e+00 -1.182343021156e+02 0.0 
0.0 0.0 -5.459315663128e+01 
-6.880063479870e+01 -2.875949846714e+00 0.0 
-2.875949846714e+00 -1.737938489854e+02 0.0 
0.0 0.0 -7.237834513522e+01 
-4.339560128136e+01 -1.911810024750e+01 0.0 
-1.911810024750e+01 -1.072675957409e+02 0.0 
0.0 0.0 -4.648514406863e+01 
-1.506620177410e+02 6.984577899940e+00 0.0 
6.984577899940e+00 -3.681224987843e+02 0.0 
0.0 0.0 -1.552353549576e+02 
-1.061370791279e+02 3.341600286816e+01 0.0 
3.341600286816e+01 -2.372935406373e+02 0.0 
0.0 0.0 -1.026291859296e+02 
-1.544014853602e+02 1.605414654951e+00 0.0 
1.605414654951e+00 -3.680589941081e+02 0.0 
0.0 0.0 -1.563381438405e+02 
-1.519143772274e+01 -3.058188270169e-01 0.0 
-3.058188270169e-01 -4.996689802183e+01 0.0 
0.0 0.0 -1.914750072337e+01 
-1.260008416974e+01 -2.161864950492e+00 0.0 
-2.161864950492e+00 -3.146157225959e+01 0.0 
0.0 0.0 -1.287185655091e+01 
-1.504085684376e+02 1.005145707694e+01 0.0 
1.005145707694e+01 -3.696220554326e+02 0.0 
0.0 0.0 -1.556091871610e+02 
-1.167813393656e+02 3.621724339842e+01 0.0 
3.621724339842e+01 -2.685744239617e+02 0.0 
0.0 0.0 -1.152067289982e+02 
-3.575395629771e+01 -1.925057352780e+01 0.0 
-1.925057352780e+01 -1.197707483246e+02 0.0 
0.0 0.0 -4.598419285374e+01 
-9.633180616239e+01 1.542729997277e+01 0.0 
1.542729997277e+01 -2.157623175182e+02 0.0 
0.0 0.0 -9.322823710418e+01 
-4.425066877082e+01 3.420412580667e+01 0.0 
3.420412580667e+01 -7.599872010252e+01 0.0 
0.0 0.0 -3.701106864357e+01 
-3.336998353999e+01 2.077496157063e-01 0.0 
2.077496157063e-01 -3.276737584407e+01 0.0 
0.0 0.0 -1.944120781522e+01 
-9.779699453480e+00 -1.188908465855e+00 0.0 
-1.188908465855e+00 -3.231085575016e+01 0.0 
0.0 0.0 -1.230405635553e+01 
-1.627423758907e+02 2.844955691392e+00 0.0 
2.844955691392e+00 -3.845822442403e+02 0.0 
0.0 0.0 -1.637973860393e+02 
-9.031093115174e+01 1.081057535607e+01 0.0 
1.081057535607e+01 -1.929875421630e+02 0.0 
0.0 0.0 -8.458954199444e+01 
-7.613488090573e+01 -1.974778108249e+00 0.0 
-1.974778108249e+00 -1.909154872457e+02 0.0 
0.0 0.0 -7.971511044543e+01 
-4.897095927166e+01 8.890556684484e+00 0.0 
8.890556684484e+00 -4.390840030841e+01 0.0 
0.0 0.0 -2.746380787402e+01 
-4.947061099072e+01 -1.432130306700e+00 0.0 
-1.432130306700e+00 -1.253811867071e+02 0.0 
0.0 0.0 -5.205553930933e+01 
-1.192117347779e+02 3.289525446066e+01 0.0 
3.289525446066e+01 -2.955045146910e+02 0.0 
0.0 0.0 -1.240148748407e+02 
-2.792726502483e+01 -7.970306732859e+00 0.0 
-7.970306732859e+00 -4.926481554884e+01 0.0 
0.0 0.0 -2.212594737824e+01 
-8.905499111440e+01 7.949178674903e+00 0.0 
7.949178674903e+00 -1.932345900052e+02 0.0 
0.0 0.0 -8.428687433589e+01 
-1.485887717251e+02 1.375066800133e+01 0.0 
1.375066800133e+01 -3.677174545757e+02 0.0 
0.0 0.0 -1.544918678902e+02 
-1.011034062752e+02 2.453587358432e+01 0.0 
2.453587358432e+01 -2.142358294503e+02 0.0 
0.0 0.0 -9.420177071763e+01 
-1.503995860561e+02 2.780294282301e+01 0.0 
2.780294282301e+01 -3.621868155383e+02 0.0 
0.0 0.0 -1.533759204783e+02 
-4.935876569964e+01 1.091094075688e+01 0.0 
1.091094075688e+01 -1.158803299231e+02 0.0 
0.0 0.0 -5.103930763542e+01 
-1.323613043107e+02 3.284387421004e+01 0.0 
3.284387421004e+01 -3.249414064135e+02 0.0 
0.0 0.0 -1.367908132172e+02 
-1.352316271566e+02 1.550218266300e+01 0.0 
1.550218266300e+01 -3.485715180439e+02 0.0 
0.0 0.0 -1.447409435602e+02 
-3.278241131840e+01 -6.181088620524e-02 0.0 
-6.181088620524e-02 -3.458523317552e+01 0.0 
0.0 0.0 -1.981029334818e+01 
-1.040388727583e+02 2.816411020073e+01 0.0 
2.816411020073e+01 -2.220715532947e+02 0.0 
0.0 0.0 -9.743312781590e+01 
-6.163175029788e+01 -2.188645412875e+00 0.0 
-2.188645412875e+00 -1.549030952187e+02 0.0 
0.0 0.0 -6.456045365498e+01 
-2.498371038400e+01 -2.205629171193e+00 0.0 
-2.205629171193e+00 -6.632466180614e+01 0.0 
0.0 0.0 -2.699251165704e+01 
-9.105610579476e+01 1.052742917803e+00 0.0 
1.052742917803e+00 -2.073793022211e+02 0.0 
0.0 0.0 -8.913062240477e+01 
-9.210351239640e-01 -9.351664307965e-02 0.0 
-9.351664307965e-02 -1.415406983678e+01 0.0 
0.0 0.0 -3.387509328558e+00 
-3.188817643426e+01 7.971031167145e-02 0.0 
7.971031167145e-02 -3.360428933253e+01 0.0 
0.0 0.0 -1.924773973004e+01 
-1.637612013866e+02 1.299679326802e-01 0.0 
1.299679326802e-01 -3.853733550851e+02 0.0 
0.0 0.0 -1.643403669415e+02 
-2.253277685175e+01 -1.319176535629e+00 0.0 
-1.319176535629e+00 -6.327197906068e+01 0.0 
0.0 0.0 -2.534142677373e+01 
-4.501261016234e+01 3.666064776756e-01 0.0 
3.666064776756e-01 -6.559187126583e+01 0.0 
0.0 0.0 -3.278134442845e+01 
-1.148979854558e+02 3.576633078708e+01 0.0 
3.576633078708e+01 -2.608299793389e+02 0.0 
0.0 0.0 -1.123183894384e+02 
-9.416644837207e+01 -3.897848283543e-01 0.0 
-3.897848283543e-01 -2.339565441487e+02 0.0 
0.0 0.0 -9.803689775623e+01 
-7.639874622318e+01 1.711536808293e+00 0.0 
1.711536808293e+00 -1.556586130847e+02 0.0 
0.0 0.0 -6.921720779236e+01 
-4.042738166313e+01 -2.031127706475e+01 0.0 
-2.031127706475e+01 -8.030583716564e+01 0.0 
0.0 0.0 -3.440746829317e+01 
-7.447523495589e+01 -7.393230580986e+00 0.0 
-7.393230580986e+00 -1.084035253077e+02 0.0 
0.0 0.0 -5.560915099678e+01 
-5.831016241792e+01 8.314177153784e-01 0.0 
8.314177153784e-01 -1.007692676048e+02 0.0 
0.0 0.0 -4.732382900681e+01 
-1.353881525399e+02 2.930435134625e+01 0.0 
2.930435134625e+01 -3.367109418261e+02 0.0 
0.0 0.0 -1.412297283098e+02 
-9.765983221808e+01 2.021793756187e+01 0.0 
2.021793756187e+01 -2.068277335126e+02 0.0 
0.0 0.0 -9.094626971921e+01 
-5.409597364361e+01 9.616123800666e-01 0.0 
9.616123800666e-01 -8.692108546296e+01 0.0 
0.0 0.0 -4.190511773197e+01 
-3.578492510008e+01 2.951029220508e+01 0.0 
2.951029220508e+01 -9.022527153257e+01 0.0 
0.0 0.0 -3.799232568535e+01 
-1.117727419023e+02 3.481136110904e+01 0.0 
3.481136110904e+01 -2.531624497366e+02 0.0 
0.0 0.0 -1.090805574917e+02 
-8.255302955500e+01 -1.677256823865e+00 0.0 
-1.677256823865e+00 -2.063547338534e+02 0.0 
0.0 0.0 -8.627232902252e+01 
-1.164865858073e+02 3.485022932376e+01 0.0 
3.485022932376e+01 -2.796722794946e+02 0.0 
0.0 0.0 -1.184476595906e+02 
-1.325741353032e+02 1.951413842416e+01 0.0 
1.951413842416e+01 -3.430719073364e+02 0.0 
0.0 0.0 -1.422938127919e+02 
-5.087566912724e+01 3.417219534905e+01 0.0 
3.417219534905e+01 -5.948779443746e+01 0.0 
0.0 0.0 -3.384720496891e+01 
-1.015116374122e+02 -3.050927154471e-01 0.0 
-3.050927154471e-01 -2.513625598229e+02 0.0 
0.0 0.0 -1.054622591705e+02 
-9.625368107654e+00 -1.246247837076e+00 0.0 
-1.246247837076e+00 -3.023024652365e+01 0.0 
0.0 0.0 -1.158096546480e+01 
-1.547556573885e+02 4.586301599217e+00 0.0 
4.586301599217e+00 -3.723534329853e+02 0.0 
0.0 0.0 -1.577327271121e+02 
-8.605697862896e+01 -1.050430127405e+00 0.0 
-1.050430127405e+00 -2.148411134188e+02 0.0 
0.0 0.0 -8.986942761433e+01 
-3.199947061724e+01 4.671291660946e+00 0.0 
4.671291660946e+00 -8.218460807207e+00 0.0 
0.0 0.0 -1.155816111995e+01 
-2.221565066115e+01 -1.129873309758e-01 0.0 
-1.129873309758e-01 -9.311438475422e+00 0.0 
0.0 0.0 -9.058126740971e+00 

TENSORS node_materi_strain_total float
7.785916965769e-04 2.321672239812e-06 0.0 
2.321672239812e-06 -2.260519449334e-04 0.0 
0.0 0.0 0.0 
-1.223825530312e-03 -1.914525740358e-05 0.0 
-1.914525740358e-05 1.339867855224e-02 0.0 
0.0 0.0 0.0 
9.600844909086e-06 1.876049972407e-05 0.0 
1.876049972407e-05 7.601212936118e-03 0.0 
0.0 0.0 0.0 
-9.083425857653e-05 3.897776826517e-05 0.0 
3.897776826517e-05 1.668950116163e-02 0.0 
0.0 0.0 0.0 
6.190805068596e-04 -9.864181874307e-06 0.0 
-9.864181874307e-06 3.766050716969e-05 0.0 
0.0 0.0 0.0 
4.513044117310e-04 2.660876433657e-06 0.0 
2.660876433657e-06 5.166657632919e-04 0.0 
0.0 0.0 0.0 
3.007245334378e-04 -9.473095414281e-06 0.0 
-9.473095414281e-06 9.535455348578e-04 0.0 
0.0 0.0 0.0 
1.883836774920e-04 -1.785011183769e-05 0.0 
-1.785011183769e-05 1.419796207456e-03 0.0 
0.0 0.0 0.0 
9.892876489825e-05 -2.733326429805e-05 0.0 
-2.733326429805e-05 1.847303856572e-03 0.0 
0.0 0.0 0.0 
4.998403759034e-05 -3.103723410246e-05 0.0 
-3.103723410246e-05 2.244040022603e-03 0.0 
0.0 0.0 0.0 
2.656313399685e-05 -3.313794219296e-05 0.0 
-3.313794219296e-05 2.623170992252e-03 0.0 
0.0 0.0 0.0 
2.363737306095e-05 -3.567955880081e-05 0.0 
-3.567955880081e-05 2.988500695079e-03 0.0 
0.0 0.0 0.0 
3.731937109763e-05 -3.503673533530e-05 0.0 
-3.503673533530e-05 3.347201439247e-03 0.0 
0.0 0.0 0.0 
5.591480335513e-05 -2.962193810022e-05 0.0 
-2.962193810022e-05 3.708993715974e-03 0.0 
0.0 0.0 0.0 
7.326751819077e-05 -1.642759348964e-05 0.0 
-1.642759348964e-05 4.085063816188e-03 0.0 
0.0 0.0 0.0 
9.539817627606e-05 -4.398478653957e-06 0.0 
-4.398478653957e-06 4.457665363984e-03 0.0 
0.0 0.0 0.0 
1.138189965354e-04 2.035488867279e-06 0.0 
2.035488867279e-06 4.807020722544e-03 0.0 
0.0 0.0 0.0 
1.190504720998e-04 -1.051887647595e-05 0.0 
-1.051887647595e-05 5.198462486433e-03 0.0 
0.0 0.0 0.0 
1.151244231628e-04 -4.742770259894e-06 0.0 
-4.742770259894e-06 5.617336443757e-03 0.0 
0.0 0.0 0.0 
1.007478891896e-04 1.356003258436e-06 0.0 
1.356003258436e-06 6.037003532805e-03 0.0 
0.0 0.0 0.0 
7.723482561410e-05 5.394121437172e-06 0.0 
5.394121437172e-06 6.471796246301e-03 0.0 
0.0 0.0 0.0 
4.784676355355e-05 1.189015529013e-05 0.0 
1.189015529013e-05 6.919116395079e-03 0.0 
0.0 0.0 0.0 
2.541235192418e-05 1.721113554096e-05 0.0 
1.721113554096e-05 7.348930718002e-03 0.0 
0.0 0.0 0.0 
-6.605254018740e-05 1.390874645227e-04 0.0 
1.390874645227e-04 1.669227476800e-02 0.0 
0.0 0.0 0.0 
-7.284441409646e-05 2.556424084342e-04 0.0 
2.556424084342e-04 1.666848684923e-02 0.0 
0.0 0.0 0.0 
-7.438259060074e-05 3.726475679984e-04 0.0 
3.726475679984e-04 1.666348421995e-02 0.0 
0.0 0.0 0.0 
-7.306134551976e-05 5.205433903572e-04 0.0 
5.205433903572e-04 1.664141891530e-02 0.0 
0.0 0.0 0.0 
-9.323620743292e-05 6.500287766188e-04 0.0 
6.500287766188e-04 1.660814811775e-02 0.0 
0.0 0.0 0.0 
-8.757492064249e-05 8.100680642038e-04 0.0 
8.100680642038e-04 1.658107717493e-02 0.0 
0.0 0.0 0.0 
-1.012989659044e-04 9.830611721207e-04 0.0 
9.830611721207e-04 1.652607048539e-02 0.0 
0.0 0.0 0.0 
-1.057001518181e-04 1.171183336184e-03 0.0 
1.171183336184e-03 1.644608987547e-02 0.0 
0.0 0.0 0.0 
-1.122397504183e-04 1.359908652602e-03 0.0 
1.359908652602e-03 1.636317190143e-02 0.0 
0.0 0.0 0.0 
-1.029750562485e-04 1.577655127693e-03 0.0 
1.577655127693e-03 1.623998087125e-02 0.0 
0.0 0.0 0.0 
-1.351454836254e-04 1.784581456788e-03 0.0 
1.784581456788e-03 1.609394810667e-02 0.0 
0.0 0.0 0.0 
-1.240744078155e-04 2.023585266767e-03 0.0 
2.023585266767e-03 1.591680310391e-02 0.0 
0.0 0.0 0.0 
-1.324418154293e-04 2.266928812407e-03 0.0 
2.266928812407e-03 1.568782062597e-02 0.0 
0.0 0.0 0.0 
-1.204331596231e-04 2.499778336628e-03 0.0 
2.499778336628e-03 1.542224040927e-02 0.0 
0.0 0.0 0.0 
-1.299833812049e-04 2.724673172449e-03 0.0 
2.724673172449e-03 1.512102192997e-02 0.0 
0.0 0.0 0.0 
-1.133427231913e-04 2.932797544391e-03 0.0 
2.932797544391e-03 1.476219527552e-02 0.0 
0.0 0.0 0.0 
-1.155102505238e-04 3.128494774455e-03 0.0 
3.128494774455e-03 1.437074414620e-02 0.0 
0.0 0.0 0.0 
-9.944040447507e-05 3.313963494925e-03 0.0 
3.313963494925e-03 1.393731057352e-02 0.0 
0.0 0.0 0.0 
-7.606964859700e-05 3.458809000028e-03 0.0 
3.458809000028e-03 1.348708786364e-02 0.0 
0.0 0.0 0.0 
-4.939993765429e-05 3.570809544195e-03 0.0 
3.570809544195e-03 1.301616824223e-02 0.0 
0.0 0.0 0.0 
-1.897334182344e-05 3.640951780458e-03 0.0 
3.640951780458e-03 1.251849001966e-02 0.0 
0.0 0.0 0.0 
-8.107859019613e-06 3.669041957264e-03 0.0 
3.669041957264e-03 1.202070568834e-02 0.0 
0.0 0.0 0.0 
1.758510906765e-05 3.659091270122e-03 0.0 
3.659091270122e-03 1.151866751751e-02 0.0 
0.0 0.0 0.0 
3.732197926139e-05 3.607214760736e-03 0.0 
3.607214760736e-03 1.102684871727e-02 0.0 
0.0 0.0 0.0 
5.315054029128e-05 3.522060043191e-03 0.0 
3.522060043191e-03 1.055668963438e-02 0.0 
0.0 0.0 0.0 
7.349644196878e-05 3.407907439622e-03 0.0 
3.407907439622e-03 1.010670103993e-02 0.0 
0.0 0.0 0.0 
8.167060686100e-05 3.255036126667e-03 0.0 
3.255036126667e-03 9.680960744889e-03 0.0 
0.0 0.0 0.0 
1.082714443353e-04 3.075493840135e-03 0.0 
3.075493840135e-03 9.287472935092e-03 0.0 
0.0 0.0 0.0 
1.114526506210e-04 2.866734436750e-03 0.0 
2.866734436750e-03 8.921877960942e-03 0.0 
0.0 0.0 0.0 
1.025812022101e-04 2.650043970169e-03 0.0 
2.650043970169e-03 8.629087550387e-03 0.0 
0.0 0.0 0.0 
1.250028463287e-04 2.421608123900e-03 0.0 
2.421608123900e-03 8.323140425220e-03 0.0 
0.0 0.0 0.0 
1.415460108804e-04 2.177874021860e-03 0.0 
2.177874021860e-03 8.043013864487e-03 0.0 
0.0 0.0 0.0 
1.381879251658e-04 1.911123280741e-03 0.0 
1.911123280741e-03 7.824229876945e-03 0.0 
0.0 0.0 0.0 
1.323428426843e-04 1.668062066604e-03 0.0 
1.668062066604e-03 7.679752795011e-03 0.0 
0.0 0.0 0.0 
1.304906031325e-04 1.435321239364e-03 0.0 
1.435321239364e-03 7.552791450775e-03 0.0 
0.0 0.0 0.0 
1.059831625345e-04 1.208809478980e-03 0.0 
1.208809478980e-03 7.465750448121e-03 0.0 
0.0 0.0 0.0 
1.143472543571e-04 1.009122950614e-03 0.0 
1.009122950614e-03 7.413878385337e-03 0.0 
0.0 0.0 0.0 
9.134269599209e-05 8.191053467653e-04 0.0 
8.191053467653e-04 7.370657556148e-03 0.0 
0.0 0.0 0.0 
9.573879873696e-05 6.557910358423e-04 0.0 
6.557910358423e-04 7.352222872890e-03 0.0 
0.0 0.0 0.0 
7.421033595760e-05 5.100695986220e-04 0.0 
5.100695986220e-04 7.349648624329e-03 0.0 
0.0 0.0 0.0 
5.768399968583e-05 3.914173405893e-04 0.0 
3.914173405893e-04 7.381571144866e-03 0.0 
0.0 0.0 0.0 
4.875872299159e-05 2.958641751855e-04 0.0 
2.958641751855e-04 7.438420158458e-03 0.0 
0.0 0.0 0.0 
4.398950796380e-05 2.156470479655e-04 0.0 
2.156470479655e-04 7.476443896120e-03 0.0 
0.0 0.0 0.0 
3.931695100601e-05 1.452665532996e-04 0.0 
1.452665532996e-04 7.445655329858e-03 0.0 
0.0 0.0 0.0 
2.735194057927e-05 9.718923528835e-05 0.0 
9.718923528835e-05 7.536795090619e-03 0.0 
0.0 0.0 0.0 
1.498050223743e-05 6.271400463983e-05 0.0 
6.271400463983e-05 7.543993959464e-03 0.0 
0.0 0.0 0.0 
1.010324800628e-05 3.392322241610e-05 0.0 
3.392322241610e-05 7.577675926459e-03 0.0 
0.0 0.0 0.0 
8.661498849853e-06 2.483563174114e-05 0.0 
2.483563174114e-05 7.613167346061e-03 0.0 
0.0 0.0 0.0 
5.415630035606e-06 1.096069087190e-05 0.0 
1.096069087190e-05 7.622472415657e-03 0.0 
0.0 0.0 0.0 
-1.184178316385e-03 -1.346409213676e-05 0.0 
-1.346409213676e-05 1.381398866967e-02 0.0 
0.0 0.0 0.0 
-1.156387163125e-03 -1.071664259392e-05 0.0 
-1.071664259392e-05 1.422634451212e-02 0.0 
0.0 0.0 0.0 
-1.105988543995e-03 -5.958643988134e-06 0.0 
-5.958643988134e-06 1.461747814591e-02 0.0 
0.0 0.0 0.0 
-1.033104780928e-03 -7.668160579672e-07 0.0 
-7.668160579672e-07 1.498368596468e-02 0.0 
0.0 0.0 0.0 
-9.340852570840e-04 6.380317944615e-06 0.0 
6.380317944615e-06 1.533700592284e-02 0.0 
0.0 0.0 0.0 
-8.064728192818e-04 1.229740888634e-05 0.0 
1.229740888634e-05 1.566881264947e-02 0.0 
0.0 0.0 0.0 
-6.525725826094e-04 1.821019831574e-05 0.0 
1.821019831574e-05 1.597599450161e-02 0.0 
0.0 0.0 0.0 
-4.624607667134e-04 2.571213932053e-05 0.0 
2.571213932053e-05 1.626118610688e-02 0.0 
0.0 0.0 0.0 
-2.662648082287e-04 2.804353182338e-05 0.0 
2.804353182338e-05 1.653054365032e-02 0.0 
0.0 0.0 0.0 
-1.901512344615e-03 2.504540047584e-03 0.0 
2.504540047584e-03 -2.212583579502e-03 0.0 
0.0 0.0 0.0 
-2.035358288708e-03 7.701466279495e-04 0.0 
7.701466279495e-04 1.347257852358e-02 0.0 
0.0 0.0 0.0 
-1.823790262341e-03 2.923007672328e-03 0.0 
2.923007672328e-03 7.479144635899e-04 0.0 
0.0 0.0 0.0 
-1.773627283100e-03 2.828570794794e-03 0.0 
2.828570794794e-03 2.209186953526e-03 0.0 
0.0 0.0 0.0 
-1.868386528880e-03 2.734629705119e-03 0.0 
2.734629705119e-03 3.756934152805e-03 0.0 
0.0 0.0 0.0 
-1.832181814503e-03 2.520443240608e-03 0.0 
2.520443240608e-03 5.189850444208e-03 0.0 
0.0 0.0 0.0 
-1.700251925689e-03 2.338392143248e-03 0.0 
2.338392143248e-03 6.571785726236e-03 0.0 
0.0 0.0 0.0 
-1.614223172157e-03 2.197877174950e-03 0.0 
2.197877174950e-03 7.984848841893e-03 0.0 
0.0 0.0 0.0 
-1.586592568331e-03 2.106551270191e-03 0.0 
2.106551270191e-03 9.399694982907e-03 0.0 
0.0 0.0 0.0 
-1.724204337133e-03 2.057154406916e-03 0.0 
2.057154406916e-03 1.088495640061e-02 0.0 
0.0 0.0 0.0 
-2.362725655466e-03 1.497135008713e-03 0.0 
1.497135008713e-03 1.273894234825e-02 0.0 
0.0 0.0 0.0 
-1.266650228769e-03 -2.016082418225e-05 0.0 
-2.016082418225e-05 1.313334566749e-02 0.0 
0.0 0.0 0.0 
-1.217137087790e-03 1.432902788700e-05 0.0 
1.432902788700e-05 1.334495345654e-02 0.0 
0.0 0.0 0.0 
-1.205691494150e-03 7.056685590833e-06 0.0 
7.056685590833e-06 1.336948987249e-02 0.0 
0.0 0.0 0.0 
-1.208663747509e-03 2.672631286406e-06 0.0 
2.672631286406e-06 1.337079532763e-02 0.0 
0.0 0.0 0.0 
-1.213913915706e-03 -1.617584172374e-06 0.0 
-1.617584172374e-06 1.336626882593e-02 0.0 
0.0 0.0 0.0 
-1.221714949910e-03 2.170501122815e-06 0.0 
2.170501122815e-06 1.342519600755e-02 0.0 
0.0 0.0 0.0 
-1.229536217984e-03 -3.142333173997e-06 0.0 
-3.142333173997e-06 1.337608393152e-02 0.0 
0.0 0.0 0.0 
-1.239242103951e-03 -3.456039667012e-06 0.0 
-3.456039667012e-06 1.337251613658e-02 0.0 
0.0 0.0 0.0 
-1.250805436207e-03 2.199132221877e-06 0.0 
2.199132221877e-06 1.337692213186e-02 0.0 
0.0 0.0 0.0 
-1.280910605539e-03 1.087293396214e-05 0.0 
1.087293396214e-05 1.339110542892e-02 0.0 
0.0 0.0 0.0 
-1.313822066787e-03 2.799722296946e-05 0.0 
2.799722296946e-05 1.339366536056e-02 0.0 
0.0 0.0 0.0 
-1.356172251401e-03 6.114767493224e-05 0.0 
6.114767493224e-05 1.339744841734e-02 0.0 
0.0 0.0 0.0 
-1.430759072150e-03 1.157207640959e-04 0.0 
1.157207640959e-04 1.340597194529e-02 0.0 
0.0 0.0 0.0 
-1.541455061242e-03 2.177343190291e-04 0.0 
2.177343190291e-04 1.341893771176e-02 0.0 
0.0 0.0 0.0 
-1.711547821517e-03 3.995743194758e-04 0.0 
3.995743194758e-04 1.344540102571e-02 0.0 
0.0 0.0 0.0 
-2.602039223450e-03 1.203879420834e-03 0.0 
1.203879420834e-03 -3.311518513254e-03 0.0 
0.0 0.0 0.0 
-3.332505044938e-03 2.109708004722e-04 0.0 
2.109708004722e-04 -3.380518365498e-03 0.0 
0.0 0.0 0.0 
-3.594033544972e-03 -2.408074750434e-04 0.0 
-2.408074750434e-04 -3.283722053535e-03 0.0 
0.0 0.0 0.0 
-3.118259780150e-03 -9.062149784947e-04 0.0 
-9.062149784947e-04 -3.080505325764e-03 0.0 
0.0 0.0 0.0 
-2.132565328120e-03 -1.715328555103e-03 0.0 
-1.715328555103e-03 -1.563762529317e-03 0.0 
0.0 0.0 0.0 
-1.340366004262e-03 -1.177277613730e-03 0.0 
-1.177277613730e-03 4.698365040764e-05 0.0 
0.0 0.0 0.0 
-6.112793682790e-04 -3.579290922875e-04 0.0 
-3.579290922875e-04 2.466775417226e-04 0.0 
0.0 0.0 0.0 
-7.929380916620e-05 -1.141725958143e-04 0.0 
-1.141725958143e-04 1.318007781513e-04 0.0 
0.0 0.0 0.0 
2.372317019187e-04 -7.310022426760e-05 0.0 
-7.310022426760e-05 3.284528413498e-05 0.0 
0.0 0.0 0.0 
3.314217798507e-04 -6.776609206722e-05 0.0 
-6.776609206722e-05 -1.486585445935e-05 0.0 
0.0 0.0 0.0 
4.105067202717e-04 -4.970358024027e-05 0.0 
-4.970358024027e-05 -4.209263011471e-05 0.0 
0.0 0.0 0.0 
5.034683474962e-04 -4.517713975002e-05 0.0 
-4.517713975002e-05 -7.965111557551e-05 0.0 
0.0 0.0 0.0 
5.882181891938e-04 -2.306208689556e-05 0.0 
-2.306208689556e-05 -1.255093369524e-04 0.0 
0.0 0.0 0.0 
6.617569175452e-04 -2.950818585168e-05 0.0 
-2.950818585168e-05 -1.613014517126e-04 0.0 
0.0 0.0 0.0 
6.739521698806e-04 -2.856557652630e-05 0.0 
-2.856557652630e-05 -1.689122764343e-04 0.0 
0.0 0.0 0.0 
6.887139451543e-04 -2.110400179351e-05 0.0 
-2.110400179351e-05 -1.742560055104e-04 0.0 
0.0 0.0 0.0 
7.127114744880e-04 -1.319205440800e-05 0.0 
-1.319205440800e-05 -1.860796575897e-04 0.0 
0.0 0.0 0.0 
7.522880003365e-04 9.107709609246e-07 0.0 
9.107709609246e-07 -2.131311151151e-04 0.0 
0.0 0.0 0.0 
7.884164752015e-04 2.198906529787e-05 0.0 
2.198906529787e-05 -2.338327282602e-04 0.0 
0.0 0.0 0.0 
-2.039939812548e-03 5.067943525441e-04 0.0 
5.067943525441e-04 1.332189094248e-02 0.0 
0.0 0.0 0.0 
-1.566323957237e-03 2.987442080496e-04 0.0 
2.987442080496e-04 1.319597280474e-02 0.0 
0.0 0.0 0.0 
-1.353834751273e-03 1.710073484042e-04 0.0 
1.710073484042e-04 1.317816932545e-02 0.0 
0.0 0.0 0.0 
-1.242853320608e-03 8.325569525830e-05 0.0 
8.325569525830e-05 1.315381033849e-02 0.0 
0.0 0.0 0.0 
-1.192343757408e-03 3.798013433134e-05 0.0 
3.798013433134e-05 1.314915485654e-02 0.0 
0.0 0.0 0.0 
-1.172539887149e-03 1.409054236902e-05 0.0 
1.409054236902e-05 1.315011028183e-02 0.0 
0.0 0.0 0.0 
-1.173564944157e-03 8.891245301703e-07 0.0 
8.891245301703e-07 1.315148457607e-02 0.0 
0.0 0.0 0.0 
-1.178977392325e-03 -4.068145517215e-06 0.0 
-4.068145517215e-06 1.315806013469e-02 0.0 
0.0 0.0 0.0 
-1.179927019863e-03 -5.058751175676e-06 0.0 
-5.058751175676e-06 1.316539834513e-02 0.0 
0.0 0.0 0.0 
-1.190137781414e-03 -1.049104191358e-05 0.0 
-1.049104191358e-05 1.316764337706e-02 0.0 
0.0 0.0 0.0 
-1.194589029080e-03 -7.929061799585e-06 0.0 
-7.929061799585e-06 1.316993922913e-02 0.0 
0.0 0.0 0.0 
-1.198122822965e-03 -8.270562184032e-06 0.0 
-8.270562184032e-06 1.317165269319e-02 0.0 
0.0 0.0 0.0 
-1.199451737874e-03 -3.985349588965e-06 0.0 
-3.985349588965e-06 1.317447589859e-02 0.0 
0.0 0.0 0.0 
-1.197830428618e-03 3.726281296592e-06 0.0 
3.726281296592e-06 1.317163500506e-02 0.0 
0.0 0.0 0.0 
-1.205803314515e-03 7.109067690674e-06 0.0 
7.109067690674e-06 1.316766831040e-02 0.0 
0.0 0.0 0.0 
-1.243535253529e-03 2.736212118911e-05 0.0 
2.736212118911e-05 1.313034883719e-02 0.0 
0.0 0.0 0.0 
-1.796776071509e-03 3.232959197661e-03 0.0 
3.232959197661e-03 -3.888109371169e-04 0.0 
0.0 0.0 0.0 
-1.762182409760e-03 2.870476173657e-03 0.0 
2.870476173657e-03 1.454778088779e-03 0.0 
0.0 0.0 0.0 
-1.813327737983e-03 2.784862681711e-03 0.0 
2.784862681711e-03 2.988965206055e-03 0.0 
0.0 0.0 0.0 
-1.893833085313e-03 2.654926358076e-03 0.0 
2.654926358076e-03 4.506064795601e-03 0.0 
0.0 0.0 0.0 
-1.794753098627e-03 2.485869860113e-03 0.0 
2.485869860113e-03 5.884153529389e-03 0.0 
0.0 0.0 0.0 
-1.657149018397e-03 2.312221477757e-03 0.0 
2.312221477757e-03 7.287152361205e-03 0.0 
0.0 0.0 0.0 
-1.587558630458e-03 2.152737180968e-03 0.0 
2.152737180968e-03 8.691687165386e-03 0.0 
0.0 0.0 0.0 
-1.605631029789e-03 2.076541020146e-03 0.0 
2.076541020146e-03 1.012920821958e-02 0.0 
0.0 0.0 0.0 
-2.060900606935e-03 2.041506919724e-03 0.0 
2.041506919724e-03 1.174327054076e-02 0.0 
0.0 0.0 0.0 
-2.254679704387e-03 9.706183401035e-04 0.0 
9.706183401035e-04 1.332155157103e-02 0.0 
0.0 0.0 0.0 
-1.466886400631e-03 3.008500070847e-03 0.0 
3.008500070847e-03 1.585486146516e-03 0.0 
0.0 0.0 0.0 
4.006371501176e-04 1.737201846220e-03 0.0 
1.737201846220e-03 7.430570967638e-03 0.0 
0.0 0.0 0.0 
-6.999881506026e-05 -2.305877135250e-04 0.0 
-2.305877135250e-04 2.536244600911e-04 0.0 
0.0 0.0 0.0 
-1.297446072596e-03 -1.714810236237e-03 0.0 
-1.714810236237e-03 -2.939850301443e-03 0.0 
0.0 0.0 0.0 
2.722252874228e-04 7.175251842381e-04 0.0 
7.175251842381e-04 7.091805465387e-03 0.0 
0.0 0.0 0.0 
-1.641318415958e-03 2.688691570738e-03 0.0 
2.688691570738e-03 4.780022261341e-03 0.0 
0.0 0.0 0.0 
7.142093003048e-05 -8.087213061049e-05 0.0 
-8.087213061049e-05 3.901964305056e-03 0.0 
0.0 0.0 0.0 
3.769261566248e-04 2.684358235095e-03 0.0 
2.684358235095e-03 8.400308368374e-03 0.0 
0.0 0.0 0.0 
-1.489880367363e-03 2.364166740142e-03 0.0 
2.364166740142e-03 7.499692015882e-03 0.0 
0.0 0.0 0.0 
1.972854237363e-04 3.388003655744e-03 0.0 
3.388003655744e-03 1.006568493701e-02 0.0 
0.0 0.0 0.0 
-1.612757264182e-03 2.221161562483e-03 0.0 
2.221161562483e-03 1.043044890172e-02 0.0 
0.0 0.0 0.0 
1.328849040385e-04 2.387194573247e-04 0.0 
2.387194573247e-04 7.247401471352e-03 0.0 
0.0 0.0 0.0 
4.603172373260e-04 -6.565982006528e-05 0.0 
-6.565982006528e-05 4.572503162033e-05 0.0 
0.0 0.0 0.0 
-4.362587790507e-05 3.579916580436e-03 0.0 
3.579916580436e-03 1.210630419831e-02 0.0 
0.0 0.0 0.0 
-2.136832361275e-03 1.381706754055e-03 0.0 
1.381706754055e-03 1.321709491119e-02 0.0 
0.0 0.0 0.0 
3.447869682908e-05 -7.892090573491e-05 0.0 
-7.892090573491e-05 2.450264253594e-03 0.0 
0.0 0.0 0.0 
1.231033827506e-04 -5.077208864654e-05 0.0 
-5.077208864654e-05 4.928979282100e-03 0.0 
0.0 0.0 0.0 
-2.447959752907e-04 3.314514664361e-03 0.0 
3.314514664361e-03 1.360158104624e-02 0.0 
0.0 0.0 0.0 
-3.616265509476e-04 2.545994331606e-03 0.0 
2.545994331606e-03 1.523250378680e-02 0.0 
0.0 0.0 0.0 
-2.585897772727e-04 7.128812479144e-04 0.0 
7.128812479144e-04 1.650477300991e-02 0.0 
0.0 0.0 0.0 
-3.525588008615e-04 1.229224597139e-03 0.0 
1.229224597139e-03 1.631860169807e-02 0.0 
0.0 0.0 0.0 
-3.652543536381e-04 1.862923355087e-03 0.0 
1.862923355087e-03 1.595306308682e-02 0.0 
0.0 0.0 0.0 
-1.856423871404e-03 5.613457703355e-04 0.0 
5.613457703355e-04 1.381238733696e-02 0.0 
0.0 0.0 0.0 
-1.429317189799e-03 1.014017080464e-04 0.0 
1.014017080464e-04 1.382749853082e-02 0.0 
0.0 0.0 0.0 
-1.292274402341e-03 4.009040818678e-05 0.0 
4.009040818678e-05 1.382492207779e-02 0.0 
0.0 0.0 0.0 
-9.879640460588e-04 3.676514687534e-05 0.0 
3.676514687534e-05 1.516822640836e-02 0.0 
0.0 0.0 0.0 
6.293440595762e-05 7.478937181435e-05 0.0 
7.478937181435e-05 7.338202414572e-03 0.0 
0.0 0.0 0.0 
-1.398751852482e-03 9.343461903151e-04 0.0 
9.343461903151e-04 -3.871404369767e-03 0.0 
0.0 0.0 0.0 
5.899440980320e-04 -3.118989763008e-05 0.0 
-3.118989763008e-05 3.882842857646e-06 0.0 
0.0 0.0 0.0 
9.574895769104e-05 -9.823499760552e-06 0.0 
-9.823499760552e-06 6.231036192324e-03 0.0 
0.0 0.0 0.0 
-1.216020508022e-03 1.665602418288e-05 0.0 
1.665602418288e-05 1.375064494829e-02 0.0 
0.0 0.0 0.0 
2.371744067183e-04 -5.081819387046e-05 0.0 
-5.081819387046e-05 1.190535482142e-03 0.0 
0.0 0.0 0.0 
-3.695604341137e-04 2.927906918303e-03 0.0 
2.927906918303e-03 1.449356751411e-02 0.0 
0.0 0.0 0.0 
2.789548828829e-04 3.105706343204e-03 0.0 
3.105706343204e-03 9.220913623231e-03 0.0 
0.0 0.0 0.0 
7.688089802327e-05 3.558937860655e-03 0.0 
3.558937860655e-03 1.106929851737e-02 0.0 
0.0 0.0 0.0 
4.349185668444e-04 2.251589492906e-03 0.0 
2.251589492906e-03 7.822975555806e-03 0.0 
0.0 0.0 0.0 
3.395893084052e-04 1.281846114775e-03 0.0 
1.281846114775e-03 7.216887236524e-03 0.0 
0.0 0.0 0.0 
-1.132531325960e-03 -1.212821583356e-03 0.0 
-1.212821583356e-03 2.791557733508e-04 0.0 
0.0 0.0 0.0 
-1.589968776936e-03 2.303864173277e-04 0.0 
2.303864173277e-04 1.383016545071e-02 0.0 
0.0 0.0 0.0 
2.277461819824e-04 4.225777812353e-04 0.0 
4.225777812353e-04 7.043218657800e-03 0.0 
0.0 0.0 0.0 
-7.430119976706e-04 6.710269574431e-05 0.0 
6.710269574431e-05 1.581962025907e-02 0.0 
0.0 0.0 0.0 
2.367394270485e-04 -1.049306441704e-04 0.0 
-1.049306441704e-04 1.517950598714e-04 0.0 
0.0 0.0 0.0 
3.072919886160e-05 -8.979246178900e-05 0.0 
-8.979246178900e-05 3.165820008920e-03 0.0 
0.0 0.0 0.0 
-1.991275911299e-04 4.369780205669e-04 0.0 
4.369780205669e-04 1.658621438640e-02 0.0 
0.0 0.0 0.0 
-1.508476657425e-03 2.533674412855e-03 0.0 
2.533674412855e-03 6.115611315470e-03 0.0 
0.0 0.0 0.0 
-1.603049575382e-03 2.882646477037e-03 0.0 
2.882646477037e-03 3.245704916719e-03 0.0 
0.0 0.0 0.0 
-1.483028559781e-03 2.274272598815e-03 0.0 
2.274272598815e-03 8.915106830676e-03 0.0 
0.0 0.0 0.0 
-2.080851267264e-03 2.020601936162e-03 0.0 
2.020601936162e-03 1.204287929735e-02 0.0 
0.0 0.0 0.0 
-1.482795396827e-03 3.213695178742e-03 0.0 
3.213695178742e-03 -1.852331185753e-04 0.0 
0.0 0.0 0.0 
-1.130024030491e-03 1.606290095854e-05 0.0 
1.606290095854e-05 1.445677449943e-02 0.0 
0.0 0.0 0.0 
2.467133599198e-05 2.591236679139e-05 0.0 
2.591236679139e-05 7.474576323218e-03 0.0 
0.0 0.0 0.0 
6.572982876941e-04 -4.792780976745e-06 0.0 
-4.792780976745e-06 -4.377268066656e-05 0.0 
0.0 0.0 0.0 
-3.688202913409e-04 1.070214066194e-04 0.0 
1.070214066194e-04 1.638103786365e-02 0.0 
0.0 0.0 0.0 
-2.124972737285e-03 1.199112923210e-03 0.0 
1.199112923210e-03 1.356638195116e-02 0.0 
0.0 0.0 0.0 
-2.028326177511e-03 1.618228087395e-03 0.0 
1.618228087395e-03 1.330648277603e-02 0.0 
0.0 0.0 0.0 
-2.043374444315e-03 1.358952095096e-03 0.0 
1.358952095096e-03 1.375553923980e-02 0.0 
0.0 0.0 0.0 
-1.915937796313e-03 1.809479944298e-03 0.0 
1.809479944298e-03 1.341929021916e-02 0.0 
0.0 0.0 0.0 
-1.934704619165e-03 1.615340797543e-03 0.0 
1.615340797543e-03 1.387686818498e-02 0.0 
0.0 0.0 0.0 
-1.778971288348e-03 1.960100782771e-03 0.0 
1.960100782771e-03 1.355670163245e-02 0.0 
0.0 0.0 0.0 
-1.717172732532e-03 2.140058169250e-03 0.0 
2.140058169250e-03 1.301824514619e-02 0.0 
0.0 0.0 0.0 
-1.571685083633e-03 2.249985268436e-03 0.0 
2.249985268436e-03 1.317744520410e-02 0.0 
0.0 0.0 0.0 
-1.470271673757e-03 2.399274232715e-03 0.0 
2.399274232715e-03 1.256833395753e-02 0.0 
0.0 0.0 0.0 
-1.794714375193e-03 1.798384511836e-03 0.0 
1.798384511836e-03 1.401510250840e-02 0.0 
0.0 0.0 0.0 
-1.329528444616e-03 2.482330621320e-03 0.0 
2.482330621320e-03 1.275790511986e-02 0.0 
0.0 0.0 0.0 
-1.203308917359e-03 2.597751756783e-03 0.0 
2.597751756783e-03 1.210119578492e-02 0.0 
0.0 0.0 0.0 
-1.069000560252e-03 2.667056199380e-03 0.0 
2.667056199380e-03 1.231522266659e-02 0.0 
0.0 0.0 0.0 
-9.280162585190e-04 2.751423254557e-03 0.0 
2.751423254557e-03 1.162878601889e-02 0.0 
0.0 0.0 0.0 
-1.041526959599e-03 2.699028459864e-03 0.0 
2.699028459864e-03 1.138780897728e-02 0.0 
0.0 0.0 0.0 
-7.540788878064e-04 2.820539687405e-03 0.0 
2.820539687405e-03 1.089467940883e-02 0.0 
0.0 0.0 0.0 
-8.562640003323e-04 2.780969375290e-03 0.0 
2.780969375290e-03 1.063311259037e-02 0.0 
0.0 0.0 0.0 
-5.575496317364e-04 2.871144845636e-03 0.0 
2.871144845636e-03 1.012307312222e-02 0.0 
0.0 0.0 0.0 
-4.697901905188e-04 2.902746992663e-03 0.0 
2.902746992663e-03 1.041427061207e-02 0.0 
0.0 0.0 0.0 
-2.637144072659e-04 2.922281015874e-03 0.0 
2.922281015874e-03 9.629088855703e-03 0.0 
0.0 0.0 0.0 
-3.440691451154e-04 2.902366780826e-03 0.0 
2.902366780826e-03 9.319877812953e-03 0.0 
0.0 0.0 0.0 
-4.185958973729e-05 2.926158896134e-03 0.0 
2.926158896134e-03 8.820036645761e-03 0.0 
0.0 0.0 0.0 
-1.234720071828e-04 2.914982160004e-03 0.0 
2.914982160004e-03 8.497885712822e-03 0.0 
0.0 0.0 0.0 
1.866097490299e-04 2.911138880477e-03 0.0 
2.911138880477e-03 7.995810059470e-03 0.0 
0.0 0.0 0.0 
9.727601566450e-05 2.908353711379e-03 0.0 
2.908353711379e-03 7.661908493766e-03 0.0 
0.0 0.0 0.0 
4.173230929789e-04 2.879213796287e-03 0.0 
2.879213796287e-03 7.161097149763e-03 0.0 
0.0 0.0 0.0 
4.804425754081e-04 2.872368226461e-03 0.0 
2.872368226461e-03 7.528086234724e-03 0.0 
0.0 0.0 0.0 
7.189536390190e-04 2.814264862431e-03 0.0 
2.814264862431e-03 6.698242892892e-03 0.0 
0.0 0.0 0.0 
6.490426035559e-04 2.834169329241e-03 0.0 
2.834169329241e-03 6.320062625474e-03 0.0 
0.0 0.0 0.0 
9.588606537986e-04 2.738453826668e-03 0.0 
2.738453826668e-03 5.863725771778e-03 0.0 
0.0 0.0 0.0 
8.799670714446e-04 2.773082609068e-03 0.0 
2.773082609068e-03 5.473218375550e-03 0.0 
0.0 0.0 0.0 
1.198842712307e-03 2.641582216841e-03 0.0 
2.641582216841e-03 5.023907930771e-03 0.0 
0.0 0.0 0.0 
1.236035644172e-03 2.605924265760e-03 0.0 
2.605924265760e-03 5.460604332346e-03 0.0 
0.0 0.0 0.0 
1.476976459355e-03 2.470357089570e-03 0.0 
2.470357089570e-03 4.640477770232e-03 0.0 
0.0 0.0 0.0 
1.438372870243e-03 2.518337387356e-03 0.0 
2.518337387356e-03 4.177002428759e-03 0.0 
0.0 0.0 0.0 
1.714537766066e-03 2.303292245404e-03 0.0 
2.303292245404e-03 3.822311110094e-03 0.0 
0.0 0.0 0.0 
1.676757523628e-03 2.363869959312e-03 0.0 
2.363869959312e-03 3.326403518201e-03 0.0 
0.0 0.0 0.0 
1.946851880674e-03 2.098337216508e-03 0.0 
2.098337216508e-03 3.010300677600e-03 0.0 
0.0 0.0 0.0 
1.916153060091e-03 2.170438791413e-03 0.0 
2.170438791413e-03 2.472749683452e-03 0.0 
0.0 0.0 0.0 
2.169896825755e-03 1.843125567749e-03 0.0 
1.843125567749e-03 2.205535351422e-03 0.0 
0.0 0.0 0.0 
2.142460320025e-03 1.805385607291e-03 0.0 
1.805385607291e-03 2.794483069126e-03 0.0 
0.0 0.0 0.0 
2.333604462085e-03 1.499737242765e-03 0.0 
1.499737242765e-03 2.055910964765e-03 0.0 
0.0 0.0 0.0 
2.374268806535e-03 1.526681904269e-03 0.0 
1.526681904269e-03 1.420502015255e-03 0.0 
0.0 0.0 0.0 
2.490698429128e-03 1.133770153009e-03 0.0 
1.133770153009e-03 1.359413258549e-03 0.0 
0.0 0.0 0.0 
2.410628960032e-03 1.164709498577e-03 0.0 
1.164709498577e-03 2.022699066420e-03 0.0 
0.0 0.0 0.0 
2.511136760543e-03 7.720236797953e-04 0.0 
7.720236797953e-04 1.424464946023e-03 0.0 
0.0 0.0 0.0 
2.406952654398e-03 8.592441228379e-04 0.0 
8.592441228379e-04 2.094916936296e-03 0.0 
0.0 0.0 0.0 
2.450506613705e-03 4.610072605379e-04 0.0 
4.610072605379e-04 1.595165009345e-03 0.0 
0.0 0.0 0.0 
2.545922483225e-03 3.325367262997e-04 0.0 
3.325367262997e-04 9.167236743701e-04 0.0 
0.0 0.0 0.0 
2.422443343682e-03 3.501067590798e-05 0.0 
3.501067590798e-05 1.193841066901e-03 0.0 
0.0 0.0 0.0 
2.327857688946e-03 2.104295960327e-04 0.0 
2.104295960327e-04 1.845233879925e-03 0.0 
0.0 0.0 0.0 
2.248644654651e-03 -1.850909666691e-04 0.0 
-1.850909666691e-04 1.532703903786e-03 0.0 
0.0 0.0 0.0 
2.310689772656e-03 -4.024647495389e-04 0.0 
-4.024647495389e-04 9.067145319484e-04 0.0 
0.0 0.0 0.0 
2.093331112631e-03 -5.687331520662e-04 0.0 
-5.687331520662e-04 1.329128355914e-03 0.0 
0.0 0.0 0.0 
2.046501338541e-03 -3.309010211492e-04 0.0 
-3.309010211492e-04 1.909669863833e-03 0.0 
0.0 0.0 0.0 
1.865680330736e-03 -6.575192538619e-04 0.0 
-6.575192538619e-04 1.762643697680e-03 0.0 
0.0 0.0 0.0 
1.864794614865e-03 -9.172171911174e-04 0.0 
-9.172171911174e-04 1.233382000253e-03 0.0 
0.0 0.0 0.0 
1.627761501348e-03 -9.380850083326e-04 0.0 
-9.380850083326e-04 1.704863801468e-03 0.0 
0.0 0.0 0.0 
1.642044410073e-03 -6.845522349884e-04 0.0 
-6.845522349884e-04 2.193337103261e-03 0.0 
0.0 0.0 0.0 
1.408667596780e-03 -9.067089652451e-04 0.0 
-9.067089652451e-04 2.149924977402e-03 0.0 
0.0 0.0 0.0 
1.345989581974e-03 -1.153629699637e-03 0.0 
-1.153629699637e-03 1.720567040637e-03 0.0 
0.0 0.0 0.0 
1.147165687346e-03 -1.065292053355e-03 0.0 
-1.065292053355e-03 2.160342481773e-03 0.0 
0.0 0.0 0.0 
1.210875912464e-03 -8.408656125837e-04 0.0 
-8.408656125837e-04 2.567397885695e-03 0.0 
0.0 0.0 0.0 
9.748828456063e-04 -9.559225831401e-04 0.0 
-9.559225831401e-04 2.561941223644e-03 0.0 
0.0 0.0 0.0 
1.033019936281e-03 -7.546792383191e-04 0.0 
-7.546792383191e-04 2.956895949352e-03 0.0 
0.0 0.0 0.0 
8.751777410319e-04 -1.153108104349e-03 0.0 
-1.153108104349e-03 2.201666545105e-03 0.0 
0.0 0.0 0.0 
7.393953739069e-04 -1.009487696787e-03 0.0 
-1.009487696787e-03 2.574412855484e-03 0.0 
0.0 0.0 0.0 
6.135280718023e-04 -1.168086238601e-03 0.0 
-1.168086238601e-03 2.253371478213e-03 0.0 
0.0 0.0 0.0 
5.197451226999e-04 -1.002981821207e-03 0.0 
-1.002981821207e-03 2.588109310679e-03 0.0 
0.0 0.0 0.0 
1.470297827693e-03 2.443391252542e-03 0.0 
2.443391252542e-03 5.122560766136e-03 0.0 
0.0 0.0 0.0 
3.844740479709e-04 -1.114213336082e-03 0.0 
-1.114213336082e-03 2.293138039517e-03 0.0 
0.0 0.0 0.0 
4.504144796291e-04 -1.300220895911e-03 0.0 
-1.300220895911e-03 1.972855835949e-03 0.0 
0.0 0.0 0.0 
3.317381734489e-04 -9.437822434914e-04 0.0 
-9.437822434914e-04 2.585063145546e-03 0.0 
0.0 0.0 0.0 
4.399641446690e-04 -8.481004563660e-04 0.0 
-8.481004563660e-04 2.895559961054e-03 0.0 
0.0 0.0 0.0 
2.031337165734e-04 -1.006439466992e-03 0.0 
-1.006439466992e-03 2.299891081682e-03 0.0 
0.0 0.0 0.0 
1.849465972805e-04 -8.448132644850e-04 0.0 
-8.448132644850e-04 2.552293085415e-03 0.0 
0.0 0.0 0.0 
7.718344652415e-05 -8.635321552699e-04 0.0 
-8.635321552699e-04 2.263791648841e-03 0.0 
0.0 0.0 0.0 
1.580377939605e-03 2.458419875666e-03 0.0 
2.458419875666e-03 2.844905086805e-03 0.0 
0.0 0.0 0.0 
-1.965145358256e-04 2.949842851324e-03 0.0 
2.949842851324e-03 9.951817591081e-03 0.0 
0.0 0.0 0.0 
8.401080957302e-05 -7.192181072681e-04 0.0 
-7.192181072681e-04 2.482298075795e-03 0.0 
0.0 0.0 0.0 
8.379994860327e-06 -7.031558534346e-04 0.0 
-7.031558534346e-04 2.177769982791e-03 0.0 
0.0 0.0 0.0 
-2.609751850463e-05 -8.353216587460e-04 0.0 
-8.353216587460e-04 1.982742600371e-03 0.0 
0.0 0.0 0.0 
-4.614547178154e-05 -6.445830151835e-04 0.0 
-6.445830151835e-04 1.866903653226e-03 0.0 
0.0 0.0 0.0 
-1.909132695727e-03 1.471251396008e-03 0.0 
1.471251396008e-03 1.423670637348e-02 0.0 
0.0 0.0 0.0 
-1.749450037328e-03 1.658319175973e-03 0.0 
1.658319175973e-03 1.440761178718e-02 0.0 
0.0 0.0 0.0 
-1.834051157027e-03 1.329128252788e-03 0.0 
1.329128252788e-03 1.456654327375e-02 0.0 
0.0 0.0 0.0 
-1.673026027073e-03 1.543781764838e-03 0.0 
1.543781764838e-03 1.475626108690e-02 0.0 
0.0 0.0 0.0 
-1.735127182567e-03 1.236512794869e-03 0.0 
1.236512794869e-03 1.485859277511e-02 0.0 
0.0 0.0 0.0 
-7.964823482883e-06 -5.441741078867e-04 0.0 
-5.441741078867e-04 2.041704203351e-03 0.0 
0.0 0.0 0.0 
-1.166370104708e-03 2.573456003051e-03 0.0 
2.573456003051e-03 1.294737005605e-02 0.0 
0.0 0.0 0.0 
-1.560224611883e-03 1.843283032290e-03 0.0 
1.843283032290e-03 1.457580345149e-02 0.0 
0.0 0.0 0.0 
-4.434798898017e-04 2.879901310533e-03 0.0 
2.879901310533e-03 9.031901302306e-03 0.0 
0.0 0.0 0.0 
5.333388254409e-04 2.857593215969e-03 0.0 
2.857593215969e-03 5.972484201445e-03 0.0 
0.0 0.0 0.0 
2.305269685824e-03 1.219938010806e-03 0.0 
1.219938010806e-03 2.672606891686e-03 0.0 
0.0 0.0 0.0 
1.652633829144e-04 -6.983786156385e-04 0.0 
-6.983786156385e-04 2.791134398387e-03 0.0 
0.0 0.0 0.0 
8.337513598936e-05 -5.886726754821e-04 0.0 
-5.886726754821e-04 2.694353200976e-03 0.0 
0.0 0.0 0.0 
1.443584753293e-04 -5.660720638813e-04 0.0 
-5.660720638813e-04 3.018062910476e-03 0.0 
0.0 0.0 0.0 
1.233760037420e-03 -6.198893107294e-04 0.0 
-6.198893107294e-04 3.005987644440e-03 0.0 
0.0 0.0 0.0 
1.052025488242e-03 -5.550070228745e-04 0.0 
-5.550070228745e-04 3.382553192900e-03 0.0 
0.0 0.0 0.0 
1.217239226075e-03 -4.069301799119e-04 0.0 
-4.069301799119e-04 3.471650787330e-03 0.0 
0.0 0.0 0.0 
1.033616349944e-03 -3.620695119075e-04 0.0 
-3.620695119075e-04 3.835471511832e-03 0.0 
0.0 0.0 0.0 
1.163313250231e-03 -2.062470038416e-04 0.0 
-2.062470038416e-04 3.961065125028e-03 0.0 
0.0 0.0 0.0 
9.800770226849e-04 -1.805733672517e-04 0.0 
-1.805733672517e-04 4.312923386590e-03 0.0 
0.0 0.0 0.0 
8.648826880705e-04 -3.095520298498e-04 0.0 
-3.095520298498e-04 4.183847503356e-03 0.0 
0.0 0.0 0.0 
8.108951473940e-04 -1.490379237883e-04 0.0 
-1.490379237883e-04 4.652662339827e-03 0.0 
0.0 0.0 0.0 
7.117654509541e-04 -2.547240919181e-04 0.0 
-2.547240919181e-04 4.516054337683e-03 0.0 
0.0 0.0 0.0 
1.074363060104e-03 -2.128729233120e-05 0.0 
-2.128729233120e-05 4.471922716720e-03 0.0 
0.0 0.0 0.0 
1.266907615508e-03 -1.890042404990e-05 0.0 
-1.890042404990e-05 4.124258173020e-03 0.0 
0.0 0.0 0.0 
6.575590363537e-04 -1.158282923568e-04 0.0 
-1.158282923568e-04 4.978251289666e-03 0.0 
0.0 0.0 0.0 
5.746759958840e-04 -2.012051719293e-04 0.0 
-2.012051719293e-04 4.832311370111e-03 0.0 
0.0 0.0 0.0 
5.212149053994e-04 -8.335560578723e-05 0.0 
-8.335560578723e-05 5.289815811461e-03 0.0 
0.0 0.0 0.0 
4.541868132965e-04 -1.521273426415e-04 0.0 
-1.521273426415e-04 5.132674994254e-03 0.0 
0.0 0.0 0.0 
4.843468373765e-04 -2.604137153502e-04 0.0 
-2.604137153502e-04 4.697226282687e-03 0.0 
0.0 0.0 0.0 
3.820714062836e-04 -1.976467316568e-04 0.0 
-1.976467316568e-04 4.982095184150e-03 0.0 
0.0 0.0 0.0 
3.933429274711e-04 -2.932941650736e-04 0.0 
-2.932941650736e-04 4.567886652784e-03 0.0 
0.0 0.0 0.0 
2.281069516382e-03 9.602771047032e-04 0.0 
9.602771047032e-04 2.749286897065e-03 0.0 
0.0 0.0 0.0 
2.174521658729e-03 1.294929169521e-03 0.0 
1.294929169521e-03 3.314035128406e-03 0.0 
0.0 0.0 0.0 
2.132072480852e-03 1.072003764560e-03 0.0 
1.072003764560e-03 3.392713617544e-03 0.0 
0.0 0.0 0.0 
2.017061723919e-03 1.384374561700e-03 0.0 
1.384374561700e-03 3.948470974946e-03 0.0 
0.0 0.0 0.0 
1.956693386729e-03 1.191323794121e-03 0.0 
1.191323794121e-03 4.030671994425e-03 0.0 
0.0 0.0 0.0 
1.830047872307e-03 1.485433274172e-03 0.0 
1.485433274172e-03 4.581352365654e-03 0.0 
0.0 0.0 0.0 
1.750792760833e-03 1.316727954077e-03 0.0 
1.316727954077e-03 4.666967823372e-03 0.0 
0.0 0.0 0.0 
1.851767211917e-03 1.022854539861e-03 0.0 
1.022854539861e-03 4.174534263306e-03 0.0 
0.0 0.0 0.0 
-8.042870496977e-04 2.815441260153e-03 0.0 
2.815441260153e-03 1.186272395432e-02 0.0 
0.0 0.0 0.0 
2.546391993156e-03 1.134318156121e-03 0.0 
1.134318156121e-03 6.773915504207e-04 0.0 
0.0 0.0 0.0 
2.379020282736e-03 1.595602495427e-03 0.0 
1.595602495427e-03 7.761722106132e-04 0.0 
0.0 0.0 0.0 
2.575589896668e-03 1.176645295039e-03 0.0 
1.176645295039e-03 -3.004495520801e-05 0.0 
0.0 0.0 0.0 
2.340058095437e-03 1.719400408777e-03 0.0 
1.719400408777e-03 1.242066611763e-04 0.0 
0.0 0.0 0.0 
2.573057126977e-03 1.276341212463e-03 0.0 
1.276341212463e-03 -7.680729010994e-04 0.0 
0.0 0.0 0.0 
2.243242297456e-03 1.914165046914e-03 0.0 
1.914165046914e-03 -5.284130589635e-04 0.0 
0.0 0.0 0.0 
2.528155642298e-03 1.452112042222e-03 0.0 
1.452112042222e-03 -1.540760037555e-03 0.0 
0.0 0.0 0.0 
2.749622467945e-03 6.843914042558e-04 0.0 
6.843914042558e-04 -1.591017037015e-03 0.0 
0.0 0.0 0.0 
2.755670854363e-03 7.847582515542e-04 0.0 
7.847582515542e-04 -2.493609292066e-03 0.0 
0.0 0.0 0.0 
2.801542956774e-03 -7.059843434084e-05 0.0 
-7.059843434084e-05 -2.247075441511e-03 0.0 
0.0 0.0 0.0 
2.811348234112e-03 -1.021562552844e-04 0.0 
-1.021562552844e-04 -3.189594833845e-03 0.0 
0.0 0.0 0.0 
2.649816906464e-03 -9.349319607726e-04 0.0 
-9.349319607726e-04 -2.630228312527e-03 0.0 
0.0 0.0 0.0 
7.503324137376e-04 2.804348022999e-03 0.0 
2.804348022999e-03 7.099944548745e-03 0.0 
0.0 0.0 0.0 
1.863784521774e-03 1.672055038882e-03 0.0 
1.672055038882e-03 4.556224737712e-03 0.0 
0.0 0.0 0.0 
1.668271041809e-03 1.762855772744e-03 0.0 
1.762855772744e-03 5.181796181210e-03 0.0 
0.0 0.0 0.0 
1.682889379306e-03 1.934675741596e-03 0.0 
1.934675741596e-03 5.200334195796e-03 0.0 
0.0 0.0 0.0 
-1.021467682087e-04 -7.519527476477e-04 0.0 
-7.519527476477e-04 1.693876711670e-03 0.0 
0.0 0.0 0.0 
3.507665216875e-04 -1.093364090765e-04 0.0 
-1.093364090765e-04 5.417054963267e-03 0.0 
0.0 0.0 0.0 
1.140136286595e-03 1.636459134452e-04 0.0 
1.636459134452e-04 4.669007505708e-03 0.0 
0.0 0.0 0.0 
1.336300964568e-03 1.936612465574e-04 0.0 
1.936612465574e-04 4.331014938331e-03 0.0 
0.0 0.0 0.0 
1.631761832200e-03 1.168409696322e-03 0.0 
1.168409696322e-03 4.813898576920e-03 0.0 
0.0 0.0 0.0 
-1.404159877379e-05 -4.727850474551e-04 0.0 
-4.727850474551e-04 1.699117940892e-03 0.0 
0.0 0.0 0.0 
2.061033822572e-03 2.183713176571e-03 0.0 
2.183713176571e-03 -1.164334784842e-03 0.0 
0.0 0.0 0.0 
1.728483824425e-03 2.485300480925e-03 0.0 
2.485300480925e-03 -3.658318270816e-05 0.0 
0.0 0.0 0.0 
-1.563327175799e-03 1.448888438658e-03 0.0 
1.448888438658e-03 1.505936862768e-02 0.0 
0.0 0.0 0.0 
-1.611517663266e-03 1.166226078203e-03 0.0 
1.166226078203e-03 1.511701231959e-02 0.0 
0.0 0.0 0.0 
1.170690760523e-03 3.701910617535e-04 0.0 
3.701910617535e-04 4.909428701944e-03 0.0 
0.0 0.0 0.0 
1.840276267484e-05 -3.982406467208e-04 0.0 
-3.982406467208e-04 1.866153243090e-03 0.0 
0.0 0.0 0.0 
7.258526855071e-04 -4.441713526011e-06 0.0 
-4.441713526011e-06 5.143652573167e-03 0.0 
0.0 0.0 0.0 
2.635698308381e-03 9.026665767222e-04 0.0 
9.026665767222e-04 -3.296777390886e-03 0.0 
0.0 0.0 0.0 
2.956347211403e-04 -1.425606873129e-04 0.0 
-1.425606873129e-04 5.250693485238e-03 0.0 
0.0 0.0 0.0 
2.642330944576e-04 -7.299844742135e-05 0.0 
-7.299844742135e-05 5.684022336337e-03 0.0 
0.0 0.0 0.0 
7.369720291623e-04 -4.046344468607e-04 0.0 
-4.046344468607e-04 4.076883764146e-03 0.0 
0.0 0.0 0.0 
1.481225139948e-03 2.022140230494e-03 0.0 
2.022140230494e-03 5.818702193706e-03 0.0 
0.0 0.0 0.0 
1.481030324498e-03 2.170662610922e-03 0.0 
2.170662610922e-03 5.871868820456e-03 0.0 
0.0 0.0 0.0 
2.625797215087e-03 -7.323213700293e-04 0.0 
-7.323213700293e-04 -1.733324321637e-03 0.0 
0.0 0.0 0.0 
2.290904623246e-03 -1.494443050003e-03 0.0 
-1.494443050003e-03 -1.831912568591e-03 0.0 
0.0 0.0 0.0 
2.179562560938e-03 -1.751820565761e-03 0.0 
-1.751820565761e-03 -2.533929403218e-03 0.0 
0.0 0.0 0.0 
1.711130225583e-03 -2.121242519564e-03 0.0 
-2.121242519564e-03 -1.551621287029e-03 0.0 
0.0 0.0 0.0 
1.914256849183e-03 -1.760068770397e-03 0.0 
-1.760068770397e-03 -1.002453634232e-03 0.0 
0.0 0.0 0.0 
1.341772017668e-03 -2.180548756042e-03 0.0 
-2.180548756042e-03 -6.977046765238e-04 0.0 
0.0 0.0 0.0 
1.016455067650e-03 -2.450759741100e-03 0.0 
-2.450759741100e-03 -1.038452123469e-03 0.0 
0.0 0.0 0.0 
6.967877102699e-04 -2.361552825066e-03 0.0 
-2.361552825066e-03 -2.057663697341e-04 0.0 
0.0 0.0 0.0 
1.037072390846e-03 -2.092613068641e-03 0.0 
-2.092613068641e-03 6.157520081287e-05 0.0 
0.0 0.0 0.0 
4.840893694415e-04 -2.136226375088e-03 0.0 
-2.136226375088e-03 4.638366024746e-04 0.0 
0.0 0.0 0.0 
7.716382871572e-05 -2.213655182204e-03 0.0 
-2.213655182204e-03 3.528985088692e-04 0.0 
0.0 0.0 0.0 
6.987276492250e-06 -1.938072376336e-03 0.0 
-1.938072376336e-03 8.578841556007e-04 0.0 
0.0 0.0 0.0 
3.010623866465e-04 -3.241140684850e-05 0.0 
-3.241140684850e-05 5.867957661333e-03 0.0 
0.0 0.0 0.0 
2.582832625681e-03 -7.153326855334e-05 0.0 
-7.153326855334e-05 -3.821567023805e-03 0.0 
0.0 0.0 0.0 
-1.156003065324e-03 2.646863965671e-03 0.0 
2.646863965671e-03 1.115864776580e-02 0.0 
0.0 0.0 0.0 
9.796508671413e-04 3.254351077000e-04 0.0 
3.254351077000e-04 5.230457525565e-03 0.0 
0.0 0.0 0.0 
1.509351332117e-03 1.449423967617e-03 0.0 
1.449423967617e-03 5.305399062404e-03 0.0 
0.0 0.0 0.0 
-1.425760936679e-03 1.373367187219e-03 0.0 
1.373367187219e-03 1.532832811665e-02 0.0 
0.0 0.0 0.0 
-1.468491291682e-03 1.111687957509e-03 0.0 
1.111687957509e-03 1.534934342291e-02 0.0 
0.0 0.0 0.0 
-1.612597844161e-03 9.028715822919e-04 0.0 
9.028715822919e-04 1.510120381740e-02 0.0 
0.0 0.0 0.0 
-1.474534265387e-03 8.709460592981e-04 0.0 
8.709460592981e-04 1.530977797907e-02 0.0 
0.0 0.0 0.0 
-1.307494765410e-03 1.065498206884e-03 0.0 
1.065498206884e-03 1.555860408316e-02 0.0 
0.0 0.0 0.0 
-1.323880048276e-03 8.426338060654e-04 0.0 
8.426338060654e-04 1.550352196260e-02 0.0 
0.0 0.0 0.0 
-1.453145863246e-03 6.602400087255e-04 0.0 
6.602400087255e-04 1.522004600392e-02 0.0 
0.0 0.0 0.0 
-1.317529286202e-03 6.476051472975e-04 0.0 
6.476051472975e-04 1.540623437616e-02 0.0 
0.0 0.0 0.0 
-1.413816613226e-03 4.830942971457e-04 0.0 
4.830942971457e-04 1.509067751532e-02 0.0 
0.0 0.0 0.0 
-1.296186987965e-03 4.837456458113e-04 0.0 
4.837456458113e-04 1.527558146670e-02 0.0 
0.0 0.0 0.0 
-1.173578845055e-03 6.317891114963e-04 0.0 
6.317891114963e-04 1.558380211518e-02 0.0 
0.0 0.0 0.0 
-1.169888019498e-03 4.777140606840e-04 0.0 
4.777140606840e-04 1.545231200516e-02 0.0 
0.0 0.0 0.0 
-1.267810432230e-03 3.502792890629e-04 0.0 
3.502792890629e-04 1.511989428131e-02 0.0 
0.0 0.0 0.0 
-1.160079096803e-03 3.497777365704e-04 0.0 
3.497777365704e-04 1.530059365379e-02 0.0 
0.0 0.0 0.0 
-1.239172639072e-03 2.445210615619e-04 0.0 
2.445210615619e-04 1.494804901875e-02 0.0 
0.0 0.0 0.0 
-1.148991621335e-03 2.467103404344e-04 0.0 
2.467103404344e-04 1.513297639987e-02 0.0 
0.0 0.0 0.0 
-1.045429387174e-03 3.397783368135e-04 0.0 
3.397783368135e-04 1.547480187540e-02 0.0 
0.0 0.0 0.0 
5.819229253460e-05 -3.327096261095e-04 0.0 
-3.327096261095e-04 1.498842708532e-03 0.0 
0.0 0.0 0.0 
1.709997646009e-03 8.811576270277e-04 0.0 
8.811576270277e-04 4.370065250563e-03 0.0 
0.0 0.0 0.0 
1.476697488388e-03 1.041655521209e-03 0.0 
1.041655521209e-03 5.013120953566e-03 0.0 
0.0 0.0 0.0 
7.815752746176e-05 -4.730589436360e-04 0.0 
-4.730589436360e-04 2.905316874354e-03 0.0 
0.0 0.0 0.0 
1.259656712883e-04 -4.474347503730e-04 0.0 
-4.474347503730e-04 3.232796325217e-03 0.0 
0.0 0.0 0.0 
2.033094381954e-04 -5.184400964136e-04 0.0 
-5.184400964136e-04 3.352734054646e-03 0.0 
0.0 0.0 0.0 
1.685939564049e-04 -4.019196754243e-04 0.0 
-4.019196754243e-04 3.583856796041e-03 0.0 
0.0 0.0 0.0 
-1.053452866428e-03 2.380871257858e-04 0.0 
2.380871257858e-04 1.531140274911e-02 0.0 
0.0 0.0 0.0 
-9.274348904726e-04 3.178874782569e-04 0.0 
3.178874782569e-04 1.564370926128e-02 0.0 
0.0 0.0 0.0 
1.398033116963e-03 2.776637998489e-03 0.0 
2.776637998489e-03 -4.817735537596e-04 0.0 
0.0 0.0 0.0 
1.072509519439e-03 2.911145429253e-03 0.0 
2.911145429253e-03 6.731110212677e-04 0.0 
0.0 0.0 0.0 
-1.342017176227e-03 1.647941985261e-03 0.0 
1.647941985261e-03 1.524252699364e-02 0.0 
0.0 0.0 0.0 
2.240997793155e-04 -9.600479480019e-05 0.0 
-9.600479480019e-05 5.504391017847e-03 0.0 
0.0 0.0 0.0 
2.405215431328e-04 -1.551047946418e-04 0.0 
-1.551047946418e-04 5.087317701078e-03 0.0 
0.0 0.0 0.0 
7.471744636445e-04 2.813644497817e-03 0.0 
2.813644497817e-03 5.117949608945e-03 0.0 
0.0 0.0 0.0 
3.628296927990e-04 2.875610950262e-03 0.0 
2.875610950262e-03 5.661813964355e-03 0.0 
0.0 0.0 0.0 
5.496780988283e-04 2.854453915903e-03 0.0 
2.854453915903e-03 4.803685168461e-03 0.0 
0.0 0.0 0.0 
1.231966200332e-04 2.881060469443e-03 0.0 
2.881060469443e-03 5.390963915669e-03 0.0 
0.0 0.0 0.0 
-2.972921378600e-05 2.881703266482e-03 0.0 
2.881703266482e-03 6.239389094953e-03 0.0 
0.0 0.0 0.0 
2.698429631160e-04 2.889809441898e-03 0.0 
2.889809441898e-03 4.531547603940e-03 0.0 
0.0 0.0 0.0 
1.467599386218e-03 -3.063114785837e-06 0.0 
-3.063114785837e-06 3.768921272806e-03 0.0 
0.0 0.0 0.0 
-1.022824448121e-03 6.085833235350e-04 0.0 
6.085833235350e-04 1.575099686437e-02 0.0 
0.0 0.0 0.0 
-7.599662177345e-05 -9.806016900195e-04 0.0 
-9.806016900195e-04 1.784365389174e-03 0.0 
0.0 0.0 0.0 
-1.803011639838e-04 -8.662665595862e-04 0.0 
-8.662665595862e-04 1.524672122677e-03 0.0 
0.0 0.0 0.0 
1.935268859473e-04 -4.374504039846e-05 0.0 
-4.374504039846e-05 5.937113428294e-03 0.0 
0.0 0.0 0.0 
1.906852908730e-03 7.185713120187e-04 0.0 
7.185713120187e-04 3.739376556477e-03 0.0 
0.0 0.0 0.0 
5.107580133402e-04 2.875278072811e-03 0.0 
2.875278072811e-03 7.917232286144e-03 0.0 
0.0 0.0 0.0 
7.482305271992e-04 2.809981311456e-03 0.0 
2.809981311456e-03 7.521759132142e-03 0.0 
0.0 0.0 0.0 
5.122583848547e-04 2.895591966242e-03 0.0 
2.895591966242e-03 8.324897618057e-03 0.0 
0.0 0.0 0.0 
7.156447180044e-04 2.837807408270e-03 0.0 
2.837807408270e-03 7.959776161899e-03 0.0 
0.0 0.0 0.0 
4.873270126718e-04 2.939458740015e-03 0.0 
2.939458740015e-03 8.749404613446e-03 0.0 
0.0 0.0 0.0 
6.514423166009e-04 2.892989008438e-03 0.0 
2.892989008438e-03 8.414993974754e-03 0.0 
0.0 0.0 0.0 
8.787909944366e-04 2.762204343445e-03 0.0 
2.762204343445e-03 7.648946203076e-03 0.0 
0.0 0.0 0.0 
1.279155856594e-03 2.265802228215e-03 0.0 
2.265802228215e-03 6.481394628105e-03 0.0 
0.0 0.0 0.0 
7.720719145656e-04 2.833533582592e-03 0.0 
2.833533582592e-03 8.142119701952e-03 0.0 
0.0 0.0 0.0 
-1.142256551686e-03 1.689022042403e-04 0.0 
1.689022042403e-04 1.495148440433e-02 0.0 
0.0 0.0 0.0 
1.850008097764e-03 1.868046425623e-03 0.0 
1.868046425623e-03 4.589683249373e-03 0.0 
0.0 0.0 0.0 
8.150403260423e-04 -1.911666417200e-03 0.0 
-1.911666417200e-03 6.876150749099e-04 0.0 
0.0 0.0 0.0 
2.389435811554e-05 -3.748329213485e-04 0.0 
-3.748329213485e-04 1.337061299004e-03 0.0 
0.0 0.0 0.0 
-3.424728782490e-04 -1.795078135121e-03 0.0 
-1.795078135121e-03 7.985063775920e-04 0.0 
0.0 0.0 0.0 
7.325866375666e-05 -2.734602586655e-04 0.0 
-2.734602586655e-04 1.652186390146e-03 0.0 
0.0 0.0 0.0 
3.343852782001e-05 -3.220820810648e-04 0.0 
-3.220820810648e-04 2.037326709982e-03 0.0 
0.0 0.0 0.0 
9.705991635119e-04 5.264392500474e-04 0.0 
5.264392500474e-04 5.501267609714e-03 0.0 
0.0 0.0 0.0 
4.352465586467e-04 3.015881482445e-03 0.0 
3.015881482445e-03 9.192808194277e-03 0.0 
0.0 0.0 0.0 
2.740302876579e-04 3.028194389759e-03 0.0 
3.028194389759e-03 9.527277263961e-03 0.0 
0.0 0.0 0.0 
-2.958419364423e-04 2.851333451445e-03 0.0 
2.851333451445e-03 6.013366732876e-03 0.0 
0.0 0.0 0.0 
-4.157445796767e-04 2.823950252353e-03 0.0 
2.823950252353e-03 6.843875825928e-03 0.0 
0.0 0.0 0.0 
1.243263479506e-03 2.128634356529e-03 0.0 
2.128634356529e-03 6.442853903832e-03 0.0 
0.0 0.0 0.0 
-1.842926058142e-03 1.013236538845e-03 0.0 
1.013236538845e-03 1.463170427461e-02 0.0 
0.0 0.0 0.0 
-1.521989468903e-03 4.793016480112e-04 0.0 
4.793016480112e-04 1.489894298305e-02 0.0 
0.0 0.0 0.0 
-1.450434667218e-03 3.271012467535e-04 0.0 
3.271012467535e-04 1.473491364260e-02 0.0 
0.0 0.0 0.0 
1.625675709045e-04 -2.140377731605e-04 0.0 
-2.140377731605e-04 1.205019268244e-03 0.0 
0.0 0.0 0.0 
-3.143399066658e-04 -2.077129973980e-03 0.0 
-2.077129973980e-03 3.773303886201e-04 0.0 
0.0 0.0 0.0 
-1.135604625117e-03 1.020240217704e-03 0.0 
1.020240217704e-03 1.575081097934e-02 0.0 
0.0 0.0 0.0 
1.425788941675e-03 2.654587665289e-03 0.0 
2.654587665289e-03 1.029289665068e-03 0.0 
0.0 0.0 0.0 
8.068466656187e-04 2.940024113844e-03 0.0 
2.940024113844e-03 1.731920212534e-03 0.0 
0.0 0.0 0.0 
2.187580271794e-03 1.046052491276e-03 0.0 
1.046052491276e-03 -3.722431213383e-03 0.0 
0.0 0.0 0.0 
1.940241076266e-03 2.937727000386e-06 0.0 
2.937727000386e-06 -4.173803054151e-03 0.0 
0.0 0.0 0.0 
-9.538394855269e-04 2.209220968172e-04 0.0 
2.209220968172e-04 1.548370770473e-02 0.0 
0.0 0.0 0.0 
-8.110528870169e-04 2.821870385967e-04 0.0 
2.821870385967e-04 1.580195392585e-02 0.0 
0.0 0.0 0.0 
2.527704206133e-04 -4.550923809546e-04 0.0 
-4.550923809546e-04 3.700907009775e-03 0.0 
0.0 0.0 0.0 
2.046648314722e-04 -3.472129144903e-04 0.0 
-3.472129144903e-04 3.940455235343e-03 0.0 
0.0 0.0 0.0 
1.162074618158e-03 5.952348528763e-04 0.0 
5.952348528763e-04 5.201487192784e-03 0.0 
0.0 0.0 0.0 
-3.032039940035e-04 -1.569173908957e-03 0.0 
-1.569173908957e-03 1.122804001591e-03 0.0 
0.0 0.0 0.0 
-7.642544743805e-04 3.964624899333e-04 0.0 
3.964624899333e-04 1.594393770907e-02 0.0 
0.0 0.0 0.0 
1.742930881730e-03 5.919156769439e-04 0.0 
5.919156769439e-04 3.988542438913e-03 0.0 
0.0 0.0 0.0 
1.911796768435e-03 4.089376972565e-04 0.0 
4.089376972565e-04 3.371265649558e-03 0.0 
0.0 0.0 0.0 
1.018041870964e-04 -3.257035478618e-04 0.0 
-3.257035478618e-04 3.447137207151e-03 0.0 
0.0 0.0 0.0 
5.891851535919e-04 3.130052582221e-03 0.0 
3.130052582221e-03 4.512124572744e-04 0.0 
0.0 0.0 0.0 
9.068836391397e-04 2.987690693401e-03 0.0 
2.987690693401e-03 -7.328150971738e-04 0.0 
0.0 0.0 0.0 
1.289916666830e-03 -1.782450303484e-03 0.0 
-1.782450303484e-03 4.110650062325e-04 0.0 
0.0 0.0 0.0 
-1.526231021102e-06 -1.664762525343e-03 0.0 
-1.664762525343e-03 1.239301855500e-03 0.0 
0.0 0.0 0.0 
7.631478848869e-05 -2.158431031368e-04 0.0 
-2.158431031368e-04 1.823801372229e-03 0.0 
0.0 0.0 0.0 
9.236572612932e-04 7.484091434230e-04 0.0 
7.484091434230e-04 5.819439924989e-03 0.0 
0.0 0.0 0.0 
-1.082339646041e-03 1.248169066447e-03 0.0 
1.248169066447e-03 1.577289360275e-02 0.0 
0.0 0.0 0.0 
9.917056746258e-04 2.670882369544e-03 0.0 
2.670882369544e-03 7.401446455427e-03 0.0 
0.0 0.0 0.0 
1.110370163131e-03 2.618109452998e-03 0.0 
2.618109452998e-03 6.884208270159e-03 0.0 
0.0 0.0 0.0 
8.440923183583e-04 2.757992136280e-03 0.0 
2.757992136280e-03 7.925776759917e-03 0.0 
0.0 0.0 0.0 
-5.103097480146e-04 -1.306382984628e-03 0.0 
-1.306382984628e-03 9.991505215609e-04 0.0 
0.0 0.0 0.0 
7.806389422973e-04 4.621708299756e-04 0.0 
4.621708299756e-04 5.818908018529e-03 0.0 
0.0 0.0 0.0 
1.667671225242e-04 -5.862004016192e-05 0.0 
-5.862004016192e-05 5.744417321096e-03 0.0 
0.0 0.0 0.0 
2.343167736785e-04 3.127287101571e-03 0.0 
3.127287101571e-03 9.944980035191e-03 0.0 
0.0 0.0 0.0 
8.462147695902e-05 3.105272015754e-03 0.0 
3.105272015754e-03 1.028489959619e-02 0.0 
0.0 0.0 0.0 
1.162394083118e-03 2.747898988713e-03 0.0 
2.747898988713e-03 2.028219082054e-03 0.0 
0.0 0.0 0.0 
5.942701670813e-04 2.925611559984e-03 0.0 
2.925611559984e-03 2.715209872663e-03 0.0 
0.0 0.0 0.0 
1.455282162051e-04 3.065479567927e-03 0.0 
3.065479567927e-03 2.534887273554e-03 0.0 
0.0 0.0 0.0 
1.337031406109e-05 2.989692036321e-03 0.0 
2.989692036321e-03 3.456036986109e-03 0.0 
0.0 0.0 0.0 
-1.598528185302e-03 2.313911965114e-03 0.0 
2.313911965114e-03 1.239264615157e-02 0.0 
0.0 0.0 0.0 
9.345362410185e-04 2.797391251845e-03 0.0 
2.797391251845e-03 2.984214119257e-03 0.0 
0.0 0.0 0.0 
-9.650921708988e-04 2.736423654030e-03 0.0 
2.736423654030e-03 1.038957871475e-02 0.0 
0.0 0.0 0.0 
-1.270062130442e-03 2.584231206402e-03 0.0 
2.584231206402e-03 1.094291167624e-02 0.0 
0.0 0.0 0.0 
-1.082722605922e-03 2.678937579312e-03 0.0 
2.678937579312e-03 1.015864817480e-02 0.0 
0.0 0.0 0.0 
-1.969952903969e-04 2.872841200595e-03 0.0 
2.872841200595e-03 7.080318683219e-03 0.0 
0.0 0.0 0.0 
-5.553560151432e-04 2.800643437576e-03 0.0 
2.800643437576e-03 7.675999120548e-03 0.0 
0.0 0.0 0.0 
2.084719126830e-03 2.047192631757e-03 0.0 
2.047192631757e-03 1.038479011071e-03 0.0 
0.0 0.0 0.0 
2.158998677727e-03 1.541453219019e-03 0.0 
1.541453219019e-03 3.310213307200e-03 0.0 
0.0 0.0 0.0 
3.077596772787e-04 -5.740008224932e-04 0.0 
-5.740008224932e-04 3.448812993763e-03 0.0 
0.0 0.0 0.0 
4.914593114891e-04 -3.754318471614e-04 0.0 
-3.754318471614e-04 4.284316778006e-03 0.0 
0.0 0.0 0.0 
1.413627559123e-03 -4.369862799414e-04 0.0 
-4.369862799414e-04 3.092913492707e-03 0.0 
0.0 0.0 0.0 
-9.976941876160e-04 7.788498004652e-04 0.0 
7.788498004652e-04 1.585581260952e-02 0.0 
0.0 0.0 0.0 
-8.263533915845e-04 7.358849438222e-04 0.0 
7.358849438222e-04 1.601654121331e-02 0.0 
0.0 0.0 0.0 
-1.319728450702e-03 2.330512309353e-04 0.0 
2.330512309353e-04 1.475418580290e-02 0.0 
0.0 0.0 0.0 
-1.276729122133e-03 1.492691222301e-04 0.0 
1.492691222301e-04 1.456414834546e-02 0.0 
0.0 0.0 0.0 
-1.260264917205e-04 -6.125293282965e-04 0.0 
-6.125293282965e-04 1.376882161104e-03 0.0 
0.0 0.0 0.0 
-2.221599511926e-04 -6.798148633434e-04 0.0 
-6.798148633434e-04 1.232266860804e-03 0.0 
0.0 0.0 0.0 
8.738414820662e-04 -6.587558462254e-04 0.0 
-6.587558462254e-04 3.321029270429e-03 0.0 
0.0 0.0 0.0 
7.950080994621e-04 2.879852612192e-04 0.0 
2.879852612192e-04 5.549418276783e-03 0.0 
0.0 0.0 0.0 
-1.183721421133e-03 1.565607097294e-03 0.0 
1.565607097294e-03 1.551378885821e-02 0.0 
0.0 0.0 0.0 
-1.070077646375e-03 1.839889271332e-03 0.0 
1.839889271332e-03 1.540494230997e-02 0.0 
0.0 0.0 0.0 
-1.220515337294e-03 1.926995537763e-03 0.0 
1.926995537763e-03 1.509619009280e-02 0.0 
0.0 0.0 0.0 
1.116306571751e-03 8.378264272141e-04 0.0 
8.378264272141e-04 5.534081057338e-03 0.0 
0.0 0.0 0.0 
2.662316525704e-03 6.593850075037e-04 0.0 
6.593850075037e-04 8.937576738181e-06 0.0 
0.0 0.0 0.0 
2.199776485383e-03 7.365252879877e-04 0.0 
7.365252879877e-04 2.900510675312e-03 0.0 
0.0 0.0 0.0 
2.133364350699e-03 -1.076036697778e-03 0.0 
-1.076036697778e-03 -3.847732704043e-03 0.0 
0.0 0.0 0.0 
1.230881424040e-03 2.588101203101e-03 0.0 
2.588101203101e-03 5.917560942873e-03 0.0 
0.0 0.0 0.0 
-7.142552496679e-05 -4.386718522210e-04 0.0 
-4.386718522210e-04 1.015971386068e-03 0.0 
0.0 0.0 0.0 
-3.878008183396e-04 2.945882656858e-03 0.0 
2.945882656858e-03 1.071148489867e-02 0.0 
0.0 0.0 0.0 
1.383208091929e-04 -2.198123904457e-05 0.0 
-2.198123904457e-05 6.177822687018e-03 0.0 
0.0 0.0 0.0 
1.517388593797e-04 -1.678400613924e-06 0.0 
-1.678400613924e-06 6.380743799700e-03 0.0 
0.0 0.0 0.0 
1.035887812107e-03 2.373765101201e-03 0.0 
2.373765101201e-03 7.087101568058e-03 0.0 
0.0 0.0 0.0 
-1.965429595835e-03 1.873768451774e-03 0.0 
1.873768451774e-03 1.275273441283e-02 0.0 
0.0 0.0 0.0 
1.423587233233e-03 2.439940915887e-03 0.0 
2.439940915887e-03 5.622872518405e-03 0.0 
0.0 0.0 0.0 
1.653155705429e-03 2.257847005498e-03 0.0 
2.257847005498e-03 4.861054072359e-03 0.0 
0.0 0.0 0.0 
-1.389383809003e-03 2.509094426905e-03 0.0 
2.509094426905e-03 1.073372901311e-02 0.0 
0.0 0.0 0.0 
-1.202909555042e-03 2.598453296435e-03 0.0 
2.598453296435e-03 9.945170911291e-03 0.0 
0.0 0.0 0.0 
-8.915619006902e-04 2.740335131391e-03 0.0 
2.740335131391e-03 9.351825621463e-03 0.0 
0.0 0.0 0.0 
-1.038494378008e-03 2.650520278499e-03 0.0 
2.650520278499e-03 9.127118513529e-03 0.0 
0.0 0.0 0.0 
1.060875863186e-03 -1.660727019319e-03 0.0 
-1.660727019319e-03 9.812198310615e-04 0.0 
0.0 0.0 0.0 
6.571709246578e-04 -1.703805225280e-03 0.0 
-1.703805225280e-03 1.194967275454e-03 0.0 
0.0 0.0 0.0 
3.465360737807e-04 3.156580990880e-03 0.0 
3.156580990880e-03 9.696788477813e-03 0.0 
0.0 0.0 0.0 
6.390401903235e-04 2.956293312476e-03 0.0 
2.956293312476e-03 8.643453817835e-03 0.0 
0.0 0.0 0.0 
8.514325951501e-05 3.235910005598e-03 0.0 
3.235910005598e-03 1.067062668011e-02 0.0 
0.0 0.0 0.0 
-6.572797524638e-05 3.183800030690e-03 0.0 
3.183800030690e-03 1.103009308574e-02 0.0 
0.0 0.0 0.0 
9.717585016555e-04 2.248711541155e-03 0.0 
2.248711541155e-03 7.067951099429e-03 0.0 
0.0 0.0 0.0 
1.175259593929e-03 1.988477790995e-03 0.0 
1.988477790995e-03 6.452027671825e-03 0.0 
0.0 0.0 0.0 
3.698022199198e-05 -2.453689663038e-04 0.0 
-2.453689663038e-04 2.201432029845e-03 0.0 
0.0 0.0 0.0 
-7.887023911896e-04 2.710170932413e-03 0.0 
2.710170932413e-03 7.465789562788e-03 0.0 
0.0 0.0 0.0 
-8.919402793653e-04 1.187254773612e-03 0.0 
1.187254773612e-03 1.596591604147e-02 0.0 
0.0 0.0 0.0 
-1.561037469338e-03 2.374872212855e-03 0.0 
2.374872212855e-03 1.149548826310e-02 0.0 
0.0 0.0 0.0 
5.976788299265e-04 3.986592544290e-04 0.0 
3.986592544290e-04 6.116996583553e-03 0.0 
0.0 0.0 0.0 
6.246867345992e-04 2.542816787478e-04 0.0 
2.542816787478e-04 5.872323799320e-03 0.0 
0.0 0.0 0.0 
1.304423617341e-03 -9.878566109636e-04 0.0 
-9.878566109636e-04 -4.230585220405e-03 0.0 
0.0 0.0 0.0 
1.278648246188e-03 -2.099771755916e-03 0.0 
-2.099771755916e-03 -3.283228899322e-03 0.0 
0.0 0.0 0.0 
-6.333602368763e-04 3.414710753459e-04 0.0 
3.414710753459e-04 1.609671476456e-02 0.0 
0.0 0.0 0.0 
-5.023708290371e-04 3.040598028408e-03 0.0 
3.040598028408e-03 3.352123113887e-03 0.0 
0.0 0.0 0.0 
-5.561589094783e-04 2.927475985412e-03 0.0 
2.927475985412e-03 4.189430009941e-03 0.0 
0.0 0.0 0.0 
-3.897254320356e-04 3.143466302966e-03 0.0 
3.143466302966e-03 2.444635848995e-03 0.0 
0.0 0.0 0.0 
3.729199930091e-05 6.371622919486e-06 0.0 
6.371622919486e-06 7.121058710604e-03 0.0 
0.0 0.0 0.0 
-1.199113904113e-03 3.787870583779e-06 0.0 
3.787870583779e-06 1.373082584167e-02 0.0 
0.0 0.0 0.0 
1.037241466600e-04 5.823482772180e-06 0.0 
5.823482772180e-06 6.620611248078e-03 0.0 
0.0 0.0 0.0 
-3.767040834322e-04 2.861960834079e-03 0.0 
2.861960834079e-03 7.927321721280e-03 0.0 
0.0 0.0 0.0 
-5.637132195050e-04 4.730295474138e-04 0.0 
4.730295474138e-04 1.622300792607e-02 0.0 
0.0 0.0 0.0 
1.564634751735e-03 2.275285945956e-03 0.0 
2.275285945956e-03 5.405918247769e-03 0.0 
0.0 0.0 0.0 
9.631708559096e-04 2.760179513395e-03 0.0 
2.760179513395e-03 4.240180996496e-03 0.0 
0.0 0.0 0.0 
1.352011083792e-03 6.751317989081e-04 0.0 
6.751317989081e-04 4.906484449258e-03 0.0 
0.0 0.0 0.0 
-7.065490051107e-04 2.148525770983e-04 0.0 
2.148525770983e-04 1.594071326812e-02 0.0 
0.0 0.0 0.0 
-5.003076343883e-04 2.726886336786e-04 0.0 
2.726886336786e-04 1.625231995339e-02 0.0 
0.0 0.0 0.0 
-1.521009897660e-03 3.125468233788e-04 0.0 
3.125468233788e-04 1.453152918043e-02 0.0 
0.0 0.0 0.0 
-1.441365730357e-03 1.861012576542e-04 0.0 
1.861012576542e-04 1.433051412801e-02 0.0 
0.0 0.0 0.0 
-1.615876131261e-03 4.736147023119e-04 0.0 
4.736147023119e-04 1.468711020080e-02 0.0 
0.0 0.0 0.0 
2.111910443859e-03 1.879851359629e-03 0.0 
1.879851359629e-03 -2.864177841179e-03 0.0 
0.0 0.0 0.0 
1.375661410814e-03 2.200985150172e-03 0.0 
2.200985150172e-03 -3.022132919808e-03 0.0 
0.0 0.0 0.0 
-8.689354494247e-04 5.731395049550e-04 0.0 
5.731395049550e-04 1.591140081026e-02 0.0 
0.0 0.0 0.0 
3.775024086276e-05 -4.701820119870e-04 0.0 
-4.701820119870e-04 2.567464443446e-03 0.0 
0.0 0.0 0.0 
3.939631653130e-05 -3.559783417575e-04 0.0 
-3.559783417575e-04 2.795985053993e-03 0.0 
0.0 0.0 0.0 
-2.254326048024e-04 -1.347836813072e-03 0.0 
-1.347836813072e-03 1.378177656590e-03 0.0 
0.0 0.0 0.0 
1.979011906500e-05 -1.415592629956e-03 0.0 
-1.415592629956e-03 1.543787065868e-03 0.0 
0.0 0.0 0.0 
3.561236881207e-04 -4.867224222942e-04 0.0 
-4.867224222942e-04 3.803458320809e-03 0.0 
0.0 0.0 0.0 
4.345975725495e-04 -6.033883258815e-04 0.0 
-6.033883258815e-04 3.527471888362e-03 0.0 
0.0 0.0 0.0 
-1.413264018474e-04 2.995178127115e-03 0.0 
2.995178127115e-03 1.028741208062e-02 0.0 
0.0 0.0 0.0 
-3.139770476010e-04 3.010914823092e-03 0.0 
3.010914823092e-03 1.102770539710e-02 0.0 
0.0 0.0 0.0 
2.779012963045e-04 2.931300273030e-03 0.0 
2.931300273030e-03 8.726860805518e-03 0.0 
0.0 0.0 0.0 
1.728795748475e-03 3.050823444900e-04 0.0 
3.050823444900e-04 3.668025770877e-03 0.0 
0.0 0.0 0.0 
1.864822267493e-03 1.039800329353e-04 0.0 
1.039800329353e-04 3.074239075652e-03 0.0 
0.0 0.0 0.0 
2.050769685969e-03 2.195583144659e-04 0.0 
2.195583144659e-04 2.760089508419e-03 0.0 
0.0 0.0 0.0 
-7.690070818330e-04 9.136216789455e-04 0.0 
9.136216789455e-04 1.608548806088e-02 0.0 
0.0 0.0 0.0 
-5.601541129039e-04 8.597100586679e-04 0.0 
8.597100586679e-04 1.625890323699e-02 0.0 
0.0 0.0 0.0 
1.464062375028e-03 -1.485006334150e-03 0.0 
-1.485006334150e-03 8.068989429926e-04 0.0 
0.0 0.0 0.0 
1.730503314585e-03 -1.498344851378e-03 0.0 
-1.498344851378e-03 2.229841148005e-04 0.0 
0.0 0.0 0.0 
8.774951776831e-04 -1.505498226593e-03 0.0 
-1.505498226593e-03 1.464824095298e-03 0.0 
0.0 0.0 0.0 
-8.047132850088e-04 1.422638587424e-03 0.0 
1.422638587424e-03 1.595918816809e-02 0.0 
0.0 0.0 0.0 
1.058579266759e-04 2.982762354143e-05 0.0 
2.982762354143e-05 6.829953369109e-03 0.0 
0.0 0.0 0.0 
1.551391988608e-04 2.740666550379e-05 0.0 
2.740666550379e-05 6.586053997967e-03 0.0 
0.0 0.0 0.0 
-1.392273304736e-04 -4.566993242064e-04 0.0 
-4.566993242064e-04 8.750747249400e-04 0.0 
0.0 0.0 0.0 
-3.256732405352e-04 -7.454281929505e-04 0.0 
-7.454281929505e-04 1.083414507886e-03 0.0 
0.0 0.0 0.0 
1.090568965880e-05 3.218095710737e-03 0.0 
3.218095710737e-03 4.070414914752e-04 0.0 
0.0 0.0 0.0 
3.118450388957e-04 3.117934655821e-03 0.0 
3.117934655821e-03 -7.562886539388e-04 0.0 
0.0 0.0 0.0 
-9.190697236370e-04 2.111581146622e-03 0.0 
2.111581146622e-03 1.522957596193e-02 0.0 
0.0 0.0 0.0 
-1.066108873920e-03 2.209591127827e-03 0.0 
2.209591127827e-03 1.488958119796e-02 0.0 
0.0 0.0 0.0 
-7.265288983778e-04 2.042828435525e-03 0.0 
2.042828435525e-03 1.554111155853e-02 0.0 
0.0 0.0 0.0 
7.748221669209e-05 -1.441761492858e-04 0.0 
-1.441761492858e-04 1.960873318320e-03 0.0 
0.0 0.0 0.0 
1.218340359588e-03 2.504634658916e-03 0.0 
2.504634658916e-03 6.682619374668e-03 0.0 
0.0 0.0 0.0 
8.410577520589e-04 9.866907526606e-04 0.0 
9.866907526606e-04 6.162965969942e-03 0.0 
0.0 0.0 0.0 
1.043365012013e-03 1.098537434142e-03 0.0 
1.098537434142e-03 5.911886122886e-03 0.0 
0.0 0.0 0.0 
6.188297422649e-04 8.893248766715e-04 0.0 
8.893248766715e-04 6.530121347353e-03 0.0 
0.0 0.0 0.0 
1.069527555546e-03 2.486137951613e-03 0.0 
2.486137951613e-03 7.141465512997e-03 0.0 
0.0 0.0 0.0 
8.138141145078e-04 2.590637291704e-03 0.0 
2.590637291704e-03 7.718716548131e-03 0.0 
0.0 0.0 0.0 
6.382729605783e-04 2.881914040442e-03 0.0 
2.881914040442e-03 8.477956455365e-03 0.0 
0.0 0.0 0.0 
8.498174395553e-04 6.863418814033e-05 0.0 
6.863418814033e-05 -4.520436119072e-03 0.0 
0.0 0.0 0.0 
-5.456322734339e-04 1.670238075680e-04 0.0 
1.670238075680e-04 1.615959548987e-02 0.0 
0.0 0.0 0.0 
-1.327821104167e-03 1.259724642440e-04 0.0 
1.259724642440e-04 1.433689921557e-02 0.0 
0.0 0.0 0.0 
4.896845467526e-05 -6.328451570777e-04 0.0 
-6.328451570777e-04 -4.374328351908e-03 0.0 
0.0 0.0 0.0 
-1.274559563968e-03 7.251498999047e-05 0.0 
7.251498999047e-05 1.413541216399e-02 0.0 
0.0 0.0 0.0 
-1.243220740723e-03 9.097210946979e-05 0.0 
9.097210946979e-05 1.436392315916e-02 0.0 
0.0 0.0 0.0 
-1.244873939308e-03 3.646649988167e-05 0.0 
3.646649988167e-05 1.390945873321e-02 0.0 
0.0 0.0 0.0 
1.432819606229e-04 -1.262623999254e-04 0.0 
-1.262623999254e-04 1.560337388918e-03 0.0 
0.0 0.0 0.0 
-1.574570254777e-03 2.712030696089e-04 0.0 
2.712030696089e-04 1.425169726167e-02 0.0 
0.0 0.0 0.0 
-1.701358858054e-03 4.828889404651e-04 0.0 
4.828889404651e-04 1.447173825050e-02 0.0 
0.0 0.0 0.0 
-1.676680450332e-04 -4.004622394964e-04 0.0 
-4.004622394964e-04 6.399388542697e-04 0.0 
0.0 0.0 0.0 
-5.786094389140e-04 1.331152477074e-03 0.0 
1.331152477074e-03 1.614212428823e-02 0.0 
0.0 0.0 0.0 
5.634439857664e-05 -2.601880684266e-04 0.0 
-2.601880684266e-04 6.196220621204e-04 0.0 
0.0 0.0 0.0 
9.995762916354e-05 -2.726203709713e-04 0.0 
-2.726203709713e-04 7.610138835135e-04 0.0 
0.0 0.0 0.0 
4.617918691786e-04 3.496592566625e-04 0.0 
3.496592566625e-04 6.426037671840e-03 0.0 
0.0 0.0 0.0 
4.798591305374e-04 2.182393410310e-04 0.0 
2.182393410310e-04 6.177265245583e-03 0.0 
0.0 0.0 0.0 
3.212630519445e-04 2.878636544085e-04 0.0 
2.878636544085e-04 6.703380118382e-03 0.0 
0.0 0.0 0.0 
3.442921827103e-04 1.913794034028e-04 0.0 
1.913794034028e-04 6.454134090293e-03 0.0 
0.0 0.0 0.0 
4.716714698075e-04 1.098072329944e-04 0.0 
1.098072329944e-04 5.955602151222e-03 0.0 
0.0 0.0 0.0 
3.486339474169e-04 1.042566302018e-04 0.0 
1.042566302018e-04 6.258916528617e-03 0.0 
0.0 0.0 0.0 
-1.363954789757e-03 1.019482504197e-04 0.0 
1.019482504197e-04 1.411024100064e-02 0.0 
0.0 0.0 0.0 
2.262807255469e-04 1.736821718461e-04 0.0 
1.736821718461e-04 6.813270297903e-03 0.0 
0.0 0.0 0.0 
2.407786128260e-04 9.137819511719e-05 0.0 
9.137819511719e-05 6.555650285616e-03 0.0 
0.0 0.0 0.0 
1.382270513344e-04 1.308819658874e-04 0.0 
1.308819658874e-04 7.102452728415e-03 0.0 
0.0 0.0 0.0 
-1.339132834294e-03 2.464772502624e-03 0.0 
2.464772502624e-03 9.762896197165e-03 0.0 
0.0 0.0 0.0 
-1.027449862130e-04 2.931569013450e-03 0.0 
2.931569013450e-03 4.318530520730e-03 0.0 
0.0 0.0 0.0 
-5.996047777412e-04 2.830262220404e-03 0.0 
2.830262220404e-03 5.021413792108e-03 0.0 
0.0 0.0 0.0 
-1.113869332364e-03 2.762502668622e-03 0.0 
2.762502668622e-03 4.987791425931e-03 0.0 
0.0 0.0 0.0 
-3.203218021832e-05 3.367224031463e-03 0.0 
3.367224031463e-03 1.145720906735e-02 0.0 
0.0 0.0 0.0 
-1.832951365260e-04 3.238619325290e-03 0.0 
3.238619325290e-03 1.170951299015e-02 0.0 
0.0 0.0 0.0 
1.247381689344e-04 -2.925220546222e-05 0.0 
-2.925220546222e-05 5.982419816834e-03 0.0 
0.0 0.0 0.0 
1.417235608329e-04 -5.480623519823e-05 0.0 
-5.480623519823e-05 5.558098829283e-03 0.0 
0.0 0.0 0.0 
-1.222033326085e-03 4.927167670590e-05 0.0 
4.927167670590e-05 1.413940335629e-02 0.0 
0.0 0.0 0.0 
-1.196317718674e-03 3.035674703144e-05 0.0 
3.035674703144e-05 1.410904580294e-02 0.0 
0.0 0.0 0.0 
-1.178240548706e-03 7.337024829535e-05 0.0 
7.337024829535e-05 1.447731309736e-02 0.0 
0.0 0.0 0.0 
-1.158105656428e-03 4.399120902622e-05 0.0 
4.399120902622e-05 1.442118898492e-02 0.0 
0.0 0.0 0.0 
-1.119896237371e-03 8.958638509895e-05 0.0 
8.958638509895e-05 1.477748420044e-02 0.0 
0.0 0.0 0.0 
-1.103416032263e-03 5.023066135607e-05 0.0 
5.023066135607e-05 1.471387599836e-02 0.0 
0.0 0.0 0.0 
-1.045887376522e-03 9.246962215549e-05 0.0 
9.246962215549e-05 1.506330917808e-02 0.0 
0.0 0.0 0.0 
4.346247403375e-04 3.126139380039e-03 0.0 
3.126139380039e-03 9.253866811524e-03 0.0 
0.0 0.0 0.0 
-1.054365822530e-03 3.022162279155e-03 0.0 
3.022162279155e-03 3.283541490308e-03 0.0 
0.0 0.0 0.0 
-1.702824759377e-03 2.282578963814e-03 0.0 
2.282578963814e-03 1.134190642991e-02 0.0 
0.0 0.0 0.0 
8.632167799013e-04 2.109538469907e-03 0.0 
2.109538469907e-03 7.089104409596e-03 0.0 
0.0 0.0 0.0 
1.074187521950e-03 1.839272338253e-03 0.0 
1.839272338253e-03 6.477096185692e-03 0.0 
0.0 0.0 0.0 
-8.969172489537e-04 2.677110062520e-03 0.0 
2.677110062520e-03 8.288629610914e-03 0.0 
0.0 0.0 0.0 
-1.142737328037e-03 2.531813551773e-03 0.0 
2.531813551773e-03 8.146750945619e-03 0.0 
0.0 0.0 0.0 
5.161111189585e-04 5.772158940590e-04 0.0 
5.772158940590e-04 6.502019626358e-03 0.0 
0.0 0.0 0.0 
1.413431482575e-03 2.588979375906e-03 0.0 
2.588979375906e-03 2.402065501736e-03 0.0 
0.0 0.0 0.0 
-4.087857936192e-04 1.601858512088e-03 0.0 
1.601858512088e-03 1.610867240009e-02 0.0 
0.0 0.0 0.0 
-1.226425218187e-03 2.170497262663e-03 0.0 
2.170497262663e-03 -2.956071608592e-03 0.0 
0.0 0.0 0.0 
3.047239789594e-04 2.110581830093e-03 0.0 
2.110581830093e-03 -3.446219277562e-03 0.0 
0.0 0.0 0.0 
1.180335184227e-03 2.685047951343e-03 0.0 
2.685047951343e-03 3.325966931011e-03 0.0 
0.0 0.0 0.0 
-7.161466315709e-04 2.778010343314e-03 0.0 
2.778010343314e-03 8.519393398187e-03 0.0 
0.0 0.0 0.0 
-1.981352898073e-04 2.875655686604e-03 0.0 
2.875655686604e-03 5.169876971289e-03 0.0 
0.0 0.0 0.0 
-6.385657729669e-04 2.796275325091e-03 0.0 
2.796275325091e-03 5.851948049482e-03 0.0 
0.0 0.0 0.0 
1.561622673056e-03 4.983055444202e-04 0.0 
4.983055444202e-04 4.277703626009e-03 0.0 
0.0 0.0 0.0 
-4.159028479031e-04 -8.300598284695e-04 0.0 
-8.300598284695e-04 9.385091804358e-04 0.0 
0.0 0.0 0.0 
-2.297942331580e-04 3.214041620700e-03 0.0 
3.214041620700e-03 1.466532014175e-03 0.0 
0.0 0.0 0.0 
-1.069413927615e-03 1.546431230503e-04 0.0 
1.546431230503e-04 1.511472906212e-02 0.0 
0.0 0.0 0.0 
-8.239536041516e-04 3.175843560740e-03 0.0 
3.175843560740e-03 1.483026377195e-03 0.0 
0.0 0.0 0.0 
1.152980195664e-04 -2.079658862176e-05 0.0 
-2.079658862176e-05 5.801328292621e-03 0.0 
0.0 0.0 0.0 
1.827451925994e-03 2.286373311027e-03 0.0 
2.286373311027e-03 1.948359225564e-03 0.0 
0.0 0.0 0.0 
-2.931186194103e-05 2.898428640491e-03 0.0 
2.898428640491e-03 7.356206801674e-03 0.0 
0.0 0.0 0.0 
3.351314259158e-04 3.134658048171e-03 0.0 
3.134658048171e-03 1.539313955851e-03 0.0 
0.0 0.0 0.0 
4.203521579396e-04 2.910554475921e-03 0.0 
2.910554475921e-03 3.649303357920e-03 0.0 
0.0 0.0 0.0 
-1.326091922564e-03 2.533962140365e-03 0.0 
2.533962140365e-03 1.188862056594e-02 0.0 
0.0 0.0 0.0 
-1.842600545288e-03 2.021399033052e-03 0.0 
2.021399033052e-03 1.288066373754e-02 0.0 
0.0 0.0 0.0 
-1.719663779070e-03 2.218510607064e-03 0.0 
2.218510607064e-03 1.222221488558e-02 0.0 
0.0 0.0 0.0 
2.152570600260e-03 1.920661123098e-03 0.0 
1.920661123098e-03 1.618170565557e-03 0.0 
0.0 0.0 0.0 
-6.998118915810e-04 2.743915523136e-03 0.0 
2.743915523136e-03 6.669445146400e-03 0.0 
0.0 0.0 0.0 
-1.098721134431e-03 2.607933082759e-03 0.0 
2.607933082759e-03 6.557010051287e-03 0.0 
0.0 0.0 0.0 
-6.532620733242e-04 2.841164736476e-03 0.0 
2.841164736476e-03 9.845175676432e-03 0.0 
0.0 0.0 0.0 
-1.332262455212e-03 2.021292503141e-03 0.0 
2.021292503141e-03 1.473837857015e-02 0.0 
0.0 0.0 0.0 
-1.159883658674e-03 2.291517829775e-03 0.0 
2.291517829775e-03 1.448992993782e-02 0.0 
0.0 0.0 0.0 
-8.871312896811e-04 2.464348241550e-03 0.0 
2.464348241550e-03 1.462556804713e-02 0.0 
0.0 0.0 0.0 
-9.707776148982e-04 2.542196840715e-03 0.0 
2.542196840715e-03 1.419377955705e-02 0.0 
0.0 0.0 0.0 
-1.210797177248e-03 2.384493438153e-03 0.0 
2.384493438153e-03 1.403249409274e-02 0.0 
0.0 0.0 0.0 
-1.000789333248e-03 2.615591143555e-03 0.0 
2.615591143555e-03 1.369856803447e-02 0.0 
0.0 0.0 0.0 
-7.596016459855e-04 2.769486185763e-03 0.0 
2.769486185763e-03 1.388317292107e-02 0.0 
0.0 0.0 0.0 
-7.759547052852e-04 2.829231331840e-03 0.0 
2.829231331840e-03 1.334352138559e-02 0.0 
0.0 0.0 0.0 
-5.269995557748e-04 3.025229331176e-03 0.0 
3.025229331176e-03 1.359678687335e-02 0.0 
0.0 0.0 0.0 
-5.603836576500e-04 3.014940653104e-03 0.0 
3.014940653104e-03 1.295839900332e-02 0.0 
0.0 0.0 0.0 
-7.395593409352e-04 2.868962816148e-03 0.0 
2.868962816148e-03 1.273670787218e-02 0.0 
0.0 0.0 0.0 
-5.251638952451e-04 3.013122709572e-03 0.0 
3.013122709572e-03 1.234897307771e-02 0.0 
0.0 0.0 0.0 
-3.851765198912e-04 3.170195415954e-03 0.0 
3.170195415954e-03 1.256010595370e-02 0.0 
0.0 0.0 0.0 
-6.683263277532e-04 2.903613187453e-03 0.0 
2.903613187453e-03 1.210011137262e-02 0.0 
0.0 0.0 0.0 
6.187479841176e-04 2.378943021344e-03 0.0 
2.378943021344e-03 7.706454519447e-03 0.0 
0.0 0.0 0.0 
1.344795529211e-03 2.588578083310e-03 0.0 
2.588578083310e-03 3.734516781973e-03 0.0 
0.0 0.0 0.0 
1.335649798665e-03 1.110443467978e-03 0.0 
1.110443467978e-03 -4.048655357597e-03 0.0 
0.0 0.0 0.0 
3.894563299434e-04 2.920493166476e-03 0.0 
2.920493166476e-03 -2.330991073016e-03 0.0 
0.0 0.0 0.0 
-2.330168739760e-04 2.897622021337e-03 0.0 
2.897622021337e-03 8.200700613856e-03 0.0 
0.0 0.0 0.0 
-2.894333738681e-04 3.162228890425e-03 0.0 
3.162228890425e-03 1.404428252037e-02 0.0 
0.0 0.0 0.0 
-3.748786854848e-04 2.744225178025e-03 0.0 
2.744225178025e-03 1.492204925242e-02 0.0 
0.0 0.0 0.0 
1.950992083745e-03 2.232536676435e-03 0.0 
2.232536676435e-03 4.806807716825e-04 0.0 
0.0 0.0 0.0 
1.221376343620e-05 3.587290600013e-03 0.0 
3.587290600013e-03 1.158571625471e-02 0.0 
0.0 0.0 0.0 
-1.447835510566e-03 2.460993984761e-03 0.0 
2.460993984761e-03 1.169111763114e-02 0.0 
0.0 0.0 0.0 
2.398287145487e-03 1.683164430347e-03 0.0 
1.683164430347e-03 -2.309893804875e-03 0.0 
0.0 0.0 0.0 
1.352178722709e-04 3.487911738591e-03 0.0 
3.487911738591e-03 1.056514540231e-02 0.0 
0.0 0.0 0.0 
-1.402988422232e-03 2.125743405166e-03 0.0 
2.125743405166e-03 1.433146791553e-02 0.0 
0.0 0.0 0.0 
-1.429120188273e-03 2.237277711995e-03 0.0 
2.237277711995e-03 1.386793475901e-02 0.0 
0.0 0.0 0.0 
-1.613039724427e-03 1.962853134649e-03 0.0 
1.962853134649e-03 1.417083585516e-02 0.0 
0.0 0.0 0.0 
-3.780860016145e-04 2.319628431263e-03 0.0 
2.319628431263e-03 1.552354950247e-02 0.0 
0.0 0.0 0.0 
-1.691911260617e-03 6.873154578794e-04 0.0 
6.873154578794e-04 1.481182094238e-02 0.0 
0.0 0.0 0.0 
3.075073413364e-04 2.923177669943e-03 0.0 
2.923177669943e-03 8.849463763227e-03 0.0 
0.0 0.0 0.0 
2.026844620005e-03 1.597723700667e-03 0.0 
1.597723700667e-03 3.933490593786e-03 0.0 
0.0 0.0 0.0 
1.980383661614e-03 1.822232638312e-03 0.0 
1.822232638312e-03 3.986060922478e-03 0.0 
0.0 0.0 0.0 
2.078469987887e-03 1.800396510173e-03 0.0 
1.800396510173e-03 3.388109613345e-03 0.0 
0.0 0.0 0.0 
-9.801634375502e-04 2.684182443947e-03 0.0 
2.684182443947e-03 1.313724145273e-02 0.0 
0.0 0.0 0.0 
4.050986568696e-04 1.983999214863e-03 0.0 
1.983999214863e-03 7.608111770214e-03 0.0 
0.0 0.0 0.0 
7.454588143440e-04 1.728131103751e-03 0.0 
1.728131103751e-03 6.910873850194e-03 0.0 
0.0 0.0 0.0 
7.250499506271e-04 1.510873901709e-03 0.0 
1.510873901709e-03 6.764078981293e-03 0.0 
0.0 0.0 0.0 
1.046114176632e-03 1.482591713860e-03 0.0 
1.482591713860e-03 6.208835881535e-03 0.0 
0.0 0.0 0.0 
3.843197961830e-04 1.504447085021e-03 0.0 
1.504447085021e-03 7.294480082899e-03 0.0 
0.0 0.0 0.0 
-1.668248528571e-04 3.450520989630e-03 0.0 
3.450520989630e-03 1.313417251618e-02 0.0 
0.0 0.0 0.0 
-1.034511685884e-04 3.541556453098e-03 0.0 
3.541556453098e-03 1.264442601412e-02 0.0 
0.0 0.0 0.0 
1.575126651053e-03 -1.831237073211e-03 0.0 
-1.831237073211e-03 -2.545833979557e-04 0.0 
0.0 0.0 0.0 
2.029720893566e-03 -1.409755966511e-03 0.0 
-1.409755966511e-03 -4.141095563759e-04 0.0 
0.0 0.0 0.0 
2.091660085429e-03 -1.099526290444e-03 0.0 
-1.099526290444e-03 1.701288218577e-04 0.0 
0.0 0.0 0.0 
2.360734951391e-03 -8.861934269662e-04 0.0 
-8.861934269662e-04 -3.912916129584e-04 0.0 
0.0 0.0 0.0 
2.342513687598e-03 -1.172130474210e-03 0.0 
-1.172130474210e-03 -1.089269989434e-03 0.0 
0.0 0.0 0.0 
2.596660840125e-03 -5.245497828837e-04 0.0 
-5.245497828837e-04 -9.207825711291e-04 0.0 
0.0 0.0 0.0 
2.555031685353e-03 -3.285239300631e-04 0.0 
-3.285239300631e-04 -1.756955548195e-04 0.0 
0.0 0.0 0.0 
2.749600421867e-03 2.083153735688e-06 0.0 
2.083153735688e-06 -1.352180535433e-03 0.0 
0.0 0.0 0.0 
-2.473198589591e-04 3.103419719513e-03 0.0 
3.103419719513e-03 1.136681525015e-02 0.0 
0.0 0.0 0.0 
3.235992550353e-04 1.076721816527e-03 0.0 
1.076721816527e-03 7.158867317672e-03 0.0 
0.0 0.0 0.0 
1.358804447817e-03 -2.200956502963e-04 0.0 
-2.200956502963e-04 3.598306658259e-03 0.0 
0.0 0.0 0.0 
1.561641106494e-03 -2.159931256388e-04 0.0 
-2.159931256388e-04 3.225430229505e-03 0.0 
0.0 0.0 0.0 
1.619955223434e-03 -4.432661324505e-04 0.0 
-4.432661324505e-04 2.700696147485e-03 0.0 
0.0 0.0 0.0 
3.699816718468e-04 -7.049868783999e-04 0.0 
-7.049868783999e-04 3.181497487860e-03 0.0 
0.0 0.0 0.0 
5.231517886164e-04 -7.304123974994e-04 0.0 
-7.304123974994e-04 3.232894213804e-03 0.0 
0.0 0.0 0.0 
5.783167928871e-04 -6.002808895057e-04 0.0 
-6.002808895057e-04 3.595994055578e-03 0.0 
0.0 0.0 0.0 
2.420167729135e-04 -6.470782836275e-04 0.0 
-6.470782836275e-04 3.112221903892e-03 0.0 
0.0 0.0 0.0 
9.512743399035e-04 2.721763660938e-03 0.0 
2.721763660938e-03 7.173325514689e-03 0.0 
0.0 0.0 0.0 
2.950174479842e-04 8.866605740598e-04 0.0 
8.866605740598e-04 7.117333115019e-03 0.0 
0.0 0.0 0.0 
2.072897308839e-03 5.526909107095e-04 0.0 
5.526909107095e-04 3.111994670494e-03 0.0 
0.0 0.0 0.0 
6.236743435613e-04 -8.667119181510e-04 0.0 
-8.667119181510e-04 2.916259954929e-03 0.0 
0.0 0.0 0.0 
-1.723505258008e-03 3.615115979420e-04 0.0 
3.615115979420e-04 1.384261098742e-02 0.0 
0.0 0.0 0.0 
-1.888829872158e-03 6.925045931902e-04 0.0 
6.925045931902e-04 1.413816545213e-02 0.0 
0.0 0.0 0.0 
-2.021148486614e-03 9.754567280703e-04 0.0 
9.754567280703e-04 1.404130489465e-02 0.0 
0.0 0.0 0.0 
-1.946047074418e-03 1.074875272366e-03 0.0 
1.074875272366e-03 1.433688804802e-02 0.0 
0.0 0.0 0.0 
-1.776134730735e-03 4.999752021813e-04 0.0 
4.999752021813e-04 1.422273833328e-02 0.0 
0.0 0.0 0.0 
2.877168132646e-04 -3.802072935695e-04 0.0 
-3.802072935695e-04 4.063261039796e-03 0.0 
0.0 0.0 0.0 
2.307002603269e-04 -2.840228005100e-04 0.0 
-2.840228005100e-04 4.306647925811e-03 0.0 
0.0 0.0 0.0 
1.665871008169e-04 -2.473510201673e-04 0.0 
-2.473510201673e-04 4.164489862510e-03 0.0 
0.0 0.0 0.0 
1.853072906806e-04 -1.989541663128e-04 0.0 
-1.989541663128e-04 4.534446298406e-03 0.0 
0.0 0.0 0.0 
1.390934124841e-04 -1.635462709301e-04 0.0 
-1.635462709301e-04 4.364486047238e-03 0.0 
0.0 0.0 0.0 
1.205761852721e-04 -1.990662293583e-04 0.0 
-1.990662293583e-04 4.025082783879e-03 0.0 
0.0 0.0 0.0 
1.500646852139e-04 -1.243117144532e-04 0.0 
-1.243117144532e-04 4.742512502084e-03 0.0 
0.0 0.0 0.0 
1.172883966787e-04 -8.931133652755e-05 0.0 
-8.931133652755e-05 4.527653861785e-03 0.0 
0.0 0.0 0.0 
-1.509631963077e-03 1.506551815077e-04 0.0 
1.506551815077e-04 1.382792171170e-02 0.0 
0.0 0.0 0.0 
-1.318252917771e-03 -1.960384894091e-03 0.0 
-1.960384894091e-03 -8.947718169263e-04 0.0 
0.0 0.0 0.0 
-7.585041836918e-04 -2.360142220115e-03 0.0 
-2.360142220115e-03 -5.832224947806e-04 0.0 
0.0 0.0 0.0 
-8.722420411222e-04 -1.682314482342e-03 0.0 
-1.682314482342e-03 2.915905424603e-04 0.0 
0.0 0.0 0.0 
-3.657404439710e-04 -2.416804239949e-03 0.0 
-2.416804239949e-03 -3.887465846745e-04 0.0 
0.0 0.0 0.0 
3.559000602596e-04 -2.604182215387e-03 0.0 
-2.604182215387e-03 -1.693493025676e-03 0.0 
0.0 0.0 0.0 
5.334987498394e-04 -2.554923595844e-03 0.0 
-2.554923595844e-03 -1.146005078250e-03 0.0 
0.0 0.0 0.0 
1.245210648987e-03 -2.437679858733e-03 0.0 
-2.437679858733e-03 -2.372138004999e-03 0.0 
0.0 0.0 0.0 
-8.053322232952e-05 -2.516314584296e-03 0.0 
-2.516314584296e-03 -2.344524605218e-03 0.0 
0.0 0.0 0.0 
-6.800272662453e-04 -6.317433286037e-04 0.0 
-6.317433286037e-04 3.590290587799e-04 0.0 
0.0 0.0 0.0 
-7.097192146997e-04 -1.119269726042e-03 0.0 
-1.119269726042e-03 5.644930711798e-04 0.0 
0.0 0.0 0.0 
-2.907216172141e-04 -3.599251748727e-04 0.0 
-3.599251748727e-04 3.151946429043e-04 0.0 
0.0 0.0 0.0 
-4.952214033964e-04 -7.373252881497e-04 0.0 
-7.373252881497e-04 6.291259689140e-04 0.0 
0.0 0.0 0.0 
-5.980794511169e-04 -1.423690049026e-03 0.0 
-1.423690049026e-03 7.548765790493e-04 0.0 
0.0 0.0 0.0 
-2.873200924153e-04 -9.972006461246e-04 0.0 
-9.972006461246e-04 1.366876731860e-03 0.0 
0.0 0.0 0.0 
4.678260997104e-05 4.769773274079e-05 0.0 
4.769773274079e-05 7.317019591946e-03 0.0 
0.0 0.0 0.0 
4.858441323737e-05 -8.599720509235e-05 0.0 
-8.599720509235e-05 3.519744639330e-03 0.0 
0.0 0.0 0.0 
4.473420629251e-05 -1.733578565043e-04 0.0 
-1.733578565043e-04 3.332633007629e-03 0.0 
0.0 0.0 0.0 
3.021648648575e-05 -1.755507275659e-04 0.0 
-1.755507275659e-04 2.993167392729e-03 0.0 
0.0 0.0 0.0 
5.070563185302e-05 -2.770958429861e-04 0.0 
-2.770958429861e-04 3.146160030362e-03 0.0 
0.0 0.0 0.0 
6.748621050638e-05 -1.590925571796e-04 0.0 
-1.590925571796e-04 3.650169128463e-03 0.0 
0.0 0.0 0.0 
2.305753238567e-05 -8.528803239891e-05 0.0 
-8.528803239891e-05 2.811964639844e-03 0.0 
0.0 0.0 0.0 
2.621445614940e-05 -1.687780986421e-04 0.0 
-1.687780986421e-04 2.669168451254e-03 0.0 
0.0 0.0 0.0 
6.247596499055e-04 -2.300848005099e-05 0.0 
-2.300848005099e-05 -1.174286694289e-05 0.0 
0.0 0.0 0.0 
4.811598148005e-04 -4.395198136892e-05 0.0 
-4.395198136892e-05 3.638704744488e-04 0.0 
0.0 0.0 0.0 
5.169221179318e-04 -1.063813176563e-05 0.0 
-1.063813176563e-05 3.160959145743e-04 0.0 
0.0 0.0 0.0 
3.472718380245e-04 -5.565566716999e-05 0.0 
-5.565566716999e-05 7.698455772828e-04 0.0 
0.0 0.0 0.0 
3.351455349537e-04 -9.250627905248e-05 0.0 
-9.250627905248e-05 7.632575270882e-04 0.0 
0.0 0.0 0.0 
4.554209246010e-04 -6.275164843083e-05 0.0 
-6.275164843083e-05 3.759577537079e-04 0.0 
0.0 0.0 0.0 
4.083709706491e-04 -8.252868232991e-05 0.0 
-8.252868232991e-05 3.958994967154e-04 0.0 
0.0 0.0 0.0 
5.522003873735e-04 -4.289898968760e-05 0.0 
-4.289898968760e-05 1.958801175526e-05 0.0 
0.0 0.0 0.0 
3.508240874296e-04 -1.109138106650e-04 0.0 
-1.109138106650e-04 4.230565341742e-04 0.0 
0.0 0.0 0.0 
2.358383863402e-04 -1.731996241633e-04 0.0 
-1.731996241633e-04 8.165134281652e-04 0.0 
0.0 0.0 0.0 
5.143248336415e-04 -5.565316131334e-05 0.0 
-5.565316131334e-05 2.694573383773e-05 0.0 
0.0 0.0 0.0 
-8.766496004095e-04 5.379375085825e-05 0.0 
5.379375085825e-05 1.551095633220e-02 0.0 
0.0 0.0 0.0 
-8.073972608787e-04 1.273579018996e-04 0.0 
1.273579018996e-04 1.569169504823e-02 0.0 
0.0 0.0 0.0 
2.450504834381e-04 5.681453137809e-04 0.0 
5.681453137809e-04 7.086768170243e-03 0.0 
0.0 0.0 0.0 
-1.374489232244e-03 7.393604669829e-05 0.0 
7.393604669829e-05 1.384877477377e-02 0.0 
0.0 0.0 0.0 
7.215069341069e-05 -1.607230750161e-04 0.0 
-1.607230750161e-04 2.090904180364e-04 0.0 
0.0 0.0 0.0 
-2.843708974763e-04 5.498334450909e-04 0.0 
5.498334450909e-04 1.649747460453e-02 0.0 
0.0 0.0 0.0 
-3.058649053069e-04 1.031469742543e-03 0.0 
1.031469742543e-03 1.641483761083e-02 0.0 
0.0 0.0 0.0 
-2.694618165204e-04 8.716440699155e-04 0.0 
8.716440699155e-04 1.647214446480e-02 0.0 
0.0 0.0 0.0 
6.786006321661e-05 1.094743952460e-06 0.0 
1.094743952460e-06 6.677015201538e-03 0.0 
0.0 0.0 0.0 
6.573738956772e-05 8.201771039369e-06 0.0 
8.201771039369e-06 6.881456162614e-03 0.0 
0.0 0.0 0.0 
-2.465025731652e-04 3.073923502499e-04 0.0 
3.073923502499e-04 1.653343034158e-02 0.0 
0.0 0.0 0.0 
6.152703582072e-05 -1.022959202565e-03 0.0 
-1.022959202565e-03 2.037260682243e-03 0.0 
0.0 0.0 0.0 
-7.184384621343e-04 2.727598908898e-03 0.0 
2.727598908898e-03 1.434155341217e-02 0.0 
0.0 0.0 0.0 
-7.135639837937e-04 5.290519195058e-04 0.0 
5.290519195058e-04 1.606539277564e-02 0.0 
0.0 0.0 0.0 
1.768675600689e-03 2.455545699328e-03 0.0 
2.455545699328e-03 -1.699684635187e-03 0.0 
0.0 0.0 0.0 
2.965449649297e-04 -1.615310046620e-03 0.0 
-1.615310046620e-03 1.399069846637e-03 0.0 
0.0 0.0 0.0 
1.841118723324e-04 -1.000403115267e-04 0.0 
-1.000403115267e-04 5.326376673313e-03 0.0 
0.0 0.0 0.0 
6.027948437177e-04 -3.300083879535e-04 0.0 
-3.300083879535e-04 4.396144175444e-03 0.0 
0.0 0.0 0.0 
2.173238887421e-04 -1.467037596249e-05 0.0 
-1.467037596249e-05 6.129658877900e-03 0.0 
0.0 0.0 0.0 
3.099406647834e-04 -2.197865916524e-04 0.0 
-2.197865916524e-04 4.835245378909e-03 0.0 
0.0 0.0 0.0 
4.020418086278e-04 -5.501980598623e-05 0.0 
-5.501980598623e-05 5.587056713714e-03 0.0 
0.0 0.0 0.0 
7.149617924721e-04 1.265049180366e-03 0.0 
1.265049180366e-03 6.604451986618e-03 0.0 
0.0 0.0 0.0 
1.500259120523e-04 -1.825006582742e-04 0.0 
-1.825006582742e-04 1.422770774726e-03 0.0 
0.0 0.0 0.0 
-1.365708232898e-03 3.418682612211e-04 0.0 
3.418682612211e-04 1.493027724811e-02 0.0 
0.0 0.0 0.0 
-1.214523207599e-03 1.644265486143e-04 0.0 
1.644265486143e-04 1.476534162377e-02 0.0 
0.0 0.0 0.0 
-1.037191097818e-03 4.621694258704e-04 0.0 
4.621694258704e-04 1.562233645485e-02 0.0 
0.0 0.0 0.0 
2.800429303142e-05 -5.830799342005e-04 0.0 
-5.830799342005e-04 2.371403611153e-03 0.0 
0.0 0.0 0.0 
1.412090752753e-04 -2.949860069916e-04 0.0 
-2.949860069916e-04 3.815979369645e-03 0.0 
0.0 0.0 0.0 
-5.978951020976e-05 -5.428614244774e-04 0.0 
-5.428614244774e-04 1.537924760452e-03 0.0 
0.0 0.0 0.0 
1.976863913140e-04 3.340638435894e-03 0.0 
3.340638435894e-03 1.040488514707e-02 0.0 
0.0 0.0 0.0 
-7.663309972252e-04 2.800143410631e-03 0.0 
2.800143410631e-03 9.591762022689e-03 0.0 
0.0 0.0 0.0 
1.430682008554e-03 -6.669586564909e-04 0.0 
-6.669586564909e-04 2.609310289996e-03 0.0 
0.0 0.0 0.0 
2.849367066631e-04 -7.885769195222e-04 0.0 
-7.885769195222e-04 2.857030175900e-03 0.0 
0.0 0.0 0.0 
2.225088826943e-04 -1.186351892207e-03 0.0 
-1.186351892207e-03 2.030764999470e-03 0.0 
0.0 0.0 0.0 
3.652701686447e-04 -1.868575291173e-03 0.0 
-1.868575291173e-03 9.876960727135e-04 0.0 
0.0 0.0 0.0 
1.111818084916e-03 2.693849970536e-03 0.0 
2.693849970536e-03 4.614592116664e-03 0.0 
0.0 0.0 0.0 
8.254038142223e-04 -8.368517207265e-04 0.0 
-8.368517207265e-04 2.931906140545e-03 0.0 
0.0 0.0 0.0 
8.932866784313e-04 -1.433351171211e-05 0.0 
-1.433351171211e-05 4.812311977773e-03 0.0 
0.0 0.0 0.0 
-9.009124039364e-04 4.362337327994e-04 0.0 
4.362337327994e-04 1.578627325507e-02 0.0 
0.0 0.0 0.0 
3.220988454989e-04 -9.718063231382e-05 0.0 
-9.718063231382e-05 1.467620130097e-04 0.0 
0.0 0.0 0.0 
9.519293866264e-04 1.450969622571e-04 0.0 
1.450969622571e-04 5.001869706541e-03 0.0 
0.0 0.0 0.0 
8.864819966190e-04 -4.811096684261e-04 0.0 
-4.811096684261e-04 3.739119599570e-03 0.0 
0.0 0.0 0.0 
-1.578697678618e-03 6.730578983959e-04 0.0 
6.730578983959e-04 1.502311671171e-02 0.0 
0.0 0.0 0.0 
1.609976649516e-03 1.597027806451e-03 0.0 
1.597027806451e-03 5.216035957001e-03 0.0 
0.0 0.0 0.0 
2.435364288919e-04 -2.452899508739e-03 0.0 
-2.452899508739e-03 -2.940064450445e-04 0.0 
0.0 0.0 0.0 
-1.164576723301e-03 8.121472609404e-04 0.0 
8.121472609404e-04 1.568448576806e-02 0.0 
0.0 0.0 0.0 
-8.948714488002e-04 1.739047301614e-03 0.0 
1.739047301614e-03 1.566495130823e-02 0.0 
0.0 0.0 0.0 
-1.791853714054e-03 7.193417335211e-04 0.0 
7.193417335211e-04 1.459427358179e-02 0.0 
0.0 0.0 0.0 
-8.149260635896e-06 -4.080911347129e-04 0.0 
-4.080911347129e-04 1.166404697329e-03 0.0 
0.0 0.0 0.0 
-1.389181341088e-03 2.105057612019e-04 0.0 
2.105057612019e-04 1.454491273229e-02 0.0 
0.0 0.0 0.0 
7.202780616962e-04 6.558888342907e-04 0.0 
6.558888342907e-04 6.113852724621e-03 0.0 
0.0 0.0 0.0 
-1.468846431030e-03 1.737820708463e-03 0.0 
1.737820708463e-03 1.493237366685e-02 0.0 
0.0 0.0 0.0 
1.415703238872e-05 -4.478442508226e-04 0.0 
-4.478442508226e-04 2.221163999484e-03 0.0 
0.0 0.0 0.0 
2.335602178318e-03 5.965316750056e-04 0.0 
5.965316750056e-04 2.255199673831e-03 0.0 
0.0 0.0 0.0 
3.163797905876e-04 2.888896445984e-03 0.0 
2.888896445984e-03 6.819724742047e-03 0.0 
0.0 0.0 0.0 
-2.127372991240e-03 1.656275270097e-03 0.0 
1.656275270097e-03 1.273874211268e-02 0.0 
0.0 0.0 0.0 
-6.557461250895e-04 6.719493130500e-04 0.0 
6.719493130500e-04 1.615978499212e-02 0.0 
0.0 0.0 0.0 
1.703868591105e-03 2.268078528929e-03 0.0 
2.268078528929e-03 4.334042931417e-03 0.0 
0.0 0.0 0.0 
1.373549464994e-03 1.319288067134e-03 0.0 
1.319288067134e-03 5.470617107178e-03 0.0 
0.0 0.0 0.0 
2.039722174669e-03 8.789067053669e-04 0.0 
8.789067053669e-04 3.538384236260e-03 0.0 
0.0 0.0 0.0 
2.426971942993e-05 -3.541139514003e-04 0.0 
-3.541139514003e-04 2.404392290776e-03 0.0 
0.0 0.0 0.0 
6.120256185868e-04 1.189216924096e-04 0.0 
1.189216924096e-04 5.655154080204e-03 0.0 
0.0 0.0 0.0 
2.261747975349e-03 1.506873490455e-03 0.0 
1.506873490455e-03 2.684596061298e-03 0.0 
0.0 0.0 0.0 
-9.586734871386e-04 9.717595631661e-04 0.0 
9.717595631661e-04 1.592778851873e-02 0.0 
0.0 0.0 0.0 
2.881135742636e-04 2.966367719075e-03 0.0 
2.966367719075e-03 9.117824259482e-03 0.0 
0.0 0.0 0.0 
2.595249161467e-03 7.036558574099e-04 0.0 
7.036558574099e-04 7.330477590358e-04 0.0 
0.0 0.0 0.0 
-1.261987883242e-03 1.308896452377e-03 0.0 
1.308896452377e-03 1.556431421978e-02 0.0 
0.0 0.0 0.0 
1.832598886879e-03 -4.130234171804e-04 0.0 
-4.130234171804e-04 2.302678404396e-03 0.0 
0.0 0.0 0.0 
1.437601151117e-03 1.869171483178e-03 0.0 
1.869171483178e-03 5.813686546775e-03 0.0 
0.0 0.0 0.0 
-5.664561091225e-04 2.840764709409e-03 0.0 
2.840764709409e-03 8.769083321008e-03 0.0 
0.0 0.0 0.0 
2.456241017406e-04 2.915954178163e-03 0.0 
2.915954178163e-03 8.351371609395e-03 0.0 
0.0 0.0 0.0 
-6.530566858418e-04 2.866895231576e-03 0.0 
2.866895231576e-03 1.115978929895e-02 0.0 
0.0 0.0 0.0 
9.928975433053e-04 2.715477156938e-03 0.0 
2.715477156938e-03 6.281147475286e-03 0.0 
0.0 0.0 0.0 
1.494256946204e-04 -8.334833988862e-05 0.0 
-8.334833988862e-05 5.145616885094e-03 0.0 
0.0 0.0 0.0 
7.738156385232e-04 1.327521540960e-04 0.0 
1.327521540960e-04 5.332930882904e-03 0.0 
0.0 0.0 0.0 
2.543857190084e-03 -1.035601187552e-03 0.0 
-1.035601187552e-03 -3.418854496886e-03 0.0 
0.0 0.0 0.0 
7.365463542643e-04 2.833722752082e-03 0.0 
2.833722752082e-03 3.915355216906e-03 0.0 
0.0 0.0 0.0 
-1.732708294383e-03 9.463380209134e-04 0.0 
9.463380209134e-04 1.487534124981e-02 0.0 
0.0 0.0 0.0 
5.557628126643e-04 2.979491446400e-03 0.0 
2.979491446400e-03 8.874637563056e-03 0.0 
0.0 0.0 0.0 
-7.022396296864e-04 1.116217417722e-03 0.0 
1.116217417722e-03 1.613622591053e-02 0.0 
0.0 0.0 0.0 
1.708056244254e-04 2.893319232630e-03 0.0 
2.893319232630e-03 6.510532783638e-03 0.0 
0.0 0.0 0.0 
5.763122446186e-04 6.708080276388e-06 0.0 
6.708080276388e-06 5.460134700308e-03 0.0 
0.0 0.0 0.0 
-1.001102654381e-03 1.490377799781e-03 0.0 
1.490377799781e-03 1.574590944978e-02 0.0 
0.0 0.0 0.0 
6.941258850735e-04 -7.164409819496e-04 0.0 
-7.164409819496e-04 3.275393145061e-03 0.0 
0.0 0.0 0.0 
1.293742823931e-04 -6.198808896013e-05 0.0 
-6.198808896013e-05 1.670401339826e-03 0.0 
0.0 0.0 0.0 
1.251704074999e-03 2.702913452806e-03 0.0 
2.702913452806e-03 -1.923133903915e-03 0.0 
0.0 0.0 0.0 
2.713346218377e-03 6.483701995878e-04 0.0 
6.483701995878e-04 -7.600134860618e-04 0.0 
0.0 0.0 0.0 
1.929739203122e-03 2.059106432662e-03 0.0 
2.059106432662e-03 3.557051379947e-03 0.0 
0.0 0.0 0.0 
7.316197964532e-04 -5.604743082299e-04 0.0 
-5.604743082299e-04 3.662745975725e-03 0.0 
0.0 0.0 0.0 
-7.173616554749e-04 2.434952821936e-03 0.0 
2.434952821936e-03 1.500016240441e-02 0.0 
0.0 0.0 0.0 
4.448762436141e-04 1.868282541874e-05 0.0 
1.868282541874e-05 5.764428547766e-03 0.0 
0.0 0.0 0.0 
1.366023585933e-03 4.267914241411e-04 0.0 
4.267914241411e-04 4.590471567716e-03 0.0 
0.0 0.0 0.0 
-1.433032191922e-03 3.065236320454e-03 0.0 
3.065236320454e-03 7.279621315172e-04 0.0 
0.0 0.0 0.0 
-1.845381684718e-03 2.101245082741e-03 0.0 
2.101245082741e-03 1.207627090270e-02 0.0 
0.0 0.0 0.0 
3.311040358794e-04 2.692885255935e-05 0.0 
2.692885255935e-05 6.057231611941e-03 0.0 
0.0 0.0 0.0 
2.212226502541e-03 3.834117474651e-04 0.0 
3.834117474651e-04 2.483007836989e-03 0.0 
0.0 0.0 0.0 
1.355958966816e-03 1.719272287476e-03 0.0 
1.719272287476e-03 5.851143085490e-03 0.0 
0.0 0.0 0.0 
1.033282040021e-04 -1.185496298877e-04 0.0 
-1.185496298877e-04 4.175847121467e-03 0.0 
0.0 0.0 0.0 
2.982779374666e-04 3.255532967194e-03 0.0 
3.255532967194e-03 9.871597527706e-03 0.0 
0.0 0.0 0.0 
-1.215397005628e-03 2.499726186344e-03 0.0 
2.499726186344e-03 8.948311136866e-03 0.0 
0.0 0.0 0.0 
2.346670739467e-04 2.928204424345e-05 0.0 
2.928204424345e-05 6.341881076576e-03 0.0 
0.0 0.0 0.0 
1.541714262049e-03 7.708306503333e-04 0.0 
7.708306503333e-04 4.622450043430e-03 0.0 
0.0 0.0 0.0 
1.671269178855e-03 2.446467249367e-03 0.0 
2.446467249367e-03 1.460060609895e-03 0.0 
0.0 0.0 0.0 
-1.203801893967e-03 1.084670228462e-05 0.0 
1.084670228462e-05 1.374818741468e-02 0.0 
0.0 0.0 0.0 
1.446482854101e-04 7.576866221371e-05 0.0 
7.576866221371e-05 6.888152179542e-03 0.0 
0.0 0.0 0.0 
1.296141842147e-03 9.352905262028e-04 0.0 
9.352905262028e-04 5.268893313376e-03 0.0 
0.0 0.0 0.0 
9.889693408301e-04 2.708441665049e-03 0.0 
2.708441665049e-03 6.718686114879e-03 0.0 
0.0 0.0 0.0 
2.162389800132e-03 2.209860324858e-05 0.0 
2.209860324858e-05 2.149558079193e-03 0.0 
0.0 0.0 0.0 
-1.796239364147e-03 2.172477234887e-03 0.0 
2.172477234887e-03 1.124440510220e-02 0.0 
0.0 0.0 0.0 
6.044319909444e-04 -4.649942614076e-04 0.0 
-4.649942614076e-04 3.983746850179e-03 0.0 
0.0 0.0 0.0 
1.715619049910e-05 2.941398343552e-03 0.0 
2.941398343552e-03 9.161007725695e-03 0.0 
0.0 0.0 0.0 
-3.618787739160e-04 2.098349580987e-03 0.0 
2.098349580987e-03 1.575914349861e-02 0.0 
0.0 0.0 0.0 
1.197644552685e-03 1.189638692982e-03 0.0 
1.189638692982e-03 5.661583433526e-03 0.0 
0.0 0.0 0.0 
-1.621276852317e-03 2.098940820247e-03 0.0 
2.098940820247e-03 1.370964488625e-02 0.0 
0.0 0.0 0.0 
4.753066899813e-04 -4.915193575932e-04 0.0 
-4.915193575932e-04 3.894835005811e-03 0.0 
0.0 0.0 0.0 
1.650678881368e-03 2.104978504319e-03 0.0 
2.104978504319e-03 5.268964884908e-03 0.0 
0.0 0.0 0.0 
3.026957642178e-04 -1.260146298305e-04 0.0 
-1.260146298305e-04 7.762407855112e-04 0.0 
0.0 0.0 0.0 
-1.501429376964e-03 2.407932214984e-03 0.0 
2.407932214984e-03 1.057373657592e-02 0.0 
0.0 0.0 0.0 
3.847544034494e-04 -3.912222069504e-04 0.0 
-3.912222069504e-04 4.175836835510e-03 0.0 
0.0 0.0 0.0 
2.691311152444e-03 1.001894547033e-04 0.0 
1.001894547033e-04 -5.398236327752e-04 0.0 
0.0 0.0 0.0 
1.970223224647e-03 -1.072482333126e-04 0.0 
-1.072482333126e-04 2.490299162412e-03 0.0 
0.0 0.0 0.0 
7.612143048149e-04 2.510528053181e-03 0.0 
2.510528053181e-03 7.694243317843e-03 0.0 
0.0 0.0 0.0 
3.073706482998e-04 -3.002049294188e-04 0.0 
-3.002049294188e-04 4.440257633880e-03 0.0 
0.0 0.0 0.0 
2.625067941268e-03 2.116363191624e-04 0.0 
2.116363191624e-04 2.094113310140e-04 0.0 
0.0 0.0 0.0 
2.429037245671e-04 -2.190303095542e-04 0.0 
-2.190303095542e-04 4.688387443097e-03 0.0 
0.0 0.0 0.0 
-1.515243061667e-03 2.239913854116e-03 0.0 
2.239913854116e-03 9.658683580569e-03 0.0 
0.0 0.0 0.0 
-1.406766047315e-03 2.359673744818e-03 0.0 
2.359673744818e-03 1.334682843877e-02 0.0 
0.0 0.0 0.0 
1.906727936277e-04 -1.476755901564e-04 0.0 
-1.476755901564e-04 4.922465640339e-03 0.0 
0.0 0.0 0.0 
5.845280850495e-05 2.969319944102e-03 0.0 
2.969319944102e-03 9.517353308450e-03 0.0 
0.0 0.0 0.0 
1.511001446581e-04 -2.468699821331e-04 0.0 
-2.468699821331e-04 8.861076594482e-04 0.0 
0.0 0.0 0.0 
1.187751695372e-03 2.591254131007e-03 0.0 
2.591254131007e-03 6.392167071791e-03 0.0 
0.0 0.0 0.0 
9.817924164994e-05 -6.235267901909e-06 0.0 
-6.235267901909e-06 6.423795031634e-03 0.0 
0.0 0.0 0.0 
7.305251299048e-04 -1.337952182129e-03 0.0 
-1.337952182129e-03 1.882873153058e-03 0.0 
0.0 0.0 0.0 
1.766980707262e-03 -1.827708604819e-04 0.0 
-1.827708604819e-04 2.852146416736e-03 0.0 
0.0 0.0 0.0 
-1.213229332929e-03 2.480175316031e-03 0.0 
2.480175316031e-03 1.351906323995e-02 0.0 
0.0 0.0 0.0 
-1.465835468631e-03 2.300540925468e-03 0.0 
2.300540925468e-03 8.193122965028e-03 0.0 
0.0 0.0 0.0 
1.668414526375e-03 3.387146252514e-05 0.0 
3.387146252514e-05 3.414297823536e-03 0.0 
0.0 0.0 0.0 
8.179062754119e-05 3.021392110191e-03 0.0 
3.021392110191e-03 9.891790535309e-03 0.0 
0.0 0.0 0.0 
1.340347100240e-03 2.461190758402e-03 0.0 
2.461190758402e-03 6.141091991481e-03 0.0 
0.0 0.0 0.0 
1.873300613679e-03 2.048910023214e-03 0.0 
2.048910023214e-03 4.116146458303e-03 0.0 
0.0 0.0 0.0 
1.536714941544e-03 2.382948271323e-04 0.0 
2.382948271323e-04 3.993343355244e-03 0.0 
0.0 0.0 0.0 
-1.095115232077e-03 2.579014501905e-03 0.0 
2.579014501905e-03 7.388701993753e-03 0.0 
0.0 0.0 0.0 
4.002135606618e-05 -1.203067006029e-03 0.0 
-1.203067006029e-03 1.799965380509e-03 0.0 
0.0 0.0 0.0 
-1.399752371199e-04 -1.147373104575e-03 0.0 
-1.147373104575e-03 1.586233220155e-03 0.0 
0.0 0.0 0.0 
2.497529383173e-03 -1.438782445332e-04 0.0 
-1.438782445332e-04 5.226711029884e-04 0.0 
0.0 0.0 0.0 
-1.022938388719e-04 3.066203854200e-03 0.0 
3.066203854200e-03 1.065194224409e-02 0.0 
0.0 0.0 0.0 
2.311964053937e-04 -1.097421069544e-04 0.0 
-1.097421069544e-04 1.149689226869e-03 0.0 
0.0 0.0 0.0 
-9.160735191216e-04 2.755290602773e-03 0.0 
2.755290602773e-03 1.252403089165e-02 0.0 
0.0 0.0 0.0 
-3.949885878827e-04 -1.141031522092e-03 0.0 
-1.141031522092e-03 1.194732817413e-03 0.0 
0.0 0.0 0.0 
2.348948646020e-03 -6.330020627419e-04 0.0 
-6.330020627419e-04 2.688130149790e-04 0.0 
0.0 0.0 0.0 
1.272841159385e-03 2.390724570283e-03 0.0 
2.390724570283e-03 6.560355986262e-03 0.0 
0.0 0.0 0.0 
-1.073644510090e-03 2.203165058807e-05 0.0 
2.203165058807e-05 1.482705263444e-02 0.0 
0.0 0.0 0.0 
2.110336506913e-03 -8.226510684098e-04 0.0 
-8.226510684098e-04 7.494098470077e-04 0.0 
0.0 0.0 0.0 
6.795111048263e-05 -7.056105054431e-05 0.0 
-7.056105054431e-05 2.070806167228e-03 0.0 
0.0 0.0 0.0 
1.823623156022e-03 -1.195295212675e-03 0.0 
-1.195295212675e-03 7.187156626504e-04 0.0 
0.0 0.0 0.0 
1.780228741599e-03 2.063491231534e-03 0.0 
2.063491231534e-03 4.684772522092e-03 0.0 
0.0 0.0 0.0 
1.572790863346e-03 -1.204388369451e-03 0.0 
-1.204388369451e-03 1.239958980219e-03 0.0 
0.0 0.0 0.0 
1.233728514078e-03 -1.406099805013e-03 0.0 
-1.406099805013e-03 1.327825687122e-03 0.0 
0.0 0.0 0.0 
-4.944572899784e-04 6.135867664149e-04 0.0 
6.135867664149e-04 1.630689110228e-02 0.0 
0.0 0.0 0.0 
1.038187137940e-03 -1.289128596071e-03 0.0 
-1.289128596071e-03 1.790066329950e-03 0.0 
0.0 0.0 0.0 
-2.061916690750e-04 1.763702004030e-04 0.0 
1.763702004030e-04 1.658343301062e-02 0.0 
0.0 0.0 0.0 
2.708363601418e-05 1.342532281699e-05 0.0 
1.342532281699e-05 7.386204959102e-03 0.0 
0.0 0.0 0.0 
-1.175465098696e-03 2.579234105789e-06 0.0 
2.579234105789e-06 1.405202950770e-02 0.0 
0.0 0.0 0.0 
-1.549435268144e-03 2.416360727848e-03 0.0 
2.416360727848e-03 6.885256421351e-03 0.0 
0.0 0.0 0.0 
-1.434667080124e-03 1.083627516695e-04 0.0 
1.083627516695e-04 -4.031058722001e-03 0.0 
0.0 0.0 0.0 
-9.908286313386e-04 2.700662546484e-03 0.0 
2.700662546484e-03 5.692369431395e-03 0.0 
0.0 0.0 0.0 
5.388802623688e-04 -1.497498331990e-03 0.0 
-1.497498331990e-03 1.613362734155e-03 0.0 
0.0 0.0 0.0 
-5.482997923954e-04 2.930433076701e-03 0.0 
2.930433076701e-03 1.142681247577e-02 0.0 
0.0 0.0 0.0 
-1.182422038707e-03 2.071597597639e-05 0.0 
2.071597597639e-05 1.407553263517e-02 0.0 
0.0 0.0 0.0 
2.489703827117e-04 -1.389423006530e-03 0.0 
-1.389423006530e-03 1.737719446676e-03 0.0 
0.0 0.0 0.0 
-3.551828304832e-04 3.217563802550e-03 0.0 
3.217563802550e-03 1.309769241810e-02 0.0 
0.0 0.0 0.0 
2.258637014921e-04 3.261122969706e-03 0.0 
3.261122969706e-03 9.639537254283e-03 0.0 
0.0 0.0 0.0 
-9.451995833045e-04 9.926607596631e-05 0.0 
9.926607596631e-05 1.535463387435e-02 0.0 
0.0 0.0 0.0 
1.225346887188e-03 1.584954901457e-03 0.0 
1.584954901457e-03 5.944175982273e-03 0.0 
0.0 0.0 0.0 
1.438888858237e-03 2.320915237813e-03 0.0 
2.320915237813e-03 5.974492149932e-03 0.0 
0.0 0.0 0.0 
-5.794262080736e-04 8.153290640641e-05 0.0 
8.153290640641e-05 1.609861544978e-02 0.0 
0.0 0.0 0.0 
-1.256435236731e-03 1.583724788263e-05 0.0 
1.583724788263e-05 1.373464796098e-02 0.0 
0.0 0.0 0.0 
-3.175604652524e-04 -5.121044527601e-04 0.0 
-5.121044527601e-04 6.080981816139e-04 0.0 
0.0 0.0 0.0 
1.248004793835e-04 -3.376821751618e-05 0.0 
-3.376821751618e-05 5.380071572352e-03 0.0 
0.0 0.0 0.0 
-1.644139254402e-03 2.569161043098e-03 0.0 
2.569161043098e-03 5.445853455768e-03 0.0 
0.0 0.0 0.0 
-1.094144962201e-03 2.896267666707e-03 0.0 
2.896267666707e-03 4.098274530477e-03 0.0 
0.0 0.0 0.0 
-9.659178615602e-04 3.106796228440e-03 0.0 
3.106796228440e-03 2.408111721392e-03 0.0 
0.0 0.0 0.0 
2.547434675208e-05 -2.599054115677e-04 0.0 
-2.599054115677e-04 2.551770499971e-03 0.0 
0.0 0.0 0.0 
-6.288436129502e-04 -1.887931284081e-03 0.0 
-1.887931284081e-03 3.974298766646e-04 0.0 
0.0 0.0 0.0 
-1.640579621379e-03 2.796495198030e-03 0.0 
2.796495198030e-03 4.026975669799e-03 0.0 
0.0 0.0 0.0 
7.540438837927e-04 1.929152764109e-03 0.0 
1.929152764109e-03 7.053457769787e-03 0.0 
0.0 0.0 0.0 
-1.478097119632e-03 1.744303347669e-04 0.0 
1.744303347669e-04 1.416506299758e-02 0.0 
0.0 0.0 0.0 
1.058414292938e-03 2.578227475543e-03 0.0 
2.578227475543e-03 7.238158588725e-03 0.0 
0.0 0.0 0.0 
-1.531229892778e-03 2.945347106170e-03 0.0 
2.945347106170e-03 2.425363602599e-03 0.0 
0.0 0.0 0.0 
-6.981411124013e-04 1.662902223139e-03 0.0 
1.662902223139e-03 1.588376488905e-02 0.0 
0.0 0.0 0.0 
5.769517905640e-04 2.847955156758e-03 0.0 
2.847955156758e-03 8.462469863483e-03 0.0 
0.0 0.0 0.0 
1.548107503257e-04 3.136346702023e-04 0.0 
3.136346702023e-04 7.199997060933e-03 0.0 
0.0 0.0 0.0 
8.566287572999e-04 2.684857010630e-03 0.0 
2.684857010630e-03 7.803970492042e-03 0.0 
0.0 0.0 0.0 
-6.636283310784e-04 3.241836016465e-03 0.0 
3.241836016465e-03 4.877734767771e-04 0.0 
0.0 0.0 0.0 
-1.877951967317e-03 7.923346513373e-04 0.0 
7.923346513373e-04 1.441006991549e-02 0.0 
0.0 0.0 0.0 
8.691840162186e-05 3.382723684503e-03 0.0 
3.382723684503e-03 1.093316553070e-02 0.0 
0.0 0.0 0.0 
-8.751496056727e-04 1.801159054493e-04 0.0 
1.801159054493e-04 1.562294879801e-02 0.0 
0.0 0.0 0.0 
1.013433155974e-04 1.944525940404e-04 0.0 
1.944525940404e-04 7.298193072224e-03 0.0 
0.0 0.0 0.0 
-1.648043005105e-03 3.106221663442e-04 0.0 
3.106221663442e-04 1.413585273409e-02 0.0 
0.0 0.0 0.0 
-4.071256310667e-04 3.977854298921e-04 0.0 
3.977854298921e-04 1.636557813425e-02 0.0 
0.0 0.0 0.0 
1.968187486552e-03 -1.872085952894e-03 0.0 
-1.872085952894e-03 -3.107462082460e-03 0.0 
0.0 0.0 0.0 
-3.765099589511e-04 2.042269303414e-04 0.0 
2.042269303414e-04 1.637953811350e-02 0.0 
0.0 0.0 0.0 
-4.461689814541e-04 3.018023308318e-03 0.0 
3.018023308318e-03 1.171280496143e-02 0.0 
0.0 0.0 0.0 
-1.197772636872e-03 1.097798800296e-04 0.0 
1.097798800296e-04 1.458592411520e-02 0.0 
0.0 0.0 0.0 
-2.002210172657e-03 1.300978605928e-03 0.0 
1.300978605928e-03 1.408114231318e-02 0.0 
0.0 0.0 0.0 
6.084696721742e-05 2.411017254612e-05 0.0 
2.411017254612e-05 7.071244156400e-03 0.0 
0.0 0.0 0.0 
-5.496962567445e-04 2.918048767386e-03 0.0 
2.918048767386e-03 1.408990684264e-02 0.0 
0.0 0.0 0.0 
-3.796015746798e-04 3.239213774627e-03 0.0 
3.239213774627e-03 -8.194386078900e-04 0.0 
0.0 0.0 0.0 
-9.802685872571e-04 1.540846618426e-04 0.0 
1.540846618426e-04 1.534341387729e-02 0.0 
0.0 0.0 0.0 
7.575705574232e-05 -3.801402684798e-04 0.0 
-3.801402684798e-04 3.107804327236e-03 0.0 
0.0 0.0 0.0 
3.347011341435e-04 -1.696985621552e-03 0.0 
-1.696985621552e-03 -3.856289589015e-03 0.0 
0.0 0.0 0.0 
4.100149043322e-04 4.740515539761e-04 0.0 
4.740515539761e-04 6.630792303275e-03 0.0 
0.0 0.0 0.0 
-3.433637254351e-04 3.124332072750e-03 0.0 
3.124332072750e-03 1.199692475435e-02 0.0 
0.0 0.0 0.0 
9.834576562247e-05 5.921322980968e-05 0.0 
5.921322980968e-05 6.988087752140e-03 0.0 
0.0 0.0 0.0 
3.677166280418e-04 -1.500365701931e-05 0.0 
-1.500365701931e-05 7.475892090477e-04 0.0 
0.0 0.0 0.0 
4.097073790483e-05 -2.347726792111e-04 0.0 
-2.347726792111e-04 4.791678387480e-04 0.0 
0.0 0.0 0.0 
4.951417312908e-04 7.468165503252e-04 0.0 
7.468165503252e-04 6.669900382797e-03 0.0 
0.0 0.0 0.0 
-1.505787417055e-04 3.387412436543e-03 0.0 
3.387412436543e-03 1.213880191342e-02 0.0 
0.0 0.0 0.0 
1.467756389980e-03 -2.338308975325e-03 0.0 
-2.338308975325e-03 -1.960150090256e-03 0.0 
0.0 0.0 0.0 
-2.886111935813e-04 1.444922173492e-03 0.0 
1.444922173492e-03 1.626684655156e-02 0.0 
0.0 0.0 0.0 
-5.305512704771e-04 3.045855945671e-03 0.0 
3.045855945671e-03 -1.983351379899e-03 0.0 
0.0 0.0 0.0 
-1.309768586972e-03 3.505175666685e-05 0.0 
3.505175666685e-05 1.370631943832e-02 0.0 
0.0 0.0 0.0 
2.937906660465e-04 -1.425800116063e-04 0.0 
-1.425800116063e-04 4.198930210401e-04 0.0 
0.0 0.0 0.0 
7.553834452261e-05 9.733496281145e-05 0.0 
9.733496281145e-05 7.343754995602e-03 0.0 
0.0 0.0 0.0 
-5.416844095402e-04 1.031250349054e-03 0.0 
1.031250349054e-03 1.625225721029e-02 0.0 
0.0 0.0 0.0 
6.833593244351e-05 -2.330073427099e-04 0.0 
-2.330073427099e-04 3.471744796868e-03 0.0 
0.0 0.0 0.0 
-1.998612368317e-03 8.611543668915e-04 0.0 
8.611543668915e-04 1.373850183144e-02 0.0 
0.0 0.0 0.0 
3.905983120881e-05 -1.576968729423e-04 0.0 
-1.576968729423e-04 2.327507920769e-03 0.0 
0.0 0.0 0.0 
4.679547122457e-04 3.100265004893e-03 0.0 
3.100265004893e-03 9.240166305116e-03 0.0 
0.0 0.0 0.0 
-5.438074548901e-04 -9.607660864817e-04 0.0 
-9.607660864817e-04 8.540177475428e-04 0.0 
0.0 0.0 0.0 
-4.567810054347e-04 7.432229626801e-04 0.0 
7.432229626801e-04 1.634771200508e-02 0.0 
0.0 0.0 0.0 
5.813309438958e-04 1.102095914513e-03 0.0 
1.102095914513e-03 6.736029135546e-03 0.0 
0.0 0.0 0.0 
-6.457385167311e-04 2.294936064088e-03 0.0 
2.294936064088e-03 1.531288738455e-02 0.0 
0.0 0.0 0.0 
3.003036823967e-04 2.519753231379e-03 0.0 
2.519753231379e-03 8.299459587620e-03 0.0 
0.0 0.0 0.0 
1.621165941237e-04 9.512555024068e-04 0.0 
9.512555024068e-04 -4.290517245974e-03 0.0 
0.0 0.0 0.0 
4.351629540859e-04 3.046769816381e-03 0.0 
3.046769816381e-03 9.013626286175e-03 0.0 
0.0 0.0 0.0 
9.532266086723e-04 1.318298595746e-03 0.0 
1.318298595746e-03 6.223867206216e-03 0.0 
0.0 0.0 0.0 
-1.228572723107e-03 2.342588869323e-05 0.0 
2.342588869323e-05 1.372255420046e-02 0.0 
0.0 0.0 0.0 
-6.147133205768e-04 2.647321190741e-03 0.0 
2.647321190741e-03 1.468881671530e-02 0.0 
0.0 0.0 0.0 
2.898607392749e-05 -2.520633816781e-04 0.0 
-2.520633816781e-04 2.842697997627e-03 0.0 
0.0 0.0 0.0 
1.229886890322e-04 -2.719289250334e-04 0.0 
-2.719289250334e-04 1.163584176332e-03 0.0 
0.0 0.0 0.0 
-1.670148299462e-04 8.508698762969e-05 0.0 
8.508698762969e-05 1.661651918108e-02 0.0 
0.0 0.0 0.0 
7.049288422726e-04 4.435548362014e-06 0.0 
4.435548362014e-06 -1.093631378025e-04 0.0 
0.0 0.0 0.0 
-1.199978043104e-03 -3.322185044550e-06 0.0 
-3.322185044550e-06 1.368193649776e-02 0.0 
0.0 0.0 0.0 
1.560134647671e-05 1.252934663138e-05 0.0 
1.252934663138e-05 7.492505832850e-03 0.0 
0.0 0.0 0.0 
2.338844380972e-04 -1.452764287618e-04 0.0 
-1.452764287618e-04 1.066100594531e-03 0.0 
0.0 0.0 0.0 
-1.153270374462e-03 2.346421143407e-05 0.0 
2.346421143407e-05 1.435095046382e-02 0.0 
0.0 0.0 0.0 
-2.396335641199e-04 3.334570310487e-03 0.0 
3.334570310487e-03 1.265697733178e-02 0.0 
0.0 0.0 0.0 
9.197062586371e-05 -5.055107629616e-05 0.0 
-5.055107629616e-05 4.285957301034e-03 0.0 
0.0 0.0 0.0 
-6.826637757739e-04 1.307689886178e-04 0.0 
1.307689886178e-04 1.593010349421e-02 0.0 
0.0 0.0 0.0 
-2.032597915462e-04 -2.351491324720e-03 0.0 
-2.351491324720e-03 -1.109504678585e-04 0.0 
0.0 0.0 0.0 
-1.635060609790e-03 -6.407466503521e-04 0.0 
-6.407466503521e-04 -3.929392578270e-03 0.0 
0.0 0.0 0.0 
-1.037629061997e-03 5.929152767396e-05 0.0 
5.929152767396e-05 1.502673302939e-02 0.0 
0.0 0.0 0.0 
5.828535853904e-04 2.717890152973e-03 0.0 
2.717890152973e-03 8.204458281181e-03 0.0 
0.0 0.0 0.0 
-6.294683825865e-04 1.882193865602e-03 0.0 
1.882193865602e-03 1.577786032444e-02 0.0 
0.0 0.0 0.0 
-1.148759200256e-03 1.179519017029e-04 0.0 
1.179519017029e-04 1.478955238256e-02 0.0 
0.0 0.0 0.0 
6.332332677456e-04 2.930322480243e-03 0.0 
2.930322480243e-03 -1.733661900669e-03 0.0 
0.0 0.0 0.0 
-2.627625694742e-04 3.258200632516e-03 0.0 
3.258200632516e-03 1.221976639272e-02 0.0 
0.0 0.0 0.0 
9.635136174272e-05 -2.287498559061e-04 0.0 
-2.287498559061e-04 3.728240178359e-03 0.0 
0.0 0.0 0.0 
1.782420579554e-04 3.256435466540e-03 0.0 
3.256435466540e-03 1.035764137191e-02 0.0 
0.0 0.0 0.0 
9.755246436886e-04 1.709925482282e-03 0.0 
1.709925482282e-03 6.506922349735e-03 0.0 
0.0 0.0 0.0 
-1.476317562402e-03 3.052667407028e-03 0.0 
3.052667407028e-03 -1.470620395425e-03 0.0 
0.0 0.0 0.0 
1.064295939813e-04 -3.519386486790e-05 0.0 
-3.519386486790e-05 4.611677452983e-03 0.0 
0.0 0.0 0.0 
2.398518668211e-04 -1.636082026578e-04 0.0 
-1.636082026578e-04 4.011879920688e-04 0.0 
0.0 0.0 0.0 
2.355906201499e-04 2.371839776249e-04 0.0 
2.371839776249e-04 6.878561335310e-03 0.0 
0.0 0.0 0.0 
8.870236501783e-05 -1.544309181764e-04 0.0 
-1.544309181764e-04 3.908826886146e-03 0.0 
0.0 0.0 0.0 
-1.892932807837e-03 4.601229868252e-04 0.0 
4.601229868252e-04 1.339505039321e-02 0.0 
0.0 0.0 0.0 
-1.248464709125e-03 8.735965515212e-06 0.0 
8.735965515212e-06 1.317230792112e-02 0.0 
0.0 0.0 0.0 

TENSORS node_materi_strain_plasti float
5.167194390135e-04 2.792726192703e-05 0.0 
2.792726192703e-05 -5.091425601016e-05 0.0 
0.0 0.0 -1.110302485635e-04 
-8.159302679306e-04 -1.118602645032e-04 0.0 
-1.118602645032e-04 4.584923598267e-03 0.0 
0.0 0.0 -6.959116756397e-04 
-1.346400199288e-03 7.365993999463e-05 0.0 
7.365993999463e-05 8.674335535019e-03 0.0 
0.0 0.0 -1.332621093165e-03 
-1.336402199564e-03 -8.793125074240e-05 0.0 
-8.793125074240e-05 8.913629531779e-03 0.0 
0.0 0.0 -1.332621093165e-03 
1.928535311059e-04 4.445651110295e-05 0.0 
4.445651110295e-05 2.423589004168e-04 0.0 
0.0 0.0 -1.369191294062e-04 
-9.495668909469e-05 1.176622379905e-04 0.0 
1.176622379905e-04 8.146285890130e-04 0.0 
0.0 0.0 -1.619080202416e-04 
-2.343145573296e-04 8.942200005953e-05 0.0 
8.942200005953e-05 1.222252270070e-03 0.0 
0.0 0.0 -2.266090766362e-04 
-3.672954214302e-04 7.638439199011e-05 0.0 
7.638439199011e-05 1.767422352355e-03 0.0 
0.0 0.0 -2.937643997455e-04 
-5.002542736311e-04 4.683642936848e-05 0.0 
4.683642936848e-05 2.251732040701e-03 0.0 
0.0 0.0 -3.610469555860e-04 
-5.984940266315e-04 4.060795555227e-05 0.0 
4.060795555227e-05 2.708456263927e-03 0.0 
0.0 0.0 -4.277228197774e-04 
-6.941224007828e-04 4.519221696703e-05 0.0 
4.519221696703e-05 3.166683324582e-03 0.0 
0.0 0.0 -4.940119848999e-04 
-7.849981096782e-04 3.520077417946e-05 0.0 
3.520077417946e-05 3.622095280725e-03 0.0 
0.0 0.0 -5.601824523721e-04 
-8.634318271181e-04 3.405437137357e-05 0.0 
3.405437137357e-05 4.067071864957e-03 0.0 
0.0 0.0 -6.267196139102e-04 
-9.449136089268e-04 5.218773157199e-05 0.0 
5.218773157199e-05 4.520788341368e-03 0.0 
0.0 0.0 -6.936951881209e-04 
-1.027632022584e-03 9.700470508409e-05 0.0 
9.700470508409e-05 5.010143413423e-03 0.0 
0.0 0.0 -7.607197531558e-04 
-1.071044468659e-03 1.108294767969e-04 0.0 
1.108294767969e-04 5.450697122990e-03 0.0 
0.0 0.0 -8.270758575053e-04 
-1.105211944346e-03 1.479813750871e-04 0.0 
1.479813750871e-04 5.811869455564e-03 0.0 
0.0 0.0 -8.903361771249e-04 
-1.161317049125e-03 4.285670301682e-05 0.0 
4.285670301682e-05 6.275431738875e-03 0.0 
0.0 0.0 -9.558084330571e-04 
-1.207984253662e-03 4.172859767407e-05 0.0 
4.172859767407e-05 6.727772586467e-03 0.0 
0.0 0.0 -1.024523475697e-03 
-1.248615658251e-03 4.538254462405e-05 0.0 
4.538254462405e-05 7.165565903975e-03 0.0 
0.0 0.0 -1.091244731156e-03 
-1.288520992697e-03 4.179778286610e-05 0.0 
4.179778286610e-05 7.610376257827e-03 0.0 
0.0 0.0 -1.158330123333e-03 
-1.323945144233e-03 5.638174444750e-05 0.0 
5.638174444750e-05 8.056170868355e-03 0.0 
0.0 0.0 -1.226073836101e-03 
-1.340882067222e-03 7.816548302147e-05 0.0 
7.816548302147e-05 8.489692749980e-03 0.0 
0.0 0.0 -1.289832767750e-03 
-1.333912568024e-03 1.756046241659e-05 0.0 
1.756046241659e-05 8.926507635803e-03 0.0 
0.0 0.0 -1.336902025401e-03 
-1.341531841891e-03 4.063150434003e-05 0.0 
4.063150434003e-05 8.912362216672e-03 0.0 
0.0 0.0 -1.332945767435e-03 
-1.342187123766e-03 7.210449397353e-07 0.0 
7.210449397353e-07 8.901177082135e-03 0.0 
0.0 0.0 -1.334903170087e-03 
-1.344938961940e-03 1.164426212685e-04 0.0 
1.164426212685e-04 8.903433830404e-03 0.0 
0.0 0.0 -1.334459899807e-03 
-1.344212628933e-03 9.914567390186e-05 0.0 
9.914567390186e-05 8.888325984844e-03 0.0 
0.0 0.0 -1.332067731643e-03 
-1.341871993109e-03 1.326692721992e-04 0.0 
1.326692721992e-04 8.883986467254e-03 0.0 
0.0 0.0 -1.335050935171e-03 
-1.332922157688e-03 1.596974021170e-04 0.0 
1.596974021170e-04 8.887152863323e-03 0.0 
0.0 0.0 -1.335055123498e-03 
-1.344556942280e-03 1.739185913509e-04 0.0 
1.739185913509e-04 8.882073809328e-03 0.0 
0.0 0.0 -1.333530254363e-03 
-1.342253888820e-03 1.667068933720e-04 0.0 
1.667068933720e-04 8.882815983630e-03 0.0 
0.0 0.0 -1.336259905589e-03 
-1.344452318304e-03 2.643241252995e-04 0.0 
2.643241252995e-04 8.877541720491e-03 0.0 
0.0 0.0 -1.335712483792e-03 
-1.344739962132e-03 2.572691983564e-04 0.0 
2.572691983564e-04 8.855364652133e-03 0.0 
0.0 0.0 -1.333313947604e-03 
-1.345949101879e-03 2.896022605017e-04 0.0 
2.896022605017e-04 8.845196808155e-03 0.0 
0.0 0.0 -1.335862559377e-03 
-1.335909137164e-03 3.249556087329e-04 0.0 
3.249556087329e-04 8.847942912603e-03 0.0 
0.0 0.0 -1.336097458551e-03 
-1.346297016590e-03 3.518589132456e-04 0.0 
3.518589132456e-04 8.821759431275e-03 0.0 
0.0 0.0 -1.335235043394e-03 
-1.338076461259e-03 3.735365560477e-04 0.0 
3.735365560477e-04 8.793020733369e-03 0.0 
0.0 0.0 -1.334297546486e-03 
-1.346016481544e-03 4.214840137430e-04 0.0 
4.214840137430e-04 8.754866417549e-03 0.0 
0.0 0.0 -1.332308435384e-03 
-1.347150914510e-03 4.365635291823e-04 0.0 
4.365635291823e-04 8.724212055446e-03 0.0 
0.0 0.0 -1.332019584455e-03 
-1.334805935481e-03 4.680081517091e-04 0.0 
4.680081517091e-04 8.718730927757e-03 0.0 
0.0 0.0 -1.333392124151e-03 
-1.340647727227e-03 4.849743108024e-04 0.0 
4.849743108024e-04 8.700750373122e-03 0.0 
0.0 0.0 -1.334727449481e-03 
-1.341060759155e-03 5.031254601797e-04 0.0 
5.031254601797e-04 8.669240053120e-03 0.0 
0.0 0.0 -1.336576889699e-03 
-1.339241076831e-03 5.376075265351e-04 0.0 
5.376075265351e-04 8.637791543921e-03 0.0 
0.0 0.0 -1.335888391555e-03 
-1.332755026613e-03 5.259793014087e-04 0.0 
5.259793014087e-04 8.604247702023e-03 0.0 
0.0 0.0 -1.334783226448e-03 
-1.333664649469e-03 5.288889005307e-04 0.0 
5.288889005307e-04 8.561550836847e-03 0.0 
0.0 0.0 -1.335053869153e-03 
-1.331458992258e-03 5.134063938371e-04 0.0 
5.134063938371e-04 8.519772984337e-03 0.0 
0.0 0.0 -1.334960189349e-03 
-1.329775199773e-03 4.941096024064e-04 0.0 
4.941096024064e-04 8.496416219376e-03 0.0 
0.0 0.0 -1.334889991128e-03 
-1.320977987653e-03 4.615461390730e-04 0.0 
4.615461390730e-04 8.462524191980e-03 0.0 
0.0 0.0 -1.335774086633e-03 
-1.330023044346e-03 4.207866190154e-04 0.0 
4.207866190154e-04 8.427010713301e-03 0.0 
0.0 0.0 -1.336605656894e-03 
-1.315269658186e-03 3.720833040210e-04 0.0 
3.720833040210e-04 8.401189310414e-03 0.0 
0.0 0.0 -1.336508443943e-03 
-1.322412415585e-03 3.115810119469e-04 0.0 
3.115810119469e-04 8.379908734224e-03 0.0 
0.0 0.0 -1.335343284290e-03 
-1.320222320207e-03 2.175575066663e-04 0.0 
2.175575066663e-04 8.369874127435e-03 0.0 
0.0 0.0 -1.337998490269e-03 
-1.323625080933e-03 2.169102620600e-04 0.0 
2.169102620600e-04 8.349200848827e-03 0.0 
0.0 0.0 -1.337247094005e-03 
-1.312935671626e-03 1.217875082846e-04 0.0 
1.217875082846e-04 8.314561017664e-03 0.0 
0.0 0.0 -1.333783489999e-03 
-1.312397425891e-03 3.014725865093e-05 0.0 
3.014725865093e-05 8.298029012834e-03 0.0 
0.0 0.0 -1.334548731617e-03 
-1.314310776006e-03 -5.112989789945e-05 0.0 
-5.112989789945e-05 8.327635469408e-03 0.0 
0.0 0.0 -1.334619746794e-03 
-1.313246555764e-03 -1.133769864441e-04 0.0 
-1.133769864441e-04 8.338916253329e-03 0.0 
0.0 0.0 -1.335242115105e-03 
-1.326565106495e-03 -1.841934828275e-04 0.0 
-1.841934828275e-04 8.356624519228e-03 0.0 
0.0 0.0 -1.335691437541e-03 
-1.316402114403e-03 -2.262767311367e-04 0.0 
-2.262767311367e-04 8.389795272091e-03 0.0 
0.0 0.0 -1.335646478247e-03 
-1.330105212687e-03 -2.663920673302e-04 0.0 
-2.663920673302e-04 8.407666559300e-03 0.0 
0.0 0.0 -1.334931242407e-03 
-1.321109516020e-03 -3.015612028738e-04 0.0 
-3.015612028738e-04 8.428571737695e-03 0.0 
0.0 0.0 -1.334100791702e-03 
-1.335356464641e-03 -3.106038152236e-04 0.0 
-3.106038152236e-04 8.460193799364e-03 0.0 
0.0 0.0 -1.332237298415e-03 
-1.339781698762e-03 -3.337514916052e-04 0.0 
-3.337514916052e-04 8.495913159923e-03 0.0 
0.0 0.0 -1.333749945600e-03 
-1.335675790289e-03 -3.025403687924e-04 0.0 
-3.025403687924e-04 8.551515458499e-03 0.0 
0.0 0.0 -1.336652505695e-03 
-1.332391445612e-03 -3.083574403233e-04 0.0 
-3.083574403233e-04 8.592419009515e-03 0.0 
0.0 0.0 -1.337094627689e-03 
-1.345644529791e-03 -2.793636126787e-04 0.0 
-2.793636126787e-04 8.558237333725e-03 0.0 
0.0 0.0 -1.328990728106e-03 
-1.337312800610e-03 -2.305068913709e-04 0.0 
-2.305068913709e-04 8.630917037025e-03 0.0 
0.0 0.0 -1.335900064369e-03 
-1.350772327614e-03 -1.956698568975e-04 0.0 
-1.956698568975e-04 8.640358950647e-03 0.0 
0.0 0.0 -1.332523500780e-03 
-1.350423109387e-03 -1.955618747409e-04 0.0 
-1.955618747409e-04 8.650889793805e-03 0.0 
0.0 0.0 -1.335219049675e-03 
-1.349098610006e-03 -8.965167155351e-05 0.0 
-8.965167155351e-05 8.690821291703e-03 0.0 
0.0 0.0 -1.336566422126e-03 
-1.352485386629e-03 -6.128652914560e-05 0.0 
-6.128652914560e-05 8.701715469751e-03 0.0 
0.0 0.0 -1.335855682064e-03 
-8.621699259071e-04 -7.748599951090e-05 0.0 
-7.748599951090e-05 5.021330477437e-03 0.0 
0.0 0.0 -7.648954205800e-04 
-9.395078499560e-04 -8.704020005170e-05 0.0 
-8.704020005170e-05 5.517844915676e-03 0.0 
0.0 0.0 -8.298981322982e-04 
-9.977708429922e-04 -8.397016683561e-05 0.0 
-8.397016683561e-05 5.976838802593e-03 0.0 
0.0 0.0 -8.959277352460e-04 
-1.055682188809e-03 -8.887694878813e-05 0.0 
-8.887694878813e-05 6.419904102828e-03 0.0 
0.0 0.0 -9.610467530554e-04 
-1.113418161777e-03 -7.710435791321e-05 0.0 
-7.710435791321e-05 6.878985961880e-03 0.0 
0.0 0.0 -1.026987810050e-03 
-1.153337564853e-03 -8.395183782127e-05 0.0 
-8.395183782127e-05 7.337021217867e-03 0.0 
0.0 0.0 -1.092790196867e-03 
-1.209003093049e-03 -7.363209801243e-05 0.0 
-7.363209801243e-05 7.788251864833e-03 0.0 
0.0 0.0 -1.158290425478e-03 
-1.258139886954e-03 -8.431152228072e-05 0.0 
-8.431152228072e-05 8.217133852926e-03 0.0 
0.0 0.0 -1.224481705251e-03 
-1.303096836171e-03 -9.331509578295e-05 0.0 
-9.331509578295e-05 8.703843568816e-03 0.0 
0.0 0.0 -1.288782062784e-03 
0.0 0.0 0.0 
0.0 0.0 0.0 
0.0 0.0 0.0 
-8.469977810266e-04 1.418859108081e-04 0.0 
1.418859108081e-04 4.555195363259e-03 0.0 
0.0 0.0 -6.945495707198e-04 
1.853815197246e-05 4.024911659637e-04 0.0 
4.024911659637e-04 2.284141119962e-04 0.0 
0.0 0.0 -1.058366845580e-04 
-1.350079007602e-04 7.410901895652e-04 0.0 
7.410901895652e-04 7.622548468714e-04 0.0 
0.0 0.0 -2.667570615628e-04 
-3.852517699685e-04 8.237517617570e-04 0.0 
8.237517617570e-04 1.325012057104e-03 0.0 
0.0 0.0 -2.964167626729e-04 
-5.553115605805e-04 6.948245581935e-04 0.0 
6.948245581935e-04 1.798691708354e-03 0.0 
0.0 0.0 -3.108790080757e-04 
-5.881380717754e-04 5.581827846643e-04 0.0 
5.581827846643e-04 2.268059848630e-03 0.0 
0.0 0.0 -3.778135794433e-04 
-6.253800659574e-04 4.208240066448e-04 0.0 
4.208240066448e-04 2.745027489201e-03 0.0 
0.0 0.0 -4.454545662751e-04 
-6.818527519112e-04 3.447628562435e-04 0.0 
3.447628562435e-04 3.224158216588e-03 0.0 
0.0 0.0 -5.121313000160e-04 
-7.414536141764e-04 2.827689700129e-04 0.0 
2.827689700129e-04 3.696949746947e-03 0.0 
0.0 0.0 -5.789936928845e-04 
-7.870515372466e-04 2.079793333988e-04 0.0 
2.079793333988e-04 4.180103676420e-03 0.0 
0.0 0.0 -6.438411031842e-04 
-7.668057961877e-04 -1.303822435885e-04 0.0 
-1.303822435885e-04 4.303174476944e-03 0.0 
0.0 0.0 -6.488888888889e-04 
-7.873736608755e-04 5.502842443645e-05 0.0 
5.502842443645e-05 4.508278690252e-03 0.0 
0.0 0.0 -6.874962403976e-04 
-7.839311141629e-04 4.828509311105e-06 0.0 
4.828509311105e-06 4.540282316640e-03 0.0 
0.0 0.0 -6.910932206029e-04 
-7.921436345257e-04 5.707785244044e-06 0.0 
5.707785244044e-06 4.544942356556e-03 0.0 
0.0 0.0 -6.911911970487e-04 
-7.917187874242e-04 -4.341315515235e-06 0.0 
-4.341315515235e-06 4.539101219755e-03 0.0 
0.0 0.0 -6.903356507966e-04 
-7.944928086677e-04 1.125171909579e-05 0.0 
1.125171909579e-05 4.615388457654e-03 0.0 
0.0 0.0 -6.980756478071e-04 
-7.958365436316e-04 1.383445406237e-05 0.0 
1.383445406237e-05 4.547714033445e-03 0.0 
0.0 0.0 -6.911448554634e-04 
-7.903078046097e-04 6.769783050965e-06 0.0 
6.769783050965e-06 4.539714906749e-03 0.0 
0.0 0.0 -6.903833977050e-04 
-7.973486280958e-04 3.073462339535e-05 0.0 
3.073462339535e-05 4.549605953727e-03 0.0 
0.0 0.0 -6.905588330458e-04 
-8.138323735647e-04 2.995103124151e-05 0.0 
2.995103124151e-05 4.557442627231e-03 0.0 
0.0 0.0 -6.922444453805e-04 
-8.207112189752e-04 5.065642805556e-05 0.0 
5.065642805556e-05 4.556711038870e-03 0.0 
0.0 0.0 -6.916098530255e-04 
-8.174854078797e-04 5.882201982790e-05 0.0 
5.882201982790e-05 4.549634587438e-03 0.0 
0.0 0.0 -6.911665914957e-04 
-8.257607627907e-04 7.207096375596e-05 0.0 
7.207096375596e-05 4.539061374169e-03 0.0 
0.0 0.0 -6.911615840689e-04 
-8.256917502379e-04 1.052177725209e-04 0.0 
1.052177725209e-04 4.528909050130e-03 0.0 
0.0 0.0 -6.914992001314e-04 
-8.331385651634e-04 1.367043632585e-04 0.0 
1.367043632585e-04 4.532178590594e-03 0.0 
0.0 0.0 -6.922481495424e-04 
0.0 0.0 0.0 
0.0 0.0 0.0 
0.0 0.0 0.0 
0.0 0.0 0.0 
0.0 0.0 0.0 
0.0 0.0 0.0 
0.0 0.0 0.0 
0.0 0.0 0.0 
0.0 0.0 0.0 
0.0 0.0 0.0 
0.0 0.0 0.0 
0.0 0.0 0.0 
4.834769447441e-06 -2.872264321309e-05 0.0 
-2.872264321309e-05 1.098176460521e-05 0.0 
0.0 0.0 -6.778514593994e-06 
2.621325204595e-05 -1.413766582246e-04 0.0 
-1.413766582246e-04 5.747299694100e-05 0.0 
0.0 0.0 -3.574982278410e-05 
9.658306216209e-05 -1.514259984182e-04 0.0 
-1.514259984182e-04 8.442241842910e-05 0.0 
0.0 0.0 -4.425618980996e-05 
3.269147103475e-04 -5.021185392625e-05 0.0 
-5.021185392625e-05 3.514559889707e-05 0.0 
0.0 0.0 -8.078147856958e-05 
4.744476216527e-04 -2.955001894905e-05 0.0 
-2.955001894905e-05 6.422490925947e-06 0.0 
0.0 0.0 -1.179719326098e-04 
4.179559190719e-04 -4.545879091992e-05 0.0 
-4.545879091992e-05 1.677504639263e-05 0.0 
0.0 0.0 -8.559165356152e-05 
4.071360169644e-04 -5.676430788113e-05 0.0 
-5.676430788113e-05 2.001137970326e-05 0.0 
0.0 0.0 -6.874308561246e-05 
4.446412730432e-04 -3.115479505997e-05 0.0 
-3.115479505997e-05 1.541228328890e-05 0.0 
0.0 0.0 -8.846752904866e-05 
4.870475968622e-04 1.166873053583e-05 0.0 
1.166873053583e-05 -1.464623307350e-05 0.0 
0.0 0.0 -9.035052009108e-05 
5.260775556971e-04 2.845864580513e-06 0.0 
2.845864580513e-06 -4.734498310635e-05 0.0 
0.0 0.0 -8.407298760335e-05 
4.865685389177e-04 2.210043518699e-06 0.0 
2.210043518699e-06 -3.334183635663e-05 0.0 
0.0 0.0 -8.504329730078e-05 
4.576294102847e-04 1.370682311972e-05 0.0 
1.370682311972e-05 -9.748142346333e-06 0.0 
0.0 0.0 -9.010048746351e-05 
4.557074800118e-04 1.157182515006e-05 0.0 
1.157182515006e-05 -4.770258284517e-06 0.0 
0.0 0.0 -9.454035306001e-05 
4.891380854096e-04 3.188090938604e-05 0.0 
3.188090938604e-05 -4.233774217616e-05 0.0 
0.0 0.0 -9.623053552091e-05 
5.400442830743e-04 4.213650545752e-05 0.0 
4.213650545752e-05 -7.153665497831e-05 0.0 
0.0 0.0 -9.582330584734e-05 
-7.457678214461e-04 1.454804874473e-04 0.0 
1.454804874473e-04 4.202500264679e-03 0.0 
0.0 0.0 -6.497324959941e-04 
-8.108088060339e-04 1.035871231019e-04 0.0 
1.035871231019e-04 4.352234497384e-03 0.0 
0.0 0.0 -6.534848181696e-04 
-8.017855992019e-04 1.207836973121e-04 0.0 
1.207836973121e-04 4.380705089618e-03 0.0 
0.0 0.0 -6.562962962963e-04 
-7.914300858908e-04 8.563767153151e-05 0.0 
8.563767153151e-05 4.379554176711e-03 0.0 
0.0 0.0 -6.562962962963e-04 
-7.881015367654e-04 5.425954285074e-05 0.0 
5.425954285074e-05 4.389808426665e-03 0.0 
0.0 0.0 -6.562962962963e-04 
-7.831925970793e-04 4.482656038492e-05 0.0 
4.482656038492e-05 4.396942491127e-03 0.0 
0.0 0.0 -6.562962962963e-04 
-7.784810581080e-04 3.813300899341e-05 0.0 
3.813300899341e-05 4.393075358619e-03 0.0 
0.0 0.0 -6.562962962963e-04 
-7.733970875124e-04 1.702780042531e-05 0.0 
1.702780042531e-05 4.394642290458e-03 0.0 
0.0 0.0 -6.562962962963e-04 
-7.576714552682e-04 1.866698837137e-05 0.0 
1.866698837137e-05 4.398292065494e-03 0.0 
0.0 0.0 -6.562962962963e-04 
-7.607965564483e-04 2.460454513045e-06 0.0 
2.460454513045e-06 4.397838523922e-03 0.0 
0.0 0.0 -6.562962962963e-04 
-7.557685724615e-04 5.933914425374e-06 0.0 
5.933914425374e-06 4.396136499795e-03 0.0 
0.0 0.0 -6.562962962963e-04 
-7.520217752509e-04 -1.175192836787e-05 0.0 
-1.175192836787e-05 4.395285021052e-03 0.0 
0.0 0.0 -6.562962962963e-04 
-7.544191287447e-04 -3.774021109698e-06 0.0 
-3.774021109698e-06 4.399646261276e-03 0.0 
0.0 0.0 -6.562962962963e-04 
-7.514454650199e-04 -9.188454935910e-06 0.0 
-9.188454935910e-06 4.388728895291e-03 0.0 
0.0 0.0 -6.562962962963e-04 
-7.498469970934e-04 -4.566837403664e-05 0.0 
-4.566837403664e-05 4.356238325611e-03 0.0 
0.0 0.0 -6.562962962963e-04 
-7.406630923160e-04 1.129931604464e-04 0.0 
1.129931604464e-04 4.297129570346e-03 0.0 
0.0 0.0 -6.488888888889e-04 
-1.205590149926e-05 3.317961485941e-04 0.0 
3.317961485941e-04 5.164829889360e-05 0.0 
0.0 0.0 -1.696817031186e-05 
-4.487896732987e-05 6.031454295583e-04 0.0 
6.031454295583e-04 4.769141611533e-04 0.0 
0.0 0.0 -1.851579402100e-04 
-2.477886944410e-04 8.307338841621e-04 0.0 
8.307338841621e-04 1.056772820351e-03 0.0 
0.0 0.0 -3.137502536684e-04 
-5.164548883485e-04 7.997848336998e-04 0.0 
7.997848336998e-04 1.596714724844e-03 0.0 
0.0 0.0 -2.872952472806e-04 
-5.626935448601e-04 6.025030630991e-04 0.0 
6.025030630991e-04 2.056956549032e-03 0.0 
0.0 0.0 -3.440931072323e-04 
-5.892114679697e-04 4.852291775261e-04 0.0 
4.852291775261e-04 2.528395193714e-03 0.0 
0.0 0.0 -4.108392228286e-04 
-6.541158208693e-04 3.926707262510e-04 0.0 
3.926707262510e-04 2.991837282477e-03 0.0 
0.0 0.0 -4.786325096809e-04 
-7.088632208578e-04 3.304223531405e-04 0.0 
3.304223531405e-04 3.462879744444e-03 0.0 
0.0 0.0 -5.455426008747e-04 
-7.700717847985e-04 2.699528239775e-04 0.0 
2.699528239775e-04 3.939971317271e-03 0.0 
0.0 0.0 -6.123661653548e-04 
-7.888821341631e-04 1.920550557990e-04 0.0 
1.920550557990e-04 4.328141164474e-03 0.0 
0.0 0.0 -6.700619685898e-04 
-6.528049956140e-05 8.329192367362e-04 0.0 
8.329192367362e-04 6.721534156509e-04 0.0 
0.0 0.0 -2.600883926098e-04 
-1.238271811776e-03 -2.323410981101e-05 0.0 
-2.323410981101e-05 8.143368057859e-03 0.0 
0.0 0.0 -1.303388942653e-03 
5.998510431380e-05 -1.163529753908e-04 0.0 
-1.163529753908e-04 2.499013313257e-04 0.0 
0.0 0.0 -7.661148810519e-05 
1.270751205327e-05 -3.607914457566e-05 0.0 
-3.607914457566e-05 6.964316184804e-06 0.0 
0.0 0.0 -8.430783530604e-06 
-1.278901467981e-03 -2.582894247670e-04 0.0 
-2.582894247670e-04 8.264882866352e-03 0.0 
0.0 0.0 -1.303360877099e-03 
-5.655990039998e-04 8.080804633426e-04 0.0 
8.080804633426e-04 1.859508276799e-03 0.0 
0.0 0.0 -3.221766324775e-04 
-9.861956324832e-04 -6.715847648061e-05 0.0 
-6.715847648061e-05 4.773589466734e-03 0.0 
0.0 0.0 -7.300567563597e-04 
-1.244927303710e-03 2.945275852412e-04 0.0 
2.945275852412e-04 8.164800639293e-03 0.0 
0.0 0.0 -1.300998267065e-03 
-6.348034790759e-04 4.424120780115e-04 0.0 
4.424120780115e-04 2.761117670990e-03 0.0 
0.0 0.0 -4.497936382440e-04 
-1.277128875373e-03 4.777706098865e-04 0.0 
4.777706098865e-04 8.316029240451e-03 0.0 
0.0 0.0 -1.304014651794e-03 
-7.514819667783e-04 2.897671537100e-04 0.0 
2.897671537100e-04 3.742162088854e-03 0.0 
0.0 0.0 -5.857980290939e-04 
-1.307584739855e-03 -2.907864623538e-04 0.0 
-2.907864623538e-04 8.435582561033e-03 0.0 
0.0 0.0 -1.307658508868e-03 
2.194594038095e-04 -2.670865977714e-05 0.0 
-2.670865977714e-05 1.694259524564e-04 0.0 
0.0 0.0 -9.345456780789e-05 
-1.309138496400e-03 5.212450025025e-04 0.0 
5.212450025025e-04 8.474949316046e-03 0.0 
0.0 0.0 -1.304481600125e-03 
-8.746417822978e-04 2.068395432367e-04 0.0 
2.068395432367e-04 4.729142408164e-03 0.0 
0.0 0.0 -7.203075318094e-04 
-6.505648739721e-04 -3.624268182337e-05 0.0 
-3.624268182337e-05 2.957311441966e-03 0.0 
0.0 0.0 -4.640473930190e-04 
-1.131372666701e-03 -4.491765098181e-05 0.0 
-4.491765098181e-05 5.976165985442e-03 0.0 
0.0 0.0 -9.125512086551e-04 
-1.314763544022e-03 4.589275118802e-04 0.0 
4.589275118802e-04 8.560285468091e-03 0.0 
0.0 0.0 -1.301280071178e-03 
-1.328200349095e-03 3.774182231254e-04 0.0 
3.774182231254e-04 8.674652987533e-03 0.0 
0.0 0.0 -1.304294760550e-03 
-1.328231009146e-03 1.002317222840e-04 0.0 
1.002317222840e-04 8.762903021805e-03 0.0 
0.0 0.0 -1.303238611779e-03 
-1.321361255880e-03 2.020746578681e-04 0.0 
2.020746578681e-04 8.706453928135e-03 0.0 
0.0 0.0 -1.297727402575e-03 
-1.333675382953e-03 2.525190978684e-04 0.0 
2.525190978684e-04 8.729905622316e-03 0.0 
0.0 0.0 -1.305306183856e-03 
-8.907724214169e-04 1.372579395388e-04 0.0 
1.372579395388e-04 4.950739460616e-03 0.0 
0.0 0.0 -7.522011426764e-04 
-8.750579348879e-04 6.356350708577e-05 0.0 
6.356350708577e-05 4.972444393085e-03 0.0 
0.0 0.0 -7.529849494387e-04 
-8.651922808025e-04 1.321213173771e-05 0.0 
1.321213173771e-05 5.002490543075e-03 0.0 
0.0 0.0 -7.580270452736e-04 
-1.081282276580e-03 -2.537529428612e-05 0.0 
-2.537529428612e-05 6.643650052824e-03 0.0 
0.0 0.0 -9.950081682429e-04 
-1.332561184719e-03 -2.295807888403e-04 0.0 
-2.295807888403e-04 8.502002206283e-03 0.0 
0.0 0.0 -1.302874185639e-03 
0.0 0.0 0.0 
0.0 0.0 0.0 
0.0 0.0 0.0 
2.298856726687e-04 4.942897643495e-06 0.0 
4.942897643495e-06 2.012279080747e-04 0.0 
0.0 0.0 -1.091335401323e-04 
-1.266615157062e-03 -4.708891648946e-05 0.0 
-4.708891648946e-05 7.362986267811e-03 0.0 
0.0 0.0 -1.122886395833e-03 
-8.590690058330e-04 2.817818056919e-05 0.0 
2.817818056919e-05 4.956725197885e-03 0.0 
0.0 0.0 -7.500338828344e-04 
-3.077541790528e-04 -1.952701143312e-05 0.0 
-1.952701143312e-05 1.504768126338e-03 0.0 
0.0 0.0 -2.594501920933e-04 
-1.324226706230e-03 4.167698339106e-04 0.0 
4.167698339106e-04 8.547363588762e-03 0.0 
0.0 0.0 -1.293200138473e-03 
-1.268789998251e-03 4.116378875631e-04 0.0 
4.116378875631e-04 8.267843264786e-03 0.0 
0.0 0.0 -1.307307853467e-03 
-1.298127013523e-03 5.178122413189e-04 0.0 
5.178122413189e-04 8.390890810400e-03 0.0 
0.0 0.0 -1.304733450272e-03 
-1.233362636415e-03 1.634458979136e-04 0.0 
1.634458979136e-04 8.121763907804e-03 0.0 
0.0 0.0 -1.297928233296e-03 
-1.261877986510e-03 -1.597052773119e-04 0.0 
-1.597052773119e-04 8.188934025231e-03 0.0 
0.0 0.0 -1.305578568836e-03 
2.734204477331e-05 -3.169143204034e-04 0.0 
-3.169143204034e-04 1.647533136443e-04 0.0 
0.0 0.0 -8.226872593096e-05 
-8.795053511419e-04 9.559274535899e-05 0.0 
9.559274535899e-05 4.954160552764e-03 0.0 
0.0 0.0 -7.500980793755e-04 
-1.291571793349e-03 -3.018456542619e-04 0.0 
-3.018456542619e-04 8.267318175430e-03 0.0 
0.0 0.0 -1.293180865222e-03 
-1.191688283040e-03 -1.679553581366e-05 0.0 
-1.679553581366e-05 7.562043590583e-03 0.0 
0.0 0.0 -1.123598490052e-03 
1.170418686809e-04 -5.562668358397e-05 0.0 
-5.562668358397e-05 2.275676700802e-04 0.0 
0.0 0.0 -7.719741026454e-05 
-8.274582342161e-04 -6.171908782243e-05 0.0 
-6.171908782243e-05 3.848512271059e-03 0.0 
0.0 0.0 -5.937437734062e-04 
-1.335764842081e-03 6.371320431880e-05 0.0 
6.371320431880e-05 8.844549453637e-03 0.0 
0.0 0.0 -1.311981303940e-03 
-6.029700723185e-04 6.122078773443e-04 0.0 
6.122078773443e-04 2.350776615634e-03 0.0 
0.0 0.0 -3.897472533596e-04 
-3.421036135192e-04 9.389470505226e-04 0.0 
9.389470505226e-04 1.298921873387e-03 0.0 
0.0 0.0 -3.268992177355e-04 
-6.932234286341e-04 3.612940895343e-04 0.0 
3.612940895343e-04 3.253564498504e-03 0.0 
0.0 0.0 -5.178568985205e-04 
-8.102727904185e-04 2.233971647189e-04 0.0 
2.233971647189e-04 4.222711404521e-03 0.0 
0.0 0.0 -6.527703211191e-04 
4.295236624606e-05 4.339095319538e-04 0.0 
4.339095319538e-04 1.300886082655e-04 0.0 
0.0 0.0 -7.416041764780e-05 
-9.647575502476e-04 -2.771769126341e-06 0.0 
-2.771769126341e-06 5.776762544034e-03 0.0 
0.0 0.0 -8.684787984471e-04 
-1.350888138525e-03 -1.433490915200e-04 0.0 
-1.433490915200e-04 8.608994521473e-03 0.0 
0.0 0.0 -1.313906642692e-03 
2.800071964885e-04 3.444648977555e-05 0.0 
3.444648977555e-05 1.569326748892e-04 0.0 
0.0 0.0 -1.170139391697e-04 
-1.275593957644e-03 1.853867106533e-05 0.0 
1.853867106533e-05 8.418825182379e-03 0.0 
0.0 0.0 -1.253930875827e-03 
-8.953448143456e-04 1.901723990594e-04 0.0 
1.901723990594e-04 4.929510438704e-03 0.0 
0.0 0.0 -7.532271817479e-04 
-9.242130448013e-04 2.218369834796e-04 0.0 
2.218369834796e-04 5.094044769017e-03 0.0 
0.0 0.0 -7.809350190597e-04 
-9.469027331401e-04 2.184886764960e-04 0.0 
2.184886764960e-04 5.336848493436e-03 0.0 
0.0 0.0 -8.115578932774e-04 
-9.847582339447e-04 2.348277518639e-04 0.0 
2.348277518639e-04 5.535490339246e-03 0.0 
0.0 0.0 -8.428390908522e-04 
-1.013224796440e-03 2.269955445031e-04 0.0 
2.269955445031e-04 5.773109205172e-03 0.0 
0.0 0.0 -8.784658474099e-04 
-1.038385862696e-03 2.590411142921e-04 0.0 
2.590411142921e-04 5.954479327597e-03 0.0 
0.0 0.0 -9.060409163497e-04 
-1.004174411440e-03 2.781484189758e-04 0.0 
2.781484189758e-04 5.703926568537e-03 0.0 
0.0 0.0 -8.711257577415e-04 
-1.054585459025e-03 2.973439443916e-04 0.0 
2.973439443916e-04 6.126110480118e-03 0.0 
0.0 0.0 -9.341442283280e-04 
-1.020905393351e-03 3.220952727550e-04 0.0 
3.220952727550e-04 5.866625374892e-03 0.0 
0.0 0.0 -8.989774131092e-04 
-1.060675836449e-03 2.424242741137e-04 0.0 
2.424242741137e-04 6.211611638975e-03 0.0 
0.0 0.0 -9.415083590319e-04 
-1.069903741450e-03 3.342745829502e-04 0.0 
3.342745829502e-04 6.289952349254e-03 0.0 
0.0 0.0 -9.622976032585e-04 
-1.033366094007e-03 3.621226093725e-04 0.0 
3.621226093725e-04 6.024211968433e-03 0.0 
0.0 0.0 -9.268639294333e-04 
-1.081748877589e-03 3.725821950627e-04 0.0 
3.725821950627e-04 6.448138080981e-03 0.0 
0.0 0.0 -9.903372159162e-04 
-1.042953915019e-03 3.991340856965e-04 0.0 
3.991340856965e-04 6.178329635147e-03 0.0 
0.0 0.0 -9.547708836903e-04 
-9.946320659626e-04 3.943126043460e-04 0.0 
3.943126043460e-04 5.758814307551e-03 0.0 
0.0 0.0 -8.916807130883e-04 
-1.001107217771e-03 4.332773723891e-04 0.0 
4.332773723891e-04 5.906894361937e-03 0.0 
0.0 0.0 -9.194532194038e-04 
-9.524385169357e-04 4.327952618966e-04 0.0 
4.327952618966e-04 5.490022466699e-03 0.0 
0.0 0.0 -8.565021464485e-04 
-9.551941416785e-04 4.714703413802e-04 0.0 
4.714703413802e-04 5.632535536945e-03 0.0 
0.0 0.0 -8.841639842141e-04 
-1.003948910985e-03 4.659340529388e-04 0.0 
4.659340529388e-04 6.052492370979e-03 0.0 
0.0 0.0 -9.471984275390e-04 
-9.534464918986e-04 5.005026845975e-04 0.0 
5.005026845975e-04 5.770878701320e-03 0.0 
0.0 0.0 -9.118195294070e-04 
-9.061256584098e-04 5.150134062317e-04 0.0 
5.150134062317e-04 5.352614190247e-03 0.0 
0.0 0.0 -8.488396520500e-04 
-8.989049191365e-04 5.434397803423e-04 0.0 
5.434397803423e-04 5.483228311018e-03 0.0 
0.0 0.0 -8.764089341820e-04 
-8.533039374695e-04 5.667693254414e-04 0.0 
5.667693254414e-04 5.068208533921e-03 0.0 
0.0 0.0 -8.135623229517e-04 
-8.400733524865e-04 5.914836390070e-04 0.0 
5.914836390070e-04 5.191255654721e-03 0.0 
0.0 0.0 -8.410744910442e-04 
-7.968543408339e-04 6.237249391908e-04 0.0 
6.237249391908e-04 4.777124479860e-03 0.0 
0.0 0.0 -7.781617608290e-04 
-7.768533972697e-04 6.436004668132e-04 0.0 
6.436004668132e-04 4.892920097115e-03 0.0 
0.0 0.0 -8.056965831182e-04 
-8.240566969273e-04 5.997503228454e-04 0.0 
5.997503228454e-04 5.313376653990e-03 0.0 
0.0 0.0 -8.686949506212e-04 
-7.549029941076e-04 6.445435251704e-04 0.0 
6.445435251704e-04 5.007797875212e-03 0.0 
0.0 0.0 -8.332427817419e-04 
-7.080731455591e-04 7.008821416478e-04 0.0 
7.008821416478e-04 4.586577191639e-03 0.0 
0.0 0.0 -7.703313069557e-04 
-6.796342790660e-04 6.889970591832e-04 0.0 
6.889970591832e-04 4.694361205396e-03 0.0 
0.0 0.0 -7.977945042040e-04 
-6.329025767040e-04 7.594983388287e-04 0.0 
7.594983388287e-04 4.271526927018e-03 0.0 
0.0 0.0 -7.349073124327e-04 
-5.970419350956e-04 7.303350951608e-04 0.0 
7.303350951608e-04 4.369967111415e-03 0.0 
0.0 0.0 -7.622392297106e-04 
-6.532929672579e-04 6.522887049741e-04 0.0 
6.522887049741e-04 4.806542372592e-03 0.0 
0.0 0.0 -8.253152238873e-04 
-5.665194748989e-04 6.694860838181e-04 0.0 
6.694860838181e-04 4.478701756150e-03 0.0 
0.0 0.0 -7.896995018144e-04 
-5.068058502527e-04 7.602496009026e-04 0.0 
7.602496009026e-04 4.031209139410e-03 0.0 
0.0 0.0 -7.264132926703e-04 
-4.737449794266e-04 6.709445860115e-04 0.0 
6.709445860115e-04 4.140917238724e-03 0.0 
0.0 0.0 -7.539848323805e-04 
-4.092281239023e-04 7.730243516518e-04 0.0 
7.730243516518e-04 3.680765614921e-03 0.0 
0.0 0.0 -6.903858661722e-04 
-3.744957372966e-04 6.516877818939e-04 0.0 
6.516877818939e-04 3.794607072583e-03 0.0 
0.0 0.0 -7.182351804274e-04 
-3.014418119782e-04 7.651198626849e-04 0.0 
7.651198626849e-04 3.317111817818e-03 0.0 
0.0 0.0 -6.542402593883e-04 
-2.691367924077e-04 5.991354595496e-04 0.0 
5.991354595496e-04 3.436288112929e-03 0.0 
0.0 0.0 -6.821763112594e-04 
-3.572033048063e-04 5.016025540799e-04 0.0 
5.016025540799e-04 3.930238801817e-03 0.0 
0.0 0.0 -7.460902125261e-04 
-2.604633093040e-04 4.087486075233e-04 0.0 
4.087486075233e-04 3.586761049540e-03 0.0 
0.0 0.0 -7.100832486075e-04 
-1.613056217724e-04 4.995138349428e-04 0.0 
4.995138349428e-04 3.072389318551e-03 0.0 
0.0 0.0 -6.458624074531e-04 
-1.669705829229e-04 2.701808013183e-04 0.0 
2.701808013183e-04 3.243787358763e-03 0.0 
0.0 0.0 -6.737786430284e-04 
-2.753947664968e-04 2.161212745525e-04 0.0 
2.161212745525e-04 3.768674846201e-03 0.0 
0.0 0.0 -7.381473126730e-04 
-2.005498486414e-04 5.346396201185e-05 0.0 
5.346396201185e-05 3.452103226554e-03 0.0 
0.0 0.0 -7.017500108595e-04 
-3.129525029214e-04 3.691539212024e-05 0.0 
3.691539212024e-05 3.980008917697e-03 0.0 
0.0 0.0 -7.662494016216e-04 
-2.576506604218e-04 -1.344602376400e-04 0.0 
-1.344602376400e-04 3.691587731914e-03 0.0 
0.0 0.0 -7.297828278826e-04 
-1.426325829897e-04 -1.501001214894e-04 0.0 
-1.501001214894e-04 3.157731231159e-03 0.0 
0.0 0.0 -6.655364893108e-04 
-2.218003623758e-04 -3.334729403515e-04 0.0 
-3.334729403515e-04 3.428848173996e-03 0.0 
0.0 0.0 -6.934067383651e-04 
-3.318343911700e-04 -2.853674173367e-04 0.0 
-2.853674173367e-04 3.952815162001e-03 0.0 
0.0 0.0 -7.577868799165e-04 
-3.144801710965e-04 -4.682272711583e-04 0.0 
-4.682272711583e-04 3.714915939774e-03 0.0 
0.0 0.0 -7.212202614536e-04 
-2.108184981842e-04 -5.509789330318e-04 0.0 
-5.509789330318e-04 3.196953321697e-03 0.0 
0.0 0.0 -6.571136838490e-04 
-3.194748950850e-04 -6.509678457029e-04 0.0 
-6.509678457029e-04 3.509025892108e-03 0.0 
0.0 0.0 -6.848379476561e-04 
-4.134303053585e-04 -5.537180261355e-04 0.0 
-5.537180261355e-04 4.010754256809e-03 0.0 
0.0 0.0 -7.491645792950e-04 
-4.282972412297e-04 -7.003622053819e-04 0.0 
-7.003622053819e-04 3.819503617895e-03 0.0 
0.0 0.0 -7.127097857715e-04 
-3.469063150971e-04 -8.191207970740e-04 0.0 
-8.191207970740e-04 3.332834435183e-03 0.0 
0.0 0.0 -6.486049398320e-04 
-4.603200915782e-04 -8.241016297384e-04 0.0 
-8.241016297384e-04 3.654972315785e-03 0.0 
0.0 0.0 -6.763006240845e-04 
-5.326763552168e-04 -7.095630877107e-04 0.0 
-7.095630877107e-04 4.127629826769e-03 0.0 
0.0 0.0 -7.409416231994e-04 
-5.642434690968e-04 -7.961766967206e-04 0.0 
-7.961766967206e-04 3.962246775740e-03 0.0 
0.0 0.0 -7.042275185679e-04 
-5.048810542407e-04 -9.111393169982e-04 0.0 
-9.111393169982e-04 3.507729400124e-03 0.0 
0.0 0.0 -6.398389559308e-04 
-6.027165900428e-04 -8.444966016725e-04 0.0 
-8.444966016725e-04 3.810620087909e-03 0.0 
0.0 0.0 -6.674633383154e-04 
-6.579291994771e-04 -7.450391146030e-04 0.0 
-7.450391146030e-04 4.258237816838e-03 0.0 
0.0 0.0 -7.324886333286e-04 
-6.885251553241e-04 -7.661379123145e-04 0.0 
-7.661379123145e-04 4.095680745521e-03 0.0 
0.0 0.0 -6.954027321055e-04 
-7.420005201256e-04 -6.813900099092e-04 0.0 
-6.813900099092e-04 4.540296059999e-03 0.0 
0.0 0.0 -7.608997874520e-04 
-6.419229239274e-04 -8.515280830913e-04 0.0 
-8.515280830913e-04 3.660198205629e-03 0.0 
0.0 0.0 -6.302092384919e-04 
-7.165087956100e-04 -7.532581299851e-04 0.0 
-7.532581299851e-04 3.933160643348e-03 0.0 
0.0 0.0 -6.580989212857e-04 
-6.748415764425e-04 -8.158732049488e-04 0.0 
-8.158732049488e-04 3.506981101763e-03 0.0 
0.0 0.0 -5.925517106747e-04 
-7.365832294088e-04 -7.073699189760e-04 0.0 
-7.073699189760e-04 3.765896700508e-03 0.0 
0.0 0.0 -6.207111136070e-04 
-6.332000182986e-04 5.918731838089e-04 0.0 
5.918731838089e-04 4.929291128701e-03 0.0 
0.0 0.0 -8.529317679587e-04 
-6.943116331248e-04 -7.425915444218e-04 0.0 
-7.425915444218e-04 3.344277999279e-03 0.0 
0.0 0.0 -5.549884598765e-04 
-6.397413698948e-04 -8.660814527003e-04 0.0 
-8.660814527003e-04 3.093984914707e-03 0.0 
0.0 0.0 -5.276250340903e-04 
-7.441497249529e-04 -6.348309289793e-04 0.0 
-6.348309289793e-04 3.588685288948e-03 0.0 
0.0 0.0 -5.833260987948e-04 
-7.927694967591e-04 -6.072286345187e-04 0.0 
-6.072286345187e-04 4.017000879105e-03 0.0 
0.0 0.0 -6.493616581942e-04 
-6.966675025981e-04 -6.428656991036e-04 0.0 
-6.428656991036e-04 3.166084591150e-03 0.0 
0.0 0.0 -5.173870653820e-04 
-7.365323002863e-04 -5.431818663254e-04 0.0 
-5.431818663254e-04 3.397457388952e-03 0.0 
0.0 0.0 -5.459094278256e-04 
-6.801980278813e-04 -5.258870908465e-04 0.0 
-5.258870908465e-04 2.971149924429e-03 0.0 
0.0 0.0 -4.798161731008e-04 
-3.522724475006e-04 8.978406558880e-04 0.0 
8.978406558880e-04 3.218246737404e-03 0.0 
0.0 0.0 -6.252159162693e-04 
-1.003922379852e-03 4.867498946042e-04 0.0 
4.867498946042e-04 6.194900288835e-03 0.0 
0.0 0.0 -9.750716696758e-04 
-7.134730581966e-04 -4.396097415729e-04 0.0 
-4.396097415729e-04 3.191992919970e-03 0.0 
0.0 0.0 -5.084495576641e-04 
-6.454975030147e-04 -4.098543326581e-04 0.0 
-4.098543326581e-04 2.756723401947e-03 0.0 
0.0 0.0 -4.423119711188e-04 
-6.169555617155e-04 -4.854535332185e-04 0.0 
-4.854535332185e-04 2.543124995000e-03 0.0 
0.0 0.0 -4.136824817550e-04 
-5.630688119643e-04 -3.553409865602e-04 0.0 
-3.553409865602e-04 2.315573721592e-03 0.0 
0.0 0.0 -3.761903503575e-04 
-1.032297422083e-03 1.966440866369e-04 0.0 
1.966440866369e-04 6.038887422175e-03 0.0 
0.0 0.0 -9.126358703463e-04 
-1.092679819842e-03 2.404953654437e-04 0.0 
2.404953654437e-04 6.471742125457e-03 0.0 
0.0 0.0 -9.772611937912e-04 
-1.065662184042e-03 1.952825978825e-04 0.0 
1.952825978825e-04 6.276115658093e-03 0.0 
0.0 0.0 -9.468612964576e-04 
-1.124488971150e-03 2.272669760496e-04 0.0 
2.272669760496e-04 6.729090336894e-03 0.0 
0.0 0.0 -1.012955122490e-03 
-1.098065280761e-03 1.864830102051e-04 0.0 
1.864830102051e-04 6.541298868571e-03 0.0 
0.0 0.0 -9.835180958883e-04 
-5.915603593799e-04 -3.065298427479e-04 0.0 
-3.065298427479e-04 2.521782196510e-03 0.0 
0.0 0.0 -4.047791634435e-04 
-1.117175513921e-03 3.540420738705e-04 0.0 
3.540420738705e-04 6.717826161917e-03 0.0 
0.0 0.0 -1.026687169009e-03 
-1.146459728684e-03 2.677090129604e-04 0.0 
2.677090129604e-04 6.908937528882e-03 0.0 
0.0 0.0 -1.042264213861e-03 
-8.619810308033e-04 5.269046982762e-04 0.0 
5.269046982762e-04 4.942534175484e-03 0.0 
0.0 0.0 -7.861871271282e-04 
-6.685992335526e-04 7.579980182072e-04 0.0 
7.579980182072e-04 4.174187567995e-03 0.0 
0.0 0.0 -7.076088937226e-04 
-3.823000922578e-04 1.751040962943e-04 0.0 
1.751040962943e-04 4.285393794973e-03 0.0 
0.0 0.0 -8.027518904046e-04 
-7.754697783619e-04 -4.563258168331e-04 0.0 
-4.563258168331e-04 3.623603682734e-03 0.0 
0.0 0.0 -5.745905038755e-04 
-7.478137892348e-04 -3.620965601600e-04 0.0 
-3.620965601600e-04 3.412205611854e-03 0.0 
0.0 0.0 -5.371338854166e-04 
-8.174754817651e-04 -3.813163108904e-04 0.0 
-3.813163108904e-04 3.849101426160e-03 0.0 
0.0 0.0 -6.033452624549e-04 
-7.192525572030e-04 -6.519418612780e-04 0.0 
-6.519418612780e-04 4.714458239345e-03 0.0 
0.0 0.0 -7.980428604176e-04 
-8.008672232585e-04 -6.001783307384e-04 0.0 
-6.001783307384e-04 4.992005436326e-03 0.0 
0.0 0.0 -8.266132305475e-04 
-7.854918836627e-04 -5.659348858598e-04 0.0 
-5.659348858598e-04 5.176434454621e-03 0.0 
0.0 0.0 -8.638188500004e-04 
-8.639017049063e-04 -5.248351014622e-04 0.0 
-5.248351014622e-04 5.448454375514e-03 0.0 
0.0 0.0 -8.924533907576e-04 
-8.555184497349e-04 -4.894755576408e-04 0.0 
-4.894755576408e-04 5.642058910946e-03 0.0 
0.0 0.0 -9.297164513315e-04 
-9.301291339826e-04 -4.570426975750e-04 0.0 
-4.570426975750e-04 5.908844626244e-03 0.0 
0.0 0.0 -9.583747859490e-04 
-9.353789003032e-04 -4.780922276340e-04 0.0 
-4.780922276340e-04 5.711821717037e-03 0.0 
0.0 0.0 -9.210728288235e-04 
-9.984662583326e-04 -4.207024963502e-04 0.0 
-4.207024963502e-04 6.168121907027e-03 0.0 
0.0 0.0 -9.870277070005e-04 
-1.000069004232e-03 -4.285924737525e-04 0.0 
-4.285924737525e-04 5.966651563586e-03 0.0 
0.0 0.0 -9.497007337289e-04 
-9.283284515458e-04 -4.229135290675e-04 0.0 
-4.229135290675e-04 6.110180447664e-03 0.0 
0.0 0.0 -9.956835613869e-04 
-8.527578693464e-04 -4.403303765288e-04 0.0 
-4.403303765288e-04 5.842885643991e-03 0.0 
0.0 0.0 -9.668198671257e-04 
-1.059819806392e-03 -3.815720688592e-04 0.0 
-3.815720688592e-04 6.418981492352e-03 0.0 
0.0 0.0 -1.015681523326e-03 
-1.057949721367e-03 -3.770560260125e-04 0.0 
-3.770560260125e-04 6.213345858748e-03 0.0 
0.0 0.0 -9.783260305704e-04 
-1.113690001508e-03 -3.391138449317e-04 0.0 
-3.391138449317e-04 6.662067817752e-03 0.0 
0.0 0.0 -1.044362401637e-03 
-1.108897527401e-03 -3.261874601882e-04 0.0 
-3.261874601882e-04 6.451449547970e-03 0.0 
0.0 0.0 -1.007007767922e-03 
-1.056102434059e-03 -3.617377197121e-04 0.0 
-3.617377197121e-04 6.006353850389e-03 0.0 
0.0 0.0 -9.408676861799e-04 
-1.103510128039e-03 -3.034940289184e-04 0.0 
-3.034940289184e-04 6.238484304806e-03 0.0 
0.0 0.0 -9.695029660748e-04 
-1.052845247082e-03 -3.373861149014e-04 0.0 
-3.373861149014e-04 5.798954310895e-03 0.0 
0.0 0.0 -9.035672079865e-04 
-4.228503435162e-04 2.652797493901e-05 0.0 
2.652797493901e-05 4.498640496550e-03 0.0 
0.0 0.0 -8.309624794500e-04 
-4.884683166150e-04 1.460460655517e-04 0.0 
1.460460655517e-04 4.796700712876e-03 0.0 
0.0 0.0 -8.675775700443e-04 
-5.309148746778e-04 2.225588307319e-05 0.0 
2.225588307319e-05 5.010085131158e-03 0.0 
0.0 0.0 -8.958500940740e-04 
-5.943549435448e-04 1.251718936452e-04 0.0 
1.251718936452e-04 5.302582402065e-03 0.0 
0.0 0.0 -9.325549191312e-04 
-6.382538609797e-04 2.086054713912e-05 0.0 
2.086054713912e-05 5.516155282354e-03 0.0 
0.0 0.0 -9.609176734917e-04 
-7.011603817707e-04 1.101794033340e-04 0.0 
1.101794033340e-04 5.804703043974e-03 0.0 
0.0 0.0 -9.976363410588e-04 
-7.465959866999e-04 2.216834778625e-05 0.0 
2.216834778625e-05 6.016830116331e-03 0.0 
0.0 0.0 -1.026032504441e-03 
-6.923978724816e-04 -6.826398853254e-05 0.0 
-6.826398853254e-05 5.743653636097e-03 0.0 
0.0 0.0 -9.892761093609e-04 
-1.092308246197e-03 4.087334969491e-04 0.0 
4.087334969491e-04 6.601377400440e-03 0.0 
0.0 0.0 -1.018102500310e-03 
-5.675897396992e-05 3.425637172408e-04 0.0 
3.425637172408e-04 2.708861454988e-03 0.0 
0.0 0.0 -6.095594541484e-04 
-6.420114659775e-05 6.151203334216e-04 0.0 
6.151203334216e-04 2.551183745386e-03 0.0 
0.0 0.0 -5.816898710390e-04 
5.441246620249e-05 4.399473863901e-04 0.0 
4.399473863901e-04 2.161774981432e-03 0.0 
0.0 0.0 -5.454521931755e-04 
2.844502818309e-05 7.644395339616e-04 0.0 
7.644395339616e-04 2.024830997844e-03 0.0 
0.0 0.0 -5.176388733440e-04 
1.652901373793e-04 5.705702379394e-04 0.0 
5.705702379394e-04 1.600345183292e-03 0.0 
0.0 0.0 -4.814163979944e-04 
1.130601457631e-04 9.562292981796e-04 0.0 
9.562292981796e-04 1.494895390825e-03 0.0 
0.0 0.0 -4.537165770244e-04 
2.845119300012e-04 7.483953602617e-04 0.0 
7.483953602617e-04 1.019187802654e-03 0.0 
0.0 0.0 -4.208902240644e-04 
2.929325993539e-04 2.620833489363e-04 0.0 
2.620833489363e-04 1.186149753907e-03 0.0 
0.0 0.0 -4.466351565148e-04 
4.659960569609e-04 3.874152989476e-04 0.0 
3.874152989476e-04 5.352766773023e-04 0.0 
0.0 0.0 -3.736376070058e-04 
4.059265982279e-04 -1.758088808093e-04 0.0 
-1.758088808093e-04 8.092916298160e-04 0.0 
0.0 0.0 -4.168446658567e-04 
5.790431118009e-04 -1.610129805314e-04 0.0 
-1.610129805314e-04 1.533127793959e-04 0.0 
0.0 0.0 -3.063790003961e-04 
4.494391646470e-04 -7.152402717994e-04 0.0 
-7.152402717994e-04 5.082279969168e-04 0.0 
0.0 0.0 -3.640020775467e-04 
-8.080190775198e-04 5.920502661192e-04 0.0 
5.920502661192e-04 5.436356176569e-03 0.0 
0.0 0.0 -8.963565068603e-04 
-6.651558879210e-04 2.088271070434e-04 0.0 
2.088271070434e-04 5.603894024499e-03 0.0 
0.0 0.0 -9.691568884624e-04 
-7.699005087498e-04 1.883379167874e-04 0.0 
1.883379167874e-04 6.102423018858e-03 0.0 
0.0 0.0 -1.034312087004e-03 
-7.384024095732e-04 2.760115291154e-04 0.0 
2.760115291154e-04 5.907746579569e-03 0.0 
0.0 0.0 -1.005320805676e-03 
-5.404221803057e-04 -4.187129725138e-04 0.0 
-4.187129725138e-04 2.110154003912e-03 0.0 
0.0 0.0 -3.475522021424e-04 
-1.152888887005e-03 -2.763407572661e-04 0.0 
-2.763407572661e-04 6.681517292358e-03 0.0 
0.0 0.0 -1.035773625862e-03 
-9.326850124499e-04 -3.805734010338e-04 0.0 
-3.805734010338e-04 6.318938914436e-03 0.0 
0.0 0.0 -1.032922975483e-03 
-8.578946226242e-04 -3.814307824260e-04 0.0 
-3.814307824260e-04 6.050788235921e-03 0.0 
0.0 0.0 -1.003739924893e-03 
-8.007230077279e-04 -5.030783828559e-05 0.0 
-5.030783828559e-05 6.244226135644e-03 0.0 
0.0 0.0 -1.054598834243e-03 
-4.941523760955e-04 -2.470231279283e-04 0.0 
-2.470231279283e-04 2.071816915527e-03 0.0 
0.0 0.0 -3.392587823741e-04 
1.975953042673e-04 1.172543779916e-03 0.0 
1.172543779916e-03 9.666654142640e-04 0.0 
0.0 0.0 -3.922431101850e-04 
5.175793587872e-06 1.277837662737e-03 0.0 
1.277837662737e-03 1.466786264722e-03 0.0 
0.0 0.0 -4.261104576107e-04 
-1.152692083578e-03 2.146597661269e-04 0.0 
2.146597661269e-04 6.983288018661e-03 0.0 
0.0 0.0 -1.048874596840e-03 
-1.125979627456e-03 1.800276227316e-04 0.0 
1.800276227316e-04 6.792196765101e-03 0.0 
0.0 0.0 -1.019458214591e-03 
-9.448287362971e-04 -3.295389867260e-04 0.0 
-3.295389867260e-04 6.536387605041e-03 0.0 
0.0 0.0 -1.070157681403e-03 
-5.240293716215e-04 -2.102668930863e-04 0.0 
-2.102668930863e-04 2.277314558376e-03 0.0 
0.0 0.0 -3.675747464493e-04 
-1.063791247498e-03 -3.742192618344e-04 0.0 
-3.742192618344e-04 6.627422368744e-03 0.0 
0.0 0.0 -1.052997445444e-03 
5.558984473440e-04 4.127353325470e-04 0.0 
4.127353325470e-04 1.463881506698e-05 0.0 
0.0 0.0 -2.445159696047e-04 
-1.144117684349e-03 -2.458346103954e-04 0.0 
-2.458346103954e-04 6.462839923362e-03 0.0 
0.0 0.0 -9.982306137915e-04 
-1.191309827109e-03 -2.266694415371e-04 0.0 
-2.266694415371e-04 6.904200660223e-03 0.0 
0.0 0.0 -1.064501221861e-03 
-9.418341400068e-04 -4.830251057162e-04 0.0 
-4.830251057162e-04 5.517520339527e-03 0.0 
0.0 0.0 -8.838659695519e-04 
-8.408929706273e-04 2.533730996691e-04 0.0 
2.533730996691e-04 6.403362100756e-03 0.0 
0.0 0.0 -1.070909199420e-03 
-8.123210735737e-04 3.267258872306e-04 0.0 
3.267258872306e-04 6.208133296915e-03 0.0 
0.0 0.0 -1.041442769611e-03 
2.640974401389e-04 -6.120925406395e-04 0.0 
-6.120925406395e-04 1.170954425306e-03 0.0 
0.0 0.0 -4.384799197683e-04 
2.270076462303e-04 -1.094827319140e-03 0.0 
-1.094827319140e-03 9.810701092341e-04 0.0 
0.0 0.0 -4.046094527367e-04 
3.640551099348e-04 -1.155184556941e-03 0.0 
-1.155184556941e-03 4.131638396833e-04 0.0 
0.0 0.0 -3.139947606995e-04 
1.171979887630e-04 -1.455005939438e-03 0.0 
-1.455005939438e-03 9.453620887615e-04 0.0 
0.0 0.0 -3.763072820036e-04 
2.556371078842e-05 -1.262704422364e-03 0.0 
-1.262704422364e-03 1.454464914390e-03 0.0 
0.0 0.0 -4.289053338950e-04 
-8.947678599683e-05 -1.490768828574e-03 0.0 
-1.490768828574e-03 1.396555812330e-03 0.0 
0.0 0.0 -3.979758726750e-04 
2.329510608106e-05 -1.514078363831e-03 0.0 
-1.514078363831e-03 9.452166061342e-04 0.0 
0.0 0.0 -3.667276109228e-04 
-2.100553572376e-04 -1.558593298157e-03 0.0 
-1.558593298157e-03 1.402552177449e-03 0.0 
0.0 0.0 -3.771854463149e-04 
-2.665534885264e-04 -1.440543195804e-03 0.0 
-1.440543195804e-03 1.828480576306e-03 0.0 
0.0 0.0 -4.192720002935e-04 
-3.858828221178e-04 -1.432331817451e-03 0.0 
-1.432331817451e-03 1.803183213938e-03 0.0 
0.0 0.0 -3.853829593207e-04 
-2.961455271275e-04 -1.398427341996e-03 0.0 
-1.398427341996e-03 1.416563920223e-03 0.0 
0.0 0.0 -3.646163496721e-04 
-4.654616132702e-04 -1.259328861233e-03 0.0 
-1.259328861233e-03 1.764244007017e-03 0.0 
0.0 0.0 -3.558200702016e-04 
-1.201889062818e-03 -2.543911578407e-04 0.0 
-2.543911578407e-04 7.124942193322e-03 0.0 
0.0 0.0 -1.101875158976e-03 
5.412904168970e-04 -8.385322248721e-05 0.0 
-8.385322248721e-05 -1.404456435363e-04 0.0 
0.0 0.0 -1.717906171546e-04 
-9.463800631761e-04 3.860027273263e-04 0.0 
3.860027273263e-04 5.343793686453e-03 0.0 
0.0 0.0 -8.288706041983e-04 
-1.014362980206e-03 -3.321555799501e-04 0.0 
-3.321555799501e-04 6.794335154877e-03 0.0 
0.0 0.0 -1.099012274073e-03 
-8.569045148225e-04 3.078985663282e-05 0.0 
3.078985663282e-05 6.510332221214e-03 0.0 
0.0 0.0 -1.090660416876e-03 
-1.178566600954e-03 2.066846340334e-04 0.0 
2.066846340334e-04 7.236502688045e-03 0.0 
0.0 0.0 -1.085032576515e-03 
-1.153658343620e-03 1.755152393049e-04 0.0 
1.755152393049e-04 7.044914703598e-03 0.0 
0.0 0.0 -1.055603631703e-03 
-1.098678134952e-03 1.564744163133e-04 0.0 
1.564744163133e-04 6.595940529562e-03 0.0 
0.0 0.0 -9.897378988699e-04 
-1.129113373444e-03 1.503482155027e-04 0.0 
1.503482155027e-04 6.853244331223e-03 0.0 
0.0 0.0 -1.026001677571e-03 
-1.181824965340e-03 1.678156779438e-04 0.0 
1.678156779438e-04 7.301020112961e-03 0.0 
0.0 0.0 -1.091942449670e-03 
-1.157557793781e-03 1.434383666525e-04 0.0 
1.434383666525e-04 7.107529686986e-03 0.0 
0.0 0.0 -1.062342898562e-03 
-1.103342207633e-03 1.238709536611e-04 0.0 
1.238709536611e-04 6.657901312686e-03 0.0 
0.0 0.0 -9.962627399151e-04 
-1.130139591936e-03 1.194308116232e-04 0.0 
1.194308116232e-04 6.908298246914e-03 0.0 
0.0 0.0 -1.032646955902e-03 
-1.072650473166e-03 9.941159075289e-05 0.0 
9.941159075289e-05 6.455574140328e-03 0.0 
0.0 0.0 -9.664557332607e-04 
-1.101356119743e-03 9.815565709695e-05 0.0 
9.815565709695e-05 6.706288769856e-03 0.0 
0.0 0.0 -1.002889032254e-03 
-1.155889062888e-03 1.141636426079e-04 0.0 
1.141636426079e-04 7.157664523701e-03 0.0 
0.0 0.0 -1.069134413525e-03 
-1.129364737971e-03 9.069177524751e-05 0.0 
9.069177524751e-05 6.958007176896e-03 0.0 
0.0 0.0 -1.039387411609e-03 
-1.074512864600e-03 8.003659807365e-05 0.0 
8.003659807365e-05 6.506063569350e-03 0.0 
0.0 0.0 -9.730575354659e-04 
-1.102505706781e-03 6.895302199807e-05 0.0 
6.895302199807e-05 6.755927681467e-03 0.0 
0.0 0.0 -1.009574527126e-03 
-1.046730538131e-03 5.947738879001e-05 0.0 
5.947738879001e-05 6.301429284161e-03 0.0 
0.0 0.0 -9.431603702596e-04 
-1.071542509842e-03 4.629020306893e-05 0.0 
4.629020306893e-05 6.545497453892e-03 0.0 
0.0 0.0 -9.796061197752e-04 
-1.128792209327e-03 6.597728227981e-05 0.0 
6.597728227981e-05 7.006220652052e-03 0.0 
0.0 0.0 -1.046101832713e-03 
-4.073418969283e-04 -1.607374412238e-04 0.0 
-1.607374412238e-04 1.828608037656e-03 0.0 
0.0 0.0 -3.035957800550e-04 
-7.554826328512e-04 -1.381735686785e-04 0.0 
-1.381735686785e-04 5.982792301535e-03 0.0 
0.0 0.0 -1.017732614895e-03 
-8.650297313857e-04 -1.043541426240e-04 0.0 
-1.043541426240e-04 6.483758424389e-03 0.0 
0.0 0.0 -1.083831836677e-03 
-7.928232165852e-04 -3.175969841458e-04 0.0 
-3.175969841458e-04 3.652484692606e-03 0.0 
0.0 0.0 -5.671321338944e-04 
-8.566347672055e-04 -3.217821912401e-04 0.0 
-3.217821912401e-04 4.048954472777e-03 0.0 
0.0 0.0 -6.325382687906e-04 
-8.804918361104e-04 -3.627202257711e-04 0.0 
-3.627202257711e-04 4.282181100263e-03 0.0 
0.0 0.0 -6.695659616924e-04 
-9.177573047803e-04 -2.924538415403e-04 0.0 
-2.924538415403e-04 4.507721826303e-03 0.0 
0.0 0.0 -6.986863204145e-04 
-1.099135465243e-03 4.357947276918e-05 0.0 
4.357947276918e-05 6.797671672464e-03 0.0 
0.0 0.0 -1.015477767897e-03 
-1.160436245727e-03 6.544078644588e-05 0.0 
6.544078644588e-05 7.256684604588e-03 0.0 
0.0 0.0 -1.082739357160e-03 
7.036319334209e-05 1.449833710054e-03 0.0 
1.449833710054e-03 1.011168072104e-03 0.0 
0.0 0.0 -3.730214571323e-04 
-1.313033917885e-04 1.466714958247e-03 0.0 
1.466714958247e-03 1.502828426790e-03 0.0 
0.0 0.0 -4.032920832132e-04 
-1.202425520628e-03 2.413601229435e-04 0.0 
2.413601229435e-04 7.423802842249e-03 0.0 
0.0 0.0 -1.114382729655e-03 
-1.180850422310e-03 -1.936004808914e-04 0.0 
-1.936004808914e-04 6.684429122052e-03 0.0 
0.0 0.0 -1.027045364000e-03 
-1.134320678585e-03 -2.084199271041e-04 0.0 
-2.084199271041e-04 6.243084428302e-03 0.0 
0.0 0.0 -9.609938998495e-04 
-5.952582294012e-04 8.316068584819e-04 0.0 
8.316068584819e-04 3.858437738170e-03 0.0 
0.0 0.0 -6.721935305596e-04 
-6.370100935664e-04 8.121723615139e-04 0.0 
8.121723615139e-04 3.769953827514e-03 0.0 
0.0 0.0 -6.449639573754e-04 
-5.665659749616e-04 8.991854182347e-04 0.0 
8.991854182347e-04 3.453268816289e-03 0.0 
0.0 0.0 -6.093131083769e-04 
-6.122481697245e-04 8.584550154617e-04 0.0 
8.584550154617e-04 3.367517643807e-03 0.0 
0.0 0.0 -5.812298138028e-04 
-6.717347223774e-04 7.671538527367e-04 0.0 
7.671538527367e-04 3.680324616707e-03 0.0 
0.0 0.0 -6.173664885638e-04 
-5.474862438506e-04 9.567364556164e-04 0.0 
9.567364556164e-04 3.048590303343e-03 0.0 
0.0 0.0 -5.448148816535e-04 
-7.720267330795e-04 -4.449545656596e-04 0.0 
-4.449545656596e-04 5.565922562376e-03 0.0 
0.0 0.0 -9.373051277721e-04 
-1.182206612194e-03 1.041005248131e-04 0.0 
1.041005248131e-04 7.409010778114e-03 0.0 
0.0 0.0 -1.105708206284e-03 
-5.928875136439e-04 -5.713513742364e-04 0.0 
-5.713513742364e-04 2.330327898660e-03 0.0 
0.0 0.0 -3.852871208612e-04 
-5.197872744909e-04 -4.881912543796e-04 0.0 
-4.881912543796e-04 1.906337896852e-03 0.0 
0.0 0.0 -3.193625892355e-04 
-1.227873719132e-03 -1.791865956722e-04 0.0 
-1.791865956722e-04 7.126040838435e-03 0.0 
0.0 0.0 -1.093300181677e-03 
-6.499802166189e-04 -1.689058959396e-04 0.0 
-1.689058959396e-04 5.481207367019e-03 0.0 
0.0 0.0 -9.522822042369e-04 
-8.770180670307e-04 5.584319225786e-04 0.0 
5.584319225786e-04 5.741150606381e-03 0.0 
0.0 0.0 -9.319735432435e-04 
-8.671724403427e-04 5.454834419887e-04 0.0 
5.454834419887e-04 5.872286509418e-03 0.0 
0.0 0.0 -9.598347391831e-04 
-9.359860302395e-04 5.226295226197e-04 0.0 
5.226295226197e-04 6.177406845640e-03 0.0 
0.0 0.0 -9.957130113267e-04 
-9.320971335610e-04 5.080083978468e-04 0.0 
5.080083978468e-04 6.315456934145e-03 0.0 
0.0 0.0 -1.023751803962e-03 
-1.000869956237e-03 4.939881751637e-04 0.0 
4.939881751637e-04 6.620841154437e-03 0.0 
0.0 0.0 -1.059873349132e-03 
-1.004419613008e-03 4.777529205192e-04 0.0 
4.777529205192e-04 6.763876066662e-03 0.0 
0.0 0.0 -1.087854580038e-03 
-9.336137141730e-04 4.809338762962e-04 0.0 
4.809338762962e-04 6.463526298401e-03 0.0 
0.0 0.0 -1.051791170495e-03 
-9.097029887622e-04 3.089094526998e-04 0.0 
3.089094526998e-04 6.700162919637e-03 0.0 
0.0 0.0 -1.107463318235e-03 
-1.013980886497e-03 4.491053628713e-04 0.0 
4.491053628713e-04 6.922381498406e-03 0.0 
0.0 0.0 -1.115916943430e-03 
-1.033295848304e-03 4.860531472176e-05 0.0 
4.860531472176e-05 6.321432505072e-03 0.0 
0.0 0.0 -9.487150400336e-04 
-6.387227248277e-04 3.148916192941e-04 0.0 
3.148916192941e-04 5.411845409225e-03 0.0 
0.0 0.0 -9.398448712237e-04 
-3.958753706079e-04 -1.306941406373e-03 0.0 
-1.306941406373e-03 2.210168825673e-03 0.0 
0.0 0.0 -4.474652294669e-04 
-3.867396229061e-04 -1.939364425131e-04 0.0 
-1.939364425131e-04 1.612473113241e-03 0.0 
0.0 0.0 -2.752498982733e-04 
-3.548792531294e-04 -1.099906862766e-03 0.0 
-1.099906862766e-03 1.383653509656e-03 0.0 
0.0 0.0 -3.352047878591e-04 
-4.486846026636e-04 -1.253624941077e-04 0.0 
-1.253624941077e-04 2.009661496099e-03 0.0 
0.0 0.0 -3.299748606085e-04 
-5.597023421830e-04 -1.650736869684e-04 0.0 
-1.650736869684e-04 2.479203026553e-03 0.0 
0.0 0.0 -3.961554456411e-04 
-1.033444219732e-03 -2.887128519644e-04 0.0 
-2.887128519644e-04 7.020027445513e-03 0.0 
0.0 0.0 -1.136360603439e-03 
-1.072616243485e-03 4.757105308921e-04 0.0 
4.757105308921e-04 7.071175993343e-03 0.0 
0.0 0.0 -1.124065295910e-03 
-1.065195527322e-03 4.849349100928e-04 0.0 
4.849349100928e-04 6.917548798149e-03 0.0 
0.0 0.0 -1.095615423988e-03 
-6.465811726499e-04 7.943118945265e-04 0.0 
7.943118945265e-04 3.291375737462e-03 0.0 
0.0 0.0 -5.539799138139e-04 
-6.949762395585e-04 6.852387151617e-04 0.0 
6.852387151617e-04 3.583300335040e-03 0.0 
0.0 0.0 -5.905304635153e-04 
-9.409548518096e-04 2.363101942403e-04 0.0 
2.363101942403e-04 6.893498553700e-03 0.0 
0.0 0.0 -1.136278651916e-03 
-1.031330535355e-03 1.691125997159e-04 0.0 
1.691125997159e-04 6.096244556870e-03 0.0 
0.0 0.0 -9.177848451843e-04 
-1.043451867895e-03 1.026605375003e-04 0.0 
1.026605375003e-04 6.207052540714e-03 0.0 
0.0 0.0 -9.302130594432e-04 
-1.010991519056e-03 8.266817185374e-05 0.0 
8.266817185374e-05 5.998028369178e-03 0.0 
0.0 0.0 -9.001900590098e-04 
-3.040782914078e-04 -1.048978576797e-04 0.0 
-1.048978576797e-04 1.479833111238e-03 0.0 
0.0 0.0 -2.595221258752e-04 
-1.668157979825e-04 -1.176981615551e-03 0.0 
-1.176981615551e-03 1.066881825257e-03 0.0 
0.0 0.0 -3.546314877250e-04 
-1.207894844135e-03 1.612820959581e-04 0.0 
1.612820959581e-04 7.555800088084e-03 0.0 
0.0 0.0 -1.128363834889e-03 
-1.496144498695e-04 1.267178183608e-03 0.0 
1.267178183608e-03 1.924933515505e-03 0.0 
0.0 0.0 -4.615872697407e-04 
-2.777481430259e-04 1.364720531140e-03 0.0 
1.364720531140e-03 1.941765323137e-03 0.0 
0.0 0.0 -4.342639779644e-04 
4.034334735409e-04 2.445431345025e-04 0.0 
2.445431345025e-04 -9.041096436294e-05 0.0 
0.0 0.0 -1.341525039334e-04 
2.051377463425e-04 -1.961701048020e-05 0.0 
-1.961701048020e-05 -5.720414671563e-05 0.0 
0.0 0.0 -6.340011412580e-05 
-1.121483383227e-03 6.295637452115e-05 0.0 
6.295637452115e-05 7.029111019756e-03 0.0 
0.0 0.0 -1.051814883004e-03 
-1.177494848702e-03 6.582362175726e-05 0.0 
6.582362175726e-05 7.492557943411e-03 0.0 
0.0 0.0 -1.117859435171e-03 
-9.333898311745e-04 -3.509792996749e-04 0.0 
-3.509792996749e-04 4.719089492349e-03 0.0 
0.0 0.0 -7.356929296387e-04 
-9.785857666390e-04 -2.860980495383e-04 0.0 
-2.860980495383e-04 4.943354100410e-03 0.0 
0.0 0.0 -7.648299719236e-04 
-9.654424262213e-04 -2.714537898239e-04 0.0 
-2.714537898239e-04 6.765873836397e-03 0.0 
0.0 0.0 -1.107558395918e-03 
-5.027897087658e-04 -9.882385644824e-04 0.0 
-9.882385644824e-04 1.682465534830e-03 0.0 
0.0 0.0 -3.185922720913e-04 
-1.207361177183e-03 7.219593573452e-05 0.0 
7.219593573452e-05 7.710745314262e-03 0.0 
0.0 0.0 -1.149181664990e-03 
-7.221207359935e-04 -2.319743394949e-04 0.0 
-2.319743394949e-04 5.736084564024e-03 0.0 
0.0 0.0 -9.807908033776e-04 
-6.199444920269e-04 -2.803458900383e-04 0.0 
-2.803458900383e-04 5.234294253432e-03 0.0 
0.0 0.0 -9.152404036621e-04 
-8.850179884087e-04 -2.107315013722e-04 0.0 
-2.107315013722e-04 4.277220058387e-03 0.0 
0.0 0.0 -6.604623333687e-04 
-7.131176054971e-05 1.522786260440e-03 0.0 
1.522786260440e-03 1.128166094303e-03 0.0 
0.0 0.0 -3.722456989795e-04 
1.506124378874e-04 1.353289082485e-03 0.0 
1.353289082485e-03 6.471948717885e-04 0.0 
0.0 0.0 -3.185609919049e-04 
-2.939037762269e-04 -1.257650241065e-03 0.0 
-1.257650241065e-03 2.275247472139e-03 0.0 
0.0 0.0 -4.845585894574e-04 
-5.488065046231e-04 -1.067445958774e-03 0.0 
-1.067445958774e-03 2.060865836395e-03 0.0 
0.0 0.0 -3.723415964733e-04 
-4.888098213751e-04 -1.052003350203e-04 0.0 
-1.052003350203e-04 2.216308377581e-03 0.0 
0.0 0.0 -3.583452993329e-04 
-1.062272686561e-03 -2.298804836140e-04 0.0 
-2.298804836140e-04 7.251651551201e-03 0.0 
0.0 0.0 -1.173829981771e-03 
-1.227876715994e-03 1.893009349700e-04 0.0 
1.893009349700e-04 7.743204952100e-03 0.0 
0.0 0.0 -1.157575248917e-03 
-9.423902529627e-04 4.304393189543e-04 0.0 
4.304393189543e-04 6.620906454591e-03 0.0 
0.0 0.0 -1.080172819833e-03 
-8.612685947681e-04 4.776509476654e-04 0.0 
4.776509476654e-04 6.154589150170e-03 0.0 
0.0 0.0 -1.015677837919e-03 
-1.022115058251e-03 4.070298504517e-04 0.0 
4.070298504517e-04 7.083428986968e-03 0.0 
0.0 0.0 -1.144955025780e-03 
-3.834899570330e-04 -7.958142673473e-04 0.0 
-7.958142673473e-04 1.299084562353e-03 0.0 
0.0 0.0 -2.798534577099e-04 
-1.102214544351e-03 -3.027150081502e-04 0.0 
-3.027150081502e-04 7.282068807861e-03 0.0 
0.0 0.0 -1.165794428787e-03 
-1.216895343866e-03 -1.441675384032e-04 0.0 
-1.441675384032e-04 6.902897395280e-03 0.0 
0.0 0.0 -1.056136825731e-03 
-1.138941837453e-03 4.914289706325e-04 0.0 
4.914289706325e-04 7.351648623001e-03 0.0 
0.0 0.0 -1.157598467365e-03 
-1.123764904198e-03 4.819548128218e-04 0.0 
4.819548128218e-04 7.209866110785e-03 0.0 
0.0 0.0 -1.131219827106e-03 
-2.809946016527e-04 1.203335788346e-03 0.0 
1.203335788346e-03 2.340542833527e-03 0.0 
0.0 0.0 -4.968499830348e-04 
-3.877477755505e-04 1.221962387701e-03 0.0 
1.221962387701e-03 2.338693931197e-03 0.0 
0.0 0.0 -4.705806478706e-04 
-4.036150361409e-04 1.336476693924e-03 0.0 
1.336476693924e-03 1.977592500610e-03 0.0 
0.0 0.0 -4.078257031896e-04 
-4.816859073884e-04 1.176560530353e-03 0.0 
1.176560530353e-03 2.343460801890e-03 0.0 
0.0 0.0 -4.438024830152e-04 
-9.732353814622e-04 3.041939387353e-04 0.0 
3.041939387353e-04 5.448266059909e-03 0.0 
0.0 0.0 -8.361670615232e-04 
-3.925437291381e-04 1.104523798212e-03 0.0 
1.104523798212e-03 2.729748532404e-03 0.0 
0.0 0.0 -5.333915535664e-04 
-9.057439282626e-04 4.261225243386e-04 0.0 
4.261225243386e-04 5.077306138642e-03 0.0 
0.0 0.0 -7.939299641313e-04 
-8.975208378586e-04 3.720025570421e-04 0.0 
3.720025570421e-04 4.930717473606e-03 0.0 
0.0 0.0 -7.665196690739e-04 
-8.600171473097e-04 4.161603871668e-04 0.0 
4.161603871668e-04 4.671461707836e-03 0.0 
0.0 0.0 -7.319524942586e-04 
-7.253516315596e-04 6.727829162625e-04 0.0 
6.727829162625e-04 3.972513731187e-03 0.0 
0.0 0.0 -6.527873785750e-04 
-7.385699352999e-04 5.948696391935e-04 0.0 
5.948696391935e-04 3.862508165088e-03 0.0 
0.0 0.0 -6.261871041946e-04 
-1.081656769382e-04 8.687696267767e-04 0.0 
8.687696267767e-04 2.439613486548e-03 0.0 
0.0 0.0 -5.534964465553e-04 
-4.602867709727e-04 2.826245204948e-04 0.0 
2.826245204948e-04 4.601098480980e-03 0.0 
0.0 0.0 -8.390310526140e-04 
-8.925257354332e-04 -4.271097572203e-04 0.0 
-4.271097572203e-04 4.492522403458e-03 0.0 
0.0 0.0 -7.069621042110e-04 
-1.002856146604e-03 -4.033307783673e-04 0.0 
-4.033307783673e-04 5.565178736137e-03 0.0 
0.0 0.0 -8.751042800696e-04 
-7.003078251289e-04 -5.958729416123e-04 0.0 
-5.958729416123e-04 4.895224615458e-03 0.0 
0.0 0.0 -8.350146568664e-04 
-1.207341521713e-03 1.295685592876e-04 0.0 
1.295685592876e-04 7.603516284320e-03 0.0 
0.0 0.0 -1.135109731873e-03 
-1.234147304705e-03 1.158810138817e-04 0.0 
1.158810138817e-04 7.860000857238e-03 0.0 
0.0 0.0 -1.171938512032e-03 
-1.015895156183e-03 6.930194114772e-05 0.0 
6.930194114772e-05 6.052013455342e-03 0.0 
0.0 0.0 -9.065739516476e-04 
-9.767996699331e-04 4.467953763507e-05 0.0 
4.467953763507e-05 5.838511550894e-03 0.0 
0.0 0.0 -8.764137937918e-04 
-4.392150575772e-04 -3.259674398810e-04 0.0 
-3.259674398810e-04 1.665337581441e-03 0.0 
0.0 0.0 -2.813159824896e-04 
-4.247097810398e-04 -3.644747280315e-04 0.0 
-3.644747280315e-04 1.471773465299e-03 0.0 
0.0 0.0 -2.533966087790e-04 
-8.177306416292e-04 -6.121829702514e-04 0.0 
-6.121829702514e-04 4.811548278672e-03 0.0 
0.0 0.0 -7.894497706086e-04 
-1.082360538362e-03 -3.264662476232e-04 0.0 
-3.264662476232e-04 7.048376439915e-03 0.0 
0.0 0.0 -1.127529358476e-03 
-1.227748397910e-03 2.361030321983e-04 0.0 
2.361030321983e-04 7.672982991330e-03 0.0 
0.0 0.0 -1.150095860580e-03 
-1.249888144017e-03 2.671434152154e-04 0.0 
2.671434152154e-04 7.859407510661e-03 0.0 
0.0 0.0 -1.179372829571e-03 
-1.222973776595e-03 2.761414432265e-04 0.0 
2.761414432265e-04 7.603174812567e-03 0.0 
0.0 0.0 -1.143369325255e-03 
-9.935045909858e-04 -2.028359368237e-04 0.0 
-2.028359368237e-04 6.995967624477e-03 0.0 
0.0 0.0 -1.144273392007e-03 
3.495269992969e-05 1.197649878409e-04 0.0 
1.197649878409e-04 2.359795329880e-03 0.0 
0.0 0.0 -5.733740095480e-04 
-4.781962153862e-04 -1.012252719499e-04 0.0 
-1.012252719499e-04 4.730438814657e-03 0.0 
0.0 0.0 -8.590966742019e-04 
3.810975112987e-04 -3.002206319640e-04 0.0 
-3.002206319640e-04 -7.297745490904e-05 0.0 
0.0 0.0 -1.320514527384e-04 
-7.161621287090e-04 5.841402981115e-04 0.0 
5.841402981115e-04 5.248781673340e-03 0.0 
0.0 0.0 -8.884627649733e-04 
-3.115080858313e-04 -2.227975807547e-04 0.0 
-2.227975807547e-04 1.202076532669e-03 0.0 
0.0 0.0 -2.162536877156e-04 
-1.055053453560e-03 4.626735760724e-04 0.0 
4.626735760724e-04 6.476326574185e-03 0.0 
0.0 0.0 -1.010319580236e-03 
-1.255576380871e-03 -1.315357551102e-04 0.0 
-1.315357551102e-04 7.338059588025e-03 0.0 
0.0 0.0 -1.122815839103e-03 
-1.267850494462e-03 -1.674624135979e-04 0.0 
-1.674624135979e-04 7.563446267715e-03 0.0 
0.0 0.0 -1.159213750608e-03 
-1.010702044889e-03 2.850279828007e-04 0.0 
2.850279828007e-04 7.183997457293e-03 0.0 
0.0 0.0 -1.171959308352e-03 
-8.963384137737e-04 2.488891316052e-04 0.0 
2.488891316052e-04 4.875662042004e-03 0.0 
0.0 0.0 -7.470952864203e-04 
-7.058007902936e-04 5.271243929450e-04 0.0 
5.271243929450e-04 5.385179954600e-03 0.0 
0.0 0.0 -9.162722660995e-04 
-6.228080214073e-04 5.120192170004e-04 0.0 
5.120192170004e-04 5.067178617559e-03 0.0 
0.0 0.0 -8.808726170640e-04 
-8.477370711112e-04 3.577431200157e-04 0.0 
3.577431200157e-04 4.525141676784e-03 0.0 
0.0 0.0 -7.048691535495e-04 
-8.132640120407e-04 4.004719993994e-04 0.0 
4.004719993994e-04 4.272493314920e-03 0.0 
0.0 0.0 -6.707530558731e-04 
-8.209482996094e-04 4.682329320479e-04 0.0 
4.682329320479e-04 4.408754927634e-03 0.0 
0.0 0.0 -6.972958566626e-04 
-7.782280701881e-04 4.523325447572e-04 0.0 
4.523325447572e-04 4.016412533301e-03 0.0 
0.0 0.0 -6.359606378414e-04 
-4.177281549139e-04 -1.168672558867e-03 0.0 
-1.168672558867e-03 2.631942087578e-03 0.0 
0.0 0.0 -5.122594947013e-04 
-4.962383683680e-04 -1.157174554661e-03 0.0 
-1.157174554661e-03 2.541178569243e-03 0.0 
0.0 0.0 -4.750188804659e-04 
-1.154021499096e-03 4.782775772644e-04 0.0 
4.782775772644e-04 7.573815285751e-03 0.0 
0.0 0.0 -1.192042136895e-03 
-1.094464537807e-03 4.618413052259e-04 0.0 
4.618413052259e-04 7.386095086857e-03 0.0 
0.0 0.0 -1.178660172201e-03 
-1.187593002781e-03 4.811019602591e-04 0.0 
4.811019602591e-04 7.655964388501e-03 0.0 
0.0 0.0 -1.193029175878e-03 
-1.163263876641e-03 4.785864187479e-04 0.0 
4.785864187479e-04 7.511604884733e-03 0.0 
0.0 0.0 -1.168165168231e-03 
-1.037083014282e-03 2.184072236099e-04 0.0 
2.184072236099e-04 7.374910845912e-03 0.0 
0.0 0.0 -1.200910491468e-03 
-9.753553652922e-04 1.640389574658e-04 0.0 
1.640389574658e-04 7.090218753853e-03 0.0 
0.0 0.0 -1.164168769488e-03 
-6.028560444752e-04 -1.360178339637e-04 0.0 
-1.360178339637e-04 2.675687027615e-03 0.0 
0.0 0.0 -4.227350873389e-04 
-7.047203305141e-04 5.847954661015e-04 0.0 
5.847954661015e-04 3.476801185836e-03 0.0 
0.0 0.0 -5.646260317871e-04 
-1.245127779796e-03 1.777850177793e-04 0.0 
1.777850177793e-04 7.993741479566e-03 0.0 
0.0 0.0 -1.194151889699e-03 
-8.817872830960e-04 3.208786017712e-04 0.0 
3.208786017712e-04 4.774377627364e-03 0.0 
0.0 0.0 -7.390869131010e-04 
-1.164936831278e-03 -3.113795227657e-04 0.0 
-3.113795227657e-04 7.515893028419e-03 0.0 
0.0 0.0 -1.192835421428e-03 
-1.142129895980e-03 -3.204237901470e-04 0.0 
-3.204237901470e-04 7.305220282504e-03 0.0 
0.0 0.0 -1.156047193884e-03 
8.143997684988e-05 -5.632529459351e-05 0.0 
-5.632529459351e-05 -1.764449114255e-05 0.0 
0.0 0.0 -2.734092244600e-05 
2.721987346519e-04 -4.520014711284e-04 0.0 
-4.520014711284e-04 1.905810524669e-05 0.0 
0.0 0.0 -1.248243599565e-04 
-1.231567197499e-03 6.211834964842e-05 0.0 
6.211834964842e-05 7.963702026826e-03 0.0 
0.0 0.0 -1.184588873336e-03 
-5.000595373901e-04 1.204680535621e-03 0.0 
1.204680535621e-03 1.991465428866e-03 0.0 
0.0 0.0 -3.811925308841e-04 
-5.489936022904e-04 1.042785009975e-03 0.0 
1.042785009975e-03 2.300834123338e-03 0.0 
0.0 0.0 -4.158690271831e-04 
-3.842703009259e-04 1.346678098862e-03 0.0 
1.346678098862e-03 1.633275420512e-03 0.0 
0.0 0.0 -3.660215567096e-04 
-1.330527207980e-03 -3.853221662851e-05 0.0 
-3.853221662851e-05 8.239463133450e-03 0.0 
0.0 0.0 -1.258310293365e-03 
-8.465756460554e-04 5.727197951409e-07 0.0 
5.727197951409e-07 4.947192301730e-03 0.0 
0.0 0.0 -7.479256703001e-04 
-1.285435156603e-03 -1.236167483815e-04 0.0 
-1.236167483815e-04 7.770617594905e-03 0.0 
0.0 0.0 -1.189418985649e-03 
-7.744068399611e-04 5.950771192320e-04 0.0 
5.950771192320e-04 4.259141188703e-03 0.0 
0.0 0.0 -6.884682336192e-04 
-1.252365039908e-03 8.497968466370e-05 0.0 
8.497968466370e-05 8.173452803744e-03 0.0 
0.0 0.0 -1.216510697198e-03 
-7.049683277386e-04 4.524468991294e-04 0.0 
4.524468991294e-04 5.539667182357e-03 0.0 
0.0 0.0 -9.449116413281e-04 
-5.109301527551e-04 9.153066593930e-04 0.0 
9.153066593930e-04 3.518995939107e-03 0.0 
0.0 0.0 -6.353966017694e-04 
-8.973844045661e-04 -2.448816665564e-04 0.0 
-2.448816665564e-04 6.506541659943e-03 0.0 
0.0 0.0 -1.078177493492e-03 
-1.200545941931e-03 2.302554044874e-05 0.0 
2.302554044874e-05 7.723131628604e-03 0.0 
0.0 0.0 -1.149140729088e-03 
-1.267685038875e-03 6.016813044477e-05 0.0 
6.016813044477e-05 8.228074956414e-03 0.0 
0.0 0.0 -1.221625961084e-03 
-9.734656256453e-04 9.189307336811e-05 0.0 
9.189307336811e-05 5.749626761027e-03 0.0 
0.0 0.0 -8.638707813346e-04 
-9.480895872449e-04 4.301450456172e-05 0.0 
4.301450456172e-05 5.516146053233e-03 0.0 
0.0 0.0 -8.327709333130e-04 
-1.011335939965e-03 1.092245285963e-04 0.0 
1.092245285963e-04 5.940162525294e-03 0.0 
0.0 0.0 -8.925140200429e-04 
4.463857562194e-04 7.689358174209e-04 0.0 
7.689358174209e-04 8.096987600889e-05 0.0 
0.0 0.0 -2.260095566693e-04 
2.840813490605e-04 4.390350068277e-04 0.0 
4.390350068277e-04 7.817808705326e-06 0.0 
0.0 0.0 -1.250996390425e-04 
-1.210084270230e-03 9.714327804011e-05 0.0 
9.714327804011e-05 7.658599637129e-03 0.0 
0.0 0.0 -1.142090266074e-03 
-7.141279186037e-04 -2.802255352289e-04 0.0 
-2.802255352289e-04 3.181146952729e-03 0.0 
0.0 0.0 -5.006138788623e-04 
-7.694336124780e-04 -2.009358515531e-04 0.0 
-2.009358515531e-04 3.447879024720e-03 0.0 
0.0 0.0 -5.359218444892e-04 
-5.552155606093e-04 -8.313172136283e-04 0.0 
-8.313172136283e-04 1.917610481523e-03 0.0 
0.0 0.0 -3.334096804080e-04 
-5.855222745600e-04 -8.890134040167e-04 0.0 
-8.890134040167e-04 2.304658271308e-03 0.0 
0.0 0.0 -3.985542937016e-04 
-9.453814008689e-04 -4.031453143009e-04 0.0 
-4.031453143009e-04 4.927324523234e-03 0.0 
0.0 0.0 -7.728092966600e-04 
-8.970888917955e-04 -4.820738487373e-04 0.0 
-4.820738487373e-04 4.692923205728e-03 0.0 
0.0 0.0 -7.441750962829e-04 
-1.057585005233e-03 4.777756013197e-04 0.0 
4.777756013197e-04 6.625238408207e-03 0.0 
0.0 0.0 -1.038692069610e-03 
-1.108626014693e-03 4.632490588969e-04 0.0 
4.632490588969e-04 6.908491944325e-03 0.0 
0.0 0.0 -1.074129358999e-03 
-9.418242035971e-04 5.272068290834e-04 0.0 
5.272068290834e-04 6.041038675917e-03 0.0 
0.0 0.0 -9.675620497173e-04 
-6.990392591995e-04 -3.338931181341e-04 0.0 
-3.338931181341e-04 5.500989544803e-03 0.0 
0.0 0.0 -9.439558448496e-04 
-6.028432506679e-04 -3.974427061355e-04 0.0 
-3.974427061355e-04 5.004524485729e-03 0.0 
0.0 0.0 -8.783802297791e-04 
-5.183067816985e-04 -3.360734288677e-04 0.0 
-3.360734288677e-04 4.731806317453e-03 0.0 
0.0 0.0 -8.502765121185e-04 
-1.259796436841e-03 1.397569485309e-04 0.0 
1.397569485309e-04 8.039016122005e-03 0.0 
0.0 0.0 -1.199867006878e-03 
-1.287397602500e-03 1.387283529904e-04 0.0 
1.387283529904e-04 8.359284824254e-03 0.0 
0.0 0.0 -1.242728214876e-03 
-3.379919536494e-04 -1.097545305898e-03 0.0 
-1.097545305898e-03 2.729711593676e-03 0.0 
0.0 0.0 -5.488632449009e-04 
-2.035001513821e-04 -1.112025139158e-03 0.0 
-1.112025139158e-03 2.365560687545e-03 0.0 
0.0 0.0 -5.212126360957e-04 
-5.194133645792e-04 -1.055659007126e-03 0.0 
-1.055659007126e-03 2.949517889644e-03 0.0 
0.0 0.0 -5.390128571062e-04 
-1.267707936259e-03 2.118212896833e-04 0.0 
2.118212896833e-04 8.185373915988e-03 0.0 
0.0 0.0 -1.223056365294e-03 
-1.302765377273e-03 -1.484462634259e-04 0.0 
-1.484462634259e-04 8.004925592989e-03 0.0 
0.0 0.0 -1.224004481682e-03 
-1.287300987604e-03 -2.136982349667e-04 0.0 
-2.136982349667e-04 7.780826338296e-03 0.0 
0.0 0.0 -1.195820777905e-03 
-2.832529258607e-04 -2.494591043419e-04 0.0 
-2.494591043419e-04 1.024201089409e-03 0.0 
0.0 0.0 -1.882176919714e-04 
-3.969707252897e-04 -4.311951738694e-04 0.0 
-4.311951738694e-04 1.271754487823e-03 0.0 
0.0 0.0 -2.310783895037e-04 
2.054226679739e-05 1.347833966380e-03 0.0 
1.347833966380e-03 8.186709947017e-04 0.0 
0.0 0.0 -3.411234323309e-04 
1.823631015032e-04 1.033435563719e-03 0.0 
1.033435563719e-03 3.956751210192e-04 0.0 
0.0 0.0 -2.477306667953e-04 
-1.268592166038e-03 3.040791407146e-04 0.0 
3.040791407146e-04 8.023493563003e-03 0.0 
0.0 0.0 -1.207258722210e-03 
-1.243812686443e-03 3.149820227485e-04 0.0 
3.149820227485e-04 7.787606541598e-03 0.0 
0.0 0.0 -1.172631524865e-03 
-1.292321070540e-03 2.959466161544e-04 0.0 
2.959466161544e-04 8.333939565192e-03 0.0 
0.0 0.0 -1.247471551777e-03 
-5.223015362984e-04 -5.966006200107e-05 0.0 
-5.966006200107e-05 2.388783331191e-03 0.0 
0.0 0.0 -3.801539159394e-04 
-8.682373190693e-04 4.316445998786e-04 0.0 
4.316445998786e-04 6.315487464641e-03 0.0 
0.0 0.0 -1.045322365442e-03 
-1.095327153402e-03 -1.697306701960e-04 0.0 
-1.697306701960e-04 7.466737774382e-03 0.0 
0.0 0.0 -1.207899217314e-03 
-1.032573115176e-03 -1.219439203281e-04 0.0 
-1.219439203281e-04 7.241482983967e-03 0.0 
0.0 0.0 -1.178012378629e-03 
-1.169146255923e-03 -2.121713741949e-04 0.0 
-2.121713741949e-04 7.798947947966e-03 0.0 
0.0 0.0 -1.244624083072e-03 
-9.796999613362e-04 3.385511052295e-04 0.0 
3.385511052295e-04 6.990100956638e-03 0.0 
0.0 0.0 -1.142102124289e-03 
-1.089777783011e-03 3.180765990224e-04 0.0 
3.180765990224e-04 7.453415741070e-03 0.0 
0.0 0.0 -1.205428683694e-03 
-1.118930099946e-03 4.102866827850e-04 0.0 
4.102866827850e-04 7.540265907261e-03 0.0 
0.0 0.0 -1.209323031234e-03 
7.629343076431e-06 -2.863199915616e-06 0.0 
-2.863199915616e-06 -2.105112574007e-06 0.0 
0.0 0.0 -2.367527358182e-06 
-1.243581183883e-03 1.333985162286e-05 0.0 
1.333985162286e-05 8.050404267198e-03 0.0 
0.0 0.0 -1.199992767657e-03 
-9.467227888159e-04 4.157282563709e-05 0.0 
4.157282563709e-05 5.565131892238e-03 0.0 
0.0 0.0 -8.371571859873e-04 
0.0 0.0 0.0 
0.0 0.0 0.0 
0.0 0.0 0.0 
-9.052370495583e-04 2.926470670919e-05 0.0 
2.926470670919e-05 5.359734394624e-03 0.0 
0.0 0.0 -8.070151920887e-04 
-9.464808288455e-04 2.890706983172e-05 0.0 
2.890706983172e-05 5.631422995547e-03 0.0 
0.0 0.0 -8.451615393777e-04 
-8.746039380960e-04 1.411235588614e-05 0.0 
1.411235588614e-05 5.099179134377e-03 0.0 
0.0 0.0 -7.748096441827e-04 
-4.043228169997e-04 -4.987598217760e-05 0.0 
-4.987598217760e-05 1.919858664121e-03 0.0 
0.0 0.0 -3.155299188714e-04 
-9.342623020306e-04 6.996522255594e-05 0.0 
6.996522255594e-05 5.399295489727e-03 0.0 
0.0 0.0 -8.174106193842e-04 
-9.784066260017e-04 9.518359088927e-05 0.0 
9.518359088927e-05 5.690330335138e-03 0.0 
0.0 0.0 -8.556612431672e-04 
-1.892819975809e-04 -2.080284296464e-04 0.0 
-2.080284296464e-04 7.178215811464e-04 0.0 
0.0 0.0 -1.471067669042e-04 
-1.288411893385e-03 2.088493887645e-04 0.0 
2.088493887645e-04 8.418681062039e-03 0.0 
0.0 0.0 -1.259301554906e-03 
-1.756794603790e-04 -1.355890425743e-04 0.0 
-1.355890425743e-04 7.416554994657e-04 0.0 
0.0 0.0 -1.555489432776e-04 
-1.976593762146e-04 -1.418821488879e-04 0.0 
-1.418821488879e-04 9.406849208869e-04 0.0 
0.0 0.0 -1.806578101979e-04 
-1.201046689643e-03 -2.954808681697e-04 0.0 
-2.954808681697e-04 7.775612660441e-03 0.0 
0.0 0.0 -1.221214701962e-03 
-1.189783866574e-03 -3.147730725178e-04 0.0 
-3.147730725178e-04 7.544251850061e-03 0.0 
0.0 0.0 -1.184344882880e-03 
-1.255201532556e-03 -3.138077392023e-04 0.0 
-3.138077392023e-04 7.995797572139e-03 0.0 
0.0 0.0 -1.247726601234e-03 
-1.240131757912e-03 -2.854581707310e-04 0.0 
-2.854581707310e-04 7.755129215709e-03 0.0 
0.0 0.0 -1.211018817991e-03 
-1.178065560448e-03 -3.176973578615e-04 0.0 
-3.176973578615e-04 7.320283461016e-03 0.0 
0.0 0.0 -1.147066289601e-03 
-1.222397278732e-03 -2.815307542264e-04 0.0 
-2.815307542264e-04 7.565615913449e-03 0.0 
0.0 0.0 -1.176490610025e-03 
-9.163713044728e-04 2.842739858528e-05 0.0 
2.842739858528e-05 5.314561917383e-03 0.0 
0.0 0.0 -7.985989294648e-04 
-1.274574997316e-03 -2.683950520862e-04 0.0 
-2.683950520862e-04 8.060277687178e-03 0.0 
0.0 0.0 -1.249018369598e-03 
-1.258852476870e-03 -2.546999081133e-04 0.0 
-2.546999081133e-04 7.798203538470e-03 0.0 
0.0 0.0 -1.207442871744e-03 
-1.315317272271e-03 -2.575611195837e-04 0.0 
-2.575611195837e-04 8.330215412111e-03 0.0 
0.0 0.0 -1.277927415301e-03 
-7.668426714387e-04 3.712502045957e-04 0.0 
3.712502045957e-04 3.884910929190e-03 0.0 
0.0 0.0 -6.108003466767e-04 
-5.473421814769e-04 1.022591756988e-03 0.0 
1.022591756988e-03 2.665785403795e-03 0.0 
0.0 0.0 -4.789358348571e-04 
-5.922456647504e-04 8.887242813561e-04 0.0 
8.887242813561e-04 2.596399578783e-03 0.0 
0.0 0.0 -4.527251363391e-04 
-5.808013297698e-04 8.699366696317e-04 0.0 
8.699366696317e-04 2.240670147384e-03 0.0 
0.0 0.0 -3.875663759467e-04 
-1.238412356123e-03 4.984956173527e-04 0.0 
4.984956173527e-04 8.013994811476e-03 0.0 
0.0 0.0 -1.240180566941e-03 
-1.214337546906e-03 4.975640446935e-04 0.0 
4.975640446935e-04 7.772501925276e-03 0.0 
0.0 0.0 -1.200590015451e-03 
-1.243705293709e-03 -9.256877991256e-05 0.0 
-9.256877991256e-05 7.122808590461e-03 0.0 
0.0 0.0 -1.087555896896e-03 
-1.202734584511e-03 -9.601844950182e-05 0.0 
-9.601844950182e-05 6.680089324953e-03 0.0 
0.0 0.0 -1.020738973070e-03 
-9.185583597048e-04 2.613338660199e-05 0.0 
2.613338660199e-05 5.392223531156e-03 0.0 
0.0 0.0 -8.108182148135e-04 
-9.103297472006e-04 4.766877897124e-06 0.0 
4.766877897124e-06 5.361690236980e-03 0.0 
0.0 0.0 -8.077352941366e-04 
-9.704696328324e-04 5.332193735867e-05 0.0 
5.332193735867e-05 5.783610110985e-03 0.0 
0.0 0.0 -8.678526801547e-04 
-9.618865758326e-04 7.689592341134e-06 0.0 
7.689592341134e-06 5.712312077429e-03 0.0 
0.0 0.0 -8.609153521579e-04 
-1.020016484653e-03 5.295869978670e-05 0.0 
5.295869978670e-05 6.152608316973e-03 0.0 
0.0 0.0 -9.200517378055e-04 
-1.001436562516e-03 -1.946934861068e-08 0.0 
-1.946934861068e-08 6.084870222159e-03 0.0 
0.0 0.0 -9.108947733944e-04 
-1.057814937538e-03 -6.724482469216e-06 0.0 
-6.724482469216e-06 6.510312548520e-03 0.0 
0.0 0.0 -9.726914458129e-04 
-1.190361938599e-03 4.676934084708e-04 0.0 
4.676934084708e-04 7.866637693242e-03 0.0 
0.0 0.0 -1.245087786853e-03 
-4.581667400111e-04 1.150309043721e-03 0.0 
1.150309043721e-03 1.644170079222e-03 0.0 
0.0 0.0 -3.403956918982e-04 
-8.293555136529e-04 2.952524372658e-04 0.0 
2.952524372658e-04 4.373371002006e-03 0.0 
0.0 0.0 -6.783069842581e-04 
-1.085846180975e-03 1.458307871503e-04 0.0 
1.458307871503e-04 7.572950528203e-03 0.0 
0.0 0.0 -1.228261380050e-03 
-1.024461005777e-03 9.563818815218e-05 0.0 
9.563818815218e-05 7.266751936821e-03 0.0 
0.0 0.0 -1.187396807988e-03 
-7.405303751490e-04 5.124973243675e-04 0.0 
5.124973243675e-04 3.741532766096e-03 0.0 
0.0 0.0 -6.000944487132e-04 
-7.031319460548e-04 4.876864875037e-04 0.0 
4.876864875037e-04 3.366473116495e-03 0.0 
0.0 0.0 -5.401620014017e-04 
-1.203049851257e-03 -2.728203523462e-04 0.0 
-2.728203523462e-04 7.833657430654e-03 0.0 
0.0 0.0 -1.238794375355e-03 
-3.075916606640e-04 1.045868666668e-03 0.0 
1.045868666668e-03 2.766977509803e-03 0.0 
0.0 0.0 -5.600314934590e-04 
-1.321820784768e-03 2.376560243328e-04 0.0 
2.376560243328e-04 8.684022372100e-03 0.0 
0.0 0.0 -1.295459716840e-03 
1.477011241759e-06 4.358298770143e-06 0.0 
4.358298770143e-06 8.908916257886e-07 0.0 
0.0 0.0 -1.014815514663e-06 
5.703109316316e-05 8.792005076422e-05 0.0 
8.792005076422e-05 -2.011421540068e-08 0.0 
0.0 0.0 -2.443327669190e-05 
-4.154706477079e-04 9.854771448034e-04 0.0 
9.854771448034e-04 3.145205208474e-03 0.0 
0.0 0.0 -5.969207367497e-04 
-7.802351733359e-04 5.259462622456e-04 0.0 
5.259462622456e-04 4.139237033551e-03 0.0 
0.0 0.0 -6.620222007989e-04 
-5.930037626935e-04 8.942073818617e-04 0.0 
8.942073818617e-04 2.971985586365e-03 0.0 
0.0 0.0 -5.157319100482e-04 
-6.206001126180e-04 7.748692012147e-04 0.0 
7.748692012147e-04 2.918912415158e-03 0.0 
0.0 0.0 -4.917183783407e-04 
-7.966812031951e-04 -2.794519072728e-04 0.0 
-2.794519072728e-04 6.003025537970e-03 0.0 
0.0 0.0 -1.010552660601e-03 
-3.204615651146e-04 -4.841454347256e-04 0.0 
-4.841454347256e-04 1.065843889916e-03 0.0 
0.0 0.0 -2.207468123314e-04 
-1.976838392314e-04 1.419132631860e-03 0.0 
1.419132631860e-03 1.245736136353e-03 0.0 
0.0 0.0 -3.729799092550e-04 
-1.062224956052e-03 6.282474994029e-05 0.0 
6.282474994029e-05 6.566502947635e-03 0.0 
0.0 0.0 -9.796923013958e-04 
-9.725104983260e-05 1.193422917781e-03 0.0 
1.193422917781e-03 9.454912755048e-04 0.0 
0.0 0.0 -3.472462715210e-04 
-1.226995326804e-03 -4.519473023836e-05 0.0 
-4.519473023836e-05 6.918120984331e-03 0.0 
0.0 0.0 -1.055800198362e-03 
-2.361841982036e-04 9.051937591691e-04 0.0 
9.051937591691e-04 2.839450438954e-03 0.0 
0.0 0.0 -5.891999696964e-04 
-7.588500349801e-04 6.513356924725e-04 0.0 
6.513356924725e-04 4.370877970735e-03 0.0 
0.0 0.0 -7.153500975001e-04 
-2.731612567135e-04 1.485424847436e-03 0.0 
1.485424847436e-03 1.576968026293e-03 0.0 
0.0 0.0 -3.843598907912e-04 
-4.773970402082e-04 1.083331247294e-03 0.0 
1.083331247294e-03 2.715302459171e-03 0.0 
0.0 0.0 -5.080103017801e-04 
-9.857070044825e-04 3.514582932795e-04 0.0 
3.514582932795e-04 5.605984683384e-03 0.0 
0.0 0.0 -8.638580894607e-04 
-9.566672598969e-04 2.556664326387e-04 0.0 
2.556664326387e-04 5.284930257865e-03 0.0 
0.0 0.0 -8.086477316853e-04 
-9.204142732436e-04 2.914181473186e-04 0.0 
2.914181473186e-04 5.036403952363e-03 0.0 
0.0 0.0 -7.738406155293e-04 
-1.852699916538e-04 7.169474657993e-04 0.0 
7.169474657993e-04 2.938478129515e-03 0.0 
0.0 0.0 -6.178822433291e-04 
-6.660603751627e-04 6.775511204911e-04 0.0 
6.775511204911e-04 3.201224465995e-03 0.0 
0.0 0.0 -5.288330985435e-04 
-6.329538447596e-04 6.262438341605e-04 0.0 
6.262438341605e-04 2.783574178796e-03 0.0 
0.0 0.0 -4.617239487405e-04 
-9.084122990405e-04 4.766608561051e-04 0.0 
4.766608561051e-04 5.217677913222e-03 0.0 
0.0 0.0 -8.213029907542e-04 
-1.196636206004e-03 2.937722451120e-04 0.0 
2.937722451120e-04 7.346814907567e-03 0.0 
0.0 0.0 -1.107475121065e-03 
-1.218143538823e-03 3.322225839887e-04 0.0 
3.322225839887e-04 7.523071285648e-03 0.0 
0.0 0.0 -1.136341617999e-03 
-1.260255205402e-03 3.483848197279e-04 0.0 
3.483848197279e-04 7.943523748013e-03 0.0 
0.0 0.0 -1.199268560344e-03 
-1.236398534658e-03 3.622286970254e-04 0.0 
3.622286970254e-04 7.698663143048e-03 0.0 
0.0 0.0 -1.164598082371e-03 
-1.187519623503e-03 3.369788044843e-04 0.0 
3.369788044843e-04 7.262535120341e-03 0.0 
0.0 0.0 -1.100413285504e-03 
-1.201927894883e-03 3.622228794556e-04 0.0 
3.622228794556e-04 7.428935513365e-03 0.0 
0.0 0.0 -1.129075729544e-03 
-1.251749756802e-03 4.013558701664e-04 0.0 
4.013558701664e-04 7.861186353057e-03 0.0 
0.0 0.0 -1.193594387005e-03 
-1.212961772203e-03 4.013424172495e-04 0.0 
4.013424172495e-04 7.607641408015e-03 0.0 
0.0 0.0 -1.159256375294e-03 
-1.275748773412e-03 4.170784326894e-04 0.0 
4.170784326894e-04 8.123816889762e-03 0.0 
0.0 0.0 -1.234286862126e-03 
-1.231663961214e-03 4.170891063283e-04 0.0 
4.170891063283e-04 7.767346293695e-03 0.0 
0.0 0.0 -1.187309181180e-03 
-1.180167111311e-03 4.146130725523e-04 0.0 
4.146130725523e-04 7.319280806481e-03 0.0 
0.0 0.0 -1.120864512401e-03 
-1.199520853126e-03 4.394329503130e-04 0.0 
4.394329503130e-04 7.469647570104e-03 0.0 
0.0 0.0 -1.147759711419e-03 
-1.246114513889e-03 4.512851502766e-04 0.0 
4.512851502766e-04 7.897003429628e-03 0.0 
0.0 0.0 -1.207767947030e-03 
-1.142819753357e-03 4.230226692438e-04 0.0 
4.230226692438e-04 7.034885546341e-03 0.0 
0.0 0.0 -1.082593982084e-03 
-1.161095070267e-03 2.120867803638e-04 0.0 
2.120867803638e-04 7.844111974654e-03 0.0 
0.0 0.0 -1.264544343569e-03 
-4.552882566461e-04 8.672081112126e-04 0.0 
8.672081112126e-04 3.584015933420e-03 0.0 
0.0 0.0 -6.621140475474e-04 
8.972285469528e-05 5.488704469766e-05 0.0 
5.488704469766e-05 -2.086067995893e-05 0.0 
0.0 0.0 -2.951236060129e-05 
1.917573457574e-04 3.907910126935e-04 0.0 
3.907910126935e-04 4.076022718458e-05 0.0 
0.0 0.0 -9.965038840370e-05 
-8.122559684108e-04 5.858127476170e-04 0.0 
5.858127476170e-04 4.660958103986e-03 0.0 
0.0 0.0 -7.509174086159e-04 
-1.326294875917e-03 4.475525367279e-04 0.0 
4.475525367279e-04 8.581090605175e-03 0.0 
0.0 0.0 -1.299806302097e-03 
-1.329372981724e-03 3.864120920022e-04 0.0 
3.864120920022e-04 8.651254845127e-03 0.0 
0.0 0.0 -1.301753673823e-03 
-4.221749795591e-05 1.054957827846e-03 0.0 
1.054957827846e-03 1.947401467081e-03 0.0 
0.0 0.0 -4.895692906686e-04 
-1.300820539860e-03 5.169294240401e-04 0.0 
5.169294240401e-04 8.431520987084e-03 0.0 
0.0 0.0 -1.303413959896e-03 
-9.359328158380e-04 3.353086376080e-04 0.0 
3.353086376080e-04 5.191229383814e-03 0.0 
0.0 0.0 -8.012154088905e-04 
4.071496828873e-04 9.026633654341e-04 0.0 
9.026633654341e-04 4.347728874957e-04 0.0 
0.0 0.0 -3.242207140944e-04 
-1.286592464162e-03 4.887471459282e-04 0.0 
4.887471459282e-04 8.354700830031e-03 0.0 
0.0 0.0 -1.304286792737e-03 
-1.166816141077e-03 3.067295782393e-04 0.0 
3.067295782393e-04 7.086165986606e-03 0.0 
0.0 0.0 -1.071440646998e-03 
-1.135318690764e-03 3.102645881689e-04 0.0 
3.102645881689e-04 6.820307156207e-03 0.0 
0.0 0.0 -1.034857077839e-03 
-1.114281868751e-03 2.783252876259e-04 0.0 
2.783252876259e-04 6.647188393663e-03 0.0 
0.0 0.0 -1.006057961993e-03 
-1.324485485700e-03 3.178425552296e-04 0.0 
3.178425552296e-04 8.703712057523e-03 0.0 
0.0 0.0 -1.305867370806e-03 
-1.046143216171e-03 1.338104735178e-04 0.0 
1.338104735178e-04 6.142970752386e-03 0.0 
0.0 0.0 -9.232948652302e-04 
-1.261216399776e-03 3.398370476000e-04 0.0 
3.398370476000e-04 8.240407625413e-03 0.0 
0.0 0.0 -1.306016332489e-03 
-5.621352130883e-04 2.402614077322e-04 0.0 
2.402614077322e-04 5.104076155106e-03 0.0 
0.0 0.0 -9.039903713831e-04 
-5.421821752565e-04 3.626261890118e-04 0.0 
3.626261890118e-04 4.916919296443e-03 0.0 
0.0 0.0 -8.747633066757e-04 
-4.482553543368e-04 4.245528232913e-04 0.0 
4.245528232913e-04 4.423341595392e-03 0.0 
0.0 0.0 -8.101682821885e-04 
-1.166183845535e-03 3.746000758126e-04 0.0 
3.746000758126e-04 7.154603019155e-03 0.0 
0.0 0.0 -1.092245366321e-03 
-1.243382207926e-03 7.139344382452e-05 0.0 
7.139344382452e-05 8.142027759390e-03 0.0 
0.0 0.0 -1.302677999426e-03 
-1.139163622892e-03 1.899260328228e-05 0.0 
1.899260328228e-05 7.738811355617e-03 0.0 
0.0 0.0 -1.248400714067e-03 
-1.139179700515e-03 -5.832838074802e-05 0.0 
-5.832838074802e-05 7.742835606473e-03 0.0 
0.0 0.0 -1.248426544684e-03 
-1.042171814045e-03 -2.067620167567e-05 0.0 
-2.067620167567e-05 7.300450465494e-03 0.0 
0.0 0.0 -1.189114855724e-03 
-1.245046049368e-03 -7.954937012982e-05 0.0 
-7.954937012982e-05 8.162015620032e-03 0.0 
0.0 0.0 -1.303398793257e-03 
-1.319024606982e-03 4.879947495646e-04 0.0 
4.879947495646e-04 8.553889678550e-03 0.0 
0.0 0.0 -1.306665994082e-03 
-1.318629781647e-03 5.032233232110e-04 0.0 
5.032233232110e-04 8.531113616169e-03 0.0 
0.0 0.0 -1.308500709484e-03 
-1.457969009565e-04 -1.297624687323e-03 0.0 
-1.297624687323e-03 1.878942347425e-03 0.0 
0.0 0.0 -4.564773689951e-04 
-5.360535394488e-05 -1.060749340558e-03 0.0 
-1.060749340558e-03 1.980128638088e-03 0.0 
0.0 0.0 -4.934415926888e-04 
-1.381226460422e-04 -8.991719374826e-04 0.0 
-8.991719374826e-04 2.497431923997e-03 0.0 
0.0 0.0 -5.576035839405e-04 
-3.423707423507e-07 -7.630300989339e-04 0.0 
-7.630300989339e-04 2.133066083266e-03 0.0 
0.0 0.0 -5.298816096007e-04 
1.060874476646e-04 -9.079592115861e-04 0.0 
-9.079592115861e-04 1.571356760192e-03 0.0 
0.0 0.0 -4.652367627802e-04 
1.299766153745e-04 -5.238021949006e-04 0.0 
-5.238021949006e-04 1.775343023360e-03 0.0 
0.0 0.0 -5.016361848483e-04 
8.113068861587e-06 -4.523118756860e-04 0.0 
-4.523118756860e-04 2.346566463626e-03 0.0 
0.0 0.0 -5.657331850765e-04 
2.333464364560e-04 -1.778074880060e-04 0.0 
-1.778074880060e-04 1.448473809503e-03 0.0 
0.0 0.0 -4.731795164401e-04 
-1.159968055748e-03 4.654058109210e-04 0.0 
4.654058109210e-04 7.343744264572e-03 0.0 
0.0 0.0 -1.138512926666e-03 
-1.264954689887e-03 -1.904964022353e-04 0.0 
-1.904964022353e-04 8.221334432808e-03 0.0 
0.0 0.0 -1.305779161548e-03 
-7.747711705181e-04 -5.121765711313e-04 0.0 
-5.121765711313e-04 5.367910934867e-03 0.0 
0.0 0.0 -9.007942405787e-04 
-6.889420890608e-04 -5.209139520464e-04 0.0 
-5.209139520464e-04 5.083313389568e-03 0.0 
0.0 0.0 -8.713600568839e-04 
-6.090575816933e-04 -6.078858301865e-04 0.0 
-6.078858301865e-04 4.604339507385e-03 0.0 
0.0 0.0 -8.059887332522e-04 
-8.449920134059e-04 -5.153788440303e-04 0.0 
-5.153788440303e-04 4.260095117302e-03 0.0 
0.0 0.0 -6.781883600425e-04 
-8.428803748540e-04 -5.674043660998e-04 0.0 
-5.674043660998e-04 4.450165882994e-03 0.0 
0.0 0.0 -7.153987595530e-04 
-8.942422948913e-04 -5.207798333702e-04 0.0 
-5.207798333702e-04 4.885926297656e-03 0.0 
0.0 0.0 -7.812419408864e-04 
-8.377845004557e-04 -4.501363391243e-04 0.0 
-4.501363391243e-04 4.061067246097e-03 0.0 
0.0 0.0 -6.407943132712e-04 
-8.608991234260e-04 5.183985589951e-04 0.0 
5.183985589951e-04 6.008926334250e-03 0.0 
0.0 0.0 -9.876394229526e-04 
-1.270638922106e-03 -2.525883056992e-04 0.0 
-2.525883056992e-04 8.245623635122e-03 0.0 
0.0 0.0 -1.305003056577e-03 
-5.449120924268e-04 -2.038340280130e-04 0.0 
-2.038340280130e-04 4.976604129178e-03 0.0 
0.0 0.0 -8.871663004355e-04 
-7.828155216857e-04 -6.575282962370e-04 0.0 
-6.575282962370e-04 4.196243675374e-03 0.0 
0.0 0.0 -6.865966444657e-04 
-8.908351355140e-04 9.702867664421e-05 0.0 
9.702867664421e-05 4.953510345307e-03 0.0 
0.0 0.0 -7.516786372745e-04 
-9.428178873818e-04 1.510891929034e-04 0.0 
1.510891929034e-04 5.341754956276e-03 0.0 
0.0 0.0 -8.094822736869e-04 
-9.489012184647e-04 1.441944320473e-04 0.0 
1.441944320473e-04 5.346848053026e-03 0.0 
0.0 0.0 -8.097394517040e-04 
-9.928370876702e-04 1.565528389037e-04 0.0 
1.565528389037e-04 5.757287346966e-03 0.0 
0.0 0.0 -8.733121467894e-04 
-9.420662265250e-04 8.672453308222e-05 0.0 
8.672453308222e-05 5.390349708032e-03 0.0 
0.0 0.0 -8.155917408702e-04 
-9.920889169566e-04 -3.299549002211e-04 0.0 
-3.299549002211e-04 5.156290872581e-03 0.0 
0.0 0.0 -8.015266587451e-04 
-1.034393455446e-03 -2.593382357018e-04 0.0 
-2.593382357018e-04 5.377589720533e-03 0.0 
0.0 0.0 -8.302790088839e-04 
-1.016724768056e-03 -2.052940986145e-04 0.0 
-2.052940986145e-04 5.161883654298e-03 0.0 
0.0 0.0 -7.937858958383e-04 
-1.069749204098e-03 -1.931193338339e-04 0.0 
-1.931193338339e-04 5.589690211797e-03 0.0 
0.0 0.0 -8.590670690980e-04 
-1.045250008444e-03 -1.524643402440e-04 0.0 
-1.524643402440e-04 5.354709247412e-03 0.0 
0.0 0.0 -8.213578559547e-04 
-9.891061891856e-04 -1.661511418362e-04 0.0 
-1.661511418362e-04 4.952759689804e-03 0.0 
0.0 0.0 -7.608744282309e-04 
-1.097326614700e-03 -1.343981642378e-04 0.0 
-1.343981642378e-04 5.787368511626e-03 0.0 
0.0 0.0 -8.866101721103e-04 
-1.072266853954e-03 -7.465649989587e-05 0.0 
-7.465649989587e-05 5.530930704335e-03 0.0 
0.0 0.0 -8.437388122980e-04 
-8.749604405334e-04 5.210753762548e-05 0.0 
5.210753762548e-05 4.958547900325e-03 0.0 
0.0 0.0 -7.509531518293e-04 
2.931250951271e-05 -1.468193730782e-04 0.0 
-1.468193730782e-04 5.197092075325e-05 0.0 
0.0 0.0 -3.483575582827e-05 
8.911840808785e-05 -5.611142441010e-04 0.0 
-5.611142441010e-04 2.292660682549e-04 0.0 
0.0 0.0 -1.364504898612e-04 
-1.613477578931e-05 -6.217163821683e-04 0.0 
-6.217163821683e-04 4.356228314527e-04 0.0 
0.0 0.0 -1.797805952843e-04 
7.026081585524e-05 -9.442279566568e-04 0.0 
-9.442279566568e-04 4.994486354165e-04 0.0 
0.0 0.0 -2.441611934022e-04 
2.189035585350e-04 -7.936262830972e-04 0.0 
-7.936262830972e-04 2.241675290565e-04 0.0 
0.0 0.0 -1.898876089678e-04 
1.395294056137e-04 -1.221624346892e-03 0.0 
-1.221624346892e-03 5.704290544817e-04 0.0 
0.0 0.0 -3.042679114694e-04 
3.315217795862e-04 -9.867447375553e-04 0.0 
-9.867447375553e-04 2.187882668786e-04 0.0 
0.0 0.0 -2.358471627707e-04 
1.282773509924e-04 -3.069727312294e-04 0.0 
-3.069727312294e-04 5.087018620754e-05 0.0 
0.0 0.0 -7.677751594282e-05 
7.207324065744e-06 -2.363709633052e-04 0.0 
-2.363709633052e-04 2.192194981731e-04 0.0 
0.0 0.0 -7.709394943614e-05 
-1.151589919320e-04 -5.038932235898e-04 0.0 
-5.038932235898e-04 5.668379900610e-04 0.0 
0.0 0.0 -1.836804426236e-04 
6.886756343239e-05 -1.585111183501e-04 0.0 
-1.585111183501e-04 2.318919381609e-04 0.0 
0.0 0.0 -9.135678087991e-05 
-1.673787199121e-04 -3.772506028182e-04 0.0 
-3.772506028182e-04 6.235391984471e-04 0.0 
0.0 0.0 -1.587652100407e-04 
-2.237013217840e-04 -7.835370290226e-04 0.0 
-7.835370290226e-04 9.699234306887e-04 0.0 
0.0 0.0 -2.864776706126e-04 
-5.080022175142e-04 -5.846720249242e-04 0.0 
-5.846720249242e-04 1.713553650264e-03 0.0 
0.0 0.0 -2.934437995798e-04 
-1.342924257900e-03 -1.540329825018e-04 0.0 
-1.540329825018e-04 8.463979425849e-03 0.0 
0.0 0.0 -1.294874803588e-03 
-9.061604714287e-04 -5.353468138170e-05 0.0 
-5.353468138170e-05 4.292677537748e-03 0.0 
0.0 0.0 -6.595503360071e-04 
-8.748353904416e-04 -9.535674848835e-05 0.0 
-9.535674848835e-05 4.090451847143e-03 0.0 
0.0 0.0 -6.264797819744e-04 
-7.893986596546e-04 -8.988273420556e-05 0.0 
-8.988273420556e-05 3.635662269298e-03 0.0 
0.0 0.0 -5.641716646261e-04 
-8.342340843015e-04 -1.796315714393e-04 0.0 
-1.796315714393e-04 3.876399492582e-03 0.0 
0.0 0.0 -5.974662984275e-04 
-9.399601535283e-04 -9.182592719562e-05 0.0 
-9.182592719562e-05 4.459086163681e-03 0.0 
0.0 0.0 -6.865721209800e-04 
-7.450408717977e-04 -3.664071909046e-05 0.0 
-3.664071909046e-05 3.403705623677e-03 0.0 
0.0 0.0 -5.286920563404e-04 
-7.105002771536e-04 -7.510162605901e-05 0.0 
-7.510162605901e-05 3.252942810076e-03 0.0 
0.0 0.0 -5.038291843518e-04 
2.455037338031e-04 -5.178327789073e-06 0.0 
-5.178327789073e-06 1.975704463060e-04 0.0 
0.0 0.0 -1.137480169046e-04 
-2.992668304113e-05 -2.428217344695e-05 0.0 
-2.428217344695e-05 6.247499294921e-04 0.0 
0.0 0.0 -1.462425310096e-04 
1.120520427136e-05 2.490769659488e-05 0.0 
2.490769659488e-05 5.748679317617e-04 0.0 
0.0 0.0 -1.469788961115e-04 
-1.839676854865e-04 -1.370350569834e-05 0.0 
-1.370350569834e-05 1.050348992839e-03 0.0 
0.0 0.0 -1.976702944042e-04 
-1.665493073749e-04 -4.078238753771e-05 0.0 
-4.078238753771e-05 1.038427513794e-03 0.0 
0.0 0.0 -1.960684762570e-04 
-2.740272711721e-05 -1.675532894322e-05 0.0 
-1.675532894322e-05 6.301608269895e-04 0.0 
0.0 0.0 -1.451566722079e-04 
-4.295295916181e-05 -1.396627582879e-05 0.0 
-1.396627582879e-05 6.314478061460e-04 0.0 
0.0 0.0 -1.432903851643e-04 
2.178107760258e-04 -4.669961674357e-06 0.0 
-4.669961674357e-06 1.968060237393e-04 0.0 
0.0 0.0 -1.026933745538e-04 
-6.199861096773e-05 -4.121287758313e-05 0.0 
-4.121287758313e-05 6.332661626784e-04 0.0 
0.0 0.0 -1.376693440338e-04 
-1.958490001476e-04 -5.849411118292e-05 0.0 
-5.849411118292e-05 1.056235548644e-03 0.0 
0.0 0.0 -1.994574706984e-04 
2.194500295117e-04 -1.953547163157e-05 0.0 
-1.953547163157e-05 1.758186835889e-04 0.0 
0.0 0.0 -9.526841721624e-05 
-1.134405852345e-03 -1.685214623059e-05 0.0 
-1.685214623059e-05 7.114171974622e-03 0.0 
0.0 0.0 -1.060427308513e-03 
-1.169096287658e-03 2.563616812788e-06 0.0 
2.563616812788e-06 7.355225522955e-03 0.0 
0.0 0.0 -1.097082233180e-03 
-1.287656187300e-03 -3.057563853945e-04 0.0 
-3.057563853945e-04 8.295106043806e-03 0.0 
0.0 0.0 -1.300897016293e-03 
-8.709102074234e-04 1.634655957137e-05 0.0 
1.634655957137e-05 5.013561359335e-03 0.0 
0.0 0.0 -7.584009903415e-04 
6.085248323127e-05 -7.529385077948e-05 0.0 
-7.529385077948e-05 2.498450074273e-04 0.0 
0.0 0.0 -6.778662807072e-05 
-1.318321890589e-03 9.119227365237e-05 0.0 
9.119227365237e-05 8.702564910127e-03 0.0 
0.0 0.0 -1.292107529982e-03 
-1.321891599576e-03 1.523434658018e-04 0.0 
1.523434658018e-04 8.753789560532e-03 0.0 
0.0 0.0 -1.303172775453e-03 
-1.317386328466e-03 1.502744807486e-04 0.0 
1.502744807486e-04 8.760593080467e-03 0.0 
0.0 0.0 -1.304823151597e-03 
-1.303300137320e-03 -3.518320858820e-05 0.0 
-3.518320858820e-05 7.809809152570e-03 0.0 
0.0 0.0 -1.191058493115e-03 
-1.309915312802e-03 -8.055064126037e-05 0.0 
-8.055064126037e-05 8.016669059363e-03 0.0 
0.0 0.0 -1.224322658093e-03 
-1.321803447330e-03 5.837335499168e-05 0.0 
5.837335499168e-05 8.713282635678e-03 0.0 
0.0 0.0 -1.294569364341e-03 
-6.481855202900e-04 -6.246003181782e-04 0.0 
-6.246003181782e-04 2.746907491681e-03 0.0 
0.0 0.0 -4.512809064328e-04 
-1.269733092336e-03 3.949450849478e-04 0.0 
3.949450849478e-04 8.134082373248e-03 0.0 
0.0 0.0 -1.225740639889e-03 
-1.236917440076e-03 9.455704594097e-05 0.0 
9.455704594097e-05 7.907876475173e-03 0.0 
0.0 0.0 -1.178628832109e-03 
2.863499120991e-04 1.225469476951e-03 0.0 
1.225469476951e-03 5.011020420815e-04 0.0 
0.0 0.0 -3.087973448475e-04 
-5.572892816396e-04 -1.058232484237e-03 0.0 
-1.058232484237e-03 2.439571083886e-03 0.0 
0.0 0.0 -4.373623857420e-04 
-1.169344627949e-03 -1.527368028486e-04 0.0 
-1.527368028486e-04 6.463252890075e-03 0.0 
0.0 0.0 -9.899674718230e-04 
-1.002156622739e-03 -4.217657770794e-04 0.0 
-4.217657770794e-04 5.766816978775e-03 0.0 
0.0 0.0 -9.123979313600e-04 
-1.240362622181e-03 -2.107518773901e-04 0.0 
-2.107518773901e-04 7.344433125846e-03 0.0 
0.0 0.0 -1.130390451587e-03 
-1.097029052933e-03 -2.727822285369e-04 0.0 
-2.727822285369e-04 6.025349028311e-03 0.0 
0.0 0.0 -9.322225209316e-04 
-1.160816713283e-03 -2.966491095374e-04 0.0 
-2.966491095374e-04 6.897592609693e-03 0.0 
0.0 0.0 -1.073123358692e-03 
-1.146188823319e-03 -9.619145093431e-05 0.0 
-9.619145093431e-05 7.734668514319e-03 0.0 
0.0 0.0 -1.244129926109e-03 
-3.611510593238e-04 -8.758097138839e-05 0.0 
-8.758097138839e-05 1.751553404855e-03 0.0 
0.0 0.0 -2.939217362394e-04 
-1.042524547902e-03 8.542519018607e-05 0.0 
8.542519018607e-05 6.249309917826e-03 0.0 
0.0 0.0 -9.364826870394e-04 
-1.011646579925e-03 4.950052888461e-05 0.0 
4.950052888461e-05 6.088183350352e-03 0.0 
0.0 0.0 -9.130351872960e-04 
-1.156492778501e-03 8.389467150956e-05 0.0 
8.389467150956e-05 7.209321502601e-03 0.0 
0.0 0.0 -1.075939795031e-03 
-6.797233321873e-04 -3.445526981405e-04 0.0 
-3.445526981405e-04 2.970604433142e-03 0.0 
0.0 0.0 -4.709579147287e-04 
-9.579355913964e-04 -2.329193078104e-04 0.0 
-2.329193078104e-04 4.740187249377e-03 0.0 
0.0 0.0 -7.304257169629e-04 
-4.699094320929e-04 -2.864685390476e-04 0.0 
-2.864685390476e-04 1.870719163436e-03 0.0 
0.0 0.0 -3.104331955072e-04 
-1.225720132749e-03 4.922764523725e-04 0.0 
4.922764523725e-04 8.004298524687e-03 0.0 
0.0 0.0 -1.251461238623e-03 
-8.642142966185e-04 4.736706847914e-04 0.0 
4.736706847914e-04 4.810262753378e-03 0.0 
0.0 0.0 -7.590395520047e-04 
-6.299061308779e-04 -6.905248015396e-04 0.0 
-6.905248015396e-04 4.426299320179e-03 0.0 
0.0 0.0 -7.694287042311e-04 
-7.912081179997e-04 -5.380011954616e-04 0.0 
-5.380011954616e-04 3.827422774339e-03 0.0 
0.0 0.0 -6.120242822960e-04 
-6.551443874445e-04 -7.576014874881e-04 0.0 
-7.576014874881e-04 2.929641818478e-03 0.0 
0.0 0.0 -4.894362539292e-04 
-4.890802463817e-04 -1.241731719978e-03 0.0 
-1.241731719978e-03 2.147525315431e-03 0.0 
0.0 0.0 -4.100935076628e-04 
-5.488809187293e-04 8.195138113053e-04 0.0 
8.195138113053e-04 3.940420057434e-03 0.0 
0.0 0.0 -6.990242139688e-04 
-7.645737241242e-04 -6.835179970588e-04 0.0 
-6.835179970588e-04 4.369038504805e-03 0.0 
0.0 0.0 -7.237531747479e-04 
-9.990166317683e-04 -3.989427530334e-04 0.0 
-3.989427530334e-04 6.371965153356e-03 0.0 
0.0 0.0 -1.024340108609e-03 
-1.185317591363e-03 7.742475138516e-05 0.0 
7.742475138516e-05 7.460446495103e-03 0.0 
0.0 0.0 -1.112552678551e-03 
1.197712392318e-04 -3.148981806786e-05 0.0 
-3.148981806786e-05 2.711258731277e-04 0.0 
0.0 0.0 -9.959518537181e-05 
-1.003340353985e-03 -3.675015482303e-04 0.0 
-3.675015482303e-04 6.579336743889e-03 0.0 
0.0 0.0 -1.061672265243e-03 
-8.749171253014e-04 -5.429443966133e-04 0.0 
-5.429443966133e-04 5.259260617559e-03 0.0 
0.0 0.0 -8.552253422611e-04 
-1.075058534600e-03 1.329625948637e-04 0.0 
1.329625948637e-04 6.404878824914e-03 0.0 
0.0 0.0 -9.599091010803e-04 
-8.098069298724e-04 1.009136731454e-04 0.0 
1.009136731454e-04 6.303475721426e-03 0.0 
0.0 0.0 -1.062640036239e-03 
-7.822393088759e-05 -1.437936820334e-03 0.0 
-1.437936820334e-03 1.036179245632e-03 0.0 
0.0 0.0 -3.732485265440e-04 
-1.183046367818e-03 1.393767940647e-04 0.0 
1.393767940647e-04 7.358067127657e-03 0.0 
0.0 0.0 -1.098747615487e-03 
-1.275160361241e-03 2.646540278175e-04 0.0 
2.646540278175e-04 8.092932724066e-03 0.0 
0.0 0.0 -1.212453547082e-03 
-1.010608018996e-03 1.134796452945e-04 0.0 
1.134796452945e-04 5.876477578498e-03 0.0 
0.0 0.0 -8.875094802107e-04 
-3.432304284614e-04 -2.023305734104e-04 0.0 
-2.023305734104e-04 1.413096543350e-03 0.0 
0.0 0.0 -2.442495876194e-04 
-9.871354508553e-04 6.543929527951e-05 0.0 
6.543929527951e-05 5.785148960874e-03 0.0 
0.0 0.0 -8.692469099983e-04 
-1.129933755956e-03 -2.589669323117e-04 0.0 
-2.589669323117e-04 7.495462082173e-03 0.0 
0.0 0.0 -1.202705989510e-03 
-1.175984421816e-03 2.539870060864e-04 0.0 
2.539870060864e-04 7.167724276723e-03 0.0 
0.0 0.0 -1.078220320736e-03 
-6.238127593336e-04 -2.578427228971e-04 0.0 
-2.578427228971e-04 2.729809833616e-03 0.0 
0.0 0.0 -4.336020471383e-04 
-3.693103125981e-04 -1.184898620339e-04 0.0 
-1.184898620339e-04 4.215512874596e-03 0.0 
0.0 0.0 -7.943514531093e-04 
-7.354883692347e-04 6.882867699016e-04 0.0 
6.882867699016e-04 4.480048918178e-03 0.0 
0.0 0.0 -7.428158978947e-04 
-8.300346150545e-04 1.997478973446e-04 0.0 
1.997478973446e-04 4.462946677923e-03 0.0 
0.0 0.0 -6.865907729104e-04 
-1.263662037140e-03 1.212955651983e-04 0.0 
1.212955651983e-04 8.095770653682e-03 0.0 
0.0 0.0 -1.206557591227e-03 
-5.452830500886e-04 5.833267200760e-04 0.0 
5.833267200760e-04 4.601923753795e-03 0.0 
0.0 0.0 -8.172945450071e-04 
-9.138715469007e-04 -2.809485115349e-05 0.0 
-2.809485115349e-05 6.748408724194e-03 0.0 
0.0 0.0 -1.120054252910e-03 
-5.855153319979e-04 -8.409325156636e-05 0.0 
-8.409325156636e-05 5.239197065772e-03 0.0 
0.0 0.0 -9.240809108919e-04 
-6.615538158736e-04 -2.024673927750e-04 0.0 
-2.024673927750e-04 2.941778370234e-03 0.0 
0.0 0.0 -4.629711029823e-04 
-1.130081472427e-03 -3.415372177863e-04 0.0 
-3.415372177863e-04 7.089023572073e-03 0.0 
0.0 0.0 -1.118919378802e-03 
-3.597542210602e-04 3.380969491909e-04 0.0 
3.380969491909e-04 4.095727105777e-03 0.0 
0.0 0.0 -7.743986277066e-04 
-1.231879397795e-03 1.563825567224e-04 0.0 
1.563825567224e-04 7.806451874477e-03 0.0 
0.0 0.0 -1.164614768973e-03 
-1.000367767849e-03 5.022961011040e-04 0.0 
5.022961011040e-04 6.477016694026e-03 0.0 
0.0 0.0 -1.031533309622e-03 
-8.496720980242e-05 7.949215026050e-05 0.0 
7.949215026050e-05 2.913474260951e-03 0.0 
0.0 0.0 -6.375205594687e-04 
-1.204201749293e-03 1.997899091721e-04 0.0 
1.997899091721e-04 7.486324816343e-03 0.0 
0.0 0.0 -1.121170216299e-03 
-5.130508831761e-04 -5.977004884583e-04 0.0 
-5.977004884583e-04 4.307094875234e-03 0.0 
0.0 0.0 -7.773091661689e-04 
-8.763670238880e-04 1.763080225343e-04 0.0 
1.763080225343e-04 6.599584220336e-03 0.0 
0.0 0.0 -1.099429584637e-03 
-8.205770634544e-04 5.305467903750e-04 0.0 
5.305467903750e-04 4.538492374159e-03 0.0 
0.0 0.0 -7.240542973723e-04 
-8.884268788469e-04 5.588484511591e-04 0.0 
5.588484511591e-04 5.612213355160e-03 0.0 
0.0 0.0 -9.041109700986e-04 
-1.050324174142e-03 4.352582260935e-04 0.0 
4.352582260935e-04 6.327572321714e-03 0.0 
0.0 0.0 -9.824247929831e-04 
-7.337998657639e-04 6.243333749199e-04 0.0 
6.243333749199e-04 5.125520163039e-03 0.0 
0.0 0.0 -8.608216255090e-04 
-1.153567602020e-03 -9.301724894271e-05 0.0 
-9.301724894271e-05 6.238376526397e-03 0.0 
0.0 0.0 -9.534332399069e-04 
-1.070854558502e-03 -3.525098866510e-04 0.0 
-3.525098866510e-04 6.838133072795e-03 0.0 
0.0 0.0 -1.090315851396e-03 
5.426530316348e-04 -6.124034834809e-04 0.0 
-6.124034834809e-04 -4.758177895352e-06 0.0 
0.0 0.0 -2.305263658883e-04 
-4.860442792995e-04 1.001524898596e-03 0.0 
1.001524898596e-03 3.110766909182e-03 0.0 
0.0 0.0 -5.719042557127e-04 
-1.067589445178e-03 1.583535090986e-04 0.0 
1.583535090986e-04 6.341569706464e-03 0.0 
0.0 0.0 -9.536514739466e-04 
-1.085608803619e-03 4.567018534179e-04 0.0 
4.567018534179e-04 7.206759563006e-03 0.0 
0.0 0.0 -1.150585697120e-03 
-1.272662540904e-03 1.837479624771e-04 0.0 
1.837479624771e-04 8.251575577157e-03 0.0 
0.0 0.0 -1.229329624135e-03 
-7.006581247961e-04 7.305782553014e-04 0.0 
7.305782553014e-04 4.076422328874e-03 0.0 
0.0 0.0 -6.801182747099e-04 
-1.119652443645e-03 -3.456160390905e-04 0.0 
-3.456160390905e-04 6.872141672148e-03 0.0 
0.0 0.0 -1.081576975854e-03 
-1.253042370701e-03 2.293393647918e-04 0.0 
2.293393647918e-04 7.917666161319e-03 0.0 
0.0 0.0 -1.185355684152e-03 
-8.328019205503e-04 -6.002544778108e-04 0.0 
-6.002544778108e-04 4.632328502255e-03 0.0 
0.0 0.0 -7.524367508395e-04 
-4.433075112401e-04 -2.566605040482e-05 0.0 
-2.566605040482e-05 2.036859959460e-03 0.0 
0.0 0.0 -3.333104686742e-04 
3.205177984844e-04 9.975801435051e-04 0.0 
9.975801435051e-04 2.379341149770e-04 0.0 
0.0 0.0 -2.393365343406e-04 
1.591584715393e-04 1.779286051982e-04 0.0 
1.779286051982e-04 1.786654556165e-03 0.0 
0.0 0.0 -5.092532232582e-04 
-4.531066397313e-04 5.570531624296e-04 0.0 
5.570531624296e-04 4.269383883647e-03 0.0 
0.0 0.0 -7.817448632792e-04 
-8.859078879477e-04 -5.417175315324e-04 0.0 
-5.417175315324e-04 5.072763910333e-03 0.0 
0.0 0.0 -8.181699076277e-04 
-1.293553667002e-03 3.539056233938e-04 0.0 
3.539056233938e-04 8.270227580961e-03 0.0 
0.0 0.0 -1.242275372262e-03 
-1.167568761218e-03 -3.100043251916e-04 0.0 
-3.100043251916e-04 7.110149870389e-03 0.0 
0.0 0.0 -1.110186454522e-03 
-8.720271584818e-04 -3.155671013640e-04 0.0 
-3.155671013640e-04 6.271566388977e-03 0.0 
0.0 0.0 -1.040857148505e-03 
3.090009603171e-05 6.438382974465e-04 0.0 
6.438382974465e-04 3.706853633849e-04 0.0 
0.0 0.0 -1.721080540357e-04 
-8.582532174726e-04 2.712256844373e-04 0.0 
2.712256844373e-04 4.619700861909e-03 0.0 
0.0 0.0 -7.126371066839e-04 
-1.210346144101e-03 -2.749948472322e-04 0.0 
-2.749948472322e-04 7.344160972203e-03 0.0 
0.0 0.0 -1.139074001596e-03 
-4.392212359222e-04 -2.427188308892e-04 0.0 
-2.427188308892e-04 4.468278991880e-03 0.0 
0.0 0.0 -8.223634564932e-04 
-9.190954487653e-04 1.036306006856e-04 0.0 
1.036306006856e-04 6.792229327511e-03 0.0 
0.0 0.0 -1.126725356868e-03 
-1.012271879397e-03 -9.648706787801e-05 0.0 
-9.648706787801e-05 5.106630196527e-03 0.0 
0.0 0.0 -7.817916451012e-04 
-1.209813015887e-03 4.617447502893e-04 0.0 
4.617447502893e-04 7.951412152162e-03 0.0 
0.0 0.0 -1.249754184115e-03 
-7.319316117329e-04 4.292603822642e-04 0.0 
4.292603822642e-04 3.626422685243e-03 0.0 
0.0 0.0 -5.757576642514e-04 
-1.253262516526e-03 -2.397729583392e-04 0.0 
-2.397729583392e-04 7.583908034255e-03 0.0 
0.0 0.0 -1.168790087466e-03 
-8.256776309677e-04 -1.881926819914e-04 0.0 
-1.881926819914e-04 6.244322400387e-03 0.0 
0.0 0.0 -1.047452346298e-03 
-1.833871752581e-04 1.076533841658e-03 0.0 
1.076533841658e-03 2.371953294675e-03 0.0 
0.0 0.0 -5.248669331578e-04 
-8.489436119586e-04 9.726246538456e-06 0.0 
9.726246538456e-06 4.964532206226e-03 0.0 
0.0 0.0 -7.498068730476e-04 
-1.301937909208e-03 -2.238090825597e-04 0.0 
-2.238090825597e-04 8.094251106337e-03 0.0 
0.0 0.0 -1.243807156011e-03 
-9.340333835081e-04 -1.610113385009e-04 0.0 
-1.610113385009e-04 6.744276922541e-03 0.0 
0.0 0.0 -1.114542488500e-03 
-7.941362751269e-04 5.664211877541e-04 0.0 
5.664211877541e-04 5.563587855978e-03 0.0 
0.0 0.0 -9.240346875991e-04 
-4.168495056098e-04 -3.974139927462e-04 0.0 
-3.974139927462e-04 4.226500375937e-03 0.0 
0.0 0.0 -7.856950878877e-04 
-7.739148085239e-04 2.464793331539e-04 0.0 
2.464793331539e-04 3.977512213385e-03 0.0 
0.0 0.0 -6.191377506773e-04 
-9.472802509339e-04 -4.715703841177e-04 0.0 
-4.715703841177e-04 5.324567248990e-03 0.0 
0.0 0.0 -8.467704336814e-04 
-9.485585464614e-04 5.193393053567e-04 0.0 
5.193393053567e-04 5.905682896343e-03 0.0 
0.0 0.0 -9.395224721591e-04 
-1.324920476103e-03 3.053746754946e-04 0.0 
3.053746754946e-04 8.723243834592e-03 0.0 
0.0 0.0 -1.306889097489e-03 
-9.807951782906e-04 -9.587801094059e-05 0.0 
-9.587801094059e-05 6.970713904845e-03 0.0 
0.0 0.0 -1.148622835147e-03 
-1.082939420670e-03 2.819860490732e-04 0.0 
2.819860490732e-04 6.381972856138e-03 0.0 
0.0 0.0 -9.696660045843e-04 
-9.493777168521e-04 -4.444219031776e-04 0.0 
-4.444219031776e-04 5.127854127799e-03 0.0 
0.0 0.0 -8.097439408559e-04 
-7.160311725792e-04 3.654432579295e-04 0.0 
3.654432579295e-04 5.714883805619e-03 0.0 
0.0 0.0 -9.749840279683e-04 
-1.676636515260e-04 -4.941269470984e-05 0.0 
-4.941269470984e-05 1.033199140519e-03 0.0 
0.0 0.0 -1.970089232863e-04 
-7.962185908535e-04 3.303377500728e-04 0.0 
3.303377500728e-04 4.131190544581e-03 0.0 
0.0 0.0 -6.447622526173e-04 
-1.000272012546e-03 -3.719800608836e-04 0.0 
-3.719800608836e-04 5.362836932527e-03 0.0 
0.0 0.0 -8.382314227178e-04 
1.017392588855e-04 -1.736220687656e-04 0.0 
-1.736220687656e-04 2.043177635858e-03 0.0 
0.0 0.0 -5.374563060555e-04 
-5.079147546005e-04 -4.709528610388e-04 0.0 
-4.709528610388e-04 4.508844721117e-03 0.0 
0.0 0.0 -8.136389561866e-04 
-1.114056657132e-03 2.887883130746e-04 0.0 
2.887883130746e-04 7.664610237433e-03 0.0 
0.0 0.0 -1.234277959947e-03 
-1.046296347188e-03 -3.017965079923e-04 0.0 
-3.017965079923e-04 5.590796710732e-03 0.0 
0.0 0.0 -8.668853676281e-04 
-2.327182499333e-05 -1.637556316808e-04 0.0 
-1.637556316808e-04 2.609999917965e-03 0.0 
0.0 0.0 -6.015264011954e-04 
-1.086733608739e-03 -2.340312705235e-04 0.0 
-2.340312705235e-04 5.809878777498e-03 0.0 
0.0 0.0 -8.955981815692e-04 
-7.133441625448e-04 3.191920090799e-04 0.0 
3.191920090799e-04 3.492826899708e-03 0.0 
0.0 0.0 -5.519888345566e-04 
-1.102733663682e-03 3.164092702850e-04 0.0 
3.164092702850e-04 6.555228391521e-03 0.0 
0.0 0.0 -9.983267706061e-04 
-1.119318067822e-03 -1.714358954242e-04 0.0 
-1.714358954242e-04 6.018884976543e-03 0.0 
0.0 0.0 -9.243533921793e-04 
-1.001908002250e-03 4.984942752457e-04 0.0 
4.984942752457e-04 6.334427631463e-03 0.0 
0.0 0.0 -1.003151257071e-03 
-2.279098310875e-04 -1.251804773978e-04 0.0 
-1.251804773978e-04 1.119603241316e-03 0.0 
0.0 0.0 -2.040322045631e-04 
-7.855046317287e-04 5.237977796601e-04 0.0 
5.237977796601e-04 5.697841480735e-03 0.0 
0.0 0.0 -9.517466134248e-04 
-1.278300960589e-03 -7.889376224299e-05 0.0 
-7.889376224299e-05 7.564162797006e-03 0.0 
0.0 0.0 -1.155419075730e-03 
-6.039386638838e-04 -9.352834442183e-04 0.0 
-9.352834442183e-04 3.237374525321e-03 0.0 
0.0 0.0 -5.654343806685e-04 
-5.996382576729e-04 -5.078678615237e-04 0.0 
-5.078678615237e-04 4.794693511813e-03 0.0 
0.0 0.0 -8.420324705410e-04 
-1.153622144798e-03 3.409444967982e-04 0.0 
3.409444967982e-04 6.992756961225e-03 0.0 
0.0 0.0 -1.063653581392e-03 
-6.588103306477e-04 3.969496556601e-04 0.0 
3.969496556601e-04 3.002666315313e-03 0.0 
0.0 0.0 -4.839843007303e-04 
-6.880791710433e-04 -4.312562534369e-04 0.0 
-4.312562534369e-04 5.283404868934e-03 0.0 
0.0 0.0 -9.074658271045e-04 
-1.060052777402e-03 4.844888623504e-04 0.0 
4.844888623504e-04 6.770757776904e-03 0.0 
0.0 0.0 -1.067288052377e-03 
-7.837482685475e-04 4.743739920089e-04 0.0 
4.743739920089e-04 5.847117456295e-03 0.0 
0.0 0.0 -9.801762873724e-04 
-5.364910550697e-04 4.803545642860e-04 0.0 
4.803545642860e-04 4.747968314780e-03 0.0 
0.0 0.0 -8.455731917576e-04 
-7.785051872343e-04 -3.658858697108e-04 0.0 
-3.658858697108e-04 5.776530662371e-03 0.0 
0.0 0.0 -9.738262179588e-04 
-6.715128569437e-04 5.603668306290e-04 0.0 
5.603668306290e-04 3.116619739403e-03 0.0 
0.0 0.0 -5.057041985798e-04 
-6.174255134183e-04 -7.382519752092e-04 0.0 
-7.382519752092e-04 2.524949954393e-03 0.0 
0.0 0.0 -4.238464704258e-04 
-5.725994882734e-04 -6.885730532868e-04 0.0 
-6.885730532868e-04 2.123374709043e-03 0.0 
0.0 0.0 -3.586180353125e-04 
-1.087968519769e-04 -3.894502741245e-04 0.0 
-3.894502741245e-04 2.894305128247e-03 0.0 
0.0 0.0 -6.294631353604e-04 
-1.113989301634e-03 4.730580331504e-04 0.0 
4.730580331504e-04 7.064599777148e-03 0.0 
0.0 0.0 -1.103081964739e-03 
-2.909493422495e-04 -6.727813062534e-05 0.0 
-6.727813062534e-05 1.456560370235e-03 0.0 
0.0 0.0 -2.521214004998e-04 
-1.130223577437e-03 3.874695664211e-04 0.0 
3.874695664211e-04 6.879711460710e-03 0.0 
0.0 0.0 -1.054898413167e-03 
-4.747914815808e-04 -7.007316897934e-04 0.0 
-7.007316897934e-04 1.510403036883e-03 0.0 
0.0 0.0 -2.740243446916e-04 
-1.059034309075e-04 -6.476895754937e-04 0.0 
-6.476895754937e-04 2.671993736935e-03 0.0 
0.0 0.0 -5.935709857392e-04 
-8.832674525435e-04 3.712236152595e-04 0.0 
3.712236152595e-04 6.508434955568e-03 0.0 
0.0 0.0 -1.077081564483e-03 
-1.023005590377e-03 -4.065847446542e-05 0.0 
-4.065847446542e-05 6.235882102629e-03 0.0 
0.0 0.0 -9.315431351609e-04 
-2.271455064543e-04 -7.649077538712e-04 0.0 
-7.649077538712e-04 3.005124294304e-03 0.0 
0.0 0.0 -6.211106552582e-04 
-5.539372237771e-04 -2.705347043382e-05 0.0 
-2.705347043382e-05 2.503628127068e-03 0.0 
0.0 0.0 -3.989951351066e-04 
-2.711318037513e-04 -9.555117866304e-04 0.0 
-9.555117866304e-04 2.849172517321e-03 0.0 
0.0 0.0 -5.850331209179e-04 
-6.241921201683e-04 4.180601427792e-04 0.0 
4.180601427792e-04 5.227484326245e-03 0.0 
0.0 0.0 -9.098959706900e-04 
-3.942802621189e-04 -9.538191986641e-04 0.0 
-9.538191986641e-04 3.188718869022e-03 0.0 
0.0 0.0 -6.124823626799e-04 
-4.550624226044e-04 -1.036578340992e-03 0.0 
-1.036578340992e-03 3.064317854104e-03 0.0 
0.0 0.0 -5.760838601101e-04 
-1.286542940212e-03 9.779925010804e-05 0.0 
9.779925010804e-05 8.362389009926e-03 0.0 
0.0 0.0 -1.242975171717e-03 
-5.556616817437e-04 -9.487474711726e-04 0.0 
-9.487474711726e-04 3.373317672553e-03 0.0 
0.0 0.0 -6.030381679152e-04 
-1.312957018488e-03 1.762534641485e-05 0.0 
1.762534641485e-05 8.791531742823e-03 0.0 
0.0 0.0 -1.305370344976e-03 
-1.342889913941e-03 -8.887845541572e-05 0.0 
-8.887845541572e-05 8.517788746463e-03 0.0 
0.0 0.0 -1.298405437673e-03 
-9.001399359898e-04 -3.115200366471e-05 0.0 
-3.115200366471e-05 5.327299192951e-03 0.0 
0.0 0.0 -7.997855503562e-04 
-6.119585369169e-04 5.319683456807e-04 0.0 
5.319683456807e-04 2.524442221547e-03 0.0 
0.0 0.0 -4.121418992062e-04 
0.0 0.0 0.0 
0.0 0.0 0.0 
0.0 0.0 0.0 
-6.013216908629e-04 7.353591052882e-04 0.0 
7.353591052882e-04 2.570270979253e-03 0.0 
0.0 0.0 -4.369243393394e-04 
-5.755877201232e-04 -1.006492197580e-03 0.0 
-1.006492197580e-03 2.831071537896e-03 0.0 
0.0 0.0 -5.013603847490e-04 
-1.101076468124e-03 4.427543157598e-04 0.0 
4.427543157598e-04 6.753747619027e-03 0.0 
0.0 0.0 -1.045752072333e-03 
-9.001350944238e-04 1.690426372956e-05 0.0 
1.690426372956e-05 5.335483219367e-03 0.0 
0.0 0.0 -8.029817139903e-04 
-6.111138971153e-04 -8.912307338130e-04 0.0 
-8.912307338130e-04 2.695444832232e-03 0.0 
0.0 0.0 -4.630712860745e-04 
-1.275916597091e-03 4.598087248478e-04 0.0 
4.598087248478e-04 8.197933557976e-03 0.0 
0.0 0.0 -1.250093291501e-03 
-1.277155987315e-03 4.247176035906e-04 0.0 
4.247176035906e-04 8.290214574666e-03 0.0 
0.0 0.0 -1.306737725957e-03 
-1.108220863065e-03 9.376951406301e-06 0.0 
9.376951406301e-06 6.884195681395e-03 0.0 
0.0 0.0 -1.028769680629e-03 
-9.736500693663e-04 5.157775084853e-05 0.0 
5.157775084853e-05 6.985202160712e-03 0.0 
0.0 0.0 -1.152835590205e-03 
-7.921204258207e-04 4.078698397503e-04 0.0 
4.078698397503e-04 6.023879636983e-03 0.0 
0.0 0.0 -1.010595862668e-03 
-1.241857793517e-03 -4.299570159508e-06 0.0 
-4.299570159508e-06 7.958618347353e-03 0.0 
0.0 0.0 -1.185717314024e-03 
-8.475222208266e-04 -3.781329079989e-05 0.0 
-3.781329079989e-05 4.928212699674e-03 0.0 
0.0 0.0 -7.451086181774e-04 
-1.664286133127e-04 -2.725892507630e-04 0.0 
-2.725892507630e-04 6.325537652716e-04 0.0 
0.0 0.0 -1.414044378648e-04 
-1.183800202695e-03 -4.172593709851e-05 0.0 
-4.172593709851e-05 6.467154125527e-03 0.0 
0.0 0.0 -9.879584850274e-04 
-5.708971627680e-04 6.741264129118e-04 0.0 
6.741264129118e-04 2.024843560255e-03 0.0 
0.0 0.0 -3.437331075899e-04 
-5.495900722021e-04 1.011381174664e-03 0.0 
1.011381174664e-03 1.944401710747e-03 0.0 
0.0 0.0 -3.524505972177e-04 
-2.853835512823e-04 1.205712139992e-03 0.0 
1.205712139992e-03 1.304597058130e-03 0.0 
0.0 0.0 -3.593644486456e-04 
-7.020460695734e-04 -1.440442927613e-04 0.0 
-1.440442927613e-04 3.119459023260e-03 0.0 
0.0 0.0 -4.856826860430e-04 
-8.782495870591e-05 -9.084916110393e-04 0.0 
-9.084916110393e-04 7.572036747300e-04 0.0 
0.0 0.0 -2.846511604759e-04 
-4.893890858810e-04 8.969022950391e-04 0.0 
8.969022950391e-04 1.589417859757e-03 0.0 
0.0 0.0 -3.076864852448e-04 
-1.137014357475e-03 7.152136645660e-05 0.0 
7.152136645660e-05 7.697731072351e-03 0.0 
0.0 0.0 -1.245112051941e-03 
-9.139609418570e-04 1.641183808410e-05 0.0 
1.641183808410e-05 5.327038428336e-03 0.0 
0.0 0.0 -8.050116406322e-04 
-9.540345071131e-04 3.841934886618e-04 0.0 
3.841934886618e-04 6.790550876670e-03 0.0 
0.0 0.0 -1.110409235593e-03 
-1.902162665021e-04 9.339845454039e-04 0.0 
9.339845454039e-04 9.942126500714e-04 0.0 
0.0 0.0 -3.261355004832e-04 
-1.296828862309e-03 2.341461600450e-04 0.0 
2.341461600450e-04 8.351041898143e-03 0.0 
0.0 0.0 -1.247366155457e-03 
-1.168645139073e-03 3.735588726833e-04 0.0 
3.735588726833e-04 7.817174461527e-03 0.0 
0.0 0.0 -1.246608778627e-03 
-1.314967464086e-03 -3.318256949741e-04 0.0 
-3.318256949741e-04 8.403481236488e-03 0.0 
0.0 0.0 -1.306249356034e-03 
-1.050201848033e-03 3.696451559178e-04 0.0 
3.696451559178e-04 7.268871172990e-03 0.0 
0.0 0.0 -1.176371721005e-03 
6.114555871551e-05 1.042784162236e-03 0.0 
1.042784162236e-03 5.736687994652e-04 0.0 
0.0 0.0 -2.720632963632e-04 
-9.766098877979e-04 1.041630930997e-04 0.0 
1.041630930997e-04 5.685157012225e-03 0.0 
0.0 0.0 -8.603500797662e-04 
-1.246724541881e-03 4.866961176123e-04 0.0 
4.866961176123e-04 8.045633532487e-03 0.0 
0.0 0.0 -1.250827372426e-03 
-1.145993633532e-03 3.235835733547e-05 0.0 
3.235835733547e-05 7.250949289083e-03 0.0 
0.0 0.0 -1.080253149739e-03 
-1.318596932855e-03 -2.303003049155e-04 0.0 
-2.303003049155e-04 8.477981163117e-03 0.0 
0.0 0.0 -1.309985050881e-03 
-9.104561560587e-04 8.791536920609e-05 0.0 
8.791536920609e-05 5.249520802984e-03 0.0 
0.0 0.0 -7.979019438933e-04 
-1.287101829326e-03 7.929734908006e-05 0.0 
7.929734908006e-05 8.412586601378e-03 0.0 
0.0 0.0 -1.252774941638e-03 
4.187865149814e-04 -7.886444366699e-04 0.0 
-7.886444366699e-04 6.898920111237e-05 0.0 
0.0 0.0 -2.090467354688e-04 
-1.285197150188e-03 5.312445103222e-05 0.0 
5.312445103222e-05 8.412445019205e-03 0.0 
0.0 0.0 -1.254166199180e-03 
-1.155435508235e-03 4.462044169920e-04 0.0 
4.462044169920e-04 7.190167035892e-03 0.0 
0.0 0.0 -1.110316242656e-03 
-9.785241987209e-04 6.006269753900e-05 0.0 
6.006269753900e-05 5.897359505691e-03 0.0 
0.0 0.0 -8.840149073763e-04 
-9.814056690218e-04 2.078101741112e-04 0.0 
2.078101741112e-04 5.639397818750e-03 0.0 
0.0 0.0 -8.570326279659e-04 
-1.319590243869e-03 -1.168373964399e-04 0.0 
-1.168373964399e-04 8.200864803592e-03 0.0 
0.0 0.0 -1.256337174517e-03 
-1.298927049123e-03 3.872456439500e-04 0.0 
3.872456439500e-04 8.256979916972e-03 0.0 
0.0 0.0 -1.249505442739e-03 
1.588810044440e-04 6.739000714330e-04 0.0 
6.739000714330e-04 2.144145137498e-04 0.0 
0.0 0.0 -1.599837935116e-04 
-1.096094038579e-03 6.855172835755e-05 0.0 
6.855172835755e-05 6.864639960432e-03 0.0 
0.0 0.0 -1.024357608964e-03 
-8.327401503038e-04 -2.617825635292e-04 0.0 
-2.617825635292e-04 3.865808984588e-03 0.0 
0.0 0.0 -5.984289768806e-04 
4.595402762325e-05 -8.016720020432e-05 0.0 
-8.016720020432e-05 3.015012832341e-06 0.0 
0.0 0.0 -2.098673162382e-05 
-1.235862100260e-03 -2.625570613708e-04 0.0 
-2.625570613708e-04 7.934382526740e-03 0.0 
0.0 0.0 -1.249521112489e-03 
-1.211535382329e-03 4.565569816846e-04 0.0 
4.565569816846e-04 7.603855218494e-03 0.0 
0.0 0.0 -1.172189067419e-03 
-1.321360973485e-03 -1.598454139055e-04 0.0 
-1.598454139055e-04 8.157812717265e-03 0.0 
0.0 0.0 -1.251863004148e-03 
-1.704574328015e-04 2.300128264431e-05 0.0 
2.300128264431e-05 1.030856563870e-03 0.0 
0.0 0.0 -1.953152674555e-04 
-1.117901966883e-04 -9.482210033707e-05 0.0 
-9.482210033707e-05 5.817955991869e-04 0.0 
0.0 0.0 -1.292073282250e-04 
-1.214101423412e-03 -2.486194593532e-04 0.0 
-2.486194593532e-04 7.945028851660e-03 0.0 
0.0 0.0 -1.258522865334e-03 
-1.271219324857e-03 4.971693506933e-04 0.0 
4.971693506933e-04 8.177840067003e-03 0.0 
0.0 0.0 -1.257106814994e-03 
2.594232538172e-04 -1.339851872499e-03 0.0 
-1.339851872499e-03 5.141638941498e-04 0.0 
0.0 0.0 -3.217126346404e-04 
-1.334345376368e-03 2.157790183719e-04 0.0 
2.157790183719e-04 8.827191171129e-03 0.0 
0.0 0.0 -1.314710167832e-03 
5.758992691219e-05 1.629967515181e-04 0.0 
1.629967515181e-04 3.408863824387e-05 0.0 
0.0 0.0 -3.929081363831e-05 
-8.415723991859e-04 3.409357994461e-05 0.0 
3.409357994461e-05 4.862419417103e-03 0.0 
0.0 0.0 -7.389643750272e-04 
-5.632071603276e-05 -7.908255579780e-05 0.0 
-7.908255579780e-05 5.951715054384e-04 0.0 
0.0 0.0 -1.313337839019e-04 
-1.324427323831e-03 -2.984557275517e-04 0.0 
-2.984557275517e-04 8.505668996389e-03 0.0 
0.0 0.0 -1.308531455474e-03 
-1.300676432775e-03 1.886676363898e-04 0.0 
1.886676363898e-04 8.425576722081e-03 0.0 
0.0 0.0 -1.254845750201e-03 
-8.984019564796e-04 -1.237198133233e-04 0.0 
-1.237198133233e-04 4.265458849472e-03 0.0 
0.0 0.0 -6.564513288157e-04 
-8.888014077326e-04 1.812789084724e-04 0.0 
1.812789084724e-04 4.952376261473e-03 0.0 
0.0 0.0 -7.541421605440e-04 
-6.276097559503e-04 -6.715782605664e-05 0.0 
-6.715782605664e-05 2.832069501594e-03 0.0 
0.0 0.0 -4.426424662127e-04 
-1.151816338705e-03 4.986859032723e-04 0.0 
4.986859032723e-04 7.600283655027e-03 0.0 
0.0 0.0 -1.203498912175e-03 
-2.674740073154e-04 -5.400123392678e-04 0.0 
-5.400123392678e-04 9.299090651865e-04 0.0 
0.0 0.0 -2.264474151299e-04 
-1.303841109802e-03 1.085882883771e-04 0.0 
1.085882883771e-04 8.492357544012e-03 0.0 
0.0 0.0 -1.260296891839e-03 
-1.191687690371e-03 -1.792572912051e-04 0.0 
-1.792572912051e-04 7.902409115589e-03 0.0 
0.0 0.0 -1.261416966621e-03 
-1.308215205254e-03 3.369873735607e-04 0.0 
3.369873735607e-04 8.413847692259e-03 0.0 
0.0 0.0 -1.260618436842e-03 
-1.275370929010e-03 2.203297067690e-04 0.0 
2.203297067690e-04 8.294911698725e-03 0.0 
0.0 0.0 -1.317725628150e-03 
1.222313271005e-05 1.128127362180e-05 0.0 
1.128127362180e-05 -2.314647535049e-06 0.0 
0.0 0.0 -4.246493646427e-06 
-1.211818034300e-03 4.006014363556e-04 0.0 
4.006014363556e-04 7.983414665776e-03 0.0 
0.0 0.0 -1.263090216482e-03 
-1.073154055867e-03 -5.044780342709e-05 0.0 
-5.044780342709e-05 7.404491594172e-03 0.0 
0.0 0.0 -1.202239909569e-03 
-8.482969471247e-04 5.756566432870e-05 0.0 
5.756566432870e-05 4.934073378721e-03 0.0 
0.0 0.0 -7.439744481034e-04 
-1.294789794099e-03 4.128632800208e-04 0.0 
4.128632800208e-04 8.301439097425e-03 0.0 
0.0 0.0 -1.252574368527e-03 
-7.632240259174e-04 -1.247615584578e-04 0.0 
-1.247615584578e-04 3.481612275262e-03 0.0 
0.0 0.0 -5.383891422301e-04 
-3.003096040968e-04 -1.615487937268e-04 0.0 
-1.615487937268e-04 1.430206630076e-03 0.0 
0.0 0.0 -2.492021827984e-04 
-1.313629829914e-03 -1.230146382652e-05 0.0 
-1.230146382652e-05 8.822541585775e-03 0.0 
0.0 0.0 -1.313490227100e-03 
3.683652534775e-04 2.508064819117e-05 0.0 
2.508064819117e-05 8.818976973003e-05 0.0 
0.0 0.0 -1.228024910637e-04 
-8.447146323437e-04 -2.046082411215e-05 0.0 
-2.046082411215e-05 4.909462012842e-03 0.0 
0.0 0.0 -7.402411036050e-04 
-1.348085845692e-03 2.530918264864e-06 0.0 
2.530918264864e-06 8.606464988216e-03 0.0 
0.0 0.0 -1.313492844077e-03 
-2.497229854947e-04 -6.189559134780e-05 0.0 
-6.189559134780e-05 1.337406434444e-03 0.0 
0.0 0.0 -2.401910970207e-04 
-9.421911629794e-04 -1.661669992897e-05 0.0 
-1.661669992897e-05 5.655702660019e-03 0.0 
0.0 0.0 -8.489638187885e-04 
-1.276280445523e-03 4.696432845470e-04 0.0 
4.696432845470e-04 8.231682282445e-03 0.0 
0.0 0.0 -1.260211869575e-03 
-1.042131282941e-03 -3.353944901092e-05 0.0 
-3.353944901092e-05 5.231045184564e-03 0.0 
0.0 0.0 -7.986629621775e-04 
-1.208709146256e-03 -3.512840286861e-05 0.0 
-3.512840286861e-05 7.690123470060e-03 0.0 
0.0 0.0 -1.148445367820e-03 
-1.362273016930e-05 -1.182361291552e-03 0.0 
-1.182361291552e-03 7.884965128820e-04 0.0 
0.0 0.0 -3.320887640197e-04 
0.0 0.0 0.0 
0.0 0.0 0.0 
0.0 0.0 0.0 
-1.052359765526e-03 -2.552934865100e-05 0.0 
-2.552934865100e-05 6.469023319650e-03 0.0 
0.0 0.0 -9.668795991591e-04 
-1.182130655930e-03 3.563594059290e-04 0.0 
3.563594059290e-04 7.870829341615e-03 0.0 
0.0 0.0 -1.258714341260e-03 
-1.311624000118e-03 2.599452204782e-04 0.0 
2.599452204782e-04 8.471619375797e-03 0.0 
0.0 0.0 -1.263997700767e-03 
-1.012178473530e-03 6.922432419418e-05 0.0 
6.922432419418e-05 6.158161253950e-03 0.0 
0.0 0.0 -9.199601189493e-04 
2.647470927745e-04 7.455276449397e-04 0.0 
7.455276449397e-04 1.486685304712e-04 0.0 
0.0 0.0 -1.771781242482e-04 
-1.250478637346e-03 4.824320061321e-04 0.0 
4.824320061321e-04 7.958988352162e-03 0.0 
0.0 0.0 -1.221038716794e-03 
-9.320485300336e-04 -1.667751956757e-04 0.0 
-1.667751956757e-04 4.597200132756e-03 0.0 
0.0 0.0 -7.060606045914e-04 
-1.200656783891e-03 4.721645169611e-04 0.0 
4.721645169611e-04 7.751960834764e-03 0.0 
0.0 0.0 -1.208939113964e-03 
-1.070653970758e-03 3.740030437558e-05 0.0 
3.740030437558e-05 7.401065294209e-03 0.0 
0.0 0.0 -1.203806565432e-03 
-6.938657093350e-06 1.821542868877e-04 0.0 
1.821542868877e-04 2.192174116827e-05 0.0 
0.0 0.0 -6.421321746396e-06 
-1.092227246100e-03 -1.750499239164e-05 0.0 
-1.750499239164e-05 5.615262148534e-03 0.0 
0.0 0.0 -8.562696210230e-04 
-5.708960077967e-05 -1.112001135559e-04 0.0 
-1.112001135559e-04 5.586929987395e-04 0.0 
0.0 0.0 -1.274563633148e-04 
-1.286136249812e-03 -3.205909886145e-04 0.0 
-3.205909886145e-04 8.133690929480e-03 0.0 
0.0 0.0 -1.263714160583e-03 
-9.761535132734e-04 -1.267872809360e-04 0.0 
-1.267872809360e-04 4.804162128704e-03 0.0 
0.0 0.0 -7.344436328926e-04 
-7.810257304589e-04 1.105554190864e-04 0.0 
1.105554190864e-04 4.309775792420e-03 0.0 
0.0 0.0 -6.596730790541e-04 
-7.681459693767e-04 3.705640173290e-05 0.0 
3.705640173290e-05 4.300928271438e-03 0.0 
0.0 0.0 -6.600000000000e-04 

SCALARS node_materi_plasti_kappa_shear float
LOOKUP_TABLE default
4.018595016637e-04
3.089753889168e-03
5.782851735544e-03
5.918183804685e-03
3.534406101045e-04
5.777185496190e-04
8.655346567894e-04
1.225178696612e-03
1.561289241519e-03
1.871659154863e-03
2.181083715770e-03
2.488964856422e-03
2.787137593187e-03
3.091771098928e-03
3.420472284368e-03
3.710467865470e-03
3.939561491463e-03
4.240577622205e-03
4.533842638206e-03
4.816933074020e-03
5.104668969230e-03
5.391975952764e-03
5.664103688175e-03
5.924781152092e-03
5.917884078783e-03
5.912198488963e-03
5.915363934694e-03
5.905144694759e-03
5.903457440159e-03
5.903348825921e-03
5.903761712110e-03
5.904265203747e-03
5.905318048855e-03
5.891395232290e-03
5.888128140164e-03
5.888680312796e-03
5.877931512601e-03
5.860031142375e-03
5.843163873243e-03
5.826784160533e-03
5.822850206754e-03
5.815960623432e-03
5.800025919692e-03
5.784362356774e-03
5.761776212317e-03
5.737855144386e-03
5.711749137531e-03
5.696108572039e-03
5.671644922163e-03
5.650827538949e-03
5.628366488181e-03
5.614080868870e-03
5.604140386821e-03
5.593036124330e-03
5.565915778014e-03
5.555192109801e-03
5.573004876633e-03
5.580306717995e-03
5.596307166112e-03
5.614091302201e-03
5.629810666475e-03
5.640837494200e-03
5.663093814390e-03
5.686920133380e-03
5.716693701825e-03
5.739758391817e-03
5.726679333637e-03
5.759394314008e-03
5.766547388258e-03
5.773558049937e-03
5.793695355299e-03
5.800384027879e-03
3.373278433029e-03
3.702017582457e-03
4.003145076898e-03
4.293988028575e-03
4.595203178701e-03
4.888984289506e-03
5.184208240141e-03
5.464856448975e-03
5.776378587400e-03
0.0
3.081614032412e-03
4.378618974846e-04
9.313671065223e-04
1.273596264124e-03
1.475817609515e-03
1.691520661011e-03
1.947957693993e-03
2.239903850629e-03
2.537826391599e-03
2.839066252285e-03
2.902999041019e-03
3.033283060944e-03
3.047551184854e-03
3.052691208087e-03
3.048980415926e-03
3.100970999415e-03
3.055386088565e-03
3.048944342912e-03
3.057111577285e-03
3.066860764030e-03
3.068512091509e-03
3.063486917503e-03
3.060147944086e-03
3.055345893607e-03
3.060924048497e-03
0.0
0.0
0.0
0.0
3.010556392943e-05
1.524327839584e-04
1.995857095858e-04
2.767971837970e-04
3.769179784358e-04
3.253807271213e-04
3.117581124918e-04
3.606568275965e-04
3.857262083461e-04
3.906419353076e-04
3.716692121618e-04
3.690405021818e-04
3.747103273913e-04
3.933863016815e-04
4.155151763044e-04
2.834136266921e-03
2.939376189196e-03
2.953505634042e-03
2.948514860722e-03
2.952677534501e-03
2.955144218999e-03
2.951412134170e-03
2.950629010420e-03
2.948039698852e-03
2.948645719106e-03
2.946168841086e-03
2.944603021446e-03
2.947797940431e-03
2.940622112182e-03
2.922140295506e-03
2.892348026354e-03
3.364365615920e-04
6.987967846243e-04
1.138663496479e-03
1.416159959173e-03
1.577549707535e-03
1.821953157934e-03
2.097239974907e-03
2.389074674071e-03
2.692213877285e-03
2.929582433053e-03
9.738600395070e-04
5.435588587201e-03
2.909988311951e-04
3.769847250247e-05
5.523350165746e-03
1.570944169196e-03
3.259014405966e-03
5.458606763578e-03
1.964336709912e-03
5.566973844380e-03
2.569306611317e-03
5.632953359091e-03
2.974125210141e-04
5.671758588449e-03
3.203440197606e-03
2.038890301766e-03
4.045860618714e-03
5.716180375961e-03
5.780776132195e-03
5.820339983969e-03
5.787783236705e-03
5.807930197893e-03
3.336276229903e-03
3.342041558882e-03
3.361792062102e-03
4.441169448529e-03
5.674307051814e-03
0.0
3.258871354568e-04
4.945795996265e-03
3.327462179656e-03
1.042267579418e-03
5.707024864185e-03
5.532622783009e-03
5.619797893241e-03
5.423578043402e-03
5.471772884167e-03
3.436383270430e-04
3.333005330644e-03
5.529223749368e-03
5.037839075619e-03
2.638587871684e-04
2.642361659730e-03
5.873210275008e-03
1.763677943653e-03
1.340334044123e-03
2.263467496582e-03
2.874799860949e-03
4.527674742544e-04
3.869122312403e-03
5.743109238437e-03
3.483418716497e-04
5.592525333234e-03
3.331816214928e-03
3.445762685372e-03
3.598635432457e-03
3.735913935782e-03
3.890935618439e-03
4.012600674009e-03
3.849474617287e-03
4.126514031565e-03
3.959165169884e-03
4.176038116471e-03
4.235988580971e-03
4.064707878218e-03
4.341402437136e-03
4.167240197337e-03
3.894151677151e-03
3.992834958239e-03
3.721936449487e-03
3.816849981585e-03
4.088667098279e-03
3.907021233887e-03
3.638494610824e-03
3.722863223661e-03
3.459179651477e-03
3.537390187834e-03
3.278134638251e-03
3.349761859775e-03
3.611638012721e-03
3.416809574398e-03
3.159803868816e-03
3.218051688491e-03
2.967054440755e-03
3.013255720382e-03
3.274741419647e-03
3.060407839341e-03
2.799033525006e-03
2.837141687482e-03
2.575225456547e-03
2.604333461748e-03
2.339006943104e-03
2.356936139518e-03
2.652093179226e-03
2.407825459181e-03
2.096105658174e-03
2.161022888784e-03
2.499076110119e-03
2.280206439540e-03
2.629068977315e-03
2.442266900798e-03
2.092139772061e-03
2.292183785288e-03
2.630236405014e-03
2.506325631077e-03
2.190661895186e-03
2.422274426006e-03
2.721982461051e-03
2.641933182030e-03
2.372758104436e-03
2.584384885052e-03
2.850333968712e-03
2.779077813445e-03
2.534557373612e-03
2.709557774217e-03
2.962454448322e-03
2.875190167875e-03
3.136631662822e-03
2.629761375739e-03
2.778979644167e-03
2.533618166994e-03
2.669371918058e-03
3.335780224915e-03
2.417052975495e-03
2.301133563289e-03
2.544153619348e-03
2.809569658580e-03
2.280488059570e-03
2.403129281843e-03
2.126768242516e-03
2.337020972949e-03
4.180692697777e-03
2.249003779132e-03
1.959755581014e-03
1.842529391951e-03
1.658290441270e-03
4.057689887828e-03
4.345234894460e-03
4.214494829484e-03
4.512207963410e-03
4.386116896851e-03
1.781237856866e-03
4.515858041588e-03
4.632785065629e-03
3.375865563346e-03
2.914340702826e-03
2.837997481989e-03
2.532048550751e-03
2.378710134929e-03
2.668313152737e-03
3.233044162886e-03
3.411145406702e-03
3.516648249659e-03
3.695606962542e-03
3.809881520443e-03
3.987932871345e-03
3.868387923180e-03
4.160380401702e-03
4.035401995459e-03
4.109927676280e-03
3.929071965478e-03
4.326541573449e-03
4.196853341751e-03
4.486612097014e-03
4.352559495553e-03
4.065464170358e-03
4.216259007439e-03
3.932665926102e-03
2.974206145827e-03
3.176937453123e-03
3.316135238148e-03
3.514584502752e-03
3.655690360847e-03
3.851432524779e-03
3.992906615051e-03
3.810423676568e-03
4.443438443787e-03
1.828572061533e-03
1.806415762240e-03
1.513365747016e-03
1.563989916259e-03
1.243214007741e-03
1.411260727777e-03
1.087408529277e-03
9.280634857496e-04
7.696745497683e-04
7.727047061156e-04
6.380213861808e-04
9.424950275726e-04
3.683920707972e-03
3.721810168106e-03
4.055539867157e-03
3.931687734683e-03
1.545289606018e-03
4.502587431745e-03
4.237803823005e-03
4.054767645798e-03
4.147689587509e-03
1.469037962723e-03
1.381279309045e-03
1.636872751770e-03
4.676612476866e-03
4.548915297300e-03
4.373011447568e-03
1.596671411329e-03
4.457517107573e-03
6.726180917699e-04
4.361759767158e-03
4.647438517847e-03
3.749070434487e-03
4.262666346844e-03
4.139562493484e-03
1.058263721451e-03
1.328795762681e-03
1.257951778391e-03
1.615059101371e-03
1.617776829754e-03
1.784704992927e-03
1.664404533731e-03
1.851897133188e-03
1.923512677117e-03
1.920863832566e-03
1.732826179112e-03
1.789080397445e-03
4.789640175199e-03
4.933105548269e-04
3.623293427982e-03
4.549397453839e-03
4.326717748868e-03
4.840106465985e-03
4.712783082347e-03
4.418649943636e-03
4.585859736983e-03
4.878747721020e-03
4.750919794657e-03
4.456475978691e-03
4.618929314417e-03
4.321775629010e-03
4.485087669046e-03
4.780485262660e-03
4.648645754832e-03
4.352908180169e-03
4.515438133183e-03
4.218119818909e-03
4.376442562231e-03
4.677698654010e-03
1.280455175298e-03
3.975684030661e-03
4.313430537097e-03
2.531248625096e-03
2.795187276442e-03
2.950421176089e-03
3.091354176801e-03
4.540325048563e-03
4.842133621751e-03
1.627886023255e-03
1.806948227217e-03
4.964897247722e-03
4.505647349825e-03
4.219641279943e-03
2.730984817609e-03
2.680252985846e-03
2.508656173216e-03
2.453261305901e-03
2.619408054872e-03
2.295804407583e-03
3.740263927181e-03
4.943332949813e-03
1.736869985241e-03
1.441819622179e-03
4.792252417499e-03
3.639826983595e-03
3.882064491805e-03
3.960472891563e-03
4.161603615821e-03
4.245857029619e-03
4.449138486875e-03
4.538270851724e-03
4.336412104351e-03
4.467009293726e-03
4.637465802825e-03
4.227760771006e-03
3.603493058884e-03
2.015316274690e-03
1.151528373984e-03
1.494680084950e-03
1.401763515938e-03
1.725734234278e-03
4.692766413527e-03
4.744201478353e-03
4.646812231519e-03
2.391216520205e-03
2.541437442855e-03
4.590954612420e-03
4.090617543142e-03
4.159541705089e-03
4.020881279016e-03
1.028169191453e-03
1.414727337198e-03
5.043491496533e-03
1.828932906125e-03
1.917980713017e-03
4.157180774186e-04
1.730461438410e-04
4.691724722002e-03
4.992960999119e-03
3.232526540781e-03
3.376337074583e-03
4.517813292037e-03
1.573664134280e-03
5.136914764881e-03
3.818178697522e-03
3.485662865048e-03
2.929371560799e-03
1.726704283358e-03
1.445214139706e-03
2.001081890038e-03
1.816948000307e-03
1.537558582793e-03
4.841861112859e-03
5.166500773962e-03
4.432736485775e-03
4.128543821065e-03
4.737743923515e-03
1.242267063270e-03
4.872712079514e-03
4.648563616368e-03
4.934717953700e-03
4.841015803806e-03
1.998284811115e-03
2.023831337705e-03
1.929656289699e-03
2.012827717834e-03
3.685637869250e-03
2.160195855781e-03
3.453630867072e-03
3.353268669804e-03
3.189580292168e-03
2.780580474833e-03
2.697012491619e-03
1.850761695031e-03
3.058179809856e-03
3.092459470665e-03
3.782098167745e-03
3.330348654579e-03
5.071602464651e-03
5.237586080772e-03
4.054791370477e-03
3.911736450825e-03
1.227723328770e-03
1.121568548935e-03
3.305144710569e-03
4.722576138819e-03
5.125546474561e-03
5.249094215458e-03
5.084093944170e-03
4.665047890294e-03
1.576387794071e-03
3.131769936580e-03
4.332121020711e-04
3.548502236301e-03
8.886689387002e-04
4.364114879908e-03
4.929747689709e-03
5.074378233997e-03
4.790835636385e-03
3.303647652991e-03
3.622953727387e-03
3.407028331039e-03
3.087385769992e-03
2.928470296600e-03
3.025957624230e-03
2.770242371404e-03
2.146257545189e-03
2.105072283453e-03
5.074226657025e-03
4.945890381019e-03
5.132442016699e-03
5.036778597884e-03
4.913108523956e-03
4.718978319234e-03
1.854189815065e-03
2.451969709865e-03
5.326205974981e-03
3.245806195750e-03
5.032929921038e-03
4.895632072523e-03
8.703516401932e-05
5.025155932237e-04
5.299729360747e-03
1.862195518962e-03
1.925793576571e-03
1.786850721610e-03
5.508894573325e-03
3.317615670200e-03
5.206554443836e-03
2.947814730022e-03
5.436495255461e-03
3.710224019945e-03
2.542778381884e-03
4.340023150483e-03
5.139724345049e-03
5.473155703650e-03
3.856151046115e-03
3.706636097451e-03
3.986363479487e-03
8.597848081307e-04
4.948557720353e-04
5.105588847389e-03
2.215579397184e-03
2.383580716268e-03
1.610091948116e-03
1.853488942061e-03
3.371371645262e-03
3.226095624709e-03
4.460118615317e-03
4.646317835840e-03
4.077799721508e-03
3.673670130341e-03
3.349970931867e-03
3.156166832522e-03
5.356340387661e-03
5.560199060828e-03
2.148566688317e-03
1.947252295954e-03
2.277219304698e-03
5.452662980312e-03
5.357012637058e-03
5.217066698957e-03
7.819578528788e-04
1.028971749725e-03
1.479365826605e-03
1.088843442230e-03
5.358763484459e-03
5.206986646545e-03
5.554350471510e-03
1.646365469631e-03
4.227084436487e-03
4.981659535795e-03
4.824566320776e-03
5.205837116450e-03
4.665431215244e-03
4.979351549170e-03
5.045785100976e-03
6.553725280411e-06
5.354913579491e-03
3.735880701652e-03
0.0
3.596581939605e-03
3.776236102998e-03
3.431628553560e-03
1.322961065373e-03
3.627378963851e-03
3.821605526455e-03
5.613183195734e-04
5.602994573649e-03
5.605292770001e-04
6.792338181859e-04
5.201033617940e-03
5.054577875216e-03
5.350694268135e-03
5.195925285154e-03
4.911596497334e-03
5.072562886383e-03
3.571136890228e-03
5.391533904623e-03
5.225263310295e-03
5.570873285067e-03
2.672019548462e-03
2.112700823482e-03
2.016942320669e-03
1.807045388935e-03
5.367508392991e-03
5.211741918196e-03
4.791087967570e-03
4.504528282397e-03
3.617380192862e-03
3.592243224651e-03
3.871542763848e-03
3.825760515629e-03
4.113486033420e-03
4.067343757730e-03
4.345783660312e-03
5.267440361509e-03
1.658829135304e-03
2.980180790998e-03
5.045745089381e-03
4.837810433997e-03
2.604840179930e-03
2.359528337880e-03
5.236949940379e-03
2.139698474170e-03
5.776025953178e-03
4.548865527371e-06
9.778909536364e-05
2.339238525722e-03
2.860933532174e-03
2.233233218599e-03
2.157897013088e-03
4.004695448910e-03
9.235095768594e-04
1.682665914814e-03
4.384602592843e-03
1.382892764948e-03
4.658101181556e-03
2.105930324669e-03
3.025966663440e-03
1.860371278765e-03
2.156903041045e-03
3.791766830717e-03
3.575521711054e-03
3.414449332742e-03
2.082739350568e-03
2.302944948856e-03
2.030320299130e-03
3.548903922870e-03
4.919586046203e-03
5.037796762255e-03
5.310613898604e-03
5.154282845663e-03
4.869442501820e-03
4.979196796726e-03
5.263482143390e-03
5.097588445123e-03
5.433286767238e-03
5.203085790594e-03
4.911819673152e-03
5.013424306316e-03
5.289013913456e-03
4.727439554445e-03
5.236156713520e-03
2.555895745055e-03
9.111497954275e-05
4.210174297477e-04
3.201712461661e-03
5.730004135783e-03
5.767445976811e-03
1.691075707631e-03
5.643473628579e-03
3.519780408461e-03
1.047073323882e-03
5.592957634279e-03
4.751520745494e-03
4.579435651060e-03
4.463201836768e-03
5.793236110746e-03
4.123046406902e-03
5.509305537426e-03
3.389446893060e-03
3.279327038173e-03
2.961278145953e-03
4.801619878836e-03
5.436694213567e-03
5.157649565966e-03
5.160321964187e-03
4.861485784402e-03
5.448713258893e-03
5.717599457513e-03
5.706213826985e-03
1.828494135708e-03
1.709398695910e-03
1.898258451700e-03
1.622333472901e-03
1.412743391040e-03
1.316736111381e-03
1.628168335130e-03
1.039665837843e-03
4.929832743955e-03
5.492129088288e-03
3.625564248662e-03
3.432597322909e-03
3.134856267973e-03
2.952066020253e-03
3.078747520708e-03
3.351373813983e-03
2.815770384213e-03
4.041389319165e-03
5.510043080626e-03
3.303884447530e-03
2.928688293770e-03
3.336341398281e-03
3.593836274312e-03
3.598511107039e-03
3.869249033601e-03
3.623805167776e-03
3.516608453604e-03
3.658527646077e-03
3.515347475486e-03
3.794985028764e-03
3.639781273070e-03
3.373627075467e-03
3.921733030934e-03
3.752559113767e-03
3.333440693931e-03
1.541531548536e-04
5.940250931269e-04
7.027142990941e-04
1.021409890230e-03
8.359819815989e-04
1.303920167999e-03
1.039423496534e-03
3.284076278483e-04
3.019271284436e-04
6.566057884129e-04
3.288717913001e-04
5.940028616349e-04
1.062033452019e-03
1.367334253023e-03
5.652286702244e-03
2.938936405259e-03
2.805289880450e-03
2.499233211098e-03
2.662705054473e-03
3.052456379495e-03
2.341669267002e-03
2.236323217213e-03
3.368574310713e-04
4.419598349489e-04
4.410447408450e-04
7.207625795544e-04
7.074768685298e-04
4.420400412776e-04
4.449633113941e-04
3.145644272533e-04
4.504548672275e-04
7.268015370500e-04
3.062409538729e-04
4.745527215494e-03
4.902505264739e-03
5.544916367284e-03
3.368924595429e-03
2.544811655954e-04
5.780998861492e-03
5.813842834379e-03
5.817013326087e-03
5.233971751005e-03
5.365637462079e-03
5.788240472877e-03
2.014050555547e-03
5.434538857935e-03
5.267458791713e-03
1.311421764019e-03
2.008026884127e-03
4.362324178154e-03
3.910057017267e-03
4.933262515921e-03
4.079022426720e-03
4.641099795521e-03
5.158355521769e-03
1.213464950072e-03
4.185417172818e-03
4.076798602367e-03
4.811798339392e-03
2.086149546152e-03
3.238993663622e-03
1.348867022610e-03
5.359250132040e-03
3.285416912687e-03
3.046769336548e-03
2.677719312106e-03
2.168475210700e-03
1.957305737071e-03
2.768223087164e-03
3.036664388310e-03
4.286179880856e-03
4.975421168353e-03
3.166773246265e-04
4.414552831620e-03
3.582806630633e-03
4.292263749295e-03
4.187531334711e-03
1.624964030413e-03
4.913094015127e-03
5.399859365631e-03
3.948537402346e-03
1.019982226970e-03
3.882948642930e-03
5.011342776407e-03
4.799927772923e-03
1.909455734444e-03
2.789026983488e-03
3.096861197051e-03
3.026441214717e-03
5.391810110936e-03
3.115333052868e-03
4.488935570888e-03
3.471918703046e-03
2.042934957486e-03
4.758450757248e-03
2.730164700612e-03
5.205251802628e-03
4.359423513210e-03
1.928746000249e-03
5.001431347950e-03
2.931441338209e-03
4.390043822392e-03
3.117148399214e-03
3.803735016467e-03
4.266483966727e-03
3.482072113493e-03
4.216350577803e-03
4.589726999369e-03
7.822158450212e-04
2.336975079915e-03
4.252864040516e-03
4.830810690924e-03
5.492998307562e-03
2.853919931406e-03
4.620197000946e-03
5.283300374483e-03
3.195345026289e-03
1.407849422888e-03
1.052568637253e-03
1.231938885888e-03
2.888387059379e-03
3.468984859371e-03
5.520066455693e-03
4.776767016044e-03
4.191097730844e-03
7.054263323161e-04
3.137270481220e-03
4.930209733183e-03
2.967745864271e-03
4.518076980286e-03
3.471719766142e-03
5.320909655121e-03
2.513659337608e-03
5.087932046228e-03
4.157539429140e-03
1.929448282595e-03
3.328255837959e-03
5.415880323612e-03
4.493880815661e-03
3.756679585458e-03
2.829619919497e-03
2.715238429679e-03
3.628276273172e-03
3.993174405771e-03
5.804322562982e-03
4.644362204700e-03
4.291233033703e-03
3.502523749532e-03
3.813462889229e-03
7.047390220056e-04
2.825859966298e-03
3.651715310585e-03
1.384942781952e-03
3.032571676708e-03
5.114951343620e-03
3.797843583975e-03
1.739058177563e-03
3.939088055833e-03
2.408697712716e-03
4.407302233334e-03
4.073717321279e-03
4.269608694400e-03
7.894202949830e-04
3.833002126981e-03
5.075427847676e-03
2.404246341971e-03
3.233663163957e-03
4.694223929722e-03
2.107126776239e-03
3.545482769992e-03
4.553232214609e-03
3.920507140127e-03
3.187539066147e-03
3.865534957540e-03
2.217505343363e-03
1.917452006600e-03
1.657786857477e-03
1.956380160446e-03
4.746672213180e-03
1.005389459169e-03
4.623386601130e-03
1.307883538802e-03
1.891532021104e-03
4.345633367676e-03
4.169109331877e-03
2.143128441900e-03
1.729669733719e-03
2.136474112095e-03
3.495395175694e-03
2.347008504077e-03
2.321698774104e-03
5.562109209316e-03
2.479278600157e-03
5.832033053261e-03
5.683459550606e-03
3.569571471478e-03
1.841669118824e-03
0.0
1.939425135395e-03
2.198379986357e-03
4.544915456455e-03
3.572687871250e-03
2.077081277084e-03
5.482725273702e-03
5.548817509373e-03
4.594253848124e-03
4.650854355195e-03
4.026711817750e-03
5.298348689818e-03
3.310673635212e-03
5.319704039765e-04
4.366888493405e-03
1.596020396402e-03
1.727925572495e-03
1.537504339033e-03
2.155926239816e-03
1.066640011348e-03
1.470469770676e-03
5.133441966827e-03
3.576035110635e-03
4.538549050418e-03
1.190734353883e-03
5.563426082931e-03
5.226029974004e-03
5.618784336637e-03
4.858869215134e-03
1.131768423013e-03
3.817527287724e-03
5.388671225134e-03
4.831755994393e-03
5.661150035348e-03
3.527768805689e-03
5.594510040717e-03
8.645247776374e-04
5.592056671628e-03
4.830647828208e-03
3.948871847594e-03
3.795468355754e-03
5.483498521481e-03
5.518494078473e-03
7.078378622743e-04
4.578727725803e-03
2.665021533502e-03
8.704557035292e-05
5.306855478618e-03
5.101857700586e-03
5.457161495010e-03
7.154962728763e-04
4.367291898862e-04
5.308036467257e-03
5.475077044311e-03
1.415797628064e-03
5.866481278788e-03
1.720779943565e-04
3.266292359391e-03
4.330017662913e-04
5.682371966829e-03
5.607182569852e-03
2.919687531898e-03
3.339776257796e-03
1.951427265437e-03
5.094079203513e-03
8.720869757284e-04
5.646101319162e-03
5.274827266557e-03
5.610655463052e-03
5.543108792546e-03
1.443335536968e-05
5.340000167234e-03
4.934198621273e-03
3.315096198721e-03
5.545224744200e-03
2.394333441960e-03
1.003430899199e-03
5.853061777030e-03
3.667807707163e-04
3.294611847680e-03
5.738597030996e-03
9.205396441291e-04
3.785517905279e-03
5.505285211454e-03
3.560630679607e-03
5.121626185149e-03
1.319457347623e-03
0.0
4.321439572445e-03
5.262500811899e-03
5.642111831980e-03
4.116674015646e-03
7.838175614556e-04
5.331973850864e-03
3.136604846599e-03
5.194131730829e-03
4.931303994474e-03
1.844551411747e-04
3.813324024854e-03
4.130724803800e-04
5.442551602023e-03
3.274124271133e-03
2.908685832971e-03
2.907269203429e-03

SCALARS node_materi_plasti_phimob float
LOOKUP_TABLE default
1.806555981553e+01
-2.235178150237e+01
2.060674641369e+01
1.785174297346e+01
-2.676878319815e+01
-9.467374265396e-01
6.690639802531e+00
1.100136901367e+01
1.353920841199e+01
1.519226445259e+01
1.650050699650e+01
1.756807425808e+01
1.840906613202e+01
1.911793943873e+01
1.970391278577e+01
2.004043273201e+01
2.025191097865e+01
2.048243288587e+01
2.061261624215e+01
2.067387578716e+01
2.069816816263e+01
2.069009106061e+01
2.065514748455e+01
1.791556971824e+01
1.790997231126e+01
1.794463207507e+01
1.798890195113e+01
1.800949931601e+01
1.810821738282e+01
1.820445340952e+01
1.835796880637e+01
1.854227784177e+01
1.875150056261e+01
1.894951237912e+01
1.925364800363e+01
1.956498877200e+01
2.003052122171e+01
2.034956477356e+01
2.077243616517e+01
2.109713308406e+01
2.138825944938e+01
2.169253733026e+01
2.191798016424e+01
2.206919856081e+01
2.211175579004e+01
2.215576426157e+01
2.213529134624e+01
2.207551198161e+01
2.199251725187e+01
2.190460558366e+01
2.179865485783e+01
2.168806563855e+01
2.153453673508e+01
2.146152595814e+01
2.137851641721e+01
2.126055582113e+01
2.116738223495e+01
2.108679794962e+01
2.099800119743e+01
2.094612920647e+01
2.088398173817e+01
2.084410553709e+01
2.080401898360e+01
2.075631008855e+01
2.070773111903e+01
2.067977130792e+01
2.069719018699e+01
2.063597922781e+01
2.063748264818e+01
2.061920782601e+01
2.061105095144e+01
2.061138937638e+01
-1.103741792513e+01
-6.329213817026e-01
5.264468749741e+00
8.932804644412e+00
1.155994573063e+01
1.348974295462e+01
1.500736123649e+01
1.623513991206e+01
1.725852310736e+01
1.637854873856e+01
-3.688136341701e+00
3.167212142366e+01
2.670274046152e+01
2.462007785118e+01
2.267299855266e+01
2.001319087243e+01
1.825993502871e+01
1.685251431839e+01
1.639549462950e+01
1.032517041010e+01
-2.575036709742e+01
-2.321128331957e+01
-2.307361713169e+01
-2.317174572001e+01
-2.312199678513e+01
-2.146814985350e+01
-2.278608358048e+01
-2.253554907672e+01
-2.239423476520e+01
-2.200514079231e+01
-2.150520424789e+01
-2.052748781907e+01
-1.892355587970e+01
-1.612469501816e+01
-1.171023350101e+01
9.183324822909e+00
7.354760759429e+00
7.844815156863e+00
9.059675919820e+00
8.735644739278e+00
-5.744566041420e+00
-3.544756159490e+01
-5.214064339220e+01
-5.895205016181e+01
-5.970260777042e+01
-5.961586914942e+01
-5.794508101253e+01
-7.673547780482e+00
8.976802066583e+01
8.904967192787e+01
8.853137172033e+01
8.767602779514e+01
8.660207451024e+01
8.635458999026e+01
-1.194682553847e+00
-1.745293063371e+01
-2.372644252485e+01
-2.710687988138e+01
-2.853395236424e+01
-2.888943092765e+01
-2.865119113375e+01
-2.828431317793e+01
-2.771883731987e+01
-2.747818413006e+01
-2.718386696262e+01
-2.696103182818e+01
-2.697797004252e+01
-2.701746797118e+01
-2.693458481546e+01
-2.592819038517e+01
3.329249516530e+01
2.870550993994e+01
2.524425714402e+01
2.335544512254e+01
2.257989580866e+01
2.022311825767e+01
1.746800025704e+01
1.633725858873e+01
1.670305479785e+01
4.375077076341e+00
2.476796040962e+01
2.174165119274e+01
-3.879855664426e+01
1.187650680507e+01
2.122538363391e+01
2.065789344856e+01
1.946059029045e+01
2.215716128100e+01
1.823302972042e+01
2.229772377331e+01
1.603354566998e+01
2.086323325058e+01
1.045797003031e+01
2.191708614404e+01
2.830651445980e+00
1.594409401320e+01
2.039059142178e+01
2.091233410844e+01
1.916351453031e+01
1.755501698279e+01
1.764868007255e+01
1.824640472339e+01
-4.868081481422e+00
-1.172989271938e+01
-1.183029337739e+01
1.035879596452e+01
2.073264287089e+01
1.064014577856e+01
3.585774808215e+01
2.070110421984e+01
-1.357585180840e+01
9.115774927442e+00
1.982096432412e+01
2.223396923568e+01
2.220179928268e+01
2.205040446934e+01
2.149020990748e+01
-7.191909540392e+00
-9.913617125528e+00
2.110442059401e+01
1.426973076769e+01
-3.863343588429e+01
1.804211550489e+01
1.763620300556e+01
1.918951008032e+01
2.248439078548e+01
1.677885327396e+01
1.282726420427e+01
2.998758929835e+01
3.114218419702e+00
2.067079878061e+01
3.484816976687e+01
1.671739242864e+01
2.114238474826e+00
6.167973325649e+00
5.333198398775e+00
9.318859300835e+00
9.144407641096e+00
1.166313198866e+01
1.187292266558e+01
1.359178356830e+01
1.380839015459e+01
1.171034374515e+01
1.511143303569e+01
1.531069936676e+01
1.632844179923e+01
1.672084197756e+01
1.582950684580e+01
1.756038168615e+01
1.686137247576e+01
1.859871544601e+01
1.910511759357e+01
2.003856843337e+01
1.968434056679e+01
2.102029800192e+01
2.076316172899e+01
2.200240576609e+01
2.180373949622e+01
2.297397426264e+01
2.301069720907e+01
2.392399783324e+01
2.393527529276e+01
2.482987744388e+01
2.487064287253e+01
2.571484609557e+01
2.549672260032e+01
2.631842962715e+01
2.657901206600e+01
2.711712167647e+01
2.742167434277e+01
2.787978639923e+01
2.823516053001e+01
2.859027134688e+01
2.805487840982e+01
2.863528023730e+01
2.922188416199e+01
2.910095151054e+01
2.842792467219e+01
2.872081019849e+01
2.802120478634e+01
2.815207972756e+01
2.881757117935e+01
2.807409345492e+01
2.746380059774e+01
2.724793662477e+01
2.774015468345e+01
2.678985257610e+01
2.640367439179e+01
2.587242044732e+01
2.607015923512e+01
2.512064710630e+01
2.502612888947e+01
2.428489598621e+01
2.414408828286e+01
2.336718325871e+01
2.356840067882e+01
2.272958983231e+01
2.295937158423e+01
2.228866348721e+01
2.177956954371e+01
2.107841364598e+01
2.074090559371e+01
2.594714523339e+01
1.978378629966e+01
2.002978656345e+01
1.965529688191e+01
2.050487312707e+01
1.845733213353e+01
1.855588931176e+01
1.714288340990e+01
2.753971343238e+01
2.036972656701e+01
1.747504036825e+01
1.586771359836e+01
1.519504286234e+01
1.366837487578e+01
9.546329974587e+00
1.199253703988e+01
9.966506290784e+00
1.245473094798e+01
1.079522989132e+01
1.461636852187e+01
1.622127259727e+01
1.391386171443e+01
1.927153309743e+01
2.377428224077e+01
2.772663310051e+01
1.866847697359e+01
1.777273346738e+01
1.880882659469e+01
2.360600786778e+01
2.302736366425e+01
2.351404868857e+01
2.296805432937e+01
2.332030559479e+01
2.281021184976e+01
2.249397587033e+01
2.236433338555e+01
2.208725422292e+01
2.304780645003e+01
2.358119217470e+01
2.197933162390e+01
2.174210596256e+01
2.165090687150e+01
2.145342658893e+01
2.146018983975e+01
2.122150487946e+01
2.114654776901e+01
2.731159709690e+01
2.701359932114e+01
2.659868643983e+01
2.629391452100e+01
2.588052659643e+01
2.556882604488e+01
2.515548247068e+01
2.539673191425e+01
1.757645719697e+01
2.973387790638e+01
2.971346975597e+01
3.029672844919e+01
3.004617175871e+01
3.073640778043e+01
3.011934697571e+01
3.084971261581e+01
3.119081761402e+01
3.102343572290e+01
3.101232318522e+01
3.062802945044e+01
3.014428926947e+01
2.380842510545e+01
2.590255202015e+01
2.518248729732e+01
2.544990661108e+01
1.251065506478e+01
2.121699090899e+01
2.320141865841e+01
2.374305207171e+01
2.468422542009e+01
1.218398712834e+01
2.959458354944e+01
2.876691737475e+01
1.304180569798e+01
1.166434604601e+01
2.326444813305e+01
1.338987957218e+01
2.216159331230e+01
3.019919725356e+01
2.103046057588e+01
2.103183055832e+01
2.210934150257e+01
2.474778477365e+01
2.495149253947e+01
3.021018486151e+01
2.892306673576e+01
2.823285905914e+01
2.642946004987e+01
2.726749089791e+01
2.475851597079e+01
2.277755502517e+01
2.122569808836e+01
2.319065886172e+01
2.002483713795e+01
1.632886514658e+01
1.607153379059e+01
2.115554121516e+01
2.972861696364e+01
1.484487735497e+01
2.277198613313e+01
2.441814523360e+01
1.370256659435e+01
1.256506422981e+01
1.018452464272e+01
1.137869321736e+01
1.346125609013e+01
1.247612524657e+01
1.013048457794e+01
1.144013993534e+01
8.775582831039e+00
1.033338344720e+01
1.259550210740e+01
1.167695952031e+01
9.129352286864e+00
1.067068424826e+01
7.748935938817e+00
9.516291369723e+00
1.197717766243e+01
1.067063327088e+01
2.486890102584e+01
2.417424243397e+01
1.811003611801e+01
1.894873824179e+01
1.959079879325e+01
1.960765442497e+01
1.098989641149e+01
1.310666722784e+01
2.751287058749e+01
2.668646517523e+01
1.478033350977e+01
2.088907263292e+01
2.082496526275e+01
2.469434592253e+01
2.332826302620e+01
2.418150554850e+01
2.243965460806e+01
2.170123525159e+01
2.317634446800e+01
2.417264637548e+01
1.362683124727e+01
1.442383738908e+01
1.106719495527e+01
2.090195769545e+01
2.554345835969e+01
2.296886763518e+01
2.363223082313e+01
2.288444255058e+01
2.342112132889e+01
2.277702823446e+01
2.319055005013e+01
2.377843802302e+01
2.428647866151e+01
2.343777497111e+01
8.103056723107e+00
2.614266652043e+01
2.192954792105e+01
8.763318986629e+00
1.117186886762e+01
1.205942003061e+01
1.434043132994e+01
2.274807963948e+01
2.265874093993e+01
2.218804877369e+01
2.051735915779e+01
1.986694750137e+01
2.402433696052e+01
7.739842696364e+00
6.954705172673e+00
5.043921375033e+00
8.205510216208e+00
1.148937664974e+01
1.430620023555e+01
2.773515360136e+01
2.567611608355e+01
2.866599145148e+01
2.743031953347e+01
1.220494159504e+01
1.402655873786e+01
2.013039219362e+01
2.010442202557e+01
2.323656255886e+01
1.191724954081e+01
1.473253862606e+01
2.496210050126e+01
2.557390990830e+01
1.901507684726e+01
2.457597708635e+01
2.515798782341e+01
2.421371923453e+01
1.608451044797e+01
1.321700688520e+01
2.265119810862e+01
1.510418234220e+01
2.395593519430e+01
2.440533528106e+01
2.348920445361e+01
6.531412041488e+00
2.229926245785e+01
2.080071133835e+01
2.218833947803e+01
2.167394160371e+01
2.675453195524e+01
2.472510622521e+01
2.313528094828e+01
2.232330238391e+01
1.223784944086e+01
2.584931469899e+01
1.616603226948e+01
1.395360617210e+01
1.551692615321e+01
2.083628953495e+01
1.906651469974e+01
2.925193034901e+01
2.731118089327e+01
2.022358933823e+01
2.137786225581e+01
2.413307093254e+01
1.436164923918e+01
1.519082385614e+01
5.567222005258e+00
3.442776818837e+00
8.622108404568e+00
6.211978853883e+00
2.244881422573e+01
2.232909829705e+01
1.530548671727e+01
1.618860045183e+01
1.577687918527e+01
2.313283079266e+01
3.005852120346e+01
2.678947742913e+01
2.842605986361e+01
2.518071382311e+01
2.696458663087e+00
1.960317666465e+01
2.079914752411e+01
2.085957452883e+01
2.360773824215e+01
7.331159132312e+00
2.550945146761e+01
2.619036997313e+01
1.339176249762e+01
1.511393310364e+01
1.691753048624e+01
1.636835076211e+01
2.308995250673e+01
2.104924586368e+01
2.252447523774e+01
2.309697619109e+01
2.186925583057e+01
2.125545488292e+01
2.329170185640e+01
2.370349595118e+01
1.511315833292e+01
1.795885060185e+01
1.577143940866e+01
1.152244027482e+01
2.188555985425e+01
2.193328762398e+01
2.396152710007e+01
2.537926167986e+01
1.549097289880e+01
2.050877790684e+01
1.981514994104e+01
2.114095292142e+01
2.066612636782e+01
-1.386308601136e+01
2.075435780224e+01
1.985097659262e+01
1.606403034522e+01
2.564772613628e+01
2.559411167386e+01
2.376258386579e+01
1.477310529089e+01
1.620001716343e+01
2.306661876509e+00
-8.903734171859e-01
4.655118988530e+00
2.878250586192e+01
2.682074476594e+01
1.453518332219e+01
1.692268475849e+01
1.748740653959e+01
1.272549610590e+01
1.619500896404e+01
2.066802042299e+01
2.085392841401e+01
2.068473258422e+01
2.008208064873e+01
2.215714456215e+01
2.494176473767e+01
2.547145367705e+01
2.615887283491e+01
1.579563197382e+01
1.658547563095e+01
2.479995137496e+01
2.601396092459e+01
2.221872991458e+01
1.645215224715e+01
2.079701787376e+01
2.090766438425e+01
-1.428397011472e+00
3.350825404700e+00
2.232962050078e+01
2.393712717091e+01
1.700427357377e+01
1.670630971618e+01
1.744849904641e+01
1.400138837879e+01
2.451072052275e+01
2.248906865426e+01
2.300945292742e+01
2.197526200450e+01
2.384350754695e+01
2.320105919430e+01
2.297836847693e+01
1.958720833140e+01
1.579908652407e+01
-3.079781028997e-01
1.519540777372e+01
-3.827566767578e+00
7.836167286360e-01
-9.109161158352e+00
1.175323391314e+01
-2.638180913045e+00
2.169763113696e+00
-1.041059802793e+01
1.701231975926e+01
-7.484438494870e+00
-1.449786497095e+00
2.155295152727e+01
2.159932747231e+01
2.127704823211e+01
2.131896030625e+01
2.157445114043e+01
2.130565453081e+01
-5.033581925684e+00
2.105395432460e+01
2.107073510209e+01
2.090643787674e+01
1.505185373775e+01
2.173407018839e+01
1.921608321709e+01
1.792875407132e+01
2.165147392886e+01
2.097178955378e+01
2.073546965287e+01
2.068526529794e+01
-3.321069496568e+00
-3.633175464931e+00
2.966214047666e+00
2.308069657326e+00
6.713382593879e+00
6.192300461772e+00
9.409389823814e+00
2.266744876899e+01
1.945906794792e+01
1.153997040832e+01
2.294164994208e+01
2.336894171654e+01
1.723855737197e+01
1.628681668763e+01
2.172647143028e+01
2.736081360912e+01
1.785763969938e+01
1.477115843891e+01
2.083036511316e+01
2.646789579739e+01
1.808693975605e+01
2.104405326685e+01
1.900321218207e+01
2.438021821013e+01
6.457758569335e-01
2.157359495813e+01
9.648166119282e+00
2.071585070711e+01
2.066340924341e+01
2.840271486976e+01
2.144183035478e+01
2.397877118108e+01
2.393983561610e+01
1.411593696327e+01
9.745582994500e+00
1.043233522500e+01
2.900766570031e+01
1.849936032013e+01
1.719392471622e+01
1.807657129404e+01
1.543876279959e+01
1.645461706148e+01
1.750986162745e+01
1.734181380364e+01
1.629777529172e+01
1.723558454030e+01
1.819107151294e+01
1.815246267916e+01
1.942389576365e+01
1.925770751747e+01
1.821276442267e+01
1.936545105714e+01
2.022686607991e+01
1.845279363648e+01
2.250499281269e+01
2.666399582249e+01
2.450043375130e+01
2.541160708493e+01
2.040164961975e+01
2.053627036778e+01
1.948901923548e+01
2.921425374959e+01
2.206902840772e+01
1.276433120546e+01
3.007261288611e+01
2.225997253966e+01
1.518723142742e+01
1.503731684809e+01
1.363854953010e+01
1.879299243011e+01
6.925359089836e+00
2.216529572544e+01
2.661394540635e+01
2.680897869674e+01
2.745329572141e+01
1.719421127233e+01
2.186263769379e+01
2.251325781812e+01
2.237037801326e+01
2.316331316028e+01
2.163280933483e+01
2.138303693863e+01
2.170919210987e+01
2.562397899006e+01
2.739975917011e+01
2.732136994808e+01
2.856525341326e+01
2.886743308220e+01
2.975490284660e+01
2.922212254589e+01
3.073665917481e+01
2.052525190157e+01
2.139872368804e+01
2.389722394492e+01
2.453564462920e+01
2.482529049365e+01
2.034092532260e+01
2.108761109826e+01
2.145957813242e+01
1.958001648907e+01
2.410866222825e+01
2.129870221917e+01
2.619883188174e+01
2.138789595097e+01
-7.604889334876e+00
-2.432402859517e-02
2.421832162132e+00
5.984942782084e+00
-1.136594539286e+00
2.054116543731e+01
2.045903643846e+01
2.010259884031e+01
2.040573928026e+01
2.010697433115e+01
1.974792568206e+01
2.036812926632e+01
2.013255498092e+01
-1.098128925442e+01
1.051003620303e+01
1.291566650903e+01
2.023002277972e+00
1.319050349521e+01
2.039824934536e+01
1.967969054100e+01
2.417243779912e+01
1.989756860917e+01
-2.438164879114e+01
-5.702233506255e+00
-3.472615826749e+01
-1.059150501986e+01
4.031317995744e+00
9.463250773306e+00
2.071588617538e+01
1.880489772231e+01
1.853767806523e+01
1.767129666959e+01
1.824454941604e+01
1.914434385071e+01
1.710815291746e+01
1.674346226969e+01
3.580493097087e+01
-7.093517407625e+00
-8.871034929638e+00
3.774078045471e+00
3.364949937166e+00
-7.295399277291e+00
-7.891582705060e+00
3.565481752042e+01
-8.880389127729e+00
2.687467267355e+00
3.515344958493e+01
1.260384213163e+01
1.359344475164e+01
2.115682750725e+01
-1.121364360259e+01
-3.886101206165e+01
1.734954800967e+01
1.764523979754e+01
1.760198534693e+01
2.070023448772e+01
2.070116828326e+01
1.736225337591e+01
1.677422700910e+01
1.829340750389e+01
1.534336808746e+01
2.819758955111e+01
1.872849826519e+01
2.073160138697e+01
2.175419038911e+01
2.099207496056e+01
2.096632731868e+01
2.137623264124e+01
2.228175042628e+01
1.059410866475e+01
7.266759703924e+00
6.077981310647e+00
1.283809104597e+01
1.644335948269e+01
1.968228187431e+01
1.067917779781e+01
2.227463298839e+01
1.750274694665e+01
2.427097288879e+01
1.959246556297e+01
1.840499081458e+01
1.920705112386e+01
2.577756841227e+01
2.221362204152e+01
2.257598079404e+01
1.385286241243e+01
-3.391689546545e+01
2.271318869122e+01
2.253093346435e+01
8.637414842910e+00
2.483635667747e+01
1.740508440816e+01
1.346751248471e+01
1.659765868714e+01
5.096248158850e+00
6.160006188732e+00
2.723403387860e+00
2.217034114825e+01
1.430037354658e+01
1.538497416325e+01
2.747351842856e+01
2.280738246020e+01
6.632119859597e+00
1.590151547620e+01
2.668841576827e+01
2.395952797379e+01
2.609801979288e+01
1.603645379356e+01
2.190088007976e+01
2.799112450945e+01
1.508263103802e+01
2.218207455413e+01
2.940164558222e+01
1.439863044070e+01
2.558589548949e+01
2.445250141927e+01
1.874713718985e+01
2.210771019048e+01
1.825260098605e+01
2.465598690202e+01
2.056498185530e+01
2.228089326869e+01
2.945927730589e+01
2.501593280326e+01
8.944226759905e+00
2.295774193279e+01
1.639690608314e+01
2.243123386040e+01
2.180253767765e+01
1.586331035673e+01
2.179625617766e+01
1.251565106922e+01
2.619833511635e+01
3.067665562145e+01
2.739903028733e+01
2.202289608869e+01
1.793397198339e+01
2.149668102449e+01
2.380173405288e+01
2.671215489414e+01
8.996183935534e+00
2.124593932386e+01
2.683873563353e+01
2.409767677734e+01
1.978625857501e+01
2.244841245483e+01
1.578110762479e+01
2.105990042107e+01
2.432511879186e+01
2.827872212158e+01
-1.359721449554e+01
2.089793617076e+01
2.364383177013e+01
2.440409614237e+01
2.671778571250e+01
1.553841111999e+01
2.166844063948e+01
2.121843489615e+01
1.847082781056e+01
2.345140770386e+01
1.351500386076e+01
2.118500491394e+01
2.561874362293e+01
2.961506911012e+00
1.383223199042e+01
2.097123925726e+01
3.010451044523e+01
2.596018102526e+01
2.294795547248e+01
2.081070847233e+01
2.946857694901e+01
2.069291273953e+01
1.634859469640e+01
1.501316042876e+01
2.060135541651e+01
2.138651371142e+01
2.529521103170e+00
2.480976608018e+01
2.073069825933e+01
2.156071685765e+01
2.522759972775e+01
1.621956754334e+01
1.716600101974e+01
2.480560746120e+01
2.153908702797e+01
2.503071218882e+01
2.684660036228e+01
2.433173949210e+01
1.680807415193e+01
1.642856550773e+01
1.359245680868e+01
2.866178266306e+01
2.096753909415e+01
8.495326866339e+00
1.725109939210e+01
7.849312243297e+00
2.818332467069e+01
2.445285803973e+01
7.486382147153e+00
2.710625946595e+01
1.450654316902e+01
2.613876097133e+01
2.624737436704e+01
2.507221617546e+01
2.377889714681e+01
1.656636497436e+01
2.294569377001e+01
1.749125468465e+01
2.066071671047e+01
-4.501556995124e+00
1.936528276276e+01
1.009085123862e+01
1.752861658836e+01
2.043797777824e+01
1.894991024558e+01
-4.130477908179e+00
1.847544225720e+01
2.038595822184e+01
2.225665566432e+01
1.155480737839e+01
2.366905710789e+01
2.506833744657e+01
1.554977963642e+01
-1.407379382691e+01
-1.234051795320e+01
2.057214016247e+01
2.109990784384e+01
1.873030655215e+01
1.995030513261e+01
1.653201958592e+01
6.820315063865e+00
2.159787273864e+01
2.263372149565e+01
-4.106612258189e+00
2.396768001786e+01
2.319942095363e+01
1.708810912219e+01
2.278171374769e+01
2.095145018630e+01
2.340820732076e+01
2.246677124604e+01
3.971624237032e+00
2.206187389235e+01
1.309927379511e+01
2.080259566033e+01
-4.419227783354e+00
1.670945346214e+01
2.756402601566e+01
1.673107202718e+01
1.963558819789e+01
4.182032378395e+00
6.649559594964e+00
2.070205398483e+01
1.918332642440e+01
2.524497396289e+01
1.139489150917e+01
1.841973133709e+01
1.872726615801e+01
2.148715383093e+01
2.028259962099e+01
2.081379858401e+01
3.833120745481e+00
-1.381347930120e+01
2.170213815280e+01
2.133493444930e+01
2.488301262702e+01
1.806488813237e+01
2.492777012445e+01
-1.482584363046e+01
-1.137474183032e+01
2.074608272067e+01
1.684390786337e+01
1.888720071172e+01
-1.312924613921e+00
1.558439051929e+01
2.277508707595e+01
-5.951985475909e-01
1.688847154306e+01
2.195944115740e+01
1.797590131614e+01
2.190043002552e+01
1.632777283214e+01
2.261121875567e+01
2.286621260959e+01
-1.434381485205e+01
1.845863695621e+01
1.738853570844e+01
7.290975362597e+00
1.759186344068e+01
1.630492728901e+01
-1.536856023896e+01
2.063689064066e+01
7.259485285873e+00
1.432369449780e+00
2.097215450623e+01
1.987655918593e+01
1.478858511434e+01
1.328177454904e+01
1.030149307471e+01
9.201379131184e+00
2.268403875474e+01
1.754492704700e+01
6.705691521192e+00
2.521993929813e+01
2.079145588821e+01
1.930511496740e+01
2.219912150326e+01
2.308938626930e+01
2.503855498650e+01
2.017306503494e+01
-1.349064991813e+01
2.110713106779e+01
1.951435288018e+01
-5.848187918918e+00
-2.534253329274e+01

SCALARS node_materi_stress_average_a_sig float
LOOKUP_TABLE default
-3.003721151924e+00
-2.007685970420e+01
-2.409971410689e+02
-1.317651269997e+02
-9.921898931101e+00
-2.192069202315e+01
-3.382671409153e+01
-4.714682969367e+01
-5.992853515904e+01
-7.256392258870e+01
-8.507924880478e+01
-9.751286527278e+01
-1.099155846185e+02
-1.223715921032e+02
-1.351038710891e+02
-1.475757538748e+02
-1.589274222793e+02
-1.713382695051e+02
-1.841064116834e+02
-1.965150390551e+02
-2.090138672068e+02
-2.216212930042e+02
-2.336911557802e+02
-1.324154569289e+02
-1.317838473063e+02
-1.320846151706e+02
-1.322546141140e+02
-1.322943844198e+02
-1.330963697594e+02
-1.341077421495e+02
-1.346676786522e+02
-1.363357732622e+02
-1.375638022174e+02
-1.390608076794e+02
-1.414723841772e+02
-1.446431272062e+02
-1.471939268660e+02
-1.506462781746e+02
-1.539744655971e+02
-1.584431793177e+02
-1.640033752352e+02
-1.692916188301e+02
-1.747924708526e+02
-1.801336624489e+02
-1.856747072018e+02
-1.911346866428e+02
-1.965234933640e+02
-2.019185505647e+02
-2.071411669407e+02
-2.119596812993e+02
-2.163891908160e+02
-2.203456038094e+02
-2.245161717750e+02
-2.276184029969e+02
-2.299643894249e+02
-2.326847261552e+02
-2.349232323869e+02
-2.368044087946e+02
-2.383378837316e+02
-2.394149753129e+02
-2.401607882988e+02
-2.405543219863e+02
-2.407233897999e+02
-2.412057354242e+02
-2.418972713190e+02
-2.421168363561e+02
-2.404476847249e+02
-2.417661438010e+02
-2.411474750796e+02
-2.414288323552e+02
-2.417715437751e+02
-2.416563825215e+02
-3.220143550352e+01
-4.412731293169e+01
-5.599784649638e+01
-6.753344199283e+01
-7.925997023034e+01
-9.108162636453e+01
-1.025439571036e+02
-1.137603442239e+02
-1.255191520707e+02
-5.707132113022e+01
-2.828192801860e+01
-3.211743832629e+01
-2.963986157396e+01
-2.842185159929e+01
-2.652787465672e+01
-2.561156251613e+01
-2.505216976209e+01
-2.480632354592e+01
-2.566228494864e+01
-2.809731659361e+01
-1.220424885872e+01
-1.848581999911e+01
-1.915355583140e+01
-1.914835538713e+01
-1.904244521737e+01
-2.077353302233e+01
-1.932294926946e+01
-1.931521710520e+01
-1.947320573744e+01
-1.988019305411e+01
-2.004547068548e+01
-2.039631524234e+01
-2.098556040757e+01
-2.214444980846e+01
-2.402802997131e+01
-7.873457859637e+01
-8.880712314410e+01
-9.042754963238e+01
-8.193279802131e+01
-5.136894337367e+01
-2.193048511281e+01
-1.139112170343e+01
-7.964056975559e+00
-6.226159526499e+00
-5.490307200488e+00
-5.004010836209e+00
-4.769400910972e+00
-4.286612464074e+00
-3.607994055180e+00
-3.346071236696e+00
-3.172689353024e+00
-2.993411968013e+00
-2.697578079327e+00
-2.395135619489e+00
-1.677017283933e+01
-1.609228062155e+01
-1.465453367524e+01
-1.368681063397e+01
-1.328341960680e+01
-1.317446596436e+01
-1.318065557973e+01
-1.324925297949e+01
-1.341158828425e+01
-1.346642687003e+01
-1.353494381333e+01
-1.359388941697e+01
-1.359975936998e+01
-1.351570789504e+01
-1.327880138012e+01
-1.220399451288e+01
-3.774014463711e+01
-3.074870640332e+01
-2.876448227493e+01
-2.796046665531e+01
-2.674490644034e+01
-2.556377573374e+01
-2.483017381533e+01
-2.483639600305e+01
-2.807944265377e+01
-2.525507370179e+01
-3.492455440751e+01
-2.274756950182e+02
-1.188897290812e+01
-6.405400435467e+01
-2.343212141922e+02
-3.184525130105e+01
-1.292274159737e+02
-2.153868268736e+02
-3.045925562985e+01
-1.988685389323e+02
-3.166615317854e+01
-2.366990301517e+02
-8.411469071917e+00
-1.780461229306e+02
-3.940230483034e+01
-7.945059807735e+01
-1.631789014631e+02
-1.622658906766e+02
-1.451666268021e+02
-1.288800161255e+02
-1.307286768375e+02
-1.370168449670e+02
-3.700442558904e+01
-3.209140865113e+01
-3.185486999078e+01
-7.350701588650e+01
-2.360593789869e+02
-7.680400127319e+01
-8.138710954501e+00
-2.023276903946e+02
-2.983591659538e+01
-4.042987841446e+01
-1.508808151622e+02
-2.085266986969e+02
-1.886364933613e+02
-2.209095497689e+02
-2.315948919958e+02
-2.359995470699e+01
-3.324078814764e+01
-2.334478481744e+02
-9.651322162809e+01
-1.009512470339e+01
-1.037999345436e+02
-1.296843838589e+02
-3.200267523747e+01
-3.298337604929e+01
-3.086812012645e+01
-3.519123417672e+01
-3.978107906208e+01
-5.107212293615e+01
-2.380098962181e+02
-7.414444624697e+00
-1.189163765394e+02
-4.330621837543e+01
-5.223792181151e+01
-5.530603371632e+01
-6.579124223219e+01
-6.960052359250e+01
-7.877887749222e+01
-7.548624303612e+01
-8.814077073596e+01
-8.507065284668e+01
-8.283132985168e+01
-9.749336643459e+01
-9.461564102128e+01
-1.068569833641e+02
-1.041187818556e+02
-9.208055316962e+01
-1.016289780941e+02
-8.977001112238e+01
-9.934513751658e+01
-1.110671598108e+02
-1.087835504428e+02
-9.720759972603e+01
-1.065701710240e+02
-9.521573835527e+01
-1.044776649091e+02
-9.333556719205e+01
-1.024553567151e+02
-1.135568592448e+02
-1.113459176082e+02
-1.004712719340e+02
-1.091548924643e+02
-9.852977403929e+01
-1.069637039029e+02
-1.176208890057e+02
-1.151694239027e+02
-1.047320089193e+02
-1.126678650272e+02
-1.024687221888e+02
-1.101227477095e+02
-1.001713060807e+02
-1.074712143196e+02
-1.175097328636e+02
-1.145170546979e+02
-1.047197790015e+02
-1.113339758365e+02
-1.213186884585e+02
-1.176941895947e+02
-1.279032647717e+02
-1.238542650002e+02
-1.138604145446e+02
-1.195649726231e+02
-1.298503216755e+02
-1.251340558172e+02
-1.149846138747e+02
-1.201624259582e+02
-1.306494346479e+02
-1.253357808519e+02
-1.148769866973e+02
-1.197483701999e+02
-1.305878704943e+02
-1.247019605539e+02
-1.138401174446e+02
-1.185709842101e+02
-1.297837206558e+02
-1.234338229483e+02
-1.349401224919e+02
-1.120987863285e+02
-1.168457596371e+02
-1.053356121095e+02
-1.100682384395e+02
-1.258817796161e+02
-9.838143137683e+01
-9.398352592402e+01
-1.031369882532e+02
-1.150308185359e+02
-9.125664505450e+01
-9.607075195860e+01
-8.400690913785e+01
-9.240329176083e+01
-1.204385404025e+02
-8.890359593375e+01
-7.666361026745e+01
-7.185118638847e+01
-6.434919146098e+01
-7.427359638577e+01
-8.691439744952e+01
-7.817767671910e+01
-9.111283095747e+01
-8.307340958652e+01
-6.926879052810e+01
-1.099161445639e+02
-9.942744377304e+01
-8.572839965540e+01
-8.984040058413e+01
-1.317478601826e+02
-1.010490876817e+02
-9.396256375296e+01
-1.061589603593e+02
-1.412429279985e+02
-1.466136415434e+02
-1.529083580112e+02
-1.584449875441e+02
-1.647655273657e+02
-1.704333775694e+02
-1.639642298874e+02
-1.760605887477e+02
-1.694700888748e+02
-1.768019121679e+02
-1.709324165792e+02
-1.816488442895e+02
-1.749579070410e+02
-1.872014557158e+02
-1.804267508147e+02
-1.681878365287e+02
-1.735835676349e+02
-1.613965117086e+02
-1.385400533084e+02
-1.425834061640e+02
-1.495683612816e+02
-1.538043984995e+02
-1.609704309491e+02
-1.653752609182e+02
-1.727036805671e+02
-1.679678657768e+02
-1.161937885952e+02
-1.018130510375e+02
-9.538089380448e+01
-9.282198421425e+01
-8.658659628633e+01
-8.444037997554e+01
-7.840260358493e+01
-7.680462514612e+01
-8.209624526891e+01
-7.534137979649e+01
-7.942274116902e+01
-7.347815855596e+01
-7.618455659712e+01
-1.224592634101e+02
-1.578676942170e+02
-1.696308740685e+02
-1.617408251672e+02
-5.955772807018e+01
-1.858843080207e+02
-1.830536009408e+02
-1.769376239641e+02
-1.798769820723e+02
-5.693504082822e+01
-7.109625016262e+01
-7.181314517609e+01
-9.551258461425e+01
-8.782411291905e+01
-1.892142245081e+02
-6.194604638827e+01
-1.882802609695e+02
-7.021559437949e+01
-1.789898321605e+02
-1.913185882947e+02
-1.574144160353e+02
-1.737439140138e+02
-1.654735994487e+02
-8.332839984024e+01
-7.897319477392e+01
-7.213009737033e+01
-7.417445656641e+01
-8.209771731674e+01
-7.626305882226e+01
-6.797491969881e+01
-6.955736654230e+01
-7.907116042320e+01
-7.209474910436e+01
-6.201293855412e+01
-6.448551757190e+01
-1.981936725063e+02
-6.883114826451e+01
-8.001451648885e+01
-1.953547653299e+02
-1.846489612293e+02
-1.000523861022e+02
-9.272240047027e+01
-8.035072797192e+01
-8.565307176235e+01
-9.775694885323e+01
-9.098508488313e+01
-7.881166745553e+01
-8.440614046110e+01
-7.220290121639e+01
-7.802758735641e+01
-9.002377158620e+01
-8.387953700922e+01
-7.185829026237e+01
-7.787323322405e+01
-6.583201566973e+01
-7.196744119341e+01
-8.391145973166e+01
-4.989376467275e+01
-1.748321166108e+02
-1.869965141816e+02
-9.945628019943e+01
-1.111870634282e+02
-1.182808566254e+02
-1.236392738578e+02
-7.807607720412e+01
-8.992997098477e+01
-6.468788167290e+01
-6.470202577751e+01
-1.076242722797e+02
-1.844262711988e+02
-1.721145792073e+02
-8.817864659882e+01
-7.945115963448e+01
-7.807961916281e+01
-6.916111848446e+01
-7.040950843691e+01
-6.806587563216e+01
-1.648785677523e+02
-9.571985221577e+01
-6.727139704834e+01
-5.507439794418e+01
-1.967545357944e+02
-1.630320510260e+02
-1.248634840231e+02
-1.338247353852e+02
-1.364161664465e+02
-1.454693664180e+02
-1.481834142800e+02
-1.573021524525e+02
-1.544047034684e+02
-1.776899069129e+02
-1.663287060021e+02
-6.603709672449e+01
-1.500554717369e+02
-8.246187286812e+01
-4.458574550810e+01
-5.304137857226e+01
-5.448110102492e+01
-6.705500580647e+01
-2.016682354683e+02
-1.600602221115e+02
-1.507326301546e+02
-6.012877261149e+01
-6.114353919116e+01
-1.860492428827e+02
-7.020302270183e+01
-6.641470479562e+01
-5.973427616529e+01
-4.092916502679e+01
-5.120917273361e+01
-1.028936218299e+02
-7.271728547921e+01
-6.515679130947e+01
-6.625181594327e+01
-6.652022165161e+01
-8.410394994652e+01
-9.581733645976e+01
-1.305093688588e+02
-1.358178897393e+02
-1.952947358918e+02
-5.640110434185e+01
-1.016844901322e+02
-1.695960736423e+02
-1.579153341460e+02
-1.165441126199e+02
-5.754795430788e+01
-5.866337506240e+01
-8.902592747555e+01
-6.790926234658e+01
-5.969869023519e+01
-2.078383092283e+02
-1.095217043311e+02
-1.632661212801e+02
-1.513405378029e+02
-1.754887946309e+02
-4.448663414263e+01
-2.080069633479e+02
-1.898775415886e+02
-1.621340040061e+02
-1.532276359170e+02
-7.368772681946e+01
-6.591886459119e+01
-5.730351069861e+01
-5.778422716116e+01
-7.245939960450e+01
-7.490826349776e+01
-7.786698077296e+01
-6.789344324244e+01
-6.610174673579e+01
-7.161228398454e+01
-6.211793775793e+01
-8.855037129215e+01
-1.353799855953e+02
-1.252648611685e+02
-1.560805504302e+02
-1.473366115604e+02
-1.017254456515e+02
-1.073509593077e+02
-5.967004443764e+01
-5.367291122302e+01
-4.710424906447e+01
-4.261255761711e+01
-1.401753347126e+02
-2.013482904472e+02
-1.117492299797e+02
-1.192322559993e+02
-1.153549936579e+02
-2.011188702230e+02
-9.871796754901e+01
-1.451467360617e+02
-6.676142881743e+01
-1.285556498206e+02
-3.453951543505e+01
-1.228214509647e+02
-2.022738828852e+02
-2.090581588329e+02
-1.900378623858e+02
-4.964726801095e+01
-1.368792092187e+02
-1.339572925957e+02
-5.599287547679e+01
-5.439496397575e+01
-6.450392613156e+01
-5.327879035683e+01
-9.286679990336e+01
-8.614273176356e+01
-1.728804327727e+02
-1.782796557155e+02
-1.647671552200e+02
-1.559973344301e+02
-1.985638616987e+02
-1.940430124808e+02
-7.185972968400e+01
-5.172146867330e+01
-1.145031202061e+02
-5.772220725447e+01
-2.137768179802e+02
-2.072515136775e+02
-6.722942660903e+01
-6.250340072960e+01
-1.076368341877e+02
-4.916093629026e+01
-4.912422702081e+01
-4.921156949610e+01
-2.274821618672e+02
-2.951403882441e+01
-2.146933145203e+02
-7.293091935644e+01
-1.135348356073e+02
-1.451394226046e+02
-8.636245367277e+01
-1.887082182256e+02
-1.012358211665e+02
-1.138262543517e+02
-5.371296132454e+01
-4.679756751708e+01
-6.023295187207e+01
-6.557790130273e+01
-6.105796533636e+01
-1.013842166314e+02
-8.680432332606e+01
-9.319031302986e+01
-5.969389041500e+01
-7.134008188340e+01
-1.373479237084e+02
-1.321215578825e+02
-1.321910262711e+02
-1.346426412307e+02
-1.272652056199e+02
-1.642224971541e+02
-1.526457083992e+02
-1.466265169560e+02
-1.129259642827e+02
-1.198424331768e+02
-9.908800411066e+01
-9.500119976934e+01
-9.682889302513e+01
-1.210296238675e+02
-2.212468684812e+02
-2.157872144472e+02
-2.999331064611e+01
-3.818306936387e+01
-5.069239444835e+01
-5.249357063015e+01
-1.265826165645e+02
-1.235390967177e+02
-1.314055305561e+02
-6.379710415382e+01
-1.599932403286e+02
-2.132401061504e+02
-2.062147218334e+02
-2.215443147731e+02
-1.813034140553e+02
-1.935733860520e+02
-1.877285649153e+02
-7.089249255196e+01
-1.095760589383e+02
-4.675027643953e+01
-7.329764583400e+01
-4.090257449638e+01
-4.768745215325e+01
-3.444335498068e+01
-5.147748267481e+01
-4.527998506124e+01
-5.437245371910e+01
-2.343262195371e+01
-1.253701372033e+02
-2.245721326109e+01
-2.706568147872e+01
-2.197286286567e+02
-2.129481272988e+02
-2.250648152638e+02
-2.181898348499e+02
-2.061783994610e+02
-2.119545080298e+02
-4.005277096671e+01
-2.256845067964e+02
-2.178487321581e+02
-2.314557865367e+02
-4.287054285456e+01
-5.825035679989e+01
-4.933194097608e+01
-3.965969620725e+01
-1.690805925708e+02
-1.576766261230e+02
-1.957327137219e+02
-1.832743784964e+02
-4.114877120974e+01
-4.034993938618e+01
-5.131489331434e+01
-4.968007236005e+01
-6.061391587086e+01
-5.887160784751e+01
-6.998476037441e+01
-1.904679292365e+02
-4.098867617064e+01
-4.566089893785e+01
-2.066504648977e+02
-2.009411584570e+02
-5.230050116272e+01
-4.168863634022e+01
-2.220965724718e+02
-8.272118250058e+01
-1.333443008351e+02
-6.316753848858e+01
-6.290870777456e+01
-8.438221037635e+01
-6.324276798645e+01
-5.895690157808e+01
-5.042548793087e+01
-1.762330159758e+02
-3.459370307365e+01
-4.978454049402e+01
-7.159600889182e+01
-4.244469364125e+01
-1.898104456763e+02
-9.048484959965e+01
-8.235897239821e+01
-5.716916377339e+01
-6.702172203923e+01
-8.236192138466e+01
-6.241561392911e+01
-5.992976423606e+01
-9.780042444144e+01
-5.089200809373e+01
-3.989404977026e+01
-8.762787757150e+01
-1.116190341991e+02
-1.199167383876e+02
-1.313399190456e+02
-1.285195904392e+02
-1.166606399655e+02
-1.254837274219e+02
-1.370389307447e+02
-1.348661489781e+02
-1.483239633000e+02
-1.440079754731e+02
-1.316033272910e+02
-1.404505817393e+02
-1.520726502589e+02
-1.284065476589e+02
-2.112414110962e+02
-9.443074265170e+01
-6.608948726271e+01
-5.594088947834e+01
-8.397641072833e+01
-1.571296805943e+02
-1.484293717143e+02
-7.987979758825e+01
-1.832164145107e+02
-7.004473642622e+01
-7.064673513600e+01
-1.938172539459e+02
-1.079476673816e+02
-1.042795424453e+02
-9.549141446760e+01
-1.424388370799e+02
-6.749592707795e+01
-2.123224805217e+02
-1.464349329038e+02
-1.387884433821e+02
-1.279295525748e+02
-1.223544373323e+02
-2.249867306138e+02
-2.155332389067e+02
-2.176782309704e+02
-2.051673095309e+02
-2.295310615472e+02
-1.680105081602e+02
-1.734044120572e+02
-8.541370077038e+01
-9.107336463273e+01
-1.004363432889e+02
-9.606047314295e+01
-8.720106605911e+01
-9.159146844747e+01
-1.004334313929e+02
-8.694283049323e+01
-1.464413506369e+02
-2.329241740846e+02
-1.590159450036e+02
-1.531379268887e+02
-1.417224360861e+02
-1.201222834770e+02
-1.269444279043e+02
-1.388666950116e+02
-1.131786512654e+02
-1.426419004232e+02
-2.338876666501e+02
-1.515953487161e+02
-1.218222106940e+02
-3.490102966036e+01
-4.831461159448e+01
-5.121519419271e+01
-6.308281026083e+01
-4.761111656690e+01
-1.426182164634e+02
-1.479170818193e+02
-1.411775461728e+02
-1.532440848552e+02
-1.462447618987e+02
-1.350555536033e+02
-1.583743828077e+02
-1.505392138715e+02
-3.253660402432e+01
-3.986012865054e+01
-4.215242515607e+01
-3.299683393090e+01
-4.726011261672e+01
-5.448629149851e+01
-5.912721451101e+01
-6.257877698687e+01
-5.472682373155e+01
-1.734492701164e+01
-2.796923927170e+01
-1.368722323533e+01
-2.449671803659e+01
-3.923081944557e+01
-5.107656677936e+01
-2.344213544148e+02
-1.160597048399e+02
-1.101097413216e+02
-9.823485041443e+01
-1.047578444477e+02
-1.209173227402e+02
-9.159195947610e+01
-8.722288405162e+01
-7.945314357279e+00
-1.786190179432e+01
-1.679317081019e+01
-2.859564551802e+01
-2.859794526956e+01
-1.828733228410e+01
-1.853492462556e+01
-8.252483614359e+00
-1.873689062842e+01
-2.966537659751e+01
-8.209643156229e+00
-8.531502939400e+01
-9.164247848714e+01
-2.345302472568e+02
-3.272142248551e+01
-1.107963976448e+01
-1.265760699444e+02
-1.305481277569e+02
-1.298275588875e+02
-2.150105560070e+02
-2.212216674888e+02
-1.262053152298e+02
-7.928101478940e+01
-1.400084657818e+02
-1.071487007277e+02
-6.515513314943e+01
-7.900545137679e+01
-1.775783140895e+02
-1.628127955076e+02
-2.035784730520e+02
-1.667475634874e+02
-1.927232635973e+02
-2.188043517109e+02
-4.749706294597e+01
-6.578487492039e+01
-5.993224371285e+01
-8.975142032325e+01
-8.161469063792e+01
-1.294347787605e+02
-5.190632183804e+01
-1.815157345778e+02
-7.599430055876e+01
-1.358895598444e+02
-1.080993167694e+02
-8.670125863926e+01
-7.537768469958e+01
-9.654781849987e+01
-1.284598222558e+02
-1.825723103482e+02
-9.564239455252e+01
-1.060352121893e+01
-1.890076826089e+02
-1.520056920415e+02
-7.321713883450e+01
-1.772573757744e+02
-6.078833072543e+01
-9.637074100894e+01
-1.225978630370e+02
-6.186781535321e+01
-3.935859782274e+01
-5.317898877655e+01
-2.143165089485e+02
-1.034356345432e+02
-7.435050103521e+01
-1.343000729978e+02
-9.155034772578e+01
-3.617172335520e+01
-1.124970868907e+02
-1.231435086203e+02
-1.920564716512e+02
-1.563765289945e+02
-7.961828027778e+01
-2.006110802028e+02
-1.247367699625e+02
-1.081001539127e+02
-1.389630508762e+02
-1.079543982001e+02
-1.046335413542e+02
-1.361467190831e+02
-1.817088325180e+02
-7.436794865922e+01
-1.157723581249e+02
-1.135027595318e+02
-1.200416624331e+02
-1.708074784575e+02
-1.948575387143e+02
-7.087292344421e+01
-7.655897784669e+01
-7.511815935492e+01
-1.690358646725e+02
-1.194775556346e+02
-8.086916562494e+01
-1.939128781840e+02
-1.159185698855e+02
-1.336236518437e+02
-5.458458986809e+01
-6.014514318793e+01
-9.005764971995e+01
-1.203624117921e+02
-1.454796524744e+02
-1.362667135286e+02
-1.994925808620e+02
-1.828654329719e+02
-3.673590313870e+01
-4.741810450052e+01
-2.050615317194e+02
-1.405326074645e+02
-1.892530689100e+02
-1.389423875189e+02
-1.861421220771e+02
-4.214094049221e+01
-2.107410251566e+02
-1.817449873968e+02
-8.129467076709e+01
-2.989549378255e+01
-2.248744175710e+02
-1.942084880544e+02
-1.311956221558e+02
-1.357057830331e+02
-3.269789075373e+01
-1.507999749436e+02
-1.180641356176e+02
-1.397216053684e+02
-1.991670825111e+02
-9.161236004539e+01
-1.440978395166e+02
-1.534662827453e+02
-2.893832652365e+01
-4.384289846703e+01
-1.493597294390e+02
-9.535759124051e+01
-1.414790656949e+02
-2.022824836273e+02
-1.546685741140e+02
-1.043559771494e+02
-1.599895007246e+02
-3.111510087429e+01
-1.007583403602e+02
-1.653132836347e+02
-1.297164462707e+02
-3.110377509877e+01
-1.397743827069e+02
-2.083563379051e+02
-1.009360827729e+02
-1.472468565199e+02
-1.132679745452e+02
-3.062082915695e+01
-1.587241760985e+02
-1.414972244456e+02
-1.482238467493e+02
-1.309870174678e+02
-1.706086722633e+02
-4.138020541018e+01
-7.498210117651e+01
-6.321401375943e+01
-1.097573519231e+02
-1.440065609339e+02
-3.924849670692e+01
-1.192292505197e+02
-4.739345734941e+01
-1.053153345556e+02
-1.690190894744e+02
-6.257435935809e+01
-1.101028199517e+02
-6.711492481891e+01
-1.048066505250e+02
-1.420007979509e+02
-1.092782192109e+02
-1.032786558161e+02
-1.185171645812e+02
-1.076038546873e+02
-1.281902736345e+02
-2.351378141979e+02
-3.900889295798e+01
-2.915155441061e+01
-8.005155336904e+01
-4.243258639700e+01
-8.996224907271e+01
-1.254221610731e+02
-3.950370714580e+01
-8.271304662725e+01
-1.563030009890e+02
-2.040257106783e+02
-7.964273837574e+01
-1.963487051036e+02
-1.568831184543e+02
-1.069583044479e+02
-2.940550450739e+01
-2.284972339305e+01
-1.771399059980e+02
-2.976952679128e+01
-4.063467952333e+01
-4.153548546831e+01
-8.373427163677e+01
-4.122531998792e+01
-3.251905109510e+01
-2.125403646717e+02
-4.218274439186e+01
-1.721176919391e+02
-3.367978913608e+01
-1.269051865546e+02
-1.985196585143e+02
-2.362597454373e+02
-1.847122403003e+02
-4.401133718307e+01
-5.818767132607e+01
-1.764321122250e+02
-8.917858803294e+01
-2.372869617374e+02
-4.241396762096e+01
-1.191498715847e+02
-6.713449726490e+01
-1.188755754438e+02
-1.374521565108e+02
-5.455300965775e+01
-6.259853452539e+01
-2.270946798399e+02
-1.466719657047e+02
-4.770853082428e+01
-7.930122624518e+01
-1.049909429731e+02
-6.571611369697e+01
-2.246732904943e+02
-1.486866018983e+02
-2.262662077696e+02
-2.810194548931e+01
-1.897783766008e+01
-2.252132703437e+02
-1.668541641085e+02
-6.716963249202e+01
-1.351074535949e+02
-5.242015250564e+01
-2.852618906643e+01
-1.813153718639e+01
-2.370406687234e+02
-1.226293384364e+02
-1.155884928656e+02
-4.011438915136e+01
-7.563577900237e+01
-1.795770414365e+02
-3.310600931731e+01
-1.221921518185e+02
-2.235993647303e+02
-1.365136688143e+02
-2.219874406909e+02
-7.209280108606e+01
-1.980311746471e+02
-2.095146962536e+02
-2.905931261403e+01
-1.411811846230e+02
-9.369843305719e+01
-3.943362794906e+01
-1.291886768069e+02
-6.154204763102e+00
-2.824673516561e+01
-2.378249744711e+02
-3.704872756205e+01
-4.779527528554e+01
-1.626821180777e+02
-1.420532967590e+02
-1.004248557001e+02
-5.171356237398e+01
-7.949597042013e+01
-6.880108634317e+01
-2.044429408919e+02
-1.318112784833e+02
-6.097405894618e+01
-5.466750743933e+01
-1.580052497102e+02
-1.250600308103e+02
-1.715355082975e+02
-2.059799518105e+02
-4.807022284454e+01
-1.527788188019e+02
-1.714552669870e+01
-2.282806058286e+02
-1.302558398874e+02
-1.725869751480e+01
-1.352840529251e+01

SCALARS node_materi_stress_size_dev_sd_sig float
LOOKUP_TABLE default
6.873534131021e+00
9.030413074629e+00
1.827213552110e+02
9.884524813838e+01
1.361727989668e+01
2.294046657259e+01
3.072314818712e+01
4.005653246660e+01
4.933167031299e+01
5.859765035147e+01
6.811145940258e+01
7.779041103713e+01
8.750109199277e+01
9.736063644492e+01
1.074284064740e+02
1.168126531883e+02
1.252147982079e+02
1.345031265570e+02
1.437534533596e+02
1.525275293618e+02
1.612255263111e+02
1.698508626986e+02
1.779661603291e+02
9.960239630737e+01
9.924537070074e+01
9.954326608183e+01
9.983492024617e+01
9.980092025859e+01
1.006622256371e+02
1.014474488887e+02
1.024554421798e+02
1.041158271652e+02
1.057688269814e+02
1.072777505078e+02
1.101265302307e+02
1.132334886736e+02
1.164946482072e+02
1.198947915318e+02
1.236508558461e+02
1.278979089970e+02
1.328519019454e+02
1.377472100318e+02
1.425493956700e+02
1.469862932418e+02
1.511416397140e+02
1.552567696032e+02
1.590422254081e+02
1.626470933466e+02
1.660070841961e+02
1.690337808363e+02
1.716768763542e+02
1.739392227792e+02
1.761203998546e+02
1.779332363052e+02
1.791459302834e+02
1.804402827367e+02
1.815145464968e+02
1.823981597294e+02
1.829922787847e+02
1.834600506744e+02
1.836428994594e+02
1.836995744418e+02
1.835994941073e+02
1.836750490859e+02
1.838894973788e+02
1.838890323795e+02
1.828271682383e+02
1.834096160452e+02
1.829924661356e+02
1.830863460172e+02
1.832773878005e+02
1.832003666878e+02
1.312249560290e+01
2.103824168225e+01
2.991801835834e+01
3.915338137531e+01
4.900826542503e+01
5.918017575457e+01
6.971362813130e+01
8.051759684821e+01
9.182674198087e+01
4.632931519841e+01
1.966692734915e+01
4.725038817367e+01
4.303874127180e+01
4.061828953214e+01
3.778922036465e+01
3.574850564636e+01
3.448370651017e+01
3.361685240222e+01
3.381609732508e+01
3.055728675341e+01
1.130668504785e+01
9.184586460255e+00
9.095867837214e+00
9.049853553866e+00
9.097946809318e+00
9.195443180840e+00
9.197216646276e+00
9.329708256051e+00
9.365408104122e+00
9.481095852822e+00
9.706150341108e+00
1.012555143915e+01
1.079712072659e+01
1.204409849200e+01
1.430174331036e+01
3.627373288809e+01
3.343282233901e+01
3.399062325994e+01
3.401307221126e+01
3.374536434341e+01
2.158739982309e+01
7.820745893475e+00
4.285441214785e+00
3.815134926951e+00
3.757065289305e+00
4.115294436218e+00
4.939528052287e+00
5.211165361357e+00
5.169973562502e+00
5.738887386565e+00
6.327171684471e+00
6.641276768250e+00
6.545386241058e+00
6.137009851653e+00
2.218950714240e+01
1.406432563996e+01
1.132712446638e+01
1.015559610008e+01
9.629530753746e+00
9.463569093661e+00
9.542579794288e+00
9.659545458063e+00
9.832365729444e+00
9.909398864397e+00
1.001523019378e+01
1.009315614426e+01
1.007652127539e+01
1.012476062841e+01
1.035154524500e+01
1.133722530373e+01
5.220147736910e+01
4.473847415830e+01
4.161393242961e+01
3.925237758516e+01
3.792134222453e+01
3.587275876910e+01
3.394304036245e+01
3.334736817561e+01
3.512501111235e+01
2.475129748482e+01
4.477524516990e+01
1.792484559533e+02
7.382449481299e+00
4.105088667923e+01
1.813985809661e+02
3.930864502196e+01
1.028175948870e+02
1.726793295579e+02
3.693127812473e+01
1.614492403066e+02
3.612020650698e+01
1.811397417260e+02
9.617053911748e+00
1.448988364564e+02
2.650761869047e+01
6.379099482010e+01
1.286029185989e+02
1.299452209921e+02
1.122257085780e+02
9.522337697955e+01
9.644557945805e+01
1.032636813462e+02
1.673799475674e+01
1.252482155138e+01
1.257096145480e+01
4.403907685373e+01
1.800061482578e+02
4.123665753004e+01
1.133415528506e+01
1.566424413244e+02
1.180219948217e+01
3.534273464474e+01
1.183559675472e+02
1.681243688178e+02
1.536654590966e+02
1.761071760488e+02
1.808719282626e+02
1.998938059563e+01
1.332584135921e+01
1.801491904987e+02
6.420532064121e+01
8.847291494534e+00
8.275732412669e+01
9.625543125977e+01
3.842006942400e+01
4.178019032638e+01
3.621678048493e+01
3.487886210481e+01
5.109013285842e+01
2.604287243261e+01
1.810181267281e+02
1.121585874209e+01
8.553555244859e+01
2.480197738719e+01
3.199031421612e+01
2.996054313499e+01
4.013018669917e+01
3.984572565045e+01
4.930875734562e+01
4.976435620668e+01
5.911490123764e+01
5.961607669634e+01
4.996489041655e+01
6.907763933970e+01
6.953262856835e+01
7.909029846758e+01
7.948644187368e+01
7.044023313944e+01
8.024236161972e+01
7.152148626892e+01
8.119231344832e+01
8.995251455753e+01
9.078120693211e+01
8.223907044063e+01
9.167859856171e+01
8.326435165636e+01
9.256038201490e+01
8.418392414470e+01
9.336832493648e+01
1.016405698881e+02
1.023015056030e+02
9.408234992627e+01
1.028574227202e+02
9.467288902332e+01
1.032607334581e+02
1.112066013269e+02
1.113627437232e+02
1.034806731590e+02
1.113155963825e+02
1.035234813142e+02
1.110405909916e+02
1.033706242386e+02
1.104507480200e+02
1.177587082168e+02
1.166532817322e+02
1.094969118741e+02
1.150173534422e+02
1.219919389694e+02
1.196175019417e+02
1.265216146599e+02
1.234230700080e+02
1.165245189421e+02
1.195471731649e+02
1.265844916383e+02
1.220266078962e+02
1.147945244089e+02
1.166609478531e+02
1.241887886303e+02
1.183759296273e+02
1.104760723870e+02
1.118835987806e+02
1.201301341786e+02
1.134473099222e+02
1.047585889323e+02
1.063041716830e+02
1.152562897671e+02
1.081584873484e+02
1.172752733212e+02
9.875776663823e+01
1.008350236434e+02
9.100528492972e+01
9.344084430079e+01
1.190352168233e+02
8.330253729314e+01
8.091677448295e+01
8.615055256238e+01
9.622455265583e+01
7.583027409819e+01
7.908351948359e+01
6.873124749646e+01
9.532828210253e+01
9.950564663888e+01
7.234306762748e+01
6.208283809445e+01
5.823754501332e+01
5.181782136150e+01
4.127757247121e+01
5.168339469397e+01
4.307408510710e+01
5.431112324069e+01
4.647767756844e+01
5.587229602418e+01
7.927000441366e+01
6.290365268957e+01
7.383972105562e+01
8.570275842915e+01
1.289470110336e+02
8.249942434718e+01
7.605715157662e+01
8.609862031280e+01
1.239803117153e+02
1.261049226040e+02
1.324356784401e+02
1.346349989774e+02
1.406091676210e+02
1.428718085484e+02
1.369489887268e+02
1.452281095312e+02
1.393920066572e+02
1.484980190896e+02
1.462150541054e+02
1.476926816363e+02
1.419644716116e+02
1.502745966805e+02
1.446689362408e+02
1.360822787355e+02
1.389406307629e+02
1.301558381807e+02
1.334197972251e+02
1.358612464730e+02
1.402753020267e+02
1.427055108461e+02
1.470458965657e+02
1.494324929659e+02
1.536696052478e+02
1.508496351016e+02
8.908688965703e+01
1.080553040901e+02
1.022893074601e+02
1.011533331694e+02
9.506785090129e+01
9.435262825666e+01
8.783220539826e+01
8.758561384516e+01
9.298363148208e+01
8.639507383396e+01
9.026786306556e+01
8.378001078790e+01
8.575261936344e+01
1.104140284915e+02
1.446293960396e+02
1.513522962043e+02
1.461047448030e+02
4.775753118673e+01
1.475147799618e+02
1.537576429719e+02
1.513749827105e+02
1.574114763139e+02
4.602420150070e+01
8.048385234190e+01
7.987165832070e+01
5.776697985538e+01
5.045424793192e+01
1.586053562172e+02
5.016170662894e+01
1.532154737321e+02
7.983264034634e+01
1.419419061895e+02
1.505097654828e+02
1.308170592911e+02
1.528938216270e+02
1.472149912107e+02
9.239144892921e+01
8.633376724017e+01
7.905026048626e+01
7.823633512410e+01
8.611222934923e+01
7.714511952606e+01
6.802351982064e+01
6.666798840711e+01
7.655129808461e+01
6.634181766459e+01
5.485988387056e+01
5.560316069893e+01
1.558400259572e+02
7.753820340072e+01
6.185967862263e+01
1.610041043033e+02
1.600107142729e+02
6.192732006839e+01
5.507181643690e+01
4.400797299027e+01
4.902336853956e+01
6.024921646610e+01
5.439769009019e+01
4.367713454503e+01
4.911426599562e+01
3.886177655197e+01
4.431330998490e+01
5.478690107915e+01
5.000253288007e+01
3.991304897733e+01
4.550341426474e+01
3.572352667654e+01
4.113681639102e+01
5.124537160656e+01
4.087593332464e+01
1.542186973679e+02
1.607907725938e+02
8.020919145911e+01
8.966868884714e+01
9.597190296075e+01
9.955539300514e+01
4.670460289576e+01
5.713809956855e+01
7.201303307171e+01
7.086322253045e+01
6.957551165549e+01
1.451269534828e+02
1.363672880811e+02
8.626353795067e+01
7.708567416342e+01
7.755417571763e+01
6.807177590814e+01
6.779382589627e+01
6.840124389720e+01
1.438624640768e+02
6.070533151550e+01
5.451835863413e+01
4.374186807397e+01
1.537071892333e+02
1.474720261727e+02
1.098668227605e+02
1.184786093205e+02
1.181249711132e+02
1.265491247040e+02
1.264223027648e+02
1.345809153789e+02
1.344765520952e+02
1.541181486955e+02
1.422159066274e+02
3.668594685119e+01
1.391525990095e+02
7.675286531866e+01
3.656967703637e+01
4.300663561132e+01
4.468843212341e+01
5.424096022127e+01
1.655247667287e+02
1.347081665814e+02
1.262837040469e+02
5.892996219625e+01
5.870989063002e+01
1.594324292211e+02
3.581743012356e+01
3.370158315729e+01
2.935613496286e+01
3.467030374122e+01
4.291318953553e+01
6.577438641114e+01
7.908125699864e+01
6.980318205870e+01
7.353847917300e+01
7.155802187322e+01
5.224002604844e+01
6.278397759601e+01
1.056456175366e+02
1.091354360568e+02
1.630090356093e+02
4.546631288244e+01
6.791491466793e+01
1.504850076467e+02
1.435051755237e+02
9.331105598502e+01
6.261597714369e+01
6.405337477239e+01
8.595364037479e+01
5.747115306558e+01
4.877211122597e+01
1.695915911721e+02
7.199374767560e+01
1.418298129862e+02
1.342979897679e+02
1.492692471861e+02
3.332797612985e+01
1.680600277056e+02
1.485150228447e+02
1.344993252440e+02
1.262985172097e+02
7.835645104526e+01
6.905828427046e+01
6.034895454861e+01
5.969379065890e+01
5.090735521714e+01
7.788718297799e+01
6.315900921965e+01
5.386500393636e+01
5.533029103188e+01
6.722941038468e+01
5.820795482014e+01
9.534588170642e+01
1.307791039734e+02
1.023843005535e+02
1.272723220586e+02
1.303112473813e+02
6.582573260832e+01
7.199305886856e+01
3.044973813519e+01
2.647100344856e+01
3.743279318667e+01
3.316754872301e+01
1.195165607908e+02
1.633848799912e+02
7.381350584239e+01
8.180973291211e+01
7.785508107891e+01
1.668716300787e+02
1.059743739463e+02
1.372633791415e+02
7.364013829163e+01
1.189874999138e+02
2.764393244081e+01
9.898341368647e+01
1.570533527612e+02
1.620175592338e+02
1.606852101658e+02
3.450824831308e+01
1.265506343131e+02
1.262618307895e+02
4.681205438409e+01
4.819427130728e+01
5.652753608265e+01
4.915499737280e+01
8.657045757549e+01
7.767004284303e+01
1.435584005156e+02
1.497878782342e+02
1.352088001331e+02
1.267874465774e+02
1.656808341726e+02
1.641184665292e+02
5.808079190597e+01
5.019002016610e+01
7.758041027280e+01
4.501103624124e+01
1.702309916321e+02
1.658010800791e+02
6.667548022093e+01
6.604473357963e+01
7.392094237386e+01
5.139719559995e+01
5.064247006090e+01
5.228297015014e+01
1.737548716018e+02
1.166498935895e+01
1.654000864877e+02
6.648680187588e+01
7.929348862085e+01
1.335690051657e+02
8.657503375696e+01
1.603472772350e+02
6.808704368439e+01
8.030731505091e+01
2.459345640853e+01
2.056809861273e+01
2.864741934931e+01
7.389119401286e+01
6.668552581667e+01
6.672205283284e+01
6.996569836642e+01
7.499596505329e+01
4.817289861031e+01
5.961316536193e+01
1.119226755292e+02
1.089011312664e+02
1.084278696739e+02
1.082660056624e+02
1.092994041102e+02
1.462019788465e+02
1.389549026500e+02
1.364241723915e+02
7.730064149205e+01
8.488390082636e+01
9.494165773076e+01
9.429913657377e+01
8.760577241130e+01
8.425355554819e+01
1.701291676235e+02
1.669018255285e+02
2.337788497093e+01
2.881256564307e+01
5.493895993497e+01
5.754595247873e+01
9.018604081464e+01
8.692433292401e+01
9.547609277377e+01
5.200499657863e+01
1.413423107607e+02
1.727551479513e+02
1.700792308351e+02
1.762139331436e+02
1.550803856013e+02
1.615657142686e+02
1.562798423903e+02
6.222613956499e+01
7.640002837602e+01
2.131111845220e+01
5.421216644407e+01
1.779735133370e+01
2.260531935868e+01
1.408633568647e+01
4.290501768684e+01
1.898026310739e+01
2.436555767072e+01
1.729520715164e+01
8.985145464263e+01
1.903127079136e+01
2.306160898061e+01
1.728299512533e+02
1.682667536035e+02
1.751991546921e+02
1.705922006025e+02
1.633620304902e+02
1.661563265990e+02
1.682637936210e+01
1.744929779752e+02
1.691274943678e+02
1.777374545527e+02
4.175538187002e+01
5.925294972226e+01
5.017844507126e+01
4.254303376985e+01
1.374722529888e+02
1.269537659184e+02
1.522622244032e+02
1.434846469681e+02
1.842963621240e+01
1.807228435803e+01
2.578047828578e+01
2.481437341040e+01
3.310394109795e+01
3.191052168470e+01
4.071556927809e+01
1.569711645788e+02
4.489282558923e+01
3.936028968761e+01
1.700723548833e+02
1.678114827328e+02
4.967665231591e+01
4.235219892483e+01
1.753648047148e+02
8.687695167557e+01
9.890654011347e+01
4.667035568968e+01
5.867065587460e+01
8.662182627321e+01
5.749455650528e+01
5.883872296121e+01
5.057797142953e+01
1.533739669584e+02
2.501619522378e+01
5.346375227416e+01
4.160469360483e+01
4.756192585774e+01
1.478788679611e+02
9.540384793889e+01
7.572932023104e+01
6.139040989132e+01
6.875843545783e+01
6.062998642704e+01
4.140829029111e+01
4.324427507574e+01
1.029679269400e+02
5.032226271141e+01
4.211052082037e+01
7.267993193451e+01
7.462828039395e+01
8.390949146873e+01
9.590629354846e+01
9.353332952623e+01
8.180133350836e+01
9.162380369646e+01
1.031963991318e+02
1.018541457388e+02
1.153126033839e+02
1.118863717859e+02
1.003814180746e+02
1.098937567249e+02
1.204983425094e+02
9.932027217442e+01
1.713607574059e+02
9.522551234859e+01
6.652041222052e+01
6.125659393982e+01
7.486978276268e+01
1.250433727583e+02
1.155143734053e+02
8.765066029136e+01
1.492160746945e+02
5.233977758227e+01
8.048659968318e+01
1.576459824460e+02
7.210388165291e+01
7.029114763082e+01
6.069882602766e+01
1.089338734191e+02
3.367118709063e+01
1.705299167302e+02
1.377568304059e+02
1.320863379325e+02
1.249524550394e+02
9.022780717922e+01
1.780938640254e+02
1.745356796603e+02
1.754000317623e+02
1.700073732902e+02
1.801460954672e+02
1.356982443247e+02
1.407690107175e+02
8.583326418613e+01
9.387695416829e+01
1.015630550794e+02
1.004899775150e+02
9.337835332509e+01
9.895612737788e+01
1.057033467334e+02
9.661407763356e+01
1.176745648484e+02
1.813282440181e+02
1.383907882366e+02
1.361306520698e+02
1.282250205434e+02
9.923994961463e+01
1.060090871019e+02
1.154567873105e+02
9.258506622182e+01
1.266460064899e+02
1.814825665248e+02
1.405857035367e+02
1.032845168806e+02
1.466217677078e+01
2.143048384150e+01
2.481624969329e+01
3.149919422857e+01
2.035275752313e+01
1.151221455673e+02
1.184617720011e+02
1.127318762725e+02
1.219023633885e+02
1.161528761145e+02
1.075271667422e+02
1.252552448154e+02
1.191368615628e+02
1.282086323519e+01
3.423936538396e+01
3.945339583922e+01
2.680707348627e+01
4.277282169117e+01
5.442291179268e+01
5.743539572169e+01
6.556695382217e+01
5.287805173754e+01
1.082244361894e+01
1.964306570091e+01
7.661396623044e+00
1.619734891924e+01
2.926243807231e+01
3.994396719045e+01
1.787879133287e+02
9.243465959978e+01
8.794049923375e+01
7.845872219482e+01
8.385955056393e+01
9.647546619876e+01
7.320299188355e+01
6.984239043346e+01
1.154135237807e+01
1.975938859447e+01
1.904157667015e+01
2.716820101883e+01
2.676904625875e+01
1.962738820851e+01
1.932273566015e+01
1.095590643728e+01
1.884455332113e+01
2.656593488524e+01
1.027213805475e+01
5.411891714564e+01
5.976895001676e+01
1.811847547075e+02
1.283151609166e+01
8.101189503621e+00
9.289361171358e+01
9.638629651648e+01
9.588104682638e+01
1.653567612049e+02
1.696309445477e+02
9.290286645713e+01
6.523266371777e+01
1.053305476489e+02
7.287319152405e+01
7.309768363509e+01
6.860110086717e+01
1.397612483677e+02
1.333847816811e+02
1.588431614081e+02
1.332017751380e+02
1.529876662285e+02
1.757673484505e+02
3.972605405212e+01
3.446604541719e+01
3.158115586883e+01
5.585423884097e+01
6.598158260731e+01
1.036025619721e+02
4.180342495891e+01
1.488253117682e+02
6.441297086698e+01
1.219875537838e+02
8.927001210581e+01
7.285728035973e+01
6.710893888427e+01
9.507375713269e+01
1.103370159657e+02
1.508188733734e+02
6.184857373845e+01
1.056381406041e+01
1.560974743388e+02
1.283832037654e+02
3.851520991769e+01
1.559832129031e+02
5.586552385160e+01
6.002110333029e+01
8.578202859343e+01
2.947444290637e+01
3.210318112402e+01
2.527798571907e+01
1.719915663201e+02
6.585477543972e+01
5.992859068727e+01
1.303521856269e+02
8.499817273932e+01
3.011684496782e+01
7.787778964386e+01
1.188573508477e+02
1.637331581824e+02
1.441124915958e+02
6.406928266580e+01
1.609086068723e+02
1.237458010459e+02
7.151161938052e+01
1.177904159929e+02
1.127505112643e+02
6.667058218084e+01
1.261935228477e+02
1.578836989298e+02
6.555347665016e+01
1.009096156241e+02
8.933292937866e+01
1.108723697608e+02
1.344608951882e+02
1.584758489953e+02
7.926903607469e+01
7.780767982617e+01
3.955333077699e+01
1.424101319376e+02
8.336130002888e+01
7.650194587521e+01
1.556943369704e+02
7.858990001371e+01
1.127914736313e+02
4.532541966120e+01
6.606011104441e+01
9.936453940731e+01
1.184596947311e+02
1.219626165681e+02
1.011500436503e+02
1.582852746458e+02
1.560939604884e+02
4.708283303207e+01
3.710350029831e+01
1.610484103130e+02
1.336113694776e+02
1.621928069634e+02
1.102299535765e+02
1.528982743724e+02
4.210631242643e+01
1.641355951142e+02
1.573903260301e+02
8.728470410811e+01
1.183826829843e+01
1.731396965985e+02
1.639862712038e+02
1.187805321967e+02
1.292609755448e+02
3.608853675628e+01
1.245610858492e+02
1.001715849079e+02
1.061016282050e+02
1.668566281807e+02
5.935875919592e+01
1.182370709449e+02
1.401160082055e+02
2.657250461886e+01
4.095541920651e+01
1.211800891318e+02
1.030387108216e+02
1.316262597656e+02
1.668822540365e+02
1.242921172967e+02
1.097147711788e+02
1.275297855413e+02
3.605687726486e+01
6.928975838890e+01
1.308399640174e+02
1.087950819811e+02
2.687593326257e+01
1.266613530010e+02
1.609245842358e+02
8.905956309452e+01
1.338612580166e+02
8.024586544065e+01
3.631458234016e+01
1.414134511226e+02
1.175535916306e+02
1.339806596620e+02
1.257625665336e+02
1.488578195449e+02
4.264281951859e+01
6.210718320109e+01
5.115398334078e+01
1.125774885359e+02
1.174575398817e+02
3.424426408855e+01
8.940529971936e+01
3.635833211362e+01
1.076279638014e+02
1.480977766816e+02
3.497292274194e+01
1.091330092242e+02
5.452561648115e+01
1.024989265834e+02
1.329630460682e+02
1.035363880139e+02
9.585510581833e+01
8.429292053617e+01
9.711003103042e+01
9.461608341467e+01
1.789893289461e+02
1.734553352867e+01
3.695763926224e+01
4.018535859305e+01
4.402364541814e+01
7.906581063779e+01
9.884401577756e+01
1.758400039716e+01
7.048354422026e+01
1.239271021580e+02
1.649868799180e+02
4.908055789172e+01
1.657109727373e+02
1.409047873093e+02
7.410779001957e+01
1.151697583724e+01
1.539295788335e+01
1.388181375926e+02
3.834475623886e+01
4.387582200863e+01
4.606793159799e+01
6.737958544539e+01
3.329368241552e+01
4.045404060613e+01
1.729352752461e+02
1.750231774978e+01
1.486048590367e+02
4.302672997283e+01
9.096172042469e+01
1.633574090622e+02
1.813048938512e+02
1.558442258520e+02
4.999252362311e+01
2.722367411830e+01
1.442999820682e+02
5.697559695931e+01
1.812208041041e+02
1.724412249041e+01
8.554146505635e+01
7.340751126064e+01
8.556232321533e+01
1.087608736335e+02
2.780812596071e+01
3.277366897364e+01
1.736743996176e+02
1.133876441421e+02
5.449997367279e+01
4.829540365486e+01
8.440202600808e+01
5.766770882857e+01
1.759958505251e+02
1.183900145357e+02
1.736802274927e+02
2.692817281985e+01
1.559325798441e+01
1.774723432328e+02
1.347038753510e+02
7.031226146658e+01
1.011861149124e+02
5.656830936381e+01
1.113881566081e+01
1.753832397820e+01
1.807471129174e+02
8.761004208115e+01
9.233332357518e+01
2.027201415573e+01
6.098648459450e+01
1.494473124283e+02
2.314173179113e+01
8.779685864135e+01
1.776249440370e+02
1.014343918632e+02
1.761653586944e+02
5.581694088253e+01
1.622546172265e+02
1.718460020294e+02
1.139952896245e+01
1.068790426403e+02
7.505254822204e+01
3.311251718328e+01
9.578481681588e+01
9.952688080198e+00
1.108864768498e+01
1.807096799633e+02
3.223217475437e+01
2.345525472200e+01
1.304273437549e+02
1.125926479607e+02
6.788076233987e+01
4.549167942751e+01
3.925244416837e+01
3.993343450678e+01
1.672626321868e+02
9.633934163660e+01
3.295497167745e+01
6.033807157753e+01
1.265291457660e+02
9.962823941769e+01
1.413199978787e+02
1.702942913517e+02
5.173010320271e+01
1.207730137896e+02
1.618126346119e+01
1.765841699704e+02
1.036410967624e+02
1.936890079843e+01
1.064236645834e+01

SCALARS node_materi_strain_total_average_a_ept float
LOOKUP_TABLE default
1.841799172145e-04
4.058284340643e-03
2.536937927009e-03
5.532888967684e-03
2.189136713431e-04
3.226567250076e-04
4.180900227652e-04
5.360599616492e-04
6.487442071567e-04
7.646746867312e-04
8.832447087497e-04
1.004046022713e-03
1.128173603448e-03
1.254969506443e-03
1.386110444793e-03
1.517687846753e-03
1.640279906360e-03
1.772504319511e-03
1.910820288973e-03
2.045917140665e-03
2.183010357305e-03
2.322321052878e-03
2.458114356642e-03
5.542074075937e-03
5.531880811710e-03
5.529700543118e-03
5.522785856595e-03
5.504970636771e-03
5.497834084762e-03
5.474923839828e-03
5.446796574551e-03
5.416977383671e-03
5.379001938335e-03
5.319600874347e-03
5.264242898697e-03
5.185126270180e-03
5.100602416548e-03
4.997012849587e-03
4.882950850775e-03
4.751744631893e-03
4.612623389683e-03
4.470339405014e-03
4.322256101526e-03
4.166505559279e-03
4.004199276441e-03
3.845417542193e-03
3.688056898844e-03
3.536613391558e-03
3.393399160634e-03
3.254210450583e-03
3.131914793142e-03
3.011110203854e-03
2.910556250866e-03
2.816047757183e-03
2.728186625122e-03
2.654139267370e-03
2.604031879232e-03
2.561094017969e-03
2.523911203552e-03
2.509408546565e-03
2.487333417380e-03
2.482653890542e-03
2.474619653429e-03
2.479751714851e-03
2.495726293817e-03
2.506811134695e-03
2.494990760288e-03
2.521382343733e-03
2.519658153900e-03
2.529259724822e-03
2.540609614970e-03
2.542629348564e-03
4.209936784427e-03
4.356652449664e-03
4.503829867304e-03
4.650193727919e-03
4.800973555253e-03
4.954113276729e-03
5.107807306333e-03
5.266241780056e-03
5.421426280696e-03
-1.371365308039e-03
3.812406744958e-03
-3.586252662502e-04
1.451865568087e-04
6.295158746414e-04
1.119222876568e-03
1.623844600183e-03
2.123541889912e-03
2.604367471525e-03
3.053584021160e-03
3.458738897594e-03
3.955565146242e-03
4.042605456249e-03
4.054599459447e-03
4.054043860041e-03
4.050784970074e-03
4.067827019213e-03
4.048849237847e-03
4.044424677544e-03
4.042038898552e-03
4.036731607793e-03
4.026614431257e-03
4.013758721980e-03
3.991737624380e-03
3.959160883506e-03
3.911284401399e-03
-1.971185912234e-03
-2.237674470145e-03
-2.292585199502e-03
-2.066255035305e-03
-1.232109285813e-03
-4.311274512849e-04
-1.215339421855e-04
1.750232299503e-05
9.002566201790e-05
1.055186417971e-04
1.228046967190e-04
1.412724106402e-04
1.542362840805e-04
1.668184886109e-04
1.683466311488e-04
1.714859798813e-04
1.755439389661e-04
1.797189617405e-04
1.848612489804e-04
3.760650376645e-03
3.876549615835e-03
3.941444858058e-03
3.970319005960e-03
3.985603699711e-03
3.992523464892e-03
3.992639877304e-03
3.993027580788e-03
3.995157108421e-03
3.992501865216e-03
3.991783400015e-03
3.991176623407e-03
3.991674720237e-03
3.991268192148e-03
3.987288331962e-03
3.962271194555e-03
-7.285290028754e-04
-1.024681069938e-04
3.918791560241e-04
8.707439034294e-04
1.363133476921e-03
1.876667780936e-03
2.368042844976e-03
2.841192396599e-03
3.227456644609e-03
3.688957288883e-03
3.953324862834e-05
2.610402705919e-03
6.120854834362e-05
-1.412432124680e-03
2.454676917603e-03
1.046234615128e-03
1.324461745029e-03
2.925744841666e-03
2.003270549506e-03
3.420990120248e-03
2.939230545845e-03
2.460095458464e-03
1.686807563154e-04
4.020892773467e-03
3.693420849971e-03
8.282476501411e-04
1.684027554950e-03
4.452261690316e-03
4.956959078618e-03
5.415394410878e-03
5.322014299070e-03
5.195936244393e-03
3.985321155185e-03
4.132727113673e-03
4.177549225150e-03
4.726754120767e-03
2.467045606843e-03
-1.756718740750e-03
1.979423136299e-04
2.108928383338e-03
4.178208146757e-03
4.759032962868e-04
4.708002359997e-03
3.166622835371e-03
3.715393138464e-03
2.752631374217e-03
2.518825514976e-03
-2.844585175364e-04
4.080065557926e-03
2.423654946594e-03
5.025536087134e-03
1.295114956400e-04
1.065516402594e-03
5.462362265091e-03
1.535711552682e-03
5.475517804457e-04
2.477359423632e-03
3.320676010028e-03
-5.560095051341e-04
4.442250156311e-03
2.499749219737e-03
2.045085356758e-04
5.337405857438e-03
3.813803071292e-03
3.759385532841e-03
3.904054931828e-03
3.834450807614e-03
3.980721188605e-03
3.925910114701e-03
3.767024137888e-03
3.868586706823e-03
3.699354094592e-03
4.073462711068e-03
3.809458891749e-03
3.632628955852e-03
3.748740702114e-03
3.566923253456e-03
3.448760672559e-03
3.380200173675e-03
3.258949530012e-03
3.188507830162e-03
3.314826807183e-03
3.121791482812e-03
2.991936222613e-03
2.926059018675e-03
2.791471235213e-03
2.727473269500e-03
2.586394836477e-03
2.526140080914e-03
2.669509603377e-03
2.472398843970e-03
2.323035076343e-03
2.274195475192e-03
2.117728482331e-03
2.074250214359e-03
2.232213325506e-03
2.039151409863e-03
1.871791766334e-03
1.845616292053e-03
1.667720347276e-03
1.652384186091e-03
1.462967581181e-03
1.458477392392e-03
1.645647796384e-03
1.463171808950e-03
1.264923607263e-03
1.283370562559e-03
1.477776008818e-03
1.311867235522e-03
1.500623196898e-03
1.348557207683e-03
1.154215385865e-03
1.205428136861e-03
1.391030522957e-03
1.260449519479e-03
1.072468101535e-03
1.140819822848e-03
1.318723734125e-03
1.209441342805e-03
1.032725538372e-03
1.110875100939e-03
1.278460504444e-03
1.186197524727e-03
1.022185540870e-03
1.102502723040e-03
1.259424599386e-03
1.178941356417e-03
1.329971961878e-03
1.025614762046e-03
1.104602743130e-03
9.556331833386e-04
1.035951477793e-03
2.197619531276e-03
8.925373624960e-04
8.077567718593e-04
9.722671063316e-04
1.111841368574e-03
8.343415994184e-04
9.124132275650e-04
7.803250317883e-04
1.475094342137e-03
3.251767685085e-03
8.554362951227e-04
7.287166592171e-04
6.522150272887e-04
6.069193938149e-04
4.109191225919e-03
4.219387249951e-03
4.244164038907e-03
4.361078353277e-03
4.374488530849e-03
6.779131266227e-04
3.926999983782e-03
4.338526279870e-03
2.862807137502e-03
2.168607675629e-03
1.659292192503e-03
9.854659271005e-04
9.259094456550e-04
1.054140461935e-03
1.413249227287e-03
1.478192893714e-03
1.562963337802e-03
1.623029287259e-03
1.708126125087e-03
1.764333469758e-03
1.682910063809e-03
1.821185829074e-03
1.742606596212e-03
1.848761925608e-03
1.797055262843e-03
1.878603442007e-03
1.802329121998e-03
1.937010238954e-03
1.862287269184e-03
1.727191040021e-03
1.788055530144e-03
1.653743193418e-03
1.676785471149e-03
1.829518929045e-03
1.841595366132e-03
1.988510899622e-03
1.995788460385e-03
2.137133412654e-03
2.139253528068e-03
2.008767158408e-03
3.686145634873e-03
1.074594514525e-03
1.051730831116e-03
8.485149804866e-04
8.214215855378e-04
6.016614086260e-04
5.716097461642e-04
3.291318682474e-04
3.862018103098e-04
8.735385409882e-05
1.848225050877e-04
-1.260821999112e-04
6.529531312348e-06
2.616758987494e-03
2.140003086495e-03
2.283355741006e-03
2.294407858367e-03
5.305766478203e-04
1.922607161652e-03
1.936381264101e-03
1.889105300966e-03
2.148553469706e-03
5.616921140393e-04
2.988996792435e-04
5.639668805723e-04
4.498680483961e-03
4.501831552109e-03
2.026706487489e-03
6.281853352551e-04
1.956501752891e-03
-2.203596941681e-04
1.848776068793e-03
1.982751810265e-03
1.604618597770e-03
2.433309111218e-03
2.450966381651e-03
2.974909644832e-04
1.529973515514e-04
-1.181222807600e-04
5.316964618475e-05
3.039344049837e-04
2.146891137147e-04
-7.332351939621e-06
1.636737801786e-04
3.662158638863e-04
3.159753239720e-04
1.433541125283e-04
2.882904773643e-04
2.056340015993e-03
-4.129114660412e-04
3.334214900159e-03
2.070036130902e-03
2.271583464840e-03
4.634189059992e-03
4.626950710410e-03
4.496201991079e-03
4.611747904563e-03
4.750369772582e-03
4.726547304774e-03
4.588966713557e-03
4.696235029985e-03
4.558953634032e-03
4.659798159580e-03
4.803407756709e-03
4.760807995219e-03
4.617361283027e-03
4.713504852328e-03
4.569625459893e-03
4.661328259513e-03
4.809790829407e-03
5.190116670223e-04
2.026687632191e-03
2.163272813985e-03
9.944914672719e-04
1.119587332168e-03
1.185347830947e-03
1.250816917482e-03
4.752649960893e-03
4.905424790269e-03
3.054198544012e-04
5.818735135690e-04
4.633503272470e-03
1.909496932388e-03
1.775946414737e-03
1.955041357530e-03
2.008214552385e-03
1.784454422430e-03
1.838053511901e-03
2.069886627056e-03
1.600463522352e-03
1.745506886341e-03
4.909390805416e-03
5.694562558000e-04
4.481236528976e-04
2.043546771414e-03
1.882076488402e-03
2.809330099828e-03
2.756663219780e-03
2.945718667637e-03
2.891806959968e-03
3.078910542039e-03
3.022145430451e-03
2.842579065838e-03
2.586850161567e-03
2.971397205506e-03
4.603075950882e-03
2.146563782379e-03
5.008851336507e-04
4.536518857064e-04
1.520111664477e-04
5.751483513008e-04
6.902550792673e-04
2.157288924409e-03
3.209351584308e-03
3.267102517206e-03
1.905841598811e-03
2.142710415417e-03
2.562039127779e-03
4.262926072156e-03
4.458984504717e-03
4.428159658460e-03
4.558622797161e-04
2.099682731807e-05
4.871735451408e-03
8.183595355810e-04
8.462556260509e-04
-5.116169805295e-04
-7.445206592951e-04
4.843289406401e-03
4.996967012944e-03
1.317892476796e-03
1.381706688938e-03
2.121187270314e-03
2.732000025291e-04
5.059894411565e-03
1.910491106881e-03
1.761020805998e-03
1.182980464749e-03
3.467992036221e-04
5.802284732196e-05
5.669938910208e-04
4.125918748263e-04
6.333720535725e-04
2.247699062094e-03
4.896851318904e-03
2.797717376684e-03
2.664859477764e-03
2.923289692758e-03
1.629469245154e-04
2.199848986942e-03
1.970394814540e-03
3.393098936290e-03
3.456507024384e-03
1.063537721724e-03
1.103160013248e-03
8.934718299196e-04
1.156469100057e-03
3.598039322089e-03
1.306250120092e-03
3.141495514616e-03
3.224283181931e-03
3.025308522959e-03
2.294441130941e-03
2.373547701802e-03
1.041066045967e-03
1.823070661642e-03
1.252190890347e-03
1.591925363165e-03
1.502180350610e-03
4.952706140635e-03
5.063395940575e-03
4.478152450732e-03
4.429139741110e-03
4.169518897944e-04
3.367023032038e-04
1.398290250832e-03
2.114808792082e-03
4.776689145693e-03
4.778288221200e-03
4.625224918503e-03
2.216795876363e-03
8.904180341472e-04
1.700095720232e-03
-5.714561177813e-04
2.382814122305e-03
3.148486203670e-04
3.441228026775e-03
2.105381165404e-03
2.177494219693e-03
2.707663126722e-03
3.595768272331e-03
2.348819917213e-03
2.171403259263e-03
3.114781734702e-03
2.914087118750e-03
2.820087906924e-03
2.696208045174e-03
6.806985647492e-04
6.173794000372e-04
3.347774850531e-03
3.094164669386e-03
3.585256646541e-03
3.654788370164e-03
2.679903200361e-03
2.542429088585e-03
7.461374172791e-04
2.225695723866e-03
5.024658587367e-03
3.311483597919e-03
2.238225137827e-03
2.165670177973e-03
-9.753872010213e-04
-6.681935510446e-04
5.154451509229e-03
9.499174282832e-04
1.211090366821e-03
6.849701389864e-04
2.386116903302e-03
4.177237312519e-03
2.241445131579e-03
2.516872545949e-03
5.219764902187e-03
2.323517666501e-03
1.734450617468e-03
2.086165177683e-03
5.078054754335e-03
5.250670773000e-03
4.336839760924e-03
4.296382799217e-03
4.357078023180e-03
-2.507557991066e-04
-5.488238363314e-04
5.014155120278e-03
8.684048947694e-04
9.451271235079e-04
3.842483505960e-04
5.211923949776e-04
1.386527336310e-03
1.320689820304e-03
3.382028559591e-03
3.571242783166e-03
3.001587367274e-03
1.798940506451e-03
1.646353781048e-03
1.603619731462e-03
5.105493659684e-03
5.232916374694e-03
7.569871060068e-04
6.511624764619e-04
7.807730909937e-04
5.051491627693e-03
2.311937098595e-03
2.247064398943e-03
2.452824648222e-04
2.525804224504e-04
1.393157270447e-04
-1.481478716810e-04
4.770168746097e-03
4.607824108014e-03
4.938194220050e-03
6.794518450039e-04
2.633653244752e-03
2.334674574000e-03
2.318417044966e-03
2.382983696539e-03
2.736997689514e-03
2.844176887546e-03
3.038743138648e-03
-1.223539559839e-03
5.204654405479e-03
4.336359370468e-03
-1.441786632411e-03
4.286950866673e-03
4.373567472813e-03
4.221528264634e-03
5.678731165138e-04
4.225709002298e-03
4.256793130816e-03
1.574236030788e-04
5.187838283106e-03
2.253221535657e-04
2.869905042257e-04
2.295943180340e-03
2.219041458707e-03
2.341547723442e-03
2.266142091001e-03
2.142424540343e-03
2.202516825344e-03
4.248762070293e-03
2.346517007817e-03
2.265476299481e-03
2.413559926583e-03
2.807921120957e-03
1.405261844839e-03
1.473936338122e-03
1.291307364522e-03
3.808392295710e-03
3.842072617876e-03
2.035719328589e-03
1.899940796705e-03
4.305790010070e-03
4.304242694756e-03
4.433024182886e-03
4.421027776165e-03
4.552529321022e-03
4.536819988697e-03
4.672473933852e-03
3.229497183954e-03
7.430585559259e-04
3.213027223510e-03
2.650773729832e-03
2.517094569214e-03
2.463904120653e-03
2.334671205861e-03
2.339376915106e-03
1.271832328104e-03
5.233295535489e-03
-1.394165608926e-03
-1.047165099534e-03
1.502100705079e-03
2.601082255539e-03
1.657247227160e-03
1.737794092172e-03
1.946442099688e-03
1.742021108442e-04
4.122459270057e-04
4.681771711502e-03
2.196909243479e-04
1.972208770729e-03
1.258603717186e-03
2.442298313244e-03
6.248151272556e-04
1.356551838620e-03
3.520842881124e-03
3.679354397417e-03
3.500850368836e-03
1.256913721939e-03
1.989877751606e-03
1.819429638952e-03
3.063971201036e-03
4.468705371646e-03
4.443348759714e-03
4.579478919151e-03
4.407667314052e-03
4.273898971832e-03
4.232592900406e-03
4.374523758362e-03
4.189188893434e-03
4.356595772525e-03
4.132671781889e-03
3.999049510414e-03
3.941269727487e-03
4.058309811270e-03
3.810595014956e-03
2.775067501188e-03
1.693104103728e-03
-9.043351863104e-04
-6.471782476908e-04
2.655894579960e-03
4.584949715502e-03
4.849056855644e-03
8.105576184757e-04
3.865976672714e-03
3.414427373523e-03
2.946444687074e-05
3.566787758193e-03
4.309493164434e-03
4.146271523579e-03
4.185932043579e-03
5.048487833617e-03
4.373303227255e-03
3.052323701521e-03
1.986778404597e-03
1.988814861364e-03
1.822193200411e-03
4.052359338395e-03
2.671070142361e-03
2.552110888179e-03
2.496376310640e-03
2.418316686056e-03
2.559599959694e-03
4.322449221108e-03
4.180324948510e-03
4.401810843659e-04
5.385371123967e-04
7.539296357621e-04
6.564811128107e-04
4.177478993881e-04
5.586260896652e-04
7.931120435110e-04
4.658066288116e-04
3.706498463731e-03
2.494155524236e-03
1.652370368692e-03
1.595690445333e-03
1.440217123640e-03
1.183826386569e-03
1.252015334140e-03
1.391436949488e-03
1.118079558935e-03
2.708199951531e-03
2.470783521001e-03
1.728297326444e-03
1.179978099497e-03
4.039701909805e-03
4.083111859991e-03
4.006718802679e-03
4.130280324535e-03
4.148867867514e-03
1.450325951020e-03
1.512449395379e-03
1.443692321109e-03
1.573251196362e-03
1.501193153241e-03
1.381886323050e-03
1.630859062433e-03
1.548314086155e-03
4.106096582873e-03
-7.376749115659e-04
-4.472422261575e-04
-1.935504995540e-04
-2.514956762152e-04
-4.458643218054e-04
-2.041687761370e-04
-3.756424520040e-04
-8.083526091823e-04
-1.069994024885e-04
-4.840871450663e-05
8.157675230060e-06
4.463485517254e-05
5.226570931080e-05
3.598522131481e-04
2.454600733972e-03
1.189443017523e-03
1.125789071307e-03
1.007794626405e-03
1.065621887405e-03
1.239218446323e-03
9.450073907433e-04
8.984609691344e-04
2.043389276542e-04
2.816767630831e-04
2.776726775020e-04
3.723724717691e-04
3.661343540140e-04
2.771262261030e-04
2.680901557881e-04
1.905961330429e-04
2.579602072012e-04
3.507839381685e-04
1.804235224931e-04
4.878102243929e-03
4.961432595785e-03
2.443939551227e-03
4.158095180509e-03
9.374703714903e-05
5.404367902351e-03
5.369657568508e-03
5.400894216095e-03
2.248291754918e-03
2.315731184061e-03
5.428975922804e-03
6.995959060213e-04
4.541038316679e-03
5.117276263948e-03
2.299698850071e-05
5.652049371888e-04
1.836829515215e-03
1.666313006387e-03
2.115660922214e-03
1.715062014564e-03
1.996366174114e-03
2.439804593030e-03
5.242655622594e-04
4.521523005072e-03
4.516939472057e-03
4.861715119011e-03
7.998026347282e-04
1.319062814974e-03
4.927117500806e-04
3.534190512796e-03
2.941810341821e-03
1.346664099517e-03
1.047322294188e-03
7.510912940547e-04
4.509887471194e-04
1.908803400527e-03
1.252436651589e-03
1.901866218735e-03
4.961786950376e-03
1.562869528362e-04
1.984599697723e-03
1.541867198730e-03
4.481473011031e-03
2.275337535506e-03
-1.682333871751e-05
4.839969681585e-03
4.923359953143e-03
4.267473289246e-03
3.860851455644e-04
4.385243797067e-03
2.278043595439e-03
4.487842411941e-03
7.451070106243e-04
1.530267284050e-03
2.378701510878e-03
3.537123040481e-03
5.168012955678e-03
2.012637174174e-03
2.281388857391e-03
1.859368803643e-03
8.095540034020e-04
2.089059899597e-03
1.648781345549e-03
4.989705010530e-03
3.135312611249e-03
1.109432306834e-03
4.767442112178e-03
1.378425763758e-03
2.417095899297e-03
2.734209070628e-03
2.865665237045e-03
3.502244204369e-03
2.424681672864e-03
1.765014193238e-03
2.035582173809e-03
-2.916657689342e-04
1.550633857057e-03
4.380877651808e-03
3.143466791907e-03
5.144662093613e-03
2.227112802688e-03
2.012148981642e-03
4.914935598465e-03
1.323173010045e-03
5.999252074064e-04
-2.238099429721e-04
6.511109107718e-04
1.828930194356e-03
1.464788590726e-03
4.760933582977e-03
2.069768263793e-03
1.985498384550e-03
-2.350233534683e-04
3.410296405995e-03
2.129445215940e-03
1.565078113176e-03
2.402367350769e-03
1.426391775156e-03
3.389958488391e-03
2.577638043746e-03
2.192182716841e-03
2.054721435160e-03
1.043776596250e-03
4.181461840237e-03
2.344266821651e-03
2.188345051841e-03
2.569218485236e-03
1.437315959775e-03
3.149388579352e-03
1.529392947041e-03
3.059387972065e-03
5.132421574897e-03
2.286409328737e-03
4.029456011312e-03
1.456713898598e-03
2.306547922092e-03
3.596455165763e-04
3.024102399653e-03
1.520197079653e-03
7.171625065562e-04
1.486840795686e-03
2.818485874219e-03
1.582542760726e-03
9.448264240940e-04
1.643763722555e-03
2.714480172967e-03
3.980020797151e-03
1.704379477989e-03
3.191935372318e-03
3.457359347021e-04
2.526639589054e-03
2.173991424428e-03
8.711327609874e-04
1.539709041333e-03
4.101944635672e-03
2.242429165466e-03
1.694237449971e-03
3.324527054283e-03
2.493813030574e-03
1.996482357327e-03
1.843352765596e-03
2.097862253892e-03
6.133289121917e-04
4.820859943450e-04
1.006733495387e-03
3.516549468407e-03
4.602952107542e-04
3.869319124176e-03
2.665814098433e-04
8.725872203330e-04
2.611065715216e-03
4.584469374784e-03
9.532487846401e-04
7.129190925703e-04
8.474462728908e-04
2.155000421230e-03
9.375832811885e-04
8.538514004000e-04
5.270811270766e-03
9.427511559632e-04
5.459080447181e-03
2.471096198372e-03
4.292188136333e-03
1.778607051069e-03
-1.821908600708e-03
1.567180266685e-03
7.174143321748e-04
3.626170894459e-03
4.297703532156e-03
6.622299431291e-04
4.247503195872e-03
3.288466985258e-03
4.803144763681e-03
2.389840956487e-03
2.471127002723e-03
5.173063080568e-03
4.159404241417e-03
9.684590545382e-05
1.834957350578e-03
1.267238067122e-03
1.001376522759e-03
4.807312866106e-04
8.590816155744e-04
-7.713791209519e-05
7.954653494736e-04
2.602500551193e-03
4.228988625982e-03
2.765524293888e-03
2.980445699405e-04
5.061874592217e-03
3.013140551349e-03
2.451602603753e-03
2.886866416447e-03
-5.861828476711e-05
4.177372649389e-03
3.673361310775e-03
4.915933064114e-03
2.466512129274e-03
4.162603242994e-03
5.319484167727e-03
-3.797581986361e-04
5.334342718182e-03
3.755545326657e-03
4.462717159443e-03
4.026310713506e-03
2.377363707872e-03
4.513403528632e-03
-3.996800608566e-04
4.787715096679e-03
1.061187127659e-03
-1.173862818290e-03
2.346935735869e-03
3.884520342973e-03
2.362144505921e-03
3.717686123632e-04
1.733795255510e-04
2.388347371363e-03
3.996074390571e-03
-1.641312334252e-04
5.326078452661e-03
-8.379675501255e-04
4.132183617115e-03
2.378945623622e-04
2.473097780041e-03
5.236857600248e-03
1.180026909770e-03
3.913296487709e-03
7.888559173261e-04
3.236040339121e-03
1.034034308842e-04
5.296976999881e-03
2.439120026481e-03
4.889049622605e-03
2.866587756672e-03
-1.376133550617e-03
3.149596413420e-03
2.392364604963e-03
4.164660492452e-03
4.691367798240e-03
9.572280238515e-04
4.288576217879e-04
5.483168117046e-03
1.985219014900e-04
4.160652818219e-03
2.502702393109e-03
4.333283442093e-04
4.399226696452e-03
4.139114589221e-03
1.459309308966e-03
5.082479906144e-03
-1.047367531349e-04
-1.854817729353e-03
4.663034655797e-03
2.929103955524e-03
5.049463980616e-03
4.546931060766e-03
-3.668095443078e-04
3.985667941083e-03
1.274863846701e-03
3.511961143287e-03
2.494148997808e-03
-9.823126526093e-04
1.572702348988e-03
2.136799529633e-04
2.371383985153e-03
1.332509750388e-03
3.834039195125e-03
3.974614403998e-03

SCALARS node_materi_strain_total_size_dev_sd_ept float
LOOKUP_TABLE default
7.453513040139e-04
1.147231683611e-02
6.202505304523e-03
1.366426571145e-02
4.910234265686e-04
3.978834715777e-04
6.895404337127e-04
1.090809830441e-03
1.470103912908e-03
1.812721301601e-03
2.131563804934e-03
2.431031868270e-03
2.718322702964e-03
3.006105517525e-03
3.306016900700e-03
3.601359576879e-03
3.879285599662e-03
4.196795425468e-03
4.540271447023e-03
4.888582067467e-03
5.252957967156e-03
5.630028289015e-03
5.990078660669e-03
1.365764750330e-02
1.364438896721e-02
1.364632577834e-02
1.363747049360e-02
1.362975592507e-02
1.362254276243e-02
1.360623800134e-02
1.357297339401e-02
1.354377213329e-02
1.348794233406e-02
1.343534262781e-02
1.335713480809e-02
1.325694482130e-02
1.312666567780e-02
1.298458607051e-02
1.279094334930e-02
1.258448878187e-02
1.234481020118e-02
1.207817212339e-02
1.178468261109e-02
1.145193024642e-02
1.110496885250e-02
1.072828971644e-02
1.033496449711e-02
9.936469799091e-03
9.530634830977e-03
9.118581821416e-03
8.703995067360e-03
8.297487976834e-03
7.943747722240e-03
7.564938145735e-03
7.201900514671e-03
6.885425746207e-03
6.649664175912e-03
6.442388758070e-03
6.289731282580e-03
6.174458073818e-03
6.092316542061e-03
6.036038422255e-03
6.014312660523e-03
6.029081968066e-03
6.068079917585e-03
6.094247247376e-03
6.066844086914e-03
6.144169031829e-03
6.154177746140e-03
6.183212096094e-03
6.212691367746e-03
6.221532232292e-03
1.179229496865e-02
1.211548915396e-02
1.241130527364e-02
1.267695730967e-02
1.292084773252e-02
1.313516941760e-02
1.331877727412e-02
1.347002072506e-02
1.360719495162e-02
3.926167160047e-03
1.196812314139e-02
4.537366904500e-03
4.895370140088e-03
5.601156218922e-03
6.264082259245e-03
7.007479291225e-03
7.905476908771e-03
8.910581825967e-03
1.009682122375e-02
1.168149506092e-02
1.127610292890e-02
1.142548202331e-02
1.144018009883e-02
1.144260613569e-02
1.144133549607e-02
1.149290366737e-02
1.145652041200e-02
1.145808970932e-02
1.146701069422e-02
1.149247870605e-02
1.150986952875e-02
1.153288897511e-02
1.157549265151e-02
1.164104483201e-02
1.175300331640e-02
2.996446662638e-03
2.756982145080e-03
2.836907371840e-03
2.836772581701e-03
2.885067131653e-03
2.003282558855e-03
8.040069953526e-04
2.209314885494e-04
2.091198680083e-04
2.929903154649e-04
3.605349748178e-04
4.517000587012e-04
5.398615169502e-04
6.182205252826e-04
6.319439089699e-04
6.460344322111e-04
6.711812884098e-04
7.172635854836e-04
7.581057162668e-04
1.182033586611e-02
1.147530628934e-02
1.135563911116e-02
1.128233020221e-02
1.125476483561e-02
1.124632902083e-02
1.124790128176e-02
1.125574340133e-02
1.126215572513e-02
1.126868522663e-02
1.127259791926e-02
1.127561959519e-02
1.127852517944e-02
1.127546579382e-02
1.127591001725e-02
1.126299954839e-02
4.763545425349e-03
4.655043922571e-03
5.222287140855e-03
5.976111343902e-03
6.680501533387e-03
7.481699195302e-03
8.397109156120e-03
9.464979274819e-03
1.091960558506e-02
1.198358456873e-02
4.771056356038e-03
6.400549091991e-03
4.053728271020e-04
3.197239571617e-03
5.772450072248e-03
6.059442472449e-03
3.159257863496e-03
7.709660410444e-03
7.589757170619e-03
9.444816150868e-03
9.764483552799e-03
5.873691466959e-03
3.704666905198e-04
1.112175228630e-02
1.192274317491e-02
1.989838737639e-03
3.975839584124e-03
1.214771766507e-02
1.309235615652e-02
1.362025367798e-02
1.358202991862e-02
1.343805562875e-02
1.213302178166e-02
1.191742118385e-02
1.185098753201e-02
1.280731256467e-02
5.967027755777e-03
3.071172730974e-03
4.821319903557e-04
5.049003477627e-03
1.175530634494e-02
8.940579225353e-04
1.268264536206e-02
8.620405275259e-03
1.031769931773e-02
6.985447211789e-03
6.037515654831e-03
2.014864162069e-03
1.199861775528e-02
5.691540340447e-03
1.323077543548e-02
2.253630275443e-04
2.575560205536e-03
1.363861629730e-02
6.740918760042e-03
5.368820253453e-03
8.579697318517e-03
1.115553139232e-02
4.686280741848e-03
1.229125867910e-02
6.093029156603e-03
5.554563930539e-04
1.352899232019e-02
1.215741298075e-02
1.200062400391e-02
1.230279666412e-02
1.209080493494e-02
1.240930218936e-02
1.218173130007e-02
1.179032121060e-02
1.188874401276e-02
1.142725202307e-02
1.250332661090e-02
1.154641885676e-02
1.103610170135e-02
1.117473393472e-02
1.063304819007e-02
1.047161068962e-02
1.004471517786e-02
9.869224721973e-03
9.422031093662e-03
9.621090641214e-03
8.979510229663e-03
8.773307517997e-03
8.320705876689e-03
8.114592653975e-03
7.655059082783e-03
7.454061460747e-03
6.992214527354e-03
7.212840031145e-03
6.548683645441e-03
6.343500892015e-03
5.897885826586e-03
5.714552823457e-03
5.265476816687e-03
5.475339017281e-03
4.842148932081e-03
4.657198615828e-03
4.235695198738e-03
4.087586703406e-03
3.669749319487e-03
3.575880340628e-03
3.159998928072e-03
3.285366983963e-03
2.783574688715e-03
2.741605080611e-03
2.383554612246e-03
2.462534087416e-03
2.089009910465e-03
2.214291994871e-03
1.875838434462e-03
1.883248646227e-03
1.713700312719e-03
1.762802590759e-03
1.645570538747e-03
1.742070816792e-03
1.700330122509e-03
1.684310193594e-03
1.750455356416e-03
1.865931068587e-03
1.901064065961e-03
1.881721880027e-03
2.007378987381e-03
2.073444482977e-03
2.146212083586e-03
2.171039237575e-03
2.274160768365e-03
2.375493441668e-03
2.262063512478e-03
2.356267435792e-03
2.333076572262e-03
2.400167383936e-03
5.084695794060e-03
2.345074891788e-03
2.349206057750e-03
2.395441827780e-03
2.511535589676e-03
2.295261506297e-03
2.340583356322e-03
2.189831960321e-03
4.018833910533e-03
9.206435672434e-03
2.237877825045e-03
2.034336432952e-03
2.012789239208e-03
1.792590229293e-03
1.264916597099e-02
1.275657522719e-02
1.284687920274e-02
1.297134412529e-02
1.301683232052e-02
1.839068185261e-03
1.166088228098e-02
1.285361042381e-02
8.589096841024e-03
6.178844395415e-03
2.678402822948e-03
2.424825626045e-03
2.321128328630e-03
2.537081378974e-03
2.309725292821e-03
2.570861067524e-03
2.556687638210e-03
2.852844359223e-03
2.894015500729e-03
3.207562129310e-03
3.153995571529e-03
3.521234005560e-03
3.452693487206e-03
3.301438034271e-03
2.987817260624e-03
3.828152230387e-03
3.743966069339e-03
4.124522592179e-03
4.024000757441e-03
3.672137054868e-03
3.931151448094e-03
3.603852163515e-03
2.484208579771e-03
3.003937058186e-03
2.860105316078e-03
3.410193557338e-03
3.311186458865e-03
3.879287443180e-03
3.818925502521e-03
3.292841394903e-03
1.079173328659e-02
2.460094864442e-03
2.834724365730e-03
2.691397647969e-03
3.062641744074e-03
3.063113349105e-03
3.414556913261e-03
3.557778499465e-03
3.252858220378e-03
3.875642927096e-03
3.578474700371e-03
4.248573376454e-03
3.960769906472e-03
6.794016794111e-03
4.010682370821e-03
4.495366566097e-03
4.644201825887e-03
1.779321052634e-03
4.289775709101e-03
3.450273121140e-03
3.148371564217e-03
3.836376231061e-03
1.545236633279e-03
3.856516475952e-03
3.793185428420e-03
1.314202238805e-02
1.315453363711e-02
3.663942183135e-03
1.617469433246e-03
3.937050424486e-03
4.393129346022e-03
4.176590739560e-03
4.538135340810e-03
3.125246316113e-03
5.144554953114e-03
5.298503373187e-03
3.272049934657e-03
3.605640462169e-03
4.155380024396e-03
3.785017025992e-03
3.253897410627e-03
3.414448047832e-03
3.758170970608e-03
3.406075319822e-03
3.071648967968e-03
3.045799065363e-03
3.141556770247e-03
2.828237776475e-03
4.673335413847e-03
4.557866306768e-03
1.032049290259e-02
3.959049004137e-03
4.375704059659e-03
1.327914105773e-02
1.326666845098e-02
1.310075134090e-02
1.320136322275e-02
1.335485819868e-02
1.328575051762e-02
1.309417506012e-02
1.318191395648e-02
1.295538539664e-02
1.305183331526e-02
1.325942353204e-02
1.313785094406e-02
1.290363754438e-02
1.300181735837e-02
1.274577847228e-02
1.285554141296e-02
1.309164049517e-02
1.289646411590e-03
3.354407771195e-03
3.929740680230e-03
2.434646675060e-03
2.665859666094e-03
2.757638880453e-03
2.915802363754e-03
1.295759017309e-02
1.317567086361e-02
4.162474701442e-03
4.187739268314e-03
1.323476509420e-02
4.407770346252e-03
4.065071954468e-03
5.578378659616e-03
6.052047782548e-03
5.488216355872e-03
5.961825732657e-03
6.533452042365e-03
5.442911507029e-03
2.686680370566e-03
1.332570692892e-02
2.034712116180e-03
1.804307255169e-03
4.770989997083e-03
2.832857000095e-03
7.469998794078e-03
7.080333536168e-03
7.765530198726e-03
7.408700506948e-03
8.101316787901e-03
7.783006005682e-03
7.092068109003e-03
5.816962629265e-03
7.514015527723e-03
1.270211664264e-02
4.200441521135e-03
2.773695090360e-03
1.204949457563e-03
2.670241364670e-03
1.375594725101e-03
1.711705514647e-03
4.218838478510e-03
8.484599667679e-03
8.784198917003e-03
6.450706179854e-03
7.013361972605e-03
5.694392458934e-03
1.284596539434e-02
1.284938853235e-02
1.267318576158e-02
9.729813638625e-04
2.978053568430e-03
1.342601972476e-02
3.895747127034e-03
4.334695720636e-03
4.477186327217e-03
4.418399211593e-03
1.305297936767e-02
1.325178386952e-02
2.994044420137e-03
3.175350161508e-03
3.951732428669e-03
2.460349624937e-03
1.335290250154e-02
2.949080937226e-03
2.459934187472e-03
2.811931058842e-03
4.447963702510e-03
4.382002659518e-03
2.687502818256e-03
2.562819499005e-03
1.490560769606e-03
4.547834984649e-03
1.345860413385e-02
6.822788834642e-03
6.405451702509e-03
7.287427698039e-03
2.142973566818e-03
4.514231356770e-03
4.624461814609e-03
9.163952220943e-03
9.446132894097e-03
4.144079258053e-03
4.603590081602e-03
4.779778884165e-03
5.080218993368e-03
1.131387145375e-02
4.506752644469e-03
9.707924360637e-03
1.017491373494e-02
9.553342823909e-03
7.133216148274e-03
7.616784364344e-03
3.248850920102e-03
3.224931560578e-03
2.818516435245e-03
3.357993681830e-03
2.275243580305e-03
1.341743294663e-02
1.346779753016e-02
1.262437164878e-02
1.244737644176e-02
1.463053274156e-03
1.466979152560e-03
2.606742412281e-03
4.263414527004e-03
1.336154237813e-02
1.329404317090e-02
1.313899234993e-02
4.305060729330e-03
2.362002013748e-03
2.380323799210e-03
4.548880530513e-03
5.735479303711e-03
1.060554802708e-03
9.834459642919e-03
4.988757620222e-03
5.149026949097e-03
6.369872438532e-03
1.160726137024e-02
5.385077000787e-03
4.734294069685e-03
1.003139271574e-02
9.401150127134e-03
8.911324869700e-03
8.753551562541e-03
2.492835095067e-03
2.553870187428e-03
8.969560289573e-03
7.992211306068e-03
9.810685734690e-03
1.009296808801e-02
6.282357123738e-03
5.614814959572e-03
1.816017412280e-03
7.495929152399e-03
1.351974846442e-02
1.062851605750e-02
4.802475433194e-03
4.575298537304e-03
4.323997348807e-03
4.460175818478e-03
1.341765498547e-02
5.222312629436e-03
5.531785263483e-03
4.948064153628e-03
5.799162648139e-03
1.173139149675e-02
5.363869031683e-03
7.769300678510e-03
1.349864570119e-02
5.082291140814e-03
5.011891662809e-03
3.709026026811e-03
1.331682972740e-02
1.348437240211e-02
1.253992205432e-02
1.233424996608e-02
1.272078994380e-02
4.420715698280e-03
4.450930257236e-03
1.338504567171e-02
2.184733350790e-03
2.322225185622e-03
2.267285001266e-03
2.361472126402e-03
3.049515133443e-03
2.850863573114e-03
9.459315670859e-03
1.007862882571e-02
8.148115798181e-03
2.630729448718e-03
2.195151329860e-03
2.050700703873e-03
1.352055881486e-02
1.356442658265e-02
2.342213425614e-03
2.502478873495e-03
2.370640710592e-03
1.352177312938e-02
5.534084283377e-03
5.315428717122e-03
1.010840297274e-03
1.483167498219e-03
4.562877940661e-03
4.477321690101e-03
1.316961250060e-02
1.299633306956e-02
1.331326414836e-02
1.583551944020e-03
6.154653219069e-03
4.927933529613e-03
4.725188280218e-03
5.250847421101e-03
6.483264119028e-03
7.028204266720e-03
7.822538943094e-03
4.083479708200e-03
1.342463230175e-02
1.228533631432e-02
3.701605914375e-03
1.209591058067e-02
1.226785070272e-02
1.189796244403e-02
1.232731619368e-03
1.233561505638e-02
1.258695078790e-02
8.270597007684e-04
1.355381500165e-02
6.084337551106e-04
7.004903591901e-04
5.092903869095e-03
4.869465323114e-03
5.362434960319e-03
5.142123703766e-03
4.684638458057e-03
4.976352030714e-03
1.211710044797e-02
5.478481533122e-03
5.258714326359e-03
5.746510862903e-03
9.252262578382e-03
5.470299223463e-03
5.922619846575e-03
6.031516066252e-03
1.050873471906e-02
1.066953775188e-02
4.834682854574e-03
4.482101127557e-03
1.207482775388e-02
1.203821735522e-02
1.233030824750e-02
1.227515014614e-02
1.254861301743e-02
1.248889559746e-02
1.274826368857e-02
8.606944190228e-03
5.338900039969e-03
1.053509161142e-02
6.230653701738e-03
5.555646144999e-03
8.101062115844e-03
8.008963127290e-03
5.175995868679e-03
4.039884062182e-03
1.351392567756e-02
3.719341564047e-03
4.193892118114e-03
4.483892571274e-03
8.260189229422e-03
5.921678109399e-03
6.421182810613e-03
3.141356390774e-03
1.529945806905e-03
4.727981440782e-03
1.280193542731e-02
4.785962715601e-03
4.690495313105e-03
3.583076903678e-03
7.281617382811e-03
4.578512952423e-03
4.991599641080e-03
1.089728146029e-02
1.169896734098e-02
1.119890614902e-02
3.144903520730e-03
6.939058988194e-03
6.919048073177e-03
9.237689700001e-03
1.293282605610e-02
1.275050834404e-02
1.280333494152e-02
1.253190821031e-02
1.244788740776e-02
1.218976831458e-02
1.229838274513e-02
1.191691477589e-02
1.210432099078e-02
1.162656186007e-02
1.145667402699e-02
1.115033313055e-02
1.133998522475e-02
1.096172391966e-02
6.927339403934e-03
4.533956228155e-03
4.264771223973e-03
4.624633740462e-03
7.933277136162e-03
1.242013424323e-02
1.293559331488e-02
3.469128590834e-03
1.072981598661e-02
1.076645248211e-02
4.092782813722e-03
9.889677097929e-03
1.267602955082e-02
1.236115364649e-02
1.259182233128e-02
1.324474243162e-02
1.287711400383e-02
8.218726489253e-03
3.583856041399e-03
3.819098197586e-03
3.510130375272e-03
1.177678459997e-02
6.672040788454e-03
5.894824041818e-03
5.669943362753e-03
5.147367042696e-03
6.182977243029e-03
1.184465308099e-02
1.151312753192e-02
2.944726973571e-03
2.719560761667e-03
2.262006226498e-03
2.450296688700e-03
2.982971548855e-03
2.684139282380e-03
2.210844102532e-03
2.955972921571e-03
1.035923218051e-02
5.916952099944e-03
2.588447607900e-03
2.301465876254e-03
2.021956539011e-03
2.654899425512e-03
2.662643449968e-03
2.859721577374e-03
2.613735297882e-03
6.721196004361e-03
5.831079341682e-03
2.373038900219e-03
2.493767423757e-03
1.207858253414e-02
1.242574418203e-02
1.244929433000e-02
1.266753824316e-02
1.242181858416e-02
3.251407437052e-03
3.449531467993e-03
3.352663057537e-03
3.639965599443e-03
3.515798280532e-03
3.250577691945e-03
3.816509819497e-03
3.652058263725e-03
1.195640891123e-02
2.931233938135e-03
3.384662885261e-03
2.528598400323e-03
3.431767069959e-03
3.995213201120e-03
3.811582748572e-03
4.317271442382e-03
4.025749318615e-03
1.164126968143e-03
1.822320778423e-03
6.654016393502e-04
1.312388689888e-03
2.230051406970e-03
1.884473997418e-03
5.955696447879e-03
2.856821613974e-03
2.714101454690e-03
2.444309752429e-03
2.578334382775e-03
2.961743213949e-03
2.289783390803e-03
2.181839401255e-03
5.160020380948e-04
3.602147224976e-04
3.688429142862e-04
5.508822702981e-04
5.566294189286e-04
3.552902395463e-04
3.485803108195e-04
4.472235982813e-04
3.564094733909e-04
6.427768109035e-04
4.168845324479e-04
1.303750067650e-02
1.315546212364e-02
5.745379834544e-03
1.190879716309e-02
2.724386504094e-04
1.360994458097e-02
1.360766841089e-02
1.361670682320e-02
5.424268793209e-03
5.592053478819e-03
1.360818591074e-02
2.186047672996e-03
1.261795596493e-02
1.343898289964e-02
4.251466102193e-03
2.511059255045e-03
4.278127367378e-03
3.402566560903e-03
4.918568354567e-03
3.840307310657e-03
4.407545914997e-03
5.428877960428e-03
1.135268379252e-03
1.279373184973e-02
1.258317231407e-02
1.321557948571e-02
2.094099086289e-03
3.088023949325e-03
1.493281554400e-03
9.651369716762e-03
9.072376969442e-03
2.074730417966e-03
2.489350418303e-03
2.301296137880e-03
2.735313604623e-03
5.110153023056e-03
2.443811363369e-03
3.620142706925e-03
1.328686106496e-02
2.662669157964e-04
3.761790596863e-03
2.845652009781e-03
1.299390375975e-02
4.400973624600e-03
3.489746797074e-03
1.335674284935e-02
1.339856879480e-02
1.275164622112e-02
1.116448770874e-03
1.248526519783e-02
4.815592183964e-03
1.306717820537e-02
1.915553577511e-03
2.056090781284e-03
6.806285657159e-03
1.160836094319e-02
1.350357774816e-02
4.452340008276e-03
4.436341546637e-03
2.802467930743e-03
2.016519683788e-03
4.392165066820e-03
2.951009246429e-03
1.348371858847e-02
8.445463162980e-03
2.137854117594e-03
1.338212978253e-02
1.817071941878e-03
5.032513749777e-03
8.421988206894e-03
7.885125537582e-03
1.022782544671e-02
6.127727790408e-03
4.143400747080e-03
4.079632870014e-03
4.477667735712e-03
4.971828657740e-03
1.298048148687e-02
8.196258434336e-03
1.356319157160e-02
6.654224954440e-03
4.242530633068e-03
1.345022479686e-02
2.642768608248e-03
1.317168411381e-03
4.441443087416e-03
2.740218928631e-03
3.849855782523e-03
2.853492888209e-03
1.301453051972e-02
4.536014489940e-03
3.387645197719e-03
4.605339249006e-03
1.109873188896e-02
4.816380822402e-03
2.001218292003e-03
4.967110614775e-03
3.372343908975e-03
9.179266943440e-03
8.608952923738e-03
5.085198512271e-03
3.502377267584e-03
3.691464872998e-03
1.174768752252e-02
5.567071452934e-03
4.101730727603e-03
6.402145351262e-03
1.760646124410e-03
1.045688726901e-02
3.106587833121e-03
8.552686187694e-03
1.335149610783e-02
4.542615659884e-03
1.227535984937e-02
3.084281534282e-03
4.836125596421e-03
5.812909459545e-04
9.910544106363e-03
3.310401996018e-03
2.451871722788e-03
1.863943986603e-03
6.968123261978e-03
3.532320172546e-03
2.084783861701e-03
3.745670842753e-03
9.138673337247e-03
1.198879659567e-02
3.949165992894e-03
8.812025778809e-03
7.558489295966e-04
6.045496428544e-03
5.205395603468e-03
2.320020150227e-03
2.052232584610e-03
1.208559829359e-02
8.048319635445e-03
2.414955403506e-03
9.107930053763e-03
5.741702778886e-03
4.109763498367e-03
2.868449852868e-03
7.476078384900e-03
2.237789189887e-03
2.114577560674e-03
1.873953843617e-03
9.755982229417e-03
8.739042929251e-04
1.131189204443e-02
1.993517347342e-03
2.026568042348e-03
5.969634052259e-03
1.256754131884e-02
1.908558386756e-03
1.666749039808e-03
2.131928552624e-03
4.438492946360e-03
2.067627827704e-03
2.247721909679e-03
1.354871981099e-02
2.222506658530e-03
1.362755665300e-02
6.019814651213e-03
1.198217959285e-02
7.210740242566e-03
2.893637187849e-03
6.372111544476e-03
2.415426212023e-03
1.042114225915e-02
1.200453381827e-02
2.372130311818e-03
1.175828580076e-02
9.044307247990e-03
1.294091543565e-02
4.972408650701e-03
5.497167151126e-03
1.338778190939e-02
1.176085689151e-02
9.833578191266e-04
4.343019736656e-03
6.383103768859e-03
5.635732010919e-03
5.034188840151e-03
2.105521219588e-03
2.768413460954e-03
5.714062474090e-03
6.119156976783e-03
1.221644785966e-02
6.622787973510e-03
5.030974164512e-03
1.347012073105e-02
7.805825950035e-03
5.833488791314e-03
7.144976520907e-03
4.656932330604e-03
1.265231521124e-02
1.009685854230e-02
1.313042671751e-02
5.924396168233e-03
1.227801096478e-02
1.354339802310e-02
4.484065715162e-03
1.353324828464e-02
1.064393884339e-02
1.242821030932e-02
1.253151910985e-02
5.749068122327e-03
1.243966333105e-02
4.617505418506e-03
1.294844054465e-02
2.564146204020e-03
4.075371503870e-03
5.297230077853e-03
1.087651180877e-02
5.666645809810e-03
5.290743426548e-04
5.013336825130e-04
5.360559380447e-03
1.106419813074e-02
4.105003987753e-03
1.355610040817e-02
4.545665560192e-03
1.176249630016e-02
3.653761836642e-04
5.967139497108e-03
1.357505832097e-02
2.826459986345e-03
1.217712566480e-02
1.897807794332e-03
8.567792593825e-03
1.684974480051e-03
1.357892489929e-02
5.503939087608e-03
1.318053651121e-02
7.550996513188e-03
3.816197510928e-03
8.380964476071e-03
5.094188957425e-03
1.173821925221e-02
1.281128535631e-02
2.336661619923e-03
9.824400512409e-04
1.363655694962e-02
6.250531822514e-04
1.169197417399e-02
6.111271816974e-03
8.186345508618e-04
1.221561813130e-02
1.144982135168e-02
3.463271347619e-03
1.329562417619e-02
3.328624053160e-03
2.934896138598e-03
1.271435149639e-02
7.529127294056e-03
1.341384191359e-02
1.257197623545e-02
4.491825899149e-03
1.108904102140e-02
3.022892310805e-03
9.566589554269e-03
5.520601365435e-03
4.481626941852e-03
3.723062633040e-03
3.674760455546e-04
5.532832497671e-03
3.163502307216e-03
1.180400043750e-02
1.129937315746e-02


CELL_DATA 1956

SCALARS element_number int
LOOKUP_TABLE default
407
408
409
410
411
412
413
414
415
416
417
418
419
420
421
422
423
424
425
426
427
428
429
430
431
432
433
434
435
436
437
438
439
440
441
442
443
444
445
446
447
448
449
450
451
452
453
454
455
456
457
458
459
460
461
462
463
464
465
466
467
468
469
470
471
472
473
474
475
476
477
478
479
480
481
482
483
484
485
486
487
488
489
490
491
492
493
494
495
496
497
498
499
500
501
502
503
504
505
506
507
508
509
510
511
512
513
514
515
516
517
518
519
520
521
522
523
524
525
526
527
528
529
530
531
532
533
534
535
536
537
538
539
540
541
542
543
544
545
546
547
548
549
550
551
552
553
554
555
556
557
558
559
560
561
562
563
564
565
566
567
568
569
570
571
572
573
574
575
576
577
578
579
580
581
582
583
584
585
586
587
588
589
590
591
592
593
594
595
596
597
598
599
600
601
602
603
604
605
606
607
608
609
610
611
612
613
614
615
616
617
618
619
620
621
622
623
624
625
626
627
628
629
630
631
632
633
634
635
636
637
638
639
640
641
642
643
644
645
646
647
648
649
650
651
652
653
654
655
656
657
658
659
660
661
662
663
664
665
666
667
668
669
670
671
672
673
674
675
676
677
678
679
680
681
682
683
684
685
686
687
688
689
690
691
692
693
694
695
696
697
698
699
700
701
702
703
704
705
706
707
708
709
710
711
712
713
714
715
716
717
718
719
720
721
722
723
724
725
726
727
728
729
730
731
732
733
734
735
736
737
738
739
740
741
742
743
744
745
746
747
748
749
750
751
752
753
754
755
756
757
758
759
760
761
762
763
764
765
766
767
768
769
770
771
772
773
774
775
776
777
778
779
780
781
782
783
784
785
786
787
788
789
790
791
792
793
794
795
796
797
798
799
800
801
802
803
804
805
806
807
808
809
810
811
812
813
814
815
816
817
818
819
820
821
822
823
824
825
826
827
828
829
830
831
832
833
834
835
836
837
838
839
840
841
842
843
844
845
846
847
848
849
850
851
852
853
854
855
856
857
858
859
860
861
862
863
864
865
866
867
868
869
870
871
872
873
874
875
876
877
878
879
880
881
882
883
884
885
886
887
888
889
890
891
892
893
894
895
896
897
898
899
900
901
902
903
904
905
906
907
908
909
910
911
912
913
914
915
916
917
918
919
920
921
922
923
924
925
926
927
928
929
930
931
932
933
934
935
936
937
938
939
940
941
942
943
944
945
946
947
948
949
950
951
952
953
954
955
956
957
958
959
960
961
962
963
964
965
966
967
968
969
970
971
972
973
974
975
976
977
978
979
980
981
982
983
984
985
986
987
988
989
990
991
992
993
994
995
996
997
998
999
1000
1001
1002
1003
1004
1005
1006
1007
1008
1009
1010
1011
1012
1013
1014
1015
1016
1017
1018
1019
1020
1021
1022
1023
1024
1025
1026
1027
1028
1029
1030
1031
1032
1033
1034
1035
1036
1037
1038
1039
1040
1041
1042
1043
1044
1045
1046
1047
1048
1049
1050
1051
1052
1053
1054
1055
1056
1057
1058
1059
1060
1061
1062
1063
1064
1065
1066
1067
1068
1069
1070
1071
1072
1073
1074
1075
1076
1077
1078
1079
1080
1081
1082
1083
1084
1085
1086
1087
1088
1089
1090
1091
1092
1093
1094
1095
1096
1097
1098
1099
1100
1101
1102
1103
1104
1105
1106
1107
1108
1109
1110
1111
1112
1113
1114
1115
1116
1117
1118
1119
1120
1121
1122
1123
1124
1125
1126
1127
1128
1129
1130
1131
1132
1133
1134
1135
1136
1137
1138
1139
1140
1141
1142
1143
1144
1145
1146
1147
1148
1149
1150
1151
1152
1153
1154
1155
1156
1157
1158
1159
1160
1161
1162
1163
1164
1165
1166
1167
1168
1169
1170
1171
1172
1173
1174
1175
1176
1177
1178
1179
1180
1181
1182
1183
1184
1185
1186
1187
1188
1189
1190
1191
1192
1193
1194
1195
1196
1197
1198
1199
1200
1201
1202
1203
1204
1205
1206
1207
1208
1209
1210
1211
1212
1213
1214
1215
1216
1217
1218
1219
1220
1221
1222
1223
1224
1225
1226
1227
1228
1229
1230
1231
1232
1233
1234
1235
1236
1237
1238
1239
1240
1241
1242
1243
1244
1245
1246
1247
1248
1249
1250
1251
1252
1253
1254
1255
1256
1257
1258
1259
1260
1261
1262
1263
1264
1265
1266
1267
1268
1269
1270
1271
1272
1273
1274
1275
1276
1277
1278
1279
1280
1281
1282
1283
1284
1285
1286
1287
1288
1289
1290
1291
1292
1293
1294
1295
1296
1297
1298
1299
1300
1301
1302
1303
1304
1305
1306
1307
1308
1309
1310
1311
1312
1313
1314
1315
1316
1317
1318
1319
1320
1321
1322
1323
1324
1325
1326
1327
1328
1329
1330
1331
1332
1333
1334
1335
1336
1337
1338
1339
1340
1341
1342
1343
1344
1345
1346
1347
1348
1349
1350
1351
1352
1353
1354
1355
1356
1357
1358
1359
1360
1361
1362
1363
1364
1365
1366
1367
1368
1369
1370
1371
1372
1373
1374
1375
1376
1377
1378
1379
1380
1381
1382
1383
1384
1385
1386
1387
1388
1389
1390
1391
1392
1393
1394
1395
1396
1397
1398
1399
1400
1401
1402
1403
1404
1405
1406
1407
1408
1409
1410
1411
1412
1413
1414
1415
1416
1417
1418
1419
1420
1421
1422
1423
1424
1425
1426
1427
1428
1429
1430
1431
1432
1433
1434
1435
1436
1437
1438
1439
1440
1441
1442
1443
1444
1445
1446
1447
1448
1449
1450
1451
1452
1453
1454
1455
1456
1457
1458
1459
1460
1461
1462
1463
1464
1465
1466
1467
1468
1469
1470
1471
1472
1473
1474
1475
1476
1477
1478
1479
1480
1481
1482
1483
1484
1485
1486
1487
1488
1489
1490
1491
1492
1493
1494
1495
1496
1497
1498
1499
1500
1501
1502
1503
1504
1505
1506
1507
1508
1509
1510
1511
1512
1513
1514
1515
1516
1517
1518
1519
1520
1521
1522
1523
1524
1525
1526
1527
1528
1529
1530
1531
1532
1533
1534
1535
1536
1537
1538
1539
1540
1541
1542
1543
1544
1545
1546
1547
1548
1549
1550
1551
1552
1553
1554
1555
1556
1557
1558
1559
1560
1561
1562
1563
1564
1565
1566
1567
1568
1569
1570
1571
1572
1573
1574
1575
1576
1577
1578
1579
1580
1581
1582
1583
1584
1585
1586
1587
1588
1589
1590
1591
1592
1593
1594
1595
1596
1597
1598
1599
1600
1601
1602
1603
1604
1605
1606
1607
1608
1609
1610
1611
1612
1613
1614
1615
1616
1617
1618
1619
1620
1621
1622
1623
1624
1625
1626
1627
1628
1629
1630
1631
1632
1633
1634
1635
1636
1637
1638
1639
1640
1641
1642
1643
1644
1645
1646
1647
1648
1649
1650
1651
1652
1653
1654
1655
1656
1657
1658
1659
1660
1661
1662
1663
1664
1665
1666
1667
1668
1669
1670
1671
1672
1673
1674
1675
1676
1677
1678
1679
1680
1681
1682
1683
1684
1685
1686
1687
1688
1689
1690
1691
1692
1693
1694
1695
1696
1697
1698
1699
1700
1701
1702
1703
1704
1705
1706
1707
1708
1709
1710
1711
1712
1713
1714
1715
1716
1717
1718
1719
1720
1721
1722
1723
1724
1725
1726
1727
1728
1729
1730
1731
1732
1733
1734
1735
1736
1737
1738
1739
1740
1741
1742
1743
1744
1745
1746
1747
1748
1749
1750
1751
1752
1753
1754
1755
1756
1757
1758
1759
1760
1761
1762
1763
1764
1765
1766
1767
1768
1769
1770
1771
1772
1773
1774
1775
1776
1777
1778
1779
1780
1781
1782
1783
1784
1785
1786
1787
1788
1789
1790
1791
1792
1793
1794
1795
1796
1797
1798
1799
1800
1801
1802
1803
1804
1805
1806
1807
1808
1809
1810
1811
1812
1813
1814
1815
1816
1817
1818
1819
1820
1821
1822
1823
1824
1825
1826
1827
1828
1829
1830
1831
1832
1833
1834
1835
1836
1837
1838
1839
1840
1841
1842
1843
1844
1845
1846
1847
1848
1849
1850
1851
1852
1853
1854
1855
1856
1857
1858
1859
1860
1861
1862
1863
1864
1865
1866
1867
1868
1869
1870
1871
1872
1873
1874
1875
1876
1877
1878
1879
1880
1881
1882
1883
1884
1885
1886
1887
1888
1889
1890
1891
1892
1893
1894
1895
1896
1897
1898
1899
1900
1901
1902
1903
1904
1905
1906
1907
1908
1909
1910
1911
1912
1913
1914
1915
1916
1917
1918
1919
1920
1921
1922
1923
1924
1925
1926
1927
1928
1929
1930
1931
1932
1933
1934
1935
1936
1937
1938
1939
1940
1941
1942
1943
1944
1945
1946
1947
1948
1949
1950
1951
1952
1953
1954
1955
1956
1957
1958
1959
1960
1961
1962
1963
1964
1965
1966
1967
1968
1969
1970
1971
1972
1973
1974
1975
1976
1977
1978
1979
1980
1981
1982
1983
1984
1985
1986
1987
1988
1989
1990
1991
1992
1993
1994
1995
1996
1997
1998
1999
2000
2001
2002
2003
2004
2005
2006
2007
2008
2009
2010
2011
2012
2013
2014
2015
2016
2017
2018
2019
2020
2021
2022
2023
2024
2025
2026
2027
2028
2029
2030
2031
2032
2033
2034
2035
2036
2037
2038
2039
2040
2041
2042
2043
2044
2045
2046
2047
2048
2049
2050
2051
2052
2053
2054
2055
2056
2057
2058
2059
2060
2061
2062
2063
2064
2065
2066
2067
2068
2069
2070
2071
2072
2073
2074
2075
2076
2077
2078
2079
2080
2081
2082
2083
2084
2085
2086
2087
2088
2089
2090
2091
2092
2093
2094
2095
2096
2097
2098
2099
2100
2101
2102
2103
2104
2105
2106
2107
2108
2109
2110
2111
2112
2113
2114
2115
2116
2117
2118
2119
2120
2121
2122
2123
2124
2125
2126
2127
2128
2129
2130
2131
2132
2133
2134
2135
2136
2137
2138
2139
2140
2141
2142
2143
2144
2145
2146
2147
2148
2149
2150
2151
2152
2153
2154
2155
2156
2157
2158
2159
2160
2161
2162
2163
2164
2165
2166
2167
2168
2169
2170
2171
2172
2173
2174
2175
2176
2177
2178
2179
2180
2181
2182
2183
2184
2185
2186
2187
2188
2189
2190
2191
2192
2193
2194
2195
2196
2197
2198
2199
2200
2201
2202
2203
2204
2205
2206
2207
2208
2209
2210
2211
2212
2213
2214
2215
2216
2217
2218
2219
2220
2221
2222
2223
2224
2225
2226
2227
2228
2229
2230
2231
2232
2233
2234
2235
2236
2237
2238
2239
2240
2241
2242
2243
2244
2245
2246
2247
2248
2249
2250
2251
2252
2253
2254
2255
2256
2257
2258
2259
2260
2261
2262
2263
2264
2265
2266
2267
2268
2269
2270
2271
2272
2273
2274
2275
2276
2277
2278
2279
2280
2281
2282
2283
2284
2285
2286
2287
2288
2289
2290
2291
2292
2293
2294
2295
2296
2297
2298
2299
2300
2301
2302
2303
2304
2305
2306
2307
2308
2309
2310
2311
2312
2313
2314
2315
2316
2317
2318
2319
2320
2321
2322
2323
2324
2325
2794
2795
2796
2797
2798
2799
2800
2801
2802
2803
2804
2805
2806
2807
2808
2809
2810
2811
2812
2813
2814
2815
2816
2817
2818
2819
2820
2821
2822
2823
2824
2825
2826
2827
2828
2829
2830

SCALARS element_group int
LOOKUP_TABLE default
0
0
0
0
0
0
0
0
0
0
0
0
0
0
0
0
0
0
0
0
0
0
0
0
0
0
0
0
0
0
0
0
0
0
0
0
0
0
0
0
0
0
0
0
0
0
0
0
0
0
0
0
0
0
0
0
0
0
0
0
0
0
0
0
0
0
0
0
0
0
0
0
0
0
0
0
0
0
0
0
0
0
0
0
0
0
0
0
0
0
0
0
0
0
0
0
0
0
0
0
0
0
0
0
0
0
0
0
0
0
0
0
0
0
0
0
0
0
0
0
0
0
0
0
0
0
0
0
0
0
0
0
0
0
0
0
0
0
0
0
0
0
0
0
0
0
0
0
0
0
0
0
0
0
0
0
0
0
0
0
0
0
0
0
0
0
0
0
0
0
0
0
0
0
0
0
0
0
0
0
0
0
0
0
0
0
0
0
0
0
0
0
0
0
0
0
0
0
0
0
0
0
0
0
0
0
0
0
0
0
0
0
0
0
0
0
0
0
0
0
0
0
0
0
0
0
0
0
0
0
0
0
0
0
0
0
0
0
0
0
0
0
0
0
0
0
0
0
0
0
0
0
0
0
0
0
0
0
0
0
0
0
0
0
0
0
0
0
0
0
0
0
0
0
0
0
0
0
0
0
0
0
0
0
0
0
0
0
0
0
0
0
0
0
0
0
0
0
0
0
0
0
0
0
0
0
0
0
0
0
0
0
0
0
0
0
0
0
0
0
0
0
0
0
0
0
0
0
0
0
0
0
0
0
0
0
0
0
0
0
0
0
0
0
0
0
0
0
0
0
0
0
0
0
0
0
0
0
0
0
0
0
0
0
0
0
0
0
0
0
0
0
0
0
0
0
0
0
0
0
0
0
0
0
0
0
0
0
0
0
0
0
0
0
0
0
0
0
0
0
0
0
0
0
0
0
0
0
0
0
0
0
0
0
0
0
0
0
0
0
0
0
0
0
0
0
0
0
0
0
0
0
0
0
0
0
0
0
0
0
0
0
0
0
0
0
0
0
0
0
0
0
0
0
0
0
0
0
0
0
0
0
0
0
0
0
0
0
0
0
0
0
0
0
0
0
0
0
0
0
0
0
0
0
0
0
0
0
0
0
0
0
0
0
0
0
0
0
0
0
0
0
0
0
0
0
0
0
0
0
0
0
0
0
0
0
0
0
0
0
0
0
0
0
0
0
0
0
0
0
0
0
0
0
0
0
0
0
0
0
0
0
0
0
0
0
0
0
0
0
0
0
0
0
0
0
0
0
0
0
0
0
0
0
0
0
0
0
0
0
0
0
0
0
0
0
0
0
0
0
0
0
0
0
0
0
0
0
0
0
0
0
0
0
0
0
0
0
0
0
0
0
0
0
0
0
0
0
0
0
0
0
0
0
0
0
0
0
0
0
0
0
0
0
0
0
0
0
0
0
0
0
0
0
0
0
0
0
0
0
0
0
0
0
0
0
0
0
0
0
0
0
0
0
0
0
0
0
0
0
0
0
0
0
0
0
0
0
0
0
0
0
0
0
0
0
0
0
0
0
0
0
0
0
0
0
0
0
0
0
0
0
0
0
0
0
0
0
0
0
0
0
0
0
0
0
0
0
0
0
0
0
0
0
0
0
0
0
0
0
0
0
0
0
0
0
0
0
0
0
0
0
0
0
0
0
0
0
0
0
0
0
0
0
0
0
0
0
0
0
0
0
0
0
0
0
0
0
0
0
0
0
0
0
0
0
0
0
0
0
0
0
0
0
0
0
0
0
0
0
0
0
0
0
0
0
0
0
0
0
0
0
0
0
0
0
0
0
0
0
0
0
0
0
0
0
0
0
0
0
0
0
0
0
0
0
0
0
0
0
0
0
0
0
0
0
0
0
0
0
0
0
0
0
0
0
0
0
0
0
0
0
0
0
0
0
0
0
0
0
0
0
0
0
0
0
0
0
0
0
0
0
0
0
0
0
0
0
0
0
0
0
0
0
0
0
0
0
0
0
0
0
0
0
0
0
0
0
0
0
0
0
0
0
0
0
0
0
0
0
0
0
0
0
0
0
0
0
0
0
0
0
0
0
0
0
0
0
0
0
0
0
0
0
0
0
0
0
0
0
0
0
0
0
0
0
0
0
0
0
0
0
0
0
0
0
0
0
0
0
0
0
0
0
0
0
0
0
0
0
0
0
0
0
0
0
0
0
0
0
0
0
0
0
0
0
0
0
0
0
0
0
0
0
0
0
0
0
0
0
0
0
0
0
0
0
0
0
0
0
0
0
0
0
0
0
0
0
0
0
0
0
0
0
0
0
0
0
0
0
0
0
0
0
0
0
0
0
0
0
0
0
0
0
0
0
0
0
0
0
0
0
0
0
0
0
0
0
0
0
0
0
0
0
0
0
0
0
0
0
0
0
0
0
0
0
0
0
0
0
0
0
0
0
0
0
0
0
0
0
0
0
0
0
0
0
0
0
0
0
0
0
0
0
0
0
0
0
0
0
0
0
0
0
0
0
0
0
0
0
0
0
0
0
0
0
0
0
0
0
0
0
0
0
0
0
0
0
0
0
0
0
0
0
0
0
0
0
0
0
0
0
0
0
0
0
0
0
0
0
0
0
0
0
0
0
0
0
0
0
0
0
0
0
0
0
0
0
0
0
0
0
0
0
0
0
0
0
0
0
0
0
0
0
0
0
0
0
0
0
0
0
0
0
0
0
0
0
0
0
0
0
0
0
0
0
0
0
0
0
0
0
0
0
0
0
0
0
0
0
0
0
0
0
0
0
0
0
0
0
0
0
0
0
0
0
0
0
0
0
0
0
0
0
0
0
0
0
0
0
0
0
0
0
0
0
0
0
0
0
0
0
0
0
0
0
0
0
0
0
0
0
0
0
0
0
0
0
0
0
0
0
0
0
0
0
0
0
0
0
0
0
0
0
0
0
0
0
0
0
0
0
0
0
0
0
0
0
0
0
0
0
0
0
0
0
0
0
0
0
0
0
0
0
0
0
0
0
0
0
0
0
0
0
0
0
0
0
0
0
0
0
0
0
0
0
0
0
0
0
0
0
0
0
0
0
0
0
0
0
0
0
0
0
0
0
0
0
0
0
0
0
0
0
0
0
0
0
0
0
0
0
0
0
0
0
0
0
0
0
0
0
0
0
0
0
0
0
0
0
0
0
0
0
0
0
0
0
0
0
0
0
0
0
0
0
0
0
0
0
0
0
0
0
0
0
0
0
0
0
0
0
0
0
0
0
0
0
0
0
0
0
0
0
0
0
0
0
0
0
0
0
0
0
0
0
0
0
0
0
0
0
0
0
0
0
0
0
0
0
0
0
0
0
0
0
0
0
0
0
0
0
0
0
0
0
0
0
0
0
0
0
0
0
0
0
0
0
0
0
0
0
0
0
0
0
0
0
0
0
0
0
0
0
0
0
0
0
0
0
0
0
0
0
0
0
0
0
0
0
0
0
0
0
0
0
0
0
0
0
0
0
0
0
0
0
0
0
0
0
0
0
0
0
0
0
0
0
0
0
0
0
0
0
0
0
0
0
0
0
0
0
0
0
0
0
0
0
0
0
0
0
0
0
0
0
0
0
0
0
0
0
0
0
0
0
0
0
0
0
0
0
0
0
0
0
0
0
0
0
0
0
0
0
0
0
0
0
0
0
0
0
0
0
0
0
0
0
0
0
0
0
0
0
0
0
0
0
0
0
0
0
0
0
0
0
0
0
0
0
0
0
0
0
0
0
0
0
0
0
0
0
0
0
0
0
0
0
0
0
0
0
0
0
0
0
0
0
0
0
0
0
0
0
0
0
0
0
0
0
0
0
0
0
0
0
0
0
0
0
0
0
0
0
0
0
0
0
0
0
0
0
0
0
0
0
0
0
0
0
0
0
0
0
0
0
0
0
0
0
0
0
0
0
0
0
0
0
0
0
0
0
0
0
0
0
0
0
0
0
0
0
0
0
0
0
0
0
0
0
0
0
0
0
0
0
0
0
0
0
0
0
0
0
0
0
0
0
0
0
0
0
0
0
0
0
0
0
0
0
0
0
0
0
0
0
0
0
0
0
0
0
0
0
0
0
0
0
0
0
0
0
0
0
0
0
0
0
0
0
0
0
0
0
0
0
0
0
0
0
0
0
0
0
0
0
0
0
0
0
0
0
0
0
0
0
0
0
0
0
0
0
0
0
0
0
0
0
0
0
0
0
0
0
0
0
0
0
0
0
0
0
0
0
0
0
0
0
0
0
0
0
0
0
0
0
0
0
0
0
0
0
0
0
0
0
0
0
0
0
0
0
0
0
0
0
0
0
0
0
0
0
0
0
0
0
0
0
0
0
0
0
0
0
0
0
0
0
0
0
0
0
0
0
0
0
0
0
0
0
0
0
0
0
0
0
0
0
0
0
0
0
0
0
0
0


VECTORS element_materi_velocity float
5.294781438294e-04 6.078709541431e-04 0.0 
5.691885949612e-04 4.945307525619e-04 0.0 
8.273398798115e-04 5.125059712923e-04 0.0 
1.380496762994e-04 1.491093561195e-03 0.0 
9.939887417407e-04 8.400667663068e-03 0.0 
3.172309436311e-04 -2.079296074941e-04 0.0 
7.675754703449e-04 8.379673158834e-03 0.0 
5.070331698904e-04 3.869341636162e-04 0.0 
8.415922945712e-04 8.419874149598e-03 0.0 
2.049556210875e-04 1.523510834215e-03 0.0 
3.591399190905e-05 -5.585883106773e-05 0.0 
4.321223498126e-04 3.850835042504e-04 0.0 
1.400922115923e-05 -1.401609285491e-08 0.0 
1.654875287353e-03 7.023553459476e-03 0.0 
1.145383866271e-05 8.072368173242e-07 0.0 
1.130565890886e-04 1.050841364120e-03 0.0 
1.215207642377e-03 8.563818196102e-03 0.0 
3.228809909538e-04 -2.269725672384e-04 0.0 
4.575073360044e-05 -1.950805888213e-04 0.0 
3.431437040842e-05 -1.890816720906e-04 0.0 
2.455769509698e-04 1.558771951397e-03 0.0 
7.131039093699e-04 9.749634113067e-04 0.0 
8.455870123008e-04 1.021033766461e-03 0.0 
2.412958324130e-04 4.987870112713e-06 0.0 
2.104924414097e-03 5.509156917216e-03 0.0 
3.895206317938e-05 -4.793118636257e-05 0.0 
1.626335859965e-03 7.693788198450e-03 0.0 
5.359988932324e-04 1.240650925995e-04 0.0 
2.224448772951e-03 5.268979749325e-03 0.0 
1.946980393277e-04 7.083944527713e-06 0.0 
3.328166609929e-04 -2.974206367696e-04 0.0 
2.288941989332e-04 -2.813696377707e-04 0.0 
9.845230405297e-04 6.613273991435e-04 0.0 
1.036022628047e-05 -1.560601780763e-05 0.0 
8.268250561883e-05 4.203055714846e-07 0.0 
2.193726442205e-05 7.088100979248e-07 0.0 
1.995903288982e-05 6.697225838717e-07 0.0 
2.860873753659e-04 3.267536871938e-05 0.0 
6.233747470408e-04 9.351649368193e-03 0.0 
5.722755838201e-04 9.366611569387e-03 0.0 
1.346710005187e-03 1.811114144747e-03 0.0 
8.374868114165e-05 2.828685793933e-06 0.0 
3.739946471523e-04 1.860630134417e-04 0.0 
1.891059503554e-03 7.017783747774e-03 0.0 
7.127994488665e-05 2.120038700602e-03 0.0 
3.866620505776e-04 1.212947873151e-04 0.0 
3.186995212996e-04 -2.990737878347e-04 0.0 
8.186457198969e-05 1.797934811012e-03 0.0 
2.956595249247e-04 -3.040013995066e-04 0.0 
1.539833220824e-03 7.555131336866e-03 0.0 
1.056742180185e-03 1.358071650463e-03 0.0 
4.192030394576e-05 -1.816143162225e-04 0.0 
3.789789980008e-04 -2.897400152551e-04 0.0 
1.126146810464e-03 1.672567432880e-03 0.0 
7.647765295969e-04 7.409075193919e-04 0.0 
6.493515424836e-05 -1.618952217674e-04 0.0 
3.244224228113e-05 -1.756580758990e-04 0.0 
2.101944056096e-05 -1.610560234148e-05 0.0 
1.087345014921e-04 -2.188491522218e-04 0.0 
1.369590722971e-04 1.058120224166e-03 0.0 
2.881863716812e-04 -2.906914470746e-04 0.0 
6.367584747812e-04 1.003915738256e-04 0.0 
9.350039756544e-04 2.746109261532e-04 0.0 
3.610499562013e-04 -2.930004973736e-04 0.0 
2.296460810468e-05 -7.284792295473e-08 0.0 
8.779386634742e-04 1.277482414333e-03 0.0 
2.922633923761e-04 -2.843662302625e-04 0.0 
9.623928831558e-04 5.651163202614e-04 0.0 
2.808124623985e-04 -2.833209309625e-04 0.0 
6.373212307516e-04 2.321296772447e-04 0.0 
5.771534795983e-05 -4.097045575676e-05 0.0 
1.474682936948e-04 2.726284151621e-04 0.0 
7.016293902927e-04 1.569820540013e-04 0.0 
8.875125790921e-06 -2.217921012471e-04 0.0 
5.652793165959e-05 -1.547453081368e-04 0.0 
5.057701124867e-04 1.312845725161e-03 0.0 
9.249244435411e-04 8.658047378586e-04 0.0 
3.331269530083e-04 -2.330900347469e-05 0.0 
1.192735167207e-04 -2.188209055505e-04 0.0 
3.237964736252e-04 2.113031712816e-05 0.0 
2.926343892784e-04 -2.873758499283e-04 0.0 
1.188582173396e-03 8.348544033739e-03 0.0 
6.970967175843e-04 7.708667019140e-04 0.0 
5.807883124822e-04 7.482865280272e-04 0.0 
9.839776424535e-04 7.837074192199e-03 0.0 
9.042920790492e-04 7.825460877340e-03 0.0 
3.330764043501e-05 -3.359478927826e-05 0.0 
5.651194478511e-06 -2.038603330744e-05 0.0 
2.050992542201e-03 1.355029971831e-03 0.0 
1.068411165462e-03 8.335035653408e-03 0.0 
2.378170967932e-04 -2.836857016683e-04 0.0 
2.122662795591e-03 6.539618962250e-03 0.0 
2.014132645663e-04 4.264326945612e-03 0.0 
2.409354411724e-04 4.614169346888e-03 0.0 
2.928328326329e-04 4.973400612526e-04 0.0 
2.093656924541e-04 2.819037377933e-05 0.0 
1.319576827613e-03 8.254889892846e-03 0.0 
9.559942858804e-05 1.939827676684e-06 0.0 
1.343726351204e-04 6.786268673013e-03 0.0 
8.507347929457e-04 3.295049579651e-04 0.0 
9.305462057958e-04 8.903150843438e-03 0.0 
1.474341295414e-05 7.785915672764e-07 0.0 
9.442454370080e-04 5.068053057561e-05 0.0 
6.023032641219e-04 8.672157520965e-05 0.0 
6.907171317513e-04 5.695978596341e-06 0.0 
3.070447232960e-04 -3.026153629922e-04 0.0 
1.671834037054e-05 -4.250945234748e-06 0.0 
2.088034426514e-04 3.669903006580e-03 0.0 
2.914290915790e-04 -3.013329245868e-04 0.0 
2.772312093819e-05 7.532024657892e-07 0.0 
2.166377170454e-03 1.431231798827e-03 0.0 
1.375092171418e-05 -2.268211564583e-04 0.0 
9.975341466072e-04 -2.237191163751e-05 0.0 
2.218589899327e-03 4.686887266207e-03 0.0 
9.105229468329e-05 -1.361713109467e-04 0.0 
7.408243089364e-04 2.874568788584e-04 0.0 
9.069981781034e-04 1.888347072342e-04 0.0 
5.782375567604e-05 1.626285467655e-06 0.0 
1.679336204015e-04 7.205698113910e-03 0.0 
8.037216939890e-04 1.541883735786e-04 0.0 
2.446493003309e-04 -2.690459306945e-04 0.0 
2.146428182076e-03 6.446336866642e-03 0.0 
1.666531403829e-04 3.361499702169e-03 0.0 
7.882754428218e-04 8.650369284689e-05 0.0 
2.970727319744e-04 -1.218213432796e-04 0.0 
1.927722992425e-03 3.061217859577e-03 0.0 
8.053201758962e-05 -1.392444831981e-04 0.0 
1.787716037564e-03 2.907571273415e-03 0.0 
3.903487431803e-04 9.195898567024e-04 0.0 
3.231138539157e-04 -1.389596763036e-04 0.0 
5.472311835160e-05 -4.796513077526e-05 0.0 
1.086304565110e-04 1.476844288843e-03 0.0 
1.504146395565e-03 8.785344576241e-04 0.0 
1.689448775008e-03 2.422131691816e-03 0.0 
9.015428717485e-05 6.872937965846e-07 0.0 
9.585981156388e-06 6.138134955467e-08 0.0 
4.701814978278e-05 -3.401800584920e-05 0.0 
1.656911003011e-03 9.740453966918e-04 0.0 
1.319112098582e-04 6.374113947782e-06 0.0 
1.494589472330e-03 1.207024401867e-03 0.0 
2.916287722571e-04 1.066420310766e-03 0.0 
7.758831751628e-04 3.012193593358e-04 0.0 
1.771435346411e-03 6.834807010739e-03 0.0 
4.486079246169e-04 5.605259394387e-03 0.0 
1.414418531352e-03 9.754930390813e-04 0.0 
1.471374884030e-03 2.236642744878e-03 0.0 
1.711305477439e-03 8.693521926832e-04 0.0 
8.268076608977e-04 -1.898253231279e-06 0.0 
7.169518587166e-04 8.869721055480e-03 0.0 
9.548773248093e-04 -6.341529531305e-05 0.0 
2.196945841937e-04 -2.751211336523e-04 0.0 
1.850698969235e-04 8.119822812523e-03 0.0 
4.282376925568e-05 -2.023295483732e-04 0.0 
2.079681918542e-03 3.845780333891e-03 0.0 
1.043138885036e-04 5.371166424769e-06 0.0 
7.019256133564e-04 6.082378733380e-05 0.0 
2.487246649586e-05 -2.699694570530e-05 0.0 
4.244901694212e-04 2.232410559162e-04 0.0 
1.000185858190e-03 7.122461814942e-05 0.0 
4.247721625066e-04 8.552261696155e-03 0.0 
8.813116273374e-04 -8.603698573092e-05 0.0 
2.337451467121e-05 -1.165603546747e-05 0.0 
2.572033173835e-04 -2.738305029914e-04 0.0 
2.346991376907e-05 -4.384956653412e-06 0.0 
2.413226028578e-03 3.155119446341e-03 0.0 
3.174137967287e-05 2.727951250249e-07 0.0 
1.823345909531e-04 8.623345491707e-03 0.0 
7.469531195048e-04 -2.380488941505e-05 0.0 
2.076137463629e-03 4.571239164955e-03 0.0 
2.312409338948e-05 -5.750106840203e-05 0.0 
4.042529942771e-04 3.018750990059e-04 0.0 
8.492047981341e-04 -1.177553980984e-04 0.0 
4.010912161973e-04 5.073539296052e-03 0.0 
4.781857799848e-04 8.891883088851e-03 0.0 
8.740413329702e-04 -2.758154777113e-05 0.0 
1.957091283372e-03 3.677342910191e-03 0.0 
1.543384756347e-03 6.130966025196e-04 0.0 
9.021032062029e-05 -1.255230279962e-04 0.0 
4.118436959281e-04 9.137698790066e-05 0.0 
7.301523025899e-04 2.499974164903e-04 0.0 
6.660792342414e-04 3.408343172227e-04 0.0 
7.875212050684e-05 -1.189199125283e-04 0.0 
3.896023662111e-04 2.577392873880e-06 0.0 
1.383108363438e-03 1.327047616536e-03 0.0 
5.730004134176e-04 2.995859508441e-04 0.0 
2.363212359768e-03 4.124332824056e-03 0.0 
9.577657555431e-04 -2.307466668436e-06 0.0 
2.057160199154e-04 1.141884541577e-03 0.0 
2.238094760741e-03 1.966172698154e-03 0.0 
1.606359897726e-05 -7.462849934238e-06 0.0 
3.565909217783e-04 4.199436896479e-05 0.0 
7.588656760388e-04 -1.603000790554e-04 0.0 
2.075094245552e-03 1.502744695090e-03 0.0 
2.378190487263e-04 -1.928015499999e-04 0.0 
1.475060753866e-03 1.631328189894e-03 0.0 
3.959816235100e-04 -2.560315531313e-05 0.0 
1.505201419949e-04 -2.416134957082e-04 0.0 
1.013252970099e-03 8.419414723286e-04 0.0 
2.376575292859e-03 3.883565594480e-03 0.0 
3.355423605297e-04 -1.921210124564e-04 0.0 
4.223121117339e-04 -2.335253216800e-05 0.0 
2.247083438704e-03 6.046399230444e-03 0.0 
2.010419452267e-03 6.067592536093e-03 0.0 
1.798545561306e-04 5.427443431156e-06 0.0 
2.616891578703e-04 -2.160367342223e-04 0.0 
1.663326745017e-03 6.193793201040e-04 0.0 
2.389537207205e-03 2.410820185805e-03 0.0 
2.272502935137e-03 3.621512109070e-03 0.0 
2.513281393581e-03 3.251593133849e-03 0.0 
2.337925517849e-03 3.536070450097e-03 0.0 
9.740965124227e-04 -1.769480219211e-05 0.0 
1.713133005227e-03 7.265339638999e-04 0.0 
2.728244809725e-04 -2.148024458183e-04 0.0 
6.767514486110e-04 4.552245943777e-04 0.0 
8.801260119108e-04 4.394445782136e-04 0.0 
1.626347418850e-03 6.972478702060e-04 0.0 
2.093412070534e-03 1.821363608134e-03 0.0 
3.773446346073e-04 -2.157318225234e-04 0.0 
3.890880808960e-04 -3.977009546229e-05 0.0 
5.357717901603e-04 8.766193607044e-03 0.0 
7.850140131363e-04 -1.353286938254e-04 0.0 
3.763607563290e-04 -5.311478918988e-05 0.0 
1.909034716458e-04 -2.618207555526e-04 0.0 
2.219631685467e-03 3.146881541795e-03 0.0 
1.855887538965e-04 -2.627249888022e-04 0.0 
1.378828699154e-04 -2.342013258314e-04 0.0 
3.468213852488e-04 9.544399300730e-05 0.0 
2.544797682717e-04 -2.324431528798e-04 0.0 
2.072299833476e-03 2.876683561067e-03 0.0 
2.591346224839e-04 -2.426203039709e-04 0.0 
4.537176185613e-04 -5.919087931337e-05 0.0 
3.432688625445e-04 -2.916999843183e-04 0.0 
2.409188132207e-04 -2.605414290263e-04 0.0 
4.241120259267e-04 -8.269276004740e-06 0.0 
2.350421630716e-03 2.698710176937e-03 0.0 
2.744728195954e-05 -1.528851007179e-07 0.0 
2.521143027338e-04 -2.128062766092e-04 0.0 
5.498145840494e-04 -7.338947226086e-05 0.0 
8.800723533504e-04 -1.258604315259e-04 0.0 
1.185352984480e-03 1.192337788972e-03 0.0 
4.154771714840e-04 -3.840014135875e-05 0.0 
3.447406665272e-05 5.400648577834e-07 0.0 
2.359113305197e-03 2.300789053263e-03 0.0 
5.996585347279e-04 -1.962576206796e-04 0.0 
3.974539844478e-04 -1.148149175232e-05 0.0 
2.823378343985e-05 -4.051329477312e-05 0.0 
1.837013995965e-03 9.504013823054e-04 0.0 
2.399547769506e-03 3.168636596243e-03 0.0 
5.484764846542e-04 9.678089063392e-05 0.0 
8.441635245334e-04 -1.496243173383e-04 0.0 
5.011708572425e-04 -4.563063389394e-05 0.0 
2.582895363841e-03 2.902623415424e-03 0.0 
2.385133709376e-04 4.674497956183e-04 0.0 
1.581806846855e-03 4.877101593164e-04 0.0 
9.126781665496e-04 -1.199917663834e-04 0.0 
4.184203527834e-04 7.947224621853e-03 0.0 
2.926176922191e-04 -2.934838548721e-04 0.0 
2.544611636869e-03 3.726572320428e-03 0.0 
6.148176777395e-04 -1.746920012529e-04 0.0 
4.365332995976e-04 -2.248573429577e-04 0.0 
3.486869890003e-04 -2.939657333125e-04 0.0 
1.997844670429e-03 3.036072756528e-03 0.0 
2.476349117583e-03 2.486903118741e-03 0.0 
8.569215026096e-04 5.328252029320e-05 0.0 
1.827844096888e-03 2.717870901045e-03 0.0 
2.226703624115e-03 1.781705242365e-03 0.0 
2.041676791105e-03 1.239013841880e-03 0.0 
4.019395720185e-05 1.097560759565e-06 0.0 
8.976602674021e-04 -1.115381952385e-04 0.0 
2.231424854538e-03 1.556862254825e-03 0.0 
1.079443915135e-03 6.289880524391e-06 0.0 
9.254654505746e-04 -8.902545756612e-05 0.0 
5.001014894723e-04 -2.293868188231e-04 0.0 
1.880154590078e-03 7.220110974695e-03 0.0 
8.243270491397e-04 -1.691568103362e-04 0.0 
4.934895686616e-04 -2.643672534382e-04 0.0 
2.348990944874e-03 2.518067582879e-03 0.0 
2.485373884986e-04 -2.287335528435e-04 0.0 
2.597054748265e-03 3.735961268743e-03 0.0 
6.303180317674e-04 -2.048711517649e-04 0.0 
5.439470011196e-04 -1.104079869463e-04 0.0 
4.890117998189e-04 -2.435377506905e-04 0.0 
2.559588149846e-03 2.554770977748e-03 0.0 
2.411889386322e-04 -2.800282192807e-04 0.0 
1.044291474146e-03 6.274881160834e-04 0.0 
8.966625185713e-04 -7.925004355678e-05 0.0 
2.537288906098e-03 2.871266797380e-03 0.0 
2.026661776938e-03 6.601890807434e-03 0.0 
3.485394959742e-04 -2.386961150967e-04 0.0 
5.130338390224e-04 -2.617822620905e-04 0.0 
4.468037281042e-04 -2.724749888259e-04 0.0 
7.808877422710e-04 5.117867762618e-04 0.0 
2.436359894528e-03 2.923396412150e-03 0.0 
1.005877597394e-03 4.921327156943e-04 0.0 
7.751454301725e-04 -1.855318089822e-04 0.0 
7.871476322195e-04 -1.664906691408e-04 0.0 
3.741835636487e-04 -2.339050705221e-04 0.0 
1.105257582835e-03 -9.033957385417e-06 0.0 
3.767347768806e-04 -8.478446529655e-05 0.0 
3.957108811844e-04 3.614990500586e-04 0.0 
4.471997511018e-04 3.090805694008e-04 0.0 
1.602643978257e-03 4.318605662863e-04 0.0 
5.534280985953e-04 -2.050071533014e-04 0.0 
4.911486824770e-04 -1.511657491210e-04 0.0 
2.220648495355e-03 1.382717075459e-03 0.0 
5.206379521071e-04 -1.926658209281e-04 0.0 
4.645412623103e-04 -2.713978797678e-04 0.0 
1.927515567693e-03 1.157254623723e-03 0.0 
3.790678173588e-04 1.292348087759e-03 0.0 
7.024418090230e-04 -1.741020060600e-04 0.0 
1.030943856535e-03 9.649194070838e-07 0.0 
4.139116561749e-04 -1.076367161805e-04 0.0 
6.883912736336e-05 6.031236544879e-06 0.0 
5.292793178414e-04 -1.692270807150e-04 0.0 
1.859199720210e-03 8.453629550460e-04 0.0 
3.998650840658e-04 -2.461052905715e-04 0.0 
6.075310697871e-04 -8.806137931404e-05 0.0 
8.628965518344e-04 -1.516504105971e-04 0.0 
4.542561819159e-04 -2.656206385168e-04 0.0 
2.309034854867e-03 2.058262540470e-03 0.0 
3.462159758497e-04 1.596331359205e-04 0.0 
7.059414845228e-04 -1.984901796863e-04 0.0 
8.469377293897e-04 -9.054815091783e-05 0.0 
4.144345481357e-04 -1.391497988742e-04 0.0 
1.568045265463e-03 5.599046923380e-03 0.0 
4.021516807744e-04 -5.264961402516e-05 0.0 
5.604841492469e-04 1.888359751835e-05 0.0 
1.501760413008e-03 6.144144813438e-03 0.0 
2.926805623329e-04 9.471883043528e-05 0.0 
3.481446218386e-04 -2.914987448021e-05 0.0 
3.904030056722e-04 2.051619635088e-04 0.0 
1.858850407972e-03 5.835580435523e-03 0.0 
2.120672212257e-03 1.271888073225e-03 0.0 
4.495547304219e-04 3.283257158399e-05 0.0 
2.143540311199e-03 2.191521946314e-03 0.0 
2.320042568172e-03 1.832019148951e-03 0.0 
2.392729364627e-03 1.897168091155e-03 0.0 
1.403040969475e-03 3.237419432670e-04 0.0 
2.406892466167e-04 6.276420771881e-05 0.0 
2.268758987368e-03 5.525433721081e-03 0.0 
2.469843113785e-03 4.218361006879e-03 0.0 
7.566990405535e-04 -1.848917610456e-04 0.0 
2.474532915919e-04 -2.473745989290e-04 0.0 
2.141101748038e-03 2.868816991930e-03 0.0 
6.176986201363e-04 -1.379993303894e-05 0.0 
3.642485843950e-04 8.860729034250e-03 0.0 
4.346904114445e-04 -2.645252233443e-04 0.0 
6.799662091731e-04 -1.938910147862e-04 0.0 
2.182663201125e-03 2.525479785076e-03 0.0 
6.082713155231e-04 -5.927799890585e-05 0.0 
2.194084233872e-03 1.962362366477e-03 0.0 
8.123143294536e-04 -7.884022658111e-05 0.0 
4.042158185845e-04 -1.300266886767e-04 0.0 
1.602958785585e-04 3.056930534869e-05 0.0 
1.672210225701e-03 1.790109091287e-03 0.0 
5.167729777532e-04 -2.592632128715e-04 0.0 
3.432171321495e-04 -2.050216851560e-04 0.0 
5.624127528372e-04 2.153851109131e-04 0.0 
5.636161767538e-04 7.524078831858e-05 0.0 
1.919904720553e-03 1.383687478858e-03 0.0 
1.956027688256e-03 9.141668488272e-04 0.0 
1.128194422376e-03 9.706650457907e-04 0.0 
1.997744341664e-03 2.064632541905e-03 0.0 
1.091719685005e-04 1.351764675246e-05 0.0 
2.815051292793e-04 2.818438435981e-05 0.0 
1.926831408909e-03 1.517838936114e-03 0.0 
2.278708217179e-03 2.946542721065e-03 0.0 
4.221566614178e-04 -1.447296081075e-04 0.0 
1.054380093532e-03 3.200715505454e-04 0.0 
5.404507590281e-04 -2.224259289043e-04 0.0 
6.110693349806e-04 -2.205189695272e-04 0.0 
1.770470527850e-03 6.864452153217e-04 0.0 
6.415427173386e-04 -1.023346363888e-04 0.0 
2.208913301522e-04 -1.358923225711e-04 0.0 
1.873412111510e-03 1.922233662663e-03 0.0 
4.995601196890e-04 -2.649870041156e-04 0.0 
1.239409211444e-03 1.908552647591e-04 0.0 
2.133848854910e-03 1.479572163280e-03 0.0 
1.084771118513e-03 1.866819708156e-04 0.0 
4.220706464610e-04 2.524363313047e-04 0.0 
4.383849262585e-04 3.478576729596e-04 0.0 
1.027833157307e-03 7.955800665180e-04 0.0 
4.108277604643e-04 -1.177597094891e-04 0.0 
1.743955144716e-03 2.830703845777e-03 0.0 
5.024131178269e-04 1.164370018360e-06 0.0 
6.796223286585e-04 -2.126920631815e-04 0.0 
4.300317605578e-04 -2.409777643967e-04 0.0 
1.190156766669e-03 6.996771302218e-04 0.0 
1.671150205665e-03 7.669176537676e-03 0.0 
1.736488053127e-03 5.970292855542e-03 0.0 
1.798670359775e-04 1.154653867890e-05 0.0 
1.879836266579e-03 1.133507157914e-03 0.0 
2.611330962720e-03 3.292338700208e-03 0.0 
2.362420045819e-03 1.678213851636e-03 0.0 
4.543174317484e-04 -2.493887922891e-04 0.0 
2.731013523689e-04 -2.955256171849e-04 0.0 
9.858859049028e-04 -7.420296554597e-05 0.0 
1.364547641334e-03 2.004695758917e-04 0.0 
1.054356394401e-03 -4.848341978024e-05 0.0 
2.913645882981e-04 -8.981471104597e-05 0.0 
3.521110156760e-04 7.684059167728e-03 0.0 
2.512391298711e-04 -2.567193531982e-04 0.0 
5.878235960868e-04 -1.314619155765e-04 0.0 
3.728876432033e-05 3.512980239612e-06 0.0 
8.678451568588e-04 -2.445977048688e-05 0.0 
2.452368386347e-03 4.768108586855e-03 0.0 
2.970549067524e-05 -2.050323234021e-04 0.0 
1.472626159441e-03 4.285071582726e-04 0.0 
9.431877626472e-04 -1.049296893913e-04 0.0 
2.506166136219e-03 2.236005656573e-03 0.0 
3.337101820490e-04 1.357166894787e-04 0.0 
2.219375355704e-03 2.575312111439e-03 0.0 
2.129398892045e-03 1.167377636278e-03 0.0 
2.408867174404e-04 -1.397972233997e-04 0.0 
1.966961808678e-03 2.447643639484e-03 0.0 
3.885377876464e-04 -1.033696099158e-04 0.0 
3.232556525696e-04 1.174499357086e-04 0.0 
2.083324678135e-04 1.162603113479e-04 0.0 
1.907875273802e-04 1.865459265430e-04 0.0 
2.334615724543e-04 1.729045494440e-04 0.0 
2.456974276485e-03 1.967735313029e-03 0.0 
2.018248644615e-03 2.296778684222e-03 0.0 
1.723757898509e-03 1.131893866482e-03 0.0 
1.128891053838e-03 2.714329814752e-04 0.0 
1.095862496306e-03 4.276537198380e-04 0.0 
1.933176846916e-04 -1.402698448014e-04 0.0 
1.903266338136e-03 1.788847143881e-03 0.0 
2.664647656252e-04 7.718168592484e-05 0.0 
1.712362863563e-03 2.284027910002e-03 0.0 
9.115516676050e-04 -5.636979636704e-05 0.0 
1.777025412306e-03 2.173189843901e-03 0.0 
1.427365350393e-03 2.396338729316e-04 0.0 
1.275714043464e-03 1.586503069715e-04 0.0 
1.245778860357e-03 8.738435105696e-04 0.0 
4.500859186863e-04 -1.592205625487e-04 0.0 
5.579052303464e-04 9.704852191742e-04 0.0 
9.822543606557e-04 1.495443209668e-04 0.0 
7.907454740607e-04 2.037649111128e-04 0.0 
2.124798692127e-04 -1.441582794821e-04 0.0 
3.934270115060e-04 -2.687638355703e-04 0.0 
1.362798991967e-04 9.349413261006e-06 0.0 
6.582347899875e-04 -8.428222025276e-05 0.0 
1.820705378587e-04 8.890165216082e-05 0.0 
7.893203675829e-04 6.593008179693e-04 0.0 
1.946191339130e-03 8.128179723074e-04 0.0 
2.684558313885e-04 -2.993441725932e-04 0.0 
1.695647440580e-04 6.498520571897e-05 0.0 
1.774951631458e-04 1.650456255115e-05 0.0 
4.112157250834e-04 -2.710204309714e-04 0.0 
8.186779482593e-04 -5.766324574131e-05 0.0 
1.482819619298e-04 2.548211094395e-05 0.0 
2.599621944979e-04 -3.008867439477e-04 0.0 
1.141187523618e-03 1.507948425199e-04 0.0 
2.101266249501e-03 1.035700284317e-03 0.0 
1.776630405689e-03 6.098540155317e-04 0.0 
2.048003187424e-03 1.100964494244e-03 0.0 
4.952213770097e-04 -1.208875334375e-04 0.0 
1.389896538212e-04 4.225410044569e-05 0.0 
7.419851425445e-04 -1.986160247517e-04 0.0 
3.486084181486e-04 -2.553728403143e-04 0.0 
5.243860459741e-05 8.196335468523e-07 0.0 
2.605311096290e-04 -2.978087722500e-04 0.0 
1.756205565421e-03 1.609743061607e-03 0.0 
3.338879614357e-04 -2.981485913493e-04 0.0 
2.196847512321e-03 3.373166061184e-03 0.0 
9.211348031287e-05 9.937458885153e-06 0.0 
1.132141348127e-04 2.783662223966e-05 0.0 
2.468533561700e-03 2.199494415609e-03 0.0 
3.080632245559e-04 -3.028842553004e-04 0.0 
3.273456960585e-04 -2.599009043610e-04 0.0 
3.207893230023e-04 -3.000706347227e-04 0.0 
1.749215150255e-04 -1.725627121542e-05 0.0 
1.689506589188e-03 7.771828825360e-03 0.0 
2.514746624484e-03 4.732402724976e-03 0.0 
8.461760681734e-05 1.694062884602e-05 0.0 
1.501269999863e-03 8.157978125388e-03 0.0 
3.634170249891e-04 3.805193132139e-04 0.0 
1.340258683174e-03 2.140242405572e-04 0.0 
1.531771925873e-03 6.635558450655e-03 0.0 
6.364842722553e-04 1.670931118241e-04 0.0 
8.681904972291e-04 -4.649092288829e-05 0.0 
4.095276940642e-04 -2.118116211339e-04 0.0 
7.260369018863e-05 1.185343444128e-05 0.0 
2.137381786475e-04 1.361760199567e-04 0.0 
2.049233538042e-04 1.749531235156e-04 0.0 
3.628369625067e-04 -1.014333635260e-04 0.0 
1.663307586258e-04 -1.443040246863e-04 0.0 
1.215933362518e-03 9.317408788996e-05 0.0 
3.400081708904e-04 -8.791279971976e-05 0.0 
6.038794664170e-05 8.062879791697e-06 0.0 
5.772286073413e-04 -1.600027936617e-04 0.0 
5.020920131995e-04 -2.579257856479e-04 0.0 
4.846496448863e-04 -2.491790789533e-04 0.0 
1.388742381823e-03 6.196387538463e-03 0.0 
5.917488958334e-05 4.654192193934e-06 0.0 
2.975174554250e-04 -3.040605700455e-04 0.0 
4.332945845407e-05 4.482691924386e-06 0.0 
4.381665628301e-04 -2.554014610896e-04 0.0 
1.641454379910e-04 7.073148375969e-05 0.0 
1.707791147886e-03 1.029428268797e-03 0.0 
2.656781656725e-04 -3.048867807189e-04 0.0 
1.130722353503e-03 5.833470340701e-05 0.0 
1.555992708609e-03 2.467922558203e-03 0.0 
1.536909085116e-04 5.246472998959e-05 0.0 
2.389032383158e-03 1.712269832546e-03 0.0 
1.178710735416e-03 1.534519015626e-04 0.0 
3.809015877034e-04 -1.468918968995e-04 0.0 
2.764272114016e-04 1.536753870967e-05 0.0 
4.174316815098e-04 -2.419442400630e-04 0.0 
4.617858175280e-04 -2.475738935471e-04 0.0 
2.883214938763e-04 -3.063438456736e-04 0.0 
1.274751118040e-04 3.492758547915e-05 0.0 
4.719086604415e-04 -2.191174389827e-04 0.0 
3.270664099313e-04 -1.849190876058e-05 0.0 
1.427430167038e-03 7.239851016696e-03 0.0 
3.214728295825e-04 -2.423254222127e-04 0.0 
4.805961606598e-04 -2.581020616684e-04 0.0 
2.278956890181e-03 1.438919730067e-03 0.0 
7.567827174114e-05 1.362867650267e-05 0.0 
1.563160352693e-04 -1.332486560428e-04 0.0 
3.594757409407e-04 -6.531901798642e-05 0.0 
1.528510909690e-03 2.911791809006e-04 0.0 
5.344076817112e-04 -1.078343677977e-04 0.0 
5.312149840638e-04 -2.493807753417e-04 0.0 
3.901799540963e-04 -9.097637269255e-05 0.0 
1.524082294390e-03 3.308712888297e-04 0.0 
1.661756398517e-03 4.421068427011e-04 0.0 
8.103900718385e-04 -1.582677282793e-05 0.0 
1.378749173316e-03 1.714336971249e-04 0.0 
2.728475820516e-04 -1.567812359309e-04 0.0 
6.436546534810e-04 -1.194476222379e-04 0.0 
1.847876397796e-04 -1.480608690624e-04 0.0 
1.270575685905e-03 1.697584887786e-04 0.0 
8.280732475627e-04 -1.117865849402e-04 0.0 
8.061822277441e-05 7.995672163997e-06 0.0 
1.504508205433e-03 1.967914354142e-03 0.0 
3.061369093614e-04 -2.478995758822e-04 0.0 
4.878402185879e-05 5.454766960767e-06 0.0 
2.038486411108e-04 1.576517731354e-05 0.0 
1.068048605036e-03 -5.571768782039e-05 0.0 
2.891609231166e-04 -3.061341239043e-04 0.0 
5.171659986734e-05 3.709490805198e-06 0.0 
1.669550251574e-03 1.690127909210e-03 0.0 
3.960858615422e-04 -2.595524832149e-04 0.0 
3.155036304302e-05 2.518256305267e-06 0.0 
3.390739549249e-04 -7.628800272227e-05 0.0 
1.282408828145e-03 6.218752175839e-04 0.0 
2.584664463317e-03 4.192044093316e-03 0.0 
8.499928535718e-04 -1.230012152516e-04 0.0 
3.781161490951e-04 -1.273684191698e-04 0.0 
5.713125726647e-04 -9.060751949122e-05 0.0 
2.444543595516e-03 3.631028902384e-03 0.0 
1.743130868945e-03 1.194918521827e-03 0.0 
8.417021913917e-04 1.720593376314e-05 0.0 
3.400225375783e-04 7.104070678618e-03 0.0 
2.521475415369e-04 -1.524672900493e-04 0.0 
7.715269728942e-04 -4.651281334176e-05 0.0 
3.958695728690e-04 -2.381233177675e-04 0.0 
1.781798439727e-04 -6.407718037194e-05 0.0 
2.737124515108e-04 -3.082661823914e-04 0.0 
7.238980823542e-04 -6.830502239724e-05 0.0 
4.173507265051e-04 -2.526853163614e-04 0.0 
2.090624810497e-04 -1.237661561625e-04 0.0 
1.185387798748e-03 1.017235063479e-05 0.0 
3.635449129910e-04 -7.741532930527e-05 0.0 
1.313877305398e-03 6.727859592500e-03 0.0 
3.770920198379e-04 -2.559440444680e-04 0.0 
2.762452654031e-05 2.135935888667e-06 0.0 
2.010034195753e-03 8.679382657634e-04 0.0 
1.777238458644e-04 -1.089839487815e-04 0.0 
1.855523248923e-03 6.674228787361e-04 0.0 
1.898352206332e-04 -1.204063767489e-04 0.0 
2.703921385572e-04 -3.058554459078e-04 0.0 
2.590775978407e-03 4.112705850658e-03 0.0 
5.805418886857e-05 -1.270655893614e-04 0.0 
1.695393563452e-04 -2.607976158380e-04 0.0 
1.528746932007e-04 -1.143790872514e-04 0.0 
3.288960847980e-04 -5.321522598998e-05 0.0 
4.324185024948e-04 3.086458630496e-03 0.0 
5.968613284427e-04 -1.215641854178e-04 0.0 
5.685371351480e-04 -1.068168123053e-04 0.0 
2.293169444653e-03 5.395650871027e-03 0.0 
1.333451154301e-03 8.781264624571e-03 0.0 
6.451743870635e-04 8.270562272784e-04 0.0 
1.690323754257e-03 4.869385272839e-04 0.0 
1.604590390069e-04 -2.598305595352e-04 0.0 
2.272628081901e-04 -2.554486240372e-04 0.0 
2.800934519163e-04 -3.041364227273e-04 0.0 
2.669555189066e-04 -2.269786337753e-04 0.0 
1.488062718425e-03 5.384719789206e-04 0.0 
4.973168675868e-04 3.114581116836e-03 0.0 
1.876208056032e-04 -2.440061846132e-05 0.0 
2.193280263256e-04 -1.943370268728e-04 0.0 
1.611177058404e-04 -6.258305714485e-05 0.0 
2.825610448036e-04 -1.101091452904e-05 0.0 
3.943996318328e-04 -2.595353931849e-04 0.0 
4.122395823665e-05 -1.258157994321e-04 0.0 
3.237343934060e-05 -1.477755091835e-04 0.0 
4.618068875252e-05 2.871608846257e-06 0.0 
2.409207332703e-05 1.573554916531e-06 0.0 
4.035704294725e-05 -1.101629200009e-04 0.0 
1.593080867005e-04 -1.062210036666e-04 0.0 
3.590272658352e-04 -1.131651935924e-04 0.0 
2.744094257117e-04 -1.185465238709e-06 0.0 
2.222983139953e-04 -2.464581310228e-04 0.0 
2.871800572872e-04 -2.149352753174e-05 0.0 
1.268766508538e-04 -2.342676020184e-04 0.0 
1.639571169460e-04 -1.253797640942e-04 0.0 
2.158711291286e-04 -1.150902635227e-04 0.0 
1.061105359501e-04 -2.337156688861e-04 0.0 
3.308520919905e-05 -1.173404990701e-04 0.0 
1.432027002650e-03 2.038976057611e-03 0.0 
1.370683890759e-04 -2.525500490344e-04 0.0 
1.479496390725e-03 8.369111218056e-03 0.0 
1.429186134511e-03 8.400115722458e-03 0.0 
6.060887144525e-04 -7.094140792334e-05 0.0 
1.621209728900e-05 -1.477642155690e-04 0.0 
3.767947761601e-04 -2.452559553190e-04 0.0 
4.536357212582e-04 -9.742926417148e-05 0.0 
1.138108377786e-04 -6.804310445627e-06 0.0 
5.078157908663e-04 1.445793227353e-04 0.0 
9.049081407593e-04 3.702539098995e-03 0.0 
6.320391292483e-04 9.768506649875e-05 0.0 
2.360830392813e-04 -2.724637468753e-04 0.0 
1.916627547940e-03 1.734738576181e-03 0.0 
1.021374724975e-03 9.283231186047e-03 0.0 
9.448951126267e-04 9.625849004790e-03 0.0 
1.474278167984e-04 -2.532324086179e-04 0.0 
1.306026728601e-04 -2.408497897617e-04 0.0 
5.747434192707e-05 -2.142996182405e-04 0.0 
2.052649033842e-04 -2.168400332568e-04 0.0 
9.321506239143e-05 -2.341989894001e-04 0.0 
3.213668788778e-05 -1.012967012731e-04 0.0 
2.816558950757e-04 -3.014491803580e-04 0.0 
2.087736974574e-04 -2.005000683619e-04 0.0 
3.179897575678e-04 5.962926469986e-03 0.0 
1.191599495474e-03 9.224671110686e-03 0.0 
1.409778046272e-03 5.764226816830e-04 0.0 
3.127623832745e-04 -6.391286896719e-05 0.0 
2.742739483206e-04 6.871657194706e-03 0.0 
8.235189451742e-06 -1.401111495615e-04 0.0 
7.263173478848e-05 -2.198443040623e-04 0.0 
8.303568166078e-05 2.600207932952e-04 0.0 
1.907337491301e-04 5.372228282858e-04 0.0 
1.322553577747e-03 7.279909433517e-03 0.0 
1.119047664205e-03 9.202734735837e-03 0.0 
4.086449331244e-05 -1.407288927593e-04 0.0 
1.204583165859e-04 5.211724013347e-04 0.0 
2.155094916036e-04 -2.114741349724e-04 0.0 
1.293321161641e-03 8.889745429555e-03 0.0 
1.217806478636e-03 9.049956098894e-03 0.0 
1.994567863312e-03 2.725306214022e-03 0.0 
1.726294976089e-04 1.939733866709e-04 0.0 
1.484160313573e-04 5.148718391075e-04 0.0 
1.215965388667e-04 -2.407151249835e-04 0.0 
1.246706342398e-04 -2.465183966287e-04 0.0 
2.187777545761e-04 -2.587407536457e-04 0.0 
2.358063581178e-04 -1.183985001023e-04 0.0 
1.068476470182e-05 -1.656177154698e-06 0.0 
2.759273045139e-04 -2.960567670107e-04 0.0 
1.087779126798e-04 3.915288350302e-03 0.0 
2.815418823724e-04 -3.072248113065e-04 0.0 
5.358077981339e-04 -7.657068681875e-05 0.0 
2.782090617921e-04 -3.086802127733e-04 0.0 
2.791067169176e-04 -3.049986209107e-04 0.0 
5.045074617739e-04 -9.326916209319e-05 0.0 
4.369333861161e-05 -4.306381999850e-06 0.0 
2.622089806916e-04 6.299594962881e-03 0.0 
1.888026915101e-03 1.297078559235e-03 0.0 
7.491298095718e-05 -2.275769044345e-04 0.0 
1.299119713307e-04 -5.200220218650e-05 0.0 
2.721833101944e-05 3.145400231747e-04 0.0 
5.416068017275e-05 5.323581784683e-04 0.0 
1.109749245307e-03 9.432312237665e-03 0.0 
5.639041944074e-04 -5.778521043623e-05 0.0 
6.538034969653e-05 2.548510458123e-04 0.0 
1.117505960767e-03 1.213995632639e-04 0.0 
4.275506259001e-05 -2.167773935405e-04 0.0 
5.991391786663e-05 -2.294256424159e-04 0.0 
4.291339236088e-05 -2.241708173436e-04 0.0 
8.365044689873e-06 -1.244742037520e-04 0.0 
8.347480031266e-06 7.227411174725e-07 0.0 
1.415843670378e-05 1.455970834910e-03 0.0 
6.235686192388e-05 -2.378936473708e-04 0.0 
1.649980944971e-05 -1.001522277461e-04 0.0 
2.808390698714e-06 3.092022598491e-07 0.0 
1.188682846479e-05 8.401784366959e-07 0.0 
4.146505406091e-05 2.283074722217e-06 0.0 
5.844982021278e-05 4.905378561601e-03 0.0 
2.443213193318e-05 3.416620130027e-03 0.0 
5.539089332552e-06 4.135388576234e-07 0.0 
6.347739132237e-06 4.266395790725e-07 0.0 
5.307950849640e-05 3.915531339906e-03 0.0 
4.642829797819e-05 -2.400608789694e-04 0.0 
7.590622907245e-04 9.708728990379e-03 0.0 
1.030123730371e-03 9.555393714793e-03 0.0 
9.599017051631e-05 -2.427932254937e-04 0.0 
1.096181376508e-05 6.099248641735e-07 0.0 
3.807207551809e-05 1.854898869908e-06 0.0 
1.869563688267e-05 8.698780774177e-07 0.0 
8.013103313930e-05 -2.446391454829e-04 0.0 
1.119597394481e-04 -2.481131766249e-04 0.0 
2.208861542549e-05 1.298053929727e-06 0.0 
1.937643863542e-05 9.850207924901e-07 0.0 
2.980244364957e-05 5.414620671377e-03 0.0 
4.310618862817e-04 9.739026492494e-03 0.0 
2.864737656322e-05 4.404837955379e-03 0.0 
3.357313457132e-05 7.416511610528e-03 0.0 
1.938514368220e-04 9.730060247998e-03 0.0 
1.826133793149e-04 -2.676141787429e-04 0.0 
2.232592107179e-04 -2.843322654224e-04 0.0 
2.401146388153e-04 -2.921673778434e-04 0.0 
2.543995303627e-04 -2.992667111383e-04 0.0 
8.170596678195e-06 -9.181228183384e-05 0.0 
8.329212771513e-06 -1.082833003771e-04 0.0 
2.305711210866e-04 -2.862204144470e-04 0.0 
7.508754225270e-06 -4.627015962570e-05 0.0 
2.465893234081e-04 -2.940431447187e-04 0.0 
1.453645389381e-04 2.247116460905e-04 0.0 
5.507796688941e-05 2.663213555223e-04 0.0 
1.076980674693e-04 2.772020349906e-04 0.0 
8.910514984008e-06 -1.963065631502e-04 0.0 
7.976907837258e-06 -1.550387240086e-04 0.0 
5.112081422797e-05 3.218188832201e-04 0.0 
4.709031801958e-06 -1.091587261672e-05 0.0 
2.694234915332e-05 2.178181552936e-04 0.0 
3.348298586552e-06 -3.937197871185e-06 0.0 
1.972692920027e-06 -5.729051251753e-08 0.0 
1.669425746139e-05 -1.166053529733e-04 0.0 
1.061987811174e-04 5.881402387424e-04 0.0 
7.806316338129e-05 5.396370385137e-04 0.0 
8.057330388511e-06 -7.222271617334e-06 0.0 
5.320991506579e-06 -1.583008108039e-06 0.0 
7.456411993420e-05 -3.470845009175e-05 0.0 
2.776372438140e-04 -3.082720269333e-04 0.0 
1.386180262592e-04 -1.302060689350e-04 0.0 
1.440361959558e-04 -2.473354209905e-04 0.0 
1.051404850418e-04 -7.078321451089e-06 0.0 
1.825018852146e-04 -1.286441084768e-04 0.0 
8.259100344608e-05 -1.682826840756e-05 0.0 
2.113496460197e-04 -2.271194391058e-04 0.0 
1.617787621725e-04 -2.436052735619e-04 0.0 
5.555880121160e-05 -7.606647031284e-06 0.0 
1.349718149870e-04 -1.117768480733e-04 0.0 
3.306819595072e-05 -1.331462524729e-04 0.0 
7.224921147893e-05 -1.671835990009e-05 0.0 
1.581530727964e-04 2.472123218973e-03 0.0 
1.660023414162e-05 -1.325398028896e-04 0.0 
3.187400112218e-04 -4.209416753262e-05 0.0 
2.327201906676e-04 -6.895967070238e-05 0.0 
8.801978557209e-05 -3.516905120191e-05 0.0 
6.291404674615e-05 -2.799721090293e-05 0.0 
6.972195970612e-04 -2.121778603103e-04 0.0 
1.670537202478e-03 1.330938945544e-03 0.0 
1.177434910902e-03 2.186244404989e-05 0.0 
1.455624612646e-04 -5.312054380540e-05 0.0 
5.048981688889e-05 -1.182788954860e-05 0.0 
4.066825904877e-05 -2.187762261271e-05 0.0 
2.753631763197e-04 -2.477406404146e-04 0.0 
3.050113241598e-04 2.546505717873e-03 0.0 
3.752473701449e-04 3.541960044063e-03 0.0 
5.632281974171e-04 8.233926712040e-03 0.0 
1.605259413178e-04 -4.623521511861e-05 0.0 
1.154772186172e-04 -4.348774243261e-05 0.0 
2.055777338755e-04 2.523475106526e-03 0.0 
2.593063552813e-04 3.034952050371e-03 0.0 
2.520912557424e-04 -8.045552852423e-05 0.0 
3.701350631367e-05 -4.423381070920e-06 0.0 
8.161664840503e-04 3.691522188463e-03 0.0 
2.889301997943e-05 -2.152163478945e-05 0.0 
7.555127203301e-05 -3.496299741903e-06 0.0 
3.580012951293e-04 2.568972052844e-03 0.0 
6.250605004612e-04 5.138095952109e-03 0.0 
3.066536851980e-04 -5.293640355374e-05 0.0 
1.073799798212e-04 -1.895979175498e-04 0.0 
2.932799644329e-04 -2.625651992669e-04 0.0 
2.238674985570e-04 -2.672513748156e-04 0.0 
2.818094936347e-04 -3.066069036972e-04 0.0 
3.157364839861e-04 3.032844248743e-03 0.0 
3.987772159126e-05 -7.763545246638e-06 0.0 
2.726008891420e-04 -3.033908094797e-04 0.0 
1.736953302557e-03 1.359373841484e-03 0.0 
6.741759757634e-04 7.731469752906e-03 0.0 
9.734677309791e-05 -2.272824459299e-05 0.0 
5.203220195740e-05 -1.662520640841e-05 0.0 
3.540473528653e-04 -2.293904993191e-04 0.0 
4.197944895518e-05 -1.662003622102e-05 0.0 
6.326447269566e-04 8.250255587164e-03 0.0 
7.635844368437e-04 -2.670749282978e-05 0.0 
5.659733119575e-05 -9.539060769810e-07 0.0 
5.879422130948e-05 -1.817243914085e-04 0.0 
9.792247488896e-05 -2.868670556435e-06 0.0 
4.917683065378e-04 4.584812844162e-03 0.0 
8.250732671164e-05 -1.777278526828e-04 0.0 
2.889286817842e-04 -2.426668772749e-04 0.0 
6.844226707153e-05 -7.958287128788e-05 0.0 
8.089342070322e-04 6.216321878675e-03 0.0 
1.850307384307e-04 -1.667874303475e-04 0.0 
3.697460679627e-04 4.026654395445e-03 0.0 
5.235174461525e-04 5.606474345075e-03 0.0 
1.471957890399e-04 -9.553488878207e-05 0.0 
5.035821491296e-05 -2.777615009950e-05 0.0 
6.327684388417e-05 -2.210385360352e-05 0.0 
4.213363109735e-04 4.550308319543e-03 0.0 
1.403618672801e-04 -2.117520636149e-04 0.0 
1.238331001007e-04 -1.014599794307e-04 0.0 
7.201583646996e-04 6.424800624750e-05 0.0 
5.775352754155e-04 4.121003056719e-03 0.0 
1.283562297223e-04 -1.197349378085e-04 0.0 
2.138521668127e-04 -6.729969507275e-05 0.0 
1.314744658287e-04 -6.165153302583e-06 0.0 
5.464327332972e-04 5.109258771359e-03 0.0 
3.258768782868e-04 -2.724463917424e-04 0.0 
1.867416898619e-04 -2.516635329427e-04 0.0 
4.448642833630e-04 -2.608682186970e-04 0.0 
5.949106421130e-05 -1.178799040431e-05 0.0 
6.779541298385e-04 5.664190641204e-03 0.0 
4.771981629088e-05 -6.345973699551e-05 0.0 
7.991931890657e-04 7.245661289408e-03 0.0 
2.649301636156e-04 -1.264712500045e-05 0.0 
1.177684069463e-04 -8.344943614755e-05 0.0 
7.449260608329e-05 -2.223690623949e-05 0.0 
9.120987400922e-05 -1.863176221048e-04 0.0 
8.317810469778e-05 -3.292561380741e-06 0.0 
1.296236806538e-04 -9.337610372425e-05 0.0 
6.608941462164e-05 -1.756539189038e-04 0.0 
1.067470019770e-04 -9.925843376300e-05 0.0 
1.578322688088e-04 -1.516755477883e-04 0.0 
1.914533008343e-04 -1.954797856583e-04 0.0 
6.280884244985e-05 -6.330827823871e-05 0.0 
1.907183862569e-04 -2.685198020594e-04 0.0 
2.115117963838e-04 -2.772204370451e-04 0.0 
1.011480870152e-04 -4.274689981559e-05 0.0 
1.160091685655e-04 -1.985312265709e-04 0.0 
1.450567495451e-04 -4.527011971532e-05 0.0 
1.780937911696e-04 -5.557976243578e-05 0.0 
2.424378543490e-04 -1.607124315407e-04 0.0 
3.581483140647e-04 -2.619611229549e-04 0.0 
7.153121379449e-04 3.183561423013e-03 0.0 
3.322396332155e-04 -1.966372522549e-04 0.0 
1.310942436170e-04 -1.378136423679e-04 0.0 
2.557040730534e-04 -3.197137734950e-06 0.0 
1.097981718250e-04 -2.041492829707e-04 0.0 
7.661013181014e-04 6.718397033494e-03 0.0 
7.484423433557e-04 7.758726550070e-03 0.0 
2.077202237521e-04 -2.411980041130e-04 0.0 
1.714466831324e-04 -1.026105226730e-05 0.0 
9.948505946881e-04 4.712642944038e-03 0.0 
1.319704466794e-04 -2.025997566841e-04 0.0 
7.604683802351e-04 2.723455881475e-03 0.0 
6.826442582347e-04 2.707290063495e-03 0.0 
1.398435273159e-04 -1.974668801523e-04 0.0 
7.218170075307e-04 1.979165133909e-04 0.0 
1.888353213522e-04 -2.116184901057e-04 0.0 
8.758547458316e-05 -2.859086464906e-05 0.0 
8.963879046596e-05 -7.274027958128e-05 0.0 
1.624450388307e-03 1.790219135186e-03 0.0 
6.380530511055e-04 3.164381839243e-03 0.0 
1.148612922215e-04 -3.629132366497e-05 0.0 
1.287903332155e-04 -3.695535932878e-05 0.0 
2.017703657683e-04 -2.316649877580e-04 0.0 
1.000978496306e-04 -2.897229449509e-05 0.0 
9.004831687084e-04 4.703957608811e-03 0.0 
7.365689836358e-05 -7.179127654694e-05 0.0 
7.613143783207e-04 5.690544270740e-03 0.0 
8.207916385113e-04 4.188451999998e-03 0.0 
8.751800118618e-04 -1.410643693840e-04 0.0 
5.775029471253e-04 3.629926667058e-03 0.0 
1.002659399588e-04 -1.072200761399e-04 0.0 
1.010135235014e-04 -8.191358735006e-05 0.0 
1.319957164482e-04 -1.552844654921e-04 0.0 
2.803228082274e-04 -1.905933263908e-04 0.0 
7.902726619535e-04 5.189482587288e-03 0.0 
3.456534775986e-04 -1.355402661219e-04 0.0 
1.649957176698e-04 -1.964456304188e-04 0.0 
2.055410157424e-04 -2.535550282962e-04 0.0 
8.791967884681e-04 5.207914725178e-03 0.0 
1.817595129485e-04 -2.012323091177e-04 0.0 
1.047098471570e-04 -2.504453194326e-06 0.0 
6.440612380510e-04 4.642346114786e-03 0.0 
1.091626734147e-04 -2.302577553185e-05 0.0 
1.557557225982e-04 1.271105388716e-05 0.0 
1.107364528177e-04 -1.173797115427e-04 0.0 
1.561469939974e-04 -2.019053485564e-04 0.0 
1.994479791132e-04 -2.450027717780e-04 0.0 
1.577047543215e-04 -3.841273560158e-05 0.0 
5.707457135256e-04 6.134461649367e-03 0.0 
1.990626368043e-04 -2.564530240857e-04 0.0 
1.669537492799e-04 -1.626078095934e-04 0.0 
6.825775871532e-05 -1.892100565198e-04 0.0 
8.962186619156e-04 6.236114578780e-03 0.0 
1.402937628102e-04 -1.482277525776e-04 0.0 
1.952197344461e-04 -5.687647016167e-05 0.0 
1.141330064893e-04 -1.514475453950e-04 0.0 
4.389394176842e-04 3.573108090844e-03 0.0 
1.838054519136e-04 -1.845728595170e-04 0.0 
2.048800999825e-04 -4.055498947519e-05 0.0 
2.780623175530e-04 -2.575349432949e-04 0.0 
1.928688881536e-04 -4.825674671410e-05 0.0 
7.919333475774e-05 -8.825699623126e-05 0.0 
1.392880202747e-04 -3.042614196727e-05 0.0 
5.548867185521e-04 -2.477345082844e-04 0.0 
8.425549932506e-05 -1.917293534370e-04 0.0 
6.459074929710e-04 7.191777007850e-03 0.0 
5.031321406799e-04 -7.821477392832e-05 0.0 
1.297623805766e-03 2.744608100922e-04 0.0 
6.465546300475e-04 6.163340764745e-03 0.0 
3.077890507769e-04 -2.580035949939e-04 0.0 
1.232855836553e-03 5.725731897800e-03 0.0 
9.421460839651e-05 -2.006277052820e-04 0.0 
1.371857348095e-04 -1.156035758826e-05 0.0 
5.298417752112e-04 -6.086834915447e-05 0.0 
7.932380703727e-04 3.758144667605e-06 0.0 
5.592812282246e-04 2.192849205916e-03 0.0 
3.346551459448e-04 -1.106728640949e-04 0.0 
1.558370375588e-04 -2.164095237049e-04 0.0 
2.725256996450e-04 -7.219459947806e-05 0.0 
1.414118109482e-04 -5.538828308361e-06 0.0 
3.569832460110e-04 -2.408453031650e-04 0.0 
1.258427909414e-04 -2.993386109776e-05 0.0 
7.259131510611e-04 4.667379120429e-03 0.0 
3.727614850284e-04 -2.743599744287e-04 0.0 
2.312106572719e-04 -5.952579534528e-05 0.0 
1.138787848561e-03 7.279523799060e-03 0.0 
9.032526282043e-05 -1.715976405394e-04 0.0 
1.935370056855e-04 -1.780906492122e-04 0.0 
1.452290120305e-03 2.132276801583e-04 0.0 
1.729217578807e-04 -3.913755947118e-05 0.0 
1.226528434535e-03 4.852072075892e-04 0.0 
1.310814465145e-03 1.084660067574e-04 0.0 
1.068231302870e-03 5.225127888234e-03 0.0 
6.870819895990e-04 6.691769549100e-03 0.0 
1.212201274135e-03 6.754588559706e-03 0.0 
9.578269908520e-05 -8.963870925910e-05 0.0 
2.168568280699e-04 -1.574331551012e-05 0.0 
3.165305409864e-04 -8.620253584969e-05 0.0 
8.810261005329e-04 7.272194625914e-03 0.0 
1.492324492310e-03 9.762604277078e-04 0.0 
8.127026070418e-04 3.559397867287e-05 0.0 
2.099917871244e-04 -4.924609626808e-05 0.0 
7.351457473785e-04 4.170305649506e-03 0.0 
2.519044288027e-04 -1.732103814909e-04 0.0 
2.220486612319e-04 -1.758903330586e-04 0.0 
1.865239174965e-04 -2.263892398318e-04 0.0 
2.909616087585e-04 -6.301656082990e-05 0.0 
1.943661391134e-04 -1.596120129185e-04 0.0 
1.032190048141e-03 5.737296936564e-03 0.0 
1.179180315646e-03 6.248797088096e-03 0.0 
7.778374091270e-04 -1.513299601884e-04 0.0 
2.374776003193e-04 -1.994205745340e-04 0.0 
6.343983565219e-04 -2.237407160436e-04 0.0 
2.117391834745e-04 -1.828345338644e-04 0.0 
2.410989208730e-04 -1.807255738334e-04 0.0 
1.796736157159e-04 -2.166221480286e-04 0.0 
2.685317691024e-04 -2.252146206387e-05 0.0 
3.387057787402e-04 -1.697477102365e-04 0.0 
6.532615060782e-04 3.654196254203e-03 0.0 
3.743440305060e-04 -1.638800417039e-04 0.0 
2.937955505049e-04 -7.368143071491e-05 0.0 
3.291928403190e-04 -1.216240208938e-04 0.0 
1.126902681317e-03 -2.795831884066e-05 0.0 
1.637490836397e-04 -2.116956851782e-04 0.0 
1.837405952322e-04 -9.519425250116e-06 0.0 
1.584700627084e-04 -3.659810126155e-06 0.0 
1.665223680701e-03 4.133778825445e-04 0.0 
2.719283336111e-04 -1.779997506106e-04 0.0 
3.149872127124e-04 -9.723077015847e-05 0.0 
9.375229597187e-04 5.728769108735e-03 0.0 
2.227655693130e-04 -1.563083218020e-04 0.0 
1.092281346622e-03 8.375050024928e-05 0.0 
1.663155096498e-04 -1.800481735970e-04 0.0 
3.406768119068e-04 -2.576403949316e-04 0.0 
2.831617996721e-04 -1.698157465420e-04 0.0 
1.571995632919e-04 -1.861684210394e-04 0.0 
1.152704965430e-04 -1.840039206560e-04 0.0 
3.060761656712e-04 -1.185845544888e-04 0.0 
2.503545074052e-04 -6.077424610866e-05 0.0 
1.376866299539e-03 4.110345099779e-04 0.0 
2.033578037124e-04 -2.754187325485e-04 0.0 
4.914752368228e-04 -1.910859674432e-04 0.0 
4.112051941693e-04 -1.818046525741e-04 0.0 
3.044625150021e-04 -1.743998058017e-04 0.0 
1.080273910586e-03 6.254647456782e-03 0.0 
3.368576504685e-04 -1.460476152102e-04 0.0 
1.579700742710e-04 -1.693863425382e-04 0.0 
3.159983980204e-04 -1.654641550273e-04 0.0 
5.038701110663e-04 4.092306966845e-03 0.0 
1.405505474379e-04 -1.655107936475e-04 0.0 
1.790442255278e-04 -2.435796804293e-04 0.0 
1.782979322080e-04 -2.307363994629e-04 0.0 
3.398089875309e-04 -2.472126642906e-04 0.0 
2.681389996551e-04 -1.978317057381e-04 0.0 
4.520992202089e-04 -1.740980347287e-04 0.0 
3.502017116901e-04 -1.599946383993e-04 0.0 
2.938988805426e-04 -2.716586169177e-04 0.0 
1.635355843465e-04 -2.256831461864e-04 0.0 
1.646899189944e-03 6.547080964362e-03 0.0 
1.402800782274e-04 -1.819656121700e-04 0.0 
2.849391884250e-04 -3.203670591795e-05 0.0 
1.392392660901e-03 3.515157287369e-04 0.0 
2.611448603837e-03 3.258986689757e-03 0.0 
1.159537902294e-03 3.190285065059e-03 0.0 
1.318014929017e-03 4.517298749444e-04 0.0 
8.310585296400e-04 -1.528680523149e-04 0.0 
1.561937726060e-03 3.889644601359e-04 0.0 
3.234545963244e-04 -2.719677825130e-04 0.0 
2.825149833188e-04 -1.478742744082e-04 0.0 
9.605859741804e-04 -1.089797153180e-04 0.0 
4.213919739734e-04 -2.785460243245e-04 0.0 
3.067077482394e-04 -2.838389343113e-04 0.0 
2.131818841257e-04 -1.639710309774e-04 0.0 
3.862238039056e-04 -1.779782526432e-04 0.0 
4.251777462138e-04 -1.709854453350e-04 0.0 
1.319764977523e-04 -1.719698158369e-04 0.0 
3.702046664843e-04 -1.387923349004e-04 0.0 
4.637087291436e-04 -1.884329545404e-04 0.0 
5.391743544501e-04 -1.805683261349e-04 0.0 
2.489390171091e-04 -1.927533223004e-04 0.0 
6.373285497029e-04 -4.898336721675e-05 0.0 
1.169990686223e-03 5.219413218156e-03 0.0 
5.810241183705e-04 -1.950384267803e-04 0.0 
2.322261524094e-04 -1.492068056458e-05 0.0 
3.564766292913e-04 -2.711657005603e-04 0.0 
2.077469965577e-04 1.319696519914e-06 0.0 
4.114034836142e-04 -1.564640909936e-04 0.0 
1.189059483560e-03 4.592347041074e-04 0.0 
2.143666574444e-03 1.082407984386e-03 0.0 
3.239927953738e-04 -2.628571719653e-04 0.0 
2.555657176330e-03 2.546534434455e-03 0.0 
1.469223850222e-03 2.540384407393e-03 0.0 
4.498111978827e-04 -1.473163267122e-04 0.0 
8.402440265623e-04 -7.026768315807e-05 0.0 
2.446072158311e-03 1.967969177480e-03 0.0 
1.433659973022e-03 2.819556668541e-04 0.0 
3.078697678373e-04 -2.762076231924e-04 0.0 
6.182285016364e-04 1.318389645157e-03 0.0 
2.809149340649e-04 -2.752350090708e-04 0.0 
4.389543403768e-04 2.972997817441e-05 0.0 
4.754327508031e-04 2.642063873627e-03 0.0 
5.520050293079e-04 -4.178641792639e-05 0.0 
9.352186844519e-04 6.764723070105e-03 0.0 
1.193458311354e-03 3.686724841102e-03 0.0 
5.089280256514e-04 -1.789998150837e-04 0.0 
7.824478392370e-04 -1.199375517431e-04 0.0 
9.337453574466e-04 2.247751119926e-03 0.0 
2.218949459285e-04 -4.115578109136e-05 0.0 
1.302345913915e-03 4.681709278334e-03 0.0 
4.672233701740e-04 -6.465851840288e-05 0.0 
3.384669280841e-04 -2.759555830846e-04 0.0 
1.419080836399e-03 4.128123690639e-03 0.0 
5.881226551606e-04 1.558991331828e-04 0.0 
1.688184603911e-04 -2.590128998897e-06 0.0 
3.043650839577e-04 -1.519731342449e-04 0.0 
1.024606844700e-03 6.774728120279e-03 0.0 
1.050099824185e-03 7.293812990946e-03 0.0 
3.855511581701e-04 -1.531850872934e-04 0.0 
2.654877336972e-04 -5.185082213203e-05 0.0 
2.773347554261e-04 -4.221388589238e-05 0.0 
1.852721358410e-04 -2.398169150540e-04 0.0 
5.674324983737e-04 -2.293242140448e-04 0.0 
6.374424088310e-04 -1.802572590903e-04 0.0 
5.499494550546e-04 -1.945122826106e-04 0.0 
1.236832252217e-03 7.202566644265e-05 0.0 
7.562099176173e-04 1.793976877302e-03 0.0 
1.725226828403e-03 1.471588446038e-03 0.0 
5.404103753689e-04 2.667595008890e-03 0.0 
1.427758786046e-03 6.990830164744e-04 0.0 
1.718252026865e-03 3.410137607850e-03 0.0 
2.461504832038e-04 -5.109533864764e-05 0.0 
7.003590558744e-04 2.245543801152e-03 0.0 
1.641773484092e-03 4.522022735760e-03 0.0 
3.137284034558e-04 -1.423096662651e-04 0.0 
6.814381608377e-04 -1.901513890187e-04 0.0 
1.309842124992e-03 4.167334043003e-03 0.0 
1.010925823081e-03 2.718120078823e-03 0.0 
1.003900721200e-03 4.208154245757e-03 0.0 
1.195195376520e-03 4.704140804796e-03 0.0 
1.883688624468e-04 -1.685823066961e-05 0.0 
5.515827840156e-04 3.827863871099e-05 0.0 
2.339995885672e-04 -2.374263780542e-05 0.0 
2.727529145865e-04 -8.244200653653e-05 0.0 
1.761933368000e-03 2.155383993078e-03 0.0 
5.683770266815e-04 -2.145614518146e-05 0.0 
2.187328062574e-03 3.827689971058e-03 0.0 
1.317727659238e-04 -1.878043531452e-04 0.0 
6.032627655422e-04 -1.813039567640e-04 0.0 
5.862407500080e-04 -1.374926811000e-04 0.0 
7.660958810836e-04 -8.707335621990e-05 0.0 
4.683712346022e-04 -2.714862915605e-04 0.0 
6.466536855082e-04 -1.929913332655e-04 0.0 
7.266804746349e-04 -5.477490168388e-05 0.0 
1.975855231152e-03 1.558094497527e-03 0.0 
2.994075559381e-04 -1.287628507717e-04 0.0 
1.687645641512e-03 5.513672451778e-03 0.0 
8.578353220306e-04 8.933970644826e-03 0.0 
2.606130533339e-04 -3.654216550145e-05 0.0 
2.924794371723e-04 -9.495707208216e-05 0.0 
5.021625602445e-04 -3.059884315657e-05 0.0 
1.484631106615e-03 1.364480632285e-03 0.0 
7.613155838755e-04 -1.392236729156e-04 0.0 
2.890306957569e-04 -1.053596996136e-04 0.0 
1.340741871467e-03 5.700051315372e-03 0.0 
2.783293617683e-04 9.755118561659e-05 0.0 
5.871847946437e-04 -3.722209118179e-05 0.0 
7.123780508321e-04 -1.125281284115e-04 0.0 
2.107515947549e-03 1.658828883413e-03 0.0 
2.579695784413e-04 -4.202461260796e-05 0.0 
4.053697414239e-04 -2.781868816424e-04 0.0 
2.657763322293e-04 -3.243524671395e-05 0.0 
2.235140402757e-04 -6.381488145310e-06 0.0 
6.773640655002e-04 -4.293863566581e-05 0.0 
1.102486119679e-03 4.205366776593e-03 0.0 
1.137042930858e-03 1.708195708801e-04 0.0 
2.094583172544e-04 -7.627109177311e-06 0.0 
3.069805563694e-04 2.971331155655e-04 0.0 
1.499312621343e-03 5.122539442299e-03 0.0 
6.548914451589e-04 7.236361658610e-05 0.0 
1.093252843437e-03 3.702326048230e-03 0.0 
7.276130016300e-04 -7.415846372223e-05 0.0 
7.098698025603e-04 -1.744533663587e-04 0.0 
1.701029137464e-04 -8.957773186825e-05 0.0 
3.687870335901e-04 -2.640118983531e-04 0.0 
8.818779166542e-04 3.210744151525e-03 0.0 
1.069183268398e-04 -1.745934130675e-04 0.0 
3.603051149750e-04 5.865787094890e-04 0.0 
1.309721110615e-03 2.347227334726e-04 0.0 
4.943064321982e-04 2.172333735080e-03 0.0 
3.683204375855e-04 -2.816871927149e-04 0.0 
1.598128914064e-03 3.372828575167e-04 0.0 
1.525869988133e-03 4.593737259002e-03 0.0 
2.418325542609e-04 -1.092372072222e-04 0.0 
4.528966475843e-04 -2.753121758650e-04 0.0 
7.699553173392e-04 -8.908452160041e-05 0.0 
3.194590957975e-04 -2.870634050339e-04 0.0 
3.831399804037e-04 -2.832575045275e-04 0.0 
3.492021009194e-04 -2.859572302485e-04 0.0 
7.550938726940e-04 -1.069322473595e-04 0.0 
3.261866180956e-04 3.964382094979e-04 0.0 
4.714498603835e-04 1.041327455317e-03 0.0 
1.480619905915e-04 -1.128541780733e-05 0.0 
7.519224389953e-04 -1.945549606114e-04 0.0 
1.854779330813e-03 4.850325731532e-03 0.0 
4.151131599394e-04 -2.658872934180e-04 0.0 
1.931878449680e-04 -2.284434190417e-07 0.0 
3.356334471550e-04 -2.834198944867e-04 0.0 
1.058283554721e-04 -1.581021069372e-04 0.0 
7.045577115982e-04 -1.725370979339e-05 0.0 
4.659794940742e-04 -1.621633989920e-04 0.0 
6.791614362655e-04 5.064465775630e-05 0.0 
9.476239363292e-04 8.167681475753e-05 0.0 
2.060001649857e-03 3.512448599244e-03 0.0 
4.598648658346e-04 3.663537595220e-05 0.0 
1.385027258532e-03 5.171301109267e-03 0.0 
1.510453456818e-03 1.279327687895e-03 0.0 
1.508065238990e-03 3.566978178399e-03 0.0 
1.557216812568e-03 3.009149478743e-03 0.0 
4.794677835092e-04 -1.998152166906e-04 0.0 
1.497811098308e-04 -1.746639702077e-05 0.0 
1.641700935108e-03 4.002183176349e-03 0.0 
9.619058857951e-04 -1.039464518024e-04 0.0 
7.378142074104e-04 1.739545309756e-03 0.0 
3.884663676552e-04 3.976618705855e-05 0.0 
5.127021394786e-04 -2.489004532120e-04 0.0 
1.151170157454e-04 -1.683980492237e-04 0.0 
7.289117243912e-04 3.778283516206e-05 0.0 
1.704099908023e-05 -1.898293017957e-04 0.0 
1.245044643425e-03 4.236784959119e-05 0.0 
6.043405547545e-04 -1.550154983792e-05 0.0 
1.274186703942e-03 2.160463674058e-03 0.0 
1.201902219082e-03 1.675514954491e-03 0.0 
6.631838385140e-04 -2.522276428730e-05 0.0 
1.258189515774e-03 3.163974745767e-03 0.0 
8.331039436821e-04 -1.661279008234e-04 0.0 
1.521037609640e-03 4.048175817356e-04 0.0 
1.515646015119e-03 2.909050132788e-03 0.0 
1.512268340815e-03 8.404755244665e-04 0.0 
1.790820473754e-03 5.127348711097e-03 0.0 
1.669999753585e-03 6.184746028789e-03 0.0 
8.208892704976e-04 -1.432584693273e-04 0.0 
1.718202212899e-03 6.890432083182e-03 0.0 
1.178665419076e-03 2.336907290515e-05 0.0 
1.016976327071e-03 -8.548725951286e-05 0.0 
6.599977263184e-04 -1.648263804618e-04 0.0 
4.254760800543e-04 -2.808932000364e-04 0.0 
7.486660527741e-04 -1.692239301919e-04 0.0 
9.232306095571e-04 2.725552376560e-03 0.0 
1.498593208002e-03 1.069588945454e-03 0.0 
1.822007243431e-04 -3.184030794786e-05 0.0 
5.838266512305e-04 4.843404975258e-05 0.0 
4.950417918376e-04 -1.644121664442e-04 0.0 
1.458108774375e-03 3.074949040931e-03 0.0 
6.976406447182e-04 -1.618624319770e-04 0.0 
1.165052140474e-04 -1.184854770856e-05 0.0 
1.401348636241e-03 3.621204169446e-03 0.0 
1.818221500626e-03 3.304153824075e-03 0.0 
6.443333044122e-04 -6.670389144847e-05 0.0 
7.944266343286e-04 -1.712708353162e-04 0.0 
1.316781520439e-03 3.546427955245e-04 0.0 
2.230107611814e-03 1.270287990954e-03 0.0 
4.117089406495e-04 -2.830499394378e-04 0.0 
4.983129212572e-04 -2.585027669137e-04 0.0 
1.001234517190e-03 5.177012233574e-05 0.0 
1.681380074764e-03 4.320529264433e-04 0.0 
8.741746780810e-05 -7.390443654685e-06 0.0 
1.752779684789e-03 3.911142167988e-03 0.0 
7.550860188332e-04 -1.795552223320e-04 0.0 
1.734446886097e-03 4.663265427965e-04 0.0 
5.104170072673e-04 -1.215735227170e-05 0.0 
9.716372208525e-04 3.213318569924e-03 0.0 
1.272060363538e-03 3.988482042472e-04 0.0 
1.929970833819e-03 5.263835315838e-03 0.0 
3.485143210147e-04 -1.631514369703e-05 0.0 
7.199150696805e-04 -1.445267085373e-04 0.0 
4.793823061661e-04 -1.673572350220e-05 0.0 
1.311073968507e-03 9.049828332105e-05 0.0 
1.019639369843e-03 2.245832928133e-03 0.0 
1.152618404227e-03 4.091665209679e-04 0.0 
6.810684047964e-04 -9.855349548548e-05 0.0 
4.651694332122e-04 -2.646194908001e-04 0.0 
1.023773631337e-03 1.522200292588e-04 0.0 
1.277025934771e-03 6.539462354274e-05 0.0 
7.938596211658e-04 -1.784418353290e-04 0.0 
6.853013472046e-04 -8.004272193587e-05 0.0 
3.258891503824e-04 -3.051528277996e-05 0.0 
4.524406046214e-04 -2.718792242028e-04 0.0 
6.983315031801e-04 -1.308364684167e-04 0.0 
2.491333044529e-03 2.228002977731e-03 0.0 
7.914100953776e-05 -7.502831183692e-06 0.0 
2.356547926311e-03 1.712412900310e-03 0.0 
1.198370308788e-03 2.078246510115e-04 0.0 
2.579082031443e-03 2.861034861680e-03 0.0 
2.542600244300e-03 4.507116238816e-03 0.0 
2.079044805418e-03 9.538105740060e-04 0.0 
6.055453076711e-04 2.828510922327e-05 0.0 
1.733566561905e-04 -2.433580448574e-05 0.0 
1.872815071236e-03 4.315857011477e-03 0.0 
1.130830778760e-03 1.724540721748e-03 0.0 
2.603283904472e-03 3.623271015635e-03 0.0 
6.685001444122e-04 -2.217448170688e-04 0.0 
9.533499308948e-04 1.595982779379e-04 0.0 
7.733619809982e-04 2.245065877838e-03 0.0 
1.123193675599e-03 -3.221516083158e-05 0.0 
1.233215895379e-03 3.323400485147e-05 0.0 
7.175451816664e-04 -2.032914400600e-04 0.0 
1.964267432225e-03 3.667696722059e-03 0.0 
1.299677031188e-03 4.253434553339e-04 0.0 
1.138456283489e-03 2.234161550275e-05 0.0 
1.243522053265e-03 3.191513985125e-04 0.0 
7.228662246434e-04 9.942052085890e-06 0.0 
7.211447633417e-04 1.355133114971e-04 0.0 
6.852901405598e-04 -2.008294323134e-04 0.0 
3.641213922261e-04 -2.746587272060e-04 0.0 
1.324461301310e-03 1.553243702575e-03 0.0 
1.495565334904e-03 6.224896330650e-04 0.0 
5.398182403885e-04 -1.523231441366e-04 0.0 
8.198612299906e-04 1.377381563506e-04 0.0 
1.984333344911e-03 4.178395349323e-03 0.0 
2.134797197019e-04 -3.250591353962e-05 0.0 
9.162035921847e-04 -1.319365507115e-04 0.0 
3.424739590130e-04 -2.785651565486e-04 0.0 
5.507090545959e-05 -3.863323693125e-06 0.0 
1.574989233375e-03 2.988585642229e-04 0.0 
9.115146371071e-04 1.165101632601e-05 0.0 
1.158843752466e-03 3.002343629871e-04 0.0 
3.095909136972e-04 -2.755867309328e-04 0.0 
2.302171017212e-04 -3.261926157183e-05 0.0 
6.679527746290e-04 -1.635165236120e-04 0.0 
2.051446991525e-03 5.093441357044e-03 0.0 
2.301905047831e-04 -8.784107187525e-05 0.0 
7.201417483416e-04 -1.954627017936e-04 0.0 
1.064090294785e-04 -1.195693155099e-05 0.0 
1.244482380858e-03 5.778256104805e-05 0.0 
6.788884325666e-04 -2.169194609589e-04 0.0 
1.619186650092e-03 3.397740188194e-04 0.0 
3.379962050778e-04 -2.871576123135e-04 0.0 
1.486044971264e-03 3.227193452153e-04 0.0 
6.809915008636e-04 -1.890823732588e-07 0.0 
1.025989273114e-03 4.113178269724e-04 0.0 
1.326474548548e-03 2.976496011839e-04 0.0 
5.521097005820e-04 -2.516232811126e-04 0.0 
1.673652812123e-04 -3.141222749784e-05 0.0 
6.835217546932e-04 1.783859337477e-03 0.0 
3.230508477246e-04 4.344596864754e-05 0.0 
6.875394630117e-04 2.557869767062e-05 0.0 
8.777924390667e-04 -1.471532178797e-04 0.0 
1.583006043588e-03 3.358615265640e-04 0.0 
6.345092014595e-05 -7.576168228852e-06 0.0 
5.265887026247e-05 -7.900927941457e-05 0.0 
1.379226742492e-03 2.847063392622e-04 0.0 
1.734816493351e-03 4.965450447454e-03 0.0 
1.377709418055e-04 -1.748057613560e-05 0.0 
2.178055350439e-04 -2.411592594772e-05 0.0 
3.700291617625e-04 9.447023114982e-03 0.0 
2.521355377896e-04 9.444404781801e-03 0.0 
2.438033562839e-03 2.175205420840e-03 0.0 
1.503646006607e-03 2.983453718001e-04 0.0 
1.946202177325e-04 -7.448632544919e-05 0.0 
2.079429341803e-03 9.793243276275e-04 0.0 
1.147843122594e-03 -5.471205547493e-06 0.0 
3.350624897958e-04 6.753916673009e-06 0.0 
9.223225848744e-04 -1.304682675068e-04 0.0 
2.989216594248e-04 4.271764689176e-04 0.0 
2.441781935532e-03 5.264577553925e-03 0.0 
1.169850044984e-03 -3.218336095855e-06 0.0 
2.502471393745e-04 -9.022449234574e-05 0.0 
5.507735684776e-04 -2.416478064851e-04 0.0 
2.774505758119e-04 -1.252944430410e-04 0.0 
1.568009608851e-03 3.021684730959e-04 0.0 
1.830296556934e-03 5.927248109147e-04 0.0 
2.087773762194e-03 4.542470110584e-03 0.0 
1.979167623741e-03 8.548354960242e-04 0.0 
1.936034413606e-03 8.594309503621e-04 0.0 
5.750765939964e-05 -2.076883663552e-04 0.0 
2.699213226908e-04 -1.347423986976e-04 0.0 
1.423363973655e-03 4.854180819192e-04 0.0 
2.319469642222e-03 1.502529830542e-03 0.0 
2.297887303549e-03 1.502439033854e-03 0.0 
4.965519250839e-04 2.248611404994e-05 0.0 
8.130484096219e-06 -1.829918359536e-04 0.0 
4.123640950368e-04 -2.822295629085e-04 0.0 
1.442347146344e-03 1.866199315171e-04 0.0 
2.489930973270e-04 -1.309792935707e-04 0.0 
1.822833478970e-03 5.314117381500e-03 0.0 
1.870735550566e-03 6.163438279239e-03 0.0 
2.195034262225e-03 4.347012855134e-03 0.0 
4.470463854528e-04 -1.844312899052e-04 0.0 
2.266874298814e-04 -9.709733960725e-05 0.0 
4.717504072911e-04 -3.400343607478e-05 0.0 
4.238540325859e-04 -2.770414713793e-04 0.0 
4.599857647322e-04 1.163381186120e-04 0.0 
1.288674104809e-03 2.655091853949e-03 0.0 
1.835222653422e-04 -1.005513705702e-04 0.0 
1.465110450344e-04 -2.392190315055e-05 0.0 
1.125421158160e-04 -2.269703733251e-04 0.0 
4.575877095751e-04 -5.042023170168e-05 0.0 
1.495428255039e-03 2.261471389657e-04 0.0 
8.560541517833e-05 -2.193038251129e-04 0.0 
1.195471448957e-03 2.689891567738e-03 0.0 
4.068317377532e-04 -2.748008126977e-04 0.0 
2.244008026516e-03 1.299842110519e-03 0.0 
1.742460034208e-03 4.802703468697e-04 0.0 
5.567046170130e-04 -1.670648882563e-04 0.0 
4.171361424021e-04 -9.224657339442e-05 0.0 
1.192744996722e-03 2.209371558426e-03 0.0 
3.846387386991e-04 -6.571206979218e-05 0.0 
1.346846417027e-03 1.108884100088e-04 0.0 
1.369065702716e-03 1.268582250474e-04 0.0 
2.529710591127e-04 -8.629104638624e-05 0.0 
3.814525682826e-04 -2.790957413176e-04 0.0 
1.137129951678e-03 2.186267063484e-04 0.0 
2.513257299250e-03 4.330054255432e-03 0.0 
1.005378873306e-03 1.889998748961e-04 0.0 
6.861947616249e-04 -1.368130226822e-04 0.0 
2.081573473915e-03 1.980157211347e-03 0.0 
1.103708903941e-03 2.579257457467e-04 0.0 
2.166021711650e-03 5.408457733202e-03 0.0 
1.195728559562e-03 2.584680507312e-04 0.0 
1.336507876561e-04 -2.366064148957e-05 0.0 
1.427203721393e-03 2.109107295382e-04 0.0 
2.625485465913e-04 -1.123700450339e-04 0.0 
2.674600568032e-04 -1.026135978894e-04 0.0 
1.379740935440e-03 1.486386549720e-03 0.0 
4.385654295262e-04 -1.198120573679e-04 0.0 
1.703406290226e-03 4.264157325395e-04 0.0 
9.775124661965e-04 -7.366031971538e-05 0.0 
3.410416849945e-04 -4.160067892676e-05 0.0 
1.066572509363e-03 -6.079720212807e-05 0.0 
5.671710215439e-04 -2.492593375092e-04 0.0 
6.336484135110e-04 -1.196281496785e-04 0.0 
6.282135440102e-04 -2.330266464004e-04 0.0 
2.157951525531e-03 1.137475857572e-03 0.0 
6.032869135346e-04 -2.397645487209e-04 0.0 
1.992831901948e-03 8.080539598226e-04 0.0 
5.714249741972e-04 1.939798234000e-05 0.0 
6.115444057581e-04 6.560436328208e-06 0.0 
1.019209237116e-03 -8.630993182962e-05 0.0 
2.278231850411e-03 4.657806933702e-03 0.0 
1.148144998583e-04 -1.732769831706e-05 0.0 
1.037716149502e-04 -1.718511322885e-05 0.0 
3.819882296530e-04 -1.732191610423e-04 0.0 
1.914959066692e-03 7.114634873209e-04 0.0 
6.139628366409e-05 -3.730672765531e-06 0.0 
9.672319669077e-04 8.799502594091e-04 0.0 
1.739796319322e-04 -8.114219248890e-05 0.0 
2.675276961260e-04 -7.145206634203e-05 0.0 
8.708968630011e-05 -1.192673399178e-05 0.0 
5.717210730851e-04 -2.436101884280e-04 0.0 
4.278447539555e-05 -7.136914343042e-05 0.0 
9.661050678353e-04 2.904824332994e-05 0.0 
2.374598008482e-03 4.400537535037e-03 0.0 
2.435048784507e-03 4.651590722882e-03 0.0 
1.460104005776e-03 2.008232954050e-04 0.0 
1.779113892988e-03 3.180635283661e-03 0.0 
1.921533823242e-03 4.216033070852e-03 0.0 
7.772497511280e-05 -1.186742010935e-05 0.0 
4.156640990552e-04 -7.907858181290e-05 0.0 
5.521042549958e-04 -1.378144777301e-04 0.0 
4.875304571583e-04 -4.827414956284e-05 0.0 
6.430682014172e-04 -1.508095373858e-04 0.0 
6.117090245226e-04 -2.345083425041e-04 0.0 
1.883563387719e-03 3.872972030484e-03 0.0 
2.463524040258e-03 5.118629310423e-03 0.0 
3.156281774163e-04 9.737179905318e-03 0.0 
5.762673327331e-04 -7.829766425376e-07 0.0 
9.689378769150e-04 -1.083341044301e-04 0.0 
4.132140964670e-04 4.674623233713e-05 0.0 
3.255928399609e-05 -1.181448152375e-05 0.0 
6.591275533167e-04 -1.341553487805e-04 0.0 
5.071880109717e-05 -1.075891571603e-06 0.0 
5.869563435387e-04 -2.378505870867e-04 0.0 
5.469243273555e-04 6.409705061469e-05 0.0 
1.384803611391e-03 1.453262729178e-04 0.0 
1.283669634206e-03 1.450563592982e-04 0.0 
3.227143085452e-04 -6.822476969254e-06 0.0 
3.135806503724e-04 -1.875083009353e-04 0.0 
1.820356141759e-03 5.665273365831e-04 0.0 
6.069684831768e-04 -1.522108339660e-04 0.0 
1.877152068614e-03 6.390709903711e-04 0.0 
7.468321331165e-04 -1.224271199002e-04 0.0 
1.142156146393e-03 1.001387342743e-04 0.0 
5.897183647892e-04 -1.672743747158e-04 0.0 
2.131665972960e-04 -7.641213242411e-05 0.0 
1.966221617226e-03 7.688893516486e-04 0.0 
2.795879973419e-04 -1.577268297679e-04 0.0 
9.647972385491e-04 -4.160367572927e-05 0.0 
3.137617913773e-04 -7.635869516067e-05 0.0 
1.562742086291e-04 -2.300276208176e-04 0.0 
1.921890881377e-04 -8.328420015549e-05 0.0 
1.524475380688e-03 4.793177190719e-04 0.0 
2.520774825882e-03 3.826464375491e-03 0.0 
9.539600394529e-04 1.875820770412e-03 0.0 
1.535571204867e-04 2.024648228270e-04 0.0 
2.448108025102e-04 -1.265630517345e-04 0.0 
1.306174268718e-03 2.450497175603e-03 0.0 
5.285953799937e-04 -1.229035375403e-04 0.0 
1.521921966080e-04 -8.732419519504e-05 0.0 
1.927045501443e-03 2.304911929122e-03 0.0 
5.101553696877e-04 -2.294856433071e-04 0.0 
4.432316450141e-04 -1.066921584965e-04 0.0 
1.488487942870e-03 2.359291749387e-04 0.0 
9.205056011084e-04 -1.042977042848e-05 0.0 
1.669131946746e-03 8.539149615606e-04 0.0 
4.124816568517e-04 -1.906877903735e-04 0.0 
2.024422881898e-04 -1.032979058978e-04 0.0 
1.391163213903e-04 -7.718005482436e-05 0.0 
2.436379707196e-04 -2.108542879674e-04 0.0 
2.220267981717e-03 5.932840419728e-03 0.0 
2.562625696997e-03 3.514091523851e-03 0.0 
1.228985527543e-05 -2.636092875715e-05 0.0 
1.007821349057e-04 -2.265531049711e-04 0.0 
2.934985211917e-04 -2.682445795606e-04 0.0 
2.321684807467e-04 -2.422061817427e-04 0.0 
1.222646401147e-04 -7.546408083468e-05 0.0 
6.216003618107e-04 -2.175160113649e-04 0.0 
5.104755352559e-04 -2.402823613695e-04 0.0 
5.453080180485e-04 -2.536945272430e-04 0.0 
1.593486233949e-04 -7.085019455551e-05 0.0 
2.454773889931e-03 2.417345546242e-03 0.0 
1.097819528576e-04 -6.616384929089e-05 0.0 
6.526135949739e-04 -2.144912684476e-04 0.0 
1.831552855115e-03 5.997552253589e-04 0.0 
1.427515364580e-03 7.682951407793e-03 0.0 
8.606554219300e-04 5.167134848141e-05 0.0 
9.391098665377e-05 -6.497589683497e-05 0.0 
1.423960299913e-04 -6.914159356419e-05 0.0 
5.856953877543e-04 1.122763734645e-03 0.0 
5.880425082182e-04 -2.076945153184e-04 0.0 
8.189432534178e-05 -5.645993228555e-05 0.0 
6.146282245472e-05 5.904487173623e-03 0.0 
6.523351337647e-05 6.888209558787e-03 0.0 
7.311974617111e-04 1.455702736095e-03 0.0 
1.285146225029e-04 -5.975611453463e-05 0.0 
4.383453726239e-04 -2.339205706978e-04 0.0 
3.713265498852e-04 -4.767339862312e-05 0.0 
5.168564618613e-04 5.377083227236e-05 0.0 
2.656196019964e-04 -2.617593611203e-04 0.0 
4.350531416497e-04 -2.218273329808e-04 0.0 
1.001955105137e-03 -4.911878506827e-05 0.0 
1.009322618864e-03 2.228221913004e-03 0.0 
6.677407324024e-05 -5.574131672362e-05 0.0 
1.577221750082e-05 -1.623141634348e-04 0.0 
2.306502234459e-03 5.837472964504e-03 0.0 
1.127522266448e-04 -5.849434425101e-05 0.0 
5.084017440117e-04 -1.512389333757e-04 0.0 
2.072323927995e-04 -9.446627486241e-05 0.0 
2.945572551042e-04 -1.948875374841e-04 0.0 
8.629073988327e-05 3.014423314373e-03 0.0 
5.004463699458e-04 -2.046986315406e-04 0.0 
4.158065224333e-04 6.609222024227e-06 0.0 
1.216454869344e-03 1.074889430926e-04 0.0 
9.982044387060e-05 -4.999958928586e-05 0.0 
8.483350877137e-05 -4.915312977631e-05 0.0 
5.912580290055e-04 -2.293120715737e-04 0.0 
2.701206880726e-04 -2.851027568730e-04 0.0 
2.963887018850e-04 -1.734492967642e-04 0.0 
7.270548627807e-05 -4.143983919588e-05 0.0 
3.453234837544e-04 -4.239448169669e-06 0.0 
3.709441573455e-04 -2.220278976880e-04 0.0 
1.742176317268e-03 5.282833917290e-04 0.0 
8.012989659736e-04 6.479265077087e-04 0.0 
1.900910252101e-03 7.327312699011e-04 0.0 
1.050843692369e-04 3.054801449550e-06 0.0 
2.596999374998e-04 -2.588378222872e-04 0.0 
1.354178459770e-05 2.602486895263e-04 0.0 
2.249515041124e-06 4.421841076713e-07 0.0 
3.888546730979e-05 8.443927011328e-03 0.0 
4.212619085231e-04 -1.956282010043e-04 0.0 
1.353191002475e-03 1.605989676834e-04 0.0 
6.488084536558e-04 -2.227525588267e-04 0.0 
1.648086461773e-04 -2.388436394694e-04 0.0 
2.576454154961e-04 -1.150740838438e-04 0.0 
3.856333055307e-04 2.148998430993e-03 0.0 
2.531498226733e-03 2.784643530358e-03 0.0 
1.940586911047e-03 6.672641085845e-03 0.0 
2.083554556239e-04 4.872242843407e-05 0.0 
1.592579375978e-05 -1.762879659249e-04 0.0 
1.797589276285e-04 3.782643504043e-05 0.0 
2.523206591653e-03 3.073415866650e-03 0.0 
3.491316058791e-04 -1.832960725320e-04 0.0 
1.339174829567e-03 1.301203905967e-04 0.0 
4.049149697417e-04 -2.052000486690e-04 0.0 
4.031801777588e-04 1.294118233613e-05 0.0 
3.654408289812e-04 -2.095949928272e-04 0.0 
2.330981841479e-03 1.874181472073e-03 0.0 
3.199994170068e-05 -7.755307409182e-06 0.0 
4.801613402681e-04 -2.153670507223e-04 0.0 
1.789683308755e-03 6.392909012555e-04 0.0 
2.702887583530e-04 -2.716901038914e-04 0.0 
5.624108508051e-04 -2.196798868401e-04 0.0 
2.216133803799e-03 2.342244830982e-03 0.0 
3.006744096587e-04 -1.955178174558e-04 0.0 
3.337521224812e-04 -2.247199260291e-04 0.0 
1.268674081290e-03 8.807046519308e-05 0.0 
3.558514839520e-04 -2.923156580532e-04 0.0 
4.173134876678e-04 6.523253191848e-04 0.0 
4.825499768972e-04 8.709469580917e-04 0.0 
2.940823867256e-04 -2.148180679713e-04 0.0 
4.970438938516e-04 -1.225128649426e-04 0.0 
1.053330265636e-03 -5.900266573293e-05 0.0 
1.714355585500e-03 5.465512850454e-04 0.0 
1.259022704807e-03 7.510247594881e-04 0.0 
5.714372889219e-04 1.347054411560e-03 0.0 
1.190478324014e-04 4.883263441217e-03 0.0 
9.596911567544e-04 3.225481767167e-04 0.0 
6.134935350258e-04 -2.343158172570e-04 0.0 
3.069255490790e-04 -3.975216147773e-05 0.0 
9.389511123662e-04 7.109397100496e-04 0.0 
4.596080241113e-04 -1.346657551602e-04 0.0 
2.004261954035e-03 9.862736278695e-04 0.0 
4.891362724769e-04 -1.363395943715e-04 0.0 
3.560145384576e-04 -1.996676975103e-04 0.0 
4.738331271787e-04 -9.354459375319e-05 0.0 
4.428061397702e-04 8.773655252044e-05 0.0 
9.989350022694e-04 -8.012774280678e-05 0.0 
4.721818609739e-04 -1.077191268599e-04 0.0 
1.215475489334e-03 8.098162607424e-05 0.0 
4.320226615727e-04 6.102516512914e-03 0.0 
2.747287700160e-04 -2.096814042265e-04 0.0 
3.453714223021e-04 -9.702660383107e-05 0.0 
4.434108678720e-04 -7.934963380826e-05 0.0 
4.931479877585e-04 1.831618190242e-04 0.0 
2.924112140054e-04 -2.571331650686e-04 0.0 
3.305049872814e-05 1.965893563728e-03 0.0 
4.332419395754e-05 2.942068308686e-03 0.0 
2.543478256251e-04 -2.925578399419e-04 0.0 
4.381764319613e-04 -6.551794662282e-05 0.0 
2.377996273879e-04 -2.273917722760e-04 0.0 
2.322241908721e-04 -2.167448069167e-04 0.0 
1.589717234094e-03 5.538735173175e-04 0.0 
1.151074653315e-03 4.966626452683e-05 0.0 
1.593035550328e-03 4.762278576173e-04 0.0 
5.341172652818e-04 -2.190679513482e-04 0.0 
6.584918230062e-04 9.769650685317e-03 0.0 
7.201143838997e-05 2.264094682385e-06 0.0 
2.271696707549e-04 -2.324005061807e-04 0.0 
4.813508832501e-04 3.409243761136e-07 0.0 
1.087944509483e-03 -3.267349388809e-05 0.0 
6.282020454362e-05 -1.950988980645e-04 0.0 
2.190391510211e-03 1.302105159736e-03 0.0 
6.194924320671e-04 -2.066941194774e-04 0.0 
2.832649387839e-04 -2.968605236685e-04 0.0 
5.355450218938e-04 -2.406603337783e-04 0.0 
6.638660796918e-06 -3.216494340322e-05 0.0 
2.294757091169e-03 1.671422751793e-03 0.0 
2.678533023986e-04 -2.703660092453e-04 0.0 
2.889375021583e-05 -7.281269019351e-05 0.0 
1.801698860200e-03 7.415590950564e-04 0.0 
8.178614677134e-04 6.746355346181e-05 0.0 
3.284252301297e-04 -2.127840167269e-04 0.0 
3.173294304280e-05 -1.620879643331e-04 0.0 
1.057991885057e-03 -2.925703631483e-05 0.0 
3.166037880515e-05 6.418622787069e-03 0.0 
2.961845546047e-04 -3.018216194353e-04 0.0 
6.427364949587e-04 1.925046822207e-04 0.0 
8.127153796335e-04 5.741623086000e-04 0.0 
1.376799659673e-04 7.785182719316e-03 0.0 
6.916953008816e-04 1.343968361824e-03 0.0 
7.391941876640e-04 3.939483324346e-04 0.0 
5.286742593790e-04 -2.065564356568e-04 0.0 
4.543254475038e-04 -2.124653456615e-04 0.0 
2.324628775186e-04 2.071526139572e-05 0.0 
2.623810745197e-04 -2.454958724103e-04 0.0 
7.795309663561e-06 -1.693252903287e-04 0.0 
2.103919259159e-05 -6.654552109290e-05 0.0 
3.078442177961e-04 -2.078928605478e-04 0.0 
4.618836723171e-04 -2.368340794536e-04 0.0 
3.389095579300e-04 3.403568416752e-04 0.0 
3.722956165443e-04 4.741448184932e-04 0.0 
1.229177788474e-03 7.784267592315e-03 0.0 
5.635184418488e-04 -2.304755512079e-04 0.0 
8.179676627509e-05 -1.630639595079e-04 0.0 
1.025463739795e-03 1.128173689290e-04 0.0 
2.362235124259e-05 1.224124667033e-06 0.0 
3.135617436018e-05 1.484077880277e-06 0.0 
4.468439695024e-04 -1.991439135769e-04 0.0 
1.473085945170e-03 8.062878806419e-03 0.0 
2.832255986050e-04 -2.742107740140e-04 0.0 
3.033506445034e-04 1.254586929635e-04 0.0 
3.504691698488e-04 -2.950094323999e-04 0.0 
3.218284704476e-04 2.214733304217e-04 0.0 
1.077681362581e-03 -3.082205376630e-06 0.0 
3.929548472002e-04 -2.263500639825e-04 0.0 
4.844273341072e-04 -2.276425467975e-04 0.0 
3.127846567722e-04 -2.957777132826e-04 0.0 
1.000880541086e-04 2.659653615524e-03 0.0 
4.112247248667e-04 -2.180777485610e-04 0.0 
3.331002149488e-04 2.104029096550e-03 0.0 
2.587690962380e-04 3.538803668165e-03 0.0 
4.076011561714e-05 5.747887127010e-04 0.0 
5.057905739838e-06 7.513863675204e-07 0.0 
7.245860188111e-05 7.894055330161e-03 0.0 
3.811417637108e-04 -2.010394592297e-04 0.0 
3.957146099795e-04 8.020278136322e-04 0.0 
3.725073122286e-04 -1.876412116341e-04 0.0 
8.838579575287e-06 4.953081268581e-07 0.0 
2.776137032077e-04 -1.829827652244e-05 0.0 
2.890056543606e-04 4.667243382377e-05 0.0 
4.716417045545e-04 1.619224934242e-05 0.0 
1.083673189828e-03 8.715298044728e-03 0.0 
1.964854525175e-04 2.021163231423e-03 0.0 
1.733605126990e-03 6.435232720730e-04 0.0 
6.937397211190e-04 8.601973295852e-05 0.0 
1.849787379822e-03 1.024123857055e-03 0.0 
4.696351838243e-04 7.566784407173e-03 0.0 
2.992631342565e-04 -2.262767859184e-04 0.0 
3.183518576785e-04 -2.312874877971e-04 0.0 
1.460349740222e-04 5.375714973797e-03 0.0 
8.113092162687e-04 9.559998950948e-05 0.0 
1.667017995017e-03 7.786379083869e-03 0.0 
2.462600669384e-04 8.883255660804e-03 0.0 
2.981863702019e-04 8.018103911368e-03 0.0 
5.358156179327e-04 7.684734248111e-03 0.0 
3.527267988783e-04 -2.898120882848e-04 0.0 
2.851758785833e-04 -2.320820217267e-04 0.0 
3.097714021837e-04 1.269102496696e-03 0.0 
5.423292447858e-04 6.632483804051e-03 0.0 
2.215814360010e-04 3.198092842891e-05 0.0 
1.294933303936e-03 7.177054539317e-04 0.0 
2.125917347898e-03 1.139829703476e-03 0.0 
9.954737002864e-04 1.815975746257e-03 0.0 
1.055512044507e-04 -1.251284321128e-04 0.0 
1.069840079474e-04 -1.416684219241e-04 0.0 
1.268833134929e-04 -4.737488099780e-07 0.0 
2.968994254228e-04 -2.966508135203e-04 0.0 
4.027248372689e-05 -1.684692012010e-04 0.0 
9.514132081118e-05 2.088580619441e-05 0.0 
1.535908369181e-05 -2.028791981894e-04 0.0 
3.039721291977e-04 8.589736703589e-03 0.0 
2.870364492783e-04 1.174142823188e-05 0.0 
2.166832329649e-04 -2.690357742445e-04 0.0 
1.654193842100e-04 -2.550294470542e-04 0.0 
1.987431447121e-04 4.720234154469e-04 0.0 
9.175808187480e-04 9.427807188075e-03 0.0 
4.669839088167e-04 1.346058106711e-03 0.0 
3.039572832389e-04 2.170397852310e-05 0.0 
8.166972240206e-04 9.470683214090e-03 0.0 
2.782559244818e-04 -2.456105747373e-04 0.0 
7.023680474455e-05 1.079022626001e-03 0.0 
1.423894972237e-04 -2.248261872858e-04 0.0 
5.084789202500e-04 1.781020865085e-03 0.0 
6.860348043057e-06 4.562206128050e-07 0.0 
1.282015867039e-03 9.206486475075e-04 0.0 
3.884249607914e-04 -2.865498095407e-04 0.0 
1.800629229161e-03 7.089924214983e-03 0.0 
6.411207792108e-05 -1.199897736498e-04 0.0 
9.688984187215e-04 8.991130294478e-05 0.0 
1.187020170875e-04 1.879655330039e-05 0.0 
1.449437929352e-04 4.382479845391e-03 0.0 
1.064862735406e-04 1.500599865081e-05 0.0 
3.191746429750e-04 -2.897088422083e-04 0.0 
4.233082828353e-05 7.011378664584e-07 0.0 
3.891509928414e-04 -2.875765080243e-04 0.0 
7.041745330029e-05 -2.072546060134e-04 0.0 
1.506805295580e-04 8.412935460938e-06 0.0 
7.954949501548e-04 9.711118865651e-04 0.0 
4.301189694059e-04 9.150162368738e-04 0.0 
6.562874829206e-04 8.767560280975e-03 0.0 
2.382125151554e-03 5.455290697460e-03 0.0 
4.085853264825e-04 -3.228726464892e-05 0.0 
8.304665302825e-04 4.193121910487e-04 0.0 
5.609307774210e-05 -1.411928899369e-04 0.0 
3.307160415178e-04 -1.632903262100e-04 0.0 
8.701640433225e-04 8.515942035137e-05 0.0 
5.372937207341e-04 9.786248644996e-03 0.0 
1.052994473368e-03 1.324645865459e-03 0.0 
5.704115334537e-06 5.470853967786e-04 0.0 
5.704115334537e-06 2.306703227063e-04 0.0 
1.482288327424e-05 -2.366385008515e-04 0.0 
4.875795923261e-06 -2.322111334476e-04 0.0 
3.040317161969e-05 9.417446122702e-03 0.0 
7.493001394722e-05 9.760806547890e-03 0.0 
8.700252405568e-07 3.288831493631e-07 0.0 
8.700252405568e-07 5.792263483033e-07 0.0 
2.825565846848e-05 -2.274921339857e-04 0.0 
2.769874472756e-04 -2.899811447938e-04 0.0 
4.217334482365e-05 -1.446231198222e-06 0.0 
7.726993801301e-04 1.571169800494e-04 0.0 
1.195732853211e-04 -2.122900020336e-04 0.0 
7.220870598460e-05 -7.462887727402e-07 0.0 
1.207579624215e-05 -5.355705768720e-05 0.0 
1.359445010558e-05 -8.359931489286e-05 0.0 
3.736985786340e-04 6.244060100241e-03 0.0 
3.269307062610e-04 -2.943793738068e-04 0.0 
1.081401364890e-03 7.286985514411e-05 0.0 
1.340873501062e-04 -2.268758504668e-04 0.0 
8.414738787703e-05 -1.041875946092e-04 0.0 
1.089575824903e-03 5.571608733191e-04 0.0 
1.889206202436e-05 2.433153472962e-03 0.0 
2.601604974669e-05 -8.199982397616e-05 0.0 
2.313856701295e-04 7.241641961848e-03 0.0 
9.010843505625e-04 2.461909909637e-04 0.0 
1.637789868770e-03 7.742262412117e-04 0.0 
1.923302601338e-03 9.629639562747e-04 0.0 
7.181434146361e-04 9.452227137479e-03 0.0 
1.031943375949e-03 2.562717817465e-05 0.0 
1.205409744690e-03 1.171501827053e-03 0.0 
5.704573870369e-05 -1.683549690199e-04 0.0 
2.459687035394e-04 -2.904122452199e-04 0.0 
1.069101823211e-03 2.953829726719e-04 0.0 
5.112376806428e-04 5.760704661731e-06 0.0 
3.187003685194e-04 -2.983625904453e-04 0.0 
2.011927470429e-04 5.483609451926e-03 0.0 
2.276543524252e-05 8.159917087366e-07 0.0 
9.631762119413e-04 2.178279483289e-04 0.0 
8.282390806925e-04 1.971208579439e-04 0.0 
1.414741502219e-05 -3.971946584623e-05 0.0 
2.766235380929e-04 -1.978059313998e-04 0.0 
3.214362130231e-04 4.320720365997e-04 0.0 
4.987965546822e-04 1.124255417550e-04 0.0 
1.965492799544e-03 6.574356335406e-03 0.0 
1.091299251821e-03 4.890470241500e-05 0.0 
3.918630410128e-04 1.742429550668e-03 0.0 
2.074691413273e-04 2.221103752142e-05 0.0 
2.861119805778e-04 -3.014246923243e-04 0.0 
2.571323372690e-04 -2.890643059455e-04 0.0 
2.910251331275e-04 1.867198042513e-04 0.0 
3.390574962061e-04 5.030827111646e-03 0.0 
8.910117002116e-05 -1.557637897495e-04 0.0 
9.251471191329e-04 1.404852478218e-03 0.0 
7.280303409950e-05 -2.019140972746e-04 0.0 
3.629735961108e-04 2.836980492120e-05 0.0 
1.147088090550e-03 7.757152990652e-03 0.0 
3.243942779874e-04 5.794587264897e-05 0.0 
9.733992149232e-04 1.262701656065e-04 0.0 
2.178904082095e-03 6.092216829735e-03 0.0 
1.174014886940e-04 4.446366984209e-06 0.0 
7.196466591192e-04 1.010784168223e-03 0.0 
5.717691042889e-05 1.264925694690e-03 0.0 
2.690242878724e-04 2.368699817620e-05 0.0 
9.155707292593e-04 1.817637402176e-03 0.0 
5.550763782292e-04 1.775717753999e-04 0.0 
3.604320138791e-04 2.338517521018e-05 0.0 
8.579790667958e-04 1.138046687804e-04 0.0 
1.266053747751e-05 6.141998028595e-07 0.0 
1.975238697247e-03 1.086302945370e-03 0.0 
2.437700644149e-04 -1.779969421028e-04 0.0 
3.490153411642e-04 -1.276209527403e-04 0.0 
1.503658026432e-03 7.743455180887e-04 0.0 
1.885821603847e-03 6.223622095606e-03 0.0 
2.185957810319e-05 -1.865586015771e-06 0.0 
7.748647823054e-04 1.178944108454e-04 0.0 
4.470557821344e-05 1.441505581178e-06 0.0 
3.096979227606e-04 4.021390217920e-03 0.0 
2.817871580958e-04 4.574698320065e-05 0.0 
1.440044750345e-04 1.397872952909e-06 0.0 
1.543181365900e-04 2.513937500764e-06 0.0 
6.403097999901e-05 -1.481609959765e-04 0.0 
1.980039334037e-05 1.105232991032e-06 0.0 
1.331474082769e-03 8.511450293810e-03 0.0 
2.394889140971e-04 2.046301644397e-03 0.0 
2.679611422533e-04 -2.904966828454e-04 0.0 
1.491841823580e-04 2.854110873389e-03 0.0 
3.051006960800e-04 5.436770209718e-03 0.0 
1.532369449872e-05 -2.151409601636e-04 0.0 
3.745357288699e-04 -2.856566466314e-04 0.0 
1.766509205936e-03 8.210961476109e-04 0.0 
3.435531439283e-04 1.018001651091e-03 0.0 
1.196415716501e-04 1.955562071517e-03 0.0 
3.536766249772e-04 5.052646577573e-05 0.0 
5.769636646798e-04 7.161370378180e-03 0.0 
2.096240920130e-04 -2.728600819514e-04 0.0 
3.055766413523e-04 -2.356782171545e-04 0.0 
2.008198295946e-04 -2.659532642275e-04 0.0 
2.595731747239e-04 -2.804813287273e-04 0.0 
2.361862470741e-04 -1.582950748941e-04 0.0 
7.660759244534e-05 -1.094641607949e-04 0.0 
2.752539075721e-05 -1.895772595823e-06 0.0 
1.305602590009e-03 1.018172785395e-03 0.0 
2.382992840852e-03 5.165314093303e-03 0.0 
1.156471987132e-04 -1.350912318114e-04 0.0 
1.221189738325e-04 -1.611139975005e-06 0.0 
2.617188803101e-04 6.739597928878e-06 0.0 
4.058040763870e-04 7.457160439085e-05 0.0 
8.333822357547e-04 2.462505725191e-04 0.0 
1.450806957986e-03 6.429901366640e-04 0.0 
2.521250570223e-04 -2.832612288358e-04 0.0 
3.073664323205e-04 -2.842567256339e-04 0.0 
3.868789691001e-05 -1.858810702516e-06 0.0 
2.967010148216e-05 -2.128689166839e-04 0.0 
6.448568707802e-06 -2.092600779422e-04 0.0 
2.779101961857e-04 -1.322417360332e-04 0.0 
2.051151100460e-04 -2.634231488641e-04 0.0 
8.689281548324e-05 4.082745294365e-06 0.0 
6.259630349719e-04 2.572711015593e-04 0.0 
3.481675389111e-04 1.744625381844e-03 0.0 
3.368469977692e-04 6.808084328497e-05 0.0 
3.174416488180e-04 3.149291377042e-06 0.0 
4.785157143685e-04 6.601753618286e-03 0.0 
9.104507724280e-05 1.948213804563e-04 0.0 
3.766042651451e-04 -2.881432157961e-04 0.0 
8.510098054489e-04 9.768875010112e-03 0.0 
3.046413692527e-04 -2.989372604129e-04 0.0 
1.529474460290e-04 -2.481654031240e-04 0.0 
1.320808717529e-05 8.828601918775e-07 0.0 
1.907976252122e-03 7.203656728801e-03 0.0 
8.335781621757e-05 -2.133253789495e-04 0.0 
5.455368103736e-05 -1.115624046513e-04 0.0 
7.560031013459e-04 3.339100658024e-04 0.0 
5.717326258994e-04 1.817549642341e-03 0.0 
6.672947085670e-04 7.270397953277e-04 0.0 
4.009897543084e-05 -1.548238185214e-04 0.0 
3.099724242826e-04 -2.519298290596e-04 0.0 
6.021134576422e-05 9.737883043823e-07 0.0 
1.924589993224e-05 4.909190122326e-04 0.0 
3.119540281681e-06 7.710672570344e-07 0.0 
6.928863892948e-05 8.875980050412e-03 0.0 
2.385691923669e-04 1.097455162749e-05 0.0 
9.472692162097e-05 -2.124534377044e-04 0.0 
8.712317478784e-04 1.447379618359e-03 0.0 
1.733637748193e-04 -2.560511967019e-04 0.0 
1.108642842650e-04 7.230694633478e-06 0.0 
8.637308593706e-04 9.124748779902e-04 0.0 
2.851224166993e-04 -2.308444243796e-04 0.0 
9.234447891902e-04 1.887434218611e-04 0.0 
2.992544457802e-04 4.502331957611e-03 0.0 
2.216366281733e-04 9.838753805594e-04 0.0 
4.609832689890e-05 6.943118859112e-06 0.0 
1.170973406388e-04 5.887696596427e-03 0.0 
6.458207862817e-04 3.012573058825e-04 0.0 
1.103072352813e-03 1.273436317012e-03 0.0 
2.407788096484e-04 5.175032744275e-03 0.0 
9.861467118181e-04 4.437626055245e-04 0.0 
6.512701101230e-05 -1.348600395798e-04 0.0 
4.786949263923e-04 9.492353804459e-03 0.0 
5.878663255295e-04 1.120588828002e-04 0.0 
1.986255203832e-05 1.047528488642e-03 0.0 
2.932762002854e-05 -2.349141906566e-04 0.0 
1.374160720631e-04 9.476383654565e-03 0.0 
2.842718160584e-06 7.104742405167e-07 0.0 
1.341757026624e-04 -2.158242525645e-04 0.0 
3.215681391568e-04 1.709564107466e-05 0.0 
1.265200052598e-03 1.149687135595e-03 0.0 
2.557735172748e-04 1.282768637581e-03 0.0 
8.819969734265e-05 -2.049236075749e-04 0.0 
3.173578409425e-04 -1.744244343698e-04 0.0 
5.423853427381e-06 -7.553367134345e-05 0.0 
1.230970820423e-04 3.488732146112e-03 0.0 
2.681276277184e-04 -2.811352578591e-04 0.0 
5.460234290893e-04 8.048777965332e-04 0.0 
2.097338565983e-04 6.082015410264e-03 0.0 
3.166895932784e-04 -2.922801302843e-04 0.0 
3.836663910155e-04 6.813142077048e-03 0.0 
4.557176312561e-04 9.379477390555e-05 0.0 
9.990895444264e-06 -6.766701132613e-05 0.0 
2.484849738688e-04 -1.483681675376e-04 0.0 
7.974260633384e-05 -1.480107398487e-04 0.0 
7.403908556786e-05 -9.484423920455e-05 0.0 
4.567042016883e-06 -6.005862996775e-05 0.0 
4.739077392138e-04 6.415294780764e-05 0.0 
3.878929725881e-05 -9.535856069564e-05 0.0 
4.832611379792e-05 -8.562234531572e-05 0.0 
1.828778051548e-04 -2.545011490461e-04 0.0 
7.828272343898e-05 -5.964089538962e-07 0.0 
1.122233655183e-03 3.376050994787e-04 0.0 
3.577041707159e-04 -1.782788667895e-04 0.0 
3.340433663602e-05 9.913621040962e-04 0.0 
5.092233201708e-06 9.023151492478e-07 0.0 
1.317746970453e-04 8.930818019272e-03 0.0 
1.564340187332e-04 6.299891324098e-03 0.0 
5.366944784090e-05 -9.816485528967e-05 0.0 
5.895526141709e-05 -9.278318016232e-05 0.0 
3.557401846186e-05 -8.716934311421e-05 0.0 
4.115025376157e-04 1.845148375587e-05 0.0 
3.039215486610e-04 -2.951636645055e-04 0.0 
9.752609731897e-04 3.038684259247e-04 0.0 
2.432096139130e-04 7.808100189399e-03 0.0 
6.575387063161e-04 1.075558131628e-03 0.0 
3.855541528873e-04 1.428823672330e-05 0.0 
4.469697001541e-04 7.012690351478e-03 0.0 
1.331820856024e-03 6.433731021099e-04 0.0 
4.904384000202e-04 7.312135603018e-05 0.0 
3.732818673361e-04 6.127011605965e-05 0.0 
2.629973880109e-04 -1.623642933815e-04 0.0 
1.310311865554e-03 5.917064410342e-04 0.0 
1.106212743395e-03 4.772221089180e-04 0.0 
1.721504568159e-04 -2.511789306253e-04 0.0 
6.121347655998e-05 -1.055024805176e-04 0.0 
2.618643755428e-04 -1.810051542935e-04 0.0 
1.135073691375e-03 5.489585278751e-04 0.0 
1.994143332190e-04 1.070171994565e-02 0.0 
2.280198793191e-04 1.036053400582e-02 0.0 
3.133939774532e-04 1.070302113875e-02 0.0 
3.427181745828e-04 1.036532250444e-02 0.0 
4.199177128280e-04 1.070786601430e-02 0.0 
4.538604401806e-04 1.037172679269e-02 0.0 
5.248377282597e-04 1.071158352053e-02 0.0 
5.606379687025e-04 1.037277806087e-02 0.0 
6.252281498273e-04 1.070798617105e-02 0.0 
6.622147708714e-04 1.036858892885e-02 0.0 
7.170995723579e-04 1.069780746298e-02 0.0 
7.542955005812e-04 1.035537107234e-02 0.0 
1.069911640877e-03 8.179515687813e-03 0.0 
7.956283206496e-04 1.067478046455e-02 0.0 
1.169892000676e-03 8.310185510860e-03 0.0 
8.347076922213e-04 1.032633017861e-02 0.0 
8.576582168934e-04 1.062882578836e-02 0.0 
9.012746239997e-04 1.026941243658e-02 0.0 
9.013409421278e-04 1.055236963978e-02 0.0 
9.537104361511e-04 1.018096873674e-02 0.0 
9.214125040819e-04 1.043796530437e-02 0.0 
9.885273794044e-04 1.004196778425e-02 0.0 
7.266582403182e-04 8.404341227985e-03 0.0 
9.154943560719e-04 1.025875401484e-02 0.0 
1.010509238814e-03 9.823813480045e-03 0.0 
8.902061370898e-04 9.988846226091e-03 0.0 
1.031166401090e-03 9.498184661716e-03 0.0 
1.070705585807e-03 9.018688767295e-03 0.0 
8.588610814710e-04 9.596123495054e-03 0.0 
8.520935870253e-04 9.021349441115e-03 0.0 
1.374510632763e-03 7.523923664475e-03 0.0 
1.031257232204e-03 7.748749204648e-03 0.0 
2.552912387826e-05 1.052130242102e-02 0.0 
1.282889564843e-04 1.052784084118e-02 0.0 
7.005596620579e-05 1.017999823050e-02 0.0 
8.376211415681e-05 1.086914503170e-02 0.0 
1.174213015360e-03 7.136565372904e-03 0.0 

VECTORS element_materi_displacement float
0.0 0.0 0.0 
0.0 0.0 0.0 
0.0 0.0 0.0 
0.0 0.0 0.0 
0.0 0.0 0.0 
0.0 0.0 0.0 
0.0 0.0 0.0 
0.0 0.0 0.0 
0.0 0.0 0.0 
0.0 0.0 0.0 
0.0 0.0 0.0 
0.0 0.0 0.0 
0.0 0.0 0.0 
0.0 0.0 0.0 
0.0 0.0 0.0 
0.0 0.0 0.0 
0.0 0.0 0.0 
0.0 0.0 0.0 
0.0 0.0 0.0 
0.0 0.0 0.0 
0.0 0.0 0.0 
0.0 0.0 0.0 
0.0 0.0 0.0 
0.0 0.0 0.0 
0.0 0.0 0.0 
0.0 0.0 0.0 
0.0 0.0 0.0 
0.0 0.0 0.0 
0.0 0.0 0.0 
0.0 0.0 0.0 
0.0 0.0 0.0 
0.0 0.0 0.0 
0.0 0.0 0.0 
0.0 0.0 0.0 
0.0 0.0 0.0 
0.0 0.0 0.0 
0.0 0.0 0.0 
0.0 0.0 0.0 
0.0 0.0 0.0 
0.0 0.0 0.0 
0.0 0.0 0.0 
0.0 0.0 0.0 
0.0 0.0 0.0 
0.0 0.0 0.0 
0.0 0.0 0.0 
0.0 0.0 0.0 
0.0 0.0 0.0 
0.0 0.0 0.0 
0.0 0.0 0.0 
0.0 0.0 0.0 
0.0 0.0 0.0 
0.0 0.0 0.0 
0.0 0.0 0.0 
0.0 0.0 0.0 
0.0 0.0 0.0 
0.0 0.0 0.0 
0.0 0.0 0.0 
0.0 0.0 0.0 
0.0 0.0 0.0 
0.0 0.0 0.0 
0.0 0.0 0.0 
0.0 0.0 0.0 
0.0 0.0 0.0 
0.0 0.0 0.0 
0.0 0.0 0.0 
0.0 0.0 0.0 
0.0 0.0 0.0 
0.0 0.0 0.0 
0.0 0.0 0.0 
0.0 0.0 0.0 
0.0 0.0 0.0 
0.0 0.0 0.0 
0.0 0.0 0.0 
0.0 0.0 0.0 
0.0 0.0 0.0 
0.0 0.0 0.0 
0.0 0.0 0.0 
0.0 0.0 0.0 
0.0 0.0 0.0 
0.0 0.0 0.0 
0.0 0.0 0.0 
0.0 0.0 0.0 
0.0 0.0 0.0 
0.0 0.0 0.0 
0.0 0.0 0.0 
0.0 0.0 0.0 
0.0 0.0 0.0 
0.0 0.0 0.0 
0.0 0.0 0.0 
0.0 0.0 0.0 
0.0 0.0 0.0 
0.0 0.0 0.0 
0.0 0.0 0.0 
0.0 0.0 0.0 
0.0 0.0 0.0 
0.0 0.0 0.0 
0.0 0.0 0.0 
0.0 0.0 0.0 
0.0 0.0 0.0 
0.0 0.0 0.0 
0.0 0.0 0.0 
0.0 0.0 0.0 
0.0 0.0 0.0 
0.0 0.0 0.0 
0.0 0.0 0.0 
0.0 0.0 0.0 
0.0 0.0 0.0 
0.0 0.0 0.0 
0.0 0.0 0.0 
0.0 0.0 0.0 
0.0 0.0 0.0 
0.0 0.0 0.0 
0.0 0.0 0.0 
0.0 0.0 0.0 
0.0 0.0 0.0 
0.0 0.0 0.0 
0.0 0.0 0.0 
0.0 0.0 0.0 
0.0 0.0 0.0 
0.0 0.0 0.0 
0.0 0.0 0.0 
0.0 0.0 0.0 
0.0 0.0 0.0 
0.0 0.0 0.0 
0.0 0.0 0.0 
0.0 0.0 0.0 
0.0 0.0 0.0 
0.0 0.0 0.0 
0.0 0.0 0.0 
0.0 0.0 0.0 
0.0 0.0 0.0 
0.0 0.0 0.0 
0.0 0.0 0.0 
0.0 0.0 0.0 
0.0 0.0 0.0 
0.0 0.0 0.0 
0.0 0.0 0.0 
0.0 0.0 0.0 
0.0 0.0 0.0 
0.0 0.0 0.0 
0.0 0.0 0.0 
0.0 0.0 0.0 
0.0 0.0 0.0 
0.0 0.0 0.0 
0.0 0.0 0.0 
0.0 0.0 0.0 
0.0 0.0 0.0 
0.0 0.0 0.0 
0.0 0.0 0.0 
0.0 0.0 0.0 
0.0 0.0 0.0 
0.0 0.0 0.0 
0.0 0.0 0.0 
0.0 0.0 0.0 
0.0 0.0 0.0 
0.0 0.0 0.0 
0.0 0.0 0.0 
0.0 0.0 0.0 
0.0 0.0 0.0 
0.0 0.0 0.0 
0.0 0.0 0.0 
0.0 0.0 0.0 
0.0 0.0 0.0 
0.0 0.0 0.0 
0.0 0.0 0.0 
0.0 0.0 0.0 
0.0 0.0 0.0 
0.0 0.0 0.0 
0.0 0.0 0.0 
0.0 0.0 0.0 
0.0 0.0 0.0 
0.0 0.0 0.0 
0.0 0.0 0.0 
0.0 0.0 0.0 
0.0 0.0 0.0 
0.0 0.0 0.0 
0.0 0.0 0.0 
0.0 0.0 0.0 
0.0 0.0 0.0 
0.0 0.0 0.0 
0.0 0.0 0.0 
0.0 0.0 0.0 
0.0 0.0 0.0 
0.0 0.0 0.0 
0.0 0.0 0.0 
0.0 0.0 0.0 
0.0 0.0 0.0 
0.0 0.0 0.0 
0.0 0.0 0.0 
0.0 0.0 0.0 
0.0 0.0 0.0 
0.0 0.0 0.0 
0.0 0.0 0.0 
0.0 0.0 0.0 
0.0 0.0 0.0 
0.0 0.0 0.0 
0.0 0.0 0.0 
0.0 0.0 0.0 
0.0 0.0 0.0 
0.0 0.0 0.0 
0.0 0.0 0.0 
0.0 0.0 0.0 
0.0 0.0 0.0 
0.0 0.0 0.0 
0.0 0.0 0.0 
0.0 0.0 0.0 
0.0 0.0 0.0 
0.0 0.0 0.0 
0.0 0.0 0.0 
0.0 0.0 0.0 
0.0 0.0 0.0 
0.0 0.0 0.0 
0.0 0.0 0.0 
0.0 0.0 0.0 
0.0 0.0 0.0 
0.0 0.0 0.0 
0.0 0.0 0.0 
0.0 0.0 0.0 
0.0 0.0 0.0 
0.0 0.0 0.0 
0.0 0.0 0.0 
0.0 0.0 0.0 
0.0 0.0 0.0 
0.0 0.0 0.0 
0.0 0.0 0.0 
0.0 0.0 0.0 
0.0 0.0 0.0 
0.0 0.0 0.0 
0.0 0.0 0.0 
0.0 0.0 0.0 
0.0 0.0 0.0 
0.0 0.0 0.0 
0.0 0.0 0.0 
0.0 0.0 0.0 
0.0 0.0 0.0 
0.0 0.0 0.0 
0.0 0.0 0.0 
0.0 0.0 0.0 
0.0 0.0 0.0 
0.0 0.0 0.0 
0.0 0.0 0.0 
0.0 0.0 0.0 
0.0 0.0 0.0 
0.0 0.0 0.0 
0.0 0.0 0.0 
0.0 0.0 0.0 
0.0 0.0 0.0 
0.0 0.0 0.0 
0.0 0.0 0.0 
0.0 0.0 0.0 
0.0 0.0 0.0 
0.0 0.0 0.0 
0.0 0.0 0.0 
0.0 0.0 0.0 
0.0 0.0 0.0 
0.0 0.0 0.0 
0.0 0.0 0.0 
0.0 0.0 0.0 
0.0 0.0 0.0 
0.0 0.0 0.0 
0.0 0.0 0.0 
0.0 0.0 0.0 
0.0 0.0 0.0 
0.0 0.0 0.0 
0.0 0.0 0.0 
0.0 0.0 0.0 
0.0 0.0 0.0 
0.0 0.0 0.0 
0.0 0.0 0.0 
0.0 0.0 0.0 
0.0 0.0 0.0 
0.0 0.0 0.0 
0.0 0.0 0.0 
0.0 0.0 0.0 
0.0 0.0 0.0 
0.0 0.0 0.0 
0.0 0.0 0.0 
0.0 0.0 0.0 
0.0 0.0 0.0 
0.0 0.0 0.0 
0.0 0.0 0.0 
0.0 0.0 0.0 
0.0 0.0 0.0 
0.0 0.0 0.0 
0.0 0.0 0.0 
0.0 0.0 0.0 
0.0 0.0 0.0 
0.0 0.0 0.0 
0.0 0.0 0.0 
0.0 0.0 0.0 
0.0 0.0 0.0 
0.0 0.0 0.0 
0.0 0.0 0.0 
0.0 0.0 0.0 
0.0 0.0 0.0 
0.0 0.0 0.0 
0.0 0.0 0.0 
0.0 0.0 0.0 
0.0 0.0 0.0 
0.0 0.0 0.0 
0.0 0.0 0.0 
0.0 0.0 0.0 
0.0 0.0 0.0 
0.0 0.0 0.0 
0.0 0.0 0.0 
0.0 0.0 0.0 
0.0 0.0 0.0 
0.0 0.0 0.0 
0.0 0.0 0.0 
0.0 0.0 0.0 
0.0 0.0 0.0 
0.0 0.0 0.0 
0.0 0.0 0.0 
0.0 0.0 0.0 
0.0 0.0 0.0 
0.0 0.0 0.0 
0.0 0.0 0.0 
0.0 0.0 0.0 
0.0 0.0 0.0 
0.0 0.0 0.0 
0.0 0.0 0.0 
0.0 0.0 0.0 
0.0 0.0 0.0 
0.0 0.0 0.0 
0.0 0.0 0.0 
0.0 0.0 0.0 
0.0 0.0 0.0 
0.0 0.0 0.0 
0.0 0.0 0.0 
0.0 0.0 0.0 
0.0 0.0 0.0 
0.0 0.0 0.0 
0.0 0.0 0.0 
0.0 0.0 0.0 
0.0 0.0 0.0 
0.0 0.0 0.0 
0.0 0.0 0.0 
0.0 0.0 0.0 
0.0 0.0 0.0 
0.0 0.0 0.0 
0.0 0.0 0.0 
0.0 0.0 0.0 
0.0 0.0 0.0 
0.0 0.0 0.0 
0.0 0.0 0.0 
0.0 0.0 0.0 
0.0 0.0 0.0 
0.0 0.0 0.0 
0.0 0.0 0.0 
0.0 0.0 0.0 
0.0 0.0 0.0 
0.0 0.0 0.0 
0.0 0.0 0.0 
0.0 0.0 0.0 
0.0 0.0 0.0 
0.0 0.0 0.0 
0.0 0.0 0.0 
0.0 0.0 0.0 
0.0 0.0 0.0 
0.0 0.0 0.0 
0.0 0.0 0.0 
0.0 0.0 0.0 
0.0 0.0 0.0 
0.0 0.0 0.0 
0.0 0.0 0.0 
0.0 0.0 0.0 
0.0 0.0 0.0 
0.0 0.0 0.0 
0.0 0.0 0.0 
0.0 0.0 0.0 
0.0 0.0 0.0 
0.0 0.0 0.0 
0.0 0.0 0.0 
0.0 0.0 0.0 
0.0 0.0 0.0 
0.0 0.0 0.0 
0.0 0.0 0.0 
0.0 0.0 0.0 
0.0 0.0 0.0 
0.0 0.0 0.0 
0.0 0.0 0.0 
0.0 0.0 0.0 
0.0 0.0 0.0 
0.0 0.0 0.0 
0.0 0.0 0.0 
0.0 0.0 0.0 
0.0 0.0 0.0 
0.0 0.0 0.0 
0.0 0.0 0.0 
0.0 0.0 0.0 
0.0 0.0 0.0 
0.0 0.0 0.0 
0.0 0.0 0.0 
0.0 0.0 0.0 
0.0 0.0 0.0 
0.0 0.0 0.0 
0.0 0.0 0.0 
0.0 0.0 0.0 
0.0 0.0 0.0 
0.0 0.0 0.0 
0.0 0.0 0.0 
0.0 0.0 0.0 
0.0 0.0 0.0 
0.0 0.0 0.0 
0.0 0.0 0.0 
0.0 0.0 0.0 
0.0 0.0 0.0 
0.0 0.0 0.0 
0.0 0.0 0.0 
0.0 0.0 0.0 
0.0 0.0 0.0 
0.0 0.0 0.0 
0.0 0.0 0.0 
0.0 0.0 0.0 
0.0 0.0 0.0 
0.0 0.0 0.0 
0.0 0.0 0.0 
0.0 0.0 0.0 
0.0 0.0 0.0 
0.0 0.0 0.0 
0.0 0.0 0.0 
0.0 0.0 0.0 
0.0 0.0 0.0 
0.0 0.0 0.0 
0.0 0.0 0.0 
0.0 0.0 0.0 
0.0 0.0 0.0 
0.0 0.0 0.0 
0.0 0.0 0.0 
0.0 0.0 0.0 
0.0 0.0 0.0 
0.0 0.0 0.0 
0.0 0.0 0.0 
0.0 0.0 0.0 
0.0 0.0 0.0 
0.0 0.0 0.0 
0.0 0.0 0.0 
0.0 0.0 0.0 
0.0 0.0 0.0 
0.0 0.0 0.0 
0.0 0.0 0.0 
0.0 0.0 0.0 
0.0 0.0 0.0 
0.0 0.0 0.0 
0.0 0.0 0.0 
0.0 0.0 0.0 
0.0 0.0 0.0 
0.0 0.0 0.0 
0.0 0.0 0.0 
0.0 0.0 0.0 
0.0 0.0 0.0 
0.0 0.0 0.0 
0.0 0.0 0.0 
0.0 0.0 0.0 
0.0 0.0 0.0 
0.0 0.0 0.0 
0.0 0.0 0.0 
0.0 0.0 0.0 
0.0 0.0 0.0 
0.0 0.0 0.0 
0.0 0.0 0.0 
0.0 0.0 0.0 
0.0 0.0 0.0 
0.0 0.0 0.0 
0.0 0.0 0.0 
0.0 0.0 0.0 
0.0 0.0 0.0 
0.0 0.0 0.0 
0.0 0.0 0.0 
0.0 0.0 0.0 
0.0 0.0 0.0 
0.0 0.0 0.0 
0.0 0.0 0.0 
0.0 0.0 0.0 
0.0 0.0 0.0 
0.0 0.0 0.0 
0.0 0.0 0.0 
0.0 0.0 0.0 
0.0 0.0 0.0 
0.0 0.0 0.0 
0.0 0.0 0.0 
0.0 0.0 0.0 
0.0 0.0 0.0 
0.0 0.0 0.0 
0.0 0.0 0.0 
0.0 0.0 0.0 
0.0 0.0 0.0 
0.0 0.0 0.0 
0.0 0.0 0.0 
0.0 0.0 0.0 
0.0 0.0 0.0 
0.0 0.0 0.0 
0.0 0.0 0.0 
0.0 0.0 0.0 
0.0 0.0 0.0 
0.0 0.0 0.0 
0.0 0.0 0.0 
0.0 0.0 0.0 
0.0 0.0 0.0 
0.0 0.0 0.0 
0.0 0.0 0.0 
0.0 0.0 0.0 
0.0 0.0 0.0 
0.0 0.0 0.0 
0.0 0.0 0.0 
0.0 0.0 0.0 
0.0 0.0 0.0 
0.0 0.0 0.0 
0.0 0.0 0.0 
0.0 0.0 0.0 
0.0 0.0 0.0 
0.0 0.0 0.0 
0.0 0.0 0.0 
0.0 0.0 0.0 
0.0 0.0 0.0 
0.0 0.0 0.0 
0.0 0.0 0.0 
0.0 0.0 0.0 
0.0 0.0 0.0 
0.0 0.0 0.0 
0.0 0.0 0.0 
0.0 0.0 0.0 
0.0 0.0 0.0 
0.0 0.0 0.0 
0.0 0.0 0.0 
0.0 0.0 0.0 
0.0 0.0 0.0 
0.0 0.0 0.0 
0.0 0.0 0.0 
0.0 0.0 0.0 
0.0 0.0 0.0 
0.0 0.0 0.0 
0.0 0.0 0.0 
0.0 0.0 0.0 
0.0 0.0 0.0 
0.0 0.0 0.0 
0.0 0.0 0.0 
0.0 0.0 0.0 
0.0 0.0 0.0 
0.0 0.0 0.0 
0.0 0.0 0.0 
0.0 0.0 0.0 
0.0 0.0 0.0 
0.0 0.0 0.0 
0.0 0.0 0.0 
0.0 0.0 0.0 
0.0 0.0 0.0 
0.0 0.0 0.0 
0.0 0.0 0.0 
0.0 0.0 0.0 
0.0 0.0 0.0 
0.0 0.0 0.0 
0.0 0.0 0.0 
0.0 0.0 0.0 
0.0 0.0 0.0 
0.0 0.0 0.0 
0.0 0.0 0.0 
0.0 0.0 0.0 
0.0 0.0 0.0 
0.0 0.0 0.0 
0.0 0.0 0.0 
0.0 0.0 0.0 
0.0 0.0 0.0 
0.0 0.0 0.0 
0.0 0.0 0.0 
0.0 0.0 0.0 
0.0 0.0 0.0 
0.0 0.0 0.0 
0.0 0.0 0.0 
0.0 0.0 0.0 
0.0 0.0 0.0 
0.0 0.0 0.0 
0.0 0.0 0.0 
0.0 0.0 0.0 
0.0 0.0 0.0 
0.0 0.0 0.0 
0.0 0.0 0.0 
0.0 0.0 0.0 
0.0 0.0 0.0 
0.0 0.0 0.0 
0.0 0.0 0.0 
0.0 0.0 0.0 
0.0 0.0 0.0 
0.0 0.0 0.0 
0.0 0.0 0.0 
0.0 0.0 0.0 
0.0 0.0 0.0 
0.0 0.0 0.0 
0.0 0.0 0.0 
0.0 0.0 0.0 
0.0 0.0 0.0 
0.0 0.0 0.0 
0.0 0.0 0.0 
0.0 0.0 0.0 
0.0 0.0 0.0 
0.0 0.0 0.0 
0.0 0.0 0.0 
0.0 0.0 0.0 
0.0 0.0 0.0 
0.0 0.0 0.0 
0.0 0.0 0.0 
0.0 0.0 0.0 
0.0 0.0 0.0 
0.0 0.0 0.0 
0.0 0.0 0.0 
0.0 0.0 0.0 
0.0 0.0 0.0 
0.0 0.0 0.0 
0.0 0.0 0.0 
0.0 0.0 0.0 
0.0 0.0 0.0 
0.0 0.0 0.0 
0.0 0.0 0.0 
0.0 0.0 0.0 
0.0 0.0 0.0 
0.0 0.0 0.0 
0.0 0.0 0.0 
0.0 0.0 0.0 
0.0 0.0 0.0 
0.0 0.0 0.0 
0.0 0.0 0.0 
0.0 0.0 0.0 
0.0 0.0 0.0 
0.0 0.0 0.0 
0.0 0.0 0.0 
0.0 0.0 0.0 
0.0 0.0 0.0 
0.0 0.0 0.0 
0.0 0.0 0.0 
0.0 0.0 0.0 
0.0 0.0 0.0 
0.0 0.0 0.0 
0.0 0.0 0.0 
0.0 0.0 0.0 
0.0 0.0 0.0 
0.0 0.0 0.0 
0.0 0.0 0.0 
0.0 0.0 0.0 
0.0 0.0 0.0 
0.0 0.0 0.0 
0.0 0.0 0.0 
0.0 0.0 0.0 
0.0 0.0 0.0 
0.0 0.0 0.0 
0.0 0.0 0.0 
0.0 0.0 0.0 
0.0 0.0 0.0 
0.0 0.0 0.0 
0.0 0.0 0.0 
0.0 0.0 0.0 
0.0 0.0 0.0 
0.0 0.0 0.0 
0.0 0.0 0.0 
0.0 0.0 0.0 
0.0 0.0 0.0 
0.0 0.0 0.0 
0.0 0.0 0.0 
0.0 0.0 0.0 
0.0 0.0 0.0 
0.0 0.0 0.0 
0.0 0.0 0.0 
0.0 0.0 0.0 
0.0 0.0 0.0 
0.0 0.0 0.0 
0.0 0.0 0.0 
0.0 0.0 0.0 
0.0 0.0 0.0 
0.0 0.0 0.0 
0.0 0.0 0.0 
0.0 0.0 0.0 
0.0 0.0 0.0 
0.0 0.0 0.0 
0.0 0.0 0.0 
0.0 0.0 0.0 
0.0 0.0 0.0 
0.0 0.0 0.0 
0.0 0.0 0.0 
0.0 0.0 0.0 
0.0 0.0 0.0 
0.0 0.0 0.0 
0.0 0.0 0.0 
0.0 0.0 0.0 
0.0 0.0 0.0 
0.0 0.0 0.0 
0.0 0.0 0.0 
0.0 0.0 0.0 
0.0 0.0 0.0 
0.0 0.0 0.0 
0.0 0.0 0.0 
0.0 0.0 0.0 
0.0 0.0 0.0 
0.0 0.0 0.0 
0.0 0.0 0.0 
0.0 0.0 0.0 
0.0 0.0 0.0 
0.0 0.0 0.0 
0.0 0.0 0.0 
0.0 0.0 0.0 
0.0 0.0 0.0 
0.0 0.0 0.0 
0.0 0.0 0.0 
0.0 0.0 0.0 
0.0 0.0 0.0 
0.0 0.0 0.0 
0.0 0.0 0.0 
0.0 0.0 0.0 
0.0 0.0 0.0 
0.0 0.0 0.0 
0.0 0.0 0.0 
0.0 0.0 0.0 
0.0 0.0 0.0 
0.0 0.0 0.0 
0.0 0.0 0.0 
0.0 0.0 0.0 
0.0 0.0 0.0 
0.0 0.0 0.0 
0.0 0.0 0.0 
0.0 0.0 0.0 
0.0 0.0 0.0 
0.0 0.0 0.0 
0.0 0.0 0.0 
0.0 0.0 0.0 
0.0 0.0 0.0 
0.0 0.0 0.0 
0.0 0.0 0.0 
0.0 0.0 0.0 
0.0 0.0 0.0 
0.0 0.0 0.0 
0.0 0.0 0.0 
0.0 0.0 0.0 
0.0 0.0 0.0 
0.0 0.0 0.0 
0.0 0.0 0.0 
0.0 0.0 0.0 
0.0 0.0 0.0 
0.0 0.0 0.0 
0.0 0.0 0.0 
0.0 0.0 0.0 
0.0 0.0 0.0 
0.0 0.0 0.0 
0.0 0.0 0.0 
0.0 0.0 0.0 
0.0 0.0 0.0 
0.0 0.0 0.0 
0.0 0.0 0.0 
0.0 0.0 0.0 
0.0 0.0 0.0 
0.0 0.0 0.0 
0.0 0.0 0.0 
0.0 0.0 0.0 
0.0 0.0 0.0 
0.0 0.0 0.0 
0.0 0.0 0.0 
0.0 0.0 0.0 
0.0 0.0 0.0 
0.0 0.0 0.0 
0.0 0.0 0.0 
0.0 0.0 0.0 
0.0 0.0 0.0 
0.0 0.0 0.0 
0.0 0.0 0.0 
0.0 0.0 0.0 
0.0 0.0 0.0 
0.0 0.0 0.0 
0.0 0.0 0.0 
0.0 0.0 0.0 
0.0 0.0 0.0 
0.0 0.0 0.0 
0.0 0.0 0.0 
0.0 0.0 0.0 
0.0 0.0 0.0 
0.0 0.0 0.0 
0.0 0.0 0.0 
0.0 0.0 0.0 
0.0 0.0 0.0 
0.0 0.0 0.0 
0.0 0.0 0.0 
0.0 0.0 0.0 
0.0 0.0 0.0 
0.0 0.0 0.0 
0.0 0.0 0.0 
0.0 0.0 0.0 
0.0 0.0 0.0 
0.0 0.0 0.0 
0.0 0.0 0.0 
0.0 0.0 0.0 
0.0 0.0 0.0 
0.0 0.0 0.0 
0.0 0.0 0.0 
0.0 0.0 0.0 
0.0 0.0 0.0 
0.0 0.0 0.0 
0.0 0.0 0.0 
0.0 0.0 0.0 
0.0 0.0 0.0 
0.0 0.0 0.0 
0.0 0.0 0.0 
0.0 0.0 0.0 
0.0 0.0 0.0 
0.0 0.0 0.0 
0.0 0.0 0.0 
0.0 0.0 0.0 
0.0 0.0 0.0 
0.0 0.0 0.0 
0.0 0.0 0.0 
0.0 0.0 0.0 
0.0 0.0 0.0 
0.0 0.0 0.0 
0.0 0.0 0.0 
0.0 0.0 0.0 
0.0 0.0 0.0 
0.0 0.0 0.0 
0.0 0.0 0.0 
0.0 0.0 0.0 
0.0 0.0 0.0 
0.0 0.0 0.0 
0.0 0.0 0.0 
0.0 0.0 0.0 
0.0 0.0 0.0 
0.0 0.0 0.0 
0.0 0.0 0.0 
0.0 0.0 0.0 
0.0 0.0 0.0 
0.0 0.0 0.0 
0.0 0.0 0.0 
0.0 0.0 0.0 
0.0 0.0 0.0 
0.0 0.0 0.0 
0.0 0.0 0.0 
0.0 0.0 0.0 
0.0 0.0 0.0 
0.0 0.0 0.0 
0.0 0.0 0.0 
0.0 0.0 0.0 
0.0 0.0 0.0 
0.0 0.0 0.0 
0.0 0.0 0.0 
0.0 0.0 0.0 
0.0 0.0 0.0 
0.0 0.0 0.0 
0.0 0.0 0.0 
0.0 0.0 0.0 
0.0 0.0 0.0 
0.0 0.0 0.0 
0.0 0.0 0.0 
0.0 0.0 0.0 
0.0 0.0 0.0 
0.0 0.0 0.0 
0.0 0.0 0.0 
0.0 0.0 0.0 
0.0 0.0 0.0 
0.0 0.0 0.0 
0.0 0.0 0.0 
0.0 0.0 0.0 
0.0 0.0 0.0 
0.0 0.0 0.0 
0.0 0.0 0.0 
0.0 0.0 0.0 
0.0 0.0 0.0 
0.0 0.0 0.0 
0.0 0.0 0.0 
0.0 0.0 0.0 
0.0 0.0 0.0 
0.0 0.0 0.0 
0.0 0.0 0.0 
0.0 0.0 0.0 
0.0 0.0 0.0 
0.0 0.0 0.0 
0.0 0.0 0.0 
0.0 0.0 0.0 
0.0 0.0 0.0 
0.0 0.0 0.0 
0.0 0.0 0.0 
0.0 0.0 0.0 
0.0 0.0 0.0 
0.0 0.0 0.0 
0.0 0.0 0.0 
0.0 0.0 0.0 
0.0 0.0 0.0 
0.0 0.0 0.0 
0.0 0.0 0.0 
0.0 0.0 0.0 
0.0 0.0 0.0 
0.0 0.0 0.0 
0.0 0.0 0.0 
0.0 0.0 0.0 
0.0 0.0 0.0 
0.0 0.0 0.0 
0.0 0.0 0.0 
0.0 0.0 0.0 
0.0 0.0 0.0 
0.0 0.0 0.0 
0.0 0.0 0.0 
0.0 0.0 0.0 
0.0 0.0 0.0 
0.0 0.0 0.0 
0.0 0.0 0.0 
0.0 0.0 0.0 
0.0 0.0 0.0 
0.0 0.0 0.0 
0.0 0.0 0.0 
0.0 0.0 0.0 
0.0 0.0 0.0 
0.0 0.0 0.0 
0.0 0.0 0.0 
0.0 0.0 0.0 
0.0 0.0 0.0 
0.0 0.0 0.0 
0.0 0.0 0.0 
0.0 0.0 0.0 
0.0 0.0 0.0 
0.0 0.0 0.0 
0.0 0.0 0.0 
0.0 0.0 0.0 
0.0 0.0 0.0 
0.0 0.0 0.0 
0.0 0.0 0.0 
0.0 0.0 0.0 
0.0 0.0 0.0 
0.0 0.0 0.0 
0.0 0.0 0.0 
0.0 0.0 0.0 
0.0 0.0 0.0 
0.0 0.0 0.0 
0.0 0.0 0.0 
0.0 0.0 0.0 
0.0 0.0 0.0 
0.0 0.0 0.0 
0.0 0.0 0.0 
0.0 0.0 0.0 
0.0 0.0 0.0 
0.0 0.0 0.0 
0.0 0.0 0.0 
0.0 0.0 0.0 
0.0 0.0 0.0 
0.0 0.0 0.0 
0.0 0.0 0.0 
0.0 0.0 0.0 
0.0 0.0 0.0 
0.0 0.0 0.0 
0.0 0.0 0.0 
0.0 0.0 0.0 
0.0 0.0 0.0 
0.0 0.0 0.0 
0.0 0.0 0.0 
0.0 0.0 0.0 
0.0 0.0 0.0 
0.0 0.0 0.0 
0.0 0.0 0.0 
0.0 0.0 0.0 
0.0 0.0 0.0 
0.0 0.0 0.0 
0.0 0.0 0.0 
0.0 0.0 0.0 
0.0 0.0 0.0 
0.0 0.0 0.0 
0.0 0.0 0.0 
0.0 0.0 0.0 
0.0 0.0 0.0 
0.0 0.0 0.0 
0.0 0.0 0.0 
0.0 0.0 0.0 
0.0 0.0 0.0 
0.0 0.0 0.0 
0.0 0.0 0.0 
0.0 0.0 0.0 
0.0 0.0 0.0 
0.0 0.0 0.0 
0.0 0.0 0.0 
0.0 0.0 0.0 
0.0 0.0 0.0 
0.0 0.0 0.0 
0.0 0.0 0.0 
0.0 0.0 0.0 
0.0 0.0 0.0 
0.0 0.0 0.0 
0.0 0.0 0.0 
0.0 0.0 0.0 
0.0 0.0 0.0 
0.0 0.0 0.0 
0.0 0.0 0.0 
0.0 0.0 0.0 
0.0 0.0 0.0 
0.0 0.0 0.0 
0.0 0.0 0.0 
0.0 0.0 0.0 
0.0 0.0 0.0 
0.0 0.0 0.0 
0.0 0.0 0.0 
0.0 0.0 0.0 
0.0 0.0 0.0 
0.0 0.0 0.0 
0.0 0.0 0.0 
0.0 0.0 0.0 
0.0 0.0 0.0 
0.0 0.0 0.0 
0.0 0.0 0.0 
0.0 0.0 0.0 
0.0 0.0 0.0 
0.0 0.0 0.0 
0.0 0.0 0.0 
0.0 0.0 0.0 
0.0 0.0 0.0 
0.0 0.0 0.0 
0.0 0.0 0.0 
0.0 0.0 0.0 
0.0 0.0 0.0 
0.0 0.0 0.0 
0.0 0.0 0.0 
0.0 0.0 0.0 
0.0 0.0 0.0 
0.0 0.0 0.0 
0.0 0.0 0.0 
0.0 0.0 0.0 
0.0 0.0 0.0 
0.0 0.0 0.0 
0.0 0.0 0.0 
0.0 0.0 0.0 
0.0 0.0 0.0 
0.0 0.0 0.0 
0.0 0.0 0.0 
0.0 0.0 0.0 
0.0 0.0 0.0 
0.0 0.0 0.0 
0.0 0.0 0.0 
0.0 0.0 0.0 
0.0 0.0 0.0 
0.0 0.0 0.0 
0.0 0.0 0.0 
0.0 0.0 0.0 
0.0 0.0 0.0 
0.0 0.0 0.0 
0.0 0.0 0.0 
0.0 0.0 0.0 
0.0 0.0 0.0 
0.0 0.0 0.0 
0.0 0.0 0.0 
0.0 0.0 0.0 
0.0 0.0 0.0 
0.0 0.0 0.0 
0.0 0.0 0.0 
0.0 0.0 0.0 
0.0 0.0 0.0 
0.0 0.0 0.0 
0.0 0.0 0.0 
0.0 0.0 0.0 
0.0 0.0 0.0 
0.0 0.0 0.0 
0.0 0.0 0.0 
0.0 0.0 0.0 
0.0 0.0 0.0 
0.0 0.0 0.0 
0.0 0.0 0.0 
0.0 0.0 0.0 
0.0 0.0 0.0 
0.0 0.0 0.0 
0.0 0.0 0.0 
0.0 0.0 0.0 
0.0 0.0 0.0 
0.0 0.0 0.0 
0.0 0.0 0.0 
0.0 0.0 0.0 
0.0 0.0 0.0 
0.0 0.0 0.0 
0.0 0.0 0.0 
0.0 0.0 0.0 
0.0 0.0 0.0 
0.0 0.0 0.0 
0.0 0.0 0.0 
0.0 0.0 0.0 
0.0 0.0 0.0 
0.0 0.0 0.0 
0.0 0.0 0.0 
0.0 0.0 0.0 
0.0 0.0 0.0 
0.0 0.0 0.0 
0.0 0.0 0.0 
0.0 0.0 0.0 
0.0 0.0 0.0 
0.0 0.0 0.0 
0.0 0.0 0.0 
0.0 0.0 0.0 
0.0 0.0 0.0 
0.0 0.0 0.0 
0.0 0.0 0.0 
0.0 0.0 0.0 
0.0 0.0 0.0 
0.0 0.0 0.0 
0.0 0.0 0.0 
0.0 0.0 0.0 
0.0 0.0 0.0 
0.0 0.0 0.0 
0.0 0.0 0.0 
0.0 0.0 0.0 
0.0 0.0 0.0 
0.0 0.0 0.0 
0.0 0.0 0.0 
0.0 0.0 0.0 
0.0 0.0 0.0 
0.0 0.0 0.0 
0.0 0.0 0.0 
0.0 0.0 0.0 
0.0 0.0 0.0 
0.0 0.0 0.0 
0.0 0.0 0.0 
0.0 0.0 0.0 
0.0 0.0 0.0 
0.0 0.0 0.0 
0.0 0.0 0.0 
0.0 0.0 0.0 
0.0 0.0 0.0 
0.0 0.0 0.0 
0.0 0.0 0.0 
0.0 0.0 0.0 
0.0 0.0 0.0 
0.0 0.0 0.0 
0.0 0.0 0.0 
0.0 0.0 0.0 
0.0 0.0 0.0 
0.0 0.0 0.0 
0.0 0.0 0.0 
0.0 0.0 0.0 
0.0 0.0 0.0 
0.0 0.0 0.0 
0.0 0.0 0.0 
0.0 0.0 0.0 
0.0 0.0 0.0 
0.0 0.0 0.0 
0.0 0.0 0.0 
0.0 0.0 0.0 
0.0 0.0 0.0 
0.0 0.0 0.0 
0.0 0.0 0.0 
0.0 0.0 0.0 
0.0 0.0 0.0 
0.0 0.0 0.0 
0.0 0.0 0.0 
0.0 0.0 0.0 
0.0 0.0 0.0 
0.0 0.0 0.0 
0.0 0.0 0.0 
0.0 0.0 0.0 
0.0 0.0 0.0 
0.0 0.0 0.0 
0.0 0.0 0.0 
0.0 0.0 0.0 
0.0 0.0 0.0 
0.0 0.0 0.0 
0.0 0.0 0.0 
0.0 0.0 0.0 
0.0 0.0 0.0 
0.0 0.0 0.0 
0.0 0.0 0.0 
0.0 0.0 0.0 
0.0 0.0 0.0 
0.0 0.0 0.0 
0.0 0.0 0.0 
0.0 0.0 0.0 
0.0 0.0 0.0 
0.0 0.0 0.0 
0.0 0.0 0.0 
0.0 0.0 0.0 
0.0 0.0 0.0 
0.0 0.0 0.0 
0.0 0.0 0.0 
0.0 0.0 0.0 
0.0 0.0 0.0 
0.0 0.0 0.0 
0.0 0.0 0.0 
0.0 0.0 0.0 
0.0 0.0 0.0 
0.0 0.0 0.0 
0.0 0.0 0.0 
0.0 0.0 0.0 
0.0 0.0 0.0 
0.0 0.0 0.0 
0.0 0.0 0.0 
0.0 0.0 0.0 
0.0 0.0 0.0 
0.0 0.0 0.0 
0.0 0.0 0.0 
0.0 0.0 0.0 
0.0 0.0 0.0 
0.0 0.0 0.0 
0.0 0.0 0.0 
0.0 0.0 0.0 
0.0 0.0 0.0 
0.0 0.0 0.0 
0.0 0.0 0.0 
0.0 0.0 0.0 
0.0 0.0 0.0 
0.0 0.0 0.0 
0.0 0.0 0.0 
0.0 0.0 0.0 
0.0 0.0 0.0 
0.0 0.0 0.0 
0.0 0.0 0.0 
0.0 0.0 0.0 
0.0 0.0 0.0 
0.0 0.0 0.0 
0.0 0.0 0.0 
0.0 0.0 0.0 
0.0 0.0 0.0 
0.0 0.0 0.0 
0.0 0.0 0.0 
0.0 0.0 0.0 
0.0 0.0 0.0 
0.0 0.0 0.0 
0.0 0.0 0.0 
0.0 0.0 0.0 
0.0 0.0 0.0 
0.0 0.0 0.0 
0.0 0.0 0.0 
0.0 0.0 0.0 
0.0 0.0 0.0 
0.0 0.0 0.0 
0.0 0.0 0.0 
0.0 0.0 0.0 
0.0 0.0 0.0 
0.0 0.0 0.0 
0.0 0.0 0.0 
0.0 0.0 0.0 
0.0 0.0 0.0 
0.0 0.0 0.0 
0.0 0.0 0.0 
0.0 0.0 0.0 
0.0 0.0 0.0 
0.0 0.0 0.0 
0.0 0.0 0.0 
0.0 0.0 0.0 
0.0 0.0 0.0 
0.0 0.0 0.0 
0.0 0.0 0.0 
0.0 0.0 0.0 
0.0 0.0 0.0 
0.0 0.0 0.0 
0.0 0.0 0.0 
0.0 0.0 0.0 
0.0 0.0 0.0 
0.0 0.0 0.0 
0.0 0.0 0.0 
0.0 0.0 0.0 
0.0 0.0 0.0 
0.0 0.0 0.0 
0.0 0.0 0.0 
0.0 0.0 0.0 
0.0 0.0 0.0 
0.0 0.0 0.0 
0.0 0.0 0.0 
0.0 0.0 0.0 
0.0 0.0 0.0 
0.0 0.0 0.0 
0.0 0.0 0.0 
0.0 0.0 0.0 
0.0 0.0 0.0 
0.0 0.0 0.0 
0.0 0.0 0.0 
0.0 0.0 0.0 
0.0 0.0 0.0 
0.0 0.0 0.0 
0.0 0.0 0.0 
0.0 0.0 0.0 
0.0 0.0 0.0 
0.0 0.0 0.0 
0.0 0.0 0.0 
0.0 0.0 0.0 
0.0 0.0 0.0 
0.0 0.0 0.0 
0.0 0.0 0.0 
0.0 0.0 0.0 
0.0 0.0 0.0 
0.0 0.0 0.0 
0.0 0.0 0.0 
0.0 0.0 0.0 
0.0 0.0 0.0 
0.0 0.0 0.0 
0.0 0.0 0.0 
0.0 0.0 0.0 
0.0 0.0 0.0 
0.0 0.0 0.0 
0.0 0.0 0.0 
0.0 0.0 0.0 
0.0 0.0 0.0 
0.0 0.0 0.0 
0.0 0.0 0.0 
0.0 0.0 0.0 
0.0 0.0 0.0 
0.0 0.0 0.0 
0.0 0.0 0.0 
0.0 0.0 0.0 
0.0 0.0 0.0 
0.0 0.0 0.0 
0.0 0.0 0.0 
0.0 0.0 0.0 
0.0 0.0 0.0 
0.0 0.0 0.0 
0.0 0.0 0.0 
0.0 0.0 0.0 
0.0 0.0 0.0 
0.0 0.0 0.0 
0.0 0.0 0.0 
0.0 0.0 0.0 
0.0 0.0 0.0 
0.0 0.0 0.0 
0.0 0.0 0.0 
0.0 0.0 0.0 
0.0 0.0 0.0 
0.0 0.0 0.0 
0.0 0.0 0.0 
0.0 0.0 0.0 
0.0 0.0 0.0 
0.0 0.0 0.0 
0.0 0.0 0.0 
0.0 0.0 0.0 
0.0 0.0 0.0 
0.0 0.0 0.0 
0.0 0.0 0.0 
0.0 0.0 0.0 
0.0 0.0 0.0 
0.0 0.0 0.0 
0.0 0.0 0.0 
0.0 0.0 0.0 
0.0 0.0 0.0 
0.0 0.0 0.0 
0.0 0.0 0.0 
0.0 0.0 0.0 
0.0 0.0 0.0 
0.0 0.0 0.0 
0.0 0.0 0.0 
0.0 0.0 0.0 
0.0 0.0 0.0 
0.0 0.0 0.0 
0.0 0.0 0.0 
0.0 0.0 0.0 
0.0 0.0 0.0 
0.0 0.0 0.0 
0.0 0.0 0.0 
0.0 0.0 0.0 
0.0 0.0 0.0 
0.0 0.0 0.0 
0.0 0.0 0.0 
0.0 0.0 0.0 
0.0 0.0 0.0 
0.0 0.0 0.0 
0.0 0.0 0.0 
0.0 0.0 0.0 
0.0 0.0 0.0 
0.0 0.0 0.0 
0.0 0.0 0.0 
0.0 0.0 0.0 
0.0 0.0 0.0 
0.0 0.0 0.0 
0.0 0.0 0.0 
0.0 0.0 0.0 
0.0 0.0 0.0 
0.0 0.0 0.0 
0.0 0.0 0.0 
0.0 0.0 0.0 
0.0 0.0 0.0 
0.0 0.0 0.0 
0.0 0.0 0.0 
0.0 0.0 0.0 
0.0 0.0 0.0 
0.0 0.0 0.0 
0.0 0.0 0.0 
0.0 0.0 0.0 
0.0 0.0 0.0 
0.0 0.0 0.0 
0.0 0.0 0.0 
0.0 0.0 0.0 
0.0 0.0 0.0 
0.0 0.0 0.0 
0.0 0.0 0.0 
0.0 0.0 0.0 
0.0 0.0 0.0 
0.0 0.0 0.0 
0.0 0.0 0.0 
0.0 0.0 0.0 
0.0 0.0 0.0 
0.0 0.0 0.0 
0.0 0.0 0.0 
0.0 0.0 0.0 
0.0 0.0 0.0 
0.0 0.0 0.0 
0.0 0.0 0.0 
0.0 0.0 0.0 
0.0 0.0 0.0 
0.0 0.0 0.0 
0.0 0.0 0.0 
0.0 0.0 0.0 
0.0 0.0 0.0 
0.0 0.0 0.0 
0.0 0.0 0.0 
0.0 0.0 0.0 
0.0 0.0 0.0 
0.0 0.0 0.0 
0.0 0.0 0.0 
0.0 0.0 0.0 
0.0 0.0 0.0 
0.0 0.0 0.0 
0.0 0.0 0.0 
0.0 0.0 0.0 
0.0 0.0 0.0 
0.0 0.0 0.0 
0.0 0.0 0.0 
0.0 0.0 0.0 
0.0 0.0 0.0 
0.0 0.0 0.0 
0.0 0.0 0.0 
0.0 0.0 0.0 
0.0 0.0 0.0 
0.0 0.0 0.0 
0.0 0.0 0.0 
0.0 0.0 0.0 
0.0 0.0 0.0 
0.0 0.0 0.0 
0.0 0.0 0.0 
0.0 0.0 0.0 
0.0 0.0 0.0 
0.0 0.0 0.0 
0.0 0.0 0.0 
0.0 0.0 0.0 
0.0 0.0 0.0 
0.0 0.0 0.0 
0.0 0.0 0.0 
0.0 0.0 0.0 
0.0 0.0 0.0 
0.0 0.0 0.0 
0.0 0.0 0.0 
0.0 0.0 0.0 
0.0 0.0 0.0 
0.0 0.0 0.0 
0.0 0.0 0.0 
0.0 0.0 0.0 
0.0 0.0 0.0 
0.0 0.0 0.0 
0.0 0.0 0.0 
0.0 0.0 0.0 
0.0 0.0 0.0 
0.0 0.0 0.0 
0.0 0.0 0.0 
0.0 0.0 0.0 
0.0 0.0 0.0 
0.0 0.0 0.0 
0.0 0.0 0.0 
0.0 0.0 0.0 
0.0 0.0 0.0 
0.0 0.0 0.0 
0.0 0.0 0.0 
0.0 0.0 0.0 
0.0 0.0 0.0 
0.0 0.0 0.0 
0.0 0.0 0.0 
0.0 0.0 0.0 
0.0 0.0 0.0 
0.0 0.0 0.0 
0.0 0.0 0.0 
0.0 0.0 0.0 
0.0 0.0 0.0 
0.0 0.0 0.0 
0.0 0.0 0.0 
0.0 0.0 0.0 
0.0 0.0 0.0 
0.0 0.0 0.0 
0.0 0.0 0.0 
0.0 0.0 0.0 
0.0 0.0 0.0 
0.0 0.0 0.0 
0.0 0.0 0.0 
0.0 0.0 0.0 
0.0 0.0 0.0 
0.0 0.0 0.0 
0.0 0.0 0.0 
0.0 0.0 0.0 
0.0 0.0 0.0 
0.0 0.0 0.0 
0.0 0.0 0.0 
0.0 0.0 0.0 
0.0 0.0 0.0 
0.0 0.0 0.0 
0.0 0.0 0.0 
0.0 0.0 0.0 
0.0 0.0 0.0 
0.0 0.0 0.0 
0.0 0.0 0.0 
0.0 0.0 0.0 
0.0 0.0 0.0 
0.0 0.0 0.0 
0.0 0.0 0.0 
0.0 0.0 0.0 
0.0 0.0 0.0 
0.0 0.0 0.0 
0.0 0.0 0.0 
0.0 0.0 0.0 
0.0 0.0 0.0 
0.0 0.0 0.0 
0.0 0.0 0.0 
0.0 0.0 0.0 
0.0 0.0 0.0 
0.0 0.0 0.0 
0.0 0.0 0.0 
0.0 0.0 0.0 
0.0 0.0 0.0 
0.0 0.0 0.0 
0.0 0.0 0.0 
0.0 0.0 0.0 
0.0 0.0 0.0 
0.0 0.0 0.0 
0.0 0.0 0.0 
0.0 0.0 0.0 
0.0 0.0 0.0 
0.0 0.0 0.0 
0.0 0.0 0.0 
0.0 0.0 0.0 
0.0 0.0 0.0 
0.0 0.0 0.0 
0.0 0.0 0.0 
0.0 0.0 0.0 
0.0 0.0 0.0 
0.0 0.0 0.0 
0.0 0.0 0.0 
0.0 0.0 0.0 
0.0 0.0 0.0 
0.0 0.0 0.0 
0.0 0.0 0.0 
0.0 0.0 0.0 
0.0 0.0 0.0 
0.0 0.0 0.0 
0.0 0.0 0.0 
0.0 0.0 0.0 
0.0 0.0 0.0 
0.0 0.0 0.0 
0.0 0.0 0.0 
0.0 0.0 0.0 
0.0 0.0 0.0 
0.0 0.0 0.0 
0.0 0.0 0.0 
0.0 0.0 0.0 
0.0 0.0 0.0 
0.0 0.0 0.0 
0.0 0.0 0.0 
0.0 0.0 0.0 
0.0 0.0 0.0 
0.0 0.0 0.0 
0.0 0.0 0.0 
0.0 0.0 0.0 
0.0 0.0 0.0 
0.0 0.0 0.0 
0.0 0.0 0.0 
0.0 0.0 0.0 
0.0 0.0 0.0 
0.0 0.0 0.0 
0.0 0.0 0.0 
0.0 0.0 0.0 
0.0 0.0 0.0 
0.0 0.0 0.0 
0.0 0.0 0.0 
0.0 0.0 0.0 
0.0 0.0 0.0 
0.0 0.0 0.0 
0.0 0.0 0.0 
0.0 0.0 0.0 
0.0 0.0 0.0 
0.0 0.0 0.0 
0.0 0.0 0.0 
0.0 0.0 0.0 
0.0 0.0 0.0 
0.0 0.0 0.0 
0.0 0.0 0.0 
0.0 0.0 0.0 
0.0 0.0 0.0 
0.0 0.0 0.0 
0.0 0.0 0.0 
0.0 0.0 0.0 
0.0 0.0 0.0 
0.0 0.0 0.0 
0.0 0.0 0.0 
0.0 0.0 0.0 
0.0 0.0 0.0 
0.0 0.0 0.0 
0.0 0.0 0.0 
0.0 0.0 0.0 
0.0 0.0 0.0 
0.0 0.0 0.0 
0.0 0.0 0.0 
0.0 0.0 0.0 
0.0 0.0 0.0 
0.0 0.0 0.0 
0.0 0.0 0.0 
0.0 0.0 0.0 
0.0 0.0 0.0 
0.0 0.0 0.0 
0.0 0.0 0.0 
0.0 0.0 0.0 
0.0 0.0 0.0 
0.0 0.0 0.0 
0.0 0.0 0.0 
0.0 0.0 0.0 
0.0 0.0 0.0 
0.0 0.0 0.0 
0.0 0.0 0.0 
0.0 0.0 0.0 
0.0 0.0 0.0 
0.0 0.0 0.0 
0.0 0.0 0.0 
0.0 0.0 0.0 
0.0 0.0 0.0 
0.0 0.0 0.0 
0.0 0.0 0.0 
0.0 0.0 0.0 
0.0 0.0 0.0 
0.0 0.0 0.0 
0.0 0.0 0.0 
0.0 0.0 0.0 
0.0 0.0 0.0 
0.0 0.0 0.0 
0.0 0.0 0.0 
0.0 0.0 0.0 
0.0 0.0 0.0 
0.0 0.0 0.0 
0.0 0.0 0.0 
0.0 0.0 0.0 
0.0 0.0 0.0 
0.0 0.0 0.0 
0.0 0.0 0.0 
0.0 0.0 0.0 
0.0 0.0 0.0 
0.0 0.0 0.0 
0.0 0.0 0.0 
0.0 0.0 0.0 
0.0 0.0 0.0 
0.0 0.0 0.0 
0.0 0.0 0.0 
0.0 0.0 0.0 
0.0 0.0 0.0 
0.0 0.0 0.0 
0.0 0.0 0.0 
0.0 0.0 0.0 
0.0 0.0 0.0 
0.0 0.0 0.0 
0.0 0.0 0.0 
0.0 0.0 0.0 
0.0 0.0 0.0 
0.0 0.0 0.0 
0.0 0.0 0.0 
0.0 0.0 0.0 
0.0 0.0 0.0 
0.0 0.0 0.0 
0.0 0.0 0.0 
0.0 0.0 0.0 
0.0 0.0 0.0 
0.0 0.0 0.0 
0.0 0.0 0.0 
0.0 0.0 0.0 
0.0 0.0 0.0 
0.0 0.0 0.0 
0.0 0.0 0.0 
0.0 0.0 0.0 
0.0 0.0 0.0 
0.0 0.0 0.0 
0.0 0.0 0.0 
0.0 0.0 0.0 
0.0 0.0 0.0 
0.0 0.0 0.0 
0.0 0.0 0.0 
0.0 0.0 0.0 
0.0 0.0 0.0 
0.0 0.0 0.0 
0.0 0.0 0.0 
0.0 0.0 0.0 
0.0 0.0 0.0 
0.0 0.0 0.0 
0.0 0.0 0.0 
0.0 0.0 0.0 
0.0 0.0 0.0 
0.0 0.0 0.0 
0.0 0.0 0.0 
0.0 0.0 0.0 
0.0 0.0 0.0 
0.0 0.0 0.0 
0.0 0.0 0.0 
0.0 0.0 0.0 
0.0 0.0 0.0 
0.0 0.0 0.0 
0.0 0.0 0.0 
0.0 0.0 0.0 
0.0 0.0 0.0 
0.0 0.0 0.0 
0.0 0.0 0.0 
0.0 0.0 0.0 
0.0 0.0 0.0 
0.0 0.0 0.0 
0.0 0.0 0.0 
0.0 0.0 0.0 
0.0 0.0 0.0 
0.0 0.0 0.0 
0.0 0.0 0.0 
0.0 0.0 0.0 
0.0 0.0 0.0 
0.0 0.0 0.0 
0.0 0.0 0.0 
0.0 0.0 0.0 
0.0 0.0 0.0 
0.0 0.0 0.0 
0.0 0.0 0.0 
0.0 0.0 0.0 
0.0 0.0 0.0 
0.0 0.0 0.0 
0.0 0.0 0.0 
0.0 0.0 0.0 
0.0 0.0 0.0 
0.0 0.0 0.0 
0.0 0.0 0.0 
0.0 0.0 0.0 
0.0 0.0 0.0 
0.0 0.0 0.0 
0.0 0.0 0.0 
0.0 0.0 0.0 
0.0 0.0 0.0 
0.0 0.0 0.0 
0.0 0.0 0.0 
0.0 0.0 0.0 
0.0 0.0 0.0 
0.0 0.0 0.0 
0.0 0.0 0.0 
0.0 0.0 0.0 
0.0 0.0 0.0 
0.0 0.0 0.0 
0.0 0.0 0.0 
0.0 0.0 0.0 
0.0 0.0 0.0 
0.0 0.0 0.0 
0.0 0.0 0.0 
0.0 0.0 0.0 
0.0 0.0 0.0 
0.0 0.0 0.0 
0.0 0.0 0.0 
0.0 0.0 0.0 
0.0 0.0 0.0 
0.0 0.0 0.0 
0.0 0.0 0.0 
0.0 0.0 0.0 
0.0 0.0 0.0 
0.0 0.0 0.0 
0.0 0.0 0.0 
0.0 0.0 0.0 
0.0 0.0 0.0 
0.0 0.0 0.0 
0.0 0.0 0.0 
0.0 0.0 0.0 
0.0 0.0 0.0 
0.0 0.0 0.0 
0.0 0.0 0.0 
0.0 0.0 0.0 
0.0 0.0 0.0 
0.0 0.0 0.0 
0.0 0.0 0.0 
0.0 0.0 0.0 
0.0 0.0 0.0 
0.0 0.0 0.0 
0.0 0.0 0.0 
0.0 0.0 0.0 
0.0 0.0 0.0 
0.0 0.0 0.0 
0.0 0.0 0.0 
0.0 0.0 0.0 
0.0 0.0 0.0 
0.0 0.0 0.0 
0.0 0.0 0.0 
0.0 0.0 0.0 
0.0 0.0 0.0 
0.0 0.0 0.0 
0.0 0.0 0.0 
0.0 0.0 0.0 
0.0 0.0 0.0 
0.0 0.0 0.0 
0.0 0.0 0.0 
0.0 0.0 0.0 
0.0 0.0 0.0 
0.0 0.0 0.0 
0.0 0.0 0.0 
0.0 0.0 0.0 
0.0 0.0 0.0 
0.0 0.0 0.0 
0.0 0.0 0.0 
0.0 0.0 0.0 
0.0 0.0 0.0 
0.0 0.0 0.0 
0.0 0.0 0.0 
0.0 0.0 0.0 
0.0 0.0 0.0 
0.0 0.0 0.0 
0.0 0.0 0.0 
0.0 0.0 0.0 
0.0 0.0 0.0 
0.0 0.0 0.0 
0.0 0.0 0.0 
0.0 0.0 0.0 
0.0 0.0 0.0 
0.0 0.0 0.0 
0.0 0.0 0.0 
0.0 0.0 0.0 
0.0 0.0 0.0 
0.0 0.0 0.0 
0.0 0.0 0.0 
0.0 0.0 0.0 
0.0 0.0 0.0 
0.0 0.0 0.0 
0.0 0.0 0.0 
0.0 0.0 0.0 
0.0 0.0 0.0 
0.0 0.0 0.0 
0.0 0.0 0.0 
0.0 0.0 0.0 
0.0 0.0 0.0 
0.0 0.0 0.0 
0.0 0.0 0.0 
0.0 0.0 0.0 
0.0 0.0 0.0 
0.0 0.0 0.0 
0.0 0.0 0.0 
0.0 0.0 0.0 
0.0 0.0 0.0 
0.0 0.0 0.0 
0.0 0.0 0.0 
0.0 0.0 0.0 
0.0 0.0 0.0 
0.0 0.0 0.0 
0.0 0.0 0.0 
0.0 0.0 0.0 
0.0 0.0 0.0 
0.0 0.0 0.0 
0.0 0.0 0.0 
0.0 0.0 0.0 
0.0 0.0 0.0 
0.0 0.0 0.0 
0.0 0.0 0.0 
0.0 0.0 0.0 
0.0 0.0 0.0 
0.0 0.0 0.0 
0.0 0.0 0.0 
0.0 0.0 0.0 
0.0 0.0 0.0 
0.0 0.0 0.0 
0.0 0.0 0.0 
0.0 0.0 0.0 
0.0 0.0 0.0 
0.0 0.0 0.0 
0.0 0.0 0.0 
0.0 0.0 0.0 
0.0 0.0 0.0 
0.0 0.0 0.0 
0.0 0.0 0.0 
0.0 0.0 0.0 
0.0 0.0 0.0 
0.0 0.0 0.0 
0.0 0.0 0.0 
0.0 0.0 0.0 
0.0 0.0 0.0 
0.0 0.0 0.0 
0.0 0.0 0.0 
0.0 0.0 0.0 
0.0 0.0 0.0 
0.0 0.0 0.0 
0.0 0.0 0.0 
0.0 0.0 0.0 
0.0 0.0 0.0 
0.0 0.0 0.0 
0.0 0.0 0.0 
0.0 0.0 0.0 
0.0 0.0 0.0 
0.0 0.0 0.0 
0.0 0.0 0.0 
0.0 0.0 0.0 
0.0 0.0 0.0 
0.0 0.0 0.0 
0.0 0.0 0.0 
0.0 0.0 0.0 
0.0 0.0 0.0 
0.0 0.0 0.0 
0.0 0.0 0.0 
0.0 0.0 0.0 
0.0 0.0 0.0 
0.0 0.0 0.0 
0.0 0.0 0.0 
0.0 0.0 0.0 
0.0 0.0 0.0 
0.0 0.0 0.0 
0.0 0.0 0.0 
0.0 0.0 0.0 
0.0 0.0 0.0 
0.0 0.0 0.0 
0.0 0.0 0.0 
0.0 0.0 0.0 
0.0 0.0 0.0 
0.0 0.0 0.0 
0.0 0.0 0.0 
0.0 0.0 0.0 
0.0 0.0 0.0 
0.0 0.0 0.0 
0.0 0.0 0.0 
0.0 0.0 0.0 
0.0 0.0 0.0 
0.0 0.0 0.0 
0.0 0.0 0.0 
0.0 0.0 0.0 
0.0 0.0 0.0 
0.0 0.0 0.0 
0.0 0.0 0.0 
0.0 0.0 0.0 
0.0 0.0 0.0 
0.0 0.0 0.0 
0.0 0.0 0.0 
0.0 0.0 0.0 
0.0 0.0 0.0 
0.0 0.0 0.0 
0.0 0.0 0.0 
0.0 0.0 0.0 
0.0 0.0 0.0 
0.0 0.0 0.0 
0.0 0.0 0.0 
0.0 0.0 0.0 
0.0 0.0 0.0 
0.0 0.0 0.0 
0.0 0.0 0.0 
0.0 0.0 0.0 
0.0 0.0 0.0 
0.0 0.0 0.0 
0.0 0.0 0.0 
0.0 0.0 0.0 
0.0 0.0 0.0 
0.0 0.0 0.0 
0.0 0.0 0.0 
0.0 0.0 0.0 
0.0 0.0 0.0 
0.0 0.0 0.0 
0.0 0.0 0.0 
0.0 0.0 0.0 
0.0 0.0 0.0 
0.0 0.0 0.0 
0.0 0.0 0.0 
0.0 0.0 0.0 
0.0 0.0 0.0 
0.0 0.0 0.0 
0.0 0.0 0.0 
0.0 0.0 0.0 
0.0 0.0 0.0 
0.0 0.0 0.0 
0.0 0.0 0.0 
0.0 0.0 0.0 
0.0 0.0 0.0 
0.0 0.0 0.0 
0.0 0.0 0.0 
0.0 0.0 0.0 
0.0 0.0 0.0 
0.0 0.0 0.0 

TENSORS element_materi_stress float
-3.722972082021e+01 2.686801345983e+01 0.0 
2.686801345983e+01 -4.540975279779e+01 0.0 
0.0 0.0 -2.439184208540e+01 
-3.712063484752e+01 2.551905000007e+01 0.0 
2.551905000007e+01 -4.674833374936e+01 0.0 
0.0 0.0 -2.476069057906e+01 
-1.091454257970e+02 3.266870644913e+01 0.0 
3.266870644913e+01 -2.448566605748e+02 0.0 
0.0 0.0 -1.058006259116e+02 
-8.729415036171e+01 3.933286361349e+00 0.0 
3.933286361349e+00 -1.903825209106e+02 0.0 
0.0 0.0 -8.290300138169e+01 
-4.152350166128e+01 -2.166819464994e-02 0.0 
-2.166819464994e-02 -5.005884211689e+01 0.0 
0.0 0.0 -2.707470313345e+01 
-3.859997477324e+01 3.185732140722e+01 0.0 
3.185732140722e+01 -1.038408526741e+02 0.0 
0.0 0.0 -4.341500605511e+01 
-4.047888999955e+01 -4.997443717838e-01 0.0 
-4.997443717838e-01 -5.022516106205e+01 0.0 
0.0 0.0 -2.681121531848e+01 
-3.992801639327e+01 2.779486556212e+01 0.0 
2.779486556212e+01 -5.238542929048e+01 0.0 
0.0 0.0 -2.729403370513e+01 
-4.182113473952e+01 2.028808142101e+00 0.0 
2.028808142101e+00 -5.118311844523e+01 0.0 
0.0 0.0 -2.750127595543e+01 
-8.657206165773e+01 4.298555402123e+00 0.0 
4.298555402123e+00 -1.886506517829e+02 0.0 
0.0 0.0 -8.216681403218e+01 
-1.039349625349e+02 -1.167451268194e+00 0.0 
-1.167451268194e+00 -2.572830014438e+02 0.0 
0.0 0.0 -1.079653891936e+02 
-3.436782350574e+01 2.494548148928e+01 0.0 
2.494548148928e+01 -3.957981962380e+01 0.0 
0.0 0.0 -2.178429293886e+01 
-1.559307891579e+02 -2.433577186226e-01 0.0 
-2.433577186226e-01 -3.698015727486e+02 0.0 
0.0 0.0 -1.573197085720e+02 
-5.523907680386e+01 4.669342698710e+00 0.0 
4.669342698710e+00 -6.966280777459e+01 0.0 
0.0 0.0 -3.707056537353e+01 
-1.602191016359e+02 1.728124952235e+00 0.0 
1.728124952235e+00 -3.779998336473e+02 0.0 
0.0 0.0 -1.610656805850e+02 
-8.813721734721e+01 3.407348460824e+00 0.0 
3.407348460824e+00 -1.986458805584e+02 0.0 
0.0 0.0 -8.563492937168e+01 
-4.144394653160e+01 1.646971148288e+00 0.0 
1.646971148288e+00 -4.650768827882e+01 0.0 
0.0 0.0 -2.598549044313e+01 
-2.975607366697e+01 1.666101702216e+01 0.0 
1.666101702216e+01 -1.076581943450e+02 0.0 
0.0 0.0 -4.356363718986e+01 
-2.773128425395e+01 -2.754196730701e-01 0.0 
-2.754196730701e-01 -7.735825775906e+01 0.0 
0.0 0.0 -3.112686260390e+01 
-2.991902811685e+01 -1.288469359061e+00 0.0 
-1.288469359061e+00 -8.021512498017e+01 0.0 
0.0 0.0 -3.264024592911e+01 
-8.886310437992e+01 6.583809250105e+00 0.0 
6.583809250105e+00 -1.901702995332e+02 0.0 
0.0 0.0 -8.331002117394e+01 
-3.564148942423e+01 2.440463456207e+01 0.0 
2.440463456207e+01 -4.368988479008e+01 0.0 
0.0 0.0 -2.339941226429e+01 
-3.910779645190e+01 2.665428749476e+01 0.0 
2.665428749476e+01 -4.803635093678e+01 0.0 
0.0 0.0 -2.574324421661e+01 
-1.389488668392e+02 1.453627947387e+01 0.0 
1.453627947387e+01 -3.530180091618e+02 0.0 
0.0 0.0 -1.471900628003e+02 
-6.721844572304e+01 1.064328129204e+01 0.0 
1.064328129204e+01 -9.354861999848e+01 0.0 
0.0 0.0 -4.783011971646e+01 
-1.099656265254e+02 2.085838620125e-01 0.0 
2.085838620125e-01 -2.712568981364e+02 0.0 
0.0 0.0 -1.139667573985e+02 
-4.266594097584e+01 8.140695913156e+00 0.0 
8.140695913156e+00 -3.388869680337e+01 0.0 
0.0 0.0 -2.256639133376e+01 
-1.291111428388e+02 3.606196580080e+01 0.0 
3.606196580080e+01 -3.154492576970e+02 0.0 
0.0 0.0 -1.329681201607e+02 
-7.168149623392e+01 1.529671349762e+01 0.0 
1.529671349762e+01 -9.602673456618e+01 0.0 
0.0 0.0 -4.991246924003e+01 
-1.432723459068e+02 1.276625479494e+01 0.0 
1.276625479494e+01 -3.608832548946e+02 0.0 
0.0 0.0 -1.508466802404e+02 
-3.659126836421e+01 -2.304282572262e+01 0.0 
-2.304282572262e+01 -9.889944036867e+01 0.0 
0.0 0.0 -3.973412595424e+01 
-9.811286685134e+00 -1.989197695555e+00 0.0 
-1.989197695555e+00 -2.637509471562e+01 0.0 
0.0 0.0 -1.045591442023e+01 
-1.110769525086e+02 3.370113194904e+01 0.0 
3.370113194904e+01 -2.435180829995e+02 0.0 
0.0 0.0 -1.059785106524e+02 
-1.324545757056e+02 8.937795936825e-01 0.0 
8.937795936825e-01 -3.202314808169e+02 0.0 
0.0 0.0 -1.354058169567e+02 
-1.530318944895e+02 6.910332953780e+00 0.0 
6.910332953780e+00 -3.705147863562e+02 0.0 
0.0 0.0 -1.566640042537e+02 
-1.632155841502e+02 1.841217417852e+00 0.0 
1.841217417852e+00 -3.870288403572e+02 0.0 
0.0 0.0 -1.646733273522e+02 
-1.636677861211e+02 4.629219456100e+00 0.0 
4.629219456100e+00 -3.869765753051e+02 0.0 
0.0 0.0 -1.647933084279e+02 
-1.403210807112e+02 2.372204427851e+01 0.0 
2.372204427851e+01 -3.517952776014e+02 0.0 
0.0 0.0 -1.472349074938e+02 
-3.217061941977e+01 1.393080181956e+00 0.0 
1.393080181956e+00 -3.167857785518e+01 0.0 
0.0 0.0 -1.875475918249e+01 
-3.181118971455e+01 -1.345093713363e+00 0.0 
-1.345093713363e+00 -3.216933413380e+01 0.0 
0.0 0.0 -1.879415715450e+01 
-4.090681458918e+01 2.675848795454e+01 0.0 
2.675848795454e+01 -4.709521673326e+01 0.0 
0.0 0.0 -2.600060939673e+01 
-1.560892116953e+02 8.715809565725e+00 0.0 
8.715809565725e+00 -3.750084433732e+02 0.0 
0.0 0.0 -1.589292965205e+02 
-3.790796058741e+01 2.697540941077e+01 0.0 
2.697540941077e+01 -4.631502371027e+01 0.0 
0.0 0.0 -2.486689528930e+01 
-4.613258233167e+01 8.122697105633e+00 0.0 
8.122697105633e+00 -3.361856821103e+01 0.0 
0.0 0.0 -2.352534516281e+01 
-8.410574593110e+01 1.520880732606e+00 0.0 
1.520880732606e+00 -1.786100674831e+02 0.0 
0.0 0.0 -7.841474402426e+01 
-3.848314379979e+01 2.779756149336e+01 0.0 
2.779756149336e+01 -4.645347403117e+01 0.0 
0.0 0.0 -2.508098534929e+01 
-3.330926351340e+01 -2.651112844177e+01 0.0 
-2.651112844177e+01 -9.734634833695e+01 0.0 
0.0 0.0 -4.027859928969e+01 
-8.233340142222e+01 1.493023168714e+00 0.0 
1.493023168714e+00 -1.795377417228e+02 0.0 
0.0 0.0 -7.816134294352e+01 
-3.468803484493e+01 -2.466204721983e+01 0.0 
-2.466204721983e+01 -5.663700798218e+01 0.0 
0.0 0.0 -2.884744814112e+01 
-5.308843243728e+01 5.540779419615e+00 0.0 
5.540779419615e+00 -6.092230799649e+01 0.0 
0.0 0.0 -3.380322213013e+01 
-4.009584932687e+01 2.696287090301e+01 0.0 
2.696287090301e+01 -4.852506746978e+01 0.0 
0.0 0.0 -2.618627503899e+01 
-3.733036338056e+01 -5.692370649461e-01 0.0 
-5.692370649461e-01 -9.741913917176e+01 0.0 
0.0 0.0 -4.002485076570e+01 
-3.520693787739e+01 -1.896987147838e+01 0.0 
-1.896987147838e+01 -1.288977581380e+02 0.0 
0.0 0.0 -4.938000545019e+01 
-3.676938891322e+01 2.379523119409e+01 0.0 
2.379523119409e+01 -4.410687719959e+01 0.0 
0.0 0.0 -2.386287983384e+01 
-1.013239569452e+02 2.646460057613e+01 0.0 
2.646460057613e+01 -2.223487700082e+02 0.0 
0.0 0.0 -9.670181808601e+01 
-5.114065457712e+01 -1.192085013013e+00 0.0 
-1.192085013013e+00 -1.294333943473e+02 0.0 
0.0 0.0 -5.377221467731e+01 
-3.903629237178e+01 -1.507494805138e+00 0.0 
-1.507494805138e+00 -1.007091342191e+02 0.0 
0.0 0.0 -4.152362797727e+01 
-1.320639345700e+02 -6.917507380942e-01 0.0 
-6.917507380942e-01 -3.201264807504e+02 0.0 
0.0 0.0 -1.352571245961e+02 
-2.066561135062e+01 -1.829399201004e+00 0.0 
-1.829399201004e+00 -5.942550372108e+01 0.0 
0.0 0.0 -2.362733452151e+01 
-8.924810907147e+01 5.429260070402e+00 0.0 
5.429260070402e+00 -1.991630540076e+02 0.0 
0.0 0.0 -8.612334892374e+01 
-5.780202036860e+01 -2.309334333549e+01 0.0 
-2.309334333549e+01 -9.783757414218e+01 0.0 
0.0 0.0 -4.772177863642e+01 
-1.233813468380e+02 2.901547280786e+01 0.0 
2.901547280786e+01 -3.162168378321e+02 0.0 
0.0 0.0 -1.314794554010e+02 
-4.307491452748e+01 2.751014403016e+01 0.0 
2.751014403016e+01 -1.039528025051e+02 0.0 
0.0 0.0 -4.370831510976e+01 
-3.093783741117e+01 -1.827728934586e+01 0.0 
-1.827728934586e+01 -1.132210751093e+02 0.0 
0.0 0.0 -4.298179826994e+01 
-1.556962691572e+02 2.089762295919e+00 0.0 
2.089762295919e+00 -3.698132896855e+02 0.0 
0.0 0.0 -1.572528676528e+02 
-3.602533928526e+01 2.393490940220e+01 0.0 
2.393490940220e+01 -4.355904474211e+01 0.0 
0.0 0.0 -2.347531520821e+01 
-4.876323915940e+01 -9.276192648068e+00 0.0 
-9.276192648068e+00 -1.205965125136e+02 0.0 
0.0 0.0 -5.204281238457e+01 
-1.141152034478e+02 3.562758668422e+01 0.0 
3.562758668422e+01 -2.504605935867e+02 0.0 
0.0 0.0 -1.089727391103e+02 
-3.514906151310e+01 -1.140922019270e+01 0.0 
-1.140922019270e+01 -7.127211172904e+01 0.0 
0.0 0.0 -3.055476858105e+01 
-1.211399091275e+02 3.597666275757e+01 0.0 
3.597666275757e+01 -2.832113083217e+02 0.0 
0.0 0.0 -1.209053652348e+02 
-1.145534669766e+02 3.178159099330e-01 0.0 
3.178159099330e-01 -2.822446832225e+02 0.0 
0.0 0.0 -1.186394450598e+02 
-9.415786420201e+01 1.755988293692e+01 0.0 
1.755988293692e+01 -2.210350164714e+02 0.0 
0.0 0.0 -9.415786420201e+01 
-1.241441310867e+02 3.262738934576e+01 0.0 
3.262738934576e+01 -3.021206925030e+02 0.0 
0.0 0.0 -1.274794470769e+02 
-5.472861235902e+00 -1.151805227741e+00 0.0 
-1.151805227741e+00 -3.003685039064e+01 0.0 
0.0 0.0 -1.025291348796e+01 
-5.334228376305e+01 -2.349801568780e+00 0.0 
-2.349801568780e+00 -1.348106380588e+02 0.0 
0.0 0.0 -5.604587654655e+01 
-9.340702009341e+01 1.349984181949e+01 0.0 
1.349984181949e+01 -1.970226214559e+02 0.0 
0.0 0.0 -8.672889246478e+01 
-1.075219047622e+02 2.900531499570e+01 0.0 
2.900531499570e+01 -2.282475580315e+02 0.0 
0.0 0.0 -1.003308388381e+02 
-4.047144854483e+01 2.888499625399e+01 0.0 
2.888499625399e+01 -4.770450415198e+01 0.0 
0.0 0.0 -2.441999064636e+01 
-2.188847666050e+01 -1.815938779266e+00 0.0 
-1.815938779266e+00 -5.930395899668e+01 0.0 
0.0 0.0 -2.395773069716e+01 
-4.022863265376e+01 2.870772887375e+01 0.0 
2.870772887375e+01 -4.781983893046e+01 0.0 
0.0 0.0 -2.445582602036e+01 
-3.834469122224e+01 -1.520464433345e+01 0.0 
-1.520464433345e+01 -7.124563647176e+01 0.0 
0.0 0.0 -3.097783577051e+01 
-4.225046302322e+01 1.222212121511e+00 0.0 
1.222212121511e+00 -4.587528706873e+01 0.0 
0.0 0.0 -2.603772502758e+01 
-3.945319530904e+01 2.725699241282e+01 0.0 
2.725699241282e+01 -4.889788329512e+01 0.0 
0.0 0.0 -2.610532358125e+01 
-3.417485284007e+01 2.408214228701e+01 0.0 
2.408214228701e+01 -3.973144092880e+01 0.0 
0.0 0.0 -2.177188813066e+01 
-4.761759942618e+01 2.626832111434e+00 0.0 
2.626832111434e+00 -6.175434056041e+01 0.0 
0.0 0.0 -3.241158199598e+01 
-4.547142230793e+01 2.653913146406e-01 0.0 
2.653913146406e-01 -6.080028705420e+01 0.0 
0.0 0.0 -3.148151280864e+01 
-1.185166683941e+02 6.432008815877e-01 0.0 
6.432008815877e-01 -2.904109480718e+02 0.0 
0.0 0.0 -1.222782849398e+02 
-1.283615126734e+02 -8.453187135125e-01 0.0 
-8.453187135125e-01 -3.117168120141e+02 0.0 
0.0 0.0 -1.316234974063e+02 
-9.662191044676e+01 3.179724319359e+01 0.0 
3.179724319359e+01 -1.955591092985e+02 0.0 
0.0 0.0 -8.725430592359e+01 
-4.345267547147e+01 2.613321554561e+00 0.0 
2.613321554561e+00 -5.002401859035e+01 0.0 
0.0 0.0 -2.764300821855e+01 
-1.589826683326e+01 -2.655181443698e+00 0.0 
-2.655181443698e+00 -2.616915012187e+01 0.0 
0.0 0.0 -1.257388942954e+01 
-5.392081537197e+01 1.044205453042e+01 0.0 
1.044205453042e+01 -5.289184876824e+01 0.0 
0.0 0.0 -3.164379924206e+01 
-6.795750239496e+01 1.645573782586e+00 0.0 
1.645573782586e+00 -1.300293422321e+02 0.0 
0.0 0.0 -5.899605338811e+01 
-6.805224034974e+01 1.150258137604e+00 0.0 
1.150258137604e+00 -1.266279756042e+02 0.0 
0.0 0.0 -5.800406478618e+01 
-1.023666468389e+02 1.961974414580e+01 0.0 
1.961974414580e+01 -2.259135192666e+02 0.0 
0.0 0.0 -9.808404983165e+01 
-1.473366203505e+02 2.739625769555e+01 0.0 
2.739625769555e+01 -3.564834284106e+02 0.0 
0.0 0.0 -1.507460146283e+02 
-4.436288747761e+01 2.622313146309e+00 0.0 
2.622313146309e+00 -4.582633074056e+01 0.0 
0.0 0.0 -2.665676546545e+01 
-1.522819482466e+02 8.126882087739e+00 0.0 
8.126882087739e+00 -3.735771256735e+02 0.0 
0.0 0.0 -1.573577221760e+02 
-5.078349243730e+01 8.483365948500e-01 0.0 
8.483365948500e-01 -8.080673824257e+01 0.0 
0.0 0.0 -3.907706920396e+01 
-4.252751683105e+01 2.877060859615e+01 0.0 
2.877060859615e+01 -8.630120791886e+01 0.0 
0.0 0.0 -3.824861742497e+01 
-3.793216608991e+01 1.521524018923e+00 0.0 
1.521524018923e+00 -4.119993131134e+01 0.0 
0.0 0.0 -2.333962922037e+01 
-1.597083940086e+02 3.154464405333e-01 0.0 
3.154464405333e-01 -3.776551373096e+02 0.0 
0.0 0.0 -1.608090593955e+02 
-1.000854359406e+02 2.536303395364e+01 0.0 
2.536303395364e+01 -2.778449998990e+02 0.0 
0.0 0.0 -1.129791307519e+02 
-1.260530045590e+02 3.033909589400e+01 0.0 
3.033909589400e+01 -3.176495584222e+02 0.0 
0.0 0.0 -1.327107688944e+02 
-3.985103246515e+01 2.778082214444e+01 0.0 
2.778082214444e+01 -1.040943388240e+02 0.0 
0.0 0.0 -4.278361138674e+01 
-4.726837431003e+01 -2.945650395007e+01 0.0 
-2.945650395007e+01 -7.759823859281e+01 0.0 
0.0 0.0 -3.651384542327e+01 
-1.463397123417e+02 1.297595126130e+00 0.0 
1.297595126130e+00 -3.497368567850e+02 0.0 
0.0 0.0 -1.484229707380e+02 
-7.450503248069e+01 1.714979932407e+00 0.0 
1.714979932407e+00 -1.462881615379e+02 0.0 
0.0 0.0 -6.583795820558e+01 
-5.388980268463e+01 -3.419318461924e+01 0.0 
-3.419318461924e+01 -7.549145892089e+01 0.0 
0.0 0.0 -3.921280533589e+01 
-1.593151383841e+02 2.767694628951e+00 0.0 
2.767694628951e+00 -3.762969258619e+02 0.0 
0.0 0.0 -1.602836192738e+02 
-9.128344321916e+01 2.910590499536e+01 0.0 
2.910590499536e+01 -1.895016396343e+02 0.0 
0.0 0.0 -8.383552485603e+01 
-3.296412172201e+00 6.112315942353e-01 0.0 
6.112315942353e-01 -2.191063122609e+01 0.0 
0.0 0.0 -6.531828039048e+00 
-4.936514183593e+01 2.495923335691e+01 0.0 
2.495923335691e+01 -1.574373781262e+02 0.0 
0.0 0.0 -6.164075598865e+01 
-5.223438258483e+01 2.226537799987e+01 0.0 
2.226537799987e+01 -4.895121152362e+01 0.0 
0.0 0.0 -2.995567823253e+01 
-6.499580030983e+01 -2.336077000392e+00 0.0 
-2.336077000392e+00 -1.645350531204e+02 0.0 
0.0 0.0 -6.845925602907e+01 
-3.977332461125e+01 2.702641363567e+01 0.0 
2.702641363567e+01 -8.382297166704e+01 0.0 
0.0 0.0 -3.667888888349e+01 
-4.392147296888e+01 2.866190278783e+01 0.0 
2.866190278783e+01 -1.044380052594e+02 0.0 
0.0 0.0 -4.410784346850e+01 
-1.571947465509e+02 5.042171359522e+00 0.0 
5.042171359522e+00 -3.767930570812e+02 0.0 
0.0 0.0 -1.597963410896e+02 
-4.850913320168e+01 -3.868274109296e-01 0.0 
-3.868274109296e-01 -7.411414427460e+01 0.0 
0.0 0.0 -3.638698324288e+01 
-4.153520181934e+01 2.750622278062e+01 0.0 
2.750622278062e+01 -1.038445161647e+02 0.0 
0.0 0.0 -4.321391539521e+01 
-2.818509367944e+01 -6.163456839205e+00 0.0 
-6.163456839205e+00 -6.332760976183e+01 0.0 
0.0 0.0 -2.705381103238e+01 
-5.586279662514e+01 1.228645189887e+01 0.0 
1.228645189887e+01 -5.829665001885e+01 0.0 
0.0 0.0 -3.384783399320e+01 
-7.364683410477e+01 1.970735580450e+00 0.0 
1.970735580450e+00 -1.475127958411e+02 0.0 
0.0 0.0 -6.594788898376e+01 
-4.186964906484e+01 2.820687443606e+01 0.0 
2.820687443606e+01 -1.040357891200e+02 0.0 
0.0 0.0 -4.337163145546e+01 
-4.263194373770e+01 3.135912130040e+01 0.0 
3.135912130040e+01 -5.169386880380e+01 0.0 
0.0 0.0 -2.714171880189e+01 
-4.560219633533e+01 2.641499693218e+01 0.0 
2.641499693218e+01 -4.643316238041e+01 0.0 
0.0 0.0 -2.721060761472e+01 
-6.490542977144e+01 -2.786140959059e+00 0.0 
-2.786140959059e+00 -1.632930412603e+02 0.0 
0.0 0.0 -6.805954130952e+01 
-4.089729461300e+01 2.334165752929e+01 0.0 
2.334165752929e+01 -4.385225596123e+01 0.0 
0.0 0.0 -2.502486517227e+01 
-9.294080400990e+01 1.380507094730e+01 0.0 
1.380507094730e+01 -2.062271009810e+02 0.0 
0.0 0.0 -8.935037149726e+01 
-4.151891577857e+01 3.438288537587e+01 0.0 
3.438288537587e+01 -7.603534171183e+01 0.0 
0.0 0.0 -3.473468920346e+01 
-1.089637587669e+02 -1.337366978293e+00 0.0 
-1.337366978293e+00 -2.697722607187e+02 0.0 
0.0 0.0 -1.132208058457e+02 
-8.629911582414e+01 1.980192235103e+00 0.0 
1.980192235103e+00 -1.900392830484e+02 0.0 
0.0 0.0 -8.250151966175e+01 
-5.040364715069e+01 2.839990626065e+01 0.0 
2.839990626065e+01 -1.052838304498e+02 0.0 
0.0 0.0 -4.630624328016e+01 
-4.294135842550e+01 2.689750433464e+01 0.0 
2.689750433464e+01 -4.684387227468e+01 0.0 
0.0 0.0 -2.653556921005e+01 
-1.514342768524e+02 5.466882311072e+00 0.0 
5.466882311072e+00 -3.698716667788e+02 0.0 
0.0 0.0 -1.559917830894e+02 
-1.563908947586e+02 1.621606960637e+00 0.0 
1.621606960637e+00 -3.705057507077e+02 0.0 
0.0 0.0 -1.576689936399e+02 
-1.179541287895e+02 -1.021925103578e+00 0.0 
-1.021925103578e+00 -2.902343657986e+02 0.0 
0.0 0.0 -1.220565483764e+02 
-5.351251857486e+01 3.046664069536e+01 0.0 
3.046664069536e+01 -1.058891861774e+02 0.0 
0.0 0.0 -4.742051142569e+01 
-1.498456033296e+02 1.285823216179e+01 0.0 
1.285823216179e+01 -3.719526290057e+02 0.0 
0.0 0.0 -1.561394697006e+02 
-4.701290096814e+01 2.752631756305e+01 0.0 
2.752631756305e+01 -8.589211874608e+01 0.0 
0.0 0.0 -3.947150591426e+01 
-8.931287906599e+01 9.521099211642e+00 0.0 
9.521099211642e+00 -1.975646602832e+02 0.0 
0.0 0.0 -8.566326180477e+01 
-1.197778947883e+02 3.786557407216e+01 0.0 
3.786557407216e+01 -2.798113652365e+02 0.0 
0.0 0.0 -1.194767780074e+02 
-5.873477686881e+01 8.296400789969e+00 0.0 
8.296400789969e+00 -7.009775157338e+01 0.0 
0.0 0.0 -3.824975853266e+01 
-6.083014321202e+01 1.215706864120e+00 0.0 
1.215706864120e+00 -1.051764769891e+02 0.0 
0.0 0.0 -4.940198606035e+01 
-4.775707092341e+01 2.965398997832e+01 0.0 
2.965398997832e+01 -8.633854280742e+01 0.0 
0.0 0.0 -3.982868411925e+01 
-3.854454084986e+01 2.371402153495e+01 0.0 
2.371402153495e+01 -4.479924068598e+01 0.0 
0.0 0.0 -2.460313446075e+01 
-5.658145305498e+01 2.897630267895e+01 0.0 
2.897630267895e+01 -1.245335008216e+02 0.0 
0.0 0.0 -5.393448616298e+01 
-4.276199517826e+01 2.737258804581e+01 0.0 
2.737258804581e+01 -1.227665117230e+02 0.0 
0.0 0.0 -4.925855207039e+01 
-3.764803188903e+01 1.249678540841e+00 0.0 
1.249678540841e+00 -4.383129323660e+01 0.0 
0.0 0.0 -2.404379753769e+01 
-4.861264387921e+01 2.500893663164e+01 0.0 
2.500893663164e+01 -1.571259095477e+02 0.0 
0.0 0.0 -6.132156602808e+01 
-1.108397099161e+01 -1.154891407403e+00 0.0 
-1.154891407403e+00 -2.517147397044e+01 0.0 
0.0 0.0 -1.085207536206e+01 
-4.241185590401e+01 2.379022992960e-01 0.0 
2.379022992960e-01 -5.881688575618e+01 0.0 
0.0 0.0 -2.996862249806e+01 
-2.038240124650e+01 -6.772163980359e-01 0.0 
-6.772163980359e-01 -6.016127272481e+01 0.0 
0.0 0.0 -2.376310219139e+01 
-4.963400244985e+01 2.431353663617e+01 0.0 
2.431353663617e+01 -4.837364046217e+01 0.0 
0.0 0.0 -2.900229287361e+01 
-1.551759406610e+02 1.197323490811e+01 0.0 
1.197323490811e+01 -3.743149111578e+02 0.0 
0.0 0.0 -1.584472555456e+02 
-4.029394808643e+01 2.748300971715e+01 0.0 
2.748300971715e+01 -1.042522105101e+02 0.0 
0.0 0.0 -4.296384757895e+01 
-1.229844009781e+02 -9.442689747159e-01 0.0 
-9.442689747159e-01 -3.004427796273e+02 0.0 
0.0 0.0 -1.266281541816e+02 
-3.817609454829e+01 2.711674981360e+01 0.0 
2.711674981360e+01 -4.568901483278e+01 0.0 
0.0 0.0 -2.475953281432e+01 
-9.831835640012e+01 2.452839519817e+01 0.0 
2.452839519817e+01 -2.769827363953e+02 0.0 
0.0 0.0 -1.121903278386e+02 
-3.691722440006e+01 1.726517290069e-01 0.0 
1.726517290069e-01 -4.524327867137e+01 0.0 
0.0 0.0 -2.424815092143e+01 
-4.641682888550e+01 2.380026786150e+01 0.0 
2.380026786150e+01 -1.565962459240e+02 0.0 
0.0 0.0 -6.050392244284e+01 
-1.367742539230e+02 1.205066828296e+00 0.0 
1.205066828296e+00 -3.299335311090e+02 0.0 
0.0 0.0 -1.396123355096e+02 
-3.409784891344e+01 -9.610372823722e+00 0.0 
-9.610372823722e+00 -6.422363808143e+01 0.0 
0.0 0.0 -2.853261626836e+01 
-1.459416533876e+02 -3.591010824687e-01 0.0 
-3.591010824687e-01 -3.493167686018e+02 0.0 
0.0 0.0 -1.481775265968e+02 
-5.944935627568e+01 2.426556879671e+01 0.0 
2.426556879671e+01 -8.772722620486e+01 0.0 
0.0 0.0 -4.375297474416e+01 
-1.568517896416e+02 2.015324719424e+00 0.0 
2.015324719424e+00 -3.745712332539e+02 0.0 
0.0 0.0 -1.590269068687e+02 
-3.614929893049e+01 -3.373587475714e-02 0.0 
-3.373587475714e-02 -4.422944447038e+01 0.0 
0.0 0.0 -2.371362302026e+01 
-4.126418149317e+01 2.624379879234e+01 0.0 
2.624379879234e+01 -1.221352254917e+02 0.0 
0.0 0.0 -4.861982209546e+01 
-4.778728879775e+01 1.971418737986e+01 0.0 
1.971418737986e+01 -4.505744932842e+01 0.0 
0.0 0.0 -2.745342143785e+01 
-1.043194096523e+02 1.670772365003e-01 0.0 
1.670772365003e-01 -2.586939793822e+02 0.0 
0.0 0.0 -1.085040167103e+02 
-3.847548564368e+01 2.716475664333e+01 0.0 
2.716475664333e+01 -4.579318185544e+01 0.0 
0.0 0.0 -2.488060024974e+01 
-4.517542519220e+01 2.312622100711e+01 0.0 
2.312622100711e+01 -1.559380929618e+02 0.0 
0.0 0.0 -5.993405544620e+01 
-6.527375200474e+01 2.952544643947e+00 0.0 
2.952544643947e+00 -1.164948141813e+02 0.0 
0.0 0.0 -5.413056985582e+01 
-3.651347502260e+01 -4.238604210855e-01 0.0 
-4.238604210855e-01 -4.397602372124e+01 0.0 
0.0 0.0 -2.374684962315e+01 
-4.478325613768e+01 2.553817482570e+01 0.0 
2.553817482570e+01 -1.396553648075e+02 0.0 
0.0 0.0 -5.493158628354e+01 
-4.596402902496e+01 2.223780264957e+01 0.0 
2.223780264957e+01 -4.419056895286e+01 0.0 
0.0 0.0 -2.664637939334e+01 
-1.036368707854e+02 3.220627335033e+01 0.0 
3.220627335033e+01 -2.415067507443e+02 0.0 
0.0 0.0 -1.031430864589e+02 
-7.280521221838e+01 -2.368279180298e+00 0.0 
-2.368279180298e+00 -1.827609037851e+02 0.0 
0.0 0.0 -7.626983480105e+01 
-1.336456632519e+02 3.337808870214e+01 0.0 
3.337808870214e+01 -3.215559800226e+02 0.0 
0.0 0.0 -1.361604929823e+02 
-1.226910228272e+02 3.846632559732e+01 0.0 
3.846632559732e+01 -2.878495141811e+02 0.0 
0.0 0.0 -1.227621611025e+02 
-3.980961954406e+01 2.815308554589e+01 0.0 
2.815308554589e+01 -6.739237779839e+01 0.0 
0.0 0.0 -3.176059920273e+01 
-7.289385009983e+01 -2.469047216999e+00 0.0 
-2.469047216999e+00 -1.829828418859e+02 0.0 
0.0 0.0 -7.636300759573e+01 
-1.260797003823e+02 1.656227188608e+01 0.0 
1.656227188608e+01 -3.337121220050e+02 0.0 
0.0 0.0 -1.375375467162e+02 
-4.449846994956e+01 2.852181808776e+01 0.0 
2.852181808776e+01 -6.680803997905e+01 0.0 
0.0 0.0 -3.299195297858e+01 
-3.700682218757e+01 2.589842650594e+01 0.0 
2.589842650594e+01 -6.432028807776e+01 0.0 
0.0 0.0 -2.999813307960e+01 
-5.529558657331e+01 2.127219297746e+01 0.0 
2.127219297746e+01 -6.826197282363e+01 0.0 
0.0 0.0 -3.666726781908e+01 
-4.689003736546e+01 2.701881872572e+01 0.0 
2.701881872572e+01 -1.408209151151e+02 0.0 
0.0 0.0 -5.591328574416e+01 
-8.714663518014e+01 6.149571465710e+00 0.0 
6.149571465710e+00 -1.953598246782e+02 0.0 
0.0 0.0 -8.435193795749e+01 
-9.038213341897e+01 2.656145697767e+01 0.0 
2.656145697767e+01 -1.756410386994e+02 0.0 
0.0 0.0 -7.940695163551e+01 
-1.414723088412e+02 -7.221387712604e-01 0.0 
-7.221387712604e-01 -3.397718896536e+02 0.0 
0.0 0.0 -1.439732595484e+02 
-3.994495377212e+01 2.868245118850e+01 0.0 
2.868245118850e+01 -4.694302888450e+01 0.0 
0.0 0.0 -2.495240273127e+01 
-4.180412119249e+01 2.082084866635e+01 0.0 
2.082084866635e+01 -1.550574975525e+02 0.0 
0.0 0.0 -5.865848562349e+01 
-9.425180351380e+01 2.857901849945e+01 0.0 
2.857901849945e+01 -1.933884486883e+02 0.0 
0.0 0.0 -8.589207566062e+01 
-7.979748749710e+01 2.627533659349e+01 0.0 
2.627533659349e+01 -7.879170703235e+01 0.0 
0.0 0.0 -4.784471671134e+01 
-4.334895223385e+01 2.616754182745e+01 0.0 
2.616754182745e+01 -6.625131011580e+01 0.0 
0.0 0.0 -3.248007870490e+01 
-1.173308813061e+02 1.131640996052e+01 0.0 
1.131640996052e+01 -3.192827708194e+02 0.0 
0.0 0.0 -1.305840956376e+02 
-1.307833754042e+01 -1.205770370353e+00 0.0 
-1.205770370353e+00 -4.247905867573e+01 0.0 
0.0 0.0 -1.626721886484e+01 
-1.054191487267e+02 2.892477807298e+01 0.0 
2.892477807298e+01 -2.286120921099e+02 0.0 
0.0 0.0 -9.980937225098e+01 
-7.815697507359e+01 1.818235433352e+01 0.0 
1.818235433352e+01 -1.250371528003e+02 0.0 
0.0 0.0 -6.055823836217e+01 
-6.169265052462e+01 -9.885111715456e+00 0.0 
-9.885111715456e+00 -1.811998479047e+02 0.0 
0.0 0.0 -7.246774952880e+01 
-1.141417493371e+02 1.045136060794e+01 0.0 
1.045136060794e+01 -3.178349423675e+02 0.0 
0.0 0.0 -1.291930075114e+02 
-6.347914101318e+01 1.405405424942e+01 0.0 
1.405405424942e+01 -7.433909698420e+01 0.0 
0.0 0.0 -4.094547139921e+01 
-6.718404463105e+01 1.145847461074e+01 0.0 
1.145847461074e+01 -8.536309986719e+01 0.0 
0.0 0.0 -4.536414334947e+01 
-1.456878537958e+02 1.330314809645e+01 0.0 
1.330314809645e+01 -3.616826852673e+02 0.0 
0.0 0.0 -1.518111617189e+02 
-5.119399075832e+01 -1.068249728000e+01 0.0 
-1.068249728000e+01 -1.341065691748e+02 0.0 
0.0 0.0 -5.519016797994e+01 
-5.977608559420e+01 2.911377789654e+01 0.0 
2.911377789654e+01 -1.432348918772e+02 0.0 
0.0 0.0 -6.050329324143e+01 
-6.337782538274e+01 2.643358242858e+01 0.0 
2.643358242858e+01 -1.070976883139e+02 0.0 
0.0 0.0 -5.074265410900e+01 
-8.399396702185e+01 2.066428302490e+01 0.0 
2.066428302490e+01 -1.343694482491e+02 0.0 
0.0 0.0 -6.510902458130e+01 
-6.352111356750e+01 2.651330662890e+01 0.0 
2.651330662890e+01 -9.053520529933e+01 0.0 
0.0 0.0 -4.581689566005e+01 
-5.592026571765e+01 2.545200979069e+01 0.0 
2.545200979069e+01 -6.849578228331e+01 0.0 
0.0 0.0 -3.692481440029e+01 
-8.564603561539e+01 2.182492637698e+01 0.0 
2.182492637698e+01 -2.560984593081e+02 0.0 
0.0 0.0 -1.021233484770e+02 
-1.006324449528e+02 3.357160661118e+01 0.0 
3.357160661118e+01 -2.249572705131e+02 0.0 
0.0 0.0 -9.727691463978e+01 
-5.730425926735e+01 2.464898026347e+01 0.0 
2.464898026347e+01 -9.343250717408e+01 0.0 
0.0 0.0 -4.634483703759e+01 
-3.915720300651e+01 2.722974510748e+01 0.0 
2.722974510748e+01 -6.727650276272e+01 0.0 
0.0 0.0 -3.153011173077e+01 
-4.102909982675e+01 2.727776069474e+01 0.0 
2.727776069474e+01 -8.531865972195e+01 0.0 
0.0 0.0 -3.750432786461e+01 
-5.651114140689e+01 3.073436906752e+01 0.0 
3.073436906752e+01 -1.248458975658e+02 0.0 
0.0 0.0 -5.400711169182e+01 
-9.570135017675e+01 2.901653235869e+01 0.0 
2.901653235869e+01 -1.827364381960e+02 0.0 
0.0 0.0 -8.313133651182e+01 
-3.219555413399e+01 2.390869164977e+01 0.0 
2.390869164977e+01 -1.205630788642e+02 0.0 
0.0 0.0 -4.643625764168e+01 
-1.129846999333e+02 8.711387028930e+00 0.0 
8.711387028930e+00 -3.107385794693e+02 0.0 
0.0 0.0 -1.267169838208e+02 
-3.673346069682e+01 1.204533462011e+00 0.0 
1.204533462011e+00 -4.280246567494e+01 0.0 
0.0 0.0 -2.346077791153e+01 
-4.368397885183e+01 2.224008925264e+01 0.0 
2.224008925264e+01 -1.561416336993e+02 0.0 
0.0 0.0 -5.954768376534e+01 
-1.089929484284e+02 6.215862805295e+00 0.0 
6.215862805295e+00 -3.016560939106e+02 0.0 
0.0 0.0 -1.227947127017e+02 
-8.561307170357e+00 -3.005180453246e-01 0.0 
-3.005180453246e-01 -2.839351005301e+01 0.0 
0.0 0.0 -1.068644516701e+01 
-8.478262914314e+01 2.008887746842e+01 0.0 
2.008887746842e+01 -1.474850377575e+02 0.0 
0.0 0.0 -6.928030007019e+01 
-6.690510956978e+00 -1.403194509726e+00 0.0 
-1.403194509726e+00 -2.399931009630e+01 0.0 
0.0 0.0 -8.568187768029e+00 
-1.460408685977e+01 -1.400436127926e+00 0.0 
-1.400436127926e+00 -4.310030957254e+01 0.0 
0.0 0.0 -1.691131892969e+01 
-3.857631146352e+01 2.754170898546e+01 0.0 
2.754170898546e+01 -4.668193012756e+01 0.0 
0.0 0.0 -2.461755073798e+01 
-4.522486338807e+01 -1.061861953126e+01 0.0 
-1.061861953126e+01 -1.132979864181e+02 0.0 
0.0 0.0 -4.715685494184e+01 
-9.021968503888e+01 2.236183852713e+01 0.0 
2.236183852713e+01 -1.564853864803e+02 0.0 
0.0 0.0 -7.361152145575e+01 
-4.421096753182e+01 -9.912051319306e+00 0.0 
-9.912051319306e+00 -1.081917117376e+02 0.0 
0.0 0.0 -4.532080378083e+01 
-3.836275585797e+01 2.880198627113e+01 0.0 
2.880198627113e+01 -8.726911270208e+01 0.0 
0.0 0.0 -3.660273137573e+01 
-4.298806293658e+01 -2.274626447251e+01 0.0 
-2.274626447251e+01 -1.107165673348e+02 0.0 
0.0 0.0 -4.438442268065e+01 
-3.395748247869e+01 -8.671233428885e+00 0.0 
-8.671233428885e+00 -7.180395060034e+01 0.0 
0.0 0.0 -3.124484367253e+01 
-1.187927630341e+02 1.306490710741e+01 0.0 
1.306490710741e+01 -3.253694298585e+02 0.0 
0.0 0.0 -1.328486578678e+02 
-5.987177387010e+01 2.788625627118e+01 0.0 
2.788625627118e+01 -8.810902358642e+01 0.0 
0.0 0.0 -4.399423923696e+01 
-1.552441324556e+02 4.718741153619e-01 0.0 
4.718741153619e-01 -3.697472229361e+02 0.0 
0.0 0.0 -1.570974066175e+02 
-6.266372247920e+01 1.099301810935e+01 0.0 
1.099301810935e+01 -1.096793959473e+02 0.0 
0.0 0.0 -5.224463505280e+01 
-3.784025612354e+01 2.719179699516e+01 0.0 
2.719179699516e+01 -1.053019452570e+02 0.0 
0.0 0.0 -4.254266041416e+01 
-4.850319161181e+01 2.133143873134e+01 0.0 
2.133143873134e+01 -1.726072095039e+02 0.0 
0.0 0.0 -6.593312033472e+01 
-4.091218182663e+01 2.599300354781e+01 0.0 
2.599300354781e+01 -6.601793078608e+01 0.0 
0.0 0.0 -3.167903378381e+01 
-1.096586588241e+02 7.897815601978e+00 0.0 
7.897815601978e+00 -3.092365567274e+02 0.0 
0.0 0.0 -1.252685646654e+02 
-1.576618443781e+02 1.738213950788e+00 0.0 
1.738213950788e+00 -3.764954608658e+02 0.0 
0.0 0.0 -1.598471915732e+02 
-8.902560518026e+01 2.778768461027e+01 0.0 
2.778768461027e+01 -1.603907773638e+02 0.0 
0.0 0.0 -7.442491476322e+01 
-3.412866498490e+01 1.914200813240e+01 0.0 
1.914200813240e+01 -1.384603084123e+02 0.0 
0.0 0.0 -5.137669201915e+01 
-1.216006124894e+02 1.379093258133e+01 0.0 
1.379093258133e+01 -3.265799029348e+02 0.0 
0.0 0.0 -1.340541546272e+02 
-1.135078725201e+02 -1.360750408242e+00 0.0 
-1.360750408242e+00 -2.794921007214e+02 0.0 
0.0 0.0 -1.174999919725e+02 
-5.979462425340e+01 3.104298923565e+01 0.0 
3.104298923565e+01 -1.252968399077e+02 0.0 
0.0 0.0 -5.512743924833e+01 
-8.243066203221e+01 2.128432833536e+01 0.0 
2.128432833536e+01 -1.410478479446e+02 0.0 
0.0 0.0 -6.664355299304e+01 
-1.300948978933e+02 3.191236226413e+01 0.0 
3.191236226413e+01 -3.189767737808e+02 0.0 
0.0 0.0 -1.343215015022e+02 
-4.747253787903e+01 2.033535365984e+01 0.0 
2.033535365984e+01 -1.719604355777e+02 0.0 
0.0 0.0 -6.542989203701e+01 
-3.622870114126e+01 2.820872827725e+01 0.0 
2.820872827725e+01 -8.506931370361e+01 0.0 
0.0 0.0 -3.598940445346e+01 
-7.087184011730e+01 2.738451243198e+01 0.0 
2.738451243198e+01 -1.121393894608e+02 0.0 
0.0 0.0 -5.450336887344e+01 
-9.982932314238e+01 1.686707635978e+01 0.0 
1.686707635978e+01 -2.233951258498e+02 0.0 
0.0 0.0 -9.656733469764e+01 
-5.949971289295e+01 3.054347398305e+01 0.0 
3.054347398305e+01 -1.433751697648e+02 0.0 
0.0 0.0 -6.046246479734e+01 
-6.464357267388e+01 1.774434125850e+01 0.0 
1.774434125850e+01 -2.189386162487e+02 0.0 
0.0 0.0 -8.467465667679e+01 
-4.439860698082e+01 7.209590333417e-01 0.0 
7.209590333417e-01 -6.260575827517e+01 0.0 
0.0 0.0 -3.170130957680e+01 
-3.801719683308e+01 -1.548310657773e+01 0.0 
-1.548310657773e+01 -6.890348202055e+01 0.0 
0.0 0.0 -2.954824228225e+01 
-6.214245406692e+01 2.232499387640e+01 0.0 
2.232499387640e+01 -8.900448111795e+01 0.0 
0.0 0.0 -4.494408055546e+01 
-3.739037698557e+01 2.162242662200e+01 0.0 
2.162242662200e+01 -1.403788108395e+02 0.0 
0.0 0.0 -5.293075634751e+01 
-3.148102802769e+01 1.964641164397e+01 0.0 
1.964641164397e+01 -1.307300214994e+02 0.0 
0.0 0.0 -4.948146564794e+01 
-3.487759018967e+01 -2.392621772414e+01 0.0 
-2.392621772414e+01 -1.223900100525e+02 0.0 
0.0 0.0 -4.782237530667e+01 
-8.663283957056e+01 1.901010971051e+01 0.0 
1.901010971051e+01 -1.543425501786e+02 0.0 
0.0 0.0 -7.189261692474e+01 
-6.723336070813e+01 2.860341912536e+01 0.0 
2.860341912536e+01 -1.096852494294e+02 0.0 
0.0 0.0 -5.267558304127e+01 
-4.352903858808e+01 2.691290432933e+01 0.0 
2.691290432933e+01 -1.229853076907e+02 0.0 
0.0 0.0 -4.955430388364e+01 
-9.202979230786e+01 2.118719876377e+01 0.0 
2.118719876377e+01 -1.638851242133e+02 0.0 
0.0 0.0 -7.637447495636e+01 
-9.270458684301e+01 2.984475561843e+01 0.0 
2.984475561843e+01 -1.775755207748e+02 0.0 
0.0 0.0 -8.068403228534e+01 
-6.329936919809e+01 3.106356376300e+01 0.0 
3.106356376300e+01 -1.259876207795e+02 0.0 
0.0 0.0 -5.638609699328e+01 
-1.591399630183e+02 3.624933182621e+00 0.0 
3.624933182621e+00 -3.773487381149e+02 0.0 
0.0 0.0 -1.605466103399e+02 
-6.828284908314e+01 1.609199357125e+01 0.0 
1.609199357125e+01 -2.316296525925e+02 0.0 
0.0 0.0 -8.957375050269e+01 
-6.698183070455e+01 3.074899178965e+01 0.0 
3.074899178965e+01 -1.269726408353e+02 0.0 
0.0 0.0 -5.778634146195e+01 
-5.204067698246e+01 2.659051576161e+01 0.0 
2.659051576161e+01 -1.587050916814e+02 0.0 
0.0 0.0 -6.282373059917e+01 
-7.283480136143e+01 1.841298976546e+01 0.0 
1.841298976546e+01 -2.356054041175e+02 0.0 
0.0 0.0 -9.213206164369e+01 
-3.162404509574e+01 1.556603027737e+01 0.0 
1.556603027737e+01 -1.409430557946e+02 0.0 
0.0 0.0 -5.137013026712e+01 
-5.003384195024e+01 6.635624132088e+00 0.0 
6.635624132088e+00 -4.865684277094e+01 0.0 
0.0 0.0 -2.920720541636e+01 
-5.022444492202e+01 1.719833210658e+01 0.0 
1.719833210658e+01 -1.863009194375e+02 0.0 
0.0 0.0 -7.055760930785e+01 
-3.994730614738e+01 -5.812901977592e+00 0.0 
-5.812901977592e+00 -1.651588431254e+02 0.0 
0.0 0.0 -6.113184478182e+01 
-8.659734426329e+01 2.421627286681e+01 0.0 
2.421627286681e+01 -1.583975747124e+02 0.0 
0.0 0.0 -7.309847569272e+01 
-1.119684256507e+02 4.404394479882e+00 0.0 
4.404394479882e+00 -1.013514216377e+02 0.0 
0.0 0.0 -6.426969535887e+01 
-6.714243574059e+01 2.491134948358e+01 0.0 
2.491134948358e+01 -9.366437470608e+01 0.0 
0.0 0.0 -4.784204313400e+01 
-3.775567132213e+01 1.737917134607e+01 0.0 
1.737917134607e+01 -1.549030437984e+02 0.0 
0.0 0.0 -5.739761453617e+01 
-3.478390761094e+01 2.642342140296e+01 0.0 
2.642342140296e+01 -1.038513189557e+02 0.0 
0.0 0.0 -4.119056797000e+01 
-2.915504897563e+01 1.073058001686e+01 0.0 
1.073058001686e+01 -1.382925664517e+02 0.0 
0.0 0.0 -4.950454256900e+01 
-7.401512618979e+01 2.589907921702e+01 0.0 
2.589907921702e+01 -1.298160830652e+02 0.0 
0.0 0.0 -6.074936277649e+01 
-1.926318379230e+01 -4.126942895981e+00 0.0 
-4.126942895981e+00 -4.261730970947e+01 0.0 
0.0 0.0 -1.816414805053e+01 
-4.272167672133e+01 2.741489394132e+01 0.0 
2.741489394132e+01 -8.576696822968e+01 0.0 
0.0 0.0 -3.814659348530e+01 
-7.659100222149e+01 1.673428802795e+01 0.0 
1.673428802795e+01 -2.481289223349e+02 0.0 
0.0 0.0 -9.701597736691e+01 
-6.656365175528e+01 2.506753593089e+01 0.0 
2.506753593089e+01 -1.085248761235e+02 0.0 
0.0 0.0 -5.212655836363e+01 
-5.966045044227e+01 1.030738538923e+01 0.0 
1.030738538923e+01 -7.060580523883e+01 0.0 
0.0 0.0 -3.867987670433e+01 
-3.169848287895e+01 2.038522868460e+01 0.0 
2.038522868460e+01 -1.243925369761e+02 0.0 
0.0 0.0 -4.817494150779e+01 
-3.570972875395e+01 -2.185721482355e+00 0.0 
-2.185721482355e+00 -1.641637974685e+02 0.0 
0.0 0.0 -5.956205786672e+01 
-4.029127863232e+01 -1.126694815378e+01 0.0 
-1.126694815378e+01 -1.558428296697e+02 0.0 
0.0 0.0 -5.844023249062e+01 
-4.060261949480e+01 2.830828273048e+01 0.0 
2.830828273048e+01 -6.703411432092e+01 0.0 
0.0 0.0 -3.189102014472e+01 
-8.524150692446e+01 2.526071495036e+01 0.0 
2.526071495036e+01 -1.433008405294e+02 0.0 
0.0 0.0 -6.816270423615e+01 
-4.394252731515e+01 2.915831209833e+01 0.0 
2.915831209833e+01 -8.665824951147e+01 0.0 
0.0 0.0 -3.878023304799e+01 
-4.746447361929e+01 1.567758138289e+01 0.0 
1.567758138289e+01 -1.843372900718e+02 0.0 
0.0 0.0 -6.914052910732e+01 
-4.529838675959e+01 1.909980162872e+01 0.0 
1.909980162872e+01 -1.710707913669e+02 0.0 
0.0 0.0 -6.451075343795e+01 
-2.659796349403e+01 1.445053526771e+01 0.0 
1.445053526771e+01 -1.115327846170e+02 0.0 
0.0 0.0 -4.251827630282e+01 
-5.529933957016e+01 2.475667504533e+01 0.0 
2.475667504533e+01 -1.754042405683e+02 0.0 
0.0 0.0 -6.881107404153e+01 
-3.818371116067e+01 2.890911091856e+01 0.0 
2.890911091856e+01 -6.814684692965e+01 0.0 
0.0 0.0 -3.022858202724e+01 
-1.106857177598e+02 3.046222873476e+01 0.0 
3.046222873476e+01 -2.450379542873e+02 0.0 
0.0 0.0 -1.063171016141e+02 
-1.145523160287e+02 3.505611286153e+01 0.0 
3.505611286153e+01 -2.570398876027e+02 0.0 
0.0 0.0 -1.110776610894e+02 
-6.293628038787e+01 2.885234337428e+01 0.0 
2.885234337428e+01 -1.613818081937e+02 0.0 
0.0 0.0 -6.689542657446e+01 
-3.460540135776e+01 1.911602722983e+01 0.0 
1.911602722983e+01 -1.408417976437e+02 0.0 
0.0 0.0 -5.223415970044e+01 
-3.251247237080e+01 2.522365513743e+01 0.0 
2.522365513743e+01 -1.051597475063e+02 0.0 
0.0 0.0 -4.090166596312e+01 
-7.054848290862e+01 2.904435718253e+01 0.0 
2.904435718253e+01 -1.453592221511e+02 0.0 
0.0 0.0 -6.437231151793e+01 
-3.114586465301e+01 2.099062610449e+01 0.0 
2.099062610449e+01 -1.228156896243e+02 0.0 
0.0 0.0 -4.578846628318e+01 
-3.423191666141e+01 -7.963116723062e+00 0.0 
-7.963116723062e+00 -1.540104009502e+02 0.0 
0.0 0.0 -5.607269528348e+01 
-5.993626524348e+01 2.895879827626e+01 0.0 
2.895879827626e+01 -1.248254002585e+02 0.0 
0.0 0.0 -5.502849965061e+01 
-9.364279450891e+01 1.073180930244e+01 0.0 
1.073180930244e+01 -2.003702792584e+02 0.0 
0.0 0.0 -8.780392213019e+01 
-4.073560142508e+01 2.010135841397e+01 0.0 
2.010135841397e+01 -1.555785250394e+02 0.0 
0.0 0.0 -5.849423793933e+01 
-8.470607006385e+01 2.165041284209e+01 0.0 
2.165041284209e+01 -2.556683799661e+02 0.0 
0.0 0.0 -1.017123350090e+02 
-3.902515384063e+01 2.952256285967e+01 0.0 
2.952256285967e+01 -8.954931952006e+01 0.0 
0.0 0.0 -3.673539147719e+01 
-1.579952488601e+02 1.763313804886e+01 0.0 
1.763313804886e+01 -3.825075729058e+02 0.0 
0.0 0.0 -1.617508465298e+02 
-3.531246755505e+01 2.364798910587e+01 0.0 
2.364798910587e+01 -1.251939704084e+02 0.0 
0.0 0.0 -4.775193138902e+01 
-6.324789127214e+01 2.934983631554e+01 0.0 
2.934983631554e+01 -1.437872483148e+02 0.0 
0.0 0.0 -6.171054187608e+01 
-2.960405833818e+01 1.509130988778e+01 0.0 
1.509130988778e+01 -1.335656893380e+02 0.0 
0.0 0.0 -5.003610031397e+01 
-8.782996603239e+01 8.395368256167e+00 0.0 
8.395368256167e+00 -2.734578624020e+02 0.0 
0.0 0.0 -1.079863485303e+02 
-5.088539235084e+01 1.845884548399e+01 0.0 
1.845884548399e+01 -1.868684719494e+02 0.0 
0.0 0.0 -7.092615929006e+01 
-3.860323009012e+01 -1.059624809510e+01 0.0 
-1.059624809510e+01 -1.570926367590e+02 0.0 
0.0 0.0 -5.830876005474e+01 
-6.352050536852e+01 2.965341775957e+01 0.0 
2.965341775957e+01 -1.077492752900e+02 0.0 
0.0 0.0 -5.098093419757e+01 
-1.230025404720e+02 3.973277738445e+01 0.0 
3.973277738445e+01 -2.831566378478e+02 0.0 
0.0 0.0 -1.214477534960e+02 
-4.210138473052e+01 1.627341940542e+01 0.0 
1.627341940542e+01 -1.693770546946e+02 0.0 
0.0 0.0 -6.304353182753e+01 
-7.774921712597e+01 1.642740566829e+01 0.0 
1.642740566829e+01 -2.485587623437e+02 0.0 
0.0 0.0 -9.749239384090e+01 
-3.434410139190e+01 2.671398905244e+01 0.0 
2.671398905244e+01 -8.768100643525e+01 0.0 
0.0 0.0 -3.558971980550e+01 
-6.657776818021e+01 6.747824794573e+00 0.0 
6.747824794573e+00 -1.010316998989e+02 0.0 
0.0 0.0 -4.988284042372e+01 
-1.055373419386e+02 5.434351738494e+00 0.0 
5.434351738494e+00 -3.000451395535e+02 0.0 
0.0 0.0 -1.212747444476e+02 
-3.797006073556e+01 2.816938950594e+01 0.0 
2.816938950594e+01 -8.495651400303e+01 0.0 
0.0 0.0 -3.647797242158e+01 
-6.526488209691e+01 7.318299179202e+00 0.0 
7.318299179202e+00 -9.257369599842e+01 0.0 
0.0 0.0 -4.695157342860e+01 
-1.311750945160e+02 4.061106373746e+01 0.0 
4.061106373746e+01 -3.092773103381e+02 0.0 
0.0 0.0 -1.317357214562e+02 
-1.163118759890e+02 7.208733056046e+00 0.0 
7.208733056046e+00 -3.182925402895e+02 0.0 
0.0 0.0 -1.299813248836e+02 
-1.204680570019e+02 3.857270699577e+01 0.0 
3.857270699577e+01 -2.743313081626e+02 0.0 
0.0 0.0 -1.180398095494e+02 
-6.867289509813e+01 1.058482687789e+01 0.0 
1.058482687789e+01 -9.349444059070e+01 0.0 
0.0 0.0 -4.825020070665e+01 
-9.269943661941e+01 3.190939594411e+01 0.0 
3.190939594411e+01 -1.909092482298e+02 0.0 
0.0 0.0 -8.468260545475e+01 
-3.773322226254e+01 2.861494795317e+01 0.0 
2.861494795317e+01 -6.601740181150e+01 0.0 
0.0 0.0 -3.072518722221e+01 
-5.656658184396e+01 2.895738224118e+01 0.0 
2.895738224118e+01 -8.732521211851e+01 0.0 
0.0 0.0 -4.276753818874e+01 
-6.703638507430e+01 2.800188409634e+01 0.0 
2.800188409634e+01 -1.264347836099e+02 0.0 
0.0 0.0 -5.764135060526e+01 
-7.075782338931e+01 3.011743625932e+01 0.0 
3.011743625932e+01 -1.285364918686e+02 0.0 
0.0 0.0 -5.938829457739e+01 
-5.619675802279e+01 2.986360190165e+01 0.0 
2.986360190165e+01 -1.428635330061e+02 0.0 
0.0 0.0 -5.931808730867e+01 
-1.369195912114e+02 3.921639407529e+01 0.0 
3.921639407529e+01 -3.263549659091e+02 0.0 
0.0 0.0 -1.385823671362e+02 
-6.687916493558e+01 1.319080453225e+01 0.0 
1.319080453225e+01 -8.909092886912e+01 0.0 
0.0 0.0 -4.639102814141e+01 
-5.967032979638e+01 2.367357255013e+01 0.0 
2.367357255013e+01 -7.161911569580e+01 0.0 
0.0 0.0 -3.898683364765e+01 
-4.398248801627e+01 1.738152044398e+01 0.0 
1.738152044398e+01 -1.701402449312e+02 0.0 
0.0 0.0 -6.383681988424e+01 
-3.986332148852e+01 -1.011066502187e+01 0.0 
-1.011066502187e+01 -9.275409041862e+01 0.0 
0.0 0.0 -3.938522357214e+01 
-5.299692676691e+01 2.698136410710e+01 0.0 
2.698136410710e+01 -6.763163376125e+01 0.0 
0.0 0.0 -3.578856815845e+01 
-3.893871089947e+01 2.716590658446e+01 0.0 
2.716590658446e+01 -1.041986464673e+02 0.0 
0.0 0.0 -4.254120721004e+01 
-3.693891502172e+01 3.258079242985e-01 0.0 
3.258079242985e-01 -4.494570445369e+01 0.0 
0.0 0.0 -2.416538584262e+01 
-4.521990833573e+01 -1.254793509181e+01 0.0 
-1.254793509181e+01 -1.594837076342e+02 0.0 
0.0 0.0 -6.101108479098e+01 
-3.856036620563e+01 1.797897732859e+01 0.0 
1.797897732859e+01 -1.542217559772e+02 0.0 
0.0 0.0 -5.743463665486e+01 
-8.892490388346e+01 2.301056205899e+01 0.0 
2.301056205899e+01 -1.638204068818e+02 0.0 
0.0 0.0 -7.542359322958e+01 
-3.736072050945e+01 2.713876557913e+01 0.0 
2.713876557913e+01 -1.035227775331e+02 0.0 
0.0 0.0 -4.186504941276e+01 
-5.974279304144e+01 2.744389631113e+01 0.0 
2.744389631113e+01 -1.060667492543e+02 0.0 
0.0 0.0 -4.934286268872e+01 
-8.135167624151e+01 1.474906599018e+01 0.0 
1.474906599018e+01 -2.598262783816e+02 0.0 
0.0 0.0 -1.019533863869e+02 
-8.065274192460e+01 -3.017437922031e+00 0.0 
-3.017437922031e+00 -2.432838830420e+02 0.0 
0.0 0.0 -9.678098748999e+01 
-1.450186499585e+02 3.440564937782e+01 0.0 
3.440564937782e+01 -3.497524130725e+02 0.0 
0.0 0.0 -1.480313189093e+02 
-4.685368343515e+01 2.865202085956e+01 0.0 
2.865202085956e+01 -6.695097847253e+01 0.0 
0.0 0.0 -3.374139857231e+01 
-3.279925720679e+01 2.841160368770e+00 0.0 
2.841160368770e+00 -1.586894495974e+02 0.0 
0.0 0.0 -5.704661204125e+01 
-6.192337681192e+01 -9.882385631684e+00 0.0 
-9.882385631684e+00 -1.775006624769e+02 0.0 
0.0 0.0 -7.142721178663e+01 
-3.859172911125e+01 2.775841113275e+01 0.0 
2.775841113275e+01 -6.537518752493e+01 0.0 
0.0 0.0 -3.079007499086e+01 
-3.852482028289e+01 2.763255326342e+01 0.0 
2.763255326342e+01 -8.510840740950e+01 0.0 
0.0 0.0 -3.668996830771e+01 
-9.932241957904e+01 3.097141697034e+01 0.0 
3.097141697034e+01 -1.997704164030e+02 0.0 
0.0 0.0 -8.932785079462e+01 
-6.661073576622e+01 3.138549093413e+01 0.0 
3.138549093413e+01 -1.447834148332e+02 0.0 
0.0 0.0 -6.301824517984e+01 
-4.303959012526e+01 2.836938334075e+01 0.0 
2.836938334075e+01 -6.720884367449e+01 0.0 
0.0 0.0 -3.267453013992e+01 
-5.277510905233e+01 2.671108629107e+01 0.0 
2.671108629107e+01 -8.592565915810e+01 0.0 
0.0 0.0 -4.121023046313e+01 
-1.527070394663e+02 2.509430383276e+01 0.0 
2.509430383276e+01 -3.715764732748e+02 0.0 
0.0 0.0 -1.568850538223e+02 
-1.404087888387e+02 2.482606914984e+01 0.0 
2.482606914984e+01 -3.524043703945e+02 0.0 
0.0 0.0 -1.474439477700e+02 
-9.677171250264e+01 2.788790922441e+01 0.0 
2.788790922441e+01 -1.977386481127e+02 0.0 
0.0 0.0 -8.795310818460e+01 
-8.816489620566e+01 2.377216786046e+01 0.0 
2.377216786046e+01 -1.498321794708e+02 0.0 
0.0 0.0 -7.099912270292e+01 
-7.961777572124e+01 -2.514776268877e+00 0.0 
-2.514776268877e+00 -2.381092732762e+02 0.0 
0.0 0.0 -9.491811469922e+01 
-4.610797432907e+01 2.924440657861e+01 0.0 
2.924440657861e+01 -1.053761577412e+02 0.0 
0.0 0.0 -4.504523962109e+01 
-3.113570682157e+01 1.559824439670e+01 0.0 
1.559824439670e+01 -1.385748489431e+02 0.0 
0.0 0.0 -5.051316672941e+01 
-3.549150882741e+01 1.439361080852e+01 0.0 
1.439361080852e+01 -1.532892806001e+02 0.0 
0.0 0.0 -5.623423682825e+01 
-6.295316304092e+01 3.110919271164e+01 0.0 
3.110919271164e+01 -1.440337191288e+02 0.0 
0.0 0.0 -6.169606465090e+01 
-8.496389613366e+01 9.739206115442e+00 0.0 
9.739206115442e+00 -2.650773254469e+02 0.0 
0.0 0.0 -1.046123664742e+02 
-7.755097837357e+01 -4.814280334038e+00 0.0 
-4.814280334038e+00 -2.039349423796e+02 0.0 
0.0 0.0 -8.404577622596e+01 
-9.480992564781e+01 2.481110001393e+01 0.0 
2.481110001393e+01 -1.861424931115e+02 0.0 
0.0 0.0 -8.388572562779e+01 
-3.491071075395e+01 -1.774751678039e+00 0.0 
-1.774751678039e+00 -1.585556933705e+02 0.0 
0.0 0.0 -5.763992123734e+01 
-5.300157854922e+01 2.896135269689e+01 0.0 
2.896135269689e+01 -1.423182848051e+02 0.0 
0.0 0.0 -5.819595900630e+01 
-6.333746999225e+01 2.857587457540e+01 0.0 
2.857587457540e+01 -1.253178986811e+02 0.0 
0.0 0.0 -5.619661060202e+01 
-4.798294424333e+01 2.884333807489e+01 0.0 
2.884333807489e+01 -1.238052668317e+02 0.0 
0.0 0.0 -5.113646332252e+01 
-1.182755537299e+02 3.711710279715e+01 0.0 
3.711710279715e+01 -2.659988646224e+02 0.0 
0.0 0.0 -1.148823255057e+02 
-1.116376848908e+02 3.252421237916e+01 0.0 
3.252421237916e+01 -2.503249558570e+02 0.0 
0.0 0.0 -1.081887922243e+02 
-1.090630671396e+02 3.191634593632e+01 0.0 
3.191634593632e+01 -2.307913906964e+02 0.0 
0.0 0.0 -1.015563373508e+02 
-8.758921765871e+01 -2.721364998280e-01 0.0 
-2.721364998280e-01 -2.559479634225e+02 0.0 
0.0 0.0 -1.026611543244e+02 
-8.806382205471e+01 1.805120262952e+01 0.0 
1.805120262952e+01 -1.616248981573e+02 0.0 
0.0 0.0 -7.450661606360e+01 
-3.806184162796e+01 2.808826681713e+01 0.0 
2.808826681713e+01 -8.582989090249e+01 0.0 
0.0 0.0 -3.676751975913e+01 
-4.084929164095e+01 1.383621231791e+01 0.0 
1.383621231791e+01 -1.683106404325e+02 0.0 
0.0 0.0 -6.234797962202e+01 
-2.722110407478e+01 1.159137881615e+01 0.0 
1.159137881615e+01 -1.250595231534e+02 0.0 
0.0 0.0 -4.562165596887e+01 
-4.576399149722e+01 2.931841333489e+01 0.0 
2.931841333489e+01 -8.675093709762e+01 0.0 
0.0 0.0 -3.935447857845e+01 
-4.853278453905e+01 4.687788619856e+00 0.0 
4.687788619856e+00 -4.743321798771e+01 0.0 
0.0 0.0 -2.838980075803e+01 
-6.389460158075e+01 6.928490624559e+00 0.0 
6.928490624559e+00 -9.096179216396e+01 0.0 
0.0 0.0 -4.605691812341e+01 
-1.462849334169e+02 1.746220446098e+01 0.0 
1.746220446098e+01 -3.664393217873e+02 0.0 
0.0 0.0 -1.534172765613e+02 
-9.760458179148e+01 3.001414304793e+01 0.0 
3.001414304793e+01 -2.104212446610e+02 0.0 
0.0 0.0 -9.200774793575e+01 
-7.007553994240e+01 2.346241673840e+01 0.0 
2.346241673840e+01 -1.109447864723e+02 0.0 
0.0 0.0 -5.390609792441e+01 
-7.416109726901e+01 2.848881838045e+01 0.0 
2.848881838045e+01 -1.466500429721e+02 0.0 
0.0 0.0 -6.584334207233e+01 
-2.939507763099e+01 1.054374717649e+01 0.0 
1.054374717649e+01 -1.404783876427e+02 0.0 
0.0 0.0 -5.209075269911e+01 
-2.930744754344e+01 -1.014380229872e+01 0.0 
-1.014380229872e+01 -4.727699102323e+01 0.0 
0.0 0.0 -2.128965264224e+01 
-5.181538643921e+01 2.317200032059e+01 0.0 
2.317200032059e+01 -1.740046699074e+02 0.0 
0.0 0.0 -6.734601690400e+01 
-5.890213813413e+01 2.906658012880e+01 0.0 
2.906658012880e+01 -1.605911465197e+02 0.0 
0.0 0.0 -6.544798539615e+01 
-5.448891427096e+01 2.470314849416e+01 0.0 
2.470314849416e+01 -1.750493515991e+02 0.0 
0.0 0.0 -6.846147976101e+01 
-4.208329354205e+01 3.200713933424e+01 0.0 
3.200713933424e+01 -5.168902050464e+01 0.0 
0.0 0.0 -2.723948058268e+01 
-4.326640798409e+01 1.011336171963e-01 0.0 
1.011336171963e-01 -6.150023276472e+01 0.0 
0.0 0.0 -3.102999222464e+01 
-3.710295307029e+01 -8.709472264223e+00 0.0 
-8.709472264223e+00 -8.588123610879e+01 0.0 
0.0 0.0 -3.649525675373e+01 
-3.745667669146e+01 2.491359005525e+01 0.0 
2.491359005525e+01 -1.236235315141e+02 0.0 
0.0 0.0 -4.792406246165e+01 
-1.640277420015e+02 1.812941722730e+01 0.0 
1.812941722730e+01 -3.840647313368e+02 0.0 
0.0 0.0 -1.640277420015e+02 
-9.107792711927e+01 2.036838852976e+01 0.0 
2.036838852976e+01 -2.700068288149e+02 0.0 
0.0 0.0 -1.079254267803e+02 
-5.710035025174e+01 1.850821331824e+01 0.0 
1.850821331824e+01 -6.962215919365e+01 0.0 
0.0 0.0 -3.761675283362e+01 
-1.931832668982e+01 -1.054155635994e+00 0.0 
-1.054155635994e+00 -5.930554121328e+01 0.0 
0.0 0.0 -2.318716037093e+01 
-5.649469779734e+01 2.871573644093e+01 0.0 
2.871573644093e+01 -1.427646201548e+02 0.0 
0.0 0.0 -5.937779538564e+01 
-5.094473409458e+01 2.268033490552e+01 0.0 
2.268033490552e+01 -1.735360095103e+02 0.0 
0.0 0.0 -6.694422308148e+01 
-7.446763849483e+01 2.923468162126e+01 0.0 
2.923468162126e+01 -1.306147024173e+02 0.0 
0.0 0.0 -6.112470227364e+01 
-1.252718903908e+02 4.024293855771e+01 0.0 
4.024293855771e+01 -2.918320274642e+02 0.0 
0.0 0.0 -1.247311753565e+02 
-5.595135130735e+01 2.565676768780e+01 0.0 
2.565676768780e+01 -8.653043474880e+01 0.0 
0.0 0.0 -4.234453581684e+01 
-7.035187973671e+01 3.142533831594e+01 0.0 
3.142533831594e+01 -1.457134582935e+02 0.0 
0.0 0.0 -6.441960140906e+01 
-7.490041235691e+01 -6.671210343789e+00 0.0 
-6.671210343789e+00 -2.024131832292e+02 0.0 
0.0 0.0 -8.279407867583e+01 
-9.088042918258e+01 2.207402234146e+01 0.0 
2.207402234146e+01 -1.699208892179e+02 0.0 
0.0 0.0 -7.784039552015e+01 
-8.914720783611e+01 -9.789672345416e-01 0.0 
-9.789672345416e-01 -2.616959808059e+02 0.0 
0.0 0.0 -1.048529565926e+02 
-1.287514098897e+02 4.087753352543e+01 0.0 
4.087753352543e+01 -3.005837444902e+02 0.0 
0.0 0.0 -1.284005463140e+02 
-1.143718115471e+02 3.567288936604e+01 0.0 
3.567288936604e+01 -2.682008936100e+02 0.0 
0.0 0.0 -1.143718115471e+02 
-1.015876780981e+02 2.754558036640e+01 0.0 
2.754558036640e+01 -2.383712488957e+02 0.0 
0.0 0.0 -1.015876780981e+02 
-1.066283767501e+02 3.185804205988e+01 0.0 
3.185804205988e+01 -2.501328790835e+02 0.0 
0.0 0.0 -1.066283767501e+02 
-7.774017530944e+01 2.767773523656e+01 0.0 
2.767773523656e+01 -1.484514691833e+02 0.0 
0.0 0.0 -6.745749334783e+01 
-9.410635454191e+01 2.524182054673e+01 0.0 
2.524182054673e+01 -1.718833659412e+02 0.0 
0.0 0.0 -7.939691614494e+01 
-1.006149274790e+02 3.003296840947e+01 0.0 
3.003296840947e+01 -2.155436592275e+02 0.0 
0.0 0.0 -9.444757601193e+01 
-4.797090104401e+01 2.796502464650e+01 0.0 
2.796502464650e+01 -1.236469493740e+02 0.0 
0.0 0.0 -5.108535512540e+01 
-4.530799262174e+01 2.794336444541e+01 0.0 
2.794336444541e+01 -1.048012871555e+02 0.0 
0.0 0.0 -4.463278393316e+01 
-7.388534987575e+01 -4.595337380743e+00 0.0 
-4.595337380743e+00 -1.913813060869e+02 0.0 
0.0 0.0 -7.917999678879e+01 
-9.798763323141e+01 2.803160815153e+01 0.0 
2.803160815153e+01 -1.881725461295e+02 0.0 
0.0 0.0 -8.544805380828e+01 
-1.339937379230e+02 4.011470579683e+01 0.0 
4.011470579683e+01 -3.178877864298e+02 0.0 
0.0 0.0 -1.351644573058e+02 
-9.225659067375e+01 2.102888527949e+01 0.0 
2.102888527949e+01 -1.763595053280e+02 0.0 
0.0 0.0 -8.018482880053e+01 
-8.165649803534e+01 1.930257780684e+01 0.0 
1.930257780684e+01 -2.526676573122e+02 0.0 
0.0 0.0 -9.989724660426e+01 
-9.584366938010e+01 2.410454095660e+01 0.0 
2.410454095660e+01 -1.784840119545e+02 0.0 
0.0 0.0 -8.189830440039e+01 
-8.896660761876e+01 3.013124648488e+01 0.0 
3.013124648488e+01 -2.337823536059e+02 0.0 
0.0 0.0 -9.642468836739e+01 
-5.616233092180e+01 2.736848183760e+01 0.0 
2.736848183760e+01 -1.599440543485e+02 0.0 
0.0 0.0 -6.443191558107e+01 
-4.455365182649e+01 2.753358442864e+01 0.0 
2.753358442864e+01 -8.596759756358e+01 0.0 
0.0 0.0 -3.875637481702e+01 
-3.683157790110e+01 2.755360626560e+01 0.0 
2.755360626560e+01 -1.104716633138e+02 0.0 
0.0 0.0 -4.304908566069e+01 
-9.325985378456e+01 1.753592582492e+01 0.0 
1.753592582492e+01 -2.058036281654e+02 0.0 
0.0 0.0 -8.931904458498e+01 
-4.570386364117e+01 2.751746584668e+01 0.0 
2.751746584668e+01 -1.234803880886e+02 0.0 
0.0 0.0 -5.035527551893e+01 
-1.214661900619e+02 3.349507123873e+01 0.0 
3.349507123873e+01 -2.925701399308e+02 0.0 
0.0 0.0 -1.238108989978e+02 
-7.178970676460e+01 -6.620734281413e+00 0.0 
-6.620734281413e+00 -1.900579719535e+02 0.0 
0.0 0.0 -7.815430361543e+01 
-4.553773615894e+01 -1.559553234512e+01 0.0 
-1.559553234512e+01 -1.459646078806e+02 0.0 
0.0 0.0 -5.705070321185e+01 
-1.527574122690e+02 1.561620059493e+01 0.0 
1.561620059493e+01 -3.706082878640e+02 0.0 
0.0 0.0 -1.566097100399e+02 
-3.940917022701e+01 2.574951441703e+01 0.0 
2.574951441703e+01 -1.225826226764e+02 0.0 
0.0 0.0 -4.819753787102e+01 
-1.182709718582e+02 3.708862133682e+01 0.0 
3.708862133682e+01 -2.772989343359e+02 0.0 
0.0 0.0 -1.182709718582e+02 
-1.035255154837e+02 2.830991521005e+01 0.0 
2.830991521005e+01 -2.281918020045e+02 0.0 
0.0 0.0 -9.911519524649e+01 
-7.023860292632e+01 2.961477793674e+01 0.0 
2.961477793674e+01 -1.629167064257e+02 0.0 
0.0 0.0 -6.954659280562e+01 
-2.133328821568e+01 -5.958622413248e+00 0.0 
-5.958622413248e+00 -2.506250787353e+01 0.0 
0.0 0.0 -1.385715642906e+01 
-1.260807940823e+02 3.840965565500e+01 0.0 
3.840965565500e+01 -2.955218528588e+02 0.0 
0.0 0.0 -1.260807940823e+02 
-1.499741106047e+02 2.022044920308e+01 0.0 
2.022044920308e+01 -3.644803906041e+02 0.0 
0.0 0.0 -1.539363503626e+02 
-3.848223949055e+01 -1.459453997605e+01 0.0 
-1.459453997605e+01 -1.431896090820e+02 0.0 
0.0 0.0 -5.410155457177e+01 
-8.689974726801e+01 1.755435601273e+01 0.0 
1.755435601273e+01 -2.655235747046e+02 0.0 
0.0 0.0 -1.053269965918e+02 
-1.471875752536e+02 3.218219685195e+01 0.0 
3.218219685195e+01 -3.561389068385e+02 0.0 
0.0 0.0 -1.505979446276e+02 
-8.622476090960e+00 -8.934930471701e-01 0.0 
-8.934930471701e-01 -9.477160117278e+00 0.0 
0.0 0.0 -5.999804005259e+00 
-5.059044279556e+01 2.745044959894e+01 0.0 
2.745044959894e+01 -1.419370851795e+02 0.0 
0.0 0.0 -5.735825839253e+01 
-7.403181059652e+01 2.963954582611e+01 0.0 
2.963954582611e+01 -1.639241389490e+02 0.0 
0.0 0.0 -7.098678486365e+01 
-6.653457303722e+01 2.935111324323e+01 0.0 
2.935111324323e+01 -1.621189811775e+02 0.0 
0.0 0.0 -6.819606626442e+01 
-6.682272725943e+01 2.933809572584e+01 0.0 
2.933809572584e+01 -1.444626273729e+02 0.0 
0.0 0.0 -6.298560638970e+01 
-3.705055255046e+01 2.725393460970e+01 0.0 
2.725393460970e+01 -1.071805700145e+02 0.0 
0.0 0.0 -4.246176606786e+01 
-1.340855762406e+02 3.828132013405e+01 0.0 
3.828132013405e+01 -3.141996778948e+02 0.0 
0.0 0.0 -1.340855762406e+02 
-4.698010149850e+01 1.376719799511e+01 0.0 
1.376719799511e+01 -1.837018757908e+02 0.0 
0.0 0.0 -6.880459318679e+01 
-2.641436524507e+01 4.076917717098e+00 0.0 
4.076917717098e+00 -1.179509267550e+02 0.0 
0.0 0.0 -4.537924255710e+01 
-1.562441360842e+02 4.010437785439e+00 0.0 
4.010437785439e+00 -3.763482667919e+02 0.0 
0.0 0.0 -1.593777208628e+02 
-1.388236672422e+01 -3.811450612567e+00 0.0 
-3.811450612567e+00 -2.650300396694e+01 0.0 
0.0 0.0 -1.171561120735e+01 
-4.943377863929e+01 2.724861183642e+01 0.0 
2.724861183642e+01 -8.561936701026e+01 0.0 
0.0 0.0 -4.011594369487e+01 
-3.425120681966e+01 -2.351268134632e+01 0.0 
-2.351268134632e+01 -9.824069749367e+01 0.0 
0.0 0.0 -4.052247516181e+01 
-5.192590922771e+01 2.306492725212e+01 0.0 
2.306492725212e+01 -6.646703208111e+01 0.0 
0.0 0.0 -3.511788239265e+01 
-1.547727080458e+02 2.245263949747e+01 0.0 
2.245263949747e+01 -3.758584928114e+02 0.0 
0.0 0.0 -1.587893602571e+02 
-1.418727852119e+02 3.656595148457e+01 0.0 
3.656595148457e+01 -3.323698321612e+02 0.0 
0.0 0.0 -1.418727852119e+02 
-7.049164900846e+01 2.707305585443e+01 0.0 
2.707305585443e+01 -1.278184216329e+02 0.0 
0.0 0.0 -5.909302119242e+01 
-3.371677676046e+01 -2.417068153036e+01 0.0 
-2.417068153036e+01 -6.692814908049e+01 0.0 
0.0 0.0 -3.029668975917e+01 
-3.029687970750e+01 9.431575077418e+00 0.0 
9.431575077418e+00 -1.238637414696e+02 0.0 
0.0 0.0 -4.859090231985e+01 
-4.368388147330e+01 -2.612403796690e+01 0.0 
-2.612403796690e+01 -8.776052265847e+01 0.0 
0.0 0.0 -3.781334361296e+01 
-1.320086553261e+02 4.834243749193e+00 0.0 
4.834243749193e+00 -3.339577445487e+02 0.0 
0.0 0.0 -1.393899199624e+02 
-4.839580301071e+01 5.863053446006e+00 0.0 
5.863053446006e+00 -4.981291894185e+01 0.0 
0.0 0.0 -2.906261658577e+01 
-6.290563815583e+01 2.142422060911e+01 0.0 
2.142422060911e+01 -7.526443996631e+01 0.0 
0.0 0.0 -4.105102343664e+01 
-1.487429955756e+02 3.372408338855e+01 0.0 
3.372408338855e+01 -3.484003230096e+02 0.0 
0.0 0.0 -1.487429955756e+02 
-4.527497974383e+01 4.177986955222e+00 0.0 
4.177986955222e+00 -4.821188047207e+01 0.0 
0.0 0.0 -2.764605806477e+01 
-1.073168122958e+02 2.758496143116e+01 0.0 
2.758496143116e+01 -2.391194764102e+02 0.0 
0.0 0.0 -1.035308866118e+02 
-9.306902716401e+01 2.811670429775e+01 0.0 
2.811670429775e+01 -2.495164783780e+02 0.0 
0.0 0.0 -1.023756516626e+02 
-5.795766971182e+01 4.360807979347e+00 0.0 
4.360807979347e+00 -7.973623197651e+01 0.0 
0.0 0.0 -4.090817050650e+01 
-3.915484749182e+01 2.768613005998e+01 0.0 
2.768613005998e+01 -8.467608100061e+01 0.0 
0.0 0.0 -3.674927854773e+01 
-8.552077151289e+01 1.752720627250e+01 0.0 
1.752720627250e+01 -2.649326558016e+02 0.0 
0.0 0.0 -1.047360281944e+02 
-2.813638804554e+01 1.883821933671e+01 0.0 
1.883821933671e+01 -1.088201939122e+02 0.0 
0.0 0.0 -4.080108007531e+01 
-1.543935353051e+02 2.976840392931e+01 0.0 
2.976840392931e+01 -3.615849157119e+02 0.0 
0.0 0.0 -1.543935353051e+02 
-1.104451807434e+02 3.382398772772e+01 0.0 
3.382398772772e+01 -2.590387550680e+02 0.0 
0.0 0.0 -1.104451807434e+02 
-1.040528749580e+02 2.984274493663e+01 0.0 
2.984274493663e+01 -2.441233749020e+02 0.0 
0.0 0.0 -1.040528749580e+02 
-9.314176069884e+01 -1.855492918104e-01 0.0 
-1.855492918104e-01 -2.635584955117e+02 0.0 
0.0 0.0 -1.066100768632e+02 
-6.991885341921e+01 -4.102126601822e+00 0.0 
-4.102126601822e+00 -1.788189303175e+02 0.0 
0.0 0.0 -7.422133512101e+01 
-5.544146505900e+01 2.791659690441e+01 0.0 
2.791659690441e+01 -1.597588918099e+02 0.0 
0.0 0.0 -6.416010706067e+01 
-9.483577156462e+01 -9.821717538635e-01 0.0 
-9.821717538635e-01 -2.692071255378e+02 0.0 
0.0 0.0 -1.088128691307e+02 
-1.588327556892e+02 2.540290570520e+01 0.0 
2.540290570520e+01 -3.719430966080e+02 0.0 
0.0 0.0 -1.588327556892e+02 
-3.406584166408e+01 2.330734469775e+01 0.0 
2.330734469775e+01 -1.218428160020e+02 0.0 
0.0 0.0 -4.637259729982e+01 
-3.965767269957e+01 -5.755158670558e+00 0.0 
-5.755158670558e+00 -1.688212245349e+02 0.0 
0.0 0.0 -6.214366917034e+01 
-4.418962429122e+01 -8.001668043800e+00 0.0 
-8.001668043800e+00 -1.732501666404e+02 0.0 
0.0 0.0 -6.483193727949e+01 
-6.125175789366e+01 4.559127147171e+00 0.0 
4.559127147171e+00 -9.041613687364e+01 0.0 
0.0 0.0 -4.510036843019e+01 
-1.596652007970e+02 1.531247309611e+01 0.0 
1.531247309611e+01 -3.850612567751e+02 0.0 
0.0 0.0 -1.630179372716e+02 
-4.565398572000e+01 -2.368766460782e+01 0.0 
-2.368766460782e+01 -6.213183350584e+01 0.0 
0.0 0.0 -3.086436316403e+01 
-1.625783793865e+02 2.039697178387e+01 0.0 
2.039697178387e+01 -3.806828852351e+02 0.0 
0.0 0.0 -1.625783793865e+02 
-4.333994657655e+01 -1.181230174488e+01 0.0 
-1.181230174488e+01 -1.606585175095e+02 0.0 
0.0 0.0 -6.079953922581e+01 
-1.223887141089e+02 3.807560638236e+01 0.0 
3.807560638236e+01 -2.869069995875e+02 0.0 
0.0 0.0 -1.223887141089e+02 
-1.034928757698e+02 3.287372156263e+01 0.0 
3.287372156263e+01 -2.174546733252e+02 0.0 
0.0 0.0 -9.588426472849e+01 
-7.560123784845e+00 -6.291957680627e-01 0.0 
-6.291957680627e-01 -7.127346635218e+00 0.0 
0.0 0.0 -1.745320569636e+00 
-5.288150361073e+01 2.629851333444e+01 0.0 
2.629851333444e+01 -1.589981540863e+02 0.0 
0.0 0.0 -6.316389730910e+01 
-9.354636337369e+01 2.017171773176e+01 0.0 
2.017171773176e+01 -1.720485663807e+02 0.0 
0.0 0.0 -7.927847892632e+01 
-1.302276668690e+02 3.861462143124e+01 0.0 
3.861462143124e+01 -3.051978893609e+02 0.0 
0.0 0.0 -1.302276668690e+02 
-7.800222554520e+01 3.061480664195e+01 0.0 
3.061480664195e+01 -1.491159221811e+02 0.0 
0.0 0.0 -6.773544431790e+01 
-9.760226028948e+01 2.722079350890e+01 0.0 
2.722079350890e+01 -2.649541894113e+02 0.0 
0.0 0.0 -1.083669349102e+02 
-3.878458341334e+01 3.046744336904e+01 0.0 
3.046744336904e+01 -9.378995081101e+01 0.0 
0.0 0.0 -3.916202713522e+01 
-1.396395210732e+02 1.769557215707e+01 0.0 
1.769557215707e+01 -3.518746566449e+02 0.0 
0.0 0.0 -1.470542533154e+02 
-4.814959282445e+01 -1.203379559398e+01 0.0 
-1.203379559398e+01 -1.650160537438e+02 0.0 
0.0 0.0 -6.354969397049e+01 
-5.001549978901e+01 -9.598327185505e+00 0.0 
-9.598327185505e+00 -1.754205434329e+02 0.0 
0.0 0.0 -6.723081296657e+01 
-4.957147890678e+01 -2.558815946266e+01 0.0 
-2.558815946266e+01 -4.870750982916e+01 0.0 
0.0 0.0 -2.859109626047e+01 
-1.379910680556e+02 3.758322050897e+01 0.0 
3.758322050897e+01 -3.233124921298e+02 0.0 
0.0 0.0 -1.379910680556e+02 
-2.932844120358e+01 1.720258075127e+01 0.0 
1.720258075127e+01 -1.243262591466e+02 0.0 
0.0 0.0 -4.553812659906e+01 
-1.235854509008e+02 1.047733753501e+01 0.0 
1.047733753501e+01 -3.287519925132e+02 0.0 
0.0 0.0 -1.353012330242e+02 
-5.564118288817e+01 5.347924485316e+00 0.0 
5.347924485316e+00 -7.025552044495e+01 0.0 
0.0 0.0 -3.736901099994e+01 
-5.093919571905e+01 -1.301332854320e+01 0.0 
-1.301332854320e+01 -1.386169080551e+02 0.0 
0.0 0.0 -5.646683113226e+01 
-4.502144482719e+01 -8.323763424172e+00 0.0 
-8.323763424172e+00 -1.705667459520e+02 0.0 
0.0 0.0 -6.427645723376e+01 
-7.419710892106e+01 3.114578689999e+01 0.0 
3.114578689999e+01 -1.471796289137e+02 0.0 
0.0 0.0 -6.601302135042e+01 
-1.517263125945e+02 3.188976605332e+01 0.0 
3.188976605332e+01 -3.553613960538e+02 0.0 
0.0 0.0 -1.517263125945e+02 
-7.222037107455e+01 -5.184055256709e+00 0.0 
-5.184055256709e+00 -1.859492499702e+02 0.0 
0.0 0.0 -7.705088631342e+01 
-1.053001623690e+02 3.903187703631e+00 0.0 
3.903187703631e+00 -2.919796194927e+02 0.0 
0.0 0.0 -1.187839345585e+02 
-6.609602299205e+01 2.822589135218e+01 0.0 
2.822589135218e+01 -1.788511897953e+02 0.0 
0.0 0.0 -7.308416383620e+01 
-8.745188018814e+01 5.389064153875e+00 0.0 
5.389064153875e+00 -2.666042709209e+02 0.0 
0.0 0.0 -1.058168453327e+02 
-4.536426620268e+01 -3.512455035538e+00 0.0 
-3.512455035538e+00 -1.792793897410e+02 0.0 
0.0 0.0 -6.699309678312e+01 
-9.614273800628e+01 1.868543677667e+00 0.0 
1.868543677667e+00 -2.738887443010e+02 0.0 
0.0 0.0 -1.106094446922e+02 
-6.246819682630e+01 3.001796232499e+01 0.0 
3.001796232499e+01 -1.614056500103e+02 0.0 
0.0 0.0 -6.676215405099e+01 
-8.894963904542e+01 3.182888739711e+01 0.0 
3.182888739711e+01 -2.187801172338e+02 0.0 
0.0 0.0 -9.191892688377e+01 
-9.513531725801e+01 1.847660828553e+01 0.0 
1.847660828553e+01 -2.819807812261e+02 0.0 
0.0 0.0 -1.127348295452e+02 
-6.243841329694e+01 2.729469601732e+01 0.0 
2.729469601732e+01 -1.778365023135e+02 0.0 
0.0 0.0 -7.168247468314e+01 
-7.048960124364e+01 -7.751759766453e+00 0.0 
-7.751759766453e+00 -1.948954406655e+02 0.0 
0.0 0.0 -7.921551257275e+01 
-3.693149830679e+01 2.488271643095e+01 0.0 
2.488271643095e+01 -1.213526850334e+02 0.0 
0.0 0.0 -4.708525500205e+01 
-6.836894926281e+01 -6.251349764444e+00 0.0 
-6.251349764444e+00 -1.776999745170e+02 0.0 
0.0 0.0 -7.342067713394e+01 
-9.345523092450e+01 2.928373028255e+01 0.0 
2.928373028255e+01 -2.499734215924e+02 0.0 
0.0 0.0 -1.026285957551e+02 
-7.261252026734e+01 1.383101985637e+01 0.0 
1.383101985637e+01 -2.432686447953e+02 0.0 
0.0 0.0 -9.436434951880e+01 
-1.565101887729e+02 2.009916152723e+01 0.0 
2.009916152723e+01 -3.794507590223e+02 0.0 
0.0 0.0 -1.603882843386e+02 
-9.742494225126e+01 2.308040789347e+01 0.0 
2.308040789347e+01 -1.857026976009e+02 0.0 
0.0 0.0 -8.453829195564e+01 
-4.573259191494e+01 -1.393208297432e+01 0.0 
-1.393208297432e+01 -1.220738950402e+02 0.0 
0.0 0.0 -4.994194608653e+01 
-1.609774608326e+02 2.278287665227e+01 0.0 
2.278287665227e+01 -3.769474086094e+02 0.0 
0.0 0.0 -1.609774608326e+02 
-1.445411029096e+02 1.993531661195e+01 0.0 
1.993531661195e+01 -3.633382596747e+02 0.0 
0.0 0.0 -1.519638087753e+02 
-5.809481439298e+01 2.289491521301e+01 0.0 
2.289491521301e+01 -1.910504032645e+02 0.0 
0.0 0.0 -7.434356529723e+01 
-3.087606421379e+01 -1.640621924914e+01 0.0 
-1.640621924914e+01 -3.131962072801e+01 0.0 
0.0 0.0 -1.853313558664e+01 
-1.605032985912e+02 1.318112886252e+01 0.0 
1.318112886252e+01 -3.868144404898e+02 0.0 
0.0 0.0 -1.637953217243e+02 
-9.947885853003e+01 2.680484046309e+01 0.0 
2.680484046309e+01 -1.935610191113e+02 0.0 
0.0 0.0 -8.751196329241e+01 
-4.311190495380e+01 -1.462351092603e+01 0.0 
-1.462351092603e+01 -1.466017344564e+02 0.0 
0.0 0.0 -5.651409182305e+01 
-1.651228758883e+02 1.588393546721e+01 0.0 
1.588393546721e+01 -3.866200437395e+02 0.0 
0.0 0.0 -1.651228758883e+02 
-1.018770364125e+02 1.824111320348e+00 0.0 
1.824111320348e+00 -2.818343124802e+02 0.0 
0.0 0.0 -1.147134046678e+02 
-4.767575208565e+01 2.821705071883e+01 0.0 
2.821705071883e+01 -1.051131611387e+02 0.0 
0.0 0.0 -4.543667396731e+01 
-6.577464333784e+01 2.025066824404e+01 0.0 
2.025066824404e+01 -9.215192468164e+01 0.0 
0.0 0.0 -4.697797040584e+01 
-6.918270729978e+01 1.543513871794e+01 0.0 
1.543513871794e+01 -2.318937785457e+02 0.0 
0.0 0.0 -8.992294575364e+01 
-8.493153794126e+01 -2.283090374771e+00 0.0 
-2.283090374771e+00 -2.452514875700e+02 0.0 
0.0 0.0 -9.865490765337e+01 
-9.072833196246e+01 8.407089703356e+00 0.0 
8.407089703356e+00 -2.746870428128e+02 0.0 
0.0 0.0 -1.092246124326e+02 
-8.146091799681e+01 2.226348449678e+01 0.0 
2.226348449678e+01 -1.272732558559e+02 0.0 
0.0 0.0 -6.222025215581e+01 
-5.319940407310e+01 2.834752378941e+01 0.0 
2.834752378941e+01 -1.053431468581e+02 0.0 
0.0 0.0 -4.716276527937e+01 
-9.959066772661e+01 2.100188749744e+01 0.0 
2.100188749744e+01 -2.867338899185e+02 0.0 
0.0 0.0 -1.154973672935e+02 
-5.055988062426e+01 7.304951741159e-01 0.0 
7.304951741159e-01 -7.848220501055e+01 0.0 
0.0 0.0 -3.831262569044e+01 
-7.354211672932e+01 -6.002970280214e+00 0.0 
-6.002970280214e+00 -1.965656282939e+02 0.0 
0.0 0.0 -8.063232350696e+01 
-9.069281964083e+01 1.579864703643e+01 0.0 
1.579864703643e+01 -2.766646416152e+02 0.0 
0.0 0.0 -1.098072383768e+02 
-5.399159418275e+01 -1.208691424695e+01 0.0 
-1.208691424695e+01 -1.674907909005e+02 0.0 
0.0 0.0 -6.604471552498e+01 
-1.036479829755e+02 -2.268437552695e+00 0.0 
-2.268437552695e+00 -2.688482538016e+02 0.0 
0.0 0.0 -1.113488710331e+02 
-9.998897704029e+00 -1.376505221885e+00 0.0 
-1.376505221885e+00 -8.895748091250e+00 0.0 
0.0 0.0 -5.268393738584e+00 
-3.973965537799e+01 2.616483321492e+01 0.0 
2.616483321492e+01 -1.214718123748e+02 0.0 
0.0 0.0 -4.796344032584e+01 
-4.971890116807e+01 -1.268635350031e+01 0.0 
-1.268635350031e+01 -1.631885820359e+02 0.0 
0.0 0.0 -6.347224496119e+01 
-7.927990292017e+01 -5.636100767701e+00 0.0 
-5.636100767701e+00 -2.101771117703e+02 0.0 
0.0 0.0 -8.643710440714e+01 
-6.177361073078e+01 2.460275411740e+01 0.0 
2.460275411740e+01 -1.927474379849e+02 0.0 
0.0 0.0 -7.595631461470e+01 
-9.819070011343e+01 9.458311085362e-01 0.0 
9.458311085362e-01 -2.800855190889e+02 0.0 
0.0 0.0 -1.130828657607e+02 
-5.975415556214e+01 5.207283628909e+00 0.0 
5.207283628909e+00 -8.244718500301e+01 0.0 
0.0 0.0 -4.226040216954e+01 
-4.929662041109e+01 -1.454578424394e+01 0.0 
-1.454578424394e+01 -1.492390631832e+02 0.0 
0.0 0.0 -5.916070507830e+01 
-1.659455607442e+02 1.383496060415e+01 0.0 
1.383496060415e+01 -3.885396417365e+02 0.0 
0.0 0.0 -1.659455607442e+02 
-7.373772141371e+01 3.170244894891e+01 0.0 
3.170244894891e+01 -1.642037110948e+02 0.0 
0.0 0.0 -7.098242975256e+01 
-8.361575140035e+01 -4.702716044626e+00 0.0 
-4.702716044626e+00 -2.179875333635e+02 0.0 
0.0 0.0 -9.008098542915e+01 
-6.987712815591e+01 3.137710790141e+01 0.0 
3.137710790141e+01 -1.631157516096e+02 0.0 
0.0 0.0 -6.949786392967e+01 
-8.157684242510e+01 -3.752682221857e+00 0.0 
-3.752682221857e+00 -2.115525386363e+02 0.0 
0.0 0.0 -8.753881431842e+01 
-1.392623171930e+01 -1.077376008747e+00 0.0 
-1.077376008747e+00 -9.540257724717e+00 0.0 
0.0 0.0 -7.614192812453e+00 
-7.083445262380e+01 2.261190737268e+01 0.0 
2.261190737268e+01 -9.864964242086e+01 0.0 
0.0 0.0 -5.044522851340e+01 
-6.846546711361e+01 -2.594715259673e+00 0.0 
-2.594715259673e+00 -1.718400829749e+02 0.0 
0.0 0.0 -7.169166502656e+01 
1.712859352517e-01 -3.121589424372e-01 0.0 
-3.121589424372e-01 -9.029121681784e+00 0.0 
0.0 0.0 -2.256814395004e+00 
-7.994497623276e+01 -4.632566684299e+00 0.0 
-4.632566684299e+00 -2.059225675185e+02 0.0 
0.0 0.0 -8.536026312539e+01 
-1.078311746980e+02 2.755690886453e+00 0.0 
2.755690886453e+00 -2.984609085366e+02 0.0 
0.0 0.0 -1.214876249704e+02 
-7.745027149555e+01 4.137340394229e+00 0.0 
4.137340394229e+00 -1.551785272224e+02 0.0 
0.0 0.0 -6.938863961539e+01 
-8.173082907917e+01 6.535715213706e+00 0.0 
6.535715213706e+00 -2.578072986086e+02 0.0 
0.0 0.0 -1.014614383063e+02 
-8.411059494905e+01 5.411349381345e+00 0.0 
5.411349381345e+00 -2.651979967088e+02 0.0 
0.0 0.0 -1.043925774974e+02 
-5.601457385059e+01 1.920034241526e+01 0.0 
1.920034241526e+01 -5.409908322193e+01 0.0 
0.0 0.0 -3.263409712176e+01 
-3.659280514369e+01 1.656622533351e+00 0.0 
1.656622533351e+00 -2.833315936116e+01 0.0 
0.0 0.0 -1.907778935146e+01 
-9.769345285522e+01 2.237857633923e+01 0.0 
2.237857633923e+01 -2.135576761158e+02 0.0 
0.0 0.0 -9.297533869131e+01 
-6.612702291362e+01 3.078718476090e+01 0.0 
3.078718476090e+01 -1.622133684965e+02 0.0 
0.0 0.0 -6.810211742302e+01 
-1.466287932448e+00 -3.309393612230e-01 0.0 
-3.309393612230e-01 -7.089233172300e+00 0.0 
0.0 0.0 -1.442623431264e+00 
-3.071840160145e+01 -5.895170990572e+00 0.0 
-5.895170990572e+00 -7.123997848377e+01 0.0 
0.0 0.0 -3.018751402557e+01 
-2.629260968196e+01 -9.824645567073e+00 0.0 
-9.824645567073e+00 -2.764303362885e+01 0.0 
0.0 0.0 -1.610228735199e+01 
-5.055719636000e+01 -1.021848590804e+01 0.0 
-1.021848590804e+01 -1.292229435353e+02 0.0 
0.0 0.0 -5.353404196858e+01 
-1.051515497110e+02 3.416498866787e+01 0.0 
3.416498866787e+01 -2.422780592894e+02 0.0 
0.0 0.0 -1.038288827001e+02 
-7.982238099507e+01 6.065996673754e+00 0.0 
6.065996673754e+00 -1.565184942632e+02 0.0 
0.0 0.0 -7.050226257747e+01 
-1.252319945709e+02 2.113073841608e+00 0.0 
2.113073841608e+00 -3.219770026678e+02 0.0 
0.0 0.0 -1.337626991716e+02 
-5.560071020197e+01 -6.992230888102e+00 0.0 
-6.992230888102e+00 -1.425353913167e+02 0.0 
0.0 0.0 -5.904083045560e+01 
-1.059421526785e+02 -6.500318017563e-01 0.0 
-6.500318017563e-01 -2.701925644568e+02 0.0 
0.0 0.0 -1.124404151406e+02 
-1.274179998640e+02 8.758732344681e+00 0.0 
8.758732344681e+00 -3.362488497056e+02 0.0 
0.0 0.0 -1.387000548709e+02 
-2.602818873553e+01 3.472020002357e+00 0.0 
3.472020002357e+00 -1.263325697178e+02 0.0 
0.0 0.0 -4.687390426521e+01 
-6.869592840042e+01 -1.770595059402e-01 0.0 
-1.770595059402e-01 -1.720009570392e+02 0.0 
0.0 0.0 -7.180906563188e+01 
-5.630309388977e+01 -1.818677517493e+00 0.0 
-1.818677517493e+00 -1.411479967234e+02 0.0 
0.0 0.0 -5.883532718394e+01 
-1.614669980579e+02 1.106806895403e+01 0.0 
1.106806895403e+01 -3.880723543974e+02 0.0 
0.0 0.0 -1.644618057366e+02 
-1.665825277968e+02 1.183141763194e+01 0.0 
1.183141763194e+01 -3.900258981926e+02 0.0 
0.0 0.0 -1.665825277968e+02 
-7.640882999513e+01 -3.557334050173e-01 0.0 
-3.557334050173e-01 -1.912669161512e+02 0.0 
0.0 0.0 -7.990272384389e+01 
-8.569984751284e+01 -2.782769194157e+00 0.0 
-2.782769194157e+00 -2.192904491694e+02 0.0 
0.0 0.0 -9.109708900466e+01 
-8.616433160299e+01 -2.889343924847e+00 0.0 
-2.889343924847e+00 -2.505269366673e+02 0.0 
0.0 0.0 -1.006073804811e+02 
-1.320983758550e+02 1.127903412191e+01 0.0 
1.127903412191e+01 -3.449211949869e+02 0.0 
0.0 0.0 -1.427058712526e+02 
-3.486790679265e+01 -7.847597785401e+00 0.0 
-7.847597785401e+00 -7.922430283716e+01 0.0 
0.0 0.0 -3.382766288894e+01 
-1.225693380273e+02 6.480515311268e+00 0.0 
6.480515311268e+00 -3.268013982964e+02 0.0 
0.0 0.0 -1.344112208971e+02 
-1.282281196218e+01 -1.407831167217e+00 0.0 
-1.407831167217e+00 -4.299503522284e+01 0.0 
0.0 0.0 -1.634535415551e+01 
-7.761574820200e+01 -3.535603821463e+00 0.0 
-3.535603821463e+00 -1.991853186076e+02 0.0 
0.0 0.0 -8.264032004288e+01 
-8.524343610897e+01 -3.679977454598e+00 0.0 
-3.679977454598e+00 -2.238639938680e+02 0.0 
0.0 0.0 -9.233222899309e+01 
-4.818032102722e+00 -5.404779784660e-01 0.0 
-5.404779784660e-01 -2.568895482084e+01 0.0 
0.0 0.0 -8.897917557332e+00 
-7.272539018305e+01 -1.800214819219e+00 0.0 
-1.800214819219e+00 -1.813781790448e+02 0.0 
0.0 0.0 -7.583107076836e+01 
-9.298537048364e+01 2.032922882007e+01 0.0 
2.032922882007e+01 -1.831414701300e+02 0.0 
0.0 0.0 -8.243805218409e+01 
-5.991576290442e-01 -3.257923614051e-01 0.0 
-3.257923614051e-01 -7.580588278802e+00 0.0 
0.0 0.0 -1.274560419682e+00 
-3.928599408227e+01 2.891970993589e+00 0.0 
2.891970993589e+00 -2.898373298657e+01 0.0 
0.0 0.0 -2.008091812065e+01 
-3.783353410878e+01 4.369073885604e+00 0.0 
4.369073885604e+00 -3.121419731487e+01 0.0 
0.0 0.0 -2.031431942709e+01 
-9.434204352032e+01 1.144950301049e+01 0.0 
1.144950301049e+01 -2.820071538213e+02 0.0 
0.0 0.0 -1.125047592025e+02 
-5.610111512374e+01 4.140922159592e-01 0.0 
4.140922159592e-01 -1.409438677318e+02 0.0 
0.0 0.0 -5.871349485666e+01 
-4.758249533985e+01 -1.389000030852e+01 0.0 
-1.389000030852e+01 -1.511255087692e+02 0.0 
0.0 0.0 -5.921240123272e+01 
-3.501469842120e+01 2.771636798288e+01 0.0 
2.771636798288e+01 -8.630790444245e+01 0.0 
0.0 0.0 -3.599678085909e+01 
-1.408316243882e+02 2.914575393518e+00 0.0 
2.914575393518e+00 -3.481412547662e+02 0.0 
0.0 0.0 -1.462918637463e+02 
-1.279050595788e+02 3.562992955173e+01 0.0 
3.562992955173e+01 -3.033012629510e+02 0.0 
0.0 0.0 -1.289618967589e+02 
-7.960670331926e+01 8.517268206747e+00 0.0 
8.517268206747e+00 -1.447608113842e+02 0.0 
0.0 0.0 -6.691025441105e+01 
-3.905372769294e+01 2.801990294075e+01 0.0 
2.801990294075e+01 -8.469303562431e+01 0.0 
0.0 0.0 -3.672402899517e+01 
-2.619445754165e+01 -6.601855442783e+00 0.0 
-6.601855442783e+00 -4.958363592996e+01 0.0 
0.0 0.0 -2.185636215206e+01 
-5.329226761379e+01 2.959643006051e+01 0.0 
2.959643006051e+01 -8.667970288782e+01 0.0 
0.0 0.0 -4.159159115048e+01 
-3.310218522033e+01 2.394319373610e-01 0.0 
2.394319373610e-01 -2.892412162563e+01 0.0 
0.0 0.0 -1.820789205379e+01 
-3.066708093924e+01 2.937559644161e-01 0.0 
2.937559644161e-01 -2.858318504577e+01 0.0 
0.0 0.0 -1.737507979550e+01 
7.270579868556e-01 -3.703274487983e-01 0.0 
-3.703274487983e-01 -9.225494518510e+00 0.0 
0.0 0.0 -2.163753735073e+00 
-5.333807611497e+00 -6.848344806117e-01 0.0 
-6.848344806117e-01 -2.552711072464e+01 0.0 
0.0 0.0 -9.145005540252e+00 
-1.222739062241e+01 -3.392331688321e-01 0.0 
-3.392331688321e-01 -4.216673067994e+01 0.0 
0.0 0.0 -1.591823639071e+01 
-4.397443818188e+01 -7.886375378885e+00 0.0 
-7.886375378885e+00 -1.080652703616e+02 0.0 
0.0 0.0 -4.521191256304e+01 
-4.836456195544e+00 -3.978362052135e-01 0.0 
-3.978362052135e-01 -2.573885336626e+01 0.0 
0.0 0.0 -8.179637176499e+00 
-8.041924077154e+01 -1.666229075990e+00 0.0 
-1.666229075990e+00 -2.016452241975e+02 0.0 
0.0 0.0 -8.421933949071e+01 
-4.872074512043e+01 -1.270696906170e+01 0.0 
-1.270696906170e+01 -6.030787763285e+01 0.0 
0.0 0.0 -3.327692219113e+01 
-5.079061470011e+01 -8.168981648556e+00 0.0 
-8.168981648556e+00 -1.287182798683e+02 0.0 
0.0 0.0 -5.345266837053e+01 
-5.644280495790e+01 8.005227463999e-01 0.0 
8.005227463999e-01 -9.543417816922e+01 0.0 
0.0 0.0 -4.516309493814e+01 
-3.283349324390e+01 1.246160175886e+00 0.0 
1.246160175886e+00 -2.881839306025e+01 0.0 
0.0 0.0 -1.809556589124e+01 
-1.086373547780e+02 3.477106749975e+01 0.0 
3.477106749975e+01 -2.446572690534e+02 0.0 
0.0 0.0 -1.055883871494e+02 
-1.040541916719e+02 8.163167003813e-01 0.0 
8.163167003813e-01 -2.878188537040e+02 0.0 
0.0 0.0 -1.171619136128e+02 
-4.936727449639e+01 2.653643262276e-01 0.0 
2.653643262276e-01 -7.760369656150e+01 0.0 
0.0 0.0 -3.769129131737e+01 
-6.010927132629e+01 -1.165152853692e+00 0.0 
-1.165152853692e+00 -1.507378116665e+02 0.0 
0.0 0.0 -6.285412489783e+01 
-1.155044979570e+01 -6.682240878191e-01 0.0 
-6.682240878191e-01 -4.271846331805e+01 0.0 
0.0 0.0 -1.588067393412e+01 
-9.181452944005e+01 1.141113711444e+01 0.0 
1.141113711444e+01 -2.155672353601e+02 0.0 
0.0 0.0 -9.181452944005e+01 
-9.783272300645e+01 1.269971962881e+01 0.0 
1.269971962881e+01 -2.186858257956e+02 0.0 
0.0 0.0 -9.455556464062e+01 
-5.212482810095e+01 2.214418673315e+00 0.0 
2.214418673315e+00 -6.841762552463e+01 0.0 
0.0 0.0 -3.576273608767e+01 
-3.387165873754e+01 4.611632791560e-01 0.0 
4.611632791560e-01 -2.850762084692e+01 0.0 
0.0 0.0 -1.831378387534e+01 
-6.105486734497e+01 -6.392183603103e-01 0.0 
-6.392183603103e-01 -1.529504584349e+02 0.0 
0.0 0.0 -6.380159773396e+01 
-9.602549579283e+01 8.820221488419e+00 0.0 
8.820221488419e+00 -2.160750701277e+02 0.0 
0.0 0.0 -9.323016977615e+01 
-4.831597328547e+01 -6.989533327152e+00 0.0 
-6.989533327152e+00 -1.214838300928e+02 0.0 
0.0 0.0 -5.053994101348e+01 
-3.473067082283e+01 2.391618502582e+00 0.0 
2.391618502582e+00 -2.950323282090e+01 0.0 
0.0 0.0 -1.887017109312e+01 
-3.531264174464e+01 8.956763526385e-01 0.0 
8.956763526385e-01 -2.833737495126e+01 0.0 
0.0 0.0 -1.869500500877e+01 
-4.912979385889e+01 2.479179324307e+01 0.0 
2.479179324307e+01 -6.572508999183e+01 0.0 
0.0 0.0 -3.405646515522e+01 
-9.966882185794e+01 2.531038097184e+01 0.0 
2.531038097184e+01 -2.338939176685e+02 0.0 
0.0 0.0 -9.966882185794e+01 
-9.791043235363e+01 1.057563101718e+01 0.0 
1.057563101718e+01 -2.178565551657e+02 0.0 
0.0 0.0 -9.433009625581e+01 
-5.335584387736e+00 -5.480244378925e-01 0.0 
-5.480244378925e-01 -2.557014740293e+01 0.0 
0.0 0.0 -8.303495715430e+00 
9.692990834366e-01 -3.309513690508e-01 0.0 
-3.309513690508e-01 -9.284631742730e+00 0.0 
0.0 0.0 -1.987689791650e+00 
-2.744272772600e+01 -6.106174248009e+00 0.0 
-6.106174248009e+00 -5.901102358674e+01 0.0 
0.0 0.0 -2.552355559840e+01 
-8.248991285742e+01 -5.427764794395e+00 0.0 
-5.427764794395e+00 -2.223240427257e+02 0.0 
0.0 0.0 -9.104418667493e+01 
-1.511294496746e+02 -6.403237617416e-01 0.0 
-6.403237617416e-01 -3.598032984092e+02 0.0 
0.0 0.0 -1.528798244252e+02 
-8.795234952264e+01 -2.265309115184e+01 0.0 
-2.265309115184e+01 -7.746376845664e+01 0.0 
0.0 0.0 -4.990087722819e+01 
-7.133682428186e+01 1.624040388394e+00 0.0 
1.624040388394e+00 -1.389056662626e+02 0.0 
0.0 0.0 -6.267274716333e+01 
-3.113940734022e+01 -9.966809982667e+00 0.0 
-9.966809982667e+00 -1.059999851167e+01 0.0 
0.0 0.0 -1.310277179630e+01 
-9.349182516691e+01 7.122775224766e+00 0.0 
7.122775224766e+00 -2.823896262621e+02 0.0 
0.0 0.0 -1.123644354287e+02 
-1.772942129528e+01 -4.818628923537e+00 0.0 
-4.818628923537e+00 -1.215464833127e+01 0.0 
0.0 0.0 -7.950168529396e+00 
-4.487753784137e+01 -2.351957479210e+01 0.0 
-2.351957479210e+01 -3.566914664873e+01 0.0 
0.0 0.0 -2.415126572105e+01 
-8.974819144764e+01 4.313041587776e+00 0.0 
4.313041587776e+00 -2.734996757923e+02 0.0 
0.0 0.0 -1.085743601720e+02 
-1.457817584318e+02 3.763440409547e-01 0.0 
3.763440409547e-01 -3.505377971547e+02 0.0 
0.0 0.0 -1.484958666759e+02 
-5.674201936094e+01 1.222614989356e+00 0.0 
1.222614989356e+00 -9.450445681068e+01 0.0 
0.0 0.0 -4.497394285149e+01 
-5.657644528742e+01 3.051099015512e+01 0.0 
3.051099015512e+01 -1.060674276939e+02 0.0 
0.0 0.0 -4.839316189440e+01 
-4.261622412231e+00 -3.000730438364e-01 0.0 
-3.000730438364e-01 -2.572153181613e+01 0.0 
0.0 0.0 -8.709776544297e+00 
-1.103856461370e+02 -1.471482502482e-01 0.0 
-1.471482502482e-01 -2.778313006133e+02 0.0 
0.0 0.0 -1.160650840251e+02 
-9.006863586532e+01 3.477846538278e+00 0.0 
3.477846538278e+00 -2.114934836857e+02 0.0 
0.0 0.0 -9.006863586532e+01 
-9.452479863422e+01 4.585536379925e+00 0.0 
4.585536379925e+00 -2.141490463992e+02 0.0 
0.0 0.0 -9.220215351001e+01 
-3.172328216951e+01 5.922173460612e-01 0.0 
5.922173460612e-01 -2.852188655096e+01 0.0 
0.0 0.0 -1.767355061614e+01 
-9.755935671915e+01 9.963381389900e+00 0.0 
9.963381389900e+00 -2.905775261908e+02 0.0 
0.0 0.0 -1.160410648730e+02 
-9.146376184533e+01 9.278278943609e+00 0.0 
9.278278943609e+00 -2.147487776391e+02 0.0 
0.0 0.0 -9.146376184533e+01 
-9.858111922967e+01 2.838071194335e+01 0.0 
2.838071194335e+01 -2.656106685337e+02 0.0 
0.0 0.0 -1.088575363290e+02 
-1.073140809883e+01 -5.571697977111e-01 0.0 
-5.571697977111e-01 -4.158660547336e+01 0.0 
0.0 0.0 -1.529540407166e+01 
-4.268301078673e+00 -3.183363066282e-01 0.0 
-3.183363066282e-01 -2.545832938493e+01 0.0 
0.0 0.0 -7.909215732546e+00 
-3.671881487292e+00 -1.925630139629e-02 0.0 
-1.925630139629e-02 -2.518203616204e+01 0.0 
0.0 0.0 -8.256175294800e+00 
-6.849536011386e+01 -1.116325508715e+00 0.0 
-1.116325508715e+00 -1.711200120999e+02 0.0 
0.0 0.0 -7.148461166413e+01 
-1.654721284971e+02 1.834858183747e+00 0.0 
1.834858183747e+00 -3.903550404607e+02 0.0 
0.0 0.0 -1.663481506873e+02 
-8.688798307595e+01 1.154507126202e+00 0.0 
1.154507126202e+00 -1.908147398406e+02 0.0 
0.0 0.0 -8.291081687497e+01 
9.997405176494e-01 -5.148266828640e-02 0.0 
-5.148266828640e-02 -9.214433188192e+00 0.0 
0.0 0.0 -1.573409739999e+00 
-8.087592961022e+01 4.075353683259e-01 0.0 
4.075353683259e-01 -2.018452203769e+02 0.0 
0.0 0.0 -8.441634499614e+01 
-1.674424273170e+02 1.110374266896e+00 0.0 
1.110374266896e+00 -3.920323304064e+02 0.0 
0.0 0.0 -1.674424273170e+02 
-1.649121791452e+02 1.679570683125e+00 0.0 
1.679570683125e+00 -3.899625713599e+02 0.0 
0.0 0.0 -1.660624251515e+02 
-1.619366377486e+02 9.377826922960e+00 0.0 
9.377826922960e+00 -3.887332792018e+02 0.0 
0.0 0.0 -1.648009750851e+02 
-6.432382894064e+01 -4.345978718791e-01 0.0 
-4.345978718791e-01 -1.188213157973e+02 0.0 
0.0 0.0 -5.454354342137e+01 
-7.474529566374e+01 9.886178069872e-01 0.0 
9.886178069872e-01 -1.494415764912e+02 0.0 
0.0 0.0 -6.685606164649e+01 
-1.667154584257e+02 1.613757695815e+00 0.0 
1.613757695815e+00 -3.903360696599e+02 0.0 
0.0 0.0 -1.667154584257e+02 
-1.671437954343e+02 2.264134689510e+00 0.0 
2.264134689510e+00 -3.913355226801e+02 0.0 
0.0 0.0 -1.671437954343e+02 
-7.125855392344e+01 -1.152898214359e-01 0.0 
-1.152898214359e-01 -1.389597946246e+02 0.0 
0.0 0.0 -6.266550456442e+01 
9.863604432864e-01 -3.249569059925e-01 0.0 
-3.249569059925e-01 -6.741966470712e+00 0.0 
0.0 0.0 -6.184825686564e-01 
-2.999640107891e+01 1.134386990863e-02 0.0 
1.134386990863e-02 -2.773513640420e+01 0.0 
0.0 0.0 -1.691946124493e+01 
-3.107127786329e+01 1.638398178097e-01 0.0 
1.638398178097e-01 -2.855480015802e+01 0.0 
0.0 0.0 -1.748782340639e+01 
9.960128903565e-01 -2.020980319582e-01 0.0 
-2.020980319582e-01 -9.243915561305e+00 0.0 
0.0 0.0 -1.779917935106e+00 
-1.676164449434e+02 4.616784513321e+00 0.0 
4.616784513321e+00 -3.924383715346e+02 0.0 
0.0 0.0 -1.676164449434e+02 
-1.623304494139e+02 7.620196203866e+00 0.0 
7.620196203866e+00 -3.890270168331e+02 0.0 
0.0 0.0 -1.650072398741e+02 
-1.669729489881e+02 6.934725842606e+00 0.0 
6.934725842606e+00 -3.909368809721e+02 0.0 
0.0 0.0 -1.669729489881e+02 
6.453829884361e-01 -1.438187087552e-01 0.0 
-1.438187087552e-01 -7.806792435883e+00 0.0 
0.0 0.0 -9.546022598700e-01 
1.514225466634e-01 -3.110128856222e-01 0.0 
-3.110128856222e-01 -7.851895132200e+00 0.0 
0.0 0.0 -1.096402813206e+00 
-1.668280729334e+02 1.006479196739e+01 0.0 
1.006479196739e+01 -3.905988368446e+02 0.0 
0.0 0.0 -1.668280729334e+02 
-1.670606976454e+02 8.477168553928e+00 0.0 
8.477168553928e+00 -3.911416278393e+02 0.0 
0.0 0.0 -1.670606976454e+02 
-6.064875439307e+01 9.845894033465e-01 0.0 
9.845894033465e-01 -1.087690867970e+02 0.0 
0.0 0.0 -5.042535235701e+01 
-2.949213956821e+01 -9.641750260063e-02 0.0 
-9.641750260063e-02 -2.740693526570e+01 0.0 
0.0 0.0 -1.666972245018e+01 
-6.806310156091e+01 1.005364130498e+00 0.0 
1.005364130498e+00 -1.290198602597e+02 0.0 
0.0 0.0 -5.872488854618e+01 
-4.575424787210e+01 8.883273703954e-01 0.0 
8.883273703954e-01 -6.893992987452e+01 0.0 
0.0 0.0 -3.400825332399e+01 
-2.984443931342e+01 -5.696003633790e-02 0.0 
-5.696003633790e-02 -2.757523850686e+01 0.0 
0.0 0.0 -1.682590334608e+01 
-2.355276651353e+00 -4.275942474068e-01 0.0 
-4.275942474068e-01 -7.266659852352e+00 0.0 
0.0 0.0 -1.737215315369e+00 
-3.711728596691e+00 -8.197730779194e-03 0.0 
-8.197730779194e-03 -7.902029509447e+00 0.0 
0.0 0.0 -2.169598019441e+00 
-4.431266719014e+00 -2.212093471928e-01 0.0 
-2.212093471928e-01 -7.751454599521e+00 0.0 
0.0 0.0 -2.452934426336e+00 
-5.836764274311e+00 -4.962609276045e-01 0.0 
-4.962609276045e-01 -7.687164805352e+00 0.0 
0.0 0.0 -1.979275455628e+00 
-8.497214081040e+01 -1.209376621053e+00 0.0 
-1.209376621053e+00 -2.121221356819e+02 0.0 
0.0 0.0 -8.872828294770e+01 
-7.675370157284e+01 -1.126782727949e+00 0.0 
-1.126782727949e+00 -1.915418942009e+02 0.0 
0.0 0.0 -8.008867873214e+01 
-3.021006646455e+00 -5.086422939410e-01 0.0 
-5.086422939410e-01 -9.317499649313e+00 0.0 
0.0 0.0 -4.278579359666e+00 
-1.103357143835e+02 -1.029475173266e+00 0.0 
-1.029475173266e+00 -2.716560486215e+02 0.0 
0.0 0.0 -1.141975289015e+02 
-5.010079815764e+00 -8.414923000695e-01 0.0 
-8.414923000695e-01 -9.376124300742e+00 0.0 
0.0 0.0 -4.887700407725e+00 
-9.565360960808e+01 2.014161029609e+01 0.0 
2.014161029609e+01 -2.245250890855e+02 0.0 
0.0 0.0 -9.565360960808e+01 
-9.081391326352e+01 7.646118233117e+00 0.0 
7.646118233117e+00 -2.132324642816e+02 0.0 
0.0 0.0 -9.081391326352e+01 
-9.240123850467e+01 1.341997542819e+01 0.0 
1.341997542819e+01 -2.169362231776e+02 0.0 
0.0 0.0 -9.240123850467e+01 
-2.459005787927e+01 -1.283458973130e+00 0.0 
-1.283458973130e+00 -6.922331014412e+01 0.0 
0.0 0.0 -2.774401040702e+01 
-5.172319972559e+01 -1.178194962606e+00 0.0 
-1.178194962606e+00 -1.303179953823e+02 0.0 
0.0 0.0 -5.421235853235e+01 
-9.035099391525e+01 6.053211993436e+00 0.0 
6.053211993436e+00 -2.121523191356e+02 0.0 
0.0 0.0 -9.035099391525e+01 
-1.374725721717e+02 -7.869894243328e-01 0.0 
-7.869894243328e-01 -3.311748554611e+02 0.0 
0.0 0.0 -1.401942282898e+02 
-9.113571905598e+01 4.823476350092e+00 0.0 
4.823476350092e+00 -2.139833444640e+02 0.0 
0.0 0.0 -9.113571905598e+01 
-1.467548820831e+02 -8.016591745997e-01 0.0 
-8.016591745997e-01 -3.507092484856e+02 0.0 
0.0 0.0 -1.488392391706e+02 
-1.562337199104e+02 -8.708482341068e-01 0.0 
-8.708482341068e-01 -3.701593404959e+02 0.0 
0.0 0.0 -1.575179181219e+02 
-7.262836691041e+01 4.408955858991e-01 0.0 
4.408955858991e-01 -1.813377893841e+02 0.0 
0.0 0.0 -7.578984688835e+01 
-9.548428273647e+01 7.085683069642e+00 0.0 
7.085683069642e+00 -2.147733034199e+02 0.0 
0.0 0.0 -9.267727584691e+01 
-9.443917999809e+01 5.126768262267e+00 0.0 
5.126768262267e+00 -2.144703872971e+02 0.0 
0.0 0.0 -9.227287018856e+01 
-1.417750728101e+02 1.051945022152e+00 0.0 
1.051945022152e+00 -3.400555265740e+02 0.0 
0.0 0.0 -1.441491798152e+02 
-1.513346117644e+02 1.108251822543e+00 0.0 
1.108251822543e+00 -3.600325334431e+02 0.0 
0.0 0.0 -1.530101435623e+02 
-1.191047350042e+02 5.451975594543e-01 0.0 
5.451975594543e-01 -2.935372378264e+02 0.0 
0.0 0.0 -1.233925918492e+02 
-2.131998125827e+01 -3.573884461138e+00 0.0 
-3.573884461138e+00 -9.407973709537e+00 0.0 
0.0 0.0 -9.794862673223e+00 
-7.330372678458e+01 -3.070815622612e+00 0.0 
-3.070815622612e+00 -1.868362024651e+02 0.0 
0.0 0.0 -7.764197877490e+01 
-5.538349442778e+00 -5.483474380402e-01 0.0 
-5.483474380402e-01 -2.509513968821e+01 0.0 
0.0 0.0 -8.276545499792e+00 
-1.422374142060e+02 4.164215136321e+00 0.0 
4.164215136321e+00 -3.489216214363e+02 0.0 
0.0 0.0 -1.469477106927e+02 
-7.587849003075e+01 -5.547611994730e+00 0.0 
-5.547611994730e+00 -1.980126300035e+02 0.0 
0.0 0.0 -8.176733601029e+01 
-1.316384095169e+02 1.527933199967e-02 0.0 
1.527933199967e-02 -3.233311831569e+02 0.0 
0.0 0.0 -1.360908778022e+02 
-4.070371507083e+01 -6.385038738783e+00 0.0 
-6.385038738783e+00 -1.002195208135e+02 0.0 
0.0 0.0 -4.187697076530e+01 
-1.535940955155e+01 -2.450503280903e+00 0.0 
-2.450503280903e+00 -4.162061745199e+01 0.0 
0.0 0.0 -1.669400810106e+01 
-1.419500705755e+02 2.036541941730e+00 0.0 
2.036541941730e+00 -3.429886734235e+02 0.0 
0.0 0.0 -1.450816231997e+02 
-8.170885572842e+01 -2.550445737831e+00 0.0 
-2.550445737831e+00 -2.071481297119e+02 0.0 
0.0 0.0 -8.625709563209e+01 
-6.407140682854e+01 -1.864439532838e+00 0.0 
-1.864439532838e+00 -1.610729377635e+02 0.0 
0.0 0.0 -6.714330337762e+01 
-1.327710655105e+02 1.535459831068e+00 0.0 
1.535459831068e+00 -3.241564422957e+02 0.0 
0.0 0.0 -1.366782523418e+02 
-7.991792194810e+01 1.638664502148e+00 0.0 
1.638664502148e+00 -1.675919274195e+02 0.0 
0.0 0.0 -7.385295481027e+01 
-6.439871461368e+01 4.371725431190e-01 0.0 
4.371725431190e-01 -1.611509743759e+02 0.0 
0.0 0.0 -6.726490669688e+01 
-1.149861951125e+02 5.775592689755e+00 0.0 
5.775592689755e+00 -3.100824145494e+02 0.0 
0.0 0.0 -1.271205828986e+02 
-1.023044123783e+02 -1.885379362705e+00 0.0 
-1.885379362705e+00 -2.728536467291e+02 0.0 
0.0 0.0 -1.121474177322e+02 
-1.178263847360e+02 -1.149320876705e+00 0.0 
-1.149320876705e+00 -2.926214465289e+02 0.0 
0.0 0.0 -1.227343493795e+02 
-1.223934995185e+02 -8.638535055964e-01 0.0 
-8.638535055964e-01 -3.010683884232e+02 0.0 
0.0 0.0 -1.266385663825e+02 
-4.409840380036e+01 1.223622967352e+01 0.0 
1.223622967352e+01 -1.811614342199e+02 0.0 
0.0 0.0 -6.717795140607e+01 
-5.036444018665e+01 2.972358255718e+01 0.0 
2.972358255718e+01 -8.651844212747e+01 0.0 
0.0 0.0 -4.066486469423e+01 
-5.809579352742e+01 2.642612104312e+01 0.0 
2.642612104312e+01 -1.764548894086e+02 0.0 
0.0 0.0 -6.996520488081e+01 
-1.084708189496e+02 -1.816507482095e+00 0.0 
-1.816507482095e+00 -2.766515141939e+02 0.0 
0.0 0.0 -1.151366999430e+02 
-1.371715907065e+02 1.566012706236e+00 0.0 
1.566012706236e+00 -3.322449357246e+02 0.0 
0.0 0.0 -1.404249579293e+02 
-1.269122824937e+02 -7.722947094681e-01 0.0 
-7.722947094681e-01 -3.097763619066e+02 0.0 
0.0 0.0 -1.306065933201e+02 
-4.353315107631e+01 -1.241936337119e+01 0.0 
-1.241936337119e+01 -1.072882225104e+02 0.0 
0.0 0.0 -4.484641207600e+01 
-8.066011090148e+01 3.479610817005e+00 0.0 
3.479610817005e+00 -1.666940462132e+02 0.0 
0.0 0.0 -7.380624713441e+01 
-7.405384507893e+01 2.733514927908e+00 0.0 
2.733514927908e+00 -1.457578775647e+02 0.0 
0.0 0.0 -6.554351679310e+01 
-4.102820527291e+01 -4.165312432262e-01 0.0 
-4.165312432262e-01 -5.407212579458e+01 0.0 
0.0 0.0 -2.813009932025e+01 
-1.125433466866e+02 -1.170365775183e+00 0.0 
-1.170365775183e+00 -2.882378663684e+02 0.0 
0.0 0.0 -1.198343639165e+02 
-1.132054356308e+02 -1.437806080192e+00 0.0 
-1.437806080192e+00 -2.845997553217e+02 0.0 
0.0 0.0 -1.189415572858e+02 
-8.145070156604e+01 3.621294357296e+00 0.0 
3.621294357296e+00 -1.690289503281e+02 0.0 
0.0 0.0 -7.474389556824e+01 
-7.732068033844e+01 2.419342279755e+00 0.0 
2.419342279755e+00 -1.569334404412e+02 0.0 
0.0 0.0 -6.987623623388e+01 
-1.002897662693e+02 -9.455538108844e-01 0.0 
-9.455538108844e-01 -2.669888764487e+02 0.0 
0.0 0.0 -1.097835928154e+02 
-1.464101512682e+02 1.861515730967e+00 0.0 
1.861515730967e+00 -3.509969875220e+02 0.0 
0.0 0.0 -1.488221416371e+02 
-7.614271116284e+01 6.368429854844e+00 0.0 
6.368429854844e+00 -1.429239432558e+02 0.0 
0.0 0.0 -6.531999632558e+01 
-1.275030323301e+02 8.674593756857e-01 0.0 
8.674593756857e-01 -3.100273361154e+02 0.0 
0.0 0.0 -1.308591105337e+02 
-1.476003126509e+02 3.988094256449e+00 0.0 
3.988094256449e+00 -3.575934307583e+02 0.0 
0.0 0.0 -1.511581230228e+02 
-8.231884670346e+01 5.609510314297e+00 0.0 
5.609510314297e+00 -1.679010089345e+02 0.0 
0.0 0.0 -7.466595669138e+01 
-6.654402302573e+01 4.000559069853e+00 0.0 
4.000559069853e+00 -1.154676957900e+02 0.0 
0.0 0.0 -5.420351564472e+01 
-1.111151531445e+02 3.688576726271e+00 0.0 
3.688576726271e+00 -3.000550593848e+02 0.0 
0.0 0.0 -1.229510637588e+02 
-3.981807465845e+01 -3.739212305265e+00 0.0 
-3.739212305265e+00 -1.008519075331e+02 0.0 
0.0 0.0 -4.180099465745e+01 
-4.194405721826e+01 -1.423569779093e+01 0.0 
-1.423569779093e+01 -1.012010566206e+02 0.0 
0.0 0.0 -4.254353415165e+01 
-2.088309393916e+01 -3.242689467027e+00 0.0 
-3.242689467027e+00 -4.862829119847e+01 0.0 
0.0 0.0 -2.045341554129e+01 
-3.169466707085e+01 -1.264075798543e+01 0.0 
-1.264075798543e+01 -3.394184629186e+01 0.0 
0.0 0.0 -1.836453239317e+01 
-7.878318662940e+01 4.244174429311e+00 0.0 
4.244174429311e+00 -1.578112422446e+02 0.0 
0.0 0.0 -7.057832866219e+01 
-1.409083163335e+02 -1.169468707149e-01 0.0 
-1.169468707149e-01 -3.396777803379e+02 0.0 
0.0 0.0 -1.437758290014e+02 
-2.036247704221e+01 -7.060835544655e+00 0.0 
-7.060835544655e+00 -2.850515056187e+01 0.0 
0.0 0.0 -1.353554275547e+01 
-1.017978990639e+02 3.025327494941e+01 0.0 
3.025327494941e+01 -2.041253086574e+02 0.0 
0.0 0.0 -9.137696231641e+01 
-4.549950538227e+01 3.560237093346e-02 0.0 
3.560237093346e-02 -6.302080457933e+01 0.0 
0.0 0.0 -3.215609298848e+01 
-1.283390606046e+02 1.503918103041e+00 0.0 
1.503918103041e+00 -3.163744190693e+02 0.0 
0.0 0.0 -1.330140439022e+02 
-1.314790639465e+02 -4.615301146403e-01 0.0 
-4.615301146403e-01 -3.203440429348e+02 0.0 
0.0 0.0 -1.351469320644e+02 
-5.173061446127e+01 -1.273958627497e+01 0.0 
-1.273958627497e+01 -1.562683425860e+02 0.0 
0.0 0.0 -6.199968711417e+01 
-1.322404365004e+02 1.166003515342e+00 0.0 
1.166003515342e+00 -3.210022001899e+02 0.0 
0.0 0.0 -1.355727910071e+02 
-4.206816878410e+01 1.716627054302e+00 0.0 
1.716627054302e+00 -5.445005680109e+01 0.0 
0.0 0.0 -2.855546767556e+01 
-9.660036478639e+01 1.880381977259e+01 0.0 
1.880381977259e+01 -2.826711055647e+02 0.0 
0.0 0.0 -1.133814411053e+02 
-1.520000291268e+02 2.019222612595e+00 0.0 
2.019222612595e+00 -3.653358082514e+02 0.0 
0.0 0.0 -1.548007512135e+02 
-3.760797473681e+01 -2.158208991984e+00 0.0 
-2.158208991984e+00 -9.710038961483e+01 0.0 
0.0 0.0 -4.001250930549e+01 
-1.470306924900e+02 5.294017725397e+00 0.0 
5.294017725397e+00 -3.596122266940e+02 0.0 
0.0 0.0 -1.515928757552e+02 
-6.953621265588e+01 3.754075752404e+00 0.0 
3.754075752404e+00 -1.265080876177e+02 0.0 
0.0 0.0 -5.841329008207e+01 
-4.312981323404e+01 -3.179039991772e+00 0.0 
-3.179039991772e+00 -1.093896815105e+02 0.0 
0.0 0.0 -4.535584842336e+01 
-4.824613539261e+01 -1.194525338035e+01 0.0 
-1.194525338035e+01 -1.235343063693e+02 0.0 
0.0 0.0 -5.113413252859e+01 
-9.224760620952e+01 -2.231961153494e+00 0.0 
-2.231961153494e+00 -2.310602541778e+02 0.0 
0.0 0.0 -9.659235811619e+01 
-5.772534793300e+01 1.909826467534e+00 0.0 
1.909826467534e+00 -9.238757877385e+01 0.0 
0.0 0.0 -4.463387801205e+01 
-6.106158693449e+01 -6.761657638030e+00 0.0 
-6.761657638030e+00 -1.572818830967e+02 0.0 
0.0 0.0 -6.510304100935e+01 
-7.244045950397e+01 3.556075351400e+00 0.0 
3.556075351400e+00 -1.374451944992e+02 0.0 
0.0 0.0 -6.256569620095e+01 
-6.217627485961e+01 3.071725259939e+00 0.0 
3.071725259939e+00 -1.056565438862e+02 0.0 
0.0 0.0 -4.994984562375e+01 
-8.794735380307e+01 -3.819712425190e+00 0.0 
-3.819712425190e+00 -2.260207616686e+02 0.0 
0.0 0.0 -9.379043464150e+01 
-1.231655780729e+02 7.572662687512e-01 0.0 
7.572662687512e-01 -3.015635119876e+02 0.0 
0.0 0.0 -1.270187270181e+02 
-1.280102294058e+02 1.106512863743e+00 0.0 
1.106512863743e+00 -3.129642112317e+02 0.0 
0.0 0.0 -1.318923321913e+02 
-6.732477210420e+01 1.855304006419e+00 0.0 
1.855304006419e+00 -1.251830700236e+02 0.0 
0.0 0.0 -5.735235263834e+01 
-3.288091098428e+01 -2.566817483556e+00 0.0 
-2.566817483556e+00 -8.432300991328e+01 0.0 
0.0 0.0 -3.476117626927e+01 
-8.410488815513e+01 -3.681077176078e+00 0.0 
-3.681077176078e+00 -2.142447731076e+02 0.0 
0.0 0.0 -8.910489837880e+01 
-1.146757296276e+02 2.463252682379e+01 0.0 
2.463252682379e+01 -3.086125564429e+02 0.0 
0.0 0.0 -1.265864858212e+02 
-7.354171881565e+01 5.013653938582e+00 0.0 
5.013653938582e+00 -1.359612000285e+02 0.0 
0.0 0.0 -6.245087565323e+01 
-7.600282016376e+01 -4.362819429029e+00 0.0 
-4.362819429029e+00 -1.937431252768e+02 0.0 
0.0 0.0 -8.052378363215e+01 
-1.051993436223e+02 -4.510036373595e-01 0.0 
-4.510036373595e-01 -2.744086407667e+02 0.0 
0.0 0.0 -1.134823953167e+02 
-1.421420867029e+02 5.920914847196e+00 0.0 
5.920914847196e+00 -3.520566359619e+02 0.0 
0.0 0.0 -1.478596167995e+02 
-6.446836987094e+01 2.125078124025e+00 0.0 
2.125078124025e+00 -1.142710131133e+02 0.0 
0.0 0.0 -5.322181489526e+01 
-3.219522425627e+01 -8.558699737318e+00 0.0 
-8.558699737318e+00 -1.209355232529e+02 0.0 
0.0 0.0 -4.805057914171e+01 
-1.752575330673e+01 -1.819396023316e+00 0.0 
-1.819396023316e+00 -4.679501903148e+01 0.0 
0.0 0.0 -1.889623170146e+01 
-2.818964899897e+01 3.788549162643e+00 0.0 
3.788549162643e+00 -1.382166921322e+02 0.0 
0.0 0.0 -4.922224210479e+01 
-1.363013845360e+02 -4.288865943817e-02 0.0 
-4.288865943817e-02 -3.315281378264e+02 0.0 
0.0 0.0 -1.399488567087e+02 
-6.106379137035e+01 2.091690707260e+00 0.0 
2.091690707260e+00 -1.032897186510e+02 0.0 
0.0 0.0 -4.890605300641e+01 
-1.016240189793e+02 1.620008460442e-01 0.0 
1.620008460442e-01 -2.516269478544e+02 0.0 
0.0 0.0 -1.055752900501e+02 
-4.987296820711e+01 8.080683329829e-01 0.0 
8.080683329829e-01 -7.249775053801e+01 0.0 
0.0 0.0 -3.631121562354e+01 
-1.297402494823e+02 9.654784233540e+00 0.0 
9.654784233540e+00 -3.374199864388e+02 0.0 
0.0 0.0 -1.397480707763e+02 
-9.220893482426e+01 -3.052291639004e+00 0.0 
-3.052291639004e+00 -2.341667223521e+02 0.0 
0.0 0.0 -9.751269715291e+01 
-1.269939391130e+02 -5.294564966702e-01 0.0 
-5.294564966702e-01 -3.121746831530e+02 0.0 
0.0 0.0 -1.313505866798e+02 
-3.939849323123e+01 -1.487850875667e+00 0.0 
-1.487850875667e+00 -1.011963676863e+02 0.0 
0.0 0.0 -4.177845827527e+01 
-1.464798436788e+02 2.385272412676e+00 0.0 
2.385272412676e+00 -3.572087591912e+02 0.0 
0.0 0.0 -1.507065808610e+02 
-8.967756537076e+01 -1.890540936705e+00 0.0 
-1.890540936705e+00 -2.271887854501e+02 0.0 
0.0 0.0 -9.465990524624e+01 
-4.281813446237e+01 -8.426442323002e-01 0.0 
-8.426442323002e-01 -1.097779633752e+02 0.0 
0.0 0.0 -4.537882935128e+01 
-8.544627149087e+01 -1.596117685660e+00 0.0 
-1.596117685660e+00 -2.153004237162e+02 0.0 
0.0 0.0 -8.982400856212e+01 
-6.463269228500e+01 -5.641353635250e+00 0.0 
-5.641353635250e+00 -1.654195915224e+02 0.0 
0.0 0.0 -6.861568514221e+01 
-5.119965365158e+01 -5.756667306001e+00 0.0 
-5.756667306001e+00 -1.294312384350e+02 0.0 
0.0 0.0 -5.378926762597e+01 
-1.005103377405e+02 -1.808494743993e+00 0.0 
-1.808494743993e+00 -2.506115406356e+02 0.0 
0.0 0.0 -1.049365635128e+02 
-1.203743515665e+00 -9.017063470729e-02 0.0 
-9.017063470729e-02 -9.581805128911e+00 0.0 
0.0 0.0 -2.904145494997e+00 
-2.337802436271e+00 -5.339118071391e-01 0.0 
-5.339118071391e-01 -9.711066460187e+00 0.0 
0.0 0.0 -3.561716958693e+00 
-1.147576235310e+02 2.488516228097e-01 0.0 
2.488516228097e-01 -2.856284834623e+02 0.0 
0.0 0.0 -1.197158320980e+02 
-3.609558554868e+01 -2.065781303982e+00 0.0 
-2.065781303982e+00 -9.288385205520e+01 0.0 
0.0 0.0 -3.829383128116e+01 
-1.146685763995e+02 3.994075816174e-01 0.0 
3.994075816174e-01 -2.894837656202e+02 0.0 
0.0 0.0 -1.208457026059e+02 
-1.099978719889e+02 -1.016504099399e-03 0.0 
-1.016504099399e-03 -2.819160993554e+02 0.0 
0.0 0.0 -1.171741914033e+02 
-6.770201663512e+01 -7.779146783859e+00 0.0 
-7.779146783859e+00 -1.822860974114e+02 0.0 
0.0 0.0 -7.459643421397e+01 
-4.305476507627e+01 -1.605738508927e+01 0.0 
-1.605738508927e+01 -1.314583444221e+02 0.0 
0.0 0.0 -5.195393284950e+01 
-8.160801322377e+01 8.200620951708e+00 0.0 
8.200620951708e+00 -1.555869787556e+02 0.0 
0.0 0.0 -7.075849759380e+01 
-3.150906934631e+01 2.724783819612e+01 0.0 
2.724783819612e+01 -9.545733341999e+01 0.0 
0.0 0.0 -3.941341845636e+01 
-6.830361279781e+01 -4.591234128073e+00 0.0 
-4.591234128073e+00 -1.739541566747e+02 0.0 
0.0 0.0 -7.227733084175e+01 
-1.345119261442e+02 1.203269561248e+01 0.0 
1.203269561248e+01 -3.458526113350e+02 0.0 
0.0 0.0 -1.437093612437e+02 
-3.108348410646e+01 -3.285268088284e+00 0.0 
-3.285268088284e+00 -8.000380406761e+01 0.0 
0.0 0.0 -3.292618645222e+01 
-5.554591409564e+01 2.868589151368e+00 0.0 
2.868589151368e+00 -8.445078064336e+01 0.0 
0.0 0.0 -4.159900842170e+01 
-4.711167159028e+01 2.021612395659e+00 0.0 
2.021612395659e+00 -6.408596796394e+01 0.0 
0.0 0.0 -3.295929186626e+01 
-3.271118930160e+01 -5.204956269716e+00 0.0 
-5.204956269716e+00 -7.895138427648e+01 0.0 
0.0 0.0 -3.309877207342e+01 
-1.366370767485e+02 6.412846383552e+00 0.0 
6.412846383552e+00 -3.441889366251e+02 0.0 
0.0 0.0 -1.438478040121e+02 
-7.291405204078e+01 6.924347280798e+00 0.0 
6.924347280798e+00 -1.240156288365e+02 0.0 
0.0 0.0 -5.867890426318e+01 
-3.680934485864e+01 -4.277264644085e+00 0.0 
-4.277264644085e+00 -9.254602274097e+01 0.0 
0.0 0.0 -3.840661027988e+01 
-8.546958691771e+01 1.001917669007e+01 0.0 
1.001917669007e+01 -1.654706297026e+02 0.0 
0.0 0.0 -7.488206498610e+01 
-8.179192016586e+01 8.087295147242e+00 0.0 
8.087295147242e+00 -1.634809714490e+02 0.0 
0.0 0.0 -7.318186748446e+01 
-4.123798494493e+01 -3.083035765683e+00 0.0 
-3.083035765683e+00 -1.043673389622e+02 0.0 
0.0 0.0 -4.328159717215e+01 
-4.058678298523e+01 2.865523094698e+01 0.0 
2.865523094698e+01 -8.439376613047e+01 0.0 
0.0 0.0 -3.709416473471e+01 
-4.343496869001e+01 -5.377125861941e+00 0.0 
-5.377125861941e+00 -1.083975585516e+02 0.0 
0.0 0.0 -4.514975817249e+01 
-1.237407730588e+02 9.459897696953e-01 0.0 
9.459897696953e-01 -3.050051501382e+02 0.0 
0.0 0.0 -1.282237769591e+02 
-9.640555995017e+01 -2.386181743717e+00 0.0 
-2.386181743717e+00 -2.424319543104e+02 0.0 
0.0 0.0 -1.012512542782e+02 
-9.578671940954e+01 2.410720521685e+01 0.0 
2.410720521685e+01 -1.913340262615e+02 0.0 
0.0 0.0 -8.573622370130e+01 
-7.848482215893e+01 6.059521797391e+00 0.0 
6.059521797391e+00 -1.538976628476e+02 0.0 
0.0 0.0 -6.931474550195e+01 
-1.192464989979e+02 7.110384176677e-01 0.0 
7.110384176677e-01 -2.971877200456e+02 0.0 
0.0 0.0 -1.245302657130e+02 
-1.174877885668e+02 -8.866569158118e-01 0.0 
-8.866569158118e-01 -2.960921160065e+02 0.0 
0.0 0.0 -1.236739713720e+02 
-3.685652316270e+01 -7.086266033232e+00 0.0 
-7.086266033232e+00 -8.748299474213e+01 0.0 
0.0 0.0 -3.690185537145e+01 
-1.223064628254e+02 -6.786793074049e-01 0.0 
-6.786793074049e-01 -3.040411725612e+02 0.0 
0.0 0.0 -1.275042906160e+02 
-6.952249668261e+01 4.725092516104e+00 0.0 
4.725092516104e+00 -1.222041548800e+02 0.0 
0.0 0.0 -5.711799546879e+01 
-9.759535836631e+01 -4.872446174692e-01 0.0 
-4.872446174692e-01 -2.433573483207e+02 0.0 
0.0 0.0 -1.018858120061e+02 
-6.352520750145e+01 4.008447544949e+00 0.0 
4.008447544949e+00 -1.046568887269e+02 0.0 
0.0 0.0 -5.005462886852e+01 
-7.529039027670e+01 6.761824986331e+00 0.0 
6.761824986331e+00 -1.347825112718e+02 0.0 
0.0 0.0 -6.262187046454e+01 
-6.066186139562e+01 1.565322610819e+01 0.0 
1.565322610819e+01 -2.155117033838e+02 0.0 
0.0 0.0 -8.245206943382e+01 
-7.477471903329e+01 4.460351713538e+00 0.0 
4.460351713538e+00 -1.440973027481e+02 0.0 
0.0 0.0 -6.526160653441e+01 
-8.035813479460e+01 -3.465392589738e+00 0.0 
-3.465392589738e+00 -2.034709566368e+02 0.0 
0.0 0.0 -8.474872742942e+01 
-9.360142531142e+01 -1.107218920299e+00 0.0 
-1.107218920299e+00 -2.351945048547e+02 0.0 
0.0 0.0 -9.823877904982e+01 
-6.066443999450e+01 -5.085091430697e+00 0.0 
-5.085091430697e+00 -1.537031669341e+02 0.0 
0.0 0.0 -6.391028207858e+01 
-6.288954367662e+01 -8.597172989308e+00 0.0 
-8.597172989308e+00 -1.696520748259e+02 0.0 
0.0 0.0 -6.936248555077e+01 
-6.524226196032e+01 3.248370503308e+00 0.0 
3.248370503308e+00 -1.125990684147e+02 0.0 
0.0 0.0 -5.295239911250e+01 
-8.228101141833e+01 -3.929007620334e+00 0.0 
-3.929007620334e+00 -2.337737810080e+02 0.0 
0.0 0.0 -9.441643772791e+01 
-4.639010342362e+01 -4.395575170380e+00 0.0 
-4.395575170380e+00 -1.167078607441e+02 0.0 
0.0 0.0 -4.852938925031e+01 
-2.388234058658e+01 -3.549318381821e+00 0.0 
-3.549318381821e+00 -5.797255614962e+01 0.0 
0.0 0.0 -2.415646902086e+01 
-6.822276580342e+01 5.305047045588e+00 0.0 
5.305047045588e+00 -1.142115331146e+02 0.0 
0.0 0.0 -5.433028967540e+01 
-4.663097146532e+01 -6.847116702315e+00 0.0 
-6.847116702315e+00 -1.162659373259e+02 0.0 
0.0 0.0 -4.846907263736e+01 
-1.462681684399e+02 4.111663139847e+00 0.0 
4.111663139847e+00 -3.591175710706e+02 0.0 
0.0 0.0 -1.512157218532e+02 
-6.823956826036e+01 3.246715303995e+00 0.0 
3.246715303995e+00 -1.235546821303e+02 0.0 
0.0 0.0 -5.713827511720e+01 
-1.268217734127e+02 -3.342721456694e-02 0.0 
-3.342721456694e-02 -3.153971801905e+02 0.0 
0.0 0.0 -1.322656860810e+02 
-1.514480882552e+02 1.796753914665e+01 0.0 
1.796753914665e+01 -3.678742580074e+02 0.0 
0.0 0.0 -1.553967038788e+02 
-7.727305594646e+01 -2.045953473108e+00 0.0 
-2.045953473108e+00 -1.949731263802e+02 0.0 
0.0 0.0 -8.127385469801e+01 
-4.188073553182e+01 -5.528202036881e+00 0.0 
-5.528202036881e+00 -1.040991622606e+02 0.0 
0.0 0.0 -4.339396933774e+01 
-2.904778125389e+01 -5.844455354858e+00 0.0 
-5.844455354858e+00 -6.680625886818e+01 0.0 
0.0 0.0 -2.835621203662e+01 
-1.189160312622e+02 1.174895154898e+00 0.0 
1.174895154898e+00 -3.009792108827e+02 0.0 
0.0 0.0 -1.255685726435e+02 
-5.707413801820e+01 1.163608134230e+00 0.0 
1.163608134230e+00 -9.423341139401e+01 0.0 
0.0 0.0 -4.499226482366e+01 
-2.033792481270e+01 -4.197116043475e+00 0.0 
-4.197116043475e+00 -4.713115355572e+01 0.0 
0.0 0.0 -1.984072351053e+01 
-6.224179601132e+01 -4.518774148080e+00 0.0 
-4.518774148080e+00 -1.582753339890e+02 0.0 
0.0 0.0 -6.575513900010e+01 
-3.437520912633e+01 -6.874456584230e-01 0.0 
-6.874456584230e-01 -8.996734913474e+01 0.0 
0.0 0.0 -3.690276747832e+01 
-6.045170853932e+01 3.894251429683e+00 0.0 
3.894251429683e+00 -9.387717421001e+01 0.0 
0.0 0.0 -4.589866482480e+01 
-6.592413088718e+01 -3.400608416494e+00 0.0 
-3.400608416494e+00 -1.664579329311e+02 0.0 
0.0 0.0 -6.931461914547e+01 
-1.074870102153e+02 -1.504769908936e+00 0.0 
-1.504769908936e+00 -2.805116954064e+02 0.0 
0.0 0.0 -1.159996116865e+02 
-6.091908248801e+01 -2.592485848789e+00 0.0 
-2.592485848789e+00 -1.541836915905e+02 0.0 
0.0 0.0 -6.413083222355e+01 
-7.615142635315e+01 4.744162183363e+00 0.0 
4.744162183363e+00 -1.470248586423e+02 0.0 
0.0 0.0 -6.655288549865e+01 
-5.386860784018e+01 -7.001431307573e+00 0.0 
-7.001431307573e+00 -1.368477784392e+02 0.0 
0.0 0.0 -5.681491588383e+01 
-1.180579238384e+02 2.074441512248e+00 0.0 
2.074441512248e+00 -3.046364769675e+02 0.0 
0.0 0.0 -1.264083202418e+02 
-4.264118054587e+01 -1.179403891346e+01 0.0 
-1.179403891346e+01 -1.020441314788e+02 0.0 
0.0 0.0 -4.300559360740e+01 
-1.140060420467e+02 9.160843420416e-01 0.0 
9.160843420416e-01 -2.933935909395e+02 0.0 
0.0 0.0 -1.218198898959e+02 
-8.945272264174e+01 -9.981840016164e-01 0.0 
-9.981840016164e-01 -2.239981880312e+02 0.0 
0.0 0.0 -9.363527320189e+01 
-1.218101953327e+02 -1.380734159452e-01 0.0 
-1.380734159452e-01 -3.075091184565e+02 0.0 
0.0 0.0 -1.283957941368e+02 
-4.148946390741e+01 -7.025820207394e-01 0.0 
-7.025820207394e-01 -1.781947961329e+02 0.0 
0.0 0.0 -6.550527801210e+01 
-3.448790545712e+01 -2.946244254775e+00 0.0 
-2.946244254775e+00 -8.919412168701e+01 0.0 
0.0 0.0 -3.670460814324e+01 
-5.109334215528e+01 2.087482065712e+00 0.0 
2.087482065712e+00 -7.518312828451e+01 0.0 
0.0 0.0 -3.748294113194e+01 
-9.666742803671e+01 7.372032106428e+00 0.0 
7.372032106428e+00 -2.837893008500e+02 0.0 
0.0 0.0 -1.137370186660e+02 
-5.340312040253e+01 2.815287309454e+01 0.0 
2.815287309454e+01 -1.423272911550e+02 0.0 
0.0 0.0 -5.831912346727e+01 
-5.894967459255e+01 3.024932166997e+00 0.0 
3.024932166997e+00 -9.512376195231e+01 0.0 
0.0 0.0 -4.582203096346e+01 
-4.603021902889e+01 -1.397630136667e+01 0.0 
-1.397630136667e+01 -1.178593006796e+02 0.0 
0.0 0.0 -4.876685591254e+01 
-6.409844841554e+01 4.643766681385e+00 0.0 
4.643766681385e+00 -1.009158748018e+02 0.0 
0.0 0.0 -4.910429696519e+01 
-3.028629469921e+01 -1.068036283600e+00 0.0 
-1.068036283600e+00 -8.089996961465e+01 0.0 
0.0 0.0 -3.295587929416e+01 
-1.372723236065e+02 4.517376317516e+00 0.0 
4.517376317516e+00 -3.416692906700e+02 0.0 
0.0 0.0 -1.432824842829e+02 
-1.003280863221e+02 1.025586964529e+01 0.0 
1.025586964529e+01 -2.918141929939e+02 0.0 
0.0 0.0 -1.172426837948e+02 
-1.010403762143e+02 2.153830044988e+01 0.0 
2.153830044988e+01 -2.874560863591e+02 0.0 
0.0 0.0 -1.161489387720e+02 
-8.720293026546e+01 9.591826852122e+00 0.0 
9.591826852122e+00 -1.768982986754e+02 0.0 
0.0 0.0 -7.883036868226e+01 
-9.015776229941e+01 -1.920741395365e+00 0.0 
-1.920741395365e+00 -2.524286272137e+02 0.0 
0.0 0.0 -1.023759168539e+02 
-3.390882706291e+01 -4.878191282534e+00 0.0 
-4.878191282534e+00 -8.402972527251e+01 0.0 
0.0 0.0 -3.498156570063e+01 
-1.038194895681e+02 3.027084543885e-01 0.0 
3.027084543885e-01 -2.784167235657e+02 0.0 
0.0 0.0 -1.142708639402e+02 
-1.405718269597e+02 4.684693882285e+00 0.0 
4.684693882285e+00 -3.511171663624e+02 0.0 
0.0 0.0 -1.471066979966e+02 
-5.281714279492e+01 -1.312049152053e+01 0.0 
-1.312049152053e+01 -1.535069094279e+02 0.0 
0.0 0.0 -6.149721566686e+01 
-1.236952639443e+02 1.380004809454e+00 0.0 
1.380004809454e+00 -3.086394240622e+02 0.0 
0.0 0.0 -1.293004064020e+02 
-7.089189553810e+01 5.232763256344e+00 0.0 
5.232763256344e+00 -1.250161201945e+02 0.0 
0.0 0.0 -5.837240471978e+01 
-3.899012334086e+01 -1.720262389475e+01 0.0 
-1.720262389475e+01 -1.276378203957e+02 0.0 
0.0 0.0 -4.958838312098e+01 
-1.089750472466e+02 6.145041151935e-01 0.0 
6.145041151935e-01 -2.858764861093e+02 0.0 
0.0 0.0 -1.180554600068e+02 
-5.363864752581e+01 3.658977926182e+00 0.0 
3.658977926182e+00 -7.233715930434e+01 0.0 
0.0 0.0 -3.739274204904e+01 
-4.800061740718e+01 -1.746374012150e+00 0.0 
-1.746374012150e+00 -1.216014860146e+02 0.0 
0.0 0.0 -5.048063102652e+01 
-5.881606786859e+01 -5.701196865806e+00 0.0 
-5.701196865806e+00 -1.503033700810e+02 0.0 
0.0 0.0 -6.233583138488e+01 
-6.551940891130e+01 2.916319417434e+01 0.0 
2.916319417434e+01 -1.787982472943e+02 0.0 
0.0 0.0 -7.289529686166e+01 
-1.166541025849e+02 -2.924767726265e-01 0.0 
-2.924767726265e-01 -2.996973835993e+02 0.0 
0.0 0.0 -1.245054458553e+02 
-4.827421665065e+01 2.973241202240e+01 0.0 
2.973241202240e+01 -1.056722441606e+02 0.0 
0.0 0.0 -4.578393824337e+01 
-6.176572423745e+01 2.790486237720e+01 0.0 
2.790486237720e+01 -1.776818409785e+02 0.0 
0.0 0.0 -7.143426956477e+01 
-6.685817467147e+01 4.699400596449e+00 0.0 
4.699400596449e+00 -1.114991321480e+02 0.0 
0.0 0.0 -5.310719204585e+01 
-5.341860837215e+01 9.660624580587e-01 0.0 
9.660624580587e-01 -8.322909819911e+01 0.0 
0.0 0.0 -4.059431197138e+01 
-5.591866432803e+01 2.708150934673e+00 0.0 
2.708150934673e+00 -8.034550920790e+01 0.0 
0.0 0.0 -4.047925206078e+01 
-8.831379810545e+01 -2.807176776795e+00 0.0 
-2.807176776795e+00 -2.229534574978e+02 0.0 
0.0 0.0 -9.298017668098e+01 
-1.309847421732e+02 6.901794333146e+00 0.0 
6.901794333146e+00 -3.362074637222e+02 0.0 
0.0 0.0 -1.397576617686e+02 
-9.854081410529e+01 2.262849509687e-02 0.0 
2.262849509687e-02 -2.709930742015e+02 0.0 
0.0 0.0 -1.104601664920e+02 
-5.193198076628e+01 2.657975438928e+00 0.0 
2.657975438928e+00 -7.367732110396e+01 0.0 
0.0 0.0 -3.728279056107e+01 
-1.067467476901e+02 3.294181950770e+01 0.0 
3.294181950770e+01 -2.227253472560e+02 0.0 
0.0 0.0 -9.844162848384e+01 
-1.056832759348e+02 2.412375914002e+01 0.0 
2.412375914002e+01 -2.917641058393e+02 0.0 
0.0 0.0 -1.188342145322e+02 
-1.113715637162e+02 -4.882870511348e-01 0.0 
-4.882870511348e-01 -2.919675975518e+02 0.0 
0.0 0.0 -1.206017483804e+02 
-7.216977607122e+01 4.660082904190e+00 0.0 
4.660082904190e+00 -1.331021536121e+02 0.0 
0.0 0.0 -6.118157890498e+01 
-6.640146161350e+01 -7.121115032047e+00 0.0 
-7.121115032047e+00 -1.764001717871e+02 0.0 
0.0 0.0 -7.244049002017e+01 
-6.281974060598e+01 -6.566670216399e+00 0.0 
-6.566670216399e+00 -1.632817316653e+02 0.0 
0.0 0.0 -6.743044168138e+01 
-3.511049893439e+01 -4.499817982897e+00 0.0 
-4.499817982897e+00 -8.731289608560e+01 0.0 
0.0 0.0 -3.632701850600e+01 
-1.074038594454e+02 1.856329483424e+00 0.0 
1.856329483424e+00 -2.894643848639e+02 0.0 
0.0 0.0 -1.186604732928e+02 
-6.632399463730e+01 -5.278133327739e+00 0.0 
-5.278133327739e+00 -1.709437819080e+02 0.0 
0.0 0.0 -7.078033296359e+01 
-6.544752259461e+01 5.324835899284e+00 0.0 
5.324835899284e+00 -1.034251108924e+02 0.0 
0.0 0.0 -5.026179004610e+01 
-6.256798418620e+01 5.317511735511e+00 0.0 
5.317511735511e+00 -9.277439800060e+01 0.0 
0.0 0.0 -4.620271465604e+01 
-6.576155263818e+01 1.211671837446e+01 0.0 
1.211671837446e+01 -2.274217336909e+02 0.0 
0.0 0.0 -8.755498589873e+01 
-5.432724488825e+01 -9.241403158476e+00 0.0 
-9.241403158476e+00 -1.415318933774e+02 0.0 
0.0 0.0 -5.835774147970e+01 
-3.886480996126e+01 1.271265322556e+01 0.0 
1.271265322556e+01 -1.670126788509e+02 0.0 
0.0 0.0 -6.136324664363e+01 
-5.761390898908e+01 -7.958703434887e+00 0.0 
-7.958703434887e+00 -1.492931205169e+02 0.0 
0.0 0.0 -6.167210885179e+01 
-6.086302234826e+01 -8.671808221210e+00 0.0 
-8.671808221210e+00 -1.619876288693e+02 0.0 
0.0 0.0 -6.645519536526e+01 
-3.918650417791e+01 -6.329732562084e+00 0.0 
-6.329732562084e+00 -9.574673066111e+01 0.0 
0.0 0.0 -4.007997045171e+01 
-1.251530828838e+02 7.469510037792e+00 0.0 
7.469510037792e+00 -3.281031697951e+02 0.0 
0.0 0.0 -1.355768758037e+02 
-6.834871125959e+01 -8.137732919345e+00 0.0 
-8.137732919345e+00 -2.005488440361e+02 0.0 
0.0 0.0 -8.026926658870e+01 
-7.757855307901e+01 6.478731429813e+00 0.0 
6.478731429813e+00 -1.456304380417e+02 0.0 
0.0 0.0 -6.656269733621e+01 
-7.051933065082e+01 -6.883392635117e+00 0.0 
-6.883392635117e+00 -2.129861550600e+02 0.0 
0.0 0.0 -8.465164571325e+01 
-1.004525386447e+02 -8.724682853170e-01 0.0 
-8.724682853170e-01 -2.767330316627e+02 0.0 
0.0 0.0 -1.127556710922e+02 
-8.332482178789e+01 -4.454242163581e+00 0.0 
-4.454242163581e+00 -2.388723365209e+02 0.0 
0.0 0.0 -9.625914749265e+01 
-6.106595801542e+01 2.464648825729e+01 0.0 
2.464648825729e+01 -1.924569086267e+02 0.0 
0.0 0.0 -7.565685999263e+01 
-3.818415117673e+01 -3.846960721251e+00 0.0 
-3.846960721251e+00 -9.591027468181e+01 0.0 
0.0 0.0 -3.982832775756e+01 
-1.346506890283e+02 5.265307785763e+00 0.0 
5.265307785763e+00 -3.430475379282e+02 0.0 
0.0 0.0 -1.429094680869e+02 
-1.418591849078e+02 8.285164287216e+00 0.0 
8.285164287216e+00 -3.550044819765e+02 0.0 
0.0 0.0 -1.486591000653e+02 
-8.484269544171e+01 2.947283380022e+01 0.0 
2.947283380022e+01 -2.167851184279e+02 0.0 
0.0 0.0 -9.008834416087e+01 
-6.364912903602e+01 -9.030128379423e+00 0.0 
-9.030128379423e+00 -1.748120567867e+02 0.0 
0.0 0.0 -7.113835574683e+01 
-9.162342887037e+01 -2.626857766423e+00 0.0 
-2.626857766423e+00 -2.578606749581e+02 0.0 
0.0 0.0 -1.044452311485e+02 
-6.222249802821e+01 3.113664010745e+00 0.0 
3.113664010745e+00 -1.016850629347e+02 0.0 
0.0 0.0 -4.877226828888e+01 
-7.010164729641e+01 -5.806852222535e+00 0.0 
-5.806852222535e+00 -1.837358629194e+02 0.0 
0.0 0.0 -7.575125306474e+01 
-4.995588445592e+01 2.800898729840e+01 0.0 
2.800898729840e+01 -1.417915849776e+02 0.0 
0.0 0.0 -5.712424083006e+01 
-5.429599956330e+01 -4.633701877244e+00 0.0 
-4.633701877244e+00 -1.375523727249e+02 0.0 
0.0 0.0 -5.715451168645e+01 
-4.818903406779e+01 -1.498030821280e+01 0.0 
-1.498030821280e+01 -1.338716931094e+02 0.0 
0.0 0.0 -5.421821815315e+01 
-6.957177944093e+01 -7.266200953901e+00 0.0 
-7.266200953901e+00 -1.895524172112e+02 0.0 
0.0 0.0 -7.733725899565e+01 
-4.957050869923e+01 -5.858262897644e+00 0.0 
-5.858262897644e+00 -1.245812636986e+02 0.0 
0.0 0.0 -5.184553171936e+01 
-4.453473870854e+01 -2.391686180311e+00 0.0 
-2.391686180311e+00 -1.129575976515e+02 0.0 
0.0 0.0 -4.684770090801e+01 
-8.718636644394e+01 -3.265669544703e+00 0.0 
-3.265669544703e+00 -2.407696544153e+02 0.0 
0.0 0.0 -9.798680625777e+01 
-1.059671290296e+02 -6.936287605961e-01 0.0 
-6.936287605961e-01 -2.843146362832e+02 0.0 
0.0 0.0 -1.166845295938e+02 
-1.048482161023e+02 3.186094284586e+01 0.0 
3.186094284586e+01 -2.558830082718e+02 0.0 
0.0 0.0 -1.078193673122e+02 
-2.758299411077e+00 -4.824969235446e-01 0.0 
-4.824969235446e-01 -8.721867077043e+00 0.0 
0.0 0.0 -2.050499729902e+00 
-6.216523229573e+01 -4.570125315328e+00 0.0 
-4.570125315328e+00 -2.118074421597e+02 0.0 
0.0 0.0 -8.179180233662e+01 
-6.541390087503e+01 -7.250567487342e+00 0.0 
-7.250567487342e+00 -2.064824025034e+02 0.0 
0.0 0.0 -8.116889101354e+01 
-6.607739101140e+01 -8.861783585264e+00 0.0 
-8.861783585264e+00 -1.877399476479e+02 0.0 
0.0 0.0 -7.574520159778e+01 
-5.914015664362e+01 2.937861053013e+00 0.0 
2.937861053013e+00 -9.092419403856e+01 0.0 
0.0 0.0 -4.461930520465e+01 
-7.556326300286e+01 -6.314219937231e+00 0.0 
-6.314219937231e+00 -2.197612409813e+02 0.0 
0.0 0.0 -8.819735119526e+01 
-5.715158034579e+01 -5.958000688921e+00 0.0 
-5.958000688921e+00 -1.451226437267e+02 0.0 
0.0 0.0 -6.028226722175e+01 
-7.239507023607e+01 -6.890124327902e+00 0.0 
-6.890124327902e+00 -2.025374087088e+02 0.0 
0.0 0.0 -8.207974368346e+01 
-7.103041006480e+01 3.099204434701e+00 0.0 
3.099204434701e+00 -1.345741533730e+02 0.0 
0.0 0.0 -6.128136903133e+01 
-5.748758407874e+01 -3.616322131469e+00 0.0 
-3.616322131469e+00 -1.457853746429e+02 0.0 
0.0 0.0 -6.058188761650e+01 
-2.264631990711e+01 -4.084023098441e+00 0.0 
-4.084023098441e+00 -5.505866730567e+01 0.0 
0.0 0.0 -2.291149616384e+01 
-3.134922542922e+01 -5.323835712063e+00 0.0 
-5.323835712063e+00 -7.554825759237e+01 0.0 
0.0 0.0 -3.166924490648e+01 
-4.689345880342e+01 -1.451188774899e+01 0.0 
-1.451188774899e+01 -1.365908966149e+02 0.0 
0.0 0.0 -5.464530662551e+01 
-5.722867810678e+01 -1.001981066535e+01 0.0 
-1.001981066535e+01 -1.546215132688e+02 0.0 
0.0 0.0 -6.315505741269e+01 
-6.742292558709e+01 -5.059117148245e+00 0.0 
-5.059117148245e+00 -2.182353494940e+02 0.0 
0.0 0.0 -8.529748252433e+01 
-7.492848366211e+01 -5.960499993173e+00 0.0 
-5.960499993173e+00 -2.150682970672e+02 0.0 
0.0 0.0 -8.659903421879e+01 
-4.094426738144e+01 -1.357009129024e+01 0.0 
-1.357009129024e+01 -9.528723119427e+01 0.0 
0.0 0.0 -4.009378050171e+01 
-2.912412595081e+01 -2.787957082114e+00 0.0 
-2.787957082114e+00 -7.513785457821e+01 0.0 
0.0 0.0 -3.087859415870e+01 
-6.229006939041e+01 7.660108073212e+00 0.0 
7.660108073212e+00 -8.156026941995e+01 0.0 
0.0 0.0 -4.275510164311e+01 
-4.955986515078e+01 -3.462811075013e+00 0.0 
-3.462811075013e+00 -1.250994661823e+02 0.0 
0.0 0.0 -5.199779939993e+01 
-1.180015845273e+02 4.409872148721e+00 0.0 
4.409872148721e+00 -3.167683806689e+02 0.0 
0.0 0.0 -1.300309895589e+02 
-1.011991346774e+02 3.073602691273e+01 0.0 
3.073602691273e+01 -2.539883600217e+02 0.0 
0.0 0.0 -1.061562484097e+02 
-7.459067840791e+01 2.569647619582e+01 0.0 
2.569647619582e+01 -1.158695012047e+02 0.0 
0.0 0.0 -5.673805388379e+01 
-8.238255838745e+01 1.103488082699e+01 0.0 
1.103488082699e+01 -1.540356299518e+02 0.0 
0.0 0.0 -7.052545650176e+01 
-1.082425991505e+02 3.268742591136e+01 0.0 
3.268742591136e+01 -2.579329899595e+02 0.0 
0.0 0.0 -1.094526767330e+02 
-6.117198421219e+01 1.463278794879e+01 0.0 
1.463278794879e+01 -2.155091415834e+02 0.0 
0.0 0.0 -8.260433773868e+01 
-9.284050689192e+01 2.996159639537e+01 0.0 
2.996159639537e+01 -2.353632193619e+02 0.0 
0.0 0.0 -9.806111787614e+01 
-4.453002319858e+01 -1.658228047700e+01 0.0 
-1.658228047700e+01 -1.133658042531e+02 0.0 
0.0 0.0 -4.665446702782e+01 
-7.666533157406e+01 -5.776661812663e+00 0.0 
-5.776661812663e+00 -2.092745512353e+02 0.0 
0.0 0.0 -8.538196484281e+01 
-5.449911774958e+01 2.089850632724e+01 0.0 
2.089850632724e+01 -1.891774481914e+02 0.0 
0.0 0.0 -7.270296978230e+01 
-3.404421232670e+01 -1.332709673279e+01 0.0 
-1.332709673279e+01 -1.410904139062e+02 0.0 
0.0 0.0 -5.209920518249e+01 
-4.168048765181e+01 -1.652206934058e+01 0.0 
-1.652206934058e+01 -9.119407722875e+01 0.0 
0.0 0.0 -3.810496599322e+01 
-6.458070734895e+01 -7.418261454840e+00 0.0 
-7.418261454840e+00 -1.697366719283e+02 0.0 
0.0 0.0 -6.989521378319e+01 
-7.018274440458e+01 -6.677956280221e+00 0.0 
-6.677956280221e+00 -2.086386530528e+02 0.0 
0.0 0.0 -8.324641923723e+01 
-7.220686757221e+01 -4.816075540153e+00 0.0 
-4.816075540153e+00 -2.203162549759e+02 0.0 
0.0 0.0 -8.735693676442e+01 
-5.271142793188e+01 -4.911149531033e+00 0.0 
-4.911149531033e+00 -1.329776297798e+02 0.0 
0.0 0.0 -5.530671731352e+01 
-7.803633119118e+01 -4.871770065822e+00 0.0 
-4.871770065822e+00 -2.317684993735e+02 0.0 
0.0 0.0 -9.254144916939e+01 
-6.701524974720e+01 -4.824495252509e+00 0.0 
-4.824495252509e+00 -2.137932686683e+02 0.0 
0.0 0.0 -8.384255552466e+01 
-6.437308554947e+01 -1.456044327344e+00 0.0 
-1.456044327344e+00 -2.222477479309e+02 0.0 
0.0 0.0 -8.558625004412e+01 
-5.952045716126e+01 -7.992719134493e+00 0.0 
-7.992719134493e+00 -1.560248508143e+02 0.0 
0.0 0.0 -6.426359239267e+01 
-9.827318614383e+01 1.445476202012e+01 0.0 
1.445476202012e+01 -2.886380347722e+02 0.0 
0.0 0.0 -1.156733662748e+02 
-7.048897130962e+01 7.080443387618e+00 0.0 
7.080443387618e+00 -1.134386645245e+02 0.0 
0.0 0.0 -5.477829075023e+01 
-5.932502706829e+01 4.945145884115e-02 0.0 
4.945145884115e-02 -2.152811304330e+02 0.0 
0.0 0.0 -8.198184725039e+01 
-1.286921099374e+02 5.885436817384e+00 0.0 
5.885436817384e+00 -3.350152215506e+02 0.0 
0.0 0.0 -1.387121994464e+02 
-4.538763249611e+01 -1.698341916744e+01 0.0 
-1.698341916744e+01 -1.303972530847e+02 0.0 
0.0 0.0 -5.233546567425e+01 
-1.389674478272e+02 1.026724012978e+01 0.0 
1.026724012978e+01 -3.545568977602e+02 0.0 
0.0 0.0 -1.476573036762e+02 
-7.273285278190e+01 -5.119137189024e+00 0.0 
-5.119137189024e+00 -2.248443993584e+02 0.0 
0.0 0.0 -8.887317564208e+01 
-1.113583827256e+02 3.391951823387e+01 0.0 
3.391951823387e+01 -2.615391416706e+02 0.0 
0.0 0.0 -1.114692573189e+02 
-7.765251031387e+01 3.174971395919e+01 0.0 
3.174971395919e+01 -1.655677498964e+02 0.0 
0.0 0.0 -7.256607806308e+01 
-4.272040486206e+01 -1.596597485136e+01 0.0 
-1.596597485136e+01 -1.160195748680e+02 0.0 
0.0 0.0 -4.722199391903e+01 
-7.815003448627e+01 2.803942900500e+01 0.0 
2.803942900500e+01 -1.335983524884e+02 0.0 
0.0 0.0 -6.312451609240e+01 
-8.933647294960e+01 1.718248371028e+01 0.0 
1.718248371028e+01 -1.697177125202e+02 0.0 
0.0 0.0 -7.731625564093e+01 
-7.513706918758e+01 -2.884327367409e+00 0.0 
-2.884327367409e+00 -2.361292929610e+02 0.0 
0.0 0.0 -9.297990864458e+01 
-4.344307456210e+01 2.544983329446e+01 0.0 
2.544983329446e+01 -1.390684244093e+02 0.0 
0.0 0.0 -5.435344969142e+01 
-8.170026543916e+01 2.978132917296e+01 0.0 
2.978132917296e+01 -1.516014627492e+02 0.0 
0.0 0.0 -6.959051845651e+01 
-5.944833418485e+01 2.818209389276e+01 0.0 
2.818209389276e+01 -1.606315918843e+02 0.0 
0.0 0.0 -6.562397782075e+01 
-4.096996404351e+01 -1.625174277361e+01 0.0 
-1.625174277361e+01 -9.465417432049e+01 0.0 
0.0 0.0 -3.993260711267e+01 
-9.283623597542e+01 1.488036431915e+01 0.0 
1.488036431915e+01 -1.977305116357e+02 0.0 
0.0 0.0 -8.677002428333e+01 
-3.971102901949e+01 -1.324317309745e+01 0.0 
-1.324317309745e+01 -7.984016413027e+01 0.0 
0.0 0.0 -3.478796043544e+01 
-1.290706229330e+02 2.329652588456e+01 0.0 
2.329652588456e+01 -3.346720038615e+02 0.0 
0.0 0.0 -1.387227880384e+02 
-8.069286195147e+01 5.647474740824e+00 0.0 
5.647474740824e+00 -1.646882415610e+02 0.0 
0.0 0.0 -7.321433105374e+01 
-1.043064394764e+02 1.316187723014e+01 0.0 
1.316187723014e+01 -2.991431197139e+02 0.0 
0.0 0.0 -1.206348677571e+02 
-5.428353593423e+01 1.596691819911e+00 0.0 
1.596691819911e+00 -8.134470839174e+01 0.0 
0.0 0.0 -4.028847329779e+01 
-8.220156670979e+01 1.114900742381e+01 0.0 
1.114900742381e+01 -1.450392922810e+02 0.0 
0.0 0.0 -6.777225769724e+01 
-6.881586586396e+01 -1.974758657933e+00 0.0 
-1.974758657933e+00 -2.240070531340e+02 0.0 
0.0 0.0 -8.744687569939e+01 
-7.410161039440e+01 1.327309794944e+01 0.0 
1.327309794944e+01 -2.437878880661e+02 0.0 
0.0 0.0 -9.496684953817e+01 
-8.804086263603e+01 1.295634268365e+01 0.0 
1.295634268365e+01 -1.755461506608e+02 0.0 
0.0 0.0 -7.867610398903e+01 
-1.153806729315e+02 7.806746243206e-01 0.0 
7.806746243206e-01 -3.032138130990e+02 0.0 
0.0 0.0 -1.251783458092e+02 
-7.556706148139e+01 9.180059041183e+00 0.0 
9.180059041183e+00 -1.239188849701e+02 0.0 
0.0 0.0 -5.944578393545e+01 
-9.937814000098e+01 6.125029278350e+00 0.0 
6.125029278350e+00 -2.911459563573e+02 0.0 
0.0 0.0 -1.167572289075e+02 
-3.995224264871e+01 -1.774251064261e+01 0.0 
-1.774251064261e+01 -1.113761241333e+02 0.0 
0.0 0.0 -4.499851003462e+01 
-8.052011232545e+01 1.163904773851e+01 0.0 
1.163904773851e+01 -1.349003315670e+02 0.0 
0.0 0.0 -6.422613316775e+01 
-1.273768857007e+02 3.725241336013e+01 0.0 
3.725241336013e+01 -3.069311736738e+02 0.0 
0.0 0.0 -1.298924178124e+02 
-1.403992615565e+02 7.085845320280e+00 0.0 
7.085845320280e+00 -3.540112419374e+02 0.0 
0.0 0.0 -1.479231510482e+02 
-7.308131087802e+01 -7.266759447269e+00 0.0 
-7.266759447269e+00 -2.074302681988e+02 0.0 
0.0 0.0 -8.375347372305e+01 
-5.707634599329e+01 3.843472673155e+00 0.0 
3.843472673155e+00 -8.283563454315e+01 0.0 
0.0 0.0 -4.157359416093e+01 
-5.068287819842e+01 1.317906042389e+00 0.0 
1.317906042389e+00 -7.069455954943e+01 0.0 
0.0 0.0 -3.601323132435e+01 
-7.725897120255e+01 -4.465067421706e+00 0.0 
-4.465067421706e+00 -2.269061521548e+02 0.0 
0.0 0.0 -9.084953700721e+01 
-1.097695271192e+02 7.694705815259e-01 0.0 
7.694705815259e-01 -2.955047948919e+02 0.0 
0.0 0.0 -1.211822966033e+02 
-1.137773189646e+02 2.475331102988e+00 0.0 
2.475331102988e+00 -3.063497056177e+02 0.0 
0.0 0.0 -1.256381073747e+02 
-2.653586841444e+01 -3.163056918032e+00 0.0 
-3.163056918032e+00 -6.634595513937e+01 0.0 
0.0 0.0 -2.746454706614e+01 
-3.464624486966e+01 1.378981178198e+01 0.0 
1.378981178198e+01 -1.535881874411e+02 0.0 
0.0 0.0 -5.607032969322e+01 
-6.209472603860e+01 3.717580497915e+00 0.0 
3.717580497915e+00 -2.238454475632e+02 0.0 
0.0 0.0 -8.538205208053e+01 
-6.339670071131e+01 -9.669262926388e-01 0.0 
-9.669262926388e-01 -2.167583864020e+02 0.0 
0.0 0.0 -8.364652613400e+01 
-5.886236650279e+01 2.614109778763e+01 0.0 
2.614109778763e+01 -1.767196894988e+02 0.0 
0.0 0.0 -7.027461680047e+01 
-9.304145668030e+01 1.458458645592e+01 0.0 
1.458458645592e+01 -1.871188116797e+02 0.0 
0.0 0.0 -8.364808050800e+01 
-9.860755735139e+01 2.763548749544e+01 0.0 
2.763548749544e+01 -2.023329409686e+02 0.0 
0.0 0.0 -8.988214949599e+01 
-8.338473961576e+01 7.604160517097e+00 0.0 
7.604160517097e+00 -1.660573986009e+02 0.0 
0.0 0.0 -7.443264146501e+01 
-5.069546379058e+01 3.017611344648e+01 0.0 
3.017611344648e+01 -1.056370303171e+02 0.0 
0.0 0.0 -4.649974823231e+01 
-8.369640012672e+01 1.497418708746e+01 0.0 
1.497418708746e+01 -1.477259992997e+02 0.0 
0.0 0.0 -6.902671982793e+01 
-1.127993142779e+02 1.957064171365e+00 0.0 
1.957064171365e+00 -2.970474908401e+02 0.0 
0.0 0.0 -1.225540415354e+02 
-8.585610771469e+01 9.932700019937e+00 0.0 
9.932700019937e+00 -1.746797844273e+02 0.0 
0.0 0.0 -7.776076764261e+01 
-7.866571995900e+01 1.219065684213e+01 0.0 
1.219065684213e+01 -1.249400926573e+02 0.0 
0.0 0.0 -6.068174378488e+01 
-7.954636844322e+01 -5.089760627739e+00 0.0 
-5.089760627739e+00 -2.217205897328e+02 0.0 
0.0 0.0 -8.998008745281e+01 
-5.756261842446e+01 6.089064964318e+00 0.0 
6.089064964318e+00 -2.154555302747e+02 0.0 
0.0 0.0 -8.150544460974e+01 
-7.614078921353e+01 8.915814530272e+00 0.0 
8.915814530272e+00 -1.325815454666e+02 0.0 
0.0 0.0 -6.221670040405e+01 
-8.802426315721e+01 1.302281335179e+01 0.0 
1.302281335179e+01 -1.663260094408e+02 0.0 
0.0 0.0 -7.590508177942e+01 
-7.386406511614e+01 6.490464937723e+00 0.0 
6.490464937723e+00 -1.323016768131e+02 0.0 
0.0 0.0 -6.144972257877e+01 
-7.150165287632e+01 6.628253181237e+00 0.0 
6.628253181237e+00 -1.217630247219e+02 0.0 
0.0 0.0 -5.757940327947e+01 
-1.298359171393e+02 3.596689090351e+00 0.0 
3.596689090351e+00 -3.327496398138e+02 0.0 
0.0 0.0 -1.383756670859e+02 
-1.229681435830e+02 2.442678613391e+01 0.0 
2.442678613391e+01 -3.226116350840e+02 0.0 
0.0 0.0 -1.332739336001e+02 
-1.240083647924e+02 3.963239089576e+00 0.0 
3.963239089576e+00 -3.248175897724e+02 0.0 
0.0 0.0 -1.342477863694e+02 
-9.701327322552e+01 -2.273829437667e+00 0.0 
-2.273829437667e+00 -2.653006192802e+02 0.0 
0.0 0.0 -1.082941677517e+02 
-4.554240221452e+01 2.559755120374e+01 0.0 
2.559755120374e+01 -6.535991564817e+01 0.0 
0.0 0.0 -3.287069535881e+01 
-1.085345056604e+02 1.603771537618e+01 0.0 
1.603771537618e+01 -3.057626894296e+02 0.0 
0.0 0.0 -1.238891585270e+02 
-8.030748876637e+01 1.693637893489e+01 0.0 
1.693637893489e+01 -1.320389030645e+02 0.0 
0.0 0.0 -6.330391754926e+01 
-4.486695250417e+01 -4.735056736050e+00 0.0 
-4.735056736050e+00 -1.125912421328e+02 0.0 
0.0 0.0 -4.683745839109e+01 
-6.542570829599e+01 2.658536059022e+00 0.0 
2.658536059022e+00 -2.250109370420e+02 0.0 
0.0 0.0 -8.673099360139e+01 
-7.529926538599e+01 3.669597352970e+00 0.0 
3.669597352970e+00 -2.482919135536e+02 0.0 
0.0 0.0 -9.667735368188e+01 
-8.298727627512e+01 1.454873900712e+01 0.0 
1.454873900712e+01 -2.604789429740e+02 0.0 
0.0 0.0 -1.026398657747e+02 
-3.106869887854e+01 -3.505422733457e+00 0.0 
-3.505422733457e+00 -1.509772651915e+02 0.0 
0.0 0.0 -5.406281920121e+01 
-6.014304001342e+01 4.649431270022e+00 0.0 
4.649431270022e+00 -2.161988522126e+02 0.0 
0.0 0.0 -8.250256766782e+01 
-9.243520086211e+01 1.591151451139e+01 0.0 
1.591151451139e+01 -2.774275044724e+02 0.0 
0.0 0.0 -1.105588116003e+02 
-5.638985828232e+01 2.808030766521e+01 0.0 
2.808030766521e+01 -1.054931580846e+02 0.0 
0.0 0.0 -4.816490491006e+01 
-8.056416986557e+01 -5.607547031646e+00 0.0 
-5.607547031646e+00 -2.268842462678e+02 0.0 
0.0 0.0 -9.183452484000e+01 
-7.116398449515e+01 9.935946195912e+00 0.0 
9.935946195912e+00 -1.033924792433e+02 0.0 
0.0 0.0 -5.196693912154e+01 
-3.643523773491e+01 -3.469569298028e-01 0.0 
-3.469569298028e-01 -4.062540116823e+01 0.0 
0.0 0.0 -2.271819167094e+01 
-4.062077440486e+01 2.872870966069e+01 0.0 
2.872870966069e+01 -2.880165956278e+01 0.0 
0.0 0.0 -1.953554209422e+01 
-9.527900402435e+01 -1.451163387675e+00 0.0 
-1.451163387675e+00 -2.596671554274e+02 0.0 
0.0 0.0 -1.060838478355e+02 
-1.079034020800e+02 1.151500329006e+01 0.0 
1.151500329006e+01 -3.079043343999e+02 0.0 
0.0 0.0 -1.243423209440e+02 
-1.002632780366e+02 2.661121096393e+01 0.0 
2.661121096393e+01 -2.075314704202e+02 0.0 
0.0 0.0 -9.193842453704e+01 
-6.879658289619e+01 1.067880902334e+01 0.0 
1.067880902334e+01 -2.376754822412e+02 0.0 
0.0 0.0 -9.154161954121e+01 
-8.854285584210e+01 -3.929485108009e+00 0.0 
-3.929485108009e+00 -2.461685027973e+02 0.0 
0.0 0.0 -1.000134075918e+02 
-6.796819371980e+01 7.192947667344e+00 0.0 
7.192947667344e+00 -1.029760661009e+02 0.0 
0.0 0.0 -5.088327794622e+01 
-3.903166204085e+01 2.674838818360e+01 0.0 
2.674838818360e+01 -2.722672292314e+01 0.0 
0.0 0.0 -1.829123004053e+01 
-1.018878677358e+02 1.279588683223e+01 0.0 
1.279588683223e+01 -2.980388632734e+02 0.0 
0.0 0.0 -1.195780193028e+02 
-7.939077988811e+01 1.136256714754e+01 0.0 
1.136256714754e+01 -2.548228140045e+02 0.0 
0.0 0.0 -9.986407816779e+01 
-6.005542719052e+01 3.027025490441e+01 0.0 
3.027025490441e+01 -1.067885901218e+02 0.0 
0.0 0.0 -4.965320519369e+01 
-1.167258036413e+02 3.559554250200e+00 0.0 
3.559554250200e+00 -3.078339775678e+02 0.0 
0.0 0.0 -1.269679343627e+02 
-4.144035298459e+01 -1.580914758842e+01 0.0 
-1.580914758842e+01 -1.438350383108e+02 0.0 
0.0 0.0 -5.518261738863e+01 
-1.208259550603e+02 5.397963566268e+00 0.0 
5.397963566268e+00 -3.181806242997e+02 0.0 
0.0 0.0 -1.313019738080e+02 
-1.336733107150e+02 7.897964280799e+00 0.0 
7.897964280799e+00 -3.449370661823e+02 0.0 
0.0 0.0 -1.431831130692e+02 
-9.613130415684e+01 1.420904489282e+01 0.0 
1.420904489282e+01 -2.876771689013e+02 0.0 
0.0 0.0 -1.147425419174e+02 
-7.760112783565e+01 8.877149642120e+00 0.0 
8.877149642120e+00 -1.343003893366e+02 0.0 
0.0 0.0 -6.317045515168e+01 
-1.029676860745e+02 3.017364536098e+01 0.0 
3.017364536098e+01 -2.683744256961e+02 0.0 
0.0 0.0 -1.110026335312e+02 
-1.359542330668e+02 9.051489967419e+00 0.0 
9.051489967419e+00 -3.461164016471e+02 0.0 
0.0 0.0 -1.442211904142e+02 
-3.728967769025e+01 2.537555129205e+01 0.0 
2.537555129205e+01 -2.637619502010e+01 0.0 
0.0 0.0 -1.869976181311e+01 
-7.345627353347e+01 9.479952875255e+00 0.0 
9.479952875255e+00 -1.136576646426e+02 0.0 
0.0 0.0 -5.573418145281e+01 
-1.212756515812e+02 2.795949347192e+01 0.0 
2.795949347192e+01 -3.136599618795e+02 0.0 
0.0 0.0 -1.300806840382e+02 
-7.814112660950e+01 8.620728524863e+00 0.0 
8.620728524863e+00 -1.428831753409e+02 0.0 
0.0 0.0 -6.590729058512e+01 
-8.643804474869e+01 1.294612001061e+01 0.0 
1.294612001061e+01 -2.707198105008e+02 0.0 
0.0 0.0 -1.067473565748e+02 
-6.272028933406e+01 8.501480068113e+00 0.0 
8.501480068113e+00 -2.222348405662e+02 0.0 
0.0 0.0 -8.508653897007e+01 
-9.160898180738e+01 -3.733482540643e+00 0.0 
-3.733482540643e+00 -2.377614309176e+02 0.0 
0.0 0.0 -9.841112381750e+01 
-2.685711907703e+01 6.478052411423e+00 0.0 
6.478052411423e+00 -1.301274498153e+02 0.0 
0.0 0.0 -4.844808704404e+01 
-8.015723622452e+01 8.242514437030e+00 0.0 
8.242514437030e+00 -1.533528188448e+02 0.0 
0.0 0.0 -6.965301652081e+01 
-4.817083442392e+01 -4.039737698110e+00 0.0 
-4.039737698110e+00 -1.212504683379e+02 0.0 
0.0 0.0 -5.042639082855e+01 
-3.505888599424e+01 2.390488198507e+01 0.0 
2.390488198507e+01 -2.518339404338e+01 0.0 
0.0 0.0 -1.767268401128e+01 
-9.787432830258e+01 3.084983270286e+01 0.0 
3.084983270286e+01 -2.524052677190e+02 0.0 
0.0 0.0 -1.046838788065e+02 
-8.450310854230e+01 7.391189595456e+00 0.0 
7.391189595456e+00 -1.753472076524e+02 0.0 
0.0 0.0 -7.755509485842e+01 
-4.315994827532e+01 -1.907518199119e+01 0.0 
-1.907518199119e+01 -1.287667082750e+02 0.0 
0.0 0.0 -5.058771844899e+01 
-6.936631146518e+01 3.019510561298e+01 0.0 
3.019510561298e+01 -1.799016518221e+02 0.0 
0.0 0.0 -7.438038898619e+01 
-7.411365964539e+01 9.181417134051e+00 0.0 
9.181417134051e+00 -1.225076566323e+02 0.0 
0.0 0.0 -5.858639488331e+01 
-8.868808410959e+01 -3.300104059041e+00 0.0 
-3.300104059041e+00 -2.359793778873e+02 0.0 
0.0 0.0 -9.700023859908e+01 
-3.515671738272e+01 -8.269438462312e+00 0.0 
-8.269438462312e+00 -1.518490498885e+02 0.0 
0.0 0.0 -5.570173018135e+01 
-4.237142601602e+01 2.466280393947e+01 0.0 
2.466280393947e+01 -1.395765670129e+02 0.0 
0.0 0.0 -5.418439790867e+01 
-4.034467069312e+01 -1.805670015387e+01 0.0 
-1.805670015387e+01 -9.036050279850e+01 0.0 
0.0 0.0 -3.776026981154e+01 
-3.534011923822e+01 -1.708050555671e+01 0.0 
-1.708050555671e+01 -1.259059560418e+02 0.0 
0.0 0.0 -4.797382258401e+01 
-3.700669077378e+01 -1.884642909964e+01 0.0 
-1.884642909964e+01 -1.084672009945e+02 0.0 
0.0 0.0 -4.302677304003e+01 
-7.732329724086e+01 1.176417330325e+01 0.0 
1.176417330325e+01 -2.540318173961e+02 0.0 
0.0 0.0 -9.900653439107e+01 
-1.067365035785e+02 2.503450441820e+01 0.0 
2.503450441820e+01 -2.350816976915e+02 0.0 
0.0 0.0 -1.021454603810e+02 
-3.280714820686e+01 2.259718369731e+01 0.0 
2.259718369731e+01 -2.394248870376e+01 0.0 
0.0 0.0 -1.662489107318e+01 
-1.355651483205e+02 3.246321004287e+00 0.0 
3.246321004287e+00 -3.406516625643e+02 0.0 
0.0 0.0 -1.424650432654e+02 
-5.018634279405e+01 1.220694752605e+01 0.0 
1.220694752605e+01 -1.959558163691e+02 0.0 
0.0 0.0 -7.344264774893e+01 
-7.669141972846e+01 1.293993390465e+01 0.0 
1.293993390465e+01 -1.153783871413e+02 0.0 
0.0 0.0 -5.722094206094e+01 
-2.727484531043e+01 3.718304139492e+00 0.0 
3.718304139492e+00 -1.377438751082e+02 0.0 
0.0 0.0 -5.092638329765e+01 
-1.409489681868e+02 1.115892545310e+01 0.0 
1.115892545310e+01 -3.553320449043e+02 0.0 
0.0 0.0 -1.484843039273e+02 
-4.432689074147e+01 -1.969064738815e+01 0.0 
-1.969064738815e+01 -1.110718297814e+02 0.0 
0.0 0.0 -4.495528250149e+01 
-5.654586278675e+01 -4.107063009193e+00 0.0 
-4.107063009193e+00 -1.421795019882e+02 0.0 
0.0 0.0 -5.921760943248e+01 
-1.006249188965e+02 1.695549354294e+01 0.0 
1.695549354294e+01 -2.937189670036e+02 0.0 
0.0 0.0 -1.179031657700e+02 
-7.421664598160e+01 -2.436845103192e+00 0.0 
-2.436845103192e+00 -2.310171922547e+02 0.0 
0.0 0.0 -9.117015147090e+01 
-1.165121614175e+02 2.553910755906e+01 0.0 
2.553910755906e+01 -3.095621021664e+02 0.0 
0.0 0.0 -1.274222790752e+02 
-4.546341940652e+01 2.814056002571e+01 0.0 
2.814056002571e+01 -1.234900877099e+02 0.0 
0.0 0.0 -5.028605213493e+01 
-8.602555592835e+01 1.928356412099e+01 0.0 
1.928356412099e+01 -1.418503456583e+02 0.0 
0.0 0.0 -6.796277047599e+01 
-1.276765581009e+02 2.229006910548e+01 0.0 
2.229006910548e+01 -3.338607590774e+02 0.0 
0.0 0.0 -1.380611951535e+02 
-6.909027208760e+01 6.695613018580e+00 0.0 
6.695613018580e+00 -1.113575112978e+02 0.0 
0.0 0.0 -5.373433501562e+01 
-1.030940802849e+02 2.956531006454e+01 0.0 
2.956531006454e+01 -2.093663724889e+02 0.0 
0.0 0.0 -9.333813583215e+01 
-8.514044916343e+01 1.434003267162e+01 0.0 
1.434003267162e+01 -1.464217623783e+02 0.0 
0.0 0.0 -6.906866346252e+01 
-8.946985254444e+01 1.719625594695e+01 0.0 
1.719625594695e+01 -1.588045153942e+02 0.0 
0.0 0.0 -7.408231038159e+01 
-3.362587151769e+01 2.211858031358e+01 0.0 
2.211858031358e+01 -1.274482006832e+02 0.0 
0.0 0.0 -4.787327086307e+01 
-1.307273805509e+02 1.948320588831e+00 0.0 
1.948320588831e+00 -3.297301400145e+02 0.0 
0.0 0.0 -1.377372561696e+02 
-7.905427408029e+01 1.200309751765e+01 0.0 
1.200309751765e+01 -1.346852990612e+02 0.0 
0.0 0.0 -6.372187194243e+01 
-6.442965932861e+01 1.842143033509e+01 0.0 
1.842143033509e+01 -2.189826118216e+02 0.0 
0.0 0.0 -8.462368134505e+01 
-3.147010450113e+01 2.147422017188e+01 0.0 
2.147422017188e+01 -2.347335677753e+01 0.0 
0.0 0.0 -1.608303838360e+01 
-1.349077127937e+02 2.608404842758e+01 0.0 
2.608404842758e+01 -3.402133426887e+02 0.0 
0.0 0.0 -1.421363166447e+02 
-3.149217542303e+01 9.100515638920e+00 0.0 
9.100515638920e+00 -1.515297097532e+02 0.0 
0.0 0.0 -5.450656555287e+01 
-5.300203403269e+01 -2.538835736149e+00 0.0 
-2.538835736149e+00 -1.335923728820e+02 0.0 
0.0 0.0 -5.557832207439e+01 
-1.100239151322e+02 2.207896121343e+01 0.0 
2.207896121343e+01 -3.041550364828e+02 0.0 
0.0 0.0 -1.238536854845e+02 
-2.958263240819e+01 5.341492373298e-01 0.0 
5.341492373298e-01 -8.045407661748e+01 0.0 
0.0 0.0 -3.261101270770e+01 
-6.489279106305e+01 2.645576679381e+01 0.0 
2.645576679381e+01 -1.940966264815e+02 0.0 
0.0 0.0 -7.729682526337e+01 
-1.064061111053e+02 1.554804808945e+01 0.0 
1.554804808945e+01 -3.047646906289e+02 0.0 
0.0 0.0 -1.229512405203e+02 
-9.414562165445e+01 1.892772363144e+01 0.0 
1.892772363144e+01 -1.797765590250e+02 0.0 
0.0 0.0 -8.177665420385e+01 
-9.805388515299e+01 2.206143960457e+01 0.0 
2.206143960457e+01 -1.936985412143e+02 0.0 
0.0 0.0 -8.712572791019e+01 
-1.024422661086e+02 1.734526603267e+01 0.0 
1.734526603267e+01 -2.945711968591e+02 0.0 
0.0 0.0 -1.187040388903e+02 
-8.658178204953e+01 1.368427269591e+01 0.0 
1.368427269591e+01 -1.562748809738e+02 0.0 
0.0 0.0 -7.245699890701e+01 
-5.368362397809e+01 1.549080487701e+01 0.0 
1.549080487701e+01 -1.997389801867e+02 0.0 
0.0 0.0 -7.562678124945e+01 
-9.743088550964e+01 3.254853739007e+01 0.0 
3.254853739007e+01 -2.378963263771e+02 0.0 
0.0 0.0 -1.001981635660e+02 
-3.221919692447e+01 2.084909546582e+01 0.0 
2.084909546582e+01 -2.327005608945e+01 0.0 
0.0 0.0 -1.624677590418e+01 
-1.042485390754e+02 3.162266800933e+01 0.0 
3.162266800933e+01 -2.313370142176e+02 0.0 
0.0 0.0 -1.002756659879e+02 
-4.665539330031e+01 2.078304247952e+01 0.0 
2.078304247952e+01 -2.521707253311e+01 0.0 
0.0 0.0 -2.116173975003e+01 
-4.045987562263e+01 1.241905709553e+01 0.0 
1.241905709553e+01 -2.018144155588e+01 0.0 
0.0 0.0 -1.779239515355e+01 
-6.447182273109e+01 1.306116733943e+01 0.0 
1.306116733943e+01 -2.270729712697e+02 0.0 
0.0 0.0 -8.706343820023e+01 
-4.102943317481e+01 9.245983237873e+00 0.0 
9.245983237873e+00 -2.617086422062e+01 0.0 
0.0 0.0 -1.976008921863e+01 
-7.628198702703e+01 2.510035275401e+01 0.0 
2.510035275401e+01 -2.271819124590e+02 0.0 
0.0 0.0 -9.063916984582e+01 
-5.733174035849e+01 2.254509513467e+01 0.0 
2.254509513467e+01 -1.906512559130e+02 0.0 
0.0 0.0 -7.399489888145e+01 
-6.788379025899e+01 6.323810698343e+00 0.0 
6.323810698343e+00 -2.321315288228e+02 0.0 
0.0 0.0 -8.960459572452e+01 
-3.060565005891e+01 -1.013712972239e+01 0.0 
-1.013712972239e+01 -1.398861873262e+02 0.0 
0.0 0.0 -5.038801592688e+01 
-6.086031405900e+01 9.726321292860e+00 0.0 
9.726321292860e+00 -2.217127259982e+02 0.0 
0.0 0.0 -8.437191201716e+01 
-8.404010152892e+01 1.056887063913e+01 0.0 
1.056887063913e+01 -1.642122187842e+02 0.0 
0.0 0.0 -7.407569609393e+01 
-1.031152492510e+02 2.988985023820e+01 0.0 
2.988985023820e+01 -2.209512660124e+02 0.0 
0.0 0.0 -9.681995457904e+01 
-1.208595600064e+02 8.034049288565e-01 0.0 
8.034049288565e-01 -3.109430853431e+02 0.0 
0.0 0.0 -1.291407936048e+02 
-1.211729177206e+02 2.342092426498e+01 0.0 
2.342092426498e+01 -3.216359749856e+02 0.0 
0.0 0.0 -1.324426678119e+02 
-6.967109271135e+01 -2.411915142319e+00 0.0 
-2.411915142319e+00 -2.290973400522e+02 0.0 
0.0 0.0 -8.923052982907e+01 
-8.518151867134e+01 1.427441836105e+01 0.0 
1.427441836105e+01 -1.564753357212e+02 0.0 
0.0 0.0 -7.209705631775e+01 
-6.525655965277e+01 7.288912610683e+00 0.0 
7.288912610683e+00 -2.312241383792e+02 0.0 
0.0 0.0 -8.854420940959e+01 
-1.360783746735e+02 1.763019432656e+00 0.0 
1.763019432656e+00 -3.375389391630e+02 0.0 
0.0 0.0 -1.416851941510e+02 
-8.069059614817e+01 1.153323302459e+01 0.0 
1.153323302459e+01 -1.440548221244e+02 0.0 
0.0 0.0 -6.702362548176e+01 
-8.790921586101e+01 1.815767069481e+01 0.0 
1.815767069481e+01 -1.500845667489e+02 0.0 
0.0 0.0 -7.099813478297e+01 
-9.185146597457e+01 1.135058034134e+01 0.0 
1.135058034134e+01 -2.809300072596e+02 0.0 
0.0 0.0 -1.114344419702e+02 
-5.699512174153e+01 1.250639079216e+01 0.0 
1.250639079216e+01 -2.112879591224e+02 0.0 
0.0 0.0 -8.008492425917e+01 
-1.059147919432e+02 3.341039294737e+01 0.0 
3.341039294737e+01 -2.564880333773e+02 0.0 
0.0 0.0 -1.083208475961e+02 
-7.771858850325e+01 2.944669685097e+01 0.0 
2.944669685097e+01 -1.651496325843e+02 0.0 
0.0 0.0 -7.246046632627e+01 
-3.667390386151e+01 -1.459984338946e+01 0.0 
-1.459984338946e+01 -1.419575146619e+02 0.0 
0.0 0.0 -5.317555153959e+01 
-3.117090166956e+01 3.874866730571e+00 0.0 
3.874866730571e+00 -1.499929367726e+02 0.0 
0.0 0.0 -5.380493788460e+01 
-4.769279668210e+01 2.652959039437e+01 0.0 
2.652959039437e+01 -1.410548090114e+02 0.0 
0.0 0.0 -5.622428170806e+01 
-6.984903819949e+01 2.897322077410e+01 0.0 
2.897322077410e+01 -1.798622441838e+02 0.0 
0.0 0.0 -7.451338471498e+01 
-1.412624331288e+02 1.520085510510e+00 0.0 
1.520085510510e+00 -3.455807267210e+02 0.0 
0.0 0.0 -1.456529479550e+02 
-8.344466468569e+01 1.513680712154e+01 0.0 
1.513680712154e+01 -1.370868133655e+02 0.0 
0.0 0.0 -6.575944341536e+01 
-5.797923571714e+01 1.110922772697e+01 0.0 
1.110922772697e+01 -2.113988158925e+02 0.0 
0.0 0.0 -8.041341548289e+01 
-8.085570234572e+01 3.132485307775e+01 0.0 
3.132485307775e+01 -1.997605271471e+02 0.0 
0.0 0.0 -8.378486884785e+01 
-1.125008243066e+02 1.429719869812e+01 0.0 
1.429719869812e+01 -3.153016790428e+02 0.0 
0.0 0.0 -1.279407510048e+02 
-8.388129384535e+01 1.065287252207e+01 0.0 
1.065287252207e+01 -1.553598354538e+02 0.0 
0.0 0.0 -7.137233878973e+01 
-1.094002482472e+02 3.456741588972e+01 0.0 
3.456741588972e+01 -2.587157495257e+02 0.0 
0.0 0.0 -1.100347993319e+02 
-6.978856169903e+01 1.009076970092e+01 0.0 
1.009076970092e+01 -1.036174870651e+02 0.0 
0.0 0.0 -5.162181462925e+01 
-1.210628629546e+02 9.604883661184e+00 0.0 
9.604883661184e+00 -3.274923057046e+02 0.0 
0.0 0.0 -1.341665505978e+02 
-7.079594123097e+01 9.896049715156e+00 0.0 
9.896049715156e+00 -2.383542746141e+02 0.0 
0.0 0.0 -9.234506475351e+01 
-1.148100089551e+02 1.482364579774e+01 0.0 
1.482364579774e+01 -3.163567869267e+02 0.0 
0.0 0.0 -1.289500387645e+02 
-6.551426277198e+01 2.606733652192e+01 0.0 
2.606733652192e+01 -1.942770208547e+02 0.0 
0.0 0.0 -7.753738508800e+01 
-9.173257753446e+01 1.545702021884e+01 0.0 
1.545702021884e+01 -1.774867703778e+02 0.0 
0.0 0.0 -8.036580437367e+01 
-1.140057351094e+02 3.610119858176e+01 0.0 
3.610119858176e+01 -2.628625429780e+02 0.0 
0.0 0.0 -1.126604834262e+02 
-8.241221292099e+01 9.941504786574e+00 0.0 
9.941504786574e+00 -2.640419210623e+02 0.0 
0.0 0.0 -1.035362401950e+02 
-2.953560017901e+01 2.880629110851e+00 0.0 
2.880629110851e+00 -1.471089092641e+02 0.0 
0.0 0.0 -5.245814063272e+01 
-1.070072196474e+02 2.816693445515e+01 0.0 
2.816693445515e+01 -2.828902785694e+02 0.0 
0.0 0.0 -1.165692494650e+02 
-7.234831203333e+01 2.663418026034e+01 0.0 
2.663418026034e+01 -2.117309374823e+02 0.0 
0.0 0.0 -8.482377485469e+01 
-5.377849375048e+01 1.406163519831e+01 0.0 
1.406163519831e+01 -1.994599622177e+02 0.0 
0.0 0.0 -7.557153679044e+01 
-8.854592537983e+01 1.288214503115e+01 0.0 
1.288214503115e+01 -2.715998522771e+02 0.0 
0.0 0.0 -1.076437332971e+02 
-1.191406976244e+02 8.024941597101e+00 0.0 
8.024941597101e+00 -3.196467332165e+02 0.0 
0.0 0.0 -1.312362292523e+02 
-3.101144058574e+01 -3.118373686586e+00 0.0 
-3.118373686586e+00 -1.462999818822e+02 0.0 
0.0 0.0 -5.247606469346e+01 
-7.355342190709e+01 8.587749438980e+00 0.0 
8.587749438980e+00 -2.474591359287e+02 0.0 
0.0 0.0 -9.590376735075e+01 
-8.103219797711e+01 2.667708473852e+01 0.0 
2.667708473852e+01 -1.507213678793e+02 0.0 
0.0 0.0 -6.912606975691e+01 
-1.425016044391e+02 2.999690694634e+00 0.0 
2.999690694634e+00 -3.464032727186e+02 0.0 
0.0 0.0 -1.462714631473e+02 
-8.470427859346e+01 2.836755205892e+01 0.0 
2.836755205892e+01 -1.688686056978e+02 0.0 
0.0 0.0 -7.567186528737e+01 
-1.019008367059e+02 2.893711421370e+01 0.0 
2.893711421370e+01 -2.676642803822e+02 0.0 
0.0 0.0 -1.104695351264e+02 
-7.716790223201e+01 2.447223538902e+01 0.0 
2.447223538902e+01 -1.325082668869e+02 0.0 
0.0 0.0 -6.250285073568e+01 
-6.769568064079e+01 1.790475048533e+01 0.0 
1.790475048533e+01 -9.626177110226e+01 0.0 
0.0 0.0 -4.878723552292e+01 
-8.127491709993e+01 2.997708185373e+01 0.0 
2.997708185373e+01 -1.833183236479e+02 0.0 
0.0 0.0 -7.897797222434e+01 
-1.161259083634e+02 2.082724245493e+01 0.0 
2.082724245493e+01 -3.165172452761e+02 0.0 
0.0 0.0 -1.293929460918e+02 
-1.275121430068e+02 3.396146896450e+00 0.0 
3.396146896450e+00 -3.232345477303e+02 0.0 
0.0 0.0 -1.348240072211e+02 
-7.725729391635e+01 1.268223348919e+01 0.0 
1.268223348919e+01 -1.257806720219e+02 0.0 
0.0 0.0 -6.051138978148e+01 
-9.455904967032e+01 1.945708399049e+01 0.0 
1.945708399049e+01 -1.917447012820e+02 0.0 
0.0 0.0 -8.549112528570e+01 
-7.296446493982e+01 2.159684071827e+01 0.0 
2.159684071827e+01 -1.143778437144e+02 0.0 
0.0 0.0 -5.580269259627e+01 
-4.412864860952e+01 9.753368177982e+00 0.0 
9.753368177982e+00 -1.806031502023e+02 0.0 
0.0 0.0 -6.701953964356e+01 
-1.127019188910e+02 3.133454805573e+01 0.0 
3.133454805573e+01 -2.866817942609e+02 0.0 
0.0 0.0 -1.194151139456e+02 
-8.949384944327e+01 1.244628540903e+01 0.0 
1.244628540903e+01 -1.766440528265e+02 0.0 
0.0 0.0 -7.944137068093e+01 
-6.486910261583e+01 2.278598147232e+01 0.0 
2.278598147232e+01 -2.077876826929e+02 0.0 
0.0 0.0 -8.139703559263e+01 
-6.877488691831e+01 2.456876250784e+01 0.0 
2.456876250784e+01 -2.098922974555e+02 0.0 
0.0 0.0 -8.320015531215e+01 
-5.077153468539e+01 1.030673821615e+01 0.0 
1.030673821615e+01 -1.957776849061e+02 0.0 
0.0 0.0 -7.356476587745e+01 
-8.206941753061e+01 1.582906060944e+01 0.0 
1.582906060944e+01 -1.395137346970e+02 0.0 
0.0 0.0 -6.607494566829e+01 
-5.059282265054e+01 2.846793915327e+01 0.0 
2.846793915327e+01 -1.240412251480e+02 0.0 
0.0 0.0 -5.199021433958e+01 
-8.031993717212e+01 2.316348517819e+01 0.0 
2.316348517819e+01 -2.416357933640e+02 0.0 
0.0 0.0 -9.618671916084e+01 
-5.066442636310e+01 2.959406131550e+01 0.0 
2.959406131550e+01 -1.242908426573e+02 0.0 
0.0 0.0 -5.208658070612e+01 
-1.052778829394e+02 1.958680402753e+01 0.0 
1.958680402753e+01 -2.991783270179e+02 0.0 
0.0 0.0 -1.209368629872e+02 
-1.229691482912e+02 3.259296963107e+01 0.0 
3.259296963107e+01 -3.044238112325e+02 0.0 
0.0 0.0 -1.278178878571e+02 
-5.520442012059e+01 7.222595545498e+00 0.0 
7.222595545498e+00 -2.065266749989e+02 0.0 
0.0 0.0 -7.811932853586e+01 
-2.722936093961e+01 -6.793026793001e+00 0.0 
-6.793026793001e+00 -1.260877121641e+02 0.0 
0.0 0.0 -4.718896440605e+01 
-9.722629486792e+01 2.330197973700e+01 0.0 
2.330197973700e+01 -1.985596371096e+02 0.0 
0.0 0.0 -8.833577959326e+01 
-5.352335868579e+01 2.878359454462e+01 0.0 
2.878359454462e+01 -1.242418554013e+02 0.0 
0.0 0.0 -5.292956422613e+01 
-7.228862307804e+01 5.469429257448e-01 0.0 
5.469429257448e-01 -2.391390700673e+02 0.0 
0.0 0.0 -9.302830794361e+01 
-1.170099973974e+02 2.947091388964e+01 0.0 
2.947091388964e+01 -3.011940794084e+02 0.0 
0.0 0.0 -1.250612230417e+02 
-8.156441475073e+01 1.609717176947e+01 0.0 
1.609717176947e+01 -1.281949016547e+02 0.0 
0.0 0.0 -6.252779492163e+01 
-1.222001866881e+02 3.478498631291e+00 0.0 
3.478498631291e+00 -3.155562065741e+02 0.0 
0.0 0.0 -1.309269179787e+02 
-5.371282454061e+01 2.007174966619e+01 0.0 
2.007174966619e+01 -1.886660958502e+02 0.0 
0.0 0.0 -7.231367611725e+01 
-2.619528922625e+01 -3.752387212817e+00 0.0 
-3.752387212817e+00 -1.242888598134e+02 0.0 
0.0 0.0 -4.726376253822e+01 
-1.473194470095e+02 2.809433348489e+00 0.0 
2.809433348489e+00 -3.553933162577e+02 0.0 
0.0 0.0 -1.504138289802e+02 
-7.322517618626e+01 2.831098403142e+01 0.0 
2.831098403142e+01 -1.969977458410e+02 0.0 
0.0 0.0 -8.066687660817e+01 
-9.540750321982e+01 2.289125795900e+01 0.0 
2.289125795900e+01 -2.738056180794e+02 0.0 
0.0 0.0 -1.103639363898e+02 
-1.099520753462e+02 3.206137591286e+01 0.0 
3.206137591286e+01 -2.728262382269e+02 0.0 
0.0 0.0 -1.144334940719e+02 
-4.133599758632e+01 -9.670190692360e-01 0.0 
-9.670190692360e-01 -1.239218896674e+02 0.0 
0.0 0.0 -5.143084040080e+01 
-1.195658705242e+02 2.271974535460e+00 0.0 
2.271974535460e+00 -3.141727928194e+02 0.0 
0.0 0.0 -1.297215990031e+02 
-3.729338121800e+01 2.181851863853e+01 0.0 
2.181851863853e+01 -1.384676142447e+02 0.0 
0.0 0.0 -5.232829863881e+01 
-7.478777030290e+01 1.378262391369e+01 0.0 
1.378262391369e+01 -1.063436795775e+02 0.0 
0.0 0.0 -5.393943496413e+01 
-9.677072866321e+01 -1.870109499655e+00 0.0 
-1.870109499655e+00 -2.552963185843e+02 0.0 
0.0 0.0 -1.052201141743e+02 
-5.356106846927e+01 8.948428010736e+00 0.0 
8.948428010736e+00 -2.062414759172e+02 0.0 
0.0 0.0 -7.754076331594e+01 
-1.376075354386e+02 3.142375296270e+00 0.0 
3.142375296270e+00 -3.384914893662e+02 0.0 
0.0 0.0 -1.424297074414e+02 
-7.639493728840e+01 2.471792662545e+01 0.0 
2.471792662545e+01 -2.271464222753e+02 0.0 
0.0 0.0 -9.066240786911e+01 
-4.688669125418e+01 8.401262084280e+00 0.0 
8.401262084280e+00 -1.913136379276e+02 0.0 
0.0 0.0 -7.106009875454e+01 
-7.682289121104e+01 3.044145277545e+01 0.0 
3.044145277545e+01 -1.984242047011e+02 0.0 
0.0 0.0 -8.217412877363e+01 
-3.214581223500e+01 -1.958073071853e+01 0.0 
-1.958073071853e+01 -1.211456161479e+02 0.0 
0.0 0.0 -4.709577514802e+01 
-9.322713284249e+01 3.140521436505e+01 0.0 
3.140521436505e+01 -2.358096909649e+02 0.0 
0.0 0.0 -9.831104714221e+01 
-1.069052693286e+02 2.016344568427e+01 0.0 
2.016344568427e+01 -2.999919366617e+02 0.0 
0.0 0.0 -1.216691617971e+02 
-1.154216053953e+02 3.553336884650e+01 0.0 
3.553336884650e+01 -2.625714556711e+02 0.0 
0.0 0.0 -1.129979183199e+02 
-1.020953914944e+02 3.225381254958e+01 0.0 
3.225381254958e+01 -2.546691973063e+02 0.0 
0.0 0.0 -1.066293766402e+02 
-3.597359331488e+01 4.312076184623e+00 0.0 
4.312076184623e+00 -1.629400392397e+02 0.0 
0.0 0.0 -5.927408976637e+01 
-1.231669619732e+02 2.176215184115e+00 0.0 
2.176215184115e+00 -3.122297092875e+02 0.0 
0.0 0.0 -1.302190013782e+02 
-8.936226974453e+01 1.246156594128e+01 0.0 
1.246156594128e+01 -1.854239255027e+02 0.0 
0.0 0.0 -8.203585857417e+01 
-1.398496216102e+02 2.868485425005e+01 0.0 
2.868485425005e+01 -3.442029105982e+02 0.0 
0.0 0.0 -1.448157596625e+02 
-1.116210617993e+02 2.289400402504e+01 0.0 
2.289400402504e+01 -3.050064917501e+02 0.0 
0.0 0.0 -1.245882660648e+02 
-5.711929055164e+01 1.733412777573e+01 0.0 
1.733412777573e+01 -2.025487890784e+02 0.0 
0.0 0.0 -7.750042388901e+01 
-8.478046216073e+01 3.082503083512e+01 0.0 
3.082503083512e+01 -2.170169645875e+02 0.0 
0.0 0.0 -9.013922802446e+01 
-1.409443324424e+02 6.002398820225e-01 0.0 
6.002398820225e-01 -3.422081562114e+02 0.0 
0.0 0.0 -1.445457465961e+02 
-9.303065387808e+01 -2.444969016800e-01 0.0 
-2.444969016800e-01 -2.319102888133e+02 0.0 
0.0 0.0 -9.708228280743e+01 
-9.723872653182e+01 2.949621140182e+01 0.0 
2.949621140182e+01 -2.518579334355e+02 0.0 
0.0 0.0 -1.043289979902e+02 
-7.204037555251e+01 9.554274213592e+00 0.0 
9.554274213592e+00 -1.128473205558e+02 0.0 
0.0 0.0 -5.506630883249e+01 
-1.326397982908e+02 3.291748572131e+00 0.0 
3.291748572131e+00 -3.308358307717e+02 0.0 
0.0 0.0 -1.386426887187e+02 
-1.264949280211e+02 5.098319204357e+00 0.0 
5.098319204357e+00 -3.261226742736e+02 0.0 
0.0 0.0 -1.353852806884e+02 
-2.955175713347e+01 8.614885366602e-02 0.0 
8.614885366602e-02 -2.772447880587e+01 0.0 
0.0 0.0 -1.678287078180e+01 
-2.947115421237e+01 -9.999116538915e-02 0.0 
-9.999116538915e-02 -2.762186339779e+01 0.0 
0.0 0.0 -1.672790528305e+01 
-8.550608377842e+01 2.890775280244e+01 0.0 
2.890775280244e+01 -1.554438858414e+02 0.0 
0.0 0.0 -7.188499088594e+01 
-8.883608090406e+01 2.887947447165e+01 0.0 
2.887947447165e+01 -2.334537537052e+02 0.0 
0.0 0.0 -9.628695038278e+01 
-1.014348670043e+02 -1.235638820276e+00 0.0 
-1.235638820276e+00 -2.627468684795e+02 0.0 
0.0 0.0 -1.088545206451e+02 
-8.510772852485e+01 3.215239331806e+01 0.0 
3.215239331806e+01 -1.853803149770e+02 0.0 
0.0 0.0 -8.074641305056e+01 
-7.229734357564e+01 2.285826574554e+01 0.0 
2.285826574554e+01 -2.246331913329e+02 0.0 
0.0 0.0 -8.867916047257e+01 
-1.303156418611e+02 1.465587541174e+01 0.0 
1.465587541174e+01 -3.417080560022e+02 0.0 
0.0 0.0 -1.412071093590e+02 
-5.731857727569e+01 1.830783656563e+01 0.0 
1.830783656563e+01 -2.028417112273e+02 0.0 
0.0 0.0 -7.764808655090e+01 
-1.035210170622e+02 2.239172954119e+01 0.0 
2.239172954119e+01 -2.297299271473e+02 0.0 
0.0 0.0 -9.957528326284e+01 
-6.066434774627e+01 1.620210372191e+01 0.0 
1.620210372191e+01 -7.398155035442e+01 0.0 
0.0 0.0 -3.999376943021e+01 
-6.837227385261e+01 2.479045015095e+01 0.0 
2.479045015095e+01 -2.097701391378e+02 0.0 
0.0 0.0 -8.304272389711e+01 
-9.369047952144e+01 -3.354724353521e+00 0.0 
-3.354724353521e+00 -2.536496279390e+02 0.0 
0.0 0.0 -1.038020322381e+02 
-3.269094788284e+01 9.839658340638e+00 0.0 
9.839658340638e+00 -1.518759200012e+02 0.0 
0.0 0.0 -5.497006036521e+01 
-8.413425691932e+01 -4.191743431797e+00 0.0 
-4.191743431797e+00 -2.287108790011e+02 0.0 
0.0 0.0 -9.345354077612e+01 
-8.080264187086e+01 2.851052579142e+01 0.0 
2.851052579142e+01 -2.151619504219e+02 0.0 
0.0 0.0 -8.838937768784e+01 
-7.364091555864e+01 2.955509382755e+01 0.0 
2.955509382755e+01 -1.808703237891e+02 0.0 
0.0 0.0 -7.595337180433e+01 
-7.533254849458e+01 1.355681805211e+01 0.0 
1.355681805211e+01 -1.173562271530e+02 0.0 
0.0 0.0 -5.740663269427e+01 
-8.860640756756e+01 3.045847039132e+01 0.0 
3.045847039132e+01 -2.027269334733e+02 0.0 
0.0 0.0 -8.700000231225e+01 
-9.271786475478e+01 3.270947349996e+01 0.0 
3.270947349996e+01 -2.052371746608e+02 0.0 
0.0 0.0 -8.898651182467e+01 
-1.956520242566e+01 -3.399531324079e-01 0.0 
-3.399531324079e-01 -5.935574145058e+01 0.0 
0.0 0.0 -2.327628316287e+01 
-7.779536805636e+01 -6.343177647147e+00 0.0 
-6.343177647147e+00 -2.147132756774e+02 0.0 
0.0 0.0 -8.735259312013e+01 
-5.347309912420e+01 3.022325690038e+01 0.0 
3.022325690038e+01 -1.244606260174e+02 0.0 
0.0 0.0 -5.298011754249e+01 
-8.129287184286e+01 2.900643587978e+01 0.0 
2.900643587978e+01 -1.667109367519e+02 0.0 
0.0 0.0 -7.400114257841e+01 
-8.534973132172e+01 3.121910951274e+01 0.0 
3.121910951274e+01 -1.699528810779e+02 0.0 
0.0 0.0 -7.619078371989e+01 
-1.222779883805e+02 1.952557319302e+01 0.0 
1.952557319302e+01 -3.276604959220e+02 0.0 
0.0 0.0 -1.345815452908e+02 
-3.375829333560e+01 -1.190616304564e+00 0.0 
-1.190616304564e+00 -8.971583518694e+01 0.0 
0.0 0.0 -3.664223855676e+01 
-3.192615825859e+01 -1.063658104698e+01 0.0 
-1.063658104698e+01 -1.395020662665e+02 0.0 
0.0 0.0 -5.144512065723e+01 
-6.933586381041e+01 2.729418052277e+01 0.0 
2.729418052277e+01 -1.956719554428e+02 0.0 
0.0 0.0 -7.910234577595e+01 
-8.095297609903e+01 -4.696758075060e+00 0.0 
-4.696758075060e+00 -2.164073398328e+02 0.0 
0.0 0.0 -8.880809477954e+01 
-4.651169163601e+01 2.069645956183e+01 0.0 
2.069645956183e+01 -2.516738403882e+01 0.0 
0.0 0.0 -2.110372270245e+01 
-4.895959988812e+01 1.646843967837e+01 0.0 
1.646843967837e+01 -3.097397607516e+01 0.0 
0.0 0.0 -2.358007278898e+01 
-7.942640778129e+01 1.730727183093e+01 0.0 
1.730727183093e+01 -1.197284831624e+02 0.0 
0.0 0.0 -5.934646728311e+01 
-3.065052064222e+01 2.250777608194e+01 0.0 
2.250777608194e+01 -1.070440016166e+02 0.0 
0.0 0.0 -4.080540216078e+01 
-9.042614737817e+01 -4.104588990673e+00 0.0 
-4.104588990673e+00 -2.419045672481e+02 0.0 
0.0 0.0 -9.929921438787e+01 
-1.105749964906e+02 1.208102240548e+01 0.0 
1.208102240548e+01 -3.091597290258e+02 0.0 
0.0 0.0 -1.255204176549e+02 
-2.824401104541e+01 -4.300796070250e+00 0.0 
-4.300796070250e+00 -1.396484159393e+02 0.0 
0.0 0.0 -5.107262538391e+01 
-1.309183132037e+02 3.475597894277e+01 0.0 
3.475597894277e+01 -3.125773332536e+02 0.0 
0.0 0.0 -1.326486939372e+02 
-9.041889414770e+01 1.616449678908e+01 0.0 
1.616449678908e+01 -1.675091871883e+02 0.0 
0.0 0.0 -7.697842440081e+01 
-8.950919040653e+01 -2.773384506991e+00 0.0 
-2.773384506991e+00 -2.313868736958e+02 0.0 
0.0 0.0 -9.586881923071e+01 
-1.261977316157e+02 8.122015095759e-01 0.0 
8.122015095759e-01 -3.187168093418e+02 0.0 
0.0 0.0 -1.330743622872e+02 
-1.335861188099e+01 -1.034091445643e+00 0.0 
-1.034091445643e+00 -4.252518050834e+01 0.0 
0.0 0.0 -1.636513771680e+01 
-1.065292511276e+02 9.323954766956e+00 0.0 
9.323954766956e+00 -3.012383198079e+02 0.0 
0.0 0.0 -1.219302712806e+02 
-7.277468468065e+01 2.933324352638e+01 0.0 
2.933324352638e+01 -1.970206009491e+02 0.0 
0.0 0.0 -8.053858568892e+01 
-1.297102635004e+01 -8.429247782904e-01 0.0 
-8.429247782904e-01 -4.239293989912e+01 0.0 
0.0 0.0 -1.620918987475e+01 
-8.639229430810e+01 1.370365015094e+01 0.0 
1.370365015094e+01 -1.654767420295e+02 0.0 
0.0 0.0 -7.516071090128e+01 
-2.837215342669e+01 -4.467142542062e+00 0.0 
-4.467142542062e+00 -1.350002336869e+02 0.0 
0.0 0.0 -4.980559033551e+01 
-8.148558619387e+01 3.156752466143e+01 0.0 
3.156752466143e+01 -1.673529780866e+02 0.0 
0.0 0.0 -7.425156928414e+01 
-7.325948795578e+01 3.102222986790e+01 0.0 
3.102222986790e+01 -1.809911405878e+02 0.0 
0.0 0.0 -7.587518856307e+01 
-7.086406103444e+01 1.239728574683e+00 0.0 
1.239728574683e+00 -2.331114771427e+02 0.0 
0.0 0.0 -9.079266145315e+01 
-9.222005277746e+01 1.194248318934e+00 0.0 
1.194248318934e+00 -2.720844427319e+02 0.0 
0.0 0.0 -1.088913486528e+02 
-9.036459498061e+01 1.647000795164e+01 0.0 
1.647000795164e+01 -1.779429195371e+02 0.0 
0.0 0.0 -8.009225435530e+01 
-1.017003489849e+02 3.085057267851e+00 0.0 
3.085057267851e+00 -2.902794287785e+02 0.0 
0.0 0.0 -1.171939333290e+02 
-7.274973949080e+01 2.609377388174e+01 0.0 
2.609377388174e+01 -2.117838559334e+02 0.0 
0.0 0.0 -8.496007862727e+01 
-6.879046599340e+01 2.801109710711e+01 0.0 
2.801109710711e+01 -1.955918820625e+02 0.0 
0.0 0.0 -7.891470441676e+01 
-4.201820281932e+01 3.026177054632e+01 0.0 
3.026177054632e+01 -2.924181400627e+01 0.0 
0.0 0.0 -2.084648463628e+01 
-2.628995400201e+01 -4.457898878113e+00 0.0 
-4.457898878113e+00 -1.301212443273e+02 0.0 
0.0 0.0 -4.825303310182e+01 
-1.070796370700e+02 3.183824722914e+01 0.0 
3.183824722914e+01 -2.709206441370e+02 0.0 
0.0 0.0 -1.130000843621e+02 
-7.404981334222e+01 2.083588861919e+01 0.0 
2.083588861919e+01 -1.046087625591e+02 0.0 
0.0 0.0 -5.319757277040e+01 
-1.110063825531e+02 3.017126538073e+01 0.0 
3.017126538073e+01 -2.856639021956e+02 0.0 
0.0 0.0 -1.186010854246e+02 
-3.996214099978e+01 2.337068941214e+01 0.0 
2.337068941214e+01 -1.399355023667e+02 0.0 
0.0 0.0 -5.356929300995e+01 
-9.276959628168e+01 2.571609039314e+01 0.0 
2.571609039314e+01 -1.805715182469e+02 0.0 
0.0 0.0 -8.160233435856e+01 
-1.112371128433e+02 3.349224838523e+01 0.0 
3.349224838523e+01 -2.735245646642e+02 0.0 
0.0 0.0 -1.150285032522e+02 
-4.980172265276e+01 1.618733899859e+01 0.0 
1.618733899859e+01 -4.659937659882e+01 0.0 
0.0 0.0 -2.852032977547e+01 
-1.060502812664e+02 3.037103523830e+01 0.0 
3.037103523830e+01 -2.701194326841e+02 0.0 
0.0 0.0 -1.124509141851e+02 
-1.281311583013e+02 2.235021802348e+00 0.0 
2.235021802348e+00 -3.198578972736e+02 0.0 
0.0 0.0 -1.339967166725e+02 
-8.465353586437e+01 2.765951944943e+01 0.0 
2.765951944943e+01 -2.314060238108e+02 0.0 
0.0 0.0 -9.441786790254e+01 
-8.552672890087e+01 -4.862172664849e+00 0.0 
-4.862172664849e+00 -2.342975526920e+02 0.0 
0.0 0.0 -9.554728447785e+01 
-9.201161869776e+01 -2.558607218207e+00 0.0 
-2.558607218207e+00 -2.479385718705e+02 0.0 
0.0 0.0 -1.015850571705e+02 
-1.016576421762e+02 2.644545051716e+01 0.0 
2.644545051716e+01 -2.017517560012e+02 0.0 
0.0 0.0 -9.062281945321e+01 
-8.338368506408e+01 -7.968202296543e-01 0.0 
-7.968202296543e-01 -2.540549179943e+02 0.0 
0.0 0.0 -1.008315809175e+02 
-7.715759572648e+01 2.915268067153e+01 0.0 
2.915268067153e+01 -1.983144093554e+02 0.0 
0.0 0.0 -8.224160152455e+01 
-7.216802472596e+01 1.875573676869e+01 0.0 
1.875573676869e+01 -2.353833473368e+02 0.0 
0.0 0.0 -9.186541161882e+01 
-1.118985240987e+02 4.875298954196e+00 0.0 
4.875298954196e+00 -3.085838974662e+02 0.0 
0.0 0.0 -1.257447264695e+02 
-6.445683029354e+01 2.263742721783e+01 0.0 
2.263742721783e+01 -2.075817613815e+02 0.0 
0.0 0.0 -8.121157750252e+01 
-3.806359108971e+01 3.320880870597e+00 0.0 
3.320880870597e+00 -1.716148716288e+02 0.0 
0.0 0.0 -6.250353881556e+01 
-7.868023106791e+01 6.830281502628e+00 0.0 
6.830281502628e+00 -2.565872993263e+02 0.0 
0.0 0.0 -1.001802591183e+02 
-4.092358318154e+01 8.157356138502e+00 0.0 
8.157356138502e+00 -1.770793180473e+02 0.0 
0.0 0.0 -6.500087036864e+01 
-8.486546676018e+01 2.993751009308e+01 0.0 
2.993751009308e+01 -1.848253392534e+02 0.0 
0.0 0.0 -8.050724180408e+01 
-4.185636144884e+01 5.061945820309e+00 0.0 
5.061945820309e+00 -1.767858015600e+02 0.0 
0.0 0.0 -6.519264890266e+01 
-8.122540226798e+01 3.205072509384e+01 0.0 
3.205072509384e+01 -1.837003542500e+02 0.0 
0.0 0.0 -7.907772695541e+01 
-1.177670173470e+02 2.161937869240e+01 0.0 
2.161937869240e+01 -3.173871794973e+02 0.0 
0.0 0.0 -1.301462590533e+02 
-1.111638005791e+02 1.821033470963e+01 0.0 
1.821033470963e+01 -3.108724835351e+02 0.0 
0.0 0.0 -1.262108852343e+02 
-6.104283045218e+01 2.072378171704e+01 0.0 
2.072378171704e+01 -2.054734585238e+02 0.0 
0.0 0.0 -7.955488669279e+01 
-7.319331495120e+01 1.467008052609e+01 0.0 
1.467008052609e+01 -1.096625650892e+02 0.0 
0.0 0.0 -5.445676401211e+01 
-1.313889917778e+02 7.799787111036e-01 0.0 
7.799787111036e-01 -3.265665636138e+02 0.0 
0.0 0.0 -1.369866666175e+02 
-1.329445085664e+02 2.236054838702e+00 0.0 
2.236054838702e+00 -3.275600364158e+02 0.0 
0.0 0.0 -1.377513634947e+02 
-3.411596767190e+01 2.548703583352e+01 0.0 
2.548703583352e+01 -9.046266140527e+01 0.0 
0.0 0.0 -3.645635670959e+01 
-8.484299718201e+01 3.020822545091e+01 0.0 
3.020822545091e+01 -2.009840485025e+02 0.0 
0.0 0.0 -8.534811370534e+01 
-1.467706875827e+02 1.077531611500e+00 0.0 
1.077531611500e+00 -3.545983294302e+02 0.0 
0.0 0.0 -1.500107051039e+02 
-3.997132047776e+01 2.648348971291e+01 0.0 
2.648348971291e+01 -6.657411114630e+01 0.0 
0.0 0.0 -3.156362948722e+01 
-9.757737031454e+01 -1.724856458527e+00 0.0 
-1.724856458527e+00 -2.508869908608e+02 0.0 
0.0 0.0 -1.041393083526e+02 
-4.479156447622e+01 2.993310106182e+01 0.0 
2.993310106182e+01 -2.968823313603e+01 0.0 
0.0 0.0 -2.119408249389e+01 
-1.363860152878e+02 7.051725301580e-01 0.0 
7.051725301580e-01 -3.344664924870e+02 0.0 
0.0 0.0 -1.408557523325e+02 
-3.577357582383e+01 8.340550183315e+00 0.0 
8.340550183315e+00 -1.637458229215e+02 0.0 
0.0 0.0 -5.945581962361e+01 
-9.549434283063e+01 -1.434625793046e+00 0.0 
-1.434625793046e+00 -2.377049284842e+02 0.0 
0.0 0.0 -9.955978139446e+01 
-9.389732286914e+01 2.231057057259e+01 0.0 
2.231057057259e+01 -2.730635917903e+02 0.0 
0.0 0.0 -1.096882743978e+02 
-7.722997966903e+01 1.872150395940e+01 0.0 
1.872150395940e+01 -1.121315867491e+02 0.0 
0.0 0.0 -5.640846992543e+01 
-7.145703949500e+01 1.629723280903e+01 0.0 
1.629723280903e+01 -1.026606905372e+02 0.0 
0.0 0.0 -5.183531900967e+01 
-7.675858315522e+01 2.740766548700e+01 0.0 
2.740766548700e+01 -2.135038220311e+02 0.0 
0.0 0.0 -8.667872155589e+01 
-3.853183335386e+01 2.466359175297e+01 0.0 
2.466359175297e+01 -2.566808650655e+01 0.0 
0.0 0.0 -1.885997595812e+01 
-4.093533046117e+01 2.440981886401e+01 0.0 
2.440981886401e+01 -2.361554530754e+01 0.0 
0.0 0.0 -1.896526273061e+01 
-1.375232829116e+02 2.134983554102e+00 0.0 
2.134983554102e+00 -3.352838730828e+02 0.0 
0.0 0.0 -1.414421467983e+02 
-9.931936438383e+01 4.193343557193e+00 0.0 
4.193343557193e+00 -2.835890478507e+02 0.0 
0.0 0.0 -1.144725236704e+02 
-7.888491025945e+01 3.354435643925e+00 0.0 
3.354435643925e+00 -2.497341176889e+02 0.0 
0.0 0.0 -9.818570838450e+01 
-1.034785957898e+02 8.808997595298e+00 0.0 
8.808997595298e+00 -2.998487584860e+02 0.0 
0.0 0.0 -1.205982062827e+02 
-7.010803536268e+01 5.270541439845e+00 0.0 
5.270541439845e+00 -2.400376460285e+02 0.0 
0.0 0.0 -9.264370441736e+01 
-3.807637311470e+01 9.535291363407e+00 0.0 
9.535291363407e+00 -1.659652955207e+02 0.0 
0.0 0.0 -6.081250059063e+01 
-3.568486824027e+01 2.080242546270e+01 0.0 
2.080242546270e+01 -2.321100852987e+01 0.0 
0.0 0.0 -1.726876303104e+01 
-6.638245814441e+01 1.874938506917e+01 0.0 
1.874938506917e+01 -8.223526634816e+01 0.0 
0.0 0.0 -4.418531734777e+01 
-2.964253169107e+01 1.938050749606e-02 0.0 
1.938050749606e-02 -2.786853003688e+01 0.0 
0.0 0.0 -1.685331851838e+01 
-1.129552572881e+02 1.884770985570e+01 0.0 
1.884770985570e+01 -3.117621511888e+02 0.0 
0.0 0.0 -1.270152225431e+02 
-6.069700058667e+01 2.016410697422e+01 0.0 
2.016410697422e+01 -2.052105999235e+02 0.0 
0.0 0.0 -7.937228015305e+01 
-1.325669435478e+02 2.494889623817e+01 0.0 
2.494889623817e+01 -3.389073166898e+02 0.0 
0.0 0.0 -1.410422780713e+02 
-1.362574241682e+02 -5.953330375566e-01 0.0 
-5.953330375566e-01 -3.293741467080e+02 0.0 
0.0 0.0 -1.392894712629e+02 
-7.614832911465e+01 8.032854975476e+00 0.0 
8.032854975476e+00 -2.484328248225e+02 0.0 
0.0 0.0 -9.697434618114e+01 
-1.527004823315e+02 3.538093334040e+00 0.0 
3.538093334040e+00 -3.658660973570e+02 0.0 
0.0 0.0 -1.551699739065e+02 
-4.642501949898e+01 1.410048785273e+00 0.0 
1.410048785273e+00 -1.860012896589e+02 0.0 
0.0 0.0 -6.932789274737e+01 
-1.256224665795e+02 2.597012300462e+01 0.0 
2.597012300462e+01 -3.257394836919e+02 0.0 
0.0 0.0 -1.350085850814e+02 
-7.643386026839e+01 2.824307197733e+01 0.0 
2.824307197733e+01 -2.135461660258e+02 0.0 
0.0 0.0 -8.659400788825e+01 
-8.877278246901e+01 2.662769095573e+01 0.0 
2.662769095573e+01 -2.469766640050e+02 0.0 
0.0 0.0 -1.003248339422e+02 
-1.280491533879e+02 1.287192872960e+01 0.0 
1.287192872960e+01 -3.365762489666e+02 0.0 
0.0 0.0 -1.389876207063e+02 
-6.572281552427e+01 -8.601749386648e+00 0.0 
-8.601749386648e+00 -1.831847316656e+02 0.0 
0.0 0.0 -7.427226415697e+01 
-8.102255661507e+01 2.982186765552e+01 0.0 
2.982186765552e+01 -1.995863898899e+02 0.0 
0.0 0.0 -8.378268395149e+01 
-7.330907532117e+01 4.606705409124e+00 0.0 
4.606705409124e+00 -2.412495095297e+02 0.0 
0.0 0.0 -9.396757545526e+01 
-7.719922866784e+01 3.165227161708e+01 0.0 
3.165227161708e+01 -1.821897579365e+02 0.0 
0.0 0.0 -7.741669598130e+01 
-4.029783343306e+01 2.375467220749e+01 0.0 
2.375467220749e+01 -1.385068421369e+02 0.0 
0.0 0.0 -5.324140267100e+01 
-9.304566680449e+01 2.558423681117e+01 0.0 
2.558423681117e+01 -2.617941730155e+02 0.0 
0.0 0.0 -1.060519519460e+02 
-6.704041013017e+01 1.869131605823e+00 0.0 
1.869131605823e+00 -2.316368703443e+02 0.0 
0.0 0.0 -8.920318414233e+01 
-9.874006079544e+01 -2.786283536053e+00 0.0 
-2.786283536053e+00 -2.612384741554e+02 0.0 
0.0 0.0 -1.075935604853e+02 
-7.747690170849e+01 2.986715402729e+01 0.0 
2.986715402729e+01 -1.819663879690e+02 0.0 
0.0 0.0 -7.743298690324e+01 
-4.560242188057e+01 3.635575384584e+01 0.0 
3.635575384584e+01 -5.624416843490e+01 0.0 
0.0 0.0 -3.028104751167e+01 
-8.060959336396e+01 1.929469566200e+01 0.0 
1.929469566200e+01 -2.522213677098e+02 0.0 
0.0 0.0 -9.944928832211e+01 
-4.156441002058e+01 3.006693611379e+01 0.0 
3.006693611379e+01 -4.929625528029e+01 0.0 
0.0 0.0 -2.533242520496e+01 
-2.524848327668e+01 -4.030925829879e+00 0.0 
-4.030925829879e+00 -6.409964534867e+01 0.0 
0.0 0.0 -2.640443858761e+01 
-9.516902377889e+01 -3.394226397577e+00 0.0 
-3.394226397577e+00 -2.494509320089e+02 0.0 
0.0 0.0 -1.029859867363e+02 
-1.013819449824e+02 3.343901985926e+01 0.0 
3.343901985926e+01 -2.399997199233e+02 0.0 
0.0 0.0 -1.020144994717e+02 
-7.586712211477e+01 1.981146942066e+01 0.0 
1.981146942066e+01 -1.188081940609e+02 0.0 
0.0 0.0 -5.800259485271e+01 
-3.654399342046e+01 2.444194209066e+01 0.0 
2.444194209066e+01 -2.652645116828e+01 0.0 
0.0 0.0 -1.852113337662e+01 
-9.767528965089e+01 2.250149565751e+01 0.0 
2.250149565751e+01 -2.292423425188e+02 0.0 
0.0 0.0 -9.767528965089e+01 
-4.343480601081e+01 3.217350584212e+01 0.0 
3.217350584212e+01 -2.915289889225e+01 0.0 
0.0 0.0 -2.209709170495e+01 
-3.673795010166e+01 2.427645146426e+01 0.0 
2.427645146426e+01 -2.599489668585e+01 0.0 
0.0 0.0 -1.841985403625e+01 
-8.074651672506e+01 2.473340254932e+00 0.0 
2.473340254932e+00 -2.561998714766e+02 0.0 
0.0 0.0 -1.006839164605e+02 
-9.369284946638e+01 -1.929072875269e+00 0.0 
-1.929072875269e+00 -2.390656127505e+02 0.0 
0.0 0.0 -9.942753866507e+01 
-4.961712778930e+01 2.822472798420e+01 0.0 
2.822472798420e+01 -6.695720158911e+01 0.0 
0.0 0.0 -3.457229881352e+01 
-5.038219271213e+01 -5.667632510513e+00 0.0 
-5.667632510513e+00 -1.894467199664e+02 0.0 
0.0 0.0 -7.154867380357e+01 
-9.029765459489e+01 2.063398532496e+00 0.0 
2.063398532496e+00 -2.657648440356e+02 0.0 
0.0 0.0 -1.064187495891e+02 
-8.061638737178e+01 2.964925153795e+01 0.0 
2.964925153795e+01 -2.153272664885e+02 0.0 
0.0 0.0 -8.838309615807e+01 
-8.971979878085e+01 2.010840184258e+01 0.0 
2.010840184258e+01 -2.693797075978e+02 0.0 
0.0 0.0 -1.073298519136e+02 
-1.013860092332e+02 3.145329750981e+01 0.0 
3.145329750981e+01 -2.270393285136e+02 0.0 
0.0 0.0 -9.812760132404e+01 
-3.558071898985e+01 2.726565223920e+01 0.0 
2.726565223920e+01 -1.155735130272e+02 0.0 
0.0 0.0 -4.554789303181e+01 
-8.706748400027e+01 -4.541005262809e+00 0.0 
-4.541005262809e+00 -2.299609120852e+02 0.0 
0.0 0.0 -9.470851882563e+01 
-9.609466985151e+01 -3.012694859214e+00 0.0 
-3.012694859214e+00 -2.457500583246e+02 0.0 
0.0 0.0 -1.021534184528e+02 
-5.259673997493e+01 -8.350793299469e+00 0.0 
-8.350793299469e+00 -1.350124289433e+02 0.0 
0.0 0.0 -5.588275067546e+01 
-5.146227165917e+01 1.312730903469e+01 0.0 
1.312730903469e+01 -5.047894073617e+01 0.0 
0.0 0.0 -3.018236371860e+01 
-7.797485806024e+01 2.397162054255e+01 0.0 
2.397162054255e+01 -1.205380058514e+02 0.0 
0.0 0.0 -5.915385917350e+01 
-1.233956386130e+02 8.447685990833e-01 0.0 
8.447685990833e-01 -3.006828020933e+02 0.0 
0.0 0.0 -1.268235322119e+02 
-1.204646102238e+01 -1.014816642013e+00 0.0 
-1.014816642013e+00 -4.256619740078e+01 0.0 
0.0 0.0 -1.598379752695e+01 
-5.111505951155e+01 -7.493985946184e+00 0.0 
-7.493985946184e+00 -1.181312833124e+02 0.0 
0.0 0.0 -5.215229415599e+01 
-3.878103076889e+01 -7.564181301065e+00 0.0 
-7.564181301065e+00 -9.292979787361e+01 0.0 
0.0 0.0 -3.911324859275e+01 
-9.783497473758e+01 -1.196214888699e+00 0.0 
-1.196214888699e+00 -2.469116316633e+02 0.0 
0.0 0.0 -1.030239819203e+02 
-5.300744256792e+01 3.015605345709e+00 0.0 
3.015605345709e+00 -2.008175662148e+02 0.0 
0.0 0.0 -7.574750263481e+01 
-5.047080497728e+01 -5.679285620576e+00 0.0 
-5.679285620576e+00 -1.856020735970e+02 0.0 
0.0 0.0 -7.042186357229e+01 
-4.040049000070e+01 -2.145513432259e-01 0.0 
-2.145513432259e-01 -1.718487382506e+02 0.0 
0.0 0.0 -6.327476847540e+01 
-9.984857732586e+01 -2.756794521471e+00 0.0 
-2.756794521471e+00 -2.572158838098e+02 0.0 
0.0 0.0 -1.067193383407e+02 
-8.393748810881e+01 2.540636442525e+01 0.0 
2.540636442525e+01 -1.538051943961e+02 0.0 
0.0 0.0 -7.092280475149e+01 
-1.004949110206e+02 -2.388060136876e+00 0.0 
-2.388060136876e+00 -2.538510188444e+02 0.0 
0.0 0.0 -1.059037789595e+02 
-5.047031766345e+01 5.024318714055e+00 0.0 
5.024318714055e+00 -2.002143354572e+02 0.0 
0.0 0.0 -7.480539593619e+01 
-8.499370471469e+01 3.205789629277e+01 0.0 
3.205789629277e+01 -2.013926096167e+02 0.0 
0.0 0.0 -8.551589429941e+01 
-4.908084788605e+01 2.556993537522e+00 0.0 
2.556993537522e+00 -5.926109630356e+01 0.0 
0.0 0.0 -3.210258325688e+01 
-1.041709177408e+02 2.327639092160e+01 0.0 
2.327639092160e+01 -2.909717403307e+02 0.0 
0.0 0.0 -1.181427974215e+02 
-1.019302850822e+02 -5.560568554973e-01 0.0 
-5.560568554973e-01 -2.548969022389e+02 0.0 
0.0 0.0 -1.066481561963e+02 
-1.018936970619e+02 -1.051480195471e+00 0.0 
-1.051480195471e+00 -2.585078235880e+02 0.0 
0.0 0.0 -1.077204561949e+02 
-3.589430108072e+01 2.428644023942e+01 0.0 
2.428644023942e+01 -2.599183955769e+01 0.0 
0.0 0.0 -1.816584219152e+01 
-5.809238233732e+01 6.755798719102e-01 0.0 
6.755798719102e-01 -2.091697357227e+02 0.0 
0.0 0.0 -7.977863541800e+01 
-1.048091974444e+02 -1.839648810625e+00 0.0 
-1.839648810625e+00 -2.619659745199e+02 0.0 
0.0 0.0 -1.096325515893e+02 
-5.746968936199e+01 -3.507188300877e-01 0.0 
-3.507188300877e-01 -9.923315537372e+01 0.0 
0.0 0.0 -4.661085342071e+01 
-5.067905454294e+01 -5.190989900515e-01 0.0 
-5.190989900515e-01 -8.088563866079e+01 0.0 
0.0 0.0 -3.906940796112e+01 
-3.600104097838e+01 2.433413382612e+01 0.0 
2.433413382612e+01 -2.615438027595e+01 0.0 
0.0 0.0 -1.824662637630e+01 
-1.044631664900e+02 -2.204268276700e+00 0.0 
-2.204268276700e+00 -2.651639398917e+02 0.0 
0.0 0.0 -1.104881319145e+02 
-5.475449701591e+01 -9.926529243777e+00 0.0 
-9.926529243777e+00 -1.801556449942e+02 0.0 
0.0 0.0 -7.007304260304e+01 
-4.024966708636e+01 2.977964641916e+01 0.0 
2.977964641916e+01 -6.880784647126e+01 0.0 
0.0 0.0 -3.048943042650e+01 
-1.277316173083e+02 2.694905555412e+01 0.0 
2.694905555412e+01 -3.269390096325e+02 0.0 
0.0 0.0 -1.360011880822e+02 
-3.897530462843e+01 -1.158982338931e+01 0.0 
-1.158982338931e+01 -8.592795946731e+01 0.0 
0.0 0.0 -3.702250761721e+01 
-5.393495842447e+01 -9.579853005997e+00 0.0 
-9.579853005997e+00 -1.829519535884e+02 0.0 
0.0 0.0 -7.066607360386e+01 
-7.672113148073e+01 2.110183423256e+01 0.0 
2.110183423256e+01 -2.389445429822e+02 0.0 
0.0 0.0 -9.429970233888e+01 
-3.162918962733e+01 2.103587073217e+01 0.0 
2.103587073217e+01 -2.301606751546e+01 0.0 
0.0 0.0 -1.599357714284e+01 
-1.060408074986e+02 -1.122318687523e-02 0.0 
-1.122318687523e-02 -2.631320626567e+02 0.0 
0.0 0.0 -1.103518610466e+02 
-4.757083002315e+01 5.857902478608e-01 0.0 
5.857902478608e-01 -1.208307255205e+02 0.0 
0.0 0.0 -5.012046666310e+01 
-5.749828867590e+01 1.589001367690e+01 0.0 
1.589001367690e+01 -5.604881203969e+01 0.0 
0.0 0.0 -3.366413021468e+01 
-1.061416221525e+02 -4.838976338365e-01 0.0 
-4.838976338365e-01 -2.663035125678e+02 0.0 
0.0 0.0 -1.113335404161e+02 
-7.640104967385e+01 3.146768369149e-01 0.0 
3.146768369149e-01 -2.408218596561e+02 0.0 
0.0 0.0 -9.476687279899e+01 
-9.320925080893e+01 -2.477472941448e+00 0.0 
-2.477472941448e+00 -2.434585680061e+02 0.0 
0.0 0.0 -1.006003456445e+02 
-3.981076671757e+01 2.915174931836e+01 0.0 
2.915174931836e+01 -8.140842003248e+01 0.0 
0.0 0.0 -3.756014608292e+01 
-7.730762665143e+01 1.685300664628e+00 0.0 
1.685300664628e+00 -1.584260777258e+02 0.0 
0.0 0.0 -7.032011131316e+01 
-6.183023070285e+01 -4.357877808865e+00 0.0 
-4.357877808865e+00 -2.074683862440e+02 0.0 
0.0 0.0 -8.038958508405e+01 
-1.236075142572e+02 1.596119511450e+01 0.0 
1.596119511450e+01 -3.326988221078e+02 0.0 
0.0 0.0 -1.364919009095e+02 
-8.916018746544e+01 2.762249659434e+01 0.0 
2.762249659434e+01 -2.474041596841e+02 0.0 
0.0 0.0 -1.005693041449e+02 
-1.089769638444e+02 -1.749264431491e+00 0.0 
-1.749264431491e+00 -2.732011217217e+02 0.0 
0.0 0.0 -1.142534256698e+02 
-1.103237744992e+02 -4.562650576613e-02 0.0 
-4.562650576613e-02 -2.741901107119e+02 0.0 
0.0 0.0 -1.149541655633e+02 
-4.780876049185e+01 7.401485512315e-01 0.0 
7.401485512315e-01 -1.928972089915e+02 0.0 
0.0 0.0 -7.181179084502e+01 
-3.526764244841e+01 -1.116284630051e+01 0.0 
-1.116284630051e+01 -5.952407717590e+01 0.0 
0.0 0.0 -2.689929423360e+01 
-3.839508933404e+01 3.452452378627e+01 0.0 
3.452452378627e+01 -8.480712093654e+01 0.0 
0.0 0.0 -3.836204259250e+01 
-1.134508097321e+02 -1.373325674516e+00 0.0 
-1.373325674516e+00 -2.813524051178e+02 0.0 
0.0 0.0 -1.180409644550e+02 
-1.254446552554e+02 1.228883645235e+01 0.0 
1.228883645235e+01 -3.354906721525e+02 0.0 
0.0 0.0 -1.378805982224e+02 
-5.805585912808e+01 -1.109500802880e+01 0.0 
-1.109500802880e+01 -1.723031449288e+02 0.0 
0.0 0.0 -6.870770121707e+01 
-8.867216324564e+01 3.018036736431e+01 0.0 
3.018036736431e+01 -2.183385463977e+02 0.0 
0.0 0.0 -9.170321289300e+01 
-3.835338413254e+01 2.608590661484e+01 0.0 
2.608590661484e+01 -6.540655029113e+01 0.0 
0.0 0.0 -3.072798032710e+01 
-8.898705695911e+01 3.252395878600e+01 0.0 
3.252395878600e+01 -2.033022288131e+02 0.0 
0.0 0.0 -8.728678573165e+01 
-1.515410535251e+02 9.005797330581e+00 0.0 
9.005797330581e+00 -3.733446858482e+02 0.0 
0.0 0.0 -1.570657218120e+02 
-1.180482890050e+02 -1.385246309055e+00 0.0 
-1.385246309055e+00 -1.026532001953e+02 0.0 
0.0 0.0 -6.648731777054e+01 
-9.067685730095e+01 2.177308785199e+00 0.0 
2.177308785199e+00 -2.129126670355e+02 0.0 
0.0 0.0 -9.067685730095e+01 
-1.670987639074e+02 6.597738818621e-01 0.0 
6.597738818621e-01 -3.912304491172e+02 0.0 
0.0 0.0 -1.670987639074e+02 
-3.811819386004e+01 7.408837569089e-01 0.0 
7.408837569089e-01 -4.909375088244e+01 0.0 
0.0 0.0 -2.576358342275e+01 
-6.543169659033e+01 -7.194986265701e+00 0.0 
-7.194986265701e+00 -2.027043369548e+02 0.0 
0.0 0.0 -8.004081006355e+01 
-8.466604569104e+01 2.866633493707e+01 0.0 
2.866633493707e+01 -2.316496808894e+02 0.0 
0.0 0.0 -9.449471797413e+01 
-4.826837335987e+01 6.059642356330e+00 0.0 
6.059642356330e+00 -1.913631449342e+02 0.0 
0.0 0.0 -7.148945548821e+01 
-2.045104319423e+01 -1.858913913850e+00 0.0 
-1.858913913850e+00 -5.526590833191e+01 0.0 
0.0 0.0 -2.231508545784e+01 
-4.795122001403e+01 3.177956516584e+01 0.0 
3.177956516584e+01 -3.129025854145e+01 0.0 
0.0 0.0 -2.302416831123e+01 
-8.524662686373e+01 6.834047616122e+00 0.0 
6.834047616122e+00 -1.769384331052e+02 0.0 
0.0 0.0 -7.825551799068e+01 
-8.192720597508e+01 2.677974878289e+01 0.0 
2.677974878289e+01 -1.379563244291e+02 0.0 
0.0 0.0 -6.556505912125e+01 
-5.180722650887e+01 1.426737772703e+01 0.0 
1.426737772703e+01 -4.001945983309e+01 0.0 
0.0 0.0 -2.714800590259e+01 
-1.399587673406e+02 3.803750681908e+01 0.0 
3.803750681908e+01 -3.346769069603e+02 0.0 
0.0 0.0 -1.419907022903e+02 
-3.869136426503e+01 6.186254208442e-01 0.0 
6.186254208442e-01 -1.008014987355e+02 0.0 
0.0 0.0 -4.144785890016e+01 
-1.425289757914e+02 3.629312885228e+01 0.0 
3.629312885228e+01 -3.425649428570e+02 0.0 
0.0 0.0 -1.451281755945e+02 
-8.012266633760e+01 2.295861426501e+01 0.0 
2.295861426501e+01 -1.362591075356e+02 0.0 
0.0 0.0 -6.451453216195e+01 
-6.815814436066e+01 -7.978087028679e+00 0.0 
-7.978087028679e+00 -1.963776324374e+02 0.0 
0.0 0.0 -7.896073303942e+01 
-8.051772310221e+01 2.627476923085e+01 0.0 
2.627476923085e+01 -2.293218274582e+02 0.0 
0.0 0.0 -9.255186516813e+01 
-5.875833562017e+01 -9.399942720790e+00 0.0 
-9.399942720790e+00 -1.883000353755e+02 0.0 
0.0 0.0 -7.371751129870e+01 
-3.866628603586e+01 2.863780312414e+01 0.0 
2.863780312414e+01 -6.682109541758e+01 0.0 
0.0 0.0 -3.051199036215e+01 
-5.735410092898e+01 -1.085674048685e+01 0.0 
-1.085674048685e+01 -1.753574363687e+02 0.0 
0.0 0.0 -6.941346118932e+01 
-8.765682499897e+01 2.739902168167e+01 0.0 
2.739902168167e+01 -1.716928622507e+02 0.0 
0.0 0.0 -7.740490617491e+01 
-1.415444344938e+02 1.473176467447e+00 0.0 
1.473176467447e+00 -3.403170832891e+02 0.0 
0.0 0.0 -1.441584553349e+02 
-5.526596154155e+01 -6.805566320209e+00 0.0 
-6.805566320209e+00 -1.948240085673e+02 0.0 
0.0 0.0 -7.462699103265e+01 
-9.245004235183e+01 3.074802572852e+01 0.0 
3.074802572852e+01 -2.201610157728e+02 0.0 
0.0 0.0 -9.338331743739e+01 
-7.552152851371e+01 -3.008413945022e+00 0.0 
-3.008413945022e+00 -1.126046434716e+02 0.0 
0.0 0.0 -5.693910711885e+01 
-5.223414659853e+01 -1.772461609385e+00 0.0 
-1.772461609385e+00 -1.994500471954e+02 0.0 
0.0 0.0 -7.510525813818e+01 
-9.193976437236e+01 2.660448286027e+01 0.0 
2.660448286027e+01 -1.660188143298e+02 0.0 
0.0 0.0 -7.698757361065e+01 
-5.961910362609e+01 -1.026870874497e+01 0.0 
-1.026870874497e+01 -1.678682541401e+02 0.0 
0.0 0.0 -6.784620732987e+01 
-5.623793215787e+01 -1.162760523168e+01 0.0 
-1.162760523168e+01 -1.584033356887e+02 0.0 
0.0 0.0 -6.399238035397e+01 
-8.042330330268e+01 2.699227407360e+01 0.0 
2.699227407360e+01 -2.294503743940e+02 0.0 
0.0 0.0 -9.256210330900e+01 
-3.461846041526e+01 -1.917064064680e+01 0.0 
-1.917064064680e+01 -1.074612807651e+02 0.0 
0.0 0.0 -4.171496694944e+01 
-3.527660751012e+01 2.406697535110e+01 0.0 
2.406697535110e+01 -2.492675013324e+01 0.0 
0.0 0.0 -1.766100729301e+01 
-3.704311143830e+01 2.573142457234e+01 0.0 
2.573142457234e+01 -2.632205776170e+01 0.0 
0.0 0.0 -1.860955076000e+01 
-5.375447331430e+01 -1.139881909350e+01 0.0 
-1.139881909350e+01 -1.480699746965e+02 0.0 
0.0 0.0 -6.014733440324e+01 
-8.454688547256e+01 2.513871659566e+00 0.0 
2.513871659566e+00 -2.578121170219e+02 0.0 
0.0 0.0 -1.023077007483e+02 
-6.829296113885e+01 2.080388219542e+01 0.0 
2.080388219542e+01 -2.219550303870e+02 0.0 
0.0 0.0 -8.667439745775e+01 
-9.306938172369e+01 3.259425913373e+01 0.0 
3.259425913373e+01 -2.207262300065e+02 0.0 
0.0 0.0 -9.373868351905e+01 
-1.061177119119e+02 3.175309423723e+01 0.0 
3.175309423723e+01 -2.362561256363e+02 0.0 
0.0 0.0 -1.023121512645e+02 
-3.205566888088e+01 2.191324738886e+01 0.0 
2.191324738886e+01 -2.366972884611e+01 0.0 
0.0 0.0 -1.631761931810e+01 
-6.480028314137e+01 1.580354570849e+00 0.0 
1.580354570849e+00 -1.192456612077e+02 0.0 
0.0 0.0 -5.481378330473e+01 
-1.155721994534e+02 3.397389298208e+01 0.0 
3.397389298208e+01 -2.756436486580e+02 0.0 
0.0 0.0 -1.169647544334e+02 
-4.395014314939e+01 4.070445593745e+00 0.0 
4.070445593745e+00 -1.855514662346e+02 0.0 
0.0 0.0 -6.845048281520e+01 
-4.095257276999e+01 2.980224858414e+01 0.0 
2.980224858414e+01 -4.940469176965e+01 0.0 
0.0 0.0 -2.512832153841e+01 
-4.185027639614e+01 2.826453365887e+01 0.0 
2.826453365887e+01 -6.782060148985e+01 0.0 
0.0 0.0 -3.250126336580e+01 
-8.194950151783e+01 -1.599552215449e-01 0.0 
-1.599552215449e-01 -2.483014855762e+02 0.0 
0.0 0.0 -9.867529612820e+01 
-9.185576961101e+01 3.054429879646e+01 0.0 
3.054429879646e+01 -2.044782394031e+02 0.0 
0.0 0.0 -8.850020270424e+01 
-7.773358608096e+01 -3.259305913834e-01 0.0 
-3.259305913834e-01 -2.464784562668e+02 0.0 
0.0 0.0 -9.686361270434e+01 
-3.287758618120e+01 2.553098539522e+01 0.0 
2.553098539522e+01 -9.424120192172e+01 0.0 
0.0 0.0 -3.777504761698e+01 
-9.336469173487e+01 4.634822197235e+00 0.0 
4.634822197235e+00 -2.751023665587e+02 0.0 
0.0 0.0 -1.101401174881e+02 
-3.830703892777e+01 2.813375660654e+01 0.0 
2.813375660654e+01 -6.629850496643e+01 0.0 
0.0 0.0 -3.098166316826e+01 
-6.835605321214e+01 2.052028435291e+01 0.0 
2.052028435291e+01 -2.219238277642e+02 0.0 
0.0 0.0 -8.668396429291e+01 
-8.633502627885e+01 1.632109946827e+00 0.0 
1.632109946827e+00 -2.639906226790e+02 0.0 
0.0 0.0 -1.046976946874e+02 
-8.449518288215e+01 2.507948936678e+01 0.0 
2.507948936678e+01 -2.443458292133e+02 0.0 
0.0 0.0 -9.825230362864e+01 
-5.739994979558e+01 2.031366252223e+00 0.0 
2.031366252223e+00 -9.445678403527e+01 0.0 
0.0 0.0 -4.515702014926e+01 
-5.655386233596e+01 -9.620163663480e+00 0.0 
-9.620163663480e+00 -1.496068908164e+02 0.0 
0.0 0.0 -6.144822594572e+01 
-4.057348353013e+01 3.111236106921e+01 0.0 
3.111236106921e+01 -7.100405804201e+01 0.0 
0.0 0.0 -3.204623994169e+01 
-9.561555069440e+01 3.555125933409e+00 0.0 
3.555125933409e+00 -2.818818508896e+02 0.0 
0.0 0.0 -1.128492204752e+02 
-3.785610234289e+01 2.731446658349e+01 0.0 
2.731446658349e+01 -6.526548225619e+01 0.0 
0.0 0.0 -3.053647537972e+01 
-4.863983189168e+01 9.777097572336e+00 0.0 
9.777097572336e+00 -1.201186428945e+02 0.0 
0.0 0.0 -5.203533076188e+01 
-8.233318425024e+01 1.975552089181e-01 0.0 
1.975552089181e-01 -1.774409644311e+02 0.0 
0.0 0.0 -7.753224460439e+01 
-7.717074445214e+01 -8.107423436830e-02 0.0 
-8.107423436830e-02 -1.584673441584e+02 0.0 
0.0 0.0 -7.029142658316e+01 
-1.786260869719e+01 -3.588531468651e+00 0.0 
-3.588531468651e+00 -2.482111133265e+01 0.0 
0.0 0.0 -1.271699351427e+01 
-1.028047365299e+02 6.678872989214e+00 0.0 
6.678872989214e+00 -2.926982255490e+02 0.0 
0.0 0.0 -1.182508886237e+02 
-4.592055337409e+01 -8.407452261003e+00 0.0 
-8.407452261003e+00 -1.142564154669e+02 0.0 
0.0 0.0 -4.765309065229e+01 
-4.795227955832e+01 -9.456529918870e+00 0.0 
-9.456529918870e+00 -1.207178954919e+02 0.0 
0.0 0.0 -5.020105251507e+01 
-1.002710141814e+02 3.157752593431e+01 0.0 
3.157752593431e+01 -2.393544748909e+02 0.0 
0.0 0.0 -1.014876467217e+02 
-8.482873818335e+01 2.561884488449e+01 0.0 
2.561884488449e+01 -2.445923254665e+02 0.0 
0.0 0.0 -9.842631909496e+01 
-9.663369420469e+01 3.086309860176e+01 0.0 
3.086309860176e+01 -2.372492252109e+02 0.0 
0.0 0.0 -9.976487582469e+01 
-5.658011019673e+01 -3.261641094485e+00 0.0 
-3.261641094485e+00 -2.008896816345e+02 0.0 
0.0 0.0 -7.684093754936e+01 
-2.981826149800e+01 -9.350531679905e-02 0.0 
-9.350531679905e-02 -2.768552277351e+01 0.0 
0.0 0.0 -1.685113528145e+01 
-1.566091062401e+02 7.599128652729e+00 0.0 
7.599128652729e+00 -3.753924950301e+02 0.0 
0.0 0.0 -1.592004803811e+02 
-4.161089027573e+01 -8.985332114629e+00 0.0 
-8.985332114629e+00 -1.000754848502e+02 0.0 
0.0 0.0 -4.210591253779e+01 
-1.193183726094e+02 1.759862319924e+01 0.0 
1.759862319924e+01 -3.225415839932e+02 0.0 
0.0 0.0 -1.321579869808e+02 
-7.225595613346e+01 2.295273567960e+01 0.0 
2.295273567960e+01 -2.246378468160e+02 0.0 
0.0 0.0 -8.866814088485e+01 
-2.895280896730e+01 -2.035986018124e+00 0.0 
-2.035986018124e+00 -7.663436933186e+01 0.0 
0.0 0.0 -3.127615348975e+01 
-8.821127235560e+01 2.955219862389e+01 0.0 
2.955219862389e+01 -1.867261401179e+02 0.0 
0.0 0.0 -8.208122374205e+01 
-5.466952014823e+01 2.216530955780e+00 0.0 
2.216530955780e+00 -2.081046525214e+02 0.0 
0.0 0.0 -7.843225180088e+01 
-3.177694940395e+01 -1.207205096699e+01 0.0 
-1.207205096699e+01 -4.649509704978e+01 0.0 
0.0 0.0 -2.233207835697e+01 
-4.569537226668e+01 -3.666941493768e+00 0.0 
-3.666941493768e+00 -1.839954577877e+02 0.0 
0.0 0.0 -6.850724901631e+01 
-1.193589852477e+02 -8.858484312338e-01 0.0 
-8.858484312338e-01 -2.919901763973e+02 0.0 
0.0 0.0 -1.230047484935e+02 
-8.910089616527e+01 3.061253582735e+01 0.0 
3.061253582735e+01 -1.733756536703e+02 0.0 
0.0 0.0 -7.834296495067e+01 
-3.559216207020e+01 -9.994034291269e+00 0.0 
-9.994034291269e+00 -7.954224904209e+01 0.0 
0.0 0.0 -3.411570904289e+01 
-9.655383670937e+01 -5.027270528728e-02 0.0 
-5.027270528728e-02 -2.385775102371e+02 0.0 
0.0 0.0 -1.001394040839e+02 
-9.602587777170e+01 3.119956875143e+01 0.0 
3.119956875143e+01 -2.222270894777e+02 0.0 
0.0 0.0 -9.507589017482e+01 
-1.103185385230e+02 2.651946600970e+01 0.0 
2.651946600970e+01 -2.957178622328e+02 0.0 
0.0 0.0 -1.214109202267e+02 
-5.567150933625e+01 -1.148343209430e+01 0.0 
-1.148343209430e+01 -1.617475885515e+02 0.0 
0.0 0.0 -6.482572936632e+01 
-4.766641362652e+01 -1.764639053467e+00 0.0 
-1.764639053467e+00 -1.209459923725e+02 0.0 
0.0 0.0 -5.018372179969e+01 
-7.616758976815e+01 2.108548576808e+01 0.0 
2.108548576808e+01 -2.387062378091e+02 0.0 
0.0 0.0 -9.406214827317e+01 
-5.370572079376e+01 8.778406768370e-01 0.0 
8.778406768370e-01 -8.863588400007e+01 0.0 
0.0 0.0 -4.230248143815e+01 
-3.352508548881e+01 -1.740219702043e+01 0.0 
-1.740219702043e+01 -5.034098278766e+01 0.0 
0.0 0.0 -2.438492581245e+01 
-1.251406774206e+02 3.791574681374e+01 0.0 
3.791574681374e+01 -2.981859322523e+02 0.0 
0.0 0.0 -1.265979829019e+02 
-1.055548075105e+02 3.106429358892e+01 0.0 
3.106429358892e+01 -2.379853979666e+02 0.0 
0.0 0.0 -1.026620616431e+02 
-4.305252058256e+01 8.709621111301e-01 0.0 
8.709621111301e-01 -6.095998931196e+01 0.0 
0.0 0.0 -3.080375296835e+01 
-9.711480988457e+01 1.762436055000e+01 0.0 
1.762436055000e+01 -2.001050286010e+02 0.0 
0.0 0.0 -8.876595154566e+01 
-1.118192829943e+02 3.392145521379e+01 0.0 
3.392145521379e+01 -2.565609850624e+02 0.0 
0.0 0.0 -1.101140804170e+02 
-5.708040392949e+01 -3.514598851219e+00 0.0 
-3.514598851219e+00 -2.056830552666e+02 0.0 
0.0 0.0 -7.842903775882e+01 
-6.050333313831e+01 -7.314895397446e+00 0.0 
-7.314895397446e+00 -1.968992144825e+02 0.0 
0.0 0.0 -7.682076428625e+01 
-1.431031845412e+02 2.241683862930e+01 0.0 
2.241683862930e+01 -3.594476048596e+02 0.0 
0.0 0.0 -1.503652368202e+02 
-7.063188832646e+01 4.283687230134e+00 0.0 
4.283687230134e+00 -1.093182243627e+02 0.0 
0.0 0.0 -5.453564598955e+01 
-4.285105101240e+01 -1.184791081052e+00 0.0 
-1.184791081052e+00 -1.099948931809e+02 0.0 
0.0 0.0 -4.545378325800e+01 
-9.760287195202e+01 -1.275557386913e+00 0.0 
-1.275557386913e+00 -2.428194589300e+02 0.0 
0.0 0.0 -1.017266992646e+02 
-5.955685170998e+01 -1.013087504373e+01 0.0 
-1.013087504373e+01 -1.637352922765e+02 0.0 
0.0 0.0 -6.658764319594e+01 
-4.898718113829e+01 -9.181081471461e+00 0.0 
-9.181081471461e+00 -1.778424211929e+02 0.0 
0.0 0.0 -6.764888069937e+01 
-3.629087943609e+01 2.494811536232e+01 0.0 
2.494811536232e+01 -2.468796990070e+01 0.0 
0.0 0.0 -1.789365480104e+01 
-3.857100864814e+01 2.681988583651e+01 0.0 
2.681988583651e+01 -2.733396109415e+01 0.0 
0.0 0.0 -1.937149092269e+01 
-5.011457944588e+01 3.468511599082e+00 0.0 
3.468511599082e+00 -6.243747496685e+01 0.0 
0.0 0.0 -3.336561632382e+01 
-5.139699508980e+01 -1.355233632469e+00 0.0 
-1.355233632469e+00 -1.939148764405e+02 0.0 
0.0 0.0 -7.319356145909e+01 
-5.106141179838e+01 -3.175965014767e+00 0.0 
-3.175965014767e+00 -1.291141210351e+02 0.0 
0.0 0.0 -5.365265985005e+01 
-1.023404551027e+02 2.644814187214e+01 0.0 
2.644814187214e+01 -2.794051864647e+02 0.0 
0.0 0.0 -1.141236924702e+02 
-1.646763218099e+02 5.217904907253e+00 0.0 
5.217904907253e+00 -3.910913927907e+02 0.0 
0.0 0.0 -1.663303143802e+02 
-1.633319981862e+02 6.747765659857e+00 0.0 
6.747765659857e+00 -3.897931467374e+02 0.0 
0.0 0.0 -1.655375434771e+02 
-6.034083030784e+01 -7.272510161205e+00 0.0 
-7.272510161205e+00 -2.005374271837e+02 0.0 
0.0 0.0 -7.786347724747e+01 
-4.481350373680e+01 2.256492852117e+00 0.0 
2.256492852117e+00 -4.563732827929e+01 0.0 
0.0 0.0 -2.673524960483e+01 
-7.383920394038e+01 -2.655446843588e-01 0.0 
-2.655446843588e-01 -1.092667809149e+02 0.0 
0.0 0.0 -5.591407941371e+01 
-4.072770560242e+01 2.755890001073e+01 0.0 
2.755890001073e+01 -2.718946626690e+01 0.0 
0.0 0.0 -1.916390737189e+01 
-4.010237095170e+01 -2.341257182001e+01 0.0 
-2.341257182001e+01 -1.133036320006e+02 0.0 
0.0 0.0 -4.480575134932e+01 
-3.901273302956e+01 2.658758710561e+01 0.0 
2.658758710561e+01 -2.682489469004e+01 0.0 
0.0 0.0 -1.927496750685e+01 
-8.068578642924e+01 2.342841774364e+01 0.0 
2.342841774364e+01 -2.418358540539e+02 0.0 
0.0 0.0 -9.635649214495e+01 
-5.282976514873e+01 -1.158735853540e+01 0.0 
-1.158735853540e+01 -1.699919848401e+02 0.0 
0.0 0.0 -6.644652499664e+01 
-5.553941284756e+01 -6.867873593688e+00 0.0 
-6.867873593688e+00 -1.913565741837e+02 0.0 
0.0 0.0 -7.366879610938e+01 
-3.994156922185e+01 -2.870930656359e+01 0.0 
-2.870930656359e+01 -9.926614818823e+01 0.0 
0.0 0.0 -4.188411060640e+01 
-7.678195362659e+01 1.473543588732e+00 0.0 
1.473543588732e+00 -1.611457644627e+02 0.0 
0.0 0.0 -7.097831542679e+01 
-5.933038060193e+01 -9.601727303226e+00 0.0 
-9.601727303226e+00 -1.852366868054e+02 0.0 
0.0 0.0 -7.297012022220e+01 
-8.306729487841e+01 5.059173097838e+00 0.0 
5.059173097838e+00 -1.756205605634e+02 0.0 
0.0 0.0 -7.720635663256e+01 
-7.422874997166e+01 2.755839297904e+00 0.0 
2.755839297904e+00 -1.457743508926e+02 0.0 
0.0 0.0 -6.560093025928e+01 
-9.426067068826e+01 2.490767393361e+00 0.0 
2.490767393361e+00 -2.138604744680e+02 0.0 
0.0 0.0 -9.203634354687e+01 
-1.659430028448e+02 6.412103422464e-01 0.0 
6.412103422464e-01 -3.909790986963e+02 0.0 
0.0 0.0 -1.666766304623e+02 
-4.308811977678e+01 -4.937068315835e-01 0.0 
-4.937068315835e-01 -6.142561649198e+01 0.0 
0.0 0.0 -3.095412088063e+01 
-6.379548512226e+01 -8.923036083808e+00 0.0 
-8.923036083808e+00 -1.905450964306e+02 0.0 
0.0 0.0 -7.590217446586e+01 
-3.350908595301e+01 2.331163019551e+01 0.0 
2.331163019551e+01 -2.427917070842e+01 0.0 
0.0 0.0 -1.693647699843e+01 
-6.360536275314e+01 -8.880744779407e+00 0.0 
-8.880744779407e+00 -1.942358841653e+02 0.0 
0.0 0.0 -7.695237407554e+01 
-1.676836196737e+02 3.921601260199e+00 0.0 
3.921601260199e+00 -3.925951125720e+02 0.0 
0.0 0.0 -1.676836196737e+02 
-4.319479632954e+01 2.891081964772e+01 0.0 
2.891081964772e+01 -2.838767017305e+01 0.0 
0.0 0.0 -1.973718545127e+01 
-4.159421765118e+01 2.782664249626e+01 0.0 
2.782664249626e+01 -2.756055858985e+01 0.0 
0.0 0.0 -1.869482307886e+01 
-1.234865111421e+02 2.028669515633e+01 0.0 
2.028669515633e+01 -3.282641636441e+02 0.0 
0.0 0.0 -1.351252024359e+02 
-4.021861101447e+01 1.086224699963e+00 0.0 
1.086224699963e+00 -4.586107480091e+01 0.0 
0.0 0.0 -2.542390574462e+01 
-8.281894336783e+01 2.949696682293e+00 0.0 
2.949696682293e+00 -1.773520484774e+02 0.0 
0.0 0.0 -7.765129755358e+01 
-9.694394584458e+01 3.318060236660e+01 0.0 
3.318060236660e+01 -2.227978032302e+02 0.0 
0.0 0.0 -9.552252472243e+01 
-1.189271507853e+02 2.671155609841e+01 0.0 
2.671155609841e+01 -3.122320732454e+02 0.0 
0.0 0.0 -1.289477672092e+02 
-1.005471471364e+02 3.314861455378e+01 0.0 
3.314861455378e+01 -2.127169300669e+02 0.0 
0.0 0.0 -9.357922316100e+01 
-4.529022301588e+01 -6.984155863395e-02 0.0 
-6.984155863395e-02 -6.476767390959e+01 0.0 
0.0 0.0 -3.261736907764e+01 
-5.378284418960e+01 -1.130531068120e+01 0.0 
-1.130531068120e+01 -1.439305586686e+02 0.0 
0.0 0.0 -5.891402085745e+01 
-5.039366713489e+01 -1.288680476946e+01 0.0 
-1.288680476946e+01 -1.421932671283e+02 0.0 
0.0 0.0 -5.737608027895e+01 
-6.092996906106e+01 2.832907311030e-02 0.0 
2.832907311030e-02 -1.083345219867e+02 0.0 
0.0 0.0 -5.037934731433e+01 
-1.147527348055e+02 2.875434742252e+01 0.0 
2.875434742252e+01 -2.987023273539e+02 0.0 
0.0 0.0 -1.236365186478e+02 
-4.198947715765e+01 4.880869126387e+00 0.0 
4.880869126387e+00 -3.046369546770e+01 0.0 
0.0 0.0 -2.133595178761e+01 
-3.666850247106e+01 3.821886268554e-02 0.0 
3.821886268554e-02 -4.441533240370e+01 0.0 
0.0 0.0 -2.392515046243e+01 
-4.342034938106e+01 5.713785374318e-01 0.0 
5.713785374318e-01 -6.036615389903e+01 0.0 
0.0 0.0 -3.073595098403e+01 
-4.637883741604e+01 1.736337658214e+00 0.0 
1.736337658214e+00 -6.613740684376e+01 0.0 
0.0 0.0 -3.335487327794e+01 
-2.724608905990e+01 -1.449887536388e+01 0.0 
-1.449887536388e+01 -1.153907209136e+02 0.0 
0.0 0.0 -4.403673742530e+01 
-4.840323484908e+01 -1.211525227082e+01 0.0 
-1.211525227082e+01 -1.279211838324e+02 0.0 
0.0 0.0 -5.249732560444e+01 
-9.200502597639e+01 8.719727370059e+00 0.0 
8.719727370059e+00 -1.993756760025e+02 0.0 
0.0 0.0 -8.701421059366e+01 
-5.459599368490e+01 2.289889900653e+00 0.0 
2.289889900653e+00 -8.557369240919e+01 0.0 
0.0 0.0 -4.165090582823e+01 
-1.449616640220e+02 2.651848895984e+01 0.0 
2.651848895984e+01 -3.551813115381e+02 0.0 
0.0 0.0 -1.496428926680e+02 
-1.108450954125e+02 3.506468903872e+01 0.0 
3.506468903872e+01 -2.404200203188e+02 0.0 
0.0 0.0 -1.049795347194e+02 
-8.893280913595e+01 3.212795251187e+01 0.0 
3.212795251187e+01 -1.877168113888e+02 0.0 
0.0 0.0 -8.259488615742e+01 
-9.462849815386e+01 1.779074198799e+01 0.0 
1.779074198799e+01 -1.880322976574e+02 0.0 
0.0 0.0 -8.439823874339e+01 
-7.176916750724e+01 -3.588320076411e+00 0.0 
-3.588320076411e+00 -1.812833858236e+02 0.0 
0.0 0.0 -7.551576599924e+01 
-6.531264851231e+01 -3.908578068961e+00 0.0 
-3.908578068961e+00 -1.655932876880e+02 0.0 
0.0 0.0 -6.887178086011e+01 
-1.461342049419e+02 6.389120376752e+00 0.0 
6.389120376752e+00 -3.605052882056e+02 0.0 
0.0 0.0 -1.515918479443e+02 
-4.069379294749e+01 -2.004824434497e+01 0.0 
-2.004824434497e+01 -9.893343320516e+01 0.0 
0.0 0.0 -4.328254562301e+01 
-4.569189954598e+01 -6.960202517145e-01 0.0 
-6.960202517145e-01 -1.163396333884e+02 0.0 
0.0 0.0 -4.820945988033e+01 
-1.454297053746e+02 3.537426989161e+01 0.0 
3.537426989161e+01 -3.406693125407e+02 0.0 
0.0 0.0 -1.454297053746e+02 
-1.919396377075e+01 7.286152202997e-01 0.0 
7.286152202997e-01 -5.781660427548e+01 0.0 
0.0 0.0 -2.270317041387e+01 
-3.653908591705e+01 4.468279523188e-02 0.0 
4.468279523188e-02 -4.439590452137e+01 0.0 
0.0 0.0 -2.388049713153e+01 
-1.359671021307e+02 1.770798943675e+01 0.0 
1.770798943675e+01 -3.511761531377e+02 0.0 
0.0 0.0 -1.457429765805e+02 
-1.859982032676e+01 -4.173120563462e+00 0.0 
-4.173120563462e+00 -4.020790324496e+01 0.0 
0.0 0.0 -1.724231707151e+01 
-5.635691864405e+00 -6.100808753212e-01 0.0 
-6.100808753212e-01 -2.376820119161e+01 0.0 
0.0 0.0 -7.940123160226e+00 
-9.945117681358e+01 1.515913489872e+01 0.0 
1.515913489872e+01 -2.211269522485e+02 0.0 
0.0 0.0 -9.577343871862e+01 
-3.145213595003e+01 -4.209818837856e-01 0.0 
-4.209818837856e-01 -2.773114108211e+01 0.0 
0.0 0.0 -1.735498310964e+01 
-9.211481623581e+01 1.134245531637e+01 0.0 
1.134245531637e+01 -1.969005765019e+02 0.0 
0.0 0.0 -8.630461782130e+01 
-1.383379663812e+02 1.943413686159e+01 0.0 
1.943413686159e+01 -3.494297405187e+02 0.0 
0.0 0.0 -1.459303120700e+02 
-3.105867778362e+01 2.896568143332e-01 0.0 
2.896568143332e-01 -2.746353578839e+01 0.0 
0.0 0.0 -1.715666407160e+01 
-7.076040618072e+01 6.844782178537e+00 0.0 
6.844782178537e+00 -1.077543873310e+02 0.0 
0.0 0.0 -5.461547568740e+01 
-8.658208621480e+01 2.595480815142e+00 0.0 
2.595480815142e+00 -1.951177281681e+02 0.0 
0.0 0.0 -8.410994431488e+01 
-2.374345055495e+01 -1.459333266701e+00 0.0 
-1.459333266701e+00 -6.364115816099e+01 0.0 
0.0 0.0 -2.581538261478e+01 
-8.617258832573e+01 9.548756825697e+00 0.0 
9.548756825697e+00 -1.831678645056e+02 0.0 
0.0 0.0 -8.040213584940e+01 
-1.674741022460e+02 2.759424618417e+00 0.0 
2.759424618417e+00 -3.921062385739e+02 0.0 
0.0 0.0 -1.674741022460e+02 
-1.055461105174e+02 3.091970482468e+01 0.0 
3.091970482468e+01 -2.235248530405e+02 0.0 
0.0 0.0 -9.832128906739e+01 
-2.860560191501e+01 -1.161478947616e+01 0.0 
-1.161478947616e+01 -1.276897219576e+02 0.0 
0.0 0.0 -4.800990442655e+01 
-5.613518441258e+01 7.251484235445e+00 0.0 
7.251484235445e+00 -6.747246576260e+01 0.0 
0.0 0.0 -3.668229505255e+01 
-7.317929399980e+01 -1.252733109141e+00 0.0 
-1.252733109141e+00 -1.841594004387e+02 0.0 
0.0 0.0 -7.680160833156e+01 
-1.041284785077e+02 2.715359045785e+01 0.0 
2.715359045785e+01 -2.802448724640e+02 0.0 
0.0 0.0 -1.149120052915e+02 
-1.505650549858e+02 3.043219264245e+01 0.0 
3.043219264245e+01 -3.624369909838e+02 0.0 
0.0 0.0 -1.535006137909e+02 
-6.832629570531e+01 6.476548786661e-01 0.0 
6.476548786661e-01 -1.300699905192e+02 0.0 
0.0 0.0 -5.911888586735e+01 
-1.516489986397e+02 2.690149849849e+01 0.0 
2.690149849849e+01 -3.680326314324e+02 0.0 
0.0 0.0 -1.555044890216e+02 
-3.178166709474e+01 -1.507395941701e+01 0.0 
-1.507395941701e+01 -1.151384266363e+02 0.0 
0.0 0.0 -4.624972126833e+01 
-1.581817550855e+02 4.210669621802e+00 0.0 
4.210669621802e+00 -3.774883194869e+02 0.0 
0.0 0.0 -1.603010223717e+02 
-3.234055531753e+01 -1.533451246830e+01 0.0 
-1.533451246830e+01 -1.257400111784e+02 0.0 
0.0 0.0 -4.691108784803e+01 
-1.996428414934e+01 -1.438164686942e+00 0.0 
-1.438164686942e+00 -5.778058598508e+01 0.0 
0.0 0.0 -2.292346104032e+01 
-1.491653446753e+02 1.584934874925e+01 0.0 
1.584934874925e+01 -3.699097952066e+02 0.0 
0.0 0.0 -1.553225419646e+02 
-1.042470230935e+02 2.465255534079e+01 0.0 
2.465255534079e+01 -2.186594701232e+02 0.0 
0.0 0.0 -9.647194796501e+01 
-9.537656729411e+01 1.569587854939e+01 0.0 
1.569587854939e+01 -2.072530362239e+02 0.0 
0.0 0.0 -9.038888105539e+01 
-3.668934455889e+01 -5.165165305456e-01 0.0 
-5.165165305456e-01 -4.308059717967e+01 0.0 
0.0 0.0 -2.353098252157e+01 
-6.216993771568e+01 1.331387106029e+01 0.0 
1.331387106029e+01 -7.778799638064e+01 0.0 
0.0 0.0 -4.158738022889e+01 
-3.784775607924e+01 2.865707741732e+01 0.0 
2.865707741732e+01 -6.671792723193e+01 0.0 
0.0 0.0 -3.058611298312e+01 
-1.172958841473e+02 3.708015425808e+01 0.0 
3.708015425808e+01 -2.624655699881e+02 0.0 
0.0 0.0 -1.135284362406e+02 
-6.117935901207e+01 -2.447280396574e+00 0.0 
-2.447280396574e+00 -1.531099690346e+02 0.0 
0.0 0.0 -6.388679841400e+01 
-3.296588568567e+01 2.877432474685e+01 0.0 
2.877432474685e+01 -7.401661751838e+01 0.0 
0.0 0.0 -3.219327153531e+01 
-1.085095412660e+02 2.582077625812e+01 0.0 
2.582077625812e+01 -2.948169899457e+02 0.0 
0.0 0.0 -1.205979593635e+02 
-2.954233902165e+01 1.419860163541e-01 0.0 
1.419860163541e-01 -2.704102138114e+01 0.0 
0.0 0.0 -1.657500812084e+01 
-9.687939836102e+01 2.225333146730e+01 0.0 
2.225333146730e+01 -2.036578129726e+02 0.0 
0.0 0.0 -8.976116340009e+01 
-9.299436802478e+01 9.096188664839e-01 0.0 
9.096188664839e-01 -2.116237957365e+02 0.0 
0.0 0.0 -9.098544912837e+01 
-9.084318825579e+01 1.004459448201e+00 0.0 
1.004459448201e+00 -2.133007725968e+02 0.0 
0.0 0.0 -9.084318825579e+01 
8.288628247437e-01 3.016578453014e-01 0.0 
3.016578453014e-01 -6.402523549166e+00 0.0 
0.0 0.0 -6.530723590528e-01 
4.235236740212e-01 -5.703184312330e-01 0.0 
-5.703184312330e-01 -1.064360692145e+01 0.0 
0.0 0.0 -1.575510580641e+00 
-3.028696922744e+01 6.039592266627e-01 0.0 
6.039592266627e-01 -2.967662764399e+01 0.0 
0.0 0.0 -1.758907906143e+01 
-2.917546283468e+01 -1.304842866862e-01 0.0 
-1.304842866862e-01 -2.711591647002e+01 0.0 
0.0 0.0 -1.648741379141e+01 
-1.672538761088e+02 2.697686657530e-01 0.0 
2.697686657530e-01 -3.915923775871e+02 0.0 
0.0 0.0 -1.672538761088e+02 
-1.652795511167e+02 -6.867564412893e-01 0.0 
-6.867564412893e-01 -3.887840770440e+02 0.0 
0.0 0.0 -1.658190884482e+02 
-3.560838083565e+00 -8.653275656315e-01 0.0 
-8.653275656315e-01 -2.305257249250e+01 0.0 
0.0 0.0 -6.983063625738e+00 
-7.150415482763e+01 -4.773905760164e+00 0.0 
-4.773905760164e+00 -1.130988451883e+02 0.0 
0.0 0.0 -5.588132635200e+01 
-1.506244811673e+02 1.211928688979e+00 0.0 
1.211928688979e+00 -3.602753580096e+02 0.0 
0.0 0.0 -1.528699517531e+02 
-1.205045528955e+02 3.205134398937e+01 0.0 
3.205134398937e+01 -3.035377332294e+02 0.0 
0.0 0.0 -1.268126858375e+02 
-2.824679086213e+01 -1.761061491420e+00 0.0 
-1.761061491420e+00 -7.476003593804e+01 0.0 
0.0 0.0 -3.050204804005e+01 
-1.515612455282e+02 4.628576496390e+00 0.0 
4.628576496390e+00 -3.652960404823e+02 0.0 
0.0 0.0 -1.546571858032e+02 
-1.049517311210e+02 8.571724511668e-02 0.0 
8.571724511668e-02 -2.589531989765e+02 0.0 
0.0 0.0 -1.087714790293e+02 
-8.978075004067e+01 5.295584075234e-01 0.0 
5.295584075234e-01 -2.238115057276e+02 0.0 
0.0 0.0 -9.367767673049e+01 
-5.721177755195e+01 7.872811063773e-01 0.0 
7.872811063773e-01 -9.549516507694e+01 0.0 
0.0 0.0 -4.541208278867e+01 
-4.035471788565e+01 -2.051544954396e+01 0.0 
-2.051544954396e+01 -8.959238056820e+01 0.0 
0.0 0.0 -3.689179945093e+01 
-9.424016978982e+01 2.636116395413e+01 0.0 
2.636116395413e+01 -2.624452910723e+02 0.0 
0.0 0.0 -1.066056382586e+02 
-2.196220221326e+01 -2.478250333918e+00 0.0 
-2.478250333918e+00 -5.994573317060e+01 0.0 
0.0 0.0 -2.417238061516e+01 
-8.154556342475e+01 -1.272996380618e+00 0.0 
-1.272996380618e+00 -2.042754458465e+02 0.0 
0.0 0.0 -8.534630278137e+01 
-1.100211009944e+02 3.339098180743e+01 0.0 
3.339098180743e+01 -2.496639786545e+02 0.0 
0.0 0.0 -1.075055238947e+02 
-8.097040631222e+01 9.972111423719e-01 0.0 
9.972111423719e-01 -1.700474128705e+02 0.0 
0.0 0.0 -7.490534575482e+01 
-8.971974430082e+01 -1.018978721203e+00 0.0 
-1.018978721203e+00 -2.225640576942e+02 0.0 
0.0 0.0 -9.328514059851e+01 
-4.889848154876e+01 1.120406647196e+00 0.0 
1.120406647196e+00 -7.485164973519e+01 0.0 
0.0 0.0 -3.672503938519e+01 
-1.185121295626e+02 3.558333113082e+01 0.0 
3.558333113082e+01 -2.884466590383e+02 0.0 
0.0 0.0 -1.216876365803e+02 
-1.045077924174e+02 3.410418794655e+01 0.0 
3.410418794655e+01 -2.289172280982e+02 0.0 
0.0 0.0 -9.962750615467e+01 
-9.669034537412e+01 3.301519888852e+01 0.0 
3.301519888852e+01 -2.083223430646e+02 0.0 
0.0 0.0 -9.110380653162e+01 
-3.050173712616e+01 -2.828149376477e-02 0.0 
-2.828149376477e-02 -2.772875877924e+01 0.0 
0.0 0.0 -1.706914877162e+01 
-8.990218059426e+01 2.429375254666e+01 0.0 
2.429375254666e+01 -2.594692470494e+02 0.0 
0.0 0.0 -1.044114282931e+02 
-9.894073006463e+01 2.601253679276e+01 0.0 
2.601253679276e+01 -2.106560023737e+02 0.0 
0.0 0.0 -9.247901973150e+01 
-4.546739480711e+01 -2.142664381362e+00 0.0 
-2.142664381362e+00 -1.158923538250e+02 0.0 
0.0 0.0 -4.800792458963e+01 
-1.107014049723e+01 -2.304933432139e+00 0.0 
-2.304933432139e+00 -2.587083460318e+01 0.0 
0.0 0.0 -1.068229253012e+01 
-1.142510688045e+02 3.426860158972e+01 0.0 
3.426860158972e+01 -2.734178182331e+02 0.0 
0.0 0.0 -1.159006661113e+02 
-1.171316997474e+02 1.694963827136e+01 0.0 
1.694963827136e+01 -3.215445135590e+02 0.0 
0.0 0.0 -1.312028639919e+02 
-3.745863866277e+01 -2.154273832028e+01 0.0 
-2.154273832028e+01 -8.043662989796e+01 0.0 
0.0 0.0 -3.456969566244e+01 
-6.222230347084e+01 1.525077884401e+00 0.0 
1.525077884401e+00 -1.098753615907e+02 0.0 
0.0 0.0 -5.122929951845e+01 
-1.584800275903e+02 2.067802523288e+00 0.0 
2.067802523288e+00 -3.748624198557e+02 0.0 
0.0 0.0 -1.596027342338e+02 
-1.148561291234e+02 3.153217347048e+01 0.0 
3.153217347048e+01 -2.872442809144e+02 0.0 
0.0 0.0 -1.202301230113e+02 
-1.204580678657e+02 3.520676076137e+01 0.0 
3.520676076137e+01 -2.960752855591e+02 0.0 
0.0 0.0 -1.245600060274e+02 
-1.140038916736e+02 8.094580204260e-01 0.0 
8.094580204260e-01 -2.797662802501e+02 0.0 
0.0 0.0 -1.177310515771e+02 
-4.260887273648e+01 2.932930192245e+01 0.0 
2.932930192245e+01 -9.802106300156e+01 0.0 
0.0 0.0 -4.354115657247e+01 
-3.555327238370e+01 2.489663585947e+01 0.0 
2.489663585947e+01 -2.437959934645e+01 0.0 
0.0 0.0 -1.757986151904e+01 
-3.831409308266e+01 2.816354620284e+01 0.0 
2.816354620284e+01 -6.541424492973e+01 0.0 
0.0 0.0 -3.071850140372e+01 
-5.762146323892e+01 7.967279336196e+00 0.0 
7.967279336196e+00 -6.645692070484e+01 0.0 
0.0 0.0 -3.682351518313e+01 
-8.888855881243e+01 2.370325963201e+01 0.0 
2.370325963201e+01 -2.589360572165e+02 0.0 
0.0 0.0 -1.039473848087e+02 
-8.741700036789e+01 8.331219787301e+00 0.0 
8.331219787301e+00 -1.850897609649e+02 0.0 
0.0 0.0 -8.135202839983e+01 
-1.472394099182e+02 2.191537246636e+01 0.0 
2.191537246636e+01 -3.599627557003e+02 0.0 
0.0 0.0 -1.517606496855e+02 
-3.616267492546e+01 -1.498548958028e+01 0.0 
-1.498548958028e+01 -5.187083303961e+01 0.0 
0.0 0.0 -2.424052936525e+01 
-2.303116413115e+01 -6.612677478932e+00 0.0 
-6.612677478932e+00 -4.335114905230e+01 0.0 
0.0 0.0 -1.926492024967e+01 
-3.822302974803e+01 2.609572879861e+01 0.0 
2.609572879861e+01 -2.701554078350e+01 0.0 
0.0 0.0 -1.892739961633e+01 
-6.380109700067e+01 6.686090331650e-01 0.0 
6.686090331650e-01 -1.152359764880e+02 0.0 
0.0 0.0 -5.331112204661e+01 
-5.666692769809e+01 -1.899119107442e+00 0.0 
-1.899119107442e+00 -1.430674731338e+02 0.0 
0.0 0.0 -5.952032024955e+01 
-9.712689310909e+01 2.028380179342e+01 0.0 
2.028380179342e+01 -1.989328004388e+02 0.0 
0.0 0.0 -8.841790806436e+01 
-2.589608893760e+01 -5.019322050752e-01 0.0 
-5.019322050752e-01 -7.150458024867e+01 0.0 
0.0 0.0 -2.882020075588e+01 
-1.342616736787e+02 2.077822536165e+01 0.0 
2.077822536165e+01 -3.435680925187e+02 0.0 
0.0 0.0 -1.429489298592e+02 
-4.743169884797e+01 1.199600162857e+00 0.0 
1.199600162857e+00 -6.059655206081e+01 0.0 
0.0 0.0 -3.200847527263e+01 
-1.395180481847e+02 3.092806205490e+01 0.0 
3.092806205490e+01 -3.366520338712e+02 0.0 
0.0 0.0 -1.424510246168e+02 
-1.087197021291e+02 2.961719124876e+01 0.0 
2.961719124876e+01 -2.840007958075e+02 0.0 
0.0 0.0 -1.174161493810e+02 
-6.083687992190e+01 1.163058407732e+01 0.0 
1.163058407732e+01 -6.900980368829e+01 0.0 
0.0 0.0 -3.855400508306e+01 
-1.514401120102e+02 1.169047109632e+01 0.0 
1.169047109632e+01 -3.732201263028e+02 0.0 
0.0 0.0 -1.569980714939e+02 
-1.011565880372e+02 2.195920252727e+01 0.0 
2.195920252727e+01 -2.148912780958e+02 0.0 
0.0 0.0 -9.441435983991e+01 
-9.003305383730e+01 1.508623842953e+00 0.0 
1.508623842953e+00 -1.975108863419e+02 0.0 
0.0 0.0 -8.586318205375e+01 
-3.975796855937e+01 2.744597569196e+01 0.0 
2.744597569196e+01 -2.837768428506e+01 0.0 
0.0 0.0 -1.834547330550e+01 
-9.074599817245e+01 1.565541410507e+01 0.0 
1.565541410507e+01 -1.861417320190e+02 0.0 
0.0 0.0 -8.266631905743e+01 
-1.245555178875e+02 3.591096981204e+01 0.0 
3.591096981204e+01 -2.940284284936e+02 0.0 
0.0 0.0 -1.251751839143e+02 
-1.329434475558e+02 2.171034774609e+01 0.0 
2.171034774609e+01 -3.436057067031e+02 0.0 
0.0 0.0 -1.425647462777e+02 
-1.122044540888e+02 2.739961874757e+01 0.0 
2.739961874757e+01 -2.971886581439e+02 0.0 
0.0 0.0 -1.224179336698e+02 
-1.675321888005e+02 5.643038411102e+00 0.0 
5.643038411102e+00 -3.922417738679e+02 0.0 
0.0 0.0 -1.675321888005e+02 
-9.487764035717e+01 3.040098038430e+01 0.0 
3.040098038430e+01 -2.070406361242e+02 0.0 
0.0 0.0 -9.017548294442e+01 
-5.680956921880e+01 2.100355619613e+01 0.0 
2.100355619613e+01 -7.288632722257e+01 0.0 
0.0 0.0 -3.946051183294e+01 
-3.752511825576e+01 2.940998309970e+01 0.0 
2.940998309970e+01 -6.970300041852e+01 0.0 
0.0 0.0 -3.039080593462e+01 
-1.070588386943e+02 3.427721769915e+01 0.0 
3.427721769915e+01 -2.332393339053e+02 0.0 
0.0 0.0 -1.016894517799e+02 
-6.184101770535e+01 7.733270919232e+00 0.0 
7.733270919232e+00 -8.202794438220e+01 0.0 
0.0 0.0 -4.276068862627e+01 
-1.508654241063e+02 1.679686822420e+00 0.0 
1.679686822420e+00 -3.591532253200e+02 0.0 
0.0 0.0 -1.526055948279e+02 
-1.195311535634e+02 3.085921590689e+01 0.0 
3.085921590689e+01 -3.025609506743e+02 0.0 
0.0 0.0 -1.262276312713e+02 
-1.592187273539e+02 4.859081076746e+00 0.0 
4.859081076746e+00 -3.783119674556e+02 0.0 
0.0 0.0 -1.608592084428e+02 
-7.135860885953e+01 1.548569478819e+00 0.0 
1.548569478819e+00 -1.366400995726e+02 0.0 
0.0 0.0 -6.199961252963e+01 
-1.423164170030e+02 2.937704760521e+01 0.0 
2.937704760521e+01 -3.434393705736e+02 0.0 
0.0 0.0 -1.453267362730e+02 
-1.470566075206e+02 1.003040978123e+01 0.0 
1.003040978123e+01 -3.630549697518e+02 0.0 
0.0 0.0 -1.526334731817e+02 
-1.455319449457e+02 9.147293689630e+00 0.0 
9.147293689630e+00 -3.622894581029e+02 0.0 
0.0 0.0 -1.519464209146e+02 
-5.894681826800e+01 -1.382416512006e+00 0.0 
-1.382416512006e+00 -1.483220129256e+02 0.0 
0.0 0.0 -6.178064935809e+01 
-1.652749919188e+02 4.263275430882e+00 0.0 
4.263275430882e+00 -3.915080187461e+02 0.0 
0.0 0.0 -1.666349031995e+02 
-4.251933905056e+01 2.407910375658e+00 0.0 
2.407910375658e+00 -4.541832171826e+01 0.0 
0.0 0.0 -2.598129823065e+01 
-8.482274393368e+01 4.775936085842e+00 0.0 
4.775936085842e+00 -1.785262250809e+02 0.0 
0.0 0.0 -7.860469070438e+01 
-2.680774532171e+01 -7.871837886848e+00 0.0 
-7.871837886848e+00 -4.316515892575e+01 0.0 
0.0 0.0 -1.969204780831e+01 
-8.029605769563e+01 2.302743836013e+00 0.0 
2.302743836013e+00 -1.630061219698e+02 0.0 
0.0 0.0 -7.259065389964e+01 
-6.356154446106e+01 1.497222083322e+00 0.0 
1.497222083322e+00 -1.118902950979e+02 0.0 
0.0 0.0 -5.223555186768e+01 
-1.095516227951e+01 5.282102285343e-01 0.0 
5.282102285343e-01 -4.193275553637e+01 0.0 
0.0 0.0 -1.546637534477e+01 
-3.182936773172e+01 -1.501967669644e+01 0.0 
-1.501967669644e+01 -1.306310614203e+02 0.0 
0.0 0.0 -4.926635811324e+01 
-9.886500362571e+01 3.137225839702e+01 0.0 
3.137225839702e+01 -2.241194553689e+02 0.0 
0.0 0.0 -9.649533769837e+01 
-8.979667023566e+01 1.119661977767e+01 0.0 
1.119661977767e+01 -1.990810306221e+02 0.0 
0.0 0.0 -8.626331025733e+01 
-8.463773892675e+01 2.672566754935e+00 0.0 
2.672566754935e+00 -1.810886811527e+02 0.0 
0.0 0.0 -7.931792602382e+01 
-1.364547579823e+02 2.795598226876e+01 0.0 
2.795598226876e+01 -3.427664786293e+02 0.0 
0.0 0.0 -1.433663709835e+02 
-4.922684271284e+01 1.379218708749e-01 0.0 
1.379218708749e-01 -7.397552886440e+01 0.0 
0.0 0.0 -3.656071147317e+01 
-7.699598896041e+00 -1.144049229842e+00 0.0 
-1.144049229842e+00 -2.496197390598e+01 0.0 
0.0 0.0 -9.289828077717e+00 
-3.983943017610e+01 2.176044030175e+01 0.0 
2.176044030175e+01 -1.117352151079e+02 0.0 
0.0 0.0 -4.704535522101e+01 
-1.097171003612e+01 -2.623159576170e+00 0.0 
-2.623159576170e+00 -2.856084942031e+01 0.0 
0.0 0.0 -1.145976783693e+01 
-2.851631474201e+01 -7.474835283498e+00 0.0 
-7.474835283498e+00 -5.784335882789e+01 0.0 
0.0 0.0 -2.528940831282e+01 
-4.872430868948e+01 3.941672424213e+01 0.0 
3.941672424213e+01 -5.712270626603e+01 0.0 
0.0 0.0 -3.220455570134e+01 
-7.963203607121e+01 -2.586525470092e+00 0.0 
-2.586525470092e+00 -1.987658311321e+02 0.0 
0.0 0.0 -8.311936016099e+01 
-1.504586895063e+02 1.438744143977e-01 0.0 
1.438744143977e-01 -3.589323022686e+02 0.0 
0.0 0.0 -1.524172975325e+02 
-1.037932503608e+02 2.957694362862e+01 0.0 
2.957694362862e+01 -2.230533838525e+02 0.0 
0.0 0.0 -9.765399026401e+01 
-7.012040736319e+01 1.687261986181e+01 0.0 
1.687261986181e+01 -9.011588765201e+01 0.0 
0.0 0.0 -4.767088850456e+01 
-6.912034544573e+01 -2.178494907506e+00 0.0 
-2.178494907506e+00 -1.747966145098e+02 0.0 
0.0 0.0 -7.277508798665e+01 
-1.468505524240e+02 7.340876071409e+00 0.0 
7.340876071409e+00 -3.612659182334e+02 0.0 
0.0 0.0 -1.520349411972e+02 
-1.360980567575e+02 1.398201591256e+01 0.0 
1.398201591256e+01 -3.520310209210e+02 0.0 
0.0 0.0 -1.460387233036e+02 
-1.341855033150e+02 3.285775445350e+01 0.0 
3.285775445350e+01 -3.326633522328e+02 0.0 
0.0 0.0 -1.396546566643e+02 
-1.198374353913e+02 3.435813780768e+01 0.0 
3.435813780768e+01 -2.854673947465e+02 0.0 
0.0 0.0 -1.211914490413e+02 
-1.058060096934e+02 3.271653947573e+01 0.0 
3.271653947573e+01 -2.432521741734e+02 0.0 
0.0 0.0 -1.043174551600e+02 
-2.601345848090e+01 -6.729336714503e+00 0.0 
-6.729336714503e+00 -4.244033376235e+01 0.0 
0.0 0.0 -1.948406628681e+01 
-4.139131889608e+01 -1.850755517587e+01 0.0 
-1.850755517587e+01 -1.118334797600e+02 0.0 
0.0 0.0 -4.772989589300e+01 
-1.508069959460e+02 2.260143227703e+00 0.0 
2.260143227703e+00 -3.608387364852e+02 0.0 
0.0 0.0 -1.530937197294e+02 
-1.161777489964e+01 -4.110043969224e-01 0.0 
-4.110043969224e-01 -4.136746549397e+01 0.0 
0.0 0.0 -1.549557211808e+01 
-1.487196097399e+01 -1.320759551002e+00 0.0 
-1.320759551002e+00 -4.941212359002e+01 0.0 
0.0 0.0 -1.888522536920e+01 
-4.314078293547e+01 3.458126063424e+01 0.0 
3.458126063424e+01 -5.567337782341e+01 0.0 
0.0 0.0 -2.990674133032e+01 
-1.464532059816e+01 -1.714103975582e+00 0.0 
-1.714103975582e+00 -3.840566075624e+01 0.0 
0.0 0.0 -1.551529440632e+01 
-1.564731241862e+02 1.038331348696e+01 0.0 
1.038331348696e+01 -3.762010371573e+02 0.0 
0.0 0.0 -1.594022484031e+02 
-1.194060033921e+02 3.642491783725e+01 0.0 
3.642491783725e+01 -2.757119636125e+02 0.0 
0.0 0.0 -1.181353901014e+02 
-8.564952445535e+01 6.512782928256e+00 0.0 
6.512782928256e+00 -1.844832224973e+02 0.0 
0.0 0.0 -8.063982408581e+01 
-1.377018583083e+02 3.255275721758e+01 0.0 
3.255275721758e+01 -3.314098088581e+02 0.0 
0.0 0.0 -1.403335001499e+02 
-1.319348769280e+02 1.531563260778e+01 0.0 
1.531563260778e+01 -3.425157864809e+02 0.0 
0.0 0.0 -1.419351990227e+02 
-5.360899213710e+01 2.384414497209e-01 0.0 
2.384414497209e-01 -8.542355422557e+01 0.0 
0.0 0.0 -4.130976390880e+01 
-9.406115955196e+01 1.560933910863e+01 0.0 
1.560933910863e+01 -2.208093722879e+02 0.0 
0.0 0.0 -9.406115955196e+01 
-4.131757581322e+01 -2.033855540745e+01 0.0 
-2.033855540745e+01 -1.300007327563e+02 0.0 
0.0 0.0 -5.011154725553e+01 
-2.997170014149e+01 -4.493941136016e-03 0.0 
-4.493941136016e-03 -2.681686987028e+01 0.0 
0.0 0.0 -1.663657100353e+01 
-4.414361166811e+01 -2.170508328177e+01 0.0 
-2.170508328177e+01 -7.380811946242e+01 0.0 
0.0 0.0 -3.316479192352e+01 
-5.830957274771e+00 -1.004829237857e+00 0.0 
-1.004829237857e+00 -2.460159766573e+01 0.0 
0.0 0.0 -9.311986080333e+00 
-1.655930083241e+02 2.330225802704e+00 0.0 
2.330225802704e+00 -3.910360205946e+02 0.0 
0.0 0.0 -1.665887086756e+02 
-5.325414316769e+01 9.470571532437e+00 0.0 
9.470571532437e+00 -5.429094258127e+01 0.0 
0.0 0.0 -3.186352572469e+01 
-1.950820935622e+01 -1.364082973036e+00 0.0 
-1.364082973036e+00 -5.761667970024e+01 0.0 
0.0 0.0 -2.273746671694e+01 
-7.576702862212e+01 -2.520431134401e+00 0.0 
-2.520431134401e+00 -1.905550981825e+02 0.0 
0.0 0.0 -7.949663804139e+01 
-1.189599789764e+02 3.769478725640e+01 0.0 
3.769478725640e+01 -2.727182392087e+02 0.0 
0.0 0.0 -1.171034654555e+02 
-8.982778645261e+01 1.123323555817e+01 0.0 
1.123323555817e+01 -1.854179599273e+02 0.0 
0.0 0.0 -8.217372391397e+01 
-9.904648634724e+01 2.462643982830e+01 0.0 
2.462643982830e+01 -2.190548676850e+02 0.0 
0.0 0.0 -9.503040620967e+01 
-5.351501962455e+01 -4.475715718610e-01 0.0 
-4.475715718610e-01 -1.348651082504e+02 0.0 
0.0 0.0 -5.611403836249e+01 
-4.123175029158e+01 2.661740509778e+00 0.0 
2.661740509778e+00 -1.213228748326e+02 0.0 
0.0 0.0 -5.069622048073e+01 
-1.562652696889e+02 5.689482117855e+00 0.0 
5.689482117855e+00 -3.766843465009e+02 0.0 
0.0 0.0 -1.594848848569e+02 
-9.496351105750e+01 1.328866765946e+00 0.0 
1.328866765946e+00 -2.149484747999e+02 0.0 
0.0 0.0 -9.257359575721e+01 
-1.658628928692e+02 5.105943716248e-01 0.0 
5.105943716248e-01 -3.908904424821e+02 0.0 
0.0 0.0 -1.666260006054e+02 
-3.517525795646e+01 -4.698038736938e-01 0.0 
-4.698038736938e-01 -4.150529237708e+01 0.0 
0.0 0.0 -2.260416510006e+01 
-1.418424581059e+02 1.584939994617e+01 0.0 
1.584939994617e+01 -3.554265736775e+02 0.0 
0.0 0.0 -1.487807095350e+02 
-2.088501766016e+01 -9.283352852454e-01 0.0 
-9.283352852454e-01 -5.856923609289e+01 0.0 
0.0 0.0 -2.343627612592e+01 
-9.419324821429e+01 1.830512210151e+01 0.0 
1.830512210151e+01 -1.979078429429e+02 0.0 
0.0 0.0 -8.723032734716e+01 
-6.374200356058e+00 -7.779501103281e-01 0.0 
-7.779501103281e-01 -2.338022905299e+01 0.0 
0.0 0.0 -8.886492747720e+00 
-1.549727109179e+02 1.397635620424e+01 0.0 
1.397635620424e+01 -3.741589085042e+02 0.0 
0.0 0.0 -1.583394858266e+02 
-1.045737111286e+02 2.651285814314e+01 0.0 
2.651285814314e+01 -2.233789220135e+02 0.0 
0.0 0.0 -9.798578994263e+01 
-4.632240995815e+01 1.351064322198e+01 0.0 
1.351064322198e+01 -1.184705294497e+02 0.0 
0.0 0.0 -5.080415602610e+01 
-1.160957929182e+02 3.305860473630e+01 0.0 
3.305860473630e+01 -2.885445812494e+02 0.0 
0.0 0.0 -1.209921122503e+02 
-6.852186313345e+01 2.534245070941e+00 0.0 
2.534245070941e+00 -1.266426765036e+02 0.0 
0.0 0.0 -5.814936189111e+01 
-8.850524770522e+01 8.227822475789e+00 0.0 
8.227822475789e+00 -1.986149257157e+02 0.0 
0.0 0.0 -8.573605202626e+01 
-1.574855922829e+02 2.776627631872e+01 0.0 
2.776627631872e+01 -3.687997153267e+02 0.0 
0.0 0.0 -1.574855922829e+02 
-5.774284447265e+01 1.615698625166e+00 0.0 
1.615698625166e+00 -9.931649404913e+01 0.0 
0.0 0.0 -4.671780155654e+01 
-1.158807294193e+02 3.559438122365e+01 0.0 
3.559438122365e+01 -2.675945963125e+02 0.0 
0.0 0.0 -1.146425977195e+02 
-1.007704124454e+02 2.463418314204e+01 0.0 
2.463418314204e+01 -2.064280744570e+02 0.0 
0.0 0.0 -9.175954607072e+01 
-6.144435499851e+01 1.061711694038e+00 0.0 
1.061711694038e+00 -1.107745868842e+02 0.0 
0.0 0.0 -5.126568256480e+01 
-1.135528880563e+02 3.451046158774e+01 0.0 
3.451046158774e+01 -2.586719423609e+02 0.0 
0.0 0.0 -1.112674491252e+02 
-6.505472430164e+01 -1.319473438265e+00 0.0 
-1.319473438265e+00 -1.625248474899e+02 0.0 
0.0 0.0 -6.787387153746e+01 
-2.931159213636e+01 1.133802250571e-01 0.0 
1.133802250571e-01 -2.693732096650e+01 0.0 
0.0 0.0 -1.647467393086e+01 
-1.270327236371e+02 3.146396005000e+01 0.0 
3.146396005000e+01 -3.177730244321e+02 0.0 
0.0 0.0 -1.330417244208e+02 
-8.860954286753e+01 5.216806128280e-01 0.0 
5.216806128280e-01 -1.989713924825e+02 0.0 
0.0 0.0 -8.587428060500e+01 
9.996881371803e-01 5.517334192945e-02 0.0 
5.517334192945e-02 -8.761014994715e+00 0.0 
0.0 0.0 -1.194072038309e+00 
-2.907332338856e+01 -2.190023617827e-01 0.0 
-2.190023617827e-01 -2.718220360715e+01 0.0 
0.0 0.0 -1.647665809871e+01 
-1.602754568912e+02 8.005106225962e-01 0.0 
8.005106225962e-01 -3.780527791742e+02 0.0 
0.0 0.0 -1.610984708196e+02 
-2.907763162914e+01 -3.513561984658e+00 0.0 
-3.513561984658e+00 -7.397242276440e+01 0.0 
0.0 0.0 -3.051501631806e+01 
-1.338037568061e+02 1.928009591385e+01 0.0 
1.928009591385e+01 -3.481822440896e+02 0.0 
0.0 0.0 -1.441958002687e+02 
-1.047870647540e+02 2.856800593218e+01 0.0 
2.856800593218e+01 -2.146503119541e+02 0.0 
0.0 0.0 -9.543121301243e+01 
-9.169815706716e+01 7.954340813107e+00 0.0 
7.954340813107e+00 -1.986093648458e+02 0.0 
0.0 0.0 -8.669225657388e+01 
-2.641028415544e+01 -2.363367527847e+00 0.0 
-2.363367527847e+00 -7.088881327651e+01 0.0 
0.0 0.0 -2.878972922958e+01 
-4.257791010367e+01 3.443573999177e+01 0.0 
3.443573999177e+01 -8.615734480565e+01 0.0 
0.0 0.0 -3.779884684461e+01 
-9.314892568570e+01 -1.567756841413e+00 0.0 
-1.567756841413e+00 -2.324221111323e+02 0.0 
0.0 0.0 -9.727131104540e+01 
-7.396125903747e+01 1.125360371643e+00 0.0 
1.125360371643e+00 -1.482023054240e+02 0.0 
0.0 0.0 -6.624906933845e+01 
-1.194212629257e+02 -3.941983112811e+00 0.0 
-3.941983112811e+00 -9.701679561552e+01 0.0 
0.0 0.0 -6.515580207515e+01 
-9.555786771333e+01 2.043418527934e+01 0.0 
2.043418527934e+01 -2.116093569418e+02 0.0 
0.0 0.0 -9.175016739653e+01 
-5.496116940729e+01 5.273642217969e-01 0.0 
5.273642217969e-01 -9.301283766728e+01 0.0 
0.0 0.0 -4.399220212237e+01 
-4.350237684563e+01 -2.018589308915e+01 0.0 
-2.018589308915e+01 -9.049921721916e+01 0.0 
0.0 0.0 -3.794029700020e+01 
-5.022161212378e+01 5.626702486796e-01 0.0 
5.626702486796e-01 -7.905068746779e+01 0.0 
0.0 0.0 -3.838168987747e+01 
-1.327915383997e+02 3.543253706501e+01 0.0 
3.543253706501e+01 -3.238840727637e+02 0.0 
0.0 0.0 -1.366026833490e+02 
-9.819256154382e+01 1.044298277167e+00 0.0 
1.044298277167e+00 -2.435446211709e+02 0.0 
0.0 0.0 -1.021211548144e+02 
-4.975760577169e+01 3.457727033988e+01 0.0 
3.457727033988e+01 -3.191839048905e+01 0.0 
0.0 0.0 -2.524893820838e+01 
-5.807242013626e+01 -3.007915758474e+00 0.0 
-3.007915758474e+00 -1.472656053831e+02 0.0 
0.0 0.0 -6.120140765581e+01 
-8.516281710621e+01 -2.219649317712e+00 0.0 
-2.219649317712e+00 -2.137422343143e+02 0.0 
0.0 0.0 -8.927151542615e+01 
-1.024916127917e+02 -1.546998949107e+00 0.0 
-1.546998949107e+00 -2.528015406548e+02 0.0 
0.0 0.0 -1.061879460339e+02 
-1.318023171316e+02 2.930035845191e+01 0.0 
2.930035845191e+01 -3.300976191308e+02 0.0 
0.0 0.0 -1.381699808787e+02 
-8.311857267512e+01 -1.939634899448e-01 0.0 
-1.939634899448e-01 -2.082572310961e+02 0.0 
0.0 0.0 -8.701274113135e+01 
-8.863179446474e+01 -1.450614577675e+00 0.0 
-1.450614577675e+00 -2.209347801037e+02 0.0 
0.0 0.0 -9.246997237052e+01 
-1.410122192120e+01 -2.665259599632e+00 0.0 
-2.665259599632e+00 -3.736275295303e+01 0.0 
0.0 0.0 -1.503919246227e+01 
-1.504889082876e+02 3.743930519655e+00 0.0 
3.743930519655e+00 -3.651265436957e+02 0.0 
0.0 0.0 -1.542846355950e+02 
-1.123368370134e+02 3.332475963212e+01 0.0 
3.332475963212e+01 -2.727444319156e+02 0.0 
0.0 0.0 -1.151243806787e+02 
-3.899417418356e+01 3.156257269543e+01 0.0 
3.156257269543e+01 -1.012538599971e+02 0.0 
0.0 0.0 -4.278104397348e+01 
-8.786991876819e+01 1.499088895557e+00 0.0 
1.499088895557e+00 -1.980520754901e+02 0.0 
0.0 0.0 -8.537659827748e+01 
-1.601342299471e+02 -2.442775552835e-01 0.0 
-2.442775552835e-01 -3.775470991380e+02 0.0 
0.0 0.0 -1.609043987255e+02 
-3.572986876414e+01 6.138828538573e-01 0.0 
6.138828538573e-01 -4.254140656443e+01 0.0 
0.0 0.0 -2.308138259857e+01 
-5.569452567778e+01 4.606187724171e-01 0.0 
4.606187724171e-01 -9.330712273012e+01 0.0 
0.0 0.0 -4.430049452237e+01 
-8.329556367902e+01 -2.053999608931e+00 0.0 
-2.053999608931e+00 -2.080358414770e+02 0.0 
0.0 0.0 -8.699942154679e+01 
-8.648000131312e+01 -8.852165552218e-01 0.0 
-8.852165552218e-01 -2.151947857613e+02 0.0 
0.0 0.0 -9.010243612233e+01 
-8.875896101279e+01 -6.683564052500e-01 0.0 
-6.683564052500e-01 -2.217829286560e+02 0.0 
0.0 0.0 -9.276256690065e+01 
-1.277056031493e+02 1.842631879364e+01 0.0 
1.842631879364e+01 -3.365920383770e+02 0.0 
0.0 0.0 -1.388892924579e+02 
-3.667756325347e+01 -1.760722108857e+01 0.0 
-1.760722108857e+01 -6.719283868046e+01 0.0 
0.0 0.0 -2.947075742874e+01 
-1.174954582647e+02 3.671631645845e+01 0.0 
3.671631645845e+01 -2.782850935395e+02 0.0 
0.0 0.0 -1.183341655413e+02 
-4.219105957471e+01 -9.411258314719e-03 0.0 
-9.411258314719e-03 -5.921668725121e+01 0.0 
0.0 0.0 -3.002232404777e+01 
-1.002645640165e+02 2.010737610783e+01 0.0 
2.010737610783e+01 -2.107973891438e+02 0.0 
0.0 0.0 -9.291858594810e+01 
-1.300799026239e+02 1.871979280563e+01 0.0 
1.871979280563e+01 -3.375498069935e+02 0.0 
0.0 0.0 -1.398889128852e+02 
-5.203753660966e+01 1.188302843333e+00 0.0 
1.188302843333e+00 -8.017923650921e+01 0.0 
0.0 0.0 -3.926503193566e+01 
-1.080006386601e+02 3.317088306649e+01 0.0 
3.317088306649e+01 -2.450900245407e+02 0.0 
0.0 0.0 -1.055271989602e+02 
-1.302129443143e+02 2.806084176943e+01 0.0 
2.806084176943e+01 -3.288208063218e+02 0.0 
0.0 0.0 -1.373101251908e+02 
-1.361543262680e+02 3.182752663593e+01 0.0 
3.182752663593e+01 -3.384304344748e+02 0.0 
0.0 0.0 -1.419754282228e+02 
-4.711143081686e+01 3.799928813276e+01 0.0 
3.799928813276e+01 -6.854666812745e+01 0.0 
0.0 0.0 -3.567740631296e+01 
-1.100631860692e+02 3.477389151126e+01 0.0 
3.477389151126e+01 -2.462231545925e+02 0.0 
0.0 0.0 -1.064859021985e+02 
-1.135696655852e+02 3.527435079048e+01 0.0 
3.527435079048e+01 -2.619615776803e+02 0.0 
0.0 0.0 -1.122593729796e+02 
-1.239960013368e+01 -1.084316920368e+00 0.0 
-1.084316920368e+00 -3.801543046290e+01 0.0 
0.0 0.0 -1.472450917897e+01 
-7.920219573570e+01 -1.045153610612e+00 0.0 
-1.045153610612e+00 -1.981142645893e+02 0.0 
0.0 0.0 -8.279493809750e+01 
-5.197543113939e+01 3.786413783435e+01 0.0 
3.786413783435e+01 -6.696488008223e+01 0.0 
0.0 0.0 -3.664461278893e+01 
-1.136773311409e+02 3.632721858921e+01 0.0 
3.632721858921e+01 -2.538655495086e+02 0.0 
0.0 0.0 -1.098628641948e+02 
-2.127892195154e+01 6.677373334241e-01 0.0 
6.677373334241e-01 -8.325643069413e+00 0.0 
0.0 0.0 -8.481369506285e+00 
-2.222877190717e+01 1.648621934254e-01 0.0 
1.648621934254e-01 -9.805347892284e+00 0.0 
0.0 0.0 -9.210235939836e+00 
-2.164933025176e+01 2.038977515389e-01 0.0 
2.038977515389e-01 -9.565225251735e+00 0.0 
0.0 0.0 -8.964366651048e+00 
-2.192225381086e+01 9.020981401697e-02 0.0 
9.020981401697e-02 -9.854548316399e+00 0.0 
0.0 0.0 -9.133040638178e+00 
-2.174616056191e+01 -6.089954475371e-03 0.0 
-6.089954475371e-03 -9.755844157652e+00 0.0 
0.0 0.0 -9.050601415867e+00 
-2.202603184478e+01 -1.057805797995e-01 0.0 
-1.057805797995e-01 -9.986017244359e+00 0.0 
0.0 0.0 -9.203614726742e+00 
-2.167330839569e+01 3.923572155548e-02 0.0 
3.923572155548e-02 -9.887894972382e+00 0.0 
0.0 0.0 -9.068361010422e+00 
-2.222918464163e+01 -5.411417081899e-02 0.0 
-5.411417081899e-02 -9.976994494408e+00 0.0 
0.0 0.0 -9.261853740810e+00 
-2.156780073674e+01 -6.801148150908e-02 0.0 
-6.801148150908e-02 -9.699435799730e+00 0.0 
0.0 0.0 -8.980170960941e+00 
-2.226793257606e+01 -2.534281578455e-01 0.0 
-2.534281578455e-01 -1.006808862232e+01 0.0 
0.0 0.0 -9.300806359513e+00 
-2.126011451581e+01 -5.573024953178e-02 0.0 
-5.573024953178e-02 -9.763161841663e+00 0.0 
0.0 0.0 -8.906982907241e+00 
-2.244780992698e+01 -2.768297430955e-01 0.0 
-2.768297430955e-01 -1.012175704969e+01 0.0 
0.0 0.0 -9.370870093001e+00 
-3.061479326838e+01 5.082995951850e+00 0.0 
5.082995951850e+00 -1.373666195886e+01 0.0 
0.0 0.0 -1.290543656817e+01 
-2.091749171559e+01 -7.317624787623e-02 0.0 
-7.317624787623e-02 -9.641850973579e+00 0.0 
0.0 0.0 -8.767802806751e+00 
-3.282985439424e+01 2.636715427379e+00 0.0 
2.636715427379e+00 -1.093782811297e+01 0.0 
0.0 0.0 -1.273030475216e+01 
-2.287004635512e+01 -4.201036808452e-01 0.0 
-4.201036808452e-01 -1.024634436875e+01 0.0 
0.0 0.0 -9.534917217162e+00 
-2.047870970436e+01 -4.913179941079e-03 0.0 
-4.913179941079e-03 -9.618091158205e+00 0.0 
0.0 0.0 -8.629040258768e+00 
-2.280395666848e+01 -3.549064731864e-01 0.0 
-3.549064731864e-01 -1.023589508067e+01 0.0 
0.0 0.0 -9.511955524746e+00 
-2.006920293066e+01 -7.571269906036e-02 0.0 
-7.571269906036e-02 -9.442818931026e+00 0.0 
0.0 0.0 -8.453606558506e+00 
-2.328020672735e+01 -5.504334313979e-01 0.0 
-5.504334313979e-01 -1.037563417416e+01 0.0 
0.0 0.0 -9.696752270454e+00 
-1.949665055032e+01 -3.070868383287e-03 0.0 
-3.070868383287e-03 -9.509256084612e+00 0.0 
0.0 0.0 -8.301771990479e+00 
-2.399569685735e+01 -4.789386011289e-01 0.0 
-4.789386011289e-01 -1.049085415591e+01 0.0 
0.0 0.0 -9.945965303976e+00 
-2.262455253321e+01 1.587512661027e+00 0.0 
1.587512661027e+00 -6.206972296595e+00 0.0 
0.0 0.0 -8.249457448943e+00 
-1.914228296944e+01 1.939146987009e-01 0.0 
1.939146987009e-01 -9.496177597189e+00 0.0 
0.0 0.0 -8.191538169987e+00 
-2.501330413839e+01 -2.518762401224e-01 0.0 
-2.518762401224e-01 -1.057128514741e+01 0.0 
0.0 0.0 -1.027537678574e+01 
-1.922092535418e+01 4.335510266283e-01 0.0 
4.335510266283e-01 -9.441237455854e+00 0.0 
0.0 0.0 -8.198648843009e+00 
-2.666758330428e+01 4.059738599222e-02 0.0 
4.059738599222e-02 -1.068936194429e+01 0.0 
0.0 0.0 -1.080708357457e+01 
-2.908756277149e+01 8.129109310199e-01 0.0 
8.129109310199e-01 -1.080693086121e+01 0.0 
0.0 0.0 -1.156834808981e+01 
-1.995900488566e+01 9.255890313520e-01 0.0 
9.255890313520e-01 -9.699806829395e+00 0.0 
0.0 0.0 -8.497643514518e+00 
-2.229403703489e+01 2.090498105835e+00 0.0 
2.090498105835e+00 -1.053019844592e+01 0.0 
0.0 0.0 -9.447270644241e+00 
-4.190609607644e+01 8.977677419600e+00 0.0 
8.977677419600e+00 -1.365775443029e+01 0.0 
0.0 0.0 -1.626915515202e+01 
-3.285244059093e+01 3.036980611309e+00 0.0 
3.036980611309e+00 7.275454569165e-01 0.0 
0.0 0.0 -8.808595310647e+00 
-2.207522763293e+01 1.261092768248e+00 0.0 
1.261092768248e+00 -9.939039982144e+00 0.0 
0.0 0.0 -9.204280284521e+00 
-2.229660171951e+01 -1.454305784325e+00 0.0 
-1.454305784325e+00 -8.582683538927e+00 0.0 
0.0 0.0 -8.863785577530e+00 
-2.377396431755e+01 -3.680425370129e-02 0.0 
-3.680425370129e-02 -1.451241993005e+01 0.0 
0.0 0.0 -1.108591527428e+01 
-2.071680897461e+01 -2.219320541253e-01 0.0 
-2.219320541253e-01 -4.211610450569e+00 0.0 
0.0 0.0 -7.078525827553e+00 
-4.538938791889e+01 1.040045664837e+01 0.0 
1.040045664837e+01 -1.100836810458e+01 0.0 
0.0 0.0 -1.651932680704e+01 

TENSORS element_materi_strain_total float
-1.337160370393e-03 2.740815703729e-03 0.0 
2.740815703729e-03 6.448167338842e-03 0.0 
0.0 0.0 0.0 
-1.225944897710e-03 2.416021409346e-03 0.0 
2.416021409346e-03 6.215125307296e-03 0.0 
0.0 0.0 0.0 
-2.937415704652e-04 3.031374947158e-03 0.0 
3.031374947158e-03 1.372350191739e-02 0.0 
0.0 0.0 0.0 
-4.208527944440e-04 2.800215164497e-04 0.0 
2.800215164497e-04 1.639699341351e-02 0.0 
0.0 0.0 0.0 
-1.367847475333e-03 1.367872284027e-04 0.0 
1.367872284027e-04 1.410961487948e-02 0.0 
0.0 0.0 0.0 
7.755274469350e-04 2.955964093673e-03 0.0 
2.955964093673e-03 -3.145931640799e-03 0.0 
0.0 0.0 0.0 
-1.277830680239e-03 1.066994861952e-04 0.0 
1.066994861952e-04 1.409515524189e-02 0.0 
0.0 0.0 0.0 
-1.301478366620e-03 2.815548258858e-03 0.0 
2.815548258858e-03 5.684172407152e-03 0.0 
0.0 0.0 0.0 
-1.361160954595e-03 5.124438146436e-05 0.0 
5.124438146436e-05 1.410130843208e-02 0.0 
0.0 0.0 0.0 
-4.101601633774e-04 5.263723252000e-04 0.0 
5.263723252000e-04 1.636462120571e-02 0.0 
0.0 0.0 0.0 
1.373812423091e-04 -7.304156356795e-05 0.0 
-7.304156356795e-05 4.723098197488e-03 0.0 
0.0 0.0 0.0 
-1.295820649458e-03 2.500827212991e-03 0.0 
2.500827212991e-03 5.428218893367e-03 0.0 
0.0 0.0 0.0 
5.325508014842e-05 4.564027095219e-05 0.0 
4.564027095219e-05 7.118306812663e-03 0.0 
0.0 0.0 0.0 
-1.694452875856e-03 5.573584656600e-04 0.0 
5.573584656600e-04 1.442844291344e-02 0.0 
0.0 0.0 0.0 
3.214640865168e-05 -6.616997494099e-07 0.0 
-6.616997494099e-07 7.289020477140e-03 0.0 
0.0 0.0 0.0 
-2.522257007510e-04 4.312631226231e-04 0.0 
4.312631226231e-04 1.648005585830e-02 0.0 
0.0 0.0 0.0 
-1.479754831034e-03 1.803352052159e-04 0.0 
1.803352052159e-04 1.400866710611e-02 0.0 
0.0 0.0 0.0 
1.196655505317e-03 1.443954808587e-03 0.0 
1.443954808587e-03 -3.527419072026e-03 0.0 
0.0 0.0 0.0 
2.199752167207e-04 -9.603642237370e-05 0.0 
-9.603642237370e-05 1.350567985263e-03 0.0 
0.0 0.0 0.0 
1.391849470773e-04 -8.689371414633e-05 0.0 
-8.689371414633e-05 1.447489399843e-03 0.0 
0.0 0.0 0.0 
-5.078482281805e-04 5.024437497401e-04 0.0 
5.024437497401e-04 1.636933955517e-02 0.0 
0.0 0.0 0.0 
-1.223082084104e-03 2.390673473615e-03 0.0 
2.390673473615e-03 7.515470405626e-03 0.0 
0.0 0.0 0.0 
-1.337600982290e-03 2.509748244458e-03 0.0 
2.509748244458e-03 8.083899987010e-03 0.0 
0.0 0.0 0.0 
8.379943249539e-04 1.113244749438e-03 0.0 
1.113244749438e-03 6.218265375539e-03 0.0 
0.0 0.0 0.0 
-1.789510850251e-03 1.121776125173e-03 0.0 
1.121776125173e-03 1.448386803428e-02 0.0 
0.0 0.0 0.0 
1.321504371641e-04 -1.024697248437e-04 0.0 
-1.024697248437e-04 4.946043531126e-03 0.0 
0.0 0.0 0.0 
-1.886351930940e-03 7.715526379950e-04 0.0 
7.715526379950e-04 1.355885369142e-02 0.0 
0.0 0.0 0.0 
3.723794872399e-04 3.370231048767e-03 0.0 
3.370231048767e-03 9.794156274561e-03 0.0 
0.0 0.0 0.0 
-2.018581460907e-03 1.299762472435e-03 0.0 
1.299762472435e-03 1.446898580215e-02 0.0 
0.0 0.0 0.0 
7.390670969016e-04 1.097564346166e-03 0.0 
1.097564346166e-03 6.481535532036e-03 0.0 
0.0 0.0 0.0 
8.843662508580e-04 -2.541004850169e-03 0.0 
-2.541004850169e-03 -2.149062536839e-03 0.0 
0.0 0.0 0.0 
1.093108031802e-04 -2.091284727456e-04 0.0 
-2.091284727456e-04 3.279519066255e-04 0.0 
0.0 0.0 0.0 
-5.092209043573e-04 3.170603848522e-03 0.0 
3.170603848522e-03 1.392250099276e-02 0.0 
0.0 0.0 0.0 
9.983882826492e-05 -3.081742884159e-05 0.0 
-3.081742884159e-05 6.011244692267e-03 0.0 
0.0 0.0 0.0 
3.471321516169e-04 3.402892249186e-04 0.0 
3.402892249186e-04 6.712632766482e-03 0.0 
0.0 0.0 0.0 
7.888734077044e-05 2.114857773045e-04 0.0 
2.114857773045e-04 7.384163347298e-03 0.0 
0.0 0.0 0.0 
7.838046325359e-05 6.410347771459e-05 0.0 
6.410347771459e-05 7.375075069992e-03 0.0 
0.0 0.0 0.0 
7.111499534638e-04 2.225700735325e-03 0.0 
2.225700735325e-03 7.411350980812e-03 0.0 
0.0 0.0 0.0 
-1.259141574927e-03 -3.091180958554e-05 0.0 
-3.091180958554e-05 1.366025379872e-02 0.0 
0.0 0.0 0.0 
-1.222494299300e-03 6.716272625259e-05 0.0 
6.716272625259e-05 1.367607843336e-02 0.0 
0.0 0.0 0.0 
-1.457059017004e-03 2.443837281942e-03 0.0 
2.443837281942e-03 9.667702699702e-03 0.0 
0.0 0.0 0.0 
2.863192970555e-04 6.250399772875e-04 0.0 
6.250399772875e-04 6.802872374018e-03 0.0 
0.0 0.0 0.0 
-1.337420341809e-03 2.888954121214e-03 0.0 
2.888954121214e-03 4.059467539238e-03 0.0 
0.0 0.0 0.0 
-2.091631276886e-03 8.058912253152e-04 0.0 
8.058912253152e-04 1.371012630794e-02 0.0 
0.0 0.0 0.0 
-5.518291912912e-04 9.241135946451e-05 0.0 
9.241135946451e-05 1.625218397006e-02 0.0 
0.0 0.0 0.0 
-1.419266352642e-03 2.851542276832e-03 0.0 
2.851542276832e-03 4.056229436281e-03 0.0 
0.0 0.0 0.0 
9.013885196543e-04 -2.437800317868e-03 0.0 
-2.437800317868e-03 -2.844536746751e-03 0.0 
0.0 0.0 0.0 
-3.797877753174e-04 1.753678331407e-04 0.0 
1.753678331407e-04 1.626715096645e-02 0.0 
0.0 0.0 0.0 
-5.035961438529e-04 -2.139420594256e-03 0.0 
-2.139420594256e-03 -1.137601768695e-03 0.0 
0.0 0.0 0.0 
-1.786206531389e-03 4.438044951275e-04 0.0 
4.438044951275e-04 1.429786523112e-02 0.0 
0.0 0.0 0.0 
-1.379828639178e-03 2.500972950676e-03 0.0 
2.500972950676e-03 8.834747322229e-03 0.0 
0.0 0.0 0.0 
1.371628936506e-04 -9.934355825050e-05 0.0 
-9.934355825050e-05 1.777371116898e-03 0.0 
0.0 0.0 0.0 
1.865904614916e-03 -2.219096005465e-03 0.0 
-2.219096005465e-03 -2.751241244224e-03 0.0 
0.0 0.0 0.0 
-1.267752125647e-03 2.303584278295e-03 0.0 
2.303584278295e-03 8.959208143938e-03 0.0 
0.0 0.0 0.0 
-4.124434003349e-04 2.464939750516e-03 0.0 
2.464939750516e-03 1.507546970883e-02 0.0 
0.0 0.0 0.0 
3.659976407921e-05 -2.271711287395e-04 0.0 
-2.271711287395e-04 2.385307186571e-03 0.0 
0.0 0.0 0.0 
7.788023476163e-05 -9.202681070995e-05 0.0 
-9.202681070995e-05 1.862943421922e-03 0.0 
0.0 0.0 0.0 
1.156725044951e-04 2.509232844533e-07 0.0 
2.509232844533e-07 6.012096941793e-03 0.0 
0.0 0.0 0.0 
2.557104709571e-04 -1.895852844790e-04 0.0 
-1.895852844790e-04 9.590662146153e-04 0.0 
0.0 0.0 0.0 
-3.010804465370e-04 4.046006359113e-04 0.0 
4.046006359113e-04 1.648043792083e-02 0.0 
0.0 0.0 0.0 
-8.736209501223e-04 -2.001423089076e-03 0.0 
-2.001423089076e-03 -3.450788698401e-03 0.0 
0.0 0.0 0.0 
8.084126984225e-04 2.816796763266e-03 0.0 
2.816796763266e-03 8.096651487720e-03 0.0 
0.0 0.0 0.0 
-7.225730868754e-06 2.910604406363e-03 0.0 
2.910604406363e-03 5.262023925047e-03 0.0 
0.0 0.0 0.0 
1.704810742922e-03 -2.159114848834e-03 0.0 
-2.159114848834e-03 -2.333494620841e-03 0.0 
0.0 0.0 0.0 
7.301655763414e-05 1.004968864805e-05 0.0 
1.004968864805e-05 7.059937412452e-03 0.0 
0.0 0.0 0.0 
-1.256342029845e-03 2.326284765230e-03 0.0 
2.326284765230e-03 8.227989641593e-03 0.0 
0.0 0.0 0.0 
2.842296795151e-04 -8.039366961659e-04 0.0 
-8.039366961659e-04 -4.871085379544e-03 0.0 
0.0 0.0 0.0 
-4.865986642865e-04 3.280528077997e-03 0.0 
3.280528077997e-03 1.352834015124e-02 0.0 
0.0 0.0 0.0 
-3.985408791324e-04 -1.521087776777e-03 0.0 
-1.521087776777e-03 7.943881528625e-04 0.0 
0.0 0.0 0.0 
-1.340179101827e-05 3.359756333194e-03 0.0 
3.359756333194e-03 1.166376055083e-02 0.0 
0.0 0.0 0.0 
1.638422023467e-04 -1.283747043658e-04 0.0 
-1.283747043658e-04 5.125187592962e-03 0.0 
0.0 0.0 0.0 
0.0 1.642275116148e-03 0.0 
1.642275116148e-03 1.617208591303e-02 0.0 
0.0 0.0 0.0 
3.293442414896e-04 3.050767600025e-03 0.0 
3.050767600025e-03 9.413269894065e-03 0.0 
0.0 0.0 0.0 
5.225273498457e-04 -5.251601666229e-06 0.0 
-5.251601666229e-06 2.681843409154e-04 0.0 
0.0 0.0 0.0 
1.846361933966e-05 -1.919288320721e-04 0.0 
-1.919288320721e-04 2.506262824102e-03 0.0 
0.0 0.0 0.0 
-6.118452034719e-04 1.177531735120e-03 0.0 
1.177531735120e-03 1.624126468481e-02 0.0 
0.0 0.0 0.0 
-6.823757384341e-04 2.701010398513e-03 0.0 
2.701010398513e-03 1.487908053704e-02 0.0 
0.0 0.0 0.0 
-1.272409151703e-03 3.029869486643e-03 0.0 
3.029869486643e-03 2.416400435937e-03 0.0 
0.0 0.0 0.0 
1.390203826359e-04 -2.015287700502e-04 0.0 
-2.015287700502e-04 1.038078192866e-03 0.0 
0.0 0.0 0.0 
-1.228681644739e-03 3.068699474596e-03 0.0 
3.068699474596e-03 2.418026333882e-03 0.0 
0.0 0.0 0.0 
-5.703848228926e-04 -1.755049819855e-03 0.0 
-1.755049819855e-03 8.314370593514e-04 0.0 
0.0 0.0 0.0 
-1.511164123543e-03 1.516972456058e-04 0.0 
1.516972456058e-04 1.404908085613e-02 0.0 
0.0 0.0 0.0 
-1.355257300626e-03 2.597877300859e-03 0.0 
2.597877300859e-03 7.345857230903e-03 0.0 
0.0 0.0 0.0 
-1.256731541902e-03 2.350647708776e-03 0.0 
2.350647708776e-03 6.870051681113e-03 0.0 
0.0 0.0 0.0 
-1.456693037802e-03 1.317129973739e-04 0.0 
1.317129973739e-04 1.433566828661e-02 0.0 
0.0 0.0 0.0 
-1.328190666947e-03 1.574237531932e-04 0.0 
1.574237531932e-04 1.433540348651e-02 0.0 
0.0 0.0 0.0 
1.293071174830e-04 -7.892528200169e-05 0.0 
-7.892528200169e-05 5.347988550289e-03 0.0 
0.0 0.0 0.0 
1.102808134033e-04 1.557667771131e-05 0.0 
1.557667771131e-05 5.837939468070e-03 0.0 
0.0 0.0 0.0 
-8.854258000810e-04 2.859260104451e-03 0.0 
2.859260104451e-03 1.262406199395e-02 0.0 
0.0 0.0 0.0 
-1.488588038008e-03 1.075267168432e-04 0.0 
1.075267168432e-04 1.410459876585e-02 0.0 
0.0 0.0 0.0 
-2.845256497873e-04 -2.693541152469e-04 0.0 
-2.693541152469e-04 5.092432860911e-04 0.0 
0.0 0.0 0.0 
-2.067604435822e-03 9.965817815756e-04 0.0 
9.965817815756e-04 1.398500735293e-02 0.0 
0.0 0.0 0.0 
-8.592877891384e-04 9.952605081455e-05 0.0 
9.952605081455e-05 1.553533747311e-02 0.0 
0.0 0.0 0.0 
-9.499623853941e-04 1.715997092197e-04 0.0 
1.715997092197e-04 1.548656947234e-02 0.0 
0.0 0.0 0.0 
-4.054364508761e-04 1.824780205152e-03 0.0 
1.824780205152e-03 1.609632654252e-02 0.0 
0.0 0.0 0.0 
3.528132515820e-04 2.404579013305e-03 0.0 
2.404579013305e-03 8.047629410164e-03 0.0 
0.0 0.0 0.0 
-1.646914842939e-03 2.094432139434e-04 0.0 
2.094432139434e-04 1.406974844779e-02 0.0 
0.0 0.0 0.0 
4.483177685202e-04 5.484240005918e-04 0.0 
5.484240005918e-04 6.835266886793e-03 0.0 
0.0 0.0 0.0 
-1.098573364332e-03 1.981686581762e-07 0.0 
1.981686581762e-07 1.464495950815e-02 0.0 
0.0 0.0 0.0 
-4.800894488555e-04 2.838206589715e-03 0.0 
2.838206589715e-03 5.916594300810e-03 0.0 
0.0 0.0 0.0 
-1.373402240793e-03 6.143943617489e-05 0.0 
6.143943617489e-05 1.388958577785e-02 0.0 
0.0 0.0 0.0 
3.491603073980e-05 5.699614978372e-05 0.0 
5.699614978372e-05 7.285412887760e-03 0.0 
0.0 0.0 0.0 
1.334982677621e-03 2.270524750103e-03 0.0 
2.270524750103e-03 6.274819746870e-03 0.0 
0.0 0.0 0.0 
6.820360632465e-04 2.701789303296e-03 0.0 
2.701789303296e-03 8.115742028354e-03 0.0 
0.0 0.0 0.0 
2.750743520472e-04 2.895562566693e-03 0.0 
2.895562566693e-03 3.551851916878e-03 0.0 
0.0 0.0 0.0 
-5.301717537466e-04 -2.982863813568e-03 0.0 
-2.982863813568e-03 -1.334939550872e-03 0.0 
0.0 0.0 0.0 
7.299279912587e-05 -2.491553386335e-05 0.0 
-2.491553386335e-05 6.651779777087e-03 0.0 
0.0 0.0 0.0 
-8.314421325137e-04 2.033288201052e-04 0.0 
2.033288201052e-04 1.579131174340e-02 0.0 
0.0 0.0 0.0 
-1.145176663388e-03 -3.071646767395e-03 0.0 
-3.071646767395e-03 -2.048874990022e-03 0.0 
0.0 0.0 0.0 
8.540075835994e-05 8.402937176094e-05 0.0 
8.402937176094e-05 7.127721689000e-03 0.0 
0.0 0.0 0.0 
-7.114492134405e-04 2.817027292633e-03 0.0 
2.817027292633e-03 1.198763455868e-02 0.0 
0.0 0.0 0.0 
6.367368299067e-04 5.478300387206e-06 0.0 
5.478300387206e-06 5.451660294398e-05 0.0 
0.0 0.0 0.0 
1.230270553342e-03 2.728589224034e-03 0.0 
2.728589224034e-03 3.500159212355e-03 0.0 
0.0 0.0 0.0 
-2.081377299581e-03 1.978197099480e-03 0.0 
1.978197099480e-03 1.271447038459e-02 0.0 
0.0 0.0 0.0 
6.458420283795e-05 -3.372814572777e-04 0.0 
-3.372814572777e-04 2.990416772232e-03 0.0 
0.0 0.0 0.0 
-3.624764731653e-04 2.838793110521e-03 0.0 
2.838793110521e-03 5.083562583525e-03 0.0 
0.0 0.0 0.0 
-2.674089209875e-05 2.830034399506e-03 0.0 
2.830034399506e-03 5.268088468846e-03 0.0 
0.0 0.0 0.0 
2.074452778715e-04 3.417512874663e-04 0.0 
3.417512874663e-04 6.963426852610e-03 0.0 
0.0 0.0 0.0 
-1.126210001668e-03 6.438862613366e-05 0.0 
6.438862613366e-05 1.452338265566e-02 0.0 
0.0 0.0 0.0 
1.035660319677e-04 2.979148448512e-03 0.0 
2.979148448512e-03 4.407069676041e-03 0.0 
0.0 0.0 0.0 
-2.769383691803e-04 -8.981086306451e-04 0.0 
-8.981086306451e-04 1.077687330689e-03 0.0 
0.0 0.0 0.0 
-2.038126473766e-03 1.220002834153e-03 0.0 
1.220002834153e-03 1.359880589802e-02 0.0 
0.0 0.0 0.0 
-7.013736959234e-04 1.392888169162e-04 0.0 
1.392888169162e-04 1.580704128386e-02 0.0 
0.0 0.0 0.0 
1.139598496791e-04 2.838841744989e-03 0.0 
2.838841744989e-03 4.413803924050e-03 0.0 
0.0 0.0 0.0 
-1.056366921314e-03 3.169741930898e-03 0.0 
3.169741930898e-03 5.842102565123e-04 0.0 
0.0 0.0 0.0 
-1.754280767591e-03 2.364455989385e-03 0.0 
2.364455989385e-03 1.126346182310e-02 0.0 
0.0 0.0 0.0 
2.684779689099e-05 -3.037238084490e-04 0.0 
-3.037238084490e-04 2.961360459487e-03 0.0 
0.0 0.0 0.0 
-1.521180112279e-03 2.238777176359e-03 0.0 
2.238777176359e-03 1.054654933398e-02 0.0 
0.0 0.0 0.0 
-3.342939395053e-04 1.383732266227e-03 0.0 
1.383732266227e-03 1.620810027549e-02 0.0 
0.0 0.0 0.0 
-1.708535794006e-04 3.448943741188e-03 0.0 
3.448943741188e-03 -6.785511973497e-04 0.0 
0.0 0.0 0.0 
1.717161139327e-04 -1.005588707827e-04 0.0 
-1.005588707827e-04 4.942759363791e-03 0.0 
0.0 0.0 0.0 
-3.752676886647e-04 3.100778226366e-04 0.0 
3.100778226366e-04 1.639787762162e-02 0.0 
0.0 0.0 0.0 
-4.558690697979e-04 2.830465038974e-03 0.0 
2.830465038974e-03 7.797706097073e-03 0.0 
0.0 0.0 0.0 
-1.585889380721e-03 2.422957375848e-03 0.0 
2.422957375848e-03 1.047150363988e-02 0.0 
0.0 0.0 0.0 
4.181444064890e-04 4.448860011289e-04 0.0 
4.448860011289e-04 6.714727614683e-03 0.0 
0.0 0.0 0.0 
4.373329866247e-05 -2.742791581652e-05 0.0 
-2.742791581652e-05 7.132337523878e-03 0.0 
0.0 0.0 0.0 
1.652979839513e-04 -6.104790018902e-05 0.0 
-6.104790018902e-05 5.348466073593e-03 0.0 
0.0 0.0 0.0 
-6.338989825649e-04 2.833010624442e-03 0.0 
2.833010624442e-03 8.639545889303e-03 0.0 
0.0 0.0 0.0 
6.200302077761e-04 1.047020572762e-03 0.0 
1.047020572762e-03 6.870848704792e-03 0.0 
0.0 0.0 0.0 
-7.809932339196e-04 2.716691270474e-03 0.0 
2.716691270474e-03 8.401743743341e-03 0.0 
0.0 0.0 0.0 
-3.101028518711e-04 8.932342589074e-04 0.0 
8.932342589074e-04 1.636413455345e-02 0.0 
0.0 0.0 0.0 
-4.031566121288e-05 3.577596606296e-03 0.0 
3.577596606296e-03 1.189625267010e-02 0.0 
0.0 0.0 0.0 
-1.912687586930e-03 6.513279419866e-04 0.0 
6.513279419866e-04 1.444928934725e-02 0.0 
0.0 0.0 0.0 
-1.068337078812e-03 2.242794452489e-04 0.0 
2.242794452489e-04 1.513786153741e-02 0.0 
0.0 0.0 0.0 
-8.183778730722e-04 2.757440297577e-03 0.0 
2.757440297577e-03 8.400047747419e-03 0.0 
0.0 0.0 0.0 
-1.367231088642e-03 2.290430577686e-03 0.0 
2.290430577686e-03 9.712035005527e-03 0.0 
0.0 0.0 0.0 
-3.083267420841e-04 2.882229192823e-03 0.0 
2.882229192823e-03 8.060728421553e-03 0.0 
0.0 0.0 0.0 
6.504354803138e-04 2.830341252677e-03 0.0 
2.830341252677e-03 3.788798819162e-03 0.0 
0.0 0.0 0.0 
-1.286502637809e-03 2.337661357534e-05 0.0 
2.337661357534e-05 1.392874135978e-02 0.0 
0.0 0.0 0.0 
1.330536057880e-03 2.519008849357e-03 0.0 
2.519008849357e-03 3.525475728434e-03 0.0 
0.0 0.0 0.0 
-1.176431525030e-05 -1.585737526781e-04 0.0 
-1.585737526781e-04 4.044416799038e-04 0.0 
0.0 0.0 0.0 
-1.181553474231e-03 1.773273426625e-05 0.0 
1.773273426625e-05 1.421344117000e-02 0.0 
0.0 0.0 0.0 
2.188714674856e-04 -7.500860551532e-05 0.0 
-7.500860551532e-05 1.034877414012e-03 0.0 
0.0 0.0 0.0 
-1.947123406099e-03 2.166336601743e-03 0.0 
2.166336601743e-03 1.197340541334e-02 0.0 
0.0 0.0 0.0 
3.415895104895e-04 9.360180870808e-04 0.0 
9.360180870808e-04 6.833228927842e-03 0.0 
0.0 0.0 0.0 
2.049383902381e-04 3.043559406626e-03 0.0 
3.043559406626e-03 3.541011874701e-03 0.0 
0.0 0.0 0.0 
1.308662498192e-04 -1.427854856810e-05 0.0 
-1.427854856810e-05 5.591416315603e-03 0.0 
0.0 0.0 0.0 
-1.394134229484e-03 2.695147167749e-03 0.0 
2.695147167749e-03 4.830803674124e-03 0.0 
0.0 0.0 0.0 
1.398400258495e-03 2.443510035775e-03 0.0 
2.443510035775e-03 6.259050553634e-03 0.0 
0.0 0.0 0.0 
-1.210400342375e-03 2.383791204370e-05 0.0 
2.383791204370e-05 1.394985328518e-02 0.0 
0.0 0.0 0.0 
1.446497083853e-03 2.662182016575e-03 0.0 
2.662182016575e-03 2.587382381926e-03 0.0 
0.0 0.0 0.0 
1.006743096976e-04 -4.218806227651e-05 0.0 
-4.218806227651e-05 6.201257999241e-03 0.0 
0.0 0.0 0.0 
-6.006773304107e-04 -1.078328758798e-03 0.0 
-1.078328758798e-03 1.114629023666e-03 0.0 
0.0 0.0 0.0 
9.344270429934e-05 3.087617972339e-05 0.0 
3.087617972339e-05 6.645826939130e-03 0.0 
0.0 0.0 0.0 
-1.497556921664e-03 2.346356202877e-03 0.0 
2.346356202877e-03 1.160153132741e-02 0.0 
0.0 0.0 0.0 
1.142942905898e-04 6.817679189348e-05 0.0 
6.817679189348e-05 7.136206887571e-03 0.0 
0.0 0.0 0.0 
-1.180375327698e-03 1.146354723188e-05 0.0 
1.146354723188e-05 1.391185468989e-02 0.0 
0.0 0.0 0.0 
7.171733461857e-04 2.925320253004e-03 0.0 
2.925320253004e-03 2.826949344630e-03 0.0 
0.0 0.0 0.0 
-1.892297380656e-03 1.897474259899e-03 0.0 
1.897474259899e-03 1.207531836672e-02 0.0 
0.0 0.0 0.0 
1.059923116049e-04 -7.633775999784e-05 0.0 
-7.633775999784e-05 4.728445767714e-03 0.0 
0.0 0.0 0.0 
-1.392532274926e-03 2.857685609049e-03 0.0 
2.857685609049e-03 4.876201507445e-03 0.0 
0.0 0.0 0.0 
1.586219034634e-03 2.372972606540e-03 0.0 
2.372972606540e-03 2.625944507169e-03 0.0 
0.0 0.0 0.0 
-1.057103706195e-03 1.611262391709e-04 0.0 
1.611262391709e-04 1.531734305073e-02 0.0 
0.0 0.0 0.0 
-1.223040872467e-03 4.693392059673e-05 0.0 
4.693392059673e-05 1.392633493898e-02 0.0 
0.0 0.0 0.0 
1.009764434212e-03 2.814519616848e-03 0.0 
2.814519616848e-03 3.120189649659e-03 0.0 
0.0 0.0 0.0 
-1.826077960502e-03 2.123517392049e-03 0.0 
2.123517392049e-03 1.136097972878e-02 0.0 
0.0 0.0 0.0 
-4.728348910343e-05 3.129475894972e-03 0.0 
3.129475894972e-03 1.084738467033e-02 0.0 
0.0 0.0 0.0 
6.433279661788e-05 -3.443251254447e-04 0.0 
-3.443251254447e-04 3.253839726942e-03 0.0 
0.0 0.0 0.0 
2.654466006149e-04 3.135601427919e-03 0.0 
3.135601427919e-03 9.535012653538e-03 0.0 
0.0 0.0 0.0 
6.706067190443e-08 3.576719372619e-03 0.0 
3.576719372619e-03 1.142522262717e-02 0.0 
0.0 0.0 0.0 
-8.588333186068e-04 2.783010166765e-03 0.0 
2.783010166765e-03 5.793726314122e-03 0.0 
0.0 0.0 0.0 
7.901764731844e-05 -2.704853149519e-04 0.0 
-2.704853149519e-04 3.341048020416e-03 0.0 
0.0 0.0 0.0 
1.172965244557e-03 1.314023070760e-03 0.0 
1.314023070760e-03 5.805895046367e-03 0.0 
0.0 0.0 0.0 
-1.151769561284e-03 2.630542389858e-03 0.0 
2.630542389858e-03 9.024943468368e-03 0.0 
0.0 0.0 0.0 
-7.755053250396e-04 2.717038883781e-03 0.0 
2.717038883781e-03 4.976731050927e-03 0.0 
0.0 0.0 0.0 
-1.758496679226e-03 2.059586611251e-03 0.0 
2.059586611251e-03 1.214349996683e-02 0.0 
0.0 0.0 0.0 
9.175706661593e-04 2.746508258635e-03 0.0 
2.746508258635e-03 4.077748566244e-03 0.0 
0.0 0.0 0.0 
-2.726147853812e-04 6.466791035955e-04 0.0 
6.466791035955e-04 1.640676003583e-02 0.0 
0.0 0.0 0.0 
-1.030203187782e-03 2.578206501342e-03 0.0 
2.578206501342e-03 1.305782540855e-02 0.0 
0.0 0.0 0.0 
8.982307602379e-05 2.307282088244e-05 0.0 
2.307282088244e-05 6.448319886569e-03 0.0 
0.0 0.0 0.0 
-1.392915554750e-03 2.972121889618e-03 0.0 
2.972121889618e-03 3.271398998159e-03 0.0 
0.0 0.0 0.0 
1.859766764166e-03 2.177471517973e-03 0.0 
2.177471517973e-03 1.714229984939e-03 0.0 
0.0 0.0 0.0 
-7.853338388518e-04 2.769607080460e-03 0.0 
2.769607080460e-03 1.264540007026e-02 0.0 
0.0 0.0 0.0 
-2.769240134766e-03 2.277195838102e-03 0.0 
2.277195838102e-03 -2.449841922315e-03 0.0 
0.0 0.0 0.0 
-1.090680034523e-03 2.546256559868e-03 0.0 
2.546256559868e-03 9.026545869395e-03 0.0 
0.0 0.0 0.0 
1.344153236102e-03 7.651450137250e-04 0.0 
7.651450137250e-04 4.948339114157e-03 0.0 
0.0 0.0 0.0 
3.204435719164e-04 -1.773421787743e-04 0.0 
-1.773421787743e-04 6.218258364044e-04 0.0 
0.0 0.0 0.0 
-5.029897049548e-04 2.820667484856e-03 0.0 
2.820667484856e-03 1.442826407552e-02 0.0 
0.0 0.0 0.0 
-1.632818660852e-03 1.799163213414e-03 0.0 
1.799163213414e-03 1.411313876631e-02 0.0 
0.0 0.0 0.0 
9.405667344087e-04 -1.221066423669e-03 0.0 
-1.221066423669e-03 2.031428467378e-03 0.0 
0.0 0.0 0.0 
1.514682647450e-03 9.472138249911e-04 0.0 
9.472138249911e-04 4.935762352647e-03 0.0 
0.0 0.0 0.0 
-2.091370378534e-03 1.310463957790e-03 0.0 
1.310463957790e-03 1.394529181502e-02 0.0 
0.0 0.0 0.0 
-2.004851354915e-03 9.973894045450e-04 0.0 
9.973894045450e-04 1.450497609428e-02 0.0 
0.0 0.0 0.0 
6.188111159395e-04 9.906781277195e-04 0.0 
9.906781277195e-04 6.455659779078e-03 0.0 
0.0 0.0 0.0 
1.668959858137e-04 -1.231544809604e-03 0.0 
-1.231544809604e-03 1.920102002974e-03 0.0 
0.0 0.0 0.0 
2.302386039754e-05 2.922649783374e-03 0.0 
2.922649783374e-03 7.498678887575e-03 0.0 
0.0 0.0 0.0 
-1.217631625806e-03 2.558504866460e-03 0.0 
2.558504866460e-03 1.106425257300e-02 0.0 
0.0 0.0 0.0 
-1.753680975021e-03 1.826049411996e-03 0.0 
1.826049411996e-03 1.449217124999e-02 0.0 
0.0 0.0 0.0 
-1.681306290858e-03 2.365609994612e-03 0.0 
2.365609994612e-03 1.230123514088e-02 0.0 
0.0 0.0 0.0 
-1.796800735658e-03 2.273541172926e-03 0.0 
2.273541172926e-03 1.214471516908e-02 0.0 
0.0 0.0 0.0 
1.717037617262e-03 1.974549516615e-03 0.0 
1.974549516615e-03 4.978369944005e-03 0.0 
0.0 0.0 0.0 
-3.192516330864e-04 3.041181836834e-03 0.0 
3.041181836834e-03 1.120283271350e-02 0.0 
0.0 0.0 0.0 
-9.498165932456e-04 2.136244956167e-03 0.0 
2.136244956167e-03 -3.106965254020e-03 0.0 
0.0 0.0 0.0 
-7.923812487162e-04 2.771694013668e-03 0.0 
2.771694013668e-03 5.792092077475e-03 0.0 
0.0 0.0 0.0 
-4.219342546649e-04 2.818234448391e-03 0.0 
2.818234448391e-03 5.919462771139e-03 0.0 
0.0 0.0 0.0 
-2.849047208067e-04 2.884139981617e-03 0.0 
2.884139981617e-03 8.060360224601e-03 0.0 
0.0 0.0 0.0 
-1.176875791546e-03 2.594094521784e-03 0.0 
2.594094521784e-03 1.360644915339e-02 0.0 
0.0 0.0 0.0 
1.882925241914e-03 2.396529764283e-03 0.0 
2.396529764283e-03 -3.245224307213e-03 0.0 
0.0 0.0 0.0 
1.377254845746e-03 5.058784558252e-04 0.0 
5.058784558252e-04 4.589061931712e-03 0.0 
0.0 0.0 0.0 
-1.251398762542e-03 -4.942539601812e-06 0.0 
-4.942539601812e-06 1.390111164739e-02 0.0 
0.0 0.0 0.0 
1.677021594255e-03 2.542306562622e-03 0.0 
2.542306562622e-03 1.663762022272e-03 0.0 
0.0 0.0 0.0 
1.362949085375e-03 2.562721730706e-04 0.0 
2.562721730706e-04 4.294668107750e-03 0.0 
0.0 0.0 0.0 
2.390287742038e-04 -1.389389217898e-04 0.0 
-1.389389217898e-04 3.930404848458e-04 0.0 
0.0 0.0 0.0 
-1.438976590539e-03 1.980928922701e-03 0.0 
1.980928922701e-03 1.427062336897e-02 0.0 
0.0 0.0 0.0 
3.656087382686e-04 -1.490222082532e-04 0.0 
-1.490222082532e-04 2.043049737648e-04 0.0 
0.0 0.0 0.0 
1.978527802520e-04 -1.485998557049e-04 0.0 
-1.485998557049e-04 6.801490043220e-04 0.0 
0.0 0.0 0.0 
-1.276429962717e-03 2.982701809329e-03 0.0 
2.982701809329e-03 3.271859722398e-03 0.0 
0.0 0.0 0.0 
-4.806783266187e-05 -1.226163518654e-03 0.0 
-1.226163518654e-03 1.706750325551e-03 0.0 
0.0 0.0 0.0 
-1.542698407687e-03 1.987960049391e-03 0.0 
1.987960049391e-03 1.465952252047e-02 0.0 
0.0 0.0 0.0 
-1.025625109381e-04 -1.354621003426e-03 0.0 
-1.354621003426e-03 1.463450824642e-03 0.0 
0.0 0.0 0.0 
-6.571202604500e-06 3.277390651793e-03 0.0 
3.277390651793e-03 1.490801080815e-03 0.0 
0.0 0.0 0.0 
6.146385667645e-04 -2.726816630931e-03 0.0 
-2.726816630931e-03 -1.139696258428e-03 0.0 
0.0 0.0 0.0 
-4.688870794318e-04 -9.542143195029e-04 0.0 
-9.542143195029e-04 1.266958458320e-03 0.0 
0.0 0.0 0.0 
1.419770719402e-03 1.190620479052e-03 0.0 
1.190620479052e-03 5.324695776979e-03 0.0 
0.0 0.0 0.0 
-1.518144288884e-03 2.498090662218e-03 0.0 
2.498090662218e-03 1.159564682531e-02 0.0 
0.0 0.0 0.0 
9.338037234641e-05 7.646161535089e-05 0.0 
7.646161535089e-05 7.063582203878e-03 0.0 
0.0 0.0 0.0 
-9.029875769545e-04 9.527282361441e-04 0.0 
9.527282361441e-04 -4.508206355984e-03 0.0 
0.0 0.0 0.0 
4.788622789100e-04 3.158802260935e-03 0.0 
3.158802260935e-03 1.602878382259e-03 0.0 
0.0 0.0 0.0 
1.826970333823e-03 2.389408727601e-03 0.0 
2.389408727601e-03 2.176289528728e-03 0.0 
0.0 0.0 0.0 
-9.452926561326e-04 2.573163657423e-03 0.0 
2.573163657423e-03 8.176719317567e-03 0.0 
0.0 0.0 0.0 
1.562055755850e-03 6.785761968380e-04 0.0 
6.785761968380e-04 4.576997070236e-03 0.0 
0.0 0.0 0.0 
1.318546792617e-04 1.236661087581e-04 0.0 
1.236661087581e-04 7.145545282500e-03 0.0 
0.0 0.0 0.0 
-1.367783827404e-03 2.480066542845e-03 0.0 
2.480066542845e-03 1.342863305535e-02 0.0 
0.0 0.0 0.0 
2.004009787397e-03 2.104673624916e-03 0.0 
2.104673624916e-03 2.380912813862e-04 0.0 
0.0 0.0 0.0 
1.267775723065e-03 1.039051926068e-03 0.0 
1.039051926068e-03 5.325740414367e-03 0.0 
0.0 0.0 0.0 
1.342403128446e-04 -2.871355714881e-05 0.0 
-2.871355714881e-05 5.163256198806e-03 0.0 
0.0 0.0 0.0 
-4.869871560015e-04 2.878954055308e-03 0.0 
2.878954055308e-03 8.896906409160e-03 0.0 
0.0 0.0 0.0 
-1.467296392798e-03 2.090627650125e-03 0.0 
2.090627650125e-03 1.381028050002e-02 0.0 
0.0 0.0 0.0 
4.331690737738e-04 2.883583183392e-03 0.0 
2.883583183392e-03 8.751108345169e-03 0.0 
0.0 0.0 0.0 
1.951432400463e-03 2.054848101315e-03 0.0 
2.054848101315e-03 2.224787506357e-03 0.0 
0.0 0.0 0.0 
-3.828921536364e-05 3.082428672874e-03 0.0 
3.082428672874e-03 2.496767367004e-03 0.0 
0.0 0.0 0.0 
-1.551564035522e-03 2.446475671252e-03 0.0 
2.446475671252e-03 1.247308198193e-02 0.0 
0.0 0.0 0.0 
-3.089251687454e-04 1.633140538842e-03 0.0 
1.633140538842e-03 1.622847445082e-02 0.0 
0.0 0.0 0.0 
6.372487686246e-05 2.884680711830e-03 0.0 
2.884680711830e-03 7.503302177401e-03 0.0 
0.0 0.0 0.0 
2.135317879790e-03 1.648890837820e-03 0.0 
1.648890837820e-03 3.101053216569e-03 0.0 
0.0 0.0 0.0 
-1.212821852471e-03 4.638315993253e-05 0.0 
4.638315993253e-05 1.430282603392e-02 0.0 
0.0 0.0 0.0 
-5.269864964895e-04 -1.909510403063e-03 0.0 
-1.909510403063e-03 4.274353397633e-04 0.0 
0.0 0.0 0.0 
-1.635298796811e-03 2.166193411922e-03 0.0 
2.166193411922e-03 1.233242338782e-02 0.0 
0.0 0.0 0.0 
1.728156765125e-03 2.587476601856e-03 0.0 
2.587476601856e-03 1.668333643090e-04 0.0 
0.0 0.0 0.0 
2.181520304831e-03 2.212746386352e-03 0.0 
2.212746386352e-03 -2.763979233565e-03 0.0 
0.0 0.0 0.0 
1.700307709942e-03 -2.380372474002e-03 0.0 
-2.380372474002e-03 -3.482568448902e-03 0.0 
0.0 0.0 0.0 
-1.369046259927e-03 1.878867364610e-03 0.0 
1.878867364610e-03 1.467285273684e-02 0.0 
0.0 0.0 0.0 
-1.392804746111e-03 2.571229674796e-03 0.0 
2.571229674796e-03 1.177951093128e-02 0.0 
0.0 0.0 0.0 
5.605315291739e-04 2.929701631537e-03 0.0 
2.929701631537e-03 3.773404268099e-03 0.0 
0.0 0.0 0.0 
-1.453358827546e-03 1.877569391667e-03 0.0 
1.877569391667e-03 1.502172349259e-02 0.0 
0.0 0.0 0.0 
-1.126759244029e-03 2.673755535114e-03 0.0 
2.673755535114e-03 1.303937886231e-02 0.0 
0.0 0.0 0.0 
-6.938395595301e-04 2.853207664932e-03 0.0 
2.853207664932e-03 9.709473611454e-03 0.0 
0.0 0.0 0.0 
1.323151060455e-04 2.126830592724e-04 0.0 
2.126830592724e-04 7.055294609267e-03 0.0 
0.0 0.0 0.0 
2.225946271933e-03 1.672740653478e-03 0.0 
1.672740653478e-03 2.968678962333e-03 0.0 
0.0 0.0 0.0 
-8.997747951819e-04 2.799958831920e-03 0.0 
2.799958831920e-03 1.050367749132e-02 0.0 
0.0 0.0 0.0 
1.103831942370e-03 2.649796002150e-03 0.0 
2.649796002150e-03 4.430172985461e-03 0.0 
0.0 0.0 0.0 
2.038763786476e-03 1.672414656319e-03 0.0 
1.672414656319e-03 3.694137314775e-03 0.0 
0.0 0.0 0.0 
2.360458472130e-03 1.968469958642e-03 0.0 
1.968469958642e-03 -2.032378406261e-03 0.0 
0.0 0.0 0.0 
-1.961754124252e-03 6.634803287236e-04 0.0 
6.634803287236e-04 1.406110637368e-02 0.0 
0.0 0.0 0.0 
2.221282452436e-03 1.691858056304e-03 0.0 
1.691858056304e-03 1.929351793371e-03 0.0 
0.0 0.0 0.0 
2.465723965082e-03 -9.751730717772e-04 0.0 
-9.751730717772e-04 -1.289711862387e-03 0.0 
0.0 0.0 0.0 
-1.261905066899e-03 2.358282724613e-03 0.0 
2.358282724613e-03 1.345075645341e-02 0.0 
0.0 0.0 0.0 
-4.133889958629e-03 3.817141882564e-04 0.0 
3.817141882564e-04 -2.976507261462e-03 0.0 
0.0 0.0 0.0 
-1.818862802304e-03 2.205258060762e-03 0.0 
2.205258060762e-03 1.294532742695e-02 0.0 
0.0 0.0 0.0 
2.208695608891e-03 2.086270603531e-03 0.0 
2.086270603531e-03 -2.623148219952e-04 0.0 
0.0 0.0 0.0 
7.241856669575e-04 2.934957833420e-03 0.0 
2.934957833420e-03 1.632795576942e-03 0.0 
0.0 0.0 0.0 
2.628630086860e-03 1.167230757806e-03 0.0 
1.167230757806e-03 -1.898341418275e-03 0.0 
0.0 0.0 0.0 
-1.261590769090e-03 2.507874099044e-03 0.0 
2.507874099044e-03 1.200524459897e-02 0.0 
0.0 0.0 0.0 
-1.836786812615e-04 -5.744364935059e-04 0.0 
-5.744364935059e-04 7.301981689769e-04 0.0 
0.0 0.0 0.0 
-5.172288407279e-04 2.781944107888e-03 0.0 
2.781944107888e-03 6.746291046787e-03 0.0 
0.0 0.0 0.0 
2.117879916515e-03 1.699453626352e-03 0.0 
1.699453626352e-03 3.595440017017e-03 0.0 
0.0 0.0 0.0 
-1.379569190073e-03 2.426172507601e-03 0.0 
2.426172507601e-03 1.180452898894e-02 0.0 
0.0 0.0 0.0 
-1.974866224263e-03 9.635652746374e-04 0.0 
9.635652746374e-04 1.416245705320e-02 0.0 
0.0 0.0 0.0 
1.828898722422e-03 1.895110434936e-03 0.0 
1.895110434936e-03 -4.067051143920e-03 0.0 
0.0 0.0 0.0 
2.761120748667e-03 -2.853571683157e-04 0.0 
-2.853571683157e-04 -1.397757784583e-03 0.0 
0.0 0.0 0.0 
2.102671370944e-03 -1.662743859052e-03 0.0 
-1.662743859052e-03 -1.434282392220e-03 0.0 
0.0 0.0 0.0 
-9.156798937925e-04 2.727713621486e-03 0.0 
2.727713621486e-03 6.606250249822e-03 0.0 
0.0 0.0 0.0 
-1.595148272818e-03 2.239340200245e-03 0.0 
2.239340200245e-03 1.378353401407e-02 0.0 
0.0 0.0 0.0 
-5.692230718785e-04 2.805495103624e-03 0.0 
2.805495103624e-03 6.743057433868e-03 0.0 
0.0 0.0 0.0 
2.347933962114e-03 1.773333531655e-03 0.0 
1.773333531655e-03 1.050663972562e-03 0.0 
0.0 0.0 0.0 
2.063301428622e-03 2.181232350112e-03 0.0 
2.181232350112e-03 1.285141803920e-03 0.0 
0.0 0.0 0.0 
1.946067630415e-03 1.493620629898e-03 0.0 
1.493620629898e-03 -2.936093181349e-03 0.0 
0.0 0.0 0.0 
1.356614973483e-03 2.653735305502e-03 0.0 
2.653735305502e-03 3.931550285478e-03 0.0 
0.0 0.0 0.0 
-4.886023584564e-04 3.176486571087e-03 0.0 
3.176486571087e-03 1.480021162417e-03 0.0 
0.0 0.0 0.0 
-3.899501436148e-04 2.837547667273e-03 0.0 
2.837547667273e-03 1.510209715981e-02 0.0 
0.0 0.0 0.0 
-3.465307515715e-04 3.250519505337e-03 0.0 
3.250519505337e-03 1.437554117168e-02 0.0 
0.0 0.0 0.0 
3.479342117820e-04 2.918000323634e-03 0.0 
2.918000323634e-03 6.979103476238e-03 0.0 
0.0 0.0 0.0 
2.035895714473e-03 2.351243019853e-03 0.0 
2.351243019853e-03 -9.194106752998e-04 0.0 
0.0 0.0 0.0 
1.015182485909e-03 2.887965844377e-03 0.0 
2.887965844377e-03 5.519959194409e-04 0.0 
0.0 0.0 0.0 
-6.167601769784e-04 2.837329165866e-03 0.0 
2.837329165866e-03 9.985628984893e-03 0.0 
0.0 0.0 0.0 
1.762075840567e-03 2.388767632246e-03 0.0 
2.388767632246e-03 -2.442828999769e-04 0.0 
0.0 0.0 0.0 
2.547100024674e-03 -9.989091683475e-04 0.0 
-9.989091683475e-04 -1.540009618274e-03 0.0 
0.0 0.0 0.0 
-5.146974737137e-04 2.849311211015e-03 0.0 
2.849311211015e-03 8.902396357768e-03 0.0 
0.0 0.0 0.0 
-5.671786077118e-04 9.908022044865e-04 0.0 
9.908022044865e-04 1.633946760848e-02 0.0 
0.0 0.0 0.0 
1.936371529137e-03 2.355705875061e-03 0.0 
2.355705875061e-03 7.113868829274e-04 0.0 
0.0 0.0 0.0 
1.730905118789e-03 2.181860187066e-03 0.0 
2.181860187066e-03 4.953401217980e-03 0.0 
0.0 0.0 0.0 
2.150665889307e-04 3.301562854543e-03 0.0 
3.301562854543e-03 4.105481445158e-04 0.0 
0.0 0.0 0.0 
3.914718093974e-04 1.472388388504e-03 0.0 
1.472388388504e-03 7.553401195424e-03 0.0 
0.0 0.0 0.0 
1.420379483638e-03 2.883104226397e-03 0.0 
2.883104226397e-03 -3.218934549304e-04 0.0 
0.0 0.0 0.0 
-1.898705375200e-04 2.912662760423e-03 0.0 
2.912662760423e-03 8.343312567003e-03 0.0 
0.0 0.0 0.0 
2.472167101802e-03 1.564785411283e-03 0.0 
1.564785411283e-03 -3.767173727888e-03 0.0 
0.0 0.0 0.0 
2.078772519951e-03 7.502706603122e-04 0.0 
7.502706603122e-04 3.396457274427e-03 0.0 
0.0 0.0 0.0 
2.126557842955e-03 2.052952923434e-03 0.0 
2.052952923434e-03 1.872413821783e-03 0.0 
0.0 0.0 0.0 
2.221717119791e-03 -1.345564402099e-03 0.0 
-1.345564402099e-03 -7.599435823968e-04 0.0 
0.0 0.0 0.0 
-1.213419387456e-03 2.679610863969e-03 0.0 
2.679610863969e-03 1.104870454064e-02 0.0 
0.0 0.0 0.0 
-1.481998129629e-04 3.696118249224e-03 0.0 
3.696118249224e-03 1.301991298459e-02 0.0 
0.0 0.0 0.0 
2.305766301216e-03 1.897556263531e-03 0.0 
1.897556263531e-03 3.982724119118e-04 0.0 
0.0 0.0 0.0 
2.084787304396e-03 1.435331352631e-03 0.0 
1.435331352631e-03 3.632783680835e-03 0.0 
0.0 0.0 0.0 
4.034507099651e-04 3.083001526115e-03 0.0 
3.083001526115e-03 4.395229693737e-04 0.0 
0.0 0.0 0.0 
-1.557701697495e-03 7.590885430218e-04 0.0 
7.590885430218e-04 1.497279918455e-02 0.0 
0.0 0.0 0.0 
1.563293446132e-03 4.173081652479e-04 0.0 
4.173081652479e-04 4.273530190714e-03 0.0 
0.0 0.0 0.0 
-1.920481253996e-04 2.982189216295e-03 0.0 
2.982189216295e-03 3.406479936964e-03 0.0 
0.0 0.0 0.0 
-1.717289003162e-03 6.030292292992e-04 0.0 
6.030292292992e-04 1.486862226556e-02 0.0 
0.0 0.0 0.0 
5.275532720295e-05 3.799501538359e-03 0.0 
3.799501538359e-03 1.151870472441e-02 0.0 
0.0 0.0 0.0 
1.350585131068e-03 5.855321765065e-04 0.0 
5.855321765065e-04 4.881514978016e-03 0.0 
0.0 0.0 0.0 
-2.282089457910e-04 3.587246258476e-03 0.0 
3.587246258476e-03 1.349512606496e-02 0.0 
0.0 0.0 0.0 
-1.887918785633e-03 8.923599223953e-04 0.0 
8.923599223953e-04 1.474217819803e-02 0.0 
0.0 0.0 0.0 
-7.635619752937e-04 2.887136342153e-03 0.0 
2.887136342153e-03 1.197400351179e-02 0.0 
0.0 0.0 0.0 
-7.713747910719e-04 3.031019499504e-03 0.0 
3.031019499504e-03 3.332530055925e-03 0.0 
0.0 0.0 0.0 
-1.336776922968e-03 2.614477883016e-03 0.0 
2.614477883016e-03 1.082683905510e-02 0.0 
0.0 0.0 0.0 
-9.178743798712e-04 2.723176709279e-03 0.0 
2.723176709279e-03 1.051472186877e-02 0.0 
0.0 0.0 0.0 
-1.095657467652e-03 2.723248734023e-03 0.0 
2.723248734023e-03 1.126554982052e-02 0.0 
0.0 0.0 0.0 
2.792923598680e-04 2.862008868979e-03 0.0 
2.862008868979e-03 6.662545148826e-03 0.0 
0.0 0.0 0.0 
1.594516208738e-04 3.650853062880e-03 0.0 
3.650853062880e-03 1.056489940264e-02 0.0 
0.0 0.0 0.0 
-1.888928030366e-03 1.314006753148e-03 0.0 
1.314006753148e-03 1.415483638458e-02 0.0 
0.0 0.0 0.0 
-1.948523250200e-03 2.099776248792e-03 0.0 
2.099776248792e-03 1.280988432144e-02 0.0 
0.0 0.0 0.0 
2.204915514970e-03 1.769741775766e-03 0.0 
1.769741775766e-03 1.346664495345e-03 0.0 
0.0 0.0 0.0 
-2.923879772675e-04 -1.142563904188e-03 0.0 
-1.142563904188e-03 1.503198927546e-03 0.0 
0.0 0.0 0.0 
-1.644187084231e-03 2.412976931817e-03 0.0 
2.412976931817e-03 1.138355285070e-02 0.0 
0.0 0.0 0.0 
3.280845977220e-04 3.068842701706e-03 0.0 
3.068842701706e-03 2.599324424030e-03 0.0 
0.0 0.0 0.0 
-1.210033998131e-03 1.272883024508e-05 0.0 
1.272883024508e-05 1.393673720889e-02 0.0 
0.0 0.0 0.0 
1.751660273649e-03 -1.815133814952e-03 0.0 
-1.815133814952e-03 -6.876552087656e-04 0.0 
0.0 0.0 0.0 
2.138193222868e-03 1.901448008097e-03 0.0 
1.901448008097e-03 7.751784873797e-04 0.0 
0.0 0.0 0.0 
-1.257172840413e-03 2.253680934388e-03 0.0 
2.253680934388e-03 1.396688376052e-02 0.0 
0.0 0.0 0.0 
4.732207601530e-04 2.923790995017e-03 0.0 
2.923790995017e-03 2.617597843918e-03 0.0 
0.0 0.0 0.0 
-1.021059379033e-03 2.668769406603e-03 0.0 
2.668769406603e-03 1.028075977295e-02 0.0 
0.0 0.0 0.0 
2.137079739320e-03 1.463774166595e-03 0.0 
1.463774166595e-03 3.603126529662e-03 0.0 
0.0 0.0 0.0 
1.565416119125e-03 -4.771665209943e-04 0.0 
-4.771665209943e-04 2.832912309070e-03 0.0 
0.0 0.0 0.0 
3.248143330059e-04 3.176205257227e-03 0.0 
3.176205257227e-03 9.282741266333e-03 0.0 
0.0 0.0 0.0 
-1.293572559080e-03 2.607933096063e-03 0.0 
2.607933096063e-03 9.834624441646e-03 0.0 
0.0 0.0 0.0 
2.849007477593e-03 3.596241634639e-04 0.0 
3.596241634639e-04 -1.886744526671e-03 0.0 
0.0 0.0 0.0 
8.223247333410e-04 -1.445707479133e-03 0.0 
-1.445707479133e-03 1.629215272624e-03 0.0 
0.0 0.0 0.0 
-8.527850603763e-04 2.807839989087e-03 0.0 
2.807839989087e-03 4.964092693024e-03 0.0 
0.0 0.0 0.0 
-2.449216303376e-04 3.055025018305e-03 0.0 
3.055025018305e-03 3.398626225545e-03 0.0 
0.0 0.0 0.0 
-9.387637907032e-04 2.783846130954e-03 0.0 
2.783846130954e-03 1.322936797676e-02 0.0 
0.0 0.0 0.0 
-3.718184386841e-04 2.898748008852e-03 0.0 
2.898748008852e-03 9.168724636553e-03 0.0 
0.0 0.0 0.0 
-1.057413923760e-03 2.635029557777e-03 0.0 
2.635029557777e-03 8.171774443123e-03 0.0 
0.0 0.0 0.0 
-1.135136592910e-03 2.596995566480e-03 0.0 
2.596995566480e-03 1.005477575069e-02 0.0 
0.0 0.0 0.0 
4.246380326411e-04 2.242898306889e-03 0.0 
2.242898306889e-03 8.033139228264e-03 0.0 
0.0 0.0 0.0 
7.239624960023e-04 2.150131241640e-03 0.0 
2.150131241640e-03 7.438054474334e-03 0.0 
0.0 0.0 0.0 
-8.230447723896e-04 2.705584894030e-03 0.0 
2.705584894030e-03 1.324502724513e-02 0.0 
0.0 0.0 0.0 
-1.596520946567e-03 2.111856061340e-03 0.0 
2.111856061340e-03 1.424903393152e-02 0.0 
0.0 0.0 0.0 
1.497715794151e-03 -6.550099595618e-04 0.0 
-6.550099595618e-04 2.454319609583e-03 0.0 
0.0 0.0 0.0 
-1.578052363550e-04 2.849818273071e-03 0.0 
2.849818273071e-03 6.121825953003e-03 0.0 
0.0 0.0 0.0 
2.320581665937e-03 1.724336519759e-03 0.0 
1.724336519759e-03 -8.219466572272e-04 0.0 
0.0 0.0 0.0 
2.410364489020e-03 1.520331378976e-03 0.0 
1.520331378976e-03 -1.768993555643e-04 0.0 
0.0 0.0 0.0 
-1.510359478415e-04 2.905096354478e-03 0.0 
2.905096354478e-03 8.344217173242e-03 0.0 
0.0 0.0 0.0 
2.057812615598e-03 6.780993487409e-04 0.0 
6.780993487409e-04 3.230397513128e-03 0.0 
0.0 0.0 0.0 
4.142125321804e-04 -7.959490047550e-04 0.0 
-7.959490047550e-04 3.063139437911e-03 0.0 
0.0 0.0 0.0 
-1.021689030567e-03 2.420169705308e-03 0.0 
2.420169705308e-03 1.412681872711e-02 0.0 
0.0 0.0 0.0 
2.706444527917e-03 -4.481567222595e-04 0.0 
-4.481567222595e-04 -1.760253108372e-03 0.0 
0.0 0.0 0.0 
4.930733096513e-04 2.820627469217e-03 0.0 
2.820627469217e-03 5.815192974711e-03 0.0 
0.0 0.0 0.0 
-7.156565677585e-04 2.792872753379e-03 0.0 
2.792872753379e-03 9.721271466848e-03 0.0 
0.0 0.0 0.0 
2.787843091030e-04 2.834345854552e-03 0.0 
2.834345854552e-03 5.524116919700e-03 0.0 
0.0 0.0 0.0 
-2.983212134252e-04 3.448310759552e-03 0.0 
3.448310759552e-03 1.394268937489e-02 0.0 
0.0 0.0 0.0 
-3.400281695738e-04 3.058182727972e-03 0.0 
3.058182727972e-03 1.473563119365e-02 0.0 
0.0 0.0 0.0 
-6.841139483552e-04 2.856569940306e-03 0.0 
2.856569940306e-03 1.442394259184e-02 0.0 
0.0 0.0 0.0 
1.469501978897e-03 -4.134952692031e-04 0.0 
-4.134952692031e-04 2.967701079952e-03 0.0 
0.0 0.0 0.0 
-1.257717131393e-03 1.790534026718e-03 0.0 
1.790534026718e-03 1.503205158680e-02 0.0 
0.0 0.0 0.0 
-1.766609987914e-04 3.176823560732e-03 0.0 
3.176823560732e-03 2.486275687146e-03 0.0 
0.0 0.0 0.0 
2.438819990048e-03 1.395943284315e-03 0.0 
1.395943284315e-03 4.744922166386e-04 0.0 
0.0 0.0 0.0 
2.421099972614e-03 1.360676675242e-03 0.0 
1.360676675242e-03 -2.620708812810e-03 0.0 
0.0 0.0 0.0 
-6.830569995314e-04 2.769232555754e-03 0.0 
2.769232555754e-03 7.554665075734e-03 0.0 
0.0 0.0 0.0 
-1.866385501610e-03 4.519915836876e-04 0.0 
4.519915836876e-04 1.411413401512e-02 0.0 
0.0 0.0 0.0 
-1.660411512761e-03 7.786631948425e-04 0.0 
7.786631948425e-04 1.475240334901e-02 0.0 
0.0 0.0 0.0 
7.146994376477e-04 1.469669237307e-03 0.0 
1.469669237307e-03 6.973457015929e-03 0.0 
0.0 0.0 0.0 
-5.304429746437e-04 2.917755239691e-03 0.0 
2.917755239691e-03 1.222987759175e-02 0.0 
0.0 0.0 0.0 
-1.524567996245e-03 2.273762144536e-03 0.0 
2.273762144536e-03 1.249927998290e-02 0.0 
0.0 0.0 0.0 
-8.108395295302e-04 2.769381271785e-03 0.0 
2.769381271785e-03 1.076886373722e-02 0.0 
0.0 0.0 0.0 
2.695185254833e-03 1.387640846298e-03 0.0 
1.387640846298e-03 -3.115573074332e-03 0.0 
0.0 0.0 0.0 
-6.689833338264e-04 -1.216730229875e-03 0.0 
-1.216730229875e-03 6.294287205433e-04 0.0 
0.0 0.0 0.0 
1.590055729830e-03 2.537756079448e-03 0.0 
2.537756079448e-03 3.058549865514e-03 0.0 
0.0 0.0 0.0 
6.379664397251e-04 2.798953489198e-03 0.0 
2.798953489198e-03 6.145240942315e-03 0.0 
0.0 0.0 0.0 
1.457463918360e-03 2.442583039368e-03 0.0 
2.442583039368e-03 3.961192614594e-03 0.0 
0.0 0.0 0.0 
-1.005478748549e-03 3.204114216084e-03 0.0 
3.204114216084e-03 5.848971760083e-04 0.0 
0.0 0.0 0.0 
-1.167107524391e-03 5.613200858209e-05 0.0 
5.613200858209e-05 1.428691967103e-02 0.0 
0.0 0.0 0.0 
-2.604307231691e-04 -1.195421191013e-03 0.0 
-1.195421191013e-03 1.304463637660e-03 0.0 
0.0 0.0 0.0 
1.136848260990e-03 2.953560502747e-03 0.0 
2.953560502747e-03 8.095111675519e-04 0.0 
0.0 0.0 0.0 
0.0 1.533818678884e-03 0.0 
1.533818678884e-03 7.616989864766e-03 0.0 
0.0 0.0 0.0 
1.756121035881e-03 1.797481377133e-03 0.0 
1.797481377133e-03 4.903474958844e-03 0.0 
0.0 0.0 0.0 
-1.849849111176e-03 1.812267894872e-03 0.0 
1.812267894872e-03 1.284465766677e-02 0.0 
0.0 0.0 0.0 
3.533017719626e-04 -3.534877379650e-05 0.0 
-3.534877379650e-05 9.339856814048e-04 0.0 
0.0 0.0 0.0 
2.309264221816e-04 2.924977101149e-03 0.0 
2.924977101149e-03 6.654132865949e-03 0.0 
0.0 0.0 0.0 
1.701989397608e-03 2.269190974478e-03 0.0 
2.269190974478e-03 3.095788509060e-03 0.0 
0.0 0.0 0.0 
-1.272392009540e-03 2.626607943998e-03 0.0 
2.626607943998e-03 1.199021003390e-02 0.0 
0.0 0.0 0.0 
-5.692002547031e-05 3.777302398202e-03 0.0 
3.777302398202e-03 1.251023081462e-02 0.0 
0.0 0.0 0.0 
-1.313341178503e-03 2.485933556145e-03 0.0 
2.485933556145e-03 1.084126729042e-02 0.0 
0.0 0.0 0.0 
-5.898751671352e-04 2.877095840089e-03 0.0 
2.877095840089e-03 9.980408272179e-03 0.0 
0.0 0.0 0.0 
5.628412540397e-04 -7.886369721729e-04 0.0 
-7.886369721729e-04 3.061213010738e-03 0.0 
0.0 0.0 0.0 
-1.212070286439e-03 2.164397111082e-03 0.0 
2.164397111082e-03 1.442698372081e-02 0.0 
0.0 0.0 0.0 
1.518405842176e-03 -2.567849945648e-04 0.0 
-2.567849945648e-04 3.328282589724e-03 0.0 
0.0 0.0 0.0 
-2.432357705884e-05 3.812198979139e-03 0.0 
3.812198979139e-03 1.202206382450e-02 0.0 
0.0 0.0 0.0 
0.0 3.328064469535e-03 0.0 
3.328064469535e-03 1.371180470715e-02 0.0 
0.0 0.0 0.0 
0.0 2.565711507214e-03 0.0 
2.565711507214e-03 1.528926762559e-02 0.0 
0.0 0.0 0.0 
0.0 2.969449562339e-03 0.0 
2.969449562339e-03 1.457925362840e-02 0.0 
0.0 0.0 0.0 
-9.857698092436e-04 2.682796743889e-03 0.0 
2.682796743889e-03 1.151706261988e-02 0.0 
0.0 0.0 0.0 
-1.370491461744e-03 2.255637352092e-03 0.0 
2.255637352092e-03 1.441576019090e-02 0.0 
0.0 0.0 0.0 
-5.770681626487e-04 2.912905146119e-03 0.0 
2.912905146119e-03 1.285015471797e-02 0.0 
0.0 0.0 0.0 
2.452179832391e-04 2.925850961723e-03 0.0 
2.925850961723e-03 5.513087373240e-03 0.0 
0.0 0.0 0.0 
-1.387738760313e-04 2.885641887508e-03 0.0 
2.885641887508e-03 6.117236013391e-03 0.0 
0.0 0.0 0.0 
2.777768985402e-04 -7.443633925428e-04 0.0 
-7.443633925428e-04 3.018335642083e-03 0.0 
0.0 0.0 0.0 
-1.172821606820e-03 2.507071031524e-03 0.0 
2.507071031524e-03 1.411478650896e-02 0.0 
0.0 0.0 0.0 
1.119659377842e-04 3.742001115630e-03 0.0 
3.742001115630e-03 1.102650494346e-02 0.0 
0.0 0.0 0.0 
-1.119278630489e-03 2.066608187025e-03 0.0 
2.066608187025e-03 1.483003149262e-02 0.0 
0.0 0.0 0.0 
1.912455562798e-03 1.723054267301e-03 0.0 
1.723054267301e-03 4.296347101341e-03 0.0 
0.0 0.0 0.0 
-1.297122319183e-03 2.152352915072e-03 0.0 
2.152352915072e-03 1.481915745756e-02 0.0 
0.0 0.0 0.0 
7.528741250780e-04 2.781138806716e-03 0.0 
2.781138806716e-03 7.740290903547e-03 0.0 
0.0 0.0 0.0 
7.859028506629e-04 2.854620355291e-03 0.0 
2.854620355291e-03 5.278361812346e-03 0.0 
0.0 0.0 0.0 
-6.276562455538e-04 2.749793202010e-03 0.0 
2.749793202010e-03 7.556548945667e-03 0.0 
0.0 0.0 0.0 
1.048810109151e-03 3.153416398282e-03 0.0 
3.153416398282e-03 -7.074336177706e-04 0.0 
0.0 0.0 0.0 
-3.703315812846e-04 1.691810557930e-03 0.0 
1.691810557930e-03 1.594980019326e-02 0.0 
0.0 0.0 0.0 
4.069492871794e-04 2.935708921442e-03 0.0 
2.935708921442e-03 4.656640854177e-03 0.0 
0.0 0.0 0.0 
2.571485096017e-04 3.128775524698e-03 0.0 
3.128775524698e-03 9.926612475029e-03 0.0 
0.0 0.0 0.0 
3.864830963385e-04 -7.568389110896e-04 0.0 
-7.568389110896e-04 3.019595163774e-03 0.0 
0.0 0.0 0.0 
1.228345146108e-03 -2.187070372371e-03 0.0 
-2.187070372371e-03 -4.666000445908e-04 0.0 
0.0 0.0 0.0 
3.993682545684e-04 1.322489903453e-03 0.0 
1.322489903453e-03 6.922024444440e-03 0.0 
0.0 0.0 0.0 
9.058510770033e-04 2.963300859474e-03 0.0 
2.963300859474e-03 1.846398293180e-03 0.0 
0.0 0.0 0.0 
0.0 3.461116272074e-03 0.0 
3.461116272074e-03 1.325433281881e-02 0.0 
0.0 0.0 0.0 
-4.244746609512e-04 2.632910181015e-03 0.0 
2.632910181015e-03 1.476831591067e-02 0.0 
0.0 0.0 0.0 
-9.877227402544e-05 2.927317291464e-03 0.0 
2.927317291464e-03 8.654563893833e-03 0.0 
0.0 0.0 0.0 
-6.300452913173e-04 -6.019215852557e-04 0.0 
-6.019215852557e-04 6.642909841890e-04 0.0 
0.0 0.0 0.0 
0.0 3.590358831887e-03 0.0 
3.590358831887e-03 1.227098032106e-02 0.0 
0.0 0.0 0.0 
4.098557163204e-04 1.754936124507e-03 0.0 
1.754936124507e-03 7.199827471148e-03 0.0 
0.0 0.0 0.0 
1.730657078358e-03 -1.832111395234e-03 0.0 
-1.832111395234e-03 -5.229401025674e-04 0.0 
0.0 0.0 0.0 
1.931100258314e-03 1.518641915351e-03 0.0 
1.518641915351e-03 4.252614086228e-03 0.0 
0.0 0.0 0.0 
3.343579518631e-04 2.955677722353e-03 0.0 
2.955677722353e-03 8.913484472175e-03 0.0 
0.0 0.0 0.0 
-2.272982474274e-04 -7.743606408807e-05 0.0 
-7.743606408807e-05 1.925538607079e-04 0.0 
0.0 0.0 0.0 
6.267255231476e-04 2.893651168035e-03 0.0 
2.893651168035e-03 4.946284849799e-03 0.0 
0.0 0.0 0.0 
-3.184914180799e-04 2.907275004352e-03 0.0 
2.907275004352e-03 9.473256502803e-03 0.0 
0.0 0.0 0.0 
1.251085501270e-04 2.932189643447e-03 0.0 
2.932189643447e-03 7.820270757268e-03 0.0 
0.0 0.0 0.0 
-4.036661733611e-04 2.886524162667e-03 0.0 
2.886524162667e-03 9.170594231899e-03 0.0 
0.0 0.0 0.0 
7.180758637912e-04 3.210746388296e-03 0.0 
3.210746388296e-03 5.050936303388e-04 0.0 
0.0 0.0 0.0 
0.0 3.573204211243e-03 0.0 
3.573204211243e-03 1.126822490866e-02 0.0 
0.0 0.0 0.0 
2.426636843586e-03 1.331157617647e-03 0.0 
1.331157617647e-03 1.119706890376e-03 0.0 
0.0 0.0 0.0 
1.871681724580e-03 3.608398923153e-04 0.0 
3.608398923153e-04 -3.810679493031e-03 0.0 
0.0 0.0 0.0 
2.414665913553e-04 2.227664544751e-04 0.0 
2.227664544751e-04 7.027307877293e-03 0.0 
0.0 0.0 0.0 
-2.343475387721e-04 -4.764955706026e-04 0.0 
-4.764955706026e-04 3.757789535372e-04 0.0 
0.0 0.0 0.0 
-9.379171507307e-04 2.667097913203e-03 0.0 
2.667097913203e-03 9.242131758664e-03 0.0 
0.0 0.0 0.0 
9.263365086227e-04 -2.378215616021e-03 0.0 
-2.378215616021e-03 -1.971126559074e-03 0.0 
0.0 0.0 0.0 
-1.596194607087e-03 2.232334751149e-03 0.0 
2.232334751149e-03 1.140621611566e-02 0.0 
0.0 0.0 0.0 
4.145637754973e-04 1.955188484030e-03 0.0 
1.955188484030e-03 7.822577760256e-03 0.0 
0.0 0.0 0.0 
0.0 3.408888111358e-03 0.0 
3.408888111358e-03 1.031935320081e-02 0.0 
0.0 0.0 0.0 
-1.098630785048e-03 2.625412945498e-03 0.0 
2.625412945498e-03 1.127914686060e-02 0.0 
0.0 0.0 0.0 
9.474860808378e-06 -2.402925613541e-03 0.0 
-2.402925613541e-03 -8.630881011192e-04 0.0 
0.0 0.0 0.0 
1.589547120940e-03 8.179634843110e-04 0.0 
8.179634843110e-04 -4.480787822207e-03 0.0 
0.0 0.0 0.0 
-5.599402463929e-05 -2.882283081154e-03 0.0 
-2.882283081154e-03 -9.982046593988e-04 0.0 
0.0 0.0 0.0 
6.446690086028e-04 1.502178420027e-04 0.0 
1.502178420027e-04 5.607166970554e-03 0.0 
0.0 0.0 0.0 
-1.815221357288e-03 5.871991209036e-04 0.0 
5.871991209036e-04 1.393296255019e-02 0.0 
0.0 0.0 0.0 
-2.045850444195e-03 1.874705171997e-03 0.0 
1.874705171997e-03 1.337383750719e-02 0.0 
0.0 0.0 0.0 
0.0 3.124022637570e-03 0.0 
3.124022637570e-03 9.478332692127e-03 0.0 
0.0 0.0 0.0 
-1.681664181325e-03 3.941482717305e-04 0.0 
3.941482717305e-04 1.397775599167e-02 0.0 
0.0 0.0 0.0 
-3.612994788694e-04 2.581222145689e-03 0.0 
2.581222145689e-03 1.541627054009e-02 0.0 
0.0 0.0 0.0 
9.180144964605e-04 2.782456164909e-03 0.0 
2.782456164909e-03 7.394140629426e-03 0.0 
0.0 0.0 0.0 
-1.598294376796e-03 5.354298654603e-04 0.0 
5.354298654603e-04 1.465504154235e-02 0.0 
0.0 0.0 0.0 
-3.321832634363e-04 2.977744007262e-03 0.0 
2.977744007262e-03 4.228447237586e-03 0.0 
0.0 0.0 0.0 
1.977764938689e-03 1.746086875769e-03 0.0 
1.746086875769e-03 4.220632147631e-03 0.0 
0.0 0.0 0.0 
1.767682411577e-03 2.250749290719e-03 0.0 
2.250749290719e-03 -1.851887784247e-03 0.0 
0.0 0.0 0.0 
0.0 2.718271962289e-03 0.0 
2.718271962289e-03 8.750804563835e-03 0.0 
0.0 0.0 0.0 
0.0 3.165515255689e-03 0.0 
3.165515255689e-03 1.415743763854e-02 0.0 
0.0 0.0 0.0 
0.0 2.770760342860e-03 0.0 
2.770760342860e-03 1.497170100450e-02 0.0 
0.0 0.0 0.0 
1.272440984807e-03 -3.961156205972e-04 0.0 
-3.961156205972e-04 3.350305841492e-03 0.0 
0.0 0.0 0.0 
1.707521102428e-04 -6.634072805444e-04 0.0 
-6.634072805444e-04 2.950976590510e-03 0.0 
0.0 0.0 0.0 
8.701771677506e-04 2.732628646203e-03 0.0 
2.732628646203e-03 5.296564367751e-03 0.0 
0.0 0.0 0.0 
1.312216147240e-03 -2.477637560889e-04 0.0 
-2.477637560889e-04 3.700762715142e-03 0.0 
0.0 0.0 0.0 
0.0 2.278506943926e-03 0.0 
2.278506943926e-03 8.187948990911e-03 0.0 
0.0 0.0 0.0 
1.420385355350e-03 2.596537780281e-03 0.0 
2.596537780281e-03 8.611632882629e-04 0.0 
0.0 0.0 0.0 
2.547606294333e-03 -7.475124418882e-04 0.0 
-7.475124418882e-04 -7.968671216325e-04 0.0 
0.0 0.0 0.0 
2.272991992209e-03 -1.041363675435e-03 0.0 
-1.041363675435e-03 -1.630686283381e-04 0.0 
0.0 0.0 0.0 
-1.512681624542e-03 5.470948486165e-04 0.0 
5.470948486165e-04 1.487431440020e-02 0.0 
0.0 0.0 0.0 
3.179494876036e-04 1.221225220070e-03 0.0 
1.221225220070e-03 7.465812825319e-03 0.0 
0.0 0.0 0.0 
-9.943105769584e-04 -2.506169777755e-03 0.0 
-2.506169777755e-03 -2.641519186614e-04 0.0 
0.0 0.0 0.0 
0.0 1.765964543428e-03 0.0 
1.765964543428e-03 7.742158496295e-03 0.0 
0.0 0.0 0.0 
1.892150709700e-03 -1.494934223696e-03 0.0 
-1.494934223696e-03 -5.364097667371e-05 0.0 
0.0 0.0 0.0 
0.0 3.555194111286e-03 0.0 
3.555194111286e-03 1.277425892330e-02 0.0 
0.0 0.0 0.0 
-7.203214786830e-04 2.970403195211e-03 0.0 
2.970403195211e-03 1.284138488237e-02 0.0 
0.0 0.0 0.0 
4.476705712162e-04 -7.169010567808e-05 0.0 
-7.169010567808e-05 -3.007309758174e-05 0.0 
0.0 0.0 0.0 
1.002534472842e-03 2.798587549568e-03 0.0 
2.798587549568e-03 4.408215260246e-03 0.0 
0.0 0.0 0.0 
-1.322475998900e-03 1.781368035609e-03 0.0 
1.781368035609e-03 1.533023880256e-02 0.0 
0.0 0.0 0.0 
0.0 3.604568060765e-03 0.0 
3.604568060765e-03 1.176907291946e-02 0.0 
0.0 0.0 0.0 
-9.858721565783e-04 2.766723119991e-03 0.0 
2.766723119991e-03 1.150602079153e-02 0.0 
0.0 0.0 0.0 
1.067884745457e-03 2.688654514703e-03 0.0 
2.688654514703e-03 7.118845922876e-03 0.0 
0.0 0.0 0.0 
5.133238587443e-04 3.243966883523e-03 0.0 
3.243966883523e-03 -7.907531844900e-04 0.0 
0.0 0.0 0.0 
7.783587972705e-04 1.530901208495e-03 0.0 
1.530901208495e-03 6.520932705226e-03 0.0 
0.0 0.0 0.0 
1.593312417009e-03 -1.521976867664e-03 0.0 
-1.521976867664e-03 5.856234472794e-04 0.0 
0.0 0.0 0.0 
1.869541915283e-03 -1.458659780786e-03 0.0 
-1.458659780786e-03 -1.055435823891e-04 0.0 
0.0 0.0 0.0 
-1.597667900073e-03 -2.504734038914e-03 0.0 
-2.504734038914e-03 -3.608112581774e-04 0.0 
0.0 0.0 0.0 
0.0 3.506438955336e-03 0.0 
3.506438955336e-03 1.078581629969e-02 0.0 
0.0 0.0 0.0 
2.102828781656e-03 2.002221957746e-03 0.0 
2.002221957746e-03 -1.428381884007e-03 0.0 
0.0 0.0 0.0 
1.172047631412e-03 6.872508559646e-04 0.0 
6.872508559646e-04 5.232651778713e-03 0.0 
0.0 0.0 0.0 
-1.709570410689e-03 3.983905927130e-04 0.0 
3.983905927130e-04 1.449688128148e-02 0.0 
0.0 0.0 0.0 
3.990425413869e-04 -1.806602377177e-03 0.0 
-1.806602377177e-03 1.091278068348e-03 0.0 
0.0 0.0 0.0 
2.170263350765e-03 -1.302879902097e-03 0.0 
-1.302879902097e-03 -7.148053596918e-04 0.0 
0.0 0.0 0.0 
-7.966776527804e-04 2.832721538868e-03 0.0 
2.832721538868e-03 1.076023363949e-02 0.0 
0.0 0.0 0.0 
0.0 2.926253625608e-03 0.0 
2.926253625608e-03 9.101344846817e-03 0.0 
0.0 0.0 0.0 
2.051931466447e-04 -5.570613431213e-04 0.0 
-5.570613431213e-04 3.188574801097e-03 0.0 
0.0 0.0 0.0 
1.305269662812e-03 2.481785588740e-05 0.0 
2.481785588740e-05 4.053079346367e-03 0.0 
0.0 0.0 0.0 
6.595663195899e-04 2.869903044096e-03 0.0 
2.869903044096e-03 6.495904787495e-03 0.0 
0.0 0.0 0.0 
1.889143121022e-03 1.978865958793e-04 0.0 
1.978865958793e-04 3.076121306374e-03 0.0 
0.0 0.0 0.0 
2.450075302364e-03 -7.131112616120e-04 0.0 
-7.131112616120e-04 -5.225118837207e-04 0.0 
0.0 0.0 0.0 
1.405160733092e-03 -1.864287886895e-04 0.0 
-1.864287886895e-04 3.500859342094e-03 0.0 
0.0 0.0 0.0 
4.066398361195e-04 2.850637736086e-03 0.0 
2.850637736086e-03 6.987835479390e-03 0.0 
0.0 0.0 0.0 
2.961218913209e-04 2.924049703054e-03 0.0 
2.924049703054e-03 8.922401643301e-03 0.0 
0.0 0.0 0.0 
1.802410039275e-03 1.811901720351e-03 0.0 
1.811901720351e-03 4.846243530745e-03 0.0 
0.0 0.0 0.0 
8.912104519316e-04 2.816370472047e-03 0.0 
2.816370472047e-03 5.651007382069e-03 0.0 
0.0 0.0 0.0 
6.684533068699e-04 -9.305479034196e-04 0.0 
-9.305479034196e-04 2.747539345825e-03 0.0 
0.0 0.0 0.0 
1.122111949698e-03 2.705732231469e-03 0.0 
2.705732231469e-03 1.882340011354e-03 0.0 
0.0 0.0 0.0 
2.407064645922e-04 -6.905488542141e-04 0.0 
-6.905488542141e-04 2.954655681134e-03 0.0 
0.0 0.0 0.0 
9.307828951577e-04 2.691048592198e-03 0.0 
2.691048592198e-03 7.410100921601e-03 0.0 
0.0 0.0 0.0 
2.275596634737e-03 1.400725816481e-03 0.0 
1.400725816481e-03 2.963058003913e-03 0.0 
0.0 0.0 0.0 
3.970285280530e-04 1.704402977501e-03 0.0 
1.704402977501e-03 7.680110023972e-03 0.0 
0.0 0.0 0.0 
-1.190195296116e-03 2.055038649838e-03 0.0 
2.055038649838e-03 1.517675894138e-02 0.0 
0.0 0.0 0.0 
2.313288565063e-04 -1.680761490274e-03 0.0 
-1.680761490274e-03 1.323776622081e-03 0.0 
0.0 0.0 0.0 
0.0 2.012216814765e-03 0.0 
2.012216814765e-03 7.907953374285e-03 0.0 
0.0 0.0 0.0 
7.790241334034e-04 1.718805623378e-03 0.0 
1.718805623378e-03 7.117854101292e-03 0.0 
0.0 0.0 0.0 
1.660485349236e-03 2.448945380309e-03 0.0 
2.448945380309e-03 3.547744397049e-03 0.0 
0.0 0.0 0.0 
-9.347535883284e-04 -1.624739482657e-03 0.0 
-1.624739482657e-03 4.612576288414e-04 0.0 
0.0 0.0 0.0 
3.430417630712e-04 1.025252780240e-03 0.0 
1.025252780240e-03 7.413860139137e-03 0.0 
0.0 0.0 0.0 
-1.118076804750e-03 2.410799334745e-03 0.0 
2.410799334745e-03 1.457048057920e-02 0.0 
0.0 0.0 0.0 
1.400704101773e-03 -1.830094568481e-03 0.0 
-1.830094568481e-03 2.074781817594e-04 0.0 
0.0 0.0 0.0 
0.0 1.299756650705e-03 0.0 
1.299756650705e-03 7.487983292134e-03 0.0 
0.0 0.0 0.0 
1.210981755159e-03 -1.829692868881e-04 0.0 
-1.829692868881e-04 3.865177680004e-03 0.0 
0.0 0.0 0.0 
-2.870198560737e-04 2.855457470036e-03 0.0 
2.855457470036e-03 6.950302926944e-03 0.0 
0.0 0.0 0.0 
-1.757218867044e-03 1.970193409968e-03 0.0 
1.970193409968e-03 1.297785211508e-02 0.0 
0.0 0.0 0.0 
2.211018152305e-03 1.368053208851e-03 0.0 
1.368053208851e-03 3.007181864326e-03 0.0 
0.0 0.0 0.0 
1.297883165603e-03 -6.238810990015e-04 0.0 
-6.238810990015e-04 2.855546065306e-03 0.0 
0.0 0.0 0.0 
1.915534924873e-03 5.203882994769e-04 0.0 
5.203882994769e-04 3.434947909516e-03 0.0 
0.0 0.0 0.0 
-1.788944780782e-03 1.968493548320e-03 0.0 
1.968493548320e-03 1.408976731418e-02 0.0 
0.0 0.0 0.0 
-6.317069015586e-04 2.795854386886e-03 0.0 
2.795854386886e-03 8.644595112223e-03 0.0 
0.0 0.0 0.0 
1.618885429270e-03 2.062945023007e-03 0.0 
2.062945023007e-03 5.491469530847e-03 0.0 
0.0 0.0 0.0 
-1.173044665209e-03 6.090789856501e-05 0.0 
6.090789856501e-05 1.461653796529e-02 0.0 
0.0 0.0 0.0 
4.923845065044e-04 -9.461304561995e-04 0.0 
-9.461304561995e-04 2.750871704162e-03 0.0 
0.0 0.0 0.0 
1.968117104262e-03 1.541324986243e-03 0.0 
1.541324986243e-03 4.239150240240e-03 0.0 
0.0 0.0 0.0 
1.194211558266e-03 -1.742421499865e-03 0.0 
-1.742421499865e-03 6.152684666643e-04 0.0 
0.0 0.0 0.0 
5.593231463725e-04 -2.983618590031e-04 0.0 
-2.983618590031e-04 4.483934079980e-03 0.0 
0.0 0.0 0.0 
-1.385086267883e-04 -1.774550943401e-04 0.0 
-1.774550943401e-04 9.472120908272e-05 0.0 
0.0 0.0 0.0 
8.662168693767e-04 2.776851984011e-03 0.0 
2.776851984011e-03 2.849137413343e-03 0.0 
0.0 0.0 0.0 
1.447242596733e-03 -1.828078064533e-03 0.0 
-1.828078064533e-03 -4.142236896265e-06 0.0 
0.0 0.0 0.0 
4.714618698416e-04 -6.553482081742e-04 0.0 
-6.553482081742e-04 3.352899392788e-03 0.0 
0.0 0.0 0.0 
1.425174146244e-03 2.588189584223e-03 0.0 
2.588189584223e-03 4.385198974386e-03 0.0 
0.0 0.0 0.0 
1.433621224427e-03 -5.051145494969e-05 0.0 
-5.051145494969e-05 3.844451781101e-03 0.0 
0.0 0.0 0.0 
-1.632880839180e-03 4.071800632448e-04 0.0 
4.071800632448e-04 1.472760305042e-02 0.0 
0.0 0.0 0.0 
9.695247662522e-04 -2.044881442710e-03 0.0 
-2.044881442710e-03 2.434626235068e-04 0.0 
0.0 0.0 0.0 
0.0 1.105446566163e-03 0.0 
1.105446566163e-03 7.443455226911e-03 0.0 
0.0 0.0 0.0 
-2.817913994067e-04 2.917240377534e-03 0.0 
2.917240377534e-03 9.471719340451e-03 0.0 
0.0 0.0 0.0 
3.901516511111e-04 -5.322204825112e-04 0.0 
-5.322204825112e-04 3.625150205683e-03 0.0 
0.0 0.0 0.0 
-5.444339515304e-05 2.913878901358e-03 0.0 
2.913878901358e-03 8.656225249031e-03 0.0 
0.0 0.0 0.0 
3.447849720186e-04 -6.576669632565e-04 0.0 
-6.576669632565e-04 3.353946151352e-03 0.0 
0.0 0.0 0.0 
-5.470433719265e-04 -9.337258742478e-05 0.0 
-9.337258742478e-05 3.307542229529e-04 0.0 
0.0 0.0 0.0 
-1.909436360318e-03 2.000876901548e-03 0.0 
2.000876901548e-03 1.347844634754e-02 0.0 
0.0 0.0 0.0 
3.509533801638e-05 -1.942602423288e-04 0.0 
-1.942602423288e-04 3.162792821763e-03 0.0 
0.0 0.0 0.0 
4.860769247526e-04 -1.791805149650e-05 0.0 
-1.791805149650e-05 -1.059068324061e-04 0.0 
0.0 0.0 0.0 
2.703154258779e-04 -4.947509207556e-04 0.0 
-4.947509207556e-04 3.527213637330e-03 0.0 
0.0 0.0 0.0 
1.308752890728e-03 1.380332484027e-04 0.0 
1.380332484027e-04 4.380780874451e-03 0.0 
0.0 0.0 0.0 
-7.574240734098e-04 4.978315423299e-04 0.0 
4.978315423299e-04 1.593230371182e-02 0.0 
0.0 0.0 0.0 
2.060918253719e-03 3.350888156248e-04 0.0 
3.350888156248e-04 2.810522488198e-03 0.0 
0.0 0.0 0.0 
2.087365816434e-03 4.311109537769e-04 0.0 
4.311109537769e-04 3.034564332477e-03 0.0 
0.0 0.0 0.0 
-2.179738546594e-03 1.699737421029e-03 0.0 
1.699737421029e-03 1.323159893543e-02 0.0 
0.0 0.0 0.0 
-1.671188226688e-03 1.778106476452e-04 0.0 
1.778106476452e-04 1.371460720054e-02 0.0 
0.0 0.0 0.0 
-4.091118220032e-04 2.078905773453e-03 0.0 
2.078905773453e-03 1.561461976891e-02 0.0 
0.0 0.0 0.0 
1.749005426595e-04 2.887505451511e-03 0.0 
2.887505451511e-03 7.825878490874e-03 0.0 
0.0 0.0 0.0 
7.537629191035e-04 -3.723858317844e-05 0.0 
-3.723858317844e-05 -1.963940585263e-04 0.0 
0.0 0.0 0.0 
-2.189445813845e-04 -8.243923249037e-04 0.0 
-8.243923249037e-04 1.242286478057e-03 0.0 
0.0 0.0 0.0 
-8.382402541578e-04 -9.839269028247e-04 0.0 
-9.839269028247e-04 6.289131182913e-04 0.0 
0.0 0.0 0.0 
8.320878203527e-05 -1.389262595852e-03 0.0 
-1.389262595852e-03 1.644048351714e-03 0.0 
0.0 0.0 0.0 
-1.240320037055e-04 3.099345946078e-03 0.0 
3.099345946078e-03 1.084874310771e-02 0.0 
0.0 0.0 0.0 
-8.778842123893e-04 4.709788884278e-04 0.0 
4.709788884278e-04 1.593594931561e-02 0.0 
0.0 0.0 0.0 
7.392473587577e-04 1.037830095681e-04 0.0 
1.037830095681e-04 5.388184492437e-03 0.0 
0.0 0.0 0.0 
1.123275600183e-04 -9.982911580275e-04 0.0 
-9.982911580275e-04 2.166605360995e-03 0.0 
0.0 0.0 0.0 
4.278313402206e-04 -3.363408822587e-04 0.0 
-3.363408822587e-04 4.490900691956e-03 0.0 
0.0 0.0 0.0 
1.117657561218e-03 7.366402872464e-04 0.0 
7.366402872464e-04 5.493310460480e-03 0.0 
0.0 0.0 0.0 
2.575556318288e-03 3.307167510320e-04 0.0 
3.307167510320e-04 -3.564240603096e-03 0.0 
0.0 0.0 0.0 
3.332936091405e-05 -1.651974526546e-04 0.0 
-1.651974526546e-04 3.162270257522e-03 0.0 
0.0 0.0 0.0 
2.180888916570e-05 -1.013763851094e-04 0.0 
-1.013763851094e-04 2.627430164909e-03 0.0 
0.0 0.0 0.0 
2.740280879763e-04 8.256251567696e-04 0.0 
8.256251567696e-04 7.370465207256e-03 0.0 
0.0 0.0 0.0 
0.0 8.966695054372e-04 0.0 
8.966695054372e-04 7.384319789962e-03 0.0 
0.0 0.0 0.0 
5.074846050057e-05 -1.576130602816e-04 0.0 
-1.576130602816e-04 3.497771666605e-03 0.0 
0.0 0.0 0.0 
2.836339972039e-04 -5.322777370931e-04 0.0 
-5.322777370931e-04 3.625779259683e-03 0.0 
0.0 0.0 0.0 
1.358117264126e-03 -4.544741752879e-04 0.0 
-4.544741752879e-04 3.222733070698e-03 0.0 
0.0 0.0 0.0 
1.071209904217e-03 9.767372718331e-04 0.0 
9.767372718331e-04 5.842437810291e-03 0.0 
0.0 0.0 0.0 
-3.206947024849e-04 -8.342372825837e-04 0.0 
-8.342372825837e-04 1.401237972919e-03 0.0 
0.0 0.0 0.0 
1.153996983145e-03 5.125297890594e-04 0.0 
5.125297890594e-04 5.187923723763e-03 0.0 
0.0 0.0 0.0 
3.779022601311e-04 -1.302042377672e-04 0.0 
-1.302042377672e-04 5.876578386657e-04 0.0 
0.0 0.0 0.0 
2.325013552993e-04 -6.073340407614e-04 0.0 
-6.073340407614e-04 3.279719569280e-03 0.0 
0.0 0.0 0.0 
4.787249413551e-04 -6.777537890179e-04 0.0 
-6.777537890179e-04 3.414482151780e-03 0.0 
0.0 0.0 0.0 
4.312304102534e-04 -4.400154190320e-05 0.0 
-4.400154190320e-05 2.073077109372e-04 0.0 
0.0 0.0 0.0 
4.178074459227e-05 -1.034532541901e-04 0.0 
-1.034532541901e-04 3.343583842459e-03 0.0 
0.0 0.0 0.0 
-9.800661393176e-04 1.990854935725e-03 0.0 
1.990854935725e-03 1.518633624086e-02 0.0 
0.0 0.0 0.0 
7.420129315658e-04 -2.389839258161e-05 0.0 
-2.389839258161e-05 -1.916094009351e-04 0.0 
0.0 0.0 0.0 
-1.802422741321e-03 3.059098787711e-04 0.0 
3.059098787711e-04 1.374068374440e-02 0.0 
0.0 0.0 0.0 
-1.651184913075e-03 4.385875713038e-04 0.0 
4.385875713038e-04 1.356135361513e-02 0.0 
0.0 0.0 0.0 
1.888193268990e-03 8.393118772882e-04 0.0 
8.393118772882e-04 3.864150220129e-03 0.0 
0.0 0.0 0.0 
2.673154461230e-05 -6.507318302913e-05 0.0 
-6.507318302913e-05 2.628767018306e-03 0.0 
0.0 0.0 0.0 
1.134504560946e-03 -1.727249377652e-03 0.0 
-1.727249377652e-03 8.186995550816e-04 0.0 
0.0 0.0 0.0 
1.345251638041e-04 3.143622481711e-03 0.0 
3.143622481711e-03 1.507547697748e-03 0.0 
0.0 0.0 0.0 
4.541602536048e-04 1.882707803185e-04 0.0 
1.882707803185e-04 6.196205373722e-03 0.0 
0.0 0.0 0.0 
1.015323054097e-04 3.323683000105e-03 0.0 
3.323683000105e-03 1.061002598910e-02 0.0 
0.0 0.0 0.0 
-1.185487868087e-03 7.044176367412e-04 0.0 
7.044176367412e-04 1.573089295767e-02 0.0 
0.0 0.0 0.0 
-2.909056999035e-04 2.892973308300e-03 0.0 
2.892973308300e-03 4.238927538538e-03 0.0 
0.0 0.0 0.0 
-4.725844425451e-04 -6.563201634715e-04 0.0 
-6.563201634715e-04 9.242743684637e-04 0.0 
0.0 0.0 0.0 
-1.152689757083e-03 2.693142571293e-03 0.0 
2.693142571293e-03 1.004241150602e-02 0.0 
0.0 0.0 0.0 
-1.398880405195e-03 3.801323790903e-05 0.0 
3.801323790903e-05 1.365144936382e-02 0.0 
0.0 0.0 0.0 
-1.276433513931e-03 2.480611707916e-05 0.0 
2.480611707916e-05 1.359341191694e-02 0.0 
0.0 0.0 0.0 
5.260806589726e-04 -2.455975381885e-05 0.0 
-2.455975381885e-05 -1.187333698416e-04 0.0 
0.0 0.0 0.0 
3.780847122348e-04 -6.257848660023e-05 0.0 
-6.257848660023e-05 2.309349433525e-04 0.0 
0.0 0.0 0.0 
3.334567163435e-04 -6.431835671520e-05 0.0 
-6.431835671520e-05 6.076704230311e-04 0.0 
0.0 0.0 0.0 
-1.149408239821e-04 -8.423989596964e-04 0.0 
-8.423989596964e-04 1.853557087767e-03 0.0 
0.0 0.0 0.0 
6.074077927083e-04 -3.791994826907e-05 0.0 
-3.791994826907e-05 1.415384757271e-04 0.0 
0.0 0.0 0.0 
5.904901164921e-05 -9.569089747767e-05 0.0 
-9.569089747767e-05 3.702534925702e-03 0.0 
0.0 0.0 0.0 
-1.338464653872e-03 -1.101270652014e-03 0.0 
-1.101270652014e-03 -1.850125488483e-03 0.0 
0.0 0.0 0.0 
1.525997044682e-05 -8.896204391333e-04 0.0 
-8.896204391333e-04 2.133404751601e-03 0.0 
0.0 0.0 0.0 
-1.056391908838e-03 1.114594759304e-04 0.0 
1.114594759304e-04 1.494372798145e-02 0.0 
0.0 0.0 0.0 
-1.408147712460e-03 1.496037979882e-04 0.0 
1.496037979882e-04 1.358828988774e-02 0.0 
0.0 0.0 0.0 
-2.709562150789e-04 3.149851188226e-03 0.0 
3.149851188226e-03 1.154466588583e-02 0.0 
0.0 0.0 0.0 
1.227701691661e-03 -5.602664441183e-05 0.0 
-5.602664441183e-05 4.201293775099e-03 0.0 
0.0 0.0 0.0 
-1.108678778943e-03 7.030125173868e-05 0.0 
7.030125173868e-05 1.460188845594e-02 0.0 
0.0 0.0 0.0 
1.949814622160e-05 -1.763649236054e-05 0.0 
-1.763649236054e-05 2.807682231455e-03 0.0 
0.0 0.0 0.0 
4.694656420747e-04 -7.694339070151e-05 0.0 
-7.694339070151e-05 5.482409080453e-04 0.0 
0.0 0.0 0.0 
0.0 1.062723394522e-03 0.0 
1.062723394522e-03 1.649115558353e-02 0.0 
0.0 0.0 0.0 
-3.171004554543e-04 1.193726423174e-03 0.0 
1.193726423174e-03 1.644714550750e-02 0.0 
0.0 0.0 0.0 
-1.524540533199e-03 3.505636145377e-04 0.0 
3.505636145377e-04 1.450019866480e-02 0.0 
0.0 0.0 0.0 
-1.488096773175e-03 5.892718638193e-05 0.0 
5.892718638193e-05 1.366511441199e-02 0.0 
0.0 0.0 0.0 
2.613364680726e-05 -1.494547531221e-04 0.0 
-1.494547531221e-04 2.831941801616e-03 0.0 
0.0 0.0 0.0 
-2.627247619275e-04 8.202311424410e-04 0.0 
8.202311424410e-04 1.658128080609e-02 0.0 
0.0 0.0 0.0 
5.521585033641e-07 -9.771585642915e-04 0.0 
-9.771585642915e-04 1.911189014332e-03 0.0 
0.0 0.0 0.0 
-1.504149539817e-03 2.520100849138e-04 0.0 
2.520100849138e-04 1.357552242262e-02 0.0 
0.0 0.0 0.0 
-1.553165189597e-03 1.110666705051e-04 0.0 
1.110666705051e-04 1.368531189968e-02 0.0 
0.0 0.0 0.0 
-1.449084730751e-03 2.395852116740e-03 0.0 
2.395852116740e-03 1.066382264786e-02 0.0 
0.0 0.0 0.0 
0.0 2.352401356981e-03 0.0 
2.352401356981e-03 1.556118306212e-02 0.0 
0.0 0.0 0.0 
-3.038968977133e-04 1.004772519397e-03 0.0 
1.004772519397e-03 1.652530590525e-02 0.0 
0.0 0.0 0.0 
5.693113379708e-04 -5.078598452820e-05 0.0 
-5.078598452820e-05 1.530996885573e-04 0.0 
0.0 0.0 0.0 
5.692844743692e-04 -2.206486545544e-05 0.0 
-2.206486545544e-05 -1.319230729727e-04 0.0 
0.0 0.0 0.0 
-3.693854446712e-04 -6.220496731845e-04 0.0 
-6.220496731845e-04 1.085420934734e-03 0.0 
0.0 0.0 0.0 
6.371876357398e-04 -6.558861832367e-04 0.0 
-6.558861832367e-04 3.410352130182e-03 0.0 
0.0 0.0 0.0 
5.713970320120e-05 3.568007460785e-05 0.0 
3.568007460785e-05 6.902517721967e-03 0.0 
0.0 0.0 0.0 
-3.297794265519e-03 -1.963267899826e-03 0.0 
-1.963267899826e-03 -2.149547649983e-03 0.0 
0.0 0.0 0.0 
-8.229022520683e-04 4.151381351793e-05 0.0 
4.151381351793e-05 1.566883822287e-02 0.0 
0.0 0.0 0.0 
-1.563175080473e-03 -8.637901984978e-04 0.0 
-8.637901984978e-04 7.203970533052e-04 0.0 
0.0 0.0 0.0 
1.926286478674e-03 6.028401537521e-04 0.0 
6.028401537521e-04 3.653166893809e-03 0.0 
0.0 0.0 0.0 
-6.964858673442e-04 -5.865955292239e-04 0.0 
-5.865955292239e-04 1.121683474035e-04 0.0 
0.0 0.0 0.0 
-1.761437064970e-03 -2.081447113468e-03 0.0 
-2.081447113468e-03 -6.916144494857e-04 0.0 
0.0 0.0 0.0 
1.909971938565e-03 3.046326875620e-04 0.0 
3.046326875620e-04 3.343979293131e-03 0.0 
0.0 0.0 0.0 
1.422862322942e-04 4.334824452548e-05 0.0 
4.334824452548e-05 6.604054600184e-03 0.0 
0.0 0.0 0.0 
-1.112817732109e-03 6.956178467679e-05 0.0 
6.956178467679e-05 1.491320893749e-02 0.0 
0.0 0.0 0.0 
-8.231193988122e-04 2.805228785982e-03 0.0 
2.805228785982e-03 9.470327736038e-03 0.0 
0.0 0.0 0.0 
4.698437306014e-04 -3.549238284288e-05 0.0 
-3.549238284288e-05 1.885549511826e-04 0.0 
0.0 0.0 0.0 
3.385985171469e-04 -2.620806862869e-04 0.0 
-2.620806862869e-04 4.775044766341e-03 0.0 
0.0 0.0 0.0 
0.0 3.158537787554e-04 0.0 
3.158537787554e-04 1.665679441923e-02 0.0 
0.0 0.0 0.0 
-2.231477718022e-04 3.569539700159e-04 0.0 
3.569539700159e-04 1.666218161091e-02 0.0 
0.0 0.0 0.0 
-1.343730517894e-03 8.560684223957e-05 0.0 
8.560684223957e-05 1.358613519500e-02 0.0 
0.0 0.0 0.0 
1.892297891323e-03 8.984477347034e-04 0.0 
8.984477347034e-04 4.028475587057e-03 0.0 
0.0 0.0 0.0 
0.0 8.816876024429e-04 0.0 
8.816876024429e-04 1.656174996739e-02 0.0 
0.0 0.0 0.0 
1.049742769435e-03 2.581283336393e-03 0.0 
2.581283336393e-03 7.134534839756e-03 0.0 
0.0 0.0 0.0 
4.822872123569e-04 -3.620354466800e-05 0.0 
-3.620354466800e-05 5.242841286641e-04 0.0 
0.0 0.0 0.0 
6.435094019794e-04 -3.272153883919e-05 0.0 
-3.272153883919e-05 1.276368671437e-04 0.0 
0.0 0.0 0.0 
4.883961854472e-04 -1.803267444674e-05 0.0 
-1.803267444674e-05 1.868355686259e-04 0.0 
0.0 0.0 0.0 
2.779607683245e-05 -1.672802068479e-05 0.0 
-1.672802068479e-05 3.169526009187e-03 0.0 
0.0 0.0 0.0 
3.030974401885e-05 1.662471147587e-05 0.0 
1.662471147587e-05 7.573366014672e-03 0.0 
0.0 0.0 0.0 
-3.670470501868e-04 -1.427433031141e-05 0.0 
-1.427433031141e-05 1.640620014682e-02 0.0 
0.0 0.0 0.0 
6.445069802072e-04 -9.689594474307e-06 0.0 
-9.689594474307e-06 -1.691840655651e-04 0.0 
0.0 0.0 0.0 
5.576622622172e-05 -7.084383328358e-05 0.0 
-7.084383328358e-05 3.702499092662e-03 0.0 
0.0 0.0 0.0 
0.0 3.386412378062e-05 0.0 
3.386412378062e-05 7.611682615368e-03 0.0 
0.0 0.0 0.0 
4.494150671230e-05 6.016933188623e-05 0.0 
6.016933188623e-05 7.544050393713e-03 0.0 
0.0 0.0 0.0 
2.872163962109e-04 6.565265010277e-04 0.0 
6.565265010277e-04 7.352086949292e-03 0.0 
0.0 0.0 0.0 
-9.340391369441e-04 7.333217281477e-05 0.0 
7.333217281477e-05 1.534154887473e-02 0.0 
0.0 0.0 0.0 
-7.387932111821e-04 -2.109386498207e-05 0.0 
-2.109386498207e-05 1.582961524863e-02 0.0 
0.0 0.0 0.0 
0.0 5.128083199181e-05 0.0 
5.128083199181e-05 7.547979149338e-03 0.0 
0.0 0.0 0.0 
0.0 7.669185004145e-05 0.0 
7.669185004145e-05 7.539952335341e-03 0.0 
0.0 0.0 0.0 
-8.051729098421e-04 8.297100220016e-05 0.0 
8.297100220016e-05 1.567029496792e-02 0.0 
0.0 0.0 0.0 
8.366531702282e-04 1.963102495653e-05 0.0 
1.963102495653e-05 -2.586960521143e-04 0.0 
0.0 0.0 0.0 
-1.241054801027e-03 9.196404878333e-06 0.0 
9.196404878333e-06 1.357787448977e-02 0.0 
0.0 0.0 0.0 
-1.306798653155e-03 5.105832953471e-05 0.0 
5.105832953471e-05 1.360558662817e-02 0.0 
0.0 0.0 0.0 
6.075861433623e-04 -1.501829828108e-05 0.0 
-1.501829828108e-05 -1.474902024796e-04 0.0 
0.0 0.0 0.0 
0.0 2.554301677059e-04 0.0 
2.554301677059e-04 7.462163960839e-03 0.0 
0.0 0.0 0.0 
2.226310078728e-04 5.068446507736e-04 0.0 
5.068446507736e-04 7.349715803924e-03 0.0 
0.0 0.0 0.0 
0.0 4.475389166823e-04 0.0 
4.475389166823e-04 7.351836070911e-03 0.0 
0.0 0.0 0.0 
7.757038505740e-04 -7.209117599450e-06 0.0 
-7.209117599450e-06 -2.115132276660e-04 0.0 
0.0 0.0 0.0 
7.548444295278e-04 -1.734874734347e-05 0.0 
-1.734874734347e-05 -1.992355426234e-04 0.0 
0.0 0.0 0.0 
0.0 7.350213780891e-04 0.0 
7.350213780891e-04 7.357187671227e-03 0.0 
0.0 0.0 0.0 
0.0 5.758252284100e-04 0.0 
5.758252284100e-04 7.347393998152e-03 0.0 
0.0 0.0 0.0 
-9.927642974864e-04 -2.920630842185e-05 0.0 
-2.920630842185e-05 1.516294116195e-02 0.0 
0.0 0.0 0.0 
-1.214458888117e-03 1.060128237301e-05 0.0 
1.060128237301e-05 1.356433889240e-02 0.0 
0.0 0.0 0.0 
-8.754523368214e-04 -2.498491055906e-05 0.0 
-2.498491055906e-05 1.550652773186e-02 0.0 
0.0 0.0 0.0 
-1.136145000743e-03 -3.456149830973e-05 0.0 
-3.456149830973e-05 1.441129161134e-02 0.0 
0.0 0.0 0.0 
-1.210212411361e-03 2.818913424650e-06 0.0 
2.818913424650e-06 1.356176195410e-02 0.0 
0.0 0.0 0.0 
7.454309087795e-04 -3.336792288009e-05 0.0 
-3.336792288009e-05 -1.816034642053e-04 0.0 
0.0 0.0 0.0 
6.089817527219e-04 -4.483396808693e-05 0.0 
-4.483396808693e-05 -1.024120750536e-04 0.0 
0.0 0.0 0.0 
5.135487729482e-04 -6.019444049234e-05 0.0 
-6.019444049234e-05 -8.724986499853e-05 0.0 
0.0 0.0 0.0 
4.913227819674e-04 -7.017450303664e-05 0.0 
-7.017450303664e-05 -6.394491072126e-05 0.0 
0.0 0.0 0.0 
6.511219070693e-05 -4.828458128159e-06 0.0 
-4.828458128159e-06 3.895977068280e-03 0.0 
0.0 0.0 0.0 
4.686599313675e-05 -1.319352288891e-05 0.0 
-1.319352288891e-05 3.528504986979e-03 0.0 
0.0 0.0 0.0 
1.089896351449e-04 -4.408233214156e-05 0.0 
-4.408233214156e-05 6.338404970796e-05 0.0 
0.0 0.0 0.0 
1.174287871606e-04 9.258642016594e-06 0.0 
9.258642016594e-06 5.009677199091e-03 0.0 
0.0 0.0 0.0 
-1.060621536342e-05 -7.292933267269e-05 0.0 
-7.292933267269e-05 1.065972123417e-04 0.0 
0.0 0.0 0.0 
0.0 1.886689049065e-03 0.0 
1.886689049065e-03 1.601343186444e-02 0.0 
0.0 0.0 0.0 
0.0 7.282854477274e-04 0.0 
7.282854477274e-04 1.660020075131e-02 0.0 
0.0 0.0 0.0 
0.0 1.257100190855e-03 0.0 
1.257100190855e-03 1.639996853538e-02 0.0 
0.0 0.0 0.0 
2.440656947800e-04 -9.389691738151e-06 0.0 
-9.389691738151e-06 1.184337738550e-03 0.0 
0.0 0.0 0.0 
3.345971115665e-05 -1.670415118921e-05 0.0 
-1.670415118921e-05 2.433063726996e-03 0.0 
0.0 0.0 0.0 
0.0 5.695577967875e-04 0.0 
5.695577967875e-04 1.661586020395e-02 0.0 
0.0 0.0 0.0 
9.212402590064e-05 1.930876090558e-05 0.0 
1.930876090558e-05 6.261826438077e-03 0.0 
0.0 0.0 0.0 
0.0 4.451349552239e-04 0.0 
4.451349552239e-04 1.667147662972e-02 0.0 
0.0 0.0 0.0 
6.321944917742e-05 2.544161592363e-05 0.0 
2.544161592363e-05 6.702091104830e-03 0.0 
0.0 0.0 0.0 
3.269649147608e-05 3.437135126489e-05 0.0 
3.437135126489e-05 7.149346557627e-03 0.0 
0.0 0.0 0.0 
3.729604332370e-05 -7.518866243221e-05 0.0 
-7.518866243221e-05 3.343573321575e-03 0.0 
0.0 0.0 0.0 
-2.797086222988e-04 6.522430853414e-04 0.0 
6.522430853414e-04 1.660838339797e-02 0.0 
0.0 0.0 0.0 
-2.191840365593e-04 5.469374190603e-04 0.0 
5.469374190603e-04 1.663691991224e-02 0.0 
0.0 0.0 0.0 
7.636100176422e-05 -2.856801251769e-05 0.0 
-2.856801251769e-05 6.451471195996e-03 0.0 
0.0 0.0 0.0 
4.762435000716e-05 -2.414250131812e-05 0.0 
-2.414250131812e-05 6.905911522780e-03 0.0 
0.0 0.0 0.0 
2.026766972811e-04 -1.395937451365e-04 0.0 
-1.395937451365e-04 5.295908280172e-03 0.0 
0.0 0.0 0.0 
-9.988436107045e-04 -3.097366532986e-04 0.0 
-3.097366532986e-04 5.331430686817e-04 0.0 
0.0 0.0 0.0 
1.438240777036e-04 -5.343287968506e-04 0.0 
-5.343287968506e-04 3.185671522011e-03 0.0 
0.0 0.0 0.0 
5.284282091278e-04 -7.350645514129e-05 0.0 
-7.350645514129e-05 1.757592823712e-04 0.0 
0.0 0.0 0.0 
3.733021745846e-04 1.229192692291e-04 0.0 
1.229192692291e-04 6.203024614500e-03 0.0 
0.0 0.0 0.0 
3.251706621616e-04 -6.197547905812e-04 0.0 
-6.197547905812e-04 3.281069139250e-03 0.0 
0.0 0.0 0.0 
2.750524564747e-04 -1.781611784843e-05 0.0 
-1.781611784843e-05 5.901566901198e-03 0.0 
0.0 0.0 0.0 
-8.380888223447e-05 -8.872246604401e-04 0.0 
-8.872246604401e-04 1.656869982192e-03 0.0 
0.0 0.0 0.0 
1.087361645398e-04 -2.062665467504e-04 0.0 
-2.062665467504e-04 6.784247392866e-04 0.0 
0.0 0.0 0.0 
1.686134522219e-04 -1.600786618275e-05 0.0 
-1.600786618275e-05 6.357670505727e-03 0.0 
0.0 0.0 0.0 
1.941459962538e-04 -4.831125638746e-04 0.0 
-4.831125638746e-04 3.525835851539e-03 0.0 
0.0 0.0 0.0 
2.055507137833e-05 -1.055132174152e-04 0.0 
-1.055132174152e-04 2.987672778186e-03 0.0 
0.0 0.0 0.0 
2.133518367220e-04 -6.548609685710e-05 0.0 
-6.548609685710e-05 5.909522943374e-03 0.0 
0.0 0.0 0.0 
-5.626106555916e-04 2.598375347967e-04 0.0 
2.598375347967e-04 1.610033216464e-02 0.0 
0.0 0.0 0.0 
2.361789612881e-05 -7.267416335711e-05 0.0 
-7.267416335711e-05 2.988293844594e-03 0.0 
0.0 0.0 0.0 
1.171947130359e-03 2.169158434559e-04 0.0 
2.169158434559e-04 4.624240342155e-03 0.0 
0.0 0.0 0.0 
8.167861473485e-04 -2.979998562141e-04 0.0 
-2.979998562141e-04 4.286733289432e-03 0.0 
0.0 0.0 0.0 
2.691531892671e-04 -1.082164768739e-04 0.0 
-1.082164768739e-04 5.290676066115e-03 0.0 
0.0 0.0 0.0 
2.024449714551e-04 -6.393533115750e-05 0.0 
-6.393533115750e-05 5.532134027807e-03 0.0 
0.0 0.0 0.0 
2.550049084480e-03 1.405882499649e-03 0.0 
1.405882499649e-03 2.672332768452e-04 0.0 
0.0 0.0 0.0 
-9.760337285121e-04 2.734600441529e-03 0.0 
2.734600441529e-03 9.232721799761e-03 0.0 
0.0 0.0 0.0 
1.215323328132e-03 2.583723601728e-03 0.0 
2.583723601728e-03 4.822159404043e-03 0.0 
0.0 0.0 0.0 
4.467263669938e-04 -2.272797857842e-04 0.0 
-2.272797857842e-04 4.769039745901e-03 0.0 
0.0 0.0 0.0 
1.531499778455e-04 -4.698791181173e-05 0.0 
-4.698791181173e-05 6.164477178476e-03 0.0 
0.0 0.0 0.0 
1.508808198631e-04 -2.595759435870e-05 0.0 
-2.595759435870e-05 5.763242146608e-03 0.0 
0.0 0.0 0.0 
-1.019845985744e-04 -1.450285415647e-03 0.0 
-1.450285415647e-03 1.479875652075e-03 0.0 
0.0 0.0 0.0 
-6.259083559533e-04 4.472947066281e-04 0.0 
4.472947066281e-04 1.608435926144e-02 0.0 
0.0 0.0 0.0 
-8.053176951210e-04 3.727343113072e-04 0.0 
3.727343113072e-04 1.579720473717e-02 0.0 
0.0 0.0 0.0 
-1.222855328197e-03 9.223211375904e-05 0.0 
9.223211375904e-05 1.414914828938e-02 0.0 
0.0 0.0 0.0 
5.352196958957e-04 -1.811540650504e-04 0.0 
-1.811540650504e-04 4.908029167265e-03 0.0 
0.0 0.0 0.0 
3.501770531418e-04 -1.637642318022e-04 0.0 
-1.637642318022e-04 5.037592242658e-03 0.0 
0.0 0.0 0.0 
-6.434482176223e-04 2.319013279755e-04 0.0 
2.319013279755e-04 1.610981192133e-02 0.0 
0.0 0.0 0.0 
-7.034311582614e-04 3.294470933557e-04 0.0 
3.294470933557e-04 1.595566104429e-02 0.0 
0.0 0.0 0.0 
7.858923745441e-04 -4.311648827480e-04 0.0 
-4.311648827480e-04 3.962995590599e-03 0.0 
0.0 0.0 0.0 
1.153872941111e-04 -1.372221961225e-05 0.0 
-1.372221961225e-05 6.609239936796e-03 0.0 
0.0 0.0 0.0 
-1.012449951368e-03 7.088617675866e-04 0.0 
7.088617675866e-04 1.572976929743e-02 0.0 
0.0 0.0 0.0 
1.204631544010e-04 -5.563450938261e-05 0.0 
-5.563450938261e-05 5.763214228789e-03 0.0 
0.0 0.0 0.0 
2.668567254136e-04 9.656091782107e-05 0.0 
9.656091782107e-05 6.520263666506e-03 0.0 
0.0 0.0 0.0 
-7.216740752898e-04 4.228593855006e-04 0.0 
4.228593855006e-04 1.608906261564e-02 0.0 
0.0 0.0 0.0 
-1.162485057270e-03 2.758588751563e-04 0.0 
2.758588751563e-04 1.531233938648e-02 0.0 
0.0 0.0 0.0 
1.115118468261e-03 1.325373766009e-05 0.0 
1.325373766009e-05 4.400765581098e-03 0.0 
0.0 0.0 0.0 
1.185021254790e-05 -3.242314515296e-04 0.0 
-3.242314515296e-04 1.854890641861e-03 0.0 
0.0 0.0 0.0 
-1.623214903522e-04 -1.708365674345e-03 0.0 
-1.708365674345e-03 1.204671591526e-03 0.0 
0.0 0.0 0.0 
-1.472995259980e-04 -5.174840459954e-04 0.0 
-5.174840459954e-04 9.038594770550e-04 0.0 
0.0 0.0 0.0 
-1.004261908837e-03 -1.387333597547e-03 0.0 
-1.387333597547e-03 2.087798000505e-04 0.0 
0.0 0.0 0.0 
-7.689390081295e-04 2.957283449477e-04 0.0 
2.957283449477e-04 1.595909595318e-02 0.0 
0.0 0.0 0.0 
1.347306802089e-04 1.799404359381e-05 0.0 
1.799404359381e-05 6.392685410987e-03 0.0 
0.0 0.0 0.0 
-5.532658250578e-04 -8.386351361869e-04 0.0 
-8.386351361869e-04 3.578629336205e-04 0.0 
0.0 0.0 0.0 
-9.671098580832e-04 2.718462505180e-03 0.0 
2.718462505180e-03 1.379808970292e-02 0.0 
0.0 0.0 0.0 
-1.239726967359e-03 1.261904439454e-04 0.0 
1.261904439454e-04 1.435615634042e-02 0.0 
0.0 0.0 0.0 
2.888214819801e-04 -9.518297983974e-05 0.0 
-9.518297983974e-05 5.645683997976e-03 0.0 
0.0 0.0 0.0 
1.742694967435e-04 -1.806584329553e-05 0.0 
-1.806584329553e-05 5.953938094899e-03 0.0 
0.0 0.0 0.0 
9.302460779166e-04 -1.576597391576e-03 0.0 
-1.576597391576e-03 1.319117543461e-03 0.0 
0.0 0.0 0.0 
1.356321396067e-04 -6.057071087657e-05 0.0 
-6.057071087657e-05 5.960249849969e-03 0.0 
0.0 0.0 0.0 
-1.273894750687e-03 2.717010090438e-05 0.0 
2.717010090438e-05 1.414771003519e-02 0.0 
0.0 0.0 0.0 
1.747193754221e-03 1.616893358443e-03 0.0 
1.616893358443e-03 4.875233462587e-03 0.0 
0.0 0.0 0.0 
2.100505821627e-04 1.557333725026e-04 0.0 
1.557333725026e-04 6.808360831437e-03 0.0 
0.0 0.0 0.0 
7.349302897075e-05 -1.660669468205e-04 0.0 
-1.660669468205e-04 1.790708129320e-03 0.0 
0.0 0.0 0.0 
3.783674346092e-04 2.195114162910e-04 0.0 
2.195114162910e-04 6.442837325863e-03 0.0 
0.0 0.0 0.0 
-1.047749241313e-03 2.604698259221e-04 0.0 
2.604698259221e-04 1.548718064422e-02 0.0 
0.0 0.0 0.0 
2.619839619689e-05 -2.523169680488e-04 0.0 
-2.523169680488e-04 2.026639595037e-03 0.0 
0.0 0.0 0.0 
9.280932119959e-05 -1.631278980018e-03 0.0 
-1.631278980018e-03 1.317600506585e-03 0.0 
0.0 0.0 0.0 
1.480701471188e-04 -1.808826473212e-04 0.0 
-1.808826473212e-04 4.187398004571e-03 0.0 
0.0 0.0 0.0 
-1.239766819484e-03 2.991454599936e-04 0.0 
2.991454599936e-04 1.494278281563e-02 0.0 
0.0 0.0 0.0 
1.430925815546e-04 -7.353378110793e-04 0.0 
-7.353378110793e-04 2.641814497213e-03 0.0 
0.0 0.0 0.0 
-9.313839873820e-04 2.333471726488e-04 0.0 
2.333471726488e-04 1.565930890497e-02 0.0 
0.0 0.0 0.0 
-1.147420639643e-03 1.783488800383e-04 0.0 
1.783488800383e-04 1.513621659361e-02 0.0 
0.0 0.0 0.0 
3.185653165090e-04 -4.197045234166e-04 0.0 
-4.197045234166e-04 3.882160902736e-03 0.0 
0.0 0.0 0.0 
1.535260394798e-04 -9.299357668927e-05 0.0 
-9.299357668927e-05 5.534265660818e-03 0.0 
0.0 0.0 0.0 
1.838492679971e-04 -9.019718459394e-05 0.0 
-9.019718459394e-05 5.722674146473e-03 0.0 
0.0 0.0 0.0 
-9.488867699329e-04 2.957933627533e-04 0.0 
2.957933627533e-04 1.548166041101e-02 0.0 
0.0 0.0 0.0 
5.147162392150e-05 -3.976517204904e-04 0.0 
-3.976517204904e-04 1.516117572631e-03 0.0 
0.0 0.0 0.0 
2.214152919839e-04 -3.821735133997e-04 0.0 
-3.821735133997e-04 3.761917294707e-03 0.0 
0.0 0.0 0.0 
1.206344415689e-03 2.391683045342e-03 0.0 
2.391683045342e-03 6.774381270298e-03 0.0 
0.0 0.0 0.0 
-1.042913222932e-03 3.738711626687e-04 0.0 
3.738711626687e-04 1.563903585272e-02 0.0 
0.0 0.0 0.0 
1.738766273933e-04 -4.340529131181e-04 0.0 
-4.340529131181e-04 3.409388946618e-03 0.0 
0.0 0.0 0.0 
6.465581291293e-04 -3.589325154486e-04 0.0 
-3.589325154486e-04 4.297600449655e-03 0.0 
0.0 0.0 0.0 
5.028324362666e-04 2.533671522621e-04 0.0 
2.533671522621e-04 6.155978601370e-03 0.0 
0.0 0.0 0.0 
-1.051219762669e-03 3.085050015813e-04 0.0 
3.085050015813e-04 1.530815425766e-02 0.0 
0.0 0.0 0.0 
1.430046818143e-03 -7.509038879158e-04 0.0 
-7.509038879158e-04 -4.313117029520e-03 0.0 
0.0 0.0 0.0 
8.159940964680e-05 -3.194707463310e-04 0.0 
-3.194707463310e-04 8.084454656028e-04 0.0 
0.0 0.0 0.0 
2.799086903045e-03 3.141188532984e-04 0.0 
3.141188532984e-04 -2.939094840513e-03 0.0 
0.0 0.0 0.0 
1.962655195968e-04 5.305305803888e-06 0.0 
5.305305803888e-06 6.156335166030e-03 0.0 
0.0 0.0 0.0 
-1.149703272806e-03 3.090962715316e-04 0.0 
3.090962715316e-04 1.512917142111e-02 0.0 
0.0 0.0 0.0 
1.282522055461e-04 -1.483351192778e-04 0.0 
-1.483351192778e-04 4.557290479805e-03 0.0 
0.0 0.0 0.0 
-1.277756896890e-03 1.889857100642e-04 0.0 
1.889857100642e-04 1.456224262660e-02 0.0 
0.0 0.0 0.0 
9.865911148568e-04 6.074369919200e-04 0.0 
6.074369919200e-04 5.512715044695e-03 0.0 
0.0 0.0 0.0 
2.569350700814e-04 -3.161503916374e-04 0.0 
-3.161503916374e-04 4.122758272061e-03 0.0 
0.0 0.0 0.0 
2.402752167789e-04 -4.703851163636e-05 0.0 
-4.703851163636e-05 5.715733040513e-03 0.0 
0.0 0.0 0.0 
7.833685146119e-05 -2.757748803782e-04 0.0 
-2.757748803782e-04 1.846612216198e-03 0.0 
0.0 0.0 0.0 
3.255277801195e-04 1.817930337421e-04 0.0 
1.817930337421e-04 6.523778940156e-03 0.0 
0.0 0.0 0.0 
2.285464958511e-04 -4.185350271877e-04 0.0 
-4.185350271877e-04 3.882535112652e-03 0.0 
0.0 0.0 0.0 
7.124867299990e-05 -2.105196459430e-04 0.0 
-2.105196459430e-04 2.019868386464e-03 0.0 
0.0 0.0 0.0 
1.565291915104e-04 -3.716142984682e-04 0.0 
-3.716142984682e-04 3.760624996458e-03 0.0 
0.0 0.0 0.0 
1.307149315850e-04 -5.999780582179e-04 0.0 
-5.999780582179e-04 2.860402469884e-03 0.0 
0.0 0.0 0.0 
3.069474602913e-05 -8.257440560082e-04 0.0 
-8.257440560082e-04 2.123333177594e-03 0.0 
0.0 0.0 0.0 
1.674473445581e-04 -1.423019016089e-04 0.0 
-1.423019016089e-04 4.555757002729e-03 0.0 
0.0 0.0 0.0 
4.145210229061e-04 5.650960344276e-06 0.0 
5.650960344276e-06 -6.178228478126e-05 0.0 
0.0 0.0 0.0 
2.967206538709e-04 -4.922815301228e-05 0.0 
-4.922815301228e-05 -3.399009802285e-06 0.0 
0.0 0.0 0.0 
2.639907492663e-04 -1.967709218214e-04 0.0 
-1.967709218214e-04 5.043169711990e-03 0.0 
0.0 0.0 0.0 
7.823656849726e-05 -3.345058688867e-04 0.0 
-3.345058688867e-04 1.680728144866e-03 0.0 
0.0 0.0 0.0 
4.144444570156e-04 -2.287767455458e-04 0.0 
-2.287767455458e-04 4.916056884931e-03 0.0 
0.0 0.0 0.0 
5.225360177610e-04 -2.905689544591e-04 0.0 
-2.905689544591e-04 4.615397126087e-03 0.0 
0.0 0.0 0.0 
4.559417650525e-04 -9.055045484513e-04 0.0 
-9.055045484513e-04 2.739657712543e-03 0.0 
0.0 0.0 0.0 
8.468302520876e-04 -1.992314575855e-03 0.0 
-1.992314575855e-03 5.620232048813e-04 0.0 
0.0 0.0 0.0 
-1.013341550002e-03 6.693775448407e-04 0.0 
6.693775448407e-04 1.589134156488e-02 0.0 
0.0 0.0 0.0 
9.966394784620e-04 2.512926717820e-03 0.0 
2.512926717820e-03 -2.464241792086e-03 0.0 
0.0 0.0 0.0 
1.162956798344e-04 -4.772808617798e-04 0.0 
-4.772808617798e-04 3.067613902918e-03 0.0 
0.0 0.0 0.0 
9.229651584435e-04 8.581403548675e-04 0.0 
8.581403548675e-04 5.831874304446e-03 0.0 
0.0 0.0 0.0 
5.912196983493e-05 -2.638003028143e-04 0.0 
-2.638003028143e-04 1.456311466550e-03 0.0 
0.0 0.0 0.0 
-1.320075562608e-03 1.798153259498e-04 0.0 
1.798153259498e-04 1.476557819450e-02 0.0 
0.0 0.0 0.0 
-1.329943427525e-03 8.356488776115e-05 0.0 
8.356488776115e-05 1.436225981145e-02 0.0 
0.0 0.0 0.0 
-1.172937997572e-04 -7.281376673591e-04 0.0 
-7.281376673591e-04 1.381891797100e-03 0.0 
0.0 0.0 0.0 
6.562561041847e-04 3.053559156574e-04 0.0 
3.053559156574e-04 5.830480563401e-03 0.0 
0.0 0.0 0.0 
-1.332320289913e-03 5.562732881807e-04 0.0 
5.562732881807e-04 1.543890210238e-02 0.0 
0.0 0.0 0.0 
-2.025372315173e-05 -3.946283972812e-04 0.0 
-3.946283972812e-04 1.693808477660e-03 0.0 
0.0 0.0 0.0 
-9.857735022415e-04 8.487022968978e-04 0.0 
8.487022968978e-04 1.598517295157e-02 0.0 
0.0 0.0 0.0 
-8.075111678028e-04 8.554062276851e-04 0.0 
8.554062276851e-04 1.598304122032e-02 0.0 
0.0 0.0 0.0 
2.393602244433e-05 -4.829192260926e-04 0.0 
-4.829192260926e-04 1.869829751889e-03 0.0 
0.0 0.0 0.0 
-4.158452258231e-04 2.857147165010e-03 0.0 
2.857147165010e-03 5.081922873462e-03 0.0 
0.0 0.0 0.0 
-3.225359164427e-05 -7.630810207673e-04 0.0 
-7.630810207673e-04 1.840677197876e-03 0.0 
0.0 0.0 0.0 
2.461993331138e-04 -1.270475194029e-04 0.0 
-1.270475194029e-04 5.469220546003e-03 0.0 
0.0 0.0 0.0 
2.062563548308e-04 -2.232132909925e-04 0.0 
-2.232132909925e-04 4.347869767364e-03 0.0 
0.0 0.0 0.0 
-9.398520493609e-04 2.345750560351e-03 0.0 
2.345750560351e-03 1.458037895130e-02 0.0 
0.0 0.0 0.0 
-8.605079255065e-04 6.771705014942e-04 0.0 
6.771705014942e-04 1.588990017265e-02 0.0 
0.0 0.0 0.0 
3.225897603769e-04 -1.741455150335e-04 0.0 
-1.741455150335e-04 5.201095755705e-03 0.0 
0.0 0.0 0.0 
4.198922830267e-04 -1.298334254880e-04 0.0 
-1.298334254880e-04 5.193741709361e-03 0.0 
0.0 0.0 0.0 
-2.076459826920e-04 -7.340216824600e-04 0.0 
-7.340216824600e-04 1.554099888323e-03 0.0 
0.0 0.0 0.0 
3.216982416760e-04 -8.541945894351e-05 0.0 
-8.541945894351e-05 5.462406588958e-03 0.0 
0.0 0.0 0.0 
-1.163829364459e-03 5.590961902198e-04 0.0 
5.590961902198e-04 1.543799812790e-02 0.0 
0.0 0.0 0.0 
1.520795548546e-04 -2.238276356890e-04 0.0 
-2.238276356890e-04 4.348289964843e-03 0.0 
0.0 0.0 0.0 
-1.270699639320e-03 2.821631539379e-04 0.0 
2.821631539379e-04 1.513271499899e-02 0.0 
0.0 0.0 0.0 
-1.185870257213e-03 5.379027495361e-04 0.0 
5.379027495361e-04 1.561022800452e-02 0.0 
0.0 0.0 0.0 
2.300170380177e-03 1.668374198575e-03 0.0 
1.668374198575e-03 2.333931390485e-03 0.0 
0.0 0.0 0.0 
-8.959812658007e-04 5.297406064604e-04 0.0 
5.297406064604e-04 1.577344977994e-02 0.0 
0.0 0.0 0.0 
1.413455685448e-04 -3.244150481147e-04 0.0 
-3.244150481147e-04 3.639192367727e-03 0.0 
0.0 0.0 0.0 
1.845281688104e-04 -3.154484448508e-04 0.0 
-3.154484448508e-04 4.123095390634e-03 0.0 
0.0 0.0 0.0 
5.668786625090e-05 -4.930898420627e-04 0.0 
-4.930898420627e-04 2.740970516059e-03 0.0 
0.0 0.0 0.0 
4.461853092896e-04 -1.243992931512e-03 0.0 
-1.243992931512e-03 2.111837405446e-03 0.0 
0.0 0.0 0.0 
-1.158111517882e-03 4.203307104558e-04 0.0 
4.203307104558e-04 1.529254516642e-02 0.0 
0.0 0.0 0.0 
1.100013668087e-03 -7.875740308520e-04 0.0 
-7.875740308520e-04 2.789299739041e-03 0.0 
0.0 0.0 0.0 
5.109749271703e-06 -6.471687504603e-04 0.0 
-6.471687504603e-04 2.023585953149e-03 0.0 
0.0 0.0 0.0 
-7.441280378440e-05 -5.024291331433e-04 0.0 
-5.024291331433e-04 1.069263136483e-03 0.0 
0.0 0.0 0.0 
-1.303642874990e-03 4.056890348484e-04 0.0 
4.056890348484e-04 1.529474953755e-02 0.0 
0.0 0.0 0.0 
-5.589757038071e-05 -7.139269125792e-04 0.0 
-7.139269125792e-04 2.034294373054e-03 0.0 
0.0 0.0 0.0 
4.476326585909e-04 3.040539298674e-04 0.0 
3.040539298674e-04 6.434192530958e-03 0.0 
0.0 0.0 0.0 
-1.043201028151e-03 4.173116075296e-04 0.0 
4.173116075296e-04 1.546680021618e-02 0.0 
0.0 0.0 0.0 
3.711174034724e-04 -4.218900597073e-05 0.0 
-4.218900597073e-05 5.637167756944e-03 0.0 
0.0 0.0 0.0 
4.033507474317e-04 1.523913324479e-03 0.0 
1.523913324479e-03 7.020897952865e-03 0.0 
0.0 0.0 0.0 
1.242510627433e-04 -4.161497155708e-04 0.0 
-4.161497155708e-04 3.406181319195e-03 0.0 
0.0 0.0 0.0 
-6.237883581761e-05 -5.421545789391e-04 0.0 
-5.421545789391e-04 1.879486249130e-03 0.0 
0.0 0.0 0.0 
-2.322283750734e-04 -5.676430988862e-04 0.0 
-5.676430988862e-04 1.213500845532e-03 0.0 
0.0 0.0 0.0 
4.891757539141e-04 -1.702224721746e-04 0.0 
-1.702224721746e-04 5.062859349407e-03 0.0 
0.0 0.0 0.0 
-1.143474057170e-03 2.244664811628e-04 0.0 
2.244664811628e-04 1.495531368350e-02 0.0 
0.0 0.0 0.0 
-1.267741198152e-04 -3.902002548723e-04 0.0 
-3.902002548723e-04 8.288194764430e-04 0.0 
0.0 0.0 0.0 
1.080811334142e-04 -6.934391941136e-04 0.0 
-6.934391941136e-04 2.635586071284e-03 0.0 
0.0 0.0 0.0 
1.401217169470e-04 -1.748487809889e-04 0.0 
-1.748487809889e-04 1.623785426091e-03 0.0 
0.0 0.0 0.0 
-1.369161329842e-03 2.804802294847e-04 0.0 
2.804802294847e-04 1.494537682134e-02 0.0 
0.0 0.0 0.0 
9.937090596535e-05 -5.643760427739e-04 0.0 
-5.643760427739e-04 2.855138176436e-03 0.0 
0.0 0.0 0.0 
6.678281528869e-04 -2.381578350941e-04 0.0 
-2.381578350941e-04 4.606183304131e-03 0.0 
0.0 0.0 0.0 
5.530517033403e-05 -4.507751522730e-04 0.0 
-4.507751522730e-04 2.736559353982e-03 0.0 
0.0 0.0 0.0 
-9.062636383794e-04 3.423266488865e-04 0.0 
3.423266488865e-04 1.580159997519e-02 0.0 
0.0 0.0 0.0 
3.985809191698e-05 -7.452141677233e-04 0.0 
-7.452141677233e-04 2.338790056412e-03 0.0 
0.0 0.0 0.0 
6.976476271818e-04 -1.150038519366e-04 0.0 
-1.150038519366e-04 4.900412525945e-03 0.0 
0.0 0.0 0.0 
-1.684928044570e-04 -1.603360954536e-03 0.0 
-1.603360954536e-03 1.188261686498e-03 0.0 
0.0 0.0 0.0 
6.147870577924e-04 -2.169047697611e-04 0.0 
-2.169047697611e-04 4.748538171685e-03 0.0 
0.0 0.0 0.0 
1.285536086904e-04 -2.613782907525e-04 0.0 
-2.613782907525e-04 3.988485702101e-03 0.0 
0.0 0.0 0.0 
4.859087303339e-04 -7.352927840667e-05 0.0 
-7.352927840667e-05 5.353128883903e-03 0.0 
0.0 0.0 0.0 
2.708636285083e-03 -1.385420781500e-04 0.0 
-1.385420781500e-04 -6.038495372844e-04 0.0 
0.0 0.0 0.0 
6.849006435639e-05 -2.155313966416e-04 0.0 
-2.155313966416e-04 1.635194480263e-03 0.0 
0.0 0.0 0.0 
-1.277728276655e-03 1.041387408379e-04 0.0 
1.041387408379e-04 1.457726947441e-02 0.0 
0.0 0.0 0.0 
1.742478331042e-03 3.967674930917e-04 0.0 
3.967674930917e-04 3.684814162042e-03 0.0 
0.0 0.0 0.0 
4.340369560256e-04 2.916275178907e-03 0.0 
2.916275178907e-03 5.802135025996e-03 0.0 
0.0 0.0 0.0 
-1.239646938453e-03 1.839865331362e-04 0.0 
1.839865331362e-04 1.495666305689e-02 0.0 
0.0 0.0 0.0 
9.950332955100e-05 -1.914522637236e-03 0.0 
-1.914522637236e-03 9.216250742343e-04 0.0 
0.0 0.0 0.0 
-1.405366549337e-03 5.537998984286e-04 0.0 
5.537998984286e-04 1.507059142665e-02 0.0 
0.0 0.0 0.0 
1.435163158423e-04 -2.269176517424e-04 0.0 
-2.269176517424e-04 1.439381391136e-03 0.0 
0.0 0.0 0.0 
5.013130585054e-04 1.272483323641e-04 0.0 
1.272483323641e-04 5.924768902781e-03 0.0 
0.0 0.0 0.0 
1.740032368567e-03 7.001691465791e-04 0.0 
7.001691465791e-04 4.059061453926e-03 0.0 
0.0 0.0 0.0 
1.567520087651e-03 1.890521460296e-03 0.0 
1.890521460296e-03 5.515654788546e-03 0.0 
0.0 0.0 0.0 
-7.874175140060e-04 7.966305209847e-04 0.0 
7.966305209847e-04 1.614439694519e-02 0.0 
0.0 0.0 0.0 
1.111545130852e-03 -5.701356596508e-04 0.0 
-5.701356596508e-04 3.241532684906e-03 0.0 
0.0 0.0 0.0 
-6.882775686301e-05 -4.568452078430e-04 0.0 
-4.568452078430e-04 1.530457067860e-03 0.0 
0.0 0.0 0.0 
9.136284037041e-04 -3.163118474621e-04 0.0 
-3.163118474621e-04 4.076404687353e-03 0.0 
0.0 0.0 0.0 
5.832708974109e-04 3.533831163024e-04 0.0 
3.533831163024e-04 6.140006970571e-03 0.0 
0.0 0.0 0.0 
7.811418546508e-04 -1.850189667018e-03 0.0 
-1.850189667018e-03 8.385205294521e-04 0.0 
0.0 0.0 0.0 
3.804799595930e-04 -1.292480691833e-04 0.0 
-1.292480691833e-04 5.362233970659e-03 0.0 
0.0 0.0 0.0 
-1.176274065389e-03 3.939058008113e-04 0.0 
3.939058008113e-04 1.546999073355e-02 0.0 
0.0 0.0 0.0 
1.116806555629e-03 -2.155169004795e-03 0.0 
-2.155169004795e-03 -1.040576251690e-04 0.0 
0.0 0.0 0.0 
7.563287370538e-04 -2.667983546191e-04 0.0 
-2.667983546191e-04 4.420013832451e-03 0.0 
0.0 0.0 0.0 
-1.520169668873e-03 2.586747023600e-04 0.0 
2.586747023600e-04 1.454369427369e-02 0.0 
0.0 0.0 0.0 
4.339492152838e-05 -3.171980551728e-04 0.0 
-3.171980551728e-04 2.222565206753e-03 0.0 
0.0 0.0 0.0 
1.129253447285e-04 -8.378116849265e-04 0.0 
-8.378116849265e-04 2.406807997182e-03 0.0 
0.0 0.0 0.0 
7.291115372570e-04 2.776077299794e-03 0.0 
2.776077299794e-03 6.508957857096e-03 0.0 
0.0 0.0 0.0 
6.185092970543e-04 -1.102229350369e-04 0.0 
-1.102229350369e-04 5.052861102092e-03 0.0 
0.0 0.0 0.0 
-2.991648338175e-04 2.845930389310e-03 0.0 
2.845930389310e-03 6.951702458846e-03 0.0 
0.0 0.0 0.0 
9.721188936760e-04 2.691293973605e-03 0.0 
2.691293973605e-03 5.669245351815e-03 0.0 
0.0 0.0 0.0 
-1.289162116283e-03 5.585753253875e-04 0.0 
5.585753253875e-04 1.525835063334e-02 0.0 
0.0 0.0 0.0 
-1.215143601763e-03 2.129196248221e-04 0.0 
2.129196248221e-04 1.476138362539e-02 0.0 
0.0 0.0 0.0 
-1.448943260792e-03 3.743138923753e-04 0.0 
3.743138923753e-04 1.473113654646e-02 0.0 
0.0 0.0 0.0 
1.800347705960e-04 -2.793558113980e-04 0.0 
-2.793558113980e-04 3.991800345547e-03 0.0 
0.0 0.0 0.0 
8.252938568711e-04 3.420998748427e-04 0.0 
3.420998748427e-04 5.523255535351e-03 0.0 
0.0 0.0 0.0 
1.086172372082e-03 -3.614641646098e-04 0.0 
-3.614641646098e-04 3.719013439940e-03 0.0 
0.0 0.0 0.0 
-1.392043998805e-03 1.679165667856e-04 0.0 
1.679165667856e-04 1.456502569489e-02 0.0 
0.0 0.0 0.0 
-7.648267962617e-04 2.939294768817e-03 0.0 
2.939294768817e-03 1.346869709517e-02 0.0 
0.0 0.0 0.0 
1.360886004609e-03 2.137308004293e-03 0.0 
2.137308004293e-03 6.183096250651e-03 0.0 
0.0 0.0 0.0 
7.683044815139e-04 -1.495512203718e-04 0.0 
-1.495512203718e-04 4.737256978746e-03 0.0 
0.0 0.0 0.0 
-1.031600037056e-03 5.493598782327e-04 0.0 
5.493598782327e-04 1.560836046100e-02 0.0 
0.0 0.0 0.0 
3.833288959620e-04 -1.061510312514e-03 0.0 
-1.061510312514e-03 2.439292398976e-03 0.0 
0.0 0.0 0.0 
2.248946247858e-04 -9.670511513446e-04 0.0 
-9.670511513446e-04 2.440615637614e-03 0.0 
0.0 0.0 0.0 
-5.097566975709e-05 -6.463344882516e-04 0.0 
-6.463344882516e-04 1.539686493890e-03 0.0 
0.0 0.0 0.0 
1.026338614057e-03 -1.667189414720e-04 0.0 
-1.667189414720e-04 4.219223475698e-03 0.0 
0.0 0.0 0.0 
1.982330760977e-04 -8.075604956616e-04 0.0 
-8.075604956616e-04 2.703371080297e-03 0.0 
0.0 0.0 0.0 
-1.422686870279e-03 4.089728905745e-04 0.0 
4.089728905745e-04 1.511229205111e-02 0.0 
0.0 0.0 0.0 
-1.532168564235e-03 4.085188356250e-04 0.0 
4.085188356250e-04 1.492231320788e-02 0.0 
0.0 0.0 0.0 
2.342174694281e-03 1.018400628439e-03 0.0 
1.018400628439e-03 2.361505129976e-03 0.0 
0.0 0.0 0.0 
1.584618396280e-04 -1.048166078380e-03 0.0 
-1.048166078380e-03 2.173539511385e-03 0.0 
0.0 0.0 0.0 
2.538508960580e-03 1.514852914212e-03 0.0 
1.514852914212e-03 -4.634889713127e-04 0.0 
0.0 0.0 0.0 
1.520349660051e-04 -8.845114258009e-04 0.0 
-8.845114258009e-04 2.413808549261e-03 0.0 
0.0 0.0 0.0 
3.198430504829e-04 -9.964775850136e-04 0.0 
-9.964775850136e-04 2.444589636028e-03 0.0 
0.0 0.0 0.0 
-1.232556589421e-04 -6.386556742707e-04 0.0 
-6.386556742707e-04 1.718369619969e-03 0.0 
0.0 0.0 0.0 
1.006052706599e-03 3.893736520046e-04 0.0 
3.893736520046e-04 5.206584106756e-03 0.0 
0.0 0.0 0.0 
1.061248448198e-03 -1.021583876949e-03 0.0 
-1.021583876949e-03 2.370057285546e-03 0.0 
0.0 0.0 0.0 
-1.033176967583e-03 5.088274995195e-04 0.0 
5.088274995195e-04 1.577638168572e-02 0.0 
0.0 0.0 0.0 
1.328283994338e-03 -8.981043110015e-04 0.0 
-8.981043110015e-04 2.347100196882e-03 0.0 
0.0 0.0 0.0 
1.116468921189e-03 -2.225392295793e-04 0.0 
-2.225392295793e-04 4.060919664287e-03 0.0 
0.0 0.0 0.0 
1.170262978833e-03 -6.107729162679e-04 0.0 
-6.107729162679e-04 3.156655945203e-03 0.0 
0.0 0.0 0.0 
1.515175506001e-03 2.392847413005e-03 0.0 
2.392847413005e-03 4.414168897003e-03 0.0 
0.0 0.0 0.0 
-8.196923176218e-06 -5.625111540847e-04 0.0 
-5.625111540847e-04 1.705008526180e-03 0.0 
0.0 0.0 0.0 
7.579866246556e-04 3.920705029905e-04 0.0 
3.920705029905e-04 5.813592128195e-03 0.0 
0.0 0.0 0.0 
6.307654376250e-04 4.604097480585e-04 0.0 
4.604097480585e-04 6.147205833528e-03 0.0 
0.0 0.0 0.0 
5.009787331853e-04 2.914634622038e-03 0.0 
2.914634622038e-03 8.112756694207e-03 0.0 
0.0 0.0 0.0 
5.358664769883e-04 -1.066058523388e-03 0.0 
-1.066058523388e-03 2.439086057703e-03 0.0 
0.0 0.0 0.0 
1.162943457341e-03 -4.116277032367e-04 0.0 
-4.116277032367e-04 3.595556971803e-03 0.0 
0.0 0.0 0.0 
-1.265480411865e-03 4.138671456571e-04 0.0 
4.138671456571e-04 1.511119634794e-02 0.0 
0.0 0.0 0.0 
3.279217138987e-04 -8.955428455279e-04 0.0 
-8.955428455279e-04 2.738882737193e-03 0.0 
0.0 0.0 0.0 
7.046334578125e-04 2.781751798590e-03 0.0 
2.781751798590e-03 4.963078388819e-03 0.0 
0.0 0.0 0.0 
4.688904808581e-05 -6.901058087517e-04 0.0 
-6.901058087517e-04 2.330240735141e-03 0.0 
0.0 0.0 0.0 
4.976506403751e-04 -2.074445520979e-03 0.0 
-2.074445520979e-03 5.767683683247e-04 0.0 
0.0 0.0 0.0 
5.824957848222e-04 -1.108139183267e-03 0.0 
-1.108139183267e-03 2.412208644865e-03 0.0 
0.0 0.0 0.0 
-1.637409576094e-05 -5.967754250852e-04 0.0 
-5.967754250852e-04 2.216375601396e-03 0.0 
0.0 0.0 0.0 
3.971802993497e-05 -3.987301542304e-04 0.0 
-3.987301542304e-04 2.044443040260e-03 0.0 
0.0 0.0 0.0 
9.336130614297e-04 -6.983399511363e-04 0.0 
-6.983399511363e-04 3.171469105178e-03 0.0 
0.0 0.0 0.0 
9.348143362684e-04 -1.878648484822e-04 0.0 
-1.878648484822e-04 4.406864659004e-03 0.0 
0.0 0.0 0.0 
2.796590033909e-04 3.088645374477e-03 0.0 
3.088645374477e-03 9.735395454521e-03 0.0 
0.0 0.0 0.0 
6.047026358957e-04 -4.146929815085e-05 0.0 
-4.146929815085e-05 -1.331422618707e-04 0.0 
0.0 0.0 0.0 
2.032599982122e-03 -6.582901353231e-04 0.0 
-6.582901353231e-04 1.463578549578e-03 0.0 
0.0 0.0 0.0 
1.541857144829e-03 -9.543239544708e-04 0.0 
-9.543239544708e-04 1.911999042168e-03 0.0 
0.0 0.0 0.0 
7.912476125702e-04 -1.077020665591e-03 0.0 
-1.077020665591e-03 2.406629266458e-03 0.0 
0.0 0.0 0.0 
-1.362732263017e-03 3.970828936359e-04 0.0 
3.970828936359e-04 1.492306756624e-02 0.0 
0.0 0.0 0.0 
1.136758624133e-03 -8.158088884349e-04 0.0 
-8.158088884349e-04 2.746762595384e-03 0.0 
0.0 0.0 0.0 
5.321865773800e-05 -6.133999770142e-04 0.0 
-6.133999770142e-04 2.540549097540e-03 0.0 
0.0 0.0 0.0 
8.101084130498e-04 -1.091339543732e-03 0.0 
-1.091339543732e-03 2.382223478477e-03 0.0 
0.0 0.0 0.0 
-9.250080107072e-04 4.026535480233e-04 0.0 
4.026535480233e-04 1.563530089512e-02 0.0 
0.0 0.0 0.0 
5.217732098273e-05 -5.677529387102e-04 0.0 
-5.677529387102e-04 2.533472874651e-03 0.0 
0.0 0.0 0.0 
-6.711597408249e-05 -3.695816149466e-04 0.0 
-3.695816149466e-04 9.770198786199e-04 0.0 
0.0 0.0 0.0 
-1.383938363515e-04 -5.163327676756e-04 0.0 
-5.163327676756e-04 1.373334428051e-03 0.0 
0.0 0.0 0.0 
6.605898819423e-04 -1.780917918989e-03 0.0 
-1.780917918989e-03 1.086216168213e-03 0.0 
0.0 0.0 0.0 
3.703802965820e-04 -1.173101260676e-03 0.0 
-1.173101260676e-03 2.163834944141e-03 0.0 
0.0 0.0 0.0 
1.798574866158e-03 -7.114862002361e-04 0.0 
-7.114862002361e-04 1.923562340375e-03 0.0 
0.0 0.0 0.0 
1.050114470159e-03 -1.008963875659e-03 0.0 
-1.008963875659e-03 2.367142681977e-03 0.0 
0.0 0.0 0.0 
-1.741729233031e-04 -1.843060540188e-03 0.0 
-1.843060540188e-03 8.377455914235e-04 0.0 
0.0 0.0 0.0 
3.091278383138e-05 -4.364892547391e-04 0.0 
-4.364892547391e-04 1.360692426760e-03 0.0 
0.0 0.0 0.0 
-1.838182653941e-03 6.121762172765e-04 0.0 
6.121762172765e-04 1.465557626774e-02 0.0 
0.0 0.0 0.0 
2.498875318890e-05 -5.415978844383e-04 0.0 
-5.415978844383e-04 2.207728262535e-03 0.0 
0.0 0.0 0.0 
1.150088735763e-03 3.065695118044e-04 0.0 
3.065695118044e-04 4.933769840887e-03 0.0 
0.0 0.0 0.0 
4.787981003747e-04 2.999378455235e-03 0.0 
2.999378455235e-03 8.963417099659e-03 0.0 
0.0 0.0 0.0 
-1.679002482281e-03 2.287113682242e-03 0.0 
2.287113682242e-03 1.309188004655e-02 0.0 
0.0 0.0 0.0 
-1.103969616133e-03 1.141548977118e-03 0.0 
1.141548977118e-03 1.567801741732e-02 0.0 
0.0 0.0 0.0 
1.214642926262e-04 3.157621413007e-03 0.0 
3.157621413007e-03 1.047708172992e-02 0.0 
0.0 0.0 0.0 
2.310500946357e-03 1.325886879461e-03 0.0 
1.325886879461e-03 2.385165278500e-03 0.0 
0.0 0.0 0.0 
5.023384288294e-04 2.943114446655e-03 0.0 
2.943114446655e-03 8.528103208273e-03 0.0 
0.0 0.0 0.0 
1.656618140515e-04 -2.236218508283e-03 0.0 
-2.236218508283e-03 3.978513786622e-04 0.0 
0.0 0.0 0.0 
6.840503822114e-04 -9.481739409096e-04 0.0 
-9.481739409096e-04 2.753107440963e-03 0.0 
0.0 0.0 0.0 
1.892997444935e-03 2.276689241070e-03 0.0 
2.276689241070e-03 2.711565288656e-03 0.0 
0.0 0.0 0.0 
2.112522074895e-03 -1.696042578243e-03 0.0 
-1.696042578243e-03 -1.338997533168e-03 0.0 
0.0 0.0 0.0 
-1.702470902609e-04 -2.139065526244e-03 0.0 
-2.139065526244e-03 3.670816132784e-04 0.0 
0.0 0.0 0.0 
2.784989905114e-04 -8.366070180973e-04 0.0 
-8.366070180973e-04 2.707340750921e-03 0.0 
0.0 0.0 0.0 
1.233820807526e-03 -1.105505857154e-03 0.0 
-1.105505857154e-03 1.940352592446e-03 0.0 
0.0 0.0 0.0 
1.489704678557e-03 -9.091232927731e-04 0.0 
-9.091232927731e-04 1.957172638388e-03 0.0 
0.0 0.0 0.0 
7.126073954034e-06 -4.888475712034e-04 0.0 
-4.888475712034e-04 2.400055095654e-03 0.0 
0.0 0.0 0.0 
1.364738017015e-03 -6.724979833165e-04 0.0 
-6.724979833165e-04 2.770158361487e-03 0.0 
0.0 0.0 0.0 
1.714230254985e-03 -9.135972851306e-04 0.0 
-9.135972851306e-04 1.510115070084e-03 0.0 
0.0 0.0 0.0 
2.219906421735e-03 -3.039613739404e-04 0.0 
-3.039613739404e-04 1.584367475488e-03 0.0 
0.0 0.0 0.0 
2.512402585202e-04 -1.144139403387e-03 0.0 
-1.144139403387e-03 2.160187794808e-03 0.0 
0.0 0.0 0.0 
1.811262845277e-03 1.150260740058e-03 0.0 
1.150260740058e-03 4.354694276590e-03 0.0 
0.0 0.0 0.0 
-1.470783316206e-03 5.716159392229e-04 0.0 
5.716159392229e-04 1.525745020671e-02 0.0 
0.0 0.0 0.0 
2.416099712609e-03 -1.179082978835e-04 0.0 
-1.179082978835e-04 1.175933364346e-03 0.0 
0.0 0.0 0.0 
9.556000802742e-04 4.543511645700e-04 0.0 
4.543511645700e-04 5.505507320018e-03 0.0 
0.0 0.0 0.0 
6.602235232274e-04 -2.346148447634e-03 0.0 
-2.346148447634e-03 -7.285513551059e-05 0.0 
0.0 0.0 0.0 
8.562989118976e-04 8.837796659401e-04 0.0 
8.837796659401e-04 6.148023018261e-03 0.0 
0.0 0.0 0.0 
1.572992254377e-03 -7.109517898329e-04 0.0 
-7.109517898329e-04 2.359001655133e-03 0.0 
0.0 0.0 0.0 
3.110507554638e-05 3.296645920186e-03 0.0 
3.296645920186e-03 1.123045819714e-02 0.0 
0.0 0.0 0.0 
-5.005588283586e-04 2.900558159230e-03 0.0 
2.900558159230e-03 1.026746422864e-02 0.0 
0.0 0.0 0.0 
3.035057621066e-04 -1.954201802383e-03 0.0 
-1.954201802383e-03 9.265121350797e-04 0.0 
0.0 0.0 0.0 
-1.420508120157e-03 2.509303531517e-03 0.0 
2.509303531517e-03 1.266123370548e-02 0.0 
0.0 0.0 0.0 
-1.114261660600e-03 1.710123476788e-03 0.0 
1.710123476788e-03 1.533840774624e-02 0.0 
0.0 0.0 0.0 
1.781292550039e-03 -4.703236919400e-04 0.0 
-4.703236919400e-04 2.424270321006e-03 0.0 
0.0 0.0 0.0 
1.147372309915e-03 2.639479742607e-03 0.0 
2.639479742607e-03 3.144846047446e-03 0.0 
0.0 0.0 0.0 
-1.149822296720e-03 2.678281989106e-03 0.0 
2.678281989106e-03 1.221027316807e-02 0.0 
0.0 0.0 0.0 
5.697610367121e-04 2.893073934223e-03 0.0 
2.893073934223e-03 6.131429304477e-03 0.0 
0.0 0.0 0.0 
-1.902528331003e-04 -1.972065095581e-03 0.0 
-1.972065095581e-03 8.588991626788e-04 0.0 
0.0 0.0 0.0 
-5.503203239993e-04 1.504510308406e-03 0.0 
1.504510308406e-03 1.605432623748e-02 0.0 
0.0 0.0 0.0 
-5.512387208044e-04 -1.540140052081e-03 0.0 
-1.540140052081e-03 1.101486685957e-03 0.0 
0.0 0.0 0.0 
1.015467778649e-03 1.994473162371e-03 0.0 
1.994473162371e-03 6.782605701895e-03 0.0 
0.0 0.0 0.0 
-7.072655668411e-04 6.360147893954e-04 0.0 
6.360147893954e-04 1.604548235666e-02 0.0 
0.0 0.0 0.0 
1.688413809256e-03 9.982515964363e-04 0.0 
9.982515964363e-04 4.499918399020e-03 0.0 
0.0 0.0 0.0 
-1.319566096586e-03 2.819640933338e-04 0.0 
2.819640933338e-04 1.474410866443e-02 0.0 
0.0 0.0 0.0 
-1.344601522857e-03 9.455900087994e-04 0.0 
9.455900087994e-04 1.563629470851e-02 0.0 
0.0 0.0 0.0 
1.934572138383e-03 -5.933639467270e-04 0.0 
-5.933639467270e-04 1.633271802003e-03 0.0 
0.0 0.0 0.0 
2.217017264186e-03 1.106759224182e-03 0.0 
1.106759224182e-03 3.004886454554e-03 0.0 
0.0 0.0 0.0 
-8.565630031581e-04 1.319517393429e-03 0.0 
1.319517393429e-03 1.587490589130e-02 0.0 
0.0 0.0 0.0 
8.538335839281e-04 -3.283891253412e-05 0.0 
-3.283891253412e-05 4.886671157468e-03 0.0 
0.0 0.0 0.0 
-1.504114393419e-03 7.667624622563e-04 0.0 
7.667624622563e-04 1.537085692405e-02 0.0 
0.0 0.0 0.0 
1.749922383966e-03 4.924763883878e-04 0.0 
4.924763883878e-04 3.950185276911e-03 0.0 
0.0 0.0 0.0 
4.306642248006e-04 -2.214029395393e-03 0.0 
-2.214029395393e-03 3.927196634104e-04 0.0 
0.0 0.0 0.0 
-1.514006147169e-03 9.925648188245e-04 0.0 
9.925648188245e-04 1.544327146430e-02 0.0 
0.0 0.0 0.0 
2.724118617752e-04 3.477303863604e-03 0.0 
3.477303863604e-03 1.034081307785e-02 0.0 
0.0 0.0 0.0 
7.126316953361e-04 5.821874298655e-04 0.0 
5.821874298655e-04 6.119166923166e-03 0.0 
0.0 0.0 0.0 
9.000167439177e-04 -9.017049438028e-04 0.0 
-9.017049438028e-04 2.744768956317e-03 0.0 
0.0 0.0 0.0 
-1.454622425799e-03 2.688423146407e-04 0.0 
2.688423146407e-04 1.474562203762e-02 0.0 
0.0 0.0 0.0 
-1.383971820590e-03 2.551748418843e-04 0.0 
2.551748418843e-04 1.454364822368e-02 0.0 
0.0 0.0 0.0 
1.285346701054e-03 -8.622445862386e-04 0.0 
-8.622445862386e-04 2.383923739396e-03 0.0 
0.0 0.0 0.0 
1.034769742472e-03 -4.783498172838e-05 0.0 
-4.783498172838e-05 4.549372947850e-03 0.0 
0.0 0.0 0.0 
1.108369431559e-03 1.179385899380e-04 0.0 
1.179385899380e-04 4.721922104341e-03 0.0 
0.0 0.0 0.0 
-9.621286692019e-06 -4.827062651465e-04 0.0 
-4.827062651465e-04 1.198779513726e-03 0.0 
0.0 0.0 0.0 
2.479906519018e-03 1.698135134447e-03 0.0 
1.698135134447e-03 -1.227998125081e-03 0.0 
0.0 0.0 0.0 
2.481600374182e-03 3.007118898676e-04 0.0 
3.007118898676e-04 1.479176067755e-03 0.0 
0.0 0.0 0.0 
2.154386584763e-03 -4.699584707543e-04 0.0 
-4.699584707543e-04 1.236828573243e-03 0.0 
0.0 0.0 0.0 
1.122426624921e-03 2.744628718066e-03 0.0 
2.744628718066e-03 4.798890397003e-03 0.0 
0.0 0.0 0.0 
-8.531093979838e-04 1.268582294158e-03 0.0 
1.268582294158e-03 1.607048700415e-02 0.0 
0.0 0.0 0.0 
-8.189534568449e-04 2.667811004461e-03 0.0 
2.667811004461e-03 1.380346012194e-02 0.0 
0.0 0.0 0.0 
-8.387967584278e-04 6.161047444325e-04 0.0 
6.161047444325e-04 1.604724155097e-02 0.0 
0.0 0.0 0.0 
-4.601560468300e-04 2.841472061108e-03 0.0 
2.841472061108e-03 7.796723930453e-03 0.0 
0.0 0.0 0.0 
-1.361069889068e-03 1.505128675531e-03 0.0 
1.505128675531e-03 1.516707068641e-02 0.0 
0.0 0.0 0.0 
8.544421184178e-04 -1.421703547859e-04 0.0 
-1.421703547859e-04 4.564754885347e-03 0.0 
0.0 0.0 0.0 
-7.600496233026e-04 1.042947013057e-03 0.0 
1.042947013057e-03 1.604206676959e-02 0.0 
0.0 0.0 0.0 
-1.668224405307e-03 1.043478030905e-03 0.0 
1.043478030905e-03 1.523431513542e-02 0.0 
0.0 0.0 0.0 
8.910503741799e-04 -8.961343702635e-04 0.0 
-8.961343702635e-04 2.760692344163e-03 0.0 
0.0 0.0 0.0 
2.577377590135e-03 5.949084423838e-04 0.0 
5.949084423838e-04 1.208953591789e-03 0.0 
0.0 0.0 0.0 
-1.299447689962e-03 9.477514530684e-04 0.0 
9.477514530684e-04 1.544776593422e-02 0.0 
0.0 0.0 0.0 
-1.125112750561e-03 1.115152040033e-03 0.0 
1.115152040033e-03 1.586852241903e-02 0.0 
0.0 0.0 0.0 
-1.161515339294e-03 7.241830367132e-04 0.0 
7.241830367132e-04 1.555502220119e-02 0.0 
0.0 0.0 0.0 
-1.302990983911e-03 7.374931381617e-04 0.0 
7.374931381617e-04 1.537358188109e-02 0.0 
0.0 0.0 0.0 
7.662430194828e-04 2.463816111797e-04 0.0 
2.463816111797e-04 5.590700951225e-03 0.0 
0.0 0.0 0.0 
1.081804427819e-03 2.124040605908e-03 0.0 
2.124040605908e-03 6.760809988331e-03 0.0 
0.0 0.0 0.0 
9.543287604397e-04 2.710518935679e-04 0.0 
2.710518935679e-04 5.261062059063e-03 0.0 
0.0 0.0 0.0 
9.818461295044e-04 -3.571723895732e-04 0.0 
-3.571723895732e-04 3.950072961296e-03 0.0 
0.0 0.0 0.0 
-1.240364925793e-03 2.477220124337e-03 0.0 
2.477220124337e-03 9.864965526840e-03 0.0 
0.0 0.0 0.0 
1.589458085884e-03 1.295539265618e-03 0.0 
1.295539265618e-03 4.986700554637e-03 0.0 
0.0 0.0 0.0 
-1.578780428710e-03 1.685269556345e-03 0.0 
1.685269556345e-03 1.451147880372e-02 0.0 
0.0 0.0 0.0 
-2.307053422368e-05 -4.544287823045e-04 0.0 
-4.544287823045e-04 2.053219402006e-03 0.0 
0.0 0.0 0.0 
2.279018125027e-03 -5.646485147661e-05 0.0 
-5.646485147661e-05 1.538025496558e-03 0.0 
0.0 0.0 0.0 
2.221687666674e-03 2.546433385474e-04 0.0 
2.546433385474e-04 2.422235469344e-03 0.0 
0.0 0.0 0.0 
2.069150155956e-03 1.210017867831e-03 0.0 
1.210017867831e-03 3.640065275771e-03 0.0 
0.0 0.0 0.0 
2.803632252646e-03 -4.240094305280e-04 0.0 
-4.240094305280e-04 -2.273280461571e-03 0.0 
0.0 0.0 0.0 
2.428593983148e-03 1.933123867862e-04 0.0 
1.933123867862e-04 1.277674519350e-03 0.0 
0.0 0.0 0.0 
1.894596107122e-03 1.323150429285e-03 0.0 
1.323150429285e-03 4.271904483595e-03 0.0 
0.0 0.0 0.0 
-8.279044674444e-04 2.746086689451e-03 0.0 
2.746086689451e-03 9.478765816072e-03 0.0 
0.0 0.0 0.0 
9.664209110252e-04 -7.194452729598e-04 0.0 
-7.194452729598e-04 3.116495967146e-03 0.0 
0.0 0.0 0.0 
-1.779588319546e-03 8.355056973761e-04 0.0 
8.355056973761e-04 1.496648304509e-02 0.0 
0.0 0.0 0.0 
-1.296434363071e-03 7.308170590934e-05 0.0 
7.308170590934e-05 1.388986514127e-02 0.0 
0.0 0.0 0.0 
-1.678758109442e-03 2.833112369523e-03 0.0 
2.833112369523e-03 1.695417889413e-03 0.0 
0.0 0.0 0.0 
9.406388158437e-04 -5.033017369837e-04 0.0 
-5.033017369837e-04 3.610861346312e-03 0.0 
0.0 0.0 0.0 
1.673386687951e-03 1.043086823630e-03 0.0 
1.043086823630e-03 4.663215094469e-03 0.0 
0.0 0.0 0.0 
-7.728537086684e-04 2.588001931067e-03 0.0 
2.588001931067e-03 1.427850188075e-02 0.0 
0.0 0.0 0.0 
2.398277147903e-03 1.068394022338e-03 0.0 
1.068394022338e-03 2.387444241771e-03 0.0 
0.0 0.0 0.0 
9.931494851538e-04 -5.358641699718e-04 0.0 
-5.358641699718e-04 3.519243104000e-03 0.0 
0.0 0.0 0.0 
-1.599895975331e-03 5.849023497768e-04 0.0 
5.849023497768e-04 1.506769926671e-02 0.0 
0.0 0.0 0.0 
-1.781707985537e-03 2.764445057224e-03 0.0 
2.764445057224e-03 3.249902049627e-03 0.0 
0.0 0.0 0.0 
1.811828794990e-03 1.190054588491e-03 0.0 
1.190054588491e-03 4.470324754076e-03 0.0 
0.0 0.0 0.0 
2.162510915018e-03 8.747424815608e-04 0.0 
8.747424815608e-04 3.082302302703e-03 0.0 
0.0 0.0 0.0 
-1.022768516092e-03 2.754153359029e-03 0.0 
2.754153359029e-03 1.026833714795e-02 0.0 
0.0 0.0 0.0 
9.338804126120e-04 1.166448602684e-05 0.0 
1.166448602684e-05 4.738958416235e-03 0.0 
0.0 0.0 0.0 
1.566313177462e-03 -2.208816572800e-03 0.0 
-2.208816572800e-03 -1.270902986274e-03 0.0 
0.0 0.0 0.0 
9.865410629011e-04 1.891645494103e-04 0.0 
1.891645494103e-04 4.952566291315e-03 0.0 
0.0 0.0 0.0 
9.197981371749e-04 6.530376432035e-04 0.0 
6.530376432035e-04 5.790155092138e-03 0.0 
0.0 0.0 0.0 
1.912998409057e-03 1.354232410951e-03 0.0 
1.354232410951e-03 4.323531531605e-03 0.0 
0.0 0.0 0.0 
-1.348403671604e-03 7.374901561187e-04 0.0 
7.374901561187e-04 1.555409923222e-02 0.0 
0.0 0.0 0.0 
8.205729980701e-04 2.745394556109e-03 0.0 
2.745394556109e-03 7.899888654785e-03 0.0 
0.0 0.0 0.0 
8.015559590220e-04 5.419062595267e-04 0.0 
5.419062595267e-04 5.804720370917e-03 0.0 
0.0 0.0 0.0 
-1.865296594123e-03 2.634009184391e-03 0.0 
2.634009184391e-03 4.754963036905e-03 0.0 
0.0 0.0 0.0 
-1.648893809903e-03 7.973661551543e-04 0.0 
7.973661551543e-04 1.517516883494e-02 0.0 
0.0 0.0 0.0 
9.148163731181e-04 2.489068710944e-03 0.0 
2.489068710944e-03 7.434872309720e-03 0.0 
0.0 0.0 0.0 
-1.143722027901e-03 9.207156179880e-04 0.0 
9.207156179880e-04 1.563853309549e-02 0.0 
0.0 0.0 0.0 
2.102326978542e-03 1.249338004897e-03 0.0 
1.249338004897e-03 3.683965234179e-03 0.0 
0.0 0.0 0.0 
2.419406623238e-03 6.240734581532e-04 0.0 
6.240734581532e-04 1.776747669338e-03 0.0 
0.0 0.0 0.0 
4.323252324328e-04 -4.344316920625e-04 0.0 
-4.344316920625e-04 3.987172700001e-03 0.0 
0.0 0.0 0.0 
2.431110133256e-03 6.312418281942e-04 0.0 
6.312418281942e-04 -4.189349131011e-03 0.0 
0.0 0.0 0.0 
-9.816010861959e-04 8.863333290399e-04 0.0 
8.863333290399e-04 1.581465766527e-02 0.0 
0.0 0.0 0.0 
1.132755250710e-06 -3.642409770293e-04 0.0 
-3.642409770293e-04 2.228809559783e-03 0.0 
0.0 0.0 0.0 
-1.723533533663e-03 2.410341606244e-03 0.0 
2.410341606244e-03 6.132914608381e-03 0.0 
0.0 0.0 0.0 
6.916907006640e-04 2.827264371149e-03 0.0 
2.827264371149e-03 8.184465365400e-03 0.0 
0.0 0.0 0.0 
-6.505454337620e-04 8.006201234957e-04 0.0 
8.006201234957e-04 1.614332582584e-02 0.0 
0.0 0.0 0.0 
9.582552386520e-04 -2.539682201962e-03 0.0 
-2.539682201962e-03 -8.864211257760e-04 0.0 
0.0 0.0 0.0 
4.870556812107e-04 2.841057734418e-03 0.0 
2.841057734418e-03 7.343474257069e-03 0.0 
0.0 0.0 0.0 
-1.445019590595e-03 9.743652019783e-04 0.0 
9.743652019783e-04 1.524150839864e-02 0.0 
0.0 0.0 0.0 
6.278554404557e-04 -6.606530430369e-04 0.0 
-6.606530430369e-04 3.469017890011e-03 0.0 
0.0 0.0 0.0 
2.470761771534e-03 -1.262322658948e-03 0.0 
-1.262322658948e-03 -2.138933094636e-03 0.0 
0.0 0.0 0.0 
1.216255006108e-03 2.797834661922e-03 0.0 
2.797834661922e-03 2.175363441299e-03 0.0 
0.0 0.0 0.0 
-9.489867666890e-05 -2.195761628861e-03 0.0 
-2.195761628861e-03 3.760162596929e-04 0.0 
0.0 0.0 0.0 
1.450254909800e-03 -2.160442989088e-03 0.0 
-2.160442989088e-03 -9.353061747662e-04 0.0 
0.0 0.0 0.0 
6.927211858383e-04 -2.389496961751e-03 0.0 
-2.389496961751e-03 -2.888069708518e-04 0.0 
0.0 0.0 0.0 
2.263498853782e-03 1.152966589404e-03 0.0 
1.152966589404e-03 3.040290825701e-03 0.0 
0.0 0.0 0.0 
-3.973254462878e-04 2.339074794956e-03 0.0 
2.339074794956e-03 1.568524334305e-02 0.0 
0.0 0.0 0.0 
-1.592466912659e-03 2.238519049335e-03 0.0 
2.238519049335e-03 7.543816067757e-03 0.0 
0.0 0.0 0.0 
5.948489416474e-04 2.169844350828e-04 0.0 
2.169844350828e-04 5.909608738802e-03 0.0 
0.0 0.0 0.0 
2.525017115536e-03 1.351920106577e-03 0.0 
1.351920106577e-03 9.703599687145e-04 0.0 
0.0 0.0 0.0 
-1.805393794183e-03 1.109905798852e-03 0.0 
1.109905798852e-03 1.500604955866e-02 0.0 
0.0 0.0 0.0 
2.851094299705e-03 4.580609231806e-04 0.0 
4.580609231806e-04 -3.773873286674e-03 0.0 
0.0 0.0 0.0 
7.386326841687e-04 7.514199173605e-04 0.0 
7.514199173605e-04 6.140561629917e-03 0.0 
0.0 0.0 0.0 
3.220555334722e-04 -2.524790938863e-03 0.0 
-2.524790938863e-03 -2.751770245075e-04 0.0 
0.0 0.0 0.0 
2.015789742749e-05 -3.814064319428e-04 0.0 
-3.814064319428e-04 2.601000183660e-03 0.0 
0.0 0.0 0.0 
1.767926160921e-03 1.632189883923e-03 0.0 
1.632189883923e-03 4.875300075210e-03 0.0 
0.0 0.0 0.0 
1.711986317153e-03 -6.504184755862e-04 0.0 
-6.504184755862e-04 2.041696055080e-03 0.0 
0.0 0.0 0.0 
1.135514193920e-03 2.255168423014e-03 0.0 
2.255168423014e-03 6.792448336526e-03 0.0 
0.0 0.0 0.0 
4.607919727948e-04 2.825421505403e-03 0.0 
2.825421505403e-03 4.670278432424e-03 0.0 
0.0 0.0 0.0 
-1.678165009415e-03 1.700622888698e-03 0.0 
1.700622888698e-03 1.484817202897e-02 0.0 
0.0 0.0 0.0 
1.072048638074e-03 2.117746397585e-03 0.0 
2.117746397585e-03 6.763420400986e-03 0.0 
0.0 0.0 0.0 
-1.435723961273e-03 7.468662645068e-04 0.0 
7.468662645068e-04 1.518009631829e-02 0.0 
0.0 0.0 0.0 
-9.202710817393e-04 2.659328037184e-03 0.0 
2.659328037184e-03 1.426862952437e-02 0.0 
0.0 0.0 0.0 
-1.490296220832e-03 1.241628519044e-03 0.0 
1.241628519044e-03 1.546625905161e-02 0.0 
0.0 0.0 0.0 
-1.426921900232e-03 1.505326066627e-03 0.0 
1.505326066627e-03 1.543071171359e-02 0.0 
0.0 0.0 0.0 
1.784362460671e-03 2.667239971183e-03 0.0 
2.667239971183e-03 -1.539608186279e-03 0.0 
0.0 0.0 0.0 
5.805183661556e-04 9.704199523538e-05 0.0 
9.704199523538e-05 5.698610325609e-03 0.0 
0.0 0.0 0.0 
-1.423116454326e-03 1.231344882496e-03 0.0 
1.231344882496e-03 1.523875180376e-02 0.0 
0.0 0.0 0.0 
2.102909563716e-03 1.945122707996e-03 0.0 
1.945122707996e-03 3.060004278551e-03 0.0 
0.0 0.0 0.0 
-1.520370355690e-03 2.103449978429e-03 0.0 
2.103449978429e-03 8.941019933641e-03 0.0 
0.0 0.0 0.0 
7.798444417935e-04 2.267663280028e-03 0.0 
2.267663280028e-03 7.379201864282e-03 0.0 
0.0 0.0 0.0 
2.731587416872e-03 1.156254485511e-03 0.0 
1.156254485511e-03 -2.144231648669e-03 0.0 
0.0 0.0 0.0 
3.504711622737e-05 -4.392201357298e-04 0.0 
-4.392201357298e-04 2.392728636667e-03 0.0 
0.0 0.0 0.0 
1.403133266684e-03 2.143522874963e-03 0.0 
2.143522874963e-03 6.112034451375e-03 0.0 
0.0 0.0 0.0 
1.910388238129e-04 -2.768183664730e-05 0.0 
-2.768183664730e-05 1.438552918669e-03 0.0 
0.0 0.0 0.0 
1.269702625075e-03 2.543339476093e-03 0.0 
2.543339476093e-03 5.245328041595e-03 0.0 
0.0 0.0 0.0 
1.689752731531e-03 1.465472143153e-03 0.0 
1.465472143153e-03 4.963561422635e-03 0.0 
0.0 0.0 0.0 
-1.146457586009e-03 1.676271690110e-03 0.0 
1.676271690110e-03 1.560377194679e-02 0.0 
0.0 0.0 0.0 
-1.018365244868e-03 1.968237745035e-03 0.0 
1.968237745035e-03 1.548230673941e-02 0.0 
0.0 0.0 0.0 
1.689455698261e-03 1.444808576188e-03 0.0 
1.444808576188e-03 4.902994400687e-03 0.0 
0.0 0.0 0.0 
-1.312658684479e-03 1.178787691687e-03 0.0 
1.178787691687e-03 1.567432029085e-02 0.0 
0.0 0.0 0.0 
2.342446764063e-03 1.699815275366e-03 0.0 
1.699815275366e-03 1.696348944215e-03 0.0 
0.0 0.0 0.0 
2.793732880373e-04 2.973622655805e-03 0.0 
2.973622655805e-03 9.322524109578e-03 0.0 
0.0 0.0 0.0 
-1.563570047248e-03 2.017909099934e-03 0.0 
2.017909099934e-03 1.038149766915e-02 0.0 
0.0 0.0 0.0 
-3.881647087794e-04 3.048149152596e-03 0.0 
3.048149152596e-03 1.247661615364e-02 0.0 
0.0 0.0 0.0 
-2.385468643090e-03 1.987875898081e-03 0.0 
1.987875898081e-03 1.205038903753e-02 0.0 
0.0 0.0 0.0 
-2.092581172890e-03 1.236380734649e-03 0.0 
1.236380734649e-03 1.288694273159e-02 0.0 
0.0 0.0 0.0 
2.387534221530e-03 1.357295164543e-03 0.0 
1.357295164543e-03 2.311565655577e-03 0.0 
0.0 0.0 0.0 
-2.006358553491e-03 9.821389733019e-04 0.0 
9.821389733019e-04 1.327002574733e-02 0.0 
0.0 0.0 0.0 
1.480937208362e-03 2.353688891585e-03 0.0 
2.353688891585e-03 5.376064774838e-03 0.0 
0.0 0.0 0.0 
1.757553301796e-03 2.208055041199e-03 0.0 
2.208055041199e-03 3.583580434331e-03 0.0 
0.0 0.0 0.0 
2.324756155161e-03 3.530197760949e-04 0.0 
3.530197760949e-04 1.940559720139e-03 0.0 
0.0 0.0 0.0 
2.526790518067e-03 -1.274792111309e-03 0.0 
-1.274792111309e-03 -2.334935044273e-03 0.0 
0.0 0.0 0.0 
2.509803192428e-03 9.994880889701e-04 0.0 
9.994880889701e-04 1.719243822200e-03 0.0 
0.0 0.0 0.0 
-9.294914865229e-04 1.098690873244e-03 0.0 
1.098690873244e-03 1.586978877920e-02 0.0 
0.0 0.0 0.0 
-5.849148516248e-04 2.915294545941e-03 0.0 
2.915294545941e-03 1.346979157558e-02 0.0 
0.0 0.0 0.0 
6.885527732738e-04 -1.621327368446e-05 0.0 
-1.621327368446e-05 5.209238697201e-03 0.0 
0.0 0.0 0.0 
1.146986237076e-03 2.246666844428e-03 0.0 
2.246666844428e-03 6.742194493765e-03 0.0 
0.0 0.0 0.0 
2.002118425613e-03 -4.179594801685e-04 0.0 
-4.179594801685e-04 2.003638368963e-03 0.0 
0.0 0.0 0.0 
-1.211759712171e-03 1.442644974991e-03 0.0 
1.442644974991e-03 1.543748738602e-02 0.0 
0.0 0.0 0.0 
2.471304956364e-03 7.000176099418e-04 0.0 
7.000176099418e-04 1.887878487700e-03 0.0 
0.0 0.0 0.0 
4.433785458970e-04 9.811678636550e-05 0.0 
9.811678636550e-05 6.000766688331e-03 0.0 
0.0 0.0 0.0 
-1.270284931861e-03 1.186746291808e-03 0.0 
1.186746291808e-03 1.547195468374e-02 0.0 
0.0 0.0 0.0 
-1.569656477170e-03 1.595171630293e-03 0.0 
1.595171630293e-03 1.515668142622e-02 0.0 
0.0 0.0 0.0 
2.018606661665e-03 1.060800702191e-03 0.0 
1.060800702191e-03 3.829642342966e-03 0.0 
0.0 0.0 0.0 
2.469522397246e-03 1.339058258959e-03 0.0 
1.339058258959e-03 1.649372810979e-03 0.0 
0.0 0.0 0.0 
2.430834810538e-04 3.048237627383e-03 0.0 
3.048237627383e-03 9.738153772829e-03 0.0 
0.0 0.0 0.0 
-5.229345470857e-04 2.871889365413e-03 0.0 
2.871889365413e-03 1.027144710532e-02 0.0 
0.0 0.0 0.0 
1.985581979359e-03 -2.071847924117e-03 0.0 
-2.071847924117e-03 -2.204317728977e-03 0.0 
0.0 0.0 0.0 
2.798494241216e-03 2.823489910008e-04 0.0 
2.823489910008e-04 -2.004720588994e-03 0.0 
0.0 0.0 0.0 
8.201840429323e-04 2.855844247393e-03 0.0 
2.855844247393e-03 4.061711565848e-03 0.0 
0.0 0.0 0.0 
4.278419665120e-04 2.908178487979e-03 0.0 
2.908178487979e-03 7.334386407513e-03 0.0 
0.0 0.0 0.0 
3.237901109749e-04 9.745587302864e-05 0.0 
9.745587302864e-05 6.293691417878e-03 0.0 
0.0 0.0 0.0 
-1.641401443446e-03 1.314130004622e-03 0.0 
1.314130004622e-03 1.522968805853e-02 0.0 
0.0 0.0 0.0 
2.444238308351e-03 9.481279710916e-04 0.0 
9.481279710916e-04 1.709341701291e-03 0.0 
0.0 0.0 0.0 
2.869728259378e-04 2.896895516649e-03 0.0 
2.896895516649e-03 8.538376872272e-03 0.0 
0.0 0.0 0.0 
1.573442667421e-03 1.328373816834e-03 0.0 
1.328373816834e-03 5.123495453134e-03 0.0 
0.0 0.0 0.0 
-1.166730346726e-03 8.997437890412e-04 0.0 
8.997437890412e-04 1.581370945650e-02 0.0 
0.0 0.0 0.0 
5.265246684560e-05 3.169325228086e-03 0.0 
3.169325228086e-03 1.047602150243e-02 0.0 
0.0 0.0 0.0 
-1.686778112057e-03 1.054167646699e-03 0.0 
1.054167646699e-03 1.476798504230e-02 0.0 
0.0 0.0 0.0 
1.305969902573e-03 8.284080945891e-04 0.0 
8.284080945891e-04 5.210341822712e-03 0.0 
0.0 0.0 0.0 
2.300749312176e-03 7.450909291852e-04 0.0 
7.450909291852e-04 2.436682266792e-03 0.0 
0.0 0.0 0.0 
1.454040947694e-03 1.155152086922e-03 0.0 
1.155152086922e-03 5.139737206183e-03 0.0 
0.0 0.0 0.0 
1.188310655793e-03 2.698317947328e-03 0.0 
2.698317947328e-03 5.222625415785e-03 0.0 
0.0 0.0 0.0 
-1.055892849471e-03 1.351493422857e-03 0.0 
1.351493422857e-03 1.587215318653e-02 0.0 
0.0 0.0 0.0 
-1.046655117630e-04 3.269859821669e-03 0.0 
3.269859821669e-03 1.123222492349e-02 0.0 
0.0 0.0 0.0 
2.194578663098e-03 9.347971663233e-04 0.0 
9.347971663233e-04 3.189363969297e-03 0.0 
0.0 0.0 0.0 
2.881041223351e-03 4.009555754109e-04 0.0 
4.009555754109e-04 -2.859694181615e-03 0.0 
0.0 0.0 0.0 
9.456373128605e-04 2.747383847266e-03 0.0 
2.747383847266e-03 7.646142509326e-03 0.0 
0.0 0.0 0.0 
1.276228276667e-03 2.521350370812e-03 0.0 
2.521350370812e-03 5.691709326000e-03 0.0 
0.0 0.0 0.0 
2.382295701474e-03 1.312006838063e-03 0.0 
1.312006838063e-03 1.756580522292e-03 0.0 
0.0 0.0 0.0 
2.000369318715e-03 1.010160477345e-03 0.0 
1.010160477345e-03 3.720294097612e-03 0.0 
0.0 0.0 0.0 
1.191569287250e-03 4.420190165607e-04 0.0 
4.420190165607e-04 4.900807171040e-03 0.0 
0.0 0.0 0.0 
2.770638017922e-03 -5.943531831332e-04 0.0 
-5.943531831332e-04 -2.697759781843e-03 0.0 
0.0 0.0 0.0 
2.344363605229e-03 8.137093815485e-04 0.0 
8.137093815485e-04 2.544115290870e-03 0.0 
0.0 0.0 0.0 
-1.129770499401e-03 2.581646233145e-03 0.0 
2.581646233145e-03 1.222315058319e-02 0.0 
0.0 0.0 0.0 
2.589148743577e-04 2.755204148652e-05 0.0 
2.755204148652e-05 6.303792074229e-03 0.0 
0.0 0.0 0.0 
-8.622016534732e-04 2.744286278937e-03 0.0 
2.744286278937e-03 1.175989910555e-02 0.0 
0.0 0.0 0.0 
8.438001308100e-04 2.838407861604e-03 0.0 
2.838407861604e-03 7.886235724371e-03 0.0 
0.0 0.0 0.0 
-1.384396639244e-03 2.371116267701e-03 0.0 
2.371116267701e-03 1.267928342938e-02 0.0 
0.0 0.0 0.0 
-1.785932161628e-03 1.770808819402e-03 0.0 
1.770808819402e-03 1.351380499476e-02 0.0 
0.0 0.0 0.0 
-2.394231518041e-04 2.931799922353e-03 0.0 
2.931799922353e-03 9.789055973548e-03 0.0 
0.0 0.0 0.0 
1.350651903623e-03 2.001541844683e-03 0.0 
2.001541844683e-03 6.115960325405e-03 0.0 
0.0 0.0 0.0 
6.115569778518e-04 1.825454020476e-05 0.0 
1.825454020476e-05 5.402585051038e-03 0.0 
0.0 0.0 0.0 
-1.554810640216e-03 1.291071887028e-03 0.0 
1.291071887028e-03 1.497632105543e-02 0.0 
0.0 0.0 0.0 
-8.388392485555e-04 1.912479744726e-03 0.0 
1.912479744726e-03 1.548859238399e-02 0.0 
0.0 0.0 0.0 
-1.613947886998e-03 2.103144816446e-03 0.0 
2.103144816446e-03 1.311668495815e-02 0.0 
0.0 0.0 0.0 
2.586467132436e-03 8.852999091805e-04 0.0 
8.852999091805e-04 3.505849954817e-04 0.0 
0.0 0.0 0.0 
6.843041591891e-04 2.834485754070e-03 0.0 
2.834485754070e-03 8.398880748659e-03 0.0 
0.0 0.0 0.0 
-9.283948778434e-04 1.054140077717e-03 0.0 
1.054140077717e-03 1.604133549025e-02 0.0 
0.0 0.0 0.0 
1.683797214511e-03 2.392255581525e-03 0.0 
2.392255581525e-03 4.051482667702e-03 0.0 
0.0 0.0 0.0 
1.449504903233e-03 2.543878400906e-03 0.0 
2.543878400906e-03 4.859633512923e-03 0.0 
0.0 0.0 0.0 
2.525232364748e-03 9.011431621432e-04 0.0 
9.011431621432e-04 1.040912552865e-03 0.0 
0.0 0.0 0.0 
-1.485134880727e-03 1.584158948791e-03 0.0 
1.584158948791e-03 1.486276072971e-02 0.0 
0.0 0.0 0.0 
7.301060462117e-05 2.920063018142e-03 0.0 
2.920063018142e-03 6.362416128553e-03 0.0 
0.0 0.0 0.0 
1.606346047692e-03 2.354617036402e-03 0.0 
2.354617036402e-03 5.110008855193e-03 0.0 
0.0 0.0 0.0 
9.914007562761e-05 2.862915069136e-03 0.0 
2.862915069136e-03 6.370066642683e-03 0.0 
0.0 0.0 0.0 
1.595435203559e-03 1.897678474230e-03 0.0 
1.897678474230e-03 5.476282313229e-03 0.0 
0.0 0.0 0.0 
4.964575811994e-04 2.962558674797e-03 0.0 
2.962558674797e-03 8.899438405400e-03 0.0 
0.0 0.0 0.0 
2.518110161693e-03 5.151795369514e-04 0.0 
5.151795369514e-04 1.102590896370e-03 0.0 
0.0 0.0 0.0 
2.306124441939e-03 -7.083918476431e-04 0.0 
-7.083918476431e-04 -3.971891038593e-03 0.0 
0.0 0.0 0.0 
-8.219262716067e-04 2.278276720857e-03 0.0 
2.278276720857e-03 1.497553652662e-02 0.0 
0.0 0.0 0.0 
-1.170689385096e-04 2.900448105510e-03 0.0 
2.900448105510e-03 7.208865764696e-03 0.0 
0.0 0.0 0.0 
2.144531903302e-03 -8.988098442549e-05 0.0 
-8.988098442549e-05 2.168059915745e-03 0.0 
0.0 0.0 0.0 
8.151076031133e-04 2.859788705957e-03 0.0 
2.859788705957e-03 8.168711457962e-03 0.0 
0.0 0.0 0.0 
-1.767889724165e-03 1.403669485681e-03 0.0 
1.403669485681e-03 1.496368980979e-02 0.0 
0.0 0.0 0.0 
7.642777920496e-04 1.536820722623e-05 0.0 
1.536820722623e-05 5.074823514912e-03 0.0 
0.0 0.0 0.0 
1.996970940763e-03 1.979542780581e-03 0.0 
1.979542780581e-03 2.755653446130e-03 0.0 
0.0 0.0 0.0 
2.012936218739e-03 -3.331231072592e-04 0.0 
-3.331231072592e-04 -4.276993810547e-03 0.0 
0.0 0.0 0.0 
1.759789082907e-04 1.396479279094e-05 0.0 
1.396479279094e-05 6.610044000560e-03 0.0 
0.0 0.0 0.0 
7.130738917192e-04 2.852017789500e-03 0.0 
2.852017789500e-03 6.885853674219e-03 0.0 
0.0 0.0 0.0 
1.551792976234e-03 2.038891282030e-03 0.0 
2.038891282030e-03 5.570003769551e-03 0.0 
0.0 0.0 0.0 
4.304394136891e-04 3.109340567553e-03 0.0 
3.109340567553e-03 9.423279806821e-03 0.0 
0.0 0.0 0.0 
8.748863772545e-04 -8.380831933379e-05 0.0 
-8.380831933379e-05 -4.676213275032e-03 0.0 
0.0 0.0 0.0 
9.185164211079e-04 1.098104855227e-04 0.0 
1.098104855227e-04 5.059290944829e-03 0.0 
0.0 0.0 0.0 
1.690525589049e-03 2.359645345147e-03 0.0 
2.359645345147e-03 1.254909436088e-03 0.0 
0.0 0.0 0.0 
-1.931028376793e-03 1.189561475294e-03 0.0 
1.189561475294e-03 1.475346686347e-02 0.0 
0.0 0.0 0.0 
6.513085968458e-04 -5.087722215289e-04 0.0 
-5.087722215289e-04 3.870494181704e-03 0.0 
0.0 0.0 0.0 
2.597884687415e-03 9.503645812217e-04 0.0 
9.503645812217e-04 1.029911995149e-03 0.0 
0.0 0.0 0.0 
3.589483475115e-04 2.869390102410e-05 0.0 
2.869390102410e-05 6.011973844328e-03 0.0 
0.0 0.0 0.0 
1.432737791387e-03 2.521638621234e-03 0.0 
2.521638621234e-03 5.350780520675e-03 0.0 
0.0 0.0 0.0 
2.664949418149e-03 9.305056415277e-04 0.0 
9.305056415277e-04 3.155516182418e-04 0.0 
0.0 0.0 0.0 
5.287276365264e-04 2.838683259240e-03 0.0 
2.838683259240e-03 7.720776201290e-03 0.0 
0.0 0.0 0.0 
1.705430921797e-03 -1.848906419890e-03 0.0 
-1.848906419890e-03 -4.002518326152e-03 0.0 
0.0 0.0 0.0 
5.123880411837e-04 2.883502186548e-03 0.0 
2.883502186548e-03 8.536198614829e-03 0.0 
0.0 0.0 0.0 
1.529141005226e-03 1.727949739223e-03 0.0 
1.727949739223e-03 5.502062916945e-03 0.0 
0.0 0.0 0.0 
-2.235075371245e-04 3.245558510011e-03 0.0 
3.245558510011e-03 1.188248553192e-02 0.0 
0.0 0.0 0.0 
4.584105751615e-04 2.942589354486e-03 0.0 
2.942589354486e-03 8.971361583243e-03 0.0 
0.0 0.0 0.0 
2.738641647413e-03 2.947665193861e-04 0.0 
2.947665193861e-04 -1.139798718266e-03 0.0 
0.0 0.0 0.0 
5.575529813058e-04 -8.707370335002e-05 0.0 
-8.707370335002e-05 5.221200262327e-03 0.0 
0.0 0.0 0.0 
-6.589701601230e-04 1.267445963093e-03 0.0 
1.267445963093e-03 1.607045666487e-02 0.0 
0.0 0.0 0.0 
5.245457938481e-04 2.527458193280e-03 0.0 
2.527458193280e-03 8.015313358170e-03 0.0 
0.0 0.0 0.0 
1.341490847915e-03 2.000865546174e-03 0.0 
2.000865546174e-03 6.133675827587e-03 0.0 
0.0 0.0 0.0 
2.196690583193e-03 1.653282006163e-03 0.0 
1.653282006163e-03 2.514066842117e-03 0.0 
0.0 0.0 0.0 
5.354759124123e-04 2.850313260221e-03 0.0 
2.850313260221e-03 8.121187154632e-03 0.0 
0.0 0.0 0.0 
2.108164935275e-04 3.400888013398e-05 0.0 
3.400888013398e-05 6.348714293890e-03 0.0 
0.0 0.0 0.0 
1.122147612342e-04 -1.775576373350e-04 0.0 
-1.775576373350e-04 4.187089746805e-03 0.0 
0.0 0.0 0.0 
6.926536424443e-04 2.894545341363e-03 0.0 
2.894545341363e-03 8.174823065092e-03 0.0 
0.0 0.0 0.0 
-1.576159242118e-03 1.007425865315e-03 0.0 
1.007425865315e-03 1.501694830575e-02 0.0 
0.0 0.0 0.0 
4.773564200973e-04 2.524623445373e-05 0.0 
2.524623445373e-05 5.710237002388e-03 0.0 
0.0 0.0 0.0 
8.099402311383e-04 1.709517690769e-04 0.0 
1.709517690769e-04 5.277418423465e-03 0.0 
0.0 0.0 0.0 
-1.209760645235e-03 4.934417790870e-06 0.0 
4.934417790870e-06 1.356896281537e-02 0.0 
0.0 0.0 0.0 
-1.202723326753e-03 9.667616170109e-06 0.0 
9.667616170109e-06 1.356721278725e-02 0.0 
0.0 0.0 0.0 
-1.284735893590e-03 2.586029091115e-03 0.0 
2.586029091115e-03 1.285030327807e-02 0.0 
0.0 0.0 0.0 
7.262473021963e-04 2.857937578936e-03 0.0 
2.857937578936e-03 7.728738393103e-03 0.0 
0.0 0.0 0.0 
5.321320514335e-04 -4.186855357069e-04 0.0 
-4.186855357069e-04 4.191008790573e-03 0.0 
0.0 0.0 0.0 
-4.245089649657e-04 2.930137736954e-03 0.0 
2.930137736954e-03 1.056434548669e-02 0.0 
0.0 0.0 0.0 
1.663874425439e-03 2.358159149045e-03 0.0 
2.358159149045e-03 4.570121934594e-03 0.0 
0.0 0.0 0.0 
1.084550156139e-03 1.300220676404e-03 0.0 
1.300220676404e-03 5.950566543521e-03 0.0 
0.0 0.0 0.0 
2.135432371121e-03 1.981302364645e-03 0.0 
1.981302364645e-03 2.465377260919e-03 0.0 
0.0 0.0 0.0 
-3.722232234464e-04 2.074756465953e-03 0.0 
2.074756465953e-03 1.591994197454e-02 0.0 
0.0 0.0 0.0 
-1.918748589319e-03 1.588953451074e-03 0.0 
1.588953451074e-03 1.338615495290e-02 0.0 
0.0 0.0 0.0 
1.518504361069e-03 2.361632081669e-03 0.0 
2.361632081669e-03 4.887054527785e-03 0.0 
0.0 0.0 0.0 
8.328953623828e-04 -4.555935772150e-04 0.0 
-4.555935772150e-04 3.860737771252e-03 0.0 
0.0 0.0 0.0 
2.647769692969e-03 9.982453971668e-04 0.0 
9.982453971668e-04 -1.119663969820e-03 0.0 
0.0 0.0 0.0 
7.510503607993e-04 -7.777697878587e-04 0.0 
-7.777697878587e-04 3.126823066226e-03 0.0 
0.0 0.0 0.0 
7.342548194822e-04 2.846337430423e-03 0.0 
2.846337430423e-03 7.298315551490e-03 0.0 
0.0 0.0 0.0 
1.984327060507e-04 2.935613059237e-03 0.0 
2.935613059237e-03 8.166053826860e-03 0.0 
0.0 0.0 0.0 
-1.664862447988e-03 1.370700475663e-03 0.0 
1.370700475663e-03 1.468404432104e-02 0.0 
0.0 0.0 0.0 
-1.671518542040e-04 2.970286743253e-03 0.0 
2.970286743253e-03 1.011683320305e-02 0.0 
0.0 0.0 0.0 
-3.601864267080e-04 2.975107347734e-03 0.0 
2.975107347734e-03 1.086596286452e-02 0.0 
0.0 0.0 0.0 
3.356013022888e-04 -9.551929293362e-05 0.0 
-9.551929293362e-05 9.400456389648e-04 0.0 
0.0 0.0 0.0 
7.598341132005e-04 -7.778820085647e-04 0.0 
-7.778820085647e-04 3.089549068457e-03 0.0 
0.0 0.0 0.0 
-9.157267177151e-05 2.873676159467e-03 0.0 
2.873676159467e-03 7.211900889820e-03 0.0 
0.0 0.0 0.0 
-7.080729256529e-04 2.814199703957e-03 0.0 
2.814199703957e-03 1.103491335261e-02 0.0 
0.0 0.0 0.0 
-8.763587094456e-04 2.822251691463e-03 0.0 
2.822251691463e-03 1.174454707568e-02 0.0 
0.0 0.0 0.0 
1.254762384368e-03 1.840513794522e-03 0.0 
1.840513794522e-03 6.150049174289e-03 0.0 
0.0 0.0 0.0 
1.300465138832e-04 -1.647880712762e-05 0.0 
-1.647880712762e-05 1.636497965148e-03 0.0 
0.0 0.0 0.0 
2.502971446355e-03 -1.541471907853e-03 0.0 
-1.541471907853e-03 -3.055999187586e-03 0.0 
0.0 0.0 0.0 
9.504941531637e-04 2.785018791903e-03 0.0 
2.785018791903e-03 6.056511809130e-03 0.0 
0.0 0.0 0.0 
5.744824985419e-04 -8.089002276398e-04 0.0 
-8.089002276398e-04 3.095279159427e-03 0.0 
0.0 0.0 0.0 
-2.367285832878e-03 1.793848734485e-03 0.0 
1.793848734485e-03 1.277511504306e-02 0.0 
0.0 0.0 0.0 
-2.356103573201e-03 1.438705356853e-03 0.0 
1.438705356853e-03 1.320831094822e-02 0.0 
0.0 0.0 0.0 
-1.863323671433e-03 1.518269233849e-03 0.0 
1.518269233849e-03 1.466742082820e-02 0.0 
0.0 0.0 0.0 
1.357388321843e-03 2.679333918450e-03 0.0 
2.679333918450e-03 -6.294190830414e-04 0.0 
0.0 0.0 0.0 
6.788443050458e-04 -5.167111121726e-04 0.0 
-5.167111121726e-04 3.784081631362e-03 0.0 
0.0 0.0 0.0 
1.530528204765e-03 8.748079865934e-04 0.0 
8.748079865934e-04 4.689574876751e-03 0.0 
0.0 0.0 0.0 
2.824107432263e-03 -5.126424728642e-04 0.0 
-5.126424728642e-04 -3.280462305255e-03 0.0 
0.0 0.0 0.0 
1.659455077827e-04 3.227190433991e-03 0.0 
3.227190433991e-03 1.006281270111e-02 0.0 
0.0 0.0 0.0 
-1.247086777660e-03 1.421056363172e-03 0.0 
1.421056363172e-03 1.566642149495e-02 0.0 
0.0 0.0 0.0 
3.935485174036e-04 -5.562292511549e-04 0.0 
-5.562292511549e-04 3.710750093220e-03 0.0 
0.0 0.0 0.0 
5.423359490271e-04 2.992688798947e-06 0.0 
2.992688798947e-06 5.518936863287e-03 0.0 
0.0 0.0 0.0 
2.620917308318e-04 -1.068223866972e-04 0.0 
-1.068223866972e-04 6.383113924200e-04 0.0 
0.0 0.0 0.0 
1.563538813936e-03 5.870584056290e-04 0.0 
5.870584056290e-04 4.303880754635e-03 0.0 
0.0 0.0 0.0 
7.744202511739e-04 2.761514514874e-03 0.0 
2.761514514874e-03 6.898754972346e-03 0.0 
0.0 0.0 0.0 
3.229725994958e-04 -8.137317038489e-05 0.0 
-8.137317038489e-05 6.120190699954e-04 0.0 
0.0 0.0 0.0 
-1.039840972447e-03 1.382514873558e-03 0.0 
1.382514873558e-03 1.566944241150e-02 0.0 
0.0 0.0 0.0 
2.742121528384e-03 -6.790772275991e-04 0.0 
-6.790772275991e-04 -3.586684607171e-03 0.0 
0.0 0.0 0.0 
-7.000765152110e-04 2.868323124417e-03 0.0 
2.868323124417e-03 1.102659782682e-02 0.0 
0.0 0.0 0.0 
2.478181239831e-04 2.889467739331e-03 0.0 
2.889467739331e-03 8.172045625275e-03 0.0 
0.0 0.0 0.0 
2.092045585960e-03 -2.346285868047e-04 0.0 
-2.346285868047e-04 1.855830606504e-03 0.0 
0.0 0.0 0.0 
1.642037644012e-03 -2.801077155250e-05 0.0 
-2.801077155250e-05 3.476636622613e-03 0.0 
0.0 0.0 0.0 
-9.558408901232e-04 1.638220012078e-03 0.0 
1.638220012078e-03 1.560593286168e-02 0.0 
0.0 0.0 0.0 
1.518397298107e-03 1.721898008919e-04 0.0 
1.721898008919e-04 4.030073932200e-03 0.0 
0.0 0.0 0.0 
1.210549173292e-03 2.665014924093e-03 0.0 
2.665014924093e-03 5.670322882998e-03 0.0 
0.0 0.0 0.0 
1.021918230970e-03 2.663644475331e-03 0.0 
2.663644475331e-03 6.074006814777e-03 0.0 
0.0 0.0 0.0 
-1.689986981832e-03 2.872572781310e-03 0.0 
2.872572781310e-03 9.702506089406e-04 0.0 
0.0 0.0 0.0 
2.590989032515e-03 -4.617500384845e-04 0.0 
-4.617500384845e-04 -3.843363476285e-03 0.0 
0.0 0.0 0.0 
5.997990518940e-04 2.906227615246e-03 0.0 
2.906227615246e-03 8.640342627274e-03 0.0 
0.0 0.0 0.0 
-1.946239255103e-03 1.825055033202e-03 0.0 
1.825055033202e-03 1.394157339172e-02 0.0 
0.0 0.0 0.0 
7.383178345699e-04 2.929301861256e-03 0.0 
2.929301861256e-03 8.381227947299e-03 0.0 
0.0 0.0 0.0 
1.456705729839e-03 2.724573530232e-03 0.0 
2.724573530232e-03 1.200980722841e-03 0.0 
0.0 0.0 0.0 
-1.045930513802e-03 2.500522904349e-03 0.0 
2.500522904349e-03 1.362359547445e-02 0.0 
0.0 0.0 0.0 
3.784479829694e-04 3.046843383236e-03 0.0 
3.046843383236e-03 9.427901419966e-03 0.0 
0.0 0.0 0.0 
-1.974592688233e-03 1.593045435219e-03 0.0 
1.593045435219e-03 1.277229520191e-02 0.0 
0.0 0.0 0.0 
6.222997986316e-04 2.948899506776e-03 0.0 
2.948899506776e-03 8.632735483142e-03 0.0 
0.0 0.0 0.0 
4.338067207614e-04 -6.207793455419e-05 0.0 
-6.207793455419e-05 5.529908407752e-03 0.0 
0.0 0.0 0.0 
9.603414005861e-04 2.762631675836e-03 0.0 
2.762631675836e-03 6.931260165497e-03 0.0 
0.0 0.0 0.0 
8.143452617038e-04 -6.175546413607e-04 0.0 
-6.175546413607e-04 3.461337556063e-03 0.0 
0.0 0.0 0.0 
7.844698122854e-04 -6.035612540650e-04 0.0 
-6.035612540650e-04 3.530806823960e-03 0.0 
0.0 0.0 0.0 
-1.028278676764e-03 2.359519733820e-03 0.0 
2.359519733820e-03 1.495562381829e-02 0.0 
0.0 0.0 0.0 
1.729741004601e-03 -2.424336261469e-04 0.0 
-2.424336261469e-04 2.941593069955e-03 0.0 
0.0 0.0 0.0 
4.781381524972e-04 2.904804348295e-03 0.0 
2.904804348295e-03 7.711981242976e-03 0.0 
0.0 0.0 0.0 
2.036502186720e-03 1.939827314198e-03 0.0 
1.939827314198e-03 3.660583772307e-03 0.0 
0.0 0.0 0.0 
1.350489720025e-03 3.537385576358e-04 0.0 
3.537385576358e-04 4.603247027063e-03 0.0 
0.0 0.0 0.0 
1.756299141574e-03 2.168557713376e-03 0.0 
2.168557713376e-03 4.083728055029e-03 0.0 
0.0 0.0 0.0 
2.795585684395e-03 3.792248056986e-04 0.0 
3.792248056986e-04 -1.014531837537e-03 0.0 
0.0 0.0 0.0 
2.236979722460e-03 6.011873863251e-04 0.0 
6.011873863251e-04 2.765078505216e-03 0.0 
0.0 0.0 0.0 
2.710135443792e-03 9.465195819035e-04 0.0 
9.465195819035e-04 -4.396470337538e-04 0.0 
0.0 0.0 0.0 
-4.312391356878e-04 2.913773647609e-03 0.0 
2.913773647609e-03 1.056671305139e-02 0.0 
0.0 0.0 0.0 
2.673921434385e-03 3.432278405592e-04 0.0 
3.432278405592e-04 -3.457163419947e-04 0.0 
0.0 0.0 0.0 
-2.147151379568e-04 2.936967414496e-03 0.0 
2.936967414496e-03 9.788240356991e-03 0.0 
0.0 0.0 0.0 
1.276822431044e-03 1.852550940900e-03 0.0 
1.852550940900e-03 6.139320440045e-03 0.0 
0.0 0.0 0.0 
1.532065515333e-03 1.734442353856e-03 0.0 
1.734442353856e-03 5.514817457437e-03 0.0 
0.0 0.0 0.0 
1.913916083278e-03 2.209092343007e-03 0.0 
2.209092343007e-03 3.253162209450e-03 0.0 
0.0 0.0 0.0 
-1.737000134790e-03 1.474699734314e-03 0.0 
1.474699734314e-03 1.434147379335e-02 0.0 
0.0 0.0 0.0 
4.134314783901e-04 1.912527642435e-05 0.0 
1.912527642435e-05 5.814748480509e-03 0.0 
0.0 0.0 0.0 
3.275065592159e-04 -4.219982422682e-05 0.0 
-4.219982422682e-05 5.825152782519e-03 0.0 
0.0 0.0 0.0 
7.000575115783e-04 2.845442762521e-03 0.0 
2.845442762521e-03 -7.239760271326e-04 0.0 
0.0 0.0 0.0 
3.262244720181e-05 2.961964349926e-03 0.0 
2.961964349926e-03 9.335269612634e-03 0.0 
0.0 0.0 0.0 
2.184157487686e-04 9.724706425454e-05 0.0 
9.724706425454e-05 6.590561561414e-03 0.0 
0.0 0.0 0.0 
-8.799457370195e-04 2.645682135072e-03 0.0 
2.645682135072e-03 7.385374962193e-03 0.0 
0.0 0.0 0.0 
4.211374788663e-04 -4.468908701397e-04 0.0 
-4.468908701397e-04 4.089328711097e-03 0.0 
0.0 0.0 0.0 
-1.917802138006e-03 2.905743370138e-03 0.0 
2.905743370138e-03 1.698665767983e-03 0.0 
0.0 0.0 0.0 
3.040328448261e-04 3.094584761929e-05 0.0 
3.094584761929e-05 6.094031072180e-03 0.0 
0.0 0.0 0.0 
2.732234331607e-03 1.015108869006e-03 0.0 
1.015108869006e-03 -1.250942769672e-03 0.0 
0.0 0.0 0.0 
1.264964615928e-04 -1.083726843486e-04 0.0 
-1.083726843486e-04 4.351091084673e-03 0.0 
0.0 0.0 0.0 
1.602456002487e-03 2.225646035834e-03 0.0 
2.225646035834e-03 5.547523067865e-03 0.0 
0.0 0.0 0.0 
-1.931096353162e-03 1.646463905923e-03 0.0 
1.646463905923e-03 1.431998728152e-02 0.0 
0.0 0.0 0.0 
-1.809731773505e-03 1.613310839333e-03 0.0 
1.613310839333e-03 1.396856852605e-02 0.0 
0.0 0.0 0.0 
9.713282800834e-04 2.766006027348e-03 0.0 
2.766006027348e-03 6.485204268544e-03 0.0 
0.0 0.0 0.0 
-1.878664166795e-03 2.171467990439e-03 0.0 
2.171467990439e-03 1.111601714260e-02 0.0 
0.0 0.0 0.0 
-2.066854380359e-03 2.154558730716e-03 0.0 
2.154558730716e-03 1.202206819466e-02 0.0 
0.0 0.0 0.0 
2.398435739099e-04 -2.802636082455e-05 0.0 
-2.802636082455e-05 6.104143457181e-03 0.0 
0.0 0.0 0.0 
1.501109754856e-03 4.956466969741e-05 0.0 
4.956466969741e-05 3.708426612461e-03 0.0 
0.0 0.0 0.0 
2.004327815634e-03 -1.211651970053e-05 0.0 
-1.211651970053e-05 2.467736295299e-03 0.0 
0.0 0.0 0.0 
1.735326914194e-03 7.721824742236e-04 0.0 
7.721824742236e-04 4.280146092156e-03 0.0 
0.0 0.0 0.0 
2.370025650081e-03 4.507363898355e-04 0.0 
4.507363898355e-04 2.130155806826e-03 0.0 
0.0 0.0 0.0 
2.629558768671e-03 9.113735809730e-04 0.0 
9.113735809730e-04 -3.694442151472e-04 0.0 
0.0 0.0 0.0 
-1.730378797355e-03 1.982086130375e-03 0.0 
1.982086130375e-03 1.115735439009e-02 0.0 
0.0 0.0 0.0 
-2.078440355373e-03 1.651341911797e-03 0.0 
1.651341911797e-03 1.378564539747e-02 0.0 
0.0 0.0 0.0 
-1.210271197719e-03 7.447324703628e-06 0.0 
7.447324703628e-06 1.357220347027e-02 0.0 
0.0 0.0 0.0 
1.451518785822e-03 1.577304142364e-03 0.0 
1.577304142364e-03 5.537479469093e-03 0.0 
0.0 0.0 0.0 
1.984241142152e-03 1.935341528545e-03 0.0 
1.935341528545e-03 3.292465426113e-03 0.0 
0.0 0.0 0.0 
8.781814492329e-04 2.363864336269e-03 0.0 
2.363864336269e-03 7.359248193310e-03 0.0 
0.0 0.0 0.0 
1.251060855429e-04 8.586720836601e-06 0.0 
8.586720836601e-06 6.194457734603e-03 0.0 
0.0 0.0 0.0 
2.202413390898e-03 5.166159634275e-04 0.0 
5.166159634275e-04 2.591806470657e-03 0.0 
0.0 0.0 0.0 
1.666436352783e-04 7.371990160972e-05 0.0 
7.371990160972e-05 6.817232162230e-03 0.0 
0.0 0.0 0.0 
2.585606352405e-03 -1.262304756134e-04 0.0 
-1.262304756134e-04 -1.362025883714e-04 0.0 
0.0 0.0 0.0 
9.399798369043e-04 2.487715800765e-03 0.0 
2.487715800765e-03 7.375881342137e-03 0.0 
0.0 0.0 0.0 
1.028675171149e-03 2.651664208080e-03 0.0 
2.651664208080e-03 6.502084103924e-03 0.0 
0.0 0.0 0.0 
1.147748489909e-03 2.653442382986e-03 0.0 
2.653442382986e-03 6.616175140966e-03 0.0 
0.0 0.0 0.0 
1.107989272645e-03 9.397816987837e-04 0.0 
9.397816987837e-04 5.593870167385e-03 0.0 
0.0 0.0 0.0 
6.886998549140e-04 -1.277550229423e-03 0.0 
-1.277550229423e-03 2.041343730740e-03 0.0 
0.0 0.0 0.0 
2.496594698747e-04 2.945885875537e-03 0.0 
2.945885875537e-03 8.532911256375e-03 0.0 
0.0 0.0 0.0 
2.181334331412e-03 1.421985910302e-04 0.0 
1.421985910302e-04 2.178248281691e-03 0.0 
0.0 0.0 0.0 
1.272333209990e-05 2.923058529931e-03 0.0 
2.923058529931e-03 8.986860832611e-03 0.0 
0.0 0.0 0.0 
1.407223866683e-03 2.519100665171e-03 0.0 
2.519100665171e-03 2.215094610305e-03 0.0 
0.0 0.0 0.0 
1.300758569390e-03 2.550903565500e-03 0.0 
2.550903565500e-03 6.389172872412e-03 0.0 
0.0 0.0 0.0 
2.330411497812e-03 7.237578084466e-05 0.0 
7.237578084466e-05 1.805237906579e-03 0.0 
0.0 0.0 0.0 
6.883915647231e-04 -3.753436280094e-04 0.0 
-3.753436280094e-04 4.182741302237e-03 0.0 
0.0 0.0 0.0 
-2.730650798921e-05 2.939845217281e-03 0.0 
2.939845217281e-03 8.984796731781e-03 0.0 
0.0 0.0 0.0 
-1.066020085570e-03 3.433403928216e-03 0.0 
3.433403928216e-03 -4.813619822044e-04 0.0 
0.0 0.0 0.0 
1.936062724429e-03 1.960792930164e-03 0.0 
1.960792930164e-03 4.264116748178e-03 0.0 
0.0 0.0 0.0 
-1.171266075976e-03 3.124659781465e-03 0.0 
3.124659781465e-03 1.533174768457e-03 0.0 
0.0 0.0 0.0 
-7.480134036730e-06 -3.412562473525e-04 0.0 
-3.412562473525e-04 1.140602505130e-03 0.0 
0.0 0.0 0.0 
5.575404764591e-04 -4.208831226318e-04 0.0 
-4.208831226318e-04 4.083728000417e-03 0.0 
0.0 0.0 0.0 
6.635534159760e-05 3.044377368231e-03 0.0 
3.044377368231e-03 1.008699397447e-02 0.0 
0.0 0.0 0.0 
-1.659455427755e-03 1.937820530827e-03 0.0 
1.937820530827e-03 1.365757977061e-02 0.0 
0.0 0.0 0.0 
-1.746093096590e-03 2.189917026270e-03 0.0 
2.189917026270e-03 9.607028644639e-03 0.0 
0.0 0.0 0.0 
0.0 2.109310285283e-03 0.0 
2.109310285283e-03 1.581703547274e-02 0.0 
0.0 0.0 0.0 
-1.769622983795e-03 2.877242298074e-03 0.0 
2.877242298074e-03 3.024243057164e-04 0.0 
0.0 0.0 0.0 
-1.760008789404e-03 2.185427154631e-03 0.0 
2.185427154631e-03 1.035509061916e-02 0.0 
0.0 0.0 0.0 
2.041175442328e-03 1.107367026675e-04 0.0 
1.107367026675e-04 2.749357158822e-03 0.0 
0.0 0.0 0.0 
3.185174140641e-04 -4.454708475269e-04 0.0 
-4.454708475269e-04 3.989736763531e-03 0.0 
0.0 0.0 0.0 
-1.457776344652e-03 2.548330507232e-03 0.0 
2.548330507232e-03 1.063211648388e-02 0.0 
0.0 0.0 0.0 
2.286131865369e-03 -7.742438279931e-04 0.0 
-7.742438279931e-04 4.158857612415e-04 0.0 
0.0 0.0 0.0 
1.604999436187e-03 -1.688053036761e-04 0.0 
-1.688053036761e-04 3.137508672694e-03 0.0 
0.0 0.0 0.0 
7.801896034403e-04 2.761529116608e-03 0.0 
2.761529116608e-03 7.310762624582e-03 0.0 
0.0 0.0 0.0 
1.800606707525e-03 2.006313586758e-03 0.0 
2.006313586758e-03 4.875158596241e-03 0.0 
0.0 0.0 0.0 
-3.247239858919e-04 3.048994203818e-03 0.0 
3.048994203818e-03 1.186365778966e-02 0.0 
0.0 0.0 0.0 
1.418271323557e-03 2.920982671515e-03 0.0 
2.920982671515e-03 -1.984831639982e-03 0.0 
0.0 0.0 0.0 
5.289134835667e-04 -5.411112611743e-04 0.0 
-5.411112611743e-04 3.707603335352e-03 0.0 
0.0 0.0 0.0 
3.484980959394e-04 -3.359048446039e-04 0.0 
-3.359048446039e-04 4.250094195732e-03 0.0 
0.0 0.0 0.0 
1.060852581574e-04 -1.176206366496e-03 0.0 
-1.176206366496e-03 1.915133530933e-03 0.0 
0.0 0.0 0.0 
-1.984865244138e-03 1.340647366741e-03 0.0 
1.340647366741e-03 1.330000867830e-02 0.0 
0.0 0.0 0.0 
-1.758816638286e-03 2.122898595203e-03 0.0 
2.122898595203e-03 1.363212033193e-02 0.0 
0.0 0.0 0.0 
1.146665670153e-04 -3.987664593405e-05 0.0 
-3.987664593405e-05 5.592058109205e-03 0.0 
0.0 0.0 0.0 
4.316053724724e-04 -1.007794564834e-04 0.0 
-1.007794564834e-04 5.580854063596e-04 0.0 
0.0 0.0 0.0 
8.989366918444e-05 -6.494787820026e-04 0.0 
-6.494787820026e-04 -4.523573259255e-03 0.0 
0.0 0.0 0.0 
-1.625754907543e-04 -1.032374854556e-03 0.0 
-1.032374854556e-03 1.483114916657e-03 0.0 
0.0 0.0 0.0 
2.552384871424e-04 -3.454781270445e-04 0.0 
-3.454781270445e-04 4.252280992066e-03 0.0 
0.0 0.0 0.0 
2.514178740969e-03 3.445392509034e-05 0.0 
3.445392509034e-05 5.897201982270e-04 0.0 
0.0 0.0 0.0 
2.199029094081e-03 -9.913014435251e-04 0.0 
-9.913014435251e-04 -4.016532590823e-05 0.0 
0.0 0.0 0.0 
2.646802445220e-03 -2.876026755593e-04 0.0 
-2.876026755593e-04 -9.139972371672e-04 0.0 
0.0 0.0 0.0 
4.507913755825e-04 -3.314288132280e-04 0.0 
-3.314288132280e-04 4.367000394012e-03 0.0 
0.0 0.0 0.0 
-1.221812261779e-03 2.464714752180e-03 0.0 
2.464714752180e-03 1.287334465116e-02 0.0 
0.0 0.0 0.0 
2.776164676168e-04 -2.473326468776e-04 0.0 
-2.473326468776e-04 4.495915352450e-03 0.0 
0.0 0.0 0.0 
2.664207324515e-03 5.050444620487e-04 0.0 
5.050444620487e-04 5.118230148380e-04 0.0 
0.0 0.0 0.0 
4.995353976422e-05 2.940668674142e-03 0.0 
2.940668674142e-03 9.337967563778e-03 0.0 
0.0 0.0 0.0 
-1.581446299654e-03 3.501740065531e-04 0.0 
3.501740065531e-04 1.429662226689e-02 0.0 
0.0 0.0 0.0 
1.417178856768e-03 2.288660570262e-03 0.0 
2.288660570262e-03 6.164300556948e-03 0.0 
0.0 0.0 0.0 
2.036270134793e-04 -2.565139016573e-04 0.0 
-2.565139016573e-04 4.497967780288e-03 0.0 
0.0 0.0 0.0 
3.372568238111e-04 -3.532061741413e-04 0.0 
-3.532061741413e-04 4.371688248689e-03 0.0 
0.0 0.0 0.0 
-1.735682179866e-03 2.221777505033e-03 0.0 
2.221777505033e-03 8.197336193421e-03 0.0 
0.0 0.0 0.0 
2.356280768233e-03 -2.619086763836e-04 0.0 
-2.619086763836e-04 8.826571277494e-04 0.0 
0.0 0.0 0.0 
2.189927085874e-04 -1.687051612909e-04 0.0 
-1.687051612909e-04 4.726666837644e-03 0.0 
0.0 0.0 0.0 
-1.035127737035e-03 5.766076479683e-05 0.0 
5.766076479683e-05 1.499493243257e-02 0.0 
0.0 0.0 0.0 
-1.110398322980e-03 4.744047089420e-05 0.0 
4.744047089420e-05 1.464795852685e-02 0.0 
0.0 0.0 0.0 
-1.727785111738e-03 2.221426593992e-03 0.0 
2.221426593992e-03 8.920647298017e-03 0.0 
0.0 0.0 0.0 
3.588531410719e-04 -2.494286487427e-04 0.0 
-2.494286487427e-04 4.633646069804e-03 0.0 
0.0 0.0 0.0 
1.593390382548e-03 -1.496967404873e-03 0.0 
-1.496967404873e-03 4.786083522266e-04 0.0 
0.0 0.0 0.0 
-5.560444337879e-04 3.276951086887e-03 0.0 
3.276951086887e-03 1.481403657296e-03 0.0 
0.0 0.0 0.0 
8.716858159372e-04 2.372287782712e-03 0.0 
2.372287782712e-03 7.402831655898e-03 0.0 
0.0 0.0 0.0 
-4.267370144085e-04 -1.340768409619e-03 0.0 
-1.340768409619e-03 1.329815211122e-03 0.0 
0.0 0.0 0.0 
1.715336281536e-03 -1.234284691273e-03 0.0 
-1.234284691273e-03 9.951433682973e-04 0.0 
0.0 0.0 0.0 
1.840637792744e-03 1.937853035537e-03 0.0 
1.937853035537e-03 4.405740581252e-03 0.0 
0.0 0.0 0.0 
-1.493314252714e-03 2.026286805874e-03 0.0 
2.026286805874e-03 9.651036370443e-03 0.0 
0.0 0.0 0.0 
1.634407677735e-04 -1.791631066383e-04 0.0 
-1.791631066383e-04 4.730126437567e-03 0.0 
0.0 0.0 0.0 
5.068490197546e-05 -6.039037223069e-05 0.0 
-6.039037223069e-05 2.253195952725e-03 0.0 
0.0 0.0 0.0 
-2.190905129643e-03 1.393057218654e-03 0.0 
1.393057218654e-03 1.370263891562e-02 0.0 
0.0 0.0 0.0 
2.667608742171e-04 -2.698791351026e-04 0.0 
-2.698791351026e-04 4.637920944537e-03 0.0 
0.0 0.0 0.0 
1.885833556251e-03 -3.456117548289e-04 0.0 
-3.456117548289e-04 2.212851014300e-03 0.0 
0.0 0.0 0.0 
5.183749511593e-04 -5.495699483959e-04 0.0 
-5.495699483959e-04 3.790427194783e-03 0.0 
0.0 0.0 0.0 
-6.537606697243e-05 2.611005696165e-03 0.0 
2.611005696165e-03 -2.155658314781e-03 0.0 
0.0 0.0 0.0 
-6.944662788665e-04 5.429340880479e-05 0.0 
5.429340880479e-05 1.596631661557e-02 0.0 
0.0 0.0 0.0 
1.951798227122e-03 -8.552263417734e-04 0.0 
-8.552263417734e-04 1.058897721835e-03 0.0 
0.0 0.0 0.0 
1.298809050255e-03 1.482278704832e-03 0.0 
1.482278704832e-03 5.814591729011e-03 0.0 
0.0 0.0 0.0 
1.165303509440e-03 2.543324326208e-03 0.0 
2.543324326208e-03 6.636419923346e-03 0.0 
0.0 0.0 0.0 
2.812636538563e-04 -1.767959261585e-04 0.0 
-1.767959261585e-04 4.884098538121e-03 0.0 
0.0 0.0 0.0 
2.091616296456e-04 -1.949550862383e-04 0.0 
-1.949550862383e-04 4.887755205543e-03 0.0 
0.0 0.0 0.0 
2.647989504261e-03 5.792931597103e-06 0.0 
5.792931597103e-06 1.182751389364e-04 0.0 
0.0 0.0 0.0 
-7.547972390741e-04 -1.279702218800e-03 0.0 
-1.279702218800e-03 9.567111179105e-04 0.0 
0.0 0.0 0.0 
1.245882050656e-04 3.067459679795e-03 0.0 
3.067459679795e-03 -2.247863789393e-03 0.0 
0.0 0.0 0.0 
2.168833394802e-04 -1.142966116222e-04 0.0 
-1.142966116222e-04 5.122298404526e-03 0.0 
0.0 0.0 0.0 
1.236280271047e-03 1.092142599060e-03 0.0 
1.092142599060e-03 5.599306008986e-03 0.0 
0.0 0.0 0.0 
9.882699040631e-04 -1.605862286635e-03 0.0 
-1.605862286635e-03 1.157531972796e-03 0.0 
0.0 0.0 0.0 
2.837213177440e-04 2.965667246763e-03 0.0 
2.965667246763e-03 8.916750803178e-03 0.0 
0.0 0.0 0.0 
-8.078926878777e-04 2.650761821449e-03 0.0 
2.650761821449e-03 6.621526473560e-03 0.0 
0.0 0.0 0.0 
-1.659105532250e-04 2.967900940964e-03 0.0 
2.967900940964e-03 1.011716091357e-02 0.0 
0.0 0.0 0.0 
5.152134356103e-04 6.909030810068e-04 0.0 
6.909030810068e-04 6.818864956479e-03 0.0 
0.0 0.0 0.0 
-4.468617506986e-03 -1.200546801181e-04 0.0 
-1.200546801181e-04 -2.894421601102e-03 0.0 
0.0 0.0 0.0 
0.0 1.880799784847e-04 0.0 
1.880799784847e-04 1.668029903679e-02 0.0 
0.0 0.0 0.0 
0.0 1.790422277665e-05 0.0 
1.790422277665e-05 7.614419801667e-03 0.0 
0.0 0.0 0.0 
-1.173229442330e-03 -3.383533173308e-05 0.0 
-3.383533173308e-05 1.400498413452e-02 0.0 
0.0 0.0 0.0 
1.442809465018e-03 -1.172720097888e-03 0.0 
-1.172720097888e-03 1.483510606613e-03 0.0 
0.0 0.0 0.0 
9.978846322301e-04 2.659864342982e-03 0.0 
2.659864342982e-03 6.947985327097e-03 0.0 
0.0 0.0 0.0 
2.601111012284e-03 4.196977605668e-04 0.0 
4.196977605668e-04 3.974964767506e-04 0.0 
0.0 0.0 0.0 
1.428028835160e-04 -3.021806584170e-04 0.0 
-3.021806584170e-04 9.479994316886e-04 0.0 
0.0 0.0 0.0 
-2.011760821394e-03 3.019207937600e-03 0.0 
3.019207937600e-03 9.710684761128e-04 0.0 
0.0 0.0 0.0 
-6.714200457322e-04 5.623181667723e-04 0.0 
5.623181667723e-04 1.619686480534e-02 0.0 
0.0 0.0 0.0 
-1.535947253525e-03 2.381173852262e-03 0.0 
2.381173852262e-03 1.326011507190e-02 0.0 
0.0 0.0 0.0 
-2.319335561991e-03 1.235965971188e-03 0.0 
1.235965971188e-03 1.352032995593e-02 0.0 
0.0 0.0 0.0 
2.204893259063e-04 3.535257849547e-03 0.0 
3.535257849547e-03 1.011787538939e-02 0.0 
0.0 0.0 0.0 
1.009322811727e-04 -4.950380687908e-05 0.0 
-4.950380687908e-05 1.859553216479e-03 0.0 
0.0 0.0 0.0 
2.450118205830e-04 3.361509384472e-03 0.0 
3.361509384472e-03 9.681675012946e-03 0.0 
0.0 0.0 0.0 
-1.457999601464e-03 2.234464396762e-03 0.0 
2.234464396762e-03 1.328458738671e-02 0.0 
0.0 0.0 0.0 
9.591953830503e-04 -1.230087886729e-03 0.0 
-1.230087886729e-03 1.978317042033e-03 0.0 
0.0 0.0 0.0 
1.195396957492e-03 2.648954619443e-03 0.0 
2.648954619443e-03 6.134820199632e-03 0.0 
0.0 0.0 0.0 
1.469272613563e-03 -1.205945727960e-03 0.0 
-1.205945727960e-03 1.500320020535e-03 0.0 
0.0 0.0 0.0 
-6.683172275480e-04 3.184899354713e-03 0.0 
3.184899354713e-03 2.432570560818e-03 0.0 
0.0 0.0 0.0 
1.118858515930e-03 -1.354627226544e-03 0.0 
-1.354627226544e-03 1.614217215602e-03 0.0 
0.0 0.0 0.0 
-9.669262136670e-04 2.657963595712e-03 0.0 
2.657963595712e-03 1.243473508088e-02 0.0 
0.0 0.0 0.0 
1.070364752100e-04 -3.284373271403e-05 0.0 
-3.284373271403e-05 6.401127853173e-03 0.0 
0.0 0.0 0.0 
2.032054792534e-03 -9.151553329527e-04 0.0 
-9.151553329527e-04 9.354898787213e-04 0.0 
0.0 0.0 0.0 
8.011609138792e-05 3.002871048069e-03 0.0 
3.002871048069e-03 9.696984337685e-03 0.0 
0.0 0.0 0.0 
-1.610476520888e-03 -2.607292085686e-04 0.0 
-2.607292085686e-04 -4.389925030433e-03 0.0 
0.0 0.0 0.0 
2.480221193270e-03 -3.158683926804e-04 0.0 
-3.158683926804e-04 5.353474273886e-04 0.0 
0.0 0.0 0.0 
-1.396677610141e-03 2.369878701256e-03 0.0 
2.369878701256e-03 1.394711989452e-02 0.0 
0.0 0.0 0.0 
6.366733922292e-04 -1.235755898423e-03 0.0 
-1.235755898423e-03 2.109123764068e-03 0.0 
0.0 0.0 0.0 
6.375680997210e-04 -1.642915920750e-03 0.0 
-1.642915920750e-03 1.329738503656e-03 0.0 
0.0 0.0 0.0 
1.241701174255e-03 2.519984474946e-03 0.0 
2.519984474946e-03 6.155648624012e-03 0.0 
0.0 0.0 0.0 
1.073481737472e-03 -2.331646439878e-03 0.0 
-2.331646439878e-03 -1.191523518144e-03 0.0 
0.0 0.0 0.0 
-1.774304285892e-03 2.292194842796e-03 0.0 
2.292194842796e-03 6.790422070942e-03 0.0 
0.0 0.0 0.0 
-1.776062185021e-03 2.385505403234e-03 0.0 
2.385505403234e-03 7.525620516472e-03 0.0 
0.0 0.0 0.0 
4.400758928003e-04 -1.363167842948e-03 0.0 
-1.363167842948e-03 1.853543069574e-03 0.0 
0.0 0.0 0.0 
1.807172051935e-03 -1.139574698862e-04 0.0 
-1.139574698862e-04 2.793556418625e-03 0.0 
0.0 0.0 0.0 
1.889689049324e-03 2.173141411821e-03 0.0 
2.173141411821e-03 3.808748175001e-03 0.0 
0.0 0.0 0.0 
7.021400815677e-05 2.976847404747e-03 0.0 
2.976847404747e-03 9.699986619852e-03 0.0 
0.0 0.0 0.0 
-3.570442203155e-04 3.033558069410e-03 0.0 
3.033558069410e-03 1.308797178084e-02 0.0 
0.0 0.0 0.0 
-1.514520423945e-03 2.133334970484e-03 0.0 
2.133334970484e-03 8.213394264501e-03 0.0 
0.0 0.0 0.0 
-9.430704906733e-04 1.991411034330e-05 0.0 
1.991411034330e-05 1.534565562493e-02 0.0 
0.0 0.0 0.0 
1.264931033722e-04 3.244431656269e-03 0.0 
3.244431656269e-03 1.087005897079e-02 0.0 
0.0 0.0 0.0 
2.737314713176e-03 4.310593112846e-04 0.0 
4.310593112846e-04 -2.246442542966e-04 0.0 
0.0 0.0 0.0 
-1.099760925107e-03 3.138006120441e-03 0.0 
3.138006120441e-03 1.533635449343e-03 0.0 
0.0 0.0 0.0 
-9.669126005445e-04 2.679344035978e-03 0.0 
2.679344035978e-03 7.380082903224e-03 0.0 
0.0 0.0 0.0 
1.676063893790e-03 -4.011677268567e-04 0.0 
-4.011677268567e-04 2.583380495343e-03 0.0 
0.0 0.0 0.0 
-3.327296412921e-04 2.970983191055e-03 0.0 
2.970983191055e-03 1.086637498956e-02 0.0 
0.0 0.0 0.0 
1.938298578430e-03 -1.926593737022e-04 0.0 
-1.926593737022e-04 2.550234171683e-03 0.0 
0.0 0.0 0.0 
1.002915850235e-03 2.708789602010e-03 0.0 
2.708789602010e-03 -1.768969301265e-03 0.0 
0.0 0.0 0.0 
1.695861772483e-03 1.021833440124e-04 0.0 
1.021833440124e-04 3.375814604841e-03 0.0 
0.0 0.0 0.0 
-7.978910464520e-04 3.110688844933e-03 0.0 
3.110688844933e-03 3.336660168265e-03 0.0 
0.0 0.0 0.0 
1.931380238690e-03 1.923382891227e-03 0.0 
1.923382891227e-03 3.844200135537e-03 0.0 
0.0 0.0 0.0 
1.845609278627e-03 2.239833737696e-05 0.0 
2.239833737696e-05 3.106605672117e-03 0.0 
0.0 0.0 0.0 
1.378475408903e-03 2.521954639475e-03 0.0 
2.521954639475e-03 5.861953215691e-03 0.0 
0.0 0.0 0.0 
-1.133578337014e-03 1.072974105922e-04 0.0 
1.072974105922e-04 1.493064456076e-02 0.0 
0.0 0.0 0.0 
2.819896574648e-04 -1.344953434698e-03 0.0 
-1.344953434698e-03 1.851792212577e-03 0.0 
0.0 0.0 0.0 
-3.556386798796e-04 3.309088317921e-03 0.0 
3.309088317921e-03 4.535227897220e-04 0.0 
0.0 0.0 0.0 
1.720869272086e-03 2.258984992927e-04 0.0 
2.258984992927e-04 3.680794756492e-03 0.0 
0.0 0.0 0.0 
-7.848294206463e-04 2.943431558840e-03 0.0 
2.943431558840e-03 4.154319755481e-03 0.0 
0.0 0.0 0.0 
2.942765687506e-04 8.473484562691e-04 0.0 
8.473484562691e-04 -4.680470502272e-03 0.0 
0.0 0.0 0.0 
-4.480308278515e-04 1.101445100573e-04 0.0 
1.101445100573e-04 1.624687742179e-02 0.0 
0.0 0.0 0.0 
-6.466201145441e-04 9.445822171360e-05 0.0 
9.445822171360e-05 1.596788750416e-02 0.0 
0.0 0.0 0.0 
-4.352504851076e-04 -3.778410539521e-04 0.0 
-3.778410539521e-04 5.761457262305e-04 0.0 
0.0 0.0 0.0 
1.553670792708e-03 3.085356545935e-04 0.0 
3.085356545935e-04 3.972566531844e-03 0.0 
0.0 0.0 0.0 
-4.446948511783e-05 -1.146912136510e-03 0.0 
-1.146912136510e-03 1.690066147666e-03 0.0 
0.0 0.0 0.0 
-2.352457182953e-05 -1.048312609061e-03 0.0 
-1.048312609061e-03 1.923691924214e-03 0.0 
0.0 0.0 0.0 
1.116297609993e-04 3.072316764646e-03 0.0 
3.072316764646e-03 1.008516180812e-02 0.0 
0.0 0.0 0.0 
1.401325768797e-03 2.367761831678e-03 0.0 
2.367761831678e-03 5.882779120020e-03 0.0 
0.0 0.0 0.0 
2.969125114931e-04 3.014904857426e-03 0.0 
3.014904857426e-03 9.317179172710e-03 0.0 
0.0 0.0 0.0 
2.190427055396e-03 -7.175460156524e-04 0.0 
-7.175460156524e-04 6.116946856289e-04 0.0 
0.0 0.0 0.0 
-1.224816792094e-03 8.849697032760e-06 0.0 
8.849697032760e-06 1.357478169536e-02 0.0 
0.0 0.0 0.0 
2.258184309691e-04 4.962115245944e-04 0.0 
4.962115245944e-04 6.833273009277e-03 0.0 
0.0 0.0 0.0 
-1.897881259801e-04 -9.816032101183e-04 0.0 
-9.816032101183e-04 1.670818178870e-03 0.0 
0.0 0.0 0.0 
1.322268160633e-03 1.445280244407e-03 0.0 
1.445280244407e-03 5.615287431394e-03 0.0 
0.0 0.0 0.0 
1.711047354710e-03 2.154725236136e-03 0.0 
2.154725236136e-03 4.603122228392e-03 0.0 
0.0 0.0 0.0 
1.497539603712e-04 -1.343849769722e-04 0.0 
-1.343849769722e-04 1.372102276096e-03 0.0 
0.0 0.0 0.0 
-5.916039418731e-04 2.867815947468e-03 0.0 
2.867815947468e-03 1.129728469040e-02 0.0 
0.0 0.0 0.0 
2.573067098892e-03 1.523216045379e-04 0.0 
1.523216045379e-04 8.095798256464e-04 0.0 
0.0 0.0 0.0 
-7.210614486965e-04 -1.341658256599e-03 0.0 
-1.341658256599e-03 7.825889389956e-04 0.0 
0.0 0.0 0.0 
2.524443674593e-03 -5.209918372397e-04 0.0 
-5.209918372397e-04 -1.103313584591e-04 0.0 
0.0 0.0 0.0 
1.204258890699e-04 1.007165744306e-05 0.0 
1.007165744306e-05 5.422011753995e-03 0.0 
0.0 0.0 0.0 
-1.020546804660e-03 2.754130008266e-03 0.0 
2.754130008266e-03 1.241297478381e-02 0.0 
0.0 0.0 0.0 
-3.362610106959e-04 -1.379347822975e-03 0.0 
-1.379347822975e-03 1.074843243019e-03 0.0 
0.0 0.0 0.0 
9.809608457956e-05 -9.691705526888e-05 0.0 
-9.691705526888e-05 4.348950852397e-03 0.0 
0.0 0.0 0.0 
-1.003417199477e-04 3.037867464642e-03 0.0 
3.037867464642e-03 1.046309386587e-02 0.0 
0.0 0.0 0.0 
1.151878401898e-03 2.378470451417e-03 0.0 
2.378470451417e-03 6.862106902832e-03 0.0 
0.0 0.0 0.0 
7.677037351272e-04 -1.407279054922e-03 0.0 
-1.407279054922e-03 1.739124063649e-03 0.0 
0.0 0.0 0.0 
3.790219371513e-05 -9.335135528416e-05 0.0 
-9.335135528416e-05 2.252468081813e-03 0.0 
0.0 0.0 0.0 
1.830547059887e-03 2.164530250367e-03 0.0 
2.164530250367e-03 4.374483857327e-03 0.0 
0.0 0.0 0.0 
-1.071422308263e-03 -3.075490454887e-05 0.0 
-3.075490454887e-05 1.479318429953e-02 0.0 
0.0 0.0 0.0 
-6.151667833090e-04 -1.858970887758e-03 0.0 
-1.858970887758e-03 3.908708948006e-04 0.0 
0.0 0.0 0.0 
1.368462569233e-04 3.544237982590e-03 0.0 
3.544237982590e-03 1.087685765672e-02 0.0 
0.0 0.0 0.0 
-2.887858033894e-04 2.907049026294e-03 0.0 
2.907049026294e-03 1.414402402698e-02 0.0 
0.0 0.0 0.0 
-1.149030446920e-03 -1.733526388612e-05 0.0 
-1.733526388612e-05 1.425029690406e-02 0.0 
0.0 0.0 0.0 
-7.633694220280e-04 1.531380562695e-03 0.0 
1.531380562695e-03 1.605158260088e-02 0.0 
0.0 0.0 0.0 
-1.619054577765e-04 3.211563473450e-03 0.0 
3.211563473450e-03 1.320802406181e-02 0.0 
0.0 0.0 0.0 
2.266723321664e-03 -5.315986438791e-04 0.0 
-5.315986438791e-04 9.978260133350e-04 0.0 
0.0 0.0 0.0 
1.678691833885e-03 -1.193774832028e-03 0.0 
-1.193774832028e-03 9.893876701166e-04 0.0 
0.0 0.0 0.0 
7.246767215228e-04 1.957379975242e-03 0.0 
1.957379975242e-03 7.329694111840e-03 0.0 
0.0 0.0 0.0 
-1.395007669199e-03 3.712528932783e-04 0.0 
3.712528932783e-04 -4.270626233929e-03 0.0 
0.0 0.0 0.0 
6.580749963891e-05 -1.601717888746e-05 0.0 
-1.601717888746e-05 2.045860388089e-03 0.0 
0.0 0.0 0.0 
1.075120744396e-04 -3.286383670426e-05 0.0 
-3.286383670426e-05 4.457046788632e-03 0.0 
0.0 0.0 0.0 
5.271823294086e-04 -1.440354007206e-03 0.0 
-1.440354007206e-03 1.747003619887e-03 0.0 
0.0 0.0 0.0 
1.987381866240e-03 -1.189452766714e-03 0.0 
-1.189452766714e-03 4.369996852562e-04 0.0 
0.0 0.0 0.0 
-1.871617585407e-03 2.440024419355e-03 0.0 
2.440024419355e-03 5.405300898240e-03 0.0 
0.0 0.0 0.0 
-1.901094498240e-03 2.559971856018e-03 0.0 
2.559971856018e-03 6.110258582310e-03 0.0 
0.0 0.0 0.0 
-1.568600742382e-03 2.578176086933e-04 0.0 
2.578176086933e-04 1.434068220850e-02 0.0 
0.0 0.0 0.0 
2.413438993411e-03 -4.780608593608e-04 0.0 
-4.780608593608e-04 2.004468999823e-04 0.0 
0.0 0.0 0.0 
1.383065900984e-05 -2.799848452021e-04 0.0 
-2.799848452021e-04 2.390678891275e-03 0.0 
0.0 0.0 0.0 
1.172847642226e-03 2.602446853652e-03 0.0 
2.602446853652e-03 6.946353573935e-03 0.0 
0.0 0.0 0.0 
1.462761689748e-04 2.859721158484e-04 0.0 
2.859721158484e-04 7.437137637563e-03 0.0 
0.0 0.0 0.0 
1.730519990575e-04 3.805228630831e-04 0.0 
3.805228630831e-04 7.376918486715e-03 0.0 
0.0 0.0 0.0 
1.779392598542e-03 -9.672592194965e-04 0.0 
-9.672592194965e-04 1.442823111181e-03 0.0 
0.0 0.0 0.0 
-1.679517727718e-03 2.911371453368e-04 0.0 
2.911371453368e-04 1.406247451503e-02 0.0 
0.0 0.0 0.0 
-1.553510792311e-03 -2.301387264443e-05 0.0 
-2.301387264443e-05 -3.772588033935e-03 0.0 
0.0 0.0 0.0 
-1.994158409288e-03 2.725003090967e-03 0.0 
2.725003090967e-03 4.011065970981e-03 0.0 
0.0 0.0 0.0 
1.010232032589e-03 -2.729691504639e-03 0.0 
-2.729691504639e-03 -1.924437859338e-03 0.0 
0.0 0.0 0.0 
-1.986909469999e-03 2.616328922669e-03 0.0 
2.616328922669e-03 4.753396912091e-03 0.0 
0.0 0.0 0.0 
1.626182136483e-03 2.161361469451e-03 0.0 
2.161361469451e-03 5.132522783811e-03 0.0 
0.0 0.0 0.0 
1.336881223274e-03 -1.462041893169e-03 0.0 
-1.462041893169e-03 1.138180918914e-03 0.0 
0.0 0.0 0.0 
1.934883779390e-03 -1.142136248208e-03 0.0 
-1.142136248208e-03 4.766650212842e-04 0.0 
0.0 0.0 0.0 
5.699981421436e-04 -2.728641502791e-03 0.0 
-2.728641502791e-03 -3.086578391434e-03 0.0 
0.0 0.0 0.0 
-5.633064137863e-04 1.566237001825e-04 0.0 
1.566237001825e-04 1.602794643505e-02 0.0 
0.0 0.0 0.0 
1.351242387533e-03 -1.452345648059e-03 0.0 
-1.452345648059e-03 1.028569104574e-03 0.0 
0.0 0.0 0.0 
-5.457159291001e-04 5.843087446091e-04 0.0 
5.843087446091e-04 1.619269384876e-02 0.0 
0.0 0.0 0.0 
-7.994819050899e-04 1.869990225650e-04 0.0 
1.869990225650e-04 1.578639057804e-02 0.0 
0.0 0.0 0.0 
-2.185332422894e-04 2.629934680626e-04 0.0 
2.629934680626e-04 1.666836709165e-02 0.0 
0.0 0.0 0.0 
2.598449654956e-05 2.273854866617e-05 0.0 
2.273854866617e-05 7.613399621149e-03 0.0 
0.0 0.0 0.0 
-1.159787046303e-03 3.624690226106e-05 0.0 
3.624690226106e-05 1.426275779049e-02 0.0 
0.0 0.0 0.0 
1.137846440106e-03 -1.355776047711e-03 0.0 
-1.355776047711e-03 1.528134890310e-03 0.0 
0.0 0.0 0.0 
-1.602917957511e-03 2.312639980702e-03 0.0 
2.312639980702e-03 6.792020499386e-03 0.0 
0.0 0.0 0.0 
1.250331020805e-03 -1.127506512641e-03 0.0 
-1.127506512641e-03 1.959085091751e-03 0.0 
0.0 0.0 0.0 
0.0 1.879681876110e-04 0.0 
1.879681876110e-04 7.489424065621e-03 0.0 
0.0 0.0 0.0 
-1.928252406706e-03 2.845364567434e-03 0.0 
2.845364567434e-03 2.467125827893e-03 0.0 
0.0 0.0 0.0 
-1.944403895260e-03 2.782907540486e-03 0.0 
2.782907540486e-03 3.251976425267e-03 0.0 
0.0 0.0 0.0 
1.190917122920e-03 1.726248299887e-03 0.0 
1.726248299887e-03 6.159321928546e-03 0.0 
0.0 0.0 0.0 
-1.391208352692e-03 1.283790436310e-04 0.0 
1.283790436310e-04 1.398509281870e-02 0.0 
0.0 0.0 0.0 
-4.874621161625e-04 3.895566063635e-04 0.0 
3.895566063635e-04 1.623338933745e-02 0.0 
0.0 0.0 0.0 
-1.344839483876e-04 3.017035218027e-03 0.0 
3.017035218027e-03 1.046443729902e-02 0.0 
0.0 0.0 0.0 
1.003565243859e-03 2.582532400992e-03 0.0 
2.582532400992e-03 7.409930535195e-03 0.0 
0.0 0.0 0.0 
-6.638628593240e-04 2.983877176122e-03 0.0 
2.983877176122e-03 1.221607016008e-02 0.0 
0.0 0.0 0.0 
-1.184239887009e-03 9.616261880288e-05 0.0 
9.616261880288e-05 1.436300222406e-02 0.0 
0.0 0.0 0.0 
3.263144248264e-04 -1.565665089943e-03 0.0 
-1.565665089943e-03 1.505834308576e-03 0.0 
0.0 0.0 0.0 
5.344370923293e-04 -1.565608076171e-03 0.0 
-1.565608076171e-03 1.504932839592e-03 0.0 
0.0 0.0 0.0 
-9.791670332244e-04 1.034398427351e-04 0.0 
1.034398427351e-04 1.517009434777e-02 0.0 
0.0 0.0 0.0 
9.198022829908e-04 2.561860194987e-03 0.0 
2.561860194987e-03 7.523486289311e-03 0.0 
0.0 0.0 0.0 
-1.919532620680e-03 5.031428337903e-04 0.0 
5.031428337903e-04 1.373821753166e-02 0.0 
0.0 0.0 0.0 
-1.202724621823e-03 1.131458802781e-05 0.0 
1.131458802781e-05 1.392022581556e-02 0.0 
0.0 0.0 0.0 
-1.190245020536e-03 2.407113461501e-05 0.0 
2.407113461501e-05 1.425415622789e-02 0.0 
0.0 0.0 0.0 
-1.249476237532e-03 4.429455140827e-05 0.0 
4.429455140827e-05 1.438354707513e-02 0.0 
0.0 0.0 0.0 
1.935148150543e-03 -1.455266910555e-03 0.0 
-1.455266910555e-03 -3.330850775770e-03 0.0 
0.0 0.0 0.0 
1.953375533295e-04 -1.441944266136e-03 0.0 
-1.441944266136e-03 1.650996734639e-03 0.0 
0.0 0.0 0.0 
-4.809655873702e-04 8.696280508154e-04 0.0 
8.696280508154e-04 1.638075154323e-02 0.0 
0.0 0.0 0.0 
-1.215503487647e-03 1.092412057633e-04 0.0 
1.092412057633e-04 1.477171216201e-02 0.0 
0.0 0.0 0.0 
4.659530147852e-04 2.484392569858e-03 0.0 
2.484392569858e-03 8.025983309943e-03 0.0 
0.0 0.0 0.0 
-5.548765792120e-04 3.185333586472e-03 0.0 
3.185333586472e-03 1.302556938991e-02 0.0 
0.0 0.0 0.0 
-6.109888871804e-04 2.915007274542e-03 0.0 
2.915007274542e-03 1.128867979679e-02 0.0 
0.0 0.0 0.0 
-9.589297231716e-04 1.588634584019e-03 0.0 
1.588634584019e-03 1.582983265581e-02 0.0 
0.0 0.0 0.0 
1.085827368699e-04 -3.662629967501e-04 0.0 
-3.662629967501e-04 3.263145840277e-03 0.0 
0.0 0.0 0.0 
5.232169920077e-05 -3.962985447580e-04 0.0 
-3.962985447580e-04 2.966842876448e-03 0.0 
0.0 0.0 0.0 
4.860552509851e-04 4.787601280696e-04 0.0 
4.787601280696e-04 6.372006458645e-03 0.0 
0.0 0.0 0.0 
2.243585652124e-04 -1.737514509897e-03 0.0 
-1.737514509897e-03 -3.614616183531e-03 0.0 
0.0 0.0 0.0 
7.449955163197e-05 -1.120767792745e-04 0.0 
-1.120767792745e-04 2.150815942342e-03 0.0 
0.0 0.0 0.0 
0.0 3.279576357959e-03 0.0 
3.279576357959e-03 9.882874529593e-03 0.0 
0.0 0.0 0.0 
2.937829251892e-04 -2.536831287590e-05 0.0 
-2.536831287590e-05 9.439372372533e-04 0.0 
0.0 0.0 0.0 
-1.187297574139e-03 1.898743677024e-05 0.0 
1.898743677024e-05 1.392378239072e-02 0.0 
0.0 0.0 0.0 
9.732159896765e-04 1.486971722655e-03 0.0 
1.486971722655e-03 6.515694718029e-03 0.0 
0.0 0.0 0.0 
-1.831345035705e-04 -4.179386328310e-04 0.0 
-4.179386328310e-04 6.796030927716e-04 0.0 
0.0 0.0 0.0 
4.893672989774e-04 -1.074444742430e-04 0.0 
-1.074444742430e-04 1.649370814998e-04 0.0 
0.0 0.0 0.0 
-3.367192512549e-04 1.365076038862e-03 0.0 
1.365076038862e-03 1.637016491901e-02 0.0 
0.0 0.0 0.0 
-1.325064599759e-03 2.060054684807e-05 0.0 
2.060054684807e-05 1.360766989376e-02 0.0 
0.0 0.0 0.0 
-5.310421372529e-04 1.183845870962e-03 0.0 
1.183845870962e-03 1.624175145755e-02 0.0 
0.0 0.0 0.0 
7.555727455792e-04 1.712998027292e-03 0.0 
1.712998027292e-03 6.669834045925e-03 0.0 
0.0 0.0 0.0 
-1.310681121015e-03 7.250934455706e-06 0.0 
7.250934455706e-06 1.359449712389e-02 0.0 
0.0 0.0 0.0 
-1.399227309421e-03 5.932144554732e-04 0.0 
5.932144554732e-04 -3.685806393081e-03 0.0 
0.0 0.0 0.0 
-2.354908142050e-04 1.945827732061e-04 0.0 
1.945827732061e-04 1.647174237581e-02 0.0 
0.0 0.0 0.0 
1.128930531857e-04 -2.899871776511e-04 0.0 
-2.899871776511e-04 1.137934173203e-03 0.0 
0.0 0.0 0.0 
-5.501549075203e-04 9.666501686616e-04 0.0 
9.666501686616e-04 1.617777008255e-02 0.0 
0.0 0.0 0.0 
0.0 1.175087705685e-04 0.0 
1.175087705685e-04 7.533958836522e-03 0.0 
0.0 0.0 0.0 
-6.926498831126e-04 2.805951060384e-03 0.0 
2.805951060384e-03 1.397670460046e-02 0.0 
0.0 0.0 0.0 
2.353396362324e-03 -1.369883615674e-03 0.0 
-1.369883615674e-03 -3.085838608111e-03 0.0 
0.0 0.0 0.0 
-1.812028710317e-03 7.100585117399e-04 0.0 
7.100585117399e-04 1.422920631931e-02 0.0 
0.0 0.0 0.0 
4.607719166971e-05 -2.460102207676e-04 0.0 
-2.460102207676e-04 3.329392688741e-03 0.0 
0.0 0.0 0.0 
1.113848145810e-03 2.449968708150e-03 0.0 
2.449968708150e-03 6.957842386659e-03 0.0 
0.0 0.0 0.0 
3.077436066303e-04 2.723477145957e-03 0.0 
2.723477145957e-03 8.642212933242e-03 0.0 
0.0 0.0 0.0 
-8.792604761078e-04 1.300163168324e-04 0.0 
1.300163168324e-04 1.553287257088e-02 0.0 
0.0 0.0 0.0 
3.750085389860e-04 2.477934625511e-03 0.0 
2.477934625511e-03 8.287227130666e-03 0.0 
0.0 0.0 0.0 
1.253898028378e-03 -1.306409816141e-03 0.0 
-1.306409816141e-03 -4.086487069406e-03 0.0 
0.0 0.0 0.0 
1.635456072795e-04 1.565831574347e-04 0.0 
1.565831574347e-04 7.084339677036e-03 0.0 
0.0 0.0 0.0 
1.842730444607e-03 -2.033831830148e-03 0.0 
-2.033831830148e-03 -1.771244606139e-03 0.0 
0.0 0.0 0.0 
2.273543641393e-04 -1.055335195704e-04 0.0 
-1.055335195704e-04 9.743792682060e-04 0.0 
0.0 0.0 0.0 
6.097617375900e-04 1.249848853075e-03 0.0 
1.249848853075e-03 6.946103579792e-03 0.0 
0.0 0.0 0.0 
-7.187609108759e-04 2.271056573219e-03 0.0 
2.271056573219e-03 1.549600191294e-02 0.0 
0.0 0.0 0.0 
-4.631176084009e-04 1.385112295443e-03 0.0 
1.385112295443e-03 1.620811086260e-02 0.0 
0.0 0.0 0.0 
-1.239458920192e-03 6.808840756137e-05 0.0 
6.808840756137e-05 1.392245019520e-02 0.0 
0.0 0.0 0.0 
-1.918425747748e-03 1.352263510631e-03 0.0 
1.352263510631e-03 1.388523034664e-02 0.0 
0.0 0.0 0.0 
-6.771391568339e-04 3.108236078182e-03 0.0 
3.108236078182e-03 2.428870342260e-03 0.0 
0.0 0.0 0.0 
-3.440818041535e-04 3.417077607714e-03 0.0 
3.417077607714e-03 1.305636674393e-02 0.0 
0.0 0.0 0.0 
2.720105217868e-05 -1.952939681917e-04 0.0 
-1.952939681917e-04 2.830056974339e-03 0.0 
0.0 0.0 0.0 
3.123363126711e-04 2.879799810674e-03 0.0 
2.879799810674e-03 -8.299242183217e-04 0.0 
0.0 0.0 0.0 
1.220758615720e-03 2.513212905993e-03 0.0 
2.513212905993e-03 6.844015770628e-03 0.0 
0.0 0.0 0.0 
-1.217501379418e-03 7.075554170754e-06 0.0 
7.075554170754e-06 1.355160343366e-02 0.0 
0.0 0.0 0.0 
-6.584407339084e-04 2.158652444862e-03 0.0 
2.158652444862e-03 1.528583303590e-02 0.0 
0.0 0.0 0.0 
-1.816685171531e-04 -1.287872204594e-05 0.0 
-1.287872204594e-05 1.667662243958e-02 0.0 
0.0 0.0 0.0 
0.0 9.083425857627e-05 0.0 
9.083425857627e-05 1.670237988367e-02 0.0 
0.0 0.0 0.0 
8.592060523274e-04 3.446258882352e-05 0.0 
3.446258882352e-05 -2.423844675165e-04 0.0 
0.0 0.0 0.0 
6.979773408264e-04 -2.981924434390e-05 0.0 
-2.981924434390e-05 -2.097194223503e-04 0.0 
0.0 0.0 0.0 
-1.193372961484e-03 -3.201579293376e-05 0.0 
-3.201579293376e-05 1.358923530844e-02 0.0 
0.0 0.0 0.0 
-1.221936971652e-03 2.483460806218e-06 0.0 
2.483460806218e-06 1.354880081112e-02 0.0 
0.0 0.0 0.0 
0.0 9.600844909103e-06 0.0 
9.600844909103e-06 7.629133090657e-03 0.0 
0.0 0.0 0.0 
1.920168981817e-05 2.792015453904e-05 0.0 
2.792015453904e-05 7.573292781579e-03 0.0 
0.0 0.0 0.0 
6.613337852535e-04 1.825148296776e-07 0.0 
1.825148296776e-07 5.118926306036e-05 0.0 
0.0 0.0 0.0 
-1.353978467888e-03 -4.137384992143e-04 0.0 
-4.137384992143e-04 -4.525148798238e-03 0.0 
0.0 0.0 0.0 
1.199499773219e-04 6.957660442821e-05 0.0 
6.957660442821e-05 6.789753673522e-03 0.0 
0.0 0.0 0.0 
6.222790949071e-04 3.125951780474e-03 0.0 
3.125951780474e-03 8.930022987241e-03 0.0 
0.0 0.0 0.0 
1.561807374513e-04 -2.789035471693e-04 0.0 
-2.789035471693e-04 1.309526541050e-03 0.0 
0.0 0.0 0.0 
2.442026864520e-04 1.896552076747e-04 0.0 
1.896552076747e-04 6.673546483629e-03 0.0 
0.0 0.0 0.0 
1.152338481019e-04 -3.321372809654e-05 0.0 
-3.321372809654e-05 4.768635574263e-03 0.0 
0.0 0.0 0.0 
7.190557079717e-05 -6.481288591977e-05 0.0 
-6.481288591977e-05 4.090477422637e-03 0.0 
0.0 0.0 0.0 
-1.132762591277e-03 1.320464913960e-04 0.0 
1.320464913960e-04 1.494536677343e-02 0.0 
0.0 0.0 0.0 
4.566953567942e-05 -2.443588078263e-03 0.0 
-2.443588078263e-03 -2.188586752586e-04 0.0 
0.0 0.0 0.0 
1.274444772171e-03 2.399695454024e-03 0.0 
2.399695454024e-03 6.408762021614e-03 0.0 
0.0 0.0 0.0 
1.824526932335e-04 -2.624572102815e-04 0.0 
-2.624572102815e-04 9.958179261025e-04 0.0 
0.0 0.0 0.0 
1.155381746694e-04 -2.997765128446e-04 0.0 
-2.997765128446e-04 3.636910290975e-03 0.0 
0.0 0.0 0.0 
-2.265902571551e-04 3.177322000253e-03 0.0 
3.177322000253e-03 1.267988238087e-02 0.0 
0.0 0.0 0.0 
-5.723044221020e-04 -1.873376178431e-05 0.0 
-1.873376178431e-05 1.613048075204e-02 0.0 
0.0 0.0 0.0 
9.690985088162e-05 -6.545569124043e-05 0.0 
-6.545569124043e-05 4.089022044867e-03 0.0 
0.0 0.0 0.0 
-1.157221735675e-03 1.180854570937e-05 0.0 
1.180854570937e-05 1.453789607240e-02 0.0 
0.0 0.0 0.0 
2.912255847416e-04 3.374049741232e-03 0.0 
3.374049741232e-03 1.017979613730e-02 0.0 
0.0 0.0 0.0 
-4.618590352001e-04 3.078296402013e-03 0.0 
3.078296402013e-03 1.186011345020e-02 0.0 
0.0 0.0 0.0 
-5.356991649964e-04 2.985032735321e-03 0.0 
2.985032735321e-03 1.156551144662e-02 0.0 
0.0 0.0 0.0 
-1.272256258633e-03 9.783330829227e-06 0.0 
9.783330829227e-06 1.358701275585e-02 0.0 
0.0 0.0 0.0 
1.501274865913e-03 2.202610417609e-03 0.0 
2.202610417609e-03 5.689332713806e-03 0.0 
0.0 0.0 0.0 
-6.070349139639e-04 2.491061790771e-03 0.0 
2.491061790771e-03 1.470080265387e-02 0.0 
0.0 0.0 0.0 
3.060891813766e-05 -1.850231547166e-04 0.0 
-1.850231547166e-04 2.163532912973e-03 0.0 
0.0 0.0 0.0 
-3.813185658452e-06 -3.086497567976e-04 0.0 
-3.086497567976e-04 3.346159184505e-04 0.0 
0.0 0.0 0.0 
1.581156695936e-04 3.138125173775e-03 0.0 
3.138125173775e-03 1.014483222174e-02 0.0 
0.0 0.0 0.0 
1.429667561413e-03 1.584574193328e-03 0.0 
1.584574193328e-03 5.605870043531e-03 0.0 
0.0 0.0 0.0 
1.201268923869e-04 -2.392223820023e-03 0.0 
-2.392223820023e-03 -5.781880181095e-04 0.0 
0.0 0.0 0.0 
-1.044952082654e-03 6.221124407499e-05 0.0 
6.221124407499e-05 1.519358843211e-02 0.0 
0.0 0.0 0.0 
5.091405834579e-05 6.230180004894e-05 0.0 
6.230180004894e-05 7.144809081810e-03 0.0 
0.0 0.0 0.0 
5.179373389590e-04 3.020003213585e-03 0.0 
3.020003213585e-03 9.083176540208e-03 0.0 
0.0 0.0 0.0 
3.924380169107e-04 3.278929332078e-03 0.0 
3.278929332078e-03 9.691920743621e-03 0.0 
0.0 0.0 0.0 
1.192967400689e-04 -5.088692888749e-05 0.0 
-5.088692888749e-05 5.163698506212e-03 0.0 
0.0 0.0 0.0 
8.079793245219e-05 2.541872833279e-03 0.0 
2.541872833279e-03 -3.549706152938e-03 0.0 
0.0 0.0 0.0 
-1.759631263979e-03 2.487296118077e-03 0.0 
2.487296118077e-03 5.409287397477e-03 0.0 
0.0 0.0 0.0 
-8.313283821699e-04 2.887842030676e-03 0.0 
2.887842030676e-03 4.152166609474e-03 0.0 
0.0 0.0 0.0 
-1.902723315220e-03 7.787327394494e-04 0.0 
7.787327394494e-04 1.432912640129e-02 0.0 
0.0 0.0 0.0 
1.521774572738e-03 2.383504733530e-03 0.0 
2.383504733530e-03 5.667464795802e-03 0.0 
0.0 0.0 0.0 
-5.747138880862e-04 7.004050833235e-04 0.0 
7.004050833235e-04 1.626247610017e-02 0.0 
0.0 0.0 0.0 
4.568576952360e-04 1.981375583748e-03 0.0 
1.981375583748e-03 7.355478675493e-03 0.0 
0.0 0.0 0.0 
-8.467191351424e-04 -1.732746245511e-03 0.0 
-1.732746245511e-03 3.238737314393e-04 0.0 
0.0 0.0 0.0 
-4.568998336482e-04 -8.088716510001e-04 0.0 
-8.088716510001e-04 6.669647050654e-04 0.0 
0.0 0.0 0.0 
-1.829293191816e-03 2.714440967167e-03 0.0 
2.714440967167e-03 4.009834437806e-03 0.0 
0.0 0.0 0.0 
-9.749390277508e-04 2.160239763389e-04 0.0 
2.160239763389e-04 1.530585034048e-02 0.0 
0.0 0.0 0.0 
3.205496713576e-05 -3.426332633252e-04 0.0 
-3.426332633252e-04 2.590571266519e-03 0.0 
0.0 0.0 0.0 
-8.075385266640e-04 1.817679070540e-03 0.0 
1.817679070540e-03 1.573158139359e-02 0.0 
0.0 0.0 0.0 
2.356221213569e-04 -1.519698243609e-04 0.0 
-1.519698243609e-04 1.226162778671e-03 0.0 
0.0 0.0 0.0 
8.768273714257e-04 1.901516002495e-03 0.0 
1.901516002495e-03 6.759993035266e-03 0.0 
0.0 0.0 0.0 
-1.430924341536e-03 2.267310590614e-04 0.0 
2.267310590614e-04 1.434586033871e-02 0.0 
0.0 0.0 0.0 
3.177236239649e-04 2.860100009733e-03 0.0 
2.860100009733e-03 8.770877148134e-03 0.0 
0.0 0.0 0.0 
8.935485797061e-04 2.660131109144e-03 0.0 
2.660131109144e-03 7.662913231883e-03 0.0 
0.0 0.0 0.0 
-2.042868285005e-03 1.048894137175e-03 0.0 
1.048894137175e-03 1.425396656638e-02 0.0 
0.0 0.0 0.0 
5.408708186845e-04 8.643629035827e-04 0.0 
8.643629035827e-04 6.852768991868e-03 0.0 
0.0 0.0 0.0 
-6.346458017693e-04 2.092787696839e-03 0.0 
2.092787696839e-03 1.568884567494e-02 0.0 
0.0 0.0 0.0 
-3.797991827238e-04 1.763692288741e-04 0.0 
1.763692288741e-04 1.648540434183e-02 0.0 
0.0 0.0 0.0 
-1.713871333151e-03 2.807235447424e-03 0.0 
2.807235447424e-03 2.465017143273e-03 0.0 
0.0 0.0 0.0 
-7.490247134133e-04 1.560347542999e-03 0.0 
1.560347542999e-03 1.583167408819e-02 0.0 
0.0 0.0 0.0 
5.818556081949e-05 3.370999316003e-03 0.0 
3.370999316003e-03 1.111547288187e-02 0.0 
0.0 0.0 0.0 
9.863662729901e-04 1.871515754238e-03 0.0 
1.871515754238e-03 6.767692275864e-03 0.0 
0.0 0.0 0.0 
1.029680491174e-03 2.681745081330e-03 0.0 
2.681745081330e-03 7.494340279937e-03 0.0 
0.0 0.0 0.0 
0.0 3.461902420024e-04 0.0 
3.461902420024e-04 7.415958876972e-03 0.0 
0.0 0.0 0.0 
-4.552151437366e-04 2.956622969667e-03 0.0 
2.956622969667e-03 1.156902041947e-02 0.0 
0.0 0.0 0.0 
-1.503584973442e-03 1.820308203665e-03 0.0 
1.820308203665e-03 -2.418726819979e-03 0.0 
0.0 0.0 0.0 
-2.221659813512e-04 3.194468111232e-03 0.0 
3.194468111232e-03 4.493870673130e-04 0.0 
0.0 0.0 0.0 
-5.234673641488e-04 3.109557289996e-03 0.0 
3.109557289996e-03 1.246623188874e-02 0.0 
0.0 0.0 0.0 
-1.757468869205e-03 8.241646589655e-04 0.0 
8.241646589655e-04 1.453775141530e-02 0.0 
0.0 0.0 0.0 
7.386075196902e-05 -1.064244936736e-05 0.0 
-1.064244936736e-05 6.837968200958e-03 0.0 
0.0 0.0 0.0 
6.962757641069e-04 2.764418319911e-03 0.0 
2.764418319911e-03 8.183672331733e-03 0.0 
0.0 0.0 0.0 
1.452830339639e-04 2.519221580667e-04 0.0 
2.519221580667e-04 7.024761081251e-03 0.0 
0.0 0.0 0.0 
-8.577635681176e-04 2.748662867558e-04 0.0 
2.748662867558e-04 1.565406233745e-02 0.0 
0.0 0.0 0.0 
3.022501113985e-04 2.695326226032e-03 0.0 
2.695326226032e-03 8.436276454633e-03 0.0 
0.0 0.0 0.0 
5.334749475774e-04 6.547868935333e-04 0.0 
6.547868935333e-04 6.418753951876e-03 0.0 
0.0 0.0 0.0 
6.155749468981e-04 7.519948622548e-04 0.0 
7.519948622548e-04 6.409758379714e-03 0.0 
0.0 0.0 0.0 
2.739458905587e-05 -2.379846657902e-04 0.0 
-2.379846657902e-04 2.712658365740e-03 0.0 
0.0 0.0 0.0 
1.319685238914e-04 2.035427885796e-04 0.0 
2.035427885796e-04 7.477743661900e-03 0.0 
0.0 0.0 0.0 
-1.546129623825e-03 2.585519707602e-04 0.0 
2.585519707602e-04 1.395255320961e-02 0.0 
0.0 0.0 0.0 
-5.709725651286e-04 3.548983728048e-04 0.0 
3.548983728048e-04 1.623797106969e-02 0.0 
0.0 0.0 0.0 
-5.458019377069e-04 -9.420916382129e-04 0.0 
-9.420916382129e-04 8.621467239187e-04 0.0 
0.0 0.0 0.0 
-7.040552707726e-04 1.531654239739e-04 0.0 
1.531654239739e-04 1.603444414126e-02 0.0 
0.0 0.0 0.0 
-1.062784843419e-03 1.302688226750e-04 0.0 
1.302688226750e-04 1.522230919060e-02 0.0 
0.0 0.0 0.0 
4.670609050030e-04 6.895512595989e-06 0.0 
6.895512595989e-06 5.494513201902e-04 0.0 
0.0 0.0 0.0 
2.249557338663e-03 -1.648781862834e-03 0.0 
-1.648781862834e-03 -3.660778796912e-03 0.0 
0.0 0.0 0.0 
-2.356536995757e-04 3.055316362967e-03 0.0 
3.055316362967e-03 1.120245650253e-02 0.0 
0.0 0.0 0.0 
-3.369106190912e-04 1.043559654774e-03 0.0 
1.043559654774e-03 1.632181650677e-02 0.0 
0.0 0.0 0.0 
-5.122043338446e-04 1.647369938497e-04 0.0 
1.647369938497e-04 1.627551526178e-02 0.0 
0.0 0.0 0.0 
7.036326178480e-04 2.685903825898e-03 0.0 
2.685903825898e-03 8.018083486623e-03 0.0 
0.0 0.0 0.0 
-1.195642883907e-03 1.518067059638e-04 0.0 
1.518067059638e-04 1.456970774043e-02 0.0 
0.0 0.0 0.0 
3.081980326234e-04 -1.237371863578e-04 0.0 
-1.237371863578e-04 2.208038078471e-04 0.0 
0.0 0.0 0.0 
7.068616356742e-04 1.914108010206e-03 0.0 
1.914108010206e-03 -3.957539788247e-03 0.0 
0.0 0.0 0.0 
2.591206072355e-05 -1.835196189771e-04 0.0 
-1.835196189771e-04 4.075083810642e-04 0.0 
0.0 0.0 0.0 
-4.203433079699e-04 -1.039691278338e-03 0.0 
-1.039691278338e-03 9.528449059508e-04 0.0 
0.0 0.0 0.0 
-1.431711925639e-03 3.416116100985e-03 0.0 
3.416116100985e-03 -1.769181996212e-03 0.0 
0.0 0.0 0.0 
7.956132291143e-05 -2.585101213555e-04 0.0 
-2.585101213555e-04 3.589642884523e-03 0.0 
0.0 0.0 0.0 
9.788697416147e-05 4.327907500952e-05 0.0 
4.327907500952e-05 6.836819147427e-03 0.0 
0.0 0.0 0.0 
-5.737107445080e-04 2.850069961425e-03 0.0 
2.850069961425e-03 1.398236200115e-02 0.0 
0.0 0.0 0.0 
-2.069458421633e-03 1.479264670895e-03 0.0 
1.479264670895e-03 1.416638645326e-02 0.0 
0.0 0.0 0.0 
8.896384318513e-05 -4.565332181685e-04 0.0 
-4.565332181685e-04 3.064776420282e-03 0.0 
0.0 0.0 0.0 
4.717386646975e-04 4.019761154958e-04 0.0 
4.019761154958e-04 6.398687546978e-03 0.0 
0.0 0.0 0.0 
1.002191097310e-03 1.267544879188e-03 0.0 
1.267544879188e-03 6.254140564173e-03 0.0 
0.0 0.0 0.0 
5.381961919537e-04 3.091134504845e-03 0.0 
3.091134504845e-03 8.929080441268e-03 0.0 
0.0 0.0 0.0 
1.269538294328e-04 3.195780503133e-03 0.0 
3.195780503133e-03 1.049520554645e-02 0.0 
0.0 0.0 0.0 
-1.489150817098e-04 3.166396632066e-03 0.0 
3.166396632066e-03 1.154343827853e-02 0.0 
0.0 0.0 0.0 
-5.411949560513e-04 -7.334736460581e-04 0.0 
-7.334736460581e-04 8.314212848686e-04 0.0 
0.0 0.0 0.0 
5.493433397337e-04 -1.603988115242e-03 0.0 
-1.603988115242e-03 -4.028181811773e-03 0.0 
0.0 0.0 0.0 
1.131901295084e-04 1.954933732687e-05 0.0 
1.954933732687e-05 6.806086913917e-03 0.0 
0.0 0.0 0.0 
3.601125577097e-04 -2.753542939133e-05 0.0 
-2.753542939133e-05 5.782101776202e-04 0.0 
0.0 0.0 0.0 
3.643249803442e-04 6.338718371211e-06 0.0 
6.338718371211e-06 7.323616287702e-04 0.0 
0.0 0.0 0.0 
-9.167975404383e-04 3.220037686693e-03 0.0 
3.220037686693e-03 -4.413194964533e-04 0.0 
0.0 0.0 0.0 
6.564241499807e-05 -2.900942052117e-04 0.0 
-2.900942052117e-04 6.834822321535e-04 0.0 
0.0 0.0 0.0 
2.705745076839e-04 7.720350112482e-04 0.0 
7.720350112482e-04 6.849355634050e-03 0.0 
0.0 0.0 0.0 
-1.267942126701e-04 3.362286333900e-03 0.0 
3.362286333900e-03 1.227453700872e-02 0.0 
0.0 0.0 0.0 
-4.917350576881e-04 7.162329708803e-04 0.0 
7.162329708803e-04 1.626331931375e-02 0.0 
0.0 0.0 0.0 
2.479833277900e-04 3.021266265378e-03 0.0 
3.021266265378e-03 9.182775178577e-03 0.0 
0.0 0.0 0.0 
1.004525201903e-03 1.201773406547e-03 0.0 
1.201773406547e-03 5.963296810939e-03 0.0 
0.0 0.0 0.0 
-1.145225709830e-03 1.697798026365e-04 0.0 
1.697798026365e-04 1.477715788870e-02 0.0 
0.0 0.0 0.0 
0.0 1.457549728088e-03 0.0 
1.457549728088e-03 1.631938224990e-02 0.0 
0.0 0.0 0.0 
1.309378767373e-03 -2.556473222988e-03 0.0 
-2.556473222988e-03 -1.788958692847e-03 0.0 
0.0 0.0 0.0 
-1.243260610224e-03 1.288615994625e-05 0.0 
1.288615994625e-05 1.354997925481e-02 0.0 
0.0 0.0 0.0 
-6.585730321145e-04 -2.458252259461e-03 0.0 
-2.458252259461e-03 -1.971770555897e-05 0.0 
0.0 0.0 0.0 
3.022329909153e-04 -7.325165000198e-05 0.0 
-7.325165000198e-05 2.420122999294e-04 0.0 
0.0 0.0 0.0 
8.205582173781e-05 9.736708525508e-05 0.0 
9.736708525508e-05 7.536474099994e-03 0.0 
0.0 0.0 0.0 
-1.988427471810e-03 8.697548885203e-04 0.0 
8.697548885203e-04 1.384000020670e-02 0.0 
0.0 0.0 0.0 
3.220225853797e-04 -1.313499440093e-04 0.0 
-1.313499440093e-04 8.971898542869e-04 0.0 
0.0 0.0 0.0 
6.137414206209e-05 -1.736129088030e-04 0.0 
-1.736129088030e-04 3.499986768686e-03 0.0 
0.0 0.0 0.0 
-1.702398639682e-04 3.528433549134e-03 0.0 
3.528433549134e-03 1.251634393050e-02 0.0 
0.0 0.0 0.0 
-7.231357761247e-04 9.713938463867e-04 0.0 
9.713938463867e-04 1.618048039609e-02 0.0 
0.0 0.0 0.0 
-3.820183516506e-04 2.295109943282e-03 0.0 
2.295109943282e-03 1.536797838769e-02 0.0 
0.0 0.0 0.0 
3.628494034924e-05 -1.366299875669e-04 0.0 
-1.366299875669e-04 2.506660576817e-03 0.0 
0.0 0.0 0.0 
8.202540830591e-04 2.306841775141e-04 0.0 
2.306841775141e-04 -4.448454826149e-03 0.0 
0.0 0.0 0.0 
2.568080220866e-04 2.754493547467e-04 0.0 
2.754493547467e-04 6.981779430486e-03 0.0 
0.0 0.0 0.0 
-1.981576205622e-04 1.383481565073e-04 0.0 
1.383481565073e-04 1.669414538352e-02 0.0 
0.0 0.0 0.0 
1.624689010682e-05 5.377004929963e-06 0.0 
5.377004929963e-06 7.623864354647e-03 0.0 
0.0 0.0 0.0 
-1.185932545342e-03 2.545884825657e-05 0.0 
2.545884825657e-05 1.384774656605e-02 0.0 
0.0 0.0 0.0 
7.016505983326e-04 1.334982293938e-03 0.0 
1.334982293938e-03 6.435637394419e-03 0.0 
0.0 0.0 0.0 
2.217718261699e-04 -1.461775369292e-04 0.0 
-1.461775369292e-04 9.927727753898e-04 0.0 
0.0 0.0 0.0 
-6.616227182776e-04 1.800998708209e-03 0.0 
1.800998708209e-03 1.572999660750e-02 0.0 
0.0 0.0 0.0 
2.608985302719e-04 -9.185722386323e-05 0.0 
-9.185722386323e-05 2.544007158500e-04 0.0 
0.0 0.0 0.0 
3.189845612717e-04 1.125367672843e-03 0.0 
1.125367672843e-03 6.925998082034e-03 0.0 
0.0 0.0 0.0 
-6.240479312157e-04 2.531434975661e-03 0.0 
2.531434975661e-03 1.514393929881e-02 0.0 
0.0 0.0 0.0 
3.884179925555e-04 1.170922412572e-03 0.0 
1.170922412572e-03 -4.680314720123e-03 0.0 
0.0 0.0 0.0 
4.777748689622e-04 3.025673098303e-03 0.0 
3.025673098303e-03 9.082441360446e-03 0.0 
0.0 0.0 0.0 
-9.529598537826e-04 1.443755432356e-04 0.0 
1.443755432356e-04 1.548402118374e-02 0.0 
0.0 0.0 0.0 
-2.590808002404e-04 7.603108454892e-04 0.0 
7.603108454892e-04 1.641964401342e-02 0.0 
0.0 0.0 0.0 
0.0 2.508382802262e-03 0.0 
2.508382802262e-03 8.494245154085e-03 0.0 
0.0 0.0 0.0 
-1.043615580989e-03 -4.549701016124e-06 0.0 
-4.549701016124e-06 1.499418600821e-02 0.0 
0.0 0.0 0.0 
-1.185530964586e-04 3.330004076844e-03 0.0 
3.330004076844e-03 1.277127242299e-02 0.0 
0.0 0.0 0.0 
-8.454246560049e-04 2.218426383414e-03 0.0 
2.218426383414e-03 1.527068428740e-02 0.0 
0.0 0.0 0.0 
-9.606968259396e-04 1.081552577441e-04 0.0 
1.081552577441e-04 1.521831919931e-02 0.0 
0.0 0.0 0.0 
-2.083555765304e-04 3.216928994924e-03 0.0 
3.216928994924e-03 1.233046600706e-02 0.0 
0.0 0.0 0.0 
3.898444961981e-05 -2.435847316828e-04 0.0 
-2.435847316828e-04 2.984269722949e-03 0.0 
0.0 0.0 0.0 
-1.228428301807e-03 8.997820478730e-07 0.0 
8.997820478730e-07 1.355764254893e-02 0.0 
0.0 0.0 0.0 
5.802150428538e-04 3.004338595329e-03 0.0 
3.004338595329e-03 8.768156704206e-03 0.0 
0.0 0.0 0.0 
-2.500788573462e-04 1.112836478275e-04 0.0 
1.112836478275e-04 1.650880836455e-02 0.0 
0.0 0.0 0.0 
6.693902030490e-04 1.187358211356e-05 0.0 
1.187358211356e-05 -2.004176651499e-04 0.0 
0.0 0.0 0.0 
-1.200300328997e-03 9.139356304257e-06 0.0 
9.139356304257e-06 1.355077450434e-02 0.0 
0.0 0.0 0.0 
2.433887447828e-05 -1.065809918105e-05 0.0 
-1.065809918105e-05 7.324152814800e-03 0.0 
0.0 0.0 0.0 
2.439657865438e-05 -3.267679200151e-04 0.0 
-3.267679200151e-04 1.336564048437e-03 0.0 
0.0 0.0 0.0 
1.025264771968e-03 1.693765663592e-03 0.0 
1.693765663592e-03 6.627100665732e-03 0.0 
0.0 0.0 0.0 
-8.566915845799e-04 2.590956098547e-03 0.0 
2.590956098547e-03 1.466762039939e-02 0.0 
0.0 0.0 0.0 
-4.774096937885e-04 6.695378628922e-04 0.0 
6.695378628922e-04 1.641236905481e-02 0.0 
0.0 0.0 0.0 
1.626512934401e-04 -1.913513189391e-04 0.0 
-1.913513189391e-04 1.239998296100e-03 0.0 
0.0 0.0 0.0 
1.159025862272e-04 3.455109644926e-03 0.0 
3.455109644926e-03 -1.641259828020e-03 0.0 
0.0 0.0 0.0 
8.278479306822e-05 2.035856357901e-05 0.0 
2.035856357901e-05 4.268736957646e-03 0.0 
0.0 0.0 0.0 
-7.501172195207e-04 1.504735932114e-04 0.0 
1.504735932114e-04 1.581476899528e-02 0.0 
0.0 0.0 0.0 
-4.703006607043e-03 -3.416385364436e-04 0.0 
-3.416385364436e-04 -2.566819529070e-03 0.0 
0.0 0.0 0.0 
-3.579663499890e-04 1.895262469437e-03 0.0 
1.895262469437e-03 1.582917475747e-02 0.0 
0.0 0.0 0.0 
-1.037680866173e-03 7.316114783159e-05 0.0 
7.316114783159e-05 1.488870132751e-02 0.0 
0.0 0.0 0.0 
-1.189675717339e-04 -2.436942813762e-03 0.0 
-2.436942813762e-03 -2.175160009135e-04 0.0 
0.0 0.0 0.0 
-1.135681747852e-03 9.324140828674e-05 0.0 
9.324140828674e-05 1.464417508903e-02 0.0 
0.0 0.0 0.0 
3.762511340581e-04 3.233526532963e-03 0.0 
3.233526532963e-03 9.437010761654e-03 0.0 
0.0 0.0 0.0 
9.461538141609e-05 -6.361555222266e-05 0.0 
-6.361555222266e-05 4.461509740029e-03 0.0 
0.0 0.0 0.0 
-2.188993305094e-03 3.405519193924e-03 0.0 
3.405519193924e-03 3.003248791444e-04 0.0 
0.0 0.0 0.0 
2.450248189212e-05 -2.797297342768e-04 0.0 
-2.797297342768e-04 2.725144465620e-03 0.0 
0.0 0.0 0.0 
1.252531376410e-04 -2.333760803719e-04 0.0 
-2.333760803719e-04 3.878862515064e-03 0.0 
0.0 0.0 0.0 
1.087943543439e-04 3.006155268178e-05 0.0 
3.006155268178e-05 4.642749394277e-03 0.0 
0.0 0.0 0.0 
6.492603151191e-04 2.625938380162e-03 0.0 
2.625938380162e-03 7.994101870918e-03 0.0 
0.0 0.0 0.0 
7.515358238597e-05 -1.447416065552e-04 0.0 
-1.447416065552e-04 3.799833673052e-03 0.0 
0.0 0.0 0.0 
1.102019881538e-04 -1.432631694648e-04 0.0 
-1.432631694648e-04 4.045523091872e-03 0.0 
0.0 0.0 0.0 
5.265785170283e-05 -2.389046633778e-04 0.0 
-2.389046633778e-04 5.964363326132e-04 0.0 
0.0 0.0 0.0 
2.901927668917e-04 2.461267131613e-04 0.0 
2.461267131613e-04 6.685411803890e-03 0.0 
0.0 0.0 0.0 
2.419506074978e-04 3.210048638154e-03 0.0 
3.210048638154e-03 1.015219745280e-02 0.0 
0.0 0.0 0.0 
7.383721111325e-04 3.094986625786e-03 0.0 
3.094986625786e-03 -1.963914363652e-03 0.0 
0.0 0.0 0.0 
-2.051691546696e-04 9.784759728338e-05 0.0 
9.784759728338e-05 1.650063983410e-02 0.0 
0.0 0.0 0.0 
1.821927798029e-05 3.040682795987e-05 0.0 
3.040682795987e-05 7.312086122570e-03 0.0 
0.0 0.0 0.0 
-1.198347408048e-03 -2.167679765603e-05 0.0 
-2.167679765603e-05 1.387312529887e-02 0.0 
0.0 0.0 0.0 
-1.082729746942e-03 6.219510474420e-05 0.0 
6.219510474420e-05 1.488709503134e-02 0.0 
0.0 0.0 0.0 
8.294270818454e-05 -1.664787222890e-04 0.0 
-1.664787222890e-04 3.802234114761e-03 0.0 
0.0 0.0 0.0 
9.916346879413e-05 -1.979395509043e-04 0.0 
-1.979395509043e-04 3.863137642858e-03 0.0 
0.0 0.0 0.0 
7.605007757072e-05 -1.197315416686e-04 0.0 
-1.197315416686e-04 4.033405908188e-03 0.0 
0.0 0.0 0.0 
1.120784201345e-03 1.701367016003e-03 0.0 
1.701367016003e-03 6.242914998294e-03 0.0 
0.0 0.0 0.0 
-4.045547819491e-04 -2.026449652093e-03 0.0 
-2.026449652093e-03 4.795280605479e-04 0.0 
0.0 0.0 0.0 
7.296459851136e-05 3.364173276403e-03 0.0 
3.364173276403e-03 1.081617550124e-02 0.0 
0.0 0.0 0.0 
-1.152336213813e-03 4.072641494718e-05 0.0 
4.072641494718e-05 1.422973551698e-02 0.0 
0.0 0.0 0.0 
-6.855685162326e-04 1.804241382984e-03 0.0 
1.804241382984e-03 1.590970318868e-02 0.0 
0.0 0.0 0.0 
9.896352265613e-04 1.569980950283e-03 0.0 
1.569980950283e-03 6.227069762863e-03 0.0 
0.0 0.0 0.0 
-1.196547615307e-03 8.739439560287e-05 0.0 
8.739439560287e-05 1.465041760086e-02 0.0 
0.0 0.0 0.0 
-2.479794235979e-04 3.163154832352e-03 0.0 
3.163154832352e-03 1.212480340371e-02 0.0 
0.0 0.0 0.0 
6.932268548001e-04 2.656779154067e-03 0.0 
2.656779154067e-03 7.981771202462e-03 0.0 
0.0 0.0 0.0 
5.658980277863e-04 2.925503178705e-03 0.0 
2.925503178705e-03 8.592058391272e-03 0.0 
0.0 0.0 0.0 
-9.435776446701e-04 3.326760027947e-03 0.0 
3.326760027947e-03 -1.762534893768e-03 0.0 
0.0 0.0 0.0 
-3.532374620622e-04 3.179593076255e-03 0.0 
3.179593076255e-03 1.212330371529e-02 0.0 
0.0 0.0 0.0 
-1.342595987269e-04 3.393670624994e-03 0.0 
3.393670624994e-03 1.193272633221e-02 0.0 
0.0 0.0 0.0 
2.810654396583e-04 -1.993179960051e-04 0.0 
-1.993179960051e-04 5.577574532702e-04 0.0 
0.0 0.0 0.0 
7.564935825588e-05 -2.164181476714e-04 0.0 
-2.164181476714e-04 3.598653621972e-03 0.0 
0.0 0.0 0.0 
-1.313719963168e-03 3.294633508621e-03 0.0 
3.294633508621e-03 -1.702983146313e-03 0.0 
0.0 0.0 0.0 
-3.699807864537e-04 3.337655634056e-03 0.0 
3.337655634056e-03 1.258753250535e-02 0.0 
0.0 0.0 0.0 
-1.216739112195e-03 9.380401970688e-08 0.0 
9.380401970688e-08 1.315849291651e-02 0.0 
0.0 0.0 0.0 
-1.210212411361e-03 1.050215022878e-05 0.0 
1.050215022878e-05 1.317230366019e-02 0.0 
0.0 0.0 0.0 
-1.190458419987e-03 1.073124882353e-05 0.0 
1.073124882353e-05 1.317220835450e-02 0.0 
0.0 0.0 0.0 
-1.210271197719e-03 1.172860194297e-06 0.0 
1.172860194297e-06 1.317124900863e-02 0.0 
0.0 0.0 0.0 
-1.192761668149e-03 -7.252651280530e-07 0.0 
-7.252651280530e-07 1.317144765206e-02 0.0 
0.0 0.0 0.0 
-1.214458888117e-03 -7.394832215311e-06 0.0 
-7.394832215311e-06 1.317657012707e-02 0.0 
0.0 0.0 0.0 
-1.191134657356e-03 -3.835951423532e-06 0.0 
-3.835951423532e-06 1.317540991663e-02 0.0 
0.0 0.0 0.0 
-1.217501379418e-03 -1.705133998704e-05 0.0 
-1.705133998704e-05 1.317204803688e-02 0.0 
0.0 0.0 0.0 
-1.185732432120e-03 -3.924395141529e-06 0.0 
-3.924395141529e-06 1.316750012605e-02 0.0 
0.0 0.0 0.0 
-1.224816792094e-03 -1.600692488230e-05 0.0 
-1.600692488230e-05 1.317410652881e-02 0.0 
0.0 0.0 0.0 
-1.173217863028e-03 -3.855865374923e-06 0.0 
-3.855865374923e-06 1.316821103252e-02 0.0 
0.0 0.0 0.0 
-1.241054801027e-03 -2.682064152708e-05 0.0 
-2.682064152708e-05 1.317451708684e-02 0.0 
0.0 0.0 0.0 
-1.743026646530e-03 4.282517434903e-04 0.0 
4.282517434903e-04 1.325415653229e-02 0.0 
0.0 0.0 0.0 
-1.156140680188e-03 -7.966188387389e-07 0.0 
-7.966188387389e-07 1.316020201183e-02 0.0 
0.0 0.0 0.0 
-1.886351930940e-03 3.049340305402e-04 0.0 
3.049340305402e-04 1.339086263626e-02 0.0 
0.0 0.0 0.0 
-1.243260610224e-03 -2.245247691655e-05 0.0 
-2.245247691655e-05 1.317802685235e-02 0.0 
0.0 0.0 0.0 
-1.140379769177e-03 8.072842228258e-06 0.0 
8.072842228258e-06 1.315796617119e-02 0.0 
0.0 0.0 0.0 
-1.276433513931e-03 -3.071839585393e-05 0.0 
-3.071839585393e-05 1.317447870212e-02 0.0 
0.0 0.0 0.0 
-1.120118893869e-03 1.044111707403e-05 0.0 
1.044111707403e-05 1.314173553075e-02 0.0 
0.0 0.0 0.0 
-1.306798653155e-03 -2.836280197014e-05 0.0 
-2.836280197014e-05 1.317997043170e-02 0.0 
0.0 0.0 0.0 
-1.093777285448e-03 2.058905848662e-05 0.0 
2.058905848662e-05 1.313274776575e-02 0.0 
0.0 0.0 0.0 
-1.343730517894e-03 -1.983527685589e-05 0.0 
-1.983527685589e-05 1.319243773074e-02 0.0 
0.0 0.0 0.0 
-1.361236631084e-03 2.161898956308e-04 0.0 
2.161898956308e-04 1.300533762229e-02 0.0 
0.0 0.0 0.0 
-1.080111858103e-03 4.151784547634e-05 0.0 
4.151784547634e-05 1.312514534899e-02 0.0 
0.0 0.0 0.0 
-1.408147712460e-03 -1.073829759776e-06 0.0 
-1.073829759776e-06 1.320737044190e-02 0.0 
0.0 0.0 0.0 
-1.088771701660e-03 7.349638727747e-05 0.0 
7.349638727747e-05 1.311494877874e-02 0.0 
0.0 0.0 0.0 
-1.504149539817e-03 4.247749651042e-05 0.0 
4.247749651042e-05 1.323509294020e-02 0.0 
0.0 0.0 0.0 
-1.651184913075e-03 1.336276806886e-04 0.0 
1.336276806886e-04 1.328958425169e-02 0.0 
0.0 0.0 0.0 
-1.135638720348e-03 1.337932019870e-04 0.0 
1.337932019870e-04 1.311138929653e-02 0.0 
0.0 0.0 0.0 
-1.274680620394e-03 2.456011625371e-04 0.0 
2.456011625371e-04 1.313353442812e-02 0.0 
0.0 0.0 0.0 
-2.314452120179e-03 8.622918138158e-04 0.0 
8.622918138158e-04 1.360369479392e-02 0.0 
0.0 0.0 0.0 
-2.153015833555e-03 3.337584943639e-04 0.0 
3.337584943639e-04 1.371701262434e-02 0.0 
0.0 0.0 0.0 
-1.258055216459e-03 -5.277812495444e-05 0.0 
-5.277812495444e-05 1.318856474581e-02 0.0 
0.0 0.0 0.0 
-1.238621407312e-03 6.953608295768e-05 0.0 
6.953608295768e-05 1.315442700589e-02 0.0 
0.0 0.0 0.0 
-1.221936971652e-03 5.729427467674e-06 0.0 
5.729427467674e-06 1.326811334359e-02 0.0 
0.0 0.0 0.0 
-1.275245241078e-03 1.245647658993e-05 0.0 
1.245647658993e-05 1.307812658918e-02 0.0 
0.0 0.0 0.0 
-2.605566973005e-03 9.704346676376e-04 0.0 
9.704346676376e-04 1.324332258081e-02 0.0 
0.0 0.0 0.0 

TENSORS element_materi_strain_plasti float
-6.466164772809e-04 8.245090744215e-04 0.0 
8.245090744215e-04 2.707374572581e-03 0.0 
0.0 0.0 -4.220722639049e-04 
-5.850828050599e-04 4.087408186800e-04 0.0 
4.087408186800e-04 2.442724633431e-03 0.0 
0.0 0.0 -4.303330772826e-04 
-1.282095494807e-03 4.001741098009e-04 0.0 
4.001741098009e-04 8.226379453025e-03 0.0 
0.0 0.0 -1.278236581085e-03 
-1.295884943363e-03 -1.217266030679e-04 0.0 
-1.217266030679e-04 8.480174258718e-03 0.0 
0.0 0.0 -1.255598393855e-03 
-9.118044046819e-04 2.773302772114e-04 0.0 
2.773302772114e-04 5.301634366726e-03 0.0 
0.0 0.0 -7.961861350945e-04 
2.510626383067e-04 3.899924767601e-04 0.0 
3.899924767601e-04 -1.017744063529e-06 0.0 
0.0 0.0 -1.071620975328e-04 
-8.944012644099e-04 3.000213301662e-04 0.0 
3.000213301662e-04 5.255597081572e-03 0.0 
0.0 0.0 -8.011023898636e-04 
-6.111001276048e-04 8.133198202813e-04 0.0 
8.133198202813e-04 2.541489709150e-03 0.0 
0.0 0.0 -4.045669272905e-04 
-9.178969371214e-04 -2.491713150355e-04 0.0 
-2.491713150355e-04 5.331335701126e-03 0.0 
0.0 0.0 -7.977904104816e-04 
-1.281432177268e-03 3.076617140319e-04 0.0 
3.076617140319e-04 8.397045163972e-03 0.0 
0.0 0.0 -1.253060141438e-03 
-1.093573439511e-03 5.627509268443e-05 0.0 
5.627509268443e-05 5.667510059544e-03 0.0 
0.0 0.0 -8.816510380685e-04 
-5.787511837025e-04 6.777709678412e-04 0.0 
6.777709678412e-04 2.088119972159e-03 0.0 
0.0 0.0 -3.735031833740e-04 
-1.326305648993e-03 1.334625464656e-04 0.0 
1.334625464656e-04 8.251440389062e-03 0.0 
0.0 0.0 -1.259187713256e-03 
-9.724653634380e-04 3.053641968768e-04 0.0 
3.053641968768e-04 5.663135226582e-03 0.0 
0.0 0.0 -8.526168115438e-04 
-1.330762641967e-03 -3.008650578863e-04 0.0 
-3.008650578863e-04 8.383102825445e-03 0.0 
0.0 0.0 -1.289538875031e-03 
-1.321345684109e-03 2.719191787034e-04 0.0 
2.719191787034e-04 8.617215783831e-03 0.0 
0.0 0.0 -1.285984941237e-03 
-9.140896497734e-04 7.519541139523e-05 0.0 
7.519541139523e-05 5.296976735505e-03 0.0 
0.0 0.0 -7.740676797406e-04 
0.0 0.0 0.0 
0.0 0.0 0.0 
0.0 0.0 0.0 
-3.519099227855e-04 -1.443334347486e-04 0.0 
-1.443334347486e-04 1.817532010240e-03 0.0 
0.0 0.0 -2.776016825098e-04 
-3.997644766498e-04 4.954726061119e-05 0.0 
4.954726061119e-05 1.673764597630e-03 0.0 
0.0 0.0 -3.031105466646e-04 
-1.276969282696e-03 -1.363061038713e-04 0.0 
-1.363061038713e-04 8.471794626493e-03 0.0 
0.0 0.0 -1.250388265701e-03 
-6.432162703731e-04 5.512102898043e-04 0.0 
5.512102898043e-04 2.885045796034e-03 0.0 
0.0 0.0 -4.811142067971e-04 
-6.884954101540e-04 3.994199898237e-04 0.0 
3.994199898237e-04 3.234457200495e-03 0.0 
0.0 0.0 -5.091556215902e-04 
-1.086615628820e-03 -2.931322765965e-04 0.0 
-2.931322765965e-04 7.458132473520e-03 0.0 
0.0 0.0 -1.210372970477e-03 
-1.022288100468e-03 3.987168263927e-04 0.0 
3.987168263927e-04 6.009421001038e-03 0.0 
0.0 0.0 -9.130988374533e-04 
-1.132573975630e-03 -2.410939857696e-04 0.0 
-2.410939857696e-04 6.073086075411e-03 0.0 
0.0 0.0 -9.179597371190e-04 
-8.591992327558e-04 1.320513177097e-04 0.0 
1.320513177097e-04 4.879471040969e-03 0.0 
0.0 0.0 -7.148082707961e-04 
-1.227939719405e-03 4.897213587292e-04 0.0 
4.897213587292e-04 8.231185118654e-03 0.0 
0.0 0.0 -1.266047838742e-03 
-1.043323281561e-03 -5.190539471628e-05 0.0 
-5.190539471628e-05 6.052750555350e-03 0.0 
0.0 0.0 -9.113908267906e-04 
-1.155289536852e-03 -1.768880545786e-05 0.0 
-1.768880545786e-05 7.700571454284e-03 0.0 
0.0 0.0 -1.237914324842e-03 
3.591818895870e-04 -1.087919908418e-03 0.0 
-1.087919908418e-03 2.306926407283e-04 0.0 
0.0 0.0 -2.528033701351e-04 
-5.253251415500e-05 -7.346267826167e-05 0.0 
-7.346267826167e-05 5.706227414438e-04 0.0 
0.0 0.0 -1.059755802940e-04 
-1.328657286874e-03 4.996781592111e-04 0.0 
4.996781592111e-04 8.531045122136e-03 0.0 
0.0 0.0 -1.261301343383e-03 
-1.246135843572e-03 -2.165566539215e-04 0.0 
-2.165566539215e-04 7.113329539199e-03 0.0 
0.0 0.0 -1.090200430068e-03 
-1.222640564805e-03 -5.172125954847e-04 0.0 
-5.172125954847e-04 8.023175699372e-03 0.0 
0.0 0.0 -1.254989870190e-03 
-1.362336754091e-03 1.038272021812e-04 0.0 
1.038272021812e-04 8.593232231463e-03 0.0 
0.0 0.0 -1.314886350686e-03 
-1.333817909252e-03 -6.741910836282e-04 0.0 
-6.741910836282e-04 8.572481383167e-03 0.0 
0.0 0.0 -1.314653105918e-03 
-1.152787385481e-03 3.395804623759e-04 0.0 
3.395804623759e-04 7.780236807800e-03 0.0 
0.0 0.0 -1.264739017786e-03 
-8.345100331917e-04 -3.032908507100e-04 0.0 
-3.032908507100e-04 4.793915913410e-03 0.0 
0.0 0.0 -7.380763454961e-04 
-8.314689275844e-04 3.674750294880e-04 0.0 
3.674750294880e-04 4.862282802739e-03 0.0 
0.0 0.0 -7.371174501546e-04 
-7.446435526587e-04 2.495366517639e-04 0.0 
2.495366517639e-04 3.730189536197e-03 0.0 
0.0 0.0 -5.794556523337e-04 
-1.240577876015e-03 -2.606603701506e-04 0.0 
-2.606603701506e-04 7.945807599574e-03 0.0 
0.0 0.0 -1.280756488215e-03 
-5.279799311040e-04 1.102170611227e-03 0.0 
1.102170611227e-03 1.773978523889e-03 0.0 
0.0 0.0 -3.207852484642e-04 
-8.673432961900e-04 2.038482856540e-04 0.0 
2.038482856540e-04 4.641456270313e-03 0.0 
0.0 0.0 -7.350059072715e-04 
-1.271467539957e-03 -7.879660805606e-05 0.0 
-7.879660805606e-05 8.302426141521e-03 0.0 
0.0 0.0 -1.212858513926e-03 
-5.775885694842e-04 8.848405614820e-04 0.0 
8.848405614820e-04 1.777381832978e-03 0.0 
0.0 0.0 -3.198426158856e-04 
2.130878448261e-04 -2.803383724960e-04 0.0 
-2.803383724960e-04 -1.640750498909e-05 0.0 
0.0 0.0 -8.429157421588e-05 
-1.252952730617e-03 9.194498370430e-05 0.0 
9.194498370430e-05 8.113365198973e-03 0.0 
0.0 0.0 -1.234743356787e-03 
1.618564024127e-06 -4.086337075163e-06 0.0 
-4.086337075163e-06 6.435399236602e-07 0.0 
0.0 0.0 -9.694731204803e-07 
-9.377652680597e-04 -7.279277581159e-05 0.0 
-7.279277581159e-05 5.473641853479e-03 0.0 
0.0 0.0 -8.229436299569e-04 
-7.184238485782e-04 3.283816114982e-04 0.0 
3.283816114982e-04 3.500159598670e-03 0.0 
0.0 0.0 -5.440916476828e-04 
-4.407403860860e-04 -1.000193585770e-04 0.0 
-1.000193585770e-04 2.276874889741e-03 0.0 
0.0 0.0 -3.443810396916e-04 
3.693556118723e-04 -1.150080954677e-03 0.0 
-1.150080954677e-03 2.564828416198e-04 0.0 
0.0 0.0 -2.682164800680e-04 
-6.981340931129e-04 4.826618162809e-04 0.0 
4.826618162809e-04 3.375109354798e-03 0.0 
0.0 0.0 -5.489460876789e-04 
-1.294047200749e-03 3.426820678350e-04 0.0 
3.426820678350e-04 8.360890520438e-03 0.0 
0.0 0.0 -1.282189168212e-03 
-6.426921289281e-04 -2.477141885566e-04 0.0 
-2.477141885566e-04 2.972149177427e-03 0.0 
0.0 0.0 -4.512233509908e-04 
-5.071100590753e-04 7.724547813732e-05 0.0 
7.724547813732e-05 2.167123717160e-03 0.0 
0.0 0.0 -3.694212080277e-04 
-1.248804674603e-03 1.204053078386e-04 0.0 
1.204053078386e-04 7.152497866114e-03 0.0 
0.0 0.0 -1.087734043504e-03 
-2.199405617637e-04 -6.207470745057e-05 0.0 
-6.207470745057e-05 1.342683867831e-03 0.0 
0.0 0.0 -2.189683579105e-04 
-1.315587936217e-03 -1.318704737137e-04 0.0 
-1.318704737137e-04 8.629398526663e-03 0.0 
0.0 0.0 -1.285320035817e-03 
0.0 0.0 0.0 
0.0 0.0 0.0 
0.0 0.0 0.0 
-1.104248090582e-03 6.042449065024e-04 0.0 
6.042449065024e-04 7.502345308807e-03 0.0 
0.0 0.0 -1.210824713543e-03 
-6.118289487359e-04 1.052783847498e-03 0.0 
1.052783847498e-03 3.133960488999e-03 0.0 
0.0 0.0 -5.497085007362e-04 
3.930006713422e-04 -1.150166211052e-03 0.0 
-1.150166211052e-03 2.323329664583e-04 0.0 
0.0 0.0 -2.680001304859e-04 
-1.319367167403e-03 -3.421260873299e-04 0.0 
-3.421260873299e-04 8.223808012733e-03 0.0 
0.0 0.0 -1.257478522087e-03 
-6.824305458781e-04 5.038519007458e-04 0.0 
5.038519007458e-04 3.122644429912e-03 0.0 
0.0 0.0 -5.137572693775e-04 
0.0 0.0 0.0 
0.0 0.0 0.0 
0.0 0.0 0.0 
-1.302579274791e-03 3.856077973971e-04 0.0 
3.856077973971e-04 8.474035595977e-03 0.0 
0.0 0.0 -1.261660853087e-03 
-3.055720632183e-04 -1.064577386819e-03 0.0 
-1.064577386819e-03 1.239084830307e-03 0.0 
0.0 0.0 -3.052032381971e-04 
-1.275451108923e-03 4.835577884085e-04 0.0 
4.835577884085e-04 8.123671911160e-03 0.0 
0.0 0.0 -1.282376455277e-03 
-1.145904955508e-03 -3.118374997867e-04 0.0 
-3.118374997867e-04 6.272168097955e-03 0.0 
0.0 0.0 -9.556290573178e-04 
-1.338499280800e-03 2.408371898962e-04 0.0 
2.408371898962e-04 8.775782511843e-03 0.0 
0.0 0.0 -1.338499280800e-03 
-1.192625588921e-03 4.461210467852e-04 0.0 
4.461210467852e-04 7.634783606740e-03 0.0 
0.0 0.0 -1.232909111256e-03 
-2.127254236185e-05 1.891430361426e-04 0.0 
1.891430361426e-04 5.160571140730e-04 0.0 
0.0 0.0 -1.295286970291e-04 
-6.935849542252e-04 2.344127444435e-05 0.0 
2.344127444435e-05 2.990888035910e-03 0.0 
0.0 0.0 -4.777371989943e-04 
-1.295701123542e-03 1.509088819434e-05 0.0 
1.509088819434e-05 8.469943460322e-03 0.0 
0.0 0.0 -1.262626981217e-03 
-1.324502073679e-03 3.744328644392e-04 0.0 
3.744328644392e-04 8.596934185840e-03 0.0 
0.0 0.0 -1.265352048664e-03 
-2.411922616665e-04 1.053006289260e-03 0.0 
1.053006289260e-03 1.157414957781e-03 0.0 
0.0 0.0 -3.599094611647e-04 
-2.769907565586e-04 -8.829481836090e-05 0.0 
-8.829481836090e-05 1.134623594574e-03 0.0 
0.0 0.0 -2.366757893512e-04 
-2.181753936334e-04 1.161392611074e-03 0.0 
1.161392611074e-03 1.149876313961e-03 0.0 
0.0 0.0 -3.564703237892e-04 
-2.758740996359e-04 -8.746279552454e-04 0.0 
-8.746279552454e-04 1.152039496951e-03 0.0 
0.0 0.0 -3.439500825601e-04 
-8.978965614641e-04 9.154439014956e-05 0.0 
9.154439014956e-05 5.029293334098e-03 0.0 
0.0 0.0 -7.918363975426e-04 
-6.733819819602e-04 4.712092501630e-04 0.0 
4.712092501630e-04 3.018715837704e-03 0.0 
0.0 0.0 -4.749402310763e-04 
-6.256408849580e-04 5.270574211380e-04 0.0 
5.270574211380e-04 2.559551606748e-03 0.0 
0.0 0.0 -4.438329512050e-04 
-9.725152992593e-04 -1.918915712341e-04 0.0 
-1.918915712341e-04 5.553894553160e-03 0.0 
0.0 0.0 -8.336771054075e-04 
-9.515395304919e-04 2.688463451821e-04 0.0 
2.688463451821e-04 5.521722972354e-03 0.0 
0.0 0.0 -8.358076868167e-04 
-1.183410575090e-03 -2.693387168119e-04 0.0 
-2.693387168119e-04 6.452199734420e-03 0.0 
0.0 0.0 -9.867109252839e-04 
-1.231001359755e-03 1.776752657648e-04 0.0 
1.776752657648e-04 6.972617785685e-03 0.0 
0.0 0.0 -1.058576829647e-03 
-1.159508113008e-03 2.069980553471e-04 0.0 
2.069980553471e-04 7.153965750682e-03 0.0 
0.0 0.0 -1.085941371602e-03 
-9.167398449037e-04 -2.379223024375e-04 0.0 
-2.379223024375e-04 5.214431434648e-03 0.0 
0.0 0.0 -7.983229688164e-04 
-9.629239381275e-05 -7.847678025284e-05 0.0 
-7.847678025284e-05 3.293444492904e-04 0.0 
0.0 0.0 -9.987945234756e-05 
-9.298280525188e-04 1.832074445445e-04 0.0 
1.832074445445e-04 5.072594773826e-03 0.0 
0.0 0.0 -7.928983479555e-04 
-1.152068192651e-03 -8.618068735251e-05 0.0 
-8.618068735251e-05 7.066072062095e-03 0.0 
0.0 0.0 -1.069439317440e-03 
-1.125567912536e-03 1.438213412546e-04 0.0 
1.438213412546e-04 7.130378012797e-03 0.0 
0.0 0.0 -1.046447409317e-03 
-1.354248964991e-03 2.488047583645e-04 0.0 
2.488047583645e-04 9.041954327214e-03 0.0 
0.0 0.0 -1.319970921405e-03 
-1.236862548615e-03 6.047335938228e-05 0.0 
6.047335938228e-05 8.106142459015e-03 0.0 
0.0 0.0 -1.294194962782e-03 
-9.013588349204e-04 -3.564785080674e-05 0.0 
-3.564785080674e-05 5.032133509131e-03 0.0 
0.0 0.0 -7.889745663688e-04 
-1.254766552398e-03 -3.118115606911e-04 0.0 
-3.118115606911e-04 8.236373731402e-03 0.0 
0.0 0.0 -1.263183913703e-03 
-9.880175404899e-04 -1.466486724576e-04 0.0 
-1.466486724576e-04 5.952185502159e-03 0.0 
0.0 0.0 -9.040008563810e-04 
-6.291314004619e-04 6.895076894316e-04 0.0 
6.895076894316e-04 3.149500208419e-03 0.0 
0.0 0.0 -5.198799001330e-04 
-8.730449846052e-04 -1.408519575968e-04 0.0 
-1.408519575968e-04 5.083535477325e-03 0.0 
0.0 0.0 -7.643292725053e-04 
-1.347992785810e-03 5.931491654167e-05 0.0 
5.931491654167e-05 8.400156878011e-03 0.0 
0.0 0.0 -1.287517816355e-03 
-8.262228282774e-04 1.447902815746e-04 0.0 
1.447902815746e-04 6.297334361413e-03 0.0 
0.0 0.0 -1.043751955586e-03 
-1.104569420112e-03 1.448019849648e-04 0.0 
1.448019849648e-04 7.556047747294e-03 0.0 
0.0 0.0 -1.209599240962e-03 
-4.538367894760e-04 9.757826283504e-04 0.0 
9.757826283504e-04 2.565554738313e-03 0.0 
0.0 0.0 -4.747543016519e-04 
2.029884590449e-04 -8.599336091252e-04 0.0 
-8.599336091252e-04 2.611091082078e-04 0.0 
0.0 0.0 -1.988989573940e-04 
-1.297459135418e-03 -2.747475562559e-04 0.0 
-2.747475562559e-04 7.787009671767e-03 0.0 
0.0 0.0 -1.189902873528e-03 
-1.189086276409e-03 1.093944519264e-04 0.0 
1.093944519264e-04 7.587261230545e-03 0.0 
0.0 0.0 -1.108790581071e-03 
7.624507231963e-05 -2.164748674539e-04 0.0 
-2.164748674539e-04 4.178589710884e-05 0.0 
0.0 0.0 -5.058470118363e-05 
-1.283662232086e-03 -3.116749921630e-04 0.0 
-3.116749921630e-04 8.203749873262e-03 0.0 
0.0 0.0 -1.285127980003e-03 
-1.117454671525e-03 5.890310527375e-04 0.0 
5.890310527375e-04 6.771147145683e-03 0.0 
0.0 0.0 -1.051491716222e-03 
2.129630744421e-04 -9.499020889305e-05 0.0 
-9.499020889305e-05 2.730652041404e-04 0.0 
0.0 0.0 -1.433710470045e-04 
-4.646091997464e-04 1.130911332871e-03 0.0 
1.130911332871e-03 3.315295093012e-03 0.0 
0.0 0.0 -6.309931931857e-04 
-8.659480951891e-04 9.706201231431e-05 0.0 
9.706201231431e-05 4.691930850523e-03 0.0 
0.0 0.0 -7.153918394734e-04 
-8.128195131981e-04 -2.696429011542e-04 0.0 
-2.696429011542e-04 3.582326768313e-03 0.0 
0.0 0.0 -5.772375537024e-04 
-5.795319369569e-04 9.930078575254e-04 0.0 
9.930078575254e-04 2.722691248666e-03 0.0 
0.0 0.0 -4.852398935310e-04 
-5.900753072712e-04 6.920056491215e-04 0.0 
6.920056491215e-04 3.182816884513e-03 0.0 
0.0 0.0 -5.471823052058e-04 
-1.301859315623e-03 -1.904737940513e-04 0.0 
-1.904737940513e-04 8.142812636608e-03 0.0 
0.0 0.0 -1.283833066805e-03 
-9.523212659311e-04 1.958273368285e-04 0.0 
1.958273368285e-04 5.865970295395e-03 0.0 
0.0 0.0 -8.766975940251e-04 
-5.541698138184e-04 1.190551615049e-03 0.0 
1.190551615049e-03 2.836925707114e-03 0.0 
0.0 0.0 -5.122473358773e-04 
-4.084206622420e-04 -7.278847424947e-04 0.0 
-7.278847424947e-04 1.354708172608e-03 0.0 
0.0 0.0 -2.295267891405e-04 
-9.046551402062e-04 3.103540058347e-04 0.0 
3.103540058347e-04 5.221480629983e-03 0.0 
0.0 0.0 -7.744920945421e-04 
-1.163420538902e-03 -6.301653344554e-05 0.0 
-6.301653344554e-05 7.412623996309e-03 0.0 
0.0 0.0 -1.129288753466e-03 
-5.271843801054e-04 7.884919210617e-04 0.0 
7.884919210617e-04 2.864417005275e-03 0.0 
0.0 0.0 -5.109724225979e-04 
5.534592465795e-05 9.039028363928e-04 0.0 
9.039028363928e-04 4.831251439840e-04 0.0 
0.0 0.0 -2.307733151323e-04 
-8.073832098114e-04 1.503125105248e-04 0.0 
1.503125105248e-04 4.217521397372e-03 0.0 
0.0 0.0 -6.470401313397e-04 
-8.043937078593e-04 -1.245165173277e-04 0.0 
-1.245165173277e-04 3.751204721582e-03 0.0 
0.0 0.0 -5.578851714504e-04 
-7.622885537649e-04 4.316670476422e-04 0.0 
4.316670476422e-04 3.890857300125e-03 0.0 
0.0 0.0 -6.167189930163e-04 
-1.313795093192e-03 3.745855682538e-04 0.0 
3.745855682538e-04 8.614675897131e-03 0.0 
0.0 0.0 -1.290671971449e-03 
1.991130479106e-04 9.381873505590e-04 0.0 
9.381873505590e-04 3.095528624407e-04 0.0 
0.0 0.0 -2.179996758648e-04 
-1.118912346163e-03 3.069253467211e-05 0.0 
3.069253467211e-05 5.953637467028e-03 0.0 
0.0 0.0 -9.216843799351e-04 
-1.302832962065e-03 2.769223245220e-04 0.0 
2.769223245220e-04 8.470819943817e-03 0.0 
0.0 0.0 -1.256690274141e-03 
-7.596340248727e-04 7.382796594352e-04 0.0 
7.382796594352e-04 4.031537584483e-03 0.0 
0.0 0.0 -6.588732905211e-04 
-7.779772953584e-04 1.836806670251e-04 0.0 
1.836806670251e-04 3.983301519145e-03 0.0 
0.0 0.0 -6.139229799761e-04 
-1.231803605678e-03 -5.782093166128e-05 0.0 
-5.782093166128e-05 8.028152931577e-03 0.0 
0.0 0.0 -1.254964138299e-03 
-1.328106245368e-03 -3.359343714767e-04 0.0 
-3.359343714767e-04 8.269862829300e-03 0.0 
0.0 0.0 -1.261070974318e-03 
-1.177616370787e-03 5.503788424212e-05 0.0 
5.503788424212e-05 6.447345049328e-03 0.0 
0.0 0.0 -9.873713238705e-04 
-7.975389004980e-04 3.851368616877e-04 0.0 
3.851368616877e-04 4.370903509068e-03 0.0 
0.0 0.0 -6.916138708610e-04 
-1.195768822005e-03 -1.347190958518e-04 0.0 
-1.347190958518e-04 8.136693957771e-03 0.0 
0.0 0.0 -1.270330610962e-03 
-7.600104695776e-04 6.621541633523e-04 0.0 
6.621541633523e-04 3.915062890853e-03 0.0 
0.0 0.0 -6.326048069937e-04 
-1.276977184880e-03 1.361446544635e-04 0.0 
1.361446544635e-04 8.444479482518e-03 0.0 
0.0 0.0 -1.283174495648e-03 
-1.281656246909e-03 5.918270400850e-04 0.0 
5.918270400850e-04 8.394460336114e-03 0.0 
0.0 0.0 -1.267437373369e-03 
-9.916900482218e-04 -1.353869196216e-04 0.0 
-1.353869196216e-04 5.594925371490e-03 0.0 
0.0 0.0 -8.543707170918e-04 
-1.059679930627e-03 2.378363673836e-04 0.0 
2.378363673836e-04 6.573353481791e-03 0.0 
0.0 0.0 -9.817831382938e-04 
-7.605699351815e-04 3.748556655775e-04 0.0 
3.748556655775e-04 3.967103975153e-03 0.0 
0.0 0.0 -6.293189184696e-04 
-7.420000060583e-04 4.704307559795e-04 0.0 
4.704307559795e-04 3.646692949105e-03 0.0 
0.0 0.0 -5.830241378053e-04 
-8.001161774359e-04 7.418992546282e-04 0.0 
7.418992546282e-04 4.429271101410e-03 0.0 
0.0 0.0 -7.211932326589e-04 
-4.509036314279e-04 9.161005774141e-04 0.0 
9.161005774141e-04 2.969896787124e-03 0.0 
0.0 0.0 -5.383041810906e-04 
-8.768683131663e-04 -1.698577199285e-04 0.0 
-1.698577199285e-04 5.218733852389e-03 0.0 
0.0 0.0 -7.693993191400e-04 
-3.984078038155e-04 7.031353492297e-04 0.0 
7.031353492297e-04 3.390130310364e-03 0.0 
0.0 0.0 -6.275039421266e-04 
-8.830553488541e-05 -1.169663280731e-04 0.0 
-1.169663280731e-04 3.137961635653e-04 0.0 
0.0 0.0 -9.663884086279e-05 
-9.202478516251e-04 -5.770930012148e-06 0.0 
-5.770930012148e-06 5.620779502953e-03 0.0 
0.0 0.0 -8.171079392438e-04 
-3.114395398576e-04 -3.263303537109e-05 0.0 
-3.263303537109e-05 1.213615237241e-03 0.0 
0.0 0.0 -2.373169254524e-04 
-8.400103073364e-04 1.183268532165e-04 0.0 
1.183268532165e-04 4.465364634510e-03 0.0 
0.0 0.0 -6.809683978454e-04 
-1.226720591274e-03 -2.033245432446e-04 0.0 
-2.033245432446e-04 7.901279716244e-03 0.0 
0.0 0.0 -1.284796145094e-03 
-5.032521871548e-04 1.323397128945e-03 0.0 
1.323397128945e-03 2.524146629484e-03 0.0 
0.0 0.0 -4.767992880414e-04 
-1.206015416419e-03 1.351161918146e-04 0.0 
1.351161918146e-04 6.706761080456e-03 0.0 
0.0 0.0 -1.021089721936e-03 
-5.854397783758e-04 6.900577011398e-04 0.0 
6.900577011398e-04 2.034319527358e-03 0.0 
0.0 0.0 -3.540742325023e-04 
-8.487428613626e-04 6.354315705334e-04 0.0 
6.354315705334e-04 6.259047629254e-03 0.0 
0.0 0.0 -1.044905595188e-03 
-9.023795236384e-04 1.774952439286e-05 0.0 
1.774952439286e-05 5.056579998417e-03 0.0 
0.0 0.0 -7.899655494116e-04 
-3.675306969511e-04 1.198984270489e-03 0.0 
1.198984270489e-03 2.958001668599e-03 0.0 
0.0 0.0 -5.931463391684e-04 
-1.266256333575e-03 -2.932543747909e-04 0.0 
-2.932543747909e-04 7.348938270472e-03 0.0 
0.0 0.0 -1.120963572432e-03 
-3.905834582402e-04 -4.908595614848e-04 0.0 
-4.908595614848e-04 1.232002034576e-03 0.0 
0.0 0.0 -2.722262904030e-04 
-1.289444217002e-03 1.239965470747e-04 0.0 
1.239965470747e-04 7.777003841897e-03 0.0 
0.0 0.0 -1.189111243166e-03 
-9.083262515729e-04 4.866804809917e-04 0.0 
4.866804809917e-04 4.963586243701e-03 0.0 
0.0 0.0 -7.711223959738e-04 
-1.340203078278e-03 -2.129693675799e-04 0.0 
-2.129693675799e-04 8.439560912258e-03 0.0 
0.0 0.0 -1.265987209193e-03 
-8.868772565118e-04 2.877464608834e-05 0.0 
2.877464608834e-05 5.056912107765e-03 0.0 
0.0 0.0 -7.842605076999e-04 
-4.245977401382e-04 1.301715382003e-03 0.0 
1.301715382003e-03 2.484999694538e-03 0.0 
0.0 0.0 -5.042822341261e-04 
-8.141088315077e-04 3.778227072886e-04 0.0 
3.778227072886e-04 4.370548075301e-03 0.0 
0.0 0.0 -6.840799553763e-04 
-1.128956121950e-03 -1.816355743224e-04 0.0 
-1.816355743224e-04 5.879621026637e-03 0.0 
0.0 0.0 -8.722824885218e-04 
-5.657686865338e-04 1.006813399921e-03 0.0 
1.006813399921e-03 2.114854539436e-03 0.0 
0.0 0.0 -3.514598124168e-04 
-2.840077947560e-04 7.374002385130e-04 0.0 
7.374002385130e-04 3.016923521918e-03 0.0 
0.0 0.0 -5.911455407098e-04 
-1.107826402130e-03 -1.895219266089e-04 0.0 
-1.895219266089e-04 6.838398808500e-03 0.0 
0.0 0.0 -1.016465148841e-03 
-8.846022414820e-04 1.673369808483e-04 0.0 
1.673369808483e-04 5.274165376609e-03 0.0 
0.0 0.0 -7.680022369673e-04 
-4.363801896578e-04 1.202422263910e-03 0.0 
1.202422263910e-03 2.876866297868e-03 0.0 
0.0 0.0 -5.666226778950e-04 
-8.017363352442e-04 3.924823248397e-04 0.0 
3.924823248397e-04 4.130177357856e-03 0.0 
0.0 0.0 -6.498546761489e-04 
-1.141214369151e-03 6.765310758862e-04 0.0 
6.765310758862e-04 7.271411604946e-03 0.0 
0.0 0.0 -1.136725521675e-03 
-8.548535662047e-04 -2.781485263044e-04 0.0 
-2.781485263044e-04 4.164865359686e-03 0.0 
0.0 0.0 -6.189190723244e-04 
-1.237707508229e-03 4.856674807990e-04 0.0 
4.856674807990e-04 7.956457412847e-03 0.0 
0.0 0.0 -1.285202198870e-03 
-1.271584492805e-03 4.859423083683e-04 0.0 
4.859423083683e-04 8.362652585957e-03 0.0 
0.0 0.0 -1.265486236287e-03 
-6.208228587870e-04 6.861521722427e-04 0.0 
6.861521722427e-04 2.794482215749e-03 0.0 
0.0 0.0 -4.595713030950e-04 
-8.601834141272e-04 -1.130024456241e-04 0.0 
-1.130024456241e-04 3.988529893684e-03 0.0 
0.0 0.0 -6.385407451345e-04 
-9.728705791535e-04 -2.427476520657e-04 0.0 
-2.427476520657e-04 7.014843591236e-03 0.0 
0.0 0.0 -1.152822474774e-03 
-7.582637832037e-04 3.173029778375e-04 0.0 
3.173029778375e-04 3.850177976745e-03 0.0 
0.0 0.0 -6.037256927378e-04 
-5.932602371824e-04 9.450171731982e-04 0.0 
9.450171731982e-04 2.345539596427e-03 0.0 
0.0 0.0 -4.251746348339e-04 
-8.883854653183e-04 4.319931064094e-04 0.0 
4.319931064094e-04 4.807571306798e-03 0.0 
0.0 0.0 -7.443430781256e-04 
-4.655628622191e-04 8.097546048135e-04 0.0 
8.097546048135e-04 3.367415080588e-03 0.0 
0.0 0.0 -6.011186688906e-04 
-1.309467600587e-03 2.274324864678e-04 0.0 
2.274324864678e-04 8.467271508597e-03 0.0 
0.0 0.0 -1.279059907835e-03 
-1.139712663312e-03 5.524271265546e-04 0.0 
5.524271265546e-04 6.895093066062e-03 0.0 
0.0 0.0 -1.060691896764e-03 
-1.282894195515e-03 1.713163621167e-04 0.0 
1.713163621167e-04 7.580646218946e-03 0.0 
0.0 0.0 -1.155968210243e-03 
-4.263760736077e-04 9.726189065638e-04 0.0 
9.726189065638e-04 1.483303861492e-03 0.0 
0.0 0.0 -3.328149423972e-04 
-1.567783780417e-04 7.459959337790e-04 0.0 
7.459959337790e-04 2.633807870816e-03 0.0 
0.0 0.0 -5.558335581882e-04 
-1.150277857659e-03 5.855176210150e-04 0.0 
5.855176210150e-04 7.056066340815e-03 0.0 
0.0 0.0 -1.089453766084e-03 
0.0 0.0 0.0 
0.0 0.0 0.0 
0.0 0.0 0.0 
-7.560981228119e-04 5.568058696449e-04 0.0 
5.568058696449e-04 3.796632807166e-03 0.0 
0.0 0.0 -6.073871274648e-04 
-8.851342185419e-04 -4.312210323728e-04 0.0 
-4.312210323728e-04 6.519433320506e-03 0.0 
0.0 0.0 -1.080675545910e-03 
-1.164869828715e-04 -1.456841600207e-04 0.0 
-1.456841600207e-04 9.923335266216e-04 0.0 
0.0 0.0 -1.605608400042e-04 
-1.274326596506e-03 6.277067703956e-04 0.0 
6.277067703956e-04 8.332587857653e-03 0.0 
0.0 0.0 -1.257517519450e-03 
-1.082557255636e-03 4.467183423513e-04 0.0 
4.467183423513e-04 6.398503814141e-03 0.0 
0.0 0.0 -9.749624431058e-04 
-5.927975267284e-04 -7.287134833264e-04 0.0 
-7.287134833264e-04 3.408230795765e-03 0.0 
0.0 0.0 -5.995223474422e-04 
-8.718953006962e-04 8.285847793953e-05 0.0 
8.285847793953e-05 6.481498684251e-03 0.0 
0.0 0.0 -1.082135573042e-03 
-9.644421873602e-04 1.848918456793e-04 0.0 
1.848918456793e-04 5.622214910538e-03 0.0 
0.0 0.0 -8.259898420369e-04 
-9.976541713563e-04 8.643209894893e-06 0.0 
8.643209894893e-06 5.944166007327e-03 0.0 
0.0 0.0 -8.838609275114e-04 
-1.149666595734e-03 -3.245227479459e-04 0.0 
-3.245227479459e-04 7.662117469895e-03 0.0 
0.0 0.0 -1.237791025003e-03 
-6.377976835771e-04 -6.114567573414e-04 0.0 
-6.114567573414e-04 2.689173763955e-03 0.0 
0.0 0.0 -4.583583101839e-04 
-7.880409547895e-04 7.989113980148e-04 0.0 
7.989113980148e-04 4.542855302031e-03 0.0 
0.0 0.0 -7.480401524272e-04 
-9.214234162491e-04 5.351887786335e-04 0.0 
5.351887786335e-04 5.111262659093e-03 0.0 
0.0 0.0 -7.988399675000e-04 
-1.125534786672e-03 7.028976634263e-05 0.0 
7.028976634263e-05 6.721724443554e-03 0.0 
0.0 0.0 -1.008548823165e-03 
-9.505406595461e-04 1.355801735478e-04 0.0 
1.355801735478e-04 5.273089753614e-03 0.0 
0.0 0.0 -8.035999206669e-04 
-8.920793708860e-04 1.354006487991e-04 0.0 
1.354006487991e-04 4.845817227354e-03 0.0 
0.0 0.0 -7.415510827328e-04 
-6.524274381720e-04 1.661117945530e-04 0.0 
1.661117945530e-04 5.489508378744e-03 0.0 
0.0 0.0 -9.414312740916e-04 
-1.133549865804e-03 2.632851943964e-04 0.0 
2.632851943964e-04 7.143578184647e-03 0.0 
0.0 0.0 -1.105110859848e-03 
0.0 0.0 0.0 
0.0 0.0 0.0 
0.0 0.0 0.0 
-5.963424256803e-04 8.235655420392e-04 0.0 
8.235655420392e-04 2.727118741511e-03 0.0 
0.0 0.0 -4.649757541953e-04 
-6.413935052421e-04 9.083237096948e-04 0.0 
9.083237096948e-04 3.060885376631e-03 0.0 
0.0 0.0 -5.249394872960e-04 
-7.860598654059e-04 4.409893248632e-04 0.0 
4.409893248632e-04 4.491993588337e-03 0.0 
0.0 0.0 -7.181710532390e-04 
-1.182550884137e-03 1.586567680609e-04 0.0 
1.586567680609e-04 7.254490089636e-03 0.0 
0.0 0.0 -1.095076276885e-03 
4.583279132942e-04 6.488863092727e-04 0.0 
6.488863092727e-04 -1.405418918228e-05 0.0 
0.0 0.0 -1.904030246194e-04 
-8.562318666799e-04 -4.982168400307e-04 0.0 
-4.982168400307e-04 6.277290697447e-03 0.0 
0.0 0.0 -1.043355442177e-03 
-8.774345447710e-04 -2.186708792855e-04 0.0 
-2.186708792855e-04 5.055368522856e-03 0.0 
0.0 0.0 -7.763349569542e-04 
-2.555112241128e-04 1.229664321452e-03 0.0 
1.229664321452e-03 2.574406854457e-03 0.0 
0.0 0.0 -5.576783925304e-04 
-8.394427967850e-04 -5.648718734432e-04 0.0 
-5.648718734432e-04 6.055308780542e-03 0.0 
0.0 0.0 -1.006238978475e-03 
-7.021339785738e-05 -2.257880490566e-04 0.0 
-2.257880490566e-04 5.234298020475e-04 0.0 
0.0 0.0 -1.250635456846e-04 
-1.135452312747e-03 4.797857508760e-04 0.0 
4.797857508760e-04 6.834881249119e-03 0.0 
0.0 0.0 -1.040010908530e-03 
8.624072222387e-05 -5.482403482058e-05 0.0 
-5.482403482058e-05 4.623552898900e-04 0.0 
0.0 0.0 -1.166360257537e-04 
-1.840491842350e-04 -5.445744923588e-05 0.0 
-5.445744923588e-05 7.493422687288e-04 0.0 
0.0 0.0 -1.819418517600e-04 
-3.913654307844e-04 1.191507394513e-03 0.0 
1.191507394513e-03 1.470311877001e-03 0.0 
0.0 0.0 -3.246947309473e-04 
-6.091026736672e-04 -6.117663185554e-04 0.0 
-6.117663185554e-04 2.275310364661e-03 0.0 
0.0 0.0 -3.935955730116e-04 
-1.177121720242e-03 9.986808741326e-05 0.0 
9.986808741326e-05 7.155425965963e-03 0.0 
0.0 0.0 -1.073797489760e-03 
-5.625078577902e-04 -9.911531115061e-04 0.0 
-9.911531115061e-04 2.166295973773e-03 0.0 
0.0 0.0 -3.637595386041e-04 
-2.431075708166e-04 1.562437016590e-03 0.0 
1.562437016590e-03 1.376800568989e-03 0.0 
0.0 0.0 -3.890718233399e-04 
1.128852675938e-04 -1.510947419960e-03 0.0 
-1.510947419960e-03 7.754974600039e-04 0.0 
0.0 0.0 -3.807354546848e-04 
-5.007957256990e-04 -4.054148446658e-04 0.0 
-4.054148446658e-04 1.463133010542e-03 0.0 
0.0 0.0 -2.670040094673e-04 
-9.159310068134e-04 1.166570594862e-04 0.0 
1.166570594862e-04 6.711157580750e-03 0.0 
0.0 0.0 -1.117524173959e-03 
-9.108885203266e-04 1.625635707661e-04 0.0 
1.625635707661e-04 5.002433540525e-03 0.0 
0.0 0.0 -7.687972329812e-04 
-1.323980336649e-03 7.113171737239e-05 0.0 
7.113171737239e-05 8.245489008711e-03 0.0 
0.0 0.0 -1.256743614961e-03 
0.0 0.0 0.0 
0.0 0.0 0.0 
0.0 0.0 0.0 
-3.330839468946e-04 1.604359709376e-03 0.0 
1.604359709376e-03 1.727019779997e-03 0.0 
0.0 0.0 -4.044045206172e-04 
-3.067142002033e-04 1.081368075103e-03 0.0 
1.081368075103e-03 3.044773964149e-03 0.0 
0.0 0.0 -6.230907113744e-04 
-7.160262700323e-04 6.408733665596e-04 0.0 
6.408733665596e-04 3.506266837881e-03 0.0 
0.0 0.0 -5.709397776106e-04 
-8.360378415299e-04 -1.180231066695e-05 0.0 
-1.180231066695e-05 6.234265106431e-03 0.0 
0.0 0.0 -1.045235091131e-03 
-1.333473067012e-03 -5.395820062031e-05 0.0 
-5.395820062031e-05 8.405361436706e-03 0.0 
0.0 0.0 -1.275930989368e-03 
-1.131889764436e-03 1.436010865761e-04 0.0 
1.436010865761e-04 6.812686989612e-03 0.0 
0.0 0.0 -1.029499106509e-03 
5.269662907404e-05 8.913991735483e-04 0.0 
8.913991735483e-04 1.741226620489e-03 0.0 
0.0 0.0 -4.564841486881e-04 
-9.276981546427e-04 -3.123244619600e-04 0.0 
-3.123244619600e-04 6.731635440410e-03 0.0 
0.0 0.0 -1.116166892424e-03 
-1.162987388940e-03 1.784362897977e-04 0.0 
1.784362897977e-04 6.231822734238e-03 0.0 
0.0 0.0 -9.512440159151e-04 
-8.362061665926e-04 3.771233097708e-04 0.0 
3.771233097708e-04 4.773003845214e-03 0.0 
0.0 0.0 -7.537083776970e-04 
-1.102280810414e-03 4.919717221224e-04 0.0 
4.919717221224e-04 6.560511914991e-03 0.0 
0.0 0.0 -1.003200534345e-03 
-1.172867451038e-03 2.356902410022e-04 0.0 
2.356902410022e-04 7.744999640819e-03 0.0 
0.0 0.0 -1.239730878702e-03 
-2.254924367537e-04 5.849015682570e-04 0.0 
5.849015682570e-04 3.115409937203e-03 0.0 
0.0 0.0 -6.206208101913e-04 
-3.928189268474e-04 1.275344444358e-03 0.0 
1.275344444358e-03 1.843263560049e-03 0.0 
0.0 0.0 -3.752687577596e-04 
-9.992253787165e-04 1.463025209614e-04 0.0 
1.463025209614e-04 5.687199852232e-03 0.0 
0.0 0.0 -8.662621843288e-04 
-1.349788229223e-03 3.426545086550e-04 0.0 
3.426545086550e-04 9.036920857709e-03 0.0 
0.0 0.0 -1.323568725688e-03 
-7.650406542385e-04 4.751592665984e-04 0.0 
4.751592665984e-04 4.601158149833e-03 0.0 
0.0 0.0 -7.453270327204e-04 
-3.775537039009e-04 2.220958575008e-04 0.0 
2.220958575008e-04 4.208109464666e-03 0.0 
0.0 0.0 -7.768443034385e-04 
-9.417507759690e-04 -3.219991258082e-05 0.0 
-3.219991258082e-05 5.716819141930e-03 0.0 
0.0 0.0 -8.293613651800e-04 
-1.509886751970e-04 -1.135282332652e-03 0.0 
-1.135282332652e-03 1.017427284165e-03 0.0 
0.0 0.0 -3.579782397794e-04 
-9.508294649730e-04 4.627212186017e-04 0.0 
4.627212186017e-04 5.212868888400e-03 0.0 
0.0 0.0 -8.060563724883e-04 
-7.773528700208e-05 1.427065922566e-03 0.0 
1.427065922566e-03 1.665502982993e-03 0.0 
0.0 0.0 -4.590591740919e-04 
3.797527258111e-04 1.020114754415e-03 0.0 
1.020114754415e-03 1.842831286956e-04 0.0 
0.0 0.0 -2.417296519314e-04 
4.052395816326e-04 -6.135338758200e-04 0.0 
-6.135338758200e-04 -1.137161459364e-06 0.0 
0.0 0.0 -1.731867515028e-04 
-1.167546277040e-03 4.626490460642e-04 0.0 
4.626490460642e-04 7.101376568989e-03 0.0 
0.0 0.0 -1.075985979751e-03 
-9.623797546726e-04 1.845333678616e-04 0.0 
1.845333678616e-04 5.429528329259e-03 0.0 
0.0 0.0 -8.312490730234e-04 
-5.046075129470e-04 1.194499845990e-03 0.0 
1.194499845990e-03 2.882799900291e-03 0.0 
0.0 0.0 -5.429493831729e-04 
-1.206327788760e-03 8.269099761282e-05 0.0 
8.269099761282e-05 7.415962584707e-03 0.0 
0.0 0.0 -1.109763131677e-03 
-1.142751356386e-03 1.744200963682e-04 0.0 
1.744200963682e-04 6.974478761757e-03 0.0 
0.0 0.0 -1.057773507355e-03 
-8.833943353455e-04 3.220642776102e-04 0.0 
3.220642776102e-04 5.046401869676e-03 0.0 
0.0 0.0 -7.887050335656e-04 
-1.278006429871e-03 -2.029556331096e-04 0.0 
-2.029556331096e-04 8.153709597249e-03 0.0 
0.0 0.0 -1.288412101370e-03 
-4.271610777015e-04 5.562024212731e-04 0.0 
5.562024212731e-04 4.316314637617e-03 0.0 
0.0 0.0 -8.078958932737e-04 
-9.266589239438e-04 2.700924202998e-04 0.0 
2.700924202998e-04 5.312918686649e-03 0.0 
0.0 0.0 -8.238265297874e-04 
-4.963470151794e-04 6.905692722870e-04 0.0 
6.905692722870e-04 3.767490595173e-03 0.0 
0.0 0.0 -6.656476441012e-04 
-4.749686160319e-04 1.532444199585e-04 0.0 
1.532444199585e-04 4.696915836540e-03 0.0 
0.0 0.0 -8.413031780454e-04 
2.625503227397e-04 1.238828002540e-03 0.0 
1.238828002540e-03 6.651443892644e-04 0.0 
0.0 0.0 -3.865807678710e-04 
-9.465847814334e-04 1.767858078852e-04 0.0 
1.767858078852e-04 5.036126749418e-03 0.0 
0.0 0.0 -7.898058234521e-04 
-1.895610884557e-04 4.026718807994e-04 0.0 
4.026718807994e-04 3.226201886936e-03 0.0 
0.0 0.0 -6.486359607860e-04 
1.616252847495e-04 -9.427764674384e-04 0.0 
-9.427764674384e-04 1.519153345857e-03 0.0 
0.0 0.0 -4.681053320140e-04 
-1.124321372716e-03 5.190781523116e-04 0.0 
5.190781523116e-04 6.737556221388e-03 0.0 
0.0 0.0 -1.032318248600e-03 
0.0 0.0 0.0 
0.0 0.0 0.0 
0.0 0.0 0.0 
-9.848011893069e-04 9.254887770332e-05 0.0 
9.254887770332e-05 5.522315715833e-03 0.0 
0.0 0.0 -8.386390795737e-04 
1.936986156422e-05 1.160151507078e-03 0.0 
1.160151507078e-03 1.716486351178e-03 0.0 
0.0 0.0 -4.870240021111e-04 
-2.325836748457e-04 1.289855956993e-03 0.0 
1.289855956993e-03 1.788704446122e-03 0.0 
0.0 0.0 -4.015254440178e-04 
4.595658441768e-04 4.744943126908e-04 0.0 
4.744943126908e-04 7.528832652437e-04 0.0 
0.0 0.0 -4.054414645912e-04 
-1.008402327414e-03 5.265744671369e-04 0.0 
5.265744671369e-04 5.786538932645e-03 0.0 
0.0 0.0 -8.965110541436e-04 
-2.494216096235e-04 -4.335362183750e-04 0.0 
-4.335362183750e-04 9.422411490062e-04 0.0 
0.0 0.0 -1.609926926485e-04 
-6.820720035477e-04 8.119732659470e-04 0.0 
8.119732659470e-04 3.361151585438e-03 0.0 
0.0 0.0 -5.613503766092e-04 
-5.249648680804e-04 4.982973278599e-04 0.0 
4.982973278599e-04 4.821038106347e-03 0.0 
0.0 0.0 -8.726802719924e-04 
-9.620382926610e-04 5.073054538474e-04 0.0 
5.073054538474e-04 5.367475776694e-03 0.0 
0.0 0.0 -8.336838631977e-04 
-9.866522304222e-04 1.405170818081e-04 0.0 
1.405170818081e-04 5.654603971252e-03 0.0 
0.0 0.0 -8.301023967811e-04 
2.987392461190e-04 2.567812312072e-04 0.0 
2.567812312072e-04 -6.027321301994e-05 0.0 
0.0 0.0 -1.021997284710e-04 
2.232246709604e-04 -1.918559463565e-04 0.0 
-1.918559463565e-04 1.424673883171e-03 0.0 
0.0 0.0 -4.706942212664e-04 
9.862482380878e-05 -1.372550038116e-03 0.0 
-1.372550038116e-03 1.318021718147e-03 0.0 
0.0 0.0 -4.311372127493e-04 
-6.563785485795e-04 5.486582363547e-04 0.0 
5.486582363547e-04 3.058796699974e-03 0.0 
0.0 0.0 -4.957039317942e-04 
-1.115649045089e-03 1.001564757614e-04 0.0 
1.001564757614e-04 6.632881085886e-03 0.0 
0.0 0.0 -1.000663671924e-03 
-6.796028561542e-04 5.568827768722e-04 0.0 
5.568827768722e-04 3.430251503350e-03 0.0 
0.0 0.0 -5.577786207633e-04 
-1.458115086374e-04 8.292196236090e-04 0.0 
8.292196236090e-04 2.768893991105e-03 0.0 
0.0 0.0 -6.151539951222e-04 
-1.886011553539e-04 1.051832417911e-03 0.0 
1.051832417911e-03 2.651380485181e-03 0.0 
0.0 0.0 -5.868308051845e-04 
4.119056616429e-04 4.824818133927e-04 0.0 
4.824818133927e-04 -5.163543584124e-05 0.0 
0.0 0.0 -1.544015253436e-04 
-5.103402652263e-04 1.016313603146e-03 0.0 
1.016313603146e-03 3.773155867782e-03 0.0 
0.0 0.0 -6.959382511914e-04 
-1.626884107157e-04 1.342060582958e-03 0.0 
1.342060582958e-03 1.124683386977e-03 0.0 
0.0 0.0 -3.635305771564e-04 
-1.332783064049e-03 3.949756871870e-04 0.0 
3.949756871870e-04 8.970989248616e-03 0.0 
0.0 0.0 -1.321446319728e-03 
-1.363423366848e-03 4.246461146743e-04 0.0 
4.246461146743e-04 8.919856195938e-03 0.0 
0.0 0.0 -1.318029376683e-03 
-7.707229978672e-04 8.349277957258e-04 0.0 
8.349277957258e-04 4.657152987880e-03 0.0 
0.0 0.0 -7.755312068111e-04 
8.477148352467e-05 1.389041319869e-03 0.0 
1.389041319869e-03 1.180405502280e-03 0.0 
0.0 0.0 -4.232985079168e-04 
-7.785189424599e-05 1.403831464932e-03 0.0 
1.403831464932e-03 1.344103223027e-03 0.0 
0.0 0.0 -3.659709354871e-04 
-9.354111606034e-04 6.403030867596e-04 0.0 
6.403030867596e-04 5.396292848320e-03 0.0 
0.0 0.0 -8.539191708179e-04 
9.999732188838e-05 1.139160073047e-03 0.0 
1.139160073047e-03 1.275333839354e-03 0.0 
0.0 0.0 -3.930530440640e-04 
2.202450365264e-04 -6.175447713642e-04 0.0 
-6.175447713642e-04 1.218766433543e-03 0.0 
0.0 0.0 -4.339875075689e-04 
-8.457389435740e-04 6.790973874792e-04 0.0 
6.790973874792e-04 4.708791579724e-03 0.0 
0.0 0.0 -7.563811545761e-04 
-1.327783261122e-03 1.214241298840e-04 0.0 
1.214241298840e-04 8.708921592335e-03 0.0 
0.0 0.0 -1.266640259566e-03 
-1.253349979010e-04 1.227176291700e-03 0.0 
1.227176291700e-03 2.155279357023e-03 0.0 
0.0 0.0 -5.226246958029e-04 
-6.857827131982e-04 6.109821481705e-04 0.0 
6.109821481705e-04 5.443563599872e-03 0.0 
0.0 0.0 -9.428115367421e-04 
1.005352414744e-05 1.485881480078e-03 0.0 
1.485881480078e-03 9.313511271753e-04 0.0 
0.0 0.0 -4.034591362812e-04 
-1.256876494634e-03 -1.116338181287e-04 0.0 
-1.116338181287e-04 8.512233064138e-03 0.0 
0.0 0.0 -1.322863172658e-03 
-5.368107279650e-05 1.667223674443e-03 0.0 
1.667223674443e-03 1.192784921883e-03 0.0 
0.0 0.0 -3.959736908235e-04 
-8.401524306229e-04 7.380205594863e-04 0.0 
7.380205594863e-04 4.834030021030e-03 0.0 
0.0 0.0 -7.835188407615e-04 
5.148731166168e-04 5.137437753511e-04 0.0 
5.137437753511e-04 -7.966675073376e-05 0.0 
0.0 0.0 -1.865170139499e-04 
-5.892765440231e-04 4.534415622219e-05 0.0 
4.534415622219e-05 5.187712345136e-03 0.0 
0.0 0.0 -9.211625808215e-04 
-2.619705547916e-04 9.063726296434e-04 0.0 
9.063726296434e-04 3.144147236726e-03 0.0 
0.0 0.0 -6.516619296807e-04 
5.136778266446e-05 -8.544458010471e-04 0.0 
-8.544458010471e-04 1.672478035934e-03 0.0 
0.0 0.0 -4.625367401933e-04 
-9.230469363571e-04 2.192959829449e-04 0.0 
2.192959829449e-04 5.165828729947e-03 0.0 
0.0 0.0 -7.963903837170e-04 
-1.338316942917e-03 5.052217518095e-04 0.0 
5.052217518095e-04 8.833234944730e-03 0.0 
0.0 0.0 -1.324865334549e-03 
-6.025361920258e-05 9.743864967892e-04 0.0 
9.743864967892e-04 2.246037318888e-03 0.0 
0.0 0.0 -5.510338386786e-04 
-4.966114613551e-04 2.324572275960e-05 0.0 
2.324572275960e-05 4.887340644677e-03 0.0 
0.0 0.0 -8.703234504572e-04 
-4.984372673971e-05 1.535578283139e-03 0.0 
1.535578283139e-03 1.001433575544e-03 0.0 
0.0 0.0 -3.453408408593e-04 
-1.068497402403e-03 3.485541216510e-04 0.0 
3.485541216510e-04 6.344714792472e-03 0.0 
0.0 0.0 -9.576894438039e-04 
-8.089599515326e-04 -1.073379708431e-04 0.0 
-1.073379708431e-04 5.996798576901e-03 0.0 
0.0 0.0 -1.008345180213e-03 
-4.736853950805e-04 1.081684251561e-03 0.0 
1.081684251561e-03 2.201297944192e-03 0.0 
0.0 0.0 -4.109515902261e-04 
-1.055848474588e-03 -6.244673246336e-05 0.0 
-6.244673246336e-05 6.209225770776e-03 0.0 
0.0 0.0 -9.257128893455e-04 
-1.318413144677e-03 5.597520288916e-04 0.0 
5.597520288916e-04 8.736177841961e-03 0.0 
0.0 0.0 -1.322580803729e-03 
-9.099621181087e-04 -7.844937670166e-05 0.0 
-7.844937670166e-05 6.486423483439e-03 0.0 
0.0 0.0 -1.075861678316e-03 
-1.339852007458e-03 4.885566376854e-04 0.0 
4.885566376854e-04 8.877779505668e-03 0.0 
0.0 0.0 -1.322091174222e-03 
-1.037601774292e-03 -4.998348071014e-05 0.0 
-4.998348071014e-05 6.134914618430e-03 0.0 
0.0 0.0 -9.196498359204e-04 
-1.117033596766e-03 2.433107206605e-04 0.0 
2.433107206605e-04 6.851288038562e-03 0.0 
0.0 0.0 -1.048263655743e-03 
-5.132028134043e-04 1.102114687126e-03 0.0 
1.102114687126e-03 1.849180492075e-03 0.0 
0.0 0.0 -3.491910591611e-04 
-8.752311967057e-04 2.096761775609e-04 0.0 
2.096761775609e-04 4.753971328354e-03 0.0 
0.0 0.0 -7.343713905235e-04 
-9.300305532746e-04 5.926935085268e-04 0.0 
5.926935085268e-04 5.253991145748e-03 0.0 
0.0 0.0 -8.263924940540e-04 
-9.692706598054e-04 2.261418497641e-04 0.0 
2.261418497641e-04 5.579447270465e-03 0.0 
0.0 0.0 -8.589723558544e-04 
-7.013973697775e-04 5.476600750058e-04 0.0 
5.476600750058e-04 4.307373761106e-03 0.0 
0.0 0.0 -7.101745248689e-04 
-1.306990612628e-03 5.041978193775e-04 0.0 
5.041978193775e-04 8.672501482610e-03 0.0 
0.0 0.0 -1.322334986692e-03 
-9.943643695485e-04 3.416073873728e-04 0.0 
3.416073873728e-04 5.867113055505e-03 0.0 
0.0 0.0 -8.810748613436e-04 
-9.323244271653e-04 9.613325556177e-05 0.0 
9.613325556177e-05 5.115490294310e-03 0.0 
0.0 0.0 -7.763708431881e-04 
-1.001832059306e-04 5.266866745758e-04 0.0 
5.266866745758e-04 2.724835239940e-03 0.0 
0.0 0.0 -5.843899590101e-04 
-5.790296725673e-04 -5.326125379184e-04 0.0 
-5.326125379184e-04 1.882091514832e-03 0.0 
0.0 0.0 -3.280768480529e-04 
-8.597084284199e-04 1.491840850699e-04 0.0 
1.491840850699e-04 4.593177939361e-03 0.0 
0.0 0.0 -7.069124235890e-04 
-4.246089693938e-04 1.428928262105e-03 0.0 
1.428928262105e-03 2.122954743528e-03 0.0 
0.0 0.0 -4.404772202000e-04 
-8.726090169173e-04 -3.101571305491e-05 0.0 
-3.101571305491e-05 5.309765821533e-03 0.0 
0.0 0.0 -7.696142143080e-04 
-7.647244692159e-05 -1.455292213990e-03 0.0 
-1.455292213990e-03 1.759408115361e-03 0.0 
0.0 0.0 -4.595640944490e-04 
-1.784270519959e-05 6.865399459055e-04 0.0 
6.865399459055e-04 2.226340647437e-03 0.0 
0.0 0.0 -5.202658224677e-04 
-1.156111700983e-03 5.188644452185e-04 0.0 
5.188644452185e-04 7.007873302369e-03 0.0 
0.0 0.0 -1.069052450572e-03 
-3.544111730508e-04 1.143529289652e-03 0.0 
1.143529289652e-03 2.186339618849e-03 0.0 
0.0 0.0 -4.372567615832e-04 
-8.838010647401e-04 5.805967859428e-04 0.0 
5.805967859428e-04 4.846530847442e-03 0.0 
0.0 0.0 -7.640689829422e-04 
-5.498264973309e-04 3.710435615581e-04 0.0 
3.710435615581e-04 5.012164832543e-03 0.0 
0.0 0.0 -9.014246907137e-04 
-6.358980608267e-04 -4.313104688366e-04 0.0 
-4.313104688366e-04 4.627036023584e-03 0.0 
0.0 0.0 -8.035328976187e-04 
-1.261046308643e-03 3.887646222973e-04 0.0 
3.887646222973e-04 8.565225437675e-03 0.0 
0.0 0.0 -1.324762665914e-03 
-7.961969453534e-04 2.495159098011e-04 0.0 
2.495159098011e-04 4.113140991581e-03 0.0 
0.0 0.0 -6.390224077203e-04 
3.053061856643e-04 2.267805296744e-04 0.0 
2.267805296744e-04 1.077273840324e-03 0.0 
0.0 0.0 -4.422638729430e-04 
-5.704666668683e-04 -1.178468115440e-03 0.0 
-1.178468115440e-03 3.201154498828e-03 0.0 
0.0 0.0 -5.691257024010e-04 
-5.951122843918e-04 8.042220484985e-04 0.0 
8.042220484985e-04 2.449547643677e-03 0.0 
0.0 0.0 -4.184705811166e-04 
-5.000320666269e-04 1.320407470952e-03 0.0 
1.320407470952e-03 2.143724443106e-03 0.0 
0.0 0.0 -4.141309408042e-04 
-1.196454144110e-03 1.993133203818e-04 0.0 
1.993133203818e-04 7.413315256709e-03 0.0 
0.0 0.0 -1.123886314723e-03 
-8.766172246535e-04 3.573442557890e-04 0.0 
3.573442557890e-04 5.175634424808e-03 0.0 
0.0 0.0 -8.161479701220e-04 
-7.263474599636e-04 3.526993364896e-04 0.0 
3.526993364896e-04 3.570072660402e-03 0.0 
0.0 0.0 -5.672387349321e-04 
-8.352265289735e-04 5.640695091739e-04 0.0 
5.640695091739e-04 4.443467777814e-03 0.0 
0.0 0.0 -7.023794137935e-04 
-1.258131779879e-03 1.361172827669e-04 0.0 
1.361172827669e-04 8.496942290822e-03 0.0 
0.0 0.0 -1.320675234999e-03 
-1.143815948478e-03 -2.922836025447e-06 0.0 
-2.922836025447e-06 7.935052382313e-03 0.0 
0.0 0.0 -1.258064670439e-03 
-1.185356167607e-03 5.772655224951e-04 0.0 
5.772655224951e-04 7.334174599953e-03 0.0 
0.0 0.0 -1.126590436115e-03 
-1.146342777142e-03 1.032030268662e-04 0.0 
1.032030268662e-04 6.902588040038e-03 0.0 
0.0 0.0 -1.037522200811e-03 
-6.004564824823e-04 -8.741253658515e-04 0.0 
-8.741253658515e-04 4.400886106663e-03 0.0 
0.0 0.0 -7.721428985420e-04 
-6.499827822082e-04 6.306060725170e-04 0.0 
6.306060725170e-04 3.517235102446e-03 0.0 
0.0 0.0 -5.842812205453e-04 
2.208852054121e-04 7.449773440899e-04 0.0 
7.449773440899e-04 1.272300042131e-03 0.0 
0.0 0.0 -4.203166018452e-04 
1.283124150736e-04 5.457702178093e-04 0.0 
5.457702178093e-04 1.800318710438e-03 0.0 
0.0 0.0 -4.843489805398e-04 
-8.229602156181e-04 4.179326389389e-04 0.0 
4.179326389389e-04 4.894594765891e-03 0.0 
0.0 0.0 -7.808727949117e-04 
-5.351512224979e-04 -3.319303625282e-04 0.0 
-3.319303625282e-04 5.022677570586e-03 0.0 
0.0 0.0 -8.900964085843e-04 
-8.296790490015e-04 -7.574227516101e-04 0.0 
-7.574227516101e-04 4.266073095582e-03 0.0 
0.0 0.0 -6.810091006415e-04 
-1.209161835961e-03 5.397487415350e-04 0.0 
5.397487415350e-04 7.456423275886e-03 0.0 
0.0 0.0 -1.134236807130e-03 
2.970140770782e-04 -5.886898203256e-04 0.0 
-5.886898203256e-04 1.178529551260e-03 0.0 
0.0 0.0 -4.395655422792e-04 
-6.321441937111e-04 6.212871376415e-04 0.0 
6.212871376415e-04 4.001931118120e-03 0.0 
0.0 0.0 -6.750378637491e-04 
-8.881105026694e-04 6.325939136900e-04 0.0 
6.325939136900e-04 4.979851951469e-03 0.0 
0.0 0.0 -7.913284153978e-04 
-6.067465934174e-04 6.691797761234e-04 0.0 
6.691797761234e-04 3.597583737962e-03 0.0 
0.0 0.0 -6.122259156574e-04 
-1.324329620218e-03 4.629903675986e-04 0.0 
4.629903675986e-04 8.904888157841e-03 0.0 
0.0 0.0 -1.320088186226e-03 
-1.359586791555e-03 4.788353102242e-04 0.0 
4.788353102242e-04 8.942288232093e-03 0.0 
0.0 0.0 -1.318462653075e-03 
-1.290025244180e-03 1.809732516489e-04 0.0 
1.809732516489e-04 8.380056929833e-03 0.0 
0.0 0.0 -1.256494544188e-03 
-6.742581298534e-04 -7.798202117693e-04 0.0 
-7.798202117693e-04 4.873866166937e-03 0.0 
0.0 0.0 -8.375255977276e-04 
-1.194824314076e-03 4.521929309845e-04 0.0 
4.521929309845e-04 7.360058874814e-03 0.0 
0.0 0.0 -1.112065035246e-03 
-4.430818055786e-04 1.485014206495e-03 0.0 
1.485014206495e-03 1.784679357047e-03 0.0 
0.0 0.0 -3.785953687517e-04 
2.729854799726e-05 3.936097668604e-04 0.0 
3.936097668604e-04 2.328364048534e-03 0.0 
0.0 0.0 -5.483018170244e-04 
5.295881833206e-04 7.121810223511e-04 0.0 
7.121810223511e-04 1.629388308909e-04 0.0 
0.0 0.0 -2.967972918049e-04 
-7.211884972610e-04 4.566068001278e-04 0.0 
4.566068001278e-04 3.698308171073e-03 0.0 
0.0 0.0 -5.936226173563e-04 
-9.121582442551e-04 9.143313993339e-05 0.0 
9.143313993339e-05 5.030258123682e-03 0.0 
0.0 0.0 -7.914980036671e-04 
-1.035929216748e-03 3.563880147614e-04 0.0 
3.563880147614e-04 6.090521981813e-03 0.0 
0.0 0.0 -9.214502702889e-04 
-1.168840555119e-03 -8.744363195648e-05 0.0 
-8.744363195648e-05 8.066384051930e-03 0.0 
0.0 0.0 -1.265403586923e-03 
-1.162609015209e-03 6.330590177409e-04 0.0 
6.330590177409e-04 7.197897661744e-03 0.0 
0.0 0.0 -1.117224974728e-03 
-9.919773035698e-04 4.807053877499e-04 0.0 
4.807053877499e-04 5.626646372679e-03 0.0 
0.0 0.0 -8.687609488834e-04 
-9.791621869581e-04 6.007006909595e-04 0.0 
6.007006909595e-04 5.670050972566e-03 0.0 
0.0 0.0 -8.891947744737e-04 
4.804557488344e-04 9.476988486698e-04 0.0 
9.476988486698e-04 9.767658471986e-05 0.0 
0.0 0.0 -2.477710000947e-04 
-2.208441256582e-04 -6.752013946383e-04 0.0 
-6.752013946383e-04 8.882775518556e-04 0.0 
0.0 0.0 -2.467363499356e-04 
-4.153429420500e-04 1.059032103328e-03 0.0 
1.059032103328e-03 3.417216683434e-03 0.0 
0.0 0.0 -6.594106982652e-04 
-6.669546155335e-04 5.596997560711e-04 0.0 
5.596997560711e-04 4.411048143991e-03 0.0 
0.0 0.0 -7.376142925499e-04 
-4.466823138591e-04 6.032870064143e-04 0.0 
6.032870064143e-04 3.840807050757e-03 0.0 
0.0 0.0 -6.931905564144e-04 
6.417191678250e-05 8.603242808997e-04 0.0 
8.603242808997e-04 4.417253736716e-04 0.0 
0.0 0.0 -2.168131244803e-04 
-9.528466809374e-04 9.473419018348e-05 0.0 
9.473419018348e-05 5.427141204722e-03 0.0 
0.0 0.0 -8.462285223656e-04 
-5.049741343807e-04 -8.812005228938e-04 0.0 
-8.812005228938e-04 1.770302560701e-03 0.0 
0.0 0.0 -2.972104253142e-04 
-2.017300964170e-04 1.588765395916e-03 0.0 
1.588765395916e-03 1.677129549565e-03 0.0 
0.0 0.0 -4.314049239902e-04 
-1.341153861134e-03 -7.479496163088e-05 0.0 
-7.479496163088e-05 8.257374884626e-03 0.0 
0.0 0.0 -1.341153861134e-03 
-6.757643640114e-04 6.444207577368e-05 0.0 
6.444207577368e-05 5.692433792017e-03 0.0 
0.0 0.0 -9.717687626070e-04 
-9.402714050330e-04 4.164454812488e-04 0.0 
4.164454812488e-04 5.059115903313e-03 0.0 
0.0 0.0 -7.790007367612e-04 
-1.996455075654e-04 1.120227626459e-04 0.0 
1.120227626459e-04 1.363834974093e-03 0.0 
0.0 0.0 -2.176483604987e-04 
-7.316139978666e-04 8.725598858698e-04 0.0 
8.725598858698e-04 4.250250205740e-03 0.0 
0.0 0.0 -7.126719623954e-04 
-3.416312472277e-04 6.071238986655e-04 0.0 
6.071238986655e-04 3.482434275960e-03 0.0 
0.0 0.0 -6.569982659716e-04 
-1.010067214733e-03 1.858710736428e-04 0.0 
1.858710736428e-04 5.842461225268e-03 0.0 
0.0 0.0 -8.940630110299e-04 
-1.333890643160e-03 5.791621130684e-04 0.0 
5.791621130684e-04 8.805315107962e-03 0.0 
0.0 0.0 -1.323832587333e-03 
-8.707338927728e-04 5.246940464045e-04 0.0 
5.246940464045e-04 4.704277736275e-03 0.0 
0.0 0.0 -7.366500567795e-04 
-9.271217876491e-04 3.071330387493e-04 0.0 
3.071330387493e-04 5.453258810761e-03 0.0 
0.0 0.0 -8.513774089097e-04 
-8.050460189817e-04 -4.209308180889e-04 0.0 
-4.209308180889e-04 4.202095383354e-03 0.0 
0.0 0.0 -6.837695253815e-04 
-1.187192617587e-03 5.026303496447e-04 0.0 
5.026303496447e-04 7.280339694805e-03 0.0 
0.0 0.0 -1.105258581891e-03 
-7.119244178252e-04 -3.438823351423e-04 0.0 
-3.438823351423e-04 5.099696206057e-03 0.0 
0.0 0.0 -8.691653677727e-04 
-1.316090240167e-03 5.389588138701e-04 0.0 
5.389588138701e-04 8.780826577697e-03 0.0 
0.0 0.0 -1.322174839672e-03 
-1.340103718614e-03 4.728281156223e-04 0.0 
4.728281156223e-04 8.628873091994e-03 0.0 
0.0 0.0 -1.340103718614e-03 
-1.341028575724e-03 3.568557509173e-04 0.0 
3.568557509173e-04 8.716110367900e-03 0.0 
0.0 0.0 -1.341028575724e-03 
-1.338044909071e-03 4.168385009661e-04 0.0 
4.168385009661e-04 8.630348436964e-03 0.0 
0.0 0.0 -1.338044909071e-03 
-1.019072052988e-03 5.681193801066e-04 0.0 
5.681193801066e-04 5.940654999783e-03 0.0 
0.0 0.0 -9.244680137507e-04 
-1.198675717763e-03 1.360258094172e-04 0.0 
1.360258094172e-04 7.335887667339e-03 0.0 
0.0 0.0 -1.103002250422e-03 
-1.198479165231e-03 6.200957679300e-04 0.0 
6.200957679300e-04 7.509008113829e-03 0.0 
0.0 0.0 -1.155914796392e-03 
-6.394343852437e-04 1.004430984718e-03 0.0 
1.004430984718e-03 3.542163334784e-03 0.0 
0.0 0.0 -6.147330147620e-04 
-6.675475430971e-04 9.277672711453e-04 0.0 
9.277672711453e-04 3.456421744926e-03 0.0 
0.0 0.0 -5.872917534094e-04 
-8.247859078912e-04 -6.922016390902e-04 0.0 
-6.922016390902e-04 4.077408079033e-03 0.0 
0.0 0.0 -6.436934073013e-04 
-1.217910302125e-03 1.553299834490e-04 0.0 
1.553299834490e-04 7.518311075799e-03 0.0 
0.0 0.0 -1.131852245309e-03 
-1.311936692750e-03 5.307865598084e-04 0.0 
5.307865598084e-04 8.695029491200e-03 0.0 
0.0 0.0 -1.322440284024e-03 
-1.214240069695e-03 4.882095922708e-04 0.0 
4.882095922708e-04 7.535305569948e-03 0.0 
0.0 0.0 -1.141180801552e-03 
-5.747438901480e-04 1.003283814169e-04 0.0 
1.003283814169e-04 5.194431951746e-03 0.0 
0.0 0.0 -9.063345769726e-04 
-1.227388762698e-03 1.265853976664e-04 0.0 
1.265853976664e-04 7.592479060989e-03 0.0 
0.0 0.0 -1.138864741757e-03 
-8.838474672112e-04 3.395282227197e-04 0.0 
3.395282227197e-04 6.126324240512e-03 0.0 
0.0 0.0 -9.903545940741e-04 
-6.357684789507e-04 9.653705253964e-04 0.0 
9.653705253964e-04 4.033111277517e-03 0.0 
0.0 0.0 -7.049739924763e-04 
-7.219643329354e-04 7.270984363887e-04 0.0 
7.270984363887e-04 3.640512255542e-03 0.0 
0.0 0.0 -5.967387615352e-04 
1.271449544166e-04 1.530874377193e-03 0.0 
1.530874377193e-03 7.660888374693e-04 0.0 
0.0 0.0 -3.828144822368e-04 
-1.311008186282e-03 3.440606395408e-04 0.0 
3.440606395408e-04 8.440809804770e-03 0.0 
0.0 0.0 -1.282213402295e-03 
-5.754210014705e-04 1.101723762793e-03 0.0 
1.101723762793e-03 3.231346314138e-03 0.0 
0.0 0.0 -5.792479259103e-04 
-1.176826657867e-03 4.517387013496e-04 0.0 
4.517387013496e-04 7.668341186852e-03 0.0 
0.0 0.0 -1.230767059693e-03 
-8.116549819174e-04 -3.660838800677e-04 0.0 
-3.660838800677e-04 4.013024169842e-03 0.0 
0.0 0.0 -6.465396845166e-04 
-1.917368362491e-04 -1.670915138255e-03 0.0 
-1.670915138255e-03 1.673857297907e-03 0.0 
0.0 0.0 -4.222915044375e-04 
-1.218810452461e-03 -6.182829621563e-05 0.0 
-6.182829621563e-05 7.834853919449e-03 0.0 
0.0 0.0 -1.284312900220e-03 
-3.227899414303e-04 1.463352553329e-03 0.0 
1.463352553329e-03 2.102017459643e-03 0.0 
0.0 0.0 -4.669824892858e-04 
-1.341987455608e-03 4.935381790995e-04 0.0 
4.935381790995e-04 8.595598521703e-03 0.0 
0.0 0.0 -1.341987455608e-03 
-1.324901016307e-03 3.587683922887e-04 0.0 
3.587683922887e-04 8.344464300183e-03 0.0 
0.0 0.0 -1.282654109251e-03 
-8.850522684098e-04 7.214064072268e-04 0.0 
7.214064072268e-04 5.245748206413e-03 0.0 
0.0 0.0 -8.462542048450e-04 
-8.057611890132e-05 -1.710152855484e-04 0.0 
-1.710152855484e-04 3.103213667799e-04 0.0 
0.0 0.0 -9.846224909082e-05 
-1.340954708392e-03 5.230440169069e-04 0.0 
5.230440169069e-04 8.529172830874e-03 0.0 
0.0 0.0 -1.340954708391e-03 
-1.218199846518e-03 4.994387147230e-06 0.0 
4.994387147230e-06 7.808383985296e-03 0.0 
0.0 0.0 -1.284661450484e-03 
-4.838292351495e-05 -1.134502527952e-03 0.0 
-1.134502527952e-03 1.589566893982e-03 0.0 
0.0 0.0 -4.253660281670e-04 
-6.012411031331e-04 -5.471211505201e-06 0.0 
-5.471211505201e-06 5.388600975266e-03 0.0 
0.0 0.0 -9.353130867196e-04 
-1.284222320321e-03 3.331079903689e-04 0.0 
3.331079903689e-04 8.551492227036e-03 0.0 
0.0 0.0 -1.323014926434e-03 
0.0 0.0 0.0 
0.0 0.0 0.0 
0.0 0.0 0.0 
-6.023691884067e-04 1.029224405588e-03 0.0 
1.029224405588e-03 3.627406800571e-03 0.0 
0.0 0.0 -6.425506931502e-04 
-9.361925531562e-04 6.770287321789e-04 0.0 
6.770287321789e-04 5.532046743254e-03 0.0 
0.0 0.0 -8.816033652580e-04 
-8.298014528126e-04 7.768529914015e-04 0.0 
7.768529914015e-04 4.954128457589e-03 0.0 
0.0 0.0 -8.109139232486e-04 
-8.897770840316e-04 6.877783995216e-04 0.0 
6.877783995216e-04 5.117343312454e-03 0.0 
0.0 0.0 -8.186613860469e-04 
-1.469792992645e-04 1.697477444243e-03 0.0 
1.697477444243e-03 1.268784698810e-03 0.0 
0.0 0.0 -3.960833248805e-04 
-1.341360672448e-03 5.109795992512e-04 0.0 
5.109795992512e-04 8.445730971081e-03 0.0 
0.0 0.0 -1.341360672448e-03 
-7.719693981544e-05 2.760009161414e-04 0.0 
2.760009161414e-04 2.850848330235e-03 0.0 
0.0 0.0 -6.123778370825e-04 
1.753729935007e-04 1.501404700023e-05 0.0 
1.501404700023e-05 -5.243892185943e-05 0.0 
0.0 0.0 -5.268603070342e-05 
-1.302465582654e-03 -2.496096405259e-04 0.0 
-2.496096405259e-04 8.365120953103e-03 0.0 
0.0 0.0 -1.272354826527e-03 
-1.485058388714e-04 -2.923397016935e-04 0.0 
-2.923397016935e-04 5.768067641682e-04 0.0 
0.0 0.0 -1.019437782286e-04 
-7.982614346128e-04 6.111031080938e-04 0.0 
6.111031080938e-04 4.181968739078e-03 0.0 
0.0 0.0 -6.678899790658e-04 
2.246133581427e-04 -6.808997986787e-04 0.0 
-6.808997986787e-04 1.445508393424e-04 0.0 
0.0 0.0 -1.582132274936e-04 
-8.489872345980e-04 4.667487785959e-04 0.0 
4.667487785959e-04 4.536973076965e-03 0.0 
0.0 0.0 -7.094882865497e-04 
-1.255369180247e-03 1.858612183135e-05 0.0 
1.858612183135e-05 8.476379217670e-03 0.0 
0.0 0.0 -1.321823097425e-03 
-1.341255375116e-03 4.796779653900e-04 0.0 
4.796779653900e-04 8.398188684786e-03 0.0 
0.0 0.0 -1.341255375116e-03 
-9.721290586981e-04 5.581628762271e-04 0.0 
5.581628762271e-04 5.522703984207e-03 0.0 
0.0 0.0 -8.613793510407e-04 
1.600321873614e-04 -6.162664284866e-04 0.0 
-6.162664284866e-04 1.802849776087e-04 0.0 
0.0 0.0 -1.458502135586e-04 
3.109225001713e-06 1.120621869488e-06 0.0 
1.120621869488e-06 -8.787071989488e-07 0.0 
0.0 0.0 -9.559362011848e-07 
1.535176122475e-04 -1.236399581379e-03 0.0 
-1.236399581379e-03 5.447751134409e-04 0.0 
0.0 0.0 -2.992683110093e-04 
-1.116873810569e-03 -5.374998991881e-04 0.0 
-5.374998991881e-04 7.110713391746e-03 0.0 
0.0 0.0 -1.121833217354e-03 
-9.101085565852e-04 1.581356444995e-04 0.0 
1.581356444995e-04 5.291968435283e-03 0.0 
0.0 0.0 -7.704300227928e-04 
-9.627171074924e-04 3.587877174801e-05 0.0 
3.587877174801e-05 5.332601127641e-03 0.0 
0.0 0.0 -8.109332722942e-04 
-1.342502730507e-03 4.025374877915e-04 0.0 
4.025374877915e-04 8.333596175980e-03 0.0 
0.0 0.0 -1.342502730507e-03 
-9.258687689408e-04 6.411213788910e-05 0.0 
6.411213788910e-05 5.298171403091e-03 0.0 
0.0 0.0 -7.720444664677e-04 
-1.356038484680e-03 3.810509766439e-04 0.0 
3.810509766439e-04 8.994012411350e-03 0.0 
0.0 0.0 -1.322852565091e-03 
-9.095582700075e-04 6.913502515422e-04 0.0 
6.913502515422e-04 6.199031272495e-03 0.0 
0.0 0.0 -1.020998643257e-03 
-1.011415993933e-03 3.149863478337e-04 0.0 
3.149863478337e-04 5.896378527379e-03 0.0 
0.0 0.0 -8.907448815977e-04 
-5.714615022677e-04 1.156558804127e-03 0.0 
1.156558804127e-03 2.460117787699e-03 0.0 
0.0 0.0 -4.477608806526e-04 
-6.254234584821e-04 4.541246643039e-04 0.0 
4.541246643039e-04 5.320880420055e-03 0.0 
0.0 0.0 -9.378661514434e-04 
3.838669366307e-04 1.236207229742e-03 0.0 
1.236207229742e-03 2.839536722242e-04 0.0 
0.0 0.0 -2.862088323664e-04 
-1.340754991027e-03 2.766872434976e-04 0.0 
2.766872434976e-04 8.283487658048e-03 0.0 
0.0 0.0 -1.340754991027e-03 
-1.339984467612e-03 4.682059719065e-04 0.0 
4.682059719065e-04 8.622431533437e-03 0.0 
0.0 0.0 -1.339984467612e-03 
-1.340417744004e-03 3.687782300389e-04 0.0 
3.687782300389e-04 8.691962583590e-03 0.0 
0.0 0.0 -1.340417744004e-03 
-7.614631425941e-04 -7.600693639472e-04 0.0 
-7.600693639472e-04 5.166067953467e-03 0.0 
0.0 0.0 -8.666500598261e-04 
-8.083534389449e-04 -6.157792834396e-04 0.0 
-6.157792834396e-04 3.875634950425e-03 0.0 
0.0 0.0 -6.062238016986e-04 
-5.875577080076e-04 6.263804956418e-04 0.0 
6.263804956418e-04 4.098789747432e-03 0.0 
0.0 0.0 -7.021192356133e-04 
-7.972896345738e-04 -3.252844081748e-04 0.0 
-3.252844081748e-04 5.374062371917e-03 0.0 
0.0 0.0 -8.981573260837e-04 
-1.339627896631e-03 1.538435656171e-04 0.0 
1.538435656171e-04 8.249387984378e-03 0.0 
0.0 0.0 -1.339627896631e-03 
-7.499431316127e-05 1.153135812952e-03 0.0 
1.153135812952e-03 1.745463721331e-03 0.0 
0.0 0.0 -4.287941800800e-04 
9.963389295363e-05 -4.974640475465e-04 0.0 
-4.974640475465e-04 1.806583108532e-03 0.0 
0.0 0.0 -4.991860405784e-04 
-4.325429609303e-05 -6.957715566116e-04 0.0 
-6.957715566116e-04 2.198402972482e-03 0.0 
0.0 0.0 -5.272458293186e-04 
-1.040852931917e-03 3.039409917234e-04 0.0 
3.039409917234e-04 6.156930146379e-03 0.0 
0.0 0.0 -9.279583942086e-04 
-1.296158163173e-03 -2.117115631842e-04 0.0 
-2.117115631842e-04 8.526713660580e-03 0.0 
0.0 0.0 -1.323537156312e-03 
5.620572206727e-05 -9.064776901539e-04 0.0 
-9.064776901539e-04 4.833799193028e-04 0.0 
0.0 0.0 -2.312509891586e-04 
-1.340775759057e-03 -3.546022348328e-06 0.0 
-3.546022348328e-06 8.220355043040e-03 0.0 
0.0 0.0 -1.340775759057e-03 
-1.115561951243e-04 -9.424028116119e-04 0.0 
-9.424028116119e-04 2.079879554815e-03 0.0 
0.0 0.0 -4.905422085546e-04 
-1.342877878941e-03 5.106164496302e-04 0.0 
5.106164496302e-04 8.578886692927e-03 0.0 
0.0 0.0 -1.342877878941e-03 
-1.213674372651e-03 2.426946528992e-04 0.0 
2.426946528992e-04 7.585431715108e-03 0.0 
0.0 0.0 -1.152765850879e-03 
7.551303923517e-04 -3.431961155864e-05 0.0 
-3.431961155864e-05 -8.356761588733e-06 0.0 
0.0 0.0 -1.964897908492e-04 
-5.576622204016e-04 1.038766121166e-03 0.0 
1.038766121166e-03 3.693734829533e-03 0.0 
0.0 0.0 -6.690559060524e-04 
-1.231945608432e-03 6.630499771306e-05 0.0 
6.630499771306e-05 7.672705385687e-03 0.0 
0.0 0.0 -1.146019594970e-03 
-1.341220131281e-03 5.159350734491e-04 0.0 
5.159350734491e-04 8.502743697499e-03 0.0 
0.0 0.0 -1.341220131281e-03 
-1.018091222593e-03 2.268797553762e-04 0.0 
2.268797553762e-04 5.997567393014e-03 0.0 
0.0 0.0 -9.220067723808e-04 
-9.140544266385e-04 6.590381545290e-04 0.0 
6.590381545290e-04 6.350398110146e-03 0.0 
0.0 0.0 -1.049000704964e-03 
1.948485511646e-04 1.206910249746e-03 0.0 
1.206910249746e-03 4.719329916516e-04 0.0 
0.0 0.0 -2.857635183498e-04 
-1.092933677572e-03 -5.430090234950e-06 0.0 
-5.430090234950e-06 7.417148133219e-03 0.0 
0.0 0.0 -1.228682347183e-03 
-2.597655749325e-04 -9.580958323714e-04 0.0 
-9.580958323714e-04 2.468405464320e-03 0.0 
0.0 0.0 -5.184025592846e-04 
-1.467448334793e-04 -1.253609516085e-03 0.0 
-1.253609516085e-03 2.277465230796e-03 0.0 
0.0 0.0 -5.242929400402e-04 
8.350711239017e-05 -5.741871043008e-04 0.0 
-5.741871043008e-04 2.364507936714e-04 0.0 
0.0 0.0 -1.371248168835e-04 
-1.341079611575e-03 4.984530224516e-04 0.0 
4.984530224516e-04 8.418558490732e-03 0.0 
0.0 0.0 -1.341079611575e-03 
3.309852724411e-04 1.022663251937e-03 0.0 
1.022663251937e-03 7.457111261596e-04 0.0 
0.0 0.0 -3.670041082731e-04 
-9.538216450079e-04 -4.415701274725e-04 0.0 
-4.415701274725e-04 6.798030040948e-03 0.0 
0.0 0.0 -1.110501492391e-03 
-9.815143922996e-04 -1.301923920288e-04 0.0 
-1.301923920288e-04 5.716261133104e-03 0.0 
0.0 0.0 -8.555322119248e-04 
-5.211778943540e-04 -1.357561140200e-03 0.0 
-1.357561140200e-03 2.381396269316e-03 0.0 
0.0 0.0 -4.411586999297e-04 
5.027865284562e-06 -1.162974144005e-03 0.0 
-1.162974144005e-03 1.893137919142e-03 0.0 
0.0 0.0 -4.964677435772e-04 
-9.740976170288e-04 2.668400150695e-04 0.0 
2.668400150695e-04 5.727433876448e-03 0.0 
0.0 0.0 -8.867075537039e-04 
-1.342259935407e-03 3.249478019742e-04 0.0 
3.249478019742e-04 8.304746317588e-03 0.0 
0.0 0.0 -1.342259935407e-03 
-8.513383339797e-04 -2.155531084130e-04 0.0 
-2.155531084130e-04 4.042684079104e-03 0.0 
0.0 0.0 -6.378868265889e-04 
-8.326579327741e-04 -6.269168235212e-04 0.0 
-6.269168235212e-04 5.839362625743e-03 0.0 
0.0 0.0 -9.693340058278e-04 
-7.491524898005e-04 8.473182538136e-04 0.0 
8.473182538136e-04 4.765927930056e-03 0.0 
0.0 0.0 -8.030799362305e-04 
-5.836032186753e-04 -5.383312615796e-04 0.0 
-5.383312615796e-04 5.022073810354e-03 0.0 
0.0 0.0 -8.811160271665e-04 
4.293152286994e-05 -8.173969837308e-04 0.0 
-8.173969837308e-04 2.098601697323e-03 0.0 
0.0 0.0 -5.326451291888e-04 
-7.517931783722e-04 -6.967384815080e-04 0.0 
-6.967384815080e-04 5.353981326588e-03 0.0 
0.0 0.0 -9.031726653527e-04 
-7.384492594484e-04 4.981620025079e-04 0.0 
4.981620025079e-04 4.715692557205e-03 0.0 
0.0 0.0 -7.729461360948e-04 
-9.594660891244e-04 3.310922572756e-04 0.0 
3.310922572756e-04 6.288208991268e-03 0.0 
0.0 0.0 -9.982497011217e-04 
-7.260155598219e-04 4.211913378779e-04 0.0 
4.211913378779e-04 5.817009197579e-03 0.0 
0.0 0.0 -1.003134534203e-03 
-6.776109950317e-04 9.016603010913e-04 0.0 
9.016603010913e-04 4.450317334473e-03 0.0 
0.0 0.0 -7.676694601592e-04 
-7.429113511031e-04 -5.174574473206e-04 0.0 
-5.174574473206e-04 3.948133648233e-03 0.0 
0.0 0.0 -6.551190094499e-04 
-2.218900255169e-04 1.098460281572e-03 0.0 
1.098460281572e-03 2.169381084645e-03 0.0 
0.0 0.0 -4.640097282922e-04 
-8.062369115313e-04 -2.975304159245e-04 0.0 
-2.975304159245e-04 3.811084005570e-03 0.0 
0.0 0.0 -6.091269606258e-04 
-8.824461864644e-04 3.062506020875e-04 0.0 
3.062506020875e-04 6.271794679198e-03 0.0 
0.0 0.0 -1.018204129641e-03 
-4.460788929649e-04 4.040748578588e-04 0.0 
4.040748578588e-04 4.503525698480e-03 0.0 
0.0 0.0 -8.365169925761e-04 
-1.261002707828e-03 -7.504870971913e-05 0.0 
-7.504870971913e-05 8.505176480558e-03 0.0 
0.0 0.0 -1.321929620191e-03 
-1.247677519614e-03 1.094732648068e-04 0.0 
1.094732648068e-04 7.850453942976e-03 0.0 
0.0 0.0 -1.174325249119e-03 
-5.404813862772e-04 -9.466285983316e-04 0.0 
-9.466285983316e-04 2.223885193950e-03 0.0 
0.0 0.0 -4.069995479128e-04 
-1.341047338368e-03 7.540167646977e-05 0.0 
7.540167646977e-05 8.197352777791e-03 0.0 
0.0 0.0 -1.341047338368e-03 
-1.130691151971e-03 -1.784363264906e-05 0.0 
-1.784363264906e-05 8.053842301100e-03 0.0 
0.0 0.0 -1.266414110344e-03 
-4.715184922734e-04 9.294387903624e-04 0.0 
9.294387903624e-04 3.876101003561e-03 0.0 
0.0 0.0 -7.237787631415e-04 
3.035840363915e-05 -4.057342954642e-04 0.0 
-4.057342954642e-04 2.137280708151e-04 0.0 
0.0 0.0 -1.046084890518e-04 
-1.265736625837e-03 -2.342234423567e-04 0.0 
-2.342234423567e-04 8.560274388960e-03 0.0 
0.0 0.0 -1.323469717371e-03 
-1.248103745975e-03 1.754263225543e-04 0.0 
1.754263225543e-04 7.767855351365e-03 0.0 
0.0 0.0 -1.167157861819e-03 
-2.143426304924e-04 -1.125447243117e-03 0.0 
-1.125447243117e-03 2.012406359622e-03 0.0 
0.0 0.0 -4.535238702637e-04 
-1.341709311525e-03 -1.537021795728e-04 0.0 
-1.537021795728e-04 8.247140811223e-03 0.0 
0.0 0.0 -1.341709311524e-03 
-8.340634901946e-04 -6.821178693031e-04 0.0 
-6.821178693031e-04 5.639816405277e-03 0.0 
0.0 0.0 -9.325599965574e-04 
-7.159156796781e-04 8.199594821406e-04 0.0 
8.199594821406e-04 3.747642167749e-03 0.0 
0.0 0.0 -6.229492605273e-04 
-9.690599654105e-04 4.302709909689e-04 0.0 
4.302709909689e-04 5.467189617691e-03 0.0 
0.0 0.0 -8.408860858065e-04 
-3.919357097026e-04 6.068237325882e-05 0.0 
6.068237325882e-05 4.381455962217e-03 0.0 
0.0 0.0 -8.054665293395e-04 
-6.923438558252e-04 -8.520265330426e-04 0.0 
-8.520265330426e-04 4.695093275442e-03 0.0 
0.0 0.0 -8.008683130455e-04 
-6.056515233478e-04 -4.164522829612e-04 0.0 
-4.164522829612e-04 5.267235237804e-03 0.0 
0.0 0.0 -9.181754741429e-04 
-1.093523269899e-03 7.798311719689e-05 0.0 
7.798311719689e-05 6.464920900132e-03 0.0 
0.0 0.0 -9.721028620036e-04 
-8.031200443167e-04 6.781379836070e-04 0.0 
6.781379836070e-04 4.309322447368e-03 0.0 
0.0 0.0 -6.945885048819e-04 
-7.991042375162e-04 4.855628797920e-04 0.0 
4.855628797920e-04 6.126908297853e-03 0.0 
0.0 0.0 -1.039409037654e-03 
-9.955657075652e-04 -4.803366383392e-06 0.0 
-4.803366383392e-06 6.069270927012e-03 0.0 
0.0 0.0 -8.839498032872e-04 
-7.742968154824e-04 -8.517460638285e-04 0.0 
-8.517460638285e-04 4.014337168077e-03 0.0 
0.0 0.0 -6.521967345917e-04 
-6.549358325978e-04 3.442178195061e-04 0.0 
3.442178195061e-04 5.516212137862e-03 0.0 
0.0 0.0 -9.664699797409e-04 
-3.659361313914e-04 -1.389777863593e-03 0.0 
-1.389777863593e-03 2.536314572587e-03 0.0 
0.0 0.0 -5.155438399970e-04 
-1.017459211522e-03 -2.035278755390e-04 0.0 
-2.035278755390e-04 5.749338419273e-03 0.0 
0.0 0.0 -9.093720595694e-04 
2.256137386907e-04 -1.163159502201e-04 0.0 
-1.163159502201e-04 1.137935582799e-04 0.0 
0.0 0.0 -4.585464485956e-05 
-3.462420398140e-04 1.018466210769e-03 0.0 
1.018466210769e-03 2.570297332312e-03 0.0 
0.0 0.0 -4.997308803768e-04 
-2.322903734365e-04 -1.457188189013e-03 0.0 
-1.457188189013e-03 2.158535862862e-03 0.0 
0.0 0.0 -4.875765080988e-04 
-8.614851687078e-04 -3.337722832802e-04 0.0 
-3.337722832802e-04 4.446512628758e-03 0.0 
0.0 0.0 -7.126562430121e-04 
-5.635163873739e-04 9.119017880977e-04 0.0 
9.119017880977e-04 4.220442908307e-03 0.0 
0.0 0.0 -7.595228636782e-04 
-7.920931595490e-04 -2.649669687123e-04 0.0 
-2.649669687123e-04 5.573841345894e-03 0.0 
0.0 0.0 -9.350600278798e-04 
-1.013052504013e-03 -8.823570252137e-05 0.0 
-8.823570252137e-05 6.008966805305e-03 0.0 
0.0 0.0 -8.962969588583e-04 
-3.359179918489e-04 -1.568493616469e-03 0.0 
-1.568493616469e-03 2.089144442065e-03 0.0 
0.0 0.0 -4.505554202764e-04 
-1.341827844788e-03 -1.871667057256e-04 0.0 
-1.871667057256e-04 8.296019085882e-03 0.0 
0.0 0.0 -1.341827844788e-03 
-9.219930325587e-04 3.393896039245e-04 0.0 
3.393896039245e-04 5.591653643792e-03 0.0 
0.0 0.0 -8.789935771182e-04 
-9.115582794458e-04 -2.493035172872e-04 0.0 
-2.493035172872e-04 4.677595953812e-03 0.0 
0.0 0.0 -7.413896480605e-04 
-8.652400327000e-04 3.890590998056e-04 0.0 
3.890590998056e-04 5.305115327796e-03 0.0 
0.0 0.0 -8.436662038215e-04 
-8.817818309206e-04 -6.648690080579e-04 0.0 
-6.648690080579e-04 4.510392914982e-03 0.0 
0.0 0.0 -7.098625721847e-04 
0.0 0.0 0.0 
0.0 0.0 0.0 
0.0 0.0 0.0 
-1.015724792628e-03 8.235652516452e-05 0.0 
8.235652516452e-05 5.775865579893e-03 0.0 
0.0 0.0 -8.733545218784e-04 
-8.401387806922e-04 6.123016035239e-05 0.0 
6.123016035239e-05 3.850164849745e-03 0.0 
0.0 0.0 -5.956302995864e-04 
2.119608216236e-04 1.827144702945e-05 0.0 
1.827144702945e-05 -6.337242555222e-05 0.0 
0.0 0.0 -6.368074117344e-05 
-9.031369501237e-04 -1.865236162329e-04 0.0 
-1.865236162329e-04 4.464828183770e-03 0.0 
0.0 0.0 -7.041275119738e-04 
-8.760607814048e-04 -2.015865901798e-04 0.0 
-2.015865901798e-04 6.047567037496e-03 0.0 
0.0 0.0 -1.001254648526e-03 
-1.205696135514e-03 2.785240829935e-04 0.0 
2.785240829935e-04 7.656838420364e-03 0.0 
0.0 0.0 -1.146946825052e-03 
-5.022948978825e-04 -4.626796724593e-04 0.0 
-4.626796724593e-04 4.761985454285e-03 0.0 
0.0 0.0 -8.532270185794e-04 
-5.545620008577e-04 -7.574531854601e-05 0.0 
-7.574531854601e-05 4.939516714005e-03 0.0 
0.0 0.0 -8.841559964380e-04 
-9.029537400273e-04 7.141549008008e-05 0.0 
7.141549008008e-05 4.945239925053e-03 0.0 
0.0 0.0 -7.495231765994e-04 
-8.844827213453e-04 6.847338950964e-05 0.0 
6.847338950964e-05 4.625730514937e-03 0.0 
0.0 0.0 -7.312625299844e-04 
-1.286320179804e-03 2.788583147739e-04 0.0 
2.788583147739e-04 8.406193484283e-03 0.0 
0.0 0.0 -1.286111585339e-03 
-8.045597696771e-04 4.385655444655e-04 0.0 
4.385655444655e-04 5.012857215938e-03 0.0 
0.0 0.0 -8.082854548548e-04 
6.621891051064e-04 -1.711434374491e-05 0.0 
-1.711434374491e-05 -4.360569155907e-05 0.0 
0.0 0.0 -9.362473743294e-05 
-4.298982998579e-04 -6.269550114416e-04 0.0 
-6.269550114416e-04 1.549337747066e-03 0.0 
0.0 0.0 -2.569639750501e-04 
-5.557804512661e-05 -2.649152406900e-04 0.0 
-2.649152406900e-04 2.900758507811e-04 0.0 
0.0 0.0 -1.004990595662e-04 
-6.031978273067e-04 -1.007320967644e-03 0.0 
-1.007320967644e-03 2.552633295107e-03 0.0 
0.0 0.0 -4.284133232656e-04 
-1.143923933864e-03 2.767605230601e-04 0.0 
2.767605230601e-04 7.311015416728e-03 0.0 
0.0 0.0 -1.134523071099e-03 
-1.214790267536e-03 -1.094816465951e-04 0.0 
-1.094816465951e-04 7.712260942966e-03 0.0 
0.0 0.0 -1.144649651339e-03 
-1.087508141976e-03 -1.587001134092e-04 0.0 
-1.587001134092e-04 6.822768700719e-03 0.0 
0.0 0.0 -1.087427768671e-03 
-6.685965332887e-04 -7.845956287838e-04 0.0 
-7.845956287838e-04 2.990542570396e-03 0.0 
0.0 0.0 -4.827803379924e-04 
-1.041668217069e-03 -5.600095855462e-04 0.0 
-5.600095855462e-04 5.820984951314e-03 0.0 
0.0 0.0 -9.063168105749e-04 
-1.002226704218e-03 -4.489969858519e-05 0.0 
-4.489969858519e-05 6.971386371707e-03 0.0 
0.0 0.0 -1.142106164841e-03 
5.911862038656e-04 5.961670165533e-05 0.0 
5.961670165533e-05 -1.764561884350e-04 0.0 
0.0 0.0 -1.777414351845e-04 
-8.306874199400e-04 -2.997045909462e-04 0.0 
-2.997045909462e-04 3.873272421704e-03 0.0 
0.0 0.0 -5.942115541274e-04 
-6.956533125248e-04 1.124846661467e-04 0.0 
1.124846661467e-04 3.135833764917e-03 0.0 
0.0 0.0 -4.980019828625e-04 
-1.307918774452e-03 -2.672149718263e-04 0.0 
-2.672149718263e-04 8.583156667318e-03 0.0 
0.0 0.0 -1.322396863610e-03 
-1.341641872583e-03 -2.574400453278e-04 0.0 
-2.574400453278e-04 8.313092341430e-03 0.0 
0.0 0.0 -1.341641872583e-03 
-9.100844780323e-04 -2.535656636935e-04 0.0 
-2.535656636935e-04 4.283598396940e-03 0.0 
0.0 0.0 -6.580288049735e-04 
-9.226849417219e-04 -5.822088138657e-04 0.0 
-5.822088138657e-04 4.742725005737e-03 0.0 
0.0 0.0 -7.385580096348e-04 
-7.259593438489e-04 -4.081287369355e-04 0.0 
-4.081287369355e-04 4.909588067259e-03 0.0 
0.0 0.0 -8.323457052078e-04 
-1.025384663725e-03 -1.558037465635e-06 0.0 
-1.558037465635e-06 7.232536331843e-03 0.0 
0.0 0.0 -1.177278300149e-03 
-5.185769804223e-04 -3.082242823645e-04 0.0 
-3.082242823645e-04 1.649765607481e-03 0.0 
0.0 0.0 -2.880367495917e-04 
-9.770068768367e-04 -9.822974250100e-05 0.0 
-9.822974250100e-05 6.742502940673e-03 0.0 
0.0 0.0 -1.104707344597e-03 
-8.864038043829e-05 -1.638440655004e-05 0.0 
-1.638440655004e-05 9.863844244365e-04 0.0 
0.0 0.0 -1.612556504808e-04 
-8.754272683905e-04 -6.018300858025e-04 0.0 
-6.018300858025e-04 4.312432546832e-03 0.0 
0.0 0.0 -6.724657308136e-04 
-8.826884309659e-04 -7.176448192389e-04 0.0 
-7.176448192389e-04 4.701849927849e-03 0.0 
0.0 0.0 -7.470513223635e-04 
-3.546308527174e-05 5.679765794383e-06 0.0 
5.679765794383e-06 2.993710717870e-04 0.0 
0.0 0.0 -1.131034227923e-04 
-8.541374211011e-04 1.051307269510e-04 0.0 
1.051307269510e-04 4.063038016891e-03 0.0 
0.0 0.0 -6.267591816330e-04 
-1.242827358992e-03 4.579768759709e-04 0.0 
4.579768759709e-04 7.784562517271e-03 0.0 
0.0 0.0 -1.176862138969e-03 
5.856171802454e-04 8.673890813667e-06 0.0 
8.673890813667e-06 6.976119991761e-06 0.0 
0.0 0.0 -9.786084279852e-05 
-8.702582028195e-04 1.105447853201e-04 0.0 
1.105447853201e-04 4.607072405037e-03 0.0 
0.0 0.0 -7.322753781719e-04 
-8.459002629386e-04 1.198690024363e-04 0.0 
1.198690024363e-04 4.870014320209e-03 0.0 
0.0 0.0 -7.130472889423e-04 
-6.411087712709e-04 -3.059567672411e-04 0.0 
-3.059567672411e-04 5.528224217795e-03 0.0 
0.0 0.0 -9.552000144736e-04 
-6.940260095912e-04 -2.019223501579e-04 0.0 
-2.019223501579e-04 3.181147651246e-03 0.0 
0.0 0.0 -4.943513106837e-04 
-3.551699552598e-04 -1.046898701828e-03 0.0 
-1.046898701828e-03 2.386678131376e-03 0.0 
0.0 0.0 -4.817493388239e-04 
-2.903941216122e-04 1.483074513055e-03 0.0 
1.483074513055e-03 1.457235103792e-03 0.0 
0.0 0.0 -3.398054741319e-04 
-1.199955943827e-03 -1.286515075727e-04 0.0 
-1.286515075727e-04 7.503949585872e-03 0.0 
0.0 0.0 -1.180895453064e-03 
-1.276254635442e-03 4.715115445783e-04 0.0 
4.715115445783e-04 8.059382999082e-03 0.0 
0.0 0.0 -1.286194385238e-03 
-1.186217889961e-03 -6.749121568718e-05 0.0 
-6.749121568718e-05 7.409362913807e-03 0.0 
0.0 0.0 -1.101088927253e-03 
-5.347000365982e-04 9.291634402025e-04 0.0 
9.291634402025e-04 2.503086312716e-03 0.0 
0.0 0.0 -4.457015571677e-04 
-3.190037393042e-04 -1.683187168607e-04 0.0 
-1.683187168607e-04 9.740026393817e-04 0.0 
0.0 0.0 -2.223875638571e-04 
-8.385442436262e-04 2.562372654306e-04 0.0 
2.562372654306e-04 4.497930936177e-03 0.0 
0.0 0.0 -6.999131133628e-04 
-8.425527780140e-04 3.452494000883e-05 0.0 
3.452494000883e-05 4.643700331840e-03 0.0 
0.0 0.0 -7.345111139194e-04 
-8.389403033821e-04 -1.305466340479e-06 0.0 
-1.305466340479e-06 4.908724598573e-03 0.0 
0.0 0.0 -7.144802219087e-04 
2.118993314013e-04 1.507058348733e-05 0.0 
1.507058348733e-05 -6.339593750257e-05 0.0 
0.0 0.0 -6.364431167088e-05 
-5.587289192583e-05 -6.452329894431e-06 0.0 
-6.452329894431e-06 2.977317204857e-04 0.0 
0.0 0.0 -1.036537836685e-04 
-1.659582098734e-04 -6.983629749951e-05 0.0 
-6.983629749951e-05 7.156238265913e-04 0.0 
0.0 0.0 -1.795416262981e-04 
-6.042827533109e-04 -3.178261870528e-04 0.0 
-3.178261870528e-04 2.298196668838e-03 0.0 
0.0 0.0 -3.820941496288e-04 
1.745656339544e-04 -6.881620967810e-06 0.0 
-6.881620967810e-06 5.205015129475e-04 0.0 
0.0 0.0 -1.430998070712e-04 
-9.621077650285e-04 9.743124488288e-05 0.0 
9.743124488288e-05 4.540703172736e-03 0.0 
0.0 0.0 -6.918148876825e-04 
0.0 0.0 0.0 
0.0 0.0 0.0 
0.0 0.0 0.0 
-6.636885702572e-04 -3.632840591834e-04 0.0 
-3.632840591834e-04 2.727769964994e-03 0.0 
0.0 0.0 -4.482372226011e-04 
-1.037073112810e-03 8.416167581821e-05 0.0 
8.416167581821e-05 6.231636848545e-03 0.0 
0.0 0.0 -9.582560723523e-04 
-8.428951159850e-04 8.320649882269e-05 0.0 
8.320649882269e-05 4.895786071823e-03 0.0 
0.0 0.0 -7.120344407548e-04 
-1.176195464104e-03 2.727173431630e-04 0.0 
2.727173431630e-04 7.571205441829e-03 0.0 
0.0 0.0 -1.169483110168e-03 
-8.724458015179e-04 -2.535481835564e-04 0.0 
-2.535481835564e-04 5.840199633402e-03 0.0 
0.0 0.0 -9.641449249716e-04 
-9.956049472303e-04 9.460602026458e-05 0.0 
9.460602026458e-05 5.823804297189e-03 0.0 
0.0 0.0 -8.988447104697e-04 
-7.453270263773e-04 1.666868432523e-04 0.0 
1.666868432523e-04 3.393805001824e-03 0.0 
0.0 0.0 -5.269378630653e-04 
-6.611997545445e-05 -3.806127284770e-05 0.0 
-3.806127284770e-05 9.766559638682e-04 0.0 
0.0 0.0 -1.602995255322e-04 
-1.340974968048e-03 1.475163558745e-04 0.0 
1.475163558745e-04 8.789407210591e-03 0.0 
0.0 0.0 -1.340974968048e-03 
-1.353375445294e-03 1.861681106883e-04 0.0 
1.861681106883e-04 9.067632799309e-03 0.0 
0.0 0.0 -1.320295381545e-03 
-9.653313430370e-04 3.172946590342e-04 0.0 
3.172946590342e-04 5.653212768820e-03 0.0 
0.0 0.0 -8.588387843224e-04 
-8.723549553050e-04 3.791940437681e-05 0.0 
3.791940437681e-05 4.638744233564e-03 0.0 
0.0 0.0 -7.326073368541e-04 
-7.433675000171e-04 -1.881116571238e-04 0.0 
-1.881116571238e-04 3.464526545461e-03 0.0 
0.0 0.0 -5.314511797787e-04 
-1.343039576571e-03 1.116238935560e-04 0.0 
1.116238935560e-04 9.058435864628e-03 0.0 
0.0 0.0 -1.322576402756e-03 
-6.088517818817e-04 -7.427980185432e-04 0.0 
-7.427980185432e-04 2.573085079122e-03 0.0 
0.0 0.0 -4.166600706249e-04 
-8.421343191380e-04 8.947296271355e-05 0.0 
8.947296271355e-05 4.867861189812e-03 0.0 
0.0 0.0 -7.125614225629e-04 
-8.442475580862e-04 6.688277321944e-05 0.0 
6.688277321944e-05 4.629764896323e-03 0.0 
0.0 0.0 -7.312775522649e-04 
-8.183075665077e-04 4.944600713478e-04 0.0 
4.944600713478e-04 4.297011605974e-03 0.0 
0.0 0.0 -6.755779900756e-04 
-1.341823989366e-03 3.176700121755e-04 0.0 
3.176700121755e-04 8.755155514573e-03 0.0 
0.0 0.0 -1.341823989366e-03 
-1.316183787817e-03 1.764356624828e-04 0.0 
1.764356624828e-04 9.061441417317e-03 0.0 
0.0 0.0 -1.322582685247e-03 
1.706419388007e-04 -6.581066488368e-06 0.0 
-6.581066488368e-06 5.083643028934e-04 0.0 
0.0 0.0 -1.414504174366e-04 
2.407344509661e-04 1.323517305793e-05 0.0 
1.323517305793e-05 -7.208659109850e-05 0.0 
0.0 0.0 -7.227765422896e-05 
-4.260081866660e-04 -1.856958100474e-04 0.0 
-1.856958100474e-04 1.223914747001e-03 0.0 
0.0 0.0 -2.229509930541e-04 
-8.539532720431e-04 -3.709598021116e-04 0.0 
-3.709598021116e-04 4.637819177533e-03 0.0 
0.0 0.0 -7.497705102653e-04 
-1.319228459702e-03 1.823496012509e-04 0.0 
1.823496012509e-04 8.037185883931e-03 0.0 
0.0 0.0 -1.224669017856e-03 
0.0 0.0 0.0 
0.0 0.0 0.0 
0.0 0.0 0.0 
-1.164534197096e-03 -1.984727069524e-04 0.0 
-1.984727069524e-04 7.327097077271e-03 0.0 
0.0 0.0 -1.092518628634e-03 
0.0 0.0 0.0 
0.0 0.0 0.0 
0.0 0.0 0.0 
-6.586480689669e-04 -2.893406478862e-05 0.0 
-2.893406478862e-05 5.445033550024e-03 0.0 
0.0 0.0 -9.493083249531e-04 
6.413544779552e-05 -3.379620450346e-04 0.0 
-3.379620450346e-04 1.394736970074e-04 0.0 
0.0 0.0 -8.691392457031e-05 
1.450430834232e-05 -8.616792963926e-05 0.0 
-8.616792963926e-05 3.294529381564e-05 0.0 
0.0 0.0 -2.033554378198e-05 
-6.338862404721e-04 -1.383285000905e-04 0.0 
-1.383285000905e-04 5.212576859225e-03 0.0 
0.0 0.0 -9.122568895951e-04 
-1.285900318349e-03 2.146352195215e-05 0.0 
2.146352195215e-05 7.759528202279e-03 0.0 
0.0 0.0 -1.192963836147e-03 
-1.029044917040e-03 -7.279636213487e-05 0.0 
-7.279636213487e-05 6.446740060124e-03 0.0 
0.0 0.0 -9.361271490834e-04 
-8.407421483093e-04 3.218859450769e-04 0.0 
3.218859450769e-04 4.639661762171e-03 0.0 
0.0 0.0 -7.268406435589e-04 
-3.072399208747e-05 -1.897210475410e-05 0.0 
-1.897210475410e-05 2.991997316549e-04 0.0 
0.0 0.0 -1.150610312432e-04 
-1.088521664505e-03 -4.986556758640e-04 0.0 
-4.986556758640e-04 6.052818965112e-03 0.0 
0.0 0.0 -9.349022313484e-04 
-1.337797817327e-03 2.888082420915e-05 0.0 
2.888082420915e-05 8.797778454419e-03 0.0 
0.0 0.0 -1.337797817327e-03 
-1.344206616167e-03 -8.091836582187e-05 0.0 
-8.091836582187e-05 9.064612422815e-03 0.0 
0.0 0.0 -1.322354755130e-03 
-8.386635614455e-04 6.856267782852e-05 0.0 
6.856267782852e-05 4.896920748213e-03 0.0 
0.0 0.0 -7.125764448434e-04 
-6.958258556129e-04 6.990936182405e-05 0.0 
6.990936182405e-05 5.692375670829e-03 0.0 
0.0 0.0 -9.863757069361e-04 
-1.341607717199e-03 1.551401879936e-04 0.0 
1.551401879936e-04 8.810609962061e-03 0.0 
0.0 0.0 -1.341607717199e-03 
-8.875903164710e-04 2.432432692731e-04 0.0 
2.432432692731e-04 6.412529175352e-03 0.0 
0.0 0.0 -1.046710270629e-03 
-7.224987108801e-05 2.416900893393e-05 0.0 
2.416900893393e-05 9.236508622773e-04 0.0 
0.0 0.0 -1.589907658001e-04 
1.844060408699e-04 -1.026478452949e-05 0.0 
-1.026478452949e-05 5.130263938471e-04 0.0 
0.0 0.0 -1.435574244405e-04 
-2.891409061342e-05 -3.272758998480e-05 0.0 
-3.272758998480e-05 3.203427987140e-04 0.0 
0.0 0.0 -1.200048127433e-04 
-8.246082063499e-04 1.600403801409e-04 0.0 
1.600403801409e-04 3.844559296729e-03 0.0 
0.0 0.0 -5.933358154923e-04 
-1.368440753648e-03 -2.847926622310e-04 0.0 
-2.847926622310e-04 8.814363085181e-03 0.0 
0.0 0.0 -1.322828574513e-03 
-1.280689091558e-03 -2.286632291646e-04 0.0 
-2.286632291646e-04 8.487923234130e-03 0.0 
0.0 0.0 -1.258329778789e-03 
3.241888796887e-04 -1.045552644564e-05 0.0 
-1.045552644564e-05 -9.712814169220e-05 0.0 
0.0 0.0 -9.731174485565e-05 
-9.449458894061e-04 -2.123271304103e-04 0.0 
-2.123271304103e-04 4.512069341782e-03 0.0 
0.0 0.0 -6.938761155152e-04 
-1.344798314370e-03 -1.247366253674e-04 0.0 
-1.247366253674e-04 8.595631148609e-03 0.0 
0.0 0.0 -1.344798314369e-03 
-1.373531731671e-03 -1.707869213026e-04 0.0 
-1.707869213026e-04 8.832402882049e-03 0.0 
0.0 0.0 -1.318785251170e-03 
-1.282177360506e-03 -3.124369979244e-04 0.0 
-3.124369979244e-04 8.610103347005e-03 0.0 
0.0 0.0 -1.321151187552e-03 
-1.113562773683e-03 2.219946434219e-04 0.0 
2.219946434219e-04 6.878878469590e-03 0.0 
0.0 0.0 -1.027148381742e-03 
-1.180769122149e-03 -2.135481498419e-04 0.0 
-2.135481498419e-04 7.573759840694e-03 0.0 
0.0 0.0 -1.125709525796e-03 
-1.338030260144e-03 -1.771563366243e-04 0.0 
-1.771563366243e-04 8.542675147626e-03 0.0 
0.0 0.0 -1.338030260144e-03 
-1.340754991027e-03 -2.390663127656e-04 0.0 
-2.390663127656e-04 8.545998822267e-03 0.0 
0.0 0.0 -1.340754991027e-03 
-1.152960594027e-03 1.859255734492e-04 0.0 
1.859255734492e-04 7.333872638941e-03 0.0 
0.0 0.0 -1.092518628634e-03 
6.049380340677e-04 9.558791361842e-05 0.0 
9.558791361842e-05 -6.435715806389e-05 0.0 
0.0 0.0 -9.262874179211e-05 
-8.216739313019e-04 1.642653897250e-05 0.0 
1.642653897250e-05 4.866544847831e-03 0.0 
0.0 0.0 -7.139539158865e-04 
-8.429301589013e-04 7.371775731573e-05 0.0 
7.371775731573e-05 4.924292125164e-03 0.0 
0.0 0.0 -7.133642253441e-04 
2.822984979202e-04 4.993728977262e-06 0.0 
4.993728977262e-06 -8.464889214890e-05 0.0 
0.0 0.0 -8.470697390201e-05 
-1.342313591240e-03 -2.893823135638e-04 0.0 
-2.893823135638e-04 8.501007321383e-03 0.0 
0.0 0.0 -1.342313591240e-03 
-1.327713446301e-03 -3.071447071229e-04 0.0 
-3.071447071229e-04 8.654446540322e-03 0.0 
0.0 0.0 -1.318355947622e-03 
-1.337959751097e-03 -3.069413126871e-04 0.0 
-3.069413126871e-04 8.377273660842e-03 0.0 
0.0 0.0 -1.337959751097e-03 
5.382873424725e-04 1.051034098534e-05 0.0 
1.051034098534e-05 3.447207322761e-05 0.0 
0.0 0.0 -9.875111991497e-05 
5.465365996427e-04 1.921140548757e-05 0.0 
1.921140548757e-05 3.586604406774e-05 0.0 
0.0 0.0 -1.001629653630e-04 
-1.340754991027e-03 -2.745211848364e-04 0.0 
-2.745211848364e-04 8.326750669152e-03 0.0 
0.0 0.0 -1.340754991027e-03 
-1.340396196526e-03 -3.177254258607e-04 0.0 
-3.177254258607e-04 8.348861196928e-03 0.0 
0.0 0.0 -1.340396196526e-03 
-1.100408733265e-03 -2.290747800904e-04 0.0 
-2.290747800904e-04 6.654648242085e-03 0.0 
0.0 0.0 -9.936726122374e-04 
-8.156679351147e-04 3.791493186346e-05 0.0 
3.791493186346e-05 4.866771241895e-03 0.0 
0.0 0.0 -7.124851972278e-04 
-1.126282978383e-03 -2.242329370711e-04 0.0 
-2.242329370711e-04 7.103431173965e-03 0.0 
0.0 0.0 -1.060142436171e-03 
-9.808195587630e-04 -2.230997408213e-04 0.0 
-2.230997408213e-04 5.708119715060e-03 0.0 
0.0 0.0 -8.626607521899e-04 
-7.941305620824e-04 1.551089981454e-05 0.0 
1.551089981454e-05 4.869359917574e-03 0.0 
0.0 0.0 -7.121912678902e-04 
7.040827403612e-04 7.380490456996e-06 0.0 
7.380490456996e-06 -3.505683220774e-05 0.0 
0.0 0.0 -9.491348420367e-05 
6.357527662839e-04 -8.824699617213e-05 0.0 
-8.824699617213e-05 3.733323429846e-05 0.0 
0.0 0.0 -1.068803031330e-04 
5.856552846093e-04 -8.204592747125e-05 0.0 
-8.204592747125e-05 2.270090481132e-05 0.0 
0.0 0.0 -9.934895370439e-05 
6.682124726064e-04 -5.433044528850e-05 0.0 
-5.433044528850e-05 2.762423436657e-05 0.0 
0.0 0.0 -1.574260069802e-04 
-9.875526380001e-04 1.999683647263e-04 0.0 
1.999683647263e-04 4.756922496595e-03 0.0 
0.0 0.0 -7.271325101417e-04 
-9.022422993743e-04 1.689219604000e-04 0.0 
1.689219604000e-04 4.293373185727e-03 0.0 
0.0 0.0 -6.600769387058e-04 
0.0 0.0 0.0 
0.0 0.0 0.0 
0.0 0.0 0.0 
-1.139432736752e-03 1.969596473993e-04 0.0 
1.969596473993e-04 6.092355855196e-03 0.0 
0.0 0.0 -9.221709323543e-04 
0.0 0.0 0.0 
0.0 0.0 0.0 
0.0 0.0 0.0 
-1.341471640605e-03 2.821656468085e-04 0.0 
2.821656468085e-04 8.748357117342e-03 0.0 
0.0 0.0 -1.341471640605e-03 
-1.340968685557e-03 1.312437350478e-04 0.0 
1.312437350478e-04 8.782913575074e-03 0.0 
0.0 0.0 -1.340968685557e-03 
-1.339320413496e-03 1.880713074898e-04 0.0 
1.880713074898e-04 8.789181418084e-03 0.0 
0.0 0.0 -1.339320413496e-03 
-2.891904725790e-04 2.036868385329e-04 0.0 
2.036868385329e-04 1.487086439737e-03 0.0 
0.0 0.0 -2.599136149544e-04 
-6.430141663801e-04 1.708121578067e-04 0.0 
1.708121578067e-04 2.925097320677e-03 0.0 
0.0 0.0 -4.607467809507e-04 
-1.337132911908e-03 8.989218137943e-05 0.0 
8.989218137943e-05 8.798780956337e-03 0.0 
0.0 0.0 -1.337132911908e-03 
-1.268709771428e-03 1.750290220288e-04 0.0 
1.750290220288e-04 7.410750387042e-03 0.0 
0.0 0.0 -1.124956933753e-03 
-1.344556937803e-03 5.420067643192e-05 0.0 
5.420067643192e-05 8.841140369170e-03 0.0 
0.0 0.0 -1.344556937803e-03 
-1.309963082983e-03 1.898374887779e-04 0.0 
1.898374887779e-04 7.848623061347e-03 0.0 
0.0 0.0 -1.192538251246e-03 
-1.338506523092e-03 2.196897297750e-04 0.0 
2.196897297750e-04 8.286254789378e-03 0.0 
0.0 0.0 -1.259905836238e-03 
-8.634449756302e-04 -2.267992264203e-04 0.0 
-2.267992264203e-04 4.063283112415e-03 0.0 
0.0 0.0 -6.267460875326e-04 
-1.354536289335e-03 7.630110527830e-05 0.0 
7.630110527830e-05 9.083283423121e-03 0.0 
0.0 0.0 -1.318101597465e-03 
-1.353127036110e-03 2.052350059942e-04 0.0 
2.052350059942e-04 9.070380165704e-03 0.0 
0.0 0.0 -1.321689849711e-03 
-1.286890123680e-03 -2.394731622084e-04 0.0 
-2.394731622084e-04 7.571755325092e-03 0.0 
0.0 0.0 -1.157495185000e-03 
-1.323365826624e-03 -2.403819852103e-04 0.0 
-2.403819852103e-04 8.033634754339e-03 0.0 
0.0 0.0 -1.225777420818e-03 
-1.161453211646e-03 -3.736884005785e-04 0.0 
-3.736884005785e-04 6.493225178424e-03 0.0 
0.0 0.0 -9.925156490314e-04 
0.0 0.0 0.0 
0.0 0.0 0.0 
0.0 0.0 0.0 
-8.671818712195e-04 -5.363828857818e-04 0.0 
-5.363828857818e-04 4.105500038503e-03 0.0 
0.0 0.0 -6.350241097613e-04 
1.538446466672e-04 -5.196602102228e-05 0.0 
-5.196602102228e-05 5.032465276658e-04 0.0 
0.0 0.0 -1.372732375194e-04 
-1.212742551210e-03 -4.759587518373e-04 0.0 
-4.759587518373e-04 7.564630454968e-03 0.0 
0.0 0.0 -1.177819030284e-03 
-8.605651419967e-04 -2.779235020759e-04 0.0 
-2.779235020759e-04 4.247159815615e-03 0.0 
0.0 0.0 -6.753691525988e-04 
-1.209845026625e-03 -3.828065324347e-05 0.0 
-3.828065324347e-05 7.089490121300e-03 0.0 
0.0 0.0 -1.099016898379e-03 
-5.359685570494e-04 -6.677092728244e-04 0.0 
-6.677092728244e-04 2.153205781578e-03 0.0 
0.0 0.0 -3.504775146279e-04 
-1.805242587165e-04 1.222080852242e-05 0.0 
1.222080852242e-05 7.550645308543e-04 0.0 
0.0 0.0 -1.735952156319e-04 
-1.264456075116e-03 -3.850163355986e-04 0.0 
-3.850163355986e-04 7.592925326403e-03 0.0 
0.0 0.0 -1.161668299909e-03 
-9.012428398998e-04 -5.241478665253e-04 0.0 
-5.241478665253e-04 4.532812848754e-03 0.0 
0.0 0.0 -7.012080445024e-04 
-8.068122859681e-04 1.121430841948e-04 0.0 
1.121430841948e-04 3.618999234990e-03 0.0 
0.0 0.0 -5.611363230934e-04 
-1.221373729773e-03 -3.971185644326e-04 0.0 
-3.971185644326e-04 7.158861497178e-03 0.0 
0.0 0.0 -1.096102707776e-03 
-1.225888037185e-03 2.356398892211e-04 0.0 
2.356398892211e-04 7.926332987898e-03 0.0 
0.0 0.0 -1.188907866872e-03 
-7.850590963075e-04 -2.211249008548e-04 0.0 
-2.211249008548e-04 3.627921543623e-03 0.0 
0.0 0.0 -5.602736785587e-04 
-9.153466014746e-04 -5.672710459790e-04 0.0 
-5.672710459790e-04 6.328544019957e-03 0.0 
0.0 0.0 -1.035646790376e-03 
-9.544485914901e-04 -2.692006228927e-04 0.0 
-2.692006228927e-04 5.706833288183e-03 0.0 
0.0 0.0 -9.181742748318e-04 
-1.151482432891e-03 -1.721733511891e-05 0.0 
-1.721733511891e-05 6.426989542900e-03 0.0 
0.0 0.0 -9.952786863929e-04 
-1.189685403522e-03 2.186394532171e-05 0.0 
2.186394532171e-05 6.656907816596e-03 0.0 
0.0 0.0 -1.024224580100e-03 
-2.906015399770e-05 6.908185225539e-04 0.0 
6.908185225539e-04 2.388123543614e-03 0.0 
0.0 0.0 -5.788817793163e-04 
-8.005376655691e-04 3.171132398136e-04 0.0 
3.171132398136e-04 4.241491794382e-03 0.0 
0.0 0.0 -6.651338130661e-04 
-5.426647513542e-04 5.869195559815e-04 0.0 
5.869195559815e-04 4.187651392435e-03 0.0 
0.0 0.0 -7.293057621918e-04 
-1.068839531754e-03 -1.396982746719e-04 0.0 
-1.396982746719e-04 5.983670003937e-03 0.0 
0.0 0.0 -9.378562126457e-04 
-1.253909417431e-03 -3.654180260376e-04 0.0 
-3.654180260376e-04 7.384129283890e-03 0.0 
0.0 0.0 -1.125100902632e-03 
-1.223048658493e-03 8.194922759041e-05 0.0 
8.194922759041e-05 6.885373196445e-03 0.0 
0.0 0.0 -1.053755873404e-03 
-5.843499511654e-04 -7.478811802874e-04 0.0 
-7.478811802874e-04 2.078474299742e-03 0.0 
0.0 0.0 -3.685493992842e-04 
-1.215420929976e-03 2.914568716421e-04 0.0 
2.914568716421e-04 7.912104441246e-03 0.0 
0.0 0.0 -1.183514100502e-03 
-1.184839979766e-03 2.716593684437e-04 0.0 
2.716593684437e-04 7.456605698874e-03 0.0 
0.0 0.0 -1.117084069417e-03 
-9.160676408920e-04 2.566629763440e-04 0.0 
2.566629763440e-04 5.389449650205e-03 0.0 
0.0 0.0 -8.110481619253e-04 
-1.072043250355e-03 -1.594447290691e-04 0.0 
-1.594447290691e-04 6.194419037886e-03 0.0 
0.0 0.0 -9.753747863247e-04 
-1.113512703567e-03 -7.830874303778e-05 0.0 
-7.830874303778e-05 6.209473753146e-03 0.0 
0.0 0.0 -9.665592132828e-04 
-1.247553885459e-03 -1.638883659802e-04 0.0 
-1.638883659802e-04 8.032779373469e-03 0.0 
0.0 0.0 -1.185362187646e-03 
-1.209218779800e-03 2.395415248872e-04 0.0 
2.395415248872e-04 7.733666527183e-03 0.0 
0.0 0.0 -1.150972777267e-03 
-9.235989750770e-04 -6.984337716094e-04 0.0 
-6.984337716094e-04 5.520417486699e-03 0.0 
0.0 0.0 -8.866930489607e-04 
-1.284523920474e-03 -3.501071659254e-04 0.0 
-3.501071659254e-04 7.805517890163e-03 0.0 
0.0 0.0 -1.190872049285e-03 
-1.177897572884e-03 3.138623603337e-04 0.0 
3.138623603337e-04 7.354283994280e-03 0.0 
0.0 0.0 -1.103416240745e-03 
-1.224145241381e-03 -2.616286438841e-04 0.0 
-2.616286438841e-04 6.885317791912e-03 0.0 
0.0 0.0 -1.053748284807e-03 
-1.251504070725e-03 -4.981478354757e-04 0.0 
-4.981478354757e-04 7.817749108824e-03 0.0 
0.0 0.0 -1.210017230578e-03 
-1.240161038229e-03 -1.265963501437e-04 0.0 
-1.265963501437e-04 7.971776447579e-03 0.0 
0.0 0.0 -1.181737430652e-03 
-1.104792332721e-03 -1.417124884619e-04 0.0 
-1.417124884619e-04 6.803117520475e-03 0.0 
0.0 0.0 -1.011817915138e-03 
-9.092260506378e-04 -6.128458239001e-04 0.0 
-6.128458239001e-04 6.116526816133e-03 0.0 
0.0 0.0 -9.985655989920e-04 
-5.244393316962e-04 -3.327701467070e-07 0.0 
-3.327701467070e-07 2.217192403788e-03 0.0 
0.0 0.0 -3.644364776638e-04 
-5.557520001356e-04 -9.492103982613e-04 0.0 
-9.492103982613e-04 1.854328414375e-03 0.0 
0.0 0.0 -3.414758422231e-04 
-2.976977379688e-04 -4.729019177062e-04 0.0 
-4.729019177062e-04 1.065430610337e-03 0.0 
0.0 0.0 -1.876370064529e-04 
-1.394869518500e-05 -5.836024776206e-04 0.0 
-5.836024776206e-04 3.988673203720e-04 0.0 
0.0 0.0 -1.649651250801e-04 
-1.208849354757e-03 -1.442002111852e-04 0.0 
-1.442002111852e-04 7.751975943977e-03 0.0 
0.0 0.0 -1.150998037120e-03 
-1.270626804187e-03 5.625887811154e-05 0.0 
5.625887811154e-05 7.521765115722e-03 0.0 
0.0 0.0 -1.156839719840e-03 
-1.128430539847e-04 -4.533921113002e-04 0.0 
-4.533921113002e-04 5.125802596057e-04 0.0 
0.0 0.0 -1.512448671109e-04 
-1.224260673069e-03 1.930240191298e-04 0.0 
1.930240191298e-04 7.672098389018e-03 0.0 
0.0 0.0 -1.160298666437e-03 
-9.269777591648e-04 2.462098102623e-04 0.0 
2.462098102623e-04 5.566246555216e-03 0.0 
0.0 0.0 -8.436798659344e-04 
-1.183821186611e-03 -4.510450975400e-04 0.0 
-4.510450975400e-04 6.938898886609e-03 0.0 
0.0 0.0 -1.067477449466e-03 
-1.234042430495e-03 4.386686661325e-05 0.0 
4.386686661325e-05 7.085000705368e-03 0.0 
0.0 0.0 -1.090430023688e-03 
-4.688031105262e-04 -9.449998288247e-04 0.0 
-9.449998288247e-04 2.708853865005e-03 0.0 
0.0 0.0 -5.090628918580e-04 
-1.241127751091e-03 -3.232486977457e-04 0.0 
-3.232486977457e-04 7.146083644213e-03 0.0 
0.0 0.0 -1.087955833448e-03 
-9.128116180444e-04 -2.432084876036e-04 0.0 
-2.432084876036e-04 5.398327604704e-03 0.0 
0.0 0.0 -8.100176300978e-04 
-7.075550094797e-04 -2.554204369628e-05 0.0 
-2.554204369628e-05 5.888227624213e-03 0.0 
0.0 0.0 -1.000388816061e-03 
-1.275643571196e-03 -3.853184117788e-05 0.0 
-3.853184117788e-05 7.999890426169e-03 0.0 
0.0 0.0 -1.242964905849e-03 
-4.891437223720e-04 4.195566496952e-05 0.0 
4.195566496952e-05 2.125578513997e-03 0.0 
0.0 0.0 -3.542437553904e-04 
-1.232067324065e-03 -4.786069064869e-04 0.0 
-4.786069064869e-04 7.807210147599e-03 0.0 
0.0 0.0 -1.215045542354e-03 
-1.132051344136e-03 -1.297668119058e-04 0.0 
-1.297668119058e-04 7.059354268222e-03 0.0 
0.0 0.0 -1.048288725887e-03 
-5.597857793192e-04 4.639966247623e-05 0.0 
4.639966247623e-05 2.420049368412e-03 0.0 
0.0 0.0 -3.930611257745e-04 
-5.609737831535e-04 -1.192047374110e-03 0.0 
-1.192047374110e-03 2.290088636828e-03 0.0 
0.0 0.0 -4.034900192350e-04 
-1.019435653485e-03 2.510797196313e-05 0.0 
2.510797196313e-05 5.114500101547e-03 0.0 
0.0 0.0 -7.909606353592e-04 
-1.046153520856e-03 2.672543322815e-04 0.0 
2.672543322815e-04 6.254372891690e-03 0.0 
0.0 0.0 -9.409807611877e-04 
-7.501439557545e-04 -2.986549649001e-04 0.0 
-2.986549649001e-04 3.375633566619e-03 0.0 
0.0 0.0 -5.429771841545e-04 
-1.160690986180e-03 -1.496920489451e-04 0.0 
-1.496920489451e-04 7.303854633305e-03 0.0 
0.0 0.0 -1.085119818393e-03 
-1.069476201499e-03 -1.757346183128e-04 0.0 
-1.757346183128e-04 6.567285104211e-03 0.0 
0.0 0.0 -9.816794289629e-04 
-9.579280571301e-04 -1.773255598002e-04 0.0 
-1.773255598002e-04 4.907486764764e-03 0.0 
0.0 0.0 -7.700930343086e-04 
-1.202171244896e-03 -3.172466399621e-04 0.0 
-3.172466399621e-04 6.703539097156e-03 0.0 
0.0 0.0 -1.021757709120e-03 
-1.211296574698e-03 -3.721899322367e-04 0.0 
-3.721899322367e-04 6.940479911899e-03 0.0 
0.0 0.0 -1.058696934625e-03 
-1.135291475184e-03 2.700006977273e-04 0.0 
2.700006977273e-04 6.997454425646e-03 0.0 
0.0 0.0 -1.050681058959e-03 
-4.173596233207e-04 -3.503884104976e-04 0.0 
-3.503884104976e-04 1.875894239502e-03 0.0 
0.0 0.0 -3.058749225436e-04 
-9.447771700352e-04 -1.262936496125e-04 0.0 
-1.262936496125e-04 4.694024374325e-03 0.0 
0.0 0.0 -7.328582426338e-04 
-9.670495794898e-04 5.137281078932e-04 0.0 
5.137281078932e-04 6.920842306521e-03 0.0 
0.0 0.0 -1.141128458404e-03 
-1.159905672637e-03 -1.212910240168e-04 0.0 
-1.212910240168e-04 7.261813298966e-03 0.0 
0.0 0.0 -1.078198857115e-03 
-8.846237530489e-04 -1.118837918711e-04 0.0 
-1.118837918711e-04 4.234828904613e-03 0.0 
0.0 0.0 -6.666835465145e-04 
-9.866099674588e-04 -6.396910670883e-04 0.0 
-6.396910670883e-04 5.776957758952e-03 0.0 
0.0 0.0 -9.153036164073e-04 
-1.180273166295e-03 -5.195576023231e-04 0.0 
-5.195576023231e-04 7.573511676705e-03 0.0 
0.0 0.0 -1.187586327529e-03 
-1.090487437882e-03 2.486631283317e-04 0.0 
2.486631283317e-04 6.750183946417e-03 0.0 
0.0 0.0 -1.013969106439e-03 
4.266683345687e-05 -1.829982136319e-05 0.0 
-1.829982136319e-05 -1.175196824510e-05 0.0 
0.0 0.0 -1.324922794790e-05 
-2.207289874608e-04 -3.235795152871e-04 0.0 
-3.235795152871e-04 1.003256593638e-03 0.0 
0.0 0.0 -1.835536028976e-04 
6.095472518787e-04 -2.844414826135e-05 0.0 
-2.844414826135e-05 2.461208838896e-04 0.0 
0.0 0.0 -3.667149153293e-04 
-1.247686431213e-03 1.804464591039e-05 0.0 
1.804464591039e-05 7.316811787833e-03 0.0 
0.0 0.0 -1.127837695838e-03 
-1.073532930030e-03 2.556328204713e-04 0.0 
2.556328204713e-04 6.504084694261e-03 0.0 
0.0 0.0 -9.775003154318e-04 
-1.065496431756e-03 -3.247503852032e-04 0.0 
-3.247503852032e-04 5.643495466523e-03 0.0 
0.0 0.0 -8.513051444990e-04 
-9.769664875946e-04 2.379062424114e-04 0.0 
2.379062424114e-04 5.801214914582e-03 0.0 
0.0 0.0 -8.745614812816e-04 
-1.019950067796e-03 -4.586219499737e-04 0.0 
-4.586219499737e-04 7.042194348422e-03 0.0 
0.0 0.0 -1.139196670502e-03 
-1.001595776578e-03 -1.032368991806e-04 0.0 
-1.032368991806e-04 5.128573561517e-03 0.0 
0.0 0.0 -7.988714448434e-04 
-1.198933731184e-03 -2.304563849883e-06 0.0 
-2.304563849883e-06 6.870961844438e-03 0.0 
0.0 0.0 -1.061632825506e-03 
-4.894390167554e-04 -2.936556089740e-04 0.0 
-2.936556089740e-04 2.281659796893e-03 0.0 
0.0 0.0 -3.615122310665e-04 
-1.252320573339e-03 -4.986115071304e-05 0.0 
-4.986115071304e-05 7.805865228042e-03 0.0 
0.0 0.0 -1.211531131004e-03 
-9.705690281363e-04 -5.093762920131e-04 0.0 
-5.093762920131e-04 4.972659776742e-03 0.0 
0.0 0.0 -7.673127347790e-04 
-5.395948498915e-04 -2.749809582872e-04 0.0 
-2.749809582872e-04 2.502960479934e-03 0.0 
0.0 0.0 -3.889166325194e-04 
-9.539878925134e-04 -4.665681980887e-04 0.0 
-4.665681980887e-04 4.746329446601e-03 0.0 
0.0 0.0 -7.311132045151e-04 
-7.861451495527e-04 -2.221214863257e-04 0.0 
-2.221214863257e-04 3.593397886981e-03 0.0 
0.0 0.0 -5.716673668464e-04 
-6.390151670991e-04 -6.536657789763e-04 0.0 
-6.536657789763e-04 2.791763486177e-03 0.0 
0.0 0.0 -4.452767020142e-04 
-1.072653987371e-03 2.886861907429e-05 0.0 
2.886861907429e-05 5.536656976787e-03 0.0 
0.0 0.0 -8.564950983273e-04 
2.053402963574e-04 2.693149737115e-05 0.0 
2.693149737115e-05 -6.111100134196e-05 0.0 
0.0 0.0 -6.181255500660e-05 
1.464512989776e-04 -5.911592787118e-06 0.0 
-5.911592787118e-06 -4.332551876097e-05 0.0 
0.0 0.0 -4.419676295000e-05 
-1.129321225881e-03 -4.366761249298e-04 0.0 
-4.366761249298e-04 6.278524906094e-03 0.0 
0.0 0.0 -9.636005660098e-04 
-4.459230001805e-04 -3.109429784165e-04 0.0 
-3.109429784165e-04 2.087500805873e-03 0.0 
0.0 0.0 -3.336449385292e-04 
-1.093345380725e-03 -5.267841385720e-04 0.0 
-5.267841385720e-04 6.263877748210e-03 0.0 
0.0 0.0 -9.724388998541e-04 
-1.043259012928e-03 -5.809617148742e-04 0.0 
-5.809617148742e-04 6.025832941714e-03 0.0 
0.0 0.0 -9.438473481109e-04 
-7.593501897991e-04 -4.626236543671e-04 0.0 
-4.626236543671e-04 3.770567817408e-03 0.0 
0.0 0.0 -6.177757646845e-04 
-3.406532554668e-04 -1.201349069570e-03 0.0 
-1.201349069570e-03 1.971960000255e-03 0.0 
0.0 0.0 -4.162223005415e-04 
-1.210770017431e-03 -8.268587528123e-05 0.0 
-8.268587528123e-05 7.661732423863e-03 0.0 
0.0 0.0 -1.137719822027e-03 
2.217423052273e-04 3.028948149786e-04 0.0 
3.028948149786e-04 -1.208394326889e-05 0.0 
0.0 0.0 -8.985358369644e-05 
-8.285748112363e-04 -1.587478080269e-04 0.0 
-1.587478080269e-04 3.819529826762e-03 0.0 
0.0 0.0 -6.004815939294e-04 
-1.049679539983e-03 -3.693865297615e-04 0.0 
-3.693865297615e-04 7.240151455212e-03 0.0 
0.0 0.0 -1.175533656463e-03 
-3.983359874590e-04 4.184586300730e-05 0.0 
4.184586300730e-05 1.714439103962e-03 0.0 
0.0 0.0 -2.977570873278e-04 
-1.020229649597e-03 -1.375914676709e-04 0.0 
-1.375914676709e-04 6.101662351483e-03 0.0 
0.0 0.0 -9.088859120638e-04 
-9.450324784717e-04 -1.832830397253e-04 0.0 
-1.832830397253e-04 5.623770961517e-03 0.0 
0.0 0.0 -8.416286270284e-04 
-4.351237697251e-04 -5.540829146340e-04 0.0 
-5.540829146340e-04 1.723099038299e-03 0.0 
0.0 0.0 -2.842394630762e-04 
-1.127395628762e-03 -5.008482085009e-04 0.0 
-5.008482085009e-04 7.317936875090e-03 0.0 
0.0 0.0 -1.158722036769e-03 
-1.133506044246e-03 -8.767361897690e-05 0.0 
-8.767361897690e-05 6.959505034578e-03 0.0 
0.0 0.0 -1.034898561726e-03 
-4.951489600236e-04 -4.786425625421e-05 0.0 
-4.786425625421e-05 2.022039619189e-03 0.0 
0.0 0.0 -3.364655670308e-04 
-1.234708714507e-03 -3.925269914934e-05 0.0 
-3.925269914934e-05 7.851562311589e-03 0.0 
0.0 0.0 -1.166520446339e-03 
-1.230308234664e-03 3.090146298482e-04 0.0 
3.090146298482e-04 7.789607374426e-03 0.0 
0.0 0.0 -1.169001632583e-03 
-5.233675107163e-04 -4.314455861334e-04 0.0 
-4.314455861334e-04 2.327927411805e-03 0.0 
0.0 0.0 -3.701904734684e-04 
-5.932851689167e-04 7.473876325445e-04 0.0 
7.473876325445e-04 2.806018980480e-03 0.0 
0.0 0.0 -4.801335248058e-04 
-5.599793527513e-04 -5.941268921314e-04 0.0 
-5.941268921314e-04 2.361270480637e-03 0.0 
0.0 0.0 -3.791106726259e-04 
-1.172251179922e-03 -4.180665988864e-04 0.0 
-4.180665988864e-04 6.718010438057e-03 0.0 
0.0 0.0 -1.029923508343e-03 
-1.041340644124e-03 -3.282174640750e-05 0.0 
-3.282174640750e-05 5.343281569417e-03 0.0 
0.0 0.0 -8.276368238623e-04 
-1.238338552957e-03 5.129188831147e-04 0.0 
5.129188831147e-04 7.705442663502e-03 0.0 
0.0 0.0 -1.169529464977e-03 
-1.205798657677e-03 3.040238914407e-04 0.0 
3.040238914407e-04 7.606656415098e-03 0.0 
0.0 0.0 -1.140030709108e-03 
-1.136504455291e-03 -4.715376891294e-04 0.0 
-4.715376891294e-04 6.495059726217e-03 0.0 
0.0 0.0 -1.001167767022e-03 
-1.120337032388e-03 -1.059796522353e-04 0.0 
-1.059796522353e-04 6.426005632212e-03 0.0 
0.0 0.0 -1.004093472296e-03 
-5.274441073591e-04 -2.397572524931e-04 0.0 
-2.397572524931e-04 1.862294635062e-03 0.0 
0.0 0.0 -3.158693332420e-04 
-1.161634108540e-03 -5.320117127017e-05 0.0 
-5.320117127017e-05 6.648981173758e-03 0.0 
0.0 0.0 -1.032853941699e-03 
-1.125917341076e-03 2.991763443149e-04 0.0 
2.991763443149e-04 6.905438798140e-03 0.0 
0.0 0.0 -1.037144748481e-03 
-1.044631038411e-03 -3.631995376833e-04 0.0 
-3.631995376833e-04 5.407625222663e-03 0.0 
0.0 0.0 -8.248712778174e-04 
-1.078523674622e-03 -1.304712665821e-04 0.0 
-1.304712665821e-04 6.557738951195e-03 0.0 
0.0 0.0 -9.752741834902e-04 
-1.159347625089e-03 -9.624416522510e-05 0.0 
-9.624416522510e-05 7.210996352120e-03 0.0 
0.0 0.0 -1.071415751597e-03 
-3.318515090644e-04 6.235225383972e-04 0.0 
6.235225383972e-04 3.802912303128e-03 0.0 
0.0 0.0 -7.435371925968e-04 
-1.181769783394e-03 2.863535825742e-04 0.0 
2.863535825742e-04 7.408927706841e-03 0.0 
0.0 0.0 -1.110258267496e-03 
-9.356896319010e-04 -4.816204734149e-05 0.0 
-4.816204734149e-05 4.523878489702e-03 0.0 
0.0 0.0 -6.965171720950e-04 
-1.013439798328e-03 -4.389789435164e-04 0.0 
-4.389789435164e-04 5.194362623047e-03 0.0 
0.0 0.0 -7.960639764766e-04 
-7.588476473929e-04 -1.047638361378e-04 0.0 
-1.047638361378e-04 3.390478407872e-03 0.0 
0.0 0.0 -5.342291996904e-04 
-6.729613587978e-04 -9.978092115441e-04 0.0 
-9.978092115441e-04 3.336051263368e-03 0.0 
0.0 0.0 -5.581583723280e-04 
-1.100329888420e-03 2.776105336716e-04 0.0 
2.776105336716e-04 6.705832396393e-03 0.0 
0.0 0.0 -1.007339817349e-03 
-7.155066052029e-04 -8.941200741794e-04 0.0 
-8.941200741794e-04 4.520636252880e-03 0.0 
0.0 0.0 -7.637833264599e-04 
-5.880444497108e-04 -5.324378047215e-04 0.0 
-5.324378047215e-04 2.570561499900e-03 0.0 
0.0 0.0 -4.077494273363e-04 
-3.167379964521e-04 -3.896430801043e-04 0.0 
-3.896430801043e-04 1.286713823890e-03 0.0 
0.0 0.0 -2.185673950299e-04 
-1.104743277708e-03 -1.081634182050e-04 0.0 
-1.081634182050e-04 6.759513962222e-03 0.0 
0.0 0.0 -1.005115000480e-03 
-6.259157449930e-04 -2.410202634238e-04 0.0 
-2.410202634238e-04 2.506664290233e-03 0.0 
0.0 0.0 -4.107160730352e-04 
-1.199872170886e-03 -1.045804178386e-04 0.0 
-1.045804178386e-04 7.736983325214e-03 0.0 
0.0 0.0 -1.218716866995e-03 
-1.124972404341e-03 2.718592290333e-04 0.0 
2.718592290333e-04 6.955187210285e-03 0.0 
0.0 0.0 -1.043883448597e-03 
-1.171061824699e-03 -7.858396141652e-05 0.0 
-7.858396141652e-05 6.870002089505e-03 0.0 
0.0 0.0 -1.070373463590e-03 
-1.223592225032e-03 -6.654680312813e-05 0.0 
-6.654680312813e-05 7.796071319491e-03 0.0 
0.0 0.0 -1.284729618418e-03 
-8.862225412837e-04 -4.776674958030e-04 0.0 
-4.776674958030e-04 4.314456893826e-03 0.0 
0.0 0.0 -6.637377122259e-04 
-5.666876201447e-04 -1.260874714856e-04 0.0 
-1.260874714856e-04 2.263003673050e-03 0.0 
0.0 0.0 -3.731618544808e-04 
-4.219134531154e-04 -1.222472695970e-04 0.0 
-1.222472695970e-04 1.397809828057e-03 0.0 
0.0 0.0 -2.496210768721e-04 
-1.097286575279e-03 -5.440934378647e-04 0.0 
-5.440934378647e-04 6.473058930747e-03 0.0 
0.0 0.0 -1.009908742814e-03 
-1.043727317765e-03 2.472408857258e-04 0.0 
2.472408857258e-04 6.306661261885e-03 0.0 
0.0 0.0 -9.473489374553e-04 
-2.695681844680e-04 -5.290039554231e-05 0.0 
-5.290039554231e-05 9.382689285882e-04 0.0 
0.0 0.0 -1.858848441742e-04 
-7.364560019705e-04 -6.036242025600e-04 0.0 
-6.036242025600e-04 3.440005901319e-03 0.0 
0.0 0.0 -5.400474096907e-04 
-4.035403746382e-04 -2.305403145177e-04 0.0 
-2.305403145177e-04 2.024884021199e-03 0.0 
0.0 0.0 -3.246070344129e-04 
-1.046680963677e-03 -1.140431221757e-04 0.0 
-1.140431221757e-04 6.307213054075e-03 0.0 
0.0 0.0 -9.387834224272e-04 
-7.632592856577e-04 -5.393132933556e-04 0.0 
-5.393132933556e-04 3.657861775186e-03 0.0 
0.0 0.0 -5.687878759048e-04 
-1.016724206552e-03 -2.154888859726e-04 0.0 
-2.154888859726e-04 5.955453979487e-03 0.0 
0.0 0.0 -9.467935652645e-04 
-7.568020148065e-04 -4.521860907560e-04 0.0 
-4.521860907560e-04 3.415229586271e-03 0.0 
0.0 0.0 -5.337555413938e-04 
-1.189199624854e-03 -1.376681473433e-04 0.0 
-1.376681473433e-04 7.515170933533e-03 0.0 
0.0 0.0 -1.114809527198e-03 
-6.923550043241e-04 -2.768469088006e-04 0.0 
-2.768469088006e-04 2.945508556802e-03 0.0 
0.0 0.0 -4.768663991247e-04 
-1.044644236131e-03 -5.895775659962e-04 0.0 
-5.895775659962e-04 6.433247658548e-03 0.0 
0.0 0.0 -1.018590841688e-03 
-5.377186267121e-04 -1.162421830740e-03 0.0 
-1.162421830740e-03 1.924594638442e-03 0.0 
0.0 0.0 -3.376433569222e-04 
-1.043635089924e-03 -5.925974921427e-04 0.0 
-5.925974921427e-04 6.227817584456e-03 0.0 
0.0 0.0 -9.812220007866e-04 
-9.943565397434e-04 -3.497380212248e-04 0.0 
-3.497380212248e-04 4.987357588882e-03 0.0 
0.0 0.0 -7.604224332210e-04 
-1.126398211161e-03 -1.231258313828e-04 0.0 
-1.231258313828e-04 6.641179692916e-03 0.0 
0.0 0.0 -1.041555045145e-03 
9.223743664251e-05 -1.553032727052e-04 0.0 
-1.553032727052e-04 2.018845935385e-03 0.0 
0.0 0.0 -5.350282927002e-04 
-4.513551852745e-04 7.961954421125e-05 0.0 
7.961954421125e-05 1.942718085049e-03 0.0 
0.0 0.0 -3.277310168338e-04 
-9.768870302484e-04 -1.535527430477e-04 0.0 
-1.535527430477e-04 5.889109902335e-03 0.0 
0.0 0.0 -8.787268422831e-04 
-6.833158998415e-04 -4.842839122641e-04 0.0 
-4.842839122641e-04 5.519329349180e-03 0.0 
0.0 0.0 -9.464297096767e-04 
-6.696248071327e-04 9.527190214271e-04 0.0 
9.527190214271e-04 3.942995259938e-03 0.0 
0.0 0.0 -6.776081642141e-04 
-1.047238839157e-03 -1.563485093405e-04 0.0 
-1.563485093405e-04 6.341652196106e-03 0.0 
0.0 0.0 -9.453210152248e-04 
-5.135632802951e-04 -1.406486370917e-03 0.0 
-1.406486370917e-03 1.993823835031e-03 0.0 
0.0 0.0 -3.758914132629e-04 
-1.070153882220e-03 3.026802387506e-04 0.0 
3.026802387506e-04 6.407668419037e-03 0.0 
0.0 0.0 -9.642804585795e-04 
-3.826150946159e-04 -2.687090143275e-04 0.0 
-2.687090143275e-04 1.814458781029e-03 0.0 
0.0 0.0 -2.947674122297e-04 
-1.169970312209e-03 -5.285152303079e-04 0.0 
-5.285152303079e-04 7.359319887074e-03 0.0 
0.0 0.0 -1.150402778756e-03 
-7.093705364921e-04 -3.773457786927e-04 0.0 
-3.773457786927e-04 5.766663180528e-03 0.0 
0.0 0.0 -9.834711240942e-04 
-7.789396793629e-04 4.773750927831e-05 0.0 
4.773750927831e-05 6.190226744614e-03 0.0 
0.0 0.0 -1.037051012011e-03 
-1.266259122541e-03 -6.932227906498e-05 0.0 
-6.932227906498e-05 8.127793637496e-03 0.0 
0.0 0.0 -1.204463612412e-03 
-7.768385389529e-04 -8.073428107716e-04 0.0 
-8.073428107716e-04 4.980090398291e-03 0.0 
0.0 0.0 -8.294769417472e-04 
-4.699473644088e-04 -6.813726004672e-05 0.0 
-6.813726004672e-05 1.813879272209e-03 0.0 
0.0 0.0 -3.081489256106e-04 
-9.161062287207e-04 -6.850931603516e-04 0.0 
-6.850931603516e-04 5.713761905663e-03 0.0 
0.0 0.0 -9.239488535170e-04 
-1.173047693050e-03 -1.052473736579e-04 0.0 
-1.052473736579e-04 7.508097487322e-03 0.0 
0.0 0.0 -1.189963100592e-03 
-4.497409859123e-04 -1.426160803811e-03 0.0 
-1.426160803811e-03 2.458822638814e-03 0.0 
0.0 0.0 -4.786098583285e-04 
-1.143974714499e-03 -4.976969720053e-04 0.0 
-4.976969720053e-04 6.710156245847e-03 0.0 
0.0 0.0 -1.038675661098e-03 
-1.132883010551e-03 -1.192006961438e-04 0.0 
-1.192006961438e-04 7.009605316192e-03 0.0 
0.0 0.0 -1.041631482750e-03 
-1.897791220570e-04 -1.328549867833e-03 0.0 
-1.328549867833e-03 1.573915984256e-03 0.0 
0.0 0.0 -3.880698300753e-04 
-9.832169528241e-04 -6.401107558717e-04 0.0 
-6.401107558717e-04 5.975097252107e-03 0.0 
0.0 0.0 -9.525765839929e-04 
-9.785039199354e-04 -1.168734358181e-04 0.0 
-1.168734358181e-04 5.790498942477e-03 0.0 
0.0 0.0 -8.663127257150e-04 
-5.996048706546e-04 -3.316912815730e-04 0.0 
-3.316912815730e-04 2.740125406625e-03 0.0 
0.0 0.0 -4.280652785065e-04 
-7.035123059792e-04 -6.874159131133e-04 0.0 
-6.874159131133e-04 3.217847307373e-03 0.0 
0.0 0.0 -5.113914792957e-04 
-7.105655773308e-04 4.972009427012e-04 0.0 
4.972009427012e-04 4.827811336805e-03 0.0 
0.0 0.0 -8.004334922225e-04 
-1.074750193164e-03 -1.697498961518e-04 0.0 
-1.697498961518e-04 6.403492678198e-03 0.0 
0.0 0.0 -1.012809740122e-03 
-7.035308576129e-04 5.382426947374e-04 0.0 
5.382426947374e-04 3.806026837703e-03 0.0 
0.0 0.0 -6.201901524263e-04 
-6.308101104936e-04 5.457451351616e-04 0.0 
5.457451351616e-04 4.514197146446e-03 0.0 
0.0 0.0 -7.649884091348e-04 
-1.098080609149e-03 3.025878807238e-04 0.0 
3.025878807238e-04 6.656267622990e-03 0.0 
0.0 0.0 -1.000670320419e-03 
-1.014704614523e-03 2.583884235807e-04 0.0 
2.583884235807e-04 6.049064620228e-03 0.0 
0.0 0.0 -9.110000341593e-04 
-1.009261189838e-03 2.792149560740e-04 0.0 
2.792149560740e-04 5.955274274962e-03 0.0 
0.0 0.0 -8.984003255416e-04 
-9.871449342436e-04 -7.213431481815e-05 0.0 
-7.213431481815e-05 4.924174820230e-03 0.0 
0.0 0.0 -7.627602282935e-04 
-1.065656897570e-03 -5.121112680600e-04 0.0 
-5.121112680600e-04 7.066736918301e-03 0.0 
0.0 0.0 -1.130631056169e-03 
-8.421677165309e-04 -7.268506017030e-04 0.0 
-7.268506017030e-04 5.443918430101e-03 0.0 
0.0 0.0 -8.953295484280e-04 
-9.945000348060e-04 -1.248826091764e-04 0.0 
-1.248826091764e-04 5.857149722276e-03 0.0 
0.0 0.0 -8.720525204519e-04 
-1.238633943108e-03 1.686741563001e-04 0.0 
1.686741563001e-04 7.876441362665e-03 0.0 
0.0 0.0 -1.193584144721e-03 
-8.522957180035e-04 9.316442431589e-05 0.0 
9.316442431589e-05 6.488948212224e-03 0.0 
0.0 0.0 -1.073433710836e-03 
-1.015779217143e-03 -2.144660185469e-04 0.0 
-2.144660185469e-04 6.157749518334e-03 0.0 
0.0 0.0 -9.841343610905e-04 
-1.152967284980e-03 2.909720530725e-04 0.0 
2.909720530725e-04 7.156656236309e-03 0.0 
0.0 0.0 -1.073677668998e-03 
-7.263162190416e-04 -8.886940194724e-04 0.0 
-8.886940194724e-04 3.588121008828e-03 0.0 
0.0 0.0 -5.862626530915e-04 
-7.235359723586e-04 -7.958794651799e-04 0.0 
-7.958794651799e-04 3.410683047674e-03 0.0 
0.0 0.0 -5.488365039436e-04 
-4.694757851361e-04 -5.127005261343e-04 0.0 
-5.127005261343e-04 1.922171349029e-03 0.0 
0.0 0.0 -3.130684191733e-04 
-9.104943950573e-04 -6.552016600707e-04 0.0 
-6.552016600707e-04 5.911258485735e-03 0.0 
0.0 0.0 -9.612598090090e-04 
-7.654832124176e-04 -7.002445478485e-04 0.0 
-7.002445478485e-04 3.645865785489e-03 0.0 
0.0 0.0 -5.775003002374e-04 
-1.075243583964e-03 -1.050257747268e-04 0.0 
-1.050257747268e-04 6.505297040680e-03 0.0 
0.0 0.0 -9.686535345556e-04 
-1.046091552134e-03 -1.046643629052e-04 0.0 
-1.046643629052e-04 6.253743570569e-03 0.0 
0.0 0.0 -9.322463471790e-04 
-3.156258732897e-04 -6.342992802894e-05 0.0 
-6.342992802894e-05 4.063447682096e-03 0.0 
0.0 0.0 -7.690363516573e-04 
-6.768678335791e-04 -4.944889426237e-04 0.0 
-4.944889426237e-04 2.924353115240e-03 0.0 
0.0 0.0 -4.860199686152e-04 
7.378566886558e-05 8.261792693270e-04 0.0 
8.261792693270e-04 1.831438910589e-03 0.0 
0.0 0.0 -5.148587792422e-04 
-7.140205863396e-04 -3.895142562213e-04 0.0 
-3.895142562213e-04 3.153467660833e-03 0.0 
0.0 0.0 -5.143448975765e-04 
-7.166082742774e-04 -4.898417450174e-04 0.0 
-4.898417450174e-04 3.345585253682e-03 0.0 
0.0 0.0 -5.517963299543e-04 
-5.453825262275e-04 -1.801577044467e-04 0.0 
-1.801577044467e-04 2.063785108327e-03 0.0 
0.0 0.0 -3.446931235564e-04 
-9.991919087570e-04 -5.159677692080e-04 0.0 
-5.159677692080e-04 6.812973713771e-03 0.0 
0.0 0.0 -1.101849228969e-03 
-6.361621297383e-04 -6.326273812119e-04 0.0 
-6.326273812119e-04 3.840813039186e-03 0.0 
0.0 0.0 -6.642957827475e-04 
-1.186458515100e-03 -1.053251154620e-04 0.0 
-1.053251154620e-04 7.463739247015e-03 0.0 
0.0 0.0 -1.107989045227e-03 
-5.978205852498e-04 -6.030872319160e-04 0.0 
-6.030872319160e-04 3.997835835114e-03 0.0 
0.0 0.0 -7.013039408444e-04 
-8.766496605348e-04 -2.938506230370e-04 0.0 
-2.938506230370e-04 5.643098139245e-03 0.0 
0.0 0.0 -9.268471029391e-04 
-7.458770769302e-04 -4.494771908485e-04 0.0 
-4.494771908485e-04 4.730820068739e-03 0.0 
0.0 0.0 -7.951651613512e-04 
-5.061128914291e-04 5.136368614140e-04 0.0 
5.136368614140e-04 4.289096613620e-03 0.0 
0.0 0.0 -7.567435594048e-04 
-4.924031779586e-04 -4.582157831525e-04 0.0 
-4.582157831525e-04 2.128157277405e-03 0.0 
0.0 0.0 -3.417109511102e-04 
-1.119466152649e-03 -1.285123435513e-04 0.0 
-1.285123435513e-04 7.241871223374e-03 0.0 
0.0 0.0 -1.161691925552e-03 
-1.157276862038e-03 -5.152756470004e-04 0.0 
-5.152756470004e-04 7.595110461611e-03 0.0 
0.0 0.0 -1.198716319349e-03 
-9.186810373389e-04 7.206447187045e-04 0.0 
7.206447187045e-04 5.929294122594e-03 0.0 
0.0 0.0 -9.650368815299e-04 
-7.024384046348e-04 -5.668947943432e-04 0.0 
-5.668947943432e-04 3.521466880882e-03 0.0 
0.0 0.0 -5.892385666867e-04 
-8.092329254756e-04 -3.679333936268e-04 0.0 
-3.679333936268e-04 5.184879506691e-03 0.0 
0.0 0.0 -8.609535187098e-04 
-1.070645862318e-03 2.880325294516e-04 0.0 
2.880325294516e-04 6.451710160525e-03 0.0 
0.0 0.0 -9.708520278613e-04 
-7.765899253725e-04 -7.845646391497e-04 0.0 
-7.845646391497e-04 3.835907640370e-03 0.0 
0.0 0.0 -6.148791393494e-04 
-5.560475869297e-04 7.086124654578e-04 0.0 
7.086124654578e-04 3.695652655845e-03 0.0 
0.0 0.0 -6.394234923164e-04 
-6.747584532598e-04 -5.770366254477e-04 0.0 
-5.770366254477e-04 3.009985049056e-03 0.0 
0.0 0.0 -4.739097840058e-04 
-4.381090568186e-04 -1.552304285074e-03 0.0 
-1.552304285074e-03 2.041510460725e-03 0.0 
0.0 0.0 -4.132304097957e-04 
-7.141863963918e-04 -9.568035345241e-04 0.0 
-9.568035345241e-04 3.752753679619e-03 0.0 
0.0 0.0 -6.236739531379e-04 
-6.528961987011e-04 -1.781186145787e-04 0.0 
-1.781186145787e-04 2.715857529516e-03 0.0 
0.0 0.0 -4.393534411964e-04 
-5.596275213697e-04 -3.829013705402e-04 0.0 
-3.829013705402e-04 2.536190508459e-03 0.0 
0.0 0.0 -3.988888273503e-04 
-7.947060353366e-04 -8.306305145241e-04 0.0 
-8.306305145241e-04 4.800715564885e-03 0.0 
0.0 0.0 -7.922809795675e-04 
-9.495117069836e-04 -2.555007117944e-04 0.0 
-2.555007117944e-04 5.904688651206e-03 0.0 
0.0 0.0 -9.554846610150e-04 
-1.106451546740e-03 6.547273223382e-04 0.0 
6.547273223382e-04 7.113693437201e-03 0.0 
0.0 0.0 -1.128610778606e-03 
5.517197538679e-04 6.942037793558e-07 0.0 
6.942037793558e-07 5.222913432921e-05 0.0 
0.0 0.0 -1.143255210630e-04 
-3.502562365249e-04 -5.244252159893e-04 0.0 
-5.244252159893e-04 3.531851922803e-03 0.0 
0.0 0.0 -6.818868151027e-04 
-4.968184483203e-04 -6.518828778024e-04 0.0 
-6.518828778024e-04 3.693766435261e-03 0.0 
0.0 0.0 -6.732431144785e-04 
-6.734388902022e-04 -6.179988430693e-04 0.0 
-6.179988430693e-04 3.684173063462e-03 0.0 
0.0 0.0 -6.268095852860e-04 
-1.038674892423e-03 2.849365380829e-04 0.0 
2.849365380829e-04 6.200994707550e-03 0.0 
0.0 0.0 -9.344164207832e-04 
-6.877399303223e-04 -5.371529877498e-04 0.0 
-5.371529877498e-04 4.282013621242e-03 0.0 
0.0 0.0 -7.295442444478e-04 
-7.236126278911e-04 -1.940798346154e-04 0.0 
-1.940798346154e-04 3.162977138653e-03 0.0 
0.0 0.0 -5.055050897130e-04 
-6.903954199582e-04 -9.883908706268e-04 0.0 
-9.883908706268e-04 3.912237901394e-03 0.0 
0.0 0.0 -6.611654675676e-04 
-1.160544064243e-03 2.681116606983e-04 0.0 
2.681116606983e-04 7.207667667947e-03 0.0 
0.0 0.0 -1.080452943103e-03 
-7.185620229440e-04 -5.086767079658e-04 0.0 
-5.086767079658e-04 3.228512561114e-03 0.0 
0.0 0.0 -5.025663706543e-04 
-3.033530584322e-04 -3.126589283008e-05 0.0 
-3.126589283008e-05 1.124202721504e-03 0.0 
0.0 0.0 -2.132551421006e-04 
-4.445863950683e-04 -1.098673452603e-04 0.0 
-1.098673452603e-04 1.624443337862e-03 0.0 
0.0 0.0 -2.784575373548e-04 
-4.556609783406e-04 -1.046441961485e-03 0.0 
-1.046441961485e-03 2.312897280805e-03 0.0 
0.0 0.0 -4.444240490352e-04 
-6.671697262521e-04 -6.094353393578e-04 0.0 
-6.094353393578e-04 3.102567689836e-03 0.0 
0.0 0.0 -5.239304829885e-04 
-4.604694554278e-04 -5.460587614430e-04 0.0 
-5.460587614430e-04 3.852686059404e-03 0.0 
0.0 0.0 -7.099160536912e-04 
-6.597409171735e-04 -9.847744191674e-04 0.0 
-9.847744191674e-04 4.070104714955e-03 0.0 
0.0 0.0 -6.984076724203e-04 
-4.347846215514e-04 -1.333971923402e-03 0.0 
-1.333971923402e-03 1.612936656771e-03 0.0 
0.0 0.0 -3.343205611582e-04 
-3.976613437580e-04 -3.897326152451e-04 0.0 
-3.897326152451e-04 1.671878635782e-03 0.0 
0.0 0.0 -2.765202162382e-04 
-1.033660003461e-03 -1.033996314703e-04 0.0 
-1.033996314703e-04 5.926247048388e-03 0.0 
0.0 0.0 -8.885078876198e-04 
-6.226964712633e-04 -4.829751825411e-04 0.0 
-4.829751825411e-04 2.780306463648e-03 0.0 
0.0 0.0 -4.363975895258e-04 
-9.598608129299e-04 -1.512388155027e-04 0.0 
-1.512388155027e-04 6.520728160314e-03 0.0 
0.0 0.0 -1.067401112627e-03 
-1.044199175907e-03 6.711789122637e-04 0.0 
6.711789122637e-04 6.814869566682e-03 0.0 
0.0 0.0 -1.093380752811e-03 
-1.033158695296e-03 1.201714905428e-04 0.0 
1.201714905428e-04 5.943900742884e-03 0.0 
0.0 0.0 -9.013836717722e-04 
-1.202438437016e-03 3.703852775580e-04 0.0 
3.703852775580e-04 7.497052002657e-03 0.0 
0.0 0.0 -1.126084317643e-03 
-1.147719962247e-03 6.494223347105e-04 0.0 
6.494223347105e-04 7.391690108111e-03 0.0 
0.0 0.0 -1.164310864388e-03 
-2.878547429469e-04 1.154238477974e-04 0.0 
1.154238477974e-04 3.877857573592e-03 0.0 
0.0 0.0 -7.408850503417e-04 
-9.791568623397e-04 6.928855181129e-04 0.0 
6.928855181129e-04 6.367692588182e-03 0.0 
0.0 0.0 -1.029042339204e-03 
-3.868820834042e-04 -1.598175067219e-03 0.0 
-1.598175067219e-03 1.640588266591e-03 0.0 
0.0 0.0 -3.684254322556e-04 
-7.608485108981e-04 -8.950598342909e-04 0.0 
-8.950598342909e-04 4.184728790858e-03 0.0 
0.0 0.0 -6.894573431515e-04 
-3.726378683448e-04 9.309707187506e-04 0.0 
9.309707187506e-04 3.521132831243e-03 0.0 
0.0 0.0 -6.879681371099e-04 
1.475700378225e-04 -1.082055056136e-03 0.0 
-1.082055056136e-03 1.153328364632e-03 0.0 
0.0 0.0 -4.001859895708e-04 
-2.322378270667e-04 -1.414305700121e-03 0.0 
-1.414305700121e-03 1.285051000812e-03 0.0 
0.0 0.0 -3.718692805502e-04 
-7.624977688682e-04 -3.873820506890e-04 0.0 
-3.873820506890e-04 3.581246965727e-03 0.0 
0.0 0.0 -5.804062017457e-04 
-5.687072458126e-04 -1.053499292402e-03 0.0 
-1.053499292402e-03 3.769545573336e-03 0.0 
0.0 0.0 -6.703429011759e-04 
-5.303660715231e-04 -9.834601585863e-04 0.0 
-9.834601585863e-04 3.928073668805e-03 0.0 
0.0 0.0 -7.070647534220e-04 
-6.858142190642e-04 -1.264292236945e-04 0.0 
-1.264292236945e-04 2.925987856864e-03 0.0 
0.0 0.0 -4.680152132766e-04 
-6.589899224581e-04 -5.005558218906e-04 0.0 
-5.005558218906e-04 4.450521373462e-03 0.0 
0.0 0.0 -7.666177146937e-04 
-4.231487579380e-04 -9.909487264928e-04 0.0 
-9.909487264928e-04 3.613001704936e-03 0.0 
0.0 0.0 -6.790125122095e-04 
-3.369199789232e-04 -3.555417311412e-04 0.0 
-3.555417311412e-04 3.718100603305e-03 0.0 
0.0 0.0 -7.183521444552e-04 
-6.803758157452e-04 -9.028741567956e-04 0.0 
-9.028741567956e-04 3.171875899076e-03 0.0 
0.0 0.0 -5.205443542100e-04 
-6.888642757158e-04 -2.049706033719e-04 0.0 
-2.049706033719e-04 5.802071078045e-03 0.0 
0.0 0.0 -9.921115096417e-04 
-1.107658319106e-03 -8.404497540785e-05 0.0 
-8.404497540785e-05 6.709473481144e-03 0.0 
0.0 0.0 -9.984673180476e-04 
-2.379293217191e-04 -2.443881819662e-04 0.0 
-2.443881819662e-04 3.409073247204e-03 0.0 
0.0 0.0 -6.904379518788e-04 
-1.046303389369e-03 -1.114400525399e-04 0.0 
-1.114400525399e-04 6.996162598283e-03 0.0 
0.0 0.0 -1.133495712197e-03 
-3.268910950442e-04 -1.748504239578e-03 0.0 
-1.748504239578e-03 1.649599373731e-03 0.0 
0.0 0.0 -3.849690761666e-04 
-1.105326955299e-03 -1.209562394880e-05 0.0 
-1.209562394880e-05 7.506917461540e-03 0.0 
0.0 0.0 -1.208505026952e-03 
-5.639712272191e-04 -5.345864669018e-04 0.0 
-5.345864669018e-04 4.155944038547e-03 0.0 
0.0 0.0 -7.381355003807e-04 
-1.181963174499e-03 7.139086798359e-04 0.0 
7.139086798359e-04 7.734753846791e-03 0.0 
0.0 0.0 -1.203459118631e-03 
-9.741416899861e-04 2.978325655321e-04 0.0 
2.978325655321e-04 5.872577927131e-03 0.0 
0.0 0.0 -9.144069900286e-04 
-4.654888822043e-04 -1.140967963864e-03 0.0 
-1.140967963864e-03 1.931638852762e-03 0.0 
0.0 0.0 -3.788569260403e-04 
-1.047582909248e-03 1.584393688340e-04 0.0 
1.584393688340e-04 6.105623494628e-03 0.0 
0.0 0.0 -9.292863832265e-04 
-1.220879085669e-03 4.419497771274e-04 0.0 
4.419497771274e-04 7.616026390278e-03 0.0 
0.0 0.0 -1.148369591821e-03 
-5.398601850951e-04 -4.406973068625e-04 0.0 
-4.406973068625e-04 4.330390544396e-03 0.0 
0.0 0.0 -7.747733155264e-04 
-3.603331338578e-04 8.676550475076e-04 0.0 
8.676550475076e-04 2.963522800416e-03 0.0 
0.0 0.0 -5.621395992319e-04 
-1.057553285601e-03 1.944669215669e-04 0.0 
1.944669215669e-04 6.263161490160e-03 0.0 
0.0 0.0 -9.572423940436e-04 
-7.057059362099e-04 9.012515937016e-04 0.0 
9.012515937016e-04 4.348665847300e-03 0.0 
0.0 0.0 -7.402445244775e-04 
-4.362988120307e-04 -1.127161443736e-03 0.0 
-1.127161443736e-03 1.552148016574e-03 0.0 
0.0 0.0 -3.359502462693e-04 
-1.283659217910e-03 4.297574681589e-04 0.0 
4.297574681589e-04 8.390487106861e-03 0.0 
0.0 0.0 -1.259077240559e-03 
-4.445080952730e-04 -7.847967672699e-04 0.0 
-7.847967672699e-04 1.460661056520e-03 0.0 
0.0 0.0 -3.199353184197e-04 
-1.015479846412e-03 -4.911816191570e-05 0.0 
-4.911816191570e-05 7.389564650234e-03 0.0 
0.0 0.0 -1.194426649262e-03 
-1.235108043989e-03 2.931339570481e-04 0.0 
2.931339570481e-04 7.856142431297e-03 0.0 
0.0 0.0 -1.175981821618e-03 
-7.472334457018e-04 -2.848888603521e-04 0.0 
-2.848888603521e-04 6.030064979728e-03 0.0 
0.0 0.0 -1.020516803968e-03 
-1.010840280569e-03 2.871682712165e-04 0.0 
2.871682712165e-04 5.990467797945e-03 0.0 
0.0 0.0 -9.041796124736e-04 
-1.188290086785e-03 -4.131460252783e-05 0.0 
-4.131460252783e-05 7.360236208895e-03 0.0 
0.0 0.0 -1.094228678348e-03 
-3.956150081579e-04 -8.444363927456e-04 0.0 
-8.444363927456e-04 3.798159061747e-03 0.0 
0.0 0.0 -7.154996274706e-04 
-4.250562518241e-04 -8.715186287138e-05 0.0 
-8.715186287138e-05 4.576837397274e-03 0.0 
0.0 0.0 -8.337527902170e-04 
-1.236732889268e-03 3.932687216903e-04 0.0 
3.932687216903e-04 7.932024372295e-03 0.0 
0.0 0.0 -1.191782302182e-03 
-1.016762164362e-03 -2.009947599505e-04 0.0 
-2.009947599505e-04 6.362580938042e-03 0.0 
0.0 0.0 -1.021464098896e-03 
-1.135162035509e-03 -5.768530929233e-05 0.0 
-5.768530929233e-05 6.910041935378e-03 0.0 
0.0 0.0 -1.028225029406e-03 
-7.343430317228e-04 -7.671896480506e-05 0.0 
-7.671896480506e-05 5.717453709460e-03 0.0 
0.0 0.0 -9.780777104595e-04 
-3.572725597686e-04 -1.352690279400e-03 0.0 
-1.352690279400e-03 1.583802329561e-03 0.0 
0.0 0.0 -3.505936111242e-04 
-1.159722748538e-03 -3.230530369319e-05 0.0 
-3.230530369319e-05 7.104974861712e-03 0.0 
0.0 0.0 -1.057861461704e-03 
-1.213686028729e-03 4.975227447854e-04 0.0 
4.975227447854e-04 8.277647080915e-03 0.0 
0.0 0.0 -1.268085107495e-03 
-1.141634375887e-03 -6.383832911746e-05 0.0 
-6.383832911746e-05 7.496062386317e-03 0.0 
0.0 0.0 -1.202195648613e-03 
-7.172722051064e-04 -5.438382500790e-04 0.0 
-5.438382500790e-04 4.116936776522e-03 0.0 
0.0 0.0 -6.923681691211e-04 
-1.013061704463e-03 -1.285173007321e-04 0.0 
-1.285173007321e-04 6.040176746182e-03 0.0 
0.0 0.0 -9.020111041354e-04 
-9.803558555424e-04 2.819126364211e-04 0.0 
2.819126364211e-04 5.747481973327e-03 0.0 
0.0 0.0 -8.677534307045e-04 
-6.277772364563e-04 -9.505441527148e-04 0.0 
-9.505441527148e-04 4.228315103377e-03 0.0 
0.0 0.0 -7.352749011056e-04 
-9.471295400473e-04 -2.290448642546e-04 0.0 
-2.290448642546e-04 6.104893151692e-03 0.0 
0.0 0.0 -9.927925938930e-04 
-9.496787292750e-04 -1.931802113086e-04 0.0 
-1.931802113086e-04 6.308676304585e-03 0.0 
0.0 0.0 -1.030113165296e-03 
-3.367468350593e-04 -4.171493311675e-04 0.0 
-4.171493311675e-04 1.462207300335e-03 0.0 
0.0 0.0 -2.466400652194e-04 
1.723252799300e-04 1.006036226683e-03 0.0 
1.006036226683e-03 1.258635118435e-03 0.0 
0.0 0.0 -4.508272210452e-04 
-2.636139264689e-04 -4.295683990350e-05 0.0 
-4.295683990350e-05 3.648292398008e-03 0.0 
0.0 0.0 -7.269793770173e-04 
-2.881552402748e-04 -7.723163841178e-04 0.0 
-7.723163841178e-04 3.494059092135e-03 0.0 
0.0 0.0 -6.875569550716e-04 
-5.987135522068e-04 9.581338196100e-04 0.0 
9.581338196100e-04 4.121697912248e-03 0.0 
0.0 0.0 -7.320784846625e-04 
-1.264443641134e-03 9.169602624825e-06 0.0 
9.169602624825e-06 8.228641212544e-03 0.0 
0.0 0.0 -1.225426844749e-03 
-1.225437596415e-03 5.454708430458e-04 0.0 
5.454708430458e-04 7.618255897701e-03 0.0 
0.0 0.0 -1.162686153705e-03 
-1.236580353686e-03 -8.584500076515e-05 0.0 
-8.584500076515e-05 7.903871079557e-03 0.0 
0.0 0.0 -1.173632101657e-03 
-7.521471418708e-04 4.524177914914e-04 0.0 
4.524177914914e-04 4.089944836528e-03 0.0 
0.0 0.0 -6.556197767577e-04 
-1.172411158405e-03 4.147315892345e-04 0.0 
4.147315892345e-04 7.176351707369e-03 0.0 
0.0 0.0 -1.082713561900e-03 
-9.808832725520e-04 -6.235651659416e-04 0.0 
-6.235651659416e-04 6.175367423925e-03 0.0 
0.0 0.0 -9.899156953211e-04 
-1.256868554146e-03 3.642260226585e-04 0.0 
3.642260226585e-04 8.010570571666e-03 0.0 
0.0 0.0 -1.198415070424e-03 
-1.131244473165e-03 -2.609112415896e-05 0.0 
-2.609112415896e-05 6.847199996424e-03 0.0 
0.0 0.0 -1.021631336281e-03 
-7.398403296460e-04 -9.100435650523e-04 0.0 
-9.100435650523e-04 4.351978419830e-03 0.0 
0.0 0.0 -7.266350563285e-04 
-1.966131980491e-04 1.343789576191e-04 0.0 
1.343789576191e-04 3.379385752975e-03 0.0 
0.0 0.0 -6.989458521267e-04 
-1.152804453403e-03 3.500950542230e-04 0.0 
3.500950542230e-04 7.051163395974e-03 0.0 
0.0 0.0 -1.060111126929e-03 
-1.235067592862e-03 -2.698356757779e-05 0.0 
-2.698356757779e-05 7.807694952398e-03 0.0 
0.0 0.0 -1.160283895044e-03 
-1.152447904070e-03 3.233521508878e-04 0.0 
3.233521508878e-04 7.106400049278e-03 0.0 
0.0 0.0 -1.066842251349e-03 
-1.126824314787e-03 3.260890582423e-04 0.0 
3.260890582423e-04 6.856832929645e-03 0.0 
0.0 0.0 -1.030428295937e-03 
-1.098624795041e-03 -1.306628866347e-04 0.0 
-1.306628866347e-04 7.036525786255e-03 0.0 
0.0 0.0 -1.124756152480e-03 
-9.788942539780e-04 1.410494860673e-05 0.0 
1.410494860673e-05 7.171321125896e-03 0.0 
0.0 0.0 -1.167530213646e-03 
-1.029227773633e-03 -1.448576550575e-04 0.0 
-1.448576550575e-04 6.777818390463e-03 0.0 
0.0 0.0 -1.096139997395e-03 
-8.853909467236e-04 -3.202143432842e-04 0.0 
-3.202143432842e-04 5.450131718365e-03 0.0 
0.0 0.0 -8.895595506238e-04 
-7.841401063913e-04 5.175313733597e-04 0.0 
5.175313733597e-04 4.039507771945e-03 0.0 
0.0 0.0 -6.419897747600e-04 
-7.984394936658e-04 -1.887921339689e-04 0.0 
-1.887921339689e-04 6.295485930606e-03 0.0 
0.0 0.0 -1.057160997780e-03 
-1.115933343197e-03 4.349000973092e-04 0.0 
4.349000973092e-04 6.664037002129e-03 0.0 
0.0 0.0 -1.010795753303e-03 
-5.956699057430e-04 -8.811439702695e-05 0.0 
-8.811439702695e-05 2.473036601140e-03 0.0 
0.0 0.0 -4.018221946533e-04 
-2.915622310354e-04 -5.737426198503e-04 0.0 
-5.737426198503e-04 3.731241780433e-03 0.0 
0.0 0.0 -7.241222962603e-04 
-4.504794563628e-04 -1.267768640868e-04 0.0 
-1.267768640868e-04 4.437238068048e-03 0.0 
0.0 0.0 -8.193994707270e-04 
-5.327307368017e-04 -1.017456922387e-04 0.0 
-1.017456922387e-04 5.084928060617e-03 0.0 
0.0 0.0 -8.986564694586e-04 
3.950181268846e-04 -2.404122539236e-04 0.0 
-2.404122539236e-04 7.824137722745e-04 0.0 
0.0 0.0 -4.157903644632e-04 
-2.054344188629e-04 -4.192766465647e-04 0.0 
-4.192766465647e-04 3.464515105753e-03 0.0 
0.0 0.0 -6.962026719631e-04 
-6.398120247413e-04 -1.116949900707e-04 0.0 
-1.116949900707e-04 5.588791715487e-03 0.0 
0.0 0.0 -9.636952012155e-04 
-8.444842612221e-04 6.249200502653e-04 0.0 
6.249200502653e-04 4.582153886631e-03 0.0 
0.0 0.0 -7.294090860403e-04 
-7.683331433156e-04 -4.669157271009e-04 0.0 
-4.669157271009e-04 4.555612432421e-03 0.0 
0.0 0.0 -7.579899565570e-04 
-1.071508205892e-03 -5.121927920590e-05 0.0 
-5.121927920590e-05 6.390736393491e-03 0.0 
0.0 0.0 -9.556638187253e-04 
-8.714266706773e-04 2.063026129845e-04 0.0 
2.063026129845e-04 5.095248433608e-03 0.0 
0.0 0.0 -7.638029664831e-04 
-6.864860403863e-05 6.865817311915e-04 0.0 
6.865817311915e-04 5.756289586921e-04 0.0 
0.0 0.0 -2.172772948515e-04 
-8.538627514522e-04 -7.550684867704e-04 0.0 
-7.550684867704e-04 5.254936553017e-03 0.0 
0.0 0.0 -8.580817703278e-04 
-8.031553766191e-04 9.023974365030e-05 0.0 
9.023974365030e-05 6.192888911591e-03 0.0 
0.0 0.0 -1.051835763028e-03 
-1.248237691654e-03 5.633939617195e-04 0.0 
5.633939617195e-04 7.887034516043e-03 0.0 
0.0 0.0 -1.196871286280e-03 
-3.729352427207e-04 2.857944806302e-04 0.0 
2.857944806302e-04 4.199383336330e-03 0.0 
0.0 0.0 -7.999758813884e-04 
-8.246860114036e-04 -3.906175878888e-04 0.0 
-3.906175878888e-04 5.000590526334e-03 0.0 
0.0 0.0 -8.237210115815e-04 
-1.081299147246e-03 -7.697289611937e-05 0.0 
-7.697289611937e-05 6.459732028031e-03 0.0 
0.0 0.0 -9.620958722924e-04 
-2.880056971411e-04 8.925028292911e-04 0.0 
8.925028292911e-04 1.145866698786e-03 0.0 
0.0 0.0 -3.038018182983e-04 
-7.446793118804e-04 1.621554593950e-04 0.0 
1.621554593950e-04 5.956534969945e-03 0.0 
0.0 0.0 -1.023361637732e-03 
-4.737891057000e-04 -2.200266757859e-04 0.0 
-2.200266757859e-04 4.791461031182e-03 0.0 
0.0 0.0 -8.619475031457e-04 
-8.828155885906e-04 2.614625346270e-04 0.0 
2.614625346270e-04 4.904715470600e-03 0.0 
0.0 0.0 -7.615729788896e-04 
-9.809961927394e-04 -5.936604313144e-04 0.0 
-5.936604313144e-04 6.379528294436e-03 0.0 
0.0 0.0 -1.027225276160e-03 
-1.932500912873e-05 -1.677380896941e-03 0.0 
-1.677380896941e-03 1.233986358287e-03 0.0 
0.0 0.0 -3.946419382404e-04 
-9.859370989770e-04 -5.573179193325e-04 0.0 
-5.573179193325e-04 6.591591148133e-03 0.0 
0.0 0.0 -1.064556537081e-03 
-1.075263487039e-03 -6.290518893134e-05 0.0 
-6.290518893134e-05 7.229861812646e-03 0.0 
0.0 0.0 -1.170878753521e-03 
-6.948674803166e-04 2.455637071473e-04 0.0 
2.455637071473e-04 5.729378568502e-03 0.0 
0.0 0.0 -9.948919501216e-04 
-1.162320360260e-03 -6.372562573002e-05 0.0 
-6.372562573002e-05 7.161310363851e-03 0.0 
0.0 0.0 -1.064574987933e-03 
-9.584753352366e-04 2.606905829813e-04 0.0 
2.606905829813e-04 6.727836890182e-03 0.0 
0.0 0.0 -1.082686220397e-03 
-1.082949588594e-03 -4.851124086325e-04 0.0 
-4.851124086325e-04 7.296469259281e-03 0.0 
0.0 0.0 -1.168035910845e-03 
-5.459113610208e-04 8.695894781593e-04 0.0 
8.695894781593e-04 1.682549247342e-03 0.0 
0.0 0.0 -2.917408095836e-04 
-1.104897704515e-03 -4.845952140229e-05 0.0 
-4.845952140229e-05 6.655011128943e-03 0.0 
0.0 0.0 -9.919185416031e-04 
-1.022193057884e-03 1.318252200891e-04 0.0 
1.318252200891e-04 7.257050403107e-03 0.0 
0.0 0.0 -1.173906618061e-03 
-1.179945511942e-03 3.471716249997e-04 0.0 
3.471716249997e-04 7.305593288174e-03 0.0 
0.0 0.0 -1.096489272820e-03 
-5.875834666640e-04 2.546818746217e-04 0.0 
2.546818746217e-04 5.224796690614e-03 0.0 
0.0 0.0 -9.297700869391e-04 
-2.515263867691e-04 -2.254429621664e-04 0.0 
-2.254429621664e-04 3.754254559254e-03 0.0 
0.0 0.0 -7.325247082200e-04 
-9.641389493889e-04 -2.217264104135e-04 0.0 
-2.217264104135e-04 5.113633075458e-03 0.0 
0.0 0.0 -8.069452076110e-04 
4.285236195004e-04 1.396212384085e-04 0.0 
1.396212384085e-04 -1.219952762883e-04 0.0 
0.0 0.0 -1.313692899480e-04 
-1.204146700831e-03 3.439641556613e-04 0.0 
3.439641556613e-04 7.554548687955e-03 0.0 
0.0 0.0 -1.132911322290e-03 
-6.253175333027e-04 -2.826075305287e-05 0.0 
-2.826075305287e-05 2.680000675139e-03 0.0 
0.0 0.0 -4.309687334850e-04 
-5.749579867921e-04 6.771703350766e-04 0.0 
6.771703350766e-04 2.115308728038e-03 0.0 
0.0 0.0 -3.582286249851e-04 
-9.529535044554e-04 3.072244071368e-04 0.0 
3.072244071368e-04 6.570888144221e-03 0.0 
0.0 0.0 -1.054483161448e-03 
-1.255167442230e-03 3.201007171124e-04 0.0 
3.201007171124e-04 8.070344212991e-03 0.0 
0.0 0.0 -1.206783194404e-03 
-8.215496895040e-05 -1.772999525451e-03 0.0 
-1.772999525451e-03 1.193950944070e-03 0.0 
0.0 0.0 -3.966701258844e-04 
-7.833558623484e-04 4.482971625863e-04 0.0 
4.482971625863e-04 5.133302818514e-03 0.0 
0.0 0.0 -8.358581584049e-04 
-1.123137751770e-03 3.572847673877e-04 0.0 
3.572847673877e-04 6.794615582447e-03 0.0 
0.0 0.0 -1.023814440555e-03 
-8.765385540671e-04 -7.492880491734e-04 0.0 
-7.492880491734e-04 4.884441485584e-03 0.0 
0.0 0.0 -7.840072721007e-04 
2.874574446344e-04 -1.091275984428e-03 0.0 
-1.091275984428e-03 9.021895657290e-04 0.0 
0.0 0.0 -4.027365510179e-04 
-3.368056399330e-04 1.320783307670e-03 0.0 
1.320783307670e-03 2.512908282168e-03 0.0 
0.0 0.0 -5.292697486782e-04 
-2.272190685037e-04 -1.261695231052e-03 0.0 
-1.261695231052e-03 1.204255834380e-03 0.0 
0.0 0.0 -3.563018015714e-04 
-5.481856080812e-06 -1.360265015014e-03 0.0 
-1.360265015014e-03 1.114057395476e-03 0.0 
0.0 0.0 -3.608158092454e-04 
-1.672715856143e-04 -1.512279546231e-03 0.0 
-1.512279546231e-03 1.180506359655e-03 0.0 
0.0 0.0 -3.382523083772e-04 
-4.805060594133e-04 2.668098062439e-04 0.0 
2.668098062439e-04 4.715407643663e-03 0.0 
0.0 0.0 -8.647910268431e-04 
-1.323581223665e-03 3.388354907586e-04 0.0 
3.388354907586e-04 9.015003947055e-03 0.0 
0.0 0.0 -1.324146187826e-03 
-6.144383844702e-04 5.601929244688e-04 0.0 
5.601929244688e-04 2.582601934857e-03 0.0 
0.0 0.0 -4.244337567297e-04 
-1.156564282164e-03 -1.287267705775e-04 0.0 
-1.287267705775e-04 7.284536477905e-03 0.0 
0.0 0.0 -1.153422328581e-03 
-1.335800596959e-04 5.879693086389e-04 0.0 
5.879693086389e-04 2.932124141139e-03 0.0 
0.0 0.0 -6.430507458085e-04 
-1.103593163525e-03 -2.311027910085e-05 0.0 
-2.311027910085e-05 6.594057391582e-03 0.0 
0.0 0.0 -9.856407671940e-04 
6.097401795475e-04 2.716157955159e-04 0.0 
2.716157955159e-04 -1.627804699296e-04 0.0 
0.0 0.0 -1.915541612648e-04 
-1.121189365028e-03 -4.313739104837e-04 0.0 
-4.313739104837e-04 7.519397857683e-03 0.0 
0.0 0.0 -1.206759618350e-03 
-1.369628119913e-04 -1.636536330447e-03 0.0 
-1.636536330447e-03 1.233538073419e-03 0.0 
0.0 0.0 -4.045577262616e-04 
-7.109907021558e-04 -5.092194229215e-05 0.0 
-5.092194229215e-05 3.143336407810e-03 0.0 
0.0 0.0 -4.995972236199e-04 
-7.610689947692e-04 3.254275537369e-04 0.0 
3.254275537369e-04 6.017676875730e-03 0.0 
0.0 0.0 -1.031547093314e-03 
-5.009347095537e-04 -8.784504666191e-04 0.0 
-8.784504666191e-04 4.097798542798e-03 0.0 
0.0 0.0 -7.436172176343e-04 
-9.490922030985e-04 8.355820245776e-05 0.0 
8.355820245776e-05 6.977686204134e-03 0.0 
0.0 0.0 -1.139062866688e-03 
-5.334594474911e-04 7.731459396832e-04 0.0 
7.731459396832e-04 3.293236008727e-03 0.0 
0.0 0.0 -5.762899171568e-04 
-1.157169932203e-03 5.876132975745e-05 0.0 
5.876132975745e-05 6.976179943537e-03 0.0 
0.0 0.0 -1.044446328659e-03 
-1.026845760321e-03 3.718808168871e-04 0.0 
3.718808168871e-04 7.294887320679e-03 0.0 
0.0 0.0 -1.198892520503e-03 
-1.098955546930e-03 3.331596057930e-04 0.0 
3.331596057930e-04 6.603659082882e-03 0.0 
0.0 0.0 -9.940794652285e-04 
-1.269540035819e-03 1.940023298487e-04 0.0 
1.940023298487e-04 7.944098741491e-03 0.0 
0.0 0.0 -1.194784139986e-03 
-1.184726223875e-03 -2.348624992808e-06 0.0 
-2.348624992808e-06 7.294407597930e-03 0.0 
0.0 0.0 -1.087318097122e-03 
-1.210012004909e-03 2.996776911562e-05 0.0 
2.996776911562e-05 7.486490191622e-03 0.0 
0.0 0.0 -1.116677092124e-03 
1.863822195981e-04 1.500592688013e-03 0.0 
1.500592688013e-03 6.610975863953e-04 0.0 
0.0 0.0 -3.632056311400e-04 
-1.142912226621e-03 -1.436249115933e-04 0.0 
-1.436249115933e-04 7.061947710655e-03 0.0 
0.0 0.0 -1.115908039155e-03 
-1.147672819159e-03 3.821528619329e-04 0.0 
3.821528619329e-04 6.988478452450e-03 0.0 
0.0 0.0 -1.053364550114e-03 
-4.264879333549e-04 6.971974912426e-04 0.0 
6.971974912426e-04 4.141626674137e-03 0.0 
0.0 0.0 -7.792489223127e-04 
-6.776919640089e-04 4.847017937331e-04 0.0 
4.847017937331e-04 3.056038122043e-03 0.0 
0.0 0.0 -4.908673385051e-04 
-1.078927379078e-03 1.409149927546e-05 0.0 
1.409149927546e-05 7.640444635147e-03 0.0 
0.0 0.0 -1.232292820449e-03 
3.227356576489e-04 7.350862602758e-04 0.0 
7.350862602758e-04 8.113095771019e-04 0.0 
0.0 0.0 -4.142712813041e-04 
-6.537509052586e-04 -4.383754105270e-04 0.0 
-4.383754105270e-04 2.983336896445e-03 0.0 
0.0 0.0 -4.655197245388e-04 
-9.005107576278e-04 4.600258062660e-04 0.0 
4.600258062660e-04 6.613923225017e-03 0.0 
0.0 0.0 -1.105063927110e-03 
-3.654007350969e-04 -1.479495410984e-04 0.0 
-1.479495410984e-04 1.815899396191e-03 0.0 
0.0 0.0 -2.939799329518e-04 
-5.977371900919e-04 5.010127079244e-04 0.0 
5.010127079244e-04 4.620714897895e-03 0.0 
0.0 0.0 -7.924235178053e-04 
-8.040024099011e-04 2.359492841355e-04 0.0 
2.359492841355e-04 6.229578808837e-03 0.0 
0.0 0.0 -1.059843925468e-03 
-1.255635553756e-03 7.173795077006e-05 0.0 
7.173795077006e-05 7.907591642771e-03 0.0 
0.0 0.0 -1.181155146799e-03 
-1.282202030770e-03 1.124926252761e-04 0.0 
1.124926252761e-04 8.112071435222e-03 0.0 
0.0 0.0 -1.210943746944e-03 
-7.487229487199e-04 -1.168956266195e-04 0.0 
-1.168956266195e-04 6.087931342050e-03 0.0 
0.0 0.0 -1.028825005900e-03 
-1.212248021085e-03 -1.436521725135e-05 0.0 
-1.436521725135e-05 7.552882477900e-03 0.0 
0.0 0.0 -1.123737208958e-03 
-2.386760142168e-04 7.145577053840e-04 0.0 
7.145577053840e-04 3.288051445445e-03 0.0 
0.0 0.0 -6.793824814286e-04 
-1.022910334669e-03 3.054988306638e-04 0.0 
3.054988306638e-04 6.728691543712e-03 0.0 
0.0 0.0 -1.062452857821e-03 
-7.369445152822e-04 4.219749857923e-04 0.0 
4.219749857923e-04 3.529735228100e-03 0.0 
0.0 0.0 -5.576509564599e-04 
-1.225600923705e-03 6.150358502408e-04 0.0 
6.150358502408e-04 7.637406645108e-03 0.0 
0.0 0.0 -1.181751882508e-03 
-8.003950005641e-04 3.733577663785e-04 0.0 
3.733577663785e-04 4.007249233080e-03 0.0 
0.0 0.0 -6.243763318321e-04 
-7.858165178840e-04 3.201249060732e-04 0.0 
3.201249060732e-04 4.232155620723e-03 0.0 
0.0 0.0 -6.577503189808e-04 
-3.421685830446e-04 4.506546569180e-04 0.0 
4.506546569180e-04 3.987712693438e-03 0.0 
0.0 0.0 -7.717627972493e-04 
-8.541855867529e-04 3.616408520390e-04 0.0 
3.616408520390e-04 4.495910448337e-03 0.0 
0.0 0.0 -6.911701761307e-04 
-6.466553023066e-04 3.566499724765e-04 0.0 
3.566499724765e-04 5.190189138744e-03 0.0 
0.0 0.0 -8.833033330409e-04 
-4.075558796588e-04 5.082935923898e-04 0.0 
5.082935923898e-04 3.946901844573e-03 0.0 
0.0 0.0 -7.209687761305e-04 
-3.183347553168e-04 -3.900876355230e-04 0.0 
-3.900876355230e-04 3.990865140146e-03 0.0 
0.0 0.0 -7.606211034647e-04 
4.197691498195e-04 -7.924817374046e-04 0.0 
-7.924817374046e-04 5.841418248199e-04 0.0 
0.0 0.0 -3.925496596906e-04 
-2.632176995851e-04 3.130804871778e-04 0.0 
3.130804871778e-04 3.673894068274e-03 0.0 
0.0 0.0 -7.353490689725e-04 
-1.228427596361e-03 3.654441690398e-04 0.0 
3.654441690398e-04 7.753036613507e-03 0.0 
0.0 0.0 -1.162517914204e-03 
-1.234586540092e-03 6.496817172604e-04 0.0 
6.496817172604e-04 7.840810725913e-03 0.0 
0.0 0.0 -1.195263893373e-03 
-1.079254607357e-03 -1.716834017040e-04 0.0 
-1.716834017040e-04 6.610697418479e-03 0.0 
0.0 0.0 -1.050100468764e-03 
-9.999924356562e-04 4.337068162590e-04 0.0 
4.337068162590e-04 7.101876474641e-03 0.0 
0.0 0.0 -1.170266998156e-03 
-4.393592797757e-04 -4.178536690016e-04 0.0 
-4.178536690016e-04 4.023524415681e-03 0.0 
0.0 0.0 -7.463264885205e-04 
-1.196792592392e-03 4.110574340668e-04 0.0 
4.110574340668e-04 7.430663622206e-03 0.0 
0.0 0.0 -1.119019617531e-03 
-3.103812770642e-04 1.366237006987e-04 0.0 
1.366237006987e-04 3.912213435347e-03 0.0 
0.0 0.0 -7.634232545038e-04 
-1.186941185396e-03 -1.093564622626e-04 0.0 
-1.093564622626e-04 7.299889317220e-03 0.0 
0.0 0.0 -1.144395376583e-03 
-1.175446045210e-03 3.743988593539e-04 0.0 
3.743988593539e-04 7.239811730626e-03 0.0 
0.0 0.0 -1.089631904438e-03 
-1.184480952279e-03 4.301367348574e-05 0.0 
4.301367348574e-05 7.231184503722e-03 0.0 
0.0 0.0 -1.080451501872e-03 
-6.366755747078e-04 1.541674785508e-04 0.0 
1.541674785508e-04 5.452650900242e-03 0.0 
0.0 0.0 -9.580909834143e-04 
-2.389238927474e-04 5.103421139427e-04 0.0 
5.103421139427e-04 3.464348160629e-03 0.0 
0.0 0.0 -7.073300717972e-04 
-1.091479932409e-03 3.053404772209e-04 0.0 
3.053404772209e-04 7.161436277653e-03 0.0 
0.0 0.0 -1.126038590206e-03 
-9.842000416471e-04 6.396846099915e-04 0.0 
6.396846099915e-04 5.813603015757e-03 0.0 
0.0 0.0 -9.169694165663e-04 
1.883793847700e-04 -1.613056327393e-03 0.0 
-1.613056327393e-03 7.099727485343e-04 0.0 
0.0 0.0 -3.670597958229e-04 
4.158840995285e-04 -1.069455846307e-04 0.0 
-1.069455846307e-04 9.093131002263e-04 0.0 
0.0 0.0 -4.209936697170e-04 
-5.253520320544e-04 1.113226159763e-03 0.0 
1.113226159763e-03 3.274387380493e-03 0.0 
0.0 0.0 -6.061407060701e-04 
-8.148800044768e-04 7.943320417803e-04 0.0 
7.943320417803e-04 5.072587073095e-03 0.0 
0.0 0.0 -8.384786063130e-04 
-1.230266496445e-03 -6.856974243120e-05 0.0 
-6.856974243120e-05 7.537797729461e-03 0.0 
0.0 0.0 -1.173545322487e-03 
-1.159784806983e-03 4.546774843699e-06 0.0 
4.546774843699e-06 7.042624556690e-03 0.0 
0.0 0.0 -1.051102540299e-03 
-2.045778073669e-04 -2.934353049160e-05 0.0 
-2.934353049160e-05 3.544788899175e-03 0.0 
0.0 0.0 -7.045205360201e-04 
-9.013823451461e-04 3.641498331546e-04 0.0 
3.641498331546e-04 5.853350218943e-03 0.0 
0.0 0.0 -9.344940742331e-04 
-8.532834150583e-04 1.785665259931e-04 0.0 
1.785665259931e-04 6.467721788847e-03 0.0 
0.0 0.0 -1.088599101970e-03 
-1.213199839846e-03 -4.701032574329e-05 0.0 
-4.701032574329e-05 7.611187462875e-03 0.0 
0.0 0.0 -1.130578931274e-03 
-1.163123546776e-03 3.469650352866e-04 0.0 
3.469650352866e-04 7.457428311297e-03 0.0 
0.0 0.0 -1.160781586281e-03 
-1.064121038643e-03 3.592685452389e-04 0.0 
3.592685452389e-04 6.295822569873e-03 0.0 
0.0 0.0 -9.517943393003e-04 
-9.431187375283e-04 -8.030312093778e-06 0.0 
-8.030312093778e-06 6.723807310886e-03 0.0 
0.0 0.0 -1.113435711030e-03 
-3.640285380993e-04 -2.251334255899e-04 0.0 
-2.251334255899e-04 4.276860424883e-03 0.0 
0.0 0.0 -7.971871449875e-04 
-8.575470034421e-04 -2.591277644309e-04 0.0 
-2.591277644309e-04 6.522660233149e-03 0.0 
0.0 0.0 -1.086118700983e-03 
-6.488096190532e-04 8.782975641900e-04 0.0 
8.782975641900e-04 4.555098411154e-03 0.0 
0.0 0.0 -7.951163407912e-04 
-1.259477151619e-03 2.377000778179e-05 0.0 
2.377000778179e-05 7.994105241717e-03 0.0 
0.0 0.0 -1.188704642750e-03 
-1.188566355983e-03 2.821785558319e-04 0.0 
2.821785558319e-04 7.789552889991e-03 0.0 
0.0 0.0 -1.200489323427e-03 
-5.291595357548e-04 1.464001696405e-04 0.0 
1.464001696405e-04 4.944674619640e-03 0.0 
0.0 0.0 -8.929891684399e-04 
5.077877396978e-04 3.026021049410e-04 0.0 
3.026021049410e-04 3.943566526323e-04 0.0 
0.0 0.0 -3.866333109986e-04 
-9.967575789130e-04 6.124990556396e-04 0.0 
6.124990556396e-04 6.815699392306e-03 0.0 
0.0 0.0 -1.113685640909e-03 
-6.605390437865e-04 4.261094964972e-04 0.0 
4.261094964972e-04 5.059149157301e-03 0.0 
0.0 0.0 -8.555605426019e-04 
-1.830081198130e-04 1.866635750844e-04 0.0 
1.866635750844e-04 3.368216116446e-03 0.0 
0.0 0.0 -6.765734244908e-04 
-5.817203437329e-04 -2.125841840423e-04 0.0 
-2.125841840423e-04 5.299242741235e-03 0.0 
0.0 0.0 -9.269463096178e-04 
-9.296871453603e-04 -5.069518437094e-04 0.0 
-5.069518437094e-04 6.554705833196e-03 0.0 
0.0 0.0 -1.072977024862e-03 
5.145493605139e-04 -6.481882605914e-04 0.0 
-6.481882605914e-04 5.138628621790e-04 0.0 
0.0 0.0 -3.958212347391e-04 
-4.207868633399e-04 1.388755270071e-04 0.0 
1.388755270071e-04 4.431893145968e-03 0.0 
0.0 0.0 -8.281205301186e-04 
-1.057518774056e-03 5.392644449481e-04 0.0 
5.392644449481e-04 6.206831668111e-03 0.0 
0.0 0.0 -9.596127204057e-04 
-1.238644968873e-03 -4.648423040969e-04 0.0 
-4.648423040969e-04 7.603472997752e-03 0.0 
0.0 0.0 -1.170838755190e-03 
-1.067041670428e-03 5.715302009941e-04 0.0 
5.715302009941e-04 6.356528225694e-03 0.0 
0.0 0.0 -9.876491701491e-04 
-9.841945622355e-04 6.610492595006e-04 0.0 
6.610492595006e-04 6.661208694162e-03 0.0 
0.0 0.0 -1.085374163265e-03 
-1.045085745863e-03 5.003784013052e-04 0.0 
5.003784013052e-04 6.049842854282e-03 0.0 
0.0 0.0 -9.316602363005e-04 
-1.022837492668e-03 4.381275546802e-04 0.0 
4.381275546802e-04 5.716010034056e-03 0.0 
0.0 0.0 -8.756372412555e-04 
-9.850681647526e-04 6.675723233926e-04 0.0 
6.675723233926e-04 5.952563133260e-03 0.0 
0.0 0.0 -9.447135688329e-04 
-9.326630633240e-04 3.930283305116e-04 0.0 
3.930283305116e-04 6.810995827980e-03 0.0 
0.0 0.0 -1.133505030480e-03 
-1.106660061021e-03 -5.521563816417e-04 0.0 
-5.521563816417e-04 6.894855264338e-03 0.0 
0.0 0.0 -1.084522140297e-03 
-1.120799229937e-03 3.838899692646e-04 0.0 
3.838899692646e-04 6.737454909863e-03 0.0 
0.0 0.0 -1.017300281410e-03 
-1.265839226480e-03 4.523982644349e-04 0.0 
4.523982644349e-04 8.063487692737e-03 0.0 
0.0 0.0 -1.212886757924e-03 
-1.030324522425e-03 4.628372417255e-04 0.0 
4.628372417255e-04 5.887641382241e-03 0.0 
0.0 0.0 -9.037302385344e-04 
2.653135269755e-05 8.001600084414e-05 0.0 
8.001600084414e-05 2.476344782206e-03 0.0 
0.0 0.0 -5.760585567884e-04 
-1.044239643313e-03 2.376498451470e-04 0.0 
2.376498451470e-04 7.187723140536e-03 0.0 
0.0 0.0 -1.146733564437e-03 
-1.253924981079e-03 -4.907598213233e-05 0.0 
-4.907598213233e-05 8.057805599269e-03 0.0 
0.0 0.0 -1.196744929305e-03 
-5.355464959753e-04 8.349410411799e-04 0.0 
8.349410411799e-04 4.335085481445e-03 0.0 
0.0 0.0 -7.869228524964e-04 
-6.233378135021e-04 8.291713004523e-04 0.0 
8.291713004523e-04 4.669146782253e-03 0.0 
0.0 0.0 -8.226527892688e-04 
-9.042297380501e-05 1.578503348626e-05 0.0 
1.578503348626e-05 3.015977975308e-03 0.0 
0.0 0.0 -6.402419685743e-04 
-1.145557266538e-03 4.246140586136e-04 0.0 
4.246140586136e-04 6.921583184568e-03 0.0 
0.0 0.0 -1.046609947212e-03 
-6.981713726155e-04 9.056832497172e-04 0.0 
9.056832497172e-04 3.852457966674e-03 0.0 
0.0 0.0 -6.500746975200e-04 
-6.825381544126e-04 6.942299752500e-04 0.0 
6.942299752500e-04 5.269578602974e-03 0.0 
0.0 0.0 -9.137630964162e-04 
-6.717413934869e-04 5.961928435860e-04 0.0 
5.961928435860e-04 3.907642713709e-03 0.0 
0.0 0.0 -6.476280927198e-04 
-8.299310340804e-04 4.003109170218e-04 0.0 
4.003109170218e-04 6.314977660297e-03 0.0 
0.0 0.0 -1.068254633495e-03 
-1.134995185088e-03 2.756692802088e-04 0.0 
2.756692802088e-04 7.594750376581e-03 0.0 
0.0 0.0 -1.211228670573e-03 
-1.360533559688e-04 -2.215574873168e-04 0.0 
-2.215574873168e-04 3.223027219763e-03 0.0 
0.0 0.0 -6.682047883386e-04 
4.373904628404e-04 -2.393257178328e-04 0.0 
-2.393257178328e-04 -1.132865459339e-04 0.0 
0.0 0.0 -1.389016786742e-04 
-1.258599255868e-03 5.175436206336e-04 0.0 
5.175436206336e-04 7.974357198458e-03 0.0 
0.0 0.0 -1.207184308065e-03 
-7.509449296831e-04 8.117398232865e-04 0.0 
8.117398232865e-04 4.141196512392e-03 0.0 
0.0 0.0 -6.853381776776e-04 
-4.357225566231e-04 -2.745654093134e-04 0.0 
-2.745654093134e-04 4.218247831069e-03 0.0 
0.0 0.0 -7.828151049093e-04 
-1.060590658414e-03 6.112856710438e-04 0.0 
6.112856710438e-04 7.289270463529e-03 0.0 
0.0 0.0 -1.177925372349e-03 
-1.133119087327e-03 1.716253131945e-05 0.0 
1.716253131945e-05 6.790529249754e-03 0.0 
0.0 0.0 -1.015069748350e-03 
-1.047918274143e-03 -5.722033483047e-04 0.0 
-5.722033483047e-04 6.640384232334e-03 0.0 
0.0 0.0 -1.055879354346e-03 
-3.002045645479e-04 4.799822856897e-04 0.0 
4.799822856897e-04 3.594772661625e-03 0.0 
0.0 0.0 -6.851017020021e-04 
1.437633437549e-04 -1.583243096343e-05 0.0 
-1.583243096343e-05 -4.287346076813e-05 0.0 
0.0 0.0 -4.323852128003e-05 
-1.294332022630e-03 -4.590388614896e-04 0.0 
-4.590388614896e-04 7.891763322768e-03 0.0 
0.0 0.0 -1.202131160132e-03 
-7.979241755136e-04 7.967983468878e-04 0.0 
7.967983468878e-04 5.189819245057e-03 0.0 
0.0 0.0 -8.660506973337e-04 
-7.515738742409e-04 1.099645178349e-04 0.0 
1.099645178349e-04 5.981619188890e-03 0.0 
0.0 0.0 -1.007142642412e-03 
-1.115772722662e-03 6.613759768766e-04 0.0 
6.613759768766e-04 7.287802445254e-03 0.0 
0.0 0.0 -1.157822513452e-03 
0.0 0.0 0.0 
0.0 0.0 0.0 
0.0 0.0 0.0 
-1.020410346766e-03 -1.741879484343e-04 0.0 
-1.741879484343e-04 6.569036879710e-03 0.0 
0.0 0.0 -1.058763633038e-03 
-1.044584882710e-04 9.374141262810e-04 0.0 
9.374141262810e-04 2.179572843365e-03 0.0 
0.0 0.0 -4.919579008500e-04 
-1.074016419554e-03 -9.865194451981e-06 0.0 
-9.865194451981e-06 6.344021920267e-03 0.0 
0.0 0.0 -9.498437721210e-04 
-9.305727240655e-04 -6.933921297842e-04 0.0 
-6.933921297842e-04 5.329347824549e-03 0.0 
0.0 0.0 -8.496012432876e-04 
-1.513106441094e-04 3.496683072490e-04 0.0 
3.496683072490e-04 3.137268859880e-03 0.0 
0.0 0.0 -6.709551114794e-04 
-1.200608795278e-03 -4.872905826385e-04 0.0 
-4.872905826385e-04 7.367763642178e-03 0.0 
0.0 0.0 -1.141635569211e-03 
-6.896908437113e-04 7.588366273899e-04 0.0 
7.588366273899e-04 5.123258515759e-03 0.0 
0.0 0.0 -8.859145181037e-04 
-3.682506920307e-05 4.047925217802e-04 0.0 
4.047925217802e-04 2.589749957424e-03 0.0 
0.0 0.0 -6.067458373204e-04 
-8.340011645670e-04 4.008480374015e-04 0.0 
4.008480374015e-04 5.557081142302e-03 0.0 
0.0 0.0 -8.989548790023e-04 
3.022096838876e-04 -3.038195152345e-04 0.0 
-3.038195152345e-04 -5.124151784209e-05 0.0 
0.0 0.0 -1.075577854481e-04 
-9.546355211556e-04 3.234338831530e-04 0.0 
3.234338831530e-04 6.429567223705e-03 0.0 
0.0 0.0 -1.026417656363e-03 
-8.158927749848e-04 -3.909777349408e-05 0.0 
-3.909777349408e-05 6.386420010715e-03 0.0 
0.0 0.0 -1.065496432940e-03 
-1.247055565640e-03 3.319997532961e-04 0.0 
3.319997532961e-04 7.921779384989e-03 0.0 
0.0 0.0 -1.233600908384e-03 
-1.025284337354e-03 2.945178670449e-04 0.0 
2.945178670449e-04 6.877652576001e-03 0.0 
0.0 0.0 -1.090749533212e-03 
2.434503745851e-04 -1.578934998957e-04 0.0 
-1.578934998957e-04 1.529841444305e-03 0.0 
0.0 0.0 -4.758149136988e-04 
-1.100855494631e-03 -5.513580386133e-04 0.0 
-5.513580386133e-04 6.680884096093e-03 0.0 
0.0 0.0 -1.047231727503e-03 
-1.252169978070e-03 3.748871630309e-04 0.0 
3.748871630309e-04 8.183246127380e-03 0.0 
0.0 0.0 -1.228155452712e-03 
-1.172998084832e-03 8.287498321717e-05 0.0 
8.287498321717e-05 7.902166307926e-03 0.0 
0.0 0.0 -1.267145247477e-03 
-8.845763971731e-04 3.343706134046e-05 0.0 
3.343706134046e-05 6.685188464531e-03 0.0 
0.0 0.0 -1.102242875413e-03 
-2.824655770355e-04 3.019818645340e-04 0.0 
3.019818645340e-04 3.719180698001e-03 0.0 
0.0 0.0 -7.127912709901e-04 
-8.914221389397e-04 3.576211756874e-04 0.0 
3.576211756874e-04 5.989320852496e-03 0.0 
0.0 0.0 -9.624716764950e-04 
-1.265622827008e-03 -3.602381928261e-05 0.0 
-3.602381928261e-05 7.525688479598e-03 0.0 
0.0 0.0 -1.164316760544e-03 
-1.026823558190e-03 -3.127358117122e-04 0.0 
-3.127358117122e-04 5.188290229651e-03 0.0 
0.0 0.0 -7.878971455476e-04 
-9.790335059978e-04 6.764140397440e-04 0.0 
6.764140397440e-04 6.506573428341e-03 0.0 
0.0 0.0 -1.057196955382e-03 
-1.092783271967e-03 3.587775336083e-04 0.0 
3.587775336083e-04 6.543365283594e-03 0.0 
0.0 0.0 -9.877098122506e-04 
-1.155871143424e-03 -5.200772835953e-04 0.0 
-5.200772835953e-04 7.131963810306e-03 0.0 
0.0 0.0 -1.112977059762e-03 
-1.053791982519e-03 -5.418051239347e-04 0.0 
-5.418051239347e-04 6.849369446006e-03 0.0 
0.0 0.0 -1.093234982489e-03 
-8.344751970142e-04 -5.063632387036e-06 0.0 
-5.063632387036e-06 4.624983012521e-03 0.0 
0.0 0.0 -7.313513689239e-04 
-8.293658591313e-04 3.666703434100e-05 0.0 
3.666703434100e-05 4.623218336322e-03 0.0 
0.0 0.0 -7.310574395863e-04 
-1.097030069405e-03 1.613810298079e-04 0.0 
1.613810298079e-04 6.539696336596e-03 0.0 
0.0 0.0 -9.927888931629e-04 
-9.125545325387e-04 7.100995827850e-04 0.0 
7.100995827850e-04 6.060357295598e-03 0.0 
0.0 0.0 -9.930598132463e-04 
-9.889474269995e-04 -6.231936758992e-04 0.0 
-6.231936758992e-04 5.582412655685e-03 0.0 
0.0 0.0 -8.780428295617e-04 
-1.024071250989e-03 2.871939654452e-04 0.0 
2.871939654452e-04 6.293682207182e-03 0.0 
0.0 0.0 -9.775429604617e-04 
-6.061110354643e-04 7.542189021973e-04 0.0 
7.542189021973e-04 4.796279324774e-03 0.0 
0.0 0.0 -8.502279965035e-04 
-1.039665177067e-03 6.008961477256e-05 0.0 
6.008961477256e-05 7.149947818513e-03 0.0 
0.0 0.0 -1.180288150054e-03 
-3.419429553988e-04 7.892463912468e-04 0.0 
7.892463912468e-04 3.645374748844e-03 0.0 
0.0 0.0 -7.154845226688e-04 
-1.354053466570e-03 2.682798114320e-04 0.0 
2.682798114320e-04 9.013564030942e-03 0.0 
0.0 0.0 -1.323793839065e-03 
-9.392924140876e-04 3.695422570173e-04 0.0 
3.695422570173e-04 5.310514062737e-03 0.0 
0.0 0.0 -8.119939454945e-04 
-5.728660710208e-04 4.262528038404e-04 0.0 
4.262528038404e-04 4.737723853376e-03 0.0 
0.0 0.0 -8.199314282332e-04 
-8.958346709753e-04 -3.297015998196e-04 0.0 
-3.297015998196e-04 5.260659561238e-03 0.0 
0.0 0.0 -8.523954645778e-04 
2.690092700999e-04 2.909500152897e-04 0.0 
2.909500152897e-04 1.354854423747e-03 0.0 
0.0 0.0 -4.479040077299e-04 
-8.117880315537e-04 -8.289707142058e-04 0.0 
-8.289707142058e-04 4.623452632362e-03 0.0 
0.0 0.0 -7.551671247638e-04 
-8.525904846397e-04 7.508503903319e-04 0.0 
7.508503903319e-04 5.621343722007e-03 0.0 
0.0 0.0 -9.293281999836e-04 
-8.758111121474e-04 7.483431883641e-04 0.0 
7.483431883641e-04 5.371889788881e-03 0.0 
0.0 0.0 -8.738309435711e-04 
-1.092742745582e-03 3.915524889603e-04 0.0 
3.915524889603e-04 6.485907170089e-03 0.0 
0.0 0.0 -9.814596669550e-04 
-1.035952161766e-03 6.611052853446e-04 0.0 
6.611052853446e-04 6.380857888035e-03 0.0 
0.0 0.0 -1.008022096355e-03 
-1.077652724168e-03 2.805726221407e-04 0.0 
2.805726221407e-04 6.715783923999e-03 0.0 
0.0 0.0 -1.040850218070e-03 
-2.023974518503e-04 -1.321133762499e-04 0.0 
-1.321133762499e-04 1.384394093772e-03 0.0 
0.0 0.0 -2.163717569139e-04 
-7.893601242255e-04 -4.562798916239e-04 0.0 
-4.562798916239e-04 4.381521976835e-03 0.0 
0.0 0.0 -7.209013985657e-04 
-7.313998078972e-04 5.086544562021e-04 0.0 
5.086544562021e-04 4.197814066076e-03 0.0 
0.0 0.0 -6.825522065409e-04 
-1.028318523239e-03 6.006171887521e-04 0.0 
6.006171887521e-04 6.085692307244e-03 0.0 
0.0 0.0 -9.521954671713e-04 
-1.067646735266e-03 2.331910673829e-04 0.0 
2.331910673829e-04 6.426373394987e-03 0.0 
0.0 0.0 -9.850634846466e-04 
-9.716546386639e-04 2.965949022534e-04 0.0 
2.965949022534e-04 6.988702290933e-03 0.0 
0.0 0.0 -1.160108757481e-03 
-4.472950566148e-04 1.734158785359e-04 0.0 
1.734158785359e-04 1.999281221139e-03 0.0 
0.0 0.0 -3.273996513303e-04 
5.013762340144e-04 -1.239269767564e-03 0.0 
-1.239269767564e-03 2.218446430556e-04 0.0 
0.0 0.0 -3.099518044586e-04 
-7.265319955109e-04 8.390462931927e-04 0.0 
8.390462931927e-04 4.877510016991e-03 0.0 
0.0 0.0 -8.305977116616e-04 
-8.244303094237e-04 -8.036957222691e-04 0.0 
-8.036957222691e-04 4.446645084886e-03 0.0 
0.0 0.0 -7.181358556540e-04 
-8.207218427826e-04 3.111449193763e-07 0.0 
3.111449193763e-07 4.297525914166e-03 0.0 
0.0 0.0 -6.554599841463e-04 
-8.454650530547e-04 2.288116945552e-05 0.0 
2.288116945552e-05 4.550895634799e-03 0.0 
0.0 0.0 -6.889204951115e-04 
-1.102411452052e-03 3.661135033764e-05 0.0 
3.661135033764e-05 6.536305471285e-03 0.0 
0.0 0.0 -9.793492904611e-04 
1.401876311920e-04 1.457319982698e-03 0.0 
1.457319982698e-03 8.276000244946e-04 0.0 
0.0 0.0 -3.371109590423e-04 
-9.056307504124e-04 -3.219601326285e-04 0.0 
-3.219601326285e-04 5.073216074597e-03 0.0 
0.0 0.0 -8.154759146177e-04 
-8.139515461008e-04 -3.444279104294e-04 0.0 
-3.444279104294e-04 6.262709696181e-03 0.0 
0.0 0.0 -1.049209916622e-03 
5.784646720155e-04 -2.798136268851e-04 0.0 
-2.798136268851e-04 4.491531344291e-05 0.0 
0.0 0.0 -2.671628509107e-04 
-1.269607203850e-03 4.300111845681e-04 0.0 
4.300111845681e-04 8.005085435650e-03 0.0 
0.0 0.0 -1.285586381397e-03 
-1.234701409080e-03 4.026661623699e-05 0.0 
4.026661623699e-05 7.724712803764e-03 0.0 
0.0 0.0 -1.152455342817e-03 
-9.332307083252e-04 -6.317385210980e-04 0.0 
-6.317385210980e-04 4.943755293323e-03 0.0 
0.0 0.0 -7.756113943005e-04 
-1.132361128818e-03 -1.347962173953e-04 0.0 
-1.347962173953e-04 6.852501733015e-03 0.0 
0.0 0.0 -1.078722419643e-03 
-1.782286125890e-04 -3.440225614963e-05 0.0 
-3.440225614963e-05 7.356149739106e-04 0.0 
0.0 0.0 -1.797547709840e-04 
-7.836878423569e-04 -4.420353483476e-04 0.0 
-4.420353483476e-04 6.015976224596e-03 0.0 
0.0 0.0 -1.012471576362e-03 
-7.618878641414e-04 4.386001518409e-04 0.0 
4.386001518409e-04 5.252415903850e-03 0.0 
0.0 0.0 -8.634366945984e-04 
-1.365202202974e-04 -1.663937919944e-05 0.0 
-1.663937919944e-05 7.240163383166e-04 0.0 
0.0 0.0 -1.788519809851e-04 
-1.221296204116e-03 3.897303876191e-04 0.0 
3.897303876191e-04 7.675470665632e-03 0.0 
0.0 0.0 -1.154859126927e-03 
6.541694671517e-04 -5.838497479074e-04 0.0 
-5.838497479074e-04 -1.165985658389e-04 0.0 
0.0 0.0 -2.303875291341e-04 
-1.022773715161e-03 2.649419741859e-04 0.0 
2.649419741859e-04 6.147018606592e-03 0.0 
0.0 0.0 -9.496453321265e-04 
-8.501477431051e-04 4.017489682252e-04 0.0 
4.017489682252e-04 5.430956065029e-03 0.0 
0.0 0.0 -8.712718144564e-04 
-3.870813166907e-04 -6.841434598879e-04 0.0 
-6.841434598879e-04 4.009053170529e-03 0.0 
0.0 0.0 -7.519815330289e-04 
-7.080628147866e-04 -2.630245850535e-04 0.0 
-2.630245850535e-04 5.293137348391e-03 0.0 
0.0 0.0 -9.052548162676e-04 
-1.248469741651e-03 4.216386458729e-04 0.0 
4.216386458729e-04 7.872413297340e-03 0.0 
0.0 0.0 -1.182898372388e-03 
-7.959805508824e-04 -1.903636579771e-04 0.0 
-1.903636579771e-04 5.775075989453e-03 0.0 
0.0 0.0 -9.716005391690e-04 
-7.058567601375e-04 8.071090420181e-04 0.0 
8.071090420181e-04 4.993912000440e-03 0.0 
0.0 0.0 -8.581765416018e-04 
-6.834773769761e-04 4.720321187624e-04 0.0 
4.720321187624e-04 4.941232986507e-03 0.0 
0.0 0.0 -8.279616112546e-04 
1.200725464497e-05 4.997720012563e-04 0.0 
4.997720012563e-04 2.980647594779e-04 0.0 
0.0 0.0 -1.328880060527e-04 
5.267325684764e-04 -1.507976047628e-04 0.0 
-1.507976047628e-04 -1.515568147922e-04 0.0 
0.0 0.0 -1.607896087218e-04 
-1.031637425544e-03 2.938257107745e-04 0.0 
2.938257107745e-04 7.016823171402e-03 0.0 
0.0 0.0 -1.118331045454e-03 
-1.047581819557e-03 3.855603907834e-05 0.0 
3.855603907834e-05 6.024362043911e-03 0.0 
0.0 0.0 -9.085367473448e-04 
-1.068580773740e-03 6.289177231850e-04 0.0 
6.289177231850e-04 7.124997701846e-03 0.0 
0.0 0.0 -1.148691026115e-03 
-2.168784888490e-04 1.398227562360e-03 0.0 
1.398227562360e-03 2.112550911132e-03 0.0 
0.0 0.0 -4.942977111402e-04 
-1.176051745943e-03 5.435901405529e-04 0.0 
5.435901405529e-04 7.176283028080e-03 0.0 
0.0 0.0 -1.097950598811e-03 
-1.105546950119e-03 2.883637130323e-04 0.0 
2.883637130323e-04 7.335184708628e-03 0.0 
0.0 0.0 -1.155407764312e-03 
-8.481473499091e-04 3.802854440165e-04 0.0 
3.802854440165e-04 4.634623972028e-03 0.0 
0.0 0.0 -7.179420443741e-04 
-1.053414342459e-03 6.334862389143e-04 0.0 
6.334862389143e-04 6.950110385841e-03 0.0 
0.0 0.0 -1.120992621467e-03 
-1.150488405997e-03 -5.115596481821e-04 0.0 
-5.115596481821e-04 6.921289775542e-03 0.0 
0.0 0.0 -1.075946734593e-03 
-8.430169137080e-04 7.309466471044e-04 0.0 
7.309466471044e-04 5.750606817071e-03 0.0 
0.0 0.0 -9.571162043194e-04 
-8.407412319889e-04 -3.923326874810e-04 0.0 
-3.923326874810e-04 4.820090656330e-03 0.0 
0.0 0.0 -7.866383436874e-04 
-8.661293961769e-04 -7.636305903076e-04 0.0 
-7.636305903076e-04 5.068827859701e-03 0.0 
0.0 0.0 -8.209012074946e-04 
-1.276631957823e-03 1.351613779989e-04 0.0 
1.351613779989e-04 8.067600813718e-03 0.0 
0.0 0.0 -1.204704583718e-03 
-6.220699559740e-04 -3.467517458204e-04 0.0 
-3.467517458204e-04 4.812375804049e-03 0.0 
0.0 0.0 -8.396599866114e-04 
-8.640312315529e-04 7.564773801915e-04 0.0 
7.564773801915e-04 5.496513579944e-03 0.0 
0.0 0.0 -9.015555482168e-04 
-5.139647083066e-04 6.286602551559e-04 0.0 
6.286602551559e-04 4.638431100819e-03 0.0 
0.0 0.0 -8.433600309793e-04 
-8.878790724241e-04 -1.375747034556e-04 0.0 
-1.375747034556e-04 6.258870962336e-03 0.0 
0.0 0.0 -1.038364586984e-03 
-4.800211114771e-04 4.132947089942e-04 0.0 
4.132947089942e-04 4.403087062058e-03 0.0 
0.0 0.0 -7.842421616061e-04 
1.708764263770e-04 1.828302604937e-04 0.0 
1.828302604937e-04 1.696323968062e-03 0.0 
0.0 0.0 -5.065804551108e-04 
-4.825363659521e-04 1.845931219475e-05 0.0 
1.845931219475e-05 4.680497453253e-03 0.0 
0.0 0.0 -8.561803240471e-04 
8.082119994225e-05 4.790974331332e-04 0.0 
4.790974331332e-04 2.023860804843e-03 0.0 
0.0 0.0 -5.426160209679e-04 
-1.033438603377e-03 6.383788790857e-04 0.0 
6.383788790857e-04 6.235509335954e-03 0.0 
0.0 0.0 -9.799122972177e-04 
1.114946380246e-04 -1.909482610686e-04 0.0 
-1.909482610686e-04 2.113077183239e-03 0.0 
0.0 0.0 -5.399485503623e-04 
-9.706412986079e-04 3.184758127264e-04 0.0 
3.184758127264e-04 6.013389094156e-03 0.0 
0.0 0.0 -9.420580210740e-04 
-9.265946290547e-04 -4.225709154864e-05 0.0 
-4.225709154864e-05 6.885841307398e-03 0.0 
0.0 0.0 -1.130549445556e-03 
-8.685442447111e-04 3.124266913747e-04 0.0 
3.124266913747e-04 6.514082051094e-03 0.0 
0.0 0.0 -1.096529089934e-03 
-4.417150057457e-04 8.260625217284e-04 0.0 
8.260625217284e-04 3.995231427087e-03 0.0 
0.0 0.0 -7.512528815036e-04 
-1.059191105034e-03 4.065855107728e-04 0.0 
4.065855107728e-04 6.228287830528e-03 0.0 
0.0 0.0 -9.460253849645e-04 
-1.179141908394e-03 -9.694575707592e-05 0.0 
-9.694575707592e-05 7.087490944073e-03 0.0 
0.0 0.0 -1.107441567342e-03 
-1.193835214950e-03 -4.719824871619e-04 0.0 
-4.719824871619e-04 7.155436910273e-03 0.0 
0.0 0.0 -1.104747680386e-03 
1.944125303692e-04 1.273132647232e-03 0.0 
1.273132647232e-03 5.121470870520e-04 0.0 
0.0 0.0 -3.028112646091e-04 
-9.836336619932e-04 6.878362883605e-04 0.0 
6.878362883605e-04 6.089006481299e-03 0.0 
0.0 0.0 -9.724793438395e-04 
-1.268204156625e-03 7.721982515826e-06 0.0 
7.721982515826e-06 7.786698253164e-03 0.0 
0.0 0.0 -1.205818386895e-03 
-6.870681417228e-04 7.008927199053e-04 0.0 
7.008927199053e-04 3.265237971609e-03 0.0 
0.0 0.0 -5.357889572170e-04 
-9.885170178391e-04 -5.948066208015e-04 0.0 
-5.948066208015e-04 5.380783060798e-03 0.0 
0.0 0.0 -8.409532000723e-04 
-7.799555259594e-05 6.230825562270e-04 0.0 
6.230825562270e-04 5.570487652900e-04 0.0 
0.0 0.0 -2.053085197260e-04 
-1.219579480668e-03 -6.033820998881e-05 0.0 
-6.033820998881e-05 7.313003609483e-03 0.0 
0.0 0.0 -1.136235114959e-03 
2.012100085966e-04 5.845223729044e-04 0.0 
5.845223729044e-04 1.434306137738e-03 0.0 
0.0 0.0 -4.785631936960e-04 
-1.042459381450e-03 3.192310209747e-05 0.0 
3.192310209747e-05 5.237687487302e-03 0.0 
0.0 0.0 -8.166178341775e-04 
-7.748148319910e-04 5.841265057534e-04 0.0 
5.841265057534e-04 5.931280080680e-03 0.0 
0.0 0.0 -1.008721701990e-03 
-1.070450976463e-03 4.786712554869e-05 0.0 
4.786712554869e-05 6.281594191104e-03 0.0 
0.0 0.0 -9.438854677472e-04 
-1.019990029507e-03 4.017679917675e-04 0.0 
4.017679917675e-04 5.968797618871e-03 0.0 
0.0 0.0 -9.108073647307e-04 
-7.821076712380e-04 7.813500369489e-04 0.0 
7.813500369489e-04 5.311710917371e-03 0.0 
0.0 0.0 -8.936906232635e-04 
-7.622603984916e-04 6.791341036293e-05 0.0 
6.791341036293e-05 3.813852506224e-03 0.0 
0.0 0.0 -5.884905393267e-04 
-7.846644250761e-04 7.808219167046e-05 0.0 
7.808219167046e-05 4.065403212213e-03 0.0 
0.0 0.0 -6.218825813656e-04 
-1.233191643352e-03 -4.261165376934e-04 0.0 
-4.261165376934e-04 7.382821542764e-03 0.0 
0.0 0.0 -1.133400347077e-03 
-7.515727621129e-04 -6.277168771854e-04 0.0 
-6.277168771854e-04 5.560136738189e-03 0.0 
0.0 0.0 -9.394087121358e-04 
-4.848945124793e-04 -6.056685510147e-04 0.0 
-6.056685510147e-04 4.517787566476e-03 0.0 
0.0 0.0 -8.164864906097e-04 
-7.633590365807e-04 1.747203192895e-05 0.0 
1.747203192895e-05 5.952051370355e-03 0.0 
0.0 0.0 -1.014986374720e-03 
-3.745762426959e-04 -1.208773656876e-05 0.0 
-1.208773656876e-05 4.169816033916e-03 0.0 
0.0 0.0 -7.915105747055e-04 
1.470981817100e-04 1.699633256222e-04 0.0 
1.699633256222e-04 1.922517798804e-03 0.0 
0.0 0.0 -5.119962057136e-04 
-7.251559287553e-04 3.584185138835e-04 0.0 
3.584185138835e-04 3.747261506519e-03 0.0 
0.0 0.0 -5.908395828668e-04 
-9.989176313813e-04 5.279041160422e-05 0.0 
5.279041160422e-05 5.610761613461e-03 0.0 
0.0 0.0 -8.442294783838e-04 
-8.140722277822e-04 1.153536144127e-05 0.0 
1.153536144127e-05 4.902728731460e-03 0.0 
0.0 0.0 -7.121995050294e-04 
-8.606102061483e-04 -1.123280902614e-04 0.0 
-1.123280902614e-04 6.585165240131e-03 0.0 
0.0 0.0 -1.093598669875e-03 
-3.829181500835e-04 3.755711815579e-04 0.0 
3.755711815579e-04 4.064228922124e-03 0.0 
0.0 0.0 -7.486350631497e-04 
-1.089919498544e-03 4.032533245885e-04 0.0 
4.032533245885e-04 7.584210826506e-03 0.0 
0.0 0.0 -1.233571955743e-03 
-1.258849103109e-03 1.203645015164e-04 0.0 
1.203645015164e-04 7.318640773608e-03 0.0 
0.0 0.0 -1.121177773779e-03 
-4.277541990728e-04 -3.591296022275e-04 0.0 
-3.591296022275e-04 4.511429067315e-03 0.0 
0.0 0.0 -8.252461108756e-04 
-1.288851597356e-03 -4.658297080141e-04 0.0 
-4.658297080141e-04 8.043612715449e-03 0.0 
0.0 0.0 -1.241472629463e-03 
3.242839641494e-05 -4.968694073408e-04 0.0 
-4.968694073408e-04 2.366486634827e-03 0.0 
0.0 0.0 -5.682622744621e-04 
-1.077966235092e-03 4.739436140623e-04 0.0 
4.739436140623e-04 7.389804662751e-03 0.0 
0.0 0.0 -1.204482468497e-03 
-7.429375265798e-04 4.078626067565e-04 0.0 
4.078626067565e-04 5.376339153074e-03 0.0 
0.0 0.0 -8.910665706739e-04 
-8.382327257171e-04 6.914183336446e-04 0.0 
6.914183336446e-04 5.885419181804e-03 0.0 
0.0 0.0 -9.848034212814e-04 
-9.867962554531e-04 -3.515709155634e-04 0.0 
-3.515709155634e-04 7.009894236266e-03 0.0 
0.0 0.0 -1.146785027167e-03 
-6.480751664788e-04 -1.064130565160e-03 0.0 
-1.064130565160e-03 3.485571623010e-03 0.0 
0.0 0.0 -5.958228065582e-04 
-9.264979844569e-04 7.226480241173e-04 0.0 
7.226480241173e-04 5.798649245259e-03 0.0 
0.0 0.0 -9.369464185080e-04 
-3.976862535672e-04 -5.140984221878e-04 0.0 
-5.140984221878e-04 4.248707874465e-03 0.0 
0.0 0.0 -7.886172400246e-04 
-9.126908566727e-04 3.597233129020e-04 0.0 
3.597233129020e-04 5.721921232905e-03 0.0 
0.0 0.0 -9.065670216064e-04 
-2.413614743731e-04 9.207248143764e-04 0.0 
9.207248143764e-04 2.576101931259e-03 0.0 
0.0 0.0 -5.268093404353e-04 
-8.396821970539e-04 6.672060837292e-04 0.0 
6.672060837292e-04 6.048287273264e-03 0.0 
0.0 0.0 -1.013229387512e-03 
-3.452329379355e-04 -1.792312499866e-04 0.0 
-1.792312499866e-04 3.927967745038e-03 0.0 
0.0 0.0 -7.548706880268e-04 
-9.599399109740e-04 -2.677314431030e-04 0.0 
-2.677314431030e-04 5.510906117541e-03 0.0 
0.0 0.0 -8.810281692460e-04 
-9.326422123301e-04 7.027170698306e-04 0.0 
7.027170698306e-04 5.663041666324e-03 0.0 
0.0 0.0 -9.091416541300e-04 
1.310354464969e-04 5.651438564875e-04 0.0 
5.651438564875e-04 1.741573510573e-04 0.0 
0.0 0.0 -1.307969132375e-04 
-6.049604556671e-04 5.771719455814e-04 0.0 
5.771719455814e-04 5.135535656328e-03 0.0 
0.0 0.0 -9.082496170556e-04 
-8.264119998562e-05 1.037717303205e-03 0.0 
1.037717303205e-03 8.249845298322e-04 0.0 
0.0 0.0 -3.181471413628e-04 
-3.486990110529e-04 1.618131580726e-05 0.0 
1.618131580726e-05 1.379681923450e-03 0.0 
0.0 0.0 -2.410360834028e-04 
-9.637368636999e-04 -2.534336696837e-04 0.0 
-2.534336696837e-04 5.310722216845e-03 0.0 
0.0 0.0 -8.438072171805e-04 
-1.086820871417e-03 2.926579608564e-04 0.0 
2.926579608564e-04 7.015412211803e-03 0.0 
0.0 0.0 -1.098354823938e-03 
-1.049951667635e-03 4.416530287396e-04 0.0 
4.416530287396e-04 6.131491265693e-03 0.0 
0.0 0.0 -9.387552692590e-04 
-7.056421761476e-04 1.432307568262e-04 0.0 
1.432307568262e-04 3.346065552913e-03 0.0 
0.0 0.0 -5.215302833573e-04 
-1.342322198460e-03 3.183613232645e-04 0.0 
3.183613232645e-04 8.773669276182e-03 0.0 
0.0 0.0 -1.342322198460e-03 
3.836307119602e-05 1.777435835148e-04 0.0 
1.777435835148e-04 5.796280456300e-05 0.0 
0.0 0.0 -4.128251818244e-05 
-7.274210317143e-04 1.629360554580e-04 0.0 
1.629360554580e-04 3.588533030425e-03 0.0 
0.0 0.0 -5.549805679787e-04 
-5.340066039334e-04 -2.072389055199e-04 0.0 
-2.072389055199e-04 4.712236291548e-03 0.0 
0.0 0.0 -8.472740691906e-04 
-9.827474692013e-04 -5.565690633406e-04 0.0 
-5.565690633406e-04 5.178751046310e-03 0.0 
0.0 0.0 -8.042584860449e-04 
-8.272148132873e-04 2.043748305373e-04 0.0 
2.043748305373e-04 4.358943672927e-03 0.0 
0.0 0.0 -6.733236465360e-04 
-1.391682779442e-04 -5.660980208305e-04 0.0 
-5.660980208305e-04 2.708178146588e-03 0.0 
0.0 0.0 -5.908717820549e-04 
-6.655440375533e-04 -6.952663529849e-04 0.0 
-6.952663529849e-04 5.066823485387e-03 0.0 
0.0 0.0 -8.733819075714e-04 
-8.196031050189e-04 3.838546333042e-04 0.0 
3.838546333042e-04 5.685766128825e-03 0.0 
0.0 0.0 -9.266779469803e-04 
-6.990167424859e-04 5.271708541357e-04 0.0 
5.271708541357e-04 5.638282256463e-03 0.0 
0.0 0.0 -9.734188451722e-04 
-1.186630910785e-03 6.460835059358e-04 0.0 
6.460835059358e-04 7.362442267771e-03 0.0 
0.0 0.0 -1.144302277022e-03 
2.969246869216e-04 1.115918954902e-03 0.0 
1.115918954902e-03 3.039667145196e-04 0.0 
0.0 0.0 -2.575248863319e-04 
-9.117889324076e-04 -2.951149434616e-04 0.0 
-2.951149434616e-04 4.877432515646e-03 0.0 
0.0 0.0 -7.784793977761e-04 
-1.012208946591e-03 -1.496092469439e-04 0.0 
-1.496092469439e-04 5.343186025449e-03 0.0 
0.0 0.0 -8.356154970834e-04 
-6.331046465697e-04 -9.049418944168e-04 0.0 
-9.049418944168e-04 2.758073297942e-03 0.0 
0.0 0.0 -4.544023106810e-04 
-8.924169308789e-04 4.058945008041e-04 0.0 
4.058945008041e-04 4.880366770900e-03 0.0 
0.0 0.0 -7.518103749233e-04 
-1.063894881261e-03 9.071629636427e-05 0.0 
9.071629636427e-05 6.191505659791e-03 0.0 
0.0 0.0 -9.362314798257e-04 
-1.205869425098e-03 -2.261798490425e-04 0.0 
-2.261798490425e-04 6.678201842620e-03 0.0 
0.0 0.0 -1.023451880212e-03 
-7.015472354662e-05 -2.565736168466e-05 0.0 
-2.565736168466e-05 9.612203433626e-04 0.0 
0.0 0.0 -1.605242656235e-04 
0.0 0.0 0.0 
0.0 0.0 0.0 
0.0 0.0 0.0 
-5.147384921578e-04 -7.536249502610e-04 0.0 
-7.536249502610e-04 1.966691460963e-03 0.0 
0.0 0.0 -3.233707900025e-04 
-1.027484224102e-03 -4.836123400480e-04 0.0 
-4.836123400480e-04 5.407088060702e-03 0.0 
0.0 0.0 -8.330087554115e-04 
-8.882847245791e-05 -4.537970764089e-04 0.0 
-4.537970764089e-04 2.924964268328e-03 0.0 
0.0 0.0 -6.322020076307e-04 
-9.059460685547e-05 -9.981933794838e-04 0.0 
-9.981933794838e-04 2.441338825064e-03 0.0 
0.0 0.0 -5.605319560360e-04 
1.602068840710e-04 -5.380164516261e-04 0.0 
-5.380164516261e-04 1.784200169895e-03 0.0 
0.0 0.0 -5.041580933422e-04 
-1.016808142495e-03 -1.850132427343e-04 0.0 
-1.850132427343e-04 5.546831112907e-03 0.0 
0.0 0.0 -8.721335634590e-04 
-1.089492890547e-03 5.256596706488e-04 0.0 
5.256596706488e-04 6.464473810732e-03 0.0 
0.0 0.0 -9.956198530692e-04 
-1.055480845035e-03 -8.073487003007e-05 0.0 
-8.073487003007e-05 5.564073531230e-03 0.0 
0.0 0.0 -8.643287579461e-04 
-7.969352206199e-05 1.392070136612e-04 0.0 
1.392070136612e-04 2.839214225501e-03 0.0 
0.0 0.0 -6.348607296063e-04 
-9.652452647080e-04 3.246353242037e-04 0.0 
3.246353242037e-04 6.148089658116e-03 0.0 
0.0 0.0 -9.699423737970e-04 
-9.336187348190e-04 2.571357999357e-04 0.0 
2.571357999357e-04 5.466318221896e-03 0.0 
0.0 0.0 -8.236220363599e-04 
-8.699149514131e-04 5.427467141130e-04 0.0 
5.427467141130e-04 6.422709640429e-03 0.0 
0.0 0.0 -1.076197569190e-03 
-1.067019444508e-03 -4.166446150284e-04 0.0 
-4.166446150284e-04 5.628158977285e-03 0.0 
0.0 0.0 -8.617642947636e-04 
-1.037211549759e-03 -5.241557810677e-04 0.0 
-5.241557810677e-04 5.613837274242e-03 0.0 
0.0 0.0 -8.694825820363e-04 
-6.540642588821e-04 2.339053685670e-04 0.0 
2.339053685670e-04 2.854376740045e-03 0.0 
0.0 0.0 -4.548485160793e-04 
-1.830897456311e-04 -6.409178638984e-04 0.0 
-6.409178638984e-04 3.204685697947e-03 0.0 
0.0 0.0 -6.598952468721e-04 
-1.092100602406e-03 -1.853786207342e-05 0.0 
-1.853786207342e-05 5.772593500168e-03 0.0 
0.0 0.0 -8.930692851043e-04 
-1.055598751707e-03 1.761127934755e-04 0.0 
1.761127934755e-04 6.440216787672e-03 0.0 
0.0 0.0 -9.615701295831e-04 
-1.001453888758e-03 1.848581000640e-04 0.0 
1.848581000640e-04 6.057549413992e-03 0.0 
0.0 0.0 -8.972249362023e-04 
-6.770179440789e-04 2.249366581215e-04 0.0 
2.249366581215e-04 3.121369932688e-03 0.0 
0.0 0.0 -4.879487645214e-04 
-1.064022376908e-03 -1.167841295241e-04 0.0 
-1.167841295241e-04 5.775583557860e-03 0.0 
0.0 0.0 -9.007118478549e-04 
-2.859853618183e-04 -1.273336407491e-03 0.0 
-1.273336407491e-03 2.641008784054e-03 0.0 
0.0 0.0 -5.517684601482e-04 
-1.131468898778e-04 1.392096794452e-03 0.0 
1.392096794452e-03 1.091258670637e-03 0.0 
0.0 0.0 -4.029896332773e-04 
-1.047918758114e-03 7.340593604258e-05 0.0 
7.340593604258e-05 7.456724692606e-03 0.0 
0.0 0.0 -1.202908440308e-03 
-5.627131210403e-04 -6.726340984242e-04 0.0 
-6.726340984242e-04 1.683903901649e-03 0.0 
0.0 0.0 -3.052185142707e-04 
-3.169146226738e-04 -8.080615281722e-04 0.0 
-8.080615281722e-04 2.922160059008e-03 0.0 
0.0 0.0 -5.822209219963e-04 
-5.594905133051e-04 2.180548040984e-04 0.0 
2.180548040984e-04 5.015163126878e-03 0.0 
0.0 0.0 -8.766521650092e-04 
-6.622241155769e-04 4.063560181711e-04 0.0 
4.063560181711e-04 3.270370974807e-03 0.0 
0.0 0.0 -5.239962781855e-04 
-1.100749507766e-03 -3.563808608849e-04 0.0 
-3.563808608849e-04 5.849825024464e-03 0.0 
0.0 0.0 -8.905656347129e-04 
-5.985345031535e-04 -2.223177207573e-04 0.0 
-2.223177207573e-04 2.732572505037e-03 0.0 
0.0 0.0 -4.282508963332e-04 
-9.076266712888e-04 3.184539997902e-05 0.0 
3.184539997902e-05 5.036430824459e-03 0.0 
0.0 0.0 -7.823486082854e-04 
-1.081370140730e-03 -4.558826803401e-04 0.0 
-4.558826803401e-04 5.841011814907e-03 0.0 
0.0 0.0 -8.981647654366e-04 
-4.858836919803e-04 -7.457674947231e-04 0.0 
-7.457674947231e-04 4.297440458521e-03 0.0 
0.0 0.0 -7.800125773855e-04 
-9.348538294518e-04 -6.697112536075e-04 0.0 
-6.697112536075e-04 5.140798604724e-03 0.0 
0.0 0.0 -8.126672281948e-04 
8.703935028516e-05 1.690415104804e-04 0.0 
1.690415104804e-04 1.245018223099e-05 0.0 
0.0 0.0 -4.263837107835e-05 
-1.241448931941e-03 -1.835319642593e-04 0.0 
-1.835319642593e-04 7.812891284508e-03 0.0 
0.0 0.0 -1.152567315725e-03 
-3.081364130084e-04 -9.550871966768e-04 0.0 
-9.550871966768e-04 3.298658843063e-03 0.0 
0.0 0.0 -6.514572604261e-04 
-9.718772757445e-04 1.979502564842e-04 0.0 
1.979502564842e-04 7.009305473662e-03 0.0 
0.0 0.0 -1.154039482800e-03 
-8.056057162638e-04 2.987492427290e-04 0.0 
2.987492427290e-04 5.959106481257e-03 0.0 
0.0 0.0 -9.821191134873e-04 
-1.105426206004e-03 -5.038601752530e-05 0.0 
-5.038601752530e-05 5.994681172748e-03 0.0 
0.0 0.0 -9.293965016571e-04 
-1.119004413752e-03 -3.820015781438e-04 0.0 
-3.820015781438e-04 6.058753668650e-03 0.0 
0.0 0.0 -9.268654845074e-04 
-3.123142997184e-05 -1.167065523526e-04 0.0 
-1.167065523526e-04 2.573595127563e-03 0.0 
0.0 0.0 -5.989583036242e-04 
-3.157644098559e-04 -6.245110788433e-04 0.0 
-6.245110788433e-04 1.110181514534e-03 0.0 
0.0 0.0 -2.862240160649e-04 
8.762727446402e-05 1.506685699699e-04 0.0 
1.506685699699e-04 5.297682451361e-06 0.0 
0.0 0.0 -3.982498153516e-05 
-1.139236581336e-03 9.449893671701e-06 0.0 
9.449893671701e-06 6.206332100994e-03 0.0 
0.0 0.0 -9.583065114985e-04 
-9.895576341864e-04 5.422021304530e-05 0.0 
5.422021304530e-05 6.999392542925e-03 0.0 
0.0 0.0 -1.148056181429e-03 
-4.775145294270e-04 -1.288589848279e-03 0.0 
-1.288589848279e-03 2.885723426917e-03 0.0 
0.0 0.0 -5.426247857783e-04 
-9.796725008080e-04 7.000708170444e-04 0.0 
7.000708170444e-04 6.228639819323e-03 0.0 
0.0 0.0 -1.000702849114e-03 
-6.472337897981e-04 7.799664963271e-04 0.0 
7.799664963271e-04 2.970737159620e-03 0.0 
0.0 0.0 -5.002094317253e-04 
-1.024167741003e-03 2.983156923563e-04 0.0 
2.983156923563e-04 6.439902929080e-03 0.0 
0.0 0.0 -1.005614027492e-03 
-1.230125729383e-03 -1.791987086205e-04 0.0 
-1.791987086205e-04 8.178224384408e-03 0.0 
0.0 0.0 -1.266534580134e-03 
0.0 0.0 0.0 
0.0 0.0 0.0 
0.0 0.0 0.0 
-1.341620833825e-03 -1.240232465015e-06 0.0 
-1.240232465015e-06 8.838044206910e-03 0.0 
0.0 0.0 -1.341620833825e-03 
-1.340051318819e-03 -7.855236063614e-05 0.0 
-7.855236063614e-05 8.625114056382e-03 0.0 
0.0 0.0 -1.340051318819e-03 
-8.980163173550e-04 -1.960905146637e-04 0.0 
-1.960905146637e-04 5.236321733421e-03 0.0 
0.0 0.0 -7.955197795907e-04 
-4.661383092836e-04 -1.098309243055e-03 0.0 
-1.098309243055e-03 3.461471777819e-03 0.0 
0.0 0.0 -6.428246066218e-04 
-8.082931774475e-04 3.508972968720e-04 0.0 
3.508972968720e-04 5.820381814417e-03 0.0 
0.0 0.0 -9.543595451431e-04 
-1.549769366622e-05 -2.109424872969e-04 0.0 
-2.109424872969e-04 2.675607327827e-03 0.0 
0.0 0.0 -6.041149214933e-04 
-2.283359273976e-04 -2.821495717667e-04 0.0 
-2.821495717667e-04 1.216165341166e-03 0.0 
0.0 0.0 -2.095884814006e-04 
5.244130076388e-06 5.299579131201e-04 0.0 
5.299579131201e-04 3.292147719476e-04 0.0 
0.0 0.0 -1.433395294388e-04 
-1.275023357737e-03 -5.993191991654e-05 0.0 
-5.993191991654e-05 8.163058981243e-03 0.0 
0.0 0.0 -1.209499414335e-03 
-1.082712059579e-03 1.205245821570e-04 0.0 
1.205245821570e-04 6.373245931173e-03 0.0 
0.0 0.0 -9.648175333861e-04 
-9.046820331639e-04 -1.080196974861e-06 0.0 
-1.080196974861e-06 4.867817697865e-03 0.0 
0.0 0.0 -7.224789237173e-04 
-1.279272833011e-03 4.773478504551e-04 0.0 
4.773478504551e-04 8.632757308161e-03 0.0 
0.0 0.0 -1.323661129950e-03 
-4.995343539176e-04 -2.062360200378e-04 0.0 
-2.062360200378e-04 2.288215934898e-03 0.0 
0.0 0.0 -3.615704333793e-04 
-1.305160647697e-03 4.322097678811e-04 0.0 
4.322097678811e-04 8.590809380930e-03 0.0 
0.0 0.0 -1.324908485340e-03 
-1.072336849723e-03 4.894356542548e-04 0.0 
4.894356542548e-04 6.310526310337e-03 0.0 
0.0 0.0 -9.670422101491e-04 
-6.106684104583e-04 -1.077307355153e-03 0.0 
-1.077307355153e-03 3.630162810958e-03 0.0 
0.0 0.0 -6.336394413500e-04 
-7.688592567693e-04 7.436159055388e-04 0.0 
7.436159055388e-04 5.436722305107e-03 0.0 
0.0 0.0 -9.212972352143e-04 
-4.366727405360e-04 -7.825680509829e-04 0.0 
-7.825680509829e-04 3.244703639757e-03 0.0 
0.0 0.0 -6.094834619596e-04 
-3.265911223950e-04 1.405912834574e-03 0.0 
1.405912834574e-03 1.452640584362e-03 0.0 
0.0 0.0 -3.649795199019e-04 
-4.990879049153e-04 -8.274194353689e-04 0.0 
-8.274194353689e-04 3.123468955199e-03 0.0 
0.0 0.0 -5.728018649490e-04 
-1.102176339442e-03 5.667634332671e-04 0.0 
5.667634332671e-04 6.620528006741e-03 0.0 
0.0 0.0 -1.023749757194e-03 
-1.274902778913e-03 -3.210380531188e-04 0.0 
-3.210380531188e-04 7.572738005346e-03 0.0 
0.0 0.0 -1.155390781228e-03 
-2.640863970045e-04 -6.506791704026e-04 0.0 
-6.506791704026e-04 3.044637194059e-03 0.0 
0.0 0.0 -6.181853003094e-04 
-1.037039327620e-03 6.760843031957e-04 0.0 
6.760843031957e-04 6.523249431128e-03 0.0 
0.0 0.0 -1.036271578259e-03 
0.0 0.0 0.0 
0.0 0.0 0.0 
0.0 0.0 0.0 
-1.285700230911e-04 -3.245101064007e-04 0.0 
-3.245101064007e-04 2.885767451406e-03 0.0 
0.0 0.0 -6.266282162577e-04 
-1.167206438241e-03 1.283137067331e-04 0.0 
1.283137067331e-04 7.080432372571e-03 0.0 
0.0 0.0 -1.066385360782e-03 
-6.379492421497e-04 -6.916022810517e-04 0.0 
-6.916022810517e-04 3.261870100237e-03 0.0 
0.0 0.0 -5.616069800515e-04 
-5.397721604140e-04 -1.270380268010e-03 0.0 
-1.270380268010e-03 2.784654802048e-03 0.0 
0.0 0.0 -5.052880831394e-04 
-7.290893412698e-04 3.613081104682e-04 0.0 
3.613081104682e-04 5.503308908361e-03 0.0 
0.0 0.0 -9.187611816440e-04 
1.265644672670e-04 -1.340381834312e-03 0.0 
-1.340381834312e-03 6.478378418571e-04 0.0 
0.0 0.0 -3.318867039103e-04 
-6.343393029067e-04 4.127806247347e-04 0.0 
4.127806247347e-04 2.352701282119e-03 0.0 
0.0 0.0 -3.867203691650e-04 
-5.980790938116e-04 3.108972139281e-04 0.0 
3.108972139281e-04 2.666414110552e-03 0.0 
0.0 0.0 -4.195921675762e-04 
-6.113097074720e-04 -7.505403763561e-04 0.0 
-7.505403763561e-04 2.857444945758e-03 0.0 
0.0 0.0 -4.973376392308e-04 
-5.765164058635e-04 -6.636526940974e-04 0.0 
-6.636526940974e-04 4.795423287764e-03 0.0 
0.0 0.0 -8.444178005646e-04 
-5.181015510014e-04 7.402765764373e-04 0.0 
7.402765764373e-04 4.473477357902e-03 0.0 
0.0 0.0 -8.147327860212e-04 
-1.021689517365e-03 3.040232263138e-04 0.0 
3.040232263138e-04 6.577677469830e-03 0.0 
0.0 0.0 -1.033897369924e-03 
-1.251489828841e-03 5.632464710330e-04 0.0 
5.632464710330e-04 7.903464121438e-03 0.0 
0.0 0.0 -1.224260864640e-03 
-6.076375545199e-04 4.683737268985e-04 0.0 
4.683737268985e-04 2.798103792701e-03 0.0 
0.0 0.0 -4.570814260163e-04 
-1.106194698900e-03 -2.340999049272e-04 0.0 
-2.340999049272e-04 6.875726326228e-03 0.0 
0.0 0.0 -1.028620860735e-03 
-1.222609548103e-03 6.000551956434e-04 0.0 
6.000551956434e-04 7.771092725331e-03 0.0 
0.0 0.0 -1.228414553209e-03 
4.319177178305e-05 1.565747196534e-04 0.0 
1.565747196534e-04 2.280131923741e-03 0.0 
0.0 0.0 -5.707601703556e-04 
-5.280303941059e-05 1.110289152965e-03 0.0 
1.110289152965e-03 8.099165551708e-04 0.0 
0.0 0.0 -3.244772210401e-04 
-6.896815476543e-04 4.595022377507e-04 0.0 
4.595022377507e-04 3.325524470954e-03 0.0 
0.0 0.0 -5.330167430730e-04 
-5.818026759286e-04 -7.746098819789e-04 0.0 
-7.746098819789e-04 4.581482398683e-03 0.0 
0.0 0.0 -8.082977034869e-04 
-1.084938189841e-03 6.476212573913e-04 0.0 
6.476212573913e-04 6.662130643566e-03 0.0 
0.0 0.0 -1.043024347135e-03 
-5.304647567233e-04 -3.288241115645e-04 0.0 
-3.288241115645e-04 4.511932891327e-03 0.0 
0.0 0.0 -8.108276944599e-04 
3.467916788336e-04 9.922084021829e-04 0.0 
9.922084021829e-04 1.937891863132e-04 0.0 
0.0 0.0 -2.316775136343e-04 
-6.676153210682e-04 -5.990024928293e-04 0.0 
-5.990024928293e-04 5.284713461811e-03 0.0 
0.0 0.0 -9.096068616062e-04 
-5.138764303910e-04 1.344859878066e-03 0.0 
1.344859878066e-03 1.832201827426e-03 0.0 
0.0 0.0 -3.508512830963e-04 
-4.693960867252e-04 2.899164946168e-04 0.0 
2.899164946168e-04 4.538651858574e-03 0.0 
0.0 0.0 -8.123573650817e-04 
-6.214317139948e-04 -2.381023826960e-04 0.0 
-2.381023826960e-04 5.000123203670e-03 0.0 
0.0 0.0 -8.756097305517e-04 
-7.629475729046e-04 6.967977887081e-04 0.0 
6.967977887081e-04 5.582110193462e-03 0.0 
0.0 0.0 -9.491391837787e-04 
-1.021932421091e-03 -1.375086625343e-04 0.0 
-1.375086625343e-04 6.258245616270e-03 0.0 
0.0 0.0 -9.494079867578e-04 
-6.355506189440e-04 -1.022411834394e-03 0.0 
-1.022411834394e-03 2.931807144820e-03 0.0 
0.0 0.0 -4.933620968966e-04 
6.896550266056e-05 1.225367383845e-03 0.0 
1.225367383845e-03 6.646895526308e-04 0.0 
0.0 0.0 -3.144235951249e-04 
-7.142483767440e-04 -1.644248298722e-04 0.0 
-1.644248298722e-04 5.495494976155e-03 0.0 
0.0 0.0 -9.415329344942e-04 
-5.361770105980e-04 1.152355576541e-03 0.0 
1.152355576541e-03 2.110820043480e-03 0.0 
0.0 0.0 -3.857152600925e-04 
0.0 0.0 0.0 
0.0 0.0 0.0 
0.0 0.0 0.0 
-1.255338616422e-03 1.860461172355e-04 0.0 
1.860461172355e-04 8.124850663151e-03 0.0 
0.0 0.0 -1.223389224544e-03 
-1.207848204117e-03 2.029693107177e-04 0.0 
2.029693107177e-04 7.752368092309e-03 0.0 
0.0 0.0 -1.157435638217e-03 
-8.808053059829e-05 -1.336699866714e-04 0.0 
-1.336699866714e-04 3.185750404010e-04 0.0 
0.0 0.0 -9.878336134402e-05 
-7.608266853487e-04 -5.406000089435e-04 0.0 
-5.406000089435e-04 5.776368912984e-03 0.0 
0.0 0.0 -9.758309632658e-04 
-5.833464932258e-04 -8.365325477788e-04 0.0 
-8.365325477788e-04 2.366888082298e-03 0.0 
0.0 0.0 -3.887237773309e-04 
-6.380037561636e-04 -4.574933655184e-04 0.0 
-4.574933655184e-04 2.507620922393e-03 0.0 
0.0 0.0 -4.195855280820e-04 
-1.094549564148e-03 6.711957006790e-04 0.0 
6.711957006790e-04 6.969957179569e-03 0.0 
0.0 0.0 -1.100737838324e-03 
-7.238835271569e-04 2.949238833770e-04 0.0 
2.949238833770e-04 5.642634368299e-03 0.0 
0.0 0.0 -9.467522836136e-04 
-1.039311302789e-03 6.802059572137e-04 0.0 
6.802059572137e-04 6.671189751840e-03 0.0 
0.0 0.0 -1.064854740548e-03 
-1.894001647684e-04 -8.697409082608e-04 0.0 
-8.697409082608e-04 2.974808611893e-03 0.0 
0.0 0.0 -6.238888496032e-04 
-8.115909482746e-04 3.390698231069e-05 0.0 
3.390698231069e-05 4.912143948728e-03 0.0 
0.0 0.0 -7.105917616147e-04 
-1.280305692054e-03 -3.247592506175e-04 0.0 
-3.247592506175e-04 7.975043847607e-03 0.0 
0.0 0.0 -1.281538364137e-03 
-5.868717402319e-04 -4.057488537009e-04 0.0 
-4.057488537009e-04 2.082970857728e-03 0.0 
0.0 0.0 -3.541816848729e-04 
-9.117200011925e-04 -1.598675323878e-04 0.0 
-1.598675323878e-04 6.764763677517e-03 0.0 
0.0 0.0 -1.121221582973e-03 
-5.590520355925e-04 3.309762878068e-04 0.0 
3.309762878068e-04 4.865889443216e-03 0.0 
0.0 0.0 -8.477100451819e-04 
-3.408380194667e-04 8.413428919704e-05 0.0 
8.413428919704e-05 1.600517951916e-03 0.0 
0.0 0.0 -2.892354545592e-04 
-1.075499676593e-03 6.132508001275e-04 0.0 
6.132508001275e-04 6.500844839128e-03 0.0 
0.0 0.0 -1.015166614560e-03 
-1.491725305372e-04 -7.955548992598e-05 0.0 
-7.955548992598e-05 3.115280814632e-03 0.0 
0.0 0.0 -6.628028861993e-04 
-1.315718485168e-04 -5.908276789213e-04 0.0 
-5.908276789213e-04 6.660589264853e-04 0.0 
0.0 0.0 -2.290658905579e-04 
-1.579860261374e-05 -4.063804822263e-04 0.0 
-4.063804822263e-04 2.360331977056e-03 0.0 
0.0 0.0 -5.632129589051e-04 
-1.187081976134e-03 1.736903763000e-04 0.0 
1.736903763000e-04 6.532498131095e-03 0.0 
0.0 0.0 -9.915417172310e-04 
-1.109173126604e-03 2.020871397918e-04 0.0 
2.020871397918e-04 6.702082758585e-03 0.0 
0.0 0.0 -1.020980360542e-03 
-4.812617878824e-04 -1.026396368797e-03 0.0 
-1.026396368797e-03 1.558368541222e-03 0.0 
0.0 0.0 -2.729600395538e-04 
-1.020281891755e-03 -1.851201749546e-04 0.0 
-1.851201749546e-04 5.386783464776e-03 0.0 
0.0 0.0 -8.076288038732e-04 
-1.089791995769e-03 6.678096790371e-04 0.0 
6.678096790371e-04 6.824575659747e-03 0.0 
0.0 0.0 -1.071782534217e-03 
-9.193547229402e-04 1.602334611530e-04 0.0 
1.602334611530e-04 6.776867929495e-03 0.0 
0.0 0.0 -1.109893377180e-03 
-5.608358153244e-04 -8.240965468318e-04 0.0 
-8.240965468318e-04 2.993251789866e-03 0.0 
0.0 0.0 -5.351738145117e-04 
-6.136579298705e-04 1.191680586993e-04 0.0 
1.191680586993e-04 2.664357051373e-03 0.0 
0.0 0.0 -4.333934152438e-04 
-5.989414354875e-04 6.742429676008e-04 0.0 
6.742429676008e-04 4.956197001293e-03 0.0 
0.0 0.0 -8.786267582723e-04 
-1.011039081455e-03 -2.136688597495e-04 0.0 
-2.136688597495e-04 6.164847278727e-03 0.0 
0.0 0.0 -9.278975173457e-04 
-2.430528072630e-05 -7.015609586409e-04 0.0 
-7.015609586409e-04 4.939718425864e-04 0.0 
0.0 0.0 -2.012856693686e-04 
-1.258632814515e-03 5.164131841311e-04 0.0 
5.164131841311e-04 8.325970250847e-03 0.0 
0.0 0.0 -1.269179263065e-03 
-1.319279019144e-03 4.296204971761e-04 0.0 
4.296204971761e-04 8.281943168671e-03 0.0 
0.0 0.0 -1.281197857596e-03 
-9.262453737932e-04 -1.856372937015e-04 0.0 
-1.856372937015e-04 5.467657039050e-03 0.0 
0.0 0.0 -8.387747867703e-04 
-1.294839307706e-03 7.871963389557e-06 0.0 
7.871963389557e-06 8.477109428305e-03 0.0 
0.0 0.0 -1.255037608383e-03 
-1.299621148244e-03 5.434080431767e-04 0.0 
5.434080431767e-04 8.249757004039e-03 0.0 
0.0 0.0 -1.285499913836e-03 
-2.377664936208e-04 -4.540001535470e-04 0.0 
-4.540001535470e-04 3.213325829595e-03 0.0 
0.0 0.0 -6.542748834104e-04 
-3.508305791302e-04 -1.119634461832e-03 0.0 
-1.119634461832e-03 3.128022697751e-03 0.0 
0.0 0.0 -6.153450468602e-04 
-1.170236808513e-03 2.917458807146e-05 0.0 
2.917458807146e-05 8.079333353292e-03 0.0 
0.0 0.0 -1.265535665854e-03 
0.0 0.0 0.0 
0.0 0.0 0.0 
0.0 0.0 0.0 
-5.539334103609e-04 1.733294296074e-04 0.0 
1.733294296074e-04 2.467698966066e-03 0.0 
0.0 0.0 -3.941707820484e-04 
-1.082833857300e-03 1.553689403231e-04 0.0 
1.553689403231e-04 5.370486721227e-03 0.0 
0.0 0.0 -8.329475646481e-04 
-6.135075657535e-04 -1.124689673499e-03 0.0 
-1.124689673499e-03 3.074168344220e-03 0.0 
0.0 0.0 -5.313546330462e-04 
-1.846585695015e-04 -7.875180783751e-04 0.0 
-7.875180783751e-04 2.568069228426e-03 0.0 
0.0 0.0 -5.546931404481e-04 
-5.968432958156e-04 5.557088425757e-04 0.0 
5.557088425757e-04 1.865682370622e-03 0.0 
0.0 0.0 -3.196518454468e-04 
-5.899426228830e-04 4.711635003752e-04 0.0 
4.711635003752e-04 2.207717411959e-03 0.0 
0.0 0.0 -3.528063275151e-04 
-9.460265979009e-04 -8.557345978762e-05 0.0 
-8.557345978762e-05 5.600872725538e-03 0.0 
0.0 0.0 -8.290026594306e-04 
-7.188891017228e-05 -7.212145557604e-04 0.0 
-7.212145557604e-04 2.661537409605e-03 0.0 
0.0 0.0 -5.962921515785e-04 
-6.690915239770e-04 -9.469087844433e-06 0.0 
-9.469087844433e-06 2.860475934858e-03 0.0 
0.0 0.0 -4.583473518421e-04 
-9.261983765854e-04 6.205491161324e-04 0.0 
6.205491161324e-04 6.527766796007e-03 0.0 
0.0 0.0 -1.077832113627e-03 
-1.322048612324e-03 -3.324926188937e-04 0.0 
-3.324926188937e-04 8.713395146875e-03 0.0 
0.0 0.0 -1.324978758543e-03 
-1.338720177887e-03 -4.085669882089e-04 0.0 
-4.085669882089e-04 8.670321911685e-03 0.0 
0.0 0.0 -1.320624918399e-03 
-3.849795069765e-04 -6.739500110508e-04 0.0 
-6.739500110508e-04 3.380834248484e-03 0.0 
0.0 0.0 -6.457427040837e-04 
-9.004898588244e-04 1.911488629734e-04 0.0 
1.911488629734e-04 5.018763151201e-03 0.0 
0.0 0.0 -7.877541558771e-04 
0.0 0.0 0.0 
0.0 0.0 0.0 
0.0 0.0 0.0 
-4.359472798887e-04 6.731301800727e-04 0.0 
6.731301800727e-04 1.407239997486e-03 0.0 
0.0 0.0 -3.106513839132e-04 
2.755733972267e-04 -1.401203893809e-03 0.0 
-1.401203893809e-03 4.875020493235e-04 0.0 
0.0 0.0 -3.270323342358e-04 
-5.716509711487e-04 6.241427470327e-04 0.0 
6.241427470327e-04 1.685665452150e-03 0.0 
0.0 0.0 -2.953478464511e-04 
-6.435501651802e-04 2.617971966709e-04 0.0 
2.617971966709e-04 5.324938194352e-03 0.0 
0.0 0.0 -9.116044729693e-04 
-3.892042169670e-04 -9.156083068677e-04 0.0 
-9.156083068677e-04 2.815259890772e-03 0.0 
0.0 0.0 -5.459662534218e-04 
-2.243152923797e-04 -1.093841073510e-03 0.0 
-1.093841073510e-03 2.791137140625e-03 0.0 
0.0 0.0 -5.879858557453e-04 
2.757241657395e-04 -4.810032012259e-04 0.0 
-4.810032012259e-04 1.809007699405e-05 0.0 
0.0 0.0 -1.259203897429e-04 
-1.236651515782e-03 5.783317831820e-05 0.0 
5.783317831820e-05 7.720546241133e-03 0.0 
0.0 0.0 -1.176327079312e-03 
-4.101458141136e-04 -1.240391896891e-03 0.0 
-1.240391896891e-03 2.995120791313e-03 0.0 
0.0 0.0 -5.792774345575e-04 
-1.250725797448e-03 2.916941522596e-04 0.0 
2.916941522596e-04 8.087181627586e-03 0.0 
0.0 0.0 -1.212957849656e-03 
-1.169197980018e-03 -1.036807665068e-04 0.0 
-1.036807665068e-04 7.436974066249e-03 0.0 
0.0 0.0 -1.117460450001e-03 
-1.345176874521e-03 9.425392127595e-05 0.0 
9.425392127595e-05 9.101263988686e-03 0.0 
0.0 0.0 -1.319418651152e-03 
-1.362446196829e-03 -6.566602865703e-05 0.0 
-6.566602865703e-05 8.851718670119e-03 0.0 
0.0 0.0 -1.324849633189e-03 
-9.396876737499e-04 1.580696553299e-04 0.0 
1.580696553299e-04 5.609093298548e-03 0.0 
0.0 0.0 -8.315138651140e-04 
-5.177493296675e-04 -1.164892507562e-03 0.0 
-1.164892507562e-03 3.321630420665e-03 0.0 
0.0 0.0 -6.063493599945e-04 
-5.551169256274e-04 5.845973941815e-04 0.0 
5.845973941815e-04 2.336169535734e-03 0.0 
0.0 0.0 -3.884917441798e-04 
-5.432002518243e-04 -7.156839301842e-04 0.0 
-7.156839301842e-04 3.555258553905e-03 0.0 
0.0 0.0 -6.367902913543e-04 
-1.343328350294e-03 -3.038078432126e-04 0.0 
-3.038078432126e-04 8.521823212692e-03 0.0 
0.0 0.0 -1.343328350294e-03 
-1.737665181201e-04 6.795203959292e-04 0.0 
6.795203959292e-04 8.236163112488e-04 0.0 
0.0 0.0 -2.785070541980e-04 
-2.927518060600e-04 7.425303816206e-04 0.0 
7.425303816206e-04 1.136932491594e-03 0.0 
0.0 0.0 -3.329621070679e-04 
-9.737974110450e-04 -6.386389399083e-05 0.0 
-6.386389399083e-05 7.060307194164e-03 0.0 
0.0 0.0 -1.156027955174e-03 
-8.805235058694e-04 6.847913926848e-05 0.0 
6.847913926848e-05 5.301659598337e-03 0.0 
0.0 0.0 -7.715229432315e-04 
-1.258879221168e-03 2.678324544629e-04 0.0 
2.678324544629e-04 8.150871359494e-03 0.0 
0.0 0.0 -1.219279742240e-03 
-1.080906081071e-03 2.827660258438e-04 0.0 
2.827660258438e-04 6.867060617251e-03 0.0 
0.0 0.0 -1.069611963270e-03 
-1.039924564934e-03 5.350617449269e-04 0.0 
5.350617449269e-04 7.190727662860e-03 0.0 
0.0 0.0 -1.175036385391e-03 
-1.173553033698e-03 2.219944962555e-04 0.0 
2.219944962555e-04 7.297927893888e-03 0.0 
0.0 0.0 -1.113576918908e-03 
-9.402009665324e-04 2.044311077690e-04 0.0 
2.044311077690e-04 5.536177417769e-03 0.0 
0.0 0.0 -8.542750875040e-04 
-5.858259911149e-04 -1.171742995146e-03 0.0 
-1.171742995146e-03 2.676462786012e-03 0.0 
0.0 0.0 -4.674384380614e-04 
-5.422750806607e-04 -8.975033256362e-04 0.0 
-8.975033256362e-04 2.600446559473e-03 0.0 
0.0 0.0 -4.715697005044e-04 
-1.061085808578e-03 2.019693127978e-04 0.0 
2.019693127978e-04 6.591258911724e-03 0.0 
0.0 0.0 -9.963059934038e-04 
-9.926320276344e-04 1.396335034036e-04 0.0 
1.396335034036e-04 7.047433757094e-03 0.0 
0.0 0.0 -1.142506377625e-03 
-8.640826483478e-04 1.602683523403e-04 0.0 
1.602683523403e-04 4.592644147598e-03 0.0 
0.0 0.0 -7.345222264051e-04 
-8.659076808803e-04 1.600457319012e-05 0.0 
1.600457319012e-05 5.296211653200e-03 0.0 
0.0 0.0 -7.676068998053e-04 
-9.151607957151e-04 -5.089667725815e-05 0.0 
-5.089667725815e-05 5.629549572959e-03 0.0 
0.0 0.0 -8.242303029217e-04 
-9.674728246486e-04 -2.123760912739e-04 0.0 
-2.123760912739e-04 5.717004610309e-03 0.0 
0.0 0.0 -8.467401457521e-04 
3.499479768906e-04 -3.973954247046e-04 0.0 
-3.973954247046e-04 -4.658979670493e-05 0.0 
0.0 0.0 -1.300106486510e-04 
-5.930015542773e-04 -7.839114719970e-04 0.0 
-7.839114719970e-04 2.465147057737e-03 0.0 
0.0 0.0 -4.335179088089e-04 
-1.317738620986e-03 2.278366908206e-04 0.0 
2.278366908206e-04 8.695066743648e-03 0.0 
0.0 0.0 -1.269310366786e-03 
-1.008653577782e-03 -1.784318379198e-04 0.0 
-1.784318379198e-04 6.114212471042e-03 0.0 
0.0 0.0 -9.150577043801e-04 
-1.235075525051e-03 3.722470533434e-04 0.0 
3.722470533434e-04 8.051470811527e-03 0.0 
0.0 0.0 -1.295322057178e-03 
-1.262105533747e-03 2.927877395666e-04 0.0 
2.927877395666e-04 8.092325804024e-03 0.0 
0.0 0.0 -1.215577547940e-03 
-1.074267791218e-03 2.611694470269e-04 0.0 
2.611694470269e-04 6.569995446378e-03 0.0 
0.0 0.0 -1.012565562176e-03 
-1.287214307820e-03 9.354055678567e-05 0.0 
9.354055678567e-05 8.149418825250e-03 0.0 
0.0 0.0 -1.214907066889e-03 
-8.465721316982e-04 -1.105505135888e-04 0.0 
-1.105505135888e-04 3.950044235392e-03 0.0 
0.0 0.0 -6.304496659280e-04 
-8.228220456719e-04 -1.151102242294e-04 0.0 
-1.151102242294e-04 3.762441621980e-03 0.0 
0.0 0.0 -5.666856080635e-04 
-1.213791714024e-03 -1.499272758312e-04 0.0 
-1.499272758312e-04 7.648587280659e-03 0.0 
0.0 0.0 -1.226851238141e-03 
0.0 0.0 0.0 
0.0 0.0 0.0 
0.0 0.0 0.0 
-5.508530862849e-04 -1.035100482519e-04 0.0 
-1.035100482519e-04 2.701800587875e-03 0.0 
0.0 0.0 -4.071640756073e-04 
-1.342405754833e-03 4.276126013738e-04 0.0 
4.276126013738e-04 8.356626582993e-03 0.0 
0.0 0.0 -1.342405754833e-03 
-2.369285988354e-04 -1.770299306038e-04 0.0 
-1.770299306038e-04 1.161644229230e-03 0.0 
0.0 0.0 -2.265802816212e-04 
-8.772316900263e-04 3.022985570029e-05 0.0 
3.022985570029e-05 5.030285682320e-03 0.0 
0.0 0.0 -7.870118106326e-04 
-1.087488399424e-03 -9.544139039346e-05 0.0 
-9.544139039346e-05 7.678102904648e-03 0.0 
0.0 0.0 -1.213461936786e-03 
-2.217204533164e-04 -1.125363679953e-04 0.0 
-1.125363679953e-04 8.293133150009e-04 0.0 
0.0 0.0 -1.562362318669e-04 
1.575931452750e-04 -1.091415967636e-04 0.0 
-1.091415967636e-04 4.514811203493e-04 0.0 
0.0 0.0 -1.320567747312e-04 
-1.342371808075e-03 1.025686952786e-04 0.0 
1.025686952786e-04 9.039344740884e-03 0.0 
0.0 0.0 -1.324389858384e-03 
-8.327656305072e-04 1.141712868856e-04 0.0 
1.141712868856e-04 4.641243707897e-03 0.0 
0.0 0.0 -7.294542769151e-04 
-1.288909957265e-03 4.016661537540e-04 0.0 
4.016661537540e-04 8.513544320093e-03 0.0 
0.0 0.0 -1.261418349269e-03 
-1.134288891980e-03 5.741233190870e-05 0.0 
5.741233190870e-05 7.407101021319e-03 0.0 
0.0 0.0 -1.231858344535e-03 
-8.347679035328e-04 -3.570531223968e-05 0.0 
-3.570531223968e-05 4.629434413509e-03 0.0 
0.0 0.0 -7.289279708929e-04 
0.0 0.0 0.0 
0.0 0.0 0.0 
0.0 0.0 0.0 
-1.305379233758e-03 -6.071779487898e-05 0.0 
-6.071779487898e-05 8.461113597457e-03 0.0 
0.0 0.0 -1.284140717546e-03 
-3.100289480378e-04 -3.270232557407e-04 0.0 
-3.270232557407e-04 1.355870936008e-03 0.0 
0.0 0.0 -2.433545560381e-04 
-1.282233343865e-03 2.781824875359e-04 0.0 
2.781824875359e-04 8.180219452641e-03 0.0 
0.0 0.0 -1.232184317627e-03 
-1.343095105526e-03 -2.432827260553e-04 0.0 
-2.432827260553e-04 8.545412507579e-03 0.0 
0.0 0.0 -1.343095105526e-03 
-1.292199045367e-03 2.524866178233e-04 0.0 
2.524866178233e-04 8.014541847179e-03 0.0 
0.0 0.0 -1.225700354592e-03 
4.686342162084e-04 -7.265370554805e-04 0.0 
-7.265370554805e-04 5.162950173457e-06 0.0 
0.0 0.0 -2.030559284494e-04 
-9.540260339352e-04 1.631930893359e-04 0.0 
1.631930893359e-04 5.653552826698e-03 0.0 
0.0 0.0 -8.279144014868e-04 
-8.950557039055e-04 -2.748800359507e-04 0.0 
-2.748800359507e-04 4.199615522516e-03 0.0 
0.0 0.0 -6.271989868224e-04 
-8.983235361331e-04 1.933150702715e-04 0.0 
1.933150702715e-04 6.546966492063e-03 0.0 
0.0 0.0 -1.077599360682e-03 
-1.273669225217e-03 1.720409005563e-04 0.0 
1.720409005563e-04 8.518730660981e-03 0.0 
0.0 0.0 -1.326997735404e-03 
-1.142899871982e-03 1.477724546960e-04 0.0 
1.477724546960e-04 7.166026161736e-03 0.0 
0.0 0.0 -1.061614915164e-03 
-1.285004601792e-03 2.929428446180e-04 0.0 
2.929428446180e-04 8.490810498827e-03 0.0 
0.0 0.0 -1.325870641008e-03 
0.0 0.0 0.0 
0.0 0.0 0.0 
0.0 0.0 0.0 
-1.297780734717e-03 -4.166830862430e-04 0.0 
-4.166830862430e-04 8.366714279713e-03 0.0 
0.0 0.0 -1.277656510522e-03 
2.368160629241e-04 -1.409681499125e-03 0.0 
-1.409681499125e-03 7.013780298968e-04 0.0 
0.0 0.0 -3.431348957073e-04 
-2.589194545670e-04 3.821483992917e-05 0.0 
3.821483992917e-05 1.124631262589e-03 0.0 
0.0 0.0 -2.298118214877e-04 
-1.194197405020e-03 -2.475227437211e-04 0.0 
-2.475227437211e-04 8.105636908586e-03 0.0 
0.0 0.0 -1.270335377537e-03 
-1.315524425911e-03 2.690035540339e-04 0.0 
2.690035540339e-04 8.643806800304e-03 0.0 
0.0 0.0 -1.270603359501e-03 
-1.320702306464e-03 4.960564232440e-05 0.0 
4.960564232440e-05 8.625092567998e-03 0.0 
0.0 0.0 -1.289850838753e-03 
-8.753308640926e-04 2.257063470840e-04 0.0 
2.257063470840e-04 5.095730312348e-03 0.0 
0.0 0.0 -7.762633204682e-04 
-9.835570351374e-04 3.967893708127e-04 0.0 
3.967893708127e-04 5.483942639045e-03 0.0 
0.0 0.0 -8.489529362435e-04 
-3.868195665134e-04 1.249245404028e-03 0.0 
1.249245404028e-03 1.493087960549e-03 0.0 
0.0 0.0 -3.390228113434e-04 
-1.290611125717e-03 4.069284773612e-04 0.0 
4.069284773612e-04 8.488337706707e-03 0.0 
0.0 0.0 -1.273041473476e-03 
-7.431920671866e-04 3.360733235591e-05 0.0 
3.360733235591e-05 3.408921231342e-03 0.0 
0.0 0.0 -5.357483711987e-04 
2.011032744506e-04 7.720499985605e-04 0.0 
7.720499985605e-04 2.146802318038e-04 0.0 
0.0 0.0 -1.781929312519e-04 
-9.370458151346e-04 5.508245939114e-04 0.0 
5.508245939114e-04 6.747683680752e-03 0.0 
0.0 0.0 -1.110141529071e-03 
-8.032989009541e-04 -1.045980115988e-05 0.0 
-1.045980115988e-05 4.870464455063e-03 0.0 
0.0 0.0 -7.096328662732e-04 
-1.279256756890e-03 4.600607687250e-04 0.0 
4.600607687250e-04 8.175326591168e-03 0.0 
0.0 0.0 -1.237729719596e-03 
-1.329072194852e-03 -1.834247142824e-04 0.0 
-1.834247142824e-04 8.977472730193e-03 0.0 
0.0 0.0 -1.321509982054e-03 
-1.343732204276e-03 7.562212797618e-06 0.0 
7.562212797618e-06 8.849786333364e-03 0.0 
0.0 0.0 -1.343732204276e-03 
6.465688167897e-04 1.663781779480e-05 0.0 
1.663781779480e-05 -3.978289505741e-05 0.0 
0.0 0.0 -8.420285294201e-05 
3.868700612373e-04 3.921670605925e-05 0.0 
3.921670605925e-05 -6.204561696291e-05 0.0 
0.0 0.0 -1.378576441850e-04 
-8.247124983758e-04 -1.687178518224e-04 0.0 
-1.687178518224e-04 4.737962601015e-03 0.0 
0.0 0.0 -7.318233512793e-04 
-8.319071836255e-04 2.758419797137e-05 0.0 
2.758419797137e-05 4.882188569804e-03 0.0 
0.0 0.0 -7.096011290571e-04 
-1.343732204276e-03 -2.755821224564e-05 0.0 
-2.755821224564e-05 8.606219025581e-03 0.0 
0.0 0.0 -1.343732204276e-03 
-1.349068194299e-03 1.748780922349e-04 0.0 
1.748780922349e-04 8.742452044457e-03 0.0 
0.0 0.0 -1.321509982054e-03 
2.267983165528e-04 1.503551410355e-04 0.0 
1.503551410355e-04 3.801820683437e-04 0.0 
0.0 0.0 -1.379425883790e-04 
0.0 0.0 0.0 
0.0 0.0 0.0 
0.0 0.0 0.0 
-1.304839210467e-03 -7.091443056662e-05 0.0 
-7.091443056662e-05 7.889011230752e-03 0.0 
0.0 0.0 -1.230181737024e-03 
-1.133789878205e-03 6.963372694564e-04 0.0 
6.963372694564e-04 7.661762773916e-03 0.0 
0.0 0.0 -1.209364118140e-03 
-3.105423637276e-04 -2.525564358258e-04 0.0 
-2.525564358258e-04 1.694140784916e-03 0.0 
0.0 0.0 -2.712674790923e-04 
-1.264304018708e-03 -4.229761773583e-04 0.0 
-4.229761773583e-04 7.912894217144e-03 0.0 
0.0 0.0 -1.240191881334e-03 
-1.104648569634e-03 -8.128511201330e-05 0.0 
-8.128511201330e-05 5.687324916732e-03 0.0 
0.0 0.0 -8.888375990210e-04 
-1.026907705388e-03 -2.214158958103e-04 0.0 
-2.214158958103e-04 5.060294452777e-03 0.0 
0.0 0.0 -7.610796297342e-04 
-1.050200639505e-03 1.276309243533e-04 0.0 
1.276309243533e-04 6.471471583772e-03 0.0 
0.0 0.0 -9.400782610458e-04 
-2.965318753647e-05 -1.331164902240e-03 0.0 
-1.331164902240e-03 9.056852696167e-04 0.0 
0.0 0.0 -3.754423208915e-04 
-8.088866268099e-04 2.301224893319e-04 0.0 
2.301224893319e-04 6.098327421906e-03 0.0 
0.0 0.0 -1.011657465016e-03 
-2.272445053013e-04 -9.535102935049e-05 0.0 
-9.535102935049e-05 1.388764162386e-03 0.0 
0.0 0.0 -2.181484037039e-04 
-9.136007493904e-04 -3.789003197154e-04 0.0 
-3.789003197154e-04 4.494388172482e-03 0.0 
0.0 0.0 -6.997415131527e-04 
-1.249092671204e-03 5.668738205519e-04 0.0 
5.668738205519e-04 7.979681115669e-03 0.0 
0.0 0.0 -1.240519096027e-03 
-1.238391952882e-03 -2.103174549131e-04 0.0 
-2.103174549131e-04 8.038627661496e-03 0.0 
0.0 0.0 -1.191726112421e-03 
-9.811853638777e-04 4.571159586099e-05 0.0 
4.571159586099e-05 4.872542694396e-03 0.0 
0.0 0.0 -7.690942022927e-04 
-9.767560317632e-04 -1.705867274286e-04 0.0 
-1.705867274286e-04 5.944945665690e-03 0.0 
0.0 0.0 -8.745659502648e-04 
-1.201104368766e-03 5.803220864547e-04 0.0 
5.803220864547e-04 7.939240582663e-03 0.0 
0.0 0.0 -1.217119345310e-03 
-1.179845702415e-03 2.452002266232e-04 0.0 
2.452002266232e-04 7.438662012216e-03 0.0 
0.0 0.0 -1.140944809982e-03 
-1.127959464392e-03 2.474309966313e-04 0.0 
2.474309966313e-04 7.001139959042e-03 0.0 
0.0 0.0 -1.076426999079e-03 
-8.393109454079e-04 2.446878724435e-05 0.0 
2.446878724435e-05 4.620539471492e-03 0.0 
0.0 0.0 -7.312123441678e-04 
-7.325714353874e-04 1.943037271298e-04 0.0 
1.943037271298e-04 5.805049329063e-03 0.0 
0.0 0.0 -9.763781674015e-04 
-1.278424948200e-03 4.732838707970e-04 0.0 
4.732838707970e-04 8.049805466019e-03 0.0 
0.0 0.0 -1.231404929774e-03 
-6.063671140810e-04 1.348850002822e-06 0.0 
1.348850002822e-06 2.558361798436e-03 0.0 
0.0 0.0 -4.167967844001e-04 
-7.171547725390e-05 -2.177777186911e-04 0.0 
-2.177777186911e-04 5.764019490181e-04 0.0 
0.0 0.0 -1.015157820784e-04 
-1.170824655935e-03 3.363594053323e-04 0.0 
3.363594053323e-04 7.539332247117e-03 0.0 
0.0 0.0 -1.185975225609e-03 
-9.133715629689e-04 2.312110862865e-04 0.0 
2.312110862865e-04 6.719277881344e-03 0.0 
0.0 0.0 -1.123538223191e-03 
1.132049243546e-04 -1.050372997865e-03 0.0 
-1.050372997865e-03 4.871548077874e-04 0.0 
0.0 0.0 -2.572970280609e-04 
-1.081558890546e-03 -1.399243451463e-04 0.0 
-1.399243451463e-04 6.772240372319e-03 0.0 
0.0 0.0 -9.893338170986e-04 
-1.329126769976e-03 -2.338155039388e-04 0.0 
-2.338155039388e-04 8.188960966632e-03 0.0 
0.0 0.0 -1.282739585886e-03 
-1.129882241773e-03 5.744296922873e-04 0.0 
5.744296922873e-04 7.355375345581e-03 0.0 
0.0 0.0 -1.182073443778e-03 
-1.178192896547e-03 4.553534655183e-04 0.0 
4.553534655183e-04 7.891430484162e-03 0.0 
0.0 0.0 -1.215129606110e-03 
-1.157436434489e-03 -2.420799146488e-04 0.0 
-2.420799146488e-04 6.201441230335e-03 0.0 
0.0 0.0 -9.537126495859e-04 
0.0 0.0 0.0 
0.0 0.0 0.0 
0.0 0.0 0.0 
-5.231800249051e-04 6.591753538455e-04 0.0 
6.591753538455e-04 1.847843507099e-03 0.0 
0.0 0.0 -3.212443691966e-04 
-5.564787132596e-04 8.940027195274e-04 0.0 
8.940027195274e-04 2.137708509351e-03 0.0 
0.0 0.0 -3.834349432650e-04 
-9.473774776597e-04 1.764703939582e-04 0.0 
1.764703939582e-04 5.384019631323e-03 0.0 
0.0 0.0 -8.471429939415e-04 
-7.614839710960e-04 6.584444641784e-04 0.0 
6.584444641784e-04 5.752238999582e-03 0.0 
0.0 0.0 -9.781602908260e-04 
-1.285624241878e-03 -4.326792981855e-05 0.0 
-4.326792981855e-05 8.288168648148e-03 0.0 
0.0 0.0 -1.236541257690e-03 
-1.217308294029e-03 1.640866066604e-04 0.0 
1.640866066604e-04 7.793774931469e-03 0.0 
0.0 0.0 -1.282325209426e-03 
-8.954075940437e-05 -8.680076304404e-04 0.0 
-8.680076304404e-04 7.337139848585e-04 0.0 
0.0 0.0 -2.760742394804e-04 
-3.009716750380e-04 -4.715458723185e-04 0.0 
-4.715458723185e-04 9.308600569539e-04 0.0 
0.0 0.0 -1.704796444516e-04 
-4.318023328758e-04 9.056222759074e-04 0.0 
9.056222759074e-04 1.421929475039e-03 0.0 
0.0 0.0 -2.747970858071e-04 
-1.085049996288e-03 3.161557202625e-04 0.0 
3.161557202625e-04 6.749947888276e-03 0.0 
0.0 0.0 -1.019242131223e-03 
-7.105673598930e-04 -3.560858813606e-04 0.0 
-3.560858813606e-04 3.243394900527e-03 0.0 
0.0 0.0 -4.953283059016e-04 
-1.294058250345e-03 1.194991635526e-04 0.0 
1.194991635526e-04 8.278027413572e-03 0.0 
0.0 0.0 -1.241298427557e-03 
-2.801916649698e-04 -2.169380665087e-04 0.0 
-2.169380665087e-04 1.598671665654e-03 0.0 
0.0 0.0 -2.623907620756e-04 
-1.097220766083e-03 2.014729423047e-04 0.0 
2.014729423047e-04 7.397517373048e-03 0.0 
0.0 0.0 -1.221152601860e-03 
-9.286181991470e-04 2.455314232276e-04 0.0 
2.455314232276e-04 5.488935049062e-03 0.0 
0.0 0.0 -8.343732341398e-04 
-1.223283272536e-03 3.593359299497e-04 0.0 
3.593359299497e-04 7.932879470025e-03 0.0 
0.0 0.0 -1.286815605725e-03 
-9.712654839318e-04 1.866157351704e-04 0.0 
1.866157351704e-04 6.891208363551e-03 0.0 
0.0 0.0 -1.111121968474e-03 
-9.581999826764e-04 8.182036761545e-05 0.0 
8.182036761545e-05 5.388937206970e-03 0.0 
0.0 0.0 -8.465141837044e-04 
-1.209961591988e-03 -2.976225161964e-04 0.0 
-2.976225161964e-04 8.170684166123e-03 0.0 
0.0 0.0 -1.269142588751e-03 
-1.323046623582e-03 3.793136222843e-04 0.0 
3.793136222843e-04 8.658663539059e-03 0.0 
0.0 0.0 -1.272727265576e-03 
-1.289749640490e-03 9.124365830308e-05 0.0 
9.124365830308e-05 8.709454540694e-03 0.0 
0.0 0.0 -1.271339345674e-03 
-1.626085801218e-04 8.571684415748e-04 0.0 
8.571684415748e-04 8.875192706734e-04 0.0 
0.0 0.0 -3.044868356389e-04 
-1.267095409920e-03 4.070899744542e-04 0.0 
4.070899744542e-04 8.089876134210e-03 0.0 
0.0 0.0 -1.218309553141e-03 
-1.282164121305e-03 5.174305312528e-04 0.0 
5.174305312528e-04 8.083053308233e-03 0.0 
0.0 0.0 -1.286645293131e-03 
-1.059215435768e-03 -2.009543418023e-05 0.0 
-2.009543418023e-05 7.573607372665e-03 0.0 
0.0 0.0 -1.211735819529e-03 
-9.987418032593e-04 6.142229130813e-04 0.0 
6.142229130813e-04 6.982246170552e-03 0.0 
0.0 0.0 -1.143254064081e-03 
-1.342665167303e-03 -2.857461739196e-04 0.0 
-2.857461739196e-04 8.440143907241e-03 0.0 
0.0 0.0 -1.342665167303e-03 
-1.126760089934e-03 6.437426727216e-04 0.0 
6.437426727216e-04 6.937086787485e-03 0.0 
0.0 0.0 -1.079065255302e-03 
0.0 0.0 0.0 
0.0 0.0 0.0 
0.0 0.0 0.0 
6.191816026708e-05 1.291205818517e-03 0.0 
1.291205818517e-03 7.179353342320e-04 0.0 
0.0 0.0 -3.342229262139e-04 
-1.235056862706e-03 2.777301788060e-04 0.0 
2.777301788060e-04 7.736779237008e-03 0.0 
0.0 0.0 -1.176936364471e-03 
-9.923017078165e-04 3.078956919309e-04 0.0 
3.078956919309e-04 5.849121224287e-03 0.0 
0.0 0.0 -8.884613587993e-04 
-1.298948170332e-03 -3.124306146209e-04 0.0 
-3.124306146209e-04 7.977511740223e-03 0.0 
0.0 0.0 -1.221994126432e-03 
-1.061095181676e-03 1.799058826279e-04 0.0 
1.799058826279e-04 7.334426391334e-03 0.0 
0.0 0.0 -1.177009544428e-03 
-1.289141827740e-03 -3.383964038360e-04 0.0 
-3.383964038360e-04 8.125835853115e-03 0.0 
0.0 0.0 -1.292249833993e-03 
-1.132172011691e-03 2.813138638496e-04 0.0 
2.813138638496e-04 7.272270790879e-03 0.0 
0.0 0.0 -1.085521458831e-03 
-1.247617681667e-03 2.986308671608e-04 0.0 
2.986308671608e-04 7.907076372021e-03 0.0 
0.0 0.0 -1.288973456333e-03 
-1.183175849056e-03 -4.290305750124e-04 0.0 
-4.290305750124e-04 7.735436170610e-03 0.0 
0.0 0.0 -1.233322439334e-03 
-1.175389870133e-03 -8.154118169286e-05 0.0 
-8.154118169286e-05 7.695545006504e-03 0.0 
0.0 0.0 -1.235043566395e-03 
-7.287005066558e-04 -2.363504694994e-04 0.0 
-2.363504694994e-04 3.412626924282e-03 0.0 
0.0 0.0 -5.104964012366e-04 
-1.311532395302e-03 -3.318821641935e-04 0.0 
-3.318821641935e-04 8.754426494470e-03 0.0 
0.0 0.0 -1.325641941534e-03 
-8.790480836699e-04 9.973280973964e-05 0.0 
9.973280973964e-05 5.256747279211e-03 0.0 
0.0 0.0 -7.662153309039e-04 
-1.249481013832e-03 -1.180321759362e-04 0.0 
-1.180321759362e-04 8.200814515591e-03 0.0 
0.0 0.0 -1.217406395242e-03 
-1.652940304057e-04 -5.197313760388e-04 0.0 
-5.197313760388e-04 7.163944105236e-04 0.0 
0.0 0.0 -2.361858771934e-04 
-1.199456095747e-03 -9.281141696113e-05 0.0 
-9.281141696113e-05 7.932283218576e-03 0.0 
0.0 0.0 -1.163202487293e-03 
-1.073812189916e-03 1.019150907596e-06 0.0 
1.019150907596e-06 6.842466406292e-03 0.0 
0.0 0.0 -9.926133712568e-04 
-8.677292434787e-05 -7.776541442063e-05 0.0 
-7.776541442063e-05 9.098025117225e-04 0.0 
0.0 0.0 -1.628620303624e-04 
5.265410319422e-04 -6.941530982861e-04 0.0 
-6.941530982861e-04 -3.231659341297e-05 0.0 
0.0 0.0 -2.118104736554e-04 
-1.137863848184e-03 6.727746037847e-04 0.0 
6.727746037847e-04 7.103743294949e-03 0.0 
0.0 0.0 -1.107581195644e-03 
-1.316054950297e-03 1.463718814179e-04 0.0 
1.463718814179e-04 8.450854861123e-03 0.0 
0.0 0.0 -1.285368862661e-03 
-1.275071184009e-03 -1.337709164893e-04 0.0 
-1.337709164893e-04 8.307471815085e-03 0.0 
0.0 0.0 -1.223917301752e-03 
-1.160153297854e-03 5.261040585439e-04 0.0 
5.261040585439e-04 7.939180437513e-03 0.0 
0.0 0.0 -1.264779455601e-03 
-9.786681000752e-04 2.797069543092e-04 0.0 
2.797069543092e-04 5.828399650514e-03 0.0 
0.0 0.0 -8.807565902733e-04 
6.088519586403e-05 -4.917250620978e-05 0.0 
-4.917250620978e-05 4.869793999348e-04 0.0 
0.0 0.0 -1.094929743475e-04 
6.111566355022e-05 5.640636810902e-05 0.0 
5.640636810902e-05 -1.157323767526e-05 0.0 
0.0 0.0 -2.123246823213e-05 
-1.420251948107e-04 8.764175524857e-05 0.0 
8.764175524857e-05 4.773240057954e-04 0.0 
0.0 0.0 -1.256389127973e-04 
-3.632499277279e-04 -7.837444408696e-04 0.0 
-7.837444408696e-04 1.194209396961e-03 0.0 
0.0 0.0 -2.225718436208e-04 
0.0 0.0 0.0 
0.0 0.0 0.0 
0.0 0.0 0.0 
-8.980038842560e-04 -6.868916122841e-05 0.0 
-6.868916122841e-05 4.504377363934e-03 0.0 
0.0 0.0 -6.753304527203e-04 
-1.294165048711e-03 6.161991819009e-05 0.0 
6.161991819009e-05 7.969168976077e-03 0.0 
0.0 0.0 -1.222305993939e-03 
-1.264474650052e-03 5.734696938906e-04 0.0 
5.734696938906e-04 8.077312517039e-03 0.0 
0.0 0.0 -1.222833113937e-03 
-1.006464770387e-03 3.394189907579e-05 0.0 
3.394189907579e-05 5.834781281692e-03 0.0 
0.0 0.0 -8.826313165011e-04 
-8.266334947460e-04 -5.354606523691e-04 0.0 
-5.354606523691e-04 3.869366937566e-03 0.0 
0.0 0.0 -5.988529843847e-04 
-1.198642937147e-03 -4.684662880526e-04 0.0 
-4.684662880526e-04 7.783754842457e-03 0.0 
0.0 0.0 -1.221067908166e-03 
-1.068035990990e-03 1.115403335333e-04 0.0 
1.115403335333e-04 7.531635864011e-03 0.0 
0.0 0.0 -1.208702654310e-03 
-1.208049507468e-03 4.869249044164e-04 0.0 
4.869249044164e-04 8.191633662499e-03 0.0 
0.0 0.0 -1.272252409145e-03 
-1.227816291176e-03 4.361504529360e-04 0.0 
4.361504529360e-04 7.755209047765e-03 0.0 
0.0 0.0 -1.237422270938e-03 
-1.191139084829e-03 6.619264216725e-04 0.0 
6.619264216725e-04 7.533865048847e-03 0.0 
0.0 0.0 -1.171232062679e-03 
-1.920899935495e-04 -3.005289282689e-04 0.0 
-3.005289282689e-04 6.978999469600e-04 0.0 
0.0 0.0 -2.167756943188e-04 
0.0 0.0 0.0 
0.0 0.0 0.0 
0.0 0.0 0.0 
-1.308655472056e-03 -3.526594848147e-04 0.0 
-3.526594848147e-04 8.026041467974e-03 0.0 
0.0 0.0 -1.223662873675e-03 
-1.521155326843e-04 1.616990335056e-05 0.0 
1.616990335056e-05 7.009749630609e-04 0.0 
0.0 0.0 -1.761523314621e-04 
-1.768246005743e-04 2.416090922495e-04 0.0 
2.416090922495e-04 1.018026141244e-03 0.0 
0.0 0.0 -1.933333333332e-04 
1.266269026244e-04 4.459901967828e-04 0.0 
4.459901967828e-04 1.149333659383e-04 0.0 
0.0 0.0 -1.035258293840e-04 
-1.677849962930e-04 -2.830770546558e-04 0.0 
-2.830770546558e-04 8.015651116380e-04 0.0 
0.0 0.0 -1.580296812506e-04 
-1.271854076500e-03 -2.557043152436e-04 0.0 
-2.557043152436e-04 7.945254530657e-03 0.0 
0.0 0.0 -1.288571152055e-03 
-1.306788030849e-03 4.109202426763e-04 0.0 
4.109202426763e-04 8.216249132470e-03 0.0 
0.0 0.0 -1.290113636706e-03 
-1.294468783320e-03 3.035835675296e-04 0.0 
3.035835675296e-04 8.293038568859e-03 0.0 
0.0 0.0 -1.236907757659e-03 
-1.272697522653e-03 4.000546130428e-04 0.0 
4.000546130428e-04 7.992915461605e-03 0.0 
0.0 0.0 -1.292605224168e-03 
-1.039048517881e-03 -2.511628389219e-04 0.0 
-2.511628389219e-04 7.217306455236e-03 0.0 
0.0 0.0 -1.176879138244e-03 
-9.963056410622e-04 2.982297539881e-04 0.0 
2.982297539881e-04 6.108837095234e-03 0.0 
0.0 0.0 -9.170130443517e-04 
-1.345069444888e-03 2.094806773474e-04 0.0 
2.094806773474e-04 8.819921791921e-03 0.0 
0.0 0.0 -1.345069444888e-03 
1.552293122710e-04 -1.587596842018e-03 0.0 
-1.587596842018e-03 7.594496357434e-04 0.0 
0.0 0.0 -3.920052634347e-04 
-7.958568066072e-04 2.655126968941e-05 0.0 
2.655126968941e-05 4.862635053177e-03 0.0 
0.0 0.0 -7.083073883397e-04 
-3.709027017310e-05 -1.154290083415e-03 0.0 
-1.154290083415e-03 8.071251517729e-04 0.0 
0.0 0.0 -3.300149492571e-04 
-8.078687300304e-05 2.766710122456e-05 0.0 
2.766710122456e-05 2.705585081320e-04 0.0 
0.0 0.0 -8.133070076957e-05 
-1.328088305276e-03 -2.091716352919e-04 0.0 
-2.091716352919e-04 8.801339781229e-03 0.0 
0.0 0.0 -1.323850096553e-03 
-9.077000763770e-04 9.794404475146e-05 0.0 
9.794404475146e-05 5.306610706151e-03 0.0 
0.0 0.0 -7.731261162940e-04 
-1.693805322071e-04 -2.625883935893e-05 0.0 
-2.625883935893e-05 1.305243597625e-03 0.0 
0.0 0.0 -2.115341463249e-04 
-9.189085389785e-04 8.964891235688e-05 0.0 
8.964891235688e-05 4.273021875062e-03 0.0 
0.0 0.0 -6.570498647039e-04 
-1.286146232063e-03 5.231039738263e-04 0.0 
5.231039738263e-04 8.474365430469e-03 0.0 
0.0 0.0 -1.276804206569e-03 
-1.288400651325e-03 -4.306470642737e-06 0.0 
-4.306470642737e-06 8.274343384212e-03 0.0 
0.0 0.0 -1.228616961883e-03 
-1.323624610775e-03 3.216369829918e-04 0.0 
3.216369829918e-04 8.408100187569e-03 0.0 
0.0 0.0 -1.289666537713e-03 
-6.585033223124e-04 -1.956809026779e-04 0.0 
-1.956809026779e-04 3.104860358543e-03 0.0 
0.0 0.0 -4.695399720401e-04 
0.0 0.0 0.0 
0.0 0.0 0.0 
0.0 0.0 0.0 
-1.295369683638e-03 -4.352781909349e-04 0.0 
-4.352781909349e-04 8.328377963407e-03 0.0 
0.0 0.0 -1.273144391159e-03 
-1.316384665971e-03 4.635940691717e-05 0.0 
4.635940691717e-05 9.091692367136e-03 0.0 
0.0 0.0 -1.325353038101e-03 
-1.373672636792e-03 -7.774901455504e-05 0.0 
-7.774901455504e-05 8.873813327291e-03 0.0 
0.0 0.0 -1.323783523096e-03 
-8.637809619907e-04 1.323503679534e-04 0.0 
1.323503679534e-04 5.089707097874e-03 0.0 
0.0 0.0 -7.673431308700e-04 
-1.131532193974e-03 -7.726473612601e-05 0.0 
-7.726473612601e-05 7.445464928452e-03 0.0 
0.0 0.0 -1.231867668451e-03 
-2.317572587520e-04 -1.314436244158e-04 0.0 
-1.314436244158e-04 1.130415722071e-03 0.0 
0.0 0.0 -2.324200178898e-04 
-1.299745087394e-03 4.291095854891e-04 0.0 
4.291095854891e-04 8.286657472724e-03 0.0 
0.0 0.0 -1.241575510934e-03 
-4.846130298420e-05 -4.886976193625e-05 0.0 
-4.886976193625e-05 2.622595636012e-04 0.0 
0.0 0.0 -9.162782597871e-05 
-1.263516092246e-03 -1.718330630488e-04 0.0 
-1.718330630488e-04 7.907025787409e-03 0.0 
0.0 0.0 -1.290713494763e-03 
-1.321680158597e-03 4.673078731777e-04 0.0 
4.673078731777e-04 8.597815189326e-03 0.0 
0.0 0.0 -1.268585396830e-03 
0.0 0.0 0.0 
0.0 0.0 0.0 
0.0 0.0 0.0 
-1.124591088079e-03 3.211880423142e-04 0.0 
3.211880423142e-04 7.458066064736e-03 0.0 
0.0 0.0 -1.178018281593e-03 
-1.107869427890e-03 -1.505180591586e-04 0.0 
-1.505180591586e-04 7.012739571933e-03 0.0 
0.0 0.0 -1.053859681778e-03 
-1.308771083341e-03 9.446579517484e-05 0.0 
9.446579517484e-05 8.493525012630e-03 0.0 
0.0 0.0 -1.289687241943e-03 
-1.346242744377e-03 2.039443759450e-04 0.0 
2.039443759450e-04 8.307404063276e-03 0.0 
0.0 0.0 -1.346242744377e-03 
-1.050842893348e-03 -2.891538303944e-04 0.0 
-2.891538303944e-04 6.421171579649e-03 0.0 
0.0 0.0 -9.627310317561e-04 
-1.303758961951e-03 4.903154082554e-04 0.0 
4.903154082554e-04 8.278630388455e-03 0.0 
0.0 0.0 -1.292510612804e-03 
-1.300990074097e-03 1.669276888751e-04 0.0 
1.669276888751e-04 8.244189692926e-03 0.0 
0.0 0.0 -1.236507170568e-03 
-1.088170666265e-03 3.228048852164e-05 0.0 
3.228048852164e-05 6.587667922864e-03 0.0 
0.0 0.0 -1.009625451247e-03 
-1.257890102395e-03 4.520446479729e-04 0.0 
4.520446479729e-04 7.985706155656e-03 0.0 
0.0 0.0 -1.247605899893e-03 
-7.721939041237e-04 -2.584607340664e-04 0.0 
-2.584607340664e-04 3.598089332548e-03 0.0 
0.0 0.0 -5.668522599723e-04 
-8.446801208318e-04 -1.785300824749e-05 0.0 
-1.785300824749e-05 4.608085736335e-03 0.0 
0.0 0.0 -7.287847301676e-04 
-1.179784032877e-03 5.549241153248e-04 0.0 
5.549241153248e-04 7.775803262496e-03 0.0 
0.0 0.0 -1.239219007812e-03 
-1.299529222104e-03 1.321426560981e-04 0.0 
1.321426560981e-04 8.646134742124e-03 0.0 
0.0 0.0 -1.286506427510e-03 
3.686259983654e-04 1.418378495935e-05 0.0 
1.418378495935e-05 -1.104699118136e-04 0.0 
0.0 0.0 -1.106383228079e-04 
-8.370484008237e-04 5.623912198418e-05 0.0 
5.623912198418e-05 4.626828224470e-03 0.0 
0.0 0.0 -7.284590636140e-04 
-1.335071484274e-03 -1.600713729454e-04 0.0 
-1.600713729454e-04 8.440371416104e-03 0.0 
0.0 0.0 -1.288082484959e-03 
-3.767414468585e-04 -4.451842935600e-05 0.0 
-4.451842935600e-05 1.577633672495e-03 0.0 
0.0 0.0 -2.765646858065e-04 
-1.088631360797e-03 4.564803545026e-05 0.0 
4.564803545026e-05 7.667059339477e-03 0.0 
0.0 0.0 -1.213252366005e-03 
-1.271794335805e-03 2.301245021833e-04 0.0 
2.301245021833e-04 8.183403677429e-03 0.0 
0.0 0.0 -1.225943235494e-03 
-1.312602819485e-03 -3.967668182090e-05 0.0 
-3.967668182090e-05 8.691988746778e-03 0.0 
0.0 0.0 -1.269037835114e-03 
-3.083660169777e-04 2.694773361529e-05 0.0 
2.694773361529e-05 1.528069924280e-03 0.0 
0.0 0.0 -2.647987373252e-04 
3.113151605038e-04 9.413576912784e-04 0.0 
9.413576912784e-04 1.991549585730e-04 0.0 
0.0 0.0 -2.187729081758e-04 
-1.068435724364e-03 3.124616463362e-04 0.0 
3.124616463362e-04 5.213213290896e-03 0.0 
0.0 0.0 -7.939471195916e-04 
-1.202568648909e-03 1.058847220047e-04 0.0 
1.058847220047e-04 7.572272609772e-03 0.0 
0.0 0.0 -1.120841203304e-03 
0.0 0.0 0.0 
0.0 0.0 0.0 
0.0 0.0 0.0 
-1.320199164535e-03 2.485994904543e-04 0.0 
2.485994904543e-04 8.472368730029e-03 0.0 
0.0 0.0 -1.292233508669e-03 
-1.037229848653e-03 5.491249721839e-05 0.0 
5.491249721839e-05 6.181123680978e-03 0.0 
0.0 0.0 -9.501928138396e-04 
-2.112219927373e-05 -1.374997492072e-03 0.0 
-1.374997492072e-03 9.175924767207e-04 0.0 
0.0 0.0 -3.842015474773e-04 
-1.012609583766e-03 8.895330680236e-05 0.0 
8.895330680236e-05 5.872726185200e-03 0.0 
0.0 0.0 -9.030544305944e-04 
-1.225691657466e-03 3.254133079920e-04 0.0 
3.254133079920e-04 8.211721301461e-03 0.0 
0.0 0.0 -1.271643562581e-03 
-1.073143154962e-03 -3.082428058209e-04 0.0 
-3.082428058209e-04 5.482950483311e-03 0.0 
0.0 0.0 -8.272804529250e-04 
-7.453077569380e-05 8.176448622677e-04 0.0 
8.176448622677e-04 9.698209211780e-05 0.0 
0.0 0.0 -9.621992753141e-06 
-7.676399437614e-04 -3.808740375144e-05 0.0 
-3.808740375144e-05 3.237219166554e-03 0.0 
0.0 0.0 -5.209635072927e-04 
-9.628338005869e-04 -8.201294567374e-05 0.0 
-8.201294567374e-05 4.764994978367e-03 0.0 
0.0 0.0 -7.319997505002e-04 
-1.071554526652e-03 3.282695898754e-04 0.0 
3.282695898754e-04 5.655927594763e-03 0.0 
0.0 0.0 -8.599999999992e-04 
-1.135384068353e-03 1.731479619930e-04 0.0 
1.731479619930e-04 7.715574497297e-03 0.0 
0.0 0.0 -1.232780192057e-03 
-9.798919804233e-04 -2.558628748534e-04 0.0 
-2.558628748534e-04 4.608642650891e-03 0.0 
0.0 0.0 -7.175509632692e-04 
-9.821029958470e-04 -3.508647879924e-05 0.0 
-3.508647879924e-05 4.890525845077e-03 0.0 
0.0 0.0 -7.596628988333e-04 
-1.837560013843e-04 -1.583099615282e-05 0.0 
-1.583099615282e-05 7.060885550868e-04 0.0 
0.0 0.0 -1.551230728613e-04 
-1.279400136320e-03 -1.566945304177e-04 0.0 
-1.566945304177e-04 7.936225660633e-03 0.0 
0.0 0.0 -1.240629869904e-03 
-1.185998620198e-03 6.438056067403e-04 0.0 
6.438056067403e-04 7.550199019485e-03 0.0 
0.0 0.0 -1.186362110037e-03 
2.427830448571e-04 7.191273176983e-04 0.0 
7.191273176983e-04 1.478022189351e-04 0.0 
0.0 0.0 -1.673936844824e-04 
-1.279430862365e-03 -6.414688066309e-05 0.0 
-6.414688066309e-05 8.547621756056e-03 0.0 
0.0 0.0 -1.290349483557e-03 
-1.338884708819e-03 1.031550988355e-04 0.0 
1.031550988355e-04 8.369469127644e-03 0.0 
0.0 0.0 -1.290356026000e-03 
-8.661241169029e-04 -1.497599566473e-04 0.0 
-1.497599566473e-04 5.210623571048e-03 0.0 
0.0 0.0 -7.639788432047e-04 
-1.031081386504e-03 4.454962226943e-05 0.0 
4.454962226943e-05 6.379322053578e-03 0.0 
0.0 0.0 -9.358343396975e-04 
-9.489099175762e-04 2.306915430345e-05 0.0 
2.306915430345e-05 4.686801294291e-03 0.0 
0.0 0.0 -7.108516105536e-04 
-9.490845872611e-04 -2.424415655702e-04 0.0 
-2.424415655702e-04 4.770889395299e-03 0.0 
0.0 0.0 -7.343037059241e-04 
-1.020778085259e-03 -1.236146397605e-04 0.0 
-1.236146397605e-04 5.063951457963e-03 0.0 
0.0 0.0 -7.498489858827e-04 
-1.029397936689e-03 2.088387744417e-04 0.0 
2.088387744417e-04 7.190812739883e-03 0.0 
0.0 0.0 -1.180929064624e-03 
-9.345291821784e-05 -1.000980982166e-03 0.0 
-1.000980982166e-03 8.249248585122e-04 0.0 
0.0 0.0 -3.134879744119e-04 
-1.217539983379e-03 3.641850333419e-04 0.0 
3.641850333419e-04 7.975823276789e-03 0.0 
0.0 0.0 -1.217816617926e-03 
-9.353852917844e-04 8.308411466891e-05 0.0 
8.308411466891e-05 5.379160797006e-03 0.0 
0.0 0.0 -8.376728236383e-04 
-1.321070874734e-03 1.232042406106e-04 0.0 
1.232042406106e-04 8.662379723599e-03 0.0 
0.0 0.0 -1.272153791098e-03 
-1.041736228558e-03 -1.048021857426e-04 0.0 
-1.048021857426e-04 7.166745997700e-03 0.0 
0.0 0.0 -1.181257232468e-03 
-9.798440822242e-04 -3.118370163861e-05 0.0 
-3.118370163861e-05 6.079525789277e-03 0.0 
0.0 0.0 -8.902468719969e-04 
-1.234647512165e-03 5.766899331800e-04 0.0 
5.766899331800e-04 7.752454878246e-03 0.0 
0.0 0.0 -1.201032862555e-03 
-1.158629351689e-03 4.496790680983e-04 0.0 
4.496790680983e-04 7.611289473110e-03 0.0 
0.0 0.0 -1.236767197193e-03 
-1.208868880085e-03 3.342350738492e-04 0.0 
3.342350738492e-04 8.181025928136e-03 0.0 
0.0 0.0 -1.270271405117e-03 
3.097542277649e-05 6.697677954973e-05 0.0 
6.697677954973e-05 7.281263968877e-06 0.0 
0.0 0.0 -1.639572289087e-05 
-1.241892221072e-03 3.317116238901e-04 0.0 
3.317116238901e-04 7.798927866879e-03 0.0 
0.0 0.0 -1.198686027802e-03 
-1.247779771289e-03 6.731204463031e-04 0.0 
6.731204463031e-04 8.074479962319e-03 0.0 
0.0 0.0 -1.227078865044e-03 
-6.925802389634e-05 -2.106877258132e-04 0.0 
-2.106877258132e-04 8.393317830722e-04 0.0 
0.0 0.0 -1.488313462956e-04 
-9.198582411310e-04 -2.516763361700e-04 0.0 
-2.516763361700e-04 4.361749592167e-03 0.0 
0.0 0.0 -6.841365946973e-04 
8.862067450554e-06 2.614979262087e-05 0.0 
2.614979262087e-05 5.345349754715e-06 0.0 
0.0 0.0 -6.088893087972e-06 
-1.270183579808e-03 3.785933793144e-04 0.0 
3.785933793144e-04 8.183372897712e-03 0.0 
0.0 0.0 -1.230789928678e-03 
-7.565067891625e-04 -1.155535297541e-04 0.0 
-1.155535297541e-04 4.407218847534e-03 0.0 
0.0 0.0 -6.488888888889e-04 
-7.530504053033e-04 -7.571813069496e-06 0.0 
-7.571813069496e-06 4.174991140514e-03 0.0 
0.0 0.0 -6.711111111111e-04 
-7.399837968145e-04 -1.387977928634e-05 0.0 
-1.387977928634e-05 4.486504988785e-03 0.0 
0.0 0.0 -6.488888888889e-04 
-7.729838338639e-04 -1.329064737435e-05 0.0 
-1.329064737435e-05 4.184890785187e-03 0.0 
0.0 0.0 -6.711111111111e-04 
-7.413687643813e-04 -3.949381470416e-07 0.0 
-3.949381470416e-07 4.494790911899e-03 0.0 
0.0 0.0 -6.488888888889e-04 
-7.742938489980e-04 3.545636067961e-06 0.0 
3.545636067961e-06 4.195489456373e-03 0.0 
0.0 0.0 -6.711111111111e-04 
-7.475947728547e-04 -1.447276125001e-05 0.0 
-1.447276125001e-05 4.508658415556e-03 0.0 
0.0 0.0 -6.488888888889e-04 
-7.647771457920e-04 -2.472289036545e-05 0.0 
-2.472289036545e-05 4.185138013304e-03 0.0 
0.0 0.0 -6.711111111111e-04 
-7.436934071060e-04 3.939866511849e-06 0.0 
3.939866511849e-06 4.492058634297e-03 0.0 
0.0 0.0 -6.488888888889e-04 
-7.721102977711e-04 1.191369759528e-05 0.0 
1.191369759528e-05 4.191715436034e-03 0.0 
0.0 0.0 -6.711111111111e-04 
-7.515020125074e-04 1.948179168997e-06 0.0 
1.948179168997e-06 4.504635429055e-03 0.0 
0.0 0.0 -6.488888888889e-04 
-7.788311265265e-04 -5.657460917598e-06 0.0 
-5.657460917598e-06 4.190705067530e-03 0.0 
0.0 0.0 -6.711111111111e-04 
-8.662964799625e-04 -2.454914467333e-05 0.0 
-2.454914467333e-05 4.459732268515e-03 0.0 
0.0 0.0 -6.580807474504e-04 
-7.520565303110e-04 1.109064528774e-05 0.0 
1.109064528774e-05 4.498175075181e-03 0.0 
0.0 0.0 -6.488888888889e-04 
-8.155020730708e-04 1.528373870012e-04 0.0 
1.528373870012e-04 4.186625771973e-03 0.0 
0.0 0.0 -6.711111111111e-04 
-7.586605293786e-04 2.791301751342e-05 0.0 
2.791301751342e-05 4.190794983268e-03 0.0 
0.0 0.0 -6.711111111111e-04 
-7.622973061150e-04 1.699730231297e-05 0.0 
1.699730231297e-05 4.505906138033e-03 0.0 
0.0 0.0 -6.488888888889e-04 
-7.955711925846e-04 8.033031112485e-08 0.0 
8.033031112485e-08 4.188331241414e-03 0.0 
0.0 0.0 -6.711111111111e-04 
-7.623227638377e-04 3.400576865185e-05 0.0 
3.400576865185e-05 4.489689491926e-03 0.0 
0.0 0.0 -6.488888888889e-04 
-8.006770446683e-04 3.868285750203e-05 0.0 
3.868285750203e-05 4.189917974469e-03 0.0 
0.0 0.0 -6.711111111111e-04 
-7.724433658179e-04 4.171040082635e-05 0.0 
4.171040082635e-05 4.499618609463e-03 0.0 
0.0 0.0 -6.488888888889e-04 
-7.971982277132e-04 4.334547048389e-05 0.0 
4.334547048389e-05 4.190772542348e-03 0.0 
0.0 0.0 -6.711111111111e-04 
-7.512535823419e-04 1.572109300169e-04 0.0 
1.572109300169e-04 4.272969555894e-03 0.0 
0.0 0.0 -6.358585252281e-04 
-7.799361977067e-04 4.942380984451e-05 0.0 
4.942380984451e-05 4.500436321571e-03 0.0 
0.0 0.0 -6.488888888889e-04 
-8.019717863413e-04 4.151088876834e-05 0.0 
4.151088876834e-05 4.184126944351e-03 0.0 
0.0 0.0 -6.711111111111e-04 
-7.823966262481e-04 7.184392993937e-05 0.0 
7.184392993937e-05 4.484862014071e-03 0.0 
0.0 0.0 -6.488888888889e-04 
-8.006840076862e-04 7.791811278218e-05 0.0 
7.791811278218e-05 4.176001510023e-03 0.0 
0.0 0.0 -6.711111111111e-04 
-8.039640851074e-04 1.263508000003e-04 0.0 
1.263508000003e-04 4.174705869658e-03 0.0 
0.0 0.0 -6.711111111111e-04 
-7.912096237380e-04 1.071509718730e-04 0.0 
1.071509718730e-04 4.477799006040e-03 0.0 
0.0 0.0 -6.488888888889e-04 
-8.101830887602e-04 1.288493200629e-04 0.0 
1.288493200629e-04 4.489610393156e-03 0.0 
0.0 0.0 -6.488888888889e-04 
-7.617757652904e-04 1.684528749010e-04 0.0 
1.684528749010e-04 4.355354044839e-03 0.0 
0.0 0.0 -6.691918585615e-04 
-7.447770942407e-04 1.411070161011e-04 0.0 
1.411070161011e-04 4.151047300433e-03 0.0 
0.0 0.0 -6.755611849764e-04 
-8.025731129306e-04 -3.241456630719e-04 0.0 
-3.241456630719e-04 4.358910586267e-03 0.0 
0.0 0.0 -6.600000000000e-04 
-7.344440083408e-04 3.911518351984e-04 0.0 
3.911518351984e-04 4.236731495882e-03 0.0 
0.0 0.0 -6.600000000000e-04 
-8.045282767906e-04 1.783825891024e-05 0.0 
1.783825891024e-05 4.360632635982e-03 0.0 
0.0 0.0 -6.822222222222e-04 
-7.310384794447e-04 6.338117589491e-05 0.0 
6.338117589491e-05 4.247438367621e-03 0.0 
0.0 0.0 -6.377777777778e-04 
-7.412727877556e-04 1.381235162240e-04 0.0 
1.381235162240e-04 4.183483937710e-03 0.0 
0.0 0.0 -6.377777777778e-04 

SCALARS element_materi_plasti_kappa_shear float
LOOKUP_TABLE default
2.048251484052e-03
1.753493670412e-03
5.503175940454e-03
5.633931869583e-03
3.565227349428e-03
4.312193749308e-04
3.536826958688e-03
1.942063469917e-03
3.582504689508e-03
5.588174946625e-03
3.844209359202e-03
1.631469581520e-03
5.512057153720e-03
3.809200862045e-03
5.604521952288e-03
5.734301458091e-03
3.547028291065e-03
0.0
1.240065727301e-03
1.171297693899e-03
5.622446392520e-03
2.066758337528e-03
2.250687853245e-03
4.978061567755e-03
4.048291547957e-03
4.106723662793e-03
3.275000549148e-03
5.494131578830e-03
4.059702375831e-03
5.136982028010e-03
1.134770329222e-03
3.832632936293e-04
5.695120532744e-03
4.786861567557e-03
5.372391993924e-03
5.735141668293e-03
5.753517229623e-03
5.201200685639e-03
3.236338684528e-03
3.281036968799e-03
2.549446708275e-03
5.321786045187e-03
1.684174276636e-03
3.149604634892e-03
5.511212370387e-03
1.565690788834e-03
3.220151479938e-04
5.403179619290e-03
4.290285994614e-06
3.669652725762e-03
2.409350294786e-03
1.545192749097e-03
1.201581906209e-03
2.359715905779e-03
5.581390730101e-03
2.049040073899e-03
1.507776831990e-03
4.806180650684e-03
9.040347839122e-04
5.734539432203e-03
0.0
5.036447355686e-03
2.389363153128e-03
1.200719454992e-03
5.502622384469e-03
2.208078500699e-03
0.0
5.645939813078e-03
1.388688876148e-03
5.450080675048e-03
4.240450452081e-03
5.844447616816e-03
5.127619557211e-03
3.940968838014e-04
2.067872878458e-03
5.628694369718e-03
5.723406412390e-03
1.349407449673e-03
8.084468878613e-04
1.429030436915e-03
1.215963319167e-03
3.393097464491e-03
2.129508046084e-03
1.864830702236e-03
3.733526205207e-03
3.714125906962e-03
4.361075697200e-03
4.690746124938e-03
4.783172209268e-03
3.514212606547e-03
2.589608648574e-04
3.431550400288e-03
4.721859888672e-03
4.746077057757e-03
5.997543046696e-03
5.411150761547e-03
3.393913313148e-03
5.491004293201e-03
3.985594967259e-03
2.258571385844e-03
3.410992711845e-03
5.611034212900e-03
4.179507938013e-03
5.032886742806e-03
2.003062331599e-03
8.956760759699e-04
5.221382607798e-03
5.045193140480e-03
2.261908350145e-04
5.486842463624e-03
4.573653062054e-03
3.479980613032e-04
2.502076270832e-03
3.167763418157e-03
2.487000496226e-03
2.126059688753e-03
2.273861626040e-03
5.451016480833e-03
3.919789090778e-03
2.281181173819e-03
1.213076248653e-03
3.513689619667e-03
4.941959880695e-03
2.106608397091e-03
9.726897685995e-04
2.859921274722e-03
2.565005698292e-03
2.680460766149e-03
5.737782286007e-03
9.785758943601e-04
4.027728111069e-03
5.636355074510e-03
2.835365156538e-03
2.709046400113e-03
5.353249069116e-03
5.532349028915e-03
4.348743351020e-03
2.978900291729e-03
5.411429688504e-03
2.744221608962e-03
5.616125922486e-03
5.613692443859e-03
3.766204035722e-03
4.391065799997e-03
2.718404295077e-03
2.533253388883e-03
3.087137023846e-03
2.200470782986e-03
3.492820352654e-03
2.363376362537e-03
2.621382727248e-04
3.747049311015e-03
8.605114628174e-04
3.020514546332e-03
5.290806449770e-03
2.186313469297e-03
4.518027699077e-03
1.606142966517e-03
4.209701847449e-03
3.408465456370e-03
2.321856290079e-03
4.941287181334e-03
1.029170670083e-03
5.207270841351e-03
3.386399557435e-03
5.629077659096e-03
3.402534046100e-03
2.143777464895e-03
2.980585492464e-03
3.978529564445e-03
1.797981043136e-03
2.131947395522e-03
4.565545625096e-03
3.526561441315e-03
2.292273163024e-03
2.831954602171e-03
4.902639283245e-03
2.846109516762e-03
5.344131269157e-03
5.581762834167e-03
2.045482988632e-03
2.739998364567e-03
4.670836610536e-03
2.636378907130e-03
1.901753547339e-03
3.276383508295e-03
2.394214224877e-03
5.640432630144e-03
4.649191975422e-03
5.084010659975e-03
1.450852845402e-03
1.891185196908e-03
4.756649167095e-03
0.0
2.645910748192e-03
4.353987082835e-03
6.693198157630e-04
5.577145383260e-03
4.311674069402e-03
2.424063329831e-03
4.308254875087e-03
3.768016172912e-03
3.975429040763e-03
5.123403257528e-03
1.968551576487e-03
3.168679698929e-03
3.489417411141e-03
4.497775965736e-03
3.554143506731e-03
3.272990497602e-03
3.636148199777e-03
4.777873359821e-03
0.0
2.054332000673e-03
2.292338041600e-03
3.059823040950e-03
4.848669964181e-03
7.411939793981e-04
4.203239612195e-03
3.403528574950e-03
2.120618832016e-03
4.069098148087e-03
4.246264766717e-04
4.599464078276e-03
3.476148306084e-04
5.410341703711e-04
1.592193211171e-03
1.719248331945e-03
4.782293510667e-03
1.815734887217e-03
1.844404593867e-03
1.618505664870e-03
1.146822852731e-03
4.464359441945e-03
3.377702223347e-03
5.506088258921e-03
0.0
2.009805297429e-03
2.302243100894e-03
2.481153461484e-03
4.143768537590e-03
5.606441244158e-03
4.559795208237e-03
1.455328493326e-03
4.488396010045e-03
4.213382192652e-03
3.236971907541e-03
4.423237357451e-03
5.173514376653e-03
2.134179776736e-03
1.811135889082e-03
3.825403090103e-03
5.999008670889e-03
3.128792099484e-03
2.778892560238e-03
3.812433277429e-03
1.356034459876e-03
3.547869395678e-03
1.821956586395e-03
1.071898620409e-03
6.878759182499e-04
4.770342255613e-03
3.657761913000e-03
2.301185800403e-03
4.951131887675e-03
4.665409177491e-03
3.411799966359e-03
5.452188912108e-03
2.908585602061e-03
3.583300261965e-03
2.605219249823e-03
3.100950466365e-03
1.347698524684e-03
3.414342947476e-03
2.155049212513e-03
1.385737165103e-03
4.542488046730e-03
0.0
3.716563633638e-03
1.636449720064e-03
1.774524551335e-03
8.033729531877e-04
3.926631031118e-03
7.929613934373e-04
2.439400741018e-03
3.230296274809e-03
3.653257839111e-03
3.792551444784e-03
3.394897168045e-04
9.779464977480e-04
1.639638944485e-03
2.170597973029e-03
4.441924025952e-03
2.403845489855e-03
2.012179680430e-03
2.055407645936e-03
5.690441180567e-04
2.724975474439e-03
1.566269675286e-03
5.958720739140e-03
5.939193914372e-03
3.244445123059e-03
1.612814842720e-03
1.675996184199e-03
3.688319290741e-03
1.425607672630e-03
1.036406456605e-03
3.253099720127e-03
5.778400585500e-03
1.895871873376e-03
3.666527252036e-03
1.635469508028e-03
5.660443835014e-03
1.865154342382e-03
3.342266076335e-03
6.537557986608e-04
3.435463054255e-03
2.276354288028e-03
1.404210939028e-03
3.486331641573e-03
5.890375541845e-03
1.783256592408e-03
3.221814678744e-03
1.690872941280e-03
4.262668196764e-03
3.989554513863e-03
1.870987437432e-03
4.157903845114e-03
5.833143474624e-03
4.319705339619e-03
5.914245466119e-03
4.107732014025e-03
4.587246752330e-03
1.718940221779e-03
3.216971996294e-03
3.590070658515e-03
3.756282744682e-03
2.945710028405e-03
5.788099092437e-03
3.944002213719e-03
3.448909530710e-03
1.863265499764e-03
1.455277505311e-03
3.108638757878e-03
2.053960887931e-03
3.540174196265e-03
1.877423184664e-03
1.615583361797e-03
4.717172209803e-03
1.879339039984e-03
3.325468032698e-03
3.338062058546e-03
3.118061036031e-03
5.704944762881e-03
2.801276760200e-03
7.929235320681e-04
2.475643465383e-03
1.888885188254e-03
2.000012791095e-03
4.954048188006e-03
3.495259464146e-03
2.461309541375e-03
3.062435080318e-03
5.651875251926e-03
5.274977967438e-03
4.935750800823e-03
4.617112825186e-03
3.065607714073e-03
2.469090313365e-03
1.133689513580e-03
1.302424423879e-03
3.315397022365e-03
3.332601828915e-03
2.997347446124e-03
5.010744987465e-03
1.001431061527e-03
2.758819764694e-03
3.419306053386e-03
2.519448693487e-03
5.922741708314e-03
5.955236189705e-03
5.576307705796e-03
3.343577244616e-03
4.936203495640e-03
1.952709186338e-03
1.572206337787e-03
8.348386301079e-04
2.556685105345e-03
3.397790353165e-03
4.097341444589e-03
5.360765443340e-03
4.855340331116e-03
3.816589750238e-03
3.860243568889e-03
1.042497557085e-03
9.358115372942e-04
2.519797185523e-03
3.004979550758e-03
2.619929927175e-03
9.216036177596e-04
3.654326841485e-03
1.535889856870e-03
1.965274985910e-03
5.542217875605e-03
3.765591558978e-03
3.443419406157e-03
9.148022967595e-04
3.000502477848e-03
2.382905503139e-03
3.927650911988e-03
5.879566310260e-03
3.223720713770e-03
3.674901719203e-03
2.887355925381e-03
4.891146742092e-03
3.418978839809e-03
5.856068981647e-03
5.774980459743e-03
5.817447372982e-03
5.770330115021e-03
4.031402203216e-03
4.901935106937e-03
5.053219238746e-03
2.608302338338e-03
2.534090737438e-03
2.864377718296e-03
5.021604322951e-03
5.804877108405e-03
5.054229152364e-03
3.432032663523e-03
5.068372728808e-03
4.092526629085e-03
2.882253780089e-03
2.587573265554e-03
1.635529725769e-03
5.632439227330e-03
2.459501711046e-03
5.142282866551e-03
2.763464966764e-03
2.028101785969e-03
5.246511047736e-03
2.055425638514e-03
5.758655944435e-03
5.581996474530e-03
3.601464432629e-03
2.874317802879e-04
5.722474487266e-03
5.230794359339e-03
1.560316552400e-03
3.558601806016e-03
5.699626342238e-03
0.0
2.660857434825e-03
3.779907730678e-03
3.423227498078e-03
3.515796245568e-03
1.920364726314e-03
5.673636790496e-03
1.884624729070e-03
1.324523675439e-04
5.578498981548e-03
5.002872014388e-04
2.903489307071e-03
7.102088304152e-04
3.105385424469e-03
5.637939698663e-03
5.643493109987e-03
3.759896198982e-03
6.466604743843e-04
2.581016059916e-06
1.306561031608e-03
4.781936084338e-03
3.544667014514e-03
3.591768567503e-03
5.600982036969e-03
3.550458207037e-03
5.978204257671e-03
4.194064998041e-03
3.966369650588e-03
2.069110227023e-03
3.555873876722e-03
1.287977702152e-03
5.563443599679e-03
5.770828452205e-03
5.803925315002e-03
3.535689664887e-03
2.718540240995e-03
2.810036151373e-03
3.607200195359e-03
5.538358032675e-03
1.640374573165e-03
1.295740147429e-03
1.612091026105e-03
4.134625190794e-03
5.683102620147e-03
9.751937677048e-04
5.520122581297e-03
1.677390207142e-03
5.751046272795e-03
5.068488904679e-03
5.986160827208e-04
2.695519082935e-03
5.116907936890e-03
5.706785168037e-03
4.029434435152e-03
4.284615340903e-03
1.266337359964e-03
4.952953356985e-03
1.912176692629e-03
1.970550124934e-03
6.041211163242e-04
5.656733513692e-03
1.182133657821e-03
4.542952953281e-03
3.833323984522e-03
2.139158319596e-03
1.714726693588e-03
3.853402172132e-03
5.579172664692e-03
2.774393020232e-03
3.942313972036e-03
3.310099650091e-03
3.368941039505e-03
1.606723124076e-03
3.637032700867e-03
3.197994162511e-03
4.208731222359e-03
3.883013032915e-03
3.120071939876e-03
2.732828783826e-03
1.823514764933e-03
2.627670573605e-03
4.181475254094e-03
3.004073412555e-03
5.656674172997e-03
5.232907453581e-03
1.823811427346e-03
5.507514049442e-03
5.342333532244e-03
2.747952667688e-03
4.382088383837e-04
5.694608369003e-03
5.185125812822e-03
1.765229900577e-03
5.538258443366e-03
3.827720443377e-03
2.679180912128e-03
3.704599732640e-03
2.883358424601e-03
3.255701293151e-03
3.509234741567e-03
4.329946724555e-03
2.998532943868e-03
4.098742247155e-03
4.047052255275e-03
2.859932710936e-03
3.672333583242e-03
2.211642543694e-03
3.881327088903e-03
2.317754686702e-04
2.007422663305e-03
2.062503183499e-03
3.040900024033e-03
2.964066277893e-03
3.726763647670e-03
4.021852142269e-03
2.125448120930e-03
5.567560434823e-03
3.763638072718e-03
3.188675817690e-03
3.577463415310e-03
3.136039882304e-03
0.0
3.881554513065e-03
2.640906468370e-03
1.601175916693e-04
3.049084665278e-03
4.039018151325e-03
5.107511769800e-03
3.179382722343e-03
3.272183804054e-03
3.333812579699e-03
3.138774507408e-03
5.602858950170e-03
3.388266387592e-03
4.889835681516e-04
1.262830355438e-03
3.403732711760e-04
2.039797041705e-03
4.886593675055e-03
5.135074580473e-03
4.569733804699e-03
2.205347307067e-03
3.963428270317e-03
4.644691033612e-03
4.480010223363e-04
2.667099209261e-03
2.160248377513e-03
5.721042981994e-03
5.580105102775e-03
2.939481999310e-03
3.271315706566e-03
3.310083848978e-03
4.812160421875e-03
1.230172725071e-03
4.495251994924e-03
6.428633528680e-04
2.999374668151e-03
3.265631012540e-03
2.192679874259e-04
2.777613716051e-03
5.213183738870e-03
4.661553375830e-04
3.125223871850e-03
3.264611202798e-03
3.668691180679e-03
2.191299816666e-03
1.929490898902e-03
1.801992614561e-03
5.021357309615e-03
5.413378247578e-03
4.938730896674e-03
1.962629389648e-03
7.396549693112e-04
3.052559415623e-03
3.136955965337e-03
3.283077438816e-03
1.598687307509e-04
2.193472717883e-04
5.176799582362e-04
1.646399827615e-03
4.476010659487e-04
3.103497725519e-03
0.0
1.933359932912e-03
4.174873570305e-03
3.277162825819e-03
5.055738530347e-03
3.910516641519e-03
3.910699350519e-03
2.335203039295e-03
6.321407009922e-04
5.850638891353e-03
6.009929428425e-03
3.804106063636e-03
3.142498704503e-03
2.378074668671e-03
6.000434500276e-03
1.932646254916e-03
3.261134435714e-03
3.129035808385e-03
2.954670140417e-03
5.838142907149e-03
5.995969196951e-03
4.354125543212e-04
1.813212541407e-04
9.186762200650e-04
3.162862848184e-03
5.377931686408e-03
0.0
4.886021985717e-03
0.0
3.610910406558e-03
3.669816600871e-04
9.031669178813e-05
3.461382625694e-03
5.195804270535e-03
4.290192669085e-03
3.148248508174e-03
2.197475915269e-04
4.109795966881e-03
5.851848957564e-03
6.003781657386e-03
3.276367122740e-03
3.775548124396e-03
5.863438389457e-03
4.268339267121e-03
6.020741917649e-04
4.453789533022e-04
2.347376138707e-04
2.636386499780e-03
5.872831094669e-03
5.638106297545e-03
2.439309082976e-04
3.087998710897e-03
5.740465009782e-03
5.879140074132e-03
5.731117611362e-03
4.595061384764e-03
5.043133831470e-03
5.707378045359e-03
5.713124045283e-03
4.886059613206e-03
4.838169654771e-04
3.253485872106e-03
3.293767224568e-03
2.120750360825e-04
5.690406926254e-03
5.768685902520e-03
5.617484584069e-03
4.524110312699e-04
4.596449148217e-04
5.588283914655e-03
5.603110956582e-03
4.452788727497e-03
3.251601896083e-03
4.737759423841e-03
3.834702661819e-03
3.246459497800e-03
5.228246461019e-04
4.912700086981e-04
4.440043287774e-04
5.321378525866e-04
3.250169139528e-03
2.937145446359e-03
0.0
4.118703550062e-03
0.0
5.832195033359e-03
5.846499430745e-03
5.850716816551e-03
1.037380994288e-03
2.016748291347e-03
5.852662976723e-03
4.973191529565e-03
5.880964851940e-03
5.257570989653e-03
5.538666694917e-03
2.787880833422e-03
6.016271676808e-03
6.012463975421e-03
5.083244388473e-03
5.379690173722e-03
4.387421699504e-03
0.0
2.857162677749e-03
4.252814149356e-04
5.079913712272e-03
2.910266083999e-03
4.760106554014e-03
1.643649883448e-03
5.383120855226e-04
5.098955867833e-03
3.125495581336e-03
2.489884669676e-03
4.818967528395e-03
5.278656552726e-03
2.495305030192e-03
4.255398696545e-03
3.844899893988e-03
4.331079183945e-03
4.483284984887e-03
1.722961733981e-03
2.890176896868e-03
2.847631786202e-03
4.036906121347e-03
4.963877593991e-03
4.634026856991e-03
1.657361628813e-03
5.268660436221e-03
4.977116357189e-03
3.619668627054e-03
4.170717328187e-03
4.186883659402e-03
5.342654512254e-03
5.152017188017e-03
3.775019514809e-03
5.233037882857e-03
4.914729909785e-03
4.640974992131e-03
5.247897151359e-03
5.303240859678e-03
4.541244193091e-03
4.128098936937e-03
1.538774070067e-03
1.637170348017e-03
8.927698521496e-04
6.525183474627e-04
5.158931490191e-03
5.044076979222e-03
5.868956833529e-04
5.121589647054e-03
3.733179451095e-03
4.678226682694e-03
4.762287906690e-03
2.074136809097e-03
4.809627862755e-03
3.622602601676e-03
3.895447150765e-03
5.345962366384e-03
1.472811966339e-03
5.235843009349e-03
4.707105507548e-03
1.674998648871e-03
1.997272543898e-03
3.477442011437e-03
4.193455430159e-03
2.343630985594e-03
4.867641149368e-03
4.387482060233e-03
3.338211884839e-03
4.524321097962e-03
4.677832988923e-03
4.679006337696e-03
1.339663578638e-03
3.198638979897e-03
4.633717260275e-03
4.840387351562e-03
2.897016443790e-03
3.936845676204e-03
5.082736818756e-03
4.511744960806e-03
3.674133562235e-05
7.677090780190e-04
5.119753373391e-04
4.910516809545e-03
4.354991661180e-03
3.826914815962e-03
3.891439679493e-03
4.711856603342e-03
3.483739004670e-03
4.620031677450e-03
1.591598461033e-03
5.218249190632e-03
3.412412426767e-03
1.736686848489e-03
3.262202328444e-03
2.478917580480e-03
2.035103586398e-03
3.755154455874e-03
1.564516804578e-04
1.127981756129e-04
4.252374733298e-03
1.464746990371e-03
4.246030270520e-03
4.094375942875e-03
2.616673579752e-03
1.812766898726e-03
5.102254688752e-03
3.465488540583e-04
2.625027282395e-03
4.837002714089e-03
1.192572476611e-03
4.082383260840e-03
3.767466409166e-03
1.326156531730e-03
4.910591653427e-03
4.645125771512e-03
1.410538395916e-03
5.226535373693e-03
5.199234746316e-03
1.660825990561e-03
2.070362284012e-03
1.741360747490e-03
4.534233564243e-03
3.626195608604e-03
5.169455195403e-03
5.078103462266e-03
4.392922361779e-03
4.325015664707e-03
1.344427675979e-03
4.473065100284e-03
4.621187335039e-03
3.681381110048e-03
4.381240135388e-03
4.808400950473e-03
2.590644772933e-03
4.947620929573e-03
3.085734269789e-03
3.550246213813e-03
2.335827574008e-03
2.490782004144e-03
4.488879741826e-03
3.165999505288e-03
1.852051741299e-03
9.795830009428e-04
4.513242120104e-03
1.766306002376e-03
5.166203144739e-03
4.649805208552e-03
4.614388070238e-03
5.225667178668e-03
2.979037457551e-03
1.585841628710e-03
1.011992460365e-03
4.379665078225e-03
4.223445145250e-03
6.765581779648e-04
2.432707948999e-03
1.398956561073e-03
4.216513153533e-03
2.555838114567e-03
4.011146820245e-03
2.390150431536e-03
5.006027676208e-03
2.059652164516e-03
4.350001019912e-03
1.794811250637e-03
4.222069039725e-03
3.406036415107e-03
4.462021920913e-03
1.339917336666e-03
1.350299010952e-03
3.939048831294e-03
3.691324572910e-03
2.830557802011e-03
4.239747352825e-03
1.991260803131e-03
4.297758287115e-03
1.272590086592e-03
4.947061823839e-03
3.839114394118e-03
4.100469873386e-03
5.406352818554e-03
3.435279919526e-03
1.276251192001e-03
3.890812531652e-03
5.018055530162e-03
2.209550982896e-03
4.531906710769e-03
4.676467859059e-03
1.712191406574e-03
4.059355262125e-03
3.877866350654e-03
1.909658390552e-03
2.315039142321e-03
3.261954618660e-03
4.303145841247e-03
2.635421671348e-03
3.059028444222e-03
4.459399445595e-03
4.056901073063e-03
3.999117941319e-03
3.350783493908e-03
4.741842824469e-03
3.716486713275e-03
3.922920566098e-03
5.252343855285e-03
4.304735037625e-03
4.138095280470e-03
4.783696522489e-03
2.607621039471e-03
2.469838949813e-03
1.432823964346e-03
4.007204605408e-03
2.590823974833e-03
4.347452842024e-03
4.183394403681e-03
2.669547662572e-03
2.085784252471e-03
1.474019061621e-03
2.212107321881e-03
2.350809507915e-03
1.463075537230e-03
4.569504511566e-03
2.669001313969e-03
4.972812165115e-03
2.750604982809e-03
3.790160523716e-03
3.207941504412e-03
2.889645016640e-03
1.541106990513e-03
4.841361927259e-03
5.091339779464e-03
4.032052527629e-03
2.472525954974e-03
3.495149155929e-03
4.324118500003e-03
2.732643322525e-03
2.578422691737e-03
2.150698556139e-03
2.106845042594e-03
2.726649439388e-03
1.894721435353e-03
1.784390543315e-03
3.334917325845e-03
3.967235808941e-03
4.797201624805e-03
4.779022984785e-04
2.400918837851e-03
2.556449603619e-03
2.577694805080e-03
4.159825931864e-03
2.931072335017e-03
2.192293877224e-03
2.827325159198e-03
4.815904702500e-03
2.276675714296e-03
8.000720813987e-04
1.154840506689e-03
1.907795704096e-03
2.221538328191e-03
2.622719745119e-03
2.913483858149e-03
1.764083930753e-03
1.225103944880e-03
3.978408581491e-03
1.973233867528e-03
4.352924711069e-03
4.600918209764e-03
3.992519858041e-03
5.014455028265e-03
4.977573847805e-03
2.548565445421e-03
4.312209701199e-03
1.977881610171e-03
2.972886214248e-03
2.522487306746e-03
1.343329153242e-03
1.686644144900e-03
2.487335316614e-03
2.744769011227e-03
2.804656212940e-03
2.029273826370e-03
3.023258905964e-03
2.603498899914e-03
2.484258941744e-03
2.359041018273e-03
3.843548607210e-03
4.482822863784e-03
2.260889845850e-03
4.670023540639e-03
2.097337949930e-03
5.002347225511e-03
2.827679967364e-03
5.203491602561e-03
3.947077556837e-03
1.774963125665e-03
4.099246498151e-03
5.100371074435e-03
2.915547663855e-03
2.161634842982e-03
4.202460859535e-03
3.063723291001e-03
1.589122566935e-03
5.594818322494e-03
1.323577671794e-03
4.905374215111e-03
5.240056690777e-03
4.004250475148e-03
4.022036132739e-03
4.908739948371e-03
2.656489500895e-03
3.014023661640e-03
5.295279977407e-03
4.266560699203e-03
4.614700973159e-03
3.798037729663e-03
1.755388368310e-03
4.742604083367e-03
5.518069405150e-03
5.004957839638e-03
2.836493463262e-03
4.042556476747e-03
3.862526569830e-03
2.990307102709e-03
4.091149418794e-03
4.218450148723e-03
1.096098833511e-03
1.326857373094e-03
2.403878583947e-03
2.433427464003e-03
2.925956778214e-03
5.469614393342e-03
5.117047102826e-03
5.259865256129e-03
2.804866215072e-03
4.812380906171e-03
4.181034339560e-03
5.346185944049e-03
4.575117160927e-03
3.073764877658e-03
2.227900412936e-03
4.723026116701e-03
5.199457669429e-03
4.754736712479e-03
4.593382364392e-03
4.706207203460e-03
4.760938801400e-03
4.529156841862e-03
3.673004527565e-03
2.793183285108e-03
4.176641122849e-03
4.482872570103e-03
1.720752477746e-03
2.523073950019e-03
2.936964334964e-03
3.355527503238e-03
6.764221038374e-04
2.312131514981e-03
3.694823953479e-03
3.162738673778e-03
3.106094428709e-03
4.275586722866e-03
3.420444478414e-03
8.056313501550e-04
3.608028323112e-03
4.113825723424e-03
5.289575565494e-03
2.786040332148e-03
3.385556211389e-03
4.320502265356e-03
1.220460717409e-03
3.955179298540e-03
3.165570628649e-03
3.317308554295e-03
4.304146306300e-03
1.881742204703e-03
4.432932293431e-03
4.823215265074e-03
3.806542070162e-03
4.778108728743e-03
4.481570645652e-03
4.886746565618e-03
1.498086320626e-03
4.448193879400e-03
4.826216477314e-03
4.887560636574e-03
3.468158111994e-03
2.473653699252e-03
3.471604947544e-03
3.515654411098e-04
5.048129172683e-03
1.854985291829e-03
1.640845901064e-03
4.384273219759e-03
5.379705512615e-03
1.962931709496e-03
3.460402464098e-03
4.556944250926e-03
3.383719843055e-03
1.271639043889e-03
2.155596217495e-03
1.530379692595e-03
1.562946298421e-03
1.725992673060e-03
3.128123404018e-03
5.978757202265e-03
1.878932715142e-03
4.874265144995e-03
2.021312508689e-03
4.410645559788e-03
5.446402050903e-04
5.032053835528e-03
1.857540691758e-03
2.167450437020e-03
4.007316872521e-03
2.865792508923e-03
4.633094935503e-03
2.352487737097e-03
4.663962013380e-03
4.869204411424e-03
4.429689118342e-03
5.301599282418e-03
4.867555126114e-03
4.994292368552e-03
1.585731642834e-03
4.731482311295e-03
4.686031286375e-03
2.832067385881e-03
2.158927091379e-03
5.079003029780e-03
9.596911832810e-04
2.094098399874e-03
4.422688948064e-03
1.248071604353e-03
3.111224166074e-03
4.143397073039e-03
5.269510986050e-03
5.404504160547e-03
4.032131518506e-03
5.035214563043e-03
2.288963266599e-03
4.497236254835e-03
2.449891336582e-03
5.141368132138e-03
2.751749660152e-03
2.878729614698e-03
2.670941398415e-03
3.064327322831e-03
3.458691017845e-03
2.658280149013e-03
2.653753714281e-03
9.811593336372e-04
2.441082358799e-03
5.179437752949e-03
5.268578940823e-03
4.434728242993e-03
4.747389467129e-03
2.702179599475e-03
4.975773677779e-03
2.582283479392e-03
4.888861475010e-03
4.848446586375e-03
4.829227704648e-03
3.615324373437e-03
2.341624150185e-03
4.784583869030e-03
3.957491419921e-03
1.700601644229e-03
7.020950745825e-04
2.481218771102e-03
3.497363371298e-03
5.046415826891e-03
4.704605430921e-03
2.322695645322e-03
3.926363227239e-03
4.300034730448e-03
5.071297943610e-03
4.988482903574e-03
4.232489050894e-03
4.476485377380e-03
2.821806331728e-03
4.336206174646e-03
3.171626869689e-03
5.322298740710e-03
5.194634648291e-03
3.273686732189e-03
5.984151931342e-04
4.585743008913e-03
3.386888275759e-03
2.214504551746e-03
3.505745048799e-03
4.392421827443e-03
8.649412715447e-04
2.929672516780e-03
4.200855765301e-03
5.106738436651e-03
4.301405107970e-03
4.492473167653e-03
4.094600791655e-03
3.873742424529e-03
4.049253002460e-03
4.546913092459e-03
4.646225374320e-03
4.523702894857e-03
5.390087395959e-03
3.985020216099e-03
1.618655921059e-03
4.788488793259e-03
5.359924628782e-03
3.005660619524e-03
3.223226449347e-03
1.971525089256e-03
4.648699280585e-03
2.766011387022e-03
3.573201295524e-03
2.703531881720e-03
4.214659544868e-03
5.069771484117e-03
2.121431133427e-03
4.058193802695e-04
5.341003982022e-03
2.920796651996e-03
2.806031036896e-03
4.893352200413e-03
4.541058644014e-03
4.477853504311e-03
2.415871683082e-03
1.091173224409e-04
5.297107160487e-03
3.566992170965e-03
3.964772993217e-03
4.908749566295e-03
0.0
4.396335016970e-03
1.721264210827e-03
4.247426129010e-03
3.657351708374e-03
2.094475387503e-03
4.954039962137e-03
3.497476297263e-03
1.752352387144e-03
3.730384878291e-03
3.763523260526e-04
4.296335070821e-03
4.232332728487e-03
5.300157964833e-03
4.591233936654e-03
1.028298279476e-03
4.511210016349e-03
5.453521427974e-03
5.267588892161e-03
4.434702429965e-03
2.462650568201e-03
4.009248660887e-03
5.046804183108e-03
3.535212461732e-03
4.396897747975e-03
4.393389450935e-03
4.800902351973e-03
4.606296382436e-03
3.122680214006e-03
3.120274423476e-03
4.382256899136e-03
4.111044512030e-03
3.813633009546e-03
4.221320453715e-03
3.279774802709e-03
4.769766446077e-03
2.542727818688e-03
5.983048558159e-03
3.591210545370e-03
3.168624506568e-03
3.557292247720e-03
9.531416278352e-04
3.230009085735e-03
3.834311612934e-03
3.683361306900e-03
4.361379102542e-03
4.324884584529e-03
4.497716242812e-03
9.296305416927e-04
3.000738260246e-03
2.877206011432e-03
4.129391706328e-03
4.309346871824e-03
4.660717579237e-03
1.390083491195e-03
1.337430359801e-03
3.372007376568e-03
3.118387867984e-03
2.908488767762e-03
3.071482520293e-03
4.375276169838e-03
1.579296571718e-03
3.441254145347e-03
4.169540997438e-03
5.233780527266e-04
5.376588438414e-03
5.149299469470e-03
3.407577951504e-03
4.596633708749e-03
5.291684185247e-04
4.017860612446e-03
3.529401166009e-03
5.097626183355e-04
5.132298664917e-03
7.847782572497e-04
4.127046447011e-03
3.654659147826e-03
2.736631618381e-03
3.532903553380e-03
5.264031271081e-03
3.850209962935e-03
3.431861875086e-03
3.323620881928e-03
5.457679815637e-04
4.250590229059e-04
4.681238603658e-03
4.043631383605e-03
4.795280597812e-03
2.001212315519e-03
4.830518942522e-03
4.896214853730e-03
3.151597474926e-03
4.683508434643e-03
4.666996016599e-03
3.909137558089e-03
3.276352252530e-03
3.497938959203e-03
5.375951367089e-03
3.220959364287e-03
3.760026043850e-03
3.137860209432e-03
4.172566943858e-03
2.940253828481e-03
1.143043258969e-03
3.094440534048e-03
1.421741084883e-03
4.229813709731e-03
1.395709131982e-03
4.036588971796e-03
4.570721815773e-03
4.340933322801e-03
2.781057843546e-03
4.194893651729e-03
4.753168581798e-03
4.818117472810e-03
1.337755850323e-03
4.137746118188e-03
5.209940225679e-03
2.346590375691e-03
3.683805328027e-03
7.449910221543e-04
4.902778118811e-03
1.132231217255e-03
3.562582783365e-03
3.984078078079e-03
4.208916939956e-03
4.023939684233e-03
3.635866043279e-03
2.594201963328e-03
2.755506096816e-03
4.964224152630e-03
3.752359726194e-03
3.049378824758e-03
3.951824469440e-03
2.751998479851e-03
1.270610342764e-03
2.569385874887e-03
3.772607831583e-03
3.271605333460e-03
4.369076492911e-03
2.705575969413e-03
5.066065955323e-03
4.914430261524e-03
2.994647378897e-03
5.394625854804e-03
1.628019428153e-03
4.948546199405e-03
3.599675338089e-03
3.985333370223e-03
4.676994841526e-03
2.599416272208e-03
3.952410327413e-03
2.849041735521e-03
3.845590045576e-03
1.946537266926e-03
4.082691990807e-03
2.599671966463e-03
3.723013565829e-03
3.865662068831e-03
5.887470109935e-04
3.453775351858e-03
1.200495782290e-03
9.684342886304e-04
3.597379235346e-03
4.690298881192e-03
4.138119897075e-03
2.292437587727e-03
5.849140828973e-03
1.853697180041e-04
2.448985812848e-03
3.130150269506e-03
3.550843563428e-03
2.957877931277e-03
1.876075245636e-03
3.442132234492e-03
3.806568376354e-03
3.777536702449e-03
4.965844843458e-03
1.161492389179e-03
3.317749060185e-03
3.622478808600e-03
2.112089838123e-03
3.317999481308e-03
4.153535609678e-03
4.505816054949e-03
6.237202834362e-04
0.0
1.573012222717e-03
3.691965033318e-03
1.969230988537e-03
1.898292932230e-03
1.294352397267e-03
3.753016074334e-03
4.366198405172e-03
3.768697917664e-03
1.871438903480e-03
4.121048902823e-03
3.672677354322e-03
4.305538666813e-03
3.830322098392e-03
3.828543141580e-03
1.984443132618e-03
2.202423137924e-03
3.907189118964e-03
4.304428646692e-03
4.049985857339e-03
2.152295599124e-03
3.904305982153e-03
2.181745308855e-03
1.601820863611e-03
4.956049478681e-03
1.401476559850e-03
2.111889315513e-03
3.321047263052e-03
2.268346872781e-03
3.969667780703e-03
1.889119106674e-03
3.396365532197e-03
3.971070620537e-03
2.946304068913e-03
3.537025974587e-03
1.811375157662e-04
5.205294236013e-03
2.387586220924e-03
4.665614783562e-03
3.968807703245e-03
4.049703598051e-03
4.107544981389e-03
1.695791505847e-03
1.026663475019e-03
1.642477002780e-04
4.189723483469e-03
4.659166707092e-03
2.346343365981e-03
4.226192121581e-03
2.191228217425e-03
4.314363055978e-03
5.445403603490e-03
0.0
5.877232482387e-03
5.753927133567e-03
3.517916756623e-03
2.567108847699e-03
3.885798105456e-03
1.761253100682e-03
8.753437067106e-04
5.824479928858e-04
5.430593790634e-03
4.272773126407e-03
3.281421806576e-03
5.755399577457e-03
1.584674166795e-03
5.735458500835e-03
4.260634587508e-03
2.681067374150e-03
3.703032091483e-03
2.313425682848e-03
1.747876205062e-03
2.269306335304e-03
4.472296584069e-03
5.084185534072e-03
2.122483088170e-03
4.416764738030e-03
0.0
1.927997949303e-03
4.734679441239e-03
2.334640526172e-03
2.293466231138e-03
3.672079540127e-03
1.427206149762e-03
1.708336649171e-03
1.861547325864e-03
2.108699433634e-03
3.250126257064e-03
3.062054677212e-03
4.401537229797e-03
5.307742241175e-03
1.980497234217e-03
4.592105580899e-03
5.228738582180e-03
1.508615138678e-03
1.258398003978e-03
2.320259230208e-03
3.145384584978e-03
4.507488684930e-03
3.013439603112e-03
1.036494360999e-03
3.559288459622e-03
1.877421539577e-03
3.009312651742e-03
3.329936939808e-03
3.782961951353e-03
4.184693822016e-03
2.263846250652e-03
1.320964814853e-03
3.656275706454e-03
1.881021925859e-03
0.0
5.409655559408e-03
5.162683398980e-03
2.729094268368e-04
3.875711687704e-03
1.849949503547e-03
1.815075747793e-03
4.705943890402e-03
3.753312262213e-03
4.510634549489e-03
2.148267383418e-03
3.276008673573e-03
5.353793394855e-03
1.533498694127e-03
4.496561684191e-03
3.235629882712e-03
1.109441694527e-03
4.399839461738e-03
2.050705679004e-03
7.682699673756e-04
1.606426913977e-03
4.404965734731e-03
4.489139406804e-03
1.520865044627e-03
3.643992042795e-03
4.612769071813e-03
4.502280914076e-03
2.204419621287e-03
1.846579794431e-03
3.359329712729e-03
4.124746711535e-03
7.891390788467e-04
5.560751100390e-03
5.548964266607e-03
3.671227968295e-03
5.630388145665e-03
5.535998868057e-03
2.170965590618e-03
2.370185578734e-03
5.368043001177e-03
0.0
1.709110066567e-03
3.659126116834e-03
2.387294836944e-03
1.879148258664e-03
1.458848135816e-03
1.621284849436e-03
3.747506275773e-03
1.892131702059e-03
1.979788942566e-03
4.392042265884e-03
5.804343183406e-03
5.787944820255e-03
2.351876001022e-03
3.390799711467e-03
0.0
1.230366790518e-03
1.463542949792e-03
1.380432272447e-03
3.535543274713e-03
2.106380670562e-03
2.153393122630e-03
5.222734221172e-04
5.154439084150e-03
2.367565598648e-03
5.388275058918e-03
4.954992804617e-03
6.024570796398e-03
5.886693922548e-03
3.753433328928e-03
2.527170991278e-03
1.725379432797e-03
2.498420104998e-03
5.703744763384e-03
9.120404607057e-04
1.119100263323e-03
4.692417281221e-03
3.538901703328e-03
5.427938698995e-03
4.594213998741e-03
4.821231617115e-03
4.878843592402e-03
3.720203756123e-03
2.190074141244e-03
2.006325653896e-03
4.404135688044e-03
4.687878422867e-03
3.117837671459e-03
3.529702774384e-03
3.752961490192e-03
3.830800216791e-03
4.743220089301e-04
1.891519218785e-03
5.771465514508e-03
4.089532321688e-03
5.391930956668e-03
5.395352371543e-03
4.403465603732e-03
5.428295798469e-03
2.711349306453e-03
2.579117857356e-03
5.122665484976e-03
0.0
1.840758435860e-03
5.616042079043e-03
8.237432765106e-04
3.385098086166e-03
5.098464473505e-03
5.994795909040e-04
3.983112400915e-04
5.989580935828e-03
3.133104392698e-03
5.665785838847e-03
4.960111850706e-03
3.124857482388e-03
0.0
5.632893496604e-03
9.982363891210e-04
5.455855807356e-03
5.714313673249e-03
5.360106047106e-03
8.140468256158e-04
3.782530279231e-03
2.880362090628e-03
4.355508239889e-03
5.671711904199e-03
4.776155304540e-03
5.663484683731e-03
0.0
5.589551347142e-03
1.512890600852e-03
7.914478455334e-04
5.397054391263e-03
5.743402050252e-03
5.733536642357e-03
3.426595864351e-03
3.717007925183e-03
1.646038233533e-03
5.655472529231e-03
2.339881504149e-03
8.036133470504e-04
4.521262599813e-03
3.249064134649e-03
5.466053350078e-03
5.951132079152e-03
5.885235530218e-03
4.854921181183e-04
3.182268852091e-04
3.189601210708e-03
3.264417416490e-03
5.744673122169e-03
5.821030348919e-03
4.049503436329e-04
0.0
5.287127657436e-03
5.147388720085e-03
1.173728759617e-03
5.308389383186e-03
3.861412420017e-03
3.447396140137e-03
4.313090326591e-03
1.487039342624e-03
4.054223007771e-03
9.352616087626e-04
3.085786119638e-03
5.355845819130e-03
5.346807489972e-03
3.320434685778e-03
3.970741636665e-03
5.313594699532e-03
4.970757498224e-03
4.685070856500e-03
3.121604600955e-03
3.851714109814e-03
5.392942080288e-03
1.774965986013e-03
4.406585063081e-04
5.044417363226e-03
4.474595389771e-03
1.114377206921e-03
4.510176921097e-03
5.486912845254e-03
4.947561165270e-03
5.266766084571e-03
4.198063581823e-03
0.0
1.470518372103e-03
1.753101937549e-03
3.631135606701e-03
3.881045925371e-03
5.513487264780e-03
5.223998920856e-03
1.020852490991e-03
8.247746946980e-04
1.369961284446e-03
4.515742145024e-03
2.251628283077e-03
5.512574297706e-03
1.101239483144e-03
4.944710226892e-03
3.686457503037e-03
5.316904859013e-03
4.584108386174e-03
3.633631005452e-03
5.441228742427e-03
5.760973095862e-03
5.768457653903e-03
1.076429508706e-03
5.403578302253e-03
5.433000637951e-03
5.028809833893e-03
4.690494387880e-03
5.655330995816e-03
4.686381379503e-03
0.0
1.396280660218e-03
5.170660034106e-03
3.932337476204e-03
5.342833454285e-03
4.884276764452e-03
5.447158665415e-03
4.847067005331e-03
5.305854444718e-03
5.181492536697e-03
5.139590615884e-03
2.342515450525e-03
5.825123485814e-03
3.511800923746e-03
5.448173838807e-03
7.428025292534e-04
5.262596336557e-03
4.547206860874e-03
6.035790654862e-04
8.086025518277e-04
4.796988799160e-03
5.631992981559e-03
5.519397513834e-03
5.310091205385e-03
3.912116890080e-03
3.336829723450e-04
7.216677684817e-05
3.636648382109e-04
1.164636641950e-03
0.0
3.057585890836e-03
5.327921971227e-03
5.411971840112e-03
3.914684461503e-03
2.701530490713e-03
5.213565150943e-03
5.007366373899e-03
5.467264405238e-03
5.207424473042e-03
5.074998992932e-03
6.015575377216e-04
0.0
5.376601054342e-03
4.998770260557e-04
7.354796995695e-04
4.650576109338e-04
6.246802752465e-04
5.332466837785e-03
5.508668632613e-03
5.527152150685e-03
5.370182133116e-03
4.813648012505e-03
4.090345476850e-03
5.872497858860e-03
1.688844706779e-03
3.242062731608e-03
1.296527781915e-03
2.048831776387e-04
5.850745223492e-03
3.550974671321e-03
8.641995463890e-04
2.926275799080e-03
5.656777809006e-03
5.503877635999e-03
5.618051296971e-03
2.129346423962e-03
0.0
5.566911874099e-03
6.011875443670e-03
5.902551827901e-03
3.412317331757e-03
4.981747800379e-03
7.975484814361e-04
5.534656444521e-03
1.991551371557e-04
5.305266967479e-03
5.730842396305e-03
0.0
4.981060490428e-03
4.675346069498e-03
5.654646432844e-03
5.577265656584e-03
4.298496663279e-03
5.550848395389e-03
5.494928221657e-03
4.409266495861e-03
5.352947711999e-03
2.479552746464e-03
3.115289873894e-03
5.217348424536e-03
5.739897385503e-03
2.772364453178e-04
3.124201721815e-03
5.632614020689e-03
1.101480850632e-03
5.091661295346e-03
5.450633370530e-03
5.763755232995e-03
1.048262864143e-03
9.819337037052e-04
3.563851573438e-03
5.043841388328e-03
0.0
5.651156742465e-03
4.142985444651e-03
1.530326117569e-03
3.945008028744e-03
5.471691496627e-03
3.728983518662e-03
8.239399667717e-04
2.244711810372e-03
3.243419354848e-03
3.838568504311e-03
5.141366330765e-03
3.163902532595e-03
3.328394715870e-03
5.059368158880e-04
5.311799105867e-03
5.084872395273e-03
7.504975414657e-04
5.677168446605e-03
5.592115835301e-03
3.482521557627e-03
4.251403145156e-03
3.187364706085e-03
3.251257493807e-03
3.439701907309e-03
4.794833467625e-03
1.169016289084e-03
5.320349723071e-03
3.618781519640e-03
5.751198579347e-03
4.781103524799e-03
4.050232424032e-03
5.211038119852e-03
5.105861927613e-03
5.449330151016e-03
7.104254593759e-05
5.217846714948e-03
5.418217703554e-03
5.880291415762e-04
2.994215514378e-03
2.729319316387e-05
5.459819003966e-03
2.952964194819e-03
2.821859864007e-03
2.991596827692e-03
2.833511162691e-03
2.996758346163e-03
2.839990296122e-03
3.006645179008e-03
2.831291115803e-03
2.995872769527e-03
2.837184649027e-03
3.005449104704e-03
2.838583631022e-03
3.016774272030e-03
3.001904421592e-03
2.851312415787e-03
2.832771918756e-03
3.009442756207e-03
2.842210225621e-03
3.000234049433e-03
2.844919680408e-03
3.009082672670e-03
2.844437144164e-03
2.872310885887e-03
3.011912840164e-03
2.842005763748e-03
3.004113999591e-03
2.837696132236e-03
2.839675268708e-03
3.003734450339e-03
3.017107183080e-03
2.932857225621e-03
2.812800948345e-03
2.957508157439e-03
2.875589959643e-03
2.947488772035e-03
2.848489924599e-03
2.817296966531e-03

SCALARS element_materi_plasti_phimob float
LOOKUP_TABLE default
1.823706622578e+01
1.598650945415e+01
2.024083606545e+01
1.677244564258e+01
-5.129044533777e+00
2.689626765093e+01
-4.804989528756e+00
1.793460662479e+01
-4.216480823825e+00
1.671271434833e+01
2.028425494413e+01
1.686428043581e+01
2.069700562940e+01
2.116265374618e+00
2.064165376065e+01
1.727903490544e+01
-6.903155672501e+00
2.472725680548e+01
1.107599212299e+01
1.094330706635e+01
1.666428090441e+01
1.496518165665e+01
1.691052572841e+01
2.250650834841e+01
7.825450480469e+00
2.044788610362e+01
-4.062308684662e+00
2.278263648532e+01
8.951638384446e+00
2.230534196292e+01
2.146495832599e+01
-1.841202892231e+01
1.984689621342e+01
2.065961633416e+01
2.127499736453e+01
2.084586388106e+01
2.079070515090e+01
2.258920457259e+01
-1.589620023647e+01
-1.591429411853e+01
1.658695579058e+01
2.115084955195e+01
1.803551187093e+01
-2.618733773186e+00
1.612710492892e+01
1.911813728823e+01
2.539795515426e+01
1.636504103852e+01
1.598329304911e+01
-7.267549225864e-03
1.698579910813e+01
1.325624368274e+01
2.693476261203e+01
1.358121718598e+01
1.868124851488e+01
1.590237850393e+01
1.347887394366e+01
2.072311770704e+01
6.543985155460e+00
1.724522686698e+01
1.177240721751e+01
2.329174972886e+01
2.161786696735e+01
2.594030854879e+01
2.074051747064e+01
1.407942646265e+01
1.550813248809e+01
2.016544303120e+01
7.816634296274e+00
2.169123403226e+01
2.060008249681e+01
1.913239599492e+01
2.230854751629e+01
-8.137205621189e+00
1.630045686038e+01
1.697134934210e+01
1.844765312064e+01
1.989929218287e+01
5.461416740511e+00
1.969235020367e+01
8.812478929543e+00
-7.573433882410e+00
1.761194735193e+01
1.534083105747e+01
-1.119165233909e-01
-4.195898492704e-01
2.059069394261e+01
2.066331274738e+01
1.775092385466e+01
-4.818328380897e+00
-2.057836350290e+01
1.335194362288e+00
1.277886987928e+01
1.229936711302e+01
1.824291412983e+01
2.195667217839e+01
-6.659957762484e+00
2.164992783979e+01
5.696426820855e+00
2.002383197299e+01
-9.813259201820e+00
2.069299586008e+01
2.464384472683e+01
2.299881268083e+01
2.351295610789e+01
1.755327066508e+01
2.069997363967e+01
1.401570080070e+01
1.962773571089e+01
2.066071346258e+01
1.774990715493e+01
-2.153292230120e+01
2.647366879853e+01
8.514956352167e+00
1.805160171645e+01
1.960340336526e+01
2.198382010007e+01
2.105383459817e+01
4.051667052663e+00
2.239209210019e+01
4.656439519028e+00
3.121123204817e+00
1.424527347048e+01
2.268384694313e+01
2.216477599577e+01
1.502701566735e+01
1.786119176798e+01
1.185951421281e+01
1.761336429990e+01
2.504425363713e+01
2.051571776518e+01
1.681637249134e+01
1.897036619208e+01
1.625763479591e+01
2.146846547770e+01
2.067996990427e+01
2.069146147771e+01
1.903605549734e+01
2.203713970328e+01
1.692759547510e+01
1.721649454499e+01
2.192721762039e+01
3.187769642703e+00
9.772440155327e+00
1.838026125450e+01
1.289181307942e+01
1.970402332462e+01
2.491553430621e+01
-8.157772017801e+00
2.678167413851e+01
-2.183617716029e+01
-7.394018507872e-01
7.157634276839e+00
1.131317370814e+01
2.131835382377e+01
2.311264706988e+01
2.066050738304e+01
1.824748420738e+01
2.490880631394e+01
-7.243101352861e+00
2.738661242690e+01
2.071903799761e+01
5.174116190495e+00
2.073185760984e+01
1.130234220604e+01
2.091790988509e+01
-7.788378947847e+00
2.507033487772e+01
5.988559300887e+00
2.035139023894e+01
1.820073211541e+01
2.769443949733e+01
1.117554208849e+01
-8.021167179257e+00
2.597411848285e+01
9.529059536464e+00
2.108808807268e+01
1.862695012553e+01
2.215055071736e+01
2.209168208876e+01
1.864552251111e+01
1.863748619433e+01
2.341677988506e+01
1.701117650695e+01
1.715801371686e+01
8.420741391806e+00
2.567453771330e+01
1.717383266240e+01
1.661116922979e+01
2.071744145181e+01
1.990532617207e+01
2.863282201548e+01
1.755462254695e+01
1.060798682480e+01
1.487302679660e+01
2.373700848553e+01
-5.149627885783e-01
1.880994525301e+01
1.246759510070e+01
2.262497479647e+01
2.424835659982e+01
6.064703700273e+00
6.631436713827e+00
2.196849584925e+01
1.794109342483e+01
2.132212672870e+01
1.345446708606e+01
1.326066426261e+01
1.195793479676e+01
1.062934755224e+01
2.583992645666e+01
2.033919869490e+01
1.217649918929e+01
1.791843063489e+01
1.940287771774e+01
2.060809764406e+01
1.686499378706e+01
2.908572788781e+01
2.381213945216e+01
-8.720327759976e+00
2.822402402774e+01
2.378417045592e+01
-1.443429922398e+01
1.430662923623e+01
-2.023338067115e+01
-1.348656984210e+00
1.863993635273e+01
1.551451913042e+01
1.484780806489e+01
1.440943140928e+01
2.237478361837e+01
2.035418158797e+01
6.934890819395e+00
2.402319123721e+01
1.299740855131e+01
2.080385589135e+01
1.065672506502e+01
2.449686455232e+01
2.829752047599e+01
1.564847036050e+01
2.437423662013e+01
2.093296192445e+01
1.582743650589e+01
2.951540652538e+01
2.358665659700e+01
2.054404934584e+01
1.956508705305e+01
1.408300059737e+01
2.247234186894e+01
2.846607071356e+01
2.277742126250e+01
1.351008427293e+01
1.818996210913e+01
2.198346738016e+01
2.768574775321e+01
5.675423413407e-01
8.851355979629e+00
1.069642036136e+01
2.870646958956e+01
2.984390256092e+01
2.773414774389e+01
1.462929504104e+01
1.383720403722e+01
2.434369439174e+01
1.515825013702e+01
1.685579228681e+01
1.841487092436e+01
2.077356906488e+01
2.781700653958e+01
1.716749664199e+01
2.594743058359e+01
2.702749757712e+01
3.059976852642e+01
-2.131580051345e+00
2.883575610374e+01
2.902575155885e+01
1.548734510292e+01
6.285262578908e+00
1.157401213925e+01
2.995662393681e+01
2.560448993703e+01
3.067454995251e+01
1.447870335122e+01
-4.429899320259e+00
1.874936418328e+01
2.712945158011e+01
1.303663055539e+01
4.071328275588e+00
2.869585599980e+01
3.095257465259e+01
2.769822299029e+01
1.842520689042e+01
1.456463323014e+01
1.970931009668e+01
2.954997494479e+01
2.910141248846e+01
2.714518419107e+01
2.653654270572e+01
2.036058304643e+01
1.958779634504e+01
2.059655572381e+01
2.266167455492e+01
2.966695089485e+01
2.658778072200e+01
1.784354010362e+01
2.897370758075e+01
3.028341792187e+01
1.846606137223e+01
1.708116104113e+01
2.909589884036e+01
2.603649967389e+01
2.292369684109e+01
2.164659068131e+01
2.787624351885e+01
2.020528627307e+01
3.031315627344e+01
2.619213171194e+01
2.882285700528e+01
2.872826124334e+01
1.524638985288e+01
2.181504033944e+01
2.988124953294e+01
2.680786165202e+01
2.311401651947e+01
8.601163448887e+00
2.439081802950e+01
2.171943161369e+01
7.191084421463e+00
2.242441680849e+01
2.374996116133e+01
2.142173285867e+01
7.659589254545e+00
1.820965760702e+01
2.010657341115e+01
1.471929035559e+01
1.582962909442e+01
1.590483886440e+01
2.295327934960e+01
2.250364702616e+01
7.755886705846e+00
9.587225041788e+00
2.926992294603e+01
1.186429615747e+01
1.276512412216e+01
2.365804756289e+01
-7.442462798584e+00
2.609640441430e+01
2.953027627078e+01
1.557994227427e+01
2.442825947072e+01
1.497398727755e+01
2.685688706969e+01
2.472549857016e+01
2.236265342699e+01
1.629472706599e+01
3.165023930281e+01
2.193198764175e+01
1.862936062219e+01
2.098109601908e+01
1.771650186175e+01
1.992814213588e+01
1.744529132416e+01
1.409380423037e+01
2.204036307853e+01
2.268407263477e+01
1.756218792160e+01
1.465228422409e+01
2.439923867042e+01
2.142813706104e+01
3.045329730153e+01
3.034545555441e+01
2.100527669498e+01
2.614299741301e+01
2.051620540751e+01
1.679395383843e+01
3.036977999342e+01
2.386367193465e+01
1.715422399187e+01
2.320921222765e+01
2.093540804862e+01
2.020775053286e+01
1.871312860707e+01
2.423278189717e+01
1.503354497938e+01
2.173166122756e+01
2.995515923445e+01
2.923306357553e+01
1.901659001732e+01
-3.970352212196e+00
6.955947436036e+00
2.237361007314e+01
1.882584240547e+01
1.265201451945e+01
1.670404485074e+01
3.093877261720e+01
4.341757509286e-01
2.743867200900e+01
2.413719467930e+01
2.680598669956e+01
2.336666423705e+01
2.917660241304e-01
1.044316388547e+01
2.685776862403e+01
2.083748737598e+01
2.567938415090e+01
7.405385093648e+00
7.528588488933e+00
2.239004679988e+01
2.763936204656e+01
1.503626436806e+01
2.214073782047e+01
1.233009390920e+01
1.882954527640e+01
2.118977530614e+01
1.578434199688e+01
2.445682314302e+01
2.224354521046e+01
2.173991963391e+01
2.055673287575e+01
2.120539286275e+01
1.587847746940e+01
1.595238276816e+01
1.867978084171e+01
2.277682693184e+01
2.092213113095e+01
1.974558497374e+01
1.693391223505e+01
2.249851640503e+01
1.605186407563e+01
2.635813048233e+01
1.616101748208e+01
2.363046623809e+01
2.462924606001e+01
1.801854931063e+01
2.621130071927e+01
1.770735788767e+01
2.362206436042e+01
2.212833562386e+01
2.030639778453e+01
2.395133352547e+01
2.154233580486e+01
2.593509016815e+01
2.191595949820e+01
1.910550179954e+01
2.056483673238e+01
-1.750805272001e+01
2.204391720689e+01
2.172372268627e+01
2.680401654513e+01
2.611054389658e+01
2.228654879600e+01
-5.504683219747e+01
2.430192078226e+01
1.949140265942e+01
2.162976916339e+01
1.904975082601e+01
2.532978211041e+01
2.199507102345e+01
2.942699377830e+01
2.681508543428e+01
2.116249433441e+01
-1.866742540261e+01
1.569553604806e+01
2.301388866604e+01
9.110325307973e+00
2.188167056356e+01
2.181060230844e+01
1.479673519482e+01
1.735155746890e+01
2.641504348526e+01
1.760786579191e+01
2.197424123196e+01
-2.739497458153e+00
8.992622864492e+00
2.157946916791e+01
-4.639862175253e+00
1.931214101050e+01
2.390448284185e+01
4.610835698596e+00
2.061689399189e+01
2.642079775740e+01
2.707400068273e+01
2.132380614107e+01
2.148945066561e+01
2.090416509989e+01
2.362214031098e+01
1.896493545969e+01
2.505736682353e+01
2.380461071386e+01
2.110195447670e+01
2.786272613909e+01
2.981168692772e+01
2.847768426367e+01
6.841239715724e+00
2.148978889557e+01
1.108237707870e+01
2.090676520342e+01
2.711253852588e+01
2.202294065508e+01
1.874891502545e+01
-6.053541692767e+01
2.554574593954e+01
1.556543981644e+01
2.204780495276e+01
1.665668032738e+01
2.420012346151e+01
2.440087193838e+01
2.241653608200e+01
2.565056322154e+01
2.632640872234e+01
1.289998700705e+01
2.191228661024e+01
2.914562008409e+01
2.326599449864e+01
2.442821276898e+00
1.946764371529e+01
2.765725785113e+01
1.771868529938e+01
2.145384197859e+01
1.943678376459e+01
2.364902365101e+01
2.374629573082e+01
2.549507737701e+01
2.867042453038e+01
2.397776921873e+01
2.318832736051e+01
2.231481352049e+01
2.568115056480e+01
2.470010822281e+01
2.154655977386e+01
2.673422374905e+01
1.940319144904e+01
2.400486793029e+01
2.758942427068e+01
2.175789412546e+01
1.643444911251e+01
1.833622722110e+01
2.099323169641e+01
2.254091662948e+01
2.721472926272e+01
2.623513785345e+00
2.142369382606e+01
1.704445492955e+01
2.506387681352e+01
2.077631579158e+01
2.341203451543e+01
2.003214357289e+01
1.021783246646e+01
2.749584374010e+01
2.373923757564e+01
2.556015292918e+01
1.306112375957e+01
1.779931743733e+01
2.522812799289e+01
5.061375500651e+00
2.071617757156e+01
2.611469311892e+01
2.356515682942e+01
2.164174571170e+01
-5.207384310482e+01
2.574594916391e+01
2.471570411607e+01
2.092100756949e+01
2.636570052009e+01
2.410996576752e+01
5.219814137376e+00
2.263261559509e+01
2.072789890513e+01
2.024236577069e+01
2.070591993214e+01
2.124565937424e+01
2.037768197519e+01
-4.381267014411e+01
1.120016988146e+01
1.818686544558e+01
8.930406200387e+01
2.007866311926e+01
2.368906736933e+01
1.468635488433e+01
2.614794519765e+01
2.625173814878e+01
6.353344631486e+00
-1.187641842732e+01
1.804195654363e+01
2.222012245519e+01
8.999999999681e+01
7.000019393083e+00
-9.641547894470e+00
1.700890177746e+01
2.112665621488e+01
1.463142774304e+01
2.220575863014e+01
1.745546203777e+01
2.124490481204e+01
2.310772526151e+01
2.921265009859e+01
1.810295393925e+01
1.652507058674e+01
2.131285240829e+01
2.068679488822e+01
1.884657893592e+01
2.024966771546e+01
2.402194409829e+01
2.300180395130e+01
8.773516566399e+00
2.320612498186e+01
3.118055200954e-01
1.975092906217e+01
2.100705269005e+01
-1.528136237554e+01
1.840954763420e+01
1.641772699065e+01
8.999999999681e+01
-9.235859246230e+00
-9.448729340021e+00
2.549245355867e+01
1.653760923350e+01
2.365439883155e+01
2.328928560586e+01
2.153483502190e+01
2.199573107173e+01
1.353016395629e+01
2.095563593004e+01
-4.205836070763e-01
1.624542811883e+01
-1.578419638268e+01
-1.835463141873e+01
8.714901578998e+01
-1.613845552374e+01
-5.578434546116e-02
1.404597627221e+01
-1.522520762459e+01
1.923996545364e+01
2.953261047876e+00
1.645589606484e+01
8.428950406763e+00
-1.561020892120e+01
2.066815084739e+01
2.350018143839e+01
4.989903638642e+00
1.709618222254e+01
1.271297461846e+00
1.847077606272e+01
1.794345272932e+01
1.624918681121e+00
-1.486586525534e+01
1.718917052388e+01
1.783514851444e+01
1.557562964862e+01
-1.316734649010e+01
-1.331353543415e+01
1.149512410783e+01
2.022268977887e+01
1.783391812558e+01
-1.608271949147e+01
8.621949119064e+01
3.126033205101e+00
2.163199393046e+01
2.070154281108e+01
9.787692649882e+00
1.351035978559e+01
-1.870040116831e+00
2.559406053315e+01
-2.882963852750e+01
1.346598052007e+01
2.558991961060e+01
2.085892764611e+01
8.190355255016e+00
1.791227845452e+01
-1.460805287608e+01
2.105116593473e+01
1.798026390114e+01
1.777056337539e+01
-1.706139284279e+01
2.547779927222e+01
1.830866604026e+01
2.415639165252e+01
9.632827670323e-01
-1.513242270150e+01
-1.499942475158e+01
1.801887605136e+01
2.074259674115e+01
1.681765355349e+01
8.614180961547e+01
1.912497196540e+01
2.056344622235e+01
2.079896281200e+01
2.125306673492e+01
1.161169717389e+01
1.432822327280e+01
2.055158051452e+01
2.056190461803e+01
1.351662486019e+01
8.615261732365e+01
-1.901506398172e+01
-1.792638283210e+01
8.614166282031e+01
2.058651185779e+01
2.118339526647e+01
2.060170972598e+01
8.751179659159e+01
8.937462397353e+01
2.065229791800e+01
2.062695195834e+01
1.044375928712e+01
-1.954467831763e+01
1.262438073089e+01
2.783513096827e+00
-1.916020452432e+01
8.999999999681e+01
-6.100549201888e+01
-6.153829645007e+01
-6.127390136028e+01
1.944095447254e+01
1.878789187825e+01
-5.630381897931e+01
2.041044532763e+01
-5.629562550090e+01
1.947322701260e+01
1.818083759375e+01
1.865967762708e+01
9.261301797408e+00
1.586772953347e+01
1.808051597338e+01
2.069869827993e+01
1.808306894870e+01
2.070709265945e+01
2.067653770658e+01
1.842043046645e+01
1.776714438089e+01
1.780312093131e+01
2.068871354850e+01
2.068664281580e+01
2.077847987003e+01
-2.543920315238e+01
1.915525998813e+01
-1.721842683971e+01
2.136248894955e+01
2.017867422516e+01
2.108844470514e+01
1.297300177053e+01
-3.256624139431e+00
2.090746744773e+01
1.968391910686e+01
1.771172043774e+01
2.095239337534e+01
1.558396524681e+01
1.758916450034e+01
2.326224345952e+01
2.238170856461e+01
2.095561184088e+01
2.083930413549e+01
3.019751809933e+01
1.740804267996e+01
2.595344871417e+01
2.136144764637e+01
2.084826848766e+01
2.076464744005e+01
1.517025471526e+01
1.545162011799e+01
1.401909469489e+01
-2.794969228506e+00
2.164428218653e+01
2.113518333205e+01
1.558588611161e+01
1.484591692015e+01
2.222804289776e+01
2.079283728250e+01
1.358203287093e+01
2.067316431551e+01
2.113581198222e+01
1.544202940549e+01
1.089463061634e+01
2.312688030648e+01
1.327083895058e+01
1.487518741374e+01
-1.191846901332e+00
-2.536076238036e+00
1.481511523353e+01
2.080853857679e+01
-1.278655221306e+01
1.771744255624e+01
5.213478831833e-01
2.109650847355e+01
2.085246546710e+01
2.259004744527e+01
2.076973375603e+01
-2.644038157478e+00
2.540874263231e+01
2.099636052163e+01
1.305288900896e+01
2.140635887209e+01
1.216329456512e+01
1.422720344931e+01
1.702758912127e+01
2.002260919366e+01
7.594054337084e+00
1.833619946158e+01
1.324544301339e+01
9.737466971272e+00
2.054657437639e+01
2.073111722869e+01
2.084700000275e+01
1.219362648089e+01
1.093987172740e+01
2.002452244311e+01
2.408006261521e+01
1.298662296350e+01
1.943923771848e+01
2.186429875270e+01
2.165473605116e+01
1.089700820784e+01
2.430834889201e+01
-4.493944343383e-01
3.049157709350e+01
2.094140773220e+01
9.406093698270e+00
2.017708941546e+01
3.299980289698e+00
2.278464814137e+01
2.043977995041e+01
2.097021110765e+01
1.344574986724e+01
2.128333497654e+01
2.019900640065e+01
1.438956229502e+01
1.975645940591e+01
1.849178683126e+01
1.615524860826e+01
2.033439436699e+01
-5.498563224958e+01
-5.479473993003e+01
2.090197302015e+01
1.237208195538e+01
2.130900129908e+01
2.155975738275e+01
2.049684011976e+01
2.233044828151e+01
1.444202282606e+01
2.679708872487e+01
1.868997661786e+01
2.265416957143e+01
1.028919051204e+01
6.043404264143e+00
8.051886645359e-01
9.162320371350e+00
2.200153655825e+01
1.158350346904e+01
1.207166490792e+01
1.508099434765e+01
1.516976676897e+01
1.361406048047e+01
2.064330509522e+01
1.400255530917e+01
2.094382884072e+01
2.037698380167e+01
1.699155135381e+01
1.450362341407e+01
2.110656957398e+01
2.136566149056e+01
1.070428865717e+01
2.113959684750e+01
1.159227691753e+01
2.017781470694e+01
9.423396808321e+00
1.272701511128e+01
2.845978541568e+01
1.379422427098e+01
1.956329242830e+01
2.018519952172e+01
1.765250741482e+01
2.011383882042e+01
1.055857858653e+01
2.312090417535e+01
1.487555733978e+01
3.414149836887e+00
1.055816097249e+01
1.493495127094e+01
2.148392800407e+01
1.188398242917e+01
2.129830059143e+01
2.163893794824e+01
1.917849544716e+01
1.347611551092e+01
5.795833750476e+00
2.154130878772e+01
8.080554819526e+00
-1.622703958489e+00
1.793788192188e+01
1.220497218867e+01
7.661238772926e+00
1.811421690659e+01
2.198166520846e+01
1.753344415438e+01
1.398101742015e+01
1.690207732267e+01
2.207001580866e+01
1.391543241843e+01
2.183858763612e+01
1.983142138623e+01
2.156499729281e+01
3.029143577153e+01
1.198166450204e+01
4.042067191466e+00
2.495251085107e+01
2.339480210495e+01
8.081993905090e+00
1.718237179804e+01
8.681755862731e+00
1.099699439638e+01
2.165187359917e+01
2.494415215298e+01
2.499208077035e+01
1.587428519837e+01
2.315900802855e+01
1.053702970690e+01
2.260174366134e+01
2.183881218454e+01
2.166553292138e+01
2.129530847689e+01
1.185742335091e+01
2.396321658561e+01
2.219006578432e+01
2.945755756563e+00
1.529762602657e+01
1.771086824949e+01
2.417222644700e+01
2.188703457376e+01
2.077214600706e+01
2.507506574250e+01
1.024356644805e+01
5.944672619995e+00
4.864459420399e+00
2.002156443162e+01
2.238868223932e+01
2.307830872637e+01
3.488022630220e+00
1.857430656089e+01
2.451909688413e+01
2.226719939128e+01
1.276830218311e+01
1.991669389081e+01
1.881474338555e+01
1.108221899214e+01
2.290516047997e+01
1.887686671809e+01
9.042108632260e+00
7.278371543521e+00
2.784490260824e+01
1.802794737841e+01
3.060826602287e+01
1.817774817636e+01
1.948075144290e+01
1.225588938747e+01
2.282813021262e+01
2.312556217969e+01
1.373799107815e+01
2.409569628583e+01
2.322153769470e+01
2.346257687697e+01
2.659766449374e+01
1.246518043642e+01
2.225222859050e+01
2.198017964712e+01
2.279344283080e+01
2.077205797610e+01
2.339828025338e+01
8.980684243827e+00
1.980384257294e+01
2.476812399522e+01
1.666933273535e+01
2.011071298629e+01
2.099710423015e+01
1.566911431316e+01
1.454447049917e+01
2.259878637706e+01
2.271063326110e+01
2.217366619295e+01
-5.803501108867e+01
2.670466421529e+01
2.492999154496e+01
2.201267770882e+01
7.107669197591e+00
2.338447003105e+01
1.729388251856e+01
2.201477613261e+01
1.303752719258e+01
1.714612521117e+01
2.548659907411e+00
8.495781779693e+00
2.118357891047e+01
1.963203528753e+01
2.575648295510e+01
2.293716390481e+01
1.339482084000e+01
9.238966484223e+00
5.243159691099e+00
1.559720284729e+01
2.321687492590e+01
2.269031593297e+01
1.320508726609e+01
1.436061048305e+01
2.171344702207e+01
2.817564405994e+01
2.275425211382e+01
1.762827881291e+01
2.159027849003e+01
2.803631109914e+01
2.865744058070e+01
1.318971384575e+01
1.941890987948e+01
2.359572594150e+01
2.445847608031e+01
1.628449927064e+01
2.413237645185e+01
2.529206815319e+01
2.724876419221e+01
1.878734038021e+01
2.531283137409e+01
1.030002530208e+01
2.813757627500e+01
2.270481866654e+01
2.120246236914e+01
2.249809224225e+01
2.488969284063e+01
2.153616956714e+01
1.923416253411e+01
1.896177211196e+01
1.478044070834e+01
1.551328354189e+01
2.550306974513e+01
2.651676322422e+01
1.603967068065e+01
2.366749931614e+01
1.438677176690e+01
1.712020298991e+01
9.430793527281e+00
2.327647900458e+01
1.531016601255e+01
2.482362599973e+01
5.316631737478e+00
1.346804872871e+01
2.597995049410e+01
2.714913084970e+01
1.583619844847e+01
2.248993360306e+01
1.145648136482e+01
2.498771647206e+01
1.991534826590e+01
1.254709434843e+01
2.257050023715e+01
2.213545938693e+01
2.251602092678e+01
5.492225639462e+00
2.575046692663e+00
2.373979322403e+01
2.296404353655e+01
2.313210946080e+01
6.492206876573e+00
3.077834764125e+01
2.828705588754e+01
2.686801159134e+01
2.562487570706e+01
1.636111483826e+01
1.766520576722e+01
1.523366741435e+01
1.998117785100e+01
1.391023428538e+01
2.245815246490e+01
1.582827144720e+01
1.158572400450e+01
2.239954581892e+01
2.893906973204e+01
1.249728686349e+01
1.507842854238e+01
1.255802031934e+01
1.140559843096e+01
2.226616643250e+01
2.355022099496e+01
2.271207432599e+01
2.285166105283e+01
1.340696489802e+01
2.461232572457e+01
1.284097244596e+01
1.446616063959e+01
2.725466487352e+01
2.689801107776e+01
2.645304882057e+01
3.126039617732e+01
2.802729858768e+01
2.575061891243e+01
1.644458017875e+01
2.278994622601e+01
8.949963842935e+00
-1.051120062202e+01
2.749327320472e+01
2.265679458758e+01
2.474941295369e+01
1.776226344186e+01
2.796777758617e+01
2.288873586196e+01
8.842590356287e+00
2.450961489792e+01
2.526371751811e+01
2.668555893542e+01
1.662446675815e+01
2.265846347799e+01
2.562059961368e+01
2.278133642841e+01
2.263054961779e+01
2.572894694458e+01
1.255012564256e+01
2.358502522877e+01
2.233420621671e+01
2.229584900963e+01
1.025195496433e+01
2.341182817186e+01
1.347921044885e+01
2.647769530783e+01
2.803653540400e+01
2.105791152494e+01
2.981401671170e+01
1.436491466516e+01
1.525669918678e+01
2.002991198163e+01
2.335330225011e+01
1.592157751501e+01
2.258283844906e+01
2.324888232591e+01
1.142288561231e+01
2.160546531086e+01
2.936918886498e+01
2.687318813905e+01
1.446171989678e+01
2.562909110581e+01
2.129896456918e+01
2.722524326418e+01
1.865588218450e+01
1.798365406293e+01
2.186423328544e+01
2.963884636865e+01
1.064291901457e+01
3.100596386309e+01
2.223200381739e+01
1.839135829125e+01
1.675871996391e+01
2.536682128812e+01
2.514981304524e+01
2.384610138817e+01
2.403254891245e+01
1.359780123583e+01
2.341634008986e+01
1.009645615077e+01
1.785109260972e+01
1.358968036343e+01
1.460050564502e+01
2.872815690898e+01
2.182576436342e+01
1.270380641202e+01
2.784031468375e+01
1.562083679909e+01
2.280768731913e+01
3.158237933312e+01
1.616081253604e+01
2.450533201963e+01
1.124551199445e+01
2.577097063623e+01
2.497193988982e+01
1.599156065054e+01
1.682804678664e+01
2.504313337290e+01
1.435330147892e+01
2.905668969053e+01
2.226517124755e+01
1.414131248420e+01
1.981009487284e+01
1.425041057144e+01
1.967923279073e+00
2.831271954819e+01
-3.723567505239e+00
2.578780726360e+01
2.739498493966e+01
2.740737948894e+01
2.996486533354e+01
2.870289462122e+01
1.512826333423e+01
1.866455633275e+01
2.207639760014e+01
2.375930986608e+01
2.635154382100e+01
1.454413479302e+01
2.821513926514e+01
2.149967537486e+01
1.354119463817e+01
1.405899279048e+01
2.600996376268e+01
2.900060401213e+01
2.220484208242e+01
1.847495680313e+01
2.756526472317e+01
3.102180027901e+01
2.515516301299e+01
2.277854314847e+01
2.124096931957e+01
1.286703806722e+01
2.853078318343e+01
2.233741717965e+01
2.451538115568e+01
1.432263987605e+01
2.179705983823e+01
9.161485027958e+00
2.363616297694e+01
2.735997923330e+01
2.414088916874e+01
2.549901525339e+01
1.580279947597e+01
2.140021757334e+01
2.674746903402e+01
3.143153506208e+01
2.378244254311e+01
2.546186361413e+01
2.882304408591e+01
2.600310327696e+01
2.330492130841e+01
3.034018829665e+01
2.748189271264e+01
1.565063962291e+01
2.109962785461e+01
1.679024105047e+01
2.362282642556e+01
1.422401080953e+01
9.947706794312e+00
1.991967365409e+01
2.419412970880e+01
2.188340936840e+01
1.189113279435e+01
1.681554492480e+01
1.238841972075e+01
2.984541558011e+01
2.320236719649e+01
1.577070255782e+01
2.687382316340e+01
2.607346612291e+01
2.919854459288e+01
1.332435709573e+01
2.188502620284e+01
2.594531445555e+01
2.242314417583e+01
2.495114318944e+01
2.272972604823e+01
2.870169142996e+01
2.862688933296e+01
1.726816084140e+01
2.080613904659e+01
2.672651813117e+01
2.336363132477e+01
1.219907915470e+01
2.224404486339e+01
2.814884183953e+01
2.860253334462e+01
2.099827165208e+01
2.370578225140e+01
2.516985829355e+01
2.264120932577e+01
1.917234998001e+01
2.264124681837e+01
2.848084733466e+01
9.746337147288e+00
2.179433034670e+01
2.941388682027e+01
2.131164658212e+01
2.569659294817e+01
3.009594901900e+01
2.319662116924e+01
2.742603021698e+01
2.292605054227e+01
2.469498533893e+01
2.099066039254e+01
2.275350691540e+01
3.066670581076e+01
2.173675473347e+01
1.645392873078e+01
2.240775749632e+01
2.429092778548e+01
2.829591415961e+01
2.307854284979e+01
2.101478635389e+01
1.991330969750e+01
2.327287265471e+01
1.029545598339e+01
2.157206953365e+01
2.235390163576e+01
-1.954069039818e+01
-1.961467712827e+01
1.589474893212e+01
2.343955344634e+01
2.149044958247e+01
1.962883333871e+01
2.643418862498e+01
2.318519639794e+01
2.838156928256e+01
1.847132264566e+01
6.931586487301e+00
2.622895282655e+01
2.240044275703e+01
3.100993294003e+01
2.196098790908e+01
2.359519800480e+01
2.181796987268e+01
1.113042620908e+01
2.033287728533e+01
2.001216164369e+01
7.308813933709e+00
2.202495287832e+01
2.154110452930e+01
1.751712802494e+01
1.744285431253e+01
2.380613203994e+01
1.249729324915e+01
2.913151405808e+01
2.460763853668e+01
2.125963168590e+01
1.411267620967e+01
5.503301732814e+00
1.163574954661e+01
2.670003407511e+01
2.188270913726e+01
2.429694804737e+01
3.079958288628e+01
2.207915388764e+01
1.516971574631e+01
2.079779627973e+01
2.172083046680e+01
-7.766024635270e-01
2.437269526924e+01
2.406316170762e+01
-5.469083532109e-01
1.519375562437e+01
2.969932950104e+01
1.829079481132e+01
2.232237058258e+01
2.645241052613e+01
2.477094320342e+01
1.601371992683e+01
2.430541358448e+01
2.524980951437e+01
2.492521046088e+01
3.030353734722e+01
3.001285227446e+01
2.307982600460e+01
1.114201955034e+01
2.335416242813e+01
2.776888617179e+01
1.666976497465e+01
2.260160533261e+01
3.705302282976e+00
2.306096605041e+01
2.145451537445e+01
2.418110582629e+01
2.229450535134e+01
2.215992362894e+01
1.733081543162e+01
2.517248547615e+01
2.281198377680e+01
2.724562851707e+01
2.376839390997e+01
2.697045612890e+01
3.100311165076e+01
2.689802588989e+01
3.071141525270e+01
1.908228442008e+01
3.000225649041e+01
2.049835423576e+01
2.397767386897e+01
2.460614862401e+01
2.765107207040e+01
1.050943597681e+01
2.142134881509e+01
2.122292529680e+01
2.282788069340e+01
2.110675361705e+01
2.101964844184e+01
1.665138714193e+01
2.108428056769e+01
2.831971926787e+01
2.117911807499e+01
3.121384801839e+01
2.001662860633e+01
2.542456972570e+01
1.124080490658e+01
1.007611064245e+01
2.442126892618e+01
2.095612348120e+01
2.176970589902e+01
2.104795014904e+01
2.422276282771e+01
2.599187048506e+01
2.492146772905e+01
2.759579928155e+01
3.046259650565e+01
1.408904792309e+01
8.623237310982e+00
-1.946713290001e+01
2.433511155104e+01
2.766593916410e+01
2.306148886229e+01
2.076311670100e+01
2.678092058981e+01
2.093199249267e+01
2.920781453938e+01
2.339396340550e+01
2.466883226640e+01
2.457726578357e+01
2.313112849612e+01
2.139034372581e+01
2.195101521579e+01
2.671171176449e+01
2.140550451536e+01
2.746985433945e+01
2.484888743186e+01
2.752619229040e+01
2.198722569659e+01
2.084545174615e+01
2.738645175958e+01
2.660892238135e+01
2.104637894697e+01
6.337126312149e+00
2.153979338543e+01
2.166423380483e+01
1.227440851122e+01
2.016111884041e+01
1.981639435263e+01
3.460045306536e+01
2.009487596634e+01
2.616859472319e+01
2.065025270928e+01
1.494713826060e+01
2.812892816237e+01
2.460306483669e+01
2.386851857346e+01
2.594883789397e+01
2.000030503558e+01
2.769382299485e+01
2.131411203745e+01
2.086315705775e+01
1.718488661872e+01
2.401625468308e+00
1.302606747390e+01
2.060073697336e+01
6.178381038253e-01
1.349669453171e+01
1.176361781801e+01
2.054822212938e+01
2.862464482687e+01
2.749740876683e+01
2.977754363855e+01
2.126599947550e+01
1.549243159406e+01
2.072049581264e+01
2.964861133343e+01
2.150353004682e+01
-1.387235809810e+00
2.472345761370e+01
2.048353741494e+01
2.090583420842e+01
2.025770829868e+01
2.777385393967e+01
2.061227238850e+01
9.073655723435e+00
5.728894229711e+00
2.024472124748e+01
2.104993453701e+01
2.514216321805e+01
2.034958422812e+01
2.315516400607e+01
1.055039804949e+01
2.589213189850e+01
2.648424164245e+01
1.477558731566e+01
2.044943300253e+01
1.526140831644e+01
4.923275408658e+00
2.077660708876e+01
2.566285918610e+01
2.131613568843e+01
2.109694032658e+01
1.498663515411e+01
2.622108944567e+01
2.378940521045e+01
2.464447542661e+01
2.088309999938e+01
2.068146373295e+01
2.963430011585e+01
4.467536260229e+00
2.731944836274e+01
2.074916311308e+01
2.352367746539e+01
2.264561646235e+01
2.204264857936e+01
1.683748139889e+01
2.073186727110e+01
2.177034454461e+01
6.809963802638e+00
1.799330275794e+01
2.055640531317e+01
-4.983161176629e+00
2.438421124581e+01
2.435378474941e+01
2.935119029778e+01
3.847295772342e+00
3.011237385840e+01
1.596888943013e+01
1.462632654717e+01
2.743902065533e+00
2.245975221493e+01
1.367267647897e+01
2.242715035083e+01
1.408078959238e+01
2.256364637987e+01
2.493106651249e+01
2.480982439483e+01
1.971164159999e+01
2.340877723191e+01
1.664605703497e+01
2.075276215608e+01
2.698673461484e+01
2.134878427205e+01
8.900535210519e+00
2.872208375147e+01
1.585669565973e+01
2.118445941458e+01
2.095490925061e+01
2.507611808311e+01
2.260975461456e+01
2.056281582045e+01
2.323885589488e+01
1.994024994868e+01
2.528182508945e+01
2.716282041905e+01
2.158549848214e+01
1.991125286273e+01
1.653844272453e+01
1.162846540691e+01
2.192313622759e+01
3.034490058073e+01
2.085398263088e+01
1.787192163378e+01
2.491866860286e+01
1.969714853529e+01
2.592941853660e+01
2.439783210162e+01
2.483316943730e+01
1.927279286332e+01
2.710357925775e+01
2.546013582477e+01
2.527588592587e+01
8.109688604477e+00
1.885664179782e+01
2.178528320742e+01
2.494356863732e+01
1.846680077680e+01
1.553617143634e+01
1.619150753803e+01
1.499760179202e+01
-2.146961638987e+01
2.434370341769e+01
1.497645178872e+01
1.594554030624e+01
2.156858654929e+01
2.527499012938e+01
2.213006338142e+01
2.722276702526e+01
-1.921138547907e+01
2.107677369205e+01
1.302642454816e+01
2.387152118564e+01
2.646025344674e+01
9.985999409162e+00
1.831678958258e+01
2.896411116614e+01
7.158112387410e-01
2.927705813984e+01
2.057379900571e+01
1.694929347426e+01
9.336864995904e+00
1.985175538565e+01
2.074534935507e+01
2.404482144821e+01
2.178104145562e+01
1.527612619207e+01
2.662307889059e+01
7.280998922686e+00
6.036982135958e+00
2.238157303376e+01
2.010847548978e+01
1.239253834597e-01
1.705668642964e+01
2.097066501279e+01
2.771663551799e+01
2.531374632331e+01
2.261480123123e+01
8.969055896741e+00
1.444765550785e+01
2.011421129498e+01
2.045149411166e+01
2.713638774368e+01
2.272475122364e+01
2.471138001964e+01
-1.122322212953e-02
2.825170217837e+01
1.593393695547e+01
2.436167172891e+01
2.094122899282e+01
2.107176803319e+01
2.590265265844e+01
-6.957849235979e+00
8.236548422556e+00
2.602316456199e+01
2.270888571089e+01
2.444303226434e+01
2.589157715728e+01
2.441896255040e+01
2.636140202959e+01
2.327260152354e+01
1.529956976079e+01
2.413073053185e+01
1.602134104925e+01
1.400248704164e+01
1.775635027470e+01
2.071330131881e+01
3.008839346946e-01
2.325947170948e+01
1.944684481521e+01
2.388530486054e+01
2.058183116033e+01
2.752774417023e+01
2.613595252453e+01
2.365840268527e+01
-7.326322291230e+00
1.615510276368e+01
2.093735567809e+01
2.366676060199e+01
1.898858285821e+01
1.269697858188e+00
1.906640896382e+01
2.043376293907e+01
1.032289315756e+01
2.355509180656e+01
-6.494333458562e+00
-7.765810627615e+00
-2.202838830285e-01
1.694838845097e+00
2.766255207375e+01
1.803935763057e+01
1.709442648483e+01
6.436145489752e+00
2.220714644740e+01
1.982189494121e+01
1.886575476482e+01
1.646396006622e+01
1.875003322907e+01
1.819064516439e+01
2.164383206344e+01
1.755055555212e+01
1.490251857512e+01
2.170719723224e+01
6.598088745128e+00
-7.752513120585e+00
2.301922651191e+01
-6.005286781344e+00
-1.994031529113e+01
1.803501231446e+01
-1.726972300902e+01
1.699226791352e+01
2.253436277396e+01
-1.768807271553e+01
8.686989369832e+00
1.716074304076e+01
6.709613914122e+00
1.645555757331e+01
2.057036055565e+01
1.856397927908e+01
2.888688317660e+01
2.315134380333e+00
1.872103423576e+01
2.409373749781e+01
2.205570810407e+01
1.273152483233e+01
2.205852743762e+01
2.469658672058e+01
2.094074328973e+01
2.691386445140e+01
5.971675913574e+00
2.209076129713e+01
1.795908043360e+01
1.755395835458e+01
-8.685137449149e+00
6.333268317105e+00
2.014363640893e+01
2.081906857225e+01
1.721035324438e+01
2.384573896692e+01
2.430248063790e+01
-1.940027439856e+01
1.753451757118e+01
1.771234370582e+01
1.799114224109e+01
8.676734130314e+01
-5.063622167207e+01
-1.857372693669e+01
-1.986426375594e+01
2.055886740926e+01
2.065462541812e+01
-1.921737222881e+01
9.567388652148e+00
2.082405533665e+01
2.309569510376e+01
9.533684747575e+00
2.108536610282e+01
2.023305966806e+01
1.971614966145e+01
8.329822141509e+00
1.572364300270e+01
2.469482851143e+01
5.932855635798e+00
1.929433359803e+01
2.062742491085e+01
1.569625864466e+01
1.956816851772e+01
4.242135682774e+00
2.262298343714e+01
1.993416769151e+01
1.941826304517e+01
-1.841847395205e+01
2.529276969380e+01
1.799022202882e+01
1.492824276723e+01
-2.003793901439e+01
2.204227523027e+01
2.420259189484e+01
1.573961441291e+01
1.043608267768e+01
2.068069393792e+01
2.281361673584e+01
2.282130097871e+01
2.046305432426e+01
2.209453012839e+01
2.299839542471e+01
1.924111230622e+01
2.309022894202e+00
2.544520570775e+01
1.645482705901e+01
2.192203690675e+01
4.572764800335e+00
-3.459344872462e+00
2.332745409364e+01
1.111582005141e+01
1.681092809261e+01
1.712048504909e+01
9.471845541757e+00
2.287611603157e+01
-8.037535142773e-01
2.205577607094e+01
2.364995655100e+01
4.349836020210e+00
2.183762772300e+01
1.783986201594e+01
1.702687284074e+01
2.508720400962e+01
1.653591130066e+01
2.191548735362e+01
2.317093939561e+01
2.384314188499e+01
2.059545250648e+01
1.919184793861e+01
8.246492332563e+00
2.139327145192e+01
1.981896614526e+01
5.414757554097e+00
2.069666010529e+01
2.309368722132e+01
2.084462434792e+01
1.323129552357e+01
2.196691259415e+01
2.175470697810e+01
2.193512087258e+01
1.703910218576e+01
2.087097090564e+01
-7.083828559269e+00
1.609219624585e+01
-2.878766485135e+00
1.513250744486e+01
1.060489938700e+01
1.084464476512e+00
2.822550193889e+01
2.028036261828e+01
1.732563628150e+01
1.628633072454e+01
2.285224938797e+01
3.882453838054e+00
-1.944835829489e+01
2.175471911987e+01
-1.548684679982e+01
2.962526978746e+00
3.028116705832e+01
1.905494690842e+01
2.074349108296e+01
1.868415253264e+01
8.744103231385e+00
1.847942645002e+01
2.159677008165e+01
2.292065466271e+01
2.286939376938e+01
2.194867452668e+01
2.084154348463e+01
-4.067944619333e+00
1.956331344622e+01
2.084247786902e+01
-2.580668482258e-01
4.212528865058e+00
2.600585865854e+01
-6.290727469656e+00
2.121289064568e+01
2.145586497378e+01
1.651996542617e+01
2.210937262805e+01
2.297294464058e+01
6.482044298286e+00
1.893214358378e+01
2.419049982445e+01
-1.884696260392e+01
1.132462408290e+01
-1.837363815022e+01
2.077567250974e+01
8.415106657797e-01
6.240605012540e+00
1.895908820069e+01
2.146481352005e+01
1.636491650740e+01
1.856620462957e+01
1.619662021700e+01
1.859464166309e+01
2.120179263921e+01
1.776226415570e+01
2.071889540671e+01
-9.555365662062e+00
2.223304083479e+01
5.690124010986e+00
1.718068150535e+01
-2.139691360697e+01
2.139546697442e+01
1.827696380612e+01
1.706634257159e+01
2.283627504514e+01
1.226792241247e+01
1.732325837146e+01
2.122409596009e+01
9.072305038228e+00
2.135575535041e+01
1.754274014024e+01
1.068644858198e+01
2.088025080076e+01
1.762671642668e+01
-1.966301080391e+01
2.291907466947e+01
1.724557206277e+01
8.614381134398e+01
-1.998004419341e+01
2.063427932894e+01
8.817305774979e+00
2.324920750579e+01
1.793986257902e+01
1.704988037380e+01
8.923175950510e+00
2.494829035952e+01
1.995463422331e+01
1.427893974144e+01
7.823946457431e+00
1.799954912103e+01
8.109602634451e+00
1.420063910109e+01
5.279888620695e+00
2.268591084249e+01
2.005443603247e+01
3.499586537224e+01
1.720531491739e+01
1.962661999578e+01
2.011222794026e+01
2.281710967672e+01
1.941273387525e+01
1.964650115571e+01
-6.622659082937e+00
2.124137791458e+01
2.227098419853e+01
2.611074633772e+01
1.724799503803e+01
2.061778564027e+01
-8.869400646698e+00
8.066012148001e+00
1.934424861936e+01
1.944709266345e+01
1.972118808712e+01
2.342558114231e+01
9.420352145622e+00
2.211069012369e+01
-5.164790192116e-01
1.758405754358e+01
2.306684052881e+01
5.327013940992e+00
2.059720172624e+01
2.291788062891e+01
2.286604148595e+01
2.682453307599e+01
2.050341364270e+01
2.129079938828e+01
-4.765997005620e+00
1.906344801940e+01
2.484471709341e+01
2.068561388306e+01
-2.738357330141e+01
-2.622149848581e+01
-2.719868265915e+01
-2.677950709260e+01
-2.707421416180e+01
-2.662425144981e+01
-2.723544451595e+01
-2.626432122489e+01
-2.738332974370e+01
-2.620724377326e+01
-2.796102737090e+01
-2.590330692589e+01
-1.248412209361e+01
-2.857021809339e+01
-9.317214060416e+00
-2.518967013987e+01
-2.939662372635e+01
-2.530779769332e+01
-3.014851811412e+01
-2.450931831292e+01
-3.129573697420e+01
-2.337252926999e+01
-2.244176295326e+01
-3.200002653876e+01
-2.180723390755e+01
-3.179459664640e+01
-1.928553088560e+01
-1.537019203486e+01
-3.024051211214e+01
-2.556862342756e+01
3.645089659677e+00
7.888043711524e+00
-2.626888512408e+01
-2.516914878334e+01
-2.470025019276e+01
-2.523184907076e+01
1.096967158020e+01


