# vtk DataFile Version 2.0
Calculation C:\Users\johan\Documents\GitHub\TOCHNOG\standsicherheit_phiC at time 1.100000000000e+01 
ASCII
DATASET UNSTRUCTURED_GRID
Field FieldData 1
Time 1 1 double
1.100000000000e+01

POINTS 1028 float
0.0 0.0 0.0 
5.000000000000e+01 -1.000000000000e+01 0.0 
0.0 -2.000000000000e+01 0.0 
5.000000000000e+01 -2.000000000000e+01 0.0 
0.0 -9.999999999991e-01 0.0 
0.0 -1.999999999998e+00 0.0 
0.0 -2.999999999997e+00 0.0 
0.0 -3.999999999994e+00 0.0 
0.0 -4.999999999991e+00 0.0 
0.0 -5.999999999988e+00 0.0 
0.0 -6.999999999985e+00 0.0 
0.0 -7.999999999982e+00 0.0 
0.0 -8.999999999983e+00 0.0 
0.0 -9.999999999985e+00 0.0 
0.0 -1.099999999999e+01 0.0 
0.0 -1.199999999999e+01 0.0 
0.0 -1.299999999999e+01 0.0 
0.0 -1.399999999999e+01 0.0 
0.0 -1.499999999999e+01 0.0 
0.0 -1.599999999999e+01 0.0 
0.0 -1.700000000000e+01 0.0 
0.0 -1.800000000000e+01 0.0 
0.0 -1.900000000000e+01 0.0 
4.900000000001e+01 -2.000000000000e+01 0.0 
4.800000000001e+01 -2.000000000000e+01 0.0 
4.700000000002e+01 -2.000000000000e+01 0.0 
4.600000000003e+01 -2.000000000000e+01 0.0 
4.500000000004e+01 -2.000000000000e+01 0.0 
4.400000000004e+01 -2.000000000000e+01 0.0 
4.300000000005e+01 -2.000000000000e+01 0.0 
4.200000000006e+01 -2.000000000000e+01 0.0 
4.100000000006e+01 -2.000000000000e+01 0.0 
4.000000000007e+01 -2.000000000000e+01 0.0 
3.900000000008e+01 -2.000000000000e+01 0.0 
3.800000000009e+01 -2.000000000000e+01 0.0 
3.700000000009e+01 -2.000000000000e+01 0.0 
3.600000000010e+01 -2.000000000000e+01 0.0 
3.500000000011e+01 -2.000000000000e+01 0.0 
3.400000000011e+01 -2.000000000000e+01 0.0 
3.300000000012e+01 -2.000000000000e+01 0.0 
3.200000000013e+01 -2.000000000000e+01 0.0 
3.100000000013e+01 -2.000000000000e+01 0.0 
3.000000000013e+01 -2.000000000000e+01 0.0 
2.900000000013e+01 -2.000000000000e+01 0.0 
2.800000000013e+01 -2.000000000000e+01 0.0 
2.700000000013e+01 -2.000000000000e+01 0.0 
2.600000000013e+01 -2.000000000000e+01 0.0 
2.500000000013e+01 -2.000000000000e+01 0.0 
2.400000000013e+01 -2.000000000000e+01 0.0 
2.300000000013e+01 -2.000000000000e+01 0.0 
2.200000000013e+01 -2.000000000000e+01 0.0 
2.100000000013e+01 -2.000000000000e+01 0.0 
2.000000000013e+01 -2.000000000000e+01 0.0 
1.900000000013e+01 -2.000000000000e+01 0.0 
1.800000000013e+01 -2.000000000000e+01 0.0 
1.700000000012e+01 -2.000000000000e+01 0.0 
1.600000000011e+01 -2.000000000000e+01 0.0 
1.500000000011e+01 -2.000000000000e+01 0.0 
1.400000000010e+01 -2.000000000000e+01 0.0 
1.300000000009e+01 -2.000000000000e+01 0.0 
1.200000000009e+01 -2.000000000000e+01 0.0 
1.100000000008e+01 -2.000000000000e+01 0.0 
1.000000000007e+01 -2.000000000000e+01 0.0 
9.000000000064e+00 -2.000000000000e+01 0.0 
8.000000000057e+00 -2.000000000000e+01 0.0 
7.000000000050e+00 -2.000000000000e+01 0.0 
6.000000000043e+00 -2.000000000000e+01 0.0 
5.000000000036e+00 -2.000000000000e+01 0.0 
4.000000000028e+00 -2.000000000000e+01 0.0 
3.000000000021e+00 -2.000000000000e+01 0.0 
2.000000000014e+00 -2.000000000000e+01 0.0 
1.000000000007e+00 -2.000000000000e+01 0.0 
5.000000000000e+01 -1.100000000000e+01 0.0 
5.000000000000e+01 -1.200000000000e+01 0.0 
5.000000000000e+01 -1.300000000000e+01 0.0 
5.000000000000e+01 -1.400000000000e+01 0.0 
5.000000000000e+01 -1.500000000000e+01 0.0 
5.000000000000e+01 -1.600000000000e+01 0.0 
5.000000000000e+01 -1.700000000000e+01 0.0 
5.000000000000e+01 -1.800000000000e+01 0.0 
5.000000000000e+01 -1.900000000000e+01 0.0 
2.000000000000e+01 0.0 0.0 
3.500000000000e+01 -1.000000000000e+01 0.0 
2.150000000000e+01 -1.000000000000e+00 0.0 
2.300000000000e+01 -2.000000000000e+00 0.0 
2.450000000000e+01 -3.000000000000e+00 0.0 
2.600000000000e+01 -4.000000000000e+00 0.0 
2.750000000000e+01 -5.000000000000e+00 0.0 
2.900000000000e+01 -6.000000000000e+00 0.0 
3.050000000000e+01 -7.000000000000e+00 0.0 
3.200000000000e+01 -8.000000000000e+00 0.0 
3.350000000000e+01 -9.000000000000e+00 0.0 
4.900000000000e+01 -1.000000000000e+01 0.0 
4.800000000000e+01 -1.000000000000e+01 0.0 
4.700000000000e+01 -1.000000000000e+01 0.0 
4.600000000000e+01 -1.000000000000e+01 0.0 
4.500000000000e+01 -1.000000000000e+01 0.0 
4.400000000000e+01 -1.000000000000e+01 0.0 
4.300000000000e+01 -1.000000000000e+01 0.0 
4.200000000000e+01 -1.000000000000e+01 0.0 
4.100000000000e+01 -1.000000000000e+01 0.0 
4.000000000000e+01 -1.000000000000e+01 0.0 
3.900000000000e+01 -1.000000000000e+01 0.0 
3.800000000000e+01 -1.000000000000e+01 0.0 
3.700000000000e+01 -1.000000000000e+01 0.0 
3.600000000000e+01 -1.000000000000e+01 0.0 
1.900000000000e+01 0.0 0.0 
1.800000000000e+01 0.0 0.0 
1.700000000000e+01 0.0 0.0 
1.600000000000e+01 0.0 0.0 
1.500000000000e+01 0.0 0.0 
1.400000000000e+01 0.0 0.0 
1.300000000000e+01 0.0 0.0 
1.200000000000e+01 0.0 0.0 
1.100000000000e+01 0.0 0.0 
1.000000000000e+01 0.0 0.0 
9.000000000000e+00 0.0 0.0 
8.000000000000e+00 0.0 0.0 
7.000000000000e+00 0.0 0.0 
6.000000000000e+00 0.0 0.0 
5.000000000000e+00 0.0 0.0 
4.000000000000e+00 0.0 0.0 
3.000000000000e+00 0.0 0.0 
2.000000000000e+00 0.0 0.0 
1.000000000000e+00 0.0 0.0 
2.075000000000e+01 -5.000000000006e-01 0.0 
2.225000000000e+01 -1.500000000000e+00 0.0 
2.375000000000e+01 -2.500000000000e+00 0.0 
2.525000000000e+01 -3.500000000000e+00 0.0 
2.675000000000e+01 -4.500000000000e+00 0.0 
2.825000000000e+01 -5.500000000000e+00 0.0 
2.975000000000e+01 -6.500000000000e+00 0.0 
3.125000000000e+01 -7.500000000000e+00 0.0 
3.275000000000e+01 -8.500000000000e+00 0.0 
3.425000000000e+01 -9.500000000000e+00 0.0 
2.226951693683e+01 -2.403913980114e+00 0.0 
1.650149491944e+01 -1.913490915758e+01 0.0 
1.050042386896e+01 -8.504605092970e-01 0.0 
1.553146524712e+01 -8.281255032105e-01 0.0 
1.150000000008e+01 -1.913397459621e+01 0.0 
2.530060260647e+01 -4.428336431260e+00 0.0 
8.651114563942e-01 -1.052096295641e+01 0.0 
2.050000000013e+01 -1.913397459622e+01 0.0 
2.819198729811e+01 -6.399519052838e+00 0.0 
2.445670302931e+01 -1.915649188023e+01 0.0 
3.117591465718e+01 -8.394293040695e+00 0.0 
7.465053044742e+00 -1.920411160581e+01 0.0 
6.398295709691e+00 -8.230098819370e-01 0.0 
2.849659607461e+01 -1.914296187762e+01 0.0 
3.418732642882e+01 -1.040265792588e+01 0.0 
8.386450935063e-01 -6.533605142809e+00 0.0 
9.178661865596e-01 -1.329769195597e+01 0.0 
3.149448624493e+01 -1.910466733764e+01 0.0 
3.552916747426e+01 -1.914628590759e+01 0.0 
4.449210346537e+01 -1.914359085008e+01 0.0 
4.140975975145e+01 -1.906941860733e+01 0.0 
3.847475958753e+01 -1.916622382724e+01 0.0 
3.653774794640e+01 -1.088712800241e+01 0.0 
4.047886341787e+01 -1.090139014048e+01 0.0 
4.348006339825e+01 -1.092792621489e+01 0.0 
4.919519968029e+01 -1.451526755068e+01 0.0 
4.500000000032e+00 -1.913397459621e+01 0.0 
1.856136921614e+01 -8.212235170404e-01 0.0 
3.499895312306e+00 -8.661165539723e-01 0.0 
9.076088696565e-01 -1.642306201891e+01 0.0 
4.655174095477e+01 -1.086183387525e+01 0.0 
9.430688970604e-01 -3.496112672958e+00 0.0 
3.353992337063e+01 -1.901202090820e+01 0.0 
2.249746016977e+01 -1.921262287282e+01 0.0 
2.650122741777e+01 -1.916123026018e+01 0.0 
1.863571384842e+01 -1.908325534840e+01 0.0 
1.450089971693e+01 -1.917691901860e+01 0.0 
1.350044695317e+01 -8.659695299584e-01 0.0 
3.849987469880e+01 -1.084154983397e+01 0.0 
9.454419857884e+00 -1.900818879936e+01 0.0 
4.917398660523e+01 -1.645692866081e+01 0.0 
8.500000000000e+00 -8.660254037844e-01 0.0 
8.660319230785e-01 -8.500111697188e+00 0.0 
4.649022621545e+01 -1.930506220113e+01 0.0 
2.667688107845e+01 -5.420288124331e+00 0.0 
2.379251615665e+01 -3.412225477429e+00 0.0 
2.966631491830e+01 -7.389030232731e+00 0.0 
3.267915035995e+01 -9.396934932445e+00 0.0 
2.074836922338e+01 -1.320054020319e+00 0.0 
4.915985743621e+01 -1.261973384855e+01 0.0 
2.527129768623e+00 -1.931592414663e+01 0.0 
1.538676247410e+00 -8.436956619311e-01 0.0 
4.908096641539e+01 -1.842484004551e+01 0.0 
3.478612492673e+01 -1.090889364140e+01 0.0 
3.409757055860e+01 -1.131991530427e+01 0.0 
3.501895309466e+01 -1.177687842717e+01 0.0 
3.407758073088e+01 -1.224293381580e+01 0.0 
3.484541875390e+01 -1.277051428430e+01 0.0 
3.400322025842e+01 -1.319022775640e+01 0.0 
3.321672625034e+01 -1.266779191233e+01 0.0 
3.315244139236e+01 -1.360984106532e+01 0.0 
3.236335186892e+01 -1.308463225210e+01 0.0 
3.478337442841e+01 -1.372341158982e+01 0.0 
3.230105923633e+01 -1.403023731610e+01 0.0 
3.150954055289e+01 -1.350301767700e+01 0.0 
3.144604792090e+01 -1.444931742516e+01 0.0 
3.065653897123e+01 -1.392357262981e+01 0.0 
3.071897610812e+01 -1.297447031198e+01 0.0 
2.986790411740e+01 -1.339226181535e+01 0.0 
2.993181466745e+01 -1.244703272398e+01 0.0 
2.908023061869e+01 -1.286254537734e+01 0.0 
2.901619051372e+01 -1.380881655279e+01 0.0 
2.822986160390e+01 -1.327695262116e+01 0.0 
2.829453476870e+01 -1.233265343811e+01 0.0 
2.744542905518e+01 -1.274510491105e+01 0.0 
2.751120089246e+01 -1.180368086886e+01 0.0 
2.666218649885e+01 -1.221619339205e+01 0.0 
2.672371209234e+01 -1.127125228527e+01 0.0 
2.587763216302e+01 -1.168539979114e+01 0.0 
2.581165585299e+01 -1.262994410089e+01 0.0 
2.502890882577e+01 -1.209827323619e+01 0.0 
2.509631327757e+01 -1.115492410304e+01 0.0 
2.424662989877e+01 -1.156630981079e+01 0.0 
2.431704046904e+01 -1.062389179334e+01 0.0 
2.346445438728e+01 -1.103427680694e+01 0.0 
2.339382552877e+01 -1.197964871788e+01 0.0 
2.260936050780e+01 -1.144513277642e+01 0.0 
2.268075012022e+01 -1.049911928216e+01 0.0 
2.182525737661e+01 -1.090920811464e+01 0.0 
2.189682319817e+01 -9.961716944568e+00 0.0 
2.104174127792e+01 -1.037266986667e+01 0.0 
2.111304367575e+01 -9.424179358711e+00 0.0 
2.025306185381e+01 -9.832727364719e+00 0.0 
2.018141124247e+01 -1.079140628871e+01 0.0 
1.938594498257e+01 -1.025147354112e+01 0.0 
1.946106490453e+01 -9.288010758448e+00 0.0 
1.858929958352e+01 -9.706319802516e+00 0.0 
1.851540991219e+01 -1.067205988724e+01 0.0 
1.771485303178e+01 -1.012504443115e+01 0.0 
1.764134552256e+01 -1.109360378538e+01 0.0 
1.683745148095e+01 -1.054496365337e+01 0.0 
1.691852964353e+01 -9.582555261178e+00 0.0 
1.603603813062e+01 -1.000160132379e+01 0.0 
1.595824239350e+01 -1.096750698862e+01 0.0 
1.515080624291e+01 -1.041639501931e+01 0.0 
1.523171602559e+01 -9.451711491453e+00 0.0 
1.434621060709e+01 -9.871956467464e+00 0.0 
1.426777178765e+01 -1.083749501371e+01 0.0 
1.345775282374e+01 -1.028803175500e+01 0.0 
1.354103873368e+01 -9.324918457162e+00 0.0 
1.265072018622e+01 -9.742612837270e+00 0.0 
1.257285762070e+01 -1.071557782384e+01 0.0 
1.175874815690e+01 -1.015972324288e+01 0.0 
1.184203019714e+01 -9.193604071377e+00 0.0 
1.094927709905e+01 -9.612103238656e+00 0.0 
1.086938022910e+01 -1.058685085646e+01 0.0 
1.005424098961e+01 -1.002939116380e+01 0.0 
9.977974613295e+00 -1.101324897989e+01 0.0 
1.012915646404e+01 -9.051815821181e+00 0.0 
9.237127782494e+00 -9.471239055559e+00 0.0 
9.308426593771e+00 -8.483376461131e+00 0.0 
8.418806073345e+00 -8.910712374517e+00 0.0 
2.253688464062e+01 -1.239459402279e+01 0.0 
8.495126726666e+00 -7.921646665254e+00 0.0 
9.389727383206e+00 -7.512103628377e+00 0.0 
7.601560812974e+00 -8.349460349344e+00 0.0 
7.525680547759e+00 -9.339736686940e+00 0.0 
7.677888324502e+00 -7.359727833346e+00 0.0 
6.782001206724e+00 -7.788454494773e+00 0.0 
6.858778622885e+00 -6.797338062822e+00 0.0 
2.196596590865e+01 -8.979025665442e+00 0.0 
2.816540108272e+01 -1.422634142353e+01 0.0 
5.961601194403e+00 -7.226824010712e+00 0.0 
6.038171749656e+00 -6.234825887079e+00 0.0 
6.936257279557e+00 -5.805287640737e+00 0.0 
6.115068918323e+00 -5.242109758768e+00 0.0 
3.564391741903e+01 -1.329240553876e+01 0.0 
3.558115605778e+01 -1.425902892003e+01 0.0 
3.645445282201e+01 -1.381970786460e+01 0.0 
3.639744204358e+01 -1.479198128612e+01 0.0 
3.727266909778e+01 -1.435399586226e+01 0.0 
5.216667013081e+00 -5.671788584287e+00 0.0 
3.220697293295e+01 -1.499594545107e+01 0.0 
3.551112158269e+01 -1.523479869250e+01 0.0 
2.836056961467e+01 -1.139032434851e+01 0.0 
2.516730388602e+01 -1.021382726837e+01 0.0 
1.844436907403e+01 -1.164097215196e+01 0.0 
5.885434318740e+00 -8.218694781467e+00 0.0 
5.064071066867e+00 -7.656614643901e+00 0.0 
4.988089103470e+00 -8.649722082718e+00 0.0 
1.079421050408e+01 -1.157014985435e+01 0.0 
9.902420005256e+00 -1.199903342656e+01 0.0 
1.071994252214e+01 -1.255727909771e+01 0.0 
9.826974788171e+00 -1.298659581767e+01 0.0 
1.064607883789e+01 -1.354595476388e+01 0.0 
9.751541265343e+00 -1.397556905071e+01 0.0 
8.932296185869e+00 -1.341553353988e+01 0.0 
8.856399248106e+00 -1.440570715508e+01 0.0 
8.036186803543e+00 -1.384470558472e+01 0.0 
1.057112875118e+01 -1.453516759081e+01 0.0 
1.146582585687e+01 -1.410539926903e+01 0.0 
7.959894480382e+00 -1.483563350928e+01 0.0 
7.138792279156e+00 -1.427465094140e+01 0.0 
7.062506792418e+00 -1.526615385482e+01 0.0 
6.240693558277e+00 -1.470508863040e+01 0.0 
6.316957575451e+00 -1.371212581281e+01 0.0 
5.418183007107e+00 -1.414253605022e+01 0.0 
5.494748364428e+00 -1.314886770603e+01 0.0 
1.756825565873e+01 -1.206433872514e+01 0.0 
1.837565773345e+01 -1.261356468266e+01 0.0 
1.749574831391e+01 -1.303769280014e+01 0.0 
1.830539187332e+01 -1.358828364284e+01 0.0 
1.742278925170e+01 -1.401367746928e+01 0.0 
1.823303007798e+01 -1.456432294258e+01 0.0 
1.734941694138e+01 -1.499213734361e+01 0.0 
1.653760041637e+01 -1.443920312098e+01 0.0 
3.056237977307e+01 -1.487132260174e+01 0.0 
1.866469084762e+01 -8.742953000418e+00 0.0 
1.953669694916e+01 -8.326038909849e+00 0.0 
1.874194303780e+01 -7.780688158966e+00 0.0 
1.961032016741e+01 -7.366854697285e+00 0.0 
1.881715755159e+01 -6.821102209649e+00 0.0 
1.968369797150e+01 -6.407747217358e+00 0.0 
1.889237123259e+01 -5.858375520026e+00 0.0 
1.802038875366e+01 -6.276202618170e+00 0.0 
1.809793837984e+01 -5.307629520489e+00 0.0 
1.721985207997e+01 -5.728242054488e+00 0.0 
1.729850893523e+01 -4.756990819347e+00 0.0 
1.641745664240e+01 -5.174636548624e+00 0.0 
2.495978509456e+01 -1.304406404294e+01 0.0 
1.911567814831e+01 -1.413854250293e+01 0.0 
1.904387332608e+01 -1.511463127723e+01 0.0 
1.992115934240e+01 -1.468788025898e+01 0.0 
7.013706899628e+00 -4.812582868662e+00 0.0 
5.342091874585e+00 -1.513658157269e+01 0.0 
1.139098043784e+01 -1.509488509480e+01 0.0 
1.228151810610e+01 -1.465617481983e+01 0.0 
1.646373110164e+01 -1.541993323337e+01 0.0 
5.293328636712e+00 -4.678385108584e+00 0.0 
1.975965862987e+01 -5.448124345648e+00 0.0 
2.054318374236e+01 -5.992561293251e+00 0.0 
3.721453439063e+01 -1.533216152738e+01 0.0 
3.809302733893e+01 -1.489235527381e+01 0.0 
1.220852788900e+01 -1.565304565230e+01 0.0 
4.394120899730e+00 -5.108397613210e+00 0.0 
8.779354620288e+00 -1.539524721159e+01 0.0 
1.817791047702e+01 -4.338570146253e+00 0.0 
4.518860013839e+00 -1.457343189307e+01 0.0 
4.442712140414e+00 -1.556841391069e+01 0.0 
8.115343466391e+00 -1.285760324283e+01 0.0 
1.985334703171e+01 -1.566478400426e+01 0.0 
2.071953850276e+01 -1.522074243119e+01 0.0 
1.634012953883e+01 -6.154777738301e+00 0.0 
1.553479994708e+01 -5.593730508879e+00 0.0 
1.561265946942e+01 -4.617761762647e+00 0.0 
1.470674212978e+01 -5.064576488228e+00 0.0 
1.464498299883e+01 -6.026514471420e+00 0.0 
1.383271561817e+01 -5.467796261169e+00 0.0 
1.389241253067e+01 -4.504338666645e+00 0.0 
1.301868735463e+01 -4.907185188626e+00 0.0 
1.294514184846e+01 -5.888160903592e+00 0.0 
1.212955968622e+01 -5.328262335277e+00 0.0 
1.220721122383e+01 -4.341264976687e+00 0.0 
1.131324345897e+01 -4.766773516508e+00 0.0 
5.266597955397e+00 -1.613148974258e+01 0.0 
1.737805990867e+01 -3.786677807525e+00 0.0 
3.078438094513e+01 -1.203225297748e+01 0.0 
1.131569882285e+01 -1.608511932110e+01 0.0 
1.728478341782e+01 -1.596017432313e+01 0.0 
3.803465906019e+01 -1.587509751228e+01 0.0 
3.891681276677e+01 -1.543395196905e+01 0.0 
3.897340985302e+01 -1.444710288980e+01 0.0 
3.980095968193e+01 -1.499059496613e+01 0.0 
3.974334598189e+01 -1.597921884150e+01 0.0 
4.062964983717e+01 -1.553518690417e+01 0.0 
4.068729602479e+01 -1.454434445295e+01 0.0 
4.151772679790e+01 -1.508974196007e+01 0.0 
4.157505195739e+01 -1.409694289912e+01 0.0 
4.240699932656e+01 -1.464347955968e+01 0.0 
4.234898051011e+01 -1.563721375790e+01 0.0 
4.323934606035e+01 -1.519082036405e+01 0.0 
4.329740528208e+01 -1.419587509788e+01 0.0 
4.413056841369e+01 -1.474359631875e+01 0.0 
4.418850110108e+01 -1.374786684042e+01 0.0 
4.502219770667e+01 -1.429605103525e+01 0.0 
4.496411937907e+01 -1.529215882720e+01 0.0 
4.490027319897e+00 -4.154167794594e+00 0.0 
1.565080385988e+01 -1.486411982419e+01 0.0 
1.557610691279e+01 -1.584855627870e+01 0.0 
4.195350646612e+00 -8.089117689096e+00 0.0 
4.124027797830e+00 -9.082831955007e+00 0.0 
4.917944318925e+00 -9.643530901533e+00 0.0 
4.020105689502e+00 -1.007439673661e+01 0.0 
4.587185899277e+01 -1.484039992728e+01 0.0 
4.580078661551e+01 -1.584043391042e+01 0.0 
2.061956522375e+01 -5.046701343981e+00 0.0 
2.139572955529e+01 -5.579553449826e+00 0.0 
3.715344357292e+01 -1.631485124583e+01 0.0 
3.618886196443e+00 -1.500471207167e+01 0.0 
3.695606940204e+00 -1.400939692294e+01 0.0 
2.438890661143e+01 -9.686110599723e+00 0.0 
2.523267572778e+01 -9.276766000622e+00 0.0 
2.446094171539e+01 -8.751904591412e+00 0.0 
2.529089822738e+01 -8.321495612547e+00 0.0 
2.606882688827e+01 -8.864724051119e+00 0.0 
2.452116646430e+01 -7.792756462004e+00 0.0 
1.235543269617e+01 -1.365845617339e+01 0.0 
4.318116874181e+01 -1.618567469992e+01 0.0 
7.835066111909e+00 -5.376366223896e+00 0.0 
7.905687335704e+00 -4.382539065697e+00 0.0 
3.542640009567e+00 -1.600035116542e+01 0.0 
1.572431503071e+01 -1.388358386695e+01 0.0 
2.574684696680e+01 -1.357896141127e+01 0.0 
2.488842657651e+01 -1.399674354505e+01 0.0 
2.568301775611e+01 -1.453552048595e+01 0.0 
2.481535572009e+01 -1.495542756508e+01 0.0 
2.561729699688e+01 -1.549784648532e+01 0.0 
2.474623061296e+01 -1.592058894178e+01 0.0 
2.394234041695e+01 -1.537572575827e+01 0.0 
2.065825452567e+01 -1.621899055217e+01 0.0 
2.387180528935e+01 -1.634552264687e+01 0.0 
4.585364400844e+01 -1.383912334080e+01 0.0 
1.998744432052e+01 -1.370317155541e+01 0.0 
1.205356951443e+01 -6.313580285498e+00 0.0 
5.396543905849e+00 -3.731818611283e+00 0.0 
1.139652573295e+01 -3.745819399350e+00 0.0 
3.574124306703e+00 -4.551456826011e+00 0.0 
3.494140761930e+00 -5.539787055649e+00 0.0 
1.213651452413e+01 -1.664505033022e+01 0.0 
2.555045568519e+01 -1.646529356744e+01 0.0 
2.641671114986e+01 -1.603899382371e+01 0.0 
2.612920721894e+01 -7.906435260873e+00 0.0 
2.690339829698e+01 -8.456969591431e+00 0.0 
1.978024383368e+01 -1.664410216353e+01 0.0 
3.732829979082e+01 -1.336926601859e+01 0.0 
4.074336584605e+01 -1.355133328401e+01 0.0 
4.163204691081e+01 -1.310280943992e+01 0.0 
3.773826114429e+00 -3.493444309145e+00 0.0 
1.228783001032e+01 -3.374822835872e+00 0.0 
4.057110462520e+01 -1.652588478000e+01 0.0 
2.132535497898e+01 -6.523623360525e+00 0.0 
2.216932532211e+01 -6.110044769206e+00 0.0 
1.825781152128e+01 -3.370146817147e+00 0.0 
1.745679445888e+01 -2.812942552063e+00 0.0 
4.666517057280e+01 -1.539981381543e+01 0.0 
4.660575894464e+01 -1.639014410186e+01 0.0 
4.838230979954e+00 -1.063643436446e+01 0.0 
3.938942630206e+00 -1.106778981745e+01 0.0 
1.302967218620e+01 -1.621373452436e+01 0.0 
1.049548003190e+01 -4.204825123240e+00 0.0 
4.573571907195e+01 -1.683820511148e+01 0.0 
1.483686335807e+01 -1.430849689310e+01 0.0 
1.490982658890e+01 -1.332679386284e+01 0.0 
3.190805600162e+00 -9.510968358545e+00 0.0 
2.146625721848e+01 -4.642437303115e+00 0.0 
2.069866208266e+01 -4.111852942193e+00 0.0 
1.286859345584e+01 -6.873252723348e+00 0.0 
1.041794493184e+01 -5.194814260291e+00 0.0 
2.671081808965e+00 -4.976806516331e+00 0.0 
1.295786792925e+01 -1.720506531799e+01 0.0 
3.968438206511e+01 -1.696869067241e+01 0.0 
2.308550456051e+01 -1.579963151273e+01 0.0 
2.315593682844e+01 -1.482967445235e+01 0.0 
2.299471449450e+01 -1.677069968132e+01 0.0 
1.057344714696e+01 -3.214252277840e+00 0.0 
1.124057603753e+01 -1.707713739755e+01 0.0 
2.718402535754e+00 -1.543629882103e+01 0.0 
2.638549692805e+01 -1.696744916809e+01 0.0 
2.723416349007e+01 -1.658104204545e+01 0.0 
2.210193351704e+01 -7.046769643417e+00 0.0 
2.295180925161e+01 -6.657397605239e+00 0.0 
2.301355235833e+01 -5.709111896800e+00 0.0 
2.379052718281e+01 -6.254965406962e+00 0.0 
3.243528601237e+01 -1.214181853533e+01 0.0 
2.287977995457e+01 -7.583722368300e+00 0.0 
2.999876029544e+01 -1.150837653096e+01 0.0 
3.084435366963e+01 -1.109693775882e+01 0.0 
3.006650579669e+01 -1.057778994262e+01 0.0 
2.683802665066e+01 -9.386863216633e+00 0.0 
2.768641973621e+01 -8.988883915666e+00 0.0 
2.040296980397e+01 -7.903629133404e+00 0.0 
1.925235024054e+01 -1.218872783130e+01 0.0 
5.735667000424e+00 -1.020577277283e+01 0.0 
6.396559909872e+00 -1.272326295703e+01 0.0 
1.161199420714e+01 -1.212812778229e+01 0.0 
4.229046132615e+01 -1.663084237572e+01 0.0 
4.312275399692e+01 -1.718087491556e+01 0.0 
4.335502068163e+01 -1.320039231514e+01 0.0 
4.424630298089e+01 -1.275160688731e+01 0.0 
7.090116643816e+00 -3.818998061530e+00 0.0 
7.989472176569e+00 -3.389238711200e+00 0.0 
9.085824861778e+00 -1.144036167408e+01 0.0 
1.041972423731e+01 -1.651614080893e+01 0.0 
3.797525112640e+01 -1.686052038746e+01 0.0 
3.709114253394e+01 -1.730125999865e+01 0.0 
3.626966748340e+01 -1.675477052919e+01 0.0 
1.385164591440e+01 -1.677597757552e+01 0.0 
1.787152588784e+01 -8.198993896093e+00 0.0 
1.668849729812e+01 -1.248560611628e+01 0.0 
1.659546177905e+01 -3.232482605530e+00 0.0 
2.332214717345e+01 -1.292598167641e+01 0.0 
7.168238450786e+00 -2.824711686516e+00 0.0 
2.894878403906e+01 -1.475427524446e+01 0.0 
2.646763248247e+00 -1.643270107952e+01 0.0 
3.467431944285e+00 -1.699648837348e+01 0.0 
2.059475877282e+01 -1.719473628526e+01 0.0 
3.333868355437e+01 -1.080596971682e+01 0.0 
2.246451062637e+01 -1.334557761546e+01 0.0 
2.167821896388e+01 -1.280847834858e+01 0.0 
3.089653185767e+01 -1.017198487212e+01 0.0 
3.012604365669e+01 -9.657298805968e+00 0.0 
2.929627299435e+01 -1.006100135274e+01 0.0 
2.936201435219e+01 -9.136748899251e+00 0.0 
1.198219052702e+01 -7.291887238230e+00 0.0 
1.116702076035e+01 -6.731976101053e+00 0.0 
2.551388807505e+01 -1.746927036981e+01 0.0 
2.378639090370e+01 -1.728678807149e+01 0.0 
2.718543627188e+01 -1.748668016909e+01 0.0 
2.804681050301e+01 -1.712626668293e+01 0.0 
1.970737034667e+01 -1.762317646822e+01 0.0 
1.889535776135e+01 -1.707158098231e+01 0.0 
2.593777711283e+00 -5.971157087874e+00 0.0 
2.773468281110e+01 -8.067164273938e+00 0.0 
4.051205884347e+01 -1.751819982458e+01 0.0 
3.166903145421e+01 -1.068032992414e+01 0.0 
1.033042452886e+01 -1.748285844336e+01 0.0 
9.519274604626e+00 -1.694349240233e+01 0.0 
1.668308673328e+01 -2.255861778986e+00 0.0 
1.570531902832e+01 -2.676795860126e+00 0.0 
4.655826903379e+01 -1.736656245706e+01 0.0 
2.384148070773e+01 -5.328744256413e+00 0.0 
2.460255123641e+01 -5.852182672816e+00 0.0 
2.306638135119e+01 -4.798935440613e+00 0.0 
8.467720450578e-01 -1.849576263072e+01 0.0 
4.849657322345e+01 -1.084860705506e+01 0.0 
2.565860899507e+00 -1.742859793981e+01 0.0 
2.764418872564e+01 -9.927142821799e+00 0.0 
4.565165880064e+01 -1.785336695404e+01 0.0 
2.162231831329e+01 -1.376528337468e+01 0.0 
2.360646352969e+01 -9.136041963102e+00 0.0 
1.392738739903e+01 -1.578285505772e+01 0.0 
4.756405947478e+01 -1.683706841809e+01 0.0 
4.740895034054e+01 -1.793766756892e+01 0.0 
4.080779328826e+01 -1.257387192544e+01 0.0 
4.168907939671e+01 -1.210739129181e+01 0.0 
3.991197722154e+01 -1.300815793917e+01 0.0 
1.905536506762e+01 -3.940076697685e+00 0.0 
1.923879596617e+01 -2.875000734166e+00 0.0 
4.401386745746e+01 -1.673483229438e+01 0.0 
4.247233362525e+00 -7.094581653070e+00 0.0 
3.286051630211e+00 -7.635300020553e+00 0.0 
9.609533347623e+00 -4.594311677967e+00 0.0 
9.523554636369e+00 -5.595597029530e+00 0.0 
5.660336628893e+00 -1.119290329628e+01 0.0 
6.558070063295e+00 -1.076385809362e+01 0.0 
2.809866407414e+01 -1.518037766799e+01 0.0 
2.888868674504e+01 -1.570360690070e+01 0.0 
2.654431550819e+01 -1.411217777162e+01 0.0 
1.402158265969e+01 -1.375404617952e+01 0.0 
1.409592494026e+01 -1.277071998942e+01 0.0 
1.499355196178e+01 -1.235270737023e+01 0.0 
4.221535326155e+01 -1.759335617494e+01 0.0 
4.305583287033e+01 -1.822663146802e+01 0.0 
1.280748808359e+01 -7.834332838285e+00 0.0 
1.368988389326e+01 -7.420529606172e+00 0.0 
1.110091796060e+01 -7.683966794328e+00 0.0 
3.963446145980e+01 -1.794331310122e+01 0.0 
3.423932362213e+00 -1.796415590455e+01 0.0 
4.280814572302e+00 -1.752272834860e+01 0.0 
8.050136380041e+00 -2.421582378631e+00 0.0 
8.888674091650e+00 -2.984264211327e+00 0.0 
2.152839430898e+01 -3.732609965436e+00 0.0 
2.077799585292e+01 -3.183896021866e+00 0.0 
3.618719395821e+01 -1.770276572576e+01 0.0 
3.538165138340e+01 -1.718709995539e+01 0.0 
3.702925326420e+01 -1.828844288807e+01 0.0 
1.756739438711e+00 -5.353284859169e+00 0.0 
2.233710191104e+01 -1.527265621324e+01 0.0 
1.389483555057e+01 -1.771797164730e+01 0.0 
1.475634224300e+01 -1.728357428390e+01 0.0 
1.298797563052e+01 -1.825968924755e+01 0.0 
2.145331271866e+01 -1.673705379077e+01 0.0 
2.133282821169e+01 -1.769400773673e+01 0.0 
2.292139194136e+01 -1.774915400288e+01 0.0 
1.750750053243e+01 -1.861475593469e+00 0.0 
4.830478841772e+01 -1.752611802221e+01 0.0 
4.341203507805e+01 -1.220326745522e+01 0.0 
1.685254151866e+01 -1.443085301632e+00 0.0 
4.431538535165e+01 -1.171841387375e+01 0.0 
4.511308610496e+01 -1.229557320599e+01 0.0 
4.510133242889e+01 -1.123680627466e+01 0.0 
1.846818030617e+00 -4.410877617069e+00 0.0 
3.995468694584e+01 -1.186571542989e+01 0.0 
3.901387459804e+01 -1.242507616755e+01 0.0 
8.966735877533e+00 -1.837818700423e+00 0.0 
4.049310011091e+01 -1.848269508791e+01 0.0 
7.278862053803e+00 -1.918523922691e+00 0.0 
6.429715522129e+00 -2.316676521184e+00 0.0 
9.443505505022e+00 -1.792198868094e+01 0.0 
8.620386951051e+00 -1.737590365556e+01 0.0 
8.571868171503e+00 -1.834436667826e+01 0.0 
7.758629848526e+00 -1.775677907213e+01 0.0 
7.806648388584e+00 -1.680761266021e+01 0.0 
6.908555145436e+00 -1.723746463044e+01 0.0 
4.251709122090e+01 -1.156937480156e+01 0.0 
6.931136405615e+00 -1.832465719263e+01 0.0 
6.015545461353e+00 -1.768865355295e+01 0.0 
5.960535926343e+00 -1.872011001764e+01 0.0 
3.023253444786e+01 -8.761960642196e+00 0.0 
2.454622702599e+01 -6.749421992767e+00 0.0 
2.537499741604e+01 -6.347634963783e+00 0.0 
2.544077378460e+01 -5.431358513649e+00 0.0 
2.801367161747e+01 -1.820907270221e+01 0.0 
2.884507806914e+01 -1.762032095326e+01 0.0 
1.821474531936e+00 -1.588901260460e+01 0.0 
1.821006262604e+00 -1.489370287756e+01 0.0 
4.599962488908e+01 -1.176478780598e+01 0.0 
4.705457470007e+01 -1.172182804229e+01 0.0 
4.667668314802e+01 -1.263464558483e+01 0.0 
4.759648056504e+01 -1.252380987933e+01 0.0 
4.728041618103e+01 -1.341928568376e+01 0.0 
4.825209352360e+01 -1.330491640804e+01 0.0 
4.778118233428e+01 -1.420151961695e+01 0.0 
2.388192727579e+01 -1.826934810142e+01 0.0 
2.381714684947e+01 -4.385917965223e+00 0.0 
3.172733219247e+01 -9.758744265248e+00 0.0 
1.882012070658e+01 -1.805540597212e+01 0.0 
1.805667505243e+01 -1.742221226236e+01 0.0 
2.852599958080e+01 -8.597196079481e+00 0.0 
2.856486123437e+01 -7.661382718527e+00 0.0 
1.111792842875e+01 -1.818223852980e+01 0.0 
2.203322722466e+01 -7.986646678802e+00 0.0 
3.955703676900e+01 -1.903246763601e+01 0.0 
1.944842206513e+01 -8.038750575182e-01 0.0 
1.909882767783e+01 -1.746322740933e+00 0.0 
2.281147422941e+01 -8.525912918334e+00 0.0 
2.850633001468e+01 -9.533271335986e+00 0.0 
2.532883344309e+01 -7.308951659710e+00 0.0 
2.620475466461e+01 -6.979208585400e+00 0.0 
1.396278270396e+01 -1.475095389807e+01 0.0 
9.791001166724e+00 -2.554159793552e+00 0.0 
2.229293380421e+01 -4.269762271052e+00 0.0 
4.677238984118e+01 -1.430071795514e+01 0.0 
2.228658385918e+01 -3.344747535984e+00 0.0 
8.940223674553e-01 -1.543595733415e+01 0.0 
2.118566862474e+01 -8.435876987696e+00 0.0 
2.678325936437e+01 -1.032621195706e+01 0.0 
2.223400220487e+01 -5.179046761770e+00 0.0 
2.375370625384e+01 -7.251580562134e+00 0.0 
3.156971327386e+01 -1.255534750737e+01 0.0 
3.328226391312e+01 -1.172914813316e+01 0.0 
3.250948774219e+01 -1.120157009348e+01 0.0 
2.032993445717e+01 -8.867880112202e+00 0.0 
2.697226974856e+01 -7.536633082045e+00 0.0 
2.707377810386e+01 -6.590835263295e+00 0.0 
2.914099246827e+01 -1.191678458549e+01 0.0 
3.544824072239e+01 -1.621126558525e+01 0.0 
3.456511855436e+01 -1.665054783843e+01 0.0 
3.448395810225e+01 -1.759117813016e+01 0.0 
3.368378673938e+01 -1.708037781328e+01 0.0 
3.375560452567e+01 -1.610973066913e+01 0.0 
3.288001547988e+01 -1.654324255651e+01 0.0 
3.282475929147e+01 -1.749725654692e+01 0.0 
3.199880906313e+01 -1.697294088625e+01 0.0 
3.197001272932e+01 -1.811667776864e+01 0.0 
3.111884713021e+01 -1.742166785755e+01 0.0 
3.120418962865e+01 -1.642155709385e+01 0.0 
3.034666704371e+01 -1.683123833816e+01 0.0 
3.026224379976e+01 -1.772592851714e+01 0.0 
3.046632362943e+01 -1.582232843075e+01 0.0 
1.961344017324e+01 -1.857459447985e+01 0.0 
2.274975894774e+01 -9.532738811922e+00 0.0 
1.833923246887e+01 -2.396746883672e+00 0.0 
1.988859500848e+01 -2.249244376594e+00 0.0 
2.758045562861e+01 -1.086434261689e+01 0.0 
3.247300178163e+01 -1.909930104252e+01 0.0 
3.461947482503e+01 -1.911879848019e+01 0.0 
2.047161538662e+01 -6.941478180358e+00 0.0 
2.750230940214e+01 -1.915490590764e+01 0.0 
3.165081350803e+01 -1.161860780120e+01 0.0 
1.897456727641e+01 -4.889634688522e+00 0.0 
2.549338539756e+01 -1.914858252089e+01 0.0 
3.462873135081e+01 -1.567482276144e+01 0.0 
3.384432415243e+01 -1.512280684518e+01 0.0 
3.471433767690e+01 -1.469086942990e+01 0.0 
3.651470373046e+01 -1.918207952149e+01 0.0 
3.901742690249e+01 -1.345028556517e+01 0.0 
2.153224102692e+01 -1.920169709333e+01 0.0 
1.918382939341e+01 -1.316226275662e+01 0.0 
2.005389162382e+01 -1.271962165174e+01 0.0 
2.011472087878e+01 -1.175029352900e+01 0.0 
3.210679478412e+01 -1.598038618242e+01 0.0 
1.752175226543e+01 -1.914713022656e+01 0.0 
1.696897240059e+01 -1.832772588765e+01 0.0 
1.599682523337e+01 -1.832599992024e+01 0.0 
1.644507199462e+01 -1.743697981535e+01 0.0 
1.549987712903e+01 -1.915192375101e+01 0.0 
3.050250861901e+01 -1.918943550234e+01 0.0 
2.949944061527e+01 -1.922950455235e+01 0.0 
1.375892575273e+01 -6.447160534926e+00 0.0 
1.457223670180e+01 -7.006709243857e+00 0.0 
1.450818793236e+01 -7.965943451779e+00 0.0 
1.538804712402e+01 -7.553409623699e+00 0.0 
1.545817644768e+01 -6.580929593419e+00 0.0 
1.626506893751e+01 -7.129032608911e+00 0.0 
1.619833811522e+01 -8.086588580887e+00 0.0 
1.714448609609e+01 -6.697429609777e+00 0.0 
2.887616543568e+01 -1.668015232137e+01 0.0 
1.349814589130e+01 -1.918225301544e+01 0.0 
1.153887772210e+01 -1.311384581217e+01 0.0 
1.242708159886e+01 -1.267046795531e+01 0.0 
1.249799674267e+01 -1.169005616014e+01 0.0 
6.631723893693e+00 -9.774184881867e+00 0.0 
7.451471631867e+00 -1.033148796006e+01 0.0 
7.377795355458e+00 -1.132196345268e+01 0.0 
5.810931797536e+00 -9.211654212252e+00 0.0 
2.402683899133e+01 -1.441378562320e+01 0.0 
1.249768692036e+01 -1.917388426624e+01 0.0 
1.580373499437e+01 -1.290751860664e+01 0.0 
8.344650507834e+00 -9.898403995170e+00 0.0 
3.750622115305e+01 -1.086526401533e+01 0.0 
3.699391251667e+01 -1.171695900794e+01 0.0 
3.606517829518e+01 -1.173717504500e+01 0.0 
3.650257641795e+01 -1.270047380221e+01 0.0 
3.808951488918e+01 -1.183518714175e+01 0.0 
4.760380962420e+00 -1.162484888315e+01 0.0 
3.861210370848e+00 -1.205657631736e+01 0.0 
3.038284309476e+00 -1.149851280664e+01 0.0 
2.961598794889e+00 -1.248856794980e+01 0.0 
2.138953225512e+00 -1.193212674534e+01 0.0 
2.227383593457e+00 -1.096258903918e+01 0.0 
2.043265419276e+00 -1.292158472959e+01 0.0 
1.252449446028e+00 -1.225502002753e+01 0.0 
3.949985210740e+01 -1.086594001795e+01 0.0 
1.453499444792e+01 -8.768805922472e-01 0.0 
1.403518950933e+01 -1.749965556633e+00 0.0 
1.300715031023e+01 -1.714737233040e+00 0.0 
1.350929389899e+01 -2.527443911291e+00 0.0 
1.449600910711e+01 -2.595486162864e+00 0.0 
1.395693872901e+01 -3.484211041558e+00 0.0 
1.495105865208e+01 -3.364609636216e+00 0.0 
1.508822528740e+01 -1.766586020494e+00 0.0 
1.250223858430e+01 -8.634590186802e-01 0.0 
1.200279523409e+01 -1.709044504992e+00 0.0 
1.150086239419e+01 -8.592789190668e-01 0.0 
1.101482754194e+01 -1.677730591922e+00 0.0 
1.148018564526e+01 -2.659323866909e+00 0.0 
8.800552119754e+00 -3.989875954728e+00 0.0 
3.452790439430e+00 -1.901136170646e+01 0.0 
8.658451825200e-01 -9.503462241795e+00 0.0 
1.694787786797e+00 -9.000589234502e+00 0.0 
1.703436717094e+00 -8.038819004041e+00 0.0 
2.594197971110e+00 -8.563955242845e+00 0.0 
1.630513735412e+00 -9.907244747511e+00 0.0 
8.566859292791e-01 -7.512203837972e+00 0.0 
1.685461277022e+00 -7.164280248030e+00 0.0 
2.506394468801e+00 -8.623386730818e-01 0.0 
2.007475081581e+00 -1.727729545205e+00 0.0 
9.211534699767e-01 -1.628791366312e+00 0.0 
1.500000000020e+00 -2.598063549486e+00 0.0 
2.482078929963e+00 -2.553580088725e+00 0.0 
2.999795253092e+00 -1.732169015019e+00 0.0 
3.999712607169e+00 -1.728832897453e+00 0.0 
4.499752199340e+00 -8.656478679175e-01 0.0 
4.964377774841e+00 -1.730129617941e+00 0.0 
4.425017908337e+00 -2.597541756243e+00 0.0 
5.446573195014e+00 -8.410144840023e-01 0.0 
4.915722346614e+01 -1.550640962770e+01 0.0 
4.826794919243e+01 -1.600000000000e+01 0.0 
1.053139533193e+01 -1.911782884365e+01 0.0 
4.156049861949e+01 -1.095160998589e+01 0.0 
9.494526624416e+00 -8.650570090219e-01 0.0 
4.555762166964e+01 -1.897098103585e+01 0.0 
4.250656411371e+01 -1.914387356218e+01 0.0 
4.350906466345e+01 -1.917234727395e+01 0.0 
8.759665722424e-01 -1.746422130609e+01 0.0 
1.698936011838e+00 -1.795012186674e+01 0.0 
4.742476811029e+01 -1.900090177972e+01 0.0 
7.749196752349e+00 -6.368049313489e+00 0.0 
3.361572113416e+01 -1.798765193915e+01 0.0 
4.484660149212e+01 -1.728661231383e+01 0.0 
1.984038172228e+01 -4.502575320116e+00 0.0 
1.035080352627e+01 -6.166639575753e+00 0.0 
2.753558010652e+00 -1.444909521181e+01 0.0 
7.217069543032e+00 -1.328635391078e+01 0.0 
4.364336727739e+00 -1.655585677381e+01 0.0 
4.595208426108e+00 -1.357919665443e+01 0.0 
6.164967006980e+00 -1.569873454630e+01 0.0 
1.487855768353e+01 -1.826523774028e+01 0.0 
2.791876456372e+00 -4.019632415181e+00 0.0 
4.246464893515e+01 -1.364898659620e+01 0.0 
4.503855590351e+01 -1.329552780944e+01 0.0 
4.407239109604e+01 -1.573900004093e+01 0.0 
5.141054449252e+00 -6.664290382472e+00 0.0 
3.141083947149e+00 -1.055790764912e+01 0.0 
6.196463198741e+00 -4.256497932609e+00 0.0 
2.599618716181e+01 -1.836893455464e+01 0.0 
2.923057372337e+01 -1.098461757645e+01 0.0 
1.168343877486e+01 -1.114079645041e+01 0.0 
6.706222096238e+00 -8.780364234441e+00 0.0 
8.567858614669e+00 -6.943121440850e+00 0.0 
1.123755132901e+01 -5.753525820030e+00 0.0 
2.353456234423e+01 -1.008536320953e+01 0.0 
9.162073319168e+00 -1.045593739109e+01 0.0 
9.676343469685e+00 -1.496493008366e+01 0.0 
4.490637882905e+01 -1.628778970202e+01 0.0 
7.398129387772e+00 -9.639977982323e-01 0.0 
1.049641705805e+01 -1.552503975272e+01 0.0 
9.010356286268e+00 -1.242805042052e+01 0.0 
3.985573925497e+01 -1.399863651620e+01 0.0 
1.816196318262e+01 -1.554066497931e+01 0.0 
1.306332244168e+01 -3.963646550326e+00 0.0 
4.145850903932e+01 -1.608094559275e+01 0.0 
3.794664933633e+01 -1.779020121986e+01 0.0 
3.819614412903e+01 -1.290749321016e+01 0.0 
6.270014188119e+00 -3.255093186826e+00 0.0 
4.251165370388e+01 -1.263870364997e+01 0.0 
1.207347709171e+01 -1.763942826023e+01 0.0 
3.633240829927e+01 -1.577330481104e+01 0.0 
4.319052668832e+00 -6.101812561904e+00 0.0 
1.676492415806e+01 -1.151547901392e+01 0.0 
2.594059220037e+01 -1.074225223009e+01 0.0 
3.340750911501e+01 -9.898764354137e+00 0.0 
4.397619591281e+01 -1.769773736461e+01 0.0 
2.175611595028e+01 -1.185718747128e+01 0.0 
1.641818733106e+01 -1.640685203215e+01 0.0 
1.661211421753e+01 -1.346121366338e+01 0.0 
3.428853504935e+00 -6.551993389271e+00 0.0 
8.700728832502e+00 -1.638460872825e+01 0.0 
1.931369795309e+01 -1.121629383702e+01 0.0 
4.139798872363e+01 -1.706922153459e+01 0.0 
2.647837478700e+01 -1.507353829290e+01 0.0 
1.779469616424e+01 -9.161615782908e+00 0.0 
3.885879219319e+01 -1.642026488918e+01 0.0 
1.338194936770e+01 -1.125916521471e+01 0.0 
1.897071181111e+01 -1.609204322578e+01 0.0 
2.844308548793e+01 -1.046221003096e+01 0.0 
2.659854702194e+01 -1.316109415760e+01 0.0 
2.979604503271e+01 -1.433296157755e+01 0.0 
2.417694041347e+01 -1.251231397779e+01 0.0 
1.807401327411e+00 -1.388891148480e+01 0.0 
9.599810618782e+00 -1.595439365034e+01 0.0 
1.652144692160e+01 -4.205392788472e+00 0.0 
2.367839450246e+01 -8.188385218643e+00 0.0 
3.814894930468e+01 -1.390748338767e+01 0.0 
2.466448215774e+01 -1.685878545680e+01 0.0 
4.134044524611e+01 -1.806610045954e+01 0.0 
2.600511411958e+01 -9.801774120648e+00 0.0 
7.882158050716e+00 -1.582364037353e+01 0.0 
3.881607873422e+01 -1.737970515013e+01 0.0 
8.270182347708e+00 -1.088622154920e+01 0.0 
8.672520392520e-01 -4.532984309881e+00 0.0 
1.993447205337e+01 -3.579061902667e+00 0.0 
1.794616079549e+01 -7.238038888498e+00 0.0 
2.097277068165e+01 -1.132450168636e+01 0.0 
8.194803300681e+00 -1.187214224265e+01 0.0 
3.522279404911e+01 -1.823342818178e+01 0.0 
6.984481050295e+00 -1.625271465557e+01 0.0 
1.309433007797e+01 -1.521718594215e+01 0.0 
2.150246167611e+01 -1.885399038185e+00 0.0 
3.250689370209e+01 -1.028789870535e+01 0.0 
6.085886272238e+00 -1.668342132851e+01 0.0 
1.588455661727e+01 -1.193498985921e+01 0.0 
1.809323400821e+01 -1.651110084195e+01 0.0 
1.348885082381e+00 -1.136065576512e+01 0.0 
2.497670221995e+01 -1.834631276173e+01 0.0 
2.937062818424e+01 -8.233711194470e+00 0.0 
5.185823744469e+00 -1.711566910207e+01 0.0 
1.477497877209e+01 -1.530177014512e+01 0.0 
2.125346158933e+01 -7.473003997367e+00 0.0 
4.751561118290e+01 -1.084897772632e+01 0.0 
5.056026576843e+00 -1.825750475525e+01 0.0 
1.473948554523e+01 -1.634577436309e+01 0.0 
2.410566630936e+01 -1.345970002612e+01 0.0 
1.507337507513e+01 -1.138527895328e+01 0.0 
3.189857338687e+01 -8.887781229006e+00 0.0 
7.298712468334e+00 -1.230231046246e+01 0.0 
2.738235495295e+01 -1.368931690364e+01 0.0 
3.750141041969e+01 -1.920449893070e+01 0.0 
1.557271965640e+01 -1.683317951731e+01 0.0 
3.393731848929e+01 -1.413034777044e+01 0.0 
6.482156824153e+00 -1.174575135362e+01 0.0 
2.077971718439e+01 -1.421279621836e+01 0.0 
3.455084320178e+00 -2.562590040585e+00 0.0 
3.099056096250e+01 -9.270280416035e+00 0.0 
5.580176125418e+00 -1.217387969259e+01 0.0 
1.707247630389e+01 -7.660651981710e+00 0.0 
1.418658814174e+01 -1.180390575393e+01 0.0 
2.049103025389e+01 -1.811296706038e+01 0.0 
4.680386172316e+00 -1.260396879301e+01 0.0 
1.699679896554e+01 -8.624561788199e+00 0.0 
3.779470168555e+00 -1.303424899720e+01 0.0 
3.036589870126e+01 -7.879832518349e+00 0.0 
3.306993001774e+01 -1.457671062095e+01 0.0 
2.840150110165e+00 -1.346530088269e+01 0.0 
2.732011135052e+01 -1.464591214560e+01 0.0 
5.423639259568e+00 -2.659711955016e+00 0.0 
2.324455961696e+01 -1.387269388211e+01 0.0 
1.752768355571e+00 -1.693128613594e+01 0.0 
1.020244783051e+01 -8.076834012808e+00 0.0 
1.330873875224e+01 -1.222417528206e+01 0.0 
3.297727364880e+01 -1.555480372087e+01 0.0 
2.890929955439e+01 -6.868664170731e+00 0.0 
1.323294664622e+01 -1.320754260334e+01 0.0 
2.726532861246e+01 -1.560593120806e+01 0.0 
2.240020643398e+01 -1.429299177247e+01 0.0 
2.090445823633e+01 -1.228128621332e+01 0.0 
1.315809881502e+01 -1.420739326938e+01 0.0 
2.781328038068e+01 -7.181956082300e+00 0.0 
8.614200829057e+00 -5.936933226306e+00 0.0 
8.714765730069e+00 -4.979270529687e+00 0.0 
1.611881701099e+01 -9.041973294003e+00 0.0 
2.806830314340e+01 -1.614622947108e+01 0.0 
2.084435391396e+00 -3.385085422913e+00 0.0 
3.133211811152e+01 -1.542347619750e+01 0.0 
9.693114650768e+00 -3.590281506442e+00 0.0 
1.531883592202e+01 -8.504584946143e+00 0.0 
2.151589117094e+01 -1.578915763018e+01 0.0 
4.918943882696e+01 -1.355538828056e+01 0.0 
1.443236615188e+01 -8.918701794549e+00 0.0 
8.276250966452e-01 -5.537685192197e+00 0.0 
1.362790867918e+01 -8.374718262212e+00 0.0 
2.083767477370e+01 -1.324843956035e+01 0.0 
1.273834678703e+01 -8.790890389337e+00 0.0 
1.192275845670e+01 -8.242261327467e+00 0.0 
4.477236023583e+01 -1.824312396664e+01 0.0 
1.102989384254e+01 -8.649855800911e+00 0.0 
4.849096516045e+01 -1.917293752213e+01 0.0 
1.588996752238e+00 -1.910230934687e+01 0.0 
4.904245197583e+01 -1.159839008158e+01 0.0 
2.753852929608e+01 -5.782128488093e+00 0.0 
1.756133602833e+01 -8.306130313187e-01 0.0 
2.615423700951e+01 -6.153865090092e+00 0.0 
1.028818761294e+01 -7.122020845892e+00 0.0 
2.970818901196e+01 -1.527821347593e+01 0.0 
4.801461623449e+01 -1.164472570985e+01 0.0 
9.455722100419e+00 -6.546069291118e+00 0.0 
3.089099236677e+01 -1.835339328261e+01 0.0 
2.350000000013e+01 -1.920825896750e+01 0.0 
4.830620531887e+01 -1.506626155470e+01 0.0 
1.725381944701e+01 -1.688794487850e+01 0.0 
2.156246225273e+01 -1.475893794002e+01 0.0 
4.919319648787e+01 -1.742767505896e+01 0.0 
4.437935623576e+01 -1.077662927266e+01 0.0 
1.001520521978e+01 -1.652692675208e+00 0.0 
9.067160240050e-01 -1.441937727541e+01 0.0 
2.603365149390e+01 -4.755996613848e+00 0.0 
2.458344439002e+01 -4.873645517696e+00 0.0 
2.304312390142e+01 -3.836552768096e+00 0.0 
2.546923202198e+00 -6.902480355749e+00 0.0 
1.251534969393e+01 -2.490989965776e+00 0.0 
2.454061833377e+01 -3.933354231935e+00 0.0 
1.788186558740e+01 -1.827424884923e+01 0.0 
4.090785243552e+01 -1.166553231904e+01 0.0 
2.230128851568e+01 -1.623015738726e+01 0.0 
2.302362347568e+01 -2.916239960270e+00 0.0 
3.878119254461e+01 -1.830091164002e+01 0.0 
2.210081359958e+01 -1.829238229150e+01 0.0 
8.443704882233e+00 -1.921993252862e+01 0.0 
2.218405824691e+01 -1.724557581508e+01 0.0 
2.151157503963e+01 -2.790636689331e+00 0.0 
3.741658958955e+01 -1.250400191722e+01 0.0 
2.697247663737e+01 -1.838290202309e+01 0.0 
4.743362342862e+01 -1.585850773010e+01 0.0 
6.671345075358e+00 -1.924977576322e+01 0.0 
3.900825404537e+01 -1.157220003875e+01 0.0 
4.649692961375e+01 -1.836335837481e+01 0.0 
1.578831424832e+01 -3.678284023361e+00 0.0 
4.814208768888e+01 -1.841249298770e+01 0.0 
2.964123298315e+01 -1.625739458193e+01 0.0 
4.580760351902e+01 -1.284294554687e+01 0.0 
3.561520879615e+01 -1.245548941949e+01 0.0 
2.555418095658e+00 -1.841101588290e+01 0.0 
3.288468366144e+01 -1.834258164109e+01 0.0 
2.065894391445e+01 -2.240688571739e+00 0.0 
4.739171429915e+01 -1.496536413446e+01 0.0 
3.478086729185e+00 -8.576434653209e+00 0.0 
1.606010630246e+01 -1.588421807951e+00 0.0 
1.018329200594e+01 -1.834320874317e+01 0.0 
2.957213339430e+01 -1.720496954591e+01 0.0 
4.142712790164e+00 -1.837794506222e+01 0.0 
6.698721532573e-01 -2.499999999997e+00 0.0 
8.037039123140e+00 -1.571229354954e+00 0.0 
1.203541361428e+01 -1.847784298001e+01 0.0 
2.899968332038e+01 -1.848264722179e+01 0.0 
1.469229460948e+01 -4.219485753730e+00 0.0 
4.049590781957e+01 -1.932812501995e+01 0.0 
1.996211678340e+01 -1.506329754720e+00 0.0 
4.250588298353e+01 -1.067383247529e+01 0.0 
5.831497011152e+00 -1.635396227234e+00 0.0 
5.317606125670e+00 -1.923927974868e+01 0.0 
4.208546426993e+01 -1.842830665025e+01 0.0 
2.327553405011e+00 -9.459409929662e+00 0.0 
3.568351902251e+01 -1.096637218582e+01 0.0 
1.682104374890e+00 -6.231413350963e+00 0.0 
2.451812238018e+01 -1.766524914339e+01 0.0 
1.058003429638e+01 -2.391839617098e+00 0.0 
4.399988753123e+01 -1.851998776342e+01 0.0 
1.400000000010e+01 -1.852293523028e+01 0.0 
3.604719565984e+01 -1.850662876800e+01 0.0 
1.951297136734e+01 -1.938092349694e+01 0.0 
1.821365318472e+01 -1.531276353287e+00 0.0 
2.298031859732e+01 -1.854635324722e+01 0.0 
1.552168066204e+01 -1.764280741977e+01 0.0 
4.572957713638e+01 -1.073347898229e+01 0.0 
3.429637429624e+01 -1.838861552790e+01 0.0 
2.427434426052e+00 -7.705577451869e+00 0.0 
4.662792031485e+00 -3.359424455416e+00 0.0 
4.926794919243e+01 -1.926794919243e+01 0.0 
7.320508075690e-01 -7.320508075688e-01 0.0 
4.926794919243e+01 -1.073205080757e+01 0.0 
7.320508075705e-01 -1.926794919243e+01 0.0 
2.917460242467e+00 -3.202866455310e+00 0.0 
4.838200575963e+01 -1.232674147454e+01 0.0 
2.998445708009e+01 -1.854403752148e+01 0.0 
5.949940090766e-01 -1.152762038165e+01 0.0 
4.844763495759e+01 -1.678092548787e+01 0.0 
1.301685480160e+01 -3.170056592566e+00 0.0 
1.650046335855e+01 -6.731535384067e-01 0.0 
4.854881540991e+01 -1.405224059779e+01 0.0 
2.119545114693e+01 -1.846813384545e+01 0.0 
3.797852849897e+01 -1.857978513215e+01 0.0 
4.649823708745e+01 -1.338351810816e+01 0.0 
2.012685900976e+01 -2.889659035009e+00 0.0 
2.953271913273e+01 -1.791558075192e+01 0.0 
2.408509097292e+00 -1.021949208421e+01 0.0 
2.642589566221e+01 -1.773216561448e+01 0.0 
1.730010270775e+01 -1.763165076721e+01 0.0 
2.017406551304e+01 -8.513536440582e-01 0.0 
5.254761581934e-01 -1.249999999999e+01 0.0 
6.640448215642e+00 -1.545337834885e+00 0.0 
7.843361506349e+00 -1.852719839527e+01 0.0 
1.588442191088e+00 -1.066158564320e+01 0.0 

CELLS 1919 7676 
3 179 649 925 
3 649 179 927 
3 659 152 670 
3 772 537 961 
3 539 599 765 
3 629 542 668 
3 159 581 583 
3 179 606 927 
3 581 159 599 
3 532 767 961 
3 151 726 727 
3 606 179 941 
3 771 923 967 
3 588 719 809 
3 923 185 967 
3 178 772 961 
3 587 158 728 
3 542 629 667 
3 166 586 908 
3 586 166 846 
3 767 532 920 
3 897 143 903 
3 624 897 903 
3 574 573 783 
3 273 429 718 
3 726 151 835 
3 105 82 988 
3 618 144 860 
3 271 273 718 
3 783 573 993 
3 523 733 735 
3 176 589 766 
3 659 670 968 
3 19 164 639 
3 174 593 595 
3 602 66 959 
3 66 602 985 
3 621 170 665 
3 585 96 938 
3 96 585 999 
3 861 603 887 
3 139 625 764 
3 942 140 946 
3 82 188 988 
3 580 187 937 
3 619 942 946 
3 733 523 736 
3 187 580 963 
3 729 730 736 
3 719 588 960 
3 181 624 861 
3 571 586 846 
3 349 962 980 
3 181 861 887 
3 671 153 851 
3 944 516 989 
3 571 846 915 
3 164 609 639 
3 432 760 878 
3 767 178 961 
3 138 972 1013 
3 952 578 954 
3 398 426 632 
3 962 735 980 
3 743 562 967 
3 624 181 897 
3 972 582 1013 
3 152 659 932 
3 459 420 741 
3 148 607 673 
3 835 778 889 
3 33 32 627 
3 618 860 990 
3 4 5 753 
3 750 944 989 
3 590 155 841 
3 671 851 1000 
3 638 943 950 
3 760 432 1002 
3 943 180 950 
3 420 433 741 
3 158 587 948 
3 143 649 903 
3 649 143 925 
3 599 539 811 
3 581 599 811 
3 610 835 940 
3 18 19 639 
3 664 661 909 
3 539 765 948 
3 766 589 939 
3 190 717 988 
3 763 934 958 
3 958 934 970 
3 156 33 627 
3 665 170 995 
3 587 728 960 
3 764 625 973 
3 184 616 913 
3 632 426 633 
3 765 599 983 
3 185 743 967 
3 346 912 936 
3 577 952 954 
3 467 465 643 
3 730 733 736 
3 770 771 893 
3 536 763 958 
3 138 729 736 
3 866 161 985 
3 311 664 909 
3 4 753 1004 
3 534 630 666 
3 501 817 855 
3 545 747 971 
3 605 632 633 
3 400 398 632 
3 174 595 953 
3 616 184 1008 
3 604 400 632 
3 635 565 910 
3 188 190 988 
3 763 536 1011 
3 400 604 643 
3 955 854 969 
3 620 870 879 
3 747 545 1001 
3 870 145 879 
3 155 590 981 
3 567 955 969 
3 726 835 889 
3 537 772 963 
3 474 531 631 
3 145 603 879 
3 593 174 973 
3 771 528 923 
3 610 778 835 
3 631 531 831 
3 575 703 993 
3 507 623 631 
3 557 768 769 
3 607 148 979 
3 809 719 956 
3 416 388 637 
3 623 474 631 
3 603 145 887 
3 531 669 831 
3 643 469 838 
3 159 583 938 
3 630 265 666 
3 589 176 977 
3 924 930 1008 
3 754 166 908 
3 182 620 855 
3 703 575 712 
3 604 467 643 
3 639 610 940 
3 606 140 942 
3 912 572 936 
3 165 611 612 
3 626 265 630 
3 609 164 893 
3 459 635 910 
3 771 530 893 
3 646 519 674 
3 161 866 975 
3 924 529 930 
3 465 469 643 
3 817 182 855 
3 151 727 1024 
3 140 606 941 
3 265 626 640 
3 388 439 637 
3 611 165 999 
3 469 630 838 
3 620 182 870 
3 513 702 907 
3 747 448 971 
3 144 618 933 
3 673 607 957 
3 605 633 927 
3 448 747 987 
3 690 820 874 
3 623 507 861 
3 606 605 927 
3 646 501 855 
3 630 534 838 
3 154 767 920 
3 277 686 896 
3 164 770 893 
3 619 180 943 
3 475 640 864 
3 661 686 909 
3 81 106 628 
3 507 603 861 
3 863 535 867 
3 759 891 984 
3 774 167 1000 
3 272 197 679 
3 894 253 921 
3 383 863 867 
3 717 190 966 
3 718 429 956 
3 573 575 993 
3 904 795 931 
3 641 212 669 
3 471 361 674 
3 278 272 679 
3 468 646 674 
3 519 646 855 
3 417 877 917 
3 702 551 907 
3 628 162 629 
3 633 649 927 
3 633 426 648 
3 531 641 669 
3 686 656 896 
3 542 541 847 
3 535 634 853 
3 585 611 999 
3 640 626 864 
3 331 853 902 
3 591 801 1025 
3 677 278 679 
3 801 147 1025 
3 759 760 891 
3 180 619 946 
3 904 547 905 
3 651 278 677 
3 547 546 905 
3 527 636 642 
3 353 734 806 
3 565 742 910 
3 820 383 874 
3 519 471 674 
3 562 743 975 
3 106 162 628 
3 436 466 642 
3 226 265 640 
3 624 623 861 
3 634 535 863 
3 602 866 985 
3 888 277 896 
3 335 317 672 
3 383 867 874 
3 835 151 940 
3 669 279 831 
3 678 679 875 
3 578 952 997 
3 226 640 647 
3 466 527 642 
3 196 468 644 
3 627 32 981 
3 212 641 816 
3 685 228 824 
3 612 611 613 
3 741 433 945 
3 468 645 646 
3 435 335 672 
3 541 675 776 
3 523 735 962 
3 278 651 813 
3 361 644 674 
3 400 643 838 
3 651 490 813 
3 686 277 909 
3 279 650 792 
3 146 600 959 
3 476 685 824 
3 204 470 650 
3 534 666 797 
3 476 684 685 
3 318 334 675 
3 716 157 717 
3 230 227 647 
3 347 698 699 
3 678 888 896 
3 106 107 162 
3 468 194 645 
3 317 315 672 
3 391 436 642 
3 320 318 675 
3 199 196 644 
3 589 635 939 
3 427 517 648 
3 476 683 684 
3 644 468 674 
3 716 717 718 
3 437 542 667 
3 347 699 701 
3 348 351 698 
3 633 648 649 
3 678 875 888 
3 426 427 648 
3 313 230 647 
3 640 475 647 
3 437 541 542 
3 666 222 797 
3 566 636 638 
3 37 153 671 
3 39 167 670 
3 213 212 816 
3 334 317 335 
3 390 391 449 
3 205 204 650 
3 334 335 390 
3 347 348 698 
3 279 792 831 
3 768 557 986 
3 672 475 864 
3 877 533 917 
3 566 449 636 
3 171 57 691 
3 390 335 391 
3 210 279 669 
3 437 341 541 
3 713 406 821 
3 227 226 647 
3 351 695 698 
3 470 361 471 
3 42 692 693 
3 315 313 475 
3 476 304 683 
3 450 449 566 
3 681 366 804 
3 853 634 902 
3 466 467 525 
3 540 681 804 
3 169 45 673 
3 443 535 853 
3 41 152 692 
3 809 429 839 
3 664 311 929 
3 527 525 619 
3 472 471 504 
3 204 361 470 
3 204 202 361 
3 280 816 842 
3 144 47 676 
3 271 718 966 
3 645 501 646 
3 475 313 647 
3 546 742 905 
3 504 519 620 
3 466 465 467 
3 165 612 865 
3 351 694 695 
3 315 475 672 
3 655 677 678 
3 436 465 466 
3 470 471 472 
3 304 306 683 
3 479 706 793 
3 50 168 682 
3 507 505 603 
3 319 321 701 
3 560 894 921 
3 526 605 606 
3 525 467 526 
3 661 658 686 
3 210 208 279 
3 517 623 624 
3 472 504 505 
3 54 170 687 
3 170 621 947 
3 658 656 686 
3 678 677 679 
3 706 246 793 
3 398 399 426 
3 318 317 334 
3 316 315 317 
3 212 210 669 
3 493 713 821 
3 261 707 708 
3 654 652 655 
3 321 347 701 
3 395 280 396 
3 650 470 792 
3 397 396 398 
3 152 40 670 
3 167 38 671 
3 167 774 968 
3 479 705 706 
3 490 392 813 
3 466 525 527 
3 314 313 315 
3 541 341 675 
3 427 474 517 
3 715 716 719 
3 681 809 839 
3 691 689 783 
3 662 661 664 
3 196 194 468 
3 203 202 204 
3 341 320 675 
3 738 740 741 
3 265 224 666 
3 218 216 280 
3 224 222 666 
3 135 854 955 
3 612 613 614 
3 742 546 910 
3 391 435 436 
3 57 56 691 
3 325 327 417 
3 189 501 645 
3 166 754 976 
3 816 641 842 
3 226 224 265 
3 202 199 644 
3 148 43 693 
3 504 471 519 
3 208 205 650 
3 261 708 714 
3 652 651 677 
3 479 704 705 
3 44 148 673 
3 41 40 152 
3 37 36 153 
3 39 38 167 
3 201 199 202 
3 655 652 677 
3 660 658 661 
3 398 396 399 
3 426 399 427 
3 710 707 794 
3 654 655 656 
3 46 169 676 
3 569 490 651 
3 683 417 684 
3 569 651 652 
3 410 408 711 
3 218 280 395 
3 517 474 623 
3 390 449 450 
3 156 627 951 
3 397 398 400 
3 791 510 860 
3 707 261 794 
3 352 355 694 
3 171 691 783 
3 436 464 465 
3 42 41 692 
3 167 671 1000 
3 209 208 210 
3 738 739 740 
3 44 43 148 
3 136 687 688 
3 351 352 694 
3 306 325 683 
3 142 51 682 
3 114 137 739 
3 395 396 397 
3 207 205 208 
3 211 210 212 
3 279 208 650 
3 449 391 642 
3 46 45 169 
3 312 230 313 
3 438 437 667 
3 600 146 1026 
3 739 137 740 
3 506 505 507 
3 733 734 735 
3 620 519 855 
3 136 55 687 
3 48 47 144 
3 361 202 644 
3 730 732 733 
3 579 438 667 
3 733 732 734 
3 823 521 836 
3 715 157 716 
3 191 189 645 
3 50 49 168 
3 173 715 719 
3 153 36 680 
3 413 410 711 
3 540 588 681 
3 526 604 605 
3 325 417 683 
3 541 776 847 
3 52 51 142 
3 40 39 670 
3 38 37 671 
3 479 287 704 
3 282 284 710 
3 218 395 797 
3 287 289 704 
3 54 53 170 
3 391 335 435 
3 698 697 699 
3 695 696 697 
3 430 540 804 
3 58 171 703 
3 730 731 732 
3 56 55 136 
3 694 559 695 
3 43 42 693 
3 660 661 662 
3 113 114 739 
3 395 534 797 
3 489 392 490 
3 45 44 673 
3 201 202 203 
3 456 413 457 
3 450 566 567 
3 689 688 690 
3 451 558 559 
3 695 559 696 
3 729 172 730 
3 47 46 676 
3 675 334 776 
3 443 491 535 
3 540 587 588 
3 777 509 796 
3 695 697 698 
3 203 204 205 
3 51 50 682 
3 284 386 710 
3 295 331 401 
3 215 213 216 
3 554 447 555 
3 699 697 700 
3 704 401 705 
3 216 213 816 
3 552 409 826 
3 325 326 327 
3 217 216 218 
3 254 256 714 
3 436 435 464 
3 282 710 794 
3 457 413 711 
3 281 304 476 
3 56 136 691 
3 568 490 569 
3 452 777 796 
3 55 54 687 
3 136 688 689 
3 223 222 224 
3 730 172 731 
3 59 703 712 
3 653 652 654 
3 355 451 694 
3 58 57 171 
3 289 295 704 
3 427 473 474 
3 194 191 645 
3 281 476 824 
3 285 479 793 
3 447 406 713 
3 679 197 875 
3 506 631 831 
3 327 345 346 
3 614 613 615 
3 256 261 714 
3 306 308 325 
3 451 508 558 
3 478 300 779 
3 112 113 737 
3 465 464 469 
3 451 559 694 
3 707 549 708 
3 221 219 222 
3 295 401 704 
3 430 538 540 
3 355 418 451 
3 59 58 703 
3 207 208 209 
3 477 548 549 
3 209 210 211 
3 477 549 707 
3 737 113 739 
3 193 191 194 
3 746 745 747 
3 147 119 761 
3 386 441 477 
3 295 330 331 
3 775 445 800 
3 555 713 857 
3 555 447 713 
3 189 149 501 
3 173 103 715 
3 570 680 873 
3 211 212 213 
3 119 120 761 
3 565 485 742 
3 731 737 738 
3 547 904 931 
3 463 513 907 
3 543 775 800 
3 340 823 836 
3 264 262 773 
3 302 300 478 
3 443 454 491 
3 360 341 437 
3 177 745 746 
3 150 749 750 
3 139 60 712 
3 60 59 712 
3 745 744 748 
3 477 441 548 
3 285 287 479 
3 491 573 574 
3 485 404 742 
3 338 423 443 
3 759 757 760 
3 386 477 710 
3 708 549 709 
3 163 756 757 
3 177 744 745 
3 489 490 568 
3 120 121 758 
3 104 157 715 
3 104 105 157 
3 406 310 821 
3 150 10 749 
3 451 418 508 
3 636 449 642 
3 596 594 597 
3 676 169 791 
3 480 374 807 
3 526 467 604 
3 589 565 635 
3 472 505 506 
3 100 158 765 
3 99 100 765 
3 120 758 761 
3 758 757 759 
3 752 754 755 
3 328 269 403 
3 163 751 756 
3 744 141 748 
3 138 110 729 
3 269 264 773 
3 617 615 637 
3 102 103 173 
3 513 608 702 
3 289 294 295 
3 614 615 616 
3 10 11 749 
3 752 755 756 
3 30 29 768 
3 155 30 768 
3 540 538 587 
3 158 101 728 
3 749 746 750 
3 28 154 769 
3 403 269 773 
3 103 104 715 
3 102 173 728 
3 504 620 879 
3 36 35 680 
3 768 29 769 
3 163 757 758 
3 121 163 758 
3 564 485 565 
3 708 709 845 
3 770 528 771 
3 109 110 138 
3 175 762 763 
3 111 172 729 
3 446 406 447 
3 111 112 172 
3 110 111 729 
3 553 447 554 
3 499 562 563 
3 616 615 617 
3 792 506 831 
3 751 752 756 
3 301 302 781 
3 25 24 772 
3 178 25 772 
3 101 102 728 
3 382 310 406 
3 29 28 769 
3 456 457 572 
3 752 753 754 
3 751 186 752 
3 752 186 753 
3 11 12 177 
3 185 69 743 
3 80 79 187 
3 123 186 751 
3 13 141 744 
3 70 69 185 
3 68 161 743 
3 61 139 764 
3 76 160 762 
3 78 77 175 
3 69 68 743 
3 68 67 161 
3 175 77 762 
3 123 124 186 
3 97 98 159 
3 100 101 158 
3 163 122 751 
3 65 64 146 
3 174 62 764 
3 63 62 174 
3 122 123 751 
3 121 122 163 
3 61 60 139 
3 62 61 764 
3 76 75 160 
3 94 95 165 
3 77 76 762 
3 74 73 184 
3 92 93 529 
3 118 119 147 
3 116 117 176 
3 115 116 766 
3 114 115 137 
3 13 14 141 
3 12 13 744 
3 116 176 766 
3 16 17 151 
3 137 115 766 
3 34 33 156 
3 28 27 154 
3 31 30 155 
3 6 7 166 
3 9 10 150 
3 27 26 767 
3 19 20 164 
3 26 25 178 
3 20 21 770 
3 21 22 528 
3 177 12 744 
3 154 27 767 
3 26 178 767 
3 164 20 770 
3 21 528 770 
3 393 394 778 
3 172 112 737 
3 284 385 386 
3 758 759 761 
3 596 597 598 
3 477 707 710 
3 359 343 780 
3 328 403 404 
3 891 592 984 
3 499 563 780 
3 386 387 441 
3 177 746 749 
3 343 405 780 
3 536 537 580 
3 11 177 749 
3 331 330 338 
3 293 291 344 
3 393 342 394 
3 461 393 778 
3 312 313 314 
3 506 507 631 
3 222 219 797 
3 301 300 302 
3 405 498 499 
3 609 461 610 
3 452 546 547 
3 524 445 532 
3 440 389 445 
3 585 584 611 
3 299 297 300 
3 342 301 781 
3 536 524 537 
3 440 524 536 
3 344 291 803 
3 499 530 562 
3 402 374 480 
3 609 610 639 
3 600 598 601 
3 532 445 775 
3 379 377 380 
3 295 294 330 
3 339 421 422 
3 358 444 452 
3 564 565 589 
3 731 172 737 
3 440 445 524 
3 499 498 530 
3 738 737 739 
3 657 656 658 
3 583 483 584 
3 329 343 359 
3 405 461 498 
3 508 509 560 
3 498 461 609 
3 583 584 585 
3 325 308 326 
3 600 601 602 
3 571 453 586 
3 595 594 596 
3 388 380 389 
3 422 453 516 
3 452 547 777 
3 724 722 725 
3 376 378 482 
3 263 267 282 
3 439 389 440 
3 379 388 416 
3 548 441 720 
3 610 461 778 
3 405 393 461 
3 388 389 439 
3 381 333 419 
3 441 387 442 
3 414 500 576 
3 380 787 800 
3 386 385 387 
3 293 344 779 
3 593 521 594 
3 379 380 388 
3 522 438 579 
3 496 591 592 
3 322 320 341 
3 405 499 780 
3 378 377 379 
3 726 724 727 
3 482 483 581 
3 443 423 454 
3 720 442 721 
3 343 393 405 
3 422 421 453 
3 596 598 600 
3 441 442 720 
3 516 453 571 
3 442 387 789 
3 282 283 284 
3 268 264 269 
3 723 724 726 
3 118 147 801 
3 176 117 801 
3 394 342 781 
3 339 381 421 
3 299 300 301 
3 300 297 779 
3 256 260 261 
3 355 356 418 
3 402 480 481 
3 668 542 1018 
3 284 384 385 
3 491 454 573 
3 421 381 432 
3 482 378 483 
3 581 483 583 
3 484 404 485 
3 520 487 521 
3 373 371 374 
3 339 333 381 
3 556 480 825 
3 481 480 556 
3 276 333 339 
3 605 604 632 
3 270 269 328 
3 343 342 393 
3 721 722 723 
3 569 652 653 
3 402 481 543 
3 329 301 342 
3 299 301 329 
3 328 404 484 
3 329 342 343 
3 373 374 375 
3 723 722 724 
3 376 377 378 
3 375 374 402 
3 228 229 824 
3 787 543 800 
3 387 448 789 
3 721 442 722 
3 384 283 544 
3 258 255 259 
3 376 375 377 
3 250 252 285 
3 268 270 276 
3 496 485 564 
3 373 375 376 
3 268 269 270 
3 593 594 595 
3 380 377 787 
3 329 359 782 
3 136 689 691 
3 387 385 448 
3 276 270 333 
3 484 485 496 
3 298 297 299 
3 379 416 786 
3 496 564 591 
3 282 267 283 
3 586 453 784 
3 376 482 785 
3 284 283 384 
3 297 293 779 
3 384 544 545 
3 445 389 800 
3 267 264 268 
3 292 296 340 
3 452 444 546 
3 296 293 297 
3 725 722 789 
3 298 299 782 
3 699 700 881 
3 453 421 784 
3 584 483 786 
3 446 447 553 
3 396 280 842 
3 378 379 786 
3 358 452 796 
3 370 372 430 
3 421 432 784 
3 597 594 823 
3 382 406 446 
3 327 326 345 
3 481 556 557 
3 285 286 287 
3 419 333 790 
3 290 288 291 
3 520 521 593 
3 508 418 509 
3 299 329 782 
3 377 375 787 
3 352 354 355 
3 292 291 293 
3 538 431 539 
3 422 516 822 
3 263 264 267 
3 215 216 217 
3 296 297 298 
3 427 399 473 
3 217 218 219 
3 372 371 373 
3 483 378 786 
3 430 431 538 
3 722 442 789 
3 460 362 487 
3 287 288 289 
3 482 581 811 
3 659 658 660 
3 346 345 414 
3 292 293 296 
3 375 402 787 
3 256 258 260 
3 260 262 263 
3 328 484 790 
3 289 290 294 
3 263 282 794 
3 372 373 785 
3 430 372 431 
3 232 234 281 
3 773 262 795 
3 314 315 316 
3 263 262 264 
3 260 258 262 
3 270 328 790 
3 338 362 423 
3 251 249 253 
3 402 543 787 
3 247 249 250 
3 289 288 290 
3 285 252 286 
3 221 222 223 
3 333 270 790 
3 460 487 520 
3 460 520 625 
3 407 409 552 
3 256 255 258 
3 287 286 288 
3 373 376 785 
3 261 260 794 
3 395 397 534 
3 267 268 788 
3 418 356 796 
3 254 255 256 
3 268 276 788 
3 339 422 814 
3 286 252 486 
3 290 291 292 
3 425 462 463 
3 117 118 801 
3 243 241 244 
3 247 245 248 
3 254 253 255 
3 431 372 785 
3 250 251 252 
3 283 267 788 
3 251 253 254 
3 389 380 800 
3 544 283 788 
3 496 592 810 
3 790 484 810 
3 509 418 796 
3 258 259 795 
3 243 245 246 
3 250 249 251 
3 358 420 444 
3 419 790 810 
3 681 588 809 
3 788 276 814 
3 338 330 362 
3 411 424 425 
3 195 194 196 
3 434 368 455 
3 463 512 513 
3 229 232 824 
3 409 411 826 
3 356 357 358 
3 254 714 798 
3 225 224 226 
3 348 350 351 
3 420 357 433 
3 260 263 794 
3 247 248 249 
3 246 245 247 
3 544 788 814 
3 250 285 793 
3 243 244 245 
3 239 241 242 
3 262 258 795 
3 309 307 310 
3 370 371 372 
3 239 237 240 
3 423 362 460 
3 355 354 356 
3 573 454 575 
3 246 247 793 
3 513 607 608 
3 206 205 207 
3 356 358 796 
3 198 196 199 
3 488 392 489 
3 246 706 829 
3 469 626 630 
3 200 199 201 
3 280 216 816 
3 358 357 420 
3 590 561 627 
3 444 420 459 
3 621 515 622 
3 775 543 818 
3 332 310 382 
3 785 482 811 
3 369 368 434 
3 242 241 243 
3 281 303 304 
3 518 455 561 
3 292 340 799 
3 367 369 370 
3 446 553 634 
3 356 354 357 
3 367 365 368 
3 676 791 860 
3 460 625 812 
3 251 254 798 
3 431 785 811 
3 539 431 811 
3 247 250 793 
3 294 290 799 
3 330 294 802 
3 484 496 810 
3 316 317 318 
3 235 237 238 
3 239 240 241 
3 219 218 797 
3 518 561 590 
3 654 656 657 
3 543 481 818 
3 474 473 531 
3 364 336 392 
3 290 292 799 
3 556 825 841 
3 337 365 366 
3 252 251 798 
3 235 233 236 
3 367 368 369 
3 434 455 518 
3 374 371 807 
3 370 369 371 
3 521 487 836 
3 514 428 515 
3 487 362 802 
3 291 288 803 
3 603 505 879 
3 309 332 363 
3 274 272 278 
3 276 339 814 
3 238 237 239 
3 555 857 869 
3 304 305 306 
3 321 323 347 
3 235 236 237 
3 306 307 308 
3 472 506 792 
3 486 252 798 
3 366 681 839 
3 599 159 983 
3 84 126 135 
3 288 286 803 
3 332 382 383 
3 653 654 774 
3 281 234 303 
3 286 486 803 
3 370 430 804 
3 85 127 180 
3 309 310 332 
3 305 303 493 
3 470 472 792 
3 294 799 802 
3 351 350 352 
3 362 330 802 
3 454 423 812 
3 308 307 309 
3 371 369 807 
3 415 413 456 
3 423 460 812 
3 86 128 140 
3 366 367 804 
3 576 500 577 
3 369 434 807 
3 306 305 307 
3 234 233 235 
3 876 548 880 
3 360 437 438 
3 480 807 825 
3 814 422 822 
3 87 129 179 
3 412 410 413 
3 481 557 818 
3 352 353 354 
3 214 213 215 
3 366 365 367 
3 845 709 850 
3 347 323 348 
3 469 464 626 
3 433 357 806 
3 352 350 353 
3 354 353 806 
3 304 303 305 
3 680 35 873 
3 88 130 143 
3 594 521 823 
3 231 230 312 
3 275 337 839 
3 322 341 360 
3 575 454 812 
3 357 354 806 
3 545 544 822 
3 326 308 805 
3 243 246 829 
3 414 428 500 
3 397 400 838 
3 274 278 813 
3 514 515 621 
3 367 370 804 
3 654 657 774 
3 365 364 828 
3 364 392 488 
3 334 390 776 
3 597 823 843 
3 337 364 365 
3 228 685 849 
3 89 131 181 
3 514 621 665 
3 319 318 320 
3 544 814 822 
3 414 345 428 
3 166 7 846 
3 220 219 221 
3 309 363 805 
3 488 489 808 
3 489 568 570 
3 308 309 805 
3 455 368 828 
3 229 227 230 
3 411 425 826 
3 90 132 145 
3 660 662 663 
3 91 133 182 
3 134 91 817 
3 232 281 824 
3 82 134 149 
3 502 257 503 
3 223 224 225 
3 235 238 815 
3 348 323 349 
3 232 233 234 
3 434 518 825 
3 657 658 659 
3 340 296 843 
3 500 428 514 
3 242 243 829 
3 364 488 828 
3 234 235 815 
3 598 597 852 
3 368 365 828 
3 392 336 813 
3 310 307 821 
3 229 231 232 
3 425 424 462 
3 203 205 206 
3 348 349 350 
3 319 320 321 
3 534 397 838 
3 211 213 214 
3 601 598 856 
3 337 336 364 
3 232 231 233 
3 407 552 832 
3 363 332 820 
3 807 434 825 
3 463 462 512 
3 429 275 839 
3 535 491 867 
3 303 234 815 
3 332 383 820 
3 217 219 220 
3 561 455 844 
3 513 512 607 
3 305 493 821 
3 321 320 322 
3 415 456 458 
3 220 257 495 
3 229 230 231 
3 307 305 821 
3 338 443 853 
3 321 322 323 
3 493 303 815 
3 198 199 200 
3 601 856 862 
3 200 201 311 
3 412 413 415 
3 195 196 198 
3 192 191 193 
3 206 207 266 
3 515 428 830 
3 823 340 843 
3 275 336 337 
3 489 570 808 
3 193 194 195 
3 312 314 492 
3 415 458 511 
3 825 518 841 
3 221 223 819 
3 220 221 257 
3 231 312 827 
3 336 274 813 
3 473 399 842 
3 502 503 533 
3 399 396 842 
3 345 326 830 
3 511 578 618 
3 236 233 827 
3 360 438 494 
3 568 569 851 
3 531 473 641 
3 869 242 882 
3 511 458 578 
3 275 274 336 
3 799 340 836 
3 225 226 227 
3 494 438 522 
3 862 563 866 
3 214 215 324 
3 327 346 877 
3 462 424 510 
3 522 579 582 
3 802 799 836 
3 435 672 864 
3 273 275 429 
3 344 850 871 
3 233 231 827 
3 598 852 856 
3 495 257 502 
3 312 492 827 
3 214 324 407 
3 494 522 523 
3 409 410 411 
3 326 805 830 
3 608 607 979 
3 411 412 424 
3 319 701 848 
3 296 298 843 
3 518 590 841 
3 665 142 883 
3 428 345 830 
3 228 227 229 
3 407 408 409 
3 780 563 862 
3 724 725 859 
3 411 410 412 
3 337 366 839 
3 597 843 852 
3 487 802 836 
3 94 165 865 
3 529 93 865 
3 198 200 277 
3 409 408 410 
3 478 779 871 
3 206 266 497 
3 503 257 819 
3 690 874 998 
3 225 227 228 
3 34 156 873 
3 190 189 191 
3 257 221 819 
3 344 803 850 
3 316 318 319 
3 486 798 845 
3 407 324 408 
3 209 211 832 
3 273 274 275 
3 497 266 550 
3 497 550 551 
3 755 754 908 
3 798 714 845 
3 641 473 842 
3 201 203 833 
3 311 201 833 
3 622 515 858 
3 7 8 846 
3 349 323 837 
3 215 217 834 
3 714 708 845 
3 91 182 817 
3 149 134 817 
3 273 272 274 
3 390 450 776 
3 850 709 871 
3 383 382 863 
3 323 322 837 
3 144 676 860 
3 828 488 844 
3 549 548 876 
3 843 298 852 
3 760 757 878 
3 446 634 863 
3 324 215 834 
3 756 755 878 
3 455 828 844 
3 322 360 837 
3 203 206 833 
3 211 214 832 
3 239 242 869 
3 705 401 898 
3 488 808 844 
3 401 331 902 
3 220 495 834 
3 217 220 834 
3 126 83 854 
3 360 494 837 
3 412 415 840 
3 192 193 197 
3 415 511 840 
3 464 435 864 
3 656 655 896 
3 510 424 840 
3 501 149 817 
3 424 412 840 
3 298 782 852 
3 711 408 868 
3 486 845 850 
3 803 486 850 
3 569 653 851 
3 706 705 895 
3 214 407 832 
3 685 684 901 
3 331 338 853 
3 819 223 849 
3 848 701 881 
3 713 493 857 
3 492 314 848 
3 206 497 833 
3 492 848 881 
3 266 207 872 
3 515 830 858 
3 830 805 858 
3 223 225 849 
3 271 272 273 
3 852 782 856 
3 782 359 856 
3 450 567 847 
3 266 872 890 
3 601 862 866 
3 517 624 903 
3 478 876 880 
3 135 126 854 
3 856 359 862 
3 316 319 848 
3 727 724 859 
3 877 346 936 
3 271 197 272 
3 192 197 271 
3 324 834 868 
3 90 145 870 
3 182 133 870 
3 359 780 862 
3 898 401 902 
3 555 869 882 
3 382 446 863 
3 815 238 857 
3 314 316 848 
3 133 90 870 
3 190 191 192 
3 93 94 865 
3 805 363 858 
3 225 228 849 
3 514 665 883 
3 498 609 893 
3 493 815 857 
3 602 601 866 
3 881 700 885 
3 577 500 883 
3 834 495 868 
3 457 711 892 
3 491 574 867 
3 255 253 894 
3 832 552 872 
3 857 238 869 
3 209 832 872 
3 626 464 864 
3 572 457 900 
3 238 239 869 
3 779 344 871 
3 207 209 872 
3 969 183 982 
3 684 417 917 
3 638 135 955 
3 419 810 891 
3 478 871 876 
3 425 463 899 
3 197 193 875 
3 89 181 887 
3 35 34 873 
3 83 125 183 
3 145 132 887 
3 554 555 882 
3 548 720 880 
3 505 504 879 
3 911 696 914 
3 895 705 898 
3 408 324 868 
3 417 327 877 
3 662 964 974 
3 776 450 847 
3 709 549 876 
3 880 720 884 
3 773 795 904 
3 188 149 189 
3 193 195 875 
3 18 639 940 
3 757 756 878 
3 582 579 926 
3 742 404 905 
3 720 721 884 
3 236 885 906 
3 697 696 911 
3 701 699 881 
3 302 478 880 
3 198 277 888 
3 884 721 886 
3 236 827 885 
3 872 552 890 
3 588 587 960 
3 346 414 912 
3 721 723 886 
3 302 880 884 
3 88 143 897 
3 240 237 906 
3 886 723 889 
3 160 75 913 
3 74 184 913 
3 181 131 897 
3 781 302 884 
3 559 558 916 
3 638 636 943 
3 500 514 883 
3 546 444 910 
3 916 558 918 
3 901 684 917 
3 132 89 887 
3 723 726 889 
3 9 150 915 
3 188 189 190 
3 781 884 886 
3 242 829 882 
3 871 709 876 
3 629 668 982 
3 937 175 1011 
3 244 241 914 
3 820 690 935 
3 457 892 900 
3 394 781 886 
3 394 886 889 
3 885 700 906 
3 459 741 991 
3 668 969 982 
3 778 394 889 
3 867 574 874 
3 508 560 919 
3 552 826 890 
3 649 648 903 
3 550 266 890 
3 625 139 978 
3 107 108 926 
3 24 23 922 
3 71 70 923 
3 73 72 924 
3 248 245 918 
3 711 868 892 
3 827 492 885 
3 810 592 891 
3 83 183 854 
3 775 818 920 
3 195 198 888 
3 82 149 188 
3 48 144 933 
3 846 8 915 
3 168 49 933 
3 875 195 888 
3 253 249 921 
3 868 495 892 
3 248 918 919 
3 527 619 943 
3 919 560 921 
3 277 200 909 
3 530 498 893 
3 244 914 916 
3 550 890 899 
3 926 108 1013 
3 240 906 911 
3 655 678 896 
3 259 255 894 
3 560 509 928 
3 495 502 892 
3 734 353 980 
3 87 179 925 
3 143 130 925 
3 259 928 931 
3 554 882 895 
3 819 849 901 
3 890 826 899 
3 659 660 932 
3 131 88 897 
3 762 160 934 
3 607 512 957 
3 492 881 885 
3 135 638 950 
3 648 517 903 
3 829 706 895 
3 497 551 929 
3 882 829 895 
3 542 847 1018 
3 553 554 898 
3 619 525 942 
3 849 685 901 
3 554 895 898 
3 892 502 900 
3 416 637 1017 
3 795 259 931 
3 566 638 955 
3 553 898 902 
3 526 606 942 
3 926 579 996 
3 187 79 937 
3 78 175 937 
3 740 137 939 
3 634 553 902 
3 403 904 905 
3 403 773 904 
3 899 463 907 
3 502 533 900 
3 826 425 899 
3 240 911 914 
3 96 97 938 
3 174 764 973 
3 404 403 905 
3 363 820 935 
3 503 819 901 
3 586 784 908 
3 311 833 929 
3 237 236 906 
3 738 741 945 
3 700 697 911 
3 17 18 940 
3 200 311 909 
3 444 459 910 
3 727 859 1010 
3 551 550 907 
3 414 576 912 
3 894 560 928 
3 915 150 989 
3 503 901 917 
3 75 74 913 
3 732 731 945 
3 791 169 957 
3 670 167 968 
3 184 924 1008 
3 627 561 951 
3 692 152 932 
3 241 240 914 
3 244 916 918 
3 688 687 947 
3 162 107 926 
3 8 9 915 
3 727 1010 1024 
3 259 894 928 
3 696 559 916 
3 86 140 941 
3 179 129 941 
3 587 538 948 
3 906 700 911 
3 822 516 944 
3 456 572 949 
3 146 64 953 
3 63 174 953 
3 245 244 918 
3 173 719 960 
3 582 926 1013 
3 85 180 946 
3 735 734 980 
3 140 128 946 
3 533 503 917 
3 558 508 919 
3 914 696 916 
3 736 523 972 
3 580 937 1011 
3 918 558 919 
3 532 775 920 
3 440 536 958 
3 772 24 922 
3 70 185 923 
3 184 73 924 
3 248 919 921 
3 130 87 925 
3 249 248 921 
3 66 65 959 
3 84 135 950 
3 180 127 950 
3 622 858 935 
3 765 158 948 
3 537 524 961 
3 550 899 907 
3 576 577 954 
3 662 664 964 
3 613 611 965 
3 928 777 931 
3 509 777 928 
3 934 160 1014 
3 949 576 954 
3 157 105 988 
3 529 865 930 
3 612 614 930 
3 611 584 965 
3 494 523 962 
3 777 547 931 
3 557 769 992 
3 786 416 965 
3 142 665 995 
3 660 663 932 
3 833 497 929 
3 844 808 951 
3 448 385 971 
3 384 545 971 
3 625 520 973 
3 138 736 972 
3 571 915 989 
3 49 48 933 
3 6 166 976 
3 865 612 930 
3 689 690 998 
3 564 589 977 
3 147 761 984 
3 31 155 981 
3 99 765 983 
3 841 155 986 
3 688 947 1022 
3 159 98 983 
3 162 926 996 
3 772 922 963 
3 419 891 1002 
3 557 556 986 
3 67 66 985 
3 657 659 968 
3 349 837 962 
3 719 716 956 
3 747 745 987 
3 572 912 949 
3 52 142 995 
3 763 762 934 
3 170 53 995 
3 523 522 972 
3 600 602 959 
3 350 349 980 
3 755 908 1007 
3 171 783 993 
3 680 570 994 
3 590 627 981 
3 583 585 938 
3 190 192 966 
3 636 527 943 
3 692 932 1009 
3 750 746 1001 
3 567 969 1018 
3 912 576 949 
3 95 96 999 
3 570 568 994 
3 3 80 1003 
3 23 3 1003 
3 124 0 1004 
3 0 4 1004 
3 72 1 1005 
3 1 92 1005 
3 2 71 1006 
3 22 2 1006 
3 753 186 1004 
3 109 138 1013 
3 866 563 975 
3 511 618 990 
3 432 381 1002 
3 596 600 1026 
3 16 151 1024 
3 141 14 1010 
3 637 615 1017 
3 806 734 1012 
3 572 900 936 
3 891 760 1002 
3 789 448 1020 
3 932 663 1009 
3 79 78 937 
3 859 141 1010 
3 614 616 1008 
3 510 791 1021 
3 964 702 974 
3 929 551 964 
3 97 159 938 
3 533 877 936 
3 851 653 1000 
3 516 571 989 
3 137 766 939 
3 462 510 1021 
3 858 363 935 
3 734 732 1012 
3 617 934 1014 
3 743 161 975 
3 510 840 990 
3 860 510 990 
3 151 17 940 
3 628 629 982 
3 129 86 941 
3 525 526 942 
3 716 718 956 
3 900 533 936 
3 818 557 992 
3 687 170 947 
3 731 738 945 
3 740 939 991 
3 128 85 946 
3 637 439 970 
3 545 822 944 
3 808 570 1016 
3 908 784 1007 
3 621 622 947 
3 538 539 948 
3 682 168 952 
3 458 456 949 
3 718 717 966 
3 712 575 978 
3 570 873 1016 
3 922 187 963 
3 127 84 950 
3 561 844 951 
3 169 673 957 
3 947 622 1022 
3 458 949 954 
3 64 63 953 
3 664 929 964 
3 81 628 1023 
3 567 566 955 
3 663 662 974 
3 429 809 956 
3 530 771 967 
3 578 458 954 
3 146 953 1026 
3 439 440 958 
3 142 682 1015 
3 812 625 978 
3 575 812 978 
3 944 750 1001 
3 65 146 959 
3 728 173 960 
3 524 532 961 
3 741 740 991 
3 536 580 1011 
3 617 637 970 
3 753 5 976 
3 837 494 962 
3 551 702 964 
3 155 768 986 
3 580 537 963 
3 883 142 1015 
3 584 786 965 
3 176 801 977 
3 667 629 996 
3 801 591 977 
3 635 459 991 
3 125 81 1023 
3 448 987 1020 
3 562 530 967 
3 774 657 968 
3 192 271 966 
3 385 384 971 
3 520 593 973 
3 574 783 998 
3 952 168 997 
3 791 957 1021 
3 702 608 974 
3 939 635 991 
3 522 582 972 
3 563 562 975 
3 754 753 976 
3 5 6 976 
3 854 183 969 
3 591 564 977 
3 139 712 978 
3 148 693 979 
3 920 818 992 
3 168 933 997 
3 874 574 998 
3 965 416 1017 
3 32 31 981 
3 353 350 980 
3 98 99 983 
3 732 945 1012 
3 761 759 984 
3 161 67 985 
3 717 157 988 
3 878 755 1007 
3 745 748 987 
3 979 693 1009 
3 556 841 986 
3 153 680 994 
3 150 750 989 
3 579 667 996 
3 953 595 1026 
3 922 23 1003 
3 71 923 1006 
3 924 72 1005 
3 783 689 998 
3 432 878 1007 
3 951 808 1016 
3 147 984 1025 
3 703 171 993 
3 851 153 994 
3 629 162 996 
3 840 511 990 
3 439 958 970 
3 769 154 992 
3 53 52 995 
3 160 913 1014 
3 693 692 1009 
3 568 851 994 
3 934 617 970 
3 979 1009 1019 
3 746 747 1001 
3 165 95 999 
3 618 578 997 
3 80 187 1003 
3 186 124 1004 
3 92 529 1005 
3 528 22 1006 
3 381 419 1002 
3 690 688 1022 
3 653 774 1000 
3 154 920 992 
3 784 432 1007 
3 969 668 1018 
3 14 15 1010 
3 175 763 1011 
3 108 109 1013 
3 873 156 1016 
3 616 617 1014 
3 433 806 1012 
3 615 613 1017 
3 933 618 997 
3 1010 15 1024 
3 183 125 1023 
3 545 944 1001 
3 725 789 1020 
3 15 16 1024 
3 577 883 1015 
3 748 141 1027 
3 859 725 1027 
3 592 591 1025 
3 595 596 1026 
3 512 462 1021 
3 847 567 1018 
3 187 922 1003 
3 923 528 1006 
3 529 924 1005 
3 913 616 1014 
3 1020 748 1027 
3 725 1020 1027 
3 141 859 1027 
3 622 935 1022 
3 945 433 1012 
3 957 512 1021 
3 930 614 1008 
3 156 951 1016 
3 935 690 1022 
3 613 965 1017 
3 663 974 1019 
3 952 577 1015 
3 682 952 1015 
3 982 183 1023 
3 974 608 1019 
3 608 979 1019 
3 984 592 1025 
3 987 748 1020 
3 628 982 1023 
3 1009 663 1019 

CELL_TYPES 1919
5
5
5
5
5
5
5
5
5
5
5
5
5
5
5
5
5
5
5
5
5
5
5
5
5
5
5
5
5
5
5
5
5
5
5
5
5
5
5
5
5
5
5
5
5
5
5
5
5
5
5
5
5
5
5
5
5
5
5
5
5
5
5
5
5
5
5
5
5
5
5
5
5
5
5
5
5
5
5
5
5
5
5
5
5
5
5
5
5
5
5
5
5
5
5
5
5
5
5
5
5
5
5
5
5
5
5
5
5
5
5
5
5
5
5
5
5
5
5
5
5
5
5
5
5
5
5
5
5
5
5
5
5
5
5
5
5
5
5
5
5
5
5
5
5
5
5
5
5
5
5
5
5
5
5
5
5
5
5
5
5
5
5
5
5
5
5
5
5
5
5
5
5
5
5
5
5
5
5
5
5
5
5
5
5
5
5
5
5
5
5
5
5
5
5
5
5
5
5
5
5
5
5
5
5
5
5
5
5
5
5
5
5
5
5
5
5
5
5
5
5
5
5
5
5
5
5
5
5
5
5
5
5
5
5
5
5
5
5
5
5
5
5
5
5
5
5
5
5
5
5
5
5
5
5
5
5
5
5
5
5
5
5
5
5
5
5
5
5
5
5
5
5
5
5
5
5
5
5
5
5
5
5
5
5
5
5
5
5
5
5
5
5
5
5
5
5
5
5
5
5
5
5
5
5
5
5
5
5
5
5
5
5
5
5
5
5
5
5
5
5
5
5
5
5
5
5
5
5
5
5
5
5
5
5
5
5
5
5
5
5
5
5
5
5
5
5
5
5
5
5
5
5
5
5
5
5
5
5
5
5
5
5
5
5
5
5
5
5
5
5
5
5
5
5
5
5
5
5
5
5
5
5
5
5
5
5
5
5
5
5
5
5
5
5
5
5
5
5
5
5
5
5
5
5
5
5
5
5
5
5
5
5
5
5
5
5
5
5
5
5
5
5
5
5
5
5
5
5
5
5
5
5
5
5
5
5
5
5
5
5
5
5
5
5
5
5
5
5
5
5
5
5
5
5
5
5
5
5
5
5
5
5
5
5
5
5
5
5
5
5
5
5
5
5
5
5
5
5
5
5
5
5
5
5
5
5
5
5
5
5
5
5
5
5
5
5
5
5
5
5
5
5
5
5
5
5
5
5
5
5
5
5
5
5
5
5
5
5
5
5
5
5
5
5
5
5
5
5
5
5
5
5
5
5
5
5
5
5
5
5
5
5
5
5
5
5
5
5
5
5
5
5
5
5
5
5
5
5
5
5
5
5
5
5
5
5
5
5
5
5
5
5
5
5
5
5
5
5
5
5
5
5
5
5
5
5
5
5
5
5
5
5
5
5
5
5
5
5
5
5
5
5
5
5
5
5
5
5
5
5
5
5
5
5
5
5
5
5
5
5
5
5
5
5
5
5
5
5
5
5
5
5
5
5
5
5
5
5
5
5
5
5
5
5
5
5
5
5
5
5
5
5
5
5
5
5
5
5
5
5
5
5
5
5
5
5
5
5
5
5
5
5
5
5
5
5
5
5
5
5
5
5
5
5
5
5
5
5
5
5
5
5
5
5
5
5
5
5
5
5
5
5
5
5
5
5
5
5
5
5
5
5
5
5
5
5
5
5
5
5
5
5
5
5
5
5
5
5
5
5
5
5
5
5
5
5
5
5
5
5
5
5
5
5
5
5
5
5
5
5
5
5
5
5
5
5
5
5
5
5
5
5
5
5
5
5
5
5
5
5
5
5
5
5
5
5
5
5
5
5
5
5
5
5
5
5
5
5
5
5
5
5
5
5
5
5
5
5
5
5
5
5
5
5
5
5
5
5
5
5
5
5
5
5
5
5
5
5
5
5
5
5
5
5
5
5
5
5
5
5
5
5
5
5
5
5
5
5
5
5
5
5
5
5
5
5
5
5
5
5
5
5
5
5
5
5
5
5
5
5
5
5
5
5
5
5
5
5
5
5
5
5
5
5
5
5
5
5
5
5
5
5
5
5
5
5
5
5
5
5
5
5
5
5
5
5
5
5
5
5
5
5
5
5
5
5
5
5
5
5
5
5
5
5
5
5
5
5
5
5
5
5
5
5
5
5
5
5
5
5
5
5
5
5
5
5
5
5
5
5
5
5
5
5
5
5
5
5
5
5
5
5
5
5
5
5
5
5
5
5
5
5
5
5
5
5
5
5
5
5
5
5
5
5
5
5
5
5
5
5
5
5
5
5
5
5
5
5
5
5
5
5
5
5
5
5
5
5
5
5
5
5
5
5
5
5
5
5
5
5
5
5
5
5
5
5
5
5
5
5
5
5
5
5
5
5
5
5
5
5
5
5
5
5
5
5
5
5
5
5
5
5
5
5
5
5
5
5
5
5
5
5
5
5
5
5
5
5
5
5
5
5
5
5
5
5
5
5
5
5
5
5
5
5
5
5
5
5
5
5
5
5
5
5
5
5
5
5
5
5
5
5
5
5
5
5
5
5
5
5
5
5
5
5
5
5
5
5
5
5
5
5
5
5
5
5
5
5
5
5
5
5
5
5
5
5
5
5
5
5
5
5
5
5
5
5
5
5
5
5
5
5
5
5
5
5
5
5
5
5
5
5
5
5
5
5
5
5
5
5
5
5
5
5
5
5
5
5
5
5
5
5
5
5
5
5
5
5
5
5
5
5
5
5
5
5
5
5
5
5
5
5
5
5
5
5
5
5
5
5
5
5
5
5
5
5
5
5
5
5
5
5
5
5
5
5
5
5
5
5
5
5
5
5
5
5
5
5
5
5
5
5
5
5
5
5
5
5
5
5
5
5
5
5
5
5
5
5
5
5
5
5
5
5
5
5
5
5
5
5
5
5
5
5
5
5
5
5
5
5
5
5
5
5
5
5
5
5
5
5
5
5
5
5
5
5
5
5
5
5
5
5
5
5
5
5
5
5
5
5
5
5
5
5
5
5
5
5
5
5
5
5
5
5
5
5
5
5
5
5
5
5
5
5
5
5
5
5
5
5
5
5
5
5
5
5
5
5
5
5
5
5
5
5
5
5
5
5
5
5
5
5
5
5
5
5
5
5
5
5
5
5
5
5
5
5
5
5
5
5
5
5
5
5
5
5
5
5
5
5
5
5
5
5
5
5
5
5
5
5
5
5
5
5
5
5
5
5
5
5
5
5
5
5
5
5
5
5
5
5
5
5
5
5
5
5
5
5
5
5
5
5
5
5
5
5
5
5
5
5
5
5
5
5
5
5
5
5
5
5
5
5
5
5
5
5
5
5
5
5
5
5
5
5
5
5
5
5
5
5
5
5
5
5
5
5
5
5
5
5
5
5
5
5
5
5
5
5
5
5
5
5
5
5
5
5
5
5
5
5
5
5
5
5
5
5
5
5
5
5
5
5
5
5
5
5
5
5
5
5
5
5
5
5
5
5
5
5
5
5
5
5
5
5
5
5
5
5
5
5
5
5
5
5
5
5
5
5
5
5
5
5
5
5
5
5
5
5
5
5
5
5
5
5
5
5
5
5
5
5
5
5
5
5
5
5
5
5
5
5
5
5
5
5
5
5
5
5
5
5
5
5
5
5
5
5
5
5
5
5
5
5
5
5
5
5
5
5
5
5
5
5
5
5
5
5
5
5
5
5
5
5
5
5
5
5
5
5
5
5
5
5
5
5
5
5
5
5
5
5
5
5
5
5
5
5
5
5
5
5
5
5
5
5
5
5
5
5
5
5
5
5
5
5
5
5
5
5
5
5
5
5
5
5
5
5
5
5
5
5
5
5
5
5
5
5
5
5
5
5
5
5
5
5
5
5
5
5
5
5
5
5
5
5
5
5
5
5
5
5
5
5
5
5
5
5
5
5
5
5
5
5
5
5
5
5
5
5
5
5
5
5
5
5
5
5
5
5
5
5
5
5
5
5
5
5
5
5
5
5
5
5
5
5
5
5
5
5
5
5
5
5
5
5
5
5
5
5
5
5
5
5
5
5
5
5
5
5
5
5
5
5
5
5
5
5
5
5
5
5
5
5
5
5
5
5
5
5
5
5
5
5
5
5
5
5
5
5
5
5
5
5
5
5
5
5
5
5
5
5
5
5
5
5
5
5
5
5
5
5
5
5
5
5
5
5
5
5
5
5
5
5
5
5
5
5
5
5
5
5
5
5
5
5
5
5
5
5
5
5
5
5
5
5
5
5
5
5
5
5
5
5
5
5
5
5
5
5
5
5
5
5
5
5
5
5
5
5
5
5
5
5
5
5
5
5
5
5
5
5
5
5
5
5
5
5
5
5
5
5
5
5
5
5
5
5
5
5
5
5
5
5
5
5
5
5
5
5

POINT_DATA 1028

VECTORS coord float
0.0 0.0 0.0 
5.000000000000e+01 -1.000000000000e+01 0.0 
0.0 -2.000000000000e+01 0.0 
5.000000000000e+01 -2.000000000000e+01 0.0 
0.0 -9.999999999991e-01 0.0 
0.0 -1.999999999998e+00 0.0 
0.0 -2.999999999997e+00 0.0 
0.0 -3.999999999994e+00 0.0 
0.0 -4.999999999991e+00 0.0 
0.0 -5.999999999988e+00 0.0 
0.0 -6.999999999985e+00 0.0 
0.0 -7.999999999982e+00 0.0 
0.0 -8.999999999983e+00 0.0 
0.0 -9.999999999985e+00 0.0 
0.0 -1.099999999999e+01 0.0 
0.0 -1.199999999999e+01 0.0 
0.0 -1.299999999999e+01 0.0 
0.0 -1.399999999999e+01 0.0 
0.0 -1.499999999999e+01 0.0 
0.0 -1.599999999999e+01 0.0 
0.0 -1.700000000000e+01 0.0 
0.0 -1.800000000000e+01 0.0 
0.0 -1.900000000000e+01 0.0 
4.900000000001e+01 -2.000000000000e+01 0.0 
4.800000000001e+01 -2.000000000000e+01 0.0 
4.700000000002e+01 -2.000000000000e+01 0.0 
4.600000000003e+01 -2.000000000000e+01 0.0 
4.500000000004e+01 -2.000000000000e+01 0.0 
4.400000000004e+01 -2.000000000000e+01 0.0 
4.300000000005e+01 -2.000000000000e+01 0.0 
4.200000000006e+01 -2.000000000000e+01 0.0 
4.100000000006e+01 -2.000000000000e+01 0.0 
4.000000000007e+01 -2.000000000000e+01 0.0 
3.900000000008e+01 -2.000000000000e+01 0.0 
3.800000000009e+01 -2.000000000000e+01 0.0 
3.700000000009e+01 -2.000000000000e+01 0.0 
3.600000000010e+01 -2.000000000000e+01 0.0 
3.500000000011e+01 -2.000000000000e+01 0.0 
3.400000000011e+01 -2.000000000000e+01 0.0 
3.300000000012e+01 -2.000000000000e+01 0.0 
3.200000000013e+01 -2.000000000000e+01 0.0 
3.100000000013e+01 -2.000000000000e+01 0.0 
3.000000000013e+01 -2.000000000000e+01 0.0 
2.900000000013e+01 -2.000000000000e+01 0.0 
2.800000000013e+01 -2.000000000000e+01 0.0 
2.700000000013e+01 -2.000000000000e+01 0.0 
2.600000000013e+01 -2.000000000000e+01 0.0 
2.500000000013e+01 -2.000000000000e+01 0.0 
2.400000000013e+01 -2.000000000000e+01 0.0 
2.300000000013e+01 -2.000000000000e+01 0.0 
2.200000000013e+01 -2.000000000000e+01 0.0 
2.100000000013e+01 -2.000000000000e+01 0.0 
2.000000000013e+01 -2.000000000000e+01 0.0 
1.900000000013e+01 -2.000000000000e+01 0.0 
1.800000000013e+01 -2.000000000000e+01 0.0 
1.700000000012e+01 -2.000000000000e+01 0.0 
1.600000000011e+01 -2.000000000000e+01 0.0 
1.500000000011e+01 -2.000000000000e+01 0.0 
1.400000000010e+01 -2.000000000000e+01 0.0 
1.300000000009e+01 -2.000000000000e+01 0.0 
1.200000000009e+01 -2.000000000000e+01 0.0 
1.100000000008e+01 -2.000000000000e+01 0.0 
1.000000000007e+01 -2.000000000000e+01 0.0 
9.000000000064e+00 -2.000000000000e+01 0.0 
8.000000000057e+00 -2.000000000000e+01 0.0 
7.000000000050e+00 -2.000000000000e+01 0.0 
6.000000000043e+00 -2.000000000000e+01 0.0 
5.000000000036e+00 -2.000000000000e+01 0.0 
4.000000000028e+00 -2.000000000000e+01 0.0 
3.000000000021e+00 -2.000000000000e+01 0.0 
2.000000000014e+00 -2.000000000000e+01 0.0 
1.000000000007e+00 -2.000000000000e+01 0.0 
5.000000000000e+01 -1.100000000000e+01 0.0 
5.000000000000e+01 -1.200000000000e+01 0.0 
5.000000000000e+01 -1.300000000000e+01 0.0 
5.000000000000e+01 -1.400000000000e+01 0.0 
5.000000000000e+01 -1.500000000000e+01 0.0 
5.000000000000e+01 -1.600000000000e+01 0.0 
5.000000000000e+01 -1.700000000000e+01 0.0 
5.000000000000e+01 -1.800000000000e+01 0.0 
5.000000000000e+01 -1.900000000000e+01 0.0 
2.000000000000e+01 0.0 0.0 
3.500000000000e+01 -1.000000000000e+01 0.0 
2.150000000000e+01 -1.000000000000e+00 0.0 
2.300000000000e+01 -2.000000000000e+00 0.0 
2.450000000000e+01 -3.000000000000e+00 0.0 
2.600000000000e+01 -4.000000000000e+00 0.0 
2.750000000000e+01 -5.000000000000e+00 0.0 
2.900000000000e+01 -6.000000000000e+00 0.0 
3.050000000000e+01 -7.000000000000e+00 0.0 
3.200000000000e+01 -8.000000000000e+00 0.0 
3.350000000000e+01 -9.000000000000e+00 0.0 
4.900000000000e+01 -1.000000000000e+01 0.0 
4.800000000000e+01 -1.000000000000e+01 0.0 
4.700000000000e+01 -1.000000000000e+01 0.0 
4.600000000000e+01 -1.000000000000e+01 0.0 
4.500000000000e+01 -1.000000000000e+01 0.0 
4.400000000000e+01 -1.000000000000e+01 0.0 
4.300000000000e+01 -1.000000000000e+01 0.0 
4.200000000000e+01 -1.000000000000e+01 0.0 
4.100000000000e+01 -1.000000000000e+01 0.0 
4.000000000000e+01 -1.000000000000e+01 0.0 
3.900000000000e+01 -1.000000000000e+01 0.0 
3.800000000000e+01 -1.000000000000e+01 0.0 
3.700000000000e+01 -1.000000000000e+01 0.0 
3.600000000000e+01 -1.000000000000e+01 0.0 
1.900000000000e+01 0.0 0.0 
1.800000000000e+01 0.0 0.0 
1.700000000000e+01 0.0 0.0 
1.600000000000e+01 0.0 0.0 
1.500000000000e+01 0.0 0.0 
1.400000000000e+01 0.0 0.0 
1.300000000000e+01 0.0 0.0 
1.200000000000e+01 0.0 0.0 
1.100000000000e+01 0.0 0.0 
1.000000000000e+01 0.0 0.0 
9.000000000000e+00 0.0 0.0 
8.000000000000e+00 0.0 0.0 
7.000000000000e+00 0.0 0.0 
6.000000000000e+00 0.0 0.0 
5.000000000000e+00 0.0 0.0 
4.000000000000e+00 0.0 0.0 
3.000000000000e+00 0.0 0.0 
2.000000000000e+00 0.0 0.0 
1.000000000000e+00 0.0 0.0 
2.075000000000e+01 -5.000000000006e-01 0.0 
2.225000000000e+01 -1.500000000000e+00 0.0 
2.375000000000e+01 -2.500000000000e+00 0.0 
2.525000000000e+01 -3.500000000000e+00 0.0 
2.675000000000e+01 -4.500000000000e+00 0.0 
2.825000000000e+01 -5.500000000000e+00 0.0 
2.975000000000e+01 -6.500000000000e+00 0.0 
3.125000000000e+01 -7.500000000000e+00 0.0 
3.275000000000e+01 -8.500000000000e+00 0.0 
3.425000000000e+01 -9.500000000000e+00 0.0 
2.226951693683e+01 -2.403913980114e+00 0.0 
1.650149491944e+01 -1.913490915758e+01 0.0 
1.050042386896e+01 -8.504605092970e-01 0.0 
1.553146524712e+01 -8.281255032105e-01 0.0 
1.150000000008e+01 -1.913397459621e+01 0.0 
2.530060260647e+01 -4.428336431260e+00 0.0 
8.651114563942e-01 -1.052096295641e+01 0.0 
2.050000000013e+01 -1.913397459622e+01 0.0 
2.819198729811e+01 -6.399519052838e+00 0.0 
2.445670302931e+01 -1.915649188023e+01 0.0 
3.117591465718e+01 -8.394293040695e+00 0.0 
7.465053044742e+00 -1.920411160581e+01 0.0 
6.398295709691e+00 -8.230098819370e-01 0.0 
2.849659607461e+01 -1.914296187762e+01 0.0 
3.418732642882e+01 -1.040265792588e+01 0.0 
8.386450935063e-01 -6.533605142809e+00 0.0 
9.178661865596e-01 -1.329769195597e+01 0.0 
3.149448624493e+01 -1.910466733764e+01 0.0 
3.552916747426e+01 -1.914628590759e+01 0.0 
4.449210346537e+01 -1.914359085008e+01 0.0 
4.140975975145e+01 -1.906941860733e+01 0.0 
3.847475958753e+01 -1.916622382724e+01 0.0 
3.653774794640e+01 -1.088712800241e+01 0.0 
4.047886341787e+01 -1.090139014048e+01 0.0 
4.348006339825e+01 -1.092792621489e+01 0.0 
4.919519968029e+01 -1.451526755068e+01 0.0 
4.500000000032e+00 -1.913397459621e+01 0.0 
1.856136921614e+01 -8.212235170404e-01 0.0 
3.499895312306e+00 -8.661165539723e-01 0.0 
9.076088696565e-01 -1.642306201891e+01 0.0 
4.655174095477e+01 -1.086183387525e+01 0.0 
9.430688970604e-01 -3.496112672958e+00 0.0 
3.353992337063e+01 -1.901202090820e+01 0.0 
2.249746016977e+01 -1.921262287282e+01 0.0 
2.650122741777e+01 -1.916123026018e+01 0.0 
1.863571384842e+01 -1.908325534840e+01 0.0 
1.450089971693e+01 -1.917691901860e+01 0.0 
1.350044695317e+01 -8.659695299584e-01 0.0 
3.849987469880e+01 -1.084154983397e+01 0.0 
9.454419857884e+00 -1.900818879936e+01 0.0 
4.917398660523e+01 -1.645692866081e+01 0.0 
8.500000000000e+00 -8.660254037844e-01 0.0 
8.660319230785e-01 -8.500111697188e+00 0.0 
4.649022621545e+01 -1.930506220113e+01 0.0 
2.667688107845e+01 -5.420288124331e+00 0.0 
2.379251615665e+01 -3.412225477429e+00 0.0 
2.966631491830e+01 -7.389030232731e+00 0.0 
3.267915035995e+01 -9.396934932445e+00 0.0 
2.074836922338e+01 -1.320054020319e+00 0.0 
4.915985743621e+01 -1.261973384855e+01 0.0 
2.527129768623e+00 -1.931592414663e+01 0.0 
1.538676247410e+00 -8.436956619311e-01 0.0 
4.908096641539e+01 -1.842484004551e+01 0.0 
3.478612492673e+01 -1.090889364140e+01 0.0 
3.409757055860e+01 -1.131991530427e+01 0.0 
3.501895309466e+01 -1.177687842717e+01 0.0 
3.407758073088e+01 -1.224293381580e+01 0.0 
3.484541875390e+01 -1.277051428430e+01 0.0 
3.400322025842e+01 -1.319022775640e+01 0.0 
3.321672625034e+01 -1.266779191233e+01 0.0 
3.315244139236e+01 -1.360984106532e+01 0.0 
3.236335186892e+01 -1.308463225210e+01 0.0 
3.478337442841e+01 -1.372341158982e+01 0.0 
3.230105923633e+01 -1.403023731610e+01 0.0 
3.150954055289e+01 -1.350301767700e+01 0.0 
3.144604792090e+01 -1.444931742516e+01 0.0 
3.065653897123e+01 -1.392357262981e+01 0.0 
3.071897610812e+01 -1.297447031198e+01 0.0 
2.986790411740e+01 -1.339226181535e+01 0.0 
2.993181466745e+01 -1.244703272398e+01 0.0 
2.908023061869e+01 -1.286254537734e+01 0.0 
2.901619051372e+01 -1.380881655279e+01 0.0 
2.822986160390e+01 -1.327695262116e+01 0.0 
2.829453476870e+01 -1.233265343811e+01 0.0 
2.744542905518e+01 -1.274510491105e+01 0.0 
2.751120089246e+01 -1.180368086886e+01 0.0 
2.666218649885e+01 -1.221619339205e+01 0.0 
2.672371209234e+01 -1.127125228527e+01 0.0 
2.587763216302e+01 -1.168539979114e+01 0.0 
2.581165585299e+01 -1.262994410089e+01 0.0 
2.502890882577e+01 -1.209827323619e+01 0.0 
2.509631327757e+01 -1.115492410304e+01 0.0 
2.424662989877e+01 -1.156630981079e+01 0.0 
2.431704046904e+01 -1.062389179334e+01 0.0 
2.346445438728e+01 -1.103427680694e+01 0.0 
2.339382552877e+01 -1.197964871788e+01 0.0 
2.260936050780e+01 -1.144513277642e+01 0.0 
2.268075012022e+01 -1.049911928216e+01 0.0 
2.182525737661e+01 -1.090920811464e+01 0.0 
2.189682319817e+01 -9.961716944568e+00 0.0 
2.104174127792e+01 -1.037266986667e+01 0.0 
2.111304367575e+01 -9.424179358711e+00 0.0 
2.025306185381e+01 -9.832727364719e+00 0.0 
2.018141124247e+01 -1.079140628871e+01 0.0 
1.938594498257e+01 -1.025147354112e+01 0.0 
1.946106490453e+01 -9.288010758448e+00 0.0 
1.858929958352e+01 -9.706319802516e+00 0.0 
1.851540991219e+01 -1.067205988724e+01 0.0 
1.771485303178e+01 -1.012504443115e+01 0.0 
1.764134552256e+01 -1.109360378538e+01 0.0 
1.683745148095e+01 -1.054496365337e+01 0.0 
1.691852964353e+01 -9.582555261178e+00 0.0 
1.603603813062e+01 -1.000160132379e+01 0.0 
1.595824239350e+01 -1.096750698862e+01 0.0 
1.515080624291e+01 -1.041639501931e+01 0.0 
1.523171602559e+01 -9.451711491453e+00 0.0 
1.434621060709e+01 -9.871956467464e+00 0.0 
1.426777178765e+01 -1.083749501371e+01 0.0 
1.345775282374e+01 -1.028803175500e+01 0.0 
1.354103873368e+01 -9.324918457162e+00 0.0 
1.265072018622e+01 -9.742612837270e+00 0.0 
1.257285762070e+01 -1.071557782384e+01 0.0 
1.175874815690e+01 -1.015972324288e+01 0.0 
1.184203019714e+01 -9.193604071377e+00 0.0 
1.094927709905e+01 -9.612103238656e+00 0.0 
1.086938022910e+01 -1.058685085646e+01 0.0 
1.005424098961e+01 -1.002939116380e+01 0.0 
9.977974613295e+00 -1.101324897989e+01 0.0 
1.012915646404e+01 -9.051815821181e+00 0.0 
9.237127782494e+00 -9.471239055559e+00 0.0 
9.308426593771e+00 -8.483376461131e+00 0.0 
8.418806073345e+00 -8.910712374517e+00 0.0 
2.253688464062e+01 -1.239459402279e+01 0.0 
8.495126726666e+00 -7.921646665254e+00 0.0 
9.389727383206e+00 -7.512103628377e+00 0.0 
7.601560812974e+00 -8.349460349344e+00 0.0 
7.525680547759e+00 -9.339736686940e+00 0.0 
7.677888324502e+00 -7.359727833346e+00 0.0 
6.782001206724e+00 -7.788454494773e+00 0.0 
6.858778622885e+00 -6.797338062822e+00 0.0 
2.196596590865e+01 -8.979025665442e+00 0.0 
2.816540108272e+01 -1.422634142353e+01 0.0 
5.961601194403e+00 -7.226824010712e+00 0.0 
6.038171749656e+00 -6.234825887079e+00 0.0 
6.936257279557e+00 -5.805287640737e+00 0.0 
6.115068918323e+00 -5.242109758768e+00 0.0 
3.564391741903e+01 -1.329240553876e+01 0.0 
3.558115605778e+01 -1.425902892003e+01 0.0 
3.645445282201e+01 -1.381970786460e+01 0.0 
3.639744204358e+01 -1.479198128612e+01 0.0 
3.727266909778e+01 -1.435399586226e+01 0.0 
5.216667013081e+00 -5.671788584287e+00 0.0 
3.220697293295e+01 -1.499594545107e+01 0.0 
3.551112158269e+01 -1.523479869250e+01 0.0 
2.836056961467e+01 -1.139032434851e+01 0.0 
2.516730388602e+01 -1.021382726837e+01 0.0 
1.844436907403e+01 -1.164097215196e+01 0.0 
5.885434318740e+00 -8.218694781467e+00 0.0 
5.064071066867e+00 -7.656614643901e+00 0.0 
4.988089103470e+00 -8.649722082718e+00 0.0 
1.079421050408e+01 -1.157014985435e+01 0.0 
9.902420005256e+00 -1.199903342656e+01 0.0 
1.071994252214e+01 -1.255727909771e+01 0.0 
9.826974788171e+00 -1.298659581767e+01 0.0 
1.064607883789e+01 -1.354595476388e+01 0.0 
9.751541265343e+00 -1.397556905071e+01 0.0 
8.932296185869e+00 -1.341553353988e+01 0.0 
8.856399248106e+00 -1.440570715508e+01 0.0 
8.036186803543e+00 -1.384470558472e+01 0.0 
1.057112875118e+01 -1.453516759081e+01 0.0 
1.146582585687e+01 -1.410539926903e+01 0.0 
7.959894480382e+00 -1.483563350928e+01 0.0 
7.138792279156e+00 -1.427465094140e+01 0.0 
7.062506792418e+00 -1.526615385482e+01 0.0 
6.240693558277e+00 -1.470508863040e+01 0.0 
6.316957575451e+00 -1.371212581281e+01 0.0 
5.418183007107e+00 -1.414253605022e+01 0.0 
5.494748364428e+00 -1.314886770603e+01 0.0 
1.756825565873e+01 -1.206433872514e+01 0.0 
1.837565773345e+01 -1.261356468266e+01 0.0 
1.749574831391e+01 -1.303769280014e+01 0.0 
1.830539187332e+01 -1.358828364284e+01 0.0 
1.742278925170e+01 -1.401367746928e+01 0.0 
1.823303007798e+01 -1.456432294258e+01 0.0 
1.734941694138e+01 -1.499213734361e+01 0.0 
1.653760041637e+01 -1.443920312098e+01 0.0 
3.056237977307e+01 -1.487132260174e+01 0.0 
1.866469084762e+01 -8.742953000418e+00 0.0 
1.953669694916e+01 -8.326038909849e+00 0.0 
1.874194303780e+01 -7.780688158966e+00 0.0 
1.961032016741e+01 -7.366854697285e+00 0.0 
1.881715755159e+01 -6.821102209649e+00 0.0 
1.968369797150e+01 -6.407747217358e+00 0.0 
1.889237123259e+01 -5.858375520026e+00 0.0 
1.802038875366e+01 -6.276202618170e+00 0.0 
1.809793837984e+01 -5.307629520489e+00 0.0 
1.721985207997e+01 -5.728242054488e+00 0.0 
1.729850893523e+01 -4.756990819347e+00 0.0 
1.641745664240e+01 -5.174636548624e+00 0.0 
2.495978509456e+01 -1.304406404294e+01 0.0 
1.911567814831e+01 -1.413854250293e+01 0.0 
1.904387332608e+01 -1.511463127723e+01 0.0 
1.992115934240e+01 -1.468788025898e+01 0.0 
7.013706899628e+00 -4.812582868662e+00 0.0 
5.342091874585e+00 -1.513658157269e+01 0.0 
1.139098043784e+01 -1.509488509480e+01 0.0 
1.228151810610e+01 -1.465617481983e+01 0.0 
1.646373110164e+01 -1.541993323337e+01 0.0 
5.293328636712e+00 -4.678385108584e+00 0.0 
1.975965862987e+01 -5.448124345648e+00 0.0 
2.054318374236e+01 -5.992561293251e+00 0.0 
3.721453439063e+01 -1.533216152738e+01 0.0 
3.809302733893e+01 -1.489235527381e+01 0.0 
1.220852788900e+01 -1.565304565230e+01 0.0 
4.394120899730e+00 -5.108397613210e+00 0.0 
8.779354620288e+00 -1.539524721159e+01 0.0 
1.817791047702e+01 -4.338570146253e+00 0.0 
4.518860013839e+00 -1.457343189307e+01 0.0 
4.442712140414e+00 -1.556841391069e+01 0.0 
8.115343466391e+00 -1.285760324283e+01 0.0 
1.985334703171e+01 -1.566478400426e+01 0.0 
2.071953850276e+01 -1.522074243119e+01 0.0 
1.634012953883e+01 -6.154777738301e+00 0.0 
1.553479994708e+01 -5.593730508879e+00 0.0 
1.561265946942e+01 -4.617761762647e+00 0.0 
1.470674212978e+01 -5.064576488228e+00 0.0 
1.464498299883e+01 -6.026514471420e+00 0.0 
1.383271561817e+01 -5.467796261169e+00 0.0 
1.389241253067e+01 -4.504338666645e+00 0.0 
1.301868735463e+01 -4.907185188626e+00 0.0 
1.294514184846e+01 -5.888160903592e+00 0.0 
1.212955968622e+01 -5.328262335277e+00 0.0 
1.220721122383e+01 -4.341264976687e+00 0.0 
1.131324345897e+01 -4.766773516508e+00 0.0 
5.266597955397e+00 -1.613148974258e+01 0.0 
1.737805990867e+01 -3.786677807525e+00 0.0 
3.078438094513e+01 -1.203225297748e+01 0.0 
1.131569882285e+01 -1.608511932110e+01 0.0 
1.728478341782e+01 -1.596017432313e+01 0.0 
3.803465906019e+01 -1.587509751228e+01 0.0 
3.891681276677e+01 -1.543395196905e+01 0.0 
3.897340985302e+01 -1.444710288980e+01 0.0 
3.980095968193e+01 -1.499059496613e+01 0.0 
3.974334598189e+01 -1.597921884150e+01 0.0 
4.062964983717e+01 -1.553518690417e+01 0.0 
4.068729602479e+01 -1.454434445295e+01 0.0 
4.151772679790e+01 -1.508974196007e+01 0.0 
4.157505195739e+01 -1.409694289912e+01 0.0 
4.240699932656e+01 -1.464347955968e+01 0.0 
4.234898051011e+01 -1.563721375790e+01 0.0 
4.323934606035e+01 -1.519082036405e+01 0.0 
4.329740528208e+01 -1.419587509788e+01 0.0 
4.413056841369e+01 -1.474359631875e+01 0.0 
4.418850110108e+01 -1.374786684042e+01 0.0 
4.502219770667e+01 -1.429605103525e+01 0.0 
4.496411937907e+01 -1.529215882720e+01 0.0 
4.490027319897e+00 -4.154167794594e+00 0.0 
1.565080385988e+01 -1.486411982419e+01 0.0 
1.557610691279e+01 -1.584855627870e+01 0.0 
4.195350646612e+00 -8.089117689096e+00 0.0 
4.124027797830e+00 -9.082831955007e+00 0.0 
4.917944318925e+00 -9.643530901533e+00 0.0 
4.020105689502e+00 -1.007439673661e+01 0.0 
4.587185899277e+01 -1.484039992728e+01 0.0 
4.580078661551e+01 -1.584043391042e+01 0.0 
2.061956522375e+01 -5.046701343981e+00 0.0 
2.139572955529e+01 -5.579553449826e+00 0.0 
3.715344357292e+01 -1.631485124583e+01 0.0 
3.618886196443e+00 -1.500471207167e+01 0.0 
3.695606940204e+00 -1.400939692294e+01 0.0 
2.438890661143e+01 -9.686110599723e+00 0.0 
2.523267572778e+01 -9.276766000622e+00 0.0 
2.446094171539e+01 -8.751904591412e+00 0.0 
2.529089822738e+01 -8.321495612547e+00 0.0 
2.606882688827e+01 -8.864724051119e+00 0.0 
2.452116646430e+01 -7.792756462004e+00 0.0 
1.235543269617e+01 -1.365845617339e+01 0.0 
4.318116874181e+01 -1.618567469992e+01 0.0 
7.835066111909e+00 -5.376366223896e+00 0.0 
7.905687335704e+00 -4.382539065697e+00 0.0 
3.542640009567e+00 -1.600035116542e+01 0.0 
1.572431503071e+01 -1.388358386695e+01 0.0 
2.574684696680e+01 -1.357896141127e+01 0.0 
2.488842657651e+01 -1.399674354505e+01 0.0 
2.568301775611e+01 -1.453552048595e+01 0.0 
2.481535572009e+01 -1.495542756508e+01 0.0 
2.561729699688e+01 -1.549784648532e+01 0.0 
2.474623061296e+01 -1.592058894178e+01 0.0 
2.394234041695e+01 -1.537572575827e+01 0.0 
2.065825452567e+01 -1.621899055217e+01 0.0 
2.387180528935e+01 -1.634552264687e+01 0.0 
4.585364400844e+01 -1.383912334080e+01 0.0 
1.998744432052e+01 -1.370317155541e+01 0.0 
1.205356951443e+01 -6.313580285498e+00 0.0 
5.396543905849e+00 -3.731818611283e+00 0.0 
1.139652573295e+01 -3.745819399350e+00 0.0 
3.574124306703e+00 -4.551456826011e+00 0.0 
3.494140761930e+00 -5.539787055649e+00 0.0 
1.213651452413e+01 -1.664505033022e+01 0.0 
2.555045568519e+01 -1.646529356744e+01 0.0 
2.641671114986e+01 -1.603899382371e+01 0.0 
2.612920721894e+01 -7.906435260873e+00 0.0 
2.690339829698e+01 -8.456969591431e+00 0.0 
1.978024383368e+01 -1.664410216353e+01 0.0 
3.732829979082e+01 -1.336926601859e+01 0.0 
4.074336584605e+01 -1.355133328401e+01 0.0 
4.163204691081e+01 -1.310280943992e+01 0.0 
3.773826114429e+00 -3.493444309145e+00 0.0 
1.228783001032e+01 -3.374822835872e+00 0.0 
4.057110462520e+01 -1.652588478000e+01 0.0 
2.132535497898e+01 -6.523623360525e+00 0.0 
2.216932532211e+01 -6.110044769206e+00 0.0 
1.825781152128e+01 -3.370146817147e+00 0.0 
1.745679445888e+01 -2.812942552063e+00 0.0 
4.666517057280e+01 -1.539981381543e+01 0.0 
4.660575894464e+01 -1.639014410186e+01 0.0 
4.838230979954e+00 -1.063643436446e+01 0.0 
3.938942630206e+00 -1.106778981745e+01 0.0 
1.302967218620e+01 -1.621373452436e+01 0.0 
1.049548003190e+01 -4.204825123240e+00 0.0 
4.573571907195e+01 -1.683820511148e+01 0.0 
1.483686335807e+01 -1.430849689310e+01 0.0 
1.490982658890e+01 -1.332679386284e+01 0.0 
3.190805600162e+00 -9.510968358545e+00 0.0 
2.146625721848e+01 -4.642437303115e+00 0.0 
2.069866208266e+01 -4.111852942193e+00 0.0 
1.286859345584e+01 -6.873252723348e+00 0.0 
1.041794493184e+01 -5.194814260291e+00 0.0 
2.671081808965e+00 -4.976806516331e+00 0.0 
1.295786792925e+01 -1.720506531799e+01 0.0 
3.968438206511e+01 -1.696869067241e+01 0.0 
2.308550456051e+01 -1.579963151273e+01 0.0 
2.315593682844e+01 -1.482967445235e+01 0.0 
2.299471449450e+01 -1.677069968132e+01 0.0 
1.057344714696e+01 -3.214252277840e+00 0.0 
1.124057603753e+01 -1.707713739755e+01 0.0 
2.718402535754e+00 -1.543629882103e+01 0.0 
2.638549692805e+01 -1.696744916809e+01 0.0 
2.723416349007e+01 -1.658104204545e+01 0.0 
2.210193351704e+01 -7.046769643417e+00 0.0 
2.295180925161e+01 -6.657397605239e+00 0.0 
2.301355235833e+01 -5.709111896800e+00 0.0 
2.379052718281e+01 -6.254965406962e+00 0.0 
3.243528601237e+01 -1.214181853533e+01 0.0 
2.287977995457e+01 -7.583722368300e+00 0.0 
2.999876029544e+01 -1.150837653096e+01 0.0 
3.084435366963e+01 -1.109693775882e+01 0.0 
3.006650579669e+01 -1.057778994262e+01 0.0 
2.683802665066e+01 -9.386863216633e+00 0.0 
2.768641973621e+01 -8.988883915666e+00 0.0 
2.040296980397e+01 -7.903629133404e+00 0.0 
1.925235024054e+01 -1.218872783130e+01 0.0 
5.735667000424e+00 -1.020577277283e+01 0.0 
6.396559909872e+00 -1.272326295703e+01 0.0 
1.161199420714e+01 -1.212812778229e+01 0.0 
4.229046132615e+01 -1.663084237572e+01 0.0 
4.312275399692e+01 -1.718087491556e+01 0.0 
4.335502068163e+01 -1.320039231514e+01 0.0 
4.424630298089e+01 -1.275160688731e+01 0.0 
7.090116643816e+00 -3.818998061530e+00 0.0 
7.989472176569e+00 -3.389238711200e+00 0.0 
9.085824861778e+00 -1.144036167408e+01 0.0 
1.041972423731e+01 -1.651614080893e+01 0.0 
3.797525112640e+01 -1.686052038746e+01 0.0 
3.709114253394e+01 -1.730125999865e+01 0.0 
3.626966748340e+01 -1.675477052919e+01 0.0 
1.385164591440e+01 -1.677597757552e+01 0.0 
1.787152588784e+01 -8.198993896093e+00 0.0 
1.668849729812e+01 -1.248560611628e+01 0.0 
1.659546177905e+01 -3.232482605530e+00 0.0 
2.332214717345e+01 -1.292598167641e+01 0.0 
7.168238450786e+00 -2.824711686516e+00 0.0 
2.894878403906e+01 -1.475427524446e+01 0.0 
2.646763248247e+00 -1.643270107952e+01 0.0 
3.467431944285e+00 -1.699648837348e+01 0.0 
2.059475877282e+01 -1.719473628526e+01 0.0 
3.333868355437e+01 -1.080596971682e+01 0.0 
2.246451062637e+01 -1.334557761546e+01 0.0 
2.167821896388e+01 -1.280847834858e+01 0.0 
3.089653185767e+01 -1.017198487212e+01 0.0 
3.012604365669e+01 -9.657298805968e+00 0.0 
2.929627299435e+01 -1.006100135274e+01 0.0 
2.936201435219e+01 -9.136748899251e+00 0.0 
1.198219052702e+01 -7.291887238230e+00 0.0 
1.116702076035e+01 -6.731976101053e+00 0.0 
2.551388807505e+01 -1.746927036981e+01 0.0 
2.378639090370e+01 -1.728678807149e+01 0.0 
2.718543627188e+01 -1.748668016909e+01 0.0 
2.804681050301e+01 -1.712626668293e+01 0.0 
1.970737034667e+01 -1.762317646822e+01 0.0 
1.889535776135e+01 -1.707158098231e+01 0.0 
2.593777711283e+00 -5.971157087874e+00 0.0 
2.773468281110e+01 -8.067164273938e+00 0.0 
4.051205884347e+01 -1.751819982458e+01 0.0 
3.166903145421e+01 -1.068032992414e+01 0.0 
1.033042452886e+01 -1.748285844336e+01 0.0 
9.519274604626e+00 -1.694349240233e+01 0.0 
1.668308673328e+01 -2.255861778986e+00 0.0 
1.570531902832e+01 -2.676795860126e+00 0.0 
4.655826903379e+01 -1.736656245706e+01 0.0 
2.384148070773e+01 -5.328744256413e+00 0.0 
2.460255123641e+01 -5.852182672816e+00 0.0 
2.306638135119e+01 -4.798935440613e+00 0.0 
8.467720450578e-01 -1.849576263072e+01 0.0 
4.849657322345e+01 -1.084860705506e+01 0.0 
2.565860899507e+00 -1.742859793981e+01 0.0 
2.764418872564e+01 -9.927142821799e+00 0.0 
4.565165880064e+01 -1.785336695404e+01 0.0 
2.162231831329e+01 -1.376528337468e+01 0.0 
2.360646352969e+01 -9.136041963102e+00 0.0 
1.392738739903e+01 -1.578285505772e+01 0.0 
4.756405947478e+01 -1.683706841809e+01 0.0 
4.740895034054e+01 -1.793766756892e+01 0.0 
4.080779328826e+01 -1.257387192544e+01 0.0 
4.168907939671e+01 -1.210739129181e+01 0.0 
3.991197722154e+01 -1.300815793917e+01 0.0 
1.905536506762e+01 -3.940076697685e+00 0.0 
1.923879596617e+01 -2.875000734166e+00 0.0 
4.401386745746e+01 -1.673483229438e+01 0.0 
4.247233362525e+00 -7.094581653070e+00 0.0 
3.286051630211e+00 -7.635300020553e+00 0.0 
9.609533347623e+00 -4.594311677967e+00 0.0 
9.523554636369e+00 -5.595597029530e+00 0.0 
5.660336628893e+00 -1.119290329628e+01 0.0 
6.558070063295e+00 -1.076385809362e+01 0.0 
2.809866407414e+01 -1.518037766799e+01 0.0 
2.888868674504e+01 -1.570360690070e+01 0.0 
2.654431550819e+01 -1.411217777162e+01 0.0 
1.402158265969e+01 -1.375404617952e+01 0.0 
1.409592494026e+01 -1.277071998942e+01 0.0 
1.499355196178e+01 -1.235270737023e+01 0.0 
4.221535326155e+01 -1.759335617494e+01 0.0 
4.305583287033e+01 -1.822663146802e+01 0.0 
1.280748808359e+01 -7.834332838285e+00 0.0 
1.368988389326e+01 -7.420529606172e+00 0.0 
1.110091796060e+01 -7.683966794328e+00 0.0 
3.963446145980e+01 -1.794331310122e+01 0.0 
3.423932362213e+00 -1.796415590455e+01 0.0 
4.280814572302e+00 -1.752272834860e+01 0.0 
8.050136380041e+00 -2.421582378631e+00 0.0 
8.888674091650e+00 -2.984264211327e+00 0.0 
2.152839430898e+01 -3.732609965436e+00 0.0 
2.077799585292e+01 -3.183896021866e+00 0.0 
3.618719395821e+01 -1.770276572576e+01 0.0 
3.538165138340e+01 -1.718709995539e+01 0.0 
3.702925326420e+01 -1.828844288807e+01 0.0 
1.756739438711e+00 -5.353284859169e+00 0.0 
2.233710191104e+01 -1.527265621324e+01 0.0 
1.389483555057e+01 -1.771797164730e+01 0.0 
1.475634224300e+01 -1.728357428390e+01 0.0 
1.298797563052e+01 -1.825968924755e+01 0.0 
2.145331271866e+01 -1.673705379077e+01 0.0 
2.133282821169e+01 -1.769400773673e+01 0.0 
2.292139194136e+01 -1.774915400288e+01 0.0 
1.750750053243e+01 -1.861475593469e+00 0.0 
4.830478841772e+01 -1.752611802221e+01 0.0 
4.341203507805e+01 -1.220326745522e+01 0.0 
1.685254151866e+01 -1.443085301632e+00 0.0 
4.431538535165e+01 -1.171841387375e+01 0.0 
4.511308610496e+01 -1.229557320599e+01 0.0 
4.510133242889e+01 -1.123680627466e+01 0.0 
1.846818030617e+00 -4.410877617069e+00 0.0 
3.995468694584e+01 -1.186571542989e+01 0.0 
3.901387459804e+01 -1.242507616755e+01 0.0 
8.966735877533e+00 -1.837818700423e+00 0.0 
4.049310011091e+01 -1.848269508791e+01 0.0 
7.278862053803e+00 -1.918523922691e+00 0.0 
6.429715522129e+00 -2.316676521184e+00 0.0 
9.443505505022e+00 -1.792198868094e+01 0.0 
8.620386951051e+00 -1.737590365556e+01 0.0 
8.571868171503e+00 -1.834436667826e+01 0.0 
7.758629848526e+00 -1.775677907213e+01 0.0 
7.806648388584e+00 -1.680761266021e+01 0.0 
6.908555145436e+00 -1.723746463044e+01 0.0 
4.251709122090e+01 -1.156937480156e+01 0.0 
6.931136405615e+00 -1.832465719263e+01 0.0 
6.015545461353e+00 -1.768865355295e+01 0.0 
5.960535926343e+00 -1.872011001764e+01 0.0 
3.023253444786e+01 -8.761960642196e+00 0.0 
2.454622702599e+01 -6.749421992767e+00 0.0 
2.537499741604e+01 -6.347634963783e+00 0.0 
2.544077378460e+01 -5.431358513649e+00 0.0 
2.801367161747e+01 -1.820907270221e+01 0.0 
2.884507806914e+01 -1.762032095326e+01 0.0 
1.821474531936e+00 -1.588901260460e+01 0.0 
1.821006262604e+00 -1.489370287756e+01 0.0 
4.599962488908e+01 -1.176478780598e+01 0.0 
4.705457470007e+01 -1.172182804229e+01 0.0 
4.667668314802e+01 -1.263464558483e+01 0.0 
4.759648056504e+01 -1.252380987933e+01 0.0 
4.728041618103e+01 -1.341928568376e+01 0.0 
4.825209352360e+01 -1.330491640804e+01 0.0 
4.778118233428e+01 -1.420151961695e+01 0.0 
2.388192727579e+01 -1.826934810142e+01 0.0 
2.381714684947e+01 -4.385917965223e+00 0.0 
3.172733219247e+01 -9.758744265248e+00 0.0 
1.882012070658e+01 -1.805540597212e+01 0.0 
1.805667505243e+01 -1.742221226236e+01 0.0 
2.852599958080e+01 -8.597196079481e+00 0.0 
2.856486123437e+01 -7.661382718527e+00 0.0 
1.111792842875e+01 -1.818223852980e+01 0.0 
2.203322722466e+01 -7.986646678802e+00 0.0 
3.955703676900e+01 -1.903246763601e+01 0.0 
1.944842206513e+01 -8.038750575182e-01 0.0 
1.909882767783e+01 -1.746322740933e+00 0.0 
2.281147422941e+01 -8.525912918334e+00 0.0 
2.850633001468e+01 -9.533271335986e+00 0.0 
2.532883344309e+01 -7.308951659710e+00 0.0 
2.620475466461e+01 -6.979208585400e+00 0.0 
1.396278270396e+01 -1.475095389807e+01 0.0 
9.791001166724e+00 -2.554159793552e+00 0.0 
2.229293380421e+01 -4.269762271052e+00 0.0 
4.677238984118e+01 -1.430071795514e+01 0.0 
2.228658385918e+01 -3.344747535984e+00 0.0 
8.940223674553e-01 -1.543595733415e+01 0.0 
2.118566862474e+01 -8.435876987696e+00 0.0 
2.678325936437e+01 -1.032621195706e+01 0.0 
2.223400220487e+01 -5.179046761770e+00 0.0 
2.375370625384e+01 -7.251580562134e+00 0.0 
3.156971327386e+01 -1.255534750737e+01 0.0 
3.328226391312e+01 -1.172914813316e+01 0.0 
3.250948774219e+01 -1.120157009348e+01 0.0 
2.032993445717e+01 -8.867880112202e+00 0.0 
2.697226974856e+01 -7.536633082045e+00 0.0 
2.707377810386e+01 -6.590835263295e+00 0.0 
2.914099246827e+01 -1.191678458549e+01 0.0 
3.544824072239e+01 -1.621126558525e+01 0.0 
3.456511855436e+01 -1.665054783843e+01 0.0 
3.448395810225e+01 -1.759117813016e+01 0.0 
3.368378673938e+01 -1.708037781328e+01 0.0 
3.375560452567e+01 -1.610973066913e+01 0.0 
3.288001547988e+01 -1.654324255651e+01 0.0 
3.282475929147e+01 -1.749725654692e+01 0.0 
3.199880906313e+01 -1.697294088625e+01 0.0 
3.197001272932e+01 -1.811667776864e+01 0.0 
3.111884713021e+01 -1.742166785755e+01 0.0 
3.120418962865e+01 -1.642155709385e+01 0.0 
3.034666704371e+01 -1.683123833816e+01 0.0 
3.026224379976e+01 -1.772592851714e+01 0.0 
3.046632362943e+01 -1.582232843075e+01 0.0 
1.961344017324e+01 -1.857459447985e+01 0.0 
2.274975894774e+01 -9.532738811922e+00 0.0 
1.833923246887e+01 -2.396746883672e+00 0.0 
1.988859500848e+01 -2.249244376594e+00 0.0 
2.758045562861e+01 -1.086434261689e+01 0.0 
3.247300178163e+01 -1.909930104252e+01 0.0 
3.461947482503e+01 -1.911879848019e+01 0.0 
2.047161538662e+01 -6.941478180358e+00 0.0 
2.750230940214e+01 -1.915490590764e+01 0.0 
3.165081350803e+01 -1.161860780120e+01 0.0 
1.897456727641e+01 -4.889634688522e+00 0.0 
2.549338539756e+01 -1.914858252089e+01 0.0 
3.462873135081e+01 -1.567482276144e+01 0.0 
3.384432415243e+01 -1.512280684518e+01 0.0 
3.471433767690e+01 -1.469086942990e+01 0.0 
3.651470373046e+01 -1.918207952149e+01 0.0 
3.901742690249e+01 -1.345028556517e+01 0.0 
2.153224102692e+01 -1.920169709333e+01 0.0 
1.918382939341e+01 -1.316226275662e+01 0.0 
2.005389162382e+01 -1.271962165174e+01 0.0 
2.011472087878e+01 -1.175029352900e+01 0.0 
3.210679478412e+01 -1.598038618242e+01 0.0 
1.752175226543e+01 -1.914713022656e+01 0.0 
1.696897240059e+01 -1.832772588765e+01 0.0 
1.599682523337e+01 -1.832599992024e+01 0.0 
1.644507199462e+01 -1.743697981535e+01 0.0 
1.549987712903e+01 -1.915192375101e+01 0.0 
3.050250861901e+01 -1.918943550234e+01 0.0 
2.949944061527e+01 -1.922950455235e+01 0.0 
1.375892575273e+01 -6.447160534926e+00 0.0 
1.457223670180e+01 -7.006709243857e+00 0.0 
1.450818793236e+01 -7.965943451779e+00 0.0 
1.538804712402e+01 -7.553409623699e+00 0.0 
1.545817644768e+01 -6.580929593419e+00 0.0 
1.626506893751e+01 -7.129032608911e+00 0.0 
1.619833811522e+01 -8.086588580887e+00 0.0 
1.714448609609e+01 -6.697429609777e+00 0.0 
2.887616543568e+01 -1.668015232137e+01 0.0 
1.349814589130e+01 -1.918225301544e+01 0.0 
1.153887772210e+01 -1.311384581217e+01 0.0 
1.242708159886e+01 -1.267046795531e+01 0.0 
1.249799674267e+01 -1.169005616014e+01 0.0 
6.631723893693e+00 -9.774184881867e+00 0.0 
7.451471631867e+00 -1.033148796006e+01 0.0 
7.377795355458e+00 -1.132196345268e+01 0.0 
5.810931797536e+00 -9.211654212252e+00 0.0 
2.402683899133e+01 -1.441378562320e+01 0.0 
1.249768692036e+01 -1.917388426624e+01 0.0 
1.580373499437e+01 -1.290751860664e+01 0.0 
8.344650507834e+00 -9.898403995170e+00 0.0 
3.750622115305e+01 -1.086526401533e+01 0.0 
3.699391251667e+01 -1.171695900794e+01 0.0 
3.606517829518e+01 -1.173717504500e+01 0.0 
3.650257641795e+01 -1.270047380221e+01 0.0 
3.808951488918e+01 -1.183518714175e+01 0.0 
4.760380962420e+00 -1.162484888315e+01 0.0 
3.861210370848e+00 -1.205657631736e+01 0.0 
3.038284309476e+00 -1.149851280664e+01 0.0 
2.961598794889e+00 -1.248856794980e+01 0.0 
2.138953225512e+00 -1.193212674534e+01 0.0 
2.227383593457e+00 -1.096258903918e+01 0.0 
2.043265419276e+00 -1.292158472959e+01 0.0 
1.252449446028e+00 -1.225502002753e+01 0.0 
3.949985210740e+01 -1.086594001795e+01 0.0 
1.453499444792e+01 -8.768805922472e-01 0.0 
1.403518950933e+01 -1.749965556633e+00 0.0 
1.300715031023e+01 -1.714737233040e+00 0.0 
1.350929389899e+01 -2.527443911291e+00 0.0 
1.449600910711e+01 -2.595486162864e+00 0.0 
1.395693872901e+01 -3.484211041558e+00 0.0 
1.495105865208e+01 -3.364609636216e+00 0.0 
1.508822528740e+01 -1.766586020494e+00 0.0 
1.250223858430e+01 -8.634590186802e-01 0.0 
1.200279523409e+01 -1.709044504992e+00 0.0 
1.150086239419e+01 -8.592789190668e-01 0.0 
1.101482754194e+01 -1.677730591922e+00 0.0 
1.148018564526e+01 -2.659323866909e+00 0.0 
8.800552119754e+00 -3.989875954728e+00 0.0 
3.452790439430e+00 -1.901136170646e+01 0.0 
8.658451825200e-01 -9.503462241795e+00 0.0 
1.694787786797e+00 -9.000589234502e+00 0.0 
1.703436717094e+00 -8.038819004041e+00 0.0 
2.594197971110e+00 -8.563955242845e+00 0.0 
1.630513735412e+00 -9.907244747511e+00 0.0 
8.566859292791e-01 -7.512203837972e+00 0.0 
1.685461277022e+00 -7.164280248030e+00 0.0 
2.506394468801e+00 -8.623386730818e-01 0.0 
2.007475081581e+00 -1.727729545205e+00 0.0 
9.211534699767e-01 -1.628791366312e+00 0.0 
1.500000000020e+00 -2.598063549486e+00 0.0 
2.482078929963e+00 -2.553580088725e+00 0.0 
2.999795253092e+00 -1.732169015019e+00 0.0 
3.999712607169e+00 -1.728832897453e+00 0.0 
4.499752199340e+00 -8.656478679175e-01 0.0 
4.964377774841e+00 -1.730129617941e+00 0.0 
4.425017908337e+00 -2.597541756243e+00 0.0 
5.446573195014e+00 -8.410144840023e-01 0.0 
4.915722346614e+01 -1.550640962770e+01 0.0 
4.826794919243e+01 -1.600000000000e+01 0.0 
1.053139533193e+01 -1.911782884365e+01 0.0 
4.156049861949e+01 -1.095160998589e+01 0.0 
9.494526624416e+00 -8.650570090219e-01 0.0 
4.555762166964e+01 -1.897098103585e+01 0.0 
4.250656411371e+01 -1.914387356218e+01 0.0 
4.350906466345e+01 -1.917234727395e+01 0.0 
8.759665722424e-01 -1.746422130609e+01 0.0 
1.698936011838e+00 -1.795012186674e+01 0.0 
4.742476811029e+01 -1.900090177972e+01 0.0 
7.749196752349e+00 -6.368049313489e+00 0.0 
3.361572113416e+01 -1.798765193915e+01 0.0 
4.484660149212e+01 -1.728661231383e+01 0.0 
1.984038172228e+01 -4.502575320116e+00 0.0 
1.035080352627e+01 -6.166639575753e+00 0.0 
2.753558010652e+00 -1.444909521181e+01 0.0 
7.217069543032e+00 -1.328635391078e+01 0.0 
4.364336727739e+00 -1.655585677381e+01 0.0 
4.595208426108e+00 -1.357919665443e+01 0.0 
6.164967006980e+00 -1.569873454630e+01 0.0 
1.487855768353e+01 -1.826523774028e+01 0.0 
2.791876456372e+00 -4.019632415181e+00 0.0 
4.246464893515e+01 -1.364898659620e+01 0.0 
4.503855590351e+01 -1.329552780944e+01 0.0 
4.407239109604e+01 -1.573900004093e+01 0.0 
5.141054449252e+00 -6.664290382472e+00 0.0 
3.141083947149e+00 -1.055790764912e+01 0.0 
6.196463198741e+00 -4.256497932609e+00 0.0 
2.599618716181e+01 -1.836893455464e+01 0.0 
2.923057372337e+01 -1.098461757645e+01 0.0 
1.168343877486e+01 -1.114079645041e+01 0.0 
6.706222096238e+00 -8.780364234441e+00 0.0 
8.567858614669e+00 -6.943121440850e+00 0.0 
1.123755132901e+01 -5.753525820030e+00 0.0 
2.353456234423e+01 -1.008536320953e+01 0.0 
9.162073319168e+00 -1.045593739109e+01 0.0 
9.676343469685e+00 -1.496493008366e+01 0.0 
4.490637882905e+01 -1.628778970202e+01 0.0 
7.398129387772e+00 -9.639977982323e-01 0.0 
1.049641705805e+01 -1.552503975272e+01 0.0 
9.010356286268e+00 -1.242805042052e+01 0.0 
3.985573925497e+01 -1.399863651620e+01 0.0 
1.816196318262e+01 -1.554066497931e+01 0.0 
1.306332244168e+01 -3.963646550326e+00 0.0 
4.145850903932e+01 -1.608094559275e+01 0.0 
3.794664933633e+01 -1.779020121986e+01 0.0 
3.819614412903e+01 -1.290749321016e+01 0.0 
6.270014188119e+00 -3.255093186826e+00 0.0 
4.251165370388e+01 -1.263870364997e+01 0.0 
1.207347709171e+01 -1.763942826023e+01 0.0 
3.633240829927e+01 -1.577330481104e+01 0.0 
4.319052668832e+00 -6.101812561904e+00 0.0 
1.676492415806e+01 -1.151547901392e+01 0.0 
2.594059220037e+01 -1.074225223009e+01 0.0 
3.340750911501e+01 -9.898764354137e+00 0.0 
4.397619591281e+01 -1.769773736461e+01 0.0 
2.175611595028e+01 -1.185718747128e+01 0.0 
1.641818733106e+01 -1.640685203215e+01 0.0 
1.661211421753e+01 -1.346121366338e+01 0.0 
3.428853504935e+00 -6.551993389271e+00 0.0 
8.700728832502e+00 -1.638460872825e+01 0.0 
1.931369795309e+01 -1.121629383702e+01 0.0 
4.139798872363e+01 -1.706922153459e+01 0.0 
2.647837478700e+01 -1.507353829290e+01 0.0 
1.779469616424e+01 -9.161615782908e+00 0.0 
3.885879219319e+01 -1.642026488918e+01 0.0 
1.338194936770e+01 -1.125916521471e+01 0.0 
1.897071181111e+01 -1.609204322578e+01 0.0 
2.844308548793e+01 -1.046221003096e+01 0.0 
2.659854702194e+01 -1.316109415760e+01 0.0 
2.979604503271e+01 -1.433296157755e+01 0.0 
2.417694041347e+01 -1.251231397779e+01 0.0 
1.807401327411e+00 -1.388891148480e+01 0.0 
9.599810618782e+00 -1.595439365034e+01 0.0 
1.652144692160e+01 -4.205392788472e+00 0.0 
2.367839450246e+01 -8.188385218643e+00 0.0 
3.814894930468e+01 -1.390748338767e+01 0.0 
2.466448215774e+01 -1.685878545680e+01 0.0 
4.134044524611e+01 -1.806610045954e+01 0.0 
2.600511411958e+01 -9.801774120648e+00 0.0 
7.882158050716e+00 -1.582364037353e+01 0.0 
3.881607873422e+01 -1.737970515013e+01 0.0 
8.270182347708e+00 -1.088622154920e+01 0.0 
8.672520392520e-01 -4.532984309881e+00 0.0 
1.993447205337e+01 -3.579061902667e+00 0.0 
1.794616079549e+01 -7.238038888498e+00 0.0 
2.097277068165e+01 -1.132450168636e+01 0.0 
8.194803300681e+00 -1.187214224265e+01 0.0 
3.522279404911e+01 -1.823342818178e+01 0.0 
6.984481050295e+00 -1.625271465557e+01 0.0 
1.309433007797e+01 -1.521718594215e+01 0.0 
2.150246167611e+01 -1.885399038185e+00 0.0 
3.250689370209e+01 -1.028789870535e+01 0.0 
6.085886272238e+00 -1.668342132851e+01 0.0 
1.588455661727e+01 -1.193498985921e+01 0.0 
1.809323400821e+01 -1.651110084195e+01 0.0 
1.348885082381e+00 -1.136065576512e+01 0.0 
2.497670221995e+01 -1.834631276173e+01 0.0 
2.937062818424e+01 -8.233711194470e+00 0.0 
5.185823744469e+00 -1.711566910207e+01 0.0 
1.477497877209e+01 -1.530177014512e+01 0.0 
2.125346158933e+01 -7.473003997367e+00 0.0 
4.751561118290e+01 -1.084897772632e+01 0.0 
5.056026576843e+00 -1.825750475525e+01 0.0 
1.473948554523e+01 -1.634577436309e+01 0.0 
2.410566630936e+01 -1.345970002612e+01 0.0 
1.507337507513e+01 -1.138527895328e+01 0.0 
3.189857338687e+01 -8.887781229006e+00 0.0 
7.298712468334e+00 -1.230231046246e+01 0.0 
2.738235495295e+01 -1.368931690364e+01 0.0 
3.750141041969e+01 -1.920449893070e+01 0.0 
1.557271965640e+01 -1.683317951731e+01 0.0 
3.393731848929e+01 -1.413034777044e+01 0.0 
6.482156824153e+00 -1.174575135362e+01 0.0 
2.077971718439e+01 -1.421279621836e+01 0.0 
3.455084320178e+00 -2.562590040585e+00 0.0 
3.099056096250e+01 -9.270280416035e+00 0.0 
5.580176125418e+00 -1.217387969259e+01 0.0 
1.707247630389e+01 -7.660651981710e+00 0.0 
1.418658814174e+01 -1.180390575393e+01 0.0 
2.049103025389e+01 -1.811296706038e+01 0.0 
4.680386172316e+00 -1.260396879301e+01 0.0 
1.699679896554e+01 -8.624561788199e+00 0.0 
3.779470168555e+00 -1.303424899720e+01 0.0 
3.036589870126e+01 -7.879832518349e+00 0.0 
3.306993001774e+01 -1.457671062095e+01 0.0 
2.840150110165e+00 -1.346530088269e+01 0.0 
2.732011135052e+01 -1.464591214560e+01 0.0 
5.423639259568e+00 -2.659711955016e+00 0.0 
2.324455961696e+01 -1.387269388211e+01 0.0 
1.752768355571e+00 -1.693128613594e+01 0.0 
1.020244783051e+01 -8.076834012808e+00 0.0 
1.330873875224e+01 -1.222417528206e+01 0.0 
3.297727364880e+01 -1.555480372087e+01 0.0 
2.890929955439e+01 -6.868664170731e+00 0.0 
1.323294664622e+01 -1.320754260334e+01 0.0 
2.726532861246e+01 -1.560593120806e+01 0.0 
2.240020643398e+01 -1.429299177247e+01 0.0 
2.090445823633e+01 -1.228128621332e+01 0.0 
1.315809881502e+01 -1.420739326938e+01 0.0 
2.781328038068e+01 -7.181956082300e+00 0.0 
8.614200829057e+00 -5.936933226306e+00 0.0 
8.714765730069e+00 -4.979270529687e+00 0.0 
1.611881701099e+01 -9.041973294003e+00 0.0 
2.806830314340e+01 -1.614622947108e+01 0.0 
2.084435391396e+00 -3.385085422913e+00 0.0 
3.133211811152e+01 -1.542347619750e+01 0.0 
9.693114650768e+00 -3.590281506442e+00 0.0 
1.531883592202e+01 -8.504584946143e+00 0.0 
2.151589117094e+01 -1.578915763018e+01 0.0 
4.918943882696e+01 -1.355538828056e+01 0.0 
1.443236615188e+01 -8.918701794549e+00 0.0 
8.276250966452e-01 -5.537685192197e+00 0.0 
1.362790867918e+01 -8.374718262212e+00 0.0 
2.083767477370e+01 -1.324843956035e+01 0.0 
1.273834678703e+01 -8.790890389337e+00 0.0 
1.192275845670e+01 -8.242261327467e+00 0.0 
4.477236023583e+01 -1.824312396664e+01 0.0 
1.102989384254e+01 -8.649855800911e+00 0.0 
4.849096516045e+01 -1.917293752213e+01 0.0 
1.588996752238e+00 -1.910230934687e+01 0.0 
4.904245197583e+01 -1.159839008158e+01 0.0 
2.753852929608e+01 -5.782128488093e+00 0.0 
1.756133602833e+01 -8.306130313187e-01 0.0 
2.615423700951e+01 -6.153865090092e+00 0.0 
1.028818761294e+01 -7.122020845892e+00 0.0 
2.970818901196e+01 -1.527821347593e+01 0.0 
4.801461623449e+01 -1.164472570985e+01 0.0 
9.455722100419e+00 -6.546069291118e+00 0.0 
3.089099236677e+01 -1.835339328261e+01 0.0 
2.350000000013e+01 -1.920825896750e+01 0.0 
4.830620531887e+01 -1.506626155470e+01 0.0 
1.725381944701e+01 -1.688794487850e+01 0.0 
2.156246225273e+01 -1.475893794002e+01 0.0 
4.919319648787e+01 -1.742767505896e+01 0.0 
4.437935623576e+01 -1.077662927266e+01 0.0 
1.001520521978e+01 -1.652692675208e+00 0.0 
9.067160240050e-01 -1.441937727541e+01 0.0 
2.603365149390e+01 -4.755996613848e+00 0.0 
2.458344439002e+01 -4.873645517696e+00 0.0 
2.304312390142e+01 -3.836552768096e+00 0.0 
2.546923202198e+00 -6.902480355749e+00 0.0 
1.251534969393e+01 -2.490989965776e+00 0.0 
2.454061833377e+01 -3.933354231935e+00 0.0 
1.788186558740e+01 -1.827424884923e+01 0.0 
4.090785243552e+01 -1.166553231904e+01 0.0 
2.230128851568e+01 -1.623015738726e+01 0.0 
2.302362347568e+01 -2.916239960270e+00 0.0 
3.878119254461e+01 -1.830091164002e+01 0.0 
2.210081359958e+01 -1.829238229150e+01 0.0 
8.443704882233e+00 -1.921993252862e+01 0.0 
2.218405824691e+01 -1.724557581508e+01 0.0 
2.151157503963e+01 -2.790636689331e+00 0.0 
3.741658958955e+01 -1.250400191722e+01 0.0 
2.697247663737e+01 -1.838290202309e+01 0.0 
4.743362342862e+01 -1.585850773010e+01 0.0 
6.671345075358e+00 -1.924977576322e+01 0.0 
3.900825404537e+01 -1.157220003875e+01 0.0 
4.649692961375e+01 -1.836335837481e+01 0.0 
1.578831424832e+01 -3.678284023361e+00 0.0 
4.814208768888e+01 -1.841249298770e+01 0.0 
2.964123298315e+01 -1.625739458193e+01 0.0 
4.580760351902e+01 -1.284294554687e+01 0.0 
3.561520879615e+01 -1.245548941949e+01 0.0 
2.555418095658e+00 -1.841101588290e+01 0.0 
3.288468366144e+01 -1.834258164109e+01 0.0 
2.065894391445e+01 -2.240688571739e+00 0.0 
4.739171429915e+01 -1.496536413446e+01 0.0 
3.478086729185e+00 -8.576434653209e+00 0.0 
1.606010630246e+01 -1.588421807951e+00 0.0 
1.018329200594e+01 -1.834320874317e+01 0.0 
2.957213339430e+01 -1.720496954591e+01 0.0 
4.142712790164e+00 -1.837794506222e+01 0.0 
6.698721532573e-01 -2.499999999997e+00 0.0 
8.037039123140e+00 -1.571229354954e+00 0.0 
1.203541361428e+01 -1.847784298001e+01 0.0 
2.899968332038e+01 -1.848264722179e+01 0.0 
1.469229460948e+01 -4.219485753730e+00 0.0 
4.049590781957e+01 -1.932812501995e+01 0.0 
1.996211678340e+01 -1.506329754720e+00 0.0 
4.250588298353e+01 -1.067383247529e+01 0.0 
5.831497011152e+00 -1.635396227234e+00 0.0 
5.317606125670e+00 -1.923927974868e+01 0.0 
4.208546426993e+01 -1.842830665025e+01 0.0 
2.327553405011e+00 -9.459409929662e+00 0.0 
3.568351902251e+01 -1.096637218582e+01 0.0 
1.682104374890e+00 -6.231413350963e+00 0.0 
2.451812238018e+01 -1.766524914339e+01 0.0 
1.058003429638e+01 -2.391839617098e+00 0.0 
4.399988753123e+01 -1.851998776342e+01 0.0 
1.400000000010e+01 -1.852293523028e+01 0.0 
3.604719565984e+01 -1.850662876800e+01 0.0 
1.951297136734e+01 -1.938092349694e+01 0.0 
1.821365318472e+01 -1.531276353287e+00 0.0 
2.298031859732e+01 -1.854635324722e+01 0.0 
1.552168066204e+01 -1.764280741977e+01 0.0 
4.572957713638e+01 -1.073347898229e+01 0.0 
3.429637429624e+01 -1.838861552790e+01 0.0 
2.427434426052e+00 -7.705577451869e+00 0.0 
4.662792031485e+00 -3.359424455416e+00 0.0 
4.926794919243e+01 -1.926794919243e+01 0.0 
7.320508075690e-01 -7.320508075688e-01 0.0 
4.926794919243e+01 -1.073205080757e+01 0.0 
7.320508075705e-01 -1.926794919243e+01 0.0 
2.917460242467e+00 -3.202866455310e+00 0.0 
4.838200575963e+01 -1.232674147454e+01 0.0 
2.998445708009e+01 -1.854403752148e+01 0.0 
5.949940090766e-01 -1.152762038165e+01 0.0 
4.844763495759e+01 -1.678092548787e+01 0.0 
1.301685480160e+01 -3.170056592566e+00 0.0 
1.650046335855e+01 -6.731535384067e-01 0.0 
4.854881540991e+01 -1.405224059779e+01 0.0 
2.119545114693e+01 -1.846813384545e+01 0.0 
3.797852849897e+01 -1.857978513215e+01 0.0 
4.649823708745e+01 -1.338351810816e+01 0.0 
2.012685900976e+01 -2.889659035009e+00 0.0 
2.953271913273e+01 -1.791558075192e+01 0.0 
2.408509097292e+00 -1.021949208421e+01 0.0 
2.642589566221e+01 -1.773216561448e+01 0.0 
1.730010270775e+01 -1.763165076721e+01 0.0 
2.017406551304e+01 -8.513536440582e-01 0.0 
5.254761581934e-01 -1.249999999999e+01 0.0 
6.640448215642e+00 -1.545337834885e+00 0.0 
7.843361506349e+00 -1.852719839527e+01 0.0 
1.588442191088e+00 -1.066158564320e+01 0.0 

SCALARS node_number int
LOOKUP_TABLE default
1
2
3
4
5
6
7
8
9
10
11
12
13
14
15
16
17
18
19
20
21
22
23
24
25
26
27
28
29
30
31
32
33
34
35
36
37
38
39
40
41
42
43
44
45
46
47
48
49
50
51
52
53
54
55
56
57
58
59
60
61
62
63
64
65
66
67
68
69
70
71
72
73
74
75
76
77
78
79
80
81
82
84
85
86
87
88
89
90
91
92
93
104
105
106
107
108
109
110
111
112
113
114
115
116
117
118
119
120
121
122
123
124
125
126
127
128
129
130
131
132
133
134
135
136
362
363
364
365
366
367
368
369
370
371
372
373
374
375
376
377
378
379
380
381
382
383
384
385
386
387
388
389
390
391
392
393
394
395
396
397
398
399
400
401
402
403
404
405
406
407
408
409
410
411
412
413
414
415
416
417
418
419
420
421
422
423
424
425
426
427
428
429
430
431
432
433
434
435
436
437
438
439
440
441
442
443
444
445
446
447
448
449
450
451
452
453
454
455
456
457
458
459
460
461
462
463
464
465
466
467
468
469
470
471
472
473
474
475
476
477
478
479
480
481
482
483
484
485
486
487
488
489
490
491
492
493
494
495
496
497
498
499
500
501
502
503
504
505
506
507
508
509
510
511
512
513
514
515
516
517
518
519
520
521
522
523
524
525
526
527
528
529
530
531
532
533
534
535
536
537
538
539
540
541
542
543
544
545
546
547
548
549
550
551
552
553
554
555
556
557
558
559
560
561
562
563
564
565
566
567
568
569
570
571
572
573
574
575
576
577
578
579
580
581
582
583
584
585
586
587
588
589
590
591
592
593
594
595
596
597
598
599
600
601
602
603
604
605
606
607
608
609
610
611
612
613
614
615
616
617
618
619
620
621
622
623
624
625
626
627
628
629
630
631
632
633
634
635
636
637
638
639
640
641
642
643
644
645
646
647
648
649
650
651
652
653
654
655
656
657
658
659
660
661
662
663
664
665
666
667
668
669
670
671
672
673
674
675
676
677
678
679
680
681
682
683
684
685
686
687
688
689
690
691
692
693
694
695
696
697
698
699
700
701
702
703
704
705
706
707
708
709
710
711
712
713
714
715
716
717
718
719
720
721
722
723
724
725
726
727
728
729
730
731
732
733
734
735
736
737
738
739
740
741
742
743
744
745
746
747
748
749
750
751
752
753
754
755
756
757
758
759
760
761
762
763
764
765
766
767
768
769
770
771
772
773
774
775
776
777
778
779
780
781
782
783
784
785
786
787
788
789
790
791
792
793
794
795
796
797
798
799
800
801
802
803
804
805
806
807
808
809
810
811
812
813
814
815
816
817
818
819
820
821
822
823
824
825
826
827
828
829
830
831
832
833
834
835
836
837
838
839
840
841
842
843
844
845
846
847
848
849
850
851
852
853
854
855
856
857
858
859
860
861
862
863
864
865
866
867
868
869
870
871
872
873
874
875
876
877
878
879
880
881
882
883
884
885
886
887
888
889
890
891
892
893
894
895
896
897
898
899
900
901
902
903
904
905
906
907
908
909
910
911
912
913
914
915
916
917
918
919
920
921
922
923
924
925
926
927
928
929
930
931
932
933
934
935
936
937
938
939
940
941
942
943
944
945
946
947
948
949
950
951
952
953
954
955
956
957
958
959
960
961
962
963
964
965
966
967
968
969
970
971
972
973
974
975
976
977
978
979
980
981
982
983
984
985
986
987
988
989
990
991
992
993
994
995
996
997
998
999
1000
1001
1002
1003
1004
1005
1006
1007
1008
1009
1010
1011
1012
1013
1014
1015
1016
1017
1018
1019
1020
1021
1022
1023
1024
1025
1026
1027
1028
1029
1030
1031
1032
1033
1034
1035
1036
1037
1038
1039
1040
1041
1042
1043
1044
1045
1046
1047
1048
1049
1050
1051
1052
1053
1054
1055
1056
1057
1058
1059
1060
1061
1062
1063
1064
1065
1066
1067
1068
1069
1070
1071
1072
1073
1074
1075
1076
1077
1078
1079
1080
1081
1082
1083
1084
1085
1086
1087
1088
1089
1090
1091
1092
1093
1094
1095
1096
1097
1098
1099
1100
1101
1102
1103
1104
1105
1106
1107
1108
1109
1110
1111
1112
1113
1114
1115
1116
1117
1118
1119
1120
1121
1122
1123
1124
1125
1126
1127
1128
1129
1130
1131
1132
1133
1134
1135
1136
1137
1138
1139
1140
1141
1142
1143
1144
1145
1146
1147
1148
1149
1150
1151
1152
1153
1154
1155
1156
1157
1158
1159
1160
1161
1162
1163
1164
1165
1166
1167
1168
1169
1170
1171
1172
1173
1174
1175
1176
1177
1178
1179
1180
1181
1182
1183
1184
1185
1186
1187
1188
1189
1190
1191
1192
1193
1194
1195
1196
1197
1198
1199
1200
1201
1202
1203
1204
1205
1206
1207
1208
1209
1210
1211
1212
1213
1214
1215
1216
1217
1218
1219
1220
1221
1222
1223
1224
1225
1226
1227
1228
1229
1230
1231
1232
1233
1234
1235
1236
1237
1238
1239
1240
1241
1242
1243
1244
1245
1246
1247
1248
1249
1250
1251
1252
1253
1254
1255
1256
1257
1258
1259
1260
1261
1262
1263
1264

VECTORS node_mesh_deformation float
0.0 7.417294703629e-02 0.0 
0.000000000000e+00 1.625752881442e-01 0.0 
0.0 0.000000000000e+00 0.0 
0.000000000000e+00 0.000000000000e+00 0.0 
0.0 7.439152207544e-02 0.0 
0.0 7.414075616640e-02 0.0 
0.0 7.342227257935e-02 0.0 
0.0 7.224948349277e-02 0.0 
0.0 7.062415458513e-02 0.0 
0.0 6.858959937980e-02 0.0 
0.0 6.616815015376e-02 0.0 
0.0 6.337240974688e-02 0.0 
0.0 6.021504092779e-02 0.0 
0.0 5.669873404794e-02 0.0 
0.0 5.281472846538e-02 0.0 
0.0 4.855743882091e-02 0.0 
0.0 4.392538926613e-02 0.0 
0.0 3.892561278382e-02 0.0 
0.0 3.351204294680e-02 0.0 
0.0 2.768087475949e-02 0.0 
0.0 2.142393522611e-02 0.0 
0.0 1.472448461016e-02 0.0 
0.0 7.575274502493e-03 0.0 
0.000000000000e+00 0.000000000000e+00 0.0 
0.000000000000e+00 0.000000000000e+00 0.0 
0.000000000000e+00 0.000000000000e+00 0.0 
0.000000000000e+00 0.000000000000e+00 0.0 
0.000000000000e+00 0.000000000000e+00 0.0 
0.000000000000e+00 0.000000000000e+00 0.0 
0.000000000000e+00 0.000000000000e+00 0.0 
0.000000000000e+00 0.000000000000e+00 0.0 
0.000000000000e+00 0.000000000000e+00 0.0 
0.000000000000e+00 0.000000000000e+00 0.0 
0.000000000000e+00 0.000000000000e+00 0.0 
0.000000000000e+00 0.000000000000e+00 0.0 
0.000000000000e+00 0.000000000000e+00 0.0 
0.000000000000e+00 0.000000000000e+00 0.0 
0.000000000000e+00 0.000000000000e+00 0.0 
0.000000000000e+00 0.000000000000e+00 0.0 
0.000000000000e+00 0.000000000000e+00 0.0 
0.000000000000e+00 0.000000000000e+00 0.0 
0.000000000000e+00 0.000000000000e+00 0.0 
0.000000000000e+00 0.000000000000e+00 0.0 
0.000000000000e+00 0.000000000000e+00 0.0 
0.000000000000e+00 0.000000000000e+00 0.0 
0.000000000000e+00 0.000000000000e+00 0.0 
0.000000000000e+00 0.000000000000e+00 0.0 
0.000000000000e+00 0.000000000000e+00 0.0 
0.000000000000e+00 0.000000000000e+00 0.0 
0.000000000000e+00 0.000000000000e+00 0.0 
0.000000000000e+00 0.000000000000e+00 0.0 
0.000000000000e+00 0.000000000000e+00 0.0 
0.000000000000e+00 0.000000000000e+00 0.0 
0.000000000000e+00 0.000000000000e+00 0.0 
0.000000000000e+00 0.000000000000e+00 0.0 
0.000000000000e+00 0.000000000000e+00 0.0 
0.000000000000e+00 0.000000000000e+00 0.0 
0.000000000000e+00 0.000000000000e+00 0.0 
0.000000000000e+00 0.000000000000e+00 0.0 
0.000000000000e+00 0.000000000000e+00 0.0 
0.000000000000e+00 0.000000000000e+00 0.0 
0.000000000000e+00 0.000000000000e+00 0.0 
0.000000000000e+00 0.000000000000e+00 0.0 
0.000000000000e+00 0.000000000000e+00 0.0 
0.000000000000e+00 0.000000000000e+00 0.0 
0.000000000000e+00 0.000000000000e+00 0.0 
0.000000000000e+00 0.000000000000e+00 0.0 
0.000000000000e+00 0.000000000000e+00 0.0 
0.000000000000e+00 0.000000000000e+00 0.0 
0.000000000000e+00 0.000000000000e+00 0.0 
0.000000000000e+00 0.000000000000e+00 0.0 
0.000000000000e+00 0.000000000000e+00 0.0 
0.000000000000e+00 1.479759081773e-01 0.0 
0.000000000000e+00 1.329480256968e-01 0.0 
0.000000000000e+00 1.175108369532e-01 0.0 
0.000000000000e+00 1.016905965134e-01 0.0 
0.000000000000e+00 8.550272157521e-02 0.0 
0.000000000000e+00 6.897668832935e-02 0.0 
0.000000000000e+00 5.213726274042e-02 0.0 
0.000000000000e+00 3.501174213186e-02 0.0 
0.000000000000e+00 1.763025542943e-02 0.0 
-1.350425190985e-02 4.703136297836e-02 0.0 
2.183050588066e-02 1.492239391317e-01 0.0 
-6.049482004052e-03 7.200475452901e-02 0.0 
-1.314201080014e-04 9.192899063618e-02 0.0 
4.809859222856e-03 1.088277762199e-01 0.0 
8.899682226009e-03 1.228474410087e-01 0.0 
1.282132392168e-02 1.343605860586e-01 0.0 
1.647624773477e-02 1.432939706486e-01 0.0 
1.961184080223e-02 1.494477884140e-01 0.0 
2.195835437777e-02 1.526779071640e-01 0.0 
2.307851537564e-02 1.527122806829e-01 0.0 
1.365385098829e-03 1.626458953682e-01 0.0 
2.666877160813e-03 1.626341601191e-01 0.0 
3.979045294436e-03 1.626658416649e-01 0.0 
5.297770402031e-03 1.627091925929e-01 0.0 
6.619356247967e-03 1.627144682993e-01 0.0 
7.933443600699e-03 1.626950044632e-01 0.0 
9.245089741277e-03 1.625992834447e-01 0.0 
1.054217907647e-02 1.623948250222e-01 0.0 
1.183632832202e-02 1.620191408288e-01 0.0 
1.313274272989e-02 1.614277477166e-01 0.0 
1.442927040384e-02 1.604781270557e-01 0.0 
1.577727896267e-02 1.590434339491e-01 0.0 
1.727292868343e-02 1.569528004254e-01 0.0 
1.911458851684e-02 1.539345410651e-01 0.0 
-1.073157313432e-02 3.284912395783e-02 0.0 
-6.594379452107e-03 2.522938539677e-02 0.0 
-2.124255062885e-03 2.211384194185e-02 0.0 
2.578085485332e-03 2.367269592799e-02 0.0 
5.871964826182e-03 3.206788935122e-02 0.0 
7.626490000883e-03 4.218442617506e-02 0.0 
8.313151522083e-03 4.893478888295e-02 0.0 
8.439112194951e-03 5.419778853005e-02 0.0 
7.976488864701e-03 5.843494107069e-02 0.0 
7.468083722111e-03 6.185416607481e-02 0.0 
6.935663231197e-03 6.465193893509e-02 0.0 
6.306491666159e-03 6.689911264241e-02 0.0 
5.680585791153e-03 6.876681782025e-02 0.0 
4.913133951310e-03 7.029740340616e-02 0.0 
4.136240878700e-03 7.153237274681e-02 0.0 
3.369843877237e-03 7.249193734073e-02 0.0 
2.591799131559e-03 7.323465514765e-02 0.0 
1.799914439076e-03 7.377671868370e-02 0.0 
8.665402353083e-04 7.408320766194e-02 0.0 
-9.339859954707e-03 6.090374524357e-02 0.0 
-2.983221213650e-03 8.234260145098e-02 0.0 
2.466672827161e-03 1.007561806105e-01 0.0 
6.933190377058e-03 1.161761476752e-01 0.0 
1.093898149905e-02 1.289746710413e-01 0.0 
1.474558415638e-02 1.392155082344e-01 0.0 
1.814907236640e-02 1.467233235201e-01 0.0 
2.092067253365e-02 1.514357365764e-01 0.0 
2.273158819273e-02 1.531081869325e-01 0.0 
2.293386273449e-02 1.514490040893e-01 0.0 
4.426846398520e-03 8.108017838581e-02 0.0 
3.153351660700e-03 6.705008516654e-03 0.0 
4.935936623493e-03 6.020383580907e-02 0.0 
4.234448683231e-04 2.938753840227e-02 0.0 
1.322719273768e-03 6.373989864127e-03 0.0 
1.311522681414e-02 1.123690589525e-01 0.0 
7.658767652086e-05 5.466652998244e-02 0.0 
4.874750478812e-03 7.598892156626e-03 0.0 
2.016120718755e-02 1.318171826203e-01 0.0 
6.020036064012e-03 8.755836613307e-03 0.0 
2.497118233578e-02 1.415381663272e-01 0.0 
4.311657275942e-04 5.940927820923e-03 0.0 
4.015120269284e-03 6.984488184788e-02 0.0 
6.587227071972e-03 1.064772984024e-02 0.0 
2.474079535297e-02 1.388521670707e-01 0.0 
4.958853425896e-05 6.726871267893e-02 0.0 
1.256454206243e-04 4.245398205233e-02 0.0 
6.537163451803e-03 1.253256940516e-02 0.0 
4.985926983487e-03 1.352879351848e-02 0.0 
1.440856579457e-03 1.501231598056e-02 0.0 
2.717132335619e-03 1.607313477367e-02 0.0 
3.640921572391e-03 1.397887891013e-02 0.0 
2.001463309789e-02 1.425939936983e-01 0.0 
1.300353272197e-02 1.485642849011e-01 0.0 
8.695538442090e-03 1.491170199301e-01 0.0 
8.948990830646e-04 9.339615409332e-02 0.0 
1.470556454706e-04 6.531734727233e-03 0.0 
-3.285209968588e-03 3.194971946476e-02 0.0 
2.363665078334e-03 7.304672603610e-02 0.0 
9.442603374810e-05 2.506900249733e-02 0.0 
4.535759135884e-03 1.501214896916e-01 0.0 
2.566021602138e-04 7.282220782656e-02 0.0 
6.560769769401e-03 1.481227437922e-02 0.0 
5.116640526687e-03 7.493323139251e-03 0.0 
6.334882518935e-03 9.532553089151e-03 0.0 
4.314918883658e-03 7.519845560381e-03 0.0 
2.210640597269e-03 6.167337260710e-03 0.0 
3.142807027414e-03 4.546324129467e-02 0.0 
1.614262473812e-02 1.475059684864e-01 0.0 
9.297297925759e-04 7.293737827496e-03 0.0 
6.921897819865e-04 6.131477048314e-02 0.0 
4.753860821060e-03 6.587179933771e-02 0.0 
4.563544854563e-05 6.176373431532e-02 0.0 
7.131630064379e-04 1.223964731920e-02 0.0 
1.695238085663e-02 1.225018460022e-01 0.0 
9.122199064329e-03 9.833901240302e-02 0.0 
2.297255600376e-02 1.379712768114e-01 0.0 
2.573970256931e-02 1.419718755717e-01 0.0 
-1.757767605934e-03 6.063023345553e-02 0.0 
1.057235714249e-03 1.234409070968e-01 0.0 
5.260943725460e-05 5.208566290836e-03 0.0 
1.076108216938e-03 7.416064440560e-02 0.0 
3.863381744793e-04 2.764803462661e-02 0.0 
2.417762098165e-02 1.350858259363e-01 0.0 
2.614689380793e-02 1.259618546790e-01 0.0 
2.451498164815e-02 1.237876010792e-01 0.0 
2.650662191583e-02 1.132002046273e-01 0.0 
2.487555849840e-02 1.088347638384e-01 0.0 
2.615541743707e-02 9.977998136773e-02 0.0 
2.788335760228e-02 1.037082086911e-01 0.0 
2.703533457721e-02 9.086881039590e-02 0.0 
2.880956019578e-02 9.460398465422e-02 0.0 
2.415459615803e-02 9.483546481757e-02 0.0 
2.748415741682e-02 8.220392765098e-02 0.0 
2.929285209519e-02 8.579611197342e-02 0.0 
2.750506069695e-02 7.386895881437e-02 0.0 
2.933175382611e-02 7.734817627217e-02 0.0 
3.077010217182e-02 8.861021535544e-02 0.0 
3.082484308579e-02 8.012108712928e-02 0.0 
3.188730700471e-02 9.062661998831e-02 0.0 
3.195075261719e-02 8.210942130704e-02 0.0 
3.045349201135e-02 7.209497305473e-02 0.0 
3.158318760819e-02 7.410633460055e-02 0.0 
3.270191583433e-02 8.335365665112e-02 0.0 
3.232730490048e-02 7.539561019437e-02 0.0 
3.307387770970e-02 8.386239600272e-02 0.0 
3.268416534263e-02 7.595711380994e-02 0.0 
3.307764876613e-02 8.365974602749e-02 0.0 
3.266701118306e-02 7.585550408107e-02 0.0 
3.187305029575e-02 6.862285293932e-02 0.0 
3.182777067660e-02 6.866417890146e-02 0.0 
3.228754367667e-02 7.512119345645e-02 0.0 
3.140739080737e-02 6.810048381317e-02 0.0 
3.155942303416e-02 7.378787400856e-02 0.0 
3.062339649747e-02 6.696993722225e-02 0.0 
3.013273035871e-02 6.171190621626e-02 0.0 
2.929281053310e-02 6.084306341540e-02 0.0 
2.948564856524e-02 6.532531233016e-02 0.0 
2.809097182342e-02 5.952351798978e-02 0.0 
2.800597446130e-02 6.322383075551e-02 0.0 
2.654068723090e-02 5.781751811040e-02 0.0 
2.619778236240e-02 6.072501914693e-02 0.0 
2.464217130224e-02 5.579106352059e-02 0.0 
2.477195660915e-02 5.314953960770e-02 0.0 
2.281427701778e-02 5.164192848935e-02 0.0 
2.241097216549e-02 5.355163548994e-02 0.0 
2.054378362632e-02 5.003531694050e-02 0.0 
2.081103577468e-02 4.823661101877e-02 0.0 
1.855687527578e-02 4.728277054873e-02 0.0 
1.871905630415e-02 4.547138258888e-02 0.0 
1.653803700771e-02 4.515435346162e-02 0.0 
1.609017627054e-02 4.644439311213e-02 0.0 
1.418817292950e-02 4.499946694258e-02 0.0 
1.455967234100e-02 4.350381716321e-02 0.0 
1.236736627184e-02 4.397610048839e-02 0.0 
1.173091004324e-02 4.513737177875e-02 0.0 
1.014061365280e-02 4.472523646258e-02 0.0 
1.067927763472e-02 4.320872865705e-02 0.0 
8.684291451706e-03 4.447976709470e-02 0.0 
7.961835840421e-03 4.583471730312e-02 0.0 
6.778318956281e-03 4.604737542986e-02 0.0 
7.387324219243e-03 4.424837167491e-02 0.0 
5.728627965336e-03 4.620105777180e-02 0.0 
5.028018593379e-03 4.794039761996e-02 0.0 
4.244767580962e-03 4.837389987016e-02 0.0 
4.810554792670e-03 4.619430610399e-02 0.0 
3.554122350675e-03 4.860666225968e-02 0.0 
3.996640163935e-03 4.600666604124e-02 0.0 
2.957047074332e-03 5.080353208424e-02 0.0 
2.489188040091e-03 5.116340952791e-02 0.0 
1.919352683098e-03 5.341444310160e-02 0.0 
1.639429334963e-03 5.381772306465e-02 0.0 
2.851476196239e-02 5.594288730893e-02 0.0 
1.163733944061e-03 5.609018353960e-02 0.0 
1.320905867617e-03 5.529925124491e-02 0.0 
1.014353793286e-03 5.650048119617e-02 0.0 
1.379508984202e-03 5.391079193246e-02 0.0 
6.643586347188e-04 5.878049001504e-02 0.0 
5.973646616955e-04 5.914730376804e-02 0.0 
3.921488331358e-04 6.140518054092e-02 0.0 
2.733881185380e-02 6.661208091991e-02 0.0 
2.966883681090e-02 6.454814280329e-02 0.0 
3.595045583875e-04 6.169348584644e-02 0.0 
2.999478219081e-04 6.388951688609e-02 0.0 
3.182525954593e-04 6.337465438292e-02 0.0 
3.995993271833e-04 6.577679949578e-02 0.0 
2.292369754433e-02 1.037568460406e-01 0.0 
2.192638487828e-02 8.911187043799e-02 0.0 
2.081216892062e-02 9.787617798214e-02 0.0 
1.953094323456e-02 8.275667733183e-02 0.0 
1.856354154148e-02 9.119571822062e-02 0.0 
3.285009727980e-04 6.617166245351e-02 0.0 
2.534066959140e-02 6.927353303520e-02 0.0 
2.014935021495e-02 7.420214729778e-02 0.0 
3.301725096105e-02 9.234466371805e-02 0.0 
3.204721610510e-02 8.129778939145e-02 0.0 
2.065188865256e-02 4.583200885711e-02 0.0 
5.184581281590e-04 5.918715945960e-02 0.0 
3.112975124715e-04 6.166497809858e-02 0.0 
4.356661977898e-04 5.891966974117e-02 0.0 
5.178937238203e-03 4.355540460663e-02 0.0 
4.257238769410e-03 4.297904924534e-02 0.0 
5.322173928064e-03 4.044260228285e-02 0.0 
4.319866034765e-03 3.949650038152e-02 0.0 
5.230572741453e-03 3.683798328363e-02 0.0 
4.179899412634e-03 3.553427553810e-02 0.0 
3.446600959766e-03 3.837098959500e-02 0.0 
3.274015780470e-03 3.405793282620e-02 0.0 
2.696232478257e-03 3.704784338855e-02 0.0 
4.907429041053e-03 3.272393463116e-02 0.0 
6.134926078678e-03 3.423280985160e-02 0.0 
2.505741290267e-03 3.239889491341e-02 0.0 
2.061812218029e-03 3.551614331860e-02 0.0 
1.866776958056e-03 3.054500361796e-02 0.0 
1.535783047169e-03 3.377576425533e-02 0.0 
1.635476250973e-03 3.860603020098e-02 0.0 
1.214961401304e-03 3.695682369253e-02 0.0 
1.247153172975e-03 4.164962574049e-02 0.0 
1.846175909982e-02 4.303223847962e-02 0.0 
2.004728216856e-02 4.281910195731e-02 0.0 
1.776987114911e-02 3.997360330611e-02 0.0 
1.897222030552e-02 3.919713195909e-02 0.0 
1.663090632176e-02 3.629653653268e-02 0.0 
1.741793978215e-02 3.496764572525e-02 0.0 
1.503827294044e-02 3.200022472507e-02 0.0 
1.434635779771e-02 3.369364865424e-02 0.0 
2.710599599689e-02 6.578408632379e-02 0.0 
1.986642903038e-02 5.121863384232e-02 0.0 
2.157948382526e-02 5.488874982225e-02 0.0 
1.880298440567e-02 5.177473242540e-02 0.0 
2.033776721311e-02 5.564194939477e-02 0.0 
1.737632437523e-02 5.166940847389e-02 0.0 
1.871132495546e-02 5.582139208590e-02 0.0 
1.561864480718e-02 5.088333321597e-02 0.0 
1.413789723540e-02 4.787384215229e-02 0.0 
1.221743525620e-02 4.613634343496e-02 0.0 
1.066887861641e-02 4.457893758708e-02 0.0 
8.590100271675e-03 4.204091408909e-02 0.0 
7.118564173730e-03 4.216161779928e-02 0.0 
3.067458967622e-02 6.186522595035e-02 0.0 
1.983154156401e-02 3.824859805437e-02 0.0 
1.783354582051e-02 3.342037104121e-02 0.0 
2.029601868004e-02 3.703544883554e-02 0.0 
4.536535823840e-04 6.505862669250e-02 0.0 
1.108362296549e-03 3.182907364084e-02 0.0 
5.582631190791e-03 2.992743399815e-02 0.0 
6.978930961770e-03 3.170459578473e-02 0.0 
1.274548486683e-02 2.926515022127e-02 0.0 
5.638445236897e-04 6.792328955172e-02 0.0 
1.672327987805e-02 5.545809632194e-02 0.0 
1.955006756007e-02 6.136887577661e-02 0.0 
1.704872693178e-02 7.565067843021e-02 0.0 
1.625807435364e-02 8.386711054636e-02 0.0 
6.152148545334e-03 2.713253163047e-02 0.0 
4.177246513111e-04 6.820970446569e-02 0.0 
2.938291522756e-03 2.926026925585e-02 0.0 
1.002166832621e-02 4.353059599238e-02 0.0 
8.725677334933e-04 3.509698272123e-02 0.0 
7.689810150779e-04 2.968929467264e-02 0.0 
2.747242642673e-03 4.121900078249e-02 0.0 
1.783150371940e-02 3.157692490036e-02 0.0 
2.037154469418e-02 3.556600679325e-02 0.0 
9.168263780197e-03 4.428931906401e-02 0.0 
5.875087584730e-03 4.329875108630e-02 0.0 
3.729571369902e-03 4.099622424786e-02 0.0 
2.963882695282e-03 4.362821131531e-02 0.0 
4.905933567285e-03 4.500620128632e-02 0.0 
2.427986613148e-03 4.617625728361e-02 0.0 
7.181677102910e-04 4.511590638599e-02 0.0 
5.994570392165e-04 4.833274610970e-02 0.0 
2.087405956027e-03 4.864851180211e-02 0.0 
6.499298858476e-04 5.116638425249e-02 0.0 
-3.813689081547e-04 5.128034417393e-02 0.0 
-1.004184135081e-04 5.418459756236e-02 0.0 
9.360639040414e-04 2.624537384154e-02 0.0 
6.293841473120e-03 3.865135921938e-02 0.0 
3.137643300893e-02 9.960539604124e-02 0.0 
4.792283043869e-03 2.506157309820e-02 0.0 
1.302951878649e-02 2.715213385484e-02 0.0 
1.453942244120e-02 6.796336848072e-02 0.0 
1.394154765967e-02 7.600488972473e-02 0.0 
1.521356840353e-02 9.204239923914e-02 0.0 
1.310268926462e-02 8.396961242785e-02 0.0 
1.166188843590e-02 6.769842860040e-02 0.0 
1.103193876843e-02 7.555027079887e-02 0.0 
1.209674217392e-02 9.181529724767e-02 0.0 
1.022693540057e-02 8.329064525006e-02 0.0 
1.098874533847e-02 9.948586929604e-02 0.0 
9.302865978782e-03 9.088818197968e-02 0.0 
8.423186678087e-03 7.450904156958e-02 0.0 
7.671381719149e-03 8.209286155873e-02 0.0 
8.304332701222e-03 9.834885831358e-02 0.0 
6.821039519366e-03 8.955906744899e-02 0.0 
7.261096927770e-03 1.056617017865e-01 0.0 
5.899519477268e-03 9.690406064887e-02 0.0 
5.414352218828e-03 8.062266490800e-02 0.0 
7.294782490881e-04 6.970598789854e-02 0.0 
1.216828606454e-02 3.130819526389e-02 0.0 
1.058174403196e-02 2.669064506869e-02 0.0 
2.600998767583e-04 6.130445205534e-02 0.0 
3.600303424713e-04 5.833035555457e-02 0.0 
5.876035428587e-04 5.583170998159e-02 0.0 
4.605715633010e-04 5.504113534799e-02 0.0 
4.588972149143e-03 8.809130602250e-02 0.0 
4.110805311122e-03 7.157718402235e-02 0.0 
1.719452165980e-02 6.169964674205e-02 0.0 
1.969561733629e-02 6.834487986015e-02 0.0 
1.482677897400e-02 5.990201898448e-02 0.0 
5.991791423301e-04 3.303779409742e-02 0.0 
6.541553640211e-04 3.827556056694e-02 0.0 
3.104511067711e-02 7.916808741608e-02 0.0 
3.107976408769e-02 8.716545086660e-02 0.0 
2.984460776477e-02 8.428443462960e-02 0.0 
2.931087275194e-02 9.286878011045e-02 0.0 
3.056002765103e-02 9.585647580535e-02 0.0 
2.785367305074e-02 8.922140029576e-02 0.0 
7.528087263108e-03 3.570032036518e-02 0.0 
6.721927780688e-03 6.553559941349e-02 0.0 
3.005010877475e-04 6.251163679419e-02 0.0 
4.833743883985e-04 6.400555821351e-02 0.0 
5.065943504738e-04 2.736683646561e-02 0.0 
1.335528030029e-02 3.528964399456e-02 0.0 
3.035298512779e-02 6.105056377358e-02 0.0 
2.881851776720e-02 5.466411019427e-02 0.0 
2.809223700981e-02 5.308103765167e-02 0.0 
2.624350102745e-02 4.704447483715e-02 0.0 
2.507020346079e-02 4.469454418795e-02 0.0 
2.292600939856e-02 3.899340162414e-02 0.0 
2.412471113314e-02 4.148402912560e-02 0.0 
1.735969656820e-02 2.933083410375e-02 0.0 
2.055146225726e-02 3.369619559031e-02 0.0 
5.006396027298e-03 1.042784497424e-01 0.0 
2.222306185846e-02 4.195212451769e-02 0.0 
1.858207576712e-03 5.083268670423e-02 0.0 
9.851854858587e-04 6.921803798964e-02 0.0 
-4.300858768111e-04 5.474544084551e-02 0.0 
5.072581607619e-04 6.995153814145e-02 0.0 
2.890856319051e-04 6.820036122908e-02 0.0 
5.072076147041e-03 2.199580658577e-02 0.0 
2.125746711880e-02 3.587144477519e-02 0.0 
2.344756135653e-02 4.170465761548e-02 0.0 
2.818660480528e-02 1.022080885794e-01 0.0 
2.947287923815e-02 1.051991652507e-01 0.0 
1.479146058611e-02 2.551126009859e-02 0.0 
1.935796269319e-02 1.067043683462e-01 0.0 
1.269110494211e-02 1.078391621782e-01 0.0 
1.135916086340e-02 1.153800442087e-01 0.0 
9.062406859539e-04 7.130057191553e-02 0.0 
-6.675915537535e-04 5.130146614889e-02 0.0 
9.471768076708e-03 5.905840386050e-02 0.0 
2.206395564886e-02 6.698662715672e-02 0.0 
2.196305453969e-02 7.446497471245e-02 0.0 
7.319765984018e-03 4.036682448221e-02 0.0 
3.864561590657e-03 3.487828715117e-02 0.0 
3.427796195311e-03 7.891948715399e-02 0.0 
2.967951622097e-03 6.240203210602e-02 0.0 
7.323050094339e-04 5.240922001293e-02 0.0 
5.636367093871e-04 5.136951527012e-02 0.0 
6.562133011043e-03 2.428555092844e-02 0.0 
-1.519164455299e-04 5.742290244635e-02 0.0 
3.435965936276e-03 5.479639890395e-02 0.0 
1.131259987668e-02 3.325428126220e-02 0.0 
1.212271946007e-02 3.685621017321e-02 0.0 
2.703931735253e-04 5.754762908436e-02 0.0 
1.676853122362e-02 6.949476784397e-02 0.0 
1.422887818937e-02 6.179404661546e-02 0.0 
3.540832941860e-03 4.861956783113e-02 0.0 
1.475593495837e-04 5.648639928444e-02 0.0 
3.220369754380e-04 6.986613833006e-02 0.0 
5.142663863706e-03 1.884012764825e-02 0.0 
9.662698155644e-03 5.122876467910e-02 0.0 
2.180601609342e-02 3.639932707273e-02 0.0 
2.488140849803e-02 4.344926170857e-02 0.0 
1.801665183066e-02 2.882235048650e-02 0.0 
2.351704016696e-04 5.822795480525e-02 0.0 
3.788316938882e-03 1.961078020725e-02 0.0 
3.860854690525e-04 3.079635548492e-02 0.0 
1.932742872957e-02 3.258787296679e-02 0.0 
2.138328375530e-02 3.808012080387e-02 0.0 
2.429844106885e-02 7.216820404119e-02 0.0 
2.408728861516e-02 8.006476064743e-02 0.0 
2.109641058642e-02 8.310470547022e-02 0.0 
2.309201633525e-02 8.889526154776e-02 0.0 
2.930761690381e-02 1.068525432521e-01 0.0 
2.632565476078e-02 7.685249878992e-02 0.0 
3.212370283948e-02 1.008677655865e-01 0.0 
3.115358148129e-02 1.103156738327e-01 0.0 
3.150407294684e-02 1.108421147956e-01 0.0 
3.150016795733e-02 9.823396459556e-02 0.0 
3.044860603672e-02 1.076592367460e-01 0.0 
2.298729732825e-02 5.958160487974e-02 0.0 
2.229719461972e-02 4.612759108388e-02 0.0 
9.259454045418e-04 5.318402665138e-02 0.0 
1.641274617974e-03 4.298293521284e-02 0.0 
6.459156351561e-03 4.123457208480e-02 0.0 
7.161833894834e-03 5.786126256967e-02 0.0 
5.438764764648e-03 4.871258931745e-02 0.0 
8.657510946982e-03 1.142676805955e-01 0.0 
7.485701171170e-03 1.214041984931e-01 0.0 
8.834381616252e-04 6.644282240729e-02 0.0 
1.048616248406e-03 6.519475578026e-02 0.0 
3.279862148107e-03 4.560226279220e-02 0.0 
3.624417947806e-03 2.288611485986e-02 0.0 
1.215204209046e-02 5.187430262347e-02 0.0 
1.188287474163e-02 4.397763953989e-02 0.0 
1.474139204841e-02 5.186666276101e-02 0.0 
6.746627539297e-03 2.135041561398e-02 0.0 
1.706809464032e-02 4.898139611013e-02 0.0 
1.627958335522e-02 4.067571344580e-02 0.0 
2.992919430035e-03 3.547554843457e-02 0.0 
2.902234331994e-02 5.607213680704e-02 0.0 
1.681964445059e-03 6.748413489090e-02 0.0 
2.816244225872e-02 6.182776346243e-02 0.0 
3.112376184800e-04 2.487682640887e-02 0.0 
3.861637389626e-04 2.124627810648e-02 0.0 
1.379858011836e-02 2.265220520589e-02 0.0 
2.710576995040e-02 1.286813632915e-01 0.0 
2.714898978381e-02 5.061646195711e-02 0.0 
2.662137556689e-02 5.079592564674e-02 0.0 
3.006536141070e-02 1.206680869245e-01 0.0 
3.000634217402e-02 1.204789527804e-01 0.0 
3.149173428697e-02 1.106047349710e-01 0.0 
2.958542593231e-02 1.196076418321e-01 0.0 
3.056328920438e-03 5.020202735394e-02 0.0 
1.676711635231e-03 5.264795566478e-02 0.0 
1.647256256763e-02 2.633490419752e-02 0.0 
1.636304745066e-02 2.566802040482e-02 0.0 
1.686778460637e-02 2.847252710551e-02 0.0 
1.886950800604e-02 3.370848858432e-02 0.0 
1.119147201173e-02 1.884812959672e-02 0.0 
1.225444917161e-02 2.193404350544e-02 0.0 
1.832452402351e-04 6.791268459103e-02 0.0 
2.785805207137e-02 1.150155848123e-01 0.0 
7.402389426886e-03 4.234877124096e-02 0.0 
2.974781896314e-02 1.201168488749e-01 0.0 
2.736532805738e-03 1.727718728473e-02 0.0 
2.651121139976e-03 2.058493246338e-02 0.0 
1.143863430425e-03 3.141629425883e-02 0.0 
3.264195233186e-04 3.473586583086e-02 0.0 
2.358757674386e-03 4.583607856170e-02 0.0 
1.945036274448e-02 9.255803755399e-02 0.0 
2.131428573484e-02 9.839098780227e-02 0.0 
1.750040094263e-02 8.591497570634e-02 0.0 
3.212615063941e-05 1.123888173889e-02 0.0 
1.980672683970e-03 1.502642925134e-01 0.0 
2.207127462226e-04 1.851756276886e-02 0.0 
3.216701847430e-02 1.000445525247e-01 0.0 
2.561465515228e-03 3.744782128884e-02 0.0 
2.507617601119e-02 4.575983584857e-02 0.0 
2.971140904327e-02 7.652740813177e-02 0.0 
8.258168148918e-03 2.653100551349e-02 0.0 
1.903581073307e-03 5.488534690794e-02 0.0 
1.423129001438e-03 3.605934022835e-02 0.0 
1.283163375308e-02 1.232975277930e-01 0.0 
1.140808226187e-02 1.309128500652e-01 0.0 
1.437110061369e-02 1.158709934239e-01 0.0 
1.100622269751e-02 4.738252426772e-02 0.0 
7.388108781921e-03 4.548397414031e-02 0.0 
5.157776057551e-03 5.640184920068e-02 0.0 
2.150686869156e-04 6.396805280702e-02 0.0 
1.633473693086e-04 6.331962956312e-02 0.0 
8.867148248726e-05 5.956170534544e-02 0.0 
2.956902450713e-04 5.832679612219e-02 0.0 
1.095857317431e-03 4.968504935970e-02 0.0 
1.383241300009e-03 5.046047277707e-02 0.0 
2.694966136569e-02 5.465646811347e-02 0.0 
2.505532646773e-02 5.128665112965e-02 0.0 
2.963257157048e-02 5.964604342958e-02 0.0 
1.024005205890e-02 3.517779359990e-02 0.0 
1.071657485142e-02 3.846348075693e-02 0.0 
1.257981825027e-02 3.983591977193e-02 0.0 
5.574245821094e-03 4.151331369983e-02 0.0 
3.735758096639e-03 3.079919828394e-02 0.0 
4.847477568026e-03 4.817122473752e-02 0.0 
5.677074500481e-03 4.699323192297e-02 0.0 
2.626154666109e-03 5.154728836292e-02 0.0 
7.141438913834e-03 3.486287860733e-02 0.0 
2.620903859487e-04 1.485996615403e-02 0.0 
4.458077469875e-04 1.775372083894e-02 0.0 
2.060162495280e-03 6.609357344212e-02 0.0 
1.169219191715e-03 6.354467370887e-02 0.0 
1.297507198309e-02 7.054062598155e-02 0.0 
1.015970320374e-02 6.192746518252e-02 0.0 
1.136106175625e-02 3.677279595640e-02 0.0 
1.426887374142e-02 4.406717572083e-02 0.0 
8.216095617428e-03 2.794174048770e-02 0.0 
1.830322731109e-04 6.961945808719e-02 0.0 
2.257777640183e-02 3.849955649194e-02 0.0 
5.124805245588e-03 1.586818863799e-02 0.0 
6.842486303121e-03 1.861334573481e-02 0.0 
3.439456407925e-03 1.237040721101e-02 0.0 
1.652900393841e-02 2.690679478304e-02 0.0 
1.244974027297e-02 1.968194664001e-02 0.0 
1.346470989573e-02 2.073630449179e-02 0.0 
1.191311017330e-03 3.084210328456e-02 0.0 
1.064191625119e-03 4.314093715320e-02 0.0 
8.774686872400e-03 1.298272545570e-01 0.0 
-1.049754991378e-04 2.787473565337e-02 0.0 
7.520306082156e-03 1.373041618690e-01 0.0 
6.359337385923e-03 1.285044748552e-01 0.0 
6.469815153032e-03 1.445640142587e-01 0.0 
3.112845346618e-04 7.125470209960e-02 0.0 
1.425838641426e-02 1.336715719376e-01 0.0 
1.608737299567e-02 1.240967847726e-01 0.0 
2.761657978109e-03 6.437868349865e-02 0.0 
4.866750116406e-03 2.596526530493e-02 0.0 
2.726407395657e-03 6.800956757111e-02 0.0 
2.182965144330e-03 6.920583246667e-02 0.0 
1.878533726785e-03 1.458357072301e-02 0.0 
1.861779736091e-03 1.811248230590e-02 0.0 
1.197010799375e-03 1.188692034807e-02 0.0 
1.271472146697e-03 1.582889466597e-02 0.0 
1.758939690491e-03 2.170005351018e-02 0.0 
1.199464414869e-03 1.923503721730e-02 0.0 
1.010515940845e-02 1.393565710826e-01 0.0 
7.581424757070e-04 1.214635081859e-02 0.0 
7.661017244827e-04 1.646864162331e-02 0.0 
4.171427038537e-04 9.447934980397e-03 0.0 
2.756488700559e-02 1.300902470334e-01 0.0 
2.477837789495e-02 9.404209340109e-02 0.0 
2.296157748118e-02 1.038414989232e-01 0.0 
1.863920646068e-02 1.090707410658e-01 0.0 
1.282492078188e-02 2.141804141500e-02 0.0 
1.622870704177e-02 2.925959969904e-02 0.0 
2.228921128717e-04 2.826147793465e-02 0.0 
2.540464999639e-04 3.399057619825e-02 0.0 
5.219014572695e-03 1.366187766764e-01 0.0 
3.821933296514e-03 1.372380317488e-01 0.0 
4.216788384589e-03 1.232633161358e-01 0.0 
3.042510990539e-03 1.249617948037e-01 0.0 
3.310362042548e-03 1.109655784036e-01 0.0 
2.127798296883e-03 1.127543655132e-01 0.0 
2.551471916519e-03 9.847831441633e-02 0.0 
1.128619595922e-02 1.700341111365e-02 0.0 
1.493303808526e-02 9.544247273803e-02 0.0 
2.815779592881e-02 1.309969217619e-01 0.0 
8.652126165835e-03 1.523109094508e-02 0.0 
1.011273926541e-02 1.911407776501e-02 0.0 
2.887451659376e-02 1.175622181022e-01 0.0 
2.560356974431e-02 1.255437090161e-01 0.0 
2.449420201630e-03 1.284671708303e-02 0.0 
2.606205777362e-02 6.961427109400e-02 0.0 
3.687358250211e-03 1.642433554447e-02 0.0 
-4.236183914085e-03 4.117657633681e-02 0.0 
1.933773378230e-03 4.044544471630e-02 0.0 
2.797218138854e-02 7.341575434662e-02 0.0 
3.113625216867e-02 1.095589673351e-01 0.0 
2.652480769227e-02 9.851865400722e-02 0.0 
2.499709656816e-02 1.083800872412e-01 0.0 
9.431165388984e-03 3.124448038647e-02 0.0 
1.372758893416e-03 6.146482041168e-02 0.0 
1.538649942865e-02 7.855244781025e-02 0.0 
3.723758757793e-03 9.687991898771e-02 0.0 
1.059289202645e-02 7.985296337997e-02 0.0 
1.117067923592e-04 3.099782242887e-02 0.0 
2.530905223458e-02 6.327719105202e-02 0.0 
3.269152807436e-02 9.109527015084e-02 0.0 
1.902964409996e-02 7.657171450579e-02 0.0 
2.615192678602e-02 8.502850840088e-02 0.0 
3.027470353067e-02 9.753713238975e-02 0.0 
2.791936315337e-02 1.163840188968e-01 0.0 
2.894694243716e-02 1.189414827145e-01 0.0 
2.405081336993e-02 5.795011288571e-02 0.0 
2.658431933199e-02 1.120012781473e-01 0.0 
2.261242631556e-02 1.192227382545e-01 0.0 
3.264287233962e-02 9.186448515089e-02 0.0 
1.759284398118e-02 5.918754445649e-02 0.0 
1.723483445067e-02 5.113208972662e-02 0.0 
1.346115034942e-02 3.686178158246e-02 0.0 
1.645264437865e-02 4.345683534133e-02 0.0 
2.012066192020e-02 5.767148371532e-02 0.0 
1.944054361134e-02 4.982167431861e-02 0.0 
1.525724376359e-02 3.626130296802e-02 0.0 
1.833391752747e-02 4.234450371644e-02 0.0 
1.254306409098e-02 2.659648811863e-02 0.0 
1.666816434887e-02 3.497267779503e-02 0.0 
2.125977645763e-02 4.816541122970e-02 0.0 
1.989202368186e-02 4.127313821326e-02 0.0 
1.535951175112e-02 2.984257435011e-02 0.0 
2.405321701278e-02 5.400390927769e-02 0.0 
7.118871572658e-03 1.178526534613e-02 0.0 
2.907394480084e-02 6.950205458718e-02 0.0 
4.067530223942e-03 3.699869794562e-02 0.0 
4.928385913971e-03 5.042941873665e-02 0.0 
3.303139130664e-02 9.208606956207e-02 0.0 
6.315659809637e-03 1.306126662255e-02 0.0 
5.513499223817e-03 1.362457689467e-02 0.0 
2.147040431901e-02 6.069421220290e-02 0.0 
6.476164625816e-03 1.004908437324e-02 0.0 
3.039055104096e-02 1.090786180479e-01 0.0 
1.355317554639e-02 4.942213175536e-02 0.0 
6.278363454626e-03 9.249010330524e-03 0.0 
2.035497710030e-02 6.579402954165e-02 0.0 
2.297631790278e-02 7.203413664741e-02 0.0 
2.265753430039e-02 8.050913579842e-02 0.0 
4.410914361152e-03 1.324044893735e-02 0.0 
1.591008420720e-02 1.080115309646e-01 0.0 
4.846817644900e-03 7.289466104812e-03 0.0 
2.131473905950e-02 4.248394138251e-02 0.0 
2.360292020249e-02 4.629100896104e-02 0.0 
2.443270314423e-02 4.999953180456e-02 0.0 
2.229498865975e-02 5.594050405166e-02 0.0 
3.542844247697e-03 6.753309420759e-03 0.0 
6.167770738863e-03 1.257966855145e-02 0.0 
5.392250430731e-03 1.232304680640e-02 0.0 
8.315251804671e-03 1.823735303171e-02 0.0 
2.685671289859e-03 6.465581997986e-03 0.0 
6.100789333232e-03 1.093295944041e-02 0.0 
5.908133351646e-03 9.989197809851e-03 0.0 
4.138142235172e-03 4.683565173478e-02 0.0 
6.663961669750e-03 4.582083957251e-02 0.0 
8.145179742376e-03 4.602029794175e-02 0.0 
9.474953421897e-03 4.558583064227e-02 0.0 
7.824075536391e-03 4.482063955400e-02 0.0 
1.093862244992e-02 4.555728685576e-02 0.0 
1.238616248748e-02 4.605875921051e-02 0.0 
1.251618226481e-02 4.620638267525e-02 0.0 
2.099163361523e-02 4.025050075258e-02 0.0 
1.870080418405e-03 6.090559777110e-03 0.0 
6.430354598377e-03 3.800511279062e-02 0.0 
7.775241471993e-03 3.910147825530e-02 0.0 
7.723414571057e-03 4.194219540814e-02 0.0 
1.142427839381e-03 5.368712772715e-02 0.0 
1.708978303279e-03 5.098066116591e-02 0.0 
1.962571779566e-03 4.769327110889e-02 0.0 
7.221372705688e-04 5.635472780443e-02 0.0 
2.697891906887e-02 4.880875253999e-02 0.0 
1.535645506484e-03 6.103105907648e-03 0.0 
1.415481549982e-02 3.864775551103e-02 0.0 
2.075636614402e-03 5.122287089508e-02 0.0 
1.798686031533e-02 1.454064070543e-01 0.0 
1.997611412430e-02 1.313617232251e-01 0.0 
2.209143001851e-02 1.283257872225e-01 0.0 
2.140181977533e-02 1.151075561855e-01 0.0 
1.775695743424e-02 1.318781200726e-01 0.0 
8.481298543366e-04 4.863985052834e-02 0.0 
6.364064780655e-04 4.734744207024e-02 0.0 
4.149480507101e-04 5.008531515219e-02 0.0 
4.554434252300e-04 4.582229264848e-02 0.0 
2.816055746626e-04 4.855728261607e-02 0.0 
2.505016859327e-04 5.257767372946e-02 0.0 
2.958698853659e-04 4.408475557015e-02 0.0 
1.581254671434e-04 4.732545076290e-02 0.0 
1.451968998705e-02 1.483459364491e-01 0.0 
1.470279512077e-03 3.738122572037e-02 0.0 
-1.784686873094e-04 4.160687713414e-02 0.0 
8.809318420422e-04 4.826291775354e-02 0.0 
-7.962260342946e-04 4.522702388435e-02 0.0 
-8.243285130582e-04 3.976263250957e-02 0.0 
-6.468015883385e-04 4.367899631162e-02 0.0 
1.989094728341e-04 3.946292364581e-02 0.0 
-7.322725028125e-04 3.482472245227e-02 0.0 
4.140582206178e-03 5.147750955465e-02 0.0 
1.726076815514e-03 5.360726208311e-02 0.0 
4.692846208469e-03 5.634418013743e-02 0.0 
2.429201091690e-03 5.791642130282e-02 0.0 
2.636379218934e-04 5.528607732556e-02 0.0 
4.516771457777e-04 6.251759197164e-02 0.0 
1.138029330408e-04 7.464382591213e-03 0.0 
6.161986535147e-05 5.842129294750e-02 0.0 
1.087729318017e-04 5.993692040873e-02 0.0 
8.082736477344e-05 6.296372826362e-02 0.0 
1.501200623459e-04 6.098721922940e-02 0.0 
1.312035887227e-04 5.679531166492e-02 0.0 
3.840163578084e-05 6.470520399972e-02 0.0 
8.193144110513e-05 6.543513239893e-02 0.0 
1.731046669687e-03 7.369529214201e-02 0.0 
1.042940649960e-03 7.383542165129e-02 0.0 
5.125229751944e-04 7.422868375018e-02 0.0 
5.707798920926e-04 7.354836858515e-02 0.0 
9.403417999576e-04 7.312085170943e-02 0.0 
1.539785661012e-03 7.326355990260e-02 0.0 
2.003358909589e-03 7.249735733012e-02 0.0 
2.963965284488e-03 7.218794414946e-02 0.0 
2.393153421750e-03 7.153618234850e-02 0.0 
1.536970249037e-03 7.157468844755e-02 0.0 
3.508654199148e-03 7.115420606998e-02 0.0 
8.320198340925e-04 7.717444176975e-02 0.0 
1.595600617783e-03 6.896862287302e-02 0.0 
1.059463897841e-03 6.483733204483e-03 0.0 
1.143375098130e-02 1.483562435366e-01 0.0 
4.884467735529e-03 6.335098034549e-02 0.0 
1.351264767088e-03 1.806266934778e-02 0.0 
2.111471309213e-03 1.488686254523e-02 0.0 
1.689407577985e-03 1.446542089841e-02 0.0 
6.298638312430e-05 1.835872264638e-02 0.0 
1.022762202743e-04 1.504373649930e-02 0.0 
7.262356048656e-04 1.758793580315e-02 0.0 
3.970517952503e-04 6.079080204171e-02 0.0 
1.224448799785e-02 3.006166451659e-02 0.0 
3.758725544230e-03 4.710300874941e-02 0.0 
1.434074708395e-02 5.464435845424e-02 0.0 
7.582988226833e-04 5.539716176537e-02 0.0 
4.293652528617e-04 3.624390479869e-02 0.0 
2.144111763298e-03 4.001618571011e-02 0.0 
6.200969461485e-04 2.388075578024e-02 0.0 
9.211036907635e-04 4.006876656472e-02 0.0 
1.347307549975e-03 2.848830984354e-02 0.0 
4.741971071764e-03 1.252433113991e-02 0.0 
5.568997730681e-04 7.133932692825e-02 0.0 
9.830032988162e-03 1.069652266946e-01 0.0 
6.248998933586e-03 1.129013988189e-01 0.0 
6.128729681762e-03 7.313026472720e-02 0.0 
2.616023643327e-04 6.408142254461e-02 0.0 
3.586566236411e-04 5.377905323267e-02 0.0 
7.153163117302e-04 6.732584713515e-02 0.0 
1.148179067215e-02 1.777803580051e-02 0.0 
3.248647173435e-02 1.014378238142e-01 0.0 
6.218573815300e-03 4.396806145131e-02 0.0 
8.657552764433e-04 5.658232271167e-02 0.0 
7.129773722756e-04 5.805607855839e-02 0.0 
7.205882753141e-04 5.351590704552e-02 0.0 
3.048815869251e-02 7.189743503620e-02 0.0 
2.952854525686e-03 4.857364958842e-02 0.0 
3.843959146723e-03 3.107401540256e-02 0.0 
4.705809461953e-03 6.403063164350e-02 0.0 
4.210398305299e-03 6.816040750923e-02 0.0 
4.366001927959e-03 2.808019162957e-02 0.0 
3.449709183611e-03 4.220574587964e-02 0.0 
1.400036141862e-02 1.000681320003e-01 0.0 
1.538481132422e-02 3.013663043369e-02 0.0 
-5.538437531580e-04 4.789151884378e-02 0.0 
9.042760279222e-03 6.684833559645e-02 0.0 
9.255205453634e-03 3.660407232685e-02 0.0 
1.772507581442e-02 1.154522590514e-01 0.0 
1.322670963606e-03 6.856656485485e-02 0.0 
1.007262331407e-02 1.229233280294e-01 0.0 
3.761629970478e-03 1.624231231875e-02 0.0 
1.751144250240e-02 6.736775792837e-02 0.0 
2.545203233293e-04 6.626410891163e-02 0.0 
1.661756059234e-02 4.322825370429e-02 0.0 
3.272828319441e-02 8.277671637715e-02 0.0 
2.555671646355e-02 1.407540113118e-01 0.0 
3.929993284508e-03 3.998709345489e-02 0.0 
2.763844958160e-02 5.540676473508e-02 0.0 
1.075473385212e-02 2.419407871011e-02 0.0 
1.552312693744e-02 3.749422210478e-02 0.0 
1.837503204221e-04 6.601178750568e-02 0.0 
2.458519325646e-03 2.395549567584e-02 0.0 
2.277755966426e-02 4.916761157568e-02 0.0 
7.420388507867e-03 5.022777791100e-02 0.0 
2.693933633594e-02 5.086476066216e-02 0.0 
1.800819617037e-02 4.846478182616e-02 0.0 
1.205628111628e-02 5.979817378106e-02 0.0 
9.125988683222e-03 4.257387660834e-02 0.0 
1.531268500555e-02 2.798879619127e-02 0.0 
3.250407956844e-02 1.011041540793e-01 0.0 
3.153504279862e-02 6.796187684368e-02 0.0 
2.897005313478e-02 6.941087938293e-02 0.0 
3.059667496945e-02 6.206754530677e-02 0.0 
2.620025491105e-04 3.935756008683e-02 0.0 
3.325657755214e-03 2.609693793379e-02 0.0 
5.016353884894e-03 3.912192648336e-02 0.0 
2.826681387650e-02 8.088673658497e-02 0.0 
1.731572175245e-02 9.964401594129e-02 0.0 
1.897012802389e-02 3.074020270186e-02 0.0 
5.324195505750e-03 3.327362595062e-02 0.0 
3.203737495224e-02 8.943792354747e-02 0.0 
2.185287871291e-03 2.728553377575e-02 0.0 
9.620444092434e-03 4.389995401314e-02 0.0 
2.424733180748e-03 4.827345992213e-02 0.0 
1.359942798534e-04 7.135383261821e-02 0.0 
1.132264708627e-02 5.368026842815e-02 0.0 
1.576487159208e-02 4.879927900040e-02 0.0 
2.638767215543e-02 5.444661739588e-02 0.0 
2.655480131933e-03 4.494829400240e-02 0.0 
9.886459745651e-03 2.767096655339e-02 0.0 
1.571676700657e-03 2.512780931413e-02 0.0 
7.696691325398e-03 2.914378349763e-02 0.0 
1.628870720804e-03 7.118008896155e-02 0.0 
2.791318336931e-02 1.301021795735e-01 0.0 
1.085700507131e-03 2.278431038390e-02 0.0 
1.456103092976e-02 4.138932350429e-02 0.0 
1.288192462028e-02 2.473209083255e-02 0.0 
1.495543759988e-04 5.118818334244e-02 0.0 
1.128107519628e-02 1.715124438195e-02 0.0 
2.684722671462e-02 1.278130098458e-01 0.0 
7.126199033962e-04 2.026389752264e-02 0.0 
1.013787665196e-02 2.899399974278e-02 0.0 
2.392271618228e-02 6.531504637907e-02 0.0 
3.266042457099e-03 1.502692401875e-01 0.0 
4.117997235733e-04 1.274595435324e-02 0.0 
8.548236993796e-03 2.384416996886e-02 0.0 
2.912858035511e-02 5.566286615520e-02 0.0 
1.265846109578e-02 4.220306229914e-02 0.0 
2.556485406233e-02 1.420306316395e-01 0.0 
2.110650378310e-03 4.406424934830e-02 0.0 
3.080861629898e-02 6.664715010410e-02 0.0 
3.869657273384e-03 1.313345138291e-02 0.0 
8.709942670663e-03 2.146365563569e-02 0.0 
2.499098336004e-02 8.637422204495e-02 0.0 
1.556707130569e-03 4.690053785582e-02 0.0 
2.278434327317e-02 4.126013167050e-02 0.0 
1.279135017145e-03 7.246181881216e-02 0.0 
2.804285557060e-02 1.309045588292e-01 0.0 
1.207817646342e-03 4.584509438429e-02 0.0 
1.406004287617e-02 4.701508066880e-02 0.0 
1.087742339834e-02 4.112069933378e-02 0.0 
9.862781855212e-03 1.578596237197e-02 0.0 
9.141254813301e-04 4.453712504507e-02 0.0 
1.526215718613e-02 4.707566663930e-02 0.0 
6.680153825798e-04 4.299928463749e-02 0.0 
2.413232904718e-02 1.397467771896e-01 0.0 
2.536171737581e-02 7.748729338931e-02 0.0 
4.548475429980e-04 4.125358475722e-02 0.0 
2.849308586483e-02 5.749142618044e-02 0.0 
1.708756019131e-03 7.039015406605e-02 0.0 
2.728455010158e-02 5.001612566481e-02 0.0 
1.654233552051e-04 2.181227164583e-02 0.0 
2.243306869209e-03 5.264571563754e-02 0.0 
9.256527836854e-03 4.014305522161e-02 0.0 
2.284693116120e-02 6.379562881265e-02 0.0 
2.155885242675e-02 1.352456103434e-01 0.0 
9.062793087699e-03 3.711097639767e-02 0.0 
2.537679944908e-02 4.801014484806e-02 0.0 
2.521153071636e-02 4.489243234057e-02 0.0 
2.572136715793e-02 5.057503203741e-02 0.0 
8.539193811483e-03 3.344709901599e-02 0.0 
2.444659486743e-02 1.222669196443e-01 0.0 
3.583485946184e-04 5.987491874413e-02 0.0 
2.342286809096e-04 6.126090952016e-02 0.0 
1.346558493932e-02 4.585868039477e-02 0.0 
2.337284533859e-02 4.443630105670e-02 0.0 
5.596627607898e-04 7.253837839903e-02 0.0 
2.486760349117e-02 6.126205565741e-02 0.0 
3.546927588332e-04 6.063463894555e-02 0.0 
1.078719764289e-02 4.567418949984e-02 0.0 
1.990460121946e-02 3.347944803476e-02 0.0 
9.678384525031e-04 1.087748875754e-01 0.0 
9.308410930007e-03 4.565552372607e-02 0.0 
7.605808985267e-05 6.950290566961e-02 0.0 
6.973434787746e-03 4.665036814934e-02 0.0 
2.451727474233e-02 4.616156145610e-02 0.0 
5.946211485528e-03 4.732138556664e-02 0.0 
4.131603896672e-03 4.923980332144e-02 0.0 
2.639151183438e-03 3.066285288836e-02 0.0 
3.510401926535e-03 5.012803375494e-02 0.0 
3.584415668456e-04 1.457898843664e-02 0.0 
3.717380398482e-05 6.837627342215e-03 0.0 
1.238967153505e-03 1.390530991421e-01 0.0 
1.769316684982e-02 1.294693790971e-01 0.0 
-1.843967111252e-03 2.626613298069e-02 0.0 
2.144957216881e-02 1.126700193724e-01 0.0 
1.497176737828e-03 5.412066737866e-02 0.0 
2.631187251765e-02 5.838264843117e-02 0.0 
2.575876653289e-03 1.383744010363e-01 0.0 
7.429279437368e-04 5.693520089258e-02 0.0 
1.151834087348e-02 2.234456921326e-02 0.0 
5.416740279884e-03 7.862396650523e-03 0.0 
1.780806648277e-03 8.442683116499e-02 0.0 
1.071928374473e-02 2.194397676694e-02 0.0 
2.285792446960e-02 4.000003356769e-02 0.0 
5.261617661816e-04 4.484024962218e-02 0.0 
7.453192658751e-03 1.513769853382e-01 0.0 
2.914855662560e-03 6.146251716549e-02 0.0 
1.247762433231e-04 3.667350742317e-02 0.0 
1.394857412695e-02 1.191521644143e-01 0.0 
1.666088819729e-02 1.022607051026e-01 0.0 
1.271771188439e-02 8.799807781184e-02 0.0 
1.284686413721e-04 6.572673633285e-02 0.0 
-1.397596141626e-04 5.063331098017e-02 0.0 
1.128374676900e-02 1.055889850341e-01 0.0 
7.051298063505e-03 1.327113904988e-02 0.0 
1.260335183195e-02 1.373228740192e-01 0.0 
1.939949150850e-02 3.179761997945e-02 0.0 
6.958908787162e-03 8.998555642310e-02 0.0 
6.731145125855e-03 2.853039788334e-02 0.0 
1.016050186016e-02 1.545805884551e-02 0.0 
5.684956317467e-04 5.786653401046e-03 0.0 
1.521582320306e-02 2.402229686526e-02 0.0 
7.859759227657e-03 7.076902305261e-02 0.0 
1.935375310219e-02 1.202827773837e-01 0.0 
1.158971413318e-02 1.845634005755e-02 0.0 
2.440672473909e-03 7.132730748791e-02 0.0 
3.018520413134e-04 5.620467736968e-03 0.0 
1.581539386908e-02 1.371809533823e-01 0.0 
1.589516871320e-03 2.866492847399e-02 0.0 
2.168363811247e-03 3.797369506256e-02 0.0 
8.000022186607e-04 2.784515405434e-02 0.0 
2.268273405368e-02 4.679535958147e-02 0.0 
5.325697595211e-03 1.200209530242e-01 0.0 
2.332585793295e-02 1.160906461027e-01 0.0 
1.293064546828e-04 1.180293996036e-02 0.0 
1.074504622112e-02 2.421757135957e-02 0.0 
4.971236970889e-03 5.981271416425e-02 0.0 
2.793627439495e-03 8.607213807282e-02 0.0 
2.306164292896e-04 6.039741742451e-02 0.0 
-3.057996933826e-04 2.970398605975e-02 0.0 
1.826513740317e-03 1.179529816839e-02 0.0 
1.831459548759e-02 3.531814070589e-02 0.0 
2.740845291713e-04 1.195256206924e-02 0.0 
2.644865701389e-04 7.379114112322e-02 0.0 
3.300398744292e-03 6.669304900434e-02 0.0 
2.521644947702e-03 1.086836429900e-02 0.0 
1.103102355803e-02 1.905720748144e-02 0.0 
1.192264627136e-03 4.215203528466e-02 0.0 
2.276185083169e-03 1.152829017457e-02 0.0 
4.244046745328e-04 4.965791336123e-02 0.0 
1.002188729431e-02 1.526972211222e-01 0.0 
2.778412934408e-03 7.050030775853e-02 0.0 
1.941603077782e-04 5.733030621997e-03 0.0 
3.939904319850e-03 2.718972113355e-02 0.0 
1.774390372127e-04 5.813531096468e-02 0.0 
2.216708031811e-02 1.382990915790e-01 0.0 
1.116180964851e-04 6.776339258745e-02 0.0 
1.489723933645e-02 2.321094966510e-02 0.0 
1.260463343762e-03 5.898171449240e-02 0.0 
2.652351320329e-03 2.581942988244e-02 0.0 
3.542984184294e-03 1.067640698158e-02 0.0 
7.946760571890e-03 2.389896907968e-02 0.0 
3.210890796403e-03 5.270553345383e-03 0.0 
4.236204061812e-04 3.257820979878e-02 0.0 
9.220347087620e-03 1.378741551904e-02 0.0 
6.816590061943e-03 1.663474380134e-02 0.0 
5.641479331139e-03 1.520258935949e-01 0.0 
9.683545423712e-03 2.461776550229e-02 0.0 
1.198588695899e-04 6.361590486390e-02 0.0 
1.132389142624e-03 7.055833475099e-02 0.0 
1.529417452844e-04 1.292165317773e-02 0.0 
5.252562895450e-04 7.429103625037e-02 0.0 
9.607689360749e-04 1.519473142623e-01 0.0 
1.600005956892e-05 5.586681168111e-03 0.0 
8.332343533355e-04 7.225511376024e-02 0.0 
2.055932056891e-03 1.279703509031e-01 0.0 
1.051471810605e-02 1.907513385674e-02 0.0 
6.248800883291e-05 5.059262623259e-02 0.0 
1.214570529164e-03 5.583583923817e-02 0.0 
-8.059936058924e-04 4.792388415746e-02 0.0 
-3.625963657470e-04 2.462048738760e-02 0.0 
1.681031488808e-03 1.008629271730e-01 0.0 
8.650031082936e-03 1.340228876203e-02 0.0 
6.277454788410e-03 2.359267084252e-02 0.0 
4.304766115681e-03 1.115279352737e-01 0.0 
8.348612992524e-03 5.438538791650e-02 0.0 
1.442691346006e-02 2.655738895146e-02 0.0 
2.252774695268e-04 5.537879514713e-02 0.0 
1.531036827595e-02 2.485643075183e-02 0.0 
8.630827288545e-03 1.733888931506e-02 0.0 
-4.830619403791e-03 5.155076211206e-02 0.0 
6.816139334465e-05 4.627305566525e-02 0.0 
3.127339324346e-03 6.930298967504e-02 0.0 
8.798755432649e-04 1.067889508182e-02 0.0 
1.527691325229e-04 5.394894917256e-02 0.0 

VECTORS node_bounda_dof_materi_velocity_x float
1.000000000000e+00 0.0 0.0 
1.000000000000e+00 0.0 0.0 
1.000000000000e+00 0.0 0.0 
1.000000000000e+00 0.0 0.0 
1.000000000000e+00 0.0 0.0 
1.000000000000e+00 0.0 0.0 
1.000000000000e+00 0.0 0.0 
1.000000000000e+00 0.0 0.0 
1.000000000000e+00 0.0 0.0 
1.000000000000e+00 0.0 0.0 
1.000000000000e+00 0.0 0.0 
1.000000000000e+00 0.0 0.0 
1.000000000000e+00 0.0 0.0 
1.000000000000e+00 0.0 0.0 
1.000000000000e+00 0.0 0.0 
1.000000000000e+00 0.0 0.0 
1.000000000000e+00 0.0 0.0 
1.000000000000e+00 0.0 0.0 
1.000000000000e+00 0.0 0.0 
1.000000000000e+00 0.0 0.0 
1.000000000000e+00 0.0 0.0 
1.000000000000e+00 0.0 0.0 
1.000000000000e+00 0.0 0.0 
1.000000000000e+00 0.0 0.0 
1.000000000000e+00 0.0 0.0 
1.000000000000e+00 0.0 0.0 
1.000000000000e+00 0.0 0.0 
1.000000000000e+00 0.0 0.0 
1.000000000000e+00 0.0 0.0 
1.000000000000e+00 0.0 0.0 
1.000000000000e+00 0.0 0.0 
1.000000000000e+00 0.0 0.0 
1.000000000000e+00 0.0 0.0 
1.000000000000e+00 0.0 0.0 
1.000000000000e+00 0.0 0.0 
1.000000000000e+00 0.0 0.0 
1.000000000000e+00 0.0 0.0 
1.000000000000e+00 0.0 0.0 
1.000000000000e+00 0.0 0.0 
1.000000000000e+00 0.0 0.0 
1.000000000000e+00 0.0 0.0 
1.000000000000e+00 0.0 0.0 
1.000000000000e+00 0.0 0.0 
1.000000000000e+00 0.0 0.0 
1.000000000000e+00 0.0 0.0 
1.000000000000e+00 0.0 0.0 
1.000000000000e+00 0.0 0.0 
1.000000000000e+00 0.0 0.0 
1.000000000000e+00 0.0 0.0 
1.000000000000e+00 0.0 0.0 
1.000000000000e+00 0.0 0.0 
1.000000000000e+00 0.0 0.0 
1.000000000000e+00 0.0 0.0 
1.000000000000e+00 0.0 0.0 
1.000000000000e+00 0.0 0.0 
1.000000000000e+00 0.0 0.0 
1.000000000000e+00 0.0 0.0 
1.000000000000e+00 0.0 0.0 
1.000000000000e+00 0.0 0.0 
1.000000000000e+00 0.0 0.0 
1.000000000000e+00 0.0 0.0 
1.000000000000e+00 0.0 0.0 
1.000000000000e+00 0.0 0.0 
1.000000000000e+00 0.0 0.0 
1.000000000000e+00 0.0 0.0 
1.000000000000e+00 0.0 0.0 
1.000000000000e+00 0.0 0.0 
1.000000000000e+00 0.0 0.0 
1.000000000000e+00 0.0 0.0 
1.000000000000e+00 0.0 0.0 
1.000000000000e+00 0.0 0.0 
1.000000000000e+00 0.0 0.0 
1.000000000000e+00 0.0 0.0 
1.000000000000e+00 0.0 0.0 
1.000000000000e+00 0.0 0.0 
1.000000000000e+00 0.0 0.0 
1.000000000000e+00 0.0 0.0 
1.000000000000e+00 0.0 0.0 
1.000000000000e+00 0.0 0.0 
1.000000000000e+00 0.0 0.0 
1.000000000000e+00 0.0 0.0 
0.0 0.0 0.0 
0.0 0.0 0.0 
0.0 0.0 0.0 
0.0 0.0 0.0 
0.0 0.0 0.0 
0.0 0.0 0.0 
0.0 0.0 0.0 
0.0 0.0 0.0 
0.0 0.0 0.0 
0.0 0.0 0.0 
0.0 0.0 0.0 
0.0 0.0 0.0 
0.0 0.0 0.0 
0.0 0.0 0.0 
0.0 0.0 0.0 
0.0 0.0 0.0 
0.0 0.0 0.0 
0.0 0.0 0.0 
0.0 0.0 0.0 
0.0 0.0 0.0 
0.0 0.0 0.0 
0.0 0.0 0.0 
0.0 0.0 0.0 
0.0 0.0 0.0 
0.0 0.0 0.0 
0.0 0.0 0.0 
0.0 0.0 0.0 
0.0 0.0 0.0 
0.0 0.0 0.0 
0.0 0.0 0.0 
0.0 0.0 0.0 
0.0 0.0 0.0 
0.0 0.0 0.0 
0.0 0.0 0.0 
0.0 0.0 0.0 
0.0 0.0 0.0 
0.0 0.0 0.0 
0.0 0.0 0.0 
0.0 0.0 0.0 
0.0 0.0 0.0 
0.0 0.0 0.0 
0.0 0.0 0.0 
0.0 0.0 0.0 
0.0 0.0 0.0 
0.0 0.0 0.0 
0.0 0.0 0.0 
0.0 0.0 0.0 
0.0 0.0 0.0 
0.0 0.0 0.0 
0.0 0.0 0.0 
0.0 0.0 0.0 
0.0 0.0 0.0 
0.0 0.0 0.0 
0.0 0.0 0.0 
0.0 0.0 0.0 
0.0 0.0 0.0 
0.0 0.0 0.0 
0.0 0.0 0.0 
0.0 0.0 0.0 
0.0 0.0 0.0 
0.0 0.0 0.0 
0.0 0.0 0.0 
0.0 0.0 0.0 
0.0 0.0 0.0 
0.0 0.0 0.0 
0.0 0.0 0.0 
0.0 0.0 0.0 
0.0 0.0 0.0 
0.0 0.0 0.0 
0.0 0.0 0.0 
0.0 0.0 0.0 
0.0 0.0 0.0 
0.0 0.0 0.0 
0.0 0.0 0.0 
0.0 0.0 0.0 
0.0 0.0 0.0 
0.0 0.0 0.0 
0.0 0.0 0.0 
0.0 0.0 0.0 
0.0 0.0 0.0 
0.0 0.0 0.0 
0.0 0.0 0.0 
0.0 0.0 0.0 
0.0 0.0 0.0 
0.0 0.0 0.0 
0.0 0.0 0.0 
0.0 0.0 0.0 
0.0 0.0 0.0 
0.0 0.0 0.0 
0.0 0.0 0.0 
0.0 0.0 0.0 
0.0 0.0 0.0 
0.0 0.0 0.0 
0.0 0.0 0.0 
0.0 0.0 0.0 
0.0 0.0 0.0 
0.0 0.0 0.0 
0.0 0.0 0.0 
0.0 0.0 0.0 
0.0 0.0 0.0 
0.0 0.0 0.0 
0.0 0.0 0.0 
0.0 0.0 0.0 
0.0 0.0 0.0 
0.0 0.0 0.0 
0.0 0.0 0.0 
0.0 0.0 0.0 
0.0 0.0 0.0 
0.0 0.0 0.0 
0.0 0.0 0.0 
0.0 0.0 0.0 
0.0 0.0 0.0 
0.0 0.0 0.0 
0.0 0.0 0.0 
0.0 0.0 0.0 
0.0 0.0 0.0 
0.0 0.0 0.0 
0.0 0.0 0.0 
0.0 0.0 0.0 
0.0 0.0 0.0 
0.0 0.0 0.0 
0.0 0.0 0.0 
0.0 0.0 0.0 
0.0 0.0 0.0 
0.0 0.0 0.0 
0.0 0.0 0.0 
0.0 0.0 0.0 
0.0 0.0 0.0 
0.0 0.0 0.0 
0.0 0.0 0.0 
0.0 0.0 0.0 
0.0 0.0 0.0 
0.0 0.0 0.0 
0.0 0.0 0.0 
0.0 0.0 0.0 
0.0 0.0 0.0 
0.0 0.0 0.0 
0.0 0.0 0.0 
0.0 0.0 0.0 
0.0 0.0 0.0 
0.0 0.0 0.0 
0.0 0.0 0.0 
0.0 0.0 0.0 
0.0 0.0 0.0 
0.0 0.0 0.0 
0.0 0.0 0.0 
0.0 0.0 0.0 
0.0 0.0 0.0 
0.0 0.0 0.0 
0.0 0.0 0.0 
0.0 0.0 0.0 
0.0 0.0 0.0 
0.0 0.0 0.0 
0.0 0.0 0.0 
0.0 0.0 0.0 
0.0 0.0 0.0 
0.0 0.0 0.0 
0.0 0.0 0.0 
0.0 0.0 0.0 
0.0 0.0 0.0 
0.0 0.0 0.0 
0.0 0.0 0.0 
0.0 0.0 0.0 
0.0 0.0 0.0 
0.0 0.0 0.0 
0.0 0.0 0.0 
0.0 0.0 0.0 
0.0 0.0 0.0 
0.0 0.0 0.0 
0.0 0.0 0.0 
0.0 0.0 0.0 
0.0 0.0 0.0 
0.0 0.0 0.0 
0.0 0.0 0.0 
0.0 0.0 0.0 
0.0 0.0 0.0 
0.0 0.0 0.0 
0.0 0.0 0.0 
0.0 0.0 0.0 
0.0 0.0 0.0 
0.0 0.0 0.0 
0.0 0.0 0.0 
0.0 0.0 0.0 
0.0 0.0 0.0 
0.0 0.0 0.0 
0.0 0.0 0.0 
0.0 0.0 0.0 
0.0 0.0 0.0 
0.0 0.0 0.0 
0.0 0.0 0.0 
0.0 0.0 0.0 
0.0 0.0 0.0 
0.0 0.0 0.0 
0.0 0.0 0.0 
0.0 0.0 0.0 
0.0 0.0 0.0 
0.0 0.0 0.0 
0.0 0.0 0.0 
0.0 0.0 0.0 
0.0 0.0 0.0 
0.0 0.0 0.0 
0.0 0.0 0.0 
0.0 0.0 0.0 
0.0 0.0 0.0 
0.0 0.0 0.0 
0.0 0.0 0.0 
0.0 0.0 0.0 
0.0 0.0 0.0 
0.0 0.0 0.0 
0.0 0.0 0.0 
0.0 0.0 0.0 
0.0 0.0 0.0 
0.0 0.0 0.0 
0.0 0.0 0.0 
0.0 0.0 0.0 
0.0 0.0 0.0 
0.0 0.0 0.0 
0.0 0.0 0.0 
0.0 0.0 0.0 
0.0 0.0 0.0 
0.0 0.0 0.0 
0.0 0.0 0.0 
0.0 0.0 0.0 
0.0 0.0 0.0 
0.0 0.0 0.0 
0.0 0.0 0.0 
0.0 0.0 0.0 
0.0 0.0 0.0 
0.0 0.0 0.0 
0.0 0.0 0.0 
0.0 0.0 0.0 
0.0 0.0 0.0 
0.0 0.0 0.0 
0.0 0.0 0.0 
0.0 0.0 0.0 
0.0 0.0 0.0 
0.0 0.0 0.0 
0.0 0.0 0.0 
0.0 0.0 0.0 
0.0 0.0 0.0 
0.0 0.0 0.0 
0.0 0.0 0.0 
0.0 0.0 0.0 
0.0 0.0 0.0 
0.0 0.0 0.0 
0.0 0.0 0.0 
0.0 0.0 0.0 
0.0 0.0 0.0 
0.0 0.0 0.0 
0.0 0.0 0.0 
0.0 0.0 0.0 
0.0 0.0 0.0 
0.0 0.0 0.0 
0.0 0.0 0.0 
0.0 0.0 0.0 
0.0 0.0 0.0 
0.0 0.0 0.0 
0.0 0.0 0.0 
0.0 0.0 0.0 
0.0 0.0 0.0 
0.0 0.0 0.0 
0.0 0.0 0.0 
0.0 0.0 0.0 
0.0 0.0 0.0 
0.0 0.0 0.0 
0.0 0.0 0.0 
0.0 0.0 0.0 
0.0 0.0 0.0 
0.0 0.0 0.0 
0.0 0.0 0.0 
0.0 0.0 0.0 
0.0 0.0 0.0 
0.0 0.0 0.0 
0.0 0.0 0.0 
0.0 0.0 0.0 
0.0 0.0 0.0 
0.0 0.0 0.0 
0.0 0.0 0.0 
0.0 0.0 0.0 
0.0 0.0 0.0 
0.0 0.0 0.0 
0.0 0.0 0.0 
0.0 0.0 0.0 
0.0 0.0 0.0 
0.0 0.0 0.0 
0.0 0.0 0.0 
0.0 0.0 0.0 
0.0 0.0 0.0 
0.0 0.0 0.0 
0.0 0.0 0.0 
0.0 0.0 0.0 
0.0 0.0 0.0 
0.0 0.0 0.0 
0.0 0.0 0.0 
0.0 0.0 0.0 
0.0 0.0 0.0 
0.0 0.0 0.0 
0.0 0.0 0.0 
0.0 0.0 0.0 
0.0 0.0 0.0 
0.0 0.0 0.0 
0.0 0.0 0.0 
0.0 0.0 0.0 
0.0 0.0 0.0 
0.0 0.0 0.0 
0.0 0.0 0.0 
0.0 0.0 0.0 
0.0 0.0 0.0 
0.0 0.0 0.0 
0.0 0.0 0.0 
0.0 0.0 0.0 
0.0 0.0 0.0 
0.0 0.0 0.0 
0.0 0.0 0.0 
0.0 0.0 0.0 
0.0 0.0 0.0 
0.0 0.0 0.0 
0.0 0.0 0.0 
0.0 0.0 0.0 
0.0 0.0 0.0 
0.0 0.0 0.0 
0.0 0.0 0.0 
0.0 0.0 0.0 
0.0 0.0 0.0 
0.0 0.0 0.0 
0.0 0.0 0.0 
0.0 0.0 0.0 
0.0 0.0 0.0 
0.0 0.0 0.0 
0.0 0.0 0.0 
0.0 0.0 0.0 
0.0 0.0 0.0 
0.0 0.0 0.0 
0.0 0.0 0.0 
0.0 0.0 0.0 
0.0 0.0 0.0 
0.0 0.0 0.0 
0.0 0.0 0.0 
0.0 0.0 0.0 
0.0 0.0 0.0 
0.0 0.0 0.0 
0.0 0.0 0.0 
0.0 0.0 0.0 
0.0 0.0 0.0 
0.0 0.0 0.0 
0.0 0.0 0.0 
0.0 0.0 0.0 
0.0 0.0 0.0 
0.0 0.0 0.0 
0.0 0.0 0.0 
0.0 0.0 0.0 
0.0 0.0 0.0 
0.0 0.0 0.0 
0.0 0.0 0.0 
0.0 0.0 0.0 
0.0 0.0 0.0 
0.0 0.0 0.0 
0.0 0.0 0.0 
0.0 0.0 0.0 
0.0 0.0 0.0 
0.0 0.0 0.0 
0.0 0.0 0.0 
0.0 0.0 0.0 
0.0 0.0 0.0 
0.0 0.0 0.0 
0.0 0.0 0.0 
0.0 0.0 0.0 
0.0 0.0 0.0 
0.0 0.0 0.0 
0.0 0.0 0.0 
0.0 0.0 0.0 
0.0 0.0 0.0 
0.0 0.0 0.0 
0.0 0.0 0.0 
0.0 0.0 0.0 
0.0 0.0 0.0 
0.0 0.0 0.0 
0.0 0.0 0.0 
0.0 0.0 0.0 
0.0 0.0 0.0 
0.0 0.0 0.0 
0.0 0.0 0.0 
0.0 0.0 0.0 
0.0 0.0 0.0 
0.0 0.0 0.0 
0.0 0.0 0.0 
0.0 0.0 0.0 
0.0 0.0 0.0 
0.0 0.0 0.0 
0.0 0.0 0.0 
0.0 0.0 0.0 
0.0 0.0 0.0 
0.0 0.0 0.0 
0.0 0.0 0.0 
0.0 0.0 0.0 
0.0 0.0 0.0 
0.0 0.0 0.0 
0.0 0.0 0.0 
0.0 0.0 0.0 
0.0 0.0 0.0 
0.0 0.0 0.0 
0.0 0.0 0.0 
0.0 0.0 0.0 
0.0 0.0 0.0 
0.0 0.0 0.0 
0.0 0.0 0.0 
0.0 0.0 0.0 
0.0 0.0 0.0 
0.0 0.0 0.0 
0.0 0.0 0.0 
0.0 0.0 0.0 
0.0 0.0 0.0 
0.0 0.0 0.0 
0.0 0.0 0.0 
0.0 0.0 0.0 
0.0 0.0 0.0 
0.0 0.0 0.0 
0.0 0.0 0.0 
0.0 0.0 0.0 
0.0 0.0 0.0 
0.0 0.0 0.0 
0.0 0.0 0.0 
0.0 0.0 0.0 
0.0 0.0 0.0 
0.0 0.0 0.0 
0.0 0.0 0.0 
0.0 0.0 0.0 
0.0 0.0 0.0 
0.0 0.0 0.0 
0.0 0.0 0.0 
0.0 0.0 0.0 
0.0 0.0 0.0 
0.0 0.0 0.0 
0.0 0.0 0.0 
0.0 0.0 0.0 
0.0 0.0 0.0 
0.0 0.0 0.0 
0.0 0.0 0.0 
0.0 0.0 0.0 
0.0 0.0 0.0 
0.0 0.0 0.0 
0.0 0.0 0.0 
0.0 0.0 0.0 
0.0 0.0 0.0 
0.0 0.0 0.0 
0.0 0.0 0.0 
0.0 0.0 0.0 
0.0 0.0 0.0 
0.0 0.0 0.0 
0.0 0.0 0.0 
0.0 0.0 0.0 
0.0 0.0 0.0 
0.0 0.0 0.0 
0.0 0.0 0.0 
0.0 0.0 0.0 
0.0 0.0 0.0 
0.0 0.0 0.0 
0.0 0.0 0.0 
0.0 0.0 0.0 
0.0 0.0 0.0 
0.0 0.0 0.0 
0.0 0.0 0.0 
0.0 0.0 0.0 
0.0 0.0 0.0 
0.0 0.0 0.0 
0.0 0.0 0.0 
0.0 0.0 0.0 
0.0 0.0 0.0 
0.0 0.0 0.0 
0.0 0.0 0.0 
0.0 0.0 0.0 
0.0 0.0 0.0 
0.0 0.0 0.0 
0.0 0.0 0.0 
0.0 0.0 0.0 
0.0 0.0 0.0 
0.0 0.0 0.0 
0.0 0.0 0.0 
0.0 0.0 0.0 
0.0 0.0 0.0 
0.0 0.0 0.0 
0.0 0.0 0.0 
0.0 0.0 0.0 
0.0 0.0 0.0 
0.0 0.0 0.0 
0.0 0.0 0.0 
0.0 0.0 0.0 
0.0 0.0 0.0 
0.0 0.0 0.0 
0.0 0.0 0.0 
0.0 0.0 0.0 
0.0 0.0 0.0 
0.0 0.0 0.0 
0.0 0.0 0.0 
0.0 0.0 0.0 
0.0 0.0 0.0 
0.0 0.0 0.0 
0.0 0.0 0.0 
0.0 0.0 0.0 
0.0 0.0 0.0 
0.0 0.0 0.0 
0.0 0.0 0.0 
0.0 0.0 0.0 
0.0 0.0 0.0 
0.0 0.0 0.0 
0.0 0.0 0.0 
0.0 0.0 0.0 
0.0 0.0 0.0 
0.0 0.0 0.0 
0.0 0.0 0.0 
0.0 0.0 0.0 
0.0 0.0 0.0 
0.0 0.0 0.0 
0.0 0.0 0.0 
0.0 0.0 0.0 
0.0 0.0 0.0 
0.0 0.0 0.0 
0.0 0.0 0.0 
0.0 0.0 0.0 
0.0 0.0 0.0 
0.0 0.0 0.0 
0.0 0.0 0.0 
0.0 0.0 0.0 
0.0 0.0 0.0 
0.0 0.0 0.0 
0.0 0.0 0.0 
0.0 0.0 0.0 
0.0 0.0 0.0 
0.0 0.0 0.0 
0.0 0.0 0.0 
0.0 0.0 0.0 
0.0 0.0 0.0 
0.0 0.0 0.0 
0.0 0.0 0.0 
0.0 0.0 0.0 
0.0 0.0 0.0 
0.0 0.0 0.0 
0.0 0.0 0.0 
0.0 0.0 0.0 
0.0 0.0 0.0 
0.0 0.0 0.0 
0.0 0.0 0.0 
0.0 0.0 0.0 
0.0 0.0 0.0 
0.0 0.0 0.0 
0.0 0.0 0.0 
0.0 0.0 0.0 
0.0 0.0 0.0 
0.0 0.0 0.0 
0.0 0.0 0.0 
0.0 0.0 0.0 
0.0 0.0 0.0 
0.0 0.0 0.0 
0.0 0.0 0.0 
0.0 0.0 0.0 
0.0 0.0 0.0 
0.0 0.0 0.0 
0.0 0.0 0.0 
0.0 0.0 0.0 
0.0 0.0 0.0 
0.0 0.0 0.0 
0.0 0.0 0.0 
0.0 0.0 0.0 
0.0 0.0 0.0 
0.0 0.0 0.0 
0.0 0.0 0.0 
0.0 0.0 0.0 
0.0 0.0 0.0 
0.0 0.0 0.0 
0.0 0.0 0.0 
0.0 0.0 0.0 
0.0 0.0 0.0 
0.0 0.0 0.0 
0.0 0.0 0.0 
0.0 0.0 0.0 
0.0 0.0 0.0 
0.0 0.0 0.0 
0.0 0.0 0.0 
0.0 0.0 0.0 
0.0 0.0 0.0 
0.0 0.0 0.0 
0.0 0.0 0.0 
0.0 0.0 0.0 
0.0 0.0 0.0 
0.0 0.0 0.0 
0.0 0.0 0.0 
0.0 0.0 0.0 
0.0 0.0 0.0 
0.0 0.0 0.0 
0.0 0.0 0.0 
0.0 0.0 0.0 
0.0 0.0 0.0 
0.0 0.0 0.0 
0.0 0.0 0.0 
0.0 0.0 0.0 
0.0 0.0 0.0 
0.0 0.0 0.0 
0.0 0.0 0.0 
0.0 0.0 0.0 
0.0 0.0 0.0 
0.0 0.0 0.0 
0.0 0.0 0.0 
0.0 0.0 0.0 
0.0 0.0 0.0 
0.0 0.0 0.0 
0.0 0.0 0.0 
0.0 0.0 0.0 
0.0 0.0 0.0 
0.0 0.0 0.0 
0.0 0.0 0.0 
0.0 0.0 0.0 
0.0 0.0 0.0 
0.0 0.0 0.0 
0.0 0.0 0.0 
0.0 0.0 0.0 
0.0 0.0 0.0 
0.0 0.0 0.0 
0.0 0.0 0.0 
0.0 0.0 0.0 
0.0 0.0 0.0 
0.0 0.0 0.0 
0.0 0.0 0.0 
0.0 0.0 0.0 
0.0 0.0 0.0 
0.0 0.0 0.0 
0.0 0.0 0.0 
0.0 0.0 0.0 
0.0 0.0 0.0 
0.0 0.0 0.0 
0.0 0.0 0.0 
0.0 0.0 0.0 
0.0 0.0 0.0 
0.0 0.0 0.0 
0.0 0.0 0.0 
0.0 0.0 0.0 
0.0 0.0 0.0 
0.0 0.0 0.0 
0.0 0.0 0.0 
0.0 0.0 0.0 
0.0 0.0 0.0 
0.0 0.0 0.0 
0.0 0.0 0.0 
0.0 0.0 0.0 
0.0 0.0 0.0 
0.0 0.0 0.0 
0.0 0.0 0.0 
0.0 0.0 0.0 
0.0 0.0 0.0 
0.0 0.0 0.0 
0.0 0.0 0.0 
0.0 0.0 0.0 
0.0 0.0 0.0 
0.0 0.0 0.0 
0.0 0.0 0.0 
0.0 0.0 0.0 
0.0 0.0 0.0 
0.0 0.0 0.0 
0.0 0.0 0.0 
0.0 0.0 0.0 
0.0 0.0 0.0 
0.0 0.0 0.0 
0.0 0.0 0.0 
0.0 0.0 0.0 
0.0 0.0 0.0 
0.0 0.0 0.0 
0.0 0.0 0.0 
0.0 0.0 0.0 
0.0 0.0 0.0 
0.0 0.0 0.0 
0.0 0.0 0.0 
0.0 0.0 0.0 
0.0 0.0 0.0 
0.0 0.0 0.0 
0.0 0.0 0.0 
0.0 0.0 0.0 
0.0 0.0 0.0 
0.0 0.0 0.0 
0.0 0.0 0.0 
0.0 0.0 0.0 
0.0 0.0 0.0 
0.0 0.0 0.0 
0.0 0.0 0.0 
0.0 0.0 0.0 
0.0 0.0 0.0 
0.0 0.0 0.0 
0.0 0.0 0.0 
0.0 0.0 0.0 
0.0 0.0 0.0 
0.0 0.0 0.0 
0.0 0.0 0.0 
0.0 0.0 0.0 
0.0 0.0 0.0 
0.0 0.0 0.0 
0.0 0.0 0.0 
0.0 0.0 0.0 
0.0 0.0 0.0 
0.0 0.0 0.0 
0.0 0.0 0.0 
0.0 0.0 0.0 
0.0 0.0 0.0 
0.0 0.0 0.0 
0.0 0.0 0.0 
0.0 0.0 0.0 
0.0 0.0 0.0 
0.0 0.0 0.0 
0.0 0.0 0.0 
0.0 0.0 0.0 
0.0 0.0 0.0 
0.0 0.0 0.0 
0.0 0.0 0.0 
0.0 0.0 0.0 
0.0 0.0 0.0 
0.0 0.0 0.0 
0.0 0.0 0.0 
0.0 0.0 0.0 
0.0 0.0 0.0 
0.0 0.0 0.0 
0.0 0.0 0.0 
0.0 0.0 0.0 
0.0 0.0 0.0 
0.0 0.0 0.0 
0.0 0.0 0.0 
0.0 0.0 0.0 
0.0 0.0 0.0 
0.0 0.0 0.0 
0.0 0.0 0.0 
0.0 0.0 0.0 
0.0 0.0 0.0 
0.0 0.0 0.0 
0.0 0.0 0.0 
0.0 0.0 0.0 
0.0 0.0 0.0 
0.0 0.0 0.0 
0.0 0.0 0.0 
0.0 0.0 0.0 
0.0 0.0 0.0 
0.0 0.0 0.0 
0.0 0.0 0.0 
0.0 0.0 0.0 
0.0 0.0 0.0 
0.0 0.0 0.0 
0.0 0.0 0.0 
0.0 0.0 0.0 
0.0 0.0 0.0 
0.0 0.0 0.0 
0.0 0.0 0.0 
0.0 0.0 0.0 
0.0 0.0 0.0 
0.0 0.0 0.0 
0.0 0.0 0.0 
0.0 0.0 0.0 
0.0 0.0 0.0 
0.0 0.0 0.0 
0.0 0.0 0.0 
0.0 0.0 0.0 
0.0 0.0 0.0 
0.0 0.0 0.0 
0.0 0.0 0.0 
0.0 0.0 0.0 
0.0 0.0 0.0 
0.0 0.0 0.0 
0.0 0.0 0.0 
0.0 0.0 0.0 
0.0 0.0 0.0 
0.0 0.0 0.0 
0.0 0.0 0.0 
0.0 0.0 0.0 
0.0 0.0 0.0 
0.0 0.0 0.0 
0.0 0.0 0.0 
0.0 0.0 0.0 
0.0 0.0 0.0 
0.0 0.0 0.0 
0.0 0.0 0.0 
0.0 0.0 0.0 
0.0 0.0 0.0 
0.0 0.0 0.0 
0.0 0.0 0.0 
0.0 0.0 0.0 
0.0 0.0 0.0 
0.0 0.0 0.0 
0.0 0.0 0.0 
0.0 0.0 0.0 
0.0 0.0 0.0 
0.0 0.0 0.0 
0.0 0.0 0.0 
0.0 0.0 0.0 
0.0 0.0 0.0 
0.0 0.0 0.0 
0.0 0.0 0.0 
0.0 0.0 0.0 
0.0 0.0 0.0 
0.0 0.0 0.0 
0.0 0.0 0.0 
0.0 0.0 0.0 
0.0 0.0 0.0 
0.0 0.0 0.0 
0.0 0.0 0.0 
0.0 0.0 0.0 
0.0 0.0 0.0 
0.0 0.0 0.0 
0.0 0.0 0.0 
0.0 0.0 0.0 
0.0 0.0 0.0 
0.0 0.0 0.0 
0.0 0.0 0.0 
0.0 0.0 0.0 
0.0 0.0 0.0 
0.0 0.0 0.0 
0.0 0.0 0.0 
0.0 0.0 0.0 
0.0 0.0 0.0 
0.0 0.0 0.0 
0.0 0.0 0.0 
0.0 0.0 0.0 
0.0 0.0 0.0 
0.0 0.0 0.0 
0.0 0.0 0.0 
0.0 0.0 0.0 
0.0 0.0 0.0 
0.0 0.0 0.0 
0.0 0.0 0.0 
0.0 0.0 0.0 
0.0 0.0 0.0 
0.0 0.0 0.0 
0.0 0.0 0.0 
0.0 0.0 0.0 
0.0 0.0 0.0 
0.0 0.0 0.0 
0.0 0.0 0.0 
0.0 0.0 0.0 
0.0 0.0 0.0 
0.0 0.0 0.0 
0.0 0.0 0.0 
0.0 0.0 0.0 
0.0 0.0 0.0 
0.0 0.0 0.0 
0.0 0.0 0.0 
0.0 0.0 0.0 
0.0 0.0 0.0 
0.0 0.0 0.0 
0.0 0.0 0.0 
0.0 0.0 0.0 
0.0 0.0 0.0 
0.0 0.0 0.0 
0.0 0.0 0.0 
0.0 0.0 0.0 
0.0 0.0 0.0 
0.0 0.0 0.0 
0.0 0.0 0.0 
0.0 0.0 0.0 
0.0 0.0 0.0 
0.0 0.0 0.0 
0.0 0.0 0.0 
0.0 0.0 0.0 
0.0 0.0 0.0 
0.0 0.0 0.0 
0.0 0.0 0.0 
0.0 0.0 0.0 
0.0 0.0 0.0 
0.0 0.0 0.0 
0.0 0.0 0.0 
0.0 0.0 0.0 
0.0 0.0 0.0 
0.0 0.0 0.0 
0.0 0.0 0.0 
0.0 0.0 0.0 
0.0 0.0 0.0 
0.0 0.0 0.0 
0.0 0.0 0.0 
0.0 0.0 0.0 
0.0 0.0 0.0 
0.0 0.0 0.0 
0.0 0.0 0.0 
0.0 0.0 0.0 
0.0 0.0 0.0 
0.0 0.0 0.0 
0.0 0.0 0.0 
0.0 0.0 0.0 
0.0 0.0 0.0 
0.0 0.0 0.0 
0.0 0.0 0.0 
0.0 0.0 0.0 
0.0 0.0 0.0 
0.0 0.0 0.0 
0.0 0.0 0.0 
0.0 0.0 0.0 
0.0 0.0 0.0 
0.0 0.0 0.0 
0.0 0.0 0.0 
0.0 0.0 0.0 
0.0 0.0 0.0 
0.0 0.0 0.0 
0.0 0.0 0.0 
0.0 0.0 0.0 
0.0 0.0 0.0 
0.0 0.0 0.0 
0.0 0.0 0.0 
0.0 0.0 0.0 
0.0 0.0 0.0 
0.0 0.0 0.0 
0.0 0.0 0.0 
0.0 0.0 0.0 
0.0 0.0 0.0 
0.0 0.0 0.0 
0.0 0.0 0.0 
0.0 0.0 0.0 
0.0 0.0 0.0 
0.0 0.0 0.0 
0.0 0.0 0.0 
0.0 0.0 0.0 
0.0 0.0 0.0 
0.0 0.0 0.0 
0.0 0.0 0.0 
0.0 0.0 0.0 
0.0 0.0 0.0 
0.0 0.0 0.0 
0.0 0.0 0.0 
0.0 0.0 0.0 
0.0 0.0 0.0 
0.0 0.0 0.0 
0.0 0.0 0.0 
0.0 0.0 0.0 
0.0 0.0 0.0 
0.0 0.0 0.0 
0.0 0.0 0.0 
0.0 0.0 0.0 
0.0 0.0 0.0 
0.0 0.0 0.0 
0.0 0.0 0.0 
0.0 0.0 0.0 
0.0 0.0 0.0 
0.0 0.0 0.0 
0.0 0.0 0.0 
0.0 0.0 0.0 
0.0 0.0 0.0 
0.0 0.0 0.0 
0.0 0.0 0.0 
0.0 0.0 0.0 
0.0 0.0 0.0 
0.0 0.0 0.0 
0.0 0.0 0.0 
0.0 0.0 0.0 
0.0 0.0 0.0 
0.0 0.0 0.0 
0.0 0.0 0.0 
0.0 0.0 0.0 

VECTORS node_bounda_dof_materi_velocity_y float
0.0 0.0 0.0 
0.0 0.0 0.0 
0.0 1.000000000000e+00 0.0 
0.0 1.000000000000e+00 0.0 
0.0 0.0 0.0 
0.0 0.0 0.0 
0.0 0.0 0.0 
0.0 0.0 0.0 
0.0 0.0 0.0 
0.0 0.0 0.0 
0.0 0.0 0.0 
0.0 0.0 0.0 
0.0 0.0 0.0 
0.0 0.0 0.0 
0.0 0.0 0.0 
0.0 0.0 0.0 
0.0 0.0 0.0 
0.0 0.0 0.0 
0.0 0.0 0.0 
0.0 0.0 0.0 
0.0 0.0 0.0 
0.0 0.0 0.0 
0.0 0.0 0.0 
0.0 1.000000000000e+00 0.0 
0.0 1.000000000000e+00 0.0 
0.0 1.000000000000e+00 0.0 
0.0 1.000000000000e+00 0.0 
0.0 1.000000000000e+00 0.0 
0.0 1.000000000000e+00 0.0 
0.0 1.000000000000e+00 0.0 
0.0 1.000000000000e+00 0.0 
0.0 1.000000000000e+00 0.0 
0.0 1.000000000000e+00 0.0 
0.0 1.000000000000e+00 0.0 
0.0 1.000000000000e+00 0.0 
0.0 1.000000000000e+00 0.0 
0.0 1.000000000000e+00 0.0 
0.0 1.000000000000e+00 0.0 
0.0 1.000000000000e+00 0.0 
0.0 1.000000000000e+00 0.0 
0.0 1.000000000000e+00 0.0 
0.0 1.000000000000e+00 0.0 
0.0 1.000000000000e+00 0.0 
0.0 1.000000000000e+00 0.0 
0.0 1.000000000000e+00 0.0 
0.0 1.000000000000e+00 0.0 
0.0 1.000000000000e+00 0.0 
0.0 1.000000000000e+00 0.0 
0.0 1.000000000000e+00 0.0 
0.0 1.000000000000e+00 0.0 
0.0 1.000000000000e+00 0.0 
0.0 1.000000000000e+00 0.0 
0.0 1.000000000000e+00 0.0 
0.0 1.000000000000e+00 0.0 
0.0 1.000000000000e+00 0.0 
0.0 1.000000000000e+00 0.0 
0.0 1.000000000000e+00 0.0 
0.0 1.000000000000e+00 0.0 
0.0 1.000000000000e+00 0.0 
0.0 1.000000000000e+00 0.0 
0.0 1.000000000000e+00 0.0 
0.0 1.000000000000e+00 0.0 
0.0 1.000000000000e+00 0.0 
0.0 1.000000000000e+00 0.0 
0.0 1.000000000000e+00 0.0 
0.0 1.000000000000e+00 0.0 
0.0 1.000000000000e+00 0.0 
0.0 1.000000000000e+00 0.0 
0.0 1.000000000000e+00 0.0 
0.0 1.000000000000e+00 0.0 
0.0 1.000000000000e+00 0.0 
0.0 1.000000000000e+00 0.0 
0.0 0.0 0.0 
0.0 0.0 0.0 
0.0 0.0 0.0 
0.0 0.0 0.0 
0.0 0.0 0.0 
0.0 0.0 0.0 
0.0 0.0 0.0 
0.0 0.0 0.0 
0.0 0.0 0.0 
0.0 0.0 0.0 
0.0 0.0 0.0 
0.0 0.0 0.0 
0.0 0.0 0.0 
0.0 0.0 0.0 
0.0 0.0 0.0 
0.0 0.0 0.0 
0.0 0.0 0.0 
0.0 0.0 0.0 
0.0 0.0 0.0 
0.0 0.0 0.0 
0.0 0.0 0.0 
0.0 0.0 0.0 
0.0 0.0 0.0 
0.0 0.0 0.0 
0.0 0.0 0.0 
0.0 0.0 0.0 
0.0 0.0 0.0 
0.0 0.0 0.0 
0.0 0.0 0.0 
0.0 0.0 0.0 
0.0 0.0 0.0 
0.0 0.0 0.0 
0.0 0.0 0.0 
0.0 0.0 0.0 
0.0 0.0 0.0 
0.0 0.0 0.0 
0.0 0.0 0.0 
0.0 0.0 0.0 
0.0 0.0 0.0 
0.0 0.0 0.0 
0.0 0.0 0.0 
0.0 0.0 0.0 
0.0 0.0 0.0 
0.0 0.0 0.0 
0.0 0.0 0.0 
0.0 0.0 0.0 
0.0 0.0 0.0 
0.0 0.0 0.0 
0.0 0.0 0.0 
0.0 0.0 0.0 
0.0 0.0 0.0 
0.0 0.0 0.0 
0.0 0.0 0.0 
0.0 0.0 0.0 
0.0 0.0 0.0 
0.0 0.0 0.0 
0.0 0.0 0.0 
0.0 0.0 0.0 
0.0 0.0 0.0 
0.0 0.0 0.0 
0.0 0.0 0.0 
0.0 0.0 0.0 
0.0 0.0 0.0 
0.0 0.0 0.0 
0.0 0.0 0.0 
0.0 0.0 0.0 
0.0 0.0 0.0 
0.0 0.0 0.0 
0.0 0.0 0.0 
0.0 0.0 0.0 
0.0 0.0 0.0 
0.0 0.0 0.0 
0.0 0.0 0.0 
0.0 0.0 0.0 
0.0 0.0 0.0 
0.0 0.0 0.0 
0.0 0.0 0.0 
0.0 0.0 0.0 
0.0 0.0 0.0 
0.0 0.0 0.0 
0.0 0.0 0.0 
0.0 0.0 0.0 
0.0 0.0 0.0 
0.0 0.0 0.0 
0.0 0.0 0.0 
0.0 0.0 0.0 
0.0 0.0 0.0 
0.0 0.0 0.0 
0.0 0.0 0.0 
0.0 0.0 0.0 
0.0 0.0 0.0 
0.0 0.0 0.0 
0.0 0.0 0.0 
0.0 0.0 0.0 
0.0 0.0 0.0 
0.0 0.0 0.0 
0.0 0.0 0.0 
0.0 0.0 0.0 
0.0 0.0 0.0 
0.0 0.0 0.0 
0.0 0.0 0.0 
0.0 0.0 0.0 
0.0 0.0 0.0 
0.0 0.0 0.0 
0.0 0.0 0.0 
0.0 0.0 0.0 
0.0 0.0 0.0 
0.0 0.0 0.0 
0.0 0.0 0.0 
0.0 0.0 0.0 
0.0 0.0 0.0 
0.0 0.0 0.0 
0.0 0.0 0.0 
0.0 0.0 0.0 
0.0 0.0 0.0 
0.0 0.0 0.0 
0.0 0.0 0.0 
0.0 0.0 0.0 
0.0 0.0 0.0 
0.0 0.0 0.0 
0.0 0.0 0.0 
0.0 0.0 0.0 
0.0 0.0 0.0 
0.0 0.0 0.0 
0.0 0.0 0.0 
0.0 0.0 0.0 
0.0 0.0 0.0 
0.0 0.0 0.0 
0.0 0.0 0.0 
0.0 0.0 0.0 
0.0 0.0 0.0 
0.0 0.0 0.0 
0.0 0.0 0.0 
0.0 0.0 0.0 
0.0 0.0 0.0 
0.0 0.0 0.0 
0.0 0.0 0.0 
0.0 0.0 0.0 
0.0 0.0 0.0 
0.0 0.0 0.0 
0.0 0.0 0.0 
0.0 0.0 0.0 
0.0 0.0 0.0 
0.0 0.0 0.0 
0.0 0.0 0.0 
0.0 0.0 0.0 
0.0 0.0 0.0 
0.0 0.0 0.0 
0.0 0.0 0.0 
0.0 0.0 0.0 
0.0 0.0 0.0 
0.0 0.0 0.0 
0.0 0.0 0.0 
0.0 0.0 0.0 
0.0 0.0 0.0 
0.0 0.0 0.0 
0.0 0.0 0.0 
0.0 0.0 0.0 
0.0 0.0 0.0 
0.0 0.0 0.0 
0.0 0.0 0.0 
0.0 0.0 0.0 
0.0 0.0 0.0 
0.0 0.0 0.0 
0.0 0.0 0.0 
0.0 0.0 0.0 
0.0 0.0 0.0 
0.0 0.0 0.0 
0.0 0.0 0.0 
0.0 0.0 0.0 
0.0 0.0 0.0 
0.0 0.0 0.0 
0.0 0.0 0.0 
0.0 0.0 0.0 
0.0 0.0 0.0 
0.0 0.0 0.0 
0.0 0.0 0.0 
0.0 0.0 0.0 
0.0 0.0 0.0 
0.0 0.0 0.0 
0.0 0.0 0.0 
0.0 0.0 0.0 
0.0 0.0 0.0 
0.0 0.0 0.0 
0.0 0.0 0.0 
0.0 0.0 0.0 
0.0 0.0 0.0 
0.0 0.0 0.0 
0.0 0.0 0.0 
0.0 0.0 0.0 
0.0 0.0 0.0 
0.0 0.0 0.0 
0.0 0.0 0.0 
0.0 0.0 0.0 
0.0 0.0 0.0 
0.0 0.0 0.0 
0.0 0.0 0.0 
0.0 0.0 0.0 
0.0 0.0 0.0 
0.0 0.0 0.0 
0.0 0.0 0.0 
0.0 0.0 0.0 
0.0 0.0 0.0 
0.0 0.0 0.0 
0.0 0.0 0.0 
0.0 0.0 0.0 
0.0 0.0 0.0 
0.0 0.0 0.0 
0.0 0.0 0.0 
0.0 0.0 0.0 
0.0 0.0 0.0 
0.0 0.0 0.0 
0.0 0.0 0.0 
0.0 0.0 0.0 
0.0 0.0 0.0 
0.0 0.0 0.0 
0.0 0.0 0.0 
0.0 0.0 0.0 
0.0 0.0 0.0 
0.0 0.0 0.0 
0.0 0.0 0.0 
0.0 0.0 0.0 
0.0 0.0 0.0 
0.0 0.0 0.0 
0.0 0.0 0.0 
0.0 0.0 0.0 
0.0 0.0 0.0 
0.0 0.0 0.0 
0.0 0.0 0.0 
0.0 0.0 0.0 
0.0 0.0 0.0 
0.0 0.0 0.0 
0.0 0.0 0.0 
0.0 0.0 0.0 
0.0 0.0 0.0 
0.0 0.0 0.0 
0.0 0.0 0.0 
0.0 0.0 0.0 
0.0 0.0 0.0 
0.0 0.0 0.0 
0.0 0.0 0.0 
0.0 0.0 0.0 
0.0 0.0 0.0 
0.0 0.0 0.0 
0.0 0.0 0.0 
0.0 0.0 0.0 
0.0 0.0 0.0 
0.0 0.0 0.0 
0.0 0.0 0.0 
0.0 0.0 0.0 
0.0 0.0 0.0 
0.0 0.0 0.0 
0.0 0.0 0.0 
0.0 0.0 0.0 
0.0 0.0 0.0 
0.0 0.0 0.0 
0.0 0.0 0.0 
0.0 0.0 0.0 
0.0 0.0 0.0 
0.0 0.0 0.0 
0.0 0.0 0.0 
0.0 0.0 0.0 
0.0 0.0 0.0 
0.0 0.0 0.0 
0.0 0.0 0.0 
0.0 0.0 0.0 
0.0 0.0 0.0 
0.0 0.0 0.0 
0.0 0.0 0.0 
0.0 0.0 0.0 
0.0 0.0 0.0 
0.0 0.0 0.0 
0.0 0.0 0.0 
0.0 0.0 0.0 
0.0 0.0 0.0 
0.0 0.0 0.0 
0.0 0.0 0.0 
0.0 0.0 0.0 
0.0 0.0 0.0 
0.0 0.0 0.0 
0.0 0.0 0.0 
0.0 0.0 0.0 
0.0 0.0 0.0 
0.0 0.0 0.0 
0.0 0.0 0.0 
0.0 0.0 0.0 
0.0 0.0 0.0 
0.0 0.0 0.0 
0.0 0.0 0.0 
0.0 0.0 0.0 
0.0 0.0 0.0 
0.0 0.0 0.0 
0.0 0.0 0.0 
0.0 0.0 0.0 
0.0 0.0 0.0 
0.0 0.0 0.0 
0.0 0.0 0.0 
0.0 0.0 0.0 
0.0 0.0 0.0 
0.0 0.0 0.0 
0.0 0.0 0.0 
0.0 0.0 0.0 
0.0 0.0 0.0 
0.0 0.0 0.0 
0.0 0.0 0.0 
0.0 0.0 0.0 
0.0 0.0 0.0 
0.0 0.0 0.0 
0.0 0.0 0.0 
0.0 0.0 0.0 
0.0 0.0 0.0 
0.0 0.0 0.0 
0.0 0.0 0.0 
0.0 0.0 0.0 
0.0 0.0 0.0 
0.0 0.0 0.0 
0.0 0.0 0.0 
0.0 0.0 0.0 
0.0 0.0 0.0 
0.0 0.0 0.0 
0.0 0.0 0.0 
0.0 0.0 0.0 
0.0 0.0 0.0 
0.0 0.0 0.0 
0.0 0.0 0.0 
0.0 0.0 0.0 
0.0 0.0 0.0 
0.0 0.0 0.0 
0.0 0.0 0.0 
0.0 0.0 0.0 
0.0 0.0 0.0 
0.0 0.0 0.0 
0.0 0.0 0.0 
0.0 0.0 0.0 
0.0 0.0 0.0 
0.0 0.0 0.0 
0.0 0.0 0.0 
0.0 0.0 0.0 
0.0 0.0 0.0 
0.0 0.0 0.0 
0.0 0.0 0.0 
0.0 0.0 0.0 
0.0 0.0 0.0 
0.0 0.0 0.0 
0.0 0.0 0.0 
0.0 0.0 0.0 
0.0 0.0 0.0 
0.0 0.0 0.0 
0.0 0.0 0.0 
0.0 0.0 0.0 
0.0 0.0 0.0 
0.0 0.0 0.0 
0.0 0.0 0.0 
0.0 0.0 0.0 
0.0 0.0 0.0 
0.0 0.0 0.0 
0.0 0.0 0.0 
0.0 0.0 0.0 
0.0 0.0 0.0 
0.0 0.0 0.0 
0.0 0.0 0.0 
0.0 0.0 0.0 
0.0 0.0 0.0 
0.0 0.0 0.0 
0.0 0.0 0.0 
0.0 0.0 0.0 
0.0 0.0 0.0 
0.0 0.0 0.0 
0.0 0.0 0.0 
0.0 0.0 0.0 
0.0 0.0 0.0 
0.0 0.0 0.0 
0.0 0.0 0.0 
0.0 0.0 0.0 
0.0 0.0 0.0 
0.0 0.0 0.0 
0.0 0.0 0.0 
0.0 0.0 0.0 
0.0 0.0 0.0 
0.0 0.0 0.0 
0.0 0.0 0.0 
0.0 0.0 0.0 
0.0 0.0 0.0 
0.0 0.0 0.0 
0.0 0.0 0.0 
0.0 0.0 0.0 
0.0 0.0 0.0 
0.0 0.0 0.0 
0.0 0.0 0.0 
0.0 0.0 0.0 
0.0 0.0 0.0 
0.0 0.0 0.0 
0.0 0.0 0.0 
0.0 0.0 0.0 
0.0 0.0 0.0 
0.0 0.0 0.0 
0.0 0.0 0.0 
0.0 0.0 0.0 
0.0 0.0 0.0 
0.0 0.0 0.0 
0.0 0.0 0.0 
0.0 0.0 0.0 
0.0 0.0 0.0 
0.0 0.0 0.0 
0.0 0.0 0.0 
0.0 0.0 0.0 
0.0 0.0 0.0 
0.0 0.0 0.0 
0.0 0.0 0.0 
0.0 0.0 0.0 
0.0 0.0 0.0 
0.0 0.0 0.0 
0.0 0.0 0.0 
0.0 0.0 0.0 
0.0 0.0 0.0 
0.0 0.0 0.0 
0.0 0.0 0.0 
0.0 0.0 0.0 
0.0 0.0 0.0 
0.0 0.0 0.0 
0.0 0.0 0.0 
0.0 0.0 0.0 
0.0 0.0 0.0 
0.0 0.0 0.0 
0.0 0.0 0.0 
0.0 0.0 0.0 
0.0 0.0 0.0 
0.0 0.0 0.0 
0.0 0.0 0.0 
0.0 0.0 0.0 
0.0 0.0 0.0 
0.0 0.0 0.0 
0.0 0.0 0.0 
0.0 0.0 0.0 
0.0 0.0 0.0 
0.0 0.0 0.0 
0.0 0.0 0.0 
0.0 0.0 0.0 
0.0 0.0 0.0 
0.0 0.0 0.0 
0.0 0.0 0.0 
0.0 0.0 0.0 
0.0 0.0 0.0 
0.0 0.0 0.0 
0.0 0.0 0.0 
0.0 0.0 0.0 
0.0 0.0 0.0 
0.0 0.0 0.0 
0.0 0.0 0.0 
0.0 0.0 0.0 
0.0 0.0 0.0 
0.0 0.0 0.0 
0.0 0.0 0.0 
0.0 0.0 0.0 
0.0 0.0 0.0 
0.0 0.0 0.0 
0.0 0.0 0.0 
0.0 0.0 0.0 
0.0 0.0 0.0 
0.0 0.0 0.0 
0.0 0.0 0.0 
0.0 0.0 0.0 
0.0 0.0 0.0 
0.0 0.0 0.0 
0.0 0.0 0.0 
0.0 0.0 0.0 
0.0 0.0 0.0 
0.0 0.0 0.0 
0.0 0.0 0.0 
0.0 0.0 0.0 
0.0 0.0 0.0 
0.0 0.0 0.0 
0.0 0.0 0.0 
0.0 0.0 0.0 
0.0 0.0 0.0 
0.0 0.0 0.0 
0.0 0.0 0.0 
0.0 0.0 0.0 
0.0 0.0 0.0 
0.0 0.0 0.0 
0.0 0.0 0.0 
0.0 0.0 0.0 
0.0 0.0 0.0 
0.0 0.0 0.0 
0.0 0.0 0.0 
0.0 0.0 0.0 
0.0 0.0 0.0 
0.0 0.0 0.0 
0.0 0.0 0.0 
0.0 0.0 0.0 
0.0 0.0 0.0 
0.0 0.0 0.0 
0.0 0.0 0.0 
0.0 0.0 0.0 
0.0 0.0 0.0 
0.0 0.0 0.0 
0.0 0.0 0.0 
0.0 0.0 0.0 
0.0 0.0 0.0 
0.0 0.0 0.0 
0.0 0.0 0.0 
0.0 0.0 0.0 
0.0 0.0 0.0 
0.0 0.0 0.0 
0.0 0.0 0.0 
0.0 0.0 0.0 
0.0 0.0 0.0 
0.0 0.0 0.0 
0.0 0.0 0.0 
0.0 0.0 0.0 
0.0 0.0 0.0 
0.0 0.0 0.0 
0.0 0.0 0.0 
0.0 0.0 0.0 
0.0 0.0 0.0 
0.0 0.0 0.0 
0.0 0.0 0.0 
0.0 0.0 0.0 
0.0 0.0 0.0 
0.0 0.0 0.0 
0.0 0.0 0.0 
0.0 0.0 0.0 
0.0 0.0 0.0 
0.0 0.0 0.0 
0.0 0.0 0.0 
0.0 0.0 0.0 
0.0 0.0 0.0 
0.0 0.0 0.0 
0.0 0.0 0.0 
0.0 0.0 0.0 
0.0 0.0 0.0 
0.0 0.0 0.0 
0.0 0.0 0.0 
0.0 0.0 0.0 
0.0 0.0 0.0 
0.0 0.0 0.0 
0.0 0.0 0.0 
0.0 0.0 0.0 
0.0 0.0 0.0 
0.0 0.0 0.0 
0.0 0.0 0.0 
0.0 0.0 0.0 
0.0 0.0 0.0 
0.0 0.0 0.0 
0.0 0.0 0.0 
0.0 0.0 0.0 
0.0 0.0 0.0 
0.0 0.0 0.0 
0.0 0.0 0.0 
0.0 0.0 0.0 
0.0 0.0 0.0 
0.0 0.0 0.0 
0.0 0.0 0.0 
0.0 0.0 0.0 
0.0 0.0 0.0 
0.0 0.0 0.0 
0.0 0.0 0.0 
0.0 0.0 0.0 
0.0 0.0 0.0 
0.0 0.0 0.0 
0.0 0.0 0.0 
0.0 0.0 0.0 
0.0 0.0 0.0 
0.0 0.0 0.0 
0.0 0.0 0.0 
0.0 0.0 0.0 
0.0 0.0 0.0 
0.0 0.0 0.0 
0.0 0.0 0.0 
0.0 0.0 0.0 
0.0 0.0 0.0 
0.0 0.0 0.0 
0.0 0.0 0.0 
0.0 0.0 0.0 
0.0 0.0 0.0 
0.0 0.0 0.0 
0.0 0.0 0.0 
0.0 0.0 0.0 
0.0 0.0 0.0 
0.0 0.0 0.0 
0.0 0.0 0.0 
0.0 0.0 0.0 
0.0 0.0 0.0 
0.0 0.0 0.0 
0.0 0.0 0.0 
0.0 0.0 0.0 
0.0 0.0 0.0 
0.0 0.0 0.0 
0.0 0.0 0.0 
0.0 0.0 0.0 
0.0 0.0 0.0 
0.0 0.0 0.0 
0.0 0.0 0.0 
0.0 0.0 0.0 
0.0 0.0 0.0 
0.0 0.0 0.0 
0.0 0.0 0.0 
0.0 0.0 0.0 
0.0 0.0 0.0 
0.0 0.0 0.0 
0.0 0.0 0.0 
0.0 0.0 0.0 
0.0 0.0 0.0 
0.0 0.0 0.0 
0.0 0.0 0.0 
0.0 0.0 0.0 
0.0 0.0 0.0 
0.0 0.0 0.0 
0.0 0.0 0.0 
0.0 0.0 0.0 
0.0 0.0 0.0 
0.0 0.0 0.0 
0.0 0.0 0.0 
0.0 0.0 0.0 
0.0 0.0 0.0 
0.0 0.0 0.0 
0.0 0.0 0.0 
0.0 0.0 0.0 
0.0 0.0 0.0 
0.0 0.0 0.0 
0.0 0.0 0.0 
0.0 0.0 0.0 
0.0 0.0 0.0 
0.0 0.0 0.0 
0.0 0.0 0.0 
0.0 0.0 0.0 
0.0 0.0 0.0 
0.0 0.0 0.0 
0.0 0.0 0.0 
0.0 0.0 0.0 
0.0 0.0 0.0 
0.0 0.0 0.0 
0.0 0.0 0.0 
0.0 0.0 0.0 
0.0 0.0 0.0 
0.0 0.0 0.0 
0.0 0.0 0.0 
0.0 0.0 0.0 
0.0 0.0 0.0 
0.0 0.0 0.0 
0.0 0.0 0.0 
0.0 0.0 0.0 
0.0 0.0 0.0 
0.0 0.0 0.0 
0.0 0.0 0.0 
0.0 0.0 0.0 
0.0 0.0 0.0 
0.0 0.0 0.0 
0.0 0.0 0.0 
0.0 0.0 0.0 
0.0 0.0 0.0 
0.0 0.0 0.0 
0.0 0.0 0.0 
0.0 0.0 0.0 
0.0 0.0 0.0 
0.0 0.0 0.0 
0.0 0.0 0.0 
0.0 0.0 0.0 
0.0 0.0 0.0 
0.0 0.0 0.0 
0.0 0.0 0.0 
0.0 0.0 0.0 
0.0 0.0 0.0 
0.0 0.0 0.0 
0.0 0.0 0.0 
0.0 0.0 0.0 
0.0 0.0 0.0 
0.0 0.0 0.0 
0.0 0.0 0.0 
0.0 0.0 0.0 
0.0 0.0 0.0 
0.0 0.0 0.0 
0.0 0.0 0.0 
0.0 0.0 0.0 
0.0 0.0 0.0 
0.0 0.0 0.0 
0.0 0.0 0.0 
0.0 0.0 0.0 
0.0 0.0 0.0 
0.0 0.0 0.0 
0.0 0.0 0.0 
0.0 0.0 0.0 
0.0 0.0 0.0 
0.0 0.0 0.0 
0.0 0.0 0.0 
0.0 0.0 0.0 
0.0 0.0 0.0 
0.0 0.0 0.0 
0.0 0.0 0.0 
0.0 0.0 0.0 
0.0 0.0 0.0 
0.0 0.0 0.0 
0.0 0.0 0.0 
0.0 0.0 0.0 
0.0 0.0 0.0 
0.0 0.0 0.0 
0.0 0.0 0.0 
0.0 0.0 0.0 
0.0 0.0 0.0 
0.0 0.0 0.0 
0.0 0.0 0.0 
0.0 0.0 0.0 
0.0 0.0 0.0 
0.0 0.0 0.0 
0.0 0.0 0.0 
0.0 0.0 0.0 
0.0 0.0 0.0 
0.0 0.0 0.0 
0.0 0.0 0.0 
0.0 0.0 0.0 
0.0 0.0 0.0 
0.0 0.0 0.0 
0.0 0.0 0.0 
0.0 0.0 0.0 
0.0 0.0 0.0 
0.0 0.0 0.0 
0.0 0.0 0.0 
0.0 0.0 0.0 
0.0 0.0 0.0 
0.0 0.0 0.0 
0.0 0.0 0.0 
0.0 0.0 0.0 
0.0 0.0 0.0 
0.0 0.0 0.0 
0.0 0.0 0.0 
0.0 0.0 0.0 
0.0 0.0 0.0 
0.0 0.0 0.0 
0.0 0.0 0.0 
0.0 0.0 0.0 
0.0 0.0 0.0 
0.0 0.0 0.0 
0.0 0.0 0.0 
0.0 0.0 0.0 
0.0 0.0 0.0 
0.0 0.0 0.0 
0.0 0.0 0.0 
0.0 0.0 0.0 
0.0 0.0 0.0 
0.0 0.0 0.0 
0.0 0.0 0.0 
0.0 0.0 0.0 
0.0 0.0 0.0 
0.0 0.0 0.0 
0.0 0.0 0.0 
0.0 0.0 0.0 
0.0 0.0 0.0 
0.0 0.0 0.0 
0.0 0.0 0.0 
0.0 0.0 0.0 
0.0 0.0 0.0 
0.0 0.0 0.0 
0.0 0.0 0.0 
0.0 0.0 0.0 
0.0 0.0 0.0 
0.0 0.0 0.0 
0.0 0.0 0.0 
0.0 0.0 0.0 
0.0 0.0 0.0 
0.0 0.0 0.0 
0.0 0.0 0.0 
0.0 0.0 0.0 
0.0 0.0 0.0 
0.0 0.0 0.0 
0.0 0.0 0.0 
0.0 0.0 0.0 
0.0 0.0 0.0 
0.0 0.0 0.0 
0.0 0.0 0.0 
0.0 0.0 0.0 
0.0 0.0 0.0 
0.0 0.0 0.0 
0.0 0.0 0.0 
0.0 0.0 0.0 
0.0 0.0 0.0 
0.0 0.0 0.0 
0.0 0.0 0.0 
0.0 0.0 0.0 
0.0 0.0 0.0 
0.0 0.0 0.0 
0.0 0.0 0.0 
0.0 0.0 0.0 
0.0 0.0 0.0 
0.0 0.0 0.0 
0.0 0.0 0.0 
0.0 0.0 0.0 
0.0 0.0 0.0 
0.0 0.0 0.0 
0.0 0.0 0.0 
0.0 0.0 0.0 
0.0 0.0 0.0 
0.0 0.0 0.0 
0.0 0.0 0.0 
0.0 0.0 0.0 
0.0 0.0 0.0 
0.0 0.0 0.0 
0.0 0.0 0.0 
0.0 0.0 0.0 
0.0 0.0 0.0 
0.0 0.0 0.0 
0.0 0.0 0.0 
0.0 0.0 0.0 
0.0 0.0 0.0 
0.0 0.0 0.0 
0.0 0.0 0.0 
0.0 0.0 0.0 
0.0 0.0 0.0 
0.0 0.0 0.0 
0.0 0.0 0.0 
0.0 0.0 0.0 
0.0 0.0 0.0 
0.0 0.0 0.0 
0.0 0.0 0.0 
0.0 0.0 0.0 
0.0 0.0 0.0 
0.0 0.0 0.0 
0.0 0.0 0.0 
0.0 0.0 0.0 
0.0 0.0 0.0 
0.0 0.0 0.0 
0.0 0.0 0.0 
0.0 0.0 0.0 
0.0 0.0 0.0 
0.0 0.0 0.0 
0.0 0.0 0.0 
0.0 0.0 0.0 
0.0 0.0 0.0 
0.0 0.0 0.0 
0.0 0.0 0.0 
0.0 0.0 0.0 
0.0 0.0 0.0 
0.0 0.0 0.0 
0.0 0.0 0.0 
0.0 0.0 0.0 
0.0 0.0 0.0 
0.0 0.0 0.0 
0.0 0.0 0.0 
0.0 0.0 0.0 
0.0 0.0 0.0 
0.0 0.0 0.0 
0.0 0.0 0.0 
0.0 0.0 0.0 
0.0 0.0 0.0 
0.0 0.0 0.0 
0.0 0.0 0.0 
0.0 0.0 0.0 
0.0 0.0 0.0 
0.0 0.0 0.0 
0.0 0.0 0.0 
0.0 0.0 0.0 
0.0 0.0 0.0 
0.0 0.0 0.0 
0.0 0.0 0.0 
0.0 0.0 0.0 
0.0 0.0 0.0 
0.0 0.0 0.0 
0.0 0.0 0.0 
0.0 0.0 0.0 
0.0 0.0 0.0 
0.0 0.0 0.0 
0.0 0.0 0.0 
0.0 0.0 0.0 
0.0 0.0 0.0 
0.0 0.0 0.0 
0.0 0.0 0.0 
0.0 0.0 0.0 
0.0 0.0 0.0 
0.0 0.0 0.0 
0.0 0.0 0.0 
0.0 0.0 0.0 
0.0 0.0 0.0 
0.0 0.0 0.0 
0.0 0.0 0.0 
0.0 0.0 0.0 
0.0 0.0 0.0 
0.0 0.0 0.0 
0.0 0.0 0.0 
0.0 0.0 0.0 
0.0 0.0 0.0 
0.0 0.0 0.0 
0.0 0.0 0.0 
0.0 0.0 0.0 
0.0 0.0 0.0 
0.0 0.0 0.0 
0.0 0.0 0.0 
0.0 0.0 0.0 
0.0 0.0 0.0 
0.0 0.0 0.0 
0.0 0.0 0.0 
0.0 0.0 0.0 
0.0 0.0 0.0 
0.0 0.0 0.0 
0.0 0.0 0.0 
0.0 0.0 0.0 
0.0 0.0 0.0 
0.0 0.0 0.0 
0.0 0.0 0.0 
0.0 0.0 0.0 
0.0 0.0 0.0 
0.0 0.0 0.0 
0.0 0.0 0.0 
0.0 0.0 0.0 
0.0 0.0 0.0 
0.0 0.0 0.0 
0.0 0.0 0.0 
0.0 0.0 0.0 
0.0 0.0 0.0 
0.0 0.0 0.0 
0.0 0.0 0.0 
0.0 0.0 0.0 
0.0 0.0 0.0 
0.0 0.0 0.0 
0.0 0.0 0.0 
0.0 0.0 0.0 
0.0 0.0 0.0 
0.0 0.0 0.0 
0.0 0.0 0.0 
0.0 0.0 0.0 
0.0 0.0 0.0 
0.0 0.0 0.0 
0.0 0.0 0.0 
0.0 0.0 0.0 
0.0 0.0 0.0 
0.0 0.0 0.0 
0.0 0.0 0.0 
0.0 0.0 0.0 
0.0 0.0 0.0 
0.0 0.0 0.0 
0.0 0.0 0.0 
0.0 0.0 0.0 
0.0 0.0 0.0 
0.0 0.0 0.0 
0.0 0.0 0.0 
0.0 0.0 0.0 
0.0 0.0 0.0 
0.0 0.0 0.0 
0.0 0.0 0.0 
0.0 0.0 0.0 
0.0 0.0 0.0 
0.0 0.0 0.0 
0.0 0.0 0.0 
0.0 0.0 0.0 
0.0 0.0 0.0 
0.0 0.0 0.0 
0.0 0.0 0.0 
0.0 0.0 0.0 
0.0 0.0 0.0 
0.0 0.0 0.0 
0.0 0.0 0.0 
0.0 0.0 0.0 
0.0 0.0 0.0 
0.0 0.0 0.0 
0.0 0.0 0.0 
0.0 0.0 0.0 
0.0 0.0 0.0 
0.0 0.0 0.0 

SCALARS node_boundary float
LOOKUP_TABLE default
1.000000000000e+00 
1.000000000000e+00 
1.000000000000e+00 
1.000000000000e+00 
1.000000000000e+00 
1.000000000000e+00 
1.000000000000e+00 
1.000000000000e+00 
1.000000000000e+00 
1.000000000000e+00 
1.000000000000e+00 
1.000000000000e+00 
1.000000000000e+00 
1.000000000000e+00 
1.000000000000e+00 
1.000000000000e+00 
1.000000000000e+00 
1.000000000000e+00 
1.000000000000e+00 
1.000000000000e+00 
1.000000000000e+00 
1.000000000000e+00 
1.000000000000e+00 
1.000000000000e+00 
1.000000000000e+00 
1.000000000000e+00 
1.000000000000e+00 
1.000000000000e+00 
1.000000000000e+00 
1.000000000000e+00 
1.000000000000e+00 
1.000000000000e+00 
1.000000000000e+00 
1.000000000000e+00 
1.000000000000e+00 
1.000000000000e+00 
1.000000000000e+00 
1.000000000000e+00 
1.000000000000e+00 
1.000000000000e+00 
1.000000000000e+00 
1.000000000000e+00 
1.000000000000e+00 
1.000000000000e+00 
1.000000000000e+00 
1.000000000000e+00 
1.000000000000e+00 
1.000000000000e+00 
1.000000000000e+00 
1.000000000000e+00 
1.000000000000e+00 
1.000000000000e+00 
1.000000000000e+00 
1.000000000000e+00 
1.000000000000e+00 
1.000000000000e+00 
1.000000000000e+00 
1.000000000000e+00 
1.000000000000e+00 
1.000000000000e+00 
1.000000000000e+00 
1.000000000000e+00 
1.000000000000e+00 
1.000000000000e+00 
1.000000000000e+00 
1.000000000000e+00 
1.000000000000e+00 
1.000000000000e+00 
1.000000000000e+00 
1.000000000000e+00 
1.000000000000e+00 
1.000000000000e+00 
1.000000000000e+00 
1.000000000000e+00 
1.000000000000e+00 
1.000000000000e+00 
1.000000000000e+00 
1.000000000000e+00 
1.000000000000e+00 
1.000000000000e+00 
1.000000000000e+00 
1.000000000000e+00 
1.000000000000e+00 
1.000000000000e+00 
1.000000000000e+00 
1.000000000000e+00 
1.000000000000e+00 
1.000000000000e+00 
1.000000000000e+00 
1.000000000000e+00 
1.000000000000e+00 
1.000000000000e+00 
1.000000000000e+00 
1.000000000000e+00 
1.000000000000e+00 
1.000000000000e+00 
1.000000000000e+00 
1.000000000000e+00 
1.000000000000e+00 
1.000000000000e+00 
1.000000000000e+00 
1.000000000000e+00 
1.000000000000e+00 
1.000000000000e+00 
1.000000000000e+00 
1.000000000000e+00 
1.000000000000e+00 
1.000000000000e+00 
1.000000000000e+00 
1.000000000000e+00 
1.000000000000e+00 
1.000000000000e+00 
1.000000000000e+00 
1.000000000000e+00 
1.000000000000e+00 
1.000000000000e+00 
1.000000000000e+00 
1.000000000000e+00 
1.000000000000e+00 
1.000000000000e+00 
1.000000000000e+00 
1.000000000000e+00 
1.000000000000e+00 
1.000000000000e+00 
1.000000000000e+00 
1.000000000000e+00 
1.000000000000e+00 
1.000000000000e+00 
1.000000000000e+00 
1.000000000000e+00 
1.000000000000e+00 
1.000000000000e+00 
1.000000000000e+00 
1.000000000000e+00 
1.000000000000e+00 
0.0
0.0
0.0
0.0
0.0
0.0
0.0
0.0
0.0
0.0
0.0
0.0
0.0
0.0
0.0
0.0
0.0
0.0
0.0
0.0
0.0
0.0
0.0
0.0
0.0
0.0
0.0
0.0
0.0
0.0
0.0
0.0
0.0
0.0
0.0
0.0
0.0
0.0
0.0
0.0
0.0
0.0
0.0
0.0
0.0
0.0
0.0
0.0
0.0
0.0
0.0
0.0
0.0
0.0
0.0
0.0
0.0
0.0
0.0
0.0
0.0
0.0
0.0
0.0
0.0
0.0
0.0
0.0
0.0
0.0
0.0
0.0
0.0
0.0
0.0
0.0
0.0
0.0
0.0
0.0
0.0
0.0
0.0
0.0
0.0
0.0
0.0
0.0
0.0
0.0
0.0
0.0
0.0
0.0
0.0
0.0
0.0
0.0
0.0
0.0
0.0
0.0
0.0
0.0
0.0
0.0
0.0
0.0
0.0
0.0
0.0
0.0
0.0
0.0
0.0
0.0
0.0
0.0
0.0
0.0
0.0
0.0
0.0
0.0
0.0
0.0
0.0
0.0
0.0
0.0
0.0
0.0
0.0
0.0
0.0
0.0
0.0
0.0
0.0
0.0
0.0
0.0
0.0
0.0
0.0
0.0
0.0
0.0
0.0
0.0
0.0
0.0
0.0
0.0
0.0
0.0
0.0
0.0
0.0
0.0
0.0
0.0
0.0
0.0
0.0
0.0
0.0
0.0
0.0
0.0
0.0
0.0
0.0
0.0
0.0
0.0
0.0
0.0
0.0
0.0
0.0
0.0
0.0
0.0
0.0
0.0
0.0
0.0
0.0
0.0
0.0
0.0
0.0
0.0
0.0
0.0
0.0
0.0
0.0
0.0
0.0
0.0
0.0
0.0
0.0
0.0
0.0
0.0
0.0
0.0
0.0
0.0
0.0
0.0
0.0
0.0
0.0
0.0
0.0
0.0
0.0
0.0
0.0
0.0
0.0
0.0
0.0
0.0
0.0
0.0
0.0
0.0
0.0
0.0
0.0
0.0
0.0
0.0
0.0
0.0
0.0
0.0
0.0
0.0
0.0
0.0
0.0
0.0
0.0
0.0
0.0
0.0
0.0
0.0
0.0
0.0
0.0
0.0
0.0
0.0
0.0
0.0
0.0
0.0
0.0
0.0
0.0
0.0
0.0
0.0
0.0
0.0
0.0
0.0
0.0
0.0
0.0
0.0
0.0
0.0
0.0
0.0
0.0
0.0
0.0
0.0
0.0
0.0
0.0
0.0
0.0
0.0
0.0
0.0
0.0
0.0
0.0
0.0
0.0
0.0
0.0
0.0
0.0
0.0
0.0
0.0
0.0
0.0
0.0
0.0
0.0
0.0
0.0
0.0
0.0
0.0
0.0
0.0
0.0
0.0
0.0
0.0
0.0
0.0
0.0
0.0
0.0
0.0
0.0
0.0
0.0
0.0
0.0
0.0
0.0
0.0
0.0
0.0
0.0
0.0
0.0
0.0
0.0
0.0
0.0
0.0
0.0
0.0
0.0
0.0
0.0
0.0
0.0
0.0
0.0
0.0
0.0
0.0
0.0
0.0
0.0
0.0
0.0
0.0
0.0
0.0
0.0
0.0
0.0
0.0
0.0
0.0
0.0
0.0
0.0
0.0
0.0
0.0
0.0
0.0
0.0
0.0
0.0
0.0
0.0
0.0
0.0
0.0
0.0
0.0
0.0
0.0
0.0
0.0
0.0
0.0
0.0
0.0
0.0
0.0
0.0
0.0
0.0
0.0
0.0
0.0
0.0
0.0
0.0
0.0
0.0
0.0
0.0
0.0
0.0
0.0
0.0
0.0
0.0
0.0
0.0
0.0
0.0
0.0
0.0
0.0
0.0
0.0
0.0
0.0
0.0
0.0
0.0
0.0
0.0
0.0
0.0
0.0
0.0
0.0
0.0
0.0
0.0
0.0
0.0
0.0
0.0
0.0
0.0
0.0
0.0
0.0
0.0
0.0
0.0
0.0
0.0
0.0
0.0
0.0
0.0
0.0
0.0
0.0
0.0
0.0
0.0
0.0
0.0
0.0
0.0
0.0
0.0
0.0
0.0
0.0
0.0
0.0
0.0
0.0
0.0
0.0
0.0
0.0
0.0
0.0
0.0
0.0
0.0
0.0
0.0
0.0
0.0
0.0
0.0
0.0
0.0
0.0
0.0
0.0
0.0
0.0
0.0
0.0
0.0
0.0
0.0
0.0
0.0
0.0
0.0
0.0
0.0
0.0
0.0
0.0
0.0
0.0
0.0
0.0
0.0
0.0
0.0
0.0
0.0
0.0
0.0
0.0
0.0
0.0
0.0
0.0
0.0
0.0
0.0
0.0
0.0
0.0
0.0
0.0
0.0
0.0
0.0
0.0
0.0
0.0
0.0
0.0
0.0
0.0
0.0
0.0
0.0
0.0
0.0
0.0
0.0
0.0
0.0
0.0
0.0
0.0
0.0
0.0
0.0
0.0
0.0
0.0
0.0
0.0
0.0
0.0
0.0
0.0
0.0
0.0
0.0
0.0
0.0
0.0
0.0
0.0
0.0
0.0
0.0
0.0
0.0
0.0
0.0
0.0
0.0
0.0
0.0
0.0
0.0
0.0
0.0
0.0
0.0
0.0
0.0
0.0
0.0
0.0
0.0
0.0
0.0
0.0
0.0
0.0
0.0
0.0
0.0
0.0
0.0
0.0
0.0
0.0
0.0
0.0
0.0
0.0
0.0
0.0
0.0
0.0
0.0
0.0
0.0
0.0
0.0
0.0
0.0
0.0
0.0
0.0
0.0
0.0
0.0
0.0
0.0
0.0
0.0
0.0
0.0
0.0
0.0
0.0
0.0
0.0
0.0
0.0
0.0
0.0
0.0
0.0
0.0
0.0
0.0
0.0
0.0
0.0
0.0
0.0
0.0
0.0
0.0
0.0
0.0
0.0
0.0
0.0
0.0
0.0
0.0
0.0
0.0
0.0
0.0
0.0
0.0
0.0
0.0
0.0
0.0
0.0
0.0
0.0
0.0
0.0
0.0
0.0
0.0
0.0
0.0
0.0
0.0
0.0
0.0
0.0
0.0
0.0
0.0
0.0
0.0
0.0
0.0
0.0
0.0
0.0
0.0
0.0
0.0
0.0
0.0
0.0
0.0
0.0
0.0
0.0
0.0
0.0
0.0
0.0
0.0
0.0
0.0
0.0
0.0
0.0
0.0
0.0
0.0
0.0
0.0
0.0
0.0
0.0
0.0
0.0
0.0
0.0
0.0
0.0
0.0
0.0
0.0
0.0
0.0
0.0
0.0
0.0
0.0
0.0
0.0
0.0
0.0
0.0
0.0
0.0
0.0
0.0
0.0
0.0
0.0
0.0
0.0
0.0
0.0
0.0
0.0
0.0
0.0
0.0
0.0
0.0
0.0
0.0
0.0
0.0
0.0
0.0
0.0
0.0
0.0
0.0
0.0
0.0
0.0
0.0
0.0
0.0
0.0
0.0
0.0
0.0
0.0
0.0
0.0
0.0
0.0
0.0
0.0
0.0
0.0
0.0
0.0
0.0
0.0
0.0
0.0
0.0
0.0
0.0
0.0
0.0
0.0
0.0
0.0
0.0
0.0
0.0
0.0
0.0
0.0
0.0
0.0
0.0
0.0
0.0
0.0
0.0
0.0
0.0
0.0
0.0
0.0
0.0
0.0
0.0
0.0
0.0
0.0
0.0
0.0
0.0
0.0
0.0
0.0
0.0
0.0
0.0
0.0
0.0
0.0
0.0
0.0
0.0
0.0
0.0
0.0
0.0
0.0
0.0
0.0
0.0
0.0
0.0
0.0
0.0
0.0
0.0
0.0
0.0
0.0
0.0
0.0
0.0
0.0
0.0
0.0
0.0
0.0
0.0
0.0
0.0
0.0
0.0
0.0
0.0
0.0
0.0
0.0

VECTORS node_force_edge float
0.0 0.0 0.0 
0.0 0.0 0.0 
0.0 0.0 0.0 
0.0 0.0 0.0 
0.0 0.0 0.0 
0.0 0.0 0.0 
0.0 0.0 0.0 
0.0 0.0 0.0 
0.0 0.0 0.0 
0.0 0.0 0.0 
0.0 0.0 0.0 
0.0 0.0 0.0 
0.0 0.0 0.0 
0.0 0.0 0.0 
0.0 0.0 0.0 
0.0 0.0 0.0 
0.0 0.0 0.0 
0.0 0.0 0.0 
0.0 0.0 0.0 
0.0 0.0 0.0 
0.0 0.0 0.0 
0.0 0.0 0.0 
0.0 0.0 0.0 
0.0 0.0 0.0 
0.0 0.0 0.0 
0.0 0.0 0.0 
0.0 0.0 0.0 
0.0 0.0 0.0 
0.0 0.0 0.0 
0.0 0.0 0.0 
0.0 0.0 0.0 
0.0 0.0 0.0 
0.0 0.0 0.0 
0.0 0.0 0.0 
0.0 0.0 0.0 
0.0 0.0 0.0 
0.0 0.0 0.0 
0.0 0.0 0.0 
0.0 0.0 0.0 
0.0 0.0 0.0 
0.0 0.0 0.0 
0.0 0.0 0.0 
0.0 0.0 0.0 
0.0 0.0 0.0 
0.0 0.0 0.0 
0.0 0.0 0.0 
0.0 0.0 0.0 
0.0 0.0 0.0 
0.0 0.0 0.0 
0.0 0.0 0.0 
0.0 0.0 0.0 
0.0 0.0 0.0 
0.0 0.0 0.0 
0.0 0.0 0.0 
0.0 0.0 0.0 
0.0 0.0 0.0 
0.0 0.0 0.0 
0.0 0.0 0.0 
0.0 0.0 0.0 
0.0 0.0 0.0 
0.0 0.0 0.0 
0.0 0.0 0.0 
0.0 0.0 0.0 
0.0 0.0 0.0 
0.0 0.0 0.0 
0.0 0.0 0.0 
0.0 0.0 0.0 
0.0 0.0 0.0 
0.0 0.0 0.0 
0.0 0.0 0.0 
0.0 0.0 0.0 
0.0 0.0 0.0 
0.0 0.0 0.0 
0.0 0.0 0.0 
0.0 0.0 0.0 
0.0 0.0 0.0 
0.0 0.0 0.0 
0.0 0.0 0.0 
0.0 0.0 0.0 
0.0 0.0 0.0 
0.0 0.0 0.0 
0.0 -1.000000000000e+02 0.0 
0.0 0.0 0.0 
0.0 0.0 0.0 
0.0 0.0 0.0 
0.0 0.0 0.0 
0.0 0.0 0.0 
0.0 0.0 0.0 
0.0 0.0 0.0 
0.0 0.0 0.0 
0.0 0.0 0.0 
0.0 0.0 0.0 
0.0 0.0 0.0 
0.0 0.0 0.0 
0.0 0.0 0.0 
0.0 0.0 0.0 
0.0 0.0 0.0 
0.0 0.0 0.0 
0.0 0.0 0.0 
0.0 0.0 0.0 
0.0 0.0 0.0 
0.0 0.0 0.0 
0.0 0.0 0.0 
0.0 0.0 0.0 
0.0 0.0 0.0 
0.0 0.0 0.0 
0.0 -1.000000000000e+02 0.0 
0.0 -1.000000000000e+02 0.0 
0.0 -1.000000000000e+02 0.0 
0.0 -1.000000000000e+02 0.0 
0.0 -1.000000000000e+02 0.0 
0.0 0.0 0.0 
0.0 0.0 0.0 
0.0 0.0 0.0 
0.0 0.0 0.0 
0.0 0.0 0.0 
0.0 0.0 0.0 
0.0 0.0 0.0 
0.0 0.0 0.0 
0.0 0.0 0.0 
0.0 0.0 0.0 
0.0 0.0 0.0 
0.0 0.0 0.0 
0.0 0.0 0.0 
0.0 0.0 0.0 
0.0 0.0 0.0 
0.0 0.0 0.0 
0.0 0.0 0.0 
0.0 0.0 0.0 
0.0 0.0 0.0 
0.0 0.0 0.0 
0.0 0.0 0.0 
0.0 0.0 0.0 
0.0 0.0 0.0 
0.0 0.0 0.0 
0.0 0.0 0.0 
0.0 0.0 0.0 
0.0 0.0 0.0 
0.0 0.0 0.0 
0.0 0.0 0.0 
0.0 0.0 0.0 
0.0 0.0 0.0 
0.0 0.0 0.0 
0.0 0.0 0.0 
0.0 0.0 0.0 
0.0 0.0 0.0 
0.0 0.0 0.0 
0.0 0.0 0.0 
0.0 0.0 0.0 
0.0 0.0 0.0 
0.0 0.0 0.0 
0.0 0.0 0.0 
0.0 0.0 0.0 
0.0 0.0 0.0 
0.0 0.0 0.0 
0.0 0.0 0.0 
0.0 0.0 0.0 
0.0 0.0 0.0 
0.0 0.0 0.0 
0.0 0.0 0.0 
0.0 0.0 0.0 
0.0 0.0 0.0 
0.0 0.0 0.0 
0.0 0.0 0.0 
0.0 0.0 0.0 
0.0 0.0 0.0 
0.0 0.0 0.0 
0.0 0.0 0.0 
0.0 0.0 0.0 
0.0 0.0 0.0 
0.0 0.0 0.0 
0.0 0.0 0.0 
0.0 0.0 0.0 
0.0 0.0 0.0 
0.0 0.0 0.0 
0.0 0.0 0.0 
0.0 0.0 0.0 
0.0 0.0 0.0 
0.0 0.0 0.0 
0.0 0.0 0.0 
0.0 0.0 0.0 
0.0 0.0 0.0 
0.0 0.0 0.0 
0.0 0.0 0.0 
0.0 0.0 0.0 
0.0 0.0 0.0 
0.0 0.0 0.0 
0.0 0.0 0.0 
0.0 0.0 0.0 
0.0 0.0 0.0 
0.0 0.0 0.0 
0.0 0.0 0.0 
0.0 0.0 0.0 
0.0 0.0 0.0 
0.0 0.0 0.0 
0.0 0.0 0.0 
0.0 0.0 0.0 
0.0 0.0 0.0 
0.0 0.0 0.0 
0.0 0.0 0.0 
0.0 0.0 0.0 
0.0 0.0 0.0 
0.0 0.0 0.0 
0.0 0.0 0.0 
0.0 0.0 0.0 
0.0 0.0 0.0 
0.0 0.0 0.0 
0.0 0.0 0.0 
0.0 0.0 0.0 
0.0 0.0 0.0 
0.0 0.0 0.0 
0.0 0.0 0.0 
0.0 0.0 0.0 
0.0 0.0 0.0 
0.0 0.0 0.0 
0.0 0.0 0.0 
0.0 0.0 0.0 
0.0 0.0 0.0 
0.0 0.0 0.0 
0.0 0.0 0.0 
0.0 0.0 0.0 
0.0 0.0 0.0 
0.0 0.0 0.0 
0.0 0.0 0.0 
0.0 0.0 0.0 
0.0 0.0 0.0 
0.0 0.0 0.0 
0.0 0.0 0.0 
0.0 0.0 0.0 
0.0 0.0 0.0 
0.0 0.0 0.0 
0.0 0.0 0.0 
0.0 0.0 0.0 
0.0 0.0 0.0 
0.0 0.0 0.0 
0.0 0.0 0.0 
0.0 0.0 0.0 
0.0 0.0 0.0 
0.0 0.0 0.0 
0.0 0.0 0.0 
0.0 0.0 0.0 
0.0 0.0 0.0 
0.0 0.0 0.0 
0.0 0.0 0.0 
0.0 0.0 0.0 
0.0 0.0 0.0 
0.0 0.0 0.0 
0.0 0.0 0.0 
0.0 0.0 0.0 
0.0 0.0 0.0 
0.0 0.0 0.0 
0.0 0.0 0.0 
0.0 0.0 0.0 
0.0 0.0 0.0 
0.0 0.0 0.0 
0.0 0.0 0.0 
0.0 0.0 0.0 
0.0 0.0 0.0 
0.0 0.0 0.0 
0.0 0.0 0.0 
0.0 0.0 0.0 
0.0 0.0 0.0 
0.0 0.0 0.0 
0.0 0.0 0.0 
0.0 0.0 0.0 
0.0 0.0 0.0 
0.0 0.0 0.0 
0.0 0.0 0.0 
0.0 0.0 0.0 
0.0 0.0 0.0 
0.0 0.0 0.0 
0.0 0.0 0.0 
0.0 0.0 0.0 
0.0 0.0 0.0 
0.0 0.0 0.0 
0.0 0.0 0.0 
0.0 0.0 0.0 
0.0 0.0 0.0 
0.0 0.0 0.0 
0.0 0.0 0.0 
0.0 0.0 0.0 
0.0 0.0 0.0 
0.0 0.0 0.0 
0.0 0.0 0.0 
0.0 0.0 0.0 
0.0 0.0 0.0 
0.0 0.0 0.0 
0.0 0.0 0.0 
0.0 0.0 0.0 
0.0 0.0 0.0 
0.0 0.0 0.0 
0.0 0.0 0.0 
0.0 0.0 0.0 
0.0 0.0 0.0 
0.0 0.0 0.0 
0.0 0.0 0.0 
0.0 0.0 0.0 
0.0 0.0 0.0 
0.0 0.0 0.0 
0.0 0.0 0.0 
0.0 0.0 0.0 
0.0 0.0 0.0 
0.0 0.0 0.0 
0.0 0.0 0.0 
0.0 0.0 0.0 
0.0 0.0 0.0 
0.0 0.0 0.0 
0.0 0.0 0.0 
0.0 0.0 0.0 
0.0 0.0 0.0 
0.0 0.0 0.0 
0.0 0.0 0.0 
0.0 0.0 0.0 
0.0 0.0 0.0 
0.0 0.0 0.0 
0.0 0.0 0.0 
0.0 0.0 0.0 
0.0 0.0 0.0 
0.0 0.0 0.0 
0.0 0.0 0.0 
0.0 0.0 0.0 
0.0 0.0 0.0 
0.0 0.0 0.0 
0.0 0.0 0.0 
0.0 0.0 0.0 
0.0 0.0 0.0 
0.0 0.0 0.0 
0.0 0.0 0.0 
0.0 0.0 0.0 
0.0 0.0 0.0 
0.0 0.0 0.0 
0.0 0.0 0.0 
0.0 0.0 0.0 
0.0 0.0 0.0 
0.0 0.0 0.0 
0.0 0.0 0.0 
0.0 0.0 0.0 
0.0 0.0 0.0 
0.0 0.0 0.0 
0.0 0.0 0.0 
0.0 0.0 0.0 
0.0 0.0 0.0 
0.0 0.0 0.0 
0.0 0.0 0.0 
0.0 0.0 0.0 
0.0 0.0 0.0 
0.0 0.0 0.0 
0.0 0.0 0.0 
0.0 0.0 0.0 
0.0 0.0 0.0 
0.0 0.0 0.0 
0.0 0.0 0.0 
0.0 0.0 0.0 
0.0 0.0 0.0 
0.0 0.0 0.0 
0.0 0.0 0.0 
0.0 0.0 0.0 
0.0 0.0 0.0 
0.0 0.0 0.0 
0.0 0.0 0.0 
0.0 0.0 0.0 
0.0 0.0 0.0 
0.0 0.0 0.0 
0.0 0.0 0.0 
0.0 0.0 0.0 
0.0 0.0 0.0 
0.0 0.0 0.0 
0.0 0.0 0.0 
0.0 0.0 0.0 
0.0 0.0 0.0 
0.0 0.0 0.0 
0.0 0.0 0.0 
0.0 0.0 0.0 
0.0 0.0 0.0 
0.0 0.0 0.0 
0.0 0.0 0.0 
0.0 0.0 0.0 
0.0 0.0 0.0 
0.0 0.0 0.0 
0.0 0.0 0.0 
0.0 0.0 0.0 
0.0 0.0 0.0 
0.0 0.0 0.0 
0.0 0.0 0.0 
0.0 0.0 0.0 
0.0 0.0 0.0 
0.0 0.0 0.0 
0.0 0.0 0.0 
0.0 0.0 0.0 
0.0 0.0 0.0 
0.0 0.0 0.0 
0.0 0.0 0.0 
0.0 0.0 0.0 
0.0 0.0 0.0 
0.0 0.0 0.0 
0.0 0.0 0.0 
0.0 0.0 0.0 
0.0 0.0 0.0 
0.0 0.0 0.0 
0.0 0.0 0.0 
0.0 0.0 0.0 
0.0 0.0 0.0 
0.0 0.0 0.0 
0.0 0.0 0.0 
0.0 0.0 0.0 
0.0 0.0 0.0 
0.0 0.0 0.0 
0.0 0.0 0.0 
0.0 0.0 0.0 
0.0 0.0 0.0 
0.0 0.0 0.0 
0.0 0.0 0.0 
0.0 0.0 0.0 
0.0 0.0 0.0 
0.0 0.0 0.0 
0.0 0.0 0.0 
0.0 0.0 0.0 
0.0 0.0 0.0 
0.0 0.0 0.0 
0.0 0.0 0.0 
0.0 0.0 0.0 
0.0 0.0 0.0 
0.0 0.0 0.0 
0.0 0.0 0.0 
0.0 0.0 0.0 
0.0 0.0 0.0 
0.0 0.0 0.0 
0.0 0.0 0.0 
0.0 0.0 0.0 
0.0 0.0 0.0 
0.0 0.0 0.0 
0.0 0.0 0.0 
0.0 0.0 0.0 
0.0 0.0 0.0 
0.0 0.0 0.0 
0.0 0.0 0.0 
0.0 0.0 0.0 
0.0 0.0 0.0 
0.0 0.0 0.0 
0.0 0.0 0.0 
0.0 0.0 0.0 
0.0 0.0 0.0 
0.0 0.0 0.0 
0.0 0.0 0.0 
0.0 0.0 0.0 
0.0 0.0 0.0 
0.0 0.0 0.0 
0.0 0.0 0.0 
0.0 0.0 0.0 
0.0 0.0 0.0 
0.0 0.0 0.0 
0.0 0.0 0.0 
0.0 0.0 0.0 
0.0 0.0 0.0 
0.0 0.0 0.0 
0.0 0.0 0.0 
0.0 0.0 0.0 
0.0 0.0 0.0 
0.0 0.0 0.0 
0.0 0.0 0.0 
0.0 0.0 0.0 
0.0 0.0 0.0 
0.0 0.0 0.0 
0.0 0.0 0.0 
0.0 0.0 0.0 
0.0 0.0 0.0 
0.0 0.0 0.0 
0.0 0.0 0.0 
0.0 0.0 0.0 
0.0 0.0 0.0 
0.0 0.0 0.0 
0.0 0.0 0.0 
0.0 0.0 0.0 
0.0 0.0 0.0 
0.0 0.0 0.0 
0.0 0.0 0.0 
0.0 0.0 0.0 
0.0 0.0 0.0 
0.0 0.0 0.0 
0.0 0.0 0.0 
0.0 0.0 0.0 
0.0 0.0 0.0 
0.0 0.0 0.0 
0.0 0.0 0.0 
0.0 0.0 0.0 
0.0 0.0 0.0 
0.0 0.0 0.0 
0.0 0.0 0.0 
0.0 0.0 0.0 
0.0 0.0 0.0 
0.0 0.0 0.0 
0.0 0.0 0.0 
0.0 0.0 0.0 
0.0 0.0 0.0 
0.0 0.0 0.0 
0.0 0.0 0.0 
0.0 0.0 0.0 
0.0 0.0 0.0 
0.0 0.0 0.0 
0.0 0.0 0.0 
0.0 0.0 0.0 
0.0 0.0 0.0 
0.0 0.0 0.0 
0.0 0.0 0.0 
0.0 0.0 0.0 
0.0 0.0 0.0 
0.0 0.0 0.0 
0.0 0.0 0.0 
0.0 0.0 0.0 
0.0 0.0 0.0 
0.0 0.0 0.0 
0.0 0.0 0.0 
0.0 0.0 0.0 
0.0 0.0 0.0 
0.0 0.0 0.0 
0.0 0.0 0.0 
0.0 0.0 0.0 
0.0 0.0 0.0 
0.0 0.0 0.0 
0.0 0.0 0.0 
0.0 0.0 0.0 
0.0 0.0 0.0 
0.0 0.0 0.0 
0.0 0.0 0.0 
0.0 0.0 0.0 
0.0 0.0 0.0 
0.0 0.0 0.0 
0.0 0.0 0.0 
0.0 0.0 0.0 
0.0 0.0 0.0 
0.0 0.0 0.0 
0.0 0.0 0.0 
0.0 0.0 0.0 
0.0 0.0 0.0 
0.0 0.0 0.0 
0.0 0.0 0.0 
0.0 0.0 0.0 
0.0 0.0 0.0 
0.0 0.0 0.0 
0.0 0.0 0.0 
0.0 0.0 0.0 
0.0 0.0 0.0 
0.0 0.0 0.0 
0.0 0.0 0.0 
0.0 0.0 0.0 
0.0 0.0 0.0 
0.0 0.0 0.0 
0.0 0.0 0.0 
0.0 0.0 0.0 
0.0 0.0 0.0 
0.0 0.0 0.0 
0.0 0.0 0.0 
0.0 0.0 0.0 
0.0 0.0 0.0 
0.0 0.0 0.0 
0.0 0.0 0.0 
0.0 0.0 0.0 
0.0 0.0 0.0 
0.0 0.0 0.0 
0.0 0.0 0.0 
0.0 0.0 0.0 
0.0 0.0 0.0 
0.0 0.0 0.0 
0.0 0.0 0.0 
0.0 0.0 0.0 
0.0 0.0 0.0 
0.0 0.0 0.0 
0.0 0.0 0.0 
0.0 0.0 0.0 
0.0 0.0 0.0 
0.0 0.0 0.0 
0.0 0.0 0.0 
0.0 0.0 0.0 
0.0 0.0 0.0 
0.0 0.0 0.0 
0.0 0.0 0.0 
0.0 0.0 0.0 
0.0 0.0 0.0 
0.0 0.0 0.0 
0.0 0.0 0.0 
0.0 0.0 0.0 
0.0 0.0 0.0 
0.0 0.0 0.0 
0.0 0.0 0.0 
0.0 0.0 0.0 
0.0 0.0 0.0 
0.0 0.0 0.0 
0.0 0.0 0.0 
0.0 0.0 0.0 
0.0 0.0 0.0 
0.0 0.0 0.0 
0.0 0.0 0.0 
0.0 0.0 0.0 
0.0 0.0 0.0 
0.0 0.0 0.0 
0.0 0.0 0.0 
0.0 0.0 0.0 
0.0 0.0 0.0 
0.0 0.0 0.0 
0.0 0.0 0.0 
0.0 0.0 0.0 
0.0 0.0 0.0 
0.0 0.0 0.0 
0.0 0.0 0.0 
0.0 0.0 0.0 
0.0 0.0 0.0 
0.0 0.0 0.0 
0.0 0.0 0.0 
0.0 0.0 0.0 
0.0 0.0 0.0 
0.0 0.0 0.0 
0.0 0.0 0.0 
0.0 0.0 0.0 
0.0 0.0 0.0 
0.0 0.0 0.0 
0.0 0.0 0.0 
0.0 0.0 0.0 
0.0 0.0 0.0 
0.0 0.0 0.0 
0.0 0.0 0.0 
0.0 0.0 0.0 
0.0 0.0 0.0 
0.0 0.0 0.0 
0.0 0.0 0.0 
0.0 0.0 0.0 
0.0 0.0 0.0 
0.0 0.0 0.0 
0.0 0.0 0.0 
0.0 0.0 0.0 
0.0 0.0 0.0 
0.0 0.0 0.0 
0.0 0.0 0.0 
0.0 0.0 0.0 
0.0 0.0 0.0 
0.0 0.0 0.0 
0.0 0.0 0.0 
0.0 0.0 0.0 
0.0 0.0 0.0 
0.0 0.0 0.0 
0.0 0.0 0.0 
0.0 0.0 0.0 
0.0 0.0 0.0 
0.0 0.0 0.0 
0.0 0.0 0.0 
0.0 0.0 0.0 
0.0 0.0 0.0 
0.0 0.0 0.0 
0.0 0.0 0.0 
0.0 0.0 0.0 
0.0 0.0 0.0 
0.0 0.0 0.0 
0.0 0.0 0.0 
0.0 0.0 0.0 
0.0 0.0 0.0 
0.0 0.0 0.0 
0.0 0.0 0.0 
0.0 0.0 0.0 
0.0 0.0 0.0 
0.0 0.0 0.0 
0.0 0.0 0.0 
0.0 0.0 0.0 
0.0 0.0 0.0 
0.0 0.0 0.0 
0.0 0.0 0.0 
0.0 0.0 0.0 
0.0 0.0 0.0 
0.0 0.0 0.0 
0.0 0.0 0.0 
0.0 0.0 0.0 
0.0 0.0 0.0 
0.0 0.0 0.0 
0.0 0.0 0.0 
0.0 0.0 0.0 
0.0 0.0 0.0 
0.0 0.0 0.0 
0.0 0.0 0.0 
0.0 0.0 0.0 
0.0 0.0 0.0 
0.0 0.0 0.0 
0.0 0.0 0.0 
0.0 0.0 0.0 
0.0 0.0 0.0 
0.0 0.0 0.0 
0.0 0.0 0.0 
0.0 0.0 0.0 
0.0 0.0 0.0 
0.0 0.0 0.0 
0.0 0.0 0.0 
0.0 0.0 0.0 
0.0 0.0 0.0 
0.0 0.0 0.0 
0.0 0.0 0.0 
0.0 0.0 0.0 
0.0 0.0 0.0 
0.0 0.0 0.0 
0.0 0.0 0.0 
0.0 0.0 0.0 
0.0 0.0 0.0 
0.0 0.0 0.0 
0.0 0.0 0.0 
0.0 0.0 0.0 
0.0 0.0 0.0 
0.0 0.0 0.0 
0.0 0.0 0.0 
0.0 0.0 0.0 
0.0 0.0 0.0 
0.0 0.0 0.0 
0.0 0.0 0.0 
0.0 0.0 0.0 
0.0 0.0 0.0 
0.0 0.0 0.0 
0.0 0.0 0.0 
0.0 0.0 0.0 
0.0 0.0 0.0 
0.0 0.0 0.0 
0.0 0.0 0.0 
0.0 0.0 0.0 
0.0 0.0 0.0 
0.0 0.0 0.0 
0.0 0.0 0.0 
0.0 0.0 0.0 
0.0 0.0 0.0 
0.0 0.0 0.0 
0.0 0.0 0.0 
0.0 0.0 0.0 
0.0 0.0 0.0 
0.0 0.0 0.0 
0.0 0.0 0.0 
0.0 0.0 0.0 
0.0 0.0 0.0 
0.0 0.0 0.0 
0.0 0.0 0.0 
0.0 0.0 0.0 
0.0 0.0 0.0 
0.0 0.0 0.0 
0.0 0.0 0.0 
0.0 0.0 0.0 
0.0 0.0 0.0 
0.0 0.0 0.0 
0.0 0.0 0.0 
0.0 0.0 0.0 
0.0 0.0 0.0 
0.0 0.0 0.0 
0.0 0.0 0.0 
0.0 0.0 0.0 
0.0 0.0 0.0 
0.0 0.0 0.0 
0.0 0.0 0.0 
0.0 0.0 0.0 
0.0 0.0 0.0 
0.0 0.0 0.0 
0.0 0.0 0.0 
0.0 0.0 0.0 
0.0 0.0 0.0 
0.0 0.0 0.0 
0.0 0.0 0.0 
0.0 0.0 0.0 
0.0 0.0 0.0 
0.0 0.0 0.0 
0.0 0.0 0.0 
0.0 0.0 0.0 
0.0 0.0 0.0 
0.0 0.0 0.0 
0.0 0.0 0.0 
0.0 0.0 0.0 
0.0 0.0 0.0 
0.0 0.0 0.0 
0.0 0.0 0.0 
0.0 0.0 0.0 
0.0 0.0 0.0 
0.0 0.0 0.0 
0.0 0.0 0.0 
0.0 0.0 0.0 
0.0 0.0 0.0 
0.0 0.0 0.0 
0.0 0.0 0.0 
0.0 0.0 0.0 
0.0 0.0 0.0 
0.0 0.0 0.0 
0.0 0.0 0.0 
0.0 0.0 0.0 
0.0 0.0 0.0 
0.0 0.0 0.0 
0.0 0.0 0.0 
0.0 0.0 0.0 
0.0 0.0 0.0 
0.0 0.0 0.0 
0.0 0.0 0.0 
0.0 0.0 0.0 
0.0 0.0 0.0 
0.0 0.0 0.0 
0.0 0.0 0.0 
0.0 0.0 0.0 
0.0 0.0 0.0 
0.0 0.0 0.0 
0.0 0.0 0.0 
0.0 0.0 0.0 
0.0 0.0 0.0 
0.0 0.0 0.0 
0.0 0.0 0.0 
0.0 0.0 0.0 
0.0 0.0 0.0 
0.0 0.0 0.0 
0.0 0.0 0.0 
0.0 0.0 0.0 
0.0 0.0 0.0 
0.0 0.0 0.0 
0.0 0.0 0.0 
0.0 0.0 0.0 
0.0 0.0 0.0 
0.0 0.0 0.0 
0.0 0.0 0.0 
0.0 0.0 0.0 
0.0 0.0 0.0 
0.0 0.0 0.0 
0.0 0.0 0.0 
0.0 0.0 0.0 
0.0 0.0 0.0 
0.0 0.0 0.0 
0.0 0.0 0.0 
0.0 0.0 0.0 
0.0 0.0 0.0 
0.0 0.0 0.0 
0.0 0.0 0.0 
0.0 0.0 0.0 
0.0 0.0 0.0 
0.0 0.0 0.0 
0.0 0.0 0.0 
0.0 0.0 0.0 
0.0 0.0 0.0 
0.0 0.0 0.0 
0.0 0.0 0.0 
0.0 0.0 0.0 
0.0 0.0 0.0 
0.0 0.0 0.0 
0.0 0.0 0.0 
0.0 0.0 0.0 
0.0 0.0 0.0 
0.0 0.0 0.0 
0.0 0.0 0.0 
0.0 0.0 0.0 
0.0 0.0 0.0 
0.0 0.0 0.0 
0.0 0.0 0.0 
0.0 0.0 0.0 
0.0 0.0 0.0 
0.0 0.0 0.0 
0.0 0.0 0.0 
0.0 0.0 0.0 
0.0 0.0 0.0 
0.0 0.0 0.0 
0.0 0.0 0.0 
0.0 0.0 0.0 
0.0 0.0 0.0 
0.0 0.0 0.0 
0.0 0.0 0.0 
0.0 0.0 0.0 
0.0 0.0 0.0 
0.0 0.0 0.0 
0.0 0.0 0.0 
0.0 0.0 0.0 
0.0 0.0 0.0 
0.0 0.0 0.0 
0.0 0.0 0.0 
0.0 0.0 0.0 
0.0 0.0 0.0 
0.0 0.0 0.0 
0.0 0.0 0.0 
0.0 0.0 0.0 
0.0 0.0 0.0 
0.0 0.0 0.0 
0.0 0.0 0.0 
0.0 0.0 0.0 
0.0 0.0 0.0 
0.0 0.0 0.0 
0.0 0.0 0.0 
0.0 0.0 0.0 
0.0 0.0 0.0 
0.0 0.0 0.0 
0.0 0.0 0.0 
0.0 0.0 0.0 
0.0 0.0 0.0 
0.0 0.0 0.0 
0.0 0.0 0.0 
0.0 0.0 0.0 
0.0 0.0 0.0 
0.0 0.0 0.0 
0.0 0.0 0.0 
0.0 0.0 0.0 
0.0 0.0 0.0 
0.0 0.0 0.0 
0.0 0.0 0.0 
0.0 0.0 0.0 
0.0 0.0 0.0 
0.0 0.0 0.0 
0.0 0.0 0.0 
0.0 0.0 0.0 
0.0 0.0 0.0 
0.0 0.0 0.0 
0.0 0.0 0.0 
0.0 0.0 0.0 
0.0 0.0 0.0 
0.0 0.0 0.0 
0.0 0.0 0.0 
0.0 0.0 0.0 
0.0 0.0 0.0 
0.0 0.0 0.0 
0.0 0.0 0.0 
0.0 0.0 0.0 
0.0 0.0 0.0 
0.0 0.0 0.0 
0.0 0.0 0.0 
0.0 0.0 0.0 
0.0 0.0 0.0 
0.0 0.0 0.0 
0.0 0.0 0.0 
0.0 0.0 0.0 
0.0 0.0 0.0 
0.0 0.0 0.0 
0.0 0.0 0.0 
0.0 0.0 0.0 
0.0 0.0 0.0 
0.0 0.0 0.0 
0.0 0.0 0.0 
0.0 0.0 0.0 
0.0 0.0 0.0 
0.0 0.0 0.0 
0.0 0.0 0.0 
0.0 0.0 0.0 
0.0 0.0 0.0 
0.0 0.0 0.0 
0.0 0.0 0.0 
0.0 0.0 0.0 
0.0 0.0 0.0 
0.0 0.0 0.0 
0.0 0.0 0.0 
0.0 0.0 0.0 
0.0 0.0 0.0 
0.0 0.0 0.0 
0.0 0.0 0.0 
0.0 0.0 0.0 
0.0 0.0 0.0 
0.0 0.0 0.0 
0.0 0.0 0.0 
0.0 0.0 0.0 
0.0 0.0 0.0 
0.0 0.0 0.0 
0.0 0.0 0.0 
0.0 0.0 0.0 
0.0 0.0 0.0 
0.0 0.0 0.0 
0.0 0.0 0.0 
0.0 0.0 0.0 
0.0 0.0 0.0 
0.0 0.0 0.0 
0.0 0.0 0.0 
0.0 0.0 0.0 
0.0 0.0 0.0 
0.0 0.0 0.0 
0.0 0.0 0.0 
0.0 0.0 0.0 
0.0 0.0 0.0 
0.0 0.0 0.0 
0.0 0.0 0.0 
0.0 0.0 0.0 
0.0 0.0 0.0 
0.0 0.0 0.0 
0.0 0.0 0.0 
0.0 0.0 0.0 
0.0 0.0 0.0 
0.0 0.0 0.0 
0.0 0.0 0.0 
0.0 0.0 0.0 
0.0 0.0 0.0 
0.0 0.0 0.0 
0.0 0.0 0.0 
0.0 0.0 0.0 
0.0 0.0 0.0 
0.0 0.0 0.0 
0.0 0.0 0.0 
0.0 0.0 0.0 
0.0 0.0 0.0 
0.0 0.0 0.0 
0.0 0.0 0.0 
0.0 0.0 0.0 
0.0 0.0 0.0 
0.0 0.0 0.0 
0.0 0.0 0.0 
0.0 0.0 0.0 
0.0 0.0 0.0 
0.0 0.0 0.0 
0.0 0.0 0.0 
0.0 0.0 0.0 
0.0 0.0 0.0 
0.0 0.0 0.0 
0.0 0.0 0.0 
0.0 0.0 0.0 
0.0 0.0 0.0 
0.0 0.0 0.0 
0.0 0.0 0.0 
0.0 0.0 0.0 
0.0 0.0 0.0 
0.0 0.0 0.0 
0.0 0.0 0.0 
0.0 0.0 0.0 
0.0 0.0 0.0 
0.0 0.0 0.0 
0.0 0.0 0.0 
0.0 0.0 0.0 
0.0 0.0 0.0 
0.0 0.0 0.0 
0.0 0.0 0.0 
0.0 0.0 0.0 
0.0 0.0 0.0 
0.0 0.0 0.0 
0.0 0.0 0.0 
0.0 0.0 0.0 
0.0 0.0 0.0 
0.0 0.0 0.0 
0.0 0.0 0.0 
0.0 0.0 0.0 
0.0 0.0 0.0 
0.0 0.0 0.0 
0.0 0.0 0.0 
0.0 0.0 0.0 
0.0 0.0 0.0 
0.0 0.0 0.0 
0.0 0.0 0.0 

VECTORS node_force_gravity float
0.0 -1.962000000000e+01 0.0 
0.0 -1.962000000000e+01 0.0 
0.0 -1.962000000000e+01 0.0 
0.0 -1.962000000000e+01 0.0 
0.0 -1.962000000000e+01 0.0 
0.0 -1.962000000000e+01 0.0 
0.0 -1.962000000000e+01 0.0 
0.0 -1.962000000000e+01 0.0 
0.0 -1.962000000000e+01 0.0 
0.0 -1.962000000000e+01 0.0 
0.0 -1.962000000000e+01 0.0 
0.0 -1.962000000000e+01 0.0 
0.0 -1.962000000000e+01 0.0 
0.0 -1.962000000000e+01 0.0 
0.0 -1.962000000000e+01 0.0 
0.0 -1.962000000000e+01 0.0 
0.0 -1.962000000000e+01 0.0 
0.0 -1.962000000000e+01 0.0 
0.0 -1.962000000000e+01 0.0 
0.0 -1.962000000000e+01 0.0 
0.0 -1.962000000000e+01 0.0 
0.0 -1.962000000000e+01 0.0 
0.0 -1.962000000000e+01 0.0 
0.0 -1.962000000000e+01 0.0 
0.0 -1.962000000000e+01 0.0 
0.0 -1.962000000000e+01 0.0 
0.0 -1.962000000000e+01 0.0 
0.0 -1.962000000000e+01 0.0 
0.0 -1.962000000000e+01 0.0 
0.0 -1.962000000000e+01 0.0 
0.0 -1.962000000000e+01 0.0 
0.0 -1.962000000000e+01 0.0 
0.0 -1.962000000000e+01 0.0 
0.0 -1.962000000000e+01 0.0 
0.0 -1.962000000000e+01 0.0 
0.0 -1.962000000000e+01 0.0 
0.0 -1.962000000000e+01 0.0 
0.0 -1.962000000000e+01 0.0 
0.0 -1.962000000000e+01 0.0 
0.0 -1.962000000000e+01 0.0 
0.0 -1.962000000000e+01 0.0 
0.0 -1.962000000000e+01 0.0 
0.0 -1.962000000000e+01 0.0 
0.0 -1.962000000000e+01 0.0 
0.0 -1.962000000000e+01 0.0 
0.0 -1.962000000000e+01 0.0 
0.0 -1.962000000000e+01 0.0 
0.0 -1.962000000000e+01 0.0 
0.0 -1.962000000000e+01 0.0 
0.0 -1.962000000000e+01 0.0 
0.0 -1.962000000000e+01 0.0 
0.0 -1.962000000000e+01 0.0 
0.0 -1.962000000000e+01 0.0 
0.0 -1.962000000000e+01 0.0 
0.0 -1.962000000000e+01 0.0 
0.0 -1.962000000000e+01 0.0 
0.0 -1.962000000000e+01 0.0 
0.0 -1.962000000000e+01 0.0 
0.0 -1.962000000000e+01 0.0 
0.0 -1.962000000000e+01 0.0 
0.0 -1.962000000000e+01 0.0 
0.0 -1.962000000000e+01 0.0 
0.0 -1.962000000000e+01 0.0 
0.0 -1.962000000000e+01 0.0 
0.0 -1.962000000000e+01 0.0 
0.0 -1.962000000000e+01 0.0 
0.0 -1.962000000000e+01 0.0 
0.0 -1.962000000000e+01 0.0 
0.0 -1.962000000000e+01 0.0 
0.0 -1.962000000000e+01 0.0 
0.0 -1.962000000000e+01 0.0 
0.0 -1.962000000000e+01 0.0 
0.0 -1.962000000000e+01 0.0 
0.0 -1.962000000000e+01 0.0 
0.0 -1.962000000000e+01 0.0 
0.0 -1.962000000000e+01 0.0 
0.0 -1.962000000000e+01 0.0 
0.0 -1.962000000000e+01 0.0 
0.0 -1.962000000000e+01 0.0 
0.0 -1.962000000000e+01 0.0 
0.0 -1.962000000000e+01 0.0 
0.0 -1.962000000000e+01 0.0 
0.0 -1.962000000000e+01 0.0 
0.0 -1.962000000000e+01 0.0 
0.0 -1.962000000000e+01 0.0 
0.0 -1.962000000000e+01 0.0 
0.0 -1.962000000000e+01 0.0 
0.0 -1.962000000000e+01 0.0 
0.0 -1.962000000000e+01 0.0 
0.0 -1.962000000000e+01 0.0 
0.0 -1.962000000000e+01 0.0 
0.0 -1.962000000000e+01 0.0 
0.0 -1.962000000000e+01 0.0 
0.0 -1.962000000000e+01 0.0 
0.0 -1.962000000000e+01 0.0 
0.0 -1.962000000000e+01 0.0 
0.0 -1.962000000000e+01 0.0 
0.0 -1.962000000000e+01 0.0 
0.0 -1.962000000000e+01 0.0 
0.0 -1.962000000000e+01 0.0 
0.0 -1.962000000000e+01 0.0 
0.0 -1.962000000000e+01 0.0 
0.0 -1.962000000000e+01 0.0 
0.0 -1.962000000000e+01 0.0 
0.0 -1.962000000000e+01 0.0 
0.0 -1.962000000000e+01 0.0 
0.0 -1.962000000000e+01 0.0 
0.0 -1.962000000000e+01 0.0 
0.0 -1.962000000000e+01 0.0 
0.0 -1.962000000000e+01 0.0 
0.0 -1.962000000000e+01 0.0 
0.0 -1.962000000000e+01 0.0 
0.0 -1.962000000000e+01 0.0 
0.0 -1.962000000000e+01 0.0 
0.0 -1.962000000000e+01 0.0 
0.0 -1.962000000000e+01 0.0 
0.0 -1.962000000000e+01 0.0 
0.0 -1.962000000000e+01 0.0 
0.0 -1.962000000000e+01 0.0 
0.0 -1.962000000000e+01 0.0 
0.0 -1.962000000000e+01 0.0 
0.0 -1.962000000000e+01 0.0 
0.0 -1.962000000000e+01 0.0 
0.0 -1.962000000000e+01 0.0 
0.0 -1.962000000000e+01 0.0 
0.0 -1.962000000000e+01 0.0 
0.0 -1.962000000000e+01 0.0 
0.0 -1.962000000000e+01 0.0 
0.0 -1.962000000000e+01 0.0 
0.0 -1.962000000000e+01 0.0 
0.0 -1.962000000000e+01 0.0 
0.0 -1.962000000000e+01 0.0 
0.0 -1.962000000000e+01 0.0 
0.0 -1.962000000000e+01 0.0 
0.0 -1.962000000000e+01 0.0 
0.0 -1.962000000000e+01 0.0 
0.0 -1.962000000000e+01 0.0 
0.0 -1.962000000000e+01 0.0 
0.0 -1.962000000000e+01 0.0 
0.0 -1.962000000000e+01 0.0 
0.0 -1.962000000000e+01 0.0 
0.0 -1.962000000000e+01 0.0 
0.0 -1.962000000000e+01 0.0 
0.0 -1.962000000000e+01 0.0 
0.0 -1.962000000000e+01 0.0 
0.0 -1.962000000000e+01 0.0 
0.0 -1.962000000000e+01 0.0 
0.0 -1.962000000000e+01 0.0 
0.0 -1.962000000000e+01 0.0 
0.0 -1.962000000000e+01 0.0 
0.0 -1.962000000000e+01 0.0 
0.0 -1.962000000000e+01 0.0 
0.0 -1.962000000000e+01 0.0 
0.0 -1.962000000000e+01 0.0 
0.0 -1.962000000000e+01 0.0 
0.0 -1.962000000000e+01 0.0 
0.0 -1.962000000000e+01 0.0 
0.0 -1.962000000000e+01 0.0 
0.0 -1.962000000000e+01 0.0 
0.0 -1.962000000000e+01 0.0 
0.0 -1.962000000000e+01 0.0 
0.0 -1.962000000000e+01 0.0 
0.0 -1.962000000000e+01 0.0 
0.0 -1.962000000000e+01 0.0 
0.0 -1.962000000000e+01 0.0 
0.0 -1.962000000000e+01 0.0 
0.0 -1.962000000000e+01 0.0 
0.0 -1.962000000000e+01 0.0 
0.0 -1.962000000000e+01 0.0 
0.0 -1.962000000000e+01 0.0 
0.0 -1.962000000000e+01 0.0 
0.0 -1.962000000000e+01 0.0 
0.0 -1.962000000000e+01 0.0 
0.0 -1.962000000000e+01 0.0 
0.0 -1.962000000000e+01 0.0 
0.0 -1.962000000000e+01 0.0 
0.0 -1.962000000000e+01 0.0 
0.0 -1.962000000000e+01 0.0 
0.0 -1.962000000000e+01 0.0 
0.0 -1.962000000000e+01 0.0 
0.0 -1.962000000000e+01 0.0 
0.0 -1.962000000000e+01 0.0 
0.0 -1.962000000000e+01 0.0 
0.0 -1.962000000000e+01 0.0 
0.0 -1.962000000000e+01 0.0 
0.0 -1.962000000000e+01 0.0 
0.0 -1.962000000000e+01 0.0 
0.0 -1.962000000000e+01 0.0 
0.0 -1.962000000000e+01 0.0 
0.0 -1.962000000000e+01 0.0 
0.0 -1.962000000000e+01 0.0 
0.0 -1.962000000000e+01 0.0 
0.0 -1.962000000000e+01 0.0 
0.0 -1.962000000000e+01 0.0 
0.0 -1.962000000000e+01 0.0 
0.0 -1.962000000000e+01 0.0 
0.0 -1.962000000000e+01 0.0 
0.0 -1.962000000000e+01 0.0 
0.0 -1.962000000000e+01 0.0 
0.0 -1.962000000000e+01 0.0 
0.0 -1.962000000000e+01 0.0 
0.0 -1.962000000000e+01 0.0 
0.0 -1.962000000000e+01 0.0 
0.0 -1.962000000000e+01 0.0 
0.0 -1.962000000000e+01 0.0 
0.0 -1.962000000000e+01 0.0 
0.0 -1.962000000000e+01 0.0 
0.0 -1.962000000000e+01 0.0 
0.0 -1.962000000000e+01 0.0 
0.0 -1.962000000000e+01 0.0 
0.0 -1.962000000000e+01 0.0 
0.0 -1.962000000000e+01 0.0 
0.0 -1.962000000000e+01 0.0 
0.0 -1.962000000000e+01 0.0 
0.0 -1.962000000000e+01 0.0 
0.0 -1.962000000000e+01 0.0 
0.0 -1.962000000000e+01 0.0 
0.0 -1.962000000000e+01 0.0 
0.0 -1.962000000000e+01 0.0 
0.0 -1.962000000000e+01 0.0 
0.0 -1.962000000000e+01 0.0 
0.0 -1.962000000000e+01 0.0 
0.0 -1.962000000000e+01 0.0 
0.0 -1.962000000000e+01 0.0 
0.0 -1.962000000000e+01 0.0 
0.0 -1.962000000000e+01 0.0 
0.0 -1.962000000000e+01 0.0 
0.0 -1.962000000000e+01 0.0 
0.0 -1.962000000000e+01 0.0 
0.0 -1.962000000000e+01 0.0 
0.0 -1.962000000000e+01 0.0 
0.0 -1.962000000000e+01 0.0 
0.0 -1.962000000000e+01 0.0 
0.0 -1.962000000000e+01 0.0 
0.0 -1.962000000000e+01 0.0 
0.0 -1.962000000000e+01 0.0 
0.0 -1.962000000000e+01 0.0 
0.0 -1.962000000000e+01 0.0 
0.0 -1.962000000000e+01 0.0 
0.0 -1.962000000000e+01 0.0 
0.0 -1.962000000000e+01 0.0 
0.0 -1.962000000000e+01 0.0 
0.0 -1.962000000000e+01 0.0 
0.0 -1.962000000000e+01 0.0 
0.0 -1.962000000000e+01 0.0 
0.0 -1.962000000000e+01 0.0 
0.0 -1.962000000000e+01 0.0 
0.0 -1.962000000000e+01 0.0 
0.0 -1.962000000000e+01 0.0 
0.0 -1.962000000000e+01 0.0 
0.0 -1.962000000000e+01 0.0 
0.0 -1.962000000000e+01 0.0 
0.0 -1.962000000000e+01 0.0 
0.0 -1.962000000000e+01 0.0 
0.0 -1.962000000000e+01 0.0 
0.0 -1.962000000000e+01 0.0 
0.0 -1.962000000000e+01 0.0 
0.0 -1.962000000000e+01 0.0 
0.0 -1.962000000000e+01 0.0 
0.0 -1.962000000000e+01 0.0 
0.0 -1.962000000000e+01 0.0 
0.0 -1.962000000000e+01 0.0 
0.0 -1.962000000000e+01 0.0 
0.0 -1.962000000000e+01 0.0 
0.0 -1.962000000000e+01 0.0 
0.0 -1.962000000000e+01 0.0 
0.0 -1.962000000000e+01 0.0 
0.0 -1.962000000000e+01 0.0 
0.0 -1.962000000000e+01 0.0 
0.0 -1.962000000000e+01 0.0 
0.0 -1.962000000000e+01 0.0 
0.0 -1.962000000000e+01 0.0 
0.0 -1.962000000000e+01 0.0 
0.0 -1.962000000000e+01 0.0 
0.0 -1.962000000000e+01 0.0 
0.0 -1.962000000000e+01 0.0 
0.0 -1.962000000000e+01 0.0 
0.0 -1.962000000000e+01 0.0 
0.0 -1.962000000000e+01 0.0 
0.0 -1.962000000000e+01 0.0 
0.0 -1.962000000000e+01 0.0 
0.0 -1.962000000000e+01 0.0 
0.0 -1.962000000000e+01 0.0 
0.0 -1.962000000000e+01 0.0 
0.0 -1.962000000000e+01 0.0 
0.0 -1.962000000000e+01 0.0 
0.0 -1.962000000000e+01 0.0 
0.0 -1.962000000000e+01 0.0 
0.0 -1.962000000000e+01 0.0 
0.0 -1.962000000000e+01 0.0 
0.0 -1.962000000000e+01 0.0 
0.0 -1.962000000000e+01 0.0 
0.0 -1.962000000000e+01 0.0 
0.0 -1.962000000000e+01 0.0 
0.0 -1.962000000000e+01 0.0 
0.0 -1.962000000000e+01 0.0 
0.0 -1.962000000000e+01 0.0 
0.0 -1.962000000000e+01 0.0 
0.0 -1.962000000000e+01 0.0 
0.0 -1.962000000000e+01 0.0 
0.0 -1.962000000000e+01 0.0 
0.0 -1.962000000000e+01 0.0 
0.0 -1.962000000000e+01 0.0 
0.0 -1.962000000000e+01 0.0 
0.0 -1.962000000000e+01 0.0 
0.0 -1.962000000000e+01 0.0 
0.0 -1.962000000000e+01 0.0 
0.0 -1.962000000000e+01 0.0 
0.0 -1.962000000000e+01 0.0 
0.0 -1.962000000000e+01 0.0 
0.0 -1.962000000000e+01 0.0 
0.0 -1.962000000000e+01 0.0 
0.0 -1.962000000000e+01 0.0 
0.0 -1.962000000000e+01 0.0 
0.0 -1.962000000000e+01 0.0 
0.0 -1.962000000000e+01 0.0 
0.0 -1.962000000000e+01 0.0 
0.0 -1.962000000000e+01 0.0 
0.0 -1.962000000000e+01 0.0 
0.0 -1.962000000000e+01 0.0 
0.0 -1.962000000000e+01 0.0 
0.0 -1.962000000000e+01 0.0 
0.0 -1.962000000000e+01 0.0 
0.0 -1.962000000000e+01 0.0 
0.0 -1.962000000000e+01 0.0 
0.0 -1.962000000000e+01 0.0 
0.0 -1.962000000000e+01 0.0 
0.0 -1.962000000000e+01 0.0 
0.0 -1.962000000000e+01 0.0 
0.0 -1.962000000000e+01 0.0 
0.0 -1.962000000000e+01 0.0 
0.0 -1.962000000000e+01 0.0 
0.0 -1.962000000000e+01 0.0 
0.0 -1.962000000000e+01 0.0 
0.0 -1.962000000000e+01 0.0 
0.0 -1.962000000000e+01 0.0 
0.0 -1.962000000000e+01 0.0 
0.0 -1.962000000000e+01 0.0 
0.0 -1.962000000000e+01 0.0 
0.0 -1.962000000000e+01 0.0 
0.0 -1.962000000000e+01 0.0 
0.0 -1.962000000000e+01 0.0 
0.0 -1.962000000000e+01 0.0 
0.0 -1.962000000000e+01 0.0 
0.0 -1.962000000000e+01 0.0 
0.0 -1.962000000000e+01 0.0 
0.0 -1.962000000000e+01 0.0 
0.0 -1.962000000000e+01 0.0 
0.0 -1.962000000000e+01 0.0 
0.0 -1.962000000000e+01 0.0 
0.0 -1.962000000000e+01 0.0 
0.0 -1.962000000000e+01 0.0 
0.0 -1.962000000000e+01 0.0 
0.0 -1.962000000000e+01 0.0 
0.0 -1.962000000000e+01 0.0 
0.0 -1.962000000000e+01 0.0 
0.0 -1.962000000000e+01 0.0 
0.0 -1.962000000000e+01 0.0 
0.0 -1.962000000000e+01 0.0 
0.0 -1.962000000000e+01 0.0 
0.0 -1.962000000000e+01 0.0 
0.0 -1.962000000000e+01 0.0 
0.0 -1.962000000000e+01 0.0 
0.0 -1.962000000000e+01 0.0 
0.0 -1.962000000000e+01 0.0 
0.0 -1.962000000000e+01 0.0 
0.0 -1.962000000000e+01 0.0 
0.0 -1.962000000000e+01 0.0 
0.0 -1.962000000000e+01 0.0 
0.0 -1.962000000000e+01 0.0 
0.0 -1.962000000000e+01 0.0 
0.0 -1.962000000000e+01 0.0 
0.0 -1.962000000000e+01 0.0 
0.0 -1.962000000000e+01 0.0 
0.0 -1.962000000000e+01 0.0 
0.0 -1.962000000000e+01 0.0 
0.0 -1.962000000000e+01 0.0 
0.0 -1.962000000000e+01 0.0 
0.0 -1.962000000000e+01 0.0 
0.0 -1.962000000000e+01 0.0 
0.0 -1.962000000000e+01 0.0 
0.0 -1.962000000000e+01 0.0 
0.0 -1.962000000000e+01 0.0 
0.0 -1.962000000000e+01 0.0 
0.0 -1.962000000000e+01 0.0 
0.0 -1.962000000000e+01 0.0 
0.0 -1.962000000000e+01 0.0 
0.0 -1.962000000000e+01 0.0 
0.0 -1.962000000000e+01 0.0 
0.0 -1.962000000000e+01 0.0 
0.0 -1.962000000000e+01 0.0 
0.0 -1.962000000000e+01 0.0 
0.0 -1.962000000000e+01 0.0 
0.0 -1.962000000000e+01 0.0 
0.0 -1.962000000000e+01 0.0 
0.0 -1.962000000000e+01 0.0 
0.0 -1.962000000000e+01 0.0 
0.0 -1.962000000000e+01 0.0 
0.0 -1.962000000000e+01 0.0 
0.0 -1.962000000000e+01 0.0 
0.0 -1.962000000000e+01 0.0 
0.0 -1.962000000000e+01 0.0 
0.0 -1.962000000000e+01 0.0 
0.0 -1.962000000000e+01 0.0 
0.0 -1.962000000000e+01 0.0 
0.0 -1.962000000000e+01 0.0 
0.0 -1.962000000000e+01 0.0 
0.0 -1.962000000000e+01 0.0 
0.0 -1.962000000000e+01 0.0 
0.0 -1.962000000000e+01 0.0 
0.0 -1.962000000000e+01 0.0 
0.0 -1.962000000000e+01 0.0 
0.0 -1.962000000000e+01 0.0 
0.0 -1.962000000000e+01 0.0 
0.0 -1.962000000000e+01 0.0 
0.0 -1.962000000000e+01 0.0 
0.0 -1.962000000000e+01 0.0 
0.0 -1.962000000000e+01 0.0 
0.0 -1.962000000000e+01 0.0 
0.0 -1.962000000000e+01 0.0 
0.0 -1.962000000000e+01 0.0 
0.0 -1.962000000000e+01 0.0 
0.0 -1.962000000000e+01 0.0 
0.0 -1.962000000000e+01 0.0 
0.0 -1.962000000000e+01 0.0 
0.0 -1.962000000000e+01 0.0 
0.0 -1.962000000000e+01 0.0 
0.0 -1.962000000000e+01 0.0 
0.0 -1.962000000000e+01 0.0 
0.0 -1.962000000000e+01 0.0 
0.0 -1.962000000000e+01 0.0 
0.0 -1.962000000000e+01 0.0 
0.0 -1.962000000000e+01 0.0 
0.0 -1.962000000000e+01 0.0 
0.0 -1.962000000000e+01 0.0 
0.0 -1.962000000000e+01 0.0 
0.0 -1.962000000000e+01 0.0 
0.0 -1.962000000000e+01 0.0 
0.0 -1.962000000000e+01 0.0 
0.0 -1.962000000000e+01 0.0 
0.0 -1.962000000000e+01 0.0 
0.0 -1.962000000000e+01 0.0 
0.0 -1.962000000000e+01 0.0 
0.0 -1.962000000000e+01 0.0 
0.0 -1.962000000000e+01 0.0 
0.0 -1.962000000000e+01 0.0 
0.0 -1.962000000000e+01 0.0 
0.0 -1.962000000000e+01 0.0 
0.0 -1.962000000000e+01 0.0 
0.0 -1.962000000000e+01 0.0 
0.0 -1.962000000000e+01 0.0 
0.0 -1.962000000000e+01 0.0 
0.0 -1.962000000000e+01 0.0 
0.0 -1.962000000000e+01 0.0 
0.0 -1.962000000000e+01 0.0 
0.0 -1.962000000000e+01 0.0 
0.0 -1.962000000000e+01 0.0 
0.0 -1.962000000000e+01 0.0 
0.0 -1.962000000000e+01 0.0 
0.0 -1.962000000000e+01 0.0 
0.0 -1.962000000000e+01 0.0 
0.0 -1.962000000000e+01 0.0 
0.0 -1.962000000000e+01 0.0 
0.0 -1.962000000000e+01 0.0 
0.0 -1.962000000000e+01 0.0 
0.0 -1.962000000000e+01 0.0 
0.0 -1.962000000000e+01 0.0 
0.0 -1.962000000000e+01 0.0 
0.0 -1.962000000000e+01 0.0 
0.0 -1.962000000000e+01 0.0 
0.0 -1.962000000000e+01 0.0 
0.0 -1.962000000000e+01 0.0 
0.0 -1.962000000000e+01 0.0 
0.0 -1.962000000000e+01 0.0 
0.0 -1.962000000000e+01 0.0 
0.0 -1.962000000000e+01 0.0 
0.0 -1.962000000000e+01 0.0 
0.0 -1.962000000000e+01 0.0 
0.0 -1.962000000000e+01 0.0 
0.0 -1.962000000000e+01 0.0 
0.0 -1.962000000000e+01 0.0 
0.0 -1.962000000000e+01 0.0 
0.0 -1.962000000000e+01 0.0 
0.0 -1.962000000000e+01 0.0 
0.0 -1.962000000000e+01 0.0 
0.0 -1.962000000000e+01 0.0 
0.0 -1.962000000000e+01 0.0 
0.0 -1.962000000000e+01 0.0 
0.0 -1.962000000000e+01 0.0 
0.0 -1.962000000000e+01 0.0 
0.0 -1.962000000000e+01 0.0 
0.0 -1.962000000000e+01 0.0 
0.0 -1.962000000000e+01 0.0 
0.0 -1.962000000000e+01 0.0 
0.0 -1.962000000000e+01 0.0 
0.0 -1.962000000000e+01 0.0 
0.0 -1.962000000000e+01 0.0 
0.0 -1.962000000000e+01 0.0 
0.0 -1.962000000000e+01 0.0 
0.0 -1.962000000000e+01 0.0 
0.0 -1.962000000000e+01 0.0 
0.0 -1.962000000000e+01 0.0 
0.0 -1.962000000000e+01 0.0 
0.0 -1.962000000000e+01 0.0 
0.0 -1.962000000000e+01 0.0 
0.0 -1.962000000000e+01 0.0 
0.0 -1.962000000000e+01 0.0 
0.0 -1.962000000000e+01 0.0 
0.0 -1.962000000000e+01 0.0 
0.0 -1.962000000000e+01 0.0 
0.0 -1.962000000000e+01 0.0 
0.0 -1.962000000000e+01 0.0 
0.0 -1.962000000000e+01 0.0 
0.0 -1.962000000000e+01 0.0 
0.0 -1.962000000000e+01 0.0 
0.0 -1.962000000000e+01 0.0 
0.0 -1.962000000000e+01 0.0 
0.0 -1.962000000000e+01 0.0 
0.0 -1.962000000000e+01 0.0 
0.0 -1.962000000000e+01 0.0 
0.0 -1.962000000000e+01 0.0 
0.0 -1.962000000000e+01 0.0 
0.0 -1.962000000000e+01 0.0 
0.0 -1.962000000000e+01 0.0 
0.0 -1.962000000000e+01 0.0 
0.0 -1.962000000000e+01 0.0 
0.0 -1.962000000000e+01 0.0 
0.0 -1.962000000000e+01 0.0 
0.0 -1.962000000000e+01 0.0 
0.0 -1.962000000000e+01 0.0 
0.0 -1.962000000000e+01 0.0 
0.0 -1.962000000000e+01 0.0 
0.0 -1.962000000000e+01 0.0 
0.0 -1.962000000000e+01 0.0 
0.0 -1.962000000000e+01 0.0 
0.0 -1.962000000000e+01 0.0 
0.0 -1.962000000000e+01 0.0 
0.0 -1.962000000000e+01 0.0 
0.0 -1.962000000000e+01 0.0 
0.0 -1.962000000000e+01 0.0 
0.0 -1.962000000000e+01 0.0 
0.0 -1.962000000000e+01 0.0 
0.0 -1.962000000000e+01 0.0 
0.0 -1.962000000000e+01 0.0 
0.0 -1.962000000000e+01 0.0 
0.0 -1.962000000000e+01 0.0 
0.0 -1.962000000000e+01 0.0 
0.0 -1.962000000000e+01 0.0 
0.0 -1.962000000000e+01 0.0 
0.0 -1.962000000000e+01 0.0 
0.0 -1.962000000000e+01 0.0 
0.0 -1.962000000000e+01 0.0 
0.0 -1.962000000000e+01 0.0 
0.0 -1.962000000000e+01 0.0 
0.0 -1.962000000000e+01 0.0 
0.0 -1.962000000000e+01 0.0 
0.0 -1.962000000000e+01 0.0 
0.0 -1.962000000000e+01 0.0 
0.0 -1.962000000000e+01 0.0 
0.0 -1.962000000000e+01 0.0 
0.0 -1.962000000000e+01 0.0 
0.0 -1.962000000000e+01 0.0 
0.0 -1.962000000000e+01 0.0 
0.0 -1.962000000000e+01 0.0 
0.0 -1.962000000000e+01 0.0 
0.0 -1.962000000000e+01 0.0 
0.0 -1.962000000000e+01 0.0 
0.0 -1.962000000000e+01 0.0 
0.0 -1.962000000000e+01 0.0 
0.0 -1.962000000000e+01 0.0 
0.0 -1.962000000000e+01 0.0 
0.0 -1.962000000000e+01 0.0 
0.0 -1.962000000000e+01 0.0 
0.0 -1.962000000000e+01 0.0 
0.0 -1.962000000000e+01 0.0 
0.0 -1.962000000000e+01 0.0 
0.0 -1.962000000000e+01 0.0 
0.0 -1.962000000000e+01 0.0 
0.0 -1.962000000000e+01 0.0 
0.0 -1.962000000000e+01 0.0 
0.0 -1.962000000000e+01 0.0 
0.0 -1.962000000000e+01 0.0 
0.0 -1.962000000000e+01 0.0 
0.0 -1.962000000000e+01 0.0 
0.0 -1.962000000000e+01 0.0 
0.0 -1.962000000000e+01 0.0 
0.0 -1.962000000000e+01 0.0 
0.0 -1.962000000000e+01 0.0 
0.0 -1.962000000000e+01 0.0 
0.0 -1.962000000000e+01 0.0 
0.0 -1.962000000000e+01 0.0 
0.0 -1.962000000000e+01 0.0 
0.0 -1.962000000000e+01 0.0 
0.0 -1.962000000000e+01 0.0 
0.0 -1.962000000000e+01 0.0 
0.0 -1.962000000000e+01 0.0 
0.0 -1.962000000000e+01 0.0 
0.0 -1.962000000000e+01 0.0 
0.0 -1.962000000000e+01 0.0 
0.0 -1.962000000000e+01 0.0 
0.0 -1.962000000000e+01 0.0 
0.0 -1.962000000000e+01 0.0 
0.0 -1.962000000000e+01 0.0 
0.0 -1.962000000000e+01 0.0 
0.0 -1.962000000000e+01 0.0 
0.0 -1.962000000000e+01 0.0 
0.0 -1.962000000000e+01 0.0 
0.0 -1.962000000000e+01 0.0 
0.0 -1.962000000000e+01 0.0 
0.0 -1.962000000000e+01 0.0 
0.0 -1.962000000000e+01 0.0 
0.0 -1.962000000000e+01 0.0 
0.0 -1.962000000000e+01 0.0 
0.0 -1.962000000000e+01 0.0 
0.0 -1.962000000000e+01 0.0 
0.0 -1.962000000000e+01 0.0 
0.0 -1.962000000000e+01 0.0 
0.0 -1.962000000000e+01 0.0 
0.0 -1.962000000000e+01 0.0 
0.0 -1.962000000000e+01 0.0 
0.0 -1.962000000000e+01 0.0 
0.0 -1.962000000000e+01 0.0 
0.0 -1.962000000000e+01 0.0 
0.0 -1.962000000000e+01 0.0 
0.0 -1.962000000000e+01 0.0 
0.0 -1.962000000000e+01 0.0 
0.0 -1.962000000000e+01 0.0 
0.0 -1.962000000000e+01 0.0 
0.0 -1.962000000000e+01 0.0 
0.0 -1.962000000000e+01 0.0 
0.0 -1.962000000000e+01 0.0 
0.0 -1.962000000000e+01 0.0 
0.0 -1.962000000000e+01 0.0 
0.0 -1.962000000000e+01 0.0 
0.0 -1.962000000000e+01 0.0 
0.0 -1.962000000000e+01 0.0 
0.0 -1.962000000000e+01 0.0 
0.0 -1.962000000000e+01 0.0 
0.0 -1.962000000000e+01 0.0 
0.0 -1.962000000000e+01 0.0 
0.0 -1.962000000000e+01 0.0 
0.0 -1.962000000000e+01 0.0 
0.0 -1.962000000000e+01 0.0 
0.0 -1.962000000000e+01 0.0 
0.0 -1.962000000000e+01 0.0 
0.0 -1.962000000000e+01 0.0 
0.0 -1.962000000000e+01 0.0 
0.0 -1.962000000000e+01 0.0 
0.0 -1.962000000000e+01 0.0 
0.0 -1.962000000000e+01 0.0 
0.0 -1.962000000000e+01 0.0 
0.0 -1.962000000000e+01 0.0 
0.0 -1.962000000000e+01 0.0 
0.0 -1.962000000000e+01 0.0 
0.0 -1.962000000000e+01 0.0 
0.0 -1.962000000000e+01 0.0 
0.0 -1.962000000000e+01 0.0 
0.0 -1.962000000000e+01 0.0 
0.0 -1.962000000000e+01 0.0 
0.0 -1.962000000000e+01 0.0 
0.0 -1.962000000000e+01 0.0 
0.0 -1.962000000000e+01 0.0 
0.0 -1.962000000000e+01 0.0 
0.0 -1.962000000000e+01 0.0 
0.0 -1.962000000000e+01 0.0 
0.0 -1.962000000000e+01 0.0 
0.0 -1.962000000000e+01 0.0 
0.0 -1.962000000000e+01 0.0 
0.0 -1.962000000000e+01 0.0 
0.0 -1.962000000000e+01 0.0 
0.0 -1.962000000000e+01 0.0 
0.0 -1.962000000000e+01 0.0 
0.0 -1.962000000000e+01 0.0 
0.0 -1.962000000000e+01 0.0 
0.0 -1.962000000000e+01 0.0 
0.0 -1.962000000000e+01 0.0 
0.0 -1.962000000000e+01 0.0 
0.0 -1.962000000000e+01 0.0 
0.0 -1.962000000000e+01 0.0 
0.0 -1.962000000000e+01 0.0 
0.0 -1.962000000000e+01 0.0 
0.0 -1.962000000000e+01 0.0 
0.0 -1.962000000000e+01 0.0 
0.0 -1.962000000000e+01 0.0 
0.0 -1.962000000000e+01 0.0 
0.0 -1.962000000000e+01 0.0 
0.0 -1.962000000000e+01 0.0 
0.0 -1.962000000000e+01 0.0 
0.0 -1.962000000000e+01 0.0 
0.0 -1.962000000000e+01 0.0 
0.0 -1.962000000000e+01 0.0 
0.0 -1.962000000000e+01 0.0 
0.0 -1.962000000000e+01 0.0 
0.0 -1.962000000000e+01 0.0 
0.0 -1.962000000000e+01 0.0 
0.0 -1.962000000000e+01 0.0 
0.0 -1.962000000000e+01 0.0 
0.0 -1.962000000000e+01 0.0 
0.0 -1.962000000000e+01 0.0 
0.0 -1.962000000000e+01 0.0 
0.0 -1.962000000000e+01 0.0 
0.0 -1.962000000000e+01 0.0 
0.0 -1.962000000000e+01 0.0 
0.0 -1.962000000000e+01 0.0 
0.0 -1.962000000000e+01 0.0 
0.0 -1.962000000000e+01 0.0 
0.0 -1.962000000000e+01 0.0 
0.0 -1.962000000000e+01 0.0 
0.0 -1.962000000000e+01 0.0 
0.0 -1.962000000000e+01 0.0 
0.0 -1.962000000000e+01 0.0 
0.0 -1.962000000000e+01 0.0 
0.0 -1.962000000000e+01 0.0 
0.0 -1.962000000000e+01 0.0 
0.0 -1.962000000000e+01 0.0 
0.0 -1.962000000000e+01 0.0 
0.0 -1.962000000000e+01 0.0 
0.0 -1.962000000000e+01 0.0 
0.0 -1.962000000000e+01 0.0 
0.0 -1.962000000000e+01 0.0 
0.0 -1.962000000000e+01 0.0 
0.0 -1.962000000000e+01 0.0 
0.0 -1.962000000000e+01 0.0 
0.0 -1.962000000000e+01 0.0 
0.0 -1.962000000000e+01 0.0 
0.0 -1.962000000000e+01 0.0 
0.0 -1.962000000000e+01 0.0 
0.0 -1.962000000000e+01 0.0 
0.0 -1.962000000000e+01 0.0 
0.0 -1.962000000000e+01 0.0 
0.0 -1.962000000000e+01 0.0 
0.0 -1.962000000000e+01 0.0 
0.0 -1.962000000000e+01 0.0 
0.0 -1.962000000000e+01 0.0 
0.0 -1.962000000000e+01 0.0 
0.0 -1.962000000000e+01 0.0 
0.0 -1.962000000000e+01 0.0 
0.0 -1.962000000000e+01 0.0 
0.0 -1.962000000000e+01 0.0 
0.0 -1.962000000000e+01 0.0 
0.0 -1.962000000000e+01 0.0 
0.0 -1.962000000000e+01 0.0 
0.0 -1.962000000000e+01 0.0 
0.0 -1.962000000000e+01 0.0 
0.0 -1.962000000000e+01 0.0 
0.0 -1.962000000000e+01 0.0 
0.0 -1.962000000000e+01 0.0 
0.0 -1.962000000000e+01 0.0 
0.0 -1.962000000000e+01 0.0 
0.0 -1.962000000000e+01 0.0 
0.0 -1.962000000000e+01 0.0 
0.0 -1.962000000000e+01 0.0 
0.0 -1.962000000000e+01 0.0 
0.0 -1.962000000000e+01 0.0 
0.0 -1.962000000000e+01 0.0 
0.0 -1.962000000000e+01 0.0 
0.0 -1.962000000000e+01 0.0 
0.0 -1.962000000000e+01 0.0 
0.0 -1.962000000000e+01 0.0 
0.0 -1.962000000000e+01 0.0 
0.0 -1.962000000000e+01 0.0 
0.0 -1.962000000000e+01 0.0 
0.0 -1.962000000000e+01 0.0 
0.0 -1.962000000000e+01 0.0 
0.0 -1.962000000000e+01 0.0 
0.0 -1.962000000000e+01 0.0 
0.0 -1.962000000000e+01 0.0 
0.0 -1.962000000000e+01 0.0 
0.0 -1.962000000000e+01 0.0 
0.0 -1.962000000000e+01 0.0 
0.0 -1.962000000000e+01 0.0 
0.0 -1.962000000000e+01 0.0 
0.0 -1.962000000000e+01 0.0 
0.0 -1.962000000000e+01 0.0 
0.0 -1.962000000000e+01 0.0 
0.0 -1.962000000000e+01 0.0 
0.0 -1.962000000000e+01 0.0 
0.0 -1.962000000000e+01 0.0 
0.0 -1.962000000000e+01 0.0 
0.0 -1.962000000000e+01 0.0 
0.0 -1.962000000000e+01 0.0 
0.0 -1.962000000000e+01 0.0 
0.0 -1.962000000000e+01 0.0 
0.0 -1.962000000000e+01 0.0 
0.0 -1.962000000000e+01 0.0 
0.0 -1.962000000000e+01 0.0 
0.0 -1.962000000000e+01 0.0 
0.0 -1.962000000000e+01 0.0 
0.0 -1.962000000000e+01 0.0 
0.0 -1.962000000000e+01 0.0 
0.0 -1.962000000000e+01 0.0 
0.0 -1.962000000000e+01 0.0 
0.0 -1.962000000000e+01 0.0 
0.0 -1.962000000000e+01 0.0 
0.0 -1.962000000000e+01 0.0 
0.0 -1.962000000000e+01 0.0 
0.0 -1.962000000000e+01 0.0 
0.0 -1.962000000000e+01 0.0 
0.0 -1.962000000000e+01 0.0 
0.0 -1.962000000000e+01 0.0 
0.0 -1.962000000000e+01 0.0 
0.0 -1.962000000000e+01 0.0 
0.0 -1.962000000000e+01 0.0 
0.0 -1.962000000000e+01 0.0 
0.0 -1.962000000000e+01 0.0 
0.0 -1.962000000000e+01 0.0 
0.0 -1.962000000000e+01 0.0 
0.0 -1.962000000000e+01 0.0 
0.0 -1.962000000000e+01 0.0 
0.0 -1.962000000000e+01 0.0 
0.0 -1.962000000000e+01 0.0 
0.0 -1.962000000000e+01 0.0 
0.0 -1.962000000000e+01 0.0 
0.0 -1.962000000000e+01 0.0 
0.0 -1.962000000000e+01 0.0 
0.0 -1.962000000000e+01 0.0 
0.0 -1.962000000000e+01 0.0 
0.0 -1.962000000000e+01 0.0 
0.0 -1.962000000000e+01 0.0 
0.0 -1.962000000000e+01 0.0 
0.0 -1.962000000000e+01 0.0 
0.0 -1.962000000000e+01 0.0 
0.0 -1.962000000000e+01 0.0 
0.0 -1.962000000000e+01 0.0 
0.0 -1.962000000000e+01 0.0 
0.0 -1.962000000000e+01 0.0 
0.0 -1.962000000000e+01 0.0 
0.0 -1.962000000000e+01 0.0 
0.0 -1.962000000000e+01 0.0 
0.0 -1.962000000000e+01 0.0 
0.0 -1.962000000000e+01 0.0 
0.0 -1.962000000000e+01 0.0 
0.0 -1.962000000000e+01 0.0 
0.0 -1.962000000000e+01 0.0 
0.0 -1.962000000000e+01 0.0 
0.0 -1.962000000000e+01 0.0 
0.0 -1.962000000000e+01 0.0 
0.0 -1.962000000000e+01 0.0 
0.0 -1.962000000000e+01 0.0 
0.0 -1.962000000000e+01 0.0 
0.0 -1.962000000000e+01 0.0 
0.0 -1.962000000000e+01 0.0 
0.0 -1.962000000000e+01 0.0 
0.0 -1.962000000000e+01 0.0 
0.0 -1.962000000000e+01 0.0 
0.0 -1.962000000000e+01 0.0 
0.0 -1.962000000000e+01 0.0 
0.0 -1.962000000000e+01 0.0 
0.0 -1.962000000000e+01 0.0 
0.0 -1.962000000000e+01 0.0 
0.0 -1.962000000000e+01 0.0 
0.0 -1.962000000000e+01 0.0 
0.0 -1.962000000000e+01 0.0 
0.0 -1.962000000000e+01 0.0 
0.0 -1.962000000000e+01 0.0 
0.0 -1.962000000000e+01 0.0 
0.0 -1.962000000000e+01 0.0 
0.0 -1.962000000000e+01 0.0 
0.0 -1.962000000000e+01 0.0 
0.0 -1.962000000000e+01 0.0 
0.0 -1.962000000000e+01 0.0 
0.0 -1.962000000000e+01 0.0 
0.0 -1.962000000000e+01 0.0 
0.0 -1.962000000000e+01 0.0 
0.0 -1.962000000000e+01 0.0 
0.0 -1.962000000000e+01 0.0 
0.0 -1.962000000000e+01 0.0 
0.0 -1.962000000000e+01 0.0 
0.0 -1.962000000000e+01 0.0 
0.0 -1.962000000000e+01 0.0 
0.0 -1.962000000000e+01 0.0 
0.0 -1.962000000000e+01 0.0 
0.0 -1.962000000000e+01 0.0 
0.0 -1.962000000000e+01 0.0 
0.0 -1.962000000000e+01 0.0 
0.0 -1.962000000000e+01 0.0 
0.0 -1.962000000000e+01 0.0 
0.0 -1.962000000000e+01 0.0 
0.0 -1.962000000000e+01 0.0 
0.0 -1.962000000000e+01 0.0 
0.0 -1.962000000000e+01 0.0 
0.0 -1.962000000000e+01 0.0 
0.0 -1.962000000000e+01 0.0 
0.0 -1.962000000000e+01 0.0 
0.0 -1.962000000000e+01 0.0 
0.0 -1.962000000000e+01 0.0 
0.0 -1.962000000000e+01 0.0 
0.0 -1.962000000000e+01 0.0 
0.0 -1.962000000000e+01 0.0 
0.0 -1.962000000000e+01 0.0 
0.0 -1.962000000000e+01 0.0 
0.0 -1.962000000000e+01 0.0 
0.0 -1.962000000000e+01 0.0 
0.0 -1.962000000000e+01 0.0 
0.0 -1.962000000000e+01 0.0 
0.0 -1.962000000000e+01 0.0 
0.0 -1.962000000000e+01 0.0 
0.0 -1.962000000000e+01 0.0 
0.0 -1.962000000000e+01 0.0 
0.0 -1.962000000000e+01 0.0 
0.0 -1.962000000000e+01 0.0 
0.0 -1.962000000000e+01 0.0 
0.0 -1.962000000000e+01 0.0 
0.0 -1.962000000000e+01 0.0 
0.0 -1.962000000000e+01 0.0 
0.0 -1.962000000000e+01 0.0 
0.0 -1.962000000000e+01 0.0 
0.0 -1.962000000000e+01 0.0 
0.0 -1.962000000000e+01 0.0 
0.0 -1.962000000000e+01 0.0 
0.0 -1.962000000000e+01 0.0 
0.0 -1.962000000000e+01 0.0 
0.0 -1.962000000000e+01 0.0 
0.0 -1.962000000000e+01 0.0 
0.0 -1.962000000000e+01 0.0 
0.0 -1.962000000000e+01 0.0 
0.0 -1.962000000000e+01 0.0 
0.0 -1.962000000000e+01 0.0 
0.0 -1.962000000000e+01 0.0 
0.0 -1.962000000000e+01 0.0 
0.0 -1.962000000000e+01 0.0 
0.0 -1.962000000000e+01 0.0 
0.0 -1.962000000000e+01 0.0 
0.0 -1.962000000000e+01 0.0 
0.0 -1.962000000000e+01 0.0 
0.0 -1.962000000000e+01 0.0 
0.0 -1.962000000000e+01 0.0 
0.0 -1.962000000000e+01 0.0 
0.0 -1.962000000000e+01 0.0 
0.0 -1.962000000000e+01 0.0 
0.0 -1.962000000000e+01 0.0 
0.0 -1.962000000000e+01 0.0 
0.0 -1.962000000000e+01 0.0 
0.0 -1.962000000000e+01 0.0 
0.0 -1.962000000000e+01 0.0 
0.0 -1.962000000000e+01 0.0 
0.0 -1.962000000000e+01 0.0 
0.0 -1.962000000000e+01 0.0 
0.0 -1.962000000000e+01 0.0 
0.0 -1.962000000000e+01 0.0 
0.0 -1.962000000000e+01 0.0 
0.0 -1.962000000000e+01 0.0 
0.0 -1.962000000000e+01 0.0 
0.0 -1.962000000000e+01 0.0 
0.0 -1.962000000000e+01 0.0 
0.0 -1.962000000000e+01 0.0 
0.0 -1.962000000000e+01 0.0 
0.0 -1.962000000000e+01 0.0 
0.0 -1.962000000000e+01 0.0 
0.0 -1.962000000000e+01 0.0 
0.0 -1.962000000000e+01 0.0 
0.0 -1.962000000000e+01 0.0 
0.0 -1.962000000000e+01 0.0 
0.0 -1.962000000000e+01 0.0 
0.0 -1.962000000000e+01 0.0 
0.0 -1.962000000000e+01 0.0 
0.0 -1.962000000000e+01 0.0 
0.0 -1.962000000000e+01 0.0 
0.0 -1.962000000000e+01 0.0 
0.0 -1.962000000000e+01 0.0 
0.0 -1.962000000000e+01 0.0 
0.0 -1.962000000000e+01 0.0 
0.0 -1.962000000000e+01 0.0 
0.0 -1.962000000000e+01 0.0 
0.0 -1.962000000000e+01 0.0 
0.0 -1.962000000000e+01 0.0 
0.0 -1.962000000000e+01 0.0 
0.0 -1.962000000000e+01 0.0 
0.0 -1.962000000000e+01 0.0 
0.0 -1.962000000000e+01 0.0 
0.0 -1.962000000000e+01 0.0 
0.0 -1.962000000000e+01 0.0 
0.0 -1.962000000000e+01 0.0 
0.0 -1.962000000000e+01 0.0 
0.0 -1.962000000000e+01 0.0 
0.0 -1.962000000000e+01 0.0 
0.0 -1.962000000000e+01 0.0 
0.0 -1.962000000000e+01 0.0 
0.0 -1.962000000000e+01 0.0 
0.0 -1.962000000000e+01 0.0 
0.0 -1.962000000000e+01 0.0 
0.0 -1.962000000000e+01 0.0 
0.0 -1.962000000000e+01 0.0 
0.0 -1.962000000000e+01 0.0 
0.0 -1.962000000000e+01 0.0 
0.0 -1.962000000000e+01 0.0 
0.0 -1.962000000000e+01 0.0 
0.0 -1.962000000000e+01 0.0 
0.0 -1.962000000000e+01 0.0 
0.0 -1.962000000000e+01 0.0 
0.0 -1.962000000000e+01 0.0 
0.0 -1.962000000000e+01 0.0 
0.0 -1.962000000000e+01 0.0 
0.0 -1.962000000000e+01 0.0 
0.0 -1.962000000000e+01 0.0 
0.0 -1.962000000000e+01 0.0 
0.0 -1.962000000000e+01 0.0 
0.0 -1.962000000000e+01 0.0 
0.0 -1.962000000000e+01 0.0 
0.0 -1.962000000000e+01 0.0 
0.0 -1.962000000000e+01 0.0 
0.0 -1.962000000000e+01 0.0 
0.0 -1.962000000000e+01 0.0 
0.0 -1.962000000000e+01 0.0 
0.0 -1.962000000000e+01 0.0 
0.0 -1.962000000000e+01 0.0 
0.0 -1.962000000000e+01 0.0 
0.0 -1.962000000000e+01 0.0 
0.0 -1.962000000000e+01 0.0 
0.0 -1.962000000000e+01 0.0 
0.0 -1.962000000000e+01 0.0 
0.0 -1.962000000000e+01 0.0 
0.0 -1.962000000000e+01 0.0 
0.0 -1.962000000000e+01 0.0 
0.0 -1.962000000000e+01 0.0 
0.0 -1.962000000000e+01 0.0 
0.0 -1.962000000000e+01 0.0 
0.0 -1.962000000000e+01 0.0 
0.0 -1.962000000000e+01 0.0 
0.0 -1.962000000000e+01 0.0 
0.0 -1.962000000000e+01 0.0 
0.0 -1.962000000000e+01 0.0 
0.0 -1.962000000000e+01 0.0 
0.0 -1.962000000000e+01 0.0 
0.0 -1.962000000000e+01 0.0 
0.0 -1.962000000000e+01 0.0 
0.0 -1.962000000000e+01 0.0 
0.0 -1.962000000000e+01 0.0 

VECTORS node_rhside_materi_fixed float
6.002278532822e-01 0.0 0.0 
1.150427907406e+01 0.0 0.0 
-8.355755918215e+01 -1.995136263700e+02 0.0 
4.217065636385e+01 -1.018459287727e+02 0.0 
-1.599717009708e+00 0.0 0.0 
-9.827050653636e+00 0.0 0.0 
-1.871909957687e+01 0.0 0.0 
-2.897068313493e+01 0.0 0.0 
-3.793944775436e+01 0.0 0.0 
-4.683974003270e+01 0.0 0.0 
-5.548910929468e+01 0.0 0.0 
-6.393548800311e+01 0.0 0.0 
-7.222398166637e+01 0.0 0.0 
-8.040783335326e+01 0.0 0.0 
-8.909264496787e+01 0.0 0.0 
-9.769335184669e+01 0.0 0.0 
-1.058291166507e+02 0.0 0.0 
-1.148034958068e+02 0.0 0.0 
-1.237274165801e+02 0.0 0.0 
-1.328111965740e+02 0.0 0.0 
-1.420504519329e+02 0.0 0.0 
-1.513798488741e+02 0.0 0.0 
-1.611858287059e+02 0.0 0.0 
1.359561704513e+00 -2.023804638534e+02 0.0 
2.388858895167e+00 -2.039963383216e+02 0.0 
6.163313049729e+00 -2.033198096447e+02 0.0 
5.170093845978e+00 -2.038357908636e+02 0.0 
8.925663975422e+00 -2.055306596859e+02 0.0 
1.052791793666e+01 -2.056088018071e+02 0.0 
1.241281801302e+01 -2.077526015473e+02 0.0 
1.484375658429e+01 -2.100123207698e+02 0.0 
1.905935779802e+01 -2.115063311975e+02 0.0 
1.890795492012e+01 -2.144932288060e+02 0.0 
2.409457101027e+01 -2.195263320155e+02 0.0 
2.671953612297e+01 -2.228480529717e+02 0.0 
2.941336839263e+01 -2.292566686797e+02 0.0 
3.214677910546e+01 -2.349278759917e+02 0.0 
3.507862949841e+01 -2.419849190003e+02 0.0 
3.730312107834e+01 -2.503043943376e+02 0.0 
4.053863756134e+01 -2.586399964857e+02 0.0 
4.187363683438e+01 -2.676851556973e+02 0.0 
4.320314266243e+01 -2.770690253525e+02 0.0 
4.392773727967e+01 -2.862828073436e+02 0.0 
4.402170931691e+01 -2.957844027999e+02 0.0 
4.440870720486e+01 -3.058127203900e+02 0.0 
4.378383248766e+01 -3.151262875100e+02 0.0 
4.303308805004e+01 -3.242777039087e+02 0.0 
4.189613005182e+01 -3.332911650933e+02 0.0 
4.013354490785e+01 -3.417053364553e+02 0.0 
3.831049718163e+01 -3.495943237791e+02 0.0 
3.617857524198e+01 -3.569907688836e+02 0.0 
3.405294629827e+01 -3.639482182024e+02 0.0 
3.109736938642e+01 -3.700137547942e+02 0.0 
2.910299365705e+01 -3.753641779012e+02 0.0 
2.608235354655e+01 -3.805336408093e+02 0.0 
2.345905069371e+01 -3.844908992689e+02 0.0 
2.086479196023e+01 -3.881132781295e+02 0.0 
1.823791278539e+01 -3.909939025600e+02 0.0 
1.587948733528e+01 -3.933757225603e+02 0.0 
1.371086574788e+01 -3.951441458432e+02 0.0 
1.157753982927e+01 -3.966249184824e+02 0.0 
9.763497482038e+00 -3.975280784548e+02 0.0 
8.153330067855e+00 -3.985713582547e+02 0.0 
6.604950304159e+00 -3.988018313295e+02 0.0 
5.447665326194e+00 -3.989151377439e+02 0.0 
4.376895643663e+00 -3.988330435266e+02 0.0 
3.422679939613e+00 -3.995606019014e+02 0.0 
2.528295235412e+00 -3.986776514019e+02 0.0 
1.824232235667e+00 -3.992649020975e+02 0.0 
1.696524215776e+00 -3.985995722162e+02 0.0 
8.097430530314e-01 -3.987205284142e+02 0.0 
4.245624353772e-01 -3.985207977729e+02 0.0 
2.733668456961e+01 0.0 0.0 
3.568251717226e+01 0.0 0.0 
4.343125185494e+01 0.0 0.0 
5.071372817553e+01 0.0 0.0 
5.774340186061e+01 0.0 0.0 
6.475091126729e+01 0.0 0.0 
7.081609208389e+01 0.0 0.0 
7.599468729641e+01 0.0 0.0 
8.239639613874e+01 0.0 0.0 
0.0 0.0 0.0 
0.0 0.0 0.0 
0.0 0.0 0.0 
0.0 0.0 0.0 
0.0 0.0 0.0 
0.0 0.0 0.0 
0.0 0.0 0.0 
0.0 0.0 0.0 
0.0 0.0 0.0 
0.0 0.0 0.0 
0.0 0.0 0.0 
0.0 0.0 0.0 
0.0 0.0 0.0 
0.0 0.0 0.0 
0.0 0.0 0.0 
0.0 0.0 0.0 
0.0 0.0 0.0 
0.0 0.0 0.0 
0.0 0.0 0.0 
0.0 0.0 0.0 
0.0 0.0 0.0 
0.0 0.0 0.0 
0.0 0.0 0.0 
0.0 0.0 0.0 
0.0 0.0 0.0 
0.0 0.0 0.0 
0.0 0.0 0.0 
0.0 0.0 0.0 
0.0 0.0 0.0 
0.0 0.0 0.0 
0.0 0.0 0.0 
0.0 0.0 0.0 
0.0 0.0 0.0 
0.0 0.0 0.0 
0.0 0.0 0.0 
0.0 0.0 0.0 
0.0 0.0 0.0 
0.0 0.0 0.0 
0.0 0.0 0.0 
0.0 0.0 0.0 
0.0 0.0 0.0 
0.0 0.0 0.0 
0.0 0.0 0.0 
0.0 0.0 0.0 
0.0 0.0 0.0 
0.0 0.0 0.0 
0.0 0.0 0.0 
0.0 0.0 0.0 
0.0 0.0 0.0 
0.0 0.0 0.0 
0.0 0.0 0.0 
0.0 0.0 0.0 
0.0 0.0 0.0 
0.0 0.0 0.0 
0.0 0.0 0.0 
0.0 0.0 0.0 
0.0 0.0 0.0 
0.0 0.0 0.0 
0.0 0.0 0.0 
0.0 0.0 0.0 
0.0 0.0 0.0 
0.0 0.0 0.0 
0.0 0.0 0.0 
0.0 0.0 0.0 
0.0 0.0 0.0 
0.0 0.0 0.0 
0.0 0.0 0.0 
0.0 0.0 0.0 
0.0 0.0 0.0 
0.0 0.0 0.0 
0.0 0.0 0.0 
0.0 0.0 0.0 
0.0 0.0 0.0 
0.0 0.0 0.0 
0.0 0.0 0.0 
0.0 0.0 0.0 
0.0 0.0 0.0 
0.0 0.0 0.0 
0.0 0.0 0.0 
0.0 0.0 0.0 
0.0 0.0 0.0 
0.0 0.0 0.0 
0.0 0.0 0.0 
0.0 0.0 0.0 
0.0 0.0 0.0 
0.0 0.0 0.0 
0.0 0.0 0.0 
0.0 0.0 0.0 
0.0 0.0 0.0 
0.0 0.0 0.0 
0.0 0.0 0.0 
0.0 0.0 0.0 
0.0 0.0 0.0 
0.0 0.0 0.0 
0.0 0.0 0.0 
0.0 0.0 0.0 
0.0 0.0 0.0 
0.0 0.0 0.0 
0.0 0.0 0.0 
0.0 0.0 0.0 
0.0 0.0 0.0 
0.0 0.0 0.0 
0.0 0.0 0.0 
0.0 0.0 0.0 
0.0 0.0 0.0 
0.0 0.0 0.0 
0.0 0.0 0.0 
0.0 0.0 0.0 
0.0 0.0 0.0 
0.0 0.0 0.0 
0.0 0.0 0.0 
0.0 0.0 0.0 
0.0 0.0 0.0 
0.0 0.0 0.0 
0.0 0.0 0.0 
0.0 0.0 0.0 
0.0 0.0 0.0 
0.0 0.0 0.0 
0.0 0.0 0.0 
0.0 0.0 0.0 
0.0 0.0 0.0 
0.0 0.0 0.0 
0.0 0.0 0.0 
0.0 0.0 0.0 
0.0 0.0 0.0 
0.0 0.0 0.0 
0.0 0.0 0.0 
0.0 0.0 0.0 
0.0 0.0 0.0 
0.0 0.0 0.0 
0.0 0.0 0.0 
0.0 0.0 0.0 
0.0 0.0 0.0 
0.0 0.0 0.0 
0.0 0.0 0.0 
0.0 0.0 0.0 
0.0 0.0 0.0 
0.0 0.0 0.0 
0.0 0.0 0.0 
0.0 0.0 0.0 
0.0 0.0 0.0 
0.0 0.0 0.0 
0.0 0.0 0.0 
0.0 0.0 0.0 
0.0 0.0 0.0 
0.0 0.0 0.0 
0.0 0.0 0.0 
0.0 0.0 0.0 
0.0 0.0 0.0 
0.0 0.0 0.0 
0.0 0.0 0.0 
0.0 0.0 0.0 
0.0 0.0 0.0 
0.0 0.0 0.0 
0.0 0.0 0.0 
0.0 0.0 0.0 
0.0 0.0 0.0 
0.0 0.0 0.0 
0.0 0.0 0.0 
0.0 0.0 0.0 
0.0 0.0 0.0 
0.0 0.0 0.0 
0.0 0.0 0.0 
0.0 0.0 0.0 
0.0 0.0 0.0 
0.0 0.0 0.0 
0.0 0.0 0.0 
0.0 0.0 0.0 
0.0 0.0 0.0 
0.0 0.0 0.0 
0.0 0.0 0.0 
0.0 0.0 0.0 
0.0 0.0 0.0 
0.0 0.0 0.0 
0.0 0.0 0.0 
0.0 0.0 0.0 
0.0 0.0 0.0 
0.0 0.0 0.0 
0.0 0.0 0.0 
0.0 0.0 0.0 
0.0 0.0 0.0 
0.0 0.0 0.0 
0.0 0.0 0.0 
0.0 0.0 0.0 
0.0 0.0 0.0 
0.0 0.0 0.0 
0.0 0.0 0.0 
0.0 0.0 0.0 
0.0 0.0 0.0 
0.0 0.0 0.0 
0.0 0.0 0.0 
0.0 0.0 0.0 
0.0 0.0 0.0 
0.0 0.0 0.0 
0.0 0.0 0.0 
0.0 0.0 0.0 
0.0 0.0 0.0 
0.0 0.0 0.0 
0.0 0.0 0.0 
0.0 0.0 0.0 
0.0 0.0 0.0 
0.0 0.0 0.0 
0.0 0.0 0.0 
0.0 0.0 0.0 
0.0 0.0 0.0 
0.0 0.0 0.0 
0.0 0.0 0.0 
0.0 0.0 0.0 
0.0 0.0 0.0 
0.0 0.0 0.0 
0.0 0.0 0.0 
0.0 0.0 0.0 
0.0 0.0 0.0 
0.0 0.0 0.0 
0.0 0.0 0.0 
0.0 0.0 0.0 
0.0 0.0 0.0 
0.0 0.0 0.0 
0.0 0.0 0.0 
0.0 0.0 0.0 
0.0 0.0 0.0 
0.0 0.0 0.0 
0.0 0.0 0.0 
0.0 0.0 0.0 
0.0 0.0 0.0 
0.0 0.0 0.0 
0.0 0.0 0.0 
0.0 0.0 0.0 
0.0 0.0 0.0 
0.0 0.0 0.0 
0.0 0.0 0.0 
0.0 0.0 0.0 
0.0 0.0 0.0 
0.0 0.0 0.0 
0.0 0.0 0.0 
0.0 0.0 0.0 
0.0 0.0 0.0 
0.0 0.0 0.0 
0.0 0.0 0.0 
0.0 0.0 0.0 
0.0 0.0 0.0 
0.0 0.0 0.0 
0.0 0.0 0.0 
0.0 0.0 0.0 
0.0 0.0 0.0 
0.0 0.0 0.0 
0.0 0.0 0.0 
0.0 0.0 0.0 
0.0 0.0 0.0 
0.0 0.0 0.0 
0.0 0.0 0.0 
0.0 0.0 0.0 
0.0 0.0 0.0 
0.0 0.0 0.0 
0.0 0.0 0.0 
0.0 0.0 0.0 
0.0 0.0 0.0 
0.0 0.0 0.0 
0.0 0.0 0.0 
0.0 0.0 0.0 
0.0 0.0 0.0 
0.0 0.0 0.0 
0.0 0.0 0.0 
0.0 0.0 0.0 
0.0 0.0 0.0 
0.0 0.0 0.0 
0.0 0.0 0.0 
0.0 0.0 0.0 
0.0 0.0 0.0 
0.0 0.0 0.0 
0.0 0.0 0.0 
0.0 0.0 0.0 
0.0 0.0 0.0 
0.0 0.0 0.0 
0.0 0.0 0.0 
0.0 0.0 0.0 
0.0 0.0 0.0 
0.0 0.0 0.0 
0.0 0.0 0.0 
0.0 0.0 0.0 
0.0 0.0 0.0 
0.0 0.0 0.0 
0.0 0.0 0.0 
0.0 0.0 0.0 
0.0 0.0 0.0 
0.0 0.0 0.0 
0.0 0.0 0.0 
0.0 0.0 0.0 
0.0 0.0 0.0 
0.0 0.0 0.0 
0.0 0.0 0.0 
0.0 0.0 0.0 
0.0 0.0 0.0 
0.0 0.0 0.0 
0.0 0.0 0.0 
0.0 0.0 0.0 
0.0 0.0 0.0 
0.0 0.0 0.0 
0.0 0.0 0.0 
0.0 0.0 0.0 
0.0 0.0 0.0 
0.0 0.0 0.0 
0.0 0.0 0.0 
0.0 0.0 0.0 
0.0 0.0 0.0 
0.0 0.0 0.0 
0.0 0.0 0.0 
0.0 0.0 0.0 
0.0 0.0 0.0 
0.0 0.0 0.0 
0.0 0.0 0.0 
0.0 0.0 0.0 
0.0 0.0 0.0 
0.0 0.0 0.0 
0.0 0.0 0.0 
0.0 0.0 0.0 
0.0 0.0 0.0 
0.0 0.0 0.0 
0.0 0.0 0.0 
0.0 0.0 0.0 
0.0 0.0 0.0 
0.0 0.0 0.0 
0.0 0.0 0.0 
0.0 0.0 0.0 
0.0 0.0 0.0 
0.0 0.0 0.0 
0.0 0.0 0.0 
0.0 0.0 0.0 
0.0 0.0 0.0 
0.0 0.0 0.0 
0.0 0.0 0.0 
0.0 0.0 0.0 
0.0 0.0 0.0 
0.0 0.0 0.0 
0.0 0.0 0.0 
0.0 0.0 0.0 
0.0 0.0 0.0 
0.0 0.0 0.0 
0.0 0.0 0.0 
0.0 0.0 0.0 
0.0 0.0 0.0 
0.0 0.0 0.0 
0.0 0.0 0.0 
0.0 0.0 0.0 
0.0 0.0 0.0 
0.0 0.0 0.0 
0.0 0.0 0.0 
0.0 0.0 0.0 
0.0 0.0 0.0 
0.0 0.0 0.0 
0.0 0.0 0.0 
0.0 0.0 0.0 
0.0 0.0 0.0 
0.0 0.0 0.0 
0.0 0.0 0.0 
0.0 0.0 0.0 
0.0 0.0 0.0 
0.0 0.0 0.0 
0.0 0.0 0.0 
0.0 0.0 0.0 
0.0 0.0 0.0 
0.0 0.0 0.0 
0.0 0.0 0.0 
0.0 0.0 0.0 
0.0 0.0 0.0 
0.0 0.0 0.0 
0.0 0.0 0.0 
0.0 0.0 0.0 
0.0 0.0 0.0 
0.0 0.0 0.0 
0.0 0.0 0.0 
0.0 0.0 0.0 
0.0 0.0 0.0 
0.0 0.0 0.0 
0.0 0.0 0.0 
0.0 0.0 0.0 
0.0 0.0 0.0 
0.0 0.0 0.0 
0.0 0.0 0.0 
0.0 0.0 0.0 
0.0 0.0 0.0 
0.0 0.0 0.0 
0.0 0.0 0.0 
0.0 0.0 0.0 
0.0 0.0 0.0 
0.0 0.0 0.0 
0.0 0.0 0.0 
0.0 0.0 0.0 
0.0 0.0 0.0 
0.0 0.0 0.0 
0.0 0.0 0.0 
0.0 0.0 0.0 
0.0 0.0 0.0 
0.0 0.0 0.0 
0.0 0.0 0.0 
0.0 0.0 0.0 
0.0 0.0 0.0 
0.0 0.0 0.0 
0.0 0.0 0.0 
0.0 0.0 0.0 
0.0 0.0 0.0 
0.0 0.0 0.0 
0.0 0.0 0.0 
0.0 0.0 0.0 
0.0 0.0 0.0 
0.0 0.0 0.0 
0.0 0.0 0.0 
0.0 0.0 0.0 
0.0 0.0 0.0 
0.0 0.0 0.0 
0.0 0.0 0.0 
0.0 0.0 0.0 
0.0 0.0 0.0 
0.0 0.0 0.0 
0.0 0.0 0.0 
0.0 0.0 0.0 
0.0 0.0 0.0 
0.0 0.0 0.0 
0.0 0.0 0.0 
0.0 0.0 0.0 
0.0 0.0 0.0 
0.0 0.0 0.0 
0.0 0.0 0.0 
0.0 0.0 0.0 
0.0 0.0 0.0 
0.0 0.0 0.0 
0.0 0.0 0.0 
0.0 0.0 0.0 
0.0 0.0 0.0 
0.0 0.0 0.0 
0.0 0.0 0.0 
0.0 0.0 0.0 
0.0 0.0 0.0 
0.0 0.0 0.0 
0.0 0.0 0.0 
0.0 0.0 0.0 
0.0 0.0 0.0 
0.0 0.0 0.0 
0.0 0.0 0.0 
0.0 0.0 0.0 
0.0 0.0 0.0 
0.0 0.0 0.0 
0.0 0.0 0.0 
0.0 0.0 0.0 
0.0 0.0 0.0 
0.0 0.0 0.0 
0.0 0.0 0.0 
0.0 0.0 0.0 
0.0 0.0 0.0 
0.0 0.0 0.0 
0.0 0.0 0.0 
0.0 0.0 0.0 
0.0 0.0 0.0 
0.0 0.0 0.0 
0.0 0.0 0.0 
0.0 0.0 0.0 
0.0 0.0 0.0 
0.0 0.0 0.0 
0.0 0.0 0.0 
0.0 0.0 0.0 
0.0 0.0 0.0 
0.0 0.0 0.0 
0.0 0.0 0.0 
0.0 0.0 0.0 
0.0 0.0 0.0 
0.0 0.0 0.0 
0.0 0.0 0.0 
0.0 0.0 0.0 
0.0 0.0 0.0 
0.0 0.0 0.0 
0.0 0.0 0.0 
0.0 0.0 0.0 
0.0 0.0 0.0 
0.0 0.0 0.0 
0.0 0.0 0.0 
0.0 0.0 0.0 
0.0 0.0 0.0 
0.0 0.0 0.0 
0.0 0.0 0.0 
0.0 0.0 0.0 
0.0 0.0 0.0 
0.0 0.0 0.0 
0.0 0.0 0.0 
0.0 0.0 0.0 
0.0 0.0 0.0 
0.0 0.0 0.0 
0.0 0.0 0.0 
0.0 0.0 0.0 
0.0 0.0 0.0 
0.0 0.0 0.0 
0.0 0.0 0.0 
0.0 0.0 0.0 
0.0 0.0 0.0 
0.0 0.0 0.0 
0.0 0.0 0.0 
0.0 0.0 0.0 
0.0 0.0 0.0 
0.0 0.0 0.0 
0.0 0.0 0.0 
0.0 0.0 0.0 
0.0 0.0 0.0 
0.0 0.0 0.0 
0.0 0.0 0.0 
0.0 0.0 0.0 
0.0 0.0 0.0 
0.0 0.0 0.0 
0.0 0.0 0.0 
0.0 0.0 0.0 
0.0 0.0 0.0 
0.0 0.0 0.0 
0.0 0.0 0.0 
0.0 0.0 0.0 
0.0 0.0 0.0 
0.0 0.0 0.0 
0.0 0.0 0.0 
0.0 0.0 0.0 
0.0 0.0 0.0 
0.0 0.0 0.0 
0.0 0.0 0.0 
0.0 0.0 0.0 
0.0 0.0 0.0 
0.0 0.0 0.0 
0.0 0.0 0.0 
0.0 0.0 0.0 
0.0 0.0 0.0 
0.0 0.0 0.0 
0.0 0.0 0.0 
0.0 0.0 0.0 
0.0 0.0 0.0 
0.0 0.0 0.0 
0.0 0.0 0.0 
0.0 0.0 0.0 
0.0 0.0 0.0 
0.0 0.0 0.0 
0.0 0.0 0.0 
0.0 0.0 0.0 
0.0 0.0 0.0 
0.0 0.0 0.0 
0.0 0.0 0.0 
0.0 0.0 0.0 
0.0 0.0 0.0 
0.0 0.0 0.0 
0.0 0.0 0.0 
0.0 0.0 0.0 
0.0 0.0 0.0 
0.0 0.0 0.0 
0.0 0.0 0.0 
0.0 0.0 0.0 
0.0 0.0 0.0 
0.0 0.0 0.0 
0.0 0.0 0.0 
0.0 0.0 0.0 
0.0 0.0 0.0 
0.0 0.0 0.0 
0.0 0.0 0.0 
0.0 0.0 0.0 
0.0 0.0 0.0 
0.0 0.0 0.0 
0.0 0.0 0.0 
0.0 0.0 0.0 
0.0 0.0 0.0 
0.0 0.0 0.0 
0.0 0.0 0.0 
0.0 0.0 0.0 
0.0 0.0 0.0 
0.0 0.0 0.0 
0.0 0.0 0.0 
0.0 0.0 0.0 
0.0 0.0 0.0 
0.0 0.0 0.0 
0.0 0.0 0.0 
0.0 0.0 0.0 
0.0 0.0 0.0 
0.0 0.0 0.0 
0.0 0.0 0.0 
0.0 0.0 0.0 
0.0 0.0 0.0 
0.0 0.0 0.0 
0.0 0.0 0.0 
0.0 0.0 0.0 
0.0 0.0 0.0 
0.0 0.0 0.0 
0.0 0.0 0.0 
0.0 0.0 0.0 
0.0 0.0 0.0 
0.0 0.0 0.0 
0.0 0.0 0.0 
0.0 0.0 0.0 
0.0 0.0 0.0 
0.0 0.0 0.0 
0.0 0.0 0.0 
0.0 0.0 0.0 
0.0 0.0 0.0 
0.0 0.0 0.0 
0.0 0.0 0.0 
0.0 0.0 0.0 
0.0 0.0 0.0 
0.0 0.0 0.0 
0.0 0.0 0.0 
0.0 0.0 0.0 
0.0 0.0 0.0 
0.0 0.0 0.0 
0.0 0.0 0.0 
0.0 0.0 0.0 
0.0 0.0 0.0 
0.0 0.0 0.0 
0.0 0.0 0.0 
0.0 0.0 0.0 
0.0 0.0 0.0 
0.0 0.0 0.0 
0.0 0.0 0.0 
0.0 0.0 0.0 
0.0 0.0 0.0 
0.0 0.0 0.0 
0.0 0.0 0.0 
0.0 0.0 0.0 
0.0 0.0 0.0 
0.0 0.0 0.0 
0.0 0.0 0.0 
0.0 0.0 0.0 
0.0 0.0 0.0 
0.0 0.0 0.0 
0.0 0.0 0.0 
0.0 0.0 0.0 
0.0 0.0 0.0 
0.0 0.0 0.0 
0.0 0.0 0.0 
0.0 0.0 0.0 
0.0 0.0 0.0 
0.0 0.0 0.0 
0.0 0.0 0.0 
0.0 0.0 0.0 
0.0 0.0 0.0 
0.0 0.0 0.0 
0.0 0.0 0.0 
0.0 0.0 0.0 
0.0 0.0 0.0 
0.0 0.0 0.0 
0.0 0.0 0.0 
0.0 0.0 0.0 
0.0 0.0 0.0 
0.0 0.0 0.0 
0.0 0.0 0.0 
0.0 0.0 0.0 
0.0 0.0 0.0 
0.0 0.0 0.0 
0.0 0.0 0.0 
0.0 0.0 0.0 
0.0 0.0 0.0 
0.0 0.0 0.0 
0.0 0.0 0.0 
0.0 0.0 0.0 
0.0 0.0 0.0 
0.0 0.0 0.0 
0.0 0.0 0.0 
0.0 0.0 0.0 
0.0 0.0 0.0 
0.0 0.0 0.0 
0.0 0.0 0.0 
0.0 0.0 0.0 
0.0 0.0 0.0 
0.0 0.0 0.0 
0.0 0.0 0.0 
0.0 0.0 0.0 
0.0 0.0 0.0 
0.0 0.0 0.0 
0.0 0.0 0.0 
0.0 0.0 0.0 
0.0 0.0 0.0 
0.0 0.0 0.0 
0.0 0.0 0.0 
0.0 0.0 0.0 
0.0 0.0 0.0 
0.0 0.0 0.0 
0.0 0.0 0.0 
0.0 0.0 0.0 
0.0 0.0 0.0 
0.0 0.0 0.0 
0.0 0.0 0.0 
0.0 0.0 0.0 
0.0 0.0 0.0 
0.0 0.0 0.0 
0.0 0.0 0.0 
0.0 0.0 0.0 
0.0 0.0 0.0 
0.0 0.0 0.0 
0.0 0.0 0.0 
0.0 0.0 0.0 
0.0 0.0 0.0 
0.0 0.0 0.0 
0.0 0.0 0.0 
0.0 0.0 0.0 
0.0 0.0 0.0 
0.0 0.0 0.0 
0.0 0.0 0.0 
0.0 0.0 0.0 
0.0 0.0 0.0 
0.0 0.0 0.0 
0.0 0.0 0.0 
0.0 0.0 0.0 
0.0 0.0 0.0 
0.0 0.0 0.0 
0.0 0.0 0.0 
0.0 0.0 0.0 
0.0 0.0 0.0 
0.0 0.0 0.0 
0.0 0.0 0.0 
0.0 0.0 0.0 
0.0 0.0 0.0 
0.0 0.0 0.0 
0.0 0.0 0.0 
0.0 0.0 0.0 
0.0 0.0 0.0 
0.0 0.0 0.0 
0.0 0.0 0.0 
0.0 0.0 0.0 
0.0 0.0 0.0 
0.0 0.0 0.0 
0.0 0.0 0.0 
0.0 0.0 0.0 
0.0 0.0 0.0 
0.0 0.0 0.0 
0.0 0.0 0.0 
0.0 0.0 0.0 
0.0 0.0 0.0 
0.0 0.0 0.0 
0.0 0.0 0.0 
0.0 0.0 0.0 
0.0 0.0 0.0 
0.0 0.0 0.0 
0.0 0.0 0.0 
0.0 0.0 0.0 
0.0 0.0 0.0 
0.0 0.0 0.0 
0.0 0.0 0.0 
0.0 0.0 0.0 
0.0 0.0 0.0 
0.0 0.0 0.0 
0.0 0.0 0.0 
0.0 0.0 0.0 
0.0 0.0 0.0 
0.0 0.0 0.0 
0.0 0.0 0.0 
0.0 0.0 0.0 
0.0 0.0 0.0 
0.0 0.0 0.0 
0.0 0.0 0.0 
0.0 0.0 0.0 
0.0 0.0 0.0 
0.0 0.0 0.0 
0.0 0.0 0.0 
0.0 0.0 0.0 
0.0 0.0 0.0 
0.0 0.0 0.0 
0.0 0.0 0.0 
0.0 0.0 0.0 
0.0 0.0 0.0 
0.0 0.0 0.0 
0.0 0.0 0.0 
0.0 0.0 0.0 
0.0 0.0 0.0 
0.0 0.0 0.0 
0.0 0.0 0.0 
0.0 0.0 0.0 
0.0 0.0 0.0 
0.0 0.0 0.0 
0.0 0.0 0.0 
0.0 0.0 0.0 
0.0 0.0 0.0 
0.0 0.0 0.0 
0.0 0.0 0.0 
0.0 0.0 0.0 
0.0 0.0 0.0 
0.0 0.0 0.0 
0.0 0.0 0.0 
0.0 0.0 0.0 
0.0 0.0 0.0 
0.0 0.0 0.0 
0.0 0.0 0.0 
0.0 0.0 0.0 
0.0 0.0 0.0 
0.0 0.0 0.0 
0.0 0.0 0.0 
0.0 0.0 0.0 
0.0 0.0 0.0 
0.0 0.0 0.0 
0.0 0.0 0.0 
0.0 0.0 0.0 
0.0 0.0 0.0 
0.0 0.0 0.0 
0.0 0.0 0.0 
0.0 0.0 0.0 
0.0 0.0 0.0 
0.0 0.0 0.0 
0.0 0.0 0.0 
0.0 0.0 0.0 
0.0 0.0 0.0 
0.0 0.0 0.0 
0.0 0.0 0.0 
0.0 0.0 0.0 
0.0 0.0 0.0 
0.0 0.0 0.0 
0.0 0.0 0.0 
0.0 0.0 0.0 
0.0 0.0 0.0 
0.0 0.0 0.0 
0.0 0.0 0.0 
0.0 0.0 0.0 
0.0 0.0 0.0 
0.0 0.0 0.0 
0.0 0.0 0.0 
0.0 0.0 0.0 
0.0 0.0 0.0 
0.0 0.0 0.0 
0.0 0.0 0.0 
0.0 0.0 0.0 
0.0 0.0 0.0 
0.0 0.0 0.0 
0.0 0.0 0.0 
0.0 0.0 0.0 
0.0 0.0 0.0 
0.0 0.0 0.0 
0.0 0.0 0.0 
0.0 0.0 0.0 
0.0 0.0 0.0 
0.0 0.0 0.0 
0.0 0.0 0.0 
0.0 0.0 0.0 
0.0 0.0 0.0 
0.0 0.0 0.0 
0.0 0.0 0.0 
0.0 0.0 0.0 
0.0 0.0 0.0 
0.0 0.0 0.0 
0.0 0.0 0.0 
0.0 0.0 0.0 
0.0 0.0 0.0 
0.0 0.0 0.0 
0.0 0.0 0.0 
0.0 0.0 0.0 
0.0 0.0 0.0 
0.0 0.0 0.0 
0.0 0.0 0.0 
0.0 0.0 0.0 
0.0 0.0 0.0 
0.0 0.0 0.0 
0.0 0.0 0.0 
0.0 0.0 0.0 
0.0 0.0 0.0 
0.0 0.0 0.0 
0.0 0.0 0.0 
0.0 0.0 0.0 
0.0 0.0 0.0 
0.0 0.0 0.0 
0.0 0.0 0.0 
0.0 0.0 0.0 
0.0 0.0 0.0 
0.0 0.0 0.0 
0.0 0.0 0.0 
0.0 0.0 0.0 
0.0 0.0 0.0 
0.0 0.0 0.0 
0.0 0.0 0.0 
0.0 0.0 0.0 
0.0 0.0 0.0 
0.0 0.0 0.0 
0.0 0.0 0.0 
0.0 0.0 0.0 
0.0 0.0 0.0 
0.0 0.0 0.0 
0.0 0.0 0.0 
0.0 0.0 0.0 
0.0 0.0 0.0 
0.0 0.0 0.0 
0.0 0.0 0.0 
0.0 0.0 0.0 
0.0 0.0 0.0 
0.0 0.0 0.0 
0.0 0.0 0.0 
0.0 0.0 0.0 
0.0 0.0 0.0 
0.0 0.0 0.0 
0.0 0.0 0.0 
0.0 0.0 0.0 
0.0 0.0 0.0 
0.0 0.0 0.0 
0.0 0.0 0.0 
0.0 0.0 0.0 
0.0 0.0 0.0 
0.0 0.0 0.0 
0.0 0.0 0.0 
0.0 0.0 0.0 
0.0 0.0 0.0 
0.0 0.0 0.0 
0.0 0.0 0.0 
0.0 0.0 0.0 
0.0 0.0 0.0 
0.0 0.0 0.0 
0.0 0.0 0.0 
0.0 0.0 0.0 
0.0 0.0 0.0 
0.0 0.0 0.0 
0.0 0.0 0.0 
0.0 0.0 0.0 
0.0 0.0 0.0 
0.0 0.0 0.0 
0.0 0.0 0.0 
0.0 0.0 0.0 
0.0 0.0 0.0 
0.0 0.0 0.0 
0.0 0.0 0.0 
0.0 0.0 0.0 
0.0 0.0 0.0 
0.0 0.0 0.0 
0.0 0.0 0.0 
0.0 0.0 0.0 
0.0 0.0 0.0 
0.0 0.0 0.0 
0.0 0.0 0.0 
0.0 0.0 0.0 
0.0 0.0 0.0 
0.0 0.0 0.0 
0.0 0.0 0.0 
0.0 0.0 0.0 
0.0 0.0 0.0 
0.0 0.0 0.0 
0.0 0.0 0.0 
0.0 0.0 0.0 
0.0 0.0 0.0 
0.0 0.0 0.0 
0.0 0.0 0.0 
0.0 0.0 0.0 
0.0 0.0 0.0 
0.0 0.0 0.0 
0.0 0.0 0.0 
0.0 0.0 0.0 
0.0 0.0 0.0 
0.0 0.0 0.0 
0.0 0.0 0.0 
0.0 0.0 0.0 
0.0 0.0 0.0 
0.0 0.0 0.0 
0.0 0.0 0.0 
0.0 0.0 0.0 
0.0 0.0 0.0 
0.0 0.0 0.0 
0.0 0.0 0.0 

VECTORS node_materi_velocity float
0.0 -1.870634898551e-04 0.0 
0.0 1.006420565623e-02 0.0 
0.0 0.0 0.0 
0.0 0.0 0.0 
0.0 -1.783200603354e-04 0.0 
0.0 -1.610132066535e-04 0.0 
0.0 -1.471263225793e-04 0.0 
0.0 -1.354935962981e-04 0.0 
0.0 -1.242153237785e-04 0.0 
0.0 -1.128147793425e-04 0.0 
0.0 -1.011293873620e-04 0.0 
0.0 -8.914150302469e-05 0.0 
0.0 -7.695765105039e-05 0.0 
0.0 -6.474826426106e-05 0.0 
0.0 -5.277678412197e-05 0.0 
0.0 -4.133720437990e-05 0.0 
0.0 -3.065077061263e-05 0.0 
0.0 -2.076695375439e-05 0.0 
0.0 -1.234464396633e-05 0.0 
0.0 -5.594523464043e-06 0.0 
0.0 -7.295837590570e-07 0.0 
0.0 1.888677505268e-06 0.0 
0.0 2.003171743800e-06 0.0 
0.0 0.0 0.0 
0.0 0.0 0.0 
0.0 0.0 0.0 
0.0 0.0 0.0 
0.0 0.0 0.0 
0.0 0.0 0.0 
0.0 0.0 0.0 
0.0 0.0 0.0 
0.0 0.0 0.0 
0.0 0.0 0.0 
0.0 0.0 0.0 
0.0 0.0 0.0 
0.0 0.0 0.0 
0.0 0.0 0.0 
0.0 0.0 0.0 
0.0 0.0 0.0 
0.0 0.0 0.0 
0.0 0.0 0.0 
0.0 0.0 0.0 
0.0 0.0 0.0 
0.0 0.0 0.0 
0.0 0.0 0.0 
0.0 0.0 0.0 
0.0 0.0 0.0 
0.0 0.0 0.0 
0.0 0.0 0.0 
0.0 0.0 0.0 
0.0 0.0 0.0 
0.0 0.0 0.0 
0.0 0.0 0.0 
0.0 0.0 0.0 
0.0 0.0 0.0 
0.0 0.0 0.0 
0.0 0.0 0.0 
0.0 0.0 0.0 
0.0 0.0 0.0 
0.0 0.0 0.0 
0.0 0.0 0.0 
0.0 0.0 0.0 
0.0 0.0 0.0 
0.0 0.0 0.0 
0.0 0.0 0.0 
0.0 0.0 0.0 
0.0 0.0 0.0 
0.0 0.0 0.0 
0.0 0.0 0.0 
0.0 0.0 0.0 
0.0 0.0 0.0 
0.0 0.0 0.0 
0.0 9.054058168371e-03 0.0 
0.0 8.031157495271e-03 0.0 
0.0 7.005258813126e-03 0.0 
0.0 5.978201917192e-03 0.0 
0.0 4.953268191185e-03 0.0 
0.0 3.933763418212e-03 0.0 
0.0 2.923954372997e-03 0.0 
0.0 1.928916135360e-03 0.0 
0.0 9.536313186203e-04 0.0 
3.314409454644e-04 -2.474284869915e-04 0.0 
1.670384779609e-03 5.662001222505e-03 0.0 
3.439710090246e-04 -2.122512948614e-04 0.0 
3.586433582551e-04 -1.585305240871e-04 0.0 
3.768608790834e-04 -7.681023629628e-05 0.0 
4.019384885021e-04 4.916821050010e-05 0.0 
4.387687310626e-04 2.413070466258e-04 0.0 
5.041955859409e-04 5.369525838933e-04 0.0 
6.422794276068e-04 1.002435547717e-03 0.0 
9.886220228634e-04 1.743466149627e-03 0.0 
2.228702589411e-03 2.976595567252e-03 0.0 
1.434551737430e-04 1.011121598951e-02 0.0 
2.347420850381e-04 1.006275523367e-02 0.0 
3.366467686014e-04 1.005827979325e-02 0.0 
4.409215060219e-04 1.006902880355e-02 0.0 
5.450156418887e-04 1.004762379967e-02 0.0 
6.342968437467e-04 1.004042844869e-02 0.0 
7.049002285381e-04 9.998326984182e-03 0.0 
7.587433536747e-04 9.940330481747e-03 0.0 
7.764747249573e-04 9.818827297505e-03 0.0 
7.661084043772e-04 9.659483042911e-03 0.0 
7.189259437681e-04 9.390713676910e-03 0.0 
6.588094580883e-04 8.971953003117e-03 0.0 
6.503329366199e-04 8.353650978081e-03 0.0 
8.408267433287e-04 7.434219504689e-03 0.0 
3.348956729687e-04 -2.655674704628e-04 0.0 
3.382267644874e-04 -2.789039086998e-04 0.0 
3.397716863372e-04 -2.870574282260e-04 0.0 
3.391546069681e-04 -2.904585428282e-04 0.0 
3.353002696444e-04 -2.904142269842e-04 0.0 
3.284626581641e-04 -2.871183429250e-04 0.0 
3.187299744416e-04 -2.812822750993e-04 0.0 
3.062958002393e-04 -2.738261079223e-04 0.0 
2.914853745617e-04 -2.652354580678e-04 0.0 
2.745802399124e-04 -2.559576710649e-04 0.0 
2.559274558351e-04 -2.465136778801e-04 0.0 
2.359839540416e-04 -2.369232550689e-04 0.0 
2.150446627856e-04 -2.272929788418e-04 0.0 
1.927417421994e-04 -2.182410831059e-04 0.0 
1.675642439483e-04 -2.148925813485e-04 0.0 
1.418733493586e-04 -2.068427380715e-04 0.0 
1.188204271909e-04 -2.000541555540e-04 0.0 
1.030240012717e-04 -1.923995725106e-04 0.0 
7.198242201741e-06 -1.845970548362e-04 0.0 
3.378796313319e-04 -2.313930159673e-04 0.0 
3.509879580014e-04 -1.881917141513e-04 0.0 
3.672956595311e-04 -1.218948237125e-04 0.0 
3.881575378565e-04 -2.112937400344e-05 0.0 
4.169316375038e-04 1.341163191057e-04 0.0 
4.660006267397e-04 3.745204862012e-04 0.0 
5.593703819362e-04 7.427625899020e-04 0.0 
7.735570453784e-04 1.330249553477e-03 0.0 
1.385159300745e-03 2.267696046910e-03 0.0 
2.328212797301e-03 4.314473018904e-03 0.0 
3.759406103328e-04 -1.888544440426e-04 0.0 
9.791759922623e-05 7.334917341578e-06 0.0 
2.771005505224e-04 -2.543134115659e-04 0.0 
3.399712856555e-04 -2.891508887545e-04 0.0 
4.961938403002e-05 2.483014940131e-06 0.0 
4.416323649986e-04 -1.979190183743e-05 0.0 
2.027934234404e-05 -5.893337659266e-05 0.0 
1.665820555289e-04 2.046805962797e-05 0.0 
5.957785883403e-04 3.566646527224e-04 0.0 
2.692131767284e-04 5.137582914110e-05 0.0 
1.139533276825e-03 1.311406137333e-03 0.0 
2.457115686794e-05 1.889654149719e-06 0.0 
1.964287495298e-04 -2.145018044215e-04 0.0 
4.331114925092e-04 1.310370932438e-04 0.0 
2.097209452712e-03 3.951520428864e-03 0.0 
2.159736648398e-05 -1.073308476778e-04 0.0 
1.786704827153e-05 -2.771769017273e-05 0.0 
5.777432176281e-04 2.559566931361e-04 0.0 
6.051666219114e-04 4.761459325329e-04 0.0 
1.934338414149e-04 7.957521317089e-04 0.0 
3.774601046066e-04 8.116326957597e-04 0.0 
4.947666833491e-04 6.272699584220e-04 0.0 
1.545036551045e-03 6.995676149889e-03 0.0 
9.652677133585e-04 8.853062878448e-03 0.0 
7.184385127721e-04 9.089583593378e-03 0.0 
9.592391773822e-05 5.449720513944e-03 0.0 
1.421689730993e-05 1.961105364688e-06 0.0 
3.483978919412e-04 -2.729572509646e-04 0.0 
1.196260221958e-04 -1.930578158464e-04 0.0 
1.081251423879e-05 -3.384858105931e-06 0.0 
3.953419903938e-04 9.189517389251e-03 0.0 
2.645506607652e-05 -1.418532910243e-04 0.0 
6.932829725632e-04 4.082961284360e-04 0.0 
1.970929233646e-04 3.029673808659e-05 0.0 
3.407220268616e-04 8.110753731488e-05 0.0 
1.373128144048e-04 1.358219390774e-05 0.0 
7.103076943969e-05 4.119916702110e-06 0.0 
3.214801234471e-04 -2.804499214102e-04 0.0 
1.124880117605e-03 8.361863591178e-03 0.0 
4.197325450931e-05 2.114423854819e-06 0.0 
8.193709834871e-05 3.470003427916e-03 0.0 
2.389122771421e-04 -2.342535514343e-04 0.0 
2.160570738582e-05 -8.370181018203e-05 0.0 
9.447988151898e-05 6.540073079900e-04 0.0 
5.007177928553e-04 1.189271383271e-04 0.0 
4.030446103345e-04 -1.215440436243e-04 0.0 
7.747082170906e-04 7.133934220986e-04 0.0 
1.905793721982e-03 2.404605167083e-03 0.0 
3.537430332147e-04 -2.324803801224e-04 0.0 
1.027158304886e-04 7.397129918956e-03 0.0 
6.276116620054e-06 1.612163656681e-06 0.0 
5.032037524224e-05 -1.648257256476e-04 0.0 
4.900937322079e-05 1.508983053056e-03 0.0 
2.170152842272e-03 4.659048908184e-03 0.0 
2.324317653331e-03 3.599158511150e-03 0.0 
2.370142137494e-03 4.432053585030e-03 0.0 
2.463674313433e-03 3.260542557445e-03 0.0 
2.494625401486e-03 3.728433203100e-03 0.0 
2.501708320014e-03 2.864165798526e-03 0.0 
2.434948601554e-03 2.457068427388e-03 0.0 
2.430511755555e-03 2.179930849999e-03 0.0 
2.349384709100e-03 1.851555723625e-03 0.0 
2.484567459493e-03 3.186285269168e-03 0.0 
2.311404509903e-03 1.645968862554e-03 0.0 
2.228616960610e-03 1.383479930124e-03 0.0 
2.159062351439e-03 1.230795558025e-03 0.0 
2.082788988726e-03 1.025087602986e-03 0.0 
2.101943668396e-03 1.118671821151e-03 0.0 
1.969457134430e-03 8.181560659389e-04 0.0 
1.946055928851e-03 8.675908196308e-04 0.0 
1.830777185394e-03 6.217983639493e-04 0.0 
1.823240197082e-03 5.916677278445e-04 0.0 
1.703992355603e-03 4.391212186744e-04 0.0 
1.677500512439e-03 4.446526008893e-04 0.0 
1.571784295338e-03 3.011310108886e-04 0.0 
1.519656450424e-03 2.914824342991e-04 0.0 
1.435260174816e-03 1.812973205400e-04 0.0 
1.364965496761e-03 1.631149495104e-04 0.0 
1.300852931542e-03 8.041977896265e-05 0.0 
1.341077222578e-03 1.028735133389e-04 0.0 
1.225572194420e-03 2.285902834851e-05 0.0 
1.174383974903e-03 -1.594766997775e-06 0.0 
1.115136244581e-03 -4.301872090104e-05 0.0 
1.058582927772e-03 -6.695473223347e-05 0.0 
1.012394567985e-03 -9.599682436738e-05 0.0 
1.046706597019e-03 -6.848976599811e-05 0.0 
9.567011883270e-04 -1.119578852447e-04 0.0 
9.183092611496e-04 -1.379415229914e-04 0.0 
8.731985621752e-04 -1.467131118149e-04 0.0 
8.333315606150e-04 -1.707696242962e-04 0.0 
7.967661721788e-04 -1.740421827516e-04 0.0 
7.572867626896e-04 -1.960647548404e-04 0.0 
7.270058001185e-04 -1.952722352201e-04 0.0 
7.530809638212e-04 -1.701733889128e-04 0.0 
6.898468221379e-04 -1.883298557194e-04 0.0 
6.637847987102e-04 -2.115123804129e-04 0.0 
6.319090349378e-04 -2.022742858754e-04 0.0 
6.472160457110e-04 -1.769824634234e-04 0.0 
5.948066597200e-04 -1.892670003994e-04 0.0 
6.006020084866e-04 -1.626441515116e-04 0.0 
5.538458472056e-04 -1.737148002899e-04 0.0 
5.467928128148e-04 -1.984021857948e-04 0.0 
5.103247095382e-04 -1.819944268239e-04 0.0 
5.103661976589e-04 -1.566315733342e-04 0.0 
4.713112859770e-04 -1.644614175394e-04 0.0 
4.696553925404e-04 -1.881650822302e-04 0.0 
4.345941565504e-04 -1.701467867017e-04 0.0 
4.310503504627e-04 -1.463634803467e-04 0.0 
3.980008642689e-04 -1.518670885248e-04 0.0 
4.000729662108e-04 -1.741644762093e-04 0.0 
3.666103098044e-04 -1.557879448483e-04 0.0 
3.609184860868e-04 -1.336168306011e-04 0.0 
3.324311660104e-04 -1.377103371862e-04 0.0 
3.367109244155e-04 -1.584793652916e-04 0.0 
3.050879516092e-04 -1.405128049290e-04 0.0 
2.982560408740e-04 -1.201444828533e-04 0.0 
2.732630625872e-04 -1.232467839364e-04 0.0 
2.644769405343e-04 -1.035500751145e-04 0.0 
2.784551114805e-04 -1.424746614613e-04 0.0 
2.487836353866e-04 -1.254928290534e-04 0.0 
2.528410865441e-04 -1.437917604376e-04 0.0 
2.248810261053e-04 -1.270954053272e-04 0.0 
9.714328544471e-04 -8.184907190914e-05 0.0 
2.284510442127e-04 -1.444591361721e-04 0.0 
2.550503624251e-04 -1.612016282275e-04 0.0 
2.016334795385e-04 -1.282154024755e-04 0.0 
1.969531595893e-04 -1.113359910889e-04 0.0 
2.048488819924e-04 -1.446836161928e-04 0.0 
1.788938947240e-04 -1.289733449594e-04 0.0 
1.820000384518e-04 -1.446466579579e-04 0.0 
7.763818926997e-04 -1.897399088611e-04 0.0 
1.667534439351e-03 4.239685401750e-04 0.0 
1.566447908679e-04 -1.295512956880e-04 0.0 
1.598086955339e-04 -1.444860376294e-04 0.0 
1.847701007671e-04 -1.598099015187e-04 0.0 
1.631205652186e-04 -1.590123826440e-04 0.0 
2.438657438194e-03 4.053895688928e-03 0.0 
2.389424397231e-03 3.388156786569e-03 0.0 
2.311667647562e-03 4.231282830854e-03 0.0 
2.231635189587e-03 3.468949856706e-03 0.0 
2.137489071766e-03 4.243978592470e-03 0.0 
1.381620594218e-04 -1.443332829970e-04 0.0 
2.179042371354e-03 1.404083554563e-03 0.0 
2.239199104150e-03 2.749615564362e-03 0.0 
1.592437775074e-03 4.426424447240e-04 0.0 
1.092870627838e-03 -2.106595695407e-05 0.0 
6.502329338027e-04 -1.484765516447e-04 0.0 
1.530498226581e-04 -1.142883187456e-04 0.0 
1.314530831043e-04 -1.155726857233e-04 0.0 
1.276031323791e-04 -1.008516792230e-04 0.0 
2.871663756834e-04 -9.939819733638e-05 0.0 
2.516701176496e-04 -8.394712425328e-05 0.0 
2.711605386744e-04 -7.888046852348e-05 0.0 
2.344729902636e-04 -6.497185342930e-05 0.0 
2.499105113323e-04 -5.926158911483e-05 0.0 
2.127241836736e-04 -4.722761739024e-05 0.0 
1.999891172525e-04 -5.254768386756e-05 0.0 
1.784028037787e-04 -3.670506746042e-05 0.0 
1.679387313782e-04 -4.161009458238e-05 0.0 
2.233423593934e-04 -4.123567736087e-05 0.0 
2.635527852147e-04 -5.267863576648e-05 0.0 
1.470828717324e-04 -2.765819440333e-05 0.0 
1.384753556185e-04 -3.214388165950e-05 0.0 
1.188300625453e-04 -2.005434070648e-05 0.0 
1.117159417909e-04 -2.409981675862e-05 0.0 
1.277099896177e-04 -3.638054656571e-05 0.0 
1.022680938965e-04 -2.806116860920e-05 0.0 
1.151124789045e-04 -4.042238697058e-05 0.0 
5.942577244235e-04 -1.337202577065e-04 0.0 
6.385896355943e-04 -1.178772276767e-04 0.0 
5.739751213072e-04 -1.036705206122e-04 0.0 
6.101257273185e-04 -8.671537186872e-05 0.0 
5.383875062972e-04 -7.394692503872e-05 0.0 
5.636604484897e-04 -5.677489979543e-05 0.0 
4.867294208797e-04 -4.614769558266e-05 0.0 
4.695029587181e-04 -6.126763973518e-05 0.0 
1.979186479704e-03 9.043184947658e-04 0.0 
6.068783868353e-04 -2.235706104138e-04 0.0 
6.285063248335e-04 -2.299153710893e-04 0.0 
5.748665915138e-04 -2.404615068149e-04 0.0 
5.872111316923e-04 -2.433130857602e-04 0.0 
5.385625050249e-04 -2.528527420419e-04 0.0 
5.430198987758e-04 -2.519053813838e-04 0.0 
5.004721481367e-04 -2.610622150078e-04 0.0 
4.958027216633e-04 -2.596348409790e-04 0.0 
4.633275392419e-04 -2.677438732825e-04 0.0 
4.579797298986e-04 -2.642019843035e-04 0.0 
4.307962607432e-04 -2.723168229060e-04 0.0 
4.244361726770e-04 -2.669309014663e-04 0.0 
1.239503041686e-03 4.907771752487e-05 0.0 
6.444840416931e-04 -6.690058488250e-05 0.0 
5.844402639167e-04 -3.758824731040e-05 0.0 
6.749933410175e-04 -4.428426880978e-05 0.0 
1.878306033649e-04 -1.743446753884e-04 0.0 
8.768718349935e-05 -1.737273566991e-05 0.0 
2.312486447837e-04 -3.459423729640e-05 0.0 
2.749421439591e-04 -4.534265959289e-05 0.0 
4.146311864610e-04 -3.612170160894e-05 0.0 
1.420965729300e-04 -1.583043678662e-04 0.0 
4.988933112244e-04 -2.562295918024e-04 0.0 
5.398831276802e-04 -2.439554292556e-04 0.0 
2.025246752126e-03 3.409623491719e-03 0.0 
1.929206190823e-03 4.111808228460e-03 0.0 
2.357205060435e-04 -2.737010198333e-05 0.0 
1.169030042131e-04 -1.442812061306e-04 0.0 
1.530899389040e-04 -2.292830898634e-05 0.0 
4.320744344411e-04 -2.726690776767e-04 0.0 
7.923554168078e-05 -2.105014285655e-05 0.0 
6.638582825518e-05 -1.184198482250e-05 0.0 
1.855970091514e-04 -5.721710753814e-05 0.0 
5.985348041609e-04 -1.652177511952e-05 0.0 
7.007516304098e-04 -1.959912641873e-05 0.0 
4.475005983382e-04 -2.559469585593e-04 0.0 
4.135491580867e-04 -2.575406011241e-04 0.0 
3.947236820838e-04 -2.680890261074e-04 0.0 
3.834065887471e-04 -2.573882008907e-04 0.0 
3.985101230933e-04 -2.448239384138e-04 0.0 
3.682359547654e-04 -2.442454079936e-04 0.0 
3.563542060320e-04 -2.561027125452e-04 0.0 
3.410281106502e-04 -2.427149955148e-04 0.0 
3.498924567957e-04 -2.289705550854e-04 0.0 
3.227854357318e-04 -2.272562410774e-04 0.0 
3.166573890108e-04 -2.403666432270e-04 0.0 
2.981827037685e-04 -2.249131819365e-04 0.0 
7.155388689367e-05 -8.722441036601e-06 0.0 
4.052462363604e-04 -2.776614838729e-04 0.0 
2.046383324458e-03 1.193961856462e-03 0.0 
1.931267243937e-04 -1.931540248370e-05 0.0 
4.202631298538e-04 -2.226992020787e-05 0.0 
1.784671425734e-03 3.229133958333e-03 0.0 
1.698302481252e-03 3.863235608835e-03 0.0 
1.768548214899e-03 4.823007257453e-03 0.0 
1.560392200906e-03 4.497540268021e-03 0.0 
1.454241297168e-03 3.525444998529e-03 0.0 
1.342923320081e-03 4.101628314781e-03 0.0 
1.390339084700e-03 5.112394213550e-03 0.0 
1.203928637585e-03 4.663209265670e-03 0.0 
1.209038236673e-03 5.693878201003e-03 0.0 
1.052919484620e-03 5.202057979915e-03 0.0 
1.012789907854e-03 4.176099958808e-03 0.0 
8.897529260636e-04 4.685621932729e-03 0.0 
9.017542393849e-04 5.717724603716e-03 0.0 
7.622061616730e-04 5.179866584038e-03 0.0 
7.576782395484e-04 6.211867781767e-03 0.0 
6.360311260606e-04 5.660423651435e-03 0.0 
6.201010784128e-04 4.632515681586e-03 0.0 
1.219029333778e-04 -1.574152699335e-04 0.0 
4.044926898468e-04 -4.929443116604e-05 0.0 
3.479638715973e-04 -2.697551575336e-05 0.0 
1.074572717552e-04 -1.031165712241e-04 0.0 
1.036123297177e-04 -8.896154552304e-05 0.0 
1.229754549518e-04 -8.610158191470e-05 0.0 
9.814049797873e-05 -7.479609084451e-05 0.0 
5.084539871902e-04 5.108727304141e-03 0.0 
4.812295036266e-04 4.081996244367e-03 0.0 
4.909449167748e-04 -2.441723188857e-04 0.0 
5.290286182040e-04 -2.277624036125e-04 0.0 
1.806105138655e-03 2.619689312147e-03 0.0 
5.862513173364e-05 -1.527781700748e-05 0.0 
6.861389585760e-05 -2.489838631117e-05 0.0 
9.788370800729e-04 -8.462645903617e-05 0.0 
9.885984383268e-04 -3.384571499202e-05 0.0 
8.832431698636e-04 -9.469880830032e-05 0.0 
8.681737915919e-04 -3.905023487750e-05 0.0 
9.810163953045e-04 3.726635424455e-05 0.0 
7.763038711568e-04 -9.758193772856e-05 0.0 
3.072219780978e-04 -6.597926991358e-05 0.0 
8.231424933829e-04 3.665188157795e-03 0.0 
2.093315727865e-04 -1.757273065149e-04 0.0 
2.117046647616e-04 -1.899205284941e-04 0.0 
4.777894881952e-05 -7.479692209396e-06 0.0 
4.486069216497e-04 -7.475963385233e-05 0.0 
1.336791613788e-03 1.245113265086e-04 0.0 
1.211162273460e-03 7.416756994983e-05 0.0 
1.283477072896e-03 1.422359354573e-04 0.0 
1.137020434281e-03 9.504898113435e-05 0.0 
1.177476475319e-03 1.525183430089e-04 0.0 
1.015488103171e-03 1.087106512518e-04 0.0 
9.930020165394e-04 6.340169245702e-05 0.0 
6.027557845492e-04 5.702808440481e-06 0.0 
8.601801437781e-04 7.813727924624e-05 0.0 
5.222843618024e-04 6.139867244323e-03 0.0 
7.279657110628e-04 -7.609044458153e-05 0.0 
3.288392003562e-04 -2.122702607414e-04 0.0 
1.478446226255e-04 -1.716455914194e-04 0.0 
2.947098386947e-04 -2.378244870896e-04 0.0 
9.592546377647e-05 -1.443968776777e-04 0.0 
9.204566874091e-05 -1.315223253674e-04 0.0 
1.901876078582e-04 -1.290011974426e-05 0.0 
1.017862940721e-03 1.518347262508e-04 0.0 
1.197576560960e-03 2.098784907800e-04 0.0 
8.381914077776e-04 3.830937925652e-05 0.0 
9.552356135684e-04 1.337763685824e-04 0.0 
4.979326998199e-04 5.082819051977e-06 0.0 
2.128009041329e-03 5.143599760184e-03 0.0 
1.351206137650e-03 6.149112965566e-03 0.0 
1.145833726524e-03 6.736583877910e-03 0.0 
1.046615173644e-04 -1.592450540713e-04 0.0 
3.115977402701e-04 -2.514228769750e-04 0.0 
1.205797558257e-03 3.122573538053e-03 0.0 
5.867899131832e-04 -2.278690305991e-04 0.0 
5.736778380886e-04 -2.068281476802e-04 0.0 
4.037514731275e-04 -2.751510306576e-04 0.0 
3.826474160792e-04 -2.808817120781e-04 0.0 
3.900202104463e-04 4.539478786448e-03 0.0 
3.541899013338e-04 3.528882452874e-03 0.0 
1.169694910807e-04 -7.148932683705e-05 0.0 
9.234420192756e-05 -6.105525047802e-05 0.0 
2.358717100724e-04 -1.969844095927e-05 0.0 
2.757998023341e-04 -2.221985378668e-04 0.0 
4.211354750805e-04 3.068207238520e-03 0.0 
3.899451075793e-04 -6.126157202487e-05 0.0 
4.252248704609e-04 -8.649554248195e-05 0.0 
7.857380750933e-05 -7.822917972802e-05 0.0 
4.762177053017e-04 -2.242236340425e-04 0.0 
4.469321703921e-04 -2.414883350364e-04 0.0 
3.579625231667e-04 -2.130453949480e-04 0.0 
2.775201631143e-04 -2.086386149452e-04 0.0 
7.093226498891e-05 -1.327444480317e-04 0.0 
1.816891027262e-04 -6.721699538467e-06 0.0 
1.250391640246e-03 2.592484640262e-03 0.0 
8.559349415593e-04 4.364159901311e-05 0.0 
9.578766075196e-04 2.030867786976e-05 0.0 
7.143374436503e-04 5.744712645236e-05 0.0 
2.750977605706e-04 -2.342018242607e-04 0.0 
1.496847579614e-04 -7.585249706727e-06 0.0 
4.044096978917e-05 -1.058834268138e-05 0.0 
1.004916039384e-03 1.930489816521e-04 0.0 
1.192524557756e-03 2.630170497755e-04 0.0 
6.408747319584e-04 -2.070543568726e-04 0.0 
6.280530717066e-04 -1.795566947137e-04 0.0 
5.524332451635e-04 -1.746034768362e-04 0.0 
6.033676372389e-04 -1.392000346681e-04 0.0 
2.302903751114e-03 2.038456365582e-03 0.0 
7.055752762772e-04 -1.796888165094e-04 0.0 
1.856120460495e-03 9.020770826713e-04 0.0 
1.924441871194e-03 1.247011712725e-03 0.0 
1.701545474663e-03 9.188723810803e-04 0.0 
1.111866056393e-03 1.351393072640e-04 0.0 
1.096383202337e-03 2.596713465031e-04 0.0 
6.422978784963e-04 -2.303204967577e-04 0.0 
7.027983962963e-04 -1.306452561437e-04 0.0 
1.427295913629e-04 -8.336950346787e-05 0.0 
1.415126116423e-04 -5.017913168946e-05 0.0 
3.097224471925e-04 -9.418100189602e-05 0.0 
9.043081358977e-04 3.169445437641e-03 0.0 
6.965985196043e-04 2.664083206319e-03 0.0 
8.695402241348e-04 6.753233839261e-03 0.0 
7.232109300199e-04 7.242682476539e-03 0.0 
1.918963276617e-04 -1.881678355390e-04 0.0 
2.155771811121e-04 -2.032443226543e-04 0.0 
2.315920880929e-04 -8.814212662273e-05 0.0 
1.550999298718e-04 -1.263733208236e-05 0.0 
1.534314973316e-03 2.390740792139e-03 0.0 
1.481281580768e-03 1.868510039621e-03 0.0 
1.756759763122e-03 2.056664040939e-03 0.0 
2.305061699039e-04 -1.175274233302e-05 0.0 
5.560493558510e-04 -2.322976095450e-04 0.0 
5.373676391014e-04 -1.179652774692e-04 0.0 
3.822062898914e-04 -2.808838102006e-04 0.0 
1.051903660478e-03 -3.811547588902e-05 0.0 
1.977940723100e-04 -2.011590868855e-04 0.0 
1.745639591644e-03 5.477766623228e-04 0.0 
3.190361295740e-05 -4.080456811868e-06 0.0 
3.627182849336e-05 -1.816459655388e-06 0.0 
4.795832051434e-04 2.214391867707e-05 0.0 
2.180035344456e-03 2.911673422764e-03 0.0 
9.584375464434e-04 -4.981934290875e-05 0.0 
8.917752095756e-04 -8.637255337105e-05 0.0 
1.736991719245e-03 1.265387713201e-03 0.0 
1.478047255549e-03 9.130890189937e-04 0.0 
1.478226933983e-03 6.491628820998e-04 0.0 
1.252119219897e-03 6.442025874732e-04 0.0 
3.338769389839e-04 -1.955867153383e-04 0.0 
3.057424764649e-04 -1.950492912427e-04 0.0 
8.002254744659e-04 1.376756018637e-04 0.0 
6.902441849316e-04 8.040565713191e-05 0.0 
9.535549278528e-04 2.218133285575e-04 0.0 
1.151095083896e-03 3.038191928686e-04 0.0 
3.754706188740e-04 1.790105067199e-05 0.0 
4.021090562234e-04 5.292926336014e-06 0.0 
6.767044064150e-05 -1.203807234406e-04 0.0 
9.117706080438e-04 2.611796366955e-04 0.0 
9.777823281270e-04 2.177679517298e-03 0.0 
1.976628927353e-03 1.689472603910e-03 0.0 
1.153087827321e-04 -3.534012879442e-06 0.0 
1.217318714042e-04 -7.608109814535e-06 0.0 
3.648346086717e-04 -2.849094108587e-04 0.0 
3.610570817408e-04 -2.823479944202e-04 0.0 
2.923744634747e-04 2.545373711301e-03 0.0 
5.244509234775e-04 -1.309374035319e-04 0.0 
5.683941810082e-04 -8.639142062988e-05 0.0 
4.876478382052e-04 -1.673559707792e-04 0.0 
4.438517753725e-06 2.444166788922e-06 0.0 
1.854424896019e-04 9.219728828274e-03 0.0 
2.295992688659e-05 2.590027540695e-07 0.0 
1.273108525918e-03 2.688481682709e-04 0.0 
3.271321363686e-04 2.054072354340e-03 0.0 
8.652539916083e-04 -5.340200017727e-05 0.0 
8.769423403085e-04 -1.343106275034e-04 0.0 
2.869517408336e-04 -2.773488527001e-05 0.0 
2.297532232039e-04 3.081760957137e-03 0.0 
1.787442747604e-04 1.983553537891e-03 0.0 
1.234061905253e-03 7.183269441237e-03 0.0 
1.034464303724e-03 7.776980786695e-03 0.0 
1.471996099926e-03 6.549679111219e-03 0.0 
4.288179156727e-04 -2.669649043819e-04 0.0 
3.955108164934e-04 -2.651531592714e-04 0.0 
6.415016240366e-04 3.139558655499e-03 0.0 
1.101931572719e-04 -1.169384557928e-04 0.0 
8.409432769896e-05 -1.033898332825e-04 0.0 
2.550717528668e-04 -2.068524546457e-04 0.0 
2.550394295769e-04 -1.923018427313e-04 0.0 
1.353612520554e-04 -6.829248696509e-05 0.0 
1.623174874497e-04 -8.057879103038e-05 0.0 
1.563938825444e-03 3.968265791280e-04 0.0 
1.596268011068e-03 4.910412118653e-04 0.0 
1.429537783356e-03 2.108622458716e-04 0.0 
3.721828639178e-04 -7.175834779301e-05 0.0 
4.003492617912e-04 -9.643545976971e-05 0.0 
4.503676542737e-04 -1.128089081316e-04 0.0 
7.317321351165e-04 2.218737796226e-03 0.0 
4.979579363121e-04 1.640782206013e-03 0.0 
3.644604723969e-04 -1.956853401638e-04 0.0 
3.898496072814e-04 -2.130975952035e-04 0.0 
3.080959567619e-04 -1.783079963292e-04 0.0 
9.543820019076e-04 1.714203624684e-03 0.0 
2.495029136757e-05 1.360984923293e-06 0.0 
3.813179208293e-05 -1.465584256243e-08 0.0 
2.203947727955e-04 -2.147984356012e-04 0.0 
2.376397033271e-04 -2.176513181721e-04 0.0 
4.313096330254e-04 -2.191077482949e-04 0.0 
4.089187357656e-04 -2.371053315822e-04 0.0 
1.379806096822e-03 1.419414284525e-03 0.0 
1.641783155017e-03 1.563035899730e-03 0.0 
1.048299934659e-03 1.153398884148e-03 0.0 
4.623615234143e-05 -1.236748229628e-04 0.0 
8.380196694915e-04 1.058389060933e-05 0.0 
1.719177973436e-04 -1.010151410411e-06 0.0 
2.245346568279e-04 -4.746444819289e-06 0.0 
1.190380113720e-04 1.764740770768e-06 0.0 
5.976314690794e-04 2.708538332282e-05 0.0 
4.485267223988e-04 3.591692388143e-05 0.0 
5.349783062277e-04 6.030295726243e-05 0.0 
3.634882654090e-04 -2.824192664289e-04 0.0 
1.306008209982e-04 2.394099263327e-03 0.0 
8.077058817628e-04 7.785287155876e-03 0.0 
3.536743109445e-04 -2.862802561072e-04 0.0 
6.707522956948e-04 8.304080681554e-03 0.0 
5.951869805492e-04 7.722203821839e-03 0.0 
5.637076091617e-04 8.801847462209e-03 0.0 
4.973783142352e-05 -1.348696138655e-04 0.0 
1.255586025475e-03 7.760984020702e-03 0.0 
1.562712435484e-03 6.899283519644e-03 0.0 
2.427892106318e-04 -2.302063856663e-04 0.0 
6.635378111802e-04 1.298195032060e-03 0.0 
2.056124776111e-04 -2.121924682103e-04 0.0 
1.828969365760e-04 -1.998698761120e-04 0.0 
8.504886371373e-05 -1.015413757551e-06 0.0 
9.274893474814e-05 -3.677766810657e-06 0.0 
5.977166903520e-05 9.673131284313e-07 0.0 
6.975193282430e-05 -8.595058911594e-07 0.0 
9.697122483524e-05 -6.817649767063e-06 0.0 
7.307249348110e-05 -3.188243583071e-06 0.0 
8.689695542987e-04 8.395529502637e-03 0.0 
4.602465163650e-05 1.258411892836e-06 0.0 
5.244232993746e-05 -4.860643167995e-07 0.0 
2.944172793042e-05 1.682702073551e-06 0.0 
1.209615332208e-03 9.215554022442e-04 0.0 
6.601155261452e-04 -9.539444537824e-05 0.0 
6.203867142288e-04 -2.836624287585e-05 0.0 
5.226264355422e-04 -1.622539579519e-05 0.0 
7.942907455995e-04 2.182279856979e-04 0.0 
1.080171574828e-03 3.325990016811e-04 0.0 
2.461397977078e-05 -6.789237671776e-06 0.0 
2.937668477047e-05 -1.391729198685e-05 0.0 
4.750061144393e-04 8.269645039147e-03 0.0 
3.517523000573e-04 8.314900362894e-03 0.0 
4.079674074114e-04 7.381565173738e-03 0.0 
2.947546904687e-04 7.496467002540e-03 0.0 
3.364236639595e-04 6.576477924592e-03 0.0 
2.152677068662e-04 6.693442090657e-03 0.0 
2.708204966589e-04 5.772245580733e-03 0.0 
4.826129219560e-04 7.203057052440e-05 0.0 
4.568951256043e-04 -1.256555983963e-04 0.0 
1.774997618638e-03 1.715495999398e-03 0.0 
2.814992876986e-04 1.494426667683e-05 0.0 
3.256882037988e-04 6.040396752097e-06 0.0 
1.058790251457e-03 4.215873567619e-04 0.0 
8.413356813126e-04 4.259251542514e-04 0.0 
9.566038686639e-05 5.548054120402e-07 0.0 
7.088793570422e-04 -2.018950105790e-04 0.0 
5.094456743436e-04 7.773266992535e-04 0.0 
3.470512243779e-04 -2.589826394179e-04 0.0 
3.660599453411e-04 -2.661663821467e-04 0.0 
7.832794561396e-04 -1.733884755770e-04 0.0 
1.274463430547e-03 4.325451504199e-04 0.0 
7.371520264109e-04 -3.749779890398e-05 0.0 
7.033665139396e-04 4.951684619163e-05 0.0 
3.348413653144e-04 -4.861645436554e-05 0.0 
2.582352920268e-04 -2.320594655211e-04 0.0 
4.572998253896e-04 -1.962659533510e-04 0.0 
3.982631169845e-04 5.669255003492e-03 0.0 
4.117461440166e-04 -1.918326276765e-04 0.0 
1.311348743180e-05 -9.333617061942e-06 0.0 
7.045905866786e-04 -2.129764129478e-04 0.0 
1.253665591994e-03 1.466056907602e-04 0.0 
5.111557381688e-04 -2.025577986415e-04 0.0 
6.983920865787e-04 -1.429748835863e-04 0.0 
2.214801423256e-03 1.513743760459e-03 0.0 
2.349256818921e-03 2.709661136339e-03 0.0 
2.176493710541e-03 2.201512759516e-03 0.0 
6.888678069224e-04 -2.155550404667e-04 0.0 
7.971844427938e-04 1.421735381155e-04 0.0 
6.445760687975e-04 1.617578124656e-04 0.0 
1.771682135199e-03 6.387136861820e-04 0.0 
1.989815855856e-03 2.144710432504e-03 0.0 
1.864835750944e-03 1.629243737238e-03 0.0 
1.478125851917e-03 1.155596501404e-03 0.0 
1.686438722768e-03 1.207742204796e-03 0.0 
2.030972839103e-03 1.613977481758e-03 0.0 
1.845917135265e-03 1.199400733533e-03 0.0 
1.471857889439e-03 8.792696466983e-04 0.0 
1.626871926997e-03 8.743678437912e-04 0.0 
1.138621890714e-03 5.661918088051e-04 0.0 
1.377141280122e-03 6.225698090496e-04 0.0 
1.730260449211e-03 8.324455606498e-04 0.0 
1.506242404950e-03 6.084685329023e-04 0.0 
1.176327530624e-03 4.556127013351e-04 0.0 
1.794092608840e-03 7.690645386207e-04 0.0 
2.358209709144e-04 2.069863783263e-05 0.0 
8.594560778777e-04 -1.587227389679e-04 0.0 
3.791355350547e-04 -2.754323966138e-04 0.0 
3.792893355917e-04 -2.533562842911e-04 0.0 
1.417904871415e-03 2.798663674810e-04 0.0 
6.133321790385e-04 3.096935611430e-04 0.0 
6.303160100846e-04 4.315083112476e-04 0.0 
5.911294056539e-04 -2.396502461845e-04 0.0 
3.837984874249e-04 1.031130708351e-04 0.0 
2.127837809262e-03 1.631200887828e-03 0.0 
4.629890499423e-04 -2.655445566781e-04 0.0 
3.075058460151e-04 6.577661653621e-05 0.0 
2.166951651119e-03 2.127831099832e-03 0.0 
2.284141638738e-03 2.036506363776e-03 0.0 
2.374793810802e-03 2.655153498628e-03 0.0 
5.627632149432e-04 5.126517428963e-04 0.0 
1.725395121235e-03 5.835864641792e-03 0.0 
1.747620819845e-04 2.383156665687e-05 0.0 
6.835565893776e-04 -9.868150806714e-05 0.0 
7.570909058885e-04 -1.092052543274e-04 0.0 
7.640827831060e-04 -1.411369663297e-04 0.0 
1.951339115584e-03 1.144971848282e-03 0.0 
1.105346070126e-04 8.850919413443e-06 0.0 
1.942643606010e-04 8.656687954527e-06 0.0 
1.706043600168e-04 5.769343588377e-06 0.0 
2.650450985745e-04 6.453230937893e-07 0.0 
8.408360263915e-05 5.791806958874e-06 0.0 
4.899028421084e-04 1.894779424579e-04 0.0 
4.296411319070e-04 1.466965541025e-04 0.0 
3.797420679865e-04 -2.297631540009e-04 0.0 
4.127074623838e-04 -2.294210081852e-04 0.0 
4.245537783061e-04 -2.119334902773e-04 0.0 
4.489573235104e-04 -2.279015302300e-04 0.0 
4.322109282680e-04 -2.440478764212e-04 0.0 
4.693995521465e-04 -2.419083991789e-04 0.0 
4.884724224691e-04 -2.249925903204e-04 0.0 
4.851750899347e-04 -2.529261820644e-04 0.0 
1.372734957361e-03 4.218283066659e-04 0.0 
6.212731348247e-05 3.697580308297e-06 0.0 
2.897694069463e-04 -7.285940988386e-05 0.0 
3.319690664667e-04 -8.809266586577e-05 0.0 
3.496163240713e-04 -1.108697673792e-04 0.0 
1.694756474532e-04 -9.667348695354e-05 0.0 
1.903540103011e-04 -9.430003198056e-05 0.0 
1.814297487380e-04 -7.746568100032e-05 0.0 
1.485616887852e-04 -9.883909315853e-05 0.0 
1.084211419764e-03 4.106280754894e-05 0.0 
5.413602571061e-05 2.805709680119e-06 0.0 
4.807150702690e-04 -1.019861311313e-04 0.0 
2.192936265743e-04 -1.093545593062e-04 0.0 
1.287842013191e-03 7.808333749674e-03 0.0 
1.856670945492e-03 6.526971071820e-03 0.0 
2.136775219616e-03 5.617370860243e-03 0.0 
2.258908223707e-03 5.175210913425e-03 0.0 
1.617879598885e-03 7.124417466434e-03 0.0 
1.096989590170e-04 -5.740185699833e-05 0.0 
8.554017587445e-05 -4.794981669766e-05 0.0 
6.893708116397e-05 -5.204972284800e-05 0.0 
6.293667232550e-05 -3.987021639279e-05 0.0 
4.688662364251e-05 -4.439121680690e-05 0.0 
5.157907033738e-05 -5.629224345600e-05 0.0 
4.153502803454e-05 -3.299292092411e-05 0.0 
2.668846092603e-05 -3.915200615816e-05 0.0 
1.039684042289e-03 8.682968967068e-03 0.0 
3.322987191224e-04 -2.862807813750e-04 0.0 
3.303765557328e-04 -2.792961542928e-04 0.0 
3.160887459240e-04 -2.717085510384e-04 0.0 
3.277799405553e-04 -2.703270415372e-04 0.0 
3.436823875248e-04 -2.770022824491e-04 0.0 
3.447412767857e-04 -2.665861973097e-04 0.0 
3.604853284958e-04 -2.743558992366e-04 0.0 
3.429590279302e-04 -2.847361157369e-04 0.0 
3.087427964396e-04 -2.728202231145e-04 0.0 
3.004026673140e-04 -2.626169775127e-04 0.0 
2.938282036670e-04 -2.639598741645e-04 0.0 
2.832315396361e-04 -2.530080176285e-04 0.0 
2.923748682801e-04 -2.496140909672e-04 0.0 
2.345060616542e-04 -2.050231145365e-04 0.0 
1.240258875028e-05 2.181308387109e-06 0.0 
2.107156878432e-05 -7.137664062000e-05 0.0 
4.190444197020e-05 -7.926445411006e-05 0.0 
4.298361337557e-05 -9.125102662742e-05 0.0 
6.503127992745e-05 -8.788171836498e-05 0.0 
3.925146480401e-05 -6.785086981194e-05 0.0 
2.175332306672e-05 -9.571330122723e-05 0.0 
4.308997874573e-05 -1.019179116369e-04 0.0 
8.935578622584e-05 -1.858807078960e-04 0.0 
6.116787636177e-05 -1.632701723519e-04 0.0 
3.095494783747e-05 -1.629749894782e-04 0.0 
4.421504362686e-05 -1.533693533643e-04 0.0 
7.164682182799e-05 -1.590970039868e-04 0.0 
9.370270968603e-05 -1.765518191468e-04 0.0 
1.237161497735e-04 -1.847682393706e-04 0.0 
1.482295028069e-04 -1.999838138393e-04 0.0 
1.509013392425e-04 -1.918531753454e-04 0.0 
1.281817192534e-04 -1.765658207784e-04 0.0 
1.784119584749e-04 -2.070129592330e-04 0.0 
9.421025404581e-05 4.435530259370e-03 0.0 
1.850810847507e-04 3.931100934150e-03 0.0 
4.350427433031e-05 2.080838960579e-06 0.0 
8.946556666338e-04 8.949082249236e-03 0.0 
2.585470814724e-04 -2.441305670345e-04 0.0 
1.790914728335e-04 9.646333716275e-04 0.0 
2.918167652698e-04 7.683500541051e-04 0.0 
2.299426388018e-04 7.580440835998e-04 0.0 
7.606876076680e-06 7.288281602116e-07 0.0 
1.212931189138e-05 1.703256338204e-06 0.0 
9.509693385881e-05 9.461607649755e-04 0.0 
2.070146908582e-04 -1.605156627246e-04 0.0 
1.270714788226e-03 8.309047719644e-04 0.0 
4.737906416531e-04 2.604491073508e-03 0.0 
4.578611041313e-04 -2.569957275222e-04 0.0 
2.796131121668e-04 -1.939358967707e-04 0.0 
4.775980245330e-05 -1.883772791453e-05 0.0 
1.555077879810e-04 -4.604854427273e-05 0.0 
5.251941922131e-05 -4.740029595209e-06 0.0 
9.079824919819e-05 -3.200331726184e-05 0.0 
9.365463117605e-05 -1.377762080089e-05 0.0 
1.529197457555e-04 3.721561587177e-06 0.0 
7.599521966572e-05 -1.447276032261e-04 0.0 
1.032219133353e-03 6.239395483730e-03 0.0 
6.289971704293e-04 6.693414842965e-03 0.0 
7.259994239303e-04 4.153436645537e-03 0.0 
1.348364782313e-04 -1.300987175824e-04 0.0 
7.464300481031e-05 -6.436217344009e-05 0.0 
1.673235226891e-04 -1.730158701822e-04 0.0 
5.885973681205e-04 1.219601068360e-04 0.0 
1.655956710009e-03 6.520758330151e-04 0.0 
3.237399390762e-04 -1.160560097459e-04 0.0 
1.748789941765e-04 -1.129216062737e-04 0.0 
2.304117493925e-04 -1.609406023761e-04 0.0 
3.021288222434e-04 -2.107359530333e-04 0.0 
9.536798717366e-04 -1.185455102085e-04 0.0 
2.418279876783e-04 -1.068198899895e-04 0.0 
1.865002861143e-04 -3.134177844455e-05 0.0 
5.677271562784e-04 3.612818690656e-03 0.0 
2.155803503014e-04 -2.225932644100e-04 0.0 
1.916403969523e-04 -2.548196499501e-05 0.0 
2.177373585363e-04 -6.986757330159e-05 0.0 
1.566120986124e-03 5.509813950764e-03 0.0 
4.989646438821e-04 -2.996427942951e-05 0.0 
3.322830723488e-04 -2.537468927051e-04 0.0 
1.122546684795e-03 3.654866813379e-03 0.0 
1.198617660730e-03 1.643109718488e-03 0.0 
1.854182238573e-03 6.060094549122e-03 0.0 
1.729991462155e-04 -1.866436350816e-04 0.0 
9.651073292935e-04 7.292565088768e-03 0.0 
1.387381409542e-04 -2.597918870456e-06 0.0 
2.045473680504e-03 2.743328240065e-03 0.0 
1.133564908524e-04 -1.307040297710e-04 0.0 
5.515035218667e-04 -1.465339325234e-04 0.0 
1.221463182959e-03 5.979475066147e-05 0.0 
2.131045300745e-03 3.074517784192e-03 0.0 
5.080764695074e-04 2.179142072683e-03 0.0 
8.942862662331e-04 -1.179800913416e-04 0.0 
3.469580193717e-04 -1.514955010920e-05 0.0 
5.102855388611e-04 -8.905236921937e-05 0.0 
8.909608685081e-05 -1.182852537865e-04 0.0 
1.243830616439e-04 -1.175748248690e-05 0.0 
7.036218713843e-04 -1.610799198141e-04 0.0 
9.612783433960e-04 2.677720784063e-03 0.0 
1.342883796718e-03 2.154065701758e-04 0.0 
5.793563115540e-04 -2.126528531928e-04 0.0 
1.522272302835e-03 2.949526423902e-03 0.0 
3.901970164426e-04 -1.283765845855e-04 0.0 
5.033966549766e-04 -1.278346281819e-05 0.0 
1.456888761054e-03 4.396636858615e-04 0.0 
1.457847404299e-03 1.977532181155e-04 0.0 
1.919317053743e-03 7.511871272032e-04 0.0 
1.141748438391e-03 -1.509534889950e-05 0.0 
3.328259045585e-05 -2.275191399994e-05 0.0 
1.560120418529e-04 -1.792796528756e-05 0.0 
4.027129803450e-04 -2.751528227100e-04 0.0 
7.892386855214e-04 -1.424114959525e-04 0.0 
1.960685378640e-03 5.049553490962e-03 0.0 
8.504536821263e-04 1.109771802221e-04 0.0 
7.144742299068e-04 1.726315294601e-03 0.0 
1.111428021984e-03 4.460785850032e-05 0.0 
1.232626482361e-04 -1.591746732787e-05 0.0 
1.251958145606e-03 2.104908850783e-03 0.0 
2.111181076394e-04 -9.152175494947e-05 0.0 
2.328783541049e-05 -1.302485229497e-04 0.0 
4.220957270211e-04 -2.551744226316e-04 0.0 
5.274113907938e-04 -2.479289710024e-04 0.0 
8.213996028415e-04 -1.470540935986e-04 0.0 
1.999961330997e-04 -7.401146936565e-05 0.0 
1.153988357438e-03 9.488482440561e-04 0.0 
9.689559660402e-05 -1.028847502102e-05 0.0 
2.827584784758e-04 -3.695082596824e-05 0.0 
3.647360106297e-04 -2.133044328166e-04 0.0 
2.030992621289e-03 2.280275446459e-03 0.0 
7.392664336056e-05 -5.864048483469e-06 0.0 
5.011468152755e-04 -1.296910606302e-04 0.0 
4.168676228184e-04 -8.293708230145e-06 0.0 
3.043016571352e-05 -4.960888731878e-05 0.0 
5.267485474902e-04 9.387006191732e-05 0.0 
1.001662789990e-03 6.307537068235e-04 0.0 
5.424429110840e-05 -2.501921683993e-06 0.0 
3.439206310178e-04 -3.823854362710e-05 0.0 
6.463403674500e-04 -2.233264838720e-04 0.0 
2.910103609874e-04 9.202816995594e-03 0.0 
3.275047237444e-05 1.586298686466e-06 0.0 
2.851574096106e-04 -1.808219640117e-05 0.0 
1.132978119201e-03 1.393456097533e-05 0.0 
4.653601864388e-04 -1.390517872354e-04 0.0 
1.446544188713e-03 1.743205571322e-03 0.0 
1.698642094894e-04 -6.130903084681e-05 0.0 
1.569113292377e-03 3.056967693723e-04 0.0 
5.137399177237e-04 5.509935106873e-04 0.0 
2.826157294179e-04 -9.269611692831e-06 0.0 
2.442908220967e-03 2.468354393992e-03 0.0 
1.531087692230e-04 -6.499389278701e-05 0.0 
7.708167197864e-04 -5.084975441902e-05 0.0 
1.007386909522e-04 -1.687808125390e-04 0.0 
1.469083812904e-03 1.266922381005e-03 0.0 
1.261723117465e-04 -5.386732474493e-05 0.0 
5.104372878006e-04 -2.382480404040e-04 0.0 
4.200327351272e-04 -1.215412189643e-04 0.0 
3.408102265966e-04 2.684435409437e-05 0.0 
1.010014462042e-04 -4.416143190313e-05 0.0 
5.317135903455e-04 -2.199757880606e-04 0.0 
7.761449418448e-05 -3.582805880628e-05 0.0 
9.196619204564e-04 9.523640536074e-04 0.0 
2.331466082413e-03 1.866927473601e-03 0.0 
5.530936963429e-05 -2.870496404175e-05 0.0 
1.506699381682e-03 3.023022055983e-04 0.0 
1.543156670611e-04 -1.854323599851e-04 0.0 
1.023588866818e-03 -7.655813543382e-06 0.0 
1.828816607538e-05 -1.323973658804e-06 0.0 
2.806951337261e-04 -1.609250823371e-04 0.0 
3.756913633747e-04 -1.046252546605e-04 0.0 
2.137184128911e-03 1.537431678391e-03 0.0 
6.656668846781e-04 5.097476841537e-04 0.0 
3.532157621755e-04 -8.078347232007e-05 0.0 
1.381982490702e-03 2.888609548043e-04 0.0 
9.157138417003e-04 -1.838301174986e-05 0.0 
8.273109707334e-04 -1.163515965887e-04 0.0 
3.222029653493e-04 -5.782483318783e-05 0.0 
7.403809023500e-04 2.774906017805e-04 0.0 
2.307919014289e-04 -1.766591954886e-04 0.0 
2.325873645510e-04 -1.912883418369e-04 0.0 
5.025873407257e-04 -2.049438291834e-04 0.0 
1.394254806367e-03 3.597230653125e-04 0.0 
5.817473917119e-05 -1.475754248558e-04 0.0 
1.993071299991e-03 1.040985364900e-03 0.0 
2.557507575776e-04 -2.199481316318e-04 0.0 
4.620673796914e-04 -2.093483969870e-04 0.0 
7.149721153970e-04 7.828227115472e-06 0.0 
9.938794754660e-05 6.435412691510e-03 0.0 
4.322725526091e-04 -1.921114821456e-04 0.0 
2.167314889898e-05 -1.188479740139e-04 0.0 
3.973245404547e-04 -1.946828234246e-04 0.0 
8.110693267169e-04 -8.348673169115e-05 0.0 
3.678145935176e-04 -1.765258125454e-04 0.0 
3.370788405244e-04 -1.778650177089e-04 0.0 
3.453393440956e-04 1.659523653497e-03 0.0 
3.082250863451e-04 -1.599572792940e-04 0.0 
4.733340761506e-05 7.833377135334e-04 0.0 
5.027289488580e-06 2.252772537025e-06 0.0 
1.155491964653e-04 8.446893439258e-03 0.0 
5.244264091451e-04 2.453061105977e-04 0.0 
3.479478479250e-04 -2.832141886498e-04 0.0 
5.952854665151e-04 5.199276294552e-05 0.0 
2.811910485189e-04 -1.781666323775e-04 0.0 
1.791167749448e-03 6.656486540413e-04 0.0 
2.409306648807e-04 8.398711831684e-03 0.0 
2.553516575039e-04 -1.774211581776e-04 0.0 
9.488843691766e-04 3.966927796337e-04 0.0 
2.236127237394e-04 3.771596936612e-05 0.0 
1.973614651546e-04 4.884183422925e-03 0.0 
3.435329520528e-04 -4.392135531129e-06 0.0 
8.072171410577e-04 -2.099742831159e-05 0.0 
6.442452625528e-05 2.495317354455e-03 0.0 
6.228999438385e-04 9.260324603294e-03 0.0 
2.646250212288e-04 -2.427831545805e-04 0.0 
1.558637667204e-05 -1.727596203112e-05 0.0 
4.539190358026e-04 5.083185587682e-05 0.0 
4.842266362506e-04 -7.983982337624e-05 0.0 
4.309318613159e-04 -1.625853421520e-04 0.0 
6.556164247823e-05 -1.086804607568e-04 0.0 
3.109571459948e-04 -2.615225913252e-04 0.0 
4.214598451755e-04 -7.654342766578e-05 0.0 
2.242534067425e-04 1.182697177003e-05 0.0 
1.076726491621e-03 8.140289514003e-03 0.0 
7.314204963515e-04 3.288470848660e-05 0.0 
3.889134237965e-04 -1.591243644344e-04 0.0 
9.001179325013e-04 1.331368795226e-03 0.0 
3.825957778701e-04 4.420475200862e-05 0.0 
2.838525627299e-05 1.714812246707e-06 0.0 
5.753250071714e-04 4.517558018200e-05 0.0 
3.931112226220e-04 -2.158393976560e-04 0.0 
1.967647334434e-03 6.029260995490e-03 0.0 
6.505058683388e-04 1.537078363828e-04 0.0 
2.820423461473e-04 4.073840708507e-03 0.0 
1.980962131089e-05 1.732330560198e-06 0.0 
1.333720551641e-03 7.794486444791e-03 0.0 
2.041673069576e-04 1.559643151379e-03 0.0 
3.793334761069e-04 -2.765885013614e-04 0.0 
1.019566250083e-04 1.519599556835e-03 0.0 
1.580399026182e-03 5.666090082657e-04 0.0 
5.196246003833e-04 7.164885047111e-03 0.0 
2.390989168225e-03 4.603201348894e-03 0.0 
1.440507503135e-05 2.262652407439e-06 0.0 
1.058391288946e-03 6.017013443939e-04 0.0 
3.779035143090e-04 -2.370902093493e-04 0.0 
3.091371280941e-04 4.987901200088e-03 0.0 
8.777685159203e-05 -9.212743894902e-05 0.0 
3.502428860180e-04 -2.871563137673e-04 0.0 
7.669605226005e-05 8.184167249146e-07 0.0 
1.297348988642e-03 4.529191889844e-04 0.0 
2.452354329684e-05 1.879837718662e-06 0.0 
2.037648057284e-05 -1.529464992471e-04 0.0 
2.246472811314e-04 -2.231692412443e-04 0.0 
9.197400508002e-05 1.627501402465e-06 0.0 
7.559146151460e-04 2.407794972095e-04 0.0 
3.690209411396e-04 -2.658895886074e-04 0.0 
3.175995034073e-04 5.637093412961e-04 0.0 
3.604424675643e-04 -2.507038349980e-04 0.0 
7.860624523494e-04 9.299046007527e-03 0.0 
1.744938585796e-04 -2.023149289497e-04 0.0 
1.537287529497e-05 1.809320727040e-06 0.0 
5.320378561756e-04 1.419597779319e-03 0.0 
5.706095345890e-05 -7.552172239202e-05 0.0 
1.948067833630e-03 5.831584989915e-03 0.0 
4.359216494336e-05 -1.131020742133e-04 0.0 
6.675171575010e-04 9.878655092647e-05 0.0 
2.745451360182e-04 -2.421370023457e-04 0.0 
3.526211284248e-04 1.382059988782e-03 0.0 
1.169123212731e-04 3.385528638618e-06 0.0 
9.739120061772e-04 8.977123156767e-04 0.0 
1.051389624156e-04 1.196231412304e-05 0.0 
3.603081864340e-04 -2.769186821333e-04 0.0 
3.688387482130e-04 5.129579116088e-05 0.0 
2.189115598443e-04 4.407397937004e-07 0.0 
4.853413120013e-04 9.318328175755e-03 0.0 
1.065778276365e-03 7.506860303518e-04 0.0 
6.178586434684e-05 -9.809748307906e-05 0.0 
1.299031755109e-04 -1.692612484117e-04 0.0 
1.995100194889e-05 6.946613163434e-04 0.0 
1.412460071872e-05 -1.789382111454e-04 0.0 
8.716415035755e-05 9.337366091953e-03 0.0 
1.942818780001e-06 1.783676881461e-06 0.0 
8.175486945772e-05 -1.552939446082e-04 0.0 
1.978883518455e-04 7.698485345864e-03 0.0 
7.945352201787e-04 2.901401137717e-04 0.0 
1.324102210245e-05 -4.683458527522e-05 0.0 
1.450072679181e-04 3.141837309659e-03 0.0 
3.243425621486e-04 -2.606245022960e-04 0.0 
3.438090876803e-04 -2.886931258999e-04 0.0 
1.768680351847e-04 5.925162901694e-03 0.0 
3.091300275097e-04 3.245932104058e-05 0.0 
8.291363354974e-04 1.041476523275e-03 0.0 
4.357211613484e-04 6.612140428706e-03 0.0 
3.985033171588e-04 -2.499853127128e-04 0.0 
1.032249661508e-03 3.560565931036e-04 0.0 
5.755246064426e-05 -6.611889930475e-05 0.0 
8.100152748448e-04 1.682334169120e-04 0.0 
2.752419420488e-04 4.880321807302e-06 0.0 
3.461798645311e-04 -2.448138107411e-04 0.0 
1.099799603962e-05 -3.594454315119e-05 0.0 
1.940681927805e-04 -2.100140778045e-04 0.0 
4.753965275788e-05 1.320021327524e-06 0.0 
3.710597265568e-05 -5.852869134866e-05 0.0 

VECTORS node_materi_displacement float
0.0 7.417294703629e-02 0.0 
0.0 1.625752881442e-01 0.0 
0.0 0.0 0.0 
0.0 0.0 0.0 
0.0 7.439152207544e-02 0.0 
0.0 7.414075616640e-02 0.0 
0.0 7.342227257935e-02 0.0 
0.0 7.224948349277e-02 0.0 
0.0 7.062415458513e-02 0.0 
0.0 6.858959937980e-02 0.0 
0.0 6.616815015376e-02 0.0 
0.0 6.337240974688e-02 0.0 
0.0 6.021504092779e-02 0.0 
0.0 5.669873404794e-02 0.0 
0.0 5.281472846538e-02 0.0 
0.0 4.855743882091e-02 0.0 
0.0 4.392538926613e-02 0.0 
0.0 3.892561278382e-02 0.0 
0.0 3.351204294680e-02 0.0 
0.0 2.768087475949e-02 0.0 
0.0 2.142393522611e-02 0.0 
0.0 1.472448461016e-02 0.0 
0.0 7.575274502493e-03 0.0 
0.0 0.0 0.0 
0.0 0.0 0.0 
0.0 0.0 0.0 
0.0 0.0 0.0 
0.0 0.0 0.0 
0.0 0.0 0.0 
0.0 0.0 0.0 
0.0 0.0 0.0 
0.0 0.0 0.0 
0.0 0.0 0.0 
0.0 0.0 0.0 
0.0 0.0 0.0 
0.0 0.0 0.0 
0.0 0.0 0.0 
0.0 0.0 0.0 
0.0 0.0 0.0 
0.0 0.0 0.0 
0.0 0.0 0.0 
0.0 0.0 0.0 
0.0 0.0 0.0 
0.0 0.0 0.0 
0.0 0.0 0.0 
0.0 0.0 0.0 
0.0 0.0 0.0 
0.0 0.0 0.0 
0.0 0.0 0.0 
0.0 0.0 0.0 
0.0 0.0 0.0 
0.0 0.0 0.0 
0.0 0.0 0.0 
0.0 0.0 0.0 
0.0 0.0 0.0 
0.0 0.0 0.0 
0.0 0.0 0.0 
0.0 0.0 0.0 
0.0 0.0 0.0 
0.0 0.0 0.0 
0.0 0.0 0.0 
0.0 0.0 0.0 
0.0 0.0 0.0 
0.0 0.0 0.0 
0.0 0.0 0.0 
0.0 0.0 0.0 
0.0 0.0 0.0 
0.0 0.0 0.0 
0.0 0.0 0.0 
0.0 0.0 0.0 
0.0 0.0 0.0 
0.0 0.0 0.0 
0.0 1.479759081773e-01 0.0 
0.0 1.329480256968e-01 0.0 
0.0 1.175108369532e-01 0.0 
0.0 1.016905965134e-01 0.0 
0.0 8.550272157521e-02 0.0 
0.0 6.897668832935e-02 0.0 
0.0 5.213726274042e-02 0.0 
0.0 3.501174213186e-02 0.0 
0.0 1.763025542943e-02 0.0 
-1.350425190985e-02 4.703136297836e-02 0.0 
2.183050588066e-02 1.492239391317e-01 0.0 
-6.049482004052e-03 7.200475452901e-02 0.0 
-1.314201080008e-04 9.192899063618e-02 0.0 
4.809859222855e-03 1.088277762199e-01 0.0 
8.899682226008e-03 1.228474410087e-01 0.0 
1.282132392169e-02 1.343605860586e-01 0.0 
1.647624773477e-02 1.432939706486e-01 0.0 
1.961184080224e-02 1.494477884140e-01 0.0 
2.195835437777e-02 1.526779071640e-01 0.0 
2.307851537564e-02 1.527122806829e-01 0.0 
1.365385098830e-03 1.626458953682e-01 0.0 
2.666877160812e-03 1.626341601191e-01 0.0 
3.979045294433e-03 1.626658416649e-01 0.0 
5.297770402028e-03 1.627091925929e-01 0.0 
6.619356247968e-03 1.627144682993e-01 0.0 
7.933443600698e-03 1.626950044632e-01 0.0 
9.245089741274e-03 1.625992834447e-01 0.0 
1.054217907647e-02 1.623948250222e-01 0.0 
1.183632832202e-02 1.620191408288e-01 0.0 
1.313274272989e-02 1.614277477166e-01 0.0 
1.442927040384e-02 1.604781270557e-01 0.0 
1.577727896267e-02 1.590434339491e-01 0.0 
1.727292868344e-02 1.569528004254e-01 0.0 
1.911458851684e-02 1.539345410651e-01 0.0 
-1.073157313432e-02 3.284912395783e-02 0.0 
-6.594379452106e-03 2.522938539677e-02 0.0 
-2.124255062886e-03 2.211384194185e-02 0.0 
2.578085485331e-03 2.367269592799e-02 0.0 
5.871964826182e-03 3.206788935122e-02 0.0 
7.626490000882e-03 4.218442617506e-02 0.0 
8.313151522083e-03 4.893478888295e-02 0.0 
8.439112194952e-03 5.419778853005e-02 0.0 
7.976488864701e-03 5.843494107069e-02 0.0 
7.468083722111e-03 6.185416607481e-02 0.0 
6.935663231197e-03 6.465193893509e-02 0.0 
6.306491666158e-03 6.689911264241e-02 0.0 
5.680585791153e-03 6.876681782025e-02 0.0 
4.913133951310e-03 7.029740340616e-02 0.0 
4.136240878700e-03 7.153237274681e-02 0.0 
3.369843877237e-03 7.249193734073e-02 0.0 
2.591799131559e-03 7.323465514765e-02 0.0 
1.799914439076e-03 7.377671868370e-02 0.0 
8.665402353083e-04 7.408320766194e-02 0.0 
-9.339859954707e-03 6.090374524357e-02 0.0 
-2.983221213650e-03 8.234260145098e-02 0.0 
2.466672827161e-03 1.007561806105e-01 0.0 
6.933190377059e-03 1.161761476752e-01 0.0 
1.093898149905e-02 1.289746710413e-01 0.0 
1.474558415638e-02 1.392155082344e-01 0.0 
1.814907236640e-02 1.467233235201e-01 0.0 
2.092067253365e-02 1.514357365764e-01 0.0 
2.273158819273e-02 1.531081869325e-01 0.0 
2.293386273449e-02 1.514490040893e-01 0.0 
4.426846398520e-03 8.108017838581e-02 0.0 
3.153351660699e-03 6.705008516655e-03 0.0 
4.935936623492e-03 6.020383580907e-02 0.0 
4.234448683227e-04 2.938753840227e-02 0.0 
1.322719273768e-03 6.373989864127e-03 0.0 
1.311522681414e-02 1.123690589525e-01 0.0 
7.658767652081e-05 5.466652998244e-02 0.0 
4.874750478813e-03 7.598892156626e-03 0.0 
2.016120718755e-02 1.318171826203e-01 0.0 
6.020036064012e-03 8.755836613308e-03 0.0 
2.497118233578e-02 1.415381663272e-01 0.0 
4.311657275944e-04 5.940927820922e-03 0.0 
4.015120269285e-03 6.984488184788e-02 0.0 
6.587227071971e-03 1.064772984025e-02 0.0 
2.474079535297e-02 1.388521670707e-01 0.0 
4.958853425900e-05 6.726871267893e-02 0.0 
1.256454206243e-04 4.245398205233e-02 0.0 
6.537163451804e-03 1.253256940516e-02 0.0 
4.985926983489e-03 1.352879351848e-02 0.0 
1.440856579460e-03 1.501231598055e-02 0.0 
2.717132335618e-03 1.607313477367e-02 0.0 
3.640921572390e-03 1.397887891013e-02 0.0 
2.001463309789e-02 1.425939936983e-01 0.0 
1.300353272197e-02 1.485642849011e-01 0.0 
8.695538442089e-03 1.491170199301e-01 0.0 
8.948990830653e-04 9.339615409332e-02 0.0 
1.470556454704e-04 6.531734727234e-03 0.0 
-3.285209968587e-03 3.194971946476e-02 0.0 
2.363665078334e-03 7.304672603610e-02 0.0 
9.442603374807e-05 2.506900249733e-02 0.0 
4.535759135883e-03 1.501214896916e-01 0.0 
2.566021602138e-04 7.282220782656e-02 0.0 
6.560769769404e-03 1.481227437922e-02 0.0 
5.116640526687e-03 7.493323139252e-03 0.0 
6.334882518936e-03 9.532553089152e-03 0.0 
4.314918883657e-03 7.519845560382e-03 0.0 
2.210640597269e-03 6.167337260709e-03 0.0 
3.142807027415e-03 4.546324129467e-02 0.0 
1.614262473812e-02 1.475059684864e-01 0.0 
9.297297925755e-04 7.293737827497e-03 0.0 
6.921897819843e-04 6.131477048314e-02 0.0 
4.753860821060e-03 6.587179933771e-02 0.0 
4.563544854568e-05 6.176373431532e-02 0.0 
7.131630064388e-04 1.223964731920e-02 0.0 
1.695238085663e-02 1.225018460022e-01 0.0 
9.122199064329e-03 9.833901240302e-02 0.0 
2.297255600376e-02 1.379712768114e-01 0.0 
2.573970256931e-02 1.419718755717e-01 0.0 
-1.757767605935e-03 6.063023345553e-02 0.0 
1.057235714248e-03 1.234409070968e-01 0.0 
5.260943725452e-05 5.208566290836e-03 0.0 
1.076108216938e-03 7.416064440560e-02 0.0 
3.863381744825e-04 2.764803462661e-02 0.0 
2.417762098165e-02 1.350858259363e-01 0.0 
2.614689380793e-02 1.259618546790e-01 0.0 
2.451498164815e-02 1.237876010792e-01 0.0 
2.650662191583e-02 1.132002046273e-01 0.0 
2.487555849840e-02 1.088347638384e-01 0.0 
2.615541743707e-02 9.977998136773e-02 0.0 
2.788335760228e-02 1.037082086911e-01 0.0 
2.703533457722e-02 9.086881039590e-02 0.0 
2.880956019579e-02 9.460398465422e-02 0.0 
2.415459615803e-02 9.483546481757e-02 0.0 
2.748415741682e-02 8.220392765098e-02 0.0 
2.929285209519e-02 8.579611197342e-02 0.0 
2.750506069695e-02 7.386895881437e-02 0.0 
2.933175382611e-02 7.734817627217e-02 0.0 
3.077010217182e-02 8.861021535544e-02 0.0 
3.082484308579e-02 8.012108712928e-02 0.0 
3.188730700471e-02 9.062661998831e-02 0.0 
3.195075261719e-02 8.210942130704e-02 0.0 
3.045349201135e-02 7.209497305473e-02 0.0 
3.158318760819e-02 7.410633460055e-02 0.0 
3.270191583433e-02 8.335365665112e-02 0.0 
3.232730490048e-02 7.539561019437e-02 0.0 
3.307387770970e-02 8.386239600272e-02 0.0 
3.268416534263e-02 7.595711380994e-02 0.0 
3.307764876613e-02 8.365974602749e-02 0.0 
3.266701118306e-02 7.585550408107e-02 0.0 
3.187305029575e-02 6.862285293932e-02 0.0 
3.182777067660e-02 6.866417890146e-02 0.0 
3.228754367667e-02 7.512119345645e-02 0.0 
3.140739080737e-02 6.810048381317e-02 0.0 
3.155942303416e-02 7.378787400856e-02 0.0 
3.062339649747e-02 6.696993722225e-02 0.0 
3.013273035871e-02 6.171190621626e-02 0.0 
2.929281053310e-02 6.084306341540e-02 0.0 
2.948564856524e-02 6.532531233016e-02 0.0 
2.809097182343e-02 5.952351798978e-02 0.0 
2.800597446130e-02 6.322383075551e-02 0.0 
2.654068723090e-02 5.781751811040e-02 0.0 
2.619778236240e-02 6.072501914693e-02 0.0 
2.464217130224e-02 5.579106352059e-02 0.0 
2.477195660915e-02 5.314953960770e-02 0.0 
2.281427701778e-02 5.164192848935e-02 0.0 
2.241097216549e-02 5.355163548994e-02 0.0 
2.054378362632e-02 5.003531694050e-02 0.0 
2.081103577468e-02 4.823661101877e-02 0.0 
1.855687527578e-02 4.728277054873e-02 0.0 
1.871905630415e-02 4.547138258888e-02 0.0 
1.653803700771e-02 4.515435346162e-02 0.0 
1.609017627054e-02 4.644439311213e-02 0.0 
1.418817292950e-02 4.499946694258e-02 0.0 
1.455967234100e-02 4.350381716321e-02 0.0 
1.236736627184e-02 4.397610048839e-02 0.0 
1.173091004323e-02 4.513737177875e-02 0.0 
1.014061365280e-02 4.472523646258e-02 0.0 
1.067927763472e-02 4.320872865705e-02 0.0 
8.684291451705e-03 4.447976709470e-02 0.0 
7.961835840421e-03 4.583471730312e-02 0.0 
6.778318956280e-03 4.604737542986e-02 0.0 
7.387324219243e-03 4.424837167491e-02 0.0 
5.728627965337e-03 4.620105777180e-02 0.0 
5.028018593379e-03 4.794039761996e-02 0.0 
4.244767580963e-03 4.837389987015e-02 0.0 
4.810554792670e-03 4.619430610399e-02 0.0 
3.554122350674e-03 4.860666225968e-02 0.0 
3.996640163936e-03 4.600666604124e-02 0.0 
2.957047074333e-03 5.080353208424e-02 0.0 
2.489188040091e-03 5.116340952791e-02 0.0 
1.919352683098e-03 5.341444310160e-02 0.0 
1.639429334963e-03 5.381772306465e-02 0.0 
2.851476196239e-02 5.594288730893e-02 0.0 
1.163733944062e-03 5.609018353960e-02 0.0 
1.320905867616e-03 5.529925124491e-02 0.0 
1.014353793285e-03 5.650048119616e-02 0.0 
1.379508984202e-03 5.391079193246e-02 0.0 
6.643586347186e-04 5.878049001503e-02 0.0 
5.973646616951e-04 5.914730376804e-02 0.0 
3.921488331357e-04 6.140518054092e-02 0.0 
2.733881185380e-02 6.661208091991e-02 0.0 
2.966883681090e-02 6.454814280329e-02 0.0 
3.595045583876e-04 6.169348584644e-02 0.0 
2.999478219084e-04 6.388951688609e-02 0.0 
3.182525954590e-04 6.337465438292e-02 0.0 
3.995993271830e-04 6.577679949578e-02 0.0 
2.292369754433e-02 1.037568460406e-01 0.0 
2.192638487828e-02 8.911187043799e-02 0.0 
2.081216892062e-02 9.787617798214e-02 0.0 
1.953094323456e-02 8.275667733183e-02 0.0 
1.856354154148e-02 9.119571822062e-02 0.0 
3.285009727979e-04 6.617166245351e-02 0.0 
2.534066959140e-02 6.927353303520e-02 0.0 
2.014935021495e-02 7.420214729778e-02 0.0 
3.301725096105e-02 9.234466371805e-02 0.0 
3.204721610509e-02 8.129778939145e-02 0.0 
2.065188865255e-02 4.583200885711e-02 0.0 
5.184581281593e-04 5.918715945960e-02 0.0 
3.112975124716e-04 6.166497809858e-02 0.0 
4.356661977900e-04 5.891966974116e-02 0.0 
5.178937238202e-03 4.355540460663e-02 0.0 
4.257238769411e-03 4.297904924534e-02 0.0 
5.322173928064e-03 4.044260228285e-02 0.0 
4.319866034765e-03 3.949650038152e-02 0.0 
5.230572741454e-03 3.683798328363e-02 0.0 
4.179899412633e-03 3.553427553810e-02 0.0 
3.446600959766e-03 3.837098959500e-02 0.0 
3.274015780469e-03 3.405793282620e-02 0.0 
2.696232478257e-03 3.704784338855e-02 0.0 
4.907429041052e-03 3.272393463116e-02 0.0 
6.134926078678e-03 3.423280985160e-02 0.0 
2.505741290267e-03 3.239889491341e-02 0.0 
2.061812218029e-03 3.551614331860e-02 0.0 
1.866776958055e-03 3.054500361796e-02 0.0 
1.535783047169e-03 3.377576425533e-02 0.0 
1.635476250974e-03 3.860603020098e-02 0.0 
1.214961401303e-03 3.695682369253e-02 0.0 
1.247153172975e-03 4.164962574049e-02 0.0 
1.846175909982e-02 4.303223847962e-02 0.0 
2.004728216856e-02 4.281910195731e-02 0.0 
1.776987114911e-02 3.997360330611e-02 0.0 
1.897222030553e-02 3.919713195908e-02 0.0 
1.663090632176e-02 3.629653653268e-02 0.0 
1.741793978215e-02 3.496764572525e-02 0.0 
1.503827294044e-02 3.200022472507e-02 0.0 
1.434635779771e-02 3.369364865424e-02 0.0 
2.710599599689e-02 6.578408632379e-02 0.0 
1.986642903038e-02 5.121863384232e-02 0.0 
2.157948382526e-02 5.488874982225e-02 0.0 
1.880298440567e-02 5.177473242540e-02 0.0 
2.033776721311e-02 5.564194939477e-02 0.0 
1.737632437523e-02 5.166940847389e-02 0.0 
1.871132495547e-02 5.582139208590e-02 0.0 
1.561864480718e-02 5.088333321597e-02 0.0 
1.413789723540e-02 4.787384215229e-02 0.0 
1.221743525620e-02 4.613634343496e-02 0.0 
1.066887861641e-02 4.457893758708e-02 0.0 
8.590100271676e-03 4.204091408909e-02 0.0 
7.118564173730e-03 4.216161779928e-02 0.0 
3.067458967622e-02 6.186522595035e-02 0.0 
1.983154156401e-02 3.824859805437e-02 0.0 
1.783354582051e-02 3.342037104121e-02 0.0 
2.029601868004e-02 3.703544883554e-02 0.0 
4.536535823839e-04 6.505862669250e-02 0.0 
1.108362296549e-03 3.182907364084e-02 0.0 
5.582631190790e-03 2.992743399815e-02 0.0 
6.978930961770e-03 3.170459578473e-02 0.0 
1.274548486683e-02 2.926515022127e-02 0.0 
5.638445236897e-04 6.792328955172e-02 0.0 
1.672327987805e-02 5.545809632194e-02 0.0 
1.955006756007e-02 6.136887577661e-02 0.0 
1.704872693178e-02 7.565067843021e-02 0.0 
1.625807435364e-02 8.386711054636e-02 0.0 
6.152148545335e-03 2.713253163047e-02 0.0 
4.177246513111e-04 6.820970446569e-02 0.0 
2.938291522757e-03 2.926026925584e-02 0.0 
1.002166832621e-02 4.353059599238e-02 0.0 
8.725677334931e-04 3.509698272123e-02 0.0 
7.689810150776e-04 2.968929467264e-02 0.0 
2.747242642673e-03 4.121900078249e-02 0.0 
1.783150371940e-02 3.157692490036e-02 0.0 
2.037154469418e-02 3.556600679325e-02 0.0 
9.168263780195e-03 4.428931906401e-02 0.0 
5.875087584729e-03 4.329875108630e-02 0.0 
3.729571369903e-03 4.099622424786e-02 0.0 
2.963882695282e-03 4.362821131531e-02 0.0 
4.905933567285e-03 4.500620128632e-02 0.0 
2.427986613147e-03 4.617625728361e-02 0.0 
7.181677102916e-04 4.511590638599e-02 0.0 
5.994570392173e-04 4.833274610970e-02 0.0 
2.087405956028e-03 4.864851180211e-02 0.0 
6.499298858468e-04 5.116638425249e-02 0.0 
-3.813689081539e-04 5.128034417393e-02 0.0 
-1.004184135084e-04 5.418459756236e-02 0.0 
9.360639040419e-04 2.624537384154e-02 0.0 
6.293841473119e-03 3.865135921938e-02 0.0 
3.137643300893e-02 9.960539604124e-02 0.0 
4.792283043869e-03 2.506157309820e-02 0.0 
1.302951878649e-02 2.715213385484e-02 0.0 
1.453942244120e-02 6.796336848072e-02 0.0 
1.394154765967e-02 7.600488972473e-02 0.0 
1.521356840353e-02 9.204239923914e-02 0.0 
1.310268926462e-02 8.396961242785e-02 0.0 
1.166188843590e-02 6.769842860040e-02 0.0 
1.103193876842e-02 7.555027079887e-02 0.0 
1.209674217392e-02 9.181529724766e-02 0.0 
1.022693540057e-02 8.329064525006e-02 0.0 
1.098874533847e-02 9.948586929604e-02 0.0 
9.302865978781e-03 9.088818197968e-02 0.0 
8.423186678084e-03 7.450904156958e-02 0.0 
7.671381719147e-03 8.209286155873e-02 0.0 
8.304332701225e-03 9.834885831358e-02 0.0 
6.821039519365e-03 8.955906744899e-02 0.0 
7.261096927772e-03 1.056617017865e-01 0.0 
5.899519477265e-03 9.690406064887e-02 0.0 
5.414352218827e-03 8.062266490800e-02 0.0 
7.294782490882e-04 6.970598789854e-02 0.0 
1.216828606454e-02 3.130819526389e-02 0.0 
1.058174403196e-02 2.669064506869e-02 0.0 
2.600998767583e-04 6.130445205534e-02 0.0 
3.600303424710e-04 5.833035555457e-02 0.0 
5.876035428584e-04 5.583170998159e-02 0.0 
4.605715633007e-04 5.504113534799e-02 0.0 
4.588972149142e-03 8.809130602250e-02 0.0 
4.110805311122e-03 7.157718402235e-02 0.0 
1.719452165980e-02 6.169964674205e-02 0.0 
1.969561733629e-02 6.834487986015e-02 0.0 
1.482677897400e-02 5.990201898448e-02 0.0 
5.991791423299e-04 3.303779409742e-02 0.0 
6.541553640213e-04 3.827556056694e-02 0.0 
3.104511067711e-02 7.916808741608e-02 0.0 
3.107976408769e-02 8.716545086660e-02 0.0 
2.984460776477e-02 8.428443462960e-02 0.0 
2.931087275194e-02 9.286878011045e-02 0.0 
3.056002765103e-02 9.585647580535e-02 0.0 
2.785367305074e-02 8.922140029576e-02 0.0 
7.528087263108e-03 3.570032036518e-02 0.0 
6.721927780687e-03 6.553559941348e-02 0.0 
3.005010877476e-04 6.251163679419e-02 0.0 
4.833743883986e-04 6.400555821351e-02 0.0 
5.065943504737e-04 2.736683646561e-02 0.0 
1.335528030029e-02 3.528964399456e-02 0.0 
3.035298512779e-02 6.105056377358e-02 0.0 
2.881851776720e-02 5.466411019427e-02 0.0 
2.809223700981e-02 5.308103765168e-02 0.0 
2.624350102745e-02 4.704447483715e-02 0.0 
2.507020346079e-02 4.469454418795e-02 0.0 
2.292600939856e-02 3.899340162414e-02 0.0 
2.412471113314e-02 4.148402912560e-02 0.0 
1.735969656820e-02 2.933083410375e-02 0.0 
2.055146225726e-02 3.369619559031e-02 0.0 
5.006396027298e-03 1.042784497424e-01 0.0 
2.222306185846e-02 4.195212451769e-02 0.0 
1.858207576711e-03 5.083268670423e-02 0.0 
9.851854858590e-04 6.921803798964e-02 0.0 
-4.300858768106e-04 5.474544084551e-02 0.0 
5.072581607620e-04 6.995153814145e-02 0.0 
2.890856319051e-04 6.820036122908e-02 0.0 
5.072076147040e-03 2.199580658577e-02 0.0 
2.125746711881e-02 3.587144477519e-02 0.0 
2.344756135653e-02 4.170465761548e-02 0.0 
2.818660480528e-02 1.022080885794e-01 0.0 
2.947287923814e-02 1.051991652507e-01 0.0 
1.479146058611e-02 2.551126009859e-02 0.0 
1.935796269319e-02 1.067043683462e-01 0.0 
1.269110494211e-02 1.078391621782e-01 0.0 
1.135916086340e-02 1.153800442087e-01 0.0 
9.062406859538e-04 7.130057191553e-02 0.0 
-6.675915537538e-04 5.130146614889e-02 0.0 
9.471768076706e-03 5.905840386050e-02 0.0 
2.206395564886e-02 6.698662715672e-02 0.0 
2.196305453969e-02 7.446497471245e-02 0.0 
7.319765984018e-03 4.036682448221e-02 0.0 
3.864561590657e-03 3.487828715117e-02 0.0 
3.427796195314e-03 7.891948715399e-02 0.0 
2.967951622098e-03 6.240203210602e-02 0.0 
7.323050094339e-04 5.240922001293e-02 0.0 
5.636367093873e-04 5.136951527013e-02 0.0 
6.562133011042e-03 2.428555092844e-02 0.0 
-1.519164455307e-04 5.742290244635e-02 0.0 
3.435965936276e-03 5.479639890395e-02 0.0 
1.131259987668e-02 3.325428126220e-02 0.0 
1.212271946007e-02 3.685621017321e-02 0.0 
2.703931735253e-04 5.754762908436e-02 0.0 
1.676853122362e-02 6.949476784397e-02 0.0 
1.422887818937e-02 6.179404661546e-02 0.0 
3.540832941860e-03 4.861956783113e-02 0.0 
1.475593495837e-04 5.648639928444e-02 0.0 
3.220369754380e-04 6.986613833006e-02 0.0 
5.142663863707e-03 1.884012764825e-02 0.0 
9.662698155645e-03 5.122876467910e-02 0.0 
2.180601609342e-02 3.639932707273e-02 0.0 
2.488140849803e-02 4.344926170857e-02 0.0 
1.801665183066e-02 2.882235048650e-02 0.0 
2.351704016692e-04 5.822795480525e-02 0.0 
3.788316938883e-03 1.961078020725e-02 0.0 
3.860854690527e-04 3.079635548492e-02 0.0 
1.932742872957e-02 3.258787296679e-02 0.0 
2.138328375530e-02 3.808012080387e-02 0.0 
2.429844106885e-02 7.216820404119e-02 0.0 
2.408728861516e-02 8.006476064743e-02 0.0 
2.109641058642e-02 8.310470547022e-02 0.0 
2.309201633525e-02 8.889526154776e-02 0.0 
2.930761690381e-02 1.068525432521e-01 0.0 
2.632565476078e-02 7.685249878992e-02 0.0 
3.212370283948e-02 1.008677655865e-01 0.0 
3.115358148129e-02 1.103156738327e-01 0.0 
3.150407294684e-02 1.108421147956e-01 0.0 
3.150016795733e-02 9.823396459556e-02 0.0 
3.044860603672e-02 1.076592367460e-01 0.0 
2.298729732825e-02 5.958160487974e-02 0.0 
2.229719461972e-02 4.612759108388e-02 0.0 
9.259454045420e-04 5.318402665138e-02 0.0 
1.641274617974e-03 4.298293521284e-02 0.0 
6.459156351560e-03 4.123457208480e-02 0.0 
7.161833894833e-03 5.786126256967e-02 0.0 
5.438764764649e-03 4.871258931745e-02 0.0 
8.657510946979e-03 1.142676805955e-01 0.0 
7.485701171168e-03 1.214041984931e-01 0.0 
8.834381616247e-04 6.644282240729e-02 0.0 
1.048616248406e-03 6.519475578026e-02 0.0 
3.279862148107e-03 4.560226279220e-02 0.0 
3.624417947807e-03 2.288611485986e-02 0.0 
1.215204209046e-02 5.187430262347e-02 0.0 
1.188287474163e-02 4.397763953989e-02 0.0 
1.474139204841e-02 5.186666276101e-02 0.0 
6.746627539297e-03 2.135041561398e-02 0.0 
1.706809464032e-02 4.898139611013e-02 0.0 
1.627958335522e-02 4.067571344580e-02 0.0 
2.992919430036e-03 3.547554843457e-02 0.0 
2.902234331994e-02 5.607213680704e-02 0.0 
1.681964445059e-03 6.748413489090e-02 0.0 
2.816244225871e-02 6.182776346243e-02 0.0 
3.112376184800e-04 2.487682640888e-02 0.0 
3.861637389625e-04 2.124627810648e-02 0.0 
1.379858011836e-02 2.265220520589e-02 0.0 
2.710576995040e-02 1.286813632915e-01 0.0 
2.714898978381e-02 5.061646195711e-02 0.0 
2.662137556689e-02 5.079592564674e-02 0.0 
3.006536141070e-02 1.206680869245e-01 0.0 
3.000634217402e-02 1.204789527804e-01 0.0 
3.149173428697e-02 1.106047349710e-01 0.0 
2.958542593231e-02 1.196076418321e-01 0.0 
3.056328920438e-03 5.020202735394e-02 0.0 
1.676711635231e-03 5.264795566478e-02 0.0 
1.647256256763e-02 2.633490419752e-02 0.0 
1.636304745066e-02 2.566802040482e-02 0.0 
1.686778460637e-02 2.847252710551e-02 0.0 
1.886950800604e-02 3.370848858432e-02 0.0 
1.119147201174e-02 1.884812959672e-02 0.0 
1.225444917161e-02 2.193404350544e-02 0.0 
1.832452402351e-04 6.791268459103e-02 0.0 
2.785805207137e-02 1.150155848123e-01 0.0 
7.402389426886e-03 4.234877124096e-02 0.0 
2.974781896314e-02 1.201168488749e-01 0.0 
2.736532805737e-03 1.727718728473e-02 0.0 
2.651121139976e-03 2.058493246337e-02 0.0 
1.143863430425e-03 3.141629425883e-02 0.0 
3.264195233183e-04 3.473586583086e-02 0.0 
2.358757674386e-03 4.583607856170e-02 0.0 
1.945036274448e-02 9.255803755399e-02 0.0 
2.131428573484e-02 9.839098780227e-02 0.0 
1.750040094263e-02 8.591497570634e-02 0.0 
3.212615063943e-05 1.123888173889e-02 0.0 
1.980672683967e-03 1.502642925134e-01 0.0 
2.207127462225e-04 1.851756276885e-02 0.0 
3.216701847430e-02 1.000445525247e-01 0.0 
2.561465515226e-03 3.744782128884e-02 0.0 
2.507617601119e-02 4.575983584857e-02 0.0 
2.971140904327e-02 7.652740813177e-02 0.0 
8.258168148918e-03 2.653100551349e-02 0.0 
1.903581073304e-03 5.488534690794e-02 0.0 
1.423129001436e-03 3.605934022835e-02 0.0 
1.283163375308e-02 1.232975277930e-01 0.0 
1.140808226188e-02 1.309128500652e-01 0.0 
1.437110061369e-02 1.158709934239e-01 0.0 
1.100622269751e-02 4.738252426772e-02 0.0 
7.388108781921e-03 4.548397414031e-02 0.0 
5.157776057550e-03 5.640184920067e-02 0.0 
2.150686869154e-04 6.396805280702e-02 0.0 
1.633473693087e-04 6.331962956312e-02 0.0 
8.867148248692e-05 5.956170534544e-02 0.0 
2.956902450720e-04 5.832679612218e-02 0.0 
1.095857317430e-03 4.968504935970e-02 0.0 
1.383241300009e-03 5.046047277707e-02 0.0 
2.694966136569e-02 5.465646811347e-02 0.0 
2.505532646773e-02 5.128665112965e-02 0.0 
2.963257157048e-02 5.964604342958e-02 0.0 
1.024005205890e-02 3.517779359990e-02 0.0 
1.071657485142e-02 3.846348075693e-02 0.0 
1.257981825027e-02 3.983591977193e-02 0.0 
5.574245821093e-03 4.151331369983e-02 0.0 
3.735758096642e-03 3.079919828394e-02 0.0 
4.847477568025e-03 4.817122473752e-02 0.0 
5.677074500481e-03 4.699323192297e-02 0.0 
2.626154666109e-03 5.154728836292e-02 0.0 
7.141438913835e-03 3.486287860733e-02 0.0 
2.620903859489e-04 1.485996615403e-02 0.0 
4.458077469876e-04 1.775372083894e-02 0.0 
2.060162495280e-03 6.609357344212e-02 0.0 
1.169219191715e-03 6.354467370887e-02 0.0 
1.297507198309e-02 7.054062598155e-02 0.0 
1.015970320374e-02 6.192746518252e-02 0.0 
1.136106175625e-02 3.677279595639e-02 0.0 
1.426887374142e-02 4.406717572083e-02 0.0 
8.216095617428e-03 2.794174048770e-02 0.0 
1.830322731109e-04 6.961945808719e-02 0.0 
2.257777640183e-02 3.849955649194e-02 0.0 
5.124805245588e-03 1.586818863799e-02 0.0 
6.842486303120e-03 1.861334573481e-02 0.0 
3.439456407924e-03 1.237040721100e-02 0.0 
1.652900393841e-02 2.690679478304e-02 0.0 
1.244974027297e-02 1.968194664001e-02 0.0 
1.346470989572e-02 2.073630449179e-02 0.0 
1.191311017330e-03 3.084210328456e-02 0.0 
1.064191625120e-03 4.314093715320e-02 0.0 
8.774686872398e-03 1.298272545570e-01 0.0 
-1.049754991395e-04 2.787473565337e-02 0.0 
7.520306082158e-03 1.373041618690e-01 0.0 
6.359337385922e-03 1.285044748552e-01 0.0 
6.469815153036e-03 1.445640142587e-01 0.0 
3.112845346617e-04 7.125470209960e-02 0.0 
1.425838641426e-02 1.336715719376e-01 0.0 
1.608737299567e-02 1.240967847726e-01 0.0 
2.761657978109e-03 6.437868349865e-02 0.0 
4.866750116405e-03 2.596526530493e-02 0.0 
2.726407395657e-03 6.800956757111e-02 0.0 
2.182965144330e-03 6.920583246667e-02 0.0 
1.878533726786e-03 1.458357072301e-02 0.0 
1.861779736091e-03 1.811248230590e-02 0.0 
1.197010799375e-03 1.188692034807e-02 0.0 
1.271472146696e-03 1.582889466597e-02 0.0 
1.758939690491e-03 2.170005351019e-02 0.0 
1.199464414869e-03 1.923503721730e-02 0.0 
1.010515940845e-02 1.393565710826e-01 0.0 
7.581424757067e-04 1.214635081859e-02 0.0 
7.661017244828e-04 1.646864162331e-02 0.0 
4.171427038536e-04 9.447934980396e-03 0.0 
2.756488700559e-02 1.300902470334e-01 0.0 
2.477837789495e-02 9.404209340109e-02 0.0 
2.296157748118e-02 1.038414989232e-01 0.0 
1.863920646068e-02 1.090707410658e-01 0.0 
1.282492078188e-02 2.141804141500e-02 0.0 
1.622870704177e-02 2.925959969904e-02 0.0 
2.228921128717e-04 2.826147793465e-02 0.0 
2.540464999639e-04 3.399057619826e-02 0.0 
5.219014572695e-03 1.366187766764e-01 0.0 
3.821933296512e-03 1.372380317488e-01 0.0 
4.216788384591e-03 1.232633161358e-01 0.0 
3.042510990543e-03 1.249617948037e-01 0.0 
3.310362042550e-03 1.109655784036e-01 0.0 
2.127798296886e-03 1.127543655132e-01 0.0 
2.551471916522e-03 9.847831441633e-02 0.0 
1.128619595922e-02 1.700341111365e-02 0.0 
1.493303808526e-02 9.544247273803e-02 0.0 
2.815779592881e-02 1.309969217619e-01 0.0 
8.652126165833e-03 1.523109094508e-02 0.0 
1.011273926541e-02 1.911407776502e-02 0.0 
2.887451659376e-02 1.175622181022e-01 0.0 
2.560356974431e-02 1.255437090161e-01 0.0 
2.449420201630e-03 1.284671708303e-02 0.0 
2.606205777362e-02 6.961427109400e-02 0.0 
3.687358250208e-03 1.642433554447e-02 0.0 
-4.236183914084e-03 4.117657633681e-02 0.0 
1.933773378231e-03 4.044544471630e-02 0.0 
2.797218138854e-02 7.341575434662e-02 0.0 
3.113625216867e-02 1.095589673351e-01 0.0 
2.652480769227e-02 9.851865400722e-02 0.0 
2.499709656816e-02 1.083800872412e-01 0.0 
9.431165388983e-03 3.124448038647e-02 0.0 
1.372758893416e-03 6.146482041168e-02 0.0 
1.538649942866e-02 7.855244781025e-02 0.0 
3.723758757790e-03 9.687991898771e-02 0.0 
1.059289202645e-02 7.985296337997e-02 0.0 
1.117067923592e-04 3.099782242887e-02 0.0 
2.530905223458e-02 6.327719105202e-02 0.0 
3.269152807436e-02 9.109527015084e-02 0.0 
1.902964409996e-02 7.657171450579e-02 0.0 
2.615192678602e-02 8.502850840088e-02 0.0 
3.027470353067e-02 9.753713238975e-02 0.0 
2.791936315336e-02 1.163840188968e-01 0.0 
2.894694243716e-02 1.189414827145e-01 0.0 
2.405081336993e-02 5.795011288571e-02 0.0 
2.658431933199e-02 1.120012781473e-01 0.0 
2.261242631557e-02 1.192227382545e-01 0.0 
3.264287233962e-02 9.186448515089e-02 0.0 
1.759284398118e-02 5.918754445649e-02 0.0 
1.723483445067e-02 5.113208972662e-02 0.0 
1.346115034942e-02 3.686178158245e-02 0.0 
1.645264437865e-02 4.345683534133e-02 0.0 
2.012066192021e-02 5.767148371532e-02 0.0 
1.944054361134e-02 4.982167431862e-02 0.0 
1.525724376359e-02 3.626130296802e-02 0.0 
1.833391752747e-02 4.234450371644e-02 0.0 
1.254306409098e-02 2.659648811863e-02 0.0 
1.666816434887e-02 3.497267779502e-02 0.0 
2.125977645763e-02 4.816541122970e-02 0.0 
1.989202368186e-02 4.127313821326e-02 0.0 
1.535951175112e-02 2.984257435011e-02 0.0 
2.405321701279e-02 5.400390927769e-02 0.0 
7.118871572658e-03 1.178526534613e-02 0.0 
2.907394480084e-02 6.950205458718e-02 0.0 
4.067530223941e-03 3.699869794562e-02 0.0 
4.928385913971e-03 5.042941873665e-02 0.0 
3.303139130664e-02 9.208606956207e-02 0.0 
6.315659809638e-03 1.306126662255e-02 0.0 
5.513499223820e-03 1.362457689467e-02 0.0 
2.147040431901e-02 6.069421220290e-02 0.0 
6.476164625816e-03 1.004908437324e-02 0.0 
3.039055104096e-02 1.090786180479e-01 0.0 
1.355317554639e-02 4.942213175536e-02 0.0 
6.278363454625e-03 9.249010330524e-03 0.0 
2.035497710030e-02 6.579402954165e-02 0.0 
2.297631790278e-02 7.203413664741e-02 0.0 
2.265753430039e-02 8.050913579842e-02 0.0 
4.410914361150e-03 1.324044893735e-02 0.0 
1.591008420720e-02 1.080115309646e-01 0.0 
4.846817644899e-03 7.289466104813e-03 0.0 
2.131473905950e-02 4.248394138251e-02 0.0 
2.360292020249e-02 4.629100896104e-02 0.0 
2.443270314423e-02 4.999953180456e-02 0.0 
2.229498865975e-02 5.594050405166e-02 0.0 
3.542844247697e-03 6.753309420760e-03 0.0 
6.167770738863e-03 1.257966855145e-02 0.0 
5.392250430730e-03 1.232304680640e-02 0.0 
8.315251804671e-03 1.823735303171e-02 0.0 
2.685671289860e-03 6.465581997985e-03 0.0 
6.100789333232e-03 1.093295944041e-02 0.0 
5.908133351647e-03 9.989197809850e-03 0.0 
4.138142235172e-03 4.683565173478e-02 0.0 
6.663961669749e-03 4.582083957251e-02 0.0 
8.145179742377e-03 4.602029794175e-02 0.0 
9.474953421897e-03 4.558583064227e-02 0.0 
7.824075536390e-03 4.482063955400e-02 0.0 
1.093862244992e-02 4.555728685576e-02 0.0 
1.238616248748e-02 4.605875921051e-02 0.0 
1.251618226482e-02 4.620638267525e-02 0.0 
2.099163361523e-02 4.025050075258e-02 0.0 
1.870080418405e-03 6.090559777110e-03 0.0 
6.430354598376e-03 3.800511279062e-02 0.0 
7.775241471993e-03 3.910147825530e-02 0.0 
7.723414571057e-03 4.194219540814e-02 0.0 
1.142427839380e-03 5.368712772715e-02 0.0 
1.708978303279e-03 5.098066116591e-02 0.0 
1.962571779566e-03 4.769327110889e-02 0.0 
7.221372705686e-04 5.635472780443e-02 0.0 
2.697891906887e-02 4.880875253998e-02 0.0 
1.535645506484e-03 6.103105907649e-03 0.0 
1.415481549982e-02 3.864775551103e-02 0.0 
2.075636614402e-03 5.122287089508e-02 0.0 
1.798686031533e-02 1.454064070543e-01 0.0 
1.997611412429e-02 1.313617232251e-01 0.0 
2.209143001851e-02 1.283257872225e-01 0.0 
2.140181977533e-02 1.151075561855e-01 0.0 
1.775695743425e-02 1.318781200726e-01 0.0 
8.481298543362e-04 4.863985052834e-02 0.0 
6.364064780654e-04 4.734744207024e-02 0.0 
4.149480507102e-04 5.008531515219e-02 0.0 
4.554434252299e-04 4.582229264848e-02 0.0 
2.816055746628e-04 4.855728261607e-02 0.0 
2.505016859327e-04 5.257767372946e-02 0.0 
2.958698853657e-04 4.408475557015e-02 0.0 
1.581254671435e-04 4.732545076290e-02 0.0 
1.451968998705e-02 1.483459364491e-01 0.0 
1.470279512078e-03 3.738122572037e-02 0.0 
-1.784686873099e-04 4.160687713414e-02 0.0 
8.809318420418e-04 4.826291775354e-02 0.0 
-7.962260342946e-04 4.522702388435e-02 0.0 
-8.243285130578e-04 3.976263250957e-02 0.0 
-6.468015883385e-04 4.367899631162e-02 0.0 
1.989094728333e-04 3.946292364581e-02 0.0 
-7.322725028119e-04 3.482472245227e-02 0.0 
4.140582206178e-03 5.147750955465e-02 0.0 
1.726076815514e-03 5.360726208311e-02 0.0 
4.692846208469e-03 5.634418013743e-02 0.0 
2.429201091690e-03 5.791642130282e-02 0.0 
2.636379218929e-04 5.528607732556e-02 0.0 
4.516771457768e-04 6.251759197164e-02 0.0 
1.138029330408e-04 7.464382591212e-03 0.0 
6.161986535146e-05 5.842129294750e-02 0.0 
1.087729318016e-04 5.993692040873e-02 0.0 
8.082736477342e-05 6.296372826362e-02 0.0 
1.501200623461e-04 6.098721922940e-02 0.0 
1.312035887226e-04 5.679531166492e-02 0.0 
3.840163578080e-05 6.470520399972e-02 0.0 
8.193144110512e-05 6.543513239893e-02 0.0 
1.731046669687e-03 7.369529214201e-02 0.0 
1.042940649960e-03 7.383542165129e-02 0.0 
5.125229751944e-04 7.422868375018e-02 0.0 
5.707798920926e-04 7.354836858515e-02 0.0 
9.403417999577e-04 7.312085170943e-02 0.0 
1.539785661012e-03 7.326355990260e-02 0.0 
2.003358909589e-03 7.249735733012e-02 0.0 
2.963965284488e-03 7.218794414946e-02 0.0 
2.393153421750e-03 7.153618234850e-02 0.0 
1.536970249037e-03 7.157468844755e-02 0.0 
3.508654199148e-03 7.115420606998e-02 0.0 
8.320198340911e-04 7.717444176975e-02 0.0 
1.595600617782e-03 6.896862287302e-02 0.0 
1.059463897841e-03 6.483733204485e-03 0.0 
1.143375098129e-02 1.483562435366e-01 0.0 
4.884467735529e-03 6.335098034549e-02 0.0 
1.351264767086e-03 1.806266934779e-02 0.0 
2.111471309210e-03 1.488686254522e-02 0.0 
1.689407577986e-03 1.446542089841e-02 0.0 
6.298638312427e-05 1.835872264638e-02 0.0 
1.022762202743e-04 1.504373649931e-02 0.0 
7.262356048626e-04 1.758793580315e-02 0.0 
3.970517952505e-04 6.079080204171e-02 0.0 
1.224448799785e-02 3.006166451659e-02 0.0 
3.758725544232e-03 4.710300874941e-02 0.0 
1.434074708395e-02 5.464435845424e-02 0.0 
7.582988226834e-04 5.539716176537e-02 0.0 
4.293652528618e-04 3.624390479869e-02 0.0 
2.144111763298e-03 4.001618571011e-02 0.0 
6.200969461484e-04 2.388075578024e-02 0.0 
9.211036907637e-04 4.006876656472e-02 0.0 
1.347307549975e-03 2.848830984354e-02 0.0 
4.741971071764e-03 1.252433113991e-02 0.0 
5.568997730682e-04 7.133932692825e-02 0.0 
9.830032988163e-03 1.069652266946e-01 0.0 
6.248998933585e-03 1.129013988189e-01 0.0 
6.128729681762e-03 7.313026472720e-02 0.0 
2.616023643324e-04 6.408142254461e-02 0.0 
3.586566236411e-04 5.377905323267e-02 0.0 
7.153163117298e-04 6.732584713515e-02 0.0 
1.148179067215e-02 1.777803580051e-02 0.0 
3.248647173435e-02 1.014378238142e-01 0.0 
6.218573815300e-03 4.396806145131e-02 0.0 
8.657552764437e-04 5.658232271167e-02 0.0 
7.129773722761e-04 5.805607855839e-02 0.0 
7.205882753142e-04 5.351590704552e-02 0.0 
3.048815869251e-02 7.189743503620e-02 0.0 
2.952854525686e-03 4.857364958842e-02 0.0 
3.843959146724e-03 3.107401540256e-02 0.0 
4.705809461952e-03 6.403063164351e-02 0.0 
4.210398305299e-03 6.816040750923e-02 0.0 
4.366001927958e-03 2.808019162957e-02 0.0 
3.449709183610e-03 4.220574587964e-02 0.0 
1.400036141863e-02 1.000681320003e-01 0.0 
1.538481132422e-02 3.013663043369e-02 0.0 
-5.538437531576e-04 4.789151884378e-02 0.0 
9.042760279219e-03 6.684833559645e-02 0.0 
9.255205453637e-03 3.660407232685e-02 0.0 
1.772507581442e-02 1.154522590514e-01 0.0 
1.322670963606e-03 6.856656485485e-02 0.0 
1.007262331407e-02 1.229233280294e-01 0.0 
3.761629970479e-03 1.624231231875e-02 0.0 
1.751144250240e-02 6.736775792837e-02 0.0 
2.545203233292e-04 6.626410891163e-02 0.0 
1.661756059234e-02 4.322825370429e-02 0.0 
3.272828319441e-02 8.277671637715e-02 0.0 
2.555671646355e-02 1.407540113118e-01 0.0 
3.929993284508e-03 3.998709345489e-02 0.0 
2.763844958160e-02 5.540676473508e-02 0.0 
1.075473385212e-02 2.419407871011e-02 0.0 
1.552312693744e-02 3.749422210478e-02 0.0 
1.837503204221e-04 6.601178750568e-02 0.0 
2.458519325646e-03 2.395549567584e-02 0.0 
2.277755966426e-02 4.916761157568e-02 0.0 
7.420388507868e-03 5.022777791100e-02 0.0 
2.693933633594e-02 5.086476066216e-02 0.0 
1.800819617037e-02 4.846478182616e-02 0.0 
1.205628111628e-02 5.979817378106e-02 0.0 
9.125988683222e-03 4.257387660834e-02 0.0 
1.531268500555e-02 2.798879619126e-02 0.0 
3.250407956844e-02 1.011041540793e-01 0.0 
3.153504279861e-02 6.796187684368e-02 0.0 
2.897005313478e-02 6.941087938293e-02 0.0 
3.059667496945e-02 6.206754530677e-02 0.0 
2.620025491104e-04 3.935756008683e-02 0.0 
3.325657755214e-03 2.609693793379e-02 0.0 
5.016353884895e-03 3.912192648336e-02 0.0 
2.826681387650e-02 8.088673658497e-02 0.0 
1.731572175245e-02 9.964401594129e-02 0.0 
1.897012802389e-02 3.074020270186e-02 0.0 
5.324195505752e-03 3.327362595062e-02 0.0 
3.203737495224e-02 8.943792354747e-02 0.0 
2.185287871291e-03 2.728553377575e-02 0.0 
9.620444092437e-03 4.389995401314e-02 0.0 
2.424733180747e-03 4.827345992213e-02 0.0 
1.359942798535e-04 7.135383261821e-02 0.0 
1.132264708627e-02 5.368026842815e-02 0.0 
1.576487159208e-02 4.879927900040e-02 0.0 
2.638767215543e-02 5.444661739588e-02 0.0 
2.655480131934e-03 4.494829400240e-02 0.0 
9.886459745654e-03 2.767096655339e-02 0.0 
1.571676700657e-03 2.512780931413e-02 0.0 
7.696691325398e-03 2.914378349763e-02 0.0 
1.628870720804e-03 7.118008896155e-02 0.0 
2.791318336932e-02 1.301021795735e-01 0.0 
1.085700507132e-03 2.278431038390e-02 0.0 
1.456103092976e-02 4.138932350429e-02 0.0 
1.288192462029e-02 2.473209083256e-02 0.0 
1.495543759988e-04 5.118818334244e-02 0.0 
1.128107519628e-02 1.715124438195e-02 0.0 
2.684722671461e-02 1.278130098458e-01 0.0 
7.126199033964e-04 2.026389752264e-02 0.0 
1.013787665196e-02 2.899399974278e-02 0.0 
2.392271618228e-02 6.531504637907e-02 0.0 
3.266042457101e-03 1.502692401875e-01 0.0 
4.117997235736e-04 1.274595435324e-02 0.0 
8.548236993797e-03 2.384416996886e-02 0.0 
2.912858035511e-02 5.566286615520e-02 0.0 
1.265846109578e-02 4.220306229914e-02 0.0 
2.556485406233e-02 1.420306316395e-01 0.0 
2.110650378310e-03 4.406424934830e-02 0.0 
3.080861629898e-02 6.664715010411e-02 0.0 
3.869657273383e-03 1.313345138291e-02 0.0 
8.709942670664e-03 2.146365563569e-02 0.0 
2.499098336004e-02 8.637422204495e-02 0.0 
1.556707130569e-03 4.690053785582e-02 0.0 
2.278434327317e-02 4.126013167050e-02 0.0 
1.279135017145e-03 7.246181881216e-02 0.0 
2.804285557060e-02 1.309045588292e-01 0.0 
1.207817646342e-03 4.584509438429e-02 0.0 
1.406004287617e-02 4.701508066880e-02 0.0 
1.087742339834e-02 4.112069933378e-02 0.0 
9.862781855211e-03 1.578596237197e-02 0.0 
9.141254813298e-04 4.453712504507e-02 0.0 
1.526215718613e-02 4.707566663930e-02 0.0 
6.680153825796e-04 4.299928463749e-02 0.0 
2.413232904718e-02 1.397467771896e-01 0.0 
2.536171737581e-02 7.748729338931e-02 0.0 
4.548475429981e-04 4.125358475722e-02 0.0 
2.849308586483e-02 5.749142618044e-02 0.0 
1.708756019131e-03 7.039015406605e-02 0.0 
2.728455010158e-02 5.001612566482e-02 0.0 
1.654233552051e-04 2.181227164583e-02 0.0 
2.243306869209e-03 5.264571563754e-02 0.0 
9.256527836853e-03 4.014305522161e-02 0.0 
2.284693116120e-02 6.379562881265e-02 0.0 
2.155885242675e-02 1.352456103434e-01 0.0 
9.062793087698e-03 3.711097639767e-02 0.0 
2.537679944908e-02 4.801014484806e-02 0.0 
2.521153071636e-02 4.489243234057e-02 0.0 
2.572136715793e-02 5.057503203741e-02 0.0 
8.539193811482e-03 3.344709901599e-02 0.0 
2.444659486743e-02 1.222669196443e-01 0.0 
3.583485946189e-04 5.987491874413e-02 0.0 
2.342286809088e-04 6.126090952016e-02 0.0 
1.346558493932e-02 4.585868039477e-02 0.0 
2.337284533859e-02 4.443630105670e-02 0.0 
5.596627607896e-04 7.253837839903e-02 0.0 
2.486760349117e-02 6.126205565741e-02 0.0 
3.546927588326e-04 6.063463894555e-02 0.0 
1.078719764289e-02 4.567418949984e-02 0.0 
1.990460121946e-02 3.347944803476e-02 0.0 
9.678384525038e-04 1.087748875754e-01 0.0 
9.308410930006e-03 4.565552372607e-02 0.0 
7.605808985263e-05 6.950290566961e-02 0.0 
6.973434787745e-03 4.665036814934e-02 0.0 
2.451727474233e-02 4.616156145610e-02 0.0 
5.946211485527e-03 4.732138556664e-02 0.0 
4.131603896673e-03 4.923980332144e-02 0.0 
2.639151183439e-03 3.066285288836e-02 0.0 
3.510401926534e-03 5.012803375494e-02 0.0 
3.584415668421e-04 1.457898843664e-02 0.0 
3.717380398488e-05 6.837627342216e-03 0.0 
1.238967153503e-03 1.390530991421e-01 0.0 
1.769316684982e-02 1.294693790971e-01 0.0 
-1.843967111252e-03 2.626613298069e-02 0.0 
2.144957216880e-02 1.126700193724e-01 0.0 
1.497176737829e-03 5.412066737866e-02 0.0 
2.631187251765e-02 5.838264843117e-02 0.0 
2.575876653289e-03 1.383744010363e-01 0.0 
7.429279437361e-04 5.693520089258e-02 0.0 
1.151834087348e-02 2.234456921326e-02 0.0 
5.416740279885e-03 7.862396650525e-03 0.0 
1.780806648276e-03 8.442683116499e-02 0.0 
1.071928374473e-02 2.194397676694e-02 0.0 
2.285792446960e-02 4.000003356769e-02 0.0 
5.261617661847e-04 4.484024962218e-02 0.0 
7.453192658749e-03 1.513769853382e-01 0.0 
2.914855662560e-03 6.146251716549e-02 0.0 
1.247762433231e-04 3.667350742317e-02 0.0 
1.394857412695e-02 1.191521644143e-01 0.0 
1.666088819729e-02 1.022607051026e-01 0.0 
1.271771188439e-02 8.799807781184e-02 0.0 
1.284686413720e-04 6.572673633285e-02 0.0 
-1.397596141624e-04 5.063331098017e-02 0.0 
1.128374676900e-02 1.055889850341e-01 0.0 
7.051298063507e-03 1.327113904988e-02 0.0 
1.260335183195e-02 1.373228740192e-01 0.0 
1.939949150850e-02 3.179761997945e-02 0.0 
6.958908787161e-03 8.998555642310e-02 0.0 
6.731145125858e-03 2.853039788335e-02 0.0 
1.016050186016e-02 1.545805884551e-02 0.0 
5.684956317466e-04 5.786653401048e-03 0.0 
1.521582320306e-02 2.402229686526e-02 0.0 
7.859759227655e-03 7.076902305261e-02 0.0 
1.935375310220e-02 1.202827773837e-01 0.0 
1.158971413318e-02 1.845634005755e-02 0.0 
2.440672473908e-03 7.132730748791e-02 0.0 
3.018520413137e-04 5.620467736968e-03 0.0 
1.581539386907e-02 1.371809533823e-01 0.0 
1.589516871322e-03 2.866492847399e-02 0.0 
2.168363811247e-03 3.797369506256e-02 0.0 
8.000022186574e-04 2.784515405434e-02 0.0 
2.268273405368e-02 4.679535958147e-02 0.0 
5.325697595209e-03 1.200209530242e-01 0.0 
2.332585793295e-02 1.160906461027e-01 0.0 
1.293064546828e-04 1.180293996036e-02 0.0 
1.074504622112e-02 2.421757135957e-02 0.0 
4.971236970887e-03 5.981271416425e-02 0.0 
2.793627439496e-03 8.607213807282e-02 0.0 
2.306164292893e-04 6.039741742451e-02 0.0 
-3.057996933833e-04 2.970398605975e-02 0.0 
1.826513740317e-03 1.179529816839e-02 0.0 
1.831459548759e-02 3.531814070589e-02 0.0 
2.740845291712e-04 1.195256206924e-02 0.0 
2.644865701389e-04 7.379114112322e-02 0.0 
3.300398744292e-03 6.669304900434e-02 0.0 
2.521644947702e-03 1.086836429900e-02 0.0 
1.103102355803e-02 1.905720748144e-02 0.0 
1.192264627136e-03 4.215203528466e-02 0.0 
2.276185083167e-03 1.152829017457e-02 0.0 
4.244046745333e-04 4.965791336123e-02 0.0 
1.002188729431e-02 1.526972211222e-01 0.0 
2.778412934407e-03 7.050030775853e-02 0.0 
1.941603077780e-04 5.733030621997e-03 0.0 
3.939904319850e-03 2.718972113355e-02 0.0 
1.774390372128e-04 5.813531096468e-02 0.0 
2.216708031811e-02 1.382990915790e-01 0.0 
1.116180964850e-04 6.776339258745e-02 0.0 
1.489723933645e-02 2.321094966510e-02 0.0 
1.260463343761e-03 5.898171449240e-02 0.0 
2.652351320329e-03 2.581942988244e-02 0.0 
3.542984184295e-03 1.067640698158e-02 0.0 
7.946760571893e-03 2.389896907968e-02 0.0 
3.210890796403e-03 5.270553345383e-03 0.0 
4.236204061826e-04 3.257820979878e-02 0.0 
9.220347087620e-03 1.378741551904e-02 0.0 
6.816590061943e-03 1.663474380134e-02 0.0 
5.641479331138e-03 1.520258935949e-01 0.0 
9.683545423712e-03 2.461776550229e-02 0.0 
1.198588695898e-04 6.361590486390e-02 0.0 
1.132389142624e-03 7.055833475099e-02 0.0 
1.529417452867e-04 1.292165317773e-02 0.0 
5.252562895451e-04 7.429103625037e-02 0.0 
9.607689360745e-04 1.519473142623e-01 0.0 
1.600005956894e-05 5.586681168112e-03 0.0 
8.332343533357e-04 7.225511376024e-02 0.0 
2.055932056893e-03 1.279703509031e-01 0.0 
1.051471810605e-02 1.907513385674e-02 0.0 
6.248800883292e-05 5.059262623259e-02 0.0 
1.214570529167e-03 5.583583923818e-02 0.0 
-8.059936058931e-04 4.792388415746e-02 0.0 
-3.625963657473e-04 2.462048738760e-02 0.0 
1.681031488804e-03 1.008629271730e-01 0.0 
8.650031082935e-03 1.340228876203e-02 0.0 
6.277454788412e-03 2.359267084252e-02 0.0 
4.304766115678e-03 1.115279352737e-01 0.0 
8.348612992525e-03 5.438538791650e-02 0.0 
1.442691346006e-02 2.655738895145e-02 0.0 
2.252774695267e-04 5.537879514713e-02 0.0 
1.531036827595e-02 2.485643075183e-02 0.0 
8.630827288544e-03 1.733888931506e-02 0.0 
-4.830619403791e-03 5.155076211206e-02 0.0 
6.816139334459e-05 4.627305566525e-02 0.0 
3.127339324346e-03 6.930298967504e-02 0.0 
8.798755432651e-04 1.067889508183e-02 0.0 
1.527691325230e-04 5.394894917256e-02 0.0 

TENSORS node_materi_stress float
8.216573410714e-01 -1.552767424348e-01 0.0 
-1.552767424348e-01 -8.583718454130e+00 0.0 
0.0 0.0 -1.073848207987e+00 
-2.351122000601e+01 1.216704845816e-01 0.0 
1.216704845816e-01 -8.834679930499e+00 0.0 
0.0 0.0 -9.303769980954e+00 
-1.662208847585e+02 -1.995850850606e-01 0.0 
-1.995850850606e-01 -3.901323471302e+02 0.0 
0.0 0.0 -1.665059695666e+02 
-8.396170755570e+01 1.049231944138e+00 0.0 
1.049231944138e+00 -1.933716747473e+02 0.0 
0.0 0.0 -8.280001469091e+01 
-2.381691206263e+00 -3.723879362610e-01 0.0 
-3.723879362610e-01 -2.092905501385e+01 0.0 
0.0 0.0 -6.019624074691e+00 
-9.905882021075e+00 -6.243303459561e-01 0.0 
-6.243303459561e-01 -4.047421911479e+01 0.0 
0.0 0.0 -1.471403034076e+01 
-1.906799093352e+01 -6.199119407261e-01 0.0 
-6.199119407261e-01 -5.881089579215e+01 0.0 
0.0 0.0 -2.296366601770e+01 
-2.885419597506e+01 -6.489388693297e-01 0.0 
-6.489388693297e-01 -7.978767252594e+01 0.0 
0.0 0.0 -3.219256055030e+01 
-3.799689554780e+01 -5.898053757018e-01 0.0 
-5.898053757018e-01 -1.001686964820e+02 0.0 
0.0 0.0 -4.104967760895e+01 
-4.695828494198e+01 -5.969374746235e-01 0.0 
-5.969374746235e-01 -1.203888374367e+02 0.0 
0.0 0.0 -4.980413671359e+01 
-5.556502893519e+01 -6.474780868585e-01 0.0 
-6.474780868585e-01 -1.406840774334e+02 0.0 
0.0 0.0 -5.847473191058e+01 
-6.393186235291e+01 -6.186336806860e-01 0.0 
-6.186336806860e-01 -1.610294774557e+02 0.0 
0.0 0.0 -6.708840194260e+01 
-7.223471582057e+01 -6.038457654171e-01 0.0 
-6.038457654171e-01 -1.813668499581e+02 0.0 
0.0 0.0 -7.568046973361e+01 
-8.049039841916e+01 -6.448925686022e-01 0.0 
-6.448925686022e-01 -2.018748788603e+02 0.0 
0.0 0.0 -8.430958318383e+01 
-8.894056791021e+01 -7.499229893652e-01 0.0 
-7.499229893652e-01 -2.228248948835e+02 0.0 
0.0 0.0 -9.312963883812e+01 
-9.760439278228e+01 -6.895428984714e-01 0.0 
-6.895428984714e-01 -2.429601976863e+02 0.0 
0.0 0.0 -1.017693771406e+02 
-1.056105641523e+02 -8.282401708410e-01 0.0 
-8.282401708410e-01 -2.611720104851e+02 0.0 
0.0 0.0 -1.096347723912e+02 
-1.142778904182e+02 -3.660437130070e-01 0.0 
-3.660437130070e-01 -2.811659511108e+02 0.0 
0.0 0.0 -1.182331524587e+02 
-1.234513765567e+02 -2.919556219993e-01 0.0 
-2.919556219993e-01 -3.014810047173e+02 0.0 
0.0 0.0 -1.270797143822e+02 
-1.325469941296e+02 -2.416056988161e-01 0.0 
-2.416056988161e-01 -3.210458399000e+02 0.0 
0.0 0.0 -1.356778502089e+02 
-1.418269870836e+02 -1.735308766041e-01 0.0 
-1.735308766041e-01 -3.406351537206e+02 0.0 
0.0 0.0 -1.443386422413e+02 
-1.513135446239e+02 -1.814886880344e-01 0.0 
-1.814886880344e-01 -3.602701876371e+02 0.0 
0.0 0.0 -1.530751196783e+02 
-1.605108611411e+02 -2.451966742532e-01 0.0 
-2.451966742532e-01 -3.789474311893e+02 0.0 
0.0 0.0 -1.614374876991e+02 
-8.416199448011e+01 1.743438331574e+00 0.0 
1.743438331574e+00 -1.946642886517e+02 0.0 
0.0 0.0 -8.324788493954e+01 
-8.369133041044e+01 3.155717091686e+00 0.0 
3.155717091686e+00 -1.937255374129e+02 0.0 
0.0 0.0 -8.282506034701e+01 
-8.397454225199e+01 4.961747078134e+00 0.0 
4.961747078134e+00 -1.942420900544e+02 0.0 
0.0 0.0 -8.306498969191e+01 
-8.407410930164e+01 6.243819369865e+00 0.0 
6.243819369865e+00 -1.946691533873e+02 0.0 
0.0 0.0 -8.322297880668e+01 
-8.444656036038e+01 8.093674189170e+00 0.0 
8.093674189170e+00 -1.946709799911e+02 0.0 
0.0 0.0 -8.333526210544e+01 
-8.508343210523e+01 1.005558239571e+01 0.0 
1.005558239571e+01 -1.961849825740e+02 0.0 
0.0 0.0 -8.398052440377e+01 
-8.624023539286e+01 1.223807165363e+01 0.0 
1.223807165363e+01 -1.979041262472e+02 0.0 
0.0 0.0 -8.484330849203e+01 
-8.671332895728e+01 1.470111125901e+01 0.0 
1.470111125901e+01 -1.993459096110e+02 0.0 
0.0 0.0 -8.541777157047e+01 
-8.826720528743e+01 1.729992005591e+01 0.0 
1.729992005591e+01 -2.024813497595e+02 0.0 
0.0 0.0 -8.682456651407e+01 
-8.922456318083e+01 1.963061287944e+01 0.0 
1.963061287944e+01 -2.053224359500e+02 0.0 
0.0 0.0 -8.796409973926e+01 
-9.103118424540e+01 2.241630951104e+01 0.0 
2.241630951104e+01 -2.082700186089e+02 0.0 
0.0 0.0 -8.939036085630e+01 
-9.298856280251e+01 2.534648205983e+01 0.0 
2.534648205983e+01 -2.133608800444e+02 0.0 
0.0 0.0 -9.150483285407e+01 
-9.588650518409e+01 2.823449586330e+01 0.0 
2.823449586330e+01 -2.195248882325e+02 0.0 
0.0 0.0 -9.422341802498e+01 
-9.785785818656e+01 3.095689856717e+01 0.0 
3.095689856717e+01 -2.252357322017e+02 0.0 
0.0 0.0 -9.652807711648e+01 
-1.009688147362e+02 3.351713493929e+01 0.0 
3.351713493929e+01 -2.319949242106e+02 0.0 
0.0 0.0 -9.948912168405e+01 
-1.034770081028e+02 3.561885301898e+01 0.0 
3.561885301898e+01 -2.390965573545e+02 0.0 
0.0 0.0 -1.023720696372e+02 
-1.071392291792e+02 3.768637453892e+01 0.0 
3.768637453892e+01 -2.476994904622e+02 0.0 
0.0 0.0 -1.060516158924e+02 
-1.114162374556e+02 3.946701054205e+01 0.0 
3.946701054205e+01 -2.579539790195e+02 0.0 
0.0 0.0 -1.104110649425e+02 
-1.152153067305e+02 4.080407587923e+01 0.0 
4.080407587923e+01 -2.679205701301e+02 0.0 
0.0 0.0 -1.145407630582e+02 
-1.191360803105e+02 4.171748643278e+01 0.0 
4.171748643278e+01 -2.780623887674e+02 0.0 
0.0 0.0 -1.187595407234e+02 
-1.228131389220e+02 4.203133479686e+01 0.0 
4.203133479686e+01 -2.878387693084e+02 0.0 
0.0 0.0 -1.227955724691e+02 
-1.268684475642e+02 4.211941674395e+01 0.0 
4.211941674395e+01 -2.975317883377e+02 0.0 
0.0 0.0 -1.269200707706e+02 
-1.306117814789e+02 4.169155932768e+01 0.0 
4.169155932768e+01 -3.072338814114e+02 0.0 
0.0 0.0 -1.309536988671e+02 
-1.343499431012e+02 4.090441282039e+01 0.0 
4.090441282039e+01 -3.166015685663e+02 0.0 
0.0 0.0 -1.348854535003e+02 
-1.380976517334e+02 3.977864110114e+01 0.0 
3.977864110114e+01 -3.258488674486e+02 0.0 
0.0 0.0 -1.387839557546e+02 
-1.417385195071e+02 3.841889327249e+01 0.0 
3.841889327249e+01 -3.347156534348e+02 0.0 
0.0 0.0 -1.425362518826e+02 
-1.450242786792e+02 3.668114122269e+01 0.0 
3.668114122269e+01 -3.429355530289e+02 0.0 
0.0 0.0 -1.459879495124e+02 
-1.480272139304e+02 3.470573330723e+01 0.0 
3.470573330723e+01 -3.504081123506e+02 0.0 
0.0 0.0 -1.491305978843e+02 
-1.507279286811e+02 3.247413295205e+01 0.0 
3.247413295205e+01 -3.570948569158e+02 0.0 
0.0 0.0 -1.519468356791e+02 
-1.538500759386e+02 3.037635371849e+01 0.0 
3.037635371849e+01 -3.637902104521e+02 0.0 
0.0 0.0 -1.548920859172e+02 
-1.557335847409e+02 2.761239953449e+01 0.0 
2.761239953449e+01 -3.692052054325e+02 0.0 
0.0 0.0 -1.570816370520e+02 
-1.572890968244e+02 2.523730458112e+01 0.0 
2.523730458112e+01 -3.731897082194e+02 0.0 
0.0 0.0 -1.587436415131e+02 
-1.592683184997e+02 2.258041238381e+01 0.0 
2.258041238381e+01 -3.775994712341e+02 0.0 
0.0 0.0 -1.606603369201e+02 
-1.608916869664e+02 2.015715476083e+01 0.0 
2.015715476083e+01 -3.812101684429e+02 0.0 
0.0 0.0 -1.622305566228e+02 
-1.622583980967e+02 1.775353518789e+01 0.0 
1.775353518789e+01 -3.842468587194e+02 0.0 
0.0 0.0 -1.635515770448e+02 
-1.634798107893e+02 1.547936209157e+01 0.0 
1.547936209157e+01 -3.866197604019e+02 0.0 
0.0 0.0 -1.646298713574e+02 
-1.642518220924e+02 1.335914761649e+01 0.0 
1.335914761649e+01 -3.883553557105e+02 0.0 
0.0 0.0 -1.653821533409e+02 
-1.648851776685e+02 1.134312925954e+01 0.0 
1.134312925954e+01 -3.894824514733e+02 0.0 
0.0 0.0 -1.659102887426e+02 
-1.652041630566e+02 9.614733304516e+00 0.0 
9.614733304516e+00 -3.900845914165e+02 0.0 
0.0 0.0 -1.661866263419e+02 
-1.653945086275e+02 7.941818715347e+00 0.0 
7.941818715347e+00 -3.903058758098e+02 0.0 
0.0 0.0 -1.663101153312e+02 
-1.658930104114e+02 6.670071600211e+00 0.0 
6.670071600211e+00 -3.909325494369e+02 0.0 
0.0 0.0 -1.666476679545e+02 
-1.665587528437e+02 5.353486263093e+00 0.0 
5.353486263093e+00 -3.918651793473e+02 0.0 
0.0 0.0 -1.671271796573e+02 
-1.668088166687e+02 4.432002055602e+00 0.0 
4.432002055602e+00 -3.921209503070e+02 0.0 
0.0 0.0 -1.672789300927e+02 
-1.654597558592e+02 3.421579625935e+00 0.0 
3.421579625935e+00 -3.896251929062e+02 0.0 
0.0 0.0 -1.661254846296e+02 
-1.666913511879e+02 2.557751484136e+00 0.0 
2.557751484136e+00 -3.914350344341e+02 0.0 
0.0 0.0 -1.670379156866e+02 
-1.662149230436e+02 1.936078802183e+00 0.0 
1.936078802183e+00 -3.904901066708e+02 0.0 
0.0 0.0 -1.666115089143e+02 
-1.665040687720e+02 1.582743950296e+00 0.0 
1.582743950296e+00 -3.908537963169e+02 0.0 
0.0 0.0 -1.668073595266e+02 
-1.667875423167e+02 8.453058662570e-01 0.0 
8.453058662570e-01 -3.913567240152e+02 0.0 
0.0 0.0 -1.670432798996e+02 
-1.666979154006e+02 5.031967514127e-01 0.0 
5.031967514127e-01 -3.911799997494e+02 0.0 
0.0 0.0 -1.669633745450e+02 
-2.810882301542e+01 2.265290344660e-01 0.0 
2.265290344660e-01 -2.050912829450e+01 0.0 
0.0 0.0 -1.418538539297e+01 
-3.589749896142e+01 3.557141534067e-01 0.0 
3.557141534067e-01 -4.016472777899e+01 0.0 
0.0 0.0 -2.241866802212e+01 
-4.363148861697e+01 4.073629675142e-01 0.0 
4.073629675142e-01 -5.981062783920e+01 0.0 
0.0 0.0 -3.063263493685e+01 
-5.083548750489e+01 5.074400408834e-01 0.0 
5.074400408834e-01 -7.920279911009e+01 0.0 
0.0 0.0 -3.861148598449e+01 
-5.782794724676e+01 5.334245746122e-01 0.0 
5.334245746122e-01 -9.922139181272e+01 0.0 
0.0 0.0 -4.671480171784e+01 
-6.470058789652e+01 6.553855333235e-01 0.0 
6.553855333235e-01 -1.195569338814e+02 0.0 
0.0 0.0 -5.487725653339e+01 
-7.075002449418e+01 6.772385586393e-01 0.0 
6.772385586393e-01 -1.398383548455e+02 0.0 
0.0 0.0 -6.277651380192e+01 
-7.618592790712e+01 8.450356628974e-01 0.0 
8.450356628974e-01 -1.600828177390e+02 0.0 
0.0 0.0 -7.048062369382e+01 
-8.193741765699e+01 9.336554125296e-01 0.0 
9.336554125296e-01 -1.813243982235e+02 0.0 
0.0 0.0 -7.857854476415e+01 
-6.182648017694e+01 2.891239282781e+01 0.0 
2.891239282781e+01 -6.959751656527e+01 0.0 
0.0 0.0 -3.985058317857e+01 
-4.976400850293e+01 1.762967249780e+01 0.0 
1.762967249780e+01 -2.368962237809e+01 0.0 
0.0 0.0 -2.163608926431e+01 
-4.455143204712e+01 3.144208736916e+01 0.0 
3.144208736916e+01 -2.990979585903e+01 0.0 
0.0 0.0 -2.201869656092e+01 
-4.133937099847e+01 2.843286878256e+01 0.0 
2.843286878256e+01 -2.855704350299e+01 0.0 
0.0 0.0 -1.926093596930e+01 
-3.957365065766e+01 2.692251707249e+01 0.0 
2.692251707249e+01 -2.720583610642e+01 0.0 
0.0 0.0 -1.888661230232e+01 
-3.676707076748e+01 2.528604965443e+01 0.0 
2.528604965443e+01 -2.526597989901e+01 0.0 
0.0 0.0 -1.820991519995e+01 
-3.516750786295e+01 2.407507307456e+01 0.0 
2.407507307456e+01 -2.497390565698e+01 0.0 
0.0 0.0 -1.764242405598e+01 
-3.429841145088e+01 2.333464642813e+01 0.0 
2.333464642813e+01 -2.474899389358e+01 0.0 
0.0 0.0 -1.731422160334e+01 
-3.384772330173e+01 2.281878893387e+01 0.0 
2.281878893387e+01 -2.463215121655e+01 0.0 
0.0 0.0 -1.714396235548e+01 
-3.424191138729e+01 2.262447748903e+01 0.0 
2.262447748903e+01 -2.440039031111e+01 0.0 
0.0 0.0 -1.719269050952e+01 
-3.807978289508e+01 2.318874900741e+01 0.0 
2.318874900741e+01 -2.448733952426e+01 0.0 
0.0 0.0 -1.837013672580e+01 
-2.284176927912e+01 -3.482726194526e-02 0.0 
-3.482726194526e-02 -7.373415865856e+00 0.0 
0.0 0.0 -8.664555543493e+00 
-2.292120401252e+01 7.233429274096e-02 0.0 
7.233429274096e-02 -8.125487747449e+00 0.0 
0.0 0.0 -8.914007527992e+00 
-2.293155093209e+01 -7.352806214654e-02 0.0 
-7.352806214654e-02 -8.166551464419e+00 0.0 
0.0 0.0 -8.929430718952e+00 
-2.280516687994e+01 -2.693970988556e-02 0.0 
-2.693970988556e-02 -7.514159890589e+00 0.0 
0.0 0.0 -8.695798031158e+00 
-2.409309413662e+01 -4.478947533927e-02 0.0 
-4.478947533927e-02 -1.010630953004e+01 0.0 
0.0 0.0 -9.859821099997e+00 
-2.313738648812e+01 -1.250256746185e-01 0.0 
-1.250256746185e-01 -8.120389853636e+00 0.0 
0.0 0.0 -8.977332902528e+00 
-2.309598062759e+01 1.490657781739e-02 0.0 
1.490657781739e-02 -7.750368622210e+00 0.0 
0.0 0.0 -8.853904774939e+00 
-2.312650808985e+01 -1.704295335545e-01 0.0 
-1.704295335545e-01 -8.047507326866e+00 0.0 
0.0 0.0 -8.952204625016e+00 
-2.362106259793e+01 3.704843125776e-02 0.0 
3.704843125776e-02 -9.007982848048e+00 0.0 
0.0 0.0 -9.388713633792e+00 
-2.387817627675e+01 4.652882185899e-02 0.0 
4.652882185899e-02 -8.699256919218e+00 0.0 
0.0 0.0 -9.373229958790e+00 
-2.466307106471e+01 4.239619597586e-01 0.0 
4.239619597586e-01 -8.581146234825e+00 0.0 
0.0 0.0 -9.573265189861e+00 
-2.658436217111e+01 1.144044549188e+00 0.0 
1.144044549188e+00 -8.878127228048e+00 0.0 
0.0 0.0 -1.023874681975e+01 
-3.107489352541e+01 2.891152313013e+00 0.0 
2.891152313013e+00 -9.931091599754e+00 0.0 
0.0 0.0 -1.190179553755e+01 
-4.048335948160e+01 7.975504498372e+00 0.0 
7.975504498372e+00 -1.313716684164e+01 0.0 
0.0 0.0 -1.568615789697e+01 
-8.485063523835e+01 1.389028647014e+01 0.0 
1.389028647014e+01 -9.660100602802e+01 0.0 
0.0 0.0 -5.479662539648e+01 
-1.002373898422e+02 2.423048525342e+00 0.0 
2.423048525342e+00 -1.044363644578e+02 0.0 
0.0 0.0 -6.176920107852e+01 
-1.043189976146e+02 -2.795583841819e+00 0.0 
-2.795583841819e+00 -1.040895881812e+02 0.0 
0.0 0.0 -6.285674608759e+01 
-9.290841319606e+01 -1.047374797896e+01 0.0 
-1.047374797896e+01 -9.585859076306e+01 0.0 
0.0 0.0 -5.696371875254e+01 
-6.041425845390e+01 -1.964608297013e+01 0.0 
-1.964608297013e+01 -5.781287506517e+01 0.0 
0.0 0.0 -3.574535258024e+01 
-3.109921295980e+01 -1.278875143591e+01 0.0 
-1.278875143591e+01 -1.947544966854e+01 0.0 
0.0 0.0 -1.502345147390e+01 
-1.615655145571e+01 -3.275531755643e+00 0.0 
-3.275531755643e+00 -1.015443645461e+01 0.0 
0.0 0.0 -7.613770981199e+00 
-1.026212226616e+01 -1.044764091098e+00 0.0 
-1.044764091098e+00 -8.522774456712e+00 0.0 
0.0 0.0 -4.806577491152e+00 
-7.071499789108e+00 -6.878951110067e-01 0.0 
-6.878951110067e-01 -8.098813224391e+00 0.0 
0.0 0.0 -3.161457010095e+00 
-4.794295396173e+00 -5.320098747951e-01 0.0 
-5.320098747951e-01 -8.273442020629e+00 0.0 
0.0 0.0 -3.017672536800e+00 
-3.397744180202e+00 -2.555863184975e-01 0.0 
-2.555863184975e-01 -8.325246106804e+00 0.0 
0.0 0.0 -2.870435782538e+00 
-2.594749607020e+00 -3.491059021968e-01 0.0 
-3.491059021968e-01 -8.779418737871e+00 0.0 
0.0 0.0 -2.491909390408e+00 
-1.751425351264e+00 -3.401069745829e-01 0.0 
-3.401069745829e-01 -8.522861059234e+00 0.0 
0.0 0.0 -2.124140939598e+00 
-8.536178985087e-01 -3.652537683303e-01 0.0 
-3.652537683303e-01 -7.793172785760e+00 0.0 
0.0 0.0 -1.702725583661e+00 
-1.002799484715e-01 -3.490372904389e-01 0.0 
-3.490372904389e-01 -7.969148371897e+00 0.0 
0.0 0.0 -1.513757644948e+00 
4.329886411658e-01 -3.087225256660e-01 0.0 
-3.087225256660e-01 -8.258119542908e+00 0.0 
0.0 0.0 -1.331921229065e+00 
7.916950192875e-01 -1.572163475905e-01 0.0 
-1.572163475905e-01 -8.348649387177e+00 0.0 
0.0 0.0 -1.180470463151e+00 
9.521023533652e-01 -8.195469392309e-02 0.0 
-8.195469392309e-02 -7.894076484684e+00 0.0 
0.0 0.0 -7.822860148352e-01 
9.645050376644e-01 -1.649092340320e-03 0.0 
-1.649092340320e-03 -7.224003015543e+00 0.0 
0.0 0.0 -5.474196513836e-01 
-4.736529310716e+01 3.541310508650e+01 0.0 
3.541310508650e+01 -3.940283929073e+01 0.0 
0.0 0.0 -2.653622997900e+01 
-4.258997640774e+01 2.969376762141e+01 0.0 
2.969376762141e+01 -2.926860192665e+01 0.0 
0.0 0.0 -2.056671840123e+01 
-4.032172470869e+01 2.743505019751e+01 0.0 
2.743505019751e+01 -2.776961262848e+01 0.0 
0.0 0.0 -1.851636193784e+01 
-3.848000255573e+01 2.617989656848e+01 0.0 
2.617989656848e+01 -2.681696834221e+01 0.0 
0.0 0.0 -1.908226048533e+01 
-3.686327341294e+01 2.545088948513e+01 0.0 
2.545088948513e+01 -2.574921588193e+01 0.0 
0.0 0.0 -1.838374678846e+01 
-3.512097520671e+01 2.423223300267e+01 0.0 
2.423223300267e+01 -2.503660469126e+01 0.0 
0.0 0.0 -1.764727396939e+01 
-3.392719846498e+01 2.303060414394e+01 0.0 
2.303060414394e+01 -2.469883247986e+01 0.0 
0.0 0.0 -1.718780928345e+01 
-3.371575184798e+01 2.257185593074e+01 0.0 
2.257185593074e+01 -2.443192108460e+01 0.0 
0.0 0.0 -1.704430187977e+01 
-3.531374143817e+01 2.275677600497e+01 0.0 
2.275677600497e+01 -2.427830313419e+01 0.0 
0.0 0.0 -1.747761337171e+01 
-4.508221492926e+01 2.336291516076e+01 0.0 
2.336291516076e+01 -2.480793178112e+01 0.0 
0.0 0.0 -2.056704401311e+01 
-4.230071740387e+01 2.993429157850e+01 0.0 
2.993429157850e+01 -3.954442112691e+01 0.0 
0.0 0.0 -2.305763402165e+01 
-1.530112047002e+02 2.081674206557e+01 0.0 
2.081674206557e+01 -3.717524986922e+02 0.0 
0.0 0.0 -1.570291110177e+02 
-1.008883586444e+01 -2.014501219315e+00 0.0 
-2.014501219315e+00 -1.729246799303e+01 0.0 
0.0 0.0 -7.910345582674e+00 
-5.998666400757e+01 -1.961393653897e+01 0.0 
-1.961393653897e+01 -8.718780394722e+01 0.0 
0.0 0.0 -4.484692513000e+01 
-1.589112628053e+02 1.009411703306e+01 0.0 
1.009411703306e+01 -3.819218308798e+02 0.0 
0.0 0.0 -1.618499281055e+02 
-3.812256784434e+01 2.646686186560e+01 0.0 
2.646686186560e+01 -3.596777979186e+01 0.0 
0.0 0.0 -2.181438415602e+01 
-8.500908723545e+01 -5.473766628319e-01 0.0 
-5.473766628319e-01 -2.131876887728e+02 0.0 
0.0 0.0 -8.905903280248e+01 
-1.445322608806e+02 3.035120027187e+01 0.0 
3.035120027187e+01 -3.517498518396e+02 0.0 
0.0 0.0 -1.484846338161e+02 
-3.625382124889e+01 2.493348091278e+01 0.0 
2.493348091278e+01 -3.482457054930e+01 0.0 
0.0 0.0 -2.092351753946e+01 
-1.343220504365e+02 3.813705351418e+01 0.0 
3.813705351418e+01 -3.225472439169e+02 0.0 
0.0 0.0 -1.366607883060e+02 
-3.739317543827e+01 2.438764723020e+01 0.0 
2.438764723020e+01 -3.532749623339e+01 0.0 
0.0 0.0 -2.141620150150e+01 
-1.619345237810e+02 4.605991331390e+00 0.0 
4.605991331390e+00 -3.844543386611e+02 0.0 
0.0 0.0 -1.635166587326e+02 
-3.328335835975e+00 -6.043585473967e-01 0.0 
-6.043585473967e-01 -1.617458930745e+01 0.0 
0.0 0.0 -5.277367469260e+00 
-1.213677555390e+02 4.116779325181e+01 0.0 
4.116779325181e+01 -2.846091306397e+02 0.0 
0.0 0.0 -1.213930658536e+02 
-5.043164821260e+01 2.269147709609e+01 0.0 
2.269147709609e+01 -3.648360731133e+01 0.0 
0.0 0.0 -2.567457665718e+01 
-5.172884048664e+01 -7.097577855843e-01 0.0 
-7.097577855843e-01 -1.315226444416e+02 0.0 
0.0 0.0 -5.457544547846e+01 
-1.084089620668e+02 -3.203325856382e-01 0.0 
-3.203325856382e-01 -2.681915788074e+02 0.0 
0.0 0.0 -1.125801622623e+02 
-1.116494947333e+02 3.930145738043e+01 0.0 
3.930145738043e+01 -2.542462687314e+02 0.0 
0.0 0.0 -1.093687290394e+02 
-9.947782319253e+01 3.131242403301e+01 0.0 
3.131242403301e+01 -2.199695611852e+02 0.0 
0.0 0.0 -9.543421531332e+01 
-8.432852031089e+01 8.918481046517e+00 0.0 
8.918481046517e+00 -1.874783259513e+02 0.0 
0.0 0.0 -8.114205387866e+01 
-8.744119812131e+01 1.529459997548e+01 0.0 
1.529459997548e+01 -1.904973089335e+02 0.0 
0.0 0.0 -8.298155211644e+01 
-9.273674365063e+01 2.346144303778e+01 0.0 
2.346144303778e+01 -2.030252304338e+02 0.0 
0.0 0.0 -8.832859222534e+01 
-4.188042953549e+01 7.330455970402e+00 0.0 
7.330455970402e+00 -2.153195369439e+01 0.0 
0.0 0.0 -1.862371496896e+01 
-2.978877511383e+01 5.296602434423e-01 0.0 
5.296602434423e-01 -1.769044923481e+01 0.0 
0.0 0.0 -1.384376730459e+01 
-2.862246198649e+01 2.489976354870e-01 0.0 
2.489976354870e-01 -1.880469382739e+01 0.0 
0.0 0.0 -1.382814674416e+01 
-5.452309587256e+01 5.970522509051e-01 0.0 
5.970522509051e-01 -8.928309310686e+01 0.0 
0.0 0.0 -4.274185669383e+01 
-1.619687827364e+02 2.283401711866e+00 0.0 
2.283401711866e+00 -3.829598816300e+02 0.0 
0.0 0.0 -1.630785993099e+02 
-6.994306896195e+01 1.076180888600e+01 0.0 
1.076180888600e+01 -1.066567824017e+02 0.0 
0.0 0.0 -5.379948404624e+01 
-1.834173429727e+00 -3.520457939562e-01 0.0 
-3.520457939562e-01 -1.724876313763e+01 0.0 
0.0 0.0 -4.902358168526e+00 
-1.368056183294e+02 1.721398173151e-01 0.0 
1.721398173151e-01 -3.302142335983e+02 0.0 
0.0 0.0 -1.397059555783e+02 
-2.655426987197e+01 -6.426206169059e-02 0.0 
-6.426206169059e-02 -1.647673106768e+01 0.0 
0.0 0.0 -1.250930028190e+01 
-2.392093810898e+01 -4.772986379388e-01 0.0 
-4.772986379388e-01 -6.920209421315e+01 0.0 
0.0 0.0 -2.753690969664e+01 
-1.042104120954e+02 3.540879401653e+01 0.0 
3.540879401653e+01 -2.320519464471e+02 0.0 
0.0 0.0 -1.004787075628e+02 
-1.405144470813e+02 3.487159246858e+01 0.0 
3.487159246858e+01 -3.394135616828e+02 0.0 
0.0 0.0 -1.435784026292e+02 
-1.279879283695e+02 4.038009827989e+01 0.0 
4.038009827989e+01 -3.041134176812e+02 0.0 
0.0 0.0 -1.292304038152e+02 
-1.479197047265e+02 2.587845059773e+01 0.0 
2.587845059773e+01 -3.614221583163e+02 0.0 
0.0 0.0 -1.524025589128e+02 
-1.564083304708e+02 1.620205919435e+01 0.0 
1.620205919435e+01 -3.780205696235e+02 0.0 
0.0 0.0 -1.599286700283e+02 
-3.019575516802e+01 -1.220248404350e+01 0.0 
-1.220248404350e+01 -2.435733691803e+01 0.0 
0.0 0.0 -1.599889129135e+01 
-3.278518247925e+01 1.924929456531e+00 0.0 
1.924929456531e+00 -1.767463028962e+01 0.0 
0.0 0.0 -1.473794383066e+01 
-1.585751196690e+02 6.855156440335e+00 0.0 
6.855156440335e+00 -3.802834980487e+02 0.0 
0.0 0.0 -1.612575853153e+02 
-6.755746955203e+01 9.601509706943e-01 0.0 
9.601509706943e-01 -1.291958121278e+02 0.0 
0.0 0.0 -5.862598450395e+01 
-5.940131796525e+00 -9.058488131875e-01 0.0 
-9.058488131875e-01 -1.724310602436e+01 0.0 
0.0 0.0 -6.667696756073e+00 
-6.810479387923e+01 -6.859457942577e-01 0.0 
-6.859457942577e-01 -1.713746889887e+02 0.0 
0.0 0.0 -7.144384486037e+01 
-8.390490172198e+01 5.434453807982e+00 0.0 
5.434453807982e+00 -1.891755286174e+02 0.0 
0.0 0.0 -8.152412910182e+01 
-3.712163587162e+01 2.582676160138e+01 0.0 
2.582676160138e+01 -3.738685336540e+01 0.0 
0.0 0.0 -2.195254677111e+01 
-4.018902326174e+01 2.789893087938e+01 0.0 
2.789893087938e+01 -3.724712074228e+01 0.0 
0.0 0.0 -2.175054841937e+01 
-3.638424729983e+01 2.440870927493e+01 0.0 
2.440870927493e+01 -3.550986423132e+01 0.0 
0.0 0.0 -2.116823345934e+01 
-4.077409687285e+01 2.465718181444e+01 0.0 
2.465718181444e+01 -3.503573182190e+01 0.0 
0.0 0.0 -2.234294860842e+01 
-4.622133624605e+01 3.458833975511e+01 0.0 
3.458833975511e+01 -4.546616696050e+01 0.0 
0.0 0.0 -2.772094837165e+01 
-4.056198029274e+01 1.889257502243e-01 0.0 
1.889257502243e-01 -5.150414439334e+01 0.0 
0.0 0.0 -2.721983740583e+01 
-1.636903522377e+02 1.177557614490e+00 0.0 
1.177557614490e+00 -3.857479853261e+02 0.0 
0.0 0.0 -1.644315012691e+02 
-1.080417679320e+00 -2.382040409405e-01 0.0 
-2.382040409405e-01 -1.629303771790e+01 0.0 
0.0 0.0 -4.133614183283e+00 
-7.864827369902e+01 1.298345752801e+00 0.0 
1.298345752801e+00 -1.694351282922e+02 0.0 
0.0 0.0 -7.402502059737e+01 
-5.147517359358e+01 1.884496053606e+01 0.0 
1.884496053606e+01 -3.759049119941e+01 0.0 
0.0 0.0 -2.631969943790e+01 
-5.495755805297e+01 2.263333552959e+01 0.0 
2.263333552959e+01 -5.674731389319e+01 0.0 
0.0 0.0 -3.311146158385e+01 
-5.749115797788e+01 1.953982517402e+01 0.0 
1.953982517402e+01 -5.703290354621e+01 0.0 
0.0 0.0 -3.395721845723e+01 
-6.217604815332e+01 2.414170105416e+01 0.0 
2.414170105416e+01 -7.900525423862e+01 0.0 
0.0 0.0 -4.195439071758e+01 
-6.510411105976e+01 2.195269338882e+01 0.0 
2.195269338882e+01 -8.207281994217e+01 0.0 
0.0 0.0 -4.375307930058e+01 
-6.930219580530e+01 2.534119186732e+01 0.0 
2.534119186732e+01 -1.010672018571e+02 0.0 
0.0 0.0 -5.071081929874e+01 
-6.628451110251e+01 2.681040475314e+01 0.0 
2.681040475314e+01 -9.862155124132e+01 0.0 
0.0 0.0 -4.907181870315e+01 
-7.331397011344e+01 2.784098167851e+01 0.0 
2.784098167851e+01 -1.200246715618e+02 0.0 
0.0 0.0 -5.760159250257e+01 
-7.007880374145e+01 2.886526145972e+01 0.0 
2.886526145972e+01 -1.178884910674e+02 0.0 
0.0 0.0 -5.599018844265e+01 
-7.255820352957e+01 2.362264552086e+01 0.0 
2.362264552086e+01 -1.050194417523e+02 0.0 
0.0 0.0 -5.287329358457e+01 
-7.711671333038e+01 2.978232478201e+01 0.0 
2.978232478201e+01 -1.389056965874e+02 0.0 
0.0 0.0 -6.440672297532e+01 
-7.382175098549e+01 3.042256331848e+01 0.0 
3.042256331848e+01 -1.370166362263e+02 0.0 
0.0 0.0 -6.285151616355e+01 
-8.087126798527e+01 3.128363029742e+01 0.0 
3.128363029742e+01 -1.577435308827e+02 0.0 
0.0 0.0 -7.118443966039e+01 
-7.756286627356e+01 3.161056698041e+01 0.0 
3.161056698041e+01 -1.559794746573e+02 0.0 
0.0 0.0 -6.966270227926e+01 
-7.048789514090e+01 3.085027123725e+01 0.0 
3.085027123725e+01 -1.358207363453e+02 0.0 
0.0 0.0 -6.149258944585e+01 
-7.416684053659e+01 3.171458923417e+01 0.0 
3.171458923417e+01 -1.547593881489e+02 0.0 
0.0 0.0 -6.827786860564e+01 
-6.714971854744e+01 3.103752729903e+01 0.0 
3.103752729903e+01 -1.349781389013e+02 0.0 
0.0 0.0 -6.023835723463e+01 
-7.075889052636e+01 3.160732462092e+01 0.0 
3.160732462092e+01 -1.538939461889e+02 0.0 
0.0 0.0 -6.699585101458e+01 
-7.789166868201e+01 3.225739318203e+01 0.0 
3.225739318203e+01 -1.733666311618e+02 0.0 
0.0 0.0 -7.497748995315e+01 
-7.441164777896e+01 3.187003716763e+01 0.0 
3.187003716763e+01 -1.724415143936e+02 0.0 
0.0 0.0 -7.365594865176e+01 
-6.733566652226e+01 3.129231768492e+01 0.0 
3.129231768492e+01 -1.532524709835e+02 0.0 
0.0 0.0 -6.577644125173e+01 
-7.087644211684e+01 3.130411880405e+01 0.0 
3.130411880405e+01 -1.716229204258e+02 0.0 
0.0 0.0 -7.234980876278e+01 
-6.400533032802e+01 3.078446241343e+01 0.0 
3.078446241343e+01 -1.527312303753e+02 0.0 
0.0 0.0 -6.462096821101e+01 
-6.741430765349e+01 3.055430772638e+01 0.0 
3.055430772638e+01 -1.709032176464e+02 0.0 
0.0 0.0 -7.109525758997e+01 
-6.079466690538e+01 3.010734097820e+01 0.0 
3.010734097820e+01 -1.522308278375e+02 0.0 
0.0 0.0 -6.350764842286e+01 
-6.401994706607e+01 2.965414494114e+01 0.0 
2.965414494114e+01 -1.701774749845e+02 0.0 
0.0 0.0 -6.985922661518e+01 
-7.093409032316e+01 3.004977504571e+01 0.0 
3.004977504571e+01 -1.885610899389e+02 0.0 
0.0 0.0 -7.744855407861e+01 
-6.734489414744e+01 2.891833771994e+01 0.0 
2.891833771994e+01 -1.875246787629e+02 0.0 
0.0 0.0 -7.606087187311e+01 
-6.068068478975e+01 2.863779060665e+01 0.0 
2.863779060665e+01 -1.693901597046e+02 0.0 
0.0 0.0 -6.862125334830e+01 
-6.380336080239e+01 2.763780805004e+01 0.0 
2.763780805004e+01 -1.864088185905e+02 0.0 
0.0 0.0 -7.466365381788e+01 
-5.741716858298e+01 2.748367524329e+01 0.0 
2.748367524329e+01 -1.685431859383e+02 0.0 
0.0 0.0 -6.738810635638e+01 
-6.031471594766e+01 2.617709404808e+01 0.0 
2.617709404808e+01 -1.851708921793e+02 0.0 
0.0 0.0 -7.324568243808e+01 
-6.715191442358e+01 2.636490722954e+01 0.0 
2.636490722954e+01 -2.027222856799e+02 0.0 
0.0 0.0 -8.056226003103e+01 
-6.348938805492e+01 2.460247468127e+01 0.0 
2.460247468127e+01 -2.010188799700e+02 0.0 
0.0 0.0 -7.895248040747e+01 
-5.685474454931e+01 2.451398079273e+01 0.0 
2.451398079273e+01 -1.837509504688e+02 0.0 
0.0 0.0 -7.178170850543e+01 
-5.987226903267e+01 2.259821086600e+01 0.0 
2.259821086600e+01 -1.991052135161e+02 0.0 
0.0 0.0 -7.729324476462e+01 
-5.343558295959e+01 2.261675378670e+01 0.0 
2.261675378670e+01 -1.821693488816e+02 0.0 
0.0 0.0 -7.028147955234e+01 
-5.633329115154e+01 2.029971084387e+01 0.0 
2.029971084387e+01 -1.969721486260e+02 0.0 
0.0 0.0 -7.559163193326e+01 
-5.006839076785e+01 2.040855793145e+01 0.0 
2.040855793145e+01 -1.804178190313e+02 0.0 
0.0 0.0 -6.874586293976e+01 
-5.286978497979e+01 1.763130690924e+01 0.0 
1.763130690924e+01 -1.944833168880e+02 0.0 
0.0 0.0 -7.380593056034e+01 
-5.972575491845e+01 1.783458718035e+01 0.0 
1.783458718035e+01 -2.106803315887e+02 0.0 
0.0 0.0 -8.072182595214e+01 
-5.628215504434e+01 1.481252243135e+01 0.0 
1.481252243135e+01 -2.073682085823e+02 0.0 
0.0 0.0 -7.869510908798e+01 
-4.955570355196e+01 1.454168989696e+01 0.0 
1.454168989696e+01 -1.915858951365e+02 0.0 
0.0 0.0 -7.194247960655e+01 
-5.303955864652e+01 1.137077971341e+01 0.0 
1.137077971341e+01 -2.033903939355e+02 0.0 
0.0 0.0 -7.652898577462e+01 
-6.027158665950e+01 1.210321022888e+01 0.0 
1.210321022888e+01 -2.191232818040e+02 0.0 
0.0 0.0 -8.341846053905e+01 
-5.714959103791e+01 8.487388739972e+00 0.0 
8.487388739972e+00 -2.139931286620e+02 0.0 
0.0 0.0 -8.094281590998e+01 
-6.479531028799e+01 9.655699385767e+00 0.0 
9.655699385767e+00 -2.298511430898e+02 0.0 
0.0 0.0 -8.799393601335e+01 
-6.179907789778e+01 6.022087754553e+00 0.0 
6.022087754553e+00 -2.236019488908e+02 0.0 
0.0 0.0 -8.522030803657e+01 
-5.443242383821e+01 4.576938821959e+00 0.0 
4.576938821959e+00 -2.079558155115e+02 0.0 
0.0 0.0 -7.831647180491e+01 
-5.922681680614e+01 2.236701806831e+00 0.0 
2.236701806831e+00 -2.163577594518e+02 0.0 
0.0 0.0 -8.227537287738e+01 
-6.686383181843e+01 4.037926197251e+00 0.0 
4.037926197251e+00 -2.324214698248e+02 0.0 
0.0 0.0 -8.938559049298e+01 
-6.436138219048e+01 5.072748121980e-01 0.0 
5.072748121980e-01 -2.241109949236e+02 0.0 
0.0 0.0 -8.614171313422e+01 
-5.712101792149e+01 -1.567699515826e+00 0.0 
-1.567699515826e+00 -2.079610531517e+02 0.0 
0.0 0.0 -7.912462132197e+01 
-6.229485827438e+01 -2.880150428007e+00 0.0 
-2.880150428007e+00 -2.147631940958e+02 0.0 
0.0 0.0 -8.271741571107e+01 
-6.972260019217e+01 -6.520683057648e-01 0.0 
-6.520683057648e-01 -2.315158251273e+02 0.0 
0.0 0.0 -8.997152759585e+01 
-6.759119911218e+01 -3.592720720509e+00 0.0 
-3.592720720509e+00 -2.214347599673e+02 0.0 
0.0 0.0 -8.630778772385e+01 
-6.058968990002e+01 -5.940692482616e+00 0.0 
-5.940692482616e+00 -2.043189462977e+02 0.0 
0.0 0.0 -7.907259085932e+01 
-6.572412137609e+01 -6.128634979621e+00 0.0 
-6.128634979621e+00 -2.104482870730e+02 0.0 
0.0 0.0 -8.245172253473e+01 
-7.295649161245e+01 -3.827284000760e+00 0.0 
-3.827284000760e+00 -2.282200387917e+02 0.0 
0.0 0.0 -8.995295912125e+01 
-7.082570302864e+01 -5.905962296126e+00 0.0 
-5.905962296126e+00 -2.168013476315e+02 0.0 
0.0 0.0 -8.588811519805e+01 
-6.398878807891e+01 -8.121709284132e+00 0.0 
-8.121709284132e+00 -1.985815482966e+02 0.0 
0.0 0.0 -7.837110091264e+01 
-6.876381265241e+01 -7.467491213622e+00 0.0 
-7.467491213622e+00 -2.047413908644e+02 0.0 
0.0 0.0 -8.165156105503e+01 
-7.589596452685e+01 -5.422105312484e+00 0.0 
-5.422105312484e+00 -2.234819876655e+02 0.0 
0.0 0.0 -8.941338565769e+01 
-7.347000675171e+01 -6.640394407702e+00 0.0 
-6.640394407702e+00 -2.112753599060e+02 0.0 
0.0 0.0 -8.502360999732e+01 
-8.090338423747e+01 -4.778555654584e+00 0.0 
-4.778555654584e+00 -2.303977677659e+02 0.0 
0.0 0.0 -9.299034560100e+01 
-6.656727492360e+01 -8.447013078371e+00 0.0 
-8.447013078371e+00 -1.920225182246e+02 0.0 
0.0 0.0 -7.717693794446e+01 
-7.089630943410e+01 -7.341400954013e+00 0.0 
-7.341400954013e+00 -1.986614268519e+02 0.0 
0.0 0.0 -8.046732088580e+01 
-6.411281146168e+01 -8.829180229750e+00 0.0 
-8.829180229750e+00 -1.788844114292e+02 0.0 
0.0 0.0 -7.249916686726e+01 
-6.809464120443e+01 -7.536450820750e+00 0.0 
-7.536450820750e+00 -1.858333588689e+02 0.0 
0.0 0.0 -7.577840002201e+01 
-7.080222528365e+01 2.488695658260e+01 0.0 
2.488695658260e+01 -2.182758402426e+02 0.0 
0.0 0.0 -8.632341965789e+01 
-6.130124645634e+01 -8.631173537688e+00 0.0 
-8.631173537688e+00 -1.656573290345e+02 0.0 
0.0 0.0 -6.768757264727e+01 
-5.780554327320e+01 -1.007789273286e+01 0.0 
-1.007789273286e+01 -1.589996118344e+02 0.0 
0.0 0.0 -6.464154653229e+01 
-6.496151597789e+01 -7.274483631461e+00 0.0 
-7.274483631461e+00 -1.729774511654e+02 0.0 
0.0 0.0 -7.098169014299e+01 
-7.214681233220e+01 -6.314951807184e+00 0.0 
-6.314951807184e+00 -1.932436936324e+02 0.0 
0.0 0.0 -7.921715178938e+01 
-5.801335694648e+01 -7.961583946268e+00 0.0 
-7.961583946268e+00 -1.525082190065e+02 0.0 
0.0 0.0 -6.275647278588e+01 
-6.143019818211e+01 -6.661710982895e+00 0.0 
-6.661710982895e+00 -1.602040673180e+02 0.0 
0.0 0.0 -6.609027965003e+01 
-5.421304863486e+01 -6.984461734214e+00 0.0 
-6.984461734214e+00 -1.395788164997e+02 0.0 
0.0 0.0 -5.773755954035e+01 
-4.769089453000e+01 2.292963549567e+01 0.0 
2.292963549567e+01 -1.648733396961e+02 0.0 
0.0 0.0 -6.336927026782e+01 
-8.176633677082e+01 3.253512918598e+01 0.0 
3.253512918598e+01 -1.916504287698e+02 0.0 
0.0 0.0 -8.162502966219e+01 
-5.747383840388e+01 -5.808711256681e+00 0.0 
-5.808711256681e+00 -1.476188139250e+02 0.0 
0.0 0.0 -6.112779569867e+01 
-4.989559305691e+01 -5.799041856492e+00 0.0 
-5.799041856492e+00 -1.269464612562e+02 0.0 
0.0 0.0 -5.265261629393e+01 
-4.696301981534e+01 -6.894374505262e+00 0.0 
-6.894374505262e+00 -1.187769918873e+02 0.0 
0.0 0.0 -4.932200351080e+01 
-4.219161600089e+01 -5.436882552260e+00 0.0 
-5.436882552260e+00 -1.062305769942e+02 0.0 
0.0 0.0 -4.412665789853e+01 
-6.841925185523e+01 2.014534723143e+01 0.0 
2.014534723143e+01 -8.754559807999e+01 0.0 
0.0 0.0 -4.638945498056e+01 
-7.503454511750e+01 2.177469562033e+01 0.0 
2.177469562033e+01 -1.101941770957e+02 0.0 
0.0 0.0 -5.516861666395e+01 
-7.021811330754e+01 1.792163492301e+01 0.0 
1.792163492301e+01 -9.285958536583e+01 0.0 
0.0 0.0 -4.852330960201e+01 
-7.709414068161e+01 2.014519024434e+01 0.0 
2.014519024434e+01 -1.161947342518e+02 0.0 
0.0 0.0 -5.758666248003e+01 
-7.235848175589e+01 1.632541204927e+01 0.0 
1.632541204927e+01 -1.005722618489e+02 0.0 
0.0 0.0 -5.147922308144e+01 
-4.515502891944e+01 -4.555779547270e+00 0.0 
-4.555779547270e+00 -1.146141825113e+02 0.0 
0.0 0.0 -4.753076342923e+01 
-8.403930742344e+01 3.075118784739e+01 0.0 
3.075118784739e+01 -1.602996576256e+02 0.0 
0.0 0.0 -7.290168951470e+01 
-8.142347210715e+01 2.356485160923e+01 0.0 
2.356485160923e+01 -1.327910902273e+02 0.0 
0.0 0.0 -6.386436870033e+01 
-6.062088272816e+01 3.070312507383e+01 0.0 
3.070312507383e+01 -1.340333987680e+02 0.0 
0.0 0.0 -5.799628444885e+01 
-5.469603115115e+01 2.843564007909e+01 0.0 
2.843564007909e+01 -1.511845277369e+02 0.0 
0.0 0.0 -6.136416766643e+01 
-6.814535403265e+01 1.305921053435e+01 0.0 
1.305921053435e+01 -2.352553407293e+02 0.0 
0.0 0.0 -9.062020842858e+01 
-6.499365279502e+01 -5.463777491270e+00 0.0 
-5.463777491270e+00 -1.681337837613e+02 0.0 
0.0 0.0 -6.953823096689e+01 
-6.092454678313e+01 -4.741392864421e+00 0.0 
-4.741392864421e+00 -1.558450440288e+02 0.0 
0.0 0.0 -6.463087724358e+01 
-6.862996205196e+01 -4.361091133140e+00 0.0 
-4.361091133140e+00 -1.762957779087e+02 0.0 
0.0 0.0 -7.307772198819e+01 
-8.361518139213e+01 -3.374858905376e+00 0.0 
-3.374858905376e+00 -2.422101025748e+02 0.0 
0.0 0.0 -9.734758519007e+01 
-8.885385974358e+01 -2.910736595201e+00 0.0 
-2.910736595201e+00 -2.493943881131e+02 0.0 
0.0 0.0 -1.010744743570e+02 
-9.188900643057e+01 -1.375587667384e+00 0.0 
-1.375587667384e+00 -2.608659717566e+02 0.0 
0.0 0.0 -1.054264934561e+02 
-9.730933118959e+01 -1.084408661367e+00 0.0 
-1.084408661367e+00 -2.682561007597e+02 0.0 
0.0 0.0 -1.092696295848e+02 
-1.006973897918e+02 5.390365810114e-01 0.0 
5.390365810114e-01 -2.794367809876e+02 0.0 
0.0 0.0 -1.136402512338e+02 
-1.062541513302e+02 6.542273246442e-01 0.0 
6.542273246442e-01 -2.869968016709e+02 0.0 
0.0 0.0 -1.175752859003e+02 
-1.026246720610e+02 -7.412360026889e-01 0.0 
-7.412360026889e-01 -2.757084910525e+02 0.0 
0.0 0.0 -1.130999489340e+02 
-1.116906719857e+02 8.106515323094e-01 0.0 
8.106515323094e-01 -2.945799624993e+02 0.0 
0.0 0.0 -1.214811903455e+02 
-1.078274327564e+02 -3.907348226690e-01 0.0 
-3.907348226690e-01 -2.832401570391e+02 0.0 
0.0 0.0 -1.169202769387e+02 
-1.100154734788e+02 2.329348429258e+00 0.0 
2.329348429258e+00 -2.979183356120e+02 0.0 
0.0 0.0 -1.219801427273e+02 
-1.042124750714e+02 2.452617273519e+00 0.0 
2.452617273519e+00 -2.901317070870e+02 0.0 
0.0 0.0 -1.179032546475e+02 
-1.169952878705e+02 9.669694529805e-01 0.0 
9.669694529805e-01 -3.022020877317e+02 0.0 
0.0 0.0 -1.253592126807e+02 
-1.129092662891e+02 -7.014108753970e-02 0.0 
-7.014108753970e-02 -2.908485149331e+02 0.0 
0.0 0.0 -1.207273343667e+02 
-1.221626964888e+02 1.092806398835e+00 0.0 
1.092806398835e+00 -3.098756556737e+02 0.0 
0.0 0.0 -1.292115056487e+02 
-1.178647324149e+02 2.002113473513e-01 0.0 
2.002113473513e-01 -2.985370203487e+02 0.0 
0.0 0.0 -1.245205258291e+02 
-1.088533387373e+02 -8.636397934888e-01 0.0 
-8.636397934888e-01 -2.792808675246e+02 0.0 
0.0 0.0 -1.160402618786e+02 
-1.135837309845e+02 -4.767179570619e-01 0.0 
-4.767179570619e-01 -2.870223758489e+02 0.0 
0.0 0.0 -1.197818320500e+02 
-1.048083901304e+02 -1.401578266728e+00 0.0 
-1.401578266728e+00 -2.676516385057e+02 0.0 
0.0 0.0 -1.113380085908e+02 
-7.304162337217e+01 1.096288345803e+01 0.0 
1.096288345803e+01 -2.461108445797e+02 0.0 
0.0 0.0 -9.534574038556e+01 
-7.663293780661e+01 1.419002524254e+01 0.0 
1.419002524254e+01 -2.517300812601e+02 0.0 
0.0 0.0 -9.810890572001e+01 
-8.187684809325e+01 1.237009670122e+01 0.0 
1.237009670122e+01 -2.627029788489e+02 0.0 
0.0 0.0 -1.029739480826e+02 
-8.573515494217e+01 1.545184303908e+01 0.0 
1.545184303908e+01 -2.685019856115e+02 0.0 
0.0 0.0 -1.058711421661e+02 
-9.131794633880e+01 1.385605130131e+01 0.0 
1.385605130131e+01 -2.795720967273e+02 0.0 
0.0 0.0 -1.108670129198e+02 
-9.544948177732e+01 1.681976607190e+01 0.0 
1.681976607190e+01 -2.854928583780e+02 0.0 
0.0 0.0 -1.138827020466e+02 
-1.013646695629e+02 1.539952780665e+01 0.0 
1.539952780665e+01 -2.966222146443e+02 0.0 
0.0 0.0 -1.189960652622e+02 
-9.717947054879e+01 1.244908193818e+01 0.0 
1.244908193818e+01 -2.899667948303e+02 0.0 
0.0 0.0 -1.157438796137e+02 
-8.465648369718e+01 3.247606730475e+01 0.0 
3.247606730475e+01 -1.764051363210e+02 0.0 
0.0 0.0 -7.791848600546e+01 
-4.644688791163e+01 1.091630008789e+01 0.0 
1.091630008789e+01 -1.880992101226e+02 0.0 
0.0 0.0 -6.996382941028e+01 
-4.354973458508e+01 1.463558774591e+01 0.0 
1.463558774591e+01 -1.761503907695e+02 0.0 
0.0 0.0 -6.551003760638e+01 
-4.054693738659e+01 1.082016620900e+01 0.0 
1.082016620900e+01 -1.733455591147e+02 0.0 
0.0 0.0 -6.376774895038e+01 
-3.837891654965e+01 1.519108198581e+01 0.0 
1.519108198581e+01 -1.611421715881e+02 0.0 
0.0 0.0 -5.945632644131e+01 
-3.543372212442e+01 1.121377168351e+01 0.0 
1.121377168351e+01 -1.592155658797e+02 0.0 
0.0 0.0 -5.799478640125e+01 
-3.420320400969e+01 1.634148663542e+01 0.0 
1.634148663542e+01 -1.465487151575e+02 0.0 
0.0 0.0 -5.382557575017e+01 
-3.141585958658e+01 1.223039574625e+01 0.0 
1.223039574625e+01 -1.457547288620e+02 0.0 
0.0 0.0 -5.269621952471e+01 
-3.288054293224e+01 6.181164056773e+00 0.0 
6.181164056773e+00 -1.564438353223e+02 0.0 
0.0 0.0 -5.637327786836e+01 
-2.948657008913e+01 6.633639479226e+00 0.0 
6.633639479226e+00 -1.442385647257e+02 0.0 
0.0 0.0 -5.182085460694e+01 
-3.135573956339e+01 1.389906245542e-02 0.0 
1.389906245542e-02 -1.519295194708e+02 0.0 
0.0 0.0 -5.446095139110e+01 
-2.846383878818e+01 -4.165014189076e-01 0.0 
-4.165014189076e-01 -1.406511709331e+02 0.0 
0.0 0.0 -5.089572027978e+01 
-3.097556600789e+01 -6.829556069158e+00 0.0 
-6.829556069158e+00 -1.446946684140e+02 0.0 
0.0 0.0 -5.241668419869e+01 
-7.462679224902e+01 2.932135908781e+01 0.0 
2.932135908781e+01 -2.056518429232e+02 0.0 
0.0 0.0 -8.368359055165e+01 
-8.982317025847e+01 1.837817565594e+01 0.0 
1.837817565594e+01 -2.736528822297e+02 0.0 
0.0 0.0 -1.086428157465e+02 
-9.981485866774e+01 1.967463754402e+01 0.0 
1.967463754402e+01 -2.908191651146e+02 0.0 
0.0 0.0 -1.167902071347e+02 
-9.406175206860e+01 2.113024502078e+01 0.0 
2.113024502078e+01 -2.781948135415e+02 0.0 
0.0 0.0 -1.112769696830e+02 
-3.945953237695e+01 -6.314227969074e+00 0.0 
-6.314227969074e+00 -9.791320235759e+01 0.0 
0.0 0.0 -4.081182042036e+01 
-1.226940245112e+02 4.013267291718e-01 0.0 
4.013267291718e-01 -3.063233245383e+02 0.0 
0.0 0.0 -1.283052047149e+02 
-1.139537669003e+02 4.259014834876e+00 0.0 
4.259014834876e+00 -3.083899128386e+02 0.0 
0.0 0.0 -1.263031039217e+02 
-1.079172940788e+02 4.607491172702e+00 0.0 
4.607491172702e+00 -3.002602882294e+02 0.0 
0.0 0.0 -1.220532746925e+02 
-1.075279263196e+02 1.411773960195e+01 0.0 
1.411773960195e+01 -3.071315505483e+02 0.0 
0.0 0.0 -1.239978430603e+02 
-3.705498639249e+01 -4.072274733212e+00 0.0 
-4.072274733212e+00 -9.424803573833e+01 0.0 
0.0 0.0 -3.899090663925e+01 
-3.161070307736e+01 1.823082521452e+01 0.0 
1.823082521452e+01 -1.324210529340e+02 0.0 
0.0 0.0 -4.877498775289e+01 
-3.409952913533e+01 2.108049116245e+01 0.0 
2.108049116245e+01 -1.315008151529e+02 0.0 
0.0 0.0 -4.928010328648e+01 
-7.885091634024e+01 1.869993463144e+01 0.0 
1.869993463144e+01 -1.232160094332e+02 0.0 
0.0 0.0 -6.022007773202e+01 
-7.407606049456e+01 1.505592812106e+01 0.0 
1.505592812106e+01 -1.086571375406e+02 0.0 
0.0 0.0 -5.441995941054e+01 
-1.181479641541e+02 6.394636063804e+00 0.0 
6.394636063804e+00 -3.183933748263e+02 0.0 
0.0 0.0 -1.305624016941e+02 
-4.012845966154e+01 -3.422024059597e+00 0.0 
-3.422024059597e+00 -1.027291205501e+02 0.0 
0.0 0.0 -4.245727406348e+01 
-1.211848047501e+02 2.240168122595e+00 0.0 
2.240168122595e+00 -3.133130323026e+02 0.0 
0.0 0.0 -1.299493511158e+02 
-2.770685565484e+01 7.877149605810e+00 0.0 
7.877149605810e+00 -1.335289941817e+02 0.0 
0.0 0.0 -4.904377838351e+01 
-1.182160727270e+02 -1.773720734504e-01 0.0 
-1.773720734504e-01 -2.948845960260e+02 0.0 
0.0 0.0 -1.235302006259e+02 
-1.273736167011e+02 5.269144959220e-01 0.0 
5.269144959220e-01 -3.142040403977e+02 0.0 
0.0 0.0 -1.320732971296e+02 
-9.907255700635e+01 -1.833552791666e+00 0.0 
-1.833552791666e+00 -2.641538852636e+02 0.0 
0.0 0.0 -1.085679326810e+02 
-1.043479097165e+02 2.241644904659e+01 0.0 
2.241644904659e+01 -2.956320308489e+02 0.0 
0.0 0.0 -1.195939821696e+02 
-9.843780478820e+01 2.369091809886e+01 0.0 
2.369091809886e+01 -2.822544585374e+02 0.0 
0.0 0.0 -1.138076789977e+02 
-3.473184185337e+01 -5.096542796331e+00 0.0 
-5.096542796331e+00 -1.574674115196e+02 0.0 
0.0 0.0 -5.723461434192e+01 
-3.476462337895e+01 -1.108950622044e+01 0.0 
-1.108950622044e+01 -1.474592514054e+02 0.0 
0.0 0.0 -5.419806376972e+01 
-3.222530318039e+01 -1.369952616350e+01 0.0 
-1.369952616350e+01 -1.339534965902e+02 0.0 
0.0 0.0 -4.978698423172e+01 
-3.648588693692e+01 -1.622836425173e+01 0.0 
-1.622836425173e+01 -1.347797567998e+02 0.0 
0.0 0.0 -5.080434576754e+01 
-3.924423137265e+01 -1.317579318303e+01 0.0 
-1.317579318303e+01 -1.501274049864e+02 0.0 
0.0 0.0 -5.640462712648e+01 
-4.008513289675e+01 -1.669879535924e+01 0.0 
-1.669879535924e+01 -1.359204423316e+02 0.0 
0.0 0.0 -5.230329281583e+01 
-3.871719872476e+01 -1.967441701178e+01 0.0 
-1.967441701178e+01 -1.185774282905e+02 0.0 
0.0 0.0 -4.620079808335e+01 
-4.108757707057e+01 -1.838132163826e+01 0.0 
-1.838132163826e+01 -1.196551264107e+02 0.0 
0.0 0.0 -4.747780993405e+01 
-4.379943171094e+01 -1.596244417360e+01 0.0 
-1.596244417360e+01 -1.385990325938e+02 0.0 
0.0 0.0 -5.431953929141e+01 
-4.356516924382e+01 -1.650069471393e+01 0.0 
-1.650069471393e+01 -1.227928900027e+02 0.0 
0.0 0.0 -4.945503757268e+01 
-4.160131630579e+01 -1.758374150644e+01 0.0 
-1.758374150644e+01 -1.020352768574e+02 0.0 
0.0 0.0 -4.196732212120e+01 
-4.246649933200e+01 -1.519838025936e+01 0.0 
-1.519838025936e+01 -1.064374892479e+02 0.0 
0.0 0.0 -4.409709912811e+01 
-1.320308484357e+02 1.176135243597e+00 0.0 
1.176135243597e+00 -3.254201367901e+02 0.0 
0.0 0.0 -1.368352955677e+02 
-2.677998339451e+01 -4.797515266311e-01 0.0 
-4.797515266311e-01 -1.308787743200e+02 0.0 
0.0 0.0 -4.850705240719e+01 
-6.352502083336e+01 3.012999080745e+01 0.0 
3.012999080745e+01 -1.156640410716e+02 0.0 
0.0 0.0 -5.335671857148e+01 
-1.242027163613e+02 5.888331773585e+00 0.0 
5.888331773585e+00 -3.265638575458e+02 0.0 
0.0 0.0 -1.348299721721e+02 
-1.119763177602e+02 1.698286336377e+01 0.0 
1.698286336377e+01 -3.136194486724e+02 0.0 
0.0 0.0 -1.272787299298e+02 
-8.029707889745e+01 1.749568477649e+01 0.0 
1.749568477649e+01 -1.310539431213e+02 0.0 
0.0 0.0 -6.300530660563e+01 
-7.560229466637e+01 1.407577609399e+01 0.0 
1.407577609399e+01 -1.174724003244e+02 0.0 
0.0 0.0 -5.752240849723e+01 
-6.870778907954e+01 1.141456950624e+01 0.0 
1.141456950624e+01 -9.527906189485e+01 0.0 
0.0 0.0 -4.879605529232e+01 
-7.050570502370e+01 1.080210132753e+01 0.0 
1.080210132753e+01 -1.050217983190e+02 0.0 
0.0 0.0 -5.225825100280e+01 
-7.694717584632e+01 1.332095598741e+01 0.0 
1.332095598741e+01 -1.268934908947e+02 0.0 
0.0 0.0 -6.075220002230e+01 
-7.217771376987e+01 1.033336181976e+01 0.0 
1.033336181976e+01 -1.150167878585e+02 0.0 
0.0 0.0 -5.575835048850e+01 
-6.511561030472e+01 7.924367611326e+00 0.0 
7.924367611326e+00 -9.354737770712e+01 0.0 
0.0 0.0 -4.719889640355e+01 
-6.722404709720e+01 7.720458084902e+00 0.0 
7.720458084902e+00 -1.039231993142e+02 0.0 
0.0 0.0 -5.094417392341e+01 
-5.966509106380e+01 5.537884243812e+00 0.0 
5.537884243812e+00 -8.288119567176e+01 0.0 
0.0 0.0 -4.236388602067e+01 
-6.220793558263e+01 5.553492298174e+00 0.0 
5.553492298174e+00 -9.352327937014e+01 0.0 
0.0 0.0 -4.631936448583e+01 
-6.923966574286e+01 7.526692896516e+00 0.0 
7.526692896516e+00 -1.144357467985e+02 0.0 
0.0 0.0 -5.470262376242e+01 
-6.464492390723e+01 5.542733857602e+00 0.0 
5.542733857602e+00 -1.043026782136e+02 0.0 
0.0 0.0 -5.028428063625e+01 
-5.724134699806e+01 3.833467796179e+00 0.0 
3.833467796179e+00 -8.372724317003e+01 0.0 
0.0 0.0 -4.189057705043e+01 
-6.008851232314e+01 3.941301360662e+00 0.0 
3.941301360662e+00 -9.458108744906e+01 0.0 
0.0 0.0 -4.600087993166e+01 
-5.243005779597e+01 2.552258027780e+00 0.0 
2.552258027780e+00 -7.425794213882e+01 0.0 
0.0 0.0 -3.760639998044e+01 
-5.567109105983e+01 2.717921814622e+00 0.0 
2.717921814622e+00 -8.507422796022e+01 0.0 
0.0 0.0 -4.182359570602e+01 
-6.285633175272e+01 3.883817119335e+00 0.0 
3.883817119335e+00 -1.055355293977e+02 0.0 
0.0 0.0 -5.011755834514e+01 
-3.192995692376e+01 -2.947292432299e+00 0.0 
-2.947292432299e+00 -8.310831696354e+01 0.0 
0.0 0.0 -3.411148216619e+01 
-1.032698442817e+02 1.123268380402e+01 0.0 
1.123268380402e+01 -2.998173809659e+02 0.0 
0.0 0.0 -1.205261675743e+02 
-1.139546553786e+02 1.297122773299e+01 0.0 
1.297122773299e+01 -3.172429109657e+02 0.0 
0.0 0.0 -1.289592699033e+02 
-6.462328775174e+01 -3.655769902597e+00 0.0 
-3.655769902597e+00 -1.648289485569e+02 0.0 
0.0 0.0 -6.843567089258e+01 
-7.221953903093e+01 -3.327554020761e+00 0.0 
-3.327554020761e+00 -1.843163430342e+02 0.0 
0.0 0.0 -7.656076461953e+01 
-7.638697039174e+01 -3.907900983580e+00 0.0 
-3.907900983580e+00 -1.965237328411e+02 0.0 
0.0 0.0 -8.147321096986e+01 
-8.041814148237e+01 -2.961685889869e+00 0.0 
-2.961685889869e+00 -2.048675245816e+02 0.0 
0.0 0.0 -8.518569981919e+01 
-5.875192393177e+01 2.682987902048e+00 0.0 
2.682987902048e+00 -9.594682892858e+01 0.0 
0.0 0.0 -4.600962585811e+01 
-6.548798273739e+01 3.654882873582e+00 0.0 
3.654882873582e+00 -1.165664984120e+02 0.0 
0.0 0.0 -5.421634434482e+01 
-3.313205478098e+01 2.349082866683e+01 0.0 
2.349082866683e+01 -1.162663257637e+02 0.0 
0.0 0.0 -4.427054882708e+01 
-3.495195873145e+01 2.492296910675e+01 0.0 
2.492296910675e+01 -1.143669536748e+02 0.0 
0.0 0.0 -4.432774527159e+01 
-8.458846861281e+01 2.091237391014e+01 0.0 
2.091237391014e+01 -1.456871125525e+02 0.0 
0.0 0.0 -6.868267434959e+01 
-1.227408478062e+02 5.265626465660e-02 0.0 
5.265626465660e-02 -3.029221157823e+02 0.0 
0.0 0.0 -1.272988890766e+02 
-1.137671164607e+02 -5.539981923013e-01 0.0 
-5.539981923013e-01 -2.834603587741e+02 0.0 
0.0 0.0 -1.187682425704e+02 
-5.178440871230e+01 2.743372485915e+01 0.0 
2.743372485915e+01 -1.505872722429e+02 0.0 
0.0 0.0 -6.031150428656e+01 
-4.946501969381e+01 2.824238565984e+01 0.0 
2.824238565984e+01 -1.328117907765e+02 0.0 
0.0 0.0 -5.428304314110e+01 
-4.699392470311e+01 2.746467520051e+01 0.0 
2.746467520051e+01 -1.323902787164e+02 0.0 
0.0 0.0 -5.341526102586e+01 
-4.503068177010e+01 2.801292387032e+01 0.0 
2.801292387032e+01 -1.138895176987e+02 0.0 
0.0 0.0 -4.727605984065e+01 
-4.715083907137e+01 2.857497741275e+01 0.0 
2.857497741275e+01 -1.143789240604e+02 0.0 
0.0 0.0 -4.805892893952e+01 
-4.308804841390e+01 2.754534667959e+01 0.0 
2.754534667959e+01 -1.135159319133e+02 0.0 
0.0 0.0 -4.658119409815e+01 
-9.823718158620e+01 2.652064876475e+00 0.0 
2.652064876475e+00 -2.820873970138e+02 0.0 
0.0 0.0 -1.136973735800e+02 
-7.120350158655e+01 7.294177179505e+00 0.0 
7.294177179505e+00 -1.251888047301e+02 0.0 
0.0 0.0 -5.851769189498e+01 
-4.432491755193e+01 -8.081904197354e+00 0.0 
-8.081904197354e+00 -1.108518693430e+02 0.0 
0.0 0.0 -4.615303606848e+01 
-3.718313535101e+01 -7.237271188177e+00 0.0 
-7.237271188177e+00 -8.985325647453e+01 0.0 
0.0 0.0 -3.771091754766e+01 
-1.318911716066e+02 5.815777234640e-01 0.0 
5.815777234640e-01 -3.222478234942e+02 0.0 
0.0 0.0 -1.358416985303e+02 
-9.324646505104e+01 9.450884704230e+00 0.0 
9.450884704230e+00 -2.825867745905e+02 0.0 
0.0 0.0 -1.123499718925e+02 
-7.839684978171e+01 3.056473114494e+01 0.0 
3.056473114494e+01 -2.069445711205e+02 0.0 
0.0 0.0 -8.520242627065e+01 
-8.248959714938e+01 2.988822346392e+01 0.0 
2.988822346392e+01 -2.238481398106e+02 0.0 
0.0 0.0 -9.150132108798e+01 
-8.639406333899e+01 3.126133416475e+01 0.0 
3.126133416475e+01 -2.254417701669e+02 0.0 
0.0 0.0 -9.315075005178e+01 
-9.092735225267e+01 3.066820706913e+01 0.0 
3.066820706913e+01 -2.421885600290e+02 0.0 
0.0 0.0 -9.953477368450e+01 
-9.488288708910e+01 3.219188048012e+01 0.0 
3.219188048012e+01 -2.440302356690e+02 0.0 
0.0 0.0 -1.012739368274e+02 
-9.987307192800e+01 3.172078621505e+01 0.0 
3.172078621505e+01 -2.605346767393e+02 0.0 
0.0 0.0 -1.077223246002e+02 
-9.578504376311e+01 2.994848305605e+01 0.0 
2.994848305605e+01 -2.583139345837e+02 0.0 
0.0 0.0 -1.058296935040e+02 
-1.089721868597e+02 2.505567934667e+01 0.0 
2.505567934667e+01 -2.999527052769e+02 0.0 
0.0 0.0 -1.222774676410e+02 
-1.052308243879e+02 3.117657854351e+01 0.0 
3.117657854351e+01 -2.764173927045e+02 0.0 
0.0 0.0 -1.140944651277e+02 
-5.141353694734e+01 1.710268039651e+00 0.0 
1.710268039651e+00 -7.545068353111e+01 0.0 
0.0 0.0 -3.765926614353e+01 
-8.441521720308e+01 1.999161274398e+01 0.0 
1.999161274398e+01 -2.608848273070e+02 0.0 
0.0 0.0 -1.031900133530e+02 
-4.752487487961e+01 -1.463194489703e+01 0.0 
-1.463194489703e+01 -1.426909342560e+02 0.0 
0.0 0.0 -5.666474274069e+01 
-2.857140373841e+01 -3.238685331330e+00 0.0 
-3.238685331330e+00 -7.423297033985e+01 0.0 
0.0 0.0 -3.044131222348e+01 
-3.911296643503e+01 -1.445911001402e+01 0.0 
-1.445911001402e+01 -8.394269814910e+01 0.0 
0.0 0.0 -3.564404097903e+01 
-3.475715339383e+01 -2.466435279843e+00 0.0 
-2.466435279843e+00 -9.085513573364e+01 0.0 
0.0 0.0 -3.728368673824e+01 
-4.341219008370e+01 -2.798877736486e+00 0.0 
-2.798877736486e+00 -1.112304563391e+02 0.0 
0.0 0.0 -4.599279392684e+01 
-1.288933701329e+02 8.007575509120e+00 0.0 
8.007575509120e+00 -3.364304574385e+02 0.0 
0.0 0.0 -1.391971482714e+02 
-1.037832574305e+02 3.343386597226e+01 0.0 
3.343386597226e+01 -2.625457522833e+02 0.0 
0.0 0.0 -1.094987029141e+02 
-9.862344203268e+01 3.357300897178e+01 0.0 
3.357300897178e+01 -2.456541101602e+02 0.0 
0.0 0.0 -1.028832656579e+02 
-4.309838551520e+01 2.807590663731e+01 0.0 
2.807590663731e+01 -9.517800732661e+01 0.0 
0.0 0.0 -4.108291785254e+01 
-4.479712522360e+01 2.841776976282e+01 0.0 
2.841776976282e+01 -9.554682292577e+01 0.0 
0.0 0.0 -4.170318444481e+01 
-1.153440474714e+02 2.388348967772e+01 0.0 
2.388348967772e+01 -3.130947428921e+02 0.0 
0.0 0.0 -1.281316371090e+02 
-6.499308554416e+01 1.363545024965e+01 0.0 
1.363545024965e+01 -7.759705874268e+01 0.0 
0.0 0.0 -4.237704328605e+01 
-5.700846456332e+01 5.507814659708e+00 0.0 
5.507814659708e+00 -7.238669183326e+01 0.0 
0.0 0.0 -3.841854691897e+01 
-5.102586856962e+01 3.459618081116e+00 0.0 
3.459618081116e+00 -6.213026090338e+01 0.0 
0.0 0.0 -3.354683884190e+01 
-2.518859780660e+01 -1.892174552787e+00 0.0 
-1.892174552787e+00 -6.913760698923e+01 0.0 
0.0 0.0 -2.789786143875e+01 
-3.943486199568e+01 -1.727442732799e+01 0.0 
-1.727442732799e+01 -7.991859730474e+01 0.0 
0.0 0.0 -3.387496212528e+01 
-7.821429059581e+01 1.265137776096e+01 0.0 
1.265137776096e+01 -1.366925874537e+02 0.0 
0.0 0.0 -6.407206341487e+01 
-3.678661015493e+01 2.307274235458e+01 0.0 
2.307274235458e+01 -1.308269291691e+02 0.0 
0.0 0.0 -4.988406179722e+01 
-3.700831612505e+01 2.582189473844e+01 0.0 
2.582189473844e+01 -1.132437135897e+02 0.0 
0.0 0.0 -4.467560891444e+01 
-2.770448376049e+01 1.053919918074e+01 0.0 
1.053919918074e+01 -1.239469804597e+02 0.0 
0.0 0.0 -4.684542451514e+01 
-2.803999108884e+01 4.302948593072e-02 0.0 
4.302948593072e-02 -1.238523522962e+02 0.0 
0.0 0.0 -4.743250343056e+01 
-6.178184108715e+01 2.398058681776e+00 0.0 
2.398058681776e+00 -1.066753637734e+02 0.0 
0.0 0.0 -5.013716145818e+01 
-6.819956769818e+01 3.231514681368e+00 0.0 
3.231514681368e+00 -1.272268970583e+02 0.0 
0.0 0.0 -5.822793942696e+01 
-8.444747850196e+01 -3.232150697210e+00 0.0 
-3.232150697210e+00 -2.166967977646e+02 0.0 
0.0 0.0 -8.994328287996e+01 
-8.851054041761e+01 -2.356154168305e+00 0.0 
-2.356154168305e+00 -2.248960623161e+02 0.0 
0.0 0.0 -9.362198082011e+01 
-1.226459586641e+02 8.710876932823e+00 0.0 
8.710876932823e+00 -3.279040553525e+02 0.0 
0.0 0.0 -1.347650042050e+02 
-3.959074270490e+01 -1.249094071237e+01 0.0 
-1.249094071237e+01 -9.067520237760e+01 0.0 
0.0 0.0 -3.849209144428e+01 
-7.176940408207e+01 4.714916319059e+00 0.0 
4.714916319059e+00 -1.373574186045e+02 0.0 
0.0 0.0 -6.233804680598e+01 
-9.926475114607e+01 8.371269770504e+00 0.0 
8.371269770504e+00 -2.917986211514e+02 0.0 
0.0 0.0 -1.169190116892e+02 
-8.962107506767e+01 6.465453717572e+00 0.0 
6.465453717572e+00 -2.744709341475e+02 0.0 
0.0 0.0 -1.088276027645e+02 
-7.621382466986e+01 -2.556275117519e+00 0.0 
-2.556275117519e+00 -1.926908905302e+02 0.0 
0.0 0.0 -8.027141456002e+01 
-3.567729623607e+01 2.718069901617e+01 0.0 
2.718069901617e+01 -9.762801394227e+01 0.0 
0.0 0.0 -3.905755630699e+01 
-3.494305275163e+01 2.653403144730e+01 0.0 
2.653403144730e+01 -1.007582211071e+02 0.0 
0.0 0.0 -4.004561624390e+01 
-4.816566768418e+01 -1.343393001344e+01 0.0 
-1.343393001344e+01 -1.571742833856e+02 0.0 
0.0 0.0 -6.120198532093e+01 
-4.427969854221e+01 -1.314269750579e+01 0.0 
-1.314269750579e+01 -1.123805998558e+02 0.0 
0.0 0.0 -4.659808951941e+01 
-3.820105118474e+01 -1.911398973569e+00 0.0 
-1.911398973569e+00 -9.944607419219e+01 0.0 
0.0 0.0 -4.089413761308e+01 
-1.338152821797e+02 1.028817421282e+01 0.0 
1.028817421282e+01 -3.457312093986e+02 0.0 
0.0 0.0 -1.434639474735e+02 
-8.240396500405e+01 1.562258826160e+01 0.0 
1.562258826160e+01 -1.487624755616e+02 0.0 
0.0 0.0 -6.894993216969e+01 
-1.010901881750e+02 2.918344206242e+01 0.0 
2.918344206242e+01 -2.737946538317e+02 0.0 
0.0 0.0 -1.120654526020e+02 
-9.156174907397e+01 2.809384185580e+01 0.0 
2.809384185580e+01 -2.557967560518e+02 0.0 
0.0 0.0 -1.038075515377e+02 
-1.112534123502e+02 3.052675755378e+01 0.0 
3.052675755378e+01 -2.919007180576e+02 0.0 
0.0 0.0 -1.205462391224e+02 
-3.437755045826e+01 -1.055793886319e+01 0.0 
-1.055793886319e+01 -6.873029602617e+01 0.0 
0.0 0.0 -2.993333053969e+01 
-1.350909475725e+02 7.333034362093e+00 0.0 
7.333034362093e+00 -3.449170031541e+02 0.0 
0.0 0.0 -1.436023852180e+02 
-1.271213265895e+02 1.908719886419e-01 0.0 
1.908719886419e-01 -3.111370246650e+02 0.0 
0.0 0.0 -1.310775053764e+02 
-1.070653107207e+02 3.493593933652e+01 0.0 
3.493593933652e+01 -2.635611718635e+02 0.0 
0.0 0.0 -1.107879447753e+02 
-1.021339181082e+02 3.481189916644e+01 0.0 
3.481189916644e+01 -2.472965069293e+02 0.0 
0.0 0.0 -1.044291275113e+02 
-3.931464839124e+01 2.449651409123e+01 0.0 
2.449651409123e+01 -1.304449300439e+02 0.0 
0.0 0.0 -5.052787353055e+01 
-3.907260033447e+01 2.645707235334e+01 0.0 
2.645707235334e+01 -1.128511214335e+02 0.0 
0.0 0.0 -4.517711653039e+01 
-3.757103060299e+01 2.747231479783e+01 0.0 
2.747231479783e+01 -9.467808406876e+01 0.0 
0.0 0.0 -3.927473440153e+01 
-3.890046956360e+01 2.749871907691e+01 0.0 
2.749871907691e+01 -9.439780758225e+01 0.0 
0.0 0.0 -3.958948314375e+01 
-6.292078153692e+01 2.797180940777e+01 0.0 
2.797180940777e+01 -9.685087466048e+01 0.0 
0.0 0.0 -4.753149685922e+01 
-4.181843326128e+01 2.562092959721e+01 0.0 
2.562092959721e+01 -1.306309265351e+02 0.0 
0.0 0.0 -5.133480793892e+01 
-6.024470289120e+01 3.033807354449e+01 0.0 
3.033807354449e+01 -1.151189498047e+02 0.0 
0.0 0.0 -5.220909580877e+01 
-5.655624258216e+01 2.932954270397e+01 0.0 
2.932954270397e+01 -9.551356337504e+01 0.0 
0.0 0.0 -4.522094178716e+01 
-5.361506912519e+01 2.945179842254e+01 0.0 
2.945179842254e+01 -9.545859424604e+01 0.0 
0.0 0.0 -4.432209901137e+01 
-4.938474373462e+01 2.909486813203e+01 0.0 
2.909486813203e+01 -1.145551712925e+02 0.0 
0.0 0.0 -4.878197450815e+01 
-4.664343908327e+01 2.875329980899e+01 0.0 
2.875329980899e+01 -9.556568836431e+01 0.0 
0.0 0.0 -4.226273823428e+01 
-4.143638439142e+01 1.835819864298e+01 0.0 
1.835819864298e+01 -1.625160184055e+02 0.0 
0.0 0.0 -6.078572083907e+01 
-7.174659267200e+01 1.620220763905e+01 0.0 
1.620220763905e+01 -2.398957397564e+02 0.0 
0.0 0.0 -9.309269972852e+01 
-8.030416674125e+01 -4.172079404718e+00 0.0 
-4.172079404718e+00 -2.087258736048e+02 0.0 
0.0 0.0 -8.630901210381e+01 
-1.002157173906e+02 -1.970952508824e+00 0.0 
-1.970952508824e+00 -2.599580781893e+02 0.0 
0.0 0.0 -1.076521386740e+02 
-8.637343956362e+01 -1.564403659678e+00 0.0 
-1.564403659678e+00 -2.534879092625e+02 0.0 
0.0 0.0 -1.015584046478e+02 
-7.529021188263e+01 9.485963571747e+00 0.0 
9.485963571747e+00 -1.354955889035e+02 0.0 
0.0 0.0 -6.283574023583e+01 
-7.687996847213e+01 9.009295761136e+00 0.0 
9.009295761136e+00 -1.463438410310e+02 0.0 
0.0 0.0 -6.656714285093e+01 
-4.907188997298e+01 2.296057947294e+00 0.0 
2.296057947294e+00 -6.344061136025e+01 0.0 
0.0 0.0 -3.335375039997e+01 
-4.425225511785e+01 1.376749909327e+00 0.0 
1.376749909327e+00 -5.412128624157e+01 0.0 
0.0 0.0 -2.911206240783e+01 
-3.153039023306e+01 -5.231828069499e+00 0.0 
-5.231828069499e+00 -7.710882815262e+01 0.0 
0.0 0.0 -3.219176551570e+01 
-2.939199482446e+01 -5.789871470295e+00 0.0 
-5.789871470295e+00 -6.889652873513e+01 0.0 
0.0 0.0 -2.908446210197e+01 
-8.584946537345e+01 -4.057666505851e+00 0.0 
-4.057666505851e+00 -2.375562217742e+02 0.0 
0.0 0.0 -9.662170614430e+01 
-1.300910210461e+02 5.414346254241e+00 0.0 
5.414346254241e+00 -3.345573025946e+02 0.0 
0.0 0.0 -1.389944970922e+02 
-8.545385955005e+01 1.971530223815e+01 0.0 
1.971530223815e+01 -1.530689912832e+02 0.0 
0.0 0.0 -7.115685524998e+01 
-8.938124147245e+01 2.308901145552e+01 0.0 
2.308901145552e+01 -1.677920938130e+02 0.0 
0.0 0.0 -7.675200058564e+01 
-8.855096207270e+01 2.422656173258e+01 0.0 
2.422656173258e+01 -1.610574716469e+02 0.0 
0.0 0.0 -7.448253011588e+01 
-1.273049526876e+02 1.117806903416e+01 0.0 
1.117806903416e+01 -3.366595826372e+02 0.0 
0.0 0.0 -1.387893605975e+02 
-4.369123933759e+01 6.724452568874e+00 0.0 
6.724452568874e+00 -1.838042884204e+02 0.0 
0.0 0.0 -6.784865832741e+01 
-7.830426481983e+01 9.155509988389e+00 0.0 
9.155509988389e+00 -2.561723378627e+02 0.0 
0.0 0.0 -9.994298080475e+01 
-2.827341141206e+01 -1.080399378380e+01 0.0 
-1.080399378380e+01 -1.245990606572e+02 0.0 
0.0 0.0 -4.711579234382e+01 
-7.465407968786e+01 2.672939731636e+01 0.0 
2.672939731636e+01 -2.202923754125e+02 0.0 
0.0 0.0 -8.808393653010e+01 
-2.294115629980e+01 -3.808839535225e+00 0.0 
-3.808839535225e+00 -5.670896490291e+01 0.0 
0.0 0.0 -2.349503636081e+01 
-8.519677964215e+01 3.302947622658e+01 0.0 
3.302947622658e+01 -1.928808696108e+02 0.0 
0.0 0.0 -8.302329477588e+01 
-1.363967790872e+02 5.469530559572e-01 0.0 
5.469530559572e-01 -3.304956118715e+02 0.0 
0.0 0.0 -1.396677172876e+02 
-1.412353106488e+02 1.006746895994e+00 0.0 
1.006746895994e+00 -3.413240285651e+02 0.0 
0.0 0.0 -1.443678017642e+02 
-1.200815545867e+02 2.658431017316e+01 0.0 
2.658431017316e+01 -3.174264419336e+02 0.0 
0.0 0.0 -1.308523989561e+02 
-5.263288536302e+01 2.480954500807e+01 0.0 
2.480954500807e+01 -5.636392721123e+01 0.0 
0.0 0.0 -3.229904377228e+01 
-7.876378668062e+01 2.539156689348e+01 0.0 
2.539156689348e+01 -2.355811643175e+02 0.0 
0.0 0.0 -9.390348529944e+01 
-7.482300785012e+01 2.325637964906e+01 0.0 
2.325637964906e+01 -2.330366916414e+02 0.0 
0.0 0.0 -9.195790984745e+01 
-4.978188519373e+01 2.823781863973e+01 0.0 
2.823781863973e+01 -7.580024697241e+01 0.0 
0.0 0.0 -3.727463964984e+01 
-4.733931776387e+01 2.824123974145e+01 0.0 
2.824123974145e+01 -7.585050725174e+01 0.0 
0.0 0.0 -3.655694750468e+01 
-5.097681188738e+01 2.930545622022e+01 0.0 
2.930545622022e+01 -9.541909783748e+01 0.0 
0.0 0.0 -4.351877291746e+01 
-4.542349999437e+01 2.812359819046e+01 0.0 
2.812359819046e+01 -7.607040872118e+01 0.0 
0.0 0.0 -3.604817261467e+01 
-5.235002113306e+01 -1.252578946335e+01 0.0 
-1.252578946335e+01 -1.618539632781e+02 0.0 
0.0 0.0 -6.386119532334e+01 
-5.104429010957e+01 -1.308315522898e+01 0.0 
-1.308315522898e+01 -1.476629603083e+02 0.0 
0.0 0.0 -5.921217512537e+01 
-1.138026670854e+02 3.530968101694e+01 0.0 
3.530968101694e+01 -2.821746459326e+02 0.0 
0.0 0.0 -1.183931939054e+02 
-1.150404674468e+02 3.273418841762e+01 0.0 
3.273418841762e+01 -2.942460460797e+02 0.0 
0.0 0.0 -1.223859540580e+02 
-1.103761114384e+02 3.658333809381e+01 0.0 
3.658333809381e+01 -2.657503067048e+02 0.0 
0.0 0.0 -1.124379254429e+02 
-1.056515566019e+02 3.611516639005e+01 0.0 
3.611516639005e+01 -2.494839486802e+02 0.0 
0.0 0.0 -1.061406515846e+02 
-1.269537939688e+02 2.549455632201e+01 0.0 
2.549455632201e+01 -3.304565663849e+02 0.0 
0.0 0.0 -1.368231081061e+02 
-1.217628780443e+02 2.266358034414e+01 0.0 
2.266358034414e+01 -3.253137676490e+02 0.0 
0.0 0.0 -1.337229937080e+02 
-4.651017670866e+01 -2.073152263465e+00 0.0 
-2.073152263465e+00 -1.192187145270e+02 0.0 
0.0 0.0 -4.931866737070e+01 
-4.241393534487e+01 2.776509657509e+01 0.0 
2.776509657509e+01 -7.648192350580e+01 0.0 
0.0 0.0 -3.526875765520e+01 
-8.339194844066e+01 1.482022510040e+01 0.0 
1.482022510040e+01 -1.583466825665e+02 0.0 
0.0 0.0 -7.212158930216e+01 
-5.268400905276e+01 2.791263526978e+01 0.0 
2.791263526978e+01 -7.563510592342e+01 0.0 
0.0 0.0 -3.809573449286e+01 
-1.408510448715e+02 6.632365962222e+00 0.0 
6.632365962222e+00 -3.525253406932e+02 0.0 
0.0 0.0 -1.476129156694e+02 
-1.358389844384e+02 4.978454647402e+00 0.0 
4.978454647402e+00 -3.424719185515e+02 0.0 
0.0 0.0 -1.430932708970e+02 
-3.402629143623e+01 -1.116138803825e+01 0.0 
-1.116138803825e+01 -1.195326922447e+02 0.0 
0.0 0.0 -4.792233560734e+01 
-3.349036127969e+01 -2.172288784584e+01 0.0 
-2.172288784584e+01 -1.099357796972e+02 0.0 
0.0 0.0 -4.380790713619e+01 
-7.421456279543e+01 4.088029714055e+00 0.0 
4.088029714055e+00 -1.483818622630e+02 0.0 
0.0 0.0 -6.637892751753e+01 
-3.812754891386e+01 2.800981605284e+01 0.0 
2.800981605284e+01 -7.548702931462e+01 0.0 
0.0 0.0 -3.368437346854e+01 
-3.854100370281e+01 2.762486510763e+01 0.0 
2.762486510763e+01 -7.495980039352e+01 0.0 
0.0 0.0 -3.365024122890e+01 
-3.779759305326e+01 2.838996832800e+01 0.0 
2.838996832800e+01 -7.618555522297e+01 0.0 
0.0 0.0 -3.349417027014e+01 
-1.558138440807e+02 3.123046254766e-01 0.0 
3.123046254766e-01 -3.693126062603e+02 0.0 
0.0 0.0 -1.571379351023e+02 
-2.625253986843e+01 1.379049123911e-01 0.0 
1.379049123911e-01 -1.585434371399e+01 0.0 
0.0 0.0 -1.223206507472e+01 
-1.458634769399e+02 8.268614442476e-01 0.0 
8.268614442476e-01 -3.497170610646e+02 0.0 
0.0 0.0 -1.482741614014e+02 
-5.180409041497e+01 2.957634876180e+01 0.0 
2.957634876180e+01 -1.146721869596e+02 0.0 
0.0 0.0 -4.954288321236e+01 
-7.759503461599e+01 5.718577149478e+00 0.0 
5.718577149478e+00 -1.587562665877e+02 0.0 
0.0 0.0 -7.050539036109e+01 
-8.333058786425e+01 2.396628518526e+01 0.0 
2.396628518526e+01 -2.502596337192e+02 0.0 
0.0 0.0 -9.967706647504e+01 
-4.880814825453e+01 2.629696625420e+01 0.0 
2.629696625420e+01 -1.496367621385e+02 0.0 
0.0 0.0 -5.913347311790e+01 
-1.162567374172e+02 9.483863459023e+00 0.0 
9.483863459023e+00 -3.190227641845e+02 0.0 
0.0 0.0 -1.301838504805e+02 
-7.061837775107e+01 2.640259697491e+00 0.0 
2.640259697491e+00 -1.371230699851e+02 0.0 
0.0 0.0 -6.192243432084e+01 
-7.667303827478e+01 3.219907167514e+00 0.0 
3.219907167514e+00 -1.599555958133e+02 0.0 
0.0 0.0 -7.058859022643e+01 
-4.763090418944e+01 3.215546054878e+00 0.0 
3.215546054878e+00 -5.153127178704e+01 0.0 
0.0 0.0 -2.934865279295e+01 
-4.131761169360e+01 1.788229638926e+00 0.0 
1.788229638926e+00 -4.127547377842e+01 0.0 
0.0 0.0 -2.437792564161e+01 
-5.387267418253e+01 5.473396875796e+00 0.0 
5.473396875796e+00 -6.139589031098e+01 0.0 
0.0 0.0 -3.418056934805e+01 
-2.902866038549e+01 1.711459727765e+01 0.0 
1.711459727765e+01 -1.216575859199e+02 0.0 
0.0 0.0 -4.574631050845e+01 
-3.180284301313e+01 2.277343928968e+01 0.0 
2.277343928968e+01 -1.081946553875e+02 0.0 
0.0 0.0 -4.300216074629e+01 
-7.306938171760e+01 6.897563200619e+00 0.0 
6.897563200619e+00 -1.359669885795e+02 0.0 
0.0 0.0 -6.231091108913e+01 
-5.646518891547e+01 -3.844427537087e+00 0.0 
-3.844427537087e+00 -1.437776967325e+02 0.0 
0.0 0.0 -5.967286569440e+01 
-6.064449936153e+01 -2.975215072525e+00 0.0 
-2.975215072525e+00 -1.543390410190e+02 0.0 
0.0 0.0 -6.409506211415e+01 
-4.065806101389e+01 -1.083494907426e+01 0.0 
-1.083494907426e+01 -9.705483772856e+01 0.0 
0.0 0.0 -4.090579102082e+01 
-4.627462444146e+01 -1.128710480803e+01 0.0 
-1.128710480803e+01 -1.182949582372e+02 0.0 
0.0 0.0 -4.897087480359e+01 
-8.827514825336e+01 -3.287696370244e+00 0.0 
-3.287696370244e+00 -2.286526480678e+02 0.0 
0.0 0.0 -9.467833889635e+01 
-8.395660584118e+01 -4.185729725303e+00 0.0 
-4.185729725303e+00 -2.208960337228e+02 0.0 
0.0 0.0 -9.105579186921e+01 
-8.940388725722e+01 3.338328596725e+01 0.0 
3.338328596725e+01 -2.109194185461e+02 0.0 
0.0 0.0 -8.969699174099e+01 
-9.273432197699e+01 3.403949751951e+01 0.0 
3.403949751951e+01 -2.124457481582e+02 0.0 
0.0 0.0 -9.115402104056e+01 
-8.213979558199e+01 3.167178577678e+01 0.0 
3.167178577678e+01 -2.081799189746e+02 0.0 
0.0 0.0 -8.669591436698e+01 
-9.558992728541e+01 5.595521656540e+00 0.0 
5.595521656540e+00 -2.831249969335e+02 0.0 
0.0 0.0 -1.132144772657e+02 
-8.633807051369e+01 3.577352191752e+00 0.0 
3.577352191752e+00 -2.656502017137e+02 0.0 
0.0 0.0 -1.051964816682e+02 
-8.061729854196e+01 4.532029001145e+00 0.0 
4.532029001145e+00 -2.574212625126e+02 0.0 
0.0 0.0 -1.010115683164e+02 
-8.017256246123e+01 1.130415856271e+01 0.0 
1.130415856271e+01 -1.564101881546e+02 0.0 
0.0 0.0 -7.057482518476e+01 
-8.218370265972e+01 1.061621519294e+01 0.0 
1.061621519294e+01 -1.697539343812e+02 0.0 
0.0 0.0 -7.518129111226e+01 
-5.331396476044e+01 -1.091238260394e+01 0.0 
-1.091238260394e+01 -1.752192044830e+02 0.0 
0.0 0.0 -6.815995077302e+01 
-4.864892369527e+01 -1.100255829354e+01 0.0 
-1.100255829354e+01 -1.704482469604e+02 0.0 
0.0 0.0 -6.532915119670e+01 
-5.634255301055e+01 -1.136988530294e+01 0.0 
-1.136988530294e+01 -1.670089393277e+02 0.0 
0.0 0.0 -6.660544770146e+01 
-8.701584924829e+01 1.781622567109e+01 0.0 
1.781622567109e+01 -1.706970600367e+02 0.0 
0.0 0.0 -7.691387278550e+01 
-1.505934432636e+02 1.266581967178e+00 0.0 
1.266581967178e+00 -3.601186865340e+02 0.0 
0.0 0.0 -1.528136389393e+02 
-1.460755144855e+02 1.628990730313e+00 0.0 
1.628990730313e+00 -3.520280427146e+02 0.0 
0.0 0.0 -1.490310671600e+02 
-2.059810745117e+01 -3.866683849423e+00 0.0 
-3.866683849423e+00 -4.857666517152e+01 0.0 
0.0 0.0 -2.035033682090e+01 
-2.753017509540e+01 -6.166271293735e+00 0.0 
-6.166271293735e+00 -6.062130832950e+01 0.0 
0.0 0.0 -2.594990803813e+01 
-3.804717787547e+01 2.926637143802e+01 0.0 
2.926637143802e+01 -7.990531053790e+01 0.0 
0.0 0.0 -3.399569089014e+01 
-3.728591558918e+01 2.993515362574e+01 0.0 
2.993515362574e+01 -8.414913344110e+01 0.0 
0.0 0.0 -3.592524328182e+01 
-9.280770823465e+01 2.627944995088e+01 0.0 
2.627944995088e+01 -1.827833934360e+02 0.0 
0.0 0.0 -8.227733050120e+01 
-9.248571722905e+01 2.743295065452e+01 0.0 
2.743295065452e+01 -1.775430705022e+02 0.0 
0.0 0.0 -8.060863631938e+01 
-9.377649599550e+01 2.547882920440e+01 0.0 
2.547882920440e+01 -1.915199463852e+02 0.0 
0.0 0.0 -8.518893271421e+01 
-4.089284688361e+01 -1.337656139725e+00 0.0 
-1.337656139725e+00 -1.062112580718e+02 0.0 
0.0 0.0 -4.373123148663e+01 
-9.677409499058e+01 2.707033220970e+01 0.0 
2.707033220970e+01 -2.708199341960e+02 0.0 
0.0 0.0 -1.098782087560e+02 
-1.385325031206e+02 1.275752476005e+01 0.0 
1.275752476005e+01 -3.534594507004e+02 0.0 
0.0 0.0 -1.471975861463e+02 
-1.316082451160e+02 1.379298639681e+01 0.0 
1.379298639681e+01 -3.440719062527e+02 0.0 
0.0 0.0 -1.423040454106e+02 
-1.465142316763e+02 1.185744500440e+01 0.0 
1.185744500440e+01 -3.647147867051e+02 0.0 
0.0 0.0 -1.529687055144e+02 
-1.134291653469e+02 2.758961506433e+01 0.0 
2.758961506433e+01 -3.036587658833e+02 0.0 
0.0 0.0 -1.247263793690e+02 
-1.245724773603e+02 2.905605993647e+01 0.0 
2.905605993647e+01 -3.209700038755e+02 0.0 
0.0 0.0 -1.332627443707e+02 
-1.219913211098e+02 3.212418298212e+01 0.0 
3.212418298212e+01 -3.095446032249e+02 0.0 
0.0 0.0 -1.290607773004e+02 
-4.070591387764e+01 7.403796024806e-01 0.0 
7.403796024806e-01 -1.213664433320e+02 0.0 
0.0 0.0 -5.045896677268e+01 
-7.430784941287e+01 2.101633946683e+00 0.0 
2.101633946683e+00 -1.524296882960e+02 0.0 
0.0 0.0 -6.762126131267e+01 
-3.984058094170e+01 1.068942233662e+00 0.0 
1.068942233662e+00 -4.245421279901e+01 0.0 
0.0 0.0 -2.428843812221e+01 
-5.119824331369e+01 -7.359655959160e+00 0.0 
-7.359655959160e+00 -1.167406041188e+02 0.0 
0.0 0.0 -5.182395276363e+01 
-3.509992809169e+01 5.098273636926e-01 0.0 
5.098273636926e-01 -3.351912297462e+01 0.0 
0.0 0.0 -2.018571531989e+01 
-3.953087792020e+01 7.690744152117e-01 0.0 
7.690744152117e-01 -4.486633853320e+01 0.0 
0.0 0.0 -2.491916493602e+01 
-3.017531604391e+01 2.275527849931e-01 0.0 
2.275527849931e-01 -2.349671371285e+01 0.0 
0.0 0.0 -1.570160892703e+01 
-3.220751355344e+01 -1.187038475349e+00 0.0 
-1.187038475349e+00 -8.644416491063e+01 0.0 
0.0 0.0 -3.519550353922e+01 
-4.206214561654e+01 2.790816652895e+00 0.0 
2.790816652895e+00 -3.727811360582e+01 0.0 
0.0 0.0 -2.340207776671e+01 
-5.088112432890e+01 5.834094758348e+00 0.0 
5.834094758348e+00 -5.102286433810e+01 0.0 
0.0 0.0 -3.017119660010e+01 
-1.704852405398e+01 -3.456820064998e+00 0.0 
-3.456820064998e+00 -3.697504210025e+01 0.0 
0.0 0.0 -1.584307560727e+01 
-8.695480433816e+01 1.659875391415e+01 0.0 
1.659875391415e+01 -1.796350145742e+02 0.0 
0.0 0.0 -7.957694567370e+01 
-1.398553214209e+01 -2.240120189662e+00 0.0 
-2.240120189662e+00 -3.778587684645e+01 0.0 
0.0 0.0 -1.513142269656e+01 
-1.669101452234e+01 -2.342620528263e+00 0.0 
-2.342620528263e+00 -4.570665930990e+01 0.0 
0.0 0.0 -1.831930214967e+01 
-1.464964395794e+02 5.957700694252e+00 0.0 
5.957700694252e+00 -3.606427723627e+02 0.0 
0.0 0.0 -1.517417635826e+02 
-1.412793935585e+02 4.514219251858e+00 0.0 
4.514219251858e+00 -3.502118211336e+02 0.0 
0.0 0.0 -1.470473644076e+02 
-1.515428384725e+02 5.328725578384e+00 0.0 
5.328725578384e+00 -3.679485684945e+02 0.0 
0.0 0.0 -1.554474220901e+02 
-1.462470237671e+02 4.019818709762e+00 0.0 
4.019818709762e+00 -3.573768319471e+02 0.0 
0.0 0.0 -1.506871567143e+02 
-1.363769096816e+02 3.247220096721e+00 0.0 
3.247220096721e+00 -3.394902312565e+02 0.0 
0.0 0.0 -1.423601422814e+02 
-1.416645541249e+02 2.962328661518e+00 0.0 
2.962328661518e+00 -3.475581781727e+02 0.0 
0.0 0.0 -1.463668196893e+02 
-3.525929049869e+01 8.268744883197e-01 0.0 
8.268744883197e-01 -3.130583596772e+01 0.0 
0.0 0.0 -1.956953793992e+01 
-1.528833566532e+02 3.704031683704e+00 0.0 
3.704031683704e+00 -3.680614127385e+02 0.0 
0.0 0.0 -1.558834308175e+02 
-1.469666772121e+02 2.643532251521e+00 0.0 
2.643532251521e+00 -3.558843049657e+02 0.0 
0.0 0.0 -1.504552946533e+02 
-1.577897199715e+02 3.125940246873e+00 0.0 
3.125940246873e+00 -3.764890232802e+02 0.0 
0.0 0.0 -1.598836229755e+02 
-4.172886915078e+01 2.658598083955e+01 0.0 
2.658598083955e+01 -5.613843202057e+01 0.0 
0.0 0.0 -2.896019035141e+01 
-4.013715551845e+01 2.769981320598e+01 0.0 
2.769981320598e+01 -9.414269618049e+01 0.0 
0.0 0.0 -3.988395550968e+01 
-3.905230347979e+01 2.738177313277e+01 0.0 
2.738177313277e+01 -7.484799731994e+01 0.0 
0.0 0.0 -3.377009023992e+01 
-3.793487261371e+01 2.684868908484e+01 0.0 
2.684868908484e+01 -5.399512717544e+01 0.0 
0.0 0.0 -2.717899993675e+01 
-1.147171152736e+02 3.842773437577e+01 0.0 
3.842773437577e+01 -2.707621008157e+02 0.0 
0.0 0.0 -1.152437648268e+02 
-1.079011961848e+02 3.701058160141e+01 0.0 
3.701058160141e+01 -2.503928377262e+02 0.0 
0.0 0.0 -1.070882101733e+02 
-1.317373752933e+02 2.222938226619e-01 0.0 
2.222938226619e-01 -3.200478975230e+02 0.0 
0.0 0.0 -1.351355818449e+02 
-1.225802822356e+02 -5.743670604796e-02 0.0 
-5.743670604796e-02 -3.004305499098e+02 0.0 
0.0 0.0 -1.265032496436e+02 
-3.456996157070e+01 3.253436524355e-01 0.0 
3.253436524355e-01 -3.463664137298e+01 0.0 
0.0 0.0 -2.036198088311e+01 
-3.375272833969e+01 2.705977555314e-01 0.0 
2.705977555314e-01 -3.358872605765e+01 0.0 
0.0 0.0 -1.980243631920e+01 
-4.124694463495e+01 4.927984876202e-01 0.0 
4.927984876202e-01 -5.147125020625e+01 0.0 
0.0 0.0 -2.741545845236e+01 
-3.986168471556e+01 4.425664582804e-01 0.0 
4.425664582804e-01 -4.901041982022e+01 0.0 
0.0 0.0 -2.626163136073e+01 
-4.706384613851e+01 7.287760643461e-01 0.0 
7.287760643461e-01 -6.709479284678e+01 0.0 
0.0 0.0 -3.384759169559e+01 
-4.573803878956e+01 5.788280758024e-01 0.0 
5.788280758024e-01 -6.434660259902e+01 0.0 
0.0 0.0 -3.262539241657e+01 
-5.285460132732e+01 1.149473360268e+00 0.0 
1.149473360268e+00 -8.291580591439e+01 0.0 
0.0 0.0 -4.033112217251e+01 
-1.258100524047e+02 3.488185252316e+01 0.0 
3.488185252316e+01 -3.117254914155e+02 0.0 
0.0 0.0 -1.308606631461e+02 
-3.872134687545e+01 2.820279608926e+01 0.0 
2.820279608926e+01 -5.647503545390e+01 0.0 
0.0 0.0 -2.782422505232e+01 
-4.560000868483e+01 2.663317586875e+01 0.0 
2.663317586875e+01 -5.568874813871e+01 0.0 
0.0 0.0 -2.998662704706e+01 
-1.337441704273e+02 2.426435908468e+01 0.0 
2.426435908468e+01 -3.425387081744e+02 0.0 
0.0 0.0 -1.424848635805e+02 
-1.275640997085e+02 2.130422121687e+01 0.0 
2.130422121687e+01 -3.356060856355e+02 0.0 
0.0 0.0 -1.385510556032e+02 
-4.368786281254e+01 2.788090685169e+01 0.0 
2.788090685169e+01 -7.615679375634e+01 0.0 
0.0 0.0 -3.555339697066e+01 
-3.962437031436e+01 2.640649940366e+01 0.0 
2.640649940366e+01 -5.653800719224e+01 0.0 
0.0 0.0 -2.844871325198e+01 
-1.476738185348e+02 8.519116820562e+00 0.0 
8.519116820562e+00 -3.648998939582e+02 0.0 
0.0 0.0 -1.533721137479e+02 
-4.289295545961e+01 2.356002616616e+01 0.0 
2.356002616616e+01 -1.475245452372e+02 0.0 
0.0 0.0 -5.672525020904e+01 
-9.046517007443e+01 2.009350664489e+01 0.0 
2.009350664489e+01 -1.954469216788e+02 0.0 
0.0 0.0 -8.537362752598e+01 
-5.855276399173e+01 2.501446758072e+01 0.0 
2.501446758072e+01 -8.661610261498e+01 0.0 
0.0 0.0 -4.435064384144e+01 
-4.200726077241e+01 2.380231755225e+01 0.0 
2.380231755225e+01 -1.020548444112e+02 0.0 
0.0 0.0 -4.459459204950e+01 
-4.577199458963e+01 2.501291152463e+01 0.0 
2.501291152463e+01 -1.483141944265e+02 0.0 
0.0 0.0 -5.782585670483e+01 
-4.873356480297e+01 2.907198621975e+01 0.0 
2.907198621975e+01 -9.550884734959e+01 0.0 
0.0 0.0 -4.287272364577e+01 
-4.150832015742e+01 2.778371912900e+01 0.0 
2.778371912900e+01 -9.425733368280e+01 0.0 
0.0 0.0 -4.032969615207e+01 
-4.030751360426e+01 2.762991353571e+01 0.0 
2.762991353571e+01 -7.601117073919e+01 0.0 
0.0 0.0 -3.449560530303e+01 
-1.055167613405e+02 7.577951088916e+00 0.0 
7.577951088916e+00 -3.009363134851e+02 0.0 
0.0 0.0 -1.215359224477e+02 
-2.670090005517e+01 -6.842164987130e+00 0.0 
-6.842164987130e+00 -5.335527634075e+01 0.0 
0.0 0.0 -2.329827610814e+01 
-3.809360588255e+01 2.879717189648e+01 0.0 
2.879717189648e+01 -7.771242897908e+01 0.0 
0.0 0.0 -3.340751366280e+01 
-5.435201021765e+01 1.501178705065e+00 0.0 
1.501178705065e+00 -8.523693372542e+01 0.0 
0.0 0.0 -4.147668318292e+01 
-4.039032285208e+01 2.972575159920e+01 0.0 
2.972575159920e+01 -5.901264065732e+01 0.0 
0.0 0.0 -2.794374589581e+01 
-1.275574570818e+02 3.251393663008e-02 0.0 
3.251393663008e-02 -3.105512408128e+02 0.0 
0.0 0.0 -1.310326093684e+02 
-4.457219379583e+01 2.090051864807e+01 0.0 
2.090051864807e+01 -1.637213922271e+02 0.0 
0.0 0.0 -6.208807580688e+01 
-5.475774200889e+01 2.964222571577e+01 0.0 
2.964222571577e+01 -1.334326609154e+02 0.0 
0.0 0.0 -5.605712087727e+01 
-3.641192302464e+01 2.743048557114e+01 0.0 
2.743048557114e+01 -9.571458946893e+01 0.0 
0.0 0.0 -3.905555376575e+01 
-4.114586923462e+01 2.706395327699e+01 0.0 
2.706395327699e+01 -1.132079135663e+02 0.0 
0.0 0.0 -4.590613484028e+01 
-6.676060148801e+01 2.963420836813e+01 0.0 
2.963420836813e+01 -1.165090025806e+02 0.0 
0.0 0.0 -5.458088122058e+01 
-5.896683730258e+01 2.577678387863e+01 0.0 
2.577678387863e+01 -7.703292965429e+01 0.0 
0.0 0.0 -4.039993008706e+01 
-5.604948849199e+01 2.706297035958e+01 0.0 
2.706297035958e+01 -7.611192699871e+01 0.0 
0.0 0.0 -3.924842464721e+01 
-4.675152563394e+01 1.779680683703e+01 0.0 
1.779680683703e+01 -1.784118864400e+02 0.0 
0.0 0.0 -6.714902362219e+01 
-4.108399917414e+01 2.758961803603e+01 0.0 
2.758961803603e+01 -7.615129685476e+01 0.0 
0.0 0.0 -3.477058880867e+01 
-3.813880165662e+01 2.647986314289e+01 0.0 
2.647986314289e+01 -5.426289764860e+01 0.0 
0.0 0.0 -2.732050979157e+01 
-6.379725939425e+01 3.097836902510e+01 0.0 
3.097836902510e+01 -1.343813913589e+02 0.0 
0.0 0.0 -5.905359522595e+01 
-8.724009311757e+01 2.537033260815e+01 0.0 
2.537033260815e+01 -1.551989988338e+02 0.0 
0.0 0.0 -7.233172758541e+01 
-9.100856326912e+01 2.827474355435e+01 0.0 
2.827474355435e+01 -1.721010920280e+02 0.0 
0.0 0.0 -7.853289658914e+01 
-9.597235930714e+01 3.022024524040e+01 0.0 
3.022024524040e+01 -1.935735401677e+02 0.0 
0.0 0.0 -8.646376984246e+01 
-9.493578448558e+01 3.092048696659e+01 0.0 
3.092048696659e+01 -1.894911671810e+02 0.0 
0.0 0.0 -8.492808549998e+01 
-8.927933804753e+01 2.922946036624e+01 0.0 
2.922946036624e+01 -1.677839329834e+02 0.0 
0.0 0.0 -7.671898130927e+01 
-9.319087719252e+01 3.155323869820e+01 0.0 
3.155323869820e+01 -1.856096949787e+02 0.0 
0.0 0.0 -8.324017165136e+01 
-9.872936914411e+01 3.320946408003e+01 0.0 
3.320946408003e+01 -2.067469146955e+02 0.0 
0.0 0.0 -9.124288515189e+01 
-9.748666981496e+01 3.361175147002e+01 0.0 
3.361175147002e+01 -2.042327449246e+02 0.0 
0.0 0.0 -9.011582442186e+01 
-1.043942845316e+02 3.601188481573e+01 0.0 
3.601188481573e+01 -2.284619062671e+02 0.0 
0.0 0.0 -9.945685723962e+01 
-1.017490564794e+02 3.548406525381e+01 0.0 
3.548406525381e+01 -2.223377697621e+02 0.0 
0.0 0.0 -9.682604787245e+01 
-9.478050651521e+01 3.363380890981e+01 0.0 
3.363380890981e+01 -2.005979277133e+02 0.0 
0.0 0.0 -8.821353026855e+01 
-9.881509199371e+01 3.496297494307e+01 0.0 
3.496297494307e+01 -2.180408114815e+02 0.0 
0.0 0.0 -9.465677104257e+01 
-1.056914979985e+02 3.691986315626e+01 0.0 
3.691986315626e+01 -2.380966756961e+02 0.0 
0.0 0.0 -1.027364521084e+02 
-9.180827527559e+01 3.359874204523e+01 0.0 
3.359874204523e+01 -1.972627068736e+02 0.0 
0.0 0.0 -8.632129464475e+01 
-1.393522512865e+02 2.713265695681e+01 0.0 
2.713265695681e+01 -3.474693635932e+02 0.0 
0.0 0.0 -1.456464844639e+02 
-5.087830160902e+01 2.462410615924e+01 0.0 
2.462410615924e+01 -1.661659941141e+02 0.0 
0.0 0.0 -6.471328871693e+01 
-3.311144814010e+01 1.241535616927e+01 0.0 
1.241535616927e+01 -1.177911035972e+02 0.0 
0.0 0.0 -4.720445849462e+01 
-3.816138942552e+01 3.139415122014e+01 0.0 
3.139415122014e+01 -9.029992756581e+01 0.0 
0.0 0.0 -3.929445417508e+01 
-5.759995964188e+01 3.023644725798e+01 0.0 
3.023644725798e+01 -1.337375666102e+02 0.0 
0.0 0.0 -5.700125787562e+01 
-1.080736236016e+02 3.781973394971e+01 0.0 
3.781973394971e+01 -2.444383675385e+02 0.0 
0.0 0.0 -1.053535973420e+02 
-1.022250343695e+02 3.358700342365e+01 0.0 
3.358700342365e+01 -2.264528400654e+02 0.0 
0.0 0.0 -9.820336233045e+01 
-3.715684972433e+01 1.942530184567e+01 0.0 
1.942530184567e+01 -1.469246149110e+02 0.0 
0.0 0.0 -5.482443939059e+01 
-1.246678650539e+02 4.099036556038e+01 0.0 
4.099036556038e+01 -2.941439600728e+02 0.0 
0.0 0.0 -1.252435475380e+02 
-5.982100389953e+01 2.882207051366e+01 0.0 
2.882207051366e+01 -9.596927264151e+01 0.0 
0.0 0.0 -4.633708296231e+01 
-2.943177428683e+01 1.403492464081e+01 0.0 
1.403492464081e+01 -1.332505584187e+02 0.0 
0.0 0.0 -4.883741750199e+01 
-1.312386495273e+02 3.946667091050e+01 0.0 
3.946667091050e+01 -3.134337552115e+02 0.0 
0.0 0.0 -1.330017214216e+02 
-8.543398968850e+01 2.657239072664e+01 0.0 
2.657239072664e+01 -1.500392647408e+02 0.0 
0.0 0.0 -7.024197632878e+01 
-8.307840365602e+01 2.777461946606e+01 0.0 
2.777461946606e+01 -1.454963872463e+02 0.0 
0.0 0.0 -6.817243727071e+01 
-7.919208078483e+01 2.503271961584e+01 0.0 
2.503271961584e+01 -1.275465488303e+02 0.0 
0.0 0.0 -6.162158888453e+01 
-9.748364825625e+01 2.890045497026e+01 0.0 
2.890045497026e+01 -2.139310155961e+02 0.0 
0.0 0.0 -9.302439915571e+01 
-6.041682283210e+01 8.556000766482e+00 0.0 
8.556000766482e+00 -7.300586529424e+01 0.0 
0.0 0.0 -3.962680643790e+01 
-1.429992772953e+02 3.301648193694e+01 0.0 
3.301648193694e+01 -3.459683574731e+02 0.0 
0.0 0.0 -1.462902904305e+02 
-8.045999926204e+01 1.721214623975e+01 0.0 
1.721214623975e+01 -2.566491514843e+02 0.0 
0.0 0.0 -1.007327452239e+02 
-7.550188654581e+01 1.905094095036e+01 0.0 
1.905094095036e+01 -2.438416644939e+02 0.0 
0.0 0.0 -9.540306531191e+01 
-6.726147745207e+01 1.832133259579e+01 0.0 
1.832133259579e+01 -2.270954439319e+02 0.0 
0.0 0.0 -8.790707641520e+01 
-9.078366986045e+01 3.196650975042e+01 0.0 
3.196650975042e+01 -1.820990291915e+02 0.0 
0.0 0.0 -8.146480971558e+01 
-1.511186436275e+02 2.320904870462e+01 0.0 
2.320904870462e+01 -3.677974961603e+02 0.0 
0.0 0.0 -1.552748419363e+02 
-1.410889664902e+02 2.045684060736e+01 0.0 
2.045684060736e+01 -3.559724310444e+02 0.0 
0.0 0.0 -1.487184192604e+02 
-1.428757332212e+02 1.832476390098e+01 0.0 
1.832476390098e+01 -3.592410628899e+02 0.0 
0.0 0.0 -1.502350388334e+02 
-1.307785379071e+02 1.774905510980e+01 0.0 
1.774905510980e+01 -3.423457105101e+02 0.0 
0.0 0.0 -1.415372745252e+02 
-1.545880994621e+02 1.837668919453e+01 0.0 
1.837668919453e+01 -3.750033375075e+02 0.0 
0.0 0.0 -1.584774310909e+02 
-1.151421965902e+02 4.045960065865e+01 0.0 
4.045960065865e+01 -2.654418649295e+02 0.0 
0.0 0.0 -1.137752184559e+02 
-1.185197980770e+02 4.113979712629e+01 0.0 
4.113979712629e+01 -2.757310496169e+02 0.0 
0.0 0.0 -1.178752543082e+02 
-4.377460483369e+01 -1.378220981132e+01 0.0 
-1.378220981132e+01 -1.532332992329e+02 0.0 
0.0 0.0 -5.870237121996e+01 
-4.390048346849e+01 -1.029483027434e+01 0.0 
-1.029483027434e+01 -1.661327744523e+02 0.0 
0.0 0.0 -6.260997737624e+01 
-4.937547878075e+01 -7.632988582914e+00 0.0 
-7.632988582914e+00 -1.822238838384e+02 0.0 
0.0 0.0 -6.907980878575e+01 
-4.452324551794e+01 -5.979012985637e+00 0.0 
-5.979012985637e+00 -1.769728020277e+02 0.0 
0.0 0.0 -6.604881426371e+01 
-3.915148719887e+01 -8.450941326856e+00 0.0 
-8.450941326856e+00 -1.619512485093e+02 0.0 
0.0 0.0 -5.993082071246e+01 
-3.990829265700e+01 -3.206698043651e+00 0.0 
-3.206698043651e+00 -1.712770777793e+02 0.0 
0.0 0.0 -6.295561113088e+01 
-4.576550602983e+01 -1.342537961840e+00 0.0 
-1.342537961840e+00 -1.857660080001e+02 0.0 
0.0 0.0 -6.905945420897e+01 
-3.582517373255e+01 8.570630623469e-01 0.0 
8.570630623469e-01 -1.646436333475e+02 0.0 
0.0 0.0 -5.974064212403e+01 
-1.004865415742e+02 3.536015910832e+01 0.0 
3.536015910832e+01 -2.318630853246e+02 0.0 
0.0 0.0 -9.930488806963e+01 
-1.575017885587e+02 1.395109976573e+01 0.0 
1.395109976573e+01 -3.800360123851e+02 0.0 
0.0 0.0 -1.608613402831e+02 
-9.500853461366e+01 4.998084060623e-01 0.0 
4.998084060623e-01 -2.718164285322e+02 0.0 
0.0 0.0 -1.096474889438e+02 
-8.919860951644e+01 5.821760097670e-01 0.0 
5.821760097670e-01 -2.640182626665e+02 0.0 
0.0 0.0 -1.055650616549e+02 
-8.078270369500e+01 -1.586581853571e+00 0.0 
-1.586581853571e+00 -2.460858074700e+02 0.0 
0.0 0.0 -9.766055334951e+01 
-7.622511984764e+01 -5.183015760064e+00 0.0 
-5.183015760064e+00 -2.009260110317e+02 0.0 
0.0 0.0 -8.274533926380e+01 
-7.962307865621e+01 -5.168468049836e+00 0.0 
-5.168468049836e+00 -2.132678155887e+02 0.0 
0.0 0.0 -8.746726827349e+01 
-8.741848143865e+01 -3.915019421336e+00 0.0 
-3.915019421336e+00 -2.329963120524e+02 0.0 
0.0 0.0 -9.572443804731e+01 
-7.255477828510e+01 -4.896203937513e+00 0.0 
-4.896203937513e+00 -1.885728862642e+02 0.0 
0.0 0.0 -7.793829936479e+01 
-8.684799545726e+01 2.903889575028e+01 0.0 
2.903889575028e+01 -2.401449668250e+02 0.0 
0.0 0.0 -9.769788868469e+01 
-1.584475389194e+02 1.206247381311e+01 0.0 
1.206247381311e+01 -3.813567695434e+02 0.0 
0.0 0.0 -1.615412925388e+02 
-8.385646868617e+01 7.657646091935e+00 0.0 
7.657646091935e+00 -2.655779161472e+02 0.0 
0.0 0.0 -1.044303154500e+02 
-7.525810619421e+01 -6.232725283700e+00 0.0 
-6.232725283700e+00 -2.057978503592e+02 0.0 
0.0 0.0 -8.391678696602e+01 
-3.665993397072e+01 3.872766057389e+00 0.0 
3.872766057389e+00 -1.910469775346e+01 0.0 
0.0 0.0 -1.632938951725e+01 
-5.004101751698e+01 9.421291462210e+00 0.0 
9.421291462210e+00 -4.020401092947e+01 0.0 
0.0 0.0 -2.667350853393e+01 
-5.477576685580e+01 1.449987221457e+01 0.0 
1.449987221457e+01 -4.618297941665e+01 0.0 
0.0 0.0 -2.988762388173e+01 
-6.156319707351e+01 1.515142181069e+01 0.0 
1.515142181069e+01 -6.600422255454e+01 0.0 
0.0 0.0 -3.787022588841e+01 
-4.720465261441e+01 6.349325104094e+00 0.0 
6.349325104094e+00 -3.933248936157e+01 0.0 
0.0 0.0 -2.556114259279e+01 
-9.252709282262e+01 -2.475652594816e+00 0.0 
-2.475652594816e+00 -2.365769451113e+02 0.0 
0.0 0.0 -9.833121138017e+01 
-9.671777541691e+01 -1.769993023556e+00 0.0 
-1.769993023556e+00 -2.446278717914e+02 0.0 
0.0 0.0 -1.020036941625e+02 
-9.257148990037e+01 -1.666238878108e+00 0.0 
-1.666238878108e+00 -2.332147688835e+02 0.0 
0.0 0.0 -9.733587763516e+01 
-1.008733888501e+02 -1.169414509199e+00 0.0 
-1.169414509199e+00 -2.527783975742e+02 0.0 
0.0 0.0 -1.056955359273e+02 
-9.640151585522e+01 -1.002720916561e+00 0.0 
-1.002720916561e+00 -2.410892788261e+02 0.0 
0.0 0.0 -1.008472384044e+02 
-8.879959924878e+01 -1.339579305574e+00 0.0 
-1.339579305574e+00 -2.228523039286e+02 0.0 
0.0 0.0 -9.309557095322e+01 
-1.048492768261e+02 -6.484474007838e-01 0.0 
-6.484474007838e-01 -2.606535189607e+02 0.0 
0.0 0.0 -1.092508387360e+02 
-9.958482376721e+01 -5.959305622067e-01 0.0 
-5.959305622067e-01 -2.478239660779e+02 0.0 
0.0 0.0 -1.038226369535e+02 
-3.106710038694e+01 1.184803790615e+00 0.0 
1.184803790615e+00 -1.740775561659e+01 0.0 
0.0 0.0 -1.414245680106e+01 
-4.366135800879e+01 -2.181101978070e+01 0.0 
-2.181101978070e+01 -4.790243375801e+01 0.0 
0.0 0.0 -2.781785545784e+01 
-4.008418668728e+01 -2.406396691466e+01 0.0 
-2.406396691466e+01 -5.722417725408e+01 0.0 
0.0 0.0 -2.887875184780e+01 
-3.379284261289e+01 -1.588794558374e+01 0.0 
-1.588794558374e+01 -4.288027151865e+01 0.0 
0.0 0.0 -2.201090133092e+01 
-3.943360722161e+01 -2.252919445149e+01 0.0 
-2.252919445149e+01 -7.024238630245e+01 0.0 
0.0 0.0 -3.177235552133e+01 
-3.789941820179e+01 -2.556581700059e+01 0.0 
-2.556581700059e+01 -8.780189532813e+01 0.0 
0.0 0.0 -3.745719887056e+01 
-3.876662286757e+01 -2.254652560125e+01 0.0 
-2.254652560125e+01 -9.822796438550e+01 0.0 
0.0 0.0 -4.001433901999e+01 
-3.508506755802e+01 -2.255272268995e+01 0.0 
-2.255272268995e+01 -1.092152936787e+02 0.0 
0.0 0.0 -4.309450585375e+01 
-4.145490454195e+01 -2.733452874567e+01 0.0 
-2.733452874567e+01 -8.421238657118e+01 0.0 
0.0 0.0 -3.828357276641e+01 
-2.036959204945e+01 -5.959187410513e+00 0.0 
-5.959187410513e+00 -1.965844031039e+01 0.0 
0.0 0.0 -1.171193460453e+01 
-2.726858031789e+01 -1.006476456600e+01 0.0 
-1.006476456600e+01 -3.781596115715e+01 0.0 
0.0 0.0 -1.848045059320e+01 
-1.401775268747e+01 -3.268004506379e+00 0.0 
-3.268004506379e+00 -1.770547916936e+01 0.0 
0.0 0.0 -8.999787997418e+00 
-2.174023058189e+01 -6.381689835102e+00 0.0 
-6.381689835102e+00 -3.503721514476e+01 0.0 
0.0 0.0 -1.633573688609e+01 
-3.321031679147e+01 -1.198232853683e+01 0.0 
-1.198232853683e+01 -5.828345249528e+01 0.0 
0.0 0.0 -2.580926408179e+01 
-3.549264040975e+01 -8.197255961146e+00 0.0 
-8.197255961146e+00 -8.233958175722e+01 0.0 
0.0 0.0 -3.493573560823e+01 
-1.608083547388e+02 1.510217038651e+00 0.0 
1.510217038651e+00 -3.803424531833e+02 0.0 
0.0 0.0 -1.619452423766e+02 
-7.624985755209e+01 -6.874896404242e-01 0.0 
-6.874896404242e-01 -1.915396575539e+02 0.0 
0.0 0.0 -7.993685453179e+01 
-7.214621920500e+01 -1.460070089939e+00 0.0 
-1.460070089939e+00 -1.819032028735e+02 0.0 
0.0 0.0 -7.581482662356e+01 
-6.434912645408e+01 -1.520094992143e+00 0.0 
-1.520094992143e+00 -1.622800227297e+02 0.0 
0.0 0.0 -6.758874475514e+01 
-6.849762641531e+01 -2.177885012677e+00 0.0 
-2.177885012677e+00 -1.731954932140e+02 0.0 
0.0 0.0 -7.210793588879e+01 
-7.932018866835e+01 -1.312013290338e+00 0.0 
-1.312013290338e+00 -1.996860166353e+02 0.0 
0.0 0.0 -8.330186159110e+01 
-5.993166649451e+01 -7.801259843547e-01 0.0 
-7.801259843547e-01 -1.513573069132e+02 0.0 
0.0 0.0 -6.298669202232e+01 
-5.697706963147e+01 -1.529755463142e+00 0.0 
-1.529755463142e+00 -1.442240069713e+02 0.0 
0.0 0.0 -5.996032298085e+01 
-1.463503504914e+00 -1.981322066912e-01 0.0 
-1.981322066912e-01 -1.723062315531e+01 0.0 
0.0 0.0 -4.704647048736e+00 
-7.235733936641e+00 -3.831003161136e-01 0.0 
-3.831003161136e-01 -3.375121391449e+01 0.0 
0.0 0.0 -1.181376050021e+01 
-6.511289399879e+00 -2.543269601340e-01 0.0 
-2.543269601340e-01 -3.212437584555e+01 0.0 
0.0 0.0 -1.101480749827e+01 
-1.516025477643e+01 -5.646558540188e-01 0.0 
-5.646558540188e-01 -5.062424772733e+01 0.0 
0.0 0.0 -1.933535075113e+01 
-1.547276505686e+01 -8.536320998326e-01 0.0 
-8.536320998326e-01 -5.032019883653e+01 0.0 
0.0 0.0 -1.933788916802e+01 
-7.911740796620e+00 -6.232331016257e-01 0.0 
-6.232331016257e-01 -3.417016648484e+01 0.0 
0.0 0.0 -1.216918819511e+01 
-8.485350857593e+00 -8.504467560394e-01 0.0 
-8.504467560394e-01 -3.416720437607e+01 0.0 
0.0 0.0 -1.237315451975e+01 
-2.190755415658e+00 -4.453944534597e-01 0.0 
-4.453944534597e-01 -1.705864254739e+01 0.0 
0.0 0.0 -5.067164974840e+00 
-9.124641146570e+00 -1.024348571328e+00 0.0 
-1.024348571328e+00 -3.398615817106e+01 0.0 
0.0 0.0 -1.259248119497e+01 
-1.710858183393e+01 -1.671014700512e+00 0.0 
-1.671014700512e+00 -5.123984197377e+01 0.0 
0.0 0.0 -2.010452714231e+01 
-2.583527245136e+00 -5.204136374392e-01 0.0 
-5.204136374392e-01 -1.647476505235e+01 0.0 
0.0 0.0 -5.125035701302e+00 
-6.145145616404e+01 7.746587946131e-01 0.0 
7.746587946131e-01 -1.095476240423e+02 0.0 
0.0 0.0 -5.089972406191e+01 
-6.498875871855e+01 1.602962604310e+00 0.0 
1.602962604310e+00 -1.205846536740e+02 0.0 
0.0 0.0 -5.527202371777e+01 
-1.592524028484e+02 8.602243583919e+00 0.0 
8.602243583919e+00 -3.820846638676e+02 0.0 
0.0 0.0 -1.620011200148e+02 
-2.985835549756e+01 5.789442983462e-01 0.0 
5.789442983462e-01 -1.927716563601e+01 0.0 
0.0 0.0 -1.434065634007e+01 
-7.890435809112e+00 -1.440671155378e+00 0.0 
-1.440671155378e+00 -1.748046902417e+01 0.0 
0.0 0.0 -7.461379619566e+00 
-8.295684941469e+01 6.769181311100e+00 0.0 
6.769181311100e+00 -1.832343454016e+02 0.0 
0.0 0.0 -7.945735844488e+01 
-8.652175776819e+01 1.292032226353e+01 0.0 
1.292032226353e+01 -1.901784813032e+02 0.0 
0.0 0.0 -8.261007172142e+01 
-8.541127846817e+01 1.076431912605e+01 0.0 
1.076431912605e+01 -1.889967112340e+02 0.0 
0.0 0.0 -8.192239691064e+01 
-1.463162027543e+02 2.310975222321e-01 0.0 
2.310975222321e-01 -3.499997575374e+02 0.0 
0.0 0.0 -1.484947880875e+02 
-1.509685795190e+02 5.911022946070e-01 0.0 
5.911022946070e-01 -3.596927659865e+02 0.0 
0.0 0.0 -1.527984036516e+02 
-8.203293884751e+01 3.726449856031e+00 0.0 
3.726449856031e+00 -1.828853838787e+02 0.0 
0.0 0.0 -7.907549681786e+01 
-5.116281272457e+01 -8.263145445107e+00 0.0 
-8.263145445107e+00 -1.317241708684e+02 0.0 
0.0 0.0 -5.446609507789e+01 
-1.003739987284e+02 3.301004836101e+01 0.0 
3.301004836101e+01 -2.106285749222e+02 0.0 
0.0 0.0 -9.290077209517e+01 
-7.499270200839e+01 6.365776009433e+00 0.0 
6.365776009433e+00 -1.469407790382e+02 0.0 
0.0 0.0 -6.618004431398e+01 
-3.127460259392e+01 2.110200135868e+01 0.0 
2.110200135868e+01 -1.189191084715e+02 0.0 
0.0 0.0 -4.492872846702e+01 
-4.914617472059e+01 -1.262493854843e+01 0.0 
-1.262493854843e+01 -1.331045048844e+02 0.0 
0.0 0.0 -5.427520388149e+01 
-1.181545027407e+02 -2.450495557228e-01 0.0 
-2.450495557228e-01 -2.916962753419e+02 0.0 
0.0 0.0 -1.225552334248e+02 
-1.040260814944e+02 -1.321666499083e+00 0.0 
-1.321666499083e+00 -2.716820794500e+02 0.0 
0.0 0.0 -1.123124482833e+02 
-1.366416998365e+02 1.118364959521e+00 0.0 
1.118364959521e+00 -3.332564655143e+02 0.0 
0.0 0.0 -1.405694496053e+02 
-1.093232961831e+02 -9.264116419549e-01 0.0 
-9.264116419549e-01 -2.755026836824e+02 0.0 
0.0 0.0 -1.150477939596e+02 
-1.271863374184e+02 1.168144324485e+00 0.0 
1.168144324485e+00 -3.176189969968e+02 0.0 
0.0 0.0 -1.330416003246e+02 
-1.436870340962e+02 1.562882682986e+01 0.0 
1.562882682986e+01 -3.611061033028e+02 0.0 
0.0 0.0 -1.510379412197e+02 
-2.962041206085e+01 -1.628252640952e+00 0.0 
-1.628252640952e+00 -7.984866745879e+01 0.0 
0.0 0.0 -3.244072385589e+01 
-5.423637704188e+01 3.655465973948e+00 0.0 
3.655465973948e+00 -7.284227372744e+01 0.0 
0.0 0.0 -3.772359523080e+01 
-4.790179480042e+01 1.590067202890e+00 0.0 
1.590067202890e+00 -6.492595993372e+01 0.0 
0.0 0.0 -3.344832642024e+01 
-6.700414182629e+01 5.418449708887e+00 0.0 
5.418449708887e+00 -1.151853806311e+02 0.0 
0.0 0.0 -5.425685673721e+01 
-5.303435728691e+01 -4.783585639366e+00 0.0 
-4.783585639366e+00 -1.352317781539e+02 0.0 
0.0 0.0 -5.607984063223e+01 
-8.466426330175e+01 -2.065234007137e+00 0.0 
-2.065234007137e+00 -2.140058212464e+02 0.0 
0.0 0.0 -8.920102536444e+01 
-3.405716511532e+01 -4.653846895990e+00 0.0 
-4.653846895990e+00 -8.565112398164e+01 0.0 
0.0 0.0 -3.551248672909e+01 
-1.215731359143e+02 3.767997297159e+01 0.0 
3.767997297159e+01 -2.941857454525e+02 0.0 
0.0 0.0 -1.243276644101e+02 
-5.717956680949e+01 3.025412633079e+01 0.0 
3.025412633079e+01 -1.148532525120e+02 0.0 
0.0 0.0 -5.120984579645e+01 
-7.830363040217e+01 -3.713031118213e+00 0.0 
-3.713031118213e+00 -2.351377430406e+02 0.0 
0.0 0.0 -9.363241203284e+01 
-6.873571749983e+01 -6.031563485506e+00 0.0 
-6.031563485506e+00 -1.806620707523e+02 0.0 
0.0 0.0 -7.441933647565e+01 
-5.479130921514e+01 -9.386360463511e+00 0.0 
-9.386360463511e+00 -1.452162845581e+02 0.0 
0.0 0.0 -5.960227813198e+01 
-4.632580900526e+01 -1.450058724790e+01 0.0 
-1.450058724790e+01 -1.275584340413e+02 0.0 
0.0 0.0 -5.176527291397e+01 
-5.417152974337e+01 2.615302704128e+01 0.0 
2.615302704128e+01 -1.675158943375e+02 0.0 
0.0 0.0 -6.610622722427e+01 
-7.814610714911e+01 -5.728233086391e+00 0.0 
-5.728233086391e+00 -2.182162215244e+02 0.0 
0.0 0.0 -8.850869860205e+01 
-1.156680742644e+02 2.271940717187e+00 0.0 
2.271940717187e+00 -3.056218670945e+02 0.0 
0.0 0.0 -1.259869824077e+02 
-6.929618864358e+01 5.162310400467e+00 0.0 
5.162310400467e+00 -1.261728119249e+02 0.0 
0.0 0.0 -5.824070017053e+01 
-5.395323407499e+00 -9.498408135481e-01 0.0 
-9.498408135481e-01 -1.913780911566e+01 0.0 
0.0 0.0 -6.827737566091e+00 
-1.198249236615e+02 3.967888882684e+00 0.0 
3.967888882684e+00 -3.163066128115e+02 0.0 
0.0 0.0 -1.304394609419e+02 
-9.400880891931e+01 -2.377615659622e+00 0.0 
-2.377615659622e+00 -2.567101906249e+02 0.0 
0.0 0.0 -1.048156998633e+02 
-6.288762813016e+01 8.166759587268e+00 0.0 
8.166759587268e+00 -8.329729947433e+01 0.0 
0.0 0.0 -4.345547828135e+01 
-1.057787746779e+02 1.827643401407e+01 0.0 
1.827643401407e+01 -3.026124318327e+02 0.0 
0.0 0.0 -1.221173619532e+02 
-4.108452226329e+01 -2.012149577773e+01 0.0 
-2.012149577773e+01 -1.001416233735e+02 0.0 
0.0 0.0 -4.073276234321e+01 
-7.379827368520e+01 9.887236866209e+00 0.0 
9.887236866209e+00 -1.252244702058e+02 0.0 
0.0 0.0 -5.930682316729e+01 
-8.941275088631e+01 2.174109420281e+01 0.0 
2.174109420281e+01 -1.741606220539e+02 0.0 
0.0 0.0 -7.867201188205e+01 
-5.795516286857e+01 9.441294209966e+00 0.0 
9.441294209966e+00 -6.298775143394e+01 0.0 
0.0 0.0 -3.588287429075e+01 
-2.548380861433e+01 -3.571944973595e+00 0.0 
-3.571944973595e+00 -6.527356084213e+01 0.0 
0.0 0.0 -2.682721083694e+01 
-4.524781134214e+01 1.994840729660e+00 0.0 
1.994840729660e+00 -5.223993655303e+01 0.0 
0.0 0.0 -2.884632436855e+01 
-1.402842658457e+02 9.367989637586e+00 0.0 
9.367989637586e+00 -3.542847745035e+02 0.0 
0.0 0.0 -1.479707121048e+02 
-8.318678739374e+01 2.217142281703e+01 0.0 
2.217142281703e+01 -1.387784964286e+02 0.0 
0.0 0.0 -6.618958514671e+01 
-4.837999849145e+01 -3.719593745432e+00 0.0 
-3.719593745432e+00 -1.231129484694e+02 0.0 
0.0 0.0 -5.104788408825e+01 
-6.976382026112e+01 7.560843166226e+00 0.0 
7.560843166226e+00 -2.397051395475e+02 0.0 
0.0 0.0 -9.244068794259e+01 
-5.769762094815e+01 2.931993351769e+01 0.0 
2.931993351769e+01 -1.517210345645e+02 0.0 
0.0 0.0 -6.242559665378e+01 
-4.450609752916e+01 2.444251349789e+01 0.0 
2.444251349789e+01 -3.476790838175e+01 0.0 
0.0 0.0 -2.338220177327e+01 
-7.807104594890e+01 8.146811179124e+00 0.0 
8.146811179124e+00 -1.564889739051e+02 0.0 
0.0 0.0 -6.996800595621e+01 
-6.701060288023e+01 2.281803829272e+01 0.0 
2.281803829272e+01 -2.160031606523e+02 0.0 
0.0 0.0 -8.450412905977e+01 
-1.184805507385e+02 1.582005870448e+01 0.0 
1.582005870448e+01 -3.243315944520e+02 0.0 
0.0 0.0 -1.324436435572e+02 
-8.743707388554e+01 1.078709849176e+01 0.0 
1.078709849176e+01 -2.729479711579e+02 0.0 
0.0 0.0 -1.077155135130e+02 
-5.181803216589e+01 -2.950269331859e+00 0.0 
-2.950269331859e+00 -1.318306837032e+02 0.0 
0.0 0.0 -5.469461476074e+01 
-1.310858038521e+02 3.501025804416e+00 0.0 
3.501025804416e+00 -3.319003117505e+02 0.0 
0.0 0.0 -1.384958346808e+02 
-6.368112875125e+01 1.538294732910e+01 0.0 
1.538294732910e+01 -2.234674239563e+02 0.0 
0.0 0.0 -8.574456581227e+01 
-7.946003709783e+01 1.198939593366e+01 0.0 
1.198939593366e+01 -1.467304604919e+02 0.0 
0.0 0.0 -6.745714927693e+01 
-9.019623727012e+01 3.249034841582e+01 0.0 
3.249034841582e+01 -2.269678936739e+02 0.0 
0.0 0.0 -9.474923928320e+01 
-5.011688476409e+01 7.499031929279e+00 0.0 
7.499031929279e+00 -1.986169424486e+02 0.0 
0.0 0.0 -7.422014816380e+01 
-8.135984472818e+01 1.648906645815e+01 0.0 
1.648906645815e+01 -1.394887265992e+02 0.0 
0.0 0.0 -6.585457139822e+01 
-7.520708037599e+01 -1.319429850923e+00 0.0 
-1.319429850923e+00 -2.387563245950e+02 0.0 
0.0 0.0 -9.378902149131e+01 
-1.104552472803e+02 2.109848726827e+01 0.0 
2.109848726827e+01 -3.080914171502e+02 0.0 
0.0 0.0 -1.251639993292e+02 
-5.437296073270e+01 2.997690276491e+01 0.0 
2.997690276491e+01 -1.147535491854e+02 0.0 
0.0 0.0 -5.033795297544e+01 
-7.453074010580e+01 3.104861296529e+01 0.0 
3.104861296529e+01 -1.895143428043e+02 0.0 
0.0 0.0 -7.881352487302e+01 
-8.131011812951e+01 3.246423426747e+01 0.0 
3.246423426747e+01 -1.746026988043e+02 0.0 
0.0 0.0 -7.637384508015e+01 
-7.086567508520e+01 2.792769336481e+01 0.0 
2.792769336481e+01 -2.042462146065e+02 0.0 
0.0 0.0 -8.213356690750e+01 
-1.136162046957e+02 -4.093391033705e-01 0.0 
-4.093391033705e-01 -2.806002011812e+02 0.0 
0.0 0.0 -1.178649217631e+02 
-1.255378480181e+02 3.733520055125e+00 0.0 
3.733520055125e+00 -3.241347006106e+02 0.0 
0.0 0.0 -1.345017645886e+02 
-2.892566136947e+01 -8.564198274520e+00 0.0 
-8.564198274520e+00 -1.337576433629e+02 0.0 
0.0 0.0 -4.955409725721e+01 
-4.447005935480e+01 2.662692194730e+01 0.0 
2.662692194730e+01 -1.316238789417e+02 0.0 
0.0 0.0 -5.242818148895e+01 
-6.673527461967e+01 1.232515915759e+01 0.0 
1.232515915759e+01 -8.599610319815e+01 0.0 
0.0 0.0 -4.541941334535e+01 
-1.091003555735e+02 3.306442780621e+01 0.0 
3.306442780621e+01 -2.784647334404e+02 0.0 
0.0 0.0 -1.158695267041e+02 
-8.421101422783e+01 1.382130487554e+01 0.0 
1.382130487554e+01 -1.681706179625e+02 0.0 
0.0 0.0 -7.531448965711e+01 
-5.204378974852e+01 2.898945819733e+01 0.0 
2.898945819733e+01 -1.331623935592e+02 0.0 
0.0 0.0 -5.516185499230e+01 
-1.265408800041e+02 2.197591987732e+00 0.0 
2.197591987732e+00 -3.209875114679e+02 0.0 
0.0 0.0 -1.338585174416e+02 
-8.595185739711e+01 1.866037177958e+01 0.0 
1.866037177958e+01 -1.610212489272e+02 0.0 
0.0 0.0 -7.369193189729e+01 
-8.280369168955e+01 -4.806766791874e+00 0.0 
-4.806766791874e+00 -2.254936746025e+02 0.0 
0.0 0.0 -9.208920988761e+01 
-3.427614111830e+01 -5.748434526646e-01 0.0 
-5.748434526646e-01 -9.154605754035e+01 0.0 
0.0 0.0 -3.734665959759e+01 
-3.355000657578e+01 2.531734606179e+01 0.0 
2.531734606179e+01 -1.050886242334e+02 0.0 
0.0 0.0 -4.158379083422e+01 
-3.790433277483e+01 6.248132170336e+00 0.0 
6.248132170336e+00 -1.696883947918e+02 0.0 
0.0 0.0 -6.187781826998e+01 
-6.330669033394e+01 2.048970673904e+01 0.0 
2.048970673904e+01 -2.135028171795e+02 0.0 
0.0 0.0 -8.264285225404e+01 
-9.073776074966e+01 -3.319770876754e+00 0.0 
-3.319770876754e+00 -2.449311149367e+02 0.0 
0.0 0.0 -1.003006627059e+02 
-9.737820811013e+01 2.995817887468e+01 0.0 
2.995817887468e+01 -2.022228401009e+02 0.0 
0.0 0.0 -8.948031446332e+01 
-1.317392574245e+02 2.121952971734e+00 0.0 
2.121952971734e+00 -3.286928721363e+02 0.0 
0.0 0.0 -1.377296388682e+02 
-1.119262498783e+02 6.967448525682e+00 0.0 
6.967448525682e+00 -3.099023151011e+02 0.0 
0.0 0.0 -1.261485694938e+02 
-4.384251144453e+01 3.166986936685e+01 0.0 
3.166986936685e+01 -4.154293110406e+01 0.0 
0.0 0.0 -2.491306644027e+01 
-4.867384411770e+01 2.621255950638e+01 0.0 
2.621255950638e+01 -5.545428401204e+01 0.0 
0.0 0.0 -3.083843843892e+01 
-1.367853374060e+02 2.004250304921e+00 0.0 
2.004250304921e+00 -3.365225230977e+02 0.0 
0.0 0.0 -1.415923581511e+02 
-7.506955290001e+01 5.853857562693e+00 0.0 
5.853857562693e+00 -2.488443557655e+02 0.0 
0.0 0.0 -9.677417259966e+01 
-1.165977908742e+02 1.978024586692e+01 0.0 
1.978024586692e+01 -3.195269139800e+02 0.0 
0.0 0.0 -1.304374114563e+02 
-9.167374618394e+01 -8.110769703754e-01 0.0 
-8.110769703754e-01 -2.289544184041e+02 0.0 
0.0 0.0 -9.578844937640e+01 
-1.240235127606e+02 3.664777202396e+01 0.0 
3.664777202396e+01 -3.030186057401e+02 0.0 
0.0 0.0 -1.277126355502e+02 
-4.046441693884e+01 2.644302805693e+01 0.0 
2.644302805693e+01 -5.638171219857e+01 0.0 
0.0 0.0 -2.865383874122e+01 
-1.417122310855e+02 1.814935982503e+00 0.0 
1.814935982503e+00 -3.447234558189e+02 0.0 
0.0 0.0 -1.455307060713e+02 
-1.096265197790e+02 1.025827085783e+01 0.0 
1.025827085783e+01 -3.095010977109e+02 0.0 
0.0 0.0 -1.253382852470e+02 
-4.006192205292e+01 2.175149890058e+01 0.0 
2.175149890058e+01 -1.471869469071e+02 0.0 
0.0 0.0 -5.577466068801e+01 
-2.655558821889e+01 6.294849345649e-02 0.0 
6.294849345649e-02 -1.665563895516e+01 0.0 
0.0 0.0 -1.256336815221e+01 
-1.529017721142e+02 2.267887923247e+00 0.0 
2.267887923247e+00 -3.661854692367e+02 0.0 
0.0 0.0 -1.553261724052e+02 
-1.206955322888e+02 1.206968580228e+01 0.0 
1.206968580228e+01 -3.272402686329e+02 0.0 
0.0 0.0 -1.339807402765e+02 
-7.855563476571e+01 2.838708336785e+01 0.0 
2.838708336785e+01 -2.221283305606e+02 0.0 
0.0 0.0 -8.980518959790e+01 
-7.220719164664e+01 2.544084432545e+00 0.0 
2.544084432545e+00 -2.406398225542e+02 0.0 
0.0 0.0 -9.345410426025e+01 
-3.866455962333e+01 2.449987355953e+01 0.0 
2.449987355953e+01 -3.505223458683e+01 0.0 
0.0 0.0 -2.171503826305e+01 
-9.554086724512e+01 -2.615305051342e+00 0.0 
-2.615305051342e+00 -2.524269208927e+02 0.0 
0.0 0.0 -1.039903364413e+02 
-7.816560064428e+01 3.188530824712e+01 0.0 
3.188530824712e+01 -1.905175301011e+02 0.0 
0.0 0.0 -8.020493922363e+01 
-9.503817340042e+01 2.619107959240e+01 0.0 
2.619107959240e+01 -2.084716255924e+02 0.0 
0.0 0.0 -9.065293969784e+01 
-1.251150947916e+02 1.470368792628e+01 0.0 
1.470368792628e+01 -3.342272465044e+02 0.0 
0.0 0.0 -1.374027023888e+02 
-7.643509050293e+01 2.653158277841e+01 0.0 
2.653158277841e+01 -1.231107996699e+02 0.0 
0.0 0.0 -5.946376705184e+01 
-9.194706407896e+01 -3.093251251676e+00 0.0 
-3.093251251676e+00 -2.405571442134e+02 0.0 
0.0 0.0 -9.935126248772e+01 
-8.846307654421e+01 2.254507748413e+01 0.0 
2.254507748413e+01 -2.645208546160e+02 0.0 
0.0 0.0 -1.054951793481e+02 
-1.610044925290e+01 -1.181759483208e+00 0.0 
-1.181759483208e+00 -5.053412173580e+01 0.0 
0.0 0.0 -1.959037129661e+01 
-4.328065371225e+01 2.666158246878e+01 0.0 
2.666158246878e+01 -5.575423321857e+01 0.0 
0.0 0.0 -2.931046607925e+01 
-9.640165062093e+01 -2.348929960418e+00 0.0 
-2.348929960418e+00 -2.482621140985e+02 0.0 
0.0 0.0 -1.029991294158e+02 
-4.145508554767e+01 1.971872648741e+00 0.0 
1.971872648741e+00 -1.783607025134e+02 0.0 
0.0 0.0 -6.554473641831e+01 
-7.773794344137e+01 1.504338038986e+00 0.0 
1.504338038986e+00 -2.484813057435e+02 0.0 
0.0 0.0 -9.746577475546e+01 
-1.314626156405e+02 2.826546178379e+01 0.0 
2.826546178379e+01 -3.344032232580e+02 0.0 
0.0 0.0 -1.393597516695e+02 
-1.007940157426e+02 -1.700907049041e+00 0.0 
-1.700907049041e+00 -2.561367786966e+02 0.0 
0.0 0.0 -1.066792383317e+02 
-4.765785294447e+01 3.222944649201e+00 0.0 
3.222944649201e+00 -1.928565594599e+02 0.0 
0.0 0.0 -7.175432372130e+01 
-1.051097099937e+02 -1.154733658383e+00 0.0 
-1.154733658383e+00 -2.641152353184e+02 0.0 
0.0 0.0 -1.103674835936e+02 
-3.671867652350e+01 2.430403977029e+01 0.0 
2.430403977029e+01 -3.541979949248e+01 0.0 
0.0 0.0 -2.124154280479e+01 
-8.028406396780e+01 2.890100465865e+01 0.0 
2.890100465865e+01 -1.417429369995e+02 0.0 
0.0 0.0 -6.620810029017e+01 
-1.093759606917e+02 -6.945941740863e-01 0.0 
-6.945941740863e-01 -2.721488750482e+02 0.0 
0.0 0.0 -1.140574507220e+02 
-8.583751218388e+01 3.260018773826e+01 0.0 
3.260018773826e+01 -2.094993755077e+02 0.0 
0.0 0.0 -8.820106630749e+01 
-1.879043831530e+01 -2.140312881667e+00 0.0 
-2.140312881667e+00 -5.290638948770e+01 0.0 
0.0 0.0 -2.110904834090e+01 
-8.278695385117e+01 2.731061974703e+01 0.0 
2.731061974703e+01 -2.379382417117e+02 0.0 
0.0 0.0 -9.581755866886e+01 
-1.412103639083e+02 4.126768883861e-01 0.0 
4.126768883861e-01 -3.397334171483e+02 0.0 
0.0 0.0 -1.438831343170e+02 
-6.021478211502e+01 -1.011515500766e+01 0.0 
-1.011515500766e+01 -1.726215003025e+02 0.0 
0.0 0.0 -6.945088472527e+01 
-8.339320511978e+01 8.701156839375e-01 0.0 
8.701156839375e-01 -2.561835410396e+02 0.0 
0.0 0.0 -1.014730238478e+02 
-8.690101361358e+01 3.009782352670e+01 0.0 
3.009782352670e+01 -1.637794160651e+02 0.0 
0.0 0.0 -7.480412890359e+01 
-3.615849771076e+01 2.447835356087e+01 0.0 
2.447835356087e+01 -3.527763731064e+01 0.0 
0.0 0.0 -2.103084050642e+01 
-9.222399076691e+01 2.983749380714e+00 0.0 
2.983749380714e+00 -2.738462091767e+02 0.0 
0.0 0.0 -1.094210599831e+02 
-9.386525714453e+01 3.355823672303e+01 0.0 
3.355823672303e+01 -2.285275549880e+02 0.0 
0.0 0.0 -9.631784363976e+01 
-8.739456283445e+01 2.612878552517e+01 0.0 
2.612878552517e+01 -2.530616067286e+02 0.0 
0.0 0.0 -1.017368508689e+02 
-7.098365707978e+01 2.093619820734e+01 0.0 
2.093619820734e+01 -2.302416496328e+02 0.0 
0.0 0.0 -8.996759201378e+01 
-1.017247997952e+02 5.024208397582e+00 0.0 
5.024208397582e+00 -2.917887218643e+02 0.0 
0.0 0.0 -1.176540564978e+02 
-3.904024107256e+01 2.650816898015e+01 0.0 
2.650816898015e+01 -5.661497872810e+01 0.0 
0.0 0.0 -2.829656594020e+01 
-4.847790128109e+01 -9.694810162388e+00 0.0 
-9.694810162388e+00 -1.244915077555e+02 0.0 
0.0 0.0 -5.149082271098e+01 
-4.219108627433e+01 -9.337278213802e+00 0.0 
-9.337278213802e+00 -1.036295978745e+02 0.0 
0.0 0.0 -4.334620524464e+01 
-5.219858781796e+01 4.536006500605e-01 0.0 
4.536006500605e-01 -2.007974084144e+02 0.0 
0.0 0.0 -7.549879886970e+01 
-9.735866154251e+01 3.450597744953e+01 0.0 
3.450597744953e+01 -2.301201912226e+02 0.0 
0.0 0.0 -9.784365582953e+01 
-2.328880590170e+01 -8.949171733288e-01 0.0 
-8.949171733288e-01 -6.711673160592e+01 0.0 
0.0 0.0 -2.672166125229e+01 
-8.791707963253e+01 3.233686013475e+01 0.0 
3.233686013475e+01 -1.789937211013e+02 0.0 
0.0 0.0 -7.967324022014e+01 
-3.428126497641e+01 -9.193504520946e+00 0.0 
-9.193504520946e+00 -7.514557129653e+01 0.0 
0.0 0.0 -3.230796721795e+01 
-5.051924671892e+01 -3.702401111351e+00 0.0 
-3.702401111351e+00 -1.922884362370e+02 0.0 
0.0 0.0 -7.244230488679e+01 
-1.027905001668e+02 2.612817507831e+01 0.0 
2.612817507831e+01 -2.858825024272e+02 0.0 
0.0 0.0 -1.162019007782e+02 
-4.793156967714e+01 4.923590912810e-01 0.0 
4.923590912810e-01 -7.068036901221e+01 0.0 
0.0 0.0 -3.518358160680e+01 
-5.550668967521e+01 -5.187953141216e+00 0.0 
-5.187953141216e+00 -1.983651066159e+02 0.0 
0.0 0.0 -7.576153888732e+01 
-4.315581440742e+01 -6.665752062603e-01 0.0 
-6.665752062603e-01 -1.116077583939e+02 0.0 
0.0 0.0 -4.602907184039e+01 
-5.427266532442e+01 -8.390204324609e+00 0.0 
-8.390204324609e+00 -1.874217430819e+02 0.0 
0.0 0.0 -7.210832252189e+01 
-7.935063820986e+01 2.160532828763e+01 0.0 
2.160532828763e+01 -2.472160893832e+02 0.0 
0.0 0.0 -9.757001827792e+01 
-5.916314994460e+01 -8.482366138043e+00 0.0 
-8.482366138043e+00 -1.928638166820e+02 0.0 
0.0 0.0 -7.520808998799e+01 
-5.783727681420e+01 -1.033411956690e+01 0.0 
-1.033411956690e+01 -1.803749747731e+02 0.0 
0.0 0.0 -7.106367547620e+01 
-8.012180907153e+01 7.542899952010e+00 0.0 
7.542899952010e+00 -1.679272750269e+02 0.0 
0.0 0.0 -7.401472522954e+01 
-6.224502539283e+01 -9.472650597493e+00 0.0 
-9.472650597493e+00 -1.859593781142e+02 0.0 
0.0 0.0 -7.406132105212e+01 
-8.306836726708e+01 2.233750168384e+00 0.0 
2.233750168384e+00 -1.863251035122e+02 0.0 
0.0 0.0 -8.041804123379e+01 
-1.615772773291e+02 6.996286873939e-01 0.0 
6.996286873939e-01 -3.812276522111e+02 0.0 
0.0 0.0 -1.624414788621e+02 
-3.267763821205e+01 1.906229533141e-01 0.0 
1.906229533141e-01 -3.152743935817e+01 0.0 
0.0 0.0 -1.886152327107e+01 
-3.591673064786e+01 2.504134312413e+01 0.0 
2.504134312413e+01 -3.222625475640e+01 0.0 
0.0 0.0 -2.004289562128e+01 
-7.261871843127e+01 1.218800895649e+00 0.0 
1.218800895649e+00 -1.114005854280e+02 0.0 
0.0 0.0 -5.608553972096e+01 
-3.867656411528e+01 2.685777953810e+01 0.0 
2.685777953810e+01 -5.951109508449e+01 0.0 
0.0 0.0 -2.905629775993e+01 
-5.443758490383e+01 -1.155777466732e+01 0.0 
-1.155777466732e+01 -1.530847233795e+02 0.0 
0.0 0.0 -6.185669248501e+01 
-8.853852096332e+01 3.338319998235e+01 0.0 
3.338319998235e+01 -1.946290278148e+02 0.0 
0.0 0.0 -8.455026463343e+01 
-3.307086779959e+01 1.483021248284e-01 0.0 
1.483021248284e-01 -3.224587281089e+01 0.0 
0.0 0.0 -1.919502218314e+01 
-5.193125122230e+01 -1.097008413345e+01 0.0 
-1.097008413345e+01 -1.388733141154e+02 0.0 
0.0 0.0 -5.684136960131e+01 
-1.084790808528e+02 3.777989059059e+01 0.0 
3.777989059059e+01 -2.443242558698e+02 0.0 
0.0 0.0 -1.054410010168e+02 
-1.377901907394e+02 3.677510884180e+01 0.0 
3.677510884180e+01 -3.314368911279e+02 0.0 
0.0 0.0 -1.403681245602e+02 
-5.834335266655e+01 1.173156644039e+00 0.0 
1.173156644039e+00 -9.962498213884e+01 0.0 
0.0 0.0 -4.699050044162e+01 
-1.228392561564e+02 1.851811066576e+01 0.0 
1.851811066576e+01 -3.298173103188e+02 0.0 
0.0 0.0 -1.353969699426e+02 
-9.267778740008e+01 2.492946822360e+01 0.0 
2.492946822360e+01 -2.679776669783e+02 0.0 
0.0 0.0 -1.077966363135e+02 
-7.276851042404e+01 1.087886837711e+00 0.0 
1.087886837711e+00 -1.479127382318e+02 0.0 
0.0 0.0 -6.580437459674e+01 
-2.660902667275e+01 2.750056519719e-01 0.0 
2.750056519719e-01 -1.522947619481e+01 0.0 
0.0 0.0 -1.215155086027e+01 
-1.853865763421e+01 -4.379208039397e+00 0.0 
-4.379208039397e+00 -3.422001252571e+01 0.0 
0.0 0.0 -1.538821717411e+01 
-1.183556474508e+02 -1.398081848004e-01 0.0 
-1.398081848004e-01 -2.904891684130e+02 0.0 
0.0 0.0 -1.222534447591e+02 
-3.700175270563e+01 2.591297176674e+01 0.0 
2.591297176674e+01 -3.241777025195e+01 0.0 
0.0 0.0 -2.042585688727e+01 
-3.829743900289e+01 2.755399605752e+01 0.0 
2.755399605752e+01 -5.583662635349e+01 0.0 
0.0 0.0 -2.784021960691e+01 
-3.964782092793e+01 2.885905308688e+01 0.0 
2.885905308688e+01 -5.741451653931e+01 0.0 
0.0 0.0 -2.757684417214e+01 
-5.445408423565e+01 -2.191900174814e+00 0.0 
-2.191900174814e+00 -1.386946015651e+02 0.0 
0.0 0.0 -5.754460574022e+01 
-3.643230353550e+01 -1.662513940851e+01 0.0 
-1.662513940851e+01 -5.977993994465e+01 0.0 
0.0 0.0 -2.710817217491e+01 
-3.903828216370e+01 2.716633871529e+01 0.0 
2.716633871529e+01 -3.676382958425e+01 0.0 
0.0 0.0 -2.205869047765e+01 
-1.388372482980e+02 2.254714315546e+01 0.0 
2.254714315546e+01 -3.512192191673e+02 0.0 
0.0 0.0 -1.466169402396e+02 
-3.838810146964e+01 1.773712013307e+00 0.0 
1.773712013307e+00 -3.329884104430e+01 0.0 
0.0 0.0 -2.110608275418e+01 
-1.068929278937e+02 2.838605000253e+01 0.0 
2.838605000253e+01 -2.887112900766e+02 0.0 
0.0 0.0 -1.182812653911e+02 
-4.116526143185e+01 2.863535607266e+01 0.0 
2.863535607266e+01 -3.821348820318e+01 0.0 
0.0 0.0 -2.183783234353e+01 
-8.980633804171e+01 2.090151845034e+01 0.0 
2.090151845034e+01 -1.825073027012e+02 0.0 
0.0 0.0 -8.129409222288e+01 
-1.303309731720e+02 3.191343411415e+01 0.0 
3.191343411415e+01 -3.264491227389e+02 0.0 
0.0 0.0 -1.366340287732e+02 
-1.612693403234e+02 5.736420271862e+00 0.0 
5.736420271862e+00 -3.840983415176e+02 0.0 
0.0 0.0 -1.632103045523e+02 
-1.177984488771e+02 2.988215149828e+01 0.0 
2.988215149828e+01 -3.069726051369e+02 0.0 
0.0 0.0 -1.270313162042e+02 
-4.102126846387e+01 3.135783417688e+01 0.0 
3.135783417688e+01 -6.152785719832e+01 0.0 
0.0 0.0 -2.947969549558e+01 
-5.693304990155e+01 1.096702169357e+01 0.0 
1.096702169357e+01 -5.646484502335e+01 0.0 
0.0 0.0 -3.361936847747e+01 
-1.188494108083e+02 3.843264970197e+01 0.0 
3.843264970197e+01 -2.845286713106e+02 0.0 
0.0 0.0 -1.206134246357e+02 
-6.428740587567e+01 2.088231018470e+00 0.0 
2.088231018470e+00 -1.157513639789e+02 0.0 
0.0 0.0 -5.361163095637e+01 
-1.626150119811e+02 3.725411825152e+00 0.0 
3.725411825152e+00 -3.851415927137e+02 0.0 
0.0 0.0 -1.639269814084e+02 
-4.114747561650e+01 3.279605364256e+00 0.0 
3.279605364256e+00 -3.170477085116e+01 0.0 
0.0 0.0 -2.145567394030e+01 
-7.929834202198e+01 4.780267608072e+00 0.0 
4.780267608072e+00 -1.696348696941e+02 0.0 
0.0 0.0 -7.427996351484e+01 
-3.117798243362e+01 -1.718220679774e+01 0.0 
-1.718220679774e+01 -1.230359980717e+02 0.0 
0.0 0.0 -4.683420206142e+01 
-7.863732053495e+01 2.372561603234e+00 0.0 
2.372561603234e+00 -1.694043226949e+02 0.0 
0.0 0.0 -7.401249296894e+01 
-9.596682635329e+01 3.460940070896e+01 0.0 
3.460940070896e+01 -2.148594402385e+02 0.0 
0.0 0.0 -9.284787997753e+01 
-4.388705612726e+01 8.670706197552e-01 0.0 
8.670706197552e-01 -5.638188335404e+01 0.0 
0.0 0.0 -2.968068184439e+01 
-6.183527753948e+01 1.832895945635e+01 0.0 
1.832895945635e+01 -6.731038288653e+01 0.0 
0.0 0.0 -3.834369812780e+01 
-1.553724335042e+02 1.002225034056e+00 0.0 
1.002225034056e+00 -3.688577511979e+02 0.0 
0.0 0.0 -1.568690554106e+02 
-1.032423187770e+02 3.518610075016e+01 0.0 
3.518610075016e+01 -2.243838678414e+02 0.0 
0.0 0.0 -9.788785598551e+01 
-4.099607360751e+01 3.345606379573e+01 0.0 
3.345606379573e+01 -6.919783066522e+01 0.0 
0.0 0.0 -3.291247427792e+01 
-5.869353587921e+01 1.501831271667e+00 0.0 
1.501831271667e+00 -9.859389783990e+01 0.0 
0.0 0.0 -4.678623011573e+01 
-6.839127697392e+01 -2.898362485592e+00 0.0 
-2.898362485592e+00 -1.738383581146e+02 0.0 
0.0 0.0 -7.226889052657e+01 
-4.326303732266e+01 -1.918473314093e+01 0.0 
-1.918473314093e+01 -1.072614229538e+02 0.0 
0.0 0.0 -4.644352304487e+01 
-1.504669902266e+02 7.238208223469e+00 0.0 
7.238208223469e+00 -3.680930585706e+02 0.0 
0.0 0.0 -1.551680146392e+02 
-1.028912095538e+02 3.600123026619e+01 0.0 
3.600123026619e+01 -2.338915625791e+02 0.0 
0.0 0.0 -1.006348316399e+02 
-1.542836183076e+02 1.689585141225e+00 0.0 
1.689585141225e+00 -3.680272221336e+02 0.0 
0.0 0.0 -1.562932521324e+02 
-1.468750034697e+01 -2.930320207845e-01 0.0 
-2.930320207845e-01 -4.994844260108e+01 0.0 
0.0 0.0 -1.899078288442e+01 
-1.224750359867e+01 -2.185868984141e+00 0.0 
-2.185868984141e+00 -3.147003626515e+01 0.0 
0.0 0.0 -1.276862158126e+01 
-1.501775160890e+02 1.038448302643e+01 0.0 
1.038448302643e+01 -3.695719064983e+02 0.0 
0.0 0.0 -1.555248267762e+02 
-1.141869552105e+02 3.903117789355e+01 0.0 
3.903117789355e+01 -2.652101309603e+02 0.0 
0.0 0.0 -1.134191258513e+02 
-3.543891549174e+01 -1.938470997518e+01 0.0 
-1.938470997518e+01 -1.197841971923e+02 0.0 
0.0 0.0 -4.589371527225e+01 
-8.988719574618e+01 1.814588182216e+01 0.0 
1.814588182216e+01 -1.989771154997e+02 0.0 
0.0 0.0 -8.625929337376e+01 
-4.426914549631e+01 3.418769242809e+01 0.0 
3.418769242809e+01 -7.597525640865e+01 0.0 
0.0 0.0 -3.700957255306e+01 
-2.630360650907e+01 5.777347248841e-02 0.0 
5.777347248841e-02 -1.317154522078e+01 0.0 
0.0 0.0 -1.144254551895e+01 
-9.398167626966e+00 -1.183562777357e+00 0.0 
-1.183562777357e+00 -3.232285545533e+01 0.0 
0.0 0.0 -1.219319671912e+01 
-1.626639594478e+02 2.958836352516e+00 0.0 
2.958836352516e+00 -3.845309107718e+02 0.0 
0.0 0.0 -1.637584610659e+02 
-8.401608986699e+01 1.264917847365e+01 0.0 
1.264917847365e+01 -1.748943223027e+02 0.0 
0.0 0.0 -7.727312365089e+01 
-7.574349683757e+01 -1.985499754345e+00 0.0 
-1.985499754345e+00 -1.909564594058e+02 0.0 
0.0 0.0 -7.960998687300e+01 
-4.912949322515e+01 1.332694090808e+01 0.0 
1.332694090808e+01 -2.895160304606e+01 0.0 
0.0 0.0 -2.302432888136e+01 
-4.904855762829e+01 -1.449376378549e+00 0.0 
-1.449376378549e+00 -1.253955436033e+02 0.0 
0.0 0.0 -5.193323036948e+01 
-1.174869274387e+02 3.439799258814e+01 0.0 
3.439799258814e+01 -2.944988533978e+02 0.0 
0.0 0.0 -1.231957342510e+02 
-2.760502664165e+01 -8.032237493804e+00 0.0 
-8.032237493804e+00 -4.927784427624e+01 0.0 
0.0 0.0 -2.203318448151e+01 
-8.227657804498e+01 9.240633140814e+00 0.0 
9.240633140814e+00 -1.745556575543e+02 0.0 
0.0 0.0 -7.664967067979e+01 
-1.482979964386e+02 1.418453738417e+01 0.0 
1.418453738417e+01 -3.676374297346e+02 0.0 
0.0 0.0 -1.543806278520e+02 
-9.651625865888e+01 2.840082618162e+01 0.0 
2.840082618162e+01 -2.021417488418e+02 0.0 
0.0 0.0 -8.919740225020e+01 
-1.499702506627e+02 2.877529230052e+01 0.0 
2.877529230052e+01 -3.617452414000e+02 0.0 
0.0 0.0 -1.531146476188e+02 
-4.931252440347e+01 1.086250714059e+01 0.0 
1.086250714059e+01 -1.158656280672e+02 0.0 
0.0 0.0 -5.102102468980e+01 
-1.312628835496e+02 3.423842073166e+01 0.0 
3.423842073166e+01 -3.241296387796e+02 0.0 
0.0 0.0 -1.362177566988e+02 
-1.347448794355e+02 1.598251516363e+01 0.0 
1.598251516363e+01 -3.485141632072e+02 0.0 
0.0 0.0 -1.445777127928e+02 
-2.618490635499e+01 -1.268463604525e-01 0.0 
-1.268463604525e-01 -1.500305616818e+01 0.0 
0.0 0.0 -1.195638875695e+01 
-9.988304960372e+01 3.208238348549e+01 0.0 
3.208238348549e+01 -2.126677336814e+02 0.0 
0.0 0.0 -9.336523498555e+01 
-6.122125436971e+01 -2.208808919459e+00 0.0 
-2.208808919459e+00 -1.549339658107e+02 0.0 
0.0 0.0 -6.444656605412e+01 
-2.454716719254e+01 -2.231781046781e+00 0.0 
-2.231781046781e+00 -6.635115464456e+01 0.0 
0.0 0.0 -2.686949655113e+01 
-8.328811975182e+01 1.202978315641e+00 0.0 
1.202978315641e+00 -1.882804281035e+02 0.0 
0.0 0.0 -8.107056435660e+01 
-6.200207074948e-01 -1.155998680973e-01 0.0 
-1.155998680973e-01 -1.416849283297e+01 0.0 
0.0 0.0 -3.257656393791e+00 
-2.554118807387e+01 4.274472049614e-02 0.0 
4.274472049614e-02 -1.386111460789e+01 0.0 
0.0 0.0 -1.142069080453e+01 
-1.636971457488e+02 1.446746729732e-01 0.0 
1.446746729732e-01 -3.853180605112e+02 0.0 
0.0 0.0 -1.643045618780e+02 
-2.206579599064e+01 -1.345586027992e+00 0.0 
-1.345586027992e+00 -6.326739199975e+01 0.0 
0.0 0.0 -2.519995639712e+01 
-3.859919595378e+01 3.539494941514e-01 0.0 
3.539494941514e-01 -4.591015103120e+01 0.0 
0.0 0.0 -2.495280409550e+01 
-1.120356153886e+02 3.885515191453e+01 0.0 
3.885515191453e+01 -2.566960324604e+02 0.0 
0.0 0.0 -1.102194943547e+02 
-9.381795445127e+01 -3.887344947621e-01 0.0 
-3.887344947621e-01 -2.339967298322e+02 0.0 
0.0 0.0 -9.794440528503e+01 
-6.957919243376e+01 1.897925832521e+00 0.0 
1.897925832521e+00 -1.361468404384e+02 0.0 
0.0 0.0 -6.131780986164e+01 
-4.012604024044e+01 -2.041293533661e+01 0.0 
-2.041293533661e+01 -8.032021885064e+01 0.0 
0.0 0.0 -3.432138037186e+01 
-7.441407732349e+01 -7.425051034081e+00 0.0 
-7.425051034081e+00 -1.084015537551e+02 0.0 
0.0 0.0 -5.559021224127e+01 
-5.189487717053e+01 8.591397915680e-01 0.0 
8.591397915680e-01 -8.108875750015e+01 0.0 
0.0 0.0 -3.949509040120e+01 
-1.345349799472e+02 3.040875148538e+01 0.0 
3.040875148538e+01 -3.362089351157e+02 0.0 
0.0 0.0 -1.408231745189e+02 
-9.253930049865e+01 2.364041642501e+01 0.0 
2.364041642501e+01 -1.922007694973e+02 0.0 
0.0 0.0 -8.502202099877e+01 
-4.779824636119e+01 9.588617079378e-01 0.0 
9.588617079378e-01 -6.727401116009e+01 0.0 
0.0 0.0 -3.412167725639e+01 
-3.574183541684e+01 2.943542561588e+01 0.0 
2.943542561588e+01 -9.017110102762e+01 0.0 
0.0 0.0 -3.796314762889e+01 
-1.087837777636e+02 3.760809897582e+01 0.0 
3.760809897582e+01 -2.495658771863e+02 0.0 
0.0 0.0 -1.071048964850e+02 
-8.217136451071e+01 -1.683665109802e+00 0.0 
-1.683665109802e+00 -2.063995407960e+02 0.0 
0.0 0.0 -8.617127159203e+01 
-1.143284851037e+02 3.676040296796e+01 0.0 
3.676040296796e+01 -2.780002453155e+02 0.0 
0.0 0.0 -1.172986191257e+02 
-1.319635824692e+02 2.011560114019e+01 0.0 
2.011560114019e+01 -3.429628498469e+02 0.0 
0.0 0.0 -1.420779296948e+02 
-5.091998428307e+01 3.418154578569e+01 0.0 
3.418154578569e+01 -5.948154160020e+01 0.0 
0.0 0.0 -3.385862366448e+01 
-1.011826357112e+02 -3.022365632844e-01 0.0 
-3.022365632844e-01 -2.514002045644e+02 0.0 
0.0 0.0 -1.053748520827e+02 
-9.255796484839e+00 -1.252246928492e+00 0.0 
-1.252246928492e+00 -3.023804133407e+01 0.0 
0.0 0.0 -1.147243242108e+01 
-1.546152369288e+02 4.764216098512e+00 0.0 
4.764216098512e+00 -3.723199443670e+02 0.0 
0.0 0.0 -1.576805543887e+02 
-8.568557587333e+01 -1.053585686809e+00 0.0 
-1.053585686809e+00 -2.148840033690e+02 0.0 
0.0 0.0 -8.977087377270e+01 

TENSORS node_materi_strain_total float
7.920268351621e-04 5.063132858308e-07 0.0 
5.063132858308e-07 -2.348136399259e-04 0.0 
0.0 0.0 0.0 
-1.338909936338e-03 -2.473863813235e-05 0.0 
-2.473863813235e-05 1.459403475214e-02 0.0 
0.0 0.0 0.0 
1.092824391657e-05 1.953259595873e-05 0.0 
1.953259595873e-05 7.603411450482e-03 0.0 
0.0 0.0 0.0 
-1.044611546805e-04 4.696780978742e-05 0.0 
4.696780978742e-05 1.764078096453e-02 0.0 
0.0 0.0 0.0 
6.450601757759e-04 -1.004536559115e-05 0.0 
-1.004536559115e-05 2.328954488014e-05 0.0 
0.0 0.0 0.0 
4.836575188529e-04 4.722489012384e-06 0.0 
4.722489012384e-06 5.021245119787e-04 0.0 
0.0 0.0 0.0 
3.299196932691e-04 -9.014701499827e-06 0.0 
-9.014701499827e-06 9.413527625256e-04 0.0 
0.0 0.0 0.0 
2.157939081694e-04 -1.804917268019e-05 0.0 
-1.804917268019e-05 1.408547577571e-03 0.0 
0.0 0.0 0.0 
1.253671272539e-04 -2.769825120991e-05 0.0 
-2.769825120991e-05 1.836074449905e-03 0.0 
0.0 0.0 0.0 
7.586928001890e-05 -3.143060335790e-05 0.0 
-3.143060335790e-05 2.232568344811e-03 0.0 
0.0 0.0 0.0 
5.206384198431e-05 -3.351865904422e-05 0.0 
-3.351865904422e-05 2.611374501203e-03 0.0 
0.0 0.0 0.0 
4.875110713320e-05 -3.601453190306e-05 0.0 
-3.601453190306e-05 2.976423069462e-03 0.0 
0.0 0.0 0.0 
6.191979258937e-05 -3.530611398269e-05 0.0 
-3.530611398269e-05 3.334993506908e-03 0.0 
0.0 0.0 0.0 
7.977759213144e-05 -2.979682349286e-05 0.0 
-2.979682349286e-05 3.696862016437e-03 0.0 
0.0 0.0 0.0 
9.614054432435e-05 -1.649097320294e-05 0.0 
-1.649097320294e-05 4.073297767002e-03 0.0 
0.0 0.0 0.0 
1.169966998991e-04 -4.345646135743e-06 0.0 
-4.345646135743e-06 4.446554680765e-03 0.0 
0.0 0.0 0.0 
1.338889468179e-04 2.209872737349e-06 0.0 
2.209872737349e-06 4.796681967175e-03 0.0 
0.0 0.0 0.0 
1.372807607742e-04 -1.029543695219e-05 0.0 
-1.029543695219e-05 5.189240585161e-03 0.0 
0.0 0.0 0.0 
1.309951669111e-04 -4.438521736235e-06 0.0 
-4.438521736235e-06 5.609656083848e-03 0.0 
0.0 0.0 0.0 
1.139699331082e-04 1.752111747969e-06 0.0 
1.752111747969e-06 6.031099700263e-03 0.0 
0.0 0.0 0.0 
8.748591096630e-05 5.859548794028e-06 0.0 
5.859548794028e-06 6.467966989614e-03 0.0 
0.0 0.0 0.0 
5.479852991478e-05 1.246185259410e-05 0.0 
1.246185259410e-05 6.917632017333e-03 0.0 
0.0 0.0 0.0 
2.925833555648e-05 1.783236307546e-05 0.0 
1.783236307546e-05 7.349823062671e-03 0.0 
0.0 0.0 0.0 
-7.623336947227e-05 1.598782199447e-04 0.0 
1.598782199447e-04 1.764038100303e-02 0.0 
0.0 0.0 0.0 
-8.366281328709e-05 2.938112334495e-04 0.0 
2.938112334495e-04 1.761556161505e-02 0.0 
0.0 0.0 0.0 
-8.611184221904e-05 4.303786025748e-04 0.0 
4.303786025748e-04 1.760780609860e-02 0.0 
0.0 0.0 0.0 
-8.424370502939e-05 5.993523226892e-04 0.0 
5.993523226892e-04 1.758053729738e-02 0.0 
0.0 0.0 0.0 
-1.084574127177e-04 7.510246000124e-04 0.0 
7.510246000124e-04 1.754151201109e-02 0.0 
0.0 0.0 0.0 
-1.024063920649e-04 9.378184437280e-04 0.0 
9.378184437280e-04 1.750364651823e-02 0.0 
0.0 0.0 0.0 
-1.189340322615e-04 1.140481577706e-03 0.0 
1.140481577706e-03 1.743265372018e-02 0.0 
0.0 0.0 0.0 
-1.233083281066e-04 1.361055604790e-03 0.0 
1.361055604790e-03 1.733105874024e-02 0.0 
0.0 0.0 0.0 
-1.310226769215e-04 1.582679851532e-03 0.0 
1.582679851532e-03 1.722020011395e-02 0.0 
0.0 0.0 0.0 
-1.179799994474e-04 1.833481845535e-03 0.0 
1.833481845535e-03 1.705979402198e-02 0.0 
0.0 0.0 0.0 
-1.536307082503e-04 2.071381423469e-03 0.0 
2.071381423469e-03 1.687218958002e-02 0.0 
0.0 0.0 0.0 
-1.386764713661e-04 2.341496242103e-03 0.0 
2.341496242103e-03 1.663974854960e-02 0.0 
0.0 0.0 0.0 
-1.439458990684e-04 2.609467445853e-03 0.0 
2.609467445853e-03 1.634717991433e-02 0.0 
0.0 0.0 0.0 
-1.263096659363e-04 2.858860665778e-03 0.0 
2.858860665778e-03 1.601371993140e-02 0.0 
0.0 0.0 0.0 
-1.320189792962e-04 3.091586639429e-03 0.0 
3.091586639429e-03 1.564268349853e-02 0.0 
0.0 0.0 0.0 
-1.094693798476e-04 3.297709268517e-03 0.0 
3.297709268517e-03 1.521106224409e-02 0.0 
0.0 0.0 0.0 
-1.093911482406e-04 3.484434224631e-03 0.0 
3.484434224631e-03 1.474967044177e-02 0.0 
0.0 0.0 0.0 
-8.852876245950e-05 3.654478322832e-03 0.0 
3.654478322832e-03 1.425250144586e-02 0.0 
0.0 0.0 0.0 
-6.438072934319e-05 3.778840398268e-03 0.0 
3.778840398268e-03 1.374735138629e-02 0.0 
0.0 0.0 0.0 
-3.711730034110e-05 3.867078220931e-03 0.0 
3.867078220931e-03 1.322840301176e-02 0.0 
0.0 0.0 0.0 
-4.875111191664e-06 3.911519445662e-03 0.0 
3.911519445662e-03 1.268981863296e-02 0.0 
0.0 0.0 0.0 
6.502211056839e-06 3.913339101847e-03 0.0 
3.913339101847e-03 1.215819734981e-02 0.0 
0.0 0.0 0.0 
3.102205999269e-05 3.877712925331e-03 0.0 
3.877712925331e-03 1.162802251781e-02 0.0 
0.0 0.0 0.0 
4.991209834223e-05 3.801752308019e-03 0.0 
3.801752308019e-03 1.111381899617e-02 0.0 
0.0 0.0 0.0 
6.459447319000e-05 3.694537029969e-03 0.0 
3.694537029969e-03 1.062591708168e-02 0.0 
0.0 0.0 0.0 
8.393290485542e-05 3.560410486486e-03 0.0 
3.560410486486e-03 1.016114660365e-02 0.0 
0.0 0.0 0.0 
9.010075142927e-05 3.389425548807e-03 0.0 
3.389425548807e-03 9.724030938383e-03 0.0 
0.0 0.0 0.0 
1.168653950968e-04 3.193871871970e-03 0.0 
3.193871871970e-03 9.321589605201e-03 0.0 
0.0 0.0 0.0 
1.185694751947e-04 2.970215361818e-03 0.0 
2.970215361818e-03 8.948552873762e-03 0.0 
0.0 0.0 0.0 
1.080837015417e-04 2.741396075603e-03 0.0 
2.741396075603e-03 8.650682198177e-03 0.0 
0.0 0.0 0.0 
1.304532133678e-04 2.501529757352e-03 0.0 
2.501529757352e-03 8.339950905258e-03 0.0 
0.0 0.0 0.0 
1.469083580641e-04 2.248126817839e-03 0.0 
2.248126817839e-03 8.055537429781e-03 0.0 
0.0 0.0 0.0 
1.427929021676e-04 1.972042702589e-03 0.0 
1.972042702589e-03 7.833652948257e-03 0.0 
0.0 0.0 0.0 
1.363443410073e-04 1.721388463656e-03 0.0 
1.721388463656e-03 7.687412233449e-03 0.0 
0.0 0.0 0.0 
1.340710681811e-04 1.481951223062e-03 0.0 
1.481951223062e-03 7.558714786339e-03 0.0 
0.0 0.0 0.0 
1.087982469430e-04 1.249447973189e-03 0.0 
1.249447973189e-03 7.470514260950e-03 0.0 
0.0 0.0 0.0 
1.172064053771e-04 1.044654427861e-03 0.0 
1.044654427861e-03 7.417835095518e-03 0.0 
0.0 0.0 0.0 
9.366898947031e-05 8.498751688286e-04 0.0 
8.498751688286e-04 7.373783182991e-03 0.0 
0.0 0.0 0.0 
9.813809374104e-05 6.824962849545e-04 0.0 
6.824962849545e-04 7.354825848391e-03 0.0 
0.0 0.0 0.0 
7.623341475778e-05 5.329890477183e-04 0.0 
5.329890477183e-04 7.351883402362e-03 0.0 
0.0 0.0 0.0 
5.937190057341e-05 4.111971262157e-04 0.0 
4.111971262157e-04 7.383722669844e-03 0.0 
0.0 0.0 0.0 
5.024037258683e-05 3.126986250719e-04 0.0 
3.126986250719e-04 7.440690565099e-03 0.0 
0.0 0.0 0.0 
4.544634549286e-05 2.299281246572e-04 0.0 
2.299281246572e-04 7.478768711926e-03 0.0 
0.0 0.0 0.0 
4.104269175059e-05 1.568550945750e-04 0.0 
1.568550945750e-04 7.447466143237e-03 0.0 
0.0 0.0 0.0 
2.862285364909e-05 1.064183496063e-04 0.0 
1.064183496063e-04 7.539100980066e-03 0.0 
0.0 0.0 0.0 
1.612194862980e-05 6.995856774046e-05 0.0 
6.995856774046e-05 7.546209489343e-03 0.0 
0.0 0.0 0.0 
1.108113902696e-05 3.939020498853e-05 0.0 
3.939020498853e-05 7.579931967442e-03 0.0 
0.0 0.0 0.0 
9.631735965539e-06 2.843400596552e-05 0.0 
2.843400596552e-05 7.615586044782e-03 0.0 
0.0 0.0 0.0 
6.376754615456e-06 1.296712054963e-05 0.0 
1.296712054963e-05 7.624920834260e-03 0.0 
0.0 0.0 0.0 
-1.303972432606e-03 -1.911048343506e-05 0.0 
-1.911048343506e-05 1.483514198076e-02 0.0 
0.0 0.0 0.0 
-1.277775065730e-03 -1.269154006393e-05 0.0 
-1.269154006393e-05 1.525176025559e-02 0.0 
0.0 0.0 0.0 
-1.228410426690e-03 -6.680292899908e-06 0.0 
-6.680292899908e-06 1.564440104450e-02 0.0 
0.0 0.0 0.0 
-1.154048900855e-03 -4.603375175088e-07 0.0 
-4.603375175088e-07 1.600997817472e-02 0.0 
0.0 0.0 0.0 
-1.049569630900e-03 7.677950843121e-06 0.0 
7.677950843121e-06 1.635957749436e-02 0.0 
0.0 0.0 0.0 
-9.119027527910e-04 1.482416064407e-05 0.0 
1.482416064407e-05 1.668384527050e-02 0.0 
0.0 0.0 0.0 
-7.417502609004e-04 2.187795940919e-05 0.0 
2.187795940919e-05 1.697895826441e-02 0.0 
0.0 0.0 0.0 
-5.281178801875e-04 3.108066297742e-05 0.0 
3.108066297742e-05 1.724768757587e-02 0.0 
0.0 0.0 0.0 
-3.054170907660e-04 3.425925452775e-05 0.0 
3.425925452775e-05 1.749548514798e-02 0.0 
0.0 0.0 0.0 
-1.904577739859e-03 2.505740711743e-03 0.0 
2.505740711743e-03 -2.211134625062e-03 0.0 
0.0 0.0 0.0 
-2.593239718418e-03 1.614962482112e-03 0.0 
1.614962482112e-03 1.421864580055e-02 0.0 
0.0 0.0 0.0 
-1.828462238940e-03 2.926226488309e-03 0.0 
2.926226488309e-03 7.491835205037e-04 0.0 
0.0 0.0 0.0 
-1.781715208392e-03 2.834727055937e-03 0.0 
2.834727055937e-03 2.210934458848e-03 0.0 
0.0 0.0 0.0 
-1.881711664758e-03 2.745160693828e-03 0.0 
2.745160693828e-03 3.759578108188e-03 0.0 
0.0 0.0 0.0 
-1.852719368358e-03 2.538869915814e-03 0.0 
2.538869915814e-03 5.192805547495e-03 0.0 
0.0 0.0 0.0 
-1.729165088936e-03 2.365597725461e-03 0.0 
2.365597725461e-03 6.575388222083e-03 0.0 
0.0 0.0 0.0 
-1.651888619803e-03 2.232748027093e-03 0.0 
2.232748027093e-03 7.990377818565e-03 0.0 
0.0 0.0 0.0 
-1.617380733903e-03 2.150009802390e-03 0.0 
2.150009802390e-03 9.398353382186e-03 0.0 
0.0 0.0 0.0 
-1.640059064032e-03 2.102172534056e-03 0.0 
2.102172534056e-03 1.083152746453e-02 0.0 
0.0 0.0 0.0 
-1.864618243428e-03 2.125323883537e-03 0.0 
2.125323883537e-03 1.234422364327e-02 0.0 
0.0 0.0 0.0 
-1.332970085744e-03 1.353734059309e-05 0.0 
1.353734059309e-05 1.459253115863e-02 0.0 
0.0 0.0 0.0 
-1.307997174156e-03 1.688785463702e-05 0.0 
1.688785463702e-05 1.457886570113e-02 0.0 
0.0 0.0 0.0 
-1.316243514715e-03 1.025344766915e-06 0.0 
1.025344766915e-06 1.457911219620e-02 0.0 
0.0 0.0 0.0 
-1.327060021305e-03 -7.344211140671e-07 0.0 
-7.344211140671e-07 1.457506215373e-02 0.0 
0.0 0.0 0.0 
-1.329912926457e-03 7.072165461698e-06 0.0 
7.072165461698e-06 1.462563726510e-02 0.0 
0.0 0.0 0.0 
-1.332810578523e-03 1.631492954320e-06 0.0 
1.631492954320e-06 1.458754858804e-02 0.0 
0.0 0.0 0.0 
-1.334683029337e-03 2.503986147880e-06 0.0 
2.503986147880e-06 1.457406118863e-02 0.0 
0.0 0.0 0.0 
-1.333546584730e-03 8.465622131043e-06 0.0 
8.465622131043e-06 1.457973702582e-02 0.0 
0.0 0.0 0.0 
-1.354159469933e-03 2.103373587302e-05 0.0 
2.103373587302e-05 1.460289497209e-02 0.0 
0.0 0.0 0.0 
-1.388895570426e-03 3.406580448129e-05 0.0 
3.406580448129e-05 1.460495406527e-02 0.0 
0.0 0.0 0.0 
-1.431089108372e-03 7.318536149086e-05 0.0 
7.318536149086e-05 1.460762025825e-02 0.0 
0.0 0.0 0.0 
-1.554504584840e-03 1.393426694373e-04 0.0 
1.393426694373e-04 1.462838545888e-02 0.0 
0.0 0.0 0.0 
-1.795138057354e-03 3.038809922061e-04 0.0 
3.038809922061e-04 1.467590273145e-02 0.0 
0.0 0.0 0.0 
-2.284692256634e-03 7.599085019400e-04 0.0 
7.599085019400e-04 1.474605206306e-02 0.0 
0.0 0.0 0.0 
-2.604680852962e-03 1.203824827412e-03 0.0 
1.203824827412e-03 -3.310064373708e-03 0.0 
0.0 0.0 0.0 
-3.333909692855e-03 2.099975388629e-04 0.0 
2.099975388629e-04 -3.379689342813e-03 0.0 
0.0 0.0 0.0 
-3.593395132343e-03 -2.422839329576e-04 0.0 
-2.422839329576e-04 -3.283898679132e-03 0.0 
0.0 0.0 0.0 
-3.115206851771e-03 -9.077248248428e-04 0.0 
-9.077248248428e-04 -3.081753684749e-03 0.0 
0.0 0.0 0.0 
-2.126358558342e-03 -1.717021845685e-03 0.0 
-1.717021845685e-03 -1.566386791851e-03 0.0 
0.0 0.0 0.0 
-1.331269587282e-03 -1.179046786891e-03 0.0 
-1.179046786891e-03 4.304299972550e-05 0.0 
0.0 0.0 0.0 
-5.995350558189e-04 -3.595924180315e-04 0.0 
-3.595924180315e-04 2.415627284295e-04 0.0 
0.0 0.0 0.0 
-6.511769158405e-05 -1.156521481916e-04 0.0 
-1.156521481916e-04 1.256432395731e-04 0.0 
0.0 0.0 0.0 
2.535491800813e-04 -7.439258576177e-05 0.0 
-7.439258576177e-05 2.577336746312e-05 0.0 
0.0 0.0 0.0 
3.495735914877e-04 -6.883691794220e-05 0.0 
-6.883691794220e-05 -2.273735548667e-05 0.0 
0.0 0.0 0.0 
4.301790414460e-04 -5.053296821035e-05 0.0 
-5.053296821035e-05 -5.060211291349e-05 0.0 
0.0 0.0 0.0 
5.241959833187e-04 -4.583324238704e-05 0.0 
-4.583324238704e-05 -8.858875146156e-05 0.0 
0.0 0.0 0.0 
6.097001346089e-04 -2.364157252927e-05 0.0 
-2.364157252927e-05 -1.346870145775e-04 0.0 
0.0 0.0 0.0 
6.837398760136e-04 -3.023239429837e-05 0.0 
-3.023239429837e-05 -1.706319862447e-04 0.0 
0.0 0.0 0.0 
6.971942751155e-04 -2.925871154420e-05 0.0 
-2.925871154420e-05 -1.790710025128e-04 0.0 
0.0 0.0 0.0 
7.148152395278e-04 -2.034457383599e-05 0.0 
-2.034457383599e-05 -1.863793402233e-04 0.0 
0.0 0.0 0.0 
7.363635397272e-04 -8.091937228146e-06 0.0 
-8.091937228146e-06 -1.985801641815e-04 0.0 
0.0 0.0 0.0 
8.037818159362e-04 7.014643338020e-06 0.0 
7.014643338020e-06 -2.338241164563e-04 0.0 
0.0 0.0 0.0 
8.371034158803e-04 1.914942524307e-05 0.0 
1.914942524307e-05 -2.508047529263e-04 0.0 
0.0 0.0 0.0 
-1.800361695040e-03 3.235376521085e-03 0.0 
3.235376521085e-03 -3.874634060010e-04 0.0 
0.0 0.0 0.0 
-1.768403387684e-03 2.875032575302e-03 0.0 
2.875032575302e-03 1.456220999352e-03 0.0 
0.0 0.0 0.0 
-1.823836547580e-03 2.793071292532e-03 0.0 
2.793071292532e-03 2.991093950313e-03 0.0 
0.0 0.0 0.0 
-1.910297287169e-03 2.668816786118e-03 0.0 
2.668816786118e-03 4.509253492995e-03 0.0 
0.0 0.0 0.0 
-1.820159411749e-03 2.506995286928e-03 0.0 
2.506995286928e-03 5.889252728850e-03 0.0 
0.0 0.0 0.0 
-1.692759685709e-03 2.342741448995e-03 0.0 
2.342741448995e-03 7.293068984086e-03 0.0 
0.0 0.0 0.0 
-1.626230373587e-03 2.192321055600e-03 0.0 
2.192321055600e-03 8.695070407655e-03 0.0 
0.0 0.0 0.0 
-1.608179617228e-03 2.121438690568e-03 0.0 
2.121438690568e-03 1.011354915894e-02 0.0 
0.0 0.0 0.0 
-1.703503385204e-03 2.107230332419e-03 0.0 
2.107230332419e-03 1.157703785282e-02 0.0 
0.0 0.0 0.0 
-2.273856868556e-03 2.142227135194e-03 0.0 
2.142227135194e-03 1.322203491577e-02 0.0 
0.0 0.0 0.0 
-1.472926000077e-03 3.010764888505e-03 0.0 
3.010764888505e-03 1.588082830498e-03 0.0 
0.0 0.0 0.0 
4.133356783934e-04 1.792500590777e-03 0.0 
1.792500590777e-03 7.434786323219e-03 0.0 
0.0 0.0 0.0 
-5.220589866724e-05 -2.327665933694e-04 0.0 
-2.327665933694e-04 2.458387246107e-04 0.0 
0.0 0.0 0.0 
-1.290972407138e-03 -1.717914072332e-03 0.0 
-1.717914072332e-03 -2.942574100788e-03 0.0 
0.0 0.0 0.0 
2.791437351393e-04 7.456787638152e-04 0.0 
7.456787638152e-04 7.092370238633e-03 0.0 
0.0 0.0 0.0 
-1.656798291177e-03 2.697834926690e-03 0.0 
2.697834926690e-03 4.785662726184e-03 0.0 
0.0 0.0 0.0 
9.485640635235e-05 -8.101854901907e-05 0.0 
-8.101854901907e-05 3.889900538342e-03 0.0 
0.0 0.0 0.0 
3.986099510971e-04 2.777701149516e-03 0.0 
2.777701149516e-03 8.415790816158e-03 0.0 
0.0 0.0 0.0 
-1.513636162316e-03 2.382107718114e-03 0.0 
2.382107718114e-03 7.506804012219e-03 0.0 
0.0 0.0 0.0 
2.295763917769e-04 3.544096609505e-03 0.0 
3.544096609505e-03 1.011540821263e-02 0.0 
0.0 0.0 0.0 
-1.550355012205e-03 2.258479670139e-03 0.0 
2.258479670139e-03 1.039102228607e-02 0.0 
0.0 0.0 0.0 
1.371921314860e-04 2.537926842103e-04 0.0 
2.537926842103e-04 7.248202758047e-03 0.0 
0.0 0.0 0.0 
4.818300465020e-04 -6.573207066295e-05 0.0 
-6.573207066295e-05 3.632194519274e-05 0.0 
0.0 0.0 0.0 
-2.463335678086e-06 3.828497916408e-03 0.0 
3.828497916408e-03 1.224563276967e-02 0.0 
0.0 0.0 0.0 
-2.299947118624e-03 2.070014453279e-03 0.0 
2.070014453279e-03 1.352999853013e-02 0.0 
0.0 0.0 0.0 
6.018828500524e-05 -7.963368232899e-05 0.0 
-7.963368232899e-05 2.438551034095e-03 0.0 
0.0 0.0 0.0 
1.426825588926e-04 -5.022098291288e-05 0.0 
-5.022098291288e-05 4.918893472703e-03 0.0 
0.0 0.0 0.0 
-2.111498329820e-04 3.635590062244e-03 0.0 
3.635590062244e-03 1.387548635795e-02 0.0 
0.0 0.0 0.0 
-3.743516047443e-04 2.902452527757e-03 0.0 
2.902452527757e-03 1.579504965967e-02 0.0 
0.0 0.0 0.0 
-3.011528214944e-04 8.230508851735e-04 0.0 
8.230508851735e-04 1.744576667374e-02 0.0 
0.0 0.0 0.0 
-4.101365070613e-04 1.426569326809e-03 0.0 
1.426569326809e-03 1.720993864004e-02 0.0 
0.0 0.0 0.0 
-4.104089892890e-04 2.159584612209e-03 0.0 
2.159584612209e-03 1.671715021823e-02 0.0 
0.0 0.0 0.0 
-2.154153207840e-03 7.039351538709e-04 0.0 
7.039351538709e-04 1.488284143522e-02 0.0 
0.0 0.0 0.0 
-1.503973662250e-03 7.768564130789e-05 0.0 
7.768564130789e-05 1.483418791794e-02 0.0 
0.0 0.0 0.0 
-1.389339223197e-03 2.818586094440e-05 0.0 
2.818586094440e-05 1.483690176303e-02 0.0 
0.0 0.0 0.0 
-1.107314837161e-03 3.905688126871e-05 0.0 
3.905688126871e-05 1.619352391909e-02 0.0 
0.0 0.0 0.0 
6.649710395482e-05 8.310442060823e-05 0.0 
8.310442060823e-05 7.339196337488e-03 0.0 
0.0 0.0 0.0 
-1.399110692695e-03 9.326901034530e-04 0.0 
9.326901034530e-04 -3.870707705297e-03 0.0 
0.0 0.0 0.0 
6.195891490988e-04 -2.838641974618e-05 0.0 
-2.838641974618e-05 -9.759459002075e-06 0.0 
0.0 0.0 0.0 
1.076338003461e-04 -8.625674077423e-06 0.0 
-8.625674077423e-06 6.226011714410e-03 0.0 
0.0 0.0 0.0 
-1.326265820805e-03 8.519711604746e-06 0.0 
8.519711604746e-06 1.476668888946e-02 0.0 
0.0 0.0 0.0 
2.650802173044e-04 -5.112938767125e-05 0.0 
-5.112938767125e-05 1.179421490879e-03 0.0 
0.0 0.0 0.0 
-3.544409605839e-04 3.277147065054e-03 0.0 
3.277147065054e-03 1.490248482408e-02 0.0 
0.0 0.0 0.0 
3.040606693689e-04 3.228023624392e-03 0.0 
3.228023624392e-03 9.251106095346e-03 0.0 
0.0 0.0 0.0 
1.142876420425e-04 3.758514638250e-03 0.0 
3.758514638250e-03 1.115396457916e-02 0.0 
0.0 0.0 0.0 
4.530796263612e-04 2.324522000760e-03 0.0 
2.324522000760e-03 7.831060558981e-03 0.0 
0.0 0.0 0.0 
3.487966773110e-04 1.324325824854e-03 0.0 
1.324325824854e-03 7.219069357344e-03 0.0 
0.0 0.0 0.0 
-1.120784098607e-03 -1.216005777305e-03 0.0 
-1.216005777305e-03 2.740186991606e-04 0.0 
0.0 0.0 0.0 
-1.693501287977e-03 2.146235922455e-04 0.0 
2.146235922455e-04 1.485435417091e-02 0.0 
0.0 0.0 0.0 
2.340894278868e-04 4.431907310314e-04 0.0 
4.431907310314e-04 7.042937851639e-03 0.0 
0.0 0.0 0.0 
-8.421518304888e-04 7.481531622001e-05 0.0 
7.481531622001e-05 1.682970405724e-02 0.0 
0.0 0.0 0.0 
2.572949087729e-04 -1.063202389349e-04 0.0 
-1.063202389349e-04 1.428246323659e-04 0.0 
0.0 0.0 0.0 
5.566995755616e-05 -9.030817941355e-05 0.0 
-9.030817941355e-05 3.153585274292e-03 0.0 
0.0 0.0 0.0 
-2.301171652222e-04 5.028425988511e-04 0.0 
5.028425988511e-04 1.753583308411e-02 0.0 
0.0 0.0 0.0 
-1.527877207670e-03 2.544423277458e-03 0.0 
2.544423277458e-03 6.122931591162e-03 0.0 
0.0 0.0 0.0 
-1.613205548788e-03 2.887380868141e-03 0.0 
2.887380868141e-03 3.249552509444e-03 0.0 
0.0 0.0 0.0 
-1.494087729622e-03 2.296068515261e-03 0.0 
2.296068515261e-03 8.913953077553e-03 0.0 
0.0 0.0 0.0 
-1.754868652216e-03 2.248654339611e-03 0.0 
2.248654339611e-03 1.191478802169e-02 0.0 
0.0 0.0 0.0 
-1.486298411593e-03 3.214782214399e-03 0.0 
3.214782214399e-03 -1.834691542617e-04 0.0 
0.0 0.0 0.0 
-1.252597802000e-03 1.498768045627e-05 0.0 
1.498768045627e-05 1.548415911671e-02 0.0 
0.0 0.0 0.0 
2.725142022793e-05 3.038044749582e-05 0.0 
3.038044749582e-05 7.476258900883e-03 0.0 
0.0 0.0 0.0 
7.062437903646e-04 -4.305540634639e-06 0.0 
-4.305540634639e-06 -5.934701192291e-05 0.0 
0.0 0.0 0.0 
-4.223450172942e-04 1.217926341087e-04 0.0 
1.217926341087e-04 1.735831477707e-02 0.0 
0.0 0.0 0.0 
-2.322258726090e-03 1.728316112655e-03 0.0 
1.728316112655e-03 1.415122236384e-02 0.0 
0.0 0.0 0.0 
-2.036606386399e-03 2.072474237638e-03 0.0 
2.072474237638e-03 1.363202783571e-02 0.0 
0.0 0.0 0.0 
-2.174952931653e-03 1.802695853330e-03 0.0 
1.802695853330e-03 1.435209962494e-02 0.0 
0.0 0.0 0.0 
-1.894462787523e-03 2.209694633959e-03 0.0 
2.209694633959e-03 1.377749610602e-02 0.0 
0.0 0.0 0.0 
-1.985181701492e-03 2.016064532616e-03 0.0 
2.016064532616e-03 1.440392021331e-02 0.0 
0.0 0.0 0.0 
-1.743597576915e-03 2.325757185647e-03 0.0 
2.325757185647e-03 1.392816566810e-02 0.0 
0.0 0.0 0.0 
-1.624815328309e-03 2.462642621427e-03 0.0 
2.462642621427e-03 1.325871035694e-02 0.0 
0.0 0.0 0.0 
-1.482180623639e-03 2.561557051000e-03 0.0 
2.561557051000e-03 1.344746282491e-02 0.0 
0.0 0.0 0.0 
-1.342941306138e-03 2.662703629553e-03 0.0 
2.662703629553e-03 1.274112293094e-02 0.0 
0.0 0.0 0.0 
-1.825193005984e-03 2.168508082198e-03 0.0 
2.168508082198e-03 1.452672915755e-02 0.0 
0.0 0.0 0.0 
-1.209138635630e-03 2.748272105916e-03 0.0 
2.748272105916e-03 1.295887441516e-02 0.0 
0.0 0.0 0.0 
-1.057255849142e-03 2.817683458955e-03 0.0 
2.817683458955e-03 1.222599657506e-02 0.0 
0.0 0.0 0.0 
-9.309367831633e-04 2.897539056641e-03 0.0 
2.897539056641e-03 1.246440453121e-02 0.0 
0.0 0.0 0.0 
-7.728639108350e-04 2.939149514483e-03 0.0 
2.939149514483e-03 1.171766840071e-02 0.0 
0.0 0.0 0.0 
-8.825445131123e-04 2.870846476068e-03 0.0 
2.870846476068e-03 1.145390489284e-02 0.0 
0.0 0.0 0.0 
-5.920315657163e-04 2.965236419823e-03 0.0 
2.965236419823e-03 1.093750773984e-02 0.0 
0.0 0.0 0.0 
-6.949210175972e-04 2.906316663531e-03 0.0 
2.906316663531e-03 1.065693810587e-02 0.0 
0.0 0.0 0.0 
-3.971602484861e-04 2.975036637836e-03 0.0 
2.975036637836e-03 1.013299640084e-02 0.0 
0.0 0.0 0.0 
-3.093126399482e-04 3.028607768912e-03 0.0 
3.028607768912e-03 1.043954478511e-02 0.0 
0.0 0.0 0.0 
-1.071208868485e-04 3.012321230160e-03 0.0 
3.012321230160e-03 9.628269748726e-03 0.0 
0.0 0.0 0.0 
-1.924188631395e-04 2.969507569142e-03 0.0 
2.969507569142e-03 9.308446742194e-03 0.0 
0.0 0.0 0.0 
1.051957910267e-04 2.984743519856e-03 0.0 
2.984743519856e-03 8.802617045442e-03 0.0 
0.0 0.0 0.0 
1.361366867429e-05 2.951371405218e-03 0.0 
2.951371405218e-03 8.475191667670e-03 0.0 
0.0 0.0 0.0 
3.200167997190e-04 2.943781822456e-03 0.0 
2.943781822456e-03 7.969608657783e-03 0.0 
0.0 0.0 0.0 
2.164324848434e-04 2.921165354373e-03 0.0 
2.921165354373e-03 7.635380248865e-03 0.0 
0.0 0.0 0.0 
5.349140801049e-04 2.891826128305e-03 0.0 
2.891826128305e-03 7.131757402092e-03 0.0 
0.0 0.0 0.0 
6.092251124991e-04 2.904188998718e-03 0.0 
2.904188998718e-03 7.498686188131e-03 0.0 
0.0 0.0 0.0 
8.337245238591e-04 2.828527698313e-03 0.0 
2.828527698313e-03 6.666333555815e-03 0.0 
0.0 0.0 0.0 
7.504407698043e-04 2.832382923400e-03 0.0 
2.832382923400e-03 6.291243604808e-03 0.0 
0.0 0.0 0.0 
1.059385619814e-03 2.739775227262e-03 0.0 
2.739775227262e-03 5.832236650621e-03 0.0 
0.0 0.0 0.0 
9.661526760905e-04 2.761667690500e-03 0.0 
2.761667690500e-03 5.446789070643e-03 0.0 
0.0 0.0 0.0 
1.285881057118e-03 2.633849031748e-03 0.0 
2.633849031748e-03 4.994464816459e-03 0.0 
0.0 0.0 0.0 
1.334252209275e-03 2.611102979047e-03 0.0 
2.611102979047e-03 5.427086617449e-03 0.0 
0.0 0.0 0.0 
1.563314697470e-03 2.466957514286e-03 0.0 
2.466957514286e-03 4.608740152800e-03 0.0 
0.0 0.0 0.0 
1.513277651948e-03 2.504669802488e-03 0.0 
2.504669802488e-03 4.150327599970e-03 0.0 
0.0 0.0 0.0 
1.790057749723e-03 2.293983901393e-03 0.0 
2.293983901393e-03 3.793000933592e-03 0.0 
0.0 0.0 0.0 
1.741135446976e-03 2.346630837340e-03 0.0 
2.346630837340e-03 3.302552399466e-03 0.0 
0.0 0.0 0.0 
2.012795644213e-03 2.085152164082e-03 0.0 
2.085152164082e-03 2.983588151863e-03 0.0 
0.0 0.0 0.0 
1.971512702309e-03 2.151301618735e-03 0.0 
2.151301618735e-03 2.451572587984e-03 0.0 
0.0 0.0 0.0 
2.227505469166e-03 1.827614328575e-03 0.0 
1.827614328575e-03 2.181382988830e-03 0.0 
0.0 0.0 0.0 
2.208546397306e-03 1.796465499337e-03 0.0 
1.796465499337e-03 2.765764622015e-03 0.0 
0.0 0.0 0.0 
2.392075956419e-03 1.488126247812e-03 0.0 
1.488126247812e-03 2.029591240542e-03 0.0 
0.0 0.0 0.0 
2.424744043745e-03 1.510036708542e-03 0.0 
1.510036708542e-03 1.398700343629e-03 0.0 
0.0 0.0 0.0 
2.542558411207e-03 1.120557975821e-03 0.0 
1.120557975821e-03 1.335366320547e-03 0.0 
0.0 0.0 0.0 
2.468814949070e-03 1.157005523779e-03 0.0 
1.157005523779e-03 1.994986047328e-03 0.0 
0.0 0.0 0.0 
2.563279651131e-03 7.623056718035e-04 0.0 
7.623056718035e-04 1.398909606743e-03 0.0 
0.0 0.0 0.0 
2.463844461565e-03 8.552849761599e-04 0.0 
8.552849761599e-04 2.066542593770e-03 0.0 
0.0 0.0 0.0 
2.501972112822e-03 4.546841532413e-04 0.0 
4.546841532413e-04 1.568805114905e-03 0.0 
0.0 0.0 0.0 
2.592854730102e-03 3.216179704917e-04 0.0 
3.216179704917e-04 8.931656269389e-04 0.0 
0.0 0.0 0.0 
2.469147902164e-03 2.711101974962e-05 0.0 
2.711101974962e-05 1.169402341325e-03 0.0 
0.0 0.0 0.0 
2.377838240541e-03 2.072698950934e-04 0.0 
2.072698950934e-04 1.818721938738e-03 0.0 
0.0 0.0 0.0 
2.294368772148e-03 -1.901498185220e-04 0.0 
-1.901498185220e-04 1.507995178379e-03 0.0 
0.0 0.0 0.0 
2.353274147040e-03 -4.113567578875e-04 0.0 
-4.113567578875e-04 8.840541370017e-04 0.0 
0.0 0.0 0.0 
2.135318030418e-03 -5.750969599454e-04 0.0 
-5.750969599454e-04 1.306123032613e-03 0.0 
0.0 0.0 0.0 
2.090641315589e-03 -3.333715995673e-04 0.0 
-3.333715995673e-04 1.885219247543e-03 0.0 
0.0 0.0 0.0 
1.906516890887e-03 -6.615502318017e-04 0.0 
-6.615502318017e-04 1.739769690928e-03 0.0 
0.0 0.0 0.0 
1.903550041207e-03 -9.244204136971e-04 0.0 
-9.244204136971e-04 1.211952788170e-03 0.0 
0.0 0.0 0.0 
1.665705966255e-03 -9.431991797697e-04 0.0 
-9.431991797697e-04 1.683478792983e-03 0.0 
0.0 0.0 0.0 
1.681292452079e-03 -6.864794905879e-04 0.0 
-6.864794905879e-04 2.170998980120e-03 0.0 
0.0 0.0 0.0 
1.445393104153e-03 -9.099384140246e-04 0.0 
-9.099384140246e-04 2.128951891456e-03 0.0 
0.0 0.0 0.0 
1.381425013946e-03 -1.159451129791e-03 0.0 
-1.159451129791e-03 1.700569343215e-03 0.0 
0.0 0.0 0.0 
1.181684943167e-03 -1.069430872683e-03 0.0 
-1.069430872683e-03 2.140654907516e-03 0.0 
0.0 0.0 0.0 
1.246069265191e-03 -8.424353510501e-04 0.0 
-8.424353510501e-04 2.547133176099e-03 0.0 
0.0 0.0 0.0 
1.008189858068e-03 -9.585698048248e-04 0.0 
-9.585698048248e-04 2.542834002910e-03 0.0 
0.0 0.0 0.0 
1.066435918833e-03 -7.548364950185e-04 0.0 
-7.548364950185e-04 2.937583163372e-03 0.0 
0.0 0.0 0.0 
9.077904430395e-04 -1.157838508338e-03 0.0 
-1.157838508338e-03 2.183177253570e-03 0.0 
0.0 0.0 0.0 
7.710777848231e-04 -1.012883814340e-03 0.0 
-1.012883814340e-03 2.556389690952e-03 0.0 
0.0 0.0 0.0 
6.445276027160e-04 -1.173132222386e-03 0.0 
-1.173132222386e-03 2.235983855842e-03 0.0 
0.0 0.0 0.0 
5.500536483886e-04 -1.006844030620e-03 0.0 
-1.006844030620e-03 2.571089190939e-03 0.0 
0.0 0.0 0.0 
1.564901928761e-03 2.452806162397e-03 0.0 
2.452806162397e-03 5.087792762777e-03 0.0 
0.0 0.0 0.0 
4.141584299655e-04 -1.119330812144e-03 0.0 
-1.119330812144e-03 2.276737550652e-03 0.0 
0.0 0.0 0.0 
4.803372799837e-04 -1.306458096531e-03 0.0 
-1.306458096531e-03 1.956369732450e-03 0.0 
0.0 0.0 0.0 
3.609248014837e-04 -9.478707125496e-04 0.0 
-9.478707125496e-04 2.568951383466e-03 0.0 
0.0 0.0 0.0 
4.693549143915e-04 -8.509101405486e-04 0.0 
-8.509101405486e-04 2.879097134095e-03 0.0 
0.0 0.0 0.0 
2.317896021985e-04 -1.011436791562e-03 0.0 
-1.011436791562e-03 2.284352167382e-03 0.0 
0.0 0.0 0.0 
2.132508547591e-04 -8.489392183469e-04 0.0 
-8.489392183469e-04 2.536994447287e-03 0.0 
0.0 0.0 0.0 
1.050757570286e-04 -8.682635623885e-04 0.0 
-8.682635623885e-04 2.249000744701e-03 0.0 
0.0 0.0 0.0 
1.631736032713e-03 2.436155404236e-03 0.0 
2.436155404236e-03 2.827583548060e-03 0.0 
0.0 0.0 0.0 
-4.109732625736e-05 3.063086143421e-03 0.0 
3.063086143421e-03 9.963702408303e-03 0.0 
0.0 0.0 0.0 
1.116527983493e-04 -7.232265130321e-04 0.0 
-7.232265130321e-04 2.467731814317e-03 0.0 
0.0 0.0 0.0 
3.575648197912e-05 -7.075107938917e-04 0.0 
-7.075107938917e-04 2.163624434215e-03 0.0 
0.0 0.0 0.0 
1.172173645814e-06 -8.402392237320e-04 0.0 
-8.402392237320e-04 1.968580746938e-03 0.0 
0.0 0.0 0.0 
-1.917483047764e-05 -6.488669811427e-04 0.0 
-6.488669811427e-04 1.853232304970e-03 0.0 
0.0 0.0 0.0 
-2.028910614208e-03 1.844252136709e-03 0.0 
1.844252136709e-03 1.490225720507e-02 0.0 
0.0 0.0 0.0 
-1.837132425359e-03 2.007387969817e-03 0.0 
2.007387969817e-03 1.503785026779e-02 0.0 
0.0 0.0 0.0 
-1.999017208730e-03 1.650849658935e-03 0.0 
1.650849658935e-03 1.534302990897e-02 0.0 
0.0 0.0 0.0 
-1.802181959464e-03 1.859549975868e-03 0.0 
1.859549975868e-03 1.548442916487e-02 0.0 
0.0 0.0 0.0 
-1.924082936658e-03 1.508110549373e-03 0.0 
1.508110549373e-03 1.570915551783e-02 0.0 
0.0 0.0 0.0 
1.911579491259e-05 -5.480991488040e-04 0.0 
-5.480991488040e-04 2.028127497603e-03 0.0 
0.0 0.0 0.0 
-1.055748563670e-03 2.842123983709e-03 0.0 
2.842123983709e-03 1.317028929177e-02 0.0 
0.0 0.0 0.0 
-1.625984476746e-03 2.176141645947e-03 0.0 
2.176141645947e-03 1.518032065727e-02 0.0 
0.0 0.0 0.0 
-3.032590878820e-04 2.924389855537e-03 0.0 
2.924389855537e-03 9.012604047619e-03 0.0 
0.0 0.0 0.0 
6.169148248272e-04 2.843421149291e-03 0.0 
2.843421149291e-03 5.949614207335e-03 0.0 
0.0 0.0 0.0 
2.368272512460e-03 1.219350294458e-03 0.0 
1.219350294458e-03 2.642208794577e-03 0.0 
0.0 0.0 0.0 
1.929841670762e-04 -7.016902909933e-04 0.0 
-7.016902909933e-04 2.776256161477e-03 0.0 
0.0 0.0 0.0 
1.105354027537e-04 -5.919689949965e-04 0.0 
-5.919689949965e-04 2.680185552968e-03 0.0 
0.0 0.0 0.0 
1.713423084964e-04 -5.686193869840e-04 0.0 
-5.686193869840e-04 3.003703587420e-03 0.0 
0.0 0.0 0.0 
1.268931965703e-03 -6.184587024383e-04 0.0 
-6.184587024383e-04 2.985640111850e-03 0.0 
0.0 0.0 0.0 
1.084865940452e-03 -5.523530036199e-04 0.0 
-5.523530036199e-04 3.363531471798e-03 0.0 
0.0 0.0 0.0 
1.251575841887e-03 -4.021850407699e-04 0.0 
-4.021850407699e-04 3.451810235257e-03 0.0 
0.0 0.0 0.0 
1.065110880102e-03 -3.563996347162e-04 0.0 
-3.563996347162e-04 3.817307677628e-03 0.0 
0.0 0.0 0.0 
1.195912659901e-03 -1.980212751328e-04 0.0 
-1.980212751328e-04 3.942389984263e-03 0.0 
0.0 0.0 0.0 
1.009410648045e-03 -1.718216473183e-04 0.0 
-1.718216473183e-04 4.296226929414e-03 0.0 
0.0 0.0 0.0 
8.935512575163e-04 -3.032865673834e-04 0.0 
-3.032865673834e-04 4.167434336970e-03 0.0 
0.0 0.0 0.0 
8.370730398528e-04 -1.400947820416e-04 0.0 
-1.400947820416e-04 4.637949551705e-03 0.0 
0.0 0.0 0.0 
7.376782252919e-04 -2.481599215075e-04 0.0 
-2.481599215075e-04 4.501405560417e-03 0.0 
0.0 0.0 0.0 
1.104293111371e-03 -9.579900664750e-06 0.0 
-9.579900664750e-06 4.455106923733e-03 0.0 
0.0 0.0 0.0 
1.300596227709e-03 -7.605024559461e-06 0.0 
-7.605024559461e-06 4.105231238997e-03 0.0 
0.0 0.0 0.0 
6.807352004790e-04 -1.069820151713e-04 0.0 
-1.069820151713e-04 4.965473647822e-03 0.0 
0.0 0.0 0.0 
5.979422092579e-04 -1.946069072597e-04 0.0 
-1.946069072597e-04 4.819407970975e-03 0.0 
0.0 0.0 0.0 
5.415691939912e-04 -7.484703456679e-05 0.0 
-7.484703456679e-05 5.278915105170e-03 0.0 
0.0 0.0 0.0 
4.749456697510e-04 -1.457420799903e-04 0.0 
-1.457420799903e-04 5.121462107173e-03 0.0 
0.0 0.0 0.0 
5.076319243664e-04 -2.557176419584e-04 0.0 
-2.557176419584e-04 4.684315634252e-03 0.0 
0.0 0.0 0.0 
4.031615970516e-04 -1.930625707379e-04 0.0 
-1.930625707379e-04 4.970678700613e-03 0.0 
0.0 0.0 0.0 
4.166222274759e-04 -2.901631739005e-04 0.0 
-2.901631739005e-04 4.555047296750e-03 0.0 
0.0 0.0 0.0 
2.341135610428e-03 9.633805538318e-04 0.0 
9.633805538318e-04 2.719139512025e-03 0.0 
0.0 0.0 0.0 
2.240359805923e-03 1.302825220463e-03 0.0 
1.302825220463e-03 3.282284813356e-03 0.0 
0.0 0.0 0.0 
2.193350551811e-03 1.083202988975e-03 0.0 
1.083202988975e-03 3.362137115119e-03 0.0 
0.0 0.0 0.0 
2.083318868328e-03 1.401745676877e-03 0.0 
1.401745676877e-03 3.917011504631e-03 0.0 
0.0 0.0 0.0 
2.016916249536e-03 1.211288053016e-03 0.0 
1.211288053016e-03 4.001228781254e-03 0.0 
0.0 0.0 0.0 
1.894021715958e-03 1.512802761232e-03 0.0 
1.512802761232e-03 4.552064936744e-03 0.0 
0.0 0.0 0.0 
1.807490811679e-03 1.345709917136e-03 0.0 
1.345709917136e-03 4.640352232045e-03 0.0 
0.0 0.0 0.0 
1.905793689174e-03 1.044788440376e-03 0.0 
1.044788440376e-03 4.147533181714e-03 0.0 
0.0 0.0 0.0 
-6.581655458350e-04 3.018959248219e-03 0.0 
3.018959248219e-03 1.197263604410e-02 0.0 
0.0 0.0 0.0 
2.590935410061e-03 1.117361199571e-03 0.0 
1.117361199571e-03 6.576274846607e-04 0.0 
0.0 0.0 0.0 
2.420714986288e-03 1.575977771356e-03 0.0 
1.575977771356e-03 7.593446657930e-04 0.0 
0.0 0.0 0.0 
2.612334994907e-03 1.157721431308e-03 0.0 
1.157721431308e-03 -4.530452835152e-05 0.0 
0.0 0.0 0.0 
2.372792758805e-03 1.698780205751e-03 0.0 
1.698780205751e-03 1.123353119415e-04 0.0 
0.0 0.0 0.0 
2.601998772698e-03 1.257145331541e-03 0.0 
1.257145331541e-03 -7.789594662542e-04 0.0 
0.0 0.0 0.0 
2.267382273629e-03 1.894376824159e-03 0.0 
1.894376824159e-03 -5.357446128059e-04 0.0 
0.0 0.0 0.0 
2.549700015371e-03 1.434165311472e-03 0.0 
1.434165311472e-03 -1.547715944893e-03 0.0 
0.0 0.0 0.0 
2.775604783666e-03 6.667425593885e-04 0.0 
6.667425593885e-04 -1.601237227834e-03 0.0 
0.0 0.0 0.0 
2.775271655510e-03 7.686230710067e-04 0.0 
7.686230710067e-04 -2.500459427408e-03 0.0 
0.0 0.0 0.0 
2.825222955819e-03 -8.669985499185e-05 0.0 
-8.669985499185e-05 -2.256835091709e-03 0.0 
0.0 0.0 0.0 
2.829518508135e-03 -1.166032799044e-04 0.0 
-1.166032799044e-04 -3.196465223421e-03 0.0 
0.0 0.0 0.0 
2.671671485397e-03 -9.495149952267e-04 0.0 
-9.495149952267e-04 -2.639636193572e-03 0.0 
0.0 0.0 0.0 
8.732599489020e-04 2.837209587336e-03 0.0 
2.837209587336e-03 7.068098733749e-03 0.0 
0.0 0.0 0.0 
1.935036942835e-03 1.697188777036e-03 0.0 
1.697188777036e-03 4.524551367755e-03 0.0 
0.0 0.0 0.0 
1.735608445391e-03 1.799304212209e-03 0.0 
1.799304212209e-03 5.153615878653e-03 0.0 
0.0 0.0 0.0 
1.758903922689e-03 1.969293666358e-03 0.0 
1.969293666358e-03 5.169358057969e-03 0.0 
0.0 0.0 0.0 
-7.567168106759e-05 -7.565895769100e-04 0.0 
-7.565895769100e-04 1.680431732679e-03 0.0 
0.0 0.0 0.0 
3.691870231726e-04 -1.033887287715e-04 0.0 
-1.033887287715e-04 5.407444336390e-03 0.0 
0.0 0.0 0.0 
1.170513838219e-03 1.788279185057e-04 0.0 
1.788279185057e-04 4.652337131731e-03 0.0 
0.0 0.0 0.0 
1.370963622115e-03 2.086005104212e-04 0.0 
2.086005104212e-04 4.311872677891e-03 0.0 
0.0 0.0 0.0 
1.681268610716e-03 1.198383513026e-03 0.0 
1.198383513026e-03 4.790355166100e-03 0.0 
0.0 0.0 0.0 
1.288616099758e-05 -4.764420408426e-04 0.0 
-4.764420408426e-04 1.685822013509e-03 0.0 
0.0 0.0 0.0 
2.077409752998e-03 2.166276741883e-03 0.0 
2.166276741883e-03 -1.167857202639e-03 0.0 
0.0 0.0 0.0 
1.746936010965e-03 2.465894732114e-03 0.0 
2.465894732114e-03 -4.012902382117e-05 0.0 
0.0 0.0 0.0 
-1.718490166117e-03 1.727990884455e-03 0.0 
1.727990884455e-03 1.586121829366e-02 0.0 
0.0 0.0 0.0 
-1.810050173480e-03 1.394860915191e-03 0.0 
1.394860915191e-03 1.601738966478e-02 0.0 
0.0 0.0 0.0 
1.201246865242e-03 3.894322988334e-04 0.0 
3.894322988334e-04 4.893244139890e-03 0.0 
0.0 0.0 0.0 
4.537595632936e-05 -4.017088650416e-04 0.0 
-4.017088650416e-04 1.853134313162e-03 0.0 
0.0 0.0 0.0 
7.488002163058e-04 7.038273041057e-06 0.0 
7.038273041057e-06 5.131200902103e-03 0.0 
0.0 0.0 0.0 
2.649614386767e-03 8.890539654437e-04 0.0 
8.890539654437e-04 -3.300902671448e-03 0.0 
0.0 0.0 0.0 
3.146706806798e-04 -1.382895515634e-04 0.0 
-1.382895515634e-04 5.240687581770e-03 0.0 
0.0 0.0 0.0 
2.804970318930e-04 -6.766879778863e-05 0.0 
-6.766879778863e-05 5.675886683053e-03 0.0 
0.0 0.0 0.0 
7.649643880130e-04 -4.004204614692e-04 0.0 
-4.004204614692e-04 4.060861356095e-03 0.0 
0.0 0.0 0.0 
1.551342508060e-03 2.069445467205e-03 0.0 
2.069445467205e-03 5.792793340431e-03 0.0 
0.0 0.0 0.0 
1.561177460860e-03 2.216575845517e-03 0.0 
2.216575845517e-03 5.842944511364e-03 0.0 
0.0 0.0 0.0 
2.652817642248e-03 -7.477466460018e-04 0.0 
-7.477466460018e-04 -1.745642567310e-03 0.0 
0.0 0.0 0.0 
2.315848599501e-03 -1.508504198675e-03 0.0 
-1.508504198675e-03 -1.843585991042e-03 0.0 
0.0 0.0 0.0 
2.200062228416e-03 -1.764884545974e-03 0.0 
-1.764884545974e-03 -2.543108854465e-03 0.0 
0.0 0.0 0.0 
1.734438369420e-03 -2.133961204869e-03 0.0 
-2.133961204869e-03 -1.562839292333e-03 0.0 
0.0 0.0 0.0 
1.941703343349e-03 -1.773254287044e-03 0.0 
-1.773254287044e-03 -1.016116436007e-03 0.0 
0.0 0.0 0.0 
1.367406279665e-03 -2.192613345421e-03 0.0 
-2.192613345421e-03 -7.105307139187e-04 0.0 
0.0 0.0 0.0 
1.038601328081e-03 -2.462155322937e-03 0.0 
-2.462155322937e-03 -1.049149477291e-03 0.0 
0.0 0.0 0.0 
7.209502705782e-04 -2.372344524394e-03 0.0 
-2.372344524394e-03 -2.178866310664e-04 0.0 
0.0 0.0 0.0 
1.064461168741e-03 -2.103683426281e-03 0.0 
-2.103683426281e-03 4.739916087711e-05 0.0 
0.0 0.0 0.0 
5.099553923709e-04 -2.146226117266e-03 0.0 
-2.146226117266e-03 4.505345927152e-04 0.0 
0.0 0.0 0.0 
1.001913265470e-04 -2.223137934889e-03 0.0 
-2.223137934889e-03 3.414683544511e-04 0.0 
0.0 0.0 0.0 
3.167710592755e-05 -1.946857386428e-03 0.0 
-1.946857386428e-03 8.453400597032e-04 0.0 
0.0 0.0 0.0 
3.163715142687e-04 -2.526385780862e-05 0.0 
-2.526385780862e-05 5.860508179720e-03 0.0 
0.0 0.0 0.0 
2.596093681817e-03 -8.350507688497e-05 0.0 
-8.350507688497e-05 -3.826091155359e-03 0.0 
0.0 0.0 0.0 
-9.987623216741e-04 2.804267233642e-03 0.0 
2.804267233642e-03 1.120134752855e-02 0.0 
0.0 0.0 0.0 
1.005678130806e-03 3.442442970690e-04 0.0 
3.442442970690e-04 5.216903592846e-03 0.0 
0.0 0.0 0.0 
1.559964956750e-03 1.487243086510e-03 0.0 
1.487243086510e-03 5.283382433117e-03 0.0 
0.0 0.0 0.0 
-1.592154289730e-03 1.619634997646e-03 0.0 
1.619634997646e-03 1.618274359456e-02 0.0 
0.0 0.0 0.0 
-1.664978179909e-03 1.307658214465e-03 0.0 
1.307658214465e-03 1.628103292241e-02 0.0 
0.0 0.0 0.0 
-1.834623830975e-03 1.067499898697e-03 0.0 
1.067499898697e-03 1.607707720819e-02 0.0 
0.0 0.0 0.0 
-1.684557711018e-03 1.011356222804e-03 0.0 
1.011356222804e-03 1.629776038315e-02 0.0 
0.0 0.0 0.0 
-1.493447087085e-03 1.238390691214e-03 0.0 
1.238390691214e-03 1.650930253274e-02 0.0 
0.0 0.0 0.0 
-1.518226379604e-03 9.672772077054e-04 0.0 
9.672772077054e-04 1.649793236146e-02 0.0 
0.0 0.0 0.0 
-1.659861339153e-03 7.487140031454e-04 0.0 
7.487140031454e-04 1.624204462519e-02 0.0 
0.0 0.0 0.0 
-1.508414977763e-03 7.288217731697e-04 0.0 
7.288217731697e-04 1.642717342901e-02 0.0 
0.0 0.0 0.0 
-1.605632510310e-03 5.296557631735e-04 0.0 
5.296557631735e-04 1.612778756955e-02 0.0 
0.0 0.0 0.0 
-1.475476582545e-03 5.303804943902e-04 0.0 
5.303804943902e-04 1.630906259810e-02 0.0 
0.0 0.0 0.0 
-1.346631621001e-03 7.093952056686e-04 0.0 
7.093952056686e-04 1.660200898326e-02 0.0 
0.0 0.0 0.0 
-1.334566409847e-03 5.257161552826e-04 0.0 
5.257161552826e-04 1.648116981605e-02 0.0 
0.0 0.0 0.0 
-1.431855391263e-03 3.722521747057e-04 0.0 
3.722521747057e-04 1.615635800217e-02 0.0 
0.0 0.0 0.0 
-1.313859320250e-03 3.760559622564e-04 0.0 
3.760559622564e-04 1.633301974306e-02 0.0 
0.0 0.0 0.0 
-1.388287178550e-03 2.509343901359e-04 0.0 
2.509343901359e-04 1.598254081407e-02 0.0 
0.0 0.0 0.0 
-1.292052654065e-03 2.586983254684e-04 0.0 
2.586983254684e-04 1.616492833538e-02 0.0 
0.0 0.0 0.0 
-1.186717405271e-03 3.695861248156e-04 0.0 
3.695861248156e-04 1.650208881881e-02 0.0 
0.0 0.0 0.0 
8.531940413744e-05 -3.358007314111e-04 0.0 
-3.358007314111e-04 1.485889942657e-03 0.0 
0.0 0.0 0.0 
1.757798000733e-03 9.044124786761e-04 0.0 
9.044124786761e-04 4.345810416119e-03 0.0 
0.0 0.0 0.0 
1.519202030763e-03 1.071995998880e-03 0.0 
1.071995998880e-03 4.992821912451e-03 0.0 
0.0 0.0 0.0 
1.047154561822e-04 -4.756318836313e-04 0.0 
-4.756318836313e-04 2.891583836223e-03 0.0 
0.0 0.0 0.0 
1.521430525974e-04 -4.492791107526e-04 0.0 
-4.492791107526e-04 3.219006773244e-03 0.0 
0.0 0.0 0.0 
2.298816423527e-04 -5.200448647958e-04 0.0 
-5.200448647958e-04 3.338392668446e-03 0.0 
0.0 0.0 0.0 
1.941174048252e-04 -4.029063645588e-04 0.0 
-4.029063645588e-04 3.570238832697e-03 0.0 
0.0 0.0 0.0 
-1.187990197064e-03 2.543153545621e-04 0.0 
2.543153545621e-04 1.633980282358e-02 0.0 
0.0 0.0 0.0 
-1.054572215923e-03 3.494769089334e-04 0.0 
3.494769089334e-04 1.666468891900e-02 0.0 
0.0 0.0 0.0 
1.408720801137e-03 2.760788672819e-03 0.0 
2.760788672819e-03 -4.819354873467e-04 0.0 
0.0 0.0 0.0 
1.084556858237e-03 2.893348135042e-03 0.0 
2.893348135042e-03 6.733148732620e-04 0.0 
0.0 0.0 0.0 
-1.466544960452e-03 1.933085800350e-03 0.0 
1.933085800350e-03 1.600477641317e-02 0.0 
0.0 0.0 0.0 
2.412251851167e-04 -9.223669750882e-05 0.0 
-9.223669750882e-05 5.495717903551e-03 0.0 
0.0 0.0 0.0 
2.601041507752e-04 -1.522231402182e-04 0.0 
-1.522231402182e-04 5.077015621878e-03 0.0 
0.0 0.0 0.0 
8.159502509280e-04 2.793392917034e-03 0.0 
2.793392917034e-03 5.098580609788e-03 0.0 
0.0 0.0 0.0 
4.255158959075e-04 2.853759604610e-03 0.0 
2.853759604610e-03 5.646957769033e-03 0.0 
0.0 0.0 0.0 
5.992629480536e-04 2.829864559828e-03 0.0 
2.829864559828e-03 4.792484133717e-03 0.0 
0.0 0.0 0.0 
1.635810768596e-04 2.857014243159e-03 0.0 
2.857014243159e-03 5.384902022679e-03 0.0 
0.0 0.0 0.0 
2.433288809293e-05 2.860074968806e-03 0.0 
2.860074968806e-03 6.229055879460e-03 0.0 
0.0 0.0 0.0 
3.000679304375e-04 2.865631606706e-03 0.0 
2.865631606706e-03 4.528321369183e-03 0.0 
0.0 0.0 0.0 
1.505161700821e-03 7.368339798014e-06 0.0 
7.368339798014e-06 3.747725653591e-03 0.0 
0.0 0.0 0.0 
-1.175935245845e-03 6.842122846303e-04 0.0 
6.842122846303e-04 1.676409588705e-02 0.0 
0.0 0.0 0.0 
-4.916345468155e-05 -9.861073842222e-04 0.0 
-9.861073842222e-04 1.770448706924e-03 0.0 
0.0 0.0 0.0 
-1.546835615455e-04 -8.713257968318e-04 0.0 
-8.713257968318e-04 1.511744772487e-03 0.0 
0.0 0.0 0.0 
2.078054625935e-04 -3.918989513589e-05 0.0 
-3.918989513589e-05 5.930379218374e-03 0.0 
0.0 0.0 0.0 
1.957939247207e-03 7.346237263968e-04 0.0 
7.346237263968e-04 3.712635325840e-03 0.0 
0.0 0.0 0.0 
6.447721052546e-04 2.928159327184e-03 0.0 
2.928159327184e-03 7.891127658139e-03 0.0 
0.0 0.0 0.0 
8.736783735193e-04 2.863054421201e-03 0.0 
2.863054421201e-03 7.493248568692e-03 0.0 
0.0 0.0 0.0 
6.453064961957e-04 2.970630388921e-03 0.0 
2.970630388921e-03 8.305500594234e-03 0.0 
0.0 0.0 0.0 
8.376311944932e-04 2.911915478248e-03 0.0 
2.911915478248e-03 7.937987373085e-03 0.0 
0.0 0.0 0.0 
6.128943702168e-04 3.036957062525e-03 0.0 
3.036957062525e-03 8.740188809351e-03 0.0 
0.0 0.0 0.0 
7.637035319530e-04 2.988011265564e-03 0.0 
2.988011265564e-03 8.403436335139e-03 0.0 
0.0 0.0 0.0 
9.887137672024e-04 2.836002136339e-03 0.0 
2.836002136339e-03 7.626635125097e-03 0.0 
0.0 0.0 0.0 
1.350884663851e-03 2.325946936394e-03 0.0 
2.325946936394e-03 6.459462113146e-03 0.0 
0.0 0.0 0.0 
8.701182543845e-04 2.926522821874e-03 0.0 
2.926522821874e-03 8.130564983101e-03 0.0 
0.0 0.0 0.0 
-1.276617611267e-03 1.725258874640e-04 0.0 
1.725258874640e-04 1.598152022529e-02 0.0 
0.0 0.0 0.0 
1.928271146057e-03 1.890052247458e-03 0.0 
1.890052247458e-03 4.556123063680e-03 0.0 
0.0 0.0 0.0 
8.437117401521e-04 -1.921572594262e-03 0.0 
-1.921572594262e-03 6.724121068811e-04 0.0 
0.0 0.0 0.0 
5.056901073996e-05 -3.776542833052e-04 0.0 
-3.776542833052e-04 1.324027985648e-03 0.0 
0.0 0.0 0.0 
-3.203146714565e-04 -1.803076299265e-03 0.0 
-1.803076299265e-03 7.876663082298e-04 0.0 
0.0 0.0 0.0 
1.002564811272e-04 -2.764389713069e-04 0.0 
-2.764389713069e-04 1.639783965016e-03 0.0 
0.0 0.0 0.0 
6.010543653075e-05 -3.251062473130e-04 0.0 
-3.251062473130e-04 2.024781856464e-03 0.0 
0.0 0.0 0.0 
9.959104890481e-04 5.496334514748e-04 0.0 
5.496334514748e-04 5.488855765835e-03 0.0 
0.0 0.0 0.0 
5.467876610057e-04 3.135456983042e-03 0.0 
3.135456983042e-03 9.197345857424e-03 0.0 
0.0 0.0 0.0 
3.996046108492e-04 3.152128232601e-03 0.0 
3.152128232601e-03 9.536024877115e-03 0.0 
0.0 0.0 0.0 
-2.672751229332e-04 2.830401189164e-03 0.0 
2.830401189164e-03 6.012186776437e-03 0.0 
0.0 0.0 0.0 
-3.725873102050e-04 2.805492737025e-03 0.0 
2.805492737025e-03 6.837611489238e-03 0.0 
0.0 0.0 0.0 
1.303581568702e-03 2.188057535856e-03 0.0 
2.188057535856e-03 6.424597179322e-03 0.0 
0.0 0.0 0.0 
-2.073602685873e-03 1.266295321494e-03 0.0 
1.266295321494e-03 1.554616438321e-02 0.0 
0.0 0.0 0.0 
-1.724365004295e-03 5.286742059248e-04 0.0 
5.286742059248e-04 1.593946281368e-02 0.0 
0.0 0.0 0.0 
-1.625650703115e-03 3.411676529570e-04 0.0 
3.411676529570e-04 1.577679261665e-02 0.0 
0.0 0.0 0.0 
1.902466825867e-04 -2.164373900814e-04 0.0 
-2.164373900814e-04 1.192364925782e-03 0.0 
0.0 0.0 0.0 
-2.940422990259e-04 -2.085607842868e-03 0.0 
-2.085607842868e-03 3.676753616502e-04 0.0 
0.0 0.0 0.0 
-1.305190698261e-03 1.177093787263e-03 0.0 
1.177093787263e-03 1.671244835982e-02 0.0 
0.0 0.0 0.0 
1.447085295537e-03 2.633226762534e-03 0.0 
2.633226762534e-03 1.025440119642e-03 0.0 
0.0 0.0 0.0 
8.210145433521e-04 2.920257809568e-03 0.0 
2.920257809568e-03 1.732225276112e-03 0.0 
0.0 0.0 0.0 
2.196467509543e-03 1.035668829582e-03 0.0 
1.035668829582e-03 -3.724423541944e-03 0.0 
0.0 0.0 0.0 
1.949222263417e-03 -6.079283126107e-06 0.0 
-6.079283126107e-06 -4.176495757588e-03 0.0 
0.0 0.0 0.0 
-1.078874068068e-03 2.393099396811e-04 0.0 
2.393099396811e-04 1.650787518116e-02 0.0 
0.0 0.0 0.0 
-9.238431970366e-04 3.129764165972e-04 0.0 
3.129764165972e-04 1.681601370776e-02 0.0 
0.0 0.0 0.0 
2.786061445577e-04 -4.556093769290e-04 0.0 
-4.556093769290e-04 3.686819217290e-03 0.0 
0.0 0.0 0.0 
2.292357068346e-04 -3.472490526889e-04 0.0 
-3.472490526889e-04 3.927219977689e-03 0.0 
0.0 0.0 0.0 
1.192433249907e-03 6.192157725994e-04 0.0 
6.192157725994e-04 5.186306946468e-03 0.0 
0.0 0.0 0.0 
-2.794138792613e-04 -1.576667477313e-03 0.0 
-1.576667477313e-03 1.110887926816e-03 0.0 
0.0 0.0 0.0 
-8.755638094536e-04 4.447240488524e-04 0.0 
4.447240488524e-04 1.695094306825e-02 0.0 
0.0 0.0 0.0 
1.788705981127e-03 6.095228770296e-04 0.0 
6.095228770296e-04 3.964256324588e-03 0.0 
0.0 0.0 0.0 
1.959861645364e-03 4.201663771704e-04 0.0 
4.201663771704e-04 3.345237851515e-03 0.0 
0.0 0.0 0.0 
1.271021354412e-04 -3.269095942044e-04 0.0 
-3.269095942044e-04 3.434004808131e-03 0.0 
0.0 0.0 0.0 
5.938898112428e-04 3.117053711622e-03 0.0 
3.117053711622e-03 4.540010379787e-04 0.0 
0.0 0.0 0.0 
9.113955991217e-04 2.976260600009e-03 0.0 
2.976260600009e-03 -7.308407882332e-04 0.0 
0.0 0.0 0.0 
1.320469008415e-03 -1.793099055030e-03 0.0 
-1.793099055030e-03 3.948018922719e-04 0.0 
0.0 0.0 0.0 
2.446230987422e-05 -1.672756763222e-03 0.0 
-1.672756763222e-03 1.225830624532e-03 0.0 
0.0 0.0 0.0 
1.029363017474e-04 -2.182547452195e-04 0.0 
-2.182547452195e-04 1.811974731386e-03 0.0 
0.0 0.0 0.0 
9.477749540023e-04 7.767015233044e-04 0.0 
7.767015233044e-04 5.808775262496e-03 0.0 
0.0 0.0 0.0 
-1.236317646055e-03 1.448608116823e-03 0.0 
1.448608116823e-03 1.668550467631e-02 0.0 
0.0 0.0 0.0 
1.088972150544e-03 2.744451304887e-03 0.0 
2.744451304887e-03 7.380128492354e-03 0.0 
0.0 0.0 0.0 
1.215712123343e-03 2.673625101336e-03 0.0 
2.673625101336e-03 6.855014489819e-03 0.0 
0.0 0.0 0.0 
9.282182877800e-04 2.849167246553e-03 0.0 
2.849167246553e-03 7.915411173493e-03 0.0 
0.0 0.0 0.0 
-4.888022255990e-04 -1.312928501816e-03 0.0 
-1.312928501816e-03 9.888090099129e-04 0.0 
0.0 0.0 0.0 
8.012378137118e-04 4.841721406396e-04 0.0 
4.841721406396e-04 5.809257256422e-03 0.0 
0.0 0.0 0.0 
1.821103100560e-04 -5.554153018596e-05 0.0 
-5.554153018596e-05 5.736987950496e-03 0.0 
0.0 0.0 0.0 
3.412849146388e-04 3.273495894481e-03 0.0 
3.273495894481e-03 9.971014151795e-03 0.0 
0.0 0.0 0.0 
2.063730711703e-04 3.258008667503e-03 0.0 
3.258008667503e-03 1.031843747404e-02 0.0 
0.0 0.0 0.0 
1.187668226789e-03 2.724699115413e-03 0.0 
2.724699115413e-03 2.023631031521e-03 0.0 
0.0 0.0 0.0 
6.118909426328e-04 2.903927464474e-03 0.0 
2.903927464474e-03 2.715075909784e-03 0.0 
0.0 0.0 0.0 
1.518649962550e-04 3.049172296107e-03 0.0 
3.049172296107e-03 2.538862040771e-03 0.0 
0.0 0.0 0.0 
2.183108590675e-05 2.971502585175e-03 0.0 
2.971502585175e-03 3.459974112767e-03 0.0 
0.0 0.0 0.0 
-1.470806325339e-03 2.576320451375e-03 0.0 
2.576320451375e-03 1.253359217846e-02 0.0 
0.0 0.0 0.0 
9.656002964902e-04 2.772742464197e-03 0.0 
2.772742464197e-03 2.978233337331e-03 0.0 
0.0 0.0 0.0 
-8.082332446088e-04 2.842360969359e-03 0.0 
2.842360969359e-03 1.039347162350e-02 0.0 
0.0 0.0 0.0 
-1.113393904351e-03 2.727894979532e-03 0.0 
2.727894979532e-03 1.095663230302e-02 0.0 
0.0 0.0 0.0 
-9.334553962486e-04 2.760569390203e-03 0.0 
2.760569390203e-03 1.014030037379e-02 0.0 
0.0 0.0 0.0 
-1.248042526120e-04 2.857946696241e-03 0.0 
2.857946696241e-03 7.064526643256e-03 0.0 
0.0 0.0 0.0 
-4.920435713519e-04 2.789387469709e-03 0.0 
2.789387469709e-03 7.662871945875e-03 0.0 
0.0 0.0 0.0 
2.122273261747e-03 2.025428695780e-03 0.0 
2.025428695780e-03 1.025271282566e-03 0.0 
0.0 0.0 0.0 
2.228740226540e-03 1.545503588965e-03 0.0 
1.545503588965e-03 3.277936415160e-03 0.0 
0.0 0.0 0.0 
3.348563001995e-04 -5.751350936857e-04 0.0 
-5.751350936857e-04 3.433863865662e-03 0.0 
0.0 0.0 0.0 
5.167379780227e-04 -3.724812732817e-04 0.0 
-3.724812732817e-04 4.270123899118e-03 0.0 
0.0 0.0 0.0 
1.450737139036e-03 -4.335181213115e-04 0.0 
-4.335181213115e-04 3.071539411650e-03 0.0 
0.0 0.0 0.0 
-1.151619332563e-03 8.869011225286e-04 0.0 
8.869011225286e-04 1.685119897934e-02 0.0 
0.0 0.0 0.0 
-9.559870131774e-04 8.387461395726e-04 0.0 
8.387461395726e-04 1.700649285008e-02 0.0 
0.0 0.0 0.0 
-1.471559967530e-03 2.336426593393e-04 0.0 
2.336426593393e-04 1.578985416185e-02 0.0 
0.0 0.0 0.0 
-1.412535911010e-03 1.416580942925e-04 0.0 
1.416580942925e-04 1.559417193172e-02 0.0 
0.0 0.0 0.0 
-1.005798839250e-04 -6.164088192971e-04 0.0 
-6.164088192971e-04 1.364282574429e-03 0.0 
0.0 0.0 0.0 
-1.979660082093e-04 -6.840262247747e-04 0.0 
-6.840262247747e-04 1.220464576214e-03 0.0 
0.0 0.0 0.0 
9.053133291198e-04 -6.577559156327e-04 0.0 
-6.577559156327e-04 3.302853712600e-03 0.0 
0.0 0.0 0.0 
8.168034107750e-04 3.060102182226e-04 0.0 
3.060102182226e-04 5.538344315031e-03 0.0 
0.0 0.0 0.0 
-1.316726243336e-03 1.826711043406e-03 0.0 
1.826711043406e-03 1.632860658324e-02 0.0 
0.0 0.0 0.0 
-1.165049524636e-03 2.134619367086e-03 0.0 
2.134619367086e-03 1.613381904495e-02 0.0 
0.0 0.0 0.0 
-1.298868554264e-03 2.237706071770e-03 0.0 
2.237706071770e-03 1.576051710012e-02 0.0 
0.0 0.0 0.0 
1.146084153207e-03 8.673480145486e-04 0.0 
8.673480145486e-04 5.520375869126e-03 0.0 
0.0 0.0 0.0 
2.701969688595e-03 6.426683832229e-04 0.0 
6.426683832229e-04 -9.123144511125e-06 0.0 
0.0 0.0 0.0 
2.256255844175e-03 7.428648963521e-04 0.0 
7.428648963521e-04 2.871247975131e-03 0.0 
0.0 0.0 0.0 
2.146155311456e-03 -1.086456443911e-03 0.0 
-1.086456443911e-03 -3.852629743753e-03 0.0 
0.0 0.0 0.0 
1.336221562591e-03 2.608617916473e-03 0.0 
2.608617916473e-03 5.882529013161e-03 0.0 
0.0 0.0 0.0 
-4.725145949484e-05 -4.414982167636e-04 0.0 
-4.414982167636e-04 1.004421020373e-03 0.0 
0.0 0.0 0.0 
-2.331025617339e-04 3.093891394339e-03 0.0 
3.093891394339e-03 1.075314421180e-02 0.0 
0.0 0.0 0.0 
1.507207689342e-04 -1.836527937213e-05 0.0 
-1.836527937213e-05 6.172397138188e-03 0.0 
0.0 0.0 0.0 
1.628458194812e-04 3.520190853874e-06 0.0 
3.520190853874e-06 6.376232453486e-03 0.0 
0.0 0.0 0.0 
1.094730442145e-03 2.446487539741e-03 0.0 
2.446487539741e-03 7.075010716176e-03 0.0 
0.0 0.0 0.0 
-1.911509398552e-03 2.274605133168e-03 0.0 
2.274605133168e-03 1.290270615385e-02 0.0 
0.0 0.0 0.0 
1.522578689437e-03 2.464164660574e-03 0.0 
2.464164660574e-03 5.587592831760e-03 0.0 
0.0 0.0 0.0 
1.743089435425e-03 2.271562511418e-03 0.0 
2.271562511418e-03 4.825900834315e-03 0.0 
0.0 0.0 0.0 
-1.226829198032e-03 2.626149175451e-03 0.0 
2.626149175451e-03 1.070775719185e-02 0.0 
0.0 0.0 0.0 
-1.076983045297e-03 2.647810110625e-03 0.0 
2.647810110625e-03 9.910927585731e-03 0.0 
0.0 0.0 0.0 
-7.700158203400e-04 2.773922671776e-03 0.0 
2.773922671776e-03 9.326202094509e-03 0.0 
0.0 0.0 0.0 
-9.547958052543e-04 2.663544782218e-03 0.0 
2.663544782218e-03 9.104601000516e-03 0.0 
0.0 0.0 0.0 
1.092166436278e-03 -1.669904699590e-03 0.0 
-1.669904699590e-03 9.642017906526e-04 0.0 
0.0 0.0 0.0 
6.866638801334e-04 -1.712460730509e-03 0.0 
-1.712460730509e-03 1.179041513243e-03 0.0 
0.0 0.0 0.0 
4.358662955332e-04 3.299311143433e-03 0.0 
3.299311143433e-03 9.721346026583e-03 0.0 
0.0 0.0 0.0 
7.208044740277e-04 3.067883648806e-03 0.0 
3.067883648806e-03 8.646129522452e-03 0.0 
0.0 0.0 0.0 
1.841267201588e-04 3.411106948259e-03 0.0 
3.411106948259e-03 1.072463314143e-02 0.0 
0.0 0.0 0.0 
4.728952342538e-05 3.369274296512e-03 0.0 
3.369274296512e-03 1.109616482503e-02 0.0 
0.0 0.0 0.0 
1.019168035751e-03 2.318731826379e-03 0.0 
2.318731826379e-03 7.059424675631e-03 0.0 
0.0 0.0 0.0 
1.225356761713e-03 2.046196441892e-03 0.0 
2.046196441892e-03 6.437381118468e-03 0.0 
0.0 0.0 0.0 
6.328156690716e-05 -2.476821131488e-04 0.0 
-2.476821131488e-04 2.189307496814e-03 0.0 
0.0 0.0 0.0 
-7.593430318316e-04 2.698706102892e-03 0.0 
2.698706102892e-03 7.463091257138e-03 0.0 
0.0 0.0 0.0 
-1.027740348766e-03 1.373312017591e-03 0.0 
1.373312017591e-03 1.689235985244e-02 0.0 
0.0 0.0 0.0 
-1.407017498520e-03 2.579534357600e-03 0.0 
2.579534357600e-03 1.152151555346e-02 0.0 
0.0 0.0 0.0 
6.139273926373e-04 4.191152886764e-04 0.0 
4.191152886764e-04 6.109845426349e-03 0.0 
0.0 0.0 0.0 
6.426221243155e-04 2.712541743680e-04 0.0 
2.712541743680e-04 5.863731533490e-03 0.0 
0.0 0.0 0.0 
1.313104727459e-03 -9.954829439454e-04 0.0 
-9.954829439454e-04 -4.233747382821e-03 0.0 
0.0 0.0 0.0 
1.291210402172e-03 -2.108651015537e-03 0.0 
-2.108651015537e-03 -3.288426946621e-03 0.0 
0.0 0.0 0.0 
-7.260667149131e-04 3.853550833757e-04 0.0 
3.853550833757e-04 1.709435857559e-02 0.0 
0.0 0.0 0.0 
-5.039422117667e-04 3.029857659057e-03 0.0 
3.029857659057e-03 3.358597354583e-03 0.0 
0.0 0.0 0.0 
-5.569906561794e-04 2.915547480982e-03 0.0 
2.915547480982e-03 4.196172042968e-03 0.0 
0.0 0.0 0.0 
-3.912120520874e-04 3.133802971191e-03 0.0 
3.133802971191e-03 2.450319534165e-03 0.0 
0.0 0.0 0.0 
4.253764059129e-05 7.800292560386e-06 0.0 
7.800292560386e-06 7.120669073532e-03 0.0 
0.0 0.0 0.0 
-1.313757791209e-03 1.223811897147e-05 0.0 
1.223811897147e-05 1.475755420386e-02 0.0 
0.0 0.0 0.0 
1.129098157013e-04 9.852950977397e-06 0.0 
9.852950977397e-06 6.617432089839e-03 0.0 
0.0 0.0 0.0 
-2.819098972344e-04 2.860822118972e-03 0.0 
2.860822118972e-03 7.906490134614e-03 0.0 
0.0 0.0 0.0 
-6.502901781337e-04 5.380998619533e-04 0.0 
5.380998619533e-04 1.720952662489e-02 0.0 
0.0 0.0 0.0 
1.656638126524e-03 2.303301498954e-03 0.0 
2.303301498954e-03 5.371274333123e-03 0.0 
0.0 0.0 0.0 
1.019327937173e-03 2.736723738394e-03 0.0 
2.736723738394e-03 4.224263315430e-03 0.0 
0.0 0.0 0.0 
1.387809554412e-03 6.994939998371e-04 0.0 
6.994939998371e-04 4.888320714494e-03 0.0 
0.0 0.0 0.0 
-8.050536434629e-04 2.403352773403e-04 0.0 
2.403352773403e-04 1.694704674494e-02 0.0 
0.0 0.0 0.0 
-5.733779086481e-04 3.091426864069e-04 0.0 
3.091426864069e-04 1.723903126073e-02 0.0 
0.0 0.0 0.0 
-1.694056632007e-03 3.246271947734e-04 0.0 
3.246271947734e-04 1.557465738689e-02 0.0 
0.0 0.0 0.0 
-1.583424778438e-03 1.764871543212e-04 0.0 
1.764871543212e-04 1.536381828109e-02 0.0 
0.0 0.0 0.0 
-1.825471005577e-03 5.289733268672e-04 0.0 
5.289733268672e-04 1.573003098911e-02 0.0 
0.0 0.0 0.0 
2.121258323545e-03 1.867733006107e-03 0.0 
1.867733006107e-03 -2.865495131680e-03 0.0 
0.0 0.0 0.0 
1.379788524977e-03 2.193215575186e-03 0.0 
2.193215575186e-03 -3.021613717647e-03 0.0 
0.0 0.0 0.0 
-1.000394791957e-03 6.463604497404e-04 0.0 
6.463604497404e-04 1.691766997967e-02 0.0 
0.0 0.0 0.0 
6.448461443191e-05 -4.732964874953e-04 0.0 
-4.732964874953e-04 2.553989233498e-03 0.0 
0.0 0.0 0.0 
6.553700390526e-05 -3.583198987287e-04 0.0 
-3.583198987287e-04 2.782973342483e-03 0.0 
0.0 0.0 0.0 
-2.003359462678e-04 -1.354687526584e-03 0.0 
-1.354687526584e-03 1.365427170902e-03 0.0 
0.0 0.0 0.0 
4.670705052590e-05 -1.422722452038e-03 0.0 
-1.422722452038e-03 1.529664485554e-03 0.0 
0.0 0.0 0.0 
3.823710848500e-04 -4.865063425716e-04 0.0 
-4.865063425716e-04 3.788881214949e-03 0.0 
0.0 0.0 0.0 
4.623489935835e-04 -6.038001672282e-04 0.0 
-6.038001672282e-04 3.511886926374e-03 0.0 
0.0 0.0 0.0 
6.509452970279e-06 3.132105917821e-03 0.0 
3.132105917821e-03 1.031431705965e-02 0.0 
0.0 0.0 0.0 
-1.714560701846e-04 3.181714314472e-03 0.0 
3.181714314472e-03 1.108768662011e-02 0.0 
0.0 0.0 0.0 
4.206014741529e-04 3.008491515196e-03 0.0 
3.008491515196e-03 8.711626972631e-03 0.0 
0.0 0.0 0.0 
1.772377583940e-03 3.179986511664e-04 0.0 
3.179986511664e-04 3.644126334818e-03 0.0 
0.0 0.0 0.0 
1.909932612502e-03 1.113158368841e-04 0.0 
1.113158368841e-04 3.049191965363e-03 0.0 
0.0 0.0 0.0 
2.099473110868e-03 2.247391323320e-04 0.0 
2.247391323320e-04 2.733503990106e-03 0.0 
0.0 0.0 0.0 
-8.917333272581e-04 1.049572216367e-03 0.0 
1.049572216367e-03 1.705142276091e-02 0.0 
0.0 0.0 0.0 
-6.515450550704e-04 9.894361598836e-04 0.0 
9.894361598836e-04 1.721451741588e-02 0.0 
0.0 0.0 0.0 
1.497523412342e-03 -1.494512478623e-03 0.0 
-1.494512478623e-03 7.886617007595e-04 0.0 
0.0 0.0 0.0 
1.763332201505e-03 -1.509567621686e-03 0.0 
-1.509567621686e-03 2.055492933646e-04 0.0 
0.0 0.0 0.0 
9.090503657392e-04 -1.513219563151e-03 0.0 
-1.513219563151e-03 1.447395281528e-03 0.0 
0.0 0.0 0.0 
-9.201561977410e-04 1.649983536336e-03 0.0 
1.649983536336e-03 1.683362013500e-02 0.0 
0.0 0.0 0.0 
1.136560629690e-04 3.554730544247e-05 0.0 
3.554730544247e-05 6.827884211666e-03 0.0 
0.0 0.0 0.0 
1.646676887606e-04 3.433007914377e-05 0.0 
3.433007914377e-05 6.582579347568e-03 0.0 
0.0 0.0 0.0 
-1.165086885128e-04 -4.598421524543e-04 0.0 
-4.598421524543e-04 8.644846828390e-04 0.0 
0.0 0.0 0.0 
-3.028488140823e-04 -7.500077657250e-04 0.0 
-7.500077657250e-04 1.072531858196e-03 0.0 
0.0 0.0 0.0 
1.053682706644e-05 3.210335841152e-03 0.0 
3.210335841152e-03 4.108504618424e-04 0.0 
0.0 0.0 0.0 
3.121688349939e-04 3.111097762757e-03 0.0 
3.111097762757e-03 -7.534012612814e-04 0.0 
0.0 0.0 0.0 
-9.739661807271e-04 2.429591899434e-03 0.0 
2.429591899434e-03 1.586792355293e-02 0.0 
0.0 0.0 0.0 
-1.100528173749e-03 2.535013401433e-03 0.0 
2.535013401433e-03 1.545679692719e-02 0.0 
0.0 0.0 0.0 
-7.891050031416e-04 2.356138505792e-03 0.0 
2.356138505792e-03 1.623652010525e-02 0.0 
0.0 0.0 0.0 
1.038457119028e-04 -1.457602297767e-04 0.0 
-1.457602297767e-04 1.949335850293e-03 0.0 
0.0 0.0 0.0 
1.312774906042e-03 2.561917758113e-03 0.0 
2.561917758113e-03 6.655051042697e-03 0.0 
0.0 0.0 0.0 
8.635459261378e-04 1.020786810773e-03 0.0 
1.020786810773e-03 6.154631888762e-03 0.0 
0.0 0.0 0.0 
1.072408622321e-03 1.134420194226e-03 0.0 
1.134420194226e-03 5.900441678464e-03 0.0 
0.0 0.0 0.0 
6.348655597873e-04 9.215595466168e-04 0.0 
9.215595466168e-04 6.525691407787e-03 0.0 
0.0 0.0 0.0 
1.141494044874e-03 2.560375524856e-03 0.0 
2.560375524856e-03 7.125390532116e-03 0.0 
0.0 0.0 0.0 
8.688073749187e-04 2.677230160672e-03 0.0 
2.677230160672e-03 7.714788155705e-03 0.0 
0.0 0.0 0.0 
7.030791344742e-04 2.989239199843e-03 0.0 
2.989239199843e-03 8.482190097752e-03 0.0 
0.0 0.0 0.0 
8.552614546710e-04 6.273463225718e-05 0.0 
6.273463225718e-05 -4.521982702894e-03 0.0 
0.0 0.0 0.0 
-6.230927182431e-04 1.888115345239e-04 0.0 
1.888115345239e-04 1.715357267584e-02 0.0 
0.0 0.0 0.0 
-1.457417980517e-03 1.134280730692e-04 0.0 
1.134280730692e-04 1.536429869074e-02 0.0 
0.0 0.0 0.0 
5.422815232796e-05 -6.378368497939e-04 0.0 
-6.378368497939e-04 -4.376117721402e-03 0.0 
0.0 0.0 0.0 
-1.390786964359e-03 5.881739154129e-05 0.0 
5.881739154129e-05 1.515571842046e-02 0.0 
0.0 0.0 0.0 
-1.367667748097e-03 8.110665090087e-05 0.0 
8.110665090087e-05 1.538826283508e-02 0.0 
0.0 0.0 0.0 
-1.354182244043e-03 2.677741930914e-05 0.0 
2.677741930914e-05 1.492427173816e-02 0.0 
0.0 0.0 0.0 
1.701662339728e-04 -1.278146589524e-04 0.0 
-1.278146589524e-04 1.549060209465e-03 0.0 
0.0 0.0 0.0 
-1.734057562965e-03 2.768533878622e-04 0.0 
2.768533878622e-04 1.529378772172e-02 0.0 
0.0 0.0 0.0 
-1.917605785997e-03 5.532133411681e-04 0.0 
5.532133411681e-04 1.551577653552e-02 0.0 
0.0 0.0 0.0 
-1.466474293911e-04 -4.036052871230e-04 0.0 
-4.036052871230e-04 6.304175479507e-04 0.0 
0.0 0.0 0.0 
-6.685247560659e-04 1.542983366942e-03 0.0 
1.542983366942e-03 1.703053685935e-02 0.0 
0.0 0.0 0.0 
7.917999761951e-05 -2.619382710579e-04 0.0 
-2.619382710579e-04 6.092880123617e-04 0.0 
0.0 0.0 0.0 
1.241166950187e-04 -2.739681868934e-04 0.0 
-2.739681868934e-04 7.496566431049e-04 0.0 
0.0 0.0 0.0 
4.747627592639e-04 3.685936260837e-04 0.0 
3.685936260837e-04 6.421197726967e-03 0.0 
0.0 0.0 0.0 
4.944518232275e-04 2.338457989021e-04 0.0 
2.338457989021e-04 6.170827294133e-03 0.0 
0.0 0.0 0.0 
3.309223155408e-04 3.049190138588e-04 0.0 
3.049190138588e-04 6.700537301036e-03 0.0 
0.0 0.0 0.0 
3.556985821644e-04 2.056552028139e-04 0.0 
2.056552028139e-04 6.449620814068e-03 0.0 
0.0 0.0 0.0 
4.875475544733e-04 1.225770627851e-04 0.0 
1.225770627851e-04 5.947937137585e-03 0.0 
0.0 0.0 0.0 
3.616230135359e-04 1.159697735517e-04 0.0 
1.159697735517e-04 6.253233385232e-03 0.0 
0.0 0.0 0.0 
-1.477550930101e-03 8.587615494702e-05 0.0 
8.587615494702e-05 1.513113443415e-02 0.0 
0.0 0.0 0.0 
2.344497998560e-04 1.868185532113e-04 0.0 
1.868185532113e-04 6.811109761726e-03 0.0 
0.0 0.0 0.0 
2.509372397825e-04 1.017561744085e-04 0.0 
1.017561744085e-04 6.551889515807e-03 0.0 
0.0 0.0 0.0 
1.440817367134e-04 1.421342616038e-04 0.0 
1.421342616038e-04 7.102064533252e-03 0.0 
0.0 0.0 0.0 
-1.262661154041e-03 2.489743441725e-03 0.0 
2.489743441725e-03 9.734001504670e-03 0.0 
0.0 0.0 0.0 
-9.035034737990e-05 2.911946356346e-03 0.0 
2.911946356346e-03 4.321796233658e-03 0.0 
0.0 0.0 0.0 
-5.973123425336e-04 2.817449145518e-03 0.0 
2.817449145518e-03 5.027799540596e-03 0.0 
0.0 0.0 0.0 
-1.125410585827e-03 2.761854722169e-03 0.0 
2.761854722169e-03 4.995868383283e-03 0.0 
0.0 0.0 0.0 
4.741117209062e-05 3.579651454576e-03 0.0 
3.579651454576e-03 1.155160029628e-02 0.0 
0.0 0.0 0.0 
-8.420631911799e-05 3.456365761136e-03 0.0 
3.456365761136e-03 1.181436108701e-02 0.0 
0.0 0.0 0.0 
1.383618376604e-04 -2.701892532559e-05 0.0 
-2.701892532559e-05 5.976190454897e-03 0.0 
0.0 0.0 0.0 
1.579948972561e-04 -5.298707260840e-05 0.0 
-5.298707260840e-05 5.550068924869e-03 0.0 
0.0 0.0 0.0 
-1.339098471150e-03 4.126314317874e-05 0.0 
4.126314317874e-05 1.515987462942e-02 0.0 
0.0 0.0 0.0 
-1.311619761506e-03 2.583524442795e-05 0.0 
2.583524442795e-05 1.512850591089e-02 0.0 
0.0 0.0 0.0 
-1.301345755169e-03 6.937017093975e-05 0.0 
6.937017093975e-05 1.550204568115e-02 0.0 
0.0 0.0 0.0 
-1.279642514426e-03 4.220055588820e-05 0.0 
4.220055588820e-05 1.544689867448e-02 0.0 
0.0 0.0 0.0 
-1.245373465234e-03 8.963994213668e-05 0.0 
8.963994213668e-05 1.580524187981e-02 0.0 
0.0 0.0 0.0 
-1.226971141447e-03 5.015536522857e-05 0.0 
5.015536522857e-05 1.574155883387e-02 0.0 
0.0 0.0 0.0 
-1.170491685142e-03 9.625878332194e-05 0.0 
9.625878332194e-05 1.609065353227e-02 0.0 
0.0 0.0 0.0 
4.924454458420e-04 3.256940589576e-03 0.0 
3.256940589576e-03 9.276248259170e-03 0.0 
0.0 0.0 0.0 
-1.062188272784e-03 3.019396849596e-03 0.0 
3.019396849596e-03 3.289908504035e-03 0.0 
0.0 0.0 0.0 
-1.504208271335e-03 2.455834793924e-03 0.0 
2.455834793924e-03 1.129548495368e-02 0.0 
0.0 0.0 0.0 
8.999419390200e-04 2.175826514248e-03 0.0 
2.175826514248e-03 7.083943317430e-03 0.0 
0.0 0.0 0.0 
1.115138646418e-03 1.894184932872e-03 0.0 
1.894184932872e-03 6.465537979191e-03 0.0 
0.0 0.0 0.0 
-8.454229660648e-04 2.672593922664e-03 0.0 
2.672593922664e-03 8.277227326655e-03 0.0 
0.0 0.0 0.0 
-1.131526890059e-03 2.532406525402e-03 0.0 
2.532406525402e-03 8.147668994630e-03 0.0 
0.0 0.0 0.0 
5.295967758975e-04 6.019132816089e-04 0.0 
6.019132816089e-04 6.497704400738e-03 0.0 
0.0 0.0 0.0 
1.451238711079e-03 2.564803267735e-03 0.0 
2.564803267735e-03 2.391479515789e-03 0.0 
0.0 0.0 0.0 
-4.676280887931e-04 1.860265254723e-03 0.0 
1.860265254723e-03 1.693410624795e-02 0.0 
0.0 0.0 0.0 
-1.228358586269e-03 2.170099673048e-03 0.0 
2.170099673048e-03 -2.954588773374e-03 0.0 
0.0 0.0 0.0 
3.056997472030e-04 2.106827546577e-03 0.0 
2.106827546577e-03 -3.445343683391e-03 0.0 
0.0 0.0 0.0 
1.226118139026e-03 2.660524237870e-03 0.0 
2.660524237870e-03 3.313106253761e-03 0.0 
0.0 0.0 0.0 
-6.261525394947e-04 2.782545270168e-03 0.0 
2.782545270168e-03 8.499083790404e-03 0.0 
0.0 0.0 0.0 
-1.794192664429e-04 2.855026015445e-03 0.0 
2.855026015445e-03 5.171837074376e-03 0.0 
0.0 0.0 0.0 
-6.325804537167e-04 2.782027107035e-03 0.0 
2.782027107035e-03 5.858287374129e-03 0.0 
0.0 0.0 0.0 
1.602198753361e-03 5.170298074030e-04 0.0 
5.170298074030e-04 4.256062229814e-03 0.0 
0.0 0.0 0.0 
-3.946088281926e-04 -8.350603495807e-04 0.0 
-8.350603495807e-04 9.285926731754e-04 0.0 
0.0 0.0 0.0 
-2.308319223554e-04 3.205321213625e-03 0.0 
3.205321213625e-03 1.471304982243e-03 0.0 
0.0 0.0 0.0 
-1.198394331000e-03 1.615145294091e-04 0.0 
1.615145294091e-04 1.614297345349e-02 0.0 
0.0 0.0 0.0 
-8.287081145219e-04 3.172943264155e-03 0.0 
3.172943264155e-03 1.487444128060e-03 0.0 
0.0 0.0 0.0 
1.299847363963e-04 -1.977949061124e-05 0.0 
-1.977949061124e-05 5.794375702885e-03 0.0 
0.0 0.0 0.0 
1.871058879117e-03 2.263975162417e-03 0.0 
2.263975162417e-03 1.933362591619e-03 0.0 
0.0 0.0 0.0 
6.911289778020e-05 2.894660741603e-03 0.0 
2.894660741603e-03 7.333232532435e-03 0.0 
0.0 0.0 0.0 
3.403132983070e-04 3.120021173217e-03 0.0 
3.120021173217e-03 1.542810085083e-03 0.0 
0.0 0.0 0.0 
4.431696140627e-04 2.887208240986e-03 0.0 
2.887208240986e-03 3.647959194503e-03 0.0 
0.0 0.0 0.0 
-1.177424671532e-03 2.744027205211e-03 0.0 
2.744027205211e-03 1.198622741797e-02 0.0 
0.0 0.0 0.0 
-1.757151486889e-03 2.361821152467e-03 0.0 
2.361821152467e-03 1.308447187230e-02 0.0 
0.0 0.0 0.0 
-1.602665857595e-03 2.491166504823e-03 0.0 
2.491166504823e-03 1.232866903264e-02 0.0 
0.0 0.0 0.0 
2.200395410657e-03 1.900863658775e-03 0.0 
1.900863658775e-03 1.599381425244e-03 0.0 
0.0 0.0 0.0 
-6.843895082935e-04 2.729875790035e-03 0.0 
2.729875790035e-03 6.671893148276e-03 0.0 
0.0 0.0 0.0 
-1.108815190990e-03 2.608043389464e-03 0.0 
2.608043389464e-03 6.566035846887e-03 0.0 
0.0 0.0 0.0 
-4.982268695393e-04 2.923122410228e-03 0.0 
2.923122410228e-03 9.840844118924e-03 0.0 
0.0 0.0 0.0 
-1.381219431059e-03 2.345648281929e-03 0.0 
2.345648281929e-03 1.532296976095e-02 0.0 
0.0 0.0 0.0 
-1.163026366423e-03 2.616589066705e-03 0.0 
2.616589066705e-03 1.497594366627e-02 0.0 
0.0 0.0 0.0 
-8.850643986644e-04 2.793280330699e-03 0.0 
2.793280330699e-03 1.510377016464e-02 0.0 
0.0 0.0 0.0 
-9.391343643727e-04 2.860889885618e-03 0.0 
2.860889885618e-03 1.459423588389e-02 0.0 
0.0 0.0 0.0 
-1.175670588648e-03 2.701709300650e-03 0.0 
2.701709300650e-03 1.442935863898e-02 0.0 
0.0 0.0 0.0 
-9.352466455724e-04 2.915725460238e-03 0.0 
2.915725460238e-03 1.401730370527e-02 0.0 
0.0 0.0 0.0 
-7.069839824564e-04 3.078831488686e-03 0.0 
3.078831488686e-03 1.421449187734e-02 0.0 
0.0 0.0 0.0 
-6.925119976447e-04 3.113689669360e-03 0.0 
3.113689669360e-03 1.360043088522e-02 0.0 
0.0 0.0 0.0 
-4.693722765901e-04 3.329569233708e-03 0.0 
3.329569233708e-03 1.387672871047e-02 0.0 
0.0 0.0 0.0 
-4.710155259727e-04 3.283830208494e-03 0.0 
3.283830208494e-03 1.316532559978e-02 0.0 
0.0 0.0 0.0 
-6.284405402871e-04 3.122236641793e-03 0.0 
3.122236641793e-03 1.292473620156e-02 0.0 
0.0 0.0 0.0 
-4.121489574718e-04 3.249840970222e-03 0.0 
3.249840970222e-03 1.249833335860e-02 0.0 
0.0 0.0 0.0 
-2.944505440044e-04 3.425364048681e-03 0.0 
3.425364048681e-03 1.272786864378e-02 0.0 
0.0 0.0 0.0 
-5.357640926115e-04 3.123402311875e-03 0.0 
3.123402311875e-03 1.222961223569e-02 0.0 
0.0 0.0 0.0 
6.489494820091e-04 2.457540326438e-03 0.0 
2.457540326438e-03 7.709749926750e-03 0.0 
0.0 0.0 0.0 
1.405858006920e-03 2.567693256073e-03 0.0 
2.567693256073e-03 3.714378131333e-03 0.0 
0.0 0.0 0.0 
1.340629446022e-03 1.103441057019e-03 0.0 
1.103441057019e-03 -4.049329630120e-03 0.0 
0.0 0.0 0.0 
3.896066791234e-04 2.916221945425e-03 0.0 
2.916221945425e-03 -2.329357495033e-03 0.0 
0.0 0.0 0.0 
-1.132260462040e-04 2.913398469500e-03 0.0 
2.913398469500e-03 8.176655067612e-03 0.0 
0.0 0.0 0.0 
-2.622241829807e-04 3.501486544005e-03 0.0 
3.501486544005e-03 1.437769875084e-02 0.0 
0.0 0.0 0.0 
-3.761642179512e-04 3.104079676051e-03 0.0 
3.104079676051e-03 1.541418487495e-02 0.0 
0.0 0.0 0.0 
1.978542897121e-03 2.211005073882e-03 0.0 
2.211005073882e-03 4.726896580094e-04 0.0 
0.0 0.0 0.0 
5.248590199236e-05 3.810963060587e-03 0.0 
3.810963060587e-03 1.169461400595e-02 0.0 
0.0 0.0 0.0 
-1.303323888173e-03 2.665567096655e-03 0.0 
2.665567096655e-03 1.176012200275e-02 0.0 
0.0 0.0 0.0 
2.413192808962e-03 1.667691818254e-03 0.0 
1.667691818254e-03 -2.313587329671e-03 0.0 
0.0 0.0 0.0 
1.704938927496e-04 3.664818385208e-03 0.0 
3.664818385208e-03 1.063060633323e-02 0.0 
0.0 0.0 0.0 
-1.412016651922e-03 2.456305318762e-03 0.0 
2.456305318762e-03 1.482390338220e-02 0.0 
0.0 0.0 0.0 
-1.392312032986e-03 2.562265981143e-03 0.0 
2.562265981143e-03 1.426023058140e-02 0.0 
0.0 0.0 0.0 
-1.630999871451e-03 2.308665010519e-03 0.0 
2.308665010519e-03 1.467183666627e-02 0.0 
0.0 0.0 0.0 
-4.050863702738e-04 2.663627375038e-03 0.0 
2.663627375038e-03 1.616061515731e-02 0.0 
0.0 0.0 0.0 
-1.924649771771e-03 8.084253031873e-04 0.0 
8.084253031873e-04 1.582958043139e-02 0.0 
0.0 0.0 0.0 
3.300210710995e-04 3.031346958335e-03 0.0 
3.031346958335e-03 8.872537136561e-03 0.0 
0.0 0.0 0.0 
2.098826474990e-03 1.611850044644e-03 0.0 
1.611850044644e-03 3.900519478568e-03 0.0 
0.0 0.0 0.0 
2.057349957814e-03 1.832394643538e-03 0.0 
1.832394643538e-03 3.952260327465e-03 0.0 
0.0 0.0 0.0 
2.151198171322e-03 1.800125236614e-03 0.0 
1.800125236614e-03 3.356039027916e-03 0.0 
0.0 0.0 0.0 
-8.815730251030e-04 2.957730882943e-03 0.0 
2.957730882943e-03 1.337773912640e-02 0.0 
0.0 0.0 0.0 
4.194996449300e-04 2.047147609646e-03 0.0 
2.047147609646e-03 7.614223051949e-03 0.0 
0.0 0.0 0.0 
7.704563312555e-04 1.782422487612e-03 0.0 
1.782422487612e-03 6.907740331282e-03 0.0 
0.0 0.0 0.0 
7.470533305517e-04 1.558982014378e-03 0.0 
1.558982014378e-03 6.760285147147e-03 0.0 
0.0 0.0 0.0 
1.079366881915e-03 1.527913342011e-03 0.0 
1.527913342011e-03 6.197993993599e-03 0.0 
0.0 0.0 0.0 
3.954281517147e-04 1.552871711795e-03 0.0 
1.552871711795e-03 7.297353502860e-03 0.0 
0.0 0.0 0.0 
-1.308300512057e-04 3.750496098532e-03 0.0 
3.750496098532e-03 1.335610423466e-02 0.0 
0.0 0.0 0.0 
-6.598953212561e-05 3.817060745884e-03 0.0 
3.817060745884e-03 1.282262128885e-02 0.0 
0.0 0.0 0.0 
1.604420221515e-03 -1.843270527309e-03 0.0 
-1.843270527309e-03 -2.697215810945e-04 0.0 
0.0 0.0 0.0 
2.061325710749e-03 -1.422593294055e-03 0.0 
-1.422593294055e-03 -4.303314775280e-04 0.0 
0.0 0.0 0.0 
2.127189538332e-03 -1.111111645927e-03 0.0 
-1.111111645927e-03 1.513955945984e-04 0.0 
0.0 0.0 0.0 
2.395088530158e-03 -8.996961748889e-04 0.0 
-8.996961748889e-04 -4.086703218738e-04 0.0 
0.0 0.0 0.0 
2.372199781623e-03 -1.186394520787e-03 0.0 
-1.186394520787e-03 -1.103765636615e-03 0.0 
0.0 0.0 0.0 
2.629047067959e-03 -5.398149279001e-04 0.0 
-5.398149279001e-04 -9.362774982891e-04 0.0 
0.0 0.0 0.0 
2.592655096130e-03 -3.425092278691e-04 0.0 
-3.425092278691e-04 -1.944036071980e-04 0.0 
0.0 0.0 0.0 
2.779199880158e-03 -1.462494526626e-05 0.0 
-1.462494526626e-05 -1.365272199708e-03 0.0 
0.0 0.0 0.0 
-1.238650994741e-04 3.297250028182e-03 0.0 
3.297250028182e-03 1.144788147580e-02 0.0 
0.0 0.0 0.0 
3.319856211150e-04 1.113847111913e-03 0.0 
1.113847111913e-03 7.160437778976e-03 0.0 
0.0 0.0 0.0 
1.394732445336e-03 -2.127715570402e-04 0.0 
-2.127715570402e-04 3.577722205304e-03 0.0 
0.0 0.0 0.0 
1.600843819820e-03 -2.100017218434e-04 0.0 
-2.100017218434e-04 3.203076764938e-03 0.0 
0.0 0.0 0.0 
1.659678121616e-03 -4.414466757361e-04 0.0 
-4.414466757361e-04 2.677993082471e-03 0.0 
0.0 0.0 0.0 
3.982820293707e-04 -7.068841212207e-04 0.0 
-7.068841212207e-04 3.165740604680e-03 0.0 
0.0 0.0 0.0 
5.523481515296e-04 -7.316360807024e-04 0.0 
-7.316360807024e-04 3.216367749414e-03 0.0 
0.0 0.0 0.0 
6.068492187462e-04 -5.996915998676e-04 0.0 
-5.996915998676e-04 3.579751056291e-03 0.0 
0.0 0.0 0.0 
2.695816397219e-04 -6.494058441466e-04 0.0 
-6.494058441466e-04 3.097190100610e-03 0.0 
0.0 0.0 0.0 
1.067064379237e-03 2.775903577855e-03 0.0 
2.775903577855e-03 7.143798150089e-03 0.0 
0.0 0.0 0.0 
3.024894481560e-04 9.191202442862e-04 0.0 
9.191202442862e-04 7.118325086807e-03 0.0 
0.0 0.0 0.0 
2.125320927543e-03 5.617456472946e-04 0.0 
5.617456472946e-04 3.084140274851e-03 0.0 
0.0 0.0 0.0 
6.542001230037e-04 -8.689336727058e-04 0.0 
-8.689336727058e-04 2.898904537152e-03 0.0 
0.0 0.0 0.0 
-1.901137017540e-03 3.841540632958e-04 0.0 
3.841540632958e-04 1.488981788668e-02 0.0 
0.0 0.0 0.0 
-2.158519725559e-03 8.920565231765e-04 0.0 
8.920565231765e-04 1.515519658028e-02 0.0 
0.0 0.0 0.0 
-2.296134157846e-03 1.328752807953e-03 0.0 
1.328752807953e-03 1.492426956386e-02 0.0 
0.0 0.0 0.0 
-2.172915776922e-03 1.391399643045e-03 0.0 
1.391399643045e-03 1.519871102429e-02 0.0 
0.0 0.0 0.0 
-2.002245354195e-03 5.936371088959e-04 0.0 
5.936371088959e-04 1.526845069359e-02 0.0 
0.0 0.0 0.0 
3.124613501089e-04 -3.795340083280e-04 0.0 
-3.795340083280e-04 4.049700504984e-03 0.0 
0.0 0.0 0.0 
2.539985113886e-04 -2.830685132258e-04 0.0 
-2.830685132258e-04 4.294067117069e-03 0.0 
0.0 0.0 0.0 
1.899747314646e-04 -2.470544187432e-04 0.0 
-2.470544187432e-04 4.152048954511e-03 0.0 
0.0 0.0 0.0 
2.072372783538e-04 -1.979089243808e-04 0.0 
-1.979089243808e-04 4.522781169771e-03 0.0 
0.0 0.0 0.0 
1.614038017726e-04 -1.631346495572e-04 0.0 
-1.631346495572e-04 4.352742394230e-03 0.0 
0.0 0.0 0.0 
1.440857867636e-04 -1.991724440678e-04 0.0 
-1.991724440678e-04 4.012751493835e-03 0.0 
0.0 0.0 0.0 
1.707522562723e-04 -1.233978568535e-04 0.0 
-1.233978568535e-04 4.731678635034e-03 0.0 
0.0 0.0 0.0 
1.387491011596e-04 -8.897556533918e-05 0.0 
-8.897556533918e-05 4.516492219061e-03 0.0 
0.0 0.0 0.0 
-1.590809732814e-03 1.287367639993e-04 0.0 
1.287367639993e-04 1.484223279526e-02 0.0 
0.0 0.0 0.0 
-1.308955289075e-03 -1.963698067533e-03 0.0 
-1.963698067533e-03 -8.987697462368e-04 0.0 
0.0 0.0 0.0 
-7.455687881394e-04 -2.366100921321e-03 0.0 
-2.366100921321e-03 -5.889536322255e-04 0.0 
0.0 0.0 0.0 
-8.574557582761e-04 -1.687813475008e-03 0.0 
-1.687813475008e-03 2.849772284208e-04 0.0 
0.0 0.0 0.0 
-3.495531381004e-04 -2.424644164124e-03 0.0 
-2.424644164124e-03 -3.960808557518e-04 0.0 
0.0 0.0 0.0 
3.704654921295e-04 -2.612517281599e-03 0.0 
-2.612517281599e-03 -1.700048801677e-03 0.0 
0.0 0.0 0.0 
5.519327169589e-04 -2.564844392221e-03 0.0 
-2.564844392221e-03 -1.154499918437e-03 0.0 
0.0 0.0 0.0 
1.261520261320e-03 -2.447941668573e-03 0.0 
-2.447941668573e-03 -2.379341914128e-03 0.0 
0.0 0.0 0.0 
-6.979388694498e-05 -2.522478856906e-03 0.0 
-2.522478856906e-03 -2.349141078866e-03 0.0 
0.0 0.0 0.0 
-6.660290383913e-04 -6.346483905637e-04 0.0 
-6.346483905637e-04 3.528925394742e-04 0.0 
0.0 0.0 0.0 
-6.931164587818e-04 -1.124226207515e-03 0.0 
-1.124226207515e-03 5.570296685111e-04 0.0 
0.0 0.0 0.0 
-2.746659288259e-04 -3.624826163946e-04 0.0 
-3.624826163946e-04 3.081696172292e-04 0.0 
0.0 0.0 0.0 
-4.770029635072e-04 -7.417050871179e-04 0.0 
-7.417050871179e-04 6.209601022793e-04 0.0 
0.0 0.0 0.0 
-5.786482193434e-04 -1.430236987703e-03 0.0 
-1.430236987703e-03 7.458300130935e-04 0.0 
0.0 0.0 0.0 
-2.628235007332e-04 -1.002764862428e-03 0.0 
-1.002764862428e-03 1.354693275188e-03 0.0 
0.0 0.0 0.0 
5.048080763216e-05 5.386898543220e-05 0.0 
5.386898543220e-05 7.317801739505e-03 0.0 
0.0 0.0 0.0 
7.292960281913e-05 -8.634977619428e-05 0.0 
-8.634977619428e-05 3.507472646601e-03 0.0 
0.0 0.0 0.0 
6.959036780807e-05 -1.742177820389e-04 0.0 
-1.742177820389e-04 3.320176186454e-03 0.0 
0.0 0.0 0.0 
5.553992439670e-05 -1.766829330885e-04 0.0 
-1.766829330885e-04 2.980821482934e-03 0.0 
0.0 0.0 0.0 
7.612570182736e-05 -2.785658201516e-04 0.0 
-2.785658201516e-04 3.133339369051e-03 0.0 
0.0 0.0 0.0 
9.169028742332e-05 -1.596207820938e-04 0.0 
-1.596207820938e-04 3.637802420236e-03 0.0 
0.0 0.0 0.0 
4.842006361916e-05 -8.593127818930e-05 0.0 
-8.593127818930e-05 2.799941121898e-03 0.0 
0.0 0.0 0.0 
5.187753081056e-05 -1.701296198352e-04 0.0 
-1.701296198352e-04 2.657032111824e-03 0.0 
0.0 0.0 0.0 
6.572593210032e-04 -1.988332054657e-05 0.0 
-1.988332054657e-05 -2.731986804561e-05 0.0 
0.0 0.0 0.0 
5.130781501447e-04 -4.534311411999e-05 0.0 
-4.534311411999e-05 3.528853932809e-04 0.0 
0.0 0.0 0.0 
5.484890022432e-04 -9.587821580844e-06 0.0 
-9.587821580844e-06 3.039700885796e-04 0.0 
0.0 0.0 0.0 
3.755442600583e-04 -5.578859353080e-05 0.0 
-5.578859353080e-05 7.593620432274e-04 0.0 
0.0 0.0 0.0 
3.644965918490e-04 -9.437264242101e-05 0.0 
-9.437264242101e-05 7.515860101203e-04 0.0 
0.0 0.0 0.0 
4.867327196261e-04 -6.239119994584e-05 0.0 
-6.239119994584e-05 3.609366620356e-04 0.0 
0.0 0.0 0.0 
4.372804100561e-04 -8.068852343781e-05 0.0 
-8.068852343781e-05 3.824317672624e-04 0.0 
0.0 0.0 0.0 
5.783967414898e-04 -4.121376745550e-05 0.0 
-4.121376745550e-05 7.798755545481e-06 0.0 
0.0 0.0 0.0 
3.762168705940e-04 -1.093833149733e-04 0.0 
-1.093833149733e-04 4.111941876139e-04 0.0 
0.0 0.0 0.0 
2.632570639437e-04 -1.740683296358e-04 0.0 
-1.740683296358e-04 8.035795196959e-04 0.0 
0.0 0.0 0.0 
5.365230321969e-04 -5.492716845994e-05 0.0 
-5.492716845994e-05 1.710489412745e-05 0.0 
0.0 0.0 0.0 
-9.884619926826e-04 5.871102241784e-05 0.0 
5.871102241784e-05 1.653066962884e-02 0.0 
0.0 0.0 0.0 
-9.141310878798e-04 1.402052341133e-04 0.0 
1.402052341133e-04 1.670728219126e-02 0.0 
0.0 0.0 0.0 
2.514629834136e-04 5.926495845757e-04 0.0 
5.926495845757e-04 7.087090471326e-03 0.0 
0.0 0.0 0.0 
-1.457376477398e-03 5.834845230902e-05 0.0 
5.834845230902e-05 1.485667775180e-02 0.0 
0.0 0.0 0.0 
9.145424154139e-05 -1.625050921892e-04 0.0 
-1.625050921892e-04 2.006304656552e-04 0.0 
0.0 0.0 0.0 
-3.295035779899e-04 6.322585171215e-04 0.0 
6.322585171215e-04 1.745139812696e-02 0.0 
0.0 0.0 0.0 
-3.577316148440e-04 1.195932995740e-03 0.0 
1.195932995740e-03 1.732894625311e-02 0.0 
0.0 0.0 0.0 
-3.149329118548e-04 1.008044897965e-03 0.0 
1.008044897965e-03 1.740167662813e-02 0.0 
0.0 0.0 0.0 
7.656908467516e-05 2.436847632680e-06 0.0 
2.436847632680e-06 6.674197370524e-03 0.0 
0.0 0.0 0.0 
7.299210345409e-05 1.095354490242e-05 0.0 
1.095354490242e-05 6.879674870310e-03 0.0 
0.0 0.0 0.0 
-2.835457255587e-04 3.521456650186e-04 0.0 
3.521456650186e-04 1.749373019118e-02 0.0 
0.0 0.0 0.0 
8.937985676349e-05 -1.028439430998e-03 0.0 
-1.028439430998e-03 2.022473613230e-03 0.0 
0.0 0.0 0.0 
-6.916720939899e-04 3.058343400428e-03 0.0 
3.058343400428e-03 1.474470842002e-02 0.0 
0.0 0.0 0.0 
-8.220522748164e-04 5.989791104547e-04 0.0 
5.989791104547e-04 1.706274978193e-02 0.0 
0.0 0.0 0.0 
1.778504832615e-03 2.441574856228e-03 0.0 
2.441574856228e-03 -1.700368269356e-03 0.0 
0.0 0.0 0.0 
3.245889647137e-04 -1.623277582982e-03 0.0 
-1.623277582982e-03 1.384105064024e-03 0.0 
0.0 0.0 0.0 
2.020195031598e-04 -9.760602958695e-05 0.0 
-9.760602958695e-05 5.317240529446e-03 0.0 
0.0 0.0 0.0 
6.283930969924e-04 -3.254273184602e-04 0.0 
-3.254273184602e-04 4.381686650035e-03 0.0 
0.0 0.0 0.0 
2.304328093622e-04 -8.450975536502e-06 0.0 
-8.450975536502e-06 6.123691402612e-03 0.0 
0.0 0.0 0.0 
3.313166086343e-04 -2.166801232378e-04 0.0 
-2.166801232378e-04 4.823707212048e-03 0.0 
0.0 0.0 0.0 
4.197627639422e-04 -4.708537998001e-05 0.0 
-4.708537998001e-05 5.577945253125e-03 0.0 
0.0 0.0 0.0 
7.350197201587e-04 1.306402599787e-03 0.0 
1.306402599787e-03 6.599913432636e-03 0.0 
0.0 0.0 0.0 
1.771976991526e-04 -1.849057145767e-04 0.0 
-1.849057145767e-04 1.411102599955e-03 0.0 
0.0 0.0 0.0 
-1.537149617824e-03 3.595196461685e-04 0.0 
3.595196461685e-04 1.596978206667e-02 0.0 
0.0 0.0 0.0 
-1.351245318911e-03 1.625560886927e-04 0.0 
1.625560886927e-04 1.579594773466e-02 0.0 
0.0 0.0 0.0 
-1.185317691191e-03 5.115463105250e-04 0.0 
5.115463105250e-04 1.664533989556e-02 0.0 
0.0 0.0 0.0 
5.517647246918e-05 -5.868537711486e-04 0.0 
-5.868537711486e-04 2.357513987468e-03 0.0 
0.0 0.0 0.0 
1.656761710002e-04 -2.954466011904e-04 0.0 
-2.954466011904e-04 3.803064977089e-03 0.0 
0.0 0.0 0.0 
-3.334836339275e-05 -5.465676671763e-04 0.0 
-5.465676671763e-04 1.524768671983e-03 0.0 
0.0 0.0 0.0 
2.644669088359e-04 3.511735883724e-03 0.0 
3.511735883724e-03 1.045705550839e-02 0.0 
0.0 0.0 0.0 
-6.225505657440e-04 2.858859624398e-03 0.0 
2.858859624398e-03 9.574387899429e-03 0.0 
0.0 0.0 0.0 
1.468016981344e-03 -6.670584310149e-04 0.0 
-6.670584310149e-04 2.587839158740e-03 0.0 
0.0 0.0 0.0 
3.133964755338e-04 -7.917360998080e-04 0.0 
-7.917360998080e-04 2.841392422504e-03 0.0 
0.0 0.0 0.0 
2.512425059437e-04 -1.192285317248e-03 0.0 
-1.192285317248e-03 2.015202149889e-03 0.0 
0.0 0.0 0.0 
3.924334667035e-04 -1.877583421474e-03 0.0 
-1.877583421474e-03 9.734271250061e-04 0.0 
0.0 0.0 0.0 
1.184483743585e-03 2.676352582564e-03 0.0 
2.676352582564e-03 4.591254569847e-03 0.0 
0.0 0.0 0.0 
8.572707098789e-04 -8.382058660166e-04 0.0 
-8.382058660166e-04 2.913597631339e-03 0.0 
0.0 0.0 0.0 
9.196288492543e-04 -2.569847693834e-06 0.0 
-2.569847693834e-06 4.797703334362e-03 0.0 
0.0 0.0 0.0 
-1.030907247143e-03 4.861126103997e-04 0.0 
4.861126103997e-04 1.680206764277e-02 0.0 
0.0 0.0 0.0 
3.435089850149e-04 -9.806444620810e-05 0.0 
-9.806444620810e-05 1.373437019613e-04 0.0 
0.0 0.0 0.0 
9.782584755631e-04 1.601329290508e-04 0.0 
1.601329290508e-04 4.987595295256e-03 0.0 
0.0 0.0 0.0 
9.169054321016e-04 -4.775322221406e-04 0.0 
-4.775322221406e-04 3.721559543207e-03 0.0 
0.0 0.0 0.0 
-1.799269087084e-03 7.742671283284e-04 0.0 
7.742671283284e-04 1.604398173665e-02 0.0 
0.0 0.0 0.0 
1.668844003558e-03 1.634414451125e-03 0.0 
1.634414451125e-03 5.190863505876e-03 0.0 
0.0 0.0 0.0 
2.645387359158e-04 -2.462831377570e-03 0.0 
-2.462831377570e-03 -3.041798401678e-04 0.0 
0.0 0.0 0.0 
-1.340224463884e-03 9.265822587704e-04 0.0 
9.265822587704e-04 1.668100433447e-02 0.0 
0.0 0.0 0.0 
-9.935708611953e-04 2.016555178153e-03 0.0 
2.016555178153e-03 1.644493616832e-02 0.0 
0.0 0.0 0.0 
-2.036030215530e-03 8.749853208443e-04 0.0 
8.749853208443e-04 1.560585428237e-02 0.0 
0.0 0.0 0.0 
1.744735178390e-05 -4.107338510835e-04 0.0 
-4.107338510835e-04 1.153907102904e-03 0.0 
0.0 0.0 0.0 
-1.539350745235e-03 2.056058442102e-04 0.0 
2.056058442102e-04 1.558049264486e-02 0.0 
0.0 0.0 0.0 
7.389309093378e-04 6.824089691016e-04 0.0 
6.824089691016e-04 6.106127194085e-03 0.0 
0.0 0.0 0.0 
-1.570854962488e-03 2.048516813853e-03 0.0 
2.048516813853e-03 1.562510312260e-02 0.0 
0.0 0.0 0.0 
4.100603952787e-05 -4.512861527193e-04 0.0 
-4.512861527193e-04 2.207932913853e-03 0.0 
0.0 0.0 0.0 
2.390369672905e-03 5.960281433893e-04 0.0 
5.960281433893e-04 2.226847412366e-03 0.0 
0.0 0.0 0.0 
4.170854231479e-04 2.885204289817e-03 0.0 
2.885204289817e-03 6.793866869779e-03 0.0 
0.0 0.0 0.0 
-1.974181474321e-03 2.218225118489e-03 0.0 
2.218225118489e-03 1.274178959260e-02 0.0 
0.0 0.0 0.0 
-7.593679119456e-04 7.667047514566e-04 0.0 
7.667047514566e-04 1.714242637529e-02 0.0 
0.0 0.0 0.0 
1.788117097145e-03 2.269226678741e-03 0.0 
2.269226678741e-03 4.300797979206e-03 0.0 
0.0 0.0 0.0 
1.416317416960e-03 1.357024328811e-03 0.0 
1.357024328811e-03 5.452212520706e-03 0.0 
0.0 0.0 0.0 
2.096030346611e-03 8.928352435028e-04 0.0 
8.928352435028e-04 3.509516822369e-03 0.0 
0.0 0.0 0.0 
5.072111199570e-05 -3.569237051486e-04 0.0 
-3.569237051486e-04 2.391581170303e-03 0.0 
0.0 0.0 0.0 
6.310405781946e-04 1.326536274895e-04 0.0 
1.326536274895e-04 5.645506862597e-03 0.0 
0.0 0.0 0.0 
2.326808951935e-03 1.502237243118e-03 0.0 
1.502237243118e-03 2.654660187852e-03 0.0 
0.0 0.0 0.0 
-1.107514906634e-03 1.117272259278e-03 0.0 
1.117272259278e-03 1.689403833479e-02 0.0 
0.0 0.0 0.0 
4.257590495732e-04 3.066978246590e-03 0.0 
3.066978246590e-03 9.112866314876e-03 0.0 
0.0 0.0 0.0 
2.641502844308e-03 6.896621756678e-04 0.0 
6.896621756678e-04 7.110399221656e-04 0.0 
0.0 0.0 0.0 
-1.426821888257e-03 1.528947380959e-03 0.0 
1.528947380959e-03 1.645441439378e-02 0.0 
0.0 0.0 0.0 
1.874693179653e-03 -4.132008313091e-04 0.0 
-4.132008313091e-04 2.278923599276e-03 0.0 
0.0 0.0 0.0 
1.497821071646e-03 1.916689574517e-03 0.0 
1.916689574517e-03 5.791222194090e-03 0.0 
0.0 0.0 0.0 
-4.462234383787e-04 2.863271634813e-03 0.0 
2.863271634813e-03 8.745900865840e-03 0.0 
0.0 0.0 0.0 
3.868587710781e-04 2.970304015905e-03 0.0 
2.970304015905e-03 8.329029382499e-03 0.0 
0.0 0.0 0.0 
-4.957097121039e-04 3.031196082895e-03 0.0 
3.031196082895e-03 1.122168543405e-02 0.0 
0.0 0.0 0.0 
1.103572384344e-03 2.732566779077e-03 0.0 
2.732566779077e-03 6.247260119588e-03 0.0 
0.0 0.0 0.0 
1.680877837300e-04 -8.198468009680e-05 0.0 
-8.198468009680e-05 5.136051002185e-03 0.0 
0.0 0.0 0.0 
7.963340623388e-04 1.473167947854e-04 0.0 
1.473167947854e-04 5.321033870436e-03 0.0 
0.0 0.0 0.0 
2.560977174461e-03 -1.048432258866e-03 0.0 
-1.048432258866e-03 -3.425804658783e-03 0.0 
0.0 0.0 0.0 
7.755638947063e-04 2.808429018064e-03 0.0 
2.808429018064e-03 3.907132709921e-03 0.0 
0.0 0.0 0.0 
-1.961312615006e-03 1.147357214874e-03 0.0 
1.147357214874e-03 1.582937722114e-02 0.0 
0.0 0.0 0.0 
6.516383914941e-04 3.093934669914e-03 0.0 
3.093934669914e-03 8.876708072211e-03 0.0 
0.0 0.0 0.0 
-8.143650462318e-04 1.289720403786e-03 0.0 
1.289720403786e-03 1.706799252858e-02 0.0 
0.0 0.0 0.0 
2.496924710413e-04 2.877708838086e-03 0.0 
2.877708838086e-03 6.491364832352e-03 0.0 
0.0 0.0 0.0 
5.961197767895e-04 1.764995272489e-05 0.0 
1.764995272489e-05 5.449706518495e-03 0.0 
0.0 0.0 0.0 
-1.130213563200e-03 1.731901903293e-03 0.0 
1.731901903293e-03 1.659743826352e-02 0.0 
0.0 0.0 0.0 
7.243797407872e-04 -7.167136942012e-04 0.0 
-7.167136942012e-04 3.258056072053e-03 0.0 
0.0 0.0 0.0 
1.561145589734e-04 -6.265279110001e-05 0.0 
-6.265279110001e-05 1.659258699194e-03 0.0 
0.0 0.0 0.0 
1.256115635223e-03 2.692960063775e-03 0.0 
2.692960063775e-03 -1.921865252930e-03 0.0 
0.0 0.0 0.0 
2.746113771044e-03 6.304690906949e-04 0.0 
6.304690906949e-04 -7.740502834413e-04 0.0 
0.0 0.0 0.0 
2.004438923290e-03 2.054301165265e-03 0.0 
2.054301165265e-03 3.525948342679e-03 0.0 
0.0 0.0 0.0 
7.610468558872e-04 -5.585722417515e-04 0.0 
-5.585722417515e-04 3.645836757120e-03 0.0 
0.0 0.0 0.0 
-7.357624107970e-04 2.773328314169e-03 0.0 
2.773328314169e-03 1.554439723736e-02 0.0 
0.0 0.0 0.0 
4.617840850976e-04 2.890042828785e-05 0.0 
2.890042828785e-05 5.755946683804e-03 0.0 
0.0 0.0 0.0 
1.401431023370e-03 4.460619882105e-04 0.0 
4.460619882105e-04 4.571575182077e-03 0.0 
0.0 0.0 0.0 
-1.437543750302e-03 3.066641160517e-03 0.0 
3.066641160517e-03 7.300523679568e-04 0.0 
0.0 0.0 0.0 
-1.691351269616e-03 2.407367999439e-03 0.0 
2.407367999439e-03 1.211658040581e-02 0.0 
0.0 0.0 0.0 
3.453363220701e-04 3.620426947703e-05 0.0 
3.620426947703e-05 6.050582699175e-03 0.0 
0.0 0.0 0.0 
2.264209261207e-03 3.859749066554e-04 0.0 
3.859749066554e-04 2.455284841744e-03 0.0 
0.0 0.0 0.0 
1.407063691882e-03 1.766103275476e-03 0.0 
1.766103275476e-03 5.831960771612e-03 0.0 
0.0 0.0 0.0 
1.261273757175e-04 -1.185368713715e-04 0.0 
-1.185368713715e-04 4.163995912214e-03 0.0 
0.0 0.0 0.0 
3.596651433252e-04 3.407012617221e-03 0.0 
3.407012617221e-03 9.908119979990e-03 0.0 
0.0 0.0 0.0 
-1.179757391275e-03 2.506359289399e-03 0.0 
2.506359289399e-03 8.937280951793e-03 0.0 
0.0 0.0 0.0 
2.464620697087e-04 3.740797264729e-05 0.0 
3.740797264729e-05 6.336930947324e-03 0.0 
0.0 0.0 0.0 
1.583461055888e-03 7.949538000163e-04 0.0 
7.949538000163e-04 4.601211501686e-03 0.0 
0.0 0.0 0.0 
1.703250439607e-03 2.423396825546e-03 0.0 
2.423396825546e-03 1.451025553230e-03 0.0 
0.0 0.0 0.0 
-1.311795811356e-03 1.031865936879e-05 0.0 
1.031865936879e-05 1.476049829264e-02 0.0 
0.0 0.0 0.0 
1.519839386969e-04 8.464574540155e-05 0.0 
8.464574540155e-05 6.886412231771e-03 0.0 
0.0 0.0 0.0 
1.331893797259e-03 9.655337669468e-04 0.0 
9.655337669468e-04 5.252045970659e-03 0.0 
0.0 0.0 0.0 
1.104859831262e-03 2.743424485758e-03 0.0 
2.743424485758e-03 6.685401265595e-03 0.0 
0.0 0.0 0.0 
2.210244675458e-03 2.178032111411e-05 0.0 
2.178032111411e-05 2.123469354223e-03 0.0 
0.0 0.0 0.0 
-1.623735575738e-03 2.246562041736e-03 0.0 
2.246562041736e-03 1.114288370814e-02 0.0 
0.0 0.0 0.0 
6.317775130866e-04 -4.624449631752e-04 0.0 
-4.624449631752e-04 3.968182668080e-03 0.0 
0.0 0.0 0.0 
1.677066025742e-04 3.023063034095e-03 0.0 
3.023063034095e-03 9.151906297187e-03 0.0 
0.0 0.0 0.0 
-3.980849661702e-04 2.422580902422e-03 0.0 
2.422580902422e-03 1.646207175525e-02 0.0 
0.0 0.0 0.0 
1.232753648613e-03 1.226380614807e-03 0.0 
1.226380614807e-03 5.646639773557e-03 0.0 
0.0 0.0 0.0 
-1.584121448514e-03 2.440396865332e-03 0.0 
2.440396865332e-03 1.409455409342e-02 0.0 
0.0 0.0 0.0 
5.020634194300e-04 -4.902927267341e-04 0.0 
-4.902927267341e-04 3.879759550219e-03 0.0 
0.0 0.0 0.0 
1.735068431724e-03 2.136628344256e-03 0.0 
2.136628344256e-03 5.235768340618e-03 0.0 
0.0 0.0 0.0 
3.318051822151e-04 -1.271255025663e-04 0.0 
-1.271255025663e-04 7.628656951311e-04 0.0 
0.0 0.0 0.0 
-1.362205933097e-03 2.475839355664e-03 0.0 
2.475839355664e-03 1.051940226248e-02 0.0 
0.0 0.0 0.0 
4.097409057291e-04 -3.895639603447e-04 0.0 
-3.895639603447e-04 4.161951511414e-03 0.0 
0.0 0.0 0.0 
2.726965307063e-03 8.408459517479e-05 0.0 
8.408459517479e-05 -5.564844742694e-04 0.0 
0.0 0.0 0.0 
2.015469582140e-03 -1.051004671407e-04 0.0 
-1.051004671407e-04 2.465110755434e-03 0.0 
0.0 0.0 0.0 
8.046397586707e-04 2.594067511132e-03 0.0 
2.594067511132e-03 7.694067472359e-03 0.0 
0.0 0.0 0.0 
3.306416448346e-04 -2.983101982464e-04 0.0 
-2.983101982464e-04 4.427538359241e-03 0.0 
0.0 0.0 0.0 
2.666615376860e-03 1.974440537570e-04 0.0 
1.974440537570e-04 1.891757706915e-04 0.0 
0.0 0.0 0.0 
2.645382848214e-04 -2.170925523217e-04 0.0 
-2.170925523217e-04 4.676781503321e-03 0.0 
0.0 0.0 0.0 
-1.502706916943e-03 2.265946117966e-03 0.0 
2.265946117966e-03 9.645221670567e-03 0.0 
0.0 0.0 0.0 
-1.324323745136e-03 2.662958372226e-03 0.0 
2.662958372226e-03 1.363878399854e-02 0.0 
0.0 0.0 0.0 
2.107644603138e-04 -1.459161094662e-04 0.0 
-1.459161094662e-04 4.911909025448e-03 0.0 
0.0 0.0 0.0 
2.060846122003e-04 3.074596741606e-03 0.0 
3.074596741606e-03 9.519358433098e-03 0.0 
0.0 0.0 0.0 
1.770685756940e-04 -2.480840217768e-04 0.0 
-2.480840217768e-04 8.736178724768e-04 0.0 
0.0 0.0 0.0 
1.295561065896e-03 2.628819267906e-03 0.0 
2.628819267906e-03 6.358501538303e-03 0.0 
0.0 0.0 0.0 
1.087582172241e-04 -3.681550794703e-06 0.0 
-3.681550794703e-06 6.419672011843e-03 0.0 
0.0 0.0 0.0 
7.619579430059e-04 -1.344288489440e-03 0.0 
-1.344288489440e-03 1.865335837983e-03 0.0 
0.0 0.0 0.0 
1.809311835963e-03 -1.785239048206e-04 0.0 
-1.785239048206e-04 2.828236609435e-03 0.0 
0.0 0.0 0.0 
-1.138365238272e-03 2.778950287379e-03 0.0 
2.778950287379e-03 1.382604888005e-02 0.0 
0.0 0.0 0.0 
-1.485889654294e-03 2.319932136439e-03 0.0 
2.319932136439e-03 8.197057469171e-03 0.0 
0.0 0.0 0.0 
1.709799321463e-03 4.296348627677e-05 0.0 
4.296348627677e-05 3.391080184950e-03 0.0 
0.0 0.0 0.0 
2.197927712294e-04 3.150624947172e-03 0.0 
3.150624947172e-03 9.907948860004e-03 0.0 
0.0 0.0 0.0 
1.439426315145e-03 2.501681741519e-03 0.0 
2.501681741519e-03 6.108106638337e-03 0.0 
0.0 0.0 0.0 
1.954356497635e-03 2.054647793446e-03 0.0 
2.054647793446e-03 4.082241339070e-03 0.0 
0.0 0.0 0.0 
1.575856611623e-03 2.524884596017e-04 0.0 
2.524884596017e-04 3.971760048703e-03 0.0 
0.0 0.0 0.0 
-1.096927169836e-03 2.577558060261e-03 0.0 
2.577558060261e-03 7.395549411236e-03 0.0 
0.0 0.0 0.0 
6.754081426519e-05 -1.209342868345e-03 0.0 
-1.209342868345e-03 1.785407836495e-03 0.0 
0.0 0.0 0.0 
-1.138711422012e-04 -1.153517305173e-03 0.0 
-1.153517305173e-03 1.572799842166e-03 0.0 
0.0 0.0 0.0 
2.540017907867e-03 -1.554130807237e-04 0.0 
-1.554130807237e-04 5.009095294217e-04 0.0 
0.0 0.0 0.0 
3.112550131286e-05 3.227047062201e-03 0.0 
3.227047062201e-03 1.069711421610e-02 0.0 
0.0 0.0 0.0 
2.586861886347e-04 -1.111985536678e-04 0.0 
-1.111985536678e-04 1.138687213250e-03 0.0 
0.0 0.0 0.0 
-7.897912466777e-04 2.996262661556e-03 0.0 
2.996262661556e-03 1.269384756868e-02 0.0 
0.0 0.0 0.0 
-3.717862759554e-04 -1.147136236712e-03 0.0 
-1.147136236712e-03 1.183412333681e-03 0.0 
0.0 0.0 0.0 
2.387665929380e-03 -6.447195507306e-04 0.0 
-6.447195507306e-04 2.486561535962e-04 0.0 
0.0 0.0 0.0 
1.356135498257e-03 2.450053647750e-03 0.0 
2.450053647750e-03 6.535258048752e-03 0.0 
0.0 0.0 0.0 
-1.196288087978e-03 2.234188401164e-05 0.0 
2.234188401164e-05 1.585443108641e-02 0.0 
0.0 0.0 0.0 
2.149385413854e-03 -8.320764825076e-04 0.0 
-8.320764825076e-04 7.283642647778e-04 0.0 
0.0 0.0 0.0 
9.407355552042e-05 -7.129658642613e-05 0.0 
-7.129658642613e-05 2.059407183925e-03 0.0 
0.0 0.0 0.0 
1.859658274280e-03 -1.204906934781e-03 0.0 
-1.204906934781e-03 6.991397616400e-04 0.0 
0.0 0.0 0.0 
1.864716789753e-03 2.081491856318e-03 0.0 
2.081491856318e-03 4.650035086781e-03 0.0 
0.0 0.0 0.0 
1.608763570988e-03 -1.212047997962e-03 0.0 
-1.212047997962e-03 1.219975633056e-03 0.0 
0.0 0.0 0.0 
1.267309321546e-03 -1.413912866294e-03 0.0 
-1.413912866294e-03 1.309179289911e-03 0.0 
0.0 0.0 0.0 
-5.728483681346e-04 7.026176208949e-04 0.0 
7.026176208949e-04 1.727828709818e-02 0.0 
0.0 0.0 0.0 
1.071455443310e-03 -1.295336787369e-03 0.0 
-1.295336787369e-03 1.771353744650e-03 0.0 
0.0 0.0 0.0 
-2.372815963979e-04 2.024043544674e-04 0.0 
2.024043544674e-04 1.754143784169e-02 0.0 
0.0 0.0 0.0 
3.041298991919e-05 1.619525853295e-05 0.0 
1.619525853295e-05 7.387329850301e-03 0.0 
0.0 0.0 0.0 
-1.297751013853e-03 9.446541215302e-07 0.0 
9.446541215302e-07 1.507991750372e-02 0.0 
0.0 0.0 0.0 
-1.575549006681e-03 2.436233910265e-03 0.0 
2.436233910265e-03 6.891871018723e-03 0.0 
0.0 0.0 0.0 
-1.432875488227e-03 1.056294109563e-04 0.0 
1.056294109563e-04 -4.031521873181e-03 0.0 
0.0 0.0 0.0 
-9.981537689868e-04 2.695353779280e-03 0.0 
2.695353779280e-03 5.701129295211e-03 0.0 
0.0 0.0 0.0 
5.687619883279e-04 -1.504919903291e-03 0.0 
-1.504919903291e-03 1.597020913523e-03 0.0 
0.0 0.0 0.0 
-4.009732777145e-04 3.114587823017e-03 0.0 
3.114587823017e-03 1.150745048930e-02 0.0 
0.0 0.0 0.0 
-1.299726667192e-03 2.130498268324e-05 0.0 
2.130498268324e-05 1.509948682749e-02 0.0 
0.0 0.0 0.0 
2.775009818070e-04 -1.396355991806e-03 0.0 
-1.396355991806e-03 1.722340979387e-03 0.0 
0.0 0.0 0.0 
-2.891235580456e-04 3.504161546942e-03 0.0 
3.504161546942e-03 1.331602421840e-02 0.0 
0.0 0.0 0.0 
2.530026697790e-04 3.399534901418e-03 0.0 
3.399534901418e-03 9.678582968859e-03 0.0 
0.0 0.0 0.0 
-1.063365041930e-03 1.063620515198e-04 0.0 
1.063620515198e-04 1.637864946311e-02 0.0 
0.0 0.0 0.0 
1.267520715642e-03 1.630691799790e-03 0.0 
1.630691799790e-03 5.928470924301e-03 0.0 
0.0 0.0 0.0 
1.528775676012e-03 2.364488832587e-03 0.0 
2.364488832587e-03 5.943199056720e-03 0.0 
0.0 0.0 0.0 
-6.596989178586e-04 9.213374085517e-05 0.0 
9.213374085517e-05 1.709593589533e-02 0.0 
0.0 0.0 0.0 
-1.355394839731e-03 4.927177770954e-06 0.0 
4.927177770954e-06 1.474631315850e-02 0.0 
0.0 0.0 0.0 
-2.980623486565e-04 -5.158259887959e-04 0.0 
-5.158259887959e-04 5.993276075545e-04 0.0 
0.0 0.0 0.0 
1.419673823868e-04 -3.297967789862e-05 0.0 
-3.297967789862e-05 5.371476865911e-03 0.0 
0.0 0.0 0.0 
-1.663741692769e-03 2.582854092907e-03 0.0 
2.582854092907e-03 5.451141241575e-03 0.0 
0.0 0.0 0.0 
-1.103431822636e-03 2.893703578984e-03 0.0 
2.893703578984e-03 4.105688153758e-03 0.0 
0.0 0.0 0.0 
-9.721704214720e-04 3.103974004192e-03 0.0 
3.103974004192e-03 2.413491608385e-03 0.0 
0.0 0.0 0.0 
5.148181353232e-05 -2.619868281979e-04 0.0 
-2.619868281979e-04 2.539350323041e-03 0.0 
0.0 0.0 0.0 
-6.112651828150e-04 -1.895091220924e-03 0.0 
-1.895091220924e-03 3.893326280946e-04 0.0 
0.0 0.0 0.0 
-1.653267213427e-03 2.802867169511e-03 0.0 
2.802867169511e-03 4.031565956773e-03 0.0 
0.0 0.0 0.0 
7.823376627348e-04 1.989846423368e-03 0.0 
1.989846423368e-03 7.050435625785e-03 0.0 
0.0 0.0 0.0 
-1.606724256565e-03 1.619276268620e-04 0.0 
1.619276268620e-04 1.519382901204e-02 0.0 
0.0 0.0 0.0 
1.143363978255e-03 2.652221077883e-03 0.0 
2.652221077883e-03 7.219011368899e-03 0.0 
0.0 0.0 0.0 
-1.539124620340e-03 2.948723132333e-03 0.0 
2.948723132333e-03 2.428532608286e-03 0.0 
0.0 0.0 0.0 
-7.871906778172e-04 1.928538012385e-03 0.0 
1.928538012385e-03 1.669568983308e-02 0.0 
0.0 0.0 0.0 
6.242284583322e-04 2.952610392901e-03 0.0 
2.952610392901e-03 8.472389218618e-03 0.0 
0.0 0.0 0.0 
1.594987917863e-04 3.312435760743e-04 0.0 
3.312435760743e-04 7.200675683966e-03 0.0 
0.0 0.0 0.0 
9.263517079856e-04 2.774609041143e-03 0.0 
2.774609041143e-03 7.796496892895e-03 0.0 
0.0 0.0 0.0 
-6.670608021732e-04 3.239071043115e-03 0.0 
3.239071043115e-03 4.913443583103e-04 0.0 
0.0 0.0 0.0 
-2.136778864785e-03 1.002556759992e-03 0.0 
1.002556759992e-03 1.540345016164e-02 0.0 
0.0 0.0 0.0 
1.569840289209e-04 3.574177699643e-03 0.0 
3.574177699643e-03 1.100456203462e-02 0.0 
0.0 0.0 0.0 
-9.909743101322e-04 1.971592002685e-04 0.0 
1.971592002685e-04 1.664238319015e-02 0.0 
0.0 0.0 0.0 
1.050921350658e-04 2.077188723888e-04 0.0 
2.077188723888e-04 7.299172228993e-03 0.0 
0.0 0.0 0.0 
-1.819177024103e-03 3.281901495053e-04 0.0 
3.281901495053e-04 1.518522628522e-02 0.0 
0.0 0.0 0.0 
-4.692530249738e-04 4.539385339062e-04 0.0 
4.539385339062e-04 1.734067724877e-02 0.0 
0.0 0.0 0.0 
1.984705618193e-03 -1.883446807473e-03 0.0 
-1.883446807473e-03 -3.114505301355e-03 0.0 
0.0 0.0 0.0 
-4.318493400620e-04 2.321842311297e-04 0.0 
2.321842311297e-04 1.735681323148e-02 0.0 
0.0 0.0 0.0 
-3.154279514779e-04 3.222583603273e-03 0.0 
3.222583603273e-03 1.181359254380e-02 0.0 
0.0 0.0 0.0 
-1.325728395860e-03 1.051774691483e-04 0.0 
1.051774691483e-04 1.561279741146e-02 0.0 
0.0 0.0 0.0 
-2.160309923402e-03 1.692414906606e-03 0.0 
1.692414906606e-03 1.478074193118e-02 0.0 
0.0 0.0 0.0 
6.645416253700e-05 2.844080473151e-05 0.0 
2.844080473151e-05 7.070564945263e-03 0.0 
0.0 0.0 0.0 
-5.134750483146e-04 3.243084886989e-03 0.0 
3.243084886989e-03 1.444040175448e-02 0.0 
0.0 0.0 0.0 
-3.817138106090e-04 3.236475564680e-03 0.0 
3.236475564680e-03 -8.168140007019e-04 0.0 
0.0 0.0 0.0 
-1.103702929116e-03 1.644345743899e-04 0.0 
1.644345743899e-04 1.636898194984e-02 0.0 
0.0 0.0 0.0 
1.017486678062e-04 -3.820826971825e-04 0.0 
-3.820826971825e-04 3.094460803283e-03 0.0 
0.0 0.0 0.0 
3.425828551720e-04 -1.702760472316e-03 0.0 
-1.702760472316e-03 -3.859361769520e-03 0.0 
0.0 0.0 0.0 
4.210811279863e-04 4.960328486820e-04 0.0 
4.960328486820e-04 6.627507627529e-03 0.0 
0.0 0.0 0.0 
-2.348990674531e-04 3.348385113912e-03 0.0 
3.348385113912e-03 1.211891881429e-02 0.0 
0.0 0.0 0.0 
1.046702954733e-04 6.650800528678e-05 0.0 
6.650800528678e-05 6.986950708557e-03 0.0 
0.0 0.0 0.0 
3.978089878993e-04 -1.389546714583e-05 0.0 
-1.389546714583e-05 7.356064661360e-04 0.0 
0.0 0.0 0.0 
6.258069002734e-05 -2.368530287941e-04 0.0 
-2.368530287941e-04 4.694872608963e-04 0.0 
0.0 0.0 0.0 
5.078550348105e-04 7.756787992810e-04 0.0 
7.756787992810e-04 6.666935390415e-03 0.0 
0.0 0.0 0.0 
-8.065772099878e-05 3.631286759455e-03 0.0 
3.631286759455e-03 1.227544836747e-02 0.0 
0.0 0.0 0.0 
1.487218536101e-03 -2.349934134098e-03 0.0 
-2.349934134098e-03 -1.969157049182e-03 0.0 
0.0 0.0 0.0 
-3.340534141463e-04 1.680532600439e-03 0.0 
1.680532600439e-03 1.711758893653e-02 0.0 
0.0 0.0 0.0 
-5.322822478646e-04 3.044431719527e-03 0.0 
3.044431719527e-03 -1.981447520942e-03 0.0 
0.0 0.0 0.0 
-1.390566643302e-03 2.205382425464e-05 0.0 
2.205382425464e-05 1.471140735999e-02 0.0 
0.0 0.0 0.0 
3.172489225229e-04 -1.421167186031e-04 0.0 
-1.421167186031e-04 4.092452114368e-04 0.0 
0.0 0.0 0.0 
7.896093854241e-05 1.072046201088e-04 0.0 
1.072046201088e-04 7.344830398510e-03 0.0 
0.0 0.0 0.0 
-6.302210879687e-04 1.190595952578e-03 0.0 
1.190595952578e-03 1.718624667508e-02 0.0 
0.0 0.0 0.0 
9.314517540706e-05 -2.339365520382e-04 0.0 
-2.339365520382e-04 3.459083166718e-03 0.0 
0.0 0.0 0.0 
-2.397106823650e-03 1.245640999603e-03 0.0 
1.245640999603e-03 1.465000274815e-02 0.0 
0.0 0.0 0.0 
6.503768116539e-05 -1.591915325026e-04 0.0 
-1.591915325026e-04 2.315663548307e-03 0.0 
0.0 0.0 0.0 
5.464458305308e-04 3.230502309275e-03 0.0 
3.230502309275e-03 9.256331432753e-03 0.0 
0.0 0.0 0.0 
-5.239195793977e-04 -9.661334190969e-04 0.0 
-9.661334190969e-04 8.448491401176e-04 0.0 
0.0 0.0 0.0 
-5.312095229466e-04 8.551490163925e-04 0.0 
8.551490163925e-04 1.730466183396e-02 0.0 
0.0 0.0 0.0 
5.968906654053e-04 1.139697927692e-03 0.0 
1.139697927692e-03 6.733323818459e-03 0.0 
0.0 0.0 0.0 
-6.818976571640e-04 2.629898622521e-03 0.0 
2.629898622521e-03 1.592732910344e-02 0.0 
0.0 0.0 0.0 
3.148691020044e-04 2.604023519429e-03 0.0 
2.604023519429e-03 8.315085698450e-03 0.0 
0.0 0.0 0.0 
1.645396511724e-04 9.470579223287e-04 0.0 
9.470579223287e-04 -4.290827607085e-03 0.0 
0.0 0.0 0.0 
4.806945217756e-04 3.167630514922e-03 0.0 
3.167630514922e-03 9.034314582843e-03 0.0 
0.0 0.0 0.0 
9.812647446682e-04 1.359927412468e-03 0.0 
1.359927412468e-03 6.214691292225e-03 0.0 
0.0 0.0 0.0 
-1.337460690851e-03 1.778948092513e-05 0.0 
1.778948092513e-05 1.473900447653e-02 0.0 
0.0 0.0 0.0 
-6.070926924815e-04 2.986904875419e-03 0.0 
2.986904875419e-03 1.515126370315e-02 0.0 
0.0 0.0 0.0 
5.469212896170e-05 -2.538108855820e-04 0.0 
-2.538108855820e-04 2.830152287581e-03 0.0 
0.0 0.0 0.0 
1.501611231129e-04 -2.741954209177e-04 0.0 
-2.741954209177e-04 1.150626821156e-03 0.0 
0.0 0.0 0.0 
-1.923277370661e-04 9.810738877564e-05 0.0 
9.810738877564e-05 1.757321657377e-02 0.0 
0.0 0.0 0.0 
7.324378647320e-04 2.554189220399e-06 0.0 
2.554189220399e-06 -1.218669322444e-04 0.0 
0.0 0.0 0.0 
-1.328249958748e-03 -6.525869613077e-06 0.0 
-6.525869613077e-06 1.471466740035e-02 0.0 
0.0 0.0 0.0 
1.804972958022e-05 1.380393079011e-05 0.0 
1.380393079011e-05 7.494194923752e-03 0.0 
0.0 0.0 0.0 
2.620953467539e-04 -1.475652514332e-04 0.0 
-1.475652514332e-04 1.054237373838e-03 0.0 
0.0 0.0 0.0 
-1.275914638576e-03 2.236727286197e-05 0.0 
2.236727286197e-05 1.537822605530e-02 0.0 
0.0 0.0 0.0 
-1.734657322227e-04 3.602268141532e-03 0.0 
3.602268141532e-03 1.283334848733e-02 0.0 
0.0 0.0 0.0 
1.141574181619e-04 -5.046004738484e-05 0.0 
-5.046004738484e-05 4.274458527630e-03 0.0 
0.0 0.0 0.0 
-7.762502680202e-04 1.469227040509e-04 0.0 
1.469227040509e-04 1.693650930289e-02 0.0 
0.0 0.0 0.0 
-1.846044880929e-04 -2.360301708282e-03 0.0 
-2.360301708282e-03 -1.196578337386e-04 0.0 
0.0 0.0 0.0 
-1.631401640459e-03 -6.435044229537e-04 0.0 
-6.435044229537e-04 -3.930863069187e-03 0.0 
0.0 0.0 0.0 
-1.160128353042e-03 6.169410761040e-05 0.0 
6.169410761040e-05 1.605388655930e-02 0.0 
0.0 0.0 0.0 
6.215605482093e-04 2.813604831698e-03 0.0 
2.813604831698e-03 8.212730867536e-03 0.0 
0.0 0.0 0.0 
-6.991238560071e-04 2.178808700406e-03 0.0 
2.178808700406e-03 1.653209565000e-02 0.0 
0.0 0.0 0.0 
-1.277521010330e-03 1.177135101184e-04 0.0 
1.177135101184e-04 1.581773398092e-02 0.0 
0.0 0.0 0.0 
6.344389420667e-04 2.923834042513e-03 0.0 
2.923834042513e-03 -1.731495888466e-03 0.0 
0.0 0.0 0.0 
-1.749429646962e-04 3.500584580971e-03 0.0 
3.500584580971e-03 1.236024539317e-02 0.0 
0.0 0.0 0.0 
1.206706882716e-04 -2.293052406874e-04 0.0 
-2.293052406874e-04 3.715598599354e-03 0.0 
0.0 0.0 0.0 
2.656939453196e-04 3.421983849037e-03 0.0 
3.421983849037e-03 1.040296749381e-02 0.0 
0.0 0.0 0.0 
1.009729354228e-03 1.762052251004e-03 0.0 
1.762052251004e-03 6.497664130410e-03 0.0 
0.0 0.0 0.0 
-1.479221684605e-03 3.053683381779e-03 0.0 
3.053683381779e-03 -1.469035766933e-03 0.0 
0.0 0.0 0.0 
1.273677937859e-04 -3.494633168047e-05 0.0 
-3.494633168047e-05 4.600839627774e-03 0.0 
0.0 0.0 0.0 
2.624752103428e-04 -1.641281239140e-04 0.0 
-1.641281239140e-04 3.911062447101e-04 0.0 
0.0 0.0 0.0 
2.432387572995e-04 2.526032342304e-04 0.0 
2.526032342304e-04 6.876942046197e-03 0.0 
0.0 0.0 0.0 
1.123492708980e-04 -1.547043999914e-04 0.0 
-1.547043999914e-04 3.896568424188e-03 0.0 
0.0 0.0 0.0 

TENSORS node_materi_strain_plasti float
5.167194390135e-04 2.792726192703e-05 0.0 
2.792726192703e-05 -5.091425601016e-05 0.0 
0.0 0.0 -1.110302485635e-04 
-8.283098410006e-04 -7.056682692550e-05 0.0 
-7.056682692550e-05 4.810075585410e-03 0.0 
0.0 0.0 -7.207122401682e-04 
-1.346400199288e-03 7.365993999463e-05 0.0 
7.365993999463e-05 8.674335535019e-03 0.0 
0.0 0.0 -1.332621093165e-03 
-1.336402199564e-03 -8.793125074240e-05 0.0 
-8.793125074240e-05 8.913629531779e-03 0.0 
0.0 0.0 -1.332621093165e-03 
1.928535311059e-04 4.445651110295e-05 0.0 
4.445651110295e-05 2.423589004168e-04 0.0 
0.0 0.0 -1.369191294062e-04 
-9.495668909469e-05 1.176622379905e-04 0.0 
1.176622379905e-04 8.146285890130e-04 0.0 
0.0 0.0 -1.619080202416e-04 
-2.343145573296e-04 8.942200005953e-05 0.0 
8.942200005953e-05 1.222252270070e-03 0.0 
0.0 0.0 -2.266090766362e-04 
-3.672954214302e-04 7.638439199011e-05 0.0 
7.638439199011e-05 1.767422352355e-03 0.0 
0.0 0.0 -2.937643997455e-04 
-5.002542736311e-04 4.683642936848e-05 0.0 
4.683642936848e-05 2.251732040701e-03 0.0 
0.0 0.0 -3.610469555860e-04 
-5.984940266315e-04 4.060795555227e-05 0.0 
4.060795555227e-05 2.708456263927e-03 0.0 
0.0 0.0 -4.277228197774e-04 
-6.941224007828e-04 4.519221696703e-05 0.0 
4.519221696703e-05 3.166683324582e-03 0.0 
0.0 0.0 -4.940119848999e-04 
-7.849981096782e-04 3.520077417946e-05 0.0 
3.520077417946e-05 3.622095280725e-03 0.0 
0.0 0.0 -5.601824523721e-04 
-8.634318271181e-04 3.405437137357e-05 0.0 
3.405437137357e-05 4.067071864957e-03 0.0 
0.0 0.0 -6.267196139102e-04 
-9.449136089268e-04 5.218773157199e-05 0.0 
5.218773157199e-05 4.520788341368e-03 0.0 
0.0 0.0 -6.936951881209e-04 
-1.027632022584e-03 9.700470508409e-05 0.0 
9.700470508409e-05 5.010143413423e-03 0.0 
0.0 0.0 -7.607197531558e-04 
-1.071044468659e-03 1.108294767969e-04 0.0 
1.108294767969e-04 5.450697122990e-03 0.0 
0.0 0.0 -8.270758575053e-04 
-1.105211944346e-03 1.479813750871e-04 0.0 
1.479813750871e-04 5.811869455564e-03 0.0 
0.0 0.0 -8.903361771249e-04 
-1.161317049125e-03 4.285670301682e-05 0.0 
4.285670301682e-05 6.275431738875e-03 0.0 
0.0 0.0 -9.558084330571e-04 
-1.207984253662e-03 4.172859767407e-05 0.0 
4.172859767407e-05 6.727772586467e-03 0.0 
0.0 0.0 -1.024523475697e-03 
-1.248615658251e-03 4.538254462405e-05 0.0 
4.538254462405e-05 7.165565903975e-03 0.0 
0.0 0.0 -1.091244731156e-03 
-1.288520992697e-03 4.179778286610e-05 0.0 
4.179778286610e-05 7.610376257827e-03 0.0 
0.0 0.0 -1.158330123333e-03 
-1.323945144233e-03 5.638174444750e-05 0.0 
5.638174444750e-05 8.056170868355e-03 0.0 
0.0 0.0 -1.226073836101e-03 
-1.340882067222e-03 7.816548302147e-05 0.0 
7.816548302147e-05 8.489692749980e-03 0.0 
0.0 0.0 -1.289832767750e-03 
-1.333912568024e-03 1.756046241659e-05 0.0 
1.756046241659e-05 8.926507635803e-03 0.0 
0.0 0.0 -1.336902025401e-03 
-1.341531841891e-03 4.063150434003e-05 0.0 
4.063150434003e-05 8.912362216672e-03 0.0 
0.0 0.0 -1.332945767435e-03 
-1.342187123766e-03 7.210449397352e-07 0.0 
7.210449397352e-07 8.901177082135e-03 0.0 
0.0 0.0 -1.334903170087e-03 
-1.344938961940e-03 1.164426212685e-04 0.0 
1.164426212685e-04 8.903433830404e-03 0.0 
0.0 0.0 -1.334459899807e-03 
-1.344212628933e-03 9.914567390185e-05 0.0 
9.914567390185e-05 8.888325984844e-03 0.0 
0.0 0.0 -1.332067731643e-03 
-1.341871993109e-03 1.326692721992e-04 0.0 
1.326692721992e-04 8.883986467254e-03 0.0 
0.0 0.0 -1.335050935171e-03 
-1.332922157688e-03 1.596974021170e-04 0.0 
1.596974021170e-04 8.887152863323e-03 0.0 
0.0 0.0 -1.335055123498e-03 
-1.344556942280e-03 1.739185913509e-04 0.0 
1.739185913509e-04 8.882073809328e-03 0.0 
0.0 0.0 -1.333530254363e-03 
-1.342253888820e-03 1.667068933720e-04 0.0 
1.667068933720e-04 8.882815983630e-03 0.0 
0.0 0.0 -1.336259905589e-03 
-1.344452318304e-03 2.643241252995e-04 0.0 
2.643241252995e-04 8.877541720491e-03 0.0 
0.0 0.0 -1.335712483792e-03 
-1.344739962132e-03 2.572691983564e-04 0.0 
2.572691983564e-04 8.855364652133e-03 0.0 
0.0 0.0 -1.333313947604e-03 
-1.345949101879e-03 2.896022605017e-04 0.0 
2.896022605017e-04 8.845196808155e-03 0.0 
0.0 0.0 -1.335862559377e-03 
-1.335909137164e-03 3.249556087329e-04 0.0 
3.249556087329e-04 8.847942912603e-03 0.0 
0.0 0.0 -1.336097458551e-03 
-1.346297016590e-03 3.518589132456e-04 0.0 
3.518589132456e-04 8.821759431275e-03 0.0 
0.0 0.0 -1.335235043394e-03 
-1.338076461259e-03 3.735365560477e-04 0.0 
3.735365560477e-04 8.793020733369e-03 0.0 
0.0 0.0 -1.334297546486e-03 
-1.346016481544e-03 4.214840137430e-04 0.0 
4.214840137430e-04 8.754866417549e-03 0.0 
0.0 0.0 -1.332308435384e-03 
-1.347150914510e-03 4.365635291823e-04 0.0 
4.365635291823e-04 8.724212055446e-03 0.0 
0.0 0.0 -1.332019584455e-03 
-1.334805935481e-03 4.680081517091e-04 0.0 
4.680081517091e-04 8.718730927757e-03 0.0 
0.0 0.0 -1.333392124151e-03 
-1.340647727227e-03 4.849743108024e-04 0.0 
4.849743108024e-04 8.700750373122e-03 0.0 
0.0 0.0 -1.334727449481e-03 
-1.341060759155e-03 5.031254601797e-04 0.0 
5.031254601797e-04 8.669240053120e-03 0.0 
0.0 0.0 -1.336576889699e-03 
-1.339241076831e-03 5.376075265351e-04 0.0 
5.376075265351e-04 8.637791543921e-03 0.0 
0.0 0.0 -1.335888391555e-03 
-1.332755026613e-03 5.259793014087e-04 0.0 
5.259793014087e-04 8.604247702023e-03 0.0 
0.0 0.0 -1.334783226448e-03 
-1.333664649469e-03 5.288889005307e-04 0.0 
5.288889005307e-04 8.561550836847e-03 0.0 
0.0 0.0 -1.335053869153e-03 
-1.331458992258e-03 5.134063938371e-04 0.0 
5.134063938371e-04 8.519772984337e-03 0.0 
0.0 0.0 -1.334960189349e-03 
-1.329775199773e-03 4.941096024064e-04 0.0 
4.941096024064e-04 8.496416219376e-03 0.0 
0.0 0.0 -1.334889991128e-03 
-1.320977987653e-03 4.615461390730e-04 0.0 
4.615461390730e-04 8.462524191980e-03 0.0 
0.0 0.0 -1.335774086633e-03 
-1.330023044346e-03 4.207866190154e-04 0.0 
4.207866190154e-04 8.427010713301e-03 0.0 
0.0 0.0 -1.336605656894e-03 
-1.315269658186e-03 3.720833040210e-04 0.0 
3.720833040210e-04 8.401189310414e-03 0.0 
0.0 0.0 -1.336508443943e-03 
-1.322412415585e-03 3.115810119469e-04 0.0 
3.115810119469e-04 8.379908734224e-03 0.0 
0.0 0.0 -1.335343284290e-03 
-1.320222320207e-03 2.175575066663e-04 0.0 
2.175575066663e-04 8.369874127435e-03 0.0 
0.0 0.0 -1.337998490269e-03 
-1.323625080933e-03 2.169102620600e-04 0.0 
2.169102620600e-04 8.349200848827e-03 0.0 
0.0 0.0 -1.337247094005e-03 
-1.312935671626e-03 1.217875082846e-04 0.0 
1.217875082846e-04 8.314561017664e-03 0.0 
0.0 0.0 -1.333783489999e-03 
-1.312397425891e-03 3.014725865093e-05 0.0 
3.014725865093e-05 8.298029012834e-03 0.0 
0.0 0.0 -1.334548731617e-03 
-1.314310776006e-03 -5.112989789944e-05 0.0 
-5.112989789944e-05 8.327635469408e-03 0.0 
0.0 0.0 -1.334619746794e-03 
-1.313246555764e-03 -1.133769864441e-04 0.0 
-1.133769864441e-04 8.338916253329e-03 0.0 
0.0 0.0 -1.335242115105e-03 
-1.326565106495e-03 -1.841934828276e-04 0.0 
-1.841934828276e-04 8.356624519228e-03 0.0 
0.0 0.0 -1.335691437541e-03 
-1.316402114403e-03 -2.262767311367e-04 0.0 
-2.262767311367e-04 8.389795272091e-03 0.0 
0.0 0.0 -1.335646478247e-03 
-1.330105212687e-03 -2.663920673302e-04 0.0 
-2.663920673302e-04 8.407666559300e-03 0.0 
0.0 0.0 -1.334931242407e-03 
-1.321109516020e-03 -3.015612028738e-04 0.0 
-3.015612028738e-04 8.428571737695e-03 0.0 
0.0 0.0 -1.334100791702e-03 
-1.335356464641e-03 -3.106038152236e-04 0.0 
-3.106038152236e-04 8.460193799364e-03 0.0 
0.0 0.0 -1.332237298415e-03 
-1.339781698762e-03 -3.337514916052e-04 0.0 
-3.337514916052e-04 8.495913159923e-03 0.0 
0.0 0.0 -1.333749945600e-03 
-1.335675790289e-03 -3.025403687924e-04 0.0 
-3.025403687924e-04 8.551515458499e-03 0.0 
0.0 0.0 -1.336652505695e-03 
-1.332391445612e-03 -3.083574403233e-04 0.0 
-3.083574403233e-04 8.592419009515e-03 0.0 
0.0 0.0 -1.337094627689e-03 
-1.345644529791e-03 -2.793636126787e-04 0.0 
-2.793636126787e-04 8.558237333725e-03 0.0 
0.0 0.0 -1.328990728106e-03 
-1.337312800610e-03 -2.305068913709e-04 0.0 
-2.305068913709e-04 8.630917037025e-03 0.0 
0.0 0.0 -1.335900064369e-03 
-1.350772327614e-03 -1.956698568975e-04 0.0 
-1.956698568975e-04 8.640358950647e-03 0.0 
0.0 0.0 -1.332523500780e-03 
-1.350423109387e-03 -1.955618747409e-04 0.0 
-1.955618747409e-04 8.650889793805e-03 0.0 
0.0 0.0 -1.335219049675e-03 
-1.349098610006e-03 -8.965167155351e-05 0.0 
-8.965167155351e-05 8.690821291703e-03 0.0 
0.0 0.0 -1.336566422126e-03 
-1.352485386629e-03 -6.128652914560e-05 0.0 
-6.128652914560e-05 8.701715469751e-03 0.0 
0.0 0.0 -1.335855682064e-03 
-8.621699259071e-04 -7.748599951090e-05 0.0 
-7.748599951090e-05 5.021330477437e-03 0.0 
0.0 0.0 -7.648954205800e-04 
-9.395078499560e-04 -8.704020005170e-05 0.0 
-8.704020005170e-05 5.517844915676e-03 0.0 
0.0 0.0 -8.298981322982e-04 
-9.977708429922e-04 -8.397016683561e-05 0.0 
-8.397016683561e-05 5.976838802593e-03 0.0 
0.0 0.0 -8.959277352460e-04 
-1.055682188809e-03 -8.887694878813e-05 0.0 
-8.887694878813e-05 6.419904102828e-03 0.0 
0.0 0.0 -9.610467530554e-04 
-1.113418161777e-03 -7.710435791321e-05 0.0 
-7.710435791321e-05 6.878985961880e-03 0.0 
0.0 0.0 -1.026987810050e-03 
-1.153337564853e-03 -8.395183782127e-05 0.0 
-8.395183782127e-05 7.337021217867e-03 0.0 
0.0 0.0 -1.092790196867e-03 
-1.209003093049e-03 -7.363209801243e-05 0.0 
-7.363209801243e-05 7.788251864833e-03 0.0 
0.0 0.0 -1.158290425478e-03 
-1.258139886954e-03 -8.431152228072e-05 0.0 
-8.431152228072e-05 8.217133852926e-03 0.0 
0.0 0.0 -1.224481705251e-03 
-1.303096836171e-03 -9.331509578295e-05 0.0 
-9.331509578295e-05 8.703843568816e-03 0.0 
0.0 0.0 -1.288782062784e-03 
0.0 0.0 0.0 
0.0 0.0 0.0 
0.0 0.0 0.0 
-8.713525372157e-04 1.741150646070e-04 0.0 
1.741150646070e-04 4.721163864371e-03 0.0 
0.0 0.0 -7.158658194789e-04 
1.853815197246e-05 4.024911659637e-04 0.0 
4.024911659637e-04 2.284141119962e-04 0.0 
0.0 0.0 -1.058366845580e-04 
-1.350079007602e-04 7.410901895652e-04 0.0 
7.410901895652e-04 7.622548468714e-04 0.0 
0.0 0.0 -2.667570615628e-04 
-3.852517699685e-04 8.237517617570e-04 0.0 
8.237517617570e-04 1.325012057104e-03 0.0 
0.0 0.0 -2.964167626729e-04 
-5.553115605805e-04 6.948245581935e-04 0.0 
6.948245581935e-04 1.798691708354e-03 0.0 
0.0 0.0 -3.108790080757e-04 
-5.881380717754e-04 5.581827846643e-04 0.0 
5.581827846643e-04 2.268059848630e-03 0.0 
0.0 0.0 -3.778135794433e-04 
-6.253800659574e-04 4.208240066448e-04 0.0 
4.208240066448e-04 2.745027489201e-03 0.0 
0.0 0.0 -4.454545662751e-04 
-6.818527519112e-04 3.447628562435e-04 0.0 
3.447628562435e-04 3.224158216588e-03 0.0 
0.0 0.0 -5.121313000160e-04 
-7.414536141764e-04 2.827689700129e-04 0.0 
2.827689700129e-04 3.696949746947e-03 0.0 
0.0 0.0 -5.789936928845e-04 
-8.023111204102e-04 2.312646057904e-04 0.0 
2.312646057904e-04 4.178976922656e-03 0.0 
0.0 0.0 -6.458622116531e-04 
-8.210287155105e-04 3.311140659003e-05 0.0 
3.311140659003e-05 4.792792237283e-03 0.0 
0.0 0.0 -7.167504868538e-04 
-8.125228829986e-04 2.123776519894e-05 0.0 
2.123776519894e-05 4.798435661785e-03 0.0 
0.0 0.0 -7.184827375020e-04 
-8.214051199703e-04 1.479555363923e-05 0.0 
1.479555363923e-05 4.798160995292e-03 0.0 
0.0 0.0 -7.186786903937e-04 
-8.212156523002e-04 3.200707485363e-06 0.0 
3.200707485363e-06 4.781773811098e-03 0.0 
0.0 0.0 -7.169675978895e-04 
-8.202172025012e-04 2.190783998220e-05 0.0 
2.190783998220e-05 4.859701779985e-03 0.0 
0.0 0.0 -7.238546058846e-04 
-8.241919416615e-04 2.493410284251e-05 0.0 
2.493410284251e-05 4.799742756017e-03 0.0 
0.0 0.0 -7.185860072230e-04 
-8.174328804806e-04 2.424165474079e-06 0.0 
2.424165474079e-06 4.786204771505e-03 0.0 
0.0 0.0 -7.170630917064e-04 
-8.225209134988e-04 4.647236341152e-05 0.0 
4.647236341152e-05 4.804201119882e-03 0.0 
0.0 0.0 -7.174139623878e-04 
-8.414744134325e-04 3.564574366136e-05 0.0 
3.564574366136e-05 4.825572351859e-03 0.0 
0.0 0.0 -7.207851870574e-04 
-8.513162252172e-04 6.006661317369e-05 0.0 
6.006661317369e-05 4.819985702314e-03 0.0 
0.0 0.0 -7.195160023472e-04 
-8.419354118389e-04 7.288398329022e-05 0.0 
7.288398329022e-05 4.807490572120e-03 0.0 
0.0 0.0 -7.186294792877e-04 
-8.565040521561e-04 8.038428368196e-05 0.0 
8.038428368196e-05 4.796459258857e-03 0.0 
0.0 0.0 -7.186194644340e-04 
-8.527642616320e-04 1.066289168233e-04 0.0 
1.066289168233e-04 4.781649305019e-03 0.0 
0.0 0.0 -7.192946965590e-04 
-8.563940480141e-04 1.373962241621e-04 0.0 
1.373962241621e-04 4.780709836259e-03 0.0 
0.0 0.0 -7.207925953812e-04 
0.0 0.0 0.0 
0.0 0.0 0.0 
0.0 0.0 0.0 
0.0 0.0 0.0 
0.0 0.0 0.0 
0.0 0.0 0.0 
0.0 0.0 0.0 
0.0 0.0 0.0 
0.0 0.0 0.0 
0.0 0.0 0.0 
0.0 0.0 0.0 
0.0 0.0 0.0 
4.834769447440e-06 -2.872264321309e-05 0.0 
-2.872264321309e-05 1.098176460521e-05 0.0 
0.0 0.0 -6.778514593994e-06 
2.621325204595e-05 -1.413766582246e-04 0.0 
-1.413766582246e-04 5.747299694100e-05 0.0 
0.0 0.0 -3.574982278410e-05 
9.658306216209e-05 -1.514259984182e-04 0.0 
-1.514259984182e-04 8.442241842910e-05 0.0 
0.0 0.0 -4.425618980996e-05 
3.269147103475e-04 -5.021185392625e-05 0.0 
-5.021185392625e-05 3.514559889707e-05 0.0 
0.0 0.0 -8.078147856958e-05 
4.744476216527e-04 -2.955001894905e-05 0.0 
-2.955001894905e-05 6.422490925947e-06 0.0 
0.0 0.0 -1.179719326098e-04 
4.179559190719e-04 -4.545879091992e-05 0.0 
-4.545879091992e-05 1.677504639263e-05 0.0 
0.0 0.0 -8.559165356152e-05 
4.071360169644e-04 -5.676430788113e-05 0.0 
-5.676430788113e-05 2.001137970326e-05 0.0 
0.0 0.0 -6.874308561246e-05 
4.446412730432e-04 -3.115479505997e-05 0.0 
-3.115479505997e-05 1.541228328890e-05 0.0 
0.0 0.0 -8.846752904866e-05 
4.870475968622e-04 1.166873053583e-05 0.0 
1.166873053583e-05 -1.464623307350e-05 0.0 
0.0 0.0 -9.035052009108e-05 
5.260775556971e-04 2.845864580513e-06 0.0 
2.845864580513e-06 -4.734498310635e-05 0.0 
0.0 0.0 -8.407298760335e-05 
4.889375979816e-04 1.982373921008e-06 0.0 
1.982373921008e-06 -3.404960998627e-05 0.0 
0.0 0.0 -8.575527677260e-05 
4.684927454641e-04 1.282275677680e-05 0.0 
1.282275677680e-05 -1.299745810531e-05 0.0 
0.0 0.0 -9.336363864370e-05 
4.673947306636e-04 1.106695912607e-05 0.0 
1.106695912607e-05 -8.273464710093e-06 0.0 
0.0 0.0 -9.804780058554e-05 
5.415064929806e-04 2.823476695604e-05 0.0 
2.823476695604e-05 -5.800018241321e-05 0.0 
0.0 0.0 -1.119616643783e-04 
5.940302345567e-04 3.858469315845e-05 0.0 
3.858469315845e-05 -8.768433413486e-05 0.0 
0.0 0.0 -1.120397082727e-04 
-1.214439424456e-05 3.324814938443e-04 0.0 
3.324814938443e-04 5.173679163890e-05 0.0 
0.0 0.0 -1.696817031186e-05 
-4.487896732987e-05 6.031454295583e-04 0.0 
6.031454295583e-04 4.769141611533e-04 0.0 
0.0 0.0 -1.851579402100e-04 
-2.477886944410e-04 8.307338841621e-04 0.0 
8.307338841621e-04 1.056772820351e-03 0.0 
0.0 0.0 -3.137502536684e-04 
-5.164548883485e-04 7.997848336998e-04 0.0 
7.997848336998e-04 1.596714724844e-03 0.0 
0.0 0.0 -2.872952472806e-04 
-5.626935448601e-04 6.025030630991e-04 0.0 
6.025030630991e-04 2.056956549032e-03 0.0 
0.0 0.0 -3.440931072323e-04 
-5.892114679697e-04 4.852291775261e-04 0.0 
4.852291775261e-04 2.528395193714e-03 0.0 
0.0 0.0 -4.108392228286e-04 
-6.541158208693e-04 3.926707262510e-04 0.0 
3.926707262510e-04 2.991837282477e-03 0.0 
0.0 0.0 -4.786325096809e-04 
-7.088632208578e-04 3.304223531405e-04 0.0 
3.304223531405e-04 3.462879744444e-03 0.0 
0.0 0.0 -5.455426008747e-04 
-7.700717847985e-04 2.699528239775e-04 0.0 
2.699528239775e-04 3.939971317271e-03 0.0 
0.0 0.0 -6.123661653548e-04 
-8.284890525639e-04 2.348823091892e-04 0.0 
2.348823091892e-04 4.426320567953e-03 0.0 
0.0 0.0 -6.792803300743e-04 
-6.528049956140e-05 8.329192367362e-04 0.0 
8.329192367362e-04 6.721534156509e-04 0.0 
0.0 0.0 -2.600883926098e-04 
-1.238271811776e-03 -2.323410981101e-05 0.0 
-2.323410981101e-05 8.143368057859e-03 0.0 
0.0 0.0 -1.303388942653e-03 
5.998510431380e-05 -1.163529753908e-04 0.0 
-1.163529753908e-04 2.499013313257e-04 0.0 
0.0 0.0 -7.661148810519e-05 
1.270751205327e-05 -3.607914457566e-05 0.0 
-3.607914457566e-05 6.964316184805e-06 0.0 
0.0 0.0 -8.430783530604e-06 
-1.278901467981e-03 -2.582894247670e-04 0.0 
-2.582894247670e-04 8.264882866352e-03 0.0 
0.0 0.0 -1.303360877099e-03 
-5.655990039998e-04 8.080804633426e-04 0.0 
8.080804633426e-04 1.859508276799e-03 0.0 
0.0 0.0 -3.221766324775e-04 
-9.861956324832e-04 -6.715847648061e-05 0.0 
-6.715847648061e-05 4.773589466734e-03 0.0 
0.0 0.0 -7.300567563597e-04 
-1.244927303710e-03 2.945275852412e-04 0.0 
2.945275852412e-04 8.164800639293e-03 0.0 
0.0 0.0 -1.300998267065e-03 
-6.348034790759e-04 4.424120780115e-04 0.0 
4.424120780115e-04 2.761117670990e-03 0.0 
0.0 0.0 -4.497936382440e-04 
-1.277128875373e-03 4.777706098865e-04 0.0 
4.777706098865e-04 8.316029240451e-03 0.0 
0.0 0.0 -1.304014651794e-03 
-7.514819667783e-04 2.897671537100e-04 0.0 
2.897671537100e-04 3.742162088854e-03 0.0 
0.0 0.0 -5.857980290939e-04 
-1.307584739855e-03 -2.907864623538e-04 0.0 
-2.907864623538e-04 8.435582561033e-03 0.0 
0.0 0.0 -1.307658508868e-03 
2.194594038095e-04 -2.670865977714e-05 0.0 
-2.670865977714e-05 1.694259524564e-04 0.0 
0.0 0.0 -9.345456780789e-05 
-1.309138496400e-03 5.212450025025e-04 0.0 
5.212450025025e-04 8.474949316046e-03 0.0 
0.0 0.0 -1.304481600125e-03 
-8.746417822978e-04 2.068395432367e-04 0.0 
2.068395432367e-04 4.729142408164e-03 0.0 
0.0 0.0 -7.203075318094e-04 
-6.505648739721e-04 -3.624268182337e-05 0.0 
-3.624268182337e-05 2.957311441966e-03 0.0 
0.0 0.0 -4.640473930190e-04 
-1.131372666701e-03 -4.491765098181e-05 0.0 
-4.491765098181e-05 5.976165985442e-03 0.0 
0.0 0.0 -9.125512086551e-04 
-1.314763544022e-03 4.589275118802e-04 0.0 
4.589275118802e-04 8.560285468091e-03 0.0 
0.0 0.0 -1.301280071178e-03 
-1.328200349095e-03 3.774182231254e-04 0.0 
3.774182231254e-04 8.674652987533e-03 0.0 
0.0 0.0 -1.304294760550e-03 
-1.328231009146e-03 1.002317222840e-04 0.0 
1.002317222840e-04 8.762903021805e-03 0.0 
0.0 0.0 -1.303238611779e-03 
-1.321361255880e-03 2.020746578681e-04 0.0 
2.020746578681e-04 8.706453928135e-03 0.0 
0.0 0.0 -1.297727402575e-03 
-1.333675382953e-03 2.525190978684e-04 0.0 
2.525190978684e-04 8.729905622316e-03 0.0 
0.0 0.0 -1.305306183856e-03 
-8.907724214169e-04 1.372579395388e-04 0.0 
1.372579395388e-04 4.950739460616e-03 0.0 
0.0 0.0 -7.522011426764e-04 
-8.750579348879e-04 6.356350708577e-05 0.0 
6.356350708577e-05 4.972444393085e-03 0.0 
0.0 0.0 -7.529849494387e-04 
-8.651922808025e-04 1.321213173771e-05 0.0 
1.321213173771e-05 5.002490543075e-03 0.0 
0.0 0.0 -7.580270452736e-04 
-1.081282276580e-03 -2.537529428612e-05 0.0 
-2.537529428612e-05 6.643650052824e-03 0.0 
0.0 0.0 -9.950081682429e-04 
-1.332561184719e-03 -2.295807888403e-04 0.0 
-2.295807888403e-04 8.502002206283e-03 0.0 
0.0 0.0 -1.302874185639e-03 
0.0 0.0 0.0 
0.0 0.0 0.0 
0.0 0.0 0.0 
2.411609655843e-04 4.248431460041e-06 0.0 
4.248431460041e-06 1.978516469824e-04 0.0 
0.0 0.0 -1.125188394852e-04 
-1.266615157062e-03 -4.708891648946e-05 0.0 
-4.708891648946e-05 7.362986267811e-03 0.0 
0.0 0.0 -1.122886395833e-03 
-8.590690058330e-04 2.817818056919e-05 0.0 
2.817818056919e-05 4.956725197885e-03 0.0 
0.0 0.0 -7.500338828344e-04 
-3.077541790528e-04 -1.952701143312e-05 0.0 
-1.952701143312e-05 1.504768126338e-03 0.0 
0.0 0.0 -2.594501920933e-04 
-1.324226706230e-03 4.167698339106e-04 0.0 
4.167698339106e-04 8.547363588762e-03 0.0 
0.0 0.0 -1.293200138473e-03 
-1.268789998251e-03 4.116378875631e-04 0.0 
4.116378875631e-04 8.267843264786e-03 0.0 
0.0 0.0 -1.307307853467e-03 
-1.298127013523e-03 5.178122413189e-04 0.0 
5.178122413189e-04 8.390890810400e-03 0.0 
0.0 0.0 -1.304733450272e-03 
-1.233362636415e-03 1.634458979136e-04 0.0 
1.634458979136e-04 8.121763907804e-03 0.0 
0.0 0.0 -1.297928233296e-03 
-1.261877986510e-03 -1.597052773119e-04 0.0 
-1.597052773119e-04 8.188934025231e-03 0.0 
0.0 0.0 -1.305578568836e-03 
2.734204477331e-05 -3.169143204034e-04 0.0 
-3.169143204034e-04 1.647533136443e-04 0.0 
0.0 0.0 -8.226872593096e-05 
-8.795053511419e-04 9.559274535899e-05 0.0 
9.559274535899e-05 4.954160552764e-03 0.0 
0.0 0.0 -7.500980793755e-04 
-1.291571793349e-03 -3.018456542619e-04 0.0 
-3.018456542619e-04 8.267318175430e-03 0.0 
0.0 0.0 -1.293180865222e-03 
-1.191688283040e-03 -1.679553581366e-05 0.0 
-1.679553581366e-05 7.562043590583e-03 0.0 
0.0 0.0 -1.123598490052e-03 
1.170418686809e-04 -5.562668358397e-05 0.0 
-5.562668358397e-05 2.275676700802e-04 0.0 
0.0 0.0 -7.719741026454e-05 
-8.274582342161e-04 -6.171908782243e-05 0.0 
-6.171908782243e-05 3.848512271059e-03 0.0 
0.0 0.0 -5.937437734062e-04 
-1.335764842081e-03 6.371320431880e-05 0.0 
6.371320431880e-05 8.844549453637e-03 0.0 
0.0 0.0 -1.311981303940e-03 
-6.029700723185e-04 6.122078773443e-04 0.0 
6.122078773443e-04 2.350776615634e-03 0.0 
0.0 0.0 -3.897472533596e-04 
-3.421036135192e-04 9.389470505226e-04 0.0 
9.389470505226e-04 1.298921873387e-03 0.0 
0.0 0.0 -3.268992177355e-04 
-6.932234286341e-04 3.612940895342e-04 0.0 
3.612940895342e-04 3.253564498504e-03 0.0 
0.0 0.0 -5.178568985205e-04 
-8.102727904185e-04 2.233971647189e-04 0.0 
2.233971647189e-04 4.222711404521e-03 0.0 
0.0 0.0 -6.527703211191e-04 
4.290811987341e-05 4.342522045788e-04 0.0 
4.342522045788e-04 1.301328546381e-04 0.0 
0.0 0.0 -7.416041764780e-05 
-9.647575502476e-04 -2.771769126341e-06 0.0 
-2.771769126341e-06 5.776762544034e-03 0.0 
0.0 0.0 -8.684787984471e-04 
-1.350888138525e-03 -1.433490915200e-04 0.0 
-1.433490915200e-04 8.608994521473e-03 0.0 
0.0 0.0 -1.313906642692e-03 
3.143163948293e-04 3.267761916041e-05 0.0 
3.267761916041e-05 1.466640261555e-04 0.0 
0.0 0.0 -1.273170318585e-04 
-1.275593957644e-03 1.853867106532e-05 0.0 
1.853867106532e-05 8.418825182379e-03 0.0 
0.0 0.0 -1.253930875827e-03 
-8.953448143456e-04 1.901723990594e-04 0.0 
1.901723990594e-04 4.929510438704e-03 0.0 
0.0 0.0 -7.532271817479e-04 
-9.242130448013e-04 2.218369834796e-04 0.0 
2.218369834796e-04 5.094044769017e-03 0.0 
0.0 0.0 -7.809350190597e-04 
-9.469027331401e-04 2.184886764960e-04 0.0 
2.184886764960e-04 5.336848493436e-03 0.0 
0.0 0.0 -8.115578932774e-04 
-9.847582339447e-04 2.348277518639e-04 0.0 
2.348277518639e-04 5.535490339246e-03 0.0 
0.0 0.0 -8.428390908522e-04 
-1.013224796440e-03 2.269955445031e-04 0.0 
2.269955445031e-04 5.773109205172e-03 0.0 
0.0 0.0 -8.784658474099e-04 
-1.038385862696e-03 2.590411142921e-04 0.0 
2.590411142921e-04 5.954479327597e-03 0.0 
0.0 0.0 -9.060409163497e-04 
-1.004174411440e-03 2.781484189758e-04 0.0 
2.781484189758e-04 5.703926568537e-03 0.0 
0.0 0.0 -8.711257577415e-04 
-1.054585459025e-03 2.973439443916e-04 0.0 
2.973439443916e-04 6.126110480118e-03 0.0 
0.0 0.0 -9.341442283280e-04 
-1.020905393351e-03 3.220952727550e-04 0.0 
3.220952727550e-04 5.866625374892e-03 0.0 
0.0 0.0 -8.989774131092e-04 
-1.060675836449e-03 2.424242741137e-04 0.0 
2.424242741137e-04 6.211611638975e-03 0.0 
0.0 0.0 -9.415083590319e-04 
-1.069903741450e-03 3.342745829502e-04 0.0 
3.342745829502e-04 6.289952349254e-03 0.0 
0.0 0.0 -9.622976032585e-04 
-1.033366094007e-03 3.621226093725e-04 0.0 
3.621226093725e-04 6.024211968433e-03 0.0 
0.0 0.0 -9.268639294333e-04 
-1.081748877589e-03 3.725821950627e-04 0.0 
3.725821950627e-04 6.448138080981e-03 0.0 
0.0 0.0 -9.903372159162e-04 
-1.042953915019e-03 3.991340856965e-04 0.0 
3.991340856965e-04 6.178329635147e-03 0.0 
0.0 0.0 -9.547708836903e-04 
-9.946320659626e-04 3.943126043460e-04 0.0 
3.943126043460e-04 5.758814307551e-03 0.0 
0.0 0.0 -8.916807130883e-04 
-1.001107217771e-03 4.332773723891e-04 0.0 
4.332773723891e-04 5.906894361937e-03 0.0 
0.0 0.0 -9.194532194038e-04 
-9.524385169357e-04 4.327952618966e-04 0.0 
4.327952618966e-04 5.490022466699e-03 0.0 
0.0 0.0 -8.565021464485e-04 
-9.551941416785e-04 4.714703413802e-04 0.0 
4.714703413802e-04 5.632535536945e-03 0.0 
0.0 0.0 -8.841639842141e-04 
-1.003948910985e-03 4.659340529388e-04 0.0 
4.659340529388e-04 6.052492370979e-03 0.0 
0.0 0.0 -9.471984275390e-04 
-9.534464918986e-04 5.005026845975e-04 0.0 
5.005026845975e-04 5.770878701320e-03 0.0 
0.0 0.0 -9.118195294070e-04 
-9.061256584098e-04 5.150134062317e-04 0.0 
5.150134062317e-04 5.352614190247e-03 0.0 
0.0 0.0 -8.488396520500e-04 
-8.989049191365e-04 5.434397803423e-04 0.0 
5.434397803423e-04 5.483228311018e-03 0.0 
0.0 0.0 -8.764089341820e-04 
-8.533039374695e-04 5.667693254414e-04 0.0 
5.667693254414e-04 5.068208533921e-03 0.0 
0.0 0.0 -8.135623229517e-04 
-8.400733524865e-04 5.914836390070e-04 0.0 
5.914836390070e-04 5.191255654721e-03 0.0 
0.0 0.0 -8.410744910442e-04 
-7.968543408339e-04 6.237249391908e-04 0.0 
6.237249391908e-04 4.777124479860e-03 0.0 
0.0 0.0 -7.781617608290e-04 
-7.768533972697e-04 6.436004668132e-04 0.0 
6.436004668132e-04 4.892920097115e-03 0.0 
0.0 0.0 -8.056965831182e-04 
-8.240566969273e-04 5.997503228454e-04 0.0 
5.997503228454e-04 5.313376653990e-03 0.0 
0.0 0.0 -8.686949506212e-04 
-7.549029941076e-04 6.445435251704e-04 0.0 
6.445435251704e-04 5.007797875212e-03 0.0 
0.0 0.0 -8.332427817419e-04 
-7.080731455591e-04 7.008821416478e-04 0.0 
7.008821416478e-04 4.586577191639e-03 0.0 
0.0 0.0 -7.703313069557e-04 
-6.796342790660e-04 6.889970591832e-04 0.0 
6.889970591832e-04 4.694361205396e-03 0.0 
0.0 0.0 -7.977945042040e-04 
-6.329025767040e-04 7.594983388287e-04 0.0 
7.594983388287e-04 4.271526927018e-03 0.0 
0.0 0.0 -7.349073124327e-04 
-5.970419350956e-04 7.303350951608e-04 0.0 
7.303350951608e-04 4.369967111415e-03 0.0 
0.0 0.0 -7.622392297106e-04 
-6.532929672579e-04 6.522887049741e-04 0.0 
6.522887049741e-04 4.806542372592e-03 0.0 
0.0 0.0 -8.253152238873e-04 
-5.665194748989e-04 6.694860838181e-04 0.0 
6.694860838181e-04 4.478701756150e-03 0.0 
0.0 0.0 -7.896995018144e-04 
-5.068058502527e-04 7.602496009026e-04 0.0 
7.602496009026e-04 4.031209139410e-03 0.0 
0.0 0.0 -7.264132926703e-04 
-4.737449794266e-04 6.709445860115e-04 0.0 
6.709445860115e-04 4.140917238724e-03 0.0 
0.0 0.0 -7.539848323805e-04 
-4.092281239023e-04 7.730243516518e-04 0.0 
7.730243516518e-04 3.680765614921e-03 0.0 
0.0 0.0 -6.903858661722e-04 
-3.744957372966e-04 6.516877818939e-04 0.0 
6.516877818939e-04 3.794607072583e-03 0.0 
0.0 0.0 -7.182351804274e-04 
-3.014418119782e-04 7.651198626849e-04 0.0 
7.651198626849e-04 3.317111817818e-03 0.0 
0.0 0.0 -6.542402593883e-04 
-2.691367924077e-04 5.991354595496e-04 0.0 
5.991354595496e-04 3.436288112929e-03 0.0 
0.0 0.0 -6.821763112594e-04 
-3.572033048063e-04 5.016025540799e-04 0.0 
5.016025540799e-04 3.930238801817e-03 0.0 
0.0 0.0 -7.460902125261e-04 
-2.604633093040e-04 4.087486075233e-04 0.0 
4.087486075233e-04 3.586761049540e-03 0.0 
0.0 0.0 -7.100832486075e-04 
-1.613056217724e-04 4.995138349428e-04 0.0 
4.995138349428e-04 3.072389318551e-03 0.0 
0.0 0.0 -6.458624074531e-04 
-1.669705829229e-04 2.701808013183e-04 0.0 
2.701808013183e-04 3.243787358763e-03 0.0 
0.0 0.0 -6.737786430284e-04 
-2.753947664968e-04 2.161212745525e-04 0.0 
2.161212745525e-04 3.768674846201e-03 0.0 
0.0 0.0 -7.381473126730e-04 
-2.005498486414e-04 5.346396201185e-05 0.0 
5.346396201185e-05 3.452103226554e-03 0.0 
0.0 0.0 -7.017500108595e-04 
-3.129525029214e-04 3.691539212024e-05 0.0 
3.691539212024e-05 3.980008917697e-03 0.0 
0.0 0.0 -7.662494016216e-04 
-2.576506604218e-04 -1.344602376400e-04 0.0 
-1.344602376400e-04 3.691587731914e-03 0.0 
0.0 0.0 -7.297828278826e-04 
-1.426325829897e-04 -1.501001214894e-04 0.0 
-1.501001214894e-04 3.157731231159e-03 0.0 
0.0 0.0 -6.655364893108e-04 
-2.218003623758e-04 -3.334729403515e-04 0.0 
-3.334729403515e-04 3.428848173996e-03 0.0 
0.0 0.0 -6.934067383651e-04 
-3.318343911700e-04 -2.853674173367e-04 0.0 
-2.853674173367e-04 3.952815162001e-03 0.0 
0.0 0.0 -7.577868799165e-04 
-3.144801710965e-04 -4.682272711583e-04 0.0 
-4.682272711583e-04 3.714915939774e-03 0.0 
0.0 0.0 -7.212202614536e-04 
-2.108184981842e-04 -5.509789330318e-04 0.0 
-5.509789330318e-04 3.196953321697e-03 0.0 
0.0 0.0 -6.571136838490e-04 
-3.194748950850e-04 -6.509678457029e-04 0.0 
-6.509678457029e-04 3.509025892108e-03 0.0 
0.0 0.0 -6.848379476561e-04 
-4.134303053585e-04 -5.537180261355e-04 0.0 
-5.537180261355e-04 4.010754256809e-03 0.0 
0.0 0.0 -7.491645792950e-04 
-4.282972412297e-04 -7.003622053819e-04 0.0 
-7.003622053819e-04 3.819503617895e-03 0.0 
0.0 0.0 -7.127097857715e-04 
-3.469063150971e-04 -8.191207970740e-04 0.0 
-8.191207970740e-04 3.332834435183e-03 0.0 
0.0 0.0 -6.486049398320e-04 
-4.603200915782e-04 -8.241016297384e-04 0.0 
-8.241016297384e-04 3.654972315785e-03 0.0 
0.0 0.0 -6.763006240845e-04 
-5.326763552168e-04 -7.095630877107e-04 0.0 
-7.095630877107e-04 4.127629826769e-03 0.0 
0.0 0.0 -7.409416231994e-04 
-5.642434690968e-04 -7.961766967206e-04 0.0 
-7.961766967206e-04 3.962246775740e-03 0.0 
0.0 0.0 -7.042275185679e-04 
-5.048810542407e-04 -9.111393169982e-04 0.0 
-9.111393169982e-04 3.507729400124e-03 0.0 
0.0 0.0 -6.398389559308e-04 
-6.027165900428e-04 -8.444966016725e-04 0.0 
-8.444966016725e-04 3.810620087909e-03 0.0 
0.0 0.0 -6.674633383154e-04 
-6.579291994771e-04 -7.450391146030e-04 0.0 
-7.450391146030e-04 4.258237816838e-03 0.0 
0.0 0.0 -7.324886333286e-04 
-6.885251553241e-04 -7.661379123145e-04 0.0 
-7.661379123145e-04 4.095680745521e-03 0.0 
0.0 0.0 -6.954027321055e-04 
-7.420005201256e-04 -6.813900099092e-04 0.0 
-6.813900099092e-04 4.540296059999e-03 0.0 
0.0 0.0 -7.608997874520e-04 
-6.419229239274e-04 -8.515280830913e-04 0.0 
-8.515280830913e-04 3.660198205629e-03 0.0 
0.0 0.0 -6.302092384919e-04 
-7.165087956100e-04 -7.532581299851e-04 0.0 
-7.532581299851e-04 3.933160643348e-03 0.0 
0.0 0.0 -6.580989212857e-04 
-6.748415764425e-04 -8.158732049488e-04 0.0 
-8.158732049488e-04 3.506981101763e-03 0.0 
0.0 0.0 -5.925517106747e-04 
-7.365832294088e-04 -7.073699189760e-04 0.0 
-7.073699189760e-04 3.765896700508e-03 0.0 
0.0 0.0 -6.207111136070e-04 
-6.332000182986e-04 5.918731838089e-04 0.0 
5.918731838089e-04 4.929291128701e-03 0.0 
0.0 0.0 -8.529317679587e-04 
-6.943116331248e-04 -7.425915444218e-04 0.0 
-7.425915444218e-04 3.344277999279e-03 0.0 
0.0 0.0 -5.549884598765e-04 
-6.397413698948e-04 -8.660814527003e-04 0.0 
-8.660814527003e-04 3.093984914707e-03 0.0 
0.0 0.0 -5.276250340903e-04 
-7.441497249529e-04 -6.348309289792e-04 0.0 
-6.348309289792e-04 3.588685288948e-03 0.0 
0.0 0.0 -5.833260987948e-04 
-7.927694967591e-04 -6.072286345187e-04 0.0 
-6.072286345187e-04 4.017000879105e-03 0.0 
0.0 0.0 -6.493616581942e-04 
-6.966675025981e-04 -6.428656991036e-04 0.0 
-6.428656991036e-04 3.166084591150e-03 0.0 
0.0 0.0 -5.173870653820e-04 
-7.365323002863e-04 -5.431818663254e-04 0.0 
-5.431818663254e-04 3.397457388952e-03 0.0 
0.0 0.0 -5.459094278256e-04 
-6.801980278813e-04 -5.258870908465e-04 0.0 
-5.258870908465e-04 2.971149924429e-03 0.0 
0.0 0.0 -4.798161731008e-04 
-3.522724475006e-04 8.978406558880e-04 0.0 
8.978406558880e-04 3.218246737404e-03 0.0 
0.0 0.0 -6.252159162693e-04 
-1.003922379852e-03 4.867498946042e-04 0.0 
4.867498946042e-04 6.194900288835e-03 0.0 
0.0 0.0 -9.750716696758e-04 
-7.134730581966e-04 -4.396097415729e-04 0.0 
-4.396097415729e-04 3.191992919970e-03 0.0 
0.0 0.0 -5.084495576641e-04 
-6.454975030147e-04 -4.098543326581e-04 0.0 
-4.098543326581e-04 2.756723401947e-03 0.0 
0.0 0.0 -4.423119711188e-04 
-6.169555617155e-04 -4.854535332185e-04 0.0 
-4.854535332185e-04 2.543124995000e-03 0.0 
0.0 0.0 -4.136824817550e-04 
-5.630688119643e-04 -3.553409865602e-04 0.0 
-3.553409865602e-04 2.315573721592e-03 0.0 
0.0 0.0 -3.761903503575e-04 
-1.032297422083e-03 1.966440866369e-04 0.0 
1.966440866369e-04 6.038887422175e-03 0.0 
0.0 0.0 -9.126358703463e-04 
-1.092679819842e-03 2.404953654437e-04 0.0 
2.404953654437e-04 6.471742125457e-03 0.0 
0.0 0.0 -9.772611937912e-04 
-1.065662184042e-03 1.952825978825e-04 0.0 
1.952825978825e-04 6.276115658093e-03 0.0 
0.0 0.0 -9.468612964576e-04 
-1.124488971150e-03 2.272669760496e-04 0.0 
2.272669760496e-04 6.729090336894e-03 0.0 
0.0 0.0 -1.012955122490e-03 
-1.098065280761e-03 1.864830102051e-04 0.0 
1.864830102051e-04 6.541298868571e-03 0.0 
0.0 0.0 -9.835180958883e-04 
-5.915603593799e-04 -3.065298427479e-04 0.0 
-3.065298427479e-04 2.521782196510e-03 0.0 
0.0 0.0 -4.047791634435e-04 
-1.117175513921e-03 3.540420738705e-04 0.0 
3.540420738705e-04 6.717826161917e-03 0.0 
0.0 0.0 -1.026687169009e-03 
-1.146459728684e-03 2.677090129604e-04 0.0 
2.677090129604e-04 6.908937528882e-03 0.0 
0.0 0.0 -1.042264213861e-03 
-8.619810308033e-04 5.269046982762e-04 0.0 
5.269046982762e-04 4.942534175484e-03 0.0 
0.0 0.0 -7.861871271282e-04 
-6.685992335526e-04 7.579980182072e-04 0.0 
7.579980182072e-04 4.174187567995e-03 0.0 
0.0 0.0 -7.076088937226e-04 
-3.823000922578e-04 1.751040962943e-04 0.0 
1.751040962943e-04 4.285393794973e-03 0.0 
0.0 0.0 -8.027518904046e-04 
-7.754697783619e-04 -4.563258168331e-04 0.0 
-4.563258168331e-04 3.623603682734e-03 0.0 
0.0 0.0 -5.745905038755e-04 
-7.478137892348e-04 -3.620965601600e-04 0.0 
-3.620965601600e-04 3.412205611854e-03 0.0 
0.0 0.0 -5.371338854166e-04 
-8.174754817651e-04 -3.813163108904e-04 0.0 
-3.813163108904e-04 3.849101426160e-03 0.0 
0.0 0.0 -6.033452624549e-04 
-7.192525572030e-04 -6.519418612780e-04 0.0 
-6.519418612780e-04 4.714458239345e-03 0.0 
0.0 0.0 -7.980428604176e-04 
-8.008672232585e-04 -6.001783307384e-04 0.0 
-6.001783307384e-04 4.992005436326e-03 0.0 
0.0 0.0 -8.266132305475e-04 
-7.854918836627e-04 -5.659348858598e-04 0.0 
-5.659348858598e-04 5.176434454621e-03 0.0 
0.0 0.0 -8.638188500004e-04 
-8.639017049063e-04 -5.248351014622e-04 0.0 
-5.248351014622e-04 5.448454375514e-03 0.0 
0.0 0.0 -8.924533907576e-04 
-8.555184497349e-04 -4.894755576408e-04 0.0 
-4.894755576408e-04 5.642058910946e-03 0.0 
0.0 0.0 -9.297164513315e-04 
-9.301291339826e-04 -4.570426975750e-04 0.0 
-4.570426975750e-04 5.908844626244e-03 0.0 
0.0 0.0 -9.583747859490e-04 
-9.353789003032e-04 -4.780922276340e-04 0.0 
-4.780922276340e-04 5.711821717037e-03 0.0 
0.0 0.0 -9.210728288235e-04 
-9.984662583326e-04 -4.207024963502e-04 0.0 
-4.207024963502e-04 6.168121907027e-03 0.0 
0.0 0.0 -9.870277070005e-04 
-1.000069004232e-03 -4.285924737525e-04 0.0 
-4.285924737525e-04 5.966651563586e-03 0.0 
0.0 0.0 -9.497007337289e-04 
-9.283284515458e-04 -4.229135290675e-04 0.0 
-4.229135290675e-04 6.110180447664e-03 0.0 
0.0 0.0 -9.956835613869e-04 
-8.527578693464e-04 -4.403303765288e-04 0.0 
-4.403303765288e-04 5.842885643991e-03 0.0 
0.0 0.0 -9.668198671257e-04 
-1.059819806392e-03 -3.815720688592e-04 0.0 
-3.815720688592e-04 6.418981492352e-03 0.0 
0.0 0.0 -1.015681523326e-03 
-1.057949721367e-03 -3.770560260125e-04 0.0 
-3.770560260125e-04 6.213345858748e-03 0.0 
0.0 0.0 -9.783260305704e-04 
-1.113690001508e-03 -3.391138449317e-04 0.0 
-3.391138449317e-04 6.662067817752e-03 0.0 
0.0 0.0 -1.044362401637e-03 
-1.108897527401e-03 -3.261874601882e-04 0.0 
-3.261874601882e-04 6.451449547970e-03 0.0 
0.0 0.0 -1.007007767922e-03 
-1.056102434059e-03 -3.617377197121e-04 0.0 
-3.617377197121e-04 6.006353850389e-03 0.0 
0.0 0.0 -9.408676861799e-04 
-1.103510128039e-03 -3.034940289184e-04 0.0 
-3.034940289184e-04 6.238484304806e-03 0.0 
0.0 0.0 -9.695029660748e-04 
-1.052845247082e-03 -3.373861149014e-04 0.0 
-3.373861149014e-04 5.798954310895e-03 0.0 
0.0 0.0 -9.035672079865e-04 
-4.228503435162e-04 2.652797493901e-05 0.0 
2.652797493901e-05 4.498640496550e-03 0.0 
0.0 0.0 -8.309624794500e-04 
-4.884683166150e-04 1.460460655517e-04 0.0 
1.460460655517e-04 4.796700712876e-03 0.0 
0.0 0.0 -8.675775700443e-04 
-5.309148746778e-04 2.225588307319e-05 0.0 
2.225588307319e-05 5.010085131158e-03 0.0 
0.0 0.0 -8.958500940740e-04 
-5.943549435448e-04 1.251718936452e-04 0.0 
1.251718936452e-04 5.302582402065e-03 0.0 
0.0 0.0 -9.325549191312e-04 
-6.382538609797e-04 2.086054713912e-05 0.0 
2.086054713912e-05 5.516155282354e-03 0.0 
0.0 0.0 -9.609176734917e-04 
-7.011603817707e-04 1.101794033340e-04 0.0 
1.101794033340e-04 5.804703043974e-03 0.0 
0.0 0.0 -9.976363410588e-04 
-7.465959866999e-04 2.216834778625e-05 0.0 
2.216834778625e-05 6.016830116331e-03 0.0 
0.0 0.0 -1.026032504441e-03 
-6.923978724816e-04 -6.826398853254e-05 0.0 
-6.826398853254e-05 5.743653636097e-03 0.0 
0.0 0.0 -9.892761093609e-04 
-1.092308246197e-03 4.087334969491e-04 0.0 
4.087334969491e-04 6.601377400440e-03 0.0 
0.0 0.0 -1.018102500310e-03 
-5.675897396992e-05 3.425637172408e-04 0.0 
3.425637172408e-04 2.708861454988e-03 0.0 
0.0 0.0 -6.095594541484e-04 
-6.420114659775e-05 6.151203334216e-04 0.0 
6.151203334216e-04 2.551183745386e-03 0.0 
0.0 0.0 -5.816898710390e-04 
5.441246620249e-05 4.399473863901e-04 0.0 
4.399473863901e-04 2.161774981432e-03 0.0 
0.0 0.0 -5.454521931755e-04 
2.844502818309e-05 7.644395339616e-04 0.0 
7.644395339616e-04 2.024830997844e-03 0.0 
0.0 0.0 -5.176388733440e-04 
1.652901373793e-04 5.705702379394e-04 0.0 
5.705702379394e-04 1.600345183292e-03 0.0 
0.0 0.0 -4.814163979944e-04 
1.130601457631e-04 9.562292981796e-04 0.0 
9.562292981796e-04 1.494895390825e-03 0.0 
0.0 0.0 -4.537165770244e-04 
2.845119300012e-04 7.483953602617e-04 0.0 
7.483953602617e-04 1.019187802654e-03 0.0 
0.0 0.0 -4.208902240644e-04 
2.929325993539e-04 2.620833489363e-04 0.0 
2.620833489363e-04 1.186149753907e-03 0.0 
0.0 0.0 -4.466351565148e-04 
4.659960569609e-04 3.874152989476e-04 0.0 
3.874152989476e-04 5.352766773023e-04 0.0 
0.0 0.0 -3.736376070058e-04 
4.059265982279e-04 -1.758088808093e-04 0.0 
-1.758088808093e-04 8.092916298160e-04 0.0 
0.0 0.0 -4.168446658567e-04 
5.790431118009e-04 -1.610129805314e-04 0.0 
-1.610129805314e-04 1.533127793959e-04 0.0 
0.0 0.0 -3.063790003961e-04 
4.494391646470e-04 -7.152402717994e-04 0.0 
-7.152402717994e-04 5.082279969168e-04 0.0 
0.0 0.0 -3.640020775467e-04 
-8.080190775198e-04 5.920502661192e-04 0.0 
5.920502661192e-04 5.436356176569e-03 0.0 
0.0 0.0 -8.963565068603e-04 
-6.651558879210e-04 2.088271070434e-04 0.0 
2.088271070434e-04 5.603894024499e-03 0.0 
0.0 0.0 -9.691568884624e-04 
-7.699005087498e-04 1.883379167874e-04 0.0 
1.883379167874e-04 6.102423018858e-03 0.0 
0.0 0.0 -1.034312087004e-03 
-7.384024095732e-04 2.760115291154e-04 0.0 
2.760115291154e-04 5.907746579569e-03 0.0 
0.0 0.0 -1.005320805676e-03 
-5.404221803057e-04 -4.187129725138e-04 0.0 
-4.187129725138e-04 2.110154003912e-03 0.0 
0.0 0.0 -3.475522021424e-04 
-1.152888887005e-03 -2.763407572661e-04 0.0 
-2.763407572661e-04 6.681517292358e-03 0.0 
0.0 0.0 -1.035773625862e-03 
-9.326850124499e-04 -3.805734010338e-04 0.0 
-3.805734010338e-04 6.318938914436e-03 0.0 
0.0 0.0 -1.032922975483e-03 
-8.578946226242e-04 -3.814307824260e-04 0.0 
-3.814307824260e-04 6.050788235921e-03 0.0 
0.0 0.0 -1.003739924893e-03 
-8.007230077279e-04 -5.030783828559e-05 0.0 
-5.030783828559e-05 6.244226135644e-03 0.0 
0.0 0.0 -1.054598834243e-03 
-4.941523760955e-04 -2.470231279283e-04 0.0 
-2.470231279283e-04 2.071816915527e-03 0.0 
0.0 0.0 -3.392587823741e-04 
1.975953042673e-04 1.172543779916e-03 0.0 
1.172543779916e-03 9.666654142640e-04 0.0 
0.0 0.0 -3.922431101850e-04 
5.175793587872e-06 1.277837662737e-03 0.0 
1.277837662737e-03 1.466786264722e-03 0.0 
0.0 0.0 -4.261104576107e-04 
-1.152692083578e-03 2.146597661269e-04 0.0 
2.146597661269e-04 6.983288018661e-03 0.0 
0.0 0.0 -1.048874596840e-03 
-1.125979627456e-03 1.800276227316e-04 0.0 
1.800276227316e-04 6.792196765101e-03 0.0 
0.0 0.0 -1.019458214591e-03 
-9.448287362971e-04 -3.295389867260e-04 0.0 
-3.295389867260e-04 6.536387605041e-03 0.0 
0.0 0.0 -1.070157681403e-03 
-5.240293716215e-04 -2.102668930863e-04 0.0 
-2.102668930863e-04 2.277314558376e-03 0.0 
0.0 0.0 -3.675747464493e-04 
-1.063791247498e-03 -3.742192618344e-04 0.0 
-3.742192618344e-04 6.627422368744e-03 0.0 
0.0 0.0 -1.052997445444e-03 
5.558984473440e-04 4.127353325470e-04 0.0 
4.127353325470e-04 1.463881506699e-05 0.0 
0.0 0.0 -2.445159696047e-04 
-1.144117684349e-03 -2.458346103954e-04 0.0 
-2.458346103954e-04 6.462839923362e-03 0.0 
0.0 0.0 -9.982306137915e-04 
-1.191309827109e-03 -2.266694415371e-04 0.0 
-2.266694415371e-04 6.904200660223e-03 0.0 
0.0 0.0 -1.064501221861e-03 
-9.418341400068e-04 -4.830251057162e-04 0.0 
-4.830251057162e-04 5.517520339527e-03 0.0 
0.0 0.0 -8.838659695519e-04 
-8.408929706273e-04 2.533730996691e-04 0.0 
2.533730996691e-04 6.403362100756e-03 0.0 
0.0 0.0 -1.070909199420e-03 
-8.123210735737e-04 3.267258872306e-04 0.0 
3.267258872306e-04 6.208133296915e-03 0.0 
0.0 0.0 -1.041442769611e-03 
2.640974401389e-04 -6.120925406395e-04 0.0 
-6.120925406395e-04 1.170954425306e-03 0.0 
0.0 0.0 -4.384799197683e-04 
2.270076462303e-04 -1.094827319140e-03 0.0 
-1.094827319140e-03 9.810701092341e-04 0.0 
0.0 0.0 -4.046094527367e-04 
3.640551099348e-04 -1.155184556941e-03 0.0 
-1.155184556941e-03 4.131638396833e-04 0.0 
0.0 0.0 -3.139947606995e-04 
1.171979887630e-04 -1.455005939438e-03 0.0 
-1.455005939438e-03 9.453620887615e-04 0.0 
0.0 0.0 -3.763072820036e-04 
2.556371078842e-05 -1.262704422364e-03 0.0 
-1.262704422364e-03 1.454464914390e-03 0.0 
0.0 0.0 -4.289053338950e-04 
-8.947678599683e-05 -1.490768828574e-03 0.0 
-1.490768828574e-03 1.396555812330e-03 0.0 
0.0 0.0 -3.979758726750e-04 
2.329510608105e-05 -1.514078363831e-03 0.0 
-1.514078363831e-03 9.452166061342e-04 0.0 
0.0 0.0 -3.667276109228e-04 
-2.100553572376e-04 -1.558593298157e-03 0.0 
-1.558593298157e-03 1.402552177449e-03 0.0 
0.0 0.0 -3.771854463149e-04 
-2.665534885264e-04 -1.440543195804e-03 0.0 
-1.440543195804e-03 1.828480576306e-03 0.0 
0.0 0.0 -4.192720002935e-04 
-3.858828221178e-04 -1.432331817451e-03 0.0 
-1.432331817451e-03 1.803183213938e-03 0.0 
0.0 0.0 -3.853829593207e-04 
-2.961455271275e-04 -1.398427341996e-03 0.0 
-1.398427341996e-03 1.416563920223e-03 0.0 
0.0 0.0 -3.646163496721e-04 
-4.654616132702e-04 -1.259328861233e-03 0.0 
-1.259328861233e-03 1.764244007017e-03 0.0 
0.0 0.0 -3.558200702016e-04 
-1.201889062818e-03 -2.543911578407e-04 0.0 
-2.543911578407e-04 7.124942193322e-03 0.0 
0.0 0.0 -1.101875158976e-03 
5.412904168970e-04 -8.385322248721e-05 0.0 
-8.385322248721e-05 -1.404456435363e-04 0.0 
0.0 0.0 -1.717906171546e-04 
-9.463800631761e-04 3.860027273263e-04 0.0 
3.860027273263e-04 5.343793686453e-03 0.0 
0.0 0.0 -8.288706041983e-04 
-1.014362980206e-03 -3.321555799501e-04 0.0 
-3.321555799501e-04 6.794335154877e-03 0.0 
0.0 0.0 -1.099012274073e-03 
-8.569045148225e-04 3.078985663282e-05 0.0 
3.078985663282e-05 6.510332221214e-03 0.0 
0.0 0.0 -1.090660416876e-03 
-1.178566600954e-03 2.066846340334e-04 0.0 
2.066846340334e-04 7.236502688045e-03 0.0 
0.0 0.0 -1.085032576515e-03 
-1.153658343620e-03 1.755152393049e-04 0.0 
1.755152393049e-04 7.044914703598e-03 0.0 
0.0 0.0 -1.055603631703e-03 
-1.098678134952e-03 1.564744163133e-04 0.0 
1.564744163133e-04 6.595940529562e-03 0.0 
0.0 0.0 -9.897378988699e-04 
-1.129113373444e-03 1.503482155027e-04 0.0 
1.503482155027e-04 6.853244331223e-03 0.0 
0.0 0.0 -1.026001677571e-03 
-1.181824965340e-03 1.678156779438e-04 0.0 
1.678156779438e-04 7.301020112961e-03 0.0 
0.0 0.0 -1.091942449670e-03 
-1.157557793781e-03 1.434383666525e-04 0.0 
1.434383666525e-04 7.107529686986e-03 0.0 
0.0 0.0 -1.062342898562e-03 
-1.103342207633e-03 1.238709536611e-04 0.0 
1.238709536611e-04 6.657901312686e-03 0.0 
0.0 0.0 -9.962627399151e-04 
-1.130139591936e-03 1.194308116232e-04 0.0 
1.194308116232e-04 6.908298246914e-03 0.0 
0.0 0.0 -1.032646955902e-03 
-1.072650473166e-03 9.941159075289e-05 0.0 
9.941159075289e-05 6.455574140328e-03 0.0 
0.0 0.0 -9.664557332607e-04 
-1.101356119743e-03 9.815565709694e-05 0.0 
9.815565709694e-05 6.706288769856e-03 0.0 
0.0 0.0 -1.002889032254e-03 
-1.155889062888e-03 1.141636426079e-04 0.0 
1.141636426079e-04 7.157664523701e-03 0.0 
0.0 0.0 -1.069134413525e-03 
-1.129364737971e-03 9.069177524751e-05 0.0 
9.069177524751e-05 6.958007176896e-03 0.0 
0.0 0.0 -1.039387411609e-03 
-1.074512864600e-03 8.003659807365e-05 0.0 
8.003659807365e-05 6.506063569350e-03 0.0 
0.0 0.0 -9.730575354659e-04 
-1.102505706781e-03 6.895302199807e-05 0.0 
6.895302199807e-05 6.755927681467e-03 0.0 
0.0 0.0 -1.009574527126e-03 
-1.046730538131e-03 5.947738879001e-05 0.0 
5.947738879001e-05 6.301429284161e-03 0.0 
0.0 0.0 -9.431603702596e-04 
-1.071542509842e-03 4.629020306893e-05 0.0 
4.629020306893e-05 6.545497453892e-03 0.0 
0.0 0.0 -9.796061197752e-04 
-1.128792209327e-03 6.597728227981e-05 0.0 
6.597728227981e-05 7.006220652052e-03 0.0 
0.0 0.0 -1.046101832713e-03 
-4.073418969283e-04 -1.607374412238e-04 0.0 
-1.607374412238e-04 1.828608037656e-03 0.0 
0.0 0.0 -3.035957800550e-04 
-7.554826328512e-04 -1.381735686785e-04 0.0 
-1.381735686785e-04 5.982792301535e-03 0.0 
0.0 0.0 -1.017732614895e-03 
-8.650297313857e-04 -1.043541426240e-04 0.0 
-1.043541426240e-04 6.483758424389e-03 0.0 
0.0 0.0 -1.083831836677e-03 
-7.928232165852e-04 -3.175969841458e-04 0.0 
-3.175969841458e-04 3.652484692606e-03 0.0 
0.0 0.0 -5.671321338944e-04 
-8.566347672055e-04 -3.217821912401e-04 0.0 
-3.217821912401e-04 4.048954472777e-03 0.0 
0.0 0.0 -6.325382687906e-04 
-8.804918361104e-04 -3.627202257711e-04 0.0 
-3.627202257711e-04 4.282181100263e-03 0.0 
0.0 0.0 -6.695659616924e-04 
-9.177573047803e-04 -2.924538415403e-04 0.0 
-2.924538415403e-04 4.507721826303e-03 0.0 
0.0 0.0 -6.986863204145e-04 
-1.099135465243e-03 4.357947276918e-05 0.0 
4.357947276918e-05 6.797671672464e-03 0.0 
0.0 0.0 -1.015477767897e-03 
-1.160436245727e-03 6.544078644588e-05 0.0 
6.544078644588e-05 7.256684604588e-03 0.0 
0.0 0.0 -1.082739357160e-03 
7.036319334209e-05 1.449833710054e-03 0.0 
1.449833710054e-03 1.011168072104e-03 0.0 
0.0 0.0 -3.730214571323e-04 
-1.313033917885e-04 1.466714958247e-03 0.0 
1.466714958247e-03 1.502828426790e-03 0.0 
0.0 0.0 -4.032920832132e-04 
-1.202425520628e-03 2.413601229435e-04 0.0 
2.413601229435e-04 7.423802842249e-03 0.0 
0.0 0.0 -1.114382729655e-03 
-1.180850422310e-03 -1.936004808914e-04 0.0 
-1.936004808914e-04 6.684429122052e-03 0.0 
0.0 0.0 -1.027045364000e-03 
-1.134320678585e-03 -2.084199271041e-04 0.0 
-2.084199271041e-04 6.243084428302e-03 0.0 
0.0 0.0 -9.609938998495e-04 
-5.952582294012e-04 8.316068584819e-04 0.0 
8.316068584819e-04 3.858437738170e-03 0.0 
0.0 0.0 -6.721935305596e-04 
-6.370100935664e-04 8.121723615139e-04 0.0 
8.121723615139e-04 3.769953827514e-03 0.0 
0.0 0.0 -6.449639573754e-04 
-5.665659749616e-04 8.991854182347e-04 0.0 
8.991854182347e-04 3.453268816289e-03 0.0 
0.0 0.0 -6.093131083769e-04 
-6.122481697245e-04 8.584550154617e-04 0.0 
8.584550154617e-04 3.367517643807e-03 0.0 
0.0 0.0 -5.812298138028e-04 
-6.717347223774e-04 7.671538527367e-04 0.0 
7.671538527367e-04 3.680324616707e-03 0.0 
0.0 0.0 -6.173664885638e-04 
-5.474862438506e-04 9.567364556164e-04 0.0 
9.567364556164e-04 3.048590303343e-03 0.0 
0.0 0.0 -5.448148816535e-04 
-7.720267330795e-04 -4.449545656596e-04 0.0 
-4.449545656596e-04 5.565922562376e-03 0.0 
0.0 0.0 -9.373051277721e-04 
-1.182206612194e-03 1.041005248131e-04 0.0 
1.041005248131e-04 7.409010778114e-03 0.0 
0.0 0.0 -1.105708206284e-03 
-5.928875136439e-04 -5.713513742364e-04 0.0 
-5.713513742364e-04 2.330327898660e-03 0.0 
0.0 0.0 -3.852871208612e-04 
-5.197872744909e-04 -4.881912543796e-04 0.0 
-4.881912543796e-04 1.906337896852e-03 0.0 
0.0 0.0 -3.193625892355e-04 
-1.227873719132e-03 -1.791865956722e-04 0.0 
-1.791865956722e-04 7.126040838435e-03 0.0 
0.0 0.0 -1.093300181677e-03 
-6.499802166189e-04 -1.689058959396e-04 0.0 
-1.689058959396e-04 5.481207367019e-03 0.0 
0.0 0.0 -9.522822042369e-04 
-8.770180670307e-04 5.584319225786e-04 0.0 
5.584319225786e-04 5.741150606381e-03 0.0 
0.0 0.0 -9.319735432435e-04 
-8.671724403427e-04 5.454834419887e-04 0.0 
5.454834419887e-04 5.872286509418e-03 0.0 
0.0 0.0 -9.598347391831e-04 
-9.359860302395e-04 5.226295226197e-04 0.0 
5.226295226197e-04 6.177406845640e-03 0.0 
0.0 0.0 -9.957130113267e-04 
-9.320971335611e-04 5.080083978468e-04 0.0 
5.080083978468e-04 6.315456934145e-03 0.0 
0.0 0.0 -1.023751803962e-03 
-1.000869956237e-03 4.939881751637e-04 0.0 
4.939881751637e-04 6.620841154437e-03 0.0 
0.0 0.0 -1.059873349132e-03 
-1.004419613008e-03 4.777529205192e-04 0.0 
4.777529205192e-04 6.763876066662e-03 0.0 
0.0 0.0 -1.087854580038e-03 
-9.336137141730e-04 4.809338762962e-04 0.0 
4.809338762962e-04 6.463526298401e-03 0.0 
0.0 0.0 -1.051791170495e-03 
-9.097029887622e-04 3.089094526998e-04 0.0 
3.089094526998e-04 6.700162919637e-03 0.0 
0.0 0.0 -1.107463318235e-03 
-1.013980886497e-03 4.491053628713e-04 0.0 
4.491053628713e-04 6.922381498406e-03 0.0 
0.0 0.0 -1.115916943430e-03 
-1.033295848304e-03 4.860531472176e-05 0.0 
4.860531472176e-05 6.321432505072e-03 0.0 
0.0 0.0 -9.487150400336e-04 
-6.387227248277e-04 3.148916192941e-04 0.0 
3.148916192941e-04 5.411845409225e-03 0.0 
0.0 0.0 -9.398448712237e-04 
-3.958753706079e-04 -1.306941406373e-03 0.0 
-1.306941406373e-03 2.210168825673e-03 0.0 
0.0 0.0 -4.474652294669e-04 
-3.867396229061e-04 -1.939364425131e-04 0.0 
-1.939364425131e-04 1.612473113241e-03 0.0 
0.0 0.0 -2.752498982733e-04 
-3.548792531294e-04 -1.099906862766e-03 0.0 
-1.099906862766e-03 1.383653509656e-03 0.0 
0.0 0.0 -3.352047878591e-04 
-4.486846026636e-04 -1.253624941077e-04 0.0 
-1.253624941077e-04 2.009661496099e-03 0.0 
0.0 0.0 -3.299748606085e-04 
-5.597023421830e-04 -1.650736869684e-04 0.0 
-1.650736869684e-04 2.479203026553e-03 0.0 
0.0 0.0 -3.961554456411e-04 
-1.033444219732e-03 -2.887128519644e-04 0.0 
-2.887128519644e-04 7.020027445513e-03 0.0 
0.0 0.0 -1.136360603439e-03 
-1.072616243485e-03 4.757105308921e-04 0.0 
4.757105308921e-04 7.071175993343e-03 0.0 
0.0 0.0 -1.124065295910e-03 
-1.065195527322e-03 4.849349100928e-04 0.0 
4.849349100928e-04 6.917548798149e-03 0.0 
0.0 0.0 -1.095615423988e-03 
-6.465811726499e-04 7.943118945265e-04 0.0 
7.943118945265e-04 3.291375737462e-03 0.0 
0.0 0.0 -5.539799138139e-04 
-6.949762395585e-04 6.852387151617e-04 0.0 
6.852387151617e-04 3.583300335040e-03 0.0 
0.0 0.0 -5.905304635153e-04 
-9.409548518096e-04 2.363101942403e-04 0.0 
2.363101942403e-04 6.893498553700e-03 0.0 
0.0 0.0 -1.136278651916e-03 
-1.031330535355e-03 1.691125997159e-04 0.0 
1.691125997159e-04 6.096244556870e-03 0.0 
0.0 0.0 -9.177848451843e-04 
-1.043451867895e-03 1.026605375003e-04 0.0 
1.026605375003e-04 6.207052540714e-03 0.0 
0.0 0.0 -9.302130594432e-04 
-1.010991519056e-03 8.266817185374e-05 0.0 
8.266817185374e-05 5.998028369178e-03 0.0 
0.0 0.0 -9.001900590098e-04 
-3.040782914078e-04 -1.048978576797e-04 0.0 
-1.048978576797e-04 1.479833111238e-03 0.0 
0.0 0.0 -2.595221258752e-04 
-1.668157979825e-04 -1.176981615551e-03 0.0 
-1.176981615551e-03 1.066881825257e-03 0.0 
0.0 0.0 -3.546314877250e-04 
-1.207894844135e-03 1.612820959581e-04 0.0 
1.612820959581e-04 7.555800088084e-03 0.0 
0.0 0.0 -1.128363834889e-03 
-1.496144498695e-04 1.267178183608e-03 0.0 
1.267178183608e-03 1.924933515505e-03 0.0 
0.0 0.0 -4.615872697407e-04 
-2.777481430259e-04 1.364720531140e-03 0.0 
1.364720531140e-03 1.941765323137e-03 0.0 
0.0 0.0 -4.342639779644e-04 
4.034334735409e-04 2.445431345025e-04 0.0 
2.445431345025e-04 -9.041096436294e-05 0.0 
0.0 0.0 -1.341525039334e-04 
2.051377463425e-04 -1.961701048020e-05 0.0 
-1.961701048020e-05 -5.720414671563e-05 0.0 
0.0 0.0 -6.340011412580e-05 
-1.121483383227e-03 6.295637452115e-05 0.0 
6.295637452115e-05 7.029111019756e-03 0.0 
0.0 0.0 -1.051814883004e-03 
-1.177494848702e-03 6.582362175726e-05 0.0 
6.582362175726e-05 7.492557943411e-03 0.0 
0.0 0.0 -1.117859435171e-03 
-9.333898311745e-04 -3.509792996749e-04 0.0 
-3.509792996749e-04 4.719089492349e-03 0.0 
0.0 0.0 -7.356929296387e-04 
-9.785857666390e-04 -2.860980495383e-04 0.0 
-2.860980495383e-04 4.943354100410e-03 0.0 
0.0 0.0 -7.648299719236e-04 
-9.654424262213e-04 -2.714537898239e-04 0.0 
-2.714537898239e-04 6.765873836397e-03 0.0 
0.0 0.0 -1.107558395918e-03 
-5.027897087658e-04 -9.882385644824e-04 0.0 
-9.882385644824e-04 1.682465534830e-03 0.0 
0.0 0.0 -3.185922720913e-04 
-1.207361177183e-03 7.219593573452e-05 0.0 
7.219593573452e-05 7.710745314262e-03 0.0 
0.0 0.0 -1.149181664990e-03 
-7.221207359935e-04 -2.319743394949e-04 0.0 
-2.319743394949e-04 5.736084564024e-03 0.0 
0.0 0.0 -9.807908033776e-04 
-6.199444920269e-04 -2.803458900383e-04 0.0 
-2.803458900383e-04 5.234294253432e-03 0.0 
0.0 0.0 -9.152404036621e-04 
-8.850179884087e-04 -2.107315013722e-04 0.0 
-2.107315013722e-04 4.277220058387e-03 0.0 
0.0 0.0 -6.604623333687e-04 
-7.131176054971e-05 1.522786260440e-03 0.0 
1.522786260440e-03 1.128166094303e-03 0.0 
0.0 0.0 -3.722456989795e-04 
1.506124378874e-04 1.353289082485e-03 0.0 
1.353289082485e-03 6.471948717885e-04 0.0 
0.0 0.0 -3.185609919049e-04 
-2.939037762269e-04 -1.257650241065e-03 0.0 
-1.257650241065e-03 2.275247472139e-03 0.0 
0.0 0.0 -4.845585894574e-04 
-5.488065046231e-04 -1.067445958774e-03 0.0 
-1.067445958774e-03 2.060865836395e-03 0.0 
0.0 0.0 -3.723415964733e-04 
-4.888098213751e-04 -1.052003350203e-04 0.0 
-1.052003350203e-04 2.216308377581e-03 0.0 
0.0 0.0 -3.583452993329e-04 
-1.062272686561e-03 -2.298804836140e-04 0.0 
-2.298804836140e-04 7.251651551201e-03 0.0 
0.0 0.0 -1.173829981771e-03 
-1.227876715994e-03 1.893009349700e-04 0.0 
1.893009349700e-04 7.743204952100e-03 0.0 
0.0 0.0 -1.157575248917e-03 
-9.423902529627e-04 4.304393189543e-04 0.0 
4.304393189543e-04 6.620906454591e-03 0.0 
0.0 0.0 -1.080172819833e-03 
-8.612685947681e-04 4.776509476654e-04 0.0 
4.776509476654e-04 6.154589150170e-03 0.0 
0.0 0.0 -1.015677837919e-03 
-1.022115058251e-03 4.070298504517e-04 0.0 
4.070298504517e-04 7.083428986968e-03 0.0 
0.0 0.0 -1.144955025780e-03 
-3.834899570330e-04 -7.958142673473e-04 0.0 
-7.958142673473e-04 1.299084562353e-03 0.0 
0.0 0.0 -2.798534577099e-04 
-1.102214544351e-03 -3.027150081502e-04 0.0 
-3.027150081502e-04 7.282068807861e-03 0.0 
0.0 0.0 -1.165794428787e-03 
-1.216895343866e-03 -1.441675384032e-04 0.0 
-1.441675384032e-04 6.902897395280e-03 0.0 
0.0 0.0 -1.056136825731e-03 
-1.138941837453e-03 4.914289706325e-04 0.0 
4.914289706325e-04 7.351648623001e-03 0.0 
0.0 0.0 -1.157598467365e-03 
-1.123764904198e-03 4.819548128218e-04 0.0 
4.819548128218e-04 7.209866110785e-03 0.0 
0.0 0.0 -1.131219827106e-03 
-2.809946016527e-04 1.203335788346e-03 0.0 
1.203335788346e-03 2.340542833527e-03 0.0 
0.0 0.0 -4.968499830348e-04 
-3.877477755505e-04 1.221962387701e-03 0.0 
1.221962387701e-03 2.338693931197e-03 0.0 
0.0 0.0 -4.705806478706e-04 
-4.036150361409e-04 1.336476693924e-03 0.0 
1.336476693924e-03 1.977592500610e-03 0.0 
0.0 0.0 -4.078257031896e-04 
-4.816859073884e-04 1.176560530353e-03 0.0 
1.176560530353e-03 2.343460801890e-03 0.0 
0.0 0.0 -4.438024830152e-04 
-9.732353814622e-04 3.041939387352e-04 0.0 
3.041939387352e-04 5.448266059909e-03 0.0 
0.0 0.0 -8.361670615232e-04 
-3.925437291381e-04 1.104523798212e-03 0.0 
1.104523798212e-03 2.729748532404e-03 0.0 
0.0 0.0 -5.333915535664e-04 
-9.057439282626e-04 4.261225243385e-04 0.0 
4.261225243385e-04 5.077306138642e-03 0.0 
0.0 0.0 -7.939299641313e-04 
-8.975208378586e-04 3.720025570421e-04 0.0 
3.720025570421e-04 4.930717473606e-03 0.0 
0.0 0.0 -7.665196690739e-04 
-8.600171473097e-04 4.161603871668e-04 0.0 
4.161603871668e-04 4.671461707836e-03 0.0 
0.0 0.0 -7.319524942586e-04 
-7.253516315596e-04 6.727829162625e-04 0.0 
6.727829162625e-04 3.972513731187e-03 0.0 
0.0 0.0 -6.527873785750e-04 
-7.385699352999e-04 5.948696391935e-04 0.0 
5.948696391935e-04 3.862508165088e-03 0.0 
0.0 0.0 -6.261871041946e-04 
-1.081656769382e-04 8.687696267767e-04 0.0 
8.687696267767e-04 2.439613486548e-03 0.0 
0.0 0.0 -5.534964465553e-04 
-4.602867709727e-04 2.826245204948e-04 0.0 
2.826245204948e-04 4.601098480980e-03 0.0 
0.0 0.0 -8.390310526140e-04 
-8.925257354332e-04 -4.271097572203e-04 0.0 
-4.271097572203e-04 4.492522403458e-03 0.0 
0.0 0.0 -7.069621042110e-04 
-1.002856146604e-03 -4.033307783673e-04 0.0 
-4.033307783673e-04 5.565178736137e-03 0.0 
0.0 0.0 -8.751042800696e-04 
-7.003078251289e-04 -5.958729416123e-04 0.0 
-5.958729416123e-04 4.895224615458e-03 0.0 
0.0 0.0 -8.350146568664e-04 
-1.207341521713e-03 1.295685592876e-04 0.0 
1.295685592876e-04 7.603516284320e-03 0.0 
0.0 0.0 -1.135109731873e-03 
-1.234147304705e-03 1.158810138817e-04 0.0 
1.158810138817e-04 7.860000857238e-03 0.0 
0.0 0.0 -1.171938512032e-03 
-1.015895156183e-03 6.930194114772e-05 0.0 
6.930194114772e-05 6.052013455342e-03 0.0 
0.0 0.0 -9.065739516476e-04 
-9.767996699331e-04 4.467953763507e-05 0.0 
4.467953763507e-05 5.838511550894e-03 0.0 
0.0 0.0 -8.764137937918e-04 
-4.392150575772e-04 -3.259674398810e-04 0.0 
-3.259674398810e-04 1.665337581441e-03 0.0 
0.0 0.0 -2.813159824896e-04 
-4.247097810398e-04 -3.644747280315e-04 0.0 
-3.644747280315e-04 1.471773465299e-03 0.0 
0.0 0.0 -2.533966087790e-04 
-8.177306416292e-04 -6.121829702514e-04 0.0 
-6.121829702514e-04 4.811548278672e-03 0.0 
0.0 0.0 -7.894497706086e-04 
-1.082360538362e-03 -3.264662476232e-04 0.0 
-3.264662476232e-04 7.048376439915e-03 0.0 
0.0 0.0 -1.127529358476e-03 
-1.227748397910e-03 2.361030321983e-04 0.0 
2.361030321983e-04 7.672982991330e-03 0.0 
0.0 0.0 -1.150095860580e-03 
-1.249888144017e-03 2.671434152154e-04 0.0 
2.671434152154e-04 7.859407510661e-03 0.0 
0.0 0.0 -1.179372829571e-03 
-1.222973776595e-03 2.761414432265e-04 0.0 
2.761414432265e-04 7.603174812567e-03 0.0 
0.0 0.0 -1.143369325255e-03 
-9.935045909858e-04 -2.028359368237e-04 0.0 
-2.028359368237e-04 6.995967624477e-03 0.0 
0.0 0.0 -1.144273392007e-03 
3.495269992969e-05 1.197649878409e-04 0.0 
1.197649878409e-04 2.359795329880e-03 0.0 
0.0 0.0 -5.733740095480e-04 
-4.781962153862e-04 -1.012252719499e-04 0.0 
-1.012252719499e-04 4.730438814657e-03 0.0 
0.0 0.0 -8.590966742019e-04 
3.810975112987e-04 -3.002206319640e-04 0.0 
-3.002206319640e-04 -7.297745490904e-05 0.0 
0.0 0.0 -1.320514527384e-04 
-7.161621287090e-04 5.841402981115e-04 0.0 
5.841402981115e-04 5.248781673340e-03 0.0 
0.0 0.0 -8.884627649733e-04 
-3.115080858313e-04 -2.227975807547e-04 0.0 
-2.227975807547e-04 1.202076532669e-03 0.0 
0.0 0.0 -2.162536877156e-04 
-1.055053453560e-03 4.626735760724e-04 0.0 
4.626735760724e-04 6.476326574185e-03 0.0 
0.0 0.0 -1.010319580236e-03 
-1.255576380871e-03 -1.315357551102e-04 0.0 
-1.315357551102e-04 7.338059588025e-03 0.0 
0.0 0.0 -1.122815839103e-03 
-1.267850494462e-03 -1.674624135979e-04 0.0 
-1.674624135979e-04 7.563446267715e-03 0.0 
0.0 0.0 -1.159213750608e-03 
-1.010702044889e-03 2.850279828007e-04 0.0 
2.850279828007e-04 7.183997457293e-03 0.0 
0.0 0.0 -1.171959308352e-03 
-8.963384137737e-04 2.488891316052e-04 0.0 
2.488891316052e-04 4.875662042004e-03 0.0 
0.0 0.0 -7.470952864203e-04 
-7.058007902936e-04 5.271243929450e-04 0.0 
5.271243929450e-04 5.385179954600e-03 0.0 
0.0 0.0 -9.162722660995e-04 
-6.228080214073e-04 5.120192170004e-04 0.0 
5.120192170004e-04 5.067178617559e-03 0.0 
0.0 0.0 -8.808726170640e-04 
-8.477370711112e-04 3.577431200157e-04 0.0 
3.577431200157e-04 4.525141676784e-03 0.0 
0.0 0.0 -7.048691535495e-04 
-8.132640120407e-04 4.004719993994e-04 0.0 
4.004719993994e-04 4.272493314920e-03 0.0 
0.0 0.0 -6.707530558731e-04 
-8.209482996094e-04 4.682329320479e-04 0.0 
4.682329320479e-04 4.408754927634e-03 0.0 
0.0 0.0 -6.972958566626e-04 
-7.782280701881e-04 4.523325447572e-04 0.0 
4.523325447572e-04 4.016412533301e-03 0.0 
0.0 0.0 -6.359606378414e-04 
-4.177281549139e-04 -1.168672558867e-03 0.0 
-1.168672558867e-03 2.631942087578e-03 0.0 
0.0 0.0 -5.122594947013e-04 
-4.962383683680e-04 -1.157174554661e-03 0.0 
-1.157174554661e-03 2.541178569243e-03 0.0 
0.0 0.0 -4.750188804659e-04 
-1.154021499096e-03 4.782775772644e-04 0.0 
4.782775772644e-04 7.573815285751e-03 0.0 
0.0 0.0 -1.192042136895e-03 
-1.094464537807e-03 4.618413052259e-04 0.0 
4.618413052259e-04 7.386095086857e-03 0.0 
0.0 0.0 -1.178660172201e-03 
-1.187593002781e-03 4.811019602591e-04 0.0 
4.811019602591e-04 7.655964388501e-03 0.0 
0.0 0.0 -1.193029175878e-03 
-1.163263876641e-03 4.785864187479e-04 0.0 
4.785864187479e-04 7.511604884733e-03 0.0 
0.0 0.0 -1.168165168231e-03 
-1.037083014282e-03 2.184072236099e-04 0.0 
2.184072236099e-04 7.374910845912e-03 0.0 
0.0 0.0 -1.200910491468e-03 
-9.753553652922e-04 1.640389574658e-04 0.0 
1.640389574658e-04 7.090218753853e-03 0.0 
0.0 0.0 -1.164168769488e-03 
-6.028560444752e-04 -1.360178339637e-04 0.0 
-1.360178339637e-04 2.675687027615e-03 0.0 
0.0 0.0 -4.227350873389e-04 
-7.047203305141e-04 5.847954661015e-04 0.0 
5.847954661015e-04 3.476801185836e-03 0.0 
0.0 0.0 -5.646260317871e-04 
-1.245127779796e-03 1.777850177793e-04 0.0 
1.777850177793e-04 7.993741479566e-03 0.0 
0.0 0.0 -1.194151889699e-03 
-8.817872830960e-04 3.208786017712e-04 0.0 
3.208786017712e-04 4.774377627364e-03 0.0 
0.0 0.0 -7.390869131010e-04 
-1.164936831278e-03 -3.113795227657e-04 0.0 
-3.113795227657e-04 7.515893028419e-03 0.0 
0.0 0.0 -1.192835421428e-03 
-1.142129895980e-03 -3.204237901470e-04 0.0 
-3.204237901470e-04 7.305220282504e-03 0.0 
0.0 0.0 -1.156047193884e-03 
8.143997684988e-05 -5.632529459351e-05 0.0 
-5.632529459351e-05 -1.764449114255e-05 0.0 
0.0 0.0 -2.734092244600e-05 
2.721987346519e-04 -4.520014711284e-04 0.0 
-4.520014711284e-04 1.905810524669e-05 0.0 
0.0 0.0 -1.248243599565e-04 
-1.231567197499e-03 6.211834964842e-05 0.0 
6.211834964842e-05 7.963702026826e-03 0.0 
0.0 0.0 -1.184588873336e-03 
-5.000595373901e-04 1.204680535621e-03 0.0 
1.204680535621e-03 1.991465428866e-03 0.0 
0.0 0.0 -3.811925308841e-04 
-5.489936022904e-04 1.042785009975e-03 0.0 
1.042785009975e-03 2.300834123338e-03 0.0 
0.0 0.0 -4.158690271831e-04 
-3.842703009259e-04 1.346678098862e-03 0.0 
1.346678098862e-03 1.633275420512e-03 0.0 
0.0 0.0 -3.660215567096e-04 
-1.330527207980e-03 -3.853221662851e-05 0.0 
-3.853221662851e-05 8.239463133450e-03 0.0 
0.0 0.0 -1.258310293365e-03 
-8.465756460554e-04 5.727197951410e-07 0.0 
5.727197951410e-07 4.947192301730e-03 0.0 
0.0 0.0 -7.479256703001e-04 
-1.285435156603e-03 -1.236167483815e-04 0.0 
-1.236167483815e-04 7.770617594905e-03 0.0 
0.0 0.0 -1.189418985649e-03 
-7.744068399611e-04 5.950771192320e-04 0.0 
5.950771192320e-04 4.259141188703e-03 0.0 
0.0 0.0 -6.884682336192e-04 
-1.252365039908e-03 8.497968466370e-05 0.0 
8.497968466370e-05 8.173452803744e-03 0.0 
0.0 0.0 -1.216510697198e-03 
-7.049683277386e-04 4.524468991294e-04 0.0 
4.524468991294e-04 5.539667182357e-03 0.0 
0.0 0.0 -9.449116413281e-04 
-5.109301527551e-04 9.153066593930e-04 0.0 
9.153066593930e-04 3.518995939107e-03 0.0 
0.0 0.0 -6.353966017694e-04 
-8.973844045661e-04 -2.448816665564e-04 0.0 
-2.448816665564e-04 6.506541659943e-03 0.0 
0.0 0.0 -1.078177493492e-03 
-1.200545941931e-03 2.302554044874e-05 0.0 
2.302554044874e-05 7.723131628604e-03 0.0 
0.0 0.0 -1.149140729088e-03 
-1.267685038875e-03 6.016813044477e-05 0.0 
6.016813044477e-05 8.228074956414e-03 0.0 
0.0 0.0 -1.221625961084e-03 
-9.734656256453e-04 9.189307336811e-05 0.0 
9.189307336811e-05 5.749626761027e-03 0.0 
0.0 0.0 -8.638707813346e-04 
-9.480895872449e-04 4.301450456172e-05 0.0 
4.301450456172e-05 5.516146053233e-03 0.0 
0.0 0.0 -8.327709333130e-04 
-1.011335939965e-03 1.092245285963e-04 0.0 
1.092245285963e-04 5.940162525294e-03 0.0 
0.0 0.0 -8.925140200429e-04 
4.463857562194e-04 7.689358174209e-04 0.0 
7.689358174209e-04 8.096987600889e-05 0.0 
0.0 0.0 -2.260095566693e-04 
2.840813490605e-04 4.390350068277e-04 0.0 
4.390350068277e-04 7.817808705327e-06 0.0 
0.0 0.0 -1.250996390425e-04 
-1.210084270230e-03 9.714327804011e-05 0.0 
9.714327804011e-05 7.658599637129e-03 0.0 
0.0 0.0 -1.142090266074e-03 
-7.141279186037e-04 -2.802255352289e-04 0.0 
-2.802255352289e-04 3.181146952729e-03 0.0 
0.0 0.0 -5.006138788623e-04 
-7.694336124780e-04 -2.009358515531e-04 0.0 
-2.009358515531e-04 3.447879024720e-03 0.0 
0.0 0.0 -5.359218444892e-04 
-5.552155606093e-04 -8.313172136283e-04 0.0 
-8.313172136283e-04 1.917610481523e-03 0.0 
0.0 0.0 -3.334096804080e-04 
-5.855222745600e-04 -8.890134040167e-04 0.0 
-8.890134040167e-04 2.304658271308e-03 0.0 
0.0 0.0 -3.985542937016e-04 
-9.453814008689e-04 -4.031453143009e-04 0.0 
-4.031453143009e-04 4.927324523234e-03 0.0 
0.0 0.0 -7.728092966600e-04 
-8.970888917955e-04 -4.820738487373e-04 0.0 
-4.820738487373e-04 4.692923205728e-03 0.0 
0.0 0.0 -7.441750962829e-04 
-1.057585005233e-03 4.777756013197e-04 0.0 
4.777756013197e-04 6.625238408207e-03 0.0 
0.0 0.0 -1.038692069610e-03 
-1.108626014693e-03 4.632490588969e-04 0.0 
4.632490588969e-04 6.908491944325e-03 0.0 
0.0 0.0 -1.074129358999e-03 
-9.418242035971e-04 5.272068290834e-04 0.0 
5.272068290834e-04 6.041038675917e-03 0.0 
0.0 0.0 -9.675620497173e-04 
-6.990392591995e-04 -3.338931181341e-04 0.0 
-3.338931181341e-04 5.500989544803e-03 0.0 
0.0 0.0 -9.439558448496e-04 
-6.028432506679e-04 -3.974427061355e-04 0.0 
-3.974427061355e-04 5.004524485729e-03 0.0 
0.0 0.0 -8.783802297791e-04 
-5.183067816985e-04 -3.360734288677e-04 0.0 
-3.360734288677e-04 4.731806317453e-03 0.0 
0.0 0.0 -8.502765121185e-04 
-1.259796436841e-03 1.397569485309e-04 0.0 
1.397569485309e-04 8.039016122005e-03 0.0 
0.0 0.0 -1.199867006878e-03 
-1.287397602500e-03 1.387283529904e-04 0.0 
1.387283529904e-04 8.359284824254e-03 0.0 
0.0 0.0 -1.242728214876e-03 
-3.379919536494e-04 -1.097545305898e-03 0.0 
-1.097545305898e-03 2.729711593676e-03 0.0 
0.0 0.0 -5.488632449009e-04 
-2.035001513821e-04 -1.112025139158e-03 0.0 
-1.112025139158e-03 2.365560687545e-03 0.0 
0.0 0.0 -5.212126360957e-04 
-5.194133645792e-04 -1.055659007126e-03 0.0 
-1.055659007126e-03 2.949517889644e-03 0.0 
0.0 0.0 -5.390128571062e-04 
-1.267707936259e-03 2.118212896833e-04 0.0 
2.118212896833e-04 8.185373915988e-03 0.0 
0.0 0.0 -1.223056365294e-03 
-1.302765377273e-03 -1.484462634259e-04 0.0 
-1.484462634259e-04 8.004925592989e-03 0.0 
0.0 0.0 -1.224004481682e-03 
-1.287300987604e-03 -2.136982349667e-04 0.0 
-2.136982349667e-04 7.780826338296e-03 0.0 
0.0 0.0 -1.195820777905e-03 
-2.832529258607e-04 -2.494591043419e-04 0.0 
-2.494591043419e-04 1.024201089409e-03 0.0 
0.0 0.0 -1.882176919714e-04 
-3.969707252897e-04 -4.311951738694e-04 0.0 
-4.311951738694e-04 1.271754487823e-03 0.0 
0.0 0.0 -2.310783895037e-04 
2.054226679739e-05 1.347833966380e-03 0.0 
1.347833966380e-03 8.186709947017e-04 0.0 
0.0 0.0 -3.411234323309e-04 
1.823631015032e-04 1.033435563719e-03 0.0 
1.033435563719e-03 3.956751210192e-04 0.0 
0.0 0.0 -2.477306667953e-04 
-1.268592166038e-03 3.040791407146e-04 0.0 
3.040791407146e-04 8.023493563003e-03 0.0 
0.0 0.0 -1.207258722210e-03 
-1.243812686443e-03 3.149820227485e-04 0.0 
3.149820227485e-04 7.787606541598e-03 0.0 
0.0 0.0 -1.172631524865e-03 
-1.292321070540e-03 2.959466161544e-04 0.0 
2.959466161544e-04 8.333939565192e-03 0.0 
0.0 0.0 -1.247471551777e-03 
-5.223015362984e-04 -5.966006200107e-05 0.0 
-5.966006200107e-05 2.388783331191e-03 0.0 
0.0 0.0 -3.801539159394e-04 
-8.682373190693e-04 4.316445998786e-04 0.0 
4.316445998786e-04 6.315487464641e-03 0.0 
0.0 0.0 -1.045322365442e-03 
-1.095327153402e-03 -1.697306701960e-04 0.0 
-1.697306701960e-04 7.466737774382e-03 0.0 
0.0 0.0 -1.207899217314e-03 
-1.032573115176e-03 -1.219439203281e-04 0.0 
-1.219439203281e-04 7.241482983967e-03 0.0 
0.0 0.0 -1.178012378629e-03 
-1.169146255923e-03 -2.121713741949e-04 0.0 
-2.121713741949e-04 7.798947947966e-03 0.0 
0.0 0.0 -1.244624083072e-03 
-9.796999613362e-04 3.385511052295e-04 0.0 
3.385511052295e-04 6.990100956638e-03 0.0 
0.0 0.0 -1.142102124289e-03 
-1.089777783011e-03 3.180765990224e-04 0.0 
3.180765990224e-04 7.453415741070e-03 0.0 
0.0 0.0 -1.205428683694e-03 
-1.118930099946e-03 4.102866827850e-04 0.0 
4.102866827850e-04 7.540265907261e-03 0.0 
0.0 0.0 -1.209323031234e-03 
7.629343076431e-06 -2.863199915616e-06 0.0 
-2.863199915616e-06 -2.105112574006e-06 0.0 
0.0 0.0 -2.367527358182e-06 
-1.243581183883e-03 1.333985162286e-05 0.0 
1.333985162286e-05 8.050404267198e-03 0.0 
0.0 0.0 -1.199992767657e-03 
-9.467227888159e-04 4.157282563709e-05 0.0 
4.157282563709e-05 5.565131892238e-03 0.0 
0.0 0.0 -8.371571859873e-04 
0.0 0.0 0.0 
0.0 0.0 0.0 
0.0 0.0 0.0 
-9.052370495583e-04 2.926470670919e-05 0.0 
2.926470670919e-05 5.359734394624e-03 0.0 
0.0 0.0 -8.070151920887e-04 
-9.464808288455e-04 2.890706983172e-05 0.0 
2.890706983172e-05 5.631422995547e-03 0.0 
0.0 0.0 -8.451615393777e-04 
-8.746039380960e-04 1.411235588614e-05 0.0 
1.411235588614e-05 5.099179134377e-03 0.0 
0.0 0.0 -7.748096441827e-04 
-4.043228169997e-04 -4.987598217760e-05 0.0 
-4.987598217760e-05 1.919858664121e-03 0.0 
0.0 0.0 -3.155299188714e-04 
-9.342623020306e-04 6.996522255594e-05 0.0 
6.996522255594e-05 5.399295489727e-03 0.0 
0.0 0.0 -8.174106193842e-04 
-9.784066260017e-04 9.518359088927e-05 0.0 
9.518359088927e-05 5.690330335138e-03 0.0 
0.0 0.0 -8.556612431672e-04 
-1.892819975809e-04 -2.080284296464e-04 0.0 
-2.080284296464e-04 7.178215811464e-04 0.0 
0.0 0.0 -1.471067669042e-04 
-1.288411893385e-03 2.088493887645e-04 0.0 
2.088493887645e-04 8.418681062039e-03 0.0 
0.0 0.0 -1.259301554906e-03 
-1.756794603790e-04 -1.355890425743e-04 0.0 
-1.355890425743e-04 7.416554994657e-04 0.0 
0.0 0.0 -1.555489432776e-04 
-1.976593762146e-04 -1.418821488879e-04 0.0 
-1.418821488879e-04 9.406849208869e-04 0.0 
0.0 0.0 -1.806578101979e-04 
-1.201046689643e-03 -2.954808681697e-04 0.0 
-2.954808681697e-04 7.775612660441e-03 0.0 
0.0 0.0 -1.221214701962e-03 
-1.189783866574e-03 -3.147730725178e-04 0.0 
-3.147730725178e-04 7.544251850061e-03 0.0 
0.0 0.0 -1.184344882880e-03 
-1.255201532556e-03 -3.138077392023e-04 0.0 
-3.138077392023e-04 7.995797572139e-03 0.0 
0.0 0.0 -1.247726601234e-03 
-1.240131757912e-03 -2.854581707310e-04 0.0 
-2.854581707310e-04 7.755129215709e-03 0.0 
0.0 0.0 -1.211018817991e-03 
-1.178065560448e-03 -3.176973578615e-04 0.0 
-3.176973578615e-04 7.320283461016e-03 0.0 
0.0 0.0 -1.147066289601e-03 
-1.222397278732e-03 -2.815307542264e-04 0.0 
-2.815307542264e-04 7.565615913449e-03 0.0 
0.0 0.0 -1.176490610025e-03 
-9.163713044728e-04 2.842739858528e-05 0.0 
2.842739858528e-05 5.314561917383e-03 0.0 
0.0 0.0 -7.985989294648e-04 
-1.274574997316e-03 -2.683950520862e-04 0.0 
-2.683950520862e-04 8.060277687178e-03 0.0 
0.0 0.0 -1.249018369598e-03 
-1.258852476870e-03 -2.546999081133e-04 0.0 
-2.546999081133e-04 7.798203538470e-03 0.0 
0.0 0.0 -1.207442871744e-03 
-1.315317272271e-03 -2.575611195837e-04 0.0 
-2.575611195837e-04 8.330215412111e-03 0.0 
0.0 0.0 -1.277927415301e-03 
-7.668426714387e-04 3.712502045957e-04 0.0 
3.712502045957e-04 3.884910929190e-03 0.0 
0.0 0.0 -6.108003466767e-04 
-5.473421814769e-04 1.022591756988e-03 0.0 
1.022591756988e-03 2.665785403795e-03 0.0 
0.0 0.0 -4.789358348571e-04 
-5.922456647504e-04 8.887242813561e-04 0.0 
8.887242813561e-04 2.596399578783e-03 0.0 
0.0 0.0 -4.527251363391e-04 
-5.808013297698e-04 8.699366696317e-04 0.0 
8.699366696317e-04 2.240670147384e-03 0.0 
0.0 0.0 -3.875663759467e-04 
-1.238412356123e-03 4.984956173527e-04 0.0 
4.984956173527e-04 8.013994811476e-03 0.0 
0.0 0.0 -1.240180566941e-03 
-1.214337546906e-03 4.975640446935e-04 0.0 
4.975640446935e-04 7.772501925276e-03 0.0 
0.0 0.0 -1.200590015451e-03 
-1.243705293709e-03 -9.256877991256e-05 0.0 
-9.256877991256e-05 7.122808590461e-03 0.0 
0.0 0.0 -1.087555896896e-03 
-1.202734584511e-03 -9.601844950182e-05 0.0 
-9.601844950182e-05 6.680089324953e-03 0.0 
0.0 0.0 -1.020738973070e-03 
-9.185583597048e-04 2.613338660199e-05 0.0 
2.613338660199e-05 5.392223531156e-03 0.0 
0.0 0.0 -8.108182148135e-04 
-9.103297472006e-04 4.766877897124e-06 0.0 
4.766877897124e-06 5.361690236980e-03 0.0 
0.0 0.0 -8.077352941366e-04 
-9.704696328324e-04 5.332193735867e-05 0.0 
5.332193735867e-05 5.783610110985e-03 0.0 
0.0 0.0 -8.678526801547e-04 
-9.618865758326e-04 7.689592341134e-06 0.0 
7.689592341134e-06 5.712312077429e-03 0.0 
0.0 0.0 -8.609153521579e-04 
-1.020016484653e-03 5.295869978670e-05 0.0 
5.295869978670e-05 6.152608316973e-03 0.0 
0.0 0.0 -9.200517378055e-04 
-1.001436562516e-03 -1.946934861057e-08 0.0 
-1.946934861057e-08 6.084870222159e-03 0.0 
0.0 0.0 -9.108947733944e-04 
-1.057814937538e-03 -6.724482469216e-06 0.0 
-6.724482469216e-06 6.510312548520e-03 0.0 
0.0 0.0 -9.726914458129e-04 
-1.190361938599e-03 4.676934084708e-04 0.0 
4.676934084708e-04 7.866637693242e-03 0.0 
0.0 0.0 -1.245087786853e-03 
-4.581667400111e-04 1.150309043721e-03 0.0 
1.150309043721e-03 1.644170079222e-03 0.0 
0.0 0.0 -3.403956918982e-04 
-8.293555136529e-04 2.952524372658e-04 0.0 
2.952524372658e-04 4.373371002006e-03 0.0 
0.0 0.0 -6.783069842581e-04 
-1.085846180975e-03 1.458307871503e-04 0.0 
1.458307871503e-04 7.572950528203e-03 0.0 
0.0 0.0 -1.228261380050e-03 
-1.024461005777e-03 9.563818815218e-05 0.0 
9.563818815218e-05 7.266751936821e-03 0.0 
0.0 0.0 -1.187396807988e-03 
-7.405303751490e-04 5.124973243675e-04 0.0 
5.124973243675e-04 3.741532766096e-03 0.0 
0.0 0.0 -6.000944487132e-04 
-7.031319460548e-04 4.876864875037e-04 0.0 
4.876864875037e-04 3.366473116495e-03 0.0 
0.0 0.0 -5.401620014017e-04 
-1.203049851257e-03 -2.728203523462e-04 0.0 
-2.728203523462e-04 7.833657430654e-03 0.0 
0.0 0.0 -1.238794375355e-03 
-3.075916606640e-04 1.045868666668e-03 0.0 
1.045868666668e-03 2.766977509803e-03 0.0 
0.0 0.0 -5.600314934590e-04 
-1.321820784768e-03 2.376560243328e-04 0.0 
2.376560243328e-04 8.684022372100e-03 0.0 
0.0 0.0 -1.295459716840e-03 
1.477011241758e-06 4.358298770143e-06 0.0 
4.358298770143e-06 8.908916257896e-07 0.0 
0.0 0.0 -1.014815514663e-06 
5.703109316316e-05 8.792005076422e-05 0.0 
8.792005076422e-05 -2.011421540039e-08 0.0 
0.0 0.0 -2.443327669190e-05 
-4.154706477079e-04 9.854771448034e-04 0.0 
9.854771448034e-04 3.145205208474e-03 0.0 
0.0 0.0 -5.969207367497e-04 
-7.802351733359e-04 5.259462622456e-04 0.0 
5.259462622456e-04 4.139237033551e-03 0.0 
0.0 0.0 -6.620222007989e-04 
-5.930037626935e-04 8.942073818617e-04 0.0 
8.942073818617e-04 2.971985586365e-03 0.0 
0.0 0.0 -5.157319100482e-04 
-6.206001126180e-04 7.748692012147e-04 0.0 
7.748692012147e-04 2.918912415158e-03 0.0 
0.0 0.0 -4.917183783407e-04 
-7.966812031951e-04 -2.794519072728e-04 0.0 
-2.794519072728e-04 6.003025537970e-03 0.0 
0.0 0.0 -1.010552660601e-03 
-3.204615651146e-04 -4.841454347256e-04 0.0 
-4.841454347256e-04 1.065843889916e-03 0.0 
0.0 0.0 -2.207468123314e-04 
-1.976838392314e-04 1.419132631860e-03 0.0 
1.419132631860e-03 1.245736136353e-03 0.0 
0.0 0.0 -3.729799092550e-04 
-1.062224956052e-03 6.282474994029e-05 0.0 
6.282474994029e-05 6.566502947635e-03 0.0 
0.0 0.0 -9.796923013958e-04 
-9.725104983260e-05 1.193422917781e-03 0.0 
1.193422917781e-03 9.454912755048e-04 0.0 
0.0 0.0 -3.472462715210e-04 
-1.226995326804e-03 -4.519473023836e-05 0.0 
-4.519473023836e-05 6.918120984331e-03 0.0 
0.0 0.0 -1.055800198362e-03 
-2.361841982036e-04 9.051937591691e-04 0.0 
9.051937591691e-04 2.839450438954e-03 0.0 
0.0 0.0 -5.891999696964e-04 
-7.588500349801e-04 6.513356924725e-04 0.0 
6.513356924725e-04 4.370877970735e-03 0.0 
0.0 0.0 -7.153500975001e-04 
-2.731612567135e-04 1.485424847436e-03 0.0 
1.485424847436e-03 1.576968026293e-03 0.0 
0.0 0.0 -3.843598907912e-04 
-4.773970402082e-04 1.083331247294e-03 0.0 
1.083331247294e-03 2.715302459171e-03 0.0 
0.0 0.0 -5.080103017801e-04 
-9.857070044825e-04 3.514582932795e-04 0.0 
3.514582932795e-04 5.605984683384e-03 0.0 
0.0 0.0 -8.638580894607e-04 
-9.566672598969e-04 2.556664326387e-04 0.0 
2.556664326387e-04 5.284930257865e-03 0.0 
0.0 0.0 -8.086477316853e-04 
-9.204142732436e-04 2.914181473186e-04 0.0 
2.914181473186e-04 5.036403952363e-03 0.0 
0.0 0.0 -7.738406155292e-04 
-1.852699916538e-04 7.169474657993e-04 0.0 
7.169474657993e-04 2.938478129515e-03 0.0 
0.0 0.0 -6.178822433291e-04 
-6.660603751627e-04 6.775511204911e-04 0.0 
6.775511204911e-04 3.201224465995e-03 0.0 
0.0 0.0 -5.288330985435e-04 
-6.329538447596e-04 6.262438341605e-04 0.0 
6.262438341605e-04 2.783574178796e-03 0.0 
0.0 0.0 -4.617239487405e-04 
-9.084122990405e-04 4.766608561051e-04 0.0 
4.766608561051e-04 5.217677913222e-03 0.0 
0.0 0.0 -8.213029907542e-04 
-1.196636206004e-03 2.937722451120e-04 0.0 
2.937722451120e-04 7.346814907567e-03 0.0 
0.0 0.0 -1.107475121065e-03 
-1.218143538823e-03 3.322225839887e-04 0.0 
3.322225839887e-04 7.523071285648e-03 0.0 
0.0 0.0 -1.136341617999e-03 
-1.260255205402e-03 3.483848197279e-04 0.0 
3.483848197279e-04 7.943523748013e-03 0.0 
0.0 0.0 -1.199268560344e-03 
-1.236398534658e-03 3.622286970254e-04 0.0 
3.622286970254e-04 7.698663143048e-03 0.0 
0.0 0.0 -1.164598082371e-03 
-1.187519623503e-03 3.369788044843e-04 0.0 
3.369788044843e-04 7.262535120341e-03 0.0 
0.0 0.0 -1.100413285504e-03 
-1.201927894883e-03 3.622228794556e-04 0.0 
3.622228794556e-04 7.428935513365e-03 0.0 
0.0 0.0 -1.129075729544e-03 
-1.251749756802e-03 4.013558701664e-04 0.0 
4.013558701664e-04 7.861186353057e-03 0.0 
0.0 0.0 -1.193594387005e-03 
-1.212961772203e-03 4.013424172495e-04 0.0 
4.013424172495e-04 7.607641408015e-03 0.0 
0.0 0.0 -1.159256375294e-03 
-1.275748773412e-03 4.170784326894e-04 0.0 
4.170784326894e-04 8.123816889762e-03 0.0 
0.0 0.0 -1.234286862126e-03 
-1.231663961214e-03 4.170891063283e-04 0.0 
4.170891063283e-04 7.767346293695e-03 0.0 
0.0 0.0 -1.187309181180e-03 
-1.180167111311e-03 4.146130725523e-04 0.0 
4.146130725523e-04 7.319280806481e-03 0.0 
0.0 0.0 -1.120864512401e-03 
-1.199520853126e-03 4.394329503130e-04 0.0 
4.394329503130e-04 7.469647570104e-03 0.0 
0.0 0.0 -1.147759711419e-03 
-1.246114513889e-03 4.512851502766e-04 0.0 
4.512851502766e-04 7.897003429628e-03 0.0 
0.0 0.0 -1.207767947030e-03 
-1.142819753357e-03 4.230226692438e-04 0.0 
4.230226692438e-04 7.034885546341e-03 0.0 
0.0 0.0 -1.082593982084e-03 
-1.161095070267e-03 2.120867803638e-04 0.0 
2.120867803638e-04 7.844111974654e-03 0.0 
0.0 0.0 -1.264544343569e-03 
-4.552882566461e-04 8.672081112126e-04 0.0 
8.672081112126e-04 3.584015933420e-03 0.0 
0.0 0.0 -6.621140475474e-04 
8.972285469528e-05 5.488704469766e-05 0.0 
5.488704469766e-05 -2.086067995893e-05 0.0 
0.0 0.0 -2.951236060129e-05 
1.917573457574e-04 3.907910126935e-04 0.0 
3.907910126935e-04 4.076022718458e-05 0.0 
0.0 0.0 -9.965038840371e-05 
-8.122559684108e-04 5.858127476170e-04 0.0 
5.858127476170e-04 4.660958103986e-03 0.0 
0.0 0.0 -7.509174086159e-04 
-1.326294875917e-03 4.475525367279e-04 0.0 
4.475525367279e-04 8.581090605175e-03 0.0 
0.0 0.0 -1.299806302097e-03 
-1.329372981724e-03 3.864120920022e-04 0.0 
3.864120920022e-04 8.651254845127e-03 0.0 
0.0 0.0 -1.301753673823e-03 
-4.221749795591e-05 1.054957827846e-03 0.0 
1.054957827846e-03 1.947401467081e-03 0.0 
0.0 0.0 -4.895692906686e-04 
-1.300820539860e-03 5.169294240401e-04 0.0 
5.169294240401e-04 8.431520987084e-03 0.0 
0.0 0.0 -1.303413959896e-03 
-9.359328158380e-04 3.353086376080e-04 0.0 
3.353086376080e-04 5.191229383814e-03 0.0 
0.0 0.0 -8.012154088905e-04 
4.071496828873e-04 9.026633654341e-04 0.0 
9.026633654341e-04 4.347728874957e-04 0.0 
0.0 0.0 -3.242207140944e-04 
-1.286592464162e-03 4.887471459282e-04 0.0 
4.887471459282e-04 8.354700830031e-03 0.0 
0.0 0.0 -1.304286792737e-03 
-1.166816141077e-03 3.067295782393e-04 0.0 
3.067295782393e-04 7.086165986606e-03 0.0 
0.0 0.0 -1.071440646998e-03 
-1.135318690764e-03 3.102645881689e-04 0.0 
3.102645881689e-04 6.820307156207e-03 0.0 
0.0 0.0 -1.034857077839e-03 
-1.114281868751e-03 2.783252876259e-04 0.0 
2.783252876259e-04 6.647188393663e-03 0.0 
0.0 0.0 -1.006057961993e-03 
-1.324485485700e-03 3.178425552296e-04 0.0 
3.178425552296e-04 8.703712057523e-03 0.0 
0.0 0.0 -1.305867370806e-03 
-1.046143216171e-03 1.338104735178e-04 0.0 
1.338104735178e-04 6.142970752386e-03 0.0 
0.0 0.0 -9.232948652302e-04 
-1.261216399776e-03 3.398370476000e-04 0.0 
3.398370476000e-04 8.240407625413e-03 0.0 
0.0 0.0 -1.306016332489e-03 
-5.621352130883e-04 2.402614077322e-04 0.0 
2.402614077322e-04 5.104076155106e-03 0.0 
0.0 0.0 -9.039903713831e-04 
-5.421821752565e-04 3.626261890118e-04 0.0 
3.626261890118e-04 4.916919296443e-03 0.0 
0.0 0.0 -8.747633066757e-04 
-4.482553543368e-04 4.245528232913e-04 0.0 
4.245528232913e-04 4.423341595392e-03 0.0 
0.0 0.0 -8.101682821885e-04 
-1.166183845535e-03 3.746000758126e-04 0.0 
3.746000758126e-04 7.154603019155e-03 0.0 
0.0 0.0 -1.092245366321e-03 
-1.243382207926e-03 7.139344382452e-05 0.0 
7.139344382452e-05 8.142027759390e-03 0.0 
0.0 0.0 -1.302677999426e-03 
-1.139163622892e-03 1.899260328228e-05 0.0 
1.899260328228e-05 7.738811355617e-03 0.0 
0.0 0.0 -1.248400714067e-03 
-1.139179700515e-03 -5.832838074802e-05 0.0 
-5.832838074802e-05 7.742835606473e-03 0.0 
0.0 0.0 -1.248426544684e-03 
-1.042171814045e-03 -2.067620167567e-05 0.0 
-2.067620167567e-05 7.300450465494e-03 0.0 
0.0 0.0 -1.189114855724e-03 
-1.245046049368e-03 -7.954937012982e-05 0.0 
-7.954937012982e-05 8.162015620032e-03 0.0 
0.0 0.0 -1.303398793257e-03 
-1.319024606982e-03 4.879947495646e-04 0.0 
4.879947495646e-04 8.553889678550e-03 0.0 
0.0 0.0 -1.306665994082e-03 
-1.318629781647e-03 5.032233232110e-04 0.0 
5.032233232110e-04 8.531113616169e-03 0.0 
0.0 0.0 -1.308500709484e-03 
-1.457969009565e-04 -1.297624687323e-03 0.0 
-1.297624687323e-03 1.878942347425e-03 0.0 
0.0 0.0 -4.564773689951e-04 
-5.360535394488e-05 -1.060749340558e-03 0.0 
-1.060749340558e-03 1.980128638088e-03 0.0 
0.0 0.0 -4.934415926888e-04 
-1.381226460422e-04 -8.991719374826e-04 0.0 
-8.991719374826e-04 2.497431923997e-03 0.0 
0.0 0.0 -5.576035839405e-04 
-3.423707423510e-07 -7.630300989339e-04 0.0 
-7.630300989339e-04 2.133066083266e-03 0.0 
0.0 0.0 -5.298816096007e-04 
1.060874476646e-04 -9.079592115861e-04 0.0 
-9.079592115861e-04 1.571356760192e-03 0.0 
0.0 0.0 -4.652367627802e-04 
1.299766153745e-04 -5.238021949006e-04 0.0 
-5.238021949006e-04 1.775343023360e-03 0.0 
0.0 0.0 -5.016361848483e-04 
8.113068861587e-06 -4.523118756860e-04 0.0 
-4.523118756860e-04 2.346566463626e-03 0.0 
0.0 0.0 -5.657331850765e-04 
2.333464364560e-04 -1.778074880060e-04 0.0 
-1.778074880060e-04 1.448473809503e-03 0.0 
0.0 0.0 -4.731795164401e-04 
-1.159968055748e-03 4.654058109210e-04 0.0 
4.654058109210e-04 7.343744264572e-03 0.0 
0.0 0.0 -1.138512926666e-03 
-1.264954689887e-03 -1.904964022353e-04 0.0 
-1.904964022353e-04 8.221334432808e-03 0.0 
0.0 0.0 -1.305779161548e-03 
-7.747711705181e-04 -5.121765711313e-04 0.0 
-5.121765711313e-04 5.367910934867e-03 0.0 
0.0 0.0 -9.007942405787e-04 
-6.889420890608e-04 -5.209139520464e-04 0.0 
-5.209139520464e-04 5.083313389568e-03 0.0 
0.0 0.0 -8.713600568839e-04 
-6.090575816933e-04 -6.078858301865e-04 0.0 
-6.078858301865e-04 4.604339507385e-03 0.0 
0.0 0.0 -8.059887332522e-04 
-8.449920134059e-04 -5.153788440303e-04 0.0 
-5.153788440303e-04 4.260095117302e-03 0.0 
0.0 0.0 -6.781883600425e-04 
-8.428803748540e-04 -5.674043660998e-04 0.0 
-5.674043660998e-04 4.450165882994e-03 0.0 
0.0 0.0 -7.153987595530e-04 
-8.942422948913e-04 -5.207798333703e-04 0.0 
-5.207798333703e-04 4.885926297656e-03 0.0 
0.0 0.0 -7.812419408864e-04 
-8.377845004557e-04 -4.501363391243e-04 0.0 
-4.501363391243e-04 4.061067246097e-03 0.0 
0.0 0.0 -6.407943132712e-04 
-8.608991234260e-04 5.183985589951e-04 0.0 
5.183985589951e-04 6.008926334250e-03 0.0 
0.0 0.0 -9.876394229526e-04 
-1.270638922106e-03 -2.525883056992e-04 0.0 
-2.525883056992e-04 8.245623635122e-03 0.0 
0.0 0.0 -1.305003056577e-03 
-5.449120924268e-04 -2.038340280130e-04 0.0 
-2.038340280130e-04 4.976604129178e-03 0.0 
0.0 0.0 -8.871663004355e-04 
-7.828155216857e-04 -6.575282962370e-04 0.0 
-6.575282962370e-04 4.196243675374e-03 0.0 
0.0 0.0 -6.865966444657e-04 
-8.908351355140e-04 9.702867664421e-05 0.0 
9.702867664421e-05 4.953510345307e-03 0.0 
0.0 0.0 -7.516786372745e-04 
-9.428178873818e-04 1.510891929034e-04 0.0 
1.510891929034e-04 5.341754956276e-03 0.0 
0.0 0.0 -8.094822736869e-04 
-9.489012184647e-04 1.441944320473e-04 0.0 
1.441944320473e-04 5.346848053026e-03 0.0 
0.0 0.0 -8.097394517040e-04 
-9.928370876702e-04 1.565528389037e-04 0.0 
1.565528389037e-04 5.757287346966e-03 0.0 
0.0 0.0 -8.733121467894e-04 
-9.420662265250e-04 8.672453308222e-05 0.0 
8.672453308222e-05 5.390349708032e-03 0.0 
0.0 0.0 -8.155917408702e-04 
-9.920889169566e-04 -3.299549002211e-04 0.0 
-3.299549002211e-04 5.156290872581e-03 0.0 
0.0 0.0 -8.015266587451e-04 
-1.034393455446e-03 -2.593382357018e-04 0.0 
-2.593382357018e-04 5.377589720533e-03 0.0 
0.0 0.0 -8.302790088839e-04 
-1.016724768056e-03 -2.052940986145e-04 0.0 
-2.052940986145e-04 5.161883654298e-03 0.0 
0.0 0.0 -7.937858958383e-04 
-1.069749204098e-03 -1.931193338339e-04 0.0 
-1.931193338339e-04 5.589690211797e-03 0.0 
0.0 0.0 -8.590670690980e-04 
-1.045250008444e-03 -1.524643402440e-04 0.0 
-1.524643402440e-04 5.354709247412e-03 0.0 
0.0 0.0 -8.213578559547e-04 
-9.891061891856e-04 -1.661511418362e-04 0.0 
-1.661511418362e-04 4.952759689804e-03 0.0 
0.0 0.0 -7.608744282309e-04 
-1.097326614700e-03 -1.343981642378e-04 0.0 
-1.343981642378e-04 5.787368511626e-03 0.0 
0.0 0.0 -8.866101721103e-04 
-1.072266853954e-03 -7.465649989587e-05 0.0 
-7.465649989587e-05 5.530930704335e-03 0.0 
0.0 0.0 -8.437388122980e-04 
-8.749604405334e-04 5.210753762548e-05 0.0 
5.210753762548e-05 4.958547900325e-03 0.0 
0.0 0.0 -7.509531518293e-04 
2.931250951271e-05 -1.468193730782e-04 0.0 
-1.468193730782e-04 5.197092075325e-05 0.0 
0.0 0.0 -3.483575582827e-05 
8.911840808785e-05 -5.611142441010e-04 0.0 
-5.611142441010e-04 2.292660682549e-04 0.0 
0.0 0.0 -1.364504898612e-04 
-1.613477578931e-05 -6.217163821683e-04 0.0 
-6.217163821683e-04 4.356228314527e-04 0.0 
0.0 0.0 -1.797805952843e-04 
7.026081585524e-05 -9.442279566568e-04 0.0 
-9.442279566568e-04 4.994486354165e-04 0.0 
0.0 0.0 -2.441611934022e-04 
2.189035585349e-04 -7.936262830972e-04 0.0 
-7.936262830972e-04 2.241675290565e-04 0.0 
0.0 0.0 -1.898876089678e-04 
1.395294056137e-04 -1.221624346892e-03 0.0 
-1.221624346892e-03 5.704290544817e-04 0.0 
0.0 0.0 -3.042679114694e-04 
3.315217795862e-04 -9.867447375553e-04 0.0 
-9.867447375553e-04 2.187882668786e-04 0.0 
0.0 0.0 -2.358471627707e-04 
1.282773509924e-04 -3.069727312294e-04 0.0 
-3.069727312294e-04 5.087018620754e-05 0.0 
0.0 0.0 -7.677751594282e-05 
7.207324065744e-06 -2.363709633052e-04 0.0 
-2.363709633052e-04 2.192194981731e-04 0.0 
0.0 0.0 -7.709394943614e-05 
-1.151589919320e-04 -5.038932235898e-04 0.0 
-5.038932235898e-04 5.668379900610e-04 0.0 
0.0 0.0 -1.836804426236e-04 
6.886756343239e-05 -1.585111183501e-04 0.0 
-1.585111183501e-04 2.318919381609e-04 0.0 
0.0 0.0 -9.135678087991e-05 
-1.673787199121e-04 -3.772506028182e-04 0.0 
-3.772506028182e-04 6.235391984471e-04 0.0 
0.0 0.0 -1.587652100407e-04 
-2.237013217840e-04 -7.835370290226e-04 0.0 
-7.835370290226e-04 9.699234306887e-04 0.0 
0.0 0.0 -2.864776706126e-04 
-5.080022175142e-04 -5.846720249242e-04 0.0 
-5.846720249242e-04 1.713553650264e-03 0.0 
0.0 0.0 -2.934437995798e-04 
-1.342924257900e-03 -1.540329825018e-04 0.0 
-1.540329825018e-04 8.463979425849e-03 0.0 
0.0 0.0 -1.294874803588e-03 
-9.061604714287e-04 -5.353468138170e-05 0.0 
-5.353468138170e-05 4.292677537748e-03 0.0 
0.0 0.0 -6.595503360071e-04 
-8.748353904416e-04 -9.535674848835e-05 0.0 
-9.535674848835e-05 4.090451847143e-03 0.0 
0.0 0.0 -6.264797819744e-04 
-7.893986596546e-04 -8.988273420556e-05 0.0 
-8.988273420556e-05 3.635662269298e-03 0.0 
0.0 0.0 -5.641716646261e-04 
-8.342340843015e-04 -1.796315714393e-04 0.0 
-1.796315714393e-04 3.876399492582e-03 0.0 
0.0 0.0 -5.974662984275e-04 
-9.399601535283e-04 -9.182592719562e-05 0.0 
-9.182592719562e-05 4.459086163681e-03 0.0 
0.0 0.0 -6.865721209800e-04 
-7.450408717977e-04 -3.664071909046e-05 0.0 
-3.664071909046e-05 3.403705623677e-03 0.0 
0.0 0.0 -5.286920563404e-04 
-7.105002771536e-04 -7.510162605901e-05 0.0 
-7.510162605901e-05 3.252942810076e-03 0.0 
0.0 0.0 -5.038291843518e-04 
2.586635817285e-04 -5.423725266678e-06 0.0 
-5.423725266678e-06 1.936240339378e-04 0.0 
0.0 0.0 -1.176966321434e-04 
-2.992668304113e-05 -2.428217344695e-05 0.0 
-2.428217344695e-05 6.247499294921e-04 0.0 
0.0 0.0 -1.462425310096e-04 
1.120520427136e-05 2.490769659488e-05 0.0 
2.490769659488e-05 5.748679317617e-04 0.0 
0.0 0.0 -1.469788961115e-04 
-1.839676854865e-04 -1.370350569834e-05 0.0 
-1.370350569834e-05 1.050348992839e-03 0.0 
0.0 0.0 -1.976702944042e-04 
-1.665493073749e-04 -4.078238753771e-05 0.0 
-4.078238753771e-05 1.038427513794e-03 0.0 
0.0 0.0 -1.960684762570e-04 
-2.740272711721e-05 -1.675532894322e-05 0.0 
-1.675532894322e-05 6.301608269895e-04 0.0 
0.0 0.0 -1.451566722079e-04 
-4.295295916181e-05 -1.396627582879e-05 0.0 
-1.396627582879e-05 6.314478061460e-04 0.0 
0.0 0.0 -1.432903851643e-04 
2.244269731475e-04 -5.225829644661e-06 0.0 
-5.225829644661e-06 1.948274790449e-04 0.0 
0.0 0.0 -1.046809398798e-04 
-6.199861096773e-05 -4.121287758313e-05 0.0 
-4.121287758313e-05 6.332661626784e-04 0.0 
0.0 0.0 -1.376693440338e-04 
-1.958490001476e-04 -5.849411118292e-05 0.0 
-5.849411118292e-05 1.056235548644e-03 0.0 
0.0 0.0 -1.994574706984e-04 
2.206345590437e-04 -1.964930643042e-05 0.0 
-1.964930643042e-05 1.754647967741e-04 0.0 
0.0 0.0 -9.562440695215e-05 
-1.134405852345e-03 -1.685214623059e-05 0.0 
-1.685214623059e-05 7.114171974622e-03 0.0 
0.0 0.0 -1.060427308513e-03 
-1.169096287658e-03 2.563616812788e-06 0.0 
2.563616812788e-06 7.355225522955e-03 0.0 
0.0 0.0 -1.097082233180e-03 
-1.287656187300e-03 -3.057563853945e-04 0.0 
-3.057563853945e-04 8.295106043806e-03 0.0 
0.0 0.0 -1.300897016293e-03 
-8.709102074234e-04 1.634655957137e-05 0.0 
1.634655957137e-05 5.013561359335e-03 0.0 
0.0 0.0 -7.584009903415e-04 
6.085248323127e-05 -7.529385077948e-05 0.0 
-7.529385077948e-05 2.498450074273e-04 0.0 
0.0 0.0 -6.778662807071e-05 
-1.318321890589e-03 9.119227365237e-05 0.0 
9.119227365237e-05 8.702564910127e-03 0.0 
0.0 0.0 -1.292107529982e-03 
-1.321891599576e-03 1.523434658018e-04 0.0 
1.523434658018e-04 8.753789560532e-03 0.0 
0.0 0.0 -1.303172775453e-03 
-1.317386328466e-03 1.502744807486e-04 0.0 
1.502744807486e-04 8.760593080467e-03 0.0 
0.0 0.0 -1.304823151597e-03 
-1.303300137320e-03 -3.518320858820e-05 0.0 
-3.518320858820e-05 7.809809152570e-03 0.0 
0.0 0.0 -1.191058493115e-03 
-1.309915312802e-03 -8.055064126037e-05 0.0 
-8.055064126037e-05 8.016669059363e-03 0.0 
0.0 0.0 -1.224322658093e-03 
-1.321803447330e-03 5.837335499168e-05 0.0 
5.837335499168e-05 8.713282635678e-03 0.0 
0.0 0.0 -1.294569364341e-03 
-6.481855202900e-04 -6.246003181782e-04 0.0 
-6.246003181782e-04 2.746907491681e-03 0.0 
0.0 0.0 -4.512809064328e-04 
-1.269733092336e-03 3.949450849478e-04 0.0 
3.949450849478e-04 8.134082373248e-03 0.0 
0.0 0.0 -1.225740639889e-03 
-1.236917440076e-03 9.455704594097e-05 0.0 
9.455704594097e-05 7.907876475173e-03 0.0 
0.0 0.0 -1.178628832109e-03 
2.863499120991e-04 1.225469476951e-03 0.0 
1.225469476951e-03 5.011020420815e-04 0.0 
0.0 0.0 -3.087973448475e-04 
-5.572892816396e-04 -1.058232484237e-03 0.0 
-1.058232484237e-03 2.439571083886e-03 0.0 
0.0 0.0 -4.373623857420e-04 
-1.169344627949e-03 -1.527368028486e-04 0.0 
-1.527368028486e-04 6.463252890075e-03 0.0 
0.0 0.0 -9.899674718230e-04 
-1.002156622739e-03 -4.217657770794e-04 0.0 
-4.217657770794e-04 5.766816978775e-03 0.0 
0.0 0.0 -9.123979313600e-04 
-1.240362622181e-03 -2.107518773901e-04 0.0 
-2.107518773901e-04 7.344433125846e-03 0.0 
0.0 0.0 -1.130390451587e-03 
-1.097029052933e-03 -2.727822285369e-04 0.0 
-2.727822285369e-04 6.025349028311e-03 0.0 
0.0 0.0 -9.322225209316e-04 
-1.160816713283e-03 -2.966491095374e-04 0.0 
-2.966491095374e-04 6.897592609693e-03 0.0 
0.0 0.0 -1.073123358692e-03 
-1.146188823319e-03 -9.619145093431e-05 0.0 
-9.619145093431e-05 7.734668514319e-03 0.0 
0.0 0.0 -1.244129926109e-03 
-3.611510593238e-04 -8.758097138839e-05 0.0 
-8.758097138839e-05 1.751553404855e-03 0.0 
0.0 0.0 -2.939217362394e-04 
-1.042524547902e-03 8.542519018607e-05 0.0 
8.542519018607e-05 6.249309917826e-03 0.0 
0.0 0.0 -9.364826870394e-04 
-1.011646579925e-03 4.950052888461e-05 0.0 
4.950052888461e-05 6.088183350352e-03 0.0 
0.0 0.0 -9.130351872960e-04 
-1.156492778501e-03 8.389467150956e-05 0.0 
8.389467150956e-05 7.209321502601e-03 0.0 
0.0 0.0 -1.075939795031e-03 
-6.797233321873e-04 -3.445526981405e-04 0.0 
-3.445526981405e-04 2.970604433142e-03 0.0 
0.0 0.0 -4.709579147287e-04 
-9.579355913964e-04 -2.329193078104e-04 0.0 
-2.329193078104e-04 4.740187249377e-03 0.0 
0.0 0.0 -7.304257169629e-04 
-4.699094320929e-04 -2.864685390476e-04 0.0 
-2.864685390476e-04 1.870719163436e-03 0.0 
0.0 0.0 -3.104331955072e-04 
-1.225720132749e-03 4.922764523725e-04 0.0 
4.922764523725e-04 8.004298524687e-03 0.0 
0.0 0.0 -1.251461238623e-03 
-8.642142966185e-04 4.736706847914e-04 0.0 
4.736706847914e-04 4.810262753378e-03 0.0 
0.0 0.0 -7.590395520047e-04 
-6.299061308779e-04 -6.905248015396e-04 0.0 
-6.905248015396e-04 4.426299320179e-03 0.0 
0.0 0.0 -7.694287042311e-04 
-7.912081179997e-04 -5.380011954616e-04 0.0 
-5.380011954616e-04 3.827422774339e-03 0.0 
0.0 0.0 -6.120242822960e-04 
-6.551443874445e-04 -7.576014874881e-04 0.0 
-7.576014874881e-04 2.929641818478e-03 0.0 
0.0 0.0 -4.894362539292e-04 
-4.890802463817e-04 -1.241731719978e-03 0.0 
-1.241731719978e-03 2.147525315431e-03 0.0 
0.0 0.0 -4.100935076628e-04 
-5.488809187293e-04 8.195138113053e-04 0.0 
8.195138113053e-04 3.940420057434e-03 0.0 
0.0 0.0 -6.990242139688e-04 
-7.645737241242e-04 -6.835179970588e-04 0.0 
-6.835179970588e-04 4.369038504805e-03 0.0 
0.0 0.0 -7.237531747479e-04 
-9.990166317683e-04 -3.989427530334e-04 0.0 
-3.989427530334e-04 6.371965153356e-03 0.0 
0.0 0.0 -1.024340108609e-03 
-1.185317591363e-03 7.742475138516e-05 0.0 
7.742475138516e-05 7.460446495103e-03 0.0 
0.0 0.0 -1.112552678551e-03 
1.197712392318e-04 -3.148981806786e-05 0.0 
-3.148981806786e-05 2.711258731277e-04 0.0 
0.0 0.0 -9.959518537181e-05 
-1.003340353985e-03 -3.675015482303e-04 0.0 
-3.675015482303e-04 6.579336743889e-03 0.0 
0.0 0.0 -1.061672265243e-03 
-8.749171253014e-04 -5.429443966133e-04 0.0 
-5.429443966133e-04 5.259260617559e-03 0.0 
0.0 0.0 -8.552253422611e-04 
-1.075058534600e-03 1.329625948637e-04 0.0 
1.329625948637e-04 6.404878824914e-03 0.0 
0.0 0.0 -9.599091010803e-04 
-8.098069298724e-04 1.009136731454e-04 0.0 
1.009136731454e-04 6.303475721426e-03 0.0 
0.0 0.0 -1.062640036239e-03 
-7.822393088759e-05 -1.437936820334e-03 0.0 
-1.437936820334e-03 1.036179245632e-03 0.0 
0.0 0.0 -3.732485265440e-04 
-1.183046367818e-03 1.393767940647e-04 0.0 
1.393767940647e-04 7.358067127657e-03 0.0 
0.0 0.0 -1.098747615487e-03 
-1.275160361241e-03 2.646540278175e-04 0.0 
2.646540278175e-04 8.092932724066e-03 0.0 
0.0 0.0 -1.212453547082e-03 
-1.010608018996e-03 1.134796452945e-04 0.0 
1.134796452945e-04 5.876477578498e-03 0.0 
0.0 0.0 -8.875094802107e-04 
-3.432304284614e-04 -2.023305734104e-04 0.0 
-2.023305734104e-04 1.413096543350e-03 0.0 
0.0 0.0 -2.442495876194e-04 
-9.871354508553e-04 6.543929527951e-05 0.0 
6.543929527951e-05 5.785148960874e-03 0.0 
0.0 0.0 -8.692469099983e-04 
-1.129933755956e-03 -2.589669323117e-04 0.0 
-2.589669323117e-04 7.495462082173e-03 0.0 
0.0 0.0 -1.202705989510e-03 
-1.175984421816e-03 2.539870060864e-04 0.0 
2.539870060864e-04 7.167724276723e-03 0.0 
0.0 0.0 -1.078220320736e-03 
-6.238127593336e-04 -2.578427228971e-04 0.0 
-2.578427228971e-04 2.729809833616e-03 0.0 
0.0 0.0 -4.336020471383e-04 
-3.693103125981e-04 -1.184898620339e-04 0.0 
-1.184898620339e-04 4.215512874596e-03 0.0 
0.0 0.0 -7.943514531093e-04 
-7.354883692347e-04 6.882867699016e-04 0.0 
6.882867699016e-04 4.480048918178e-03 0.0 
0.0 0.0 -7.428158978947e-04 
-8.300346150545e-04 1.997478973446e-04 0.0 
1.997478973446e-04 4.462946677923e-03 0.0 
0.0 0.0 -6.865907729104e-04 
-1.263662037140e-03 1.212955651983e-04 0.0 
1.212955651983e-04 8.095770653682e-03 0.0 
0.0 0.0 -1.206557591227e-03 
-5.452830500886e-04 5.833267200760e-04 0.0 
5.833267200760e-04 4.601923753795e-03 0.0 
0.0 0.0 -8.172945450071e-04 
-9.138715469007e-04 -2.809485115349e-05 0.0 
-2.809485115349e-05 6.748408724194e-03 0.0 
0.0 0.0 -1.120054252910e-03 
-5.855153319979e-04 -8.409325156636e-05 0.0 
-8.409325156636e-05 5.239197065772e-03 0.0 
0.0 0.0 -9.240809108919e-04 
-6.615538158736e-04 -2.024673927750e-04 0.0 
-2.024673927750e-04 2.941778370234e-03 0.0 
0.0 0.0 -4.629711029823e-04 
-1.130081472427e-03 -3.415372177863e-04 0.0 
-3.415372177863e-04 7.089023572073e-03 0.0 
0.0 0.0 -1.118919378802e-03 
-3.597542210602e-04 3.380969491909e-04 0.0 
3.380969491909e-04 4.095727105777e-03 0.0 
0.0 0.0 -7.743986277066e-04 
-1.231879397795e-03 1.563825567224e-04 0.0 
1.563825567224e-04 7.806451874477e-03 0.0 
0.0 0.0 -1.164614768973e-03 
-1.000367767849e-03 5.022961011040e-04 0.0 
5.022961011040e-04 6.477016694026e-03 0.0 
0.0 0.0 -1.031533309622e-03 
-8.496720980242e-05 7.949215026050e-05 0.0 
7.949215026050e-05 2.913474260951e-03 0.0 
0.0 0.0 -6.375205594687e-04 
-1.204201749293e-03 1.997899091721e-04 0.0 
1.997899091721e-04 7.486324816343e-03 0.0 
0.0 0.0 -1.121170216299e-03 
-5.130508831761e-04 -5.977004884583e-04 0.0 
-5.977004884583e-04 4.307094875234e-03 0.0 
0.0 0.0 -7.773091661689e-04 
-8.763670238880e-04 1.763080225343e-04 0.0 
1.763080225343e-04 6.599584220336e-03 0.0 
0.0 0.0 -1.099429584637e-03 
-8.205770634544e-04 5.305467903750e-04 0.0 
5.305467903750e-04 4.538492374159e-03 0.0 
0.0 0.0 -7.240542973723e-04 
-8.884268788469e-04 5.588484511591e-04 0.0 
5.588484511591e-04 5.612213355160e-03 0.0 
0.0 0.0 -9.041109700986e-04 
-1.050324174142e-03 4.352582260935e-04 0.0 
4.352582260935e-04 6.327572321714e-03 0.0 
0.0 0.0 -9.824247929831e-04 
-7.337998657639e-04 6.243333749199e-04 0.0 
6.243333749199e-04 5.125520163039e-03 0.0 
0.0 0.0 -8.608216255090e-04 
-1.153567602020e-03 -9.301724894271e-05 0.0 
-9.301724894271e-05 6.238376526397e-03 0.0 
0.0 0.0 -9.534332399069e-04 
-1.070854558502e-03 -3.525098866510e-04 0.0 
-3.525098866510e-04 6.838133072795e-03 0.0 
0.0 0.0 -1.090315851396e-03 
5.426530316348e-04 -6.124034834809e-04 0.0 
-6.124034834809e-04 -4.758177895351e-06 0.0 
0.0 0.0 -2.305263658883e-04 
-4.860442792995e-04 1.001524898596e-03 0.0 
1.001524898596e-03 3.110766909182e-03 0.0 
0.0 0.0 -5.719042557127e-04 
-1.067589445178e-03 1.583535090986e-04 0.0 
1.583535090986e-04 6.341569706464e-03 0.0 
0.0 0.0 -9.536514739466e-04 
-1.085608803619e-03 4.567018534179e-04 0.0 
4.567018534179e-04 7.206759563006e-03 0.0 
0.0 0.0 -1.150585697120e-03 
-1.272662540904e-03 1.837479624771e-04 0.0 
1.837479624771e-04 8.251575577157e-03 0.0 
0.0 0.0 -1.229329624135e-03 
-7.006581247961e-04 7.305782553014e-04 0.0 
7.305782553014e-04 4.076422328874e-03 0.0 
0.0 0.0 -6.801182747099e-04 
-1.119652443645e-03 -3.456160390905e-04 0.0 
-3.456160390905e-04 6.872141672148e-03 0.0 
0.0 0.0 -1.081576975854e-03 
-1.253042370701e-03 2.293393647918e-04 0.0 
2.293393647918e-04 7.917666161319e-03 0.0 
0.0 0.0 -1.185355684152e-03 
-8.328019205503e-04 -6.002544778108e-04 0.0 
-6.002544778108e-04 4.632328502255e-03 0.0 
0.0 0.0 -7.524367508395e-04 
-4.433075112401e-04 -2.566605040482e-05 0.0 
-2.566605040482e-05 2.036859959460e-03 0.0 
0.0 0.0 -3.333104686742e-04 
3.205177984844e-04 9.975801435051e-04 0.0 
9.975801435051e-04 2.379341149770e-04 0.0 
0.0 0.0 -2.393365343406e-04 
1.591584715393e-04 1.779286051982e-04 0.0 
1.779286051982e-04 1.786654556165e-03 0.0 
0.0 0.0 -5.092532232582e-04 
-4.531066397313e-04 5.570531624296e-04 0.0 
5.570531624296e-04 4.269383883647e-03 0.0 
0.0 0.0 -7.817448632792e-04 
-8.859078879477e-04 -5.417175315324e-04 0.0 
-5.417175315324e-04 5.072763910333e-03 0.0 
0.0 0.0 -8.181699076277e-04 
-1.293553667002e-03 3.539056233938e-04 0.0 
3.539056233938e-04 8.270227580961e-03 0.0 
0.0 0.0 -1.242275372262e-03 
-1.167568761218e-03 -3.100043251916e-04 0.0 
-3.100043251916e-04 7.110149870389e-03 0.0 
0.0 0.0 -1.110186454522e-03 
-8.720271584818e-04 -3.155671013640e-04 0.0 
-3.155671013640e-04 6.271566388977e-03 0.0 
0.0 0.0 -1.040857148505e-03 
3.090009603171e-05 6.438382974465e-04 0.0 
6.438382974465e-04 3.706853633849e-04 0.0 
0.0 0.0 -1.721080540357e-04 
-8.582532174726e-04 2.712256844373e-04 0.0 
2.712256844373e-04 4.619700861909e-03 0.0 
0.0 0.0 -7.126371066839e-04 
-1.210346144101e-03 -2.749948472322e-04 0.0 
-2.749948472322e-04 7.344160972203e-03 0.0 
0.0 0.0 -1.139074001596e-03 
-4.392212359222e-04 -2.427188308892e-04 0.0 
-2.427188308892e-04 4.468278991880e-03 0.0 
0.0 0.0 -8.223634564932e-04 
-9.190954487653e-04 1.036306006856e-04 0.0 
1.036306006856e-04 6.792229327511e-03 0.0 
0.0 0.0 -1.126725356868e-03 
-1.012271879397e-03 -9.648706787801e-05 0.0 
-9.648706787801e-05 5.106630196527e-03 0.0 
0.0 0.0 -7.817916451012e-04 
-1.209813015887e-03 4.617447502893e-04 0.0 
4.617447502893e-04 7.951412152162e-03 0.0 
0.0 0.0 -1.249754184115e-03 
-7.319316117329e-04 4.292603822642e-04 0.0 
4.292603822642e-04 3.626422685243e-03 0.0 
0.0 0.0 -5.757576642514e-04 
-1.253262516526e-03 -2.397729583392e-04 0.0 
-2.397729583392e-04 7.583908034255e-03 0.0 
0.0 0.0 -1.168790087466e-03 
-8.256776309677e-04 -1.881926819914e-04 0.0 
-1.881926819914e-04 6.244322400387e-03 0.0 
0.0 0.0 -1.047452346298e-03 
-1.833871752581e-04 1.076533841658e-03 0.0 
1.076533841658e-03 2.371953294675e-03 0.0 
0.0 0.0 -5.248669331578e-04 
-8.489436119586e-04 9.726246538456e-06 0.0 
9.726246538456e-06 4.964532206226e-03 0.0 
0.0 0.0 -7.498068730476e-04 
-1.301937909208e-03 -2.238090825597e-04 0.0 
-2.238090825597e-04 8.094251106337e-03 0.0 
0.0 0.0 -1.243807156011e-03 
-9.340333835081e-04 -1.610113385009e-04 0.0 
-1.610113385009e-04 6.744276922541e-03 0.0 
0.0 0.0 -1.114542488500e-03 
-7.941362751269e-04 5.664211877541e-04 0.0 
5.664211877541e-04 5.563587855978e-03 0.0 
0.0 0.0 -9.240346875991e-04 
-4.168495056098e-04 -3.974139927462e-04 0.0 
-3.974139927462e-04 4.226500375937e-03 0.0 
0.0 0.0 -7.856950878877e-04 
-7.739148085239e-04 2.464793331539e-04 0.0 
2.464793331539e-04 3.977512213385e-03 0.0 
0.0 0.0 -6.191377506773e-04 
-9.472802509339e-04 -4.715703841177e-04 0.0 
-4.715703841177e-04 5.324567248990e-03 0.0 
0.0 0.0 -8.467704336814e-04 
-9.485585464614e-04 5.193393053567e-04 0.0 
5.193393053567e-04 5.905682896343e-03 0.0 
0.0 0.0 -9.395224721591e-04 
-1.324920476103e-03 3.053746754946e-04 0.0 
3.053746754946e-04 8.723243834592e-03 0.0 
0.0 0.0 -1.306889097489e-03 
-9.807951782906e-04 -9.587801094059e-05 0.0 
-9.587801094059e-05 6.970713904845e-03 0.0 
0.0 0.0 -1.148622835147e-03 
-1.082939420670e-03 2.819860490732e-04 0.0 
2.819860490732e-04 6.381972856138e-03 0.0 
0.0 0.0 -9.696660045843e-04 
-9.493777168521e-04 -4.444219031776e-04 0.0 
-4.444219031776e-04 5.127854127799e-03 0.0 
0.0 0.0 -8.097439408559e-04 
-7.160311725792e-04 3.654432579295e-04 0.0 
3.654432579295e-04 5.714883805619e-03 0.0 
0.0 0.0 -9.749840279683e-04 
-1.676636515260e-04 -4.941269470984e-05 0.0 
-4.941269470984e-05 1.033199140519e-03 0.0 
0.0 0.0 -1.970089232863e-04 
-7.962185908535e-04 3.303377500728e-04 0.0 
3.303377500728e-04 4.131190544581e-03 0.0 
0.0 0.0 -6.447622526173e-04 
-1.000272012546e-03 -3.719800608836e-04 0.0 
-3.719800608836e-04 5.362836932527e-03 0.0 
0.0 0.0 -8.382314227178e-04 
1.017392588855e-04 -1.736220687656e-04 0.0 
-1.736220687656e-04 2.043177635858e-03 0.0 
0.0 0.0 -5.374563060555e-04 
-5.079147546005e-04 -4.709528610388e-04 0.0 
-4.709528610388e-04 4.508844721117e-03 0.0 
0.0 0.0 -8.136389561866e-04 
-1.114056657132e-03 2.887883130746e-04 0.0 
2.887883130746e-04 7.664610237433e-03 0.0 
0.0 0.0 -1.234277959947e-03 
-1.046296347188e-03 -3.017965079923e-04 0.0 
-3.017965079923e-04 5.590796710732e-03 0.0 
0.0 0.0 -8.668853676281e-04 
-2.327182499333e-05 -1.637556316808e-04 0.0 
-1.637556316808e-04 2.609999917965e-03 0.0 
0.0 0.0 -6.015264011954e-04 
-1.086733608739e-03 -2.340312705235e-04 0.0 
-2.340312705235e-04 5.809878777498e-03 0.0 
0.0 0.0 -8.955981815692e-04 
-7.133441625448e-04 3.191920090799e-04 0.0 
3.191920090799e-04 3.492826899708e-03 0.0 
0.0 0.0 -5.519888345566e-04 
-1.102733663682e-03 3.164092702850e-04 0.0 
3.164092702850e-04 6.555228391521e-03 0.0 
0.0 0.0 -9.983267706061e-04 
-1.119318067822e-03 -1.714358954242e-04 0.0 
-1.714358954242e-04 6.018884976543e-03 0.0 
0.0 0.0 -9.243533921793e-04 
-1.001908002250e-03 4.984942752457e-04 0.0 
4.984942752457e-04 6.334427631463e-03 0.0 
0.0 0.0 -1.003151257071e-03 
-2.279098310875e-04 -1.251804773978e-04 0.0 
-1.251804773978e-04 1.119603241316e-03 0.0 
0.0 0.0 -2.040322045631e-04 
-7.855046317287e-04 5.237977796601e-04 0.0 
5.237977796601e-04 5.697841480735e-03 0.0 
0.0 0.0 -9.517466134248e-04 
-1.278300960589e-03 -7.889376224299e-05 0.0 
-7.889376224299e-05 7.564162797006e-03 0.0 
0.0 0.0 -1.155419075730e-03 
-6.039386638838e-04 -9.352834442183e-04 0.0 
-9.352834442183e-04 3.237374525321e-03 0.0 
0.0 0.0 -5.654343806685e-04 
-5.996382576729e-04 -5.078678615237e-04 0.0 
-5.078678615237e-04 4.794693511813e-03 0.0 
0.0 0.0 -8.420324705410e-04 
-1.153622144798e-03 3.409444967982e-04 0.0 
3.409444967982e-04 6.992756961225e-03 0.0 
0.0 0.0 -1.063653581392e-03 
-6.588103306477e-04 3.969496556601e-04 0.0 
3.969496556601e-04 3.002666315313e-03 0.0 
0.0 0.0 -4.839843007303e-04 
-6.880791710433e-04 -4.312562534369e-04 0.0 
-4.312562534369e-04 5.283404868934e-03 0.0 
0.0 0.0 -9.074658271045e-04 
-1.060052777402e-03 4.844888623504e-04 0.0 
4.844888623504e-04 6.770757776904e-03 0.0 
0.0 0.0 -1.067288052377e-03 
-7.837482685475e-04 4.743739920089e-04 0.0 
4.743739920089e-04 5.847117456295e-03 0.0 
0.0 0.0 -9.801762873724e-04 
-5.364910550697e-04 4.803545642860e-04 0.0 
4.803545642860e-04 4.747968314780e-03 0.0 
0.0 0.0 -8.455731917576e-04 
-7.785051872343e-04 -3.658858697108e-04 0.0 
-3.658858697108e-04 5.776530662371e-03 0.0 
0.0 0.0 -9.738262179588e-04 
-6.715128569437e-04 5.603668306290e-04 0.0 
5.603668306290e-04 3.116619739403e-03 0.0 
0.0 0.0 -5.057041985798e-04 
-6.174255134183e-04 -7.382519752092e-04 0.0 
-7.382519752092e-04 2.524949954393e-03 0.0 
0.0 0.0 -4.238464704258e-04 
-5.725994882734e-04 -6.885730532868e-04 0.0 
-6.885730532868e-04 2.123374709043e-03 0.0 
0.0 0.0 -3.586180353125e-04 
-1.087968519769e-04 -3.894502741245e-04 0.0 
-3.894502741245e-04 2.894305128247e-03 0.0 
0.0 0.0 -6.294631353604e-04 
-1.113989301634e-03 4.730580331504e-04 0.0 
4.730580331504e-04 7.064599777148e-03 0.0 
0.0 0.0 -1.103081964739e-03 
-2.909493422495e-04 -6.727813062534e-05 0.0 
-6.727813062534e-05 1.456560370235e-03 0.0 
0.0 0.0 -2.521214004998e-04 
-1.130223577437e-03 3.874695664211e-04 0.0 
3.874695664211e-04 6.879711460710e-03 0.0 
0.0 0.0 -1.054898413167e-03 
-4.747914815808e-04 -7.007316897934e-04 0.0 
-7.007316897934e-04 1.510403036883e-03 0.0 
0.0 0.0 -2.740243446916e-04 
-1.059034309075e-04 -6.476895754937e-04 0.0 
-6.476895754937e-04 2.671993736935e-03 0.0 
0.0 0.0 -5.935709857392e-04 
-8.832674525435e-04 3.712236152595e-04 0.0 
3.712236152595e-04 6.508434955568e-03 0.0 
0.0 0.0 -1.077081564483e-03 
-1.023005590377e-03 -4.065847446542e-05 0.0 
-4.065847446542e-05 6.235882102629e-03 0.0 
0.0 0.0 -9.315431351609e-04 
-2.271455064543e-04 -7.649077538712e-04 0.0 
-7.649077538712e-04 3.005124294304e-03 0.0 
0.0 0.0 -6.211106552582e-04 
-5.539372237771e-04 -2.705347043382e-05 0.0 
-2.705347043382e-05 2.503628127068e-03 0.0 
0.0 0.0 -3.989951351066e-04 
-2.711318037513e-04 -9.555117866304e-04 0.0 
-9.555117866304e-04 2.849172517321e-03 0.0 
0.0 0.0 -5.850331209179e-04 
-6.241921201683e-04 4.180601427792e-04 0.0 
4.180601427792e-04 5.227484326245e-03 0.0 
0.0 0.0 -9.098959706900e-04 
-3.942802621189e-04 -9.538191986641e-04 0.0 
-9.538191986641e-04 3.188718869022e-03 0.0 
0.0 0.0 -6.124823626799e-04 
-4.550624226044e-04 -1.036578340992e-03 0.0 
-1.036578340992e-03 3.064317854104e-03 0.0 
0.0 0.0 -5.760838601101e-04 
-1.286542940212e-03 9.779925010804e-05 0.0 
9.779925010804e-05 8.362389009926e-03 0.0 
0.0 0.0 -1.242975171717e-03 
-5.556616817437e-04 -9.487474711726e-04 0.0 
-9.487474711726e-04 3.373317672553e-03 0.0 
0.0 0.0 -6.030381679152e-04 
-1.312957018488e-03 1.762534641485e-05 0.0 
1.762534641485e-05 8.791531742823e-03 0.0 
0.0 0.0 -1.305370344976e-03 
-1.342889913941e-03 -8.887845541572e-05 0.0 
-8.887845541572e-05 8.517788746463e-03 0.0 
0.0 0.0 -1.298405437673e-03 
-9.001399359898e-04 -3.115200366471e-05 0.0 
-3.115200366471e-05 5.327299192951e-03 0.0 
0.0 0.0 -7.997855503562e-04 
-6.119585369169e-04 5.319683456807e-04 0.0 
5.319683456807e-04 2.524442221547e-03 0.0 
0.0 0.0 -4.121418992062e-04 
0.0 0.0 0.0 
0.0 0.0 0.0 
0.0 0.0 0.0 
-6.013216908629e-04 7.353591052882e-04 0.0 
7.353591052882e-04 2.570270979253e-03 0.0 
0.0 0.0 -4.369243393394e-04 
-5.755877201232e-04 -1.006492197580e-03 0.0 
-1.006492197580e-03 2.831071537896e-03 0.0 
0.0 0.0 -5.013603847490e-04 
-1.101076468124e-03 4.427543157598e-04 0.0 
4.427543157598e-04 6.753747619027e-03 0.0 
0.0 0.0 -1.045752072333e-03 
-9.001350944238e-04 1.690426372956e-05 0.0 
1.690426372956e-05 5.335483219367e-03 0.0 
0.0 0.0 -8.029817139903e-04 
-6.111138971153e-04 -8.912307338130e-04 0.0 
-8.912307338130e-04 2.695444832232e-03 0.0 
0.0 0.0 -4.630712860745e-04 
-1.275916597091e-03 4.598087248478e-04 0.0 
4.598087248478e-04 8.197933557976e-03 0.0 
0.0 0.0 -1.250093291501e-03 
-1.277155987315e-03 4.247176035906e-04 0.0 
4.247176035906e-04 8.290214574666e-03 0.0 
0.0 0.0 -1.306737725957e-03 
-1.108220863065e-03 9.376951406301e-06 0.0 
9.376951406301e-06 6.884195681395e-03 0.0 
0.0 0.0 -1.028769680629e-03 
-9.736500693663e-04 5.157775084853e-05 0.0 
5.157775084853e-05 6.985202160712e-03 0.0 
0.0 0.0 -1.152835590205e-03 
-7.921204258207e-04 4.078698397503e-04 0.0 
4.078698397503e-04 6.023879636983e-03 0.0 
0.0 0.0 -1.010595862668e-03 
-1.241857793517e-03 -4.299570159508e-06 0.0 
-4.299570159508e-06 7.958618347353e-03 0.0 
0.0 0.0 -1.185717314024e-03 
-8.475222208266e-04 -3.781329079989e-05 0.0 
-3.781329079989e-05 4.928212699674e-03 0.0 
0.0 0.0 -7.451086181774e-04 
-1.664286133127e-04 -2.725892507630e-04 0.0 
-2.725892507630e-04 6.325537652716e-04 0.0 
0.0 0.0 -1.414044378648e-04 
-1.183800202695e-03 -4.172593709851e-05 0.0 
-4.172593709851e-05 6.467154125527e-03 0.0 
0.0 0.0 -9.879584850274e-04 
-5.708971627680e-04 6.741264129118e-04 0.0 
6.741264129118e-04 2.024843560255e-03 0.0 
0.0 0.0 -3.437331075899e-04 
-5.495900722021e-04 1.011381174664e-03 0.0 
1.011381174664e-03 1.944401710747e-03 0.0 
0.0 0.0 -3.524505972177e-04 
-2.853835512823e-04 1.205712139992e-03 0.0 
1.205712139992e-03 1.304597058130e-03 0.0 
0.0 0.0 -3.593644486456e-04 
-7.020460695734e-04 -1.440442927613e-04 0.0 
-1.440442927613e-04 3.119459023260e-03 0.0 
0.0 0.0 -4.856826860430e-04 
-8.782495870591e-05 -9.084916110393e-04 0.0 
-9.084916110393e-04 7.572036747300e-04 0.0 
0.0 0.0 -2.846511604759e-04 
-4.893890858810e-04 8.969022950391e-04 0.0 
8.969022950391e-04 1.589417859757e-03 0.0 
0.0 0.0 -3.076864852448e-04 
-1.137014357475e-03 7.152136645660e-05 0.0 
7.152136645660e-05 7.697731072351e-03 0.0 
0.0 0.0 -1.245112051941e-03 
-9.139609418570e-04 1.641183808410e-05 0.0 
1.641183808410e-05 5.327038428336e-03 0.0 
0.0 0.0 -8.050116406322e-04 
-9.540345071131e-04 3.841934886618e-04 0.0 
3.841934886618e-04 6.790550876670e-03 0.0 
0.0 0.0 -1.110409235593e-03 
-1.902162665021e-04 9.339845454039e-04 0.0 
9.339845454039e-04 9.942126500714e-04 0.0 
0.0 0.0 -3.261355004832e-04 
-1.296828862309e-03 2.341461600450e-04 0.0 
2.341461600450e-04 8.351041898143e-03 0.0 
0.0 0.0 -1.247366155457e-03 
-1.168645139073e-03 3.735588726833e-04 0.0 
3.735588726833e-04 7.817174461527e-03 0.0 
0.0 0.0 -1.246608778627e-03 
-1.314967464086e-03 -3.318256949741e-04 0.0 
-3.318256949741e-04 8.403481236488e-03 0.0 
0.0 0.0 -1.306249356034e-03 
-1.050201848033e-03 3.696451559178e-04 0.0 
3.696451559178e-04 7.268871172990e-03 0.0 
0.0 0.0 -1.176371721005e-03 
6.114555871551e-05 1.042784162236e-03 0.0 
1.042784162236e-03 5.736687994652e-04 0.0 
0.0 0.0 -2.720632963632e-04 
-9.766098877979e-04 1.041630930997e-04 0.0 
1.041630930997e-04 5.685157012225e-03 0.0 
0.0 0.0 -8.603500797662e-04 
-1.246724541881e-03 4.866961176123e-04 0.0 
4.866961176123e-04 8.045633532487e-03 0.0 
0.0 0.0 -1.250827372426e-03 
-1.145993633532e-03 3.235835733547e-05 0.0 
3.235835733547e-05 7.250949289083e-03 0.0 
0.0 0.0 -1.080253149739e-03 
-1.318596932855e-03 -2.303003049155e-04 0.0 
-2.303003049155e-04 8.477981163117e-03 0.0 
0.0 0.0 -1.309985050881e-03 
-9.104561560587e-04 8.791536920609e-05 0.0 
8.791536920609e-05 5.249520802984e-03 0.0 
0.0 0.0 -7.979019438933e-04 
-1.287101829326e-03 7.929734908006e-05 0.0 
7.929734908006e-05 8.412586601378e-03 0.0 
0.0 0.0 -1.252774941638e-03 
4.187865149814e-04 -7.886444366699e-04 0.0 
-7.886444366699e-04 6.898920111237e-05 0.0 
0.0 0.0 -2.090467354688e-04 
-1.285197150188e-03 5.312445103222e-05 0.0 
5.312445103222e-05 8.412445019205e-03 0.0 
0.0 0.0 -1.254166199180e-03 
-1.155435508235e-03 4.462044169920e-04 0.0 
4.462044169920e-04 7.190167035892e-03 0.0 
0.0 0.0 -1.110316242656e-03 
-9.785241987209e-04 6.006269753900e-05 0.0 
6.006269753900e-05 5.897359505691e-03 0.0 
0.0 0.0 -8.840149073763e-04 
-9.814056690218e-04 2.078101741112e-04 0.0 
2.078101741112e-04 5.639397818750e-03 0.0 
0.0 0.0 -8.570326279659e-04 
-1.319590243869e-03 -1.168373964399e-04 0.0 
-1.168373964399e-04 8.200864803592e-03 0.0 
0.0 0.0 -1.256337174517e-03 
-1.298927049123e-03 3.872456439500e-04 0.0 
3.872456439500e-04 8.256979916972e-03 0.0 
0.0 0.0 -1.249505442739e-03 
1.588810044440e-04 6.739000714330e-04 0.0 
6.739000714330e-04 2.144145137498e-04 0.0 
0.0 0.0 -1.599837935116e-04 
-1.096094038579e-03 6.855172835755e-05 0.0 
6.855172835755e-05 6.864639960432e-03 0.0 
0.0 0.0 -1.024357608964e-03 
-8.327401503038e-04 -2.617825635292e-04 0.0 
-2.617825635292e-04 3.865808984588e-03 0.0 
0.0 0.0 -5.984289768806e-04 
4.595402762325e-05 -8.016720020432e-05 0.0 
-8.016720020432e-05 3.015012832342e-06 0.0 
0.0 0.0 -2.098673162382e-05 
-1.235862100260e-03 -2.625570613708e-04 0.0 
-2.625570613708e-04 7.934382526740e-03 0.0 
0.0 0.0 -1.249521112489e-03 
-1.211535382329e-03 4.565569816846e-04 0.0 
4.565569816846e-04 7.603855218494e-03 0.0 
0.0 0.0 -1.172189067419e-03 
-1.321360973485e-03 -1.598454139055e-04 0.0 
-1.598454139055e-04 8.157812717265e-03 0.0 
0.0 0.0 -1.251863004148e-03 
-1.704574328015e-04 2.300128264431e-05 0.0 
2.300128264431e-05 1.030856563870e-03 0.0 
0.0 0.0 -1.953152674555e-04 
-1.117901966883e-04 -9.482210033707e-05 0.0 
-9.482210033707e-05 5.817955991869e-04 0.0 
0.0 0.0 -1.292073282250e-04 
-1.214101423412e-03 -2.486194593532e-04 0.0 
-2.486194593532e-04 7.945028851660e-03 0.0 
0.0 0.0 -1.258522865334e-03 
-1.271219324857e-03 4.971693506933e-04 0.0 
4.971693506933e-04 8.177840067003e-03 0.0 
0.0 0.0 -1.257106814994e-03 
2.594232538172e-04 -1.339851872499e-03 0.0 
-1.339851872499e-03 5.141638941498e-04 0.0 
0.0 0.0 -3.217126346404e-04 
-1.334345376368e-03 2.157790183718e-04 0.0 
2.157790183718e-04 8.827191171129e-03 0.0 
0.0 0.0 -1.314710167832e-03 
5.758992691219e-05 1.629967515181e-04 0.0 
1.629967515181e-04 3.408863824387e-05 0.0 
0.0 0.0 -3.929081363831e-05 
-8.415723991859e-04 3.409357994461e-05 0.0 
3.409357994461e-05 4.862419417103e-03 0.0 
0.0 0.0 -7.389643750272e-04 
-5.632071603276e-05 -7.908255579780e-05 0.0 
-7.908255579780e-05 5.951715054384e-04 0.0 
0.0 0.0 -1.313337839019e-04 
-1.324427323831e-03 -2.984557275517e-04 0.0 
-2.984557275517e-04 8.505668996389e-03 0.0 
0.0 0.0 -1.308531455474e-03 
-1.300676432775e-03 1.886676363898e-04 0.0 
1.886676363898e-04 8.425576722081e-03 0.0 
0.0 0.0 -1.254845750201e-03 
-8.984019564796e-04 -1.237198133233e-04 0.0 
-1.237198133233e-04 4.265458849472e-03 0.0 
0.0 0.0 -6.564513288157e-04 
-8.888014077326e-04 1.812789084724e-04 0.0 
1.812789084724e-04 4.952376261473e-03 0.0 
0.0 0.0 -7.541421605440e-04 
-6.276097559503e-04 -6.715782605664e-05 0.0 
-6.715782605664e-05 2.832069501594e-03 0.0 
0.0 0.0 -4.426424662127e-04 
-1.151816338705e-03 4.986859032723e-04 0.0 
4.986859032723e-04 7.600283655027e-03 0.0 
0.0 0.0 -1.203498912175e-03 
-2.674740073154e-04 -5.400123392678e-04 0.0 
-5.400123392678e-04 9.299090651865e-04 0.0 
0.0 0.0 -2.264474151299e-04 
-1.303841109802e-03 1.085882883771e-04 0.0 
1.085882883771e-04 8.492357544012e-03 0.0 
0.0 0.0 -1.260296891839e-03 
-1.191687690371e-03 -1.792572912051e-04 0.0 
-1.792572912051e-04 7.902409115589e-03 0.0 
0.0 0.0 -1.261416966621e-03 
-1.308215205254e-03 3.369873735607e-04 0.0 
3.369873735607e-04 8.413847692259e-03 0.0 
0.0 0.0 -1.260618436842e-03 
-1.275370929010e-03 2.203297067690e-04 0.0 
2.203297067690e-04 8.294911698725e-03 0.0 
0.0 0.0 -1.317725628150e-03 
1.222313271005e-05 1.128127362180e-05 0.0 
1.128127362180e-05 -2.314647535048e-06 0.0 
0.0 0.0 -4.246493646427e-06 
-1.211818034300e-03 4.006014363556e-04 0.0 
4.006014363556e-04 7.983414665776e-03 0.0 
0.0 0.0 -1.263090216482e-03 
-1.073154055867e-03 -5.044780342709e-05 0.0 
-5.044780342709e-05 7.404491594172e-03 0.0 
0.0 0.0 -1.202239909569e-03 
-8.482969471247e-04 5.756566432870e-05 0.0 
5.756566432870e-05 4.934073378721e-03 0.0 
0.0 0.0 -7.439744481034e-04 
-1.294789794099e-03 4.128632800208e-04 0.0 
4.128632800208e-04 8.301439097425e-03 0.0 
0.0 0.0 -1.252574368527e-03 
-7.632240259174e-04 -1.247615584578e-04 0.0 
-1.247615584578e-04 3.481612275262e-03 0.0 
0.0 0.0 -5.383891422301e-04 
-3.003096040968e-04 -1.615487937268e-04 0.0 
-1.615487937268e-04 1.430206630076e-03 0.0 
0.0 0.0 -2.492021827984e-04 
-1.313629829914e-03 -1.230146382652e-05 0.0 
-1.230146382652e-05 8.822541585775e-03 0.0 
0.0 0.0 -1.313490227100e-03 
3.781152469438e-04 2.514568891099e-05 0.0 
2.514568891099e-05 8.526485539188e-05 0.0 
0.0 0.0 -1.257275249758e-04 
-8.447146323437e-04 -2.046082411215e-05 0.0 
-2.046082411215e-05 4.909462012842e-03 0.0 
0.0 0.0 -7.402411036050e-04 
-1.348085845692e-03 2.530918264864e-06 0.0 
2.530918264864e-06 8.606464988216e-03 0.0 
0.0 0.0 -1.313492844077e-03 
-2.497229854947e-04 -6.189559134780e-05 0.0 
-6.189559134780e-05 1.337406434444e-03 0.0 
0.0 0.0 -2.401910970207e-04 
-9.421911629794e-04 -1.661669992897e-05 0.0 
-1.661669992897e-05 5.655702660019e-03 0.0 
0.0 0.0 -8.489638187885e-04 
-1.276280445523e-03 4.696432845470e-04 0.0 
4.696432845470e-04 8.231682282445e-03 0.0 
0.0 0.0 -1.260211869575e-03 
-1.042131282941e-03 -3.353944901092e-05 0.0 
-3.353944901092e-05 5.231045184564e-03 0.0 
0.0 0.0 -7.986629621775e-04 
-1.208709146256e-03 -3.512840286861e-05 0.0 
-3.512840286861e-05 7.690123470060e-03 0.0 
0.0 0.0 -1.148445367820e-03 
-1.362273016930e-05 -1.182361291552e-03 0.0 
-1.182361291552e-03 7.884965128820e-04 0.0 
0.0 0.0 -3.320887640197e-04 
0.0 0.0 0.0 
0.0 0.0 0.0 
0.0 0.0 0.0 
-1.052359765526e-03 -2.552934865100e-05 0.0 
-2.552934865100e-05 6.469023319650e-03 0.0 
0.0 0.0 -9.668795991591e-04 
-1.182130655930e-03 3.563594059290e-04 0.0 
3.563594059290e-04 7.870829341615e-03 0.0 
0.0 0.0 -1.258714341260e-03 
-1.311624000118e-03 2.599452204782e-04 0.0 
2.599452204782e-04 8.471619375797e-03 0.0 
0.0 0.0 -1.263997700767e-03 
-1.012178473530e-03 6.922432419418e-05 0.0 
6.922432419418e-05 6.158161253950e-03 0.0 
0.0 0.0 -9.199601189493e-04 
2.647470927745e-04 7.455276449397e-04 0.0 
7.455276449397e-04 1.486685304712e-04 0.0 
0.0 0.0 -1.771781242482e-04 
-1.250478637346e-03 4.824320061321e-04 0.0 
4.824320061321e-04 7.958988352162e-03 0.0 
0.0 0.0 -1.221038716794e-03 
-9.320485300336e-04 -1.667751956757e-04 0.0 
-1.667751956757e-04 4.597200132756e-03 0.0 
0.0 0.0 -7.060606045914e-04 
-1.200656783891e-03 4.721645169611e-04 0.0 
4.721645169611e-04 7.751960834764e-03 0.0 
0.0 0.0 -1.208939113964e-03 
-1.070653970758e-03 3.740030437558e-05 0.0 
3.740030437558e-05 7.401065294209e-03 0.0 
0.0 0.0 -1.203806565432e-03 
-6.991752740533e-06 1.825654940377e-04 0.0 
1.825654940377e-04 2.197483681546e-05 0.0 
0.0 0.0 -6.421321746397e-06 
-1.092227246100e-03 -1.750499239164e-05 0.0 
-1.750499239164e-05 5.615262148534e-03 0.0 
0.0 0.0 -8.562696210230e-04 
-5.708960077967e-05 -1.112001135559e-04 0.0 
-1.112001135559e-04 5.586929987395e-04 0.0 
0.0 0.0 -1.274563633148e-04 
-1.286136249812e-03 -3.205909886145e-04 0.0 
-3.205909886145e-04 8.133690929480e-03 0.0 
0.0 0.0 -1.263714160583e-03 
-9.761535132734e-04 -1.267872809360e-04 0.0 
-1.267872809360e-04 4.804162128704e-03 0.0 
0.0 0.0 -7.344436328926e-04 

SCALARS node_materi_plasti_kappa_shear float
LOOKUP_TABLE default
4.018595016637e-04
3.227009313599e-03
5.782851735544e-03
5.918183804685e-03
3.534406101045e-04
5.777185496190e-04
8.655346567894e-04
1.225178696612e-03
1.561289241519e-03
1.871659154863e-03
2.181083715770e-03
2.488964856422e-03
2.787137593187e-03
3.091771098928e-03
3.420472284368e-03
3.710467865470e-03
3.939561491463e-03
4.240577622205e-03
4.533842638206e-03
4.816933074020e-03
5.104668969230e-03
5.391975952764e-03
5.664103688175e-03
5.924781152092e-03
5.917884078783e-03
5.912198488963e-03
5.915363934694e-03
5.905144694759e-03
5.903457440159e-03
5.903348825921e-03
5.903761712110e-03
5.904265203747e-03
5.905318048855e-03
5.891395232290e-03
5.888128140164e-03
5.888680312796e-03
5.877931512601e-03
5.860031142375e-03
5.843163873243e-03
5.826784160533e-03
5.822850206754e-03
5.815960623432e-03
5.800025919692e-03
5.784362356774e-03
5.761776212317e-03
5.737855144386e-03
5.711749137531e-03
5.696108572039e-03
5.671644922163e-03
5.650827538949e-03
5.628366488181e-03
5.614080868870e-03
5.604140386821e-03
5.593036124330e-03
5.565915778014e-03
5.555192109801e-03
5.573004876633e-03
5.580306717995e-03
5.596307166112e-03
5.614091302201e-03
5.629810666475e-03
5.640837494200e-03
5.663093814390e-03
5.686920133380e-03
5.716693701825e-03
5.739758391817e-03
5.726679333637e-03
5.759394314008e-03
5.766547388258e-03
5.773558049937e-03
5.793695355299e-03
5.800384027879e-03
3.373278433029e-03
3.702017582457e-03
4.003145076898e-03
4.293988028575e-03
4.595203178701e-03
4.888984289506e-03
5.184208240141e-03
5.464856448975e-03
5.776378587400e-03
0.0
3.192588578362e-03
4.378618974846e-04
9.313671065223e-04
1.273596264124e-03
1.475817609515e-03
1.691520661011e-03
1.947957693993e-03
2.239903850629e-03
2.537826391599e-03
2.846322680870e-03
3.211692878702e-03
3.212779751579e-03
3.215295814516e-03
3.205318634875e-03
3.260612115387e-03
3.217033048878e-03
3.206802028701e-03
3.219414854374e-03
3.237933542907e-03
3.237544350604e-03
3.227521918981e-03
3.225690589647e-03
3.216989836787e-03
3.219149807802e-03
0.0
0.0
0.0
0.0
3.010556392943e-05
1.524327839584e-04
1.995857095858e-04
2.767971837970e-04
3.769179784358e-04
3.253807271213e-04
3.117581124918e-04
3.606568275965e-04
3.857262083461e-04
3.906419353076e-04
3.734613578151e-04
3.772402523226e-04
3.834964473508e-04
4.329208884810e-04
4.562639353554e-04
3.371275963815e-04
6.987967846243e-04
1.138663496479e-03
1.416159959173e-03
1.577549707535e-03
1.821953157934e-03
2.097239974907e-03
2.389074674071e-03
2.692213877285e-03
3.004846485941e-03
9.738600395070e-04
5.435588587201e-03
2.909988311951e-04
3.769847250248e-05
5.523350165746e-03
1.570944169196e-03
3.259014405966e-03
5.458606763578e-03
1.964336709912e-03
5.566973844380e-03
2.569306611317e-03
5.632953359091e-03
2.974125210141e-04
5.671758588449e-03
3.203440197606e-03
2.038890301766e-03
4.045860618714e-03
5.716180375961e-03
5.780776132195e-03
5.820339983969e-03
5.787783236705e-03
5.807930197893e-03
3.336276229903e-03
3.342041558882e-03
3.361792062102e-03
4.441169448529e-03
5.674307051814e-03
0.0
3.343800705069e-04
4.945795996265e-03
3.327462179656e-03
1.042267579418e-03
5.707024864185e-03
5.532622783009e-03
5.619797893241e-03
5.423578043402e-03
5.471772884167e-03
3.436383270430e-04
3.333005330644e-03
5.529223749368e-03
5.037839075619e-03
2.638587871684e-04
2.642361659730e-03
5.873210275008e-03
1.763677943653e-03
1.340334044123e-03
2.263467496582e-03
2.874799860949e-03
4.531129916492e-04
3.869122312403e-03
5.743109238437e-03
3.742077568394e-04
5.592525333234e-03
3.331816214928e-03
3.445762685372e-03
3.598635432457e-03
3.735913935782e-03
3.890935618439e-03
4.012600674009e-03
3.849474617287e-03
4.126514031565e-03
3.959165169884e-03
4.176038116471e-03
4.235988580971e-03
4.064707878218e-03
4.341402437136e-03
4.167240197337e-03
3.894151677151e-03
3.992834958239e-03
3.721936449487e-03
3.816849981585e-03
4.088667098279e-03
3.907021233887e-03
3.638494610824e-03
3.722863223661e-03
3.459179651477e-03
3.537390187834e-03
3.278134638251e-03
3.349761859775e-03
3.611638012721e-03
3.416809574398e-03
3.159803868816e-03
3.218051688491e-03
2.967054440755e-03
3.013255720382e-03
3.274741419647e-03
3.060407839341e-03
2.799033525006e-03
2.837141687482e-03
2.575225456547e-03
2.604333461748e-03
2.339006943104e-03
2.356936139518e-03
2.652093179226e-03
2.407825459181e-03
2.096105658174e-03
2.161022888784e-03
2.499076110119e-03
2.280206439540e-03
2.629068977315e-03
2.442266900798e-03
2.092139772061e-03
2.292183785288e-03
2.630236405014e-03
2.506325631077e-03
2.190661895186e-03
2.422274426006e-03
2.721982461051e-03
2.641933182030e-03
2.372758104436e-03
2.584384885052e-03
2.850333968712e-03
2.779077813445e-03
2.534557373612e-03
2.709557774217e-03
2.962454448322e-03
2.875190167875e-03
3.136631662822e-03
2.629761375739e-03
2.778979644167e-03
2.533618166994e-03
2.669371918058e-03
3.335780224915e-03
2.417052975495e-03
2.301133563289e-03
2.544153619348e-03
2.809569658580e-03
2.280488059570e-03
2.403129281843e-03
2.126768242516e-03
2.337020972949e-03
4.180692697777e-03
2.249003779132e-03
1.959755581014e-03
1.842529391951e-03
1.658290441270e-03
4.057689887828e-03
4.345234894460e-03
4.214494829484e-03
4.512207963410e-03
4.386116896851e-03
1.781237856866e-03
4.515858041588e-03
4.632785065629e-03
3.375865563346e-03
2.914340702826e-03
2.837997481989e-03
2.532048550751e-03
2.378710134929e-03
2.668313152737e-03
3.233044162886e-03
3.411145406702e-03
3.516648249659e-03
3.695606962542e-03
3.809881520443e-03
3.987932871345e-03
3.868387923180e-03
4.160380401702e-03
4.035401995459e-03
4.109927676280e-03
3.929071965478e-03
4.326541573449e-03
4.196853341751e-03
4.486612097014e-03
4.352559495553e-03
4.065464170358e-03
4.216259007439e-03
3.932665926102e-03
2.974206145827e-03
3.176937453123e-03
3.316135238148e-03
3.514584502752e-03
3.655690360847e-03
3.851432524779e-03
3.992906615051e-03
3.810423676568e-03
4.443438443787e-03
1.828572061533e-03
1.806415762240e-03
1.513365747016e-03
1.563989916259e-03
1.243214007741e-03
1.411260727777e-03
1.087408529277e-03
9.280634857497e-04
7.696745497683e-04
7.727047061156e-04
6.380213861808e-04
9.424950275727e-04
3.683920707972e-03
3.721810168106e-03
4.055539867157e-03
3.931687734683e-03
1.545289606018e-03
4.502587431745e-03
4.237803823005e-03
4.054767645798e-03
4.147689587509e-03
1.469037962723e-03
1.381279309045e-03
1.636872751770e-03
4.676612476866e-03
4.548915297300e-03
4.373011447568e-03
1.596671411329e-03
4.457517107573e-03
6.726180917699e-04
4.361759767158e-03
4.647438517847e-03
3.749070434487e-03
4.262666346844e-03
4.139562493484e-03
1.058263721451e-03
1.328795762681e-03
1.257951778391e-03
1.615059101371e-03
1.617776829754e-03
1.784704992927e-03
1.664404533731e-03
1.851897133188e-03
1.923512677117e-03
1.920863832566e-03
1.732826179112e-03
1.789080397445e-03
4.789640175199e-03
4.933105548269e-04
3.623293427982e-03
4.549397453839e-03
4.326717748868e-03
4.840106465985e-03
4.712783082347e-03
4.418649943636e-03
4.585859736983e-03
4.878747721020e-03
4.750919794657e-03
4.456475978691e-03
4.618929314417e-03
4.321775629010e-03
4.485087669046e-03
4.780485262660e-03
4.648645754832e-03
4.352908180169e-03
4.515438133183e-03
4.218119818909e-03
4.376442562231e-03
4.677698654010e-03
1.280455175298e-03
3.975684030661e-03
4.313430537098e-03
2.531248625096e-03
2.795187276442e-03
2.950421176089e-03
3.091354176801e-03
4.540325048563e-03
4.842133621751e-03
1.627886023255e-03
1.806948227217e-03
4.964897247722e-03
4.505647349825e-03
4.219641279943e-03
2.730984817609e-03
2.680252985846e-03
2.508656173216e-03
2.453261305901e-03
2.619408054872e-03
2.295804407583e-03
3.740263927181e-03
4.943332949813e-03
1.736869985241e-03
1.441819622179e-03
4.792252417499e-03
3.639826983595e-03
3.882064491805e-03
3.960472891563e-03
4.161603615821e-03
4.245857029619e-03
4.449138486875e-03
4.538270851724e-03
4.336412104351e-03
4.467009293726e-03
4.637465802825e-03
4.227760771006e-03
3.603493058884e-03
2.015316274690e-03
1.151528373984e-03
1.494680084950e-03
1.401763515938e-03
1.725734234278e-03
4.692766413527e-03
4.744201478353e-03
4.646812231519e-03
2.391216520205e-03
2.541437442855e-03
4.590954612420e-03
4.090617543142e-03
4.159541705089e-03
4.020881279016e-03
1.028169191453e-03
1.414727337198e-03
5.043491496533e-03
1.828932906125e-03
1.917980713017e-03
4.157180774186e-04
1.730461438410e-04
4.691724722002e-03
4.992960999119e-03
3.232526540781e-03
3.376337074583e-03
4.517813292037e-03
1.573664134280e-03
5.136914764881e-03
3.818178697522e-03
3.485662865048e-03
2.929371560799e-03
1.726704283358e-03
1.445214139706e-03
2.001081890038e-03
1.816948000307e-03
1.537558582793e-03
4.841861112859e-03
5.166500773962e-03
4.432736485775e-03
4.128543821065e-03
4.737743923515e-03
1.242267063270e-03
4.872712079514e-03
4.648563616368e-03
4.934717953700e-03
4.841015803806e-03
1.998284811115e-03
2.023831337705e-03
1.929656289699e-03
2.012827717834e-03
3.685637869250e-03
2.160195855781e-03
3.453630867072e-03
3.353268669804e-03
3.189580292168e-03
2.780580474833e-03
2.697012491619e-03
1.850761695031e-03
3.058179809856e-03
3.092459470665e-03
3.782098167745e-03
3.330348654579e-03
5.071602464651e-03
5.237586080772e-03
4.054791370477e-03
3.911736450825e-03
1.227723328770e-03
1.121568548935e-03
3.305144710569e-03
4.722576138819e-03
5.125546474561e-03
5.249094215458e-03
5.084093944170e-03
4.665047890294e-03
1.576387794071e-03
3.131769936580e-03
4.332121020711e-04
3.548502236301e-03
8.886689387002e-04
4.364114879908e-03
4.929747689709e-03
5.074378233997e-03
4.790835636385e-03
3.303647652991e-03
3.622953727387e-03
3.407028331039e-03
3.087385769992e-03
2.928470296600e-03
3.025957624230e-03
2.770242371404e-03
2.146257545189e-03
2.105072283453e-03
5.074226657025e-03
4.945890381019e-03
5.132442016699e-03
5.036778597884e-03
4.913108523956e-03
4.718978319234e-03
1.854189815065e-03
2.451969709865e-03
5.326205974981e-03
3.245806195750e-03
5.032929921038e-03
4.895632072523e-03
8.703516401933e-05
5.025155932237e-04
5.299729360747e-03
1.862195518962e-03
1.925793576571e-03
1.786850721610e-03
5.508894573325e-03
3.317615670200e-03
5.206554443836e-03
2.947814730022e-03
5.436495255461e-03
3.710224019945e-03
2.542778381884e-03
4.340023150483e-03
5.139724345049e-03
5.473155703650e-03
3.856151046115e-03
3.706636097451e-03
3.986363479487e-03
8.597848081307e-04
4.948557720353e-04
5.105588847389e-03
2.215579397184e-03
2.383580716268e-03
1.610091948116e-03
1.853488942061e-03
3.371371645262e-03
3.226095624709e-03
4.460118615317e-03
4.646317835840e-03
4.077799721508e-03
3.673670130341e-03
3.349970931867e-03
3.156166832522e-03
5.356340387661e-03
5.560199060828e-03
2.148566688317e-03
1.947252295954e-03
2.277219304698e-03
5.452662980312e-03
5.357012637058e-03
5.217066698957e-03
7.819578528788e-04
1.028971749725e-03
1.479365826605e-03
1.088843442230e-03
5.358763484459e-03
5.206986646545e-03
5.554350471510e-03
1.646365469631e-03
4.227084436487e-03
4.981659535795e-03
4.824566320776e-03
5.205837116450e-03
4.665431215244e-03
4.979351549170e-03
5.045785100976e-03
6.553725280416e-06
5.354913579491e-03
3.735880701652e-03
0.0
3.596581939605e-03
3.776236102998e-03
3.431628553560e-03
1.322961065373e-03
3.627378963851e-03
3.821605526455e-03
5.613183195734e-04
5.602994573649e-03
5.605292770001e-04
6.792338181859e-04
5.201033617940e-03
5.054577875216e-03
5.350694268135e-03
5.195925285154e-03
4.911596497334e-03
5.072562886383e-03
3.571136890228e-03
5.391533904623e-03
5.225263310295e-03
5.570873285067e-03
2.672019548462e-03
2.112700823482e-03
2.016942320669e-03
1.807045388935e-03
5.367508392991e-03
5.211741918196e-03
4.791087967570e-03
4.504528282397e-03
3.617380192862e-03
3.592243224651e-03
3.871542763848e-03
3.825760515629e-03
4.113486033420e-03
4.067343757730e-03
4.345783660312e-03
5.267440361509e-03
1.658829135304e-03
2.980180790998e-03
5.045745089381e-03
4.837810433997e-03
2.604840179930e-03
2.359528337880e-03
5.236949940379e-03
2.139698474170e-03
5.776025953178e-03
4.548865527379e-06
9.778909536364e-05
2.339238525722e-03
2.860933532174e-03
2.233233218599e-03
2.157897013088e-03
4.004695448910e-03
9.235095768594e-04
1.682665914814e-03
4.384602592843e-03
1.382892764948e-03
4.658101181556e-03
2.105930324669e-03
3.025966663440e-03
1.860371278765e-03
2.156903041045e-03
3.791766830717e-03
3.575521711054e-03
3.414449332742e-03
2.082739350568e-03
2.302944948856e-03
2.030320299130e-03
3.548903922870e-03
4.919586046203e-03
5.037796762255e-03
5.310613898604e-03
5.154282845663e-03
4.869442501820e-03
4.979196796726e-03
5.263482143390e-03
5.097588445123e-03
5.433286767238e-03
5.203085790594e-03
4.911819673152e-03
5.013424306316e-03
5.289013913456e-03
4.727439554445e-03
5.236156713520e-03
2.555895745055e-03
9.111497954275e-05
4.210174297477e-04
3.201712461661e-03
5.730004135783e-03
5.767445976811e-03
1.691075707631e-03
5.643473628579e-03
3.519780408461e-03
1.047073323882e-03
5.592957634279e-03
4.751520745494e-03
4.579435651060e-03
4.463201836768e-03
5.793236110746e-03
4.123046406902e-03
5.509305537426e-03
3.389446893060e-03
3.279327038173e-03
2.961278145953e-03
4.801619878836e-03
5.436694213567e-03
5.157649565966e-03
5.160321964187e-03
4.861485784402e-03
5.448713258893e-03
5.717599457513e-03
5.706213826985e-03
1.828494135708e-03
1.709398695910e-03
1.898258451700e-03
1.622333472901e-03
1.412743391040e-03
1.316736111381e-03
1.628168335130e-03
1.039665837843e-03
4.929832743955e-03
5.492129088288e-03
3.625564248662e-03
3.432597322909e-03
3.134856267973e-03
2.952066020253e-03
3.078747520708e-03
3.351373813983e-03
2.815770384213e-03
4.041389319165e-03
5.510043080626e-03
3.303884447530e-03
2.928688293770e-03
3.336341398281e-03
3.593836274312e-03
3.598511107039e-03
3.869249033601e-03
3.623805167776e-03
3.516608453604e-03
3.658527646077e-03
3.515347475486e-03
3.794985028764e-03
3.639781273070e-03
3.373627075467e-03
3.921733030934e-03
3.752559113767e-03
3.333440693931e-03
1.541531548536e-04
5.940250931269e-04
7.027142990941e-04
1.021409890230e-03
8.359819815989e-04
1.303920167999e-03
1.039423496534e-03
3.284076278484e-04
3.019271284436e-04
6.566057884129e-04
3.288717913001e-04
5.940028616349e-04
1.062033452019e-03
1.367334253023e-03
5.652286702244e-03
2.938936405260e-03
2.805289880450e-03
2.499233211098e-03
2.662705054473e-03
3.052456379495e-03
2.341669267002e-03
2.236323217213e-03
3.467419967152e-04
4.419598349489e-04
4.410447408450e-04
7.207625795544e-04
7.074768685298e-04
4.420400412776e-04
4.449633113941e-04
3.195603751503e-04
4.504548672275e-04
7.268015370500e-04
3.071370266996e-04
4.745527215494e-03
4.902505264739e-03
5.544916367285e-03
3.368924595429e-03
2.544811655954e-04
5.780998861492e-03
5.813842834379e-03
5.817013326087e-03
5.233971751005e-03
5.365637462079e-03
5.788240472877e-03
2.014050555547e-03
5.434538857935e-03
5.267458791713e-03
1.311421764019e-03
2.008026884127e-03
4.362324178154e-03
3.910057017267e-03
4.933262515921e-03
4.079022426720e-03
4.641099795521e-03
5.158355521769e-03
1.213464950072e-03
4.185417172818e-03
4.076798602367e-03
4.811798339392e-03
2.086149546152e-03
3.238993663622e-03
1.348867022610e-03
5.359250132040e-03
3.285416912687e-03
3.046769336548e-03
2.677719312106e-03
2.168475210700e-03
1.957305737071e-03
2.768223087164e-03
3.036664388310e-03
4.286179880857e-03
4.975421168353e-03
3.166773246265e-04
4.414552831620e-03
3.582806630633e-03
4.292263749295e-03
4.187531334711e-03
1.624964030413e-03
4.913094015127e-03
5.399859365631e-03
3.948537402346e-03
1.019982226970e-03
3.882948642930e-03
5.011342776407e-03
4.799927772923e-03
1.909455734444e-03
2.789026983488e-03
3.096861197051e-03
3.026441214717e-03
5.391810110936e-03
3.115333052868e-03
4.488935570888e-03
3.471918703046e-03
2.042934957486e-03
4.758450757248e-03
2.730164700612e-03
5.205251802628e-03
4.359423513210e-03
1.928746000249e-03
5.001431347950e-03
2.931441338209e-03
4.390043822392e-03
3.117148399214e-03
3.803735016467e-03
4.266483966727e-03
3.482072113493e-03
4.216350577803e-03
4.589726999369e-03
7.822158450212e-04
2.336975079915e-03
4.252864040516e-03
4.830810690924e-03
5.492998307562e-03
2.853919931406e-03
4.620197000946e-03
5.283300374483e-03
3.195345026289e-03
1.407849422888e-03
1.052568637253e-03
1.231938885888e-03
2.888387059379e-03
3.468984859371e-03
5.520066455693e-03
4.776767016044e-03
4.191097730844e-03
7.054263323161e-04
3.137270481220e-03
4.930209733183e-03
2.967745864271e-03
4.518076980286e-03
3.471719766142e-03
5.320909655121e-03
2.513659337608e-03
5.087932046228e-03
4.157539429140e-03
1.929448282595e-03
3.328255837959e-03
5.415880323612e-03
4.493880815661e-03
3.756679585458e-03
2.829619919497e-03
2.715238429679e-03
3.628276273172e-03
3.993174405771e-03
5.804322562982e-03
4.644362204700e-03
4.291233033703e-03
3.502523749532e-03
3.813462889229e-03
7.047390220056e-04
2.825859966298e-03
3.651715310585e-03
1.384942781952e-03
3.032571676708e-03
5.114951343620e-03
3.797843583975e-03
1.739058177563e-03
3.939088055833e-03
2.408697712716e-03
4.407302233334e-03
4.073717321279e-03
4.269608694400e-03
7.894202949830e-04
3.833002126981e-03
5.075427847676e-03
2.404246341971e-03
3.233663163957e-03
4.694223929722e-03
2.107126776239e-03
3.545482769992e-03
4.553232214609e-03
3.920507140127e-03
3.187539066147e-03
3.865534957540e-03
2.217505343363e-03
1.917452006600e-03
1.657786857477e-03
1.956380160446e-03
4.746672213180e-03
1.005389459169e-03
4.623386601130e-03
1.307883538802e-03
1.891532021104e-03
4.345633367676e-03
4.169109331877e-03
2.143128441900e-03
1.729669733719e-03
2.136474112095e-03
3.495395175694e-03
2.347008504077e-03
2.321698774104e-03
5.562109209316e-03
2.479278600157e-03
5.832033053261e-03
5.683459550606e-03
3.569571471478e-03
1.841669118824e-03
0.0
1.939425135395e-03
2.198379986357e-03
4.544915456455e-03
3.572687871250e-03
2.077081277084e-03
5.482725273702e-03
5.548817509373e-03
4.594253848124e-03
4.650854355195e-03
4.026711817750e-03
5.298348689818e-03
3.310673635212e-03
5.319704039765e-04
4.366888493405e-03
1.596020396402e-03
1.727925572495e-03
1.537504339033e-03
2.155926239816e-03
1.066640011348e-03
1.470469770676e-03
5.133441966827e-03
3.576035110635e-03
4.538549050418e-03
1.190734353883e-03
5.563426082931e-03
5.226029974004e-03
5.618784336637e-03
4.858869215134e-03
1.131768423013e-03
3.817527287724e-03
5.388671225134e-03
4.831755994393e-03
5.661150035348e-03
3.527768805689e-03
5.594510040717e-03
8.645247776374e-04
5.592056671628e-03
4.830647828208e-03
3.948871847594e-03
3.795468355754e-03
5.483498521481e-03
5.518494078473e-03
7.078378622744e-04
4.578727725803e-03
2.665021533502e-03
8.704557035293e-05
5.306855478618e-03
5.101857700587e-03
5.457161495010e-03
7.154962728763e-04
4.367291898862e-04
5.308036467257e-03
5.475077044311e-03
1.415797628064e-03
5.866481278788e-03
1.720779943565e-04
3.266292359391e-03
4.330017662913e-04
5.682371966829e-03
5.607182569852e-03
2.919687531898e-03
3.339776257796e-03
1.951427265437e-03
5.094079203513e-03
8.720869757284e-04
5.646101319162e-03
5.274827266557e-03
5.610655463052e-03
5.543108792546e-03
1.443335536968e-05
5.340000167234e-03
4.934198621273e-03
3.315096198721e-03
5.545224744200e-03
2.394333441960e-03
1.003430899199e-03
5.853061777030e-03
3.740990808642e-04
3.294611847680e-03
5.738597030996e-03
9.205396441291e-04
3.785517905279e-03
5.505285211454e-03
3.560630679607e-03
5.121626185149e-03
1.319457347623e-03
0.0
4.321439572445e-03
5.262500811899e-03
5.642111831980e-03
4.116674015646e-03
7.838175614557e-04
5.331973850864e-03
3.136604846599e-03
5.194131730829e-03
4.931303994474e-03
1.848697620484e-04
3.813324024854e-03
4.130724803800e-04
5.442551602023e-03
3.274124271133e-03

SCALARS node_materi_plasti_phimob float
LOOKUP_TABLE default
1.801531783515e+01
-2.320186802352e+01
2.060965886045e+01
1.725864217753e+01
-2.624138620798e+01
-3.250872502194e-01
7.115196665768e+00
1.130907192531e+01
1.378308022181e+01
1.539481907481e+01
1.667430871070e+01
1.771996271205e+01
1.854272354672e+01
1.923557754062e+01
1.980681486862e+01
2.012966825729e+01
2.032898088745e+01
2.054751082713e+01
2.066529534866e+01
2.071488792390e+01
2.072793027099e+01
2.070894467737e+01
2.066475846634e+01
1.734137681436e+01
1.733974906408e+01
1.739358726227e+01
1.746425000122e+01
1.751261613453e+01
1.766711916513e+01
1.783144739533e+01
1.807537674635e+01
1.836301324264e+01
1.868581740470e+01
1.899781149224e+01
1.953024155415e+01
1.999036172155e+01
2.058565659110e+01
2.098461862810e+01
2.145596002511e+01
2.178184445099e+01
2.205067232409e+01
2.230372240357e+01
2.246642002815e+01
2.255443412012e+01
2.253200520748e+01
2.250972893883e+01
2.243128253401e+01
2.232007303093e+01
2.219375646214e+01
2.206601118556e+01
2.193272735677e+01
2.179453777753e+01
2.161856804225e+01
2.152959915654e+01
2.143502989898e+01
2.130468713289e+01
2.120231567347e+01
2.111461444784e+01
2.101908564932e+01
2.096373460970e+01
2.089737165723e+01
2.085560623070e+01
2.081290264236e+01
2.076318715484e+01
2.071308058500e+01
2.068442380425e+01
2.070209361361e+01
2.063927082558e+01
2.064026826998e+01
2.062145286099e+01
2.061311713883e+01
2.061338281835e+01
-1.993898540920e+01
-1.064202810686e+01
-8.645983309424e-01
5.043438204552e+00
8.925432862778e+00
1.161678704659e+01
1.363867863456e+01
1.522541482032e+01
1.652000626051e+01
1.638454900989e+01
1.150632337268e+01
3.171685747669e+01
2.679868531654e+01
2.479962585155e+01
2.302389335017e+01
2.056521501545e+01
1.901508301642e+01
1.784527267338e+01
1.743921899175e+01
1.845440452545e+01
-2.348473461861e+01
-2.397073497697e+01
-2.398565722887e+01
-2.368285242694e+01
-2.266327262642e+01
-2.354569012977e+01
-2.332306908526e+01
-2.349877452042e+01
-2.344239031743e+01
-2.274068296568e+01
-2.119359850443e+01
-1.784095975097e+01
-1.083025965431e+01
1.202236630719e+00
9.185820471770e+00
7.358943457694e+00
7.848719209819e+00
9.063729681417e+00
8.752290495180e+00
-5.839196815861e+00
-3.574249037775e+01
-2.266483540836e+00
-8.827233531596e+00
-5.966965705226e+01
-5.956301407453e+01
-5.788762928754e+01
-7.623916997780e+00
8.932921293025e+01
8.871389814096e+01
8.804652294191e+01
8.693679251399e+01
8.632194539255e+01
8.626649374487e+01
3.331302327112e+01
2.877176422798e+01
2.537918145757e+01
2.360810351511e+01
2.299182548397e+01
2.085115574514e+01
1.833772225956e+01
1.738844352069e+01
1.772800473528e+01
1.916588329832e+01
2.478685768092e+01
2.180400088992e+01
-3.875294173830e+01
1.192461907312e+01
2.124993357470e+01
2.079094046258e+01
1.957056245603e+01
2.229531150773e+01
1.855761733902e+01
2.258371144835e+01
1.691464897075e+01
2.087563090347e+01
1.043650034669e+01
2.245761116679e+01
1.360843094528e+01
1.613021833941e+01
2.046401859748e+01
2.162905046022e+01
1.965554937287e+01
1.693726204616e+01
1.716195988704e+01
1.816074646445e+01
-1.992261360751e+00
-1.721083216366e+01
-1.877168095349e+01
7.189340788996e+00
2.074193462642e+01
1.063776838484e+01
3.592186638860e+01
2.073687606844e+01
-2.097420466815e+01
9.469241180618e+00
2.052983065610e+01
2.242961293876e+01
2.260313867399e+01
2.214963551072e+01
2.153075778248e+01
-7.267463459656e+00
-1.295563900183e+01
2.112428439722e+01
1.266289696818e+01
-3.845442275683e+01
1.818491501713e+01
1.700656540991e+01
1.935384579761e+01
2.253802061744e+01
1.724538118342e+01
1.697475474088e+01
2.998841663117e+01
-4.597095760028e+00
2.067709185084e+01
3.511439077891e+01
1.583913045472e+01
7.927119589648e+00
8.757799102567e+00
6.945938192699e+00
1.033976296359e+01
9.679546437163e+00
1.218411681461e+01
1.256669566501e+01
1.403978059489e+01
1.444708870680e+01
1.190691144979e+01
1.556602262706e+01
1.624298414549e+01
1.717640383759e+01
1.801389935655e+01
1.727964382813e+01
1.891714342114e+01
1.832118753387e+01
1.984563166897e+01
2.028678326262e+01
2.112847717425e+01
2.078999889443e+01
2.199869209642e+01
2.170881123837e+01
2.285875187800e+01
2.258827955746e+01
2.370899131799e+01
2.378977220554e+01
2.460909180909e+01
2.455852285346e+01
2.542739573310e+01
2.539652911295e+01
2.623459690677e+01
2.605945379485e+01
2.681892284325e+01
2.703275472580e+01
2.756386022590e+01
2.782125439376e+01
2.828116214208e+01
2.859083294688e+01
2.895434923299e+01
2.844402399307e+01
2.899259502899e+01
2.955605108200e+01
2.943221829589e+01
2.876803966159e+01
2.903834667398e+01
2.833712526511e+01
2.844875297192e+01
2.911656519675e+01
2.835450037074e+01
2.773560062604e+01
2.750600360319e+01
2.800704133397e+01
2.703623836957e+01
2.663786368300e+01
2.609709724619e+01
2.630696569843e+01
2.533753267493e+01
2.522908989028e+01
2.448204641875e+01
2.435490252932e+01
2.355996710925e+01
2.374655000666e+01
2.290504405634e+01
2.311955894397e+01
2.247876272472e+01
2.195379938513e+01
2.126762849258e+01
2.091542692934e+01
2.646793162631e+01
1.997414972060e+01
2.023370844574e+01
1.983189829996e+01
2.066507045455e+01
1.865132542754e+01
1.873666293651e+01
1.734345516307e+01
2.786670109580e+01
2.140790604644e+01
1.766242018200e+01
1.607848056332e+01
1.541824222635e+01
1.390758927485e+01
9.523918948172e+00
1.180213804454e+01
9.299585924596e+00
1.191643434207e+01
9.675297689691e+00
1.484168909685e+01
1.662925898776e+01
1.372943198198e+01
2.033549843369e+01
2.428974511134e+01
2.806509740262e+01
1.883592759619e+01
1.794659846112e+01
1.896341863186e+01
2.376850641628e+01
2.317161709368e+01
2.365987097091e+01
2.309568148088e+01
2.344846903861e+01
2.292060950647e+01
2.260518747930e+01
2.245891055060e+01
2.218374983518e+01
2.315752049906e+01
2.371021189858e+01
2.205990375858e+01
2.182547317260e+01
2.171912816865e+01
2.152514015225e+01
2.154648192709e+01
2.129685739827e+01
2.123601107893e+01
2.761783223810e+01
2.734067865773e+01
2.688774998234e+01
2.660059956043e+01
2.614565033096e+01
2.584730405086e+01
2.539089380729e+01
2.562315034817e+01
1.877308440917e+01
3.004556977013e+01
3.001103114578e+01
3.057787476504e+01
3.029396986413e+01
3.097613370512e+01
3.030585387083e+01
3.103721588611e+01
3.142872900972e+01
3.121570496680e+01
3.125141819090e+01
3.082851173969e+01
3.038616882470e+01
2.451419864275e+01
2.622810517578e+01
2.547438583214e+01
2.579506318221e+01
1.276082598834e+01
2.127843735120e+01
2.331039875477e+01
2.387296677865e+01
2.488064036041e+01
1.244606051150e+01
2.971092635044e+01
2.887978551825e+01
1.224853678020e+01
1.030182176455e+01
2.337232696793e+01
1.363474365911e+01
2.223930482481e+01
3.033820546680e+01
2.109613214222e+01
2.108429109316e+01
2.222163979766e+01
2.505303041022e+01
2.531582175130e+01
3.047396117115e+01
2.918514486040e+01
2.847688792579e+01
2.668610591176e+01
2.753304911498e+01
2.501844011034e+01
2.302930108923e+01
2.147832611784e+01
2.344400950337e+01
2.027294089816e+01
1.657190677233e+01
1.631536448196e+01
2.120343561300e+01
2.988447102960e+01
1.655358519657e+01
2.286027517407e+01
2.461928934161e+01
1.276800053928e+01
1.113590981604e+01
8.050379555443e+00
9.344837252699e+00
1.208097128102e+01
1.063038184085e+01
7.398345394113e+00
9.078399366419e+00
5.247307594522e+00
7.400980167878e+00
1.057535777907e+01
9.238531688376e+00
5.548533109323e+00
7.757840531140e+00
3.378826032975e+00
6.030417569991e+00
9.581554596624e+00
1.096251010018e+01
2.505987036011e+01
2.433566535406e+01
1.827057564307e+01
1.909158075675e+01
1.972844458055e+01
1.973370330223e+01
8.160163379593e+00
1.112002218171e+01
2.754619313099e+01
2.671208507064e+01
1.422722630842e+01
2.094619144340e+01
2.089499399178e+01
2.511085082115e+01
2.369229804272e+01
2.445483125470e+01
2.262077892191e+01
2.198603636613e+01
2.328676055897e+01
2.432348310592e+01
1.191081794721e+01
1.465736706570e+01
1.132387873177e+01
2.094654189643e+01
2.576087362874e+01
2.374958156546e+01
2.432468185299e+01
2.363356905789e+01
2.407291458446e+01
2.346857729098e+01
2.378030517477e+01
2.433877835483e+01
2.460366101306e+01
2.393302655138e+01
3.859246939200e+00
2.651825031773e+01
2.217192187756e+01
9.075083576382e+00
1.133166561031e+01
1.233063238348e+01
1.456613477415e+01
2.283333515319e+01
2.327400433861e+01
2.291231643127e+01
2.058753847696e+01
2.005856526569e+01
2.428169194935e+01
6.220271014882e+00
2.746909949260e+00
-5.261895708670e-01
8.552656491177e+00
1.167000759513e+01
1.303217345238e+01
2.785086196461e+01
2.570097379483e+01
2.874786509376e+01
2.753441045933e+01
9.864500240270e+00
1.235376648706e+01
2.025214831769e+01
2.021534683097e+01
2.334280309347e+01
1.213537266122e+01
1.330040193353e+01
2.514749392656e+01
2.578268321185e+01
1.914644558863e+01
2.452934146500e+01
2.512651966933e+01
2.446113664852e+01
1.632343864185e+01
1.346388443129e+01
2.273285414199e+01
1.415385998721e+01
2.443089217180e+01
2.493346592679e+01
2.389936916968e+01
6.641445263918e+00
2.236618157436e+01
2.085025335458e+01
2.282324078599e+01
2.242231176422e+01
2.688343859945e+01
2.476137734952e+01
2.307058555110e+01
2.225998921900e+01
1.329181406722e+01
2.600715658691e+01
1.771421154025e+01
1.594965713888e+01
1.707151265491e+01
2.127269320232e+01
1.944498106231e+01
2.951584613316e+01
2.767562127477e+01
2.035729213575e+01
2.147883048644e+01
2.429883442155e+01
1.293790279691e+01
1.396977433492e+01
-2.537842763706e-02
-3.669035976424e+00
8.904380784456e+00
6.463847771351e+00
2.259224111982e+01
2.240031306420e+01
1.466206037631e+01
1.581610075224e+01
1.550173641296e+01
2.323721792122e+01
3.035381809247e+01
2.706235159683e+01
2.859691547621e+01
2.575630631785e+01
3.017323955115e+00
2.069736973339e+01
2.083663820133e+01
2.089212896483e+01
2.386879119371e+01
1.125047559805e+01
2.602681274275e+01
2.666462225283e+01
1.552299320534e+01
1.640312508492e+01
1.797742611048e+01
1.706389227521e+01
2.332346916574e+01
2.127927744472e+01
2.304554525279e+01
2.352108483682e+01
2.251766996301e+01
2.201864120594e+01
2.349739531247e+01
2.391027548620e+01
1.532220977464e+01
1.806866274064e+01
1.488863005906e+01
1.429108926728e+01
2.193668319426e+01
2.198983254520e+01
2.407237784823e+01
2.556031526216e+01
1.428083223281e+01
2.038961776637e+01
1.968991036012e+01
2.103351164484e+01
2.067988499928e+01
-2.118150211375e+01
2.078039542389e+01
2.049975546921e+01
1.502917714946e+01
2.610707532883e+01
2.593117245466e+01
2.389319692963e+01
1.333658568877e+01
1.518422678900e+01
-4.332566951370e+00
-8.701472183528e+00
-1.805748279033e-01
2.884615485122e+01
2.682564053871e+01
1.307889700784e+01
1.710508743370e+01
1.765417152518e+01
1.296984417333e+01
1.642704034102e+01
2.078638921275e+01
2.098481810303e+01
2.164613737500e+01
2.107356412739e+01
2.300935853640e+01
2.512162088272e+01
2.567224789337e+01
2.638774148310e+01
1.478891970263e+01
1.575100159089e+01
2.503909001972e+01
2.626806125361e+01
2.243757476662e+01
1.580712134320e+01
2.081849728747e+01
2.093487563286e+01
-1.186888406995e+00
3.523769094965e+00
2.225367285275e+01
2.387937477557e+01
1.683449354087e+01
1.662540439302e+01
1.726097768560e+01
1.423210214904e+01
2.496379816780e+01
2.256721595434e+01
2.311305785244e+01
2.203008165836e+01
2.417097837196e+01
2.346081596343e+01
2.331184243213e+01
1.963672850557e+01
1.466748269280e+01
-8.999042382141e+00
1.524477577145e+01
-1.330628114864e+01
-8.208833621838e+00
-1.776474516818e+01
1.203393266337e+01
-8.186683615588e+00
-2.254514664099e+00
-1.025016926004e+01
1.641599259631e+01
-7.133425232860e+00
-1.083238981798e+00
2.159236783595e+01
2.164376331709e+01
2.130561980776e+01
2.135266467920e+01
2.162349116180e+01
2.134441259084e+01
-1.344235078452e+01
2.107723316350e+01
2.110001129447e+01
2.092248465768e+01
1.583951475406e+01
2.169030856078e+01
1.910824622191e+01
1.787127870129e+01
2.228358841746e+01
2.173726104163e+01
2.077799937626e+01
2.073962659731e+01
-1.315766562702e+01
-1.392145481341e+01
-4.770208158749e+00
-6.028434496362e+00
1.577480201746e+00
7.082841118551e-01
5.792237496830e+00
2.300840303645e+01
1.937999437677e+01
1.477000710075e+01
2.309932379573e+01
2.353348208380e+01
1.756228357606e+01
1.640632002557e+01
2.176951901573e+01
2.759386008569e+01
1.753022767749e+01
1.476287211070e+01
2.081800844166e+01
2.674389543328e+01
1.874864030698e+01
2.104216805857e+01
1.891343743781e+01
2.453685342357e+01
7.564789120973e-01
2.148087127450e+01
6.171634765242e+00
2.065328646482e+01
2.071067799513e+01
2.869180839383e+01
2.208642399080e+01
2.391990050185e+01
2.400275468509e+01
1.536626090035e+01
1.111350479582e+01
1.263353296006e+01
2.932955645519e+01
1.848349012113e+01
1.717563079245e+01
1.935694678410e+01
1.529949843418e+01
1.647649322956e+01
1.763057572729e+01
1.753326184116e+01
1.643153812904e+01
1.755378391024e+01
1.877911953591e+01
1.889483457266e+01
2.024925718590e+01
2.016684355598e+01
1.917703545812e+01
2.032829371607e+01
2.106963190331e+01
1.955836545763e+01
2.265281595756e+01
2.704284929324e+01
2.453489010951e+01
2.537768773049e+01
2.124354911920e+01
2.127721585706e+01
2.009651951918e+01
2.940663032129e+01
2.254120355525e+01
1.458690092767e+01
3.019776102314e+01
2.260144086275e+01
1.520820643522e+01
1.521917751920e+01
1.369837085174e+01
1.908421600504e+01
3.658488003962e+00
2.232893824329e+01
2.696429435701e+01
2.720259891014e+01
2.785192958091e+01
1.772481566968e+01
2.193837258156e+01
2.261530659013e+01
2.245653833030e+01
2.328958953323e+01
2.168385019367e+01
2.204568696160e+01
2.230787210232e+01
2.588311437694e+01
2.766539913286e+01
2.758341701377e+01
2.883839930807e+01
2.913798600311e+01
3.003098876989e+01
2.950464827985e+01
3.100303092937e+01
2.140220009327e+01
2.143280847676e+01
2.404527513788e+01
2.470562166076e+01
2.501264555230e+01
2.048744600737e+01
2.123203883135e+01
2.158858842527e+01
1.972989156084e+01
2.471691114591e+01
2.132725514443e+01
2.643885003757e+01
2.154682787876e+01
-8.328357936806e+00
-6.186766766467e-01
3.393731219369e+00
5.502125077203e+00
-3.551695273425e+00
2.064816108728e+01
2.055586267615e+01
2.020395382840e+01
2.049350414610e+01
2.020017894537e+01
1.985384420506e+01
2.044808732331e+01
2.021958491152e+01
-1.534115354214e+01
1.055631349590e+01
1.307026162374e+01
2.111150208112e+00
1.339617032818e+01
2.060471142050e+01
1.991200812129e+01
2.439494008541e+01
2.004617394235e+01
-2.458692115190e+01
-5.669245565472e+00
-9.740963802058e+00
-1.053424453874e+01
4.105922206682e+00
9.692760393648e+00
2.072541176791e+01
1.893092270301e+01
1.867293070768e+01
1.782380488665e+01
1.838979829696e+01
1.926522278871e+01
1.727036969035e+01
1.691512859411e+01
3.601703265774e+01
-6.548916519415e+00
-8.309473173971e+00
4.215510594107e+00
3.828088154209e+00
-6.676276876429e+00
-7.356914772444e+00
3.572515239065e+01
-8.433287853378e+00
3.111862433672e+00
3.496410774337e+01
1.039913622305e+01
1.175457766699e+01
2.117831369810e+01
-1.752570359177e+01
-3.872255002160e+01
1.665880030170e+01
1.711030184847e+01
1.702277661558e+01
2.072474973310e+01
2.072096908805e+01
1.665423752537e+01
1.698708750179e+01
1.876259602282e+01
1.411201711082e+01
2.824356610202e+01
1.895757705894e+01
2.079349037794e+01
2.185276746098e+01
2.103178247402e+01
2.104551071686e+01
2.143358063590e+01
2.235584396693e+01
1.089619416759e+01
2.805303184175e+00
6.698781444236e-01
1.080221520805e+01
1.664032652475e+01
1.979747534129e+01
1.095516289052e+01
2.273800191877e+01
1.874793434753e+01
2.445311287193e+01
1.975543966197e+01
1.861168847885e+01
1.944643663610e+01
2.622196488488e+01
2.237259522706e+01
2.266868528073e+01
1.214782164486e+01
-3.367846040457e+01
2.280387748263e+01
2.265844417617e+01
5.554129440813e+00
2.508032450153e+01
1.764213090482e+01
1.183372167144e+01
1.616255271744e+01
2.263521089337e+00
6.481869276286e+00
-4.566108632572e+00
2.223160985492e+01
1.390178629463e+01
1.559433770507e+01
2.776137443454e+01
2.344589574035e+01
1.670261603354e+01
1.485102095204e+01
2.715929704820e+01
2.412291693941e+01
2.635020656092e+01
1.622992265484e+01
2.196166861474e+01
2.835819018487e+01
1.393920966162e+01
2.298199330074e+01
2.971237592401e+01
1.342068317101e+01
2.579621567671e+01
2.470405637569e+01
1.967151727808e+01
2.298212632799e+01
1.949405243263e+01
2.528806385480e+01
2.063191892594e+01
2.235555521312e+01
2.966896515758e+01
2.522042741469e+01
6.922077781176e+00
2.346837367301e+01
1.560013119026e+01
2.291594037529e+01
2.186721389204e+01
1.519195370904e+01
2.193969748185e+01
1.278188160964e+01
2.618432640547e+01
3.094778060780e+01
2.782604795732e+01
2.215082673922e+01
1.814674377961e+01
2.154998771440e+01
2.393225274116e+01
2.671931770460e+01
1.358382303464e+01
2.128930274237e+01
2.709702045462e+01
2.430302048935e+01
1.988604560304e+01
2.284616341469e+01
1.611501511192e+01
2.109463170953e+01
2.448439268123e+01
2.848567382399e+01
-2.113671184393e+01
2.091822387928e+01
2.377412998659e+01
2.503782816788e+01
2.696314875829e+01
1.694584843306e+01
2.178221241277e+01
2.218141188157e+01
1.859355208761e+01
2.358078128144e+01
1.380813142406e+01
2.130077377573e+01
2.602065350271e+01
3.425803638961e+00
1.545035290164e+01
2.107497192557e+01
3.038836587542e+01
2.617913640282e+01
2.315257424967e+01
2.090361150862e+01
2.976332853436e+01
2.077613669771e+01
1.695951336248e+01
1.532667395349e+01
2.067594983879e+01
2.230000212379e+01
2.912710198009e+00
2.537227476638e+01
2.076159322252e+01
2.176476623517e+01
2.542132173814e+01
1.645452433632e+01
1.754068736744e+01
2.498039862258e+01
2.237844565342e+01
2.552469809359e+01
2.728101741686e+01
2.448549852721e+01
1.681868260447e+01
1.665211365582e+01
1.383312755187e+01
2.894578429855e+01
2.183353847878e+01
8.847872224180e+00
1.815816179269e+01
8.040445373606e+00
2.845517043857e+01
2.483572963658e+01
2.800578793537e+00
2.736192023396e+01
1.472527613314e+01
2.638535681592e+01
2.667290570920e+01
2.530121930712e+01
2.400180790904e+01
1.568126266127e+01
2.315206734584e+01
1.681352217563e+01
2.066903042051e+01
-1.498751792839e+01
1.970364559045e+01
1.010072289864e+01
1.742215705115e+01
2.065510820212e+01
2.007006276474e+01
-1.478909970136e+01
1.869359399804e+01
2.117644377781e+01
2.248981714849e+01
8.922699293250e+00
2.383322051266e+01
2.549625188766e+01
1.434156507292e+01
-2.050728572539e+01
-1.223591977131e+01
2.063144190241e+01
2.131695516861e+01
1.864683290608e+01
1.988022058859e+01
1.671335130783e+01
6.958305224329e+00
2.167446612519e+01
2.275428098066e+01
-1.103128781433e+01
2.436698770351e+01
2.323404022955e+01
1.664996345266e+01
2.303340976961e+01
2.096562690120e+01
2.374063473997e+01
2.241349243147e+01
2.240240102217e+00
2.259193569109e+01
1.109415105988e+01
2.081303644559e+01
-8.171653306050e+00
1.583869447447e+01
2.778383900528e+01
1.585720841800e+01
2.062808356482e+01
-2.551957015401e+00
7.073633414652e+00
2.071694631539e+01
1.996078817414e+01
2.520222563935e+01
8.717917717788e+00
1.856859909517e+01
1.882582941011e+01
2.152142589215e+01
2.114812547695e+01
2.083089298961e+01
4.320054331430e+00
-1.355205418490e+01
2.174436827943e+01
2.200432738497e+01
2.512352099165e+01
1.773085523482e+01
2.490384582612e+01
-2.016315504881e+01
-1.098674857759e+01
2.075521976808e+01
1.611247851173e+01
1.901645833423e+01
4.988124577917e+00
1.578122869557e+01
2.321285101096e+01
-5.124133198671e-01
1.610545614880e+01
2.201584421226e+01
1.803574021916e+01
2.200190889385e+01
1.633619978508e+01
2.288211746721e+01
2.296924352594e+01
-2.094321537892e+01
1.892104539072e+01
1.755050325044e+01
7.637781884638e+00
1.693712777710e+01
1.654675394368e+01
-2.158379524743e+01
2.064273027665e+01
7.635478364401e+00
-7.622747465174e+00
2.169621150005e+01
1.997164445283e+01
1.335122176275e+01
1.350617200051e+01
1.032447290362e+01
5.474321220560e+00
2.288676305667e+01
1.729747840617e+01
1.631101764255e+00
2.517927411343e+01
2.156381407940e+01
1.942280768675e+01
2.275953590360e+01
2.322431005013e+01
2.503613951232e+01
2.025669272283e+01
-1.312359812539e+01
2.112923591827e+01
1.962438661289e+01

SCALARS node_materi_stress_average_a_sig float
LOOKUP_TABLE default
-2.945303107015e+00
-1.388322330582e+01
-2.409530671518e+02
-1.200444656647e+02
-9.776790098267e+00
-2.169804382554e+01
-3.361418424779e+01
-4.694480968377e+01
-5.973842321292e+01
-7.238375303074e+01
-8.490794609305e+01
-9.734991391709e+01
-1.097606785041e+02
-1.222249534877e+02
-1.349650338773e+02
-1.474446558697e+02
-1.588057823429e+02
-1.712256646626e+02
-1.840040318854e+02
-1.964235614128e+02
-2.089335943485e+02
-2.215529506465e+02
-2.336319266765e+02
-1.206913893571e+02
-1.200806427235e+02
-1.204272073328e+02
-1.206554138319e+02
-1.208176008190e+02
-1.217496463610e+02
-1.229958900440e+02
-1.238256700462e+02
-1.258577071870e+02
-1.275036996234e+02
-1.295638545702e+02
-1.326180919003e+02
-1.365449371472e+02
-1.398738891683e+02
-1.441509535436e+02
-1.483152116982e+02
-1.536301118446e+02
-1.599270938059e+02
-1.658922133063e+02
-1.719860032671e+02
-1.778158268998e+02
-1.837734355575e+02
-1.895997872525e+02
-1.952789883893e+02
-2.009101583122e+02
-2.063301416081e+02
-2.113159270735e+02
-2.158553080551e+02
-2.199232070920e+02
-2.241774574360e+02
-2.273401424085e+02
-2.297408155190e+02
-2.325093755513e+02
-2.347774706773e+02
-2.366856112870e+02
-2.382431475162e+02
-2.393297770479e+02
-2.400926392948e+02
-2.404917936050e+02
-2.406701665895e+02
-2.411577426009e+02
-2.418503706161e+02
-2.420695656895e+02
-2.404034777984e+02
-2.417214337695e+02
-2.411055128762e+02
-2.413884082052e+02
-2.417291820771e+02
-2.416137632317e+02
-2.093444556763e+01
-3.282696492085e+01
-4.469158379767e+01
-5.621659086649e+01
-6.792138025911e+01
-7.971159277045e+01
-9.112163104721e+01
-1.022497897800e+02
-1.139467868816e+02
-5.709152664026e+01
-3.169657338178e+01
-3.215997482236e+01
-2.971911682359e+01
-2.855536635547e+01
-2.674765528881e+01
-2.592794585864e+01
-2.545387564927e+01
-2.520794562459e+01
-2.527833073597e+01
-2.697908638172e+01
-1.295991356282e+01
-1.332023309599e+01
-1.334251103849e+01
-1.300504160056e+01
-1.468640825555e+01
-1.341170308143e+01
-1.323341800825e+01
-1.337540668058e+01
-1.400591969326e+01
-1.398355438492e+01
-1.427249416313e+01
-1.523374540630e+01
-1.763592688757e+01
-2.310222807340e+01
-7.874942222095e+01
-8.881431845950e+01
-9.042177729448e+01
-8.191024090389e+01
-5.132416203310e+01
-2.186603803408e+01
-1.130825296384e+01
-7.863824738010e+00
-6.110590007864e+00
-5.361803317867e+00
-4.864475356515e+00
-4.622025911766e+00
-4.132809116699e+00
-3.449838755977e+00
-3.194395321772e+00
-3.052350710269e+00
-2.912474943680e+00
-2.574753382051e+00
-2.268972543087e+00
-3.776812079230e+01
-3.080843224521e+01
-2.886923309167e+01
-2.812641046109e+01
-2.699874536111e+01
-2.593495128912e+01
-2.527128007610e+01
-2.506399160412e+01
-2.568988598135e+01
-3.015239690783e+01
-3.496759085081e+01
-2.272642714700e+02
-1.176388314671e+01
-6.400713102827e+01
-2.342276739302e+02
-3.196824393074e+01
-1.290852696036e+02
-2.149222488454e+02
-3.066730311255e+01
-1.978433608865e+02
-3.137895772439e+01
-2.366351737249e+02
-8.260097537561e+00
-1.757899840108e+02
-3.752994406037e+01
-7.927564346889e+01
-1.630602343788e+02
-1.584214975014e+02
-1.382938665637e+02
-1.176496333803e+02
-1.203066863904e+02
-1.280301887699e+02
-2.734536606628e+01
-2.044099721775e+01
-2.041843418601e+01
-6.218268189108e+01
-2.360024212255e+02
-7.679977846997e+01
-7.995098245293e+00
-2.022419358353e+02
-1.851343374052e+01
-4.021998067292e+01
-1.455803553684e+02
-2.078354704644e+02
-1.871105832886e+02
-2.205814739852e+02
-2.314525233742e+02
-2.351732779246e+01
-2.173258553318e+01
-2.333720676776e+02
-8.512642206126e+01
-9.950311525652e+00
-1.036411092428e+02
-1.182015198137e+02
-3.215367866938e+01
-3.306223080780e+01
-3.102078166350e+01
-3.271759243439e+01
-3.980281719274e+01
-3.976198736397e+01
-2.379566129443e+02
-7.169023193500e+00
-1.073694741962e+02
-3.846178807696e+01
-4.827211117667e+01
-4.949375999377e+01
-6.104523103651e+01
-6.364333676750e+01
-7.369340565373e+01
-7.132596034899e+01
-8.364674472593e+01
-8.131916108383e+01
-7.681697962216e+01
-9.347637763102e+01
-9.122996779179e+01
-1.032664128428e+02
-1.010683477367e+02
-8.926707364400e+01
-9.906803243036e+01
-8.745540489447e+01
-9.721622924328e+01
-1.087452632657e+02
-1.068363702748e+02
-9.545485958583e+01
-1.049497237685e+02
-9.378584297145e+01
-1.031375942966e+02
-9.217771438857e+01
-1.013522162219e+02
-1.123145781135e+02
-1.103101482612e+02
-9.956403261421e+01
-1.082919444036e+02
-9.778282029255e+01
-1.062437635217e+02
-1.168121533782e+02
-1.144869161441e+02
-1.041291345078e+02
-1.120902424378e+02
-1.019621371312e+02
-1.096323572369e+02
-9.974402424632e+01
-1.070530108094e+02
-1.170426374864e+02
-1.141151575715e+02
-1.043613594317e+02
-1.109863127856e+02
-1.209377763342e+02
-1.173618452033e+02
-1.275467964637e+02
-1.235404449417e+02
-1.135682370515e+02
-1.192866497118e+02
-1.295569640454e+02
-1.248713634161e+02
-1.147355641317e+02
-1.199251560271e+02
-1.304033176385e+02
-1.251112489345e+02
-1.146604090190e+02
-1.195413769946e+02
-1.303764965085e+02
-1.245050552861e+02
-1.136471457627e+02
-1.183855881906e+02
-1.295971126167e+02
-1.232563255517e+02
-1.347638325348e+02
-1.119222436976e+02
-1.166750190573e+02
-1.051654632527e+02
-1.099021333651e+02
-1.251338283947e+02
-9.821538271272e+01
-9.381556721331e+01
-1.029735524288e+02
-1.148692192513e+02
-9.109268291294e+01
-9.590818171671e+01
-8.384314155829e+01
-9.197783483129e+01
-1.183472650676e+02
-8.874014934253e+01
-7.649822353567e+01
-7.168733840449e+01
-6.418295029788e+01
-6.745143497193e+01
-8.013244629237e+01
-7.053366942513e+01
-8.362517913782e+01
-7.480332222875e+01
-6.909999162001e+01
-1.057468848546e+02
-9.269297701159e+01
-8.421685531500e+01
-8.908157551817e+01
-1.313403010635e+02
-1.008885558411e+02
-9.380015601850e+01
-1.060011539829e+02
-1.410576230523e+02
-1.464409074046e+02
-1.527271572144e+02
-1.582783538447e+02
-1.645914740044e+02
-1.702754129671e+02
-1.638110373492e+02
-1.759172749435e+02
-1.693292889114e+02
-1.766379839394e+02
-1.707491456020e+02
-1.815188627610e+02
-1.748283718630e+02
-1.870832859371e+02
-1.803074261976e+02
-1.680581560468e+02
-1.734626462945e+02
-1.612660124090e+02
-1.381660694458e+02
-1.421573082622e+02
-1.491845916749e+02
-1.533694275733e+02
-1.605856853287e+02
-1.649416807340e+02
-1.723276498231e+02
-1.676300483309e+02
-1.129933686746e+02
-1.015033091482e+02
-9.507005432033e+01
-9.255341515055e+01
-8.632580485967e+01
-8.421469146847e+01
-7.819249830580e+01
-7.662226932443e+01
-8.189921870764e+01
-7.518199647391e+01
-7.924873680844e+01
-7.333691000037e+01
-7.602897287352e+01
-1.213207419079e+02
-1.573729560782e+02
-1.691414103057e+02
-1.611778450977e+02
-5.939485171830e+01
-1.857741845881e+02
-1.828822612202e+02
-1.767436190002e+02
-1.795524399761e+02
-5.676464292336e+01
-7.093558125476e+01
-7.162681585825e+01
-8.742900116848e+01
-7.905105248189e+01
-1.890345802248e+02
-6.177161809169e+01
-1.881490627228e+02
-7.009320940670e+01
-1.788769564596e+02
-1.912169847428e+02
-1.572647916503e+02
-1.731913075783e+02
-1.648333141078e+02
-8.314462257163e+01
-7.880731285135e+01
-7.198859466744e+01
-7.402332983475e+01
-8.192542116184e+01
-7.610295601474e+01
-6.783180836619e+01
-6.940683780510e+01
-7.890600119871e+01
-7.193769893973e+01
-6.186797176145e+01
-6.433369590268e+01
-1.980954269312e+02
-6.872193670724e+01
-7.751526015881e+01
-1.951988486931e+02
-1.842914987875e+02
-9.145210954146e+01
-8.353236782933e+01
-7.092763542224e+01
-7.592858478182e+01
-8.819762225443e+01
-8.098428403894e+01
-6.862062813846e+01
-7.403047344492e+01
-6.163672425207e+01
-6.735019314620e+01
-7.945934543461e+01
-7.307729425236e+01
-6.095305573950e+01
-6.689015990129e+01
-5.476479997174e+01
-6.085630490869e+01
-7.283647316520e+01
-4.971658535116e+01
-1.745377976073e+02
-1.867189454159e+02
-9.929596906706e+01
-1.110322155615e+02
-1.181279714009e+02
-1.234904552944e+02
-6.690279290615e+01
-7.875694183141e+01
-6.455630979057e+01
-6.454888589261e+01
-9.965275183829e+01
-1.843206175550e+02
-1.719985726018e+02
-8.756106174725e+01
-7.885328453715e+01
-7.759982148180e+01
-6.873208643650e+01
-6.986289735709e+01
-6.772839147510e+01
-1.646739840600e+02
-8.496999940386e+01
-6.710994098781e+01
-5.491576979107e+01
-1.966602312104e+02
-1.627277371780e+02
-1.235146157243e+02
-1.326130193493e+02
-1.349955278526e+02
-1.442168953221e+02
-1.467290198618e+02
-1.560433577558e+02
-1.533095572836e+02
-1.770674532592e+02
-1.652475607400e+02
-5.484116220733e+01
-1.494966859544e+02
-8.229351729211e+01
-4.441522876724e+01
-5.289990185439e+01
-5.429865862190e+01
-6.687848011655e+01
-2.015069919476e+02
-1.586092375426e+02
-1.490536059502e+02
-5.978643689812e+01
-6.068237753139e+01
-1.855234758242e+02
-6.165572919097e+01
-5.593790110519e+01
-4.890098943830e+01
-4.074135541153e+01
-5.107614047523e+01
-9.299298048814e+01
-7.249920037377e+01
-6.497587954308e+01
-6.616562957843e+01
-6.644161560519e+01
-7.286478877292e+01
-8.455146806116e+01
-1.303625197155e+02
-1.356761945179e+02
-1.951050060739e+02
-5.625267884226e+01
-9.048828983086e+01
-1.693274613289e+02
-1.576398706599e+02
-1.163920432534e+02
-5.745428882844e+01
-5.858229670086e+01
-8.884731213023e+01
-6.775279597248e+01
-5.951375433000e+01
-2.076701463506e+02
-1.000387909118e+02
-1.623167648696e+02
-1.503886855545e+02
-1.745667898434e+02
-4.434705900804e+01
-2.078701119815e+02
-1.897786188770e+02
-1.604714757865e+02
-1.512865175163e+02
-7.342915065524e+01
-6.570027943278e+01
-5.717461635776e+01
-5.762925342987e+01
-6.910105101887e+01
-7.459472257843e+01
-7.585758283489e+01
-6.576358258145e+01
-6.446525412753e+01
-7.090729651177e+01
-6.149062189395e+01
-8.824604121199e+01
-1.349116773856e+02
-1.251130174833e+02
-1.559419780846e+02
-1.471399178246e+02
-9.120718034064e+01
-9.659698411801e+01
-4.862208391107e+01
-4.249520125575e+01
-4.694366130046e+01
-4.245766188719e+01
-1.400091310973e+02
-2.012142735777e+02
-1.032265686944e+02
-1.113084452904e+02
-1.080303212785e+02
-2.009179653074e+02
-9.844806202848e+01
-1.448065278291e+02
-6.666275480435e+01
-1.276767972101e+02
-3.438171918784e+01
-1.203669813429e+02
-2.021867027488e+02
-2.089757136593e+02
-1.894534651588e+02
-4.709861878218e+01
-1.360828120992e+02
-1.332725364463e+02
-5.428559060532e+01
-5.324892417343e+01
-6.330489421411e+01
-5.251402711007e+01
-9.268839324483e+01
-8.597314184775e+01
-1.714568356412e+02
-1.772241558615e+02
-1.628547811954e+02
-1.537587189556e+02
-1.980778228200e+02
-1.935998798004e+02
-7.168251953545e+01
-5.138820550196e+01
-1.046200734365e+02
-5.547161648968e+01
-2.136631004114e+02
-2.071347246289e+02
-6.716043976276e+01
-6.241134937104e+01
-9.632511752532e+01
-4.909965056568e+01
-4.905034844174e+01
-4.915910618212e+01
-2.274214618144e+02
-1.811298288571e+01
-2.146182331353e+02
-7.200638686230e+01
-1.022855638549e+02
-1.444224293528e+02
-8.585946117029e+01
-1.884877840274e+02
-8.988796068566e+01
-1.024057414382e+02
-4.283694292314e+01
-3.565700370454e+01
-4.981637794719e+01
-6.547751893793e+01
-6.099988638230e+01
-9.044909379541e+01
-8.663858378080e+01
-9.302620083156e+01
-5.953956325442e+01
-7.118015249407e+01
-1.372020450725e+02
-1.319694771444e+02
-1.300067658481e+02
-1.321113637253e+02
-1.256718763079e+02
-1.639764671615e+02
-1.523949179652e+02
-1.463500431236e+02
-1.023858586002e+02
-1.090396427177e+02
-9.889770667214e+01
-9.480877395079e+01
-9.665231334656e+01
-1.115422606902e+02
-2.211752562456e+02
-2.157115414534e+02
-2.984170314786e+01
-3.803379715434e+01
-5.064939310117e+01
-5.245343077070e+01
-1.192894773906e+02
-1.168791413502e+02
-1.234951250316e+02
-6.361177881402e+01
-1.591574126475e+02
-2.130631799891e+02
-2.059947322598e+02
-2.213992412986e+02
-1.806047701997e+02
-1.929350752022e+02
-1.868655672117e+02
-7.084377466078e+01
-9.811959967386e+01
-3.552774395431e+01
-7.325426673203e+01
-2.960158879540e+01
-3.643879379647e+01
-2.312454622793e+01
-5.128239400110e+01
-3.424744566302e+01
-4.402506175570e+01
-2.328888058717e+01
-1.153889215287e+02
-2.230094389504e+01
-2.690565866064e+01
-2.196269918416e+02
-2.128461930333e+02
-2.249796096857e+02
-2.181036708095e+02
-2.060757610732e+02
-2.118631839956e+02
-2.871155480211e+01
-2.256094000698e+02
-2.177687589437e+02
-2.313874554090e+02
-4.227583050759e+01
-5.805460240287e+01
-4.922346367988e+01
-3.970299990863e+01
-1.669076603054e+02
-1.551274146948e+02
-1.956402848870e+02
-1.831713605963e+02
-2.985619460893e+01
-2.904796357218e+01
-4.004455109785e+01
-3.837791196550e+01
-4.933541022696e+01
-4.757001126838e+01
-5.870050980474e+01
-1.894654023221e+02
-4.100686912722e+01
-4.375846129020e+01
-2.062559140608e+02
-2.005737469824e+02
-5.179935117985e+01
-4.153703025286e+01
-2.219819420803e+02
-8.238091696861e+01
-1.237619064264e+02
-6.317317014938e+01
-6.288556574438e+01
-8.397068190698e+01
-6.237171193278e+01
-5.869844999743e+01
-5.027142988216e+01
-1.759963324244e+02
-3.445148416802e+01
-4.973784950814e+01
-6.035520904200e+01
-4.244890313507e+01
-1.897137690877e+02
-9.012722060993e+01
-8.141584126717e+01
-5.706068875311e+01
-6.675330588040e+01
-7.928349509640e+01
-5.879989901464e+01
-5.713661337930e+01
-9.743747856538e+01
-5.066862827919e+01
-3.990740303226e+01
-8.574408199304e+01
-1.049236065123e+02
-1.138808506288e+02
-1.253365564391e+02
-1.231183457222e+02
-1.112607507801e+02
-1.206802479409e+02
-1.322397229972e+02
-1.306117463871e+02
-1.441043493461e+02
-1.403042913713e+02
-1.278639881657e+02
-1.371708915059e+02
-1.488415419343e+02
-1.251307589313e+02
-2.108226997812e+02
-9.391919481334e+01
-6.603567007730e+01
-5.591859038880e+01
-8.277959470923e+01
-1.526218628274e+02
-1.422937455884e+02
-7.963530134196e+01
-1.813517908882e+02
-6.737578650112e+01
-7.050658340251e+01
-1.925580420535e+02
-1.019050769193e+02
-9.891574272435e+01
-8.945340616654e+01
-1.348130210027e+02
-5.768316485475e+01
-2.117526417330e+02
-1.459472986567e+02
-1.382488721172e+02
-1.274213325997e+02
-1.181158362558e+02
-2.247303272414e+02
-2.152599389317e+02
-2.174506116482e+02
-2.048871743141e+02
-2.293562893535e+02
-1.647864266586e+02
-1.707087006674e+02
-8.523675842884e+01
-9.088107843234e+01
-1.002263904683e+02
-9.584828726980e+01
-8.701118547356e+01
-9.138032718905e+01
-1.001969894130e+02
-8.673648306804e+01
-1.438848383228e+02
-2.327997137423e+02
-1.588241506965e+02
-1.529273112793e+02
-1.415096881715e+02
-1.199654900477e+02
-1.267860541728e+02
-1.387130771795e+02
-1.130219879714e+02
-1.415636169890e+02
-2.337818670006e+02
-1.512882334278e+02
-1.216575811731e+02
-2.403134041381e+01
-3.897284566013e+01
-4.361545671806e+01
-5.514588183882e+01
-3.736609485626e+01
-1.424784164380e+02
-1.477831137903e+02
-1.410407121397e+02
-1.531157741172e+02
-1.461126776952e+02
-1.349158247102e+02
-1.582512115076e+02
-1.504104755996e+02
-2.087243760153e+01
-3.979388240822e+01
-4.206237192972e+01
-3.289467182082e+01
-4.714944968180e+01
-5.438617080016e+01
-5.900297542435e+01
-6.246495569682e+01
-5.465028795985e+01
-1.724665565479e+01
-2.785499735608e+01
-1.357433995142e+01
-2.437106087091e+01
-3.910101112284e+01
-5.092265259173e+01
-2.343653500996e+02
-1.159087898792e+02
-1.099547495674e+02
-9.807263131298e+01
-1.046003518394e+02
-1.207693556316e+02
-9.142522181002e+01
-8.705379986122e+01
-7.799591236322e+00
-1.760023611711e+01
-1.655015758123e+01
-2.837328441830e+01
-2.837695102047e+01
-1.808369849219e+01
-1.834190325114e+01
-8.105520979295e+00
-1.856776017087e+01
-2.948431698333e+01
-8.061109332931e+00
-7.396626808943e+01
-8.028181203677e+01
-2.344460622436e+02
-2.115872582455e+01
-1.094409481762e+01
-1.152161844204e+02
-1.197701035976e+02
-1.187767955376e+02
-2.149369161264e+02
-2.211532497190e+02
-1.146646065147e+02
-7.911769289029e+01
-1.346344485819e+02
-9.603784178685e+01
-6.504081317747e+01
-7.884196116215e+01
-1.774686705025e+02
-1.626735364093e+02
-2.034892049854e+02
-1.666245912750e+02
-1.926156449133e+02
-2.186103595396e+02
-4.730326779184e+01
-5.493408200004e+01
-4.875869371813e+01
-7.881545973152e+01
-8.144865869100e+01
-1.292903699709e+02
-5.174025860868e+01
-1.800288485923e+02
-7.441422170598e+01
-1.356912618252e+02
-1.079390415759e+02
-8.653662396841e+01
-7.521650532019e+01
-9.593121710172e+01
-1.282903424252e+02
-1.824256412555e+02
-8.456990024632e+01
-1.045362336308e+01
-1.888569991383e+02
-1.518448998025e+02
-6.321346862861e+01
-1.768361894879e+02
-6.065296932667e+01
-8.610985568608e+01
-1.140817949407e+02
-5.227526286442e+01
-3.919486009780e+01
-4.211135742124e+01
-2.141799174847e+02
-9.605162298970e+01
-7.418027701637e+01
-1.339698825837e+02
-9.061475072213e+01
-3.421873589473e+01
-1.015093419368e+02
-1.225059641974e+02
-1.917519295826e+02
-1.560335195188e+02
-7.944777687663e+01
-2.004939834278e+02
-1.242977061733e+02
-9.788254895557e+01
-1.373044567424e+02
-1.076513251255e+02
-9.556771424187e+01
-1.359174754874e+02
-1.812368879199e+02
-7.315482096452e+01
-1.142862025944e+02
-1.107622206713e+02
-1.190818188664e+02
-1.706937758800e+02
-1.947247710724e+02
-7.074580066320e+01
-7.617403992848e+01
-6.605026372105e+01
-1.678115385727e+02
-1.092320406158e+02
-8.012267943333e+01
-1.937956363045e+02
-1.068883460739e+02
-1.334621920599e+02
-5.438961941875e+01
-6.007414054781e+01
-8.982351527886e+01
-1.198174532558e+02
-1.453231794641e+02
-1.296937875581e+02
-1.993872561430e+02
-1.826590448244e+02
-3.676616966295e+01
-4.498885552288e+01
-2.049667395516e+02
-1.402293604217e+02
-1.888540387701e+02
-1.388055379881e+02
-1.849182513503e+02
-4.183332262621e+01
-2.106554643252e+02
-1.814886342456e+02
-8.100784321601e+01
-1.859153177542e+01
-2.248044712520e+02
-1.939721803994e+02
-1.301630516414e+02
-1.354337061537e+02
-3.181061082440e+01
-1.506527081930e+02
-1.162960233230e+02
-1.313875795635e+02
-1.989150145616e+02
-8.633655240822e+01
-1.439518235934e+02
-1.528263701694e+02
-2.874164742843e+01
-4.278178433669e+01
-1.492209647117e+02
-9.512017482645e+01
-1.412283413134e+02
-2.017418635227e+02
-1.545366775903e+02
-1.040895787085e+02
-1.598641429686e+02
-3.112667294026e+01
-9.607836708581e+01
-1.651940954873e+02
-1.278459846664e+02
-3.093529204797e+01
-1.388475847439e+02
-2.082756384579e+02
-1.007623890476e+02
-1.470165900024e+02
-1.084948528607e+02
-3.082232517594e+01
-1.584970866422e+02
-1.395702185908e+02
-1.473976734773e+02
-1.303976329088e+02
-1.703891927191e+02
-4.131726191362e+01
-7.482007724920e+01
-6.305562979781e+01
-1.094982650340e+02
-1.417741695315e+02
-3.904239958664e+01
-1.155280136513e+02
-4.724493449696e+01
-1.050833292809e+02
-1.682916344574e+02
-5.126517343205e+01
-1.098777783928e+02
-6.693088154723e+01
-1.046009103094e+02
-1.413789152903e+02
-1.090783522049e+02
-1.030919756878e+02
-1.073546031093e+02
-1.074219081864e+02
-1.166038373377e+02
-2.350821361341e+02
-2.768886694710e+01
-2.939529367518e+01
-8.003494786007e+01
-4.241465231990e+01
-8.979300025613e+01
-1.225726044705e+02
-2.817058759787e+01
-8.254864497967e+01
-1.527481125798e+02
-2.031984021425e+02
-6.831961174900e+01
-1.960178454726e+02
-1.561506968973e+02
-9.549520775085e+01
-1.799668457594e+01
-2.271562911134e+01
-1.770327535410e+02
-2.994845994829e+01
-4.065809498776e+01
-4.154639387979e+01
-8.356443051365e+01
-4.110680521835e+01
-3.262026740853e+01
-2.122244692350e+02
-3.093100842271e+01
-1.712951611205e+02
-3.373886065952e+01
-1.178692443219e+02
-1.978047082280e+02
-2.361926621311e+02
-1.839341234061e+02
-4.400960705259e+01
-4.900575446746e+01
-1.746638355849e+02
-7.788346693697e+01
-2.372278620344e+02
-3.143597346932e+01
-1.077377250770e+02
-6.701606085557e+01
-1.073513787329e+02
-1.345580488564e+02
-4.331654044189e+01
-5.582978618461e+01
-2.270330800376e+02
-1.418380142013e+02
-4.770212618355e+01
-6.802455461162e+01
-1.048328418717e+02
-6.565599444043e+01
-2.245760211454e+02
-1.458058679243e+02
-2.262013641912e+02
-2.787557527749e+01
-1.882872048169e+01
-2.250914164545e+02
-1.642720706740e+02
-6.703894265209e+01
-1.250412015399e+02
-5.241799148601e+01
-1.697256574960e+01
-1.797140660047e+01
-2.369844437618e+02
-1.120611786068e+02
-1.154366477054e+02
-3.370180838419e+01
-7.545911053369e+01
-1.783938383625e+02
-3.297201846647e+01
-1.111606354264e+02
-2.234386846751e+02
-1.292851365836e+02
-2.216100465605e+02
-7.206639238684e+01
-1.972034263427e+02
-2.092789184785e+02
-1.771478376004e+01
-1.353053394236e+02
-9.353392874483e+01
-3.925593946274e+01
-1.175463707373e+02
-6.015389978085e+00
-1.694099782876e+01
-2.377732560460e+02
-3.684438146250e+01
-3.648738369349e+01
-1.596503807346e+02
-1.419196965228e+02
-8.901461424459e+01
-5.158921315431e+01
-7.946861443994e+01
-5.749290835730e+01
-2.038556965272e+02
-1.232540303316e+02
-4.973131159256e+01
-5.462536135779e+01
-1.551515171450e+02
-1.249140589663e+02
-1.698757831816e+02
-2.056681206703e+02
-4.808671651592e+01
-1.526525641194e+02
-1.698875674666e+01
-2.282052452282e+02
-1.301134843383e+02

SCALARS node_materi_stress_size_dev_sd_sig float
LOOKUP_TABLE default
7.037917576713e+00
1.179775872103e+01
1.827068873016e+02
8.982313693190e+01
1.390877932993e+01
2.326275692245e+01
3.099464684076e+01
4.030378446046e+01
4.957081777457e+01
5.883446522302e+01
6.834864214008e+01
7.802805588417e+01
8.773728714115e+01
9.759247295131e+01
1.076519005436e+02
1.170232992995e+02
1.254102710532e+02
1.346788398427e+02
1.439027852839e+02
1.526469335412e+02
1.613107731781e+02
1.698979847059e+02
1.779759628121e+02
9.063377790663e+01
9.030862684910e+01
9.067859106688e+01
9.107899448652e+01
9.117628550440e+01
9.227007420093e+01
9.336692280777e+01
9.480529760957e+01
9.698654016311e+01
9.927310760376e+01
1.014806306712e+02
1.051907115140e+02
1.091982823397e+02
1.133468555618e+02
1.175701330638e+02
1.220651256668e+02
1.269436453445e+02
1.323997747928e+02
1.376402961184e+02
1.426852044915e+02
1.472780979924e+02
1.515240446500e+02
1.556698456831e+02
1.594529336616e+02
1.630320141669e+02
1.663628575720e+02
1.693430408328e+02
1.719484524285e+02
1.741665115979e+02
1.763053312580e+02
1.780852099385e+02
1.792798877750e+02
1.805475635459e+02
1.815965873149e+02
1.824628586726e+02
1.830390982777e+02
1.834952509413e+02
1.836677232484e+02
1.837181987330e+02
1.836105453061e+02
1.836790777645e+02
1.838862296173e+02
1.838818175520e+02
1.828231834349e+02
1.833968036110e+02
1.829787166235e+02
1.830707773363e+02
1.832595529419e+02
1.831819595575e+02
9.864331228937e+00
1.310941083751e+01
2.068079366871e+01
2.945805070779e+01
3.913893419872e+01
4.930096137304e+01
5.993900655646e+01
7.095556428488e+01
8.256511493141e+01
4.634568608303e+01
3.336716232570e+01
4.731455123485e+01
4.315796939945e+01
4.082098084116e+01
3.813457314003e+01
3.625117732393e+01
3.512816658572e+01
3.437149080985e+01
3.420859685309e+01
3.576289195128e+01
1.213723837232e+01
1.177239610412e+01
1.175696960326e+01
1.203176084706e+01
1.152228273238e+01
1.192819412669e+01
1.210431958282e+01
1.196216113808e+01
1.177929041810e+01
1.212793318191e+01
1.275922293945e+01
1.402847354882e+01
1.701670052739e+01
2.415826184250e+01
3.627010389927e+01
3.343225364001e+01
3.399122402228e+01
3.401828946998e+01
3.375455089109e+01
2.156134850502e+01
7.742396559706e+00
4.209022511920e+00
3.810533292395e+00
3.854960869985e+00
4.270254920332e+00
5.116142158188e+00
5.404594161493e+00
5.378116612947e+00
5.953151576599e+00
6.511383595599e+00
6.806037112384e+00
6.630255052024e+00
6.162098185369e+00
5.224087878268e+01
4.482753878850e+01
4.177217529898e+01
3.951559344590e+01
3.832210836032e+01
3.644554691553e+01
3.466139890326e+01
3.403740959665e+01
3.460916482211e+01
3.788130638426e+01
4.481844281883e+01
1.794157657363e+02
7.505812140165e+00
4.111002621275e+01
1.814619692106e+02
3.947103257185e+01
1.030467157999e+02
1.730112445869e+02
3.723963420308e+01
1.619820737402e+02
3.661328935610e+01
1.811613650077e+02
9.827951496869e+00
1.454372192127e+02
3.657738088618e+01
6.402876508396e+01
1.287936491194e+02
1.298668172493e+02
1.094325811532e+02
8.647673011732e+01
8.870106559417e+01
9.770864306487e+01
2.070270998664e+01
1.179114024490e+01
1.065204761101e+01
3.423098264979e+01
1.800160727435e+02
4.122016197972e+01
1.154990139296e+01
1.567470214531e+02
1.024016998318e+01
3.559406707766e+01
1.171773540079e+02
1.685406211196e+02
1.542607254963e+02
1.763620819387e+02
1.809820380911e+02
1.999087613455e+01
1.396290153882e+01
1.801999908743e+02
5.435895697684e+01
9.037869048090e+00
8.299561682275e+01
8.728038441720e+01
3.860275945833e+01
4.186835704116e+01
3.657268801967e+01
3.733453493166e+01
5.110723007236e+01
1.720160317643e+01
1.810151445613e+02
1.138621747282e+01
7.610700864938e+01
3.205936294725e+01
3.702573850025e+01
3.355280492895e+01
4.305745956779e+01
4.124613373112e+01
5.080510533988e+01
5.199334495023e+01
6.048727360406e+01
6.141355731403e+01
5.002874081851e+01
7.035964892969e+01
7.110461485207e+01
8.034850935499e+01
8.094757547172e+01
7.207497138016e+01
8.173898083800e+01
7.306267877996e+01
8.260551779281e+01
9.137399428605e+01
9.212891229681e+01
8.348939878106e+01
9.289216243358e+01
8.430536045507e+01
9.360649389583e+01
8.500675707421e+01
9.423990440794e+01
1.027009879597e+02
1.032165210988e+02
9.479084582827e+01
1.036341589386e+02
9.524158035899e+01
1.039149792378e+02
1.120310742573e+02
1.120793838258e+02
1.040323411275e+02
1.119397661872e+02
1.039938577266e+02
1.115883376763e+02
1.037778117161e+02
1.109368049569e+02
1.183578858142e+02
1.171929570420e+02
1.099349116731e+02
1.155086021721e+02
1.225620435022e+02
1.201396592490e+02
1.271016214960e+02
1.239567059553e+02
1.170070214256e+02
1.200409270110e+02
1.271136669549e+02
1.225171937162e+02
1.152539906007e+02
1.171175100324e+02
1.246654269342e+02
1.188204477164e+02
1.109025357181e+02
1.122992702723e+02
1.205561044051e+02
1.138468589050e+02
1.051481283014e+02
1.066797115793e+02
1.156361251229e+02
1.085170869622e+02
1.176328646997e+02
9.911138937360e+01
1.011743596997e+02
9.133892546950e+01
9.376269389527e+01
1.198846383400e+02
8.361824609437e+01
8.123997060502e+01
8.645678822506e+01
9.653284122226e+01
7.613031145530e+01
7.937604376613e+01
6.901793021924e+01
9.562988050318e+01
1.008816631469e+02
7.262371285889e+01
6.235860321663e+01
5.851495876591e+01
5.208642763273e+01
4.074296370957e+01
5.001163648303e+01
4.031590299652e+01
5.092241268184e+01
4.179793358859e+01
5.613951077928e+01
8.010806388808e+01
6.063459032718e+01
7.490887823929e+01
8.616593460955e+01
1.295806648491e+02
8.278232505428e+01
7.632943238126e+01
8.637089061286e+01
1.243575690202e+02
1.264545185860e+02
1.328021877689e+02
1.349686388680e+02
1.409556907546e+02
1.431808784097e+02
1.372498626314e+02
1.455008301132e+02
1.396609253567e+02
1.488146966401e+02
1.465743612156e+02
1.479307569877e+02
1.422026066245e+02
1.504798338823e+02
1.448778290902e+02
1.363196794385e+02
1.391523661788e+02
1.303920970070e+02
1.340418522826e+02
1.365379474920e+02
1.409191922296e+02
1.433998144281e+02
1.476878886833e+02
1.501152241220e+02
1.542836097472e+02
1.514321539180e+02
9.035302217241e+01
1.084579622818e+02
1.026185156285e+02
1.014633472142e+02
9.528850740423e+01
9.457111030897e+01
8.795149618224e+01
8.771851265463e+01
9.320792710347e+01
8.654845409368e+01
9.050232066524e+01
8.395687099861e+01
8.599775033640e+01
1.114813836159e+02
1.453758440998e+02
1.520739227342e+02
1.469034129069e+02
4.802237286020e+01
1.476963354725e+02
1.540804575516e+02
1.517462430835e+02
1.579521902452e+02
4.628766403686e+01
8.051538456500e+01
7.988330750783e+01
5.285824557123e+01
4.428683220595e+01
1.589320247200e+02
5.042229365101e+01
1.534518630202e+02
7.992420967784e+01
1.421296645884e+02
1.506662621950e+02
1.311095816921e+02
1.536515922822e+02
1.480615529302e+02
9.268739028202e+01
8.662803587741e+01
7.930342968833e+01
7.852543454546e+01
8.643904522625e+01
7.745668952848e+01
6.829966626153e+01
6.695893719323e+01
7.687537040848e+01
6.664283017420e+01
5.512314857536e+01
5.587848489314e+01
1.559861550117e+02
7.766403144330e+01
6.364215666722e+01
1.612791446886e+02
1.605692845389e+02
5.580464586772e+01
4.782870263649e+01
3.671935895558e+01
4.085924847791e+01
5.226939575451e+01
4.566915208997e+01
3.490142960789e+01
3.990101090447e+01
2.979922013444e+01
3.486332690507e+01
4.532094422277e+01
4.033726242695e+01
3.041725561852e+01
3.578378974779e+01
2.632246844267e+01
3.147081913714e+01
4.141435333970e+01
4.113713895817e+01
1.547375123473e+02
1.612570404683e+02
8.047268816800e+01
8.993004703916e+01
9.624095500094e+01
9.981106692914e+01
3.689056750678e+01
4.727139840220e+01
7.194831280594e+01
7.077443946185e+01
6.465211102689e+01
1.452923483467e+02
1.365602948308e+02
8.660270788448e+01
7.729263848431e+01
7.766739891224e+01
6.804968086755e+01
6.786741436104e+01
6.832526304264e+01
1.442651724313e+02
5.111950095626e+01
5.479361097713e+01
4.399815256533e+01
1.538403224134e+02
1.480215987766e+02
1.110513381356e+02
1.196369014819e+02
1.193656255309e+02
1.277332859113e+02
1.276493125418e+02
1.357235261637e+02
1.355844742114e+02
1.549040578183e+02
1.432527049359e+02
2.715821367469e+01
1.399519656755e+02
7.708260620313e+01
3.682896975152e+01
4.323923275681e+01
4.494354591686e+01
5.449443901478e+01
1.657945679543e+02
1.358535188756e+02
1.275180498279e+02
5.879956639343e+01
5.867895568551e+01
1.601069819049e+02
3.176133927507e+01
2.528455335353e+01
2.095749483814e+01
3.493352772462e+01
4.312886384137e+01
5.731142544679e+01
7.908008863756e+01
6.969655580056e+01
7.357556666258e+01
7.163817070274e+01
4.235602820746e+01
5.293760874465e+01
1.059075392903e+02
1.093820988613e+02
1.633357756900e+02
4.571669177519e+01
5.817223538623e+01
1.509793702968e+02
1.440218581677e+02
9.356052718148e+01
6.248348710957e+01
6.394795247750e+01
8.630629317362e+01
5.775473818653e+01
4.901855264787e+01
1.698514854899e+02
6.433997355080e+01
1.428445112247e+02
1.353506547024e+02
1.501926104490e+02
3.353548959898e+01
1.682752050702e+02
1.486596533113e+02
1.356067729602e+02
1.274882258912e+02
7.835320837850e+01
6.894482407024e+01
6.017202505769e+01
5.950198596083e+01
5.327605796928e+01
7.789883818879e+01
6.469362648577e+01
5.578781863752e+01
5.673514964256e+01
6.746043157235e+01
5.835036419950e+01
9.557870889375e+01
1.314736902798e+02
1.026620969016e+02
1.275321257951e+02
1.307097135802e+02
5.656605555729e+01
6.267085977907e+01
2.152804806889e+01
1.792072477386e+01
3.768114509085e+01
3.340079387946e+01
1.198503327065e+02
1.636117700983e+02
6.786743758933e+01
7.701660592573e+01
7.409879209486e+01
1.671960653848e+02
1.063520335802e+02
1.378596358899e+02
7.379629751388e+01
1.199398594205e+02
2.787340597420e+01
1.003576135897e+02
1.571646018480e+02
1.621143054037e+02
1.613600967274e+02
3.957939507321e+01
1.274909868069e+02
1.271135351356e+02
4.865475368860e+01
4.918853865424e+01
5.737955918909e+01
4.958000205736e+01
8.692444124650e+01
7.800093349988e+01
1.445397311776e+02
1.507024102490e+02
1.362352397343e+02
1.278816230052e+02
1.662373126185e+02
1.646864302535e+02
5.832730477166e+01
5.011855926343e+01
6.951698666178e+01
4.769160043385e+01
1.703963634266e+02
1.659822775046e+02
6.678309990359e+01
6.621820599896e+01
6.425713635868e+01
5.121924570420e+01
5.044973413091e+01
5.212373498505e+01
1.737835348504e+02
1.029451643411e+01
1.654745087960e+02
6.695246887214e+01
6.981365323312e+01
1.344791436424e+02
8.681983191237e+01
1.607356249817e+02
5.829652634937e+01
7.076174436982e+01
1.735473602550e+01
1.404360428130e+01
2.132916554863e+01
7.389085655146e+01
6.664075903818e+01
5.710379339157e+01
7.022835029174e+01
7.524994059057e+01
4.843466378810e+01
5.990108290521e+01
1.121915215262e+02
1.091885460346e+02
1.097689235121e+02
1.095401453423e+02
1.105800560446e+02
1.466713684618e+02
1.394401437122e+02
1.369462133773e+02
6.840737210084e+01
7.602146244368e+01
9.531955927649e+01
9.467429634549e+01
8.795620681048e+01
7.703762838475e+01
1.701869217203e+02
1.669819081265e+02
2.358879789576e+01
2.902736496746e+01
5.481889569564e+01
5.744631329696e+01
8.650941838445e+01
8.423677664140e+01
9.097405716514e+01
5.224634256125e+01
1.423174014256e+02
1.730020807747e+02
1.703985093429e+02
1.763832374492e+02
1.558833410652e+02
1.622210961897e+02
1.570481890556e+02
6.226931362071e+01
6.675003782714e+01
1.397081973692e+01
5.426893344079e+01
1.160850249820e+01
1.464477021030e+01
1.024965474286e+01
4.314866583109e+01
1.426372334033e+01
1.886737231408e+01
1.748119813816e+01
8.227754474737e+01
1.924493523695e+01
2.329201237115e+01
1.729535216208e+02
1.684083274956e+02
1.752843355623e+02
1.706976724947e+02
1.635179491504e+02
1.662777904591e+02
1.159944191183e+01
1.745588834577e+02
1.692155957079e+02
1.777735433571e+02
4.223039088860e+01
5.906028383921e+01
4.998398718140e+01
4.249642293637e+01
1.383189699172e+02
1.278794276344e+02
1.523868559149e+02
1.436394014617e+02
1.163718443137e+01
1.133047024369e+01
1.708785780837e+01
1.620024045155e+01
2.369578921264e+01
2.255707996056e+01
3.099406703870e+01
1.576944377048e+02
4.482259810390e+01
4.188124369244e+01
1.705145684659e+02
1.682815943780e+02
4.977652272219e+01
4.236269633300e+01
1.754984257491e+02
8.701352947048e+01
9.235026821264e+01
4.665462366106e+01
5.863272439694e+01
8.679902468833e+01
5.791925509281e+01
5.866187849001e+01
5.037375082434e+01
1.538120793301e+02
2.520812182709e+01
5.332353695583e+01
3.187545188648e+01
4.749984585552e+01
1.480154799858e+02
9.566200690375e+01
7.626789346087e+01
6.123351639346e+01
6.865341259657e+01
6.252321980907e+01
4.472041262651e+01
4.632537525975e+01
1.033284265111e+02
5.016326562902e+01
4.207141977745e+01
7.401994098423e+01
7.204068187035e+01
8.222614023876e+01
9.410718359484e+01
9.257568358161e+01
8.111663933424e+01
9.145748550027e+01
1.027654764618e+02
1.020624391887e+02
1.152397366563e+02
1.123592147804e+02
1.010908884878e+02
1.107401507385e+02
1.211620282651e+02
1.003859117764e+02
1.717574945356e+02
9.559182316610e+01
6.652462669037e+01
6.119593040920e+01
7.565538353522e+01
1.245382255757e+02
1.135270465383e+02
8.776408232745e+01
1.498122023960e+02
5.457758453615e+01
8.054475349078e+01
1.582188278428e+02
7.073141161224e+01
7.006131283407e+01
5.986874370268e+01
1.052135953619e+02
2.673388135317e+01
1.708987392293e+02
1.384931709506e+02
1.328482663161e+02
1.256457541632e+02
9.070782510791e+01
1.782926782272e+02
1.748315677585e+02
1.756572564075e+02
1.703825310327e+02
1.802846716050e+02
1.359123569283e+02
1.411726397070e+02
8.617779331810e+01
9.424020518186e+01
1.019609666410e+02
1.008709700040e+02
9.371630989836e+01
9.930453867481e+01
1.061036956952e+02
9.691093862607e+01
1.187924146362e+02
1.814185798652e+02
1.387751108253e+02
1.365518489651e+02
1.286534588720e+02
9.953337567044e+01
1.063147890265e+02
1.157546620180e+02
9.286734692499e+01
1.277607092480e+02
1.815580347864e+02
1.411457333285e+02
1.036077094300e+02
1.652482570595e+01
2.127945853514e+01
2.720460766191e+01
3.027647522761e+01
1.790666587081e+01
1.153728792020e+02
1.186953956459e+02
1.129645409151e+02
1.221201022899e+02
1.163732154171e+02
1.077592371812e+02
1.254586653016e+02
1.193472747386e+02
1.280762789061e+01
3.428662074013e+01
3.956956410363e+01
2.690407035966e+01
4.294650366121e+01
5.460985025961e+01
5.766601832690e+01
6.578538822942e+01
5.301186761066e+01
1.082711426196e+01
1.974957678879e+01
7.716810129827e+00
1.633115050593e+01
2.943618980855e+01
4.018806090554e+01
1.787992721037e+02
9.267029985492e+01
8.818085307625e+01
7.870039777378e+01
8.410673970503e+01
9.671157476406e+01
7.344158236869e+01
7.008408574954e+01
1.177911554677e+01
2.005127978533e+01
1.934178414349e+01
2.742282695011e+01
2.704045404198e+01
1.994997360628e+01
1.961285959695e+01
1.117010282558e+01
1.909717341991e+01
2.683331373159e+01
1.048597621454e+01
4.422577364891e+01
4.988812497792e+01
1.812388201976e+02
1.124189706798e+01
8.266159508197e+00
8.388964289270e+01
8.819030318211e+01
8.737323457653e+01
1.654250181326e+02
1.696825544464e+02
8.374519559332e+01
6.552234176476e+01
1.042588701314e+02
6.329724486456e+01
7.306238810115e+01
6.890984758058e+01
1.399347057555e+02
1.336492395255e+02
1.589639202690e+02
1.334157409148e+02
1.531620978648e+02
1.759917437265e+02
3.997604347429e+01
2.537943736496e+01
2.239595380546e+01
4.608820404860e+01
6.625208507116e+01
1.038454766239e+02
4.206299737152e+01
1.496363929364e+02
6.558518066882e+01
1.223906161129e+02
8.956489120954e+01
7.316238163732e+01
6.741545963834e+01
9.552868245327e+01
1.106766125116e+02
1.510944355472e+02
5.206355923511e+01
1.076814392460e+01
1.563743218159e+02
1.287042904774e+02
3.045055894963e+01
1.566238344096e+02
5.611454134031e+01
5.094551578195e+01
8.010761694359e+01
2.437222089342e+01
3.235070162026e+01
1.721468383065e+01
1.721891855726e+02
6.217696512679e+01
6.019002463313e+01
1.309250537922e+02
8.562394973153e+01
3.766211363921e+01
6.855443523513e+01
1.196115633605e+02
1.642074413683e+02
1.447128675955e+02
6.432339336029e+01
1.611006000196e+02
1.243728955693e+02
6.275909161170e+01
1.190836188465e+02
1.132036656450e+02
5.964535493718e+01
1.266486059407e+02
1.585451777974e+02
6.634042000884e+01
1.021083418531e+02
9.073834019492e+01
1.118161717243e+02
1.346420974254e+02
1.587086923856e+02
7.946820526712e+01
7.785678370325e+01
3.358209100282e+01
1.434420367704e+02
7.504841677961e+01
7.684696123078e+01
1.558944912153e+02
7.188274197279e+01
1.131106144735e+02
4.556617465492e+01
6.598228914039e+01
9.966464159393e+01
1.191302684614e+02
1.222717363822e+02
9.857417775026e+01
1.584514474369e+02
1.564752460027e+02
4.710997102853e+01
4.120115519991e+01
1.611830451364e+02
1.341637297304e+02
1.627617408221e+02
1.104536646891e+02
1.536699832843e+02
4.225749404595e+01
1.642413403366e+02
1.578438476239e+02
8.740258082337e+01
1.017450528233e+01
1.731938375819e+02
1.643781555392e+02
1.198388419347e+02
1.297734594249e+02
3.687672616926e+01
1.248453521835e+02
1.014823793452e+02
1.014617448401e+02
1.672482875772e+02
5.983628140006e+01
1.185134146070e+02
1.409790554805e+02
2.685611277798e+01
4.209144421043e+01
1.214352593562e+02
1.033992764840e+02
1.321132744981e+02
1.674144844053e+02
1.245270047389e+02
1.101383675380e+02
1.277455451100e+02
3.645257104479e+01
6.998201151284e+01
1.310378205060e+02
1.101328835046e+02
2.712827931785e+01
1.276913296992e+02
1.610143901103e+02
8.940292681391e+01
1.343171207380e+02
8.043320001696e+01
3.664119678278e+01
1.418583984816e+02
1.188504507459e+02
1.349650979486e+02
1.265309653679e+02
1.492786805428e+02
4.259236472232e+01
6.239706762948e+01
5.142379806110e+01
1.130272613028e+02
1.186969750759e+02
3.449269747232e+01
9.037239359486e+01
3.658765233665e+01
1.080500893407e+02
1.489856175738e+02
2.543944111010e+01
1.095626307551e+02
5.476359590372e+01
1.029018070917e+02
1.337976623705e+02
1.039356878439e+02
9.622915247811e+01
7.507337604474e+01
9.747551443433e+01
8.546972463474e+01
1.789947490483e+02
1.084514395868e+01
3.731150708711e+01
4.019140182231e+01
4.390202658890e+01
7.939426435875e+01
1.001250288098e+02
1.101024328420e+01
7.079154365398e+01
1.242519225623e+02
1.654563544200e+02
3.920759547219e+01
1.661870455924e+02
1.418279007259e+02
6.440506844985e+01
1.077713890550e+01
1.555132856923e+01
1.389826342318e+02
3.859391937498e+01
4.380301174410e+01
4.600260976475e+01
6.762683013847e+01
3.345577938532e+01
4.057002399008e+01
1.732810430931e+02
1.280765946763e+01
1.495199110271e+02
4.309031712438e+01
8.471773130855e+01
1.639538864624e+02
1.813334820112e+02
1.566403870520e+02
4.993560967960e+01
2.440844215241e+01
1.451244851574e+02
4.708156690471e+01
1.812355528136e+02
1.468003839800e+01
7.619172360477e+01
7.362312894696e+01
7.614331483226e+01
1.098770009372e+02
1.893327589641e+01
3.384575028096e+01
1.737080449294e+02
1.127438931279e+02
5.444618136484e+01
3.843344998465e+01
8.465790489705e+01
5.777268592301e+01
1.761009459906e+02
1.193036344218e+02
1.737227379522e+02
2.720750013611e+01
1.579228056720e+01
1.776003655576e+02
1.353879555131e+02
7.056400070597e+01
9.415362951914e+01
5.653639909587e+01
1.149364511437e+01
1.776665027121e+01
1.807568761699e+02
7.915013044120e+01
9.257549475982e+01
2.701483271787e+01
6.122771491538e+01
1.503439416815e+02
2.331043379799e+01
7.883528962870e+01
1.777943152049e+02
9.799043631789e+01
1.764023462404e+02
5.581224936029e+01
1.628564072972e+02
1.721595305227e+02
1.059659078741e+01
1.051532675759e+02
7.529877700831e+01
3.337490567372e+01
8.666206434681e+01
1.015947424374e+01
1.067363090847e+01
1.807053688347e+02
3.249301329550e+01
1.505142459419e+01
1.309499239661e+02
1.128099557744e+02
5.808183524050e+01
4.569933181888e+01
3.928236474748e+01
3.022415827586e+01
1.677653858117e+02
9.097512069467e+01
2.360047806644e+01
6.025450264803e+01
1.272841490971e+02
9.986738560852e+01
1.422793529237e+02
1.706903301827e+02
5.174035384233e+01
1.209777449497e+02
1.639842356124e+01
1.766455868609e+02
1.038731257841e+02

SCALARS node_materi_strain_total_average_a_ept float
LOOKUP_TABLE default
1.857377317454e-04
4.418374938600e-03
2.538113231466e-03
5.845439936618e-03
2.227832402187e-04
3.285940102772e-04
4.237574852649e-04
5.414471619134e-04
6.538138590531e-04
7.694792082768e-04
8.878127810623e-04
1.008391392198e-03
1.132304433166e-03
1.258879869523e-03
1.389812770442e-03
1.521183793555e-03
1.643523637998e-03
1.775507115312e-03
1.913550416920e-03
2.048356544457e-03
2.185150966860e-03
2.324143515749e-03
2.459693799409e-03
5.854715877852e-03
5.843966267253e-03
5.840564752127e-03
5.832097864118e-03
5.811018199459e-03
5.800413375387e-03
5.771239895973e-03
5.735916804043e-03
5.696392479008e-03
5.647271340843e-03
5.572852957257e-03
5.500357359412e-03
5.401078005087e-03
5.295803421821e-03
5.170221506412e-03
5.033864288079e-03
4.880093097843e-03
4.721324227799e-03
4.560990218982e-03
4.397095237139e-03
4.228314507254e-03
4.054899853622e-03
3.886348192601e-03
3.721243698170e-03
3.563503851625e-03
3.415026502835e-03
3.271377229937e-03
3.146151666766e-03
3.022374116319e-03
2.919588633240e-03
2.823468039542e-03
2.734148595948e-03
2.658815283475e-03
2.607918858152e-03
2.564261951507e-03
2.526437502631e-03
2.511680500298e-03
2.489150724154e-03
2.484321314044e-03
2.476038939040e-03
2.481031523472e-03
2.496976979229e-03
2.508071685806e-03
2.496169611662e-03
2.522574611238e-03
2.520777145991e-03
2.530337702156e-03
2.541739260249e-03
2.543765862959e-03
4.510389849384e-03
4.657995063286e-03
4.805330205937e-03
4.951976424621e-03
5.103335954486e-03
5.257314172571e-03
5.412402667837e-03
5.573189898560e-03
5.730022685739e-03
-1.371904121640e-03
3.875135360710e-03
-3.597595728121e-04
1.430730834854e-04
6.259554811433e-04
1.113362059713e-03
1.615407711049e-03
2.112829732921e-03
2.593657549428e-03
3.063822800165e-03
3.493201799946e-03
4.419853690962e-03
4.423622842324e-03
4.420956227160e-03
4.416000710810e-03
4.431908112881e-03
4.418246003173e-03
4.413126053098e-03
4.415396813696e-03
4.416245167387e-03
4.405352831615e-03
4.392177049960e-03
4.357960291347e-03
4.293588224700e-03
4.153786602141e-03
-1.971581742223e-03
-2.237866345223e-03
-2.292431270492e-03
-2.065653512173e-03
-1.230915116731e-03
-4.294088625188e-04
-1.193241091298e-04
2.017518266301e-05
9.310751584815e-05
1.089454120003e-04
1.265256428442e-04
1.452024106191e-04
1.583377066771e-04
1.710359632563e-04
1.727077575342e-04
1.761452997682e-04
1.792611251819e-04
1.899858998266e-04
1.954328876513e-04
-7.292750336804e-04
-1.040607961108e-04
3.890858009110e-04
8.663187352752e-04
1.356364439034e-03
1.866769766126e-03
2.356280011356e-03
2.835123180570e-03
3.291178155873e-03
3.649392682404e-03
3.838561014025e-05
2.616040667204e-03
6.454427531450e-05
-1.411182169309e-03
2.457171324591e-03
1.042954811669e-03
1.328252314898e-03
2.938133589085e-03
1.997722616634e-03
3.448328201470e-03
2.946889091289e-03
2.461798296511e-03
1.727173305649e-04
4.081056477996e-03
3.743350470503e-03
8.329131063668e-04
1.687192010532e-03
4.554778841655e-03
5.140232684975e-03
5.714871284082e-03
5.599934044325e-03
5.435580409648e-03
4.242896075792e-03
4.443404751897e-03
4.482520846610e-03
5.028736360645e-03
2.468564480481e-03
-1.756606132664e-03
2.032765633656e-04
2.111215171585e-03
4.480141022886e-03
4.815005693944e-04
4.849347954498e-03
3.185055588238e-03
3.756084073736e-03
2.761380061781e-03
2.522622011552e-03
-2.822551331489e-04
4.386950960978e-03
2.425675759842e-03
5.329184075583e-03
1.333731803796e-04
1.069751743949e-03
5.768571972961e-03
1.531684794497e-03
5.454489868853e-04
2.473288449310e-03
3.386639789824e-03
-5.565891886182e-04
4.743853771570e-03
2.501170107037e-03
2.156322594806e-04
5.645323253257e-03
3.942987879251e-03
3.865140483104e-03
4.059048897763e-03
3.961011106166e-03
4.139579503938e-03
4.061522697061e-03
3.877965009544e-03
3.988427400424e-03
3.799393874935e-03
4.233845383855e-03
3.916578593178e-03
3.722913575305e-03
3.844489249349e-03
3.648268163293e-03
3.523786793242e-03
3.448492058042e-03
3.320672362756e-03
3.245278717450e-03
3.376744048386e-03
3.173716287293e-03
3.038675959685e-03
2.969270945490e-03
2.829601778782e-03
2.763208485834e-03
2.617270911236e-03
2.555557160732e-03
2.702637100210e-03
2.500019359891e-03
2.347228124871e-03
2.297207423478e-03
2.137647248911e-03
2.093448624526e-03
2.253779608908e-03
2.057351616757e-03
1.887868417306e-03
1.861019561105e-03
1.681229282147e-03
1.665461265359e-03
1.474361763431e-03
1.469629485999e-03
1.658103673107e-03
1.473889065654e-03
1.274481462458e-03
1.292641577251e-03
1.487933665466e-03
1.320729752625e-03
1.510129018445e-03
1.356925742576e-03
1.162006785680e-03
1.212850081163e-03
1.398853393093e-03
1.267454650176e-03
1.079109428014e-03
1.147147021010e-03
1.325286854377e-03
1.215428860605e-03
1.038500943126e-03
1.116394919746e-03
1.284097144066e-03
1.191448331870e-03
1.027331452387e-03
1.107446616894e-03
1.264400813763e-03
1.183674620326e-03
1.334673027401e-03
1.030322565536e-03
1.109155825258e-03
9.601704861859e-04
1.040380946442e-03
2.217564897179e-03
8.969653268724e-04
8.122356708114e-04
9.766253949833e-04
1.116150682829e-03
8.387139231934e-04
9.167484340154e-04
7.846921672432e-04
1.486439860258e-03
3.307535027348e-03
8.597948708887e-04
7.331269720647e-04
6.565843068613e-04
6.113524914976e-04
4.291115530288e-03
4.400239280809e-03
4.448004233413e-03
4.560749068468e-03
4.595024193723e-03
6.824144308385e-04
4.038180242699e-03
4.518112060175e-03
2.903114986579e-03
2.188843010721e-03
1.670160435679e-03
9.897467761844e-04
9.302403185739e-04
1.058348631972e-03
1.418190692518e-03
1.482799137417e-03
1.567795359048e-03
1.627472852577e-03
1.712767548055e-03
1.768545859153e-03
1.686995198162e-03
1.825007530519e-03
1.746361261903e-03
1.853133345035e-03
1.801942488902e-03
1.882069616100e-03
1.805783393411e-03
1.940161433054e-03
1.865469258975e-03
1.730649186206e-03
1.791280099222e-03
1.657223174742e-03
1.686758374151e-03
1.840881539760e-03
1.851829222310e-03
2.000110124320e-03
2.006048343597e-03
2.148695550901e-03
2.149281014575e-03
2.017775623629e-03
3.771490166090e-03
1.082854298241e-03
1.060019884027e-03
8.556768221851e-04
8.283760235821e-04
6.076797688147e-04
5.772125536077e-04
3.339946901591e-04
3.914558519438e-04
9.160407603409e-05
1.894626213701e-04
-1.223155717621e-04
1.067843060828e-05
2.647119560884e-03
2.153196103530e-03
2.296408108015e-03
2.309420660219e-03
5.349200172037e-04
1.925543786521e-03
1.940950323317e-03
1.894278766669e-03
2.157207925605e-03
5.662360581690e-04
3.031841834530e-04
5.689356623813e-04
4.714242709182e-03
4.735779830433e-03
2.031497001711e-03
6.328367564972e-04
1.960000372803e-03
-2.170960948936e-04
1.851786087483e-03
1.985461238315e-03
1.608608581369e-03
2.448045282830e-03
2.468040657408e-03
3.023916916462e-04
1.574208694865e-04
-1.143488753497e-04
5.719969236239e-05
3.085289691142e-04
2.189585219154e-04
-3.516049736492e-06
1.676878798373e-04
3.706201098728e-04
3.201633283621e-04
1.472198936660e-04
2.923390552102e-04
2.058959897996e-03
-4.099991578474e-04
3.400861735626e-03
2.074193907884e-03
2.281115796622e-03
4.863529768278e-03
4.872018247501e-03
4.747484459071e-03
4.871067557377e-03
5.005285148550e-03
4.993235327286e-03
4.860727762012e-03
4.972919483749e-03
4.840718353080e-03
4.944528671852e-03
5.085125787418e-03
5.048867802069e-03
4.908167536970e-03
5.006386807602e-03
4.864751211839e-03
4.957625227105e-03
5.105123804513e-03
5.237364489314e-04
2.034536138951e-03
2.170674647738e-03
9.987664308018e-04
1.123716608614e-03
1.189424770266e-03
1.254785412507e-03
5.050604208839e-03
5.203372234358e-03
3.089284379300e-04
5.859572438331e-04
4.846077150907e-03
1.912314362889e-03
1.779039924218e-03
1.971510286905e-03
2.024157888313e-03
1.797249027257e-03
1.849494366513e-03
2.084462922518e-03
1.609463099874e-03
1.750962451471e-03
5.196053547067e-03
5.737617507476e-04
4.523537369805e-04
2.046061560322e-03
1.890191524349e-03
2.845299921131e-03
2.788975647404e-03
2.983602363476e-03
2.925206189193e-03
3.117694393189e-03
3.055713289031e-03
2.871782964100e-03
2.603448925666e-03
3.000227745829e-03
4.901634204673e-03
2.161464736579e-03
5.053746156778e-04
4.581989987960e-04
1.557838789244e-04
5.800134820478e-04
6.949624309984e-04
2.161588751628e-03
3.248044506143e-03
3.311876495988e-03
1.914970551168e-03
2.155008059678e-03
2.576059582675e-03
4.490853899112e-03
4.738365936462e-03
4.717047304513e-03
4.608705361231e-04
2.454435420809e-05
5.135752553854e-03
8.241751383929e-04
8.510799398214e-04
-5.093186774670e-04
-7.424244980570e-04
5.143000371030e-03
5.297390170241e-03
1.321808453949e-03
1.385485228175e-03
2.126246732125e-03
2.771580158515e-04
5.358459752932e-03
1.917654101905e-03
1.768366498959e-03
1.187035647857e-03
3.492969497405e-04
6.018493696285e-05
5.717569668958e-04
4.167643114689e-04
6.383036777110e-04
2.252183405500e-03
5.149729010086e-03
2.823033547633e-03
2.690242204388e-03
2.947876487091e-03
1.666689281046e-04
2.203498356711e-03
1.973032753517e-03
3.437433022144e-03
3.508270181737e-03
1.070433086103e-03
1.108988950806e-03
8.969090123421e-04
1.160601732891e-03
3.687595284372e-03
1.314611211274e-03
3.195079459631e-03
3.281079466224e-03
3.068948325846e-03
2.313240796881e-03
2.390276124841e-03
1.049181514771e-03
1.835558880567e-03
1.256240055287e-03
1.595620625713e-03
1.507425516895e-03
5.233193215593e-03
5.350168612300e-03
4.772764731440e-03
4.727212006904e-03
4.212342301681e-04
3.408328560017e-04
1.402722347240e-03
2.118382575269e-03
5.003960113300e-03
4.989589840106e-03
4.820549515286e-03
2.222153340778e-03
8.976155146948e-04
1.709167939769e-03
-5.688248107658e-04
2.406250191918e-03
3.190565202926e-04
3.506680550021e-03
2.107705969041e-03
2.179692757656e-03
2.723247052774e-03
3.663732251765e-03
2.370057173732e-03
2.189663423247e-03
3.160309331274e-03
2.944648180145e-03
2.852062091390e-03
2.716601731754e-03
6.854560756435e-04
6.219017977921e-04
3.385737440706e-03
3.122311332160e-03
3.636253287197e-03
3.714484782817e-03
2.692864237127e-03
2.554245960060e-03
7.508630212404e-04
2.234582741769e-03
5.288206501225e-03
3.371499351647e-03
2.241257606329e-03
2.168784552602e-03
-9.735475517873e-04
-6.657388481497e-04
5.456097286893e-03
9.515517142720e-04
1.213060462263e-03
6.863691606925e-04
2.387735571374e-03
4.481265470884e-03
2.243447301847e-03
2.541526745793e-03
5.519745482251e-03
2.342637486549e-03
1.747863750868e-03
2.092043422969e-03
5.380664367157e-03
5.555217784027e-03
4.626866918294e-03
4.593464500884e-03
4.634853327844e-03
-2.480789360453e-04
-5.472750642233e-04
5.305758395904e-03
8.728246159765e-04
9.495034487960e-04
3.883637415449e-04
5.254571786931e-04
1.390417433266e-03
1.324745306652e-03
3.440275504205e-03
3.638743516643e-03
3.044076148928e-03
1.805501306253e-03
1.653041525955e-03
1.610992366991e-03
5.386563144549e-03
5.520990786937e-03
7.620617043672e-04
6.562938316231e-04
7.854818824225e-04
5.304487979087e-03
2.313846758212e-03
2.249082345443e-03
2.493253314421e-04
2.565610147045e-04
1.404624296363e-04
-1.470774754292e-04
4.964652457400e-03
4.785422917814e-03
5.149138367369e-03
6.843938540652e-04
2.655941982913e-03
2.339392604967e-03
2.324283433595e-03
2.386852322525e-03
2.755628192330e-03
2.861198510208e-03
3.061756410742e-03
-1.222240416074e-03
5.510159985864e-03
4.635626903407e-03
-1.440629856358e-03
4.588310485366e-03
4.673531695661e-03
4.523363164707e-03
5.730754811460e-04
4.519910052917e-03
4.532723583174e-03
1.612567061865e-04
5.454004034429e-03
2.294893366604e-04
2.912577793745e-04
2.298653495410e-03
2.221759705787e-03
2.343819872192e-03
2.268439798744e-03
2.145161564019e-03
2.204952132923e-03
4.551194501349e-03
2.348519853860e-03
2.267608918530e-03
2.415382089989e-03
2.823780116876e-03
1.410481962093e-03
1.476829066021e-03
1.290152599152e-03
3.866337156122e-03
3.910051589296e-03
2.038184097519e-03
1.902687940709e-03
4.606925386091e-03
4.605628716462e-03
4.733566641993e-03
4.722418720019e-03
4.853289471526e-03
4.838195897474e-03
4.973387282377e-03
3.256231235004e-03
7.425734104170e-04
3.263758894114e-03
2.661295085483e-03
2.526892208536e-03
2.477268120197e-03
2.338714034857e-03
2.342433725545e-03
1.280906075623e-03
5.488826053053e-03
-1.394315786548e-03
-1.046547978729e-03
1.513074797596e-03
2.624310416970e-03
1.664139269311e-03
1.741902306804e-03
1.952753661058e-03
1.779946149943e-04
4.134910199624e-04
4.981526374164e-03
2.195786711793e-04
1.974786813094e-03
1.268140490245e-03
2.467448476738e-03
6.277077944632e-04
1.363709602855e-03
3.602934248811e-03
3.775773461803e-03
3.575334391682e-03
1.266592278634e-03
1.995834546661e-03
1.819073551965e-03
3.114205749795e-03
4.647250109962e-03
4.604305766616e-03
4.739568588657e-03
4.551700506506e-03
4.417896016778e-03
4.360685686567e-03
4.502502631629e-03
4.302639629193e-03
4.469118811294e-03
4.231436691270e-03
4.098765220423e-03
4.028728133710e-03
4.144472699925e-03
3.897949381025e-03
2.786233136253e-03
1.706745379417e-03
-9.029000613662e-04
-6.465836053032e-04
2.687809673803e-03
4.705158189287e-03
5.012673552333e-03
8.170775183770e-04
3.915699969315e-03
3.485599371526e-03
3.320182643065e-05
3.600366741992e-03
4.470628910094e-03
4.289306182804e-03
4.346945598274e-03
5.251842929010e-03
4.634976886541e-03
3.067519402553e-03
1.999781984519e-03
2.003203428427e-03
1.835745733080e-03
4.165388700433e-03
2.677907565626e-03
2.559398887512e-03
2.502446159233e-03
2.425786958504e-03
2.564260551525e-03
4.408424727817e-03
4.252210585574e-03
4.448995468070e-04
5.436647444070e-04
7.595283776436e-04
6.621394027613e-04
4.228113816694e-04
5.642565232232e-04
7.994171629773e-04
4.713092268167e-04
3.774672125442e-03
2.497474466697e-03
1.657484883547e-03
1.601306861586e-03
1.445890401362e-03
1.188007544683e-03
1.256238633648e-03
1.395533425012e-03
1.122257246777e-03
2.736954176442e-03
2.473604844988e-03
1.736487067464e-03
1.184368220052e-03
4.329560289713e-03
4.332225618240e-03
4.209378468670e-03
4.341931749122e-03
4.422068446464e-03
1.454053951698e-03
1.516021876152e-03
1.447341228659e-03
1.576672816042e-03
1.504715398668e-03
1.385612426866e-03
1.634143630435e-03
1.551747106740e-03
4.417141020814e-03
-7.359083451038e-04
-4.448408067883e-04
-1.908261766184e-04
-2.485446646174e-04
-4.431944365160e-04
-2.008557338261e-04
-3.726072176027e-04
-8.063116552702e-04
-1.043788329724e-04
-4.536226342356e-05
1.116789613443e-05
4.798571292403e-05
5.572726458337e-05
3.639565914848e-04
2.456094182379e-03
1.193467416473e-03
1.129922184754e-03
1.012120469110e-03
1.069821690293e-03
1.243164235886e-03
9.494537285056e-04
9.029698808783e-04
2.099798176525e-04
2.886545144752e-04
2.841530302742e-04
3.783021010952e-04
3.720275339898e-04
2.825564605539e-04
2.732373924395e-04
1.953984990118e-04
2.624703527360e-04
3.556121945466e-04
1.845426421081e-04
5.180735878718e-03
5.264383701128e-03
2.446184484913e-03
4.466433758135e-03
9.736156906552e-05
5.707298182990e-03
5.657071546090e-03
5.695581238759e-03
2.250255485066e-03
2.317555657921e-03
5.736728155207e-03
7.039511566644e-04
4.684345442009e-03
5.413565835704e-03
2.604552108652e-05
5.695646762459e-04
1.839753344202e-03
1.670026582342e-03
2.118041403991e-03
1.718341273561e-03
1.999236005689e-03
2.444977717598e-03
5.294334330360e-04
4.810877482948e-03
4.814900805250e-03
5.153340734790e-03
8.042301533125e-04
1.322913716030e-03
4.971401028633e-04
3.573840805743e-03
2.983945777895e-03
1.351952046695e-03
1.051596299346e-03
7.554815519441e-04
4.552868639032e-04
1.925246104477e-03
1.256956113739e-03
1.905777394539e-03
5.257053465208e-03
1.602842289921e-04
1.988617923606e-03
1.546154991770e-03
4.748237549854e-03
2.286569169811e-03
-1.321370141731e-05
5.113593290194e-03
5.150455102376e-03
4.523274688947e-03
3.904514848961e-04
4.680380633209e-03
2.281686034474e-03
4.684749386703e-03
7.496463177935e-04
1.539072361757e-03
2.403650764309e-03
3.589202706093e-03
5.461019487782e-03
2.029638358784e-03
2.289509979222e-03
1.868515722993e-03
8.141007607661e-04
2.092182480264e-03
1.660489713262e-03
5.262174476052e-03
3.179541788150e-03
1.117514255491e-03
5.009197501839e-03
1.384538926310e-03
2.429681088579e-03
2.766559142487e-03
2.905296051192e-03
3.575325240649e-03
2.450277501311e-03
1.768046261972e-03
2.039122644258e-03
-2.882758281073e-04
1.560898868209e-03
4.622688202045e-03
3.176115487902e-03
5.417875827448e-03
2.247019101131e-03
2.015275431762e-03
5.155741566774e-03
1.327478604280e-03
6.051244193890e-04
-2.219165392357e-04
6.573544958674e-04
1.843462421990e-03
1.468961204336e-03
4.936211608856e-03
2.072576922967e-03
1.991002068482e-03
-2.358304607816e-04
3.475076378732e-03
2.131973007082e-03
1.573164700984e-03
2.413008154498e-03
1.430041095977e-03
3.422595041105e-03
2.585841186839e-03
2.194464339011e-03
2.061557519191e-03
1.051425330946e-03
4.482900827094e-03
2.346132056823e-03
2.194646589306e-03
2.596753698952e-03
1.444571343227e-03
3.173049377467e-03
1.533320060389e-03
3.106537633254e-03
5.354662263026e-03
2.293131140723e-03
4.170144214970e-03
1.460607656550e-03
2.323612257447e-03
3.648902924488e-04
3.052398776462e-03
1.523897472381e-03
7.234936109312e-04
1.493526779191e-03
2.832902410343e-03
1.586060001359e-03
9.519303825173e-04
1.647106596047e-03
2.714171584541e-03
4.104820084467e-03
1.707557828587e-03
3.241814348433e-03
3.502288160569e-04
2.551354201400e-03
2.176143409689e-03
8.757645936629e-04
1.545849481799e-03
4.229227880592e-03
2.237055938293e-03
1.700293168804e-03
3.375913877078e-03
2.515844317827e-03
2.012199278901e-03
1.849205553442e-03
2.099540747133e-03
6.176495502533e-04
4.863095666550e-04
1.013642479096e-03
3.576079905803e-03
4.657911339617e-04
3.968018774000e-03
2.705420192419e-04
8.787740276588e-04
2.630464515670e-03
4.886047666145e-03
9.592498928773e-04
7.178269131485e-04
8.529326786400e-04
2.171583958845e-03
9.429130680148e-04
8.588295371522e-04
5.568479576683e-03
9.476030626531e-04
5.768052081763e-03
2.472580946740e-03
4.594055496623e-03
1.772107337347e-03
-1.821465787136e-03
1.567658508741e-03
7.219276339503e-04
3.702159070529e-03
4.599920053434e-03
6.666139870647e-04
4.342300220117e-03
3.310528546213e-03
5.105094807061e-03
2.398663879981e-03
2.490658244244e-03
5.478745659155e-03
4.463639439589e-03
1.004217529660e-04
1.837814749433e-03
1.262466516269e-03
1.000752110374e-03
4.804403956378e-04
8.636107121911e-04
-7.397751824012e-05
7.927662477820e-04
2.610924429507e-03
4.529034918493e-03
2.787458449051e-03
2.964693293155e-04
5.302833051754e-03
3.032205892317e-03
2.453391491917e-03
2.907616200294e-03
-5.857214795429e-05
4.422223765619e-03
3.720515354513e-03
5.217136293339e-03
2.468088121353e-03
4.455349753704e-03
5.623808074600e-03
-3.765998943873e-04
5.641654630472e-03
3.832721530774e-03
4.762356338532e-03
4.206810669260e-03
2.379006369267e-03
4.642308902055e-03
-3.995092704370e-04
5.088426340240e-03
1.065403157030e-03
-1.172259638116e-03
2.349529585172e-03
3.961339915612e-03
2.363873668010e-03
3.778051513451e-04
1.773559836412e-04
2.391596808409e-03
4.064930215490e-03
-1.606461710270e-04
5.594511840796e-03
-8.379099229354e-04
4.440280238897e-03
2.421647113199e-04
2.474597112351e-03
5.518675195703e-03
1.184076114042e-03
4.084298641500e-03
7.935670764908e-04
3.267592421094e-03
1.069765202400e-04
5.591150770338e-03
2.443404827955e-03
5.081810482091e-03
2.876651600151e-03
-1.375429318638e-03
3.171669701540e-03
2.398652012298e-03
4.467181261892e-03
4.848057003557e-03
9.616148055143e-04
4.335959814230e-04
5.793629612235e-03
2.035236441625e-04
4.462139147202e-03
2.504081551111e-03
4.387775735306e-04
4.700770472240e-03
4.219960918370e-03
1.462871981931e-03
5.386753011624e-03
-1.014207739438e-04
-1.854088236548e-03
4.964586068753e-03
2.944763805248e-03
5.277657264663e-03
4.846737656863e-03
-3.656856487999e-04
4.061767476157e-03
1.278756429208e-03
3.556220479710e-03
2.502464494880e-03
-9.827524838461e-04
1.576069140520e-03
2.178604850176e-04
2.373393601165e-03
1.336305898362e-03

SCALARS node_materi_strain_total_size_dev_sd_ept float
LOOKUP_TABLE default
7.608869501027e-04
1.249854563021e-02
6.203764327343e-03
1.444662496793e-02
5.176386149095e-04
4.027110056946e-04
6.756059045431e-04
1.073186725095e-03
1.451207428854e-03
1.793264780128e-03
2.111776462491e-03
2.411121202327e-03
2.698549389413e-03
2.986736238186e-03
3.287370225069e-03
3.583793259213e-03
3.862976063271e-03
4.182104649628e-03
4.527738389028e-03
4.878510559617e-03
5.245728280046e-03
5.626012527203e-03
5.989249563055e-03
1.443630428877e-02
1.442330875227e-02
1.442484358553e-02
1.441390781814e-02
1.440627241871e-02
1.439488622375e-02
1.437328520831e-02
1.433120797321e-02
1.429040055794e-02
1.421614511452e-02
1.414586707742e-02
1.403936889670e-02
1.390520483215e-02
1.373552864428e-02
1.355113355658e-02
1.330859879798e-02
1.305378804657e-02
1.276633663343e-02
1.245572917154e-02
1.212011849347e-02
1.174715109015e-02
1.136325712369e-02
1.095326792711e-02
1.053010641621e-02
1.010533596190e-02
9.675834468031e-03
9.243136913202e-03
8.809796503132e-03
8.386344850359e-03
8.019008424053e-03
7.627003742354e-03
7.252220907575e-03
6.925064406444e-03
6.681132448904e-03
6.466698157466e-03
6.308248686673e-03
6.188295709347e-03
6.102328566365e-03
6.043106777918e-03
6.019289763959e-03
6.032785374897e-03
6.071019596117e-03
6.096598228388e-03
6.068200335193e-03
6.145841242487e-03
6.155678168767e-03
6.184720522249e-03
6.214301663094e-03
6.223147144934e-03
1.267878788903e-02
1.300609350013e-02
1.330348714833e-02
1.356779344309e-02
1.380599060237e-02
1.400944831979e-02
1.417581978469e-02
1.430322447174e-02
1.441138951033e-02
3.927803835398e-03
1.300234463796e-02
4.543332717036e-03
4.906392310732e-03
5.618862875850e-03
6.290532106492e-03
7.041961456481e-03
7.946889502169e-03
8.944767888798e-03
1.003439132293e-02
1.132622114048e-02
1.249455167006e-02
1.247194591814e-02
1.247591478147e-02
1.247759349115e-02
1.252008806959e-02
1.249040711653e-02
1.248028870568e-02
1.248439163524e-02
1.251277387859e-02
1.253054804864e-02
1.255259495583e-02
1.262812435376e-02
1.278611080091e-02
1.311712478435e-02
2.996309936448e-03
2.757048147830e-03
2.836927692153e-03
2.837053915772e-03
2.885453216333e-03
2.000314513164e-03
7.960486920250e-04
2.134391299267e-04
2.236357267985e-04
3.107867715266e-04
3.803886543939e-04
4.728419903939e-04
5.619432407938e-04
6.408459923647e-04
6.560293568582e-04
6.733827949994e-04
6.967012631952e-04
7.697749080802e-04
8.060995678053e-04
4.767727589333e-03
4.663364537622e-03
5.236540268231e-03
5.998020040974e-03
6.711717757130e-03
7.521746969602e-03
8.438320411549e-03
9.474035684975e-03
1.064495221294e-02
1.221542900265e-02
4.776662866556e-03
6.429774838471e-03
3.987791593399e-04
3.202109346903e-03
5.777424833708e-03
6.077903476712e-03
3.140173452294e-03
7.779317794290e-03
7.617045904555e-03
9.582407214667e-03
9.722445150541e-03
5.873902773941e-03
3.906751320594e-04
1.137124683839e-02
1.244518052952e-02
1.970178695953e-03
3.959932444052e-03
1.252081088563e-02
1.368233233261e-02
1.441599916741e-02
1.436463073435e-02
1.415353507725e-02
1.315765531166e-02
1.277088879882e-02
1.271953328025e-02
1.369652677843e-02
5.966624309574e-03
3.069644150790e-03
5.115011776447e-04
5.040165394633e-03
1.263325912826e-02
8.780675420142e-04
1.315828793373e-02
8.722496925581e-03
1.050487264860e-02
7.032918039725e-03
6.054207945678e-03
2.012356693903e-03
1.287928161109e-02
5.692003058220e-03
1.409818230442e-02
2.363097889880e-04
2.555661162967e-03
1.443034404996e-02
6.762743876004e-03
5.379908588239e-03
8.595536725865e-03
1.098847774118e-02
4.688605197309e-03
1.318393675076e-02
6.093396427536e-03
6.023683429821e-04
1.434956829328e-02
1.284455810468e-02
1.239969009918e-02
1.295318396052e-02
1.249420113516e-02
1.296667038566e-02
1.258428879616e-02
1.206013286396e-02
1.218325102319e-02
1.161953117299e-02
1.303785656954e-02
1.176782383684e-02
1.117547340680e-02
1.134368529255e-02
1.073539423295e-02
1.054528904286e-02
1.009398526657e-02
9.892724765607e-03
9.430882061263e-03
9.654920950499e-03
8.980299906423e-03
8.753256617604e-03
8.298482446726e-03
8.076528140194e-03
7.618583355073e-03
7.406886495149e-03
6.948438401740e-03
7.180343681191e-03
6.510449073591e-03
6.297559359228e-03
5.858202198004e-03
5.669741771612e-03
5.227323302551e-03
5.443404088348e-03
4.812287436243e-03
4.622751193258e-03
4.210190695066e-03
4.058591119095e-03
3.650695821460e-03
3.554158124038e-03
3.149782238314e-03
3.276245464208e-03
2.784467724764e-03
2.742856003655e-03
2.397152497670e-03
2.471942630284e-03
2.111063545671e-03
2.227708160081e-03
1.900196539234e-03
1.917482051166e-03
1.747182662262e-03
1.782530045005e-03
1.670678771289e-03
1.778889603070e-03
1.726028571776e-03
1.696452247897e-03
1.762129593852e-03
1.888381819451e-03
1.910213010995e-03
1.880365027567e-03
2.004725874966e-03
2.079109248162e-03
2.141689401632e-03
2.159593114061e-03
2.262058106526e-03
2.358427528864e-03
2.255400776935e-03
2.343261938163e-03
2.324163498771e-03
2.386074371577e-03
5.061055933754e-03
2.333928795155e-03
2.343627870153e-03
2.380189952919e-03
2.494035572612e-03
2.282033495828e-03
2.324205083831e-03
2.174760469552e-03
3.987353399737e-03
9.231613306680e-03
2.220481518287e-03
2.017738038938e-03
1.998501083650e-03
1.776411765938e-03
1.333248898335e-02
1.339719716815e-02
1.361987594656e-02
1.369415796629e-02
1.384506103511e-02
1.821379572670e-03
1.190822251717e-02
1.346540515312e-02
8.552127219118e-03
6.129884142865e-03
2.682406502728e-03
2.406404714284e-03
2.302265428827e-03
2.517527350771e-03
2.292470942735e-03
2.550369758677e-03
2.535940602361e-03
2.830960408451e-03
2.872342721183e-03
3.186260766886e-03
3.132419175463e-03
3.501223065554e-03
3.432295865086e-03
3.281053937879e-03
2.967086036170e-03
3.809942406912e-03
3.725239694471e-03
4.108377645459e-03
4.007181346488e-03
3.653196728840e-03
3.913908423674e-03
3.584864479771e-03
2.489051702349e-03
3.003461042839e-03
2.858950095549e-03
3.407588148766e-03
3.307496113648e-03
3.877509526262e-03
3.816220066384e-03
3.286790447756e-03
1.092396500344e-02
2.474811510934e-03
2.834246068062e-03
2.703781792018e-03
3.058733817139e-03
3.070859835313e-03
3.406735794366e-03
3.560252482136e-03
3.270675894039e-03
3.887263695753e-03
3.603128481789e-03
4.266834220461e-03
3.988523928219e-03
6.767451013823e-03
4.008499988601e-03
4.497400805009e-03
4.644563431789e-03
1.765223587218e-03
4.274923993041e-03
3.431681484181e-03
3.129527033251e-03
3.832202336054e-03
1.527837075814e-03
3.845681945398e-03
3.774070224692e-03
1.392232402441e-02
1.401575882506e-02
3.648178596326e-03
1.599205647631e-03
3.919849378751e-03
4.399529134876e-03
4.161098031260e-03
4.525191418006e-03
3.103799905940e-03
5.152625566191e-03
5.303773988885e-03
3.305848953523e-03
3.638514791308e-03
4.183071166011e-03
3.814250718598e-03
3.287247426615e-03
3.441791959310e-03
3.782034892106e-03
3.426211214499e-03
3.094222742257e-03
3.060734445166e-03
3.153775896100e-03
2.835440750950e-03
4.661434972190e-03
4.570374623739e-03
1.036812231947e-02
3.944317275455e-03
4.377320729031e-03
1.409612766543e-02
1.414406023602e-02
1.401790077577e-02
1.411802087976e-02
1.423713591537e-02
1.419721229098e-02
1.402855215123e-02
1.410673315798e-02
1.389053618764e-02
1.397784209210e-02
1.417289981961e-02
1.405309868717e-02
1.382334733001e-02
1.391347799121e-02
1.365640784542e-02
1.376132312384e-02
1.399333963759e-02
1.271917049585e-03
3.345718748686e-03
3.924170106400e-03
2.414968040417e-03
2.645871974215e-03
2.737592126058e-03
2.895771861220e-03
1.385655155506e-02
1.406566741102e-02
4.144195212845e-03
4.164433416877e-03
1.397583172202e-02
4.394005167788e-03
4.049090812392e-03
5.532343860449e-03
6.005450700343e-03
5.445454518115e-03
5.923436595296e-03
6.490518459045e-03
5.408170650656e-03
2.667106931806e-03
1.422522794620e-02
2.023391602162e-03
1.792719955744e-03
4.759889573706e-03
2.824545839783e-03
7.452963568403e-03
7.069023536857e-03
7.767972787027e-03
7.416284737676e-03
8.127281300867e-03
7.813146412006e-03
7.105457219685e-03
5.834017444471e-03
7.549050588943e-03
1.360221371583e-02
4.195866127266e-03
2.789741834915e-03
1.187861052283e-03
2.674393787947e-03
1.357399316920e-03
1.692874488069e-03
4.207870172523e-03
8.538322388541e-03
8.835253325030e-03
6.421746722958e-03
6.978621064699e-03
5.713292961400e-03
1.373632980754e-02
1.379284477710e-02
1.360261410146e-02
9.562495756459e-04
2.986529577566e-03
1.430568731741e-02
3.869826311496e-03
4.307838140458e-03
4.479152100985e-03
4.425954784538e-03
1.394407014815e-02
1.412942617022e-02
2.973866904665e-03
3.155639652933e-03
3.940020005903e-03
2.460377018396e-03
1.422523704813e-02
2.936944297317e-03
2.450182298780e-03
2.791974722810e-03
4.429993753422e-03
4.366939183714e-03
2.710940296474e-03
2.564841521131e-03
1.472013526460e-03
4.541991595127e-03
1.430287914881e-02
6.841610015554e-03
6.407301509423e-03
7.326725317866e-03
2.140303198337e-03
4.504673373828e-03
4.612351883037e-03
9.247773353918e-03
9.529853288538e-03
4.112922067369e-03
4.574064678203e-03
4.759248837011e-03
5.058711647996e-03
1.147754247803e-02
4.471448465462e-03
9.706179828666e-03
1.019185027645e-02
9.522771964271e-03
7.085589776355e-03
7.575144776727e-03
3.233821617058e-03
3.222030976598e-03
2.798337597956e-03
3.337730562228e-03
2.257847085156e-03
1.430745916072e-02
1.434115713122e-02
1.353721948666e-02
1.334818301840e-02
1.448788490761e-03
1.454650118540e-03
2.586663992381e-03
4.250303032185e-03
1.413902602642e-02
1.400295100103e-02
1.379791733646e-02
4.298691355466e-03
2.389482767207e-03
2.382160099265e-03
4.564956601803e-03
5.712205402907e-03
1.046682591800e-03
9.896380637599e-03
4.979418077736e-03
5.140982619302e-03
6.401295994395e-03
1.184113800524e-02
5.369556913529e-03
4.718452543767e-03
9.999591378466e-03
9.348546204562e-03
8.863266290130e-03
8.709452400420e-03
2.508012347288e-03
2.562499588879e-03
9.059569635823e-03
8.053101937094e-03
9.932569958796e-03
1.021953702905e-02
6.314480295522e-03
5.634065791421e-03
1.796769017060e-03
7.473973650107e-03
1.436261325126e-02
1.067389292898e-02
4.794656009969e-03
4.564273111779e-03
4.334449100337e-03
4.477071548991e-03
1.427355149407e-02
5.213238611122e-03
5.523077545867e-03
4.938142053389e-03
5.796724568093e-03
1.262008100193e-02
5.357628473766e-03
7.718976048218e-03
1.434458142731e-02
5.073616289583e-03
4.969674090660e-03
3.697342481827e-03
1.418137439527e-02
1.432210758065e-02
1.346947860104e-02
1.324072102538e-02
1.367041509098e-02
4.416222697460e-03
4.444752519887e-03
1.426852110331e-02
2.165541495725e-03
2.302466422269e-03
2.263272686295e-03
2.358393011794e-03
3.029096141434e-03
2.830444360326e-03
9.513089251462e-03
1.017307429384e-02
8.146913139523e-03
2.616050539996e-03
2.184618455800e-03
2.048159550151e-03
1.437721192172e-02
1.439715495649e-02
2.364209090264e-03
2.533182779326e-03
2.376982792997e-03
1.432653368604e-02
5.529356858529e-03
5.308927314785e-03
9.986632510580e-04
1.472954386780e-03
4.552167886872e-03
4.467440662120e-03
1.380587264645e-02
1.357481130232e-02
1.399318303218e-02
1.564609036098e-03
6.162616658832e-03
4.928584319893e-03
4.725696791931e-03
5.253099522755e-03
6.511895602904e-03
7.074498884309e-03
7.886058214047e-03
4.087304256503e-03
1.426951332255e-02
1.318121249813e-02
3.706855210134e-03
1.297995488671e-02
1.315889847963e-02
1.277445449190e-02
1.214895358682e-03
1.325788193664e-02
1.354222560025e-02
8.165261986171e-04
1.435302150719e-02
5.972676140540e-04
6.877600520926e-04
5.086991131591e-03
4.860484671724e-03
5.358375325756e-03
5.135295599079e-03
4.673387922689e-03
4.967409307216e-03
1.300034696752e-02
5.474426794345e-03
5.252121832319e-03
5.744412289875e-03
9.209861065655e-03
5.447620667671e-03
5.913418415721e-03
6.040484394088e-03
1.068755525283e-02
1.084498210487e-02
4.824196632584e-03
4.469136216198e-03
1.295944073833e-02
1.292121994212e-02
1.322106599535e-02
1.316601722985e-02
1.344282115117e-02
1.338218013615e-02
1.364162637686e-02
8.700430030952e-03
5.341442759489e-03
1.048601476137e-02
6.262037676533e-03
5.573781120590e-03
8.068591992508e-03
8.005140770671e-03
5.173417356627e-03
4.007435408293e-03
1.426611964622e-02
3.718168269496e-03
4.189928643642e-03
4.446192882769e-03
8.212831006799e-03
5.896978766436e-03
6.410644873764e-03
3.126660456538e-03
1.522368485599e-03
4.717336687306e-03
1.369806919714e-02
4.784322387732e-03
4.679008378158e-03
3.558845093971e-03
7.230096239282e-03
4.558847345173e-03
4.959519815715e-03
1.100781275161e-02
1.194478916234e-02
1.134140163472e-02
3.132659924773e-03
6.923649631962e-03
6.929573778426e-03
9.224147650633e-03
1.352458873249e-02
1.325615709528e-02
1.330870057398e-02
1.296491973602e-02
1.286987345356e-02
1.254255398242e-02
1.267645149521e-02
1.221897280906e-02
1.245138160020e-02
1.189115494953e-02
1.168506900667e-02
1.134941342287e-02
1.157677058540e-02
1.112563321662e-02
6.975034265629e-03
4.496687623376e-03
4.264250993445e-03
4.618678328061e-03
7.885006467255e-03
1.284103804874e-02
1.347696285228e-02
3.451421065139e-03
1.094602720933e-02
1.085179292257e-02
4.090876529883e-03
1.005050868076e-02
1.318518887210e-02
1.277609800990e-02
1.311087380387e-02
1.388430179602e-02
1.382526542614e-02
8.305415826767e-03
3.580204177253e-03
3.811813069567e-03
3.501666185493e-03
1.204931657844e-02
6.709726709648e-03
5.917175956086e-03
5.686271489487e-03
5.157118737018e-03
6.205179783627e-03
1.217507507398e-02
1.180338901413e-02
2.974625965052e-03
2.755916937064e-03
2.299205094842e-03
2.491401442447e-03
3.020659846624e-03
2.723260560452e-03
2.253236550153e-03
2.986963469707e-03
1.049135831910e-02
5.928849659186e-03
2.567907674706e-03
2.284305616376e-03
2.011002633990e-03
2.635493633844e-03
2.643158371178e-03
2.838943995261e-03
2.594288476015e-03
6.716472679459e-03
5.839131199690e-03
2.369359537534e-03
2.476596965511e-03
1.301464061893e-02
1.340246932664e-02
1.335592081652e-02
1.352912605325e-02
1.338563838744e-02
3.231559951323e-03
3.430570831381e-03
3.333659069906e-03
3.622035501943e-03
3.497590323718e-03
3.231487149552e-03
3.799620623922e-03
3.634560404029e-03
1.281882568218e-02
2.934056565446e-03
3.392043087633e-03
2.530736486067e-03
3.442606967832e-03
4.011064668711e-03
3.830577530988e-03
4.338321071992e-03
4.037167163478e-03
1.158015613612e-03
1.819969341371e-03
6.578928591384e-04
1.306318591461e-03
2.230007907635e-03
1.875620323936e-03
5.954945713243e-03
2.837164471575e-03
2.694242744956e-03
2.424386846615e-03
2.558369248051e-03
2.942209916623e-03
2.269888986289e-03
2.162021109804e-03
5.488645658479e-04
3.767293441748e-04
3.888354653784e-04
5.427259890721e-04
5.480312301444e-04
3.680419511620e-04
3.556873224870e-04
4.727145440556e-04
3.575991535785e-04
6.294948722784e-04
4.381958111189e-04
1.391858170655e-02
1.403093088935e-02
5.748138519407e-03
1.276732303790e-02
2.701748445489e-04
1.441317498714e-02
1.439699573451e-02
1.440940332907e-02
5.418471740046e-03
5.587691960545e-03
1.440933230718e-02
2.174194542483e-03
1.306761220448e-02
1.430421849806e-02
4.239678306274e-03
2.513553915438e-03
4.263664562223e-03
3.382143596220e-03
4.908618985515e-03
3.822791168383e-03
4.393549165713e-03
5.438633899622e-03
1.118074478156e-03
1.371938958149e-02
1.348483846469e-02
1.411824760149e-02
2.075898100378e-03
3.068391614792e-03
1.477179474668e-03
9.786087888997e-03
9.038298088878e-03
2.063636658938e-03
2.471407700608e-03
2.292377353574e-03
2.744147411737e-03
5.068395097852e-03
2.426793431549e-03
3.601072795787e-03
1.417515517926e-02
2.811083141493e-04
3.744406207389e-03
2.824005891583e-03
1.393586807113e-02
4.403127267744e-03
3.506145904114e-03
1.425912716726e-02
1.414123526870e-02
1.370544650165e-02
1.100842186190e-03
1.339731356223e-02
4.810810609616e-03
1.375367749839e-02
1.896854982670e-03
2.068087150571e-03
6.756240366665e-03
1.172367313055e-02
1.435781642423e-02
4.431107067960e-03
4.437345898127e-03
2.798268761800e-03
1.997183527346e-03
4.378752256586e-03
2.950087425389e-03
1.435479970182e-02
8.468167241112e-03
2.165148620030e-03
1.421909825176e-02
1.816202914810e-03
5.041732811001e-03
8.374066978170e-03
7.864195230401e-03
1.030530929939e-02
6.096588711175e-03
4.128287008216e-03
4.064097733844e-03
4.499316969485e-03
4.932800080723e-03
1.389032213089e-02
8.252412586538e-03
1.439604742209e-02
6.604187725060e-03
4.227443408265e-03
1.424802774791e-02
2.623054342165e-03
1.298782215006e-03
4.430318216391e-03
2.763861869512e-03
3.833449173238e-03
2.832275201213e-03
1.358137609126e-02
4.523174983649e-03
3.371792319108e-03
4.608821594513e-03
1.118188551646e-02
4.805778081058e-03
2.007107112365e-03
4.976144207407e-03
3.353776892257e-03
9.293718311570e-03
8.588991102452e-03
5.076732698323e-03
3.491753294876e-03
3.665481671571e-03
1.262157405280e-02
5.563011366498e-03
4.095487506935e-03
6.382685314803e-03
1.770562987152e-03
1.032907205475e-02
3.085468518468e-03
8.550532521007e-03
1.403135241948e-02
4.542784369697e-03
1.268489894543e-02
3.063535797295e-03
4.832863765250e-03
5.700401371730e-04
9.839795481744e-03
3.290358283318e-03
2.487936128430e-03
1.862555816342e-03
7.016301284543e-03
3.513351503177e-03
2.122752691572e-03
3.727954354637e-03
9.135495093352e-03
1.230464599847e-02
3.932759049332e-03
8.833960905679e-03
7.413987864443e-04
6.033421665332e-03
5.197811441221e-03
2.318057357037e-03
2.041401809236e-03
1.241940123560e-02
8.071587925548e-03
2.398653723048e-03
9.158507033020e-03
5.736664536043e-03
4.096403418421e-03
2.850792741097e-03
7.480694979169e-03
2.229975414631e-03
2.106746150667e-03
1.915331447553e-03
9.843365499375e-03
8.587043781499e-04
1.150987390078e-02
1.987700662858e-03
2.068181253220e-03
5.982992253256e-03
1.346011527422e-02
1.942831344719e-03
1.647527771481e-03
2.160612015957e-03
4.429207721385e-03
2.085024294779e-03
2.259548183796e-03
1.438161357271e-02
2.224331573317e-03
1.442321062390e-02
6.019395503317e-03
1.287524887836e-02
7.240829986748e-03
2.894028866908e-03
6.376236396035e-03
2.416608222749e-03
1.052927184554e-02
1.289212574301e-02
2.368535989305e-03
1.205784707591e-02
9.163725004716e-03
1.382850498979e-02
4.981056366805e-03
5.498204207317e-03
1.423633527487e-02
1.263006984756e-02
9.746456078452e-04
4.329249890834e-03
6.406542177513e-03
5.640635021866e-03
5.034570228753e-03
2.085846171202e-03
2.773364107118e-03
5.728307805259e-03
6.147267130951e-03
1.311296961476e-02
6.646817720341e-03
5.039139734030e-03
1.422828629076e-02
7.875534190408e-03
5.834143068676e-03
7.188720751675e-03
4.653950982486e-03
1.360787095080e-02
1.025416103379e-02
1.401332075283e-02
5.924599304675e-03
1.321232362770e-02
1.436835949066e-02
4.506490982444e-03
1.435508542401e-02
1.078708907659e-02
1.332287542933e-02
1.325798021618e-02
5.746295210360e-03
1.285188557365e-02
4.613416926205e-03
1.383978178398e-02
2.544162567212e-03
4.085124815154e-03
5.294562874161e-03
1.105758087288e-02
5.663354708047e-03
5.210996399349e-04
4.921055888791e-04
5.361911371301e-03
1.129135299150e-02
4.129934351884e-03
1.431349482536e-02
4.543160633579e-03
1.261791936270e-02
3.641312992768e-04
5.966980934147e-03
1.439555358762e-02
2.806648582777e-03
1.316918594544e-02
1.878287875247e-03
8.649802557743e-03
1.679511070097e-03
1.440184584057e-02
5.511902519424e-03
1.380228738238e-02
7.614216730398e-03
3.815323686834e-03
8.469900074745e-03
5.101321305588e-03
1.261588529237e-02
1.331396202038e-02
2.316783120751e-03
9.658365683925e-04
1.442829680091e-02
6.535014930613e-04
1.259181132812e-02
6.111660265517e-03
8.037935934974e-04
1.310828235370e-02
1.171551897386e-02
3.445161352791e-03
1.415767496388e-02
3.340596743439e-03
2.937417590195e-03
1.360659543303e-02
7.592965725556e-03
1.413267054887e-02
1.346803190598e-02
4.482970423513e-03
1.130577688379e-02
3.003288553838e-03
9.683602665076e-03
5.537315518060e-03
4.483159592912e-03
3.705996292562e-03
3.651627582577e-04
5.529929676726e-03
3.144295530609e-03


CELL_DATA 1919

SCALARS element_number int
LOOKUP_TABLE default
407
408
409
410
411
412
413
414
415
416
417
418
419
420
421
422
423
424
425
426
427
428
429
430
431
432
433
434
435
436
437
438
439
440
441
442
443
444
445
446
447
448
449
450
451
452
453
454
455
456
457
458
459
460
461
462
463
464
465
466
467
468
469
470
471
472
473
474
475
476
477
478
479
480
481
482
483
484
485
486
487
488
489
490
491
492
493
494
495
496
497
498
499
500
501
502
503
504
505
506
507
508
509
510
511
512
513
514
515
516
517
518
519
520
521
522
523
524
525
526
527
528
529
530
531
532
533
534
535
536
537
538
539
540
541
542
543
544
545
546
547
548
549
550
551
552
553
554
555
556
557
558
559
560
561
562
563
564
565
566
567
568
569
570
571
572
573
574
575
576
577
578
579
580
581
582
583
584
585
586
587
588
589
590
591
592
593
594
595
596
597
598
599
600
601
602
603
604
605
606
607
608
609
610
611
612
613
614
615
616
617
618
619
620
621
622
623
624
625
626
627
628
629
630
631
632
633
634
635
636
637
638
639
640
641
642
643
644
645
646
647
648
649
650
651
652
653
654
655
656
657
658
659
660
661
662
663
664
665
666
667
668
669
670
671
672
673
674
675
676
677
678
679
680
681
682
683
684
685
686
687
688
689
690
691
692
693
694
695
696
697
698
699
700
701
702
703
704
705
706
707
708
709
710
711
712
713
714
715
716
717
718
719
720
721
722
723
724
725
726
727
728
729
730
731
732
733
734
735
736
737
738
739
740
741
742
743
744
745
746
747
748
749
750
751
752
753
754
755
756
757
758
759
760
761
762
763
764
765
766
767
768
769
770
771
772
773
774
775
776
777
778
779
780
781
782
783
784
785
786
787
788
789
790
791
792
793
794
795
796
797
798
799
800
801
802
803
804
805
806
807
808
809
810
811
812
813
814
815
816
817
818
819
820
821
822
823
824
825
826
827
828
829
830
831
832
833
834
835
836
837
838
839
840
841
842
843
844
845
846
847
848
849
850
851
852
853
854
855
856
857
858
859
860
861
862
863
864
865
866
867
868
869
870
871
872
873
874
875
876
877
878
879
880
881
882
883
884
885
886
887
888
889
890
891
892
893
894
895
896
897
898
899
900
901
902
903
904
905
906
907
908
909
910
911
912
913
914
915
916
917
918
919
920
921
922
923
924
925
926
927
928
929
930
931
932
933
934
935
936
937
938
939
940
941
942
943
944
945
946
947
948
949
950
951
952
953
954
955
956
957
958
959
960
961
962
963
964
965
966
967
968
969
970
971
972
973
974
975
976
977
978
979
980
981
982
983
984
985
986
987
988
989
990
991
992
993
994
995
996
997
998
999
1000
1001
1002
1003
1004
1005
1006
1007
1008
1009
1010
1011
1012
1013
1014
1015
1016
1017
1018
1019
1020
1021
1022
1023
1024
1025
1026
1027
1028
1029
1030
1031
1032
1033
1034
1035
1036
1037
1038
1039
1040
1041
1042
1043
1044
1045
1046
1047
1048
1049
1050
1051
1052
1053
1054
1055
1056
1057
1058
1059
1060
1061
1062
1063
1064
1065
1066
1067
1068
1069
1070
1071
1072
1073
1074
1075
1076
1077
1078
1079
1080
1081
1082
1083
1084
1085
1086
1087
1088
1089
1090
1091
1092
1093
1094
1095
1096
1097
1098
1099
1100
1101
1102
1103
1104
1105
1106
1107
1108
1109
1110
1111
1112
1113
1114
1115
1116
1117
1118
1119
1120
1121
1122
1123
1124
1125
1126
1127
1128
1129
1130
1131
1132
1133
1134
1135
1136
1137
1138
1139
1140
1141
1142
1143
1144
1145
1146
1147
1148
1149
1150
1151
1152
1153
1154
1155
1156
1157
1158
1159
1160
1161
1162
1163
1164
1165
1166
1167
1168
1169
1170
1171
1172
1173
1174
1175
1176
1177
1178
1179
1180
1181
1182
1183
1184
1185
1186
1187
1188
1189
1190
1191
1192
1193
1194
1195
1196
1197
1198
1199
1200
1201
1202
1203
1204
1205
1206
1207
1208
1209
1210
1211
1212
1213
1214
1215
1216
1217
1218
1219
1220
1221
1222
1223
1224
1225
1226
1227
1228
1229
1230
1231
1232
1233
1234
1235
1236
1237
1238
1239
1240
1241
1242
1243
1244
1245
1246
1247
1248
1249
1250
1251
1252
1253
1254
1255
1256
1257
1258
1259
1260
1261
1262
1263
1264
1265
1266
1267
1268
1269
1270
1271
1272
1273
1274
1275
1276
1277
1278
1279
1280
1281
1282
1283
1284
1285
1286
1287
1288
1289
1290
1291
1292
1293
1294
1295
1296
1297
1298
1299
1300
1301
1302
1303
1304
1305
1306
1307
1308
1309
1310
1311
1312
1313
1314
1315
1316
1317
1318
1319
1320
1321
1322
1323
1324
1325
1326
1327
1328
1329
1330
1331
1332
1333
1334
1335
1336
1337
1338
1339
1340
1341
1342
1343
1344
1345
1346
1347
1348
1349
1350
1351
1352
1353
1354
1355
1356
1357
1358
1359
1360
1361
1362
1363
1364
1365
1366
1367
1368
1369
1370
1371
1372
1373
1374
1375
1376
1377
1378
1379
1380
1381
1382
1383
1384
1385
1386
1387
1388
1389
1390
1391
1392
1393
1394
1395
1396
1397
1398
1399
1400
1401
1402
1403
1404
1405
1406
1407
1408
1409
1410
1411
1412
1413
1414
1415
1416
1417
1418
1419
1420
1421
1422
1423
1424
1425
1426
1427
1428
1429
1430
1431
1432
1433
1434
1435
1436
1437
1438
1439
1440
1441
1442
1443
1444
1445
1446
1447
1448
1449
1450
1451
1452
1453
1454
1455
1456
1457
1458
1459
1460
1461
1462
1463
1464
1465
1466
1467
1468
1469
1470
1471
1472
1473
1474
1475
1476
1477
1478
1479
1480
1481
1482
1483
1484
1485
1486
1487
1488
1489
1490
1491
1492
1493
1494
1495
1496
1497
1498
1499
1500
1501
1502
1503
1504
1505
1506
1507
1508
1509
1510
1511
1512
1513
1514
1515
1516
1517
1518
1519
1520
1521
1522
1523
1524
1525
1526
1527
1528
1529
1530
1531
1532
1533
1534
1535
1536
1537
1538
1539
1540
1541
1542
1543
1544
1545
1546
1547
1548
1549
1550
1551
1552
1553
1554
1555
1556
1557
1558
1559
1560
1561
1562
1563
1564
1565
1566
1567
1568
1569
1570
1571
1572
1573
1574
1575
1576
1577
1578
1579
1580
1581
1582
1583
1584
1585
1586
1587
1588
1589
1590
1591
1592
1593
1594
1595
1596
1597
1598
1599
1600
1601
1602
1603
1604
1605
1606
1607
1608
1609
1610
1611
1612
1613
1614
1615
1616
1617
1618
1619
1620
1621
1622
1623
1624
1625
1626
1627
1628
1629
1630
1631
1632
1633
1634
1635
1636
1637
1638
1639
1640
1641
1642
1643
1644
1645
1646
1647
1648
1649
1650
1651
1652
1653
1654
1655
1656
1657
1658
1659
1660
1661
1662
1663
1664
1665
1666
1667
1668
1669
1670
1671
1672
1673
1674
1675
1676
1677
1678
1679
1680
1681
1682
1683
1684
1685
1686
1687
1688
1689
1690
1691
1692
1693
1694
1695
1696
1697
1698
1699
1700
1701
1702
1703
1704
1705
1706
1707
1708
1709
1710
1711
1712
1713
1714
1715
1716
1717
1718
1719
1720
1721
1722
1723
1724
1725
1726
1727
1728
1729
1730
1731
1732
1733
1734
1735
1736
1737
1738
1739
1740
1741
1742
1743
1744
1745
1746
1747
1748
1749
1750
1751
1752
1753
1754
1755
1756
1757
1758
1759
1760
1761
1762
1763
1764
1765
1766
1767
1768
1769
1770
1771
1772
1773
1774
1775
1776
1777
1778
1779
1780
1781
1782
1783
1784
1785
1786
1787
1788
1789
1790
1791
1792
1793
1794
1795
1796
1797
1798
1799
1800
1801
1802
1803
1804
1805
1806
1807
1808
1809
1810
1811
1812
1813
1814
1815
1816
1817
1818
1819
1820
1821
1822
1823
1824
1825
1826
1827
1828
1829
1830
1831
1832
1833
1834
1835
1836
1837
1838
1839
1840
1841
1842
1843
1844
1845
1846
1847
1848
1849
1850
1851
1852
1853
1854
1855
1856
1857
1858
1859
1860
1861
1862
1863
1864
1865
1866
1867
1868
1869
1870
1871
1872
1873
1874
1875
1876
1877
1878
1879
1880
1881
1882
1883
1884
1885
1886
1887
1888
1889
1890
1891
1892
1893
1894
1895
1896
1897
1898
1899
1900
1901
1902
1903
1904
1905
1906
1907
1908
1909
1910
1911
1912
1913
1914
1915
1916
1917
1918
1919
1920
1921
1922
1923
1924
1925
1926
1927
1928
1929
1930
1931
1932
1933
1934
1935
1936
1937
1938
1939
1940
1941
1942
1943
1944
1945
1946
1947
1948
1949
1950
1951
1952
1953
1954
1955
1956
1957
1958
1959
1960
1961
1962
1963
1964
1965
1966
1967
1968
1969
1970
1971
1972
1973
1974
1975
1976
1977
1978
1979
1980
1981
1982
1983
1984
1985
1986
1987
1988
1989
1990
1991
1992
1993
1994
1995
1996
1997
1998
1999
2000
2001
2002
2003
2004
2005
2006
2007
2008
2009
2010
2011
2012
2013
2014
2015
2016
2017
2018
2019
2020
2021
2022
2023
2024
2025
2026
2027
2028
2029
2030
2031
2032
2033
2034
2035
2036
2037
2038
2039
2040
2041
2042
2043
2044
2045
2046
2047
2048
2049
2050
2051
2052
2053
2054
2055
2056
2057
2058
2059
2060
2061
2062
2063
2064
2065
2066
2067
2068
2069
2070
2071
2072
2073
2074
2075
2076
2077
2078
2079
2080
2081
2082
2083
2084
2085
2086
2087
2088
2089
2090
2091
2092
2093
2094
2095
2096
2097
2098
2099
2100
2101
2102
2103
2104
2105
2106
2107
2108
2109
2110
2111
2112
2113
2114
2115
2116
2117
2118
2119
2120
2121
2122
2123
2124
2125
2126
2127
2128
2129
2130
2131
2132
2133
2134
2135
2136
2137
2138
2139
2140
2141
2142
2143
2144
2145
2146
2147
2148
2149
2150
2151
2152
2153
2154
2155
2156
2157
2158
2159
2160
2161
2162
2163
2164
2165
2166
2167
2168
2169
2170
2171
2172
2173
2174
2175
2176
2177
2178
2179
2180
2181
2182
2183
2184
2185
2186
2187
2188
2189
2190
2191
2192
2193
2194
2195
2196
2197
2198
2199
2200
2201
2202
2203
2204
2205
2206
2207
2208
2209
2210
2211
2212
2213
2214
2215
2216
2217
2218
2219
2220
2221
2222
2223
2224
2225
2226
2227
2228
2229
2230
2231
2232
2233
2234
2235
2236
2237
2238
2239
2240
2241
2242
2243
2244
2245
2246
2247
2248
2249
2250
2251
2252
2253
2254
2255
2256
2257
2258
2259
2260
2261
2262
2263
2264
2265
2266
2267
2268
2269
2270
2271
2272
2273
2274
2275
2276
2277
2278
2279
2280
2281
2282
2283
2284
2285
2286
2287
2288
2289
2290
2291
2292
2293
2294
2295
2296
2297
2298
2299
2300
2301
2302
2303
2304
2305
2306
2307
2308
2309
2310
2311
2312
2313
2314
2315
2316
2317
2318
2319
2320
2321
2322
2323
2324
2325

SCALARS element_group int
LOOKUP_TABLE default
0
0
0
0
0
0
0
0
0
0
0
0
0
0
0
0
0
0
0
0
0
0
0
0
0
0
0
0
0
0
0
0
0
0
0
0
0
0
0
0
0
0
0
0
0
0
0
0
0
0
0
0
0
0
0
0
0
0
0
0
0
0
0
0
0
0
0
0
0
0
0
0
0
0
0
0
0
0
0
0
0
0
0
0
0
0
0
0
0
0
0
0
0
0
0
0
0
0
0
0
0
0
0
0
0
0
0
0
0
0
0
0
0
0
0
0
0
0
0
0
0
0
0
0
0
0
0
0
0
0
0
0
0
0
0
0
0
0
0
0
0
0
0
0
0
0
0
0
0
0
0
0
0
0
0
0
0
0
0
0
0
0
0
0
0
0
0
0
0
0
0
0
0
0
0
0
0
0
0
0
0
0
0
0
0
0
0
0
0
0
0
0
0
0
0
0
0
0
0
0
0
0
0
0
0
0
0
0
0
0
0
0
0
0
0
0
0
0
0
0
0
0
0
0
0
0
0
0
0
0
0
0
0
0
0
0
0
0
0
0
0
0
0
0
0
0
0
0
0
0
0
0
0
0
0
0
0
0
0
0
0
0
0
0
0
0
0
0
0
0
0
0
0
0
0
0
0
0
0
0
0
0
0
0
0
0
0
0
0
0
0
0
0
0
0
0
0
0
0
0
0
0
0
0
0
0
0
0
0
0
0
0
0
0
0
0
0
0
0
0
0
0
0
0
0
0
0
0
0
0
0
0
0
0
0
0
0
0
0
0
0
0
0
0
0
0
0
0
0
0
0
0
0
0
0
0
0
0
0
0
0
0
0
0
0
0
0
0
0
0
0
0
0
0
0
0
0
0
0
0
0
0
0
0
0
0
0
0
0
0
0
0
0
0
0
0
0
0
0
0
0
0
0
0
0
0
0
0
0
0
0
0
0
0
0
0
0
0
0
0
0
0
0
0
0
0
0
0
0
0
0
0
0
0
0
0
0
0
0
0
0
0
0
0
0
0
0
0
0
0
0
0
0
0
0
0
0
0
0
0
0
0
0
0
0
0
0
0
0
0
0
0
0
0
0
0
0
0
0
0
0
0
0
0
0
0
0
0
0
0
0
0
0
0
0
0
0
0
0
0
0
0
0
0
0
0
0
0
0
0
0
0
0
0
0
0
0
0
0
0
0
0
0
0
0
0
0
0
0
0
0
0
0
0
0
0
0
0
0
0
0
0
0
0
0
0
0
0
0
0
0
0
0
0
0
0
0
0
0
0
0
0
0
0
0
0
0
0
0
0
0
0
0
0
0
0
0
0
0
0
0
0
0
0
0
0
0
0
0
0
0
0
0
0
0
0
0
0
0
0
0
0
0
0
0
0
0
0
0
0
0
0
0
0
0
0
0
0
0
0
0
0
0
0
0
0
0
0
0
0
0
0
0
0
0
0
0
0
0
0
0
0
0
0
0
0
0
0
0
0
0
0
0
0
0
0
0
0
0
0
0
0
0
0
0
0
0
0
0
0
0
0
0
0
0
0
0
0
0
0
0
0
0
0
0
0
0
0
0
0
0
0
0
0
0
0
0
0
0
0
0
0
0
0
0
0
0
0
0
0
0
0
0
0
0
0
0
0
0
0
0
0
0
0
0
0
0
0
0
0
0
0
0
0
0
0
0
0
0
0
0
0
0
0
0
0
0
0
0
0
0
0
0
0
0
0
0
0
0
0
0
0
0
0
0
0
0
0
0
0
0
0
0
0
0
0
0
0
0
0
0
0
0
0
0
0
0
0
0
0
0
0
0
0
0
0
0
0
0
0
0
0
0
0
0
0
0
0
0
0
0
0
0
0
0
0
0
0
0
0
0
0
0
0
0
0
0
0
0
0
0
0
0
0
0
0
0
0
0
0
0
0
0
0
0
0
0
0
0
0
0
0
0
0
0
0
0
0
0
0
0
0
0
0
0
0
0
0
0
0
0
0
0
0
0
0
0
0
0
0
0
0
0
0
0
0
0
0
0
0
0
0
0
0
0
0
0
0
0
0
0
0
0
0
0
0
0
0
0
0
0
0
0
0
0
0
0
0
0
0
0
0
0
0
0
0
0
0
0
0
0
0
0
0
0
0
0
0
0
0
0
0
0
0
0
0
0
0
0
0
0
0
0
0
0
0
0
0
0
0
0
0
0
0
0
0
0
0
0
0
0
0
0
0
0
0
0
0
0
0
0
0
0
0
0
0
0
0
0
0
0
0
0
0
0
0
0
0
0
0
0
0
0
0
0
0
0
0
0
0
0
0
0
0
0
0
0
0
0
0
0
0
0
0
0
0
0
0
0
0
0
0
0
0
0
0
0
0
0
0
0
0
0
0
0
0
0
0
0
0
0
0
0
0
0
0
0
0
0
0
0
0
0
0
0
0
0
0
0
0
0
0
0
0
0
0
0
0
0
0
0
0
0
0
0
0
0
0
0
0
0
0
0
0
0
0
0
0
0
0
0
0
0
0
0
0
0
0
0
0
0
0
0
0
0
0
0
0
0
0
0
0
0
0
0
0
0
0
0
0
0
0
0
0
0
0
0
0
0
0
0
0
0
0
0
0
0
0
0
0
0
0
0
0
0
0
0
0
0
0
0
0
0
0
0
0
0
0
0
0
0
0
0
0
0
0
0
0
0
0
0
0
0
0
0
0
0
0
0
0
0
0
0
0
0
0
0
0
0
0
0
0
0
0
0
0
0
0
0
0
0
0
0
0
0
0
0
0
0
0
0
0
0
0
0
0
0
0
0
0
0
0
0
0
0
0
0
0
0
0
0
0
0
0
0
0
0
0
0
0
0
0
0
0
0
0
0
0
0
0
0
0
0
0
0
0
0
0
0
0
0
0
0
0
0
0
0
0
0
0
0
0
0
0
0
0
0
0
0
0
0
0
0
0
0
0
0
0
0
0
0
0
0
0
0
0
0
0
0
0
0
0
0
0
0
0
0
0
0
0
0
0
0
0
0
0
0
0
0
0
0
0
0
0
0
0
0
0
0
0
0
0
0
0
0
0
0
0
0
0
0
0
0
0
0
0
0
0
0
0
0
0
0
0
0
0
0
0
0
0
0
0
0
0
0
0
0
0
0
0
0
0
0
0
0
0
0
0
0
0
0
0
0
0
0
0
0
0
0
0
0
0
0
0
0
0
0
0
0
0
0
0
0
0
0
0
0
0
0
0
0
0
0
0
0
0
0
0
0
0
0
0
0
0
0
0
0
0
0
0
0
0
0
0
0
0
0
0
0
0
0
0
0
0
0
0
0
0
0
0
0
0
0
0
0
0
0
0
0
0
0
0
0
0
0
0
0
0
0
0
0
0
0
0
0
0
0
0
0
0
0
0
0
0
0
0
0
0
0
0
0
0
0
0
0
0
0
0
0
0
0
0
0
0
0
0
0
0
0
0
0
0
0
0
0
0
0
0
0
0
0
0
0
0
0
0
0
0
0
0
0
0
0
0
0
0
0
0
0
0
0
0
0
0
0
0
0
0
0
0
0
0
0
0
0
0
0
0
0
0
0
0
0
0
0
0
0
0
0
0
0
0
0
0
0
0
0
0
0
0
0
0
0
0
0
0
0
0
0
0
0
0
0
0
0
0
0
0
0
0
0
0
0
0
0
0
0
0
0
0
0
0
0
0
0
0
0
0
0
0
0
0
0
0
0
0
0
0
0
0
0
0
0
0
0
0
0
0
0
0
0
0
0
0
0
0
0
0
0
0
0
0
0
0
0
0
0
0
0
0
0
0
0
0
0
0
0
0
0
0
0
0
0
0
0
0
0
0
0
0
0
0
0
0
0
0
0
0
0
0
0
0
0
0
0
0
0
0
0
0
0
0
0
0
0
0
0
0
0
0
0
0
0
0
0
0
0
0
0
0
0
0
0
0
0
0
0
0
0
0
0
0
0
0
0
0
0
0
0
0
0
0
0
0
0
0
0
0
0
0
0
0
0
0
0
0
0
0
0
0
0
0
0
0
0
0
0
0
0
0
0
0
0
0
0
0
0
0
0
0
0
0
0
0
0
0
0
0
0
0
0
0
0
0
0
0
0
0
0
0
0
0
0
0
0
0
0
0
0
0
0
0
0
0
0
0
0
0
0
0
0
0
0
0
0
0
0
0
0
0
0
0
0
0
0
0
0
0
0
0
0
0
0
0
0
0
0
0
0
0
0
0
0
0
0
0
0
0
0
0
0
0
0
0
0
0
0
0
0
0
0
0
0
0
0
0
0
0
0
0
0
0
0
0
0
0
0
0
0
0
0
0
0
0
0
0
0
0
0
0
0
0
0
0
0
0
0
0
0


VECTORS element_materi_velocity float
5.565734235993e-04 1.753303537968e-04 0.0 
5.801931093893e-04 1.108925712461e-04 0.0 
7.765657624602e-04 3.772806876948e-04 0.0 
1.593361718589e-04 1.496452484749e-03 0.0 
9.326965082188e-04 8.373864179523e-03 0.0 
3.802866991421e-04 -2.615586085698e-04 0.0 
7.322988967433e-04 8.392983810269e-03 0.0 
5.395432316376e-04 5.156483515913e-05 0.0 
7.983713162779e-04 8.423466750630e-03 0.0 
2.367969720532e-04 1.526116292449e-03 0.0 
2.869684574404e-05 -3.328753908500e-05 0.0 
4.924210880667e-04 5.117786613624e-05 0.0 
1.052055880377e-05 2.072893760889e-06 0.0 
1.678258090981e-03 6.694598511734e-03 0.0 
8.569493713329e-06 2.042529533715e-06 0.0 
1.312480407784e-04 1.053270408115e-03 0.0 
1.086845927041e-03 8.432338622073e-03 0.0 
3.802354322964e-04 -2.689173126773e-04 0.0 
4.478921222374e-05 -1.414327765819e-04 0.0 
3.316024430351e-05 -1.356571426132e-04 0.0 
2.838543177659e-04 1.559409793155e-03 0.0 
6.672754584561e-04 3.813009795522e-04 0.0 
7.491278227802e-04 4.043878133952e-04 0.0 
1.831240666424e-04 -6.783448808408e-07 0.0 
2.232861637532e-03 4.850031168154e-03 0.0 
3.089488892064e-05 -2.782084169893e-05 0.0 
1.486426452189e-03 6.309268572370e-03 0.0 
4.261915487249e-04 7.242548719427e-05 0.0 
2.336411103154e-03 4.486796477736e-03 0.0 
1.472499547908e-04 2.032312938462e-06 0.0 
3.550749325872e-04 -2.779020587020e-04 0.0 
2.467495230821e-04 -2.361968347117e-04 0.0 
9.367817862329e-04 4.925289047807e-04 0.0 
7.975333890197e-06 -6.104332877305e-06 0.0 
6.226459575275e-05 6.887744085665e-07 0.0 
1.641711641377e-05 1.138344211250e-06 0.0 
1.493820107513e-05 1.164007600197e-06 0.0 
2.182110243393e-04 1.640836613907e-05 0.0 
5.772077316296e-04 9.369931955057e-03 0.0 
5.313548543506e-04 9.389266479211e-03 0.0 
1.043646680885e-03 8.348910542250e-04 0.0 
6.292801507557e-05 1.706219770917e-06 0.0 
4.491062821416e-04 -5.872505095982e-05 0.0 
1.929535151837e-03 5.384211706868e-03 0.0 
8.134490682477e-05 2.132799890279e-03 0.0 
4.541938690102e-04 -9.401294981278e-05 0.0 
3.492328323986e-04 -2.813621308687e-04 0.0 
9.385560640912e-05 1.807560624406e-03 0.0 
3.352114342618e-04 -2.834376838016e-04 0.0 
1.504770862003e-03 7.272729143623e-03 0.0 
8.725688961311e-04 5.900240943911e-04 0.0 
3.975393972514e-05 -1.295976532593e-04 0.0 
3.810260331101e-04 -2.701890386921e-04 0.0 
8.986776425124e-04 7.655037275098e-04 0.0 
7.964903298112e-04 6.188341626122e-04 0.0 
5.894141602103e-05 -1.140544194703e-04 0.0 
3.039904555030e-05 -1.242571066421e-04 0.0 
1.617999381379e-05 -6.502570946550e-06 0.0 
1.111939758567e-04 -1.681972291296e-04 0.0 
1.592462204367e-04 1.059427943665e-03 0.0 
3.446744197846e-04 -2.883334428073e-04 0.0 
4.976330304231e-04 4.989442981768e-05 0.0 
8.145057419268e-04 -1.274621817498e-05 0.0 
3.696132485808e-04 -2.722779964018e-04 0.0 
1.725265171640e-05 1.934981905947e-06 0.0 
7.605702610271e-04 5.496887535012e-04 0.0 
3.492420948809e-04 -2.873765652581e-04 0.0 
8.884164925063e-04 4.062804271917e-04 0.0 
2.873941558485e-04 -2.405468007725e-04 0.0 
5.370669085112e-04 1.507927165923e-04 0.0 
4.545058751448e-05 -2.343153531874e-05 0.0 
1.698152247812e-04 2.591088997512e-04 0.0 
5.589595423158e-04 8.822906112273e-05 0.0 
1.031831594582e-05 -1.674360854890e-04 0.0 
5.074792872244e-05 -1.079001488690e-04 0.0 
5.851573818979e-04 1.278714340807e-03 0.0 
9.500275479624e-04 7.103475285518e-04 0.0 
4.105304763763e-04 -1.711807780876e-04 0.0 
1.209154707096e-04 -1.683573744205e-04 0.0 
4.076299651490e-04 -1.477512500702e-04 0.0 
2.995608157483e-04 -2.462871516773e-04 0.0 
1.099193410152e-03 8.251445471051e-03 0.0 
6.602451864959e-04 2.653043556562e-04 0.0 
5.882603554276e-04 2.545761919286e-04 0.0 
9.561803957720e-04 7.821691792700e-03 0.0 
8.805942551183e-04 7.824460582427e-03 0.0 
2.608188396612e-05 -1.798172267264e-05 0.0 
4.371162477266e-06 -9.090928164104e-06 0.0 
1.839141452681e-03 8.808318213902e-04 0.0 
1.001948820660e-03 8.288784183311e-03 0.0 
2.553204377777e-04 -2.390400357604e-04 0.0 
2.151661730247e-03 5.293669811729e-03 0.0 
2.214949653509e-04 4.296375021861e-03 0.0 
2.628469797987e-04 4.648641777173e-03 0.0 
3.347374525642e-04 4.681988858918e-04 0.0 
1.594242492449e-04 1.541438195447e-05 0.0 
1.209663539802e-03 8.079479810854e-03 0.0 
7.195357115225e-05 1.151353699178e-06 0.0 
1.391238283005e-04 6.841994900374e-03 0.0 
7.595699827094e-04 1.677614218139e-05 0.0 
8.498958910940e-04 8.881219253133e-03 0.0 
1.102792680056e-05 2.018708150410e-06 0.0 
7.409802956215e-04 -1.092277587161e-05 0.0 
4.688158358134e-04 4.176575202401e-05 0.0 
6.432709318414e-04 -1.539105376560e-04 0.0 
3.390059903959e-04 -2.803448508263e-04 0.0 
1.267478468115e-05 3.693702798707e-07 0.0 
2.322922180339e-04 3.695567533265e-03 0.0 
3.384096775694e-04 -2.867225952888e-04 0.0 
2.078008165978e-05 1.785574926065e-06 0.0 
1.922116796178e-03 9.047894660956e-04 0.0 
1.502651618540e-05 -1.734110869863e-04 0.0 
8.398926247753e-04 -1.554739473494e-04 0.0 
2.114024422163e-03 2.755488884472e-03 0.0 
7.896748640614e-05 -9.446633019883e-05 0.0 
6.869684181931e-04 -5.449065196066e-06 0.0 
7.938765630532e-04 -5.804332383668e-05 0.0 
4.337672660584e-05 1.598849743319e-06 0.0 
1.719572964001e-04 7.263019118493e-03 0.0 
7.245238079043e-04 -7.682472733692e-05 0.0 
2.505419176438e-04 -2.232196384417e-04 0.0 
2.162787604465e-03 4.974229161043e-03 0.0 
1.866138586242e-04 3.384899733649e-03 0.0 
7.116038279602e-04 -1.119837555644e-04 0.0 
3.785835825202e-04 -2.220780132740e-04 0.0 
1.563541873418e-03 1.575207983909e-03 0.0 
7.030382399108e-05 -9.645634490884e-05 0.0 
1.351720426148e-03 1.440511363220e-03 0.0 
4.528658063980e-04 8.911790230386e-04 0.0 
3.933111575655e-04 -2.300116461958e-04 0.0 
4.337566270823e-05 -2.814993298860e-05 0.0 
1.252659445425e-04 1.483104619901e-03 0.0 
1.214651719601e-03 3.203548883980e-04 0.0 
1.272744140646e-03 1.166627973527e-03 0.0 
6.790605682770e-05 6.391422740609e-07 0.0 
7.198373044561e-06 2.133398554717e-06 0.0 
3.680635922654e-05 -1.850231130044e-05 0.0 
1.334820239173e-03 3.803523348508e-04 0.0 
9.935921537587e-05 2.949283239228e-06 0.0 
1.195124300634e-03 4.994450315517e-04 0.0 
3.399057801279e-04 1.055725447906e-03 0.0 
6.611056177516e-04 1.966815253838e-04 0.0 
1.813236390631e-03 6.404591003682e-03 0.0 
4.763338219924e-04 5.639283183985e-03 0.0 
1.143212294780e-03 3.712679512283e-04 0.0 
1.089603509830e-03 1.061775197728e-03 0.0 
1.382634052795e-03 3.294594072045e-04 0.0 
7.310686827924e-04 -1.550250653494e-04 0.0 
6.706969174352e-04 8.884662959409e-03 0.0 
8.063724755724e-04 -1.739503744687e-04 0.0 
2.354495896351e-04 -2.292097261150e-04 0.0 
1.847894043972e-04 8.181363538935e-03 0.0 
4.294828295819e-05 -1.475993564148e-04 0.0 
1.903927987303e-03 2.133458870980e-03 0.0 
7.843378352169e-05 2.756010253061e-06 0.0 
6.539584166543e-04 -1.258564545442e-04 0.0 
1.935884962477e-05 -1.350895702664e-05 0.0 
4.828284789305e-04 -3.861904033629e-05 0.0 
7.867363086487e-04 -8.617701955955e-07 0.0 
4.073668016302e-04 8.591354263764e-03 0.0 
7.561802352938e-04 -1.883411316724e-04 0.0 
1.790488669499e-05 -3.832689812170e-06 0.0 
2.630279367250e-04 -2.287364738045e-04 0.0 
1.779246828445e-05 2.127618111567e-07 0.0 
2.093653482385e-03 1.840728750418e-03 0.0 
2.383030432707e-05 1.809080589939e-06 0.0 
1.806407836493e-04 8.688444699738e-03 0.0 
6.773401448542e-04 -1.674067982698e-04 0.0 
2.022610548005e-03 2.586466132578e-03 0.0 
1.851783507906e-05 -3.427141316069e-05 0.0 
4.727259454478e-04 4.938186081399e-06 0.0 
7.299506121402e-04 -2.015371107960e-04 0.0 
4.322457715403e-04 5.105820364694e-03 0.0 
4.518964722782e-04 8.925830201384e-03 0.0 
7.593644726461e-04 -1.651629293463e-04 0.0 
1.709111843111e-03 1.954435579268e-03 0.0 
1.306028282541e-03 3.617901882823e-04 0.0 
7.712731300960e-05 -8.607944568067e-05 0.0 
3.251462741413e-04 5.370745634387e-05 0.0 
6.095317004544e-04 1.583496309720e-04 0.0 
6.396795648945e-04 2.438112208710e-05 0.0 
6.688868029856e-05 -8.054420682834e-05 0.0 
2.982062824547e-04 -7.924612902747e-06 0.0 
1.104190753782e-03 5.655145503529e-04 0.0 
5.794328720954e-04 2.467041424825e-06 0.0 
2.129173892095e-03 2.464487209580e-03 0.0 
8.164868273232e-04 -1.500368663443e-04 0.0 
2.392882194480e-04 1.139969718945e-03 0.0 
2.089188538616e-03 1.362162360412e-03 0.0 
1.223585213029e-05 -1.326667868174e-06 0.0 
4.302905324182e-04 -1.365949947242e-04 0.0 
6.644096108750e-04 -2.222077978592e-04 0.0 
1.891556954929e-03 1.006134257944e-03 0.0 
3.377959476037e-04 -2.573261989574e-04 0.0 
1.154465780698e-03 7.321705655136e-04 0.0 
3.053432604873e-04 -2.801854176609e-05 0.0 
1.599036216277e-04 -1.932001547601e-04 0.0 
1.009925345718e-03 6.632956435841e-04 0.0 
2.416261889175e-03 3.076531851455e-03 0.0 
2.891251105172e-04 -1.544523410308e-04 0.0 
3.256806374086e-04 -2.776541859388e-05 0.0 
2.299302175112e-03 4.884208598056e-03 0.0 
2.118188199823e-03 5.449357223033e-03 0.0 
1.359560433296e-04 1.380039332992e-06 0.0 
2.388517694418e-04 -1.716736520141e-04 0.0 
1.345511986723e-03 1.965290025839e-04 0.0 
2.032887668305e-03 1.357391485672e-03 0.0 
2.334472437394e-03 2.930975283186e-03 0.0 
2.202411756972e-03 1.957056670976e-03 0.0 
2.061371753061e-03 2.057086936629e-03 0.0 
7.699505858553e-04 -7.014231023057e-05 0.0 
1.454419258265e-03 4.241975279479e-04 0.0 
3.538363538867e-04 -2.660354241764e-04 0.0 
6.477426830841e-04 8.775580720092e-05 0.0 
7.795807881703e-04 7.666658785454e-05 0.0 
1.314892996442e-03 2.317734088374e-04 0.0 
1.978146793253e-03 1.293934753402e-03 0.0 
4.154748197291e-04 -2.624308287616e-04 0.0 
3.015171948746e-04 -3.776738853460e-05 0.0 
5.080183452008e-04 8.796606892370e-03 0.0 
6.866034370569e-04 -2.127326357996e-04 0.0 
2.933011959281e-04 -4.670610624965e-05 0.0 
2.050870068977e-04 -2.149332701416e-04 0.0 
2.260314855357e-03 2.510866720941e-03 0.0 
2.020257642039e-04 -2.157030488786e-04 0.0 
1.444662418523e-04 -1.846171187030e-04 0.0 
4.271331937048e-04 -1.079143565621e-04 0.0 
2.394728985190e-04 -1.867497933523e-04 0.0 
2.131988870375e-03 2.340719032233e-03 0.0 
2.475661823316e-04 -1.968142130713e-04 0.0 
4.853678005879e-04 -1.887265742573e-04 0.0 
3.444595183888e-04 -2.588119341866e-04 0.0 
2.426321741863e-04 -2.142075214468e-04 0.0 
3.258458734623e-04 -1.713155918513e-05 0.0 
2.009636202603e-03 1.522561734821e-03 0.0 
2.062547447156e-05 1.807377009688e-06 0.0 
3.434482630960e-04 -2.658357869484e-04 0.0 
5.457556071403e-04 -1.946631410526e-04 0.0 
7.460864140226e-04 -1.995936922164e-04 0.0 
9.672629075867e-04 4.927554059456e-04 0.0 
3.219045790552e-04 -3.819662775422e-05 0.0 
2.585502519995e-05 1.692773829019e-06 0.0 
2.215897527559e-03 1.602814235518e-03 0.0 
5.580108107033e-04 -2.451703522746e-04 0.0 
3.052456702086e-04 -1.810910794912e-05 0.0 
2.224533846648e-05 -2.258185540126e-05 0.0 
1.489077135848e-03 3.873908326888e-04 0.0 
2.367281223502e-03 2.386671418799e-03 0.0 
4.288042774369e-04 5.193450014398e-05 0.0 
7.169150520969e-04 -2.081987360850e-04 0.0 
5.170789405125e-04 -1.815057487523e-04 0.0 
2.289029961156e-03 1.801251949889e-03 0.0 
2.756817259170e-04 4.470120135165e-04 0.0 
1.280031423905e-03 1.231717969774e-04 0.0 
7.402618727705e-04 -1.574634250189e-04 0.0 
4.115752739694e-04 7.988703525260e-03 0.0 
3.049765848483e-04 -2.541865197558e-04 0.0 
2.276218093525e-03 2.316543420479e-03 0.0 
5.726008155058e-04 -2.371582353464e-04 0.0 
4.498893565821e-04 -2.631683961941e-04 0.0 
3.669586287812e-04 -2.777641316727e-04 0.0 
2.091496213503e-03 2.545884745644e-03 0.0 
2.129674185658e-03 1.446302168250e-03 0.0 
7.546448810856e-04 -1.276561057558e-04 0.0 
1.930683099827e-03 2.314900904503e-03 0.0 
2.041150928976e-03 1.196680255915e-03 0.0 
1.673358873427e-03 5.778106546404e-04 0.0 
3.013514327178e-05 1.626798867584e-06 0.0 
7.235010169289e-04 -1.442873807625e-04 0.0 
1.857952841515e-03 8.027938628280e-04 0.0 
8.966927633076e-04 -1.371929588933e-04 0.0 
7.413240284303e-04 -1.269958256003e-04 0.0 
4.874515031012e-04 -2.609454544961e-04 0.0 
1.846160905385e-03 6.380006027317e-03 0.0 
6.932194685837e-04 -2.074465520332e-04 0.0 
4.497036929176e-04 -2.473010780531e-04 0.0 
2.250930616687e-03 1.813621838589e-03 0.0 
3.405067764658e-04 -2.724762100424e-04 0.0 
2.362369723863e-03 2.401728643103e-03 0.0 
5.737868120407e-04 -2.449562377762e-04 0.0 
5.379540648205e-04 -2.123827833114e-04 0.0 
4.755962457736e-04 -2.647835483228e-04 0.0 
2.264267697655e-03 1.582926471402e-03 0.0 
2.552165079625e-04 -2.350163352560e-04 0.0 
8.880635548020e-04 1.790431811311e-04 0.0 
7.144819638542e-04 -1.128440061794e-04 0.0 
2.215180994544e-03 1.727800337956e-03 0.0 
2.084118129605e-03 5.773184281829e-03 0.0 
3.927992748918e-04 -2.719121955143e-04 0.0 
4.673584134731e-04 -2.502605132675e-04 0.0 
4.147567364826e-04 -2.488041386530e-04 0.0 
7.150423418436e-04 1.178160655909e-04 0.0 
2.352838647372e-03 2.123929410456e-03 0.0 
8.635371547133e-04 1.047530953181e-04 0.0 
6.603863101554e-04 -2.189942639897e-04 0.0 
6.785854240324e-04 -2.196173167241e-04 0.0 
4.093600684312e-04 -2.690896981036e-04 0.0 
9.104817369213e-04 -1.384032573893e-04 0.0 
4.334518674772e-04 -2.024021097741e-04 0.0 
4.118275439987e-04 3.025514145935e-04 0.0 
4.355383838672e-04 2.393298965263e-04 0.0 
1.295760537087e-03 1.011098263782e-04 0.0 
5.272654458935e-04 -2.506968008139e-04 0.0 
4.987304134269e-04 -2.320527855136e-04 0.0 
1.849505083148e-03 7.093676232540e-04 0.0 
5.099071185598e-04 -2.481191133146e-04 0.0 
4.310868948976e-04 -2.525118120349e-04 0.0 
1.568427748712e-03 5.114606545335e-04 0.0 
4.406041859192e-04 1.276243346479e-03 0.0 
6.265892172001e-04 -2.310990756047e-04 0.0 
8.157133460372e-04 -6.257949542914e-05 0.0 
4.549423879056e-04 -2.131991118961e-04 0.0 
5.170479069295e-05 3.303907886995e-06 0.0 
5.199522208864e-04 -2.386300505846e-04 0.0 
1.509999698971e-03 3.379970821680e-04 0.0 
4.215479410804e-04 -2.715950042387e-04 0.0 
4.798691769266e-04 -8.859937806768e-05 0.0 
7.243867899102e-04 -2.022973435091e-04 0.0 
4.144761712484e-04 -2.394309410068e-04 0.0 
1.942315218715e-03 1.114350217286e-03 0.0 
3.065146580052e-04 1.120581655201e-04 0.0 
6.193384450074e-04 -2.345163178691e-04 0.0 
6.749815404228e-04 -1.157346639625e-04 0.0 
4.514865029064e-04 -2.282732391246e-04 0.0 
1.686688107419e-03 5.389561950003e-03 0.0 
3.132676030465e-04 -4.779737117387e-05 0.0 
5.600839352933e-04 -1.482469716787e-04 0.0 
1.587837402428e-03 5.965119234591e-03 0.0 
2.415068380955e-04 6.140686938333e-05 0.0 
2.685273097939e-04 -2.812805073250e-05 0.0 
3.558820199122e-04 1.484782118647e-04 0.0 
1.980958886181e-03 5.417749266756e-03 0.0 
1.854815612664e-03 7.796772291426e-04 0.0 
4.896646290957e-04 -1.413163242358e-04 0.0 
1.787659688367e-03 1.143757269002e-03 0.0 
1.949519904601e-03 9.878765862546e-04 0.0 
2.031460973902e-03 1.060074832414e-03 0.0 
1.141920610927e-03 2.777888406924e-05 0.0 
1.922396742478e-04 3.905081522577e-05 0.0 
2.362851610042e-03 4.610769317082e-03 0.0 
2.235261957973e-03 2.607615772873e-03 0.0 
6.532240034174e-04 -2.252636361046e-04 0.0 
2.407217263573e-04 -2.010546370064e-04 0.0 
1.829539421745e-03 1.556785438837e-03 0.0 
5.946179847030e-04 -1.644534020727e-04 0.0 
3.460348838129e-04 8.902411582580e-03 0.0 
3.969865511545e-04 -2.346693668666e-04 0.0 
6.068794719475e-04 -2.377612762341e-04 0.0 
2.160688709653e-03 1.926104981788e-03 0.0 
5.847213849862e-04 -1.869961064101e-04 0.0 
1.827369268784e-03 1.022653725492e-03 0.0 
6.440906507635e-04 -1.010913692042e-04 0.0 
3.276929034467e-04 -1.070355930070e-04 0.0 
1.239516684497e-04 1.804276824782e-05 0.0 
1.313260602551e-03 8.262823362371e-04 0.0 
4.796525138322e-04 -2.589210024490e-04 0.0 
2.990053922777e-04 -1.663967859868e-04 0.0 
5.704691102597e-04 -4.366101976698e-05 0.0 
5.654042472416e-04 -1.188429529433e-04 0.0 
1.769490497264e-03 9.505950842411e-04 0.0 
1.596531579313e-03 3.929258266374e-04 0.0 
9.372988469379e-04 3.695640492363e-04 0.0 
1.638861483152e-03 1.032449704425e-03 0.0 
8.261580713912e-05 7.477704440393e-06 0.0 
2.143551696153e-04 1.345114411820e-05 0.0 
1.808042725949e-03 1.072913475202e-03 0.0 
2.275295700219e-03 2.273163654079e-03 0.0 
3.447582497448e-04 -1.201808692421e-04 0.0 
8.957938648913e-04 1.217516620786e-05 0.0 
5.141284527123e-04 -2.563990627313e-04 0.0 
5.562645118310e-04 -2.493570697286e-04 0.0 
1.434175606200e-03 2.448212504302e-04 0.0 
5.094560827439e-04 -1.030012592733e-04 0.0 
1.855942724479e-04 -1.007698366743e-04 0.0 
1.860749104272e-03 1.483654474597e-03 0.0 
4.635518060572e-04 -2.576917083091e-04 0.0 
1.020102048746e-03 -4.651271032742e-05 0.0 
1.761253101901e-03 7.309555339561e-04 0.0 
9.133384665941e-04 -5.586491938995e-05 0.0 
3.970251322222e-04 1.885500847597e-04 0.0 
4.411996608826e-04 2.799348132278e-04 0.0 
1.007463016578e-03 6.136340815981e-04 0.0 
3.304359459102e-04 -9.771447838034e-05 0.0 
1.869446194094e-03 2.473227197717e-03 0.0 
5.215106689487e-04 -1.576322837158e-04 0.0 
5.968613493465e-04 -2.378966545548e-04 0.0 
4.412938000187e-04 -2.683928462456e-04 0.0 
9.877964746498e-04 2.182091172604e-04 0.0 
1.587464185856e-03 7.153240762643e-03 0.0 
1.846754246149e-03 5.648504227292e-03 0.0 
1.358692361372e-04 5.094237378143e-06 0.0 
1.676865154334e-03 7.366595440576e-04 0.0 
2.362412353922e-03 2.115693505532e-03 0.0 
2.005818910559e-03 9.348062355735e-04 0.0 
4.527970078751e-04 -2.686525025458e-04 0.0 
2.920030250767e-04 -2.550796953695e-04 0.0 
8.230565103975e-04 -1.730774240417e-04 0.0 
1.108612510171e-03 -2.987181872844e-05 0.0 
8.703656332141e-04 -1.558112954185e-04 0.0 
3.779292811948e-04 -2.059994248384e-04 0.0 
3.514914659791e-04 7.730977513057e-03 0.0 
2.484428573662e-04 -2.106079002713e-04 0.0 
5.631654564919e-04 -2.208198606306e-04 0.0 
2.802786754638e-05 1.930602319625e-06 0.0 
6.824810312578e-04 -6.242509942460e-05 0.0 
2.284536605570e-03 3.073497690084e-03 0.0 
3.034886342541e-05 -1.493897145452e-04 0.0 
1.195518932313e-03 8.366943330733e-05 0.0 
7.890000720014e-04 -1.855247626659e-04 0.0 
2.181787350754e-03 1.338631837244e-03 0.0 
2.875842081387e-04 9.257788244877e-05 0.0 
1.879354172597e-03 1.400624009945e-03 0.0 
1.759986611011e-03 5.683882170069e-04 0.0 
2.022002654882e-04 -1.049968607919e-04 0.0 
2.007201085973e-03 1.967261756525e-03 0.0 
3.104869735352e-04 -8.504435921522e-05 0.0 
2.723033266447e-04 7.805005469297e-05 0.0 
1.925810725427e-04 8.531889771203e-05 0.0 
2.017222073038e-04 1.587153108443e-04 0.0 
2.310943241877e-04 1.360987094787e-04 0.0 
2.137783205911e-03 1.175746451420e-03 0.0 
2.020920080389e-03 1.790350772943e-03 0.0 
1.578091218777e-03 7.764610711635e-04 0.0 
9.459295417410e-04 -1.187653187499e-05 0.0 
9.248144722168e-04 6.978403402783e-05 0.0 
1.643054434716e-04 -1.028113954619e-04 0.0 
1.854442899045e-03 1.340373473362e-03 0.0 
2.160759576256e-04 4.896138461703e-05 0.0 
1.796119591332e-03 1.921470124391e-03 0.0 
7.228710687763e-04 -9.465906899202e-05 0.0 
1.832144920606e-03 1.778996689824e-03 0.0 
1.144131375835e-03 7.009311954437e-05 0.0 
1.043430211894e-03 -5.754904940790e-05 0.0 
1.022314687279e-03 3.141461133202e-04 0.0 
4.713649308229e-04 -2.366280959882e-04 0.0 
6.347767633980e-04 9.119884843005e-04 0.0 
8.425736108708e-04 -7.711032696879e-05 0.0 
6.385237966922e-04 1.178352568723e-04 0.0 
1.804359337397e-04 -1.069770281054e-04 0.0 
3.659568265158e-04 -2.343263723600e-04 0.0 
1.026780392781e-04 4.544428416054e-06 0.0 
6.142018805846e-04 -1.978130664222e-04 0.0 
1.633009473695e-04 6.315931415265e-05 0.0 
7.964590863376e-04 5.301634900118e-04 0.0 
1.589647086067e-03 3.457553486923e-04 0.0 
2.924874702057e-04 -2.598616231019e-04 0.0 
1.443704975031e-04 4.367903108127e-05 0.0 
1.342388556133e-04 8.280841569849e-06 0.0 
3.821627152817e-04 -2.396108334694e-04 0.0 
6.460554527964e-04 -8.409915493945e-05 0.0 
1.137813791711e-04 1.476654209495e-05 0.0 
2.874713762504e-04 -2.611695812660e-04 0.0 
9.502262294211e-04 -7.105699410951e-05 0.0 
1.737423351146e-03 5.018573945043e-04 0.0 
1.439960707334e-03 2.119649014498e-04 0.0 
1.680540140904e-03 5.086695772651e-04 0.0 
5.054673538915e-04 -2.181812787655e-04 0.0 
1.135740089539e-04 2.703584577163e-05 0.0 
6.330565034597e-04 -2.216661206387e-04 0.0 
3.885114747538e-04 -2.771550464498e-04 0.0 
3.937848708744e-05 1.489362456693e-06 0.0 
2.847200979418e-04 -2.570937677863e-04 0.0 
1.402797803143e-03 7.354848295223e-04 0.0 
3.496363309354e-04 -2.726481263318e-04 0.0 
1.927539722426e-03 1.895081349923e-03 0.0 
6.948406874627e-05 5.395278918340e-06 0.0 
8.973772557612e-05 1.712527638037e-05 0.0 
2.121042805370e-03 1.275459146024e-03 0.0 
3.339462946043e-04 -2.755418260930e-04 0.0 
3.750904055143e-04 -2.795777917069e-04 0.0 
3.387345349553e-04 -2.713051737653e-04 0.0 
1.340423249670e-04 -1.243118586300e-05 0.0 
1.563183169910e-03 7.110326990461e-03 0.0 
2.379082928562e-03 3.189787401645e-03 0.0 
6.569764112153e-05 1.009891269553e-05 0.0 
1.343533909894e-03 7.764871602429e-03 0.0 
3.893099456182e-04 3.295992251431e-04 0.0 
1.071411290195e-03 6.650449371343e-05 0.0 
1.586701218882e-03 6.428275757551e-03 0.0 
6.162988071274e-04 -7.005070296132e-05 0.0 
6.853354473778e-04 -8.055751251039e-05 0.0 
4.362582489417e-04 -2.597116848452e-04 0.0 
5.552735184297e-05 6.822686542658e-06 0.0 
2.044440596795e-04 1.032311870477e-04 0.0 
2.101053366949e-04 1.438361037492e-04 0.0 
2.902174642711e-04 -8.197362676778e-05 0.0 
1.430715479408e-04 -1.046596970423e-04 0.0 
9.970332931938e-04 -9.004223382604e-05 0.0 
2.702801523177e-04 -7.033382250739e-05 0.0 
4.577093813493e-05 4.527397969246e-06 0.0 
5.519005530225e-04 -2.331956211557e-04 0.0 
4.501892679749e-04 -2.379526019434e-04 0.0 
4.287395214001e-04 -2.230853428975e-04 0.0 
1.463107741233e-03 6.069535342516e-03 0.0 
4.438602764072e-05 2.605832336802e-06 0.0 
3.247484140707e-04 -2.737772489561e-04 0.0 
3.263919974208e-05 2.444972447193e-06 0.0 
3.940997125506e-04 -2.240939191299e-04 0.0 
1.432137106357e-04 4.889885136750e-05 0.0 
1.537881378095e-03 6.878279675339e-04 0.0 
2.972031261560e-04 -2.676738133849e-04 0.0 
9.364864307060e-04 -1.124941989160e-04 0.0 
1.681382160849e-03 2.181621130903e-03 0.0 
1.279328291416e-04 3.437102361170e-05 0.0 
2.051396597184e-03 9.873051633587e-04 0.0 
9.356045218728e-04 4.245065644663e-05 0.0 
4.290535130610e-04 -2.325671383045e-04 0.0 
2.099712730641e-04 5.023784878898e-06 0.0 
3.707575342817e-04 -2.072761101051e-04 0.0 
4.090369493238e-04 -2.181506978887e-04 0.0 
3.280517994341e-04 -2.820089523593e-04 0.0 
1.025019486717e-04 2.192553884540e-05 0.0 
4.732478217660e-04 -2.595899586676e-04 0.0 
2.511098736033e-04 -1.972868952076e-05 0.0 
1.430098186962e-03 7.069982217188e-03 0.0 
2.958281369584e-04 -1.999070470156e-04 0.0 
4.312919047207e-04 -2.337901382788e-04 0.0 
1.915430082892e-03 7.691817498397e-04 0.0 
5.825402732818e-05 7.943855552289e-06 0.0 
1.330467587054e-04 -9.526411809873e-05 0.0 
2.819056357572e-04 -5.466685509099e-05 0.0 
1.233603033622e-03 3.389468010446e-05 0.0 
4.253139288419e-04 -9.857997012775e-05 0.0 
4.689430993753e-04 -2.316008399098e-04 0.0 
3.096534838370e-04 -7.564378188774e-05 0.0 
1.232233363135e-03 4.620658754211e-05 0.0 
1.351966217657e-03 1.895015838349e-04 0.0 
6.346392155424e-04 -4.959103366756e-05 0.0 
1.116034382419e-03 -3.718940671076e-05 0.0 
2.309860960220e-04 -1.206475978956e-04 0.0 
6.004474944101e-04 -2.139171783840e-04 0.0 
1.588301685400e-04 -1.086830060593e-04 0.0 
1.011696681274e-03 4.159105929191e-05 0.0 
6.638736552311e-04 -1.323330118217e-04 0.0 
6.066706728846e-05 4.375574766817e-06 0.0 
1.592783004987e-03 1.679704741732e-03 0.0 
2.864206991749e-04 -2.044368215831e-04 0.0 
3.684486900419e-05 2.950306471148e-06 0.0 
1.542621066147e-04 7.253649628161e-06 0.0 
8.749464613133e-04 -1.518080863675e-04 0.0 
3.226484750346e-04 -2.771515422472e-04 0.0 
3.875444639770e-05 2.167763329472e-06 0.0 
1.676466775210e-03 1.330860814479e-03 0.0 
3.625323493163e-04 -2.239263680114e-04 0.0 
2.367692314656e-05 1.373305567370e-06 0.0 
2.677442344978e-04 -6.159987825506e-05 0.0 
1.054494957433e-03 1.761956741165e-04 0.0 
2.415959911303e-03 2.809090707057e-03 0.0 
6.855510671611e-04 -1.467339092009e-04 0.0 
3.068762539840e-04 -1.032117363261e-04 0.0 
4.515156207932e-04 -8.774710248854e-05 0.0 
2.434089830420e-03 2.769931053929e-03 0.0 
1.403193041861e-03 5.071239061271e-04 0.0 
6.580932585294e-04 -2.680172344934e-05 0.0 
3.463819206132e-04 7.151503366957e-03 0.0 
2.137092707563e-04 -1.159286519074e-04 0.0 
6.060900725004e-04 -7.013028551555e-05 0.0 
3.520999781825e-04 -2.014391501500e-04 0.0 
1.415767964137e-04 -4.420274084263e-05 0.0 
3.112561903735e-04 -2.759762020454e-04 0.0 
6.581676933141e-04 -1.887666226986e-04 0.0 
3.758513994782e-04 -2.186353813841e-04 0.0 
1.740490484013e-04 -9.051743665482e-05 0.0 
9.624683391539e-04 -1.152987442011e-04 0.0 
2.868480567530e-04 -6.383910518797e-05 0.0 
1.352421380943e-03 6.627353839341e-03 0.0 
3.455647267729e-04 -2.180954035916e-04 0.0 
2.070910449416e-05 1.232526769432e-06 0.0 
1.651092387793e-03 3.949682768174e-04 0.0 
1.468027769560e-04 -7.741359382111e-05 0.0 
1.508900306860e-03 2.579702552425e-04 0.0 
1.581742420886e-04 -8.687392715060e-05 0.0 
3.029556001153e-04 -2.702020684004e-04 0.0 
2.466777078334e-03 2.860592261120e-03 0.0 
4.997311175774e-05 -8.613239970082e-05 0.0 
1.891941500680e-04 -2.132519489201e-04 0.0 
1.275581791318e-04 -8.032013740654e-05 0.0 
2.565811913192e-04 -4.420517755192e-05 0.0 
4.875510910040e-04 3.095172334228e-03 0.0 
4.774098466061e-04 -1.148286999644e-04 0.0 
4.521025316679e-04 -1.004301939150e-04 0.0 
2.200520816833e-03 3.487450787593e-03 0.0 
1.023843862962e-03 8.380716781323e-03 0.0 
7.082676891085e-04 7.390147125771e-04 0.0 
1.367026201040e-03 1.416106830043e-04 0.0 
1.795726482075e-04 -2.133822078958e-04 0.0 
2.292409820311e-04 -2.086395851210e-04 0.0 
3.084114032259e-04 -2.690485838885e-04 0.0 
2.470609961699e-04 -1.821273987992e-04 0.0 
1.245958149340e-03 3.088531026522e-04 0.0 
5.610064739893e-04 3.118956139888e-03 0.0 
1.444950141336e-04 -1.753791892027e-05 0.0 
1.979545371008e-04 -1.499486456251e-04 0.0 
1.281116933881e-04 -4.232735507525e-05 0.0 
2.160223275675e-04 -1.272429427692e-05 0.0 
4.136907146430e-04 -2.751605307357e-04 0.0 
3.549792091053e-05 -8.473909697317e-05 0.0 
2.881355609881e-05 -1.016540201806e-04 0.0 
3.458513658021e-05 1.762908206750e-06 0.0 
1.804534190354e-05 9.352365600398e-07 0.0 
3.407582518618e-05 -7.283065484733e-05 0.0 
1.316867781663e-04 -7.438377242334e-05 0.0 
2.893497871834e-04 -9.081988925196e-05 0.0 
2.089862080252e-04 -5.836446187573e-06 0.0 
2.205959691759e-04 -1.993959885616e-04 0.0 
2.205932746580e-04 -1.998955422895e-05 0.0 
1.342664027565e-04 -1.843957451648e-04 0.0 
1.380889117000e-04 -8.943672618036e-05 0.0 
1.780337488296e-04 -8.411483467042e-05 0.0 
1.123482938851e-04 -1.847926247879e-04 0.0 
2.819390604678e-05 -7.811430163736e-05 0.0 
1.539282480238e-03 1.781529455028e-03 0.0 
1.525556987046e-04 -2.072397110864e-04 0.0 
1.161070500285e-03 7.719220292548e-03 0.0 
1.012065410331e-03 7.594515544220e-03 0.0 
4.761318064096e-04 -7.502654760230e-05 0.0 
1.445022985023e-05 -1.013911787557e-04 0.0 
3.402262208356e-04 -2.069674570092e-04 0.0 
4.815577562867e-04 -2.076824620117e-04 0.0 
8.649069746923e-05 -3.784974156293e-06 0.0 
4.122750803324e-04 8.961475356238e-05 0.0 
1.013214909515e-03 3.666804069943e-03 0.0 
6.106257814641e-04 -1.069953002254e-04 0.0 
2.462214019952e-04 -2.266390564532e-04 0.0 
1.552606554731e-03 8.270414273913e-04 0.0 
8.787993683166e-04 9.206990808396e-03 0.0 
8.099579150886e-04 9.569413342829e-03 0.0 
1.647352350767e-04 -2.072964514736e-04 0.0 
1.409489972743e-04 -1.922017428518e-04 0.0 
5.900991393887e-05 -1.585788432344e-04 0.0 
1.939774256395e-04 -1.699606278073e-04 0.0 
1.008948393692e-04 -1.851634476297e-04 0.0 
2.686745864412e-05 -6.605362900820e-05 0.0 
3.358567581408e-04 -2.886152990379e-04 0.0 
1.912616100257e-04 -1.549907407337e-04 0.0 
3.351690925343e-04 6.005992836272e-03 0.0 
8.342051731538e-04 8.908176757068e-03 0.0 
1.201333872028e-03 3.527488337385e-04 0.0 
2.456018853135e-04 -5.105863408073e-05 0.0 
2.821486870982e-04 6.922129005930e-03 0.0 
7.251107688906e-06 -9.532806387130e-05 0.0 
7.550580262527e-05 -1.663063318285e-04 0.0 
9.727225508995e-05 2.561166847017e-04 0.0 
2.230922899588e-04 5.266609166216e-04 0.0 
1.320548010218e-03 7.164644191053e-03 0.0 
9.236867200081e-04 9.065171629476e-03 0.0 
3.594230506267e-05 -9.629407983050e-05 0.0 
1.411254934056e-04 5.179320717696e-04 0.0 
2.003721214706e-04 -1.653509569194e-04 0.0 
8.656614692998e-04 8.377979243624e-03 0.0 
9.611633678872e-04 8.811848745052e-03 0.0 
1.660357716929e-03 1.415935364535e-03 0.0 
1.875877383144e-04 1.708839142988e-04 0.0 
1.739198013572e-04 5.087980459016e-04 0.0 
1.305238915921e-04 -1.926032896855e-04 0.0 
1.365762914538e-04 -1.999614559191e-04 0.0 
2.245372190782e-04 -2.118980254759e-04 0.0 
1.943006222262e-04 -8.776248931012e-05 0.0 
8.058235240594e-06 1.625417095779e-06 0.0 
3.381420540893e-04 -2.900078861890e-04 0.0 
1.204094790484e-04 3.945544873812e-03 0.0 
3.274138335779e-04 -2.846163485701e-04 0.0 
4.212589665633e-04 -7.417224945305e-05 0.0 
3.228909186843e-04 -2.829501798115e-04 0.0 
3.320205489770e-04 -2.879377837614e-04 0.0 
3.992523320566e-04 -8.489645001489e-05 0.0 
3.311797064795e-05 -1.567101915524e-07 0.0 
2.741706224949e-04 6.347388531994e-03 0.0 
1.530357468348e-03 5.803008003255e-04 0.0 
8.140879075788e-05 -1.752342331315e-04 0.0 
1.027262739997e-04 -3.349562428054e-05 0.0 
3.169897795294e-05 3.153869216585e-04 0.0 
6.319227179259e-05 5.333893576552e-04 0.0 
8.415727968113e-04 9.244388562297e-03 0.0 
4.408675234048e-04 -6.177390158452e-05 0.0 
7.664754626726e-05 2.526813611999e-04 0.0 
8.839437395234e-04 2.484472249740e-05 0.0 
4.544595594204e-05 -1.598715050648e-04 0.0 
6.694801260995e-05 -1.713255352985e-04 0.0 
4.748106648050e-05 -1.636902958259e-04 0.0 
7.201902461938e-06 -8.326698808570e-05 0.0 
6.226235123445e-06 1.264490681263e-06 0.0 
1.633645774026e-05 1.463843502345e-03 0.0 
8.090005424660e-05 -1.810353353514e-04 0.0 
1.378363704279e-05 -6.501942715790e-05 0.0 
2.092038873351e-06 5.373878855603e-07 0.0 
8.873162020069e-06 1.380804583932e-06 0.0 
3.104121945344e-05 1.521284633570e-06 0.0 
6.337805726134e-05 4.946172988166e-03 0.0 
2.731236611624e-05 3.442573739709e-03 0.0 
4.134196250093e-06 7.271027957031e-07 0.0 
4.738965769976e-06 6.537017882294e-07 0.0 
5.871578413151e-05 3.946432368500e-03 0.0 
5.351420623857e-05 -1.806074509982e-04 0.0 
6.858785283523e-04 9.709446342084e-03 0.0 
8.359502808977e-04 9.443791072955e-03 0.0 
1.092674118709e-04 -1.929975597654e-04 0.0 
8.190385622647e-06 6.298847165731e-07 0.0 
2.849250961321e-05 1.398420938466e-06 0.0 
1.399108483644e-05 7.048079516063e-07 0.0 
1.037334048962e-04 -1.927781453202e-04 0.0 
1.267732662484e-04 -1.999849031573e-04 0.0 
1.653979467667e-05 8.276716467103e-07 0.0 
1.450142477677e-05 6.936129868596e-07 0.0 
3.197463924607e-05 5.460396874107e-03 0.0 
3.909700883390e-04 9.772275328685e-03 0.0 
3.140341801527e-05 4.440853956256e-03 0.0 
3.423861016288e-05 7.477848742451e-03 0.0 
1.878799161276e-04 9.797900017150e-03 0.0 
2.014050515049e-04 -2.200119554564e-04 0.0 
2.436078956730e-04 -2.392301614611e-04 0.0 
2.630182590733e-04 -2.488673053265e-04 0.0 
2.810553883322e-04 -2.585021802329e-04 0.0 
6.759780781346e-06 -5.881947499189e-05 0.0 
7.023856261440e-06 -7.102751864382e-05 0.0 
2.511289381499e-04 -2.416325987830e-04 0.0 
5.955682757178e-06 -2.637847151325e-05 0.0 
2.700759573024e-04 -2.514672165551e-04 0.0 
1.649222277830e-04 2.090899861407e-04 0.0 
6.447794713832e-05 2.652507105696e-04 0.0 
1.258200348689e-04 2.705442319199e-04 0.0 
8.818355358839e-06 -1.414910699672e-04 0.0 
7.199122161328e-06 -1.070916714608e-04 0.0 
5.969715761116e-05 3.215444572092e-04 0.0 
3.604171412931e-06 -3.236321776344e-06 0.0 
3.149329383966e-05 2.180024359967e-04 0.0 
2.535625358893e-06 6.293073021410e-07 0.0 
1.479505917908e-06 2.112005345997e-06 0.0 
1.422575872338e-05 -7.734536728414e-05 0.0 
1.241751047495e-04 5.867951677788e-04 0.0 
9.119045145082e-05 5.395468932058e-04 0.0 
6.139796771824e-06 -1.128537901592e-06 0.0 
4.015131276802e-06 1.687224151467e-06 0.0 
5.833294334818e-05 -1.967131041106e-05 0.0 
3.163176314428e-04 -2.781841398747e-04 0.0 
1.180636390162e-04 -9.197160222023e-05 0.0 
1.591809335081e-04 -1.996166494726e-04 0.0 
7.993188371355e-05 -3.621799747098e-06 0.0 
1.535889758671e-04 -9.296069452664e-05 0.0 
6.348637812339e-05 -8.434818484771e-06 0.0 
2.029556136377e-04 -1.799975034658e-04 0.0 
1.705688207389e-04 -1.958723883490e-04 0.0 
4.230767993253e-05 -2.190381697720e-06 0.0 
1.126951480038e-04 -7.746233319875e-05 0.0 
2.878088127603e-05 -9.022204601223e-05 0.0 
5.556139876534e-05 -8.020568875703e-06 0.0 
1.796994396542e-04 2.486471252785e-03 0.0 
1.445301015084e-05 -8.951887147798e-05 0.0 
2.473037649288e-04 -3.576899962421e-05 0.0 
1.845082859274e-04 -5.045829532936e-05 0.0 
6.882485642401e-05 -2.040878205840e-05 0.0 
4.894196799204e-05 -1.490129586779e-05 0.0 
6.034171010608e-04 -2.313158294393e-04 0.0 
1.334936528142e-03 5.753035399977e-04 0.0 
9.614612336238e-04 -1.174946191891e-04 0.0 
1.150301874729e-04 -3.495470071516e-05 0.0 
3.865146342343e-05 -4.458869558884e-06 0.0 
3.147721144347e-05 -1.043162411333e-05 0.0 
2.625437818527e-04 -2.025976374407e-04 0.0 
3.468806916413e-04 2.555884434720e-03 0.0 
4.188516266803e-04 3.559695311920e-03 0.0 
5.446335680501e-04 8.264565441065e-03 0.0 
1.259670956757e-04 -3.087474832794e-05 0.0 
9.076729492517e-05 -2.703820957586e-05 0.0 
2.336239871463e-04 2.536896068776e-03 0.0 
2.921058626708e-04 3.052005707104e-03 0.0 
2.011078283134e-04 -5.987745490243e-05 0.0 
2.806068224917e-05 -6.549065934176e-08 0.0 
9.134135123781e-04 3.670244518081e-03 0.0 
2.236805065768e-05 -1.001338224019e-05 0.0 
5.717982501835e-05 -8.052986690117e-07 0.0 
4.073527510341e-04 2.575590222123e-03 0.0 
6.727794553821e-04 5.157601972353e-03 0.0 
2.393812631306e-04 -4.283618347458e-05 0.0 
1.016247122435e-04 -1.400668030586e-04 0.0 
2.838342230723e-04 -2.185834449162e-04 0.0 
2.336078955848e-04 -2.208853798132e-04 0.0 
3.154372219369e-04 -2.749928985210e-04 0.0 
3.558999466297e-04 3.047487800898e-03 0.0 
3.037845611245e-05 -1.879304571062e-06 0.0 
3.009912224735e-04 -2.664656915972e-04 0.0 
1.648215650567e-03 9.843460746741e-04 0.0 
6.630500687547e-04 7.756322326644e-03 0.0 
7.520896621606e-05 -1.264572050967e-05 0.0 
4.004117718870e-05 -7.382830567547e-06 0.0 
3.159051240702e-04 -1.896480009701e-04 0.0 
3.231952083912e-05 -7.152679055007e-06 0.0 
6.098822951352e-04 8.276043988534e-03 0.0 
5.975282513665e-04 -5.375457732944e-05 0.0 
4.263623650146e-05 8.183498831955e-07 0.0 
5.563541625128e-05 -1.304296282867e-04 0.0 
7.409084553588e-05 -1.189986524462e-06 0.0 
5.365948564099e-04 4.607746410031e-03 0.0 
7.688279145710e-05 -1.282158322799e-04 0.0 
2.707242349527e-04 -1.982921181491e-04 0.0 
5.580092504795e-05 -5.091106103697e-05 0.0 
8.429909010227e-04 6.227608741581e-03 0.0 
1.628628360833e-04 -1.242709864643e-04 0.0 
4.084798718022e-04 4.050119161230e-03 0.0 
5.555898250177e-04 5.636339399966e-03 0.0 
1.206765673844e-04 -6.572789026682e-05 0.0 
3.919248567098e-05 -1.444778752759e-05 0.0 
4.894835011411e-05 -1.111528396608e-05 0.0 
4.599012337544e-04 4.576734111652e-03 0.0 
1.372813763111e-04 -1.624550764063e-04 0.0 
1.024847303290e-04 -6.911355605319e-05 0.0 
5.599901529240e-04 1.831070348012e-05 0.0 
6.379425528738e-04 4.132923672593e-03 0.0 
1.082427608828e-04 -8.328640609408e-05 0.0 
1.696811761702e-04 -4.829191546442e-05 0.0 
9.984322328870e-05 -4.100430127581e-06 0.0 
5.881953972212e-04 5.133888879054e-03 0.0 
3.703234300533e-04 -2.827367964552e-04 0.0 
1.954344954990e-04 -2.044071437359e-04 0.0 
4.420660781421e-04 -2.709099246217e-04 0.0 
4.552339884473e-05 -4.678727153331e-06 0.0 
7.186385090940e-04 5.684052672413e-03 0.0 
3.837003753436e-05 -3.884538129639e-05 0.0 
8.001523453059e-04 7.260401157225e-03 0.0 
2.025828068856e-04 -1.310675341400e-05 0.0 
9.586111227300e-05 -5.546897472467e-05 0.0 
5.759663626945e-05 -1.153316467979e-05 0.0 
8.630113250210e-05 -1.362212170256e-04 0.0 
6.294969264730e-05 -9.297791937983e-07 0.0 
1.063375506751e-04 -6.331547810447e-05 0.0 
6.161295265728e-05 -1.255999981450e-04 0.0 
8.837590157220e-05 -6.673783825421e-05 0.0 
1.373686793805e-04 -1.102375612306e-04 0.0 
1.755262782509e-04 -1.496475323686e-04 0.0 
5.045277466752e-05 -3.908478470793e-05 0.0 
2.090179208723e-04 -2.214626825578e-04 0.0 
2.301588604950e-04 -2.312566903044e-04 0.0 
7.954922891219e-05 -2.598394880985e-05 0.0 
1.115771337891e-04 -1.486977845806e-04 0.0 
1.138980084350e-04 -2.951384397784e-05 0.0 
1.405643777391e-04 -3.819099083265e-05 0.0 
2.078225550777e-04 -1.222155996305e-04 0.0 
3.338390309613e-04 -2.228323523014e-04 0.0 
8.080163829616e-04 3.166238933918e-03 0.0 
3.911011564146e-04 -2.561649187584e-04 0.0 
1.128909112840e-04 -9.764326532336e-05 0.0 
1.947043566579e-04 -6.494864427299e-06 0.0 
1.074966381729e-04 -1.536857338942e-04 0.0 
7.834764645677e-04 6.735928032522e-03 0.0 
7.338897024925e-04 7.777350104656e-03 0.0 
2.063927245118e-04 -1.937775622291e-04 0.0 
1.307135280027e-04 -7.926484925445e-06 0.0 
1.089879343353e-03 4.680455734797e-03 0.0 
1.269675035070e-04 -1.533336146434e-04 0.0 
8.657728714700e-04 2.688634672643e-03 0.0 
7.775462635395e-04 2.684088813395e-03 0.0 
1.323872121883e-04 -1.489729523313e-04 0.0 
6.725514222616e-04 -5.375282905269e-05 0.0 
1.785737564502e-04 -1.643889865170e-04 0.0 
6.808216722320e-05 -1.605664822884e-05 0.0 
7.247130978797e-05 -4.662325197948e-05 0.0 
1.661581585959e-03 1.449292046124e-03 0.0 
7.204142123413e-04 3.156276673204e-03 0.0 
8.973027302555e-05 -2.216134904522e-05 0.0 
1.005570730622e-04 -2.317790701257e-05 0.0 
1.971438652627e-04 -1.841443464738e-04 0.0 
7.776951781177e-05 -1.675495444965e-05 0.0 
9.851541061790e-04 4.687926623817e-03 0.0 
5.958679237732e-05 -4.543705201590e-05 0.0 
8.072128802021e-04 5.703152989840e-03 0.0 
9.085617757667e-04 4.175636683111e-03 0.0 
7.155165524478e-04 -1.731943881488e-04 0.0 
6.450760680818e-04 3.635271330564e-03 0.0 
8.378577009946e-05 -7.246248133754e-05 0.0 
8.227381965532e-05 -5.368493000789e-05 0.0 
1.163678373771e-04 -1.118759042467e-04 0.0 
2.454474977273e-04 -1.498175082791e-04 0.0 
8.512377757072e-04 5.194404373494e-03 0.0 
2.832997856972e-04 -1.076975851014e-04 0.0 
1.536971067248e-04 -1.492772344235e-04 0.0 
2.112553420725e-04 -2.064006150470e-04 0.0 
9.481422166894e-04 5.201801505453e-03 0.0 
1.692331205065e-04 -1.544361072640e-04 0.0 
7.918982249903e-05 -1.241955813259e-06 0.0 
7.027688880054e-04 4.655272970387e-03 0.0 
8.429856718969e-05 -1.329093250247e-05 0.0 
1.175351872941e-04 6.298689296276e-06 0.0 
9.344221173527e-05 -8.066227203186e-05 0.0 
1.477930658568e-04 -1.538833445024e-04 0.0 
2.017558603613e-04 -1.975237483596e-04 0.0 
1.230071199849e-04 -2.543267970820e-05 0.0 
5.957708860974e-04 6.164568579574e-03 0.0 
2.079337742389e-04 -2.093833302324e-04 0.0 
1.470492322101e-04 -1.198041000523e-04 0.0 
6.555510535938e-05 -1.374472217078e-04 0.0 
9.345045322910e-04 6.236784642236e-03 0.0 
1.221711624129e-04 -1.065136453901e-04 0.0 
1.539739583259e-04 -3.993417350487e-05 0.0 
1.005815855753e-04 -1.078149534331e-04 0.0 
4.900307116618e-04 3.587674057847e-03 0.0 
1.661511749512e-04 -1.395613304251e-04 0.0 
1.595252048050e-04 -2.909719028336e-05 0.0 
2.694639061051e-04 -2.125632024859e-04 0.0 
1.511656529097e-04 -3.380405688174e-05 0.0 
6.505305210388e-05 -5.756804658137e-05 0.0 
1.080668785041e-04 -1.931059275533e-05 0.0 
4.894364208054e-04 -2.350496766344e-04 0.0 
8.095098281037e-05 -1.406229763118e-04 0.0 
6.491316936662e-04 7.219433713781e-03 0.0 
3.957842806526e-04 -7.317182076661e-05 0.0 
1.064299029383e-03 -3.434604481924e-06 0.0 
6.742355120128e-04 6.188568758722e-03 0.0 
2.926105630421e-04 -2.147625833050e-04 0.0 
1.316861153008e-03 5.651795126706e-03 0.0 
9.219406693553e-05 -1.494565116584e-04 0.0 
1.047010737424e-04 -7.417633021541e-06 0.0 
4.143482396919e-04 -6.177187901442e-05 0.0 
6.193228030317e-04 -3.279809707990e-05 0.0 
6.420961970110e-04 2.174534402853e-03 0.0 
2.699990106691e-04 -8.740859670438e-05 0.0 
1.524215727482e-04 -1.676552764893e-04 0.0 
2.157287637299e-04 -5.491571822903e-05 0.0 
1.073631726167e-04 -4.052512150509e-06 0.0 
3.228195386017e-04 -2.009687557741e-04 0.0 
9.768591882209e-05 -1.841672440980e-05 0.0 
7.926528372223e-04 4.672975054101e-03 0.0 
3.530521740704e-04 -2.386436528646e-04 0.0 
1.821102174698e-04 -4.362094863679e-05 0.0 
1.138119978500e-03 7.232278035280e-03 0.0 
8.293739874441e-05 -1.233961008648e-04 0.0 
1.725129080146e-04 -1.343904328684e-04 0.0 
1.171697471301e-03 -7.251486516769e-06 0.0 
1.347960966321e-04 -2.661880558977e-05 0.0 
1.016039355089e-03 1.020606766970e-04 0.0 
1.062037913446e-03 -6.865675916730e-05 0.0 
1.155295452959e-03 5.186381815529e-03 0.0 
7.032954466659e-04 6.715988367090e-03 0.0 
1.243700589809e-03 6.689655428238e-03 0.0 
7.864142930061e-05 -5.915571558871e-05 0.0 
1.659704707423e-04 -1.317932809093e-05 0.0 
2.518480134234e-04 -6.770463702254e-05 0.0 
8.807844783971e-04 7.277028694635e-03 0.0 
1.380878365944e-03 6.877098205486e-04 0.0 
6.340140730400e-04 -1.013936436592e-05 0.0 
1.644748022964e-04 -3.532445214871e-05 0.0 
8.129649477923e-04 4.168082245354e-03 0.0 
2.183218499522e-04 -1.332566479916e-04 0.0 
1.951254187516e-04 -1.339574545426e-04 0.0 
1.823501512386e-04 -1.785094603699e-04 0.0 
2.286590181331e-04 -4.924162795531e-05 0.0 
1.689409038529e-04 -1.187277566596e-04 0.0 
1.098058951549e-03 5.711777221549e-03 0.0 
1.235359366949e-03 6.193191681493e-03 0.0 
6.326836626667e-04 -1.627010555266e-04 0.0 
2.140917740811e-04 -1.553799604312e-04 0.0 
5.668800760770e-04 -2.455424448723e-04 0.0 
1.885809383894e-04 -1.394345397034e-04 0.0 
2.116444685812e-04 -1.391193849468e-04 0.0 
1.727582304242e-04 -1.687909760715e-04 0.0 
2.063449460985e-04 -1.986187473710e-05 0.0 
2.856020418923e-04 -1.354114167756e-04 0.0 
7.302145137833e-04 3.652727819610e-03 0.0 
3.119250528312e-04 -1.327892083229e-04 0.0 
2.323692284232e-04 -5.715368664479e-05 0.0 
2.677711446224e-04 -9.563179890138e-05 0.0 
9.160696705506e-04 -1.322041733503e-04 0.0 
1.575135536126e-04 -1.634442068974e-04 0.0 
1.400311568551e-04 -7.918864889509e-06 0.0 
1.202179758533e-04 -3.521485724710e-06 0.0 
1.349935490013e-03 1.592031692792e-04 0.0 
2.353910522874e-04 -1.384487673123e-04 0.0 
2.524345488625e-04 -7.593314873535e-05 0.0 
9.956309524526e-04 5.719726022454e-03 0.0 
1.911552111015e-04 -1.174909999460e-04 0.0 
9.130075300816e-04 -1.045452982800e-04 0.0 
1.504299882110e-04 -1.347120169666e-04 0.0 
3.179178194438e-04 -2.167541516174e-04 0.0 
2.421685826787e-04 -1.321266649394e-04 0.0 
1.442690777290e-04 -1.396393460696e-04 0.0 
1.074350546022e-04 -1.355025204230e-04 0.0 
2.492463820923e-04 -9.187977533016e-05 0.0 
1.970387015683e-04 -4.549345623940e-05 0.0 
1.131672386034e-03 2.219815074025e-04 0.0 
2.222029890429e-04 -2.289364994402e-04 0.0 
4.108893290100e-04 -1.653927838119e-04 0.0 
3.452508000768e-04 -1.506592157754e-04 0.0 
2.600266111370e-04 -1.372530836508e-04 0.0 
1.129030365517e-03 6.223285854214e-03 0.0 
2.786653479985e-04 -1.156471139681e-04 0.0 
1.409781174011e-04 -1.250742329979e-04 0.0 
2.668339364847e-04 -1.304047581504e-04 0.0 
5.563525794393e-04 4.109110205536e-03 0.0 
1.254942395358e-04 -1.208699530328e-04 0.0 
1.845633850338e-04 -1.958908660264e-04 0.0 
1.774063321888e-04 -1.826091136009e-04 0.0 
3.122368330215e-04 -2.060185016724e-04 0.0 
2.379710520101e-04 -1.555337889252e-04 0.0 
3.751765533867e-04 -1.470906213247e-04 0.0 
2.922023516901e-04 -1.279680239062e-04 0.0 
2.895641149325e-04 -2.283120689643e-04 0.0 
1.627224305101e-04 -1.771016988944e-04 0.0 
1.714096598431e-03 6.265080903519e-03 0.0 
1.287850095018e-04 -1.350453434501e-04 0.0 
2.200319584070e-04 -2.709324725447e-05 0.0 
1.130971992333e-03 1.714105200133e-04 0.0 
2.404948355403e-03 2.162851667004e-03 0.0 
1.303476831890e-03 3.080167725615e-03 0.0 
1.099058189835e-03 2.628831904005e-04 0.0 
6.802282464111e-04 -1.754640796523e-04 0.0 
1.267945781644e-03 1.700536162140e-04 0.0 
3.125418428370e-04 -2.308453554136e-04 0.0 
2.366350832130e-04 -1.138890927830e-04 0.0 
7.957948318278e-04 -1.802921872961e-04 0.0 
3.984886233090e-04 -2.532509134762e-04 0.0 
3.076549893252e-04 -2.432046690972e-04 0.0 
1.851354561463e-04 -1.233701179029e-04 0.0 
3.247433473450e-04 -1.455675024690e-04 0.0 
3.533199873005e-04 -1.423717042119e-04 0.0 
1.194620421185e-04 -1.259137343821e-04 0.0 
3.030541185445e-04 -1.118662299785e-04 0.0 
3.882280467614e-04 -1.606065031941e-04 0.0 
4.456519309967e-04 -1.603238948626e-04 0.0 
2.212372251992e-04 -1.500277849137e-04 0.0 
4.982066286316e-04 -6.045408678552e-05 0.0 
1.267768652986e-03 5.156493893407e-03 0.0 
4.837637960185e-04 -1.782069755312e-04 0.0 
1.776663634044e-04 -1.326692397823e-05 0.0 
3.379020010592e-04 -2.329805972259e-04 0.0 
1.575483038139e-04 -1.989036726037e-06 0.0 
3.390298637244e-04 -1.291277258444e-04 0.0 
1.008519134774e-03 2.848820600826e-04 0.0 
1.786003246026e-03 5.508624368227e-04 0.0 
3.076989872479e-04 -2.209684586824e-04 0.0 
2.296468726538e-03 1.627001505434e-03 0.0 
1.607233897580e-03 2.292980047969e-03 0.0 
3.669106088669e-04 -1.242877275220e-04 0.0 
7.325780298197e-04 -1.849907675552e-04 0.0 
2.156822766925e-03 1.213121030378e-03 0.0 
1.162905928567e-03 1.237800890321e-05 0.0 
3.031833104913e-04 -2.343681040844e-04 0.0 
7.091218291438e-04 1.263241785333e-03 0.0 
2.818691338665e-04 -2.314082830724e-04 0.0 
3.364321825736e-04 8.759196588312e-06 0.0 
5.411229117323e-04 2.641063933897e-03 0.0 
4.295422783419e-04 -4.889459083672e-05 0.0 
9.556222289272e-04 6.761731470586e-03 0.0 
1.334320725168e-03 3.583215617121e-03 0.0 
4.212151237607e-04 -1.561257851911e-04 0.0 
6.276934312735e-04 -1.333580123426e-04 0.0 
1.060851990094e-03 2.161455927415e-03 0.0 
1.726643429323e-04 -3.032505163044e-05 0.0 
1.431218201896e-03 4.570520932117e-03 0.0 
3.656564456038e-04 -6.054545806114e-05 0.0 
3.268236451309e-04 -2.367792932731e-04 0.0 
1.570978659775e-03 3.962073625128e-03 0.0 
4.742839205419e-04 9.386892842986e-05 0.0 
1.280277619273e-04 -3.209454388381e-06 0.0 
2.546248952173e-04 -1.185198343264e-04 0.0 
1.047720063057e-03 6.756181483469e-03 0.0 
1.048468453180e-03 7.268709917791e-03 0.0 
3.181423819869e-04 -1.246369432618e-04 0.0 
2.075222763938e-04 -3.993502439855e-05 0.0 
2.154104670431e-04 -3.377062655076e-05 0.0 
1.875631820624e-04 -1.919901858353e-04 0.0 
5.273515173125e-04 -2.552734461445e-04 0.0 
5.248455848009e-04 -1.707802668160e-04 0.0 
4.585202783559e-04 -1.742577621571e-04 0.0 
1.008219122498e-03 -9.383235560311e-05 0.0 
8.652340470716e-04 1.730026058014e-03 0.0 
1.668071249157e-03 1.095470861676e-03 0.0 
6.153922043828e-04 2.660927978167e-03 0.0 
1.160452594883e-03 2.212196073460e-04 0.0 
1.872007772172e-03 3.086148920733e-03 0.0 
1.925424245222e-04 -3.842482109840e-05 0.0 
8.024949028064e-04 2.207591291630e-03 0.0 
1.798685628991e-03 4.266017031583e-03 0.0 
2.598559969332e-04 -1.112055830135e-04 0.0 
5.651484399135e-04 -1.871279954947e-04 0.0 
1.452518939385e-03 4.041537860443e-03 0.0 
1.144657175543e-03 2.630912565205e-03 0.0 
1.113088410078e-03 4.164725345952e-03 0.0 
1.312397014122e-03 4.625743931334e-03 0.0 
1.442812810430e-04 -1.272446906148e-05 0.0 
4.251707916391e-04 9.425598686660e-06 0.0 
1.799556837393e-04 -1.914489985369e-05 0.0 
2.173998220175e-04 -6.246237019948e-05 0.0 
1.385582133554e-03 1.033855600748e-03 0.0 
4.405412457315e-04 -3.484643913315e-05 0.0 
2.286752896989e-03 3.202240735879e-03 0.0 
1.228071848291e-04 -1.397728396329e-04 0.0 
4.973340643914e-04 -1.676958058992e-04 0.0 
4.722915519960e-04 -1.271839186658e-04 0.0 
6.075634947400e-04 -1.027543733859e-04 0.0 
4.433055003046e-04 -2.623599481097e-04 0.0 
5.369877898528e-04 -1.847038043029e-04 0.0 
5.707245607018e-04 -7.247906556762e-05 0.0 
1.611909706218e-03 7.400370320651e-04 0.0 
2.459656721018e-04 -9.950403057556e-05 0.0 
1.818209571591e-03 5.236141796736e-03 0.0 
7.911568398067e-04 8.928053034514e-03 0.0 
3.618573088631e-04 -1.785255607603e-04 0.0 
2.346268221498e-04 -7.292885032806e-05 0.0 
3.890292493017e-04 -3.746388284278e-05 0.0 
1.478426454304e-03 1.064747826055e-03 0.0 
6.150308889042e-04 -1.482803202876e-04 0.0 
2.336665214263e-04 -8.065227472586e-05 0.0 
1.435888736158e-03 5.590440376626e-03 0.0 
3.824003829830e-04 -1.067497012110e-04 0.0 
4.569545220196e-04 -4.784567897559e-05 0.0 
5.685334949440e-04 -1.184520185960e-04 0.0 
1.737874215055e-03 8.243417655889e-04 0.0 
2.004943474867e-04 -3.268647360015e-05 0.0 
3.833842222019e-04 -2.488191824327e-04 0.0 
2.053385887099e-04 -2.646386825837e-05 0.0 
1.702049505128e-04 -7.406579384396e-06 0.0 
5.295924585555e-04 -5.895650680560e-05 0.0 
1.223132880820e-03 4.139901464610e-03 0.0 
9.030390339589e-04 6.172685690546e-05 0.0 
1.595368355912e-04 -7.694429440483e-06 0.0 
4.105761304524e-04 2.748978219746e-06 0.0 
1.631687133976e-03 4.943453825412e-03 0.0 
5.085804655405e-04 2.838207529377e-05 0.0 
1.223755854377e-03 3.626356222071e-03 0.0 
5.741627849743e-04 -8.811093917321e-05 0.0 
5.830848384707e-04 -1.752086507337e-04 0.0 
1.382141110083e-04 -6.238456816568e-05 0.0 
3.972150418557e-04 -2.778980755362e-04 0.0 
9.960443880295e-04 3.167344345028e-03 0.0 
9.816608214805e-05 -1.268372029750e-04 0.0 
4.521393871406e-04 1.647835013529e-04 0.0 
1.048503517997e-03 8.905377494771e-05 0.0 
5.675443084746e-04 2.161335828338e-03 0.0 
3.552060904825e-04 -2.476877053512e-04 0.0 
1.289167449513e-03 6.871744021670e-05 0.0 
1.675747632352e-03 4.394594378103e-03 0.0 
1.975146631590e-04 -8.099963510515e-05 0.0 
4.284953097006e-04 -2.601394870499e-04 0.0 
6.851097884259e-04 -1.962127279870e-04 0.0 
3.201794005432e-04 -2.485121376357e-04 0.0 
3.693322498482e-04 -2.525787738098e-04 0.0 
3.432217963437e-04 -2.508548669217e-04 0.0 
6.022741604417e-04 -1.184226686651e-04 0.0 
3.588343775556e-04 3.545484178612e-04 0.0 
5.219916003403e-04 4.227125742723e-04 0.0 
1.129546225987e-04 -7.681119704032e-06 0.0 
6.341907401611e-04 -2.124524255673e-04 0.0 
2.009126880409e-03 4.468446770631e-03 0.0 
4.227056438483e-04 -2.742157948185e-04 0.0 
1.464884183508e-04 -2.518292546052e-06 0.0 
3.299895240033e-04 -2.456095104823e-04 0.0 
9.446119060723e-05 -1.128711809540e-04 0.0 
5.490217854295e-04 -4.144247551178e-05 0.0 
3.830387889328e-04 -1.379535012371e-04 0.0 
5.267572298375e-04 1.097651538984e-05 0.0 
8.162619088473e-04 -1.115640806605e-04 0.0 
2.172102658080e-03 2.987297887045e-03 0.0 
3.530263209320e-04 1.271274789494e-05 0.0 
1.505617423910e-03 5.039916144111e-03 0.0 
1.476337133478e-03 9.726388744861e-04 0.0 
1.668415403274e-03 3.347298663690e-03 0.0 
1.708363845902e-03 2.746521354207e-03 0.0 
4.825664440435e-04 -2.524658794034e-04 0.0 
1.148723115717e-04 -1.149753319395e-05 0.0 
1.804060032603e-03 3.734725931876e-03 0.0 
7.795211165896e-04 -1.527881496137e-04 0.0 
6.587860088779e-04 8.195305199059e-04 0.0 
2.975969591624e-04 1.784798506048e-05 0.0 
4.865341363473e-04 -2.628136430898e-04 0.0 
1.042152449917e-04 -1.219759131168e-04 0.0 
5.664077628433e-04 -1.912049209021e-06 0.0 
1.658096716233e-05 -1.358651367574e-04 0.0 
1.005267451110e-03 -9.214815853671e-05 0.0 
4.686523982052e-04 -3.279396507334e-05 0.0 
1.404738071605e-03 1.967453516750e-03 0.0 
1.303129204083e-03 1.480441069431e-03 0.0 
5.164515044172e-04 -4.429562493587e-05 0.0 
1.408968413416e-03 3.022485354231e-03 0.0 
6.935458069889e-04 -1.983714904508e-04 0.0 
1.239312277666e-03 1.926011346549e-04 0.0 
9.672374483556e-04 1.461707280146e-03 0.0 
1.353237071899e-03 5.622170144290e-04 0.0 
1.839885204046e-03 2.549632260415e-03 0.0 
2.229320229152e-03 3.455195456783e-03 0.0 
6.670236169660e-04 -1.621796449607e-04 0.0 
2.031935676540e-03 4.642664890091e-03 0.0 
9.405485368220e-04 -7.268032272964e-05 0.0 
8.344320983230e-04 -1.638416396209e-04 0.0 
5.385718555771e-04 -1.589601020492e-04 0.0 
4.109030042825e-04 -2.641868428993e-04 0.0 
6.142082379725e-04 -1.762978717781e-04 0.0 
1.048286076593e-03 2.659324613138e-03 0.0 
1.412450569050e-03 7.732764330982e-04 0.0 
1.411451529575e-04 -2.216799023918e-05 0.0 
4.509955079458e-04 1.504259613368e-05 0.0 
4.064160770581e-04 -1.422023844857e-04 0.0 
1.613752900628e-03 2.856467058125e-03 0.0 
5.686504591863e-04 -1.609642947750e-04 0.0 
8.897977164012e-05 -6.764789457051e-06 0.0 
1.558272027085e-03 3.446069010422e-03 0.0 
1.958941857095e-03 2.924213681311e-03 0.0 
5.060586679588e-04 -7.475564466442e-05 0.0 
6.563239675956e-04 -1.891955350061e-04 0.0 
1.073451847022e-03 1.849207328943e-04 0.0 
1.874491505636e-03 6.772073859109e-04 0.0 
3.972264763058e-04 -2.610059427074e-04 0.0 
4.723699969346e-04 -2.638602328550e-04 0.0 
8.498080652312e-04 -1.238069772521e-04 0.0 
1.359063442979e-03 1.215302042805e-04 0.0 
6.648048892637e-05 -3.179452127780e-06 0.0 
1.913041456228e-03 3.583521892837e-03 0.0 
6.246439134563e-04 -1.895079165661e-04 0.0 
1.408058933814e-03 1.777089301652e-04 0.0 
3.939507785622e-04 -2.451372397534e-05 0.0 
1.096540862149e-03 3.151720378498e-03 0.0 
1.050331841664e-03 2.259597866617e-04 0.0 
2.075394497245e-03 4.812377281205e-03 0.0 
2.675384401160e-04 -1.918994133473e-05 0.0 
5.821210849256e-04 -1.476327805805e-04 0.0 
3.698510258100e-04 -2.608225582384e-05 0.0 
1.058079136528e-03 -6.916843708884e-05 0.0 
1.152243929253e-03 2.137199038576e-03 0.0 
9.663135857828e-04 2.479535023747e-04 0.0 
5.405427664232e-04 -1.035627224336e-04 0.0 
4.507011766279e-04 -2.680875601640e-04 0.0 
8.101508429959e-04 5.974200157057e-05 0.0 
1.023347703981e-03 -6.281810459875e-05 0.0 
6.618468852620e-04 -2.007055073359e-04 0.0 
5.408827221552e-04 -8.888993829010e-05 0.0 
2.514502315306e-04 -2.800645630361e-05 0.0 
4.377373877729e-04 -2.678165695586e-04 0.0 
5.610429617972e-04 -1.327398225664e-04 0.0 
2.233027940651e-03 1.420081450234e-03 0.0 
6.020442146881e-05 -2.950678161420e-06 0.0 
2.073679273290e-03 1.053400551926e-03 0.0 
9.562234211628e-04 8.341654098501e-05 0.0 
2.363766991519e-03 1.892485145393e-03 0.0 
2.486669344978e-03 3.284380519691e-03 0.0 
1.731588997345e-03 4.849191622313e-04 0.0 
4.678128036733e-04 -8.025724767329e-07 0.0 
1.335785495947e-04 -1.686775293371e-05 0.0 
2.030647338238e-03 3.921803437550e-03 0.0 
1.242733058719e-03 1.555006214086e-03 0.0 
2.455722892374e-03 2.500388358638e-03 0.0 
5.792647780667e-04 -2.321099089246e-04 0.0 
7.549205907867e-04 7.199668761017e-05 0.0 
8.845116338099e-04 2.193905198654e-03 0.0 
9.080620055784e-04 -1.255503628004e-04 0.0 
9.916135465977e-04 -8.743224105063e-05 0.0 
6.060479111090e-04 -2.128325831606e-04 0.0 
2.100785207405e-03 3.207300529497e-03 0.0 
1.068103491227e-03 7.233784000296e-05 0.0 
9.051555825424e-04 -6.319796548569e-05 0.0 
1.027014285205e-03 1.600949925095e-05 0.0 
5.621239076847e-04 -2.229782841604e-05 0.0 
5.692784710385e-04 7.091306163958e-05 0.0 
5.736519280296e-04 -2.001073464623e-04 0.0 
3.900333141103e-04 -2.798090020505e-04 0.0 
1.391859203092e-03 1.310432809437e-03 0.0 
1.212880058102e-03 1.835310554317e-04 0.0 
4.388144240096e-04 -1.356521621821e-04 0.0 
6.465199782699e-04 6.605191361557e-05 0.0 
2.131457004493e-03 3.707517313632e-03 0.0 
1.652007556237e-04 -2.406601757282e-05 0.0 
7.603529116623e-04 -1.884597242707e-04 0.0 
3.765627715474e-04 -2.822249777125e-04 0.0 
4.170885185526e-05 -3.100929466965e-07 0.0 
1.268717486228e-03 5.827008640411e-05 0.0 
7.155205637379e-04 -3.824438321584e-05 0.0 
9.410014848570e-04 1.608531032555e-04 0.0 
3.606657283417e-04 -2.845363111316e-04 0.0 
1.780509083065e-04 -2.491723624238e-05 0.0 
6.080865620957e-04 -2.302819202185e-04 0.0 
2.192388586885e-03 4.539620394503e-03 0.0 
1.851524505802e-04 -6.417920258353e-05 0.0 
6.020240020706e-04 -2.013980464892e-04 0.0 
8.129824448189e-05 -6.446922362519e-06 0.0 
9.939246871230e-04 -5.659463023563e-05 0.0 
5.807613514134e-04 -2.228403577172e-04 0.0 
1.305790626017e-03 9.215418579082e-05 0.0 
3.693659934346e-04 -2.827137384932e-04 0.0 
1.199324660832e-03 1.299344198669e-04 0.0 
5.289338542585e-04 -2.677866318603e-05 0.0 
8.767923118577e-04 2.638688281962e-04 0.0 
1.070275839737e-03 1.376879068372e-04 0.0 
5.027964007973e-04 -2.534966646819e-04 0.0 
1.297251941712e-04 -2.121000081256e-05 0.0 
7.852647897380e-04 1.734063281320e-03 0.0 
2.477377510133e-04 2.267035051833e-05 0.0 
5.332880529858e-04 -8.074139628578e-06 0.0 
7.233111953592e-04 -1.845918266175e-04 0.0 
1.277143653381e-03 1.136382773053e-04 0.0 
4.829850080421e-05 -2.418869040588e-06 0.0 
4.296528656447e-05 -5.009744919390e-05 0.0 
1.109995004257e-03 1.187593251317e-04 0.0 
1.886146594787e-03 4.661456325625e-03 0.0 
1.057098232251e-04 -1.100786403865e-05 0.0 
1.675841228924e-04 -1.868242078831e-05 0.0 
3.409997066609e-04 9.483538059366e-03 0.0 
2.370649785425e-04 9.495100352512e-03 0.0 
2.216503077565e-03 1.426949325047e-03 0.0 
1.210553260212e-03 1.038174955138e-04 0.0 
1.556282030376e-04 -5.251223560300e-05 0.0 
1.745471409359e-03 5.211376434475e-04 0.0 
9.191647767520e-04 -9.540057220725e-05 0.0 
2.555241292789e-04 -2.727849601780e-06 0.0 
7.589509787062e-04 -1.798292689615e-04 0.0 
3.361688670243e-04 3.927544897031e-04 0.0 
2.386044701420e-03 3.763918217875e-03 0.0 
9.408067696691e-04 -1.039290161651e-04 0.0 
2.011101669291e-04 -6.703205006846e-05 0.0 
5.116124582750e-04 -2.578499326762e-04 0.0 
2.281793944702e-04 -9.549459052055e-05 0.0 
1.262485642978e-03 8.258553799444e-05 0.0 
1.488297291484e-03 2.267271831813e-04 0.0 
2.226930636305e-03 3.981403760010e-03 0.0 
1.659037618813e-03 4.561905938753e-04 0.0 
1.635282142719e-03 4.785481511054e-04 0.0 
5.801220154201e-05 -1.533472607356e-04 0.0 
2.240799072973e-04 -1.025654014151e-04 0.0 
1.158986556791e-03 1.087842855082e-04 0.0 
1.990521058967e-03 8.648102653762e-04 0.0 
1.993764174058e-03 8.935310749851e-04 0.0 
3.815549609469e-04 1.013204952655e-06 0.0 
7.762611803495e-06 -1.299858143421e-04 0.0 
4.072909450352e-04 -2.700575834279e-04 0.0 
1.160818959130e-03 -1.175168048401e-05 0.0 
2.069219148383e-04 -9.839211541209e-05 0.0 
2.088513870713e-03 2.818572839509e-03 0.0 
2.185489183586e-03 3.780170410654e-03 0.0 
2.310909078126e-03 3.696129824710e-03 0.0 
4.652460637661e-04 -2.475521271481e-04 0.0 
1.837633637757e-04 -7.092872707093e-05 0.0 
3.654590641539e-04 -3.816949684884e-05 0.0 
4.193151379217e-04 -2.714668490274e-04 0.0 
3.678225234112e-04 7.034083586488e-05 0.0 
1.436181807252e-03 2.481725355608e-03 0.0 
1.502625029094e-04 -7.128839026083e-05 0.0 
1.129961024618e-04 -1.542009435179e-05 0.0 
1.175455199930e-04 -1.767049575627e-04 0.0 
3.562357013038e-04 -4.937219000584e-05 0.0 
1.202274558166e-03 1.894713232463e-05 0.0 
8.869607415541e-05 -1.681432118909e-04 0.0 
1.341540696229e-03 2.548973304982e-03 0.0 
4.129184924829e-04 -2.750437098296e-04 0.0 
1.904004795085e-03 7.203369736622e-04 0.0 
1.411394933898e-03 1.606413506648e-04 0.0 
4.559072742928e-04 -1.499588950405e-04 0.0 
3.308022689133e-04 -7.828513603314e-05 0.0 
1.328296926551e-03 2.046253120470e-03 0.0 
3.014556958021e-04 -5.638225423143e-05 0.0 
1.080119565296e-03 -4.056686359554e-05 0.0 
1.101197093330e-03 -4.220127859955e-05 0.0 
3.532316592186e-04 -2.045824806098e-04 0.0 
3.967218355323e-04 -2.778993722612e-04 0.0 
9.087073096918e-04 9.927503690670e-05 0.0 
2.493633726998e-03 3.259628090265e-03 0.0 
8.002926702787e-04 8.984003886674e-05 0.0 
6.246683375305e-04 -2.194166237812e-04 0.0 
2.004691367760e-03 1.450269964560e-03 0.0 
8.895140324376e-04 1.334958361122e-04 0.0 
2.136096699304e-03 3.312570545274e-03 0.0 
9.612682420060e-04 1.238408525749e-04 0.0 
1.031267634418e-04 -1.470681217613e-05 0.0 
1.142783937475e-03 4.305497949137e-05 0.0 
2.142354429440e-04 -8.455845031262e-05 0.0 
2.164418599096e-04 -7.734038976332e-05 0.0 
1.424632454791e-03 1.222493548397e-03 0.0 
3.524255846376e-04 -1.011958959685e-04 0.0 
1.378572080222e-03 1.417126859877e-04 0.0 
7.828282199093e-04 -1.222312724153e-04 0.0 
2.644737094928e-04 -3.655452918149e-05 0.0 
8.629614770833e-04 -1.372490989183e-04 0.0 
5.076745895097e-04 -2.463677311569e-04 0.0 
5.064098415486e-04 -1.165474897436e-04 0.0 
5.527757793862e-04 -2.402293624541e-04 0.0 
1.829398947490e-03 6.302105057902e-04 0.0 
5.312993448151e-04 -2.394915403171e-04 0.0 
1.646880029110e-03 3.895955094072e-04 0.0 
4.407911113395e-04 -5.261414904107e-06 0.0 
4.730763072257e-04 -1.701381682595e-05 0.0 
8.304547790652e-04 -1.559364627217e-04 0.0 
2.379916494329e-03 3.891111768784e-03 0.0 
8.815895704688e-05 -9.976714768458e-06 0.0 
7.971172047676e-05 -9.454703440319e-06 0.0 
4.259822110596e-04 -2.445893630834e-04 0.0 
1.581115704470e-03 3.439891717152e-04 0.0 
4.647903114010e-05 -4.672291047755e-07 0.0 
8.311623972354e-04 3.215317975758e-04 0.0 
1.402645642040e-04 -5.634678307380e-05 0.0 
3.638881929880e-04 -1.967835303368e-04 0.0 
6.657494045421e-05 -5.696137068021e-06 0.0 
5.205922058273e-04 -2.534721846744e-04 0.0 
3.466841676069e-05 -4.438403676128e-05 0.0 
7.595951637513e-04 -3.048210304978e-05 0.0 
2.437549764972e-03 3.542779248222e-03 0.0 
2.472616766391e-03 3.656204720398e-03 0.0 
1.171409866426e-03 1.597230986690e-05 0.0 
1.191566496134e-03 1.599359286094e-03 0.0 
1.579165737147e-03 2.138502261772e-03 0.0 
5.943919907446e-05 -5.321464105268e-06 0.0 
3.275469018742e-04 -6.819585847383e-05 0.0 
4.452535252799e-04 -1.244673047771e-04 0.0 
3.794528094813e-04 -4.959818227267e-05 0.0 
5.210055116003e-04 -1.442855221626e-04 0.0 
5.469468291108e-04 -2.470810732864e-04 0.0 
1.273441837441e-03 1.918122589286e-03 0.0 
2.442813950804e-03 3.807009781858e-03 0.0 
2.874664048756e-04 9.774617340839e-03 0.0 
4.453651321848e-04 -2.017596928917e-05 0.0 
7.904155796138e-04 -1.637565550877e-04 0.0 
3.173672721284e-04 2.181468086633e-05 0.0 
2.493525293452e-05 -4.064556047482e-06 0.0 
5.300059920812e-04 -1.313967568743e-04 0.0 
3.821151008078e-05 9.276454810723e-07 0.0 
5.102077668717e-04 -2.277388062616e-04 0.0 
4.229733847129e-04 2.830173221762e-05 0.0 
1.108876739357e-03 -1.309208793773e-05 0.0 
1.021892298034e-03 1.790522395844e-05 0.0 
2.467327454475e-04 -1.152712785116e-05 0.0 
2.706637772502e-04 -1.490638347453e-04 0.0 
1.485499493344e-03 2.381040777865e-04 0.0 
4.922910664577e-04 -1.417914737333e-04 0.0 
1.532914997338e-03 2.681936661255e-04 0.0 
6.653648188169e-04 -2.107586171079e-04 0.0 
9.038700395705e-04 4.169852243075e-06 0.0 
4.823458900249e-04 -1.533815927030e-04 0.0 
1.703230022073e-04 -5.485822755256e-05 0.0 
1.614963314439e-03 3.486496663118e-04 0.0 
3.640296716960e-04 -2.400914748232e-04 0.0 
7.653753145561e-04 -8.959414353336e-05 0.0 
3.935993256571e-04 -1.988421564584e-04 0.0 
1.583864786340e-04 -1.812405288287e-04 0.0 
1.548285301183e-04 -5.882735177443e-05 0.0 
1.257361203140e-03 2.539188317866e-04 0.0 
2.476394666825e-03 2.839601820562e-03 0.0 
7.788831883846e-04 8.893976744744e-04 0.0 
1.712466392412e-04 1.836645035624e-04 0.0 
3.451978911904e-04 -2.253748969837e-04 0.0 
9.442507475533e-04 1.198006581473e-03 0.0 
4.235832170640e-04 -1.102618622885e-04 0.0 
1.237441742730e-04 -5.985388956945e-05 0.0 
1.561374262566e-03 1.148466371067e-03 0.0 
4.396312368689e-04 -2.044644564700e-04 0.0 
3.536253973390e-04 -9.116713094879e-05 0.0 
1.194547811449e-03 4.572661615001e-05 0.0 
7.245919239556e-04 -5.707482260344e-05 0.0 
1.461330139925e-03 5.426655767175e-04 0.0 
4.422963338481e-04 -2.512194950634e-04 0.0 
1.656186684703e-04 -7.434612160591e-05 0.0 
1.122909056559e-04 -5.181020454879e-05 0.0 
2.227394472266e-04 -1.660384868631e-04 0.0 
2.197226649438e-03 4.069909282733e-03 0.0 
2.458376098845e-03 2.504150347506e-03 0.0 
9.566621367947e-06 -1.298474101980e-05 0.0 
1.060525168039e-04 -1.767002903521e-04 0.0 
3.550368080928e-04 -2.839712370620e-04 0.0 
2.262660303222e-04 -1.954106616225e-04 0.0 
9.874686036521e-05 -4.983770186637e-05 0.0 
5.270312479620e-04 -2.077739343462e-04 0.0 
4.451928271693e-04 -2.163944724981e-04 0.0 
4.883373099606e-04 -2.443608738824e-04 0.0 
1.275991340978e-04 -4.815628113499e-05 0.0 
2.273970987890e-03 1.638993296906e-03 0.0 
8.805203875436e-05 -4.264643580236e-05 0.0 
5.526209049047e-04 -2.103436090161e-04 0.0 
1.501783485805e-03 2.729537402808e-04 0.0 
1.384006337534e-03 7.484917995046e-03 0.0 
6.728265101187e-04 -2.022696954258e-06 0.0 
7.536378079481e-05 -4.121603063224e-05 0.0 
1.140954122850e-04 -4.615038120621e-05 0.0 
5.885470196531e-04 4.677883069231e-04 0.0 
4.941891476014e-04 -1.917011127458e-04 0.0 
6.528684538142e-05 -3.480107974694e-05 0.0 
6.510395509494e-05 5.954445040882e-03 0.0 
6.736792601174e-05 6.945933807864e-03 0.0 
6.665818279016e-04 6.553012320514e-04 0.0 
1.023040581023e-04 -3.886237871185e-05 0.0 
3.838782067110e-04 -2.011552529306e-04 0.0 
4.333259435740e-04 -1.835613077265e-04 0.0 
3.986213502047e-04 2.229644114781e-05 0.0 
2.622074375928e-04 -2.163330413814e-04 0.0 
3.765332021230e-04 -1.889646587113e-04 0.0 
7.984904011129e-04 -1.030145275357e-04 0.0 
7.784994644805e-04 1.095016384934e-03 0.0 
5.326035666478e-05 -3.385603378621e-05 0.0 
1.442350512765e-05 -1.129978670114e-04 0.0 
2.288204211032e-03 4.230087001455e-03 0.0 
8.980472986227e-05 -3.733093599042e-05 0.0 
4.137600340108e-04 -1.320937612989e-04 0.0 
1.681342424835e-04 -6.792286821138e-05 0.0 
3.685972494990e-04 -2.567421671453e-04 0.0 
9.712296417403e-05 3.035719364010e-03 0.0 
4.223132251234e-04 -1.788075816855e-04 0.0 
3.185120233330e-04 -6.298787515513e-06 0.0 
9.657264386794e-04 -1.910049141162e-06 0.0 
7.900887974675e-05 -3.090992079310e-05 0.0 
6.717925322546e-05 -2.981046971973e-05 0.0 
5.075911178467e-04 -2.166374025214e-04 0.0 
2.806725882896e-04 -2.419843058579e-04 0.0 
3.725451058217e-04 -2.470501095461e-04 0.0 
5.722768931506e-05 -2.414702608915e-05 0.0 
2.641025986188e-04 -1.069941763776e-05 0.0 
3.263505787567e-04 -1.839199097921e-04 0.0 
1.426373653919e-03 2.428570072153e-04 0.0 
7.273804713138e-04 1.938073174539e-04 0.0 
1.579390882159e-03 3.743657749671e-04 0.0 
7.908459199214e-05 1.555107251545e-06 0.0 
3.419820995832e-04 -2.830585085252e-04 0.0 
1.577780253835e-05 2.611125711778e-04 0.0 
1.675763162860e-06 7.509241790083e-07 0.0 
3.851639882177e-05 8.510703034300e-03 0.0 
3.570452759125e-04 -1.635977075618e-04 0.0 
1.080259468594e-03 1.578051832696e-05 0.0 
5.557064192502e-04 -2.216420835995e-04 0.0 
1.700705832842e-04 -1.906486237262e-04 0.0 
3.541500176230e-04 -2.193453692668e-04 0.0 
4.424021517520e-04 2.147718933230e-03 0.0 
2.357794115957e-03 1.897609062051e-03 0.0 
1.979249024864e-03 4.757523519851e-03 0.0 
1.642753001559e-04 2.969726616907e-05 0.0 
1.498699476982e-05 -1.244372735807e-04 0.0 
1.402352157013e-04 2.267090248424e-05 0.0 
2.401628686311e-03 2.171737572530e-03 0.0 
2.972560498116e-04 -1.476482485615e-04 0.0 
1.069490215499e-03 -1.061224281902e-05 0.0 
3.472014528191e-04 -1.709567318486e-04 0.0 
4.584916083751e-04 -1.518656371092e-04 0.0 
3.177999612105e-04 -1.720434311107e-04 0.0 
2.110392007595e-03 1.225288159163e-03 0.0 
2.438390197313e-05 -1.715142572201e-06 0.0 
4.098900197582e-04 -1.869862605932e-04 0.0 
1.484206899276e-03 3.293299131769e-04 0.0 
3.438428739808e-04 -2.863215809253e-04 0.0 
4.781033709859e-04 -2.008191028002e-04 0.0 
2.150766202251e-03 1.729305174641e-03 0.0 
2.628621942318e-04 -1.553061570007e-04 0.0 
2.983431605819e-04 -1.838413066498e-04 0.0 
1.011310024580e-03 -3.186354411372e-05 0.0 
3.567054746524e-04 -2.628594994874e-04 0.0 
4.879709776877e-04 2.018467651835e-04 0.0 
5.287352080750e-04 3.254970831738e-04 0.0 
2.638643561493e-04 -1.722631395942e-04 0.0 
3.986911200977e-04 -1.075339777982e-04 0.0 
8.476656132694e-04 -1.271285938430e-04 0.0 
1.410521889701e-03 2.688565768595e-04 0.0 
1.154882513338e-03 5.284847991628e-04 0.0 
5.764109508517e-04 5.964876193163e-04 0.0 
1.291652123129e-04 4.923144732080e-03 0.0 
7.994505139303e-04 1.979163835461e-04 0.0 
5.327334113323e-04 -2.301738126698e-04 0.0 
3.922000593820e-04 -1.799371453845e-04 0.0 
8.164453177292e-04 2.269479255305e-04 0.0 
3.718349012962e-04 -1.146238688751e-04 0.0 
1.711025117387e-03 5.681555094098e-04 0.0 
3.953070383149e-04 -1.181810194035e-04 0.0 
4.053699535578e-04 -2.567709648720e-04 0.0 
3.752492959615e-04 -8.299242662760e-05 0.0 
4.885242284442e-04 -1.121442751015e-04 0.0 
8.042644522270e-04 -1.348475521723e-04 0.0 
3.764187957805e-04 -9.394806225010e-05 0.0 
9.659134183207e-04 -2.528605606733e-05 0.0 
4.520895467118e-04 6.140420892173e-03 0.0 
2.469379231072e-04 -1.665211295937e-04 0.0 
4.120556665547e-04 -2.089265912091e-04 0.0 
3.492005304809e-04 -7.012221776697e-05 0.0 
5.250824176004e-04 -6.081887993377e-05 0.0 
3.572480999226e-04 -2.808507124040e-04 0.0 
3.781129982536e-05 1.977738847624e-03 0.0 
4.878720820133e-05 2.963091718456e-03 0.0 
2.749857037958e-04 -2.500348612583e-04 0.0 
3.430757315272e-04 -5.939987844879e-05 0.0 
2.242369462555e-04 -1.812249479468e-04 0.0 
2.157127216912e-04 -1.709673882427e-04 0.0 
1.322920618275e-03 3.038670232974e-04 0.0 
9.131351265840e-04 -4.053478494529e-05 0.0 
1.307480949460e-03 2.380486719201e-04 0.0 
4.546651082803e-04 -1.965416537876e-04 0.0 
6.007374764913e-04 9.782792283885e-03 0.0 
5.405786036656e-05 1.671226513437e-06 0.0 
2.178745340330e-04 -1.856453922820e-04 0.0 
3.702513670928e-04 -1.393720194940e-05 0.0 
8.711241488474e-04 -1.069014137671e-04 0.0 
6.130259675348e-05 -1.423908806491e-04 0.0 
1.896557094299e-03 7.737180920034e-04 0.0 
5.199016210262e-04 -1.951134806007e-04 0.0 
3.012448938629e-04 -2.579178866017e-04 0.0 
4.664990418903e-04 -2.207475058458e-04 0.0 
5.195458890681e-06 -1.679585325061e-05 0.0 
2.043773377045e-03 1.058699805897e-03 0.0 
2.688827734941e-04 -2.254494979197e-04 0.0 
2.345321624734e-05 -4.519849291739e-05 0.0 
1.518153880960e-03 4.158636187686e-04 0.0 
6.384531230085e-04 1.353880629292e-05 0.0 
2.899940463356e-04 -1.724665703479e-04 0.0 
2.895422677544e-05 -1.130936319683e-04 0.0 
8.433851690086e-04 -9.540362721697e-05 0.0 
3.312931584887e-05 6.472957807276e-03 0.0 
3.182752774914e-04 -2.678527279669e-04 0.0 
5.266084211069e-04 1.189251601779e-04 0.0 
7.883354801826e-04 4.398970113243e-04 0.0 
1.387177929331e-04 7.847502901360e-03 0.0 
7.879818695842e-04 1.274299706388e-03 0.0 
6.721768096377e-04 2.807091384093e-04 0.0 
4.455073672333e-04 -1.834744503592e-04 0.0 
3.884040333943e-04 -1.817910373931e-04 0.0 
1.763507914520e-04 9.778193046001e-06 0.0 
3.448575014512e-04 -2.783584494381e-04 0.0 
7.224382966326e-06 -1.186260257116e-04 0.0 
1.697582635603e-05 -4.064371152819e-05 0.0 
2.723121815567e-04 -1.667644476474e-04 0.0 
4.039093086807e-04 -2.065713029685e-04 0.0 
4.324966297678e-04 2.673605484650e-05 0.0 
4.571894887206e-04 1.012917711032e-04 0.0 
1.188791474116e-03 7.694847658647e-03 0.0 
4.843757142954e-04 -2.130949388302e-04 0.0 
7.410938999018e-05 -1.157821459947e-04 0.0 
8.084583691341e-04 2.903673270301e-05 0.0 
1.765213771364e-05 1.201488798809e-06 0.0 
2.345283692744e-05 1.276412033842e-06 0.0 
3.781659565109e-04 -1.688260778676e-04 0.0 
1.358826756043e-03 7.760255834135e-03 0.0 
3.484770821832e-04 -2.860625235523e-04 0.0 
4.004551115311e-04 -9.163256919546e-05 0.0 
3.580825154737e-04 -2.689438950512e-04 0.0 
4.170832493435e-04 -3.915490116888e-05 0.0 
8.560328426336e-04 -7.442042841315e-05 0.0 
3.451387506351e-04 -1.897123577370e-04 0.0 
4.180502904566e-04 -1.995759319492e-04 0.0 
3.514196652297e-04 -2.847468079748e-04 0.0 
1.133442050572e-04 2.677084642480e-03 0.0 
3.564513021463e-04 -1.833587234727e-04 0.0 
3.820873740391e-04 2.106029027115e-03 0.0 
2.886618235616e-04 3.561494706173e-03 0.0 
4.747678049129e-05 5.764994928363e-04 0.0 
3.767802036211e-06 1.288312064569e-06 0.0 
7.275500898465e-05 7.958393617829e-03 0.0 
3.273382837617e-04 -1.654338874315e-04 0.0 
4.763985889825e-04 2.870445478082e-04 0.0 
3.166746541233e-04 -1.529831498382e-04 0.0 
6.603207103631e-06 5.774435200661e-07 0.0 
3.744991307948e-04 -1.688364441880e-04 0.0 
3.864178978874e-04 -1.341877439237e-04 0.0 
3.620295928900e-04 -2.215149003059e-06 0.0 
9.788832905377e-04 8.647478213896e-03 0.0 
2.250953483976e-04 2.029523466857e-03 0.0 
1.446725374171e-03 3.484701997483e-04 0.0 
5.404943995499e-04 3.605929579541e-05 0.0 
1.626911346657e-03 6.480473599296e-04 0.0 
4.675327074114e-04 7.605365086665e-03 0.0 
2.720519393965e-04 -1.831745624420e-04 0.0 
2.888488790502e-04 -1.890506067970e-04 0.0 
1.567178060258e-04 5.419688946188e-03 0.0 
6.347923242008e-04 3.504855733047e-05 0.0 
1.444643709335e-03 6.753826881498e-03 0.0 
2.391278384900e-04 8.940419218517e-03 0.0 
2.958125518022e-04 8.070026399040e-03 0.0 
5.299392317906e-04 7.718911302699e-03 0.0 
3.741989492464e-04 -2.799401019941e-04 0.0 
2.633347330825e-04 -1.878862992265e-04 0.0 
3.601739011796e-04 1.260295426132e-03 0.0 
5.569687108717e-04 6.666055711466e-03 0.0 
1.691806629530e-04 1.770967052788e-05 0.0 
1.167451059974e-03 4.916250966728e-04 0.0 
1.818708131612e-03 6.548708145225e-04 0.0 
1.116897912946e-03 1.693129121499e-03 0.0 
8.998766293970e-05 -8.643938806669e-05 0.0 
9.310948368205e-05 -9.954461448520e-05 0.0 
9.588840728619e-05 -7.202635808290e-07 0.0 
3.443910665346e-04 -2.870144394196e-04 0.0 
3.716715539459e-05 -1.185416237300e-04 0.0 
7.453757457981e-05 1.257198978871e-05 0.0 
1.561051554979e-05 -1.473087042836e-04 0.0 
2.945644419751e-04 8.638809730057e-03 0.0 
2.181870061452e-04 2.285135491955e-06 0.0 
2.292770881862e-04 -2.227246875039e-04 0.0 
1.831115221948e-04 -2.079432308681e-04 0.0 
2.316865360046e-04 4.584473456853e-04 0.0 
8.131538242193e-04 9.396152912837e-03 0.0 
5.413240635630e-04 1.319181923227e-03 0.0 
2.312532364641e-04 8.454660510620e-06 0.0 
7.364670645532e-04 9.462318861696e-03 0.0 
3.522179754334e-04 -2.776967072492e-04 0.0 
8.146232216073e-05 1.083032678448e-03 0.0 
1.440211550658e-04 -1.754463999387e-04 0.0 
5.872426425347e-04 1.759705927186e-03 0.0 
5.124291764991e-06 6.031069090132e-07 0.0 
1.222957023033e-03 6.823875999658e-04 0.0 
3.922567128452e-04 -2.732767833929e-04 0.0 
1.814065959604e-03 6.560216511248e-03 0.0 
5.466555845218e-05 -8.088929828902e-05 0.0 
7.614707604133e-04 1.709894207047e-05 0.0 
9.057367264816e-05 1.081012458367e-05 0.0 
1.588842679837e-04 4.416938205482e-03 0.0 
8.081725894012e-05 8.514836010258e-06 0.0 
3.587115254769e-04 -2.848045730154e-04 0.0 
3.175866695927e-05 1.557814842195e-06 0.0 
3.823837373235e-04 -2.637889385352e-04 0.0 
7.052547681897e-05 -1.539887911503e-04 0.0 
1.136209454895e-04 3.742335642635e-06 0.0 
8.616583852597e-04 8.545876475736e-04 0.0 
4.968609963104e-04 8.797436908698e-04 0.0 
6.191199495650e-04 8.788750915686e-03 0.0 
2.418585569068e-03 4.254562712341e-03 0.0 
4.586265083036e-04 -1.754024220941e-04 0.0 
7.444408104879e-04 2.921036119545e-04 0.0 
4.928648548938e-05 -9.708880711445e-05 0.0 
3.951085224111e-04 -2.413936178815e-04 0.0 
6.813413602760e-04 2.259943964163e-05 0.0 
4.904261533040e-04 9.811660259658e-03 0.0 
1.134006012553e-03 1.156841828116e-03 0.0 
6.650333982964e-06 5.494308783212e-04 0.0 
6.650333982964e-06 2.315537721145e-04 0.0 
7.107614306821e-06 -1.835329186122e-04 0.0 
4.708200239573e-06 -1.814405871119e-04 0.0 
2.905471678585e-05 9.485209972186e-03 0.0 
7.687310803352e-05 9.837595912565e-03 0.0 
6.476062600002e-07 5.945589604871e-07 0.0 
6.476062600002e-07 1.262282875087e-06 0.0 
3.179997459948e-05 -1.689129754237e-04 0.0 
3.409783267680e-04 -2.894341858275e-04 0.0 
3.180193591807e-05 1.150493520855e-06 0.0 
6.134580881296e-04 8.374092619426e-05 0.0 
1.188225420844e-04 -1.619738574722e-04 0.0 
5.443874573956e-05 5.729757764001e-07 0.0 
9.621681437051e-06 -3.143766797885e-05 0.0 
1.117345481550e-05 -5.284824866328e-05 0.0 
3.901359807641e-04 6.285957785596e-03 0.0 
3.337889704277e-04 -2.603191974369e-04 0.0 
8.536502174165e-04 -9.598849817373e-06 0.0 
1.374668539418e-04 -1.770864763918e-04 0.0 
7.025642432130e-05 -6.957008415762e-05 0.0 
9.732490399932e-04 3.808151982468e-04 0.0 
2.147484208509e-05 2.449395954271e-03 0.0 
2.131684338667e-05 -5.179228306222e-05 0.0 
2.359702497268e-04 7.296131479687e-03 0.0 
7.329460391437e-04 1.426230418706e-04 0.0 
1.416827657395e-03 4.804521679720e-04 0.0 
1.655944928899e-03 5.744329580575e-04 0.0 
6.585451001191e-04 9.463445548454e-03 0.0 
8.144292841508e-04 -4.174972763596e-05 0.0 
1.232630828573e-03 9.517102586041e-04 0.0 
5.249958597543e-05 -1.190525402056e-04 0.0 
2.667575510746e-04 -2.470757110603e-04 0.0 
8.717189295650e-04 1.663193334759e-04 0.0 
3.935545682417e-04 -1.165192132305e-05 0.0 
3.322879264965e-04 -2.658459137143e-04 0.0 
2.150166656660e-04 5.527197301784e-03 0.0 
1.704767645235e-05 2.007417156820e-06 0.0 
7.727321046978e-04 1.158131110041e-04 0.0 
6.648303931524e-04 1.101107382358e-04 0.0 
1.115114164786e-05 -2.192020198608e-05 0.0 
3.578512124278e-04 -2.586176188542e-04 0.0 
4.242630539362e-04 7.803879516088e-05 0.0 
5.256905802455e-04 -9.905621584601e-05 0.0 
2.027742167878e-03 5.910480993579e-03 0.0 
8.627283247888e-04 -3.092748007957e-05 0.0 
4.528851780814e-04 1.733994755826e-03 0.0 
1.573669427200e-04 1.142002836374e-05 0.0 
3.091495197442e-04 -2.652827066254e-04 0.0 
2.741338989610e-04 -2.459760581849e-04 0.0 
3.954927540385e-04 -5.816101265517e-05 0.0 
3.658068185083e-04 5.065544996676e-03 0.0 
7.958401900933e-05 -1.101185159420e-04 0.0 
1.025351310295e-03 1.279328375304e-03 0.0 
7.197494276488e-05 -1.491989908967e-04 0.0 
2.771469660800e-04 1.093721173298e-05 0.0 
1.115084233533e-03 7.700179913978e-03 0.0 
2.514835944064e-04 3.277768558402e-05 0.0 
7.672309605204e-04 4.465781131735e-05 0.0 
2.262224203849e-03 5.131927707521e-03 0.0 
8.838268072088e-05 2.065983951117e-06 0.0 
7.970587292933e-04 9.152896393700e-04 0.0 
6.609980194806e-05 1.270640107808e-03 0.0 
3.716174805276e-04 -1.465165707447e-04 0.0 
1.035486026672e-03 1.716827090231e-03 0.0 
4.583421275417e-04 1.126428148443e-04 0.0 
2.750611841967e-04 7.582563443144e-06 0.0 
6.736943157244e-04 4.516913837365e-05 0.0 
9.461752090998e-06 5.716040822355e-07 0.0 
1.721886461490e-03 6.671074003093e-04 0.0 
3.415573447911e-04 -2.504083123835e-04 0.0 
4.111131971377e-04 -2.240174925110e-04 0.0 
1.326639641405e-03 5.056668077406e-04 0.0 
1.983279538112e-03 5.744318434932e-03 0.0 
1.649810460311e-05 1.408303833238e-06 0.0 
6.082135856832e-04 5.430855463226e-05 0.0 
3.349868863294e-05 1.641495907983e-06 0.0 
3.420841526425e-04 4.047400649277e-03 0.0 
2.168247216744e-04 2.558631577514e-05 0.0 
1.087908443002e-04 -1.385373519836e-07 0.0 
1.165833858021e-04 2.647744342588e-07 0.0 
5.681249519027e-05 -1.028986184909e-04 0.0 
1.479359272628e-05 1.207328236639e-06 0.0 
1.166094903845e-03 8.279773001013e-03 0.0 
2.745579689336e-04 2.053029739007e-03 0.0 
2.833838479781e-04 -2.482530369805e-04 0.0 
1.684537707067e-04 2.872565843374e-03 0.0 
3.260735805791e-04 5.476467261437e-03 0.0 
1.711047613677e-05 -1.589782317929e-04 0.0 
3.880842487811e-04 -2.775417114240e-04 0.0 
1.516467331537e-03 4.931595089323e-04 0.0 
4.004382420174e-04 9.998601763947e-04 0.0 
1.371005735890e-04 1.965750786018e-03 0.0 
2.721741032118e-04 2.659057825431e-05 0.0 
5.812695837873e-04 7.193501237305e-03 0.0 
2.263799695250e-04 -2.266720190295e-04 0.0 
3.685012222766e-04 -2.728391536313e-04 0.0 
2.152800363480e-04 -2.193183246215e-04 0.0 
2.692927295385e-04 -2.361327640425e-04 0.0 
3.385001471091e-04 -2.412117712333e-04 0.0 
6.439574053750e-05 -7.328993380826e-05 0.0 
2.077176442850e-05 1.294213361601e-06 0.0 
1.266987988870e-03 7.706252543522e-04 0.0 
2.441424002635e-03 4.128510080307e-03 0.0 
9.961548435498e-05 -9.473518523205e-05 0.0 
9.235123290197e-05 -1.243669970693e-06 0.0 
1.987886541426e-04 -1.947144794705e-07 0.0 
3.161758164826e-04 4.193242708536e-05 0.0 
6.830395037680e-04 1.479671200436e-04 0.0 
1.250085173610e-03 4.024488324438e-04 0.0 
2.658018164246e-04 -2.389932074825e-04 0.0 
3.562506018781e-04 -2.861153269111e-04 0.0 
2.920187558244e-05 1.075388933131e-06 0.0 
3.184882401239e-05 -1.564302806965e-04 0.0 
6.792160190948e-06 -1.536953428266e-04 0.0 
3.654608527178e-04 -2.276250074294e-04 0.0 
2.168848438460e-04 -2.167200483520e-04 0.0 
6.524313827355e-05 2.305408674238e-06 0.0 
5.395557465207e-04 1.728377148519e-04 0.0 
4.020123140093e-04 1.740241904988e-03 0.0 
2.631814651057e-04 3.976949953786e-05 0.0 
2.420206486967e-04 -4.525105572807e-06 0.0 
4.925433745114e-04 6.638964240047e-03 0.0 
1.058665011358e-04 1.879031137654e-04 0.0 
3.695939119729e-04 -2.597935006811e-04 0.0 
7.499020115207e-04 9.745901157819e-03 0.0 
3.210265495662e-04 -2.641580450528e-04 0.0 
1.679357187657e-04 -2.003936878427e-04 0.0 
9.863257534967e-06 1.256808697243e-06 0.0 
1.876626534764e-03 6.148210666682e-03 0.0 
8.471346074597e-05 -1.610572537113e-04 0.0 
4.607228674437e-05 -7.421234877134e-05 0.0 
6.600303224106e-04 2.258720550279e-04 0.0 
6.594147403996e-04 1.788216956715e-03 0.0 
7.139472810106e-04 6.288366637020e-04 0.0 
3.609317005769e-05 -1.074502778427e-04 0.0 
3.676439956326e-04 -2.782567817253e-04 0.0 
4.523219268869e-05 1.334048900887e-06 0.0 
2.242813652132e-05 4.926663432923e-04 0.0 
2.323369422860e-06 1.345483139495e-06 0.0 
6.757111560762e-05 8.946105899861e-03 0.0 
1.808118885389e-04 3.310548323085e-06 0.0 
9.571835925810e-05 -1.611066037395e-04 0.0 
9.759573095763e-04 1.338651678997e-03 0.0 
1.883302669633e-04 -2.089436037252e-04 0.0 
8.335680139844e-05 3.734341883008e-06 0.0 
9.110223285088e-04 7.742354974219e-04 0.0 
3.582553412388e-04 -2.720141050816e-04 0.0 
7.360716748530e-04 9.672312942682e-05 0.0 
3.270665615626e-04 4.533740231681e-03 0.0 
2.586658695472e-04 9.786187346968e-04 0.0 
3.504632080519e-05 3.987438041012e-06 0.0 
1.240599668232e-04 5.936765369049e-03 0.0 
5.713597313981e-04 2.087715367774e-04 0.0 
1.169235486812e-03 1.088658281419e-03 0.0 
2.591063633025e-04 5.214776734582e-03 0.0 
8.608998322776e-04 2.956587346949e-04 0.0 
5.660025254995e-05 -9.241007602382e-05 0.0 
4.405349361390e-04 9.525624789518e-03 0.0 
4.621433254656e-04 6.120977298257e-05 0.0 
2.298679172323e-05 1.052425229340e-03 0.0 
2.388107272090e-05 -1.761203305431e-04 0.0 
1.386872712341e-04 9.556103636578e-03 0.0 
2.127112177908e-06 2.077005138061e-06 0.0 
1.332169105048e-04 -1.661073699215e-04 0.0 
2.448504670748e-04 4.727444285206e-06 0.0 
1.271539638836e-03 9.123957679069e-04 0.0 
2.971314379785e-04 1.279111924663e-03 0.0 
8.747053549595e-05 -1.530888673019e-04 0.0 
3.852320556865e-04 -2.468106021177e-04 0.0 
4.413674034151e-06 -4.698285792570e-05 0.0 
1.373418170058e-04 3.514313890575e-03 0.0 
3.409117936618e-04 -2.887363656514e-04 0.0 
6.125476455234e-04 7.399133307948e-04 0.0 
2.209854129032e-04 6.130283524361e-03 0.0 
3.227411249225e-04 -2.552647573254e-04 0.0 
3.933707442398e-04 6.856727842345e-03 0.0 
3.583547979695e-04 5.368077701713e-05 0.0 
8.079672714023e-06 -4.137211093544e-05 0.0 
3.459341763592e-04 -2.362290689436e-04 0.0 
7.048061150801e-05 -1.033892590395e-04 0.0 
6.125817859732e-05 -6.225777206695e-05 0.0 
3.665998679872e-06 -3.597750604791e-05 0.0 
3.661556588350e-04 3.174019967212e-05 0.0 
3.221225993458e-05 -6.177097925109e-05 0.0 
3.970506956886e-05 -5.480994070782e-05 0.0 
1.941925356559e-04 -2.073588073756e-04 0.0 
5.902108487246e-05 4.759428549320e-07 0.0 
9.228287473606e-04 1.943652423739e-04 0.0 
4.098392599818e-04 -2.474216889756e-04 0.0 
3.876459426158e-05 9.956606943108e-04 0.0 
3.802875340768e-06 2.160205402469e-06 0.0 
1.293852788082e-04 9.001329453162e-03 0.0 
1.638412298658e-04 6.351339227954e-03 0.0 
4.463663270132e-05 -6.416615348845e-05 0.0 
4.874583454578e-05 -6.031327803647e-05 0.0 
2.927182690441e-05 -5.569031842003e-05 0.0 
3.148210326335e-04 2.176194342756e-06 0.0 
3.156324828045e-04 -2.578566568654e-04 0.0 
8.046920236788e-04 1.812515272841e-04 0.0 
2.445245690650e-04 7.864554726696e-03 0.0 
7.413403171159e-04 1.000038425641e-03 0.0 
2.946066642254e-04 3.778364566539e-07 0.0 
4.544377230477e-04 7.052863549851e-03 0.0 
1.168642060258e-03 4.215294944744e-04 0.0 
3.800841759262e-04 3.752699897687e-05 0.0 
2.888292957881e-04 3.349854656869e-05 0.0 
3.534551217700e-04 -2.426660086205e-04 0.0 
1.136590074992e-03 3.805249279230e-04 0.0 
9.561119504939e-04 3.098116973314e-04 0.0 
1.838196626454e-04 -2.040662942887e-04 0.0 
5.128829296905e-05 -6.983049716957e-05 0.0 
3.512245188244e-04 -2.515000950523e-04 0.0 
1.001037470770e-03 3.672698027368e-04 0.0 

VECTORS element_materi_displacement float
0.0 0.0 0.0 
0.0 0.0 0.0 
0.0 0.0 0.0 
0.0 0.0 0.0 
0.0 0.0 0.0 
0.0 0.0 0.0 
0.0 0.0 0.0 
0.0 0.0 0.0 
0.0 0.0 0.0 
0.0 0.0 0.0 
0.0 0.0 0.0 
0.0 0.0 0.0 
0.0 0.0 0.0 
0.0 0.0 0.0 
0.0 0.0 0.0 
0.0 0.0 0.0 
0.0 0.0 0.0 
0.0 0.0 0.0 
0.0 0.0 0.0 
0.0 0.0 0.0 
0.0 0.0 0.0 
0.0 0.0 0.0 
0.0 0.0 0.0 
0.0 0.0 0.0 
0.0 0.0 0.0 
0.0 0.0 0.0 
0.0 0.0 0.0 
0.0 0.0 0.0 
0.0 0.0 0.0 
0.0 0.0 0.0 
0.0 0.0 0.0 
0.0 0.0 0.0 
0.0 0.0 0.0 
0.0 0.0 0.0 
0.0 0.0 0.0 
0.0 0.0 0.0 
0.0 0.0 0.0 
0.0 0.0 0.0 
0.0 0.0 0.0 
0.0 0.0 0.0 
0.0 0.0 0.0 
0.0 0.0 0.0 
0.0 0.0 0.0 
0.0 0.0 0.0 
0.0 0.0 0.0 
0.0 0.0 0.0 
0.0 0.0 0.0 
0.0 0.0 0.0 
0.0 0.0 0.0 
0.0 0.0 0.0 
0.0 0.0 0.0 
0.0 0.0 0.0 
0.0 0.0 0.0 
0.0 0.0 0.0 
0.0 0.0 0.0 
0.0 0.0 0.0 
0.0 0.0 0.0 
0.0 0.0 0.0 
0.0 0.0 0.0 
0.0 0.0 0.0 
0.0 0.0 0.0 
0.0 0.0 0.0 
0.0 0.0 0.0 
0.0 0.0 0.0 
0.0 0.0 0.0 
0.0 0.0 0.0 
0.0 0.0 0.0 
0.0 0.0 0.0 
0.0 0.0 0.0 
0.0 0.0 0.0 
0.0 0.0 0.0 
0.0 0.0 0.0 
0.0 0.0 0.0 
0.0 0.0 0.0 
0.0 0.0 0.0 
0.0 0.0 0.0 
0.0 0.0 0.0 
0.0 0.0 0.0 
0.0 0.0 0.0 
0.0 0.0 0.0 
0.0 0.0 0.0 
0.0 0.0 0.0 
0.0 0.0 0.0 
0.0 0.0 0.0 
0.0 0.0 0.0 
0.0 0.0 0.0 
0.0 0.0 0.0 
0.0 0.0 0.0 
0.0 0.0 0.0 
0.0 0.0 0.0 
0.0 0.0 0.0 
0.0 0.0 0.0 
0.0 0.0 0.0 
0.0 0.0 0.0 
0.0 0.0 0.0 
0.0 0.0 0.0 
0.0 0.0 0.0 
0.0 0.0 0.0 
0.0 0.0 0.0 
0.0 0.0 0.0 
0.0 0.0 0.0 
0.0 0.0 0.0 
0.0 0.0 0.0 
0.0 0.0 0.0 
0.0 0.0 0.0 
0.0 0.0 0.0 
0.0 0.0 0.0 
0.0 0.0 0.0 
0.0 0.0 0.0 
0.0 0.0 0.0 
0.0 0.0 0.0 
0.0 0.0 0.0 
0.0 0.0 0.0 
0.0 0.0 0.0 
0.0 0.0 0.0 
0.0 0.0 0.0 
0.0 0.0 0.0 
0.0 0.0 0.0 
0.0 0.0 0.0 
0.0 0.0 0.0 
0.0 0.0 0.0 
0.0 0.0 0.0 
0.0 0.0 0.0 
0.0 0.0 0.0 
0.0 0.0 0.0 
0.0 0.0 0.0 
0.0 0.0 0.0 
0.0 0.0 0.0 
0.0 0.0 0.0 
0.0 0.0 0.0 
0.0 0.0 0.0 
0.0 0.0 0.0 
0.0 0.0 0.0 
0.0 0.0 0.0 
0.0 0.0 0.0 
0.0 0.0 0.0 
0.0 0.0 0.0 
0.0 0.0 0.0 
0.0 0.0 0.0 
0.0 0.0 0.0 
0.0 0.0 0.0 
0.0 0.0 0.0 
0.0 0.0 0.0 
0.0 0.0 0.0 
0.0 0.0 0.0 
0.0 0.0 0.0 
0.0 0.0 0.0 
0.0 0.0 0.0 
0.0 0.0 0.0 
0.0 0.0 0.0 
0.0 0.0 0.0 
0.0 0.0 0.0 
0.0 0.0 0.0 
0.0 0.0 0.0 
0.0 0.0 0.0 
0.0 0.0 0.0 
0.0 0.0 0.0 
0.0 0.0 0.0 
0.0 0.0 0.0 
0.0 0.0 0.0 
0.0 0.0 0.0 
0.0 0.0 0.0 
0.0 0.0 0.0 
0.0 0.0 0.0 
0.0 0.0 0.0 
0.0 0.0 0.0 
0.0 0.0 0.0 
0.0 0.0 0.0 
0.0 0.0 0.0 
0.0 0.0 0.0 
0.0 0.0 0.0 
0.0 0.0 0.0 
0.0 0.0 0.0 
0.0 0.0 0.0 
0.0 0.0 0.0 
0.0 0.0 0.0 
0.0 0.0 0.0 
0.0 0.0 0.0 
0.0 0.0 0.0 
0.0 0.0 0.0 
0.0 0.0 0.0 
0.0 0.0 0.0 
0.0 0.0 0.0 
0.0 0.0 0.0 
0.0 0.0 0.0 
0.0 0.0 0.0 
0.0 0.0 0.0 
0.0 0.0 0.0 
0.0 0.0 0.0 
0.0 0.0 0.0 
0.0 0.0 0.0 
0.0 0.0 0.0 
0.0 0.0 0.0 
0.0 0.0 0.0 
0.0 0.0 0.0 
0.0 0.0 0.0 
0.0 0.0 0.0 
0.0 0.0 0.0 
0.0 0.0 0.0 
0.0 0.0 0.0 
0.0 0.0 0.0 
0.0 0.0 0.0 
0.0 0.0 0.0 
0.0 0.0 0.0 
0.0 0.0 0.0 
0.0 0.0 0.0 
0.0 0.0 0.0 
0.0 0.0 0.0 
0.0 0.0 0.0 
0.0 0.0 0.0 
0.0 0.0 0.0 
0.0 0.0 0.0 
0.0 0.0 0.0 
0.0 0.0 0.0 
0.0 0.0 0.0 
0.0 0.0 0.0 
0.0 0.0 0.0 
0.0 0.0 0.0 
0.0 0.0 0.0 
0.0 0.0 0.0 
0.0 0.0 0.0 
0.0 0.0 0.0 
0.0 0.0 0.0 
0.0 0.0 0.0 
0.0 0.0 0.0 
0.0 0.0 0.0 
0.0 0.0 0.0 
0.0 0.0 0.0 
0.0 0.0 0.0 
0.0 0.0 0.0 
0.0 0.0 0.0 
0.0 0.0 0.0 
0.0 0.0 0.0 
0.0 0.0 0.0 
0.0 0.0 0.0 
0.0 0.0 0.0 
0.0 0.0 0.0 
0.0 0.0 0.0 
0.0 0.0 0.0 
0.0 0.0 0.0 
0.0 0.0 0.0 
0.0 0.0 0.0 
0.0 0.0 0.0 
0.0 0.0 0.0 
0.0 0.0 0.0 
0.0 0.0 0.0 
0.0 0.0 0.0 
0.0 0.0 0.0 
0.0 0.0 0.0 
0.0 0.0 0.0 
0.0 0.0 0.0 
0.0 0.0 0.0 
0.0 0.0 0.0 
0.0 0.0 0.0 
0.0 0.0 0.0 
0.0 0.0 0.0 
0.0 0.0 0.0 
0.0 0.0 0.0 
0.0 0.0 0.0 
0.0 0.0 0.0 
0.0 0.0 0.0 
0.0 0.0 0.0 
0.0 0.0 0.0 
0.0 0.0 0.0 
0.0 0.0 0.0 
0.0 0.0 0.0 
0.0 0.0 0.0 
0.0 0.0 0.0 
0.0 0.0 0.0 
0.0 0.0 0.0 
0.0 0.0 0.0 
0.0 0.0 0.0 
0.0 0.0 0.0 
0.0 0.0 0.0 
0.0 0.0 0.0 
0.0 0.0 0.0 
0.0 0.0 0.0 
0.0 0.0 0.0 
0.0 0.0 0.0 
0.0 0.0 0.0 
0.0 0.0 0.0 
0.0 0.0 0.0 
0.0 0.0 0.0 
0.0 0.0 0.0 
0.0 0.0 0.0 
0.0 0.0 0.0 
0.0 0.0 0.0 
0.0 0.0 0.0 
0.0 0.0 0.0 
0.0 0.0 0.0 
0.0 0.0 0.0 
0.0 0.0 0.0 
0.0 0.0 0.0 
0.0 0.0 0.0 
0.0 0.0 0.0 
0.0 0.0 0.0 
0.0 0.0 0.0 
0.0 0.0 0.0 
0.0 0.0 0.0 
0.0 0.0 0.0 
0.0 0.0 0.0 
0.0 0.0 0.0 
0.0 0.0 0.0 
0.0 0.0 0.0 
0.0 0.0 0.0 
0.0 0.0 0.0 
0.0 0.0 0.0 
0.0 0.0 0.0 
0.0 0.0 0.0 
0.0 0.0 0.0 
0.0 0.0 0.0 
0.0 0.0 0.0 
0.0 0.0 0.0 
0.0 0.0 0.0 
0.0 0.0 0.0 
0.0 0.0 0.0 
0.0 0.0 0.0 
0.0 0.0 0.0 
0.0 0.0 0.0 
0.0 0.0 0.0 
0.0 0.0 0.0 
0.0 0.0 0.0 
0.0 0.0 0.0 
0.0 0.0 0.0 
0.0 0.0 0.0 
0.0 0.0 0.0 
0.0 0.0 0.0 
0.0 0.0 0.0 
0.0 0.0 0.0 
0.0 0.0 0.0 
0.0 0.0 0.0 
0.0 0.0 0.0 
0.0 0.0 0.0 
0.0 0.0 0.0 
0.0 0.0 0.0 
0.0 0.0 0.0 
0.0 0.0 0.0 
0.0 0.0 0.0 
0.0 0.0 0.0 
0.0 0.0 0.0 
0.0 0.0 0.0 
0.0 0.0 0.0 
0.0 0.0 0.0 
0.0 0.0 0.0 
0.0 0.0 0.0 
0.0 0.0 0.0 
0.0 0.0 0.0 
0.0 0.0 0.0 
0.0 0.0 0.0 
0.0 0.0 0.0 
0.0 0.0 0.0 
0.0 0.0 0.0 
0.0 0.0 0.0 
0.0 0.0 0.0 
0.0 0.0 0.0 
0.0 0.0 0.0 
0.0 0.0 0.0 
0.0 0.0 0.0 
0.0 0.0 0.0 
0.0 0.0 0.0 
0.0 0.0 0.0 
0.0 0.0 0.0 
0.0 0.0 0.0 
0.0 0.0 0.0 
0.0 0.0 0.0 
0.0 0.0 0.0 
0.0 0.0 0.0 
0.0 0.0 0.0 
0.0 0.0 0.0 
0.0 0.0 0.0 
0.0 0.0 0.0 
0.0 0.0 0.0 
0.0 0.0 0.0 
0.0 0.0 0.0 
0.0 0.0 0.0 
0.0 0.0 0.0 
0.0 0.0 0.0 
0.0 0.0 0.0 
0.0 0.0 0.0 
0.0 0.0 0.0 
0.0 0.0 0.0 
0.0 0.0 0.0 
0.0 0.0 0.0 
0.0 0.0 0.0 
0.0 0.0 0.0 
0.0 0.0 0.0 
0.0 0.0 0.0 
0.0 0.0 0.0 
0.0 0.0 0.0 
0.0 0.0 0.0 
0.0 0.0 0.0 
0.0 0.0 0.0 
0.0 0.0 0.0 
0.0 0.0 0.0 
0.0 0.0 0.0 
0.0 0.0 0.0 
0.0 0.0 0.0 
0.0 0.0 0.0 
0.0 0.0 0.0 
0.0 0.0 0.0 
0.0 0.0 0.0 
0.0 0.0 0.0 
0.0 0.0 0.0 
0.0 0.0 0.0 
0.0 0.0 0.0 
0.0 0.0 0.0 
0.0 0.0 0.0 
0.0 0.0 0.0 
0.0 0.0 0.0 
0.0 0.0 0.0 
0.0 0.0 0.0 
0.0 0.0 0.0 
0.0 0.0 0.0 
0.0 0.0 0.0 
0.0 0.0 0.0 
0.0 0.0 0.0 
0.0 0.0 0.0 
0.0 0.0 0.0 
0.0 0.0 0.0 
0.0 0.0 0.0 
0.0 0.0 0.0 
0.0 0.0 0.0 
0.0 0.0 0.0 
0.0 0.0 0.0 
0.0 0.0 0.0 
0.0 0.0 0.0 
0.0 0.0 0.0 
0.0 0.0 0.0 
0.0 0.0 0.0 
0.0 0.0 0.0 
0.0 0.0 0.0 
0.0 0.0 0.0 
0.0 0.0 0.0 
0.0 0.0 0.0 
0.0 0.0 0.0 
0.0 0.0 0.0 
0.0 0.0 0.0 
0.0 0.0 0.0 
0.0 0.0 0.0 
0.0 0.0 0.0 
0.0 0.0 0.0 
0.0 0.0 0.0 
0.0 0.0 0.0 
0.0 0.0 0.0 
0.0 0.0 0.0 
0.0 0.0 0.0 
0.0 0.0 0.0 
0.0 0.0 0.0 
0.0 0.0 0.0 
0.0 0.0 0.0 
0.0 0.0 0.0 
0.0 0.0 0.0 
0.0 0.0 0.0 
0.0 0.0 0.0 
0.0 0.0 0.0 
0.0 0.0 0.0 
0.0 0.0 0.0 
0.0 0.0 0.0 
0.0 0.0 0.0 
0.0 0.0 0.0 
0.0 0.0 0.0 
0.0 0.0 0.0 
0.0 0.0 0.0 
0.0 0.0 0.0 
0.0 0.0 0.0 
0.0 0.0 0.0 
0.0 0.0 0.0 
0.0 0.0 0.0 
0.0 0.0 0.0 
0.0 0.0 0.0 
0.0 0.0 0.0 
0.0 0.0 0.0 
0.0 0.0 0.0 
0.0 0.0 0.0 
0.0 0.0 0.0 
0.0 0.0 0.0 
0.0 0.0 0.0 
0.0 0.0 0.0 
0.0 0.0 0.0 
0.0 0.0 0.0 
0.0 0.0 0.0 
0.0 0.0 0.0 
0.0 0.0 0.0 
0.0 0.0 0.0 
0.0 0.0 0.0 
0.0 0.0 0.0 
0.0 0.0 0.0 
0.0 0.0 0.0 
0.0 0.0 0.0 
0.0 0.0 0.0 
0.0 0.0 0.0 
0.0 0.0 0.0 
0.0 0.0 0.0 
0.0 0.0 0.0 
0.0 0.0 0.0 
0.0 0.0 0.0 
0.0 0.0 0.0 
0.0 0.0 0.0 
0.0 0.0 0.0 
0.0 0.0 0.0 
0.0 0.0 0.0 
0.0 0.0 0.0 
0.0 0.0 0.0 
0.0 0.0 0.0 
0.0 0.0 0.0 
0.0 0.0 0.0 
0.0 0.0 0.0 
0.0 0.0 0.0 
0.0 0.0 0.0 
0.0 0.0 0.0 
0.0 0.0 0.0 
0.0 0.0 0.0 
0.0 0.0 0.0 
0.0 0.0 0.0 
0.0 0.0 0.0 
0.0 0.0 0.0 
0.0 0.0 0.0 
0.0 0.0 0.0 
0.0 0.0 0.0 
0.0 0.0 0.0 
0.0 0.0 0.0 
0.0 0.0 0.0 
0.0 0.0 0.0 
0.0 0.0 0.0 
0.0 0.0 0.0 
0.0 0.0 0.0 
0.0 0.0 0.0 
0.0 0.0 0.0 
0.0 0.0 0.0 
0.0 0.0 0.0 
0.0 0.0 0.0 
0.0 0.0 0.0 
0.0 0.0 0.0 
0.0 0.0 0.0 
0.0 0.0 0.0 
0.0 0.0 0.0 
0.0 0.0 0.0 
0.0 0.0 0.0 
0.0 0.0 0.0 
0.0 0.0 0.0 
0.0 0.0 0.0 
0.0 0.0 0.0 
0.0 0.0 0.0 
0.0 0.0 0.0 
0.0 0.0 0.0 
0.0 0.0 0.0 
0.0 0.0 0.0 
0.0 0.0 0.0 
0.0 0.0 0.0 
0.0 0.0 0.0 
0.0 0.0 0.0 
0.0 0.0 0.0 
0.0 0.0 0.0 
0.0 0.0 0.0 
0.0 0.0 0.0 
0.0 0.0 0.0 
0.0 0.0 0.0 
0.0 0.0 0.0 
0.0 0.0 0.0 
0.0 0.0 0.0 
0.0 0.0 0.0 
0.0 0.0 0.0 
0.0 0.0 0.0 
0.0 0.0 0.0 
0.0 0.0 0.0 
0.0 0.0 0.0 
0.0 0.0 0.0 
0.0 0.0 0.0 
0.0 0.0 0.0 
0.0 0.0 0.0 
0.0 0.0 0.0 
0.0 0.0 0.0 
0.0 0.0 0.0 
0.0 0.0 0.0 
0.0 0.0 0.0 
0.0 0.0 0.0 
0.0 0.0 0.0 
0.0 0.0 0.0 
0.0 0.0 0.0 
0.0 0.0 0.0 
0.0 0.0 0.0 
0.0 0.0 0.0 
0.0 0.0 0.0 
0.0 0.0 0.0 
0.0 0.0 0.0 
0.0 0.0 0.0 
0.0 0.0 0.0 
0.0 0.0 0.0 
0.0 0.0 0.0 
0.0 0.0 0.0 
0.0 0.0 0.0 
0.0 0.0 0.0 
0.0 0.0 0.0 
0.0 0.0 0.0 
0.0 0.0 0.0 
0.0 0.0 0.0 
0.0 0.0 0.0 
0.0 0.0 0.0 
0.0 0.0 0.0 
0.0 0.0 0.0 
0.0 0.0 0.0 
0.0 0.0 0.0 
0.0 0.0 0.0 
0.0 0.0 0.0 
0.0 0.0 0.0 
0.0 0.0 0.0 
0.0 0.0 0.0 
0.0 0.0 0.0 
0.0 0.0 0.0 
0.0 0.0 0.0 
0.0 0.0 0.0 
0.0 0.0 0.0 
0.0 0.0 0.0 
0.0 0.0 0.0 
0.0 0.0 0.0 
0.0 0.0 0.0 
0.0 0.0 0.0 
0.0 0.0 0.0 
0.0 0.0 0.0 
0.0 0.0 0.0 
0.0 0.0 0.0 
0.0 0.0 0.0 
0.0 0.0 0.0 
0.0 0.0 0.0 
0.0 0.0 0.0 
0.0 0.0 0.0 
0.0 0.0 0.0 
0.0 0.0 0.0 
0.0 0.0 0.0 
0.0 0.0 0.0 
0.0 0.0 0.0 
0.0 0.0 0.0 
0.0 0.0 0.0 
0.0 0.0 0.0 
0.0 0.0 0.0 
0.0 0.0 0.0 
0.0 0.0 0.0 
0.0 0.0 0.0 
0.0 0.0 0.0 
0.0 0.0 0.0 
0.0 0.0 0.0 
0.0 0.0 0.0 
0.0 0.0 0.0 
0.0 0.0 0.0 
0.0 0.0 0.0 
0.0 0.0 0.0 
0.0 0.0 0.0 
0.0 0.0 0.0 
0.0 0.0 0.0 
0.0 0.0 0.0 
0.0 0.0 0.0 
0.0 0.0 0.0 
0.0 0.0 0.0 
0.0 0.0 0.0 
0.0 0.0 0.0 
0.0 0.0 0.0 
0.0 0.0 0.0 
0.0 0.0 0.0 
0.0 0.0 0.0 
0.0 0.0 0.0 
0.0 0.0 0.0 
0.0 0.0 0.0 
0.0 0.0 0.0 
0.0 0.0 0.0 
0.0 0.0 0.0 
0.0 0.0 0.0 
0.0 0.0 0.0 
0.0 0.0 0.0 
0.0 0.0 0.0 
0.0 0.0 0.0 
0.0 0.0 0.0 
0.0 0.0 0.0 
0.0 0.0 0.0 
0.0 0.0 0.0 
0.0 0.0 0.0 
0.0 0.0 0.0 
0.0 0.0 0.0 
0.0 0.0 0.0 
0.0 0.0 0.0 
0.0 0.0 0.0 
0.0 0.0 0.0 
0.0 0.0 0.0 
0.0 0.0 0.0 
0.0 0.0 0.0 
0.0 0.0 0.0 
0.0 0.0 0.0 
0.0 0.0 0.0 
0.0 0.0 0.0 
0.0 0.0 0.0 
0.0 0.0 0.0 
0.0 0.0 0.0 
0.0 0.0 0.0 
0.0 0.0 0.0 
0.0 0.0 0.0 
0.0 0.0 0.0 
0.0 0.0 0.0 
0.0 0.0 0.0 
0.0 0.0 0.0 
0.0 0.0 0.0 
0.0 0.0 0.0 
0.0 0.0 0.0 
0.0 0.0 0.0 
0.0 0.0 0.0 
0.0 0.0 0.0 
0.0 0.0 0.0 
0.0 0.0 0.0 
0.0 0.0 0.0 
0.0 0.0 0.0 
0.0 0.0 0.0 
0.0 0.0 0.0 
0.0 0.0 0.0 
0.0 0.0 0.0 
0.0 0.0 0.0 
0.0 0.0 0.0 
0.0 0.0 0.0 
0.0 0.0 0.0 
0.0 0.0 0.0 
0.0 0.0 0.0 
0.0 0.0 0.0 
0.0 0.0 0.0 
0.0 0.0 0.0 
0.0 0.0 0.0 
0.0 0.0 0.0 
0.0 0.0 0.0 
0.0 0.0 0.0 
0.0 0.0 0.0 
0.0 0.0 0.0 
0.0 0.0 0.0 
0.0 0.0 0.0 
0.0 0.0 0.0 
0.0 0.0 0.0 
0.0 0.0 0.0 
0.0 0.0 0.0 
0.0 0.0 0.0 
0.0 0.0 0.0 
0.0 0.0 0.0 
0.0 0.0 0.0 
0.0 0.0 0.0 
0.0 0.0 0.0 
0.0 0.0 0.0 
0.0 0.0 0.0 
0.0 0.0 0.0 
0.0 0.0 0.0 
0.0 0.0 0.0 
0.0 0.0 0.0 
0.0 0.0 0.0 
0.0 0.0 0.0 
0.0 0.0 0.0 
0.0 0.0 0.0 
0.0 0.0 0.0 
0.0 0.0 0.0 
0.0 0.0 0.0 
0.0 0.0 0.0 
0.0 0.0 0.0 
0.0 0.0 0.0 
0.0 0.0 0.0 
0.0 0.0 0.0 
0.0 0.0 0.0 
0.0 0.0 0.0 
0.0 0.0 0.0 
0.0 0.0 0.0 
0.0 0.0 0.0 
0.0 0.0 0.0 
0.0 0.0 0.0 
0.0 0.0 0.0 
0.0 0.0 0.0 
0.0 0.0 0.0 
0.0 0.0 0.0 
0.0 0.0 0.0 
0.0 0.0 0.0 
0.0 0.0 0.0 
0.0 0.0 0.0 
0.0 0.0 0.0 
0.0 0.0 0.0 
0.0 0.0 0.0 
0.0 0.0 0.0 
0.0 0.0 0.0 
0.0 0.0 0.0 
0.0 0.0 0.0 
0.0 0.0 0.0 
0.0 0.0 0.0 
0.0 0.0 0.0 
0.0 0.0 0.0 
0.0 0.0 0.0 
0.0 0.0 0.0 
0.0 0.0 0.0 
0.0 0.0 0.0 
0.0 0.0 0.0 
0.0 0.0 0.0 
0.0 0.0 0.0 
0.0 0.0 0.0 
0.0 0.0 0.0 
0.0 0.0 0.0 
0.0 0.0 0.0 
0.0 0.0 0.0 
0.0 0.0 0.0 
0.0 0.0 0.0 
0.0 0.0 0.0 
0.0 0.0 0.0 
0.0 0.0 0.0 
0.0 0.0 0.0 
0.0 0.0 0.0 
0.0 0.0 0.0 
0.0 0.0 0.0 
0.0 0.0 0.0 
0.0 0.0 0.0 
0.0 0.0 0.0 
0.0 0.0 0.0 
0.0 0.0 0.0 
0.0 0.0 0.0 
0.0 0.0 0.0 
0.0 0.0 0.0 
0.0 0.0 0.0 
0.0 0.0 0.0 
0.0 0.0 0.0 
0.0 0.0 0.0 
0.0 0.0 0.0 
0.0 0.0 0.0 
0.0 0.0 0.0 
0.0 0.0 0.0 
0.0 0.0 0.0 
0.0 0.0 0.0 
0.0 0.0 0.0 
0.0 0.0 0.0 
0.0 0.0 0.0 
0.0 0.0 0.0 
0.0 0.0 0.0 
0.0 0.0 0.0 
0.0 0.0 0.0 
0.0 0.0 0.0 
0.0 0.0 0.0 
0.0 0.0 0.0 
0.0 0.0 0.0 
0.0 0.0 0.0 
0.0 0.0 0.0 
0.0 0.0 0.0 
0.0 0.0 0.0 
0.0 0.0 0.0 
0.0 0.0 0.0 
0.0 0.0 0.0 
0.0 0.0 0.0 
0.0 0.0 0.0 
0.0 0.0 0.0 
0.0 0.0 0.0 
0.0 0.0 0.0 
0.0 0.0 0.0 
0.0 0.0 0.0 
0.0 0.0 0.0 
0.0 0.0 0.0 
0.0 0.0 0.0 
0.0 0.0 0.0 
0.0 0.0 0.0 
0.0 0.0 0.0 
0.0 0.0 0.0 
0.0 0.0 0.0 
0.0 0.0 0.0 
0.0 0.0 0.0 
0.0 0.0 0.0 
0.0 0.0 0.0 
0.0 0.0 0.0 
0.0 0.0 0.0 
0.0 0.0 0.0 
0.0 0.0 0.0 
0.0 0.0 0.0 
0.0 0.0 0.0 
0.0 0.0 0.0 
0.0 0.0 0.0 
0.0 0.0 0.0 
0.0 0.0 0.0 
0.0 0.0 0.0 
0.0 0.0 0.0 
0.0 0.0 0.0 
0.0 0.0 0.0 
0.0 0.0 0.0 
0.0 0.0 0.0 
0.0 0.0 0.0 
0.0 0.0 0.0 
0.0 0.0 0.0 
0.0 0.0 0.0 
0.0 0.0 0.0 
0.0 0.0 0.0 
0.0 0.0 0.0 
0.0 0.0 0.0 
0.0 0.0 0.0 
0.0 0.0 0.0 
0.0 0.0 0.0 
0.0 0.0 0.0 
0.0 0.0 0.0 
0.0 0.0 0.0 
0.0 0.0 0.0 
0.0 0.0 0.0 
0.0 0.0 0.0 
0.0 0.0 0.0 
0.0 0.0 0.0 
0.0 0.0 0.0 
0.0 0.0 0.0 
0.0 0.0 0.0 
0.0 0.0 0.0 
0.0 0.0 0.0 
0.0 0.0 0.0 
0.0 0.0 0.0 
0.0 0.0 0.0 
0.0 0.0 0.0 
0.0 0.0 0.0 
0.0 0.0 0.0 
0.0 0.0 0.0 
0.0 0.0 0.0 
0.0 0.0 0.0 
0.0 0.0 0.0 
0.0 0.0 0.0 
0.0 0.0 0.0 
0.0 0.0 0.0 
0.0 0.0 0.0 
0.0 0.0 0.0 
0.0 0.0 0.0 
0.0 0.0 0.0 
0.0 0.0 0.0 
0.0 0.0 0.0 
0.0 0.0 0.0 
0.0 0.0 0.0 
0.0 0.0 0.0 
0.0 0.0 0.0 
0.0 0.0 0.0 
0.0 0.0 0.0 
0.0 0.0 0.0 
0.0 0.0 0.0 
0.0 0.0 0.0 
0.0 0.0 0.0 
0.0 0.0 0.0 
0.0 0.0 0.0 
0.0 0.0 0.0 
0.0 0.0 0.0 
0.0 0.0 0.0 
0.0 0.0 0.0 
0.0 0.0 0.0 
0.0 0.0 0.0 
0.0 0.0 0.0 
0.0 0.0 0.0 
0.0 0.0 0.0 
0.0 0.0 0.0 
0.0 0.0 0.0 
0.0 0.0 0.0 
0.0 0.0 0.0 
0.0 0.0 0.0 
0.0 0.0 0.0 
0.0 0.0 0.0 
0.0 0.0 0.0 
0.0 0.0 0.0 
0.0 0.0 0.0 
0.0 0.0 0.0 
0.0 0.0 0.0 
0.0 0.0 0.0 
0.0 0.0 0.0 
0.0 0.0 0.0 
0.0 0.0 0.0 
0.0 0.0 0.0 
0.0 0.0 0.0 
0.0 0.0 0.0 
0.0 0.0 0.0 
0.0 0.0 0.0 
0.0 0.0 0.0 
0.0 0.0 0.0 
0.0 0.0 0.0 
0.0 0.0 0.0 
0.0 0.0 0.0 
0.0 0.0 0.0 
0.0 0.0 0.0 
0.0 0.0 0.0 
0.0 0.0 0.0 
0.0 0.0 0.0 
0.0 0.0 0.0 
0.0 0.0 0.0 
0.0 0.0 0.0 
0.0 0.0 0.0 
0.0 0.0 0.0 
0.0 0.0 0.0 
0.0 0.0 0.0 
0.0 0.0 0.0 
0.0 0.0 0.0 
0.0 0.0 0.0 
0.0 0.0 0.0 
0.0 0.0 0.0 
0.0 0.0 0.0 
0.0 0.0 0.0 
0.0 0.0 0.0 
0.0 0.0 0.0 
0.0 0.0 0.0 
0.0 0.0 0.0 
0.0 0.0 0.0 
0.0 0.0 0.0 
0.0 0.0 0.0 
0.0 0.0 0.0 
0.0 0.0 0.0 
0.0 0.0 0.0 
0.0 0.0 0.0 
0.0 0.0 0.0 
0.0 0.0 0.0 
0.0 0.0 0.0 
0.0 0.0 0.0 
0.0 0.0 0.0 
0.0 0.0 0.0 
0.0 0.0 0.0 
0.0 0.0 0.0 
0.0 0.0 0.0 
0.0 0.0 0.0 
0.0 0.0 0.0 
0.0 0.0 0.0 
0.0 0.0 0.0 
0.0 0.0 0.0 
0.0 0.0 0.0 
0.0 0.0 0.0 
0.0 0.0 0.0 
0.0 0.0 0.0 
0.0 0.0 0.0 
0.0 0.0 0.0 
0.0 0.0 0.0 
0.0 0.0 0.0 
0.0 0.0 0.0 
0.0 0.0 0.0 
0.0 0.0 0.0 
0.0 0.0 0.0 
0.0 0.0 0.0 
0.0 0.0 0.0 
0.0 0.0 0.0 
0.0 0.0 0.0 
0.0 0.0 0.0 
0.0 0.0 0.0 
0.0 0.0 0.0 
0.0 0.0 0.0 
0.0 0.0 0.0 
0.0 0.0 0.0 
0.0 0.0 0.0 
0.0 0.0 0.0 
0.0 0.0 0.0 
0.0 0.0 0.0 
0.0 0.0 0.0 
0.0 0.0 0.0 
0.0 0.0 0.0 
0.0 0.0 0.0 
0.0 0.0 0.0 
0.0 0.0 0.0 
0.0 0.0 0.0 
0.0 0.0 0.0 
0.0 0.0 0.0 
0.0 0.0 0.0 
0.0 0.0 0.0 
0.0 0.0 0.0 
0.0 0.0 0.0 
0.0 0.0 0.0 
0.0 0.0 0.0 
0.0 0.0 0.0 
0.0 0.0 0.0 
0.0 0.0 0.0 
0.0 0.0 0.0 
0.0 0.0 0.0 
0.0 0.0 0.0 
0.0 0.0 0.0 
0.0 0.0 0.0 
0.0 0.0 0.0 
0.0 0.0 0.0 
0.0 0.0 0.0 
0.0 0.0 0.0 
0.0 0.0 0.0 
0.0 0.0 0.0 
0.0 0.0 0.0 
0.0 0.0 0.0 
0.0 0.0 0.0 
0.0 0.0 0.0 
0.0 0.0 0.0 
0.0 0.0 0.0 
0.0 0.0 0.0 
0.0 0.0 0.0 
0.0 0.0 0.0 
0.0 0.0 0.0 
0.0 0.0 0.0 
0.0 0.0 0.0 
0.0 0.0 0.0 
0.0 0.0 0.0 
0.0 0.0 0.0 
0.0 0.0 0.0 
0.0 0.0 0.0 
0.0 0.0 0.0 
0.0 0.0 0.0 
0.0 0.0 0.0 
0.0 0.0 0.0 
0.0 0.0 0.0 
0.0 0.0 0.0 
0.0 0.0 0.0 
0.0 0.0 0.0 
0.0 0.0 0.0 
0.0 0.0 0.0 
0.0 0.0 0.0 
0.0 0.0 0.0 
0.0 0.0 0.0 
0.0 0.0 0.0 
0.0 0.0 0.0 
0.0 0.0 0.0 
0.0 0.0 0.0 
0.0 0.0 0.0 
0.0 0.0 0.0 
0.0 0.0 0.0 
0.0 0.0 0.0 
0.0 0.0 0.0 
0.0 0.0 0.0 
0.0 0.0 0.0 
0.0 0.0 0.0 
0.0 0.0 0.0 
0.0 0.0 0.0 
0.0 0.0 0.0 
0.0 0.0 0.0 
0.0 0.0 0.0 
0.0 0.0 0.0 
0.0 0.0 0.0 
0.0 0.0 0.0 
0.0 0.0 0.0 
0.0 0.0 0.0 
0.0 0.0 0.0 
0.0 0.0 0.0 
0.0 0.0 0.0 
0.0 0.0 0.0 
0.0 0.0 0.0 
0.0 0.0 0.0 
0.0 0.0 0.0 
0.0 0.0 0.0 
0.0 0.0 0.0 
0.0 0.0 0.0 
0.0 0.0 0.0 
0.0 0.0 0.0 
0.0 0.0 0.0 
0.0 0.0 0.0 
0.0 0.0 0.0 
0.0 0.0 0.0 
0.0 0.0 0.0 
0.0 0.0 0.0 
0.0 0.0 0.0 
0.0 0.0 0.0 
0.0 0.0 0.0 
0.0 0.0 0.0 
0.0 0.0 0.0 
0.0 0.0 0.0 
0.0 0.0 0.0 
0.0 0.0 0.0 
0.0 0.0 0.0 
0.0 0.0 0.0 
0.0 0.0 0.0 
0.0 0.0 0.0 
0.0 0.0 0.0 
0.0 0.0 0.0 
0.0 0.0 0.0 
0.0 0.0 0.0 
0.0 0.0 0.0 
0.0 0.0 0.0 
0.0 0.0 0.0 
0.0 0.0 0.0 
0.0 0.0 0.0 
0.0 0.0 0.0 
0.0 0.0 0.0 
0.0 0.0 0.0 
0.0 0.0 0.0 
0.0 0.0 0.0 
0.0 0.0 0.0 
0.0 0.0 0.0 
0.0 0.0 0.0 
0.0 0.0 0.0 
0.0 0.0 0.0 
0.0 0.0 0.0 
0.0 0.0 0.0 
0.0 0.0 0.0 
0.0 0.0 0.0 
0.0 0.0 0.0 
0.0 0.0 0.0 
0.0 0.0 0.0 
0.0 0.0 0.0 
0.0 0.0 0.0 
0.0 0.0 0.0 
0.0 0.0 0.0 
0.0 0.0 0.0 
0.0 0.0 0.0 
0.0 0.0 0.0 
0.0 0.0 0.0 
0.0 0.0 0.0 
0.0 0.0 0.0 
0.0 0.0 0.0 
0.0 0.0 0.0 
0.0 0.0 0.0 
0.0 0.0 0.0 
0.0 0.0 0.0 
0.0 0.0 0.0 
0.0 0.0 0.0 
0.0 0.0 0.0 
0.0 0.0 0.0 
0.0 0.0 0.0 
0.0 0.0 0.0 
0.0 0.0 0.0 
0.0 0.0 0.0 
0.0 0.0 0.0 
0.0 0.0 0.0 
0.0 0.0 0.0 
0.0 0.0 0.0 
0.0 0.0 0.0 
0.0 0.0 0.0 
0.0 0.0 0.0 
0.0 0.0 0.0 
0.0 0.0 0.0 
0.0 0.0 0.0 
0.0 0.0 0.0 
0.0 0.0 0.0 
0.0 0.0 0.0 
0.0 0.0 0.0 
0.0 0.0 0.0 
0.0 0.0 0.0 
0.0 0.0 0.0 
0.0 0.0 0.0 
0.0 0.0 0.0 
0.0 0.0 0.0 
0.0 0.0 0.0 
0.0 0.0 0.0 
0.0 0.0 0.0 
0.0 0.0 0.0 
0.0 0.0 0.0 
0.0 0.0 0.0 
0.0 0.0 0.0 
0.0 0.0 0.0 
0.0 0.0 0.0 
0.0 0.0 0.0 
0.0 0.0 0.0 
0.0 0.0 0.0 
0.0 0.0 0.0 
0.0 0.0 0.0 
0.0 0.0 0.0 
0.0 0.0 0.0 
0.0 0.0 0.0 
0.0 0.0 0.0 
0.0 0.0 0.0 
0.0 0.0 0.0 
0.0 0.0 0.0 
0.0 0.0 0.0 
0.0 0.0 0.0 
0.0 0.0 0.0 
0.0 0.0 0.0 
0.0 0.0 0.0 
0.0 0.0 0.0 
0.0 0.0 0.0 
0.0 0.0 0.0 
0.0 0.0 0.0 
0.0 0.0 0.0 
0.0 0.0 0.0 
0.0 0.0 0.0 
0.0 0.0 0.0 
0.0 0.0 0.0 
0.0 0.0 0.0 
0.0 0.0 0.0 
0.0 0.0 0.0 
0.0 0.0 0.0 
0.0 0.0 0.0 
0.0 0.0 0.0 
0.0 0.0 0.0 
0.0 0.0 0.0 
0.0 0.0 0.0 
0.0 0.0 0.0 
0.0 0.0 0.0 
0.0 0.0 0.0 
0.0 0.0 0.0 
0.0 0.0 0.0 
0.0 0.0 0.0 
0.0 0.0 0.0 
0.0 0.0 0.0 
0.0 0.0 0.0 
0.0 0.0 0.0 
0.0 0.0 0.0 
0.0 0.0 0.0 
0.0 0.0 0.0 
0.0 0.0 0.0 
0.0 0.0 0.0 
0.0 0.0 0.0 
0.0 0.0 0.0 
0.0 0.0 0.0 
0.0 0.0 0.0 
0.0 0.0 0.0 
0.0 0.0 0.0 
0.0 0.0 0.0 
0.0 0.0 0.0 
0.0 0.0 0.0 
0.0 0.0 0.0 
0.0 0.0 0.0 
0.0 0.0 0.0 
0.0 0.0 0.0 
0.0 0.0 0.0 
0.0 0.0 0.0 
0.0 0.0 0.0 
0.0 0.0 0.0 
0.0 0.0 0.0 
0.0 0.0 0.0 
0.0 0.0 0.0 
0.0 0.0 0.0 
0.0 0.0 0.0 
0.0 0.0 0.0 
0.0 0.0 0.0 
0.0 0.0 0.0 
0.0 0.0 0.0 
0.0 0.0 0.0 
0.0 0.0 0.0 
0.0 0.0 0.0 
0.0 0.0 0.0 
0.0 0.0 0.0 
0.0 0.0 0.0 
0.0 0.0 0.0 
0.0 0.0 0.0 
0.0 0.0 0.0 
0.0 0.0 0.0 
0.0 0.0 0.0 
0.0 0.0 0.0 
0.0 0.0 0.0 
0.0 0.0 0.0 
0.0 0.0 0.0 
0.0 0.0 0.0 
0.0 0.0 0.0 
0.0 0.0 0.0 
0.0 0.0 0.0 
0.0 0.0 0.0 
0.0 0.0 0.0 
0.0 0.0 0.0 
0.0 0.0 0.0 
0.0 0.0 0.0 
0.0 0.0 0.0 
0.0 0.0 0.0 
0.0 0.0 0.0 
0.0 0.0 0.0 
0.0 0.0 0.0 
0.0 0.0 0.0 
0.0 0.0 0.0 
0.0 0.0 0.0 
0.0 0.0 0.0 
0.0 0.0 0.0 
0.0 0.0 0.0 
0.0 0.0 0.0 
0.0 0.0 0.0 
0.0 0.0 0.0 
0.0 0.0 0.0 
0.0 0.0 0.0 
0.0 0.0 0.0 
0.0 0.0 0.0 
0.0 0.0 0.0 
0.0 0.0 0.0 
0.0 0.0 0.0 
0.0 0.0 0.0 
0.0 0.0 0.0 
0.0 0.0 0.0 
0.0 0.0 0.0 
0.0 0.0 0.0 
0.0 0.0 0.0 
0.0 0.0 0.0 
0.0 0.0 0.0 
0.0 0.0 0.0 
0.0 0.0 0.0 
0.0 0.0 0.0 
0.0 0.0 0.0 
0.0 0.0 0.0 
0.0 0.0 0.0 
0.0 0.0 0.0 
0.0 0.0 0.0 
0.0 0.0 0.0 
0.0 0.0 0.0 
0.0 0.0 0.0 
0.0 0.0 0.0 
0.0 0.0 0.0 
0.0 0.0 0.0 
0.0 0.0 0.0 
0.0 0.0 0.0 
0.0 0.0 0.0 
0.0 0.0 0.0 
0.0 0.0 0.0 
0.0 0.0 0.0 
0.0 0.0 0.0 
0.0 0.0 0.0 
0.0 0.0 0.0 
0.0 0.0 0.0 
0.0 0.0 0.0 
0.0 0.0 0.0 
0.0 0.0 0.0 
0.0 0.0 0.0 
0.0 0.0 0.0 
0.0 0.0 0.0 
0.0 0.0 0.0 
0.0 0.0 0.0 
0.0 0.0 0.0 
0.0 0.0 0.0 
0.0 0.0 0.0 
0.0 0.0 0.0 
0.0 0.0 0.0 
0.0 0.0 0.0 
0.0 0.0 0.0 
0.0 0.0 0.0 
0.0 0.0 0.0 
0.0 0.0 0.0 
0.0 0.0 0.0 
0.0 0.0 0.0 
0.0 0.0 0.0 
0.0 0.0 0.0 
0.0 0.0 0.0 
0.0 0.0 0.0 
0.0 0.0 0.0 
0.0 0.0 0.0 
0.0 0.0 0.0 
0.0 0.0 0.0 
0.0 0.0 0.0 
0.0 0.0 0.0 
0.0 0.0 0.0 
0.0 0.0 0.0 
0.0 0.0 0.0 
0.0 0.0 0.0 
0.0 0.0 0.0 
0.0 0.0 0.0 
0.0 0.0 0.0 
0.0 0.0 0.0 
0.0 0.0 0.0 
0.0 0.0 0.0 
0.0 0.0 0.0 
0.0 0.0 0.0 
0.0 0.0 0.0 
0.0 0.0 0.0 
0.0 0.0 0.0 
0.0 0.0 0.0 
0.0 0.0 0.0 
0.0 0.0 0.0 
0.0 0.0 0.0 
0.0 0.0 0.0 
0.0 0.0 0.0 
0.0 0.0 0.0 
0.0 0.0 0.0 
0.0 0.0 0.0 
0.0 0.0 0.0 
0.0 0.0 0.0 
0.0 0.0 0.0 
0.0 0.0 0.0 
0.0 0.0 0.0 
0.0 0.0 0.0 
0.0 0.0 0.0 
0.0 0.0 0.0 
0.0 0.0 0.0 
0.0 0.0 0.0 
0.0 0.0 0.0 
0.0 0.0 0.0 
0.0 0.0 0.0 
0.0 0.0 0.0 
0.0 0.0 0.0 
0.0 0.0 0.0 
0.0 0.0 0.0 
0.0 0.0 0.0 
0.0 0.0 0.0 
0.0 0.0 0.0 
0.0 0.0 0.0 
0.0 0.0 0.0 
0.0 0.0 0.0 
0.0 0.0 0.0 
0.0 0.0 0.0 
0.0 0.0 0.0 
0.0 0.0 0.0 
0.0 0.0 0.0 
0.0 0.0 0.0 
0.0 0.0 0.0 
0.0 0.0 0.0 
0.0 0.0 0.0 
0.0 0.0 0.0 
0.0 0.0 0.0 
0.0 0.0 0.0 
0.0 0.0 0.0 
0.0 0.0 0.0 
0.0 0.0 0.0 
0.0 0.0 0.0 
0.0 0.0 0.0 
0.0 0.0 0.0 
0.0 0.0 0.0 
0.0 0.0 0.0 
0.0 0.0 0.0 
0.0 0.0 0.0 
0.0 0.0 0.0 
0.0 0.0 0.0 
0.0 0.0 0.0 
0.0 0.0 0.0 
0.0 0.0 0.0 
0.0 0.0 0.0 
0.0 0.0 0.0 
0.0 0.0 0.0 
0.0 0.0 0.0 
0.0 0.0 0.0 
0.0 0.0 0.0 
0.0 0.0 0.0 
0.0 0.0 0.0 
0.0 0.0 0.0 
0.0 0.0 0.0 
0.0 0.0 0.0 
0.0 0.0 0.0 
0.0 0.0 0.0 
0.0 0.0 0.0 
0.0 0.0 0.0 
0.0 0.0 0.0 
0.0 0.0 0.0 
0.0 0.0 0.0 
0.0 0.0 0.0 
0.0 0.0 0.0 
0.0 0.0 0.0 
0.0 0.0 0.0 
0.0 0.0 0.0 
0.0 0.0 0.0 
0.0 0.0 0.0 
0.0 0.0 0.0 
0.0 0.0 0.0 
0.0 0.0 0.0 
0.0 0.0 0.0 
0.0 0.0 0.0 
0.0 0.0 0.0 
0.0 0.0 0.0 
0.0 0.0 0.0 
0.0 0.0 0.0 
0.0 0.0 0.0 
0.0 0.0 0.0 
0.0 0.0 0.0 
0.0 0.0 0.0 
0.0 0.0 0.0 
0.0 0.0 0.0 
0.0 0.0 0.0 
0.0 0.0 0.0 
0.0 0.0 0.0 
0.0 0.0 0.0 
0.0 0.0 0.0 
0.0 0.0 0.0 
0.0 0.0 0.0 
0.0 0.0 0.0 
0.0 0.0 0.0 
0.0 0.0 0.0 
0.0 0.0 0.0 
0.0 0.0 0.0 
0.0 0.0 0.0 
0.0 0.0 0.0 
0.0 0.0 0.0 
0.0 0.0 0.0 
0.0 0.0 0.0 
0.0 0.0 0.0 
0.0 0.0 0.0 
0.0 0.0 0.0 
0.0 0.0 0.0 
0.0 0.0 0.0 
0.0 0.0 0.0 
0.0 0.0 0.0 
0.0 0.0 0.0 
0.0 0.0 0.0 
0.0 0.0 0.0 
0.0 0.0 0.0 
0.0 0.0 0.0 
0.0 0.0 0.0 
0.0 0.0 0.0 
0.0 0.0 0.0 
0.0 0.0 0.0 
0.0 0.0 0.0 
0.0 0.0 0.0 
0.0 0.0 0.0 
0.0 0.0 0.0 
0.0 0.0 0.0 
0.0 0.0 0.0 
0.0 0.0 0.0 
0.0 0.0 0.0 
0.0 0.0 0.0 
0.0 0.0 0.0 
0.0 0.0 0.0 
0.0 0.0 0.0 
0.0 0.0 0.0 
0.0 0.0 0.0 
0.0 0.0 0.0 
0.0 0.0 0.0 
0.0 0.0 0.0 
0.0 0.0 0.0 
0.0 0.0 0.0 
0.0 0.0 0.0 
0.0 0.0 0.0 
0.0 0.0 0.0 
0.0 0.0 0.0 
0.0 0.0 0.0 
0.0 0.0 0.0 
0.0 0.0 0.0 
0.0 0.0 0.0 
0.0 0.0 0.0 
0.0 0.0 0.0 
0.0 0.0 0.0 
0.0 0.0 0.0 
0.0 0.0 0.0 
0.0 0.0 0.0 
0.0 0.0 0.0 
0.0 0.0 0.0 
0.0 0.0 0.0 
0.0 0.0 0.0 
0.0 0.0 0.0 
0.0 0.0 0.0 
0.0 0.0 0.0 
0.0 0.0 0.0 
0.0 0.0 0.0 
0.0 0.0 0.0 
0.0 0.0 0.0 
0.0 0.0 0.0 
0.0 0.0 0.0 
0.0 0.0 0.0 
0.0 0.0 0.0 
0.0 0.0 0.0 
0.0 0.0 0.0 
0.0 0.0 0.0 
0.0 0.0 0.0 
0.0 0.0 0.0 
0.0 0.0 0.0 
0.0 0.0 0.0 
0.0 0.0 0.0 
0.0 0.0 0.0 
0.0 0.0 0.0 
0.0 0.0 0.0 
0.0 0.0 0.0 
0.0 0.0 0.0 
0.0 0.0 0.0 
0.0 0.0 0.0 
0.0 0.0 0.0 
0.0 0.0 0.0 
0.0 0.0 0.0 
0.0 0.0 0.0 
0.0 0.0 0.0 
0.0 0.0 0.0 
0.0 0.0 0.0 
0.0 0.0 0.0 
0.0 0.0 0.0 
0.0 0.0 0.0 
0.0 0.0 0.0 
0.0 0.0 0.0 
0.0 0.0 0.0 
0.0 0.0 0.0 
0.0 0.0 0.0 
0.0 0.0 0.0 
0.0 0.0 0.0 
0.0 0.0 0.0 
0.0 0.0 0.0 
0.0 0.0 0.0 
0.0 0.0 0.0 
0.0 0.0 0.0 
0.0 0.0 0.0 
0.0 0.0 0.0 
0.0 0.0 0.0 
0.0 0.0 0.0 
0.0 0.0 0.0 
0.0 0.0 0.0 
0.0 0.0 0.0 
0.0 0.0 0.0 
0.0 0.0 0.0 
0.0 0.0 0.0 
0.0 0.0 0.0 
0.0 0.0 0.0 
0.0 0.0 0.0 
0.0 0.0 0.0 
0.0 0.0 0.0 
0.0 0.0 0.0 
0.0 0.0 0.0 
0.0 0.0 0.0 
0.0 0.0 0.0 
0.0 0.0 0.0 
0.0 0.0 0.0 
0.0 0.0 0.0 
0.0 0.0 0.0 
0.0 0.0 0.0 
0.0 0.0 0.0 
0.0 0.0 0.0 
0.0 0.0 0.0 
0.0 0.0 0.0 
0.0 0.0 0.0 
0.0 0.0 0.0 
0.0 0.0 0.0 
0.0 0.0 0.0 
0.0 0.0 0.0 
0.0 0.0 0.0 
0.0 0.0 0.0 
0.0 0.0 0.0 
0.0 0.0 0.0 
0.0 0.0 0.0 
0.0 0.0 0.0 
0.0 0.0 0.0 
0.0 0.0 0.0 
0.0 0.0 0.0 
0.0 0.0 0.0 
0.0 0.0 0.0 
0.0 0.0 0.0 
0.0 0.0 0.0 
0.0 0.0 0.0 
0.0 0.0 0.0 
0.0 0.0 0.0 
0.0 0.0 0.0 
0.0 0.0 0.0 
0.0 0.0 0.0 
0.0 0.0 0.0 
0.0 0.0 0.0 
0.0 0.0 0.0 
0.0 0.0 0.0 
0.0 0.0 0.0 
0.0 0.0 0.0 
0.0 0.0 0.0 
0.0 0.0 0.0 
0.0 0.0 0.0 
0.0 0.0 0.0 
0.0 0.0 0.0 
0.0 0.0 0.0 
0.0 0.0 0.0 
0.0 0.0 0.0 
0.0 0.0 0.0 
0.0 0.0 0.0 
0.0 0.0 0.0 
0.0 0.0 0.0 
0.0 0.0 0.0 
0.0 0.0 0.0 
0.0 0.0 0.0 
0.0 0.0 0.0 
0.0 0.0 0.0 
0.0 0.0 0.0 
0.0 0.0 0.0 
0.0 0.0 0.0 
0.0 0.0 0.0 
0.0 0.0 0.0 
0.0 0.0 0.0 
0.0 0.0 0.0 
0.0 0.0 0.0 
0.0 0.0 0.0 
0.0 0.0 0.0 
0.0 0.0 0.0 
0.0 0.0 0.0 
0.0 0.0 0.0 
0.0 0.0 0.0 
0.0 0.0 0.0 
0.0 0.0 0.0 
0.0 0.0 0.0 
0.0 0.0 0.0 
0.0 0.0 0.0 
0.0 0.0 0.0 
0.0 0.0 0.0 
0.0 0.0 0.0 
0.0 0.0 0.0 
0.0 0.0 0.0 
0.0 0.0 0.0 
0.0 0.0 0.0 
0.0 0.0 0.0 
0.0 0.0 0.0 
0.0 0.0 0.0 
0.0 0.0 0.0 
0.0 0.0 0.0 
0.0 0.0 0.0 
0.0 0.0 0.0 
0.0 0.0 0.0 
0.0 0.0 0.0 
0.0 0.0 0.0 
0.0 0.0 0.0 
0.0 0.0 0.0 
0.0 0.0 0.0 
0.0 0.0 0.0 
0.0 0.0 0.0 
0.0 0.0 0.0 
0.0 0.0 0.0 
0.0 0.0 0.0 
0.0 0.0 0.0 
0.0 0.0 0.0 
0.0 0.0 0.0 
0.0 0.0 0.0 
0.0 0.0 0.0 
0.0 0.0 0.0 
0.0 0.0 0.0 
0.0 0.0 0.0 
0.0 0.0 0.0 
0.0 0.0 0.0 
0.0 0.0 0.0 
0.0 0.0 0.0 
0.0 0.0 0.0 
0.0 0.0 0.0 
0.0 0.0 0.0 
0.0 0.0 0.0 
0.0 0.0 0.0 
0.0 0.0 0.0 
0.0 0.0 0.0 
0.0 0.0 0.0 
0.0 0.0 0.0 
0.0 0.0 0.0 
0.0 0.0 0.0 
0.0 0.0 0.0 
0.0 0.0 0.0 
0.0 0.0 0.0 
0.0 0.0 0.0 
0.0 0.0 0.0 
0.0 0.0 0.0 
0.0 0.0 0.0 
0.0 0.0 0.0 
0.0 0.0 0.0 
0.0 0.0 0.0 
0.0 0.0 0.0 
0.0 0.0 0.0 
0.0 0.0 0.0 
0.0 0.0 0.0 
0.0 0.0 0.0 
0.0 0.0 0.0 
0.0 0.0 0.0 
0.0 0.0 0.0 
0.0 0.0 0.0 
0.0 0.0 0.0 
0.0 0.0 0.0 
0.0 0.0 0.0 
0.0 0.0 0.0 
0.0 0.0 0.0 
0.0 0.0 0.0 
0.0 0.0 0.0 
0.0 0.0 0.0 
0.0 0.0 0.0 
0.0 0.0 0.0 
0.0 0.0 0.0 
0.0 0.0 0.0 
0.0 0.0 0.0 
0.0 0.0 0.0 
0.0 0.0 0.0 
0.0 0.0 0.0 
0.0 0.0 0.0 
0.0 0.0 0.0 
0.0 0.0 0.0 
0.0 0.0 0.0 
0.0 0.0 0.0 
0.0 0.0 0.0 
0.0 0.0 0.0 
0.0 0.0 0.0 
0.0 0.0 0.0 
0.0 0.0 0.0 
0.0 0.0 0.0 
0.0 0.0 0.0 
0.0 0.0 0.0 
0.0 0.0 0.0 
0.0 0.0 0.0 
0.0 0.0 0.0 
0.0 0.0 0.0 
0.0 0.0 0.0 
0.0 0.0 0.0 
0.0 0.0 0.0 
0.0 0.0 0.0 
0.0 0.0 0.0 
0.0 0.0 0.0 
0.0 0.0 0.0 
0.0 0.0 0.0 
0.0 0.0 0.0 
0.0 0.0 0.0 
0.0 0.0 0.0 
0.0 0.0 0.0 
0.0 0.0 0.0 
0.0 0.0 0.0 
0.0 0.0 0.0 
0.0 0.0 0.0 
0.0 0.0 0.0 
0.0 0.0 0.0 
0.0 0.0 0.0 
0.0 0.0 0.0 
0.0 0.0 0.0 
0.0 0.0 0.0 
0.0 0.0 0.0 
0.0 0.0 0.0 
0.0 0.0 0.0 
0.0 0.0 0.0 
0.0 0.0 0.0 
0.0 0.0 0.0 
0.0 0.0 0.0 
0.0 0.0 0.0 
0.0 0.0 0.0 
0.0 0.0 0.0 
0.0 0.0 0.0 
0.0 0.0 0.0 
0.0 0.0 0.0 
0.0 0.0 0.0 
0.0 0.0 0.0 
0.0 0.0 0.0 
0.0 0.0 0.0 
0.0 0.0 0.0 
0.0 0.0 0.0 
0.0 0.0 0.0 
0.0 0.0 0.0 
0.0 0.0 0.0 
0.0 0.0 0.0 
0.0 0.0 0.0 
0.0 0.0 0.0 
0.0 0.0 0.0 
0.0 0.0 0.0 
0.0 0.0 0.0 
0.0 0.0 0.0 
0.0 0.0 0.0 
0.0 0.0 0.0 
0.0 0.0 0.0 
0.0 0.0 0.0 
0.0 0.0 0.0 
0.0 0.0 0.0 
0.0 0.0 0.0 
0.0 0.0 0.0 
0.0 0.0 0.0 
0.0 0.0 0.0 
0.0 0.0 0.0 
0.0 0.0 0.0 
0.0 0.0 0.0 
0.0 0.0 0.0 
0.0 0.0 0.0 
0.0 0.0 0.0 
0.0 0.0 0.0 
0.0 0.0 0.0 
0.0 0.0 0.0 
0.0 0.0 0.0 
0.0 0.0 0.0 
0.0 0.0 0.0 
0.0 0.0 0.0 
0.0 0.0 0.0 
0.0 0.0 0.0 
0.0 0.0 0.0 
0.0 0.0 0.0 
0.0 0.0 0.0 
0.0 0.0 0.0 
0.0 0.0 0.0 
0.0 0.0 0.0 
0.0 0.0 0.0 
0.0 0.0 0.0 
0.0 0.0 0.0 
0.0 0.0 0.0 

TENSORS element_materi_stress float
-3.766397958076e+01 2.698706839717e+01 0.0 
2.698706839717e+01 -4.534331207051e+01 0.0 
0.0 0.0 -2.450218749538e+01 
-3.719569200689e+01 2.549995619709e+01 0.0 
2.549995619709e+01 -4.670417873765e+01 0.0 
0.0 0.0 -2.476996122336e+01 
-1.059769757546e+02 3.615881674697e+01 0.0 
3.615881674697e+01 -2.387462939547e+02 0.0 
0.0 0.0 -1.030169809128e+02 
-8.014478458683e+01 4.435474012418e+00 0.0 
4.435474012418e+00 -1.712333015685e+02 0.0 
0.0 0.0 -7.501342584659e+01 
-3.495189321152e+01 -3.182407142530e-01 0.0 
-3.182407142530e-01 -3.037559031748e+01 0.0 
0.0 0.0 -1.919824505870e+01 
-3.858611579435e+01 3.180467861594e+01 0.0 
3.180467861594e+01 -1.038151677616e+02 0.0 
0.0 0.0 -4.340314288770e+01 
-3.401107261664e+01 -7.166925105542e-01 0.0 
-7.166925105542e-01 -3.061851314521e+01 0.0 
0.0 0.0 -1.898887572856e+01 
-4.014811129522e+01 2.774954058829e+01 0.0 
2.774954058829e+01 -5.225838401102e+01 0.0 
0.0 0.0 -2.732194859187e+01 
-3.528617018737e+01 1.896279721825e+00 0.0 
1.896279721825e+00 -3.156073090151e+01 0.0 
0.0 0.0 -1.965407032666e+01 
-7.939832625377e+01 5.110615270362e+00 0.0 
5.110615270362e+00 -1.695124335927e+02 0.0 
0.0 0.0 -7.427322795395e+01 
-1.036152185180e+02 -1.163044705755e+00 0.0 
-1.163044705755e+00 -2.573209358835e+02 0.0 
0.0 0.0 -1.078808463205e+02 
-3.468074391575e+01 2.507473020400e+01 0.0 
2.507473020400e+01 -3.965897530535e+01 0.0 
0.0 0.0 -2.190191576633e+01 
-1.558206436808e+02 -2.087402051398e-01 0.0 
-2.087402051398e-01 -3.697631826668e+02 0.0 
0.0 0.0 -1.572751479043e+02 
-5.061021998363e+01 5.676877117701e+00 0.0 
5.676877117701e+00 -5.063602861407e+01 0.0 
0.0 0.0 -2.997387457931e+01 
-1.601452057979e+02 1.776384719849e+00 0.0 
1.776384719849e+00 -3.779563995807e+02 0.0 
0.0 0.0 -1.610304816136e+02 
-8.056868234483e+01 4.078660425000e+00 0.0 
4.078660425000e+00 -1.795499708808e+02 0.0 
0.0 0.0 -7.763559596770e+01 
-3.435520785254e+01 1.392388665455e+00 0.0 
1.392388665455e+00 -2.668948085958e+01 0.0 
0.0 0.0 -1.791340661364e+01 
-2.965712227584e+01 1.658117769895e+01 0.0 
1.658117769895e+01 -1.076068167118e+02 0.0 
0.0 0.0 -4.351853848256e+01 
-2.727306275236e+01 -2.874296841726e-01 0.0 
-2.874296841726e-01 -7.734959489665e+01 0.0 
0.0 0.0 -3.098679729471e+01 
-2.947215071891e+01 -1.301805069398e+00 0.0 
-1.301805069398e+00 -8.020221813754e+01 0.0 
0.0 0.0 -3.250231065694e+01 
-8.210583317944e+01 7.487685266199e+00 0.0 
7.487685266199e+00 -1.712302918169e+02 0.0 
0.0 0.0 -7.560083749891e+01 
-3.601437877200e+01 2.461306227505e+01 0.0 
2.461306227505e+01 -4.387604642984e+01 0.0 
0.0 0.0 -2.356712756055e+01 
-3.908361209203e+01 2.658622317464e+01 0.0 
2.658622317464e+01 -4.776885364563e+01 0.0 
0.0 0.0 -2.565573972130e+01 
-1.385620728344e+02 1.497362874737e+01 0.0 
1.497362874737e+01 -3.529943283723e+02 0.0 
0.0 0.0 -1.470669203620e+02 
-6.399019294222e+01 1.401347191156e+01 0.0 
1.401347191156e+01 -7.870549083033e+01 0.0 
0.0 0.0 -4.240870513176e+01 
-1.096552231056e+02 2.226946828207e-01 0.0 
2.226946828207e-01 -2.712936565657e+02 0.0 
0.0 0.0 -1.138846639014e+02 
-5.008806705450e+01 1.332279541510e+01 0.0 
1.332279541510e+01 -1.930062818378e+01 0.0 
0.0 0.0 -2.041660857149e+01 
-1.275722419654e+02 3.780413958585e+01 0.0 
3.780413958585e+01 -3.141643515367e+02 0.0 
0.0 0.0 -1.321209780506e+02 
-6.834068480320e+01 1.937762765384e+01 0.0 
1.937762765384e+01 -8.122291638394e+01 0.0 
0.0 0.0 -4.446908035614e+01 
-1.429102559023e+02 1.318670435078e+01 0.0 
1.318670435078e+01 -3.608139341220e+02 0.0 
0.0 0.0 -1.507172570073e+02 
-3.637386935946e+01 -2.315142896342e+01 0.0 
-2.315142896342e+01 -9.891037281519e+01 0.0 
0.0 0.0 -3.967218598677e+01 
-9.486312290043e+00 -2.015925444670e+00 0.0 
-2.015925444670e+00 -2.638444767751e+01 0.0 
0.0 0.0 -1.036122799027e+01 
-1.072699321009e+02 3.761702798510e+01 0.0 
3.761702798510e+01 -2.365864128637e+02 0.0 
0.0 0.0 -1.027569034894e+02 
-1.322427602861e+02 9.060871160314e-01 0.0 
9.060871160314e-01 -3.202404826506e+02 0.0 
0.0 0.0 -1.353449728810e+02 
-1.528604357681e+02 7.134689342830e+00 0.0 
7.134689342830e+00 -3.704891065605e+02 0.0 
0.0 0.0 -1.566048626986e+02 
-1.631298432917e+02 1.980826296098e+00 0.0 
1.980826296098e+00 -3.869701638484e+02 0.0 
0.0 0.0 -1.646300021420e+02 
-1.635917277807e+02 4.755462198546e+00 0.0 
4.755462198546e+00 -3.869232189259e+02 0.0 
0.0 0.0 -1.647544840120e+02 
-1.397024038207e+02 2.454148993028e+01 0.0 
2.454148993028e+01 -3.515296486491e+02 0.0 
0.0 0.0 -1.469696157409e+02 
-2.540057551802e+01 1.302656882268e+00 0.0 
1.302656882268e+00 -1.216418598869e+01 0.0 
0.0 0.0 -1.086942845201e+01 
-2.521856228953e+01 -1.400365446808e+00 0.0 
-1.400365446808e+00 -1.272175061229e+01 0.0 
0.0 0.0 -1.098209387055e+01 
-4.029801460686e+01 2.672464836055e+01 0.0 
2.672464836055e+01 -4.707700202350e+01 0.0 
0.0 0.0 -2.581250498911e+01 
-1.559607508007e+02 9.013746990620e+00 0.0 
9.013746990620e+00 -3.749843314168e+02 0.0 
0.0 0.0 -1.588835246652e+02 
-3.819831802578e+01 2.704301420429e+01 0.0 
2.704301420429e+01 -4.632214623951e+01 0.0 
0.0 0.0 -2.495613927959e+01 
-4.496974436140e+01 1.315678753364e+01 0.0 
1.315678753364e+01 -2.019485932297e+01 0.0 
0.0 0.0 -1.914938110531e+01 
-7.710826721542e+01 1.685451190200e+00 0.0 
1.685451190200e+00 -1.593147686897e+02 0.0 
0.0 0.0 -7.052691077154e+01 
-3.856905785685e+01 2.777885053445e+01 0.0 
2.777885053445e+01 -4.638456674611e+01 0.0 
0.0 0.0 -2.508608738089e+01 
-3.308384018051e+01 -2.660059964138e+01 0.0 
-2.660059964138e+01 -9.734706163408e+01 0.0 
0.0 0.0 -4.021118627897e+01 
-7.492555311923e+01 1.748183357070e+00 0.0 
1.748183357070e+00 -1.601052754458e+02 0.0 
0.0 0.0 -7.010924856951e+01 
-3.449054630090e+01 -2.471912414368e+01 0.0 
-2.471912414368e+01 -5.663514006519e+01 0.0 
0.0 0.0 -2.878764120281e+01 
-4.866523795446e+01 6.452668432970e+00 0.0 
6.452668432970e+00 -4.167866230438e+01 0.0 
0.0 0.0 -2.670317007765e+01 
-3.990266815519e+01 2.689500412221e+01 0.0 
2.689500412221e+01 -4.832552208997e+01 0.0 
0.0 0.0 -2.606845707355e+01 
-3.688910097436e+01 -5.820213447242e-01 0.0 
-5.820213447242e-01 -9.741926084550e+01 0.0 
0.0 0.0 -3.989250854596e+01 
-3.488610571986e+01 -1.911925990118e+01 0.0 
-1.911925990118e+01 -1.288914222387e+02 0.0 
0.0 0.0 -4.928185503314e+01 
-3.661679714579e+01 2.411459258697e+01 0.0 
2.411459258697e+01 -4.432920036416e+01 0.0 
0.0 0.0 -2.388379925299e+01 
-9.684633385535e+01 3.029171358035e+01 0.0 
3.029171358035e+01 -2.115328611593e+02 0.0 
0.0 0.0 -9.211375850440e+01 
-5.072074188949e+01 -1.213184381214e+00 0.0 
-1.213184381214e+00 -1.294565535789e+02 0.0 
0.0 0.0 -5.365318864051e+01 
-3.860294200900e+01 -1.521802370751e+00 0.0 
-1.521802370751e+00 -1.007068515093e+02 0.0 
0.0 0.0 -4.139293805548e+01 
-1.318410515457e+02 -6.783893720982e-01 0.0 
-6.783893720982e-01 -3.201306995902e+02 0.0 
0.0 0.0 -1.351915253407e+02 
-2.021226722346e+01 -1.850228929377e+00 0.0 
-1.850228929377e+00 -5.944670488835e+01 0.0 
0.0 0.0 -2.349769163354e+01 
-8.191334576499e+01 6.169032502159e+00 0.0 
6.169032502159e+00 -1.801687149231e+02 0.0 
0.0 0.0 -7.822461820642e+01 
-5.770775770355e+01 -2.314476632560e+01 0.0 
-2.314476632560e+01 -9.783154855267e+01 0.0 
0.0 0.0 -4.769169216005e+01 
-1.220269225370e+02 3.016233996863e+01 0.0 
3.016233996863e+01 -3.156472304310e+02 0.0 
0.0 0.0 -1.309022458904e+02 
-4.250932425061e+01 2.729517985117e+01 0.0 
2.729517985117e+01 -1.037426934760e+02 0.0 
0.0 0.0 -4.347560531799e+01 
-3.066760875542e+01 -1.839786105515e+01 0.0 
-1.839786105515e+01 -1.132399646849e+02 0.0 
0.0 0.0 -4.290639654592e+01 
-1.555843536996e+02 2.156229616905e+00 0.0 
2.156229616905e+00 -3.697788705450e+02 0.0 
0.0 0.0 -1.572089672734e+02 
-3.622797824243e+01 2.419010860287e+01 0.0 
2.419010860287e+01 -4.378736289085e+01 0.0 
0.0 0.0 -2.360460233998e+01 
-4.865906542104e+01 -9.325109076212e+00 0.0 
-9.325109076212e+00 -1.205921434921e+02 0.0 
0.0 0.0 -5.201024955660e+01 
-1.106504247821e+02 3.931220378027e+01 0.0 
3.931220378027e+01 -2.445824050690e+02 0.0 
0.0 0.0 -1.061698489553e+02 
-3.480351385948e+01 -1.149457562519e+01 0.0 
-1.149457562519e+01 -7.128894341052e+01 0.0 
0.0 0.0 -3.045615378941e+01 
-1.193100406405e+02 3.849555384341e+01 0.0 
3.849555384341e+01 -2.806597847926e+02 0.0 
0.0 0.0 -1.195909476299e+02 
-1.142583268505e+02 3.425898725015e-01 0.0 
3.425898725015e-01 -2.822813800842e+02 0.0 
0.0 0.0 -1.185619120804e+02 
-8.720533263682e+01 2.059764416646e+01 0.0 
2.059764416646e+01 -2.048124428192e+02 0.0 
0.0 0.0 -8.720533263682e+01 
-1.227940889254e+02 3.416717438867e+01 0.0 
3.416717438867e+01 -3.011846915897e+02 0.0 
0.0 0.0 -1.267936341545e+02 
-4.939780091746e+00 -1.123520192121e+00 0.0 
-1.123520192121e+00 -3.009550405214e+01 0.0 
0.0 0.0 -1.011058524317e+01 
-5.292406001730e+01 -2.371055689449e+00 0.0 
-2.371055689449e+00 -1.348285536339e+02 0.0 
0.0 0.0 -5.592578409535e+01 
-8.753588903931e+01 1.571550139514e+01 0.0 
1.571550139514e+01 -1.794163446320e+02 0.0 
0.0 0.0 -7.968567010139e+01 
-1.033256756438e+02 3.319032112529e+01 0.0 
3.319032112529e+01 -2.182889989572e+02 0.0 
0.0 0.0 -9.608440238031e+01 
-4.051932676449e+01 2.886127151907e+01 0.0 
2.886127151907e+01 -4.764850935561e+01 0.0 
0.0 0.0 -2.441755567334e+01 
-2.144504573315e+01 -1.835855895625e+00 0.0 
-1.835855895625e+00 -5.932633190259e+01 0.0 
0.0 0.0 -2.383141329072e+01 
-4.041283694680e+01 2.874277630084e+01 0.0 
2.874277630084e+01 -4.781866088374e+01 0.0 
0.0 0.0 -2.451073389426e+01 
-3.801669958638e+01 -1.529093216041e+01 0.0 
-1.529093216041e+01 -7.126970132502e+01 0.0 
0.0 0.0 -3.088665773573e+01 
-3.613628049928e+01 9.684610829100e-01 0.0 
9.684610829100e-01 -2.620708419775e+01 0.0 
0.0 0.0 -1.830300940911e+01 
-3.955867437835e+01 2.721462906388e+01 0.0 
2.721462906388e+01 -4.864076548654e+01 0.0 
0.0 0.0 -2.605983195947e+01 
-3.455227892845e+01 2.429387942728e+01 0.0 
2.429387942728e+01 -3.983576300736e+01 0.0 
0.0 0.0 -2.191641258074e+01 
-4.156055400378e+01 2.556963058462e+00 0.0 
2.556963058462e+00 -4.216296473809e+01 0.0 
0.0 0.0 -2.471705562256e+01 
-3.920594338004e+01 3.052516031928e-02 0.0 
3.052516031928e-02 -4.111718979643e+01 0.0 
0.0 0.0 -2.369693995294e+01 
-1.182453557059e+02 6.617858108623e-01 0.0 
6.617858108623e-01 -2.904401403436e+02 0.0 
0.0 0.0 -1.222056488149e+02 
-1.281239349832e+02 -8.448784596990e-01 0.0 
-8.448784596990e-01 -3.117266075222e+02 0.0 
0.0 0.0 -1.315551627516e+02 
-9.274181833840e+01 3.456630512362e+01 0.0 
3.456630512362e+01 -1.909415695680e+02 0.0 
0.0 0.0 -8.470501637192e+01 
-3.720495280972e+01 2.499718166008e+00 0.0 
2.499718166008e+00 -3.041781698634e+01 0.0 
0.0 0.0 -1.988683093882e+01 
-1.556998911568e+01 -2.685443310292e+00 0.0 
-2.685443310292e+00 -2.617172623748e+01 0.0 
0.0 0.0 -1.247617894895e+01 
-5.103182978102e+01 1.478655366972e+01 0.0 
1.478655366972e+01 -3.808168589088e+01 0.0 
0.0 0.0 -2.633405470157e+01 
-6.141079657277e+01 1.759761826410e+00 0.0 
1.759761826410e+00 -1.103999490457e+02 0.0 
0.0 0.0 -5.114322368553e+01 
-6.160884820789e+01 1.290014266030e+00 0.0 
1.290014266030e+00 -1.069973494771e+02 0.0 
0.0 0.0 -5.018185930549e+01 
-9.674501481077e+01 2.308617072218e+01 0.0 
2.308617072218e+01 -2.106634673341e+02 0.0 
0.0 0.0 -9.182254464347e+01 
-1.468898833917e+02 2.832868175236e+01 0.0 
2.832868175236e+01 -3.561168675412e+02 0.0 
0.0 0.0 -1.505020252799e+02 
-3.874891155929e+01 2.602767171215e+00 0.0 
2.602767171215e+00 -2.603150508118e+01 0.0 
0.0 0.0 -1.903412499214e+01 
-1.520541828433e+02 8.405194886925e+00 0.0 
8.405194886925e+00 -3.735064968597e+02 0.0 
0.0 0.0 -1.572682039109e+02 
-4.438689244544e+01 8.426804015229e-01 0.0 
8.426804015229e-01 -6.112301414540e+01 0.0 
0.0 0.0 -3.125297197725e+01 
-4.215479113482e+01 2.848787414234e+01 0.0 
2.848787414234e+01 -8.607355998734e+01 0.0 
0.0 0.0 -3.806850533665e+01 
-3.095679797619e+01 1.404965731665e+00 0.0 
1.404965731665e+00 -2.156511338323e+01 0.0 
0.0 0.0 -1.535657340783e+01 
-1.596277025474e+02 3.688257154488e-01 0.0 
3.688257154488e-01 -3.776092537077e+02 0.0 
0.0 0.0 -1.607710868765e+02 
-9.873366270022e+01 2.593969084844e+01 0.0 
2.593969084844e+01 -2.777371261240e+02 0.0 
0.0 0.0 -1.125412366473e+02 
-1.249572482396e+02 3.143881155946e+01 0.0 
3.143881155946e+01 -3.171787275077e+02 0.0 
0.0 0.0 -1.322407927242e+02 
-3.949762037709e+01 2.749893588953e+01 0.0 
2.749893588953e+01 -1.039091368972e+02 0.0 
0.0 0.0 -4.262202718229e+01 
-4.707734183627e+01 -2.954091701018e+01 0.0 
-2.954091701018e+01 -7.760856394155e+01 0.0 
0.0 0.0 -3.645963328576e+01 
-1.461878399787e+02 1.326601260503e+00 0.0 
1.326601260503e+00 -3.497206286300e+02 0.0 
0.0 0.0 -1.483725405826e+02 
-6.794431682915e+01 1.943945883481e+00 0.0 
1.943945883481e+00 -1.267632608570e+02 0.0 
0.0 0.0 -5.801227330583e+01 
-5.375599678603e+01 -3.424937820589e+01 0.0 
-3.424937820589e+01 -7.549090971870e+01 0.0 
0.0 0.0 -3.917249880565e+01 
-1.592405344955e+02 2.874436001799e+00 0.0 
2.874436001799e+00 -3.762699918297e+02 0.0 
0.0 0.0 -1.602531578976e+02 
-8.731222472242e+01 3.164674805857e+01 0.0 
3.164674805857e+01 -1.858896515788e+02 0.0 
0.0 0.0 -8.156056289037e+01 
-2.946660880638e+00 5.629652998415e-01 0.0 
5.629652998415e-01 -2.203830108224e+01 0.0 
0.0 0.0 -6.465203608423e+00 
-4.835801163634e+01 2.471162030459e+01 0.0 
2.471162030459e+01 -1.572824055944e+02 0.0 
0.0 0.0 -6.129212516922e+01 
-4.842140429190e+01 2.668955688083e+01 0.0 
2.668955688083e+01 -4.539920106331e+01 0.0 
0.0 0.0 -2.774618160656e+01 
-6.458866018858e+01 -2.357579342112e+00 0.0 
-2.357579342112e+00 -1.645749649726e+02 0.0 
0.0 0.0 -6.834908754836e+01 
-3.958420432253e+01 2.688608920519e+01 0.0 
2.688608920519e+01 -8.366253779482e+01 0.0 
0.0 0.0 -3.657402263521e+01 
-4.333255878770e+01 2.834239617058e+01 0.0 
2.834239617058e+01 -1.042067296799e+02 0.0 
0.0 0.0 -4.386178654029e+01 
-1.570793715070e+02 5.247272982701e+00 0.0 
5.247272982701e+00 -3.767593127707e+02 0.0 
0.0 0.0 -1.597516052833e+02 
-4.209864091955e+01 -3.974005190211e-01 0.0 
-3.974005190211e-01 -5.442968703896e+01 0.0 
0.0 0.0 -2.855849838755e+01 
-4.115865738712e+01 2.728908348563e+01 0.0 
2.728908348563e+01 -1.036779380675e+02 0.0 
0.0 0.0 -4.305097863638e+01 
-2.781862514954e+01 -6.225772497813e+00 0.0 
-6.225772497813e+00 -6.334585505759e+01 0.0 
0.0 0.0 -2.694934406214e+01 
-5.586180473624e+01 1.831302014695e+01 0.0 
1.831302014695e+01 -4.803319150561e+01 0.0 
0.0 0.0 -3.076849887255e+01 
-6.686684879270e+01 2.158485983312e+00 0.0 
2.158485983312e+00 -1.279334467542e+02 0.0 
0.0 0.0 -5.804008866407e+01 
-4.140711896517e+01 2.790501390143e+01 0.0 
2.790501390143e+01 -1.038265848711e+02 0.0 
0.0 0.0 -4.317011115087e+01 
-4.265336101739e+01 3.133314797493e+01 0.0 
3.133314797493e+01 -5.165250686362e+01 0.0 
0.0 0.0 -2.713573540374e+01 
-4.332394055401e+01 2.728855859350e+01 0.0 
2.728855859350e+01 -4.673844333684e+01 0.0 
0.0 0.0 -2.661871516725e+01 
-6.449506935541e+01 -2.808987057553e+00 0.0 
-2.808987057553e+00 -1.633297344174e+02 0.0 
0.0 0.0 -6.794744113183e+01 
-3.850601055004e+01 2.417864605282e+01 0.0 
2.417864605282e+01 -4.391695875772e+01 0.0 
0.0 0.0 -2.432689079233e+01 
-8.643731977820e+01 1.631093654811e+01 0.0 
1.631093654811e+01 -1.891181864196e+02 0.0 
0.0 0.0 -8.226665185933e+01 
-4.156288229671e+01 3.434688214241e+01 0.0 
3.434688214241e+01 -7.599757104137e+01 0.0 
0.0 0.0 -3.473654795777e+01 
-1.086522377219e+02 -1.325177363308e+00 0.0 
-1.325177363308e+00 -2.698072224049e+02 0.0 
0.0 0.0 -1.131378380380e+02 
-7.895232155977e+01 2.424096191408e+00 0.0 
2.424096191408e+00 -1.708079648006e+02 0.0 
0.0 0.0 -7.452808590811e+01 
-4.875898834185e+01 2.843458385970e+01 0.0 
2.843458385970e+01 -1.048873486015e+02 0.0 
0.0 0.0 -4.569390108300e+01 
-4.169497693805e+01 2.710467027032e+01 0.0 
2.710467027032e+01 -4.696837341089e+01 0.0 
0.0 0.0 -2.619900510468e+01 
-1.512299708031e+02 5.701239654479e+00 0.0 
5.701239654479e+00 -3.698316251331e+02 0.0 
0.0 0.0 -1.559184787808e+02 
-1.562854745106e+02 1.650730962229e+00 0.0 
1.650730962229e+00 -3.704678469459e+02 0.0 
0.0 0.0 -1.576259964370e+02 
-1.176722235350e+02 -1.004353326827e+00 0.0 
-1.004353326827e+00 -2.902590591824e+02 0.0 
0.0 0.0 -1.219793848152e+02 
-5.179380730772e+01 3.044795795847e+01 0.0 
3.044795795847e+01 -1.055028124330e+02 0.0 
0.0 0.0 -4.678898592221e+01 
-1.495289945613e+02 1.327322210731e+01 0.0 
1.327322210731e+01 -3.718402236514e+02 0.0 
0.0 0.0 -1.560107654638e+02 
-4.551577922028e+01 2.765970708803e+01 0.0 
2.765970708803e+01 -8.553183693196e+01 0.0 
0.0 0.0 -3.891428484567e+01 
-8.226577868832e+01 1.110060093862e+01 0.0 
1.110060093862e+01 -1.790286644152e+02 0.0 
0.0 0.0 -7.798833293105e+01 
-1.171030162332e+02 4.066330153228e+01 0.0 
4.066330153228e+01 -2.766407329499e+02 0.0 
0.0 0.0 -1.177231247549e+02 
-5.516999032253e+01 1.023341534125e+01 0.0 
1.023341534125e+01 -5.125317656809e+01 0.0 
0.0 0.0 -3.152695006718e+01 
-5.452679897578e+01 1.311910564588e+00 0.0 
1.311910564588e+00 -8.549834048356e+01 0.0 
0.0 0.0 -4.160754183780e+01 
-4.661572354106e+01 2.947238129588e+01 0.0 
2.947238129588e+01 -8.611169246662e+01 0.0 
0.0 0.0 -3.941822480230e+01 
-3.764267008765e+01 2.421749214986e+01 0.0 
2.421749214986e+01 -4.489533712468e+01 0.0 
0.0 0.0 -2.436140216370e+01 
-5.435474013035e+01 2.917365839574e+01 0.0 
2.917365839574e+01 -1.239936748142e+02 0.0 
0.0 0.0 -5.310452448337e+01 
-4.220081783725e+01 2.705059803642e+01 0.0 
2.705059803642e+01 -1.225936177545e+02 0.0 
0.0 0.0 -4.903833067753e+01 
-3.086785359714e+01 1.106354969820e+00 0.0 
1.106354969820e+00 -2.421053533231e+01 0.0 
0.0 0.0 -1.612351667883e+01 
-4.773659100737e+01 2.471637850676e+01 0.0 
2.471637850676e+01 -1.570188262233e+02 0.0 
0.0 0.0 -6.102662516920e+01 
-1.072980793331e+01 -1.179097475357e+00 0.0 
-1.179097475357e+00 -2.517057684568e+01 0.0 
0.0 0.0 -1.074555730714e+01 
-3.598500819804e+01 2.265784647435e-01 0.0 
2.265784647435e-01 -3.913377389968e+01 0.0 
0.0 0.0 -2.213563462932e+01 
-1.991615560189e+01 -6.845028290175e-01 0.0 
-6.845028290175e-01 -6.013040935438e+01 0.0 
0.0 0.0 -2.361396948688e+01 
-4.547903527688e+01 2.745079185589e+01 0.0 
2.745079185589e+01 -4.660045430724e+01 0.0 
0.0 0.0 -2.722384687524e+01 
-1.550174101476e+02 1.236145645046e+01 0.0 
1.236145645046e+01 -3.742735127138e+02 0.0 
0.0 0.0 -1.583872768584e+02 
-4.002920343327e+01 2.727056743401e+01 0.0 
2.727056743401e+01 -1.041122448470e+02 0.0 
0.0 0.0 -4.284243448409e+01 
-1.227242423560e+02 -9.335936052862e-01 0.0 
-9.335936052862e-01 -3.004603267574e+02 0.0 
0.0 0.0 -1.265553707340e+02 
-3.828276845264e+01 2.709998619490e+01 0.0 
2.709998619490e+01 -4.561119430368e+01 0.0 
0.0 0.0 -2.476818882690e+01 
-9.662533338144e+01 2.514415275731e+01 0.0 
2.514415275731e+01 -2.767342370293e+02 0.0 
0.0 0.0 -1.116078711232e+02 
-3.045378639521e+01 8.167386019822e-02 0.0 
8.167386019822e-02 -2.569551842720e+01 0.0 
0.0 0.0 -1.644479144672e+01 
-4.560367364291e+01 2.354461560236e+01 0.0 
2.354461560236e+01 -1.564795938928e+02 0.0 
0.0 0.0 -6.022498026072e+01 
-1.365767274936e+02 1.231539340077e+00 0.0 
1.231539340077e+00 -3.299349257064e+02 0.0 
0.0 0.0 -1.395534959600e+02 
-3.374805788780e+01 -9.676816537433e+00 0.0 
-9.676816537433e+00 -6.424779035414e+01 0.0 
0.0 0.0 -2.843492464248e+01 
-1.457828680847e+02 -3.262869695038e-01 0.0 
-3.262869695038e-01 -3.492981690849e+02 0.0 
0.0 0.0 -1.481243111509e+02 
-5.626915926941e+01 2.701257886807e+01 0.0 
2.701257886807e+01 -8.554550661870e+01 0.0 
0.0 0.0 -4.214439976644e+01 
-1.567169919547e+02 2.110841298810e+00 0.0 
2.110841298810e+00 -3.745178133379e+02 0.0 
0.0 0.0 -1.589704415878e+02 
-2.969384860840e+01 -6.838803876428e-03 0.0 
-6.838803876428e-03 -2.446779201424e+01 0.0 
0.0 0.0 -1.584849218679e+01 
-4.080100760621e+01 2.599929826462e+01 0.0 
2.599929826462e+01 -1.219897577577e+02 0.0 
0.0 0.0 -4.843722960917e+01 
-4.429522112768e+01 2.386577709622e+01 0.0 
2.386577709622e+01 -4.411723921302e+01 0.0 
0.0 0.0 -2.612373810221e+01 
-1.039883085595e+02 1.723273782922e-01 0.0 
1.723273782922e-01 -2.587288543512e+02 0.0 
0.0 0.0 -1.084151488732e+02 
-3.879999721648e+01 2.726507632960e+01 0.0 
2.726507632960e+01 -4.575807421131e+01 0.0 
0.0 0.0 -2.496742142834e+01 
-4.443206846811e+01 2.283401433690e+01 0.0 
2.283401433690e+01 -1.558439995531e+02 0.0 
0.0 0.0 -5.968282040637e+01 
-5.910464333185e+01 3.110960694614e+00 0.0 
3.110960694614e+00 -9.691822892299e+01 0.0 
0.0 0.0 -4.640686167645e+01 
-2.998045989552e+01 -5.235260241951e-01 0.0 
-5.235260241951e-01 -2.440565834489e+01 0.0 
0.0 0.0 -1.591583547212e+01 
-4.405563548742e+01 2.527299465600e+01 0.0 
2.527299465600e+01 -1.395008325172e+02 0.0 
0.0 0.0 -5.466694040138e+01 
-4.087039655883e+01 2.415647349325e+01 0.0 
2.415647349325e+01 -4.397657494707e+01 0.0 
0.0 0.0 -2.505409145177e+01 
-1.004310923528e+02 3.427190081905e+01 0.0 
3.427190081905e+01 -2.392334552798e+02 0.0 
0.0 0.0 -1.014993642898e+02 
-7.240091601210e+01 -2.386352274913e+00 0.0 
-2.386352274913e+00 -1.828077768879e+02 0.0 
0.0 0.0 -7.616260787000e+01 
-1.326977373049e+02 3.496337693516e+01 0.0 
3.496337693516e+01 -3.206315399084e+02 0.0 
0.0 0.0 -1.355987831640e+02 
-1.203951321356e+02 4.100901931094e+01 0.0 
4.100901931094e+01 -2.852674238744e+02 0.0 
0.0 0.0 -1.212987668030e+02 
-3.972292323410e+01 2.797929245698e+01 0.0 
2.797929245698e+01 -6.720404105989e+01 0.0 
0.0 0.0 -3.167808928820e+01 
-7.249875083164e+01 -2.483436591813e+00 0.0 
-2.483436591813e+00 -1.830220765734e+02 0.0 
0.0 0.0 -7.625624822152e+01 
-1.254947070213e+02 1.703075242164e+01 0.0 
1.703075242164e+01 -3.337136781249e+02 0.0 
0.0 0.0 -1.373625155438e+02 
-4.359946837655e+01 2.839044620039e+01 0.0 
2.839044620039e+01 -6.670836010834e+01 0.0 
0.0 0.0 -3.269234854546e+01 
-3.707174198175e+01 2.587145671085e+01 0.0 
2.587145671085e+01 -6.424997682314e+01 0.0 
0.0 0.0 -2.999651564147e+01 
-5.291163497292e+01 2.505132074754e+01 0.0 
2.505132074754e+01 -6.578148194391e+01 0.0 
0.0 0.0 -3.520793507505e+01 
-4.609750696232e+01 2.669756695496e+01 0.0 
2.669756695496e+01 -1.406724531097e+02 0.0 
0.0 0.0 -5.563098802161e+01 
-7.972159602863e+01 7.218802649072e+00 0.0 
7.218802649072e+00 -1.763826274000e+02 0.0 
0.0 0.0 -7.643126702858e+01 
-8.626913349171e+01 2.978960596521e+01 0.0 
2.978960596521e+01 -1.701089495159e+02 0.0 
0.0 0.0 -7.651342490229e+01 
-1.412945603975e+02 -7.058634710983e-01 0.0 
-7.058634710983e-01 -3.397612350432e+02 0.0 
0.0 0.0 -1.439167386322e+02 
-4.001412889825e+01 2.866018945132e+01 0.0 
2.866018945132e+01 -4.688155902548e+01 0.0 
0.0 0.0 -2.495471431141e+01 
-4.116471241645e+01 2.053847140069e+01 0.0 
2.053847140069e+01 -1.549770222249e+02 0.0 
0.0 0.0 -5.844252039242e+01 
-9.022864293386e+01 3.150873635663e+01 0.0 
3.150873635663e+01 -1.887707776510e+02 0.0 
0.0 0.0 -8.329982617547e+01 
-7.985030720749e+01 2.628155724301e+01 0.0 
2.628155724301e+01 -7.878269760927e+01 0.0 
0.0 0.0 -4.785785979754e+01 
-4.207335762856e+01 2.644618402296e+01 0.0 
2.644618402296e+01 -6.600143596334e+01 0.0 
0.0 0.0 -3.202243807757e+01 
-1.167715619888e+02 1.162562352839e+01 0.0 
1.162562352839e+01 -3.193603597476e+02 0.0 
0.0 0.0 -1.304395765209e+02 
-1.268253208117e+01 -1.204283481884e+00 0.0 
-1.204283481884e+00 -4.250881134857e+01 0.0 
0.0 0.0 -1.615740302892e+01 
-1.013264117718e+02 3.285607797627e+01 0.0 
3.285607797627e+01 -2.202044025108e+02 0.0 
0.0 0.0 -9.605924428478e+01 
-7.460236883526e+01 2.227628028111e+01 0.0 
2.227628028111e+01 -1.151629119001e+02 0.0 
0.0 0.0 -5.652958422061e+01 
-6.118023978887e+01 -9.951656384726e+00 0.0 
-9.951656384726e+00 -1.812779224523e+02 0.0 
0.0 0.0 -7.233744867236e+01 
-1.134514644878e+02 1.077269156453e+01 0.0 
1.077269156453e+01 -3.178577044446e+02 0.0 
0.0 0.0 -1.289927506797e+02 
-6.159054137969e+01 1.916742791050e+01 0.0 
1.916742791050e+01 -6.167441581029e+01 0.0 
0.0 0.0 -3.657948715699e+01 
-6.472751054311e+01 1.477106423642e+01 0.0 
1.477106423642e+01 -6.866695830439e+01 0.0 
0.0 0.0 -3.961834065425e+01 
-1.454073360948e+02 1.371068570651e+01 0.0 
1.371068570651e+01 -3.616520342938e+02 0.0 
0.0 0.0 -1.517178111166e+02 
-5.074937499359e+01 -1.075594801417e+01 0.0 
-1.075594801417e+01 -1.341643564051e+02 0.0 
0.0 0.0 -5.507411941960e+01 
-5.755797592516e+01 2.924982749825e+01 0.0 
2.924982749825e+01 -1.427269028895e+02 0.0 
0.0 0.0 -5.968546364441e+01 
-5.990579922004e+01 2.846353484730e+01 0.0 
2.846353484730e+01 -1.051954493340e+02 0.0 
0.0 0.0 -4.913037456620e+01 
-7.991815445351e+01 2.468711420027e+01 0.0 
2.468711420027e+01 -1.224740615287e+02 0.0 
0.0 0.0 -6.031766479467e+01 
-5.987169938302e+01 2.915851491351e+01 0.0 
2.915851491351e+01 -8.689768527178e+01 0.0 
0.0 0.0 -4.363081539644e+01 
-5.234581816254e+01 2.836495119778e+01 0.0 
2.836495119778e+01 -6.551211306244e+01 0.0 
0.0 0.0 -3.495737936749e+01 
-8.437058976859e+01 2.209462936782e+01 0.0 
2.209462936782e+01 -2.561191074658e+02 0.0 
0.0 0.0 -1.017469091703e+02 
-9.753706446742e+01 3.559056665408e+01 0.0 
3.559056665408e+01 -2.224884381689e+02 0.0 
0.0 0.0 -9.560765079090e+01 
-5.731116562440e+01 2.462555218467e+01 0.0 
2.462555218467e+01 -9.340612689182e+01 0.0 
0.0 0.0 -4.633899486003e+01 
-3.924435205843e+01 2.718865173730e+01 0.0 
2.718865173730e+01 -6.713889479074e+01 0.0 
0.0 0.0 -3.151497405475e+01 
-4.069332399821e+01 2.713667601951e+01 0.0 
2.713667601951e+01 -8.513971548843e+01 0.0 
0.0 0.0 -3.734991184599e+01 
-5.473838260830e+01 3.068301820679e+01 0.0 
3.068301820679e+01 -1.244504874370e+02 0.0 
0.0 0.0 -5.335666101360e+01 
-9.152276277944e+01 3.239413134799e+01 0.0 
3.239413134799e+01 -1.757923599092e+02 0.0 
0.0 0.0 -7.979453680659e+01 
-3.208791544987e+01 2.380137494629e+01 0.0 
2.380137494629e+01 -1.205278957680e+02 0.0 
0.0 0.0 -4.639341110756e+01 
-1.124380189212e+02 8.956950707064e+00 0.0 
8.956950707064e+00 -3.108362561936e+02 0.0 
0.0 0.0 -1.265822825344e+02 
-3.013575619988e+01 1.132026713012e+00 0.0 
1.132026713012e+00 -2.318717285735e+01 0.0 
0.0 0.0 -1.559687871717e+01 
-4.300999263008e+01 2.198768978923e+01 0.0 
2.198768978923e+01 -1.560525229432e+02 0.0 
0.0 0.0 -5.931875467198e+01 
-1.084621922851e+02 6.406649497054e+00 0.0 
6.406649497054e+00 -3.017653418032e+02 0.0 
0.0 0.0 -1.226682602265e+02 
-8.189389027368e+00 -3.128120762098e-01 0.0 
-3.128120762098e-01 -2.839657317784e+01 0.0 
0.0 0.0 -1.057578866156e+01 
-8.098417260552e+01 2.395778060718e+01 0.0 
2.395778060718e+01 -1.376796715213e+02 0.0 
0.0 0.0 -6.519915323803e+01 
-6.344286812149e+00 -1.406109876234e+00 0.0 
-1.406109876234e+00 -2.401079314586e+01 0.0 
0.0 0.0 -8.467765439449e+00 
-1.417138288813e+01 -1.401205723870e+00 0.0 
-1.401205723870e+00 -4.312601707621e+01 0.0 
0.0 0.0 -1.678921998930e+01 
-3.881121414035e+01 2.759085259552e+01 0.0 
2.759085259552e+01 -4.668623754650e+01 0.0 
0.0 0.0 -2.468931376671e+01 
-4.480108516476e+01 -1.069307635734e+01 0.0 
-1.069307635734e+01 -1.133469370381e+02 0.0 
0.0 0.0 -4.704440666087e+01 
-8.603532245981e+01 2.621156306634e+01 0.0 
2.621156306634e+01 -1.449153813393e+02 0.0 
0.0 0.0 -6.888521113973e+01 
-4.380251869708e+01 -9.991685187198e+00 0.0 
-9.991685187198e+00 -1.082390673193e+02 0.0 
0.0 0.0 -4.521247580491e+01 
-3.834998814969e+01 2.869314435278e+01 0.0 
2.869314435278e+01 -8.719270436330e+01 0.0 
0.0 0.0 -3.657597856161e+01 
-4.265248072432e+01 -2.287291659526e+01 0.0 
-2.287291659526e+01 -1.107325127716e+02 0.0 
0.0 0.0 -4.428853164802e+01 
-3.358639927552e+01 -8.732707978266e+00 0.0 
-8.732707978266e+00 -7.183430007361e+01 0.0 
0.0 0.0 -3.114262355356e+01 
-1.180861183077e+02 1.345911975502e+01 0.0 
1.345911975502e+01 -3.253629778843e+02 0.0 
0.0 0.0 -1.326347288576e+02 
-5.646962595779e+01 2.988289694567e+01 0.0 
2.988289694567e+01 -8.579061678347e+01 0.0 
0.0 0.0 -4.227807282238e+01 
-1.551216398418e+02 5.436278776429e-01 0.0 
5.436278776429e-01 -3.697078609248e+02 0.0 
0.0 0.0 -1.570488502300e+02 
-6.268258956940e+01 1.099263181618e+01 0.0 
1.099263181618e+01 -1.096779374582e+02 0.0 
0.0 0.0 -5.224985763313e+01 
-3.768211217804e+01 2.701607109382e+01 0.0 
2.701607109382e+01 -1.052012044176e+02 0.0 
0.0 0.0 -4.246499497868e+01 
-4.760752577397e+01 2.109955324948e+01 0.0 
2.109955324948e+01 -1.725258919433e+02 0.0 
0.0 0.0 -6.564002531518e+01 
-4.029619572008e+01 2.608729304848e+01 0.0 
2.608729304848e+01 -6.584875264209e+01 0.0 
0.0 0.0 -3.144348450865e+01 
-1.089919577490e+02 8.151949820795e+00 0.0 
8.151949820795e+00 -3.092837519770e+02 0.0 
0.0 0.0 -1.250827129178e+02 
-1.575378466064e+02 1.849903412292e+00 0.0 
1.849903412292e+00 -3.764464252842e+02 0.0 
0.0 0.0 -1.597952815672e+02 
-8.473444770468e+01 3.114132431454e+01 0.0 
3.114132431454e+01 -1.536094766601e+02 0.0 
0.0 0.0 -7.110317730944e+01 
-3.370520883565e+01 1.888855978501e+01 0.0 
1.888855978501e+01 -1.383683584022e+02 0.0 
0.0 0.0 -5.122207017136e+01 
-1.210354636984e+02 1.417341249285e+01 0.0 
1.417341249285e+01 -3.266339753869e+02 0.0 
0.0 0.0 -1.339008317256e+02 
-1.132138612552e+02 -1.353574296273e+00 0.0 
-1.353574296273e+00 -2.795197485067e+02 0.0 
0.0 0.0 -1.174200829286e+02 
-5.758607529815e+01 3.126356027526e+01 0.0 
3.126356027526e+01 -1.246886203407e+02 0.0 
0.0 0.0 -5.428240869165e+01 
-7.856132776881e+01 2.518850359687e+01 0.0 
2.518850359687e+01 -1.330198102219e+02 0.0 
0.0 0.0 -6.307434139723e+01 
-1.290708041439e+02 3.320071456317e+01 0.0 
3.320071456317e+01 -3.183374136185e+02 0.0 
0.0 0.0 -1.338224653287e+02 
-4.667843939006e+01 2.007741390437e+01 0.0 
2.007741390437e+01 -1.719167151827e+02 0.0 
0.0 0.0 -6.517854637184e+01 
-3.609098011545e+01 2.802546884624e+01 0.0 
2.802546884624e+01 -8.491704970933e+01 0.0 
0.0 0.0 -3.590240894743e+01 
-6.688033971712e+01 3.010486048376e+01 0.0 
3.010486048376e+01 -1.078293498682e+02 0.0 
0.0 0.0 -5.201290687560e+01 
-9.366780573966e+01 1.995767651269e+01 0.0 
1.995767651269e+01 -2.072869123102e+02 0.0 
0.0 0.0 -8.988641541496e+01 
-5.770543047091e+01 3.049249921628e+01 0.0 
3.049249921628e+01 -1.430137177577e+02 0.0 
0.0 0.0 -5.981574446859e+01 
-6.359938541137e+01 1.767794597742e+01 0.0 
1.767794597742e+01 -2.189952152267e+02 0.0 
0.0 0.0 -8.437838019143e+01 
-3.790282235843e+01 6.507801446117e-01 0.0 
6.507801446117e-01 -4.297661481080e+01 0.0 
0.0 0.0 -2.386383115077e+01 
-3.771190193297e+01 -1.557405232155e+01 0.0 
-1.557405232155e+01 -6.891836106831e+01 0.0 
0.0 0.0 -2.946111752654e+01 
-5.861960857829e+01 2.573956383123e+01 0.0 
2.573956383123e+01 -8.559449768422e+01 0.0 
0.0 0.0 -4.286423187875e+01 
-3.699261457315e+01 2.139693060701e+01 0.0 
2.139693060701e+01 -1.403037909657e+02 0.0 
0.0 0.0 -5.278892166164e+01 
-3.128830192368e+01 1.949654214319e+01 0.0 
1.949654214319e+01 -1.306875399844e+02 0.0 
0.0 0.0 -4.941090336224e+01 
-3.460371088567e+01 -2.405288581668e+01 0.0 
-2.405288581668e+01 -1.223743531035e+02 0.0 
0.0 0.0 -4.773551443078e+01 
-8.281060022909e+01 2.271401322893e+01 0.0 
2.271401322893e+01 -1.428996353687e+02 0.0 
0.0 0.0 -6.731307067933e+01 
-6.358237971495e+01 3.067193561228e+01 0.0 
3.067193561228e+01 -1.067160891851e+02 0.0 
0.0 0.0 -5.068954067000e+01 
-4.293944718872e+01 2.665930613594e+01 0.0 
2.665930613594e+01 -1.228161392704e+02 0.0 
0.0 0.0 -4.932667593773e+01 
-8.788980396586e+01 2.488485394954e+01 0.0 
2.488485394954e+01 -1.509385288824e+02 0.0 
0.0 0.0 -7.124849985449e+01 
-8.857713623195e+01 3.285626297317e+01 0.0 
3.285626297317e+01 -1.719740924293e+02 0.0 
0.0 0.0 -7.776536859837e+01 
-6.061188469639e+01 3.168473484192e+01 0.0 
3.168473484192e+01 -1.249875988651e+02 0.0 
0.0 0.0 -5.527984506846e+01 
-1.590554150546e+02 3.782596863100e+00 0.0 
3.782596863100e+00 -3.773222822567e+02 0.0 
0.0 0.0 -1.605133091934e+02 
-6.708229385880e+01 1.609248536125e+01 0.0 
1.609248536125e+01 -2.316348289381e+02 0.0 
0.0 0.0 -8.921513683907e+01 
-6.383784794120e+01 3.186371463033e+01 0.0 
3.186371463033e+01 -1.253719488464e+02 0.0 
0.0 0.0 -5.636293903627e+01 
-5.099845391188e+01 2.631416035453e+01 0.0 
2.631416035453e+01 -1.585788738640e+02 0.0 
0.0 0.0 -6.247319833275e+01 
-7.171673407774e+01 1.845656092918e+01 0.0 
1.845656092918e+01 -2.356739197767e+02 0.0 
0.0 0.0 -9.181719615634e+01 
-3.132297661992e+01 1.538074472036e+01 0.0 
1.538074472036e+01 -1.409016280936e+02 0.0 
0.0 0.0 -5.126738141404e+01 
-4.645454926324e+01 9.063168758342e+00 0.0 
9.063168758342e+00 -2.915337548256e+01 0.0 
0.0 0.0 -2.228237742374e+01 
-4.940257044894e+01 1.698022620464e+01 0.0 
1.698022620464e+01 -1.863025856521e+02 0.0 
0.0 0.0 -7.031154683030e+01 
-3.947599770682e+01 -5.995063903702e+00 0.0 
-5.995063903702e+00 -1.651855977797e+02 0.0 
0.0 0.0 -6.099847864595e+01 
-8.253816856632e+01 2.779055872848e+01 0.0 
2.779055872848e+01 -1.517739398313e+02 0.0 
0.0 0.0 -6.989363251930e+01 
-1.120190089381e+02 4.396670351228e+00 0.0 
4.396670351228e+00 -1.013423830166e+02 0.0 
0.0 0.0 -6.428215875877e+01 
-6.315365117974e+01 2.829255078120e+01 0.0 
2.829255078120e+01 -8.830815922006e+01 0.0 
0.0 0.0 -4.503854311994e+01 
-3.726593715755e+01 1.715259084912e+01 0.0 
1.715259084912e+01 -1.548521501314e+02 0.0 
0.0 0.0 -5.723542618670e+01 
-3.453640433676e+01 2.619763688255e+01 0.0 
2.619763688255e+01 -1.037026774571e+02 0.0 
0.0 0.0 -4.107172453817e+01 
-2.881825811948e+01 1.052618024248e+01 0.0 
1.052618024248e+01 -1.382313916642e+02 0.0 
0.0 0.0 -4.938515287592e+01 
-7.000153574850e+01 2.862163675455e+01 0.0 
2.862163675455e+01 -1.263500229013e+02 0.0 
0.0 0.0 -5.850546759494e+01 
-1.892838606711e+01 -4.176253117286e+00 0.0 
-4.176253117286e+00 -4.262787941939e+01 0.0 
0.0 0.0 -1.806687964595e+01 
-4.215139326681e+01 2.730207505965e+01 0.0 
2.730207505965e+01 -8.556260559884e+01 0.0 
0.0 0.0 -3.791419965969e+01 
-7.531872069414e+01 1.684438888215e+01 0.0 
1.684438888215e+01 -2.481301785582e+02 0.0 
0.0 0.0 -9.663466977572e+01 
-6.282735985200e+01 2.774296189514e+01 0.0 
2.774296189514e+01 -1.056702886561e+02 0.0 
0.0 0.0 -5.014929455242e+01 
-5.789163085901e+01 1.433903879464e+01 0.0 
1.433903879464e+01 -5.509755356236e+01 0.0 
0.0 0.0 -3.349675532641e+01 
-3.161634333074e+01 2.029912048589e+01 0.0 
2.029912048589e+01 -1.243771579556e+02 0.0 
0.0 0.0 -4.814568593716e+01 
-3.522250870662e+01 -2.361849561431e+00 0.0 
-2.361849561431e+00 -1.641851417541e+02 0.0 
0.0 0.0 -5.942229513821e+01 
-3.985650132475e+01 -1.143436225824e+01 0.0 
-1.143436225824e+01 -1.558714474632e+02 0.0 
0.0 0.0 -5.831838463638e+01 
-4.044548687746e+01 2.810089765293e+01 0.0 
2.810089765293e+01 -6.684827531389e+01 0.0 
0.0 0.0 -3.178812865741e+01 
-8.089654815986e+01 2.900283466556e+01 0.0 
2.900283466556e+01 -1.350288366429e+02 0.0 
0.0 0.0 -6.437761544083e+01 
-4.338592135100e+01 2.886647972411e+01 0.0 
2.886647972411e+01 -8.642131933834e+01 0.0 
0.0 0.0 -3.854217220680e+01 
-4.665499152549e+01 1.547138087988e+01 0.0 
1.547138087988e+01 -1.843117586616e+02 0.0 
0.0 0.0 -6.889002505612e+01 
-4.454042409630e+01 1.886596920776e+01 0.0 
1.886596920776e+01 -1.710122015153e+02 0.0 
0.0 0.0 -6.426578768349e+01 
-2.643470942354e+01 1.432076559341e+01 0.0 
1.432076559341e+01 -1.114639396968e+02 0.0 
0.0 0.0 -4.244864660562e+01 
-5.402278705836e+01 2.457291593476e+01 0.0 
2.457291593476e+01 -1.752518857551e+02 0.0 
0.0 0.0 -6.838240184403e+01 
-3.815213818967e+01 2.881746282790e+01 0.0 
2.881746282790e+01 -6.805059065526e+01 0.0 
0.0 0.0 -3.019023325362e+01 
-1.063297451293e+02 3.494694048594e+01 0.0 
3.494694048594e+01 -2.346391414465e+02 0.0 
0.0 0.0 -1.018906659728e+02 
-1.108956373317e+02 3.940043828624e+01 0.0 
3.940043828624e+01 -2.492136875732e+02 0.0 
0.0 0.0 -1.076327974715e+02 
-6.074840922764e+01 2.896674840069e+01 0.0 
2.896674840069e+01 -1.609278430252e+02 0.0 
0.0 0.0 -6.610287567585e+01 
-3.426250998071e+01 1.891019438129e+01 0.0 
1.891019438129e+01 -1.407846273029e+02 0.0 
0.0 0.0 -5.211414118507e+01 
-3.229488459884e+01 2.502420957115e+01 0.0 
2.502420957115e+01 -1.050322931548e+02 0.0 
0.0 0.0 -4.079815332609e+01 
-6.709705278756e+01 3.028719066583e+01 0.0 
3.028719066583e+01 -1.438911798147e+02 0.0 
0.0 0.0 -6.289646978066e+01 
-3.084493022604e+01 2.076935649362e+01 0.0 
2.076935649362e+01 -1.227100727018e+02 0.0 
0.0 0.0 -4.566650087837e+01 
-3.378987125835e+01 -8.126168125389e+00 0.0 
-8.126168125389e+00 -1.540369096723e+02 0.0 
0.0 0.0 -5.594803427919e+01 
-5.718580417318e+01 2.949838699605e+01 0.0 
2.949838699605e+01 -1.240697536203e+02 0.0 
0.0 0.0 -5.397666733805e+01 
-8.747803032711e+01 1.255067566346e+01 0.0 
1.255067566346e+01 -1.823911445376e+02 0.0 
0.0 0.0 -8.056075245942e+01 
-4.016404844162e+01 1.985938543962e+01 0.0 
1.985938543962e+01 -1.555093725588e+02 0.0 
0.0 0.0 -5.830202630013e+01 
-8.313169040126e+01 2.194795009796e+01 0.0 
2.194795009796e+01 -2.555665833513e+02 0.0 
0.0 0.0 -1.012094821258e+02 
-3.900838229107e+01 2.942403849225e+01 0.0 
2.942403849225e+01 -8.948585517637e+01 0.0 
0.0 0.0 -3.671132070922e+01 
-1.577270210085e+02 1.817739761186e+01 0.0 
1.817739761186e+01 -3.822948385013e+02 0.0 
0.0 0.0 -1.616065578529e+02 
-3.506886373849e+01 2.345796589709e+01 0.0 
2.345796589709e+01 -1.251198472070e+02 0.0 
0.0 0.0 -4.765661328366e+01 
-6.057796906934e+01 2.976460371368e+01 0.0 
2.976460371368e+01 -1.430786304347e+02 0.0 
0.0 0.0 -6.069697985121e+01 
-2.943073269415e+01 1.496347372160e+01 0.0 
1.496347372160e+01 -1.335446006436e+02 0.0 
0.0 0.0 -4.997777601245e+01 
-8.693881518805e+01 8.541803008980e+00 0.0 
8.541803008980e+00 -2.735315755868e+02 0.0 
0.0 0.0 -1.077411172324e+02 
-4.994065771695e+01 1.825916371095e+01 0.0 
1.825916371095e+01 -1.868223276714e+02 0.0 
0.0 0.0 -7.062889561651e+01 
-3.812641947409e+01 -1.074665061479e+01 0.0 
-1.074665061479e+01 -1.571356726504e+02 0.0 
0.0 0.0 -5.817862763733e+01 
-6.024146280979e+01 3.111065635964e+01 0.0 
3.111065635964e+01 -1.058239878019e+02 0.0 
0.0 0.0 -4.941963518350e+01 
-1.204189218061e+02 4.328473651366e+01 0.0 
4.328473651366e+01 -2.785454216763e+02 0.0 
0.0 0.0 -1.192893030447e+02 
-4.145211390654e+01 1.604583182423e+01 0.0 
1.604583182423e+01 -1.693372728569e+02 0.0 
0.0 0.0 -6.283681602902e+01 
-7.670340242897e+01 1.652258163380e+01 0.0 
1.652258163380e+01 -2.486531502910e+02 0.0 
0.0 0.0 -9.720696581598e+01 
-3.423215563544e+01 2.657279384234e+01 0.0 
2.657279384234e+01 -8.756877321791e+01 0.0 
0.0 0.0 -3.552246611336e+01 
-6.217151103994e+01 8.098095507315e+00 0.0 
8.098095507315e+00 -8.258971399365e+01 0.0 
0.0 0.0 -4.302836751008e+01 
-1.048998856040e+02 5.631040895460e+00 0.0 
5.631040895460e+00 -3.001100735499e+02 0.0 
0.0 0.0 -1.211029877462e+02 
-3.780554499946e+01 2.796378740434e+01 0.0 
2.796378740434e+01 -8.478422383705e+01 0.0 
0.0 0.0 -3.637693065095e+01 
-6.122985689286e+01 8.506234149303e+00 0.0 
8.506234149303e+00 -7.380779180376e+01 0.0 
0.0 0.0 -4.011129460899e+01 
-1.294147677516e+02 4.321552151931e+01 0.0 
4.321552151931e+01 -3.067202986356e+02 0.0 
0.0 0.0 -1.304405199162e+02 
-1.157462188080e+02 7.463075191460e+00 0.0 
7.463075191460e+00 -3.183347057373e+02 0.0 
0.0 0.0 -1.298242773636e+02 
-1.174997733000e+02 4.244142137394e+01 0.0 
4.244142137394e+01 -2.687540343106e+02 0.0 
0.0 0.0 -1.154761422832e+02 
-6.550642372020e+01 1.311033064198e+01 0.0 
1.311033064198e+01 -7.589376232041e+01 0.0 
0.0 0.0 -4.202005581218e+01 
-8.896051662226e+01 3.423682738427e+01 0.0 
3.423682738427e+01 -1.873330156878e+02 0.0 
0.0 0.0 -8.248805969303e+01 
-3.770356424021e+01 2.849954088058e+01 0.0 
2.849954088058e+01 -6.589036111333e+01 0.0 
0.0 0.0 -3.067817760606e+01 
-5.365522094747e+01 3.015969828729e+01 0.0 
3.015969828729e+01 -8.613980893490e+01 0.0 
0.0 0.0 -4.153850896471e+01 
-6.351527939860e+01 2.955980787741e+01 0.0 
2.955980787741e+01 -1.247645467890e+02 0.0 
0.0 0.0 -5.608394785627e+01 
-6.722154277443e+01 3.176977641486e+01 0.0 
3.176977641486e+01 -1.261112268248e+02 0.0 
0.0 0.0 -5.759983087976e+01 
-5.472408065677e+01 2.967126712249e+01 0.0 
2.967126712249e+01 -1.425994960101e+02 0.0 
0.0 0.0 -5.879707300005e+01 
-1.356247795956e+02 4.126216136269e+01 0.0 
4.126216136269e+01 -3.246541926016e+02 0.0 
0.0 0.0 -1.376836916592e+02 
-6.430659490840e+01 1.763945361387e+01 0.0 
1.763945361387e+01 -7.669888063827e+01 0.0 
0.0 0.0 -4.190164266400e+01 
-5.627901058574e+01 2.705089259933e+01 0.0 
2.705089259933e+01 -6.734027741121e+01 0.0 
0.0 0.0 -3.668578639908e+01 
-4.329207062587e+01 1.712668711455e+01 0.0 
1.712668711455e+01 -1.701057299570e+02 0.0 
0.0 0.0 -6.361934017485e+01 
-3.946539555668e+01 -1.018101543936e+01 0.0 
-1.018101543936e+01 -9.279436737468e+01 0.0 
0.0 0.0 -3.927792887941e+01 
-4.982836531146e+01 2.880416269866e+01 0.0 
2.880416269866e+01 -6.637624740868e+01 0.0 
0.0 0.0 -3.446138381604e+01 
-3.873567323690e+01 2.697382708970e+01 0.0 
2.697382708970e+01 -1.040760641305e+02 0.0 
0.0 0.0 -4.244352121022e+01 
-3.031892699686e+01 2.549862340832e-01 0.0 
2.549862340832e-01 -2.534258823577e+01 0.0 
0.0 0.0 -1.629845456979e+01 
-4.476231550753e+01 -1.270133730353e+01 0.0 
-1.270133730353e+01 -1.595342555275e+02 0.0 
0.0 0.0 -6.088897131051e+01 
-3.800493686171e+01 1.771284687104e+01 0.0 
1.771284687104e+01 -1.541545113200e+02 0.0 
0.0 0.0 -5.724783445451e+01 
-8.493437237923e+01 2.674171987808e+01 0.0 
2.674171987808e+01 -1.556359238387e+02 0.0 
0.0 0.0 -7.177108886538e+01 
-3.707120644264e+01 2.688604081861e+01 0.0 
2.688604081861e+01 -1.033521313649e+02 0.0 
0.0 0.0 -4.172700134225e+01 
-5.646421181678e+01 2.880220713547e+01 0.0 
2.880220713547e+01 -1.048605802111e+02 0.0 
0.0 0.0 -4.799743760835e+01 
-8.017688377922e+01 1.489874488223e+01 0.0 
1.489874488223e+01 -2.598518659227e+02 0.0 
0.0 0.0 -1.016086249106e+02 
-8.004363228913e+01 -2.999144975719e+00 0.0 
-2.999144975719e+00 -2.433781701200e+02 0.0 
0.0 0.0 -9.662654072274e+01 
-1.442037512423e+02 3.579651722228e+01 0.0 
3.579651722228e+01 -3.488425924378e+02 0.0 
0.0 0.0 -1.475139031040e+02 
-4.540489391924e+01 2.877672660518e+01 0.0 
2.877672660518e+01 -6.682412574805e+01 0.0 
0.0 0.0 -3.326870590018e+01 
-3.236068045939e+01 2.654619511466e+00 0.0 
2.654619511466e+00 -1.586904224003e+02 0.0 
0.0 0.0 -5.691533085791e+01 
-6.144343362258e+01 -9.962360180621e+00 0.0 
-9.962360180621e+00 -1.775939959552e+02 0.0 
0.0 0.0 -7.131122887334e+01 
-3.854808701204e+01 2.760427520981e+01 0.0 
2.760427520981e+01 -6.523266736712e+01 0.0 
0.0 0.0 -3.073422631375e+01 
-3.849368633806e+01 2.750050744284e+01 0.0 
2.750050744284e+01 -8.500452735895e+01 0.0 
0.0 0.0 -3.664946410910e+01 
-9.535887691809e+01 3.409851202136e+01 0.0 
3.409851202136e+01 -1.939816427830e+02 0.0 
0.0 0.0 -8.640215591031e+01 
-6.403189708084e+01 3.187944903063e+01 0.0 
3.187944903063e+01 -1.439273306485e+02 0.0 
0.0 0.0 -6.198776831880e+01 
-4.247885603479e+01 2.817684786637e+01 0.0 
2.817684786637e+01 -6.702921046738e+01 0.0 
0.0 0.0 -3.245241995065e+01 
-4.970689765528e+01 2.775333193635e+01 0.0 
2.775333193635e+01 -8.517718235290e+01 0.0 
0.0 0.0 -4.006522400245e+01 
-1.522751825585e+02 2.591441885818e+01 0.0 
2.591441885818e+01 -3.711875395240e+02 0.0 
0.0 0.0 -1.566388166248e+02 
-1.398059790940e+02 2.562287890349e+01 0.0 
2.562287890349e+01 -3.521333534004e+02 0.0 
0.0 0.0 -1.471817997483e+02 
-9.274546680763e+01 3.115180983817e+01 0.0 
3.115180983817e+01 -1.919663528605e+02 0.0 
0.0 0.0 -8.501354590045e+01 
-8.389135411140e+01 2.767433192052e+01 0.0 
2.767433192052e+01 -1.398344451577e+02 0.0 
0.0 0.0 -6.671773978074e+01 
-7.905408252305e+01 -2.515970572947e+00 0.0 
-2.515970572947e+00 -2.382409900843e+02 0.0 
0.0 0.0 -9.478852178221e+01 
-4.535737443534e+01 2.891644421901e+01 0.0 
2.891644421901e+01 -1.051348475118e+02 0.0 
0.0 0.0 -4.474766658413e+01 
-3.076179179382e+01 1.536939497942e+01 0.0 
1.536939497942e+01 -1.384993223685e+02 0.0 
0.0 0.0 -5.037833424871e+01 
-3.500409930726e+01 1.414723626521e+01 0.0 
1.414723626521e+01 -1.532350344212e+02 0.0 
0.0 0.0 -5.607174011853e+01 
-6.078461481997e+01 3.128401545819e+01 0.0 
3.128401545819e+01 -1.434870837450e+02 0.0 
0.0 0.0 -6.088150956948e+01 
-8.415230584675e+01 9.851885747164e+00 0.0 
9.851885747164e+00 -2.652125122161e+02 0.0 
0.0 0.0 -1.044094454189e+02 
-7.711809724759e+01 -4.836356084289e+00 0.0 
-4.836356084289e+00 -2.040226001303e+02 0.0 
0.0 0.0 -8.394220921337e+01 
-9.075625756220e+01 2.848660870349e+01 0.0 
2.848660870349e+01 -1.778539318958e+02 0.0 
0.0 0.0 -8.018305683741e+01 
-3.447314980756e+01 -1.971311686272e+00 0.0 
-1.971311686272e+00 -1.585548646787e+02 0.0 
0.0 0.0 -5.750840434587e+01 
-5.179118677255e+01 2.869080451790e+01 0.0 
2.869080451790e+01 -1.421037639196e+02 0.0 
0.0 0.0 -5.776848520764e+01 
-6.014136406516e+01 2.958286121918e+01 0.0 
2.958286121918e+01 -1.242101007477e+02 0.0 
0.0 0.0 -5.490543944385e+01 
-4.708339389837e+01 2.851503177464e+01 0.0 
2.851503177464e+01 -1.235819839417e+02 0.0 
0.0 0.0 -5.079961335202e+01 
-1.148808931330e+02 4.125315003804e+01 0.0 
4.125315003804e+01 -2.593370255134e+02 0.0 
0.0 0.0 -1.118653755939e+02 
-1.075633869786e+02 3.698092681374e+01 0.0 
3.698092681374e+01 -2.412651849604e+02 0.0 
0.0 0.0 -1.042485715817e+02 
-1.052170929265e+02 3.583846777210e+01 0.0 
3.583846777210e+01 -2.224864061178e+02 0.0 
0.0 0.0 -9.791104971329e+01 
-8.702915622731e+01 -2.278966529487e-01 0.0 
-2.278966529487e-01 -2.560816565166e+02 0.0 
0.0 0.0 -1.025332438232e+02 
-8.406372966364e+01 2.150383019507e+01 0.0 
2.150383019507e+01 -1.486929592328e+02 0.0 
0.0 0.0 -6.942700666893e+01 
-3.804066664547e+01 2.796869353424e+01 0.0 
2.796869353424e+01 -8.573783095326e+01 0.0 
0.0 0.0 -3.673354927962e+01 
-4.024439193347e+01 1.359182092368e+01 0.0 
1.359182092368e+01 -1.682859663935e+02 0.0 
0.0 0.0 -6.215910749808e+01 
-2.697382528531e+01 1.142009713342e+01 0.0 
1.142009713342e+01 -1.249887635460e+02 0.0 
0.0 0.0 -4.552624444980e+01 
-4.495857535819e+01 2.905175107081e+01 0.0 
2.905175107081e+01 -8.651370237388e+01 0.0 
0.0 0.0 -3.904168331962e+01 
-4.447164039583e+01 5.613673478970e+00 0.0 
5.613673478970e+00 -2.748245273307e+01 0.0 
0.0 0.0 -2.118622793867e+01 
-5.975478367863e+01 8.583220652693e+00 0.0 
8.583220652693e+00 -7.282820636343e+01 0.0 
0.0 0.0 -3.937489701262e+01 
-1.458739382798e+02 1.800448013749e+01 0.0 
1.800448013749e+01 -3.662811353977e+02 0.0 
0.0 0.0 -1.532465221033e+02 
-9.375430085689e+01 3.270157139464e+01 0.0 
3.270157139464e+01 -2.065312620858e+02 0.0 
0.0 0.0 -8.968566888280e+01 
-6.617203051134e+01 2.679240454181e+01 0.0 
2.679240454181e+01 -1.068052672626e+02 0.0 
0.0 0.0 -5.149318933217e+01 
-7.040167252951e+01 3.023177943757e+01 0.0 
3.023177943757e+01 -1.445542937311e+02 0.0 
0.0 0.0 -6.408678987819e+01 
-2.912725743195e+01 1.037954632755e+01 0.0 
1.037954632755e+01 -1.404544142118e+02 0.0 
0.0 0.0 -5.200321461012e+01 
-2.902654668500e+01 -1.020847040431e+01 0.0 
-1.020847040431e+01 -4.729196546168e+01 0.0 
0.0 0.0 -2.120987471625e+01 
-5.074608192539e+01 2.295486238105e+01 0.0 
2.295486238105e+01 -1.738931347891e+02 0.0 
0.0 0.0 -6.699176501435e+01 
-5.740409063636e+01 2.891251607278e+01 0.0 
2.891251607278e+01 -1.603725633689e+02 0.0 
0.0 0.0 -6.493299620159e+01 
-5.340788411480e+01 2.447469947372e+01 0.0 
2.447469947372e+01 -1.749708384586e+02 0.0 
0.0 0.0 -6.811361677201e+01 
-4.218952690459e+01 3.202184532097e+01 0.0 
3.202184532097e+01 -5.168283114935e+01 0.0 
0.0 0.0 -2.726949378485e+01 
-3.688255968304e+01 4.697118461111e-02 0.0 
4.697118461111e-02 -4.192260643212e+01 0.0 
0.0 0.0 -2.324154983455e+01 
-3.671546527754e+01 -8.783078636199e+00 0.0 
-8.783078636199e+00 -8.591387646555e+01 0.0 
0.0 0.0 -3.638880252293e+01 
-3.716929963389e+01 2.470287784311e+01 0.0 
2.470287784311e+01 -1.235302416233e+02 0.0 
0.0 0.0 -4.780986237715e+01 
-1.639686214966e+02 1.870139663582e+01 0.0 
1.870139663582e+01 -3.839267834920e+02 0.0 
0.0 0.0 -1.639686214966e+02 
-8.992134636434e+01 2.068430780800e+01 0.0 
2.068430780800e+01 -2.700497729511e+02 0.0 
0.0 0.0 -1.075913357946e+02 
-5.446221510248e+01 2.326731482090e+01 0.0 
2.326731482090e+01 -6.590547783202e+01 0.0 
0.0 0.0 -3.571030788035e+01 
-1.883329007501e+01 -1.054318063024e+00 0.0 
-1.054318063024e+00 -5.928880241921e+01 0.0 
0.0 0.0 -2.303662774827e+01 
-5.469657180788e+01 2.866404905694e+01 0.0 
2.866404905694e+01 -1.423899829478e+02 0.0 
0.0 0.0 -5.872596642670e+01 
-5.001942636225e+01 2.242838889748e+01 0.0 
2.242838889748e+01 -1.734785917748e+02 0.0 
0.0 0.0 -6.664940544110e+01 
-7.058833281311e+01 3.145962172983e+01 0.0 
3.145962172983e+01 -1.271153183782e+02 0.0 
0.0 0.0 -5.891109535738e+01 
-1.229405362736e+02 4.347663783091e+01 0.0 
4.347663783091e+01 -2.880189201097e+02 0.0 
0.0 0.0 -1.228878369150e+02 
-5.260113474110e+01 2.755826264846e+01 0.0 
2.755826264846e+01 -8.527093718493e+01 0.0 
0.0 0.0 -4.096162157781e+01 
-6.736374082417e+01 3.232369720790e+01 0.0 
3.232369720790e+01 -1.443790611810e+02 0.0 
0.0 0.0 -6.312284060154e+01 
-7.443232269060e+01 -6.696821307628e+00 0.0 
-6.696821307628e+00 -2.024851553081e+02 0.0 
0.0 0.0 -8.267524339961e+01 
-8.691123956172e+01 2.582990500756e+01 0.0 
2.582990500756e+01 -1.601634262051e+02 0.0 
0.0 0.0 -7.372239973005e+01 
-8.854597958024e+01 -9.168617875638e-01 0.0 
-9.168617875638e-01 -2.617867180135e+02 0.0 
0.0 0.0 -1.046998092781e+02 
-1.266758220299e+02 4.379879742513e+01 0.0 
4.379879742513e+01 -2.974264834673e+02 0.0 
0.0 0.0 -1.268306916492e+02 
-1.118979941264e+02 3.939548814513e+01 0.0 
3.939548814513e+01 -2.624286529617e+02 0.0 
0.0 0.0 -1.118979941264e+02 
-9.676128684795e+01 3.163512397623e+01 0.0 
3.163512397623e+01 -2.271096693119e+02 0.0 
0.0 0.0 -9.676128684795e+01 
-1.030522250985e+02 3.590629188752e+01 0.0 
3.590629188752e+01 -2.417885252298e+02 0.0 
0.0 0.0 -1.030522250985e+02 
-7.374538035913e+01 2.994597495023e+01 0.0 
2.994597495023e+01 -1.455307074552e+02 0.0 
0.0 0.0 -6.538282634430e+01 
-8.984747701331e+01 2.901904388018e+01 0.0 
2.901904388018e+01 -1.620067403824e+02 0.0 
0.0 0.0 -7.515626521872e+01 
-9.674695704345e+01 3.309682687141e+01 0.0 
3.309682687141e+01 -2.106906156294e+02 0.0 
0.0 0.0 -9.183127180186e+01 
-4.696109845391e+01 2.774014981335e+01 0.0 
2.774014981335e+01 -1.233947905799e+02 0.0 
0.0 0.0 -5.070676671014e+01 
-4.448957792124e+01 2.775278586773e+01 0.0 
2.775278586773e+01 -1.045559081578e+02 0.0 
0.0 0.0 -4.431364582370e+01 
-7.346080511090e+01 -4.622974064879e+00 0.0 
-4.622974064879e+00 -1.914592796128e+02 0.0 
0.0 0.0 -7.907602541712e+01 
-9.379635219109e+01 3.165806893171e+01 0.0 
3.165806893171e+01 -1.798152313095e+02 0.0 
0.0 0.0 -8.168347505017e+01 
-1.324785597237e+02 4.242188144226e+01 0.0 
4.242188144226e+01 -3.158050766792e+02 0.0 
0.0 0.0 -1.340850909209e+02 
-8.818278453691e+01 2.468988157679e+01 0.0 
2.468988157679e+01 -1.650977065998e+02 0.0 
0.0 0.0 -7.558414734102e+01 
-8.049869300416e+01 1.947532878682e+01 0.0 
1.947532878682e+01 -2.527320215393e+02 0.0 
0.0 0.0 -9.956921436302e+01 
-9.161080795203e+01 2.789177881975e+01 0.0 
2.789177881975e+01 -1.671793146075e+02 0.0 
0.0 0.0 -7.723703676787e+01 
-8.688432894730e+01 3.082039459533e+01 0.0 
3.082039459533e+01 -2.333127069109e+02 0.0 
0.0 0.0 -9.565911075746e+01 
-5.466331643987e+01 2.721814335240e+01 0.0 
2.721814335240e+01 -1.596948340386e+02 0.0 
0.0 0.0 -6.390744514355e+01 
-4.362115398245e+01 2.749876561099e+01 0.0 
2.749876561099e+01 -8.571090992165e+01 0.0 
0.0 0.0 -3.839961917123e+01 
-3.671630152312e+01 2.741255993984e+01 0.0 
2.741255993984e+01 -1.104072612383e+02 0.0 
0.0 0.0 -4.299518212464e+01 
-8.727651339119e+01 2.056301137332e+01 0.0 
2.056301137332e+01 -1.900594869219e+02 0.0 
0.0 0.0 -8.280080009394e+01 
-4.494034079467e+01 2.726834139319e+01 0.0 
2.726834139319e+01 -1.232760610031e+02 0.0 
0.0 0.0 -5.006492053934e+01 
-1.198374648644e+02 3.522134674366e+01 0.0 
3.522134674366e+01 -2.913342377829e+02 0.0 
0.0 0.0 -1.229515107942e+02 
-7.133701260258e+01 -6.652516071026e+00 0.0 
-6.652516071026e+00 -1.901231209652e+02 0.0 
0.0 0.0 -7.803804007035e+01 
-4.510955392318e+01 -1.573659202531e+01 0.0 
-1.573659202531e+01 -1.460113985371e+02 0.0 
0.0 0.0 -5.693628573808e+01 
-1.525465739428e+02 1.611808077838e+01 0.0 
1.611808077838e+01 -3.705367017302e+02 0.0 
0.0 0.0 -1.565249827019e+02 
-3.905631625487e+01 2.552016526925e+01 0.0 
2.552016526925e+01 -1.224669496116e+02 0.0 
0.0 0.0 -4.805697975996e+01 
-1.162481527649e+02 4.057531811863e+01 0.0 
4.057531811863e+01 -2.725790231181e+02 0.0 
0.0 0.0 -1.162481527649e+02 
-9.946965237843e+01 3.214277818089e+01 0.0 
3.214277818089e+01 -2.187548919953e+02 0.0 
0.0 0.0 -9.506736331211e+01 
-6.727177429180e+01 3.027108799350e+01 0.0 
3.027108799350e+01 -1.620214541384e+02 0.0 
0.0 0.0 -6.838796852905e+01 
-2.104387600179e+01 -6.001804270229e+00 0.0 
-6.001804270229e+00 -2.506213514306e+01 0.0 
0.0 0.0 -1.377022094575e+01 
-1.247577141318e+02 4.132496189361e+01 0.0 
4.132496189361e+01 -2.924346663076e+02 0.0 
0.0 0.0 -1.247577141319e+02 
-1.496907780527e+02 2.087187062879e+01 0.0 
2.087187062879e+01 -3.643461443275e+02 0.0 
0.0 0.0 -1.538110767141e+02 
-3.804296681055e+01 -1.473450842492e+01 0.0 
-1.473450842492e+01 -1.432319336937e+02 0.0 
0.0 0.0 -5.398247015128e+01 
-8.584148947433e+01 1.777131064409e+01 0.0 
1.777131064409e+01 -2.656089833825e+02 0.0 
0.0 0.0 -1.050351418571e+02 
-1.465269077915e+02 3.339176222813e+01 0.0 
3.339176222813e+01 -3.554185214932e+02 0.0 
0.0 0.0 -1.501836287854e+02 
-8.343188531190e+00 -9.090293625757e-01 0.0 
-9.090293625757e-01 -9.476155099502e+00 0.0 
0.0 0.0 -5.915716231996e+00 
-4.944490787334e+01 2.722370263613e+01 0.0 
2.722370263613e+01 -1.417101510187e+02 0.0 
0.0 0.0 -5.694651766761e+01 
-7.071109114039e+01 3.067600863035e+01 0.0 
3.067600863035e+01 -1.626518978732e+02 0.0 
0.0 0.0 -6.960889670409e+01 
-6.395560736918e+01 2.969806454036e+01 0.0 
2.969806454036e+01 -1.614849508311e+02 0.0 
0.0 0.0 -6.723216746009e+01 
-6.373166605104e+01 3.012801558546e+01 0.0 
3.012801558546e+01 -1.434484586987e+02 0.0 
0.0 0.0 -6.175403742491e+01 
-3.691925262277e+01 2.709518463593e+01 0.0 
2.709518463593e+01 -1.070984682684e+02 0.0 
0.0 0.0 -4.239774556572e+01 
-1.332487701545e+02 4.062466555061e+01 0.0 
4.062466555061e+01 -3.122471303604e+02 0.0 
0.0 0.0 -1.332487701545e+02 
-4.625864506270e+01 1.354666109027e+01 0.0 
1.354666109027e+01 -1.837103953046e+02 0.0 
0.0 0.0 -6.859071211018e+01 
-2.625401019844e+01 3.964640913670e+00 0.0 
3.964640913670e+00 -1.178962020795e+02 0.0 
0.0 0.0 -4.531471864046e+01 
-1.560858554280e+02 4.179259914739e+00 0.0 
4.179259914739e+00 -3.762935710230e+02 0.0 
0.0 0.0 -1.593138279353e+02 
-1.360779936197e+01 -3.850802284440e+00 0.0 
-3.850802284440e+00 -2.651161464308e+01 0.0 
0.0 0.0 -1.163582420151e+01 
-4.719962349486e+01 2.770295921666e+01 0.0 
2.770295921666e+01 -8.513973881429e+01 0.0 
0.0 0.0 -3.930180869275e+01 
-3.396772560526e+01 -2.362023126202e+01 0.0 
-2.362023126202e+01 -9.824343011526e+01 0.0 
0.0 0.0 -4.043825058396e+01 
-4.858995087427e+01 2.585295926005e+01 0.0 
2.585295926005e+01 -6.531521448231e+01 0.0 
0.0 0.0 -3.377154960697e+01 
-1.544123707565e+02 2.316076408697e+01 0.0 
2.316076408697e+01 -3.755490493033e+02 0.0 
0.0 0.0 -1.585884260179e+02 
-1.413456761792e+02 3.840707047244e+01 0.0 
3.840707047244e+01 -3.311399110849e+02 0.0 
0.0 0.0 -1.413456761792e+02 
-6.668366108238e+01 2.920423373321e+01 0.0 
2.920423373321e+01 -1.253729464949e+02 0.0 
0.0 0.0 -5.721698227317e+01 
-3.345818126345e+01 -2.425448713583e+01 0.0 
-2.425448713583e+01 -6.692720747467e+01 0.0 
0.0 0.0 -3.021882862832e+01 
-3.019935025017e+01 9.354434957726e+00 0.0 
9.354434957726e+00 -1.238550456202e+02 0.0 
0.0 0.0 -4.855903472784e+01 
-4.343555096580e+01 -2.622723799068e+01 0.0 
-2.622723799068e+01 -8.777473598806e+01 0.0 
0.0 0.0 -3.774310845959e+01 
-1.317069915830e+02 5.013912697438e+00 0.0 
5.013912697438e+00 -3.339979694090e+02 0.0 
0.0 0.0 -1.393114882976e+02 
-4.475262509146e+01 7.600337232162e+00 0.0 
7.600337232162e+00 -3.154558151304e+01 0.0 
0.0 0.0 -2.248946198135e+01 
-5.898014051979e+01 2.583627035979e+01 0.0 
2.583627035979e+01 -6.786407342739e+01 0.0 
0.0 0.0 -3.765326418415e+01 
-1.484099680786e+02 3.516806391090e+01 0.0 
3.516806391090e+01 -3.476232588501e+02 0.0 
0.0 0.0 -1.484099680786e+02 
-3.950413082580e+01 4.754408939031e+00 0.0 
4.754408939031e+00 -2.883633094088e+01 0.0 
0.0 0.0 -2.010213853000e+01 
-1.025673377923e+02 3.195574425312e+01 0.0 
3.195574425312e+01 -2.273593108145e+02 0.0 
0.0 0.0 -9.857799458204e+01 
-9.079201734418e+01 2.888615259774e+01 0.0 
2.888615259774e+01 -2.489949507991e+02 0.0 
0.0 0.0 -1.015360904430e+02 
-5.310186768598e+01 5.084371374915e+00 0.0 
5.084371374915e+00 -6.054114251187e+01 0.0 
0.0 0.0 -3.369290305936e+01 
-3.907647926655e+01 2.754783329467e+01 0.0 
2.754783329467e+01 -8.455821778342e+01 0.0 
0.0 0.0 -3.669040911499e+01 
-8.422080619138e+01 1.776052260941e+01 0.0 
1.776052260941e+01 -2.649187092122e+02 0.0 
0.0 0.0 -1.043418546211e+02 
-2.795647753641e+01 1.868533012798e+01 0.0 
1.868533012798e+01 -1.087327758803e+02 0.0 
0.0 0.0 -4.072088151300e+01 
-1.541889557815e+02 3.087801783953e+01 0.0 
3.087801783953e+01 -3.611075634902e+02 0.0 
0.0 0.0 -1.541889557815e+02 
-1.074698251072e+02 3.775239344299e+01 0.0 
3.775239344299e+01 -2.520962585835e+02 0.0 
0.0 0.0 -1.074698251072e+02 
-9.981541223145e+01 3.396934035569e+01 0.0 
3.396934035569e+01 -2.342359618734e+02 0.0 
0.0 0.0 -9.981541223145e+01 
-9.262338386958e+01 -1.239604481698e-01 0.0 
-1.239604481698e-01 -2.636842577257e+02 0.0 
0.0 0.0 -1.064922924786e+02 
-6.950012167682e+01 -4.132802724157e+00 0.0 
-4.132802724157e+00 -1.788869824857e+02 0.0 
0.0 0.0 -7.411613124875e+01 
-5.418890546446e+01 2.768437564709e+01 0.0 
2.768437564709e+01 -1.595961366288e+02 0.0 
0.0 0.0 -6.373551262797e+01 
-9.428653834269e+01 -9.071301955459e-01 0.0 
-9.071301955459e-01 -2.692916494071e+02 0.0 
0.0 0.0 -1.086734563249e+02 
-1.587044966302e+02 2.626696294590e+01 0.0 
2.626696294590e+01 -3.716438254704e+02 0.0 
0.0 0.0 -1.587044966302e+02 
-3.372304745794e+01 2.305993981068e+01 0.0 
2.305993981068e+01 -1.217181943380e+02 0.0 
0.0 0.0 -4.623237253878e+01 
-3.913411207360e+01 -5.915933457616e+00 0.0 
-5.915933457616e+00 -1.688605041703e+02 0.0 
0.0 0.0 -6.199838487317e+01 
-4.364279986226e+01 -8.143741323072e+00 0.0 
-8.143741323072e+00 -1.733050997801e+02 0.0 
0.0 0.0 -6.468436989272e+01 
-5.630066034129e+01 5.211807018561e+00 0.0 
5.211807018561e+00 -7.117309275536e+01 0.0 
0.0 0.0 -3.784212592900e+01 
-1.594534404536e+02 1.578299070364e+01 0.0 
1.578299070364e+01 -3.848919667387e+02 0.0 
0.0 0.0 -1.629036221577e+02 
-4.543163729950e+01 -2.376619412632e+01 0.0 
-2.376619412632e+01 -6.214226975306e+01 0.0 
0.0 0.0 -3.080078951204e+01 
-1.625049734580e+02 2.104994112518e+01 0.0 
2.104994112518e+01 -3.805116047353e+02 0.0 
0.0 0.0 -1.625049734580e+02 
-4.283864130099e+01 -1.194806396361e+01 0.0 
-1.194806396361e+01 -1.607128758284e+02 0.0 
0.0 0.0 -6.066545513880e+01 
-1.207411663605e+02 4.129240466605e+01 0.0 
4.129240466605e+01 -2.830627215078e+02 0.0 
0.0 0.0 -1.207411663605e+02 
-9.985244300058e+01 3.583090169118e+01 0.0 
3.583090169118e+01 -2.126716985627e+02 0.0 
0.0 0.0 -9.335724246897e+01 
-7.314875535389e+00 -6.448997469125e-01 0.0 
-6.448997469125e-01 -7.130206836534e+00 0.0 
0.0 0.0 -1.672604155195e+00 
-5.165017872438e+01 2.608541350275e+01 0.0 
2.608541350275e+01 -1.588055025152e+02 0.0 
0.0 0.0 -6.273670437187e+01 
-8.935500058739e+01 2.364897875441e+01 0.0 
2.364897875441e+01 -1.579772475409e+02 0.0 
0.0 0.0 -7.379967443848e+01 
-1.291718065307e+02 4.123449091311e+01 0.0 
4.123449091311e+01 -3.027342152383e+02 0.0 
0.0 0.0 -1.291718065307e+02 
-7.428678128684e+01 3.249024115779e+01 0.0 
3.249024115779e+01 -1.462399251874e+02 0.0 
0.0 0.0 -6.575801194228e+01 
-9.557183312173e+01 2.798928893563e+01 0.0 
2.798928893563e+01 -2.645237558897e+02 0.0 
0.0 0.0 -1.076286767034e+02 
-3.876463171172e+01 3.037990218296e+01 0.0 
3.037990218296e+01 -9.374004311003e+01 0.0 
0.0 0.0 -3.914106931444e+01 
-1.392075402747e+02 1.825417075304e+01 0.0 
1.825417075304e+01 -3.518089900600e+02 0.0 
0.0 0.0 -1.469049591004e+02 
-4.763477881505e+01 -1.215212814063e+01 0.0 
-1.215212814063e+01 -1.650805897305e+02 0.0 
0.0 0.0 -6.341461056366e+01 
-4.950670331044e+01 -9.741718839627e+00 0.0 
-9.741718839627e+00 -1.754913836072e+02 0.0 
0.0 0.0 -6.709942607530e+01 
-4.940092191136e+01 -2.564299350864e+01 0.0 
-2.564299350864e+01 -4.871306998969e+01 0.0 
0.0 0.0 -2.854159721001e+01 
-1.373224994254e+02 3.966669146829e+01 0.0 
3.966669146829e+01 -3.217524986593e+02 0.0 
0.0 0.0 -1.373224994254e+02 
-2.906002634065e+01 1.700643727787e+01 0.0 
1.700643727787e+01 -1.242396130121e+02 0.0 
0.0 0.0 -4.543160829984e+01 
-1.231031736830e+02 1.078434981954e+01 0.0 
1.078434981954e+01 -3.288088824409e+02 0.0 
0.0 0.0 -1.351736168372e+02 
-5.097587876662e+01 5.986957270968e+00 0.0 
5.986957270968e+00 -5.095902539129e+01 0.0 
0.0 0.0 -3.018047124737e+01 
-5.050452833123e+01 -1.311501985010e+01 0.0 
-1.311501985010e+01 -1.386802498478e+02 0.0 
0.0 0.0 -5.635543345372e+01 
-4.452602135561e+01 -8.487469601399e+00 0.0 
-8.487469601399e+00 -1.706173593203e+02 0.0 
0.0 0.0 -6.414301420277e+01 
-7.082491585333e+01 3.251289476815e+01 0.0 
3.251289476815e+01 -1.451756374021e+02 0.0 
0.0 0.0 -6.440016597662e+01 
-1.514679224703e+02 3.315261878850e+01 0.0 
3.315261878850e+01 -3.547584857640e+02 0.0 
0.0 0.0 -1.514679224703e+02 
-7.179262089926e+01 -5.210750146417e+00 0.0 
-5.210750146417e+00 -1.860026931708e+02 0.0 
0.0 0.0 -7.693859422101e+01 
-1.047876691536e+02 4.047958738152e+00 0.0 
4.047958738152e+00 -2.920950714836e+02 0.0 
0.0 0.0 -1.186648221912e+02 
-6.396414174442e+01 2.834425847138e+01 0.0 
2.834425847138e+01 -1.784628126601e+02 0.0 
0.0 0.0 -7.232808632135e+01 
-8.676217751805e+01 5.481318856534e+00 0.0 
5.481318856534e+00 -2.667453979111e+02 0.0 
0.0 0.0 -1.056522726288e+02 
-4.482401258249e+01 -3.685686704806e+00 0.0 
-3.685686704806e+00 -1.793300055929e+02 0.0 
0.0 0.0 -6.684620545261e+01 
-9.559928586258e+01 1.962080833537e+00 0.0 
1.962080833537e+00 -2.740172590044e+02 0.0 
0.0 0.0 -1.104849634601e+02 
-6.068444656185e+01 2.999100000069e+01 0.0 
2.999100000069e+01 -1.610963921210e+02 0.0 
0.0 0.0 -6.613425160485e+01 
-8.642307854662e+01 3.278699950172e+01 0.0 
3.278699950172e+01 -2.178710749989e+02 0.0 
0.0 0.0 -9.088824606366e+01 
-9.386493521721e+01 1.884086067550e+01 0.0 
1.884086067550e+01 -2.819398952518e+02 0.0 
0.0 0.0 -1.123414491407e+02 
-6.062960381552e+01 2.726958348025e+01 0.0 
2.726958348025e+01 -1.775578175354e+02 0.0 
0.0 0.0 -7.105622640527e+01 
-7.000357905837e+01 -7.789391535733e+00 0.0 
-7.789391535733e+00 -1.949712277574e+02 0.0 
0.0 0.0 -7.909244204474e+01 
-3.653455790410e+01 2.460857652332e+01 0.0 
2.460857652332e+01 -1.212090770640e+02 0.0 
0.0 0.0 -4.692309049042e+01 
-6.792809625857e+01 -6.286756100522e+00 0.0 
-6.286756100522e+00 -1.777576315652e+02 0.0 
0.0 0.0 -7.330571834712e+01 
-9.158091332125e+01 2.998810780658e+01 0.0 
2.998810780658e+01 -2.496055460172e+02 0.0 
0.0 0.0 -1.019559378015e+02 
-7.147525591911e+01 1.387555187272e+01 0.0 
1.387555187272e+01 -2.433004380218e+02 0.0 
0.0 0.0 -9.403270818227e+01 
-1.562014659446e+02 2.072012652149e+01 0.0 
2.072012652149e+01 -3.791921171012e+02 0.0 
0.0 0.0 -1.602180749137e+02 
-9.313923996551e+01 2.678528999127e+01 0.0 
2.678528999127e+01 -1.731283601769e+02 0.0 
0.0 0.0 -7.948028004272e+01 
-4.530569860366e+01 -1.402663744882e+01 0.0 
-1.402663744882e+01 -1.221256608835e+02 0.0 
0.0 0.0 -4.982940784615e+01 
-1.608876112845e+02 2.353053193929e+01 0.0 
2.353053193929e+01 -3.767377596637e+02 0.0 
0.0 0.0 -1.608876112845e+02 
-1.440466638890e+02 2.055909654884e+01 0.0 
2.055909654884e+01 -3.631276278631e+02 0.0 
0.0 0.0 -1.517522875256e+02 
-5.680235352820e+01 2.275326539946e+01 0.0 
2.275326539946e+01 -1.909438174843e+02 0.0 
0.0 0.0 -7.392385130376e+01 
-3.064649151222e+01 -1.646008556332e+01 0.0 
-1.646008556332e+01 -3.131881230033e+01 0.0 
0.0 0.0 -1.846402124787e+01 
-1.602958622690e+02 1.359465135803e+01 0.0 
1.359465135803e+01 -3.866603244456e+02 0.0 
0.0 0.0 -1.636868560144e+02 
-9.526225408651e+01 3.057690783999e+01 0.0 
3.057690783999e+01 -1.837997074585e+02 0.0 
0.0 0.0 -8.331858846349e+01 
-4.264883839556e+01 -1.475052561885e+01 0.0 
-1.475052561885e+01 -1.466546502718e+02 0.0 
0.0 0.0 -5.639104660021e+01 
-1.650795517850e+02 1.638181131599e+01 0.0 
1.638181131599e+01 -3.865189541650e+02 0.0 
0.0 0.0 -1.650795517850e+02 
-1.013829148879e+02 1.930454996150e+00 0.0 
1.930454996150e+00 -2.819512213007e+02 0.0 
0.0 0.0 -1.146002408566e+02 
-4.651217788825e+01 2.809945378908e+01 0.0 
2.809945378908e+01 -1.048153174790e+02 0.0 
0.0 0.0 -4.499824861016e+01 
-6.230639784941e+01 2.447411087933e+01 0.0 
2.447411087933e+01 -8.718509235085e+01 0.0 
0.0 0.0 -4.444744706008e+01 
-6.818314905321e+01 1.542167715521e+01 0.0 
1.542167715521e+01 -2.319819229526e+02 0.0 
0.0 0.0 -8.964952160174e+01 
-8.440114064493e+01 -2.264019691760e+00 0.0 
-2.264019691760e+00 -2.453793324578e+02 0.0 
0.0 0.0 -9.853414193083e+01 
-8.998748715064e+01 8.548567736843e+00 0.0 
8.548567736843e+00 -2.748232025998e+02 0.0 
0.0 0.0 -1.090432069251e+02 
-7.719510693450e+01 2.641230708910e+01 0.0 
2.641230708910e+01 -1.171083926518e+02 0.0 
0.0 0.0 -5.789104987588e+01 
-5.096921308020e+01 2.865172110688e+01 0.0 
2.865172110688e+01 -1.048024389034e+02 0.0 
0.0 0.0 -4.633149559508e+01 
-9.821282813489e+01 2.148686057560e+01 0.0 
2.148686057560e+01 -2.866246909670e+02 0.0 
0.0 0.0 -1.150512557306e+02 
-4.415014028899e+01 7.186263518940e-01 0.0 
7.186263518940e-01 -5.880726700509e+01 0.0 
0.0 0.0 -3.048722218822e+01 
-7.309360163193e+01 -6.037008101179e+00 0.0 
-6.037008101179e+00 -1.966580896584e+02 0.0 
0.0 0.0 -8.052550738710e+01 
-8.952390719233e+01 1.606264983115e+01 0.0 
1.606264983115e+01 -2.766733131782e+02 0.0 
0.0 0.0 -1.094591661112e+02 
-5.350971935470e+01 -1.220402946872e+01 0.0 
-1.220402946872e+01 -1.675695563130e+02 0.0 
0.0 0.0 -6.592378270031e+01 
-1.032562174509e+02 -2.224439568335e+00 0.0 
-2.224439568335e+00 -2.689049944893e+02 0.0 
0.0 0.0 -1.112483635820e+02 
-9.793536375740e+00 -1.394321055242e+00 0.0 
-1.394321055242e+00 -8.899185270884e+00 0.0 
0.0 0.0 -5.207816493987e+00 
-3.927377808912e+01 2.586416678833e+01 0.0 
2.586416678833e+01 -1.213126888390e+02 0.0 
0.0 0.0 -4.777594007843e+01 
-4.924531306435e+01 -1.282223153167e+01 0.0 
-1.282223153167e+01 -1.632546815387e+02 0.0 
0.0 0.0 -6.334999838090e+01 
-7.883183022826e+01 -5.651546413341e+00 0.0 
-5.651546413341e+00 -2.102440660433e+02 0.0 
0.0 0.0 -8.632276888145e+01 
-6.025967291319e+01 2.452097075329e+01 0.0 
2.452097075329e+01 -1.925923196329e+02 0.0 
0.0 0.0 -7.545559776383e+01 
-9.761310513897e+01 1.054267037967e+00 0.0 
1.054267037967e+00 -2.801674657418e+02 0.0 
0.0 0.0 -1.129341712642e+02 
-5.504118112625e+01 5.755735663387e+00 0.0 
5.755735663387e+00 -6.320592875711e+01 0.0 
0.0 0.0 -3.507413296501e+01 
-4.885187997756e+01 -1.467219461646e+01 0.0 
-1.467219461646e+01 -1.492998770024e+02 0.0 
0.0 0.0 -5.904552709399e+01 
-1.659064401294e+02 1.427328425509e+01 0.0 
1.427328425509e+01 -3.884483603019e+02 0.0 
0.0 0.0 -1.659064401294e+02 
-7.090382974531e+01 3.247564766166e+01 0.0 
3.247564766166e+01 -1.630866233612e+02 0.0 
0.0 0.0 -6.979713593195e+01 
-8.318923811729e+01 -4.709987180849e+00 0.0 
-4.709987180849e+00 -2.180486486765e+02 0.0 
0.0 0.0 -8.997136603813e+01 
-6.741011933699e+01 3.180955374421e+01 0.0 
3.180955374421e+01 -1.623879324543e+02 0.0 
0.0 0.0 -6.853941553740e+01 
-8.116091042677e+01 -3.764666506979e+00 0.0 
-3.764666506979e+00 -2.116338595850e+02 0.0 
0.0 0.0 -8.743843100354e+01 
-1.367795488737e+01 -1.095071471138e+00 0.0 
-1.095071471138e+00 -9.538931262718e+00 0.0 
0.0 0.0 -7.539311824274e+00 
-6.660972918266e+01 2.671715536937e+01 0.0 
2.671715536937e+01 -9.092146520172e+01 0.0 
0.0 0.0 -4.685935831531e+01 
-6.806317756731e+01 -2.610390901027e+00 0.0 
-2.610390901027e+00 -1.718723839283e+02 0.0 
0.0 0.0 -7.158066844869e+01 
5.134074323073e-01 -3.196368721157e-01 0.0 
-3.196368721157e-01 -9.030753220781e+00 0.0 
0.0 0.0 -2.154667407587e+00 
-7.952620345332e+01 -4.647240801209e+00 0.0 
-4.647240801209e+00 -2.059777063757e+02 0.0 
0.0 0.0 -8.525117294871e+01 
-1.072956694827e+02 2.910735315574e+00 0.0 
2.910735315574e+00 -2.985286919725e+02 0.0 
0.0 0.0 -1.213473084365e+02 
-7.094128642543e+01 4.791760033280e+00 0.0 
4.791760033280e+00 -1.357612047080e+02 0.0 
0.0 0.0 -6.161074734004e+01 
-8.098283717786e+01 6.599741830117e+00 0.0 
6.599741830117e+00 -2.579481061313e+02 0.0 
0.0 0.0 -1.012792829927e+02 
-8.328950285745e+01 5.506353730942e+00 0.0 
5.506353730942e+00 -2.652842862628e+02 0.0 
0.0 0.0 -1.041721367361e+02 
-5.319173955806e+01 2.406813092088e+01 0.0 
2.406813092088e+01 -4.832399547916e+01 0.0 
0.0 0.0 -3.005472051117e+01 
-3.058531893370e+01 1.022468660674e+00 0.0 
1.022468660674e+00 -8.597720451863e+00 0.0 
0.0 0.0 -1.135491181567e+01 
-9.250409765646e+01 2.594963802509e+01 0.0 
2.594963802509e+01 -2.000317606065e+02 0.0 
0.0 0.0 -8.736075747890e+01 
-6.401596361940e+01 3.095289075541e+01 0.0 
3.095289075541e+01 -1.617444687764e+02 0.0 
0.0 0.0 -6.732812971873e+01 
-1.083276189591e+00 -3.409850995293e-01 0.0 
-3.409850995293e-01 -7.085160394339e+00 0.0 
0.0 0.0 -1.326498075019e+00 
-3.033346702663e+01 -5.952471381516e+00 0.0 
-5.952471381516e+00 -7.126552731386e+01 0.0 
0.0 0.0 -3.007969830215e+01 
-2.603386123291e+01 -9.873873371854e+00 0.0 
-9.873873371854e+00 -2.764307112622e+01 0.0 
0.0 0.0 -1.602467406648e+01 
-5.013043940891e+01 -1.029878017696e+01 0.0 
-1.029878017696e+01 -1.292839270536e+02 0.0 
0.0 0.0 -5.342430993877e+01 
-1.023764599812e+02 3.608484367551e+01 0.0 
3.608484367551e+01 -2.401800398220e+02 0.0 
0.0 0.0 -1.023669499410e+02 
-7.380057936731e+01 6.801121524331e+00 0.0 
6.801121524331e+00 -1.373223592946e+02 0.0 
0.0 0.0 -6.293688159857e+01 
-1.248817955607e+02 2.261601759477e+00 0.0 
2.261601759477e+00 -3.220112262230e+02 0.0 
0.0 0.0 -1.336679065351e+02 
-5.516710569112e+01 -7.051485152748e+00 0.0 
-7.051485152748e+00 -1.426005363417e+02 0.0 
0.0 0.0 -5.893029260986e+01 
-1.055838016028e+02 -6.058433269252e-01 0.0 
-6.058433269252e-01 -2.702634923072e+02 0.0 
0.0 0.0 -1.123541881730e+02 
-1.269381271870e+02 9.065686222426e+00 0.0 
9.065686222426e+00 -3.362597357844e+02 0.0 
0.0 0.0 -1.385593588914e+02 
-2.579765279184e+01 3.321361573741e+00 0.0 
3.321361573741e+00 -1.262818854831e+02 0.0 
0.0 0.0 -4.678953821169e+01 
-6.829889443632e+01 -1.846407263077e-01 0.0 
-1.846407263077e-01 -1.720357180191e+02 0.0 
0.0 0.0 -7.170038373663e+01 
-5.588988734630e+01 -1.831584323790e+00 0.0 
-1.831584323790e+00 -1.411664877153e+02 0.0 
0.0 0.0 -5.871691251849e+01 
-1.612990622587e+02 1.142450068245e+01 0.0 
1.142450068245e+01 -3.879489226776e+02 0.0 
0.0 0.0 -1.643743954809e+02 
-1.665531638788e+02 1.220950723634e+01 0.0 
1.220950723634e+01 -3.899573823840e+02 0.0 
0.0 0.0 -1.665531638788e+02 
-7.602437678454e+01 -3.603720026314e-01 0.0 
-3.603720026314e-01 -1.913073203781e+02 0.0 
0.0 0.0 -7.979950914880e+01 
-8.530162268507e+01 -2.786641350172e+00 0.0 
-2.786641350172e+00 -2.193642962406e+02 0.0 
0.0 0.0 -9.099977567771e+01 
-8.559734477054e+01 -2.854538401906e+00 0.0 
-2.854538401906e+00 -2.506173207413e+02 0.0 
0.0 0.0 -1.004643996536e+02 
-1.316101664136e+02 1.165349834085e+01 0.0 
1.165349834085e+01 -3.448988387158e+02 0.0 
0.0 0.0 -1.425527015388e+02 
-3.447779523233e+01 -7.903647330617e+00 0.0 
-7.903647330617e+00 -7.926081461733e+01 0.0 
0.0 0.0 -3.372158295490e+01 
-1.220888169721e+02 6.729356782695e+00 0.0 
6.729356782695e+00 -3.268351833442e+02 0.0 
0.0 0.0 -1.342772000949e+02 
-1.238671795932e+01 -1.407914467414e+00 0.0 
-1.407914467414e+00 -4.302203376476e+01 0.0 
0.0 0.0 -1.622262551723e+01 
-7.720496229534e+01 -3.553905169232e+00 0.0 
-3.553905169232e+00 -1.992575908973e+02 0.0 
0.0 0.0 -8.253876595779e+01 
-8.481993196382e+01 -3.682664416653e+00 0.0 
-3.682664416653e+00 -2.239538980987e+02 0.0 
0.0 0.0 -9.223214901876e+01 
-4.338649437498e+00 -5.058200913226e-01 0.0 
-5.058200913226e-01 -2.572793437948e+01 0.0 
0.0 0.0 -8.765796625359e+00 
-7.233130071871e+01 -1.809288926378e+00 0.0 
-1.809288926378e+00 -1.814115073276e+02 0.0 
0.0 0.0 -7.572284241388e+01 
-8.867521371687e+01 2.384653592839e+01 0.0 
2.384653592839e+01 -1.705100274485e+02 0.0 
0.0 0.0 -7.735557234962e+01 
-2.036080891483e-01 -3.283427848333e-01 0.0 
-3.283427848333e-01 -7.595488194563e+00 0.0 
0.0 0.0 -1.160365532441e+00 
-3.467109744180e+01 2.508992243293e+00 0.0 
2.508992243293e+00 -8.766337880210e+00 0.0 
0.0 0.0 -1.263123059660e+01 
-3.257879199873e+01 4.427748905541e+00 0.0 
4.427748905541e+00 -1.162717391737e+01 0.0 
0.0 0.0 -1.286178977483e+01 
-9.354633424373e+01 1.165190370201e+01 0.0 
1.165190370201e+01 -2.821308581904e+02 0.0 
0.0 0.0 -1.123031577302e+02 
-5.568851592644e+01 4.111978681945e-01 0.0 
4.111978681945e-01 -1.409620913884e+02 0.0 
0.0 0.0 -5.859518219444e+01 
-4.710347649787e+01 -1.400247070429e+01 0.0 
-1.400247070429e+01 -1.511863454571e+02 0.0 
0.0 0.0 -5.908694658650e+01 
-3.489280074517e+01 2.755540761553e+01 0.0 
2.755540761553e+01 -8.617543259784e+01 0.0 
0.0 0.0 -3.592047000290e+01 
-1.405964425465e+02 3.072947275671e+00 0.0 
3.072947275671e+00 -3.481437455411e+02 0.0 
0.0 0.0 -1.462220564263e+02 
-1.266199063518e+02 3.766364366303e+01 0.0 
3.766364366303e+01 -3.017325523992e+02 0.0 
0.0 0.0 -1.281057376253e+02 
-7.457755446929e+01 9.687807367129e+00 0.0 
9.687807367129e+00 -1.259863933771e+02 0.0 
0.0 0.0 -5.976918435391e+01 
-3.884108899684e+01 2.778468920105e+01 0.0 
2.778468920105e+01 -8.450064842270e+01 0.0 
0.0 0.0 -3.660252122586e+01 
-2.585007655724e+01 -6.649834727926e+00 0.0 
-6.649834727926e+00 -4.960392843060e+01 0.0 
0.0 0.0 -2.175913560693e+01 
-5.107386081600e+01 3.006291010558e+01 0.0 
3.006291010558e+01 -8.618592713936e+01 0.0 
0.0 0.0 -4.077793638661e+01 
-2.598000428514e+01 5.296509817222e-02 0.0 
5.296509817222e-02 -9.496685936462e+00 0.0 
0.0 0.0 -1.024300706648e+01 
-2.249616787543e+01 2.179844227322e-01 0.0 
2.179844227322e-01 -8.836346937183e+00 0.0 
0.0 0.0 -8.999754443783e+00 
9.860444333252e-01 -3.777839869540e-01 0.0 
-3.777839869540e-01 -9.226796526789e+00 0.0 
0.0 0.0 -2.054409327384e+00 
-4.892187605064e+00 -6.434678837587e-01 0.0 
-6.434678837587e-01 -2.554158666676e+01 0.0 
0.0 0.0 -9.016862320957e+00 
-1.173658574077e+01 -3.506672877582e-01 0.0 
-3.506672877582e-01 -4.209142855563e+01 0.0 
0.0 0.0 -1.574840428892e+01 
-4.355230516509e+01 -7.944425938376e+00 0.0 
-7.944425938376e+00 -1.081118416131e+02 0.0 
0.0 0.0 -4.509924403345e+01 
-4.330858222736e+00 -3.641252958036e-01 0.0 
-3.641252958036e-01 -2.577310052278e+01 0.0 
0.0 0.0 -8.038231931612e+00 
-8.003738552056e+01 -1.672637109021e+00 0.0 
-1.672637109021e+00 -2.016830768138e+02 0.0 
0.0 0.0 -8.411613870030e+01 
-4.859191601051e+01 -1.272667669552e+01 0.0 
-1.272667669552e+01 -6.030702616094e+01 0.0 
0.0 0.0 -3.323801801659e+01 
-5.035496219594e+01 -8.227690615213e+00 0.0 
-8.227690615213e+00 -1.287701933580e+02 0.0 
0.0 0.0 -5.333754666617e+01 
-5.009688333120e+01 8.221398356162e-01 0.0 
8.221398356162e-01 -7.575756390497e+01 0.0 
0.0 0.0 -3.735633417085e+01 
-2.319297644392e+01 6.729491966859e-01 0.0 
6.729491966859e-01 -8.636898230599e+00 0.0 
0.0 0.0 -9.148962402357e+00 
-1.057898218570e+02 3.708263026853e+01 0.0 
3.708263026853e+01 -2.419232276641e+02 0.0 
0.0 0.0 -1.039139148564e+02 
-1.035378694037e+02 9.325935781308e-01 0.0 
9.325935781308e-01 -2.878927474876e+02 0.0 
0.0 0.0 -1.170291850674e+02 
-4.298617947344e+01 2.468403887138e-01 0.0 
2.468403887138e-01 -5.793086780011e+01 0.0 
0.0 0.0 -2.987511418207e+01 
-5.970119017458e+01 -1.170131686132e+00 0.0 
-1.170131686132e+00 -1.507597630064e+02 0.0 
0.0 0.0 -6.273828595430e+01 
-1.099336413959e+01 -7.084359176533e-01 0.0 
-7.084359176533e-01 -4.269061342386e+01 0.0 
0.0 0.0 -1.570519326903e+01 
-8.404795742380e+01 1.337764293225e+01 0.0 
1.337764293225e+01 -1.974452339889e+02 0.0 
0.0 0.0 -8.404795742380e+01 
-9.123845352288e+01 1.496558875821e+01 0.0 
1.496558875821e+01 -2.012674843520e+02 0.0 
0.0 0.0 -8.735178136245e+01 
-4.658660028219e+01 2.295275777643e+00 0.0 
2.295275777643e+00 -4.868836064649e+01 0.0 
0.0 0.0 -2.818248827860e+01 
-2.689278777621e+01 1.364839642024e-01 0.0 
1.364839642024e-01 -8.929440285298e+00 0.0 
0.0 0.0 -1.034666841845e+01 
-6.064742224607e+01 -6.494283243254e-01 0.0 
-6.494283243254e-01 -1.529772383105e+02 0.0 
0.0 0.0 -6.368739816696e+01 
-8.893955903161e+01 1.033640681613e+01 0.0 
1.033640681613e+01 -1.978298940592e+02 0.0 
0.0 0.0 -8.563083592723e+01 
-4.788914838942e+01 -7.051854633361e+00 0.0 
-7.051854633361e+00 -1.215383132380e+02 0.0 
0.0 0.0 -5.042823848823e+01 
-2.597479113571e+01 1.736715790205e+00 0.0 
1.736715790205e+00 -9.399763001683e+00 0.0 
0.0 0.0 -1.021236624122e+01 
-2.844151132939e+01 4.360299540842e-01 0.0 
4.360299540842e-01 -8.629125672017e+00 0.0 
0.0 0.0 -1.072119110042e+01 
-4.550836353356e+01 2.624610931112e+01 0.0 
2.624610931112e+01 -6.512555435012e+01 0.0 
0.0 0.0 -3.279017536511e+01 
-9.424494991946e+01 2.927982747217e+01 0.0 
2.927982747217e+01 -2.212382164787e+02 0.0 
0.0 0.0 -9.424494991946e+01 
-9.113500547543e+01 1.245543797690e+01 0.0 
1.245543797690e+01 -2.000124104344e+02 0.0 
0.0 0.0 -8.694422477294e+01 
-4.836138231648e+00 -5.026140366223e-01 0.0 
-5.026140366223e-01 -2.558616030350e+01 0.0 
0.0 0.0 -8.158465738775e+00 
9.905007213089e-01 -3.124359763531e-01 0.0 
-3.124359763531e-01 -9.276173854268e+00 0.0 
0.0 0.0 -1.831950130641e+00 
-2.707658900360e+01 -6.150477265729e+00 0.0 
-6.150477265729e+00 -5.903850945912e+01 0.0 
0.0 0.0 -2.542195974339e+01 
-8.202733641130e+01 -5.433172830950e+00 0.0 
-5.433172830950e+00 -2.223967989074e+02 0.0 
0.0 0.0 -9.092724059561e+01 
-1.509988904135e+02 -6.226264865426e-01 0.0 
-6.226264865426e-01 -3.597752126788e+02 0.0 
0.0 0.0 -1.528322309277e+02 
-8.788696006273e+01 -2.267170443436e+01 0.0 
-2.267170443436e+01 -7.746176707588e+01 0.0 
0.0 0.0 -4.988065997599e+01 
-6.473246832932e+01 1.707078516877e+00 0.0 
1.707078516877e+00 -1.193304490295e+02 0.0 
0.0 0.0 -5.481887520763e+01 
-3.096486775552e+01 -9.988078349971e+00 0.0 
-9.988078349971e+00 -1.059862465486e+01 0.0 
0.0 0.0 -1.304999776385e+01 
-9.268873674168e+01 7.290939342952e+00 0.0 
7.290939342952e+00 -2.824652713848e+02 0.0 
0.0 0.0 -1.121462024379e+02 
-1.756887183546e+01 -4.838308177230e+00 0.0 
-4.838308177230e+00 -1.215789239206e+01 0.0 
0.0 0.0 -7.902976909686e+00 
-4.476389928844e+01 -2.353986778052e+01 0.0 
-2.353986778052e+01 -3.566983195869e+01 0.0 
0.0 0.0 -2.411737974816e+01 
-8.899985146456e+01 4.430386890115e+00 0.0 
4.430386890115e+00 -2.735866001953e+02 0.0 
0.0 0.0 -1.083759354979e+02 
-1.456169516907e+02 4.418801739951e-01 0.0 
4.418801739951e-01 -3.505217119853e+02 0.0 
0.0 0.0 -1.484415991028e+02 
-5.037469657570e+01 1.240869955026e+00 0.0 
1.240869955026e+00 -7.483481561215e+01 0.0 
0.0 0.0 -3.716285365635e+01 
-5.434812440663e+01 3.082613185708e+01 0.0 
3.082613185708e+01 -1.054639950009e+02 0.0 
0.0 0.0 -4.754363582226e+01 
-3.754737334841e+00 -2.964219521553e-01 0.0 
-2.964219521553e-01 -2.581212936704e+01 0.0 
0.0 0.0 -8.584890286353e+00 
-1.100540707860e+02 -1.026286388136e-01 0.0 
-1.026286388136e-01 -2.778901144843e+02 0.0 
0.0 0.0 -1.159832555811e+02 
-8.187330385545e+01 4.026982363326e+00 0.0 
4.026982363326e+00 -1.923710423294e+02 0.0 
0.0 0.0 -8.187330385546e+01 
-8.705876440734e+01 5.250422384802e+00 0.0 
5.250422384802e+00 -1.953749246830e+02 0.0 
0.0 0.0 -8.433010672712e+01 
-2.235472542082e+01 1.629067285057e-01 0.0 
1.629067285057e-01 -8.477414801858e+00 0.0 
0.0 0.0 -8.849642066805e+00 
-9.669958286700e+01 1.019332115010e+01 0.0 
1.019332115010e+01 -2.906355953755e+02 0.0 
0.0 0.0 -1.158005534727e+02 
-8.353774327934e+01 1.088113405173e+01 0.0 
1.088113405173e+01 -1.962547343185e+02 0.0 
0.0 0.0 -8.353774327934e+01 
-9.692417330798e+01 2.909734381078e+01 0.0 
2.909734381078e+01 -2.653279027891e+02 0.0 
0.0 0.0 -1.082756228291e+02 
-1.025264107326e+01 -5.457580515632e-01 0.0 
-5.457580515632e-01 -4.155710306562e+01 0.0 
0.0 0.0 -1.514292324166e+01 
-3.558196040341e+00 -3.917737250828e-01 0.0 
-3.917737250828e-01 -2.537805768896e+01 0.0 
0.0 0.0 -7.672102712256e+00 
-3.118879291046e+00 -5.544962468922e-03 0.0 
-5.544962468922e-03 -2.497795138582e+01 0.0 
0.0 0.0 -8.029049203060e+00 
-6.809780226532e+01 -1.120751217566e+00 0.0 
-1.120751217566e+00 -1.711500234082e+02 0.0 
0.0 0.0 -7.137434770206e+01 
-1.653934551469e+02 1.898753369972e+00 0.0 
1.898753369972e+00 -3.902843028895e+02 0.0 
0.0 0.0 -1.663033274109e+02 
-7.952480514507e+01 1.189617679792e+00 0.0 
1.189617679792e+00 -1.715829401404e+02 0.0 
0.0 0.0 -7.493232358563e+01 
9.997588019109e-01 4.978795985481e-02 0.0 
4.978795985481e-02 -9.277199771464e+00 0.0 
0.0 0.0 -1.394693996855e+00 
-8.049973709234e+01 4.081462741698e-01 0.0 
4.081462741698e-01 -2.018855143375e+02 0.0 
0.0 0.0 -8.431557542896e+01 
-1.674222118194e+02 1.163321992556e+00 0.0 
1.163321992556e+00 -3.919851609120e+02 0.0 
0.0 0.0 -1.674222118194e+02 
-1.648238645740e+02 1.763205615724e+00 0.0 
1.763205615724e+00 -3.898882093799e+02 0.0 
0.0 0.0 -1.660136221861e+02 
-1.617688314244e+02 9.687097334810e+00 0.0 
9.687097334810e+00 -3.886185728432e+02 0.0 
0.0 0.0 -1.647162212803e+02 
-5.780039808632e+01 -4.022370623585e-01 0.0 
-4.022370623585e-01 -9.915838239351e+01 0.0 
0.0 0.0 -4.668763414395e+01 
-6.800953550451e+01 1.005026274633e+00 0.0 
1.005026274633e+00 -1.299095967477e+02 0.0 
0.0 0.0 -5.897573967565e+01 
-1.666965393496e+02 1.686156488360e+00 0.0 
1.686156488360e+00 -3.902919251491e+02 0.0 
0.0 0.0 -1.666965393496e+02 
-1.671243652072e+02 2.358874302466e+00 0.0 
2.358874302466e+00 -3.912901854834e+02 0.0 
0.0 0.0 -1.671243652072e+02 
-6.459458839605e+01 -5.416563812228e-02 0.0 
-5.416563812228e-02 -1.193601499129e+02 0.0 
0.0 0.0 -5.478642149268e+01 
9.915677925338e-01 -2.512823624878e-01 0.0 
-2.512823624878e-01 -6.488291286782e+00 0.0 
0.0 0.0 -3.045724296790e-02 
-2.275840923515e+01 -4.067741837112e-02 0.0 
-4.067741837112e-02 -8.131437247624e+00 0.0 
0.0 0.0 -8.866953944831e+00 
-2.238701563321e+01 -1.598042271312e-01 0.0 
-1.598042271312e-01 -8.690915670499e+00 0.0 
0.0 0.0 -8.923379391113e+00 
9.980313008749e-01 -1.418905478237e-01 0.0 
-1.418905478237e-01 -9.226513185832e+00 0.0 
0.0 0.0 -1.616256560660e+00 
-1.675960236897e+02 4.794944752725e+00 0.0 
4.794944752725e+00 -3.923907219427e+02 0.0 
0.0 0.0 -1.675960236897e+02 
-1.621885881149e+02 7.884806493881e+00 0.0 
7.884806493881e+00 -3.889294393046e+02 0.0 
0.0 0.0 -1.649354082258e+02 
-1.669545868901e+02 7.178926933254e+00 0.0 
7.178926933254e+00 -3.908940360770e+02 0.0 
0.0 0.0 -1.669545868901e+02 
8.649804656510e-01 -4.436967913632e-02 0.0 
-4.436967913632e-02 -7.916738395805e+00 0.0 
0.0 0.0 -9.217068046823e-01 
5.120732913368e-01 -2.853888158116e-01 0.0 
-2.853888158116e-01 -7.902696579893e+00 0.0 
0.0 0.0 -1.003448024112e+00 
-1.668033068679e+02 1.039537985983e+01 0.0 
1.039537985983e+01 -3.905410493585e+02 0.0 
0.0 0.0 -1.668033068679e+02 
-1.670403508776e+02 8.761722718907e+00 0.0 
8.761722718907e+00 -3.910941520478e+02 0.0 
0.0 0.0 -1.670403508776e+02 
-5.418580386496e+01 9.872148227356e-01 0.0 
9.872148227356e-01 -8.910473806089e+01 0.0 
0.0 0.0 -4.258716257776e+01 
-2.282574724981e+01 -2.384520853851e-01 0.0 
-2.384520853851e-01 -7.841780645406e+00 0.0 
0.0 0.0 -8.800258368565e+00 
-6.149763978900e+01 1.015295963460e+00 0.0 
1.015295963460e+00 -1.094010549838e+02 0.0 
0.0 0.0 -5.086960843183e+01 
-3.934490997960e+01 8.762647253345e-01 0.0 
8.762647253345e-01 -4.928267848709e+01 0.0 
0.0 0.0 -2.618827654001e+01 
-2.284527523115e+01 2.496012838404e-01 0.0 
2.496012838404e-01 -7.733099855116e+00 0.0 
0.0 0.0 -8.773512525879e+00 
-1.990984938242e+00 -4.351393333458e-01 0.0 
-4.351393333458e-01 -7.263604742160e+00 0.0 
0.0 0.0 -1.627011268378e+00 
-3.379814495961e+00 -1.644614977477e-02 0.0 
-1.644614977477e-02 -7.904094517369e+00 0.0 
0.0 0.0 -2.070643291599e+00 
-4.121614933552e+00 -2.318678709757e-01 0.0 
-2.318678709757e-01 -7.754769073139e+00 0.0 
0.0 0.0 -2.361033232782e+00 
-5.556435300745e+00 -5.097562235320e-01 0.0 
-5.097562235320e-01 -7.690077737135e+00 0.0 
0.0 0.0 -1.896050643094e+00 
-8.460289555009e+01 -1.212222356511e+00 0.0 
-1.212222356511e+00 -2.121612198955e+02 0.0 
0.0 0.0 -8.862923463368e+01 
-7.636856261506e+01 -1.130601623466e+00 0.0 
-1.130601623466e+00 -1.915779023477e+02 0.0 
0.0 0.0 -7.998393948883e+01 
-2.691803111092e+00 -5.184449347422e-01 0.0 
-5.184449347422e-01 -9.316874729904e+00 0.0 
0.0 0.0 -4.179630823234e+00 
-1.100284550611e+02 -1.029540304834e+00 0.0 
-1.029540304834e+00 -2.716875646832e+02 0.0 
0.0 0.0 -1.141148059233e+02 
-4.704835954222e+00 -8.544055298776e-01 0.0 
-8.544055298776e-01 -9.375479251612e+00 0.0 
0.0 0.0 -4.795933734523e+00 
-8.914320528862e+01 2.356511364449e+01 0.0 
2.356511364449e+01 -2.093341456734e+02 0.0 
0.0 0.0 -8.914320528862e+01 
-8.277299400472e+01 8.949206319276e+00 0.0 
8.949206319276e+00 -1.944703193444e+02 0.0 
0.0 0.0 -8.277299400472e+01 
-8.485357592516e+01 1.576010208658e+01 0.0 
1.576010208658e+01 -1.993250104920e+02 0.0 
0.0 0.0 -8.485357592516e+01 
-2.412406827228e+01 -1.286633786614e+00 0.0 
-1.286633786614e+00 -6.921396270764e+01 0.0 
0.0 0.0 -2.760140929397e+01 
-5.130538070454e+01 -1.183500442638e+00 0.0 
-1.183500442638e+00 -1.303303779054e+02 0.0 
0.0 0.0 -5.409072758299e+01 
-8.223861181218e+01 7.057304381647e+00 0.0 
7.057304381647e+00 -1.932234275618e+02 0.0 
0.0 0.0 -8.223861181218e+01 
-1.372742871195e+02 -7.860257527806e-01 0.0 
-7.860257527806e-01 -3.311704295273e+02 0.0 
0.0 0.0 -1.401334149940e+02 
-8.299155849316e+01 5.607836486273e+00 0.0 
5.607836486273e+00 -1.949803031507e+02 0.0 
0.0 0.0 -8.299155849316e+01 
-1.466023509975e+02 -8.000579207910e-01 0.0 
-8.000579207910e-01 -3.506874025624e+02 0.0 
0.0 0.0 -1.487869260680e+02 
-1.561290312694e+02 -8.674488508741e-01 0.0 
-8.674488508741e-01 -3.701167231109e+02 0.0 
0.0 0.0 -1.574737263141e+02 
-7.223778258131e+01 4.398155447807e-01 0.0 
4.398155447807e-01 -1.813726241185e+02 0.0 
0.0 0.0 -7.568312200994e+01 
-8.832807526423e+01 8.274511866588e+00 0.0 
8.274511866588e+00 -1.963191930672e+02 0.0 
0.0 0.0 -8.499418049942e+01 
-8.699215759956e+01 6.066317241674e+00 0.0 
6.066317241674e+00 -1.958037294494e+02 0.0 
0.0 0.0 -8.443876611470e+01 
-1.416043231337e+02 1.065491043759e+00 0.0 
1.065491043759e+00 -3.400476290721e+02 0.0 
0.0 0.0 -1.440955856617e+02 
-1.512092516048e+02 1.123040707562e+00 0.0 
1.123040707562e+00 -3.600064372381e+02 0.0 
0.0 0.0 -1.529647066529e+02 
-1.188216782697e+02 5.835125616436e-01 0.0 
5.835125616436e-01 -2.935730810326e+02 0.0 
0.0 0.0 -1.233184277907e+02 
-2.110724615593e+01 -3.593966034457e+00 0.0 
-3.593966034457e+00 -9.406231700885e+00 0.0 
0.0 0.0 -9.730519539925e+00 
-7.289611749077e+01 -3.092729087239e+00 0.0 
-3.092729087239e+00 -1.868991616844e+02 0.0 
0.0 0.0 -7.753858375254e+01 
-5.189143722720e+00 -5.077220522367e-01 0.0 
-5.077220522367e-01 -2.512564973844e+01 0.0 
0.0 0.0 -8.180936798843e+00 
-1.420247565629e+02 4.319712136855e+00 0.0 
4.319712136855e+00 -3.489333023264e+02 0.0 
0.0 0.0 -1.468874176668e+02 
-7.544206346973e+01 -5.570035419870e+00 0.0 
-5.570035419870e+00 -1.980731398535e+02 0.0 
0.0 0.0 -8.165456099696e+01 
-1.313960824251e+02 8.323069452382e-02 0.0 
8.323069452382e-02 -3.233448338436e+02 0.0 
0.0 0.0 -1.360222748806e+02 
-4.028625904290e+01 -6.444919344415e+00 0.0 
-6.444919344415e+00 -1.002627191700e+02 0.0 
0.0 0.0 -4.176469346387e+01 
-1.496213751406e+01 -2.455328615927e+00 0.0 
-2.455328615927e+00 -4.164224066171e+01 0.0 
0.0 0.0 -1.658131345273e+01 
-1.417639984649e+02 2.111604748501e+00 0.0 
2.111604748501e+00 -3.429885575628e+02 0.0 
0.0 0.0 -1.450257668083e+02 
-8.131253509744e+01 -2.560826528388e+00 0.0 
-2.560826528388e+00 -2.072137599905e+02 0.0 
0.0 0.0 -8.615788852638e+01 
-6.366638865486e+01 -1.875791301715e+00 0.0 
-1.875791301715e+00 -1.610996151061e+02 0.0 
0.0 0.0 -6.702980112830e+01 
-1.325399664705e+02 1.601474852196e+00 0.0 
1.601474852196e+00 -3.241744067973e+02 0.0 
0.0 0.0 -1.366143119803e+02 
-7.290268295941e+01 1.970520764041e+00 0.0 
1.970520764041e+00 -1.481373711810e+02 0.0 
0.0 0.0 -6.591201624212e+01 
-6.399659461883e+01 4.349818616399e-01 0.0 
4.349818616399e-01 -1.611786459526e+02 0.0 
0.0 0.0 -6.715257217144e+01 
-1.145184978506e+02 5.970509591364e+00 0.0 
5.970509591364e+00 -3.101751255630e+02 0.0 
0.0 0.0 -1.270080870241e+02 
-1.018669241499e+02 -1.823006064499e+00 0.0 
-1.823006064499e+00 -2.729206289354e+02 0.0 
0.0 0.0 -1.120362659256e+02 
-1.175296239422e+02 -1.110469301420e+00 0.0 
-1.110469301420e+00 -2.926516016785e+02 0.0 
0.0 0.0 -1.226543676862e+02 
-1.221237536631e+02 -8.316371643113e-01 0.0 
-8.316371643113e-01 -3.010901628476e+02 0.0 
0.0 0.0 -1.265641749532e+02 
-4.339619445639e+01 1.203114464282e+01 0.0 
1.203114464282e+01 -1.811512214437e+02 0.0 
0.0 0.0 -6.696422477003e+01 
-4.874787732673e+01 2.976556600954e+01 0.0 
2.976556600954e+01 -8.621695476113e+01 0.0 
0.0 0.0 -4.008944962636e+01 
-5.682856152719e+01 2.624225252440e+01 0.0 
2.624225252440e+01 -1.763465839824e+02 0.0 
0.0 0.0 -6.955254365287e+01 
-1.081126317368e+02 -1.771899590441e+00 0.0 
-1.771899590441e+00 -2.766990717745e+02 0.0 
0.0 0.0 -1.150435110534e+02 
-1.369657120703e+02 1.620874931637e+00 0.0 
1.620874931637e+00 -3.322494155606e+02 0.0 
0.0 0.0 -1.403645382893e+02 
-1.266669620820e+02 -7.482405443370e-01 0.0 
-7.482405443370e-01 -3.097896330777e+02 0.0 
0.0 0.0 -1.305369785479e+02 
-4.312259181886e+01 -1.250301560063e+01 0.0 
-1.250301560063e+01 -1.073336973858e+02 0.0 
0.0 0.0 -4.473688676140e+01 
-7.387999986342e+01 4.091085441471e+00 0.0 
4.091085441471e+00 -1.473292847080e+02 0.0 
0.0 0.0 -6.596278537144e+01 
-6.752046464104e+01 3.160201619987e+00 0.0 
3.160201619987e+00 -1.262166361528e+02 0.0 
0.0 0.0 -5.772113023814e+01 
-3.456511148026e+01 -5.555646812406e-01 0.0 
-5.555646812406e-01 -3.449246556821e+01 0.0 
0.0 0.0 -2.031727311454e+01 
-1.121856330271e+02 -1.105714362940e+00 0.0 
-1.105714362940e+00 -2.882847682164e+02 0.0 
0.0 0.0 -1.197411203730e+02 
-1.128790994561e+02 -1.395018001243e+00 0.0 
-1.395018001243e+00 -2.846385491152e+02 0.0 
0.0 0.0 -1.188552945714e+02 
-7.471628135719e+01 4.014619842149e+00 0.0 
4.014619842149e+00 -1.497151166015e+02 0.0 
0.0 0.0 -6.692941938761e+01 
-7.058617453482e+01 2.830046661396e+00 0.0 
2.830046661396e+00 -1.374464825899e+02 0.0 
0.0 0.0 -6.200979713743e+01 
-9.986498317390e+01 -8.890201839925e-01 0.0 
-8.890201839925e-01 -2.670883456449e+02 0.0 
0.0 0.0 -1.096859986457e+02 
-1.462494418552e+02 1.922300995166e+00 0.0 
1.922300995166e+00 -3.509820408682e+02 0.0 
0.0 0.0 -1.487694448170e+02 
-7.043285625055e+01 7.347866966901e+00 0.0 
7.347866966901e+00 -1.238275197761e+02 0.0 
0.0 0.0 -5.787811280800e+01 
-1.272675441254e+02 8.907341247508e-01 0.0 
8.907341247508e-01 -3.100448221355e+02 0.0 
0.0 0.0 -1.307937098783e+02 
-1.474255436308e+02 4.127429745386e+00 0.0 
4.127429745386e+00 -3.575865425164e+02 0.0 
0.0 0.0 -1.511036258441e+02 
-7.591904634605e+01 6.303278329317e+00 0.0 
6.303278329317e+00 -1.487166295259e+02 0.0 
0.0 0.0 -6.699070276159e+01 
-6.073534432640e+01 4.269428136056e+00 0.0 
4.269428136056e+00 -9.598930938295e+01 0.0 
0.0 0.0 -4.661739611281e+01 
-1.106576223615e+02 3.839693975139e+00 0.0 
3.839693975139e+00 -3.001550445357e+02 0.0 
0.0 0.0 -1.228438000692e+02 
-3.938484100847e+01 -3.777840224698e+00 0.0 
-3.777840224698e+00 -1.008707004966e+02 0.0 
0.0 0.0 -4.167666245153e+01 
-4.155282482273e+01 -1.432724025241e+01 0.0 
-1.432724025241e+01 -1.012428695210e+02 0.0 
0.0 0.0 -4.243870830312e+01 
-2.051589355986e+01 -3.286363911159e+00 0.0 
-3.286363911159e+00 -4.863972964225e+01 0.0 
0.0 0.0 -2.034668696063e+01 
-3.148613183763e+01 -1.269147262741e+01 0.0 
-1.269147262741e+01 -3.394939047034e+01 0.0 
0.0 0.0 -1.830423507675e+01 
-7.234000783565e+01 4.704602900824e+00 0.0 
4.704602900824e+00 -1.384554924788e+02 0.0 
0.0 0.0 -6.283865009434e+01 
-1.407262237435e+02 -7.151697865039e-02 0.0 
-7.151697865039e-02 -3.396716309797e+02 0.0 
0.0 0.0 -1.437193564170e+02 
-2.011882180715e+01 -7.106419902978e+00 0.0 
-7.106419902978e+00 -2.851383203128e+01 0.0 
0.0 0.0 -1.346505062578e+01 
-9.780749035411e+01 3.371379023220e+01 0.0 
3.371379023220e+01 -1.970859801018e+02 0.0 
0.0 0.0 -8.806804113676e+01 
-3.914904271533e+01 -1.328297690993e-01 0.0 
-1.328297690993e-01 -4.338026082349e+01 0.0 
0.0 0.0 -2.435879106164e+01 
-1.280799326059e+02 1.578427929878e+00 0.0 
1.578427929878e+00 -3.164044539263e+02 0.0 
0.0 0.0 -1.329453159597e+02 
-1.312511395399e+02 -4.217802660251e-01 0.0 
-4.217802660251e-01 -3.203535952933e+02 0.0 
0.0 0.0 -1.350814204500e+02 
-5.124328360113e+01 -1.283670959461e+01 0.0 
-1.283670959461e+01 -1.563349963841e+02 0.0 
0.0 0.0 -6.187348399558e+01 
-1.320174116740e+02 1.204069478443e+00 0.0 
1.204069478443e+00 -3.210134849707e+02 0.0 
0.0 0.0 -1.355092689934e+02 
-3.560893675640e+01 1.586147229471e+00 0.0 
1.586147229471e+00 -3.487177991079e+01 0.0 
0.0 0.0 -2.074421500016e+01 
-9.556653711120e+01 1.914940236749e+01 0.0 
1.914940236749e+01 -2.827266194026e+02 0.0 
0.0 0.0 -1.130879469542e+02 
-1.518534212225e+02 2.147863365384e+00 0.0 
2.147863365384e+00 -3.653083093271e+02 0.0 
0.0 0.0 -1.547485191649e+02 
-3.717192612330e+01 -2.182498265985e+00 0.0 
-2.182498265985e+00 -9.709955241744e+01 0.0 
0.0 0.0 -3.988144356222e+01 
-1.468315153398e+02 5.480281441310e+00 0.0 
5.480281441310e+00 -3.596051518070e+02 0.0 
0.0 0.0 -1.515310001440e+02 
-6.351824095157e+01 4.050808240718e+00 0.0 
4.050808240718e+00 -1.070219649707e+02 0.0 
0.0 0.0 -5.076206177668e+01 
-4.269873139293e+01 -3.211635917255e+00 0.0 
-3.211635917255e+00 -1.094008029193e+02 0.0 
0.0 0.0 -4.522986029366e+01 
-4.782676836002e+01 -1.203698030821e+01 0.0 
-1.203698030821e+01 -1.235898276600e+02 0.0 
0.0 0.0 -5.102497880601e+01 
-9.188339188142e+01 -2.232047516329e+00 0.0 
-2.232047516329e+00 -2.311026558433e+02 0.0 
0.0 0.0 -9.649581431741e+01 
-5.176403342850e+01 1.960635261734e+00 0.0 
1.960635261734e+00 -7.271746907143e+01 0.0 
0.0 0.0 -3.694445074998e+01 
-6.062100526136e+01 -6.806994517767e+00 0.0 
-6.806994517767e+00 -1.573357700936e+02 0.0 
0.0 0.0 -6.498703260650e+01 
-6.619641236707e+01 3.863070754696e+00 0.0 
3.863070754696e+00 -1.179575845461e+02 0.0 
0.0 0.0 -5.484619907395e+01 
-5.614946212758e+01 3.197451081286e+00 0.0 
3.197451081286e+00 -8.609531149244e+01 0.0 
0.0 0.0 -4.227343208601e+01 
-8.754283569695e+01 -3.820679784737e+00 0.0 
-3.820679784737e+00 -2.260756823817e+02 0.0 
0.0 0.0 -9.368555542360e+01 
-1.229053656091e+02 7.890473045491e-01 0.0 
7.890473045491e-01 -3.015893179619e+02 0.0 
0.0 0.0 -1.269484050713e+02 
-1.277633269691e+02 1.153773123533e+00 0.0 
1.153773123533e+00 -3.129859538389e+02 0.0 
0.0 0.0 -1.318247842424e+02 
-6.094515794205e+01 2.098456582819e+00 0.0 
2.098456582819e+00 -1.055325487362e+02 0.0 
0.0 0.0 -4.954331200347e+01 
-3.244587739551e+01 -2.604998541554e+00 0.0 
-2.604998541554e+00 -8.435474684318e+01 0.0 
0.0 0.0 -3.464018727161e+01 
-8.370448383231e+01 -3.689449784699e+00 0.0 
-3.689449784699e+00 -2.142946343124e+02 0.0 
0.0 0.0 -8.899973544343e+01 
-1.133617021658e+02 2.542146028160e+01 0.0 
2.542146028160e+01 -3.083433397438e+02 0.0 
0.0 0.0 -1.261115125729e+02 
-6.770904087892e+01 5.509973782418e+00 0.0 
5.509973782418e+00 -1.166031896057e+02 0.0 
0.0 0.0 -5.489366914539e+01 
-7.558938311432e+01 -4.381954168997e+00 0.0 
-4.381954168997e+00 -1.937914849282e+02 0.0 
0.0 0.0 -8.041426041276e+01 
-1.048087686485e+02 -3.890754347498e-01 0.0 
-3.890754347498e-01 -2.744953794430e+02 0.0 
0.0 0.0 -1.133912444274e+02 
-1.419017050438e+02 6.123864834334e+00 0.0 
6.123864834334e+00 -3.520633262077e+02 0.0 
0.0 0.0 -1.477895093754e+02 
-5.826724026181e+01 2.328340248266e+00 0.0 
2.328340248266e+00 -9.461457896563e+01 0.0 
0.0 0.0 -4.546454576823e+01 
-3.204460741063e+01 -8.655231699011e+00 0.0 
-8.655231699011e+00 -1.209012426113e+02 0.0 
0.0 0.0 -4.799510989552e+01 
-1.713608194390e+01 -1.842943992631e+00 0.0 
-1.842943992631e+00 -4.680922804594e+01 0.0 
0.0 0.0 -1.878359299695e+01 
-2.788170033700e+01 3.605939192401e+00 0.0 
3.605939192401e+00 -1.381713911983e+02 0.0 
0.0 0.0 -4.911626722601e+01 
-1.360895360679e+02 1.533750531698e-02 0.0 
1.533750531698e-02 -3.315308144340e+02 0.0 
0.0 0.0 -1.398861051506e+02 
-5.500029597837e+01 2.224934275701e+00 0.0 
2.224934275701e+00 -8.362563165120e+01 0.0 
0.0 0.0 -4.118777828887e+01 
-1.012869286539e+02 1.708398953481e-01 0.0 
1.708398953481e-01 -2.516698144005e+02 0.0 
0.0 0.0 -1.054870229163e+02 
-4.369437928429e+01 6.616659131736e-01 0.0 
6.616659131736e-01 -5.281605271953e+01 0.0 
0.0 0.0 -2.855312960115e+01 
-1.293348343576e+02 9.951684416352e+00 0.0 
9.951684416352e+00 -3.374603780004e+02 0.0 
0.0 0.0 -1.396385637074e+02 
-9.182642524637e+01 -3.048664190854e+00 0.0 
-3.048664190854e+00 -2.342160658690e+02 0.0 
0.0 0.0 -9.741274733462e+01 
-1.267373485219e+02 -4.802138058738e-01 0.0 
-4.802138058738e-01 -3.121927550413e+02 0.0 
0.0 0.0 -1.312790310690e+02 
-3.896544838317e+01 -1.519830628281e+00 0.0 
-1.519830628281e+00 -1.012167820869e+02 0.0 
0.0 0.0 -4.165466914102e+01 
-1.462843629597e+02 2.531618842000e+00 0.0 
2.531618842000e+00 -3.571925856709e+02 0.0 
0.0 0.0 -1.506430845892e+02 
-8.929719024669e+01 -1.888065934054e+00 0.0 
-1.888065934054e+00 -2.272547072865e+02 0.0 
0.0 0.0 -9.456556925996e+01 
-4.238838569996e+01 -8.652165259389e-01 0.0 
-8.652165259389e-01 -1.097918817777e+02 0.0 
0.0 0.0 -4.525408024331e+01 
-8.506586095525e+01 -1.600005135472e+00 0.0 
-1.600005135472e+00 -2.153597944277e+02 0.0 
0.0 0.0 -8.972769661488e+01 
-6.420038996917e+01 -5.678284230045e+00 0.0 
-5.678284230045e+00 -1.654692198573e+02 0.0 
0.0 0.0 -6.850088294793e+01 
-5.077038953194e+01 -5.811099028330e+00 0.0 
-5.811099028330e+00 -1.294868148433e+02 0.0 
0.0 0.0 -5.367716131258e+01 
-1.001693588992e+02 -1.801938338654e+00 0.0 
-1.801938338654e+00 -2.506521372337e+02 0.0 
0.0 0.0 -1.048464488399e+02 
-8.538743099951e-01 -9.590971745182e-02 0.0 
-9.590971745182e-02 -9.581661574860e+00 0.0 
0.0 0.0 -2.799141667081e+00 
-1.995017519545e+00 -5.415996838647e-01 0.0 
-5.415996838647e-01 -9.710844835563e+00 0.0 
0.0 0.0 -3.458814996288e+00 
-1.144509770327e+02 2.913843344929e-01 0.0 
2.913843344929e-01 -2.856755644965e+02 0.0 
0.0 0.0 -1.196379624588e+02 
-3.565759268596e+01 -2.102579294414e+00 0.0 
-2.102579294414e+00 -9.291080609689e+01 0.0 
0.0 0.0 -3.817051963486e+01 
-1.143417368170e+02 4.629020047722e-01 0.0 
4.629020047722e-01 -2.895434956310e+02 0.0 
0.0 0.0 -1.207655697344e+02 
-1.096400117890e+02 6.315608293578e-02 0.0 
6.315608293578e-02 -2.819893827292e+02 0.0 
0.0 0.0 -1.170888183555e+02 
-6.723538754060e+01 -7.821686476318e+00 0.0 
-7.821686476318e+00 -1.823550319786e+02 0.0 
0.0 0.0 -7.447712585577e+01 
-4.262194750701e+01 -1.617424801360e+01 0.0 
-1.617424801360e+01 -1.315079254221e+02 0.0 
0.0 0.0 -5.183896187873e+01 
-7.614865310507e+01 9.308024103641e+00 0.0 
9.308024103641e+00 -1.367195862704e+02 0.0 
0.0 0.0 -6.346047181264e+01 
-3.144072453710e+01 2.717935962612e+01 0.0 
2.717935962612e+01 -9.541011625902e+01 0.0 
0.0 0.0 -3.937874986531e+01 
-6.788191143234e+01 -4.619900416698e+00 0.0 
-4.619900416698e+00 -1.740007406938e+02 0.0 
0.0 0.0 -7.216479563786e+01 
-1.341215892707e+02 1.239705305041e+01 0.0 
1.239705305041e+01 -3.458733575036e+02 0.0 
0.0 0.0 -1.435984840323e+02 
-3.064633317940e+01 -3.319603834394e+00 0.0 
-3.319603834394e+00 -8.002128497411e+01 0.0 
0.0 0.0 -3.280028544605e+01 
-4.965897137108e+01 2.886913194868e+00 0.0 
2.886913194868e+00 -6.490032811001e+01 0.0 
0.0 0.0 -3.396778984433e+01 
-4.083970884527e+01 1.915568249262e+00 0.0 
1.915568249262e+00 -4.449072129615e+01 0.0 
0.0 0.0 -2.519912904243e+01 
-3.230727952899e+01 -5.257187519340e+00 0.0 
-5.257187519340e+00 -7.898298594681e+01 0.0 
0.0 0.0 -3.298707964274e+01 
-1.363477129067e+02 6.633848525852e+00 0.0 
6.633848525852e+00 -3.442184672845e+02 0.0 
0.0 0.0 -1.437698540574e+02 
-6.797925690751e+01 7.745356133088e+00 0.0 
7.745356133088e+00 -1.049698001831e+02 0.0 
0.0 0.0 -5.148471712718e+01 
-3.637962579966e+01 -4.317779300359e+00 0.0 
-4.317779300359e+00 -9.257538224949e+01 0.0 
0.0 0.0 -3.828650241475e+01 
-8.015767245825e+01 1.151943906719e+01 0.0 
1.151943906719e+01 -1.470008006346e+02 0.0 
0.0 0.0 -6.774754192784e+01 
-7.579035858574e+01 9.427803369962e+00 0.0 
9.427803369962e+00 -1.446833056553e+02 0.0 
0.0 0.0 -6.574209927233e+01 
-4.080632706656e+01 -3.125988139716e+00 0.0 
-3.125988139716e+00 -1.044046126022e+02 0.0 
0.0 0.0 -4.316328190063e+01 
-4.031038506178e+01 2.840169191911e+01 0.0 
2.840169191911e+01 -8.418054309122e+01 0.0 
0.0 0.0 -3.694727844590e+01 
-4.300935554399e+01 -5.431292545090e+00 0.0 
-5.431292545090e+00 -1.084435236793e+02 0.0 
0.0 0.0 -4.503586376698e+01 
-1.234693554714e+02 1.000972174369e+00 0.0 
1.000972174369e+00 -3.050391402549e+02 0.0 
0.0 0.0 -1.281525487179e+02 
-9.604418636173e+01 -2.380044822489e+00 0.0 
-2.380044822489e+00 -2.424761062884e+02 0.0 
0.0 0.0 -1.011560877950e+02 
-9.166334343894e+01 2.784421707512e+01 0.0 
2.784421707512e+01 -1.816034316187e+02 0.0 
0.0 0.0 -8.158003251728e+01 
-7.240570829216e+01 7.015544455190e+00 0.0 
7.015544455190e+00 -1.347409825421e+02 0.0 
0.0 0.0 -6.174400725027e+01 
-1.189483657479e+02 7.713032226605e-01 0.0 
7.713032226605e-01 -2.972340680880e+02 0.0 
0.0 0.0 -1.244547301508e+02 
-1.171664813628e+02 -8.249667393064e-01 0.0 
-8.249667393064e-01 -2.961289560007e+02 0.0 
0.0 0.0 -1.235886312090e+02 
-3.645096773970e+01 -7.138069497818e+00 0.0 
-7.138069497818e+00 -8.752409696646e+01 0.0 
0.0 0.0 -3.679251941185e+01 
-1.220190147117e+02 -6.224048695611e-01 0.0 
-6.224048695611e-01 -3.040686525228e+02 0.0 
0.0 0.0 -1.274263001704e+02 
-6.391206669954e+01 5.337790822354e+00 0.0 
5.337790822354e+00 -1.028358514494e+02 0.0 
0.0 0.0 -4.962437544469e+01 
-9.724733274596e+01 -4.779055077606e-01 0.0 
-4.779055077606e-01 -2.434078657951e+02 0.0 
0.0 0.0 -1.017965595623e+02 
-5.788904131072e+01 4.236158457875e+00 0.0 
4.236158457875e+00 -8.519048655480e+01 0.0 
0.0 0.0 -4.252385835966e+01 
-7.001718354129e+01 7.552582768105e+00 0.0 
7.552582768105e+00 -1.156728446549e+02 0.0 
0.0 0.0 -5.530700845885e+01 
-5.956722253340e+01 1.556204353896e+01 0.0 
1.556204353896e+01 -2.155122174891e+02 0.0 
0.0 0.0 -8.212383200676e+01 
-6.857860466722e+01 5.114247019500e+00 0.0 
5.114247019500e+00 -1.246798618744e+02 0.0 
0.0 0.0 -5.757753996248e+01 
-7.995966207055e+01 -3.478065045921e+00 0.0 
-3.478065045921e+00 -2.035151406956e+02 0.0 
0.0 0.0 -8.464244082985e+01 
-9.323759966577e+01 -1.100289662260e+00 0.0 
-1.100289662260e+00 -2.352525048521e+02 0.0 
0.0 0.0 -9.814703135536e+01 
-6.023726641220e+01 -5.121638826513e+00 0.0 
-5.121638826513e+00 -1.537434188046e+02 0.0 
0.0 0.0 -6.379420556504e+01 
-6.243469781633e+01 -8.661357960704e+00 0.0 
-8.661357960704e+00 -1.697374175673e+02 0.0 
0.0 0.0 -6.925163461508e+01 
-5.938579524193e+01 3.571854626131e+00 0.0 
3.571854626131e+00 -9.302375993603e+01 0.0 
0.0 0.0 -4.532286655339e+01 
-8.177683154267e+01 -3.929808767496e+00 0.0 
-3.929808767496e+00 -2.338942600053e+02 0.0 
0.0 0.0 -9.430132746439e+01 
-4.596133433049e+01 -4.444300583110e+00 0.0 
-4.444300583110e+00 -1.167541884229e+02 0.0 
0.0 0.0 -4.841465682602e+01 
-2.349564719862e+01 -3.589979597126e+00 0.0 
-3.589979597126e+00 -5.799195235731e+01 0.0 
0.0 0.0 -2.404627986678e+01 
-6.293352936107e+01 5.778350497149e+00 0.0 
5.778350497149e+00 -9.490275957603e+01 0.0 
0.0 0.0 -4.695088668113e+01 
-4.620195806569e+01 -6.899884271203e+00 0.0 
-6.899884271203e+00 -1.163112645923e+02 0.0 
0.0 0.0 -4.835396679740e+01 
-1.460511383511e+02 4.304742231221e+00 0.0 
4.304742231221e+00 -3.591038581405e+02 0.0 
0.0 0.0 -1.511464989475e+02 
-6.217612295589e+01 3.626161854751e+00 0.0 
3.626161854751e+00 -1.039791414486e+02 0.0 
0.0 0.0 -4.944657932135e+01 
-1.265442830185e+02 4.389583150906e-02 0.0 
4.389583150906e-02 -3.154200433879e+02 0.0 
0.0 0.0 -1.321892979219e+02 
-1.512109761006e+02 1.853865348217e+01 0.0 
1.853865348217e+01 -3.677884488226e+02 0.0 
0.0 0.0 -1.552998274770e+02 
-7.687692382437e+01 -2.059814675736e+00 0.0 
-2.059814675736e+00 -1.950303331352e+02 0.0 
0.0 0.0 -8.117217708786e+01 
-4.145378444410e+01 -5.574584188389e+00 0.0 
-5.574584188389e+00 -1.041376719975e+02 0.0 
0.0 0.0 -4.327743693247e+01 
-2.866119095657e+01 -5.885465727444e+00 0.0 
-5.885465727444e+00 -6.683938271637e+01 0.0 
0.0 0.0 -2.825017210188e+01 
-1.185939449042e+02 1.261227370562e+00 0.0 
1.261227370562e+00 -3.010383375561e+02 0.0 
0.0 0.0 -1.254896847381e+02 
-5.084948254248e+01 1.189505148524e+00 0.0 
1.189505148524e+00 -7.454980481261e+01 0.0 
0.0 0.0 -3.721978620653e+01 
-1.996808426279e+01 -4.226217345305e+00 0.0 
-4.226217345305e+00 -4.715166930518e+01 0.0 
0.0 0.0 -1.973592607039e+01 
-6.181748220044e+01 -4.559218949507e+00 0.0 
-4.559218949507e+00 -1.583371904758e+02 0.0 
0.0 0.0 -6.564640180288e+01 
-3.393346429888e+01 -7.095361326714e-01 0.0 
-7.095361326714e-01 -8.997193040345e+01 0.0 
0.0 0.0 -3.677161841070e+01 
-5.493824051091e+01 4.079839094534e+00 0.0 
4.079839094534e+00 -7.442009172707e+01 0.0 
0.0 0.0 -3.840749967139e+01 
-6.550861084338e+01 -3.432080194286e+00 0.0 
-3.432080194286e+00 -1.665158695601e+02 0.0 
0.0 0.0 -6.920734412104e+01 
-1.070904012850e+02 -1.439810610055e+00 0.0 
-1.439810610055e+00 -2.805687496622e+02 0.0 
0.0 0.0 -1.158977452842e+02 
-6.050428407593e+01 -2.622438485834e+00 0.0 
-2.622438485834e+00 -1.542302036819e+02 0.0 
0.0 0.0 -6.402034632735e+01 
-7.001561938084e+01 5.238569589475e+00 0.0 
5.238569589475e+00 -1.276652640536e+02 0.0 
0.0 0.0 -5.890426503034e+01 
-5.343213264648e+01 -7.052794386621e+00 0.0 
-7.052794386621e+00 -1.368972771901e+02 0.0 
0.0 0.0 -5.669882295097e+01 
-1.177006702346e+02 2.191020692749e+00 0.0 
2.191020692749e+00 -3.047084795798e+02 0.0 
0.0 0.0 -1.263227449443e+02 
-4.224702084765e+01 -1.188333566925e+01 0.0 
-1.188333566925e+01 -1.020852083611e+02 0.0 
0.0 0.0 -4.289966876263e+01 
-1.136484521739e+02 1.004273733420e+00 0.0 
1.004273733420e+00 -2.934676356707e+02 0.0 
0.0 0.0 -1.217348263534e+02 
-8.908474618809e+01 -9.966954573141e-01 0.0 
-9.966954573141e-01 -2.240508133735e+02 0.0 
0.0 0.0 -9.354066786848e+01 
-1.214945287577e+02 -5.388518883112e-02 0.0 
-5.388518883112e-02 -3.075427913839e+02 0.0 
0.0 0.0 -1.283111960425e+02 
-4.091007425922e+01 -8.714523355712e-01 0.0 
-8.714523355712e-01 -1.782296650826e+02 0.0 
0.0 0.0 -6.534192180255e+01 
-3.404835121018e+01 -2.979676371281e+00 0.0 
-2.979676371281e+00 -8.919549554831e+01 0.0 
0.0 0.0 -3.657315402755e+01 
-4.492814492635e+01 2.022146889155e+00 0.0 
2.022146889155e+00 -5.559734851126e+01 0.0 
0.0 0.0 -2.975764803128e+01 
-9.599869467365e+01 7.535155748048e+00 0.0 
7.535155748048e+00 -2.839208465309e+02 0.0 
0.0 0.0 -1.135758623614e+02 
-5.196672543752e+01 2.798707209993e+01 0.0 
2.798707209993e+01 -1.420377335594e+02 0.0 
0.0 0.0 -5.780133769908e+01 
-5.302472112236e+01 3.097871997901e+00 0.0 
3.097871997901e+00 -7.557073145651e+01 0.0 
0.0 0.0 -3.817863577366e+01 
-4.562328680034e+01 -1.407897575543e+01 0.0 
-1.407897575543e+01 -1.179063353235e+02 0.0 
0.0 0.0 -4.865888663715e+01 
-5.896024190876e+01 5.243376520495e+00 0.0 
5.243376520495e+00 -8.162823453335e+01 0.0 
0.0 0.0 -4.177654293263e+01 
-2.984035389579e+01 -1.099081325987e+00 0.0 
-1.099081325987e+00 -8.091574519899e+01 0.0 
0.0 0.0 -3.282682972844e+01 
-1.370150120343e+02 4.683943870885e+00 0.0 
4.683943870885e+00 -3.416912390061e+02 0.0 
0.0 0.0 -1.432118753121e+02 
-9.961783411516e+01 1.047877328450e+01 0.0 
1.047877328450e+01 -2.919341444057e+02 0.0 
0.0 0.0 -1.170655935563e+02 
-9.992879879889e+01 2.199969339469e+01 0.0 
2.199969339469e+01 -2.874552639346e+02 0.0 
0.0 0.0 -1.158152188201e+02 
-8.136217602974e+01 1.100846492227e+01 0.0 
1.100846492227e+01 -1.583155177186e+02 0.0 
0.0 0.0 -7.150330812450e+01 
-8.966236167847e+01 -1.885434652707e+00 0.0 
-1.885434652707e+00 -2.525494675059e+02 0.0 
0.0 0.0 -1.022635487553e+02 
-3.348893327001e+01 -4.917708482438e+00 0.0 
-4.917708482438e+00 -8.406738457947e+01 0.0 
0.0 0.0 -3.486689535484e+01 
-1.033844524122e+02 3.851971328009e-01 0.0 
3.851971328009e-01 -2.785192199954e+02 0.0 
0.0 0.0 -1.141711017223e+02 
-1.403039433226e+02 4.896764074057e+00 0.0 
4.896764074057e+00 -3.511142279665e+02 0.0 
0.0 0.0 -1.470254513867e+02 
-5.236199857018e+01 -1.323080459259e+01 0.0 
-1.323080459259e+01 -1.535783248555e+02 0.0 
0.0 0.0 -6.138209702770e+01 
-1.234060696204e+02 1.461704999851e+00 0.0 
1.461704999851e+00 -3.086837733043e+02 0.0 
0.0 0.0 -1.292269528774e+02 
-6.534447412552e+01 5.719270813460e+00 0.0 
5.719270813460e+00 -1.056781957208e+02 0.0 
0.0 0.0 -5.090680095390e+01 
-3.858183306937e+01 -1.732968233522e+01 0.0 
-1.732968233522e+01 -1.276798799267e+02 0.0 
0.0 0.0 -4.947851389881e+01 
-1.085796604973e+02 7.014900444786e-01 0.0 
7.014900444786e-01 -2.859649729674e+02 0.0 
0.0 0.0 -1.179633900394e+02 
-4.813834752612e+01 3.787156834586e+00 0.0 
3.787156834586e+00 -5.286890880930e+01 0.0 
0.0 0.0 -2.990217690063e+01 
-4.757628393639e+01 -1.776909539890e+00 0.0 
-1.776909539890e+00 -1.216290074399e+02 0.0 
0.0 0.0 -5.036158741288e+01 
-5.838550942133e+01 -5.750846529678e+00 0.0 
-5.750846529678e+00 -1.503678738347e+02 0.0 
0.0 0.0 -6.222601497681e+01 
-6.377503901652e+01 2.917534830577e+01 0.0 
2.917534830577e+01 -1.785525970172e+02 0.0 
0.0 0.0 -7.229829081010e+01 
-1.162971545555e+02 -2.039787391612e-01 0.0 
-2.039787391612e-01 -2.997422157641e+02 0.0 
0.0 0.0 -1.244118110959e+02 
-4.728510555610e+01 2.943407306552e+01 0.0 
2.943407306552e+01 -1.054120846068e+02 0.0 
0.0 0.0 -4.540915704887e+01 
-6.027680336774e+01 2.779838862309e+01 0.0 
2.779838862309e+01 -1.775213807782e+02 0.0 
0.0 0.0 -7.093945524378e+01 
-6.150286896447e+01 5.293077650008e+00 0.0 
5.293077650008e+00 -9.217505052026e+01 0.0 
0.0 0.0 -4.570337584542e+01 
-4.724328356477e+01 9.070349786002e-01 0.0 
9.070349786002e-01 -6.354300598897e+01 0.0 
0.0 0.0 -3.283588686612e+01 
-5.040137679951e+01 2.842194113077e+00 0.0 
2.842194113077e+00 -6.068421693121e+01 0.0 
0.0 0.0 -3.292567811921e+01 
-8.793168255925e+01 -2.810450302492e+00 0.0 
-2.810450302492e+00 -2.229986671487e+02 0.0 
0.0 0.0 -9.287910491239e+01 
-1.306380541823e+02 7.134205454355e+00 0.0 
7.134205454355e+00 -3.362515520580e+02 0.0 
0.0 0.0 -1.396668818721e+02 
-9.806459052127e+01 9.680903738422e-02 0.0 
9.680903738422e-02 -2.711083702296e+02 0.0 
0.0 0.0 -1.103518882253e+02 
-4.600621133658e+01 2.626306867946e+00 0.0 
2.626306867946e+00 -5.412206893521e+01 0.0 
0.0 0.0 -2.963848408154e+01 
-1.030955842974e+02 3.626401513559e+01 0.0 
3.626401513559e+01 -2.167820510947e+02 0.0 
0.0 0.0 -9.556329061763e+01 
-1.044967982080e+02 2.472148012503e+01 0.0 
2.472148012503e+01 -2.916830784794e+02 0.0 
0.0 0.0 -1.184539630062e+02 
-1.109703897839e+02 -3.982806046083e-01 0.0 
-3.982806046083e-01 -2.920235755561e+02 0.0 
0.0 0.0 -1.204981896020e+02 
-6.627649447405e+01 5.296553618414e+00 0.0 
5.296553618414e+00 -1.137026579444e+02 0.0 
0.0 0.0 -5.359374572553e+01 
-6.595387997748e+01 -7.171747711516e+00 0.0 
-7.171747711516e+00 -1.764849525980e+02 0.0 
0.0 0.0 -7.233164977263e+01 
-6.238254334053e+01 -6.617758283280e+00 0.0 
-6.617758283280e+00 -1.633563279326e+02 0.0 
0.0 0.0 -6.732166138194e+01 
-3.469041352804e+01 -4.548016509789e+00 0.0 
-4.548016509789e+00 -8.734863560156e+01 0.0 
0.0 0.0 -3.621171473888e+01 
-1.069577047412e+02 1.970166878061e+00 0.0 
1.970166878061e+00 -2.895674914268e+02 0.0 
0.0 0.0 -1.185575588504e+02 
-6.589482140374e+01 -5.318608425624e+00 0.0 
-5.318608425624e+00 -1.710159080901e+02 0.0 
0.0 0.0 -7.067321884816e+01 
-6.038244942796e+01 5.792409846795e+00 0.0 
5.792409846795e+00 -8.414732233727e+01 0.0 
0.0 0.0 -4.295893152957e+01 
-5.769678848377e+01 5.800904905963e+00 0.0 
5.800904905963e+00 -7.352605625480e+01 0.0 
0.0 0.0 -3.896685342157e+01 
-6.486699118130e+01 1.206130233818e+01 0.0 
1.206130233818e+01 -2.275203094811e+02 0.0 
0.0 0.0 -8.731619019871e+01 
-5.388015961709e+01 -9.304874705519e+00 0.0 
-9.304874705519e+00 -1.415904496044e+02 0.0 
0.0 0.0 -5.824118276645e+01 
-3.830202013137e+01 1.249616518159e+01 0.0 
1.249616518159e+01 -1.669880944054e+02 0.0 
0.0 0.0 -6.118703436103e+01 
-5.716819232238e+01 -8.012854692698e+00 0.0 
-8.012854692698e+00 -1.493502034301e+02 0.0 
0.0 0.0 -6.155551872574e+01 
-6.040371538558e+01 -8.727183066670e+00 0.0 
-8.727183066670e+00 -1.620519102027e+02 0.0 
0.0 0.0 -6.633668767648e+01 
-3.876789324197e+01 -6.378643978954e+00 0.0 
-6.378643978954e+00 -9.578839711518e+01 0.0 
0.0 0.0 -3.996688710714e+01 
-1.247446394300e+02 7.711533464920e+00 0.0 
7.711533464920e+00 -3.281661171322e+02 0.0 
0.0 0.0 -1.354732269687e+02 
-6.781951892490e+01 -8.182763423442e+00 0.0 
-8.182763423442e+00 -2.006329071746e+02 0.0 
0.0 0.0 -8.013572782985e+01 
-7.194011385616e+01 7.244491164778e+00 0.0 
7.244491164778e+00 -1.264692371925e+02 0.0 
0.0 0.0 -5.912280531460e+01 
-6.995628099315e+01 -6.918553810504e+00 0.0 
-6.918553810504e+00 -2.130754760743e+02 0.0 
0.0 0.0 -8.450952712025e+01 
-9.995472085421e+01 -7.886748081122e-01 0.0 
-7.886748081122e-01 -2.768092060735e+02 0.0 
0.0 0.0 -1.126291780783e+02 
-8.278829509393e+01 -4.441139008807e+00 0.0 
-4.441139008807e+00 -2.389600252437e+02 0.0 
0.0 0.0 -9.612449610129e+01 
-5.980720815412e+01 2.451978067077e+01 0.0 
2.451978067077e+01 -1.924002574996e+02 0.0 
0.0 0.0 -7.526223969610e+01 
-3.775537037910e+01 -3.892589746817e+00 0.0 
-3.892589746817e+00 -9.594841615818e+01 0.0 
0.0 0.0 -3.971113596118e+01 
-1.343230833858e+02 5.490485873912e+00 0.0 
5.490485873912e+00 -3.430620527895e+02 0.0 
0.0 0.0 -1.428155408526e+02 
-1.415824451569e+02 8.549383801938e+00 0.0 
8.549383801938e+00 -3.550051159923e+02 0.0 
0.0 0.0 -1.485762683447e+02 
-8.208768764806e+01 3.026719587512e+01 0.0 
3.026719587512e+01 -2.160106646120e+02 0.0 
0.0 0.0 -8.902950567803e+01 
-6.317155446569e+01 -9.084802525422e+00 0.0 
-9.084802525422e+00 -1.748832363417e+02 0.0 
0.0 0.0 -7.101643724223e+01 
-9.109981940089e+01 -2.579271343361e+00 0.0 
-2.579271343361e+00 -2.579447649297e+02 0.0 
0.0 0.0 -1.043133752992e+02 
-5.653744213523e+01 3.373968839651e+00 0.0 
3.373968839651e+00 -8.210889215480e+01 0.0 
0.0 0.0 -4.119390028701e+01 
-6.966445227987e+01 -5.845322802661e+00 0.0 
-5.845322802661e+00 -1.838181637538e+02 0.0 
0.0 0.0 -7.564478481011e+01 
-4.896795699916e+01 2.769990949864e+01 0.0 
2.769990949864e+01 -1.416132453366e+02 0.0 
0.0 0.0 -5.677436070072e+01 
-5.386870608546e+01 -4.680395116995e+00 0.0 
-4.680395116995e+00 -1.376067942377e+02 0.0 
0.0 0.0 -5.704265009694e+01 
-4.776625476832e+01 -1.509565422689e+01 0.0 
-1.509565422689e+01 -1.339258624659e+02 0.0 
0.0 0.0 -5.410763517026e+01 
-6.910984455253e+01 -7.314068574332e+00 0.0 
-7.314068574332e+00 -1.896476148795e+02 0.0 
0.0 0.0 -7.722723782961e+01 
-4.913903768138e+01 -5.905777752694e+00 0.0 
-5.905777752694e+00 -1.246224282508e+02 0.0 
0.0 0.0 -5.172843977964e+01 
-4.410581103959e+01 -2.429555612406e+00 0.0 
-2.429555612406e+00 -1.129906916291e+02 0.0 
0.0 0.0 -4.672895080061e+01 
-8.671105228789e+01 -3.251130309531e+00 0.0 
-3.251130309531e+00 -2.408835980767e+02 0.0 
0.0 0.0 -9.787839510937e+01 
-1.055187527193e+02 -6.049624000520e-01 0.0 
-6.049624000520e-01 -2.843810370592e+02 0.0 
0.0 0.0 -1.165699369335e+02 
-1.021176089914e+02 3.346763771181e+01 0.0 
3.346763771181e+01 -2.544556581531e+02 0.0 
0.0 0.0 -1.065719801434e+02 
-2.409416805555e+00 -4.892718729510e-01 0.0 
-4.892718729510e-01 -8.723316860681e+00 0.0 
0.0 0.0 -1.946269883337e+00 
-6.151257319828e+01 -4.637259320347e+00 0.0 
-4.637259320347e+00 -2.118945971795e+02 0.0 
0.0 0.0 -8.162215111333e+01 
-6.482956667844e+01 -7.305252502222e+00 0.0 
-7.305252502222e+00 -2.065709563207e+02 0.0 
0.0 0.0 -8.102015689974e+01 
-6.557645785936e+01 -8.913171847138e+00 0.0 
-8.913171847138e+00 -1.878178703531e+02 0.0 
0.0 0.0 -7.561829846374e+01 
-5.357404318242e+01 3.133190693352e+00 0.0 
3.133190693352e+00 -7.133264517478e+01 0.0 
0.0 0.0 -3.707200650716e+01 
-7.502540929820e+01 -6.332419067597e+00 0.0 
-6.332419067597e+00 -2.198487104971e+02 0.0 
0.0 0.0 -8.806223593858e+01 
-5.671819480825e+01 -6.002018039520e+00 0.0 
-6.002018039520e+00 -1.451679777182e+02 0.0 
0.0 0.0 -6.016585175795e+01 
-7.191438913164e+01 -6.932093093313e+00 0.0 
-6.932093093313e+00 -2.026427012924e+02 0.0 
0.0 0.0 -8.196712712722e+01 
-6.473200114175e+01 3.518190453799e+00 0.0 
3.518190453799e+00 -1.150049920128e+02 0.0 
0.0 0.0 -5.352109794636e+01 
-5.706533646536e+01 -3.655116946653e+00 0.0 
-3.655116946653e+00 -1.458365877567e+02 0.0 
0.0 0.0 -6.047057726662e+01 
-2.225821382393e+01 -4.108609735617e+00 0.0 
-4.108609735617e+00 -5.509065262101e+01 0.0 
0.0 0.0 -2.280465993348e+01 
-3.094477003202e+01 -5.362408349374e+00 0.0 
-5.362408349374e+00 -7.558696331286e+01 0.0 
0.0 0.0 -3.155952000346e+01 
-4.644369195675e+01 -1.461629722834e+01 0.0 
-1.461629722834e+01 -1.366472703331e+02 0.0 
0.0 0.0 -5.452728868695e+01 
-5.676520577075e+01 -1.008660218512e+01 0.0 
-1.008660218512e+01 -1.546865709705e+02 0.0 
0.0 0.0 -6.303553302236e+01 
-6.679254565131e+01 -5.101911057166e+00 0.0 
-5.101911057166e+00 -2.183273575894e+02 0.0 
0.0 0.0 -8.513597097220e+01 
-7.442464513505e+01 -5.993168559790e+00 0.0 
-5.993168559790e+00 -2.151832540289e+02 0.0 
0.0 0.0 -8.648236974920e+01 
-4.056705647908e+01 -1.366709123554e+01 0.0 
-1.366709123554e+01 -9.531830091862e+01 0.0 
0.0 0.0 -3.998993814830e+01 
-2.869561024081e+01 -2.823714308569e+00 0.0 
-2.823714308569e+00 -7.516694712257e+01 0.0 
0.0 0.0 -3.075876720902e+01 
-5.859747035664e+01 9.124823125148e+00 0.0 
9.124823125148e+00 -6.285634677912e+01 0.0 
0.0 0.0 -3.603614514073e+01 
-4.913312962512e+01 -3.505624833721e+00 0.0 
-3.505624833721e+00 -1.251436635687e+02 0.0 
0.0 0.0 -5.188303795814e+01 
-1.175246470205e+02 4.609441680788e+00 0.0 
4.609441680788e+00 -3.168163095958e+02 0.0 
0.0 0.0 -1.299022869849e+02 
-9.859495449606e+01 3.203366378736e+01 0.0 
3.203366378736e+01 -2.529391155053e+02 0.0 
0.0 0.0 -1.050602210004e+02 
-7.034415485517e+01 2.906041057939e+01 0.0 
2.906041057939e+01 -1.098596753220e+02 0.0 
0.0 0.0 -5.366114905315e+01 
-7.747820646875e+01 1.303263785548e+01 0.0 
1.303263785548e+01 -1.365203278854e+02 0.0 
0.0 0.0 -6.379956030625e+01 
-1.054285508145e+02 3.462130788443e+01 0.0 
3.462130788443e+01 -2.560461244634e+02 0.0 
0.0 0.0 -1.080424025834e+02 
-6.024637172414e+01 1.452885983142e+01 0.0 
1.452885983142e+01 -2.155785865761e+02 0.0 
0.0 0.0 -8.234748749006e+01 
-9.010122035070e+01 3.100815582497e+01 0.0 
3.100815582497e+01 -2.344564559572e+02 0.0 
0.0 0.0 -9.696730289236e+01 
-4.414172461189e+01 -1.669545948388e+01 0.0 
-1.669545948388e+01 -1.134031758863e+02 0.0 
0.0 0.0 -4.654918894178e+01 
-7.620189129844e+01 -5.803266585020e+00 0.0 
-5.803266585020e+00 -2.093768329187e+02 0.0 
0.0 0.0 -8.527361726515e+01 
-5.339517288091e+01 2.071964308602e+01 0.0 
2.071964308602e+01 -1.891061696141e+02 0.0 
0.0 0.0 -7.235040274850e+01 
-3.364101266101e+01 -1.347478221441e+01 0.0 
-1.347478221441e+01 -1.411240341101e+02 0.0 
0.0 0.0 -5.198833134394e+01 
-4.132930716660e+01 -1.662615957084e+01 0.0 
-1.662615957084e+01 -9.121698515996e+01 0.0 
0.0 0.0 -3.800648422702e+01 
-6.412911734332e+01 -7.463203448321e+00 0.0 
-7.463203448321e+00 -1.697983205268e+02 0.0 
0.0 0.0 -6.977823136102e+01 
-6.965958794258e+01 -6.730095285555e+00 0.0 
-6.730095285555e+00 -2.087536826755e+02 0.0 
0.0 0.0 -8.312398118544e+01 
-7.165097022405e+01 -4.857033619208e+00 0.0 
-4.857033619208e+00 -2.204402146316e+02 0.0 
0.0 0.0 -8.722735545669e+01 
-5.228173905591e+01 -4.952581146611e+00 0.0 
-4.952581146611e+00 -1.330132173911e+02 0.0 
0.0 0.0 -5.518848693411e+01 
-7.746511462227e+01 -4.874212909581e+00 0.0 
-4.874212909581e+00 -2.318602094946e+02 0.0 
0.0 0.0 -9.239759723505e+01 
-6.643843030619e+01 -4.889999973682e+00 0.0 
-4.889999973682e+00 -2.139128657912e+02 0.0 
0.0 0.0 -8.370538882922e+01 
-6.365899442120e+01 -1.508893214393e+00 0.0 
-1.508893214393e+00 -2.223352716579e+02 0.0 
0.0 0.0 -8.539827982374e+01 
-5.907842532220e+01 -8.055347776692e+00 0.0 
-8.055347776692e+00 -1.560998865272e+02 0.0 
0.0 0.0 -6.415349355481e+01 
-9.742025382223e+01 1.473174499302e+01 0.0 
1.473174499302e+01 -2.887397467322e+02 0.0 
0.0 0.0 -1.154480001663e+02 
-6.587415441540e+01 7.964345846260e+00 0.0 
7.964345846260e+00 -9.447786521008e+01 0.0 
0.0 0.0 -4.770560588764e+01 
-5.858826686383e+01 -3.303499830441e-02 0.0 
-3.303499830441e-02 -2.153581885618e+02 0.0 
0.0 0.0 -8.178393662769e+01 
-1.282895754702e+02 6.125803099946e+00 0.0 
6.125803099946e+00 -3.350373632089e+02 0.0 
0.0 0.0 -1.385980816037e+02 
-4.498253739298e+01 -1.711142243215e+01 0.0 
-1.711142243215e+01 -1.304404644026e+02 0.0 
0.0 0.0 -5.222690053867e+01 
-1.385835982079e+02 1.062357836438e+01 0.0 
1.062357836438e+01 -3.545242111950e+02 0.0 
0.0 0.0 -1.475323428209e+02 
-7.213030676386e+01 -5.140369799332e+00 0.0 
-5.140369799332e+00 -2.249377401945e+02 0.0 
0.0 0.0 -8.872041408750e+01 
-1.084156448904e+02 3.628154105451e+01 0.0 
3.628154105451e+01 -2.590171453546e+02 0.0 
0.0 0.0 -1.098298370735e+02 
-7.446558661418e+01 3.292580851513e+01 0.0 
3.292580851513e+01 -1.639069904921e+02 0.0 
0.0 0.0 -7.111177313187e+01 
-4.231139357122e+01 -1.607093897779e+01 0.0 
-1.607093897779e+01 -1.160652253942e+02 0.0 
0.0 0.0 -4.711298568961e+01 
-7.398810247826e+01 3.085607120128e+01 0.0 
3.085607120128e+01 -1.287271514704e+02 0.0 
0.0 0.0 -6.041457618461e+01 
-8.503734618024e+01 2.037871012069e+01 0.0 
2.037871012069e+01 -1.555497595261e+02 0.0 
0.0 0.0 -7.177613171190e+01 
-7.448899070084e+01 -2.886500220272e+00 0.0 
-2.886500220272e+00 -2.362250368834e+02 0.0 
0.0 0.0 -9.281420827526e+01 
-4.278054880141e+01 2.513429312311e+01 0.0 
2.513429312311e+01 -1.389310552215e+02 0.0 
0.0 0.0 -5.411348120686e+01 
-7.769519968464e+01 3.218331713395e+01 0.0 
3.218331713395e+01 -1.476154008996e+02 0.0 
0.0 0.0 -6.719318017528e+01 
-5.762678696384e+01 2.813403730904e+01 0.0 
2.813403730904e+01 -1.602987755250e+02 0.0 
0.0 0.0 -6.497766874665e+01 
-4.060270970672e+01 -1.635057585110e+01 0.0 
-1.635057585110e+01 -9.468902844396e+01 0.0 
0.0 0.0 -3.983288704868e+01 
-8.701226279601e+01 1.757791521342e+01 0.0 
1.757791521342e+01 -1.811184013056e+02 0.0 
0.0 0.0 -8.003919923047e+01 
-3.935851181189e+01 -1.332532564106e+01 0.0 
-1.332532564106e+01 -7.987322963655e+01 0.0 
0.0 0.0 -3.469212492505e+01 
-1.283261754473e+02 2.400466930158e+01 0.0 
2.400466930158e+01 -3.345186809911e+02 0.0 
0.0 0.0 -1.384534569315e+02 
-7.422426615663e+01 6.574224462930e+00 0.0 
6.574224462930e+00 -1.454866033387e+02 0.0 
0.0 0.0 -6.551326084859e+01 
-1.035535268814e+02 1.345635936425e+01 0.0 
1.345635936425e+01 -2.992413250378e+02 0.0 
0.0 0.0 -1.204384555758e+02 
-4.836950390653e+01 1.560987351508e+00 0.0 
1.560987351508e+00 -6.166765759827e+01 0.0 
0.0 0.0 -3.261114845144e+01 
-7.778754872029e+01 1.293752759882e+01 0.0 
1.293752759882e+01 -1.270134396209e+02 0.0 
0.0 0.0 -6.104029650236e+01 
-6.819414346058e+01 -2.027132714376e+00 0.0 
-2.027132714376e+00 -2.241337749353e+02 0.0 
0.0 0.0 -8.729837551878e+01 
-7.315817188181e+01 1.330771392624e+01 0.0 
1.330771392624e+01 -2.438999522534e+02 0.0 
0.0 0.0 -9.471743724055e+01 
-8.277833877652e+01 1.528696717431e+01 0.0 
1.528696717431e+01 -1.585161026708e+02 0.0 
0.0 0.0 -7.198833243420e+01 
-1.149755318903e+02 9.004567310692e-01 0.0 
9.004567310692e-01 -3.032662444775e+02 0.0 
0.0 0.0 -1.250725329103e+02 
-7.132482675462e+01 1.060123876620e+01 0.0 
1.060123876620e+01 -1.054638201739e+02 0.0 
0.0 0.0 -5.263659407856e+01 
-9.866024462122e+01 6.309476961998e+00 0.0 
6.309476961998e+00 -2.912180641347e+02 0.0 
0.0 0.0 -1.165634926268e+02 
-3.956715761147e+01 -1.785644514924e+01 0.0 
-1.785644514924e+01 -1.114146864453e+02 0.0 
0.0 0.0 -4.489455321702e+01 
-7.649185950982e+01 1.366451836642e+01 0.0 
1.366451836642e+01 -1.171881262628e+02 0.0 
0.0 0.0 -5.770399573180e+01 
-1.255467396934e+02 3.924616695074e+01 0.0 
3.924616695074e+01 -3.052644617817e+02 0.0 
0.0 0.0 -1.288433604425e+02 
-1.400909332591e+02 7.361525488283e+00 0.0 
7.361525488283e+00 -3.540023107084e+02 0.0 
0.0 0.0 -1.478279731902e+02 
-7.257169470427e+01 -7.296414088543e+00 0.0 
-7.296414088543e+00 -2.075123139102e+02 0.0 
0.0 0.0 -8.362520258435e+01 
-5.161658308823e+01 3.992400017848e+00 0.0 
3.992400017848e+00 -6.337703337246e+01 0.0 
0.0 0.0 -3.409808493821e+01 
-4.472807233769e+01 1.201861921874e+00 0.0 
1.201861921874e+00 -5.099270487773e+01 0.0 
0.0 0.0 -2.831623316463e+01 
-7.672750556978e+01 -4.484468759937e+00 0.0 
-4.484468759937e+00 -2.270300158925e+02 0.0 
0.0 0.0 -9.072725643868e+01 
-1.093102504658e+02 8.894524149477e-01 0.0 
8.894524149477e-01 -2.955683901148e+02 0.0 
0.0 0.0 -1.210635921742e+02 
-1.133084293645e+02 2.631912647127e+00 0.0 
2.631912647127e+00 -3.064078759894e+02 0.0 
0.0 0.0 -1.255148916062e+02 
-2.612771961303e+01 -3.199820813230e+00 0.0 
-3.199820813230e+00 -6.637090437165e+01 0.0 
0.0 0.0 -2.734958719540e+01 
-3.421967698315e+01 1.358094355245e+01 0.0 
1.358094355245e+01 -1.535527983190e+02 0.0 
0.0 0.0 -5.593174259064e+01 
-6.127787287852e+01 3.652370511313e+00 0.0 
3.652370511313e+00 -2.239185283924e+02 0.0 
0.0 0.0 -8.515892038126e+01 
-6.275315241319e+01 -1.049541304512e+00 0.0 
-1.049541304512e+00 -2.168748247093e+02 0.0 
0.0 0.0 -8.348839313676e+01 
-5.734029177391e+01 2.601904428416e+01 0.0 
2.601904428416e+01 -1.765163832799e+02 0.0 
0.0 0.0 -6.975700251613e+01 
-8.783914961230e+01 1.698262056497e+01 0.0 
1.698262056497e+01 -1.698869568522e+02 0.0 
0.0 0.0 -7.691783193936e+01 
-9.458027283403e+01 3.118007904197e+01 0.0 
3.118007904197e+01 -1.952918430029e+02 0.0 
0.0 0.0 -8.656163475108e+01 
-7.746701796614e+01 8.635750576986e+00 0.0 
8.635750576986e+00 -1.471028872347e+02 0.0 
0.0 0.0 -6.697097156026e+01 
-4.939401538784e+01 2.996286322746e+01 0.0 
2.996286322746e+01 -1.053551593433e+02 0.0 
0.0 0.0 -4.602475241935e+01 
-7.972717666502e+01 1.804030727621e+01 0.0 
1.804030727621e+01 -1.330821656010e+02 0.0 
0.0 0.0 -6.344280267980e+01 
-1.123990267884e+02 2.074184730219e+00 0.0 
2.074184730219e+00 -2.971354653558e+02 0.0 
0.0 0.0 -1.224603476433e+02 
-7.999840849835e+01 1.168095823038e+01 0.0 
1.168095823038e+01 -1.564840885168e+02 0.0 
0.0 0.0 -7.054474910453e+01 
-7.495434289045e+01 1.455312645291e+01 0.0 
1.455312645291e+01 -1.076260464311e+02 0.0 
0.0 0.0 -5.437411679647e+01 
-7.906438331619e+01 -5.105508213527e+00 0.0 
-5.105508213527e+00 -2.218322725328e+02 0.0 
0.0 0.0 -8.986899675470e+01 
-5.672442340957e+01 5.988412713322e+00 0.0 
5.988412713322e+00 -2.155110074716e+02 0.0 
0.0 0.0 -8.127062926436e+01 
-7.144470386833e+01 1.053328265126e+01 0.0 
1.053328265126e+01 -1.145169470294e+02 0.0 
0.0 0.0 -5.538849526933e+01 
-8.328344331146e+01 1.513405944027e+01 0.0 
1.513405944027e+01 -1.487221486719e+02 0.0 
0.0 0.0 -6.920167759501e+01 
-6.851907658901e+01 7.488753321518e+00 0.0 
7.488753321518e+00 -1.133220713506e+02 0.0 
0.0 0.0 -5.415234438189e+01 
-6.649096643710e+01 7.683948069670e+00 0.0 
7.683948069670e+00 -1.029199086690e+02 0.0 
0.0 0.0 -5.042326253183e+01 
-1.294930057385e+02 3.782801895006e+00 0.0 
3.782801895006e+00 -3.327739143421e+02 0.0 
0.0 0.0 -1.382800760242e+02 
-1.220830280524e+02 2.516340785516e+01 0.0 
2.516340785516e+01 -3.224556797946e+02 0.0 
0.0 0.0 -1.329616123541e+02 
-1.236016467429e+02 4.157211142232e+00 0.0 
4.157211142232e+00 -3.248553739047e+02 0.0 
0.0 0.0 -1.341371061943e+02 
-9.653325941352e+01 -2.217114544869e+00 0.0 
-2.217114544869e+00 -2.653767417125e+02 0.0 
0.0 0.0 -1.081730003378e+02 
-4.325930172435e+01 2.624616362843e+01 0.0 
2.624616362843e+01 -6.506431785295e+01 0.0 
0.0 0.0 -3.209708587319e+01 
-1.077418940092e+02 1.641810272855e+01 0.0 
1.641810272855e+01 -3.058300693010e+02 0.0 
0.0 0.0 -1.236715889930e+02 
-7.674624799304e+01 2.076140641418e+01 0.0 
2.076140641418e+01 -1.203212255895e+02 0.0 
0.0 0.0 -5.872024207477e+01 
-4.443656036899e+01 -4.778401785990e+00 0.0 
-4.778401785990e+00 -1.126225302260e+02 0.0 
0.0 0.0 -4.671772717850e+01 
-6.472241503574e+01 2.591865039644e+00 0.0 
2.591865039644e+00 -2.251317462188e+02 0.0 
0.0 0.0 -8.655624837636e+01 
-7.448503501923e+01 3.696885642867e+00 0.0 
3.696885642867e+00 -2.483810451174e+02 0.0 
0.0 0.0 -9.645982404100e+01 
-8.202186091756e+01 1.468712417936e+01 0.0 
1.468712417936e+01 -2.605910420303e+02 0.0 
0.0 0.0 -1.023838708844e+02 
-3.067297155339e+01 -3.676296374678e+00 0.0 
-3.676296374678e+00 -1.509869578316e+02 0.0 
0.0 0.0 -5.394700879569e+01 
-5.941784966930e+01 4.545752323401e+00 0.0 
4.545752323401e+00 -2.163013725259e+02 0.0 
0.0 0.0 -8.231576665856e+01 
-9.147940640198e+01 1.616208953478e+01 0.0 
1.616208953478e+01 -2.775237027832e+02 0.0 
0.0 0.0 -1.103009327555e+02 
-5.352217219988e+01 2.882344902559e+01 0.0 
2.882344902559e+01 -1.047055324058e+02 0.0 
0.0 0.0 -4.706831138170e+01 
-8.005433388593e+01 -5.611328560543e+00 0.0 
-5.611328560543e+00 -2.269677402397e+02 0.0 
0.0 0.0 -9.170662223768e+01 
-6.764544733857e+01 1.193925978951e+01 0.0 
1.193925978951e+01 -8.541199031358e+01 0.0 
0.0 0.0 -4.551723129564e+01 
-2.959438423324e+01 -6.092460281007e-01 0.0 
-6.092460281007e-01 -2.105342666957e+01 0.0 
0.0 0.0 -1.479434327084e+01 
-4.077437133738e+01 2.880252681275e+01 0.0 
2.880252681275e+01 -2.884096763212e+01 0.0 
0.0 0.0 -1.959341359478e+01 
-9.481914453540e+01 -1.403397442042e+00 0.0 
-1.403397442042e+00 -2.597783016174e+02 0.0 
0.0 0.0 -1.059792338458e+02 
-1.071070702878e+02 1.182855552578e+01 0.0 
1.182855552578e+01 -3.079374310556e+02 0.0 
0.0 0.0 -1.241133504030e+02 
-9.617285270784e+01 3.034232759249e+01 0.0 
3.034232759249e+01 -1.991684449116e+02 0.0 
0.0 0.0 -8.820238928583e+01 
-6.778020623393e+01 1.067434580342e+01 0.0 
1.067434580342e+01 -2.377276491116e+02 0.0 
0.0 0.0 -9.125235660366e+01 
-8.804248546490e+01 -3.904046814758e+00 0.0 
-3.904046814758e+00 -2.462501713051e+02 0.0 
0.0 0.0 -9.988779703099e+01 
-6.365053872032e+01 8.192869736763e+00 0.0 
8.192869736763e+00 -8.410262176776e+01 0.0 
0.0 0.0 -4.392594814642e+01 
-3.928832722125e+01 2.687471583083e+01 0.0 
2.687471583083e+01 -2.729560830472e+01 0.0 
0.0 0.0 -1.838889520913e+01 
-1.009710740023e+02 1.310044743816e+01 0.0 
1.310044743816e+01 -2.980697688337e+02 0.0 
0.0 0.0 -1.193122528508e+02 
-7.851085728271e+01 1.143959839328e+01 0.0 
1.143959839328e+01 -2.549503795073e+02 0.0 
0.0 0.0 -9.963837103701e+01 
-5.726805131571e+01 3.110919404494e+01 0.0 
3.110919404494e+01 -1.056825344322e+02 0.0 
0.0 0.0 -4.848517572438e+01 
-1.163209645363e+02 3.712271082139e+00 0.0 
3.712271082139e+00 -3.079184641179e+02 0.0 
0.0 0.0 -1.268718285963e+02 
-4.103617245795e+01 -1.596311828227e+01 0.0 
-1.596311828227e+01 -1.438670864736e+02 0.0 
0.0 0.0 -5.507097767946e+01 
-1.204177353219e+02 5.591795799267e+00 0.0 
5.591795799267e+00 -3.182564293751e+02 0.0 
0.0 0.0 -1.312022494091e+02 
-1.332807605868e+02 8.190272836678e+00 0.0 
8.190272836678e+00 -3.449400787781e+02 0.0 
0.0 0.0 -1.430662518095e+02 
-9.508976498930e+01 1.449627665903e+01 0.0 
1.449627665903e+01 -2.877011183217e+02 0.0 
0.0 0.0 -1.144372649933e+02 
-7.297795926973e+01 1.014726748887e+01 0.0 
1.014726748887e+01 -1.156744999519e+02 0.0 
0.0 0.0 -5.619573776649e+01 
-1.011877654959e+02 3.110650073148e+01 0.0 
3.110650073148e+01 -2.678999358805e+02 0.0 
0.0 0.0 -1.103263104129e+02 
-1.356215939806e+02 9.336802454127e+00 0.0 
9.336802454127e+00 -3.461436241674e+02 0.0 
0.0 0.0 -1.441295654444e+02 
-3.767594585288e+01 2.559179709634e+01 0.0 
2.559179709634e+01 -2.647899161647e+01 0.0 
0.0 0.0 -1.884648124080e+01 
-6.958026819444e+01 1.113112438310e+01 0.0 
1.113112438310e+01 -9.541876063683e+01 0.0 
0.0 0.0 -4.909970864938e+01 
-1.201897795587e+02 2.888191851514e+01 0.0 
2.888191851514e+01 -3.133702932578e+02 0.0 
0.0 0.0 -1.296680218449e+02 
-7.304027756915e+01 1.009690634374e+01 0.0 
1.009690634374e+01 -1.245121117056e+02 0.0 
0.0 0.0 -5.886571678242e+01 
-8.536738188760e+01 1.312913916289e+01 0.0 
1.312913916289e+01 -2.707630063724e+02 0.0 
0.0 0.0 -1.064391164780e+02 
-6.191692067545e+01 8.416917444137e+00 0.0 
8.416917444137e+00 -2.223374634843e+02 0.0 
0.0 0.0 -8.487631524794e+01 
-9.119852296844e+01 -3.724059768130e+00 0.0 
-3.724059768130e+00 -2.378208259670e+02 0.0 
0.0 0.0 -9.830580468063e+01 
-2.669345412426e+01 6.365832796156e+00 0.0 
6.365832796156e+00 -1.301180968994e+02 0.0 
0.0 0.0 -4.839618168345e+01 
-7.463417642687e+01 9.624840555659e+00 0.0 
9.624840555659e+00 -1.347559277073e+02 0.0 
0.0 0.0 -6.241703124024e+01 
-4.774202474162e+01 -4.077494496385e+00 0.0 
-4.077494496385e+00 -1.212747534629e+02 0.0 
0.0 0.0 -5.030503346135e+01 
-3.562169715369e+01 2.423643395292e+01 0.0 
2.423643395292e+01 -2.534399132402e+01 0.0 
0.0 0.0 -1.788970654331e+01 
-9.584233144951e+01 3.178879451883e+01 0.0 
3.178879451883e+01 -2.518202494710e+02 0.0 
0.0 0.0 -1.038987742761e+02 
-7.810589685395e+01 8.660187138772e+00 0.0 
8.660187138772e+00 -1.565007667647e+02 0.0 
0.0 0.0 -6.998199908559e+01 
-4.277813861084e+01 -1.921265637002e+01 0.0 
-1.921265637002e+01 -1.287955840888e+02 0.0 
0.0 0.0 -5.048183829376e+01 
-6.733465428025e+01 3.037771741008e+01 0.0 
3.037771741008e+01 -1.795172647786e+02 0.0 
0.0 0.0 -7.365557571765e+01 
-6.979963822288e+01 1.102201706964e+01 0.0 
1.102201706964e+01 -1.048513199222e+02 0.0 
0.0 0.0 -5.199528744352e+01 
-8.825480915568e+01 -3.290097738032e+00 0.0 
-3.290097738032e+00 -2.360773919781e+02 0.0 
0.0 0.0 -9.689966034014e+01 
-3.475655208748e+01 -8.448567126514e+00 0.0 
-8.448567126514e+00 -1.518549974013e+02 0.0 
0.0 0.0 -5.558346484664e+01 
-4.179881174627e+01 2.440422671476e+01 0.0 
2.440422671476e+01 -1.394576071209e+02 0.0 
0.0 0.0 -5.397692566014e+01 
-4.000427313663e+01 -1.816122029614e+01 0.0 
-1.816122029614e+01 -9.038786777885e+01 0.0 
0.0 0.0 -3.766636003870e+01 
-3.496213250861e+01 -1.721621471770e+01 0.0 
-1.721621471770e+01 -1.259367712700e+02 0.0 
0.0 0.0 -4.786967113358e+01 
-3.665307013735e+01 -1.896513485548e+01 0.0 
-1.896513485548e+01 -1.085002261708e+02 0.0 
0.0 0.0 -4.293059440200e+01 
-7.626205191300e+01 1.184843496091e+01 0.0 
1.184843496091e+01 -2.540840390413e+02 0.0 
0.0 0.0 -9.870382728631e+01 
-1.017331333718e+02 2.919635528371e+01 0.0 
2.919635528371e+01 -2.220797729432e+02 0.0 
0.0 0.0 -9.674387189449e+01 
-3.363400209266e+01 2.305183264881e+01 0.0 
2.305183264881e+01 -2.420389381638e+01 0.0 
0.0 0.0 -1.695136877271e+01 
-1.352805480356e+02 3.419535857725e+00 0.0 
3.419535857725e+00 -3.406636060992e+02 0.0 
0.0 0.0 -1.423832462405e+02 
-4.934888577260e+01 1.203388719459e+01 0.0 
1.203388719459e+01 -1.959611283553e+02 0.0 
0.0 0.0 -7.319300423836e+01 
-7.320548494297e+01 1.577727756539e+01 0.0 
1.577727756539e+01 -9.860831734299e+01 0.0 
0.0 0.0 -5.114414068579e+01 
-2.702996538877e+01 3.572479686151e+00 0.0 
3.572479686151e+00 -1.377329100077e+02 0.0 
0.0 0.0 -5.084962979100e+01 
-1.406327834685e+02 1.150077038670e+01 0.0 
1.150077038670e+01 -3.553294951298e+02 0.0 
0.0 0.0 -1.483886835795e+02 
-4.396272560144e+01 -1.981258868743e+01 0.0 
-1.981258868743e+01 -1.110999174299e+02 0.0 
0.0 0.0 -4.485445925402e+01 
-5.612178136600e+01 -4.140885219433e+00 0.0 
-4.140885219433e+00 -1.422099182222e+02 0.0 
0.0 0.0 -5.909950987646e+01 
-9.950719988226e+01 1.733706047373e+01 0.0 
1.733706047373e+01 -2.936981249972e+02 0.0 
0.0 0.0 -1.175615974638e+02 
-7.362205381161e+01 -2.461918735632e+00 0.0 
-2.461918735632e+00 -2.311488933672e+02 0.0 
0.0 0.0 -9.103128415366e+01 
-1.154483719029e+02 2.629748715199e+01 0.0 
2.629748715199e+01 -3.093935726109e+02 0.0 
0.0 0.0 -1.270525833541e+02 
-4.475016736002e+01 2.780793899075e+01 0.0 
2.780793899075e+01 -1.232921385875e+02 0.0 
0.0 0.0 -5.001269178426e+01 
-8.204633490190e+01 2.305723213850e+01 0.0 
2.305723213850e+01 -1.284565660162e+02 0.0 
0.0 0.0 -6.275087027544e+01 
-1.267982761302e+02 2.302468395353e+01 0.0 
2.302468395353e+01 -3.336565175827e+02 0.0 
0.0 0.0 -1.377364381139e+02 
-6.439293359213e+01 7.860426728563e+00 0.0 
7.860426728563e+00 -9.269181588860e+01 0.0 
0.0 0.0 -4.672542484422e+01 
-9.904671753182e+01 3.327892968990e+01 0.0 
3.327892968990e+01 -2.010178445078e+02 0.0 
0.0 0.0 -8.961936861188e+01 
-8.115132466717e+01 1.695415942510e+01 0.0 
1.695415942510e+01 -1.296974828468e+02 0.0 
0.0 0.0 -6.285464225419e+01 
-8.539663207546e+01 2.030451724374e+01 0.0 
2.030451724374e+01 -1.433085994490e+02 0.0 
0.0 0.0 -6.821156945733e+01 
-3.341198350303e+01 2.194882343454e+01 0.0 
2.194882343454e+01 -1.273910541253e+02 0.0 
0.0 0.0 -4.779196049131e+01 
-1.304292171121e+02 2.087349258946e+00 0.0 
2.087349258946e+00 -3.297535198195e+02 0.0 
0.0 0.0 -1.376548210795e+02 
-7.499250428544e+01 1.451551617791e+01 0.0 
1.451551617791e+01 -1.184117946494e+02 0.0 
0.0 0.0 -5.762128968045e+01 
-6.318065864212e+01 1.837352698856e+01 0.0 
1.837352698856e+01 -2.189559262780e+02 0.0 
0.0 0.0 -8.424097547602e+01 
-3.243360326376e+01 2.210158465536e+01 0.0 
2.210158465536e+01 -2.387941804058e+01 0.0 
0.0 0.0 -1.649390639130e+01 
-1.342075989499e+02 2.693905519182e+01 0.0 
2.693905519182e+01 -3.399697608871e+02 0.0 
0.0 0.0 -1.418532079511e+02 
-3.111626268042e+01 8.910713791203e+00 0.0 
8.910713791203e+00 -1.515098391345e+02 0.0 
0.0 0.0 -5.438783054448e+01 
-5.258072611745e+01 -2.573904597479e+00 0.0 
-2.573904597479e+00 -1.336328345386e+02 0.0 
0.0 0.0 -5.546406819681e+01 
-1.087634126919e+02 2.270854411035e+01 0.0 
2.270854411035e+01 -3.039928046280e+02 0.0 
0.0 0.0 -1.234268651960e+02 
-2.912399891089e+01 5.357121603504e-01 0.0 
5.357121603504e-01 -8.043930259412e+01 0.0 
0.0 0.0 -3.246899045150e+01 
-6.343710254752e+01 2.640466870250e+01 0.0 
2.640466870250e+01 -1.939939146537e+02 0.0 
0.0 0.0 -7.682930516036e+01 
-1.054349554674e+02 1.593947745592e+01 0.0 
1.593947745592e+01 -3.047583130924e+02 0.0 
0.0 0.0 -1.226579805679e+02 
-8.969895041790e+01 2.214459590611e+01 0.0 
2.214459590611e+01 -1.647131280373e+02 0.0 
0.0 0.0 -7.592362353657e+01 
-9.359750498717e+01 2.566146160240e+01 0.0 
2.566146160240e+01 -1.800344801999e+02 0.0 
0.0 0.0 -8.168959555613e+01 
-1.015300750868e+02 1.771111756522e+01 0.0 
1.771111756522e+01 -2.946342715849e+02 0.0 
0.0 0.0 -1.184493040015e+02 
-8.225663808822e+01 1.601245038053e+01 0.0 
1.601245038053e+01 -1.390624727354e+02 0.0 
0.0 0.0 -6.599573324709e+01 
-5.272106491161e+01 1.533006989629e+01 0.0 
1.533006989629e+01 -1.997277259944e+02 0.0 
0.0 0.0 -7.533463727181e+01 
-9.496284206801e+01 3.379001767383e+01 0.0 
3.379001767383e+01 -2.368204577483e+02 0.0 
0.0 0.0 -9.913498994491e+01 
-3.215333033690e+01 2.157040727289e+01 0.0 
2.157040727289e+01 -2.362571478051e+01 0.0 
0.0 0.0 -1.633371353522e+01 
-1.007220638185e+02 3.449276522357e+01 0.0 
3.449276522357e+01 -2.272257470849e+02 0.0 
0.0 0.0 -9.798434327100e+01 
-3.437126829512e+01 2.173670905451e+01 0.0 
2.173670905451e+01 -2.351185041630e+01 0.0 
0.0 0.0 -1.696493561343e+01 
-3.895402666368e+01 2.216873660430e+01 0.0 
2.216873660430e+01 -2.404787043527e+01 0.0 
0.0 0.0 -1.850056912968e+01 
-6.340834992657e+01 1.301467211034e+01 0.0 
1.301467211034e+01 -2.271017725552e+02 0.0 
0.0 0.0 -8.675303674454e+01 
-5.237204642592e+01 2.237985391432e+01 0.0 
2.237985391432e+01 -2.666821258814e+01 0.0 
0.0 0.0 -2.331207770422e+01 
-7.478170463451e+01 2.526854430412e+01 0.0 
2.526854430412e+01 -2.271219211332e+02 0.0 
0.0 0.0 -9.017108773032e+01 
-5.624257894597e+01 2.236966348248e+01 0.0 
2.236966348248e+01 -1.906235411685e+02 0.0 
0.0 0.0 -7.365983603435e+01 
-6.711078595371e+01 6.280263017009e+00 0.0 
6.280263017009e+00 -2.322540187330e+02 0.0 
0.0 0.0 -8.940944140601e+01 
-3.024384919762e+01 -1.029213901442e+01 0.0 
-1.029213901442e+01 -1.399016726198e+02 0.0 
0.0 0.0 -5.028412125658e+01 
-5.991780182726e+01 9.647218889369e+00 0.0 
9.647218889369e+00 -2.217575587355e+02 0.0 
0.0 0.0 -8.410260816884e+01 
-7.865566971809e+01 1.242928920713e+01 0.0 
1.242928920713e+01 -1.462916796965e+02 0.0 
0.0 0.0 -6.708420482437e+01 
-9.916564346907e+01 3.334555472142e+01 0.0 
3.334555472142e+01 -2.148898270781e+02 0.0 
0.0 0.0 -9.381664116415e+01 
-1.205050428049e+02 9.194568167584e-01 0.0 
9.194568167584e-01 -3.109843733814e+02 0.0 
0.0 0.0 -1.290468248559e+02 
-1.201011832252e+02 2.418351014402e+01 0.0 
2.418351014402e+01 -3.214064207985e+02 0.0 
0.0 0.0 -1.320522812071e+02 
-6.898744824510e+01 -2.438102521849e+00 0.0 
-2.438102521849e+00 -2.291910709413e+02 0.0 
0.0 0.0 -8.905355575593e+01 
-8.085017682264e+01 1.703060867992e+01 0.0 
1.703060867992e+01 -1.408088252801e+02 0.0 
0.0 0.0 -6.609770063083e+01 
-6.434661480014e+01 7.248810518137e+00 0.0 
7.248810518137e+00 -2.312893027375e+02 0.0 
0.0 0.0 -8.829077526129e+01 
-1.358253312241e+02 1.892143791704e+00 0.0 
1.892143791704e+00 -3.375488354326e+02 0.0 
0.0 0.0 -1.416122499970e+02 
-7.622409842249e+01 1.374531907197e+01 0.0 
1.374531907197e+01 -1.270596318340e+02 0.0 
0.0 0.0 -6.058511907695e+01 
-8.395092650509e+01 2.159789987072e+01 0.0 
2.159789987072e+01 -1.355119439652e+02 0.0 
0.0 0.0 -6.543886114109e+01 
-9.088605147609e+01 1.156071498156e+01 0.0 
1.156071498156e+01 -2.809834748122e+02 0.0 
0.0 0.0 -1.111608578865e+02 
-5.603412608143e+01 1.238650779109e+01 0.0 
1.238650779109e+01 -2.113070861548e+02 0.0 
0.0 0.0 -7.980236367086e+01 
-1.036122935064e+02 3.492731699708e+01 0.0 
3.492731699708e+01 -2.552351360261e+02 0.0 
0.0 0.0 -1.072542288597e+02 
-7.409095593855e+01 3.091834793815e+01 0.0 
3.091834793815e+01 -1.633589103703e+02 0.0 
0.0 0.0 -7.083495989266e+01 
-3.629995374446e+01 -1.476101858368e+01 0.0 
-1.476101858368e+01 -1.419664471657e+02 0.0 
0.0 0.0 -5.306604625562e+01 
-3.077795159260e+01 3.670322624914e+00 0.0 
3.670322624914e+00 -1.499624721194e+02 0.0 
0.0 0.0 -5.367791346557e+01 
-4.677678129308e+01 2.627312690973e+01 0.0 
2.627312690973e+01 -1.408680924109e+02 0.0 
0.0 0.0 -5.589346211120e+01 
-6.737206696286e+01 2.929225460857e+01 0.0 
2.929225460857e+01 -1.793160685461e+02 0.0 
0.0 0.0 -7.360644065268e+01 
-1.410511092006e+02 1.636337307523e+00 0.0 
1.636337307523e+00 -3.455782640257e+02 0.0 
0.0 0.0 -1.455888119679e+02 
-7.966465886895e+01 1.812899985604e+01 0.0 
1.812899985604e+01 -1.210147909016e+02 0.0 
0.0 0.0 -5.980383493116e+01 
-5.715587921634e+01 1.098070041288e+01 0.0 
1.098070041288e+01 -2.114743773213e+02 0.0 
0.0 0.0 -8.018907696128e+01 
-7.837288532488e+01 3.200377231777e+01 0.0 
3.200377231777e+01 -1.990132382181e+02 0.0 
0.0 0.0 -8.281583706289e+01 
-1.116673149704e+02 1.469547244295e+01 0.0 
1.469547244295e+01 -3.152967016821e+02 0.0 
0.0 0.0 -1.276892049957e+02 
-7.904059778711e+01 1.227784612034e+01 0.0 
1.227784612034e+01 -1.370958171421e+02 0.0 
0.0 0.0 -6.444092447877e+01 
-1.069470706281e+02 3.642248528205e+01 0.0 
3.642248528205e+01 -2.569705584084e+02 0.0 
0.0 0.0 -1.087752887110e+02 
-6.620398124669e+01 1.279707246099e+01 0.0 
1.279707246099e+01 -8.745780277671e+01 0.0 
0.0 0.0 -4.569853520702e+01 
-1.204894933533e+02 9.921231686888e+00 0.0 
9.921231686888e+00 -3.275126290104e+02 0.0 
0.0 0.0 -1.340006367091e+02 
-6.994332700988e+01 9.885601321355e+00 0.0 
9.885601321355e+00 -2.384745749890e+02 0.0 
0.0 0.0 -9.212537059968e+01 
-1.141266777663e+02 1.520750011202e+01 0.0 
1.520750011202e+01 -3.164140073794e+02 0.0 
0.0 0.0 -1.287622055437e+02 
-6.374586355639e+01 2.607723940105e+01 0.0 
2.607723940105e+01 -1.940547707487e+02 0.0 
0.0 0.0 -7.694019029152e+01 
-8.700792424917e+01 1.805133864664e+01 0.0 
1.805133864664e+01 -1.607247186212e+02 0.0 
0.0 0.0 -7.391979286110e+01 
-1.114677697156e+02 3.834877463829e+01 0.0 
3.834877463829e+01 -2.605036994970e+02 0.0 
0.0 0.0 -1.111914407638e+02 
-8.143411710303e+01 1.005994103431e+01 0.0 
1.005994103431e+01 -2.641078747997e+02 0.0 
0.0 0.0 -1.032625975708e+02 
-2.919799037335e+01 2.709134696802e+00 0.0 
2.709134696802e+00 -1.471018800258e+02 0.0 
0.0 0.0 -5.235474891953e+01 
-1.051342402226e+02 2.913822079872e+01 0.0 
2.913822079872e+01 -2.823709558261e+02 0.0 
0.0 0.0 -1.158515588146e+02 
-7.075031376039e+01 2.674774239183e+01 0.0 
2.674774239183e+01 -2.116153223973e+02 0.0 
0.0 0.0 -8.430969084730e+01 
-5.294806359044e+01 1.388791411612e+01 0.0 
1.388791411612e+01 -1.995017768514e+02 0.0 
0.0 0.0 -7.533495213254e+01 
-8.766481945559e+01 1.305634247655e+01 0.0 
1.305634247655e+01 -2.717215313423e+02 0.0 
0.0 0.0 -1.074159052394e+02 
-1.186645809770e+02 8.271109164472e+00 0.0 
8.271109164472e+00 -3.197254468080e+02 0.0 
0.0 0.0 -1.311170083355e+02 
-3.065169359408e+01 -3.303074397499e+00 0.0 
-3.303074397499e+00 -1.462805197692e+02 0.0 
0.0 0.0 -5.236230196204e+01 
-7.259512591172e+01 8.621606342956e+00 0.0 
8.621606342956e+00 -2.475284725755e+02 0.0 
0.0 0.0 -9.563707954618e+01 
-7.691195482931e+01 2.946875814105e+01 0.0 
2.946875814105e+01 -1.467612162533e+02 0.0 
0.0 0.0 -6.670195132478e+01 
-1.423048452950e+02 3.111208883766e+00 0.0 
3.111208883766e+00 -3.464060453647e+02 0.0 
0.0 0.0 -1.462132671979e+02 
-8.067169493566e+01 3.077587622892e+01 0.0 
3.077587622892e+01 -1.655707204601e+02 0.0 
0.0 0.0 -7.347272461874e+01 
-9.973540184612e+01 2.993205374601e+01 0.0 
2.993205374601e+01 -2.670391694446e+02 0.0 
0.0 0.0 -1.096323713872e+02 
-7.308665913830e+01 2.775618519750e+01 0.0 
2.775618519750e+01 -1.277594795798e+02 0.0 
0.0 0.0 -5.985384161543e+01 
-6.440880130760e+01 2.257706899055e+01 0.0 
2.257706899055e+01 -8.905831608246e+01 0.0 
0.0 0.0 -4.564013521702e+01 
-7.782273996271e+01 3.126146576993e+01 0.0 
3.126146576993e+01 -1.817948339696e+02 0.0 
0.0 0.0 -7.748527217971e+01 
-1.150682657403e+02 2.144880810430e+01 0.0 
2.144880810430e+01 -3.163794018710e+02 0.0 
0.0 0.0 -1.290343002834e+02 
-1.272012587868e+02 3.539811382024e+00 0.0 
3.539811382024e+00 -3.232843099462e+02 0.0 
0.0 0.0 -1.347456706199e+02 
-7.354384518858e+01 1.561685483917e+01 0.0 
1.561685483917e+01 -1.105053358466e+02 0.0 
0.0 0.0 -5.481475431054e+01 
-8.992343294514e+01 2.285378642111e+01 0.0 
2.285378642111e+01 -1.779679201253e+02 0.0 
0.0 0.0 -7.996740592113e+01 
-6.912110303673e+01 2.552579636774e+01 0.0 
2.552579636774e+01 -1.086496480907e+02 0.0 
0.0 0.0 -5.293122533824e+01 
-4.348995928976e+01 9.537417753345e+00 0.0 
9.537417753345e+00 -1.806173260029e+02 0.0 
0.0 0.0 -6.683218558780e+01 
-1.110796147754e+02 3.248224203045e+01 0.0 
3.248224203045e+01 -2.860648429784e+02 0.0 
0.0 0.0 -1.187433373262e+02 
-8.427369769833e+01 1.440400242126e+01 0.0 
1.440400242126e+01 -1.587544492544e+02 0.0 
0.0 0.0 -7.250844408582e+01 
-6.338974310924e+01 2.275063149818e+01 0.0 
2.275063149818e+01 -2.076801406481e+02 0.0 
0.0 0.0 -8.092096512721e+01 
-6.707124503286e+01 2.462086922287e+01 0.0 
2.462086922287e+01 -2.097251340253e+02 0.0 
0.0 0.0 -8.263891371744e+01 
-5.003534245436e+01 1.012445792767e+01 0.0 
1.012445792767e+01 -1.958238215294e+02 0.0 
0.0 0.0 -7.335774919514e+01 
-7.835932909684e+01 1.927070751946e+01 0.0 
1.927070751946e+01 -1.261713451065e+02 0.0 
0.0 0.0 -6.095920226101e+01 
-4.926907233445e+01 2.830885839379e+01 0.0 
2.830885839379e+01 -1.237335918661e+02 0.0 
0.0 0.0 -5.150079926016e+01 
-7.861547820913e+01 2.341696027811e+01 0.0 
2.341696027811e+01 -2.414943664529e+02 0.0 
0.0 0.0 -9.563295339861e+01 
-4.954280572719e+01 2.929755311708e+01 0.0 
2.929755311708e+01 -1.240423216399e+02 0.0 
0.0 0.0 -5.167553821013e+01 
-1.040855972498e+02 2.008293537335e+01 0.0 
2.008293537335e+01 -2.990957694350e+02 0.0 
0.0 0.0 -1.205544100055e+02 
-1.216031992084e+02 3.394989381924e+01 0.0 
3.394989381924e+01 -3.036693173529e+02 0.0 
0.0 0.0 -1.271817549684e+02 
-5.446746633492e+01 7.079872142026e+00 0.0 
7.079872142026e+00 -2.066041915583e+02 0.0 
0.0 0.0 -7.792149736796e+01 
-2.701021532325e+01 -6.923315965307e+00 0.0 
-6.923315965307e+00 -1.260506925393e+02 0.0 
0.0 0.0 -4.711211483370e+01 
-9.287593009594e+01 2.705125767439e+01 0.0 
2.705125767439e+01 -1.874703279367e+02 0.0 
0.0 0.0 -8.370387740979e+01 
-5.178460871373e+01 2.875601092262e+01 0.0 
2.875601092262e+01 -1.238436391284e+02 0.0 
0.0 0.0 -5.228847435264e+01 
-7.154369589310e+01 5.437513736103e-01 0.0 
5.437513736103e-01 -2.392319637168e+02 0.0 
0.0 0.0 -9.283269788296e+01 
-1.153374116732e+02 3.064064849169e+01 0.0 
3.064064849169e+01 -3.005571307082e+02 0.0 
0.0 0.0 -1.243683627144e+02 
-7.785956171698e+01 1.954483842703e+01 0.0 
1.954483842703e+01 -1.130104751782e+02 0.0 
0.0 0.0 -5.686101106855e+01 
-1.218445292232e+02 3.628661353494e+00 0.0 
3.628661353494e+00 -3.156235602076e+02 0.0 
0.0 0.0 -1.308404268293e+02 
-5.276912248299e+01 1.986718474043e+01 0.0 
1.986718474043e+01 -1.886572180018e+02 0.0 
0.0 0.0 -7.202790214544e+01 
-2.603830922630e+01 -3.848184087650e+00 0.0 
-3.848184087650e+00 -1.242928340273e+02 0.0 
0.0 0.0 -4.721786080239e+01 
-1.471506937298e+02 2.904682587774e+00 0.0 
2.904682587774e+00 -3.553780890316e+02 0.0 
0.0 0.0 -1.503586348284e+02 
-7.086909522801e+01 2.862894319822e+01 0.0 
2.862894319822e+01 -1.965404991982e+02 0.0 
0.0 0.0 -7.982287832786e+01 
-9.415354847225e+01 2.332285079947e+01 0.0 
2.332285079947e+01 -2.737887382164e+02 0.0 
0.0 0.0 -1.099826860066e+02 
-1.075784694154e+02 3.361471591193e+01 0.0 
3.361471591193e+01 -2.716104044498e+02 0.0 
0.0 0.0 -1.133566621595e+02 
-4.124699245588e+01 -1.028566425018e+00 0.0 
-1.028566425018e+00 -1.239264210971e+02 0.0 
0.0 0.0 -5.140549829058e+01 
-1.191581426826e+02 2.426617991250e+00 0.0 
2.426617991250e+00 -3.142190782932e+02 0.0 
0.0 0.0 -1.296131662927e+02 
-3.680835247631e+01 2.154149752224e+01 0.0 
2.154149752224e+01 -1.383595060876e+02 0.0 
0.0 0.0 -5.215035756917e+01 
-7.143831566296e+01 1.720166386592e+01 0.0 
1.720166386592e+01 -9.039935026572e+01 0.0 
0.0 0.0 -4.815129977860e+01 
-9.635502848594e+01 -1.834611869343e+00 0.0 
-1.834611869343e+00 -2.553910099302e+02 0.0 
0.0 0.0 -1.051238115249e+02 
-5.271505476395e+01 8.811210838103e+00 0.0 
8.811210838103e+00 -2.062741734011e+02 0.0 
0.0 0.0 -7.729676844952e+01 
-1.373762211714e+02 3.266730145641e+00 0.0 
3.266730145641e+00 -3.385095390640e+02 0.0 
0.0 0.0 -1.423657280706e+02 
-7.456158247932e+01 2.493048075601e+01 0.0 
2.493048075601e+01 -2.269549345851e+02 0.0 
0.0 0.0 -9.005495511933e+01 
-4.615230043400e+01 8.224231918671e+00 0.0 
8.224231918671e+00 -1.913313681000e+02 0.0 
0.0 0.0 -7.084510056019e+01 
-7.462113632338e+01 3.086262460017e+01 0.0 
3.086262460017e+01 -1.979427149237e+02 0.0 
0.0 0.0 -8.136915537413e+01 
-3.193814086117e+01 -1.969497604698e+01 0.0 
-1.969497604698e+01 -1.211234541224e+02 0.0 
0.0 0.0 -4.702682512823e+01 
-9.094441951035e+01 3.234879267727e+01 0.0 
3.234879267727e+01 -2.350767255613e+02 0.0 
0.0 0.0 -9.740634352149e+01 
-1.059360837471e+02 2.063787297937e+01 0.0 
2.063787297937e+01 -2.999993176665e+02 0.0 
0.0 0.0 -1.213806204241e+02 
-1.130247112422e+02 3.809194726875e+01 0.0 
3.809194726875e+01 -2.596261780054e+02 0.0 
0.0 0.0 -1.113952667743e+02 
-9.990778275915e+01 3.345995496260e+01 0.0 
3.345995496260e+01 -2.537787586813e+02 0.0 
0.0 0.0 -1.057059624321e+02 
-3.549162746429e+01 4.098436415638e+00 0.0 
4.098436415638e+00 -1.629316143808e+02 0.0 
0.0 0.0 -5.912697255354e+01 
-1.228500176703e+02 2.289324818725e+00 0.0 
2.289324818725e+00 -3.122862464381e+02 0.0 
0.0 0.0 -1.301408792325e+02 
-8.352139152724e+01 1.468441179445e+01 0.0 
1.468441179445e+01 -1.679087582534e+02 0.0 
0.0 0.0 -7.502904493418e+01 
-1.391949007936e+02 2.969208436811e+01 0.0 
2.969208436811e+01 -3.438187062347e+02 0.0 
0.0 0.0 -1.445040821085e+02 
-1.106000232157e+02 2.349918070050e+01 0.0 
2.349918070050e+01 -3.049405776493e+02 0.0 
0.0 0.0 -1.242621802595e+02 
-5.617608142502e+01 1.717973941422e+01 0.0 
1.717973941422e+01 -2.025818584277e+02 0.0 
0.0 0.0 -7.722738195583e+01 
-8.249306106385e+01 3.150245103849e+01 0.0 
3.150245103849e+01 -2.164188730011e+02 0.0 
0.0 0.0 -8.927358021948e+01 
-1.407529112984e+02 6.770409284374e-01 0.0 
6.770409284374e-01 -3.422062109898e+02 0.0 
0.0 0.0 -1.444877366865e+02 
-9.267471074892e+01 -2.410181356564e-01 0.0 
-2.410181356564e-01 -2.319571112918e+02 0.0 
0.0 0.0 -9.698954661221e+01 
-9.478610335032e+01 3.051069795468e+01 0.0 
3.051069795468e+01 -2.511099005606e+02 0.0 
0.0 0.0 -1.033688011733e+02 
-6.809552679097e+01 1.174379383496e+01 0.0 
1.174379383496e+01 -9.577654007175e+01 0.0 
0.0 0.0 -4.876162005882e+01 
-1.323706986095e+02 3.427224246268e+00 0.0 
3.427224246268e+00 -3.308707454135e+02 0.0 
0.0 0.0 -1.385724332069e+02 
-1.261426233206e+02 5.287524634086e+00 0.0 
5.287524634086e+00 -3.261824551889e+02 0.0 
0.0 0.0 -1.352975235528e+02 
-2.301228390822e+01 1.960698961103e-02 0.0 
1.960698961103e-02 -8.308913420208e+00 0.0 
0.0 0.0 -8.996359198528e+00 
-2.296171516819e+01 -3.085931495200e-02 0.0 
-3.085931495200e-02 -8.294403059591e+00 0.0 
0.0 0.0 -8.976835468335e+00 
-8.130610289348e+01 3.183072198404e+01 0.0 
3.183072198404e+01 -1.501276123025e+02 0.0 
0.0 0.0 -6.903011455880e+01 
-8.631491291433e+01 2.965441007093e+01 0.0 
2.965441007093e+01 -2.328168268712e+02 0.0 
0.0 0.0 -9.533952193566e+01 
-1.010482746241e+02 -1.194313898301e+00 0.0 
-1.194313898301e+00 -2.628298454108e+02 0.0 
0.0 0.0 -1.087634360105e+02 
-8.183091761517e+01 3.360701015832e+01 0.0 
3.360701015832e+01 -1.834231038642e+02 0.0 
0.0 0.0 -7.917620644382e+01 
-7.067714922220e+01 2.295617558079e+01 0.0 
2.295617558079e+01 -2.245162159545e+02 0.0 
0.0 0.0 -8.815800955302e+01 
-1.297570951508e+02 1.511475758215e+01 0.0 
1.511475758215e+01 -3.416693136192e+02 0.0 
0.0 0.0 -1.410279226310e+02 
-5.620921289322e+01 1.817145748890e+01 0.0 
1.817145748890e+01 -2.028081855806e+02 0.0 
0.0 0.0 -7.730521954214e+01 
-9.814105085791e+01 2.624702770098e+01 0.0 
2.624702770098e+01 -2.154918191841e+02 0.0 
0.0 0.0 -9.368986101260e+01 
-5.819311043711e+01 2.153255520438e+01 0.0 
2.153255520438e+01 -6.726072086958e+01 0.0 
0.0 0.0 -3.723614939201e+01 
-6.697135657261e+01 2.479792724000e+01 0.0 
2.479792724000e+01 -2.097215133604e+02 0.0 
0.0 0.0 -8.260786097991e+01 
-9.322682241058e+01 -3.320087631422e+00 0.0 
-3.320087631422e+00 -2.537238226622e+02 0.0 
0.0 0.0 -1.036851935218e+02 
-3.225619132268e+01 9.614397191579e+00 0.0 
9.614397191579e+00 -1.518333935923e+02 0.0 
0.0 0.0 -5.482687547448e+01 
-8.367605059962e+01 -4.193264144229e+00 0.0 
-4.193264144229e+00 -2.288167480772e+02 0.0 
0.0 0.0 -9.334783960304e+01 
-7.831516159852e+01 2.905073124947e+01 0.0 
2.905073124947e+01 -2.146214120953e+02 0.0 
0.0 0.0 -8.748097210813e+01 
-7.081566621958e+01 3.013758404110e+01 0.0 
3.013758404110e+01 -1.800964169565e+02 0.0 
0.0 0.0 -7.487362495282e+01 
-7.189970177716e+01 1.701476513712e+01 0.0 
1.701476513712e+01 -1.034522896833e+02 0.0 
0.0 0.0 -5.220559743813e+01 
-8.512902290770e+01 3.199441407512e+01 0.0 
3.199441407512e+01 -2.009628137855e+02 0.0 
0.0 0.0 -8.542755100798e+01 
-8.947168754264e+01 3.444558810725e+01 0.0 
3.444558810725e+01 -2.030200013958e+02 0.0 
0.0 0.0 -8.734750668153e+01 
-1.910035091079e+01 -3.534308912945e-01 0.0 
-3.534308912945e-01 -5.934185505768e+01 0.0 
0.0 0.0 -2.313266179054e+01 
-7.730828909021e+01 -6.359616926483e+00 0.0 
-6.359616926483e+00 -2.147914214678e+02 0.0 
0.0 0.0 -8.722991316741e+01 
-5.206348252733e+01 3.000794939373e+01 0.0 
3.000794939373e+01 -1.241712353317e+02 0.0 
0.0 0.0 -5.247041535770e+01 
-7.742261949030e+01 3.094118501324e+01 0.0 
3.094118501324e+01 -1.642505642402e+02 0.0 
0.0 0.0 -7.210195511914e+01 
-8.155552188481e+01 3.332680739831e+01 0.0 
3.332680739831e+01 -1.666695297014e+02 0.0 
0.0 0.0 -7.406751547585e+01 
-1.214041232905e+02 2.012460781286e+01 0.0 
2.012460781286e+01 -3.275489678378e+02 0.0 
0.0 0.0 -1.342859273385e+02 
-3.331452074201e+01 -1.195894981726e+00 0.0 
-1.195894981726e+00 -8.970975227605e+01 0.0 
0.0 0.0 -3.650728190542e+01 
-3.159290907072e+01 -1.080241420003e+01 0.0 
-1.080241420003e+01 -1.394917739270e+02 0.0 
0.0 0.0 -5.134205819902e+01 
-6.728349415777e+01 2.743472163287e+01 0.0 
2.743472163287e+01 -1.953529232787e+02 0.0 
0.0 0.0 -7.839092523093e+01 
-8.050895339571e+01 -4.710247246156e+00 0.0 
-4.710247246156e+00 -2.165043750447e+02 0.0 
0.0 0.0 -8.870399853212e+01 
-4.091405372645e+01 2.566080136341e+01 0.0 
2.566080136341e+01 -2.590229772121e+01 0.0 
0.0 0.0 -1.964490543430e+01 
-4.392057169819e+01 2.554015496366e+01 0.0 
2.554015496366e+01 -2.370771231994e+01 0.0 
0.0 0.0 -1.988848520544e+01 
-7.565366860376e+01 2.122219182976e+01 0.0 
2.122219182976e+01 -1.057565039371e+02 0.0 
0.0 0.0 -5.402305176227e+01 
-3.045536509633e+01 2.233205666474e+01 0.0 
2.233205666474e+01 -1.069374261546e+02 0.0 
0.0 0.0 -4.071488285842e+01 
-8.997703444341e+01 -4.087598815684e+00 0.0 
-4.087598815684e+00 -2.419753921027e+02 0.0 
0.0 0.0 -9.918572796384e+01 
-1.099211377236e+02 1.238608694774e+01 0.0 
1.238608694774e+01 -3.092513696434e+02 0.0 
0.0 0.0 -1.253517522101e+02 
-2.793542054406e+01 -4.454845301809e+00 0.0 
-4.454845301809e+00 -1.396520889350e+02 0.0 
0.0 0.0 -5.098115013221e+01 
-1.298394123737e+02 3.653948057600e+01 0.0 
3.653948057600e+01 -3.113937491476e+02 0.0 
0.0 0.0 -1.319699484564e+02 
-8.605759123837e+01 1.897378511907e+01 0.0 
1.897378511907e+01 -1.512748641142e+02 0.0 
0.0 0.0 -7.079973660577e+01 
-8.910688341972e+01 -2.767656485151e+00 0.0 
-2.767656485151e+00 -2.314684052247e+02 0.0 
0.0 0.0 -9.577258659334e+01 
-1.258890450412e+02 9.223854036731e-01 0.0 
9.223854036731e-01 -3.187458738085e+02 0.0 
0.0 0.0 -1.329904756549e+02 
-1.290118691520e+01 -1.030922621197e+00 0.0 
-1.030922621197e+00 -4.254261889556e+01 0.0 
0.0 0.0 -1.623314174323e+01 
-1.059030829092e+02 9.560266733751e+00 0.0 
9.560266733751e+00 -3.013489801748e+02 0.0 
0.0 0.0 -1.217756189252e+02 
-7.084294045769e+01 2.954903730129e+01 0.0 
2.954903730129e+01 -1.967219756450e+02 0.0 
0.0 0.0 -7.986947483079e+01 
-1.249561064823e+01 -8.526539168987e-01 0.0 
-8.526539168987e-01 -4.243432896950e+01 0.0 
0.0 0.0 -1.607898188532e+01 
-8.161923913017e+01 1.621807607233e+01 0.0 
1.621807607233e+01 -1.490290827848e+02 0.0 
0.0 0.0 -6.879449657449e+01 
-2.808626249185e+01 -4.628642389491e+00 0.0 
-4.628642389491e+00 -1.349682356629e+02 0.0 
0.0 0.0 -4.971022364787e+01 
-7.797409812097e+01 3.319308709016e+01 0.0 
3.319308709016e+01 -1.649769979621e+02 0.0 
0.0 0.0 -7.248532882493e+01 
-7.091642241293e+01 3.143549866860e+01 0.0 
3.143549866860e+01 -1.803894683140e+02 0.0 
0.0 0.0 -7.499176721809e+01 
-7.018980979446e+01 1.206684225764e+00 0.0 
1.206684225764e+00 -2.332436080559e+02 0.0 
0.0 0.0 -9.063002535511e+01 
-9.158105165866e+01 1.289384353937e+00 0.0 
1.289384353937e+00 -2.721727510466e+02 0.0 
0.0 0.0 -1.087261408116e+02 
-8.568246056570e+01 1.945959635940e+01 0.0 
1.945959635940e+01 -1.627587712925e+02 0.0 
0.0 0.0 -7.413236955746e+01 
-1.010931330267e+02 3.233228195484e+00 0.0 
3.233228195484e+00 -2.903554320393e+02 0.0 
0.0 0.0 -1.170345695198e+02 
-7.079760074397e+01 2.626735680180e+01 0.0 
2.626735680180e+01 -2.115311500691e+02 0.0 
0.0 0.0 -8.429862524392e+01 
-6.710936090038e+01 2.807156685721e+01 0.0 
2.807156685721e+01 -1.954134221852e+02 0.0 
0.0 0.0 -7.835683492566e+01 
-4.213379081918e+01 3.031615090890e+01 0.0 
3.031615090890e+01 -2.927027263459e+01 0.0 
0.0 0.0 -2.088969862474e+01 
-2.606235024711e+01 -4.586224861036e+00 0.0 
-4.586224861036e+00 -1.301208253277e+02 0.0 
0.0 0.0 -4.818462627547e+01 
-1.051865279119e+02 3.302226730616e+01 0.0 
3.302226730616e+01 -2.702032066616e+02 0.0 
0.0 0.0 -1.122169203720e+02 
-6.984373988338e+01 2.533037723251e+01 0.0 
2.533037723251e+01 -9.425267220963e+01 0.0 
0.0 0.0 -4.882892362790e+01 
-1.090613960752e+02 3.137818664827e+01 0.0 
3.137818664827e+01 -2.849262454356e+02 0.0 
0.0 0.0 -1.177962924533e+02 
-3.949178888418e+01 2.312663182110e+01 0.0 
2.312663182110e+01 -1.398407649364e+02 0.0 
0.0 0.0 -5.339976614617e+01 
-8.869291818880e+01 2.922155279713e+01 0.0 
2.922155279713e+01 -1.737064026883e+02 0.0 
0.0 0.0 -7.831979626314e+01 
-1.092257601552e+02 3.495659537259e+01 0.0 
3.495659537259e+01 -2.724543234206e+02 0.0 
0.0 0.0 -1.141040250727e+02 
-5.053130766705e+01 2.273005407892e+01 0.0 
2.273005407892e+01 -4.543312953776e+01 0.0 
0.0 0.0 -2.838933116144e+01 
-1.037802842509e+02 3.161094880200e+01 0.0 
3.161094880200e+01 -2.692567756166e+02 0.0 
0.0 0.0 -1.115111179603e+02 
-1.278514880038e+02 2.341764728043e+00 0.0 
2.341764728043e+00 -3.198984690913e+02 0.0 
0.0 0.0 -1.339249871285e+02 
-8.235973348462e+01 2.820698354814e+01 0.0 
2.820698354814e+01 -2.309655122916e+02 0.0 
0.0 0.0 -9.359757373286e+01 
-8.504671148481e+01 -4.854201865395e+00 0.0 
-4.854201865395e+00 -2.343753121396e+02 0.0 
0.0 0.0 -9.542660708733e+01 
-9.156615851756e+01 -2.532027340648e+00 0.0 
-2.532027340648e+00 -2.480437608071e+02 0.0 
0.0 0.0 -1.014829757974e+02 
-9.744219738498e+01 3.033527878979e+01 0.0 
3.033527878979e+01 -1.907792820737e+02 0.0 
0.0 0.0 -8.606644383760e+01 
-8.273193345746e+01 -7.524021477948e-01 0.0 
-7.524021477948e-01 -2.541497447008e+02 0.0 
0.0 0.0 -1.006645034475e+02 
-7.449116673154e+01 2.970161178862e+01 0.0 
2.970161178862e+01 -1.976605238726e+02 0.0 
0.0 0.0 -8.124550718124e+01 
-7.081278571184e+01 1.881882533419e+01 0.0 
1.881882533419e+01 -2.353544870382e+02 0.0 
0.0 0.0 -9.145018182502e+01 
-1.113466026744e+02 5.075865698585e+00 0.0 
5.075865698585e+00 -3.086420665146e+02 0.0 
0.0 0.0 -1.255966007567e+02 
-6.323003935788e+01 2.256841755378e+01 0.0 
2.256841755378e+01 -2.075743334348e+02 0.0 
0.0 0.0 -8.084131183782e+01 
-3.752002534415e+01 3.132685993463e+00 0.0 
3.132685993463e+00 -1.716282045753e+02 0.0 
0.0 0.0 -6.234446897584e+01 
-7.778786389626e+01 6.897524497565e+00 0.0 
6.897524497565e+00 -2.566678140865e+02 0.0 
0.0 0.0 -9.993670339484e+01 
-4.030925758051e+01 7.959055648140e+00 0.0 
7.959055648140e+00 -1.770819422087e+02 0.0 
0.0 0.0 -6.481735993676e+01 
-8.116571384050e+01 3.163863962048e+01 0.0 
3.163863962048e+01 -1.827389503125e+02 0.0 
0.0 0.0 -7.877139924590e+01 
-4.128474125795e+01 4.854727054524e+00 0.0 
4.854727054524e+00 -1.768045330452e+02 0.0 
0.0 0.0 -6.502678229096e+01 
-7.824513282491e+01 3.310809098913e+01 0.0 
3.310809098913e+01 -1.823332046607e+02 0.0 
0.0 0.0 -7.777350124568e+01 
-1.168973996055e+02 2.221530503744e+01 0.0 
2.221530503744e+01 -3.173233578168e+02 0.0 
0.0 0.0 -1.298662272267e+02 
-1.101441141237e+02 1.870682141464e+01 0.0 
1.870682141464e+01 -3.108100784627e+02 0.0 
0.0 0.0 -1.258862577759e+02 
-5.976169110059e+01 2.062750659134e+01 0.0 
2.062750659134e+01 -2.054091908610e+02 0.0 
0.0 0.0 -7.915126458849e+01 
-6.998611605596e+01 1.870008913986e+01 0.0 
1.870008913986e+01 -9.762096109460e+01 0.0 
0.0 0.0 -4.988212314517e+01 
-1.311227604967e+02 8.814695150784e-01 0.0 
8.814695150784e-01 -3.265837700076e+02 0.0 
0.0 0.0 -1.369119591513e+02 
-1.326988946134e+02 2.333916061261e+00 0.0 
2.333916061261e+00 -3.275851348060e+02 0.0 
0.0 0.0 -1.376852088258e+02 
-3.401440137979e+01 2.536405755018e+01 0.0 
2.536405755018e+01 -9.036958124949e+01 0.0 
0.0 0.0 -3.639796277522e+01 
-8.160060212577e+01 3.137076746751e+01 0.0 
3.137076746751e+01 -1.996934635122e+02 0.0 
0.0 0.0 -8.398821969140e+01 
-1.465990382387e+02 1.179342550631e+00 0.0 
1.179342550631e+00 -3.545840347504e+02 0.0 
0.0 0.0 -1.499549218967e+02 
-3.975691164161e+01 2.650351960737e+01 0.0 
2.650351960737e+01 -6.646834141753e+01 0.0 
0.0 0.0 -3.146757591774e+01 
-9.719408644637e+01 -1.700143749198e+00 0.0 
-1.700143749198e+00 -2.509651564334e+02 0.0 
0.0 0.0 -1.040477728639e+02 
-4.486176706666e+01 2.996262514260e+01 0.0 
2.996262514260e+01 -2.969456551322e+01 0.0 
0.0 0.0 -2.121704298417e+01 
-1.361581936588e+02 7.958399162553e-01 0.0 
7.958399162553e-01 -3.344723853182e+02 0.0 
0.0 0.0 -1.407891736931e+02 
-3.528054407406e+01 8.138494805838e+00 0.0 
8.138494805838e+00 -1.637352703066e+02 0.0 
0.0 0.0 -5.930474431418e+01 
-9.514737220194e+01 -1.434255896311e+00 0.0 
-1.434255896311e+00 -2.377460883923e+02 0.0 
0.0 0.0 -9.946803817827e+01 
-9.233224550066e+01 2.277147622067e+01 0.0 
2.277147622067e+01 -2.729192883094e+02 0.0 
0.0 0.0 -1.091754601430e+02 
-7.330071476344e+01 2.300109185679e+01 0.0 
2.300109185679e+01 -9.982939852384e+01 0.0 
0.0 0.0 -5.153903398618e+01 
-6.817851996061e+01 2.069427747659e+01 0.0 
2.069427747659e+01 -9.268074668152e+01 0.0 
0.0 0.0 -4.785777999264e+01 
-7.454203499889e+01 2.774244789653e+01 0.0 
2.774244789653e+01 -2.131309479835e+02 0.0 
0.0 0.0 -8.590189489471e+01 
-3.771705405771e+01 2.484194425721e+01 0.0 
2.484194425721e+01 -2.635837149311e+01 0.0 
0.0 0.0 -1.882262766525e+01 
-3.871460625214e+01 2.507253802339e+01 0.0 
2.507253802339e+01 -2.610597432655e+01 0.0 
0.0 0.0 -1.904617417361e+01 
-1.373077042924e+02 2.221501028153e+00 0.0 
2.221501028153e+00 -3.352939694586e+02 0.0 
0.0 0.0 -1.413805021253e+02 
-9.874884467667e+01 4.325470099771e+00 0.0 
4.325470099771e+00 -2.837164027669e+02 0.0 
0.0 0.0 -1.143395742331e+02 
-7.819444114318e+01 3.380400620324e+00 0.0 
3.380400620324e+00 -2.498752870894e+02 0.0 
0.0 0.0 -9.802091846977e+01 
-1.027199138155e+02 9.053006551776e+00 0.0 
9.053006551776e+00 -2.999044202777e+02 0.0 
0.0 0.0 -1.203873002280e+02 
-6.924174901274e+01 5.266273882834e+00 0.0 
5.266273882834e+00 -2.401174942592e+02 0.0 
0.0 0.0 -9.240777298159e+01 
-3.753980092803e+01 9.305393104414e+00 0.0 
9.305393104414e+00 -1.659488042340e+02 0.0 
0.0 0.0 -6.064658154860e+01 
-3.285534976725e+01 2.146108093700e+01 0.0 
2.146108093700e+01 -2.321708465971e+01 0.0 
0.0 0.0 -1.642173032809e+01 
-6.255810962333e+01 2.371304552152e+01 0.0 
2.371304552152e+01 -7.174185749971e+01 0.0 
0.0 0.0 -3.988999013691e+01 
-2.295662163824e+01 -1.739090665509e-03 0.0 
-1.739090665509e-03 -8.348960327641e+00 0.0 
0.0 0.0 -8.991674589763e+00 
-1.121202197600e+02 1.932625419554e+01 0.0 
1.932625419554e+01 -3.117744851924e+02 0.0 
0.0 0.0 -1.267684114857e+02 
-5.962196860557e+01 2.004280967404e+01 0.0 
2.004280967404e+01 -2.052285865299e+02 0.0 
0.0 0.0 -7.905516654065e+01 
-1.316965531999e+02 2.582214576776e+01 0.0 
2.582214576776e+01 -3.385972871879e+02 0.0 
0.0 0.0 -1.406881521163e+02 
-1.360545548389e+02 -5.659500908639e-01 0.0 
-5.659500908639e-01 -3.293738196575e+02 0.0 
0.0 0.0 -1.392285123489e+02 
-7.534531887853e+01 8.062503915062e+00 0.0 
8.062503915062e+00 -2.485669739907e+02 0.0 
0.0 0.0 -9.677368786078e+01 
-1.525661056849e+02 3.659011656436e+00 0.0 
3.659011656436e+00 -3.658426338103e+02 0.0 
0.0 0.0 -1.551226218486e+02 
-4.583148572564e+01 1.229985471659e+00 0.0 
1.229985471659e+00 -1.860512143353e+02 0.0 
0.0 0.0 -6.916481001828e+01 
-1.245521664122e+02 2.688694992643e+01 0.0 
2.688694992643e+01 -3.253912931321e+02 0.0 
0.0 0.0 -1.345830378633e+02 
-7.461861925249e+01 2.850102969917e+01 0.0 
2.850102969917e+01 -2.133268684774e+02 0.0 
0.0 0.0 -8.598364631897e+01 
-8.668550019613e+01 2.718900759773e+01 0.0 
2.718900759773e+01 -2.466239499643e+02 0.0 
0.0 0.0 -9.959283504813e+01 
-1.275671662181e+02 1.324659508485e+01 0.0 
1.324659508485e+01 -3.366040523683e+02 0.0 
0.0 0.0 -1.388513655759e+02 
-6.525029802268e+01 -8.665004298833e+00 0.0 
-8.665004298833e+00 -1.832804271226e+02 0.0 
0.0 0.0 -7.415921754358e+01 
-7.805254322469e+01 3.065557303142e+01 0.0 
3.065557303142e+01 -1.986568498250e+02 0.0 
0.0 0.0 -8.261281791491e+01 
-7.257451341542e+01 4.600215607713e+00 0.0 
4.600215607713e+00 -2.413847010079e+02 0.0 
0.0 0.0 -9.378776432700e+01 
-7.453575672115e+01 3.235763794424e+01 0.0 
3.235763794424e+01 -1.812695596395e+02 0.0 
0.0 0.0 -7.634159490818e+01 
-3.973263746888e+01 2.345531743062e+01 0.0 
2.345531743062e+01 -1.383824926917e+02 0.0 
0.0 0.0 -5.303453904818e+01 
-9.115296366703e+01 2.616840056756e+01 0.0 
2.616840056756e+01 -2.615008705573e+02 0.0 
0.0 0.0 -1.053961502673e+02 
-6.625565461444e+01 1.836569124990e+00 0.0 
1.836569124990e+00 -2.317223303378e+02 0.0 
0.0 0.0 -8.899339548567e+01 
-9.831281516928e+01 -2.745515565992e+00 0.0 
-2.745515565992e+00 -2.613041249657e+02 0.0 
0.0 0.0 -1.074850820405e+02 
-7.432150638622e+01 3.077320143960e+01 0.0 
3.077320143960e+01 -1.808755360047e+02 0.0 
0.0 0.0 -7.615911271726e+01 
-4.562520544285e+01 3.633533430026e+01 0.0 
3.633533430026e+01 -5.620756226767e+01 0.0 
0.0 0.0 -3.027690073019e+01 
-7.919081246602e+01 1.948799102041e+01 0.0 
1.948799102041e+01 -2.521788327454e+02 0.0 
0.0 0.0 -9.901089356342e+01 
-4.159608113959e+01 3.004109834032e+01 0.0 
3.004109834032e+01 -4.924763306774e+01 0.0 
0.0 0.0 -2.532733987690e+01 
-2.484022712208e+01 -4.056089009161e+00 0.0 
-4.056089009161e+00 -6.413756028176e+01 0.0 
0.0 0.0 -2.629333622115e+01 
-9.475111498152e+01 -3.371064780878e+00 0.0 
-3.371064780878e+00 -2.495140864280e+02 0.0 
0.0 0.0 -1.028795604229e+02 
-9.874974605865e+01 3.500411810182e+01 0.0 
3.500411810182e+01 -2.384773440910e+02 0.0 
0.0 0.0 -1.007681270449e+02 
-7.222877080021e+01 2.402153918906e+01 0.0 
2.402153918906e+01 -1.110825285472e+02 0.0 
0.0 0.0 -5.459338980421e+01 
-3.676065209366e+01 2.462234500504e+01 0.0 
2.462234500504e+01 -2.654720896923e+01 0.0 
0.0 0.0 -1.859235831887e+01 
-9.168143226101e+01 2.622730483404e+01 0.0 
2.622730483404e+01 -2.152566752757e+02 0.0 
0.0 0.0 -9.168143226101e+01 
-4.351976225949e+01 3.221392561884e+01 0.0 
3.221392561884e+01 -2.916841095098e+01 0.0 
0.0 0.0 -2.212723219718e+01 
-3.664501065927e+01 2.441272337814e+01 0.0 
2.441272337814e+01 -2.620022183345e+01 0.0 
0.0 0.0 -1.845356974781e+01 
-7.998979753601e+01 2.527473326085e+00 0.0 
2.527473326085e+00 -2.562934525635e+02 0.0 
0.0 0.0 -1.004849750299e+02 
-9.331178663272e+01 -1.917153652424e+00 0.0 
-1.917153652424e+00 -2.391380299162e+02 0.0 
0.0 0.0 -9.933494496468e+01 
-4.739132897349e+01 2.890534695650e+01 0.0 
2.890534695650e+01 -6.671175160291e+01 0.0 
0.0 0.0 -3.383092417292e+01 
-4.977107735699e+01 -5.790725155741e+00 0.0 
-5.790725155741e+00 -1.895141846569e+02 0.0 
0.0 0.0 -7.138557860418e+01 
-8.970425031242e+01 2.138751459435e+00 0.0 
2.138751459435e+00 -2.659014467170e+02 0.0 
0.0 0.0 -1.062817091088e+02 
-7.857038488764e+01 3.009437028117e+01 0.0 
3.009437028117e+01 -2.149535076933e+02 0.0 
0.0 0.0 -8.765716777429e+01 
-8.828905542400e+01 2.044689687141e+01 0.0 
2.044689687141e+01 -2.693105199283e+02 0.0 
0.0 0.0 -1.068798726057e+02 
-9.781326781622e+01 3.397633150239e+01 0.0 
3.397633150239e+01 -2.237087219866e+02 0.0 
0.0 0.0 -9.605659694085e+01 
-3.547546116340e+01 2.714281850374e+01 0.0 
2.714281850374e+01 -1.155262416720e+02 0.0 
0.0 0.0 -4.550213427729e+01 
-8.663084089121e+01 -4.537857348843e+00 0.0 
-4.537857348843e+00 -2.300273247089e+02 0.0 
0.0 0.0 -9.459744968002e+01 
-9.571008897507e+01 -2.999082128949e+00 0.0 
-2.999082128949e+00 -2.458024902984e+02 0.0 
0.0 0.0 -1.020537737820e+02 
-5.216390587739e+01 -8.420019593833e+00 0.0 
-8.420019593833e+00 -1.350758014476e+02 0.0 
0.0 0.0 -5.577191219750e+01 
-5.094804775646e+01 1.977141557062e+01 0.0 
1.977141557062e+01 -4.617380452553e+01 0.0 
0.0 0.0 -2.873655568460e+01 
-7.360103062123e+01 2.787521405469e+01 0.0 
2.787521405469e+01 -1.124385810112e+02 0.0 
0.0 0.0 -5.541188348972e+01 
-1.231452091944e+02 8.551238160817e-01 0.0 
8.551238160817e-01 -3.007045062211e+02 0.0 
0.0 0.0 -1.267549146246e+02 
-1.155722499683e+01 -1.011941435921e+00 0.0 
-1.011941435921e+00 -4.258289224636e+01 0.0 
0.0 0.0 -1.584203517296e+01 
-5.101877318261e+01 -7.552559847981e+00 0.0 
-7.552559847981e+00 -1.181074846771e+02 0.0 
0.0 0.0 -5.211626866672e+01 
-3.837732008981e+01 -7.630615000924e+00 0.0 
-7.630615000924e+00 -9.296860469826e+01 0.0 
0.0 0.0 -3.900377743642e+01 
-9.747423013795e+01 -1.180269877881e+00 0.0 
-1.180269877881e+00 -2.469746949157e+02 0.0 
0.0 0.0 -1.029346775161e+02 
-5.234350536006e+01 2.866131481032e+00 0.0 
2.866131481032e+00 -2.008950112354e+02 0.0 
0.0 0.0 -7.557155497863e+01 
-4.991888687608e+01 -5.827701363769e+00 0.0 
-5.827701363769e+00 -1.856756072891e+02 0.0 
0.0 0.0 -7.027834824955e+01 
-3.988305061327e+01 -4.102022987824e-01 0.0 
-4.102022987824e-01 -1.718715522960e+02 0.0 
0.0 0.0 -6.312638087279e+01 
-9.946080923814e+01 -2.729909729305e+00 0.0 
-2.729909729305e+00 -2.572708940671e+02 0.0 
0.0 0.0 -1.066195109916e+02 
-7.980434634674e+01 2.864302637159e+01 0.0 
2.864302637159e+01 -1.486047234953e+02 0.0 
0.0 0.0 -6.812272095261e+01 
-1.001353379212e+02 -2.372449601051e+00 0.0 
-2.372449601051e+00 -2.538968836905e+02 0.0 
0.0 0.0 -1.058096664835e+02 
-4.972110321977e+01 4.878627717793e+00 0.0 
4.878627717793e+00 -2.002565846825e+02 0.0 
0.0 0.0 -7.459330637067e+01 
-8.223806258294e+01 3.304657861080e+01 0.0 
3.304657861080e+01 -2.002765669648e+02 0.0 
0.0 0.0 -8.435438886432e+01 
-4.333607122608e+01 2.678871228384e+00 0.0 
2.678871228384e+00 -3.946598042787e+01 0.0 
0.0 0.0 -2.444061549618e+01 
-1.026977457132e+02 2.390315002395e+01 0.0 
2.390315002395e+01 -2.907738291283e+02 0.0 
0.0 0.0 -1.176414724525e+02 
-1.015888731684e+02 -5.382399868021e-01 0.0 
-5.382399868021e-01 -2.549509751327e+02 0.0 
0.0 0.0 -1.065619544904e+02 
-1.015346094648e+02 -1.023230734501e+00 0.0 
-1.023230734501e+00 -2.585752879087e+02 0.0 
0.0 0.0 -1.076329692121e+02 
-3.627702502694e+01 2.449049953622e+01 0.0 
2.449049953622e+01 -2.601648149850e+01 0.0 
0.0 0.0 -1.828805195763e+01 
-5.743430135380e+01 5.604214107578e-01 0.0 
5.604214107578e-01 -2.092699954166e+02 0.0 
0.0 0.0 -7.961128903113e+01 
-1.044738878676e+02 -1.824299824333e+00 0.0 
-1.824299824333e+00 -2.620059537196e+02 0.0 
0.0 0.0 -1.095439524761e+02 
-5.102708943396e+01 -3.386833763514e-01 0.0 
-3.386833763514e-01 -7.954533704853e+01 0.0 
0.0 0.0 -3.877172794475e+01 
-4.425598665556e+01 -5.279644990579e-01 0.0 
-5.279644990579e-01 -6.119088280965e+01 0.0 
0.0 0.0 -3.123406083956e+01 
-3.636378489814e+01 2.452862067711e+01 0.0 
2.452862067711e+01 -2.619047303315e+01 0.0 
0.0 0.0 -1.836627737939e+01 
-1.041044179538e+02 -2.175957580382e+00 0.0 
-2.175957580382e+00 -2.652109704926e+02 0.0 
0.0 0.0 -1.103946165339e+02 
-5.423977014667e+01 -1.004804766531e+01 0.0 
-1.004804766531e+01 -1.802410173689e+02 0.0 
0.0 0.0 -6.994423625468e+01 
-4.034027378928e+01 2.973711889586e+01 0.0 
2.973711889586e+01 -6.876298477244e+01 0.0 
0.0 0.0 -3.050315392773e+01 
-1.268361242554e+02 2.783453501976e+01 0.0 
2.783453501976e+01 -3.266537320585e+02 0.0 
0.0 0.0 -1.356469568942e+02 
-3.859537388553e+01 -1.166756391296e+01 0.0 
-1.166756391296e+01 -8.596280946489e+01 0.0 
0.0 0.0 -3.691898339362e+01 
-5.337371838586e+01 -9.681223773963e+00 0.0 
-9.681223773963e+00 -1.830276035345e+02 0.0 
0.0 0.0 -7.052039657611e+01 
-7.547357332097e+01 2.122255074944e+01 0.0 
2.122255074944e+01 -2.389805473055e+02 0.0 
0.0 0.0 -9.393623618795e+01 
-3.234891454777e+01 2.173243714120e+01 0.0 
2.173243714120e+01 -2.346982663985e+01 0.0 
0.0 0.0 -1.634562235629e+01 
-1.057166940580e+02 5.941424845360e-03 0.0 
5.941424845360e-03 -2.631773472757e+02 0.0 
0.0 0.0 -1.102682124001e+02 
-4.714744157461e+01 5.829600544082e-01 0.0 
5.829600544082e-01 -1.208387571142e+02 0.0 
0.0 0.0 -4.999585960663e+01 
-5.397009494390e+01 2.132432630099e+01 0.0 
2.132432630099e+01 -4.495581122547e+01 0.0 
0.0 0.0 -2.927777185081e+01 
-1.058054100026e+02 -4.544523714828e-01 0.0 
-4.544523714828e-01 -2.663603448735e+02 0.0 
0.0 0.0 -1.112497264628e+02 
-7.576150933859e+01 3.112830166547e-01 0.0 
3.112830166547e-01 -2.409592614567e+02 0.0 
0.0 0.0 -9.461623123860e+01 
-9.280093576647e+01 -2.458725377857e+00 0.0 
-2.458725377857e+00 -2.435470665186e+02 0.0 
0.0 0.0 -1.005044006855e+02 
-3.978297040098e+01 2.910522607521e+01 0.0 
2.910522607521e+01 -8.136620782324e+01 0.0 
0.0 0.0 -3.753914352517e+01 
-7.051702990815e+01 1.801113808757e+00 0.0 
1.801113808757e+00 -1.389641139007e+02 0.0 
0.0 0.0 -6.244434314266e+01 
-6.123779762174e+01 -4.450299571630e+00 0.0 
-4.450299571630e+00 -2.075790336970e+02 0.0 
0.0 0.0 -8.024504939563e+01 
-1.228848768248e+02 1.644996107667e+01 0.0 
1.644996107667e+01 -3.326399514058e+02 0.0 
0.0 0.0 -1.362574484692e+02 
-8.745511082970e+01 2.813090241654e+01 0.0 
2.813090241654e+01 -2.471985110932e+02 0.0 
0.0 0.0 -9.999608657688e+01 
-1.086458018673e+02 -1.721797594300e+00 0.0 
-1.721797594300e+00 -2.732405586324e+02 0.0 
0.0 0.0 -1.141659081499e+02 
-1.100089491353e+02 -1.716257233090e-02 0.0 
-1.716257233090e-02 -2.742366958617e+02 0.0 
0.0 0.0 -1.148736934991e+02 
-4.713984589803e+01 5.916401861570e-01 0.0 
5.916401861570e-01 -1.929459853402e+02 0.0 
0.0 0.0 -7.162574937146e+01 
-3.495441368478e+01 -1.123288644882e+01 0.0 
-1.123288644882e+01 -5.954740502910e+01 0.0 
0.0 0.0 -2.681232396047e+01 
-3.841251807706e+01 3.450054766779e+01 0.0 
3.450054766779e+01 -8.479032996363e+01 0.0 
0.0 0.0 -3.836223392353e+01 
-1.131456685170e+02 -1.349456581893e+00 0.0 
-1.349456581893e+00 -2.813846509429e+02 0.0 
0.0 0.0 -1.179590958380e+02 
-1.248580439866e+02 1.267856045615e+01 0.0 
1.267856045615e+01 -3.354728908396e+02 0.0 
0.0 0.0 -1.376992804479e+02 
-5.757253944902e+01 -1.119308937609e+01 0.0 
-1.119308937609e+01 -1.723909955381e+02 0.0 
0.0 0.0 -6.858906049613e+01 
-8.566451616471e+01 3.127059532387e+01 0.0 
3.127059532387e+01 -2.172511192288e+02 0.0 
0.0 0.0 -9.047469061806e+01 
-3.831114776602e+01 2.607395952459e+01 0.0 
2.607395952459e+01 -6.532909413353e+01 0.0 
0.0 0.0 -3.069207256986e+01 
-8.596960518865e+01 3.386902665590e+01 0.0 
3.386902665590e+01 -2.016951528265e+02 0.0 
0.0 0.0 -8.589942740456e+01 
-1.512883217035e+02 9.319121321088e+00 0.0 
9.319121321088e+00 -3.732659192147e+02 0.0 
0.0 0.0 -1.569662722755e+02 
-1.180712145010e+02 -1.401088631809e+00 0.0 
-1.401088631809e+00 -1.026487360104e+02 0.0 
0.0 0.0 -6.649285616387e+01 
-8.248050547559e+01 2.507488803824e+00 0.0 
2.507488803824e+00 -1.937878461097e+02 0.0 
0.0 0.0 -8.248050547559e+01 
-1.670772292541e+02 6.920933315889e-01 0.0 
6.920933315889e-01 -3.911802015928e+02 0.0 
0.0 0.0 -1.670772292541e+02 
-3.170271666828e+01 7.111872456448e-01 0.0 
7.111872456448e-01 -2.948329891131e+01 0.0 
0.0 0.0 -1.795580467387e+01 
-6.489297525788e+01 -7.268926388517e+00 0.0 
-7.268926388517e+00 -2.028159568771e+02 0.0 
0.0 0.0 -7.991267964051e+01 
-8.278547945009e+01 2.914272835616e+01 0.0 
2.914272835616e+01 -2.313671349671e+02 0.0 
0.0 0.0 -9.384578432515e+01 
-4.761004137752e+01 5.875791031408e+00 0.0 
5.875791031408e+00 -1.914115154202e+02 0.0 
0.0 0.0 -7.130646703931e+01 
-2.003631085414e+01 -1.881027625621e+00 0.0 
-1.881027625621e+00 -5.528833734295e+01 0.0 
0.0 0.0 -2.219739445913e+01 
-4.800074306269e+01 3.179618557973e+01 0.0 
3.179618557973e+01 -3.129070399153e+01 0.0 
0.0 0.0 -2.303915886085e+01 
-7.886782509006e+01 7.788610885394e+00 0.0 
7.788610885394e+00 -1.579493476126e+02 0.0 
0.0 0.0 -7.064515181081e+01 
-7.760311429620e+01 3.013918579659e+01 0.0 
3.013918579659e+01 -1.314539964228e+02 0.0 
0.0 0.0 -6.231713321569e+01 
-5.162617616990e+01 2.165925312811e+01 0.0 
2.165925312811e+01 -2.859478941747e+01 0.0 
0.0 0.0 -2.366628967621e+01 
-1.388524552002e+02 3.984609215292e+01 0.0 
3.984609215292e+01 -3.332997192220e+02 0.0 
0.0 0.0 -1.412456523266e+02 
-3.825413335460e+01 6.167508902604e-01 0.0 
6.167508902604e-01 -1.007989598796e+02 0.0 
0.0 0.0 -4.131592797027e+01 
-1.416454408171e+02 3.787184256504e+01 0.0 
3.787184256504e+01 -3.414760702392e+02 0.0 
0.0 0.0 -1.445364533169e+02 
-7.612775873299e+01 2.668909807516e+01 0.0 
2.668909807516e+01 -1.299866489443e+02 0.0 
0.0 0.0 -6.143432230318e+01 
-6.766274581414e+01 -8.037389422773e+00 0.0 
-8.037389422773e+00 -1.964832809526e+02 0.0 
0.0 0.0 -7.884380803003e+01 
-7.845755652053e+01 2.663494042595e+01 0.0 
2.663494042595e+01 -2.290260119509e+02 0.0 
0.0 0.0 -9.184507054143e+01 
-5.820168354907e+01 -9.481240633149e+00 0.0 
-9.481240633149e+00 -1.883810681048e+02 0.0 
0.0 0.0 -7.357482549617e+01 
-3.878230703833e+01 2.859710315963e+01 0.0 
2.859710315963e+01 -6.676837888928e+01 0.0 
0.0 0.0 -3.053098170440e+01 
-5.683481808589e+01 -1.093975670149e+01 0.0 
-1.093975670149e+01 -1.754334435241e+02 0.0 
0.0 0.0 -6.928047848300e+01 
-8.354467787209e+01 3.024618547578e+01 0.0 
3.024618547578e+01 -1.673730913502e+02 0.0 
0.0 0.0 -7.487533076668e+01 
-1.413656326565e+02 1.516021261203e+00 0.0 
1.516021261203e+00 -3.403117247675e+02 0.0 
0.0 0.0 -1.441032072272e+02 
-5.465550833403e+01 -6.905023528614e+00 0.0 
-6.905023528614e+00 -1.949018083731e+02 0.0 
0.0 0.0 -7.446719501215e+01 
-8.922972762609e+01 3.217313575974e+01 0.0 
3.217313575974e+01 -2.186686458414e+02 0.0 
0.0 0.0 -9.196951204026e+01 
-7.547697334761e+01 -3.025981880647e+00 0.0 
-3.025981880647e+00 -1.126066837749e+02 0.0 
0.0 0.0 -5.692635266001e+01 
-5.155970190425e+01 -1.893256806444e+00 0.0 
-1.893256806444e+00 -1.995157912630e+02 0.0 
0.0 0.0 -7.492264795017e+01 
-8.764865095053e+01 3.024976800684e+01 0.0 
3.024976800684e+01 -1.576853677854e+02 0.0 
0.0 0.0 -7.320020562078e+01 
-5.913401605349e+01 -1.033667617207e+01 0.0 
-1.033667617207e+01 -1.679399023109e+02 0.0 
0.0 0.0 -6.772217550933e+01 
-5.577859501029e+01 -1.172183812531e+01 0.0 
-1.172183812531e+01 -1.584824510032e+02 0.0 
0.0 0.0 -6.387831380406e+01 
-7.873880537047e+01 2.729483382337e+01 0.0 
2.729483382337e+01 -2.292999649950e+02 0.0 
0.0 0.0 -9.201163110965e+01 
-3.429130504139e+01 -1.929488082997e+01 0.0 
-1.929488082997e+01 -1.074812467759e+02 0.0 
0.0 0.0 -4.162281014050e+01 
-3.563847120264e+01 2.428090143702e+01 0.0 
2.428090143702e+01 -2.504627844673e+01 0.0 
0.0 0.0 -1.780542489481e+01 
-3.748656829494e+01 2.593698252546e+01 0.0 
2.593698252546e+01 -2.637447305719e+01 0.0 
0.0 0.0 -1.875831240564e+01 
-5.329049938066e+01 -1.147767440333e+01 0.0 
-1.147767440333e+01 -1.481341373510e+02 0.0 
0.0 0.0 -6.002739101949e+01 
-8.390416354975e+01 2.566883989930e+00 0.0 
2.566883989930e+00 -2.579534312281e+02 0.0 
0.0 0.0 -1.021572784334e+02 
-6.686877728689e+01 2.081732864243e+01 0.0 
2.081732864243e+01 -2.218905796397e+02 0.0 
0.0 0.0 -8.622780707797e+01 
-9.032255941515e+01 3.387102261177e+01 0.0 
3.387102261177e+01 -2.194113046726e+02 0.0 
0.0 0.0 -9.252015922634e+01 
-1.026517273895e+02 3.492624071158e+01 0.0 
3.492624071158e+01 -2.312175060892e+02 0.0 
0.0 0.0 -9.976077004361e+01 
-3.298420723304e+01 2.246160709935e+01 0.0 
2.246160709935e+01 -2.402660636585e+01 0.0 
0.0 0.0 -1.670324407967e+01 
-5.832805027335e+01 1.627905098543e+00 0.0 
1.627905098543e+00 -9.960627231545e+01 0.0 
0.0 0.0 -4.698029677664e+01 
-1.133034920581e+02 3.610400298217e+01 0.0 
3.610400298217e+01 -2.736197412357e+02 0.0 
0.0 0.0 -1.156769699882e+02 
-4.330113608579e+01 3.895492007156e+00 0.0 
3.895492007156e+00 -1.855790457457e+02 0.0 
0.0 0.0 -6.826405454944e+01 
-4.109507200290e+01 2.982438033176e+01 0.0 
2.982438033176e+01 -4.940105097284e+01 0.0 
0.0 0.0 -2.516997906924e+01 
-4.151672178536e+01 2.805762023537e+01 0.0 
2.805762023537e+01 -6.760677125553e+01 0.0 
0.0 0.0 -3.233704791227e+01 
-8.134842697223e+01 -1.375765517469e-01 0.0 
-1.375765517469e-01 -2.484392465151e+02 0.0 
0.0 0.0 -9.853630204619e+01 
-8.818154682789e+01 3.247874085327e+01 0.0 
3.247874085327e+01 -2.021149541646e+02 0.0 
0.0 0.0 -8.668895029774e+01 
-7.703405318760e+01 -3.037640926898e-01 0.0 
-3.037640926898e-01 -2.465744384064e+02 0.0 
0.0 0.0 -9.668254747821e+01 
-3.279697028048e+01 2.542759806116e+01 0.0 
2.542759806116e+01 -9.416149355960e+01 0.0 
0.0 0.0 -3.772695033812e+01 
-9.273602977457e+01 4.749248641356e+00 0.0 
4.749248641356e+00 -2.752393897140e+02 0.0 
0.0 0.0 -1.099926258466e+02 
-3.844780907872e+01 2.809023991405e+01 0.0 
2.809023991405e+01 -6.623910940271e+01 0.0 
0.0 0.0 -3.100607554443e+01 
-6.717700701059e+01 2.050865098411e+01 0.0 
2.050865098411e+01 -2.219582863338e+02 0.0 
0.0 0.0 -8.634058800331e+01 
-8.563640323922e+01 1.708801446492e+00 0.0 
1.708801446492e+00 -2.640829386700e+02 0.0 
0.0 0.0 -1.045158025728e+02 
-8.259927074010e+01 2.547130586246e+01 0.0 
2.547130586246e+01 -2.441138772996e+02 0.0 
0.0 0.0 -9.761394441192e+01 
-5.121064919285e+01 2.063564724150e+00 0.0 
2.063564724150e+00 -7.483444135327e+01 0.0 
0.0 0.0 -3.741352716383e+01 
-5.611078370983e+01 -9.695370505726e+00 0.0 
-9.695370505726e+00 -1.496806423940e+02 0.0 
0.0 0.0 -6.133742783114e+01 
-4.063904522658e+01 3.107317768033e+01 0.0 
3.107317768033e+01 -7.096507512004e+01 0.0 
0.0 0.0 -3.205421357403e+01 
-9.493736493993e+01 3.690840283292e+00 0.0 
3.690840283292e+00 -2.819643261457e+02 0.0 
0.0 0.0 -1.126705073257e+02 
-3.801265842210e+01 2.727575835644e+01 0.0 
2.727575835644e+01 -6.519661820646e+01 0.0 
0.0 0.0 -3.056278298857e+01 
-4.859705567971e+01 9.737337636243e+00 0.0 
9.737337636243e+00 -1.201204684227e+02 0.0 
0.0 0.0 -5.202304555676e+01 
-7.506110609523e+01 3.262252431365e-01 0.0 
3.262252431365e-01 -1.580192277248e+02 0.0 
0.0 0.0 -6.952410014600e+01 
-7.026866549697e+01 7.425335520812e-03 0.0 
7.425335520812e-03 -1.389591824372e+02 0.0 
0.0 0.0 -6.236835438026e+01 
-1.755269658842e+01 -3.625074073754e+00 0.0 
-3.625074073754e+00 -2.482196405144e+01 0.0 
0.0 0.0 -1.262427569727e+01 
-1.022073782385e+02 6.858021414429e+00 0.0 
6.858021414429e+00 -2.928207548805e+02 0.0 
0.0 0.0 -1.181084399357e+02 
-4.550100766536e+01 -8.478088862050e+00 0.0 
-8.478088862050e+00 -1.143082933680e+02 0.0 
0.0 0.0 -4.754279031002e+01 
-4.752159457650e+01 -9.522947969971e+00 0.0 
-9.522947969971e+00 -1.207697312206e+02 0.0 
0.0 0.0 -5.008739773913e+01 
-9.718407217542e+01 3.327100234306e+01 0.0 
3.327100234306e+01 -2.376493166378e+02 0.0 
0.0 0.0 -1.000500166440e+02 
-8.328587865022e+01 2.596727633678e+01 0.0 
2.596727633678e+01 -2.445019214392e+02 0.0 
0.0 0.0 -9.793634002682e+01 
-9.370320707552e+01 3.221529955878e+01 0.0 
3.221529955878e+01 -2.359969494374e+02 0.0 
0.0 0.0 -9.851004695387e+01 
-5.597819646259e+01 -3.383008953672e+00 0.0 
-3.383008953672e+00 -2.009858565638e+02 0.0 
0.0 0.0 -7.668921590792e+01 
-2.289790013515e+01 -2.189436370012e-01 0.0 
-2.189436370012e-01 -8.104529825447e+00 0.0 
0.0 0.0 -8.900728988178e+00 
-1.565017130296e+02 7.860893078372e+00 0.0 
7.860893078372e+00 -3.753749907336e+02 0.0 
0.0 0.0 -1.591630111290e+02 
-4.119919047232e+01 -9.049188435948e+00 0.0 
-9.049188435948e+00 -1.001203174483e+02 0.0 
0.0 0.0 -4.199585237619e+01 
-1.186236095405e+02 1.807754641857e+01 0.0 
1.807754641857e+01 -3.225622502358e+02 0.0 
0.0 0.0 -1.319557579329e+02 
-7.092655173257e+01 2.301774924116e+01 0.0 
2.301774924116e+01 -2.246361808763e+02 0.0 
0.0 0.0 -8.826881978267e+01 
-2.850537645282e+01 -2.058940355141e+00 0.0 
-2.058940355141e+00 -7.662243276321e+01 0.0 
0.0 0.0 -3.113834276481e+01 
-8.434096632147e+01 3.167322193765e+01 0.0 
3.167322193765e+01 -1.839547564677e+02 0.0 
0.0 0.0 -8.008871683675e+01 
-5.392019503564e+01 2.102836554177e+00 0.0 
2.102836554177e+00 -2.081667255954e+02 0.0 
0.0 0.0 -7.822607618930e+01 
-3.147837397524e+01 -1.214056103425e+01 0.0 
-1.214056103425e+01 -4.650057445405e+01 0.0 
0.0 0.0 -2.224414894964e+01 
-4.509364035761e+01 -3.813545463162e+00 0.0 
-3.813545463162e+00 -1.840482360138e+02 0.0 
0.0 0.0 -6.834256291143e+01 
-1.190849854925e+02 -8.861122223806e-01 0.0 
-8.861122223806e-01 -2.920119004086e+02 0.0 
0.0 0.0 -1.229290657703e+02 
-8.509797769645e+01 3.319692282076e+01 0.0 
3.319692282076e+01 -1.690131440303e+02 0.0 
0.0 0.0 -7.583333651804e+01 
-3.522366838250e+01 -1.007508756301e+01 0.0 
-1.007508756301e+01 -7.956879636340e+01 0.0 
0.0 0.0 -3.401312513297e+01 
-9.620191043733e+01 -4.659414536935e-02 0.0 
-4.659414536935e-02 -2.386176179849e+02 0.0 
0.0 0.0 -1.000458585267e+02 
-9.262104976195e+01 3.300270924245e+01 0.0 
3.300270924245e+01 -2.202081281793e+02 0.0 
0.0 0.0 -9.344875338237e+01 
-1.090650904763e+02 2.728195438708e+01 0.0 
2.728195438708e+01 -2.955296070708e+02 0.0 
0.0 0.0 -1.209784092641e+02 
-5.518264829440e+01 -1.156555783952e+01 0.0 
-1.156555783952e+01 -1.618177535611e+02 0.0 
0.0 0.0 -6.470012055666e+01 
-4.724381010442e+01 -1.778514127828e+00 0.0 
-1.778514127828e+00 -1.209547094835e+02 0.0 
0.0 0.0 -5.005955587639e+01 
-7.464324741584e+01 2.123208429273e+01 0.0 
2.123208429273e+01 -2.386298166035e+02 0.0 
0.0 0.0 -9.358191920579e+01 
-4.729356921574e+01 8.737886762659e-01 0.0 
8.737886762659e-01 -6.895832222086e+01 0.0 
0.0 0.0 -3.447556743098e+01 
-3.324893158980e+01 -1.747858940117e+01 0.0 
-1.747858940117e+01 -5.034389673535e+01 0.0 
0.0 0.0 -2.430295382705e+01 
-1.231259450004e+02 4.016606715371e+01 0.0 
4.016606715371e+01 -2.961198935841e+02 0.0 
0.0 0.0 -1.253737515754e+02 
-1.019484781820e+02 3.473657719891e+01 0.0 
3.473657719891e+01 -2.306505267427e+02 0.0 
0.0 0.0 -9.937970147741e+01 
-3.664058151991e+01 8.602839033262e-01 0.0 
8.602839033262e-01 -4.127039794037e+01 0.0 
0.0 0.0 -2.297329383809e+01 
-9.196644787062e+01 2.055099055731e+01 0.0 
2.055099055731e+01 -1.838263010785e+02 0.0 
0.0 0.0 -8.233782468474e+01 
-1.089909073037e+02 3.724766419823e+01 0.0 
3.724766419823e+01 -2.516292005789e+02 0.0 
0.0 0.0 -1.077860323648e+02 
-5.641248853126e+01 -3.607776442782e+00 0.0 
-3.607776442782e+00 -2.057616623959e+02 0.0 
0.0 0.0 -7.825224527816e+01 
-5.995358980126e+01 -7.412886164495e+00 0.0 
-7.412886164495e+00 -1.970030015174e+02 0.0 
0.0 0.0 -7.668697739559e+01 
-1.425638618462e+02 2.312623662430e+01 0.0 
2.312623662430e+01 -3.591829710475e+02 0.0 
0.0 0.0 -1.501240498681e+02 
-7.062194608752e+01 4.273563856607e+00 0.0 
4.273563856607e+00 -1.093179743463e+02 0.0 
0.0 0.0 -5.453258831292e+01 
-4.242203254680e+01 -1.190272035640e+00 0.0 
-1.190272035640e+00 -1.099973772904e+02 0.0 
0.0 0.0 -4.532582295115e+01 
-9.726920423266e+01 -1.274855899445e+00 0.0 
-1.274855899445e+00 -2.428604854551e+02 0.0 
0.0 0.0 -1.016389069063e+02 
-5.909805690812e+01 -1.020967517019e+01 0.0 
-1.020967517019e+01 -1.638190004131e+02 0.0 
0.0 0.0 -6.647511719635e+01 
-4.842833553410e+01 -9.303159620422e+00 0.0 
-9.303159620422e+00 -1.779089336888e+02 0.0 
0.0 0.0 -6.750118076686e+01 
-3.655989931079e+01 2.510881779765e+01 0.0 
2.510881779765e+01 -2.476814542133e+01 0.0 
0.0 0.0 -1.799841341964e+01 
-3.890275594638e+01 2.695870043318e+01 0.0 
2.695870043318e+01 -2.735285366254e+01 0.0 
0.0 0.0 -1.947668288267e+01 
-4.429606912981e+01 3.610995373690e+00 0.0 
3.610995373690e+00 -4.290535863659e+01 0.0 
0.0 0.0 -2.576042832992e+01 
-5.079397735601e+01 -1.506168925317e+00 0.0 
-1.506168925317e+00 -1.939909416357e+02 0.0 
0.0 0.0 -7.303547569751e+01 
-5.063671769323e+01 -3.206142533552e+00 0.0 
-3.206142533552e+00 -1.291339346516e+02 0.0 
0.0 0.0 -5.353119570345e+01 
-1.005375889456e+02 2.722488385357e+01 0.0 
2.722488385357e+01 -2.790329388661e+02 0.0 
0.0 0.0 -1.134711583435e+02 
-1.645669620674e+02 5.412492766006e+00 0.0 
5.412492766006e+00 -3.910071796268e+02 0.0 
0.0 0.0 -1.662722425082e+02 
-1.632111715701e+02 6.978266596831e+00 0.0 
6.978266596831e+00 -3.897059757612e+02 0.0 
0.0 0.0 -1.654751441994e+02 
-5.974024013864e+01 -7.348686336930e+00 0.0 
-7.348686336930e+00 -2.006223712281e+02 0.0 
0.0 0.0 -7.770878341001e+01 
-3.937769895926e+01 2.285473728488e+00 0.0 
2.285473728488e+00 -2.565813944279e+01 0.0 
0.0 0.0 -1.911075152061e+01 
-7.380238794329e+01 -3.049094195203e-01 0.0 
-3.049094195203e-01 -1.092649414975e+02 0.0 
0.0 0.0 -5.590248278934e+01 
-4.088704114489e+01 2.763742234837e+01 0.0 
2.763742234837e+01 -2.721811356321e+01 0.0 
0.0 0.0 -1.922030222352e+01 
-3.981242318429e+01 -2.354120635246e+01 0.0 
-2.354120635246e+01 -1.133083476746e+02 0.0 
0.0 0.0 -4.472018172129e+01 
-3.921847820746e+01 2.669247957084e+01 0.0 
2.669247957084e+01 -2.686812695884e+01 0.0 
0.0 0.0 -1.934966074086e+01 
-7.929391588648e+01 2.364676419743e+01 0.0 
2.364676419743e+01 -2.418216488277e+02 0.0 
0.0 0.0 -9.593466941427e+01 
-5.230910932548e+01 -1.168763304379e+01 0.0 
-1.168763304379e+01 -1.700635611206e+02 0.0 
0.0 0.0 -6.631180113382e+01 
-5.498506974461e+01 -6.990885194854e+00 0.0 
-6.990885194854e+00 -1.914480940085e+02 0.0 
0.0 0.0 -7.352994912592e+01 
-3.977382319559e+01 -2.879591838994e+01 0.0 
-2.879591838994e+01 -9.925773234734e+01 0.0 
0.0 0.0 -4.183126204626e+01 
-6.968412134743e+01 1.687841382886e+00 0.0 
1.687841382886e+00 -1.415728512864e+02 0.0 
0.0 0.0 -6.297709179013e+01 
-5.881669253487e+01 -9.701233531202e+00 0.0 
-9.701233531202e+00 -1.853328988303e+02 0.0 
0.0 0.0 -7.284487740955e+01 
-7.620320866487e+01 5.935660821347e+00 0.0 
5.935660821347e+00 -1.564085297493e+02 0.0 
0.0 0.0 -6.938352152425e+01 
-6.770690734089e+01 3.016438286906e+00 0.0 
3.016438286906e+00 -1.262534024002e+02 0.0 
0.0 0.0 -5.778809292232e+01 
-8.672018190028e+01 2.932680107908e+00 0.0 
2.932680107908e+00 -1.950177237997e+02 0.0 
0.0 0.0 -8.412137170998e+01 
-1.658631858767e+02 6.805022746261e-01 0.0 
6.805022746261e-01 -3.909048095406e+02 0.0 
0.0 0.0 -1.666303986252e+02 
-3.664487023639e+01 -5.203095107591e-01 0.0 
-5.203095107591e-01 -4.172820593859e+01 0.0 
0.0 0.0 -2.311192285249e+01 
-6.328881794087e+01 -9.001764115684e+00 0.0 
-9.001764115684e+00 -1.906478815210e+02 0.0 
0.0 0.0 -7.578100983855e+01 
-3.424235523251e+01 2.370788383374e+01 0.0 
2.370788383374e+01 -2.453144720019e+01 0.0 
0.0 0.0 -1.723214072981e+01 
-6.306009710464e+01 -8.942976779665e+00 0.0 
-8.942976779665e+00 -1.943197442801e+02 0.0 
0.0 0.0 -7.681395241543e+01 
-1.676637761829e+02 4.073982325047e+00 0.0 
4.073982325047e+00 -3.925488110935e+02 0.0 
0.0 0.0 -1.676637761829e+02 
-4.328748597208e+01 2.895327352261e+01 0.0 
2.895327352261e+01 -2.839947842617e+01 0.0 
0.0 0.0 -1.976853481997e+01 
-4.172059121890e+01 2.788762874939e+01 0.0 
2.788762874939e+01 -2.758254513004e+01 0.0 
0.0 0.0 -1.873933111123e+01 
-1.227509756516e+02 2.086815979996e+01 0.0 
2.086815979996e+01 -3.282097220393e+02 0.0 
0.0 0.0 -1.348882093073e+02 
-3.298135463661e+01 7.874668770450e-01 0.0 
7.874668770450e-01 -2.612908845929e+01 0.0 
0.0 0.0 -1.733313292877e+01 
-7.570111979310e+01 3.504685670320e+00 0.0 
3.504685670320e+00 -1.580043670667e+02 0.0 
0.0 0.0 -6.971164605795e+01 
-9.400223051632e+01 3.481484196304e+01 0.0 
3.481484196304e+01 -2.209617692478e+02 0.0 
0.0 0.0 -9.408919992924e+01 
-1.175791123324e+02 2.765556323246e+01 0.0 
2.765556323246e+01 -3.118412800475e+02 0.0 
0.0 0.0 -1.284261177140e+02 
-9.700829285648e+01 3.570864557971e+01 0.0 
3.570864557971e+01 -2.089133871877e+02 0.0 
0.0 0.0 -9.137650401325e+01 
-3.892949538820e+01 -1.588940473002e-01 0.0 
-1.588940473002e-01 -4.516288569999e+01 0.0 
0.0 0.0 -2.482771432646e+01 
-5.334206664167e+01 -1.139364048266e+01 0.0 
-1.139364048266e+01 -1.440005285227e+02 0.0 
0.0 0.0 -5.880277854932e+01 
-4.993364318785e+01 -1.297826198292e+01 0.0 
-1.297826198292e+01 -1.422544694262e+02 0.0 
0.0 0.0 -5.725643378420e+01 
-5.445391525941e+01 7.554113974955e-02 0.0 
7.554113974955e-02 -8.863677715204e+01 0.0 
0.0 0.0 -4.252720772344e+01 
-1.134437306798e+02 2.968117447168e+01 0.0 
2.968117447168e+01 -2.983694477405e+02 0.0 
0.0 0.0 -1.231439535261e+02 
-3.878321939158e+01 6.175969174477e+00 0.0 
6.175969174477e+00 -8.483698423761e+00 0.0 
0.0 0.0 -1.378007534460e+01 
-3.000518671370e+01 1.091962357332e-01 0.0 
1.091962357332e-01 -2.472882165471e+01 0.0 
0.0 0.0 -1.602020251052e+01 
-3.687947971646e+01 5.626752027550e-01 0.0 
5.626752027550e-01 -4.068488140697e+01 0.0 
0.0 0.0 -2.286930833703e+01 
-4.002229927742e+01 1.650909601962e+00 0.0 
1.650909601962e+00 -4.653617390245e+01 0.0 
0.0 0.0 -2.556754195396e+01 
-2.703344337770e+01 -1.461017111871e+01 0.0 
-1.461017111871e+01 -1.153973120780e+02 0.0 
0.0 0.0 -4.397492106995e+01 
-4.796434319912e+01 -1.219909121785e+01 0.0 
-1.219909121785e+01 -1.279762929661e+02 0.0 
0.0 0.0 -5.238219084956e+01 
-8.541272306211e+01 1.024911306538e+01 0.0 
1.024911306538e+01 -1.810161274543e+02 0.0 
0.0 0.0 -7.952865515491e+01 
-4.845340428112e+01 2.280206982136e+00 0.0 
2.280206982136e+00 -6.597486634995e+01 0.0 
0.0 0.0 -3.392848118932e+01 
-1.444221675634e+02 2.747248473051e+01 0.0 
2.747248473051e+01 -3.547839110591e+02 0.0 
0.0 0.0 -1.493618235867e+02 
-1.074255633272e+02 3.829364188951e+01 0.0 
3.829364188951e+01 -2.354390001116e+02 0.0 
0.0 0.0 -1.024593690316e+02 
-8.540178911900e+01 3.401246454502e+01 0.0 
3.401246454502e+01 -1.850253941420e+02 0.0 
0.0 0.0 -8.072815497831e+01 
-8.985295701414e+01 2.081191261019e+01 0.0 
2.081191261019e+01 -1.722301770586e+02 0.0 
0.0 0.0 -7.822494022181e+01 
-7.135915492234e+01 -3.609319318679e+00 0.0 
-3.609319318679e+00 -1.813255901119e+02 0.0 
0.0 0.0 -7.540542351027e+01 
-6.489391034515e+01 -3.936955035038e+00 0.0 
-3.936955035038e+00 -1.656327109492e+02 0.0 
0.0 0.0 -6.875798638831e+01 
-1.459176402690e+02 6.638809468981e+00 0.0 
6.638809468981e+00 -3.604976899587e+02 0.0 
0.0 0.0 -1.515245990683e+02 
-4.054787895240e+01 -2.010123508293e+01 0.0 
-2.010123508293e+01 -9.893491172023e+01 0.0 
0.0 0.0 -4.323921497901e+01 
-4.526452685508e+01 -7.085736480115e-01 0.0 
-7.085736480115e-01 -1.163498950863e+02 0.0 
0.0 0.0 -4.808432658242e+01 
-1.450174271418e+02 3.700351719212e+01 0.0 
3.700351719212e+01 -3.397073299975e+02 0.0 
0.0 0.0 -1.450174271418e+02 
-1.870384043152e+01 7.378868063041e-01 0.0 
7.378868063041e-01 -5.779036938251e+01 0.0 
0.0 0.0 -2.254826294421e+01 
-3.007879488811e+01 2.649990692899e-02 0.0 
2.649990692899e-02 -2.491014703303e+01 0.0 
0.0 0.0 -1.609668257634e+01 
-1.354265755712e+02 1.824448062751e+01 0.0 
1.824448062751e+01 -3.510535058941e+02 0.0 
0.0 0.0 -1.455440244396e+02 
-1.825920285461e+01 -4.204822468294e+00 0.0 
-4.204822468294e+00 -4.022700644887e+01 0.0 
0.0 0.0 -1.714586279105e+01 
-5.302312801123e+00 -5.948559949958e-01 0.0 
-5.948559949958e-01 -2.378738000218e+01 0.0 
0.0 0.0 -7.845863084414e+00 
-9.314748877111e+01 1.780314012196e+01 0.0 
1.780314012196e+01 -2.042510860657e+02 0.0 
0.0 0.0 -8.881957245103e+01 
-2.443731768831e+01 -5.922494929459e-01 0.0 
-5.922494929459e-01 -8.119517432066e+00 0.0 
0.0 0.0 -9.367050536113e+00 
-8.591033864093e+01 1.343494360659e+01 0.0 
1.343494360659e+01 -1.791771004820e+02 0.0 
0.0 0.0 -7.912623173686e+01 
-1.378602070995e+02 2.005422923392e+01 0.0 
2.005422923392e+01 -3.493448593590e+02 0.0 
0.0 0.0 -1.457615199375e+02 
-2.408349394179e+01 2.224206822730e-01 0.0 
2.224206822730e-01 -7.933011007656e+00 0.0 
0.0 0.0 -9.204951484835e+00 
-7.074267827714e+01 6.805244556653e+00 0.0 
6.805244556653e+00 -1.077378092670e+02 0.0 
0.0 0.0 -5.460518389711e+01 
-7.891253327809e+01 2.936833507358e+00 0.0 
2.936833507358e+00 -1.758427590889e+02 0.0 
0.0 0.0 -7.602658771010e+01 
-2.330558746324e+01 -1.484295149621e+00 0.0 
-1.484295149621e+00 -6.366641438757e+01 0.0 
0.0 0.0 -2.569160055524e+01 
-7.970039923247e+01 1.118027398099e+01 0.0 
1.118027398099e+01 -1.646944497657e+02 0.0 
0.0 0.0 -7.291845469945e+01 
-1.674536761816e+02 2.876047684051e+00 0.0 
2.876047684051e+00 -3.920585777571e+02 0.0 
0.0 0.0 -1.674536761816e+02 
-1.019497039277e+02 3.445933462915e+01 0.0 
3.445933462915e+01 -2.164288477207e+02 0.0 
0.0 0.0 -9.511356549451e+01 
-2.831901642623e+01 -1.175197227162e+01 0.0 
-1.175197227162e+01 -1.277036904764e+02 0.0 
0.0 0.0 -4.792811933554e+01 
-5.263364985939e+01 9.428758690250e+00 0.0 
9.428758690250e+00 -4.978263492770e+01 0.0 
0.0 0.0 -3.032488543613e+01 
-7.278578043363e+01 -1.264130844302e+00 0.0 
-1.264130844302e+00 -1.842018411932e+02 0.0 
0.0 0.0 -7.669628648804e+01 
-1.026855918617e+02 2.788448295507e+01 0.0 
2.788448295507e+01 -2.800215877714e+02 0.0 
0.0 0.0 -1.144121538899e+02 
-1.500429447656e+02 3.150505936215e+01 0.0 
3.150505936215e+01 -3.618536375724e+02 0.0 
0.0 0.0 -1.531689747014e+02 
-6.175559211019e+01 7.540758892796e-01 0.0 
7.540758892796e-01 -1.104294356190e+02 0.0 
0.0 0.0 -5.125550831874e+01 
-1.511779303238e+02 2.782425170376e+01 0.0 
2.782425170376e+01 -3.675623605334e+02 0.0 
0.0 0.0 -1.552220872572e+02 
-3.162570109774e+01 -1.515423494380e+01 0.0 
-1.515423494380e+01 -1.151401717802e+02 0.0 
0.0 0.0 -4.620345501239e+01 
-1.580593752426e+02 4.362574552481e+00 0.0 
4.362574552481e+00 -3.774433884853e+02 0.0 
0.0 0.0 -1.602508291184e+02 
-3.200998492347e+01 -1.547035301007e+01 0.0 
-1.547035301007e+01 -1.257659731137e+02 0.0 
0.0 0.0 -4.681970531041e+01 
-1.949764771210e+01 -1.460838483473e+00 0.0 
-1.460838483473e+00 -5.775237374497e+01 0.0 
0.0 0.0 -2.277500643712e+01 
-1.488348118436e+02 1.633108103635e+01 0.0 
1.633108103635e+01 -3.697792701463e+02 0.0 
0.0 0.0 -1.551842245970e+02 
-9.966069712166e+01 2.862695449690e+01 0.0 
2.862695449690e+01 -2.059751949761e+02 0.0 
0.0 0.0 -9.129076762931e+01 
-8.938281327592e+01 1.832113796883e+01 0.0 
1.832113796883e+01 -1.903614399823e+02 0.0 
0.0 0.0 -8.352327597745e+01 
-3.012295401937e+01 -6.995839867442e-01 0.0 
-6.995839867442e-01 -2.354292733976e+01 0.0 
0.0 0.0 -1.569976440774e+01 
-5.923261494390e+01 1.794184746409e+01 0.0 
1.794184746409e+01 -6.748264202193e+01 0.0 
0.0 0.0 -3.761457708975e+01 
-3.781805213045e+01 2.855585919454e+01 0.0 
2.855585919454e+01 -6.660700630930e+01 0.0 
0.0 0.0 -3.054392552169e+01 
-1.142159973367e+02 4.050262503088e+01 0.0 
4.050262503088e+01 -2.576156788778e+02 0.0 
0.0 0.0 -1.111495028644e+02 
-6.076784530141e+01 -2.466000622467e+00 0.0 
-2.466000622467e+00 -1.531355064893e+02 0.0 
0.0 0.0 -6.377100553720e+01 
-3.291805030379e+01 2.870632909511e+01 0.0 
2.870632909511e+01 -7.395232202666e+01 0.0 
0.0 0.0 -3.215963227323e+01 
-1.069355768682e+02 2.661561949799e+01 0.0 
2.661561949799e+01 -2.944986274392e+02 0.0 
0.0 0.0 -1.200302612922e+02 
-2.285533860378e+01 1.374943001843e-01 0.0 
1.374943001843e-01 -7.434771693724e+00 0.0 
0.0 0.0 -8.687033089252e+00 
-9.221058024640e+01 2.590163434291e+01 0.0 
2.590163434291e+01 -1.913064701161e+02 0.0 
0.0 0.0 -8.465511510876e+01 
-8.529209180147e+01 9.367710234905e-01 0.0 
9.367710234905e-01 -1.926035951048e+02 0.0 
0.0 0.0 -8.296870607189e+01 
-8.263132330994e+01 1.161692864785e+00 0.0 
1.161692864785e+00 -1.941397543899e+02 0.0 
0.0 0.0 -8.263132330994e+01 
9.019473285473e-01 2.460554316335e-01 0.0 
2.460554316335e-01 -6.514077001096e+00 0.0 
0.0 0.0 -6.646130434907e-01 
7.413673535955e-01 -5.566089165031e-01 0.0 
-5.566089165031e-01 -1.065335990716e+01 0.0 
0.0 0.0 -1.483083372484e+00 
-2.394946550977e+01 5.043472980373e-01 0.0 
5.043472980373e-01 -1.030981849402e+01 0.0 
0.0 0.0 -9.877785201137e+00 
-2.307297450226e+01 -2.610063288742e-01 0.0 
-2.610063288742e-01 -7.359541366979e+00 0.0 
0.0 0.0 -8.729754760770e+00 
-1.672329744064e+02 2.850848081473e-01 0.0 
2.850848081473e-01 -3.915436069483e+02 0.0 
0.0 0.0 -1.672329744064e+02 
-1.652087951105e+02 -6.842549782685e-01 0.0 
-6.842549782685e-01 -3.887210873122e+02 0.0 
0.0 0.0 -1.657789647268e+02 
-2.796757330891e+00 -8.306908092916e-01 0.0 
-8.306908092916e-01 -2.296708541560e+01 0.0 
0.0 0.0 -6.728193276866e+00 
-7.142947453020e+01 -4.789858489510e+00 0.0 
-4.789858489510e+00 -1.131006604549e+02 0.0 
0.0 0.0 -5.585946684275e+01 
-1.505011940891e+02 1.296997954984e+00 0.0 
1.296997954984e+00 -3.602592966125e+02 0.0 
0.0 0.0 -1.528281472105e+02 
-1.187412544794e+02 3.349589594497e+01 0.0 
3.349589594497e+01 -3.025915832900e+02 0.0 
0.0 0.0 -1.259998513308e+02 
-2.779812554321e+01 -1.793487126435e+00 0.0 
-1.793487126435e+00 -7.478291279298e+01 0.0 
0.0 0.0 -3.037431150086e+01 
-1.514195230342e+02 4.796878502841e+00 0.0 
4.796878502841e+00 -3.652832098905e+02 0.0 
0.0 0.0 -1.546108198774e+02 
-1.046414372674e+02 9.128775808844e-02 0.0 
9.128775808844e-02 -2.589919034208e+02 0.0 
0.0 0.0 -1.086900022064e+02 
-8.941985833015e+01 5.311400304718e-01 0.0 
5.311400304718e-01 -2.238526512910e+02 0.0 
0.0 0.0 -9.358175288634e+01 
-5.087250795786e+01 8.124667864101e-01 0.0 
8.124667864101e-01 -7.582615046290e+01 0.0 
0.0 0.0 -3.760959752623e+01 
-4.005586883952e+01 -2.062181900910e+01 0.0 
-2.062181900910e+01 -8.961621789334e+01 0.0 
0.0 0.0 -3.680929593463e+01 
-9.271891877975e+01 2.690272931390e+01 0.0 
2.690272931390e+01 -2.623020681631e+02 0.0 
0.0 0.0 -1.061062960828e+02 
-2.153489028431e+01 -2.499960565587e+00 0.0 
-2.499960565587e+00 -5.997534531513e+01 0.0 
0.0 0.0 -2.405307067983e+01 
-8.116388708640e+01 -1.279303790481e+00 0.0 
-1.279303790481e+00 -2.043276619252e+02 0.0 
0.0 0.0 -8.524746470348e+01 
-1.069398649777e+02 3.639696793308e+01 0.0 
3.639696793308e+01 -2.454617444922e+02 0.0 
0.0 0.0 -1.053204828410e+02 
-7.397187248105e+01 1.019264065764e+00 0.0 
1.019264065764e+00 -1.506462853517e+02 0.0 
0.0 0.0 -6.698544734984e+01 
-8.936537548917e+01 -1.019936224593e+00 0.0 
-1.019936224593e+00 -2.226055945544e+02 0.0 
0.0 0.0 -9.319129101306e+01 
-4.248886045859e+01 1.108583879022e+00 0.0 
1.108583879022e+00 -5.516707542032e+01 0.0 
0.0 0.0 -2.889678076367e+01 
-1.162737293149e+02 3.749053630895e+01 0.0 
3.749053630895e+01 -2.867965376926e+02 0.0 
0.0 0.0 -1.205210801023e+02 
-1.013123159279e+02 3.651969218113e+01 0.0 
3.651969218113e+01 -2.257242100825e+02 0.0 
0.0 0.0 -9.771095780311e+01 
-9.327380863220e+01 3.516559044337e+01 0.0 
3.516559044337e+01 -2.053786912932e+02 0.0 
0.0 0.0 -8.919574997761e+01 
-2.375585009408e+01 -1.154559684832e-01 0.0 
-1.154559684832e-01 -8.125202487837e+00 0.0 
0.0 0.0 -9.164315774575e+00 
-8.850132969853e+01 2.468666154747e+01 0.0 
2.468666154747e+01 -2.594208904250e+02 0.0 
0.0 0.0 -1.039766660371e+02 
-9.463897754035e+01 2.975734917523e+01 0.0 
2.975734917523e+01 -2.009631692205e+02 0.0 
0.0 0.0 -8.828064402827e+01 
-4.504019963994e+01 -2.165824682941e+00 0.0 
-2.165824682941e+00 -1.159001067946e+02 0.0 
0.0 0.0 -4.788209193038e+01 
-1.076805945009e+01 -2.337939841711e+00 0.0 
-2.337939841711e+00 -2.587951717539e+01 0.0 
0.0 0.0 -1.059427298764e+01 
-1.122238805283e+02 3.601594374548e+01 0.0 
3.601594374548e+01 -2.719761827862e+02 0.0 
0.0 0.0 -1.148600189944e+02 
-1.162699128139e+02 1.744032694109e+01 0.0 
1.744032694109e+01 -3.214948725310e+02 0.0 
0.0 0.0 -1.309294356035e+02 
-3.715100571244e+01 -2.164738716928e+01 0.0 
-2.164738716928e+01 -8.043925947979e+01 0.0 
0.0 0.0 -3.447819465190e+01 
-5.584615062172e+01 1.577362509625e+00 0.0 
1.577362509625e+00 -9.021920050175e+01 0.0 
0.0 0.0 -4.341960533704e+01 
-1.584109280124e+02 2.154720586506e+00 0.0 
2.154720586506e+00 -3.748367496870e+02 0.0 
0.0 0.0 -1.595743033098e+02 
-1.129282365784e+02 3.296030513715e+01 0.0 
3.296030513715e+01 -2.862806927946e+02 0.0 
0.0 0.0 -1.193626788119e+02 
-1.185511287414e+02 3.690832389881e+01 0.0 
3.690832389881e+01 -2.947701426017e+02 0.0 
0.0 0.0 -1.235963814029e+02 
-1.137202307011e+02 8.175213881933e-01 0.0 
8.175213881933e-01 -2.797983882405e+02 0.0 
0.0 0.0 -1.176555856825e+02 
-4.261926753764e+01 2.931649777386e+01 0.0 
2.931649777386e+01 -9.800772660723e+01 0.0 
0.0 0.0 -4.354027409452e+01 
-3.606536713876e+01 2.515753406929e+01 0.0 
2.515753406929e+01 -2.455080265922e+01 0.0 
0.0 0.0 -1.778485093939e+01 
-3.827402218125e+01 2.803612714098e+01 0.0 
2.803612714098e+01 -6.526612322244e+01 0.0 
0.0 0.0 -3.066204362111e+01 
-5.404200963293e+01 1.048277181890e+01 0.0 
1.048277181890e+01 -4.816246735807e+01 0.0 
0.0 0.0 -3.026134309730e+01 
-8.715523433989e+01 2.413209865379e+01 0.0 
2.413209865379e+01 -2.587523918191e+02 0.0 
0.0 0.0 -1.033722878477e+02 
-8.096091442435e+01 9.564190641111e+00 0.0 
9.564190641111e+00 -1.663308700121e+02 0.0 
0.0 0.0 -7.378753533093e+01 
-1.468820572668e+02 2.265047009018e+01 0.0 
2.265047009018e+01 -3.597815130956e+02 0.0 
0.0 0.0 -1.515990711087e+02 
-3.591000220527e+01 -1.505745841235e+01 0.0 
-1.505745841235e+01 -5.188418872663e+01 0.0 
0.0 0.0 -2.416873425530e+01 
-2.272969703772e+01 -6.669166214622e+00 0.0 
-6.669166214622e+00 -4.336839485104e+01 0.0 
0.0 0.0 -1.917965386127e+01 
-3.854558360684e+01 2.625541303827e+01 0.0 
2.625541303827e+01 -2.710378645133e+01 0.0 
0.0 0.0 -1.905063947432e+01 
-5.739126657862e+01 7.966382105315e-01 0.0 
7.966382105315e-01 -9.554959834189e+01 0.0 
0.0 0.0 -4.548225947615e+01 
-5.625065914065e+01 -1.926279604414e+00 0.0 
-1.926279604414e+00 -1.431036539044e+02 0.0 
0.0 0.0 -5.940629391351e+01 
-9.227603844874e+01 2.364025612316e+01 0.0 
2.364025612316e+01 -1.842161504849e+02 0.0 
0.0 0.0 -8.254765668010e+01 
-2.544024198021e+01 -5.243607968742e-01 0.0 
-5.243607968742e-01 -7.150372381865e+01 0.0 
0.0 0.0 -2.868318973966e+01 
-1.336245891217e+02 2.145337722741e+01 0.0 
2.145337722741e+01 -3.434242875362e+02 0.0 
0.0 0.0 -1.427146629974e+02 
-4.132185027280e+01 1.001918566882e+00 0.0 
1.001918566882e+00 -4.083485694155e+01 0.0 
0.0 0.0 -2.424701216430e+01 
-1.388457536948e+02 3.219422900639e+01 0.0 
3.219422900639e+01 -3.360656245208e+02 0.0 
0.0 0.0 -1.420734134647e+02 
-1.071855279562e+02 3.054441424437e+01 0.0 
3.054441424437e+01 -2.836124337387e+02 0.0 
0.0 0.0 -1.168393885084e+02 
-5.764375582569e+01 1.543652464563e+01 0.0 
1.543652464563e+01 -5.347529080441e+01 0.0 
0.0 0.0 -3.293571398903e+01 
-1.511724311859e+02 1.205987114178e+01 0.0 
1.205987114178e+01 -3.731282852718e+02 0.0 
0.0 0.0 -1.568902149373e+02 
-9.626312056293e+01 2.571807341924e+01 0.0 
2.571807341924e+01 -2.011076481876e+02 0.0 
0.0 0.0 -8.881123062515e+01 
-8.277515532528e+01 1.783648435590e+00 0.0 
1.783648435590e+00 -1.784301604774e+02 0.0 
0.0 0.0 -7.796159474080e+01 
-3.995625568594e+01 2.754280601231e+01 0.0 
2.754280601231e+01 -2.843068445067e+01 0.0 
0.0 0.0 -1.842085949316e+01 
-8.549097218514e+01 1.844752186988e+01 0.0 
1.844752186988e+01 -1.701098796919e+02 0.0 
0.0 0.0 -7.628025556311e+01 
-1.230396212350e+02 3.818881035038e+01 0.0 
3.818881035038e+01 -2.920555544286e+02 0.0 
0.0 0.0 -1.241285526991e+02 
-1.322867953599e+02 2.237566685348e+01 0.0 
2.237566685348e+01 -3.434483305652e+02 0.0 
0.0 0.0 -1.423205377775e+02 
-1.105695510507e+02 2.836572499247e+01 0.0 
2.836572499247e+01 -2.967327049038e+02 0.0 
0.0 0.0 -1.217906767863e+02 
-1.675132727739e+02 5.853021270549e+00 0.0 
5.853021270549e+00 -3.921976364724e+02 0.0 
0.0 0.0 -1.675132727739e+02 
-9.107249825709e+01 3.273235473055e+01 0.0 
3.273235473055e+01 -2.039673551334e+02 0.0 
0.0 0.0 -8.811195601715e+01 
-5.684889283401e+01 2.101379053639e+01 0.0 
2.101379053639e+01 -7.288788928968e+01 0.0 
0.0 0.0 -3.947277753763e+01 
-3.748671419834e+01 2.933085360235e+01 0.0 
2.933085360235e+01 -6.962152594776e+01 0.0 
0.0 0.0 -3.035484237617e+01 
-1.037401836136e+02 3.706763426691e+01 0.0 
3.706763426691e+01 -2.291940519816e+02 0.0 
0.0 0.0 -9.948027067855e+01 
-5.809208914981e+01 9.919098381021e+00 0.0 
9.919098381021e+00 -6.445898795853e+01 0.0 
0.0 0.0 -3.636532313250e+01 
-1.507357604457e+02 1.726935206096e+00 0.0 
1.726935206096e+00 -3.591315559125e+02 0.0 
0.0 0.0 -1.525601949075e+02 
-1.182141284232e+02 3.198929476496e+01 0.0 
3.198929476496e+01 -3.020662401908e+02 0.0 
0.0 0.0 -1.256841105842e+02 
-1.591362363131e+02 5.039574602738e+00 0.0 
5.039574602738e+00 -3.782889592329e+02 0.0 
0.0 0.0 -1.608275586638e+02 
-6.484743946963e+01 1.814727864399e+00 0.0 
1.814727864399e+00 -1.170317841823e+02 0.0 
0.0 0.0 -5.416376709557e+01 
-1.417829359245e+02 3.051211670941e+01 0.0 
3.051211670941e+01 -3.429852973801e+02 0.0 
0.0 0.0 -1.450304699914e+02 
-1.468224557114e+02 1.034603578610e+01 0.0 
1.034603578610e+01 -3.630373935569e+02 0.0 
0.0 0.0 -1.525579547805e+02 
-1.452570680679e+02 9.472530873631e+00 0.0 
9.472530873631e+00 -3.622557446803e+02 0.0 
0.0 0.0 -1.518538438245e+02 
-5.853519561422e+01 -1.401358076968e+00 0.0 
-1.401358076968e+00 -1.483528126365e+02 0.0 
0.0 0.0 -6.166640247523e+01 
-1.651666501334e+02 4.427079089036e+00 0.0 
4.427079089036e+00 -3.914233178848e+02 0.0 
0.0 0.0 -1.665769904054e+02 
-3.560945838341e+01 2.378246260225e+00 0.0 
2.378246260225e+00 -2.568956699960e+01 0.0 
0.0 0.0 -1.798970761490e+01 
-7.806379338838e+01 5.383137768172e+00 0.0 
5.383137768172e+00 -1.593404301330e+02 0.0 
0.0 0.0 -7.082126705643e+01 
-2.648076781641e+01 -7.934821763253e+00 0.0 
-7.934821763253e+00 -4.316721671827e+01 0.0 
0.0 0.0 -1.959457189448e+01 
-7.360543244333e+01 2.547760461152e+00 0.0 
2.547760461152e+00 -1.436124095117e+02 0.0 
0.0 0.0 -6.476535258652e+01 
-5.726132215539e+01 1.590570119550e+00 0.0 
1.590570119550e+00 -9.227421260837e+01 0.0 
0.0 0.0 -4.446066042913e+01 
-1.040180187472e+01 5.615179961213e-01 0.0 
5.615179961213e-01 -4.189879800596e+01 0.0 
0.0 0.0 -1.529017996420e+01 
-3.155800943685e+01 -1.516109062313e+01 0.0 
-1.516109062313e+01 -1.306092458483e+02 0.0 
0.0 0.0 -4.917840595318e+01 
-9.532077462985e+01 3.355378981662e+01 0.0 
3.355378981662e+01 -2.214642757475e+02 0.0 
0.0 0.0 -9.463551511320e+01 
-8.296532117160e+01 1.307198731176e+01 0.0 
1.307198731176e+01 -1.809259500912e+02 0.0 
0.0 0.0 -7.876738137884e+01 
-7.762103939239e+01 2.970046524746e+00 0.0 
2.970046524746e+00 -1.618354536616e+02 0.0 
0.0 0.0 -7.143694791619e+01 
-1.355670135438e+02 2.900687666522e+01 0.0 
2.900687666522e+01 -3.422813256476e+02 0.0 
0.0 0.0 -1.429545017574e+02 
-4.291173236545e+01 4.363722102137e-02 0.0 
4.363722102137e-02 -5.432000248300e+01 0.0 
0.0 0.0 -2.876952045454e+01 
-7.358035429199e+00 -1.163579190716e+00 0.0 
-1.163579190716e+00 -2.497179754012e+01 0.0 
0.0 0.0 -9.190306127908e+00 
-3.981315849855e+01 2.170589996649e+01 0.0 
2.170589996649e+01 -1.117234016522e+02 0.0 
0.0 0.0 -4.703392968105e+01 
-1.061724394868e+01 -2.639603277410e+00 0.0 
-2.639603277410e+00 -2.856967667469e+01 0.0 
0.0 0.0 -1.135607618701e+01 
-2.817713712310e+01 -7.542941363603e+00 0.0 
-7.542941363603e+00 -5.785561136330e+01 0.0 
0.0 0.0 -2.519133078777e+01 
-4.878024048932e+01 3.944183070402e+01 0.0 
3.944183070402e+01 -5.712196279687e+01 0.0 
0.0 0.0 -3.222111220054e+01 
-7.923747794160e+01 -2.597634125089e+00 0.0 
-2.597634125089e+00 -1.988076543824e+02 0.0 
0.0 0.0 -8.301353969719e+01 
-1.503209348540e+02 1.937151511753e-01 0.0 
1.937151511753e-01 -3.589072447746e+02 0.0 
0.0 0.0 -1.523684538886e+02 
-9.982638674796e+01 3.327909616555e+01 0.0 
3.327909616555e+01 -2.157671457620e+02 0.0 
0.0 0.0 -9.427805975299e+01 
-6.640288063975e+01 2.145954364766e+01 0.0 
2.145954364766e+01 -7.722068515776e+01 0.0 
0.0 0.0 -4.268706973925e+01 
-6.871374340143e+01 -2.201606457215e+00 0.0 
-2.201606457215e+00 -1.748507476516e+02 0.0 
0.0 0.0 -7.266934731590e+01 
-1.466314441879e+02 7.584904028591e+00 0.0 
7.584904028591e+00 -3.612544901680e+02 0.0 
0.0 0.0 -1.519657803067e+02 
-1.355928806585e+02 1.444011090177e+01 0.0 
1.444011090177e+01 -3.519506840491e+02 0.0 
0.0 0.0 -1.458630694123e+02 
-1.330200689586e+02 3.422335860454e+01 0.0 
3.422335860454e+01 -3.318138058307e+02 0.0 
0.0 0.0 -1.390501624368e+02 
-1.180350302612e+02 3.629207700947e+01 0.0 
3.629207700947e+01 -2.838667894747e+02 0.0 
0.0 0.0 -1.201705459208e+02 
-1.025281802100e+02 3.514237491052e+01 0.0 
3.514237491052e+01 -2.403449050048e+02 0.0 
0.0 0.0 -1.024619255644e+02 
-2.568311754622e+01 -6.781371678716e+00 0.0 
-6.781371678716e+00 -4.245059341949e+01 0.0 
0.0 0.0 -1.938804190355e+01 
-4.126399756564e+01 -1.858713502707e+01 0.0 
-1.858713502707e+01 -1.118120298301e+02 0.0 
0.0 0.0 -4.768526451491e+01 
-1.506673376402e+02 2.341737988184e+00 0.0 
2.341737988184e+00 -3.608143901060e+02 0.0 
0.0 0.0 -1.530445183238e+02 
-1.112250525685e+01 -3.992580014559e-01 0.0 
-3.992580014559e-01 -4.133588791145e+01 0.0 
0.0 0.0 -1.533751795049e+01 
-1.437606409676e+01 -1.310988841868e+00 0.0 
-1.310988841868e+00 -4.942835528628e+01 0.0 
0.0 0.0 -1.874132581491e+01 
-4.321587979665e+01 3.458926127398e+01 0.0 
3.458926127398e+01 -5.566670647204e+01 0.0 
0.0 0.0 -2.992726898326e+01 
-1.427322782756e+01 -1.742242508926e+00 0.0 
-1.742242508926e+00 -3.841112381637e+01 0.0 
0.0 0.0 -1.540530549318e+01 
-1.563473037763e+02 1.072485600957e+01 0.0 
1.072485600957e+01 -3.761721897678e+02 0.0 
0.0 0.0 -1.593558480632e+02 
-1.174194039251e+02 3.924750698550e+01 0.0 
3.924750698550e+01 -2.724741962109e+02 0.0 
0.0 0.0 -1.165680800408e+02 
-7.880035520227e+01 7.657903369552e+00 0.0 
7.657903369552e+00 -1.655633684681e+02 0.0 
0.0 0.0 -7.290911710111e+01 
-1.369616996965e+02 3.397554350235e+01 0.0 
3.397554350235e+01 -3.306600182180e+02 0.0 
0.0 0.0 -1.398865153743e+02 
-1.314591405848e+02 1.576552484986e+01 0.0 
1.576552484986e+01 -3.425106431713e+02 0.0 
0.0 0.0 -1.417909351268e+02 
-4.729142456423e+01 2.189697372248e-01 0.0 
2.189697372248e-01 -6.575133669481e+01 0.0 
0.0 0.0 -3.351282837771e+01 
-8.680055116602e+01 1.833651795919e+01 0.0 
1.833651795919e+01 -2.038679527207e+02 0.0 
0.0 0.0 -8.680055116602e+01 
-4.096606532604e+01 -2.048469870226e+01 0.0 
-2.048469870226e+01 -1.300182286658e+02 0.0 
0.0 0.0 -5.001134288222e+01 
-2.244603870582e+01 -1.370235304497e-01 0.0 
-1.370235304497e-01 -7.186657611349e+00 0.0 
0.0 0.0 -8.489808895152e+00 
-4.387633649869e+01 -2.180127088567e+01 0.0 
-2.180127088567e+01 -7.382694838377e+01 0.0 
0.0 0.0 -3.309025804909e+01 
-5.425882623014e+00 -9.814978188040e-01 0.0 
-9.814978188040e-01 -2.459285043160e+01 0.0 
0.0 0.0 -9.187839514565e+00 
-1.654960121748e+02 2.438332465890e+00 0.0 
2.438332465890e+00 -3.909563400619e+02 0.0 
0.0 0.0 -1.665357056710e+02 
-5.404229402616e+01 1.420651950860e+01 0.0 
1.420651950860e+01 -3.961555494938e+01 0.0 
0.0 0.0 -2.769735469266e+01 
-1.901303118967e+01 -1.395766101918e+00 0.0 
-1.395766101918e+00 -5.761059326755e+01 0.0 
0.0 0.0 -2.258708733716e+01 
-7.537378528946e+01 -2.531597138990e+00 0.0 
-2.531597138990e+00 -1.905904463949e+02 0.0 
0.0 0.0 -7.938926950530e+01 
-1.161193330667e+02 4.083165804502e+01 0.0 
4.083165804502e+01 -2.687572071814e+02 0.0 
0.0 0.0 -1.150629620744e+02 
-8.402635996285e+01 1.300801180544e+01 0.0 
1.300801180544e+01 -1.672829666368e+02 0.0 
0.0 0.0 -7.499279797989e+01 
-9.419167367586e+01 2.839421029059e+01 0.0 
2.839421029059e+01 -2.069018377577e+02 0.0 
0.0 0.0 -8.992805343008e+01 
-5.309800726353e+01 -4.591057418520e-01 0.0 
-4.591057418520e-01 -1.348834430426e+02 0.0 
0.0 0.0 -5.599443509184e+01 
-4.112870428685e+01 2.586862992924e+00 0.0 
2.586862992924e+00 -1.212879975637e+02 0.0 
0.0 0.0 -5.065484349864e+01 
-1.561090277090e+02 5.887893412348e+00 0.0 
5.887893412348e+00 -3.766309852418e+02 0.0 
0.0 0.0 -1.594220038852e+02 
-8.737415465479e+01 1.561133326114e+00 0.0 
1.561133326114e+00 -1.960652654555e+02 0.0 
0.0 0.0 -8.463182603310e+01 
-1.657835425414e+02 5.324121145019e-01 0.0 
5.324121145019e-01 -3.908161907072e+02 0.0 
0.0 0.0 -1.665799199746e+02 
-2.867428686821e+01 -5.359474402840e-01 0.0 
-5.359474402840e-01 -2.173426747817e+01 0.0 
0.0 0.0 -1.472256630391e+01 
-1.414887052122e+02 1.634770185686e+01 0.0 
1.634770185686e+01 -3.553866693022e+02 0.0 
0.0 0.0 -1.486626123543e+02 
-2.042337454401e+01 -9.490438939365e-01 0.0 
-9.490438939365e-01 -5.858759214747e+01 0.0 
0.0 0.0 -2.330329000744e+01 
-8.904266592625e+01 2.153641779691e+01 0.0 
2.153641779691e+01 -1.830775853245e+02 0.0 
0.0 0.0 -8.123607537522e+01 
-5.991963586650e+00 -7.744994902371e-01 0.0 
-7.744994902371e-01 -2.337334315884e+01 0.0 
0.0 0.0 -8.769755948652e+00 
-1.548085837911e+02 1.442099371988e+01 0.0 
1.442099371988e+01 -3.741016864595e+02 0.0 
0.0 0.0 -1.582730810752e+02 
-1.001705618545e+02 3.065081161181e+01 0.0 
3.065081161181e+01 -2.122745466211e+02 0.0 
0.0 0.0 -9.333353254268e+01 
-4.628102527508e+01 1.347719055064e+01 0.0 
1.347719055064e+01 -1.184584634306e+02 0.0 
0.0 0.0 -5.078812081545e+01 
-1.144199284691e+02 3.445826357108e+01 0.0 
3.445826357108e+01 -2.876671567132e+02 0.0 
0.0 0.0 -1.202261255547e+02 
-6.220612683367e+01 2.704497983593e+00 0.0 
2.704497983593e+00 -1.070624379112e+02 0.0 
0.0 0.0 -5.038056942346e+01 
-8.117686127222e+01 9.563221907535e+00 0.0 
9.563221907535e+00 -1.798384367224e+02 0.0 
0.0 0.0 -7.790458939838e+01 
-1.573183272688e+02 2.874598395380e+01 0.0 
2.874598395380e+01 -3.684094302938e+02 0.0 
0.0 0.0 -1.573183272688e+02 
-5.134331831735e+01 1.632572883112e+00 0.0 
1.632572883112e+00 -7.964705167076e+01 0.0 
0.0 0.0 -3.889711099643e+01 
-1.134794270298e+02 3.870583871657e+01 0.0 
3.870583871657e+01 -2.635278310155e+02 0.0 
0.0 0.0 -1.127021774136e+02 
-9.634778039601e+01 2.843052016591e+01 0.0 
2.843052016591e+01 -1.942506947380e+02 0.0 
0.0 0.0 -8.677954254020e+01 
-5.500011562051e+01 1.127435778631e+00 0.0 
1.127435778631e+00 -9.108589086096e+01 0.0 
0.0 0.0 -4.342580194444e+01 
-1.109487576545e+02 3.730732914843e+01 0.0 
3.730732914843e+01 -2.551243050972e+02 0.0 
0.0 0.0 -1.094219188255e+02 
-6.465103051849e+01 -1.334318077017e+00 0.0 
-1.334318077017e+00 -1.625596745250e+02 0.0 
0.0 0.0 -6.776321151305e+01 
-2.273441478622e+01 2.013865554420e-02 0.0 
2.013865554420e-02 -7.265927332638e+00 0.0 
0.0 0.0 -8.600102635656e+00 
-1.256954606731e+02 3.280220628502e+01 0.0 
3.280220628502e+01 -3.169902870483e+02 0.0 
0.0 0.0 -1.324057243164e+02 
-8.099535602444e+01 6.745775343062e-01 0.0 
6.745775343062e-01 -1.797866594253e+02 0.0 
0.0 0.0 -7.783460463493e+01 
9.999999919122e-01 2.796538332555e-04 0.0 
2.796538332555e-04 -8.669640758750e+00 0.0 
0.0 0.0 -9.471886676923e-01 
-2.260705810396e+01 -9.307674080198e-02 0.0 
-9.307674080198e-02 -7.027606375472e+00 0.0 
0.0 0.0 -8.490399343829e+00 
-1.601947570433e+02 8.161138063829e-01 0.0 
8.161138063829e-01 -3.780044831447e+02 0.0 
0.0 0.0 -1.610597720564e+02 
-2.865218693878e+01 -3.545306496636e+00 0.0 
-3.545306496636e+00 -7.400476882455e+01 0.0 
0.0 0.0 -3.039708672900e+01 
-1.331647477793e+02 1.987543985526e+01 0.0 
1.987543985526e+01 -3.480239936092e+02 0.0 
0.0 0.0 -1.439566224165e+02 
-1.006545306842e+02 3.246539096977e+01 0.0 
3.246539096977e+01 -2.051272057233e+02 0.0 
0.0 0.0 -9.133452092225e+01 
-8.503203626393e+01 9.168736720494e+00 0.0 
9.168736720494e+00 -1.800294851148e+02 0.0 
0.0 0.0 -7.911845641362e+01 
-2.595468452721e+01 -2.397920863757e+00 0.0 
-2.397920863757e+00 -7.088267702012e+01 0.0 
0.0 0.0 -2.865120846420e+01 
-4.258461831811e+01 3.438094411561e+01 0.0 
3.438094411561e+01 -8.611781602152e+01 0.0 
0.0 0.0 -3.778900067370e+01 
-9.279894985038e+01 -1.568686642057e+00 0.0 
-1.568686642057e+00 -2.324608134641e+02 0.0 
0.0 0.0 -9.717792899434e+01 
-6.722252967719e+01 1.294427526500e+00 0.0 
1.294427526500e+00 -1.286513807388e+02 0.0 
0.0 0.0 -5.836217312479e+01 
-1.194088049952e+02 -3.959681013000e+00 0.0 
-3.959681013000e+00 -9.701334475838e+01 0.0 
0.0 0.0 -6.515102943889e+01 
-8.990620569242e+01 2.380807829132e+01 0.0 
2.380807829132e+01 -1.968620773573e+02 0.0 
0.0 0.0 -8.563048491491e+01 
-4.854843965940e+01 5.384619631585e-01 0.0 
5.384619631585e-01 -7.332315199813e+01 0.0 
0.0 0.0 -3.616147749726e+01 
-4.317871514048e+01 -2.029529522294e+01 0.0 
-2.029529522294e+01 -9.051299819651e+01 0.0 
0.0 0.0 -3.784733278186e+01 
-4.390266920388e+01 5.317130684171e-01 0.0 
5.317130684171e-01 -5.941209229547e+01 0.0 
0.0 0.0 -3.059442844981e+01 
-1.315663842758e+02 3.699028070322e+01 0.0 
3.699028070322e+01 -3.228466691826e+02 0.0 
0.0 0.0 -1.359239160375e+02 
-9.785242836797e+01 1.046525912420e+00 0.0 
1.046525912420e+00 -2.435832162435e+02 0.0 
0.0 0.0 -1.020306933835e+02 
-4.979587657267e+01 3.458355893664e+01 0.0 
3.458355893664e+01 -3.191814412435e+01 0.0 
0.0 0.0 -2.526034553927e+01 
-5.765713105900e+01 -3.033380763288e+00 0.0 
-3.033380763288e+00 -1.472921009852e+02 0.0 
0.0 0.0 -6.108476961326e+01 
-8.477974095093e+01 -2.226884311143e+00 0.0 
-2.226884311143e+00 -2.137828499076e+02 0.0 
0.0 0.0 -8.916877725757e+01 
-1.021618001285e+02 -1.546467965778e+00 0.0 
-1.546467965778e+00 -2.528365633514e+02 0.0 
0.0 0.0 -1.060995090440e+02 
-1.309289356377e+02 3.035017895543e+01 0.0 
3.035017895543e+01 -3.296769952873e+02 0.0 
0.0 0.0 -1.377817792775e+02 
-8.274937974650e+01 -1.958026531527e-01 0.0 
-1.958026531527e-01 -2.083011185680e+02 0.0 
0.0 0.0 -8.691514949434e+01 
-8.826412930696e+01 -1.454332819135e+00 0.0 
-1.454332819135e+00 -2.209754522515e+02 0.0 
0.0 0.0 -9.237187446754e+01 
-1.372916584224e+01 -2.676901937491e+00 0.0 
-2.676901937491e+00 -3.737699005869e+01 0.0 
0.0 0.0 -1.493184677028e+01 
-1.503255421597e+02 3.917474059895e+00 0.0 
3.917474059895e+00 -3.651029964468e+02 0.0 
0.0 0.0 -1.542285615820e+02 
-1.099125412548e+02 3.516753637077e+01 0.0 
3.516753637077e+01 -2.711190913576e+02 0.0 
0.0 0.0 -1.139094897837e+02 
-3.896881364474e+01 3.148289718141e+01 0.0 
3.148289718141e+01 -1.012137572713e+02 0.0 
0.0 0.0 -4.276140499409e+01 
-8.014767296846e+01 1.680716829510e+00 0.0 
1.680716829510e+00 -1.788068661421e+02 0.0 
0.0 0.0 -7.728636173315e+01 
-1.600656596424e+02 -2.259823858976e-01 0.0 
-2.259823858976e-01 -3.775049344434e+02 0.0 
0.0 0.0 -1.608711782258e+02 
-2.940215538516e+01 5.994068144036e-01 0.0 
5.994068144036e-01 -2.287433932482e+01 0.0 
0.0 0.0 -1.528294841299e+01 
-4.928256199477e+01 4.717604621946e-01 0.0 
4.717604621946e-01 -7.361760617808e+01 0.0 
0.0 0.0 -3.647005045185e+01 
-8.291451497753e+01 -2.060970766703e+00 0.0 
-2.060970766703e+00 -2.080738591721e+02 0.0 
0.0 0.0 -8.689651224487e+01 
-8.611087641632e+01 -8.864975938665e-01 0.0 
-8.864975938665e-01 -2.152449409040e+02 0.0 
0.0 0.0 -9.000674519609e+01 
-8.838897891933e+01 -6.703246011873e-01 0.0 
-6.703246011873e-01 -2.218246459495e+02 0.0 
0.0 0.0 -9.266408746064e+01 
-1.269919393800e+02 1.899884630596e+01 0.0 
1.899884630596e+01 -3.364865248433e+02 0.0 
0.0 0.0 -1.386435392670e+02 
-3.636827501105e+01 -1.769890439606e+01 0.0 
-1.769890439606e+01 -6.720567029980e+01 0.0 
0.0 0.0 -2.938182044182e+01 
-1.151972441592e+02 3.883592140513e+01 0.0 
3.883592140513e+01 -2.762426252663e+02 0.0 
0.0 0.0 -1.170319608277e+02 
-3.578288867281e+01 -2.829825731391e-02 0.0 
-2.829825731391e-02 -3.954982085670e+01 0.0 
0.0 0.0 -2.219981285885e+01 
-9.520847186289e+01 2.349925649441e+01 0.0 
2.349925649441e+01 -1.957403861321e+02 0.0 
0.0 0.0 -8.688465739849e+01 
-1.295142227274e+02 1.927382345232e+01 0.0 
1.927382345232e+01 -3.375105408579e+02 0.0 
0.0 0.0 -1.397074290756e+02 
-4.571398088714e+01 1.167594223487e+00 0.0 
1.167594223487e+00 -6.054603499402e+01 0.0 
0.0 0.0 -3.147800476435e+01 
-1.048109999876e+02 3.588167701133e+01 0.0 
3.588167701133e+01 -2.415700824082e+02 0.0 
0.0 0.0 -1.035143247187e+02 
-1.292276219814e+02 2.912293742988e+01 0.0 
2.912293742988e+01 -3.283614340202e+02 0.0 
0.0 0.0 -1.368767168005e+02 
-1.351683926484e+02 3.305164766696e+01 0.0 
3.305164766696e+01 -3.377396232430e+02 0.0 
0.0 0.0 -1.414724047674e+02 
-4.717055034195e+01 3.801177282119e+01 0.0 
3.801177282119e+01 -6.854547395644e+01 0.0 
0.0 0.0 -3.569478391919e+01 
-1.071423097678e+02 3.741967172485e+01 0.0 
3.741967172485e+01 -2.428074040111e+02 0.0 
0.0 0.0 -1.045849141337e+02 
-1.105065091415e+02 3.804532438133e+01 0.0 
3.804532438133e+01 -2.586381663172e+02 0.0 
0.0 0.0 -1.103434026376e+02 
-1.202417715579e+01 -1.090911262291e+00 0.0 
-1.090911262291e+00 -3.803250712909e+01 0.0 
0.0 0.0 -1.461700528546e+01 
-7.882168969151e+01 -1.050700071530e+00 0.0 
-1.050700071530e+00 -1.981602784850e+02 0.0 
0.0 0.0 -8.269459045296e+01 
-5.200436117740e+01 3.785677593021e+01 0.0 
3.785677593021e+01 -6.693423783369e+01 0.0 
0.0 0.0 -3.664409912577e+01 
-1.105103122665e+02 3.938649261318e+01 0.0 
3.938649261318e+01 -2.496894280981e+02 0.0 
0.0 0.0 -1.076599221094e+02 

TENSORS element_materi_strain_total float
-1.365232860776e-03 2.751133798298e-03 0.0 
2.751133798298e-03 6.463488804071e-03 0.0 
0.0 0.0 0.0 
-1.231646395683e-03 2.414366613087e-03 0.0 
2.414366613087e-03 6.219755530816e-03 0.0 
0.0 0.0 0.0 
-2.603918000152e-04 3.333851172971e-03 0.0 
3.333851172971e-03 1.401181779125e-02 0.0 
0.0 0.0 0.0 
-4.850043069966e-04 3.235444462090e-04 0.0 
3.235444462090e-04 1.737282921012e-02 0.0 
0.0 0.0 0.0 
-1.480934442831e-03 1.110842767038e-04 0.0 
1.110842767038e-04 1.513287033562e-02 0.0 
0.0 0.0 0.0 
7.757004172630e-04 2.951401718428e-03 0.0 
2.951401718428e-03 -3.144733756226e-03 0.0 
0.0 0.0 0.0 
-1.395222604847e-03 8.789731416841e-05 0.0 
8.789731416841e-05 1.511646196355e-02 0.0 
0.0 0.0 0.0 
-1.318133967937e-03 2.811620094459e-03 0.0 
2.811620094459e-03 5.697602288223e-03 0.0 
0.0 0.0 0.0 
-1.474888514568e-03 3.975858504045e-05 0.0 
3.975858504045e-05 1.512182419805e-02 0.0 
0.0 0.0 0.0 
-4.725472218141e-04 5.967508471140e-04 0.0 
5.967508471140e-04 1.733915598874e-02 0.0 
0.0 0.0 0.0 
1.577653414386e-04 -7.265966148990e-05 0.0 
-7.265966148990e-05 4.712483497035e-03 0.0 
0.0 0.0 0.0 
-1.312746439945e-03 2.512028768267e-03 0.0 
2.512028768267e-03 5.431552712679e-03 0.0 
0.0 0.0 0.0 
5.893909696630e-05 4.864045545404e-05 0.0 
4.864045545404e-05 7.117772028556e-03 0.0 
0.0 0.0 0.0 
-1.908331820269e-03 6.446781153058e-04 0.0 
6.446781153058e-04 1.546238390518e-02 0.0 
0.0 0.0 0.0 
3.550013709086e-05 3.520813443738e-06 0.0 
3.520813443738e-06 7.289734185394e-03 0.0 
0.0 0.0 0.0 
-2.895615622234e-04 4.894434928517e-04 0.0 
4.894434928517e-04 1.744175913534e-02 0.0 
0.0 0.0 0.0 
-1.564978077405e-03 1.582713900371e-04 0.0 
1.582713900371e-04 1.502666448389e-02 0.0 
0.0 0.0 0.0 
1.201322737916e-03 1.437035400575e-03 0.0 
1.437035400575e-03 -3.526874898448e-03 0.0 
0.0 0.0 0.0 
2.475487533939e-04 -9.707729000258e-05 0.0 
-9.707729000258e-05 1.339179773209e-03 0.0 
0.0 0.0 0.0 
1.659599313102e-04 -8.804947570890e-05 0.0 
-8.804947570890e-05 1.436653602616e-03 0.0 
0.0 0.0 0.0 
-5.903473093081e-04 5.807796711349e-04 0.0 
5.807796711349e-04 1.734267763874e-02 0.0 
0.0 0.0 0.0 
-1.240863835235e-03 2.408737208740e-03 0.0 
2.408737208740e-03 7.513871722522e-03 0.0 
0.0 0.0 0.0 
-1.343088727361e-03 2.503849336714e-03 0.0 
2.503849336714e-03 8.099499362649e-03 0.0 
0.0 0.0 0.0 
8.608441273834e-04 1.151148353140e-03 0.0 
1.151148353140e-03 6.209645365982e-03 0.0 
0.0 0.0 0.0 
-1.979584873254e-03 1.413859312198e-03 0.0 
1.413859312198e-03 1.530041663151e-02 0.0 
0.0 0.0 0.0 
1.519372971244e-04 -1.012467870403e-04 0.0 
-1.012467870403e-04 4.935743030837e-03 0.0 
0.0 0.0 0.0 
-2.715917363821e-03 1.220667928164e-03 0.0 
1.220667928164e-03 1.463683846572e-02 0.0 
0.0 0.0 0.0 
4.323319133861e-04 3.521219443472e-03 0.0 
3.521219443472e-03 9.832095825584e-03 0.0 
0.0 0.0 0.0 
-2.200804840182e-03 1.653441699308e-03 0.0 
1.653441699308e-03 1.528022300801e-02 0.0 
0.0 0.0 0.0 
7.592315504199e-04 1.134003307672e-03 0.0 
1.134003307672e-03 6.476326652127e-03 0.0 
0.0 0.0 0.0 
8.978393674224e-04 -2.550417131039e-03 0.0 
-2.550417131039e-03 -2.155378146051e-03 0.0 
0.0 0.0 0.0 
1.292690934915e-04 -2.114448776689e-04 0.0 
-2.114448776689e-04 3.189351593318e-04 0.0 
0.0 0.0 0.0 
-4.584850898215e-04 3.509981504981e-03 0.0 
3.509981504981e-03 1.424403978373e-02 0.0 
0.0 0.0 0.0 
1.129230113899e-04 -2.975077690468e-05 0.0 
-2.975077690468e-05 6.005191380113e-03 0.0 
0.0 0.0 0.0 
3.568663060287e-04 3.597334453029e-04 0.0 
3.597334453029e-04 6.709732747330e-03 0.0 
0.0 0.0 0.0 
8.256336362300e-05 2.235852134191e-04 0.0 
2.235852134191e-04 7.385493793178e-03 0.0 
0.0 0.0 0.0 
8.160740337937e-05 7.504451539324e-05 0.0 
7.504451539324e-05 7.376334506813e-03 0.0 
0.0 0.0 0.0 
7.417766653963e-04 2.296719358479e-03 0.0 
2.296719358479e-03 7.411380204760e-03 0.0 
0.0 0.0 0.0 
-1.355799766749e-03 -3.874849555843e-05 0.0 
-3.874849555843e-05 1.466810576384e-02 0.0 
0.0 0.0 0.0 
-1.328178740409e-03 6.237250935395e-05 0.0 
6.237250935395e-05 1.468449018729e-02 0.0 
0.0 0.0 0.0 
-1.420598733864e-03 2.440904517130e-03 0.0 
2.440904517130e-03 9.652978925887e-03 0.0 
0.0 0.0 0.0 
2.934856804615e-04 6.508612207784e-04 0.0 
6.508612207784e-04 6.800995182781e-03 0.0 
0.0 0.0 0.0 
-1.354850173977e-03 2.894813203318e-03 0.0 
2.894813203318e-03 4.066584732528e-03 0.0 
0.0 0.0 0.0 
-2.370102204446e-03 1.242179062410e-03 0.0 
1.242179062410e-03 1.449426419325e-02 0.0 
0.0 0.0 0.0 
-6.289932511674e-04 1.066741324560e-04 0.0 
1.066741324560e-04 1.724083098358e-02 0.0 
0.0 0.0 0.0 
-1.426270061515e-03 2.849920660393e-03 0.0 
2.849920660393e-03 4.062643577058e-03 0.0 
0.0 0.0 0.0 
9.150827475746e-04 -2.445554488501e-03 0.0 
-2.445554488501e-03 -2.850441026765e-03 0.0 
0.0 0.0 0.0 
-4.356224348054e-04 1.974817161315e-04 0.0 
1.974817161315e-04 1.725344986471e-02 0.0 
0.0 0.0 0.0 
-4.916637380231e-04 -2.144367260990e-03 0.0 
-2.144367260990e-03 -1.142623150543e-03 0.0 
0.0 0.0 0.0 
-2.018200854093e-03 5.228348762850e-04 0.0 
5.228348762850e-04 1.535031001323e-02 0.0 
0.0 0.0 0.0 
-1.373297161304e-03 2.495091163007e-03 0.0 
2.495091163007e-03 8.841830364807e-03 0.0 
0.0 0.0 0.0 
1.639359764773e-04 -1.004515291646e-04 0.0 
-1.004515291646e-04 1.765890912796e-03 0.0 
0.0 0.0 0.0 
1.885203699091e-03 -2.232043002107e-03 0.0 
-2.232043002107e-03 -2.759198502428e-03 0.0 
0.0 0.0 0.0 
-1.252714489477e-03 2.331262265678e-03 0.0 
2.331262265678e-03 8.941753152667e-03 0.0 
0.0 0.0 0.0 
-4.220145629519e-04 2.796622877548e-03 0.0 
2.796622877548e-03 1.561521664532e-02 0.0 
0.0 0.0 0.0 
6.267660715120e-05 -2.289997406502e-04 0.0 
-2.289997406502e-04 2.372984463307e-03 0.0 
0.0 0.0 0.0 
1.041108063142e-04 -9.326679972974e-05 0.0 
-9.326679972974e-05 1.851814796887e-03 0.0 
0.0 0.0 0.0 
1.293037644750e-04 1.408908337433e-06 0.0 
1.408908337433e-06 6.006046040214e-03 0.0 
0.0 0.0 0.0 
2.837645783540e-04 -1.913905276046e-04 0.0 
-1.913905276046e-04 9.459930631615e-04 0.0 
0.0 0.0 0.0 
-3.499576221425e-04 4.687142466636e-04 0.0 
4.687142466636e-04 1.744205731266e-02 0.0 
0.0 0.0 0.0 
-8.680590137696e-04 -2.005879748219e-03 0.0 
-2.005879748219e-03 -3.452873975262e-03 0.0 
0.0 0.0 0.0 
8.757713135876e-04 2.916191917199e-03 0.0 
2.916191917199e-03 8.095992638227e-03 0.0 
0.0 0.0 0.0 
2.162391117322e-05 2.891974177517e-03 0.0 
2.891974177517e-03 5.260065192277e-03 0.0 
0.0 0.0 0.0 
1.721695743672e-03 -2.169564396972e-03 0.0 
-2.169564396972e-03 -2.341666533483e-03 0.0 
0.0 0.0 0.0 
7.891119774350e-05 1.581018980010e-05 0.0 
1.581018980010e-05 7.059115705077e-03 0.0 
0.0 0.0 0.0 
-1.262699188046e-03 2.348402029288e-03 0.0 
2.348402029288e-03 8.219406953456e-03 0.0 
0.0 0.0 0.0 
2.904359584153e-04 -8.081761199383e-04 0.0 
-8.081761199383e-04 -4.873528842767e-03 0.0 
0.0 0.0 0.0 
-4.292349933553e-04 3.599861559656e-03 0.0 
3.599861559656e-03 1.379486600934e-02 0.0 
0.0 0.0 0.0 
-3.771400310941e-04 -1.528485247593e-03 0.0 
-1.528485247593e-03 7.843827918586e-04 0.0 
0.0 0.0 0.0 
3.127061877106e-05 3.578060227300e-03 0.0 
3.578060227300e-03 1.177097639760e-02 0.0 
0.0 0.0 0.0 
1.827014884039e-04 -1.262276276099e-04 0.0 
-1.262276276099e-04 5.115287673409e-03 0.0 
0.0 0.0 0.0 
0.0 1.905547756041e-03 0.0 
1.905547756041e-03 1.697548956057e-02 0.0 
0.0 0.0 0.0 
3.869107755250e-04 3.184215637077e-03 0.0 
3.184215637077e-03 9.434952853283e-03 0.0 
0.0 0.0 0.0 
5.563926011236e-04 -2.800231912535e-06 0.0 
-2.800231912535e-06 2.507659090361e-04 0.0 
0.0 0.0 0.0 
4.430166486680e-05 -1.937708558634e-04 0.0 
-1.937708558634e-04 2.494302128492e-03 0.0 
0.0 0.0 0.0 
-7.134264502766e-04 1.369555565010e-03 0.0 
1.369555565010e-03 1.715672940471e-02 0.0 
0.0 0.0 0.0 
-6.867270411872e-04 3.063710929744e-03 0.0 
3.063710929744e-03 1.537413116380e-02 0.0 
0.0 0.0 0.0 
-1.276769628401e-03 3.027813342949e-03 0.0 
3.027813342949e-03 2.421042287295e-03 0.0 
0.0 0.0 0.0 
1.665035544489e-04 -2.032549201346e-04 0.0 
-2.032549201346e-04 1.025191699130e-03 0.0 
0.0 0.0 0.0 
-1.239887334398e-03 3.071736918276e-03 0.0 
3.071736918276e-03 2.422887113669e-03 0.0 
0.0 0.0 0.0 
-5.498609774657e-04 -1.762528098192e-03 0.0 
-1.762528098192e-03 8.214493423879e-04 0.0 
0.0 0.0 0.0 
-1.651610325070e-03 1.297054889270e-04 0.0 
1.297054889270e-04 1.508331641801e-02 0.0 
0.0 0.0 0.0 
-1.368341427187e-03 2.594205810618e-03 0.0 
2.594205810618e-03 7.364198167093e-03 0.0 
0.0 0.0 0.0 
-1.276916350554e-03 2.368998260933e-03 0.0 
2.368998260933e-03 6.873535886645e-03 0.0 
0.0 0.0 0.0 
-1.598608053557e-03 1.256576794497e-04 0.0 
1.256576794497e-04 1.536672857219e-02 0.0 
0.0 0.0 0.0 
-1.459845474023e-03 1.370686864854e-04 0.0 
1.370686864854e-04 1.536660893469e-02 0.0 
0.0 0.0 0.0 
1.465257529707e-04 -7.731458813121e-05 0.0 
-7.731458813121e-05 5.339163422569e-03 0.0 
0.0 0.0 0.0 
1.249485431523e-04 1.561483304181e-05 0.0 
1.561483304181e-05 5.831168187301e-03 0.0 
0.0 0.0 0.0 
-7.700895785011e-04 3.099245471720e-03 0.0 
3.099245471720e-03 1.280331034279e-02 0.0 
0.0 0.0 0.0 
-1.619320771566e-03 9.768108983528e-05 0.0 
9.768108983528e-05 1.513160087396e-02 0.0 
0.0 0.0 0.0 
-2.645431559146e-04 -2.719768103517e-04 0.0 
-2.719768103517e-04 5.005517810870e-04 0.0 
0.0 0.0 0.0 
-2.277403544782e-03 1.373105040315e-03 0.0 
1.373105040315e-03 1.480837694213e-02 0.0 
0.0 0.0 0.0 
-9.724851921057e-04 1.094223479459e-04 0.0 
1.094223479459e-04 1.655597297504e-02 0.0 
0.0 0.0 0.0 
-1.069459541427e-03 1.837119070166e-04 0.0 
1.837119070166e-04 1.650996592836e-02 0.0 
0.0 0.0 0.0 
-4.608921247510e-04 2.125203841771e-03 0.0 
2.125203841771e-03 1.687533392703e-02 0.0 
0.0 0.0 0.0 
3.703847111414e-04 2.485389098229e-03 0.0 
2.485389098229e-03 8.058252275316e-03 0.0 
0.0 0.0 0.0 
-1.820999104372e-03 2.077492294352e-04 0.0 
2.077492294352e-04 1.512467116391e-02 0.0 
0.0 0.0 0.0 
4.602991871616e-04 5.725444431879e-04 0.0 
5.725444431879e-04 6.833629801011e-03 0.0 
0.0 0.0 0.0 
-1.222289791352e-03 -2.920347635058e-07 0.0 
-2.920347635058e-07 1.567279383692e-02 0.0 
0.0 0.0 0.0 
-4.633962695035e-04 2.813702937052e-03 0.0 
2.813702937052e-03 5.920714073887e-03 0.0 
0.0 0.0 0.0 
-1.460735174691e-03 5.133771794592e-05 0.0 
5.133771794592e-05 1.489940516120e-02 0.0 
0.0 0.0 0.0 
3.861833907126e-05 6.162235360973e-05 0.0 
6.162235360973e-05 7.286098514949e-03 0.0 
0.0 0.0 0.0 
1.414185536053e-03 2.320501680986e-03 0.0 
2.320501680986e-03 6.246217984972e-03 0.0 
0.0 0.0 0.0 
7.362703428493e-04 2.797097994303e-03 0.0 
2.797097994303e-03 8.115816106195e-03 0.0 
0.0 0.0 0.0 
2.916994352933e-04 2.871132424601e-03 0.0 
2.871132424601e-03 3.553898786146e-03 0.0 
0.0 0.0 0.0 
-5.183139912714e-04 -2.990179612112e-03 0.0 
-2.990179612112e-03 -1.340532799679e-03 0.0 
0.0 0.0 0.0 
8.178445712015e-05 -2.240166888436e-05 0.0 
-2.240166888436e-05 6.648815603718e-03 0.0 
0.0 0.0 0.0 
-9.410728006920e-04 2.231725358650e-04 0.0 
2.231725358650e-04 1.680524377777e-02 0.0 
0.0 0.0 0.0 
-1.137073384797e-03 -3.076516878237e-03 0.0 
-3.076516878237e-03 -2.052320625119e-03 0.0 
0.0 0.0 0.0 
8.922644275944e-05 9.328029074105e-05 0.0 
9.328029074105e-05 7.127415985854e-03 0.0 
0.0 0.0 0.0 
-5.644403140799e-04 3.037233691445e-03 0.0 
3.037233691445e-03 1.210351015313e-02 0.0 
0.0 0.0 0.0 
6.612744911880e-04 1.295221539741e-06 0.0 
1.295221539741e-06 3.767776475705e-05 0.0 
0.0 0.0 0.0 
1.287340499622e-03 2.707129426166e-03 0.0 
2.707129426166e-03 3.483375494096e-03 0.0 
0.0 0.0 0.0 
-1.942408888445e-03 2.361625935829e-03 0.0 
2.361625935829e-03 1.283082158357e-02 0.0 
0.0 0.0 0.0 
9.032174501811e-05 -3.391449935602e-04 0.0 
-3.391449935602e-04 2.977409810045e-03 0.0 
0.0 0.0 0.0 
-3.551744563273e-04 2.826631659879e-03 0.0 
2.826631659879e-03 5.088378444266e-03 0.0 
0.0 0.0 0.0 
2.973403159023e-06 2.802343826011e-03 0.0 
2.802343826011e-03 5.266807418625e-03 0.0 
0.0 0.0 0.0 
2.135673451271e-04 3.595267614752e-04 0.0 
3.595267614752e-04 6.962474256309e-03 0.0 
0.0 0.0 0.0 
-1.249102691346e-03 6.347229009907e-05 0.0 
6.347229009907e-05 1.555090026196e-02 0.0 
0.0 0.0 0.0 
1.220786969947e-04 2.960329709612e-03 0.0 
2.960329709612e-03 4.407385258702e-03 0.0 
0.0 0.0 0.0 
-2.542315673429e-04 -9.035093210578e-04 0.0 
-9.035093210578e-04 1.067052267636e-03 0.0 
0.0 0.0 0.0 
-2.304916220517e-03 1.742305415653e-03 0.0 
1.742305415653e-03 1.422142992537e-02 0.0 
0.0 0.0 0.0 
-7.991176632507e-04 1.555605184976e-04 0.0 
1.555605184976e-04 1.681857551035e-02 0.0 
0.0 0.0 0.0 
1.365806985865e-04 2.812680498654e-03 0.0 
2.812680498654e-03 4.414469865895e-03 0.0 
0.0 0.0 0.0 
-1.058741646726e-03 3.167490909357e-03 0.0 
3.167490909357e-03 5.872763968222e-04 0.0 
0.0 0.0 0.0 
-1.608129278657e-03 2.440164666699e-03 0.0 
2.440164666699e-03 1.118570679477e-02 0.0 
0.0 0.0 0.0 
5.269701754806e-05 -3.057038036518e-04 0.0 
-3.057038036518e-04 2.948465037141e-03 0.0 
0.0 0.0 0.0 
-1.374426606417e-03 2.311316181732e-03 0.0 
2.311316181732e-03 1.048045064535e-02 0.0 
0.0 0.0 0.0 
-3.845810080456e-04 1.600907284963e-03 0.0 
1.600907284963e-03 1.707695050219e-02 0.0 
0.0 0.0 0.0 
-1.745029189332e-04 3.445823460955e-03 0.0 
3.445823460955e-03 -6.751166472035e-04 0.0 
0.0 0.0 0.0 
1.915240611741e-04 -9.950243748396e-05 0.0 
-9.950243748396e-05 4.932538807656e-03 0.0 
0.0 0.0 0.0 
-4.295764444018e-04 3.485494988496e-04 0.0 
3.485494988496e-04 1.737356094444e-02 0.0 
0.0 0.0 0.0 
-3.664016301193e-04 2.833470430892e-03 0.0 
2.833470430892e-03 7.778998200178e-03 0.0 
0.0 0.0 0.0 
-1.507038540941e-03 2.440911756941e-03 0.0 
2.440911756941e-03 1.043154465227e-02 0.0 
0.0 0.0 0.0 
4.294978906962e-04 4.651969708908e-04 0.0 
4.651969708908e-04 6.711844850571e-03 0.0 
0.0 0.0 0.0 
4.914329589778e-05 -2.490383567849e-05 0.0 
-2.490383567849e-05 7.131896092317e-03 0.0 
0.0 0.0 0.0 
1.830422640385e-04 -5.952501287059e-05 0.0 
-5.952501287059e-05 5.339638471693e-03 0.0 
0.0 0.0 0.0 
-5.396762163814e-04 2.831391453911e-03 0.0 
2.831391453911e-03 8.618299403522e-03 0.0 
0.0 0.0 0.0 
6.363152671720e-04 1.082986368041e-03 0.0 
1.082986368041e-03 6.869436134979e-03 0.0 
0.0 0.0 0.0 
-6.995351750501e-04 2.728251695972e-03 0.0 
2.728251695972e-03 8.384675674620e-03 0.0 
0.0 0.0 0.0 
-3.645146548618e-04 1.030124408579e-03 0.0 
1.030124408579e-03 1.730542702630e-02 0.0 
0.0 0.0 0.0 
3.952386501305e-05 3.820066319507e-03 0.0 
3.820066319507e-03 1.201905751972e-02 0.0 
0.0 0.0 0.0 
-2.186382819926e-03 8.192025364308e-04 0.0 
8.192025364308e-04 1.549984244736e-02 0.0 
0.0 0.0 0.0 
-1.197565744292e-03 2.326170992894e-04 0.0 
2.326170992894e-04 1.616778153527e-02 0.0 
0.0 0.0 0.0 
-7.550342407374e-04 2.741700878432e-03 0.0 
2.741700878432e-03 8.384134969487e-03 0.0 
0.0 0.0 0.0 
-1.310019088329e-03 2.334064697644e-03 0.0 
2.334064697644e-03 9.682756515095e-03 0.0 
0.0 0.0 0.0 
-1.872749675155e-04 2.899333354945e-03 0.0 
2.899333354945e-03 8.035583329962e-03 0.0 
0.0 0.0 0.0 
6.799849958203e-04 2.802435451863e-03 0.0 
2.802435451863e-03 3.784697109053e-03 0.0 
0.0 0.0 0.0 
-1.385311526946e-03 1.095523742017e-05 0.0 
1.095523742017e-05 1.494278270372e-02 0.0 
0.0 0.0 0.0 
1.380899099003e-03 2.493653811868e-03 0.0 
2.493653811868e-03 3.509194742116e-03 0.0 
0.0 0.0 0.0 
9.698251709489e-06 -1.606716119008e-04 0.0 
-1.606716119008e-04 3.952878659568e-04 0.0 
0.0 0.0 0.0 
-1.303418955004e-03 1.675133527169e-05 0.0 
1.675133527169e-05 1.524045191560e-02 0.0 
0.0 0.0 0.0 
2.463545889608e-04 -7.564009620040e-05 0.0 
-7.564009620040e-05 1.024627405058e-03 0.0 
0.0 0.0 0.0 
-1.741158237633e-03 2.438232054119e-03 0.0 
2.438232054119e-03 1.197294956024e-02 0.0 
0.0 0.0 0.0 
3.501306687572e-04 9.696639540841e-04 0.0 
9.696639540841e-04 6.831618640097e-03 0.0 
0.0 0.0 0.0 
2.173604586249e-04 3.025147742087e-03 0.0 
3.025147742087e-03 3.542619763941e-03 0.0 
0.0 0.0 0.0 
1.471054316140e-04 -1.335334988419e-05 0.0 
-1.335334988419e-05 5.583587665533e-03 0.0 
0.0 0.0 0.0 
-1.402629113438e-03 2.693694320795e-03 0.0 
2.693694320795e-03 4.838298307736e-03 0.0 
0.0 0.0 0.0 
1.494649338112e-03 2.496875690900e-03 0.0 
2.496875690900e-03 6.230107583355e-03 0.0 
0.0 0.0 0.0 
-1.326526869762e-03 1.595316341361e-05 0.0 
1.595316341361e-05 1.496770135187e-02 0.0 
0.0 0.0 0.0 
1.492795549095e-03 2.640025487449e-03 0.0 
2.640025487449e-03 2.573317235506e-03 0.0 
0.0 0.0 0.0 
1.126938392779e-04 -3.989377792215e-05 0.0 
-3.989377792215e-05 6.196037706506e-03 0.0 
0.0 0.0 0.0 
-5.788287157646e-04 -1.084087213987e-03 0.0 
-1.084087213987e-03 1.104069219121e-03 0.0 
0.0 0.0 0.0 
1.025920918989e-04 3.372006951368e-05 0.0 
3.372006951368e-05 6.642826891945e-03 0.0 
0.0 0.0 0.0 
-1.361349679191e-03 2.584430409062e-03 0.0 
2.584430409062e-03 1.165120386014e-02 0.0 
0.0 0.0 0.0 
1.210830991141e-04 7.645489544028e-05 0.0 
7.645489544028e-05 7.135942955946e-03 0.0 
0.0 0.0 0.0 
-1.302547638685e-03 1.379462670821e-05 0.0 
1.379462670821e-05 1.494288656385e-02 0.0 
0.0 0.0 0.0 
7.414904009111e-04 2.904130207269e-03 0.0 
2.904130207269e-03 2.823731866098e-03 0.0 
0.0 0.0 0.0 
-1.704890738339e-03 2.257278701983e-03 0.0 
2.257278701983e-03 1.204156402097e-02 0.0 
0.0 0.0 0.0 
1.269858604311e-04 -7.588274770921e-05 0.0 
-7.588274770921e-05 4.717721391179e-03 0.0 
0.0 0.0 0.0 
-1.413132109089e-03 2.866379981859e-03 0.0 
2.866379981859e-03 4.886768672081e-03 0.0 
0.0 0.0 0.0 
1.628869580603e-03 2.347648028455e-03 0.0 
2.347648028455e-03 2.612325565803e-03 0.0 
0.0 0.0 0.0 
-1.191835663424e-03 1.748556302287e-04 0.0 
1.748556302287e-04 1.634459239758e-02 0.0 
0.0 0.0 0.0 
-1.335534121209e-03 3.829623499390e-05 0.0 
3.829623499390e-05 1.494374537851e-02 0.0 
0.0 0.0 0.0 
1.049888914114e-03 2.791537335475e-03 0.0 
2.791537335475e-03 3.110646471696e-03 0.0 
0.0 0.0 0.0 
-1.522628101707e-03 2.289802198501e-03 0.0 
2.289802198501e-03 1.124152758768e-02 0.0 
0.0 0.0 0.0 
8.809472039872e-05 3.308496942261e-03 0.0 
3.308496942261e-03 1.090194768926e-02 0.0 
0.0 0.0 0.0 
9.007880047163e-05 -3.458914603114e-04 0.0 
-3.458914603114e-04 3.240484390676e-03 0.0 
0.0 0.0 0.0 
2.989186650948e-04 3.272993074780e-03 0.0 
3.272993074780e-03 9.566449279176e-03 0.0 
0.0 0.0 0.0 
7.221674799140e-05 3.797086161132e-03 0.0 
3.797086161132e-03 1.152217628112e-02 0.0 
0.0 0.0 0.0 
-8.584704976705e-04 2.767948099060e-03 0.0 
2.767948099060e-03 5.802897972199e-03 0.0 
0.0 0.0 0.0 
1.040071047971e-04 -2.717323941025e-04 0.0 
-2.717323941025e-04 3.328395201735e-03 0.0 
0.0 0.0 0.0 
1.208495300911e-03 1.354624717176e-03 0.0 
1.354624717176e-03 5.790590814374e-03 0.0 
0.0 0.0 0.0 
-1.099821809159e-03 2.619156826286e-03 0.0 
2.619156826286e-03 9.007616672959e-03 0.0 
0.0 0.0 0.0 
-7.812718851729e-04 2.714701501539e-03 0.0 
2.714701501539e-03 4.982684515023e-03 0.0 
0.0 0.0 0.0 
-1.678363045008e-03 2.387111017991e-03 0.0 
2.387111017991e-03 1.223200033859e-02 0.0 
0.0 0.0 0.0 
9.617908318105e-04 2.718666438503e-03 0.0 
2.718666438503e-03 4.066149470754e-03 0.0 
0.0 0.0 0.0 
-3.155695394229e-04 7.393458061535e-04 0.0 
7.393458061535e-04 1.736499231943e-02 0.0 
0.0 0.0 0.0 
-9.245155109644e-04 2.857979413595e-03 0.0 
2.857979413595e-03 1.328650082090e-02 0.0 
0.0 0.0 0.0 
1.003294617372e-04 2.448334689649e-05 0.0 
2.448334689649e-05 6.444344806728e-03 0.0 
0.0 0.0 0.0 
-1.398710395403e-03 2.970192539063e-03 0.0 
2.970192539063e-03 3.276926722886e-03 0.0 
0.0 0.0 0.0 
1.896465204730e-03 2.152998821616e-03 0.0 
2.152998821616e-03 1.702487526632e-03 0.0 
0.0 0.0 0.0 
-6.613215439695e-04 3.023515961416e-03 0.0 
3.023515961416e-03 1.282093660477e-02 0.0 
0.0 0.0 0.0 
-2.772678775530e-03 2.277734961061e-03 0.0 
2.277734961061e-03 -2.447922038179e-03 0.0 
0.0 0.0 0.0 
-1.019790689766e-03 2.570405550145e-03 0.0 
2.570405550145e-03 9.008539441574e-03 0.0 
0.0 0.0 0.0 
1.380102586822e-03 7.919435229409e-04 0.0 
7.919435229409e-04 4.929089750260e-03 0.0 
0.0 0.0 0.0 
3.452293392716e-04 -1.772133151070e-04 0.0 
-1.772133151070e-04 6.097298989778e-04 0.0 
0.0 0.0 0.0 
-4.732969259309e-04 3.161380143141e-03 0.0 
3.161380143141e-03 1.483191941703e-02 0.0 
0.0 0.0 0.0 
-1.673902812466e-03 2.153970128872e-03 0.0 
2.153970128872e-03 1.461975628540e-02 0.0 
0.0 0.0 0.0 
9.736829239495e-04 -1.226833628340e-03 0.0 
-1.226833628340e-03 2.013369265692e-03 0.0 
0.0 0.0 0.0 
1.557151742313e-03 9.750625078955e-04 0.0 
9.750625078955e-04 4.916434047222e-03 0.0 
0.0 0.0 0.0 
-2.306077044623e-03 1.753623008417e-03 0.0 
1.753623008417e-03 1.466451221577e-02 0.0 
0.0 0.0 0.0 
-2.289921300879e-03 1.284480505437e-03 0.0 
1.284480505437e-03 1.545400546281e-02 0.0 
0.0 0.0 0.0 
6.350322644870e-04 1.025998053924e-03 0.0 
1.025998053924e-03 6.450225811249e-03 0.0 
0.0 0.0 0.0 
1.953718101941e-04 -1.237910539899e-03 0.0 
-1.237910539899e-03 1.905036234455e-03 0.0 
0.0 0.0 0.0 
1.443814666391e-04 2.934440748856e-03 0.0 
2.934440748856e-03 7.471826034767e-03 0.0 
0.0 0.0 0.0 
-1.056453585415e-03 2.734434076083e-03 0.0 
2.734434076083e-03 1.108938239089e-02 0.0 
0.0 0.0 0.0 
-1.815695067273e-03 2.174694780528e-03 0.0 
2.174694780528e-03 1.510785358425e-02 0.0 
0.0 0.0 0.0 
-1.554484017716e-03 2.594861379278e-03 0.0 
2.594861379278e-03 1.242702658709e-02 0.0 
0.0 0.0 0.0 
-1.657526317057e-03 2.525996094874e-03 0.0 
2.525996094874e-03 1.223278879872e-02 0.0 
0.0 0.0 0.0 
1.794951517402e-03 1.997923775821e-03 0.0 
1.997923775821e-03 4.943955697086e-03 0.0 
0.0 0.0 0.0 
-1.956548579204e-04 3.216158373885e-03 0.0 
3.216158373885e-03 1.127212864976e-02 0.0 
0.0 0.0 0.0 
-9.509214662456e-04 2.134214522672e-03 0.0 
2.134214522672e-03 -3.105185284946e-03 0.0 
0.0 0.0 0.0 
-8.012460984703e-04 2.768132588252e-03 0.0 
2.768132588252e-03 5.802706169792e-03 0.0 
0.0 0.0 0.0 
-4.062164044718e-04 2.806007109871e-03 0.0 
2.806007109871e-03 5.921588549764e-03 0.0 
0.0 0.0 0.0 
-1.876380170408e-04 2.879689573686e-03 0.0 
2.879689573686e-03 8.038256710319e-03 0.0 
0.0 0.0 0.0 
-1.103920858233e-03 2.886819767523e-03 0.0 
2.886819767523e-03 1.391907996379e-02 0.0 
0.0 0.0 0.0 
1.888540561581e-03 2.387228983315e-03 0.0 
2.387228983315e-03 -3.245888471826e-03 0.0 
0.0 0.0 0.0 
1.412959755312e-03 5.271606412636e-04 0.0 
5.271606412636e-04 4.568922504127e-03 0.0 
0.0 0.0 0.0 
-1.361135636318e-03 -1.122645784833e-05 0.0 
-1.122645784833e-05 1.491956576140e-02 0.0 
0.0 0.0 0.0 
1.715593212049e-03 2.520431942459e-03 0.0 
2.520431942459e-03 1.651644433045e-03 0.0 
0.0 0.0 0.0 
1.397988736611e-03 2.728070196897e-04 0.0 
2.728070196897e-04 4.274240742541e-03 0.0 
0.0 0.0 0.0 
2.616714494574e-04 -1.400044044665e-04 0.0 
-1.400044044665e-04 3.831847835549e-04 0.0 
0.0 0.0 0.0 
-1.463476416065e-03 2.316233861393e-03 0.0 
2.316233861393e-03 1.476672238399e-02 0.0 
0.0 0.0 0.0 
3.869115623436e-04 -1.492748733505e-04 0.0 
-1.492748733505e-04 1.946065076590e-04 0.0 
0.0 0.0 0.0 
2.247718829598e-04 -1.486665540200e-04 0.0 
-1.486665540200e-04 6.673391125036e-04 0.0 
0.0 0.0 0.0 
-1.290568732219e-03 2.986960922201e-03 0.0 
2.986960922201e-03 3.277705875247e-03 0.0 
0.0 0.0 0.0 
-2.108590432626e-05 -1.232616443580e-03 0.0 
-1.232616443580e-03 1.692762420794e-03 0.0 
0.0 0.0 0.0 
-1.589667211555e-03 2.321602842789e-03 0.0 
2.321602842789e-03 1.525264273864e-02 0.0 
0.0 0.0 0.0 
-7.655203650681e-05 -1.361522605310e-03 0.0 
-1.361522605310e-03 1.449958249650e-03 0.0 
0.0 0.0 0.0 
-7.783245110304e-06 3.267957685536e-03 0.0 
3.267957685536e-03 1.495104559619e-03 0.0 
0.0 0.0 0.0 
6.354118023326e-04 -2.737793148236e-03 0.0 
-2.737793148236e-03 -1.149388752449e-03 0.0 
0.0 0.0 0.0 
-4.455856121346e-04 -9.595421137826e-04 0.0 
-9.595421137826e-04 1.255469093660e-03 0.0 
0.0 0.0 0.0 
1.462472748136e-03 1.224785575179e-03 0.0 
1.224785575179e-03 5.306714433863e-03 0.0 
0.0 0.0 0.0 
-1.372025892414e-03 2.671132854008e-03 0.0 
2.671132854008e-03 1.164784099230e-02 0.0 
0.0 0.0 0.0 
9.978817862133e-05 8.268027474858e-05 0.0 
8.268027474858e-05 7.062785357938e-03 0.0 
0.0 0.0 0.0 
-9.041701011433e-04 9.526947574019e-04 0.0 
9.526947574019e-04 -4.507627329967e-03 0.0 
0.0 0.0 0.0 
4.858370831113e-04 3.143572682819e-03 0.0 
3.143572682819e-03 1.604878250602e-03 0.0 
0.0 0.0 0.0 
1.879193138075e-03 2.369311985840e-03 0.0 
2.369311985840e-03 2.157935482289e-03 0.0 
0.0 0.0 0.0 
-9.123214640790e-04 2.581335414148e-03 0.0 
2.581335414148e-03 8.170967152865e-03 0.0 
0.0 0.0 0.0 
1.603729364233e-03 7.006011624688e-04 0.0 
7.006011624688e-04 4.556799663803e-03 0.0 
0.0 0.0 0.0 
1.381022856259e-04 1.333458620885e-04 0.0 
1.333458620885e-04 7.145296165719e-03 0.0 
0.0 0.0 0.0 
-1.283767425515e-03 2.770715317214e-03 0.0 
2.770715317214e-03 1.372846187034e-02 0.0 
0.0 0.0 0.0 
2.027308760191e-03 2.082708101475e-03 0.0 
2.082708101475e-03 2.326597221154e-04 0.0 
0.0 0.0 0.0 
1.303467300136e-03 1.072200185067e-03 0.0 
1.072200185067e-03 5.307766150372e-03 0.0 
0.0 0.0 0.0 
1.527958386687e-04 -2.809162744482e-05 0.0 
-2.809162744482e-05 5.153934606946e-03 0.0 
0.0 0.0 0.0 
-3.688155614587e-04 2.898070212074e-03 0.0 
2.898070212074e-03 8.876382790056e-03 0.0 
0.0 0.0 0.0 
-1.441285761607e-03 2.428989506123e-03 0.0 
2.428989506123e-03 1.419671209768e-02 0.0 
0.0 0.0 0.0 
4.786740636784e-04 2.995240382643e-03 0.0 
2.995240382643e-03 8.763269757536e-03 0.0 
0.0 0.0 0.0 
1.998470978525e-03 2.032493322507e-03 0.0 
2.032493322507e-03 2.206793316272e-03 0.0 
0.0 0.0 0.0 
-3.389300364920e-05 3.066546188853e-03 0.0 
3.066546188853e-03 2.502423969319e-03 0.0 
0.0 0.0 0.0 
-1.421474040653e-03 2.682239169073e-03 0.0 
2.682239169073e-03 1.263077870681e-02 0.0 
0.0 0.0 0.0 
-3.539399983422e-04 1.900992552094e-03 0.0 
1.900992552094e-03 1.704550661975e-02 0.0 
0.0 0.0 0.0 
1.631802582807e-04 2.880262898711e-03 0.0 
2.880262898711e-03 7.478578922860e-03 0.0 
0.0 0.0 0.0 
2.200136813810e-03 1.643136580127e-03 0.0 
1.643136580127e-03 3.070470676412e-03 0.0 
0.0 0.0 0.0 
-1.329101982119e-03 4.030098957594e-05 0.0 
4.030098957594e-05 1.532477033725e-02 0.0 
0.0 0.0 0.0 
-5.080784173075e-04 -1.917392367527e-03 0.0 
-1.917392367527e-03 4.185950101296e-04 0.0 
0.0 0.0 0.0 
-1.510239073111e-03 2.462122808008e-03 0.0 
2.462122808008e-03 1.244770173343e-02 0.0 
0.0 0.0 0.0 
1.750337168093e-03 2.567933613891e-03 0.0 
2.567933613891e-03 1.610427472640e-04 0.0 
0.0 0.0 0.0 
2.192107835751e-03 2.199757696284e-03 0.0 
2.199757696284e-03 -2.766412900359e-03 0.0 
0.0 0.0 0.0 
1.716515973711e-03 -2.391350375356e-03 0.0 
-2.391350375356e-03 -3.488739455900e-03 0.0 
0.0 0.0 0.0 
-1.434679524935e-03 2.199872336206e-03 0.0 
2.199872336206e-03 1.526767801243e-02 0.0 
0.0 0.0 0.0 
-1.248510065544e-03 2.750501103661e-03 0.0 
2.750501103661e-03 1.186471448028e-02 0.0 
0.0 0.0 0.0 
5.919016951403e-04 2.907723121443e-03 0.0 
2.907723121443e-03 3.768337775882e-03 0.0 
0.0 0.0 0.0 
-1.538811013402e-03 2.198032841100e-03 0.0 
2.198032841100e-03 1.569951057910e-02 0.0 
0.0 0.0 0.0 
-1.021997710608e-03 2.934752839192e-03 0.0 
2.934752839192e-03 1.327188513272e-02 0.0 
0.0 0.0 0.0 
-5.567994028670e-04 2.907042491771e-03 0.0 
2.907042491771e-03 9.700267010547e-03 0.0 
0.0 0.0 0.0 
1.367564968582e-04 2.263472449138e-04 0.0 
2.263472449138e-04 7.054701350947e-03 0.0 
0.0 0.0 0.0 
2.298914540529e-03 1.672783275278e-03 0.0 
1.672783275278e-03 2.937150494868e-03 0.0 
0.0 0.0 0.0 
-7.506578325832e-04 2.896568144779e-03 0.0 
2.896568144779e-03 1.051904258680e-02 0.0 
0.0 0.0 0.0 
1.163778478731e-03 2.625845200203e-03 0.0 
2.625845200203e-03 4.410732399885e-03 0.0 
0.0 0.0 0.0 
2.108374608826e-03 1.676190823842e-03 0.0 
1.676190823842e-03 3.660910948742e-03 0.0 
0.0 0.0 0.0 
2.377646172768e-03 1.952411877035e-03 0.0 
1.952411877035e-03 -2.037692906100e-03 0.0 
0.0 0.0 0.0 
-2.251700517405e-03 8.738675296656e-04 0.0 
8.738675296656e-04 1.515125511265e-02 0.0 
0.0 0.0 0.0 
2.271186158715e-03 1.672955544802e-03 0.0 
1.672955544802e-03 1.907881973387e-03 0.0 
0.0 0.0 0.0 
2.495012298154e-03 -9.909604387066e-04 0.0 
-9.909604387066e-04 -1.303588997536e-03 0.0 
0.0 0.0 0.0 
-1.187862914858e-03 2.668054165957e-03 0.0 
2.668054165957e-03 1.374705173474e-02 0.0 
0.0 0.0 0.0 
-4.137193682213e-03 3.810447637731e-04 0.0 
3.810447637731e-04 -2.974643752978e-03 0.0 
0.0 0.0 0.0 
-1.716138141583e-03 2.498295506556e-03 0.0 
2.498295506556e-03 1.316656276786e-02 0.0 
0.0 0.0 0.0 
2.237082912868e-03 2.066633627129e-03 0.0 
2.066633627129e-03 -2.719603611450e-04 0.0 
0.0 0.0 0.0 
7.353361866278e-04 2.915389841651e-03 0.0 
2.915389841651e-03 1.635378076061e-03 0.0 
0.0 0.0 0.0 
2.647471520993e-03 1.149516110694e-03 0.0 
1.149516110694e-03 -1.903386710097e-03 0.0 
0.0 0.0 0.0 
-1.108217179912e-03 2.743829085630e-03 0.0 
2.743829085630e-03 1.211116556410e-02 0.0 
0.0 0.0 0.0 
-1.630928068088e-04 -5.787100460190e-04 0.0 
-5.787100460190e-04 7.208521990538e-04 0.0 
0.0 0.0 0.0 
-4.879450728887e-04 2.772166471477e-03 0.0 
2.772166471477e-03 6.743861676574e-03 0.0 
0.0 0.0 0.0 
2.195097657649e-03 1.708995700383e-03 0.0 
1.708995700383e-03 3.562284486421e-03 0.0 
0.0 0.0 0.0 
-1.227120088760e-03 2.658042757836e-03 0.0 
2.658042757836e-03 1.188056370581e-02 0.0 
0.0 0.0 0.0 
-2.270772379800e-03 1.312975236439e-03 0.0 
1.312975236439e-03 1.505730167907e-02 0.0 
0.0 0.0 0.0 
1.833482000480e-03 1.887647724381e-03 0.0 
1.887647724381e-03 -4.068253778261e-03 0.0 
0.0 0.0 0.0 
2.791233716298e-03 -3.006216018357e-04 0.0 
-3.006216018357e-04 -1.411720392474e-03 0.0 
0.0 0.0 0.0 
2.129791923566e-03 -1.677253081439e-03 0.0 
-1.677253081439e-03 -1.447322748352e-03 0.0 
0.0 0.0 0.0 
-9.109789958570e-04 2.709740248098e-03 0.0 
2.709740248098e-03 6.613439034865e-03 0.0 
0.0 0.0 0.0 
-1.546626208815e-03 2.563657242230e-03 0.0 
2.563657242230e-03 1.417239998864e-02 0.0 
0.0 0.0 0.0 
-5.416158278881e-04 2.780202964526e-03 0.0 
2.780202964526e-03 6.742959442637e-03 0.0 
0.0 0.0 0.0 
2.396378725807e-03 1.755462821394e-03 0.0 
1.755462821394e-03 1.031166343676e-03 0.0 
0.0 0.0 0.0 
2.107761160720e-03 2.160966873628e-03 0.0 
2.160966873628e-03 1.268989225671e-03 0.0 
0.0 0.0 0.0 
1.954181742767e-03 1.482373924792e-03 0.0 
1.482373924792e-03 -2.936161195357e-03 0.0 
0.0 0.0 0.0 
1.430097934056e-03 2.637809515919e-03 0.0 
2.637809515919e-03 3.907602778840e-03 0.0 
0.0 0.0 0.0 
-4.891895946835e-04 3.168543736563e-03 0.0 
3.168543736563e-03 1.485039812484e-03 0.0 
0.0 0.0 0.0 
-3.960569378885e-04 3.226222685708e-03 0.0 
3.226222685708e-03 1.561970318375e-02 0.0 
0.0 0.0 0.0 
-3.281734447218e-04 3.627027708811e-03 0.0 
3.627027708811e-03 1.475525699402e-02 0.0 
0.0 0.0 0.0 
4.688619677882e-04 2.927915425923e-03 0.0 
2.927915425923e-03 6.949759379627e-03 0.0 
0.0 0.0 0.0 
2.055211362486e-03 2.333404172979e-03 0.0 
2.333404172979e-03 -9.248575170933e-04 0.0 
0.0 0.0 0.0 
1.025068997602e-03 2.870680561966e-03 0.0 
2.870680561966e-03 5.540708680269e-04 0.0 
0.0 0.0 0.0 
-4.455425170501e-04 2.945041401085e-03 0.0 
2.945041401085e-03 9.984953036826e-03 0.0 
0.0 0.0 0.0 
1.777586489154e-03 2.369590932637e-03 0.0 
2.369590932637e-03 -2.456997684515e-04 0.0 
0.0 0.0 0.0 
2.574606672568e-03 -1.013040289883e-03 0.0 
-1.013040289883e-03 -1.553110994562e-03 0.0 
0.0 0.0 0.0 
-3.674829813760e-04 2.896075566731e-03 0.0 
2.896075566731e-03 8.876726932659e-03 0.0 
0.0 0.0 0.0 
-6.606404167560e-04 1.148437289108e-03 0.0 
1.148437289108e-03 1.726991791281e-02 0.0 
0.0 0.0 0.0 
1.969247778973e-03 2.334734883951e-03 0.0 
2.334734883951e-03 7.007217558439e-04 0.0 
0.0 0.0 0.0 
1.823770773002e-03 2.207646749242e-03 0.0 
2.207646749242e-03 4.918643008048e-03 0.0 
0.0 0.0 0.0 
2.144339900012e-04 3.293024076033e-03 0.0 
3.293024076033e-03 4.139622544108e-04 0.0 
0.0 0.0 0.0 
4.022132045434e-04 1.519557550630e-03 0.0 
1.519557550630e-03 7.559333158492e-03 0.0 
0.0 0.0 0.0 
1.433230911942e-03 2.866635548302e-03 0.0 
2.866635548302e-03 -3.237303466149e-04 0.0 
0.0 0.0 0.0 
-4.631932209942e-05 2.948609268262e-03 0.0 
2.948609268262e-03 8.316884074456e-03 0.0 
0.0 0.0 0.0 
2.482133884819e-03 1.553706276881e-03 0.0 
1.553706276881e-03 -3.770400813839e-03 0.0 
0.0 0.0 0.0 
2.134752213979e-03 7.629616722227e-04 0.0 
7.629616722227e-04 3.368815419263e-03 0.0 
0.0 0.0 0.0 
2.182671992851e-03 2.035647169771e-03 0.0 
2.035647169771e-03 1.850650140829e-03 0.0 
0.0 0.0 0.0 
2.251762563672e-03 -1.358599287139e-03 0.0 
-1.358599287139e-03 -7.749515024891e-04 0.0 
0.0 0.0 0.0 
-1.064548280251e-03 2.805904875974e-03 0.0 
2.805904875974e-03 1.108025020839e-02 0.0 
0.0 0.0 0.0 
-1.113519010233e-04 4.003954707089e-03 0.0 
4.003954707089e-03 1.323248601368e-02 0.0 
0.0 0.0 0.0 
2.344121070092e-03 1.877832006494e-03 0.0 
1.877832006494e-03 3.838048019744e-04 0.0 
0.0 0.0 0.0 
2.150687482642e-03 1.443579936309e-03 0.0 
1.443579936309e-03 3.599866296580e-03 0.0 
0.0 0.0 0.0 
4.073240222062e-04 3.070764607905e-03 0.0 
3.070764607905e-03 4.434211948907e-04 0.0 
0.0 0.0 0.0 
-1.769880397854e-03 8.761120047928e-04 0.0 
8.761120047928e-04 1.597705031048e-02 0.0 
0.0 0.0 0.0 
1.603654081004e-03 4.343545588516e-04 0.0 
4.343545588516e-04 4.253016996897e-03 0.0 
0.0 0.0 0.0 
-1.865470483915e-04 2.964370367490e-03 0.0 
2.964370367490e-03 3.412654797895e-03 0.0 
0.0 0.0 0.0 
-1.960410983178e-03 7.059835933746e-04 0.0 
7.059835933746e-04 1.590217646473e-02 0.0 
0.0 0.0 0.0 
9.306617997806e-05 4.025221212786e-03 0.0 
4.025221212786e-03 1.162806160515e-02 0.0 
0.0 0.0 0.0 
1.385997968358e-03 6.075751615757e-04 0.0 
6.075751615757e-04 4.864249854146e-03 0.0 
0.0 0.0 0.0 
-1.931421880296e-04 3.922534837917e-03 0.0 
3.922534837917e-03 1.375630530240e-02 0.0 
0.0 0.0 0.0 
-2.153437157066e-03 1.111236915283e-03 0.0 
1.111236915283e-03 1.572762442394e-02 0.0 
0.0 0.0 0.0 
-6.297162082227e-04 3.088847066967e-03 0.0 
3.088847066967e-03 1.209374969941e-02 0.0 
0.0 0.0 0.0 
-7.728785958693e-04 3.021017553213e-03 0.0 
3.021017553213e-03 3.339466083033e-03 0.0 
0.0 0.0 0.0 
-1.190974844688e-03 2.718678607013e-03 0.0 
2.718678607013e-03 1.082305813160e-02 0.0 
0.0 0.0 0.0 
-7.476867928889e-04 2.858196770305e-03 0.0 
2.858196770305e-03 1.052450082167e-02 0.0 
0.0 0.0 0.0 
-9.441800014894e-04 2.866451547504e-03 0.0 
2.866451547504e-03 1.132073927053e-02 0.0 
0.0 0.0 0.0 
3.617698248419e-04 2.845339854785e-03 0.0 
2.845339854785e-03 6.640273781737e-03 0.0 
0.0 0.0 0.0 
1.937834195700e-04 3.828152894456e-03 0.0 
3.828152894456e-03 1.063441454795e-02 0.0 
0.0 0.0 0.0 
-2.055052036053e-03 1.699556340222e-03 0.0 
1.699556340222e-03 1.483973382321e-02 0.0 
0.0 0.0 0.0 
-1.854033013487e-03 2.392477319723e-03 0.0 
2.392477319723e-03 1.298129287789e-02 0.0 
0.0 0.0 0.0 
2.245903447324e-03 1.747656220549e-03 0.0 
1.747656220549e-03 1.330807551631e-03 0.0 
0.0 0.0 0.0 
-2.671999365444e-04 -1.148660940370e-03 0.0 
-1.148660940370e-03 1.490409384650e-03 0.0 
0.0 0.0 0.0 
-1.484601067767e-03 2.570952809752e-03 0.0 
2.570952809752e-03 1.137733035825e-02 0.0 
0.0 0.0 0.0 
3.372150751610e-04 3.052195812160e-03 0.0 
3.052195812160e-03 2.601482106570e-03 0.0 
0.0 0.0 0.0 
-1.318102412955e-03 6.590950426423e-06 0.0 
6.590950426423e-06 1.495387323746e-02 0.0 
0.0 0.0 0.0 
1.780735150452e-03 -1.828428673301e-03 0.0 
-1.828428673301e-03 -7.026191944924e-04 0.0 
0.0 0.0 0.0 
2.170140908645e-03 1.878383368443e-03 0.0 
1.878383368443e-03 7.648168336429e-04 0.0 
0.0 0.0 0.0 
-1.227877154944e-03 2.577047945376e-03 0.0 
2.577047945376e-03 1.435965524602e-02 0.0 
0.0 0.0 0.0 
4.863478131654e-04 2.901888182439e-03 0.0 
2.901888182439e-03 2.620423012387e-03 0.0 
0.0 0.0 0.0 
-8.535191798613e-04 2.786489678045e-03 0.0 
2.786489678045e-03 1.026869091640e-02 0.0 
0.0 0.0 0.0 
2.209015758100e-03 1.476746337239e-03 0.0 
1.476746337239e-03 3.571029614819e-03 0.0 
0.0 0.0 0.0 
1.604820234371e-03 -4.755811323139e-04 0.0 
-4.755811323139e-04 2.811355375817e-03 0.0 
0.0 0.0 0.0 
3.505961852903e-04 3.296747137080e-03 0.0 
3.296747137080e-03 9.316749684883e-03 0.0 
0.0 0.0 0.0 
-1.208977499284e-03 2.618740927349e-03 0.0 
2.618740927349e-03 9.804651646184e-03 0.0 
0.0 0.0 0.0 
2.875639759812e-03 3.434572891643e-04 0.0 
3.434572891643e-04 -1.898206538816e-03 0.0 
0.0 0.0 0.0 
8.538679572652e-04 -1.452638606707e-03 0.0 
-1.452638606707e-03 1.611074518680e-03 0.0 
0.0 0.0 0.0 
-8.538429637940e-04 2.794481542433e-03 0.0 
2.794481542433e-03 4.971604221351e-03 0.0 
0.0 0.0 0.0 
-2.457337189988e-04 3.043581047189e-03 0.0 
3.043581047189e-03 3.404118799379e-03 0.0 
0.0 0.0 0.0 
-8.488169833948e-04 3.054861035376e-03 0.0 
3.054861035376e-03 1.347750146720e-02 0.0 
0.0 0.0 0.0 
-2.376270805747e-04 2.941557710549e-03 0.0 
2.941557710549e-03 9.153610604608e-03 0.0 
0.0 0.0 0.0 
-1.028066518990e-03 2.618343149997e-03 0.0 
2.618343149997e-03 8.168093104669e-03 0.0 
0.0 0.0 0.0 
-9.684588317584e-04 2.687323522404e-03 0.0 
2.687323522404e-03 1.002040984722e-02 0.0 
0.0 0.0 0.0 
4.407250741922e-04 2.313974942425e-03 0.0 
2.313974942425e-03 8.045506262876e-03 0.0 
0.0 0.0 0.0 
7.534865120005e-04 2.219188086957e-03 0.0 
2.219188086957e-03 7.438823118613e-03 0.0 
0.0 0.0 0.0 
-7.288655434485e-04 2.988456280556e-03 0.0 
2.988456280556e-03 1.349053076902e-02 0.0 
0.0 0.0 0.0 
-1.597200484988e-03 2.450043613212e-03 0.0 
2.450043613212e-03 1.474445105206e-02 0.0 
0.0 0.0 0.0 
1.535337818520e-03 -6.551134659145e-04 0.0 
-6.551134659145e-04 2.431672766735e-03 0.0 
0.0 0.0 0.0 
-1.185429087677e-04 2.821394868573e-03 0.0 
2.821394868573e-03 6.116949843020e-03 0.0 
0.0 0.0 0.0 
2.341302153347e-03 1.704502903595e-03 0.0 
1.704502903595e-03 -8.270865024226e-04 0.0 
0.0 0.0 0.0 
2.438523599258e-03 1.498978918557e-03 0.0 
1.498978918557e-03 -1.862810682347e-04 0.0 
0.0 0.0 0.0 
-3.368987574859e-05 2.920247659179e-03 0.0 
2.920247659179e-03 8.320997466112e-03 0.0 
0.0 0.0 0.0 
2.110563949004e-03 6.878649168235e-04 0.0 
6.878649168235e-04 3.201094835002e-03 0.0 
0.0 0.0 0.0 
4.427530886741e-04 -7.978622364434e-04 0.0 
-7.978622364434e-04 3.046566625095e-03 0.0 
0.0 0.0 0.0 
-9.912690916470e-04 2.738713791737e-03 0.0 
2.738713791737e-03 1.452426273731e-02 0.0 
0.0 0.0 0.0 
2.732968346011e-03 -4.651919229730e-04 0.0 
-4.651919229730e-04 -1.771579419006e-03 0.0 
0.0 0.0 0.0 
5.609262010799e-04 2.797179960372e-03 0.0 
2.797179960372e-03 5.796737055571e-03 0.0 
0.0 0.0 0.0 
-5.505622211186e-04 2.880144929174e-03 0.0 
2.880144929174e-03 9.705379120708e-03 0.0 
0.0 0.0 0.0 
3.275516748897e-04 2.805892641863e-03 0.0 
2.805892641863e-03 5.514274439393e-03 0.0 
0.0 0.0 0.0 
-2.655862873785e-04 3.806768187096e-03 0.0 
3.806768187096e-03 1.425857977198e-02 0.0 
0.0 0.0 0.0 
-3.284081395429e-04 3.444431312303e-03 0.0 
3.444431312303e-03 1.517932554900e-02 0.0 
0.0 0.0 0.0 
-6.667211118075e-04 3.196487166073e-03 0.0 
3.196487166073e-03 1.482778299341e-02 0.0 
0.0 0.0 0.0 
1.506955059515e-03 -4.096611491402e-04 0.0 
-4.096611491402e-04 2.945028768361e-03 0.0 
0.0 0.0 0.0 
-1.351275271705e-03 2.089761749065e-03 0.0 
2.089761749065e-03 1.571258681272e-02 0.0 
0.0 0.0 0.0 
-1.777699418670e-04 3.166460542881e-03 0.0 
3.166460542881e-03 2.491310107855e-03 0.0 
0.0 0.0 0.0 
2.474875713955e-03 1.374762696816e-03 0.0 
1.374762696816e-03 4.602617159437e-04 0.0 
0.0 0.0 0.0 
2.434261802715e-03 1.345832262738e-03 0.0 
1.345832262738e-03 -2.622845311818e-03 0.0 
0.0 0.0 0.0 
-6.403631899140e-04 2.746121826201e-03 0.0 
2.746121826201e-03 7.548116496026e-03 0.0 
0.0 0.0 0.0 
-2.138729320209e-03 5.322349381441e-04 0.0 
5.322349381441e-04 1.521889069284e-02 0.0 
0.0 0.0 0.0 
-1.880735790847e-03 9.220731306141e-04 0.0 
9.220731306141e-04 1.574487228879e-02 0.0 
0.0 0.0 0.0 
7.355202965067e-04 1.516666462604e-03 0.0 
1.516666462604e-03 6.972367783330e-03 0.0 
0.0 0.0 0.0 
-3.979988115684e-04 3.150665696406e-03 0.0 
3.150665696406e-03 1.236576256368e-02 0.0 
0.0 0.0 0.0 
-1.395382590214e-03 2.562361087498e-03 0.0 
2.562361087498e-03 1.264891956975e-02 0.0 
0.0 0.0 0.0 
-6.372572422656e-04 2.920437896736e-03 0.0 
2.920437896736e-03 1.079826081461e-02 0.0 
0.0 0.0 0.0 
2.710809704371e-03 1.373410106056e-03 0.0 
1.373410106056e-03 -3.121082011364e-03 0.0 
0.0 0.0 0.0 
-6.515526796815e-04 -1.222334799026e-03 0.0 
-1.222334799026e-03 6.212168489579e-04 0.0 
0.0 0.0 0.0 
1.652026957258e-03 2.518937458022e-03 0.0 
2.518937458022e-03 3.037514412001e-03 0.0 
0.0 0.0 0.0 
7.231648260033e-04 2.785601271010e-03 0.0 
2.785601271010e-03 6.119552418519e-03 0.0 
0.0 0.0 0.0 
1.521005072847e-03 2.422784124263e-03 0.0 
2.422784124263e-03 3.937848961058e-03 0.0 
0.0 0.0 0.0 
-1.012084495781e-03 3.205388734934e-03 0.0 
3.205388734934e-03 5.880347309886e-04 0.0 
0.0 0.0 0.0 
-1.288839012108e-03 5.143793109137e-05 0.0 
5.143793109137e-05 1.530864894605e-02 0.0 
0.0 0.0 0.0 
-2.360744811333e-04 -1.201800409917e-03 0.0 
-1.201800409917e-03 1.292408773405e-03 0.0 
0.0 0.0 0.0 
1.151856931989e-03 2.935298777694e-03 0.0 
2.935298777694e-03 8.076989507624e-04 0.0 
0.0 0.0 0.0 
0.0 1.583390227622e-03 0.0 
1.583390227622e-03 7.623821567557e-03 0.0 
0.0 0.0 0.0 
1.827403482554e-03 1.824861047913e-03 0.0 
1.824861047913e-03 4.870798581620e-03 0.0 
0.0 0.0 0.0 
-1.786435960856e-03 2.224723358436e-03 0.0 
2.224723358436e-03 1.300154482216e-02 0.0 
0.0 0.0 0.0 
3.822921179490e-04 -3.536285080575e-05 0.0 
-3.536285080575e-05 9.223902162596e-04 0.0 
0.0 0.0 0.0 
3.302721648264e-04 2.920497527869e-03 0.0 
2.920497527869e-03 6.630109580782e-03 0.0 
0.0 0.0 0.0 
1.756631872245e-03 2.247355653781e-03 0.0 
2.247355653781e-03 3.075213850645e-03 0.0 
0.0 0.0 0.0 
-1.128031449866e-03 2.819436086740e-03 0.0 
2.819436086740e-03 1.210164405122e-02 0.0 
0.0 0.0 0.0 
-1.462533357499e-05 4.057556335213e-03 0.0 
4.057556335213e-03 1.268094412041e-02 0.0 
0.0 0.0 0.0 
-1.142841643479e-03 2.650729786068e-03 0.0 
2.650729786068e-03 1.083057117857e-02 0.0 
0.0 0.0 0.0 
-4.432890647007e-04 2.954953610726e-03 0.0 
2.954953610726e-03 9.983670085280e-03 0.0 
0.0 0.0 0.0 
5.931099678480e-04 -7.908565890389e-04 0.0 
-7.908565890389e-04 3.044676373292e-03 0.0 
0.0 0.0 0.0 
-1.224966821107e-03 2.489906942144e-03 0.0 
2.489906942144e-03 1.491573754678e-02 0.0 
0.0 0.0 0.0 
1.557239523763e-03 -2.514025224934e-04 0.0 
-2.514025224934e-04 3.307145931143e-03 0.0 
0.0 0.0 0.0 
1.950663317052e-05 4.065375183780e-03 0.0 
4.065375183780e-03 1.215963904221e-02 0.0 
0.0 0.0 0.0 
0.0 3.650689697056e-03 0.0 
3.650689697056e-03 1.399766805354e-02 0.0 
0.0 0.0 0.0 
0.0 2.920138620066e-03 0.0 
2.920138620066e-03 1.584698394783e-02 0.0 
0.0 0.0 0.0 
0.0 3.320297880735e-03 0.0 
3.320297880735e-03 1.499249781925e-02 0.0 
0.0 0.0 0.0 
-8.193587205224e-04 2.879377519073e-03 0.0 
2.879377519073e-03 1.159039082935e-02 0.0 
0.0 0.0 0.0 
-1.368911822872e-03 2.582996707657e-03 0.0 
2.582996707657e-03 1.490421132573e-02 0.0 
0.0 0.0 0.0 
-4.685904231110e-04 3.178439546154e-03 0.0 
3.178439546154e-03 1.304400546493e-02 0.0 
0.0 0.0 0.0 
2.999232117251e-04 2.906361809516e-03 0.0 
2.906361809516e-03 5.502130139406e-03 0.0 
0.0 0.0 0.0 
-9.550323814100e-05 2.869125077442e-03 0.0 
2.869125077442e-03 6.110843557038e-03 0.0 
0.0 0.0 0.0 
3.055599259494e-04 -7.467585718347e-04 0.0 
-7.467585718347e-04 3.002567084289e-03 0.0 
0.0 0.0 0.0 
-1.135840742362e-03 2.821364299140e-03 0.0 
2.821364299140e-03 1.451282363432e-02 0.0 
0.0 0.0 0.0 
1.497362950267e-04 3.941956338233e-03 0.0 
3.941956338233e-03 1.111346136848e-02 0.0 
0.0 0.0 0.0 
-1.164941158454e-03 2.383894532790e-03 0.0 
2.383894532790e-03 1.540732832258e-02 0.0 
0.0 0.0 0.0 
1.984369204593e-03 1.738026018899e-03 0.0 
1.738026018899e-03 4.262339407423e-03 0.0 
0.0 0.0 0.0 
-1.334250856901e-03 2.480580196545e-03 0.0 
2.480580196545e-03 1.539492136615e-02 0.0 
0.0 0.0 0.0 
8.669882170762e-04 2.840864976289e-03 0.0 
2.840864976289e-03 7.714643557585e-03 0.0 
0.0 0.0 0.0 
8.703633345113e-04 2.841591019906e-03 0.0 
2.841591019906e-03 5.254506801278e-03 0.0 
0.0 0.0 0.0 
-5.777585883728e-04 2.746775571147e-03 0.0 
2.746775571147e-03 7.547876385332e-03 0.0 
0.0 0.0 0.0 
1.054129088785e-03 3.141192383383e-03 0.0 
3.141192383383e-03 -7.065237443501e-04 0.0 
0.0 0.0 0.0 
-4.166899364156e-04 1.954157972125e-03 0.0 
1.954157972125e-03 1.674937791180e-02 0.0 
0.0 0.0 0.0 
4.479571689779e-04 2.914118135473e-03 0.0 
2.914118135473e-03 4.649185103353e-03 0.0 
0.0 0.0 0.0 
3.238243824084e-04 3.278386068458e-03 0.0 
3.278386068458e-03 9.959243683530e-03 0.0 
0.0 0.0 0.0 
4.156404164719e-04 -7.595933328561e-04 0.0 
-7.595933328561e-04 3.003872742184e-03 0.0 
0.0 0.0 0.0 
1.255538092146e-03 -2.199295544655e-03 0.0 
-2.199295544655e-03 -4.805714158814e-04 0.0 
0.0 0.0 0.0 
4.102978735461e-04 1.365986186018e-03 0.0 
1.365986186018e-03 6.920885540074e-03 0.0 
0.0 0.0 0.0 
9.242500516295e-04 2.943423933333e-03 0.0 
2.943423933333e-03 1.844241589165e-03 0.0 
0.0 0.0 0.0 
0.0 3.763296659831e-03 0.0 
3.763296659831e-03 1.348808080293e-02 0.0 
0.0 0.0 0.0 
-4.237786261366e-04 2.965091638488e-03 0.0 
2.965091638488e-03 1.523536934382e-02 0.0 
0.0 0.0 0.0 
5.793877033033e-05 2.984197496384e-03 0.0 
2.984197496384e-03 8.631738321436e-03 0.0 
0.0 0.0 0.0 
-6.124973080002e-04 -6.056640128607e-04 0.0 
-6.056640128607e-04 6.567888789428e-04 0.0 
0.0 0.0 0.0 
0.0 3.843018705900e-03 0.0 
3.843018705900e-03 1.242386955979e-02 0.0 
0.0 0.0 0.0 
4.235541546180e-04 1.811392648068e-03 0.0 
1.811392648068e-03 7.200605098907e-03 0.0 
0.0 0.0 0.0 
1.758406727516e-03 -1.844241994136e-03 0.0 
-1.844241994136e-03 -5.369288853579e-04 0.0 
0.0 0.0 0.0 
1.997521856756e-03 1.537444650068e-03 0.0 
1.537444650068e-03 4.219917923799e-03 0.0 
0.0 0.0 0.0 
3.557084255841e-04 3.060506721622e-03 0.0 
3.060506721622e-03 8.940010495776e-03 0.0 
0.0 0.0 0.0 
-2.103809325968e-04 -7.878254475656e-05 0.0 
-7.878254475656e-05 1.853533552323e-04 0.0 
0.0 0.0 0.0 
6.903210202465e-04 2.873999764592e-03 0.0 
2.873999764592e-03 4.930268280913e-03 0.0 
0.0 0.0 0.0 
-1.501127057110e-04 2.997101780720e-03 0.0 
2.997101780720e-03 9.464100422206e-03 0.0 
0.0 0.0 0.0 
2.650810116480e-04 2.962258755865e-03 0.0 
2.962258755865e-03 7.791682157581e-03 0.0 
0.0 0.0 0.0 
-2.425101789161e-04 2.954983883834e-03 0.0 
2.954983883834e-03 9.151752873385e-03 0.0 
0.0 0.0 0.0 
7.239067473388e-04 3.196988057235e-03 0.0 
3.196988057235e-03 5.066606714832e-04 0.0 
0.0 0.0 0.0 
0.0 3.776294147345e-03 0.0 
3.776294147345e-03 1.136492250084e-02 0.0 
0.0 0.0 0.0 
2.470626708049e-03 1.312044419227e-03 0.0 
1.312044419227e-03 1.100432172544e-03 0.0 
0.0 0.0 0.0 
1.879987089179e-03 3.511092360182e-04 0.0 
3.511092360182e-04 -3.811528760596e-03 0.0 
0.0 0.0 0.0 
2.496468611706e-04 2.373977056811e-04 0.0 
2.373977056811e-04 7.026510790214e-03 0.0 
0.0 0.0 0.0 
-2.174665745487e-04 -4.799060488315e-04 0.0 
-4.799060488315e-04 3.681178210990e-04 0.0 
0.0 0.0 0.0 
-8.148487383972e-04 2.706474686157e-03 0.0 
2.706474686157e-03 9.213141168798e-03 0.0 
0.0 0.0 0.0 
9.436054171241e-04 -2.387536608715e-03 0.0 
-2.387536608715e-03 -1.978662849692e-03 0.0 
0.0 0.0 0.0 
-1.423760391214e-03 2.473964191835e-03 0.0 
2.473964191835e-03 1.138935813280e-02 0.0 
0.0 0.0 0.0 
4.283787065029e-04 2.016559281786e-03 0.0 
2.016559281786e-03 7.831981896893e-03 0.0 
0.0 0.0 0.0 
0.0 3.568451756973e-03 0.0 
3.568451756973e-03 1.038026357793e-02 0.0 
0.0 0.0 0.0 
-9.311952044557e-04 2.810115028325e-03 0.0 
2.810115028325e-03 1.132849799956e-02 0.0 
0.0 0.0 0.0 
2.513850587516e-05 -2.410188766015e-03 0.0 
-2.410188766015e-03 -8.697544599547e-04 0.0 
0.0 0.0 0.0 
1.595237815934e-03 8.112780072710e-04 0.0 
8.112780072710e-04 -4.482796039902e-03 0.0 
0.0 0.0 0.0 
-4.055909394785e-05 -2.891227083215e-03 0.0 
-2.891227083215e-03 -1.005523527922e-03 0.0 
0.0 0.0 0.0 
6.640157887166e-04 1.657891508506e-04 0.0 
1.657891508506e-04 5.596883405046e-03 0.0 
0.0 0.0 0.0 
-2.069152670002e-03 7.377637157038e-04 0.0 
7.377637157038e-04 1.494645839497e-02 0.0 
0.0 0.0 0.0 
-2.000113117620e-03 2.257082817056e-03 0.0 
2.257082817056e-03 1.372073013868e-02 0.0 
0.0 0.0 0.0 
0.0 3.249167616174e-03 0.0 
3.249167616174e-03 9.516815869552e-03 0.0 
0.0 0.0 0.0 
-1.835330301442e-03 4.441048436605e-04 0.0 
4.441048436605e-04 1.500316392470e-02 0.0 
0.0 0.0 0.0 
-3.789289978089e-04 2.960023323593e-03 0.0 
2.960023323593e-03 1.600623424913e-02 0.0 
0.0 0.0 0.0 
1.042593375147e-03 2.849141684242e-03 0.0 
2.849141684242e-03 7.366577713892e-03 0.0 
0.0 0.0 0.0 
-1.802781379976e-03 5.981386930762e-04 0.0 
5.981386930762e-04 1.569329278386e-02 0.0 
0.0 0.0 0.0 
-3.304933680834e-04 2.965758287602e-03 0.0 
2.965758287602e-03 4.233560032238e-03 0.0 
0.0 0.0 0.0 
2.056266890200e-03 1.766307624967e-03 0.0 
1.766307624967e-03 4.187679142366e-03 0.0 
0.0 0.0 0.0 
1.776324113635e-03 2.237498892630e-03 0.0 
2.237498892630e-03 -1.851262096883e-03 0.0 
0.0 0.0 0.0 
0.0 2.814438501175e-03 0.0 
2.814438501175e-03 8.774444864342e-03 0.0 
0.0 0.0 0.0 
0.0 3.505977084346e-03 0.0 
3.505977084346e-03 1.450125651205e-02 0.0 
0.0 0.0 0.0 
0.0 3.128398612512e-03 0.0 
3.128398612512e-03 1.546136336402e-02 0.0 
0.0 0.0 0.0 
1.307158996680e-03 -3.907779208150e-04 0.0 
-3.907779208150e-04 3.329198469614e-03 0.0 
0.0 0.0 0.0 
1.979245256545e-04 -6.660658778134e-04 0.0 
-6.660658778134e-04 2.935961067004e-03 0.0 
0.0 0.0 0.0 
9.419341484427e-04 2.712502803902e-03 0.0 
2.712502803902e-03 5.273871632616e-03 0.0 
0.0 0.0 0.0 
1.347733916638e-03 -2.412601543680e-04 0.0 
-2.412601543680e-04 3.681354869969e-03 0.0 
0.0 0.0 0.0 
0.0 2.353391904786e-03 0.0 
2.353391904786e-03 8.202770037730e-03 0.0 
0.0 0.0 0.0 
1.437941373925e-03 2.575096023401e-03 0.0 
2.575096023401e-03 8.598110198532e-04 0.0 
0.0 0.0 0.0 
2.580390242828e-03 -7.614462567666e-04 0.0 
-7.614462567666e-04 -8.128626624544e-04 0.0 
0.0 0.0 0.0 
2.307594269199e-03 -1.053676692972e-03 0.0 
-1.053676692972e-03 -1.806186739671e-04 0.0 
0.0 0.0 0.0 
-1.712634186774e-03 6.036604374703e-04 0.0 
6.036604374703e-04 1.591299720701e-02 0.0 
0.0 0.0 0.0 
3.263947408290e-04 1.262003412723e-03 0.0 
1.262003412723e-03 7.470577318592e-03 0.0 
0.0 0.0 0.0 
-9.805500970204e-04 -2.512975669358e-03 0.0 
-2.512975669358e-03 -2.705661099256e-04 0.0 
0.0 0.0 0.0 
0.0 1.822555219675e-03 0.0 
1.822555219675e-03 7.750640959141e-03 0.0 
0.0 0.0 0.0 
1.923976546041e-03 -1.506700282652e-03 0.0 
-1.506700282652e-03 -6.997265184949e-05 0.0 
0.0 0.0 0.0 
0.0 3.833983295873e-03 0.0 
3.833983295873e-03 1.296464221867e-02 0.0 
0.0 0.0 0.0 
-6.238259011778e-04 3.226692139685e-03 0.0 
3.226692139685e-03 1.303690076596e-02 0.0 
0.0 0.0 0.0 
4.626233302507e-04 -7.305111717840e-05 0.0 
-7.305111717840e-05 -3.662307094743e-05 0.0 
0.0 0.0 0.0 
1.072225908433e-03 2.780118897488e-03 0.0 
2.780118897488e-03 4.387888341846e-03 0.0 
0.0 0.0 0.0 
-1.434054279701e-03 2.082730657572e-03 0.0 
2.082730657572e-03 1.607492337973e-02 0.0 
0.0 0.0 0.0 
0.0 3.831623415861e-03 0.0 
3.831623415861e-03 1.189108344744e-02 0.0 
0.0 0.0 0.0 
-8.352444600747e-04 2.929260778030e-03 0.0 
2.929260778030e-03 1.158389639177e-02 0.0 
0.0 0.0 0.0 
1.179872722072e-03 2.755257451685e-03 0.0 
2.755257451685e-03 7.092167783493e-03 0.0 
0.0 0.0 0.0 
5.132366617506e-04 3.236379980730e-03 0.0 
3.236379980730e-03 -7.882441948730e-04 0.0 
0.0 0.0 0.0 
8.028583011706e-04 1.579313086812e-03 0.0 
1.579313086812e-03 6.513684977284e-03 0.0 
0.0 0.0 0.0 
1.626222402565e-03 -1.532232355040e-03 0.0 
-1.532232355040e-03 5.683230998454e-04 0.0 
0.0 0.0 0.0 
1.902250746182e-03 -1.471087057477e-03 0.0 
-1.471087057477e-03 -1.230699280751e-04 0.0 
0.0 0.0 0.0 
-1.587176211510e-03 -2.509486322899e-03 0.0 
-2.509486322899e-03 -3.655830564639e-04 0.0 
0.0 0.0 0.0 
0.0 3.687006438478e-03 0.0 
3.687006438478e-03 1.086307311918e-02 0.0 
0.0 0.0 0.0 
2.116859817177e-03 1.985222856717e-03 0.0 
1.985222856717e-03 -1.430104138284e-03 0.0 
0.0 0.0 0.0 
1.202784920743e-03 7.138585872902e-04 0.0 
7.138585872902e-04 5.216661248770e-03 0.0 
0.0 0.0 0.0 
-1.928250832043e-03 4.537734341362e-04 0.0 
4.537734341362e-04 1.554623740758e-02 0.0 
0.0 0.0 0.0 
4.270592495244e-04 -1.815415623775e-03 0.0 
-1.815415623775e-03 1.076133980842e-03 0.0 
0.0 0.0 0.0 
2.201634988949e-03 -1.317067770790e-03 0.0 
-1.317067770790e-03 -7.307569142947e-04 0.0 
0.0 0.0 0.0 
-6.442017193060e-04 2.951204220775e-03 0.0 
2.951204220775e-03 1.079413210476e-02 0.0 
0.0 0.0 0.0 
0.0 3.035700862657e-03 0.0 
3.035700862657e-03 9.131203261167e-03 0.0 
0.0 0.0 0.0 
2.325328471606e-04 -5.593749002293e-04 0.0 
-5.593749002293e-04 3.174211075704e-03 0.0 
0.0 0.0 0.0 
1.339362669641e-03 3.736467887926e-05 0.0 
3.736467887926e-05 4.032750435320e-03 0.0 
0.0 0.0 0.0 
7.788026430968e-04 2.880161527759e-03 0.0 
2.880161527759e-03 6.464037421260e-03 0.0 
0.0 0.0 0.0 
1.934654384752e-03 2.058820034431e-04 0.0 
2.058820034431e-04 3.049627332879e-03 0.0 
0.0 0.0 0.0 
2.484166700802e-03 -7.281246729486e-04 0.0 
-7.281246729486e-04 -5.396291728561e-04 0.0 
0.0 0.0 0.0 
1.441471545431e-03 -1.783222351808e-04 0.0 
-1.783222351808e-04 3.478933027688e-03 0.0 
0.0 0.0 0.0 
5.068133137065e-04 2.848301001314e-03 0.0 
2.848301001314e-03 6.960219617802e-03 0.0 
0.0 0.0 0.0 
4.257647968071e-04 3.007086085454e-03 0.0 
3.007086085454e-03 8.911859632584e-03 0.0 
0.0 0.0 0.0 
1.878416847752e-03 1.843470260816e-03 0.0 
1.843470260816e-03 4.815694013457e-03 0.0 
0.0 0.0 0.0 
9.936990895727e-04 2.814194052168e-03 0.0 
2.814194052168e-03 5.620885212092e-03 0.0 
0.0 0.0 0.0 
6.999091171656e-04 -9.338093234238e-04 0.0 
-9.338093234238e-04 2.730305018766e-03 0.0 
0.0 0.0 0.0 
1.142459193590e-03 2.681973439474e-03 0.0 
2.681973439474e-03 1.880731777695e-03 0.0 
0.0 0.0 0.0 
2.689506301026e-04 -6.936174033408e-04 0.0 
-6.936174033408e-04 2.939695642100e-03 0.0 
0.0 0.0 0.0 
1.034926731468e-03 2.752094644281e-03 0.0 
2.752094644281e-03 7.383686448810e-03 0.0 
0.0 0.0 0.0 
2.345417295752e-03 1.404585257899e-03 0.0 
1.404585257899e-03 2.931560341786e-03 0.0 
0.0 0.0 0.0 
4.090330230220e-04 1.758219943670e-03 0.0 
1.758219943670e-03 7.687774173649e-03 0.0 
0.0 0.0 0.0 
-1.257128797137e-03 2.376128431647e-03 0.0 
2.376128431647e-03 1.582817381901e-02 0.0 
0.0 0.0 0.0 
2.585729626514e-04 -1.688956211397e-03 0.0 
-1.688956211397e-03 1.309536934824e-03 0.0 
0.0 0.0 0.0 
0.0 2.077013606306e-03 0.0 
2.077013606306e-03 7.918335988738e-03 0.0 
0.0 0.0 0.0 
8.035436735472e-04 1.772866551242e-03 0.0 
1.772866551242e-03 7.117777016666e-03 0.0 
0.0 0.0 0.0 
1.736123411417e-03 2.436669063134e-03 0.0 
2.436669063134e-03 3.520606618558e-03 0.0 
0.0 0.0 0.0 
-9.208471968867e-04 -1.629407896554e-03 0.0 
-1.629407896554e-03 4.553377832135e-04 0.0 
0.0 0.0 0.0 
3.516192161312e-04 1.061091396518e-03 0.0 
1.061091396518e-03 7.417816501447e-03 0.0 
0.0 0.0 0.0 
-1.116063571484e-03 2.737711840743e-03 0.0 
2.737711840743e-03 1.505303510394e-02 0.0 
0.0 0.0 0.0 
1.430172617508e-03 -1.841102508526e-03 0.0 
-1.841102508526e-03 1.922282251079e-04 0.0 
0.0 0.0 0.0 
0.0 1.342905890933e-03 0.0 
1.342905890933e-03 7.492989632967e-03 0.0 
0.0 0.0 0.0 
1.243998090316e-03 -1.737528349852e-04 0.0 
-1.737528349852e-04 3.845238051923e-03 0.0 
0.0 0.0 0.0 
-2.241736232517e-04 2.845265736124e-03 0.0 
2.845265736124e-03 6.938119179836e-03 0.0 
0.0 0.0 0.0 
-1.675949614680e-03 2.336225105027e-03 0.0 
2.336225105027e-03 1.318899889378e-02 0.0 
0.0 0.0 0.0 
2.273949773843e-03 1.366886540081e-03 0.0 
1.366886540081e-03 2.975845922564e-03 0.0 
0.0 0.0 0.0 
1.333384568665e-03 -6.222283064738e-04 0.0 
-6.222283064738e-04 2.833999812405e-03 0.0 
0.0 0.0 0.0 
1.964019664586e-03 5.326497290458e-04 0.0 
5.326497290458e-04 3.407425583997e-03 0.0 
0.0 0.0 0.0 
-1.794438686309e-03 2.328058172987e-03 0.0 
2.328058172987e-03 1.459552459427e-02 0.0 
0.0 0.0 0.0 
-5.104670548115e-04 2.822218154399e-03 0.0 
2.822218154399e-03 8.619413095660e-03 0.0 
0.0 0.0 0.0 
1.699635191764e-03 2.104976023115e-03 0.0 
2.104976023115e-03 5.462270437851e-03 0.0 
0.0 0.0 0.0 
-1.295735473011e-03 5.987926730579e-05 0.0 
5.987926730579e-05 1.564349762224e-02 0.0 
0.0 0.0 0.0 
5.219984178906e-04 -9.490804006831e-04 0.0 
-9.490804006831e-04 2.733600988848e-03 0.0 
0.0 0.0 0.0 
2.039256586775e-03 1.564205228452e-03 0.0 
1.564205228452e-03 4.208232441758e-03 0.0 
0.0 0.0 0.0 
1.225493198559e-03 -1.752571485752e-03 0.0 
-1.752571485752e-03 5.979612861107e-04 0.0 
0.0 0.0 0.0 
5.845655127501e-04 -2.945487003585e-04 0.0 
-2.945487003585e-04 4.470305907952e-03 0.0 
0.0 0.0 0.0 
-1.259606728683e-04 -1.789991332310e-04 0.0 
-1.789991332310e-04 8.917329231606e-05 0.0 
0.0 0.0 0.0 
8.903428796363e-04 2.750794227040e-03 0.0 
2.750794227040e-03 2.846678098340e-03 0.0 
0.0 0.0 0.0 
1.477692195430e-03 -1.839854160584e-03 0.0 
-1.839854160584e-03 -2.046556409374e-05 0.0 
0.0 0.0 0.0 
5.003857575814e-04 -6.566868307963e-04 0.0 
-6.566868307963e-04 3.337187610239e-03 0.0 
0.0 0.0 0.0 
1.512986630026e-03 2.581101692667e-03 0.0 
2.581101692667e-03 4.355247104482e-03 0.0 
0.0 0.0 0.0 
1.470792599186e-03 -4.111367439906e-05 0.0 
-4.111367439906e-05 3.824462881488e-03 0.0 
0.0 0.0 0.0 
-1.847233052463e-03 4.547125728996e-04 0.0 
4.547125728996e-04 1.577236859401e-02 0.0 
0.0 0.0 0.0 
9.980868451851e-04 -2.055837008328e-03 0.0 
-2.055837008328e-03 2.282100005389e-04 0.0 
0.0 0.0 0.0 
0.0 1.143434615912e-03 0.0 
1.143434615912e-03 7.447975831291e-03 0.0 
0.0 0.0 0.0 
-1.389129192647e-04 2.984250932640e-03 0.0 
2.984250932640e-03 9.465808146246e-03 0.0 
0.0 0.0 0.0 
4.176157884213e-04 -5.328506476505e-04 0.0 
-5.328506476505e-04 3.610353198002e-03 0.0 
0.0 0.0 0.0 
7.629850849011e-05 2.951357541068e-03 0.0 
2.951357541068e-03 8.636237381828e-03 0.0 
0.0 0.0 0.0 
3.721325245849e-04 -6.587056013004e-04 0.0 
-6.587056013004e-04 3.338198448505e-03 0.0 
0.0 0.0 0.0 
-5.320157321346e-04 -9.490619416529e-05 0.0 
-9.490619416529e-05 3.243794973506e-04 0.0 
0.0 0.0 0.0 
-1.854069079253e-03 2.356665061261e-03 0.0 
2.356665061261e-03 1.383744628937e-02 0.0 
0.0 0.0 0.0 
6.034072861372e-05 -1.956187979128e-04 0.0 
-1.956187979128e-04 3.150373702386e-03 0.0 
0.0 0.0 0.0 
5.068747155879e-04 -1.856613873530e-05 0.0 
-1.856613873530e-05 -1.149009713620e-04 0.0 
0.0 0.0 0.0 
2.971545847836e-04 -4.960226775545e-04 0.0 
-4.960226775545e-04 3.512980454397e-03 0.0 
0.0 0.0 0.0 
1.343002576454e-03 1.514704322598e-04 0.0 
1.514704322598e-04 4.362745543745e-03 0.0 
0.0 0.0 0.0 
-8.673960311968e-04 5.545479110477e-04 0.0 
5.545479110477e-04 1.694105433253e-02 0.0 
0.0 0.0 0.0 
2.109957424654e-03 3.406377890471e-04 0.0 
3.406377890471e-04 2.782532375722e-03 0.0 
0.0 0.0 0.0 
2.139422265061e-03 4.393446640753e-04 0.0 
4.393446640753e-04 3.007981038488e-03 0.0 
0.0 0.0 0.0 
-2.158638880825e-03 2.121612424850e-03 0.0 
2.121612424850e-03 1.350856056688e-02 0.0 
0.0 0.0 0.0 
-1.819855474924e-03 1.228506453466e-04 0.0 
1.228506453466e-04 1.475569585291e-02 0.0 
0.0 0.0 0.0 
-4.459647431865e-04 2.388397786228e-03 0.0 
2.388397786228e-03 1.630026874130e-02 0.0 
0.0 0.0 0.0 
2.907800804532e-04 2.901866637702e-03 0.0 
2.901866637702e-03 7.799437532243e-03 0.0 
0.0 0.0 0.0 
7.768930726098e-04 -3.810921383166e-05 0.0 
-3.810921383166e-05 -2.061052819776e-04 0.0 
0.0 0.0 0.0 
-1.949276142630e-04 -8.293583587855e-04 0.0 
-8.293583587855e-04 1.230728216752e-03 0.0 
0.0 0.0 0.0 
-8.225418733174e-04 -9.881933125724e-04 0.0 
-9.881933125724e-04 6.221833837761e-04 0.0 
0.0 0.0 0.0 
1.106842752132e-04 -1.396221432492e-03 0.0 
-1.396221432492e-03 1.629253004203e-03 0.0 
0.0 0.0 0.0 
-1.022506625337e-05 3.265733380074e-03 0.0 
3.265733380074e-03 1.090387062243e-02 0.0 
0.0 0.0 0.0 
-1.011661089488e-03 5.346897088111e-04 0.0 
5.346897088111e-04 1.694394799472e-02 0.0 
0.0 0.0 0.0 
7.613825778081e-04 1.166554291167e-04 0.0 
1.166554291167e-04 5.377003089160e-03 0.0 
0.0 0.0 0.0 
1.403266709947e-04 -1.003426527630e-03 0.0 
-1.003426527630e-03 2.151379512192e-03 0.0 
0.0 0.0 0.0 
4.514154295898e-04 -3.325112144400e-04 0.0 
-3.325112144400e-04 4.477280607733e-03 0.0 
0.0 0.0 0.0 
1.147052875008e-03 7.632429566510e-04 0.0 
7.632429566510e-04 5.480173348760e-03 0.0 
0.0 0.0 0.0 
2.588224375437e-03 3.176596872186e-04 0.0 
3.176596872186e-04 -3.567159694061e-03 0.0 
0.0 0.0 0.0 
5.831987354687e-05 -1.658544917531e-04 0.0 
-1.658544917531e-04 3.149838541673e-03 0.0 
0.0 0.0 0.0 
4.735751859419e-05 -1.024949749885e-04 0.0 
-1.024949749885e-04 2.615565007932e-03 0.0 
0.0 0.0 0.0 
2.810069684109e-04 8.565159065662e-04 0.0 
8.565159065662e-04 7.373587067479e-03 0.0 
0.0 0.0 0.0 
0.0 9.294372711526e-04 0.0 
9.294372711526e-04 7.387712953816e-03 0.0 
0.0 0.0 0.0 
7.512246517738e-05 -1.580150720748e-04 0.0 
-1.580150720748e-04 3.485324693360e-03 0.0 
0.0 0.0 0.0 
3.097129939424e-04 -5.326133239477e-04 0.0 
-5.326133239477e-04 3.610945358502e-03 0.0 
0.0 0.0 0.0 
1.394864451221e-03 -4.514576966330e-04 0.0 
-4.514576966330e-04 3.202508112561e-03 0.0 
0.0 0.0 0.0 
1.100246680611e-03 1.009190837474e-03 0.0 
1.009190837474e-03 5.831100645264e-03 0.0 
0.0 0.0 0.0 
-2.960786282081e-04 -8.390949098357e-04 0.0 
-8.390949098357e-04 1.388880024354e-03 0.0 
0.0 0.0 0.0 
1.184027005070e-03 5.340960499164e-04 0.0 
5.340960499164e-04 5.173380550095e-03 0.0 
0.0 0.0 0.0 
4.050605917274e-04 -1.302114571176e-04 0.0 
-1.302114571176e-04 5.746814830483e-04 0.0 
0.0 0.0 0.0 
2.593014465022e-04 -6.089201575680e-04 0.0 
-6.089201575680e-04 3.264654616798e-03 0.0 
0.0 0.0 0.0 
5.067550361593e-04 -6.779866590627e-04 0.0 
-6.779866590627e-04 3.398016854010e-03 0.0 
0.0 0.0 0.0 
4.613264271351e-04 -4.099785835077e-05 0.0 
-4.099785835077e-05 1.924790017502e-04 0.0 
0.0 0.0 0.0 
6.655537411371e-05 -1.042396768106e-04 0.0 
-1.042396768106e-04 3.331315600567e-03 0.0 
0.0 0.0 0.0 
-1.047000805184e-03 2.295688218446e-03 0.0 
2.295688218446e-03 1.584057968759e-02 0.0 
0.0 0.0 0.0 
7.663970014626e-04 -2.411942927872e-05 0.0 
-2.411942927872e-05 -2.027976171952e-04 0.0 
0.0 0.0 0.0 
-2.048104617898e-03 2.727183870788e-04 0.0 
2.727183870788e-04 1.484721840153e-02 0.0 
0.0 0.0 0.0 
-1.841659833401e-03 4.436727396983e-04 0.0 
4.436727396983e-04 1.461300973972e-02 0.0 
0.0 0.0 0.0 
1.939682612033e-03 8.568532705536e-04 0.0 
8.568532705536e-04 3.835957047212e-03 0.0 
0.0 0.0 0.0 
5.223637765273e-05 -6.532402650208e-05 0.0 
-6.532402650208e-05 2.616933870677e-03 0.0 
0.0 0.0 0.0 
1.165146791246e-03 -1.736996811952e-03 0.0 
-1.736996811952e-03 8.025543061223e-04 0.0 
0.0 0.0 0.0 
1.384760215235e-04 3.129672583206e-03 0.0 
3.129672583206e-03 1.512414983411e-03 0.0 
0.0 0.0 0.0 
4.684927121497e-04 2.019963434385e-04 0.0 
2.019963434385e-04 6.189939538824e-03 0.0 
0.0 0.0 0.0 
1.387117934994e-04 3.499938223085e-03 0.0 
3.499938223085e-03 1.067178044534e-02 0.0 
0.0 0.0 0.0 
-1.368521039375e-03 8.058643639743e-04 0.0 
8.058643639743e-04 1.673911644667e-02 0.0 
0.0 0.0 0.0 
-2.830076862483e-04 2.872588117526e-03 0.0 
2.872588117526e-03 4.245070422670e-03 0.0 
0.0 0.0 0.0 
-4.511643911408e-04 -6.604783681839e-04 0.0 
-6.604783681839e-04 9.140893844966e-04 0.0 
0.0 0.0 0.0 
-1.030944580810e-03 2.733570841865e-03 0.0 
2.733570841865e-03 1.001468865802e-02 0.0 
0.0 0.0 0.0 
-1.471914756379e-03 2.185277851267e-05 0.0 
2.185277851267e-05 1.464487042465e-02 0.0 
0.0 0.0 0.0 
-1.294149245549e-03 1.823925013322e-05 0.0 
1.823925013322e-05 1.457894302253e-02 0.0 
0.0 0.0 0.0 
5.482927512741e-04 -2.554749152221e-05 0.0 
-2.554749152221e-05 -1.283101083657e-04 0.0 
0.0 0.0 0.0 
4.052527004534e-04 -5.899338153964e-05 0.0 
-5.899338153964e-05 2.185746160301e-04 0.0 
0.0 0.0 0.0 
3.612743572643e-04 -6.530931368880e-05 0.0 
-6.530931368880e-05 5.994778249836e-04 0.0 
0.0 0.0 0.0 
-8.812056842489e-05 -8.474300081857e-04 0.0 
-8.474300081857e-04 1.839756306741e-03 0.0 
0.0 0.0 0.0 
6.389711624615e-04 -3.499833612022e-05 0.0 
-3.499833612022e-05 1.263152676052e-04 0.0 
0.0 0.0 0.0 
8.319906489862e-05 -9.624626034036e-05 0.0 
-9.624626034036e-05 3.690310297122e-03 0.0 
0.0 0.0 0.0 
-1.330671159473e-03 -1.102978646945e-03 0.0 
-1.102978646945e-03 -1.853423389378e-03 0.0 
0.0 0.0 0.0 
4.303930643035e-05 -8.947085495768e-04 0.0 
-8.947085495768e-04 2.118928368121e-03 0.0 
0.0 0.0 0.0 
-1.182997967688e-03 1.133329569958e-04 0.0 
1.133329569958e-04 1.597244861785e-02 0.0 
0.0 0.0 0.0 
-1.348008558833e-03 9.992551312412e-05 0.0 
9.992551312412e-05 1.456198047061e-02 0.0 
0.0 0.0 0.0 
-1.692909606624e-04 3.350186628187e-03 0.0 
3.350186628187e-03 1.163649520751e-02 0.0 
0.0 0.0 0.0 
1.260946480971e-03 -4.594931500688e-05 0.0 
-4.594931500688e-05 4.183386506588e-03 0.0 
0.0 0.0 0.0 
-1.233052562013e-03 6.869584382082e-05 0.0 
6.869584382082e-05 1.562946493020e-02 0.0 
0.0 0.0 0.0 
4.482580426313e-05 -1.806799117195e-05 0.0 
-1.806799117195e-05 2.795740406889e-03 0.0 
0.0 0.0 0.0 
5.025380746297e-04 -8.042841595380e-05 0.0 
-8.042841595380e-05 5.354462412341e-04 0.0 
0.0 0.0 0.0 
0.0 1.233153898732e-03 0.0 
1.233153898732e-03 1.738862612763e-02 0.0 
0.0 0.0 0.0 
-3.699249843199e-04 1.390101747723e-03 0.0 
1.390101747723e-03 1.733240721518e-02 0.0 
0.0 0.0 0.0 
-1.701515599025e-03 3.575712302461e-04 0.0 
3.575712302461e-04 1.555311347745e-02 0.0 
0.0 0.0 0.0 
-1.573744629456e-03 3.078831241928e-05 0.0 
3.078831241928e-05 1.467140672106e-02 0.0 
0.0 0.0 0.0 
5.154825957177e-05 -1.503396166701e-04 0.0 
-1.503396166701e-04 2.819723583260e-03 0.0 
0.0 0.0 0.0 
-3.072191761948e-04 9.516338708430e-04 0.0 
9.516338708430e-04 1.750392046512e-02 0.0 
0.0 0.0 0.0 
2.786276397382e-05 -9.825597441629e-04 0.0 
-9.825597441629e-04 1.896786256223e-03 0.0 
0.0 0.0 0.0 
-1.495649720765e-03 1.952518498412e-04 0.0 
1.952518498412e-04 1.456748005312e-02 0.0 
0.0 0.0 0.0 
-1.648731092332e-03 7.123064929702e-05 0.0 
7.123064929702e-05 1.470229629849e-02 0.0 
0.0 0.0 0.0 
-1.244972551032e-03 2.521892842638e-03 0.0 
2.521892842638e-03 1.060603728833e-02 0.0 
0.0 0.0 0.0 
0.0 2.696420053675e-03 0.0 
2.696420053675e-03 1.618794159723e-02 0.0 
0.0 0.0 0.0 
-3.568020967846e-04 1.167689122573e-03 0.0 
1.167689122573e-03 1.743168958679e-02 0.0 
0.0 0.0 0.0 
6.000274068549e-04 -4.685041641811e-05 0.0 
-4.685041641811e-05 1.391426391977e-04 0.0 
0.0 0.0 0.0 
6.000039714429e-04 -2.178629760268e-05 0.0 
-2.178629760268e-05 -1.446459869965e-04 0.0 
0.0 0.0 0.0 
-3.464583961633e-04 -6.258892680536e-04 0.0 
-6.258892680536e-04 1.074233851693e-03 0.0 
0.0 0.0 0.0 
6.671422675293e-04 -6.563548797381e-04 0.0 
-6.563548797381e-04 3.393911267559e-03 0.0 
0.0 0.0 0.0 
6.433006938655e-05 3.721383845844e-05 0.0 
3.721383845844e-05 6.900827048825e-03 0.0 
0.0 0.0 0.0 
-3.293879340851e-03 -1.964881050978e-03 0.0 
-1.964881050978e-03 -2.151126358841e-03 0.0 
0.0 0.0 0.0 
-9.311936390081e-04 4.871045131980e-05 0.0 
4.871045131980e-05 1.668468814691e-02 0.0 
0.0 0.0 0.0 
-1.552622065945e-03 -8.656334569975e-04 0.0 
-8.656334569975e-04 7.159423714160e-04 0.0 
0.0 0.0 0.0 
1.976973949662e-03 6.174143773282e-04 0.0 
6.174143773282e-04 3.627697457309e-03 0.0 
0.0 0.0 0.0 
-6.866615212009e-04 -5.883010645439e-04 0.0 
-5.883010645439e-04 1.077972550934e-04 0.0 
0.0 0.0 0.0 
-1.754525174700e-03 -2.083205839131e-03 0.0 
-2.083205839131e-03 -6.946106273329e-04 0.0 
0.0 0.0 0.0 
1.957631265350e-03 3.148026137647e-04 0.0 
3.148026137647e-04 3.319249039789e-03 0.0 
0.0 0.0 0.0 
1.518662935160e-04 4.902804272232e-05 0.0 
4.902804272232e-05 6.600745458526e-03 0.0 
0.0 0.0 0.0 
-1.237944154300e-03 7.114388170146e-05 0.0 
7.114388170146e-05 1.594095011112e-02 0.0 
0.0 0.0 0.0 
-7.036238487288e-04 2.832541066819e-03 0.0 
2.832541066819e-03 9.448999643179e-03 0.0 
0.0 0.0 0.0 
5.029502949534e-04 -3.517595489718e-05 0.0 
-3.517595489718e-05 1.698796877487e-04 0.0 
0.0 0.0 0.0 
3.602432490817e-04 -2.582223199625e-04 0.0 
-2.582223199625e-04 4.762855765713e-03 0.0 
0.0 0.0 0.0 
0.0 3.634455502595e-04 0.0 
3.634455502595e-04 1.760381056259e-02 0.0 
0.0 0.0 0.0 
-2.583355266571e-04 4.145774237719e-04 0.0 
4.145774237719e-04 1.760702810512e-02 0.0 
0.0 0.0 0.0 
-1.296527673950e-03 4.839992205142e-05 0.0 
4.839992205142e-05 1.455858400565e-02 0.0 
0.0 0.0 0.0 
1.945967303821e-03 9.183758472538e-04 0.0 
9.183758472538e-04 4.002598603031e-03 0.0 
0.0 0.0 0.0 
0.0 1.020601711813e-03 0.0 
1.020601711813e-03 1.747764544612e-02 0.0 
0.0 0.0 0.0 
1.142912245990e-03 2.643391431571e-03 0.0 
2.643391431571e-03 7.108608700969e-03 0.0 
0.0 0.0 0.0 
5.105653493069e-04 -3.521452666852e-05 0.0 
-3.521452666852e-05 5.136259987355e-04 0.0 
0.0 0.0 0.0 
6.845020435431e-04 -3.908611510525e-05 0.0 
-3.908611510525e-05 1.140439523690e-04 0.0 
0.0 0.0 0.0 
5.166387811710e-04 -1.684435840637e-05 0.0 
-1.684435840637e-05 1.848386546142e-04 0.0 
0.0 0.0 0.0 
5.269488032655e-05 -1.711158211860e-05 0.0 
-1.711158211860e-05 3.157368819088e-03 0.0 
0.0 0.0 0.0 
3.324341708089e-05 2.216229428208e-05 0.0 
2.216229428208e-05 7.575611920220e-03 0.0 
0.0 0.0 0.0 
-4.203743812525e-04 -1.123141566697e-05 0.0 
-1.123141566697e-05 1.738148670243e-02 0.0 
0.0 0.0 0.0 
6.860865515579e-04 -8.917000989025e-07 0.0 
-8.917000989025e-07 -1.901120399302e-04 0.0 
0.0 0.0 0.0 
7.963621528351e-05 -7.079088811045e-05 0.0 
-7.079088811045e-05 3.690273586919e-03 0.0 
0.0 0.0 0.0 
0.0 3.845292667117e-05 0.0 
3.845292667117e-05 7.614018628425e-03 0.0 
0.0 0.0 0.0 
4.836584588941e-05 6.741769271142e-05 0.0 
6.741769271142e-05 7.546265508314e-03 0.0 
0.0 0.0 0.0 
2.944142812231e-04 6.833299367214e-04 0.0 
6.833299367214e-04 7.354682837288e-03 0.0 
0.0 0.0 0.0 
-1.049520600280e-03 7.613677630656e-05 0.0 
7.613677630656e-05 1.636482429901e-02 0.0 
0.0 0.0 0.0 
-8.379885681878e-04 -1.967179778607e-05 0.0 
-1.967179778607e-05 1.683942558893e-02 0.0 
0.0 0.0 0.0 
0.0 5.755539401234e-05 0.0 
5.755539401234e-05 7.550165353682e-03 0.0 
0.0 0.0 0.0 
0.0 8.490261649761e-05 0.0 
8.490261649761e-05 7.542197606034e-03 0.0 
0.0 0.0 0.0 
-9.104830970188e-04 8.826843142068e-05 0.0 
8.826843142068e-05 1.668607697673e-02 0.0 
0.0 0.0 0.0 
9.333742037678e-04 2.052583181210e-05 0.0 
2.052583181210e-05 -2.874674924632e-04 0.0 
0.0 0.0 0.0 
-1.311646140576e-03 4.687893227421e-06 0.0 
4.687893227421e-06 1.457897778400e-02 0.0 
0.0 0.0 0.0 
-1.296414407872e-03 2.300917897316e-05 0.0 
2.300917897316e-05 1.458487146910e-02 0.0 
0.0 0.0 0.0 
6.391611810206e-04 -1.055761535874e-05 0.0 
-1.055761535874e-05 -1.601532590908e-04 0.0 
0.0 0.0 0.0 
0.0 2.708707217876e-04 0.0 
2.708707217876e-04 7.464523750156e-03 0.0 
0.0 0.0 0.0 
2.287002442733e-04 5.297775425749e-04 0.0 
5.297775425749e-04 7.351947113544e-03 0.0 
0.0 0.0 0.0 
0.0 4.687030112051e-04 0.0 
4.687030112051e-04 7.353957913339e-03 0.0 
0.0 0.0 0.0 
7.918846924830e-04 1.409798300857e-06 0.0 
1.409798300857e-06 -2.238928169755e-04 0.0 
0.0 0.0 0.0 
7.780447456780e-04 -1.512799462656e-05 0.0 
-1.512799462656e-05 -2.116944164783e-04 0.0 
0.0 0.0 0.0 
0.0 7.636723287671e-04 0.0 
7.636723287671e-04 7.360049527680e-03 0.0 
0.0 0.0 0.0 
0.0 6.004865893749e-04 0.0 
6.004865893749e-04 7.349745180204e-03 0.0 
0.0 0.0 0.0 
-1.111951699252e-03 -2.897877207480e-05 0.0 
-2.897877207480e-05 1.618787493820e-02 0.0 
0.0 0.0 0.0 
-1.318725107595e-03 -1.708381468317e-06 0.0 
-1.708381468317e-06 1.457796540576e-02 0.0 
0.0 0.0 0.0 
-9.872365931665e-04 -2.412415170239e-05 0.0 
-2.412415170239e-05 1.652603324586e-02 0.0 
0.0 0.0 0.0 
-1.258400371338e-03 -3.560692754834e-05 0.0 
-3.560692754834e-05 1.543718874364e-02 0.0 
0.0 0.0 0.0 
-1.301492061982e-03 2.938756117344e-05 0.0 
2.938756117344e-05 1.458354009950e-02 0.0 
0.0 0.0 0.0 
7.674518398433e-04 -3.402183032814e-05 0.0 
-3.402183032814e-05 -1.908897053945e-04 0.0 
0.0 0.0 0.0 
6.291715650388e-04 -4.554883106655e-05 0.0 
-4.554883106655e-05 -1.111671188198e-04 0.0 
0.0 0.0 0.0 
5.324204909136e-04 -6.111817922019e-05 0.0 
-6.111817922019e-05 -9.550188948670e-05 0.0 
0.0 0.0 0.0 
5.084051425901e-04 -7.134409535036e-05 0.0 
-7.134409535036e-05 -7.141018189549e-05 0.0 
0.0 0.0 0.0 
8.852925938596e-05 -5.075088534458e-06 0.0 
-5.075088534458e-06 3.884005582554e-03 0.0 
0.0 0.0 0.0 
7.116730172485e-05 -1.352449383368e-05 0.0 
-1.352449383368e-05 3.516306879839e-03 0.0 
0.0 0.0 0.0 
1.289450683857e-04 -4.493189434432e-05 0.0 
-4.493189434432e-05 5.486266956600e-05 0.0 
0.0 0.0 0.0 
1.368886036595e-04 9.252997280742e-06 0.0 
9.252997280742e-06 4.999776482297e-03 0.0 
0.0 0.0 0.0 
7.895140959446e-06 -7.404847925606e-05 0.0 
-7.404847925606e-05 9.870000492218e-05 0.0 
0.0 0.0 0.0 
0.0 2.183392672593e-03 0.0 
2.183392672593e-03 1.676574525246e-02 0.0 
0.0 0.0 0.0 
0.0 8.412197485278e-04 0.0 
8.412197485278e-04 1.752937364344e-02 0.0 
0.0 0.0 0.0 
0.0 1.459911167915e-03 0.0 
1.459911167915e-03 1.727214287790e-02 0.0 
0.0 0.0 0.0 
2.720926975894e-04 -9.664842240117e-06 0.0 
-9.664842240117e-06 1.172789086581e-03 0.0 
0.0 0.0 0.0 
5.912934403707e-05 -1.716395945865e-05 0.0 
-1.716395945865e-05 2.421449226041e-03 0.0 
0.0 0.0 0.0 
0.0 6.565791370991e-04 0.0 
6.565791370991e-04 1.755329102475e-02 0.0 
0.0 0.0 0.0 
1.040382447826e-04 1.939227910677e-05 0.0 
1.939227910677e-05 6.256939533375e-03 0.0 
0.0 0.0 0.0 
0.0 5.131128336930e-04 0.0 
5.131128336930e-04 1.761257962809e-02 0.0 
0.0 0.0 0.0 
7.190500770249e-05 2.558039125371e-05 0.0 
2.558039125371e-05 6.699450615941e-03 0.0 
0.0 0.0 0.0 
3.793955035114e-05 3.466596447839e-05 0.0 
3.466596447839e-05 7.149210107654e-03 0.0 
0.0 0.0 0.0 
6.189719571670e-05 -7.528226599580e-05 0.0 
-7.528226599580e-05 3.331304821797e-03 0.0 
0.0 0.0 0.0 
-3.253722381532e-04 7.552749144102e-04 0.0 
7.552749144102e-04 1.754187136509e-02 0.0 
0.0 0.0 0.0 
-2.527311150882e-04 6.283649972756e-04 0.0 
6.283649972756e-04 1.757574123931e-02 0.0 
0.0 0.0 0.0 
8.651448041386e-05 -2.739402397840e-05 0.0 
-2.739402397840e-05 6.447510819526e-03 0.0 
0.0 0.0 0.0 
5.455103169072e-05 -2.286079794980e-05 0.0 
-2.286079794980e-05 6.904235328403e-03 0.0 
0.0 0.0 0.0 
2.207807292012e-04 -1.362731116135e-04 0.0 
-1.362731116135e-04 5.286374317234e-03 0.0 
0.0 0.0 0.0 
-9.859829733874e-04 -3.114770563196e-04 0.0 
-3.114770563196e-04 5.277176378791e-04 0.0 
0.0 0.0 0.0 
1.701893145618e-04 -5.362279637850e-04 0.0 
-5.362279637850e-04 3.171254154404e-03 0.0 
0.0 0.0 0.0 
5.504066174506e-04 -6.998558837165e-05 0.0 
-6.998558837165e-05 1.648289906024e-04 0.0 
0.0 0.0 0.0 
3.865071080777e-04 1.363956759421e-04 0.0 
1.363956759421e-04 6.196786875112e-03 0.0 
0.0 0.0 0.0 
3.532204629624e-04 -6.216981540933e-04 0.0 
-6.216981540933e-04 3.266051117767e-03 0.0 
0.0 0.0 0.0 
2.901085512330e-04 -1.192699976300e-05 0.0 
-1.192699976300e-05 5.894438255154e-03 0.0 
0.0 0.0 0.0 
-5.736005927082e-05 -8.924143129282e-04 0.0 
-8.924143129282e-04 1.643395425171e-03 0.0 
0.0 0.0 0.0 
1.333995382671e-04 -2.066847424525e-04 0.0 
-2.066847424525e-04 6.667838582555e-04 0.0 
0.0 0.0 0.0 
1.798988145534e-04 -9.502422929200e-06 0.0 
-9.502422929200e-06 6.352839659737e-03 0.0 
0.0 0.0 0.0 
2.198958351107e-04 -4.840122323896e-04 0.0 
-4.840122323896e-04 3.511549944898e-03 0.0 
0.0 0.0 0.0 
4.581978482321e-05 -1.064970373846e-04 0.0 
-1.064970373846e-04 2.975523880218e-03 0.0 
0.0 0.0 0.0 
2.278389221901e-04 -5.976479502596e-05 0.0 
-5.976479502596e-05 5.902424521906e-03 0.0 
0.0 0.0 0.0 
-6.428379524782e-04 2.885984108275e-04 0.0 
2.885984108275e-04 1.709817902940e-02 0.0 
0.0 0.0 0.0 
4.873263680993e-05 -7.286402241863e-05 0.0 
-7.286402241863e-05 2.976159982409e-03 0.0 
0.0 0.0 0.0 
1.202731250604e-03 2.338086415954e-04 0.0 
2.338086415954e-04 4.606455745186e-03 0.0 
0.0 0.0 0.0 
8.450686372361e-04 -2.925941703696e-04 0.0 
-2.925941703696e-04 4.271295008312e-03 0.0 
0.0 0.0 0.0 
2.879407113183e-04 -1.048493403492e-04 0.0 
-1.048493403492e-04 5.281130873067e-03 0.0 
0.0 0.0 0.0 
2.193756883848e-04 -6.114324824612e-05 0.0 
-6.114324824612e-05 5.523799653817e-03 0.0 
0.0 0.0 0.0 
2.592384252501e-03 1.388108463655e-03 0.0 
1.388108463655e-03 2.495954089892e-04 0.0 
0.0 0.0 0.0 
-8.858009198685e-04 2.738239007400e-03 0.0 
2.738239007400e-03 9.208981398960e-03 0.0 
0.0 0.0 0.0 
1.289386128396e-03 2.567788330105e-03 0.0 
2.567788330105e-03 4.795781901229e-03 0.0 
0.0 0.0 0.0 
4.696928883265e-04 -2.234137685075e-04 0.0 
-2.234137685075e-04 4.756841718484e-03 0.0 
0.0 0.0 0.0 
1.657564241757e-04 -4.223318561028e-05 0.0 
-4.223318561028e-05 6.158852557219e-03 0.0 
0.0 0.0 0.0 
1.661086419573e-04 -2.387290004734e-05 0.0 
-2.387290004734e-05 5.756058698189e-03 0.0 
0.0 0.0 0.0 
-7.589499019467e-05 -1.457535275532e-03 0.0 
-1.457535275532e-03 1.466442302273e-03 0.0 
0.0 0.0 0.0 
-7.180654187791e-04 5.002891740819e-04 0.0 
5.002891740819e-04 1.708287190577e-02 0.0 
0.0 0.0 0.0 
-9.170315586003e-04 4.097138246207e-04 0.0 
4.097138246207e-04 1.681283882478e-02 0.0 
0.0 0.0 0.0 
-1.339832137329e-03 8.018254913113e-05 0.0 
8.018254913113e-05 1.516894057117e-02 0.0 
0.0 0.0 0.0 
5.581404392838e-04 -1.755509426560e-04 0.0 
-1.755509426560e-04 4.895883233343e-03 0.0 
0.0 0.0 0.0 
3.709834197079e-04 -1.600559316266e-04 0.0 
-1.600559316266e-04 5.026754011976e-03 0.0 
0.0 0.0 0.0 
-7.370530685096e-04 2.659895366628e-04 0.0 
2.659895366628e-04 1.710642290864e-02 0.0 
0.0 0.0 0.0 
-8.015320436402e-04 3.650414730980e-04 0.0 
3.650414730980e-04 1.696277266970e-02 0.0 
0.0 0.0 0.0 
8.142487481020e-04 -4.262653017507e-04 0.0 
-4.262653017507e-04 3.945916765545e-03 0.0 
0.0 0.0 0.0 
1.247483855014e-04 -8.454163381666e-06 0.0 
-8.454163381666e-06 6.605968255719e-03 0.0 
0.0 0.0 0.0 
-1.162559097160e-03 7.937463172982e-04 0.0 
7.937463172982e-04 1.673982942748e-02 0.0 
0.0 0.0 0.0 
1.352040753424e-04 -5.361736446363e-05 0.0 
-5.361736446363e-05 5.756030716917e-03 0.0 
0.0 0.0 0.0 
2.772802850095e-04 1.086366601956e-04 0.0 
1.086366601956e-04 6.516137558660e-03 0.0 
0.0 0.0 0.0 
-8.322133848959e-04 4.829859468023e-04 0.0 
4.829859468023e-04 1.708652015714e-02 0.0 
0.0 0.0 0.0 
-1.316529929428e-03 2.991608608939e-04 0.0 
2.991608608939e-04 1.634300251566e-02 0.0 
0.0 0.0 0.0 
1.145474949683e-03 2.635056589530e-05 0.0 
2.635056589530e-05 4.382804014920e-03 0.0 
0.0 0.0 0.0 
3.862167103263e-05 -3.275792045472e-04 0.0 
-3.275792045472e-04 1.842486460505e-03 0.0 
0.0 0.0 0.0 
-1.374995896118e-04 -1.716299354339e-03 0.0 
-1.716299354339e-03 1.191962899949e-03 0.0 
0.0 0.0 0.0 
-1.247253034490e-04 -5.212691644869e-04 0.0 
-5.212691644869e-04 8.936183349373e-04 0.0 
0.0 0.0 0.0 
-9.914146227145e-04 -1.391728866519e-03 0.0 
-1.391728866519e-03 2.029002038255e-04 0.0 
0.0 0.0 0.0 
-8.813023218837e-04 3.356321458121e-04 0.0 
3.356321458121e-04 1.696582212367e-02 0.0 
0.0 0.0 0.0 
1.456177473524e-04 2.193130090607e-05 0.0 
2.193130090607e-05 6.388324064715e-03 0.0 
0.0 0.0 0.0 
-5.382583559259e-04 -8.425857805748e-04 0.0 
-8.425857805748e-04 3.510012216978e-04 0.0 
0.0 0.0 0.0 
-9.080476054687e-04 3.018373829689e-03 0.0 
3.018373829689e-03 1.412139167551e-02 0.0 
0.0 0.0 0.0 
-1.365119703216e-03 1.115929918092e-04 0.0 
1.115929918092e-04 1.538257063227e-02 0.0 
0.0 0.0 0.0 
3.053228201775e-04 -8.872546151388e-05 0.0 
-8.872546151388e-05 5.637124555356e-03 0.0 
0.0 0.0 0.0 
1.883452720621e-04 -1.462085641555e-05 0.0 
-1.462085641555e-05 5.947432550582e-03 0.0 
0.0 0.0 0.0 
9.615438155177e-04 -1.585014745945e-03 0.0 
-1.585014745945e-03 1.302403277342e-03 0.0 
0.0 0.0 0.0 
1.494557167048e-04 -5.727166074113e-05 0.0 
-5.727166074113e-05 5.953766594453e-03 0.0 
0.0 0.0 0.0 
-1.391069873487e-03 1.586184941903e-05 0.0 
1.586184941903e-05 1.516751880049e-02 0.0 
0.0 0.0 0.0 
1.811355992970e-03 1.646843850001e-03 0.0 
1.646843850001e-03 4.844986103529e-03 0.0 
0.0 0.0 0.0 
2.182298229940e-04 1.668822377443e-04 0.0 
1.668822377443e-04 6.806217294002e-03 0.0 
0.0 0.0 0.0 
9.992487772514e-05 -1.681720172340e-04 0.0 
-1.681720172340e-04 1.779421655344e-03 0.0 
0.0 0.0 0.0 
3.902669013207e-04 2.356542716701e-04 0.0 
2.356542716701e-04 6.438087929775e-03 0.0 
0.0 0.0 0.0 
-1.189298146739e-03 2.861866415760e-04 0.0 
2.861866415760e-04 1.651287148715e-02 0.0 
0.0 0.0 0.0 
5.263985118531e-05 -2.551419482573e-04 0.0 
-2.551419482573e-04 2.014756768369e-03 0.0 
0.0 0.0 0.0 
1.196944747341e-04 -1.639228647100e-03 0.0 
-1.639228647100e-03 1.303328672104e-03 0.0 
0.0 0.0 0.0 
1.712682596593e-04 -1.808901321003e-04 0.0 
-1.808901321003e-04 4.175356064335e-03 0.0 
0.0 0.0 0.0 
-1.389536591807e-03 3.035488888243e-04 0.0 
3.035488888243e-04 1.598110862712e-02 0.0 
0.0 0.0 0.0 
1.712222649786e-04 -7.392670073231e-04 0.0 
-7.392670073231e-04 2.627090229230e-03 0.0 
0.0 0.0 0.0 
-1.059256319857e-03 2.599534409345e-04 0.0 
2.599534409345e-04 1.667921201656e-02 0.0 
0.0 0.0 0.0 
-1.290386042806e-03 1.892451178884e-04 0.0 
1.892451178884e-04 1.616623422780e-02 0.0 
0.0 0.0 0.0 
3.445340201551e-04 -4.197883612440e-04 0.0 
-4.197883612440e-04 3.868311575381e-03 0.0 
0.0 0.0 0.0 
1.699832176136e-04 -9.023922025345e-05 0.0 
-9.023922025345e-05 5.525934574317e-03 0.0 
0.0 0.0 0.0 
1.993933236135e-04 -8.610129541219e-05 0.0 
-8.610129541219e-05 5.714935631616e-03 0.0 
0.0 0.0 0.0 
-1.072770397569e-03 3.168665860413e-04 0.0 
3.168665860413e-04 1.650792206756e-02 0.0 
0.0 0.0 0.0 
7.868882181783e-05 -4.009607455168e-04 0.0 
-4.009607455168e-04 1.502881325575e-03 0.0 
0.0 0.0 0.0 
2.470028788952e-04 -3.828991394802e-04 0.0 
-3.828991394802e-04 3.748481869217e-03 0.0 
0.0 0.0 0.0 
1.279062447526e-03 2.460057278352e-03 0.0 
2.460057278352e-03 6.756549036036e-03 0.0 
0.0 0.0 0.0 
-1.192372365761e-03 4.168855491345e-04 0.0 
4.168855491345e-04 1.666177219201e-02 0.0 
0.0 0.0 0.0 
2.002158259973e-04 -4.357112572486e-04 0.0 
-4.357112572486e-04 3.395705764476e-03 0.0 
0.0 0.0 0.0 
6.725082164571e-04 -3.535654045558e-04 0.0 
-3.535654045558e-04 4.282183353974e-03 0.0 
0.0 0.0 0.0 
5.175895366454e-04 2.709561511474e-04 0.0 
2.709561511474e-04 6.149322803321e-03 0.0 
0.0 0.0 0.0 
-1.186085187554e-03 3.261210523489e-04 0.0 
3.261210523489e-04 1.633941522612e-02 0.0 
0.0 0.0 0.0 
1.438292943429e-03 -7.592699912625e-04 0.0 
-7.592699912625e-04 -4.314953375246e-03 0.0 
0.0 0.0 0.0 
1.056089067015e-04 -3.215115703382e-04 0.0 
-3.215115703382e-04 7.974519966250e-04 0.0 
0.0 0.0 0.0 
2.816591297589e-03 2.982926558774e-04 0.0 
2.982926558774e-04 -2.944353249065e-03 0.0 
0.0 0.0 0.0 
2.091872517880e-04 1.035157341600e-05 0.0 
1.035157341600e-05 6.150664724998e-03 0.0 
0.0 0.0 0.0 
-1.293117481021e-03 3.206440474631e-04 0.0 
3.206440474631e-04 1.616447515224e-02 0.0 
0.0 0.0 0.0 
1.498168821523e-04 -1.475690683381e-04 0.0 
-1.475690683381e-04 4.545925560882e-03 0.0 
0.0 0.0 0.0 
-1.414646645518e-03 1.762975003474e-04 0.0 
1.762975003474e-04 1.559562231560e-02 0.0 
0.0 0.0 0.0 
1.012236479691e-03 6.331683410970e-04 0.0 
6.331683410970e-04 5.499723830047e-03 0.0 
0.0 0.0 0.0 
2.814235825808e-04 -3.158360127976e-04 0.0 
-3.158360127976e-04 4.109819516342e-03 0.0 
0.0 0.0 0.0 
2.563115817318e-04 -4.277081176734e-05 0.0 
-4.277081176734e-05 5.707965323923e-03 0.0 
0.0 0.0 0.0 
1.051390133251e-04 -2.785464589380e-04 0.0 
-2.785464589380e-04 1.834114576513e-03 0.0 
0.0 0.0 0.0 
3.369664322217e-04 1.944763909501e-04 0.0 
1.944763909501e-04 6.519677635019e-03 0.0 
0.0 0.0 0.0 
2.533365544592e-04 -4.183205269580e-04 0.0 
-4.183205269580e-04 3.868646101348e-03 0.0 
0.0 0.0 0.0 
9.768197638493e-05 -2.124759113916e-04 0.0 
-2.124759113916e-04 2.007850535556e-03 0.0 
0.0 0.0 0.0 
1.811510691700e-04 -3.719512107852e-04 0.0 
-3.719512107852e-04 3.747132499368e-03 0.0 
0.0 0.0 0.0 
1.582316087865e-04 -6.031787097668e-04 0.0 
-6.031787097668e-04 2.846151824020e-03 0.0 
0.0 0.0 0.0 
5.818175590377e-05 -8.304614719434e-04 0.0 
-8.304614719434e-04 2.108800675045e-03 0.0 
0.0 0.0 0.0 
1.891889058161e-04 -1.417336798129e-04 0.0 
-1.417336798129e-04 4.544428692569e-03 0.0 
0.0 0.0 0.0 
4.357426889781e-04 5.153573173084e-06 0.0 
5.153573173084e-06 -7.087017518292e-05 0.0 
0.0 0.0 0.0 
3.175105099120e-04 -4.989443566184e-05 0.0 
-4.989443566184e-05 -1.229797240998e-05 0.0 
0.0 0.0 0.0 
2.838180770515e-04 -1.930847534755e-04 0.0 
-1.930847534755e-04 5.032340653630e-03 0.0 
0.0 0.0 0.0 
1.055089405859e-04 -3.376950280575e-04 0.0 
-3.376950280575e-04 1.667705118573e-03 0.0 
0.0 0.0 0.0 
4.358257053021e-04 -2.232738955391e-04 0.0 
-2.232738955391e-04 4.903935435128e-03 0.0 
0.0 0.0 0.0 
5.461515709460e-04 -2.850073302493e-04 0.0 
-2.850073302493e-04 4.601646902873e-03 0.0 
0.0 0.0 0.0 
4.860428955336e-04 -9.091913217978e-04 0.0 
-9.091913217978e-04 2.723343325676e-03 0.0 
0.0 0.0 0.0 
8.743769572903e-04 -2.002442695964e-03 0.0 
-2.002442695964e-03 5.477620340786e-04 0.0 
0.0 0.0 0.0 
-1.172692574082e-03 7.653524846749e-04 0.0 
7.653524846749e-04 1.689402001256e-02 0.0 
0.0 0.0 0.0 
9.995580840356e-04 2.506991908420e-03 0.0 
2.506991908420e-03 -2.463154249360e-03 0.0 
0.0 0.0 0.0 
1.430900805042e-04 -4.797652734606e-04 0.0 
-4.797652734606e-04 3.053823570254e-03 0.0 
0.0 0.0 0.0 
9.471849958174e-04 8.897179994881e-04 0.0 
8.897179994881e-04 5.820466944841e-03 0.0 
0.0 0.0 0.0 
8.609696297879e-05 -2.667760674771e-04 0.0 
-2.667760674771e-04 1.443885034119e-03 0.0 
0.0 0.0 0.0 
-1.471246136518e-03 1.814034097198e-04 0.0 
1.814034097198e-04 1.579857847068e-02 0.0 
0.0 0.0 0.0 
-1.458920767690e-03 7.437439507340e-05 0.0 
7.437439507340e-05 1.538796707792e-02 0.0 
0.0 0.0 0.0 
-9.196829679048e-05 -7.326643756598e-04 0.0 
-7.326643756598e-04 1.369472975012e-03 0.0 
0.0 0.0 0.0 
6.745786410638e-04 3.245094346567e-04 0.0 
3.245094346567e-04 5.821165576843e-03 0.0 
0.0 0.0 0.0 
-1.528134263483e-03 6.274273887125e-04 0.0 
6.274273887125e-04 1.646604436722e-02 0.0 
0.0 0.0 0.0 
6.579246981220e-06 -3.981396674916e-04 0.0 
-3.981396674916e-04 1.680854638610e-03 0.0 
0.0 0.0 0.0 
-1.143732914137e-03 9.787250362488e-04 0.0 
9.787250362488e-04 1.696756613908e-02 0.0 
0.0 0.0 0.0 
-9.321557425774e-04 9.715836069875e-04 0.0 
9.715836069875e-04 1.696739234406e-02 0.0 
0.0 0.0 0.0 
5.109238170542e-05 -4.866417651754e-04 0.0 
-4.866417651754e-04 1.856345379559e-03 0.0 
0.0 0.0 0.0 
-4.046208841536e-04 2.835173782595e-03 0.0 
2.835173782595e-03 5.087672058499e-03 0.0 
0.0 0.0 0.0 
-5.237967465876e-06 -7.677754666402e-04 0.0 
-7.677754666402e-04 1.826822705000e-03 0.0 
0.0 0.0 0.0 
2.635490764509e-04 -1.222823776646e-04 0.0 
-1.222823776646e-04 5.460101621650e-03 0.0 
0.0 0.0 0.0 
2.293276372913e-04 -2.226814244862e-04 0.0 
-2.226814244862e-04 4.335795500731e-03 0.0 
0.0 0.0 0.0 
-9.426960345240e-04 2.669624921401e-03 0.0 
2.669624921401e-03 1.506349391773e-02 0.0 
0.0 0.0 0.0 
-9.897820388660e-04 7.600257985034e-04 0.0 
7.600257985034e-04 1.689401515065e-02 0.0 
0.0 0.0 0.0 
3.418815599756e-04 -1.689225652675e-04 0.0 
-1.689225652675e-04 5.190532509967e-03 0.0 
0.0 0.0 0.0 
4.403427599158e-04 -1.244869435242e-04 0.0 
-1.244869435242e-04 5.183152762411e-03 0.0 
0.0 0.0 0.0 
-1.819736291979e-04 -7.385113160575e-04 0.0 
-7.385113160575e-04 1.541061912383e-03 0.0 
0.0 0.0 0.0 
3.398512395745e-04 -8.054234099705e-05 0.0 
-8.054234099705e-05 5.453265820331e-03 0.0 
0.0 0.0 0.0 
-1.327039168015e-03 6.121967100948e-04 0.0 
6.121967100948e-04 1.646713735646e-02 0.0 
0.0 0.0 0.0 
1.745065634897e-04 -2.230182461809e-04 0.0 
-2.230182461809e-04 4.336176571935e-03 0.0 
0.0 0.0 0.0 
-1.434898680224e-03 3.018980997248e-04 0.0 
3.018980997248e-04 1.616713640981e-02 0.0 
0.0 0.0 0.0 
-1.362813713970e-03 6.064350906232e-04 0.0 
6.064350906232e-04 1.663244440416e-02 0.0 
0.0 0.0 0.0 
2.366591837891e-03 1.660471709242e-03 0.0 
1.660471709242e-03 2.305439591010e-03 0.0 
0.0 0.0 0.0 
-1.024937123642e-03 5.864115329771e-04 0.0 
5.864115329771e-04 1.679034221943e-02 0.0 
0.0 0.0 0.0 
1.666683659998e-04 -3.255133276505e-04 0.0 
-3.255133276505e-04 3.626151577333e-03 0.0 
0.0 0.0 0.0 
2.081082579137e-04 -3.148479091541e-04 0.0 
-3.148479091541e-04 4.110117257336e-03 0.0 
0.0 0.0 0.0 
8.364961221008e-05 -4.962572830334e-04 0.0 
-4.962572830334e-04 2.727422056109e-03 0.0 
0.0 0.0 0.0 
4.759982027560e-04 -1.249555629033e-03 0.0 
-1.249555629033e-03 2.094833953436e-03 0.0 
0.0 0.0 0.0 
-1.311777224079e-03 4.483660011004e-04 0.0 
4.483660011004e-04 1.632784574611e-02 0.0 
0.0 0.0 0.0 
1.133733034473e-03 -7.876434636061e-04 0.0 
-7.876434636061e-04 2.768882003107e-03 0.0 
0.0 0.0 0.0 
3.232626057148e-05 -6.513916195636e-04 0.0 
-6.513916195636e-04 2.009627410877e-03 0.0 
0.0 0.0 0.0 
-5.044910351493e-05 -5.059531051363e-04 0.0 
-5.059531051363e-04 1.058032405130e-03 0.0 
0.0 0.0 0.0 
-1.484790642822e-03 4.467086673171e-04 0.0 
4.467086673171e-04 1.632862831806e-02 0.0 
0.0 0.0 0.0 
-2.869224854229e-05 -7.185001018828e-04 0.0 
-7.185001018828e-04 2.020390170500e-03 0.0 
0.0 0.0 0.0 
4.604426144583e-04 3.207874511199e-04 0.0 
3.207874511199e-04 6.429381666413e-03 0.0 
0.0 0.0 0.0 
-1.184316070738e-03 4.501969752617e-04 0.0 
4.501969752617e-04 1.649673343962e-02 0.0 
0.0 0.0 0.0 
3.885462638558e-04 -3.548767531081e-05 0.0 
-3.548767531081e-05 5.628565972720e-03 0.0 
0.0 0.0 0.0 
4.155045126704e-04 1.573409900224e-03 0.0 
1.573409900224e-03 7.019938794061e-03 0.0 
0.0 0.0 0.0 
1.497704537783e-04 -4.173510197986e-04 0.0 
-4.173510197986e-04 3.392411340889e-03 0.0 
0.0 0.0 0.0 
-3.547588333885e-05 -5.461743654031e-04 0.0 
-5.461743654031e-04 1.866049263483e-03 0.0 
0.0 0.0 0.0 
-2.079140103161e-04 -5.711973311770e-04 0.0 
-5.711973311770e-04 1.201439984345e-03 0.0 
0.0 0.0 0.0 
5.102529531373e-04 -1.627403468170e-04 0.0 
-1.627403468170e-04 5.050898085912e-03 0.0 
0.0 0.0 0.0 
-1.277618729426e-03 2.267108890683e-04 0.0 
2.267108890683e-04 1.598761144040e-02 0.0 
0.0 0.0 0.0 
-1.038037169686e-04 -3.927223676976e-04 0.0 
-3.927223676976e-04 8.179590000117e-04 0.0 
0.0 0.0 0.0 
1.354311065986e-04 -6.969444102373e-04 0.0 
-6.969444102373e-04 2.620801285333e-03 0.0 
0.0 0.0 0.0 
1.670400161324e-04 -1.767632887570e-04 0.0 
-1.767632887570e-04 1.612022130275e-03 0.0 
0.0 0.0 0.0 
-1.540561747341e-03 2.965644937718e-04 0.0 
2.965644937718e-04 1.598242298990e-02 0.0 
0.0 0.0 0.0 
1.260854743110e-04 -5.671035968492e-04 0.0 
-5.671035968492e-04 2.840819833135e-03 0.0 
0.0 0.0 0.0 
6.933725053093e-04 -2.325280291910e-04 0.0 
-2.325280291910e-04 4.592410180423e-03 0.0 
0.0 0.0 0.0 
8.167892171040e-05 -4.533710474836e-04 0.0 
-4.533710474836e-04 2.722952861722e-03 0.0 
0.0 0.0 0.0 
-1.037374141366e-03 3.851752907495e-04 0.0 
3.851752907495e-04 1.681655106563e-02 0.0 
0.0 0.0 0.0 
6.762455452303e-05 -7.496656345741e-04 0.0 
-7.496656345741e-04 2.324438777159e-03 0.0 
0.0 0.0 0.0 
7.211930803961e-04 -1.049003229598e-04 0.0 
-1.049003229598e-04 4.886755773770e-03 0.0 
0.0 0.0 0.0 
-1.435124504919e-04 -1.611100006705e-03 0.0 
-1.611100006705e-03 1.175521536818e-03 0.0 
0.0 0.0 0.0 
6.384060064140e-04 -2.092616891750e-04 0.0 
-2.092616891750e-04 4.734748787970e-03 0.0 
0.0 0.0 0.0 
1.522457724448e-04 -2.612492835796e-04 0.0 
-2.612492835796e-04 3.975725710206e-03 0.0 
0.0 0.0 0.0 
5.059346653304e-04 -6.623296539012e-05 0.0 
-6.623296539012e-05 5.342878728692e-03 0.0 
0.0 0.0 0.0 
2.744692516431e-03 -1.531775054355e-04 0.0 
-1.531775054355e-04 -6.210290510853e-04 0.0 
0.0 0.0 0.0 
9.519207573128e-05 -2.184288467387e-04 0.0 
-2.184288467387e-04 1.623682722257e-03 0.0 
0.0 0.0 0.0 
-1.412936585538e-03 9.847635886961e-05 0.0 
9.847635886961e-05 1.560517831937e-02 0.0 
0.0 0.0 0.0 
1.786468342771e-03 4.109048753655e-04 0.0 
4.109048753655e-04 3.659446656626e-03 0.0 
0.0 0.0 0.0 
5.136497530827e-04 2.901905759374e-03 0.0 
2.901905759374e-03 5.782355251041e-03 0.0 
0.0 0.0 0.0 
-1.388578554153e-03 1.903079851479e-04 0.0 
1.903079851479e-04 1.598883145007e-02 0.0 
0.0 0.0 0.0 
1.254134521582e-04 -1.923421084263e-03 0.0 
-1.923421084263e-03 9.081914012279e-04 0.0 
0.0 0.0 0.0 
-1.595127334905e-03 6.057660844848e-04 0.0 
6.057660844848e-04 1.610711490042e-02 0.0 
0.0 0.0 0.0 
1.709802231094e-04 -2.296082220826e-04 0.0 
-2.296082220826e-04 1.426829878131e-03 0.0 
0.0 0.0 0.0 
5.174939506236e-04 1.416841869894e-04 0.0 
1.416841869894e-04 5.916747269515e-03 0.0 
0.0 0.0 0.0 
1.786239739164e-03 7.194874619768e-04 0.0 
7.194874619768e-04 4.033317844229e-03 0.0 
0.0 0.0 0.0 
1.634934401148e-03 1.930508848846e-03 0.0 
1.930508848846e-03 5.486803669499e-03 0.0 
0.0 0.0 0.0 
-9.162307285836e-04 9.194058203972e-04 0.0 
9.194058203972e-04 1.711989271311e-02 0.0 
0.0 0.0 0.0 
1.144741282787e-03 -5.670757419537e-04 0.0 
-5.670757419537e-04 3.221321291034e-03 0.0 
0.0 0.0 0.0 
-4.237505811244e-05 -4.602700318347e-04 0.0 
-4.602700318347e-04 1.517255164622e-03 0.0 
0.0 0.0 0.0 
9.426855650021e-04 -3.091628286664e-04 0.0 
-3.091628286664e-04 4.058875604563e-03 0.0 
0.0 0.0 0.0 
5.994461064327e-04 3.717625329227e-04 0.0 
3.717625329227e-04 6.133220258692e-03 0.0 
0.0 0.0 0.0 
8.106107387347e-04 -1.859750133264e-03 0.0 
-1.859750133264e-03 8.223542436712e-04 0.0 
0.0 0.0 0.0 
3.991774955365e-04 -1.221673860156e-04 0.0 
-1.221673860156e-04 5.352024397551e-03 0.0 
0.0 0.0 0.0 
-1.342516536009e-03 4.360697890946e-04 0.0 
4.360697890946e-04 1.649892519489e-02 0.0 
0.0 0.0 0.0 
1.142669713237e-03 -2.166180736302e-03 0.0 
-2.166180736302e-03 -1.172247837720e-04 0.0 
0.0 0.0 0.0 
7.826161914870e-04 -2.592595740810e-04 0.0 
-2.592595740810e-04 4.404365574246e-03 0.0 
0.0 0.0 0.0 
-1.692659315096e-03 2.697835410884e-04 0.0 
2.697835410884e-04 1.558176033707e-02 0.0 
0.0 0.0 0.0 
6.985337581411e-05 -3.198444675770e-04 0.0 
-3.198444675770e-04 2.209862903377e-03 0.0 
0.0 0.0 0.0 
1.407229881254e-04 -8.421146557954e-04 0.0 
-8.421146557954e-04 2.391700249828e-03 0.0 
0.0 0.0 0.0 
8.285497370024e-04 2.777130657851e-03 0.0 
2.777130657851e-03 6.478507023309e-03 0.0 
0.0 0.0 0.0 
6.413297804571e-04 -1.025531054699e-04 0.0 
-1.025531054699e-04 5.040860635328e-03 0.0 
0.0 0.0 0.0 
-2.459229091463e-04 2.820074346380e-03 0.0 
2.820074346380e-03 6.941768583316e-03 0.0 
0.0 0.0 0.0 
1.058274794564e-03 2.682066248249e-03 0.0 
2.682066248249e-03 5.640267994685e-03 0.0 
0.0 0.0 0.0 
-1.466699692381e-03 6.100273366959e-04 0.0 
6.100273366959e-04 1.629144030371e-02 0.0 
0.0 0.0 0.0 
-1.352345627579e-03 2.078039099357e-04 0.0 
2.078039099357e-04 1.579511477448e-02 0.0 
0.0 0.0 0.0 
-1.625421416589e-03 3.859309678370e-04 0.0 
3.859309678370e-04 1.578047213551e-02 0.0 
0.0 0.0 0.0 
2.043918979888e-04 -2.796395169584e-04 0.0 
-2.796395169584e-04 3.979122622524e-03 0.0 
0.0 0.0 0.0 
8.474725583836e-04 3.622421720141e-04 0.0 
3.622421720141e-04 5.511566955213e-03 0.0 
0.0 0.0 0.0 
1.118060966243e-03 -3.550351842782e-04 0.0 
-3.550351842782e-04 3.699637001050e-03 0.0 
0.0 0.0 0.0 
-1.540983876458e-03 1.651719573004e-04 0.0 
1.651719573004e-04 1.559730765462e-02 0.0 
0.0 0.0 0.0 
-6.978485839666e-04 3.227218389901e-03 0.0 
3.227218389901e-03 1.373432681408e-02 0.0 
0.0 0.0 0.0 
1.430758942013e-03 2.189110489660e-03 0.0 
2.189110489660e-03 6.157163489588e-03 0.0 
0.0 0.0 0.0 
7.940977948480e-04 -1.417506616729e-04 0.0 
-1.417506616729e-04 4.723430457579e-03 0.0 
0.0 0.0 0.0 
-1.178461174187e-03 6.045206734655e-04 0.0 
6.045206734655e-04 1.663203787665e-02 0.0 
0.0 0.0 0.0 
4.126864829632e-04 -1.065898478068e-03 0.0 
-1.065898478068e-03 2.422511907246e-03 0.0 
0.0 0.0 0.0 
2.533574285077e-04 -9.714787838076e-04 0.0 
-9.714787838076e-04 2.424723001826e-03 0.0 
0.0 0.0 0.0 
-2.456126102346e-05 -6.505116939156e-04 0.0 
-6.505116939156e-04 1.526596076023e-03 0.0 
0.0 0.0 0.0 
1.056086103414e-03 -1.568530339367e-04 0.0 
-1.568530339367e-04 4.201368321906e-03 0.0 
0.0 0.0 0.0 
2.261448663363e-04 -8.110683374783e-04 0.0 
-8.110683374783e-04 2.687836921174e-03 0.0 
0.0 0.0 0.0 
-1.616628267269e-03 4.494959660255e-04 0.0 
4.494959660255e-04 1.615011932112e-02 0.0 
0.0 0.0 0.0 
-1.737106243679e-03 4.504129103975e-04 0.0 
4.504129103975e-04 1.596339485220e-02 0.0 
0.0 0.0 0.0 
2.399007726543e-03 1.013597905294e-03 0.0 
1.013597905294e-03 2.332266267494e-03 0.0 
0.0 0.0 0.0 
1.871074746480e-04 -1.053666945790e-03 0.0 
-1.053666945790e-03 2.158362883229e-03 0.0 
0.0 0.0 0.0 
2.572012348012e-03 1.496090617068e-03 0.0 
1.496090617068e-03 -4.766300505327e-04 0.0 
0.0 0.0 0.0 
1.805592661945e-04 -8.892045348111e-04 0.0 
-8.892045348111e-04 2.398756885860e-03 0.0 
0.0 0.0 0.0 
3.493789875550e-04 -1.001276738287e-03 0.0 
-1.001276738287e-03 2.428747920771e-03 0.0 
0.0 0.0 0.0 
-9.677660102259e-05 -6.428946637327e-04 0.0 
-6.428946637327e-04 1.704957970754e-03 0.0 
0.0 0.0 0.0 
1.032468240232e-03 4.103490156891e-04 0.0 
4.103490156891e-04 5.192145771836e-03 0.0 
0.0 0.0 0.0 
1.095538424772e-03 -1.025486520638e-03 0.0 
-1.025486520638e-03 2.351198454439e-03 0.0 
0.0 0.0 0.0 
-1.189302876808e-03 5.751933432164e-04 0.0 
5.751933432164e-04 1.679222845078e-02 0.0 
0.0 0.0 0.0 
1.364764686610e-03 -9.011516128683e-04 0.0 
-9.011516128683e-04 2.327042097580e-03 0.0 
0.0 0.0 0.0 
1.148650401827e-03 -2.152771282216e-04 0.0 
-2.152771282216e-04 4.043355154143e-03 0.0 
0.0 0.0 0.0 
1.205092171725e-03 -6.096373095209e-04 0.0 
-6.096373095209e-04 3.137386468646e-03 0.0 
0.0 0.0 0.0 
1.590066734948e-03 2.381866088840e-03 0.0 
2.381866088840e-03 4.384878235654e-03 0.0 
0.0 0.0 0.0 
1.880745693228e-05 -5.664656696337e-04 0.0 
-5.664656696337e-04 1.691546309208e-03 0.0 
0.0 0.0 0.0 
7.782387533566e-04 4.115859372967e-04 0.0 
4.115859372967e-04 5.804193813237e-03 0.0 
0.0 0.0 0.0 
6.475708002585e-04 4.833087726678e-04 0.0 
4.833087726678e-04 6.139972136383e-03 0.0 
0.0 0.0 0.0 
6.479800734542e-04 2.983479335196e-03 0.0 
2.983479335196e-03 8.088110023067e-03 0.0 
0.0 0.0 0.0 
5.666900026855e-04 -1.070796949375e-03 0.0 
-1.070796949375e-03 2.422350892538e-03 0.0 
0.0 0.0 0.0 
1.196895437753e-03 -4.075035465713e-04 0.0 
-4.075035465713e-04 3.576841667315e-03 0.0 
0.0 0.0 0.0 
-1.429567461302e-03 4.364268974956e-04 0.0 
4.364268974956e-04 1.615100592204e-02 0.0 
0.0 0.0 0.0 
3.565846999309e-04 -8.988769624722e-04 0.0 
-8.988769624722e-04 2.722522749474e-03 0.0 
0.0 0.0 0.0 
7.599308928548e-04 2.754965055944e-03 0.0 
2.754965055944e-03 4.948211546501e-03 0.0 
0.0 0.0 0.0 
7.422647840749e-05 -6.941525561968e-04 0.0 
-6.941525561968e-04 2.315829532941e-03 0.0 
0.0 0.0 0.0 
5.247076544788e-04 -2.084442175534e-03 0.0 
-2.084442175534e-03 5.624898322441e-04 0.0 
0.0 0.0 0.0 
6.129949740934e-04 -1.112287710371e-03 0.0 
-1.112287710371e-03 2.394423012559e-03 0.0 
0.0 0.0 0.0 
1.087209101125e-05 -6.008933791895e-04 0.0 
-6.008933791895e-04 2.202660038769e-03 0.0 
0.0 0.0 0.0 
6.660008526915e-05 -4.020121716786e-04 0.0 
-4.020121716786e-04 2.031283219559e-03 0.0 
0.0 0.0 0.0 
9.654113220932e-04 -6.970798840881e-04 0.0 
-6.970798840881e-04 3.152198354996e-03 0.0 
0.0 0.0 0.0 
9.637422525981e-04 -1.801804305684e-04 0.0 
-1.801804305684e-04 4.391178561196e-03 0.0 
0.0 0.0 0.0 
4.082047317002e-04 3.227892262859e-03 0.0 
3.227892262859e-03 9.750992243504e-03 0.0 
0.0 0.0 0.0 
6.259058750053e-04 -4.205646043275e-05 0.0 
-4.205646043275e-05 -1.423011631549e-04 0.0 
0.0 0.0 0.0 
2.074460664549e-03 -6.641084157581e-04 0.0 
-6.641084157581e-04 1.441322008508e-03 0.0 
0.0 0.0 0.0 
1.579609152005e-03 -9.590633224271e-04 0.0 
-9.590633224271e-04 1.891434088142e-03 0.0 
0.0 0.0 0.0 
8.236635474628e-04 -1.081474314953e-03 0.0 
-1.081474314953e-03 2.388877693722e-03 0.0 
0.0 0.0 0.0 
-1.534434983496e-03 4.140114624653e-04 0.0 
4.140114624653e-04 1.596690258065e-02 0.0 
0.0 0.0 0.0 
1.171662622959e-03 -8.173861464000e-04 0.0 
-8.173861464000e-04 2.727471915107e-03 0.0 
0.0 0.0 0.0 
8.068939746275e-05 -6.172148140661e-04 0.0 
-6.172148140661e-04 2.526530811410e-03 0.0 
0.0 0.0 0.0 
8.420073405599e-04 -1.094976836734e-03 0.0 
-1.094976836734e-03 2.363338019688e-03 0.0 
0.0 0.0 0.0 
-1.051702731407e-03 4.389656696784e-04 0.0 
4.389656696784e-04 1.665873805230e-02 0.0 
0.0 0.0 0.0 
7.912521715303e-05 -5.711151560262e-04 0.0 
-5.711151560262e-04 2.519387507800e-03 0.0 
0.0 0.0 0.0 
-4.273925350362e-05 -3.717124568351e-04 0.0 
-3.717124568351e-04 9.649886779932e-04 0.0 
0.0 0.0 0.0 
-1.128505268547e-04 -5.196757295760e-04 0.0 
-5.196757295760e-04 1.360470440681e-03 0.0 
0.0 0.0 0.0 
6.893414539784e-04 -1.789966740532e-03 0.0 
-1.789966740532e-03 1.071102224632e-03 0.0 
0.0 0.0 0.0 
4.001891185426e-04 -1.178889859056e-03 0.0 
-1.178889859056e-03 2.147837829507e-03 0.0 
0.0 0.0 0.0 
1.839210126074e-03 -7.151950056759e-04 0.0 
-7.151950056759e-04 1.901590637594e-03 0.0 
0.0 0.0 0.0 
1.083669555140e-03 -1.011795151432e-03 0.0 
-1.011795151432e-03 2.347068824594e-03 0.0 
0.0 0.0 0.0 
-1.504809823941e-04 -1.851467202114e-03 0.0 
-1.851467202114e-03 8.260532113520e-04 0.0 
0.0 0.0 0.0 
5.766580972444e-05 -4.395882143651e-04 0.0 
-4.395882143651e-04 1.347786070608e-03 0.0 
0.0 0.0 0.0 
-2.100466967887e-03 7.391181884444e-04 0.0 
7.391181884444e-04 1.569427333307e-02 0.0 
0.0 0.0 0.0 
5.202650712444e-05 -5.453084101930e-04 0.0 
-5.453084101930e-04 2.193951830762e-03 0.0 
0.0 0.0 0.0 
1.180269096611e-03 3.238655379169e-04 0.0 
3.238655379169e-04 4.918461777474e-03 0.0 
0.0 0.0 0.0 
6.095046739469e-04 3.111840317703e-03 0.0 
3.111840317703e-03 8.959362582274e-03 0.0 
0.0 0.0 0.0 
-1.577635526366e-03 2.578654662152e-03 0.0 
2.578654662152e-03 1.334606653773e-02 0.0 
0.0 0.0 0.0 
-1.261836786790e-03 1.314687919588e-03 0.0 
1.314687919588e-03 1.661309925946e-02 0.0 
0.0 0.0 0.0 
2.431247221093e-04 3.325224517339e-03 0.0 
3.325224517339e-03 1.051838631327e-02 0.0 
0.0 0.0 0.0 
2.368460340442e-03 1.316879775955e-03 0.0 
1.316879775955e-03 2.356886357588e-03 0.0 
0.0 0.0 0.0 
6.449459638078e-04 3.033816263887e-03 0.0 
3.033816263887e-03 8.511892071420e-03 0.0 
0.0 0.0 0.0 
1.901902574417e-04 -2.246027355546e-03 0.0 
-2.246027355546e-03 3.854884029919e-04 0.0 
0.0 0.0 0.0 
7.148250827020e-04 -9.504796878472e-04 0.0 
-9.504796878472e-04 2.734852905001e-03 0.0 
0.0 0.0 0.0 
1.958116857290e-03 2.261187760163e-03 0.0 
2.261187760163e-03 2.687186955763e-03 0.0 
0.0 0.0 0.0 
2.137856979914e-03 -1.708841986650e-03 0.0 
-1.708841986650e-03 -1.351520350177e-03 0.0 
0.0 0.0 0.0 
-1.483465346134e-04 -2.148086679533e-03 0.0 
-2.148086679533e-03 3.565611728360e-04 0.0 
0.0 0.0 0.0 
3.074983144118e-04 -8.405019908656e-04 0.0 
-8.405019908656e-04 2.691859395804e-03 0.0 
0.0 0.0 0.0 
1.268549736411e-03 -1.110024570949e-03 0.0 
-1.110024570949e-03 1.919772060657e-03 0.0 
0.0 0.0 0.0 
1.526652068728e-03 -9.126729929579e-04 0.0 
-9.126729929579e-04 1.935199088223e-03 0.0 
0.0 0.0 0.0 
3.411914365614e-05 -4.924383112202e-04 0.0 
-4.924383112202e-04 2.386724203128e-03 0.0 
0.0 0.0 0.0 
1.401776285344e-03 -6.727096964423e-04 0.0 
-6.727096964423e-04 2.749742983349e-03 0.0 
0.0 0.0 0.0 
1.752333492934e-03 -9.192743609655e-04 0.0 
-9.192743609655e-04 1.487862205831e-03 0.0 
0.0 0.0 0.0 
2.265503567085e-03 -3.085416108180e-04 0.0 
-3.085416108180e-04 1.560491333382e-03 0.0 
0.0 0.0 0.0 
2.800077852907e-04 -1.149567219044e-03 0.0 
-1.149567219044e-03 2.144142800413e-03 0.0 
0.0 0.0 0.0 
1.865651917082e-03 1.174265931042e-03 0.0 
1.174265931042e-03 4.326347510651e-03 0.0 
0.0 0.0 0.0 
-1.683798540130e-03 6.482208189719e-04 0.0 
6.482208189719e-04 1.628775345920e-02 0.0 
0.0 0.0 0.0 
2.462800009694e-03 -1.250571241695e-04 0.0 
-1.250571241695e-04 1.152102739217e-03 0.0 
0.0 0.0 0.0 
9.805961877314e-04 4.751829090587e-04 0.0 
4.751829090587e-04 5.493698163267e-03 0.0 
0.0 0.0 0.0 
6.859227870817e-04 -2.357242063909e-03 0.0 
-2.357242063909e-03 -8.600909480927e-05 0.0 
0.0 0.0 0.0 
8.787359381077e-04 9.146623129384e-04 0.0 
9.146623129384e-04 6.140025913112e-03 0.0 
0.0 0.0 0.0 
1.611973574544e-03 -7.127919493930e-04 0.0 
-7.127919493930e-04 2.337672781273e-03 0.0 
0.0 0.0 0.0 
1.440592666710e-04 3.501354564642e-03 0.0 
3.501354564642e-03 1.130694812326e-02 0.0 
0.0 0.0 0.0 
-3.503985350911e-04 3.002486354077e-03 0.0 
3.002486354077e-03 1.028535694965e-02 0.0 
0.0 0.0 0.0 
3.295060274298e-04 -1.963298693341e-03 0.0 
-1.963298693341e-03 9.131083762668e-04 0.0 
0.0 0.0 0.0 
-1.294668804805e-03 2.753412521861e-03 0.0 
2.753412521861e-03 1.284854300169e-02 0.0 
0.0 0.0 0.0 
-1.221814747772e-03 1.987129765690e-03 0.0 
1.987129765690e-03 1.608615293187e-02 0.0 
0.0 0.0 0.0 
1.823098653548e-03 -4.705120058548e-04 0.0 
-4.705120058548e-04 2.401611815729e-03 0.0 
0.0 0.0 0.0 
1.183993940513e-03 2.612132927757e-03 0.0 
2.612132927757e-03 3.135954108398e-03 0.0 
0.0 0.0 0.0 
-1.010485915702e-03 2.886454279059e-03 0.0 
2.886454279059e-03 1.234796254399e-02 0.0 
0.0 0.0 0.0 
6.716150094439e-04 2.888909030301e-03 0.0 
2.888909030301e-03 6.104259935864e-03 0.0 
0.0 0.0 0.0 
-1.670665294584e-04 -1.980630628963e-03 0.0 
-1.980630628963e-03 8.472360664320e-04 0.0 
0.0 0.0 0.0 
-6.289141530315e-04 1.738298052576e-03 0.0 
1.738298052576e-03 1.691070429484e-02 0.0 
0.0 0.0 0.0 
-5.289929737133e-04 -1.547259939193e-03 0.0 
-1.547259939193e-03 1.090315264512e-03 0.0 
0.0 0.0 0.0 
1.056644531481e-03 2.055845591846e-03 0.0 
2.055845591846e-03 6.772551654742e-03 0.0 
0.0 0.0 0.0 
-8.140800157347e-04 7.163330986447e-04 0.0 
7.163330986447e-04 1.704219825148e-02 0.0 
0.0 0.0 0.0 
1.736643845114e-03 1.023773381392e-03 0.0 
1.023773381392e-03 4.474384881892e-03 0.0 
0.0 0.0 0.0 
-1.472384807537e-03 2.788697060723e-04 0.0 
2.788697060723e-04 1.578408491318e-02 0.0 
0.0 0.0 0.0 
-1.545489933990e-03 1.100595090634e-03 0.0 
1.100595090634e-03 1.661509863549e-02 0.0 
0.0 0.0 0.0 
1.975584731023e-03 -5.979030316187e-04 0.0 
-5.979030316187e-04 1.609419230233e-03 0.0 
0.0 0.0 0.0 
2.277166202818e-03 1.109759275505e-03 0.0 
1.109759275505e-03 2.973558492534e-03 0.0 
0.0 0.0 0.0 
-9.800844700868e-04 1.521504849286e-03 0.0 
1.521504849286e-03 1.677123651568e-02 0.0 
0.0 0.0 0.0 
8.797753562670e-04 -2.245779661591e-05 0.0 
-2.245779661591e-05 4.872956653438e-03 0.0 
0.0 0.0 0.0 
-1.726583838029e-03 8.899313717582e-04 0.0 
8.899313717582e-04 1.638016608546e-02 0.0 
0.0 0.0 0.0 
1.795349505884e-03 5.084618543040e-04 0.0 
5.084618543040e-04 3.927145458541e-03 0.0 
0.0 0.0 0.0 
4.550286705032e-04 -2.223903719301e-03 0.0 
-2.223903719301e-03 3.803680055194e-04 0.0 
0.0 0.0 0.0 
-1.730142814262e-03 1.168105606577e-03 0.0 
1.168105606577e-03 1.641307734621e-02 0.0 
0.0 0.0 0.0 
3.401062103572e-04 3.650095841457e-03 0.0 
3.650095841457e-03 1.039434313644e-02 0.0 
0.0 0.0 0.0 
7.311047334253e-04 6.060797110925e-04 0.0 
6.060797110925e-04 6.111692215325e-03 0.0 
0.0 0.0 0.0 
9.330666469549e-04 -9.042750127132e-04 0.0 
-9.042750127132e-04 2.726541495974e-03 0.0 
0.0 0.0 0.0 
-1.629320439997e-03 2.817493511807e-04 0.0 
2.817493511807e-04 1.578415667311e-02 0.0 
0.0 0.0 0.0 
-1.534961819837e-03 2.451176847729e-04 0.0 
2.451176847729e-04 1.558406912139e-02 0.0 
0.0 0.0 0.0 
1.320809406621e-03 -8.639260355519e-04 0.0 
-8.639260355519e-04 2.362591232859e-03 0.0 
0.0 0.0 0.0 
1.064286001907e-03 -3.743655616516e-05 0.0 
-3.743655616516e-05 4.533573644671e-03 0.0 
0.0 0.0 0.0 
1.138327830299e-03 1.315089904301e-04 0.0 
1.315089904301e-04 4.706201972188e-03 0.0 
0.0 0.0 0.0 
1.578842063266e-05 -4.858924693970e-04 0.0 
-4.858924693970e-04 1.186654058131e-03 0.0 
0.0 0.0 0.0 
2.504864853624e-03 1.680033221220e-03 0.0 
1.680033221220e-03 -1.236941950055e-03 0.0 
0.0 0.0 0.0 
2.533056234119e-03 2.950603576954e-04 0.0 
2.950603576954e-04 1.453504315290e-03 0.0 
0.0 0.0 0.0 
2.196455910840e-03 -4.771184384500e-04 0.0 
-4.771184384500e-04 1.213032393514e-03 0.0 
0.0 0.0 0.0 
1.209479863448e-03 2.734050747766e-03 0.0 
2.734050747766e-03 4.771650364666e-03 0.0 
0.0 0.0 0.0 
-9.855309947060e-04 1.476411916943e-03 0.0 
1.476411916943e-03 1.698062621325e-02 0.0 
0.0 0.0 0.0 
-7.577000765662e-04 2.975008938494e-03 0.0 
2.975008938494e-03 1.412591066774e-02 0.0 
0.0 0.0 0.0 
-9.726056072054e-04 7.055092162896e-04 0.0 
7.055092162896e-04 1.704328781096e-02 0.0 
0.0 0.0 0.0 
-3.885301557159e-04 2.822990375459e-03 0.0 
2.822990375459e-03 7.779986444393e-03 0.0 
0.0 0.0 0.0 
-1.501010008559e-03 1.770859091889e-03 0.0 
1.770859091889e-03 1.595226345413e-02 0.0 
0.0 0.0 0.0 
8.810135635207e-04 -1.320199063518e-04 0.0 
-1.320199063518e-04 4.549010290003e-03 0.0 
0.0 0.0 0.0 
-8.777706311859e-04 1.194462724629e-03 0.0 
1.194462724629e-03 1.699363880854e-02 0.0 
0.0 0.0 0.0 
-1.893232731696e-03 1.248225397173e-03 0.0 
1.248225397173e-03 1.618820480269e-02 0.0 
0.0 0.0 0.0 
9.231945580201e-04 -8.974991610318e-04 0.0 
-8.974991610318e-04 2.741385307660e-03 0.0 
0.0 0.0 0.0 
2.629670494826e-03 5.861852472975e-04 0.0 
5.861852472975e-04 1.183794904785e-03 0.0 
0.0 0.0 0.0 
-1.484231405054e-03 1.087932023554e-03 0.0 
1.087932023554e-03 1.642158668711e-02 0.0 
0.0 0.0 0.0 
-1.295203393243e-03 1.298126701035e-03 0.0 
1.298126701035e-03 1.681322865635e-02 0.0 
0.0 0.0 0.0 
-1.330722444004e-03 8.107013633088e-04 0.0 
8.107013633088e-04 1.656748189754e-02 0.0 
0.0 0.0 0.0 
-1.488930357307e-03 8.289866951592e-04 0.0 
8.289866951592e-04 1.638645307421e-02 0.0 
0.0 0.0 0.0 
7.876774488673e-04 2.625113875832e-04 0.0 
2.625113875832e-04 5.580312600087e-03 0.0 
0.0 0.0 0.0 
1.131446599150e-03 2.187881155084e-03 0.0 
2.187881155084e-03 6.747258272094e-03 0.0 
0.0 0.0 0.0 
9.799853762145e-04 2.878628047981e-04 0.0 
2.878628047981e-04 5.248195152416e-03 0.0 
0.0 0.0 0.0 
1.012946150673e-03 -3.522570988641e-04 0.0 
-3.522570988641e-04 3.932974507957e-03 0.0 
0.0 0.0 0.0 
-1.109542372065e-03 2.533433201144e-03 0.0 
2.533433201144e-03 9.823537847006e-03 0.0 
0.0 0.0 0.0 
1.639295069385e-03 1.328506169490e-03 0.0 
1.328506169490e-03 4.962004939505e-03 0.0 
0.0 0.0 0.0 
-1.667391436144e-03 2.016771937884e-03 0.0 
2.016771937884e-03 1.512975897710e-02 0.0 
0.0 0.0 0.0 
3.853412401833e-06 -4.581853532993e-04 0.0 
-4.581853532993e-04 2.040131062168e-03 0.0 
0.0 0.0 0.0 
2.324825621412e-03 -6.224300648935e-05 0.0 
-6.224300648935e-05 1.512410781733e-03 0.0 
0.0 0.0 0.0 
2.273401729584e-03 2.570083236717e-04 0.0 
2.570083236717e-04 2.395658164936e-03 0.0 
0.0 0.0 0.0 
2.130633263113e-03 1.222011249425e-03 0.0 
1.222011249425e-03 3.608163800389e-03 0.0 
0.0 0.0 0.0 
2.827891719014e-03 -4.388184794339e-04 0.0 
-4.388184794339e-04 -2.284157392189e-03 0.0 
0.0 0.0 0.0 
2.475254392169e-03 1.843268780790e-04 0.0 
1.843268780790e-04 1.252600004734e-03 0.0 
0.0 0.0 0.0 
1.955082127117e-03 1.344866931313e-03 0.0 
1.344866931313e-03 4.241217796777e-03 0.0 
0.0 0.0 0.0 
-6.744097794239e-04 2.810492274017e-03 0.0 
2.810492274017e-03 9.451988602440e-03 0.0 
0.0 0.0 0.0 
9.995218037258e-04 -7.197730054642e-04 0.0 
-7.197730054642e-04 3.098174930714e-03 0.0 
0.0 0.0 0.0 
-2.033623110887e-03 1.009126208822e-03 0.0 
1.009126208822e-03 1.596581740742e-02 0.0 
0.0 0.0 0.0 
-1.390293920935e-03 5.034998405687e-05 0.0 
5.034998405687e-05 1.489936940315e-02 0.0 
0.0 0.0 0.0 
-1.687054313546e-03 2.839509856034e-03 0.0 
2.839509856034e-03 1.697026720118e-03 0.0 
0.0 0.0 0.0 
9.714267591130e-04 -4.991620216955e-04 0.0 
-4.991620216955e-04 3.592162130740e-03 0.0 
0.0 0.0 0.0 
1.722557996391e-03 1.070261350726e-03 0.0 
1.070261350726e-03 4.640502604095e-03 0.0 
0.0 0.0 0.0 
-7.421399019478e-04 2.911365372209e-03 0.0 
2.911365372209e-03 1.467950770306e-02 0.0 
0.0 0.0 0.0 
2.461293670711e-03 1.068007209945e-03 0.0 
1.068007209945e-03 2.357853658412e-03 0.0 
0.0 0.0 0.0 
1.025628669239e-03 -5.336595178901e-04 0.0 
-5.336595178901e-04 3.501278918055e-03 0.0 
0.0 0.0 0.0 
-1.828667791358e-03 6.715622624598e-04 0.0 
6.715622624598e-04 1.610042919294e-02 0.0 
0.0 0.0 0.0 
-1.795487986560e-03 2.775393453317e-03 0.0 
2.775393453317e-03 3.252396297834e-03 0.0 
0.0 0.0 0.0 
1.868251159387e-03 1.216449841005e-03 0.0 
1.216449841005e-03 4.444613179681e-03 0.0 
0.0 0.0 0.0 
2.219209589485e-03 8.814185228579e-04 0.0 
8.814185228579e-04 3.051685341126e-03 0.0 
0.0 0.0 0.0 
-8.824251609494e-04 2.826861417875e-03 0.0 
2.826861417875e-03 1.026296608704e-02 0.0 
0.0 0.0 0.0 
9.606373019544e-04 2.489994479488e-05 0.0 
2.489994479488e-05 4.723307082127e-03 0.0 
0.0 0.0 0.0 
1.591666714976e-03 -2.222160699601e-03 0.0 
-2.222160699601e-03 -1.283355935172e-03 0.0 
0.0 0.0 0.0 
1.013277325662e-03 2.059633429369e-04 0.0 
2.059633429369e-04 4.937353736872e-03 0.0 
0.0 0.0 0.0 
9.436911724494e-04 6.783710513797e-04 0.0 
6.783710513797e-04 5.779766024655e-03 0.0 
0.0 0.0 0.0 
1.976807803486e-03 1.379125830690e-03 0.0 
1.379125830690e-03 4.294998581740e-03 0.0 
0.0 0.0 0.0 
-1.552204569274e-03 8.475670361701e-04 0.0 
8.475670361701e-04 1.656386747218e-02 0.0 
0.0 0.0 0.0 
9.162181113034e-04 2.826242021553e-03 0.0 
2.826242021553e-03 7.882396435221e-03 0.0 
0.0 0.0 0.0 
8.224438491153e-04 5.666333417081e-04 0.0 
5.666333417081e-04 5.794420255110e-03 0.0 
0.0 0.0 0.0 
-1.886057484484e-03 2.652750487429e-03 0.0 
2.652750487429e-03 4.758769682288e-03 0.0 
0.0 0.0 0.0 
-1.887960990150e-03 9.404676858345e-04 0.0 
9.404676858345e-04 1.618088620581e-02 0.0 
0.0 0.0 0.0 
9.731612249866e-04 2.569012214690e-03 0.0 
2.569012214690e-03 7.424212866853e-03 0.0 
0.0 0.0 0.0 
-1.311918173971e-03 1.048651028958e-03 0.0 
1.048651028958e-03 1.662042221432e-02 0.0 
0.0 0.0 0.0 
2.168403618109e-03 1.265199664762e-03 0.0 
1.265199664762e-03 3.653507450248e-03 0.0 
0.0 0.0 0.0 
2.470812517733e-03 6.167446974087e-04 0.0 
6.167446974087e-04 1.749634293845e-03 0.0 
0.0 0.0 0.0 
4.587706732786e-04 -4.336150517780e-04 0.0 
-4.336150517780e-04 3.972897470527e-03 0.0 
0.0 0.0 0.0 
2.440795964578e-03 6.215161282044e-04 0.0 
6.215161282044e-04 -4.193037009552e-03 0.0 
0.0 0.0 0.0 
-1.130054628049e-03 1.006134925988e-03 0.0 
1.006134925988e-03 1.679926950621e-02 0.0 
0.0 0.0 0.0 
2.777862255821e-05 -3.675132328798e-04 0.0 
-3.675132328798e-04 2.216187210464e-03 0.0 
0.0 0.0 0.0 
-1.753501881373e-03 2.439076110125e-03 0.0 
2.439076110125e-03 6.137804796835e-03 0.0 
0.0 0.0 0.0 
7.997547019669e-04 2.908641061867e-03 0.0 
2.908641061867e-03 8.167124554270e-03 0.0 
0.0 0.0 0.0 
-7.524553877500e-04 9.105999105831e-04 0.0 
9.105999105831e-04 1.712034906913e-02 0.0 
0.0 0.0 0.0 
9.821691294540e-04 -2.551596648127e-03 0.0 
-2.551596648127e-03 -8.980999764190e-04 0.0 
0.0 0.0 0.0 
6.003154872973e-04 2.856884090167e-03 0.0 
2.856884090167e-03 7.313970650903e-03 0.0 
0.0 0.0 0.0 
-1.642367045426e-03 1.133883863062e-03 0.0 
1.133883863062e-03 1.620049493540e-02 0.0 
0.0 0.0 0.0 
6.566891540205e-04 -6.597858285495e-04 0.0 
-6.597858285495e-04 3.451806553035e-03 0.0 
0.0 0.0 0.0 
2.495193101445e-03 -1.277847143179e-03 0.0 
-1.277847143179e-03 -2.149698208092e-03 0.0 
0.0 0.0 0.0 
1.247900647947e-03 2.775424635781e-03 0.0 
2.775424635781e-03 2.167692370401e-03 0.0 
0.0 0.0 0.0 
-7.353640208574e-05 -2.204820041192e-03 0.0 
-2.204820041192e-03 3.655057810825e-04 0.0 
0.0 0.0 0.0 
1.473987300661e-03 -2.172204449708e-03 0.0 
-2.172204449708e-03 -9.470032869101e-04 0.0 
0.0 0.0 0.0 
7.150328256991e-04 -2.399784793924e-03 0.0 
-2.399784793924e-03 -3.000046347623e-04 0.0 
0.0 0.0 0.0 
2.329238833116e-03 1.160269266401e-03 0.0 
1.160269266401e-03 3.009530334029e-03 0.0 
0.0 0.0 0.0 
-4.318376972052e-04 2.699768536634e-03 0.0 
2.699768536634e-03 1.634393915241e-02 0.0 
0.0 0.0 0.0 
-1.635832848803e-03 2.277921958465e-03 0.0 
2.277921958465e-03 7.549455691955e-03 0.0 
0.0 0.0 0.0 
6.124252241670e-04 2.319963890474e-04 0.0 
2.319963890474e-04 5.901484556947e-03 0.0 
0.0 0.0 0.0 
2.575960953145e-03 1.336921544517e-03 0.0 
1.336921544517e-03 9.482638256602e-04 0.0 
0.0 0.0 0.0 
-2.029935565287e-03 1.355808916116e-03 0.0 
1.355808916116e-03 1.593279948867e-02 0.0 
0.0 0.0 0.0 
2.865665255672e-03 4.454228038910e-04 0.0 
4.454228038910e-04 -3.779574948539e-03 0.0 
0.0 0.0 0.0 
7.577482629408e-04 7.810464782720e-04 0.0 
7.810464782720e-04 6.132495513563e-03 0.0 
0.0 0.0 0.0 
3.448784974944e-04 -2.535359184801e-03 0.0 
-2.535359184801e-03 -2.863493021554e-04 0.0 
0.0 0.0 0.0 
4.667632570432e-05 -3.843376901636e-04 0.0 
-3.843376901636e-04 2.588128815190e-03 0.0 
0.0 0.0 0.0 
1.835192555613e-03 1.665259017925e-03 0.0 
1.665259017925e-03 4.847503795901e-03 0.0 
0.0 0.0 0.0 
1.751482471058e-03 -6.525915237310e-04 0.0 
-6.525915237310e-04 2.018246791168e-03 0.0 
0.0 0.0 0.0 
1.195668989365e-03 2.320894654401e-03 0.0 
2.320894654401e-03 6.775013935513e-03 0.0 
0.0 0.0 0.0 
4.989159197664e-04 2.796594349040e-03 0.0 
2.796594349040e-03 4.663742792642e-03 0.0 
0.0 0.0 0.0 
-1.784997204504e-03 2.027674116882e-03 0.0 
2.027674116882e-03 1.555726824723e-02 0.0 
0.0 0.0 0.0 
1.120020798767e-03 2.181413017749e-03 0.0 
2.181413017749e-03 6.752975720429e-03 0.0 
0.0 0.0 0.0 
-1.636060173187e-03 8.478167860386e-04 0.0 
8.478167860386e-04 1.619035103890e-02 0.0 
0.0 0.0 0.0 
-8.917928022282e-04 2.981175071383e-03 0.0 
2.981175071383e-03 1.466987545698e-02 0.0 
0.0 0.0 0.0 
-1.683120602544e-03 1.468186171012e-03 0.0 
1.468186171012e-03 1.637714810628e-02 0.0 
0.0 0.0 0.0 
-1.582707006357e-03 1.774708712349e-03 0.0 
1.774708712349e-03 1.626489354874e-02 0.0 
0.0 0.0 0.0 
1.795852523056e-03 2.652527708334e-03 0.0 
2.652527708334e-03 -1.541702383484e-03 0.0 
0.0 0.0 0.0 
5.992148230409e-04 1.090911466453e-04 0.0 
1.090911466453e-04 5.689439701359e-03 0.0 
0.0 0.0 0.0 
-1.599813534810e-03 1.449087833052e-03 0.0 
1.449087833052e-03 1.612040505674e-02 0.0 
0.0 0.0 0.0 
2.177988447896e-03 1.940971084630e-03 0.0 
1.940971084630e-03 3.029149183680e-03 0.0 
0.0 0.0 0.0 
-1.568265021117e-03 2.157821566997e-03 0.0 
2.157821566997e-03 8.941436518177e-03 0.0 
0.0 0.0 0.0 
8.159848881422e-04 2.341763866262e-03 0.0 
2.341763866262e-03 7.375776200306e-03 0.0 
0.0 0.0 0.0 
2.753876153839e-03 1.139804992042e-03 0.0 
1.139804992042e-03 -2.152799895778e-03 0.0 
0.0 0.0 0.0 
6.165846615747e-05 -4.422594370450e-04 0.0 
-4.422594370450e-04 2.379319957035e-03 0.0 
0.0 0.0 0.0 
1.475385719836e-03 2.198086726030e-03 0.0 
2.198086726030e-03 6.089103453785e-03 0.0 
0.0 0.0 0.0 
2.184784647081e-04 -2.754638331885e-05 0.0 
-2.754638331885e-05 1.427524738490e-03 0.0 
0.0 0.0 0.0 
1.355343887493e-03 2.538910974846e-03 0.0 
2.538910974846e-03 5.213711324415e-03 0.0 
0.0 0.0 0.0 
1.748503690948e-03 1.499396021581e-03 0.0 
1.499396021581e-03 4.938698279933e-03 0.0 
0.0 0.0 0.0 
-1.268342070006e-03 1.955067287248e-03 0.0 
1.955067287248e-03 1.640200664123e-02 0.0 
0.0 0.0 0.0 
-1.103277101182e-03 2.280239651513e-03 0.0 
2.280239651513e-03 1.619539388997e-02 0.0 
0.0 0.0 0.0 
1.746435229784e-03 1.476515709009e-03 0.0 
1.476515709009e-03 4.875450900759e-03 0.0 
0.0 0.0 0.0 
-1.497789231693e-03 1.380563091021e-03 0.0 
1.380563091021e-03 1.660608598099e-02 0.0 
0.0 0.0 0.0 
2.400549405096e-03 1.685884910370e-03 0.0 
1.685884910370e-03 1.672005162819e-03 0.0 
0.0 0.0 0.0 
4.011286724825e-04 3.081217613731e-03 0.0 
3.081217613731e-03 9.323624343572e-03 0.0 
0.0 0.0 0.0 
-1.550327014968e-03 2.080422789880e-03 0.0 
2.080422789880e-03 1.035820851061e-02 0.0 
0.0 0.0 0.0 
-2.811181553121e-04 3.296890911163e-03 0.0 
3.296890911163e-03 1.263434466968e-02 0.0 
0.0 0.0 0.0 
-1.684567501146e-03 2.070527001247e-03 0.0 
2.070527001247e-03 1.183445192915e-02 0.0 
0.0 0.0 0.0 
-1.900699185183e-03 2.081352958743e-03 0.0 
2.081352958743e-03 1.261322730664e-02 0.0 
0.0 0.0 0.0 
2.452800405096e-03 1.353265578022e-03 0.0 
1.353265578022e-03 2.282168084669e-03 0.0 
0.0 0.0 0.0 
-2.681546033170e-03 2.120407765261e-03 0.0 
2.120407765261e-03 1.353476122423e-02 0.0 
0.0 0.0 0.0 
1.570394565705e-03 2.368265492595e-03 0.0 
2.368265492595e-03 5.340696906398e-03 0.0 
0.0 0.0 0.0 
1.822908510797e-03 2.192850964677e-03 0.0 
2.192850964677e-03 3.556943598772e-03 0.0 
0.0 0.0 0.0 
2.374836487347e-03 3.492456437127e-04 0.0 
3.492456437127e-04 1.913030553647e-03 0.0 
0.0 0.0 0.0 
2.549142387953e-03 -1.288226249952e-03 0.0 
-1.288226249952e-03 -2.345281307813e-03 0.0 
0.0 0.0 0.0 
2.568147918991e-03 9.926325473342e-04 0.0 
9.926325473342e-04 1.692018651442e-03 0.0 
0.0 0.0 0.0 
-1.068769972946e-03 1.259927149138e-03 0.0 
1.259927149138e-03 1.681697292344e-02 0.0 
0.0 0.0 0.0 
-5.029028464785e-04 3.214788934486e-03 0.0 
3.214788934486e-03 1.373482912060e-02 0.0 
0.0 0.0 0.0 
7.111336391608e-04 -6.155443399630e-06 0.0 
-6.155443399630e-06 5.197516442303e-03 0.0 
0.0 0.0 0.0 
1.206036387601e-03 2.312757620611e-03 0.0 
2.312757620611e-03 6.728255684232e-03 0.0 
0.0 0.0 0.0 
2.046029859684e-03 -4.202290530611e-04 0.0 
-4.202290530611e-04 1.980177272233e-03 0.0 
0.0 0.0 0.0 
-1.356320911485e-03 1.681514802626e-03 0.0 
1.681514802626e-03 1.627530746471e-02 0.0 
0.0 0.0 0.0 
2.528202550739e-03 6.965420952545e-04 0.0 
6.965420952545e-04 1.860266617128e-03 0.0 
0.0 0.0 0.0 
4.589871515031e-04 1.093075641497e-04 0.0 
1.093075641497e-04 5.993587184959e-03 0.0 
0.0 0.0 0.0 
-1.441192350719e-03 1.378460415914e-03 0.0 
1.378460415914e-03 1.638686728715e-02 0.0 
0.0 0.0 0.0 
-1.708408448620e-03 1.893324825538e-03 0.0 
1.893324825538e-03 1.593783835184e-02 0.0 
0.0 0.0 0.0 
2.078565297607e-03 1.079012371011e-03 0.0 
1.079012371011e-03 3.801297867815e-03 0.0 
0.0 0.0 0.0 
2.528320103467e-03 1.328668398866e-03 0.0 
1.328668398866e-03 1.623226550517e-03 0.0 
0.0 0.0 0.0 
3.501930550855e-04 3.179704378358e-03 0.0 
3.179704378358e-03 9.754297919448e-03 0.0 
0.0 0.0 0.0 
-3.494169490579e-04 2.999432459635e-03 0.0 
2.999432459635e-03 1.028576580629e-02 0.0 
0.0 0.0 0.0 
2.008500531560e-03 -2.085816440949e-03 0.0 
-2.085816440949e-03 -2.214582337253e-03 0.0 
0.0 0.0 0.0 
2.821541131569e-03 2.646218351772e-04 0.0 
2.646218351772e-04 -2.013089102037e-03 0.0 
0.0 0.0 0.0 
8.709010115862e-04 2.833617412058e-03 0.0 
2.833617412058e-03 4.049222639499e-03 0.0 
0.0 0.0 0.0 
5.639109882871e-04 2.935828086966e-03 0.0 
2.935828086966e-03 7.303119810715e-03 0.0 
0.0 0.0 0.0 
3.365463992027e-04 1.075310287697e-04 0.0 
1.075310287697e-04 6.288346399267e-03 0.0 
0.0 0.0 0.0 
-1.829953674626e-03 1.573453374946e-03 0.0 
1.573453374946e-03 1.610644393678e-02 0.0 
0.0 0.0 0.0 
2.496153199881e-03 9.369889372036e-04 0.0 
9.369889372036e-04 1.683350372258e-03 0.0 
0.0 0.0 0.0 
4.181675463812e-04 2.955735184117e-03 0.0 
2.955735184117e-03 8.519159158090e-03 0.0 
0.0 0.0 0.0 
1.623879489105e-03 1.362890874719e-03 0.0 
1.362890874719e-03 5.102126170279e-03 0.0 
0.0 0.0 0.0 
-1.347925928627e-03 1.040574834224e-03 0.0 
1.040574834224e-03 1.679586846989e-02 0.0 
0.0 0.0 0.0 
1.561036066862e-04 3.330097908754e-03 0.0 
3.330097908754e-03 1.051811381211e-02 0.0 
0.0 0.0 0.0 
-1.889465356114e-03 1.288713885905e-03 0.0 
1.288713885905e-03 1.565514013070e-02 0.0 
0.0 0.0 0.0 
1.341282731006e-03 8.558249234834e-04 0.0 
8.558249234834e-04 5.194201265856e-03 0.0 
0.0 0.0 0.0 
2.355602384670e-03 7.441854017225e-04 0.0 
7.441854017225e-04 2.407216074296e-03 0.0 
0.0 0.0 0.0 
1.496984104917e-03 1.188419460826e-03 0.0 
1.188419460826e-03 5.118499221147e-03 0.0 
0.0 0.0 0.0 
1.289815038783e-03 2.699176196852e-03 0.0 
2.699176196852e-03 5.190130209277e-03 0.0 
0.0 0.0 0.0 
-1.205077229168e-03 1.576334353267e-03 0.0 
1.576334353267e-03 1.676621000768e-02 0.0 
0.0 0.0 0.0 
-1.202554171098e-05 3.464649746568e-03 0.0 
3.464649746568e-03 1.130934099442e-02 0.0 
0.0 0.0 0.0 
2.255631273227e-03 9.450616411271e-04 0.0 
9.450616411271e-04 3.159932284628e-03 0.0 
0.0 0.0 0.0 
2.901340124698e-03 3.860927261933e-04 0.0 
3.860927261933e-04 -2.868045596105e-03 0.0 
0.0 0.0 0.0 
1.045762339969e-03 2.831561997042e-03 0.0 
2.831561997042e-03 7.628950624044e-03 0.0 
0.0 0.0 0.0 
1.370167513014e-03 2.531192422207e-03 0.0 
2.531192422207e-03 5.657175352730e-03 0.0 
0.0 0.0 0.0 
2.433762311660e-03 1.296951010939e-03 0.0 
1.296951010939e-03 1.732452583686e-03 0.0 
0.0 0.0 0.0 
2.056986733813e-03 1.025257589280e-03 0.0 
1.025257589280e-03 3.690003480295e-03 0.0 
0.0 0.0 0.0 
1.222500250574e-03 4.633535390662e-04 0.0 
4.633535390662e-04 4.883652846986e-03 0.0 
0.0 0.0 0.0 
2.791956653810e-03 -6.103605780789e-04 0.0 
-6.103605780789e-04 -2.705932502101e-03 0.0 
0.0 0.0 0.0 
2.404302981765e-03 8.166436465597e-04 0.0 
8.166436465597e-04 2.514993171750e-03 0.0 
0.0 0.0 0.0 
-9.827730240434e-04 2.823591261365e-03 0.0 
2.823591261365e-03 1.235627345999e-02 0.0 
0.0 0.0 0.0 
2.709236845679e-04 3.721695121125e-05 0.0 
3.721695121125e-05 6.298508129285e-03 0.0 
0.0 0.0 0.0 
-7.033032610791e-04 2.953007707004e-03 0.0 
2.953007707004e-03 1.185512363486e-02 0.0 
0.0 0.0 0.0 
9.589169612583e-04 2.924635954405e-03 0.0 
2.924635954405e-03 7.867857814897e-03 0.0 
0.0 0.0 0.0 
-1.260269694878e-03 2.655725251103e-03 0.0 
2.655725251103e-03 1.286126420558e-02 0.0 
0.0 0.0 0.0 
-1.773817979263e-03 2.175743089854e-03 0.0 
2.175743089854e-03 1.386535573663e-02 0.0 
0.0 0.0 0.0 
-6.960180377991e-05 3.043113195091e-03 0.0 
3.043113195091e-03 9.791724408460e-03 0.0 
0.0 0.0 0.0 
1.411231627560e-03 2.055410867629e-03 0.0 
2.055410867629e-03 6.096824117113e-03 0.0 
0.0 0.0 0.0 
6.317111048111e-04 3.070546228784e-05 0.0 
3.070546228784e-05 5.391483153554e-03 0.0 
0.0 0.0 0.0 
-1.726686824624e-03 1.545405737361e-03 0.0 
1.545405737361e-03 1.580647511648e-02 0.0 
0.0 0.0 0.0 
-9.158081439694e-04 2.206860622047e-03 0.0 
2.206860622047e-03 1.620385773931e-02 0.0 
0.0 0.0 0.0 
-1.529717017760e-03 2.443654306067e-03 0.0 
2.443654306067e-03 1.336426808317e-02 0.0 
0.0 0.0 0.0 
2.625582855316e-03 8.665842057119e-04 0.0 
8.665842057119e-04 3.331190746010e-04 0.0 
0.0 0.0 0.0 
7.666832088522e-04 2.933952565212e-03 0.0 
2.933952565212e-03 8.394129219462e-03 0.0 
0.0 0.0 0.0 
-1.076835364859e-03 1.223808885443e-03 0.0 
1.223808885443e-03 1.699091416159e-02 0.0 
0.0 0.0 0.0 
1.770748931411e-03 2.389191917099e-03 0.0 
2.389191917099e-03 4.019543537916e-03 0.0 
0.0 0.0 0.0 
1.548512928430e-03 2.548394316208e-03 0.0 
2.548394316208e-03 4.825480072004e-03 0.0 
0.0 0.0 0.0 
2.571094245637e-03 8.853455371415e-04 0.0 
8.853455371415e-04 1.018972599708e-03 0.0 
0.0 0.0 0.0 
-1.606958311765e-03 1.882435014326e-03 0.0 
1.882435014326e-03 1.557573673226e-02 0.0 
0.0 0.0 0.0 
1.453196584662e-04 2.906276018987e-03 0.0 
2.906276018987e-03 6.346661706107e-03 0.0 
0.0 0.0 0.0 
1.706072791758e-03 2.376584878395e-03 0.0 
2.376584878395e-03 5.074272821429e-03 0.0 
0.0 0.0 0.0 
1.607235144212e-04 2.837217691940e-03 0.0 
2.837217691940e-03 6.355981447871e-03 0.0 
0.0 0.0 0.0 
1.665620704903e-03 1.940676524201e-03 0.0 
1.940676524201e-03 5.450291378663e-03 0.0 
0.0 0.0 0.0 
5.597083180171e-04 3.080158771105e-03 0.0 
3.080158771105e-03 8.909696357946e-03 0.0 
0.0 0.0 0.0 
2.564834121900e-03 5.028101753172e-04 0.0 
5.028101753172e-04 1.078727426676e-03 0.0 
0.0 0.0 0.0 
2.318456765754e-03 -7.196835759097e-04 0.0 
-7.196835759097e-04 -3.975342967380e-03 0.0 
0.0 0.0 0.0 
-8.463261806017e-04 2.603214142098e-03 0.0 
2.603214142098e-03 1.553517846570e-02 0.0 
0.0 0.0 0.0 
-2.193839663334e-05 2.898057524937e-03 0.0 
2.898057524937e-03 7.187816719312e-03 0.0 
0.0 0.0 0.0 
2.192139387408e-03 -9.015758561048e-05 0.0 
-9.015758561048e-05 2.143056260868e-03 0.0 
0.0 0.0 0.0 
9.000171375058e-04 2.961165704802e-03 0.0 
2.961165704802e-03 8.163865783617e-03 0.0 
0.0 0.0 0.0 
-1.937923728507e-03 1.702467262669e-03 0.0 
1.702467262669e-03 1.578855217048e-02 0.0 
0.0 0.0 0.0 
7.876055393918e-04 2.838230981715e-05 0.0 
2.838230981715e-05 5.061490300391e-03 0.0 
0.0 0.0 0.0 
2.053991374867e-03 1.961813820349e-03 0.0 
1.961813820349e-03 2.731655782103e-03 0.0 
0.0 0.0 0.0 
2.022563001630e-03 -3.414255030781e-04 0.0 
-3.414255030781e-04 -4.281316392854e-03 0.0 
0.0 0.0 0.0 
1.858206993821e-04 2.221972686232e-05 0.0 
2.221972686232e-05 6.606580200337e-03 0.0 
0.0 0.0 0.0 
8.441210571404e-04 2.879574250623e-03 0.0 
2.879574250623e-03 6.852335198968e-03 0.0 
0.0 0.0 0.0 
1.627427354481e-03 2.076295994871e-03 0.0 
2.076295994871e-03 5.538424991137e-03 0.0 
0.0 0.0 0.0 
5.428264952865e-04 3.243963367472e-03 0.0 
3.243963367472e-03 9.435326635097e-03 0.0 
0.0 0.0 0.0 
8.804038390073e-04 -8.914242350160e-05 0.0 
-8.914242350160e-05 -4.678802315160e-03 0.0 
0.0 0.0 0.0 
9.444553324847e-04 1.232129183578e-04 0.0 
1.232129183578e-04 5.045882035539e-03 0.0 
0.0 0.0 0.0 
1.717139853960e-03 2.335636848401e-03 0.0 
2.335636848401e-03 1.248857250335e-03 0.0 
0.0 0.0 0.0 
-2.142380690743e-03 1.485878271153e-03 0.0 
1.485878271153e-03 1.563367035441e-02 0.0 
0.0 0.0 0.0 
6.789897159276e-04 -5.056957602352e-04 0.0 
-5.056957602352e-04 3.853941368776e-03 0.0 
0.0 0.0 0.0 
2.650059653453e-03 9.384724262601e-04 0.0 
9.384724262601e-04 1.005931991453e-03 0.0 
0.0 0.0 0.0 
3.734507052007e-04 3.947132130300e-05 0.0 
3.947132130300e-05 6.004864658377e-03 0.0 
0.0 0.0 0.0 
1.538982636526e-03 2.540059979216e-03 0.0 
2.540059979216e-03 5.314730215511e-03 0.0 
0.0 0.0 0.0 
2.709963445721e-03 9.151630271749e-04 0.0 
9.151630271749e-04 2.953818264617e-04 0.0 
0.0 0.0 0.0 
6.497820321667e-04 2.875184817382e-03 0.0 
2.875184817382e-03 7.692740954036e-03 0.0 
0.0 0.0 0.0 
1.717453439147e-03 -1.858807681688e-03 0.0 
-1.858807681688e-03 -4.006573285658e-03 0.0 
0.0 0.0 0.0 
6.318155495066e-04 2.965278973606e-03 0.0 
2.965278973606e-03 8.521314636011e-03 0.0 
0.0 0.0 0.0 
1.588130169962e-03 1.769066771465e-03 0.0 
1.769066771465e-03 5.476416310872e-03 0.0 
0.0 0.0 0.0 
-1.546731778104e-04 3.467301973273e-03 0.0 
3.467301973273e-03 1.199884646233e-02 0.0 
0.0 0.0 0.0 
5.679741008502e-04 3.047121696947e-03 0.0 
3.047121696947e-03 8.968503699376e-03 0.0 
0.0 0.0 0.0 
2.767661862686e-03 2.762510727407e-04 0.0 
2.762510727407e-04 -1.151818722278e-03 0.0 
0.0 0.0 0.0 
5.782509015979e-04 -7.727086835046e-05 0.0 
-7.727086835046e-05 5.209529789982e-03 0.0 
0.0 0.0 0.0 
-7.600178967568e-04 1.460092603701e-03 0.0 
1.460092603701e-03 1.698118064435e-02 0.0 
0.0 0.0 0.0 
5.542762099326e-04 2.614751470178e-03 0.0 
2.614751470178e-03 8.021599014993e-03 0.0 
0.0 0.0 0.0 
1.401720088698e-03 2.053314191381e-03 0.0 
2.053314191381e-03 6.111127613198e-03 0.0 
0.0 0.0 0.0 
2.254771739958e-03 1.639901681499e-03 0.0 
1.639901681499e-03 2.487537197630e-03 0.0 
0.0 0.0 0.0 
6.586945310429e-04 2.909023011180e-03 0.0 
2.909023011180e-03 8.097998949021e-03 0.0 
0.0 0.0 0.0 
2.223788004996e-04 4.066497082327e-05 0.0 
4.066497082327e-05 6.343855354257e-03 0.0 
0.0 0.0 0.0 
1.350260288422e-04 -1.772561442796e-04 0.0 
-1.772561442796e-04 4.174994661756e-03 0.0 
0.0 0.0 0.0 
8.219972607069e-04 2.982467509278e-03 0.0 
2.982467509278e-03 8.156435523453e-03 0.0 
0.0 0.0 0.0 
-1.780678709837e-03 1.197184232501e-03 0.0 
1.197184232501e-03 1.595000958731e-02 0.0 
0.0 0.0 0.0 
4.945895814450e-04 3.698745954556e-05 0.0 
3.698745954556e-05 5.701122255740e-03 0.0 
0.0 0.0 0.0 
8.328676867642e-04 1.873495729868e-04 0.0 
1.873495729868e-04 5.264631792392e-03 0.0 
0.0 0.0 0.0 
-1.317837302930e-03 -8.325437605625e-07 0.0 
-8.325437605625e-07 1.457681414491e-02 0.0 
0.0 0.0 0.0 
-1.310331326866e-03 1.565904320799e-05 0.0 
1.565904320799e-05 1.457049996595e-02 0.0 
0.0 0.0 0.0 
-1.168160165248e-03 2.839353086854e-03 0.0 
2.839353086854e-03 1.306362436975e-02 0.0 
0.0 0.0 0.0 
8.626380625554e-04 2.925098664206e-03 0.0 
2.925098664206e-03 7.701828253300e-03 0.0 
0.0 0.0 0.0 
5.577427227157e-04 -4.151040424691e-04 0.0 
-4.151040424691e-04 4.175923454854e-03 0.0 
0.0 0.0 0.0 
-2.766032587106e-04 3.056204529777e-03 0.0 
3.056204529777e-03 1.059788587721e-02 0.0 
0.0 0.0 0.0 
1.759124856377e-03 2.366644668101e-03 0.0 
2.366644668101e-03 4.535093387692e-03 0.0 
0.0 0.0 0.0 
1.117428021273e-03 1.339990464506e-03 0.0 
1.339990464506e-03 5.938394700289e-03 0.0 
0.0 0.0 0.0 
2.201862143510e-03 1.969482844661e-03 0.0 
1.969482844661e-03 2.438567676210e-03 0.0 
0.0 0.0 0.0 
-4.160294140982e-04 2.408882306468e-03 0.0 
2.408882306468e-03 1.664384140299e-02 0.0 
0.0 0.0 0.0 
-1.943568425836e-03 2.050925912889e-03 0.0 
2.050925912889e-03 1.372963310494e-02 0.0 
0.0 0.0 0.0 
1.602229072512e-03 2.362280096054e-03 0.0 
2.362280096054e-03 4.853580642329e-03 0.0 
0.0 0.0 0.0 
8.629529565787e-04 -4.525917279663e-04 0.0 
-4.525917279663e-04 3.844181539827e-03 0.0 
0.0 0.0 0.0 
2.673039237652e-03 9.787227642484e-04 0.0 
9.787227642484e-04 -1.128387704908e-03 0.0 
0.0 0.0 0.0 
7.816008068400e-04 -7.779015829361e-04 0.0 
-7.779015829361e-04 3.108486977963e-03 0.0 
0.0 0.0 0.0 
8.711079595103e-04 2.893155236787e-03 0.0 
2.893155236787e-03 7.266433722894e-03 0.0 
0.0 0.0 0.0 
3.497095883045e-04 2.986095544410e-03 0.0 
2.986095544410e-03 8.139547691892e-03 0.0 
0.0 0.0 0.0 
-1.818105454676e-03 1.670389223031e-03 0.0 
1.670389223031e-03 1.543829584621e-02 0.0 
0.0 0.0 0.0 
-2.057630054009e-06 3.103401862516e-03 0.0 
3.103401862516e-03 1.013344446295e-02 0.0 
0.0 0.0 0.0 
-2.208981807277e-04 3.125570613698e-03 0.0 
3.125570613698e-03 1.091607076841e-02 0.0 
0.0 0.0 0.0 
3.634412479752e-04 -9.668736537046e-05 0.0 
-9.668736537046e-05 9.288019407476e-04 0.0 
0.0 0.0 0.0 
7.914153610307e-04 -7.793067461072e-04 0.0 
-7.793067461072e-04 3.072144170720e-03 0.0 
0.0 0.0 0.0 
-1.358008939079e-05 2.855016175557e-03 0.0 
2.855016175557e-03 7.192807226571e-03 0.0 
0.0 0.0 0.0 
-5.372473015687e-04 2.981877962190e-03 0.0 
2.981877962190e-03 1.108354939049e-02 0.0 
0.0 0.0 0.0 
-7.315438060630e-04 3.004918841545e-03 0.0 
3.004918841545e-03 1.184508761383e-02 0.0 
0.0 0.0 0.0 
1.304877136310e-03 1.892430128241e-03 0.0 
1.892430128241e-03 6.134094719053e-03 0.0 
0.0 0.0 0.0 
1.568105622107e-04 -1.693629248161e-05 0.0 
-1.693629248161e-05 1.625328907642e-03 0.0 
0.0 0.0 0.0 
2.522920962926e-03 -1.555844114451e-03 0.0 
-1.555844114451e-03 -3.064039264541e-03 0.0 
0.0 0.0 0.0 
1.066709742491e-03 2.797199021445e-03 0.0 
2.797199021445e-03 6.022504816115e-03 0.0 
0.0 0.0 0.0 
6.039427913855e-04 -8.100692891347e-04 0.0 
-8.100692891347e-04 3.077847766287e-03 0.0 
0.0 0.0 0.0 
-2.008588043956e-03 2.224091690622e-03 0.0 
2.224091690622e-03 1.258499169402e-02 0.0 
0.0 0.0 0.0 
-2.239325387315e-03 2.224920681578e-03 0.0 
2.224920681578e-03 1.351811621644e-02 0.0 
0.0 0.0 0.0 
-1.997715621187e-03 1.857562300415e-03 0.0 
1.857562300415e-03 1.541696301592e-02 0.0 
0.0 0.0 0.0 
1.366456796282e-03 2.664104902293e-03 0.0 
2.664104902293e-03 -6.280275492068e-04 0.0 
0.0 0.0 0.0 
7.079319359755e-04 -5.152386303402e-04 0.0 
-5.152386303402e-04 3.768107987209e-03 0.0 
0.0 0.0 0.0 
1.572578292686e-03 9.012469135896e-04 0.0 
9.012469135896e-04 4.667015018008e-03 0.0 
0.0 0.0 0.0 
2.842924087233e-03 -5.259934062660e-04 0.0 
-5.259934062660e-04 -3.288708486696e-03 0.0 
0.0 0.0 0.0 
2.006256380445e-04 3.381760575537e-03 0.0 
3.381760575537e-03 1.010656538196e-02 0.0 
0.0 0.0 0.0 
-1.404593467755e-03 1.664528018437e-03 0.0 
1.664528018437e-03 1.653790988580e-02 0.0 
0.0 0.0 0.0 
4.200749610221e-04 -5.557328225954e-04 0.0 
-5.557328225954e-04 3.695343865475e-03 0.0 
0.0 0.0 0.0 
5.618186106815e-04 1.254195962070e-05 0.0 
1.254195962070e-05 5.509147768033e-03 0.0 
0.0 0.0 0.0 
2.902955768243e-04 -1.065477552452e-04 0.0 
-1.065477552452e-04 6.253604144848e-04 0.0 
0.0 0.0 0.0 
1.604403522058e-03 6.075387760846e-04 0.0 
6.075387760846e-04 4.280886985362e-03 0.0 
0.0 0.0 0.0 
8.838484761262e-04 2.780216642033e-03 0.0 
2.780216642033e-03 6.866646224333e-03 0.0 
0.0 0.0 0.0 
3.528906012353e-04 -8.221636239760e-05 0.0 
-8.221636239760e-05 5.971473248121e-04 0.0 
0.0 0.0 0.0 
-1.177914765348e-03 1.600431786745e-03 0.0 
1.600431786745e-03 1.654316763772e-02 0.0 
0.0 0.0 0.0 
2.758633629807e-03 -6.930738810429e-04 0.0 
-6.930738810429e-04 -3.592176558021e-03 0.0 
0.0 0.0 0.0 
-5.488217220249e-04 3.009205201574e-03 0.0 
3.009205201574e-03 1.107944193114e-02 0.0 
0.0 0.0 0.0 
3.743206211313e-04 2.925284368725e-03 0.0 
2.925284368725e-03 8.147627372436e-03 0.0 
0.0 0.0 0.0 
2.136385564928e-03 -2.374924303777e-04 0.0 
-2.374924303777e-04 1.830284132198e-03 0.0 
0.0 0.0 0.0 
1.683099728068e-03 -1.976564851886e-05 0.0 
-1.976564851886e-05 3.454665222433e-03 0.0 
0.0 0.0 0.0 
-1.066579256644e-03 1.897317674085e-03 0.0 
1.897317674085e-03 1.640536902706e-02 0.0 
0.0 0.0 0.0 
1.557211151022e-03 1.850312812867e-04 0.0 
1.850312812867e-04 4.009675452794e-03 0.0 
0.0 0.0 0.0 
1.322408571460e-03 2.680058777165e-03 0.0 
2.680058777165e-03 5.634898098017e-03 0.0 
0.0 0.0 0.0 
1.119265316469e-03 2.668885187006e-03 0.0 
2.668885187006e-03 6.041124648249e-03 0.0 
0.0 0.0 0.0 
-1.696259396154e-03 2.877285746066e-03 0.0 
2.877285746066e-03 9.715294068187e-04 0.0 
0.0 0.0 0.0 
2.604786099656e-03 -4.728716236712e-04 0.0 
-4.728716236712e-04 -3.849255754603e-03 0.0 
0.0 0.0 0.0 
6.959942997871e-04 3.008842688588e-03 0.0 
3.008842688588e-03 8.634646329339e-03 0.0 
0.0 0.0 0.0 
-1.960329147687e-03 2.214577379690e-03 0.0 
2.214577379690e-03 1.446048496299e-02 0.0 
0.0 0.0 0.0 
8.371346051372e-04 3.033901704443e-03 0.0 
3.033901704443e-03 8.375409475645e-03 0.0 
0.0 0.0 0.0 
1.482777251664e-03 2.703421872342e-03 0.0 
2.703421872342e-03 1.194498971942e-03 0.0 
0.0 0.0 0.0 
-9.771050473556e-04 2.804329646028e-03 0.0 
2.804329646028e-03 1.393408552126e-02 0.0 
0.0 0.0 0.0 
4.726437737161e-04 3.173753455474e-03 0.0 
3.173753455474e-03 9.440534218851e-03 0.0 
0.0 0.0 0.0 
-2.049176602688e-03 2.160080742181e-03 0.0 
2.160080742181e-03 1.286201673398e-02 0.0 
0.0 0.0 0.0 
7.375838671488e-04 3.056358682297e-03 0.0 
3.056358682297e-03 8.626050089501e-03 0.0 
0.0 0.0 0.0 
4.518282527428e-04 -5.282688099401e-05 0.0 
-5.282688099401e-05 5.520175623071e-03 0.0 
0.0 0.0 0.0 
1.088045445460e-03 2.810078564391e-03 0.0 
2.810078564391e-03 6.898345669119e-03 0.0 
0.0 0.0 0.0 
8.454880639170e-04 -6.168638387414e-04 0.0 
-6.168638387414e-04 3.444139696755e-03 0.0 
0.0 0.0 0.0 
8.142293089037e-04 -6.012576646766e-04 0.0 
-6.012576646766e-04 3.512843397119e-03 0.0 
0.0 0.0 0.0 
-1.057826014877e-03 2.696638184115e-03 0.0 
2.696638184115e-03 1.551168567198e-02 0.0 
0.0 0.0 0.0 
1.771746096439e-03 -2.385840590524e-04 0.0 
-2.385840590524e-04 2.918894707986e-03 0.0 
0.0 0.0 0.0 
6.229004889720e-04 2.952378378442e-03 0.0 
2.952378378442e-03 7.682323141728e-03 0.0 
0.0 0.0 0.0 
2.117969652482e-03 1.945294989874e-03 0.0 
1.945294989874e-03 3.627098416051e-03 0.0 
0.0 0.0 0.0 
1.385485348360e-03 3.711210088162e-04 0.0 
3.711210088162e-04 4.585368147763e-03 0.0 
0.0 0.0 0.0 
1.830531331723e-03 2.162576875824e-03 0.0 
2.162576875824e-03 4.052282119468e-03 0.0 
0.0 0.0 0.0 
2.828908662901e-03 3.629145830137e-04 0.0 
3.629145830137e-04 -1.029473412342e-03 0.0 
0.0 0.0 0.0 
2.293210047972e-03 6.070151125530e-04 0.0 
6.070151125530e-04 2.736992396633e-03 0.0 
0.0 0.0 0.0 
2.747472758451e-03 9.293335394054e-04 0.0 
9.293335394054e-04 -4.557786985058e-04 0.0 
0.0 0.0 0.0 
-2.610335710246e-04 3.061204873318e-03 0.0 
3.061204873318e-03 1.059709373790e-02 0.0 
0.0 0.0 0.0 
2.709086744581e-03 3.252688808578e-04 0.0 
3.252688808578e-04 -3.617148437276e-04 0.0 
0.0 0.0 0.0 
-6.945801440106e-05 3.028605792088e-03 0.0 
3.028605792088e-03 9.793693759893e-03 0.0 
0.0 0.0 0.0 
1.327919877007e-03 1.904197890804e-03 0.0 
1.904197890804e-03 6.120582227378e-03 0.0 
0.0 0.0 0.0 
1.592303961748e-03 1.777471201623e-03 0.0 
1.777471201623e-03 5.492091517318e-03 0.0 
0.0 0.0 0.0 
1.989967578043e-03 2.200748498780e-03 0.0 
2.200748498780e-03 3.223751491183e-03 0.0 
0.0 0.0 0.0 
-1.855511772338e-03 1.823967147507e-03 0.0 
1.823967147507e-03 1.498861059775e-02 0.0 
0.0 0.0 0.0 
4.300302090126e-04 2.792114610217e-05 0.0 
2.792114610217e-05 5.806782612645e-03 0.0 
0.0 0.0 0.0 
3.430596971752e-04 -3.371851827166e-05 0.0 
-3.371851827166e-05 5.817244184072e-03 0.0 
0.0 0.0 0.0 
7.037991159160e-04 2.834784644632e-03 0.0 
2.834784644632e-03 -7.209698879432e-04 0.0 
0.0 0.0 0.0 
1.957725375343e-04 3.062717991364e-03 0.0 
3.062717991364e-03 9.329262830580e-03 0.0 
0.0 0.0 0.0 
2.284574806322e-04 1.060706789793e-04 0.0 
1.060706789793e-04 6.586965889044e-03 0.0 
0.0 0.0 0.0 
-8.696882805744e-04 2.647418059258e-03 0.0 
2.647418059258e-03 7.386217029332e-03 0.0 
0.0 0.0 0.0 
4.464223384226e-04 -4.447491019979e-04 0.0 
-4.447491019979e-04 4.074621285788e-03 0.0 
0.0 0.0 0.0 
-1.921896453352e-03 2.908302123805e-03 0.0 
2.908302123805e-03 1.700106871118e-03 0.0 
0.0 0.0 0.0 
3.180072372617e-04 3.880368774772e-05 0.0 
3.880368774772e-05 6.087750211402e-03 0.0 
0.0 0.0 0.0 
2.761870556437e-03 9.975974029582e-04 0.0 
9.975974029582e-04 -1.263121403190e-03 0.0 
0.0 0.0 0.0 
1.486161706759e-04 -1.083406266315e-04 0.0 
-1.083406266315e-04 4.339572813905e-03 0.0 
0.0 0.0 0.0 
1.693652139005e-03 2.265591192002e-03 0.0 
2.265591192002e-03 5.515585467458e-03 0.0 
0.0 0.0 0.0 
-2.012577842745e-03 2.017361523696e-03 0.0 
2.017361523696e-03 1.496415914630e-02 0.0 
0.0 0.0 0.0 
-1.870313462000e-03 1.994388043855e-03 0.0 
1.994388043855e-03 1.448877694540e-02 0.0 
0.0 0.0 0.0 
1.096104142997e-03 2.795020502841e-03 0.0 
2.795020502841e-03 6.450195042034e-03 0.0 
0.0 0.0 0.0 
-1.811286813178e-03 2.186925207473e-03 0.0 
2.186925207473e-03 1.105295559172e-02 0.0 
0.0 0.0 0.0 
-1.867379290517e-03 2.211994391196e-03 0.0 
2.211994391196e-03 1.181324333808e-02 0.0 
0.0 0.0 0.0 
2.531845159088e-04 -2.052817974012e-05 0.0 
-2.052817974012e-05 6.097925899618e-03 0.0 
0.0 0.0 0.0 
1.539032511578e-03 6.101563672082e-05 0.0 
6.101563672082e-05 3.685866901824e-03 0.0 
0.0 0.0 0.0 
2.049886679768e-03 -9.866221745890e-06 0.0 
-9.866221745890e-06 2.441219821312e-03 0.0 
0.0 0.0 0.0 
1.782800827220e-03 7.933299171184e-04 0.0 
7.933299171184e-04 4.257043545460e-03 0.0 
0.0 0.0 0.0 
2.424656409310e-03 4.503665348946e-04 0.0 
4.503665348946e-04 2.102788235731e-03 0.0 
0.0 0.0 0.0 
2.661682041206e-03 8.914490651936e-04 0.0 
8.914490651936e-04 -3.823946206045e-04 0.0 
0.0 0.0 0.0 
-1.558563363949e-03 2.039169604815e-03 0.0 
2.039169604815e-03 1.108341829125e-02 0.0 
0.0 0.0 0.0 
-2.119258508487e-03 2.081525817667e-03 0.0 
2.081525817667e-03 1.432281247273e-02 0.0 
0.0 0.0 0.0 
-1.312168133620e-03 5.616959529626e-06 0.0 
5.616959529626e-06 1.458255703792e-02 0.0 
0.0 0.0 0.0 
1.502498413291e-03 1.618777985149e-03 0.0 
1.618777985149e-03 5.515020230473e-03 0.0 
0.0 0.0 0.0 
2.049927400773e-03 1.924829095863e-03 0.0 
1.924829095863e-03 3.263423407147e-03 0.0 
0.0 0.0 0.0 
9.229243632902e-04 2.439545962167e-03 0.0 
2.439545962167e-03 7.355426500714e-03 0.0 
0.0 0.0 0.0 
1.374049882050e-04 1.113324288330e-05 0.0 
1.113324288330e-05 6.189202973107e-03 0.0 
0.0 0.0 0.0 
2.254617223597e-03 5.191855381916e-04 0.0 
5.191855381916e-04 2.562789821645e-03 0.0 
0.0 0.0 0.0 
1.741857662887e-04 8.419948955072e-05 0.0 
8.419948955072e-05 6.815161824584e-03 0.0 
0.0 0.0 0.0 
2.622912109572e-03 -1.418359627933e-04 0.0 
-1.418359627933e-04 -1.546632301775e-04 0.0 
0.0 0.0 0.0 
9.958584258360e-04 2.567174133988e-03 0.0 
2.567174133988e-03 7.369177098413e-03 0.0 
0.0 0.0 0.0 
1.133098056522e-03 2.674020543973e-03 0.0 
2.674020543973e-03 6.468191888778e-03 0.0 
0.0 0.0 0.0 
1.265206382737e-03 2.702089825292e-03 0.0 
2.702089825292e-03 6.583303787010e-03 0.0 
0.0 0.0 0.0 
1.137952716057e-03 9.722527829052e-04 0.0 
9.722527829052e-04 5.579651761266e-03 0.0 
0.0 0.0 0.0 
7.198539985576e-04 -1.283032321812e-03 0.0 
-1.283032321812e-03 2.023252751310e-03 0.0 
0.0 0.0 0.0 
4.056722405368e-04 3.018140341448e-03 0.0 
3.018140341448e-03 8.512083005495e-03 0.0 
0.0 0.0 0.0 
2.229412732127e-03 1.416361415746e-04 0.0 
1.416361415746e-04 2.150948055797e-03 0.0 
0.0 0.0 0.0 
1.503821411430e-04 2.984190278285e-03 0.0 
2.984190278285e-03 8.973435925350e-03 0.0 
0.0 0.0 0.0 
1.438279336268e-03 2.493156584508e-03 0.0 
2.493156584508e-03 2.207943381581e-03 0.0 
0.0 0.0 0.0 
1.407956695815e-03 2.601531091054e-03 0.0 
2.601531091054e-03 6.357756273305e-03 0.0 
0.0 0.0 0.0 
2.380241958932e-03 6.955369917246e-05 0.0 
6.955369917246e-05 1.779649690228e-03 0.0 
0.0 0.0 0.0 
7.160180537764e-04 -3.718104039374e-04 0.0 
-3.718104039374e-04 4.167650100135e-03 0.0 
0.0 0.0 0.0 
1.357586571566e-04 3.018369326348e-03 0.0 
3.018369326348e-03 8.968934805903e-03 0.0 
0.0 0.0 0.0 
-1.068354048696e-03 3.431634234267e-03 0.0 
3.431634234267e-03 -4.785488354403e-04 0.0 
0.0 0.0 0.0 
2.021029523163e-03 1.977545194559e-03 0.0 
1.977545194559e-03 4.229808899337e-03 0.0 
0.0 0.0 0.0 
-1.174451634722e-03 3.122420507764e-03 0.0 
3.122420507764e-03 1.536947965112e-03 0.0 
0.0 0.0 0.0 
1.827319426950e-05 -3.434370562237e-04 0.0 
-3.434370562237e-04 1.127687672503e-03 0.0 
0.0 0.0 0.0 
5.845356250636e-04 -4.188757825180e-04 0.0 
-4.188757825180e-04 4.069031003591e-03 0.0 
0.0 0.0 0.0 
1.864603046631e-04 3.180019215919e-03 0.0 
3.180019215919e-03 1.011091426961e-02 0.0 
0.0 0.0 0.0 
-1.639596084696e-03 2.302693244088e-03 0.0 
2.302693244088e-03 1.403167301093e-02 0.0 
0.0 0.0 0.0 
-1.758697353272e-03 2.205551945517e-03 0.0 
2.205551945517e-03 9.611402463551e-03 0.0 
0.0 0.0 0.0 
0.0 2.432213747249e-03 0.0 
2.432213747249e-03 1.650965899335e-02 0.0 
0.0 0.0 0.0 
-1.774373682688e-03 2.880745345390e-03 0.0 
2.880745345390e-03 3.036921032860e-04 0.0 
0.0 0.0 0.0 
-1.749032009395e-03 2.197237387168e-03 0.0 
2.197237387168e-03 1.034021780137e-02 0.0 
0.0 0.0 0.0 
2.089516181391e-03 1.154282355007e-04 0.0 
1.154282355007e-04 2.724005207299e-03 0.0 
0.0 0.0 0.0 
3.435180722806e-04 -4.444378482137e-04 0.0 
-4.444378482137e-04 3.975435821804e-03 0.0 
0.0 0.0 0.0 
-1.329126249468e-03 2.607317484832e-03 0.0 
2.607317484832e-03 1.058913634717e-02 0.0 
0.0 0.0 0.0 
2.324960278867e-03 -7.849118572461e-04 0.0 
-7.849118572461e-04 3.959039041179e-04 0.0 
0.0 0.0 0.0 
1.644550965706e-03 -1.622747166747e-04 0.0 
-1.622747166747e-04 3.113792932014e-03 0.0 
0.0 0.0 0.0 
8.945960254716e-04 2.800106074354e-03 0.0 
2.800106074354e-03 7.280241260232e-03 0.0 
0.0 0.0 0.0 
1.885606258432e-03 2.035649822590e-03 0.0 
2.035649822590e-03 4.842156654249e-03 0.0 
0.0 0.0 0.0 
-1.945734429618e-04 3.267657149841e-03 0.0 
3.267657149841e-03 1.197282330878e-02 0.0 
0.0 0.0 0.0 
1.423427909791e-03 2.910337081109e-03 0.0 
2.910337081109e-03 -1.984700547917e-03 0.0 
0.0 0.0 0.0 
5.571298937321e-04 -5.408384419639e-04 0.0 
-5.408384419639e-04 3.692221582012e-03 0.0 
0.0 0.0 0.0 
3.731925670953e-04 -3.347250746475e-04 0.0 
-3.347250746475e-04 4.236914219868e-03 0.0 
0.0 0.0 0.0 
1.339915451872e-04 -1.182205978674e-03 0.0 
-1.182205978674e-03 1.900035245801e-03 0.0 
0.0 0.0 0.0 
-2.065602535517e-03 1.916469933189e-03 0.0 
1.916469933189e-03 1.354781712028e-02 0.0 
0.0 0.0 0.0 
-1.704056152832e-03 2.461210032922e-03 0.0 
2.461210032922e-03 1.400976592549e-02 0.0 
0.0 0.0 0.0 
1.304235924042e-04 -3.897919379419e-05 0.0 
-3.897919379419e-05 5.584230227232e-03 0.0 
0.0 0.0 0.0 
4.617197573413e-04 -1.005302719555e-04 0.0 
-1.005302719555e-04 5.443524490631e-04 0.0 
0.0 0.0 0.0 
9.511627528913e-05 -6.545551868250e-04 0.0 
-6.545551868250e-04 -4.524632919933e-03 0.0 
0.0 0.0 0.0 
-1.370747321155e-04 -1.038132441877e-03 0.0 
-1.038132441877e-03 1.470264158305e-03 0.0 
0.0 0.0 0.0 
2.787633040826e-04 -3.440962261070e-04 0.0 
-3.440962261070e-04 4.239075795163e-03 0.0 
0.0 0.0 0.0 
2.556471168782e-03 2.149952348499e-05 0.0 
2.149952348499e-05 5.677594995734e-04 0.0 
0.0 0.0 0.0 
2.234424001548e-03 -1.004164141269e-03 0.0 
-1.004164141269e-03 -5.897624052476e-05 0.0 
0.0 0.0 0.0 
2.678786933238e-03 -3.045590917075e-04 0.0 
-3.045590917075e-04 -9.288347133291e-04 0.0 
0.0 0.0 0.0 
4.757462395941e-04 -3.290987979069e-04 0.0 
-3.290987979069e-04 4.353581134788e-03 0.0 
0.0 0.0 0.0 
-1.106280571635e-03 2.745225454196e-03 0.0 
2.745225454196e-03 1.308137820000e-02 0.0 
0.0 0.0 0.0 
3.006230549749e-04 -2.459797337728e-04 0.0 
-2.459797337728e-04 4.483783984539e-03 0.0 
0.0 0.0 0.0 
2.710758147289e-03 4.924179090393e-04 0.0 
4.924179090393e-04 4.897803196351e-04 0.0 
0.0 0.0 0.0 
1.881120534755e-04 3.026354475038e-03 0.0 
3.026354475038e-03 9.334027455899e-03 0.0 
0.0 0.0 0.0 
-1.747602861717e-03 3.607367397611e-04 0.0 
3.607367397611e-04 1.534816177019e-02 0.0 
0.0 0.0 0.0 
1.501405601846e-03 2.342979692465e-03 0.0 
2.342979692465e-03 6.138004697178e-03 0.0 
0.0 0.0 0.0 
2.257452314882e-04 -2.549697730370e-04 0.0 
-2.549697730370e-04 4.485810648302e-03 0.0 
0.0 0.0 0.0 
3.607955437033e-04 -3.507578875240e-04 0.0 
-3.507578875240e-04 4.358259135707e-03 0.0 
0.0 0.0 0.0 
-1.758260075476e-03 2.239462644089e-03 0.0 
2.239462644089e-03 8.205792071614e-03 0.0 
0.0 0.0 0.0 
2.398811099942e-03 -2.718890763502e-04 0.0 
-2.718890763502e-04 8.594646007458e-04 0.0 
0.0 0.0 0.0 
2.403742821095e-04 -1.673749158122e-04 0.0 
-1.673749158122e-04 4.715523383862e-03 0.0 
0.0 0.0 0.0 
-1.156159951190e-03 5.870383745398e-05 0.0 
5.870383745398e-05 1.602181914617e-02 0.0 
0.0 0.0 0.0 
-1.232795856609e-03 4.667212678032e-05 0.0 
4.667212678032e-05 1.567577395008e-02 0.0 
0.0 0.0 0.0 
-1.748853164516e-03 2.238282121077e-03 0.0 
2.238282121077e-03 8.927889012661e-03 0.0 
0.0 0.0 0.0 
3.818400145599e-04 -2.469750550619e-04 0.0 
-2.469750550619e-04 4.621465418075e-03 0.0 
0.0 0.0 0.0 
1.626836827691e-03 -1.507499001405e-03 0.0 
-1.507499001405e-03 4.600461962267e-04 0.0 
0.0 0.0 0.0 
-5.627076446013e-04 3.273265368200e-03 0.0 
3.273265368200e-03 1.486481041300e-03 0.0 
0.0 0.0 0.0 
9.185951775530e-04 2.449029336401e-03 0.0 
2.449029336401e-03 7.396855676010e-03 0.0 
0.0 0.0 0.0 
-4.027817827355e-04 -1.347505921668e-03 0.0 
-1.347505921668e-03 1.317822778619e-03 0.0 
0.0 0.0 0.0 
1.751351742478e-03 -1.243070157830e-03 0.0 
-1.243070157830e-03 9.759616972285e-04 0.0 
0.0 0.0 0.0 
1.917259100175e-03 1.948315133668e-03 0.0 
1.948315133668e-03 4.371119806817e-03 0.0 
0.0 0.0 0.0 
-1.525179827320e-03 2.086655894656e-03 0.0 
2.086655894656e-03 9.642221164828e-03 0.0 
0.0 0.0 0.0 
1.842810499282e-04 -1.776755069558e-04 0.0 
-1.776755069558e-04 4.718952221226e-03 0.0 
0.0 0.0 0.0 
7.657928928828e-05 -6.063565566326e-05 0.0 
-6.063565566326e-05 2.241700603050e-03 0.0 
0.0 0.0 0.0 
-2.265279397738e-03 1.864030979408e-03 0.0 
1.864030979408e-03 1.428388126132e-02 0.0 
0.0 0.0 0.0 
2.886353845917e-04 -2.673272123652e-04 0.0 
-2.673272123652e-04 4.625731602097e-03 0.0 
0.0 0.0 0.0 
1.928204783406e-03 -3.459058859181e-04 0.0 
-3.459058859181e-04 2.187887256345e-03 0.0 
0.0 0.0 0.0 
5.454470250608e-04 -5.479451595514e-04 0.0 
-5.479451595514e-04 3.774442093918e-03 0.0 
0.0 0.0 0.0 
-6.478727453951e-05 2.606973681759e-03 0.0 
2.606973681759e-03 -2.153820144985e-03 0.0 
0.0 0.0 0.0 
-7.885144692248e-04 6.433054796262e-05 0.0 
6.433054796262e-05 1.697045357230e-02 0.0 
0.0 0.0 0.0 
1.990616001154e-03 -8.632362278797e-04 0.0 
-8.632362278797e-04 1.036781849576e-03 0.0 
0.0 0.0 0.0 
1.341118416234e-03 1.524638421554e-03 0.0 
1.524638421554e-03 5.799374645023e-03 0.0 
0.0 0.0 0.0 
1.263397961979e-03 2.587386164131e-03 0.0 
2.587386164131e-03 6.604563945329e-03 0.0 
0.0 0.0 0.0 
3.023795068133e-04 -1.744154669354e-04 0.0 
-1.744154669354e-04 4.873095820797e-03 0.0 
0.0 0.0 0.0 
2.294722489504e-04 -1.924882120073e-04 0.0 
-1.924882120073e-04 4.876743580329e-03 0.0 
0.0 0.0 0.0 
2.689838508016e-03 -7.077793376021e-06 0.0 
-7.077793376021e-06 9.792426101418e-05 0.0 
0.0 0.0 0.0 
-7.351881698979e-04 -1.285772364986e-03 0.0 
-1.285772364986e-03 9.471519469626e-04 0.0 
0.0 0.0 0.0 
1.230942960269e-04 3.065381749527e-03 0.0 
3.065381749527e-03 -2.246391989718e-03 0.0 
0.0 0.0 0.0 
2.362336313166e-04 -1.122279569282e-04 0.0 
-1.122279569282e-04 5.112408486210e-03 0.0 
0.0 0.0 0.0 
1.271405707219e-03 1.125918679389e-03 0.0 
1.125918679389e-03 5.585132848976e-03 0.0 
0.0 0.0 0.0 
1.019875413768e-03 -1.614362670067e-03 0.0 
-1.614362670067e-03 1.139636057511e-03 0.0 
0.0 0.0 0.0 
4.379121342626e-04 3.060153669924e-03 0.0 
3.060153669924e-03 8.904522560652e-03 0.0 
0.0 0.0 0.0 
-8.073442084059e-04 2.649726406962e-03 0.0 
2.649726406962e-03 6.625127334924e-03 0.0 
0.0 0.0 0.0 
-2.463578813294e-05 3.084473489689e-03 0.0 
3.084473489689e-03 1.013620311072e-02 0.0 
0.0 0.0 0.0 
5.284979003199e-04 7.180578268508e-04 0.0 
7.180578268508e-04 6.817072438211e-03 0.0 
0.0 0.0 0.0 
-4.470124389220e-03 -1.214276814235e-04 0.0 
-1.214276814235e-04 -2.893554710985e-03 0.0 
0.0 0.0 0.0 
0.0 2.166955800989e-04 0.0 
2.166955800989e-04 1.762743302550e-02 0.0 
0.0 0.0 0.0 
0.0 2.070524175297e-05 0.0 
2.070524175297e-05 7.616908250493e-03 0.0 
0.0 0.0 0.0 
-1.293895577279e-03 -3.640902937598e-05 0.0 
-3.640902937598e-05 1.502788248045e-02 0.0 
0.0 0.0 0.0 
1.478394010499e-03 -1.179128241866e-03 0.0 
-1.179128241866e-03 1.462732243349e-03 0.0 
0.0 0.0 0.0 
1.104626123534e-03 2.701151772636e-03 0.0 
2.701151772636e-03 6.916231724120e-03 0.0 
0.0 0.0 0.0 
2.642307451849e-03 4.037639790736e-04 0.0 
4.037639790736e-04 3.774453690590e-04 0.0 
0.0 0.0 0.0 
1.685464664352e-04 -3.040971801038e-04 0.0 
-3.040971801038e-04 9.358556975096e-04 0.0 
0.0 0.0 0.0 
-2.014753637977e-03 3.020648373470e-03 0.0 
3.020648373470e-03 9.723290514065e-04 0.0 
0.0 0.0 0.0 
-7.781556276031e-04 6.450469834426e-04 0.0 
6.450469834426e-04 1.718302047911e-02 0.0 
0.0 0.0 0.0 
-1.442679553170e-03 2.672325060116e-03 0.0 
2.672325060116e-03 1.354216325396e-02 0.0 
0.0 0.0 0.0 
-2.605393272233e-03 1.876595172616e-03 0.0 
1.876595172616e-03 1.420871931900e-02 0.0 
0.0 0.0 0.0 
2.517987145663e-04 3.692001911814e-03 0.0 
3.692001911814e-03 1.017266066319e-02 0.0 
0.0 0.0 0.0 
1.273916128195e-04 -4.966626619634e-05 0.0 
-4.966626619634e-05 1.848339236731e-03 0.0 
0.0 0.0 0.0 
2.703022542878e-04 3.498331239577e-03 0.0 
3.498331239577e-03 9.724761375767e-03 0.0 
0.0 0.0 0.0 
-1.378725796824e-03 2.557772993642e-03 0.0 
2.557772993642e-03 1.356124894353e-02 0.0 
0.0 0.0 0.0 
9.919964229352e-04 -1.235227427550e-03 0.0 
-1.235227427550e-03 1.959027336566e-03 0.0 
0.0 0.0 0.0 
1.312689193589e-03 2.680169456352e-03 0.0 
2.680169456352e-03 6.099202009287e-03 0.0 
0.0 0.0 0.0 
1.505149690173e-03 -1.212991547031e-03 0.0 
-1.212991547031e-03 1.480931081105e-03 0.0 
0.0 0.0 0.0 
-6.767264647669e-04 3.181372024455e-03 0.0 
3.181372024455e-03 2.438785242932e-03 0.0 
0.0 0.0 0.0 
1.152337861117e-03 -1.361821965147e-03 0.0 
-1.361821965147e-03 1.596104760921e-03 0.0 
0.0 0.0 0.0 
-8.297699980501e-04 2.904717791201e-03 0.0 
2.904717791201e-03 1.258988535689e-02 0.0 
0.0 0.0 0.0 
1.177444651053e-04 -2.913051725518e-05 0.0 
-2.913051725518e-05 6.396804089054e-03 0.0 
0.0 0.0 0.0 
2.071111748741e-03 -9.237749576812e-04 0.0 
-9.237749576812e-04 9.148982404390e-04 0.0 
0.0 0.0 0.0 
2.366802332006e-04 3.126380584109e-03 0.0 
3.126380584109e-03 9.703793263985e-03 0.0 
0.0 0.0 0.0 
-1.607720459592e-03 -2.622517629894e-04 0.0 
-2.622517629894e-04 -4.391207243151e-03 0.0 
0.0 0.0 0.0 
2.522846850479e-03 -3.263373097588e-04 0.0 
-3.263373097588e-04 5.138233919051e-04 0.0 
0.0 0.0 0.0 
-1.353019672705e-03 2.685803413959e-03 0.0 
2.685803413959e-03 1.434111336925e-02 0.0 
0.0 0.0 0.0 
6.679648907408e-04 -1.241646408772e-03 0.0 
-1.241646408772e-03 2.092164831485e-03 0.0 
0.0 0.0 0.0 
6.674915515181e-04 -1.651082771531e-03 0.0 
-1.651082771531e-03 1.312996075405e-03 0.0 
0.0 0.0 0.0 
1.339983404437e-03 2.546206319926e-03 0.0 
2.546206319926e-03 6.120976514644e-03 0.0 
0.0 0.0 0.0 
1.093848279767e-03 -2.342413922420e-03 0.0 
-2.342413922420e-03 -1.201240829184e-03 0.0 
0.0 0.0 0.0 
-1.793149613754e-03 2.310735103575e-03 0.0 
2.310735103575e-03 6.792579142595e-03 0.0 
0.0 0.0 0.0 
-1.801602436642e-03 2.403320425838e-03 0.0 
2.403320425838e-03 7.533970533485e-03 0.0 
0.0 0.0 0.0 
4.698918737904e-04 -1.370001969800e-03 0.0 
-1.370001969800e-03 1.837587212928e-03 0.0 
0.0 0.0 0.0 
1.849838017947e-03 -1.093630679214e-04 0.0 
-1.093630679214e-04 2.768272586791e-03 0.0 
0.0 0.0 0.0 
1.974413816913e-03 2.174306770563e-03 0.0 
2.174306770563e-03 3.775629406852e-03 0.0 
0.0 0.0 0.0 
2.026665028618e-04 3.087500239510e-03 0.0 
3.087500239510e-03 9.708341376750e-03 0.0 
0.0 0.0 0.0 
-2.777786008422e-04 3.308564097187e-03 0.0 
3.308564097187e-03 1.330353243578e-02 0.0 
0.0 0.0 0.0 
-1.561572935129e-03 2.180859478726e-03 0.0 
2.180859478726e-03 8.215885692126e-03 0.0 
0.0 0.0 0.0 
-1.061045807880e-03 2.403515607683e-05 0.0 
2.403515607683e-05 1.636883382982e-02 0.0 
0.0 0.0 0.0 
2.115064257091e-04 3.429041189610e-03 0.0 
3.429041189610e-03 1.093385629546e-02 0.0 
0.0 0.0 0.0 
2.777404875655e-03 4.158966671136e-04 0.0 
4.158966671136e-04 -2.431915949551e-04 0.0 
0.0 0.0 0.0 
-1.108500539288e-03 3.139924205235e-03 0.0 
3.139924205235e-03 1.537561304406e-03 0.0 
0.0 0.0 0.0 
-9.522365402496e-04 2.661411539274e-03 0.0 
2.661411539274e-03 7.384382850892e-03 0.0 
0.0 0.0 0.0 
1.716110867302e-03 -3.992282421409e-04 0.0 
-3.992282421409e-04 2.559395060196e-03 0.0 
0.0 0.0 0.0 
-1.712722086520e-04 3.138634835979e-03 0.0 
3.138634835979e-03 1.091421783500e-02 0.0 
0.0 0.0 0.0 
1.983232442922e-03 -1.907382771487e-04 0.0 
-1.907382771487e-04 2.526223399987e-03 0.0 
0.0 0.0 0.0 
1.005734130797e-03 2.699829366392e-03 0.0 
2.699829366392e-03 -1.766229674048e-03 0.0 
0.0 0.0 0.0 
1.737563200110e-03 1.121003025029e-04 0.0 
1.121003025029e-04 3.351156655791e-03 0.0 
0.0 0.0 0.0 
-8.079753869331e-04 3.106917398251e-03 0.0 
3.106917398251e-03 3.343923523056e-03 0.0 
0.0 0.0 0.0 
2.003804964392e-03 1.922374665931e-03 0.0 
1.922374665931e-03 3.811454447745e-03 0.0 
0.0 0.0 0.0 
1.890392625464e-03 2.904493401458e-05 0.0 
2.904493401458e-05 3.082840969632e-03 0.0 
0.0 0.0 0.0 
1.487463329099e-03 2.555912069100e-03 0.0 
2.555912069100e-03 5.826731249429e-03 0.0 
0.0 0.0 0.0 
-1.268275010181e-03 1.100879448258e-04 0.0 
1.100879448258e-04 1.596014486779e-02 0.0 
0.0 0.0 0.0 
3.107873017993e-04 -1.351471361026e-03 0.0 
-1.351471361026e-03 1.835797905927e-03 0.0 
0.0 0.0 0.0 
-3.606296454355e-04 3.305692424218e-03 0.0 
3.305692424218e-03 4.575923577625e-04 0.0 
0.0 0.0 0.0 
1.764156897850e-03 2.376604096159e-04 0.0 
2.376604096159e-04 3.658158428004e-03 0.0 
0.0 0.0 0.0 
-7.961176214113e-04 2.940076845829e-03 0.0 
2.940076845829e-03 4.162567965891e-03 0.0 
0.0 0.0 0.0 
2.969191226778e-04 8.439025951411e-04 0.0 
8.439025951411e-04 -4.681693432497e-03 0.0 
0.0 0.0 0.0 
-5.118232408108e-04 1.212959130229e-04 0.0 
1.212959130229e-04 1.723605541660e-02 0.0 
0.0 0.0 0.0 
-7.351061960139e-04 1.021281844373e-04 0.0 
1.021281844373e-04 1.697192859574e-02 0.0 
0.0 0.0 0.0 
-4.164269798201e-04 -3.810080797277e-04 0.0 
-3.810080797277e-04 5.680362797957e-04 0.0 
0.0 0.0 0.0 
1.593096291674e-03 3.240618514454e-04 0.0 
3.240618514454e-04 3.949601770157e-03 0.0 
0.0 0.0 0.0 
-1.766822002403e-05 -1.153033975267e-03 0.0 
-1.153033975267e-03 1.676010699901e-03 0.0 
0.0 0.0 0.0 
3.951379346834e-06 -1.054068840157e-03 0.0 
-1.054068840157e-03 1.909349413813e-03 0.0 
0.0 0.0 0.0 
2.545701281165e-04 3.219084720071e-03 0.0 
3.219084720071e-03 1.010834758331e-02 0.0 
0.0 0.0 0.0 
1.492575409096e-03 2.397959224209e-03 0.0 
2.397959224209e-03 5.848149283151e-03 0.0 
0.0 0.0 0.0 
4.421362272171e-04 3.132095607035e-03 0.0 
3.132095607035e-03 9.316957904280e-03 0.0 
0.0 0.0 0.0 
2.229443703430e-03 -7.280645634486e-04 0.0 
-7.280645634486e-04 5.902103161621e-04 0.0 
0.0 0.0 0.0 
-1.314087352731e-03 -2.021624051430e-06 0.0 
-2.021624051430e-06 1.458276587210e-02 0.0 
0.0 0.0 0.0 
2.318785073618e-04 5.188977748168e-04 0.0 
5.188977748168e-04 6.831542713125e-03 0.0 
0.0 0.0 0.0 
-1.636460236902e-04 -9.871374246326e-04 0.0 
-9.871374246326e-04 1.657394139698e-03 0.0 
0.0 0.0 0.0 
1.364954442455e-03 1.486786923415e-03 0.0 
1.486786923415e-03 5.595969839548e-03 0.0 
0.0 0.0 0.0 
1.791654573932e-03 2.160359744804e-03 0.0 
2.160359744804e-03 4.568658780978e-03 0.0 
0.0 0.0 0.0 
1.765878487980e-04 -1.363743528471e-04 0.0 
-1.363743528471e-04 1.361193182551e-03 0.0 
0.0 0.0 0.0 
-4.288613507079e-04 3.051637967993e-03 0.0 
3.051637967993e-03 1.136478734162e-02 0.0 
0.0 0.0 0.0 
2.620140055646e-03 1.424680897323e-04 0.0 
1.424680897323e-04 7.863316062293e-04 0.0 
0.0 0.0 0.0 
-7.028054601772e-04 -1.347595795763e-03 0.0 
-1.347595795763e-03 7.744936819902e-04 0.0 
0.0 0.0 0.0 
2.562320977622e-03 -5.336975145872e-04 0.0 
-5.336975145872e-04 -1.291782671459e-04 0.0 
0.0 0.0 0.0 
1.376133651769e-04 1.004879554367e-05 0.0 
1.004879554367e-05 5.413569837012e-03 0.0 
0.0 0.0 0.0 
-8.911283348576e-04 2.978110214361e-03 0.0 
2.978110214361e-03 1.257355782178e-02 0.0 
0.0 0.0 0.0 
-3.132154966212e-04 -1.386372439860e-03 0.0 
-1.386372439860e-03 1.063651869645e-03 0.0 
0.0 0.0 0.0 
1.204890798605e-04 -9.659824674266e-05 0.0 
-9.659824674266e-05 4.337367565955e-03 0.0 
0.0 0.0 0.0 
5.372485221811e-05 3.194139640531e-03 0.0 
3.194139640531e-03 1.049705198972e-02 0.0 
0.0 0.0 0.0 
1.223026282518e-03 2.444552777457e-03 0.0 
2.444552777457e-03 6.840938066777e-03 0.0 
0.0 0.0 0.0 
7.991855952496e-04 -1.414396619507e-03 0.0 
-1.414396619507e-03 1.722156999310e-03 0.0 
0.0 0.0 0.0 
6.376678561093e-05 -9.455386172875e-05 0.0 
-9.455386172875e-05 2.240951552166e-03 0.0 
0.0 0.0 0.0 
1.921036877913e-03 2.177235455837e-03 0.0 
2.177235455837e-03 4.339487175975e-03 0.0 
0.0 0.0 0.0 
-1.194035052122e-03 -3.110607793171e-05 0.0 
-3.110607793171e-05 1.582024043978e-02 0.0 
0.0 0.0 0.0 
-5.983376841295e-04 -1.865591560755e-03 0.0 
-1.865591560755e-03 3.835141139337e-04 0.0 
0.0 0.0 0.0 
2.053563517077e-04 3.739265745387e-03 0.0 
3.739265745387e-03 1.094981429300e-02 0.0 
0.0 0.0 0.0 
-2.607084759473e-04 3.225313605827e-03 0.0 
3.225313605827e-03 1.449524165202e-02 0.0 
0.0 0.0 0.0 
-1.271968852781e-03 -1.826070856246e-05 0.0 
-1.826070856246e-05 1.527808836497e-02 0.0 
0.0 0.0 0.0 
-8.742823754326e-04 1.785021829995e-03 0.0 
1.785021829995e-03 1.690530132488e-02 0.0 
0.0 0.0 0.0 
-1.185437291135e-04 3.499834918768e-03 0.0 
3.499834918768e-03 1.343368121918e-02 0.0 
0.0 0.0 0.0 
2.309287307854e-03 -5.396740351479e-04 0.0 
-5.396740351479e-04 9.756913804664e-04 0.0 
0.0 0.0 0.0 
1.714741392572e-03 -1.202267365172e-03 0.0 
-1.202267365172e-03 9.687979299067e-04 0.0 
0.0 0.0 0.0 
7.505151525722e-04 2.018861134808e-03 0.0 
2.018861134808e-03 7.331726173035e-03 0.0 
0.0 0.0 0.0 
-1.394411007132e-03 3.703755342392e-04 0.0 
3.703755342392e-04 -4.270869564475e-03 0.0 
0.0 0.0 0.0 
9.189920673136e-05 -1.649219495178e-05 0.0 
-1.649219495178e-05 2.034555205343e-03 0.0 
0.0 0.0 0.0 
1.288212723989e-04 -3.280304112368e-05 0.0 
-3.280304112368e-05 4.445882485409e-03 0.0 
0.0 0.0 0.0 
5.571922922729e-04 -1.447183351499e-03 0.0 
-1.447183351499e-03 1.729996661419e-03 0.0 
0.0 0.0 0.0 
2.023014491119e-03 -1.200032872957e-03 0.0 
-1.200032872957e-03 4.184346081335e-04 0.0 
0.0 0.0 0.0 
-1.885853560935e-03 2.453951963751e-03 0.0 
2.453951963751e-03 5.407431433397e-03 0.0 
0.0 0.0 0.0 
-1.920729294222e-03 2.572002454397e-03 0.0 
2.572002454397e-03 6.117737862916e-03 0.0 
0.0 0.0 0.0 
-1.723446141127e-03 2.701662024927e-04 0.0 
2.701662024927e-04 1.537434933099e-02 0.0 
0.0 0.0 0.0 
2.451999764336e-03 -4.911419180743e-04 0.0 
-4.911419180743e-04 1.801538170625e-04 0.0 
0.0 0.0 0.0 
4.011058875042e-05 -2.826002301633e-04 0.0 
-2.826002301633e-04 2.378434818475e-03 0.0 
0.0 0.0 0.0 
1.272543084861e-03 2.669764492042e-03 0.0 
2.669764492042e-03 6.922062074831e-03 0.0 
0.0 0.0 0.0 
1.507211177605e-04 3.028363969403e-04 0.0 
3.028363969403e-04 7.439403216201e-03 0.0 
0.0 0.0 0.0 
1.781157017202e-04 4.004996109542e-04 0.0 
4.004996109542e-04 7.379065367253e-03 0.0 
0.0 0.0 0.0 
1.818036947292e-03 -9.738611547260e-04 0.0 
-9.738611547260e-04 1.422054494759e-03 0.0 
0.0 0.0 0.0 
-1.869204480963e-03 2.936488212890e-04 0.0 
2.936488212890e-04 1.513321438023e-02 0.0 
0.0 0.0 0.0 
-1.551325113342e-03 -2.642548302510e-05 0.0 
-2.642548302510e-05 -3.773433658534e-03 0.0 
0.0 0.0 0.0 
-2.003079935827e-03 2.731808360228e-03 0.0 
2.731808360228e-03 4.013470759109e-03 0.0 
0.0 0.0 0.0 
1.027944804670e-03 -2.740839830784e-03 0.0 
-2.740839830784e-03 -1.932262585514e-03 0.0 
0.0 0.0 0.0 
-1.998267305137e-03 2.625419602989e-03 0.0 
2.625419602989e-03 4.756123529077e-03 0.0 
0.0 0.0 0.0 
1.710252946864e-03 2.180284828779e-03 0.0 
2.180284828779e-03 5.097195933420e-03 0.0 
0.0 0.0 0.0 
1.370328659844e-03 -1.470732350562e-03 0.0 
-1.470732350562e-03 1.120301573158e-03 0.0 
0.0 0.0 0.0 
1.970893443080e-03 -1.152797253642e-03 0.0 
-1.152797253642e-03 4.566998979056e-04 0.0 
0.0 0.0 0.0 
5.799559225406e-04 -2.736147861075e-03 0.0 
-2.736147861075e-03 -3.090429227103e-03 0.0 
0.0 0.0 0.0 
-6.416003314357e-04 1.751961756758e-04 0.0 
1.751961756758e-04 1.703082619516e-02 0.0 
0.0 0.0 0.0 
1.384907642916e-03 -1.460969521150e-03 0.0 
-1.460969521150e-03 1.009376351987e-03 0.0 
0.0 0.0 0.0 
-6.288074999800e-04 6.602710139799e-04 0.0 
6.602710139799e-04 1.717975747660e-02 0.0 
0.0 0.0 0.0 
-9.113681129592e-04 2.095842682785e-04 0.0 
2.095842682785e-04 1.680109354485e-02 0.0 
0.0 0.0 0.0 
-2.509884398613e-04 3.012925699900e-04 0.0 
3.012925699900e-04 1.761544125704e-02 0.0 
0.0 0.0 0.0 
2.889520789662e-05 2.614384947241e-05 0.0 
2.614384947241e-05 7.615831255427e-03 0.0 
0.0 0.0 0.0 
-1.281029248573e-03 3.394133673251e-05 0.0 
3.394133673251e-05 1.529020954268e-02 0.0 
0.0 0.0 0.0 
1.171256661459e-03 -1.362599143807e-03 0.0 
-1.362599143807e-03 1.508725914780e-03 0.0 
0.0 0.0 0.0 
-1.640843771682e-03 2.346981962682e-03 0.0 
2.346981962682e-03 6.795780726819e-03 0.0 
0.0 0.0 0.0 
1.285590833132e-03 -1.132899952663e-03 0.0 
-1.132899952663e-03 1.939820671258e-03 0.0 
0.0 0.0 0.0 
0.0 2.011745465644e-04 0.0 
2.011745465644e-04 7.491717091219e-03 0.0 
0.0 0.0 0.0 
-1.933568563772e-03 2.849043903258e-03 0.0 
2.849043903258e-03 2.468819391242e-03 0.0 
0.0 0.0 0.0 
-1.951498908323e-03 2.788193015757e-03 0.0 
2.788193015757e-03 3.253928287922e-03 0.0 
0.0 0.0 0.0 
1.234124127619e-03 1.776641902334e-03 0.0 
1.776641902334e-03 6.143500796487e-03 0.0 
0.0 0.0 0.0 
-1.465179777317e-03 1.024866989781e-04 0.0 
1.024866989781e-04 1.499399799093e-02 0.0 
0.0 0.0 0.0 
-5.586872026412e-04 4.376556519925e-04 0.0 
4.376556519925e-04 1.722208526342e-02 0.0 
0.0 0.0 0.0 
-3.756768682361e-06 3.158669316385e-03 0.0 
3.158669316385e-03 1.049933876208e-02 0.0 
0.0 0.0 0.0 
1.075185620193e-03 2.664346352610e-03 0.0 
2.664346352610e-03 7.398589656090e-03 0.0 
0.0 0.0 0.0 
-5.480644812040e-04 3.205746531702e-03 0.0 
3.205746531702e-03 1.235480821681e-02 0.0 
0.0 0.0 0.0 
-1.308080237713e-03 8.844473645180e-05 0.0 
8.844473645180e-05 1.538698045712e-02 0.0 
0.0 0.0 0.0 
3.548741456090e-04 -1.573320339403e-03 0.0 
-1.573320339403e-03 1.490129254511e-03 0.0 
0.0 0.0 0.0 
5.639364715273e-04 -1.573534368004e-03 0.0 
-1.573534368004e-03 1.489259277565e-03 0.0 
0.0 0.0 0.0 
-1.098427801626e-03 1.075315551772e-04 0.0 
1.075315551772e-04 1.619671346890e-02 0.0 
0.0 0.0 0.0 
9.905603300029e-04 2.642185205914e-03 0.0 
2.642185205914e-03 7.509646878590e-03 0.0 
0.0 0.0 0.0 
-2.296499572681e-03 6.153848379581e-04 0.0 
6.153848379581e-04 1.498830798374e-02 0.0 
0.0 0.0 0.0 
-1.310332745350e-03 1.746596035861e-05 0.0 
1.746596035861e-05 1.494129459131e-02 0.0 
0.0 0.0 0.0 
-1.305145345678e-03 2.331684560969e-05 0.0 
2.331684560969e-05 1.527809081447e-02 0.0 
0.0 0.0 0.0 
-1.373478313596e-03 3.689078653313e-05 0.0 
3.689078653313e-05 1.540741854864e-02 0.0 
0.0 0.0 0.0 
1.948220025537e-03 -1.464912542640e-03 0.0 
-1.464912542640e-03 -3.336779427480e-03 0.0 
0.0 0.0 0.0 
2.233964842357e-04 -1.449210308212e-03 0.0 
-1.449210308212e-03 1.636242264297e-03 0.0 
0.0 0.0 0.0 
-5.583808061570e-04 1.002174811076e-03 0.0 
1.002174811076e-03 1.732316427938e-02 0.0 
0.0 0.0 0.0 
-1.352422541358e-03 1.084020194919e-04 0.0 
1.084020194919e-04 1.580100028511e-02 0.0 
0.0 0.0 0.0 
4.883500541522e-04 2.567072203316e-03 0.0 
2.567072203316e-03 8.036065364412e-03 0.0 
0.0 0.0 0.0 
-4.769314914262e-04 3.465176166874e-03 0.0 
3.465176166874e-03 1.323884344826e-02 0.0 
0.0 0.0 0.0 
-4.667505212345e-04 3.078331650748e-03 0.0 
3.078331650748e-03 1.136015258932e-02 0.0 
0.0 0.0 0.0 
-1.080068696267e-03 1.850469371276e-03 0.0 
1.850469371276e-03 1.666433056918e-02 0.0 
0.0 0.0 0.0 
1.345541451838e-04 -3.680829310799e-04 0.0 
-3.680829310799e-04 3.249925119577e-03 0.0 
0.0 0.0 0.0 
7.875015279879e-05 -3.987578818180e-04 0.0 
-3.987578818180e-04 2.953564006257e-03 0.0 
0.0 0.0 0.0 
4.989959533896e-04 5.003998493961e-04 0.0 
5.003998493961e-04 6.366836737461e-03 0.0 
0.0 0.0 0.0 
2.332491223063e-04 -1.742107040521e-03 0.0 
-1.742107040521e-03 -3.618499643984e-03 0.0 
0.0 0.0 0.0 
1.006936323582e-04 -1.131647402869e-04 0.0 
-1.131647402869e-04 2.139081709374e-03 0.0 
0.0 0.0 0.0 
0.0 3.420777790670e-03 0.0 
3.420777790670e-03 9.930515569829e-03 0.0 
0.0 0.0 0.0 
3.228349672191e-04 -2.456477542219e-05 0.0 
-2.456477542219e-05 9.327856139401e-04 0.0 
0.0 0.0 0.0 
-1.302002946414e-03 1.741158645066e-05 0.0 
1.741158645066e-05 1.493795077826e-02 0.0 
0.0 0.0 0.0 
1.002819105956e-03 1.533467625854e-03 0.0 
1.533467625854e-03 6.509081626924e-03 0.0 
0.0 0.0 0.0 
-1.619736936255e-04 -4.206861312498e-04 0.0 
-4.206861312498e-04 6.695881107919e-04 0.0 
0.0 0.0 0.0 
5.100909445581e-04 -1.061249846148e-04 0.0 
-1.061249846148e-04 1.551057113462e-04 0.0 
0.0 0.0 0.0 
-3.930680307646e-04 1.594223158209e-03 0.0 
1.594223158209e-03 1.723007157833e-02 0.0 
0.0 0.0 0.0 
-1.409401173449e-03 5.757354054174e-06 0.0 
5.757354054174e-06 1.461505645372e-02 0.0 
0.0 0.0 0.0 
-6.154475396809e-04 1.365194856115e-03 0.0 
1.365194856115e-03 1.715565925196e-02 0.0 
0.0 0.0 0.0 
7.823498985211e-04 1.766739366227e-03 0.0 
1.766739366227e-03 6.662561761619e-03 0.0 
0.0 0.0 0.0 
-1.395313612243e-03 1.423803010486e-06 0.0 
1.423803010486e-06 1.459799418070e-02 0.0 
0.0 0.0 0.0 
-1.398582846269e-03 5.897878615766e-04 0.0 
5.897878615766e-04 -3.685261582690e-03 0.0 
0.0 0.0 0.0 
-2.713537987707e-04 2.241666731982e-04 0.0 
2.241666731982e-04 1.744168212360e-02 0.0 
0.0 0.0 0.0 
1.401134093069e-04 -2.921505408375e-04 0.0 
-2.921505408375e-04 1.125017521740e-03 0.0 
0.0 0.0 0.0 
-6.378175524331e-04 1.108048322121e-03 0.0 
1.108048322121e-03 1.713021366034e-02 0.0 
0.0 0.0 0.0 
0.0 1.276161029234e-04 0.0 
1.276161029234e-04 7.536319181738e-03 0.0 
0.0 0.0 0.0 
-6.589640216511e-04 3.112718976772e-03 0.0 
3.112718976772e-03 1.431368901854e-02 0.0 
0.0 0.0 0.0 
2.371145730132e-03 -1.381772791281e-03 0.0 
-1.381772791281e-03 -3.094137254292e-03 0.0 
0.0 0.0 0.0 
-2.059537882465e-03 8.987556311563e-04 0.0 
8.987556311563e-04 1.521134949158e-02 0.0 
0.0 0.0 0.0 
7.105380763228e-05 -2.469980244815e-04 0.0 
-2.469980244815e-04 3.316586596918e-03 0.0 
0.0 0.0 0.0 
1.195577866998e-03 2.513312724575e-03 0.0 
2.513312724575e-03 6.933873271879e-03 0.0 
0.0 0.0 0.0 
3.242511046251e-04 2.816458928331e-03 0.0 
2.816458928331e-03 8.664028174475e-03 0.0 
0.0 0.0 0.0 
-9.912922187428e-04 1.392394710856e-04 0.0 
1.392394710856e-04 1.655356127469e-02 0.0 
0.0 0.0 0.0 
3.913596401033e-04 2.557906569968e-03 0.0 
2.557906569968e-03 8.303509122331e-03 0.0 
0.0 0.0 0.0 
1.263405339270e-03 -1.313367028463e-03 0.0 
-1.313367028463e-03 -4.090648057389e-03 0.0 
0.0 0.0 0.0 
1.698017783693e-04 1.697482514269e-04 0.0 
1.697482514269e-04 7.083883615219e-03 0.0 
0.0 0.0 0.0 
1.863460058833e-03 -2.045604677101e-03 0.0 
-2.045604677101e-03 -1.781414460462e-03 0.0 
0.0 0.0 0.0 
2.549301230892e-04 -1.074985819364e-04 0.0 
-1.074985819364e-04 9.639582634042e-04 0.0 
0.0 0.0 0.0 
6.264204111468e-04 1.291598984623e-03 0.0 
1.291598984623e-03 6.945428246492e-03 0.0 
0.0 0.0 0.0 
-7.703149557463e-04 2.615504500082e-03 0.0 
2.615504500082e-03 1.614627012994e-02 0.0 
0.0 0.0 0.0 
-5.386780335790e-04 1.612634778461e-03 0.0 
1.612634778461e-03 1.707703009679e-02 0.0 
0.0 0.0 0.0 
-1.349077309966e-03 5.222256135749e-05 0.0 
5.222256135749e-05 1.493700934479e-02 0.0 
0.0 0.0 0.0 
-2.008167379587e-03 1.753354798961e-03 0.0 
1.753354798961e-03 1.443405145233e-02 0.0 
0.0 0.0 0.0 
-6.782210612619e-04 3.099463832208e-03 0.0 
3.099463832208e-03 2.434827242231e-03 0.0 
0.0 0.0 0.0 
-2.833325065136e-04 3.713691741357e-03 0.0 
3.713691741357e-03 1.327051641421e-02 0.0 
0.0 0.0 0.0 
5.283019111402e-05 -1.969163877692e-04 0.0 
-1.969163877692e-04 2.817808345611e-03 0.0 
0.0 0.0 0.0 
3.135666430538e-04 2.873906854190e-03 0.0 
2.873906854190e-03 -8.272673450863e-04 0.0 
0.0 0.0 0.0 
1.307968364015e-03 2.582099320115e-03 0.0 
2.582099320115e-03 6.822406688349e-03 0.0 
0.0 0.0 0.0 
-1.321585845940e-03 6.686272102697e-06 0.0 
6.686272102697e-06 1.456718723717e-02 0.0 
0.0 0.0 0.0 
-6.963340158900e-04 2.474838694081e-03 0.0 
2.474838694081e-03 1.591375856488e-02 0.0 
0.0 0.0 0.0 
-2.089223093610e-04 -1.052553510537e-05 0.0 
-1.052553510537e-05 1.763025542943e-02 0.0 
0.0 0.0 0.0 
0.0 1.044611546802e-04 0.0 
1.044611546802e-04 1.765130649964e-02 0.0 
0.0 0.0 0.0 
8.665402353083e-04 2.964371297231e-05 0.0 
2.964371297231e-05 -2.510522406991e-04 0.0 
0.0 0.0 0.0 
7.175134350159e-04 -2.863108640064e-05 0.0 
-2.863108640064e-05 -2.185750391527e-04 0.0 
0.0 0.0 0.0 
-1.312434773845e-03 -4.064882674795e-05 0.0 
-4.064882674795e-05 1.459937996688e-02 0.0 
0.0 0.0 0.0 
-1.365385098830e-03 -8.828449516744e-06 0.0 
-8.828449516744e-06 1.458868953740e-02 0.0 
0.0 0.0 0.0 
0.0 1.092824391661e-05 0.0 
1.092824391661e-05 7.631548398483e-03 0.0 
0.0 0.0 0.0 
2.185648783315e-05 2.813694800085e-05 0.0 
2.813694800085e-05 7.575274502481e-03 0.0 
0.0 0.0 0.0 
7.054653535830e-04 3.184367045804e-06 0.0 
3.184367045804e-06 3.650937948940e-05 0.0 
0.0 0.0 0.0 
-1.349400666246e-03 -4.151210690909e-04 0.0 
-4.151210690909e-04 -4.527200612145e-03 0.0 
0.0 0.0 0.0 
1.270117970760e-04 7.694927414864e-05 0.0 
7.694927414864e-05 6.787522600912e-03 0.0 
0.0 0.0 0.0 
7.046526337238e-04 3.251146283292e-03 0.0 
3.251146283292e-03 8.941576991414e-03 0.0 
0.0 0.0 0.0 
1.839945650273e-04 -2.817137688706e-04 0.0 
-2.817137688706e-04 1.296473380225e-03 0.0 
0.0 0.0 0.0 
2.524669223685e-04 2.042413815671e-04 0.0 
2.042413815671e-04 6.670640088019e-03 0.0 
0.0 0.0 0.0 
1.350646574398e-04 -3.273095030565e-05 0.0 
-3.273095030565e-05 4.758219864451e-03 0.0 
0.0 0.0 0.0 
9.486945254977e-05 -6.467581193090e-05 0.0 
-6.467581193090e-05 4.078598073987e-03 0.0 
0.0 0.0 0.0 
-1.259574615867e-03 1.342292503322e-04 0.0 
1.342292503322e-04 1.597379931724e-02 0.0 
0.0 0.0 0.0 
6.441948159841e-05 -2.452806765242e-03 0.0 
-2.452806765242e-03 -2.280748815163e-04 0.0 
0.0 0.0 0.0 
1.363010204475e-03 2.446631118537e-03 0.0 
2.446631118537e-03 6.377898351846e-03 0.0 
0.0 0.0 0.0 
2.091461993481e-04 -2.643387636928e-04 0.0 
-2.643387636928e-04 9.829113458479e-04 0.0 
0.0 0.0 0.0 
1.400508239089e-04 -3.003231550327e-04 0.0 
-3.003231550327e-04 3.623818930737e-03 0.0 
0.0 0.0 0.0 
-1.489200270225e-04 3.437840797810e-03 0.0 
3.437840797810e-03 1.285470578361e-02 0.0 
0.0 0.0 0.0 
-6.521560184993e-04 -1.682250842368e-05 0.0 
-1.682250842368e-05 1.712552060856e-02 0.0 
0.0 0.0 0.0 
1.194881838193e-04 -6.553867486759e-05 0.0 
-6.553867486759e-05 4.077288552914e-03 0.0 
0.0 0.0 0.0 
-1.280170321725e-03 1.078390580095e-05 0.0 
1.078390580095e-05 1.556544343249e-02 0.0 
0.0 0.0 0.0 
3.841187114499e-04 3.539340856670e-03 0.0 
3.539340856670e-03 1.022170509250e-02 0.0 
0.0 0.0 0.0 
-3.510185965828e-04 3.287640102343e-03 0.0 
3.287640102343e-03 1.197074082109e-02 0.0 
0.0 0.0 0.0 
-4.049642153768e-04 3.171400003408e-03 0.0 
3.171400003408e-03 1.165526303213e-02 0.0 
0.0 0.0 0.0 
-1.372698242264e-03 2.228209686968e-06 0.0 
2.228209686968e-06 1.460090210803e-02 0.0 
0.0 0.0 0.0 
1.585002548021e-03 2.236662531013e-03 0.0 
2.236662531013e-03 5.655844225728e-03 0.0 
0.0 0.0 0.0 
-5.980755894733e-04 2.815612197252e-03 0.0 
2.815612197252e-03 1.517698896619e-02 0.0 
0.0 0.0 0.0 
5.672700215698e-05 -1.870303808534e-04 0.0 
-1.870303808534e-04 2.151955491801e-03 0.0 
0.0 0.0 0.0 
1.473881141267e-05 -3.115103122939e-04 0.0 
-3.115103122939e-04 3.262350685107e-04 0.0 
0.0 0.0 0.0 
2.436159033963e-04 3.289561493941e-03 0.0 
3.289561493941e-03 1.017958454367e-02 0.0 
0.0 0.0 0.0 
1.480658635316e-03 1.627100544705e-03 0.0 
1.627100544705e-03 5.586475138963e-03 0.0 
0.0 0.0 0.0 
1.388583271682e-04 -2.401293386937e-03 0.0 
-2.401293386937e-03 -5.863460027828e-04 0.0 
0.0 0.0 0.0 
-1.169192331452e-03 6.674257826108e-05 0.0 
6.674257826108e-05 1.622028223076e-02 0.0 
0.0 0.0 0.0 
5.443867501875e-05 6.983469886113e-05 0.0 
6.983469886113e-05 7.144569816352e-03 0.0 
0.0 0.0 0.0 
6.098428622452e-04 3.143774624696e-03 0.0 
3.143774624696e-03 9.091509013300e-03 0.0 
0.0 0.0 0.0 
4.741919402298e-04 3.426398137323e-03 0.0 
3.426398137323e-03 9.721518999135e-03 0.0 
0.0 0.0 0.0 
1.373403134861e-04 -5.018810368099e-05 0.0 
-5.018810368099e-05 5.154375436174e-03 0.0 
0.0 0.0 0.0 
7.982056826283e-05 2.540763140401e-03 0.0 
2.540763140401e-03 -3.548626813519e-03 0.0 
0.0 0.0 0.0 
-1.786247059653e-03 2.509907296261e-03 0.0 
2.509907296261e-03 5.412215526800e-03 0.0 
0.0 0.0 0.0 
-8.327485785407e-04 2.876799045315e-03 0.0 
2.876799045315e-03 4.160110816279e-03 0.0 
0.0 0.0 0.0 
-2.161225583473e-03 9.967420879503e-04 0.0 
9.967420879503e-04 1.534592411057e-02 0.0 
0.0 0.0 0.0 
1.622154290406e-03 2.420670782085e-03 0.0 
2.420670782085e-03 5.633540726960e-03 0.0 
0.0 0.0 0.0 
-6.707758389517e-04 8.072625573204e-04 0.0 
8.072625573204e-04 1.723265725011e-02 0.0 
0.0 0.0 0.0 
4.738247816944e-04 2.045084044479e-03 0.0 
2.045084044479e-03 7.357182891245e-03 0.0 
0.0 0.0 0.0 
-8.310430755883e-04 -1.738983544291e-03 0.0 
-1.738983544291e-03 3.164939957017e-04 0.0 
0.0 0.0 0.0 
-4.381624392128e-04 -8.137673414266e-04 0.0 
-8.137673414266e-04 6.580803155125e-04 0.0 
0.0 0.0 0.0 
-1.846567071887e-03 2.728280267937e-03 0.0 
2.728280267937e-03 4.012867267620e-03 0.0 
0.0 0.0 0.0 
-1.097921813946e-03 2.271198383773e-04 0.0 
2.271198383773e-04 1.633350169037e-02 0.0 
0.0 0.0 0.0 
5.824929298970e-05 -3.449871730629e-04 0.0 
-3.449871730629e-04 2.577553317274e-03 0.0 
0.0 0.0 0.0 
-8.958862427367e-04 2.108571779117e-03 0.0 
2.108571779117e-03 1.649826926962e-02 0.0 
0.0 0.0 0.0 
2.632545695913e-04 -1.539136356501e-04 0.0 
-1.539136356501e-04 1.214362714533e-03 0.0 
0.0 0.0 0.0 
9.117382383328e-04 1.960029164195e-03 0.0 
1.960029164195e-03 6.752153005729e-03 0.0 
0.0 0.0 0.0 
-1.574064267743e-03 2.095986540769e-04 0.0 
2.095986540769e-04 1.538588044632e-02 0.0 
0.0 0.0 0.0 
3.432628465827e-04 2.969834478862e-03 0.0 
2.969834478862e-03 8.788972991980e-03 0.0 
0.0 0.0 0.0 
9.765243990723e-04 2.740490435431e-03 0.0 
2.740490435431e-03 7.646585335565e-03 0.0 
0.0 0.0 0.0 
-2.253049424816e-03 1.378742319763e-03 0.0 
1.378742319763e-03 1.511337245483e-02 0.0 
0.0 0.0 0.0 
5.547222552165e-04 8.963775741893e-04 0.0 
8.963775741893e-04 6.851380979648e-03 0.0 
0.0 0.0 0.0 
-6.961498192798e-04 2.418556507476e-03 0.0 
2.418556507476e-03 1.639782240171e-02 0.0 
0.0 0.0 0.0 
-4.355855454705e-04 2.002046935693e-04 0.0 
2.002046935693e-04 1.745426301629e-02 0.0 
0.0 0.0 0.0 
-1.724522747857e-03 2.815627408521e-03 0.0 
2.815627408521e-03 2.466957265183e-03 0.0 
0.0 0.0 0.0 
-8.470479640210e-04 1.802330215950e-03 0.0 
1.802330215950e-03 1.666764245370e-02 0.0 
0.0 0.0 0.0 
9.885523204312e-05 3.568412162660e-03 0.0 
3.568412162660e-03 1.119574726218e-02 0.0 
0.0 0.0 0.0 
1.022111393288e-03 1.929176743545e-03 0.0 
1.929176743545e-03 6.760166804470e-03 0.0 
0.0 0.0 0.0 
1.117009824579e-03 2.765474289222e-03 0.0 
2.765474289222e-03 7.479493964178e-03 0.0 
0.0 0.0 0.0 
0.0 3.643887564878e-04 0.0 
3.643887564878e-04 7.418144728940e-03 0.0 
0.0 0.0 0.0 
-3.042751620930e-04 3.158675413009e-03 0.0 
3.158675413009e-03 1.165653243831e-02 0.0 
0.0 0.0 0.0 
-1.505929992353e-03 1.821195179820e-03 0.0 
1.821195179820e-03 -2.417799171388e-03 0.0 
0.0 0.0 0.0 
-2.219544714405e-04 3.187610221462e-03 0.0 
3.187610221462e-03 4.533313463795e-04 0.0 
0.0 0.0 0.0 
-4.273129526068e-04 3.351393392535e-03 0.0 
3.351393392535e-03 1.262536062668e-02 0.0 
0.0 0.0 0.0 
-1.986826737184e-03 1.013603038987e-03 0.0 
1.013603038987e-03 1.550612929589e-02 0.0 
0.0 0.0 0.0 
8.116360945487e-05 -6.547589448769e-06 0.0 
-6.547589448769e-06 6.835911556500e-03 0.0 
0.0 0.0 0.0 
7.633128167024e-04 2.862358487610e-03 0.0 
2.862358487610e-03 8.179442114093e-03 0.0 
0.0 0.0 0.0 
1.496892766482e-04 2.675649303193e-04 0.0 
2.675649303193e-04 7.024012146363e-03 0.0 
0.0 0.0 0.0 
-9.725688252791e-04 2.979333468394e-04 0.0 
2.979333468394e-04 1.667434306699e-02 0.0 
0.0 0.0 0.0 
3.228087271268e-04 2.793698881729e-03 0.0 
2.793698881729e-03 8.449953053665e-03 0.0 
0.0 0.0 0.0 
5.472231762660e-04 6.821411472891e-04 0.0 
6.821411472891e-04 6.413732293997e-03 0.0 
0.0 0.0 0.0 
6.313742618300e-04 7.801820848683e-04 0.0 
7.801820848683e-04 6.404656861862e-03 0.0 
0.0 0.0 0.0 
5.316715586834e-05 -2.396262680870e-04 0.0 
-2.396262680870e-04 2.700087660947e-03 0.0 
0.0 0.0 0.0 
1.363390364786e-04 2.177391056197e-04 0.0 
2.177391056197e-04 7.480065294402e-03 0.0 
0.0 0.0 0.0 
-1.639877819370e-03 2.559810807560e-04 0.0 
2.559810807560e-04 1.496977409852e-02 0.0 
0.0 0.0 0.0 
-6.597602340251e-04 4.075225186067e-04 0.0 
4.075225186067e-04 1.722617658235e-02 0.0 
0.0 0.0 0.0 
-5.259117997798e-04 -9.475502408347e-04 0.0 
-9.475502408347e-04 8.535204693676e-04 0.0 
0.0 0.0 0.0 
-8.023938627102e-04 1.744001981526e-04 0.0 
1.744001981526e-04 1.703703977382e-02 0.0 
0.0 0.0 0.0 
-1.190589501601e-03 1.383589858148e-04 0.0 
1.383589858148e-04 1.624854574835e-02 0.0 
0.0 0.0 0.0 
4.997485404363e-04 9.782185786863e-06 0.0 
9.782185786863e-06 5.371240398442e-04 0.0 
0.0 0.0 0.0 
2.265452537013e-03 -1.661037736481e-03 0.0 
-1.661037736481e-03 -3.666510634544e-03 0.0 
0.0 0.0 0.0 
-8.967181064867e-05 3.244382419333e-03 0.0 
3.244382419333e-03 1.127138744567e-02 0.0 
0.0 0.0 0.0 
-3.945075363416e-04 1.206091507728e-03 0.0 
1.206091507728e-03 1.724560964998e-02 0.0 
0.0 0.0 0.0 
-5.871084768615e-04 1.905185739000e-04 0.0 
1.905185739000e-04 1.726111020834e-02 0.0 
0.0 0.0 0.0 
7.448751362591e-04 2.776981340258e-03 0.0 
2.776981340258e-03 8.024434745444e-03 0.0 
0.0 0.0 0.0 
-1.323569875415e-03 1.436353696431e-04 0.0 
1.436353696431e-04 1.559795013854e-02 0.0 
0.0 0.0 0.0 
3.291749640997e-04 -1.254297829669e-04 0.0 
-1.254297829669e-04 2.113271905708e-04 0.0 
0.0 0.0 0.0 
7.081483009328e-04 1.909381181150e-03 0.0 
1.909381181150e-03 -3.957506168889e-03 0.0 
0.0 0.0 0.0 
4.764584530825e-05 -1.849447397512e-04 0.0 
-1.849447397512e-04 3.977567426923e-04 0.0 
0.0 0.0 0.0 
-3.994479665026e-04 -1.045593805280e-03 0.0 
-1.045593805280e-03 9.432829673779e-04 0.0 
0.0 0.0 0.0 
-1.435124451694e-03 3.418291994348e-03 0.0 
3.418291994348e-03 -1.767682665620e-03 0.0 
0.0 0.0 0.0 
1.045852539490e-04 -2.594728714553e-04 0.0 
-2.594728714553e-04 3.576847095968e-03 0.0 
0.0 0.0 0.0 
1.055925948952e-04 4.759860553024e-05 0.0 
4.759860553024e-05 6.834757681099e-03 0.0 
0.0 0.0 0.0 
-5.224965423455e-04 3.170923181293e-03 0.0 
3.170923181293e-03 1.432125532471e-02 0.0 
0.0 0.0 0.0 
-2.179203731929e-03 1.876798065668e-03 0.0 
1.876798065668e-03 1.485203970977e-02 0.0 
0.0 0.0 0.0 
1.150384955588e-04 -4.585362191432e-04 0.0 
-4.585362191432e-04 3.050920689862e-03 0.0 
0.0 0.0 0.0 
4.847341013223e-04 4.231252051182e-04 0.0 
4.231252051182e-04 6.393684035474e-03 0.0 
0.0 0.0 0.0 
1.030749688649e-03 1.307246444920e-03 0.0 
1.307246444920e-03 6.245879755830e-03 0.0 
0.0 0.0 0.0 
5.868110031206e-04 3.209486864602e-03 0.0 
3.209486864602e-03 8.950318296396e-03 0.0 
0.0 0.0 0.0 
1.946840035927e-04 3.363388567289e-03 0.0 
3.363388567289e-03 1.054544639956e-02 0.0 
0.0 0.0 0.0 
-2.564909142877e-05 3.376635703081e-03 0.0 
3.376635703081e-03 1.163458904151e-02 0.0 
0.0 0.0 0.0 
-5.208875215955e-04 -7.379833429565e-04 0.0 
-7.379833429565e-04 8.222100013673e-04 0.0 
0.0 0.0 0.0 
5.565098022697e-04 -1.610885035679e-03 0.0 
-1.610885035679e-03 -4.030190870618e-03 0.0 
0.0 0.0 0.0 
1.210297275365e-04 2.662088323525e-05 0.0 
2.662088323525e-05 6.803932811639e-03 0.0 
0.0 0.0 0.0 
3.893378988933e-04 -2.651740845089e-05 0.0 
-2.651740845089e-05 5.672488735806e-04 0.0 
0.0 0.0 0.0 
3.948314149989e-04 7.185513162825e-06 0.0 
7.185513162825e-06 7.184835870557e-04 0.0 
0.0 0.0 0.0 
-9.215268718187e-04 3.220731075470e-03 0.0 
3.220731075470e-03 -4.389622494129e-04 0.0 
0.0 0.0 0.0 
8.835808264473e-05 -2.925328781015e-04 0.0 
-2.925328781015e-04 6.734763944698e-04 0.0 
0.0 0.0 0.0 
2.774575804201e-04 8.016353632073e-04 0.0 
8.016353632073e-04 6.847834378358e-03 0.0 
0.0 0.0 0.0 
-9.045579744815e-05 3.606910726748e-03 0.0 
3.606910726748e-03 1.241930997827e-02 0.0 
0.0 0.0 0.0 
-5.681349944286e-04 8.154767424593e-04 0.0 
8.154767424593e-04 1.723304539095e-02 0.0 
0.0 0.0 0.0 
2.733917269317e-04 3.144574410058e-03 0.0 
3.144574410058e-03 9.209018353499e-03 0.0 
0.0 0.0 0.0 
1.033252814004e-03 1.240764067526e-03 0.0 
1.240764067526e-03 5.951239693464e-03 0.0 
0.0 0.0 0.0 
-1.273437599542e-03 1.680922542202e-04 0.0 
1.680922542202e-04 1.580634899534e-02 0.0 
0.0 0.0 0.0 
0.0 1.693905228470e-03 0.0 
1.693905228470e-03 1.715838588561e-02 0.0 
0.0 0.0 0.0 
1.331158630575e-03 -2.569138975205e-03 0.0 
-2.569138975205e-03 -1.799159384022e-03 0.0 
0.0 0.0 0.0 
-1.297089335192e-03 1.400262205731e-06 0.0 
1.400262205731e-06 1.454521160120e-02 0.0 
0.0 0.0 0.0 
-6.418687865480e-04 -2.466588518465e-03 0.0 
-2.466588518465e-03 -2.780914785872e-05 0.0 
0.0 0.0 0.0 
3.265800917009e-04 -7.122959368407e-05 0.0 
-7.122959368407e-05 2.320110245213e-04 0.0 
0.0 0.0 0.0 
8.586856094728e-05 1.067363293979e-04 0.0 
1.067363293979e-04 7.538786152426e-03 0.0 
0.0 0.0 0.0 
-2.417802035653e-03 1.280203713121e-03 0.0 
1.280203713121e-03 1.475079897868e-02 0.0 
0.0 0.0 0.0 
3.519051469005e-04 -1.340958151790e-04 0.0 
-1.340958151790e-04 8.846844655399e-04 0.0 
0.0 0.0 0.0 
8.614995776446e-05 -1.745806292007e-04 0.0 
-1.745806292007e-04 3.487617983821e-03 0.0 
0.0 0.0 0.0 
-1.008941781530e-04 3.800295684148e-03 0.0 
3.800295684148e-03 1.268278974650e-02 0.0 
0.0 0.0 0.0 
-8.426923946319e-04 1.125207787817e-03 0.0 
1.125207787817e-03 1.712983290031e-02 0.0 
0.0 0.0 0.0 
-4.034718276962e-04 2.621650050014e-03 0.0 
2.621650050014e-03 1.597903707382e-02 0.0 
0.0 0.0 0.0 
6.206039484824e-05 -1.376296156328e-04 0.0 
-1.376296156328e-04 2.494705944704e-03 0.0 
0.0 0.0 0.0 
8.255987316887e-04 2.241947927201e-04 0.0 
2.241947927201e-04 -4.449018134627e-03 0.0 
0.0 0.0 0.0 
2.648993094621e-04 2.926450002694e-04 0.0 
2.926450002694e-04 6.980954388729e-03 0.0 
0.0 0.0 0.0 
-2.287001084168e-04 1.584779250551e-04 0.0 
1.584779250551e-04 1.764240348394e-02 0.0 
0.0 0.0 0.0 
1.913026384637e-05 7.267875979314e-06 0.0 
7.267875979314e-06 7.626305853804e-03 0.0 
0.0 0.0 0.0 
-1.305586946693e-03 1.972640581875e-05 0.0 
1.972640581875e-05 1.487816349495e-02 0.0 
0.0 0.0 0.0 
7.220740934597e-04 1.378168459531e-03 0.0 
1.378168459531e-03 6.428860684619e-03 0.0 
0.0 0.0 0.0 
2.502554326353e-04 -1.479722830157e-04 0.0 
-1.479722830157e-04 9.796564537254e-04 0.0 
0.0 0.0 0.0 
-7.347407575498e-04 2.081044335143e-03 0.0 
2.081044335143e-03 1.649578376353e-02 0.0 
0.0 0.0 0.0 
2.839085277013e-04 -9.155817012201e-05 0.0 
-9.155817012201e-05 2.448803040906e-04 0.0 
0.0 0.0 0.0 
3.274538338007e-04 1.163902924198e-03 0.0 
1.163902924198e-03 6.925202247449e-03 0.0 
0.0 0.0 0.0 
-6.456373021203e-04 2.890057609613e-03 0.0 
2.890057609613e-03 1.570312285815e-02 0.0 
0.0 0.0 0.0 
3.906149468318e-04 1.168023181055e-03 0.0 
1.168023181055e-03 -4.680658716724e-03 0.0 
0.0 0.0 0.0 
5.566309409304e-04 3.146976863984e-03 0.0 
3.146976863984e-03 9.092099306630e-03 0.0 
0.0 0.0 0.0 
-1.078891388331e-03 1.591307956655e-04 0.0 
1.591307956655e-04 1.650767984788e-02 0.0 
0.0 0.0 0.0 
-3.026807371308e-04 8.760454629072e-04 0.0 
8.760454629072e-04 1.736821296509e-02 0.0 
0.0 0.0 0.0 
0.0 2.593290797302e-03 0.0 
2.593290797302e-03 8.513573555714e-03 0.0 
0.0 0.0 0.0 
-1.166783162738e-03 -3.087265327462e-06 0.0 
-3.087265327462e-06 1.602107783246e-02 0.0 
0.0 0.0 0.0 
-7.860998255427e-05 3.599663726230e-03 0.0 
3.599663726230e-03 1.295555565555e-02 0.0 
0.0 0.0 0.0 
-8.937301843672e-04 2.547442258816e-03 0.0 
2.547442258816e-03 1.589445689040e-02 0.0 
0.0 0.0 0.0 
-1.081652400277e-03 1.138513450755e-04 0.0 
1.138513450755e-04 1.624521653422e-02 0.0 
0.0 0.0 0.0 
-1.426102343447e-04 3.459324183517e-03 0.0 
3.459324183517e-03 1.247798194394e-02 0.0 
0.0 0.0 0.0 
6.438070871062e-05 -2.448712670413e-04 0.0 
-2.448712670413e-04 2.971660844457e-03 0.0 
0.0 0.0 0.0 
-1.340869110379e-03 -7.181153976582e-06 0.0 
-7.181153976582e-06 1.458003381828e-02 0.0 
0.0 0.0 0.0 
6.409911573537e-04 3.120319935697e-03 0.0 
3.120319935697e-03 8.780873935094e-03 0.0 
0.0 0.0 0.0 
-2.869545816846e-04 1.245347143556e-04 0.0 
1.245347143556e-04 1.747471331209e-02 0.0 
0.0 0.0 0.0 
7.113958085647e-04 7.278730944788e-06 0.0 
7.278730944788e-06 -2.138945256166e-04 0.0 
0.0 0.0 0.0 
-1.332033096421e-03 2.005291012259e-05 0.0 
2.005291012259e-05 1.460536383899e-02 0.0 
0.0 0.0 0.0 
2.797896848517e-05 -9.305823252863e-06 0.0 
-9.305823252863e-06 7.324984577876e-03 0.0 
0.0 0.0 0.0 
5.104788743360e-05 -3.295191110531e-04 0.0 
-3.295191110531e-04 1.323540158839e-03 0.0 
0.0 0.0 0.0 
1.059916807104e-03 1.745362138514e-03 0.0 
1.745362138514e-03 6.620086960179e-03 0.0 
0.0 0.0 0.0 
-8.535852796795e-04 2.928729468472e-03 0.0 
2.928729468472e-03 1.513790962491e-02 0.0 
0.0 0.0 0.0 
-5.560752380647e-04 7.747855081991e-04 0.0 
7.747855081991e-04 1.736622928427e-02 0.0 
0.0 0.0 0.0 
1.901314615533e-04 -1.943459413846e-04 0.0 
-1.943459413846e-04 1.228524971986e-03 0.0 
0.0 0.0 0.0 
1.144678728309e-04 3.450360668992e-03 0.0 
3.450360668992e-03 -1.638687334875e-03 0.0 
0.0 0.0 0.0 
1.050229210373e-04 2.027798085655e-05 0.0 
2.027798085655e-05 4.257289644466e-03 0.0 
0.0 0.0 0.0 
-8.496250134796e-04 1.651260799657e-04 0.0 
1.651260799657e-04 1.682565146282e-02 0.0 
0.0 0.0 0.0 
-4.702340548217e-03 -3.431723544600e-04 0.0 
-3.431723544600e-04 -2.566934083261e-03 0.0 
0.0 0.0 0.0 
-3.985281232513e-04 2.187666530475e-03 0.0 
2.187666530475e-03 1.657689983972e-02 0.0 
0.0 0.0 0.0 
-1.160573755533e-03 7.412295208293e-05 0.0 
7.412295208293e-05 1.591647795132e-02 0.0 
0.0 0.0 0.0 
-9.897378954371e-05 -2.446424332025e-03 0.0 
-2.446424332025e-03 -2.267672512064e-04 0.0 
0.0 0.0 0.0 
-1.262936018525e-03 9.055845266400e-05 0.0 
9.055845266400e-05 1.567129068023e-02 0.0 
0.0 0.0 0.0 
4.236046577937e-04 3.368530981609e-03 0.0 
3.368530981609e-03 9.468092571690e-03 0.0 
0.0 0.0 0.0 
1.162535993056e-04 -6.342249050074e-05 0.0 
-6.342249050074e-05 4.450324843053e-03 0.0 
0.0 0.0 0.0 
-2.191586950738e-03 3.407092223517e-03 0.0 
3.407092223517e-03 3.016003443310e-04 0.0 
0.0 0.0 0.0 
5.038557156745e-05 -2.819367013607e-04 0.0 
-2.819367013607e-04 2.712739549750e-03 0.0 
0.0 0.0 0.0 
1.495490964887e-04 -2.340031131359e-04 0.0 
-2.340031131359e-04 3.866438522363e-03 0.0 
0.0 0.0 0.0 
1.297135793543e-04 3.010757123696e-05 0.0 
3.010757123696e-05 4.632049554777e-03 0.0 
0.0 0.0 0.0 
6.913092391534e-04 2.716922823801e-03 0.0 
2.716922823801e-03 7.996911798579e-03 0.0 
0.0 0.0 0.0 
9.869236099269e-05 -1.449010006999e-04 0.0 
-1.449010006999e-04 3.787572150278e-03 0.0 
0.0 0.0 0.0 
1.335644835707e-04 -1.435854170580e-04 0.0 
-1.435854170580e-04 4.033496354132e-03 0.0 
0.0 0.0 0.0 
7.559941857371e-05 -2.399136659923e-04 0.0 
-2.399136659923e-04 5.858991568164e-04 0.0 
0.0 0.0 0.0 
2.994914168482e-04 2.611671533154e-04 0.0 
2.611671533154e-04 6.682592817659e-03 0.0 
0.0 0.0 0.0 
3.467656956779e-04 3.369755955503e-03 0.0 
3.369755955503e-03 1.018776975693e-02 0.0 
0.0 0.0 0.0 
7.388679796163e-04 3.088081414572e-03 0.0 
3.088081414572e-03 -1.962140838962e-03 0.0 
0.0 0.0 0.0 
-2.370616858679e-04 1.135886848926e-04 0.0 
1.135886848926e-04 1.746740414375e-02 0.0 
0.0 0.0 0.0 
2.128292773640e-05 3.199240930664e-05 0.0 
3.199240930664e-05 7.312861286117e-03 0.0 
0.0 0.0 0.0 
-1.325809877953e-03 -2.293138774203e-05 0.0 
-2.293138774203e-05 1.490174016356e-02 0.0 
0.0 0.0 0.0 
-1.205664713859e-03 6.316071785825e-05 0.0 
6.316071785825e-05 1.591488131307e-02 0.0 
0.0 0.0 0.0 
1.070481228143e-04 -1.670828892958e-04 0.0 
-1.670828892958e-04 3.790020441686e-03 0.0 
0.0 0.0 0.0 
1.228610795760e-04 -1.980505742535e-04 0.0 
-1.980505742535e-04 3.850497650220e-03 0.0 
0.0 0.0 0.0 
9.958030753654e-05 -1.199021186498e-04 0.0 
-1.199021186498e-04 4.021255524623e-03 0.0 
0.0 0.0 0.0 
1.161336451476e-03 1.750986067070e-03 0.0 
1.750986067070e-03 6.230760894665e-03 0.0 
0.0 0.0 0.0 
-3.854576731394e-04 -2.034395538742e-03 0.0 
-2.034395538742e-03 4.707081146713e-04 0.0 
0.0 0.0 0.0 
1.592854124812e-04 3.547872371782e-03 0.0 
3.547872371782e-03 1.088033167639e-02 0.0 
0.0 0.0 0.0 
-1.274912372022e-03 3.908954170058e-05 0.0 
3.908954170058e-05 1.525624630146e-02 0.0 
0.0 0.0 0.0 
-7.703143372177e-04 2.098204349820e-03 0.0 
2.098204349820e-03 1.669170297539e-02 0.0 
0.0 0.0 0.0 
1.022932220754e-03 1.617996939663e-03 0.0 
1.617996939663e-03 6.214744231118e-03 0.0 
0.0 0.0 0.0 
-1.323381807536e-03 8.559964854961e-05 0.0 
8.559964854961e-05 1.567708604399e-02 0.0 
0.0 0.0 0.0 
-1.459931729105e-04 3.398090307572e-03 0.0 
3.398090307572e-03 1.225541595426e-02 0.0 
0.0 0.0 0.0 
7.410593964936e-04 2.748827444639e-03 0.0 
2.748827444639e-03 7.984021408098e-03 0.0 
0.0 0.0 0.0 
6.077502420134e-04 3.031593668061e-03 0.0 
3.031593668061e-03 8.608333331893e-03 0.0 
0.0 0.0 0.0 
-9.471952776391e-04 3.327842034278e-03 0.0 
3.327842034278e-03 -1.760925339740e-03 0.0 
0.0 0.0 0.0 
-2.648471482278e-04 3.408894028099e-03 0.0 
3.408894028099e-03 1.225458313340e-02 0.0 
0.0 0.0 0.0 
-3.483680324956e-05 3.633821669533e-03 0.0 
3.633821669533e-03 1.205470455403e-02 0.0 
0.0 0.0 0.0 
3.042850936381e-04 -1.998895056385e-04 0.0 
-1.998895056385e-04 5.469604714294e-04 0.0 
0.0 0.0 0.0 
9.992975289252e-05 -2.168988409510e-04 0.0 
-2.168988409510e-04 3.585968955149e-03 0.0 
0.0 0.0 0.0 
-1.316271750603e-03 3.293995476929e-03 0.0 
3.293995476929e-03 -1.700372002246e-03 0.0 
0.0 0.0 0.0 
-2.864274647482e-04 3.602792716132e-03 0.0 
3.602792716132e-03 1.275854138019e-02 0.0 
0.0 0.0 0.0 

TENSORS element_materi_strain_plasti float
-6.466164772809e-04 8.245090744215e-04 0.0 
8.245090744215e-04 2.707374572581e-03 0.0 
0.0 0.0 -4.220722639049e-04 
-5.850828050599e-04 4.087408186800e-04 0.0 
4.087408186800e-04 2.442724633431e-03 0.0 
0.0 0.0 -4.303330772826e-04 
-1.282095494807e-03 4.001741098009e-04 0.0 
4.001741098009e-04 8.226379453025e-03 0.0 
0.0 0.0 -1.278236581085e-03 
-1.295884943363e-03 -1.217266030679e-04 0.0 
-1.217266030679e-04 8.480174258718e-03 0.0 
0.0 0.0 -1.255598393855e-03 
-9.118044046819e-04 2.773302772114e-04 0.0 
2.773302772114e-04 5.301634366726e-03 0.0 
0.0 0.0 -7.961861350945e-04 
2.510626383067e-04 3.899924767601e-04 0.0 
3.899924767601e-04 -1.017744063528e-06 0.0 
0.0 0.0 -1.071620975328e-04 
-8.944012644099e-04 3.000213301662e-04 0.0 
3.000213301662e-04 5.255597081572e-03 0.0 
0.0 0.0 -8.011023898636e-04 
-6.111001276048e-04 8.133198202813e-04 0.0 
8.133198202813e-04 2.541489709150e-03 0.0 
0.0 0.0 -4.045669272905e-04 
-9.178969371214e-04 -2.491713150355e-04 0.0 
-2.491713150355e-04 5.331335701126e-03 0.0 
0.0 0.0 -7.977904104816e-04 
-1.281432177268e-03 3.076617140319e-04 0.0 
3.076617140319e-04 8.397045163972e-03 0.0 
0.0 0.0 -1.253060141438e-03 
-1.093573439511e-03 5.627509268443e-05 0.0 
5.627509268443e-05 5.667510059544e-03 0.0 
0.0 0.0 -8.816510380685e-04 
-5.787511837025e-04 6.777709678412e-04 0.0 
6.777709678412e-04 2.088119972159e-03 0.0 
0.0 0.0 -3.735031833740e-04 
-1.326305648993e-03 1.334625464656e-04 0.0 
1.334625464656e-04 8.251440389062e-03 0.0 
0.0 0.0 -1.259187713256e-03 
-9.724653634380e-04 3.053641968768e-04 0.0 
3.053641968768e-04 5.663135226582e-03 0.0 
0.0 0.0 -8.526168115438e-04 
-1.330762641967e-03 -3.008650578863e-04 0.0 
-3.008650578863e-04 8.383102825445e-03 0.0 
0.0 0.0 -1.289538875031e-03 
-1.321345684109e-03 2.719191787034e-04 0.0 
2.719191787034e-04 8.617215783831e-03 0.0 
0.0 0.0 -1.285984941237e-03 
-9.140896497734e-04 7.519541139522e-05 0.0 
7.519541139522e-05 5.296976735505e-03 0.0 
0.0 0.0 -7.740676797406e-04 
0.0 0.0 0.0 
0.0 0.0 0.0 
0.0 0.0 0.0 
-3.519099227855e-04 -1.443334347486e-04 0.0 
-1.443334347486e-04 1.817532010240e-03 0.0 
0.0 0.0 -2.776016825098e-04 
-3.997644766498e-04 4.954726061119e-05 0.0 
4.954726061119e-05 1.673764597630e-03 0.0 
0.0 0.0 -3.031105466646e-04 
-1.276969282696e-03 -1.363061038713e-04 0.0 
-1.363061038713e-04 8.471794626493e-03 0.0 
0.0 0.0 -1.250388265701e-03 
-6.432162703731e-04 5.512102898043e-04 0.0 
5.512102898043e-04 2.885045796034e-03 0.0 
0.0 0.0 -4.811142067971e-04 
-6.884954101540e-04 3.994199898237e-04 0.0 
3.994199898237e-04 3.234457200495e-03 0.0 
0.0 0.0 -5.091556215902e-04 
-1.086615628820e-03 -2.931322765965e-04 0.0 
-2.931322765965e-04 7.458132473520e-03 0.0 
0.0 0.0 -1.210372970477e-03 
-1.022288100468e-03 3.987168263927e-04 0.0 
3.987168263927e-04 6.009421001038e-03 0.0 
0.0 0.0 -9.130988374533e-04 
-1.132573975630e-03 -2.410939857696e-04 0.0 
-2.410939857696e-04 6.073086075411e-03 0.0 
0.0 0.0 -9.179597371190e-04 
-8.591992327558e-04 1.320513177097e-04 0.0 
1.320513177097e-04 4.879471040969e-03 0.0 
0.0 0.0 -7.148082707961e-04 
-1.227939719405e-03 4.897213587292e-04 0.0 
4.897213587292e-04 8.231185118654e-03 0.0 
0.0 0.0 -1.266047838742e-03 
-1.043323281561e-03 -5.190539471628e-05 0.0 
-5.190539471628e-05 6.052750555350e-03 0.0 
0.0 0.0 -9.113908267906e-04 
-1.155289536852e-03 -1.768880545786e-05 0.0 
-1.768880545786e-05 7.700571454284e-03 0.0 
0.0 0.0 -1.237914324842e-03 
3.591818895870e-04 -1.087919908418e-03 0.0 
-1.087919908418e-03 2.306926407283e-04 0.0 
0.0 0.0 -2.528033701351e-04 
-5.253251415500e-05 -7.346267826167e-05 0.0 
-7.346267826167e-05 5.706227414438e-04 0.0 
0.0 0.0 -1.059755802940e-04 
-1.328657286874e-03 4.996781592111e-04 0.0 
4.996781592111e-04 8.531045122136e-03 0.0 
0.0 0.0 -1.261301343383e-03 
-1.246135843572e-03 -2.165566539215e-04 0.0 
-2.165566539215e-04 7.113329539199e-03 0.0 
0.0 0.0 -1.090200430068e-03 
-1.222640564805e-03 -5.172125954847e-04 0.0 
-5.172125954847e-04 8.023175699372e-03 0.0 
0.0 0.0 -1.254989870190e-03 
-1.362336754091e-03 1.038272021812e-04 0.0 
1.038272021812e-04 8.593232231463e-03 0.0 
0.0 0.0 -1.314886350686e-03 
-1.333817909252e-03 -6.741910836282e-04 0.0 
-6.741910836282e-04 8.572481383167e-03 0.0 
0.0 0.0 -1.314653105918e-03 
-1.152787385481e-03 3.395804623759e-04 0.0 
3.395804623759e-04 7.780236807800e-03 0.0 
0.0 0.0 -1.264739017786e-03 
-8.345100331917e-04 -3.032908507100e-04 0.0 
-3.032908507100e-04 4.793915913410e-03 0.0 
0.0 0.0 -7.380763454961e-04 
-8.314689275844e-04 3.674750294880e-04 0.0 
3.674750294880e-04 4.862282802739e-03 0.0 
0.0 0.0 -7.371174501546e-04 
-7.446435526587e-04 2.495366517639e-04 0.0 
2.495366517639e-04 3.730189536197e-03 0.0 
0.0 0.0 -5.794556523337e-04 
-1.240577876015e-03 -2.606603701506e-04 0.0 
-2.606603701506e-04 7.945807599574e-03 0.0 
0.0 0.0 -1.280756488215e-03 
-5.279799311040e-04 1.102170611227e-03 0.0 
1.102170611227e-03 1.773978523889e-03 0.0 
0.0 0.0 -3.207852484642e-04 
-8.673432961900e-04 2.038482856540e-04 0.0 
2.038482856540e-04 4.641456270313e-03 0.0 
0.0 0.0 -7.350059072715e-04 
-1.271467539957e-03 -7.879660805606e-05 0.0 
-7.879660805606e-05 8.302426141521e-03 0.0 
0.0 0.0 -1.212858513926e-03 
-5.775885694842e-04 8.848405614820e-04 0.0 
8.848405614820e-04 1.777381832978e-03 0.0 
0.0 0.0 -3.198426158856e-04 
2.130878448261e-04 -2.803383724960e-04 0.0 
-2.803383724960e-04 -1.640750498908e-05 0.0 
0.0 0.0 -8.429157421588e-05 
-1.252952730617e-03 9.194498370430e-05 0.0 
9.194498370430e-05 8.113365198973e-03 0.0 
0.0 0.0 -1.234743356787e-03 
1.618564024126e-06 -4.086337075163e-06 0.0 
-4.086337075163e-06 6.435399236587e-07 0.0 
0.0 0.0 -9.694731204793e-07 
-9.377652680597e-04 -7.279277581159e-05 0.0 
-7.279277581159e-05 5.473641853479e-03 0.0 
0.0 0.0 -8.229436299569e-04 
-7.184238485782e-04 3.283816114982e-04 0.0 
3.283816114982e-04 3.500159598670e-03 0.0 
0.0 0.0 -5.440916476828e-04 
-4.407403860860e-04 -1.000193585770e-04 0.0 
-1.000193585770e-04 2.276874889741e-03 0.0 
0.0 0.0 -3.443810396916e-04 
3.693556118723e-04 -1.150080954677e-03 0.0 
-1.150080954677e-03 2.564828416198e-04 0.0 
0.0 0.0 -2.682164800680e-04 
-6.981340931129e-04 4.826618162809e-04 0.0 
4.826618162809e-04 3.375109354798e-03 0.0 
0.0 0.0 -5.489460876789e-04 
-1.294047200749e-03 3.426820678350e-04 0.0 
3.426820678350e-04 8.360890520438e-03 0.0 
0.0 0.0 -1.282189168212e-03 
-6.426921289281e-04 -2.477141885566e-04 0.0 
-2.477141885566e-04 2.972149177427e-03 0.0 
0.0 0.0 -4.512233509908e-04 
-5.071100590753e-04 7.724547813732e-05 0.0 
7.724547813732e-05 2.167123717160e-03 0.0 
0.0 0.0 -3.694212080277e-04 
-1.248804674603e-03 1.204053078386e-04 0.0 
1.204053078386e-04 7.152497866114e-03 0.0 
0.0 0.0 -1.087734043504e-03 
-2.199405617637e-04 -6.207470745057e-05 0.0 
-6.207470745057e-05 1.342683867831e-03 0.0 
0.0 0.0 -2.189683579105e-04 
-1.315587936217e-03 -1.318704737137e-04 0.0 
-1.318704737137e-04 8.629398526663e-03 0.0 
0.0 0.0 -1.285320035817e-03 
0.0 0.0 0.0 
0.0 0.0 0.0 
0.0 0.0 0.0 
-1.104248090582e-03 6.042449065024e-04 0.0 
6.042449065024e-04 7.502345308807e-03 0.0 
0.0 0.0 -1.210824713543e-03 
-6.118289487359e-04 1.052783847498e-03 0.0 
1.052783847498e-03 3.133960488999e-03 0.0 
0.0 0.0 -5.497085007362e-04 
3.930006713422e-04 -1.150166211052e-03 0.0 
-1.150166211052e-03 2.323329664583e-04 0.0 
0.0 0.0 -2.680001304859e-04 
-1.319367167403e-03 -3.421260873299e-04 0.0 
-3.421260873299e-04 8.223808012733e-03 0.0 
0.0 0.0 -1.257478522087e-03 
-6.824305458781e-04 5.038519007458e-04 0.0 
5.038519007458e-04 3.122644429912e-03 0.0 
0.0 0.0 -5.137572693775e-04 
0.0 0.0 0.0 
0.0 0.0 0.0 
0.0 0.0 0.0 
-1.302579274791e-03 3.856077973971e-04 0.0 
3.856077973971e-04 8.474035595977e-03 0.0 
0.0 0.0 -1.261660853087e-03 
-3.055720632183e-04 -1.064577386819e-03 0.0 
-1.064577386819e-03 1.239084830307e-03 0.0 
0.0 0.0 -3.052032381971e-04 
-1.275451108923e-03 4.835577884085e-04 0.0 
4.835577884085e-04 8.123671911160e-03 0.0 
0.0 0.0 -1.282376455277e-03 
-1.145904955508e-03 -3.118374997867e-04 0.0 
-3.118374997867e-04 6.272168097955e-03 0.0 
0.0 0.0 -9.556290573178e-04 
-1.338499280800e-03 2.408371898962e-04 0.0 
2.408371898962e-04 8.775782511843e-03 0.0 
0.0 0.0 -1.338499280800e-03 
-1.192625588921e-03 4.461210467852e-04 0.0 
4.461210467852e-04 7.634783606740e-03 0.0 
0.0 0.0 -1.232909111256e-03 
-2.127254236185e-05 1.891430361426e-04 0.0 
1.891430361426e-04 5.160571140730e-04 0.0 
0.0 0.0 -1.295286970291e-04 
-6.935849542252e-04 2.344127444435e-05 0.0 
2.344127444435e-05 2.990888035910e-03 0.0 
0.0 0.0 -4.777371989943e-04 
-1.295701123542e-03 1.509088819434e-05 0.0 
1.509088819434e-05 8.469943460322e-03 0.0 
0.0 0.0 -1.262626981217e-03 
-1.324502073679e-03 3.744328644393e-04 0.0 
3.744328644393e-04 8.596934185840e-03 0.0 
0.0 0.0 -1.265352048664e-03 
-2.411922616665e-04 1.053006289260e-03 0.0 
1.053006289260e-03 1.157414957781e-03 0.0 
0.0 0.0 -3.599094611647e-04 
-2.769907565586e-04 -8.829481836090e-05 0.0 
-8.829481836090e-05 1.134623594574e-03 0.0 
0.0 0.0 -2.366757893512e-04 
-2.181753936334e-04 1.161392611074e-03 0.0 
1.161392611074e-03 1.149876313961e-03 0.0 
0.0 0.0 -3.564703237892e-04 
-2.758740996359e-04 -8.746279552454e-04 0.0 
-8.746279552454e-04 1.152039496951e-03 0.0 
0.0 0.0 -3.439500825601e-04 
-8.978965614641e-04 9.154439014956e-05 0.0 
9.154439014956e-05 5.029293334098e-03 0.0 
0.0 0.0 -7.918363975426e-04 
-6.733819819602e-04 4.712092501630e-04 0.0 
4.712092501630e-04 3.018715837704e-03 0.0 
0.0 0.0 -4.749402310763e-04 
-6.256408849580e-04 5.270574211380e-04 0.0 
5.270574211380e-04 2.559551606748e-03 0.0 
0.0 0.0 -4.438329512050e-04 
-9.725152992593e-04 -1.918915712341e-04 0.0 
-1.918915712341e-04 5.553894553160e-03 0.0 
0.0 0.0 -8.336771054075e-04 
-9.515395304919e-04 2.688463451821e-04 0.0 
2.688463451821e-04 5.521722972354e-03 0.0 
0.0 0.0 -8.358076868167e-04 
-1.183410575090e-03 -2.693387168119e-04 0.0 
-2.693387168119e-04 6.452199734420e-03 0.0 
0.0 0.0 -9.867109252839e-04 
-1.231001359755e-03 1.776752657648e-04 0.0 
1.776752657648e-04 6.972617785685e-03 0.0 
0.0 0.0 -1.058576829647e-03 
-1.159508113008e-03 2.069980553471e-04 0.0 
2.069980553471e-04 7.153965750682e-03 0.0 
0.0 0.0 -1.085941371602e-03 
-9.167398449037e-04 -2.379223024375e-04 0.0 
-2.379223024375e-04 5.214431434648e-03 0.0 
0.0 0.0 -7.983229688164e-04 
-9.629239381275e-05 -7.847678025284e-05 0.0 
-7.847678025284e-05 3.293444492904e-04 0.0 
0.0 0.0 -9.987945234756e-05 
-9.298280525188e-04 1.832074445445e-04 0.0 
1.832074445445e-04 5.072594773826e-03 0.0 
0.0 0.0 -7.928983479555e-04 
-1.152068192651e-03 -8.618068735251e-05 0.0 
-8.618068735251e-05 7.066072062095e-03 0.0 
0.0 0.0 -1.069439317440e-03 
-1.125567912536e-03 1.438213412546e-04 0.0 
1.438213412546e-04 7.130378012797e-03 0.0 
0.0 0.0 -1.046447409317e-03 
-1.354248964991e-03 2.488047583645e-04 0.0 
2.488047583645e-04 9.041954327214e-03 0.0 
0.0 0.0 -1.319970921405e-03 
-1.236862548615e-03 6.047335938228e-05 0.0 
6.047335938228e-05 8.106142459015e-03 0.0 
0.0 0.0 -1.294194962782e-03 
-9.013588349204e-04 -3.564785080674e-05 0.0 
-3.564785080674e-05 5.032133509131e-03 0.0 
0.0 0.0 -7.889745663688e-04 
-1.254766552398e-03 -3.118115606911e-04 0.0 
-3.118115606911e-04 8.236373731402e-03 0.0 
0.0 0.0 -1.263183913703e-03 
-9.880175404899e-04 -1.466486724576e-04 0.0 
-1.466486724576e-04 5.952185502159e-03 0.0 
0.0 0.0 -9.040008563810e-04 
-6.291314004619e-04 6.895076894316e-04 0.0 
6.895076894316e-04 3.149500208419e-03 0.0 
0.0 0.0 -5.198799001330e-04 
-8.730449846052e-04 -1.408519575968e-04 0.0 
-1.408519575968e-04 5.083535477325e-03 0.0 
0.0 0.0 -7.643292725053e-04 
-1.347992785810e-03 5.931491654167e-05 0.0 
5.931491654167e-05 8.400156878011e-03 0.0 
0.0 0.0 -1.287517816355e-03 
-8.262228282774e-04 1.447902815746e-04 0.0 
1.447902815746e-04 6.297334361413e-03 0.0 
0.0 0.0 -1.043751955586e-03 
-1.104569420112e-03 1.448019849648e-04 0.0 
1.448019849648e-04 7.556047747294e-03 0.0 
0.0 0.0 -1.209599240962e-03 
-4.538367894760e-04 9.757826283504e-04 0.0 
9.757826283504e-04 2.565554738313e-03 0.0 
0.0 0.0 -4.747543016519e-04 
2.029884590449e-04 -8.599336091252e-04 0.0 
-8.599336091252e-04 2.611091082078e-04 0.0 
0.0 0.0 -1.988989573940e-04 
-1.297459135418e-03 -2.747475562559e-04 0.0 
-2.747475562559e-04 7.787009671767e-03 0.0 
0.0 0.0 -1.189902873528e-03 
-1.189086276409e-03 1.093944519264e-04 0.0 
1.093944519264e-04 7.587261230545e-03 0.0 
0.0 0.0 -1.108790581071e-03 
7.624507231963e-05 -2.164748674539e-04 0.0 
-2.164748674539e-04 4.178589710884e-05 0.0 
0.0 0.0 -5.058470118363e-05 
-1.283662232086e-03 -3.116749921630e-04 0.0 
-3.116749921630e-04 8.203749873262e-03 0.0 
0.0 0.0 -1.285127980003e-03 
-1.117454671525e-03 5.890310527375e-04 0.0 
5.890310527375e-04 6.771147145683e-03 0.0 
0.0 0.0 -1.051491716222e-03 
2.129630744421e-04 -9.499020889305e-05 0.0 
-9.499020889305e-05 2.730652041404e-04 0.0 
0.0 0.0 -1.433710470045e-04 
-4.646091997464e-04 1.130911332871e-03 0.0 
1.130911332871e-03 3.315295093012e-03 0.0 
0.0 0.0 -6.309931931857e-04 
-8.659480951891e-04 9.706201231431e-05 0.0 
9.706201231431e-05 4.691930850523e-03 0.0 
0.0 0.0 -7.153918394734e-04 
-8.128195131981e-04 -2.696429011542e-04 0.0 
-2.696429011542e-04 3.582326768313e-03 0.0 
0.0 0.0 -5.772375537024e-04 
-5.795319369569e-04 9.930078575254e-04 0.0 
9.930078575254e-04 2.722691248666e-03 0.0 
0.0 0.0 -4.852398935310e-04 
-5.900753072712e-04 6.920056491215e-04 0.0 
6.920056491215e-04 3.182816884513e-03 0.0 
0.0 0.0 -5.471823052058e-04 
-1.301859315623e-03 -1.904737940513e-04 0.0 
-1.904737940513e-04 8.142812636608e-03 0.0 
0.0 0.0 -1.283833066805e-03 
-9.523212659311e-04 1.958273368285e-04 0.0 
1.958273368285e-04 5.865970295395e-03 0.0 
0.0 0.0 -8.766975940251e-04 
-5.541698138184e-04 1.190551615049e-03 0.0 
1.190551615049e-03 2.836925707114e-03 0.0 
0.0 0.0 -5.122473358773e-04 
-4.084206622420e-04 -7.278847424947e-04 0.0 
-7.278847424947e-04 1.354708172608e-03 0.0 
0.0 0.0 -2.295267891405e-04 
-9.046551402062e-04 3.103540058347e-04 0.0 
3.103540058347e-04 5.221480629983e-03 0.0 
0.0 0.0 -7.744920945421e-04 
-1.163420538902e-03 -6.301653344554e-05 0.0 
-6.301653344554e-05 7.412623996309e-03 0.0 
0.0 0.0 -1.129288753466e-03 
-5.271843801054e-04 7.884919210617e-04 0.0 
7.884919210617e-04 2.864417005275e-03 0.0 
0.0 0.0 -5.109724225979e-04 
5.534592465795e-05 9.039028363928e-04 0.0 
9.039028363928e-04 4.831251439840e-04 0.0 
0.0 0.0 -2.307733151323e-04 
-8.073832098114e-04 1.503125105249e-04 0.0 
1.503125105249e-04 4.217521397372e-03 0.0 
0.0 0.0 -6.470401313397e-04 
-8.043937078593e-04 -1.245165173277e-04 0.0 
-1.245165173277e-04 3.751204721582e-03 0.0 
0.0 0.0 -5.578851714504e-04 
-7.622885537649e-04 4.316670476422e-04 0.0 
4.316670476422e-04 3.890857300125e-03 0.0 
0.0 0.0 -6.167189930163e-04 
-1.313795093192e-03 3.745855682538e-04 0.0 
3.745855682538e-04 8.614675897131e-03 0.0 
0.0 0.0 -1.290671971449e-03 
1.991130479106e-04 9.381873505590e-04 0.0 
9.381873505590e-04 3.095528624407e-04 0.0 
0.0 0.0 -2.179996758648e-04 
-1.118912346163e-03 3.069253467211e-05 0.0 
3.069253467211e-05 5.953637467028e-03 0.0 
0.0 0.0 -9.216843799351e-04 
-1.302832962065e-03 2.769223245220e-04 0.0 
2.769223245220e-04 8.470819943817e-03 0.0 
0.0 0.0 -1.256690274141e-03 
-7.596340248727e-04 7.382796594352e-04 0.0 
7.382796594352e-04 4.031537584483e-03 0.0 
0.0 0.0 -6.588732905211e-04 
-7.779772953584e-04 1.836806670251e-04 0.0 
1.836806670251e-04 3.983301519145e-03 0.0 
0.0 0.0 -6.139229799761e-04 
-1.231803605678e-03 -5.782093166128e-05 0.0 
-5.782093166128e-05 8.028152931577e-03 0.0 
0.0 0.0 -1.254964138299e-03 
-1.328106245368e-03 -3.359343714767e-04 0.0 
-3.359343714767e-04 8.269862829300e-03 0.0 
0.0 0.0 -1.261070974318e-03 
-1.177616370787e-03 5.503788424212e-05 0.0 
5.503788424212e-05 6.447345049328e-03 0.0 
0.0 0.0 -9.873713238705e-04 
-7.975389004980e-04 3.851368616877e-04 0.0 
3.851368616877e-04 4.370903509068e-03 0.0 
0.0 0.0 -6.916138708610e-04 
-1.195768822005e-03 -1.347190958518e-04 0.0 
-1.347190958518e-04 8.136693957771e-03 0.0 
0.0 0.0 -1.270330610962e-03 
-7.600104695776e-04 6.621541633523e-04 0.0 
6.621541633523e-04 3.915062890853e-03 0.0 
0.0 0.0 -6.326048069937e-04 
-1.276977184880e-03 1.361446544635e-04 0.0 
1.361446544635e-04 8.444479482518e-03 0.0 
0.0 0.0 -1.283174495648e-03 
-1.281656246909e-03 5.918270400850e-04 0.0 
5.918270400850e-04 8.394460336114e-03 0.0 
0.0 0.0 -1.267437373369e-03 
-9.916900482218e-04 -1.353869196216e-04 0.0 
-1.353869196216e-04 5.594925371490e-03 0.0 
0.0 0.0 -8.543707170918e-04 
-1.059679930627e-03 2.378363673836e-04 0.0 
2.378363673836e-04 6.573353481791e-03 0.0 
0.0 0.0 -9.817831382938e-04 
-7.605699351815e-04 3.748556655775e-04 0.0 
3.748556655775e-04 3.967103975153e-03 0.0 
0.0 0.0 -6.293189184696e-04 
-7.420000060583e-04 4.704307559795e-04 0.0 
4.704307559795e-04 3.646692949105e-03 0.0 
0.0 0.0 -5.830241378053e-04 
-8.001161774359e-04 7.418992546282e-04 0.0 
7.418992546282e-04 4.429271101410e-03 0.0 
0.0 0.0 -7.211932326589e-04 
-4.509036314279e-04 9.161005774141e-04 0.0 
9.161005774141e-04 2.969896787124e-03 0.0 
0.0 0.0 -5.383041810906e-04 
-8.768683131663e-04 -1.698577199285e-04 0.0 
-1.698577199285e-04 5.218733852389e-03 0.0 
0.0 0.0 -7.693993191400e-04 
-3.984078038155e-04 7.031353492297e-04 0.0 
7.031353492297e-04 3.390130310364e-03 0.0 
0.0 0.0 -6.275039421266e-04 
-8.830553488541e-05 -1.169663280731e-04 0.0 
-1.169663280731e-04 3.137961635653e-04 0.0 
0.0 0.0 -9.663884086279e-05 
-9.202478516251e-04 -5.770930012148e-06 0.0 
-5.770930012148e-06 5.620779502953e-03 0.0 
0.0 0.0 -8.171079392438e-04 
-3.114395398576e-04 -3.263303537109e-05 0.0 
-3.263303537109e-05 1.213615237241e-03 0.0 
0.0 0.0 -2.373169254524e-04 
-8.400103073364e-04 1.183268532165e-04 0.0 
1.183268532165e-04 4.465364634510e-03 0.0 
0.0 0.0 -6.809683978454e-04 
-1.226720591274e-03 -2.033245432446e-04 0.0 
-2.033245432446e-04 7.901279716244e-03 0.0 
0.0 0.0 -1.284796145094e-03 
-5.032521871548e-04 1.323397128945e-03 0.0 
1.323397128945e-03 2.524146629484e-03 0.0 
0.0 0.0 -4.767992880414e-04 
-1.206015416419e-03 1.351161918146e-04 0.0 
1.351161918146e-04 6.706761080456e-03 0.0 
0.0 0.0 -1.021089721936e-03 
-5.854397783758e-04 6.900577011398e-04 0.0 
6.900577011398e-04 2.034319527358e-03 0.0 
0.0 0.0 -3.540742325023e-04 
-8.487428613626e-04 6.354315705334e-04 0.0 
6.354315705334e-04 6.259047629254e-03 0.0 
0.0 0.0 -1.044905595188e-03 
-9.023795236384e-04 1.774952439286e-05 0.0 
1.774952439286e-05 5.056579998417e-03 0.0 
0.0 0.0 -7.899655494116e-04 
-3.675306969511e-04 1.198984270489e-03 0.0 
1.198984270489e-03 2.958001668599e-03 0.0 
0.0 0.0 -5.931463391684e-04 
-1.266256333575e-03 -2.932543747909e-04 0.0 
-2.932543747909e-04 7.348938270472e-03 0.0 
0.0 0.0 -1.120963572432e-03 
-3.905834582402e-04 -4.908595614848e-04 0.0 
-4.908595614848e-04 1.232002034576e-03 0.0 
0.0 0.0 -2.722262904030e-04 
-1.289444217002e-03 1.239965470747e-04 0.0 
1.239965470747e-04 7.777003841897e-03 0.0 
0.0 0.0 -1.189111243166e-03 
-9.083262515729e-04 4.866804809917e-04 0.0 
4.866804809917e-04 4.963586243701e-03 0.0 
0.0 0.0 -7.711223959738e-04 
-1.340203078278e-03 -2.129693675799e-04 0.0 
-2.129693675799e-04 8.439560912258e-03 0.0 
0.0 0.0 -1.265987209193e-03 
-8.868772565118e-04 2.877464608834e-05 0.0 
2.877464608834e-05 5.056912107765e-03 0.0 
0.0 0.0 -7.842605076999e-04 
-4.245977401382e-04 1.301715382003e-03 0.0 
1.301715382003e-03 2.484999694538e-03 0.0 
0.0 0.0 -5.042822341261e-04 
-8.141088315077e-04 3.778227072886e-04 0.0 
3.778227072886e-04 4.370548075301e-03 0.0 
0.0 0.0 -6.840799553763e-04 
-1.128956121950e-03 -1.816355743224e-04 0.0 
-1.816355743224e-04 5.879621026637e-03 0.0 
0.0 0.0 -8.722824885218e-04 
-5.657686865338e-04 1.006813399921e-03 0.0 
1.006813399921e-03 2.114854539436e-03 0.0 
0.0 0.0 -3.514598124168e-04 
-2.840077947560e-04 7.374002385130e-04 0.0 
7.374002385130e-04 3.016923521918e-03 0.0 
0.0 0.0 -5.911455407098e-04 
-1.107826402130e-03 -1.895219266089e-04 0.0 
-1.895219266089e-04 6.838398808500e-03 0.0 
0.0 0.0 -1.016465148841e-03 
-8.846022414820e-04 1.673369808483e-04 0.0 
1.673369808483e-04 5.274165376609e-03 0.0 
0.0 0.0 -7.680022369673e-04 
-4.363801896578e-04 1.202422263910e-03 0.0 
1.202422263910e-03 2.876866297868e-03 0.0 
0.0 0.0 -5.666226778950e-04 
-8.017363352442e-04 3.924823248397e-04 0.0 
3.924823248397e-04 4.130177357856e-03 0.0 
0.0 0.0 -6.498546761489e-04 
-1.141214369151e-03 6.765310758862e-04 0.0 
6.765310758862e-04 7.271411604946e-03 0.0 
0.0 0.0 -1.136725521675e-03 
-8.548535662047e-04 -2.781485263044e-04 0.0 
-2.781485263044e-04 4.164865359686e-03 0.0 
0.0 0.0 -6.189190723244e-04 
-1.237707508229e-03 4.856674807990e-04 0.0 
4.856674807990e-04 7.956457412847e-03 0.0 
0.0 0.0 -1.285202198870e-03 
-1.271584492805e-03 4.859423083683e-04 0.0 
4.859423083683e-04 8.362652585957e-03 0.0 
0.0 0.0 -1.265486236287e-03 
-6.208228587870e-04 6.861521722427e-04 0.0 
6.861521722427e-04 2.794482215749e-03 0.0 
0.0 0.0 -4.595713030950e-04 
-8.601834141272e-04 -1.130024456241e-04 0.0 
-1.130024456241e-04 3.988529893684e-03 0.0 
0.0 0.0 -6.385407451345e-04 
-9.728705791535e-04 -2.427476520657e-04 0.0 
-2.427476520657e-04 7.014843591236e-03 0.0 
0.0 0.0 -1.152822474774e-03 
-7.582637832037e-04 3.173029778375e-04 0.0 
3.173029778375e-04 3.850177976745e-03 0.0 
0.0 0.0 -6.037256927378e-04 
-5.932602371824e-04 9.450171731982e-04 0.0 
9.450171731982e-04 2.345539596427e-03 0.0 
0.0 0.0 -4.251746348339e-04 
-8.883854653183e-04 4.319931064094e-04 0.0 
4.319931064094e-04 4.807571306798e-03 0.0 
0.0 0.0 -7.443430781256e-04 
-4.655628622191e-04 8.097546048135e-04 0.0 
8.097546048135e-04 3.367415080588e-03 0.0 
0.0 0.0 -6.011186688906e-04 
-1.309467600587e-03 2.274324864678e-04 0.0 
2.274324864678e-04 8.467271508597e-03 0.0 
0.0 0.0 -1.279059907835e-03 
-1.139712663312e-03 5.524271265546e-04 0.0 
5.524271265546e-04 6.895093066062e-03 0.0 
0.0 0.0 -1.060691896764e-03 
-1.282894195515e-03 1.713163621167e-04 0.0 
1.713163621167e-04 7.580646218946e-03 0.0 
0.0 0.0 -1.155968210243e-03 
-4.263760736077e-04 9.726189065638e-04 0.0 
9.726189065638e-04 1.483303861492e-03 0.0 
0.0 0.0 -3.328149423972e-04 
-1.567783780417e-04 7.459959337790e-04 0.0 
7.459959337790e-04 2.633807870816e-03 0.0 
0.0 0.0 -5.558335581882e-04 
-1.150277857659e-03 5.855176210150e-04 0.0 
5.855176210150e-04 7.056066340815e-03 0.0 
0.0 0.0 -1.089453766084e-03 
0.0 0.0 0.0 
0.0 0.0 0.0 
0.0 0.0 0.0 
-7.560981228119e-04 5.568058696449e-04 0.0 
5.568058696449e-04 3.796632807167e-03 0.0 
0.0 0.0 -6.073871274648e-04 
-8.851342185419e-04 -4.312210323728e-04 0.0 
-4.312210323728e-04 6.519433320506e-03 0.0 
0.0 0.0 -1.080675545910e-03 
-1.164869828715e-04 -1.456841600207e-04 0.0 
-1.456841600207e-04 9.923335266216e-04 0.0 
0.0 0.0 -1.605608400042e-04 
-1.274326596506e-03 6.277067703956e-04 0.0 
6.277067703956e-04 8.332587857653e-03 0.0 
0.0 0.0 -1.257517519450e-03 
-1.082557255636e-03 4.467183423513e-04 0.0 
4.467183423513e-04 6.398503814141e-03 0.0 
0.0 0.0 -9.749624431058e-04 
-5.927975267284e-04 -7.287134833264e-04 0.0 
-7.287134833264e-04 3.408230795765e-03 0.0 
0.0 0.0 -5.995223474422e-04 
-8.718953006962e-04 8.285847793953e-05 0.0 
8.285847793953e-05 6.481498684251e-03 0.0 
0.0 0.0 -1.082135573042e-03 
-9.644421873602e-04 1.848918456793e-04 0.0 
1.848918456793e-04 5.622214910538e-03 0.0 
0.0 0.0 -8.259898420369e-04 
-9.976541713563e-04 8.643209894892e-06 0.0 
8.643209894892e-06 5.944166007327e-03 0.0 
0.0 0.0 -8.838609275114e-04 
-1.149666595734e-03 -3.245227479459e-04 0.0 
-3.245227479459e-04 7.662117469895e-03 0.0 
0.0 0.0 -1.237791025003e-03 
-6.377976835771e-04 -6.114567573414e-04 0.0 
-6.114567573414e-04 2.689173763955e-03 0.0 
0.0 0.0 -4.583583101839e-04 
-7.880409547895e-04 7.989113980148e-04 0.0 
7.989113980148e-04 4.542855302031e-03 0.0 
0.0 0.0 -7.480401524272e-04 
-9.214234162491e-04 5.351887786335e-04 0.0 
5.351887786335e-04 5.111262659093e-03 0.0 
0.0 0.0 -7.988399675000e-04 
-1.125534786672e-03 7.028976634264e-05 0.0 
7.028976634264e-05 6.721724443554e-03 0.0 
0.0 0.0 -1.008548823165e-03 
-9.505406595461e-04 1.355801735478e-04 0.0 
1.355801735478e-04 5.273089753614e-03 0.0 
0.0 0.0 -8.035999206669e-04 
-8.920793708860e-04 1.354006487991e-04 0.0 
1.354006487991e-04 4.845817227354e-03 0.0 
0.0 0.0 -7.415510827328e-04 
-6.524274381720e-04 1.661117945530e-04 0.0 
1.661117945530e-04 5.489508378744e-03 0.0 
0.0 0.0 -9.414312740916e-04 
-1.133549865804e-03 2.632851943964e-04 0.0 
2.632851943964e-04 7.143578184647e-03 0.0 
0.0 0.0 -1.105110859848e-03 
0.0 0.0 0.0 
0.0 0.0 0.0 
0.0 0.0 0.0 
-5.963424256803e-04 8.235655420392e-04 0.0 
8.235655420392e-04 2.727118741511e-03 0.0 
0.0 0.0 -4.649757541953e-04 
-6.413935052421e-04 9.083237096948e-04 0.0 
9.083237096948e-04 3.060885376631e-03 0.0 
0.0 0.0 -5.249394872960e-04 
-7.860598654059e-04 4.409893248632e-04 0.0 
4.409893248632e-04 4.491993588337e-03 0.0 
0.0 0.0 -7.181710532390e-04 
-1.182550884137e-03 1.586567680609e-04 0.0 
1.586567680609e-04 7.254490089636e-03 0.0 
0.0 0.0 -1.095076276885e-03 
4.583279132942e-04 6.488863092727e-04 0.0 
6.488863092727e-04 -1.405418918227e-05 0.0 
0.0 0.0 -1.904030246194e-04 
-8.562318666799e-04 -4.982168400307e-04 0.0 
-4.982168400307e-04 6.277290697447e-03 0.0 
0.0 0.0 -1.043355442177e-03 
-8.774345447710e-04 -2.186708792855e-04 0.0 
-2.186708792855e-04 5.055368522856e-03 0.0 
0.0 0.0 -7.763349569542e-04 
-2.555112241128e-04 1.229664321452e-03 0.0 
1.229664321452e-03 2.574406854457e-03 0.0 
0.0 0.0 -5.576783925304e-04 
-8.394427967850e-04 -5.648718734432e-04 0.0 
-5.648718734432e-04 6.055308780542e-03 0.0 
0.0 0.0 -1.006238978475e-03 
-7.021339785738e-05 -2.257880490566e-04 0.0 
-2.257880490566e-04 5.234298020475e-04 0.0 
0.0 0.0 -1.250635456846e-04 
-1.135452312747e-03 4.797857508760e-04 0.0 
4.797857508760e-04 6.834881249119e-03 0.0 
0.0 0.0 -1.040010908530e-03 
8.624072222387e-05 -5.482403482058e-05 0.0 
-5.482403482058e-05 4.623552898900e-04 0.0 
0.0 0.0 -1.166360257537e-04 
-1.840491842350e-04 -5.445744923588e-05 0.0 
-5.445744923588e-05 7.493422687288e-04 0.0 
0.0 0.0 -1.819418517600e-04 
-3.913654307844e-04 1.191507394513e-03 0.0 
1.191507394513e-03 1.470311877001e-03 0.0 
0.0 0.0 -3.246947309473e-04 
-6.091026736672e-04 -6.117663185554e-04 0.0 
-6.117663185554e-04 2.275310364661e-03 0.0 
0.0 0.0 -3.935955730116e-04 
-1.177121720242e-03 9.986808741326e-05 0.0 
9.986808741326e-05 7.155425965963e-03 0.0 
0.0 0.0 -1.073797489760e-03 
-5.625078577902e-04 -9.911531115061e-04 0.0 
-9.911531115061e-04 2.166295973773e-03 0.0 
0.0 0.0 -3.637595386041e-04 
-2.431075708166e-04 1.562437016590e-03 0.0 
1.562437016590e-03 1.376800568989e-03 0.0 
0.0 0.0 -3.890718233399e-04 
1.128852675938e-04 -1.510947419960e-03 0.0 
-1.510947419960e-03 7.754974600039e-04 0.0 
0.0 0.0 -3.807354546848e-04 
-5.007957256990e-04 -4.054148446658e-04 0.0 
-4.054148446658e-04 1.463133010542e-03 0.0 
0.0 0.0 -2.670040094673e-04 
-9.159310068134e-04 1.166570594862e-04 0.0 
1.166570594862e-04 6.711157580750e-03 0.0 
0.0 0.0 -1.117524173959e-03 
-9.108885203266e-04 1.625635707661e-04 0.0 
1.625635707661e-04 5.002433540525e-03 0.0 
0.0 0.0 -7.687972329812e-04 
-1.323980336649e-03 7.113171737239e-05 0.0 
7.113171737239e-05 8.245489008711e-03 0.0 
0.0 0.0 -1.256743614961e-03 
0.0 0.0 0.0 
0.0 0.0 0.0 
0.0 0.0 0.0 
-3.330839468946e-04 1.604359709376e-03 0.0 
1.604359709376e-03 1.727019779997e-03 0.0 
0.0 0.0 -4.044045206172e-04 
-3.067142002033e-04 1.081368075103e-03 0.0 
1.081368075103e-03 3.044773964149e-03 0.0 
0.0 0.0 -6.230907113744e-04 
-7.160262700323e-04 6.408733665596e-04 0.0 
6.408733665596e-04 3.506266837881e-03 0.0 
0.0 0.0 -5.709397776106e-04 
-8.360378415299e-04 -1.180231066695e-05 0.0 
-1.180231066695e-05 6.234265106431e-03 0.0 
0.0 0.0 -1.045235091131e-03 
-1.333473067012e-03 -5.395820062031e-05 0.0 
-5.395820062031e-05 8.405361436706e-03 0.0 
0.0 0.0 -1.275930989368e-03 
-1.131889764436e-03 1.436010865761e-04 0.0 
1.436010865761e-04 6.812686989612e-03 0.0 
0.0 0.0 -1.029499106509e-03 
5.269662907404e-05 8.913991735483e-04 0.0 
8.913991735483e-04 1.741226620489e-03 0.0 
0.0 0.0 -4.564841486882e-04 
-9.276981546427e-04 -3.123244619600e-04 0.0 
-3.123244619600e-04 6.731635440410e-03 0.0 
0.0 0.0 -1.116166892424e-03 
-1.162987388940e-03 1.784362897977e-04 0.0 
1.784362897977e-04 6.231822734238e-03 0.0 
0.0 0.0 -9.512440159151e-04 
-8.362061665926e-04 3.771233097708e-04 0.0 
3.771233097708e-04 4.773003845214e-03 0.0 
0.0 0.0 -7.537083776970e-04 
-1.102280810414e-03 4.919717221224e-04 0.0 
4.919717221224e-04 6.560511914991e-03 0.0 
0.0 0.0 -1.003200534345e-03 
-1.172867451038e-03 2.356902410022e-04 0.0 
2.356902410022e-04 7.744999640819e-03 0.0 
0.0 0.0 -1.239730878702e-03 
-2.254924367537e-04 5.849015682570e-04 0.0 
5.849015682570e-04 3.115409937203e-03 0.0 
0.0 0.0 -6.206208101913e-04 
-3.928189268474e-04 1.275344444358e-03 0.0 
1.275344444358e-03 1.843263560049e-03 0.0 
0.0 0.0 -3.752687577596e-04 
-9.992253787165e-04 1.463025209614e-04 0.0 
1.463025209614e-04 5.687199852232e-03 0.0 
0.0 0.0 -8.662621843288e-04 
-1.349788229223e-03 3.426545086550e-04 0.0 
3.426545086550e-04 9.036920857709e-03 0.0 
0.0 0.0 -1.323568725688e-03 
-7.650406542385e-04 4.751592665984e-04 0.0 
4.751592665984e-04 4.601158149833e-03 0.0 
0.0 0.0 -7.453270327204e-04 
-3.775537039009e-04 2.220958575009e-04 0.0 
2.220958575009e-04 4.208109464666e-03 0.0 
0.0 0.0 -7.768443034385e-04 
-9.417507759690e-04 -3.219991258082e-05 0.0 
-3.219991258082e-05 5.716819141930e-03 0.0 
0.0 0.0 -8.293613651800e-04 
-1.509886751970e-04 -1.135282332652e-03 0.0 
-1.135282332652e-03 1.017427284165e-03 0.0 
0.0 0.0 -3.579782397794e-04 
-9.508294649730e-04 4.627212186017e-04 0.0 
4.627212186017e-04 5.212868888400e-03 0.0 
0.0 0.0 -8.060563724883e-04 
-7.773528700208e-05 1.427065922566e-03 0.0 
1.427065922566e-03 1.665502982993e-03 0.0 
0.0 0.0 -4.590591740919e-04 
3.797527258111e-04 1.020114754415e-03 0.0 
1.020114754415e-03 1.842831286956e-04 0.0 
0.0 0.0 -2.417296519314e-04 
4.052395816326e-04 -6.135338758200e-04 0.0 
-6.135338758200e-04 -1.137161459362e-06 0.0 
0.0 0.0 -1.731867515028e-04 
-1.167546277040e-03 4.626490460642e-04 0.0 
4.626490460642e-04 7.101376568989e-03 0.0 
0.0 0.0 -1.075985979751e-03 
-9.623797546726e-04 1.845333678616e-04 0.0 
1.845333678616e-04 5.429528329259e-03 0.0 
0.0 0.0 -8.312490730234e-04 
-5.046075129470e-04 1.194499845990e-03 0.0 
1.194499845990e-03 2.882799900291e-03 0.0 
0.0 0.0 -5.429493831729e-04 
-1.206327788760e-03 8.269099761283e-05 0.0 
8.269099761283e-05 7.415962584707e-03 0.0 
0.0 0.0 -1.109763131677e-03 
-1.142751356386e-03 1.744200963682e-04 0.0 
1.744200963682e-04 6.974478761757e-03 0.0 
0.0 0.0 -1.057773507355e-03 
-8.833943353455e-04 3.220642776102e-04 0.0 
3.220642776102e-04 5.046401869676e-03 0.0 
0.0 0.0 -7.887050335656e-04 
-1.278006429871e-03 -2.029556331096e-04 0.0 
-2.029556331096e-04 8.153709597249e-03 0.0 
0.0 0.0 -1.288412101370e-03 
-4.271610777015e-04 5.562024212731e-04 0.0 
5.562024212731e-04 4.316314637617e-03 0.0 
0.0 0.0 -8.078958932737e-04 
-9.266589239438e-04 2.700924202998e-04 0.0 
2.700924202998e-04 5.312918686649e-03 0.0 
0.0 0.0 -8.238265297874e-04 
-4.963470151794e-04 6.905692722870e-04 0.0 
6.905692722870e-04 3.767490595173e-03 0.0 
0.0 0.0 -6.656476441012e-04 
-4.749686160319e-04 1.532444199585e-04 0.0 
1.532444199585e-04 4.696915836540e-03 0.0 
0.0 0.0 -8.413031780454e-04 
2.625503227397e-04 1.238828002540e-03 0.0 
1.238828002540e-03 6.651443892644e-04 0.0 
0.0 0.0 -3.865807678710e-04 
-9.465847814334e-04 1.767858078852e-04 0.0 
1.767858078852e-04 5.036126749418e-03 0.0 
0.0 0.0 -7.898058234521e-04 
-1.895610884557e-04 4.026718807994e-04 0.0 
4.026718807994e-04 3.226201886936e-03 0.0 
0.0 0.0 -6.486359607860e-04 
1.616252847495e-04 -9.427764674384e-04 0.0 
-9.427764674384e-04 1.519153345857e-03 0.0 
0.0 0.0 -4.681053320140e-04 
-1.124321372716e-03 5.190781523116e-04 0.0 
5.190781523116e-04 6.737556221388e-03 0.0 
0.0 0.0 -1.032318248600e-03 
0.0 0.0 0.0 
0.0 0.0 0.0 
0.0 0.0 0.0 
-9.848011893069e-04 9.254887770332e-05 0.0 
9.254887770332e-05 5.522315715833e-03 0.0 
0.0 0.0 -8.386390795737e-04 
1.936986156422e-05 1.160151507078e-03 0.0 
1.160151507078e-03 1.716486351178e-03 0.0 
0.0 0.0 -4.870240021111e-04 
-2.325836748457e-04 1.289855956993e-03 0.0 
1.289855956993e-03 1.788704446122e-03 0.0 
0.0 0.0 -4.015254440178e-04 
4.595658441768e-04 4.744943126908e-04 0.0 
4.744943126908e-04 7.528832652437e-04 0.0 
0.0 0.0 -4.054414645912e-04 
-1.008402327414e-03 5.265744671369e-04 0.0 
5.265744671369e-04 5.786538932645e-03 0.0 
0.0 0.0 -8.965110541436e-04 
-2.494216096235e-04 -4.335362183750e-04 0.0 
-4.335362183750e-04 9.422411490062e-04 0.0 
0.0 0.0 -1.609926926485e-04 
-6.820720035477e-04 8.119732659470e-04 0.0 
8.119732659470e-04 3.361151585438e-03 0.0 
0.0 0.0 -5.613503766092e-04 
-5.249648680804e-04 4.982973278599e-04 0.0 
4.982973278599e-04 4.821038106347e-03 0.0 
0.0 0.0 -8.726802719924e-04 
-9.620382926610e-04 5.073054538474e-04 0.0 
5.073054538474e-04 5.367475776694e-03 0.0 
0.0 0.0 -8.336838631977e-04 
-9.866522304222e-04 1.405170818081e-04 0.0 
1.405170818081e-04 5.654603971252e-03 0.0 
0.0 0.0 -8.301023967811e-04 
2.987392461190e-04 2.567812312072e-04 0.0 
2.567812312072e-04 -6.027321301994e-05 0.0 
0.0 0.0 -1.021997284710e-04 
2.232246709604e-04 -1.918559463565e-04 0.0 
-1.918559463565e-04 1.424673883171e-03 0.0 
0.0 0.0 -4.706942212664e-04 
9.862482380878e-05 -1.372550038116e-03 0.0 
-1.372550038116e-03 1.318021718147e-03 0.0 
0.0 0.0 -4.311372127493e-04 
-6.563785485795e-04 5.486582363547e-04 0.0 
5.486582363547e-04 3.058796699974e-03 0.0 
0.0 0.0 -4.957039317942e-04 
-1.115649045089e-03 1.001564757614e-04 0.0 
1.001564757614e-04 6.632881085886e-03 0.0 
0.0 0.0 -1.000663671924e-03 
-6.796028561542e-04 5.568827768722e-04 0.0 
5.568827768722e-04 3.430251503350e-03 0.0 
0.0 0.0 -5.577786207633e-04 
-1.458115086374e-04 8.292196236090e-04 0.0 
8.292196236090e-04 2.768893991105e-03 0.0 
0.0 0.0 -6.151539951222e-04 
-1.886011553539e-04 1.051832417911e-03 0.0 
1.051832417911e-03 2.651380485181e-03 0.0 
0.0 0.0 -5.868308051845e-04 
4.119056616429e-04 4.824818133927e-04 0.0 
4.824818133927e-04 -5.163543584124e-05 0.0 
0.0 0.0 -1.544015253436e-04 
-5.103402652263e-04 1.016313603146e-03 0.0 
1.016313603146e-03 3.773155867782e-03 0.0 
0.0 0.0 -6.959382511914e-04 
-1.626884107157e-04 1.342060582958e-03 0.0 
1.342060582958e-03 1.124683386977e-03 0.0 
0.0 0.0 -3.635305771564e-04 
-1.332783064049e-03 3.949756871870e-04 0.0 
3.949756871870e-04 8.970989248616e-03 0.0 
0.0 0.0 -1.321446319728e-03 
-1.363423366848e-03 4.246461146743e-04 0.0 
4.246461146743e-04 8.919856195938e-03 0.0 
0.0 0.0 -1.318029376683e-03 
-7.707229978672e-04 8.349277957258e-04 0.0 
8.349277957258e-04 4.657152987880e-03 0.0 
0.0 0.0 -7.755312068111e-04 
8.477148352467e-05 1.389041319869e-03 0.0 
1.389041319869e-03 1.180405502280e-03 0.0 
0.0 0.0 -4.232985079168e-04 
-7.785189424599e-05 1.403831464932e-03 0.0 
1.403831464932e-03 1.344103223027e-03 0.0 
0.0 0.0 -3.659709354871e-04 
-9.354111606034e-04 6.403030867596e-04 0.0 
6.403030867596e-04 5.396292848320e-03 0.0 
0.0 0.0 -8.539191708179e-04 
9.999732188838e-05 1.139160073047e-03 0.0 
1.139160073047e-03 1.275333839354e-03 0.0 
0.0 0.0 -3.930530440640e-04 
2.202450365264e-04 -6.175447713642e-04 0.0 
-6.175447713642e-04 1.218766433543e-03 0.0 
0.0 0.0 -4.339875075689e-04 
-8.457389435740e-04 6.790973874792e-04 0.0 
6.790973874792e-04 4.708791579724e-03 0.0 
0.0 0.0 -7.563811545761e-04 
-1.327783261122e-03 1.214241298840e-04 0.0 
1.214241298840e-04 8.708921592335e-03 0.0 
0.0 0.0 -1.266640259566e-03 
-1.253349979010e-04 1.227176291700e-03 0.0 
1.227176291700e-03 2.155279357023e-03 0.0 
0.0 0.0 -5.226246958029e-04 
-6.857827131982e-04 6.109821481705e-04 0.0 
6.109821481705e-04 5.443563599872e-03 0.0 
0.0 0.0 -9.428115367421e-04 
1.005352414744e-05 1.485881480078e-03 0.0 
1.485881480078e-03 9.313511271753e-04 0.0 
0.0 0.0 -4.034591362812e-04 
-1.256876494634e-03 -1.116338181287e-04 0.0 
-1.116338181287e-04 8.512233064138e-03 0.0 
0.0 0.0 -1.322863172658e-03 
-5.368107279650e-05 1.667223674443e-03 0.0 
1.667223674443e-03 1.192784921883e-03 0.0 
0.0 0.0 -3.959736908235e-04 
-8.401524306229e-04 7.380205594863e-04 0.0 
7.380205594863e-04 4.834030021030e-03 0.0 
0.0 0.0 -7.835188407615e-04 
5.148731166168e-04 5.137437753511e-04 0.0 
5.137437753511e-04 -7.966675073376e-05 0.0 
0.0 0.0 -1.865170139499e-04 
-5.892765440231e-04 4.534415622219e-05 0.0 
4.534415622219e-05 5.187712345136e-03 0.0 
0.0 0.0 -9.211625808215e-04 
-2.619705547916e-04 9.063726296434e-04 0.0 
9.063726296434e-04 3.144147236726e-03 0.0 
0.0 0.0 -6.516619296807e-04 
5.136778266446e-05 -8.544458010471e-04 0.0 
-8.544458010471e-04 1.672478035934e-03 0.0 
0.0 0.0 -4.625367401933e-04 
-9.230469363571e-04 2.192959829449e-04 0.0 
2.192959829449e-04 5.165828729947e-03 0.0 
0.0 0.0 -7.963903837170e-04 
-1.338316942917e-03 5.052217518095e-04 0.0 
5.052217518095e-04 8.833234944730e-03 0.0 
0.0 0.0 -1.324865334549e-03 
-6.025361920258e-05 9.743864967892e-04 0.0 
9.743864967892e-04 2.246037318888e-03 0.0 
0.0 0.0 -5.510338386786e-04 
-4.966114613551e-04 2.324572275960e-05 0.0 
2.324572275960e-05 4.887340644677e-03 0.0 
0.0 0.0 -8.703234504572e-04 
-4.984372673971e-05 1.535578283139e-03 0.0 
1.535578283139e-03 1.001433575544e-03 0.0 
0.0 0.0 -3.453408408593e-04 
-1.068497402403e-03 3.485541216510e-04 0.0 
3.485541216510e-04 6.344714792472e-03 0.0 
0.0 0.0 -9.576894438039e-04 
-8.089599515326e-04 -1.073379708431e-04 0.0 
-1.073379708431e-04 5.996798576901e-03 0.0 
0.0 0.0 -1.008345180213e-03 
-4.736853950805e-04 1.081684251561e-03 0.0 
1.081684251561e-03 2.201297944192e-03 0.0 
0.0 0.0 -4.109515902261e-04 
-1.055848474588e-03 -6.244673246336e-05 0.0 
-6.244673246336e-05 6.209225770776e-03 0.0 
0.0 0.0 -9.257128893455e-04 
-1.318413144677e-03 5.597520288916e-04 0.0 
5.597520288916e-04 8.736177841961e-03 0.0 
0.0 0.0 -1.322580803729e-03 
-9.099621181087e-04 -7.844937670166e-05 0.0 
-7.844937670166e-05 6.486423483438e-03 0.0 
0.0 0.0 -1.075861678316e-03 
-1.339852007458e-03 4.885566376854e-04 0.0 
4.885566376854e-04 8.877779505668e-03 0.0 
0.0 0.0 -1.322091174222e-03 
-1.037601774292e-03 -4.998348071014e-05 0.0 
-4.998348071014e-05 6.134914618430e-03 0.0 
0.0 0.0 -9.196498359204e-04 
-1.117033596766e-03 2.433107206605e-04 0.0 
2.433107206605e-04 6.851288038562e-03 0.0 
0.0 0.0 -1.048263655743e-03 
-5.132028134043e-04 1.102114687126e-03 0.0 
1.102114687126e-03 1.849180492075e-03 0.0 
0.0 0.0 -3.491910591611e-04 
-8.752311967057e-04 2.096761775609e-04 0.0 
2.096761775609e-04 4.753971328354e-03 0.0 
0.0 0.0 -7.343713905235e-04 
-9.300305532746e-04 5.926935085268e-04 0.0 
5.926935085268e-04 5.253991145748e-03 0.0 
0.0 0.0 -8.263924940540e-04 
-9.692706598054e-04 2.261418497641e-04 0.0 
2.261418497641e-04 5.579447270465e-03 0.0 
0.0 0.0 -8.589723558544e-04 
-7.013973697775e-04 5.476600750058e-04 0.0 
5.476600750058e-04 4.307373761106e-03 0.0 
0.0 0.0 -7.101745248689e-04 
-1.306990612628e-03 5.041978193775e-04 0.0 
5.041978193775e-04 8.672501482610e-03 0.0 
0.0 0.0 -1.322334986692e-03 
-9.943643695485e-04 3.416073873728e-04 0.0 
3.416073873728e-04 5.867113055505e-03 0.0 
0.0 0.0 -8.810748613436e-04 
-9.323244271653e-04 9.613325556177e-05 0.0 
9.613325556177e-05 5.115490294310e-03 0.0 
0.0 0.0 -7.763708431881e-04 
-1.001832059306e-04 5.266866745758e-04 0.0 
5.266866745758e-04 2.724835239940e-03 0.0 
0.0 0.0 -5.843899590101e-04 
-5.790296725673e-04 -5.326125379184e-04 0.0 
-5.326125379184e-04 1.882091514832e-03 0.0 
0.0 0.0 -3.280768480529e-04 
-8.597084284199e-04 1.491840850699e-04 0.0 
1.491840850699e-04 4.593177939361e-03 0.0 
0.0 0.0 -7.069124235890e-04 
-4.246089693938e-04 1.428928262105e-03 0.0 
1.428928262105e-03 2.122954743528e-03 0.0 
0.0 0.0 -4.404772202000e-04 
-8.726090169173e-04 -3.101571305491e-05 0.0 
-3.101571305491e-05 5.309765821533e-03 0.0 
0.0 0.0 -7.696142143080e-04 
-7.647244692159e-05 -1.455292213990e-03 0.0 
-1.455292213990e-03 1.759408115361e-03 0.0 
0.0 0.0 -4.595640944490e-04 
-1.784270519959e-05 6.865399459055e-04 0.0 
6.865399459055e-04 2.226340647437e-03 0.0 
0.0 0.0 -5.202658224677e-04 
-1.156111700983e-03 5.188644452185e-04 0.0 
5.188644452185e-04 7.007873302369e-03 0.0 
0.0 0.0 -1.069052450572e-03 
-3.544111730508e-04 1.143529289652e-03 0.0 
1.143529289652e-03 2.186339618849e-03 0.0 
0.0 0.0 -4.372567615832e-04 
-8.838010647401e-04 5.805967859428e-04 0.0 
5.805967859428e-04 4.846530847442e-03 0.0 
0.0 0.0 -7.640689829422e-04 
-5.498264973309e-04 3.710435615581e-04 0.0 
3.710435615581e-04 5.012164832543e-03 0.0 
0.0 0.0 -9.014246907137e-04 
-6.358980608267e-04 -4.313104688366e-04 0.0 
-4.313104688366e-04 4.627036023584e-03 0.0 
0.0 0.0 -8.035328976187e-04 
-1.261046308643e-03 3.887646222973e-04 0.0 
3.887646222973e-04 8.565225437675e-03 0.0 
0.0 0.0 -1.324762665914e-03 
-7.961969453534e-04 2.495159098011e-04 0.0 
2.495159098011e-04 4.113140991581e-03 0.0 
0.0 0.0 -6.390224077203e-04 
3.053061856643e-04 2.267805296744e-04 0.0 
2.267805296744e-04 1.077273840324e-03 0.0 
0.0 0.0 -4.422638729430e-04 
-5.704666668683e-04 -1.178468115440e-03 0.0 
-1.178468115440e-03 3.201154498828e-03 0.0 
0.0 0.0 -5.691257024010e-04 
-5.951122843918e-04 8.042220484985e-04 0.0 
8.042220484985e-04 2.449547643677e-03 0.0 
0.0 0.0 -4.184705811166e-04 
-5.000320666269e-04 1.320407470952e-03 0.0 
1.320407470952e-03 2.143724443106e-03 0.0 
0.0 0.0 -4.141309408042e-04 
-1.196454144110e-03 1.993133203818e-04 0.0 
1.993133203818e-04 7.413315256709e-03 0.0 
0.0 0.0 -1.123886314723e-03 
-8.766172246535e-04 3.573442557890e-04 0.0 
3.573442557890e-04 5.175634424808e-03 0.0 
0.0 0.0 -8.161479701220e-04 
-7.263474599636e-04 3.526993364896e-04 0.0 
3.526993364896e-04 3.570072660402e-03 0.0 
0.0 0.0 -5.672387349321e-04 
-8.352265289735e-04 5.640695091739e-04 0.0 
5.640695091739e-04 4.443467777814e-03 0.0 
0.0 0.0 -7.023794137935e-04 
-1.258131779879e-03 1.361172827669e-04 0.0 
1.361172827669e-04 8.496942290822e-03 0.0 
0.0 0.0 -1.320675234999e-03 
-1.143815948478e-03 -2.922836025449e-06 0.0 
-2.922836025449e-06 7.935052382313e-03 0.0 
0.0 0.0 -1.258064670439e-03 
-1.185356167607e-03 5.772655224951e-04 0.0 
5.772655224951e-04 7.334174599953e-03 0.0 
0.0 0.0 -1.126590436115e-03 
-1.146342777142e-03 1.032030268662e-04 0.0 
1.032030268662e-04 6.902588040038e-03 0.0 
0.0 0.0 -1.037522200811e-03 
-6.004564824823e-04 -8.741253658515e-04 0.0 
-8.741253658515e-04 4.400886106663e-03 0.0 
0.0 0.0 -7.721428985420e-04 
-6.499827822082e-04 6.306060725170e-04 0.0 
6.306060725170e-04 3.517235102446e-03 0.0 
0.0 0.0 -5.842812205453e-04 
2.208852054121e-04 7.449773440899e-04 0.0 
7.449773440899e-04 1.272300042131e-03 0.0 
0.0 0.0 -4.203166018452e-04 
1.283124150736e-04 5.457702178093e-04 0.0 
5.457702178093e-04 1.800318710438e-03 0.0 
0.0 0.0 -4.843489805398e-04 
-8.229602156181e-04 4.179326389389e-04 0.0 
4.179326389389e-04 4.894594765891e-03 0.0 
0.0 0.0 -7.808727949117e-04 
-5.351512224979e-04 -3.319303625282e-04 0.0 
-3.319303625282e-04 5.022677570586e-03 0.0 
0.0 0.0 -8.900964085843e-04 
-8.296790490015e-04 -7.574227516101e-04 0.0 
-7.574227516101e-04 4.266073095582e-03 0.0 
0.0 0.0 -6.810091006415e-04 
-1.209161835961e-03 5.397487415350e-04 0.0 
5.397487415350e-04 7.456423275886e-03 0.0 
0.0 0.0 -1.134236807130e-03 
2.970140770782e-04 -5.886898203256e-04 0.0 
-5.886898203256e-04 1.178529551260e-03 0.0 
0.0 0.0 -4.395655422792e-04 
-6.321441937111e-04 6.212871376415e-04 0.0 
6.212871376415e-04 4.001931118120e-03 0.0 
0.0 0.0 -6.750378637491e-04 
-8.881105026694e-04 6.325939136900e-04 0.0 
6.325939136900e-04 4.979851951469e-03 0.0 
0.0 0.0 -7.913284153978e-04 
-6.067465934174e-04 6.691797761234e-04 0.0 
6.691797761234e-04 3.597583737962e-03 0.0 
0.0 0.0 -6.122259156574e-04 
-1.324329620218e-03 4.629903675986e-04 0.0 
4.629903675986e-04 8.904888157841e-03 0.0 
0.0 0.0 -1.320088186226e-03 
-1.359586791555e-03 4.788353102242e-04 0.0 
4.788353102242e-04 8.942288232093e-03 0.0 
0.0 0.0 -1.318462653075e-03 
-1.290025244180e-03 1.809732516489e-04 0.0 
1.809732516489e-04 8.380056929833e-03 0.0 
0.0 0.0 -1.256494544188e-03 
-6.742581298534e-04 -7.798202117693e-04 0.0 
-7.798202117693e-04 4.873866166937e-03 0.0 
0.0 0.0 -8.375255977276e-04 
-1.194824314076e-03 4.521929309845e-04 0.0 
4.521929309845e-04 7.360058874814e-03 0.0 
0.0 0.0 -1.112065035246e-03 
-4.430818055785e-04 1.485014206495e-03 0.0 
1.485014206495e-03 1.784679357047e-03 0.0 
0.0 0.0 -3.785953687517e-04 
2.729854799726e-05 3.936097668604e-04 0.0 
3.936097668604e-04 2.328364048534e-03 0.0 
0.0 0.0 -5.483018170244e-04 
5.295881833206e-04 7.121810223511e-04 0.0 
7.121810223511e-04 1.629388308909e-04 0.0 
0.0 0.0 -2.967972918049e-04 
-7.211884972610e-04 4.566068001278e-04 0.0 
4.566068001278e-04 3.698308171073e-03 0.0 
0.0 0.0 -5.936226173563e-04 
-9.121582442551e-04 9.143313993339e-05 0.0 
9.143313993339e-05 5.030258123682e-03 0.0 
0.0 0.0 -7.914980036671e-04 
-1.035929216748e-03 3.563880147614e-04 0.0 
3.563880147614e-04 6.090521981813e-03 0.0 
0.0 0.0 -9.214502702889e-04 
-1.168840555119e-03 -8.744363195648e-05 0.0 
-8.744363195648e-05 8.066384051930e-03 0.0 
0.0 0.0 -1.265403586923e-03 
-1.162609015209e-03 6.330590177409e-04 0.0 
6.330590177409e-04 7.197897661744e-03 0.0 
0.0 0.0 -1.117224974728e-03 
-9.919773035698e-04 4.807053877499e-04 0.0 
4.807053877499e-04 5.626646372679e-03 0.0 
0.0 0.0 -8.687609488834e-04 
-9.791621869581e-04 6.007006909595e-04 0.0 
6.007006909595e-04 5.670050972566e-03 0.0 
0.0 0.0 -8.891947744737e-04 
4.804557488344e-04 9.476988486698e-04 0.0 
9.476988486698e-04 9.767658471986e-05 0.0 
0.0 0.0 -2.477710000947e-04 
-2.208441256582e-04 -6.752013946383e-04 0.0 
-6.752013946383e-04 8.882775518556e-04 0.0 
0.0 0.0 -2.467363499356e-04 
-4.153429420500e-04 1.059032103328e-03 0.0 
1.059032103328e-03 3.417216683434e-03 0.0 
0.0 0.0 -6.594106982652e-04 
-6.669546155335e-04 5.596997560711e-04 0.0 
5.596997560711e-04 4.411048143991e-03 0.0 
0.0 0.0 -7.376142925499e-04 
-4.466823138591e-04 6.032870064143e-04 0.0 
6.032870064143e-04 3.840807050757e-03 0.0 
0.0 0.0 -6.931905564144e-04 
6.417191678250e-05 8.603242808997e-04 0.0 
8.603242808997e-04 4.417253736716e-04 0.0 
0.0 0.0 -2.168131244803e-04 
-9.528466809374e-04 9.473419018348e-05 0.0 
9.473419018348e-05 5.427141204722e-03 0.0 
0.0 0.0 -8.462285223656e-04 
-5.049741343807e-04 -8.812005228938e-04 0.0 
-8.812005228938e-04 1.770302560701e-03 0.0 
0.0 0.0 -2.972104253142e-04 
-2.017300964170e-04 1.588765395916e-03 0.0 
1.588765395916e-03 1.677129549565e-03 0.0 
0.0 0.0 -4.314049239902e-04 
-1.341153861134e-03 -7.479496163087e-05 0.0 
-7.479496163087e-05 8.257374884625e-03 0.0 
0.0 0.0 -1.341153861134e-03 
-6.757643640114e-04 6.444207577368e-05 0.0 
6.444207577368e-05 5.692433792017e-03 0.0 
0.0 0.0 -9.717687626070e-04 
-9.402714050330e-04 4.164454812488e-04 0.0 
4.164454812488e-04 5.059115903313e-03 0.0 
0.0 0.0 -7.790007367612e-04 
-1.996455075654e-04 1.120227626459e-04 0.0 
1.120227626459e-04 1.363834974093e-03 0.0 
0.0 0.0 -2.176483604987e-04 
-7.316139978666e-04 8.725598858698e-04 0.0 
8.725598858698e-04 4.250250205740e-03 0.0 
0.0 0.0 -7.126719623954e-04 
-3.416312472277e-04 6.071238986655e-04 0.0 
6.071238986655e-04 3.482434275960e-03 0.0 
0.0 0.0 -6.569982659716e-04 
-1.010067214733e-03 1.858710736428e-04 0.0 
1.858710736428e-04 5.842461225268e-03 0.0 
0.0 0.0 -8.940630110299e-04 
-1.333890643160e-03 5.791621130684e-04 0.0 
5.791621130684e-04 8.805315107962e-03 0.0 
0.0 0.0 -1.323832587333e-03 
-8.707338927728e-04 5.246940464045e-04 0.0 
5.246940464045e-04 4.704277736275e-03 0.0 
0.0 0.0 -7.366500567795e-04 
-9.271217876491e-04 3.071330387493e-04 0.0 
3.071330387493e-04 5.453258810761e-03 0.0 
0.0 0.0 -8.513774089097e-04 
-8.050460189817e-04 -4.209308180889e-04 0.0 
-4.209308180889e-04 4.202095383354e-03 0.0 
0.0 0.0 -6.837695253815e-04 
-1.187192617587e-03 5.026303496447e-04 0.0 
5.026303496447e-04 7.280339694805e-03 0.0 
0.0 0.0 -1.105258581891e-03 
-7.119244178252e-04 -3.438823351423e-04 0.0 
-3.438823351423e-04 5.099696206057e-03 0.0 
0.0 0.0 -8.691653677727e-04 
-1.316090240167e-03 5.389588138701e-04 0.0 
5.389588138701e-04 8.780826577697e-03 0.0 
0.0 0.0 -1.322174839672e-03 
-1.340103718614e-03 4.728281156223e-04 0.0 
4.728281156223e-04 8.628873091994e-03 0.0 
0.0 0.0 -1.340103718614e-03 
-1.341028575724e-03 3.568557509173e-04 0.0 
3.568557509173e-04 8.716110367900e-03 0.0 
0.0 0.0 -1.341028575724e-03 
-1.338044909071e-03 4.168385009661e-04 0.0 
4.168385009661e-04 8.630348436964e-03 0.0 
0.0 0.0 -1.338044909071e-03 
-1.019072052988e-03 5.681193801066e-04 0.0 
5.681193801066e-04 5.940654999783e-03 0.0 
0.0 0.0 -9.244680137507e-04 
-1.198675717763e-03 1.360258094172e-04 0.0 
1.360258094172e-04 7.335887667339e-03 0.0 
0.0 0.0 -1.103002250422e-03 
-1.198479165231e-03 6.200957679300e-04 0.0 
6.200957679300e-04 7.509008113829e-03 0.0 
0.0 0.0 -1.155914796392e-03 
-6.394343852437e-04 1.004430984718e-03 0.0 
1.004430984718e-03 3.542163334784e-03 0.0 
0.0 0.0 -6.147330147620e-04 
-6.675475430971e-04 9.277672711453e-04 0.0 
9.277672711453e-04 3.456421744926e-03 0.0 
0.0 0.0 -5.872917534094e-04 
-8.247859078912e-04 -6.922016390902e-04 0.0 
-6.922016390902e-04 4.077408079033e-03 0.0 
0.0 0.0 -6.436934073013e-04 
-1.217910302125e-03 1.553299834490e-04 0.0 
1.553299834490e-04 7.518311075799e-03 0.0 
0.0 0.0 -1.131852245309e-03 
-1.311936692750e-03 5.307865598084e-04 0.0 
5.307865598084e-04 8.695029491200e-03 0.0 
0.0 0.0 -1.322440284024e-03 
-1.214240069695e-03 4.882095922708e-04 0.0 
4.882095922708e-04 7.535305569948e-03 0.0 
0.0 0.0 -1.141180801552e-03 
-5.747438901480e-04 1.003283814169e-04 0.0 
1.003283814169e-04 5.194431951746e-03 0.0 
0.0 0.0 -9.063345769726e-04 
-1.227388762698e-03 1.265853976664e-04 0.0 
1.265853976664e-04 7.592479060989e-03 0.0 
0.0 0.0 -1.138864741757e-03 
-8.838474672112e-04 3.395282227197e-04 0.0 
3.395282227197e-04 6.126324240512e-03 0.0 
0.0 0.0 -9.903545940741e-04 
-6.357684789507e-04 9.653705253964e-04 0.0 
9.653705253964e-04 4.033111277517e-03 0.0 
0.0 0.0 -7.049739924763e-04 
-7.219643329354e-04 7.270984363887e-04 0.0 
7.270984363887e-04 3.640512255542e-03 0.0 
0.0 0.0 -5.967387615352e-04 
1.271449544166e-04 1.530874377193e-03 0.0 
1.530874377193e-03 7.660888374693e-04 0.0 
0.0 0.0 -3.828144822368e-04 
-1.311008186282e-03 3.440606395408e-04 0.0 
3.440606395408e-04 8.440809804770e-03 0.0 
0.0 0.0 -1.282213402295e-03 
-5.754210014705e-04 1.101723762793e-03 0.0 
1.101723762793e-03 3.231346314138e-03 0.0 
0.0 0.0 -5.792479259103e-04 
-1.176826657867e-03 4.517387013496e-04 0.0 
4.517387013496e-04 7.668341186852e-03 0.0 
0.0 0.0 -1.230767059693e-03 
-8.116549819174e-04 -3.660838800677e-04 0.0 
-3.660838800677e-04 4.013024169842e-03 0.0 
0.0 0.0 -6.465396845166e-04 
-1.917368362491e-04 -1.670915138255e-03 0.0 
-1.670915138255e-03 1.673857297907e-03 0.0 
0.0 0.0 -4.222915044375e-04 
-1.218810452461e-03 -6.182829621563e-05 0.0 
-6.182829621563e-05 7.834853919449e-03 0.0 
0.0 0.0 -1.284312900220e-03 
-3.227899414303e-04 1.463352553329e-03 0.0 
1.463352553329e-03 2.102017459643e-03 0.0 
0.0 0.0 -4.669824892858e-04 
-1.341987455608e-03 4.935381790995e-04 0.0 
4.935381790995e-04 8.595598521703e-03 0.0 
0.0 0.0 -1.341987455608e-03 
-1.324901016307e-03 3.587683922887e-04 0.0 
3.587683922887e-04 8.344464300183e-03 0.0 
0.0 0.0 -1.282654109251e-03 
-8.850522684098e-04 7.214064072268e-04 0.0 
7.214064072268e-04 5.245748206413e-03 0.0 
0.0 0.0 -8.462542048450e-04 
-8.057611890132e-05 -1.710152855484e-04 0.0 
-1.710152855484e-04 3.103213667799e-04 0.0 
0.0 0.0 -9.846224909082e-05 
-1.340954708392e-03 5.230440169069e-04 0.0 
5.230440169069e-04 8.529172830874e-03 0.0 
0.0 0.0 -1.340954708391e-03 
-1.218199846518e-03 4.994387147234e-06 0.0 
4.994387147234e-06 7.808383985296e-03 0.0 
0.0 0.0 -1.284661450484e-03 
-4.838292351495e-05 -1.134502527952e-03 0.0 
-1.134502527952e-03 1.589566893982e-03 0.0 
0.0 0.0 -4.253660281670e-04 
-6.012411031331e-04 -5.471211505197e-06 0.0 
-5.471211505197e-06 5.388600975266e-03 0.0 
0.0 0.0 -9.353130867196e-04 
-1.284222320321e-03 3.331079903689e-04 0.0 
3.331079903689e-04 8.551492227036e-03 0.0 
0.0 0.0 -1.323014926434e-03 
0.0 0.0 0.0 
0.0 0.0 0.0 
0.0 0.0 0.0 
-6.023691884067e-04 1.029224405588e-03 0.0 
1.029224405588e-03 3.627406800571e-03 0.0 
0.0 0.0 -6.425506931502e-04 
-9.361925531562e-04 6.770287321789e-04 0.0 
6.770287321789e-04 5.532046743254e-03 0.0 
0.0 0.0 -8.816033652580e-04 
-8.298014528126e-04 7.768529914015e-04 0.0 
7.768529914015e-04 4.954128457589e-03 0.0 
0.0 0.0 -8.109139232486e-04 
-8.897770840316e-04 6.877783995216e-04 0.0 
6.877783995216e-04 5.117343312454e-03 0.0 
0.0 0.0 -8.186613860469e-04 
-1.469792992645e-04 1.697477444243e-03 0.0 
1.697477444243e-03 1.268784698810e-03 0.0 
0.0 0.0 -3.960833248805e-04 
-1.341360672448e-03 5.109795992512e-04 0.0 
5.109795992512e-04 8.445730971081e-03 0.0 
0.0 0.0 -1.341360672448e-03 
-7.719693981544e-05 2.760009161414e-04 0.0 
2.760009161414e-04 2.850848330235e-03 0.0 
0.0 0.0 -6.123778370825e-04 
1.753729935007e-04 1.501404700023e-05 0.0 
1.501404700023e-05 -5.243892185943e-05 0.0 
0.0 0.0 -5.268603070342e-05 
-1.302465582654e-03 -2.496096405259e-04 0.0 
-2.496096405259e-04 8.365120953103e-03 0.0 
0.0 0.0 -1.272354826527e-03 
-1.485058388714e-04 -2.923397016935e-04 0.0 
-2.923397016935e-04 5.768067641682e-04 0.0 
0.0 0.0 -1.019437782286e-04 
-7.982614346128e-04 6.111031080938e-04 0.0 
6.111031080938e-04 4.181968739078e-03 0.0 
0.0 0.0 -6.678899790657e-04 
2.246133581427e-04 -6.808997986787e-04 0.0 
-6.808997986787e-04 1.445508393424e-04 0.0 
0.0 0.0 -1.582132274936e-04 
-8.489872345980e-04 4.667487785958e-04 0.0 
4.667487785958e-04 4.536973076965e-03 0.0 
0.0 0.0 -7.094882865497e-04 
-1.255369180247e-03 1.858612183136e-05 0.0 
1.858612183136e-05 8.476379217670e-03 0.0 
0.0 0.0 -1.321823097425e-03 
-1.341255375116e-03 4.796779653900e-04 0.0 
4.796779653900e-04 8.398188684786e-03 0.0 
0.0 0.0 -1.341255375116e-03 
-9.721290586981e-04 5.581628762271e-04 0.0 
5.581628762271e-04 5.522703984207e-03 0.0 
0.0 0.0 -8.613793510407e-04 
1.600321873614e-04 -6.162664284866e-04 0.0 
-6.162664284866e-04 1.802849776087e-04 0.0 
0.0 0.0 -1.458502135586e-04 
3.109225001714e-06 1.120621869488e-06 0.0 
1.120621869488e-06 -8.787071989506e-07 0.0 
0.0 0.0 -9.559362011842e-07 
1.535176122475e-04 -1.236399581379e-03 0.0 
-1.236399581379e-03 5.447751134409e-04 0.0 
0.0 0.0 -2.992683110093e-04 
-1.116873810569e-03 -5.374998991881e-04 0.0 
-5.374998991881e-04 7.110713391746e-03 0.0 
0.0 0.0 -1.121833217354e-03 
-9.101085565852e-04 1.581356444995e-04 0.0 
1.581356444995e-04 5.291968435283e-03 0.0 
0.0 0.0 -7.704300227928e-04 
-9.627171074924e-04 3.587877174800e-05 0.0 
3.587877174800e-05 5.332601127641e-03 0.0 
0.0 0.0 -8.109332722942e-04 
-1.342502730507e-03 4.025374877915e-04 0.0 
4.025374877915e-04 8.333596175980e-03 0.0 
0.0 0.0 -1.342502730507e-03 
-9.258687689408e-04 6.411213788910e-05 0.0 
6.411213788910e-05 5.298171403091e-03 0.0 
0.0 0.0 -7.720444664677e-04 
-1.356038484680e-03 3.810509766439e-04 0.0 
3.810509766439e-04 8.994012411350e-03 0.0 
0.0 0.0 -1.322852565091e-03 
-9.095582700075e-04 6.913502515422e-04 0.0 
6.913502515422e-04 6.199031272495e-03 0.0 
0.0 0.0 -1.020998643257e-03 
-1.011415993933e-03 3.149863478337e-04 0.0 
3.149863478337e-04 5.896378527379e-03 0.0 
0.0 0.0 -8.907448815977e-04 
-5.714615022677e-04 1.156558804127e-03 0.0 
1.156558804127e-03 2.460117787699e-03 0.0 
0.0 0.0 -4.477608806526e-04 
-6.254234584821e-04 4.541246643039e-04 0.0 
4.541246643039e-04 5.320880420055e-03 0.0 
0.0 0.0 -9.378661514434e-04 
3.838669366307e-04 1.236207229742e-03 0.0 
1.236207229742e-03 2.839536722242e-04 0.0 
0.0 0.0 -2.862088323664e-04 
-1.340754991027e-03 2.766872434976e-04 0.0 
2.766872434976e-04 8.283487658048e-03 0.0 
0.0 0.0 -1.340754991027e-03 
-1.339984467612e-03 4.682059719065e-04 0.0 
4.682059719065e-04 8.622431533437e-03 0.0 
0.0 0.0 -1.339984467612e-03 
-1.340417744004e-03 3.687782300389e-04 0.0 
3.687782300389e-04 8.691962583590e-03 0.0 
0.0 0.0 -1.340417744004e-03 
-7.614631425941e-04 -7.600693639472e-04 0.0 
-7.600693639472e-04 5.166067953467e-03 0.0 
0.0 0.0 -8.666500598261e-04 
-8.083534389449e-04 -6.157792834396e-04 0.0 
-6.157792834396e-04 3.875634950425e-03 0.0 
0.0 0.0 -6.062238016986e-04 
-5.875577080076e-04 6.263804956418e-04 0.0 
6.263804956418e-04 4.098789747432e-03 0.0 
0.0 0.0 -7.021192356133e-04 
-7.972896345738e-04 -3.252844081748e-04 0.0 
-3.252844081748e-04 5.374062371917e-03 0.0 
0.0 0.0 -8.981573260837e-04 
-1.339627896631e-03 1.538435656171e-04 0.0 
1.538435656171e-04 8.249387984378e-03 0.0 
0.0 0.0 -1.339627896631e-03 
-7.499431316127e-05 1.153135812952e-03 0.0 
1.153135812952e-03 1.745463721331e-03 0.0 
0.0 0.0 -4.287941800800e-04 
9.963389295363e-05 -4.974640475465e-04 0.0 
-4.974640475465e-04 1.806583108532e-03 0.0 
0.0 0.0 -4.991860405784e-04 
-4.325429609303e-05 -6.957715566116e-04 0.0 
-6.957715566116e-04 2.198402972482e-03 0.0 
0.0 0.0 -5.272458293186e-04 
-1.040852931917e-03 3.039409917234e-04 0.0 
3.039409917234e-04 6.156930146379e-03 0.0 
0.0 0.0 -9.279583942085e-04 
-1.296158163173e-03 -2.117115631842e-04 0.0 
-2.117115631842e-04 8.526713660580e-03 0.0 
0.0 0.0 -1.323537156312e-03 
5.620572206728e-05 -9.064776901539e-04 0.0 
-9.064776901539e-04 4.833799193028e-04 0.0 
0.0 0.0 -2.312509891586e-04 
-1.340775759057e-03 -3.546022348327e-06 0.0 
-3.546022348327e-06 8.220355043040e-03 0.0 
0.0 0.0 -1.340775759057e-03 
-1.115561951243e-04 -9.424028116119e-04 0.0 
-9.424028116119e-04 2.079879554815e-03 0.0 
0.0 0.0 -4.905422085546e-04 
-1.342877878941e-03 5.106164496302e-04 0.0 
5.106164496302e-04 8.578886692927e-03 0.0 
0.0 0.0 -1.342877878941e-03 
-1.213674372651e-03 2.426946528992e-04 0.0 
2.426946528992e-04 7.585431715108e-03 0.0 
0.0 0.0 -1.152765850879e-03 
7.551303923517e-04 -3.431961155864e-05 0.0 
-3.431961155864e-05 -8.356761588733e-06 0.0 
0.0 0.0 -1.964897908492e-04 
-5.576622204016e-04 1.038766121166e-03 0.0 
1.038766121166e-03 3.693734829533e-03 0.0 
0.0 0.0 -6.690559060524e-04 
-1.231945608432e-03 6.630499771306e-05 0.0 
6.630499771306e-05 7.672705385687e-03 0.0 
0.0 0.0 -1.146019594970e-03 
-1.341220131281e-03 5.159350734492e-04 0.0 
5.159350734492e-04 8.502743697499e-03 0.0 
0.0 0.0 -1.341220131281e-03 
-1.018091222593e-03 2.268797553761e-04 0.0 
2.268797553761e-04 5.997567393014e-03 0.0 
0.0 0.0 -9.220067723808e-04 
-9.140544266385e-04 6.590381545290e-04 0.0 
6.590381545290e-04 6.350398110146e-03 0.0 
0.0 0.0 -1.049000704964e-03 
1.948485511646e-04 1.206910249746e-03 0.0 
1.206910249746e-03 4.719329916516e-04 0.0 
0.0 0.0 -2.857635183498e-04 
-1.092933677572e-03 -5.430090234952e-06 0.0 
-5.430090234952e-06 7.417148133219e-03 0.0 
0.0 0.0 -1.228682347183e-03 
-2.597655749325e-04 -9.580958323714e-04 0.0 
-9.580958323714e-04 2.468405464320e-03 0.0 
0.0 0.0 -5.184025592846e-04 
-1.467448334793e-04 -1.253609516085e-03 0.0 
-1.253609516085e-03 2.277465230796e-03 0.0 
0.0 0.0 -5.242929400402e-04 
8.350711239017e-05 -5.741871043008e-04 0.0 
-5.741871043008e-04 2.364507936714e-04 0.0 
0.0 0.0 -1.371248168835e-04 
-1.341079611575e-03 4.984530224516e-04 0.0 
4.984530224516e-04 8.418558490732e-03 0.0 
0.0 0.0 -1.341079611575e-03 
3.309852724411e-04 1.022663251937e-03 0.0 
1.022663251937e-03 7.457111261596e-04 0.0 
0.0 0.0 -3.670041082731e-04 
-9.538216450079e-04 -4.415701274725e-04 0.0 
-4.415701274725e-04 6.798030040948e-03 0.0 
0.0 0.0 -1.110501492391e-03 
-9.815143922996e-04 -1.301923920288e-04 0.0 
-1.301923920288e-04 5.716261133104e-03 0.0 
0.0 0.0 -8.555322119248e-04 
-5.211778943540e-04 -1.357561140200e-03 0.0 
-1.357561140200e-03 2.381396269316e-03 0.0 
0.0 0.0 -4.411586999297e-04 
5.027865284562e-06 -1.162974144005e-03 0.0 
-1.162974144005e-03 1.893137919142e-03 0.0 
0.0 0.0 -4.964677435772e-04 
-9.740976170288e-04 2.668400150695e-04 0.0 
2.668400150695e-04 5.727433876448e-03 0.0 
0.0 0.0 -8.867075537039e-04 
-1.342259935407e-03 3.249478019742e-04 0.0 
3.249478019742e-04 8.304746317588e-03 0.0 
0.0 0.0 -1.342259935407e-03 
-8.513383339797e-04 -2.155531084130e-04 0.0 
-2.155531084130e-04 4.042684079104e-03 0.0 
0.0 0.0 -6.378868265889e-04 
-8.326579327741e-04 -6.269168235212e-04 0.0 
-6.269168235212e-04 5.839362625743e-03 0.0 
0.0 0.0 -9.693340058278e-04 
-7.491524898005e-04 8.473182538136e-04 0.0 
8.473182538136e-04 4.765927930056e-03 0.0 
0.0 0.0 -8.030799362305e-04 
-5.836032186753e-04 -5.383312615796e-04 0.0 
-5.383312615796e-04 5.022073810354e-03 0.0 
0.0 0.0 -8.811160271665e-04 
4.293152286994e-05 -8.173969837308e-04 0.0 
-8.173969837308e-04 2.098601697323e-03 0.0 
0.0 0.0 -5.326451291888e-04 
-7.517931783722e-04 -6.967384815080e-04 0.0 
-6.967384815080e-04 5.353981326588e-03 0.0 
0.0 0.0 -9.031726653527e-04 
-7.384492594484e-04 4.981620025079e-04 0.0 
4.981620025079e-04 4.715692557205e-03 0.0 
0.0 0.0 -7.729461360948e-04 
-9.594660891244e-04 3.310922572756e-04 0.0 
3.310922572756e-04 6.288208991268e-03 0.0 
0.0 0.0 -9.982497011217e-04 
-7.260155598219e-04 4.211913378779e-04 0.0 
4.211913378779e-04 5.817009197579e-03 0.0 
0.0 0.0 -1.003134534203e-03 
-6.776109950317e-04 9.016603010913e-04 0.0 
9.016603010913e-04 4.450317334473e-03 0.0 
0.0 0.0 -7.676694601592e-04 
-7.429113511031e-04 -5.174574473206e-04 0.0 
-5.174574473206e-04 3.948133648233e-03 0.0 
0.0 0.0 -6.551190094499e-04 
-2.218900255169e-04 1.098460281572e-03 0.0 
1.098460281572e-03 2.169381084645e-03 0.0 
0.0 0.0 -4.640097282922e-04 
-8.062369115313e-04 -2.975304159245e-04 0.0 
-2.975304159245e-04 3.811084005570e-03 0.0 
0.0 0.0 -6.091269606258e-04 
-8.824461864644e-04 3.062506020875e-04 0.0 
3.062506020875e-04 6.271794679198e-03 0.0 
0.0 0.0 -1.018204129641e-03 
-4.460788929649e-04 4.040748578588e-04 0.0 
4.040748578588e-04 4.503525698480e-03 0.0 
0.0 0.0 -8.365169925761e-04 
-1.261002707828e-03 -7.504870971913e-05 0.0 
-7.504870971913e-05 8.505176480558e-03 0.0 
0.0 0.0 -1.321929620191e-03 
-1.247677519614e-03 1.094732648068e-04 0.0 
1.094732648068e-04 7.850453942976e-03 0.0 
0.0 0.0 -1.174325249119e-03 
-5.404813862772e-04 -9.466285983316e-04 0.0 
-9.466285983316e-04 2.223885193950e-03 0.0 
0.0 0.0 -4.069995479128e-04 
-1.341047338368e-03 7.540167646977e-05 0.0 
7.540167646977e-05 8.197352777791e-03 0.0 
0.0 0.0 -1.341047338368e-03 
-1.130691151971e-03 -1.784363264906e-05 0.0 
-1.784363264906e-05 8.053842301100e-03 0.0 
0.0 0.0 -1.266414110344e-03 
-4.715184922734e-04 9.294387903624e-04 0.0 
9.294387903624e-04 3.876101003561e-03 0.0 
0.0 0.0 -7.237787631415e-04 
3.035840363915e-05 -4.057342954642e-04 0.0 
-4.057342954642e-04 2.137280708151e-04 0.0 
0.0 0.0 -1.046084890518e-04 
-1.265736625837e-03 -2.342234423567e-04 0.0 
-2.342234423567e-04 8.560274388960e-03 0.0 
0.0 0.0 -1.323469717371e-03 
-1.248103745975e-03 1.754263225543e-04 0.0 
1.754263225543e-04 7.767855351365e-03 0.0 
0.0 0.0 -1.167157861819e-03 
-2.143426304924e-04 -1.125447243117e-03 0.0 
-1.125447243117e-03 2.012406359622e-03 0.0 
0.0 0.0 -4.535238702637e-04 
-1.341709311525e-03 -1.537021795728e-04 0.0 
-1.537021795728e-04 8.247140811223e-03 0.0 
0.0 0.0 -1.341709311524e-03 
-8.340634901946e-04 -6.821178693031e-04 0.0 
-6.821178693031e-04 5.639816405277e-03 0.0 
0.0 0.0 -9.325599965574e-04 
-7.159156796781e-04 8.199594821406e-04 0.0 
8.199594821406e-04 3.747642167749e-03 0.0 
0.0 0.0 -6.229492605273e-04 
-9.690599654105e-04 4.302709909689e-04 0.0 
4.302709909689e-04 5.467189617691e-03 0.0 
0.0 0.0 -8.408860858065e-04 
-3.919357097026e-04 6.068237325882e-05 0.0 
6.068237325882e-05 4.381455962217e-03 0.0 
0.0 0.0 -8.054665293395e-04 
-6.923438558252e-04 -8.520265330426e-04 0.0 
-8.520265330426e-04 4.695093275442e-03 0.0 
0.0 0.0 -8.008683130455e-04 
-6.056515233478e-04 -4.164522829612e-04 0.0 
-4.164522829612e-04 5.267235237804e-03 0.0 
0.0 0.0 -9.181754741429e-04 
-1.093523269899e-03 7.798311719689e-05 0.0 
7.798311719689e-05 6.464920900132e-03 0.0 
0.0 0.0 -9.721028620036e-04 
-8.031200443167e-04 6.781379836070e-04 0.0 
6.781379836070e-04 4.309322447368e-03 0.0 
0.0 0.0 -6.945885048819e-04 
-7.991042375162e-04 4.855628797920e-04 0.0 
4.855628797920e-04 6.126908297853e-03 0.0 
0.0 0.0 -1.039409037654e-03 
-9.955657075652e-04 -4.803366383392e-06 0.0 
-4.803366383392e-06 6.069270927012e-03 0.0 
0.0 0.0 -8.839498032872e-04 
-7.742968154824e-04 -8.517460638285e-04 0.0 
-8.517460638285e-04 4.014337168077e-03 0.0 
0.0 0.0 -6.521967345917e-04 
-6.549358325978e-04 3.442178195061e-04 0.0 
3.442178195061e-04 5.516212137862e-03 0.0 
0.0 0.0 -9.664699797409e-04 
-3.659361313914e-04 -1.389777863593e-03 0.0 
-1.389777863593e-03 2.536314572587e-03 0.0 
0.0 0.0 -5.155438399970e-04 
-1.017459211522e-03 -2.035278755390e-04 0.0 
-2.035278755390e-04 5.749338419273e-03 0.0 
0.0 0.0 -9.093720595694e-04 
2.256137386907e-04 -1.163159502201e-04 0.0 
-1.163159502201e-04 1.137935582799e-04 0.0 
0.0 0.0 -4.585464485956e-05 
-3.462420398140e-04 1.018466210769e-03 0.0 
1.018466210769e-03 2.570297332312e-03 0.0 
0.0 0.0 -4.997308803768e-04 
-2.322903734365e-04 -1.457188189013e-03 0.0 
-1.457188189013e-03 2.158535862862e-03 0.0 
0.0 0.0 -4.875765080988e-04 
-8.614851687078e-04 -3.337722832802e-04 0.0 
-3.337722832802e-04 4.446512628758e-03 0.0 
0.0 0.0 -7.126562430121e-04 
-5.635163873739e-04 9.119017880977e-04 0.0 
9.119017880977e-04 4.220442908307e-03 0.0 
0.0 0.0 -7.595228636782e-04 
-7.920931595490e-04 -2.649669687123e-04 0.0 
-2.649669687123e-04 5.573841345894e-03 0.0 
0.0 0.0 -9.350600278798e-04 
-1.013052504013e-03 -8.823570252137e-05 0.0 
-8.823570252137e-05 6.008966805305e-03 0.0 
0.0 0.0 -8.962969588583e-04 
-3.359179918489e-04 -1.568493616469e-03 0.0 
-1.568493616469e-03 2.089144442065e-03 0.0 
0.0 0.0 -4.505554202764e-04 
-1.341827844788e-03 -1.871667057256e-04 0.0 
-1.871667057256e-04 8.296019085882e-03 0.0 
0.0 0.0 -1.341827844788e-03 
-9.219930325587e-04 3.393896039245e-04 0.0 
3.393896039245e-04 5.591653643792e-03 0.0 
0.0 0.0 -8.789935771182e-04 
-9.115582794458e-04 -2.493035172872e-04 0.0 
-2.493035172872e-04 4.677595953812e-03 0.0 
0.0 0.0 -7.413896480605e-04 
-8.652400327000e-04 3.890590998056e-04 0.0 
3.890590998056e-04 5.305115327796e-03 0.0 
0.0 0.0 -8.436662038215e-04 
-8.817818309206e-04 -6.648690080579e-04 0.0 
-6.648690080579e-04 4.510392914982e-03 0.0 
0.0 0.0 -7.098625721847e-04 
0.0 0.0 0.0 
0.0 0.0 0.0 
0.0 0.0 0.0 
-1.015724792628e-03 8.235652516451e-05 0.0 
8.235652516451e-05 5.775865579893e-03 0.0 
0.0 0.0 -8.733545218784e-04 
-8.401387806922e-04 6.123016035239e-05 0.0 
6.123016035239e-05 3.850164849745e-03 0.0 
0.0 0.0 -5.956302995864e-04 
2.119608216236e-04 1.827144702945e-05 0.0 
1.827144702945e-05 -6.337242555222e-05 0.0 
0.0 0.0 -6.368074117344e-05 
-9.031369501237e-04 -1.865236162329e-04 0.0 
-1.865236162329e-04 4.464828183770e-03 0.0 
0.0 0.0 -7.041275119738e-04 
-8.760607814048e-04 -2.015865901798e-04 0.0 
-2.015865901798e-04 6.047567037496e-03 0.0 
0.0 0.0 -1.001254648526e-03 
-1.205696135514e-03 2.785240829935e-04 0.0 
2.785240829935e-04 7.656838420364e-03 0.0 
0.0 0.0 -1.146946825052e-03 
-5.022948978825e-04 -4.626796724593e-04 0.0 
-4.626796724593e-04 4.761985454285e-03 0.0 
0.0 0.0 -8.532270185794e-04 
-5.545620008577e-04 -7.574531854601e-05 0.0 
-7.574531854601e-05 4.939516714005e-03 0.0 
0.0 0.0 -8.841559964380e-04 
-9.029537400273e-04 7.141549008008e-05 0.0 
7.141549008008e-05 4.945239925053e-03 0.0 
0.0 0.0 -7.495231765994e-04 
-8.844827213453e-04 6.847338950964e-05 0.0 
6.847338950964e-05 4.625730514937e-03 0.0 
0.0 0.0 -7.312625299844e-04 
-1.286320179804e-03 2.788583147739e-04 0.0 
2.788583147739e-04 8.406193484283e-03 0.0 
0.0 0.0 -1.286111585339e-03 
-8.045597696771e-04 4.385655444654e-04 0.0 
4.385655444654e-04 5.012857215938e-03 0.0 
0.0 0.0 -8.082854548548e-04 
6.621891051064e-04 -1.711434374491e-05 0.0 
-1.711434374491e-05 -4.360569155907e-05 0.0 
0.0 0.0 -9.362473743294e-05 
-4.298982998579e-04 -6.269550114416e-04 0.0 
-6.269550114416e-04 1.549337747066e-03 0.0 
0.0 0.0 -2.569639750501e-04 
-5.557804512661e-05 -2.649152406900e-04 0.0 
-2.649152406900e-04 2.900758507811e-04 0.0 
0.0 0.0 -1.004990595662e-04 
-6.031978273067e-04 -1.007320967644e-03 0.0 
-1.007320967644e-03 2.552633295107e-03 0.0 
0.0 0.0 -4.284133232656e-04 
-1.143923933864e-03 2.767605230601e-04 0.0 
2.767605230601e-04 7.311015416728e-03 0.0 
0.0 0.0 -1.134523071099e-03 
-1.214790267536e-03 -1.094816465951e-04 0.0 
-1.094816465951e-04 7.712260942966e-03 0.0 
0.0 0.0 -1.144649651339e-03 
-1.087508141976e-03 -1.587001134092e-04 0.0 
-1.587001134092e-04 6.822768700719e-03 0.0 
0.0 0.0 -1.087427768671e-03 
-6.685965332887e-04 -7.845956287838e-04 0.0 
-7.845956287838e-04 2.990542570396e-03 0.0 
0.0 0.0 -4.827803379924e-04 
-1.041668217069e-03 -5.600095855462e-04 0.0 
-5.600095855462e-04 5.820984951314e-03 0.0 
0.0 0.0 -9.063168105748e-04 
-1.002226704218e-03 -4.489969858519e-05 0.0 
-4.489969858519e-05 6.971386371707e-03 0.0 
0.0 0.0 -1.142106164841e-03 
5.911862038656e-04 5.961670165533e-05 0.0 
5.961670165533e-05 -1.764561884350e-04 0.0 
0.0 0.0 -1.777414351845e-04 
-8.306874199400e-04 -2.997045909462e-04 0.0 
-2.997045909462e-04 3.873272421704e-03 0.0 
0.0 0.0 -5.942115541274e-04 
-6.956533125248e-04 1.124846661467e-04 0.0 
1.124846661467e-04 3.135833764917e-03 0.0 
0.0 0.0 -4.980019828625e-04 
-1.307918774452e-03 -2.672149718263e-04 0.0 
-2.672149718263e-04 8.583156667318e-03 0.0 
0.0 0.0 -1.322396863610e-03 
-1.341641872583e-03 -2.574400453278e-04 0.0 
-2.574400453278e-04 8.313092341430e-03 0.0 
0.0 0.0 -1.341641872583e-03 
-9.100844780323e-04 -2.535656636935e-04 0.0 
-2.535656636935e-04 4.283598396940e-03 0.0 
0.0 0.0 -6.580288049735e-04 
-9.226849417219e-04 -5.822088138657e-04 0.0 
-5.822088138657e-04 4.742725005737e-03 0.0 
0.0 0.0 -7.385580096348e-04 
-7.259593438489e-04 -4.081287369355e-04 0.0 
-4.081287369355e-04 4.909588067259e-03 0.0 
0.0 0.0 -8.323457052078e-04 
-1.025384663725e-03 -1.558037465635e-06 0.0 
-1.558037465635e-06 7.232536331843e-03 0.0 
0.0 0.0 -1.177278300149e-03 
-5.185769804223e-04 -3.082242823645e-04 0.0 
-3.082242823645e-04 1.649765607481e-03 0.0 
0.0 0.0 -2.880367495917e-04 
-9.770068768367e-04 -9.822974250100e-05 0.0 
-9.822974250100e-05 6.742502940673e-03 0.0 
0.0 0.0 -1.104707344597e-03 
-8.864038043829e-05 -1.638440655004e-05 0.0 
-1.638440655004e-05 9.863844244365e-04 0.0 
0.0 0.0 -1.612556504808e-04 
-8.754272683905e-04 -6.018300858025e-04 0.0 
-6.018300858025e-04 4.312432546832e-03 0.0 
0.0 0.0 -6.724657308136e-04 
-8.826884309659e-04 -7.176448192389e-04 0.0 
-7.176448192389e-04 4.701849927849e-03 0.0 
0.0 0.0 -7.470513223635e-04 
-3.546308527174e-05 5.679765794383e-06 0.0 
5.679765794383e-06 2.993710717870e-04 0.0 
0.0 0.0 -1.131034227923e-04 
-8.541374211011e-04 1.051307269510e-04 0.0 
1.051307269510e-04 4.063038016891e-03 0.0 
0.0 0.0 -6.267591816330e-04 
-1.242827358992e-03 4.579768759709e-04 0.0 
4.579768759709e-04 7.784562517271e-03 0.0 
0.0 0.0 -1.176862138969e-03 
5.856171802454e-04 8.673890813667e-06 0.0 
8.673890813667e-06 6.976119991761e-06 0.0 
0.0 0.0 -9.786084279852e-05 
-8.702582028195e-04 1.105447853201e-04 0.0 
1.105447853201e-04 4.607072405037e-03 0.0 
0.0 0.0 -7.322753781719e-04 
-8.459002629386e-04 1.198690024363e-04 0.0 
1.198690024363e-04 4.870014320209e-03 0.0 
0.0 0.0 -7.130472889423e-04 
-6.411087712709e-04 -3.059567672411e-04 0.0 
-3.059567672411e-04 5.528224217795e-03 0.0 
0.0 0.0 -9.552000144736e-04 
-6.940260095912e-04 -2.019223501579e-04 0.0 
-2.019223501579e-04 3.181147651246e-03 0.0 
0.0 0.0 -4.943513106837e-04 
-3.551699552598e-04 -1.046898701828e-03 0.0 
-1.046898701828e-03 2.386678131376e-03 0.0 
0.0 0.0 -4.817493388239e-04 
-2.903941216122e-04 1.483074513055e-03 0.0 
1.483074513055e-03 1.457235103792e-03 0.0 
0.0 0.0 -3.398054741319e-04 
-1.199955943827e-03 -1.286515075727e-04 0.0 
-1.286515075727e-04 7.503949585872e-03 0.0 
0.0 0.0 -1.180895453064e-03 
-1.276254635442e-03 4.715115445783e-04 0.0 
4.715115445783e-04 8.059382999082e-03 0.0 
0.0 0.0 -1.286194385238e-03 
-1.186217889961e-03 -6.749121568718e-05 0.0 
-6.749121568718e-05 7.409362913807e-03 0.0 
0.0 0.0 -1.101088927253e-03 
-5.347000365982e-04 9.291634402025e-04 0.0 
9.291634402025e-04 2.503086312716e-03 0.0 
0.0 0.0 -4.457015571677e-04 
-3.190037393042e-04 -1.683187168607e-04 0.0 
-1.683187168607e-04 9.740026393817e-04 0.0 
0.0 0.0 -2.223875638571e-04 
-8.385442436262e-04 2.562372654306e-04 0.0 
2.562372654306e-04 4.497930936177e-03 0.0 
0.0 0.0 -6.999131133628e-04 
-8.425527780140e-04 3.452494000883e-05 0.0 
3.452494000883e-05 4.643700331840e-03 0.0 
0.0 0.0 -7.345111139194e-04 
-8.389403033821e-04 -1.305466340479e-06 0.0 
-1.305466340479e-06 4.908724598573e-03 0.0 
0.0 0.0 -7.144802219087e-04 
2.190065085930e-04 1.438757469426e-05 0.0 
1.438757469426e-05 -6.551925839151e-05 0.0 
0.0 0.0 -6.578025008634e-05 
-5.587289192583e-05 -6.452329894431e-06 0.0 
-6.452329894431e-06 2.977317204857e-04 0.0 
0.0 0.0 -1.036537836685e-04 
-1.659582098734e-04 -6.983629749951e-05 0.0 
-6.983629749951e-05 7.156238265913e-04 0.0 
0.0 0.0 -1.795416262981e-04 
-6.042827533109e-04 -3.178261870528e-04 0.0 
-3.178261870528e-04 2.298196668838e-03 0.0 
0.0 0.0 -3.820941496288e-04 
1.745656339544e-04 -6.881620967810e-06 0.0 
-6.881620967810e-06 5.205015129475e-04 0.0 
0.0 0.0 -1.430998070712e-04 
-9.621077650285e-04 9.743124488288e-05 0.0 
9.743124488288e-05 4.540703172736e-03 0.0 
0.0 0.0 -6.918148876825e-04 
0.0 0.0 0.0 
0.0 0.0 0.0 
0.0 0.0 0.0 
-6.636885702572e-04 -3.632840591834e-04 0.0 
-3.632840591834e-04 2.727769964994e-03 0.0 
0.0 0.0 -4.482372226011e-04 
-1.037073112810e-03 8.416167581821e-05 0.0 
8.416167581821e-05 6.231636848545e-03 0.0 
0.0 0.0 -9.582560723523e-04 
-8.428951159850e-04 8.320649882269e-05 0.0 
8.320649882269e-05 4.895786071823e-03 0.0 
0.0 0.0 -7.120344407548e-04 
-1.176195464104e-03 2.727173431630e-04 0.0 
2.727173431630e-04 7.571205441829e-03 0.0 
0.0 0.0 -1.169483110168e-03 
-8.724458015179e-04 -2.535481835564e-04 0.0 
-2.535481835564e-04 5.840199633402e-03 0.0 
0.0 0.0 -9.641449249716e-04 
-9.956049472303e-04 9.460602026458e-05 0.0 
9.460602026458e-05 5.823804297189e-03 0.0 
0.0 0.0 -8.988447104697e-04 
-7.453270263773e-04 1.666868432523e-04 0.0 
1.666868432523e-04 3.393805001824e-03 0.0 
0.0 0.0 -5.269378630653e-04 
-6.611997545445e-05 -3.806127284770e-05 0.0 
-3.806127284770e-05 9.766559638682e-04 0.0 
0.0 0.0 -1.602995255322e-04 
-1.340974968048e-03 1.475163558745e-04 0.0 
1.475163558745e-04 8.789407210591e-03 0.0 
0.0 0.0 -1.340974968048e-03 
-1.353375445294e-03 1.861681106883e-04 0.0 
1.861681106883e-04 9.067632799309e-03 0.0 
0.0 0.0 -1.320295381545e-03 
-9.653313430370e-04 3.172946590342e-04 0.0 
3.172946590342e-04 5.653212768820e-03 0.0 
0.0 0.0 -8.588387843224e-04 
-8.723549553050e-04 3.791940437681e-05 0.0 
3.791940437681e-05 4.638744233564e-03 0.0 
0.0 0.0 -7.326073368542e-04 
-7.433675000171e-04 -1.881116571238e-04 0.0 
-1.881116571238e-04 3.464526545461e-03 0.0 
0.0 0.0 -5.314511797787e-04 
-1.343039576571e-03 1.116238935560e-04 0.0 
1.116238935560e-04 9.058435864628e-03 0.0 
0.0 0.0 -1.322576402756e-03 
-6.088517818817e-04 -7.427980185432e-04 0.0 
-7.427980185432e-04 2.573085079122e-03 0.0 
0.0 0.0 -4.166600706249e-04 
-8.421343191380e-04 8.947296271355e-05 0.0 
8.947296271355e-05 4.867861189812e-03 0.0 
0.0 0.0 -7.125614225629e-04 
-8.442475580862e-04 6.688277321944e-05 0.0 
6.688277321944e-05 4.629764896323e-03 0.0 
0.0 0.0 -7.312775522649e-04 
-8.183075665077e-04 4.944600713478e-04 0.0 
4.944600713478e-04 4.297011605974e-03 0.0 
0.0 0.0 -6.755779900756e-04 
-1.341823989366e-03 3.176700121755e-04 0.0 
3.176700121755e-04 8.755155514573e-03 0.0 
0.0 0.0 -1.341823989366e-03 
-1.316183787817e-03 1.764356624828e-04 0.0 
1.764356624828e-04 9.061441417317e-03 0.0 
0.0 0.0 -1.322582685247e-03 
1.706419388007e-04 -6.581066488368e-06 0.0 
-6.581066488368e-06 5.083643028934e-04 0.0 
0.0 0.0 -1.414504174366e-04 
2.733244565043e-04 1.058297402918e-05 0.0 
1.058297402918e-05 -8.183453837543e-05 0.0 
0.0 0.0 -8.206710776953e-05 
-4.260081866660e-04 -1.856958100474e-04 0.0 
-1.856958100474e-04 1.223914747001e-03 0.0 
0.0 0.0 -2.229509930541e-04 
-8.539532720431e-04 -3.709598021116e-04 0.0 
-3.709598021116e-04 4.637819177533e-03 0.0 
0.0 0.0 -7.497705102653e-04 
-1.319228459702e-03 1.823496012509e-04 0.0 
1.823496012509e-04 8.037185883931e-03 0.0 
0.0 0.0 -1.224669017856e-03 
0.0 0.0 0.0 
0.0 0.0 0.0 
0.0 0.0 0.0 
-1.164534197096e-03 -1.984727069524e-04 0.0 
-1.984727069524e-04 7.327097077271e-03 0.0 
0.0 0.0 -1.092518628634e-03 
0.0 0.0 0.0 
0.0 0.0 0.0 
0.0 0.0 0.0 
-6.586480689669e-04 -2.893406478862e-05 0.0 
-2.893406478862e-05 5.445033550024e-03 0.0 
0.0 0.0 -9.493083249531e-04 
6.413544779552e-05 -3.379620450346e-04 0.0 
-3.379620450346e-04 1.394736970074e-04 0.0 
0.0 0.0 -8.691392457031e-05 
1.450430834232e-05 -8.616792963926e-05 0.0 
-8.616792963926e-05 3.294529381564e-05 0.0 
0.0 0.0 -2.033554378198e-05 
-6.338862404721e-04 -1.383285000905e-04 0.0 
-1.383285000905e-04 5.212576859225e-03 0.0 
0.0 0.0 -9.122568895951e-04 
-1.285900318349e-03 2.146352195215e-05 0.0 
2.146352195215e-05 7.759528202279e-03 0.0 
0.0 0.0 -1.192963836147e-03 
-1.029044917040e-03 -7.279636213487e-05 0.0 
-7.279636213487e-05 6.446740060124e-03 0.0 
0.0 0.0 -9.361271490834e-04 
-8.407421483093e-04 3.218859450769e-04 0.0 
3.218859450769e-04 4.639661762171e-03 0.0 
0.0 0.0 -7.268406435589e-04 
-3.072399208747e-05 -1.897210475410e-05 0.0 
-1.897210475410e-05 2.991997316549e-04 0.0 
0.0 0.0 -1.150610312432e-04 
-1.088521664505e-03 -4.986556758640e-04 0.0 
-4.986556758640e-04 6.052818965112e-03 0.0 
0.0 0.0 -9.349022313484e-04 
-1.337797817327e-03 2.888082420915e-05 0.0 
2.888082420915e-05 8.797778454419e-03 0.0 
0.0 0.0 -1.337797817327e-03 
-1.344206616167e-03 -8.091836582187e-05 0.0 
-8.091836582187e-05 9.064612422815e-03 0.0 
0.0 0.0 -1.322354755130e-03 
-8.386635614455e-04 6.856267782852e-05 0.0 
6.856267782852e-05 4.896920748213e-03 0.0 
0.0 0.0 -7.125764448434e-04 
-6.958258556129e-04 6.990936182405e-05 0.0 
6.990936182405e-05 5.692375670829e-03 0.0 
0.0 0.0 -9.863757069361e-04 
-1.341607717199e-03 1.551401879936e-04 0.0 
1.551401879936e-04 8.810609962061e-03 0.0 
0.0 0.0 -1.341607717199e-03 
-8.875903164710e-04 2.432432692731e-04 0.0 
2.432432692731e-04 6.412529175352e-03 0.0 
0.0 0.0 -1.046710270629e-03 
-7.224987108801e-05 2.416900893393e-05 0.0 
2.416900893393e-05 9.236508622773e-04 0.0 
0.0 0.0 -1.589907658001e-04 
1.844060408699e-04 -1.026478452949e-05 0.0 
-1.026478452949e-05 5.130263938471e-04 0.0 
0.0 0.0 -1.435574244405e-04 
-2.891409061342e-05 -3.272758998480e-05 0.0 
-3.272758998480e-05 3.203427987140e-04 0.0 
0.0 0.0 -1.200048127433e-04 
-8.246082063499e-04 1.600403801409e-04 0.0 
1.600403801409e-04 3.844559296729e-03 0.0 
0.0 0.0 -5.933358154923e-04 
-1.368440753648e-03 -2.847926622310e-04 0.0 
-2.847926622310e-04 8.814363085181e-03 0.0 
0.0 0.0 -1.322828574513e-03 
-1.280689091558e-03 -2.286632291646e-04 0.0 
-2.286632291646e-04 8.487923234130e-03 0.0 
0.0 0.0 -1.258329778789e-03 
3.680862152860e-04 -1.041331323931e-05 0.0 
-1.041331323931e-05 -1.102969966245e-04 0.0 
0.0 0.0 -1.104810937121e-04 
-9.449458894061e-04 -2.123271304103e-04 0.0 
-2.123271304103e-04 4.512069341782e-03 0.0 
0.0 0.0 -6.938761155152e-04 
-1.344798314370e-03 -1.247366253674e-04 0.0 
-1.247366253674e-04 8.595631148609e-03 0.0 
0.0 0.0 -1.344798314369e-03 
-1.373531731671e-03 -1.707869213026e-04 0.0 
-1.707869213026e-04 8.832402882049e-03 0.0 
0.0 0.0 -1.318785251170e-03 
-1.282177360506e-03 -3.124369979244e-04 0.0 
-3.124369979244e-04 8.610103347005e-03 0.0 
0.0 0.0 -1.321151187552e-03 
-1.113562773683e-03 2.219946434219e-04 0.0 
2.219946434219e-04 6.878878469590e-03 0.0 
0.0 0.0 -1.027148381742e-03 
-1.180769122149e-03 -2.135481498419e-04 0.0 
-2.135481498419e-04 7.573759840694e-03 0.0 
0.0 0.0 -1.125709525796e-03 
-1.338030260144e-03 -1.771563366243e-04 0.0 
-1.771563366243e-04 8.542675147626e-03 0.0 
0.0 0.0 -1.338030260144e-03 
-1.340754991027e-03 -2.390663127656e-04 0.0 
-2.390663127656e-04 8.545998822267e-03 0.0 
0.0 0.0 -1.340754991027e-03 
-1.152960594027e-03 1.859255734492e-04 0.0 
1.859255734492e-04 7.333872638941e-03 0.0 
0.0 0.0 -1.092518628634e-03 
7.181459211832e-04 8.460727312209e-05 0.0 
8.460727312209e-05 -9.817562384276e-05 0.0 
0.0 0.0 -1.266527795078e-04 
-8.216739313019e-04 1.642653897250e-05 0.0 
1.642653897250e-05 4.866544847831e-03 0.0 
0.0 0.0 -7.139539158865e-04 
-8.429301589013e-04 7.371775731573e-05 0.0 
7.371775731573e-05 4.924292125164e-03 0.0 
0.0 0.0 -7.133642253441e-04 
3.173602498757e-04 3.479130905298e-06 0.0 
3.479130905298e-06 -9.515851142562e-05 0.0 
0.0 0.0 -9.522931647859e-05 
-1.342313591240e-03 -2.893823135638e-04 0.0 
-2.893823135638e-04 8.501007321383e-03 0.0 
0.0 0.0 -1.342313591240e-03 
-1.327713446301e-03 -3.071447071229e-04 0.0 
-3.071447071229e-04 8.654446540322e-03 0.0 
0.0 0.0 -1.318355947622e-03 
-1.337959751097e-03 -3.069413126871e-04 0.0 
-3.069413126871e-04 8.377273660842e-03 0.0 
0.0 0.0 -1.337959751097e-03 
5.382873424725e-04 1.051034098534e-05 0.0 
1.051034098534e-05 3.447207322761e-05 0.0 
0.0 0.0 -9.875111991497e-05 
5.465365996427e-04 1.921140548757e-05 0.0 
1.921140548757e-05 3.586604406774e-05 0.0 
0.0 0.0 -1.001629653630e-04 
-1.340754991027e-03 -2.745211848364e-04 0.0 
-2.745211848364e-04 8.326750669152e-03 0.0 
0.0 0.0 -1.340754991027e-03 
-1.340396196526e-03 -3.177254258607e-04 0.0 
-3.177254258607e-04 8.348861196928e-03 0.0 
0.0 0.0 -1.340396196526e-03 
-1.100408733265e-03 -2.290747800904e-04 0.0 
-2.290747800904e-04 6.654648242085e-03 0.0 
0.0 0.0 -9.936726122374e-04 
-8.156679351147e-04 3.791493186346e-05 0.0 
3.791493186346e-05 4.866771241895e-03 0.0 
0.0 0.0 -7.124851972278e-04 
-1.126282978383e-03 -2.242329370711e-04 0.0 
-2.242329370711e-04 7.103431173965e-03 0.0 
0.0 0.0 -1.060142436171e-03 
-9.808195587630e-04 -2.230997408213e-04 0.0 
-2.230997408213e-04 5.708119715060e-03 0.0 
0.0 0.0 -8.626607521899e-04 
-7.941305620824e-04 1.551089981454e-05 0.0 
1.551089981454e-05 4.869359917574e-03 0.0 
0.0 0.0 -7.121912678902e-04 
7.040827403612e-04 7.380490456996e-06 0.0 
7.380490456996e-06 -3.505683220774e-05 0.0 
0.0 0.0 -9.491348420367e-05 
6.357527662839e-04 -8.824699617213e-05 0.0 
-8.824699617213e-05 3.733323429846e-05 0.0 
0.0 0.0 -1.068803031330e-04 
5.856552846093e-04 -8.204592747125e-05 0.0 
-8.204592747125e-05 2.270090481132e-05 0.0 
0.0 0.0 -9.934895370439e-05 
6.682124726064e-04 -5.433044528850e-05 0.0 
-5.433044528850e-05 2.762423436657e-05 0.0 
0.0 0.0 -1.574260069802e-04 
-9.875526380001e-04 1.999683647263e-04 0.0 
1.999683647263e-04 4.756922496595e-03 0.0 
0.0 0.0 -7.271325101417e-04 
-9.022422993743e-04 1.689219604000e-04 0.0 
1.689219604000e-04 4.293373185727e-03 0.0 
0.0 0.0 -6.600769387058e-04 
0.0 0.0 0.0 
0.0 0.0 0.0 
0.0 0.0 0.0 
-1.139432736752e-03 1.969596473993e-04 0.0 
1.969596473993e-04 6.092355855196e-03 0.0 
0.0 0.0 -9.221709323543e-04 
0.0 0.0 0.0 
0.0 0.0 0.0 
0.0 0.0 0.0 
-1.341471640605e-03 2.821656468085e-04 0.0 
2.821656468085e-04 8.748357117342e-03 0.0 
0.0 0.0 -1.341471640605e-03 
-1.340968685557e-03 1.312437350478e-04 0.0 
1.312437350478e-04 8.782913575074e-03 0.0 
0.0 0.0 -1.340968685557e-03 
-1.339320413496e-03 1.880713074898e-04 0.0 
1.880713074898e-04 8.789181418084e-03 0.0 
0.0 0.0 -1.339320413496e-03 
-2.891904725790e-04 2.036868385329e-04 0.0 
2.036868385329e-04 1.487086439737e-03 0.0 
0.0 0.0 -2.599136149544e-04 
-6.430141663801e-04 1.708121578067e-04 0.0 
1.708121578067e-04 2.925097320677e-03 0.0 
0.0 0.0 -4.607467809507e-04 
-1.337132911908e-03 8.989218137943e-05 0.0 
8.989218137943e-05 8.798780956338e-03 0.0 
0.0 0.0 -1.337132911908e-03 
-1.268709771428e-03 1.750290220288e-04 0.0 
1.750290220288e-04 7.410750387042e-03 0.0 
0.0 0.0 -1.124956933753e-03 
-1.344556937803e-03 5.420067643192e-05 0.0 
5.420067643192e-05 8.841140369170e-03 0.0 
0.0 0.0 -1.344556937803e-03 
-1.309963082983e-03 1.898374887779e-04 0.0 
1.898374887779e-04 7.848623061347e-03 0.0 
0.0 0.0 -1.192538251246e-03 
-1.338506523092e-03 2.196897297750e-04 0.0 
2.196897297750e-04 8.286254789378e-03 0.0 
0.0 0.0 -1.259905836238e-03 
-8.634449756302e-04 -2.267992264203e-04 0.0 
-2.267992264203e-04 4.063283112415e-03 0.0 
0.0 0.0 -6.267460875326e-04 
-1.354536289335e-03 7.630110527830e-05 0.0 
7.630110527830e-05 9.083283423121e-03 0.0 
0.0 0.0 -1.318101597465e-03 
-1.353127036110e-03 2.052350059942e-04 0.0 
2.052350059942e-04 9.070380165704e-03 0.0 
0.0 0.0 -1.321689849711e-03 
-1.286890123680e-03 -2.394731622084e-04 0.0 
-2.394731622084e-04 7.571755325092e-03 0.0 
0.0 0.0 -1.157495185000e-03 
-1.323365826624e-03 -2.403819852103e-04 0.0 
-2.403819852103e-04 8.033634754339e-03 0.0 
0.0 0.0 -1.225777420818e-03 
-1.161453211646e-03 -3.736884005785e-04 0.0 
-3.736884005785e-04 6.493225178424e-03 0.0 
0.0 0.0 -9.925156490314e-04 
0.0 0.0 0.0 
0.0 0.0 0.0 
0.0 0.0 0.0 
-8.671818712195e-04 -5.363828857818e-04 0.0 
-5.363828857818e-04 4.105500038503e-03 0.0 
0.0 0.0 -6.350241097613e-04 
1.538446466672e-04 -5.196602102228e-05 0.0 
-5.196602102228e-05 5.032465276658e-04 0.0 
0.0 0.0 -1.372732375194e-04 
-1.212742551210e-03 -4.759587518373e-04 0.0 
-4.759587518373e-04 7.564630454968e-03 0.0 
0.0 0.0 -1.177819030284e-03 
-8.605651419967e-04 -2.779235020759e-04 0.0 
-2.779235020759e-04 4.247159815615e-03 0.0 
0.0 0.0 -6.753691525988e-04 
-1.209845026625e-03 -3.828065324347e-05 0.0 
-3.828065324347e-05 7.089490121300e-03 0.0 
0.0 0.0 -1.099016898379e-03 
-5.359685570494e-04 -6.677092728244e-04 0.0 
-6.677092728244e-04 2.153205781578e-03 0.0 
0.0 0.0 -3.504775146279e-04 
-1.805242587165e-04 1.222080852242e-05 0.0 
1.222080852242e-05 7.550645308543e-04 0.0 
0.0 0.0 -1.735952156319e-04 
-1.264456075116e-03 -3.850163355986e-04 0.0 
-3.850163355986e-04 7.592925326403e-03 0.0 
0.0 0.0 -1.161668299909e-03 
-9.012428398998e-04 -5.241478665253e-04 0.0 
-5.241478665253e-04 4.532812848754e-03 0.0 
0.0 0.0 -7.012080445024e-04 
-8.068122859681e-04 1.121430841948e-04 0.0 
1.121430841948e-04 3.618999234990e-03 0.0 
0.0 0.0 -5.611363230934e-04 
-1.221373729773e-03 -3.971185644326e-04 0.0 
-3.971185644326e-04 7.158861497178e-03 0.0 
0.0 0.0 -1.096102707776e-03 
-1.225888037185e-03 2.356398892211e-04 0.0 
2.356398892211e-04 7.926332987898e-03 0.0 
0.0 0.0 -1.188907866872e-03 
-7.850590963075e-04 -2.211249008548e-04 0.0 
-2.211249008548e-04 3.627921543623e-03 0.0 
0.0 0.0 -5.602736785587e-04 
-9.153466014746e-04 -5.672710459790e-04 0.0 
-5.672710459790e-04 6.328544019957e-03 0.0 
0.0 0.0 -1.035646790376e-03 
-9.544485914901e-04 -2.692006228927e-04 0.0 
-2.692006228927e-04 5.706833288183e-03 0.0 
0.0 0.0 -9.181742748318e-04 
-1.151482432891e-03 -1.721733511891e-05 0.0 
-1.721733511891e-05 6.426989542900e-03 0.0 
0.0 0.0 -9.952786863929e-04 
-1.189685403522e-03 2.186394532171e-05 0.0 
2.186394532171e-05 6.656907816596e-03 0.0 
0.0 0.0 -1.024224580100e-03 
-2.906015399770e-05 6.908185225539e-04 0.0 
6.908185225539e-04 2.388123543614e-03 0.0 
0.0 0.0 -5.788817793163e-04 
-8.005376655691e-04 3.171132398136e-04 0.0 
3.171132398136e-04 4.241491794382e-03 0.0 
0.0 0.0 -6.651338130661e-04 
-5.426647513542e-04 5.869195559815e-04 0.0 
5.869195559815e-04 4.187651392435e-03 0.0 
0.0 0.0 -7.293057621918e-04 
-1.068839531754e-03 -1.396982746719e-04 0.0 
-1.396982746719e-04 5.983670003937e-03 0.0 
0.0 0.0 -9.378562126457e-04 
-1.253909417431e-03 -3.654180260376e-04 0.0 
-3.654180260376e-04 7.384129283890e-03 0.0 
0.0 0.0 -1.125100902632e-03 
-1.223048658493e-03 8.194922759041e-05 0.0 
8.194922759041e-05 6.885373196445e-03 0.0 
0.0 0.0 -1.053755873404e-03 
-5.843499511654e-04 -7.478811802874e-04 0.0 
-7.478811802874e-04 2.078474299742e-03 0.0 
0.0 0.0 -3.685493992842e-04 
-1.215420929976e-03 2.914568716421e-04 0.0 
2.914568716421e-04 7.912104441246e-03 0.0 
0.0 0.0 -1.183514100502e-03 
-1.184839979766e-03 2.716593684437e-04 0.0 
2.716593684437e-04 7.456605698874e-03 0.0 
0.0 0.0 -1.117084069417e-03 
-9.160676408920e-04 2.566629763440e-04 0.0 
2.566629763440e-04 5.389449650205e-03 0.0 
0.0 0.0 -8.110481619253e-04 
-1.072043250355e-03 -1.594447290691e-04 0.0 
-1.594447290691e-04 6.194419037886e-03 0.0 
0.0 0.0 -9.753747863247e-04 
-1.113512703567e-03 -7.830874303778e-05 0.0 
-7.830874303778e-05 6.209473753146e-03 0.0 
0.0 0.0 -9.665592132828e-04 
-1.247553885459e-03 -1.638883659802e-04 0.0 
-1.638883659802e-04 8.032779373469e-03 0.0 
0.0 0.0 -1.185362187646e-03 
-1.209218779800e-03 2.395415248872e-04 0.0 
2.395415248872e-04 7.733666527183e-03 0.0 
0.0 0.0 -1.150972777267e-03 
-9.235989750770e-04 -6.984337716094e-04 0.0 
-6.984337716094e-04 5.520417486699e-03 0.0 
0.0 0.0 -8.866930489607e-04 
-1.284523920474e-03 -3.501071659254e-04 0.0 
-3.501071659254e-04 7.805517890163e-03 0.0 
0.0 0.0 -1.190872049285e-03 
-1.177897572884e-03 3.138623603337e-04 0.0 
3.138623603337e-04 7.354283994280e-03 0.0 
0.0 0.0 -1.103416240745e-03 
-1.224145241381e-03 -2.616286438841e-04 0.0 
-2.616286438841e-04 6.885317791912e-03 0.0 
0.0 0.0 -1.053748284807e-03 
-1.251504070725e-03 -4.981478354757e-04 0.0 
-4.981478354757e-04 7.817749108824e-03 0.0 
0.0 0.0 -1.210017230578e-03 
-1.240161038229e-03 -1.265963501437e-04 0.0 
-1.265963501437e-04 7.971776447579e-03 0.0 
0.0 0.0 -1.181737430652e-03 
-1.104792332721e-03 -1.417124884619e-04 0.0 
-1.417124884619e-04 6.803117520475e-03 0.0 
0.0 0.0 -1.011817915138e-03 
-9.092260506378e-04 -6.128458239001e-04 0.0 
-6.128458239001e-04 6.116526816133e-03 0.0 
0.0 0.0 -9.985655989919e-04 
-5.244393316962e-04 -3.327701467073e-07 0.0 
-3.327701467073e-07 2.217192403788e-03 0.0 
0.0 0.0 -3.644364776638e-04 
-5.557520001356e-04 -9.492103982614e-04 0.0 
-9.492103982614e-04 1.854328414375e-03 0.0 
0.0 0.0 -3.414758422231e-04 
-2.976977379688e-04 -4.729019177062e-04 0.0 
-4.729019177062e-04 1.065430610337e-03 0.0 
0.0 0.0 -1.876370064529e-04 
-1.394869518500e-05 -5.836024776206e-04 0.0 
-5.836024776206e-04 3.988673203720e-04 0.0 
0.0 0.0 -1.649651250801e-04 
-1.208849354757e-03 -1.442002111852e-04 0.0 
-1.442002111852e-04 7.751975943977e-03 0.0 
0.0 0.0 -1.150998037120e-03 
-1.270626804187e-03 5.625887811154e-05 0.0 
5.625887811154e-05 7.521765115722e-03 0.0 
0.0 0.0 -1.156839719840e-03 
-1.128430539847e-04 -4.533921113002e-04 0.0 
-4.533921113002e-04 5.125802596057e-04 0.0 
0.0 0.0 -1.512448671109e-04 
-1.224260673069e-03 1.930240191298e-04 0.0 
1.930240191298e-04 7.672098389018e-03 0.0 
0.0 0.0 -1.160298666437e-03 
-9.269777591648e-04 2.462098102623e-04 0.0 
2.462098102623e-04 5.566246555216e-03 0.0 
0.0 0.0 -8.436798659344e-04 
-1.183821186611e-03 -4.510450975400e-04 0.0 
-4.510450975400e-04 6.938898886609e-03 0.0 
0.0 0.0 -1.067477449466e-03 
-1.234042430495e-03 4.386686661325e-05 0.0 
4.386686661325e-05 7.085000705368e-03 0.0 
0.0 0.0 -1.090430023688e-03 
-4.688031105262e-04 -9.449998288247e-04 0.0 
-9.449998288247e-04 2.708853865005e-03 0.0 
0.0 0.0 -5.090628918580e-04 
-1.241127751091e-03 -3.232486977457e-04 0.0 
-3.232486977457e-04 7.146083644213e-03 0.0 
0.0 0.0 -1.087955833448e-03 
-9.128116180444e-04 -2.432084876036e-04 0.0 
-2.432084876036e-04 5.398327604704e-03 0.0 
0.0 0.0 -8.100176300978e-04 
-7.075550094797e-04 -2.554204369628e-05 0.0 
-2.554204369628e-05 5.888227624213e-03 0.0 
0.0 0.0 -1.000388816061e-03 
-1.275643571196e-03 -3.853184117788e-05 0.0 
-3.853184117788e-05 7.999890426169e-03 0.0 
0.0 0.0 -1.242964905849e-03 
-4.891437223720e-04 4.195566496952e-05 0.0 
4.195566496952e-05 2.125578513997e-03 0.0 
0.0 0.0 -3.542437553904e-04 
-1.232067324065e-03 -4.786069064869e-04 0.0 
-4.786069064869e-04 7.807210147599e-03 0.0 
0.0 0.0 -1.215045542354e-03 
-1.132051344136e-03 -1.297668119058e-04 0.0 
-1.297668119058e-04 7.059354268222e-03 0.0 
0.0 0.0 -1.048288725887e-03 
-5.597857793192e-04 4.639966247623e-05 0.0 
4.639966247623e-05 2.420049368412e-03 0.0 
0.0 0.0 -3.930611257745e-04 
-5.609737831535e-04 -1.192047374110e-03 0.0 
-1.192047374110e-03 2.290088636828e-03 0.0 
0.0 0.0 -4.034900192350e-04 
-1.019435653485e-03 2.510797196313e-05 0.0 
2.510797196313e-05 5.114500101547e-03 0.0 
0.0 0.0 -7.909606353592e-04 
-1.046153520856e-03 2.672543322815e-04 0.0 
2.672543322815e-04 6.254372891690e-03 0.0 
0.0 0.0 -9.409807611877e-04 
-7.501439557545e-04 -2.986549649001e-04 0.0 
-2.986549649001e-04 3.375633566619e-03 0.0 
0.0 0.0 -5.429771841545e-04 
-1.160690986180e-03 -1.496920489451e-04 0.0 
-1.496920489451e-04 7.303854633305e-03 0.0 
0.0 0.0 -1.085119818393e-03 
-1.069476201499e-03 -1.757346183128e-04 0.0 
-1.757346183128e-04 6.567285104211e-03 0.0 
0.0 0.0 -9.816794289629e-04 
-9.579280571301e-04 -1.773255598002e-04 0.0 
-1.773255598002e-04 4.907486764764e-03 0.0 
0.0 0.0 -7.700930343086e-04 
-1.202171244896e-03 -3.172466399621e-04 0.0 
-3.172466399621e-04 6.703539097156e-03 0.0 
0.0 0.0 -1.021757709120e-03 
-1.211296574698e-03 -3.721899322367e-04 0.0 
-3.721899322367e-04 6.940479911899e-03 0.0 
0.0 0.0 -1.058696934625e-03 
-1.135291475184e-03 2.700006977273e-04 0.0 
2.700006977273e-04 6.997454425646e-03 0.0 
0.0 0.0 -1.050681058959e-03 
-4.173596233207e-04 -3.503884104976e-04 0.0 
-3.503884104976e-04 1.875894239502e-03 0.0 
0.0 0.0 -3.058749225436e-04 
-9.447771700352e-04 -1.262936496125e-04 0.0 
-1.262936496125e-04 4.694024374325e-03 0.0 
0.0 0.0 -7.328582426338e-04 
-9.670495794898e-04 5.137281078932e-04 0.0 
5.137281078932e-04 6.920842306521e-03 0.0 
0.0 0.0 -1.141128458404e-03 
-1.159905672637e-03 -1.212910240168e-04 0.0 
-1.212910240168e-04 7.261813298966e-03 0.0 
0.0 0.0 -1.078198857115e-03 
-8.846237530489e-04 -1.118837918711e-04 0.0 
-1.118837918711e-04 4.234828904613e-03 0.0 
0.0 0.0 -6.666835465145e-04 
-9.866099674588e-04 -6.396910670883e-04 0.0 
-6.396910670883e-04 5.776957758952e-03 0.0 
0.0 0.0 -9.153036164073e-04 
-1.180273166295e-03 -5.195576023231e-04 0.0 
-5.195576023231e-04 7.573511676705e-03 0.0 
0.0 0.0 -1.187586327529e-03 
-1.090487437882e-03 2.486631283317e-04 0.0 
2.486631283317e-04 6.750183946417e-03 0.0 
0.0 0.0 -1.013969106439e-03 
4.266683345687e-05 -1.829982136319e-05 0.0 
-1.829982136319e-05 -1.175196824510e-05 0.0 
0.0 0.0 -1.324922794790e-05 
-2.207289874608e-04 -3.235795152871e-04 0.0 
-3.235795152871e-04 1.003256593638e-03 0.0 
0.0 0.0 -1.835536028976e-04 
6.095472518787e-04 -2.844414826135e-05 0.0 
-2.844414826135e-05 2.461208838896e-04 0.0 
0.0 0.0 -3.667149153293e-04 
-1.247686431213e-03 1.804464591039e-05 0.0 
1.804464591039e-05 7.316811787833e-03 0.0 
0.0 0.0 -1.127837695838e-03 
-1.073532930030e-03 2.556328204713e-04 0.0 
2.556328204713e-04 6.504084694261e-03 0.0 
0.0 0.0 -9.775003154318e-04 
-1.065496431756e-03 -3.247503852032e-04 0.0 
-3.247503852032e-04 5.643495466523e-03 0.0 
0.0 0.0 -8.513051444990e-04 
-9.769664875946e-04 2.379062424114e-04 0.0 
2.379062424114e-04 5.801214914582e-03 0.0 
0.0 0.0 -8.745614812816e-04 
-1.019950067796e-03 -4.586219499737e-04 0.0 
-4.586219499737e-04 7.042194348422e-03 0.0 
0.0 0.0 -1.139196670502e-03 
-1.001595776578e-03 -1.032368991806e-04 0.0 
-1.032368991806e-04 5.128573561517e-03 0.0 
0.0 0.0 -7.988714448434e-04 
-1.198933731184e-03 -2.304563849884e-06 0.0 
-2.304563849884e-06 6.870961844438e-03 0.0 
0.0 0.0 -1.061632825506e-03 
-4.894390167554e-04 -2.936556089740e-04 0.0 
-2.936556089740e-04 2.281659796893e-03 0.0 
0.0 0.0 -3.615122310665e-04 
-1.252320573339e-03 -4.986115071304e-05 0.0 
-4.986115071304e-05 7.805865228042e-03 0.0 
0.0 0.0 -1.211531131004e-03 
-9.705690281363e-04 -5.093762920131e-04 0.0 
-5.093762920131e-04 4.972659776742e-03 0.0 
0.0 0.0 -7.673127347790e-04 
-5.395948498915e-04 -2.749809582872e-04 0.0 
-2.749809582872e-04 2.502960479934e-03 0.0 
0.0 0.0 -3.889166325194e-04 
-9.539878925134e-04 -4.665681980887e-04 0.0 
-4.665681980887e-04 4.746329446601e-03 0.0 
0.0 0.0 -7.311132045151e-04 
-7.861451495527e-04 -2.221214863257e-04 0.0 
-2.221214863257e-04 3.593397886981e-03 0.0 
0.0 0.0 -5.716673668464e-04 
-6.390151670991e-04 -6.536657789763e-04 0.0 
-6.536657789763e-04 2.791763486177e-03 0.0 
0.0 0.0 -4.452767020142e-04 
-1.072653987371e-03 2.886861907429e-05 0.0 
2.886861907429e-05 5.536656976787e-03 0.0 
0.0 0.0 -8.564950983273e-04 
2.053402963574e-04 2.693149737115e-05 0.0 
2.693149737115e-05 -6.111100134196e-05 0.0 
0.0 0.0 -6.181255500660e-05 
1.464512989776e-04 -5.911592787119e-06 0.0 
-5.911592787119e-06 -4.332551876097e-05 0.0 
0.0 0.0 -4.419676295000e-05 
-1.129321225881e-03 -4.366761249298e-04 0.0 
-4.366761249298e-04 6.278524906094e-03 0.0 
0.0 0.0 -9.636005660098e-04 
-4.459230001805e-04 -3.109429784165e-04 0.0 
-3.109429784165e-04 2.087500805873e-03 0.0 
0.0 0.0 -3.336449385292e-04 
-1.093345380725e-03 -5.267841385720e-04 0.0 
-5.267841385720e-04 6.263877748210e-03 0.0 
0.0 0.0 -9.724388998541e-04 
-1.043259012928e-03 -5.809617148742e-04 0.0 
-5.809617148742e-04 6.025832941714e-03 0.0 
0.0 0.0 -9.438473481109e-04 
-7.593501897991e-04 -4.626236543671e-04 0.0 
-4.626236543671e-04 3.770567817408e-03 0.0 
0.0 0.0 -6.177757646845e-04 
-3.406532554668e-04 -1.201349069570e-03 0.0 
-1.201349069570e-03 1.971960000255e-03 0.0 
0.0 0.0 -4.162223005415e-04 
-1.210770017431e-03 -8.268587528123e-05 0.0 
-8.268587528123e-05 7.661732423863e-03 0.0 
0.0 0.0 -1.137719822027e-03 
2.217423052273e-04 3.028948149786e-04 0.0 
3.028948149786e-04 -1.208394326889e-05 0.0 
0.0 0.0 -8.985358369644e-05 
-8.285748112363e-04 -1.587478080269e-04 0.0 
-1.587478080269e-04 3.819529826762e-03 0.0 
0.0 0.0 -6.004815939294e-04 
-1.049679539983e-03 -3.693865297615e-04 0.0 
-3.693865297615e-04 7.240151455212e-03 0.0 
0.0 0.0 -1.175533656463e-03 
-3.983359874590e-04 4.184586300730e-05 0.0 
4.184586300730e-05 1.714439103962e-03 0.0 
0.0 0.0 -2.977570873278e-04 
-1.020229649597e-03 -1.375914676709e-04 0.0 
-1.375914676709e-04 6.101662351483e-03 0.0 
0.0 0.0 -9.088859120638e-04 
-9.450324784717e-04 -1.832830397253e-04 0.0 
-1.832830397253e-04 5.623770961517e-03 0.0 
0.0 0.0 -8.416286270284e-04 
-4.351237697251e-04 -5.540829146340e-04 0.0 
-5.540829146340e-04 1.723099038299e-03 0.0 
0.0 0.0 -2.842394630762e-04 
-1.127395628762e-03 -5.008482085009e-04 0.0 
-5.008482085009e-04 7.317936875090e-03 0.0 
0.0 0.0 -1.158722036769e-03 
-1.133506044246e-03 -8.767361897690e-05 0.0 
-8.767361897690e-05 6.959505034578e-03 0.0 
0.0 0.0 -1.034898561726e-03 
-4.951489600236e-04 -4.786425625421e-05 0.0 
-4.786425625421e-05 2.022039619189e-03 0.0 
0.0 0.0 -3.364655670308e-04 
-1.234708714507e-03 -3.925269914934e-05 0.0 
-3.925269914934e-05 7.851562311589e-03 0.0 
0.0 0.0 -1.166520446339e-03 
-1.230308234664e-03 3.090146298482e-04 0.0 
3.090146298482e-04 7.789607374426e-03 0.0 
0.0 0.0 -1.169001632583e-03 
-5.233675107163e-04 -4.314455861334e-04 0.0 
-4.314455861334e-04 2.327927411805e-03 0.0 
0.0 0.0 -3.701904734684e-04 
-5.932851689167e-04 7.473876325445e-04 0.0 
7.473876325445e-04 2.806018980480e-03 0.0 
0.0 0.0 -4.801335248058e-04 
-5.599793527513e-04 -5.941268921315e-04 0.0 
-5.941268921315e-04 2.361270480637e-03 0.0 
0.0 0.0 -3.791106726259e-04 
-1.172251179922e-03 -4.180665988864e-04 0.0 
-4.180665988864e-04 6.718010438057e-03 0.0 
0.0 0.0 -1.029923508343e-03 
-1.041340644124e-03 -3.282174640750e-05 0.0 
-3.282174640750e-05 5.343281569417e-03 0.0 
0.0 0.0 -8.276368238623e-04 
-1.238338552957e-03 5.129188831146e-04 0.0 
5.129188831146e-04 7.705442663502e-03 0.0 
0.0 0.0 -1.169529464977e-03 
-1.205798657677e-03 3.040238914407e-04 0.0 
3.040238914407e-04 7.606656415098e-03 0.0 
0.0 0.0 -1.140030709108e-03 
-1.136504455291e-03 -4.715376891294e-04 0.0 
-4.715376891294e-04 6.495059726217e-03 0.0 
0.0 0.0 -1.001167767022e-03 
-1.120337032388e-03 -1.059796522353e-04 0.0 
-1.059796522353e-04 6.426005632212e-03 0.0 
0.0 0.0 -1.004093472296e-03 
-5.274441073591e-04 -2.397572524931e-04 0.0 
-2.397572524931e-04 1.862294635062e-03 0.0 
0.0 0.0 -3.158693332420e-04 
-1.161634108540e-03 -5.320117127017e-05 0.0 
-5.320117127017e-05 6.648981173758e-03 0.0 
0.0 0.0 -1.032853941699e-03 
-1.125917341076e-03 2.991763443149e-04 0.0 
2.991763443149e-04 6.905438798140e-03 0.0 
0.0 0.0 -1.037144748481e-03 
-1.044631038411e-03 -3.631995376833e-04 0.0 
-3.631995376833e-04 5.407625222663e-03 0.0 
0.0 0.0 -8.248712778174e-04 
-1.078523674622e-03 -1.304712665821e-04 0.0 
-1.304712665821e-04 6.557738951195e-03 0.0 
0.0 0.0 -9.752741834902e-04 
-1.159347625089e-03 -9.624416522510e-05 0.0 
-9.624416522510e-05 7.210996352120e-03 0.0 
0.0 0.0 -1.071415751597e-03 
-3.318515090644e-04 6.235225383972e-04 0.0 
6.235225383972e-04 3.802912303128e-03 0.0 
0.0 0.0 -7.435371925968e-04 
-1.181769783394e-03 2.863535825742e-04 0.0 
2.863535825742e-04 7.408927706841e-03 0.0 
0.0 0.0 -1.110258267496e-03 
-9.356896319010e-04 -4.816204734149e-05 0.0 
-4.816204734149e-05 4.523878489702e-03 0.0 
0.0 0.0 -6.965171720950e-04 
-1.013439798328e-03 -4.389789435164e-04 0.0 
-4.389789435164e-04 5.194362623047e-03 0.0 
0.0 0.0 -7.960639764766e-04 
-7.588476473929e-04 -1.047638361378e-04 0.0 
-1.047638361378e-04 3.390478407872e-03 0.0 
0.0 0.0 -5.342291996904e-04 
-6.729613587978e-04 -9.978092115441e-04 0.0 
-9.978092115441e-04 3.336051263368e-03 0.0 
0.0 0.0 -5.581583723280e-04 
-1.100329888420e-03 2.776105336716e-04 0.0 
2.776105336716e-04 6.705832396393e-03 0.0 
0.0 0.0 -1.007339817349e-03 
-7.155066052029e-04 -8.941200741794e-04 0.0 
-8.941200741794e-04 4.520636252880e-03 0.0 
0.0 0.0 -7.637833264599e-04 
-5.880444497108e-04 -5.324378047215e-04 0.0 
-5.324378047215e-04 2.570561499900e-03 0.0 
0.0 0.0 -4.077494273363e-04 
-3.167379964521e-04 -3.896430801043e-04 0.0 
-3.896430801043e-04 1.286713823890e-03 0.0 
0.0 0.0 -2.185673950299e-04 
-1.104743277708e-03 -1.081634182050e-04 0.0 
-1.081634182050e-04 6.759513962222e-03 0.0 
0.0 0.0 -1.005115000480e-03 
-6.259157449930e-04 -2.410202634238e-04 0.0 
-2.410202634238e-04 2.506664290233e-03 0.0 
0.0 0.0 -4.107160730352e-04 
-1.199872170886e-03 -1.045804178386e-04 0.0 
-1.045804178386e-04 7.736983325214e-03 0.0 
0.0 0.0 -1.218716866995e-03 
-1.124972404341e-03 2.718592290333e-04 0.0 
2.718592290333e-04 6.955187210285e-03 0.0 
0.0 0.0 -1.043883448597e-03 
-1.171061824699e-03 -7.858396141652e-05 0.0 
-7.858396141652e-05 6.870002089505e-03 0.0 
0.0 0.0 -1.070373463590e-03 
-1.223592225032e-03 -6.654680312814e-05 0.0 
-6.654680312814e-05 7.796071319491e-03 0.0 
0.0 0.0 -1.284729618418e-03 
-8.862225412837e-04 -4.776674958030e-04 0.0 
-4.776674958030e-04 4.314456893826e-03 0.0 
0.0 0.0 -6.637377122259e-04 
-5.666876201447e-04 -1.260874714856e-04 0.0 
-1.260874714856e-04 2.263003673050e-03 0.0 
0.0 0.0 -3.731618544808e-04 
-4.219134531154e-04 -1.222472695970e-04 0.0 
-1.222472695970e-04 1.397809828057e-03 0.0 
0.0 0.0 -2.496210768721e-04 
-1.097286575279e-03 -5.440934378647e-04 0.0 
-5.440934378647e-04 6.473058930747e-03 0.0 
0.0 0.0 -1.009908742814e-03 
-1.043727317765e-03 2.472408857258e-04 0.0 
2.472408857258e-04 6.306661261885e-03 0.0 
0.0 0.0 -9.473489374553e-04 
-2.695681844680e-04 -5.290039554231e-05 0.0 
-5.290039554231e-05 9.382689285882e-04 0.0 
0.0 0.0 -1.858848441742e-04 
-7.364560019706e-04 -6.036242025600e-04 0.0 
-6.036242025600e-04 3.440005901319e-03 0.0 
0.0 0.0 -5.400474096907e-04 
-4.035403746382e-04 -2.305403145177e-04 0.0 
-2.305403145177e-04 2.024884021199e-03 0.0 
0.0 0.0 -3.246070344129e-04 
-1.046680963677e-03 -1.140431221757e-04 0.0 
-1.140431221757e-04 6.307213054075e-03 0.0 
0.0 0.0 -9.387834224272e-04 
-7.632592856577e-04 -5.393132933556e-04 0.0 
-5.393132933556e-04 3.657861775186e-03 0.0 
0.0 0.0 -5.687878759048e-04 
-1.016724206552e-03 -2.154888859726e-04 0.0 
-2.154888859726e-04 5.955453979487e-03 0.0 
0.0 0.0 -9.467935652644e-04 
-7.568020148065e-04 -4.521860907560e-04 0.0 
-4.521860907560e-04 3.415229586271e-03 0.0 
0.0 0.0 -5.337555413937e-04 
-1.189199624854e-03 -1.376681473433e-04 0.0 
-1.376681473433e-04 7.515170933533e-03 0.0 
0.0 0.0 -1.114809527198e-03 
-6.923550043241e-04 -2.768469088006e-04 0.0 
-2.768469088006e-04 2.945508556802e-03 0.0 
0.0 0.0 -4.768663991247e-04 
-1.044644236131e-03 -5.895775659962e-04 0.0 
-5.895775659962e-04 6.433247658548e-03 0.0 
0.0 0.0 -1.018590841688e-03 
-5.377186267121e-04 -1.162421830740e-03 0.0 
-1.162421830740e-03 1.924594638442e-03 0.0 
0.0 0.0 -3.376433569222e-04 
-1.043635089924e-03 -5.925974921427e-04 0.0 
-5.925974921427e-04 6.227817584456e-03 0.0 
0.0 0.0 -9.812220007866e-04 
-9.943565397434e-04 -3.497380212248e-04 0.0 
-3.497380212248e-04 4.987357588882e-03 0.0 
0.0 0.0 -7.604224332210e-04 
-1.126398211161e-03 -1.231258313828e-04 0.0 
-1.231258313828e-04 6.641179692916e-03 0.0 
0.0 0.0 -1.041555045145e-03 
9.223743664251e-05 -1.553032727052e-04 0.0 
-1.553032727052e-04 2.018845935385e-03 0.0 
0.0 0.0 -5.350282927002e-04 
-4.513551852745e-04 7.961954421125e-05 0.0 
7.961954421125e-05 1.942718085049e-03 0.0 
0.0 0.0 -3.277310168338e-04 
-9.768870302484e-04 -1.535527430477e-04 0.0 
-1.535527430477e-04 5.889109902335e-03 0.0 
0.0 0.0 -8.787268422831e-04 
-6.833158998415e-04 -4.842839122641e-04 0.0 
-4.842839122641e-04 5.519329349180e-03 0.0 
0.0 0.0 -9.464297096767e-04 
-6.696248071327e-04 9.527190214271e-04 0.0 
9.527190214271e-04 3.942995259938e-03 0.0 
0.0 0.0 -6.776081642141e-04 
-1.047238839157e-03 -1.563485093405e-04 0.0 
-1.563485093405e-04 6.341652196106e-03 0.0 
0.0 0.0 -9.453210152248e-04 
-5.135632802951e-04 -1.406486370917e-03 0.0 
-1.406486370917e-03 1.993823835031e-03 0.0 
0.0 0.0 -3.758914132629e-04 
-1.070153882220e-03 3.026802387506e-04 0.0 
3.026802387506e-04 6.407668419037e-03 0.0 
0.0 0.0 -9.642804585795e-04 
-3.826150946160e-04 -2.687090143275e-04 0.0 
-2.687090143275e-04 1.814458781029e-03 0.0 
0.0 0.0 -2.947674122297e-04 
-1.169970312209e-03 -5.285152303079e-04 0.0 
-5.285152303079e-04 7.359319887074e-03 0.0 
0.0 0.0 -1.150402778756e-03 
-7.093705364921e-04 -3.773457786927e-04 0.0 
-3.773457786927e-04 5.766663180528e-03 0.0 
0.0 0.0 -9.834711240942e-04 
-7.789396793629e-04 4.773750927831e-05 0.0 
4.773750927831e-05 6.190226744614e-03 0.0 
0.0 0.0 -1.037051012011e-03 
-1.266259122541e-03 -6.932227906498e-05 0.0 
-6.932227906498e-05 8.127793637496e-03 0.0 
0.0 0.0 -1.204463612412e-03 
-7.768385389529e-04 -8.073428107716e-04 0.0 
-8.073428107716e-04 4.980090398291e-03 0.0 
0.0 0.0 -8.294769417472e-04 
-4.699473644088e-04 -6.813726004672e-05 0.0 
-6.813726004672e-05 1.813879272209e-03 0.0 
0.0 0.0 -3.081489256106e-04 
-9.161062287207e-04 -6.850931603516e-04 0.0 
-6.850931603516e-04 5.713761905663e-03 0.0 
0.0 0.0 -9.239488535170e-04 
-1.173047693050e-03 -1.052473736579e-04 0.0 
-1.052473736579e-04 7.508097487322e-03 0.0 
0.0 0.0 -1.189963100592e-03 
-4.497409859123e-04 -1.426160803811e-03 0.0 
-1.426160803811e-03 2.458822638814e-03 0.0 
0.0 0.0 -4.786098583285e-04 
-1.143974714499e-03 -4.976969720053e-04 0.0 
-4.976969720053e-04 6.710156245847e-03 0.0 
0.0 0.0 -1.038675661098e-03 
-1.132883010551e-03 -1.192006961438e-04 0.0 
-1.192006961438e-04 7.009605316192e-03 0.0 
0.0 0.0 -1.041631482750e-03 
-1.897791220570e-04 -1.328549867833e-03 0.0 
-1.328549867833e-03 1.573915984256e-03 0.0 
0.0 0.0 -3.880698300753e-04 
-9.832169528241e-04 -6.401107558717e-04 0.0 
-6.401107558717e-04 5.975097252107e-03 0.0 
0.0 0.0 -9.525765839929e-04 
-9.785039199354e-04 -1.168734358181e-04 0.0 
-1.168734358181e-04 5.790498942477e-03 0.0 
0.0 0.0 -8.663127257150e-04 
-5.996048706546e-04 -3.316912815730e-04 0.0 
-3.316912815730e-04 2.740125406625e-03 0.0 
0.0 0.0 -4.280652785065e-04 
-7.035123059792e-04 -6.874159131133e-04 0.0 
-6.874159131133e-04 3.217847307373e-03 0.0 
0.0 0.0 -5.113914792957e-04 
-7.105655773308e-04 4.972009427012e-04 0.0 
4.972009427012e-04 4.827811336805e-03 0.0 
0.0 0.0 -8.004334922225e-04 
-1.074750193164e-03 -1.697498961518e-04 0.0 
-1.697498961518e-04 6.403492678198e-03 0.0 
0.0 0.0 -1.012809740122e-03 
-7.035308576128e-04 5.382426947373e-04 0.0 
5.382426947373e-04 3.806026837703e-03 0.0 
0.0 0.0 -6.201901524263e-04 
-6.308101104936e-04 5.457451351616e-04 0.0 
5.457451351616e-04 4.514197146446e-03 0.0 
0.0 0.0 -7.649884091348e-04 
-1.098080609149e-03 3.025878807238e-04 0.0 
3.025878807238e-04 6.656267622990e-03 0.0 
0.0 0.0 -1.000670320419e-03 
-1.014704614523e-03 2.583884235807e-04 0.0 
2.583884235807e-04 6.049064620228e-03 0.0 
0.0 0.0 -9.110000341593e-04 
-1.009261189838e-03 2.792149560740e-04 0.0 
2.792149560740e-04 5.955274274962e-03 0.0 
0.0 0.0 -8.984003255416e-04 
-9.871449342436e-04 -7.213431481816e-05 0.0 
-7.213431481816e-05 4.924174820230e-03 0.0 
0.0 0.0 -7.627602282935e-04 
-1.065656897570e-03 -5.121112680600e-04 0.0 
-5.121112680600e-04 7.066736918301e-03 0.0 
0.0 0.0 -1.130631056169e-03 
-8.421677165309e-04 -7.268506017030e-04 0.0 
-7.268506017030e-04 5.443918430101e-03 0.0 
0.0 0.0 -8.953295484280e-04 
-9.945000348060e-04 -1.248826091764e-04 0.0 
-1.248826091764e-04 5.857149722276e-03 0.0 
0.0 0.0 -8.720525204519e-04 
-1.238633943108e-03 1.686741563001e-04 0.0 
1.686741563001e-04 7.876441362665e-03 0.0 
0.0 0.0 -1.193584144721e-03 
-8.522957180035e-04 9.316442431589e-05 0.0 
9.316442431589e-05 6.488948212224e-03 0.0 
0.0 0.0 -1.073433710836e-03 
-1.015779217143e-03 -2.144660185469e-04 0.0 
-2.144660185469e-04 6.157749518334e-03 0.0 
0.0 0.0 -9.841343610905e-04 
-1.152967284980e-03 2.909720530725e-04 0.0 
2.909720530725e-04 7.156656236309e-03 0.0 
0.0 0.0 -1.073677668998e-03 
-7.263162190416e-04 -8.886940194724e-04 0.0 
-8.886940194724e-04 3.588121008828e-03 0.0 
0.0 0.0 -5.862626530915e-04 
-7.235359723586e-04 -7.958794651799e-04 0.0 
-7.958794651799e-04 3.410683047674e-03 0.0 
0.0 0.0 -5.488365039436e-04 
-4.694757851361e-04 -5.127005261343e-04 0.0 
-5.127005261343e-04 1.922171349029e-03 0.0 
0.0 0.0 -3.130684191733e-04 
-9.104943950573e-04 -6.552016600707e-04 0.0 
-6.552016600707e-04 5.911258485735e-03 0.0 
0.0 0.0 -9.612598090090e-04 
-7.654832124176e-04 -7.002445478485e-04 0.0 
-7.002445478485e-04 3.645865785489e-03 0.0 
0.0 0.0 -5.775003002374e-04 
-1.075243583964e-03 -1.050257747268e-04 0.0 
-1.050257747268e-04 6.505297040680e-03 0.0 
0.0 0.0 -9.686535345556e-04 
-1.046091552134e-03 -1.046643629052e-04 0.0 
-1.046643629052e-04 6.253743570569e-03 0.0 
0.0 0.0 -9.322463471790e-04 
-3.156258732897e-04 -6.342992802894e-05 0.0 
-6.342992802894e-05 4.063447682096e-03 0.0 
0.0 0.0 -7.690363516573e-04 
-6.768678335791e-04 -4.944889426237e-04 0.0 
-4.944889426237e-04 2.924353115240e-03 0.0 
0.0 0.0 -4.860199686152e-04 
7.378566886558e-05 8.261792693270e-04 0.0 
8.261792693270e-04 1.831438910589e-03 0.0 
0.0 0.0 -5.148587792422e-04 
-7.140205863396e-04 -3.895142562213e-04 0.0 
-3.895142562213e-04 3.153467660833e-03 0.0 
0.0 0.0 -5.143448975765e-04 
-7.166082742774e-04 -4.898417450174e-04 0.0 
-4.898417450174e-04 3.345585253682e-03 0.0 
0.0 0.0 -5.517963299543e-04 
-5.453825262275e-04 -1.801577044467e-04 0.0 
-1.801577044467e-04 2.063785108327e-03 0.0 
0.0 0.0 -3.446931235564e-04 
-9.991919087570e-04 -5.159677692080e-04 0.0 
-5.159677692080e-04 6.812973713771e-03 0.0 
0.0 0.0 -1.101849228969e-03 
-6.361621297383e-04 -6.326273812119e-04 0.0 
-6.326273812119e-04 3.840813039186e-03 0.0 
0.0 0.0 -6.642957827475e-04 
-1.186458515100e-03 -1.053251154620e-04 0.0 
-1.053251154620e-04 7.463739247015e-03 0.0 
0.0 0.0 -1.107989045227e-03 
-5.978205852498e-04 -6.030872319160e-04 0.0 
-6.030872319160e-04 3.997835835114e-03 0.0 
0.0 0.0 -7.013039408444e-04 
-8.766496605348e-04 -2.938506230370e-04 0.0 
-2.938506230370e-04 5.643098139245e-03 0.0 
0.0 0.0 -9.268471029391e-04 
-7.458770769302e-04 -4.494771908485e-04 0.0 
-4.494771908485e-04 4.730820068739e-03 0.0 
0.0 0.0 -7.951651613512e-04 
-5.061128914291e-04 5.136368614140e-04 0.0 
5.136368614140e-04 4.289096613620e-03 0.0 
0.0 0.0 -7.567435594048e-04 
-4.924031779586e-04 -4.582157831525e-04 0.0 
-4.582157831525e-04 2.128157277405e-03 0.0 
0.0 0.0 -3.417109511102e-04 
-1.119466152649e-03 -1.285123435513e-04 0.0 
-1.285123435513e-04 7.241871223374e-03 0.0 
0.0 0.0 -1.161691925552e-03 
-1.157276862038e-03 -5.152756470004e-04 0.0 
-5.152756470004e-04 7.595110461611e-03 0.0 
0.0 0.0 -1.198716319349e-03 
-9.186810373389e-04 7.206447187045e-04 0.0 
7.206447187045e-04 5.929294122594e-03 0.0 
0.0 0.0 -9.650368815299e-04 
-7.024384046348e-04 -5.668947943432e-04 0.0 
-5.668947943432e-04 3.521466880882e-03 0.0 
0.0 0.0 -5.892385666867e-04 
-8.092329254756e-04 -3.679333936268e-04 0.0 
-3.679333936268e-04 5.184879506691e-03 0.0 
0.0 0.0 -8.609535187098e-04 
-1.070645862318e-03 2.880325294516e-04 0.0 
2.880325294516e-04 6.451710160525e-03 0.0 
0.0 0.0 -9.708520278613e-04 
-7.765899253725e-04 -7.845646391497e-04 0.0 
-7.845646391497e-04 3.835907640370e-03 0.0 
0.0 0.0 -6.148791393494e-04 
-5.560475869297e-04 7.086124654578e-04 0.0 
7.086124654578e-04 3.695652655845e-03 0.0 
0.0 0.0 -6.394234923164e-04 
-6.747584532598e-04 -5.770366254477e-04 0.0 
-5.770366254477e-04 3.009985049056e-03 0.0 
0.0 0.0 -4.739097840058e-04 
-4.381090568186e-04 -1.552304285074e-03 0.0 
-1.552304285074e-03 2.041510460725e-03 0.0 
0.0 0.0 -4.132304097957e-04 
-7.141863963918e-04 -9.568035345241e-04 0.0 
-9.568035345241e-04 3.752753679619e-03 0.0 
0.0 0.0 -6.236739531379e-04 
-6.528961987011e-04 -1.781186145787e-04 0.0 
-1.781186145787e-04 2.715857529516e-03 0.0 
0.0 0.0 -4.393534411964e-04 
-5.596275213697e-04 -3.829013705402e-04 0.0 
-3.829013705402e-04 2.536190508459e-03 0.0 
0.0 0.0 -3.988888273503e-04 
-7.947060353366e-04 -8.306305145241e-04 0.0 
-8.306305145241e-04 4.800715564885e-03 0.0 
0.0 0.0 -7.922809795675e-04 
-9.495117069836e-04 -2.555007117944e-04 0.0 
-2.555007117944e-04 5.904688651206e-03 0.0 
0.0 0.0 -9.554846610150e-04 
-1.106451546740e-03 6.547273223382e-04 0.0 
6.547273223382e-04 7.113693437201e-03 0.0 
0.0 0.0 -1.128610778606e-03 
5.517197538679e-04 6.942037793557e-07 0.0 
6.942037793557e-07 5.222913432921e-05 0.0 
0.0 0.0 -1.143255210630e-04 
-3.502562365249e-04 -5.244252159893e-04 0.0 
-5.244252159893e-04 3.531851922803e-03 0.0 
0.0 0.0 -6.818868151027e-04 
-4.968184483203e-04 -6.518828778024e-04 0.0 
-6.518828778024e-04 3.693766435261e-03 0.0 
0.0 0.0 -6.732431144785e-04 
-6.734388902022e-04 -6.179988430693e-04 0.0 
-6.179988430693e-04 3.684173063462e-03 0.0 
0.0 0.0 -6.268095852860e-04 
-1.038674892423e-03 2.849365380829e-04 0.0 
2.849365380829e-04 6.200994707550e-03 0.0 
0.0 0.0 -9.344164207832e-04 
-6.877399303223e-04 -5.371529877498e-04 0.0 
-5.371529877498e-04 4.282013621242e-03 0.0 
0.0 0.0 -7.295442444478e-04 
-7.236126278911e-04 -1.940798346154e-04 0.0 
-1.940798346154e-04 3.162977138653e-03 0.0 
0.0 0.0 -5.055050897130e-04 
-6.903954199582e-04 -9.883908706268e-04 0.0 
-9.883908706268e-04 3.912237901394e-03 0.0 
0.0 0.0 -6.611654675676e-04 
-1.160544064243e-03 2.681116606983e-04 0.0 
2.681116606983e-04 7.207667667947e-03 0.0 
0.0 0.0 -1.080452943103e-03 
-7.185620229440e-04 -5.086767079658e-04 0.0 
-5.086767079658e-04 3.228512561114e-03 0.0 
0.0 0.0 -5.025663706543e-04 
-3.033530584322e-04 -3.126589283008e-05 0.0 
-3.126589283008e-05 1.124202721504e-03 0.0 
0.0 0.0 -2.132551421006e-04 
-4.445863950683e-04 -1.098673452603e-04 0.0 
-1.098673452603e-04 1.624443337862e-03 0.0 
0.0 0.0 -2.784575373548e-04 
-4.556609783406e-04 -1.046441961485e-03 0.0 
-1.046441961485e-03 2.312897280805e-03 0.0 
0.0 0.0 -4.444240490352e-04 
-6.671697262521e-04 -6.094353393578e-04 0.0 
-6.094353393578e-04 3.102567689836e-03 0.0 
0.0 0.0 -5.239304829885e-04 
-4.604694554278e-04 -5.460587614430e-04 0.0 
-5.460587614430e-04 3.852686059404e-03 0.0 
0.0 0.0 -7.099160536912e-04 
-6.597409171735e-04 -9.847744191674e-04 0.0 
-9.847744191674e-04 4.070104714955e-03 0.0 
0.0 0.0 -6.984076724203e-04 
-4.347846215514e-04 -1.333971923402e-03 0.0 
-1.333971923402e-03 1.612936656771e-03 0.0 
0.0 0.0 -3.343205611582e-04 
-3.976613437580e-04 -3.897326152451e-04 0.0 
-3.897326152451e-04 1.671878635782e-03 0.0 
0.0 0.0 -2.765202162382e-04 
-1.033660003461e-03 -1.033996314703e-04 0.0 
-1.033996314703e-04 5.926247048388e-03 0.0 
0.0 0.0 -8.885078876198e-04 
-6.226964712633e-04 -4.829751825411e-04 0.0 
-4.829751825411e-04 2.780306463648e-03 0.0 
0.0 0.0 -4.363975895258e-04 
-9.598608129298e-04 -1.512388155027e-04 0.0 
-1.512388155027e-04 6.520728160314e-03 0.0 
0.0 0.0 -1.067401112627e-03 
-1.044199175907e-03 6.711789122637e-04 0.0 
6.711789122637e-04 6.814869566682e-03 0.0 
0.0 0.0 -1.093380752811e-03 
-1.033158695296e-03 1.201714905428e-04 0.0 
1.201714905428e-04 5.943900742884e-03 0.0 
0.0 0.0 -9.013836717722e-04 
-1.202438437016e-03 3.703852775580e-04 0.0 
3.703852775580e-04 7.497052002657e-03 0.0 
0.0 0.0 -1.126084317643e-03 
-1.147719962247e-03 6.494223347106e-04 0.0 
6.494223347106e-04 7.391690108111e-03 0.0 
0.0 0.0 -1.164310864388e-03 
-2.878547429469e-04 1.154238477974e-04 0.0 
1.154238477974e-04 3.877857573592e-03 0.0 
0.0 0.0 -7.408850503417e-04 
-9.791568623396e-04 6.928855181129e-04 0.0 
6.928855181129e-04 6.367692588182e-03 0.0 
0.0 0.0 -1.029042339204e-03 
-3.868820834042e-04 -1.598175067219e-03 0.0 
-1.598175067219e-03 1.640588266591e-03 0.0 
0.0 0.0 -3.684254322556e-04 
-7.608485108981e-04 -8.950598342909e-04 0.0 
-8.950598342909e-04 4.184728790858e-03 0.0 
0.0 0.0 -6.894573431515e-04 
-3.726378683448e-04 9.309707187506e-04 0.0 
9.309707187506e-04 3.521132831243e-03 0.0 
0.0 0.0 -6.879681371099e-04 
1.475700378225e-04 -1.082055056136e-03 0.0 
-1.082055056136e-03 1.153328364632e-03 0.0 
0.0 0.0 -4.001859895708e-04 
-2.322378270667e-04 -1.414305700121e-03 0.0 
-1.414305700121e-03 1.285051000812e-03 0.0 
0.0 0.0 -3.718692805502e-04 
-7.624977688682e-04 -3.873820506890e-04 0.0 
-3.873820506890e-04 3.581246965727e-03 0.0 
0.0 0.0 -5.804062017457e-04 
-5.687072458126e-04 -1.053499292402e-03 0.0 
-1.053499292402e-03 3.769545573336e-03 0.0 
0.0 0.0 -6.703429011759e-04 
-5.303660715231e-04 -9.834601585863e-04 0.0 
-9.834601585863e-04 3.928073668805e-03 0.0 
0.0 0.0 -7.070647534220e-04 
-6.858142190642e-04 -1.264292236945e-04 0.0 
-1.264292236945e-04 2.925987856864e-03 0.0 
0.0 0.0 -4.680152132766e-04 
-6.589899224581e-04 -5.005558218906e-04 0.0 
-5.005558218906e-04 4.450521373462e-03 0.0 
0.0 0.0 -7.666177146937e-04 
-4.231487579380e-04 -9.909487264928e-04 0.0 
-9.909487264928e-04 3.613001704936e-03 0.0 
0.0 0.0 -6.790125122095e-04 
-3.369199789232e-04 -3.555417311412e-04 0.0 
-3.555417311412e-04 3.718100603305e-03 0.0 
0.0 0.0 -7.183521444552e-04 
-6.803758157452e-04 -9.028741567956e-04 0.0 
-9.028741567956e-04 3.171875899076e-03 0.0 
0.0 0.0 -5.205443542100e-04 
-6.888642757158e-04 -2.049706033719e-04 0.0 
-2.049706033719e-04 5.802071078045e-03 0.0 
0.0 0.0 -9.921115096417e-04 
-1.107658319106e-03 -8.404497540785e-05 0.0 
-8.404497540785e-05 6.709473481144e-03 0.0 
0.0 0.0 -9.984673180476e-04 
-2.379293217191e-04 -2.443881819662e-04 0.0 
-2.443881819662e-04 3.409073247204e-03 0.0 
0.0 0.0 -6.904379518788e-04 
-1.046303389369e-03 -1.114400525399e-04 0.0 
-1.114400525399e-04 6.996162598283e-03 0.0 
0.0 0.0 -1.133495712197e-03 
-3.268910950442e-04 -1.748504239578e-03 0.0 
-1.748504239578e-03 1.649599373731e-03 0.0 
0.0 0.0 -3.849690761666e-04 
-1.105326955299e-03 -1.209562394880e-05 0.0 
-1.209562394880e-05 7.506917461540e-03 0.0 
0.0 0.0 -1.208505026952e-03 
-5.639712272191e-04 -5.345864669018e-04 0.0 
-5.345864669018e-04 4.155944038547e-03 0.0 
0.0 0.0 -7.381355003807e-04 
-1.181963174499e-03 7.139086798360e-04 0.0 
7.139086798360e-04 7.734753846791e-03 0.0 
0.0 0.0 -1.203459118631e-03 
-9.741416899861e-04 2.978325655321e-04 0.0 
2.978325655321e-04 5.872577927131e-03 0.0 
0.0 0.0 -9.144069900286e-04 
-4.654888822043e-04 -1.140967963864e-03 0.0 
-1.140967963864e-03 1.931638852762e-03 0.0 
0.0 0.0 -3.788569260403e-04 
-1.047582909248e-03 1.584393688340e-04 0.0 
1.584393688340e-04 6.105623494628e-03 0.0 
0.0 0.0 -9.292863832265e-04 
-1.220879085669e-03 4.419497771274e-04 0.0 
4.419497771274e-04 7.616026390278e-03 0.0 
0.0 0.0 -1.148369591821e-03 
-5.398601850951e-04 -4.406973068625e-04 0.0 
-4.406973068625e-04 4.330390544396e-03 0.0 
0.0 0.0 -7.747733155264e-04 
-3.603331338578e-04 8.676550475076e-04 0.0 
8.676550475076e-04 2.963522800416e-03 0.0 
0.0 0.0 -5.621395992319e-04 
-1.057553285601e-03 1.944669215669e-04 0.0 
1.944669215669e-04 6.263161490160e-03 0.0 
0.0 0.0 -9.572423940436e-04 
-7.057059362099e-04 9.012515937016e-04 0.0 
9.012515937016e-04 4.348665847300e-03 0.0 
0.0 0.0 -7.402445244775e-04 
-4.362988120307e-04 -1.127161443736e-03 0.0 
-1.127161443736e-03 1.552148016574e-03 0.0 
0.0 0.0 -3.359502462693e-04 
-1.283659217910e-03 4.297574681589e-04 0.0 
4.297574681589e-04 8.390487106861e-03 0.0 
0.0 0.0 -1.259077240559e-03 
-4.445080952730e-04 -7.847967672699e-04 0.0 
-7.847967672699e-04 1.460661056520e-03 0.0 
0.0 0.0 -3.199353184197e-04 
-1.015479846412e-03 -4.911816191570e-05 0.0 
-4.911816191570e-05 7.389564650234e-03 0.0 
0.0 0.0 -1.194426649262e-03 
-1.235108043989e-03 2.931339570481e-04 0.0 
2.931339570481e-04 7.856142431297e-03 0.0 
0.0 0.0 -1.175981821618e-03 
-7.472334457018e-04 -2.848888603521e-04 0.0 
-2.848888603521e-04 6.030064979728e-03 0.0 
0.0 0.0 -1.020516803968e-03 
-1.010840280569e-03 2.871682712165e-04 0.0 
2.871682712165e-04 5.990467797945e-03 0.0 
0.0 0.0 -9.041796124736e-04 
-1.188290086785e-03 -4.131460252783e-05 0.0 
-4.131460252783e-05 7.360236208895e-03 0.0 
0.0 0.0 -1.094228678348e-03 
-3.956150081579e-04 -8.444363927456e-04 0.0 
-8.444363927456e-04 3.798159061747e-03 0.0 
0.0 0.0 -7.154996274706e-04 
-4.250562518241e-04 -8.715186287138e-05 0.0 
-8.715186287138e-05 4.576837397274e-03 0.0 
0.0 0.0 -8.337527902170e-04 
-1.236732889268e-03 3.932687216903e-04 0.0 
3.932687216903e-04 7.932024372295e-03 0.0 
0.0 0.0 -1.191782302182e-03 
-1.016762164362e-03 -2.009947599505e-04 0.0 
-2.009947599505e-04 6.362580938042e-03 0.0 
0.0 0.0 -1.021464098896e-03 
-1.135162035509e-03 -5.768530929233e-05 0.0 
-5.768530929233e-05 6.910041935378e-03 0.0 
0.0 0.0 -1.028225029406e-03 
-7.343430317228e-04 -7.671896480506e-05 0.0 
-7.671896480506e-05 5.717453709460e-03 0.0 
0.0 0.0 -9.780777104595e-04 
-3.572725597686e-04 -1.352690279400e-03 0.0 
-1.352690279400e-03 1.583802329561e-03 0.0 
0.0 0.0 -3.505936111242e-04 
-1.159722748538e-03 -3.230530369318e-05 0.0 
-3.230530369318e-05 7.104974861712e-03 0.0 
0.0 0.0 -1.057861461704e-03 
-1.213686028729e-03 4.975227447854e-04 0.0 
4.975227447854e-04 8.277647080915e-03 0.0 
0.0 0.0 -1.268085107495e-03 
-1.141634375887e-03 -6.383832911746e-05 0.0 
-6.383832911746e-05 7.496062386317e-03 0.0 
0.0 0.0 -1.202195648613e-03 
-7.172722051064e-04 -5.438382500790e-04 0.0 
-5.438382500790e-04 4.116936776522e-03 0.0 
0.0 0.0 -6.923681691211e-04 
-1.013061704463e-03 -1.285173007321e-04 0.0 
-1.285173007321e-04 6.040176746182e-03 0.0 
0.0 0.0 -9.020111041354e-04 
-9.803558555424e-04 2.819126364211e-04 0.0 
2.819126364211e-04 5.747481973327e-03 0.0 
0.0 0.0 -8.677534307045e-04 
-6.277772364563e-04 -9.505441527148e-04 0.0 
-9.505441527148e-04 4.228315103377e-03 0.0 
0.0 0.0 -7.352749011056e-04 
-9.471295400473e-04 -2.290448642546e-04 0.0 
-2.290448642546e-04 6.104893151692e-03 0.0 
0.0 0.0 -9.927925938930e-04 
-9.496787292750e-04 -1.931802113086e-04 0.0 
-1.931802113086e-04 6.308676304585e-03 0.0 
0.0 0.0 -1.030113165296e-03 
-3.367468350593e-04 -4.171493311675e-04 0.0 
-4.171493311675e-04 1.462207300335e-03 0.0 
0.0 0.0 -2.466400652194e-04 
1.723252799300e-04 1.006036226683e-03 0.0 
1.006036226683e-03 1.258635118435e-03 0.0 
0.0 0.0 -4.508272210452e-04 
-2.636139264689e-04 -4.295683990350e-05 0.0 
-4.295683990350e-05 3.648292398008e-03 0.0 
0.0 0.0 -7.269793770173e-04 
-2.881552402748e-04 -7.723163841178e-04 0.0 
-7.723163841178e-04 3.494059092135e-03 0.0 
0.0 0.0 -6.875569550716e-04 
-5.987135522067e-04 9.581338196100e-04 0.0 
9.581338196100e-04 4.121697912248e-03 0.0 
0.0 0.0 -7.320784846625e-04 
-1.264443641134e-03 9.169602624825e-06 0.0 
9.169602624825e-06 8.228641212544e-03 0.0 
0.0 0.0 -1.225426844749e-03 
-1.225437596415e-03 5.454708430458e-04 0.0 
5.454708430458e-04 7.618255897701e-03 0.0 
0.0 0.0 -1.162686153705e-03 
-1.236580353686e-03 -8.584500076515e-05 0.0 
-8.584500076515e-05 7.903871079557e-03 0.0 
0.0 0.0 -1.173632101657e-03 
-7.521471418708e-04 4.524177914914e-04 0.0 
4.524177914914e-04 4.089944836528e-03 0.0 
0.0 0.0 -6.556197767577e-04 
-1.172411158405e-03 4.147315892345e-04 0.0 
4.147315892345e-04 7.176351707369e-03 0.0 
0.0 0.0 -1.082713561900e-03 
-9.808832725520e-04 -6.235651659416e-04 0.0 
-6.235651659416e-04 6.175367423925e-03 0.0 
0.0 0.0 -9.899156953211e-04 
-1.256868554146e-03 3.642260226585e-04 0.0 
3.642260226585e-04 8.010570571666e-03 0.0 
0.0 0.0 -1.198415070424e-03 
-1.131244473165e-03 -2.609112415896e-05 0.0 
-2.609112415896e-05 6.847199996424e-03 0.0 
0.0 0.0 -1.021631336281e-03 
-7.398403296460e-04 -9.100435650523e-04 0.0 
-9.100435650523e-04 4.351978419830e-03 0.0 
0.0 0.0 -7.266350563285e-04 
-1.966131980491e-04 1.343789576191e-04 0.0 
1.343789576191e-04 3.379385752975e-03 0.0 
0.0 0.0 -6.989458521267e-04 
-1.152804453403e-03 3.500950542230e-04 0.0 
3.500950542230e-04 7.051163395974e-03 0.0 
0.0 0.0 -1.060111126929e-03 
-1.235067592862e-03 -2.698356757779e-05 0.0 
-2.698356757779e-05 7.807694952398e-03 0.0 
0.0 0.0 -1.160283895044e-03 
-1.152447904070e-03 3.233521508878e-04 0.0 
3.233521508878e-04 7.106400049278e-03 0.0 
0.0 0.0 -1.066842251349e-03 
-1.126824314787e-03 3.260890582423e-04 0.0 
3.260890582423e-04 6.856832929645e-03 0.0 
0.0 0.0 -1.030428295937e-03 
-1.098624795041e-03 -1.306628866347e-04 0.0 
-1.306628866347e-04 7.036525786255e-03 0.0 
0.0 0.0 -1.124756152480e-03 
-9.788942539780e-04 1.410494860673e-05 0.0 
1.410494860673e-05 7.171321125896e-03 0.0 
0.0 0.0 -1.167530213646e-03 
-1.029227773633e-03 -1.448576550575e-04 0.0 
-1.448576550575e-04 6.777818390463e-03 0.0 
0.0 0.0 -1.096139997395e-03 
-8.853909467236e-04 -3.202143432842e-04 0.0 
-3.202143432842e-04 5.450131718365e-03 0.0 
0.0 0.0 -8.895595506238e-04 
-7.841401063913e-04 5.175313733597e-04 0.0 
5.175313733597e-04 4.039507771945e-03 0.0 
0.0 0.0 -6.419897747600e-04 
-7.984394936658e-04 -1.887921339689e-04 0.0 
-1.887921339689e-04 6.295485930606e-03 0.0 
0.0 0.0 -1.057160997780e-03 
-1.115933343197e-03 4.349000973092e-04 0.0 
4.349000973092e-04 6.664037002129e-03 0.0 
0.0 0.0 -1.010795753303e-03 
-5.956699057430e-04 -8.811439702695e-05 0.0 
-8.811439702695e-05 2.473036601140e-03 0.0 
0.0 0.0 -4.018221946533e-04 
-2.915622310354e-04 -5.737426198503e-04 0.0 
-5.737426198503e-04 3.731241780433e-03 0.0 
0.0 0.0 -7.241222962603e-04 
-4.504794563628e-04 -1.267768640868e-04 0.0 
-1.267768640868e-04 4.437238068048e-03 0.0 
0.0 0.0 -8.193994707270e-04 
-5.327307368017e-04 -1.017456922387e-04 0.0 
-1.017456922387e-04 5.084928060617e-03 0.0 
0.0 0.0 -8.986564694586e-04 
3.950181268846e-04 -2.404122539236e-04 0.0 
-2.404122539236e-04 7.824137722745e-04 0.0 
0.0 0.0 -4.157903644632e-04 
-2.054344188629e-04 -4.192766465647e-04 0.0 
-4.192766465647e-04 3.464515105753e-03 0.0 
0.0 0.0 -6.962026719631e-04 
-6.398120247413e-04 -1.116949900707e-04 0.0 
-1.116949900707e-04 5.588791715487e-03 0.0 
0.0 0.0 -9.636952012155e-04 
-8.444842612221e-04 6.249200502653e-04 0.0 
6.249200502653e-04 4.582153886631e-03 0.0 
0.0 0.0 -7.294090860403e-04 
-7.683331433156e-04 -4.669157271009e-04 0.0 
-4.669157271009e-04 4.555612432421e-03 0.0 
0.0 0.0 -7.579899565570e-04 
-1.071508205892e-03 -5.121927920590e-05 0.0 
-5.121927920590e-05 6.390736393491e-03 0.0 
0.0 0.0 -9.556638187253e-04 
-8.714266706773e-04 2.063026129845e-04 0.0 
2.063026129845e-04 5.095248433608e-03 0.0 
0.0 0.0 -7.638029664831e-04 
-6.864860403863e-05 6.865817311915e-04 0.0 
6.865817311915e-04 5.756289586921e-04 0.0 
0.0 0.0 -2.172772948515e-04 
-8.538627514522e-04 -7.550684867704e-04 0.0 
-7.550684867704e-04 5.254936553017e-03 0.0 
0.0 0.0 -8.580817703278e-04 
-8.031553766191e-04 9.023974365030e-05 0.0 
9.023974365030e-05 6.192888911591e-03 0.0 
0.0 0.0 -1.051835763028e-03 
-1.248237691654e-03 5.633939617195e-04 0.0 
5.633939617195e-04 7.887034516043e-03 0.0 
0.0 0.0 -1.196871286280e-03 
-3.729352427207e-04 2.857944806302e-04 0.0 
2.857944806302e-04 4.199383336330e-03 0.0 
0.0 0.0 -7.999758813884e-04 
-8.246860114036e-04 -3.906175878888e-04 0.0 
-3.906175878888e-04 5.000590526334e-03 0.0 
0.0 0.0 -8.237210115815e-04 
-1.081299147246e-03 -7.697289611937e-05 0.0 
-7.697289611937e-05 6.459732028031e-03 0.0 
0.0 0.0 -9.620958722924e-04 
-2.880056971411e-04 8.925028292911e-04 0.0 
8.925028292911e-04 1.145866698786e-03 0.0 
0.0 0.0 -3.038018182983e-04 
-7.446793118804e-04 1.621554593950e-04 0.0 
1.621554593950e-04 5.956534969945e-03 0.0 
0.0 0.0 -1.023361637732e-03 
-4.737891057000e-04 -2.200266757859e-04 0.0 
-2.200266757859e-04 4.791461031182e-03 0.0 
0.0 0.0 -8.619475031457e-04 
-8.828155885906e-04 2.614625346270e-04 0.0 
2.614625346270e-04 4.904715470600e-03 0.0 
0.0 0.0 -7.615729788896e-04 
-9.809961927394e-04 -5.936604313144e-04 0.0 
-5.936604313144e-04 6.379528294436e-03 0.0 
0.0 0.0 -1.027225276160e-03 
-1.932500912873e-05 -1.677380896941e-03 0.0 
-1.677380896941e-03 1.233986358287e-03 0.0 
0.0 0.0 -3.946419382404e-04 
-9.859370989770e-04 -5.573179193325e-04 0.0 
-5.573179193325e-04 6.591591148133e-03 0.0 
0.0 0.0 -1.064556537081e-03 
-1.075263487039e-03 -6.290518893134e-05 0.0 
-6.290518893134e-05 7.229861812646e-03 0.0 
0.0 0.0 -1.170878753521e-03 
-6.948674803166e-04 2.455637071473e-04 0.0 
2.455637071473e-04 5.729378568502e-03 0.0 
0.0 0.0 -9.948919501216e-04 
-1.162320360260e-03 -6.372562573002e-05 0.0 
-6.372562573002e-05 7.161310363851e-03 0.0 
0.0 0.0 -1.064574987933e-03 
-9.584753352366e-04 2.606905829813e-04 0.0 
2.606905829813e-04 6.727836890182e-03 0.0 
0.0 0.0 -1.082686220397e-03 
-1.082949588594e-03 -4.851124086325e-04 0.0 
-4.851124086325e-04 7.296469259281e-03 0.0 
0.0 0.0 -1.168035910845e-03 
-5.459113610208e-04 8.695894781593e-04 0.0 
8.695894781593e-04 1.682549247342e-03 0.0 
0.0 0.0 -2.917408095836e-04 
-1.104897704515e-03 -4.845952140229e-05 0.0 
-4.845952140229e-05 6.655011128943e-03 0.0 
0.0 0.0 -9.919185416031e-04 
-1.022193057884e-03 1.318252200891e-04 0.0 
1.318252200891e-04 7.257050403107e-03 0.0 
0.0 0.0 -1.173906618061e-03 
-1.179945511942e-03 3.471716249997e-04 0.0 
3.471716249997e-04 7.305593288174e-03 0.0 
0.0 0.0 -1.096489272820e-03 
-5.875834666640e-04 2.546818746217e-04 0.0 
2.546818746217e-04 5.224796690614e-03 0.0 
0.0 0.0 -9.297700869391e-04 
-2.515263867691e-04 -2.254429621664e-04 0.0 
-2.254429621664e-04 3.754254559254e-03 0.0 
0.0 0.0 -7.325247082200e-04 
-9.641389493889e-04 -2.217264104135e-04 0.0 
-2.217264104135e-04 5.113633075458e-03 0.0 
0.0 0.0 -8.069452076110e-04 
4.285236195004e-04 1.396212384085e-04 0.0 
1.396212384085e-04 -1.219952762883e-04 0.0 
0.0 0.0 -1.313692899480e-04 
-1.204146700831e-03 3.439641556613e-04 0.0 
3.439641556613e-04 7.554548687955e-03 0.0 
0.0 0.0 -1.132911322290e-03 
-6.253175333027e-04 -2.826075305287e-05 0.0 
-2.826075305287e-05 2.680000675139e-03 0.0 
0.0 0.0 -4.309687334850e-04 
-5.749579867921e-04 6.771703350766e-04 0.0 
6.771703350766e-04 2.115308728038e-03 0.0 
0.0 0.0 -3.582286249851e-04 
-9.529535044554e-04 3.072244071368e-04 0.0 
3.072244071368e-04 6.570888144221e-03 0.0 
0.0 0.0 -1.054483161448e-03 
-1.255167442230e-03 3.201007171124e-04 0.0 
3.201007171124e-04 8.070344212991e-03 0.0 
0.0 0.0 -1.206783194404e-03 
-8.215496895040e-05 -1.772999525451e-03 0.0 
-1.772999525451e-03 1.193950944070e-03 0.0 
0.0 0.0 -3.966701258844e-04 
-7.833558623484e-04 4.482971625863e-04 0.0 
4.482971625863e-04 5.133302818514e-03 0.0 
0.0 0.0 -8.358581584049e-04 
-1.123137751770e-03 3.572847673877e-04 0.0 
3.572847673877e-04 6.794615582447e-03 0.0 
0.0 0.0 -1.023814440555e-03 
-8.765385540671e-04 -7.492880491734e-04 0.0 
-7.492880491734e-04 4.884441485584e-03 0.0 
0.0 0.0 -7.840072721007e-04 
2.874574446344e-04 -1.091275984428e-03 0.0 
-1.091275984428e-03 9.021895657290e-04 0.0 
0.0 0.0 -4.027365510179e-04 
-3.368056399330e-04 1.320783307670e-03 0.0 
1.320783307670e-03 2.512908282168e-03 0.0 
0.0 0.0 -5.292697486782e-04 
-2.272190685037e-04 -1.261695231052e-03 0.0 
-1.261695231052e-03 1.204255834380e-03 0.0 
0.0 0.0 -3.563018015714e-04 
-5.481856080813e-06 -1.360265015014e-03 0.0 
-1.360265015014e-03 1.114057395476e-03 0.0 
0.0 0.0 -3.608158092454e-04 
-1.672715856143e-04 -1.512279546231e-03 0.0 
-1.512279546231e-03 1.180506359655e-03 0.0 
0.0 0.0 -3.382523083772e-04 
-4.805060594133e-04 2.668098062439e-04 0.0 
2.668098062439e-04 4.715407643663e-03 0.0 
0.0 0.0 -8.647910268431e-04 
-1.323581223665e-03 3.388354907586e-04 0.0 
3.388354907586e-04 9.015003947055e-03 0.0 
0.0 0.0 -1.324146187826e-03 
-6.144383844702e-04 5.601929244688e-04 0.0 
5.601929244688e-04 2.582601934857e-03 0.0 
0.0 0.0 -4.244337567297e-04 
-1.156564282164e-03 -1.287267705775e-04 0.0 
-1.287267705775e-04 7.284536477905e-03 0.0 
0.0 0.0 -1.153422328581e-03 
-1.335800596959e-04 5.879693086389e-04 0.0 
5.879693086389e-04 2.932124141139e-03 0.0 
0.0 0.0 -6.430507458085e-04 
-1.103593163525e-03 -2.311027910085e-05 0.0 
-2.311027910085e-05 6.594057391582e-03 0.0 
0.0 0.0 -9.856407671940e-04 
6.097401795475e-04 2.716157955159e-04 0.0 
2.716157955159e-04 -1.627804699296e-04 0.0 
0.0 0.0 -1.915541612648e-04 
-1.121189365028e-03 -4.313739104837e-04 0.0 
-4.313739104837e-04 7.519397857683e-03 0.0 
0.0 0.0 -1.206759618350e-03 
-1.369628119912e-04 -1.636536330447e-03 0.0 
-1.636536330447e-03 1.233538073419e-03 0.0 
0.0 0.0 -4.045577262616e-04 
-7.109907021558e-04 -5.092194229215e-05 0.0 
-5.092194229215e-05 3.143336407810e-03 0.0 
0.0 0.0 -4.995972236199e-04 
-7.610689947692e-04 3.254275537369e-04 0.0 
3.254275537369e-04 6.017676875730e-03 0.0 
0.0 0.0 -1.031547093314e-03 
-5.009347095537e-04 -8.784504666191e-04 0.0 
-8.784504666191e-04 4.097798542798e-03 0.0 
0.0 0.0 -7.436172176343e-04 
-9.490922030985e-04 8.355820245776e-05 0.0 
8.355820245776e-05 6.977686204134e-03 0.0 
0.0 0.0 -1.139062866688e-03 
-5.334594474911e-04 7.731459396832e-04 0.0 
7.731459396832e-04 3.293236008727e-03 0.0 
0.0 0.0 -5.762899171569e-04 
-1.157169932203e-03 5.876132975746e-05 0.0 
5.876132975746e-05 6.976179943537e-03 0.0 
0.0 0.0 -1.044446328659e-03 
-1.026845760321e-03 3.718808168871e-04 0.0 
3.718808168871e-04 7.294887320679e-03 0.0 
0.0 0.0 -1.198892520503e-03 
-1.098955546930e-03 3.331596057930e-04 0.0 
3.331596057930e-04 6.603659082882e-03 0.0 
0.0 0.0 -9.940794652285e-04 
-1.269540035819e-03 1.940023298487e-04 0.0 
1.940023298487e-04 7.944098741491e-03 0.0 
0.0 0.0 -1.194784139986e-03 
-1.184726223875e-03 -2.348624992810e-06 0.0 
-2.348624992810e-06 7.294407597930e-03 0.0 
0.0 0.0 -1.087318097122e-03 
-1.210012004909e-03 2.996776911562e-05 0.0 
2.996776911562e-05 7.486490191622e-03 0.0 
0.0 0.0 -1.116677092124e-03 
1.863822195981e-04 1.500592688013e-03 0.0 
1.500592688013e-03 6.610975863953e-04 0.0 
0.0 0.0 -3.632056311400e-04 
-1.142912226621e-03 -1.436249115933e-04 0.0 
-1.436249115933e-04 7.061947710655e-03 0.0 
0.0 0.0 -1.115908039155e-03 
-1.147672819159e-03 3.821528619329e-04 0.0 
3.821528619329e-04 6.988478452450e-03 0.0 
0.0 0.0 -1.053364550114e-03 
-4.264879333549e-04 6.971974912426e-04 0.0 
6.971974912426e-04 4.141626674137e-03 0.0 
0.0 0.0 -7.792489223127e-04 
-6.776919640089e-04 4.847017937330e-04 0.0 
4.847017937330e-04 3.056038122043e-03 0.0 
0.0 0.0 -4.908673385051e-04 
-1.078927379078e-03 1.409149927546e-05 0.0 
1.409149927546e-05 7.640444635147e-03 0.0 
0.0 0.0 -1.232292820449e-03 
3.227356576489e-04 7.350862602758e-04 0.0 
7.350862602758e-04 8.113095771019e-04 0.0 
0.0 0.0 -4.142712813041e-04 
-6.537509052586e-04 -4.383754105270e-04 0.0 
-4.383754105270e-04 2.983336896445e-03 0.0 
0.0 0.0 -4.655197245388e-04 
-9.005107576278e-04 4.600258062660e-04 0.0 
4.600258062660e-04 6.613923225017e-03 0.0 
0.0 0.0 -1.105063927110e-03 
-3.654007350969e-04 -1.479495410984e-04 0.0 
-1.479495410984e-04 1.815899396191e-03 0.0 
0.0 0.0 -2.939799329518e-04 
-5.977371900919e-04 5.010127079244e-04 0.0 
5.010127079244e-04 4.620714897895e-03 0.0 
0.0 0.0 -7.924235178053e-04 
-8.040024099011e-04 2.359492841355e-04 0.0 
2.359492841355e-04 6.229578808837e-03 0.0 
0.0 0.0 -1.059843925468e-03 
-1.255635553756e-03 7.173795077006e-05 0.0 
7.173795077006e-05 7.907591642771e-03 0.0 
0.0 0.0 -1.181155146799e-03 
-1.282202030770e-03 1.124926252761e-04 0.0 
1.124926252761e-04 8.112071435222e-03 0.0 
0.0 0.0 -1.210943746944e-03 
-7.487229487199e-04 -1.168956266195e-04 0.0 
-1.168956266195e-04 6.087931342050e-03 0.0 
0.0 0.0 -1.028825005900e-03 
-1.212248021085e-03 -1.436521725135e-05 0.0 
-1.436521725135e-05 7.552882477900e-03 0.0 
0.0 0.0 -1.123737208958e-03 
-2.386760142168e-04 7.145577053840e-04 0.0 
7.145577053840e-04 3.288051445445e-03 0.0 
0.0 0.0 -6.793824814286e-04 
-1.022910334669e-03 3.054988306638e-04 0.0 
3.054988306638e-04 6.728691543712e-03 0.0 
0.0 0.0 -1.062452857821e-03 
-7.369445152822e-04 4.219749857923e-04 0.0 
4.219749857923e-04 3.529735228100e-03 0.0 
0.0 0.0 -5.576509564599e-04 
-1.225600923705e-03 6.150358502408e-04 0.0 
6.150358502408e-04 7.637406645108e-03 0.0 
0.0 0.0 -1.181751882508e-03 
-8.003950005641e-04 3.733577663785e-04 0.0 
3.733577663785e-04 4.007249233080e-03 0.0 
0.0 0.0 -6.243763318321e-04 
-7.858165178840e-04 3.201249060732e-04 0.0 
3.201249060732e-04 4.232155620723e-03 0.0 
0.0 0.0 -6.577503189808e-04 
-3.421685830446e-04 4.506546569180e-04 0.0 
4.506546569180e-04 3.987712693438e-03 0.0 
0.0 0.0 -7.717627972493e-04 
-8.541855867529e-04 3.616408520390e-04 0.0 
3.616408520390e-04 4.495910448337e-03 0.0 
0.0 0.0 -6.911701761307e-04 
-6.466553023066e-04 3.566499724765e-04 0.0 
3.566499724765e-04 5.190189138744e-03 0.0 
0.0 0.0 -8.833033330409e-04 
-4.075558796588e-04 5.082935923898e-04 0.0 
5.082935923898e-04 3.946901844573e-03 0.0 
0.0 0.0 -7.209687761305e-04 
-3.183347553168e-04 -3.900876355230e-04 0.0 
-3.900876355230e-04 3.990865140146e-03 0.0 
0.0 0.0 -7.606211034647e-04 
4.197691498195e-04 -7.924817374046e-04 0.0 
-7.924817374046e-04 5.841418248199e-04 0.0 
0.0 0.0 -3.925496596906e-04 
-2.632176995851e-04 3.130804871778e-04 0.0 
3.130804871778e-04 3.673894068274e-03 0.0 
0.0 0.0 -7.353490689725e-04 
-1.228427596361e-03 3.654441690398e-04 0.0 
3.654441690398e-04 7.753036613507e-03 0.0 
0.0 0.0 -1.162517914204e-03 
-1.234586540092e-03 6.496817172604e-04 0.0 
6.496817172604e-04 7.840810725913e-03 0.0 
0.0 0.0 -1.195263893373e-03 
-1.079254607357e-03 -1.716834017040e-04 0.0 
-1.716834017040e-04 6.610697418479e-03 0.0 
0.0 0.0 -1.050100468764e-03 
-9.999924356562e-04 4.337068162590e-04 0.0 
4.337068162590e-04 7.101876474641e-03 0.0 
0.0 0.0 -1.170266998156e-03 
-4.393592797757e-04 -4.178536690016e-04 0.0 
-4.178536690016e-04 4.023524415681e-03 0.0 
0.0 0.0 -7.463264885205e-04 
-1.196792592392e-03 4.110574340668e-04 0.0 
4.110574340668e-04 7.430663622206e-03 0.0 
0.0 0.0 -1.119019617531e-03 
-3.103812770642e-04 1.366237006987e-04 0.0 
1.366237006987e-04 3.912213435347e-03 0.0 
0.0 0.0 -7.634232545038e-04 
-1.186941185396e-03 -1.093564622626e-04 0.0 
-1.093564622626e-04 7.299889317220e-03 0.0 
0.0 0.0 -1.144395376583e-03 
-1.175446045210e-03 3.743988593539e-04 0.0 
3.743988593539e-04 7.239811730626e-03 0.0 
0.0 0.0 -1.089631904438e-03 
-1.184480952279e-03 4.301367348574e-05 0.0 
4.301367348574e-05 7.231184503722e-03 0.0 
0.0 0.0 -1.080451501872e-03 
-6.366755747078e-04 1.541674785508e-04 0.0 
1.541674785508e-04 5.452650900242e-03 0.0 
0.0 0.0 -9.580909834143e-04 
-2.389238927474e-04 5.103421139427e-04 0.0 
5.103421139427e-04 3.464348160629e-03 0.0 
0.0 0.0 -7.073300717972e-04 
-1.091479932409e-03 3.053404772209e-04 0.0 
3.053404772209e-04 7.161436277653e-03 0.0 
0.0 0.0 -1.126038590206e-03 
-9.842000416471e-04 6.396846099915e-04 0.0 
6.396846099915e-04 5.813603015757e-03 0.0 
0.0 0.0 -9.169694165663e-04 
1.883793847700e-04 -1.613056327393e-03 0.0 
-1.613056327393e-03 7.099727485344e-04 0.0 
0.0 0.0 -3.670597958229e-04 
4.158840995285e-04 -1.069455846307e-04 0.0 
-1.069455846307e-04 9.093131002263e-04 0.0 
0.0 0.0 -4.209936697170e-04 
-5.253520320544e-04 1.113226159763e-03 0.0 
1.113226159763e-03 3.274387380493e-03 0.0 
0.0 0.0 -6.061407060701e-04 
-8.148800044768e-04 7.943320417803e-04 0.0 
7.943320417803e-04 5.072587073095e-03 0.0 
0.0 0.0 -8.384786063130e-04 
-1.230266496445e-03 -6.856974243120e-05 0.0 
-6.856974243120e-05 7.537797729461e-03 0.0 
0.0 0.0 -1.173545322487e-03 
-1.159784806983e-03 4.546774843702e-06 0.0 
4.546774843702e-06 7.042624556690e-03 0.0 
0.0 0.0 -1.051102540299e-03 
-2.045778073669e-04 -2.934353049160e-05 0.0 
-2.934353049160e-05 3.544788899175e-03 0.0 
0.0 0.0 -7.045205360201e-04 
-9.013823451461e-04 3.641498331546e-04 0.0 
3.641498331546e-04 5.853350218943e-03 0.0 
0.0 0.0 -9.344940742331e-04 
-8.532834150583e-04 1.785665259931e-04 0.0 
1.785665259931e-04 6.467721788847e-03 0.0 
0.0 0.0 -1.088599101970e-03 
-1.213199839846e-03 -4.701032574329e-05 0.0 
-4.701032574329e-05 7.611187462875e-03 0.0 
0.0 0.0 -1.130578931274e-03 
-1.163123546776e-03 3.469650352866e-04 0.0 
3.469650352866e-04 7.457428311297e-03 0.0 
0.0 0.0 -1.160781586281e-03 
-1.064121038643e-03 3.592685452389e-04 0.0 
3.592685452389e-04 6.295822569873e-03 0.0 
0.0 0.0 -9.517943393003e-04 
-9.431187375283e-04 -8.030312093777e-06 0.0 
-8.030312093777e-06 6.723807310886e-03 0.0 
0.0 0.0 -1.113435711030e-03 
-3.640285380993e-04 -2.251334255899e-04 0.0 
-2.251334255899e-04 4.276860424883e-03 0.0 
0.0 0.0 -7.971871449875e-04 
-8.575470034421e-04 -2.591277644309e-04 0.0 
-2.591277644309e-04 6.522660233149e-03 0.0 
0.0 0.0 -1.086118700983e-03 
-6.488096190532e-04 8.782975641900e-04 0.0 
8.782975641900e-04 4.555098411154e-03 0.0 
0.0 0.0 -7.951163407912e-04 
-1.259477151619e-03 2.377000778179e-05 0.0 
2.377000778179e-05 7.994105241717e-03 0.0 
0.0 0.0 -1.188704642750e-03 
-1.188566355983e-03 2.821785558319e-04 0.0 
2.821785558319e-04 7.789552889991e-03 0.0 
0.0 0.0 -1.200489323427e-03 
-5.291595357548e-04 1.464001696405e-04 0.0 
1.464001696405e-04 4.944674619640e-03 0.0 
0.0 0.0 -8.929891684399e-04 
5.077877396978e-04 3.026021049410e-04 0.0 
3.026021049410e-04 3.943566526323e-04 0.0 
0.0 0.0 -3.866333109986e-04 
-9.967575789130e-04 6.124990556396e-04 0.0 
6.124990556396e-04 6.815699392306e-03 0.0 
0.0 0.0 -1.113685640909e-03 
-6.605390437865e-04 4.261094964972e-04 0.0 
4.261094964972e-04 5.059149157301e-03 0.0 
0.0 0.0 -8.555605426019e-04 
-1.830081198130e-04 1.866635750844e-04 0.0 
1.866635750844e-04 3.368216116446e-03 0.0 
0.0 0.0 -6.765734244908e-04 
-5.817203437329e-04 -2.125841840423e-04 0.0 
-2.125841840423e-04 5.299242741235e-03 0.0 
0.0 0.0 -9.269463096178e-04 
-9.296871453603e-04 -5.069518437094e-04 0.0 
-5.069518437094e-04 6.554705833196e-03 0.0 
0.0 0.0 -1.072977024862e-03 
5.145493605139e-04 -6.481882605914e-04 0.0 
-6.481882605914e-04 5.138628621790e-04 0.0 
0.0 0.0 -3.958212347391e-04 
-4.207868633399e-04 1.388755270071e-04 0.0 
1.388755270071e-04 4.431893145968e-03 0.0 
0.0 0.0 -8.281205301186e-04 
-1.057518774056e-03 5.392644449481e-04 0.0 
5.392644449481e-04 6.206831668111e-03 0.0 
0.0 0.0 -9.596127204057e-04 
-1.238644968873e-03 -4.648423040969e-04 0.0 
-4.648423040969e-04 7.603472997752e-03 0.0 
0.0 0.0 -1.170838755190e-03 
-1.067041670428e-03 5.715302009941e-04 0.0 
5.715302009941e-04 6.356528225694e-03 0.0 
0.0 0.0 -9.876491701491e-04 
-9.841945622355e-04 6.610492595006e-04 0.0 
6.610492595006e-04 6.661208694162e-03 0.0 
0.0 0.0 -1.085374163265e-03 
-1.045085745863e-03 5.003784013052e-04 0.0 
5.003784013052e-04 6.049842854282e-03 0.0 
0.0 0.0 -9.316602363005e-04 
-1.022837492668e-03 4.381275546802e-04 0.0 
4.381275546802e-04 5.716010034056e-03 0.0 
0.0 0.0 -8.756372412555e-04 
-9.850681647526e-04 6.675723233926e-04 0.0 
6.675723233926e-04 5.952563133260e-03 0.0 
0.0 0.0 -9.447135688329e-04 
-9.326630633240e-04 3.930283305116e-04 0.0 
3.930283305116e-04 6.810995827980e-03 0.0 
0.0 0.0 -1.133505030480e-03 
-1.106660061021e-03 -5.521563816417e-04 0.0 
-5.521563816417e-04 6.894855264338e-03 0.0 
0.0 0.0 -1.084522140297e-03 
-1.120799229937e-03 3.838899692646e-04 0.0 
3.838899692646e-04 6.737454909863e-03 0.0 
0.0 0.0 -1.017300281410e-03 
-1.265839226480e-03 4.523982644349e-04 0.0 
4.523982644349e-04 8.063487692737e-03 0.0 
0.0 0.0 -1.212886757924e-03 
-1.030324522425e-03 4.628372417255e-04 0.0 
4.628372417255e-04 5.887641382241e-03 0.0 
0.0 0.0 -9.037302385344e-04 
2.653135269755e-05 8.001600084414e-05 0.0 
8.001600084414e-05 2.476344782206e-03 0.0 
0.0 0.0 -5.760585567884e-04 
-1.044239643313e-03 2.376498451470e-04 0.0 
2.376498451470e-04 7.187723140536e-03 0.0 
0.0 0.0 -1.146733564437e-03 
-1.253924981079e-03 -4.907598213234e-05 0.0 
-4.907598213234e-05 8.057805599269e-03 0.0 
0.0 0.0 -1.196744929305e-03 
-5.355464959753e-04 8.349410411799e-04 0.0 
8.349410411799e-04 4.335085481445e-03 0.0 
0.0 0.0 -7.869228524964e-04 
-6.233378135021e-04 8.291713004523e-04 0.0 
8.291713004523e-04 4.669146782253e-03 0.0 
0.0 0.0 -8.226527892688e-04 
-9.042297380501e-05 1.578503348626e-05 0.0 
1.578503348626e-05 3.015977975308e-03 0.0 
0.0 0.0 -6.402419685743e-04 
-1.145557266538e-03 4.246140586136e-04 0.0 
4.246140586136e-04 6.921583184568e-03 0.0 
0.0 0.0 -1.046609947212e-03 
-6.981713726155e-04 9.056832497172e-04 0.0 
9.056832497172e-04 3.852457966674e-03 0.0 
0.0 0.0 -6.500746975200e-04 
-6.825381544126e-04 6.942299752500e-04 0.0 
6.942299752500e-04 5.269578602974e-03 0.0 
0.0 0.0 -9.137630964162e-04 
-6.717413934869e-04 5.961928435860e-04 0.0 
5.961928435860e-04 3.907642713709e-03 0.0 
0.0 0.0 -6.476280927198e-04 
-8.299310340804e-04 4.003109170218e-04 0.0 
4.003109170218e-04 6.314977660297e-03 0.0 
0.0 0.0 -1.068254633495e-03 
-1.134995185088e-03 2.756692802088e-04 0.0 
2.756692802088e-04 7.594750376581e-03 0.0 
0.0 0.0 -1.211228670573e-03 
-1.360533559688e-04 -2.215574873168e-04 0.0 
-2.215574873168e-04 3.223027219763e-03 0.0 
0.0 0.0 -6.682047883386e-04 
4.373904628404e-04 -2.393257178328e-04 0.0 
-2.393257178328e-04 -1.132865459339e-04 0.0 
0.0 0.0 -1.389016786742e-04 
-1.258599255868e-03 5.175436206336e-04 0.0 
5.175436206336e-04 7.974357198458e-03 0.0 
0.0 0.0 -1.207184308065e-03 
-7.509449296831e-04 8.117398232865e-04 0.0 
8.117398232865e-04 4.141196512392e-03 0.0 
0.0 0.0 -6.853381776776e-04 
-4.357225566231e-04 -2.745654093134e-04 0.0 
-2.745654093134e-04 4.218247831069e-03 0.0 
0.0 0.0 -7.828151049093e-04 
-1.060590658414e-03 6.112856710438e-04 0.0 
6.112856710438e-04 7.289270463529e-03 0.0 
0.0 0.0 -1.177925372349e-03 
-1.133119087327e-03 1.716253131945e-05 0.0 
1.716253131945e-05 6.790529249754e-03 0.0 
0.0 0.0 -1.015069748350e-03 
-1.047918274143e-03 -5.722033483047e-04 0.0 
-5.722033483047e-04 6.640384232334e-03 0.0 
0.0 0.0 -1.055879354346e-03 
-3.002045645479e-04 4.799822856897e-04 0.0 
4.799822856897e-04 3.594772661625e-03 0.0 
0.0 0.0 -6.851017020021e-04 
1.437633437549e-04 -1.583243096343e-05 0.0 
-1.583243096343e-05 -4.287346076813e-05 0.0 
0.0 0.0 -4.323852128003e-05 
-1.294332022630e-03 -4.590388614896e-04 0.0 
-4.590388614896e-04 7.891763322768e-03 0.0 
0.0 0.0 -1.202131160132e-03 
-7.979241755136e-04 7.967983468878e-04 0.0 
7.967983468878e-04 5.189819245057e-03 0.0 
0.0 0.0 -8.660506973337e-04 
-7.515738742409e-04 1.099645178349e-04 0.0 
1.099645178349e-04 5.981619188890e-03 0.0 
0.0 0.0 -1.007142642412e-03 
-1.115772722662e-03 6.613759768766e-04 0.0 
6.613759768766e-04 7.287802445254e-03 0.0 
0.0 0.0 -1.157822513452e-03 
0.0 0.0 0.0 
0.0 0.0 0.0 
0.0 0.0 0.0 
-1.020410346766e-03 -1.741879484343e-04 0.0 
-1.741879484343e-04 6.569036879710e-03 0.0 
0.0 0.0 -1.058763633038e-03 
-1.044584882710e-04 9.374141262810e-04 0.0 
9.374141262810e-04 2.179572843365e-03 0.0 
0.0 0.0 -4.919579008500e-04 
-1.074016419554e-03 -9.865194451981e-06 0.0 
-9.865194451981e-06 6.344021920267e-03 0.0 
0.0 0.0 -9.498437721210e-04 
-9.305727240655e-04 -6.933921297842e-04 0.0 
-6.933921297842e-04 5.329347824549e-03 0.0 
0.0 0.0 -8.496012432876e-04 
-1.513106441094e-04 3.496683072490e-04 0.0 
3.496683072490e-04 3.137268859880e-03 0.0 
0.0 0.0 -6.709551114794e-04 
-1.200608795278e-03 -4.872905826385e-04 0.0 
-4.872905826385e-04 7.367763642178e-03 0.0 
0.0 0.0 -1.141635569211e-03 
-6.896908437113e-04 7.588366273899e-04 0.0 
7.588366273899e-04 5.123258515759e-03 0.0 
0.0 0.0 -8.859145181037e-04 
-3.682506920307e-05 4.047925217802e-04 0.0 
4.047925217802e-04 2.589749957424e-03 0.0 
0.0 0.0 -6.067458373204e-04 
-8.340011645670e-04 4.008480374015e-04 0.0 
4.008480374015e-04 5.557081142302e-03 0.0 
0.0 0.0 -8.989548790023e-04 
3.022096838876e-04 -3.038195152345e-04 0.0 
-3.038195152345e-04 -5.124151784210e-05 0.0 
0.0 0.0 -1.075577854481e-04 
-9.546355211556e-04 3.234338831530e-04 0.0 
3.234338831530e-04 6.429567223705e-03 0.0 
0.0 0.0 -1.026417656363e-03 
-8.158927749848e-04 -3.909777349408e-05 0.0 
-3.909777349408e-05 6.386420010715e-03 0.0 
0.0 0.0 -1.065496432940e-03 
-1.247055565640e-03 3.319997532961e-04 0.0 
3.319997532961e-04 7.921779384989e-03 0.0 
0.0 0.0 -1.233600908384e-03 
-1.025284337354e-03 2.945178670449e-04 0.0 
2.945178670449e-04 6.877652576001e-03 0.0 
0.0 0.0 -1.090749533212e-03 
2.434503745851e-04 -1.578934998957e-04 0.0 
-1.578934998957e-04 1.529841444305e-03 0.0 
0.0 0.0 -4.758149136988e-04 
-1.100855494631e-03 -5.513580386133e-04 0.0 
-5.513580386133e-04 6.680884096093e-03 0.0 
0.0 0.0 -1.047231727503e-03 
-1.252169978070e-03 3.748871630309e-04 0.0 
3.748871630309e-04 8.183246127380e-03 0.0 
0.0 0.0 -1.228155452712e-03 
-1.172998084832e-03 8.287498321717e-05 0.0 
8.287498321717e-05 7.902166307926e-03 0.0 
0.0 0.0 -1.267145247477e-03 
-8.845763971731e-04 3.343706134046e-05 0.0 
3.343706134046e-05 6.685188464531e-03 0.0 
0.0 0.0 -1.102242875413e-03 
-2.824655770355e-04 3.019818645340e-04 0.0 
3.019818645340e-04 3.719180698001e-03 0.0 
0.0 0.0 -7.127912709901e-04 
-8.914221389397e-04 3.576211756874e-04 0.0 
3.576211756874e-04 5.989320852496e-03 0.0 
0.0 0.0 -9.624716764950e-04 
-1.265622827008e-03 -3.602381928261e-05 0.0 
-3.602381928261e-05 7.525688479598e-03 0.0 
0.0 0.0 -1.164316760544e-03 
-1.026823558190e-03 -3.127358117122e-04 0.0 
-3.127358117122e-04 5.188290229651e-03 0.0 
0.0 0.0 -7.878971455476e-04 
-9.790335059978e-04 6.764140397440e-04 0.0 
6.764140397440e-04 6.506573428341e-03 0.0 
0.0 0.0 -1.057196955382e-03 
-1.092783271967e-03 3.587775336083e-04 0.0 
3.587775336083e-04 6.543365283594e-03 0.0 
0.0 0.0 -9.877098122506e-04 
-1.155871143424e-03 -5.200772835953e-04 0.0 
-5.200772835953e-04 7.131963810306e-03 0.0 
0.0 0.0 -1.112977059762e-03 
-1.053791982519e-03 -5.418051239347e-04 0.0 
-5.418051239347e-04 6.849369446006e-03 0.0 
0.0 0.0 -1.093234982489e-03 
-8.344751970142e-04 -5.063632387036e-06 0.0 
-5.063632387036e-06 4.624983012521e-03 0.0 
0.0 0.0 -7.313513689239e-04 
-8.293658591313e-04 3.666703434100e-05 0.0 
3.666703434100e-05 4.623218336322e-03 0.0 
0.0 0.0 -7.310574395863e-04 
-1.097030069405e-03 1.613810298080e-04 0.0 
1.613810298080e-04 6.539696336596e-03 0.0 
0.0 0.0 -9.927888931629e-04 
-9.125545325387e-04 7.100995827850e-04 0.0 
7.100995827850e-04 6.060357295598e-03 0.0 
0.0 0.0 -9.930598132463e-04 
-9.889474269995e-04 -6.231936758992e-04 0.0 
-6.231936758992e-04 5.582412655685e-03 0.0 
0.0 0.0 -8.780428295617e-04 
-1.024071250989e-03 2.871939654452e-04 0.0 
2.871939654452e-04 6.293682207182e-03 0.0 
0.0 0.0 -9.775429604617e-04 
-6.061110354643e-04 7.542189021973e-04 0.0 
7.542189021973e-04 4.796279324774e-03 0.0 
0.0 0.0 -8.502279965035e-04 
-1.039665177067e-03 6.008961477256e-05 0.0 
6.008961477256e-05 7.149947818513e-03 0.0 
0.0 0.0 -1.180288150054e-03 
-3.419429553988e-04 7.892463912468e-04 0.0 
7.892463912468e-04 3.645374748844e-03 0.0 
0.0 0.0 -7.154845226688e-04 
-1.354053466570e-03 2.682798114320e-04 0.0 
2.682798114320e-04 9.013564030942e-03 0.0 
0.0 0.0 -1.323793839065e-03 
-9.392924140877e-04 3.695422570173e-04 0.0 
3.695422570173e-04 5.310514062737e-03 0.0 
0.0 0.0 -8.119939454945e-04 
-5.728660710208e-04 4.262528038404e-04 0.0 
4.262528038404e-04 4.737723853376e-03 0.0 
0.0 0.0 -8.199314282332e-04 
-8.958346709753e-04 -3.297015998196e-04 0.0 
-3.297015998196e-04 5.260659561238e-03 0.0 
0.0 0.0 -8.523954645778e-04 
2.690092700999e-04 2.909500152897e-04 0.0 
2.909500152897e-04 1.354854423747e-03 0.0 
0.0 0.0 -4.479040077299e-04 
-8.117880315537e-04 -8.289707142058e-04 0.0 
-8.289707142058e-04 4.623452632362e-03 0.0 
0.0 0.0 -7.551671247638e-04 
-8.525904846397e-04 7.508503903319e-04 0.0 
7.508503903319e-04 5.621343722007e-03 0.0 
0.0 0.0 -9.293281999836e-04 
-8.758111121474e-04 7.483431883641e-04 0.0 
7.483431883641e-04 5.371889788881e-03 0.0 
0.0 0.0 -8.738309435711e-04 
-1.092742745582e-03 3.915524889603e-04 0.0 
3.915524889603e-04 6.485907170089e-03 0.0 
0.0 0.0 -9.814596669550e-04 
-1.035952161766e-03 6.611052853446e-04 0.0 
6.611052853446e-04 6.380857888035e-03 0.0 
0.0 0.0 -1.008022096355e-03 
-1.077652724168e-03 2.805726221407e-04 0.0 
2.805726221407e-04 6.715783923999e-03 0.0 
0.0 0.0 -1.040850218070e-03 
-2.023974518503e-04 -1.321133762499e-04 0.0 
-1.321133762499e-04 1.384394093772e-03 0.0 
0.0 0.0 -2.163717569139e-04 
-7.893601242255e-04 -4.562798916239e-04 0.0 
-4.562798916239e-04 4.381521976835e-03 0.0 
0.0 0.0 -7.209013985657e-04 
-7.313998078972e-04 5.086544562021e-04 0.0 
5.086544562021e-04 4.197814066076e-03 0.0 
0.0 0.0 -6.825522065409e-04 
-1.028318523239e-03 6.006171887521e-04 0.0 
6.006171887521e-04 6.085692307244e-03 0.0 
0.0 0.0 -9.521954671713e-04 
-1.067646735266e-03 2.331910673829e-04 0.0 
2.331910673829e-04 6.426373394987e-03 0.0 
0.0 0.0 -9.850634846466e-04 
-9.716546386639e-04 2.965949022534e-04 0.0 
2.965949022534e-04 6.988702290933e-03 0.0 
0.0 0.0 -1.160108757481e-03 
-4.472950566148e-04 1.734158785359e-04 0.0 
1.734158785359e-04 1.999281221139e-03 0.0 
0.0 0.0 -3.273996513303e-04 
5.013762340144e-04 -1.239269767564e-03 0.0 
-1.239269767564e-03 2.218446430556e-04 0.0 
0.0 0.0 -3.099518044586e-04 
-7.265319955109e-04 8.390462931927e-04 0.0 
8.390462931927e-04 4.877510016991e-03 0.0 
0.0 0.0 -8.305977116616e-04 
-8.244303094237e-04 -8.036957222691e-04 0.0 
-8.036957222691e-04 4.446645084886e-03 0.0 
0.0 0.0 -7.181358556540e-04 
-8.207218427826e-04 3.111449193775e-07 0.0 
3.111449193775e-07 4.297525914166e-03 0.0 
0.0 0.0 -6.554599841463e-04 
-8.454650530547e-04 2.288116945552e-05 0.0 
2.288116945552e-05 4.550895634799e-03 0.0 
0.0 0.0 -6.889204951115e-04 
-1.102411452052e-03 3.661135033764e-05 0.0 
3.661135033764e-05 6.536305471285e-03 0.0 
0.0 0.0 -9.793492904611e-04 
1.401876311920e-04 1.457319982698e-03 0.0 
1.457319982698e-03 8.276000244946e-04 0.0 
0.0 0.0 -3.371109590423e-04 
-9.056307504124e-04 -3.219601326285e-04 0.0 
-3.219601326285e-04 5.073216074597e-03 0.0 
0.0 0.0 -8.154759146177e-04 
-8.139515461008e-04 -3.444279104294e-04 0.0 
-3.444279104294e-04 6.262709696181e-03 0.0 
0.0 0.0 -1.049209916622e-03 
5.784646720155e-04 -2.798136268851e-04 0.0 
-2.798136268851e-04 4.491531344292e-05 0.0 
0.0 0.0 -2.671628509107e-04 
-1.269607203850e-03 4.300111845681e-04 0.0 
4.300111845681e-04 8.005085435650e-03 0.0 
0.0 0.0 -1.285586381397e-03 
-1.234701409080e-03 4.026661623699e-05 0.0 
4.026661623699e-05 7.724712803764e-03 0.0 
0.0 0.0 -1.152455342817e-03 
-9.332307083252e-04 -6.317385210980e-04 0.0 
-6.317385210980e-04 4.943755293323e-03 0.0 
0.0 0.0 -7.756113943005e-04 
-1.132361128818e-03 -1.347962173953e-04 0.0 
-1.347962173953e-04 6.852501733015e-03 0.0 
0.0 0.0 -1.078722419643e-03 
-1.782286125890e-04 -3.440225614963e-05 0.0 
-3.440225614963e-05 7.356149739106e-04 0.0 
0.0 0.0 -1.797547709840e-04 
-7.836878423569e-04 -4.420353483476e-04 0.0 
-4.420353483476e-04 6.015976224596e-03 0.0 
0.0 0.0 -1.012471576362e-03 
-7.618878641414e-04 4.386001518409e-04 0.0 
4.386001518409e-04 5.252415903850e-03 0.0 
0.0 0.0 -8.634366945984e-04 
-1.365202202974e-04 -1.663937919944e-05 0.0 
-1.663937919944e-05 7.240163383166e-04 0.0 
0.0 0.0 -1.788519809851e-04 
-1.221296204116e-03 3.897303876191e-04 0.0 
3.897303876191e-04 7.675470665632e-03 0.0 
0.0 0.0 -1.154859126927e-03 
6.541694671517e-04 -5.838497479074e-04 0.0 
-5.838497479074e-04 -1.165985658389e-04 0.0 
0.0 0.0 -2.303875291341e-04 
-1.022773715161e-03 2.649419741859e-04 0.0 
2.649419741859e-04 6.147018606592e-03 0.0 
0.0 0.0 -9.496453321265e-04 
-8.501477431051e-04 4.017489682252e-04 0.0 
4.017489682252e-04 5.430956065029e-03 0.0 
0.0 0.0 -8.712718144564e-04 
-3.870813166907e-04 -6.841434598879e-04 0.0 
-6.841434598879e-04 4.009053170529e-03 0.0 
0.0 0.0 -7.519815330289e-04 
-7.080628147866e-04 -2.630245850535e-04 0.0 
-2.630245850535e-04 5.293137348391e-03 0.0 
0.0 0.0 -9.052548162676e-04 
-1.248469741651e-03 4.216386458729e-04 0.0 
4.216386458729e-04 7.872413297340e-03 0.0 
0.0 0.0 -1.182898372388e-03 
-7.959805508824e-04 -1.903636579771e-04 0.0 
-1.903636579771e-04 5.775075989453e-03 0.0 
0.0 0.0 -9.716005391689e-04 
-7.058567601375e-04 8.071090420181e-04 0.0 
8.071090420181e-04 4.993912000440e-03 0.0 
0.0 0.0 -8.581765416018e-04 
-6.834773769761e-04 4.720321187624e-04 0.0 
4.720321187624e-04 4.941232986507e-03 0.0 
0.0 0.0 -8.279616112546e-04 
1.200725464497e-05 4.997720012563e-04 0.0 
4.997720012563e-04 2.980647594779e-04 0.0 
0.0 0.0 -1.328880060527e-04 
5.267325684764e-04 -1.507976047628e-04 0.0 
-1.507976047628e-04 -1.515568147922e-04 0.0 
0.0 0.0 -1.607896087218e-04 
-1.031637425544e-03 2.938257107745e-04 0.0 
2.938257107745e-04 7.016823171402e-03 0.0 
0.0 0.0 -1.118331045454e-03 
-1.047581819557e-03 3.855603907834e-05 0.0 
3.855603907834e-05 6.024362043911e-03 0.0 
0.0 0.0 -9.085367473448e-04 
-1.068580773740e-03 6.289177231850e-04 0.0 
6.289177231850e-04 7.124997701846e-03 0.0 
0.0 0.0 -1.148691026115e-03 
-2.168784888490e-04 1.398227562360e-03 0.0 
1.398227562360e-03 2.112550911132e-03 0.0 
0.0 0.0 -4.942977111402e-04 
-1.176051745943e-03 5.435901405529e-04 0.0 
5.435901405529e-04 7.176283028080e-03 0.0 
0.0 0.0 -1.097950598811e-03 
-1.105546950119e-03 2.883637130323e-04 0.0 
2.883637130323e-04 7.335184708628e-03 0.0 
0.0 0.0 -1.155407764312e-03 
-8.481473499091e-04 3.802854440166e-04 0.0 
3.802854440166e-04 4.634623972028e-03 0.0 
0.0 0.0 -7.179420443741e-04 
-1.053414342459e-03 6.334862389143e-04 0.0 
6.334862389143e-04 6.950110385841e-03 0.0 
0.0 0.0 -1.120992621467e-03 
-1.150488405997e-03 -5.115596481821e-04 0.0 
-5.115596481821e-04 6.921289775542e-03 0.0 
0.0 0.0 -1.075946734593e-03 
-8.430169137080e-04 7.309466471044e-04 0.0 
7.309466471044e-04 5.750606817071e-03 0.0 
0.0 0.0 -9.571162043194e-04 
-8.407412319889e-04 -3.923326874810e-04 0.0 
-3.923326874810e-04 4.820090656330e-03 0.0 
0.0 0.0 -7.866383436874e-04 
-8.661293961769e-04 -7.636305903076e-04 0.0 
-7.636305903076e-04 5.068827859701e-03 0.0 
0.0 0.0 -8.209012074946e-04 
-1.276631957823e-03 1.351613779989e-04 0.0 
1.351613779989e-04 8.067600813718e-03 0.0 
0.0 0.0 -1.204704583718e-03 
-6.220699559740e-04 -3.467517458204e-04 0.0 
-3.467517458204e-04 4.812375804049e-03 0.0 
0.0 0.0 -8.396599866114e-04 
-8.640312315529e-04 7.564773801915e-04 0.0 
7.564773801915e-04 5.496513579944e-03 0.0 
0.0 0.0 -9.015555482168e-04 
-5.139647083066e-04 6.286602551559e-04 0.0 
6.286602551559e-04 4.638431100819e-03 0.0 
0.0 0.0 -8.433600309793e-04 
-8.878790724241e-04 -1.375747034556e-04 0.0 
-1.375747034556e-04 6.258870962336e-03 0.0 
0.0 0.0 -1.038364586984e-03 
-4.800211114771e-04 4.132947089942e-04 0.0 
4.132947089942e-04 4.403087062058e-03 0.0 
0.0 0.0 -7.842421616061e-04 
1.708764263770e-04 1.828302604937e-04 0.0 
1.828302604937e-04 1.696323968062e-03 0.0 
0.0 0.0 -5.065804551108e-04 
-4.825363659521e-04 1.845931219475e-05 0.0 
1.845931219475e-05 4.680497453253e-03 0.0 
0.0 0.0 -8.561803240471e-04 
8.082119994225e-05 4.790974331332e-04 0.0 
4.790974331332e-04 2.023860804843e-03 0.0 
0.0 0.0 -5.426160209679e-04 
-1.033438603377e-03 6.383788790857e-04 0.0 
6.383788790857e-04 6.235509335954e-03 0.0 
0.0 0.0 -9.799122972177e-04 
1.114946380246e-04 -1.909482610686e-04 0.0 
-1.909482610686e-04 2.113077183239e-03 0.0 
0.0 0.0 -5.399485503623e-04 
-9.706412986079e-04 3.184758127264e-04 0.0 
3.184758127264e-04 6.013389094156e-03 0.0 
0.0 0.0 -9.420580210740e-04 
-9.265946290547e-04 -4.225709154864e-05 0.0 
-4.225709154864e-05 6.885841307398e-03 0.0 
0.0 0.0 -1.130549445556e-03 
-8.685442447111e-04 3.124266913747e-04 0.0 
3.124266913747e-04 6.514082051094e-03 0.0 
0.0 0.0 -1.096529089934e-03 
-4.417150057457e-04 8.260625217284e-04 0.0 
8.260625217284e-04 3.995231427087e-03 0.0 
0.0 0.0 -7.512528815036e-04 
-1.059191105034e-03 4.065855107728e-04 0.0 
4.065855107728e-04 6.228287830528e-03 0.0 
0.0 0.0 -9.460253849645e-04 
-1.179141908394e-03 -9.694575707592e-05 0.0 
-9.694575707592e-05 7.087490944073e-03 0.0 
0.0 0.0 -1.107441567342e-03 
-1.193835214950e-03 -4.719824871619e-04 0.0 
-4.719824871619e-04 7.155436910273e-03 0.0 
0.0 0.0 -1.104747680386e-03 
1.944125303692e-04 1.273132647232e-03 0.0 
1.273132647232e-03 5.121470870520e-04 0.0 
0.0 0.0 -3.028112646091e-04 
-9.836336619932e-04 6.878362883605e-04 0.0 
6.878362883605e-04 6.089006481299e-03 0.0 
0.0 0.0 -9.724793438395e-04 
-1.268204156625e-03 7.721982515826e-06 0.0 
7.721982515826e-06 7.786698253164e-03 0.0 
0.0 0.0 -1.205818386895e-03 
-6.870681417228e-04 7.008927199053e-04 0.0 
7.008927199053e-04 3.265237971609e-03 0.0 
0.0 0.0 -5.357889572170e-04 
-9.885170178391e-04 -5.948066208015e-04 0.0 
-5.948066208015e-04 5.380783060798e-03 0.0 
0.0 0.0 -8.409532000723e-04 
-7.799555259595e-05 6.230825562270e-04 0.0 
6.230825562270e-04 5.570487652900e-04 0.0 
0.0 0.0 -2.053085197260e-04 
-1.219579480668e-03 -6.033820998881e-05 0.0 
-6.033820998881e-05 7.313003609483e-03 0.0 
0.0 0.0 -1.136235114959e-03 
2.012100085966e-04 5.845223729044e-04 0.0 
5.845223729044e-04 1.434306137738e-03 0.0 
0.0 0.0 -4.785631936960e-04 
-1.042459381450e-03 3.192310209747e-05 0.0 
3.192310209747e-05 5.237687487302e-03 0.0 
0.0 0.0 -8.166178341775e-04 
-7.748148319910e-04 5.841265057534e-04 0.0 
5.841265057534e-04 5.931280080680e-03 0.0 
0.0 0.0 -1.008721701990e-03 
-1.070450976463e-03 4.786712554869e-05 0.0 
4.786712554869e-05 6.281594191104e-03 0.0 
0.0 0.0 -9.438854677472e-04 
-1.019990029507e-03 4.017679917675e-04 0.0 
4.017679917675e-04 5.968797618871e-03 0.0 
0.0 0.0 -9.108073647307e-04 
-7.821076712380e-04 7.813500369489e-04 0.0 
7.813500369489e-04 5.311710917371e-03 0.0 
0.0 0.0 -8.936906232635e-04 
-7.622603984916e-04 6.791341036293e-05 0.0 
6.791341036293e-05 3.813852506224e-03 0.0 
0.0 0.0 -5.884905393267e-04 
-7.846644250761e-04 7.808219167046e-05 0.0 
7.808219167046e-05 4.065403212213e-03 0.0 
0.0 0.0 -6.218825813656e-04 
-1.233191643352e-03 -4.261165376934e-04 0.0 
-4.261165376934e-04 7.382821542764e-03 0.0 
0.0 0.0 -1.133400347077e-03 
-7.515727621129e-04 -6.277168771854e-04 0.0 
-6.277168771854e-04 5.560136738189e-03 0.0 
0.0 0.0 -9.394087121358e-04 
-4.848945124793e-04 -6.056685510147e-04 0.0 
-6.056685510147e-04 4.517787566476e-03 0.0 
0.0 0.0 -8.164864906097e-04 
-7.633590365807e-04 1.747203192895e-05 0.0 
1.747203192895e-05 5.952051370355e-03 0.0 
0.0 0.0 -1.014986374720e-03 
-3.745762426959e-04 -1.208773656876e-05 0.0 
-1.208773656876e-05 4.169816033916e-03 0.0 
0.0 0.0 -7.915105747055e-04 
1.470981817100e-04 1.699633256222e-04 0.0 
1.699633256222e-04 1.922517798804e-03 0.0 
0.0 0.0 -5.119962057136e-04 
-7.251559287553e-04 3.584185138835e-04 0.0 
3.584185138835e-04 3.747261506519e-03 0.0 
0.0 0.0 -5.908395828668e-04 
-9.989176313813e-04 5.279041160422e-05 0.0 
5.279041160422e-05 5.610761613461e-03 0.0 
0.0 0.0 -8.442294783838e-04 
-8.140722277822e-04 1.153536144127e-05 0.0 
1.153536144127e-05 4.902728731460e-03 0.0 
0.0 0.0 -7.121995050294e-04 
-8.606102061483e-04 -1.123280902614e-04 0.0 
-1.123280902614e-04 6.585165240131e-03 0.0 
0.0 0.0 -1.093598669875e-03 
-3.829181500835e-04 3.755711815579e-04 0.0 
3.755711815579e-04 4.064228922124e-03 0.0 
0.0 0.0 -7.486350631497e-04 
-1.089919498544e-03 4.032533245885e-04 0.0 
4.032533245885e-04 7.584210826506e-03 0.0 
0.0 0.0 -1.233571955743e-03 
-1.258849103109e-03 1.203645015164e-04 0.0 
1.203645015164e-04 7.318640773608e-03 0.0 
0.0 0.0 -1.121177773779e-03 
-4.277541990728e-04 -3.591296022275e-04 0.0 
-3.591296022275e-04 4.511429067315e-03 0.0 
0.0 0.0 -8.252461108756e-04 
-1.288851597356e-03 -4.658297080141e-04 0.0 
-4.658297080141e-04 8.043612715449e-03 0.0 
0.0 0.0 -1.241472629463e-03 
3.242839641495e-05 -4.968694073408e-04 0.0 
-4.968694073408e-04 2.366486634827e-03 0.0 
0.0 0.0 -5.682622744621e-04 
-1.077966235092e-03 4.739436140623e-04 0.0 
4.739436140623e-04 7.389804662751e-03 0.0 
0.0 0.0 -1.204482468497e-03 
-7.429375265798e-04 4.078626067565e-04 0.0 
4.078626067565e-04 5.376339153074e-03 0.0 
0.0 0.0 -8.910665706739e-04 
-8.382327257171e-04 6.914183336446e-04 0.0 
6.914183336446e-04 5.885419181804e-03 0.0 
0.0 0.0 -9.848034212814e-04 
-9.867962554531e-04 -3.515709155634e-04 0.0 
-3.515709155634e-04 7.009894236266e-03 0.0 
0.0 0.0 -1.146785027167e-03 
-6.480751664788e-04 -1.064130565160e-03 0.0 
-1.064130565160e-03 3.485571623010e-03 0.0 
0.0 0.0 -5.958228065582e-04 
-9.264979844569e-04 7.226480241173e-04 0.0 
7.226480241173e-04 5.798649245259e-03 0.0 
0.0 0.0 -9.369464185080e-04 
-3.976862535672e-04 -5.140984221878e-04 0.0 
-5.140984221878e-04 4.248707874465e-03 0.0 
0.0 0.0 -7.886172400246e-04 
-9.126908566727e-04 3.597233129020e-04 0.0 
3.597233129020e-04 5.721921232905e-03 0.0 
0.0 0.0 -9.065670216064e-04 
-2.413614743731e-04 9.207248143764e-04 0.0 
9.207248143764e-04 2.576101931259e-03 0.0 
0.0 0.0 -5.268093404353e-04 
-8.396821970539e-04 6.672060837292e-04 0.0 
6.672060837292e-04 6.048287273264e-03 0.0 
0.0 0.0 -1.013229387512e-03 
-3.452329379355e-04 -1.792312499866e-04 0.0 
-1.792312499866e-04 3.927967745038e-03 0.0 
0.0 0.0 -7.548706880268e-04 
-9.599399109740e-04 -2.677314431030e-04 0.0 
-2.677314431030e-04 5.510906117541e-03 0.0 
0.0 0.0 -8.810281692460e-04 
-9.326422123301e-04 7.027170698306e-04 0.0 
7.027170698306e-04 5.663041666324e-03 0.0 
0.0 0.0 -9.091416541300e-04 
1.310354464969e-04 5.651438564875e-04 0.0 
5.651438564875e-04 1.741573510573e-04 0.0 
0.0 0.0 -1.307969132375e-04 
-6.049604556671e-04 5.771719455814e-04 0.0 
5.771719455814e-04 5.135535656328e-03 0.0 
0.0 0.0 -9.082496170556e-04 
-8.264119998562e-05 1.037717303205e-03 0.0 
1.037717303205e-03 8.249845298322e-04 0.0 
0.0 0.0 -3.181471413628e-04 
-3.486990110529e-04 1.618131580726e-05 0.0 
1.618131580726e-05 1.379681923450e-03 0.0 
0.0 0.0 -2.410360834028e-04 
-9.637368636999e-04 -2.534336696837e-04 0.0 
-2.534336696837e-04 5.310722216845e-03 0.0 
0.0 0.0 -8.438072171805e-04 
-1.086820871417e-03 2.926579608564e-04 0.0 
2.926579608564e-04 7.015412211803e-03 0.0 
0.0 0.0 -1.098354823938e-03 
-1.049951667635e-03 4.416530287396e-04 0.0 
4.416530287396e-04 6.131491265693e-03 0.0 
0.0 0.0 -9.387552692590e-04 
-7.056421761476e-04 1.432307568262e-04 0.0 
1.432307568262e-04 3.346065552913e-03 0.0 
0.0 0.0 -5.215302833573e-04 
-1.342322198460e-03 3.183613232645e-04 0.0 
3.183613232645e-04 8.773669276182e-03 0.0 
0.0 0.0 -1.342322198460e-03 
3.836307119602e-05 1.777435835148e-04 0.0 
1.777435835148e-04 5.796280456300e-05 0.0 
0.0 0.0 -4.128251818244e-05 
-7.274210317143e-04 1.629360554579e-04 0.0 
1.629360554579e-04 3.588533030425e-03 0.0 
0.0 0.0 -5.549805679787e-04 
-5.340066039333e-04 -2.072389055199e-04 0.0 
-2.072389055199e-04 4.712236291548e-03 0.0 
0.0 0.0 -8.472740691906e-04 
-9.827474692013e-04 -5.565690633406e-04 0.0 
-5.565690633406e-04 5.178751046310e-03 0.0 
0.0 0.0 -8.042584860449e-04 
-8.272148132873e-04 2.043748305373e-04 0.0 
2.043748305373e-04 4.358943672927e-03 0.0 
0.0 0.0 -6.733236465360e-04 
-1.391682779442e-04 -5.660980208305e-04 0.0 
-5.660980208305e-04 2.708178146588e-03 0.0 
0.0 0.0 -5.908717820549e-04 
-6.655440375533e-04 -6.952663529849e-04 0.0 
-6.952663529849e-04 5.066823485387e-03 0.0 
0.0 0.0 -8.733819075714e-04 
-8.196031050189e-04 3.838546333042e-04 0.0 
3.838546333042e-04 5.685766128825e-03 0.0 
0.0 0.0 -9.266779469803e-04 
-6.990167424859e-04 5.271708541357e-04 0.0 
5.271708541357e-04 5.638282256463e-03 0.0 
0.0 0.0 -9.734188451722e-04 
-1.186630910785e-03 6.460835059358e-04 0.0 
6.460835059358e-04 7.362442267771e-03 0.0 
0.0 0.0 -1.144302277022e-03 
2.969246869216e-04 1.115918954902e-03 0.0 
1.115918954902e-03 3.039667145196e-04 0.0 
0.0 0.0 -2.575248863319e-04 
-9.117889324076e-04 -2.951149434616e-04 0.0 
-2.951149434616e-04 4.877432515646e-03 0.0 
0.0 0.0 -7.784793977761e-04 
-1.012208946591e-03 -1.496092469439e-04 0.0 
-1.496092469439e-04 5.343186025449e-03 0.0 
0.0 0.0 -8.356154970834e-04 
-6.331046465697e-04 -9.049418944168e-04 0.0 
-9.049418944168e-04 2.758073297942e-03 0.0 
0.0 0.0 -4.544023106810e-04 
-8.924169308789e-04 4.058945008041e-04 0.0 
4.058945008041e-04 4.880366770900e-03 0.0 
0.0 0.0 -7.518103749233e-04 
-1.063894881261e-03 9.071629636427e-05 0.0 
9.071629636427e-05 6.191505659791e-03 0.0 
0.0 0.0 -9.362314798257e-04 
-1.205869425098e-03 -2.261798490425e-04 0.0 
-2.261798490425e-04 6.678201842620e-03 0.0 
0.0 0.0 -1.023451880212e-03 
-7.015472354662e-05 -2.565736168466e-05 0.0 
-2.565736168466e-05 9.612203433626e-04 0.0 
0.0 0.0 -1.605242656235e-04 
0.0 0.0 0.0 
0.0 0.0 0.0 
0.0 0.0 0.0 
-5.147384921578e-04 -7.536249502610e-04 0.0 
-7.536249502610e-04 1.966691460963e-03 0.0 
0.0 0.0 -3.233707900025e-04 
-1.027484224102e-03 -4.836123400480e-04 0.0 
-4.836123400480e-04 5.407088060702e-03 0.0 
0.0 0.0 -8.330087554115e-04 
-8.882847245791e-05 -4.537970764089e-04 0.0 
-4.537970764089e-04 2.924964268328e-03 0.0 
0.0 0.0 -6.322020076307e-04 
-9.059460685547e-05 -9.981933794838e-04 0.0 
-9.981933794838e-04 2.441338825064e-03 0.0 
0.0 0.0 -5.605319560360e-04 
1.602068840710e-04 -5.380164516261e-04 0.0 
-5.380164516261e-04 1.784200169895e-03 0.0 
0.0 0.0 -5.041580933422e-04 
-1.016808142495e-03 -1.850132427343e-04 0.0 
-1.850132427343e-04 5.546831112907e-03 0.0 
0.0 0.0 -8.721335634590e-04 
-1.089492890547e-03 5.256596706488e-04 0.0 
5.256596706488e-04 6.464473810732e-03 0.0 
0.0 0.0 -9.956198530692e-04 
-1.055480845035e-03 -8.073487003007e-05 0.0 
-8.073487003007e-05 5.564073531230e-03 0.0 
0.0 0.0 -8.643287579461e-04 
-7.969352206199e-05 1.392070136612e-04 0.0 
1.392070136612e-04 2.839214225501e-03 0.0 
0.0 0.0 -6.348607296063e-04 
-9.652452647080e-04 3.246353242036e-04 0.0 
3.246353242036e-04 6.148089658116e-03 0.0 
0.0 0.0 -9.699423737970e-04 
-9.336187348190e-04 2.571357999357e-04 0.0 
2.571357999357e-04 5.466318221896e-03 0.0 
0.0 0.0 -8.236220363599e-04 
-8.699149514131e-04 5.427467141130e-04 0.0 
5.427467141130e-04 6.422709640429e-03 0.0 
0.0 0.0 -1.076197569190e-03 
-1.067019444508e-03 -4.166446150284e-04 0.0 
-4.166446150284e-04 5.628158977285e-03 0.0 
0.0 0.0 -8.617642947636e-04 
-1.037211549759e-03 -5.241557810677e-04 0.0 
-5.241557810677e-04 5.613837274242e-03 0.0 
0.0 0.0 -8.694825820363e-04 
-6.540642588821e-04 2.339053685670e-04 0.0 
2.339053685670e-04 2.854376740045e-03 0.0 
0.0 0.0 -4.548485160793e-04 
-1.830897456311e-04 -6.409178638984e-04 0.0 
-6.409178638984e-04 3.204685697947e-03 0.0 
0.0 0.0 -6.598952468721e-04 
-1.092100602406e-03 -1.853786207342e-05 0.0 
-1.853786207342e-05 5.772593500168e-03 0.0 
0.0 0.0 -8.930692851043e-04 
-1.055598751707e-03 1.761127934755e-04 0.0 
1.761127934755e-04 6.440216787672e-03 0.0 
0.0 0.0 -9.615701295831e-04 
-1.001453888758e-03 1.848581000640e-04 0.0 
1.848581000640e-04 6.057549413992e-03 0.0 
0.0 0.0 -8.972249362023e-04 
-6.770179440789e-04 2.249366581215e-04 0.0 
2.249366581215e-04 3.121369932688e-03 0.0 
0.0 0.0 -4.879487645214e-04 
-1.064022376908e-03 -1.167841295241e-04 0.0 
-1.167841295241e-04 5.775583557860e-03 0.0 
0.0 0.0 -9.007118478549e-04 
-2.859853618183e-04 -1.273336407491e-03 0.0 
-1.273336407491e-03 2.641008784054e-03 0.0 
0.0 0.0 -5.517684601482e-04 
-1.131468898778e-04 1.392096794452e-03 0.0 
1.392096794452e-03 1.091258670637e-03 0.0 
0.0 0.0 -4.029896332773e-04 
-1.047918758114e-03 7.340593604258e-05 0.0 
7.340593604258e-05 7.456724692606e-03 0.0 
0.0 0.0 -1.202908440308e-03 
-5.627131210403e-04 -6.726340984242e-04 0.0 
-6.726340984242e-04 1.683903901649e-03 0.0 
0.0 0.0 -3.052185142707e-04 
-3.169146226738e-04 -8.080615281722e-04 0.0 
-8.080615281722e-04 2.922160059008e-03 0.0 
0.0 0.0 -5.822209219963e-04 
-5.594905133051e-04 2.180548040984e-04 0.0 
2.180548040984e-04 5.015163126878e-03 0.0 
0.0 0.0 -8.766521650092e-04 
-6.622241155769e-04 4.063560181712e-04 0.0 
4.063560181712e-04 3.270370974807e-03 0.0 
0.0 0.0 -5.239962781855e-04 
-1.100749507766e-03 -3.563808608849e-04 0.0 
-3.563808608849e-04 5.849825024464e-03 0.0 
0.0 0.0 -8.905656347129e-04 
-5.985345031535e-04 -2.223177207573e-04 0.0 
-2.223177207573e-04 2.732572505037e-03 0.0 
0.0 0.0 -4.282508963332e-04 
-9.076266712888e-04 3.184539997902e-05 0.0 
3.184539997902e-05 5.036430824459e-03 0.0 
0.0 0.0 -7.823486082854e-04 
-1.081370140730e-03 -4.558826803401e-04 0.0 
-4.558826803401e-04 5.841011814907e-03 0.0 
0.0 0.0 -8.981647654366e-04 
-4.858836919803e-04 -7.457674947231e-04 0.0 
-7.457674947231e-04 4.297440458521e-03 0.0 
0.0 0.0 -7.800125773855e-04 
-9.348538294518e-04 -6.697112536075e-04 0.0 
-6.697112536075e-04 5.140798604724e-03 0.0 
0.0 0.0 -8.126672281948e-04 
8.703935028516e-05 1.690415104804e-04 0.0 
1.690415104804e-04 1.245018223099e-05 0.0 
0.0 0.0 -4.263837107835e-05 
-1.241448931941e-03 -1.835319642593e-04 0.0 
-1.835319642593e-04 7.812891284508e-03 0.0 
0.0 0.0 -1.152567315725e-03 
-3.081364130084e-04 -9.550871966768e-04 0.0 
-9.550871966768e-04 3.298658843063e-03 0.0 
0.0 0.0 -6.514572604261e-04 
-9.718772757445e-04 1.979502564842e-04 0.0 
1.979502564842e-04 7.009305473662e-03 0.0 
0.0 0.0 -1.154039482800e-03 
-8.056057162638e-04 2.987492427290e-04 0.0 
2.987492427290e-04 5.959106481257e-03 0.0 
0.0 0.0 -9.821191134873e-04 
-1.105426206004e-03 -5.038601752530e-05 0.0 
-5.038601752530e-05 5.994681172748e-03 0.0 
0.0 0.0 -9.293965016571e-04 
-1.119004413752e-03 -3.820015781438e-04 0.0 
-3.820015781438e-04 6.058753668650e-03 0.0 
0.0 0.0 -9.268654845074e-04 
-3.123142997184e-05 -1.167065523526e-04 0.0 
-1.167065523526e-04 2.573595127563e-03 0.0 
0.0 0.0 -5.989583036242e-04 
-3.157644098559e-04 -6.245110788433e-04 0.0 
-6.245110788433e-04 1.110181514534e-03 0.0 
0.0 0.0 -2.862240160649e-04 
8.762727446402e-05 1.506685699699e-04 0.0 
1.506685699699e-04 5.297682451363e-06 0.0 
0.0 0.0 -3.982498153517e-05 
-1.139236581336e-03 9.449893671701e-06 0.0 
9.449893671701e-06 6.206332100994e-03 0.0 
0.0 0.0 -9.583065114985e-04 
-9.895576341864e-04 5.422021304530e-05 0.0 
5.422021304530e-05 6.999392542925e-03 0.0 
0.0 0.0 -1.148056181429e-03 
-4.775145294270e-04 -1.288589848279e-03 0.0 
-1.288589848279e-03 2.885723426917e-03 0.0 
0.0 0.0 -5.426247857783e-04 
-9.796725008080e-04 7.000708170444e-04 0.0 
7.000708170444e-04 6.228639819323e-03 0.0 
0.0 0.0 -1.000702849114e-03 
-6.472337897981e-04 7.799664963271e-04 0.0 
7.799664963271e-04 2.970737159620e-03 0.0 
0.0 0.0 -5.002094317253e-04 
-1.024167741003e-03 2.983156923563e-04 0.0 
2.983156923563e-04 6.439902929080e-03 0.0 
0.0 0.0 -1.005614027492e-03 
-1.230125729383e-03 -1.791987086205e-04 0.0 
-1.791987086205e-04 8.178224384408e-03 0.0 
0.0 0.0 -1.266534580134e-03 
0.0 0.0 0.0 
0.0 0.0 0.0 
0.0 0.0 0.0 
-1.341620833825e-03 -1.240232465015e-06 0.0 
-1.240232465015e-06 8.838044206910e-03 0.0 
0.0 0.0 -1.341620833825e-03 
-1.340051318819e-03 -7.855236063614e-05 0.0 
-7.855236063614e-05 8.625114056382e-03 0.0 
0.0 0.0 -1.340051318819e-03 
-8.980163173550e-04 -1.960905146637e-04 0.0 
-1.960905146637e-04 5.236321733421e-03 0.0 
0.0 0.0 -7.955197795907e-04 
-4.661383092836e-04 -1.098309243055e-03 0.0 
-1.098309243055e-03 3.461471777819e-03 0.0 
0.0 0.0 -6.428246066218e-04 
-8.082931774475e-04 3.508972968720e-04 0.0 
3.508972968720e-04 5.820381814417e-03 0.0 
0.0 0.0 -9.543595451431e-04 
-1.549769366622e-05 -2.109424872969e-04 0.0 
-2.109424872969e-04 2.675607327827e-03 0.0 
0.0 0.0 -6.041149214933e-04 
-2.283359273976e-04 -2.821495717667e-04 0.0 
-2.821495717667e-04 1.216165341166e-03 0.0 
0.0 0.0 -2.095884814006e-04 
5.244130076389e-06 5.299579131201e-04 0.0 
5.299579131201e-04 3.292147719476e-04 0.0 
0.0 0.0 -1.433395294388e-04 
-1.275023357737e-03 -5.993191991654e-05 0.0 
-5.993191991654e-05 8.163058981243e-03 0.0 
0.0 0.0 -1.209499414335e-03 
-1.082712059579e-03 1.205245821570e-04 0.0 
1.205245821570e-04 6.373245931173e-03 0.0 
0.0 0.0 -9.648175333861e-04 
-9.046820331639e-04 -1.080196974865e-06 0.0 
-1.080196974865e-06 4.867817697865e-03 0.0 
0.0 0.0 -7.224789237173e-04 
-1.279272833011e-03 4.773478504551e-04 0.0 
4.773478504551e-04 8.632757308161e-03 0.0 
0.0 0.0 -1.323661129950e-03 
-4.995343539176e-04 -2.062360200378e-04 0.0 
-2.062360200378e-04 2.288215934898e-03 0.0 
0.0 0.0 -3.615704333793e-04 
-1.305160647697e-03 4.322097678811e-04 0.0 
4.322097678811e-04 8.590809380930e-03 0.0 
0.0 0.0 -1.324908485340e-03 
-1.072336849723e-03 4.894356542548e-04 0.0 
4.894356542548e-04 6.310526310337e-03 0.0 
0.0 0.0 -9.670422101491e-04 
-6.106684104583e-04 -1.077307355153e-03 0.0 
-1.077307355153e-03 3.630162810958e-03 0.0 
0.0 0.0 -6.336394413500e-04 
-7.688592567693e-04 7.436159055388e-04 0.0 
7.436159055388e-04 5.436722305107e-03 0.0 
0.0 0.0 -9.212972352143e-04 
-4.366727405360e-04 -7.825680509829e-04 0.0 
-7.825680509829e-04 3.244703639757e-03 0.0 
0.0 0.0 -6.094834619596e-04 
-3.265911223950e-04 1.405912834574e-03 0.0 
1.405912834574e-03 1.452640584362e-03 0.0 
0.0 0.0 -3.649795199019e-04 
-4.990879049153e-04 -8.274194353689e-04 0.0 
-8.274194353689e-04 3.123468955199e-03 0.0 
0.0 0.0 -5.728018649490e-04 
-1.102176339442e-03 5.667634332671e-04 0.0 
5.667634332671e-04 6.620528006741e-03 0.0 
0.0 0.0 -1.023749757194e-03 
-1.274902778913e-03 -3.210380531188e-04 0.0 
-3.210380531188e-04 7.572738005346e-03 0.0 
0.0 0.0 -1.155390781228e-03 
-2.640863970045e-04 -6.506791704026e-04 0.0 
-6.506791704026e-04 3.044637194059e-03 0.0 
0.0 0.0 -6.181853003094e-04 
-1.037039327620e-03 6.760843031957e-04 0.0 
6.760843031957e-04 6.523249431128e-03 0.0 
0.0 0.0 -1.036271578259e-03 
0.0 0.0 0.0 
0.0 0.0 0.0 
0.0 0.0 0.0 
-1.285700230911e-04 -3.245101064007e-04 0.0 
-3.245101064007e-04 2.885767451406e-03 0.0 
0.0 0.0 -6.266282162577e-04 
-1.167206438241e-03 1.283137067331e-04 0.0 
1.283137067331e-04 7.080432372571e-03 0.0 
0.0 0.0 -1.066385360782e-03 
-6.379492421497e-04 -6.916022810517e-04 0.0 
-6.916022810517e-04 3.261870100237e-03 0.0 
0.0 0.0 -5.616069800515e-04 
-5.397721604140e-04 -1.270380268010e-03 0.0 
-1.270380268010e-03 2.784654802048e-03 0.0 
0.0 0.0 -5.052880831394e-04 
-7.290893412698e-04 3.613081104682e-04 0.0 
3.613081104682e-04 5.503308908361e-03 0.0 
0.0 0.0 -9.187611816440e-04 
1.265644672670e-04 -1.340381834312e-03 0.0 
-1.340381834312e-03 6.478378418571e-04 0.0 
0.0 0.0 -3.318867039103e-04 
-6.343393029067e-04 4.127806247347e-04 0.0 
4.127806247347e-04 2.352701282119e-03 0.0 
0.0 0.0 -3.867203691650e-04 
-5.980790938116e-04 3.108972139281e-04 0.0 
3.108972139281e-04 2.666414110552e-03 0.0 
0.0 0.0 -4.195921675762e-04 
-6.113097074720e-04 -7.505403763561e-04 0.0 
-7.505403763561e-04 2.857444945758e-03 0.0 
0.0 0.0 -4.973376392308e-04 
-5.765164058635e-04 -6.636526940974e-04 0.0 
-6.636526940974e-04 4.795423287764e-03 0.0 
0.0 0.0 -8.444178005646e-04 
-5.181015510014e-04 7.402765764373e-04 0.0 
7.402765764373e-04 4.473477357902e-03 0.0 
0.0 0.0 -8.147327860212e-04 
-1.021689517365e-03 3.040232263138e-04 0.0 
3.040232263138e-04 6.577677469830e-03 0.0 
0.0 0.0 -1.033897369924e-03 
-1.251489828841e-03 5.632464710331e-04 0.0 
5.632464710331e-04 7.903464121438e-03 0.0 
0.0 0.0 -1.224260864640e-03 
-6.076375545199e-04 4.683737268985e-04 0.0 
4.683737268985e-04 2.798103792701e-03 0.0 
0.0 0.0 -4.570814260163e-04 
-1.106194698900e-03 -2.340999049272e-04 0.0 
-2.340999049272e-04 6.875726326228e-03 0.0 
0.0 0.0 -1.028620860735e-03 
-1.222609548103e-03 6.000551956434e-04 0.0 
6.000551956434e-04 7.771092725331e-03 0.0 
0.0 0.0 -1.228414553209e-03 
4.319177178305e-05 1.565747196534e-04 0.0 
1.565747196534e-04 2.280131923741e-03 0.0 
0.0 0.0 -5.707601703556e-04 
-5.280303941059e-05 1.110289152965e-03 0.0 
1.110289152965e-03 8.099165551708e-04 0.0 
0.0 0.0 -3.244772210401e-04 
-6.896815476543e-04 4.595022377507e-04 0.0 
4.595022377507e-04 3.325524470954e-03 0.0 
0.0 0.0 -5.330167430730e-04 
-5.818026759286e-04 -7.746098819789e-04 0.0 
-7.746098819789e-04 4.581482398683e-03 0.0 
0.0 0.0 -8.082977034869e-04 
-1.084938189841e-03 6.476212573913e-04 0.0 
6.476212573913e-04 6.662130643566e-03 0.0 
0.0 0.0 -1.043024347135e-03 
-5.304647567233e-04 -3.288241115645e-04 0.0 
-3.288241115645e-04 4.511932891327e-03 0.0 
0.0 0.0 -8.108276944599e-04 
3.467916788336e-04 9.922084021829e-04 0.0 
9.922084021829e-04 1.937891863132e-04 0.0 
0.0 0.0 -2.316775136343e-04 
-6.676153210682e-04 -5.990024928293e-04 0.0 
-5.990024928293e-04 5.284713461811e-03 0.0 
0.0 0.0 -9.096068616062e-04 
-5.138764303910e-04 1.344859878066e-03 0.0 
1.344859878066e-03 1.832201827426e-03 0.0 
0.0 0.0 -3.508512830963e-04 
-4.693960867252e-04 2.899164946168e-04 0.0 
2.899164946168e-04 4.538651858574e-03 0.0 
0.0 0.0 -8.123573650817e-04 
-6.214317139948e-04 -2.381023826960e-04 0.0 
-2.381023826960e-04 5.000123203670e-03 0.0 
0.0 0.0 -8.756097305517e-04 
-7.629475729046e-04 6.967977887081e-04 0.0 
6.967977887081e-04 5.582110193462e-03 0.0 
0.0 0.0 -9.491391837787e-04 
-1.021932421091e-03 -1.375086625343e-04 0.0 
-1.375086625343e-04 6.258245616270e-03 0.0 
0.0 0.0 -9.494079867578e-04 
-6.355506189440e-04 -1.022411834394e-03 0.0 
-1.022411834394e-03 2.931807144820e-03 0.0 
0.0 0.0 -4.933620968966e-04 
6.896550266056e-05 1.225367383845e-03 0.0 
1.225367383845e-03 6.646895526308e-04 0.0 
0.0 0.0 -3.144235951249e-04 
-7.142483767440e-04 -1.644248298722e-04 0.0 
-1.644248298722e-04 5.495494976155e-03 0.0 
0.0 0.0 -9.415329344942e-04 
-5.361770105980e-04 1.152355576541e-03 0.0 
1.152355576541e-03 2.110820043480e-03 0.0 
0.0 0.0 -3.857152600925e-04 
0.0 0.0 0.0 
0.0 0.0 0.0 
0.0 0.0 0.0 
-1.255338616422e-03 1.860461172355e-04 0.0 
1.860461172355e-04 8.124850663151e-03 0.0 
0.0 0.0 -1.223389224544e-03 
-1.207848204117e-03 2.029693107177e-04 0.0 
2.029693107177e-04 7.752368092309e-03 0.0 
0.0 0.0 -1.157435638217e-03 
-8.808053059829e-05 -1.336699866714e-04 0.0 
-1.336699866714e-04 3.185750404010e-04 0.0 
0.0 0.0 -9.878336134402e-05 
-7.608266853486e-04 -5.406000089435e-04 0.0 
-5.406000089435e-04 5.776368912984e-03 0.0 
0.0 0.0 -9.758309632659e-04 
-5.833464932258e-04 -8.365325477788e-04 0.0 
-8.365325477788e-04 2.366888082298e-03 0.0 
0.0 0.0 -3.887237773309e-04 
-6.380037561636e-04 -4.574933655184e-04 0.0 
-4.574933655184e-04 2.507620922393e-03 0.0 
0.0 0.0 -4.195855280820e-04 
-1.094549564148e-03 6.711957006790e-04 0.0 
6.711957006790e-04 6.969957179569e-03 0.0 
0.0 0.0 -1.100737838324e-03 
-7.238835271569e-04 2.949238833770e-04 0.0 
2.949238833770e-04 5.642634368299e-03 0.0 
0.0 0.0 -9.467522836136e-04 
-1.039311302789e-03 6.802059572137e-04 0.0 
6.802059572137e-04 6.671189751840e-03 0.0 
0.0 0.0 -1.064854740548e-03 
-1.894001647684e-04 -8.697409082608e-04 0.0 
-8.697409082608e-04 2.974808611893e-03 0.0 
0.0 0.0 -6.238888496032e-04 
-8.115909482746e-04 3.390698231069e-05 0.0 
3.390698231069e-05 4.912143948728e-03 0.0 
0.0 0.0 -7.105917616147e-04 
-1.280305692054e-03 -3.247592506175e-04 0.0 
-3.247592506175e-04 7.975043847607e-03 0.0 
0.0 0.0 -1.281538364137e-03 
-5.868717402319e-04 -4.057488537009e-04 0.0 
-4.057488537009e-04 2.082970857728e-03 0.0 
0.0 0.0 -3.541816848729e-04 
-9.117200011925e-04 -1.598675323878e-04 0.0 
-1.598675323878e-04 6.764763677517e-03 0.0 
0.0 0.0 -1.121221582973e-03 
-5.590520355925e-04 3.309762878068e-04 0.0 
3.309762878068e-04 4.865889443216e-03 0.0 
0.0 0.0 -8.477100451819e-04 
-3.408380194667e-04 8.413428919704e-05 0.0 
8.413428919704e-05 1.600517951916e-03 0.0 
0.0 0.0 -2.892354545592e-04 
-1.075499676593e-03 6.132508001275e-04 0.0 
6.132508001275e-04 6.500844839128e-03 0.0 
0.0 0.0 -1.015166614560e-03 
-1.491725305372e-04 -7.955548992598e-05 0.0 
-7.955548992598e-05 3.115280814632e-03 0.0 
0.0 0.0 -6.628028861993e-04 
-1.315718485168e-04 -5.908276789213e-04 0.0 
-5.908276789213e-04 6.660589264853e-04 0.0 
0.0 0.0 -2.290658905579e-04 
-1.579860261374e-05 -4.063804822263e-04 0.0 
-4.063804822263e-04 2.360331977056e-03 0.0 
0.0 0.0 -5.632129589051e-04 
-1.187081976134e-03 1.736903763000e-04 0.0 
1.736903763000e-04 6.532498131095e-03 0.0 
0.0 0.0 -9.915417172310e-04 
-1.109173126604e-03 2.020871397918e-04 0.0 
2.020871397918e-04 6.702082758585e-03 0.0 
0.0 0.0 -1.020980360542e-03 
-4.812617878824e-04 -1.026396368797e-03 0.0 
-1.026396368797e-03 1.558368541222e-03 0.0 
0.0 0.0 -2.729600395538e-04 
-1.020281891755e-03 -1.851201749546e-04 0.0 
-1.851201749546e-04 5.386783464776e-03 0.0 
0.0 0.0 -8.076288038732e-04 
-1.089791995769e-03 6.678096790371e-04 0.0 
6.678096790371e-04 6.824575659747e-03 0.0 
0.0 0.0 -1.071782534217e-03 
-9.193547229402e-04 1.602334611530e-04 0.0 
1.602334611530e-04 6.776867929495e-03 0.0 
0.0 0.0 -1.109893377180e-03 
-5.608358153244e-04 -8.240965468318e-04 0.0 
-8.240965468318e-04 2.993251789866e-03 0.0 
0.0 0.0 -5.351738145117e-04 
-6.136579298705e-04 1.191680586993e-04 0.0 
1.191680586993e-04 2.664357051373e-03 0.0 
0.0 0.0 -4.333934152438e-04 
-5.989414354874e-04 6.742429676008e-04 0.0 
6.742429676008e-04 4.956197001293e-03 0.0 
0.0 0.0 -8.786267582723e-04 
-1.011039081455e-03 -2.136688597495e-04 0.0 
-2.136688597495e-04 6.164847278727e-03 0.0 
0.0 0.0 -9.278975173457e-04 
-2.430528072630e-05 -7.015609586409e-04 0.0 
-7.015609586409e-04 4.939718425864e-04 0.0 
0.0 0.0 -2.012856693686e-04 
-1.258632814515e-03 5.164131841311e-04 0.0 
5.164131841311e-04 8.325970250847e-03 0.0 
0.0 0.0 -1.269179263065e-03 
-1.319279019144e-03 4.296204971761e-04 0.0 
4.296204971761e-04 8.281943168671e-03 0.0 
0.0 0.0 -1.281197857596e-03 
-9.262453737932e-04 -1.856372937015e-04 0.0 
-1.856372937015e-04 5.467657039050e-03 0.0 
0.0 0.0 -8.387747867703e-04 
-1.294839307706e-03 7.871963389556e-06 0.0 
7.871963389556e-06 8.477109428305e-03 0.0 
0.0 0.0 -1.255037608383e-03 
-1.299621148244e-03 5.434080431767e-04 0.0 
5.434080431767e-04 8.249757004039e-03 0.0 
0.0 0.0 -1.285499913836e-03 
-2.377664936208e-04 -4.540001535470e-04 0.0 
-4.540001535470e-04 3.213325829595e-03 0.0 
0.0 0.0 -6.542748834104e-04 
-3.508305791302e-04 -1.119634461832e-03 0.0 
-1.119634461832e-03 3.128022697751e-03 0.0 
0.0 0.0 -6.153450468602e-04 
-1.170236808513e-03 2.917458807147e-05 0.0 
2.917458807147e-05 8.079333353292e-03 0.0 
0.0 0.0 -1.265535665854e-03 
0.0 0.0 0.0 
0.0 0.0 0.0 
0.0 0.0 0.0 
-5.539334103609e-04 1.733294296074e-04 0.0 
1.733294296074e-04 2.467698966066e-03 0.0 
0.0 0.0 -3.941707820484e-04 
-1.082833857300e-03 1.553689403231e-04 0.0 
1.553689403231e-04 5.370486721227e-03 0.0 
0.0 0.0 -8.329475646481e-04 
-6.135075657535e-04 -1.124689673499e-03 0.0 
-1.124689673499e-03 3.074168344220e-03 0.0 
0.0 0.0 -5.313546330462e-04 
-1.846585695015e-04 -7.875180783751e-04 0.0 
-7.875180783751e-04 2.568069228426e-03 0.0 
0.0 0.0 -5.546931404481e-04 
-5.968432958156e-04 5.557088425757e-04 0.0 
5.557088425757e-04 1.865682370622e-03 0.0 
0.0 0.0 -3.196518454468e-04 
-5.899426228830e-04 4.711635003752e-04 0.0 
4.711635003752e-04 2.207717411959e-03 0.0 
0.0 0.0 -3.528063275151e-04 
-9.460265979009e-04 -8.557345978762e-05 0.0 
-8.557345978762e-05 5.600872725538e-03 0.0 
0.0 0.0 -8.290026594306e-04 
-7.188891017228e-05 -7.212145557604e-04 0.0 
-7.212145557604e-04 2.661537409605e-03 0.0 
0.0 0.0 -5.962921515785e-04 
-6.690915239770e-04 -9.469087844434e-06 0.0 
-9.469087844434e-06 2.860475934858e-03 0.0 
0.0 0.0 -4.583473518421e-04 
-9.261983765854e-04 6.205491161324e-04 0.0 
6.205491161324e-04 6.527766796007e-03 0.0 
0.0 0.0 -1.077832113627e-03 
-1.322048612324e-03 -3.324926188937e-04 0.0 
-3.324926188937e-04 8.713395146875e-03 0.0 
0.0 0.0 -1.324978758543e-03 
-1.338720177887e-03 -4.085669882089e-04 0.0 
-4.085669882089e-04 8.670321911685e-03 0.0 
0.0 0.0 -1.320624918399e-03 
-3.849795069765e-04 -6.739500110508e-04 0.0 
-6.739500110508e-04 3.380834248484e-03 0.0 
0.0 0.0 -6.457427040837e-04 
-9.004898588244e-04 1.911488629734e-04 0.0 
1.911488629734e-04 5.018763151201e-03 0.0 
0.0 0.0 -7.877541558771e-04 
0.0 0.0 0.0 
0.0 0.0 0.0 
0.0 0.0 0.0 
-4.359472798887e-04 6.731301800727e-04 0.0 
6.731301800727e-04 1.407239997486e-03 0.0 
0.0 0.0 -3.106513839132e-04 
2.755733972267e-04 -1.401203893809e-03 0.0 
-1.401203893809e-03 4.875020493235e-04 0.0 
0.0 0.0 -3.270323342358e-04 
-5.716509711487e-04 6.241427470327e-04 0.0 
6.241427470327e-04 1.685665452150e-03 0.0 
0.0 0.0 -2.953478464511e-04 
-6.435501651802e-04 2.617971966709e-04 0.0 
2.617971966709e-04 5.324938194352e-03 0.0 
0.0 0.0 -9.116044729693e-04 
-3.892042169670e-04 -9.156083068677e-04 0.0 
-9.156083068677e-04 2.815259890772e-03 0.0 
0.0 0.0 -5.459662534218e-04 
-2.243152923797e-04 -1.093841073510e-03 0.0 
-1.093841073510e-03 2.791137140625e-03 0.0 
0.0 0.0 -5.879858557453e-04 
2.757241657395e-04 -4.810032012259e-04 0.0 
-4.810032012259e-04 1.809007699405e-05 0.0 
0.0 0.0 -1.259203897429e-04 
-1.236651515782e-03 5.783317831820e-05 0.0 
5.783317831820e-05 7.720546241133e-03 0.0 
0.0 0.0 -1.176327079312e-03 
-4.101458141136e-04 -1.240391896891e-03 0.0 
-1.240391896891e-03 2.995120791313e-03 0.0 
0.0 0.0 -5.792774345575e-04 
-1.250725797448e-03 2.916941522596e-04 0.0 
2.916941522596e-04 8.087181627586e-03 0.0 
0.0 0.0 -1.212957849656e-03 
-1.169197980018e-03 -1.036807665068e-04 0.0 
-1.036807665068e-04 7.436974066249e-03 0.0 
0.0 0.0 -1.117460450001e-03 
-1.345176874521e-03 9.425392127595e-05 0.0 
9.425392127595e-05 9.101263988686e-03 0.0 
0.0 0.0 -1.319418651152e-03 
-1.362446196829e-03 -6.566602865703e-05 0.0 
-6.566602865703e-05 8.851718670119e-03 0.0 
0.0 0.0 -1.324849633189e-03 
-9.396876737499e-04 1.580696553299e-04 0.0 
1.580696553299e-04 5.609093298548e-03 0.0 
0.0 0.0 -8.315138651140e-04 
-5.177493296675e-04 -1.164892507562e-03 0.0 
-1.164892507562e-03 3.321630420665e-03 0.0 
0.0 0.0 -6.063493599945e-04 
-5.551169256274e-04 5.845973941815e-04 0.0 
5.845973941815e-04 2.336169535734e-03 0.0 
0.0 0.0 -3.884917441798e-04 
-5.432002518243e-04 -7.156839301842e-04 0.0 
-7.156839301842e-04 3.555258553905e-03 0.0 
0.0 0.0 -6.367902913543e-04 
-1.343328350294e-03 -3.038078432126e-04 0.0 
-3.038078432126e-04 8.521823212692e-03 0.0 
0.0 0.0 -1.343328350294e-03 
-1.737665181201e-04 6.795203959292e-04 0.0 
6.795203959292e-04 8.236163112488e-04 0.0 
0.0 0.0 -2.785070541980e-04 
-2.927518060600e-04 7.425303816206e-04 0.0 
7.425303816206e-04 1.136932491594e-03 0.0 
0.0 0.0 -3.329621070679e-04 
-9.737974110450e-04 -6.386389399084e-05 0.0 
-6.386389399084e-05 7.060307194164e-03 0.0 
0.0 0.0 -1.156027955174e-03 
-8.805235058694e-04 6.847913926848e-05 0.0 
6.847913926848e-05 5.301659598337e-03 0.0 
0.0 0.0 -7.715229432315e-04 
-1.258879221168e-03 2.678324544629e-04 0.0 
2.678324544629e-04 8.150871359494e-03 0.0 
0.0 0.0 -1.219279742240e-03 
-1.080906081071e-03 2.827660258438e-04 0.0 
2.827660258438e-04 6.867060617251e-03 0.0 
0.0 0.0 -1.069611963270e-03 
-1.039924564934e-03 5.350617449269e-04 0.0 
5.350617449269e-04 7.190727662860e-03 0.0 
0.0 0.0 -1.175036385391e-03 
-1.173553033698e-03 2.219944962555e-04 0.0 
2.219944962555e-04 7.297927893888e-03 0.0 
0.0 0.0 -1.113576918908e-03 
-9.402009665324e-04 2.044311077690e-04 0.0 
2.044311077690e-04 5.536177417769e-03 0.0 
0.0 0.0 -8.542750875040e-04 
-5.858259911149e-04 -1.171742995146e-03 0.0 
-1.171742995146e-03 2.676462786012e-03 0.0 
0.0 0.0 -4.674384380614e-04 
-5.422750806607e-04 -8.975033256362e-04 0.0 
-8.975033256362e-04 2.600446559473e-03 0.0 
0.0 0.0 -4.715697005044e-04 
-1.061085808578e-03 2.019693127978e-04 0.0 
2.019693127978e-04 6.591258911724e-03 0.0 
0.0 0.0 -9.963059934037e-04 
-9.926320276344e-04 1.396335034036e-04 0.0 
1.396335034036e-04 7.047433757094e-03 0.0 
0.0 0.0 -1.142506377625e-03 
-8.640826483478e-04 1.602683523403e-04 0.0 
1.602683523403e-04 4.592644147598e-03 0.0 
0.0 0.0 -7.345222264051e-04 
-8.659076808803e-04 1.600457319012e-05 0.0 
1.600457319012e-05 5.296211653200e-03 0.0 
0.0 0.0 -7.676068998053e-04 
-9.151607957151e-04 -5.089667725815e-05 0.0 
-5.089667725815e-05 5.629549572959e-03 0.0 
0.0 0.0 -8.242303029217e-04 
-9.674728246486e-04 -2.123760912739e-04 0.0 
-2.123760912739e-04 5.717004610309e-03 0.0 
0.0 0.0 -8.467401457521e-04 
3.499479768906e-04 -3.973954247046e-04 0.0 
-3.973954247046e-04 -4.658979670494e-05 0.0 
0.0 0.0 -1.300106486510e-04 
-5.930015542773e-04 -7.839114719970e-04 0.0 
-7.839114719970e-04 2.465147057737e-03 0.0 
0.0 0.0 -4.335179088089e-04 
-1.317738620986e-03 2.278366908206e-04 0.0 
2.278366908206e-04 8.695066743648e-03 0.0 
0.0 0.0 -1.269310366786e-03 
-1.008653577782e-03 -1.784318379198e-04 0.0 
-1.784318379198e-04 6.114212471042e-03 0.0 
0.0 0.0 -9.150577043801e-04 
-1.235075525051e-03 3.722470533434e-04 0.0 
3.722470533434e-04 8.051470811527e-03 0.0 
0.0 0.0 -1.295322057178e-03 
-1.262105533747e-03 2.927877395666e-04 0.0 
2.927877395666e-04 8.092325804024e-03 0.0 
0.0 0.0 -1.215577547940e-03 
-1.074267791218e-03 2.611694470269e-04 0.0 
2.611694470269e-04 6.569995446378e-03 0.0 
0.0 0.0 -1.012565562176e-03 
-1.287214307820e-03 9.354055678567e-05 0.0 
9.354055678567e-05 8.149418825250e-03 0.0 
0.0 0.0 -1.214907066889e-03 
-8.465721316982e-04 -1.105505135888e-04 0.0 
-1.105505135888e-04 3.950044235392e-03 0.0 
0.0 0.0 -6.304496659280e-04 
-8.228220456719e-04 -1.151102242294e-04 0.0 
-1.151102242294e-04 3.762441621980e-03 0.0 
0.0 0.0 -5.666856080635e-04 
-1.213791714024e-03 -1.499272758312e-04 0.0 
-1.499272758312e-04 7.648587280659e-03 0.0 
0.0 0.0 -1.226851238141e-03 
0.0 0.0 0.0 
0.0 0.0 0.0 
0.0 0.0 0.0 
-5.508530862849e-04 -1.035100482519e-04 0.0 
-1.035100482519e-04 2.701800587875e-03 0.0 
0.0 0.0 -4.071640756073e-04 
-1.342405754833e-03 4.276126013738e-04 0.0 
4.276126013738e-04 8.356626582993e-03 0.0 
0.0 0.0 -1.342405754833e-03 
-2.369285988354e-04 -1.770299306038e-04 0.0 
-1.770299306038e-04 1.161644229230e-03 0.0 
0.0 0.0 -2.265802816212e-04 
-8.772316900263e-04 3.022985570029e-05 0.0 
3.022985570029e-05 5.030285682320e-03 0.0 
0.0 0.0 -7.870118106326e-04 
-1.087488399424e-03 -9.544139039346e-05 0.0 
-9.544139039346e-05 7.678102904648e-03 0.0 
0.0 0.0 -1.213461936786e-03 
-2.217204533164e-04 -1.125363679953e-04 0.0 
-1.125363679953e-04 8.293133150009e-04 0.0 
0.0 0.0 -1.562362318669e-04 
1.575931452750e-04 -1.091415967636e-04 0.0 
-1.091415967636e-04 4.514811203493e-04 0.0 
0.0 0.0 -1.320567747312e-04 
-1.342371808075e-03 1.025686952786e-04 0.0 
1.025686952786e-04 9.039344740884e-03 0.0 
0.0 0.0 -1.324389858384e-03 
-8.327656305072e-04 1.141712868856e-04 0.0 
1.141712868856e-04 4.641243707897e-03 0.0 
0.0 0.0 -7.294542769151e-04 
-1.288909957265e-03 4.016661537540e-04 0.0 
4.016661537540e-04 8.513544320093e-03 0.0 
0.0 0.0 -1.261418349269e-03 
-1.134288891980e-03 5.741233190870e-05 0.0 
5.741233190870e-05 7.407101021319e-03 0.0 
0.0 0.0 -1.231858344535e-03 
-8.347679035328e-04 -3.570531223968e-05 0.0 
-3.570531223968e-05 4.629434413509e-03 0.0 
0.0 0.0 -7.289279708929e-04 
0.0 0.0 0.0 
0.0 0.0 0.0 
0.0 0.0 0.0 
-1.305379233758e-03 -6.071779487898e-05 0.0 
-6.071779487898e-05 8.461113597457e-03 0.0 
0.0 0.0 -1.284140717546e-03 
-3.100289480378e-04 -3.270232557407e-04 0.0 
-3.270232557407e-04 1.355870936008e-03 0.0 
0.0 0.0 -2.433545560381e-04 
-1.282233343865e-03 2.781824875359e-04 0.0 
2.781824875359e-04 8.180219452641e-03 0.0 
0.0 0.0 -1.232184317627e-03 
-1.343095105526e-03 -2.432827260553e-04 0.0 
-2.432827260553e-04 8.545412507579e-03 0.0 
0.0 0.0 -1.343095105526e-03 
-1.292199045367e-03 2.524866178233e-04 0.0 
2.524866178233e-04 8.014541847179e-03 0.0 
0.0 0.0 -1.225700354592e-03 
4.686342162084e-04 -7.265370554805e-04 0.0 
-7.265370554805e-04 5.162950173461e-06 0.0 
0.0 0.0 -2.030559284494e-04 
-9.540260339352e-04 1.631930893359e-04 0.0 
1.631930893359e-04 5.653552826698e-03 0.0 
0.0 0.0 -8.279144014868e-04 
-8.950557039055e-04 -2.748800359507e-04 0.0 
-2.748800359507e-04 4.199615522516e-03 0.0 
0.0 0.0 -6.271989868224e-04 
-8.983235361331e-04 1.933150702715e-04 0.0 
1.933150702715e-04 6.546966492063e-03 0.0 
0.0 0.0 -1.077599360682e-03 
-1.273669225217e-03 1.720409005563e-04 0.0 
1.720409005563e-04 8.518730660981e-03 0.0 
0.0 0.0 -1.326997735404e-03 
-1.142899871982e-03 1.477724546960e-04 0.0 
1.477724546960e-04 7.166026161736e-03 0.0 
0.0 0.0 -1.061614915164e-03 
-1.285004601792e-03 2.929428446180e-04 0.0 
2.929428446180e-04 8.490810498827e-03 0.0 
0.0 0.0 -1.325870641008e-03 
0.0 0.0 0.0 
0.0 0.0 0.0 
0.0 0.0 0.0 
-1.297780734717e-03 -4.166830862430e-04 0.0 
-4.166830862430e-04 8.366714279713e-03 0.0 
0.0 0.0 -1.277656510522e-03 
2.368160629241e-04 -1.409681499125e-03 0.0 
-1.409681499125e-03 7.013780298968e-04 0.0 
0.0 0.0 -3.431348957073e-04 
-2.589194545670e-04 3.821483992917e-05 0.0 
3.821483992917e-05 1.124631262589e-03 0.0 
0.0 0.0 -2.298118214877e-04 
-1.194197405020e-03 -2.475227437211e-04 0.0 
-2.475227437211e-04 8.105636908586e-03 0.0 
0.0 0.0 -1.270335377537e-03 
-1.315524425911e-03 2.690035540339e-04 0.0 
2.690035540339e-04 8.643806800304e-03 0.0 
0.0 0.0 -1.270603359501e-03 
-1.320702306464e-03 4.960564232440e-05 0.0 
4.960564232440e-05 8.625092567998e-03 0.0 
0.0 0.0 -1.289850838753e-03 
-8.753308640926e-04 2.257063470840e-04 0.0 
2.257063470840e-04 5.095730312348e-03 0.0 
0.0 0.0 -7.762633204682e-04 
-9.835570351374e-04 3.967893708127e-04 0.0 
3.967893708127e-04 5.483942639045e-03 0.0 
0.0 0.0 -8.489529362435e-04 
-3.868195665134e-04 1.249245404028e-03 0.0 
1.249245404028e-03 1.493087960549e-03 0.0 
0.0 0.0 -3.390228113434e-04 
-1.290611125717e-03 4.069284773612e-04 0.0 
4.069284773612e-04 8.488337706707e-03 0.0 
0.0 0.0 -1.273041473476e-03 
-7.431920671866e-04 3.360733235591e-05 0.0 
3.360733235591e-05 3.408921231342e-03 0.0 
0.0 0.0 -5.357483711987e-04 
2.011032744506e-04 7.720499985605e-04 0.0 
7.720499985605e-04 2.146802318038e-04 0.0 
0.0 0.0 -1.781929312519e-04 
-9.370458151346e-04 5.508245939114e-04 0.0 
5.508245939114e-04 6.747683680752e-03 0.0 
0.0 0.0 -1.110141529071e-03 
-8.032989009541e-04 -1.045980115988e-05 0.0 
-1.045980115988e-05 4.870464455063e-03 0.0 
0.0 0.0 -7.096328662732e-04 
-1.279256756890e-03 4.600607687250e-04 0.0 
4.600607687250e-04 8.175326591168e-03 0.0 
0.0 0.0 -1.237729719596e-03 
-1.329072194852e-03 -1.834247142824e-04 0.0 
-1.834247142824e-04 8.977472730193e-03 0.0 
0.0 0.0 -1.321509982054e-03 
-1.343732204276e-03 7.562212797618e-06 0.0 
7.562212797618e-06 8.849786333364e-03 0.0 
0.0 0.0 -1.343732204276e-03 
6.465688167897e-04 1.663781779480e-05 0.0 
1.663781779480e-05 -3.978289505741e-05 0.0 
0.0 0.0 -8.420285294201e-05 
3.868700612373e-04 3.921670605925e-05 0.0 
3.921670605925e-05 -6.204561696291e-05 0.0 
0.0 0.0 -1.378576441850e-04 
-8.247124983758e-04 -1.687178518224e-04 0.0 
-1.687178518224e-04 4.737962601015e-03 0.0 
0.0 0.0 -7.318233512793e-04 
-8.319071836255e-04 2.758419797137e-05 0.0 
2.758419797137e-05 4.882188569804e-03 0.0 
0.0 0.0 -7.096011290571e-04 
-1.343732204276e-03 -2.755821224564e-05 0.0 
-2.755821224564e-05 8.606219025581e-03 0.0 
0.0 0.0 -1.343732204276e-03 
-1.349068194299e-03 1.748780922349e-04 0.0 
1.748780922349e-04 8.742452044457e-03 0.0 
0.0 0.0 -1.321509982054e-03 
2.267983165528e-04 1.503551410355e-04 0.0 
1.503551410355e-04 3.801820683437e-04 0.0 
0.0 0.0 -1.379425883790e-04 
0.0 0.0 0.0 
0.0 0.0 0.0 
0.0 0.0 0.0 
-1.304839210467e-03 -7.091443056662e-05 0.0 
-7.091443056662e-05 7.889011230752e-03 0.0 
0.0 0.0 -1.230181737024e-03 
-1.133789878205e-03 6.963372694564e-04 0.0 
6.963372694564e-04 7.661762773916e-03 0.0 
0.0 0.0 -1.209364118140e-03 
-3.105423637276e-04 -2.525564358258e-04 0.0 
-2.525564358258e-04 1.694140784916e-03 0.0 
0.0 0.0 -2.712674790923e-04 
-1.264304018708e-03 -4.229761773583e-04 0.0 
-4.229761773583e-04 7.912894217144e-03 0.0 
0.0 0.0 -1.240191881334e-03 
-1.104648569634e-03 -8.128511201330e-05 0.0 
-8.128511201330e-05 5.687324916732e-03 0.0 
0.0 0.0 -8.888375990210e-04 
-1.026907705388e-03 -2.214158958103e-04 0.0 
-2.214158958103e-04 5.060294452777e-03 0.0 
0.0 0.0 -7.610796297342e-04 
-1.050200639505e-03 1.276309243533e-04 0.0 
1.276309243533e-04 6.471471583772e-03 0.0 
0.0 0.0 -9.400782610458e-04 
-2.965318753647e-05 -1.331164902240e-03 0.0 
-1.331164902240e-03 9.056852696167e-04 0.0 
0.0 0.0 -3.754423208915e-04 
-8.088866268099e-04 2.301224893319e-04 0.0 
2.301224893319e-04 6.098327421906e-03 0.0 
0.0 0.0 -1.011657465016e-03 
-2.272445053013e-04 -9.535102935049e-05 0.0 
-9.535102935049e-05 1.388764162386e-03 0.0 
0.0 0.0 -2.181484037039e-04 
-9.136007493904e-04 -3.789003197154e-04 0.0 
-3.789003197154e-04 4.494388172482e-03 0.0 
0.0 0.0 -6.997415131527e-04 
-1.249092671204e-03 5.668738205519e-04 0.0 
5.668738205519e-04 7.979681115669e-03 0.0 
0.0 0.0 -1.240519096027e-03 
-1.238391952882e-03 -2.103174549131e-04 0.0 
-2.103174549131e-04 8.038627661496e-03 0.0 
0.0 0.0 -1.191726112421e-03 
-9.811853638777e-04 4.571159586099e-05 0.0 
4.571159586099e-05 4.872542694396e-03 0.0 
0.0 0.0 -7.690942022927e-04 
-9.767560317632e-04 -1.705867274286e-04 0.0 
-1.705867274286e-04 5.944945665690e-03 0.0 
0.0 0.0 -8.745659502648e-04 
-1.201104368766e-03 5.803220864547e-04 0.0 
5.803220864547e-04 7.939240582663e-03 0.0 
0.0 0.0 -1.217119345310e-03 
-1.179845702415e-03 2.452002266232e-04 0.0 
2.452002266232e-04 7.438662012216e-03 0.0 
0.0 0.0 -1.140944809982e-03 
-1.127959464392e-03 2.474309966313e-04 0.0 
2.474309966313e-04 7.001139959042e-03 0.0 
0.0 0.0 -1.076426999079e-03 
-8.393109454079e-04 2.446878724435e-05 0.0 
2.446878724435e-05 4.620539471492e-03 0.0 
0.0 0.0 -7.312123441678e-04 
-7.325714353874e-04 1.943037271298e-04 0.0 
1.943037271298e-04 5.805049329063e-03 0.0 
0.0 0.0 -9.763781674015e-04 
-1.278424948200e-03 4.732838707970e-04 0.0 
4.732838707970e-04 8.049805466019e-03 0.0 
0.0 0.0 -1.231404929774e-03 
-6.063671140810e-04 1.348850002822e-06 0.0 
1.348850002822e-06 2.558361798436e-03 0.0 
0.0 0.0 -4.167967844002e-04 
-7.171547725390e-05 -2.177777186911e-04 0.0 
-2.177777186911e-04 5.764019490181e-04 0.0 
0.0 0.0 -1.015157820784e-04 
-1.170824655935e-03 3.363594053323e-04 0.0 
3.363594053323e-04 7.539332247117e-03 0.0 
0.0 0.0 -1.185975225609e-03 
-9.133715629689e-04 2.312110862865e-04 0.0 
2.312110862865e-04 6.719277881344e-03 0.0 
0.0 0.0 -1.123538223191e-03 
1.132049243546e-04 -1.050372997865e-03 0.0 
-1.050372997865e-03 4.871548077874e-04 0.0 
0.0 0.0 -2.572970280609e-04 
-1.081558890546e-03 -1.399243451463e-04 0.0 
-1.399243451463e-04 6.772240372319e-03 0.0 
0.0 0.0 -9.893338170986e-04 
-1.329126769976e-03 -2.338155039388e-04 0.0 
-2.338155039388e-04 8.188960966632e-03 0.0 
0.0 0.0 -1.282739585886e-03 
-1.129882241773e-03 5.744296922873e-04 0.0 
5.744296922873e-04 7.355375345581e-03 0.0 
0.0 0.0 -1.182073443778e-03 
-1.178192896547e-03 4.553534655183e-04 0.0 
4.553534655183e-04 7.891430484162e-03 0.0 
0.0 0.0 -1.215129606110e-03 
-1.157436434489e-03 -2.420799146488e-04 0.0 
-2.420799146488e-04 6.201441230335e-03 0.0 
0.0 0.0 -9.537126495859e-04 
0.0 0.0 0.0 
0.0 0.0 0.0 
0.0 0.0 0.0 
-5.231800249051e-04 6.591753538455e-04 0.0 
6.591753538455e-04 1.847843507099e-03 0.0 
0.0 0.0 -3.212443691966e-04 
-5.564787132596e-04 8.940027195274e-04 0.0 
8.940027195274e-04 2.137708509351e-03 0.0 
0.0 0.0 -3.834349432650e-04 
-9.473774776597e-04 1.764703939582e-04 0.0 
1.764703939582e-04 5.384019631323e-03 0.0 
0.0 0.0 -8.471429939415e-04 
-7.614839710960e-04 6.584444641784e-04 0.0 
6.584444641784e-04 5.752238999582e-03 0.0 
0.0 0.0 -9.781602908260e-04 
-1.285624241878e-03 -4.326792981855e-05 0.0 
-4.326792981855e-05 8.288168648148e-03 0.0 
0.0 0.0 -1.236541257690e-03 
-1.217308294029e-03 1.640866066604e-04 0.0 
1.640866066604e-04 7.793774931469e-03 0.0 
0.0 0.0 -1.282325209426e-03 
-8.954075940437e-05 -8.680076304404e-04 0.0 
-8.680076304404e-04 7.337139848585e-04 0.0 
0.0 0.0 -2.760742394804e-04 
-3.009716750380e-04 -4.715458723185e-04 0.0 
-4.715458723185e-04 9.308600569539e-04 0.0 
0.0 0.0 -1.704796444516e-04 
-4.318023328758e-04 9.056222759074e-04 0.0 
9.056222759074e-04 1.421929475039e-03 0.0 
0.0 0.0 -2.747970858071e-04 
-1.085049996288e-03 3.161557202625e-04 0.0 
3.161557202625e-04 6.749947888276e-03 0.0 
0.0 0.0 -1.019242131223e-03 
-7.105673598930e-04 -3.560858813606e-04 0.0 
-3.560858813606e-04 3.243394900527e-03 0.0 
0.0 0.0 -4.953283059016e-04 
-1.294058250345e-03 1.194991635526e-04 0.0 
1.194991635526e-04 8.278027413572e-03 0.0 
0.0 0.0 -1.241298427557e-03 
-2.801916649698e-04 -2.169380665087e-04 0.0 
-2.169380665087e-04 1.598671665654e-03 0.0 
0.0 0.0 -2.623907620756e-04 
-1.097220766083e-03 2.014729423047e-04 0.0 
2.014729423047e-04 7.397517373048e-03 0.0 
0.0 0.0 -1.221152601860e-03 
-9.286181991470e-04 2.455314232276e-04 0.0 
2.455314232276e-04 5.488935049062e-03 0.0 
0.0 0.0 -8.343732341398e-04 
-1.223283272536e-03 3.593359299497e-04 0.0 
3.593359299497e-04 7.932879470025e-03 0.0 
0.0 0.0 -1.286815605725e-03 
-9.712654839318e-04 1.866157351704e-04 0.0 
1.866157351704e-04 6.891208363551e-03 0.0 
0.0 0.0 -1.111121968474e-03 
-9.581999826764e-04 8.182036761545e-05 0.0 
8.182036761545e-05 5.388937206970e-03 0.0 
0.0 0.0 -8.465141837044e-04 
-1.209961591988e-03 -2.976225161964e-04 0.0 
-2.976225161964e-04 8.170684166123e-03 0.0 
0.0 0.0 -1.269142588751e-03 
-1.323046623582e-03 3.793136222843e-04 0.0 
3.793136222843e-04 8.658663539059e-03 0.0 
0.0 0.0 -1.272727265576e-03 
-1.289749640490e-03 9.124365830308e-05 0.0 
9.124365830308e-05 8.709454540694e-03 0.0 
0.0 0.0 -1.271339345674e-03 
-1.626085801218e-04 8.571684415748e-04 0.0 
8.571684415748e-04 8.875192706734e-04 0.0 
0.0 0.0 -3.044868356389e-04 
-1.267095409920e-03 4.070899744542e-04 0.0 
4.070899744542e-04 8.089876134210e-03 0.0 
0.0 0.0 -1.218309553141e-03 
-1.282164121305e-03 5.174305312528e-04 0.0 
5.174305312528e-04 8.083053308233e-03 0.0 
0.0 0.0 -1.286645293131e-03 
-1.059215435768e-03 -2.009543418023e-05 0.0 
-2.009543418023e-05 7.573607372665e-03 0.0 
0.0 0.0 -1.211735819529e-03 
-9.987418032593e-04 6.142229130813e-04 0.0 
6.142229130813e-04 6.982246170552e-03 0.0 
0.0 0.0 -1.143254064081e-03 
-1.342665167303e-03 -2.857461739196e-04 0.0 
-2.857461739196e-04 8.440143907241e-03 0.0 
0.0 0.0 -1.342665167303e-03 
-1.126760089934e-03 6.437426727216e-04 0.0 
6.437426727216e-04 6.937086787485e-03 0.0 
0.0 0.0 -1.079065255302e-03 
0.0 0.0 0.0 
0.0 0.0 0.0 
0.0 0.0 0.0 
6.191816026708e-05 1.291205818517e-03 0.0 
1.291205818517e-03 7.179353342320e-04 0.0 
0.0 0.0 -3.342229262139e-04 
-1.235056862706e-03 2.777301788060e-04 0.0 
2.777301788060e-04 7.736779237008e-03 0.0 
0.0 0.0 -1.176936364471e-03 
-9.923017078165e-04 3.078956919309e-04 0.0 
3.078956919309e-04 5.849121224287e-03 0.0 
0.0 0.0 -8.884613587993e-04 
-1.298948170332e-03 -3.124306146209e-04 0.0 
-3.124306146209e-04 7.977511740223e-03 0.0 
0.0 0.0 -1.221994126432e-03 
-1.061095181676e-03 1.799058826279e-04 0.0 
1.799058826279e-04 7.334426391334e-03 0.0 
0.0 0.0 -1.177009544428e-03 
-1.289141827740e-03 -3.383964038360e-04 0.0 
-3.383964038360e-04 8.125835853115e-03 0.0 
0.0 0.0 -1.292249833993e-03 
-1.132172011691e-03 2.813138638496e-04 0.0 
2.813138638496e-04 7.272270790879e-03 0.0 
0.0 0.0 -1.085521458831e-03 
-1.247617681667e-03 2.986308671608e-04 0.0 
2.986308671608e-04 7.907076372021e-03 0.0 
0.0 0.0 -1.288973456333e-03 
-1.183175849056e-03 -4.290305750124e-04 0.0 
-4.290305750124e-04 7.735436170610e-03 0.0 
0.0 0.0 -1.233322439334e-03 
-1.175389870133e-03 -8.154118169286e-05 0.0 
-8.154118169286e-05 7.695545006504e-03 0.0 
0.0 0.0 -1.235043566395e-03 
-7.287005066558e-04 -2.363504694994e-04 0.0 
-2.363504694994e-04 3.412626924282e-03 0.0 
0.0 0.0 -5.104964012366e-04 
-1.311532395302e-03 -3.318821641935e-04 0.0 
-3.318821641935e-04 8.754426494470e-03 0.0 
0.0 0.0 -1.325641941534e-03 
-8.790480836699e-04 9.973280973964e-05 0.0 
9.973280973964e-05 5.256747279211e-03 0.0 
0.0 0.0 -7.662153309039e-04 
-1.249481013832e-03 -1.180321759362e-04 0.0 
-1.180321759362e-04 8.200814515591e-03 0.0 
0.0 0.0 -1.217406395242e-03 
-1.652940304057e-04 -5.197313760388e-04 0.0 
-5.197313760388e-04 7.163944105236e-04 0.0 
0.0 0.0 -2.361858771934e-04 
-1.199456095747e-03 -9.281141696113e-05 0.0 
-9.281141696113e-05 7.932283218576e-03 0.0 
0.0 0.0 -1.163202487293e-03 
-1.073812189916e-03 1.019150907596e-06 0.0 
1.019150907596e-06 6.842466406292e-03 0.0 
0.0 0.0 -9.926133712568e-04 
-8.677292434787e-05 -7.776541442063e-05 0.0 
-7.776541442063e-05 9.098025117225e-04 0.0 
0.0 0.0 -1.628620303624e-04 
5.265410319422e-04 -6.941530982861e-04 0.0 
-6.941530982861e-04 -3.231659341297e-05 0.0 
0.0 0.0 -2.118104736554e-04 
-1.137863848184e-03 6.727746037847e-04 0.0 
6.727746037847e-04 7.103743294949e-03 0.0 
0.0 0.0 -1.107581195644e-03 
-1.316054950297e-03 1.463718814179e-04 0.0 
1.463718814179e-04 8.450854861123e-03 0.0 
0.0 0.0 -1.285368862661e-03 
-1.275071184009e-03 -1.337709164893e-04 0.0 
-1.337709164893e-04 8.307471815085e-03 0.0 
0.0 0.0 -1.223917301752e-03 
-1.160153297854e-03 5.261040585439e-04 0.0 
5.261040585439e-04 7.939180437513e-03 0.0 
0.0 0.0 -1.264779455601e-03 
-9.786681000752e-04 2.797069543092e-04 0.0 
2.797069543092e-04 5.828399650514e-03 0.0 
0.0 0.0 -8.807565902733e-04 
6.088519586403e-05 -4.917250620978e-05 0.0 
-4.917250620978e-05 4.869793999348e-04 0.0 
0.0 0.0 -1.094929743475e-04 
6.111566355022e-05 5.640636810902e-05 0.0 
5.640636810902e-05 -1.157323767526e-05 0.0 
0.0 0.0 -2.123246823213e-05 
-1.420251948107e-04 8.764175524857e-05 0.0 
8.764175524857e-05 4.773240057954e-04 0.0 
0.0 0.0 -1.256389127973e-04 
-3.632499277279e-04 -7.837444408696e-04 0.0 
-7.837444408696e-04 1.194209396961e-03 0.0 
0.0 0.0 -2.225718436208e-04 
0.0 0.0 0.0 
0.0 0.0 0.0 
0.0 0.0 0.0 
-8.980038842560e-04 -6.868916122841e-05 0.0 
-6.868916122841e-05 4.504377363934e-03 0.0 
0.0 0.0 -6.753304527203e-04 
-1.294165048711e-03 6.161991819009e-05 0.0 
6.161991819009e-05 7.969168976077e-03 0.0 
0.0 0.0 -1.222305993939e-03 
-1.264474650052e-03 5.734696938906e-04 0.0 
5.734696938906e-04 8.077312517039e-03 0.0 
0.0 0.0 -1.222833113937e-03 
-1.006464770387e-03 3.394189907579e-05 0.0 
3.394189907579e-05 5.834781281692e-03 0.0 
0.0 0.0 -8.826313165011e-04 
-8.266334947460e-04 -5.354606523691e-04 0.0 
-5.354606523691e-04 3.869366937566e-03 0.0 
0.0 0.0 -5.988529843847e-04 
-1.198642937147e-03 -4.684662880526e-04 0.0 
-4.684662880526e-04 7.783754842457e-03 0.0 
0.0 0.0 -1.221067908166e-03 
-1.068035990990e-03 1.115403335333e-04 0.0 
1.115403335333e-04 7.531635864011e-03 0.0 
0.0 0.0 -1.208702654310e-03 
-1.208049507468e-03 4.869249044164e-04 0.0 
4.869249044164e-04 8.191633662499e-03 0.0 
0.0 0.0 -1.272252409145e-03 
-1.227816291176e-03 4.361504529360e-04 0.0 
4.361504529360e-04 7.755209047765e-03 0.0 
0.0 0.0 -1.237422270938e-03 
-1.191139084829e-03 6.619264216726e-04 0.0 
6.619264216726e-04 7.533865048847e-03 0.0 
0.0 0.0 -1.171232062679e-03 
-1.920899935495e-04 -3.005289282689e-04 0.0 
-3.005289282689e-04 6.978999469600e-04 0.0 
0.0 0.0 -2.167756943188e-04 
0.0 0.0 0.0 
0.0 0.0 0.0 
0.0 0.0 0.0 
-1.308655472056e-03 -3.526594848147e-04 0.0 
-3.526594848147e-04 8.026041467974e-03 0.0 
0.0 0.0 -1.223662873675e-03 
-1.521155326843e-04 1.616990335056e-05 0.0 
1.616990335056e-05 7.009749630609e-04 0.0 
0.0 0.0 -1.761523314621e-04 
-1.768246005743e-04 2.416090922495e-04 0.0 
2.416090922495e-04 1.018026141244e-03 0.0 
0.0 0.0 -1.933333333332e-04 
1.266269026244e-04 4.459901967828e-04 0.0 
4.459901967828e-04 1.149333659383e-04 0.0 
0.0 0.0 -1.035258293840e-04 
-1.677849962930e-04 -2.830770546558e-04 0.0 
-2.830770546558e-04 8.015651116380e-04 0.0 
0.0 0.0 -1.580296812506e-04 
-1.271854076500e-03 -2.557043152436e-04 0.0 
-2.557043152436e-04 7.945254530657e-03 0.0 
0.0 0.0 -1.288571152055e-03 
-1.306788030849e-03 4.109202426763e-04 0.0 
4.109202426763e-04 8.216249132470e-03 0.0 
0.0 0.0 -1.290113636706e-03 
-1.294468783320e-03 3.035835675296e-04 0.0 
3.035835675296e-04 8.293038568859e-03 0.0 
0.0 0.0 -1.236907757659e-03 
-1.272697522653e-03 4.000546130428e-04 0.0 
4.000546130428e-04 7.992915461605e-03 0.0 
0.0 0.0 -1.292605224168e-03 
-1.039048517881e-03 -2.511628389219e-04 0.0 
-2.511628389219e-04 7.217306455236e-03 0.0 
0.0 0.0 -1.176879138244e-03 
-9.963056410622e-04 2.982297539881e-04 0.0 
2.982297539881e-04 6.108837095234e-03 0.0 
0.0 0.0 -9.170130443517e-04 
-1.345069444888e-03 2.094806773474e-04 0.0 
2.094806773474e-04 8.819921791921e-03 0.0 
0.0 0.0 -1.345069444888e-03 
1.552293122710e-04 -1.587596842018e-03 0.0 
-1.587596842018e-03 7.594496357434e-04 0.0 
0.0 0.0 -3.920052634347e-04 
-7.958568066072e-04 2.655126968941e-05 0.0 
2.655126968941e-05 4.862635053177e-03 0.0 
0.0 0.0 -7.083073883397e-04 
-3.709027017310e-05 -1.154290083415e-03 0.0 
-1.154290083415e-03 8.071251517729e-04 0.0 
0.0 0.0 -3.300149492570e-04 
-8.078687300304e-05 2.766710122456e-05 0.0 
2.766710122456e-05 2.705585081320e-04 0.0 
0.0 0.0 -8.133070076957e-05 
-1.328088305276e-03 -2.091716352919e-04 0.0 
-2.091716352919e-04 8.801339781229e-03 0.0 
0.0 0.0 -1.323850096553e-03 
-9.077000763770e-04 9.794404475146e-05 0.0 
9.794404475146e-05 5.306610706151e-03 0.0 
0.0 0.0 -7.731261162940e-04 
-1.693805322071e-04 -2.625883935893e-05 0.0 
-2.625883935893e-05 1.305243597625e-03 0.0 
0.0 0.0 -2.115341463249e-04 
-9.189085389785e-04 8.964891235688e-05 0.0 
8.964891235688e-05 4.273021875062e-03 0.0 
0.0 0.0 -6.570498647039e-04 
-1.286146232063e-03 5.231039738263e-04 0.0 
5.231039738263e-04 8.474365430469e-03 0.0 
0.0 0.0 -1.276804206569e-03 
-1.288400651325e-03 -4.306470642737e-06 0.0 
-4.306470642737e-06 8.274343384212e-03 0.0 
0.0 0.0 -1.228616961883e-03 
-1.323624610775e-03 3.216369829918e-04 0.0 
3.216369829918e-04 8.408100187569e-03 0.0 
0.0 0.0 -1.289666537713e-03 
-6.585033223124e-04 -1.956809026779e-04 0.0 
-1.956809026779e-04 3.104860358543e-03 0.0 
0.0 0.0 -4.695399720401e-04 
0.0 0.0 0.0 
0.0 0.0 0.0 
0.0 0.0 0.0 
-1.295369683638e-03 -4.352781909349e-04 0.0 
-4.352781909349e-04 8.328377963407e-03 0.0 
0.0 0.0 -1.273144391159e-03 
-1.316384665971e-03 4.635940691717e-05 0.0 
4.635940691717e-05 9.091692367136e-03 0.0 
0.0 0.0 -1.325353038101e-03 
-1.373672636792e-03 -7.774901455504e-05 0.0 
-7.774901455504e-05 8.873813327291e-03 0.0 
0.0 0.0 -1.323783523096e-03 
-8.637809619907e-04 1.323503679534e-04 0.0 
1.323503679534e-04 5.089707097874e-03 0.0 
0.0 0.0 -7.673431308700e-04 
-1.131532193974e-03 -7.726473612601e-05 0.0 
-7.726473612601e-05 7.445464928452e-03 0.0 
0.0 0.0 -1.231867668451e-03 
-2.317572587520e-04 -1.314436244158e-04 0.0 
-1.314436244158e-04 1.130415722071e-03 0.0 
0.0 0.0 -2.324200178898e-04 
-1.299745087394e-03 4.291095854891e-04 0.0 
4.291095854891e-04 8.286657472724e-03 0.0 
0.0 0.0 -1.241575510934e-03 
-4.846130298420e-05 -4.886976193625e-05 0.0 
-4.886976193625e-05 2.622595636012e-04 0.0 
0.0 0.0 -9.162782597871e-05 
-1.263516092246e-03 -1.718330630488e-04 0.0 
-1.718330630488e-04 7.907025787409e-03 0.0 
0.0 0.0 -1.290713494763e-03 
-1.321680158597e-03 4.673078731777e-04 0.0 
4.673078731777e-04 8.597815189326e-03 0.0 
0.0 0.0 -1.268585396830e-03 
0.0 0.0 0.0 
0.0 0.0 0.0 
0.0 0.0 0.0 
-1.124591088079e-03 3.211880423142e-04 0.0 
3.211880423142e-04 7.458066064736e-03 0.0 
0.0 0.0 -1.178018281593e-03 
-1.107869427890e-03 -1.505180591586e-04 0.0 
-1.505180591586e-04 7.012739571933e-03 0.0 
0.0 0.0 -1.053859681778e-03 
-1.308771083341e-03 9.446579517484e-05 0.0 
9.446579517484e-05 8.493525012630e-03 0.0 
0.0 0.0 -1.289687241943e-03 
-1.346242744377e-03 2.039443759450e-04 0.0 
2.039443759450e-04 8.307404063276e-03 0.0 
0.0 0.0 -1.346242744377e-03 
-1.050842893348e-03 -2.891538303944e-04 0.0 
-2.891538303944e-04 6.421171579649e-03 0.0 
0.0 0.0 -9.627310317561e-04 
-1.303758961951e-03 4.903154082554e-04 0.0 
4.903154082554e-04 8.278630388455e-03 0.0 
0.0 0.0 -1.292510612804e-03 
-1.300990074097e-03 1.669276888751e-04 0.0 
1.669276888751e-04 8.244189692926e-03 0.0 
0.0 0.0 -1.236507170568e-03 
-1.088170666265e-03 3.228048852164e-05 0.0 
3.228048852164e-05 6.587667922864e-03 0.0 
0.0 0.0 -1.009625451247e-03 
-1.257890102395e-03 4.520446479729e-04 0.0 
4.520446479729e-04 7.985706155656e-03 0.0 
0.0 0.0 -1.247605899893e-03 
-7.721939041237e-04 -2.584607340664e-04 0.0 
-2.584607340664e-04 3.598089332548e-03 0.0 
0.0 0.0 -5.668522599723e-04 
-8.446801208318e-04 -1.785300824749e-05 0.0 
-1.785300824749e-05 4.608085736335e-03 0.0 
0.0 0.0 -7.287847301676e-04 
-1.179784032877e-03 5.549241153248e-04 0.0 
5.549241153248e-04 7.775803262496e-03 0.0 
0.0 0.0 -1.239219007812e-03 
-1.299529222104e-03 1.321426560981e-04 0.0 
1.321426560981e-04 8.646134742124e-03 0.0 
0.0 0.0 -1.286506427510e-03 
4.173759656973e-04 1.450898855848e-05 0.0 
1.450898855848e-05 -1.250944835044e-04 0.0 
0.0 0.0 -1.252634923684e-04 
-8.370484008237e-04 5.623912198418e-05 0.0 
5.623912198418e-05 4.626828224470e-03 0.0 
0.0 0.0 -7.284590636140e-04 
-1.335071484274e-03 -1.600713729454e-04 0.0 
-1.600713729454e-04 8.440371416104e-03 0.0 
0.0 0.0 -1.288082484959e-03 
-3.767414468585e-04 -4.451842935600e-05 0.0 
-4.451842935600e-05 1.577633672495e-03 0.0 
0.0 0.0 -2.765646858065e-04 
-1.088631360797e-03 4.564803545026e-05 0.0 
4.564803545026e-05 7.667059339477e-03 0.0 
0.0 0.0 -1.213252366005e-03 
-1.271794335805e-03 2.301245021833e-04 0.0 
2.301245021833e-04 8.183403677429e-03 0.0 
0.0 0.0 -1.225943235494e-03 
-1.312602819485e-03 -3.967668182090e-05 0.0 
-3.967668182090e-05 8.691988746778e-03 0.0 
0.0 0.0 -1.269037835114e-03 
-3.083660169777e-04 2.694773361529e-05 0.0 
2.694773361529e-05 1.528069924280e-03 0.0 
0.0 0.0 -2.647987373252e-04 
3.113151605038e-04 9.413576912784e-04 0.0 
9.413576912784e-04 1.991549585730e-04 0.0 
0.0 0.0 -2.187729081758e-04 
-1.068435724364e-03 3.124616463362e-04 0.0 
3.124616463362e-04 5.213213290896e-03 0.0 
0.0 0.0 -7.939471195916e-04 
-1.202568648909e-03 1.058847220047e-04 0.0 
1.058847220047e-04 7.572272609772e-03 0.0 
0.0 0.0 -1.120841203304e-03 
0.0 0.0 0.0 
0.0 0.0 0.0 
0.0 0.0 0.0 
-1.320199164535e-03 2.485994904543e-04 0.0 
2.485994904543e-04 8.472368730029e-03 0.0 
0.0 0.0 -1.292233508669e-03 
-1.037229848653e-03 5.491249721839e-05 0.0 
5.491249721839e-05 6.181123680978e-03 0.0 
0.0 0.0 -9.501928138396e-04 
-2.112219927373e-05 -1.374997492072e-03 0.0 
-1.374997492072e-03 9.175924767207e-04 0.0 
0.0 0.0 -3.842015474773e-04 
-1.012609583766e-03 8.895330680236e-05 0.0 
8.895330680236e-05 5.872726185200e-03 0.0 
0.0 0.0 -9.030544305944e-04 
-1.225691657466e-03 3.254133079920e-04 0.0 
3.254133079920e-04 8.211721301461e-03 0.0 
0.0 0.0 -1.271643562581e-03 
-1.073143154962e-03 -3.082428058209e-04 0.0 
-3.082428058209e-04 5.482950483311e-03 0.0 
0.0 0.0 -8.272804529250e-04 
-7.479625392972e-05 8.197008980182e-04 0.0 
8.197008980182e-04 9.724757035372e-05 0.0 
0.0 0.0 -9.621992753140e-06 
-7.676399437614e-04 -3.808740375144e-05 0.0 
-3.808740375144e-05 3.237219166554e-03 0.0 
0.0 0.0 -5.209635072927e-04 
-9.628338005869e-04 -8.201294567374e-05 0.0 
-8.201294567374e-05 4.764994978367e-03 0.0 
0.0 0.0 -7.319997505002e-04 
-1.071554526652e-03 3.282695898754e-04 0.0 
3.282695898754e-04 5.655927594763e-03 0.0 
0.0 0.0 -8.599999999992e-04 
-1.135384068353e-03 1.731479619930e-04 0.0 
1.731479619930e-04 7.715574497297e-03 0.0 
0.0 0.0 -1.232780192057e-03 
-9.798919804233e-04 -2.558628748534e-04 0.0 
-2.558628748534e-04 4.608642650891e-03 0.0 
0.0 0.0 -7.175509632692e-04 
-9.821029958470e-04 -3.508647879924e-05 0.0 
-3.508647879924e-05 4.890525845077e-03 0.0 
0.0 0.0 -7.596628988333e-04 
-1.837560013843e-04 -1.583099615282e-05 0.0 
-1.583099615282e-05 7.060885550868e-04 0.0 
0.0 0.0 -1.551230728613e-04 
-1.279400136320e-03 -1.566945304177e-04 0.0 
-1.566945304177e-04 7.936225660633e-03 0.0 
0.0 0.0 -1.240629869904e-03 
-1.185998620198e-03 6.438056067403e-04 0.0 
6.438056067403e-04 7.550199019485e-03 0.0 
0.0 0.0 -1.186362110037e-03 
2.427830448571e-04 7.191273176983e-04 0.0 
7.191273176983e-04 1.478022189351e-04 0.0 
0.0 0.0 -1.673936844824e-04 
-1.279430862365e-03 -6.414688066309e-05 0.0 
-6.414688066309e-05 8.547621756056e-03 0.0 
0.0 0.0 -1.290349483557e-03 
-1.338884708819e-03 1.031550988355e-04 0.0 
1.031550988355e-04 8.369469127644e-03 0.0 
0.0 0.0 -1.290356026000e-03 
-8.661241169029e-04 -1.497599566473e-04 0.0 
-1.497599566473e-04 5.210623571048e-03 0.0 
0.0 0.0 -7.639788432047e-04 
-1.031081386504e-03 4.454962226943e-05 0.0 
4.454962226943e-05 6.379322053578e-03 0.0 
0.0 0.0 -9.358343396975e-04 
-9.489099175762e-04 2.306915430345e-05 0.0 
2.306915430345e-05 4.686801294291e-03 0.0 
0.0 0.0 -7.108516105536e-04 
-9.490845872611e-04 -2.424415655702e-04 0.0 
-2.424415655702e-04 4.770889395299e-03 0.0 
0.0 0.0 -7.343037059241e-04 
-1.020778085259e-03 -1.236146397605e-04 0.0 
-1.236146397605e-04 5.063951457963e-03 0.0 
0.0 0.0 -7.498489858827e-04 
-1.029397936689e-03 2.088387744417e-04 0.0 
2.088387744417e-04 7.190812739883e-03 0.0 
0.0 0.0 -1.180929064624e-03 
-9.345291821784e-05 -1.000980982166e-03 0.0 
-1.000980982166e-03 8.249248585122e-04 0.0 
0.0 0.0 -3.134879744119e-04 
-1.217539983379e-03 3.641850333419e-04 0.0 
3.641850333419e-04 7.975823276789e-03 0.0 
0.0 0.0 -1.217816617926e-03 
-9.353852917844e-04 8.308411466891e-05 0.0 
8.308411466891e-05 5.379160797006e-03 0.0 
0.0 0.0 -8.376728236383e-04 
-1.321070874734e-03 1.232042406106e-04 0.0 
1.232042406106e-04 8.662379723599e-03 0.0 
0.0 0.0 -1.272153791098e-03 
-1.041736228558e-03 -1.048021857426e-04 0.0 
-1.048021857426e-04 7.166745997700e-03 0.0 
0.0 0.0 -1.181257232468e-03 
-9.798440822242e-04 -3.118370163861e-05 0.0 
-3.118370163861e-05 6.079525789277e-03 0.0 
0.0 0.0 -8.902468719969e-04 
-1.234647512165e-03 5.766899331800e-04 0.0 
5.766899331800e-04 7.752454878246e-03 0.0 
0.0 0.0 -1.201032862555e-03 
-1.158629351689e-03 4.496790680983e-04 0.0 
4.496790680983e-04 7.611289473110e-03 0.0 
0.0 0.0 -1.236767197193e-03 
-1.208868880085e-03 3.342350738492e-04 0.0 
3.342350738492e-04 8.181025928136e-03 0.0 
0.0 0.0 -1.270271405117e-03 
3.097542277649e-05 6.697677954973e-05 0.0 
6.697677954973e-05 7.281263968877e-06 0.0 
0.0 0.0 -1.639572289087e-05 
-1.241892221072e-03 3.317116238901e-04 0.0 
3.317116238901e-04 7.798927866879e-03 0.0 
0.0 0.0 -1.198686027802e-03 
-1.247779771289e-03 6.731204463031e-04 0.0 
6.731204463031e-04 8.074479962319e-03 0.0 
0.0 0.0 -1.227078865044e-03 
-6.925802389634e-05 -2.106877258132e-04 0.0 
-2.106877258132e-04 8.393317830722e-04 0.0 
0.0 0.0 -1.488313462956e-04 
-9.198582411310e-04 -2.516763361700e-04 0.0 
-2.516763361700e-04 4.361749592167e-03 0.0 
0.0 0.0 -6.841365946973e-04 
8.862067450551e-06 2.614979262087e-05 0.0 
2.614979262087e-05 5.345349754719e-06 0.0 
0.0 0.0 -6.088893087973e-06 
-1.270183579808e-03 3.785933793144e-04 0.0 
3.785933793144e-04 8.183372897712e-03 0.0 
0.0 0.0 -1.230789928678e-03 

SCALARS element_materi_plasti_kappa_shear float
LOOKUP_TABLE default
2.048251484052e-03
1.753493670412e-03
5.503175940454e-03
5.633931869583e-03
3.565227349428e-03
4.312193749308e-04
3.536826958688e-03
1.942063469917e-03
3.582504689508e-03
5.588174946625e-03
3.844209359202e-03
1.631469581520e-03
5.512057153720e-03
3.809200862045e-03
5.604521952288e-03
5.734301458091e-03
3.547028291065e-03
0.0
1.240065727301e-03
1.171297693899e-03
5.622446392520e-03
2.066758337528e-03
2.250687853245e-03
4.978061567755e-03
4.048291547957e-03
4.106723662793e-03
3.275000549148e-03
5.494131578830e-03
4.059702375831e-03
5.136982028010e-03
1.134770329222e-03
3.832632936293e-04
5.695120532744e-03
4.786861567557e-03
5.372391993924e-03
5.735141668293e-03
5.753517229623e-03
5.201200685639e-03
3.236338684528e-03
3.281036968799e-03
2.549446708275e-03
5.321786045187e-03
1.684174276637e-03
3.149604634892e-03
5.511212370387e-03
1.565690788834e-03
3.220151479938e-04
5.403179619290e-03
4.290285994618e-06
3.669652725762e-03
2.409350294786e-03
1.545192749097e-03
1.201581906209e-03
2.359715905779e-03
5.581390730101e-03
2.049040073899e-03
1.507776831990e-03
4.806180650684e-03
9.040347839122e-04
5.734539432203e-03
0.0
5.036447355686e-03
2.389363153128e-03
1.200719454992e-03
5.502622384469e-03
2.208078500699e-03
0.0
5.645939813078e-03
1.388688876148e-03
5.450080675048e-03
4.240450452081e-03
5.844447616816e-03
5.127619557211e-03
3.940968838014e-04
2.067872878458e-03
5.628694369718e-03
5.723406412390e-03
1.349407449673e-03
8.084468878613e-04
1.429030436915e-03
1.215963319167e-03
3.393097464491e-03
2.129508046084e-03
1.864830702236e-03
3.733526205207e-03
3.714125906962e-03
4.361075697200e-03
4.690746124938e-03
4.783172209268e-03
3.514212606547e-03
2.589608648574e-04
3.431550400288e-03
4.721859888672e-03
4.746077057757e-03
5.997543046696e-03
5.411150761547e-03
3.393913313148e-03
5.491004293201e-03
3.985594967259e-03
2.258571385844e-03
3.410992711845e-03
5.611034212900e-03
4.179507938013e-03
5.032886742806e-03
2.003062331599e-03
8.956760759699e-04
5.221382607798e-03
5.045193140480e-03
2.261908350145e-04
5.486842463624e-03
4.573653062054e-03
3.479980613032e-04
2.502076270832e-03
3.167763418157e-03
2.487000496226e-03
2.126059688753e-03
2.273861626040e-03
5.451016480834e-03
3.919789090778e-03
2.281181173819e-03
1.213076248653e-03
3.513689619667e-03
4.941959880695e-03
2.106608397091e-03
9.726897685995e-04
2.859921274723e-03
2.565005698292e-03
2.680460766149e-03
5.737782286007e-03
9.785758943601e-04
4.027728111069e-03
5.636355074510e-03
2.835365156538e-03
2.709046400113e-03
5.353249069116e-03
5.532349028915e-03
4.348743351020e-03
2.978900291729e-03
5.411429688504e-03
2.744221608962e-03
5.616125922486e-03
5.613692443859e-03
3.766204035722e-03
4.391065799997e-03
2.718404295077e-03
2.533253388883e-03
3.087137023846e-03
2.200470782986e-03
3.492820352654e-03
2.363376362537e-03
2.621382727248e-04
3.747049311015e-03
8.605114628174e-04
3.020514546332e-03
5.290806449770e-03
2.186313469297e-03
4.518027699077e-03
1.606142966517e-03
4.209701847449e-03
3.408465456370e-03
2.321856290079e-03
4.941287181334e-03
1.029170670083e-03
5.207270841351e-03
3.386399557435e-03
5.629077659096e-03
3.402534046100e-03
2.143777464895e-03
2.980585492464e-03
3.978529564445e-03
1.797981043136e-03
2.131947395522e-03
4.565545625096e-03
3.526561441315e-03
2.292273163024e-03
2.831954602171e-03
4.902639283245e-03
2.846109516762e-03
5.344131269157e-03
5.581762834167e-03
2.045482988632e-03
2.739998364567e-03
4.670836610536e-03
2.636378907130e-03
1.901753547339e-03
3.276383508295e-03
2.394214224877e-03
5.640432630144e-03
4.649191975422e-03
5.084010659975e-03
1.450852845402e-03
1.891185196908e-03
4.756649167095e-03
0.0
2.645910748192e-03
4.353987082835e-03
6.693198157630e-04
5.577145383260e-03
4.311674069402e-03
2.424063329831e-03
4.308254875088e-03
3.768016172912e-03
3.975429040763e-03
5.123403257528e-03
1.968551576487e-03
3.168679698929e-03
3.489417411141e-03
4.497775965736e-03
3.554143506731e-03
3.272990497602e-03
3.636148199777e-03
4.777873359821e-03
0.0
2.054332000673e-03
2.292338041600e-03
3.059823040950e-03
4.848669964181e-03
7.411939793981e-04
4.203239612195e-03
3.403528574950e-03
2.120618832016e-03
4.069098148088e-03
4.246264766717e-04
4.599464078276e-03
3.476148306084e-04
5.410341703711e-04
1.592193211171e-03
1.719248331945e-03
4.782293510667e-03
1.815734887217e-03
1.844404593867e-03
1.618505664870e-03
1.146822852731e-03
4.464359441945e-03
3.377702223347e-03
5.506088258921e-03
0.0
2.009805297429e-03
2.302243100894e-03
2.481153461484e-03
4.143768537590e-03
5.606441244158e-03
4.559795208237e-03
1.455328493326e-03
4.488396010045e-03
4.213382192652e-03
3.236971907541e-03
4.423237357451e-03
5.173514376653e-03
2.134179776736e-03
1.811135889082e-03
3.825403090103e-03
5.999008670889e-03
3.128792099484e-03
2.778892560238e-03
3.812433277429e-03
1.356034459876e-03
3.547869395678e-03
1.821956586395e-03
1.071898620409e-03
6.878759182499e-04
4.770342255613e-03
3.657761913000e-03
2.301185800403e-03
4.951131887675e-03
4.665409177491e-03
3.411799966359e-03
5.452188912108e-03
2.908585602061e-03
3.583300261965e-03
2.605219249823e-03
3.100950466365e-03
1.347698524684e-03
3.414342947476e-03
2.155049212513e-03
1.385737165103e-03
4.542488046730e-03
0.0
3.716563633638e-03
1.636449720064e-03
1.774524551335e-03
8.033729531877e-04
3.926631031118e-03
7.929613934373e-04
2.439400741018e-03
3.230296274809e-03
3.653257839111e-03
3.792551444784e-03
3.394897168045e-04
9.779464977480e-04
1.639638944485e-03
2.170597973029e-03
4.441924025952e-03
2.403845489855e-03
2.012179680430e-03
2.055407645936e-03
5.690441180567e-04
2.724975474439e-03
1.566269675286e-03
5.958720739140e-03
5.939193914372e-03
3.244445123059e-03
1.612814842720e-03
1.675996184199e-03
3.688319290741e-03
1.425607672630e-03
1.036406456605e-03
3.253099720127e-03
5.778400585500e-03
1.895871873376e-03
3.666527252036e-03
1.635469508028e-03
5.660443835014e-03
1.865154342382e-03
3.342266076335e-03
6.537557986608e-04
3.435463054255e-03
2.276354288028e-03
1.404210939028e-03
3.486331641573e-03
5.890375541845e-03
1.783256592408e-03
3.221814678744e-03
1.690872941280e-03
4.262668196764e-03
3.989554513863e-03
1.870987437432e-03
4.157903845114e-03
5.833143474624e-03
4.319705339619e-03
5.914245466119e-03
4.107732014025e-03
4.587246752330e-03
1.718940221779e-03
3.216971996294e-03
3.590070658515e-03
3.756282744682e-03
2.945710028405e-03
5.788099092437e-03
3.944002213719e-03
3.448909530710e-03
1.863265499764e-03
1.455277505311e-03
3.108638757878e-03
2.053960887931e-03
3.540174196265e-03
1.877423184664e-03
1.615583361797e-03
4.717172209803e-03
1.879339039984e-03
3.325468032698e-03
3.338062058546e-03
3.118061036031e-03
5.704944762881e-03
2.801276760200e-03
7.929235320681e-04
2.475643465383e-03
1.888885188254e-03
2.000012791095e-03
4.954048188006e-03
3.495259464146e-03
2.461309541375e-03
3.062435080318e-03
5.651875251926e-03
5.274977967438e-03
4.935750800823e-03
4.617112825186e-03
3.065607714073e-03
2.469090313365e-03
1.133689513580e-03
1.302424423879e-03
3.315397022365e-03
3.332601828915e-03
2.997347446124e-03
5.010744987465e-03
1.001431061527e-03
2.758819764694e-03
3.419306053386e-03
2.519448693487e-03
5.922741708314e-03
5.955236189705e-03
5.576307705796e-03
3.343577244616e-03
4.936203495640e-03
1.952709186338e-03
1.572206337787e-03
8.348386301079e-04
2.556685105345e-03
3.397790353165e-03
4.097341444589e-03
5.360765443340e-03
4.855340331116e-03
3.816589750238e-03
3.860243568889e-03
1.042497557085e-03
9.358115372942e-04
2.519797185523e-03
3.004979550758e-03
2.619929927175e-03
9.216036177596e-04
3.654326841485e-03
1.535889856870e-03
1.965274985910e-03
5.542217875605e-03
3.765591558978e-03
3.443419406157e-03
9.148022967595e-04
3.000502477848e-03
2.382905503139e-03
3.927650911988e-03
5.879566310260e-03
3.223720713770e-03
3.674901719203e-03
2.887355925381e-03
4.891146742092e-03
3.418978839809e-03
5.856068981647e-03
5.774980459743e-03
5.817447372982e-03
5.770330115021e-03
4.031402203216e-03
4.901935106937e-03
5.053219238746e-03
2.608302338338e-03
2.534090737438e-03
2.864377718296e-03
5.021604322951e-03
5.804877108405e-03
5.054229152364e-03
3.432032663523e-03
5.068372728808e-03
4.092526629085e-03
2.882253780089e-03
2.587573265554e-03
1.635529725769e-03
5.632439227330e-03
2.459501711046e-03
5.142282866551e-03
2.763464966764e-03
2.028101785969e-03
5.246511047736e-03
2.055425638514e-03
5.758655944435e-03
5.581996474530e-03
3.601464432629e-03
2.874317802879e-04
5.722474487266e-03
5.230794359339e-03
1.560316552400e-03
3.558601806016e-03
5.699626342238e-03
0.0
2.660857434825e-03
3.779907730678e-03
3.423227498078e-03
3.515796245568e-03
1.920364726314e-03
5.673636790496e-03
1.884624729070e-03
1.324523675439e-04
5.578498981548e-03
5.002872014388e-04
2.903489307071e-03
7.102088304152e-04
3.105385424469e-03
5.637939698663e-03
5.643493109987e-03
3.759896198982e-03
6.466604743843e-04
2.581016059922e-06
1.306561031608e-03
4.781936084338e-03
3.544667014514e-03
3.591768567503e-03
5.600982036969e-03
3.550458207037e-03
5.978204257671e-03
4.194064998041e-03
3.966369650588e-03
2.069110227023e-03
3.555873876722e-03
1.287977702152e-03
5.563443599679e-03
5.770828452205e-03
5.803925315002e-03
3.535689664887e-03
2.718540240995e-03
2.810036151373e-03
3.607200195359e-03
5.538358032675e-03
1.640374573165e-03
1.295740147429e-03
1.612091026105e-03
4.134625190794e-03
5.683102620147e-03
9.751937677048e-04
5.520122581297e-03
1.677390207142e-03
5.751046272795e-03
5.068488904679e-03
5.986160827208e-04
2.695519082935e-03
5.116907936890e-03
5.706785168037e-03
4.029434435152e-03
4.284615340903e-03
1.266337359964e-03
4.952953356985e-03
1.912176692629e-03
1.970550124934e-03
6.041211163242e-04
5.656733513692e-03
1.182133657821e-03
4.542952953281e-03
3.833323984522e-03
2.139158319596e-03
1.714726693588e-03
3.853402172132e-03
5.579172664692e-03
2.774393020232e-03
3.942313972036e-03
3.310099650091e-03
3.368941039505e-03
1.606723124076e-03
3.637032700867e-03
3.197994162511e-03
4.208731222359e-03
3.883013032915e-03
3.120071939876e-03
2.732828783826e-03
1.823514764933e-03
2.627670573605e-03
4.181475254094e-03
3.004073412555e-03
5.656674172997e-03
5.232907453581e-03
1.823811427346e-03
5.507514049442e-03
5.342333532244e-03
2.747952667688e-03
4.382088383837e-04
5.694608369003e-03
5.185125812822e-03
1.765229900577e-03
5.538258443366e-03
3.827720443377e-03
2.679180912128e-03
3.704599732640e-03
2.883358424601e-03
3.255701293151e-03
3.509234741567e-03
4.329946724555e-03
2.998532943868e-03
4.098742247155e-03
4.047052255275e-03
2.859932710936e-03
3.672333583242e-03
2.211642543694e-03
3.881327088903e-03
2.317754686702e-04
2.007422663305e-03
2.062503183499e-03
3.040900024033e-03
2.964066277893e-03
3.726763647671e-03
4.021852142269e-03
2.125448120930e-03
5.567560434823e-03
3.763638072718e-03
3.188675817690e-03
3.577463415310e-03
3.136039882304e-03
0.0
3.881554513065e-03
2.640906468370e-03
1.601175916693e-04
3.049084665278e-03
4.039018151325e-03
5.107511769800e-03
3.179382722343e-03
3.272183804054e-03
3.333812579699e-03
3.138774507408e-03
5.602858950170e-03
3.388266387592e-03
4.889835681516e-04
1.262830355438e-03
3.403732711760e-04
2.039797041705e-03
4.886593675055e-03
5.135074580473e-03
4.569733804699e-03
2.205347307067e-03
3.963428270317e-03
4.644691033612e-03
4.480010223363e-04
2.667099209261e-03
2.160248377513e-03
5.721042981994e-03
5.580105102775e-03
2.939481999310e-03
3.271315706566e-03
3.310083848978e-03
4.812160421875e-03
1.230172725071e-03
4.495251994924e-03
6.428633528680e-04
2.999374668151e-03
3.265631012540e-03
2.192679874259e-04
2.777613716051e-03
5.213183738870e-03
4.661553375830e-04
3.125223871850e-03
3.264611202798e-03
3.668691180679e-03
2.191299816666e-03
1.929490898902e-03
1.801992614561e-03
5.021357309615e-03
5.413378247578e-03
4.938730896674e-03
1.962629389648e-03
7.396549693112e-04
3.052559415623e-03
3.136955965337e-03
3.283077438816e-03
1.652451677106e-04
2.193472717883e-04
5.176799582362e-04
1.646399827615e-03
4.476010659487e-04
3.103497725519e-03
0.0
1.933359932912e-03
4.174873570305e-03
3.277162825819e-03
5.055738530347e-03
3.910516641519e-03
3.910699350519e-03
2.335203039295e-03
6.321407009922e-04
5.850638891353e-03
6.009929428425e-03
3.804106063636e-03
3.142498704503e-03
2.378074668671e-03
6.000434500276e-03
1.932646254916e-03
3.261134435714e-03
3.129035808385e-03
2.954670140417e-03
5.838142907149e-03
5.995969196951e-03
4.354125543212e-04
2.059205045630e-04
9.186762200650e-04
3.162862848184e-03
5.377931686408e-03
0.0
4.886021985717e-03
0.0
3.610910406558e-03
3.669816600871e-04
9.031669178814e-05
3.461382625694e-03
5.195804270535e-03
4.290192669085e-03
3.148248508174e-03
2.197475915269e-04
4.109795966881e-03
5.851848957564e-03
6.003781657386e-03
3.276367122740e-03
3.775548124396e-03
5.863438389457e-03
4.268339267121e-03
6.020741917649e-04
4.453789533022e-04
2.347376138707e-04
2.636386499780e-03
5.872831094669e-03
5.638106297545e-03
2.768799422826e-04
3.087998710897e-03
5.740465009782e-03
5.879140074132e-03
5.731117611362e-03
4.595061384764e-03
5.043133831470e-03
5.707378045359e-03
5.713124045283e-03
4.886059613206e-03
5.694716918905e-04
3.253485872106e-03
3.293767224568e-03
2.384333959609e-04
5.690406926254e-03
5.768685902520e-03
5.617484584069e-03
4.524110312699e-04
4.596449148217e-04
5.588283914655e-03
5.603110956582e-03
4.452788727497e-03
3.251601896083e-03
4.737759423841e-03
3.834702661819e-03
3.246459497800e-03
5.228246461019e-04
4.912700086981e-04
4.440043287774e-04
5.321378525866e-04
3.250169139528e-03
2.937145446359e-03
0.0
4.118703550063e-03
0.0
5.832195033359e-03
5.846499430745e-03
5.850716816551e-03
1.037380994288e-03
2.016748291347e-03
5.852662976723e-03
4.973191529565e-03
5.880964851940e-03
5.257570989653e-03
5.538666694917e-03
2.787880833422e-03
6.016271676808e-03
6.012463975421e-03
5.083244388473e-03
5.379690173722e-03
4.387421699504e-03
0.0
2.857162677749e-03
4.252814149356e-04
5.079913712272e-03
2.910266083999e-03
4.760106554014e-03
1.643649883448e-03
5.383120855226e-04
5.098955867833e-03
3.125495581336e-03
2.489884669676e-03
4.818967528395e-03
5.278656552726e-03
2.495305030192e-03
4.255398696545e-03
3.844899893988e-03
4.331079183945e-03
4.483284984888e-03
1.722961733981e-03
2.890176896868e-03
2.847631786202e-03
4.036906121347e-03
4.963877593991e-03
4.634026856991e-03
1.657361628813e-03
5.268660436221e-03
4.977116357189e-03
3.619668627054e-03
4.170717328187e-03
4.186883659402e-03
5.342654512254e-03
5.152017188017e-03
3.775019514809e-03
5.233037882857e-03
4.914729909785e-03
4.640974992131e-03
5.247897151359e-03
5.303240859678e-03
4.541244193091e-03
4.128098936937e-03
1.538774070067e-03
1.637170348017e-03
8.927698521496e-04
6.525183474627e-04
5.158931490191e-03
5.044076979222e-03
5.868956833529e-04
5.121589647054e-03
3.733179451095e-03
4.678226682694e-03
4.762287906690e-03
2.074136809097e-03
4.809627862755e-03
3.622602601676e-03
3.895447150765e-03
5.345962366384e-03
1.472811966339e-03
5.235843009349e-03
4.707105507548e-03
1.674998648871e-03
1.997272543898e-03
3.477442011437e-03
4.193455430159e-03
2.343630985594e-03
4.867641149368e-03
4.387482060233e-03
3.338211884839e-03
4.524321097962e-03
4.677832988923e-03
4.679006337696e-03
1.339663578638e-03
3.198638979897e-03
4.633717260275e-03
4.840387351562e-03
2.897016443790e-03
3.936845676204e-03
5.082736818757e-03
4.511744960806e-03
3.674133562236e-05
7.677090780190e-04
5.119753373391e-04
4.910516809545e-03
4.354991661180e-03
3.826914815962e-03
3.891439679493e-03
4.711856603342e-03
3.483739004670e-03
4.620031677450e-03
1.591598461033e-03
5.218249190632e-03
3.412412426767e-03
1.736686848489e-03
3.262202328444e-03
2.478917580480e-03
2.035103586398e-03
3.755154455874e-03
1.564516804578e-04
1.127981756129e-04
4.252374733298e-03
1.464746990371e-03
4.246030270520e-03
4.094375942875e-03
2.616673579752e-03
1.812766898726e-03
5.102254688752e-03
3.465488540583e-04
2.625027282395e-03
4.837002714089e-03
1.192572476611e-03
4.082383260840e-03
3.767466409166e-03
1.326156531730e-03
4.910591653427e-03
4.645125771512e-03
1.410538395916e-03
5.226535373693e-03
5.199234746316e-03
1.660825990561e-03
2.070362284012e-03
1.741360747490e-03
4.534233564243e-03
3.626195608604e-03
5.169455195403e-03
5.078103462266e-03
4.392922361779e-03
4.325015664707e-03
1.344427675979e-03
4.473065100284e-03
4.621187335039e-03
3.681381110048e-03
4.381240135388e-03
4.808400950473e-03
2.590644772933e-03
4.947620929573e-03
3.085734269789e-03
3.550246213813e-03
2.335827574008e-03
2.490782004144e-03
4.488879741826e-03
3.165999505288e-03
1.852051741299e-03
9.795830009428e-04
4.513242120104e-03
1.766306002376e-03
5.166203144739e-03
4.649805208552e-03
4.614388070238e-03
5.225667178668e-03
2.979037457551e-03
1.585841628710e-03
1.011992460365e-03
4.379665078225e-03
4.223445145250e-03
6.765581779648e-04
2.432707948999e-03
1.398956561073e-03
4.216513153533e-03
2.555838114567e-03
4.011146820245e-03
2.390150431536e-03
5.006027676208e-03
2.059652164516e-03
4.350001019912e-03
1.794811250637e-03
4.222069039725e-03
3.406036415108e-03
4.462021920913e-03
1.339917336666e-03
1.350299010952e-03
3.939048831294e-03
3.691324572910e-03
2.830557802011e-03
4.239747352825e-03
1.991260803131e-03
4.297758287115e-03
1.272590086592e-03
4.947061823839e-03
3.839114394118e-03
4.100469873386e-03
5.406352818554e-03
3.435279919526e-03
1.276251192001e-03
3.890812531652e-03
5.018055530162e-03
2.209550982896e-03
4.531906710769e-03
4.676467859059e-03
1.712191406574e-03
4.059355262125e-03
3.877866350654e-03
1.909658390552e-03
2.315039142321e-03
3.261954618660e-03
4.303145841247e-03
2.635421671348e-03
3.059028444222e-03
4.459399445595e-03
4.056901073063e-03
3.999117941319e-03
3.350783493908e-03
4.741842824469e-03
3.716486713275e-03
3.922920566098e-03
5.252343855285e-03
4.304735037625e-03
4.138095280470e-03
4.783696522489e-03
2.607621039471e-03
2.469838949813e-03
1.432823964346e-03
4.007204605408e-03
2.590823974833e-03
4.347452842024e-03
4.183394403681e-03
2.669547662572e-03
2.085784252471e-03
1.474019061621e-03
2.212107321881e-03
2.350809507915e-03
1.463075537230e-03
4.569504511566e-03
2.669001313969e-03
4.972812165115e-03
2.750604982809e-03
3.790160523716e-03
3.207941504412e-03
2.889645016640e-03
1.541106990513e-03
4.841361927259e-03
5.091339779464e-03
4.032052527629e-03
2.472525954974e-03
3.495149155929e-03
4.324118500003e-03
2.732643322525e-03
2.578422691737e-03
2.150698556139e-03
2.106845042594e-03
2.726649439388e-03
1.894721435353e-03
1.784390543315e-03
3.334917325845e-03
3.967235808941e-03
4.797201624805e-03
4.779022984785e-04
2.400918837851e-03
2.556449603619e-03
2.577694805080e-03
4.159825931864e-03
2.931072335017e-03
2.192293877224e-03
2.827325159198e-03
4.815904702500e-03
2.276675714296e-03
8.000720813987e-04
1.154840506689e-03
1.907795704096e-03
2.221538328191e-03
2.622719745119e-03
2.913483858149e-03
1.764083930753e-03
1.225103944880e-03
3.978408581491e-03
1.973233867528e-03
4.352924711069e-03
4.600918209764e-03
3.992519858041e-03
5.014455028265e-03
4.977573847805e-03
2.548565445421e-03
4.312209701199e-03
1.977881610171e-03
2.972886214248e-03
2.522487306746e-03
1.343329153242e-03
1.686644144900e-03
2.487335316614e-03
2.744769011227e-03
2.804656212940e-03
2.029273826370e-03
3.023258905964e-03
2.603498899914e-03
2.484258941744e-03
2.359041018273e-03
3.843548607210e-03
4.482822863784e-03
2.260889845850e-03
4.670023540639e-03
2.097337949930e-03
5.002347225511e-03
2.827679967364e-03
5.203491602561e-03
3.947077556837e-03
1.774963125665e-03
4.099246498151e-03
5.100371074435e-03
2.915547663855e-03
2.161634842982e-03
4.202460859535e-03
3.063723291001e-03
1.589122566935e-03
5.594818322494e-03
1.323577671794e-03
4.905374215111e-03
5.240056690777e-03
4.004250475148e-03
4.022036132739e-03
4.908739948371e-03
2.656489500895e-03
3.014023661641e-03
5.295279977407e-03
4.266560699203e-03
4.614700973159e-03
3.798037729663e-03
1.755388368310e-03
4.742604083367e-03
5.518069405150e-03
5.004957839638e-03
2.836493463262e-03
4.042556476747e-03
3.862526569830e-03
2.990307102709e-03
4.091149418794e-03
4.218450148723e-03
1.096098833511e-03
1.326857373094e-03
2.403878583947e-03
2.433427464003e-03
2.925956778214e-03
5.469614393342e-03
5.117047102826e-03
5.259865256129e-03
2.804866215072e-03
4.812380906171e-03
4.181034339560e-03
5.346185944049e-03
4.575117160927e-03
3.073764877658e-03
2.227900412936e-03
4.723026116701e-03
5.199457669429e-03
4.754736712479e-03
4.593382364392e-03
4.706207203460e-03
4.760938801400e-03
4.529156841862e-03
3.673004527565e-03
2.793183285108e-03
4.176641122849e-03
4.482872570103e-03
1.720752477746e-03
2.523073950019e-03
2.936964334964e-03
3.355527503238e-03
6.764221038375e-04
2.312131514981e-03
3.694823953479e-03
3.162738673778e-03
3.106094428709e-03
4.275586722866e-03
3.420444478414e-03
8.056313501550e-04
3.608028323112e-03
4.113825723424e-03
5.289575565494e-03
2.786040332148e-03
3.385556211389e-03
4.320502265357e-03
1.220460717409e-03
3.955179298541e-03
3.165570628649e-03
3.317308554295e-03
4.304146306300e-03
1.881742204703e-03
4.432932293431e-03
4.823215265074e-03
3.806542070162e-03
4.778108728743e-03
4.481570645652e-03
4.886746565618e-03
1.498086320626e-03
4.448193879400e-03
4.826216477314e-03
4.887560636574e-03
3.468158111994e-03
2.473653699252e-03
3.471604947544e-03
3.515654411098e-04
5.048129172683e-03
1.854985291829e-03
1.640845901064e-03
4.384273219759e-03
5.379705512615e-03
1.962931709496e-03
3.460402464098e-03
4.556944250926e-03
3.383719843055e-03
1.271639043889e-03
2.155596217495e-03
1.530379692595e-03
1.562946298421e-03
1.725992673060e-03
3.128123404018e-03
5.978757202265e-03
1.878932715142e-03
4.874265144995e-03
2.021312508689e-03
4.410645559788e-03
5.446402050904e-04
5.032053835528e-03
1.857540691758e-03
2.167450437020e-03
4.007316872521e-03
2.865792508923e-03
4.633094935503e-03
2.352487737097e-03
4.663962013380e-03
4.869204411424e-03
4.429689118342e-03
5.301599282418e-03
4.867555126114e-03
4.994292368552e-03
1.585731642834e-03
4.731482311295e-03
4.686031286375e-03
2.832067385881e-03
2.158927091379e-03
5.079003029780e-03
9.596911832810e-04
2.094098399874e-03
4.422688948064e-03
1.248071604353e-03
3.111224166074e-03
4.143397073039e-03
5.269510986050e-03
5.404504160547e-03
4.032131518506e-03
5.035214563043e-03
2.288963266599e-03
4.497236254835e-03
2.449891336582e-03
5.141368132138e-03
2.751749660152e-03
2.878729614698e-03
2.670941398415e-03
3.064327322831e-03
3.458691017845e-03
2.658280149013e-03
2.653753714281e-03
9.811593336372e-04
2.441082358799e-03
5.179437752949e-03
5.268578940824e-03
4.434728242993e-03
4.747389467129e-03
2.702179599475e-03
4.975773677779e-03
2.582283479392e-03
4.888861475010e-03
4.848446586375e-03
4.829227704648e-03
3.615324373437e-03
2.341624150185e-03
4.784583869030e-03
3.957491419921e-03
1.700601644229e-03
7.020950745825e-04
2.481218771102e-03
3.497363371298e-03
5.046415826891e-03
4.704605430921e-03
2.322695645322e-03
3.926363227239e-03
4.300034730448e-03
5.071297943610e-03
4.988482903574e-03
4.232489050894e-03
4.476485377380e-03
2.821806331728e-03
4.336206174646e-03
3.171626869689e-03
5.322298740710e-03
5.194634648291e-03
3.273686732189e-03
5.984151931342e-04
4.585743008913e-03
3.386888275759e-03
2.214504551746e-03
3.505745048799e-03
4.392421827443e-03
8.649412715447e-04
2.929672516780e-03
4.200855765301e-03
5.106738436651e-03
4.301405107970e-03
4.492473167653e-03
4.094600791655e-03
3.873742424529e-03
4.049253002460e-03
4.546913092459e-03
4.646225374320e-03
4.523702894857e-03
5.390087395959e-03
3.985020216099e-03
1.618655921059e-03
4.788488793259e-03
5.359924628782e-03
3.005660619524e-03
3.223226449347e-03
1.971525089256e-03
4.648699280585e-03
2.766011387022e-03
3.573201295524e-03
2.703531881720e-03
4.214659544868e-03
5.069771484118e-03
2.121431133427e-03
4.058193802695e-04
5.341003982022e-03
2.920796651996e-03
2.806031036896e-03
4.893352200413e-03
4.541058644014e-03
4.477853504311e-03
2.415871683082e-03
1.091173224409e-04
5.297107160487e-03
3.566992170965e-03
3.964772993217e-03
4.908749566295e-03
0.0
4.396335016970e-03
1.721264210827e-03
4.247426129010e-03
3.657351708374e-03
2.094475387503e-03
4.954039962137e-03
3.497476297263e-03
1.752352387144e-03
3.730384878291e-03
3.763523260526e-04
4.296335070821e-03
4.232332728487e-03
5.300157964833e-03
4.591233936654e-03
1.028298279476e-03
4.511210016349e-03
5.453521427974e-03
5.267588892161e-03
4.434702429965e-03
2.462650568201e-03
4.009248660887e-03
5.046804183108e-03
3.535212461732e-03
4.396897747975e-03
4.393389450935e-03
4.800902351973e-03
4.606296382436e-03
3.122680214006e-03
3.120274423476e-03
4.382256899136e-03
4.111044512030e-03
3.813633009546e-03
4.221320453715e-03
3.279774802709e-03
4.769766446077e-03
2.542727818688e-03
5.983048558159e-03
3.591210545370e-03
3.168624506568e-03
3.557292247720e-03
9.531416278352e-04
3.230009085735e-03
3.834311612934e-03
3.683361306900e-03
4.361379102542e-03
4.324884584529e-03
4.497716242812e-03
9.296305416927e-04
3.000738260246e-03
2.877206011432e-03
4.129391706328e-03
4.309346871824e-03
4.660717579238e-03
1.390083491195e-03
1.337430359801e-03
3.372007376568e-03
3.118387867984e-03
2.908488767762e-03
3.071482520293e-03
4.375276169838e-03
1.579296571718e-03
3.441254145347e-03
4.169540997438e-03
5.233780527267e-04
5.376588438414e-03
5.149299469470e-03
3.407577951504e-03
4.596633708749e-03
5.291684185247e-04
4.017860612446e-03
3.529401166009e-03
5.097626183355e-04
5.132298664917e-03
7.847782572497e-04
4.127046447011e-03
3.654659147826e-03
2.736631618381e-03
3.532903553380e-03
5.264031271081e-03
3.850209962935e-03
3.431861875086e-03
3.323620881928e-03
5.457679815637e-04
4.250590229059e-04
4.681238603658e-03
4.043631383605e-03
4.795280597812e-03
2.001212315519e-03
4.830518942522e-03
4.896214853730e-03
3.151597474926e-03
4.683508434643e-03
4.666996016599e-03
3.909137558089e-03
3.276352252530e-03
3.497938959203e-03
5.375951367089e-03
3.220959364287e-03
3.760026043850e-03
3.137860209432e-03
4.172566943858e-03
2.940253828481e-03
1.143043258969e-03
3.094440534048e-03
1.421741084883e-03
4.229813709731e-03
1.395709131982e-03
4.036588971796e-03
4.570721815773e-03
4.340933322801e-03
2.781057843546e-03
4.194893651729e-03
4.753168581798e-03
4.818117472810e-03
1.337755850323e-03
4.137746118188e-03
5.209940225680e-03
2.346590375691e-03
3.683805328027e-03
7.449910221543e-04
4.902778118811e-03
1.132231217255e-03
3.562582783365e-03
3.984078078079e-03
4.208916939956e-03
4.023939684233e-03
3.635866043279e-03
2.594201963328e-03
2.755506096816e-03
4.964224152630e-03
3.752359726194e-03
3.049378824758e-03
3.951824469440e-03
2.751998479851e-03
1.270610342764e-03
2.569385874887e-03
3.772607831583e-03
3.271605333460e-03
4.369076492911e-03
2.705575969413e-03
5.066065955323e-03
4.914430261524e-03
2.994647378897e-03
5.394625854804e-03
1.628019428153e-03
4.948546199405e-03
3.599675338089e-03
3.985333370223e-03
4.676994841526e-03
2.599416272208e-03
3.952410327413e-03
2.849041735521e-03
3.845590045576e-03
1.946537266926e-03
4.082691990807e-03
2.599671966463e-03
3.723013565829e-03
3.865662068831e-03
5.887470109935e-04
3.453775351858e-03
1.200495782290e-03
9.684342886304e-04
3.597379235346e-03
4.690298881192e-03
4.138119897075e-03
2.292437587727e-03
5.849140828973e-03
1.853697180041e-04
2.448985812848e-03
3.130150269506e-03
3.550843563428e-03
2.957877931277e-03
1.876075245636e-03
3.442132234492e-03
3.806568376354e-03
3.777536702449e-03
4.965844843458e-03
1.161492389179e-03
3.317749060185e-03
3.622478808600e-03
2.112089838123e-03
3.317999481308e-03
4.153535609678e-03
4.505816054949e-03
6.237202834362e-04
0.0
1.573012222717e-03
3.691965033318e-03
1.969230988537e-03
1.898292932230e-03
1.294352397267e-03
3.753016074334e-03
4.366198405172e-03
3.768697917664e-03
1.871438903480e-03
4.121048902823e-03
3.672677354322e-03
4.305538666813e-03
3.830322098392e-03
3.828543141580e-03
1.984443132618e-03
2.202423137924e-03
3.907189118964e-03
4.304428646692e-03
4.049985857339e-03
2.152295599124e-03
3.904305982153e-03
2.181745308855e-03
1.601820863611e-03
4.956049478681e-03
1.401476559850e-03
2.111889315513e-03
3.321047263052e-03
2.268346872781e-03
3.969667780703e-03
1.889119106674e-03
3.396365532197e-03
3.971070620537e-03
2.946304068913e-03
3.537025974587e-03
1.811375157663e-04
5.205294236013e-03
2.387586220924e-03
4.665614783562e-03
3.968807703245e-03
4.049703598051e-03
4.107544981389e-03
1.695791505847e-03
1.026663475019e-03
1.642477002780e-04
4.189723483469e-03
4.659166707092e-03
2.346343365981e-03
4.226192121581e-03
2.191228217425e-03
4.314363055978e-03
5.445403603490e-03
0.0
5.877232482387e-03
5.753927133567e-03
3.517916756623e-03
2.567108847699e-03
3.885798105456e-03
1.761253100682e-03
8.753437067106e-04
5.824479928858e-04
5.430593790634e-03
4.272773126407e-03
3.281421806576e-03
5.755399577457e-03
1.584674166795e-03
5.735458500835e-03
4.260634587508e-03
2.681067374150e-03
3.703032091483e-03
2.313425682848e-03
1.747876205062e-03
2.269306335304e-03
4.472296584069e-03
5.084185534072e-03
2.122483088170e-03
4.416764738030e-03
0.0
1.927997949303e-03
4.734679441239e-03
2.334640526172e-03
2.293466231138e-03
3.672079540127e-03
1.427206149762e-03
1.708336649171e-03
1.861547325864e-03
2.108699433634e-03
3.250126257064e-03
3.062054677212e-03
4.401537229797e-03
5.307742241175e-03
1.980497234217e-03
4.592105580899e-03
5.228738582180e-03
1.508615138678e-03
1.258398003978e-03
2.320259230208e-03
3.145384584978e-03
4.507488684930e-03
3.013439603112e-03
1.036494360999e-03
3.559288459622e-03
1.877421539577e-03
3.009312651742e-03
3.329936939808e-03
3.782961951353e-03
4.184693822016e-03
2.263846250652e-03
1.320964814853e-03
3.656275706454e-03
1.881021925859e-03
0.0
5.409655559408e-03
5.162683398980e-03
2.729094268368e-04
3.875711687704e-03
1.849949503547e-03
1.815075747793e-03
4.705943890402e-03
3.753312262213e-03
4.510634549489e-03
2.148267383418e-03
3.276008673573e-03
5.353793394855e-03
1.533498694127e-03
4.496561684191e-03
3.235629882712e-03
1.109441694527e-03
4.399839461738e-03
2.050705679004e-03
7.682699673756e-04
1.606426913977e-03
4.404965734731e-03
4.489139406804e-03
1.520865044627e-03
3.643992042795e-03
4.612769071813e-03
4.502280914076e-03
2.204419621287e-03
1.846579794431e-03
3.359329712729e-03
4.124746711535e-03
7.891390788467e-04
5.560751100390e-03
5.548964266607e-03
3.671227968295e-03
5.630388145665e-03
5.535998868057e-03
2.170965590618e-03
2.370185578734e-03
5.368043001177e-03
0.0
1.709110066567e-03
3.659126116834e-03
2.387294836944e-03
1.879148258664e-03
1.458848135816e-03
1.621284849436e-03
3.747506275773e-03
1.892131702059e-03
1.979788942566e-03
4.392042265884e-03
5.804343183406e-03
5.787944820255e-03
2.351876001022e-03
3.390799711467e-03
0.0
1.230366790518e-03
1.463542949792e-03
1.380432272448e-03
3.535543274713e-03
2.106380670562e-03
2.153393122630e-03
5.222734221172e-04
5.154439084150e-03
2.367565598648e-03
5.388275058918e-03
4.954992804617e-03
6.024570796398e-03
5.886693922548e-03
3.753433328928e-03
2.527170991278e-03
1.725379432797e-03
2.498420104998e-03
5.703744763384e-03
9.120404607057e-04
1.119100263323e-03
4.692417281221e-03
3.538901703328e-03
5.427938698995e-03
4.594213998741e-03
4.821231617115e-03
4.878843592402e-03
3.720203756123e-03
2.190074141244e-03
2.006325653896e-03
4.404135688044e-03
4.687878422867e-03
3.117837671459e-03
3.529702774384e-03
3.752961490192e-03
3.830800216791e-03
4.743220089301e-04
1.891519218785e-03
5.771465514508e-03
4.089532321688e-03
5.391930956668e-03
5.395352371543e-03
4.403465603733e-03
5.428295798469e-03
2.711349306453e-03
2.579117857356e-03
5.122665484976e-03
0.0
1.840758435860e-03
5.616042079043e-03
8.237432765106e-04
3.385098086166e-03
5.098464473505e-03
5.994795909040e-04
3.983112400915e-04
5.989580935828e-03
3.133104392698e-03
5.665785838847e-03
4.960111850706e-03
3.124857482388e-03
0.0
5.632893496604e-03
9.982363891211e-04
5.455855807356e-03
5.714313673249e-03
5.360106047106e-03
8.140468256158e-04
3.782530279231e-03
2.880362090628e-03
4.355508239889e-03
5.671711904199e-03
4.776155304540e-03
5.663484683731e-03
0.0
5.589551347142e-03
1.512890600852e-03
7.914478455334e-04
5.397054391263e-03
5.743402050252e-03
5.733536642357e-03
3.426595864351e-03
3.717007925183e-03
1.646038233533e-03
5.655472529231e-03
2.339881504149e-03
8.036133470504e-04
4.521262599813e-03
3.249064134649e-03
5.466053350078e-03
5.951132079152e-03
5.885235530218e-03
4.854921181183e-04
3.182268852091e-04
3.189601210708e-03
3.264417416490e-03
5.744673122169e-03
5.821030348919e-03
4.049503436329e-04
0.0
5.287127657436e-03
5.147388720085e-03
1.173728759617e-03
5.308389383186e-03
3.861412420017e-03
3.447396140137e-03
4.313090326591e-03
1.487039342624e-03
4.054223007771e-03
9.352616087626e-04
3.085786119638e-03
5.355845819130e-03
5.346807489972e-03
3.320434685778e-03
3.970741636665e-03
5.313594699532e-03
4.970757498224e-03
4.685070856500e-03
3.121604600955e-03
3.851714109814e-03
5.392942080288e-03
1.774965986013e-03
4.406585063081e-04
5.044417363226e-03
4.474595389771e-03
1.114377206921e-03
4.510176921097e-03
5.486912845254e-03
4.947561165270e-03
5.266766084571e-03
4.198063581823e-03
0.0
1.470518372103e-03
1.753101937549e-03
3.631135606701e-03
3.881045925371e-03
5.513487264780e-03
5.223998920856e-03
1.020852490991e-03
8.247746946980e-04
1.369961284446e-03
4.515742145024e-03
2.251628283077e-03
5.512574297706e-03
1.101239483144e-03
4.944710226892e-03
3.686457503037e-03
5.316904859013e-03
4.584108386174e-03
3.633631005452e-03
5.441228742427e-03
5.760973095862e-03
5.768457653903e-03
1.076429508706e-03
5.403578302253e-03
5.433000637951e-03
5.028809833893e-03
4.690494387880e-03
5.655330995816e-03
4.686381379503e-03
0.0
1.396280660218e-03
5.170660034106e-03
3.932337476204e-03
5.342833454285e-03
4.884276764452e-03
5.447158665415e-03
4.847067005331e-03
5.305854444718e-03
5.181492536697e-03
5.139590615884e-03
2.342515450525e-03
5.825123485814e-03
3.511800923746e-03
5.448173838807e-03
7.428025292534e-04
5.262596336557e-03
4.547206860874e-03
6.035790654862e-04
8.086025518278e-04
4.796988799160e-03
5.631992981559e-03
5.519397513834e-03
5.310091205385e-03
3.912116890080e-03
3.336829723450e-04
7.216677684818e-05
3.636648382109e-04
1.164636641950e-03
0.0
3.057585890836e-03
5.327921971227e-03
5.411971840112e-03
3.914684461503e-03
2.701530490713e-03
5.213565150943e-03
5.007366373899e-03
5.467264405238e-03
5.207424473042e-03
5.074998992932e-03
6.015575377216e-04
0.0
5.376601054342e-03
4.998770260557e-04
7.354796995695e-04
4.650576109338e-04
6.246802752465e-04
5.332466837785e-03
5.508668632613e-03
5.527152150685e-03
5.370182133116e-03
4.813648012505e-03
4.090345476850e-03
5.872497858860e-03
1.688844706779e-03
3.242062731608e-03
1.296527781915e-03
2.048831776387e-04
5.850745223492e-03
3.550974671321e-03
8.641995463890e-04
2.926275799080e-03
5.656777809006e-03
5.503877635999e-03
5.618051296971e-03
2.129346423962e-03
0.0
5.566911874099e-03
6.011875443670e-03
5.902551827901e-03
3.412317331757e-03
4.981747800379e-03
7.975484814361e-04
5.534656444521e-03
1.991551371557e-04
5.305266967479e-03
5.730842396305e-03
0.0
4.981060490428e-03
4.675346069498e-03
5.654646432844e-03
5.577265656584e-03
4.298496663279e-03
5.550848395389e-03
5.494928221657e-03
4.409266495861e-03
5.352947712000e-03
2.479552746464e-03
3.115289873894e-03
5.217348424536e-03
5.739897385503e-03
3.138279960575e-04
3.124201721815e-03
5.632614020689e-03
1.101480850632e-03
5.091661295346e-03
5.450633370530e-03
5.763755232995e-03
1.048262864143e-03
9.819337037052e-04
3.563851573438e-03
5.043841388328e-03
0.0
5.651156742465e-03
4.142985444651e-03
1.530326117569e-03
3.945008028744e-03
5.471691496627e-03
3.728983518662e-03
8.260130711403e-04
2.244711810372e-03
3.243419354848e-03
3.838568504311e-03
5.141366330765e-03
3.163902532595e-03
3.328394715870e-03
5.059368158880e-04
5.311799105867e-03
5.084872395273e-03
7.504975414657e-04
5.677168446605e-03
5.592115835301e-03
3.482521557627e-03
4.251403145156e-03
3.187364706085e-03
3.251257493807e-03
3.439701907309e-03
4.794833467625e-03
1.169016289084e-03
5.320349723071e-03
3.618781519640e-03
5.751198579347e-03
4.781103524799e-03
4.050232424032e-03
5.211038119852e-03
5.105861927613e-03
5.449330151016e-03
7.104254593760e-05
5.217846714948e-03
5.418217703554e-03
5.880291415762e-04
2.994215514378e-03
2.729319316388e-05
5.459819003966e-03

SCALARS element_materi_plasti_phimob float
LOOKUP_TABLE default
1.827628285050e+01
1.593269433051e+01
2.093406002472e+01
1.591565527192e+01
-1.421804250788e+01
2.686389109516e+01
-1.505371606781e+01
1.779482030382e+01
-1.324929422171e+01
1.585179735046e+01
2.036375935523e+01
1.697423534084e+01
2.071178776881e+01
-2.422776768351e+00
2.065018155970e+01
1.655418746136e+01
-1.372203153266e+01
2.474973656453e+01
1.139541076049e+01
1.123697126838e+01
1.580255988661e+01
1.516115010695e+01
1.684185977291e+01
2.258888767895e+01
6.632706917924e+00
2.052114073989e+01
9.207841142985e+00
2.316164015223e+01
8.679085191061e+00
2.237517482464e+01
2.165876909499e+01
-1.809841609967e+01
2.070024316332e+01
2.070023488087e+01
2.130455188541e+01
2.085533575562e+01
2.079971095336e+01
2.272516081536e+01
-2.139121954658e+01
-2.175122568406e+01
1.672646367361e+01
2.117535638728e+01
1.803447394011e+01
5.531191271531e+00
1.509315773301e+01
1.906578410425e+01
2.560825527344e+01
1.539053104523e+01
1.615597428486e+01
-3.004872036539e+00
1.697037558382e+01
1.350769084765e+01
2.717396718484e+01
1.412102469010e+01
1.919143504327e+01
1.609444066759e+01
1.371702308138e+01
2.076542800239e+01
6.942412786727e+00
1.651627816505e+01
1.183356770430e+01
2.361278644324e+01
2.173864487075e+01
2.617329792655e+01
2.075624475930e+01
1.440877799441e+01
1.556362502568e+01
2.099880374629e+01
7.897882295371e+00
2.218027485262e+01
2.066729967513e+01
1.925326342915e+01
2.266056971260e+01
-7.373076877466e+00
1.648411294559e+01
1.632249520155e+01
1.893741535198e+01
1.985426684369e+01
5.837006716714e+00
1.967965973580e+01
8.888478840050e+00
-1.207649380686e+01
1.753677252199e+01
1.557737045323e+01
-8.287161454117e+00
-1.071963561735e+01
2.065014515586e+01
2.071015243744e+01
1.886040191928e+01
-1.123709168764e+01
-2.050458341808e+01
2.900007186215e+00
1.063890433014e+01
1.000292864469e+01
1.798902099707e+01
2.206514498492e+01
-9.261513314701e+00
2.168692602128e+01
-5.432199973765e-02
1.994319259300e+01
-1.622647597322e+01
2.070229780561e+01
2.501345752282e+01
2.327178571229e+01
2.350098224086e+01
1.770825193936e+01
2.072472513978e+01
1.234188185727e+01
1.972656608897e+01
2.067111369272e+01
1.896226480806e+01
-2.088019989283e+01
2.683923633558e+01
1.514135896768e+01
1.820617671981e+01
1.955917780639e+01
2.204327132884e+01
2.107197443852e+01
-2.817400155158e+00
2.242866559062e+01
4.879685271340e+00
5.687571767494e+00
1.263488838934e+01
2.270407373623e+01
2.212496013962e+01
1.675076772001e+01
1.801679000954e+01
1.369348579715e+01
1.713733812212e+01
2.498098505755e+01
2.058953011978e+01
1.596591114104e+01
1.964272465594e+01
1.688960668256e+01
2.150200659652e+01
2.069411145696e+01
2.075279201190e+01
1.967053946579e+01
2.209307543631e+01
1.762709289475e+01
1.654290961683e+01
2.260984337607e+01
1.271252624526e+00
6.380763006725e+00
1.869170017995e+01
1.392007467354e+01
2.060706713111e+01
2.502823446007e+01
-1.697284481211e+01
2.708669158577e+01
-2.165858639407e+01
-1.164310737726e+01
7.534962329063e+00
1.649745409844e+01
2.135100922455e+01
2.310199220658e+01
2.071449674098e+01
1.819266337854e+01
2.535595714454e+01
-1.803021009122e+01
2.768695852543e+01
2.075524089912e+01
5.257443386169e+00
2.075753890220e+01
1.313750963807e+01
2.093587026336e+01
-1.866684502296e+01
2.518094468460e+01
1.200390858146e+01
2.043293855679e+01
1.825063519455e+01
2.796342082718e+01
8.447010043047e+00
-1.823842787458e+01
2.621670574978e+01
1.307185532100e+01
2.195249185227e+01
1.876677370819e+01
2.240488285395e+01
2.268774851916e+01
1.847772153415e+01
1.877281323588e+01
2.355124089244e+01
1.721544027596e+01
1.708696381178e+01
1.081016479897e+01
2.591432403652e+01
1.644320670076e+01
1.688559024168e+01
2.074789747337e+01
1.985524863040e+01
2.887900730758e+01
1.849809195483e+01
1.061109462156e+01
1.565652713517e+01
2.386975652211e+01
-7.952091882325e-02
1.954352132370e+01
1.246557890529e+01
2.283341386141e+01
2.440638025011e+01
7.070654270453e+00
5.743724825208e+00
2.202660680353e+01
1.816210947498e+01
2.215808377303e+01
1.539187264785e+01
1.318064022642e+01
1.385570844207e+01
1.433029762458e+01
2.621886528454e+01
2.122097237629e+01
1.215481685377e+01
1.781858527549e+01
1.942997695012e+01
2.123856494340e+01
1.708745299626e+01
2.910080477540e+01
2.394460025887e+01
-1.759407892704e+01
2.848071981734e+01
2.391571103262e+01
-1.405500917506e+01
1.427142482575e+01
-1.988145808358e+01
-9.063233904516e-01
1.863010221409e+01
1.575126385459e+01
1.475607656644e+01
1.464425915268e+01
2.228007118491e+01
2.058826899192e+01
7.019154565781e+00
2.418156913765e+01
1.534229342574e+01
2.082072435670e+01
1.065425298204e+01
2.446374428257e+01
2.864420685286e+01
1.600025931288e+01
2.453102381400e+01
2.094945051807e+01
1.610874695572e+01
2.968205581911e+01
2.371927805598e+01
2.061060585307e+01
2.042314141844e+01
1.426046165101e+01
2.273470907845e+01
2.877411564756e+01
2.267774542084e+01
1.450950428655e+01
1.787351157625e+01
2.261097688477e+01
2.805079051886e+01
-8.973067879982e+00
8.925404045463e+00
1.158023304125e+01
2.884929213370e+01
2.991098050008e+01
2.795586358482e+01
1.439327614234e+01
1.570992368349e+01
2.450030078221e+01
1.489582373231e+01
1.731219803068e+01
1.953427847954e+01
2.078619051900e+01
2.821666220063e+01
1.853372428646e+01
2.630367336171e+01
2.739237951309e+01
3.073924778789e+01
-1.529962508123e+00
2.916123916908e+01
2.928609360202e+01
1.573896099009e+01
6.292113811711e+00
1.244048687266e+01
3.016992289538e+01
2.559234213768e+01
3.085131492916e+01
1.516601111083e+01
-4.332289638802e+00
1.890331118977e+01
2.752144088423e+01
1.408409772883e+01
4.109740320935e+00
2.871400056685e+01
3.123313735815e+01
2.795318404601e+01
1.825197046769e+01
1.482716446562e+01
1.970326879355e+01
2.988472611826e+01
2.940937991044e+01
2.720411674101e+01
2.699801288291e+01
2.026548649102e+01
2.024078520733e+01
2.137576691788e+01
2.344602530989e+01
2.980421536874e+01
2.658870181726e+01
1.922743754746e+01
2.906531290583e+01
3.056342168069e+01
1.964332261228e+01
1.639525050888e+01
2.932612395845e+01
2.649207353642e+01
2.284382279944e+01
2.169371503257e+01
2.793124320170e+01
2.123790870698e+01
3.039234610166e+01
2.644147317593e+01
2.919238948438e+01
2.901137442821e+01
1.695779321093e+01
2.248063924475e+01
3.016254424576e+01
2.713641286985e+01
2.305015239022e+01
5.596699926512e+00
2.454523035567e+01
2.161042715587e+01
3.907720658235e+00
2.288588188075e+01
2.387702906224e+01
2.215464155048e+01
5.855413186033e+00
1.935125514841e+01
1.997741992169e+01
1.651912685520e+01
1.746594897299e+01
1.746248681174e+01
2.344630069207e+01
2.283289185011e+01
7.700913712796e+00
1.208728421544e+01
2.955548840142e+01
1.211233023897e+01
1.548603096967e+01
2.363268165306e+01
-1.809465739320e+01
2.634623251076e+01
2.976253297529e+01
1.569848303144e+01
2.440984481309e+01
1.675620688464e+01
2.720399268327e+01
2.491248324752e+01
2.255211803223e+01
1.694666356823e+01
3.190523895041e+01
2.213260643090e+01
1.846096969611e+01
2.087137670935e+01
1.842355694865e+01
2.090146719259e+01
1.745674759008e+01
1.593164717930e+01
2.212768476771e+01
2.281736882932e+01
1.814200384596e+01
1.474910542348e+01
2.458038298727e+01
2.154723437584e+01
3.062356957446e+01
3.057098776143e+01
2.179652874226e+01
2.638430670114e+01
2.066212040049e+01
1.689444713106e+01
3.062386089196e+01
2.425378930572e+01
1.859139472105e+01
2.344169004507e+01
2.172005304056e+01
2.095985341934e+01
1.945607030723e+01
2.439847406642e+01
1.463156909778e+01
2.162906998114e+01
3.022504988771e+01
2.935401900053e+01
1.913288288404e+01
-4.211941865065e+00
3.826842995921e+00
2.245280857833e+01
1.988943586864e+01
1.328085403198e+01
1.821220219385e+01
3.108387356550e+01
5.081248724657e-01
2.783730560151e+01
2.464969960248e+01
2.719217599197e+01
2.334570683777e+01
-9.625619681139e+00
1.069690176637e+01
2.691521591416e+01
2.085820034430e+01
2.600978541638e+01
9.027207661767e+00
7.945129473228e+00
2.304947284911e+01
2.798162318207e+01
1.639454273994e+01
2.274851882052e+01
1.473064980892e+01
1.998197347778e+01
2.134870967233e+01
1.576263985327e+01
2.462557399066e+01
2.278595634438e+01
2.231839603883e+01
2.116124256320e+01
2.185619854220e+01
1.719682060322e+01
1.601150891094e+01
1.967857519406e+01
2.310596352903e+01
2.116291327849e+01
1.989475650175e+01
1.707839486662e+01
2.289059840706e+01
1.589584242651e+01
2.671103433129e+01
1.609333188419e+01
2.425202709400e+01
2.516398616523e+01
1.838246120275e+01
2.618787179803e+01
1.735774509064e+01
2.384786938192e+01
2.255218213168e+01
2.046663612557e+01
2.419575133935e+01
2.158887079827e+01
2.600729772001e+01
2.243812962139e+01
1.969779997939e+01
2.163931929468e+01
-1.752670917675e+01
2.243429232154e+01
2.179081486147e+01
2.708203385864e+01
2.642069203490e+01
2.243728506588e+01
-5.520506163656e+01
2.469998381255e+01
2.069450898588e+01
2.255926744533e+01
2.027287219233e+01
2.529841367265e+01
2.226753797923e+01
2.973019138644e+01
2.690603230443e+01
2.118526062879e+01
-1.858689391158e+01
1.688801412519e+01
2.325800135103e+01
1.271975413673e+01
2.195150405275e+01
2.199161602692e+01
1.633348585244e+01
1.759036861805e+01
2.646287152168e+01
1.780462224615e+01
2.203647748512e+01
-3.420454939768e+00
1.041234947957e+01
2.169806797509e+01
-7.953268319755e+00
1.984215636869e+01
2.454158158131e+01
-3.380160140915e-01
2.052458832120e+01
2.679219333850e+01
2.711466198865e+01
2.139833220371e+01
2.211356789288e+01
2.155182811377e+01
2.376824316602e+01
1.911873430900e+01
2.548416157476e+01
2.395122601382e+01
2.114873381026e+01
2.794659368041e+01
3.009957235841e+01
2.875976752744e+01
2.592935953624e+00
2.152566890062e+01
1.123509182658e+01
2.093388622696e+01
2.738736837248e+01
2.248049121830e+01
1.971215086325e+01
8.999999999681e+01
2.598673923948e+01
1.517130755965e+01
2.237576695651e+01
1.807832476759e+01
2.474677831473e+01
2.433680593929e+01
2.251205697299e+01
2.591061660627e+01
2.657338205494e+01
1.299268227916e+01
2.213571121574e+01
2.924713035568e+01
2.337508668940e+01
-2.108422652714e+00
1.969215940559e+01
2.791426990335e+01
1.902532539072e+01
2.154799606300e+01
1.958646249772e+01
2.377932654334e+01
2.448126467385e+01
2.569675427240e+01
2.893601298586e+01
2.412650650513e+01
2.380475462248e+01
2.308200282447e+01
2.601886277700e+01
2.533068871430e+01
2.172130122376e+01
2.681739790146e+01
1.956623790416e+01
2.454555561900e+01
2.795334583242e+01
2.181486044915e+01
1.625524649264e+01
1.857892330866e+01
2.102867111896e+01
2.263829378977e+01
2.767923450581e+01
2.739200794421e+00
2.145614920551e+01
1.709864715888e+01
2.533113793712e+01
2.079192796664e+01
2.354111745346e+01
2.044879171716e+01
1.113346750426e+01
2.783348634838e+01
2.390127906996e+01
2.577061893658e+01
1.326301407853e+01
1.881016899347e+01
2.558503914828e+01
-1.051790874361e+00
2.087535014348e+01
2.643480572483e+01
2.379334035667e+01
2.173923103922e+01
-5.241756671054e+01
2.583651298552e+01
2.495616224329e+01
2.106513536857e+01
2.689318839250e+01
2.425898369822e+01
6.268293804954e-01
2.286826895061e+01
2.073966008071e+01
2.124985222334e+01
2.083628468511e+01
2.211837604839e+01
2.051107198825e+01
-4.438188390878e+01
1.187892840345e+01
1.833140533687e+01
8.798763879713e+01
2.021197858771e+01
2.381663903292e+01
1.324472482733e+01
2.637727638154e+01
2.648978767282e+01
1.073364283896e+01
-1.085708684152e+01
1.809955378112e+01
2.295879518947e+01
8.999999999681e+01
7.277373030943e+00
-9.659403583408e+00
1.722713130200e+01
2.189131571793e+01
1.320131695197e+01
2.227844454432e+01
1.765392011139e+01
2.133486456534e+01
2.320806986248e+01
2.935658173391e+01
1.824539366513e+01
1.669820121253e+01
2.133809349139e+01
2.069539454286e+01
1.897287646246e+01
2.037125940107e+01
2.418695298869e+01
2.310154595518e+01
9.036013378091e+00
2.330929679561e+01
7.934860786540e-01
1.988820249278e+01
2.113773469601e+01
-1.466127427116e+01
1.854382093552e+01
1.616062916890e+01
8.999999999681e+01
-4.641903507685e+00
-8.963383308211e+00
2.571246001859e+01
1.671059839107e+01
2.390729379714e+01
2.320708631242e+01
2.157773911049e+01
2.234908395473e+01
1.188689277502e+01
2.084247534827e+01
-3.290638057167e-01
1.737834878537e+01
-1.943831360852e+01
-2.539118518015e+01
8.614169442926e+01
-1.563244196479e+01
3.870572614409e-01
1.428137935349e+01
-1.458186036051e+01
1.935932749650e+01
2.965681043115e+00
1.667012788997e+01
4.314965651524e+00
-2.378030026435e+01
2.144049467979e+01
2.362720052206e+01
-1.261313831821e+00
1.725823834652e+01
1.862461833013e+00
1.822033535621e+01
1.748135803432e+01
-5.764496292969e+00
-1.733290977240e+01
1.734980964328e+01
1.728809748108e+01
1.579598026002e+01
-1.888549214704e+01
-1.440902828792e+01
1.409418035869e+01
2.075357084139e+01
1.731722000566e+01
-1.550698453263e+01
8.614149583965e+01
3.218819310827e+00
2.177500117679e+01
2.072096274880e+01
9.789555591676e+00
1.165198662029e+01
-2.004657571429e+00
2.580841211787e+01
-2.901456772690e+01
1.350163485075e+01
2.579649643160e+01
2.088595722333e+01
3.995239973362e+00
1.887486404738e+01
-1.382552817321e+01
2.113082658536e+01
1.743478515931e+01
1.716771035090e+01
-2.539146696100e+01
2.570014761652e+01
1.795678682413e+01
2.461801678853e+01
1.474779521641e+00
-1.444425230852e+01
-1.474801725085e+01
1.816108774855e+01
2.074968502627e+01
1.596871015260e+01
8.614153223596e+01
1.924242843194e+01
2.056319928482e+01
2.080734173757e+01
2.127670568592e+01
9.011534406510e+00
1.274993271539e+01
2.055147427189e+01
2.056198880049e+01
1.165902275660e+01
8.615374805598e+01
-2.430464700495e+01
-2.549767216364e+01
8.614174866698e+01
2.058780965133e+01
2.120239641498e+01
2.060482544336e+01
8.667055588572e+01
8.799807298927e+01
2.065862693745e+01
2.063148606874e+01
7.323358514029e+00
-2.391621287191e+01
1.044140566780e+01
-5.095884490492e+00
-2.378372185238e+01
8.999999999681e+01
-6.097533429654e+01
-6.150623806103e+01
-6.127663895504e+01
1.955103850315e+01
1.891326568676e+01
-5.620746986604e+01
2.048221821773e+01
-5.622609414072e+01
1.975115005051e+01
1.775647319017e+01
1.852443684851e+01
9.611531808851e+00
1.605408939450e+01
1.759809893144e+01
2.073427645339e+01
1.757826627660e+01
2.073133565806e+01
2.069009969696e+01
1.855381720486e+01
1.718327628197e+01
1.721638479563e+01
2.071817870153e+01
2.070539867708e+01
2.084070592139e+01
-2.579533669582e+01
1.929771468254e+01
-1.679284942440e+01
2.140230689670e+01
2.032495565960e+01
2.113533425817e+01
1.321943420683e+01
-2.869931306462e+00
2.094057635543e+01
1.980967790771e+01
1.786480850764e+01
2.099751852718e+01
1.439274672833e+01
1.774056204108e+01
2.337299031426e+01
2.249164576764e+01
2.102045206074e+01
2.089575769473e+01
3.050818683511e+01
1.804961565199e+01
2.639560102201e+01
2.144671735225e+01
2.088628220809e+01
2.081373353026e+01
1.541293649290e+01
1.423802167652e+01
1.234403555327e+01
-1.487861270552e+01
2.172641485096e+01
2.120959503137e+01
1.440336364117e+01
1.343725482414e+01
2.234083647580e+01
2.081937405143e+01
1.187134863390e+01
2.072066650824e+01
2.116619455371e+01
1.423875810360e+01
8.106505985493e+00
2.323800414149e+01
1.351561438132e+01
1.512138470548e+01
-9.233538033832e-01
-2.522101837366e+00
1.341210465703e+01
2.084026516776e+01
-1.274523417549e+01
1.807448505278e+01
-9.006113920673e+00
2.114957833601e+01
2.089632609158e+01
2.282758048411e+01
2.081279881990e+01
-1.313339326195e+01
2.569229176309e+01
2.101899727584e+01
1.330087949272e+01
2.144194218239e+01
9.857649098656e+00
1.445225214360e+01
1.725486534642e+01
2.012360517844e+01
3.131060811548e+00
1.851738912144e+01
1.132211867885e+01
6.399854263644e+00
2.066431409475e+01
2.078592563663e+01
2.089697835439e+01
9.843960143033e+00
1.122862521167e+01
2.014578361278e+01
2.439579704792e+01
1.101186104746e+01
1.957663131485e+01
2.196349307547e+01
2.170028881291e+01
8.031743722454e+00
2.441082418904e+01
-8.849984446148e-02
3.067862279390e+01
2.098031878297e+01
5.862724273881e+00
2.026307341614e+01
-3.956595738790e+00
2.287237980600e+01
2.054614973975e+01
2.102182741435e+01
1.369047005145e+01
2.131621139669e+01
2.030987630214e+01
1.461412849719e+01
1.987176956390e+01
1.865929356799e+01
1.636387157842e+01
2.042176033580e+01
-5.486704335571e+01
-5.468284593164e+01
2.097246669132e+01
1.264028601205e+01
2.138496434439e+01
2.164669941041e+01
2.067182794953e+01
2.259068317239e+01
1.302444080011e+01
2.678526915110e+01
1.884451759481e+01
2.273844525331e+01
1.058546600173e+01
8.440985293371e-01
-7.831677945348e+00
9.439090498732e+00
2.206003228683e+01
9.262294806321e+00
1.233482798989e+01
1.390258878263e+01
1.396710025623e+01
1.385700331273e+01
2.054005616181e+01
1.423854421283e+01
2.100142721483e+01
2.047323994065e+01
1.699838443900e+01
1.305276384090e+01
2.117279104664e+01
2.143625002959e+01
1.096368919667e+01
2.120006080844e+01
9.131797616972e+00
2.027063296769e+01
6.025883810247e+00
1.074664786498e+01
2.885333443522e+01
1.207665742596e+01
1.968862247144e+01
2.028659623892e+01
1.782614218692e+01
2.030180849050e+01
7.596862885657e+00
2.328035797596e+01
1.509861168281e+01
3.728541923680e+00
7.738602731567e+00
1.515955006340e+01
2.152174025819e+01
9.453964892632e+00
2.135446112670e+01
2.169464595940e+01
1.930973494266e+01
1.371688898852e+01
6.083248485837e+00
2.161384241293e+01
3.823094535133e+00
-1.301811994250e+00
1.811064111801e+01
1.247473452614e+01
3.474548554422e+00
1.827378913907e+01
2.207688069763e+01
1.770185501442e+01
1.232476678341e+01
1.710342991896e+01
2.215167328861e+01
1.415512315486e+01
2.192282163480e+01
1.993774311637e+01
2.163188651583e+01
3.058585097661e+01
1.225084187663e+01
-2.514532916567e+00
2.513402983986e+01
2.390685081876e+01
3.958582639343e+00
1.741739884278e+01
5.124535768343e+00
1.130111597772e+01
2.170217122254e+01
2.513212990694e+01
2.529066197483e+01
1.486651649061e+01
2.330322193269e+01
1.081533196474e+01
2.271368559508e+01
2.188835339902e+01
2.189039996239e+01
2.135748275979e+01
9.501101338933e+00
2.423448014831e+01
2.228739259839e+01
-3.298802604982e+00
1.550402398801e+01
1.789670582188e+01
2.476688542389e+01
2.196618002886e+01
2.100022373111e+01
2.558703739250e+01
7.287286803372e+00
4.506061334973e-01
-9.136507114691e-01
2.013190552832e+01
2.246188907606e+01
2.320649544256e+01
-3.183334701837e+00
1.945969720279e+01
2.483207688544e+01
2.236026523715e+01
1.071617769215e+01
2.009171663818e+01
1.899397801352e+01
1.135365386013e+01
2.301661040155e+01
1.904326955654e+01
5.661659186536e+00
3.260446564040e+00
2.815893129113e+01
1.823618640066e+01
3.087278141921e+01
1.837267565779e+01
1.967212931477e+01
1.250825510011e+01
2.291855615488e+01
2.331937233869e+01
1.205352885120e+01
2.429365766391e+01
2.334816439820e+01
2.362463803311e+01
2.703831555962e+01
1.272368560142e+01
2.231658969670e+01
2.203393855044e+01
2.362948079774e+01
2.096235945831e+01
2.354308628166e+01
5.324239862499e+00
1.996577843589e+01
2.507644482915e+01
1.686484116093e+01
2.034442948344e+01
2.117000616276e+01
1.588057897539e+01
1.476890159137e+01
2.274193974743e+01
2.281947919833e+01
2.290144473294e+01
-5.800470763444e+01
2.695349891005e+01
2.514854607417e+01
2.220398882491e+01
2.539341328832e+00
2.356285297708e+01
1.748151395076e+01
2.218736628226e+01
1.102760283305e+01
1.732821080395e+01
2.877476627154e+00
8.781614132639e+00
2.143045589937e+01
1.983782135472e+01
2.598251638357e+01
2.311113130761e+01
1.363851679651e+01
9.548436684113e+00
2.204730368685e+00
1.580522295437e+01
2.332217280527e+01
2.339434081053e+01
1.372194312324e+01
1.316736315887e+01
2.245110690894e+01
2.851254192409e+01
2.353691114998e+01
1.786738441797e+01
2.174822958444e+01
2.844831247632e+01
2.893529525994e+01
1.342514241917e+01
1.959595944789e+01
2.378646874361e+01
2.465366260129e+01
1.648159130310e+01
2.431458849730e+01
2.550631502961e+01
2.750888548780e+01
1.897906306709e+01
2.554288982097e+01
7.610575916009e+00
2.842146261165e+01
2.278733792316e+01
2.144373547247e+01
2.257263521045e+01
2.509323181145e+01
2.229830523291e+01
2.036233338883e+01
1.921525287675e+01
1.531927340319e+01
1.500285611506e+01
2.571347303267e+01
2.671945636658e+01
1.713110469253e+01
2.431784408377e+01
1.463224925226e+01
1.659733053815e+01
9.507724058504e+00
2.344961373802e+01
1.407954997195e+01
2.501822444280e+01
-4.620480205021e-01
1.201881238256e+01
2.620232083448e+01
2.745549940966e+01
1.502413659129e+01
2.258083041810e+01
9.377082444192e+00
2.517033447787e+01
2.017615996594e+01
1.101094828740e+01
2.302448785063e+01
2.219393306295e+01
2.269190423263e+01
2.940781932610e-01
-5.038550194883e+00
2.391671161807e+01
2.307189488261e+01
2.323881225259e+01
6.804988532731e+00
3.098437180588e+01
2.858639032000e+01
2.711132072134e+01
2.616360122844e+01
1.564227846989e+01
1.807486141919e+01
1.400956500503e+01
2.037132573402e+01
1.314581035111e+01
2.255382256303e+01
1.486433596859e+01
1.005614635664e+01
2.255763719975e+01
2.926098815469e+01
1.073134107433e+01
1.405964223574e+01
1.055316497722e+01
9.073082678583e+00
2.233514497130e+01
2.376456518763e+01
2.279792110295e+01
2.297808524057e+01
1.489775279122e+01
2.481331910823e+01
1.252278677163e+01
1.469182866728e+01
2.751012536666e+01
2.715584563329e+01
2.674415259051e+01
3.151736372984e+01
2.830430680581e+01
2.601931398450e+01
1.786354505949e+01
2.294992773047e+01
6.752950088510e+00
-1.795349493285e+01
2.758742322698e+01
2.278457192718e+01
2.494079546555e+01
1.794656221662e+01
2.830699585213e+01
2.303224464004e+01
5.790362740526e+00
2.469119103581e+01
2.549397434930e+01
2.695924476923e+01
1.798020116545e+01
2.275260079405e+01
2.587017458629e+01
2.287377398213e+01
2.270903910260e+01
2.600222735109e+01
1.068399101701e+01
2.407306686448e+01
2.240340113688e+01
2.265198806705e+01
8.022624548957e+00
2.368413243674e+01
1.189798144843e+01
2.678064034456e+01
2.833043946092e+01
2.117292623731e+01
2.991411311472e+01
1.297504553355e+01
1.546554648911e+01
2.062270336558e+01
2.392950484286e+01
1.489825961664e+01
2.282601034599e+01
2.393769675436e+01
9.512594344295e+00
2.173439383999e+01
2.961988976426e+01
2.706108527495e+01
1.470257595607e+01
2.590219038347e+01
2.156164215176e+01
2.755066856072e+01
1.899537523759e+01
1.882486365473e+01
2.191869831603e+01
2.998224737846e+01
9.296376413552e+00
3.116378960531e+01
2.229655561711e+01
1.862792862258e+01
1.693979006863e+01
2.565181718071e+01
2.535127252543e+01
2.411361559063e+01
2.419638253402e+01
1.325238735932e+01
2.361234933812e+01
7.414432817024e+00
1.810665825461e+01
1.251785625789e+01
1.390904890411e+01
2.878608211002e+01
2.188489647250e+01
1.144122509775e+01
2.827038218746e+01
1.683474477781e+01
2.297412101316e+01
3.178881598777e+01
1.635293522520e+01
2.481231085081e+01
1.154823817149e+01
2.626787817211e+01
2.520958391321e+01
1.550148670954e+01
1.656675642635e+01
2.528336830092e+01
1.328067423068e+01
2.942944471668e+01
2.297646679582e+01
1.570122654301e+01
2.072056021433e+01
1.602008867857e+01
1.663045445991e+01
2.868232568202e+01
1.684308678619e+01
2.626541521212e+01
2.778887460490e+01
2.767742635963e+01
3.022529082064e+01
2.904655854351e+01
1.404398721133e+01
1.959068919172e+01
2.215244953600e+01
2.400740266568e+01
2.658665979401e+01
1.369863462230e+01
2.853296673046e+01
2.154727402884e+01
1.227668855230e+01
1.350276582282e+01
2.627120584083e+01
2.936364506556e+01
2.284052425495e+01
1.978221122315e+01
2.781378759089e+01
3.124988012807e+01
2.546661692552e+01
2.362541135787e+01
2.127849200478e+01
1.189542800253e+01
2.884423546321e+01
2.313422863011e+01
2.471069786591e+01
1.300525427738e+01
2.246330256319e+01
7.439621935293e+00
2.376168523113e+01
2.764685971253e+01
2.430683093067e+01
2.610027523304e+01
1.505064330674e+01
2.207813284377e+01
2.703416898521e+01
3.164172239642e+01
2.426061031550e+01
2.598478132453e+01
2.914845772308e+01
2.625762464383e+01
2.341495634511e+01
3.057044304867e+01
2.778772512435e+01
1.625015232322e+01
2.113515155356e+01
1.806095715930e+01
2.419618290659e+01
1.468494628504e+01
1.063477786051e+01
2.106857832061e+01
2.444179140336e+01
2.194932364793e+01
1.076049264906e+01
1.649356853395e+01
1.294449405451e+01
3.013234599391e+01
2.362736437793e+01
1.484404619626e+01
2.737826383774e+01
2.663691305308e+01
2.950300753592e+01
1.273489561320e+01
2.235437253712e+01
2.645765363415e+01
2.274551074520e+01
2.524762760399e+01
2.308044605821e+01
2.899614181245e+01
2.878892793242e+01
1.719625086512e+01
2.146831088502e+01
2.697223626380e+01
2.377093930377e+01
1.145182824248e+01
2.232310751390e+01
2.850435003807e+01
2.872369369371e+01
2.102635023888e+01
2.447736633588e+01
2.552007635487e+01
2.325482694267e+01
1.922105817819e+01
2.272985551270e+01
2.864985414580e+01
8.804495095624e+00
2.190840650045e+01
2.975171660911e+01
2.135599666432e+01
2.626768903459e+01
3.041743949091e+01
2.391256660256e+01
2.759890336522e+01
2.359478301072e+01
2.494505369324e+01
2.162386473472e+01
2.336238365388e+01
3.092326089190e+01
2.180603282604e+01
1.571768964983e+01
2.256708758833e+01
2.455046599800e+01
2.864814630930e+01
2.378522391151e+01
2.104861406959e+01
2.001201854098e+01
2.394657832498e+01
8.361262067748e+00
2.162655923972e+01
2.243030125137e+01
-2.394870093793e+01
-2.403642520174e+01
1.630019480719e+01
2.417301265292e+01
2.159184897475e+01
2.069764694856e+01
2.695381308910e+01
2.330455932808e+01
2.879052568045e+01
1.861743552626e+01
8.399934015886e+00
2.669897804444e+01
2.252700539823e+01
3.123597523151e+01
2.210402764038e+01
2.436371592922e+01
2.277734256601e+01
1.029897180214e+01
2.140294093506e+01
2.099686392247e+01
7.706252374980e+00
2.218384497469e+01
2.199313460946e+01
1.888915148696e+01
1.872703742970e+01
2.400364739811e+01
1.276744579558e+01
2.936506272858e+01
2.529140392846e+01
2.140353167388e+01
2.271267043786e+01
2.402410864885e+01
1.123773626365e+01
2.671794695312e+01
2.200984773604e+01
2.445913828438e+01
3.101896285622e+01
2.237587189819e+01
1.440954496296e+01
2.091618550533e+01
2.178402163008e+01
-2.961160119125e-01
2.453127077233e+01
2.469993373811e+01
-1.330235387716e-02
1.434070039994e+01
2.989752973764e+01
1.951564546459e+01
2.311331866092e+01
2.668490243357e+01
2.494432309848e+01
1.545079094388e+01
2.445714435633e+01
2.587879127993e+01
2.548808370642e+01
3.036734795449e+01
3.018588405361e+01
2.359390246778e+01
1.159195458577e+01
2.384703237599e+01
2.792681801210e+01
1.686550528061e+01
2.313867151710e+01
9.703195105500e+00
2.365327885255e+01
2.151280559820e+01
2.486224671070e+01
2.243738558537e+01
2.228792137523e+01
1.731337025068e+01
2.536540048437e+01
2.367227352164e+01
2.768000402216e+01
2.389598939243e+01
2.739452762171e+01
3.128742214547e+01
2.716963735741e+01
3.100540131030e+01
2.029428422997e+01
3.027791328644e+01
2.148765708918e+01
2.418968585194e+01
2.484971370363e+01
2.810394522563e+01
1.014452027718e+01
2.147326912526e+01
2.127157868962e+01
2.278174623076e+01
2.212290553175e+01
2.104801312764e+01
1.675989989935e+01
2.118831483979e+01
2.836052150247e+01
2.122132841671e+01
3.146920286868e+01
2.010998323317e+01
2.584772292416e+01
1.126156582309e+01
1.024689057363e+01
2.511974443114e+01
2.099505623292e+01
2.154255132795e+01
2.108833285080e+01
2.437461443399e+01
2.621048854578e+01
2.510878644447e+01
2.788424203661e+01
3.072348314402e+01
1.562137419931e+01
9.579120517893e+00
-2.409205787679e+01
2.454241021749e+01
2.805096482711e+01
2.325537849176e+01
2.080012849763e+01
2.703902664364e+01
2.095321925129e+01
2.948350047593e+01
2.364124424284e+01
2.525042604473e+01
2.517396047823e+01
2.323847453580e+01
2.157709947334e+01
2.289626518082e+01
2.695609467522e+01
2.229932940845e+01
2.765151970266e+01
2.537016682228e+01
2.779932499810e+01
2.209845156838e+01
2.190793303765e+01
2.735458064385e+01
2.703167011375e+01
2.100353305736e+01
6.666031116190e+00
2.165266296912e+01
2.240786283885e+01
1.261246473245e+01
2.052541311856e+01
2.022213908567e+01
3.464993356783e+01
2.028844389532e+01
2.639629639279e+01
2.075736535293e+01
1.637632406024e+01
2.840668173223e+01
2.477345181952e+01
2.451186481958e+01
2.634595342192e+01
2.096697080311e+01
2.768459470457e+01
2.144249637494e+01
2.096608823422e+01
1.739502445805e+01
5.903378002180e+00
1.344208125100e+01
2.065308940087e+01
1.161842067175e+00
1.354197210597e+01
1.201478938174e+01
2.064517279988e+01
2.890343239581e+01
2.775303169615e+01
3.004526533830e+01
2.136606053044e+01
1.583995245392e+01
2.081264063770e+01
2.996638465217e+01
2.237438104158e+01
-7.857730881581e+00
2.509655767224e+01
2.057137669999e+01
2.099907635874e+01
2.065391432948e+01
2.803657976075e+01
2.069475495946e+01
5.288297403405e+00
-1.656919855762e-02
2.061195093583e+01
2.113852108146e+01
2.537599948102e+01
2.025538496119e+01
2.337055517846e+01
1.079751423422e+01
2.614279551517e+01
2.687906459630e+01
1.617566012375e+01
2.052925997303e+01
1.546249345341e+01
8.070282617042e+00
2.086016993974e+01
2.587217728432e+01
2.143205672786e+01
2.106393316468e+01
1.361140039652e+01
2.645414852502e+01
2.394817730776e+01
2.514631753797e+01
2.096148497189e+01
2.075639297749e+01
2.993684520900e+01
4.544360915818e+00
2.728402406633e+01
2.081846132786e+01
2.364920532443e+01
2.286008865218e+01
2.293979274366e+01
1.683573964777e+01
2.166770745349e+01
2.181222678485e+01
6.815158515742e+00
1.743995195356e+01
2.055605655385e+01
-1.715646976297e+01
2.459203106252e+01
2.492609539220e+01
2.963956544350e+01
4.212668564888e+00
3.013329090777e+01
1.492630113727e+01
1.500161648982e+01
1.444317428999e+01
2.273536590867e+01
1.391392049333e+01
2.264567813076e+01
1.444360236577e+01
2.275133556774e+01
2.555659160893e+01
2.504175946181e+01
1.960338746244e+01
2.363443838123e+01
1.732887143736e+01
2.078402842305e+01
2.724677833987e+01
2.229169883622e+01
8.907062921885e+00
2.901177241169e+01
1.604088955358e+01
2.139050854567e+01
2.116779283520e+01
2.559955861441e+01
2.286990471890e+01
2.093597106782e+01
2.359163296774e+01
2.016015888237e+01
2.547556800193e+01
2.763510883875e+01
2.240352713603e+01
2.074536491235e+01
1.756647106505e+01
9.048332020161e+00
2.250694936298e+01
3.065024302977e+01
2.083387400105e+01
1.777667367786e+01
2.510565949553e+01
2.080413568332e+01
2.614805192833e+01
2.436166487694e+01
2.500857356233e+01
1.914802392778e+01
2.750135904326e+01
2.565979869916e+01
2.583112496653e+01
3.911727186270e+00
1.905992611759e+01
2.170717343461e+01
2.512163012198e+01
1.833866318344e+01
1.554843060997e+01
1.516920150238e+01
1.362777038230e+01
-2.143046324184e+01
2.449866086267e+01
1.520586695467e+01
1.617128589063e+01
2.241883782345e+01
2.573943499469e+01
2.295325915451e+01
2.747385675965e+01
-2.399531970623e+01
2.109701161038e+01
1.327025572856e+01
2.403898550203e+01
2.689509085743e+01
1.028790908485e+01
1.954984930360e+01
2.926813735957e+01
7.772361175512e-01
2.956774137721e+01
2.063264420766e+01
1.798714260594e+01
9.591973017757e+00
1.994540891370e+01
2.172212497126e+01
2.437160803130e+01
2.200294181612e+01
1.547719063283e+01
2.709547714326e+01
2.518658696222e+00
6.243601495643e+00
2.289413704410e+01
2.081960410300e+01
-9.924668649096e+00
1.656189851489e+01
2.164834836047e+01
2.798725573875e+01
2.553892848758e+01
2.272523003046e+01
8.969558045629e+00
1.466787437651e+01
2.020234599407e+01
2.065202728358e+01
2.740483876365e+01
2.300713222135e+01
2.494021332421e+01
-6.516096827630e+00
2.851793865451e+01
1.612867713749e+01
2.482944536343e+01
2.095392047387e+01
2.108722439136e+01
2.614212489845e+01
-8.804178913266e+00
8.240948317297e+00
2.614411401444e+01
2.292876846967e+01
2.460874997389e+01
2.632028358094e+01
2.466211174196e+01
2.660280030822e+01
2.342334931753e+01
1.400952761735e+01
2.434967641720e+01
1.498145167279e+01
1.232294090856e+01
1.714451007937e+01
2.072009557782e+01
-9.673730067128e+00
2.346277279987e+01
2.013697061296e+01
2.409783703391e+01
2.058268291553e+01
2.759008745987e+01
2.622780807413e+01
2.383192632213e+01
-1.519757209787e+01
1.513177439123e+01
2.179548813149e+01
2.398727417561e+01
1.998556775063e+01
-7.709338701067e+00
1.928045231378e+01
2.066727608166e+01
7.157870554853e+00
2.389209647197e+01
3.362252057382e+00
-1.834657726553e+01
-1.050332144649e+01
-6.679923209713e+00
2.785355376605e+01
1.827178589755e+01
1.638231213968e+01
1.341944191732e+00
2.233000285180e+01
2.068471294910e+01
1.998834668095e+01
1.593360200249e+01
1.889289512469e+01
1.834915904223e+01
2.168391916892e+01
1.765464674993e+01
1.511315476136e+01
2.185428745083e+01
7.012444452825e+00
-1.830185238841e+01
2.313073344725e+01
-5.904891660587e+00
-1.956975983811e+01
1.763392567071e+01
-2.097124408714e+01
1.632942776317e+01
2.264281546242e+01
-2.153066595685e+01
8.681929773953e+00
1.639690321367e+01
7.065338898425e+00
1.561018435557e+01
2.057064482995e+01
1.931594206013e+01
2.911582152319e+01
2.639183644754e-01
1.885568043800e+01
2.448183538037e+01
2.217433297314e+01
1.058253586694e+01
2.215702470945e+01
2.482351243308e+01
2.095819419192e+01
2.716739770662e+01
6.354842936136e+00
2.215307598398e+01
1.785294574887e+01
1.707882359629e+01
-1.783994088393e+01
6.913996973912e+00
2.003337589801e+01
2.158698902413e+01
1.737246353649e+01
2.379562950741e+01
2.469496206824e+01
-2.351532556883e+01
1.739113384895e+01
1.708593477595e+01
1.743134957911e+01
8.650151752396e+01
-5.047088185365e+01
-2.340068961441e+01
-2.300304643263e+01
2.055849565475e+01
2.066082206615e+01
-1.856088171376e+01
9.577697260746e+00
2.084355006302e+01
2.352409977478e+01
9.859117802601e+00
2.110958357855e+01
2.030979740364e+01
1.981878299050e+01
4.207114999251e+00
1.594907790987e+01
2.512736750766e+01
6.300708422300e+00
1.941424593961e+01
2.139444367451e+01
1.453833280599e+01
1.966925108785e+01
-2.455666436838e+00
2.318714685360e+01
2.081740777341e+01
2.042552252139e+01
-2.233710367812e+01
2.569922949436e+01
1.841580750082e+01
1.513973621394e+01
-1.979249854405e+01
2.258303088732e+01
2.440073944278e+01
1.598541316147e+01
7.355632479753e+00
2.069011441804e+01
2.330072969439e+01
2.330222874280e+01
2.052767005602e+01
2.207825730058e+01
2.341255976211e+01
1.910138890236e+01
1.076640567666e+00
2.593377673243e+01
1.556157840802e+01
2.200633065804e+01
4.630512552798e+00
-3.369494134799e+00
2.356357250440e+01
8.315661958055e+00
1.698856302059e+01
1.678048866609e+01
9.807855859566e+00
2.301732904040e+01
-1.012918465167e+01
2.223311794022e+01
2.405743538417e+01
4.572064004835e+00
2.188429224098e+01
1.764239679384e+01
1.623678712975e+01
2.521854526276e+01
1.596644063825e+01
2.233159277807e+01
2.331661186331e+01
2.424615155291e+01
2.059751162979e+01
2.030126725078e+01
8.249281534797e+00
2.131859606192e+01
2.069507679647e+01
2.845664129207e+00
2.071668851173e+01
2.343371408380e+01
2.085782530194e+01
1.128414430048e+01
2.210989615932e+01
2.180033313442e+01
2.198639707557e+01
1.720744727467e+01
2.088277884588e+01
-1.192997138417e+01
1.506247420680e+01
-2.800031639947e+00
1.382302347259e+01
7.624200511822e+00
1.676201391179e+00
2.843053004625e+01
2.127176528962e+01
1.670473756889e+01
1.529590956031e+01
2.305024371189e+01
-3.040425716597e+00
-1.910388395304e+01
2.174148527097e+01
-1.515427469854e+01
3.049287909888e+00
3.029327087331e+01
1.918003369796e+01
2.076447748716e+01
1.951208123702e+01
9.110538111265e+00
1.862799088094e+01
2.163726606365e+01
2.302139867025e+01
2.313873008562e+01
2.242097367787e+01
2.171006858826e+01
-3.986189650295e+00
1.965627523013e+01
2.086420584692e+01
2.448826042913e-01
4.721613735629e+00
2.598407888549e+01
-5.938634218256e+00
2.123859216131e+01
2.198678128558e+01
1.563087157330e+01
2.230996546865e+01
2.307883495006e+01
1.298098451699e+00
1.893067720871e+01
2.442778994334e+01
-2.413389429398e+01
1.151792462120e+01
-1.798207750046e+01
2.078517884631e+01
3.239884041898e+00
6.671216873562e+00
1.908840740808e+01
2.218542807640e+01
1.552279236215e+01
1.896169405259e+01
1.637873695209e+01
1.863521442860e+01
2.122530517169e+01
1.715282891039e+01
2.072559624646e+01
-1.925979685022e+01
2.231069123407e+01
6.088768472094e+00
1.681537944869e+01
-2.105037543639e+01
2.143128801283e+01
1.853598300211e+01
1.707393884193e+01
2.327662713023e+01
9.974106318161e+00
1.664933362611e+01
2.128303894991e+01
5.306651835016e+00
2.196537396840e+01
1.743694444328e+01
7.672691156217e+00
2.154523959744e+01
1.777894863045e+01
-2.361701884009e+01
2.323845962529e+01
1.650537385300e+01
8.614421565465e+01
-2.366743557082e+01
2.064335363590e+01
9.126737583149e+00
2.338262842365e+01
1.801068279773e+01
1.630318499688e+01
9.254707680645e+00
2.489132117520e+01
2.005062311220e+01
1.267726893797e+01
7.823936191829e+00
1.798441210119e+01
3.790695208303e+00
1.442329179670e+01
-7.393347074814e-01
2.298872307806e+01
2.014345461867e+01
3.499586537224e+01
1.737686680103e+01
1.974056542807e+01
2.019492704099e+01
2.303093628473e+01
1.952567705827e+01
1.975218021854e+01
-6.262321466596e+00
2.126820491037e+01
2.289631533485e+01
2.606248585651e+01
1.651015176706e+01
2.062538378000e+01
-1.858800776908e+01
3.760756024874e+00
1.945969141574e+01
1.955695274792e+01
1.982743162400e+01
2.358176414084e+01
9.655152513322e+00
2.271021276435e+01
-1.127289470752e+01
1.726471502103e+01
2.319773036043e+01
-5.220971084628e-01
2.142320312601e+01
2.314952292837e+01
2.309321619906e+01
2.681275040982e+01
2.127602577445e+01
2.207480723964e+01
-4.368826465312e+00
1.918535689122e+01
2.482952937144e+01
2.149979465944e+01


